,Time,S11,S22,S33,S12,S13,S23,LE11,LE22,LE33,LE12,LE13,LE23,SDV_EPBAR,E11,E12,E13,E22,E23,E33
0,1e-05,0.376074,-1.38778e-17,0.0,-1.62151e-40,1.53147e-18,-3.06296e-18,4.99999e-06,-1.5e-06,-1.5e-06,0.0,0.0,0.0,0.0,5.000002500032963e-06,0.0,0.0,-1.4999988749986315e-06,0.0,-1.4999988749986315e-06
1,2e-05,0.752145,5.55112e-17,2.77556e-17,-1.21613e-40,-9.95458e-24,-1.53148e-18,9.99995e-06,-2.99999e-06,-2.99999e-06,0.0,0.0,0.0,0.0,9.999999999621423e-06,0.0,0.0,-2.999985500018454e-06,0.0,-2.999985500018454e-06
2,3.5e-05,1.31625,1.52656e-16,8.32667e-17,-1.01344e-39,-3.06294e-18,1.53148e-18,1.74998e-05,-5.24995e-06,-5.24995e-06,0.0,0.0,0.0,0.0,1.749995312239072e-05,0.0,0.0,-5.2499362190872034e-06,0.0,-5.2499362190872034e-06
3,5.75e-05,2.1624,4.30211e-16,4.16334e-16,-6.89136e-40,-3.06289e-18,-4.59443e-18,2.87496e-05,-8.62488e-06,-8.62488e-06,0.0,0.0,0.0,0.0,2.875001327362625e-05,0.0,0.0,-8.624842805837751e-06,0.0,-8.624842805837751e-06
4,9.125e-05,3.4316,-6.245e-16,-4.71845e-16,7.70231e-40,3.06295e-18,7.65739e-18,4.5624e-05,-1.36872e-05,-1.36872e-05,0.0,0.0,0.0,0.0,4.56250407905312e-05,0.0,0.0,-1.3687106330650955e-05,0.0,-1.3687106330650955e-05
5,0.00014188,5.33537,-2.45637e-15,-2.47025e-15,1.9053e-39,-3.06286e-18,-4.59443e-18,7.0935e-05,-2.12805e-05,-2.12805e-05,0.0,0.0,0.0,0.0,7.093751594666742e-05,0.0,0.0,-2.1280273571733233e-05,0.0,-2.1280273571733233e-05
6,0.00021781,8.19093,-1.75554e-14,-1.77913e-14,1.90532e-39,-3.06271e-18,-4.59443e-18,0.0001089,-3.26701e-05,-3.26701e-05,0.0,0.0,0.0,0.0,0.00010890592982026881,0.0,0.0,-3.266956633807272e-05,0.0,-3.266956633807272e-05
7,0.00033172,12.4741,-9.0164e-14,-9.01779e-14,1.90534e-39,-3.06248e-18,-4.59443e-18,0.000165846,-4.97537e-05,-4.97537e-05,0.0,0.0,0.0,0.0,0.00016585975320815294,0.0,0.0,-4.9752462305208134e-05,0.0,-4.9752462305208134e-05
8,0.00050258,18.8983,-4.61645e-13,-4.61881e-13,1.90537e-39,-3.06214e-18,-4.59443e-18,0.000251258,-7.53772e-05,-7.53772e-05,0.0,0.0,0.0,0.0,0.00025128956793518675,0.0,0.0,-7.537435921023405e-05,0.0,-7.537435921023405e-05
9,0.00075887,28.5336,-2.34325e-12,-2.34349e-12,1.90542e-39,-3.06163e-18,-4.59443e-18,0.000379362,-0.000113808,-0.000113808,0.0,0.0,0.0,0.0,0.0003794339668636848,0.0,0.0,-0.00011380152411522015,0.0,-0.00011380152411522015
10,0.0011433,42.9843,-1.18565e-11,-1.18585e-11,1.9055e-39,-3.06087e-18,-4.59443e-18,0.000571487,-0.000171446,-0.000171446,0.0,0.0,0.0,0.0,0.0005716503298076603,0.0,0.0,-0.00017143130397445638,0.0,-0.00017143130397445638
11,0.00172,64.6552,-5.99549e-11,-5.9957e-11,1.90561e-39,-3.05972e-18,-4.59443e-18,0.000859606,-0.000257882,-0.000257882,0.0,0.0,0.0,0.0,0.0008599755671241383,0.0,0.0,-0.0002578487512951977,0.0,-0.0002578487512951977
12,0.0025849,97.1497,-3.03239e-10,-3.03238e-10,1.90578e-39,-3.058e-18,-4.59443e-18,0.00129163,-0.000387489,-0.000387489,0.0,0.0,0.0,0.0,0.0012924645132839085,0.0,0.0,-0.00038741393583330286,0.0,-0.00038741393583330286
13,0.0035849,134.699,-6.68463e-10,-6.68464e-10,1.90598e-39,-3.05601e-18,-4.59443e-18,0.00179086,-0.000537258,-0.000537258,0.0,0.0,0.0,0.0,0.0017924645474667322,0.0,0.0,-0.0005371137027634365,0.0,-0.0005371137027634365
14,0.0045849,172.23,-7.61585e-10,-7.61586e-10,1.90618e-39,-3.05402e-18,-4.59443e-18,0.00228984,-0.000686952,-0.000686952,0.0,0.0,0.0,0.0,0.0022924636858374647,0.0,0.0,-0.000686716102494711,0.0,-0.000686716102494711
15,0.0055849,209.742,-7.60055e-10,-7.60055e-10,1.90638e-39,-3.05204e-18,-4.59443e-18,0.00278857,-0.000836572,-0.000836572,0.0,0.0,0.0,0.0,0.002792461677887159,0.0,0.0,-0.0008362221712034934,0.0,-0.0008362221712034934
16,0.0065849,247.236,-7.58568e-10,-7.58571e-10,1.90657e-39,-3.05005e-18,-4.59443e-18,0.00328706,-0.000986116,-0.000986116,0.0,0.0,0.0,0.0,0.0032924683059070148,0.0,0.0,-0.0009856299473984809,0.0,-0.0009856299473984809
17,0.0075849,284.71,-7.57031e-10,-7.57031e-10,1.90677e-39,-3.04807e-18,-4.59443e-18,0.00378529,-0.00113559,-0.00113559,0.0,0.0,0.0,0.0,0.003792463258290635,0.0,0.0,-0.00113494546167614,0.0,-0.00113494546167614
18,0.0085849,322.166,-7.55507e-10,-7.55504e-10,1.90697e-39,-3.04609e-18,-4.59443e-18,0.00428328,-0.00128498,-0.00128498,0.0,0.0,0.0,0.0,0.0042924663550065745,0.0,0.0,-0.0012841547667070685,0.0,-0.0012841547667070685
19,0.0095849,343.381,0.0191999,0.0132077,1.63567,-0.824683,-0.000125344,0.00478102,-0.0014559,-0.00149881,-5.43421e-05,1.30858e-05,-4.57708e-09,0.000214837,0.00479246731212557,-5.434062349485291e-05,1.3085885619545934e-05,-0.0014548406917396228,-4.577080048306925e-09,-0.0014976873452440254
20,0.010585,344.98,0.114519,0.110876,2.75741,-1.60369,0.00410013,0.00527853,-0.00165259,-0.0017901,-0.00025443,7.55907e-05,1.3783e-07,0.000689766,0.005292485984369266,-0.0002543976354324462,7.559355704889192e-05,-0.0016512252250538983,1.378300094057039e-07,-0.001788498726617349
21,0.011585,346.334,-0.0125849,-0.00992758,3.77065,-2.27121,0.00103312,0.00577581,-0.00185089,-0.0020832,-0.000453287,0.000140046,2.50206e-08,0.00116602,0.0057925221504875335,-0.00045318428096885466,0.00014005580689890884,-0.001849178159409659,2.502060025832975e-08,-0.0020810316448471866
22,0.012585,347.826,0.0297462,0.0402963,4.77065,-2.96149,0.00375071,0.00627288,-0.0020479,-0.00237482,-0.000646763,0.000201389,1.31214e-07,0.00164165,0.00629259571495977,-0.0006465538938940085,0.00020140928012613024,-0.002045804483508551,1.3121400854743115e-07,-0.0023720023458989603
23,0.013585,349.224,0.00816526,0.0172834,5.73406,-3.61257,0.00291481,0.00676972,-0.00224526,-0.0026671,-0.000836492,0.000262146,1.19879e-07,0.00211785,0.006792686350443056,-0.0008361422380981365,0.0002621803632654185,-0.0022427412891724563,1.1987900716547983e-07,-0.0026635464487225757
24,0.014585,350.629,0.0191643,0.0268462,6.67352,-4.25459,0.00340103,0.00726633,-0.00244231,-0.00295908,-0.00102195,0.000321229,1.74898e-07,0.00259409,0.007292793835322442,-0.0010214279869376064,0.00032128059956026966,-0.0024393299874637675,1.7489801540371275e-07,-0.00295470623794436
25,0.015585,351.996,0.0167264,0.0221816,7.5862,-4.87517,0.00335499,0.00776271,-0.00263938,-0.00325116,-0.00120353,0.000379188,2.20749e-07,0.00307061,0.007792917947861078,-0.0012028060482311975,0.00037925990085740935,-0.0026358998990507754,2.2074902439328525e-07,-0.0032458807021575886
26,0.016585,353.347,0.0206759,0.0240077,8.47491,-5.48092,0.00354457,0.00825886,-0.00283631,-0.00354316,-0.00138124,0.00043584,2.85625e-07,0.00354729,0.00829305846620021,-0.0013802865270733378,0.0004359349920526334,-0.0028322914729526083,2.8562504073015305e-07,-0.003536890415506644
27,0.017585,354.674,0.0222246,0.0231083,9.33991,-6.06992,0.00366495,0.00875479,-0.00303318,-0.00383515,-0.00155525,0.000491325,3.59403e-07,0.00402417,0.008793225256292336,-0.0015540412254487768,0.0004914457198978983,-0.0030285845569866243,3.5940306464254945e-07,-0.0038278052047027167
28,0.018585,355.983,0.0251804,0.0235079,10.1825,-6.64398,0.00384156,0.00925048,-0.00322996,-0.0041271,-0.00172565,0.000545636,4.47202e-07,0.00450122,0.009293397925173252,-0.0017241619221289861,0.0005457848864003356,-0.0032247492908362707,4.4720210001791827e-07,-0.004118595226834221
29,0.019585,357.272,0.0278526,0.0234367,11.0034,-7.20321,0.00401481,0.00974595,-0.00342664,-0.00441901,-0.00189257,0.000598829,5.47438e-07,0.00497845,0.009793596431487472,-0.001890780218671062,0.0005990083338807128,-0.0034207757692700236,5.474381499226411e-07,-0.004409260541581639
30,0.020585,358.543,0.0309518,0.0236632,11.8037,-7.74843,0.0042047,0.0102412,-0.00362322,-0.00471088,-0.00205611,0.000650932,6.61268e-07,0.00545584,0.010293820567897738,-0.0020539976538206384,0.000651143902209883,-0.0036166640586784427,6.61268218626887e-07,-0.00469980120859248
31,0.021585,359.797,0.0341465,0.023846,12.584,-8.28009,0.00439785,0.0107362,-0.00381971,-0.00500271,-0.00221637,0.00070198,7.88552e-07,0.00593339,0.010794039803125655,-0.002213915665584154,0.0007022264456235661,-0.0038124241872738995,7.885523110040538e-07,-0.004990217287482612
32,0.022585,361.034,0.0375593,0.0241285,13.3452,-8.79876,0.004596,0.0112309,-0.0040161,-0.00529448,-0.00237344,0.000752005,9.29567e-07,0.00641109,0.01129420331986175,-0.00237062561831225,0.0007522878266512656,-0.0040080462555500684,9.295674321396774e-07,-0.005280488943444794
33,0.023585,362.256,0.0411167,0.0244423,14.088,-9.30494,0.00479572,0.0117255,-0.00421238,-0.00558621,-0.00252744,0.000801039,1.08415e-06,0.00688893,0.0117945131492454,-0.0025242487126850843,0.00080135991742325,-0.004203520371773628,1.084150587749022e-06,-0.005570636142026464
34,0.024585,363.463,0.0448087,0.0247947,14.8132,-9.79911,0.0050103,0.0122198,-0.00440857,-0.00587788,-0.00267843,0.000849109,1.25142e-06,0.0073669,0.012294766804600288,-0.0026748462067280876,0.0008494695951011266,-0.004398866520004985,1.2514207829994461e-06,-0.005860639059951489
35,0.025585,364.656,0.0486932,0.0252308,15.5214,-10.2817,0.00518359,0.0127138,-0.00460465,-0.00616949,-0.00282652,0.000896246,1.43381e-06,0.007845,0.012794963957926342,-0.0028225291532996133,0.0008966477484591007,-0.00459406485238778,1.4338110279066285e-06,-0.006150497774091379
36,0.026585,365.835,0.0526747,0.0256866,16.2132,-10.7532,0.0053706,0.0132077,-0.00480063,-0.00646105,-0.00297178,0.000942476,1.6317e-06,0.00832323,0.013295306940153795,-0.0029673686327686966,0.0009429202700657058,-0.004789125392951288,1.63170133116175e-06,-0.006440222296867026
37,0.027585,367.001,0.0567817,0.0261872,16.8894,-11.214,0.00554814,0.0137013,-0.0049965,-0.00675254,-0.0031143,0.000987826,1.84406e-06,0.00880156,0.013795592964092496,-0.0031094555980335503,0.000988314060796247,-0.0049840382575460085,1.8440617002291049e-06,-0.006729792830961867
38,0.028585,368.155,0.0609945,0.0267219,17.5503,-11.6645,0.00571611,0.0141946,-0.00519226,-0.00704398,-0.00325415,0.00103232,2.07082e-06,0.00928001,0.014295821701375777,-0.003248860992518754,0.0010328530256931145,-0.0051788035179710645,2.07082214420673e-06,-0.007019229321405196
39,0.029585,369.296,0.0653096,0.0272928,18.1967,-12.1051,0.00587338,0.0146877,-0.00538792,-0.00733535,-0.00339141,0.00107598,2.31189e-06,0.00975856,0.014796094303130003,-0.0033856656647395234,0.0010765590741523834,-0.0053734311922284395,2.3118926724130517e-06,-0.0073085119823667055
40,0.030585,370.425,0.0697171,0.0278961,18.829,-12.5361,0.00601891,0.0151806,-0.00558347,-0.00762665,-0.00352615,0.00111884,2.56719e-06,0.0102372,0.015296410590831755,-0.003519940433853508,0.0011194661349660517,-0.005567911401836656,2.567193295277548e-06,-0.007597640899155045
41,0.031585,371.544,0.0742104,0.0285304,19.4478,-12.9578,0.00615175,0.0156733,-0.00577891,-0.00791788,-0.00365844,0.0011609,2.83661e-06,0.0107159,0.015796770385843484,-0.003651756061796574,0.0011615741052359851,-0.005762244218410872,2.836614023227213e-06,-0.007886616157021353
42,0.032585,372.651,0.0787819,0.0291934,20.0534,-13.3706,0.00627104,0.0161657,-0.00597424,-0.00820904,-0.00378834,0.00120221,3.12004e-06,0.0111948,0.016297071879700642,-0.0037811732928529906,0.001202932944123214,-0.005956429713503852,3.120044867355176e-06,-0.008175437841159927
43,0.033585,373.748,0.0834254,0.0298833,20.6465,-13.7749,0.00637607,0.0166579,-0.00616947,-0.00850014,-0.00391592,0.00124277,3.41735e-06,0.0116737,0.016797416423170786,-0.0039082627835532735,0.0012435425586407867,-0.006150477897101103,3.4173558391970005e-06,-0.008464115952066753
44,0.034585,374.835,0.0881345,0.0305985,21.2273,-14.1708,0.00646618,0.0171498,-0.00636458,-0.00879115,-0.00404124,0.0012826,3.72839e-06,0.0121526,0.017297702107485824,-0.00403308517852663,0.0012834228831524186,-0.006344368961700653,3.728396950508639e-06,-0.008752620828745394
45,0.035585,375.912,0.0929037,0.0313372,21.7964,-14.5587,0.00654083,0.0176415,-0.00655958,-0.00908209,-0.00416437,0.00132173,4.05302e-06,0.0126317,0.01779803038323835,-0.004155711035132792,0.00132260387006089,-0.006538112919103445,4.053028213490961e-06,-0.009040972392705515
46,0.036585,376.98,0.0977275,0.032098,22.3541,-14.9389,0.00659956,0.018133,-0.00675448,-0.00937296,-0.00428535,0.00136018,4.39108e-06,0.0131108,0.01829840107119529,-0.004276180989837286,0.0013611054643680731,-0.006731719773294675,4.391089640787271e-06,-0.009329170728908709
47,0.037585,378.038,0.102601,0.0328792,22.9009,-15.3116,0.00664198,0.0186242,-0.00694926,-0.00966375,-0.00440424,0.00139795,4.7424e-06,0.0135899,0.018798712112133575,-0.004394555557763691,0.0013989275875876395,-0.006925169728214442,4.74241124526209e-06,-0.009617206018431856
48,0.038585,379.087,0.107519,0.0336796,23.437,-15.677,0.00666776,0.0191152,-0.00714393,-0.00995446,-0.00452111,0.00143508,5.10679e-06,0.0140692,0.01929906510638868,-0.004510905167033896,0.0014361102200604048,-0.007118472789659602,5.106803039778285e-06,-0.0099050783547594
49,0.039585,380.128,0.112478,0.0344979,23.9628,-16.0354,0.00667666,0.0196059,-0.00733849,-0.0102451,-0.00463599,0.00147157,5.48408e-06,0.0145484,0.019799357894433323,-0.0046252603855587715,0.0014726532904465461,-0.007311629028745381,5.484095037644465e-06,-0.01019279772938153
50,0.040585,381.16,0.117474,0.0353328,24.4787,-16.3871,0.00666846,0.0200965,-0.00753294,-0.0105356,-0.00474894,0.00150744,5.87408e-06,0.0150277,0.020299794206406263,-0.004737681613289801,0.0015085767588036703,-0.007504638516525164,5.874097252389632e-06,-0.010480294960646508
51,0.041585,382.185,0.122502,0.0361831,24.985,-16.7321,0.00664301,0.0205867,-0.00772728,-0.0108261,-0.00486,0.0015427,6.2766e-06,0.0155071,0.020800067772559494,-0.004848209308653373,0.0015438905737990005,-0.0076975013239898304,6.276619697986874e-06,-0.010767708686095556
52,0.042585,383.201,0.127559,0.0370479,25.482,-17.0709,0.0066002,0.0210768,-0.0079215,-0.0111165,-0.00496923,0.00157738,6.69144e-06,0.0159865,0.021300484502877914,-0.004956903802292745,0.001578624718210797,-0.007890207600970367,6.69146238774232e-06,-0.011054940035482574
53,0.043585,384.209,0.132643,0.037926,25.9699,-17.4034,0.00653996,0.0215666,-0.00811562,-0.0114068,-0.00507667,0.00161149,7.1184e-06,0.0164659,0.021800840007247357,-0.005063805489686768,0.0016127891477708545,-0.008082777262454766,7.118425335850276e-06,-0.011341989119199924
54,0.044585,385.21,0.137748,0.0388165,26.4491,-17.73,0.00646225,0.0220561,-0.00830962,-0.011697,-0.00518235,0.00164503,7.55728e-06,0.0169453,0.022301133955385133,-0.005168944791064001,0.001646383804098095,-0.00827519053897463,7.5573085562830045e-06,-0.011628856047552927
55,0.045585,386.203,0.142874,0.0397185,26.9198,-18.0509,0.00636709,0.0225455,-0.00850352,-0.0119871,-0.00528634,0.00167803,8.00787e-06,0.0174248,0.022801570577195784,-0.005272391893669903,0.0016794386801661787,-0.008467467337690993,8.00790206301194e-06,-0.011915540930760637
56,0.046585,387.19,0.148017,0.0406311,27.3823,-18.3661,0.00625448,0.0230346,-0.0086973,-0.0122771,-0.00538865,0.00171049,8.46999e-06,0.0179042,0.023301945181999795,-0.005374157269358637,0.001711953722461912,-0.008659587896708176,8.470025870455089e-06,-0.012202043878955404
57,0.047585,388.169,0.153174,0.0415535,27.8369,-18.6758,0.0061245,0.0235234,-0.00889097,-0.0125671,-0.00548934,0.00174243,8.94341e-06,0.0183837,0.02380225743915898,-0.005474301103637336,0.0017439489132242691,-0.008851562203888164,8.943449992360186e-06,-0.012488463753341339
58,0.048585,389.141,0.158343,0.042485,28.2837,-18.9803,0.00597721,0.024012,-0.00908453,-0.0128569,-0.00558844,0.00177387,9.42793e-06,0.0188632,0.02430260944818552,-0.005572853717035309,0.00177544423808218,-0.009043390329782963,9.427974443143583e-06,-0.012774603132946982
59,0.049585,390.107,0.163522,0.0434248,28.7231,-19.2797,0.00581272,0.0245004,-0.00927798,-0.0131467,-0.00568599,0.0018048,9.92336e-06,0.0193427,0.024803001028317118,-0.005669855353823472,0.0018064296317590323,-0.009235072344883077,9.923409236778369e-06,-0.013060659601374702
60,0.050585,391.066,0.168709,0.0443723,29.1551,-19.5741,0.00563113,0.0249886,-0.00947132,-0.0134364,-0.00578202,0.00183525,1.04295e-05,0.0198222,0.02530343199867957,-0.0057653362930231156,0.0018369351019846825,-0.009426608319616503,1.042955438745885e-05,-0.013346534517307274
61,0.051585,392.018,0.173901,0.0453267,29.5801,-19.8637,0.00543258,0.0254765,-0.00966455,-0.0137259,-0.00587657,0.00186523,1.09461e-05,0.0203017,0.02580379959790169,-0.005859336736535603,0.0018669706235292516,-0.009617998324350174,1.0946159908709063e-05,-0.01363212935371727
62,0.052585,392.965,0.179098,0.0462876,29.9982,-20.1485,0.00521723,0.0259641,-0.00985767,-0.0140154,-0.00596967,0.00189474,1.1473e-05,0.0207812,0.02630410349476331,-0.005951886924007388,0.0018965361540697057,-0.00980924242938852,1.1473065815170713e-05,-0.013917641522388946
63,0.053585,393.905,0.184297,0.0472542,30.4096,-20.4288,0.00498522,0.0264516,-0.0100507,-0.0143048,-0.00606135,0.0019238,1.201e-05,0.0212607,0.02680454871882909,-0.006043017077544066,0.0019256516904568866,-0.010000360504967887,1.2010072120371973e-05,-0.014202972467553088
64,0.054585,394.839,0.189497,0.0482262,30.8146,-20.7047,0.00473673,0.0269388,-0.0102436,-0.0145941,-0.00615166,0.00195242,1.25569e-05,0.0217402,0.02730492977789334,-0.00613277727948891,0.0019543272129531886,-0.010191313017464565,1.2556978838285104e-05,-0.01448812229870644
65,0.055585,395.767,0.194695,0.0492029,31.2132,-20.9763,0.00447193,0.0274257,-0.0104364,-0.0148833,-0.0062406,0.0019806,1.31135e-05,0.0222197,0.02780524634038506,-0.006221167899488567,0.0019825626837299826,-0.01038212973699193,1.3113585982216236e-05,-0.014773091125259152
66,0.056585,396.689,0.199892,0.0501839,31.6058,-21.2437,0.00419102,0.0279125,-0.0106291,-0.0151724,-0.00632822,0.00200836,1.36796e-05,0.0226991,0.028305703735750587,-0.0063082389861172095,0.0020103781057463355,-0.010572810727888071,1.367969356613763e-05,-0.015057879056535883
67,0.057585,397.606,0.205085,0.0511688,31.9923,-21.507,0.00389419,0.0283989,-0.0108216,-0.0154614,-0.00641455,0.0020357,1.4255e-05,0.0231785,0.02880599329060396,-0.00639402069302486,0.002037773443976265,-0.010763257130768644,1.4255101602911324e-05,-0.01534248620177514
68,0.058585,398.517,0.210273,0.0521571,32.3731,-21.7663,0.00358164,0.0288852,-0.0110141,-0.0157503,-0.00649961,0.00206263,1.48395e-05,0.0236579,0.029306423314839458,-0.006478533223255867,0.0020647586845696786,-0.010953666876244994,1.4839610105843448e-05,-0.015626912670129833
69,0.059585,399.422,0.215455,0.0531484,32.7482,-22.0218,0.00325358,0.0293712,-0.0112064,-0.0160391,-0.00658342,0.00208917,1.5433e-05,0.0241373,0.029806787815295444,-0.006561796768178807,0.002091353836181309,-0.01114384220016118,1.5433119089358627e-05,-0.01591115857066705
70,0.060585,400.323,0.220631,0.0541423,33.1178,-22.2735,0.00291021,0.029857,-0.0113987,-0.0163278,-0.00666603,0.00211532,1.60352e-05,0.0246166,0.030307189490541786,-0.006643861308425314,0.002117558867713365,-0.011333980956878764,1.6035328564534268e-05,-0.01619522401236817
71,0.061585,401.217,0.225798,0.0551385,33.4821,-22.5215,0.00255177,0.0303425,-0.0115908,-0.0166165,-0.00674744,0.00214109,1.66459e-05,0.0250959,0.03080752507767537,-0.0067247271399878406,0.0021433837699578184,-0.01152388545822558,1.6646038543788322e-05,-0.01647920745621323
72,0.062585,402.107,0.230957,0.0561366,33.8411,-22.766,0.00217845,0.0308278,-0.0117829,-0.016905,-0.00682769,0.00216649,1.72651e-05,0.0255752,0.03130789737511286,-0.006804434282343008,0.0021688385351799067,-0.01171375348242143,1.726524904266391e-05,-0.016762912278473707
73,0.063585,402.991,0.236106,0.0571364,34.1951,-23.007,0.00179048,0.0313129,-0.0119748,-0.0171934,-0.00690679,0.00219151,1.78924e-05,0.0260544,0.03180830620047703,-0.0068829929445551885,0.0021939131132016065,-0.01190338741717012,1.7892560070009722e-05,-0.017046436968347067
74,0.064585,403.871,0.241244,0.0581374,34.5441,-23.2446,0.00138809,0.0317977,-0.0121666,-0.0174817,-0.00698478,0.00221619,1.85278e-05,0.0265336,0.03230864814040979,-0.006960443119726656,0.0022186475641992054,-0.012092886173951878,1.8527971640702745e-05,-0.017329781634472963
75,0.065585,404.745,0.246371,0.0591394,34.8883,-23.4789,0.000971483,0.0322823,-0.0123583,-0.0177699,-0.00706167,0.00224051,1.9171e-05,0.0270127,0.03280902614309622,-0.007036794995869622,0.002243021818097546,-0.01228224981658721,1.9171183764710165e-05,-0.017612946385405337
76,0.066585,405.615,0.251486,0.0601422,35.2278,-23.71,0.000540898,0.0327667,-0.0125499,-0.018058,-0.00713749,0.00226449,1.98219e-05,0.0274918,0.033309440025817594,-0.007112078612035111,0.0022670558939281715,-0.012471478408844328,1.982209645512434e-05,-0.0178959313296132
77,0.067585,406.479,0.256588,0.0611455,35.5627,-23.938,9.65519e-05,0.0332508,-0.0127414,-0.018346,-0.00721226,0.00228813,2.04803e-05,0.0279708,0.03380978622475994,-0.007186314066590205,0.0022907497671900146,-0.012660572014438487,2.0480509722808904e-05,-0.01817873657548008
78,0.068585,407.339,0.261677,0.0621491,35.8932,-24.1628,-0.000361331,0.0337347,-0.0129328,-0.0186339,-0.007286,0.00231144,2.1146e-05,0.0284498,0.03431016783788143,-0.007259521448601647,0.0023141134368696026,-0.012849530697032097,2.114622357818341e-05,-0.01846136223130468
79,0.069585,408.195,0.266752,0.0631527,36.2192,-24.3847,-0.000832529,0.0342184,-0.0131241,-0.0189217,-0.00735872,0.00233442,2.18189e-05,0.0289288,0.034810584682121615,-0.0073317109113612,0.0023371468798496497,-0.013038354520235274,2.1819138033896124e-05,-0.018743808405300544
80,0.070585,409.045,0.271813,0.0641561,36.541,-24.6037,-0.00131682,0.0347018,-0.0133152,-0.0192094,-0.00743046,0.00235709,2.24989e-05,0.0294076,0.035310933043212644,-0.007402922380034482,0.0023598701205362893,-0.013226944870304513,2.2499153102151226e-05,-0.01902607520559607
81,0.071585,409.891,0.276859,0.0651591,36.8587,-24.8199,-0.00181398,0.035185,-0.0135063,-0.019497,-0.00750122,0.00237945,2.31857e-05,0.0298864,0.03581131616888644,-0.00747315606434984,0.0023822831378088605,-0.013415499184201263,2.318596879047341e-05,-0.01930816274023517
82,0.072585,410.733,0.28189,0.0661615,37.1723,-25.0332,-0.0023238,0.035668,-0.0136973,-0.0197845,-0.00757103,0.0024015,2.38792e-05,0.0303652,0.03631173387574371,-0.0075424419448731905,0.0024043859108342502,-0.013603918829208195,2.3879485110400722e-05,-0.019590071117176366
83,0.073585,411.57,0.286905,0.0671632,37.4819,-25.2438,-0.00284605,0.0361507,-0.0138881,-0.0200719,-0.0076399,0.00242326,2.45793e-05,0.0308439,0.0368120822990623,-0.00761079014329924,0.0024261984675915116,-0.01379210524794039,2.4579602073471207e-05,-0.019871800444293708
84,0.074585,412.403,0.291904,0.0681639,37.7877,-25.4518,-0.00338052,0.0366332,-0.0140789,-0.0203592,-0.00770786,0.00244472,2.52858e-05,0.0313225,0.0373124648363512,-0.007678230622347626,0.002447710764636568,-0.01398025576412898,2.52861196885501e-05,-0.020153350829376637
85,0.075585,413.232,0.296887,0.0691636,38.0896,-25.6572,-0.003927,0.0371155,-0.0142695,-0.0206464,-0.00777491,0.00246589,2.59986e-05,0.031801,0.0378128813038725,-0.007744763566442492,0.0024689328073079775,-0.014168173218278124,2.5998937966509317e-05,-0.020434722380129666
86,0.076585,414.056,0.301852,0.0701621,38.3879,-25.8601,-0.00448527,0.0375975,-0.0144601,-0.0209334,-0.00784108,0.00248678,2.67175e-05,0.0322795,0.0383132276864524,-0.007810418923205886,0.0024898746020507456,-0.01435605485877356,2.6717856915547955e-05,-0.020715817275759663
87,0.077585,414.876,0.306801,0.0711591,38.6826,-26.0605,-0.00505512,0.0380793,-0.0146505,-0.0212204,-0.00790639,0.00250739,2.74424e-05,0.0327579,0.03881360753137675,-0.007875216708751243,0.0025105361312824925,-0.014543703601201274,2.744277654609384e-05,-0.020996831508730107
88,0.078585,415.692,0.311733,0.0721547,38.9737,-26.2585,-0.00563635,0.0385608,-0.0148408,-0.0215073,-0.00797084,0.00252773,2.81731e-05,0.0332362,0.03931391672317508,-0.0079391570905335,0.002530927402965899,-0.014731218091836307,2.8173496865457892e-05,-0.021277667229959718
89,0.079585,416.504,0.316647,0.0731486,39.2614,-26.4541,-0.00622875,0.0390422,-0.0150311,-0.021794,-0.00803446,0.0025478,2.89095e-05,0.0337145,0.03981436289041329,-0.00800226999371667,0.002551048400592615,-0.014918696901858874,2.8909917883623848e-05,-0.021558226702642735
90,0.080585,417.312,0.321543,0.0741408,39.5457,-26.6474,-0.00683212,0.0395233,-0.0152212,-0.0220807,-0.00809725,0.00256761,2.96515e-05,0.0341926,0.04031473793596585,-0.0080645555757074,0.0025709091335812673,-0.015105943059266713,2.965193961013135e-05,-0.021838705750454435
91,0.081585,418.116,0.326421,0.0751312,39.8267,-26.8384,-0.00744625,0.0400041,-0.0154112,-0.0223672,-0.00815924,0.00258716,3.0399e-05,0.0346707,0.04081504152531035,-0.008126043748061695,0.002590509586448686,-0.01529305515387358,3.0399462054298e-05,-0.02211890882025047
92,0.082585,418.916,0.331281,0.0761195,40.1045,-27.0272,-0.00807095,0.0404848,-0.0156011,-0.0226536,-0.00822044,0.00260646,3.11517e-05,0.0351487,0.0413154815869039,-0.008186744576719973,0.0026098597700123793,-0.015480033248567837,3.1152185219207595e-05,-0.022398933863264192
93,0.083585,419.712,0.336122,0.0771059,40.3791,-27.2139,-0.00870603,0.0409652,-0.0157909,-0.0229399,-0.00828085,0.00262551,3.19096e-05,0.0356266,0.04181584972306163,-0.008246658205770752,0.0026289596697668394,-0.015666877406185775,3.1910109116628504e-05,-0.022678780986471914
94,0.084585,420.504,0.340946,0.07809,40.6506,-27.3984,-0.00935129,0.0414453,-0.0159806,-0.0232262,-0.00834051,0.00264431,3.26726e-05,0.0361045,0.042316145598928934,-0.008305824445195675,0.002647809271394408,-0.015853587689511506,3.267313375521219e-05,-0.022958548000916346
95,0.085585,421.293,0.34575,0.079072,40.9191,-27.5808,-0.0100065,0.0419253,-0.0161703,-0.0235123,-0.00839941,0.00266288,3.34406e-05,0.0365822,0.04281657744285061,-0.008364233511972019,0.0026664286140924975,-0.01604026255725577,3.344115914316603e-05,-0.023238039577156866
96,0.086585,422.077,0.350536,0.0800516,41.1847,-27.7613,-0.0106716,0.042405,-0.0163598,-0.0237983,-0.00845757,0.0026812,3.42134e-05,0.0370599,0.043316936556588415,-0.008421905371037042,0.0026847976313244537,-0.016226705261497054,3.421398528513642e-05,-0.02351735355403517
97,0.087585,422.859,0.355303,0.0810289,41.4473,-27.9397,-0.0113463,0.0428845,-0.0165492,-0.0240841,-0.00851501,0.0026993,3.49908e-05,0.0375374,0.0438173269866855,-0.008478859981040476,0.002702946390407357,-0.016413014279499594,3.49914121851036e-05,-0.023796392417836487
98,0.088585,423.636,0.360051,0.0820037,41.7071,-28.1162,-0.0120304,0.0433637,-0.0167385,-0.0243699,-0.00857174,0.00271717,3.57729e-05,0.0380149,0.04431764411618766,-0.0085351073798412,0.0027208648521603873,-0.016599189673839443,3.5773539857730796e-05,-0.02407535154372553
99,0.089585,424.41,0.36478,0.0829759,41.9641,-28.2908,-0.0127238,0.0438427,-0.0169277,-0.0246556,-0.00862776,0.00273481,3.65594e-05,0.0384923,0.04481799209149262,-0.008590647687427233,0.0027385530042254302,-0.01678523150704081,3.656006830299319e-05,-0.02435413338990644
100,0.090585,425.18,0.369489,0.0839456,42.2184,-28.4635,-0.0134262,0.0443215,-0.0171168,-0.0249411,-0.0086831,0.00275223,3.73503e-05,0.0389695,0.04531837072719225,-0.00864551076290887,0.0027560208619632487,-0.016971139841575722,3.7350997531104824e-05,-0.024632640526038196
101,0.091585,425.947,0.37418,0.0849127,42.4701,-28.6344,-0.0141376,0.0448001,-0.0173058,-0.0252266,-0.00873776,0.00276944,3.81455e-05,0.0394467,0.045818779837770496,-0.008699696718374894,0.002773278441583482,-0.017156914739864804,3.8146227548940814e-05,-0.024911068159732097
102,0.092585,426.71,0.378851,0.085877,42.7191,-28.8035,-0.0148577,0.0452784,-0.0174947,-0.0255119,-0.00879174,0.00278643,3.89448e-05,0.0399238,0.04631911460568827,-0.008753205664526642,0.002790315704315205,-0.017342556264276388,3.894555835848301e-05,-0.025189221351546554
103,0.093585,427.47,0.383504,0.0868386,42.9655,-28.9708,-0.0155864,0.0457565,-0.0176835,-0.0257971,-0.00884508,0.00280322,3.97482e-05,0.0404008,0.04681947937704867,-0.00880607735843586,0.002807152695062154,-0.017528064477127403,3.9748989970167514e-05,-0.025467197744299286
104,0.094585,428.226,0.388137,0.0877974,43.2094,-29.1365,-0.0163235,0.0462343,-0.0178722,-0.0260823,-0.00889777,0.0028198,4.05555e-05,0.0408776,0.047319769234024145,-0.00885830199034987,0.002823779375488611,-0.01771343944068271,4.055632238531004e-05,-0.02574509486948895
105,0.095585,428.979,0.39275,0.0887534,43.4509,-29.3004,-0.0170689,0.046712,-0.0180608,-0.0263673,-0.00894982,0.00283617,4.13667e-05,0.0413544,0.0478201934045841,-0.008909889573152752,0.0028401957351245066,-0.017898681217155543,4.136755561368055e-05,-0.02602271795428235
106,0.096585,429.728,0.397345,0.0897066,43.6899,-29.4627,-0.0178223,0.0471894,-0.0182493,-0.0266522,-0.00900125,0.00285235,4.21816e-05,0.0418311,0.048320542188667215,-0.00896086002681551,0.002856421820760069,-0.018083789868707623,4.218248965615068e-05,-0.02630016455779194
107,0.097585,430.475,0.40192,0.0906568,43.9266,-29.6233,-0.0185837,0.0476666,-0.0184377,-0.0269369,-0.00905207,0.00286833,4.30001e-05,0.0423076,0.0488209201320815,-0.009011223356165998,0.002872447594426397,-0.01826876545744882,4.300102451759713e-05,-0.026577337443509874
108,0.098585,431.218,0.406476,0.0916041,44.161,-29.7823,-0.0193528,0.0481435,-0.018626,-0.0272216,-0.00910228,0.00288412,4.38223e-05,0.0427841,0.04932122211641854,-0.009060979653498946,0.002888283075394682,-0.018453608045437275,4.382326021090677e-05,-0.026854431429339187
109,0.099585,431.957,0.411013,0.0925484,44.393,-29.9398,-0.0201296,0.0486202,-0.0188141,-0.0275062,-0.0091519,0.00289971,4.46479e-05,0.0432604,0.049821552787342016,-0.009110148827791265,0.002903918225603652,-0.018638219558506863,4.464889673228001e-05,-0.027131349250879233
110,0.1006,432.694,0.41553,0.0934897,44.6229,-30.0958,-0.0209139,0.0490967,-0.0190022,-0.0277906,-0.00920093,0.00291512,4.54768e-05,0.0437367,0.05032191195835045,-0.009158730966193351,0.0029193730940628715,-0.018822796349416526,4.547783408526129e-05,-0.027407993754439253
111,0.1016,433.427,0.420028,0.094428,44.8505,-30.2502,-0.0217054,0.049573,-0.0191902,-0.028075,-0.00924938,0.00293035,4.63091e-05,0.0442128,0.05082229944283578,-0.009206736062745136,0.00293464767243079,-0.019007240325425778,4.631017228295953e-05,-0.0276845595914893
112,0.1026,434.157,0.424507,0.0953633,45.076,-30.4032,-0.0225042,0.050049,-0.0193781,-0.0283592,-0.00929727,0.00294539,4.71445e-05,0.0446888,0.05132260992181803,-0.009254184016004863,0.002949731922964993,-0.01919155154838692,4.7145611319354686e-05,-0.027960852376588963
113,0.1036,434.884,0.428967,0.0962955,45.2994,-30.5547,-0.02331,0.0505248,-0.0195659,-0.0286433,-0.0093446,0.00296026,4.79831e-05,0.0451647,0.0518229482406658,-0.009301074905793683,0.0029646458963639155,-0.01937573008010074,4.798425120733363e-05,-0.028236969474137896
114,0.1046,435.608,0.433408,0.0972246,45.5207,-30.7048,-0.0241228,0.0510004,-0.0197536,-0.0289273,-0.00939137,0.00297495,4.88247e-05,0.0456404,0.052323314212445515,-0.009347408810993496,0.0029793795552304214,-0.019559775982316396,4.882589194510345e-05,-0.028512910989257345
115,0.1056,436.329,0.43783,0.0981506,45.7399,-30.8535,-0.0249423,0.0514758,-0.0199413,-0.0292112,-0.00943761,0.00298947,4.96693e-05,0.0461161,0.0528237076501179,-0.009393215527750631,0.002993942921551529,-0.019743787342358154,4.967053354021367e-05,-0.028788677026986287
116,0.1066,437.047,0.442233,0.0990735,45.9572,-31.0009,-0.0257684,0.0519509,-0.0201288,-0.029495,-0.00948331,0.00300382,5.05167e-05,0.0465916,0.053324023034130974,-0.009438485223380644,0.0030083359879022886,-0.01992756815224217,5.05179759899832e-05,-0.029064267692280876
117,0.1076,437.762,0.446617,0.0999932,46.1725,-31.1468,-0.0266011,0.0524258,-0.0203162,-0.0297786,-0.00952849,0.003018,5.13669e-05,0.0470671,0.05382436540956337,-0.009483237781650278,0.0030225587469456805,-0.020111216517581076,5.1368219301739515e-05,-0.02933958602397857
118,0.1086,438.474,0.450982,0.10091,46.3858,-31.2915,-0.0274401,0.0529005,-0.0205035,-0.0300622,-0.00957314,0.00303201,5.22198e-05,0.0475424,0.05432473458905207,-0.009527463367739797,0.00303661119143106,-0.020294732499919088,5.222116347747274e-05,-0.029614826286468166
119,0.1096,439.183,0.455328,0.101823,46.5973,-31.4349,-0.0282854,0.0533749,-0.0206907,-0.0303456,-0.00961729,0.00304587,5.30754e-05,0.0480176,0.054825024902620534,-0.009571191764920606,0.0030505133752039004,-0.020478116160748905,5.3076808524066266e-05,-0.029889794479865284
120,0.1106,439.889,0.459656,0.102734,46.8069,-31.5769,-0.0291368,0.0538491,-0.0208778,-0.0306289,-0.00966093,0.00305956,5.39335e-05,0.0484926,0.055325341545130025,-0.009614413135014876,0.003064245230726348,-0.020661367561512156,5.393495443728469e-05,-0.030164587774781038
121,0.1116,440.592,0.463965,0.103641,47.0147,-31.7178,-0.0299942,0.0543231,-0.0210648,-0.0309121,-0.00970408,0.00307309,5.47941e-05,0.0489675,0.05582568432889423,-0.0096571473510908,0.0030778167817757662,-0.02084448676359907,5.479560122401139e-05,-0.030439206275708064
122,0.1126,441.293,0.468255,0.104545,47.2206,-31.8574,-0.0308575,0.0547969,-0.0212517,-0.0311952,-0.00974674,0.00308647,5.56571e-05,0.0494424,0.056326053066122705,-0.009699394476047174,0.003091238052752354,-0.02102747382834913,5.565864888512628e-05,-0.030713650087056954
123,0.1136,441.99,0.472526,0.105446,47.4249,-31.9957,-0.0317266,0.0552704,-0.0214386,-0.0314782,-0.00978892,0.0030997,5.65225e-05,0.049917,0.05682634188628044,-0.009741164474652675,0.003104509037619163,-0.021210426696012585,5.6524097426624564e-05,-0.030987919313156365
124,0.1146,442.685,0.47678,0.106343,47.6273,-32.1329,-0.0326013,0.0557438,-0.0216253,-0.0317611,-0.00983063,0.00311277,5.73901e-05,0.0503916,0.05732676191660491,-0.009782467309305876,0.0031176196992304117,-0.02139314965162975,5.739174684338266e-05,-0.03126201405825291
125,0.1156,443.377,0.481015,0.107238,47.8281,-32.269,-0.0334816,0.0562169,-0.0218119,-0.0320438,-0.00987186,0.0031257,5.826e-05,0.050866,0.05782710155367665,-0.009823293136548505,0.0031305900939064824,-0.021575740653634434,5.826169714673313e-05,-0.031535837580100146
126,0.1166,444.066,0.485231,0.108129,48.0272,-32.4038,-0.0343673,0.0566897,-0.0219985,-0.0323265,-0.00991264,0.00313848,5.9132e-05,0.0513404,0.05832736045917741,-0.009863671719329448,0.0031434101847680473,-0.021758297587336828,5.9133748331108293e-05,-0.031809583702978705
127,0.1176,444.752,0.48943,0.109017,48.2246,-32.5376,-0.0352583,0.0571624,-0.0221849,-0.032609,-0.00995296,0.00315111,6.0006e-05,0.0518145,0.05882775006023122,-0.009903593211263106,0.003156079966048164,-0.02194062484723802,6.00078003960558e-05,-0.032083058865397085
128,0.1186,445.436,0.49361,0.109902,48.4204,-32.6702,-0.0361545,0.0576348,-0.0223712,-0.0328914,-0.00999283,0.0031636,6.08821e-05,0.0522886,0.0593280584528979,-0.00994306756807517,0.0031686094637335405,-0.022122820336792137,6.088395335268615e-05,-0.03235636001763453
129,0.1196,446.117,0.497772,0.110783,48.6146,-32.8017,-0.0370558,0.058107,-0.0225575,-0.0331737,-0.0100323,0.00317595,6.17602e-05,0.0527625,0.05982839128138351,-0.009982144344013011,0.0031809986725634953,-0.022304981886488218,6.176210720032493e-05,-0.03262948726347692
130,0.1206,446.795,0.501917,0.111662,48.8072,-32.9322,-0.0379621,0.058579,-0.0227436,-0.0334559,-0.0100713,0.00318817,6.26401e-05,0.0532363,0.06032874835704871,-0.010020754287484834,0.003193257619269474,-0.022486914000050873,6.264206193207222e-05,-0.032902440706628955
131,0.1216,447.471,0.506043,0.112537,48.9983,-33.0616,-0.0388733,0.0590507,-0.0229297,-0.033738,-0.0101098,0.00320024,6.35219e-05,0.0537099,0.06082902340824359,-0.01005886775475584,0.0032053662349642575,-0.02266881225919748,6.352391755859443e-05,-0.03317522045071364
132,0.1226,448.144,0.510152,0.113409,49.1879,-33.1899,-0.0397893,0.0595222,-0.0231157,-0.0340199,-0.010148,0.00321218,6.44054e-05,0.0541835,0.06132932222895904,-0.010096682783735988,0.0032173445785477206,-0.022850578955290524,6.44074740723255e-05,-0.033447729944050875
133,0.1236,448.814,0.514243,0.114278,49.3759,-33.3172,-0.0407101,0.0599935,-0.0233015,-0.0343018,-0.0101857,0.00322399,6.52907e-05,0.0546569,0.061829644630238434,-0.01013400143533405,0.003229192645349821,-0.023032116452364915,6.529283148415388e-05,-0.03372016262778876
134,0.1246,449.482,0.518317,0.115144,49.5625,-33.4435,-0.0416354,0.0604646,-0.0234873,-0.0345835,-0.010223,0.00323567,6.61776e-05,0.0551301,0.06232999042302145,-0.010170922748493738,0.003240910430751587,-0.02321362022290563,6.617978978562533e-05,-0.03399232532206131
135,0.1256,450.147,0.522373,0.116007,49.7477,-33.5689,-0.0425652,0.0609355,-0.023673,-0.0348651,-0.0102599,0.00324721,6.70661e-05,0.0556032,0.06283035941814519,-0.010207446767572015,0.0032524878976598615,-0.02339499261268263,6.706834898118075e-05,-0.03426431478533676
136,0.1266,450.81,0.526411,0.116866,49.9314,-33.6932,-0.0434995,0.0614061,-0.0238586,-0.0351466,-0.0102964,0.00325863,6.79561e-05,0.0560762,0.0633306450932738,-0.010243573536447448,0.0032639451064921943,-0.02357623368236217,6.795840906814732e-05,-0.03453613112078058
137,0.1276,451.47,0.530433,0.117723,50.1137,-33.8166,-0.044438,0.0618765,-0.0240441,-0.035428,-0.0103325,0.00326993,6.88477e-05,0.056549,0.0638309534920356,-0.01027930309852032,0.003275282053125439,-0.023757343492559868,6.885007005719146e-05,-0.03480777443147676
138,0.1286,452.128,0.534437,0.118576,50.2946,-33.939,-0.0453808,0.0623467,-0.0242294,-0.0357093,-0.0103682,0.0032811,6.97407e-05,0.0570218,0.06433128442495173,-0.010314635496712632,0.0032864887006149868,-0.023938224497668026,6.974313193919279e-05,-0.0350792448204289
139,0.1296,452.784,0.538424,0.119426,50.4742,-34.0605,-0.0463278,0.0628167,-0.0244147,-0.0359904,-0.0104036,0.00329214,7.06351e-05,0.0574943,0.06483163770244094,-0.010349669738506262,0.003297565044591666,-0.024119071988631058,7.063759471748199e-05,-0.035350445925608764
140,0.1306,453.436,0.542394,0.120273,50.6524,-34.1811,-0.0472788,0.0632864,-0.0246,-0.0362715,-0.0104385,0.00330307,7.15308e-05,0.0579668,0.06533190660162358,-0.010384207932337408,0.003308531146907212,-0.024299885971658663,7.15333583887201e-05,-0.03562157080687167
141,0.1316,454.087,0.546348,0.121117,50.8293,-34.3008,-0.0482338,0.0637559,-0.0247851,-0.0365524,-0.0104731,0.00331388,7.24279e-05,0.058439,0.06583219736584,-0.010418448046385587,0.003319376970750465,-0.024480471349073052,7.243052296357355e-05,-0.03589242666414594
142,0.1326,454.735,0.550284,0.121958,51.0049,-34.4196,-0.0491927,0.0642252,-0.0249701,-0.0368332,-0.0105073,0.00332457,7.33261e-05,0.0589112,0.066332509805195,-0.010452291156741844,0.0033301025122181027,-0.024660925769324882,7.332878842425394e-05,-0.036163110065010606
143,0.1336,455.381,0.554204,0.122796,51.1793,-34.5375,-0.0501554,0.0646943,-0.025155,-0.0371139,-0.0105411,0.00333514,7.42256e-05,0.0593832,0.06683284372969167,-0.010485737304057663,0.003340707767450324,-0.024841249292726686,7.42283547880973e-05,-0.03643362111201365
144,0.1346,456.024,0.558107,0.123631,51.3523,-34.6545,-0.0511218,0.0651632,-0.0253398,-0.0373945,-0.0105746,0.0033456,7.51262e-05,0.0598551,0.06733319894923007,-0.010518885476623052,0.003351202766142425,-0.02502144197954037,7.512902204354077e-05,-0.036703959907622874
145,0.1356,456.665,0.561994,0.124462,51.5241,-34.7707,-0.0520919,0.0656318,-0.0255246,-0.0376749,-0.0106077,0.00335594,7.60279e-05,0.0603268,0.06783346849025684,-0.010551636759477012,0.003361577471216126,-0.02520160136982208,7.603079019413705e-05,-0.03697403025163304
146,0.1366,457.303,0.565864,0.125291,51.6947,-34.8861,-0.0530656,0.0661002,-0.0257092,-0.0379553,-0.0106405,0.00336617,7.69307e-05,0.0607984,0.06833375884575199,-0.010584090133553103,0.0033718419126562704,-0.02538153254605069,7.69336592421066e-05,-0.03724402487853473
147,0.1376,457.94,0.569718,0.126116,51.8641,-35.0006,-0.0540427,0.0665684,-0.0258938,-0.0382355,-0.0106729,0.0033763,7.78345e-05,0.0612698,0.06883406982530427,-0.010616146689713779,0.0033820061208964525,-0.025561430510049776,7.783752918322229e-05,-0.037513751312325705
148,0.1386,458.574,0.573556,0.126939,52.0323,-35.1143,-0.0550233,0.0670364,-0.0260782,-0.0385156,-0.010705,0.00338631,7.87392e-05,0.0617411,0.06933440123840118,-0.010647905401674929,0.0033920500250472774,-0.025741100416189266,7.874230001214677e-05,-0.03778330595769264
149,0.1396,459.205,0.577378,0.127758,52.1994,-35.2273,-0.0560073,0.0675041,-0.0262626,-0.0387957,-0.0107367,0.00339622,7.96449e-05,0.0622123,0.06983464591095823,-0.010679267365983902,0.0034019936895337555,-0.025920737194252585,7.964807173932442e-05,-0.03805278511137655
150,0.1406,459.835,0.581184,0.128575,52.3652,-35.3394,-0.0569945,0.0679717,-0.0264469,-0.0390755,-0.0107681,0.00340602,8.05515e-05,0.0626833,0.07033501756916283,-0.010710331549278473,0.0034118270772556247,-0.026100243460377093,8.055474435919585e-05,-0.038321900291133026
151,0.1416,460.462,0.584974,0.129388,52.53,-35.4507,-0.0579849,0.068439,-0.0266311,-0.0393553,-0.0107992,0.00341571,8.14589e-05,0.0631541,0.07083530200522747,-0.01074109797954681,0.0034215501849683694,-0.026279619274512056,8.146221786620167e-05,-0.03859094018299558
152,0.1426,461.087,0.588748,0.130199,52.6936,-35.5613,-0.0589784,0.0689061,-0.0268152,-0.039635,-0.0108299,0.0034253,8.23672e-05,0.0636248,0.0713356060116983,-0.01077146776166027,0.003431173043776159,-0.02645886469655634,8.237059227100829e-05,-0.03885980869401218
153,0.1436,461.71,0.592506,0.131006,52.8561,-35.6711,-0.0599751,0.069373,-0.0269992,-0.0399145,-0.0108603,0.00343479,8.32762e-05,0.0640954,0.07183592939755057,-0.01080153985194221,0.0034406956507930797,-0.026637979786358512,8.327966755894423e-05,-0.03912840983872368
154,0.1446,462.33,0.596249,0.131811,53.0175,-35.7802,-0.0609747,0.0698396,-0.0271831,-0.0401939,-0.0108904,0.00344418,8.41859e-05,0.0645658,0.07233616473803672,-0.010831314277485293,0.003450118003162972,-0.026816964603717408,8.418944373222992e-05,-0.039396839859594635
155,0.1456,462.949,0.599976,0.132613,53.1778,-35.8885,-0.0619773,0.0703061,-0.0273669,-0.0404733,-0.0109202,0.00345346,8.50963e-05,0.0650361,0.07283652625913772,-0.010860791065113506,0.0034594300634660513,-0.026995819208381566,8.509992079286377e-05,-0.03966519489159415
156,0.1466,463.565,0.603688,0.133411,53.3371,-35.9961,-0.0629827,0.0707723,-0.0275506,-0.0407525,-0.0109497,0.00346265,8.60074e-05,0.0655062,0.07333679925225356,-0.010889970241382163,0.003468651898002495,-0.027174543660049566,8.60110987424001e-05,-0.03993328294234699
157,0.1476,464.179,0.607385,0.134207,53.4953,-36.103,-0.063991,0.0712383,-0.0277342,-0.0410315,-0.0109789,0.00347175,8.69191e-05,0.0659762,0.0738370907595729,-0.010918851832577792,0.003477783504283627,-0.027353138018369694,8.692287757439132e-05,-0.04020110419360423
158,0.1486,464.791,0.611066,0.135,53.6525,-36.2092,-0.065002,0.0717041,-0.0279178,-0.0413105,-0.0110077,0.00348074,8.78313e-05,0.066446,0.07433740058956206,-0.010947336959457266,0.0034868048101079907,-0.02753169958977575,8.783515728150171e-05,-0.04046885073315509
159,0.1496,465.401,0.614733,0.13579,53.8087,-36.3147,-0.0660157,0.0721697,-0.0281012,-0.0415894,-0.0110363,0.00348964,8.87441e-05,0.0669157,0.07483772855058723,-0.010975623461121353,0.0034957358824139195,-0.02771003392231275,8.874803787417562e-05,-0.04073642665548882
160,0.1506,466.009,0.618384,0.136578,53.9639,-36.4195,-0.067032,0.072635,-0.0282846,-0.0418681,-0.0110645,0.00349845,8.96575e-05,0.0673852,0.07533796691711259,-0.011003513555287503,0.003504576718790897,-0.0278883355513323,8.966151935374533e-05,-0.04100373616206998
161,0.1516,466.614,0.62202,0.137362,54.1181,-36.5236,-0.0680509,0.0731001,-0.0284679,-0.0421467,-0.0110925,0.00350716,9.05713e-05,0.0678546,0.07583822293104392,-0.011031205069224947,0.0035133172817192193,-0.02806650728948712,9.057540170398504e-05,-0.04127087530696438
162,0.1526,467.218,0.625642,0.138144,54.2713,-36.6271,-0.0690723,0.0735651,-0.028651,-0.0424252,-0.0111202,0.00351578,9.14855e-05,0.0683238,0.07633860403429704,-0.011058599125435165,0.0035219676037969716,-0.028244452020665056,9.148968492600495e-05,-0.04153784419104878
163,0.1536,467.82,0.629249,0.138922,54.4235,-36.7299,-0.0700961,0.0740298,-0.0288341,-0.0427036,-0.0111476,0.00352431,9.24002e-05,0.0687928,0.07683889481715211,-0.011085695748593638,0.003530527682689355,-0.028422364173145476,9.240446903002741e-05,-0.041804642915120316
164,0.1546,468.419,0.632841,0.139698,54.5748,-36.832,-0.0711223,0.0744942,-0.0290171,-0.0429819,-0.0111747,0.00353275,9.33153e-05,0.0692618,0.07733909493738356,-0.011112494963107844,0.0035389975160857734,-0.028600146612912436,9.331965400805053e-05,-0.04207127157989754
165,0.1556,469.017,0.636418,0.140471,54.7251,-36.9335,-0.0721509,0.0749585,-0.0292,-0.04326,-0.0112015,0.00354111,9.42307e-05,0.0697305,0.07783941962055008,-0.011138996793116807,0.0035473871371733967,-0.0287777993992544,9.423513985185039e-05,-0.04233763451978767
166,0.1566,469.612,0.639982,0.141242,54.8745,-37.0344,-0.0731818,0.0754226,-0.0293828,-0.0435381,-0.011228,0.00354937,9.51464e-05,0.0701991,0.07833976099043016,-0.011165201262490987,0.0035556764728261747,-0.028955322591410093,9.515092656231516e-05,-0.04260392339444341
167,0.1576,470.206,0.64353,0.142009,55.023,-37.1346,-0.0742149,0.0758864,-0.0295656,-0.043816,-0.0112543,0.00355755,9.60624e-05,0.0706676,0.07884001097058047,-0.011191207275717208,0.003563885591834959,-0.029132813335292163,9.606701414011098e-05,-0.04286994679846812
168,0.1586,470.797,0.647065,0.142774,55.1706,-37.2343,-0.0752501,0.07635,-0.0297482,-0.0440938,-0.0112803,0.00356564,9.69787e-05,0.0711359,0.07934027715240743,-0.011216915970113539,0.0035720044565101805,-0.029310077498866383,9.698340258612603e-05,-0.04313580059844491
169,0.1596,471.387,0.650586,0.143536,55.3173,-37.3333,-0.0762876,0.0768134,-0.0299308,-0.0443715,-0.0113061,0.00357365,9.78952e-05,0.071604,0.07984055934327094,-0.011242426244597592,0.0035800431004606725,-0.02948730929695953,9.789999189147025e-05,-0.04340148489464679
170,0.1606,471.974,0.654092,0.144296,55.4632,-37.4317,-0.077327,0.0772766,-0.0301132,-0.0446491,-0.0113315,0.00358157,9.88119e-05,0.072072,0.08034085735043206,-0.011267540368020246,0.0035879914858774065,-0.029664314668363168,9.881678205658773e-05,-0.043666999787267846
171,0.1616,472.56,0.657584,0.145052,55.6081,-37.5295,-0.0783686,0.0777396,-0.0302956,-0.0449266,-0.0113567,0.00358941,9.97287e-05,0.0725399,0.08084117098105326,-0.01129245611206331,0.00359585964657394,-0.02984128775693129,9.973367307214431e-05,-0.043932345376423654
172,0.1626,473.144,0.661063,0.145806,55.7522,-37.6267,-0.079412,0.0782023,-0.0304779,-0.0452039,-0.0113817,0.00359717,0.000100646,0.0730075,0.08134139190805323,-0.011317173491691923,0.003603647580662006,-0.03001813157036981,0.00010065106497858523,-0.04419742618189848
173,0.1636,473.726,0.664527,0.146558,55.8955,-37.7234,-0.0804575,0.0786649,-0.0306601,-0.0454811,-0.0114064,0.00360485,0.000101563,0.0734751,0.08184173615665169,-0.011341593655916471,0.003611355286272877,-0.030194846167609035,0.00010156815769613026,-0.044462337936895246
174,0.1646,474.306,0.667978,0.147306,56.0379,-37.8195,-0.0815048,0.0791272,-0.0308422,-0.0457582,-0.0114308,0.00361245,0.00010248,0.0739424,0.08234198721539965,-0.011365716626729805,0.0036189827615573655,-0.030371431607529642,0.00010248525125455821,-0.04472708074124343
175,0.1656,474.884,0.671416,0.148052,56.1795,-37.915,-0.0825539,0.0795893,-0.0310242,-0.0460352,-0.011455,0.00361997,0.000103397,0.0744096,0.08284225302520509,-0.0113896412868979,0.00362653000468538,-0.030547887948962904,0.00010340234565409112,-0.044991654694693795
176,0.1666,475.46,0.67484,0.148796,56.3202,-38.0099,-0.0836049,0.0800512,-0.0312061,-0.0463121,-0.011479,0.00362741,0.000104315,0.0748767,0.08334253339273379,-0.011413367650789485,0.0036339970138459243,-0.0307242152506908,0.00010432044099872861,-0.045256059896919165
177,0.1676,476.034,0.67825,0.149536,56.4602,-38.1043,-0.0846576,0.0805129,-0.0313879,-0.0465889,-0.0115026,0.00363477,0.000105232,0.0753436,0.0838428281245529,-0.011436698020013458,0.003641383787247099,-0.030900413571445573,0.00010523753708113759,-0.045520296447513986
178,0.1686,476.607,0.681647,0.150275,56.5993,-38.1982,-0.0857119,0.0809743,-0.0315697,-0.0468656,-0.0115261,0.00364206,0.00010615,0.0758103,0.0843430285928235,-0.011459928984645096,0.0036487003596039624,-0.031076579862257203,0.00010615563411064954,-0.04578436444599454
179,0.1696,477.177,0.685031,0.15101,56.7377,-38.2915,-0.086768,0.0814356,-0.0317513,-0.0471421,-0.0115493,0.00364927,0.000107067,0.0762769,0.08484335142250177,-0.011482862848258835,0.003655936692820383,-0.03125252037947168,0.00010707273187571253,-0.04604816859662075
180,0.1706,477.746,0.688401,0.151743,56.8753,-38.3843,-0.0878257,0.0818966,-0.0319329,-0.0474185,-0.0115723,0.00365641,0.000107984,0.0767433,0.08534357950122073,-0.011505598480952561,0.0036631028217914974,-0.03142842894878928,0.00010798983048210253,-0.046311804446667715
181,0.1716,478.313,0.691759,0.152474,57.0121,-38.4766,-0.0888849,0.0823575,-0.0321144,-0.0476948,-0.011595,0.00366347,0.000108901,0.0772096,0.08584392965384802,-0.011528037049188256,0.0036701887083105955,-0.03160420873643677,0.0001089069299291534,-0.04657527209536738
182,0.1726,478.878,0.695103,0.153202,57.1482,-38.5683,-0.0899457,0.0828181,-0.0322958,-0.047971,-0.0116175,0.00367046,0.000109819,0.0776757,0.08634418456770909,-0.011550277418149624,0.00367720438744934,-0.03177985980093878,0.00010982503032708202,-0.04683857164187333
183,0.1736,479.442,0.698435,0.153927,57.2835,-38.6596,-0.091008,0.0832785,-0.0324771,-0.0482471,-0.0116398,0.00367738,0.000110735,0.0781416,0.08684445258314444,-0.011572319601191872,0.0036841498577349086,-0.031955382200770543,0.000110741131346348,-0.04710170318526197
184,0.1746,480.004,0.701753,0.15465,57.4181,-38.7503,-0.0920717,0.0837387,-0.0326583,-0.0485231,-0.0116618,0.00368422,0.000111652,0.0786074,0.08734473350603422,-0.01159406477096292,0.003691015080799165,-0.03213077599435821,0.00011165823331649172,-0.04736466682453122
185,0.1756,480.564,0.705059,0.15537,57.5519,-38.8405,-0.0931369,0.0841986,-0.0328394,-0.0487989,-0.0116837,0.003691,0.000112569,0.079073,0.08784491835766417,-0.011615710623921527,0.0036978201289503687,-0.03230604124007863,0.00011257533612751836,-0.04762736742134355
186,0.1766,481.122,0.708352,0.156088,57.685,-38.9302,-0.0942034,0.0846584,-0.0330205,-0.0490746,-0.0117053,0.0036977,0.000113486,0.0795385,0.08834522446268434,-0.011637059494003399,0.003704544926873332,-0.03248127474813689,0.00011349243977964996,-0.047889900364316396
187,0.1776,481.678,0.711633,0.156804,57.8174,-39.0195,-0.0952713,0.085118,-0.0332014,-0.0493503,-0.0117266,0.00370433,0.000114402,0.0800038,0.08884554289221547,-0.011658111400432603,0.0037111995100660433,-0.032656283055556345,0.00011440854415845081,-0.048152360936933536
188,0.1786,482.233,0.714901,0.157517,57.9491,-39.1082,-0.0963405,0.0855773,-0.0333823,-0.0496258,-0.0117478,0.0037109,0.000115318,0.080469,0.08934576451716825,-0.01167906402637231,0.0037177939143093752,-0.03283125970683631,0.00011532464937613618,-0.04841455884207557
189,0.1796,482.786,0.718156,0.158227,58.0801,-39.1965,-0.097411,0.0860364,-0.0335631,-0.0499011,-0.0117687,0.00371739,0.000116234,0.0809339,0.08984599797746262,-0.01169971971808137,0.003724308063930426,-0.03300610800831849,0.00011624075543315016,-0.04867649425696208
190,0.1806,483.337,0.721399,0.158935,58.2104,-39.2843,-0.0984826,0.0864953,-0.0337438,-0.0501764,-0.0117895,0.00372382,0.000117149,0.0813988,0.09034624307839412,-0.01172027615012361,0.003730762031980639,-0.033180828018173125,0.00011715586221217045,-0.048938357570954105
191,0.1816,483.887,0.72463,0.159641,58.34,-39.3717,-0.0995555,0.086954,-0.0339244,-0.0504516,-0.01181,0.00373019,0.000118064,0.0818634,0.09084649962516167,-0.011740535676801667,0.0037371558172989428,-0.03335541979452106,0.0001180709698282989,-0.049200053723908344
192,0.1826,484.435,0.727849,0.160344,58.4689,-39.4586,-0.10063,0.0874125,-0.0341049,-0.0507266,-0.0118303,0.00373648,0.000118979,0.0823279,0.09134676742286851,-0.011760597140302864,0.003743469343865158,-0.0335298833954345,0.0001189860782819796,-0.04946148776030668
193,0.1836,484.981,0.731056,0.161045,58.5972,-39.545,-0.101705,0.0878708,-0.0342853,-0.0510015,-0.0118504,0.00374271,0.000119894,0.0827923,0.0918470462765213,-0.011780460552672456,0.0037497226851583854,-0.0337042188789366,0.00011990118757276846,-0.049722754884509834
194,0.1846,485.526,0.73425,0.161744,58.7248,-39.631,-0.102781,0.0883289,-0.0344657,-0.0512763,-0.0118703,0.00374888,0.000120808,0.0832564,0.09234733599103051,-0.011800125925836347,0.003755915840053081,-0.03387852291515403,0.00012081529758023457,-0.04998385519464188
195,0.1856,486.069,0.737433,0.16244,58.8518,-39.7165,-0.103858,0.0887868,-0.0346459,-0.051551,-0.01189,0.00375498,0.000121722,0.0837204,0.09284763637121118,-0.011819593271601536,0.003762038769814735,-0.034052602320299274,0.00012172940842325453,-0.05024478878874994
196,0.1866,486.61,0.740603,0.163134,58.9781,-39.8016,-0.104937,0.0892444,-0.0348261,-0.0518256,-0.0119095,0.00376102,0.000122636,0.0841843,0.09334783788699319,-0.01183886260165623,0.0037681015108383953,-0.034226650359161837,0.00012264352010160628,-0.05050555576480409
197,0.1876,487.15,0.743762,0.163825,59.1037,-39.8862,-0.106016,0.0897018,-0.0350062,-0.0521001,-0.0119288,0.003767,0.000123549,0.084648,0.0938480495777354,-0.011857933927569064,0.0037741040620329347,-0.03440057047745537,0.00012355663249197235,-0.05076615622069769
198,0.1886,487.688,0.746909,0.164514,59.2287,-39.9704,-0.107096,0.0901591,-0.0351862,-0.0523744,-0.0119478,0.00377291,0.000124462,0.0851115,0.09434838068279516,-0.011876708448466,0.0037800363845179596,-0.03457436273299719,0.0001244697457161159,-0.05102649535690151
199,0.1896,488.224,0.750044,0.165201,59.3531,-40.0542,-0.108178,0.0906161,-0.0353661,-0.0526487,-0.0119667,0.00377876,0.000125374,0.0855749,0.09484861218695984,-0.011895383802193682,0.0037859085149067884,-0.03474802718355585,0.00012538185964849902,-0.05128676309187341
200,0.1906,488.759,0.753168,0.165886,59.4769,-40.1376,-0.10926,0.0910729,-0.0355459,-0.0529228,-0.0119854,0.00378456,0.000126286,0.0860381,0.09534885327937381,-0.011913861185752439,0.0037917304900598747,-0.03492156388685108,0.00012629397441266121,-0.051546769754568844
201,0.1916,489.292,0.75628,0.166568,59.6001,-40.2205,-0.110343,0.0915295,-0.0357257,-0.0531968,-0.0120039,0.00379029,0.000127197,0.0865011,0.09584910376427569,-0.011932140610235398,0.003797482233154348,-0.035095069391052,0.00012720508988151025,-0.05180661033987033
202,0.1926,489.824,0.759381,0.167248,59.7226,-40.3031,-0.111427,0.0919859,-0.0359053,-0.0534707,-0.0120223,0.00379596,0.000128108,0.086964,0.09634936344580924,-0.011950320891588984,0.0038031737810140243,-0.03526835075545709,0.000128116206180362,-0.05206628494523757
203,0.1936,490.354,0.76247,0.167926,59.8446,-40.3852,-0.112511,0.0924421,-0.0360849,-0.0537445,-0.0120404,0.00380157,0.000129019,0.0874267,0.09684963212802344,-0.011968204428934426,0.0038088051326148342,-0.03544160100132365,0.0001290273233092165,-0.05232579366805423
204,0.1946,490.883,0.765548,0.168602,59.966,-40.4669,-0.113597,0.0928981,-0.0362644,-0.0540181,-0.0120583,0.00380712,0.000129929,0.0878892,0.097349909614872,-0.01198589003978845,0.003814376286943366,-0.035614723695717276,0.0001299374411380949,-0.05258504186413615
205,0.1956,491.41,0.768615,0.169275,60.0868,-40.5483,-0.114683,0.0933538,-0.0364438,-0.0542917,-0.0120761,0.00381262,0.000130838,0.0883516,0.09785008592520006,-0.012003476534425461,0.0038198972811955834,-0.03578771889615273,0.00013084655966433267,-0.052844219139614124
206,0.1966,491.935,0.77167,0.169946,60.2069,-40.6292,-0.11577,0.0938094,-0.0366231,-0.0545651,-0.0120936,0.00381806,0.000131747,0.0888138,0.09835038038277122,-0.01202076632229998,0.003825358076290142,-0.035960586660096494,0.0001317556790172425,-0.05310313613453532
207,0.1976,492.459,0.774715,0.170615,60.3266,-40.7097,-0.116858,0.0942647,-0.0368023,-0.0548384,-0.012111,0.00382344,0.000132656,0.0892758,0.09885057317120705,-0.01203795701140653,0.003830758671244272,-0.0361333270449663,0.00013266479919615826,-0.05336188768741956
208,0.1986,492.982,0.777748,0.171282,60.4456,-40.7899,-0.117946,0.0947199,-0.0369815,-0.0551116,-0.0121282,0.00382876,0.000133563,0.0897377,0.09935088381417789,-0.012054949812407512,0.003836099065085863,-0.0363060364775325,0.00013357191993468298,-0.053620473895218956
209,0.1996,493.503,0.78077,0.171946,60.5641,-40.8696,-0.119035,0.0951748,-0.0371605,-0.0553847,-0.0121453,0.00383403,0.000134471,0.0901994,0.09985109229501798,-0.012071843528324022,0.003841389295267561,-0.036478522259065005,0.0001344800416303027,-0.05387889485481001
210,0.2006,494.022,0.783782,0.172609,60.682,-40.949,-0.120125,0.0956295,-0.0373395,-0.0556577,-0.0121621,0.00383924,0.000135377,0.090661,0.10035130830217542,-0.012088440581937032,0.003846619322530165,-0.03665097716840582,0.00013538616387953617,-0.05413715066299285
211,0.2016,494.54,0.786783,0.173269,60.7994,-41.028,-0.121215,0.0960841,-0.0375184,-0.0559305,-0.0121788,0.0038444,0.000136283,0.0911224,0.10085164172409988,-0.012104938567220835,0.003851799184449778,-0.03682330489341579,0.0001362922869498906,-0.05439514685601121
212,0.2026,495.056,0.789772,0.173927,60.9162,-41.1067,-0.122306,0.0965384,-0.0376972,-0.0562032,-0.0121953,0.00384951,0.000137189,0.0915836,0.10135187224369413,-0.01212123870125792,0.00385692888024991,-0.03699550549130859,0.00013719841084114393,-0.054652978142569864
213,0.2036,495.571,0.792751,0.174583,61.0325,-41.1849,-0.123397,0.0969925,-0.0378759,-0.0564759,-0.0122117,0.00385456,0.000138094,0.0920446,0.10185210969919822,-0.012137439780094073,0.003861998370541242,-0.03716757901924961,0.00013810353541532372,-0.05491073912812261
214,0.2046,496.085,0.79572,0.175237,61.1483,-41.2628,-0.124489,0.0974464,-0.0380545,-0.0567484,-0.0122278,0.00385955,0.000138998,0.0925055,0.10235235389362196,-0.012153344239282382,0.003867007654411392,-0.03733952553435593,0.0001390076606695434,-0.05516824086550509
215,0.2056,496.597,0.798678,0.175889,61.2635,-41.3404,-0.125581,0.0979,-0.0382331,-0.0570208,-0.0122438,0.0038645,0.000139901,0.0929662,0.10285249434462695,-0.012169149659330802,0.0038719768083979034,-0.037511441342556906,0.00013991078660136047,-0.05542557798578629
216,0.2066,497.108,0.801625,0.176539,61.3782,-41.4176,-0.126674,0.0983535,-0.0384116,-0.0572931,-0.0122597,0.00386939,0.000140804,0.0934268,0.10335275137552036,-0.012184856044985093,0.0038768857543667323,-0.037683230217663954,0.00014081391334852533,-0.055682750585262286
217,0.2076,497.617,0.804562,0.177186,61.4924,-41.4944,-0.127767,0.0988068,-0.0385899,-0.0575652,-0.0122753,0.00387423,0.000141706,0.0938872,0.10385301455380214,-0.012200265841034064,0.0038817445302521403,-0.03785479600217201,0.00014171604076951283,-0.055939664354124674
218,0.2086,498.124,0.807488,0.177832,61.606,-41.5709,-0.128861,0.0992599,-0.0387682,-0.0578373,-0.0122908,0.00387902,0.000142608,0.0943474,0.10435328368210861,-0.012215576618254786,0.0038865531353249327,-0.03802633119922749,0.0001426181690042938,-0.05619650822626043
219,0.2096,498.631,0.810405,0.178475,61.7192,-41.647,-0.129955,0.0997128,-0.0389465,-0.0581092,-0.0123062,0.00388375,0.000143508,0.0948074,0.10485355856298373,-0.012230788381243918,0.0038913015299513187,-0.03819783581428393,0.0001435182977655991,-0.05645309351132344
220,0.2106,499.136,0.81331,0.179117,61.8319,-41.7228,-0.13105,0.100165,-0.0391246,-0.0583811,-0.0123213,0.00388844,0.000144409,0.0952673,0.10535328632209673,-0.01224570358372934,0.0038960097911961977,-0.03836911752663619,0.0001444194274815569,-0.05670960904033118
221,0.2116,499.639,0.816206,0.179756,61.944,-41.7983,-0.132145,0.100618,-0.0393026,-0.0586528,-0.0123363,0.00389308,0.000145308,0.095727,0.1058541247921494,-0.01226051978705378,0.0039006678794883953,-0.038540272590463776,0.00014531855771870994,-0.056965866225439865
222,0.2126,500.141,0.819091,0.180394,62.0556,-41.8734,-0.13324,0.10107,-0.0394806,-0.0589244,-0.0123512,0.00389766,0.000146207,0.0961866,0.10635408383878797,-0.012275236995665462,0.003905265755076437,-0.038711397191401375,0.0001462176887643274,-0.05722195951712983
223,0.2136,500.642,0.821967,0.181029,62.1668,-41.9482,-0.134336,0.101522,-0.0396585,-0.0591959,-0.0123659,0.0039022,0.000147104,0.096646,0.10685426891799521,-0.012289756442963484,0.003909823495329201,-0.03888239522311521,0.00014711482032403467,-0.057477889011120054
224,0.2146,501.141,0.824832,0.181663,62.2775,-42.0226,-0.135432,0.101974,-0.0398363,-0.0594672,-0.0123804,0.00390669,0.000148002,0.0971052,0.1073546801319607,-0.012304078137662433,0.003914331060556053,-0.03905326674231624,0.00014801295283639604,-0.05773356057641521
225,0.2156,501.639,0.827688,0.182294,62.3877,-42.0968,-0.136528,0.102426,-0.040014,-0.0597385,-0.0123948,0.00391113,0.000148898,0.0975642,0.10785531758292088,-0.012318300856533515,0.003918788450081312,-0.039224011805668035,0.00014890908585751816,-0.057989162787423165
226,0.2166,502.136,0.830533,0.182924,62.4974,-42.1706,-0.137624,0.102877,-0.0401916,-0.0600096,-0.0124091,0.00391553,0.000149794,0.0980231,0.10835507301753045,-0.012332424603846204,0.003923205702468513,-0.03939463046978542,0.00014980521968133154,-0.05824450731187736
227,0.2176,502.631,0.833368,0.183551,62.6066,-42.244,-0.138721,0.103328,-0.0403692,-0.0602806,-0.0124232,0.00391987,0.000150688,0.0984818,0.1088550538926738,-0.012346350618480662,0.003927562738635926,-0.03956521883471886,0.00015069935400702228,-0.05849968847178688
228,0.2186,503.125,0.836194,0.184177,62.7154,-42.3172,-0.139818,0.103779,-0.0405466,-0.0605516,-0.0124371,0.00392417,0.000151582,0.0989404,0.10935526031004805,-0.012360078908795202,0.003931879636437152,-0.039735584852984895,0.00015159348913185156,-0.05875480048697168
229,0.2196,503.618,0.83901,0.184801,62.8237,-42.39,-0.140915,0.10423,-0.040724,-0.0608224,-0.0124509,0.00392842,0.000152476,0.0993987,0.10985569237139536,-0.01237370824566364,0.003936146355992376,-0.03990592065100007,0.0001524876250560414,-0.05900965517811718
230,0.2206,504.109,0.841817,0.185422,62.9316,-42.4626,-0.142012,0.104681,-0.0409013,-0.061093,-0.0124645,0.00393263,0.000153368,0.099857,0.11035635017850409,-0.012387139871896213,0.003940372936065417,-0.0400761302417425,0.0001533797614730048,-0.05926425271682545
231,0.2216,504.599,0.844613,0.186042,63.039,-42.5348,-0.14311,0.105131,-0.0410785,-0.0613636,-0.012478,0.00393679,0.00015426,0.100315,0.11085612297653036,-0.012400472555512132,0.003944549336703851,-0.04024621368162584,0.00015427189868555402,-0.059518781370760276
232,0.2226,505.087,0.8474,0.18666,63.1459,-42.6067,-0.144208,0.105581,-0.0412556,-0.0616341,-0.0124914,0.0039409,0.00015515,0.100773,0.11135612072292522,-0.012413706300513638,0.003948675557280845,-0.04041617102701567,0.00015516203638377135,-0.05977314713587878
233,0.2236,505.574,0.850178,0.187276,63.2524,-42.6783,-0.145305,0.106031,-0.0414327,-0.0619044,-0.0125046,0.00394497,0.00015604,0.101231,0.11185634351893858,-0.012426742353552234,0.0039527616367056595,-0.04058609827562476,0.0001560521748740218,-0.06002725610983295
234,0.2246,506.06,0.852946,0.18789,63.3585,-42.7497,-0.146403,0.106481,-0.0416096,-0.0621747,-0.0125176,0.003949,0.000156929,0.101688,0.11235679146586497,-0.012439580722452104,0.003956807574487575,-0.04075580358396269,0.00015694131399968114,-0.06028129640741353
235,0.2256,506.545,0.855705,0.188503,63.4641,-42.8207,-0.147501,0.106931,-0.0417865,-0.0624448,-0.0125305,0.00395298,0.000157818,0.102145,0.11285746466504554,-0.012452320169691222,0.003960803330533169,-0.04092547887408682,0.00015783045391559725,-0.06053508015421594
236,0.2266,507.028,0.858454,0.189113,63.5693,-42.8914,-0.148599,0.10738,-0.0419633,-0.0627148,-0.0125433,0.00395692,0.000158705,0.102603,0.11335724986006013,-0.01246496069909342,0.0039647589438909225,-0.04109502826081446,0.00015871759430474697,-0.060788701442159754
237,0.2276,507.51,0.861194,0.189722,63.674,-42.9618,-0.149698,0.107829,-0.0421401,-0.0629847,-0.012556,0.00396081,0.000159592,0.10306,0.11385725950901326,-0.012477502314453104,0.0039686643743992445,-0.04126454767386023,0.00015960473548082277,-0.06104216036582011
238,0.2286,507.991,0.863925,0.190328,63.7784,-43.032,-0.150796,0.108278,-0.0423167,-0.0632544,-0.0125685,0.00396466,0.000160477,0.103517,0.11435749371270743,-0.01248984626852434,0.003972529661197877,-0.041433845405311365,0.00016048987712258267,-0.061295363149239335
239,0.2296,508.471,0.866646,0.190933,63.8823,-43.1018,-0.151894,0.108727,-0.0424932,-0.0635241,-0.0125808,0.00396847,0.000161362,0.103973,0.1148579525719906,-0.012501992568715314,0.003976354803822746,-0.04160301740172945,0.00016137501954771594,-0.061548497653075795
240,0.2306,508.949,0.869359,0.191536,63.9858,-43.1714,-0.152992,0.109176,-0.0426697,-0.0637937,-0.0125931,0.00397223,0.000162246,0.10443,0.11535863618775566,-0.012514138719507795,0.003980129762013673,-0.04177215954192515,0.00016225916259404727,-0.06180147007589365
241,0.2316,509.426,0.872062,0.192138,64.0888,-43.2407,-0.15409,0.109624,-0.0428461,-0.0640631,-0.0126051,0.00397596,0.000163129,0.104886,0.11585842880195418,-0.012525988478744421,0.0039838746148819215,-0.041941176025289795,0.00016314230625891213,-0.062054186717395154
242,0.2326,509.902,0.874756,0.192737,64.1915,-43.3097,-0.155189,0.110072,-0.0430224,-0.0643324,-0.0126171,0.00397964,0.000164011,0.105342,0.11635844537340656,-0.012537838095784792,0.0039875692823385656,-0.042110066907787846,0.00016402445053942394,-0.06230674151688209
243,0.2336,510.376,0.877441,0.193335,64.2937,-43.3784,-0.156287,0.11052,-0.0431986,-0.0646016,-0.0126289,0.00398328,0.000164892,0.105798,0.11685868600246807,-0.012549490080548509,0.003991223803742061,-0.042278832245335796,0.0001649055954331402,-0.06255913456843676
244,0.2346,510.85,0.880118,0.193931,64.3956,-43.4469,-0.157385,0.110968,-0.0433748,-0.0648707,-0.0126406,0.00398688,0.000165772,0.106254,0.11735915078953907,-0.0125610431839287,0.003994838178653648,-0.042447567849050905,0.00016578574093717435,-0.06281136596606773
245,0.2356,511.322,0.882785,0.194525,64.497,-43.5151,-0.158483,0.111416,-0.0435508,-0.0651397,-0.0126522,0.00399043,0.000166652,0.10671,0.11785983983506476,-0.012572497409393146,0.003998402366655496,-0.04261608224740743,0.00016666588721592213,-0.06306343580370966
246,0.2366,511.792,0.885444,0.195117,64.598,-43.583,-0.159581,0.111863,-0.0437268,-0.0654086,-0.0126636,0.00399395,0.00016753,0.107165,0.11835963487934142,-0.012583754018759885,0.004001936447251886,-0.04278456698983968,0.00016754403393415274,-0.06331534417522366
247,0.2376,512.262,0.888093,0.195708,64.6987,-43.6506,-0.160679,0.11231,-0.0439027,-0.0656774,-0.0126749,0.00399743,0.000168407,0.107621,0.11885965338194215,-0.012594911759298166,0.004005430380070063,-0.04295292637686399,0.00016842118125492966,-0.06356709117439685
248,0.2386,512.73,0.890734,0.196297,64.7989,-43.718,-0.161777,0.112757,-0.0440786,-0.065946,-0.0126861,0.00400087,0.000169284,0.108076,0.11935989544277503,-0.012605970634356645,0.004008884164691029,-0.043121256152076515,0.0001692983293448691,-0.063818583276806
249,0.2396,513.198,0.893366,0.196884,64.8988,-43.7851,-0.162875,0.113204,-0.0442543,-0.0662145,-0.0126972,0.00400427,0.000170159,0.108531,0.119860361161793,-0.012616930647254443,0.004012297800700448,-0.043289364978577716,0.00017017347786385528,-0.06406991424450392
250,0.2406,513.664,0.89599,0.197469,64.9983,-43.852,-0.163972,0.11365,-0.04443,-0.066483,-0.0127081,0.00400763,0.000171034,0.108986,0.12035993027850322,-0.01262769306405509,0.004015671287688427,-0.04345744427095277,0.00017104862714845126,-0.06432117773889556
251,0.2416,514.129,0.898605,0.198053,65.0974,-43.9186,-0.16507,0.114097,-0.0446055,-0.0667513,-0.0127189,0.00401095,0.000171907,0.10944,0.12086084311301559,-0.01263835662738666,0.004019004625250622,-0.043625302759469964,0.00017192177685498855,-0.06457218669255138
252,0.2426,514.592,0.901211,0.198635,65.1961,-43.9849,-0.166167,0.114543,-0.044781,-0.0670195,-0.0127296,0.00401423,0.00017278,0.109895,0.12136085854419676,-0.01264892134044937,0.004022297812986464,-0.043793131791407425,0.00017279492732380497,-0.0648230347918467
253,0.2436,515.055,0.903809,0.199215,65.2944,-44.051,-0.167264,0.114989,-0.0449564,-0.0672875,-0.0127401,0.00401747,0.000173652,0.110349,0.12186109703199821,-0.012659288472347763,0.00402555085050138,-0.043960835768022455,0.00017366707838140094,-0.06507362863744726
254,0.2446,515.516,0.906398,0.199794,65.3924,-44.1169,-0.168361,0.115435,-0.0451318,-0.0675555,-0.0127506,0.00402068,0.000174522,0.110803,0.12236155867592524,-0.012669655495391896,0.004028773777692507,-0.04412851033193965,0.00017453722985028008,-0.0653241553328957
255,0.2456,515.976,0.908979,0.200371,65.49,-44.1825,-0.169458,0.11588,-0.045307,-0.0678234,-0.0127609,0.00402385,0.000175392,0.111257,0.1228611207138457,-0.01267982494556752,0.004031956553949945,-0.04429596434752936,0.00017540738207610929,-0.06557452145364284
256,0.2466,516.435,0.911552,0.200946,65.5872,-44.2478,-0.170554,0.116326,-0.0454822,-0.0680911,-0.0127711,0.00402698,0.000176261,0.111711,0.12336202846780986,-0.012689895559992781,0.004035099178892221,-0.04446338902774549,0.00017627653488272443,-0.06582463367523517
257,0.2476,516.893,0.914116,0.20152,65.6841,-44.3129,-0.171651,0.116771,-0.0456573,-0.0683588,-0.0127812,0.00403007,0.000177129,0.112165,0.12386203581386135,-0.012699867341690041,0.004038201652142082,-0.04463068884080057,0.00017714468826768304,-0.06607467895074692
258,0.2486,517.349,0.916672,0.202092,65.7806,-44.3777,-0.172747,0.117216,-0.0458323,-0.0686263,-0.0127911,0.00403313,0.000177995,0.112618,0.12436226571269615,-0.012709641564620955,0.00404127401373966,-0.04479786384201423,0.000178010842049936,-0.06632447056300994
259,0.2496,517.805,0.91922,0.202662,65.8768,-44.4423,-0.173843,0.117661,-0.0460072,-0.0688937,-0.012801,0.00403615,0.000178861,0.113071,0.12486271826337236,-0.012719415690787383,0.00404430622296581,-0.04496491408665848,0.0001788769965824777,-0.0665741020223678
260,0.2506,518.259,0.921759,0.203231,65.9726,-44.5067,-0.174938,0.118105,-0.0461821,-0.069161,-0.0128107,0.00403914,0.000179726,0.113525,0.12536226820216112,-0.012728992266008765,0.004047308319929721,-0.04513193511676994,0.00017974215168514718,-0.06682357342155931
261,0.2516,518.713,0.92429,0.203798,66.068,-44.5708,-0.176033,0.11855,-0.0463569,-0.0694282,-0.0128203,0.00404209,0.000180589,0.113978,0.12586316585297253,-0.012738470022189752,0.004050270263858069,-0.04529883146734548,0.00018060530717511902,-0.06707288485325047
262,0.2526,519.165,0.926814,0.204363,66.1631,-44.6347,-0.177128,0.118994,-0.0465316,-0.0696952,-0.0128298,0.004045,0.000181452,0.11443,0.12636316008911774,-0.012747848962174513,0.004053192054395804,-0.04546560319355375,0.00018146846340982847,-0.0673219431422335
263,0.2536,519.616,0.929329,0.204927,66.2579,-44.6984,-0.178223,0.119438,-0.0467062,-0.0699622,-0.0128392,0.00404788,0.000182314,0.114883,0.12686337637199463,-0.012757129088777575,0.004056083731752924,-0.04563225035051599,0.00018233062020733826,-0.0675709349415301
264,0.2546,520.066,0.931836,0.205489,66.3523,-44.7618,-0.179318,0.119882,-0.0468807,-0.0702291,-0.0128484,0.00405072,0.000183174,0.115335,0.12736381480021364,-0.0127662116814099,0.004058935255079721,-0.0457987729933067,0.00018319077738149225,-0.06781976705087212
265,0.2556,520.515,0.934335,0.20605,66.4463,-44.825,-0.180412,0.120325,-0.0470551,-0.0704958,-0.0128576,0.00405353,0.000184034,0.115788,0.1278633476085178,-0.012775294190482844,0.0040617566646519165,-0.0459651711769532,0.00018405093529549887,-0.06806834636947412
266,0.2566,520.962,0.936826,0.206609,66.5401,-44.888,-0.181506,0.120769,-0.0472295,-0.0707624,-0.0128667,0.0040563,0.000184892,0.11624,0.1283642301225456,-0.012784277894429819,0.004064537919569844,-0.046131540343287036,0.00018490909357926633,-0.06831676623249283
267,0.2576,521.409,0.939309,0.207167,66.6334,-44.9507,-0.182599,0.121212,-0.0474038,-0.0710289,-0.0128756,0.00405904,0.00018575,0.116692,0.1288642062130172,-0.012793064075258043,0.004067289060172952,-0.046297785127151325,0.00018576725259955573,-0.06856502673211096
268,0.2586,521.854,0.941784,0.207722,66.7265,-45.0132,-0.183692,0.121655,-0.047578,-0.0712953,-0.0128844,0.00406175,0.000186606,0.117143,0.12936440384196413,-0.01280175145806961,0.004070010086213216,-0.046463905583470355,0.0001866234119827226,-0.0688131279604387
269,0.2596,522.299,0.944252,0.208277,66.8192,-45.0755,-0.184785,0.122098,-0.0477522,-0.0715616,-0.0128931,0.00406442,0.000187461,0.117595,0.12986482310754965,-0.012810340045471547,0.004072690956719027,-0.0466299971041263,0.0001874785719113703,-0.06906107000951367
270,0.2606,522.742,0.946711,0.20883,66.9116,-45.1376,-0.185877,0.12254,-0.0479262,-0.0718278,-0.0129018,0.00406706,0.000188316,0.118046,0.13036433374308132,-0.012818928558153031,0.004075341712122205,-0.04679586905335209,0.00018833373257098884,-0.06930885297130174
271,0.2616,523.185,0.949163,0.209381,67.0037,-45.1994,-0.186969,0.122983,-0.0481002,-0.0720939,-0.0129103,0.00406966,0.000189169,0.118498,0.13086519607574498,-0.012827319561598438,0.004077952311404509,-0.04696171214336953,0.00018918689358349283,-0.06955647693769618
272,0.2626,523.626,0.951607,0.209931,67.0955,-45.2611,-0.188061,0.123425,-0.0482741,-0.0723598,-0.0129187,0.00407224,0.000190021,0.118949,0.13136514897386165,-0.01283561177728676,0.004080542835863232,-0.047127431091947614,0.00019003905513392816,-0.06980384898090786
273,0.2636,524.066,0.954044,0.210479,67.1869,-45.3225,-0.189152,0.123867,-0.0484479,-0.0726257,-0.012927,0.00407478,0.000190872,0.1194,0.13186532290000286,-0.012843805207706227,0.004083093203681054,-0.04729302595381346,0.0001908902172191862,-0.0700511552566373
274,0.2646,524.505,0.956473,0.211026,67.278,-45.3837,-0.190243,0.124309,-0.0486216,-0.0728914,-0.0129352,0.00407728,0.000191722,0.11985,0.13236571795188445,-0.01285189985531543,0.004085603414551775,-0.04745849678364766,0.00019174037983726855,-0.0702982098420305
275,0.2656,524.943,0.958894,0.211571,67.3688,-45.4447,-0.191333,0.12475,-0.0487953,-0.0731571,-0.0129432,0.00407976,0.000192571,0.120301,0.13286520136149815,-0.012859797008527907,0.0040880935499361115,-0.04762393887369487,0.00019258954298528863,-0.07054519879374022
276,0.2666,525.38,0.961308,0.212114,67.4593,-45.5055,-0.192423,0.125192,-0.0489689,-0.0734226,-0.0129512,0.0040822,0.000193419,0.120751,0.1333660384573443,-0.012867694098563476,0.004090543527873303,-0.04778925700787717,0.00019343770666080395,-0.07079193628760883
277,0.2676,525.816,0.963714,0.212657,67.5494,-45.566,-0.193513,0.125633,-0.0491424,-0.073688,-0.0129591,0.00408461,0.000194266,0.121202,0.13386596310558674,-0.012875492412976697,0.004092963388999005,-0.047954451240772245,0.00019428487086137203,-0.07103851538522443
278,0.2686,526.251,0.966113,0.213197,67.6393,-45.6264,-0.194602,0.126074,-0.0493158,-0.0739533,-0.0129669,0.00408699,0.000195112,0.121652,0.13436610826921913,-0.012883191954107698,0.004095353133095836,-0.04811952162691102,0.00019513103558432832,-0.0712849361779293
279,0.2696,526.685,0.968504,0.213737,67.7289,-45.6865,-0.195691,0.126515,-0.0494892,-0.0742184,-0.0129746,0.00408934,0.000195956,0.122102,0.1348664740455101,-0.012890792724266631,0.004097712759948191,-0.04828456339232634,0.0001959752006310822,-0.0715311059101088
280,0.2706,527.118,0.970888,0.214274,67.8181,-45.7465,-0.196779,0.126956,-0.0496624,-0.0744835,-0.0129822,0.00409166,0.0001968,0.122551,0.1353670605317716,-0.012898294725734227,0.0041000422693440175,-0.04844938623187678,0.00019681936639037723,-0.07177721039134177
281,0.2716,527.55,0.973264,0.214811,67.9071,-45.8062,-0.197867,0.127396,-0.0498356,-0.0747485,-0.0129896,0.00409394,0.000197642,0.123001,0.13586673195805798,-0.012905599251326505,0.004102331620050137,-0.04861418052658362,0.0001976615324668085,-0.07202315684124405
282,0.2726,527.981,0.975633,0.215345,67.9957,-45.8658,-0.198954,0.127836,-0.0500087,-0.0750133,-0.012997,0.0040962,0.000198484,0.12345,0.1363666232881473,-0.012912903722865465,0.00410460089388387,-0.048778851159279935,0.00019850369925245026,-0.07226885257776139
283,0.2736,528.411,0.977995,0.215879,68.0841,-45.9251,-0.200041,0.128276,-0.0501818,-0.0752781,-0.0130043,0.00409842,0.000199324,0.123899,0.13686673461881838,-0.012920109432367433,0.00410683000857226,-0.04894349328995684,0.0001993438663483449,-0.07251448326266086
284,0.2746,528.839,0.98035,0.216411,68.1721,-45.9842,-0.201127,0.128716,-0.0503547,-0.0755427,-0.0130115,0.00410062,0.000200163,0.124348,0.13736706604689286,-0.012927216381994455,0.004109039046028329,-0.04910791674514969,0.0002001830339499744,-0.07275986346515706
285,0.2756,529.267,0.982697,0.216941,68.2599,-46.0432,-0.202213,0.129156,-0.0505276,-0.0758072,-0.0130186,0.00410278,0.000201001,0.124797,0.13786761766923483,-0.01293422457387905,0.004111207923894966,-0.04927231177398461,0.00020102120205445217,-0.07300508604915412
286,0.2766,529.694,0.985037,0.21747,68.3474,-46.1019,-0.203298,0.129595,-0.0507004,-0.0760716,-0.0130256,0.00410492,0.000201838,0.125246,0.13836725121493076,-0.012941134010123978,0.004113356724179118,-0.04943658332503931,0.0002018583706595578,-0.0732501511053747
287,0.2776,530.12,0.98737,0.217998,68.4345,-46.1605,-0.204383,0.130035,-0.0508731,-0.0763359,-0.0130325,0.00410702,0.000202674,0.125695,0.13886824301557876,-0.01294794469280236,0.0041154653644424055,-0.049600731452500324,0.0002026945397628488,-0.07349505872447004
288,0.2786,530.545,0.989696,0.218524,68.5214,-46.2188,-0.205467,0.130474,-0.0510457,-0.0766001,-0.0130393,0.0041091,0.000203508,0.126143,0.13936831593223653,-0.012954656623957894,0.004117553926782369,-0.0497647562105078,0.0002035287091577409,-0.07373980899702037
289,0.2796,530.969,0.992015,0.219049,68.608,-46.277,-0.206551,0.130913,-0.0512183,-0.0768642,-0.013046,0.00411115,0.000204342,0.126591,0.1398686084290992,-0.012961269805604303,0.004119612369877901,-0.04992875266028507,0.0002043628792485208,-0.07398440201353473
290,0.2806,531.392,0.994326,0.219572,68.6944,-46.335,-0.207634,0.131351,-0.0513908,-0.0771281,-0.0130526,0.00411317,0.000205174,0.127039,0.14036798023403296,-0.012967784239725999,0.004121640693543371,-0.05009262581598517,0.0002051950496246846,-0.07422874528733026
291,0.2816,531.814,0.996631,0.220094,68.7804,-46.3927,-0.208716,0.13179,-0.0515632,-0.077392,-0.0130592,0.00411516,0.000206006,0.127487,0.14086871167986614,-0.012974298630852532,0.004123638897596704,-0.05025637573164621,0.00020602722069318347,-0.0744730240874436
292,0.2826,532.235,0.998929,0.220615,68.8662,-46.4503,-0.209799,0.132228,-0.0517355,-0.0776557,-0.0130656,0.00411712,0.000206836,0.127935,0.1413685216259697,-0.012980615575126975,0.004125606981857599,-0.050420002461259994,0.00020685739204040487,-0.07471705337431611
293,0.2836,532.655,1.00122,0.221134,68.9517,-46.5077,-0.21088,0.132666,-0.0519078,-0.0779194,-0.0130719,0.00411905,0.000207665,0.128382,0.14186855053677938,-0.012986833777661522,0.0041275449461490865,-0.05058360100041703,0.0002076865638687142,-0.07496101831914959
294,0.2846,533.074,1.0035,0.221652,69.0369,-46.565,-0.211961,0.133104,-0.05208,-0.0781829,-0.0130782,0.00412095,0.000208493,0.128829,0.1423687985082227,-0.012993051941021516,0.0041294527902970835,-0.05074707642868648,0.00020851473617611305,-0.07520473397987415
295,0.2856,533.492,1.00578,0.222169,69.1218,-46.622,-0.213041,0.133542,-0.0522521,-0.0784463,-0.0130844,0.00412283,0.00020932,0.129277,0.14286926563626956,-0.01299917136512918,0.004131340555442842,-0.05091042879995833,0.00020934190895993687,-0.07544829297481603
296,0.2866,533.909,1.00805,0.222684,69.2065,-46.6789,-0.214121,0.13398,-0.0524241,-0.0787096,-0.0130904,0.00412468,0.000210145,0.129724,0.14336995201693092,-0.013005093352335018,0.0041331982001411305,-0.05107365816807674,0.0002101670820073842,-0.07569169539394105
297,0.2876,534.325,1.01031,0.223198,69.2909,-46.7355,-0.2152,0.134417,-0.052596,-0.0789728,-0.0130964,0.0041265,0.00021097,0.13017,0.14386971387597547,-0.013011015304009055,0.004135025724224972,-0.051236764586839234,0.0002109922557356203,-0.07593494132714429
298,0.2886,534.74,1.01257,0.22371,69.375,-46.792,-0.216279,0.134854,-0.0527679,-0.0792359,-0.0131023,0.00412829,0.000211793,0.130617,0.1443696941786785,-0.013016838521840213,0.00413682312752961,-0.051399842970018206,0.00021181542972081857,-0.07617803086425035
299,0.2896,535.155,1.01482,0.224221,69.4589,-46.8483,-0.217357,0.135291,-0.0529397,-0.0794989,-0.0131081,0.00413006,0.000212616,0.131063,0.14486989302052145,-0.01302256300757576,0.0041386004512795616,-0.05156279847871692,0.00021263860438369697,-0.07642096409501287
300,0.2906,535.568,1.01706,0.224731,69.5425,-46.9045,-0.218434,0.135728,-0.0531114,-0.0797617,-0.0131138,0.0041318,0.000213437,0.13151,0.1453703104970263,-0.013028188762933213,0.004140347653964316,-0.05172563116663187,0.00021345977929709825,-0.07666364877548493
301,0.2916,535.981,1.0193,0.225239,69.6258,-46.9604,-0.219511,0.136165,-0.053283,-0.0800245,-0.0131195,0.00413351,0.000214257,0.131956,0.14587094670375755,-0.013033814486223982,0.004142064735426887,-0.05188834108741314,0.0002142799546704932,-0.0769062696868027
302,0.2926,536.392,1.02153,0.225746,69.7089,-47.0162,-0.220587,0.136601,-0.0534546,-0.0802871,-0.013125,0.0041352,0.000215076,0.132402,0.14637065536509253,-0.01303924278531643,0.004143761736950191,-0.05205102308956755,0.00021509913050121732,-0.07714864227546925
303,0.2936,536.803,1.02375,0.226252,69.7917,-47.0718,-0.221663,0.137037,-0.0536261,-0.0805497,-0.0131305,0.00413685,0.000215893,0.132848,0.14687058194690694,-0.013044671054553425,0.004145418575524085,-0.05221358239924845,0.00021591630657091798,-0.07739095122545014
304,0.2946,537.212,1.02597,0.226757,69.8743,-47.1273,-0.222737,0.137473,-0.0537975,-0.0808121,-0.0131359,0.00413849,0.00021671,0.133293,0.14737072654423522,-0.013050000598939904,0.004147065375360803,-0.05237601907000489,0.00021673348330830677,-0.07763301208007545
305,0.2956,537.621,1.02818,0.22726,69.9566,-47.1825,-0.223812,0.137909,-0.0539688,-0.0810744,-0.0131412,0.00414009,0.000217525,0.133739,0.14787108925215242,-0.01305523142007503,0.004148672011950794,-0.052538333155339845,0.00021754866027845488,-0.07787491721376172
306,0.2966,538.029,1.03038,0.227762,70.0386,-47.2376,-0.224885,0.138345,-0.0541401,-0.0813366,-0.0131464,0.00414167,0.00021834,0.134184,0.14837167016577557,-0.013060363519528218,0.004150258568105913,-0.05270061943865334,0.0002183638379127384,-0.07811666671572348
307,0.2976,538.436,1.03258,0.228262,70.1204,-47.2926,-0.225958,0.13878,-0.0543112,-0.0815987,-0.0131515,0.00414323,0.000219153,0.134629,0.14887132050836827,-0.013065396898839121,0.004151825043731128,-0.052862688497264054,0.00021917701577311988,-0.07835826067510587
308,0.2986,538.842,1.03477,0.228762,70.202,-47.3473,-0.227031,0.139215,-0.0544823,-0.0818607,-0.0131566,0.00414476,0.000219965,0.135074,0.14937118824614015,-0.013070430252479892,0.004153361397198907,-0.05302472982823103,0.00021998919407462125,-0.07859969918098364
309,0.2996,539.247,1.03695,0.22926,70.2833,-47.4019,-0.228102,0.139651,-0.0546534,-0.0821226,-0.0131615,0.00414626,0.000220776,0.135519,0.14987242334552686,-0.013075266195523572,0.004154867628370473,-0.053186743436298034,0.00022080037281480003,-0.07884098232236159
310,0.3006,539.652,1.03913,0.229756,70.3643,-47.4563,-0.229173,0.140085,-0.0548243,-0.0823844,-0.0131664,0.00414774,0.000221585,0.135963,0.15037157628561193,-0.013080102114871206,0.004156353778674404,-0.05334853999593492,0.00022160955176953046,-0.07908211018817479
311,0.3016,540.055,1.0413,0.230252,70.4451,-47.5106,-0.230243,0.14052,-0.0549952,-0.0826461,-0.0131712,0.0041492,0.000222394,0.136408,0.1508720967766104,-0.01308483931901172,0.004157819848021216,-0.05351030890690245,0.00022241873137884838,-0.07932308286728817
312,0.3026,540.458,1.04346,0.230746,70.5257,-47.5647,-0.231313,0.140955,-0.055166,-0.0829076,-0.0131759,0.00415062,0.000223201,0.136852,0.15137283504138477,-0.013089477809366423,0.0041592457531376414,-0.05367195554112558,0.0002232259111965007,-0.07956380840488253
313,0.3036,540.859,1.04562,0.231239,70.606,-47.6186,-0.232382,0.141389,-0.0553367,-0.0831691,-0.0131806,0.00415203,0.000224007,0.137296,0.1518726393014722,-0.013094116277920342,0.0041606616186724565,-0.05383347995181409,0.00022403209144150615,-0.07980447100097876
314,0.3046,541.26,1.04777,0.231731,70.6861,-47.6724,-0.23345,0.141823,-0.0555074,-0.0834304,-0.0131852,0.00415341,0.000224812,0.13774,0.1523726605236857,-0.013098656034544076,0.004162047361341736,-0.05399497679263876,0.00022483727211142224,-0.08004488668102971
315,0.3056,541.66,1.04992,0.232221,70.7659,-47.726,-0.234518,0.142257,-0.0556779,-0.0836916,-0.0131896,0.00415476,0.000225616,0.138184,0.15287289880220745,-0.013102998390904341,0.004163402981020692,-0.054156256899575816,0.00022564145320380646,-0.08028514757718963
316,0.3066,542.059,1.05206,0.23271,70.8455,-47.7794,-0.235584,0.142691,-0.0558484,-0.0839528,-0.0131941,0.00415609,0.000226419,0.138628,0.15337335423126053,-0.013107439417419209,0.004164738519234712,-0.05431750951059866,0.0002264446347164384,-0.0805253457253986
317,0.3076,542.458,1.05419,0.233198,70.9249,-47.8327,-0.23665,0.143124,-0.0560188,-0.0842138,-0.0131984,0.0041574,0.00022722,0.139071,0.1538728730316583,-0.013111683046305944,0.004166053975903861,-0.05447864007826386,0.0002272458164194191,-0.08076529729512238
318,0.3086,542.855,1.05632,0.233685,71.004,-47.8858,-0.237716,0.143558,-0.0561892,-0.0844747,-0.0132026,0.00415868,0.000228021,0.139514,0.15437376254371604,-0.013115827968532723,0.004167339309275597,-0.05463974319161946,0.00022804699876433077,-0.08100509434617253
319,0.3096,543.251,1.05844,0.234171,71.0829,-47.9388,-0.238781,0.143991,-0.0563594,-0.0847355,-0.0132068,0.00415994,0.00022882,0.139957,0.15487371461470967,-0.013119972873350982,0.004168604560920164,-0.05480062981548817,0.00022884618129315193,-0.081244736966811
320,0.3106,543.647,1.06056,0.234655,71.1616,-47.9916,-0.239845,0.144424,-0.0565296,-0.0849962,-0.0132109,0.00416118,0.000229618,0.1404,0.15537388321182433,-0.013124019073167514,0.004169849730761843,-0.05496148905878362,0.00022964436423089651,-0.08148422524523025
321,0.3116,544.042,1.06266,0.235138,71.24,-48.0443,-0.240908,0.144857,-0.0566998,-0.0852568,-0.0132149,0.00416239,0.000230415,0.140843,0.15587426842883656,-0.013127966569196237,0.00417106477701501,-0.05512232092616565,0.00023044154757512203,-0.08172355926955344
322,0.3126,544.436,1.06477,0.23562,71.3182,-48.0968,-0.24197,0.145289,-0.0568698,-0.0855172,-0.0132189,0.00416357,0.00023121,0.141285,0.15637371398527056,-0.013131914049434923,0.00417224969957064,-0.05528293647889937,0.0002312367310921548,-0.08196264732410397
323,0.3136,544.829,1.06686,0.236101,71.3962,-48.1492,-0.243032,0.145722,-0.0570398,-0.0857776,-0.0132228,0.00416474,0.000232005,0.141728,0.15687453222274983,-0.013135762827465092,0.004173424581790153,-0.05544352472931002,0.00023203191524157063,-0.08220167312823046
324,0.3146,545.221,1.06895,0.23658,71.474,-48.2014,-0.244093,0.146154,-0.0572097,-0.0860379,-0.0132266,0.00416588,0.000232798,0.14217,0.15737440998649288,-0.013139512904441153,0.0041745693401467054,-0.0556039912424422,0.00023282509955735442,-0.08244054494219977
325,0.3156,545.613,1.07104,0.237058,71.5515,-48.2534,-0.245153,0.146586,-0.0573795,-0.086298,-0.0132303,0.004167,0.000233591,0.142612,0.15787450374408118,-0.013143164281488318,0.004175694016294029,-0.05576433607106801,0.00023361828450196853,-0.08267917112178036
326,0.3166,546.003,1.07312,0.237535,71.6288,-48.3053,-0.246213,0.147018,-0.0575492,-0.0865581,-0.0132339,0.0041681,0.000234382,0.143054,0.1583748135888443,-0.013146716959702154,0.004176798610165067,-0.055924559267913954,0.0002344094696069554,-0.0829177352427628
327,0.3176,546.393,1.07519,0.238011,71.7059,-48.3571,-0.247272,0.14745,-0.0577189,-0.086818,-0.0132375,0.00416917,0.000235171,0.143496,0.158875339614152,-0.01315026962512622,0.0041778730799144626,-0.05608475527719037,0.00023519865486743008,-0.08315605395251535
328,0.3186,546.782,1.07725,0.238486,71.7827,-48.4087,-0.24833,0.147881,-0.0578885,-0.0870778,-0.013241,0.00417022,0.00023596,0.143937,0.1593749225379122,-0.013153723593138156,0.004178927467234583,-0.05624482972799827,0.00023598784075051782,-0.08339421907070999
329,0.3196,547.17,1.07932,0.23896,71.8593,-48.4601,-0.249387,0.148312,-0.058058,-0.0873376,-0.0132445,0.00417125,0.000236748,0.144379,0.15987472082832066,-0.013157177549061094,0.00417996177206259,-0.05640478267296434,0.00023677602701943634,-0.08363232232164386
330,0.3206,547.558,1.08137,0.239432,71.9358,-48.5114,-0.250444,0.148744,-0.0582274,-0.0875972,-0.0132478,0.00417225,0.000237534,0.14482,0.16037589495353521,-0.013160434125001896,0.004180965952526483,-0.05656461416466996,0.00023756221343451678,-0.08387018049544237
331,0.3216,547.944,1.08342,0.239903,72.012,-48.5626,-0.251499,0.149175,-0.0583968,-0.0878567,-0.0132511,0.00417324,0.000238319,0.145261,0.16087612475603907,-0.013163690690195962,0.004181960092174863,-0.05672441858321409,0.0002383474002289887,-0.0841078853400663
332,0.3226,548.33,1.08546,0.240374,72.088,-48.6136,-0.252554,0.149605,-0.0585661,-0.0881161,-0.0132544,0.0041742,0.000239103,0.145702,0.16137540882806656,-0.01316694724464329,0.004182924107319241,-0.056884101621597294,0.00023913158740063167,-0.08434543694283425
333,0.3236,548.715,1.0875,0.240842,72.1637,-48.6645,-0.253609,0.150036,-0.0587353,-0.0883754,-0.0132575,0.00417514,0.000239886,0.146142,0.161876069513899,-0.0131700064223651,0.004183868039711713,-0.057043663332301486,0.00023991477494744728,-0.08458283539099598
334,0.3246,549.099,1.08953,0.24131,72.2393,-48.7152,-0.254662,0.150466,-0.0589045,-0.0886346,-0.0132606,0.00417606,0.000240668,0.146583,0.16237578365463046,-0.013173065590603494,0.004184791889295214,-0.05720319804744822,0.00024069696286654896,-0.08482008077173298
335,0.3256,549.482,1.09156,0.241777,72.3146,-48.7658,-0.255715,0.150896,-0.0590735,-0.0888936,-0.0132636,0.00417696,0.000241448,0.147023,0.16287571271864754,-0.013176026066965996,0.004185695656014676,-0.05736251724412689,0.00024147715091449307,-0.08505708167787096
336,0.3266,549.865,1.09358,0.242243,72.3898,-48.8163,-0.256766,0.151326,-0.0592425,-0.0891526,-0.0132666,0.00417783,0.000242227,0.147464,0.1633758567983874,-0.013178986534447157,0.004186569297949916,-0.057521809518136346,0.00024225633932872803,-0.08529402120872265
337,0.3276,550.247,1.09559,0.242707,72.4647,-48.8666,-0.257817,0.151756,-0.0594114,-0.0894115,-0.0132694,0.00417869,0.000243005,0.147904,0.1638762159863265,-0.01318174962941654,0.004187432898770771,-0.0576809806421289,0.00024303452810681136,-0.0855308079332675
338,0.3286,550.628,1.0976,0.24317,72.5394,-48.9168,-0.258868,0.152186,-0.0595803,-0.0896702,-0.0132722,0.00417952,0.000243782,0.148343,0.1643767903749811,-0.013184512716649222,0.004188266374685945,-0.05784012488438883,0.00024381171724652262,-0.08576735051515305
339,0.3296,551.008,1.0996,0.243632,72.6139,-48.9668,-0.259917,0.152615,-0.0597491,-0.0899289,-0.013275,0.00418033,0.000244558,0.148783,0.16487641517991003,-0.013187275796145315,0.004189079767511261,-0.05799914804937567,0.00024458790674564135,-0.08600383191138727
340,0.3306,551.387,1.1016,0.244093,72.6882,-49.0167,-0.260966,0.153045,-0.0599178,-0.0901874,-0.0132777,0.00418112,0.000245333,0.149223,0.1653774197466995,-0.01318994018690367,0.004189873077197426,-0.058158050189327404,0.00024536309660172506,-0.08624006938582907
341,0.3316,551.766,1.10359,0.244553,72.7623,-49.0664,-0.262014,0.153474,-0.0600864,-0.0904459,-0.0132803,0.00418189,0.000246106,0.149662,0.16587747391372054,-0.01319250588972376,0.004190646303697587,-0.05831683135643695,0.0002461362865662231,-0.08647624580077606
342,0.3326,552.144,1.10558,0.245012,72.8362,-49.1161,-0.263061,0.153903,-0.0602549,-0.0907042,-0.0132828,0.00418264,0.000246878,0.150101,0.16637774265000105,-0.013194972905375302,0.004191399446964672,-0.05847549160285215,0.0002469084768814689,-0.086712178514464
343,0.3336,552.521,1.10756,0.24547,72.9099,-49.1656,-0.264107,0.154331,-0.0604234,-0.0909624,-0.0132853,0.00418337,0.000247649,0.15054,0.1668770591699682,-0.013197439914859332,0.004192132506953827,-0.05863412511726818,0.00024767966754524195,-0.08694795898940233
344,0.3346,552.897,1.10953,0.245927,72.9834,-49.2149,-0.265152,0.15476,-0.0605918,-0.0912205,-0.0132877,0.00418408,0.000248419,0.150979,0.16737775682031897,-0.01319980823816147,0.004192845483621088,-0.058792637783457335,0.0002484498585550998,-0.08718358731204412
345,0.3356,553.273,1.1115,0.246382,73.0567,-49.2641,-0.266197,0.155188,-0.0607602,-0.0914785,-0.01329,0.00418477,0.000249188,0.151418,0.16787750143795743,-0.01320207787599248,0.004193538376923378,-0.05895112375836098,0.0002492190499086,-0.08741906356877427
346,0.3366,553.648,1.11347,0.246837,73.1298,-49.3132,-0.267241,0.155616,-0.0609284,-0.0917364,-0.0132923,0.00418544,0.000249956,0.151856,0.16837745999207154,-0.01320434750860322,0.004194211186819619,-0.05910939486837141,0.0002499872416039661,-0.08765438784591006
347,0.3376,554.022,1.11542,0.24729,73.2027,-49.3622,-0.268284,0.156044,-0.0610966,-0.0919942,-0.0132945,0.00418609,0.000250722,0.152295,0.16887763257424537,-0.013206518456650662,0.004194863913268954,-0.0592676393594197,0.0002507534333875405,-0.08788956022970063
348,0.3386,554.395,1.11738,0.247742,73.2754,-49.411,-0.269326,0.156472,-0.0612647,-0.0922519,-0.0132967,0.00418672,0.000251487,0.152733,0.16937801927610274,-0.013208689399922036,0.004195496556232525,-0.05942576317856407,0.0002515186255067636,-0.08812458080632746
349,0.3396,554.767,1.11932,0.248193,73.3479,-49.4597,-0.270367,0.1569,-0.0614327,-0.0925095,-0.0132988,0.00418733,0.000252251,0.153171,0.16987862018930655,-0.013210761659498416,0.004196109115672142,-0.05958376637770968,0.00025228281795874885,-0.08835944966190434
350,0.3406,555.139,1.12127,0.248644,73.4202,-49.5082,-0.271408,0.157327,-0.0616007,-0.092767,-0.0133008,0.00418792,0.000253014,0.153609,0.1703782650267085,-0.013212735236001527,0.004196701591551388,-0.05974174303454749,0.00025304601074171984,-0.08859416688247734
351,0.3416,555.51,1.1232,0.249093,73.4923,-49.5566,-0.272447,0.157755,-0.0617686,-0.0930244,-0.0133027,0.00418848,0.000253776,0.154046,0.1708792941367212,-0.013214610130023452,0.004197263941861706,-0.05989959914350085,0.0002538082038532341,-0.08882873255402479
352,0.3426,555.881,1.12513,0.249541,73.5642,-49.6049,-0.273486,0.158182,-0.0619364,-0.0932816,-0.0133046,0.00418903,0.000254536,0.154484,0.17137936635313755,-0.013216485020483115,0.004197816250508746,-0.060057334756376535,0.0002545683970363033,-0.0890630556687676
353,0.3436,556.25,1.12706,0.249988,73.636,-49.6531,-0.274524,0.158609,-0.0621042,-0.0935388,-0.0133065,0.00418957,0.000255295,0.154921,0.17187965214598577,-0.013218359907380406,0.004198358517475853,-0.060215043903436904,0.00025532759054192056,-0.0892973185233551
354,0.3446,556.619,1.12898,0.250434,73.7075,-49.7012,-0.275561,0.159035,-0.0622718,-0.0937959,-0.0133083,0.00419008,0.000256054,0.155358,0.1723789792269168,-0.013220136112733982,0.004198870658769449,-0.06037253866364911,0.0002560867846235215,-0.08953143008643172
355,0.3456,556.987,1.1309,0.250878,73.7789,-49.7491,-0.276597,0.159462,-0.0624394,-0.0940528,-0.01331,0.00419057,0.000256811,0.155795,0.17287969194560437,-0.01322181363707664,0.004199362716336585,-0.06053000702995137,0.00025684397876779563,-0.08976529942024036
356,0.3466,557.355,1.13281,0.251322,73.85,-49.7969,-0.277633,0.159888,-0.062607,-0.0943097,-0.0133116,0.00419104,0.000257566,0.156232,0.17337944513424453,-0.013223392480911755,0.004199834690147952,-0.060687449006766925,0.000257599172970302,-0.08999910868073391
357,0.3476,557.721,1.13471,0.251765,73.921,-49.8445,-0.278667,0.160314,-0.0627744,-0.0945664,-0.0133132,0.0041915,0.000258321,0.156669,0.17387941126309614,-0.01322497132222078,0.004200296622178135,-0.060844676767472516,0.0002583543677425748,-0.09023267592989648
358,0.3486,558.087,1.13661,0.252207,73.9918,-49.8921,-0.279701,0.16074,-0.0629418,-0.094823,-0.0133148,0.00419193,0.000259074,0.157105,0.17437959042289108,-0.013226550161003603,0.00420072842839847,-0.061001878210453775,0.00025910756256708467,-0.09046609227665492
359,0.3496,558.452,1.13851,0.252648,74.0624,-49.9395,-0.280734,0.161166,-0.0631091,-0.0950796,-0.0133162,0.00419235,0.000259827,0.157541,0.17487998270439986,-0.013227931642866286,0.004201150192792991,-0.06115895945601657,0.00025986075795869645,-0.09069944873646252
360,0.3506,558.817,1.1404,0.253087,74.1328,-49.9868,-0.281766,0.161592,-0.0632764,-0.095336,-0.0133176,0.00419275,0.000260578,0.157978,0.1753805881984314,-0.013229313122794961,0.004201551873333376,-0.061316014424085186,0.000260611953396106,-0.09093256351121526
361,0.3516,559.181,1.14228,0.253526,74.2031,-50.034,-0.282797,0.162017,-0.0634435,-0.0955923,-0.013319,0.00419313,0.000261328,0.158414,0.17588023111501494,-0.013230694600789517,0.0042019334699956445,-0.06147285541364533,0.00026136214913652367,-0.09116552763955899
362,0.3526,559.544,1.14416,0.253964,74.2731,-50.081,-0.283827,0.162442,-0.0636106,-0.0958485,-0.0133203,0.00419349,0.000262077,0.158849,0.17638008642496827,-0.013231977400052775,0.004202294982756927,-0.06162967019726562,0.00026211134517728496,-0.09139834120668633
363,0.3536,559.906,1.14603,0.2544,74.343,-50.1279,-0.284856,0.162867,-0.0637776,-0.0961047,-0.0133215,0.00419384,0.000262824,0.159285,0.17688015421857806,-0.013233161520969428,0.004202646453621561,-0.06178636495796597,0.0002628585412534079,-0.09163109513461787
364,0.3546,560.268,1.1479,0.254836,74.4127,-50.1748,-0.285885,0.163292,-0.0639446,-0.0963607,-0.0133227,0.00419416,0.00026357,0.15972,0.1773804345861687,-0.013234345640465106,0.004202967798519808,-0.061943033552826265,0.00026360473762432335,-0.09186360781137093
365,0.3556,560.629,1.14977,0.25527,74.4822,-50.2214,-0.286912,0.163717,-0.0641114,-0.0966166,-0.0133238,0.00419447,0.000264316,0.160156,0.1778809276181037,-0.013235431082087912,0.0042032791014881,-0.06209948840613211,0.00026435093455168257,-0.0920959701820987
366,0.3566,560.989,1.15162,0.255704,74.5516,-50.268,-0.287939,0.164142,-0.0642782,-0.0968724,-0.0133249,0.00419476,0.00026506,0.160591,0.1783816334047843,-0.013236516522516673,0.0042035703204812425,-0.06225591716494483,0.0002650951315057437,-0.0923281823317259
367,0.3576,561.349,1.15348,0.256137,74.6207,-50.3145,-0.288965,0.164566,-0.064445,-0.097128,-0.0133259,0.00419503,0.000265803,0.161026,0.1788813731546881,-0.013237503285506769,0.004203841455481916,-0.0624123198336165,0.0002658383287474919,-0.09256015360113079
368,0.3586,561.707,1.15533,0.256568,74.6897,-50.3608,-0.28999,0.16499,-0.0646116,-0.0973836,-0.0133268,0.00419528,0.000266544,0.161461,0.1793813248391729,-0.013238391371354186,0.004204092506473689,-0.06256850893021915,0.0002665795260083925,-0.09279206558625608
369,0.3596,562.066,1.15717,0.256999,74.7585,-50.407,-0.291014,0.165414,-0.0647782,-0.0976391,-0.0133277,0.00419552,0.000267285,0.161895,0.17988148854811792,-0.013239279456402353,0.0042043335154846595,-0.06272467200788578,0.00026732072381840943,-0.09302382760464012
370,0.3606,562.423,1.15901,0.257429,74.8272,-50.4531,-0.292037,0.165838,-0.0649447,-0.0978945,-0.0133286,0.00419574,0.000268024,0.16233,0.18038186437144055,-0.01324016754065116,0.004204554440462527,-0.06288071535902706,0.00026805992164158354,-0.09325543974094108
371,0.3616,562.78,1.16084,0.257857,74.8956,-50.4991,-0.293059,0.166261,-0.0651112,-0.0981498,-0.0133293,0.00419594,0.000268763,0.162764,0.18088127151723454,-0.013240858272292155,0.004204755281393302,-0.0630367327311131,0.0002687991200109874,-0.09348690207975052
372,0.3626,563.136,1.16267,0.258285,74.9639,-50.545,-0.294081,0.166685,-0.0652776,-0.0984049,-0.0133301,0.00419612,0.0002695,0.163198,0.18138207133841733,-0.013241647679289814,0.004204936038265661,-0.06319263044773693,0.0002695363183875532,-0.0937181240774102
373,0.3636,563.491,1.16449,0.258712,75.032,-50.5907,-0.295101,0.167108,-0.0654439,-0.09866,-0.0133307,0.00419629,0.000270236,0.163632,0.18188190166125384,-0.013242239734123529,0.004205106753119248,-0.06334840855998447,0.00027027251703715116,-0.09394928709786121
374,0.3646,563.846,1.16631,0.259138,75.1,-50.6364,-0.296121,0.167531,-0.0656101,-0.098915,-0.0133313,0.00419644,0.00027097,0.164066,0.1823819434570404,-0.013242831788602083,0.0042052573838966545,-0.06350406711889722,0.00027100671568658363,-0.09418030057418125
375,0.3656,564.2,1.16813,0.259562,75.1677,-50.6819,-0.29714,0.167954,-0.0657762,-0.0991698,-0.0133319,0.00419657,0.000271704,0.1645,0.18288219681524875,-0.013243423842725366,0.0042053879305885555,-0.0636596061754725,0.0002717409148751404,-0.09441107403180793
376,0.3666,564.554,1.16994,0.259986,75.2354,-50.7273,-0.298158,0.168377,-0.0659423,-0.0994246,-0.0133324,0.00419669,0.000272436,0.164933,0.18338266182538887,-0.013243917220890133,0.004205508435242367,-0.06381511939915596,0.00027247311405731445,-0.09464178869584816
377,0.3676,564.906,1.17174,0.260409,75.3028,-50.7726,-0.299175,0.168799,-0.0661083,-0.0996792,-0.0133329,0.00419679,0.000273168,0.165366,0.18388215469426195,-0.01324441059880821,0.004205608855798237,-0.0639705131912941,0.0002732053137757262,-0.09487226355575162
378,0.3686,565.258,1.17354,0.260831,75.3701,-50.8178,-0.300191,0.169222,-0.0662743,-0.0999337,-0.0133333,0.00419687,0.000273898,0.1658,0.18438304277605844,-0.013244805300965057,0.004205689192250173,-0.06412588119020368,0.0002739355134819821,-0.09510258925448833
379,0.3696,565.61,1.17533,0.261252,75.4372,-50.8629,-0.301206,0.169644,-0.0664402,-0.100188,-0.0133336,0.00419694,0.000274627,0.166233,0.18488295789478104,-0.013245101327479025,0.004205759486650695,-0.06428112982828371,0.0002746647134468372,-0.09533267540934631
380,0.3706,565.961,1.17712,0.261672,75.5041,-50.9078,-0.30222,0.170066,-0.066606,-0.100443,-0.0133339,0.00419699,0.000275354,0.166665,0.1853830840222035,-0.013245397353904176,0.004205809696939955,-0.0644362591563814,0.00027539191339243096,-0.0955633361666205
381,0.3716,566.311,1.17891,0.262091,75.5709,-50.9527,-0.303233,0.170488,-0.0667717,-0.100697,-0.0133341,0.00419702,0.000276081,0.167098,0.1858834212473901,-0.01324559470480502,0.004205839823114843,-0.06459126922530034,0.00027611911386671295,-0.09579303390638627
382,0.3726,566.66,1.18069,0.262509,75.6375,-50.9974,-0.304246,0.170909,-0.0669373,-0.100951,-0.0133343,0.00419703,0.000276806,0.167531,0.18638278327606672,-0.013245792055666339,0.004205849865173139,-0.06474616008579948,0.00027684431431596046,-0.0960226733103352
383,0.3736,567.009,1.18246,0.262926,75.7039,-51.0421,-0.305257,0.171331,-0.0671029,-0.101205,-0.0133344,0.00419703,0.000277531,0.167963,0.18688354246336636,-0.013245890731082177,0.004205849865173139,-0.06490102529849573,0.0002775695152910096,-0.09625225439328255
384,0.3746,567.357,1.18423,0.263343,75.7702,-51.0866,-0.306268,0.171752,-0.0672684,-0.101459,-0.0133345,0.00419702,0.000278254,0.168395,0.18738332563171856,-0.013245989406488134,0.004205839823114843,-0.06505577137321794,0.0002782927162352511,-0.09648177717003992
385,0.3756,567.705,1.186,0.263758,75.8363,-51.131,-0.307277,0.172173,-0.0674339,-0.101713,-0.0133346,0.00419699,0.000278976,0.168827,0.18788331925308177,-0.013246088081884322,0.004205809696939955,-0.06521049183958394,0.0002790149174232148,-0.09671124165541545
386,0.3766,568.051,1.18776,0.264172,75.9023,-51.1753,-0.308286,0.172594,-0.0675993,-0.101966,-0.0133345,0.00419694,0.000279696,0.169259,0.18838352341607556,-0.013245989406488134,0.004205759486650695,-0.0653650932383455,0.0002797351185732655,-0.09693974480440948
387,0.3776,568.398,1.18952,0.264586,75.9681,-51.2196,-0.309294,0.173015,-0.0677646,-0.10222,-0.0133345,0.00419687,0.000280416,0.16969,0.18888393820935656,-0.013245989406488134,0.004205689192250173,-0.06551957562011257,0.0002804553202417903,-0.0971690929807777
388,0.3786,568.743,1.19127,0.264998,76.0337,-51.2637,-0.310301,0.173436,-0.0679298,-0.102473,-0.0133343,0.00419679,0.000281135,0.170122,0.18938456372161871,-0.013245792055666339,0.004205608855798237,-0.06567393903545093,0.00028117452214782013,-0.09739748030803841
389,0.3796,569.088,1.19302,0.26541,76.0992,-51.3077,-0.311307,0.173856,-0.068095,-0.102727,-0.0133342,0.0041967,0.000281852,0.170553,0.18988421015678836,-0.01324569338024062,0.004205518477297332,-0.0658282769520594,0.0002818917240070551,-0.09762671223435304
390,0.3806,569.432,1.19476,0.265821,76.1645,-51.3515,-0.312312,0.174276,-0.0682601,-0.10298,-0.0133339,0.00419659,0.000282568,0.170984,0.1903840664875358,-0.013245397353904176,0.004205408014696488,-0.06598249597240413,0.00028260792609779983,-0.09785498379858726
391,0.3816,569.776,1.1965,0.266231,76.2297,-51.3953,-0.313316,0.174696,-0.0684251,-0.103233,-0.0133337,0.00419646,0.000283283,0.171415,0.19088413280203564,-0.01324520000296392,0.004205277468001922,-0.06613659614695477,0.000283323128418278,-0.0980831976174209
392,0.3826,570.119,1.19823,0.26664,76.2947,-51.439,-0.314319,0.175116,-0.06859,-0.103486,-0.0133333,0.00419632,0.000283997,0.171846,0.19138440918849953,-0.013244805300965057,0.004205136879272819,-0.06629057752613643,0.00028403733096582506,-0.09831135370546151
393,0.3836,570.461,1.19996,0.267048,76.3596,-51.4826,-0.315322,0.175536,-0.0687549,-0.103739,-0.013333,0.00419616,0.00028471,0.172277,0.19188489573517642,-0.01324450927436216,0.004204976206463762,-0.0664445335158822,0.00028475053373866466,-0.0985394520773133
394,0.3846,570.803,1.20168,0.267455,76.4243,-51.5261,-0.316323,0.175956,-0.0689197,-0.103992,-0.0133325,0.00419598,0.000285421,0.172707,0.19238559253035192,-0.013244015896493488,0.004204795449584298,-0.06659837078022002,0.0002854617364491663,-0.09876749274757657
395,0.3856,571.144,1.2034,0.267861,76.4888,-51.5694,-0.317324,0.176375,-0.0690845,-0.104245,-0.0133321,0.0041958,0.000286132,0.173138,0.19288530677644578,-0.013243621194020894,0.004204614692737474,-0.06675218269426553,0.00028617293966526347,-0.09899547573084799
396,0.3866,571.485,1.20512,0.268266,76.5532,-51.6127,-0.318323,0.176794,-0.0692491,-0.104498,-0.0133315,0.00419559,0.000286841,0.173568,0.1933852304466801,-0.01324302914001596,0.004204403809790591,-0.06690578264337155,0.0002868821428134716,-0.09922340104172045
397,0.3876,571.824,1.20683,0.268671,76.6175,-51.6559,-0.319322,0.177213,-0.0694137,-0.10475,-0.013331,0.00419537,0.000287549,0.173998,0.19388536362882203,-0.013242535761407215,0.0042041828848460305,-0.0670593573120064,0.0002875903461765361,-0.09945036814560171
398,0.3886,572.164,1.20854,0.269074,76.6815,-51.6989,-0.320319,0.177632,-0.0695783,-0.105003,-0.0133304,0.00419514,0.000288256,0.174428,0.19438570641067532,-0.013241943706751025,0.004203951917910453,-0.06721290670433122,0.0002882975497529028,-0.09967817838325066
399,0.3896,572.502,1.21024,0.269477,76.7455,-51.7419,-0.321316,0.178051,-0.0697427,-0.105255,-0.0133297,0.00419489,0.000288962,0.174857,0.1948862588800806,-0.013241252975869866,0.0042037008669539855,-0.06736624429777349,0.0002890037535403511,-0.09990503089768077
400,0.3906,572.84,1.21194,0.269879,76.8093,-51.7848,-0.322312,0.178469,-0.0699071,-0.105508,-0.013329,0.00419463,0.000289667,0.175287,0.19538582573849195,-0.013240562244505205,0.004203439774025597,-0.06751955668458742,0.0002897089575366607,-0.10013272612020352
401,0.3916,573.178,1.21363,0.27028,76.8729,-51.8275,-0.323307,0.178887,-0.0700714,-0.10576,-0.0133282,0.00419435,0.00029037,0.175716,0.1958856014594994,-0.013239772836639241,0.004203158597101853,-0.06767275063619638,0.000290412161449094,-0.10035946410303542
402,0.3926,573.515,1.21532,0.27068,76.9364,-51.8702,-0.324301,0.179305,-0.0702357,-0.106012,-0.0133274,0.00419405,0.000291073,0.176145,0.19638558613042578,-0.013238983428141782,0.004202857336199406,-0.06782591942010674,0.0002911153658560206,-0.10058614495509455
403,0.3936,573.851,1.217,0.271079,76.9997,-51.9128,-0.325294,0.179723,-0.0703999,-0.106264,-0.0133266,0.00419375,0.000291774,0.176574,0.19688577983863031,-0.013238194019012717,0.0042025560753875535,-0.06797896983835472,0.00029181657017374185,-0.10081276869077582
404,0.3946,574.186,1.21868,0.271477,77.0629,-51.9552,-0.326286,0.180141,-0.070564,-0.106516,-0.0133257,0.00419342,0.000292474,0.177003,0.19738618267150887,-0.013237305932987775,0.004202224688598655,-0.06813190194098206,0.0002925167746903323,-0.10103933532447096
405,0.3956,574.521,1.22036,0.271875,77.126,-51.9976,-0.327277,0.180559,-0.070728,-0.106767,-0.0133247,0.00419309,0.000293173,0.177432,0.19788679471649395,-0.013236319169800281,0.004201893301919224,-0.06828471577798656,0.00029321597940401567,-0.10126494613596315
406,0.3966,574.856,1.22203,0.272271,77.1889,-52.0399,-0.328267,0.180976,-0.070892,-0.107019,-0.0133237,0.00419274,0.000293871,0.17786,0.19838641767403753,-0.013235332405626021,0.004201541831317934,-0.06843750455557673,0.0002939141843123494,-0.10149139883529845
407,0.3976,575.19,1.2237,0.272667,77.2516,-52.0821,-0.329256,0.181393,-0.0710559,-0.107271,-0.0133227,0.00419237,0.000294568,0.178289,0.19888624901779983,-0.013234345640465106,0.004201170276816324,-0.06859017513688426,0.00029461138941355713,-0.10171779447574314
408,0.3986,575.523,1.22536,0.273062,77.3142,-52.1241,-0.330245,0.18181,-0.0712197,-0.107522,-0.0133216,0.00419199,0.000295263,0.178717,0.199386288834696,-0.013233260197648256,0.004200788680444045,-0.06874272757181132,0.0002953065944100164,-0.1019432350153584
409,0.3996,575.855,1.22702,0.273456,77.3767,-52.1661,-0.331232,0.182227,-0.0713835,-0.107773,-0.0133205,0.0041916,0.000295958,0.179145,0.19988653721167782,-0.013232174753637582,0.004200397042212867,-0.06889525502069593,0.0002960017998896447,-0.1021686189764992
410,0.4006,576.187,1.22867,0.273849,77.439,-52.208,-0.332218,0.182644,-0.0715472,-0.108025,-0.0133193,0.00419119,0.000296651,0.179573,0.20038699423573259,-0.013230990631536765,0.004199985320134436,-0.06904766439240162,0.00029669500525919545,-0.10239484397896959
411,0.4016,576.519,1.23032,0.274242,77.5012,-52.2498,-0.333204,0.183061,-0.0717108,-0.108276,-0.0133181,0.00419077,0.000297343,0.18,0.20088765999388447,-0.013229806508015085,0.004199563556229302,-0.06919995573673543,0.0002973872108116282,-0.10262011460048515
412,0.4026,576.85,1.23196,0.274633,77.5632,-52.2915,-0.334188,0.183477,-0.0718744,-0.108527,-0.0133168,0.00419033,0.000298034,0.180428,0.2013873331852596,-0.01322852370592964,0.0041991217085184385,-0.0693522221682431,0.0002980784165449446,-0.10284532868617036
413,0.4036,577.18,1.23361,0.275024,77.6251,-52.3331,-0.335172,0.183893,-0.0720379,-0.108778,-0.0133155,0.00418988,0.000298724,0.180855,0.2018872142839243,-0.01322724090217664,0.004198669819015288,-0.06950437064144199,0.0002987686224571462,-0.10307048625021376
414,0.4046,577.51,1.23524,0.275414,77.6869,-52.3746,-0.336154,0.184309,-0.0722013,-0.109029,-0.0133142,0.00418942,0.000299413,0.181282,0.20238730337638566,-0.013225958096755974,0.004198207887733396,-0.06965640120604377,0.0002994578285462346,-0.10329558730680055
415,0.4056,577.839,1.23687,0.275803,77.7485,-52.416,-0.337136,0.184725,-0.0723646,-0.109279,-0.0133128,0.00418894,0.000300101,0.181709,0.2028876005491873,-0.013224576612130279,0.004197725872709279,-0.06980831391171682,0.00030014603480998936,-0.10351973539029591
416,0.4066,578.167,1.2385,0.276191,77.81,-52.4574,-0.338117,0.185141,-0.0725279,-0.10953,-0.0133114,0.00418845,0.000300787,0.182136,0.20338810588890843,-0.013223195125570575,0.004197233815944168,-0.06996020181207052,0.0003008322409454589,-0.10374472369949894
417,0.4076,578.495,1.24013,0.276578,77.8713,-52.4986,-0.339096,0.185556,-0.0726911,-0.109781,-0.0133099,0.00418794,0.000301473,0.182563,0.20388761559394708,-0.013221714959253061,0.004196721675485682,-0.07011197192235685,0.00030151844755188506,-0.10396965554372306
418,0.4086,578.822,1.24175,0.276965,77.9325,-52.5397,-0.340075,0.185972,-0.0728543,-0.110031,-0.0133083,0.00418743,0.000302157,0.18299,0.2043885370264682,-0.013220136112733982,0.004196209535288098,-0.07026371726578229,0.0003022026540244749,-0.10419363513122204
419,0.4096,579.149,1.24336,0.27735,77.9936,-52.5808,-0.341053,0.186387,-0.0730173,-0.110281,-0.0133068,0.00418689,0.00030284,0.183416,0.2048884619965905,-0.013218655941828028,0.004195667269481396,-0.07041525192945741,0.00030288586066218315,-0.10441755873082303
420,0.4106,579.475,1.24497,0.277735,78.0545,-52.6218,-0.34203,0.186802,-0.0731804,-0.110532,-0.0133052,0.00418635,0.000303522,0.183842,0.20538859447863111,-0.01321707709041442,0.00419512500396757,-0.07056685483831449,0.00030356806746301146,-0.10464232171464716
421,0.4116,579.801,1.24658,0.278119,78.1153,-52.6626,-0.343006,0.187217,-0.0733433,-0.110782,-0.0133035,0.00418579,0.000304203,0.184268,0.2058889345587256,-0.013215399558019536,0.004194562654854961,-0.07071824716642139,0.00030424927442473937,-0.10486613315662252
422,0.4126,580.126,1.24819,0.278503,78.1759,-52.7034,-0.343981,0.187631,-0.0735062,-0.111032,-0.0133018,0.00418522,0.000304883,0.184694,0.20638827593416553,-0.013213722022772934,0.004193990264117264,-0.07086961483472665,0.0003049294815455905,-0.10508988865273095
423,0.4136,580.451,1.24978,0.278885,78.2365,-52.7441,-0.344955,0.188046,-0.073669,-0.111282,-0.0133001,0.00418463,0.000305562,0.18512,0.2068890309681608,-0.013212044484674501,0.004193397789837849,-0.07102086494933812,0.00030560868882334447,-0.10531358821695713
424,0.4146,580.775,1.25138,0.279267,78.2968,-52.7847,-0.345928,0.18846,-0.0738317,-0.111532,-0.0132983,0.00418404,0.000306239,0.185545,0.2073887864692323,-0.013210268264755909,0.004192805315907933,-0.07117199755963965,0.0003062858959494985,-0.10553723186328234
425,0.4156,581.098,1.25297,0.279648,78.3571,-52.8252,-0.3469,0.188874,-0.0739944,-0.111781,-0.0132965,0.00418343,0.000306916,0.185971,0.20788874891191522,-0.013208492041640207,0.004192192758483593,-0.07132310558266575,0.0003069631035343967,-0.10575992536605672
426,0.4166,581.421,1.25456,0.280028,78.4172,-52.8656,-0.347871,0.189288,-0.074157,-0.112031,-0.0132946,0.0041828,0.000307591,0.186396,0.2083889183819012,-0.013206617135993914,0.004191560117601467,-0.07147409616983058,0.00030763831096236594,-0.1059834574420414
427,0.4176,581.743,1.25614,0.280407,78.4772,-52.9059,-0.348841,0.189702,-0.0743195,-0.112281,-0.0132927,0.00418217,0.000308265,0.186821,0.20888929496491704,-0.01320474222678536,0.004190927477117912,-0.0716249693704234,0.00030831251853769004,-0.10620693364199196
428,0.4186,582.065,1.25772,0.280786,78.537,-52.9462,-0.34981,0.190116,-0.0744819,-0.11253,-0.0132908,0.00418152,0.000308938,0.187246,0.20938987874672566,-0.013202867314014433,0.004190274753227197,-0.07177572523369025,0.00030898572625859266,-0.10642946040978285
429,0.4196,582.386,1.2593,0.281163,78.5967,-52.9863,-0.350778,0.190529,-0.0746443,-0.112779,-0.0132888,0.00418085,0.00030961,0.187671,0.20988945992305985,-0.013200893717775442,0.004189601945968402,-0.07192645661619268,0.00030965793412285336,-0.1066519317753063
430,0.4206,582.707,1.26087,0.28154,78.6563,-53.0264,-0.351746,0.190942,-0.0748067,-0.113029,-0.0132868,0.00418018,0.000310281,0.188095,0.21038924746903231,-0.013198920117589275,0.00418892913916058,-0.0720771635219063,0.00031032914212847373,-0.10687524087756162
431,0.4216,583.027,1.26243,0.281916,78.7158,-53.0664,-0.352712,0.191355,-0.0749689,-0.113278,-0.0132847,0.00417949,0.000310951,0.18852,0.21088924146989108,-0.013196847833145564,0.004188236249038413,-0.07222766040035622,0.0003109993502736774,-0.10709760125756695
432,0.4226,583.346,1.264,0.282292,78.7751,-53.1063,-0.353677,0.191768,-0.0751311,-0.113527,-0.0132826,0.00417879,0.00031162,0.188944,0.21138944201092014,-0.013194775544350112,0.004187533317518977,-0.07237813287019212,0.00031166855855602194,-0.10731990627673027
433,0.4236,583.665,1.26556,0.282666,78.8343,-53.1461,-0.354642,0.192181,-0.0752932,-0.113776,-0.0132805,0.00417808,0.000312287,0.189368,0.2118898491774377,-0.01319270325120292,0.004186820344623587,-0.0725284881882261,0.00031233576666145346,-0.10754215594883487
434,0.4246,583.984,1.26711,0.28304,78.8933,-53.1858,-0.355605,0.192594,-0.0754553,-0.114024,-0.0132783,0.00417735,0.000312954,0.189792,0.21239046305479792,-0.013190532272762012,0.004186087288512219,-0.07267881913563834,0.0003130029752118624,-0.10776345805156462
435,0.4256,584.302,1.26866,0.283413,78.9523,-53.2254,-0.356568,0.193006,-0.0756173,-0.114273,-0.0132761,0.00417662,0.000313619,0.190216,0.2128900708377126,-0.013188361289544925,0.004185354232935978,-0.07282903299928689,0.00031366818358002924,-0.10798559729302648
436,0.4266,584.619,1.27021,0.283785,79.0111,-53.265,-0.357529,0.193418,-0.0757792,-0.114522,-0.0132738,0.00417587,0.000314283,0.190639,0.21338988450144236,-0.013186091620165707,0.004184601094202822,-0.07297912982817811,0.0003143323920762331,-0.10820768122870306
437,0.4276,584.936,1.27175,0.284157,79.0698,-53.3045,-0.35849,0.19383,-0.075941,-0.11477,-0.0132715,0.0041751,0.000314947,0.191063,0.21388990413082776,-0.013183821945566332,0.004183827872357604,-0.0731291096712754,0.00031499660101341753,-0.10842881830162787
438,0.4286,585.252,1.27329,0.284527,79.1283,-53.3439,-0.359449,0.194242,-0.0761028,-0.115019,-0.0132692,0.00417433,0.000315609,0.191486,0.2143901298107438,-0.013181552265746688,0.004183054651107909,-0.07327906524959715,0.0003156588097603663,-0.10865079188901228
439,0.4296,585.568,1.27483,0.284897,79.1867,-53.3832,-0.360408,0.194654,-0.0762645,-0.115267,-0.0132668,0.00417354,0.00031627,0.191909,0.21489056162610098,-0.013179183898630042,0.004182261346808103,-0.07342890390996415,0.0003163200186293569,-0.1088718190841188
440,0.4306,585.883,1.27636,0.285266,79.245,-53.4224,-0.361366,0.195066,-0.0764262,-0.115515,-0.0132644,0.00417275,0.00031693,0.192332,0.21539119966184472,-0.013176815525829388,0.004181468043134906,-0.07357871834337848,0.0003169802276186129,-0.10909279147127737
441,0.4316,586.198,1.27789,0.285635,79.3032,-53.4615,-0.362322,0.195477,-0.0765877,-0.115764,-0.0132619,0.00417193,0.000317588,0.192755,0.21589082811151905,-0.01317434846478438,0.004180644614668827,-0.07372832329944068,0.0003176384364080853,-0.1093145997499243
442,0.4326,586.512,1.27941,0.286002,79.3613,-53.5005,-0.363278,0.195888,-0.0767493,-0.116012,-0.0132594,0.00417111,0.000318246,0.193178,0.2163906619506908,-0.01317188139757175,0.0041798211868777635,-0.0738779967084584,0.00031829664563076676,-0.10953546234109302
443,0.4336,586.826,1.28093,0.286369,79.4192,-53.5395,-0.364233,0.196299,-0.0769107,-0.11626,-0.0132569,0.00417028,0.000318903,0.1936,0.2168907012637924,-0.013169414324191386,0.0041789877179720936,-0.07402746073771793,0.0003189538549674964,-0.10975627016513056
444,0.4346,587.139,1.28245,0.286736,79.477,-53.5784,-0.365186,0.19671,-0.0770721,-0.116507,-0.0132543,0.00416943,0.000319558,0.194022,0.21739094613529097,-0.0131668485613331,0.00417813416619528,-0.07417690064542992,0.00031960906409689294,-0.10997613321219557
445,0.4356,587.451,1.28396,0.287101,79.5347,-53.6172,-0.366139,0.197121,-0.0772334,-0.116755,-0.0132517,0.00416857,0.000320213,0.194445,0.2178913966496887,-0.013164282791803927,0.004177270573371361,-0.07432622386811416,0.00032026427365527965,-0.11019683176340744
446,0.4366,587.763,1.28547,0.287466,79.5922,-53.6559,-0.367091,0.197532,-0.0773946,-0.117003,-0.0132491,0.0041677,0.000320866,0.194867,0.21839205289152175,-0.013161717015603647,0.004176396939525873,-0.0744754304544527,0.00032091748300122624,-0.11041747558816506
447,0.4376,588.075,1.28698,0.287829,79.6497,-53.6946,-0.368042,0.197942,-0.0775558,-0.11725,-0.0132464,0.00416682,0.000321518,0.195288,0.21889169605305625,-0.01315905254864258,0.00417551326468546,-0.07462461299062795,0.0003215696924521172,-0.11063717533765871
448,0.4386,588.386,1.28848,0.288193,79.707,-53.7331,-0.368992,0.198352,-0.0777169,-0.117498,-0.0132437,0.00416593,0.000322169,0.19571,0.2193915441102876,-0.01315638807448738,0.004174619548876324,-0.07477367895788911,0.0003222209020059541,-0.11085770997075017
449,0.4396,588.697,1.28998,0.288555,79.7642,-53.7716,-0.369941,0.198762,-0.077878,-0.117745,-0.0132409,0.00416502,0.000322819,0.196132,0.2198915971472406,-0.013153624908505579,0.004173705750388335,-0.07492272091255725,0.00032287111166073856,-0.1110773009957794
450,0.4406,589.007,1.29147,0.288917,79.8213,-53.81,-0.370889,0.199172,-0.0780389,-0.117992,-0.0132381,0.00416411,0.000323468,0.196553,0.22039185524797378,-0.013150861734786856,0.004172791952731902,-0.0750715538728296,0.0003235203214146942,-0.1112968377885234
451,0.4416,589.316,1.29296,0.289278,79.8782,-53.8483,-0.371836,0.199582,-0.0781998,-0.118239,-0.0132353,0.00416318,0.000324116,0.196974,0.22089231849658075,-0.013148098553331211,0.00417185807246967,-0.0752203628878052,0.0003241685312660447,-0.11151632036237591
452,0.4426,589.625,1.29445,0.289638,79.935,-53.8866,-0.372782,0.199991,-0.0783607,-0.118487,-0.0132324,0.00416224,0.000324763,0.197395,0.221391765584813,-0.013145236678667405,0.0041709141513666115,-0.07536914796133642,0.0003248157412123476,-0.1117366369945344
453,0.4436,589.934,1.29593,0.289998,79.9918,-53.9247,-0.373727,0.200401,-0.0785215,-0.118734,-0.0132295,0.00416129,0.000325409,0.197816,0.2218926388807121,-0.013142374795704015,0.004169960189451372,-0.07551781664906132,0.00032546195125204846,-0.11195601095139773
454,0.4446,590.242,1.29741,0.290356,80.0484,-53.9628,-0.374671,0.20081,-0.0786822,-0.11898,-0.0132266,0.00416033,0.000326054,0.198237,0.22239249518366022,-0.013139512904441153,0.004168996186752372,-0.0756663689994248,0.000326107161383149,-0.11217444290447198
455,0.4456,590.549,1.29888,0.290714,80.1048,-54.0008,-0.375614,0.201219,-0.0788428,-0.119227,-0.0132236,0.00415936,0.000326697,0.198657,0.22289255596965019,-0.013136552318539052,0.004168022143298478,-0.07581480506082872,0.00032675037127671835,-0.11239370873662946
456,0.4466,590.856,1.30036,0.291072,80.1612,-54.0387,-0.376556,0.201628,-0.0790034,-0.119474,-0.0132206,0.00415837,0.00032734,0.199078,0.22339282132233262,-0.013133591723755056,0.004167028017448615,-0.07596321728531541,0.00032739358158417886,-0.11261292041681459
457,0.4476,591.163,1.30182,0.291428,80.2174,-54.0766,-0.377497,0.202037,-0.0791639,-0.11972,-0.0132176,0.00415738,0.000327981,0.199498,0.2238932913253926,-0.013130631120089276,0.004166033892582854,-0.07611151328786847,0.0003280347916490012,-0.11283119079003534
458,0.4486,591.469,1.30329,0.291784,80.2736,-54.1144,-0.378437,0.202445,-0.0793243,-0.119967,-0.0132145,0.00415637,0.000328622,0.199918,0.2243927416691951,-0.013127571820303885,0.004165019685400839,-0.07625969311679714,0.000328676002124606,-0.1130502944254973
459,0.4496,591.774,1.30475,0.292139,80.3296,-54.1521,-0.379377,0.202854,-0.0794847,-0.120213,-0.0132114,0.00415535,0.000329261,0.200338,0.22489362072332209,-0.013124512511034636,0.004163995437603152,-0.07640784917958732,0.0003293152123529097,-0.11326845721794498
460,0.4506,592.079,1.30621,0.292494,80.3855,-54.1897,-0.380315,0.203262,-0.079645,-0.120459,-0.0132083,0.00415433,0.000329899,0.200758,0.2253934792847896,-0.013121453192281418,0.004162971190850184,-0.07655588913564437,0.00032995342265951244,-0.11348656634894638
461,0.4516,592.383,1.30766,0.292848,80.4412,-54.2272,-0.381252,0.20367,-0.0798053,-0.120706,-0.0132051,0.00415329,0.000330536,0.201177,0.2258935418301602,-0.013118295175878814,0.004161926861903087,-0.07670390536279836,0.00033059063304285985,-0.11370550812663549
462,0.4526,592.687,1.30911,0.293201,80.4969,-54.2647,-0.382188,0.204078,-0.0799654,-0.120952,-0.0132019,0.00415224,0.000331172,0.201597,0.2263938084426762,-0.013115137149370515,0.004160872492433576,-0.07685171323521389,0.0003312268435007315,-0.11392350975633647
463,0.4536,592.991,1.31056,0.293553,80.5525,-54.3021,-0.383124,0.204485,-0.0801256,-0.121198,-0.0131986,0.00415118,0.000331807,0.202016,0.22689305231194812,-0.013111880423949618,0.004159808082472738,-0.0769995897455289,0.0003318620540315731,-0.11414145776423235
464,0.4546,593.294,1.312,0.293905,80.6079,-54.3394,-0.384058,0.204893,-0.0802856,-0.121443,-0.0131953,0.0041501,0.000332441,0.202435,0.22739372680794312,-0.013108623687781318,0.004158723590465652,-0.07714725799739441,0.0003324962646331642,-0.11435846652242176
465,0.4556,593.596,1.31344,0.294256,80.6632,-54.3766,-0.384991,0.2053,-0.0804456,-0.121689,-0.013192,0.00414902,0.000333074,0.202854,0.22789337772681884,-0.013105366940865837,0.004157639099629851,-0.07729490262422967,0.0003331294753037284,-0.11457630754411297
466,0.4566,593.898,1.31488,0.294606,80.7184,-54.4138,-0.385924,0.205707,-0.0806055,-0.121935,-0.0131887,0.00414793,0.000333706,0.203273,0.22839323204500728,-0.013102110183203175,0.004156544568399756,-0.07744243137406215,0.0003337616860412673,-0.11479409498350379
467,0.4576,594.2,1.31631,0.294955,80.7735,-54.4509,-0.386855,0.206115,-0.0807653,-0.122181,-0.0131853,0.00414683,0.000334337,0.203691,0.22889451873921351,-0.013098754724673478,0.00415543999680823,-0.07758984429492255,0.00033439289684400464,-0.11501182885377381
468,0.4586,594.501,1.31774,0.295304,80.8285,-54.4879,-0.387786,0.206521,-0.0809251,-0.122426,-0.0131819,0.00414571,0.000334967,0.20411,0.2293935512105585,-0.01309539925473524,0.004154315343345205,-0.07773723366108021,0.00033502310771016397,-0.11522862439716608
469,0.4596,594.802,1.31916,0.295653,80.8834,-54.5248,-0.388715,0.206928,-0.0810848,-0.122671,-0.0131784,0.00414459,0.000335596,0.204528,0.22989401622362293,-0.01309194508258782,0.004153190691141839,-0.07788450726475427,0.00033565231863752487,-0.11544536683215634
470,0.4606,595.102,1.32058,0.296,80.9381,-54.5617,-0.389644,0.207335,-0.0812445,-0.122917,-0.013175,0.00414345,0.000336223,0.204946,0.2303946849674039,-0.013088589589496769,0.004152045957156902,-0.07803175735071177,0.00033627952928827476,-0.11566294050925607
471,0.4616,595.401,1.322,0.296347,80.9928,-54.5985,-0.390571,0.207741,-0.0814041,-0.123162,-0.0131714,0.00414231,0.00033685,0.205364,0.23089432662989484,-0.0130850367020241,0.004150901224477144,-0.078178891740602,0.0003369067403320436,-0.11587957654983272
472,0.4626,595.701,1.32342,0.296693,81.0473,-54.6352,-0.391498,0.208147,-0.0815636,-0.123407,-0.0131679,0.00414115,0.000337475,0.205782,0.23139417118808603,-0.01308158249360769,0.0041497364101072964,-0.07832591048231308,0.0003375319510940944,-0.11609615952108066
473,0.4636,595.999,1.32483,0.297038,81.1017,-54.6718,-0.392423,0.208553,-0.081723,-0.123652,-0.0131643,0.00413999,0.0003381,0.2062,0.23189421872436933,-0.013078029580909423,0.004148571597088591,-0.07847281362369074,0.0003381571622469437,-0.11631268943600037
474,0.4646,596.297,1.32624,0.297383,81.1561,-54.7084,-0.393348,0.208959,-0.0818824,-0.123897,-0.0131607,0.00413881,0.000338723,0.206617,0.23239446932117103,-0.01307447665542072,0.004147386702473277,-0.07861969335057384,0.00033878037311296794,-0.11652916630758892
475,0.4656,596.595,1.32764,0.297727,81.2103,-54.7449,-0.394272,0.209365,-0.0820418,-0.124142,-0.0131571,0.00413762,0.000339346,0.207035,0.23289492306095005,-0.013070923717141358,0.004146191767794072,-0.0787665496666945,0.0003394035843673482,-0.11674559014884045
476,0.4666,596.892,1.32904,0.298071,81.2644,-54.7813,-0.395194,0.20977,-0.082201,-0.124386,-0.0131534,0.00413643,0.000339967,0.207452,0.23339434663123626,-0.01306727207280356,0.00414499683453684,-0.0789131983584419,0.00034002479532979635,-0.11696107793426525
477,0.4676,597.189,1.33044,0.298413,81.3184,-54.8177,-0.396116,0.210176,-0.0823602,-0.124631,-0.0131497,0.00413522,0.000340587,0.207869,0.23389520640362238,-0.01306362041495468,0.004143781819825776,-0.07905982370557596,0.00034064500633745887,-0.11717739597012988
478,0.4686,597.485,1.33183,0.298755,81.3723,-54.854,-0.397037,0.210581,-0.0825193,-0.124875,-0.0131459,0.00413401,0.000341207,0.208286,0.23439503517070914,-0.01305987004958653,0.004142566806584869,-0.07920633363245067,0.00034126521772970264,-0.11739277840778717
479,0.4696,597.781,1.33323,0.299097,81.426,-54.8902,-0.397957,0.210986,-0.0826784,-0.12512,-0.0131422,0.00413278,0.000341825,0.208703,0.23489506640944446,-0.013056218364350114,0.004141331711987162,-0.07935282025145018,0.00034188342882268685,-0.1176089906899912
480,0.4706,598.077,1.33461,0.299438,81.4797,-54.9263,-0.398875,0.211391,-0.0828374,-0.125364,-0.0131384,0.00413154,0.000342442,0.209119,0.23539530020184563,-0.013052467970854242,0.004140086577507862,-0.07949919151620632,0.00034250063995511226,-0.11782426783138356
481,0.4716,598.372,1.336,0.299778,81.5333,-54.9624,-0.399793,0.211796,-0.0829963,-0.125608,-0.0131345,0.0041303,0.000343058,0.209536,0.23589573662996366,-0.013048618867973483,0.004138841444572439,-0.07964544747433078,0.0003431168511252025,-0.1180394924515612
482,0.4726,598.666,1.33738,0.300117,81.5867,-54.9984,-0.40071,0.2122,-0.0831552,-0.125853,-0.0131307,0.00412904,0.000343673,0.209952,0.23639513938012513,-0.013044868445599378,0.0041375762304294295,-0.07979168019422977,0.0003437320623314033,-0.11825554630823243
483,0.4736,598.96,1.33876,0.300456,81.6401,-55.0344,-0.401626,0.212605,-0.083314,-0.126097,-0.0131268,0.00412777,0.000344287,0.210368,0.23689598082512076,-0.013041019313080549,0.004136300976517404,-0.07993779767338005,0.0003443462735712721,-0.11847066570929898
484,0.4746,599.254,1.34013,0.300794,81.6933,-55.0702,-0.402541,0.213009,-0.0834727,-0.126341,-0.0131228,0.0041265,0.0003449,0.210784,0.23739578775557613,-0.01303707146926214,0.004135025724224972,-0.08008379995930148,0.0003449594848434767,-0.11868573262763493
485,0.4756,599.547,1.3415,0.301131,81.7465,-55.106,-0.403455,0.213413,-0.0836314,-0.126584,-0.0131189,0.00412521,0.000345512,0.2112,0.2378957966488251,-0.013033222306334968,0.004133730390877277,-0.08022977907649864,0.0003455716961460187,-0.11889986597635083
486,0.4766,599.839,1.34287,0.301468,81.7995,-55.1417,-0.404368,0.213817,-0.08379,-0.126828,-0.0131149,0.00412392,0.000346123,0.211615,0.23839600758647705,-0.013029274431328508,0.004132435059200468,-0.08037564306621692,0.00034618290747712166,-0.11911482818259689
487,0.4776,600.132,1.34423,0.301804,81.8524,-55.1774,-0.40528,0.214221,-0.0839486,-0.127072,-0.0131109,0.00412261,0.000346733,0.212031,0.23889642065017447,-0.013025326540530457,0.00413111964657209,-0.08052148392374092,0.00034679311883478725,-0.11932973794446311
488,0.4786,600.423,1.34559,0.30214,81.9053,-55.213,-0.406191,0.214624,-0.084107,-0.127315,-0.0131068,0.0041213,0.000347342,0.212446,0.23939579652517673,-0.013021279936073715,0.004129804235667001,-0.08066711778618096,0.00034740233021746114,-0.11954371481889947
489,0.4796,600.714,1.34695,0.302475,81.958,-55.2485,-0.407101,0.215028,-0.0842655,-0.127559,-0.0131027,0.00411997,0.00034795,0.212861,0.2398966135852072,-0.013017233315025911,0.00412846874391537,-0.08081282050076677,0.0003480105416229229,-0.1197585199451926
490,0.4806,601.005,1.34831,0.302809,82.0106,-55.2839,-0.40801,0.215431,-0.0844238,-0.127802,-0.0130986,0.00411864,0.000348557,0.213276,0.24039639261919343,-0.013013186677386823,0.004127133253940096,-0.08095831631498396,0.0003486177530496182,-0.1199723926382612
491,0.4816,601.296,1.34966,0.303142,82.0631,-55.3193,-0.408918,0.215834,-0.0845821,-0.128045,-0.0130945,0.0041173,0.000349163,0.213691,0.24089637310472,-0.013009140023156562,0.004125787724483132,-0.0811037890990366,0.0003492239644955486,-0.12018621336657953
492,0.4826,601.586,1.351,0.303475,82.1156,-55.3546,-0.409825,0.216237,-0.0847403,-0.128289,-0.0130903,0.00411594,0.000349768,0.214106,0.2413965551229884,-0.013004994652839441,0.004124422114340387,-0.08124914698148955,0.00034982917595915985,-0.1204008617423512
493,0.4836,601.875,1.35235,0.303807,82.1679,-55.3899,-0.410731,0.21664,-0.0848985,-0.128532,-0.0130861,0.00411458,0.000350372,0.21452,0.24189693875523255,-0.013000849265111691,0.004123056506055045,-0.0813944818701442,0.00035043338743845354,-0.12061457836532652
494,0.4846,602.164,1.35369,0.304139,82.2201,-55.4251,-0.411637,0.217042,-0.0850566,-0.128775,-0.0130819,0.00411321,0.000350974,0.214935,0.24239628168581673,-0.012996703859973202,0.004121680858409915,-0.08153970192261295,0.000351035598580518,-0.12082824306147177
495,0.4856,602.453,1.35503,0.30447,82.2722,-55.4602,-0.412541,0.217445,-0.0852146,-0.129017,-0.0130777,0.00411183,0.000351576,0.215349,0.242897068289059,-0.012992558437424084,0.004120295171446298,-0.0816848071860915,0.0003516378100854034,-0.12104097688482007
496,0.4866,602.741,1.35636,0.3048,82.3242,-55.4952,-0.413444,0.217847,-0.0853726,-0.12926,-0.0130734,0.00411044,0.000352177,0.215763,0.24339681335253882,-0.01298831429630043,0.004118899445206159,-0.08182988952474946,0.0003522390216004201,-0.12125453797871333
497,0.4876,603.029,1.3577,0.30513,82.3761,-55.5302,-0.414346,0.218249,-0.0855305,-0.129503,-0.0130691,0.00410904,0.000352777,0.216177,0.24389675935392008,-0.01298407013692704,0.004117493679731021,-0.0819748571396991,0.00035283923312379173,-0.12146804718356541
498,0.4886,603.316,1.35902,0.305459,82.4279,-55.5651,-0.415248,0.218651,-0.0856883,-0.129745,-0.0130647,0.00410763,0.000353375,0.21659,0.24439690637399591,-0.012979727257281248,0.004116077875063073,-0.08211971007804508,0.0003534374443006083,-0.12168062619304942
499,0.4896,603.603,1.36035,0.305788,82.4796,-55.6,-0.416148,0.219053,-0.0858461,-0.129988,-0.0130604,0.00410622,0.000353973,0.217004,0.24489725449359212,-0.012975483060983506,0.004114662072391306,-0.08226454016040075,0.0003540356558349167,-0.12189403187104453
500,0.4906,603.889,1.36167,0.306116,82.5313,-55.6347,-0.417047,0.219455,-0.0860038,-0.13023,-0.013056,0.00410479,0.00035457,0.217417,0.2453978037935669,-0.012971140143554494,0.004113226189451202,-0.08240925563130264,0.000354632867372473,-0.12210650780470678
501,0.4916,604.175,1.36299,0.306443,82.5828,-55.6694,-0.417946,0.219856,-0.0861614,-0.130473,-0.0130515,0.00410336,0.000355166,0.217831,0.24589730845687963,-0.012966698503691476,0.004111790308564345,-0.08255385653776437,0.00035522907891127886,-0.1223198100060432
502,0.4926,604.46,1.36431,0.306769,82.6342,-55.7041,-0.418843,0.220257,-0.086319,-0.130715,-0.0130471,0.00410191,0.00035576,0.218244,0.24639701346172838,-0.012962355547610382,0.004110334347523947,-0.08269843465691906,0.0003558232900939817,-0.12253218291386336
503,0.4936,604.746,1.36562,0.307095,82.6855,-55.7387,-0.41974,0.220659,-0.0864765,-0.130957,-0.0130426,0.00410046,0.000356354,0.218657,0.2468981657860081,-0.012957913868216542,0.00410887838859475,-0.08284289827665181,0.00035641750162951347,-0.12274450443365814
504,0.4946,605.03,1.36693,0.307421,82.7367,-55.7732,-0.420635,0.22106,-0.086634,-0.131199,-0.0130381,0.004099,0.000356947,0.21907,0.24739827221512578,-0.012953472168835134,0.004107412390702558,-0.08298733914515632,0.00035701071316096566,-0.1229567745778618
505,0.4956,605.314,1.36824,0.307745,82.7878,-55.8077,-0.42153,0.22146,-0.0867913,-0.131441,-0.0130335,0.00409753,0.000357538,0.219482,0.24789733132918057,-0.012948931744364178,0.004105936353891337,-0.08313157389234849,0.0003576019243289874,-0.12316899335890574
506,0.4966,605.598,1.36954,0.30807,82.8389,-55.842,-0.422423,0.221861,-0.0869487,-0.131683,-0.013029,0.00409605,0.000358129,0.219895,0.2483978385040253,-0.012944490004563103,0.004104450278205052,-0.08327587762561617,0.0003581931358462853,-0.12338116078921835
507,0.4976,605.882,1.37084,0.308393,82.8898,-55.8764,-0.423316,0.222262,-0.0871059,-0.131925,-0.0130244,0.00409456,0.000358719,0.220307,0.24889854642249354,-0.012939949538774087,0.004102954163688777,-0.08341997533127699,0.00035878334735439665,-0.12359327688122512
508,0.4986,606.164,1.37214,0.308716,82.9406,-55.9106,-0.424208,0.222662,-0.0872631,-0.132166,-0.0130198,0.00409306,0.000359307,0.220719,0.24939820576626914,-0.01293540905209889,0.004101448010387143,-0.0835640503865589,0.0003593715584919721,-0.12380446545225177
509,0.4996,606.447,1.37343,0.309038,82.9914,-55.9448,-0.425098,0.223062,-0.0874202,-0.132408,-0.0130151,0.00409155,0.000359895,0.221131,0.24989806501376033,-0.012930769837619316,0.004099931818345448,-0.08370801116582782,0.00035995976997549306,-0.12401647911692415
510,0.5006,606.729,1.37472,0.30936,83.042,-55.979,-0.425988,0.223462,-0.0875773,-0.132649,-0.0130104,0.00409004,0.000360482,0.221543,0.2503981242449447,-0.012926130601335295,0.004098415628593033,-0.08385194933063478,0.0003605469814440543,-0.12422756570850102
511,0.5016,607.011,1.37601,0.309681,83.0925,-56.013,-0.426877,0.223862,-0.0877343,-0.132891,-0.0130057,0.00408852,0.000361068,0.221955,0.2508983835398315,-0.012921491343246827,0.004096889400161174,-0.08399577328411412,0.0003611331928963235,-0.12443947699529967
512,0.5026,607.292,1.3773,0.310002,83.143,-56.0471,-0.427765,0.224262,-0.0878913,-0.133132,-0.013001,0.00408698,0.000361652,0.222366,0.2513988429784624,-0.012916852063353912,0.004095343092142212,-0.08413957465900523,0.000361717403968731,-0.12465046165667093
513,0.5036,607.573,1.37858,0.310322,83.1933,-56.081,-0.428651,0.224661,-0.0880481,-0.133373,-0.0129963,0.00408544,0.000362236,0.222778,0.251898250742034,-0.012912212761656217,0.0040937967865044556,-0.08428317031550503,0.000362301615382421,-0.12486139547686537
514,0.5046,607.853,1.37986,0.310641,83.2436,-56.1149,-0.429537,0.225061,-0.088205,-0.133614,-0.0129915,0.0040839,0.000362819,0.223189,0.2523991102075458,-0.012907474728906188,0.004092250483248128,-0.08442683501529202,0.0003628848267742679,-0.1250722784681343
515,0.5056,608.133,1.38113,0.310959,83.2938,-56.1487,-0.430422,0.22546,-0.0883617,-0.133855,-0.0129867,0.00408234,0.000363401,0.2236,0.25289891715737434,-0.012902736673413573,0.004090684100559239,-0.0845702940899331,0.00036346703814249537,-0.12528311064272601
516,0.5066,608.413,1.38241,0.311278,83.3438,-56.1825,-0.431306,0.225859,-0.0885184,-0.134096,-0.0129818,0.00408077,0.000363981,0.224011,0.2533989235699661,-0.01289789988497314,0.004089107679422721,-0.0847137306862984,0.00036404724912175723,-0.12549389201288585
517,0.5076,608.692,1.38367,0.311595,83.3938,-56.2162,-0.432189,0.226258,-0.088675,-0.134337,-0.012977,0.0040792,0.000364561,0.224422,0.2538991295249222,-0.012893161783521179,0.0040875312607611125,-0.08485705329361992,0.00036462746043741667,-0.12570462259085613
518,0.5086,608.971,1.38494,0.311912,83.4437,-56.2498,-0.433071,0.226657,-0.0888316,-0.134577,-0.0129721,0.00407762,0.00036514,0.224832,0.25439953510187663,-0.01288832494816372,0.004085944803714936,-0.08500035345837831,0.0003652066717243496,-0.12591442830374167
519,0.5096,609.249,1.38621,0.312228,83.4935,-56.2834,-0.433952,0.227055,-0.0889881,-0.134818,-0.0129672,0.00407602,0.000365718,0.225243,0.25489888548098105,-0.012883488089105666,0.004084338267488441,-0.08514353969844657,0.00036578488298100176,-0.1261250575446775
520,0.5106,609.527,1.38747,0.312544,83.5432,-56.3169,-0.434832,0.227454,-0.0891445,-0.135058,-0.0129622,0.00407443,0.000366295,0.225653,0.2553996900401534,-0.012878552494207107,0.004082741774659837,-0.08528661206028743,0.0003663620942053747,-0.12633476236528174
521,0.5116,609.805,1.38872,0.312859,83.5928,-56.3503,-0.435711,0.227852,-0.0893009,-0.135299,-0.0129573,0.00407282,0.000366871,0.226063,0.2558994385601481,-0.012873715587263912,0.00408112520274706,-0.08542966204736058,0.0003669383053959141,-0.1265452903179144
522,0.5126,610.082,1.38998,0.313174,83.6423,-56.3837,-0.436589,0.22825,-0.0894572,-0.135539,-0.0129523,0.0040712,0.000367445,0.226473,0.25639938601963985,-0.012868779943502773,0.004079498592641784,-0.08557259822042962,0.00036751251618327707,-0.12675489429475484
523,0.5136,610.358,1.39123,0.313488,83.6917,-56.4171,-0.437467,0.228648,-0.0896135,-0.135779,-0.0129473,0.00406958,0.000368019,0.226883,0.2568995324978227,-0.012863844275063374,0.004077871985171511,-0.08571551205432071,0.00036808672730015424,-0.1269644479726768
524,0.5146,610.635,1.39248,0.313801,83.7411,-56.4503,-0.438343,0.229046,-0.0897697,-0.13602,-0.0129422,0.00406795,0.000368592,0.227293,0.25739987807392195,-0.012858809867831389,0.004076235339574019,-0.08585831213836093,0.00036865993837809086,-0.1271748241893631
525,0.5156,610.911,1.39373,0.314114,83.7903,-56.4836,-0.439218,0.229443,-0.0899258,-0.13626,-0.0129372,0.00406631,0.000369164,0.227703,0.25789916492739984,-0.012853874149541422,0.004074588655898381,-0.08600099851887444,0.0003692321494153106,-0.12738427709620348
526,0.5166,611.186,1.39497,0.314426,83.8395,-56.5167,-0.440093,0.229841,-0.0900818,-0.1365,-0.0129321,0.00406466,0.000369735,0.228112,0.25839990843638927,-0.012848839691461778,0.004072931934193891,-0.08614357124214389,0.00036980336041003703,-0.12759367974037794
527,0.5176,611.461,1.39621,0.314738,83.8885,-56.5498,-0.440966,0.230238,-0.0902378,-0.136739,-0.012927,0.004063,0.000370305,0.228521,0.2588995923807387,-0.012843805207706227,0.004071265174510286,-0.0862861217258033,0.0003703735713602718,-0.1278021599365442
528,0.5186,611.736,1.39745,0.315049,83.9375,-56.5828,-0.441838,0.230635,-0.0903938,-0.136979,-0.0129218,0.00406134,0.000370875,0.22893,0.2593994747389965,-0.012838671982146943,0.004069598417593578,-0.08642864997332178,0.00037094378263580197,-0.12801146230087102
529,0.5196,612.01,1.39868,0.31536,83.9864,-56.6158,-0.44271,0.231032,-0.0905497,-0.137219,-0.0129167,0.00405967,0.000371443,0.229339,0.2598995555899486,-0.012833637446535984,0.00406792162276437,-0.08657106464527875,0.0003715119934932787,-0.1282207144386579
530,0.5206,612.284,1.39991,0.31567,84.0352,-56.6487,-0.44358,0.231429,-0.0907055,-0.137458,-0.0129115,0.00405799,0.00037201,0.229748,0.2603998350124124,-0.012828504168104216,0.004066234790072842,-0.08671336578786015,0.00037207920430137875,-0.12842904479143824
531,0.5216,612.558,1.40114,0.315979,84.0839,-56.6816,-0.44445,0.231826,-0.0908612,-0.137698,-0.0129063,0.0040563,0.000372576,0.230157,0.26090031308523653,-0.012823370862979355,0.004064537919569844,-0.08685555344721052,0.0003726454150583258,-0.1286381967214527
532,0.5226,612.831,1.40237,0.316288,84.1325,-56.7144,-0.445318,0.232222,-0.0910169,-0.137937,-0.012901,0.0040546,0.000373141,0.230565,0.2613997284869414,-0.012818138812979996,0.004062831011306445,-0.08699771896966568,0.00037321062576278763,-0.12884642730788998
533,0.5236,613.103,1.40359,0.316596,84.181,-56.7471,-0.446186,0.232619,-0.0911725,-0.138177,-0.0128958,0.0040529,0.000373705,0.230973,0.2619006035962814,-0.012813005453955029,0.0040611241059445025,-0.0871397710726537,0.0003737748364125437,-0.1290554790781202
534,0.5246,613.376,1.40481,0.316904,84.2294,-56.7798,-0.447053,0.233015,-0.0913281,-0.138416,-0.0128905,0.00405119,0.000374269,0.231382,0.26240041519146984,-0.012807773349018947,0.004059407162890327,-0.08728180107405414,0.0003743390473807118,-0.12926360994599118
535,0.5256,613.648,1.40603,0.317211,84.2778,-56.8124,-0.447918,0.233411,-0.0914836,-0.138655,-0.0128852,0.00404947,0.000374831,0.23179,0.26290042475124453,-0.012802541216352492,0.004057680182195211,-0.08742371771968194,0.0003749012579172817,-0.12947169107652845
536,0.5266,613.919,1.40724,0.317517,84.3261,-56.845,-0.448783,0.233807,-0.091639,-0.138894,-0.0128798,0.00404774,0.000375393,0.232197,0.26340063235401456,-0.012797210335681708,0.004055943163910891,-0.08756552105554383,0.00037546346876982106,-0.12967972248161797
537,0.5276,614.19,1.40846,0.317823,84.3742,-56.8775,-0.449647,0.234203,-0.0917944,-0.139133,-0.0128745,0.00404601,0.000375953,0.232605,0.26390103807822074,-0.012791978147031258,0.004054206148631723,-0.08770730235687929,0.00037602367918609936,-0.12988770417314277
538,0.5286,614.461,1.40966,0.318129,84.4223,-56.9099,-0.45051,0.234598,-0.0919497,-0.139372,-0.0128691,0.00404427,0.000376513,0.233013,0.26440037760132507,-0.012786647209319657,0.004052459095833072,-0.08784897041201412,0.0003765838899163487,-0.1300956361629828
539,0.5296,614.731,1.41087,0.318434,84.4703,-56.9423,-0.451372,0.234994,-0.092105,-0.13961,-0.0128637,0.00404252,0.000377071,0.23342,0.2649011793030476,-0.012781316242821084,0.0040507020055671195,-0.08799061646780815,0.0003771421002058961,-0.1303026487660991
540,0.5306,615.001,1.41207,0.318738,84.5182,-56.9747,-0.452233,0.235389,-0.0922602,-0.139849,-0.0128582,0.00404076,0.000377629,0.233827,0.26540091395996956,-0.012775886525128621,0.004048934877886712,-0.0881321493408973,0.0003777003108069721,-0.1305104815960315
541,0.5316,615.271,1.41327,0.319042,84.5661,-57.0069,-0.453093,0.235784,-0.0924153,-0.140088,-0.0128528,0.004039,0.000378185,0.234234,0.26590084605107145,-0.012770555500522085,0.004047167753316261,-0.08827356907715056,0.0003782565209629052,-0.13071826475985293
542,0.5326,615.54,1.41447,0.319345,84.6138,-57.0392,-0.453952,0.236179,-0.0925703,-0.140326,-0.0128473,0.00403722,0.000378741,0.234641,0.2664009756543557,-0.01276512572364552,0.004045380550948385,-0.08841487572239559,0.0003788127314281464,-0.13092512919499588
543,0.5336,615.809,1.41567,0.319648,84.6615,-57.0713,-0.45481,0.236574,-0.0927254,-0.140564,-0.0128418,0.00403544,0.000379296,0.235048,0.2669013028478546,-0.012759695916905067,0.004043593351761521,-0.08855625161118752,0.00037936794182336087,-0.1311319444022615
544,0.5346,616.077,1.41686,0.31995,84.709,-57.1034,-0.455667,0.236969,-0.0928803,-0.140803,-0.0128363,0.00403366,0.00037985,0.235455,0.2674018277096317,-0.012754266080300503,0.004041806155755889,-0.08869742331378228,0.0003799221521465501,-0.1313395790542201
545,0.5356,616.345,1.41805,0.320252,84.7565,-57.1355,-0.456523,0.237363,-0.0930352,-0.141041,-0.0128308,0.00403186,0.000380403,0.235861,0.2679012824158653,-0.012748836213831827,0.004039998882131357,-0.08883857315057386,0.00038047536239660396,-0.13154629563415643
546,0.5366,616.613,1.41924,0.320553,84.8039,-57.1675,-0.457379,0.237757,-0.09319,-0.141279,-0.0128252,0.00403006,0.000380955,0.236268,0.26840093394602493,-0.012743307591834507,0.00403819161176,-0.08897961002291466,0.00038102757257130193,-0.13175296302140083
547,0.5376,616.88,1.42042,0.320853,84.8513,-57.1994,-0.458233,0.238152,-0.0933448,-0.141517,-0.0128196,0.00402825,0.000381506,0.236674,0.2689020512790914,-0.012737778938876843,0.004036374304277945,-0.0891206250644373,0.0003815787826693118,-0.13195958122765994
548,0.5386,617.147,1.4216,0.321153,84.8985,-57.2313,-0.459086,0.238546,-0.0934995,-0.141755,-0.012814,0.00402643,0.000382056,0.23708,0.26940209718987096,-0.01273225025495861,0.004034546959739593,-0.08926152720467828,0.0003821289926890792,-0.1321661502646373
549,0.5396,617.414,1.42278,0.321453,84.9456,-57.2631,-0.459939,0.23894,-0.0936541,-0.141993,-0.0128084,0.00402461,0.000382605,0.237486,0.2699023401575571,-0.012726721540079589,0.004032719618527025,-0.08940231648928032,0.00038267820262860575,-0.13237267014403375
550,0.5406,617.68,1.42395,0.321751,84.9927,-57.2949,-0.46079,0.239333,-0.0938087,-0.14223,-0.0128027,0.00402278,0.000383153,0.237891,0.2704015098576604,-0.012721094066354133,0.004030882240331213,-0.08954308400954136,0.0003832264124865592,-0.13257827345625472
551,0.5416,617.946,1.42513,0.32205,85.0397,-57.3266,-0.461641,0.239727,-0.0939632,-0.142468,-0.012797,0.00402094,0.0003837,0.238297,0.27090214667152024,-0.012715466560551891,0.004029034825207445,-0.08968373873720437,0.00038377362226094114,-0.13278469526200298
552,0.5426,618.211,1.4263,0.322348,85.0866,-57.3583,-0.46249,0.24012,-0.0941176,-0.142706,-0.0127913,0.00401909,0.000384247,0.238703,0.27140170937280317,-0.012709839022672864,0.004027177373211233,-0.08982428071782322,0.00038432083233486125,-0.1329910679452071
553,0.5436,618.476,1.42747,0.322645,85.1334,-57.3899,-0.463339,0.240514,-0.094272,-0.142943,-0.0127856,0.00401724,0.000384792,0.239108,0.2719027403429157,-0.012704211452716718,0.004025319924651161,-0.08996480100043547,0.0003848660419383254,-0.13319652471451526
554,0.5446,618.741,1.42863,0.322942,85.1802,-57.4215,-0.464187,0.240907,-0.0944263,-0.14318,-0.0127798,0.00401538,0.000385337,0.239513,0.2724026963547921,-0.01269848512053684,0.004023452439293029,-0.09010520859891624,0.00038541125183888525,-0.13340193279633872
555,0.5456,619.005,1.42979,0.323238,85.2268,-57.453,-0.465033,0.2413,-0.0945806,-0.143418,-0.0127741,0.00401352,0.00038588,0.239918,0.272902848887995,-0.01269285748586324,0.00402158495740812,-0.09024559453417602,0.00038595446126454824,-0.13360815859448982
556,0.5466,619.269,1.43095,0.323534,85.2734,-57.4844,-0.465879,0.241692,-0.0947348,-0.143655,-0.0127683,0.00401164,0.000386423,0.240323,0.273401924617211,-0.01268713108783015,0.00401969739860264,-0.0903858678481484,0.0003864976709853085,-0.1338134691306434
557,0.5476,619.533,1.43211,0.323829,85.3199,-57.5158,-0.466724,0.242085,-0.094889,-0.143892,-0.0127625,0.00400976,0.000386965,0.240727,0.273902469924296,-0.01268140465658385,0.004017809843345876,-0.09052611953364331,0.0003870398806140596,-0.13401873101396544
558,0.5486,619.796,1.43326,0.324124,85.3663,-57.5472,-0.467568,0.242477,-0.095043,-0.144129,-0.0127567,0.00400787,0.000387505,0.241132,0.27440193758177145,-0.012675678192124118,0.0040159122514784595,-0.09066616772724745,0.0003875800897614745,-0.13422394425598538
559,0.5496,620.059,1.43442,0.324418,85.4126,-57.5784,-0.468411,0.24287,-0.0951971,-0.144366,-0.0127508,0.00400598,0.000388045,0.241536,0.2749028759711871,-0.012669852961440964,0.004014014663197729,-0.09080628527446644,0.000388120299200434,-0.1344291088682299
560,0.5506,620.321,1.43556,0.324711,85.4589,-57.6097,-0.469253,0.243262,-0.095351,-0.144603,-0.0127449,0.00400408,0.000388584,0.24194,0.2754027358647062,-0.012664027696388969,0.004012107038382062,-0.09094619942049298,0.00038865950854272135,-0.13463422486222276
561,0.5516,620.583,1.43671,0.325004,85.505,-57.6409,-0.470094,0.243654,-0.0955049,-0.144839,-0.012739,0.00400217,0.000389122,0.242345,0.2759027917417136,-0.0126582023969678,0.0040101893770889685,-0.09108609203538931,0.00038919771778633816,-0.13483842708834481
562,0.5526,620.845,1.43786,0.325297,85.5511,-57.672,-0.470934,0.244046,-0.0956588,-0.145076,-0.0127331,0.00400025,0.00038966,0.242748,0.2764030436790501,-0.012652377063177234,0.004008261679375957,-0.09122596312246889,0.00038973592731950113,-0.13504344608541408
563,0.5536,621.106,1.439,0.325589,85.5971,-57.7031,-0.471774,0.244438,-0.0958126,-0.145313,-0.0127272,0.00399833,0.000390196,0.243152,0.27690349175358664,-0.01264655169501705,0.004006333985363986,-0.09136572182162117,0.000390272136361558,-0.13524841649873842
564,0.5546,621.367,1.44013,0.325881,85.643,-57.7341,-0.472612,0.244829,-0.0959663,-0.145549,-0.0127212,0.0039964,0.000390731,0.243556,0.27740285863872627,-0.012640627556554818,0.004004396255009368,-0.09150536817807975,0.0003908073453002814,-0.13545247379273695
565,0.5556,621.628,1.44127,0.326172,85.6889,-57.7651,-0.473449,0.245221,-0.0961199,-0.145785,-0.0127152,0.00399446,0.000391266,0.243959,0.2779036987175547,-0.012634703382547685,0.004002448488370058,-0.09164490223703758,0.0003913425545254423,-0.13565648293489618
566,0.5566,621.888,1.4424,0.326462,85.7347,-57.796,-0.474286,0.245612,-0.0962735,-0.146022,-0.0127092,0.00399252,0.000391799,0.244363,0.2784034567600837,-0.01262877917299532,0.004000500725509282,-0.09178441486520983,0.00039187576325305784,-0.13586130807570274
567,0.5576,622.148,1.44354,0.326752,85.7803,-57.8268,-0.475121,0.246003,-0.0964271,-0.146258,-0.0127032,0.00399057,0.000392332,0.244766,0.278903410246214,-0.012622854927897609,0.0039985429264417505,-0.09192390606588807,0.0003924089722651125,-0.13606522074435545
568,0.5586,622.408,1.44466,0.327042,85.826,-57.8577,-0.475956,0.246394,-0.0965805,-0.146494,-0.0126972,0.00398861,0.000392863,0.245169,0.2794035592523789,-0.012616930647254443,0.0039965750912260845,-0.0920631942550203,0.0003929401807751809,-0.13626908529529658
569,0.5596,622.667,1.44579,0.327331,85.8715,-57.8884,-0.476789,0.246785,-0.096734,-0.14673,-0.0126911,0.00398665,0.000393394,0.245572,0.27990390385504194,-0.012610907592160991,0.003994607259867333,-0.0922025518587325,0.00039347138956746797,-0.13647290173988047
570,0.5606,622.926,1.44691,0.327619,85.9169,-57.9191,-0.477622,0.247175,-0.0968873,-0.146966,-0.012685,0.00398468,0.000393924,0.245974,0.28040316372689245,-0.01260488450032693,0.003992629392439273,-0.09234170654105356,0.0003940015982477618,-0.13667667008945883
571,0.5616,623.184,1.44803,0.327907,85.9623,-57.9498,-0.478454,0.247566,-0.0970406,-0.147202,-0.0126789,0.00398271,0.000394453,0.246377,0.2809038992513253,-0.012598861371751924,0.00399065152890743,-0.09248083989259692,0.0003945308068147302,-0.1368803903553808
572,0.5626,623.442,1.44915,0.328194,86.0076,-57.9804,-0.479285,0.247956,-0.0971939,-0.147437,-0.0126728,0.00398072,0.000394981,0.246779,0.2814035491974396,-0.012592838206435641,0.003988653589498847,-0.0926199519166323,0.00039505901526637466,-0.13708319963262394
573,0.5636,623.7,1.45027,0.328481,86.0528,-58.0109,-0.480114,0.248346,-0.097347,-0.147673,-0.0126667,0.00397873,0.000395508,0.247182,0.2819033940450364,-0.01258681500437786,0.003986655654066196,-0.09275886116821941,0.000395586223601363,-0.1372868239688938
574,0.5646,623.958,1.45138,0.328768,86.098,-58.0415,-0.480943,0.248736,-0.0975001,-0.147908,-0.0126605,0.00397674,0.000396035,0.247584,0.2824034338701418,-0.012580693023652834,0.003984657722609475,-0.09289774915442794,0.0003961134322141291,-0.13748953774545947
575,0.5656,624.215,1.45249,0.329054,86.1431,-58.0719,-0.481771,0.249126,-0.0976532,-0.148144,-0.0126543,0.00397473,0.00039656,0.247986,0.282903668748812,-0.01257457100497128,0.003982639715475411,-0.09303661587851342,0.00039663864031158624,-0.13769306619724964
576,0.5666,624.472,1.4536,0.329339,86.188,-58.1023,-0.482599,0.249516,-0.0978062,-0.148379,-0.0126481,0.00397273,0.000397084,0.248388,0.2834040987571327,-0.0125684489483332,0.003980631752203978,-0.09317537066127235,0.0003971628482877243,-0.13789568451810807
577,0.5676,624.728,1.4547,0.329624,86.233,-58.1327,-0.483425,0.249906,-0.0979591,-0.148614,-0.0126419,0.00397071,0.000397608,0.248789,0.28390472397121935,-0.01256232685373826,0.003978603713376216,-0.09331401354757951,0.0003976870565383095,-0.13809825522925556
578,0.5686,624.984,1.45581,0.329909,86.2778,-58.163,-0.48425,0.250295,-0.098112,-0.14885,-0.0126357,0.00396869,0.000398131,0.249191,0.2844042600623147,-0.012556204721186126,0.003976575678644956,-0.09345263523700986,0.0003982102646655772,-0.1383016400406697
579,0.5696,625.24,1.45691,0.330193,86.3226,-58.1932,-0.485074,0.250684,-0.0982648,-0.149085,-0.0126294,0.00396666,0.000398653,0.249592,0.28490399051074955,-0.012549983805679954,0.003974537608265161,-0.09359114509192323,0.000398732472667529,-0.13850411536347784
580,0.5706,625.495,1.458,0.330476,86.3672,-58.2234,-0.485898,0.251073,-0.0984176,-0.14932,-0.0126231,0.00396463,0.000399174,0.249993,0.2854039153921435,-0.012543762850982021,0.003972499542022279,-0.09372963378414767,0.0003992536805428326,-0.1387065431101756
581,0.5716,625.75,1.4591,0.330759,86.4118,-58.2536,-0.48672,0.251462,-0.0985703,-0.149555,-0.0126168,0.00396258,0.000399694,0.250394,0.285904034782146,-0.012537541857091883,0.003970441400507951,-0.0938680107037222,0.0003997738882901558,-0.13890892329194204
582,0.5726,626.005,1.46019,0.331042,86.4564,-58.2837,-0.487542,0.251851,-0.0987229,-0.149789,-0.0126105,0.00396054,0.000400213,0.250795,0.28640434875643517,-0.012531320824009318,0.003968393302896445,-0.09400627589538635,0.0004002930959075002,-0.13911039503077893
583,0.5736,626.259,1.46128,0.331324,86.5008,-58.3137,-0.488362,0.25224,-0.0988755,-0.150024,-0.0126042,0.00395848,0.000400731,0.251196,0.28690485739071936,-0.012525099751734103,0.0039663251301365055,-0.094144519989392,0.00040081130339353344,-0.13931268031849442
584,0.5746,626.513,1.46237,0.331605,86.5452,-58.3437,-0.489182,0.252628,-0.099028,-0.150259,-0.0125978,0.00395642,0.000401249,0.251597,0.28740427335581886,-0.012518779892149001,0.003964256961636936,-0.09428265241722833,0.0004013295111480186,-0.13951491807475258
585,0.5756,626.767,1.46346,0.331886,86.5895,-58.3737,-0.490001,0.253017,-0.0991804,-0.150493,-0.0125914,0.00395436,0.000401765,0.251997,0.28790517103643665,-0.012512459992116698,0.0039621887973977366,-0.09442067322354741,0.00040184571836721084,-0.1397162480273999
586,0.5766,627.02,1.46454,0.332167,86.6338,-58.4036,-0.490819,0.253405,-0.0993328,-0.150728,-0.012585,0.00395229,0.000402281,0.252398,0.28840497519853603,-0.01250614005163686,0.0039601105978179785,-0.0945586729970983,0.00040236192585285657,-0.13991839095638903
587,0.5776,627.273,1.46562,0.332447,86.6779,-58.4334,-0.491636,0.253793,-0.0994852,-0.150962,-0.0125786,0.00395021,0.000402795,0.252798,0.2889049733222766,-0.012499820070709267,0.003958022362959612,-0.0946966517410861,0.0004028761327989905,-0.1401196265074276
588,0.5786,627.526,1.4667,0.332726,86.722,-58.4633,-0.492452,0.254181,-0.0996375,-0.151196,-0.0125722,0.00394812,0.000403309,0.253198,0.2894051654829297,-0.012493500049333695,0.003955924092885699,-0.0948345189421721,0.0004033903400093575,-0.14032081497485616
589,0.5796,627.778,1.46778,0.333006,86.766,-58.493,-0.493267,0.254569,-0.0997897,-0.151431,-0.0125657,0.00394603,0.000403822,0.253598,0.28990555175579646,-0.012487081236222886,0.003953825827196944,-0.0949722746449142,0.0004039035470801977,-0.14052281584730486
590,0.5806,628.03,1.46885,0.333284,86.81,-58.5227,-0.494081,0.254956,-0.0999418,-0.151665,-0.0125593,0.00394394,0.000404335,0.253997,0.2904048418107201,-0.012480761133318419,0.00395172756589357,-0.09510991889383025,0.00040441675441438285,-0.1407239099794656
591,0.5816,628.281,1.46992,0.333562,86.8538,-58.5524,-0.494894,0.255344,-0.100094,-0.151899,-0.0125528,0.00394183,0.000404846,0.254397,0.2909056160332595,-0.012474342237404401,0.003949609229983331,-0.09524763268388936,0.00040492796120195074,-0.14092495706110442
592,0.5826,628.533,1.47099,0.33384,86.8976,-58.582,-0.495706,0.255731,-0.100246,-0.152133,-0.0125463,0.00393972,0.000405356,0.254796,0.2914052931879574,-0.012467923299767425,0.003947490898542627,-0.09538514459255154,0.00040543816784532893,-0.14112595710323006
593,0.5836,628.784,1.47206,0.334117,86.9414,-58.6116,-0.496518,0.256118,-0.100398,-0.152367,-0.0125397,0.00393761,0.000405866,0.255196,0.2919051637551371,-0.01246140556655273,0.003945372571571681,-0.09552263560099217,0.0004059483747489434,-0.1413269101168484
594,0.5846,629.034,1.47312,0.334394,86.985,-58.6411,-0.497328,0.256505,-0.10055,-0.1526,-0.0125332,0.00393549,0.000406374,0.255595,0.2924052278096636,-0.012454986544827129,0.003943244209637875,-0.0956601057123877,0.0004064565810997234,-0.14152695764034962
595,0.5856,629.285,1.47418,0.33467,87.0286,-58.6706,-0.498138,0.256892,-0.100702,-0.152834,-0.0125266,0.00393336,0.000406882,0.255994,0.29290548542643124,-0.012448468726229511,0.003941105812805157,-0.09579755492991426,0.00040696478770896327,-0.14172781683081992
596,0.5866,629.534,1.47524,0.334946,87.0721,-58.7,-0.498947,0.257279,-0.100854,-0.153068,-0.0125201,0.00393123,0.000407389,0.256393,0.29340593668036297,-0.012442049620414175,0.00393896742052724,-0.09593498325674743,0.0004074719941686844,-0.14192862902573844
597,0.5876,629.784,1.4763,0.335221,87.1155,-58.7294,-0.499754,0.257665,-0.101005,-0.153301,-0.0125135,0.00392909,0.000407895,0.256791,0.293905287740476,-0.012435531716432635,0.003936818993435676,-0.09607148676800115,0.0004079782004775545,-0.14212853636506595
598,0.5886,630.033,1.47735,0.335496,87.1589,-58.7587,-0.500561,0.258052,-0.101157,-0.153534,-0.0125069,0.00392694,0.000408401,0.25719,0.2944061259927826,-0.012429013769432729,0.003934660531595302,-0.09620887346035933,0.00040848440704244204,-0.14232839713140943
599,0.5896,630.282,1.4784,0.335771,87.2022,-58.788,-0.501367,0.258438,-0.101309,-0.153768,-0.0125002,0.00392479,0.000408905,0.257588,0.29490586320049195,-0.012422397021658926,0.003932502074395439,-0.09634623927152719,0.0004089886130456133,-0.14252906880697902
600,0.5906,630.531,1.47945,0.336044,87.2454,-58.8172,-0.502172,0.258824,-0.10146,-0.154001,-0.0124936,0.00392264,0.000409408,0.257987,0.29540579334399775,-0.012415878987969808,0.0039303436218363075,-0.09648268068781107,0.0004094918188934926,-0.14272883626013488
601,0.5916,630.779,1.4805,0.336318,87.2885,-58.8464,-0.502976,0.25921,-0.101612,-0.154234,-0.0124869,0.00392048,0.000409911,0.258385,0.2959059164977875,-0.012409262152192624,0.003928175134636058,-0.09662000488344324,0.0004099950249945028,-0.14292855717289643
602,0.5926,631.027,1.48155,0.336591,87.3316,-58.8755,-0.503779,0.259596,-0.101763,-0.154467,-0.0124802,0.00391831,0.000410413,0.258783,0.2964062327363777,-0.012402645272082569,0.00392599661285975,-0.09675640496424054,0.0004104972309380006,-0.1431282315561061
603,0.5936,631.275,1.48259,0.336863,87.3746,-58.9046,-0.504582,0.259981,-0.101915,-0.1547,-0.0124735,0.00391613,0.000410914,0.259181,0.2969054452282196,-0.012396028347639199,0.003923808056572664,-0.09689368755694461,0.0004109984367226538,-0.14332785942060422
604,0.5946,631.522,1.48363,0.337135,87.4175,-58.9337,-0.505383,0.260367,-0.102066,-0.154933,-0.0124668,0.00391395,0.000411414,0.259578,0.2974061473593721,-0.012389411378862292,0.0039216195050566505,-0.09703004631477818,0.00041149864234690803,-0.14352744077722823
605,0.5956,631.769,1.48467,0.337407,87.4604,-58.9627,-0.506184,0.260752,-0.102217,-0.155166,-0.0124601,0.00391177,0.000411913,0.259976,0.29790574489245936,-0.012382794365751515,0.003919430958311487,-0.09716638448399384,0.00041199784780943105,-0.14372697563681336
606,0.5966,632.016,1.4857,0.337678,87.5032,-58.9916,-0.506983,0.261138,-0.102368,-0.155398,-0.0124533,0.00390958,0.000412412,0.260373,0.29840683321381234,-0.012376078545919489,0.003917232377165236,-0.0973027020677002,0.0004124970535208661,-0.14392560793622788
607,0.5976,632.262,1.48674,0.337949,87.5459,-59.0205,-0.507782,0.261523,-0.102519,-0.155631,-0.0124465,0.00390738,0.000412909,0.26077,0.2989068160851265,-0.01236936268041966,0.0039150237616834005,-0.09743899906900544,0.0004129942586554858,-0.14412505003367215
608,0.5986,632.508,1.48777,0.338219,87.5886,-59.0494,-0.508579,0.261908,-0.102671,-0.155863,-0.0124398,0.00390518,0.000413406,0.261167,0.29940699148690597,-0.012362745532982222,0.003912815151060567,-0.0975761779152905,0.0004134914640370191,-0.14432358999053885
609,0.5996,632.754,1.4888,0.338489,87.6312,-59.0782,-0.509376,0.262292,-0.102822,-0.156096,-0.012433,0.00390297,0.000413902,0.261564,0.29990605958657945,-0.012356029576817584,0.003910596506190744,-0.09771243362486026,0.0004139876692519362,-0.14452293936896654
610,0.6006,633.0,1.48982,0.338758,87.6737,-59.107,-0.510172,0.262677,-0.102973,-0.156328,-0.0124261,0.00390076,0.000414397,0.261961,0.3004066197711728,-0.012349214809910802,0.003908377866224111,-0.09784866876137133,0.00041448287429846076,-0.14472138702621462
611,0.6016,633.245,1.49085,0.339027,87.7161,-59.1357,-0.510967,0.263061,-0.103124,-0.15656,-0.0124193,0.00389854,0.000414891,0.262358,0.3009060718018177,-0.012342498761736986,0.0039061491920990843,-0.09798488332792976,0.00041497707917503845,-0.1449197886489464
612,0.6026,633.489,1.49187,0.339296,87.7585,-59.1644,-0.511761,0.263446,-0.103274,-0.156793,-0.0124124,0.00389631,0.000415384,0.262754,0.30140701706523676,-0.01233568390146711,0.0039039104838825,-0.0981201754482679,0.000415470283880337,-0.14511899912926896
613,0.6036,633.734,1.49289,0.339563,87.8008,-59.193,-0.512555,0.26383,-0.103425,-0.157025,-0.0124056,0.00389408,0.000415877,0.263151,0.30190685332220935,-0.012328967761282783,0.0039016717806583667,-0.09825634902041169,0.00041596348882877443,-0.14531730851669256
614,0.6046,633.978,1.49391,0.339831,87.8431,-59.2216,-0.513347,0.264214,-0.103576,-0.157257,-0.0123987,0.00389185,0.000416368,0.263547,0.30240688155316087,-0.012322152807648812,0.0038994330824264622,-0.09839250203189853,0.0004164546931872959,-0.14551557190167475
615,0.6056,634.222,1.49492,0.340098,87.8852,-59.2502,-0.514138,0.264598,-0.103727,-0.157489,-0.0123918,0.00388961,0.000416859,0.263943,0.3029071018318241,-0.012315337806991455,0.0038971843502149106,-0.09852863448583282,0.00041694589778717983,-0.14571378929488688
616,0.6066,634.465,1.49594,0.340365,87.9273,-59.2787,-0.514929,0.264982,-0.103877,-0.15772,-0.0123849,0.00388736,0.000417349,0.264339,0.30340751423195944,-0.012308522759310492,0.0038949255840912134,-0.09866384504961412,0.00041743610221089966,-0.14591110661853146
617,0.6076,634.708,1.49695,0.340631,87.9694,-59.3071,-0.515719,0.265365,-0.104028,-0.157952,-0.0123779,0.00388511,0.000417838,0.264735,0.30390681491988847,-0.012301608894771277,0.003892666823049673,-0.098799936533846,0.000417925306456679,-0.14610923225833305
618,0.6086,634.951,1.49796,0.340897,88.0113,-59.3355,-0.516507,0.265749,-0.104178,-0.158184,-0.012371,0.00388285,0.000418327,0.26513,0.30440761128356564,-0.012294793752360422,0.0038903980281863593,-0.09893510640537206,0.00041841451094182247,-0.1463073119383178
619,0.6096,635.194,1.49896,0.341162,88.0532,-59.3639,-0.517295,0.266132,-0.104329,-0.158415,-0.012364,0.00388059,0.000418814,0.265526,0.3049072950820264,-0.01228787979171786,0.0038881292384507216,-0.09907115693223156,0.0004189017148281682,-0.14650449217406603
620,0.6106,635.436,1.49997,0.341427,88.0951,-59.3922,-0.518082,0.266515,-0.104479,-0.158647,-0.012357,0.00387832,0.000419301,0.265921,0.3054071702960359,-0.012280965782677344,0.0038858504149836826,-0.09920628612374904,0.0004193889189521016,-0.1467024801643867
621,0.6116,635.678,1.50097,0.341691,88.1368,-59.4205,-0.518868,0.266898,-0.10463,-0.158878,-0.01235,0.00387605,0.000419787,0.266316,0.3059072369989202,-0.012274051725238655,0.0038835715966898388,-0.09934229570556252,0.0004198751228932096,-0.14689956912681723
622,0.6126,635.92,1.50197,0.341955,88.1786,-59.4488,-0.519653,0.267281,-0.10478,-0.159109,-0.012343,0.00387377,0.000420272,0.266712,0.3064074952640332,-0.012267137619401458,0.003881282744755854,-0.09947738422931407,0.0004203603266503819,-0.1470966125669554
623,0.6136,636.161,1.50297,0.342219,88.2202,-59.4769,-0.520438,0.267664,-0.10493,-0.159341,-0.012336,0.00387148,0.000420756,0.267106,0.30690794516475783,-0.01226022346516531,0.003878983859250562,-0.09961245249130679,0.0004208445302218422,-0.1472944632012788
624,0.6146,636.402,1.50396,0.342482,88.2617,-59.5051,-0.521221,0.268046,-0.10508,-0.159572,-0.0123289,0.00386919,0.000421239,0.267501,0.3074072793665712,-0.01225321048785577,0.0038766849790097258,-0.0997475004945797,0.00042132773360648024,-0.14749141543142097
625,0.6156,636.643,1.50496,0.342745,88.3033,-59.5332,-0.522003,0.268429,-0.10523,-0.159803,-0.0123218,0.0038669,0.000421722,0.267896,0.307908112257945,-0.01224619746075406,0.003874386104033345,-0.09988252824217125,0.00042181093722448715,-0.14768832217085226
626,0.6166,636.883,1.50595,0.343007,88.3447,-59.5613,-0.522785,0.268811,-0.10538,-0.160034,-0.0123148,0.0038646,0.000422204,0.26829,0.3084078285965717,-0.012239283159936276,0.003872077195600454,-0.10001753573711958,0.00042229314065345136,-0.14788518343007995
627,0.6176,637.123,1.50694,0.343269,88.3861,-59.5893,-0.523566,0.269193,-0.10553,-0.160264,-0.0123077,0.00386229,0.000422685,0.268685,0.30890773586330433,-0.01223227003395011,0.003869758253780553,-0.10015252298246258,0.00042277434389226265,-0.14808114730118205
628,0.6186,637.363,1.50792,0.34353,88.4274,-59.6173,-0.524346,0.269575,-0.10568,-0.160495,-0.0123006,0.00385998,0.000423165,0.269079,0.30940783413109196,-0.012225256858170663,0.003867439317317478,-0.10028748998123715,0.00042325454693914466,-0.1482779178282846
629,0.6196,637.603,1.50891,0.343791,88.4686,-59.6452,-0.525124,0.269957,-0.10583,-0.160726,-0.0122934,0.00385767,0.000423644,0.269473,0.30990812347291063,-0.012218144854416857,0.0038651203862110073,-0.10042243673648032,0.00042373374979298717,-0.14847464290664492
630,0.6206,637.842,1.50989,0.344051,88.5098,-59.6731,-0.525903,0.270338,-0.10598,-0.160956,-0.0122863,0.00385535,0.000424122,0.269867,0.3104072935538158,-0.012211131578348189,0.0038627914218332116,-0.10055736325122833,0.0004242119524520138,-0.1486704712176573
631,0.6216,638.081,1.51087,0.344311,88.5509,-59.7009,-0.52668,0.27072,-0.10613,-0.161187,-0.0122791,0.00385302,0.0004246,0.27026,0.31090796476206584,-0.012204019472891958,0.003860452424254257,-0.10069226952851684,0.00042469015533952437,-0.1488671056266574
632,0.6226,638.319,1.51185,0.344571,88.5919,-59.7287,-0.527456,0.271101,-0.106279,-0.161417,-0.012272,0.00385069,0.000425077,0.270654,0.3114075158550804,-0.012197006096532848,0.0038581134321249433,-0.1008262563980874,0.0004251673580304427,-0.14906284368162415
633,0.6236,638.558,1.51283,0.34483,88.6329,-59.7565,-0.528231,0.271483,-0.106429,-0.161648,-0.0122648,0.00384835,0.000425553,0.271048,0.3119085692212371,-0.01218989388937275,0.0038557644068879515,-0.10096112234442889,0.0004256435605236586,-0.1492593874630529
634,0.6246,638.796,1.5138,0.345089,88.6738,-59.7842,-0.529006,0.271864,-0.106579,-0.161878,-0.0122576,0.00384601,0.000426028,0.271441,0.31240850161718425,-0.012182781631004724,0.003853415387147452,-0.10109596806239551,0.00042611876281717365,-0.1494550353035723
635,0.6256,639.033,1.51477,0.345348,88.7147,-59.8119,-0.529779,0.272245,-0.106728,-0.162108,-0.0122504,0.00384367,0.000426503,0.271834,0.3129086245236643,-0.012175669321428106,0.0038510663729038885,-0.10122989478536559,0.000426593965336286,-0.1496506381502628
636,0.6266,639.271,1.51574,0.345606,88.7555,-59.8395,-0.530552,0.272626,-0.106878,-0.162338,-0.0122431,0.00384131,0.000426976,0.272227,0.3134089380132754,-0.012168458177493569,0.003848697287182734,-0.1013647001904896,0.00042706716722729077,-0.14984619601347193
637,0.6276,639.508,1.51671,0.345863,88.7962,-59.8671,-0.531324,0.273006,-0.107027,-0.162568,-0.0122359,0.00383896,0.000427449,0.27262,0.31390812824985836,-0.012161345764787779,0.0038463382455160566,-0.10149858687535551,0.00042754036934189443,-0.1500417089035445
638,0.6286,639.745,1.51768,0.34612,88.8369,-59.8946,-0.532095,0.273387,-0.107176,-0.162798,-0.0122286,0.0038366,0.000427921,0.273013,0.3144088226229429,-0.012154134516290882,0.0038439691709533097,-0.10163245361259154,0.00042801257125235637,-0.15023717683082338
639,0.6296,639.981,1.51864,0.346377,88.8775,-59.9222,-0.532865,0.273767,-0.107326,-0.163028,-0.0122213,0.00383423,0.000428392,0.273405,0.3149083928878784,-0.01214692321515154,0.0038415900635655476,-0.1017671986384201,0.0004284837729573443,-0.15043259980564871
640,0.6306,640.217,1.5196,0.346633,88.918,-59.9496,-0.533634,0.274147,-0.107475,-0.163258,-0.012214,0.00383186,0.000428863,0.273798,0.3154081530255881,-0.01213971186136964,0.003839210961816386,-0.10190102535548495,0.0004289549748841548,-0.15062797783835835
641,0.6316,640.453,1.52056,0.346889,88.9585,-59.977,-0.534402,0.274527,-0.107624,-0.163487,-0.0122067,0.00382948,0.000429332,0.27419,0.3159081031082376,-0.012132500454944628,0.0038368218273372445,-0.10203483213385445,0.0004294241761739759,-0.15082246176217418
642,0.6326,640.689,1.52152,0.347145,88.9989,-60.0044,-0.53517,0.274907,-0.107773,-0.163717,-0.0121994,0.0038271,0.000429801,0.274582,0.3164082432080193,-0.012125288995876171,0.0038344326985444432,-0.1021686189764992,0.0004298933776840652,-0.15101775013694485
643,0.6336,640.924,1.52247,0.3474,89.0392,-60.0318,-0.535937,0.275287,-0.107922,-0.163946,-0.0121921,0.00382472,0.000430269,0.274974,0.3169085733971537,-0.012118077484163825,0.00383204357543776,-0.1023023858863894,0.0004303615789835735,-0.15121214481312362
644,0.6346,641.159,1.52343,0.347654,89.0795,-60.0591,-0.536702,0.275667,-0.108071,-0.164176,-0.0121847,0.00382232,0.000430736,0.275366,0.3174090937478884,-0.012110767130888989,0.0038296343814241407,-0.10243613286649489,0.0004308287800716126,-0.15140734357109886
645,0.6356,641.394,1.52438,0.347908,89.1197,-60.0863,-0.537467,0.276046,-0.10822,-0.164405,-0.0121774,0.00381993,0.000431203,0.275758,0.317908486423353,-0.012103555513166664,0.0038272352314649982,-0.10256985991978484,0.00043129598137769953,-0.1516016490405957
646,0.6366,641.628,1.52533,0.348162,89.1599,-60.1135,-0.538231,0.276426,-0.108369,-0.164634,-0.01217,0.00381753,0.000431668,0.27615,0.3184093868132405,-0.012096245052428789,0.003824826048991481,-0.10270356704922834,0.0004317611820385814,-0.15179591001923443
647,0.6376,641.862,1.52627,0.348416,89.2,-60.1407,-0.538994,0.276805,-0.108518,-0.164863,-0.0121626,0.00381512,0.000432133,0.276541,0.3189091586716275,-0.012088934537593299,0.0038224068340757533,-0.10283725425779366,0.0004322263829157347,-0.15199012651720234
648,0.6386,642.096,1.52722,0.348669,89.24,-60.1679,-0.539756,0.277184,-0.108667,-0.165092,-0.0121552,0.00381271,0.000432597,0.276932,0.3194091199794473,-0.01208162396865975,0.003819987624990473,-0.10297092154844878,0.00043269058357631174,-0.15218429854468418
649,0.6396,642.33,1.52816,0.348921,89.28,-60.195,-0.540518,0.277563,-0.108816,-0.165321,-0.0121478,0.0038103,0.00043306,0.277324,0.3199092708085147,-0.012074313345627918,0.0038175684217354178,-0.10310456892416131,0.0004331537840194244,-0.15237842611186259
650,0.6406,642.563,1.5291,0.349173,89.3199,-60.222,-0.541278,0.277942,-0.108964,-0.16555,-0.0121403,0.00380788,0.000433523,0.277715,0.32040961123067224,-0.012066903875192492,0.0038151391861591666,-0.10323729962564632,0.0004336169846768101,-0.15257250922891796
651,0.6416,642.796,1.53004,0.349425,89.3597,-60.249,-0.542038,0.27832,-0.109113,-0.165779,-0.0121329,0.00380545,0.000433985,0.278105,0.3209088204083077,-0.012059593143231462,0.003812699918334772,-0.10337090731398213,0.00043407918511451093,-0.15276654790602806
652,0.6426,643.029,1.53098,0.349676,89.3995,-60.276,-0.542796,0.278699,-0.109262,-0.166008,-0.0121254,0.00380302,0.000434446,0.278496,0.3214095397315606,-0.012052183562394236,0.0038102606564376362,-0.10350449509625548,0.0004345403853314167,-0.1529605421533684
653,0.6436,643.261,1.53191,0.349927,89.4392,-60.3029,-0.543554,0.279077,-0.10941,-0.166236,-0.012118,0.00380059,0.000434906,0.278887,0.3219091269536156,-0.012044872721502453,0.003807821400467981,-0.10363716661304678,0.00043500058532575103,-0.15315364513518104
654,0.6446,643.493,1.53284,0.350178,89.4789,-60.3298,-0.544311,0.279455,-0.109559,-0.166465,-0.0121105,0.00379815,0.000435365,0.279277,0.3224089030553363,-0.012037463030261542,0.003805372112371863,-0.10377071472563992,0.0004354597850964037,-0.15334755074740514
655,0.6456,643.725,1.53378,0.350428,89.5185,-60.3567,-0.545067,0.279833,-0.109707,-0.166693,-0.012103,0.00379571,0.000435824,0.279668,0.32290886810813313,-0.01203005328344775,0.0038029228302520757,-0.1039033468448417,0.00043591898507799876,-0.15354056550131656
656,0.6466,643.957,1.5347,0.350678,89.558,-60.3835,-0.545823,0.280211,-0.109855,-0.166921,-0.0120954,0.00379326,0.000436281,0.280058,0.3234090221834429,-0.012022544683320091,0.003800463516103747,-0.10403595933594223,0.0004363761843972913,-0.15373353625288066
657,0.6476,644.188,1.53563,0.350927,89.5975,-60.4103,-0.546577,0.280589,-0.110004,-0.16715,-0.0120879,0.00379081,0.000436738,0.280448,0.32390936535272963,-0.012015134824618245,0.0037980042079808207,-0.10416944803284622,0.0004368333839257499,-0.15392730908524266
658,0.6486,644.419,1.53656,0.351176,89.6369,-60.437,-0.54733,0.280967,-0.110152,-0.167378,-0.0120804,0.00378835,0.000437195,0.280838,0.3244098976874845,-0.012007724910342299,0.003795534867927719,-0.1043020211438852,0.00043729058366315243,-0.15412019166932112
659,0.6496,644.65,1.53748,0.351425,89.6763,-60.4637,-0.548083,0.281344,-0.1103,-0.167606,-0.0120728,0.00378589,0.00043765,0.281227,0.3249092943492684,-0.012000216140518383,0.0037930655339493136,-0.10443457463555561,0.0004377457827338116,-0.15431303028118337
660,0.6506,644.88,1.5384,0.351673,89.7156,-60.4903,-0.548835,0.281722,-0.110448,-0.167834,-0.0120652,0.00378342,0.000438105,0.281617,0.3254102047286298,-0.01199270731362756,0.0037905861681393205,-0.10456710851076079,0.0004382009820116384,-0.15450582493085396
661,0.6516,645.11,1.53932,0.351921,89.7549,-60.517,-0.549586,0.282099,-0.110596,-0.168062,-0.0120577,0.00378095,0.000438559,0.282007,0.32590997857726367,-0.01198529723114461,0.0037881068084535396,-0.10469962277240397,0.00043865518105801193,-0.1546985756283552
662,0.6526,645.34,1.54024,0.352168,89.794,-60.5435,-0.550336,0.282476,-0.110744,-0.16829,-0.0120501,0.00377848,0.000439012,0.282396,0.32640994087615915,-0.011977788290869595,0.003785627454891749,-0.1048321174233876,0.0004391083798716,-0.15489128238370709
663,0.6536,645.57,1.54115,0.352415,89.8332,-60.5701,-0.551085,0.282853,-0.110892,-0.168518,-0.0120425,0.003776,0.000439464,0.282785,0.3269100916963752,-0.011970279293526453,0.0037831380696224937,-0.10496459246661394,0.00043956057845062624,-0.15508394520692714
664,0.6546,645.799,1.54206,0.352662,89.8722,-60.5966,-0.551833,0.28323,-0.11104,-0.168745,-0.0120348,0.00377352,0.000439916,0.283174,0.3274104311089978,-0.011962671435386762,0.0037806486905269665,-0.10509704790498475,0.0004400127772343776,-0.1552757193841725
665,0.6556,646.028,1.54297,0.352908,89.9112,-60.623,-0.552581,0.283606,-0.111188,-0.168973,-0.0120272,0.00377103,0.000440367,0.283563,0.32790963127484485,-0.011955162323155077,0.0037781492798234506,-0.10522948374140118,0.00044046397578179075,-0.15546829456574796
666,0.6566,646.257,1.54388,0.353154,89.9502,-60.6495,-0.553328,0.283983,-0.111336,-0.1692,-0.0120195,0.00376853,0.000440817,0.283952,0.3284103475849294,-0.011947554348614386,0.003775639837586997,-0.1053618999787641,0.00044091417409197753,-0.1556599815055908
667,0.6576,646.486,1.54479,0.353399,89.9891,-60.6758,-0.554073,0.284359,-0.111483,-0.169428,-0.0120119,0.00376604,0.000441266,0.28434,0.3289099237900621,-0.011940045121492382,0.0037731404393555046,-0.10549340211382352,0.00044136337216316157,-0.15585246908538952
668,0.6586,646.714,1.5457,0.353644,90.0279,-60.7022,-0.554818,0.284735,-0.111631,-0.169655,-0.0120042,0.00376353,0.000441715,0.284729,0.32940968787116676,-0.011932437030548693,0.0037706209719350348,-0.10562577929415773,0.00044181257043618416,-0.15604406882751365
669,0.6596,646.942,1.5466,0.353889,90.0667,-60.7285,-0.555562,0.285112,-0.111779,-0.169882,-0.0119965,0.00376103,0.000442162,0.285117,0.3299109698092022,-0.011924828881022531,0.003768111548519304,-0.10575813688411895,0.0004422597680262541,-0.15623562508143252
670,0.6606,647.169,1.5475,0.354133,90.1054,-60.7548,-0.556306,0.285487,-0.111926,-0.170109,-0.0119888,0.00375852,0.00044261,0.285506,0.3304097799439354,-0.011917220672913342,0.003765592093721404,-0.10588958077663413,0.0004427079662592259,-0.15642713785701656
671,0.6616,647.397,1.5484,0.354377,90.144,-60.781,-0.557048,0.285863,-0.112074,-0.170337,-0.0119811,0.003756,0.000443056,0.285894,0.33091010807698873,-0.011909612406220682,0.0037630626076163853,-0.10602189932686501,0.0004431541638063585,-0.15661945054510562
672,0.6626,647.624,1.5493,0.35462,90.1826,-60.8072,-0.55779,0.286239,-0.112221,-0.170564,-0.0119734,0.00375348,0.000443501,0.286281,0.331410624368792,-0.011902004080944217,0.0037605331278858234,-0.10615330444915083,0.0004435993611089373,-0.1568108762021978
673,0.6636,647.851,1.55019,0.354863,90.2212,-60.8333,-0.55853,0.286614,-0.112368,-0.17079,-0.0119656,0.00375096,0.000443946,0.286669,0.33190999697944257,-0.011894296886517997,0.003758003654529496,-0.10628469025630338,0.00044404455860980185,-0.1570014154124344
674,0.6646,648.077,1.55109,0.355106,90.2596,-60.8594,-0.55927,0.28699,-0.112516,-0.171017,-0.0119579,0.00374843,0.00044439,0.287057,0.33241088930016205,-0.011886688443311644,0.0037554641499926156,-0.10641695033465826,0.0004444887558641142,-0.15719275437334201
675,0.6656,648.304,1.55198,0.355348,90.2981,-60.8855,-0.560009,0.287365,-0.112663,-0.171244,-0.0119501,0.0037459,0.000444833,0.287444,0.33291063708050195,-0.011878981129422983,0.003752924651880818,-0.10654829738871407,0.0004449319528709861,-0.15738404990523502
676,0.6666,648.53,1.55287,0.35559,90.3364,-60.9116,-0.560747,0.28774,-0.11281,-0.171471,-0.0119424,0.00374336,0.000445276,0.287832,0.3334105723014025,-0.011871372568284744,0.003750375122690164,-0.10667962513617191,0.00044537515007392336,-0.15757530201797043
677,0.6676,648.755,1.55376,0.355832,90.3747,-60.9376,-0.561484,0.288115,-0.112957,-0.171697,-0.0119346,0.00374082,0.000445718,0.288219,0.33391069503316695,-0.011863665134931867,0.0037478255999752186,-0.10681093357986993,0.0004458173470274218,-0.15776566848749307
678,0.6686,648.981,1.55464,0.356073,90.413,-60.9635,-0.562221,0.28849,-0.113105,-0.171924,-0.0119268,0.00373828,0.000446159,0.288606,0.3344110053461251,-0.011855957641460635,0.003745276083735982,-0.10694311577997595,0.00044625854373014917,-0.15795683398264182
679,0.6696,649.206,1.55553,0.356314,90.4512,-60.9895,-0.562956,0.288865,-0.113252,-0.17215,-0.011919,0.00373573,0.000446599,0.288993,0.3349115033106329,-0.011848250087870826,0.003742716536545343,-0.10707438549339598,0.00044669874018077316,-0.15814711423568328
680,0.6706,649.431,1.55641,0.356554,90.4893,-61.0153,-0.563691,0.289239,-0.113399,-0.172376,-0.0119111,0.00373317,0.000447039,0.28938,0.335410853585552,-0.011840443658211242,0.0037401469584801283,-0.10720563591158638,0.00044713893682502004,-0.15833735149024653
681,0.6716,649.656,1.55729,0.356795,90.5274,-61.0412,-0.564425,0.289613,-0.113546,-0.172603,-0.0119033,0.00373062,0.000447477,0.289767,0.3359103906524017,-0.011832735983611897,0.0037375874243688045,-0.10733686703738332,0.0004475771327678846,-0.1585283872280817
682,0.6726,649.88,1.55817,0.357034,90.5654,-61.067,-0.565158,0.289988,-0.113692,-0.172829,-0.0118954,0.00372805,0.000447915,0.290153,0.33641145099183833,-0.011824929431390241,0.0037350078220839134,-0.10746718634125518,0.00044801532890259566,-0.15871853832468485
683,0.6736,650.104,1.55905,0.357274,90.6034,-61.0928,-0.56589,0.290362,-0.113839,-0.173055,-0.0118876,0.00372549,0.000448353,0.290539,0.3369113623521063,-0.011817221635779473,0.003732438263752913,-0.10759837902196479,0.0004484535252293753,-0.15890864645199587
684,0.6746,650.328,1.55992,0.357513,90.6413,-61.1185,-0.566622,0.290736,-0.113986,-0.173281,-0.0118797,0.00372292,0.000448789,0.290926,0.3374114607141905,-0.01180941496099408,0.003729858674701436,-0.10772955241876758,0.0004488897208501097,-0.1590987116197249
685,0.6756,650.552,1.5608,0.357751,90.6792,-61.1442,-0.567352,0.29111,-0.114133,-0.173507,-0.0118718,0.00372034,0.000449225,0.291312,0.3379117461480421,-0.011801608224535687,0.0037272690550065324,-0.10786070653449842,0.0004493259166611363,-0.15928873383757935
686,0.6766,650.775,1.56167,0.357989,90.717,-61.1699,-0.568082,0.291483,-0.114279,-0.173733,-0.0118639,0.00371777,0.00044966,0.291698,0.33841088031209,-0.01179380142640385,0.0037246894792399843,-0.10799094936338649,0.00044976111221251003,-0.15947871311526507
687,0.6776,650.998,1.56254,0.358227,90.7547,-61.1955,-0.568811,0.291857,-0.114426,-0.173958,-0.011856,0.00371518,0.000450095,0.292084,0.3389115395987774,-0.011785994566598124,0.0037220898356606913,-0.1081220650565905,0.0004501963079532878,-0.15966780913071466
688,0.6786,651.221,1.5634,0.358465,90.7924,-61.2211,-0.569539,0.29223,-0.114573,-0.174184,-0.0118481,0.0037126,0.000450528,0.292469,0.3394110467553413,-0.011778187645117844,0.003719500236009532,-0.10825316147720421,0.0004506295029820251,-0.15985770274706423
689,0.6796,651.444,1.56427,0.358702,90.83,-61.2467,-0.570266,0.292604,-0.114719,-0.17441,-0.0118402,0.00371001,0.000450961,0.292855,0.3399120801742368,-0.011770380661962676,0.003716900605870377,-0.10838334701185326,0.00045106269819839007,-0.1600475534523056
690,0.6806,651.666,1.56513,0.358939,90.8676,-61.2722,-0.570992,0.292977,-0.114866,-0.174635,-0.0118322,0.00370741,0.000451393,0.29324,0.3404119606020459,-0.011762474793384547,0.0037142909453213857,-0.1085144050268424,0.0004514948931508833,-0.1602365214930771
691,0.6816,651.888,1.566,0.359175,90.9052,-61.2977,-0.571718,0.29335,-0.115012,-0.174861,-0.0118243,0.00370481,0.000451825,0.293626,0.3409120275200328,-0.011754667686097453,0.0037116812915574116,-0.10864455242271742,0.0004519270882901161,-0.1604262865949554
692,0.6826,652.11,1.56686,0.359411,90.9426,-61.3231,-0.572443,0.293723,-0.115158,-0.175086,-0.0118163,0.00370221,0.000452255,0.294011,0.34141228099777154,-0.011746761691814989,0.0037090716445786764,-0.10877468081845965,0.00045235728271131315,-0.1606151694303557
693,0.6836,652.331,1.56772,0.359647,90.98,-61.3486,-0.573166,0.294095,-0.115305,-0.175311,-0.0118083,0.0036996,0.000452685,0.294396,0.3419113791928112,-0.01173885563428434,0.0037064519673204455,-0.10890568131160716,0.00045278747731725133,-0.1608040097718988
694,0.6846,652.553,1.56857,0.359882,91.0174,-61.3739,-0.573889,0.294468,-0.115451,-0.175536,-0.0118003,0.00369699,0.000453115,0.294781,0.342412005498252,-0.011730949513504951,0.003703832296899412,-0.10903577158531463,0.0004532176721083747,-0.1609928076291447
695,0.6856,652.774,1.56943,0.360117,91.0547,-61.3993,-0.574612,0.29484,-0.115597,-0.175761,-0.0117923,0.00369438,0.000453543,0.295165,0.34291147565998736,-0.01172304332947638,0.003701212633315798,-0.10916584286722852,0.00045364586617724356,-0.16118156301165132
696,0.6866,652.994,1.57028,0.360351,91.0919,-61.4246,-0.575333,0.295213,-0.115743,-0.175986,-0.0117843,0.00369176,0.000453971,0.29555,0.34341247507099015,-0.011715137082198068,0.0036985829395834724,-0.1092958951601215,0.0004540740604292992,-0.16137027592897435
697,0.6876,653.215,1.57113,0.360586,91.1292,-61.4499,-0.576053,0.295585,-0.115889,-0.176211,-0.0117763,0.00368914,0.000454398,0.295934,0.34391231747663986,-0.011707230771669463,0.003695953252741191,-0.1094259284667658,0.00045450125441015565,-0.16155894639066748
698,0.6886,653.435,1.57198,0.360819,91.1663,-61.4751,-0.576773,0.295957,-0.116035,-0.176436,-0.0117683,0.00368651,0.000454824,0.296319,0.34441234585825375,-0.011699324397890232,0.003693313535855447,-0.10955594278993308,0.0004549274481184806,-0.16174757440628196
699,0.6896,653.655,1.57283,0.361053,91.2034,-61.5003,-0.577492,0.296329,-0.116181,-0.176661,-0.0117602,0.00368388,0.00045525,0.296703,0.34491256028502804,-0.011691319129996547,0.0036906738259119276,-0.10968593813239491,0.0004553536420084381,-0.16193615998536737
700,0.6906,653.875,1.57368,0.361286,91.2404,-61.5254,-0.57821,0.2967,-0.116327,-0.176886,-0.0117522,0.00368125,0.000455675,0.297087,0.345411615413896,-0.011683412628923584,0.003688034122911077,-0.10981591449692207,0.0004557788356240877,-0.16212470313747063
701,0.6916,654.094,1.57452,0.361519,91.2774,-61.5506,-0.578927,0.297072,-0.116473,-0.17711,-0.0117441,0.00367861,0.000456099,0.297471,0.3459122016380949,-0.011675407232144108,0.0036853843899986582,-0.10994587188628524,0.00045620302896409726,-0.16231236618492184
702,0.6926,654.314,1.57536,0.361751,91.3143,-61.5757,-0.579644,0.297443,-0.116619,-0.177335,-0.011736,0.00367597,0.000456522,0.297854,0.34641162770270917,-0.011667401770520613,0.003682734664081533,-0.11007581030325453,0.0004566262220275785,-0.16250082470015215
703,0.6936,654.533,1.5762,0.361983,91.3512,-61.6007,-0.580359,0.297815,-0.116764,-0.177559,-0.011728,0.00367332,0.000456945,0.298238,0.346912586000681,-0.01165949507810804,0.0036800749083587547,-0.1102048399558847,0.00045704941527002774,-0.16268840350580882
704,0.6946,654.751,1.57704,0.362215,91.388,-61.6258,-0.581074,0.298186,-0.11691,-0.177783,-0.0117199,0.00367067,0.000457367,0.298622,0.34741238327674906,-0.011651489487595534,0.0036774151596843385,-0.11033474056627579,0.0004574716082339503,-0.16287594029851848
705,0.6956,654.97,1.57788,0.362446,91.4248,-61.6507,-0.581788,0.298557,-0.117056,-0.178008,-0.0117117,0.00366802,0.000457788,0.299005,0.34791236601200737,-0.011643384996581019,0.003674755418058284,-0.11046462221256226,0.0004578928009180139,-0.16306427202383778
706,0.6966,655.188,1.57872,0.362677,91.4615,-61.6757,-0.582501,0.298928,-0.117201,-0.178232,-0.0117036,0.00366536,0.000458209,0.299388,0.34841253427527374,-0.01163537927557634,0.003672085646759804,-0.11059359549155279,0.0004583139937794911,-0.16325172463142856
707,0.6976,655.406,1.57955,0.362908,91.4982,-61.7006,-0.583213,0.299299,-0.117347,-0.178456,-0.0116955,0.0036627,0.000458629,0.299771,0.3489128881353918,-0.01162737348972509,0.0036694158825627543,-0.11072343934777884,0.00045873418635977714,-0.16343913525433773
708,0.6986,655.624,1.58038,0.363138,91.5348,-61.7255,-0.583925,0.299669,-0.117492,-0.17868,-0.0116874,0.00366004,0.000459048,0.300154,0.34941207824847775,-0.011619367639026712,0.0036667461254673572,-0.11085237510100543,0.0004591533786570956,-0.16362650390196876
709,0.6996,655.841,1.58121,0.363368,91.5713,-61.7503,-0.584635,0.30004,-0.117638,-0.178904,-0.0116792,0.00365737,0.000459467,0.300537,0.3499128030082075,-0.011611262884611895,0.003664066338832539,-0.11098218117816638,0.0004595725711302734,-0.16381383058372312
710,0.7006,656.058,1.58204,0.363598,91.6078,-61.7752,-0.585345,0.30041,-0.117783,-0.179128,-0.011671,0.0036547,0.000459884,0.30092,0.3504123631582492,-0.011603158063737795,0.003661386559353108,-0.11111107941654752,0.0004599897628589922,-0.16400111530899997
711,0.7016,656.275,1.58287,0.363827,91.6443,-61.7999,-0.586054,0.30078,-0.117928,-0.179351,-0.0116629,0.00365202,0.000460302,0.301302,0.3509121081797455,-0.011595152016893762,0.0036586967504412815,-0.11123995896603889,0.00046040795522217515,-0.1641875222751369
712,0.7026,656.492,1.5837,0.364056,91.6807,-61.8247,-0.586762,0.30115,-0.118074,-0.179575,-0.0116547,0.00364934,0.000460718,0.301684,0.35141203814111144,-0.011587047063910005,0.003656006948738355,-0.11136970846008631,0.00046082414683845663,-0.1643747233028494
713,0.7036,656.708,1.58452,0.364285,91.717,-61.8494,-0.58747,0.30152,-0.118219,-0.179799,-0.0116465,0.00364666,0.000461134,0.302067,0.3519121531107876,-0.011578942044465412,0.0036533171542441067,-0.11149855051108515,0.00046124033862771086,-0.1645618824022279
714,0.7046,656.924,1.58534,0.364513,91.7533,-61.8741,-0.588176,0.30189,-0.118364,-0.180022,-0.0116383,0.00364397,0.000461549,0.302449,0.3524124531572397,-0.011570836958559316,0.003650617330452244,-0.11162737388134103,0.00046165553012866845,-0.16474816433124506
715,0.7056,657.14,1.58616,0.364741,91.7896,-61.8987,-0.588882,0.30226,-0.118509,-0.180246,-0.0116301,0.00364128,0.000461963,0.302831,0.3529129383489584,-0.011562731806191273,0.0036479175139227937,-0.11175617857356235,0.0004620697213397751,-0.16493523978920144
716,0.7066,657.356,1.58698,0.364968,91.8258,-61.9233,-0.589587,0.302629,-0.118654,-0.180469,-0.0116218,0.00363859,0.000462376,0.303213,0.35341225534152887,-0.01155452774281851,0.0036452177046559786,-0.11188496459045738,0.00046248291225992055,-0.165121438468804
717,0.7076,657.572,1.5878,0.365195,91.8619,-61.9479,-0.590291,0.302999,-0.118799,-0.180692,-0.0116136,0.00363589,0.000462789,0.303594,0.35391311052850094,-0.011546422456714334,0.003642507866226552,-0.11201373193473363,0.0004628961033508183,-0.1653075956307305
718,0.7086,657.787,1.58861,0.365422,91.898,-61.9725,-0.590995,0.303368,-0.118944,-0.180915,-0.0116054,0.00363319,0.000463201,0.303976,0.354412796652706,-0.011538317104146656,0.003639798035113495,-0.1121424806090986,0.0004633082941487565,-0.16549371128423818
719,0.7096,658.002,1.58943,0.365649,91.9341,-61.997,-0.591697,0.303737,-0.119089,-0.181139,-0.0115971,0.00363049,0.000463613,0.304357,0.35491266719511394,-0.01153011283813088,0.00363708821131703,-0.11227121061625922,0.0004637204851167809,-0.1656806197583799
720,0.7106,658.217,1.59024,0.365875,91.9701,-62.0214,-0.592399,0.304106,-0.119234,-0.181362,-0.0115888,0.00362778,0.000464024,0.304739,0.3554127222237877,-0.011521908504019573,0.0036343683584934006,-0.11239992195892201,0.00046413167579029135,-0.16586665223678143
721,0.7116,658.431,1.59105,0.366101,92.006,-62.0459,-0.5931,0.304475,-0.119378,-0.181585,-0.0115806,0.00362507,0.000464434,0.30512,0.3559129618068153,-0.01151380295043658,0.003631648513040542,-0.11252772716796411,0.00046454186616839976,-0.1660526432345657
722,0.7126,658.645,1.59186,0.366326,92.0419,-62.0703,-0.5938,0.304844,-0.119523,-0.181807,-0.0115723,0.00362235,0.000464843,0.305501,0.35641338601230976,-0.011505598480952561,0.0036289186386693206,-0.11265640131842336,0.00046495105624977384,-0.1662377589991575
723,0.7136,658.859,1.59266,0.366551,92.0777,-62.0947,-0.594499,0.305212,-0.119668,-0.18203,-0.011564,0.00361963,0.000465252,0.305882,0.3569126379950929,-0.011497393943371126,0.003626188771723271,-0.11278505681248341,0.0004653602464983475,-0.1664236672493603
724,0.7146,659.073,1.59347,0.366776,92.1135,-62.119,-0.595198,0.305581,-0.119812,-0.182253,-0.0115557,0.00361691,0.00046566,0.306262,0.3574134311491677,-0.01148918933769183,0.003623458912202393,-0.11291280656609948,0.00046576843644863253,-0.16660953404664558
725,0.7156,659.287,1.59427,0.367001,92.1492,-62.1433,-0.595895,0.305949,-0.119957,-0.182476,-0.0115474,0.00361418,0.000466067,0.306643,0.3579130512162845,-0.011480984663914007,0.003620719023899488,-0.11304142488409397,0.00046617562609929664,-0.16679535940025614
726,0.7166,659.5,1.59507,0.367225,92.1849,-62.1676,-0.596592,0.306317,-0.120101,-0.182698,-0.011539,0.00361145,0.000466474,0.307024,0.3584128551774206,-0.011472681069310098,0.0036179791430763775,-0.11316913772336556,0.000466582815915606,-0.1669803103001598
727,0.7176,659.713,1.59587,0.367449,92.2206,-62.1918,-0.597288,0.306685,-0.120246,-0.182921,-0.0115307,0.00360872,0.00046688,0.307404,0.35891284310026106,-0.01146447625851299,0.0036152392697332836,-0.11329771887603679,0.0004669890054307402,-0.1671660529798844
728,0.7186,659.926,1.59667,0.367672,92.2561,-62.216,-0.597984,0.307053,-0.12039,-0.183143,-0.0115224,0.00360598,0.000467285,0.307784,0.35941301505251655,-0.011456271379615801,0.003612489367745164,-0.11342539481163061,0.00046739419464336684,-0.16735092159494724
729,0.7196,660.138,1.59747,0.367895,92.2917,-62.2402,-0.598678,0.307421,-0.120535,-0.183365,-0.011514,0.00360324,0.00046769,0.308164,0.35991337110192223,-0.011447967577419504,0.0036097394732916843,-0.11355393880971787,0.0004677993840200845,-0.16753574917373293
730,0.7206,660.351,1.59826,0.368118,92.3272,-62.2644,-0.599372,0.307789,-0.120679,-0.183587,-0.0115056,0.0036005,0.000468094,0.308544,0.36041391131623857,-0.011439663705470893,0.003606989586372844,-0.1136815778522976,0.00046820357309251825,-0.16772053572535017
731,0.7216,660.563,1.59906,0.368341,92.3626,-62.2885,-0.600065,0.308156,-0.120823,-0.18381,-0.0114973,0.00359775,0.000468497,0.308924,0.3609132748492949,-0.011431458620628554,0.003604229670946202,-0.11380919851617854,0.00046860676185978,-0.16790611335320882
732,0.7226,660.774,1.59985,0.368563,92.398,-62.3126,-0.600757,0.308524,-0.120967,-0.184032,-0.0114889,0.003595,0.0004689,0.309304,0.3614141830959039,-0.011423154610004205,0.0036014697631094883,-0.11393680080400703,0.0004690099507895784,-0.1680908176931042
733,0.7236,660.986,1.60064,0.368785,92.4333,-62.3366,-0.601448,0.308891,-0.121111,-0.184254,-0.0114805,0.00359225,0.000469301,0.309683,0.36191391379607474,-0.011414850529625875,0.0035987098628627034,-0.11406438471842895,0.00046941113894316544,-0.16827548103318712
734,0.7246,661.197,1.60143,0.369006,92.4686,-62.3606,-0.602139,0.309258,-0.121256,-0.184476,-0.0114721,0.00358949,0.000469703,0.310062,0.36241382793107046,-0.011406546379492899,0.0035959399342457843,-0.11419283606969677,0.00046981332772721984,-0.16846010338255868
735,0.7256,661.409,1.60222,0.369227,92.5039,-62.3846,-0.602828,0.309625,-0.1214,-0.184697,-0.0114637,0.00358673,0.000470103,0.310442,0.3629139255682243,-0.011398242159604832,0.003593170013274083,-0.11432038311769488,0.0004702135157326204,-0.16864385339458698
736,0.7266,661.619,1.603,0.369448,92.539,-62.4086,-0.603517,0.309992,-0.121544,-0.184919,-0.0114553,0.00358397,0.000470503,0.310821,0.3634142067748942,-0.011389937869961009,0.0035904000999473773,-0.11444791180024039,0.00047061370389789303,-0.1688283939743711
737,0.7276,661.83,1.60379,0.369669,92.5742,-62.4325,-0.604205,0.310358,-0.121687,-0.185141,-0.0114468,0.0035812,0.000470902,0.3112,0.3639133077044725,-0.011381534648719271,0.0035876201583893153,-0.11457453669495721,0.00047101289175244254,-0.1690128935906936
738,0.7286,662.041,1.60457,0.369889,92.6093,-62.4564,-0.604893,0.310725,-0.121831,-0.185362,-0.0114384,0.00357843,0.000471301,0.311579,0.36441395575169744,-0.011373230218731711,0.00358484022453176,-0.11470202878202262,0.00047141207976619803,-0.1691965214495843
739,0.7296,662.251,1.60535,0.370109,92.6443,-62.4802,-0.605579,0.311091,-0.121975,-0.185584,-0.01143,0.00357566,0.000471699,0.311957,0.3649134226563706,-0.01136492571898673,0.00358206029837449,-0.11482950251154922,0.000471810267467454,-0.1693809393506781
740,0.7306,662.461,1.60613,0.370328,92.6793,-62.504,-0.606265,0.311458,-0.122119,-0.185805,-0.0114215,0.00357288,0.000472096,0.312336,0.3654144378131432,-0.011356522285140835,0.003579270344124863,-0.11495695788618032,0.0004722074548551003,-0.16956448588044293
741,0.7316,662.67,1.60691,0.370548,92.7143,-62.5278,-0.60695,0.311824,-0.122263,-0.186027,-0.011413,0.0035701,0.000472492,0.312714,0.3659142709612693,-0.011348118779865413,0.0035764803976314763,-0.11508439490855882,0.00047260364192758253,-0.16974882210249975
742,0.7326,662.88,1.60768,0.370766,92.7492,-62.5516,-0.607634,0.31219,-0.122406,-0.186248,-0.0114046,0.00356732,0.000472888,0.313093,0.36641428708180945,-0.011339814069183385,0.0035736904588938856,-0.11521092879269856,0.0004729998291570503,-0.16993228733915977
743,0.7336,663.089,1.60846,0.370985,92.784,-62.5753,-0.608317,0.312556,-0.12255,-0.186469,-0.0113961,0.00356453,0.000473283,0.313471,0.36691448624174394,-0.011331410421887567,0.0035708904922033824,-0.1153383292458997,0.00047339501607002177,-0.1701157120344824
744,0.7346,663.298,1.60923,0.371203,92.8188,-62.599,-0.609,0.312921,-0.122693,-0.18669,-0.0113876,0.00356174,0.000473678,0.313849,0.3674135010938926,-0.011323006703160332,0.0035680905333248525,-0.11546482682002535,0.0004737902031390906,-0.17029909619742645
745,0.7356,663.507,1.61,0.371421,92.8536,-62.6227,-0.609682,0.313287,-0.122837,-0.186911,-0.0113791,0.00355895,0.000474072,0.314227,0.36791406603308907,-0.011314602913001237,0.003565290582258296,-0.11559219071454285,0.0004741843898901088,-0.17048243983694844
746,0.7366,663.716,1.61077,0.371639,92.8883,-62.6463,-0.610363,0.313653,-0.12298,-0.187132,-0.0113706,0.00355615,0.000474465,0.314605,0.36841481421258426,-0.011306199051409727,0.003562480603378715,-0.11571865198907405,0.0004745775763219662,-0.1706657429620031
747,0.7376,663.924,1.61154,0.371856,92.9229,-62.6699,-0.611043,0.314018,-0.123124,-0.187353,-0.011362,0.00355335,0.000474857,0.314982,0.368914376784395,-0.011297696248159572,0.0035596706323668403,-0.11584597933539864,0.0004749697624331084,-0.17084900558154315
748,0.7386,664.132,1.61231,0.372073,92.9576,-62.6935,-0.611722,0.314383,-0.123267,-0.187574,-0.0113535,0.00355055,0.000475249,0.31536,0.3694141217298257,-0.011289292242860682,0.0035568606692231164,-0.11597240432075173,0.00047536194869812753,-0.1710322277045193
749,0.7396,664.34,1.61307,0.37229,92.9921,-62.717,-0.612401,0.314748,-0.12341,-0.187794,-0.011345,0.00354774,0.00047564,0.315737,0.36991404911545467,-0.01128088816612749,0.0035540406784067002,-0.11609881122862453,0.00047575313464109925,-0.17121458055487526
750,0.7406,664.547,1.61384,0.372506,93.0266,-62.7405,-0.613079,0.315113,-0.123554,-0.188015,-0.0113364,0.00354493,0.000476031,0.316115,0.3704141590078849,-0.01127238514520279,0.00355122069551439,-0.11622608383596,0.0004761443207370597,-0.17139772189470914
751,0.7416,664.755,1.6146,0.372722,93.0611,-62.764,-0.613756,0.315478,-0.123697,-0.188235,-0.0113279,0.00354212,0.000476421,0.316492,0.37091445147374347,-0.011263980924758554,0.0035484007205464074,-0.11635245447025577,0.00047653450650964047,-0.17157999434518767
752,0.7426,664.962,1.61536,0.372938,93.0955,-62.7875,-0.614433,0.315843,-0.12384,-0.188456,-0.0113193,0.0035393,0.00047681,0.316869,0.3714149265796818,-0.011255477758430943,0.003545570718046731,-0.11647880703484281,0.0004769236919570652,-0.17176305493749677
753,0.7436,665.169,1.61612,0.373153,93.1299,-62.8109,-0.615108,0.316207,-0.123983,-0.188676,-0.0113108,0.00353649,0.000477199,0.317246,0.37191421247747747,-0.011247073394273444,0.003542750758954938,-0.11660514153230495,0.0004773128775561464,-0.1719452470235463
754,0.7446,665.376,1.61688,0.373369,93.1642,-62.8343,-0.615783,0.316572,-0.124126,-0.188897,-0.0113022,0.00353366,0.000477586,0.317622,0.37241505256278695,-0.011238570082540478,0.003539910736988894,-0.11673145796522566,0.0004777000623512606,-0.17212822690393248
755,0.7456,665.582,1.61763,0.373583,93.1985,-62.8576,-0.616457,0.316936,-0.124269,-0.189117,-0.0112936,0.00353084,0.000477974,0.317999,0.37291470257270487,-0.011230066697678676,0.003537080758430955,-0.11685775633618789,0.0004780882477741777,-0.17231033866098588
756,0.7466,665.789,1.61839,0.373798,93.2327,-62.8809,-0.61713,0.3173,-0.124412,-0.189337,-0.011285,0.00352801,0.00047836,0.318375,0.3734145344883313,-0.011221563239687371,0.0035342407525109643,-0.11698403664777435,0.0004784744323906853,-0.17249241035785945
757,0.7476,665.995,1.61914,0.374012,93.2669,-62.9042,-0.617803,0.317664,-0.124555,-0.189557,-0.0112764,0.00352518,0.000478746,0.318752,0.37391454837589166,-0.01121305970856612,0.003531400754628322,-0.1171102989025673,0.00047886061715640693,-0.17267444200336546
758,0.7486,666.2,1.61989,0.374226,93.3011,-62.9275,-0.618474,0.318028,-0.124697,-0.189777,-0.0112678,0.00352235,0.000479132,0.319128,0.3744147443016361,-0.011204556104314145,0.0035285607647828066,-0.11723566033925048,0.00047924680207112047,-0.17285643360631442
759,0.7496,666.406,1.62064,0.374439,93.3352,-62.9507,-0.619145,0.318392,-0.12484,-0.189997,-0.0112591,0.00351951,0.000479516,0.319504,0.37491512233183855,-0.011195953546531245,0.0035257107477171257,-0.11736188661442826,0.0004796309861756498,-0.1730383851755145
760,0.7506,666.611,1.62139,0.374653,93.3692,-62.9739,-0.619815,0.318755,-0.124983,-0.190217,-0.0112505,0.00351667,0.0004799,0.31988,0.3754143071178022,-0.011187449795165616,0.0035228607387456368,-0.11748809484053913,0.00048001517042761677,-0.17322029671977235
761,0.7516,666.817,1.62214,0.374866,93.4032,-62.9971,-0.620485,0.319119,-0.125126,-0.190436,-0.0112419,0.00351383,0.000480284,0.320256,0.3759150490550969,-0.011178945970667487,0.003520010737868118,-0.11761428502016402,0.0004803993548272434,-0.17340134164964727
762,0.7526,667.022,1.62288,0.375078,93.4372,-63.0202,-0.621153,0.319482,-0.125268,-0.190656,-0.0112332,0.00351098,0.000480667,0.320631,0.37641459688034873,-0.011170343190075371,0.0035171507099132082,-0.11773957489589948,0.00048078253889372036,-0.1735831733522637
763,0.7536,667.226,1.62363,0.375291,93.4711,-63.0433,-0.621821,0.319845,-0.125411,-0.190876,-0.0112246,0.00350813,0.000481049,0.321007,0.3769143260743777,-0.011161839218459813,0.003514290690109112,-0.11786572911644766,0.00048116472262549337,-0.17376496505630556
764,0.7546,667.431,1.62437,0.375503,93.505,-63.0664,-0.622488,0.320209,-0.125553,-0.191095,-0.0112159,0.00350528,0.00048143,0.321382,0.37741561411795765,-0.011153236289038304,0.003511430678456273,-0.11799098328965629,0.0004815459060218963,-0.17394589071687527
765,0.7556,667.635,1.62511,0.375714,93.5388,-63.0895,-0.623155,0.320572,-0.125696,-0.191315,-0.0112072,0.00350242,0.000481811,0.321757,0.37791570674720343,-0.011144633284771,0.0035085606398685965,-0.11811710156137456,0.0004819270895635164,-0.174127602631874
766,0.7566,667.839,1.62585,0.375926,93.5726,-63.1125,-0.62382,0.320934,-0.125838,-0.191534,-0.0111986,0.00349956,0.000482191,0.322133,0.37841460252773396,-0.011136129092049307,0.0035056906094892426,-0.11824232004223034,0.00048230727276799,-0.17430844888351027
767,0.7576,668.043,1.62659,0.376137,93.6063,-63.1355,-0.624485,0.321297,-0.12598,-0.191753,-0.0111899,0.0034967,0.000482571,0.322508,0.3789150578555982,-0.011127525938948724,0.0035028205873182117,-0.11836752074332413,0.0004826874561170147,-0.17448925553415384
768,0.7586,668.247,1.62732,0.376348,93.64,-63.1584,-0.625149,0.32166,-0.126123,-0.191972,-0.0111812,0.00349384,0.00048295,0.322882,0.37941569488172266,-0.011118922711000456,0.0034999505733555036,-0.11849358517403619,0.00048306663912756065,-0.17467002259247655
769,0.7596,668.45,1.62806,0.376558,93.6736,-63.1814,-0.625812,0.322022,-0.126265,-0.192192,-0.0111725,0.00349097,0.000483328,0.323257,0.3799151337562521,-0.011110319408203728,0.0034970705326302642,-0.11861875019801449,0.0004834448217980736,-0.17485157521598538
770,0.7606,668.653,1.62879,0.376768,93.7072,-63.2043,-0.626475,0.322384,-0.126407,-0.192411,-0.0111638,0.0034881,0.000483706,0.323632,0.38041475346038234,-0.011101716030557873,0.0034941905001706353,-0.11874389744982117,0.0004838230046118053,-0.17503226293498564
771,0.7616,668.856,1.62952,0.376978,93.7408,-63.2271,-0.627136,0.322747,-0.126549,-0.19263,-0.0111551,0.00348523,0.000484083,0.324006,0.3809159349748299,-0.011093112578062447,0.0034913104759768387,-0.11886902693197987,0.0004842001870841717,-0.1752129110877082
772,0.7626,669.059,1.63026,0.377188,93.7743,-63.25,-0.627797,0.323109,-0.126691,-0.192848,-0.0111463,0.00348235,0.000484459,0.324381,0.38141591703458366,-0.011084410159162505,0.0034884204251641737,-0.11899413864701347,0.00048457636921406255,-0.17539269507592425
773,0.7636,669.261,1.63098,0.377397,93.8077,-63.2728,-0.628457,0.323471,-0.126833,-0.193067,-0.0111376,0.00347947,0.000484835,0.324755,0.38191608012060674,-0.011075806556105294,0.0034855303826750728,-0.11911923259744495,0.0004849525514856179,-0.17557326430265063
774,0.7646,669.464,1.63171,0.377606,93.8411,-63.2956,-0.629117,0.323832,-0.126975,-0.193286,-0.0111289,0.00347659,0.00048521,0.325129,0.3824150418827097,-0.011067202878196403,0.003482640348509314,-0.11924430878579662,0.0004853277334131434,-0.17575379398904623
775,0.7656,669.666,1.63244,0.377815,93.8745,-63.3183,-0.629776,0.324194,-0.127117,-0.193505,-0.0111201,0.00347371,0.000485584,0.325503,0.38291556671740024,-0.01105850023129007,0.003479750322666675,-0.11936936721459035,0.00048570191499552884,-0.17593428414376933
776,0.7666,669.868,1.63316,0.378024,93.9078,-63.3411,-0.630433,0.324555,-0.127259,-0.193723,-0.0111113,0.00347082,0.000485958,0.325877,0.38341488935929946,-0.011049797507800219,0.0034768502703788062,-0.11949440788634813,0.00048607609671802443,-0.17611391088979922
777,0.7676,670.069,1.63389,0.378232,93.9411,-63.3638,-0.631091,0.324917,-0.127401,-0.193942,-0.0111026,0.00346793,0.000486331,0.32625,0.3839157762042966,-0.011041193603611554,0.0034739502264722333,-0.11961943080359105,0.0004864492780940477,-0.17629432218755625
778,0.7686,670.271,1.63461,0.378439,93.9744,-63.3864,-0.631747,0.325278,-0.127543,-0.19416,-0.0110938,0.00346504,0.000486704,0.326624,0.38441545998700266,-0.011032490727822752,0.003471050190946512,-0.1197444359688401,0.00048682245960929293,-0.17647387045384721
779,0.7696,670.472,1.63533,0.378647,94.0076,-63.4091,-0.632403,0.325639,-0.127684,-0.194378,-0.011085,0.00346214,0.000487076,0.326997,0.3849153241881176,-0.011023787775448213,0.003468140129120556,-0.1198685432535993,0.00048719464077651153,-0.1766533795828823
780,0.7706,670.673,1.63605,0.378854,94.0407,-63.4317,-0.633058,0.326,-0.127826,-0.194597,-0.0110762,0.00345924,0.000487447,0.32737,0.3854153688727846,-0.01101508474648738,0.0034652300757338494,-0.11999351304739203,0.0004875658215945933,-0.17683367274993123
781,0.7716,670.874,1.63677,0.379061,94.0738,-63.4543,-0.633712,0.326361,-0.127968,-0.194815,-0.0110675,0.00345634,0.000487818,0.327744,0.3859155941061698,-0.011006480540296404,0.00346232003078617,-0.12011846509673385,0.00048793700255034267,-0.17701310345061483
782,0.7726,671.074,1.63748,0.379268,94.1069,-63.4768,-0.634365,0.326722,-0.128109,-0.195033,-0.0110587,0.00345344,0.000488188,0.328117,0.3864159999534631,-0.01099777735903118,0.003459409994277518,-0.12024251964710386,0.0004883071831554009,-0.17719249503966894
783,0.7736,671.275,1.6382,0.379474,94.1399,-63.4993,-0.635018,0.327082,-0.128251,-0.195251,-0.0110498,0.00345053,0.000488558,0.32849,0.386915199563985,-0.010988975200080131,0.0034564899316431585,-0.1203674363400189,0.0004886773638976827,-0.17737184752561896
784,0.7746,671.475,1.63891,0.37968,94.1729,-63.5218,-0.63567,0.327443,-0.128392,-0.195469,-0.011041,0.00344762,0.000488927,0.328862,0.3874159663339911,-0.010980271864767244,0.003453569877506224,-0.12049145578791842,0.000489046544287719,-0.17755116091698864
785,0.7756,671.675,1.63962,0.379886,94.2058,-63.5443,-0.636321,0.327803,-0.128534,-0.195687,-0.0110322,0.00344471,0.000489295,0.329235,0.38791552599721557,-0.010971568452864733,0.0034506498318664924,-0.120616337134411,0.0004894147243246216,-0.17773043522229948
786,0.7766,671.874,1.64033,0.380092,94.2387,-63.5667,-0.636971,0.328163,-0.128675,-0.195904,-0.0110234,0.00344179,0.000489663,0.329607,0.38841526553429406,-0.010962864964371821,0.0034477197602469367,-0.12074032148977265,0.0004897829044969715,-0.17790884835933074
787,0.7776,672.074,1.64104,0.380297,94.2715,-63.5891,-0.637621,0.328524,-0.128816,-0.196122,-0.0110145,0.00343887,0.00049003,0.32998,0.3889165739258722,-0.010954062494699102,0.0034447896971832037,-0.12086428836457253,0.0004901500843146334,-0.1780880446972779
788,0.7786,672.273,1.64175,0.380502,94.3043,-63.6115,-0.63827,0.328883,-0.128958,-0.19634,-0.0110057,0.00343595,0.000490396,0.330352,0.3894152844891017,-0.010945358852153086,0.0034418596426750714,-0.12098911677259805,0.000490516263776497,-0.17826720197468116
789,0.7796,672.472,1.64246,0.380706,94.3371,-63.6339,-0.638918,0.329243,-0.129099,-0.196557,-0.0109968,0.00343303,0.000490762,0.330724,0.3899155640364331,-0.01093655622667522,0.0034389295967227618,-0.12111304856973604,0.0004908824433724757,-0.17844549864596415
790,0.7806,672.671,1.64316,0.380911,94.3698,-63.6562,-0.639566,0.329603,-0.12924,-0.196775,-0.010988,0.0034301,0.000491127,0.331096,0.3904160237168237,-0.010927852430073326,0.0034359895249662653,-0.12123696289372254,0.0004912476226113238,-0.1786245780068998
791,0.7816,672.87,1.64387,0.381115,94.4025,-63.6785,-0.640212,0.329963,-0.129381,-0.196992,-0.0109791,0.00342717,0.000491492,0.331468,0.3909166635951331,-0.010919049648787649,0.0034330494618242113,-0.12136085974702115,0.0004916128019833987,-0.17880279713599745
792,0.7826,673.068,1.64457,0.381319,94.4351,-63.7008,-0.640858,0.330322,-0.129522,-0.19721,-0.0109702,0.00342424,0.000491856,0.33184,0.39141609231945584,-0.010910246789156863,0.003430109407296378,-0.1214847391320949,0.0004919769809965668,-0.1789817986143517
793,0.7836,673.267,1.64527,0.381522,94.4677,-63.723,-0.641503,0.330681,-0.129663,-0.197427,-0.0109614,0.00342131,0.000492219,0.332211,0.391915700370878,-0.010901542761030947,0.0034271693613829868,-0.1216086010514068,0.000492340159650162,-0.1791599402349875
794,0.7846,673.465,1.64597,0.381725,94.5003,-63.7452,-0.642148,0.331041,-0.129804,-0.197644,-0.0109525,0.00341837,0.000492582,0.332583,0.39241688022997323,-0.010892739745588131,0.0034242192898417123,-0.12173244550741924,0.0004927033384356516,-0.17933804320308555
795,0.7856,673.663,1.64667,0.381928,94.5328,-63.7674,-0.642792,0.3314,-0.129945,-0.197861,-0.0109436,0.00341543,0.000492944,0.332954,0.3929168476287541,-0.01088393665179821,0.0034212692269735,-0.12185627250259434,0.0004930655168597919,-0.17951610752703262
796,0.7866,673.86,1.64737,0.382131,94.5652,-63.7896,-0.643435,0.331758,-0.130086,-0.198078,-0.0109347,0.00341249,0.000493306,0.333325,0.39341560113175555,-0.010875133479660293,0.0034183191727785722,-0.12198008203939403,0.0004934276954149386,-0.17969413321521355
797,0.7876,674.058,1.64806,0.382333,94.5976,-63.8117,-0.644077,0.332117,-0.130227,-0.198295,-0.0109258,0.00340954,0.000493667,0.333696,0.393915927135706,-0.010866330229173937,0.0034153590931031985,-0.12210387412027968,0.0004937888736076257,-0.1798721202760113
798,0.7886,674.255,1.64876,0.382535,94.63,-63.8338,-0.644718,0.332476,-0.130368,-0.198512,-0.0109168,0.0034066,0.000494027,0.334067,0.394416432788937,-0.01085742798608591,0.003412409056283927,-0.12222764874771241,0.000494149051436521,-0.18005006871780715
799,0.7896,674.452,1.64945,0.382737,94.6624,-63.8559,-0.645359,0.332834,-0.130508,-0.198729,-0.0109079,0.00340365,0.000494387,0.334438,0.3949157232395335,-0.010848624578019939,0.0034094489940434958,-0.12235052827512016,0.0004945092293948683,-0.18022797854898054
800,0.7906,674.649,1.65014,0.382939,94.6946,-63.8779,-0.645999,0.333193,-0.130649,-0.198945,-0.010899,0.00340069,0.000494746,0.334809,0.3954165878840008,-0.010839821091603197,0.0034064789064700562,-0.12247426812676876,0.0004948684069883136,-0.18040503018334908
801,0.7916,674.845,1.65083,0.38314,94.7269,-63.8999,-0.646639,0.333551,-0.130789,-0.199162,-0.0108901,0.00339774,0.000495104,0.335179,0.395916236454221,-0.01083101752683513,0.003403518861723409,-0.1225971131298802,0.0004952265842153025,-0.18058286299624127
802,0.7926,675.042,1.65152,0.383341,94.7591,-63.9219,-0.647277,0.333909,-0.13093,-0.199378,-0.0108811,0.00339478,0.000495462,0.33555,0.39641606393065154,-0.010822114965931329,0.0034005487917032617,-0.12272081821551539,0.0004955847615704112,-0.18075983798384743
803,0.7936,675.238,1.65221,0.383542,94.7913,-63.9439,-0.647915,0.334267,-0.131071,-0.199595,-0.0108722,0.00339182,0.00049582,0.33592,0.39691607037735244,-0.010813311243578094,0.0033975787304745264,-0.1228445058599631,0.0004959429390538617,-0.18093759381179997
804,0.7946,675.434,1.65289,0.383742,94.8234,-63.9658,-0.648552,0.334625,-0.131211,-0.199811,-0.0108632,0.00338886,0.000496176,0.33629,0.39741625585840645,-0.0108044085233171,0.003394608678037203,-0.12296729903342007,0.000496299115672949,-0.18111449218582454
805,0.7956,675.63,1.65358,0.383942,94.8555,-63.9877,-0.649189,0.334983,-0.131351,-0.200028,-0.0108542,0.00338589,0.000496533,0.33666,0.3979166204379194,-0.010795505722931198,0.0033916286004749274,-0.12309007501703595,0.0004966562929156204,-0.1812921710621649
806,0.7966,675.825,1.65426,0.384142,94.8875,-64.0096,-0.649824,0.335341,-0.131492,-0.200244,-0.0108453,0.00338292,0.000496888,0.33703,0.39841716418002004,-0.010786701763754625,0.0033886485317633497,-0.12321371059994513,0.0004970114692914862,-0.18146899285577422
807,0.7976,676.021,1.65494,0.384342,94.9195,-64.0315,-0.650459,0.335698,-0.131632,-0.20046,-0.0108363,0.00337995,0.000497243,0.3374,0.3989164882316725,-0.0107777988040072,0.00338566847190247,-0.12333645208835642,0.0004973666457936954,-0.1816457764600008
808,0.7986,676.216,1.65562,0.384541,94.9515,-64.0533,-0.651093,0.336056,-0.131772,-0.200676,-0.0108273,0.00337698,0.000497598,0.33777,0.39941738999052445,-0.010768895764132869,0.00338268842089251,-0.12345917639416226,0.0004977218224218039,-0.18182252188309256
809,0.7996,676.411,1.6563,0.38474,94.9834,-64.0751,-0.651727,0.336413,-0.131912,-0.200892,-0.0108183,0.003374,0.000497951,0.338139,0.39991707118653763,-0.010759992644130745,0.003379698344936344,-0.12358188351976784,0.0004980749981799981,-0.1819992291332957
810,0.8006,676.606,1.65698,0.384939,95.0153,-64.0969,-0.65236,0.33677,-0.132053,-0.201108,-0.0108093,0.00337103,0.000498305,0.338509,0.4004169308005834,-0.010751089444000161,0.003376718311657534,-0.1237054497625667,0.0004984291745613323,-0.18217589821885483
811,0.8016,676.8,1.65766,0.385137,95.0471,-64.1186,-0.652992,0.337127,-0.132193,-0.201324,-0.0108003,0.00336804,0.000498657,0.338878,0.4009169688963685,-0.010742186163740453,0.003373718219754851,-0.12382812241231411,0.0004987813500703098,-0.18235252914801248
812,0.8026,676.995,1.65833,0.385336,95.0789,-64.1404,-0.653623,0.337484,-0.132333,-0.20154,-0.0107913,0.00336506,0.000499009,0.339247,0.4014171855376223,-0.010733282803350952,0.0033707281705297465,-0.1239507778890927,0.0004991335257034102,-0.1825291219290096
813,0.8036,677.189,1.65901,0.385533,95.1107,-64.162,-0.654253,0.33784,-0.132473,-0.201755,-0.0107823,0.00336208,0.000499361,0.339616,0.4019161788712169,-0.010724379362830772,0.00336773813021507,-0.12407341619530643,0.0004994857014604115,-0.18270485927535318
814,0.8046,677.383,1.65968,0.385731,95.1424,-64.1837,-0.654883,0.338197,-0.132613,-0.201971,-0.0107733,0.00335909,0.000499712,0.339985,0.40241675229411356,-0.010715475842179245,0.003364738065163131,-0.12419603733335915,0.0004998368768414085,-0.1828813759612613
815,0.8056,677.576,1.66035,0.385929,95.1741,-64.2054,-0.655512,0.338554,-0.132753,-0.202187,-0.0107643,0.0033561,0.000500062,0.340354,0.4029175044536246,-0.010706572241395595,0.00336173800908135,-0.12431864130565418,0.0005001870518455132,-0.18305785452368273
816,0.8066,677.77,1.66102,0.386126,95.2057,-64.227,-0.656141,0.33891,-0.132892,-0.202402,-0.0107552,0.0033531,0.000500412,0.340722,0.403417031995837,-0.010697569630241266,0.0033587279283824323,-0.12444035255538488,0.0005005372269724084,-0.1832334782047379
817,0.8076,677.963,1.66169,0.386323,95.2373,-64.2486,-0.656769,0.339266,-0.133032,-0.202618,-0.0107462,0.00335011,0.000500761,0.341091,0.40391673740151224,-0.010688665868300973,0.003355727890270943,-0.12456292232594302,0.000500886401720857,-0.18340988072128805
818,0.8086,678.157,1.66236,0.386519,95.2689,-64.2701,-0.657396,0.339622,-0.133172,-0.202833,-0.0107371,0.00334711,0.000501109,0.341459,0.40441662073398077,-0.010679663094197878,0.0033527178276024916,-0.12468547493793436,0.0005012345760897485,-0.1835854287248464
819,0.8096,678.35,1.66303,0.386715,95.3004,-64.2917,-0.658022,0.339978,-0.133312,-0.203048,-0.0107281,0.00334411,0.000501457,0.341828,0.40491668205659614,-0.010670759171098165,0.00334970777396415,-0.12480801039376099,0.0005015827505800985,-0.18376093898964097
820,0.8106,678.542,1.66369,0.386912,95.3319,-64.3132,-0.658647,0.340334,-0.133451,-0.203263,-0.010719,0.00334111,0.000501805,0.342196,0.4054169214327341,-0.010661756234043307,0.0033466977293559186,-0.12492965362591579,0.0005019309251914628,-0.18393641152378493
821,0.8116,678.735,1.66435,0.387107,95.3633,-64.3346,-0.659272,0.34069,-0.133591,-0.203478,-0.01071,0.0033381,0.000502151,0.342564,0.40591733892579285,-0.010652852149781067,0.003343677660340827,-0.12505215489911892,0.0005022770989193681,-0.18411184633538924
822,0.8126,678.927,1.66502,0.387303,95.3947,-64.3561,-0.659896,0.341045,-0.133731,-0.203693,-0.0107009,0.0033351,0.000502498,0.342931,0.40641652818196206,-0.010643849049771559,0.0033406676338230135,-0.12517463902334425,0.0005026242732697472,-0.18428724343256353
823,0.8136,679.12,1.66568,0.387498,95.426,-64.3775,-0.66052,0.341401,-0.13387,-0.203908,-0.0106918,0.00333209,0.000502843,0.343299,0.406917301598374,-0.010634845867833476,0.003337647582958514,-0.1252962312976612,0.000502969446734669,-0.18446260282341553
824,0.8146,679.312,1.66634,0.387693,95.4574,-64.3989,-0.661142,0.341756,-0.134009,-0.204123,-0.0106827,0.00332907,0.000503188,0.343667,0.4074168459043095,-0.010625842603966151,0.0033346175078381446,-0.12541780667182656,0.0005033146203188288,-0.1846379245160512
825,0.8156,679.503,1.667,0.387888,95.4886,-64.4203,-0.661764,0.342112,-0.134149,-0.204338,-0.0106737,0.00332606,0.000503533,0.344034,0.4079179754972264,-0.010616938196479797,0.0033315974751846333,-0.125540239608387,0.0005036597940217824,-0.18481320851857475
826,0.8166,679.695,1.66765,0.388082,95.5199,-64.4417,-0.662386,0.342467,-0.134288,-0.204553,-0.0106646,0.00332304,0.000503877,0.344402,0.40841787510545835,-0.010607934769651828,0.0033285674183356484,-0.12566178106775427,0.000504003967340072,-0.18498845483908877
827,0.8176,679.886,1.66831,0.388277,95.5511,-64.463,-0.663006,0.342822,-0.134428,-0.204767,-0.0106555,0.00332002,0.00050422,0.344769,0.40891795220955496,-0.010598931260892397,0.0033255373706375657,-0.1257841798502901,0.0005043471402721433,-0.18516284864894994
828,0.8186,680.078,1.66897,0.388471,95.5822,-64.4843,-0.663626,0.343176,-0.134567,-0.204982,-0.0106464,0.003317,0.000504563,0.345136,0.409416797455036,-0.010589927670200505,0.003322507332089941,-0.1259056874043203,0.0005046903133221203,-0.18533801980491638
829,0.8196,680.269,1.66962,0.388664,95.6133,-64.5056,-0.664245,0.343531,-0.134706,-0.205196,-0.0106372,0.00331398,0.000504905,0.345503,0.4099172292395188,-0.010580825055663157,0.003319477302693219,-0.1260271780699742,0.0005050324859847688,-0.1855123388158787
830,0.8206,680.459,1.67027,0.388858,95.6444,-64.5268,-0.664864,0.343886,-0.134845,-0.205411,-0.0106281,0.00331095,0.000505247,0.34587,0.4104178387088222,-0.010571821300204176,0.0033164372492826555,-0.12614865184959922,0.0005053746587644348,-0.18568743483953631
831,0.8216,680.65,1.67092,0.389051,95.6755,-64.548,-0.665481,0.34424,-0.134984,-0.205625,-0.010619,0.00330793,0.000505588,0.346237,0.41091721500811507,-0.010562817462810514,0.0033134072382174917,-0.12627010874554234,0.0005057158311552179,-0.18586167908368156
832,0.8226,680.841,1.67157,0.389244,95.7065,-64.5692,-0.666098,0.344595,-0.135123,-0.205839,-0.0106099,0.00330489,0.000505928,0.346603,0.4114181795353855,-0.010553813543481727,0.003310357170095646,-0.12639154876015013,0.000506056003156452,-0.18603588604354804
833,0.8236,681.031,1.67222,0.389436,95.7374,-64.5904,-0.666715,0.344949,-0.135262,-0.206054,-0.0106007,0.00330186,0.000506268,0.34697,0.4119179100180177,-0.010544710596692819,0.0033073171443189775,-0.12651297189576904,0.0005063961752733714,-0.18621086951665133
834,0.8246,681.221,1.67287,0.389629,95.7684,-64.6116,-0.66733,0.345303,-0.135401,-0.206268,-0.0105916,0.00329883,0.000506608,0.347336,0.4124178174365567,-0.010535706512590726,0.0033042771277536076,-0.1266343781547451,0.0005067363475059761,-0.1863850017577604
835,0.8256,681.411,1.67352,0.389821,95.7992,-64.6327,-0.667945,0.345657,-0.13554,-0.206482,-0.0105825,0.00329579,0.000506946,0.347702,0.41291790185364863,-0.010526702346551065,0.0033012270873873373,-0.12675576753942386,0.0005070745188398007,-0.18655909673855686
836,0.8266,681.6,1.67416,0.390013,95.8301,-64.6538,-0.668559,0.346011,-0.135679,-0.206696,-0.0105733,0.00329275,0.000507285,0.348068,0.41341816333196224,-0.010517599150338008,0.0032981770562929835,-0.1268771400521509,0.000507413690795655,-0.18673315446701355
837,0.8276,681.79,1.6748,0.390204,95.8609,-64.6749,-0.669173,0.346364,-0.135818,-0.20691,-0.0105642,0.00328971,0.000507622,0.348434,0.4139171880162933,-0.010508594819520711,0.0032951270344707684,-0.126998495695271,0.000507750861850953,-0.18690717495110176
838,0.8286,681.979,1.67545,0.390396,95.8917,-64.6959,-0.669786,0.346718,-0.135957,-0.207123,-0.010555,0.00328666,0.000507959,0.3488,0.41441780330452915,-0.01049949145671758,0.0032920669889997534,-0.12711983447112907,0.0005080880330197157,-0.18708034527954243
839,0.8296,682.168,1.67609,0.390587,95.9224,-64.7169,-0.670398,0.347071,-0.136095,-0.207337,-0.0105458,0.00328362,0.000508296,0.349166,0.41491718092405994,-0.01049038801016322,0.0032890169857522356,-0.1272402836227895,0.0005084252043021653,-0.1872542914727462
840,0.8306,682.357,1.67673,0.390778,95.9531,-64.7379,-0.671009,0.347425,-0.136234,-0.207551,-0.0105367,0.00328057,0.000508632,0.349531,0.4154181502724501,-0.010481383431723335,0.00328595695891698,-0.1273615887924613,0.0005087613751895148,-0.18742820044544717
841,0.8316,682.546,1.67737,0.390968,95.9837,-64.7589,-0.67162,0.347778,-0.136373,-0.207765,-0.0105275,0.00327752,0.000508967,0.349897,0.41591788107679384,-0.010472279818574348,0.0032828969414147036,-0.12748287710188633,0.000509096545680876,-0.18760207220560998
842,0.8326,682.734,1.67801,0.391159,96.0144,-64.7798,-0.67223,0.348131,-0.136511,-0.207978,-0.0105183,0.00327446,0.000509302,0.350262,0.41641778831725107,-0.010463176121671802,0.003279826900447258,-0.12760327615712042,0.0005094317162841477,-0.18777509453669783
843,0.8336,682.923,1.67864,0.391349,96.045,-64.8008,-0.672839,0.348484,-0.13665,-0.208191,-0.0105091,0.00327141,0.000509637,0.350627,0.41691787205611397,-0.010454072341014697,0.0032767669016418033,-0.12772453087433644,0.0005097668869999961,-0.1879480800179537
844,0.8346,683.111,1.67928,0.391539,96.0755,-64.8217,-0.673448,0.348837,-0.136788,-0.208405,-0.0104999,0.00326835,0.00050997,0.350992,0.4174181323556978,-0.01044496847660259,0.003273696879432242,-0.12784489658365084,0.0005101000568079606,-0.18812184053579128
845,0.8356,683.299,1.67991,0.391728,96.106,-64.8425,-0.674056,0.34919,-0.136926,-0.208618,-0.0104907,0.00326529,0.000510304,0.351357,0.4179185692783396,-0.01043586452843448,0.0032706268666167215,-0.12796524568364342,0.0005104342272370666,-0.1882947521680146
846,0.8366,683.487,1.68054,0.391918,96.1365,-64.8634,-0.674663,0.349542,-0.137065,-0.208831,-0.0104815,0.00326223,0.000510636,0.351722,0.4184177644679248,-0.01042676049650959,0.0032675568631956864,-0.12808645009059194,0.0005107663967562903,-0.18846762697398245
847,0.8376,683.674,1.68118,0.392107,96.1669,-64.8842,-0.67527,0.349895,-0.137203,-0.209044,-0.0104723,0.00325917,0.000510969,0.352087,0.41891855432299097,-0.010417656380827367,0.0032644868691689144,-0.12820676585850055,0.0005110995668970997,-0.18864046496153786
848,0.8386,683.862,1.68181,0.392295,96.1973,-64.905,-0.675875,0.350247,-0.137341,-0.209258,-0.0104631,0.0032561,0.0005113,0.352452,0.41941810156926995,-0.01040855218138681,0.0032614068519218886,-0.12832706502397873,0.0005114307361258064,-0.18881407732485056
849,0.8396,684.049,1.68244,0.392484,96.2276,-64.9258,-0.676481,0.350599,-0.13748,-0.209471,-0.0104538,0.00325303,0.000511631,0.352816,0.41991782468713135,-0.010399348938127106,0.0032583268441306323,-0.12844821914153415,0.0005117619054642031,-0.18898684152633982
850,0.8406,684.236,1.68306,0.392672,96.2579,-64.9465,-0.677085,0.350951,-0.137618,-0.209683,-0.0104446,0.00324996,0.000511962,0.35318,0.42041772373849273,-0.010390244570257279,0.0032552468457951456,-0.12856848498875828,0.0005120930749122898,-0.18915875809213634
851,0.8416,684.423,1.68369,0.392861,96.2882,-64.9672,-0.677689,0.351303,-0.137756,-0.209896,-0.0104354,0.00324689,0.000512292,0.353545,0.42091779878529345,-0.010381140118626897,0.003252166856914984,-0.1286887342404407,0.0005124232439575049,-0.18933144888444042
852,0.8426,684.609,1.68432,0.393048,96.3185,-64.9879,-0.678292,0.351655,-0.137894,-0.210109,-0.0104262,0.00324381,0.000512621,0.353909,0.42141804988949483,-0.010372035583235184,0.0032490768449997542,-0.12880896689887122,0.0005127524125987382,-0.18950410289752284
853,0.8436,684.796,1.68494,0.393236,96.3487,-65.0086,-0.678894,0.352007,-0.138032,-0.210322,-0.0104169,0.00324074,0.00051295,0.354273,0.4219184771130804,-0.01036283200036947,0.003245996875061552,-0.1289291829663397,0.0005130815813485512,-0.18967672013921688
854,0.8446,684.982,1.68556,0.393423,96.3788,-65.0293,-0.679496,0.352358,-0.13817,-0.210534,-0.0104077,0.00323766,0.000513278,0.354636,0.42241765809968523,-0.010353727296542381,0.0032429068821497875,-0.12904938244513553,0.0005134097496930501,-0.1898484904662493
855,0.8456,685.168,1.68619,0.39361,96.409,-65.0499,-0.680097,0.35271,-0.138308,-0.210747,-0.0103984,0.00323458,0.000513606,0.355,0.4229184372472956,-0.010344523543408868,0.003239816898755299,-0.12916956533754786,0.0005137379181452406,-0.19002103436120288
856,0.8466,685.354,1.68681,0.393797,96.4391,-65.0705,-0.680697,0.353061,-0.138446,-0.210959,-0.0103892,0.0032315,0.000513933,0.355364,0.42341796928151276,-0.01033541867114307,0.003236726924877642,-0.12928973164586532,0.0005140650861910068,-0.1901927317013572
857,0.8476,685.54,1.68743,0.393984,96.4691,-65.0911,-0.681297,0.353412,-0.138584,-0.211172,-0.0103799,0.00322841,0.00051426,0.355727,0.423917676682249,-0.010326214747738538,0.003233626928180966,-0.1294098813723764,0.0005143922543437984,-0.19036520228073606
858,0.8486,685.726,1.68805,0.39417,96.4991,-65.1116,-0.681896,0.353764,-0.138721,-0.211384,-0.0103706,0.00322532,0.000514586,0.35609,0.42441898392934063,-0.010317010738737142,0.003230526941063294,-0.12952914404894844,0.0005147184220888334,-0.19053682666502492
859,0.8496,685.911,1.68866,0.394356,96.5291,-65.1321,-0.682494,0.354115,-0.138859,-0.211596,-0.0103613,0.00322223,0.000514911,0.356454,0.4249190427478884,-0.010307806644137996,0.0032274269635246267,-0.12964926073882754,0.0005150435894252237,-0.19070841466880095
860,0.8506,686.096,1.68928,0.394542,96.5591,-65.1527,-0.683092,0.354465,-0.138997,-0.211809,-0.0103521,0.00321914,0.000515236,0.356817,0.42541785169932456,-0.010298701434075186,0.0032243269955647413,-0.12976936085374702,0.0005153687568673071,-0.19088077541940485
861,0.8516,686.281,1.6899,0.394728,96.589,-65.1731,-0.683689,0.354816,-0.139134,-0.212021,-0.0103428,0.00321605,0.000515561,0.35718,0.4259182611819978,-0.010289497169198802,0.0032212270371836382,-0.12988857428500356,0.0005156939244148617,-0.1910522905137736
862,0.8526,686.466,1.69051,0.394913,96.6189,-65.1936,-0.684285,0.355167,-0.139272,-0.212233,-0.0103335,0.00321296,0.000515885,0.357543,0.42641884633922844,-0.010280292818722336,0.0032181270883815394,-0.13000864137693235,0.0005160180915522172,-0.19122376925079632
863,0.8536,686.651,1.69112,0.395098,96.6487,-65.214,-0.684881,0.355517,-0.13941,-0.212445,-0.0103242,0.00320986,0.000516208,0.357905,0.42691818031379536,-0.01027108838264501,0.003215017117008001,-0.1301286919007456,0.0005163412582782634,-0.19139521163817996
864,0.8546,686.835,1.69173,0.395283,96.6785,-65.2344,-0.685476,0.355868,-0.139547,-0.212657,-0.0103149,0.00320676,0.000516531,0.358268,0.4274191165042438,-0.010261883860965937,0.0032119071552754175,-0.13024785610702072,0.0005166644251086705,-0.19156661768362993
865,0.8556,687.019,1.69235,0.395468,96.7083,-65.2548,-0.68607,0.356218,-0.139685,-0.212868,-0.0103056,0.00320366,0.000516854,0.35863,0.42791880063464216,-0.01025267925368456,0.0032087972031837886,-0.13036787362147895,0.0005169875920434386,-0.19173717913243293
866,0.8566,687.203,1.69296,0.395652,96.738,-65.2752,-0.686663,0.356568,-0.139822,-0.21308,-0.0102963,0.00320055,0.000517176,0.358993,0.4284186596850954,-0.01024347456079977,0.0032056772286759294,-0.13048700506210287,0.000517309758565343,-0.1919085126884582
867,0.8576,687.387,1.69356,0.395837,96.7677,-65.2955,-0.687256,0.356918,-0.139959,-0.213292,-0.010287,0.00319745,0.000517497,0.359355,0.42891869371683633,-0.010234269782311123,0.003202567295896852,-0.13060612018283724,0.0005176309246732735,-0.19207980992561957
868,0.8586,687.571,1.69417,0.39602,96.7974,-65.3158,-0.687849,0.357268,-0.140097,-0.213503,-0.0102777,0.00319434,0.000517818,0.359717,0.42941890279111883,-0.010225064918217508,0.003199447340764161,-0.13072608826026433,0.0005179520908844548,-0.19225026310228277
869,0.8596,687.755,1.69478,0.396204,96.827,-65.3361,-0.68844,0.357618,-0.140234,-0.213715,-0.0102684,0.00319123,0.000518138,0.360079,0.4299192869692188,-0.01021585996851826,0.003196327395334375,-0.13084517062884415,0.0005182722566803299,-0.19242148789603564
870,0.8606,687.938,1.69538,0.396388,96.8566,-65.3564,-0.689031,0.357967,-0.140371,-0.213926,-0.010259,0.00318812,0.000518458,0.360441,0.430418415893302,-0.010206555953873209,0.0031932074596077165,-0.13096423668425694,0.0005185924225787897,-0.19259186898625247
871,0.8616,688.121,1.69599,0.396571,96.8861,-65.3766,-0.689621,0.358317,-0.140508,-0.214138,-0.0102497,0.00318501,0.000518777,0.360803,0.43091914996221514,-0.010197350832039764,0.003190087533583963,-0.13108328642873746,0.000518911588060611,-0.1927630213672339
872,0.8626,688.304,1.69659,0.396754,96.9156,-65.3969,-0.690211,0.358666,-0.140645,-0.214349,-0.0102404,0.00318189,0.000519096,0.361164,0.43141862789938235,-0.010188145624598355,0.0031869575853935572,-0.13120231986452024,0.0005192307536443508,-0.19293333040149052
873,0.8636,688.487,1.69719,0.396937,96.9451,-65.4171,-0.690799,0.359015,-0.140782,-0.21456,-0.010231,0.00317878,0.000519414,0.361526,0.4319182801847714,-0.010178841349437251,0.0031838376788071443,-0.1313213369938393,0.0005195489188103419,-0.19310360350433164
874,0.8646,688.67,1.69779,0.397119,96.9745,-65.4372,-0.691388,0.359364,-0.140919,-0.214771,-0.0102217,0.00317566,0.000519731,0.361887,0.43241810687924076,-0.010169635969856872,0.0031807077501162517,-0.1314403378189285,0.0005198660835574742,-0.1932738406833383
875,0.8656,688.852,1.69839,0.397301,97.004,-65.4574,-0.691975,0.359713,-0.141056,-0.214983,-0.0102123,0.00317254,0.000520048,0.362248,0.4329181080436699,-0.010160331520704169,0.003177577831190659,-0.1315593223420214,0.0005201832484054147,-0.19344484850164423
876,0.8666,689.035,1.69899,0.397483,97.0333,-65.4775,-0.692562,0.360062,-0.141193,-0.215194,-0.010203,0.00316941,0.000520365,0.362609,0.4334182837389591,-0.01015112596898149,0.0031744378902860415,-0.13167829056535119,0.0005205004133537194,-0.19361501368555212
877,0.8676,689.217,1.69959,0.397665,97.0627,-65.4976,-0.693148,0.360411,-0.14133,-0.215404,-0.0101936,0.00316629,0.000520681,0.36297,0.43391863402603037,-0.010141821345833968,0.0031713079909225783,-0.13179724249115077,0.000520816577881833,-0.19378433675313378
878,0.8686,689.399,1.70018,0.397847,97.092,-65.5177,-0.693734,0.36076,-0.141467,-0.215615,-0.0101843,0.00316316,0.000520996,0.363331,0.4344191589658273,-0.01013261562196599,0.003168168069642485,-0.13191617812165268,0.0005211317419886452,-0.1939544303125773
879,0.8696,689.581,1.70078,0.398028,97.1212,-65.5378,-0.694318,0.361108,-0.141604,-0.215826,-0.0101749,0.00316003,0.000521311,0.363692,0.4349184237001724,-0.01012331082482032,0.0031650281581903084,-0.13203509745908948,0.0005214469061947113,-0.19412448798606585
880,0.8706,689.762,1.70137,0.398209,97.1505,-65.5578,-0.694903,0.361457,-0.14174,-0.216037,-0.0101655,0.0031569,0.000521626,0.364053,0.43541929762746023,-0.01011400594020917,0.00316188825656627,-0.13215313265925943,0.0005217620705002535,-0.1942945097811707
881,0.8716,689.944,1.70196,0.39839,97.1797,-65.5778,-0.695486,0.361805,-0.141877,-0.216247,-0.0101561,0.00315377,0.00052194,0.364413,0.43591891047062714,-0.010104700968131652,0.0031587483647699255,-0.1322720195361481,0.0005220762343827179,-0.19446369016955412
882,0.8726,690.125,1.70255,0.398571,97.2088,-65.5978,-0.696069,0.362153,-0.142014,-0.216458,-0.0101468,0.00315064,0.000522253,0.364773,0.4364186972093196,-0.0100954948990426,0.0031556084828014974,-0.13239089012665028,0.0005223893978416605,-0.19463364040054842
883,0.8736,690.306,1.70315,0.398751,97.238,-65.6178,-0.696651,0.362501,-0.14215,-0.216669,-0.0101374,0.0031475,0.000522566,0.365134,0.4369186579040638,-0.010086189752960495,0.0031524585791360415,-0.13250887694230773,0.0005227025613985248,-0.1948035547758269
884,0.8746,690.487,1.70373,0.398931,97.2671,-65.6377,-0.697233,0.362849,-0.142287,-0.216879,-0.010128,0.00314436,0.000522879,0.365494,0.4374187926154067,-0.01007688451940969,0.0031493086853615626,-0.13262771508556792,0.0005230157250535328,-0.19497262827598516
885,0.8756,690.668,1.70432,0.399111,97.2961,-65.6576,-0.697814,0.363197,-0.142423,-0.217089,-0.0101186,0.00314122,0.000523191,0.365854,0.437919101403917,-0.010067579198389187,0.0031461588014776165,-0.13274566969522106,0.0005233278882830206,-0.19514166627443608
886,0.8766,690.848,1.70491,0.399291,97.3251,-65.6775,-0.698394,0.363545,-0.14256,-0.2173,-0.0101092,0.00313808,0.000523502,0.366214,0.4384195843301839,-0.01005827378989832,0.0031430089274842032,-0.13286447540009616,0.0005236390510865441,-0.19531147346756328
887,0.8776,691.029,1.7055,0.399471,97.3541,-65.6974,-0.698973,0.363892,-0.142696,-0.21751,-0.0100998,0.00313494,0.000523813,0.366573,0.4389188025352959,-0.0100489682939362,0.003139859063381545,-0.13298239781253596,0.000523950213986657,-0.1954804403159951
888,0.8786,691.209,1.70608,0.39965,97.3831,-65.7173,-0.699552,0.36424,-0.142833,-0.21772,-0.0100904,0.00313179,0.000524123,0.366933,0.4394196334180973,-0.01003966271050194,0.003136699177802349,-0.13310117108788055,0.0005242603764592513,-0.1956493716851142
889,0.8796,691.389,1.70667,0.399829,97.412,-65.7371,-0.700131,0.364587,-0.142969,-0.21793,-0.010081,0.00312865,0.000524433,0.367293,0.43991919870045737,-0.010030357039594873,0.0031335493335120645,-0.13321906131189565,0.0005245705390279909,-0.19581826758237042
890,0.8806,691.569,1.70725,0.400008,97.4409,-65.7569,-0.700708,0.364934,-0.143105,-0.21814,-0.0100716,0.0031255,0.000524742,0.367652,0.44041893736204973,-0.010021051281214,0.0031303894678085253,-0.13333693550393044,0.0005248797011681017,-0.19598712801521212
891,0.8816,691.748,1.70783,0.400186,97.4698,-65.7767,-0.701285,0.365281,-0.143241,-0.21835,-0.0100622,0.00312235,0.000525051,0.368011,0.4409188494630478,-0.010011745435358654,0.0031272296120583576,-0.1334547936661653,0.0005251888634036916,-0.196155952991086
892,0.8826,691.928,1.70841,0.400365,97.4986,-65.7965,-0.701861,0.365628,-0.143377,-0.21856,-0.0100527,0.00311919,0.00052536,0.36837,0.44141893506364527,-0.010002340502266893,0.0031240597350212784,-0.13357263580077983,0.0005254980257347608,-0.19632474251743726
893,0.8836,692.107,1.70899,0.400543,97.5274,-65.8162,-0.702437,0.365975,-0.143514,-0.21877,-0.0100433,0.00311604,0.000525667,0.368729,0.441919194224057,-0.009993034480529461,0.003120899899209828,-0.13369132821905882,0.0005258051871097624,-0.19649349660170956
894,0.8846,692.286,1.70957,0.400721,97.5561,-65.8359,-0.703012,0.366322,-0.14365,-0.218979,-0.0100339,0.00311288,0.000525975,0.369088,0.44241962700451865,-0.009983728371314893,0.003117730042174527,-0.13380913818716167,0.0005261133491052394,-0.19666141191315856
895,0.8856,692.465,1.71015,0.400898,97.5848,-65.8556,-0.703586,0.366668,-0.143786,-0.219189,-0.0100245,0.00310973,0.000526282,0.369447,0.4429187905457752,-0.009974422174622521,0.0031145702263015718,-0.13392693213419826,0.000526420510669201,-0.19683009530428086
896,0.8866,692.644,1.71072,0.401076,97.6135,-65.8753,-0.70416,0.367015,-0.143922,-0.219398,-0.010015,0.00310657,0.000526588,0.369806,0.4434195702463477,-0.009965016886958167,0.0031114003892680486,-0.1340447100623473,0.000526726671800759,-0.1969979402739519
897,0.8876,692.823,1.7113,0.401253,97.6422,-65.895,-0.704733,0.367361,-0.144057,-0.219608,-0.0100056,0.00310341,0.000526894,0.370164,0.4439190798278272,-0.009955710514376936,0.0031082305622511797,-0.1341616061358264,0.0005270328330260199,-0.1971665530015384
898,0.8886,693.001,1.71187,0.40143,97.6708,-65.9146,-0.705305,0.367707,-0.144193,-0.219817,-0.00999612,0.00310024,0.000527199,0.370523,0.44441876226952504,-0.009946324850024668,0.003105050714200308,-0.13427935215048148,0.0005273379938175449,-0.1973343276588987
899,0.8896,693.18,1.71245,0.401607,97.6994,-65.9342,-0.705877,0.368053,-0.144329,-0.220027,-0.00998667,0.00309708,0.000527504,0.370881,0.44491861763126117,-0.009936968798587298,0.003101880907248278,-0.13439708215276747,0.0005276431547021065,-0.19750286975255105
900,0.8906,693.358,1.71302,0.401783,97.7279,-65.9538,-0.706448,0.3684,-0.144465,-0.220236,-0.00997722,0.00309391,0.000527808,0.371239,0.44542009139224503,-0.009927612658734652,0.0030987010793259717,-0.13451479614486173,0.0005279473151518221,-0.19767057412705513
901,0.8916,693.536,1.71359,0.40196,97.7564,-65.9734,-0.707019,0.368745,-0.144601,-0.220445,-0.00996776,0.00309074,0.000528112,0.371597,0.4459188473542317,-0.009918246529648678,0.0030955212614836025,-0.13463249412894174,0.0005282514756941303,-0.19783824345500756
902,0.8926,693.714,1.71416,0.402136,97.7849,-65.9929,-0.707589,0.369091,-0.144736,-0.220654,-0.0099583,0.00308757,0.000528415,0.371955,0.44641922183520966,-0.009908880311958801,0.00309234145372117,-0.13474931085692776,0.0005285546358002602,-0.19800587774373202
903,0.8936,693.891,1.71473,0.402312,97.8134,-66.0124,-0.708158,0.369437,-0.144872,-0.220863,-0.00994884,0.0030844,0.000528718,0.372313,0.44691976947571277,-0.009899514005663912,0.0030891616560386748,-0.1348669769491756,0.0005288577959983165,-0.1981734770005512
904,0.8946,694.069,1.7153,0.402487,97.8418,-66.0319,-0.708726,0.369782,-0.145008,-0.221072,-0.00993937,0.00308123,0.00052902,0.372671,0.4474190429158982,-0.009890137709664848,0.003085981868436116,-0.13498462703992298,0.0005291599557588622,-0.19834104123278584
905,0.8956,694.246,1.71587,0.402663,97.8702,-66.0514,-0.709294,0.370128,-0.145143,-0.221281,-0.00992989,0.00307805,0.000529322,0.373028,0.44791993655434936,-0.009880751423679501,0.0030827920600857706,-0.13510139623317463,0.0005294621156108903,-0.19850857044775538
906,0.8966,694.423,1.71643,0.402838,97.8985,-66.0708,-0.709861,0.370473,-0.145279,-0.22149,-0.00992042,0.00307488,0.000529623,0.373386,0.44841955511170606,-0.009871374949997902,0.003079612292674838,-0.13521901444506723,0.0005297632750242975,-0.19867606465277765
907,0.8976,694.6,1.717,0.403013,97.9268,-66.0903,-0.710428,0.370818,-0.145414,-0.221699,-0.00991093,0.0030717,0.000529924,0.373743,0.4489193460672023,-0.009861978584760456,0.0030764225045794014,-0.13533575199815506,0.000530064434528299,-0.19884352385516912
908,0.8986,694.777,1.71756,0.403188,97.9551,-66.1097,-0.710994,0.371163,-0.145549,-0.221908,-0.00990145,0.00306852,0.000530225,0.3741,0.44941930948032516,-0.009852592031825314,0.0030732327266276283,-0.13545247379273695,0.0005303655941231167,-0.1990109480622443
909,0.8996,694.954,1.71813,0.403362,97.9834,-66.1291,-0.711559,0.371508,-0.145685,-0.222116,-0.00989196,0.00306534,0.000530524,0.374457,0.44991944541058304,-0.00984319548833712,0.003070042958819297,-0.13557004426132802,0.0005306647527469899,-0.1991775364592534
910,0.9006,695.13,1.71869,0.403537,98.0116,-66.1485,-0.712124,0.371853,-0.14582,-0.222325,-0.00988247,0.00306215,0.000530824,0.374814,0.4504197539175048,-0.009833798855675369,0.003066843170485889,-0.13568673442858925,0.0005309649119915605,-0.19934489086498886
911,0.9016,695.307,1.71925,0.403711,98.0398,-66.1678,-0.712688,0.372198,-0.145955,-0.222533,-0.00987297,0.00305897,0.000531122,0.375171,0.4509202350606394,-0.00982439223208309,0.003063653422996415,-0.1358034088437411,0.0005312630702634102,-0.1995114098091184
912,0.9026,695.483,1.71981,0.403885,98.0679,-66.1871,-0.713251,0.372542,-0.146091,-0.222742,-0.00986347,0.00305578,0.000531421,0.375528,0.4514194374793934,-0.009814985519127517,0.003060453655045592,-0.13592093158841057,0.0005315622291559574,-0.1996786944426151
913,0.9036,695.659,1.72037,0.404059,98.096,-66.2064,-0.713814,0.372887,-0.146226,-0.22295,-0.00985397,0.00305259,0.000531719,0.375885,0.4519202635728574,-0.00980557871680765,0.003057253897301937,-0.13603757438907993,0.0005318603876058869,-0.19984514396282094
914,0.9046,695.835,1.72093,0.404232,98.1241,-66.2257,-0.714376,0.373231,-0.146361,-0.223158,-0.00984446,0.0030494,0.000532016,0.376241,0.45241981006059606,-0.009796161923084523,0.0030540541497656726,-0.13615420144403412,0.0005321575456125327,-0.20001155886512678
915,0.9056,696.01,1.72148,0.404405,98.1522,-66.245,-0.714938,0.373575,-0.146496,-0.223366,-0.00983495,0.00304621,0.000532313,0.376597,0.4529195284218872,-0.009786745039807143,0.0030508544124365766,-0.13627081275539854,0.0005324547037075522,-0.20017793915673265
916,0.9066,696.186,1.72204,0.404578,98.1802,-66.2642,-0.715499,0.373919,-0.146631,-0.223575,-0.00982544,0.00304302,0.000532609,0.376954,0.45341941871586533,-0.009777328066974844,0.003047654685314427,-0.1363874083252985,0.0005327508613579557,-0.2003450845001521
917,0.9076,696.361,1.72259,0.404751,98.2082,-66.2834,-0.716059,0.374263,-0.146766,-0.223783,-0.00981592,0.00303982,0.000532905,0.37731,0.45391948100168555,-0.009767901102265775,0.003044444937955193,-0.13650398815585896,0.0005330470190958447,-0.20051139542564023
918,0.9086,696.536,1.72315,0.404924,98.2362,-66.3026,-0.716618,0.374607,-0.146901,-0.223991,-0.0098064,0.00303662,0.000533201,0.377666,0.454419715338523,-0.009758474047811605,0.003041235200866854,-0.13662055224920466,0.0005333431769216634,-0.2006776717620532
919,0.9096,696.711,1.7237,0.405096,98.2641,-66.3218,-0.717177,0.374951,-0.147036,-0.224198,-0.00979688,0.00303343,0.000533496,0.378022,0.4549201217855736,-0.009749046903611336,0.003038035504430159,-0.1367371006074598,0.0005336383343015338,-0.20084311436009883
920,0.9106,696.886,1.72425,0.405268,98.292,-66.341,-0.717736,0.375294,-0.147171,-0.224406,-0.00978735,0.00303023,0.00053379,0.378377,0.45541924498208086,-0.009739609767060453,0.00303482578785208,-0.13685363323274857,0.0005339324912343457,-0.2010093217061487
921,0.9116,697.061,1.7248,0.40544,98.3198,-66.3601,-0.718293,0.375638,-0.147305,-0.224614,-0.00977782,0.00302702,0.000534084,0.378733,0.45591999532647587,-0.00973017254057329,0.0030316060512289855,-0.13696928709691347,0.000534226648253755,-0.20117549448466576
922,0.9126,697.235,1.72535,0.405612,98.3477,-66.3792,-0.718851,0.375981,-0.14744,-0.224822,-0.00976828,0.00302382,0.000534378,0.379089,0.4564194615384314,-0.00972072532135615,0.003028396355225116,-0.13708578837914187,0.0005345208053597617,-0.20134163270283922
923,0.9136,697.41,1.7259,0.405784,98.3755,-66.3983,-0.719407,0.376325,-0.147575,-0.225029,-0.00975874,0.00302062,0.000534671,0.379444,0.4569205560165095,-0.009711278012012103,0.0030251866694923635,-0.1372022739347588,0.0005348139620171555,-0.20150693787519414
924,0.9146,697.584,1.72645,0.405955,98.4032,-66.4174,-0.719963,0.376668,-0.147709,-0.225237,-0.0097492,0.00301741,0.000534963,0.379799,0.4574203654796458,-0.009701830612540263,0.0030219669638107405,-0.1373178810841995,0.0005351061182254924,-0.20167300716031167
925,0.9156,697.758,1.727,0.406126,98.431,-66.4365,-0.720518,0.377011,-0.147844,-0.225444,-0.00973966,0.0030142,0.000535255,0.380154,0.45792034640683243,-0.009692383122939963,0.0030187472684644057,-0.13743433530941607,0.0005353982745190944,-0.20183824374525294
926,0.9166,697.932,1.72754,0.406297,98.4587,-66.4555,-0.721073,0.377354,-0.147979,-0.225652,-0.00973011,0.00301099,0.000535547,0.38051,0.45842049885689184,-0.009682925640039364,0.003015527583453137,-0.13755077381437342,0.0005356904308981836,-0.2020042441259159
927,0.9176,698.105,1.72809,0.406468,98.4864,-66.4745,-0.721627,0.377696,-0.148113,-0.225859,-0.00972056,0.00300778,0.000535838,0.380864,0.45891936396857247,-0.009673468066819346,0.0030123079087773785,-0.13766633426795893,0.0005359815868264395,-0.20216941215190132
928,0.9186,698.279,1.72863,0.406638,98.514,-66.4935,-0.72218,0.378039,-0.148248,-0.226066,-0.009711,0.00300457,0.000536129,0.381219,0.4594198591404288,-0.009664000499919112,0.003009088244436464,-0.1377827414551709,0.0005362727428395164,-0.2023345459916438
929,0.9196,698.452,1.72918,0.406809,98.5416,-66.5125,-0.722733,0.378382,-0.148382,-0.226274,-0.00970144,0.00300136,0.000536419,0.381574,0.45992052601157374,-0.009654532842508612,0.003005868590430838,-0.1378982708271751,0.0005365628984006499,-0.20250044315217475
930,0.9206,698.626,1.72972,0.406979,98.5692,-66.5314,-0.723285,0.378724,-0.148516,-0.226481,-0.00969188,0.00299814,0.000536708,0.381929,0.4604199042202759,-0.009645065094586847,0.003002638916733691,-0.1380137847192806,0.0005368520535089516,-0.20266550847559195
931,0.9216,698.799,1.73026,0.407149,98.5967,-66.5503,-0.723836,0.379066,-0.148651,-0.226688,-0.00968232,0.00299492,0.000536998,0.382283,0.4609194532455334,-0.009635597256152928,0.002999409253436003,-0.13813014500384757,0.0005371422092381728,-0.2028305396340233
932,0.9226,698.972,1.7308,0.407318,98.6242,-66.5692,-0.724387,0.379409,-0.148785,-0.226895,-0.00967275,0.0029917,0.000537286,0.382637,0.4614206345656795,-0.00962611942346736,0.002996179600537996,-0.1382456278268951,0.0005374303639766875,-0.20299553663454029
933,0.9236,699.144,1.73134,0.407488,98.6517,-66.5881,-0.724937,0.379751,-0.148919,-0.227102,-0.00966318,0.00298848,0.000537575,0.382992,0.4619205258992465,-0.00961664150007846,0.002992949958039448,-0.13836109517628115,0.0005377195193358997,-0.203160499484213
934,0.9246,699.317,1.73188,0.407657,98.6792,-66.607,-0.725487,0.380093,-0.149053,-0.227309,-0.0096536,0.00298526,0.000537862,0.383346,0.46242058822488774,-0.009607153582056882,0.0029897203259403593,-0.13847654705407897,0.000538006673702629,-0.2033254281901098
935,0.9256,699.489,1.73242,0.407826,98.7066,-66.6258,-0.726036,0.380435,-0.149188,-0.227515,-0.00964403,0.00298204,0.00053815,0.3837,0.46292082160109227,-0.009597675477164058,0.0029864907042405076,-0.13859284486994738,0.0005382948286898337,-0.20348952624922223
936,0.9266,699.662,1.73295,0.407995,98.734,-66.6447,-0.726584,0.380776,-0.149322,-0.227722,-0.00963444,0.00297881,0.000538437,0.384054,0.4634197626658749,-0.009588177473328963,0.002983251063107595,-0.13870826569536687,0.0005385819832217642,-0.20365438685362736
937,0.9276,699.834,1.73349,0.408163,98.7614,-66.6635,-0.727132,0.381118,-0.149456,-0.227929,-0.00962486,0.00297559,0.000538723,0.384407,0.46392033781817865,-0.009578689282620845,0.0029800214622388577,-0.1388236710554318,0.0005388681372970883,-0.2038192133354193
938,0.9286,700.006,1.73402,0.408332,98.7887,-66.6823,-0.727679,0.381459,-0.14959,-0.228135,-0.00961527,0.00297236,0.000539009,0.384761,0.46441961977611035,-0.009569191096707397,0.0029767818420014525,-0.13893906095221464,0.0005391542914543468,-0.20398320968526817
939,0.9296,700.177,1.73456,0.4085,98.816,-66.701,-0.728226,0.381801,-0.149724,-0.228342,-0.00960568,0.00296913,0.000539294,0.385114,0.46492053693802604,-0.009559692819705812,0.0029735422322281213,-0.13905443538778728,0.0005394394451538886,-0.20414796810777824
940,0.9306,700.349,1.73509,0.408668,98.8432,-66.7198,-0.728772,0.382142,-0.149858,-0.228548,-0.00959609,0.0029659,0.000539579,0.385468,0.46542016002201625,-0.009550194451615313,0.002970302632918642,-0.13916979436422128,0.0005397245989349209,-0.20431189674111916
941,0.9316,700.521,1.73562,0.408836,98.8705,-66.7385,-0.729317,0.382483,-0.149992,-0.228755,-0.00958649,0.00296267,0.000539864,0.385821,0.4659199535065299,-0.009540686087841976,0.002967063044073015,-0.1392851378835881,0.0005400097527969994,-0.2044765871324502
942,0.9326,700.692,1.73615,0.409004,98.8977,-66.7572,-0.729862,0.382824,-0.150125,-0.228961,-0.00957689,0.00295943,0.000540148,0.386174,0.46641991744968325,-0.00953117763278788,0.002963813436053231,-0.13939960534799445,0.0005402939062000289,-0.20464044807724413
943,0.9336,700.863,1.73668,0.409171,98.9249,-66.7759,-0.730406,0.383165,-0.150259,-0.229167,-0.00956729,0.0029562,0.000540432,0.386527,0.4669200519096126,-0.009521669086452245,0.0029605738681677263,-0.13951491807475258,0.0005405780596838827,-0.20480427527015999
944,0.9346,701.034,1.73721,0.409338,98.952,-66.7945,-0.730949,0.383506,-0.150393,-0.229373,-0.00955768,0.00295296,0.000540715,0.38688,0.46742035694447415,-0.0095121505439556,0.0029573242811726796,-0.13963021535064057,0.0005408612127075774,-0.20496806871815
945,0.9356,701.205,1.73774,0.409505,98.9791,-66.8132,-0.731492,0.383847,-0.150527,-0.229579,-0.00954808,0.00294972,0.000540997,0.387233,0.467920832612444,-0.009502641814959079,0.002954074704706322,-0.13974549717772866,0.0005411433652702247,-0.2051318284281648
946,0.9366,701.376,1.73826,0.409672,99.0062,-66.8318,-0.732034,0.384187,-0.15066,-0.229785,-0.00953847,0.00294649,0.00054128,0.387586,0.46842001055097304,-0.009493123089609479,0.0029508351682769884,-0.13985990341842036,0.0005414265184537914,-0.20529555440715375
947,0.9376,701.546,1.73879,0.409838,99.0333,-66.8504,-0.732576,0.384528,-0.150794,-0.229991,-0.00952885,0.00294324,0.000541561,0.387938,0.46892082715894956,-0.009483594367620585,0.002947575583359452,-0.13997515446936937,0.0005417076706342172,-0.20545924666206472
948,0.9386,701.716,1.73931,0.410005,99.0603,-66.869,-0.733117,0.384868,-0.150927,-0.230197,-0.00951923,0.00294,0.000541843,0.388291,0.4694203451534307,-0.009474065553964794,0.0029443260384787173,-0.14008953016767245,0.0005419898234355625,-0.20562290519984427
949,0.9396,701.887,1.73984,0.410171,99.0873,-66.8876,-0.733658,0.385208,-0.151061,-0.230403,-0.00950961,0.00293676,0.000542123,0.388643,0.4699200330129054,-0.009464536648641442,0.0029410765041266718,-0.14020475045069858,0.0005422699752319904,-0.2057865300274372
950,0.9406,702.057,1.74036,0.410337,99.1142,-66.9061,-0.734197,0.385548,-0.151194,-0.230609,-0.00949999,0.00293351,0.000542404,0.388995,0.47041989079513735,-0.009455007651649638,0.0029378169509248764,-0.14031909561476674,0.0005425511276493378,-0.20595012115178724
951,0.9416,702.227,1.74088,0.410503,99.1412,-66.9246,-0.734737,0.385888,-0.151328,-0.230815,-0.00949036,0.00293027,0.000542684,0.389347,0.4709199185579105,-0.009445468657443112,0.0029345674376621833,-0.14043428513808387,0.0005428312796027512,-0.20611367857983642
952,0.9426,702.396,1.74141,0.410668,99.1681,-66.9431,-0.735275,0.386228,-0.151461,-0.23102,-0.00948074,0.00292702,0.000542963,0.389699,0.4714201163590279,-0.009435939477016375,0.0029313079056147995,-0.1405485997760686,0.0005431104310917867,-0.20627640859533114
953,0.9436,702.566,1.74193,0.410834,99.1949,-66.9616,-0.735813,0.386568,-0.151594,-0.231226,-0.0094711,0.00292377,0.000543242,0.390051,0.4719204842563123,-0.009426390393446393,0.0029280483841607197,-0.14066289921121744,0.0005433895826585378,-0.20643989881508962
954,0.9446,702.736,1.74245,0.410999,99.2218,-66.9801,-0.736351,0.386908,-0.151728,-0.231431,-0.00946147,0.00292052,0.000543521,0.390403,0.4724210223076062,-0.009416851123654424,0.002924788873300166,-0.14077804266793925,0.0005436687343030044,-0.20660256196229032
955,0.9456,702.905,1.74296,0.411164,99.2486,-66.9985,-0.736888,0.387247,-0.151861,-0.231636,-0.00945183,0.00291727,0.000543799,0.390755,0.47292025764977796,-0.009407301856071859,0.002921529373033138,-0.14089231158921267,0.0005439468854815388,-0.2067651917669635
956,0.9466,703.074,1.74348,0.411329,99.2754,-67.017,-0.737424,0.387587,-0.151994,-0.231842,-0.00944219,0.00291401,0.000544076,0.391106,0.4734211356818192,-0.00939775249643382,0.002918259854176597,-0.14100656531373024,0.0005442240361932527,-0.20692858130775904
957,0.9476,703.243,1.744,0.411493,99.3021,-67.0354,-0.737959,0.387926,-0.152127,-0.232047,-0.00943255,0.00291076,0.000544354,0.391458,0.47392071011989834,-0.00938820304473964,0.002915000375128818,-0.1411208038435129,0.0005445021875263301,-0.2070911442853165
958,0.9486,703.412,1.74452,0.411658,99.3289,-67.0537,-0.738494,0.388265,-0.15226,-0.232252,-0.0094229,0.0029075,0.00054463,0.391809,0.47442045394242105,-0.009378643594774805,0.0029117308775568063,-0.14123502718058145,0.0005447783378469406,-0.207253673940879
959,0.9496,703.581,1.74503,0.411822,99.3556,-67.0721,-0.739029,0.388604,-0.152394,-0.232457,-0.00941326,0.00290424,0.000544907,0.39216,0.4749203672068181,-0.009369093958869867,0.00290846139064338,-0.1413500939772917,0.0005450554887889147,-0.20741617028127723
960,0.9506,703.749,1.74554,0.411986,99.3822,-67.0905,-0.739563,0.388943,-0.152527,-0.232662,-0.00940361,0.00290099,0.000545182,0.392511,0.47542044997054056,-0.009359534324501428,0.002905201943440572,-0.14146428682080026,0.0005453306387170898,-0.2075786333133398
961,0.9516,703.917,1.74606,0.41215,99.4089,-67.1088,-0.740096,0.389282,-0.152659,-0.232867,-0.00939395,0.00289772,0.000545458,0.392862,0.4759207022910581,-0.009349964691381718,0.0029019224487920603,-0.1415776060557059,0.0005456067892664063,-0.2077410630438944
962,0.9526,704.086,1.74657,0.412313,99.4355,-67.1271,-0.740629,0.389621,-0.152792,-0.233072,-0.00938429,0.00289446,0.000545733,0.393213,0.47642112422586025,-0.009340394965818954,0.002898652993854167,-0.14169176864212019,0.0005458819393460157,-0.20790345947976696
963,0.9536,704.254,1.74708,0.412477,99.462,-67.1454,-0.741161,0.389959,-0.152925,-0.233277,-0.00937464,0.0028912,0.000546007,0.393563,0.47692023891147883,-0.009330835054503828,0.002895383549574637,-0.1418059160459202,0.0005461560889552519,-0.2080658226277824
964,0.9546,704.422,1.74759,0.41264,99.4886,-67.1637,-0.741692,0.390298,-0.153058,-0.233482,-0.00936497,0.00288794,0.000546281,0.393914,0.47742099974663565,-0.009321255237360493,0.0028921141159534702,-0.14192004826912497,0.0005464302386397613,-0.20822815249476379
965,0.9556,704.59,1.7481,0.412803,99.5151,-67.1819,-0.742223,0.390636,-0.153191,-0.233687,-0.00935531,0.00288467,0.000546555,0.394264,0.4779204524473015,-0.009311685234463019,0.002888834664102058,-0.14203416531375346,0.0005467043883990996,-0.20839044908753324
966,0.9566,704.757,1.74861,0.412966,99.5416,-67.2001,-0.742753,0.390974,-0.153324,-0.233891,-0.00934564,0.0028814,0.000546828,0.394615,0.478420073991513,-0.009302105232140034,0.002885555222974734,-0.14214826718182438,0.0005469775376867325,-0.2085519209652278
967,0.9576,704.925,1.74912,0.413129,99.5681,-67.2184,-0.743283,0.391313,-0.153456,-0.234096,-0.00933598,0.00287813,0.000547101,0.394965,0.47892134335695324,-0.009292535044252648,0.002882275792571054,-0.1422614961372809,0.0005472506870487504,-0.20871415119226355
968,0.9586,705.092,1.74963,0.413291,99.5945,-67.2365,-0.743812,0.391651,-0.153589,-0.2343,-0.0093263,0.00287486,0.000547373,0.395315,0.47942130325947163,-0.009282944949575822,0.0028789963728910184,-0.1423755677723627,0.0005475228359379525,-0.208875557041464
969,0.9596,705.259,1.75013,0.413453,99.6209,-67.2547,-0.74434,0.391989,-0.153722,-0.234505,-0.00931663,0.00287159,0.000547645,0.395665,0.4799214321769989,-0.009273364669332929,0.002875716963934627,-0.14248962423692602,0.0005477949849013175,-0.20903772092990403
970,0.9606,705.426,1.75064,0.413615,99.6473,-67.2729,-0.744868,0.392326,-0.153854,-0.234709,-0.00930695,0.00286832,0.000547916,0.396015,0.480420249745682,-0.009263774389086099,0.0028724375657021017,-0.14260280813622506,0.0005480661333905346,-0.2091990607776103
971,0.9616,705.593,1.75114,0.413777,99.6736,-67.291,-0.745396,0.392664,-0.153987,-0.234913,-0.00929727,0.00286505,0.000548187,0.396365,0.48092071636419,-0.009254184016004863,0.0028691581781929987,-0.14271683437982963,0.0005483372819530263,-0.2093603677153446
972,0.9626,705.76,1.75165,0.413939,99.6999,-67.3091,-0.745922,0.393002,-0.154119,-0.235118,-0.00928759,0.00286177,0.000548458,0.396715,0.48142135216900583,-0.009244593550088331,0.0028658687727487475,-0.1428299882893691,0.0005486084305892369,-0.20952243222778288
973,0.9636,705.926,1.75215,0.4141,99.7262,-67.3272,-0.746449,0.393339,-0.154252,-0.235322,-0.00927791,0.0028585,0.000548728,0.397064,0.481920675295908,-0.009235002991335617,0.0028625894067195734,-0.14294398432002253,0.0005488785787499673,-0.20968367320446957
974,0.9646,706.093,1.75265,0.414262,99.7525,-67.3453,-0.746974,0.393676,-0.154384,-0.235526,-0.00926822,0.00285522,0.000548997,0.397413,0.482420166723061,-0.009225402431999985,0.0028593000228209764,-0.14305710824774887,0.0005491477264345512,-0.20984488129135193
975,0.9656,706.259,1.75315,0.414423,99.7787,-67.3634,-0.747499,0.394014,-0.154516,-0.23573,-0.00925853,0.00285194,0.000549267,0.397763,0.48292130942775935,-0.009215801779634436,0.0028560106497115267,-0.14317021724410217,0.0005494178747409428,-0.21000605649513882
976,0.9666,706.425,1.75365,0.414584,99.8049,-67.3814,-0.748024,0.394351,-0.154649,-0.235934,-0.00924884,0.00284866,0.000549535,0.398112,0.48342113812544185,-0.009206201034238193,0.0028527212873912244,-0.14328416802731359,0.0005496860220208788,-0.21016719882253754
977,0.9676,706.591,1.75415,0.414745,99.8311,-67.3995,-0.748547,0.394688,-0.154781,-0.236138,-0.00923915,0.00284538,0.000549804,0.398461,0.4839211352937809,-0.009196600195810256,0.0028494319358598474,-0.14339724705375412,0.0005499551699226224,-0.21032830828025428
978,0.9686,706.757,1.75465,0.414905,99.8572,-67.4175,-0.749071,0.395025,-0.154913,-0.236341,-0.00922945,0.0028421,0.000550072,0.39881,0.48442130098956104,-0.009186989356219644,0.002846142595117618,-0.1435103111547481,0.0005502233173464433,-0.210488595363984
979,0.9696,706.923,1.75515,0.415065,99.8833,-67.4354,-0.749593,0.395361,-0.155045,-0.236545,-0.00921975,0.00283881,0.000550339,0.399159,0.4849201503486926,-0.009177378423403493,0.0028428432367360035,-0.14362336033226586,0.0005504904642916753,-0.21064963926349345
980,0.9706,707.088,1.75564,0.415226,99.9094,-67.4534,-0.750115,0.395698,-0.155177,-0.236749,-0.00921005,0.00283553,0.000550606,0.399508,0.48542065276928126,-0.009167767397360693,0.002839553917604709,-0.14373639458827703,0.0005507576113084056,-0.2108106503133983
981,0.9716,707.254,1.75614,0.415386,99.9355,-67.4714,-0.750637,0.396035,-0.155309,-0.236952,-0.00920035,0.00283224,0.000550873,0.399856,0.48592132388760967,-0.00915815627809069,0.002836254580899533,-0.14384941392475104,0.0005510247583964123,-0.21097083949163298
982,0.9726,707.419,1.75663,0.415545,99.9615,-67.4893,-0.751158,0.396371,-0.155441,-0.237156,-0.00919064,0.00282895,0.000551139,0.400205,0.48642067733911776,-0.009148535157077697,0.002832955255049452,-0.1439624183436572,0.0005512909050042758,-0.21113178502337426
983,0.9736,707.584,1.75713,0.415705,99.9875,-67.5072,-0.751678,0.396707,-0.155573,-0.237359,-0.00918093,0.00282567,0.000551405,0.400553,0.4869201986015763,-0.009138913942643101,0.0028296659683506586,-0.1440754078469646,0.0005515570516829715,-0.2112919090178792
984,0.9746,707.749,1.75762,0.415864,100.013,-67.5251,-0.752198,0.397044,-0.155705,-0.237563,-0.00917122,0.00282238,0.00055167,0.400901,0.48742137515201067,-0.009129292634786124,0.0028263666641770158,-0.1441883824366419,0.000551822197880858,-0.21145278905811749
985,0.9756,707.914,1.75811,0.416024,100.039,-67.543,-0.752717,0.39738,-0.155837,-0.237766,-0.00916151,0.00281908,0.000551935,0.401249,0.48792123270542787,-0.009119671233505766,0.002823057342627333,-0.1443013421146574,0.0005520873441489105,-0.211612847895417
986,0.9766,708.079,1.7586,0.416183,100.065,-67.5608,-0.753236,0.397716,-0.155969,-0.23797,-0.00915179,0.00281579,0.000552199,0.401598,0.48842125823920246,-0.009110039829901662,0.002819758060196076,-0.14441428688297964,0.0005523514899348214,-0.21177366247080198
987,0.9776,708.243,1.75909,0.416342,100.091,-67.5787,-0.753754,0.398052,-0.156101,-0.238173,-0.00914208,0.0028125,0.000552463,0.401945,0.48892145180978486,-0.009100418241675623,0.002816458788619247,-0.14452721674357627,0.0005526156357904544,-0.21193365617740978
988,0.9786,708.408,1.75958,0.4165,100.117,-67.5965,-0.754271,0.398387,-0.156233,-0.238376,-0.00913236,0.0028092,0.000552727,0.402293,0.4894203240525763,-0.009090786650931437,0.0028131494997656326,-0.14464013169841516,0.0005528797817158093,-0.21209361740859145
989,0.9796,708.572,1.76007,0.416659,100.143,-67.6143,-0.754788,0.398723,-0.156364,-0.238579,-0.00912264,0.00280591,0.00055299,0.402641,0.4899208533656736,-0.009081154966567806,0.0028098502499309674,-0.14475217650206773,0.0005531429271579125,-0.21225354617093894
990,0.9806,708.736,1.76056,0.416817,100.169,-67.6321,-0.755304,0.399059,-0.156496,-0.238782,-0.00911291,0.00280261,0.000553253,0.402989,0.49042155088487704,-0.009071513279298893,0.0028065409828854637,-0.14486506176417824,0.0005534060726690715,-0.21241344247104266
991,0.9816,708.9,1.76105,0.416975,100.194,-67.6498,-0.75582,0.399394,-0.156628,-0.238985,-0.00910319,0.00279931,0.000553515,0.403336,0.4909209257450424,-0.009061881407597117,0.0028032317267605578,-0.14497793212641763,0.0005536682176956464,-0.21257330631549187
992,0.9826,709.064,1.76154,0.417133,100.22,-67.6676,-0.756335,0.399729,-0.156759,-0.239188,-0.00909346,0.00279601,0.000553777,0.403683,0.4914204679238101,-0.009052239532795658,0.0027999224815560275,-0.1450899326811126,0.0005539303627910552,-0.21273313771087432
993,0.9836,709.227,1.76202,0.417291,100.246,-67.6853,-0.75685,0.400065,-0.156891,-0.23939,-0.00908373,0.00279271,0.000554038,0.404031,0.49192166939816495,-0.009042597564178134,0.002796613247272095,-0.14520277336234988,0.0005541915074009918,-0.21289214955631963
994,0.9846,709.391,1.76251,0.417448,100.272,-67.703,-0.757364,0.4004,-0.157022,-0.239593,-0.009074,0.00278941,0.000554299,0.404378,0.49242154688221706,-0.009032955501743878,0.0027933040239087603,-0.145314744464772,0.000554452652079096,-0.21305191623309339
995,0.9856,709.554,1.76299,0.417606,100.297,-67.7207,-0.757877,0.400735,-0.157154,-0.239796,-0.00906426,0.00278611,0.00055456,0.404725,0.4929215918532788,-0.009023303435724994,0.0027899948114655793,-0.1454275554728124,0.0005547137968253679,-0.21321165048052337
996,0.9866,709.717,1.76347,0.417763,100.323,-67.7384,-0.75839,0.40107,-0.157285,-0.239998,-0.00905453,0.0027828,0.00055482,0.405072,0.49342180436746763,-0.00901366118555802,0.0027866755820760147,-0.1455394971307068,0.0005549739410848353,-0.2133705656761512
997,0.9876,709.88,1.76395,0.41792,100.349,-67.756,-0.758902,0.401404,-0.157416,-0.240201,-0.00904479,0.0027795,0.00055508,0.405418,0.4939206905594826,-0.009004008931611462,0.002783366391506892,-0.14565142412520438,0.0005552340854118043,-0.21353023524430947
998,0.9886,710.043,1.76444,0.418077,100.374,-67.7737,-0.759414,0.401739,-0.157548,-0.240403,-0.00903505,0.00277619,0.000555339,0.405765,0.49442123782780634,-0.008994356583651664,0.0027800471840573326,-0.14576419069446256,0.0005554932292510806,-0.2136890860923143
999,0.9896,710.206,1.76492,0.418233,100.4,-67.7913,-0.759925,0.402073,-0.157679,-0.240606,-0.00902531,0.00277288,0.000555598,0.406112,0.49492045788634975,-0.008984704141677402,0.0027767279875945405,-0.14587608825603127,0.0005557523731571923,-0.21384869100739057
