,Time,S11,S22,S33,S12,S13,S23,LE11,LE22,LE33,LE12,LE13,LE23,SDV_EPBAR,E11,E12,E13,E22,E23,E33
0,1e-05,0.752145,-1.11022e-16,-1.11022e-16,0.0,3.06292e-18,-1.01995e-39,9.99995e-06,-2.99999e-06,-2.99999e-06,0.0,0.0,0.0,0.0,9.999999999621423e-06,0.0,0.0,-2.999985500018454e-06,0.0,-2.999985500018454e-06
1,2e-05,1.50428,8.32667e-17,-5.55112e-17,9.72908e-40,6.12579e-18,6.12591e-18,1.99998e-05,-5.99994e-06,-5.99994e-06,0.0,0.0,0.0,0.0,1.9999999997244444e-05,0.0,0.0,-5.999922000343716e-06,0.0,-5.999922000343716e-06
2,3.5e-05,2.63248,-1.94289e-16,-1.66533e-16,-2.27009e-39,-6.12591e-18,1.22518e-17,3.49994e-05,-1.04998e-05,-1.04998e-05,0.0,0.0,0.0,0.0,3.5000012486241516e-05,0.0,0.0,-1.0499744877323636e-05,0.0,-1.0499744877323636e-05
3,5.75e-05,4.32473,-1.47105e-15,-1.4988e-15,-2.27004e-39,-6.12573e-18,1.22518e-17,5.74983e-05,-1.72495e-05,-1.72495e-05,0.0,0.0,0.0,0.0,5.749995305892597e-05,0.0,0.0,-1.7249351228265652e-05,0.0,-1.7249351228265652e-05
4,9.125e-05,6.86305,-1.03528e-14,-1.03806e-14,-3.56723e-39,6.12582e-18,1.54074e-33,9.12458e-05,-2.73738e-05,-2.73738e-05,0.0,0.0,0.0,0.0,9.124996302456445e-05,0.0,0.0,-2.737342534098186e-05,0.0,-2.737342534098186e-05
5,0.00014188,10.6704,-5.66491e-14,-5.67879e-14,-7.45875e-39,-6.1256e-18,1.22518e-17,0.000141865,-4.25595e-05,-4.25595e-05,0.0,0.0,0.0,0.0,0.00014187506331508892,0.0,0.0,-4.255859435731146e-05,0.0,-4.255859435731146e-05
6,0.00021781,16.381,-2.88908e-13,-2.89047e-13,-2.04307e-38,1.83762e-17,-1.22518e-17,0.000217789,-6.53366e-05,-6.53366e-05,0.0,0.0,0.0,0.0,0.0002178127177461242,0.0,0.0,-6.533446561085565e-05,0.0,-6.533446561085565e-05
7,0.00033172,24.9461,-1.46219e-12,-1.46233e-12,-7.75062e-38,-3.06265e-17,3.67555e-17,0.000331664,-9.94991e-05,-9.94991e-05,0.0,0.0,0.0,0.0,0.0003317190065854625,0.0,0.0,-9.949415012866503e-05,0.0,-9.949415012866503e-05
8,0.00050258,37.7919,-7.40322e-12,-7.40424e-12,-1.0345e-37,1.83767e-17,-1.22518e-17,0.000502452,-0.000150736,-0.000150736,0.0,0.0,0.0,0.0,0.0005025782501502096,0.0,0.0,-0.00015072463989995732,0.0,-0.00015072463989995732
9,0.00075887,57.0565,-3.74463e-11,-3.74451e-11,-3.83627e-37,-7.96114e-17,8.57628e-17,0.000758579,-0.000227574,-0.000227574,0.0,0.0,0.0,0.0,0.0007588667938165372,0.0,0.0,-0.0002275481070015406,0.0,-0.0002275481070015406
10,0.0011433,85.9441,-1.89378e-10,-1.89377e-10,1.0396e-37,1.8394e-17,-4.0431e-16,0.00114265,-0.000342794,-0.000342794,0.0,0.0,0.0,0.0,0.0011433030732321825,0.0,0.0,-0.00034273525284966855,0.0,-0.00034273525284966855
11,0.00172,129.255,-9.57346e-10,-9.57346e-10,2.28245e-37,1.83803e-17,-1.22518e-17,0.00171847,-0.000515542,-0.000515542,0.0,0.0,0.0,0.0,0.001719947415747436,0.0,0.0,-0.0005154091310572984,0.0,-0.0005154091310572984
12,0.0025849,194.174,-4.83556e-09,-4.83556e-09,-2.119e-38,1.83597e-17,-7.96369e-16,0.00258159,-0.000774477,-0.000774477,0.0,0.0,0.0,0.0,0.0025849251728629064,0.0,0.0,-0.0007741771700969791,0.0,-0.0007741771700969791
13,0.0035849,269.158,-1.06427e-08,-1.06427e-08,2.27447e-37,1.83358e-17,-1.22518e-17,0.00357852,-0.00107355,-0.00107355,0.0,0.0,0.0,0.0,0.00358493054717135,0.0,0.0,-0.0010729739513561931,0.0,-0.0010729739513561931
14,0.0045849,328.08,0.0253284,0.0178975,-0.0018657,0.00272816,0.00230368,0.00457445,-0.00139241,-0.00143704,-7.10646e-08,1.00419e-07,8.75273e-08,0.0002121,0.004584928768509355,-7.10645974288937e-08,1.00419005111263e-07,-0.0013914410469747507,8.752730384919971e-08,-0.0014360079524429192
15,0.0055849,331.968,-0.17326,-0.0381039,0.0135472,-0.0386245,0.00307839,0.00556939,-0.00176301,-0.00204186,5.56016e-07,-1.60018e-06,3.96906e-07,0.00115229,0.0055849278846065165,5.560161546735998e-07,-1.6001787197517103e-06,-0.0017614568107667816,3.9690607867015615e-07,-0.002039776821964101
16,0.0065849,336.027,0.184658,0.0401486,-0.0100157,0.0355318,-0.00383343,0.00656334,-0.0021269,-0.00264784,-4.70885e-07,1.30124e-06,3.73701e-07,0.00209198,0.006584925915370743,-4.7088488908109127e-07,1.3012408466295255e-06,-0.002124639750920254,3.737010698667831e-07,-0.0026443375636462374
17,0.0075849,339.573,-0.23277,-0.0266614,0.0149459,-0.0547419,0.0157046,0.00755631,-0.00250032,-0.00325092,5.06104e-07,-2.2187e-06,1.41543e-06,0.00303378,0.0075849309545927834,5.061041281617662e-07,-2.2186975386917496e-06,-0.002497196803487922,1.4154310017389093e-06,-0.00324564148114026
18,0.0085849,343.467,0.310804,0.0408128,-0.0150967,0.0645532,-0.0170207,0.00854829,-0.00286162,-0.00385747,-8.0133e-07,2.46723e-06,3.77937e-07,0.00397435,0.00858493096240287,-8.013296789455282e-07,2.4672330436459333e-06,-0.002857529468267228,3.7793707141631216e-07,-0.003850039519954662
19,0.0095849,346.931,0.186323,0.00321182,-0.00491359,0.0394328,-0.0213173,0.00953928,-0.00323071,-0.00446165,-5.85091e-07,1.95267e-06,2.83351e-07,0.00491656,0.009584923952826285,-5.850908287863277e-07,1.9526719063911457e-06,-0.003225496871994027,2.833510401867301e-07,-0.004451711625648502
20,0.010585,350.296,-0.0266089,0.0260545,0.00160676,-0.0136319,0.0131075,0.0105293,-0.00360167,-0.00506365,-4.11495e-07,5.12746e-08,1.79323e-06,0.00585894,0.010584928149636852,-4.1149491536440763e-07,5.1274601231554584e-08,-0.003595191766425865,1.7932316078717037e-06,-0.005050851336102835
21,0.011585,353.684,0.124276,-0.000493741,-0.00112937,0.0235662,-0.0128182,0.0115183,-0.00396752,-0.005668,-5.90046e-07,1.56152e-06,1.00715e-06,0.00680129,0.011584891043720846,-5.900458259766594e-07,1.5615212192177097e-06,-0.003959659791139436,1.0071505072151155e-06,-0.005651967193617713
22,0.012585,356.86,-0.110888,0.0191077,0.00624163,-0.0331413,0.0196751,0.0125064,-0.00433881,-0.00626888,-3.27035e-07,-6.16459e-07,2.48719e-06,0.0077441,0.012584932063461896,-3.2703494656782794e-07,-6.164588099988322e-07,-0.004329410962351732,2.487193093037021e-06,-0.00624927156747257
23,0.013585,360.139,0.173295,0.00279383,-0.00352522,0.0347856,-0.0174798,0.0134935,-0.00470285,-0.0068729,-7.73951e-07,2.03753e-06,1.26762e-06,0.00868649,0.013584948126631247,-7.739507005277702e-07,2.0375320757271e-06,-0.0046918089159072585,1.2676208034356762e-06,-0.00684933563886625
24,0.014585,363.101,-0.187965,0.0154326,0.0102369,-0.0508839,0.0259372,0.0144796,-0.00507564,-0.00747219,-2.40131e-07,-1.27463e-06,3.16004e-06,0.00962963,0.014584937207563264,-2.401309712185551e-07,-1.2746291876419846e-06,-0.005062780704878644,3.1600449930113683e-06,-0.007444342591844788
25,0.015585,366.299,0.261395,0.00609029,-0.00771381,0.0551252,-0.0258395,0.0154647,-0.00543736,-0.00807611,-1.01599e-06,2.84369e-06,1.36436e-06,0.0105718,0.015584897278674292,-1.0159894838768224e-06,2.84369404335294e-06,-0.0054226043142207025,1.3643609306779325e-06,-0.008043585838762968
26,0.016585,369.037,-0.29515,0.0124262,0.0155086,-0.0759043,0.0359033,0.0164489,-0.0058125,-0.00867336,-9.2126e-08,-2.22035e-06,3.95284e-06,0.0115152,0.016584927968955387,-9.21259957209486e-08,-2.220347535053513e-06,-0.0057956401037404515,3.952847812405125e-06,-0.00863585492315988
27,0.017585,371.964,-0.184145,0.000233033,0.0116248,-0.047344,0.01726,0.0174321,-0.00617905,-0.00927378,-1.5161e-07,-1.547e-06,3.61709e-06,0.0124576,0.0175849257885059,-1.51609988452428e-07,-1.5469988033922633e-06,-0.006159998929917032,3.617096541619347e-06,-0.009230911123448315
28,0.018585,374.896,0.0579804,0.0145573,-0.000754954,0.00818716,-0.00236196,0.0184143,-0.00654353,-0.00987444,-6.48045e-07,4.69113e-07,3.09792e-06,0.0133996,0.01858488870401298,-6.480447900525377e-07,4.6911311013531076e-07,-0.006522167727855965,3.0979247984674885e-06,-0.009825847789156739
29,0.019585,377.592,-0.10676,0.00435966,0.00790742,-0.0297872,0.0117006,0.0193956,-0.00691304,-0.0104727,-3.15947e-07,-1.0282e-06,3.84277e-06,0.0143421,0.0195849166387565,-3.159469500468859e-07,-1.0281994714533838e-06,-0.006889199906452537,3.842777383411544e-06,-0.010418052213685636
30,0.020585,380.405,0.134927,0.0144398,-0.00408387,0.0260149,-0.00991866,0.0203759,-0.00727709,-0.0110725,-8.34409e-07,1.12415e-06,3.19273e-06,0.0152838,0.020584905797141895,-8.34408651839702e-07,1.1241506319148442e-06,-0.007250676091531738,3.1927350967464463e-06,-0.011011425495531246
31,0.021585,382.947,-0.140681,0.00640629,0.00935173,-0.0381702,0.0160232,0.0213553,-0.00764775,-0.0116691,-3.20119e-07,-1.3387e-06,4.37145e-06,0.016226,0.021584956298670743,-3.2011894879335756e-07,-1.3386991039032736e-06,-0.007618580368019878,4.371459554786128e-06,-0.011601280107954137
32,0.022585,385.689,0.194415,0.0135467,-0.00659516,0.0401188,-0.0167616,0.0223337,-0.00801023,-0.0122684,-1.00079e-06,1.68876e-06,3.28091e-06,0.017167,0.022584964143978592,-1.0007894991614918e-06,1.6887614260330253e-06,-0.007978233597518813,3.280915382264382e-06,-0.01219344999935379
33,0.023585,388.082,-0.203615,0.00777014,0.0122259,-0.053281,0.0229431,0.0233111,-0.00838221,-0.0128632,-2.67817e-07,-1.88989e-06,4.97698e-06,0.0181087,0.023584927290316138,-2.6781696416122713e-07,-1.8898882141460405e-06,-0.008347177230104807,4.976992385108403e-06,-0.012780822633355782
34,0.024585,390.781,0.270457,0.0122764,-0.00988745,0.0582112,-0.02544,0.0242876,-0.00874252,-0.0134624,-1.19521e-06,2.40927e-06,3.2816e-06,0.019049,0.024584946151559928,-1.1952092857647756e-06,2.4092729022928694e-06,-0.008704415296588275,3.281605384541919e-06,-0.013372187173923855
35,0.025585,393.017,-0.290794,0.00906799,0.0162514,-0.0741562,0.0324088,0.0252631,-0.00911635,-0.014055,-1.6505e-07,-2.66064e-06,5.66378e-06,0.0199902,0.025584916422732862,-1.6504998634481183e-07,-2.66063646048309e-06,-0.009074922067430102,5.663796039279134e-06,-0.013956689610627349
36,0.026585,395.699,0.372025,0.0106362,-0.014404,0.0824467,-0.0368859,0.0262377,-0.00947381,-0.0146542,-1.43386e-06,3.36214e-06,3.16263e-06,0.0209295,0.026584938713985595,-1.4338589719997685e-06,3.3621456521082393e-06,-0.009429074844291008,3.1626350012192717e-06,-0.014547349782752517
37,0.027585,397.989,0.183675,-0.00833729,-0.00306039,0.0399074,-0.0275945,0.0272113,-0.0098417,-0.0152488,-1.12516e-06,2.19487e-06,3.44168e-06,0.0218696,0.027584908516628426,-1.1251593670102977e-06,2.1948724087117455e-06,-0.009793428956719974,3.441685922478399e-06,-0.015133125760115274
38,0.028585,400.273,0.00786645,0.0246724,0.00139297,-0.00605654,0.00657477,0.028184,-0.0102099,-0.0158418,-1.00609e-06,5.91415e-07,4.81501e-06,0.022809,0.028584926637108543,-1.0060894939378784e-06,5.914151748331875e-07,-0.010157955902649007,4.815021592108337e-06,-0.015716978687037364
39,0.029585,402.585,0.0873386,-0.00138127,0.00123045,0.0148532,-0.0114054,0.0291557,-0.0105744,-0.0164364,-1.04786e-06,1.44536e-06,4.25978e-06,0.0237479,0.029584888363045847,-1.0478594509866213e-06,1.4453610446274467e-06,-0.010518687580380326,4.259789072813547e-06,-0.016302059409773362
40,0.030585,404.801,-0.0519477,0.0202669,0.00486706,-0.0201786,0.0114271,0.0301265,-0.0109418,-0.0170284,-9.19022e-07,1.24121e-07,5.26917e-06,0.0246864,0.030584894697205156,-9.190215777277189e-07,1.2412100769410017e-07,-0.01088215624128186,5.2691838821061765e-06,-0.016884236249255613
41,0.031585,407.072,0.0976878,0.00226663,0.000286082,0.0170753,-0.0116209,0.0310964,-0.011305,-0.0176222,-1.1224e-06,1.55699e-06,4.5338e-06,0.0256243,0.03158494388202815,-1.1223993701126034e-06,1.5569912121815577e-06,-0.011241338610668228,4.53381027765154e-06,-0.01746783710152966
42,0.032585,409.196,-0.0821885,0.017467,0.00676135,-0.0270654,0.0131022,0.0320653,-0.0116726,-0.018213,-8.74833e-07,-1.25107e-07,5.61474e-06,0.026562,0.03258493089963643,-8.748326173479981e-07,-1.2510699221035537e-07,-0.011604739497419803,5.614755762772816e-06,-0.018048145663341453
43,0.033585,411.424,0.125049,0.00427697,-0.00126907,0.0234022,-0.0138697,0.0330333,-0.0120347,-0.0188059,-1.21251e-06,1.80554e-06,4.7255e-06,0.0274988,0.033584957047315456,-1.2125092648807012e-06,1.805541629984475e-06,-0.011962572631649016,4.725511165259988e-06,-0.018630172358913732
44,0.034585,413.456,-0.114576,0.0158435,0.00860965,-0.0346663,0.0156649,0.0340003,-0.0124027,-0.0193953,-8.27654e-07,-4.081e-07,5.98498e-06,0.0284355,0.034584917103546386,-8.276536574980398e-07,-4.080999167488386e-07,-0.012326103511136166,5.984997909935785e-06,-0.019208421308619994
45,0.035585,415.649,0.160324,0.00521374,-0.00308905,0.0317242,-0.0173263,0.0349664,-0.0127635,-0.0199874,-1.30962e-06,2.12656e-06,4.86201e-06,0.0293712,0.03558491256198759,-1.3096191424644132e-06,2.126562261173248e-06,-0.012682391974685459,4.862021819596052e-06,-0.01978897611215258
46,0.036585,417.588,-0.153788,0.0152085,0.010668,-0.0439868,0.0193164,0.0359316,-0.013132,-0.0205752,-7.69379e-07,-7.57635e-07,6.38652e-06,0.030307,0.03658494165599668,-7.693787040796707e-07,-7.576347129667482e-07,-0.013046151486436508,6.386540393865658e-06,-0.0203649748493806
47,0.037585,419.754,0.203592,0.00527212,-0.00520819,0.0420574,-0.0219424,0.0368958,-0.0134913,-0.0211667,-1.41596e-06,2.52244e-06,4.94522e-06,0.0312415,0.03758489885863869,-1.4159589974971354e-06,2.522443181440792e-06,-0.013400700305697733,4.945232227715479e-06,-0.02094425762698604
48,0.038585,421.599,-0.201405,0.0153571,0.0130439,-0.0553953,0.0241526,0.0378591,-0.0138606,-0.0217529,-6.96264e-07,-1.18681e-06,6.82331e-06,0.0321764,0.03858488595816789,-6.962637576490849e-07,-1.1868092957278975e-06,-0.013764984157921378,6.823333278838106e-06,-0.021518011919352098
49,0.039585,423.748,0.255936,0.00457089,-0.00770276,0.0546513,-0.027775,0.0388215,-0.0142182,-0.0223438,-1.53483e-06,3.00277e-06,4.97359e-06,0.0331096,0.0395849011825542,-1.5348288221472828e-06,3.0027745083760493e-06,-0.014117598748340177,4.973602368396612e-06,-0.02209602613499051
50,0.040585,425.496,-0.258635,0.0161849,0.0158145,-0.0691718,0.0302546,0.039783,-0.0145885,-0.0229283,-6.0559e-07,-1.7059e-06,7.29888e-06,0.0340434,0.04058494275798519,-6.055898166268392e-07,-1.7058985449791564e-06,-0.01448260341673846,7.29890663686561e-06,-0.022667443994576875
51,0.041585,427.639,0.318495,0.0031727,-0.0106456,0.0697786,-0.0349139,0.0407435,-0.014944,-0.0235188,-1.66933e-06,3.57787e-06,4.94437e-06,0.0349754,0.04158490475037402,-1.6693286066793434e-06,3.5778764004845698e-06,-0.014832892583635182,4.944382223426302e-06,-0.02324438850926558
52,0.042585,429.284,-0.326565,0.0176439,0.0190436,-0.0855726,0.0377138,0.0417031,-0.0153156,-0.0241013,-4.95178e-07,-2.32427e-06,7.81709e-06,0.0359082,0.042584889340844256,-4.951778773687465e-07,-2.3242672988477153e-06,-0.01519891267000717,7.817120553532675e-06,-0.023813182975487623
53,0.043585,431.432,0.392315,0.00109175,-0.0141008,0.0876966,-0.0434565,0.0426618,-0.0156689,-0.0246915,-1.82222e-06,4.25746e-06,4.85447e-06,0.0368388,0.04358489475025573,-1.822218339775361e-06,4.257469063073671e-06,-0.01554678143952437,4.8544817830009634e-06,-0.024389158447814197
54,0.044585,433.182,0.169359,-0.0108139,-0.00145647,0.0358106,-0.0278918,0.0436196,-0.0160337,-0.0252763,-1.43936e-06,2.70935e-06,5.33417e-06,0.03777,0.04458491919770524,-1.4393589641281679e-06,2.7093536703048926e-06,-0.01590584447657528,5.334184226768457e-06,-0.024959528875385772
55,0.045585,434.967,0.0274583,0.0216146,0.0017534,-0.00217403,0.00217031,0.0445765,-0.0163979,-0.0258599,-1.35152e-06,1.40329e-06,6.50367e-06,0.0387003,0.0455849609005301,-1.3515190866453253e-06,1.403290984525185e-06,-0.016264186310008144,6.503691148962432e-06,-0.025528396482620508
56,0.046585,436.768,0.0616472,-0.000503319,0.00313403,0.0077471,-0.00957309,0.0455324,-0.0167594,-0.0264447,-1.31335e-06,1.81894e-06,6.15303e-06,0.03963,0.04658491341581783,-1.3133491375549866e-06,1.818941654185835e-06,-0.016619742535997073,6.1530489299244095e-06,-0.026098100878555908
57,0.047585,438.525,-0.0204461,0.0179789,0.00465361,-0.013543,0.00598096,0.0464874,-0.0171224,-0.0270276,-1.25551e-06,1.02025e-06,6.84199e-06,0.0405591,0.04758487941589551,-1.255509211817163e-06,1.0202505205114676e-06,-0.016976644787778827,6.842013406505032e-06,-0.026665622875198913
58,0.048585,440.305,0.057946,0.00334869,0.00277874,0.0066276,-0.00813093,0.0474416,-0.0174829,-0.0276113,-1.33297e-06,1.78335e-06,6.41639e-06,0.0414874,0.048584961971340324,-1.3329691116448217e-06,1.7833515901788388e-06,-0.01733096083802743,6.4164105850750275e-06,-0.027233592373102744
59,0.049585,442.011,-0.034082,0.015401,0.00571169,-0.0165005,0.00607869,0.0483948,-0.0178456,-0.0281931,-1.21574e-06,9.02934e-07,7.05665e-06,0.0424152,0.0495849496755163,-1.2157392610401274e-06,9.029344076871837e-07,-0.0176873102706554,7.0566748981981675e-06,-0.02779938326453013
60,0.050585,443.761,0.0660665,0.00518698,0.00210428,0.00843157,-0.00836733,0.0493471,-0.0182054,-0.0287758,-1.35908e-06,1.84143e-06,6.61606e-06,0.0433422,0.05058494549552939,-1.3590790765016791e-06,1.841431695348561e-06,-0.018040682800889662,6.616081886123837e-06,-0.028365719545801915
61,0.051585,445.418,-0.0444317,0.0139242,0.00645172,-0.0188422,0.0064406,0.0502985,-0.0185678,-0.0293564,-1.18563e-06,8.03331e-07,7.27653e-06,0.0442688,0.051584947638262824,-1.185629297184576e-06,8.033313225741523e-07,-0.01839648038302666,7.276556474034024e-06,-0.028929686673533905
62,0.052585,447.139,0.0760114,0.00605501,0.00146516,0.0107609,-0.00915593,0.051249,-0.0189269,-0.029938,-1.38219e-06,1.91718e-06,6.78949e-06,0.0451945,0.05258495430887522,-1.3821890447740515e-06,1.917181837729487e-06,-0.018748910924230255,6.7895130486661515e-06,-0.029494296963176958
63,0.053585,448.749,-0.0550325,0.0132337,0.00709843,-0.0213121,0.00713246,0.0521986,-0.019289,-0.0305174,-1.15798e-06,6.98145e-07,7.50274e-06,0.0461198,0.05358496371080523,-1.1579793295357632e-06,6.981452436161106e-07,-0.019104157622288342,7.502768145650762e-06,-0.030056445097475626
64,0.054585,450.441,0.086776,0.00631824,0.00086276,0.013348,-0.0102642,0.0531473,-0.0196473,-0.031098,-1.40285e-06,2.00214e-06,6.94504e-06,0.0470441,0.05458497404577667,-1.4028490159523344e-06,2.002142004187135e-06,-0.019455549646971715,6.945064116914423e-06,-0.03061943087486585
65,0.055585,452.006,-0.0662967,0.0130289,0.00771388,-0.0239878,0.00808859,0.054095,-0.0200093,-0.0316762,-1.13063e-06,5.85026e-07,7.7329e-06,0.0479681,0.055584877955309864,-1.1306293608015494e-06,5.85026171062708e-07,-0.019810442498517933,7.73292989886265e-06,-0.031179764711811053
66,0.056585,453.672,0.0982555,0.00619395,0.000271836,0.0161459,-0.0115921,0.0550419,-0.0203668,-0.0322558,-1.42216e-06,2.09471e-06,7.08669e-06,0.0488911,0.0565848846546988,-1.4221589886842523e-06,2.0947121939229874e-06,-0.020160797635612404,7.0867151107378845e-06,-0.03174113022074443
67,0.057585,455.193,-0.0782396,0.0131338,0.00832344,-0.0268567,0.00923961,0.0559879,-0.0207287,-0.0328327,-1.10269e-06,4.64543e-07,7.96466e-06,0.0498138,0.057584886882059205,-1.1026893920185188e-06,4.6454310798083043e-07,-0.020515337285129,7.964691717932126e-06,-0.032299557668834966
68,0.058585,456.835,0.110382,0.0058189,-0.000323273,0.019126,-0.0130791,0.056933,-0.0210854,-0.0334113,-1.4408e-06,2.19386e-06,7.21697e-06,0.0507354,0.05858488283230345,-1.440798962026868e-06,2.1938624064077317e-06,-0.02086465715941599,7.216996042336277e-06,-0.032859307193614296
69,0.059585,458.313,-0.0907807,0.0134414,0.00893809,-0.0298893,0.0105342,0.0578773,-0.021447,-0.033987,-1.07381e-06,3.37836e-07,8.19635e-06,0.0516568,0.059584976657145905,-1.0738094234907791e-06,3.3783605712933706e-07,-0.021218648493896763,8.196383590064471e-06,-0.03341592985125741
70,0.060585,459.932,0.123045,0.00527732,-0.000928736,0.0222541,-0.0146805,0.0588206,-0.0218029,-0.0345646,-1.45907e-06,2.29831e-06,7.3378e-06,0.052577,0.060584954731135676,-1.4590689355609143e-06,2.2983126410913712e-06,-0.021566934795674064,7.337826921638424e-06,-0.03397406760447497
71,0.061585,461.37,-0.103787,0.0138852,0.00956032,-0.0330474,0.011932,0.059763,-0.0221643,-0.035139,-1.04395e-06,2.06376e-07,8.42669e-06,0.053497,0.06158492110262115,-1.0439494551039985e-06,2.0637602138329214e-07,-0.021920476616583806,8.42672550471768e-06,-0.03452879356749439
72,0.062585,462.968,0.13609,0.00462241,-0.00154409,0.0254883,-0.0163596,0.0607045,-0.0225194,-0.0357157,-1.477e-06,2.40651e-06,7.45078e-06,0.0544158,0.06258487395978163,-1.4769989092888736e-06,2.4065128956252124e-06,-0.02226773099667312,7.450807757214406e-06,-0.03508542029350048
73,0.063585,464.365,-0.117084,0.0144226,0.0101871,-0.0362853,0.013398,0.0616452,-0.0228807,-0.0362889,-1.01331e-06,7.19114e-08,8.65458e-06,0.0553345,0.063584917847612,-1.0133094866526804e-06,7.191140261042506e-08,-0.022620921857692933,8.654617450920554e-06,-0.03563835084555289
74,0.064585,465.943,0.149328,0.00388957,-0.00216442,0.02878,-0.0180831,0.062585,-0.0232349,-0.0368646,-1.49447e-06,2.51665e-06,7.55737e-06,0.0562519,0.06458494479246268,-1.4944688833118391e-06,2.5166531667508707e-06,-0.02296704822457274,7.557398556956585e-06,-0.03619337406820722
75,0.065585,467.302,-0.130468,0.0150242,0.010812,-0.0395507,0.0148994,0.0635239,-0.0235961,-0.0374365,-9.82185e-07,-6.3569e-08,8.87901e-06,0.0571693,0.06558495297750899,-9.821845176061217e-07,-6.356899795445514e-08,-0.023319888799909982,8.879049418597518e-06,-0.03674441749169155
76,0.066585,468.862,0.162542,0.00310447,-0.00278189,0.0320745,-0.0198191,0.0644619,-0.0239494,-0.0380113,-1.51122e-06,2.62671e-06,7.65896e-06,0.0580853,0.06658494058427,-1.5112188580523878e-06,2.6267134498603184e-06,-0.02366488893533436,7.658989329861754e-06,-0.03729793770356837
77,0.067585,470.183,-0.143711,0.0156677,0.0114258,-0.0427866,0.0164037,0.065399,-0.0243104,-0.0385819,-9.50991e-07,-1.97894e-07,9.09894e-06,0.0590013,0.06758490579261278,-9.509905477544933e-07,-1.9789398042480144e-07,-0.02401728229959954,9.098981395450068e-06,-0.037847098809751234
78,0.068585,471.726,0.175495,0.00228772,-0.00338677,0.0353131,-0.0215356,0.0663353,-0.0246629,-0.0391558,-1.52692e-06,2.7345e-06,7.75694e-06,0.0599158,0.06858495363924755,-1.5269188342603712e-06,2.73450373877715e-06,-0.024361255578736696,7.756970085148751e-06,-0.03839911994212919
79,0.069585,473.011,-0.15657,0.0163344,0.0120184,-0.0459325,0.0178788,0.0672707,-0.0250237,-0.0397251,-9.20181e-07,-3.28776e-07,9.31335e-06,0.0608304,0.06958497564225641,-9.201805766245741e-07,-3.2877594591251835e-07,-0.024713202542673618,9.3133933694034e-06,-0.038946403524093176
80,0.070585,474.537,0.187942,0.00145757,-0.00396831,0.0384344,-0.0232006,0.0682052,-0.0253753,-0.040298,-1.54121e-06,2.83777e-06,7.85267e-06,0.0617436,0.07058496997657304,-1.5412088123500922e-06,2.8377740264318163e-06,-0.025056053103998943,7.852700832255977e-06,-0.03949683344380883
81,0.071585,475.788,-0.168797,0.0170072,0.0125788,-0.0489267,0.0192924,0.0691388,-0.025736,-0.0408661,-8.9023e-07,-4.53879e-07,9.52122e-06,0.0626568,0.07158493481549844,-8.902296037005542e-07,-4.538788970220864e-07,-0.025407651970976608,9.521265327050443e-06,-0.04004234032682796
82,0.072585,477.297,0.199633,0.000631166,-0.00451534,0.0413768,-0.0247826,0.0700716,-0.0260868,-0.0414381,-1.55371e-06,2.93424e-06,7.94748e-06,0.0635685,0.07258497558919874,-1.5537087929562432e-06,2.9342443048641087e-06,-0.025749479006697662,7.947511581285482e-06,-0.0405912790967059
83,0.073585,478.515,-0.180148,0.0176698,0.0130958,-0.0517083,0.0206133,0.0710034,-0.0264472,-0.0420049,-8.61612e-07,-5.70903e-07,9.72154e-06,0.0644803,0.07358487605073072,-8.616116288218123e-07,-5.709028370048941e-07,-0.02610053563026027,9.72158725431882e-06,-0.041134917877929
84,0.074585,480.009,0.210329,-0.00017486,-0.00501683,0.0440805,-0.0262509,0.0719345,-0.0267972,-0.042576,-1.56403e-06,3.0217e-06,8.04267e-06,0.0653906,0.0745849564439971,-1.5640287769347339e-06,3.021704565231431e-06,-0.02644134079840621,8.042702342336838e-06,-0.041682369386671136
85,0.075585,481.196,-0.190389,0.0183061,0.0135589,-0.0542193,0.0218115,0.0728646,-0.0271574,-0.0431416,-8.34777e-07,-6.77661e-07,9.91333e-06,0.066301,0.07558489286033021,-8.347766515814925e-07,-6.776607703873339e-07,-0.0267919534783162,9.913379137138634e-06,-0.042224240582926176
86,0.076585,482.673,0.219804,-0.000944376,-0.00546243,0.0464893,-0.0275769,0.0737939,-0.0275066,-0.0437117,-1.57183e-06,3.09809e-06,8.13942e-06,0.0672098,0.07658489848191041,-1.5718287647015217e-06,3.098094799147688e-06,-0.027131738398261662,8.13945312527764e-06,-0.0427701129276733
87,0.077585,483.831,-0.199308,0.0189008,0.0139586,-0.0564067,0.0228594,0.0747224,-0.0278666,-0.0442761,-8.10138e-07,-7.72156e-07,1.00957e-05,0.0681188,0.07758497177232804,-8.101376718361308e-07,-7.721557019335634e-07,-0.027481907938139316,1.009575096166948e-05,-0.043310221043089236
88,0.078585,485.292,0.227857,-0.00166197,-0.00584279,0.0485529,-0.0287346,0.0756499,-0.028215,-0.0448452,-1.57679e-06,3.16156e-06,8.23885e-06,0.0690262,0.0785848954765822,-1.5767887568962635e-06,3.1615649978000704e-06,-0.027820674224899866,8.238883939526431e-06,-0.0438545183018183
89,0.079585,486.422,-0.206719,0.0194393,0.0142864,-0.0582242,0.0237328,0.0765766,-0.0285746,-0.0454084,-7.88047e-07,-8.52651e-07,1.0268e-05,0.0699338,0.07958488337204805,-7.880466894594207e-07,-8.526506365402753e-07,-0.028170207060678076,1.0268052716089215e-05,-0.04439286782365526
90,0.080585,487.866,0.23432,-0.00231332,-0.00615003,0.0502284,-0.0297017,0.0775025,-0.0289224,-0.0459765,-1.57865e-06,3.21055e-06,8.34189e-06,0.0708397,0.08058493391751775,-1.5786487539415361e-06,3.210555153732031e-06,-0.028508150690858547,8.341924793597855e-06,-0.044935594059460904
91,0.081585,488.971,-0.212472,0.0199082,0.0145357,-0.0596341,0.0244115,0.0784275,-0.0292817,-0.0465386,-7.68792e-07,-9.1773e-07,1.04294e-05,0.0717459,0.08158493741170525,-7.687917045196002e-07,-9.177295788864726e-07,-0.02885714501173109,1.0429454386340353e-05,-0.04547228491094535
92,0.082585,490.398,0.23906,-0.00288561,-0.00637794,0.0514821,-0.0304603,0.0793516,-0.0296288,-0.0471057,-1.57719e-06,3.24383e-06,8.44932e-06,0.0726504,0.08258489201022945,-1.5771887562632259e-06,3.243835261290684e-06,-0.02919417020259185,8.449355695550054e-06,-0.04601344411797603
93,0.083585,491.48,-0.216457,0.0202957,0.0147016,-0.0606084,0.0248798,0.0802749,-0.0299876,-0.0476666,-7.52582e-07,-9.66348e-07,1.05797e-05,0.0735552,0.0835849042256207,-7.52581716834122e-07,-9.66347533104539e-07,-0.029542432852267653,1.0579755965300919e-05,-0.04654838513893611
94,0.084585,492.889,0.241987,-0.00336794,-0.00652224,0.0522906,-0.0309973,0.0811974,-0.0303341,-0.0482327,-1.5723e-06,3.26055e-06,8.56172e-06,0.0744582,0.08458497251034314,-1.5722987639632535e-06,3.260555315520719e-06,-0.02987863814835301,8.561756651648267e-06,-0.04708798135099079
95,0.085585,493.95,-0.218604,0.0205922,0.0147814,-0.0611296,0.0251275,0.0821189,-0.0306925,-0.0487925,-7.39541e-07,-9.97858e-07,1.07184e-05,0.0753615,0.08558487819830018,-7.395407265464726e-07,-9.978575021829528e-07,-0.030226267345567437,1.07184574422714e-05,-0.04762127221699042
96,0.086585,495.341,0.243054,-0.00375168,-0.00658069,0.0526409,-0.0313053,0.0830397,-0.0310384,-0.0493575,-1.56391e-06,3.26025e-06,8.67947e-06,0.0762631,0.0865849451142926,-1.5639087771468496e-06,3.2602553146077184e-06,-0.03056165407121436,8.679507666808917e-06,-0.048159214215262924
97,0.087585,496.382,-0.21889,0.0207901,0.0147742,-0.0611912,0.0251496,0.0839596,-0.0313963,-0.0499162,-7.2971e-07,-1.01203e-06,1.08457e-05,0.077165,0.08758495448909653,-7.297097337488623e-07,-1.0120294878790403e-06,-0.030908553973781783,1.0845758814825857e-05,-0.04869085913344373
98,0.088585,497.754,0.24226,-0.00403076,-0.00655314,0.0525316,-0.0313819,0.0848786,-0.0317417,-0.0504802,-1.55204e-06,3.24292e-06,8.80275e-06,0.0780651,0.0885849044689111,-1.5520387955936243e-06,3.2429252583288104e-06,-0.03124322035902738,8.802788744377565e-06,-0.04922724621351737
99,0.089585,498.778,-0.217337,0.0208845,0.0146815,-0.060798,0.0249469,0.0857968,-0.032099,-0.0510379,-7.23045e-07,-1.00905e-06,1.09615e-05,0.0789656,0.08958490215687553,-7.230447386374905e-07,-1.0090494909631431e-06,-0.03158929532641841,1.0961560077404897e-05,-0.04975734434669998
100,0.090585,500.13,0.239647,-0.00420179,-0.00644148,0.0519718,-0.0312307,0.0867142,-0.032444,-0.0516007,-1.53679e-06,3.2089e-06,8.93151e-06,0.0798643,0.09058494599608502,-1.5367888190898071e-06,3.2089051484884834e-06,-0.03192333939361591,8.931549886126433e-06,-0.05029199044977606
101,0.091585,501.138,-0.214008,0.0208732,0.0145066,-0.0599651,0.0245252,0.0876307,-0.0328007,-0.0521574,-7.19422e-07,-9.89512e-07,1.10663e-05,0.0807632,0.09158492526959638,-7.194217411798931e-07,-9.895115103963903e-07,-0.0322685907592124,1.106636123182625e-05,-0.050820545761671054
102,0.092585,502.469,0.2353,-0.00426414,-0.00624956,0.0509813,-0.0308602,0.0885464,-0.0331452,-0.0527192,-1.51832e-06,3.15894e-06,9.06551e-06,0.0816605,0.09258494737590994,-1.5183188473155695e-06,3.1589449893676402e-06,-0.0326019168109869,9.065551091813617e-06,-0.05135364501745987
103,0.093585,503.464,-0.209005,0.0207566,0.0142546,-0.0587175,0.0238956,0.0894612,-0.0335013,-0.0532748,-7.18642e-07,-9.54359e-07,1.11605e-05,0.082558,0.09358490139500275,-7.186417417814894e-07,-9.543585446358804e-07,-0.03294634593916457,1.1160562278567099e-05,-0.05188056653993445
104,0.094585,504.775,0.229339,-0.0042199,-0.00598294,0.0495889,-0.0302838,0.0903752,-0.0338454,-0.0538355,-1.49685e-06,3.09413e-06,9.20435e-06,0.0834539,0.09458489492230382,-1.496848879734003e-06,3.0941347868296276e-06,-0.033279051856190955,9.204392360073754e-06,-0.052412028097104435
105,0.095585,505.758,-0.202466,0.0205376,0.0139321,-0.0570888,0.0230735,0.0912884,-0.0342008,-0.0543901,-7.20447e-07,-9.04869e-07,1.12448e-05,0.0843499,0.0955849263932198,-7.204467404875459e-07,-9.048685906121179e-07,-0.03362256343553793,1.1244863223014434e-05,-0.052937414683154826
106,0.096585,507.046,0.221918,-0.00407367,-0.00564869,0.0478316,-0.0295191,0.0922007,-0.0345446,-0.0549496,-1.47267e-06,3.01586e-06,9.34744e-06,0.0852443,0.09658488458314207,-1.472668915591946e-06,3.015864547650793e-06,-0.03395474689262057,9.347483687527358e-06,-0.05346714799292718
107,0.097585,508.019,-0.194557,0.0202219,0.0135472,-0.0551198,0.0220782,0.0931122,-0.0348992,-0.0555033,-7.24523e-07,-8.42589e-07,1.13201e-05,0.0861389,0.09758487738292243,-7.245227375829444e-07,-8.425886449670017e-07,-0.03429724581072546,1.1320164072570194e-05,-0.05399109816409242
108,0.098585,509.285,0.213216,-0.00383235,-0.00525508,0.045753,-0.028587,0.0940229,-0.0352427,-0.0560617,-1.4461e-06,2.92574e-06,9.49408e-06,0.0870319,0.0985849032234054,-1.4460989543607639e-06,2.9257442799579536e-06,-0.03462890774059191,9.494125069009485e-06,-0.054519202074543416
109,0.099585,510.248,-0.185467,0.0198169,0.0131088,-0.0528567,0.0209319,0.0949328,-0.0355966,-0.0566145,-7.3052e-07,-7.69269e-07,1.13873e-05,0.087925,0.09958496053392452,-7.305197331497482e-07,-7.692687040705692e-07,-0.03497049212322079,1.1387364835524494e-05,-0.05504171942253544
110,0.1006,511.492,0.203431,-0.00350475,-0.00481128,0.0434014,-0.0275113,0.0958418,-0.0359398,-0.0571717,-1.41749e-06,2.82558e-06,9.64347e-06,0.0888165,0.10058493768380927,-1.417488995403282e-06,2.825583991894476e-06,-0.035301633423226675,9.643516498458737e-06,-0.055568103512246836
111,0.1016,512.448,-0.175398,0.0193319,0.0126264,-0.0503497,0.019659,0.09675,-0.0362929,-0.0577235,-7.38062e-07,-6.86805e-07,1.14474e-05,0.0897082,0.10158494295787279,-7.380617276231405e-07,-6.868047641717112e-07,-0.03564220828443465,1.1447465521730038e-05,-0.05608909727732947
112,0.1026,513.668,0.192772,-0.00310126,-0.00432701,0.0408283,-0.0263172,0.0976574,-0.0366359,-0.0582796,-1.38722e-06,2.71729e-06,9.79474e-06,0.0905983,0.1025849747809342,-1.3872190378627636e-06,2.717293691834044e-06,-0.03597292628561355,9.794787968697705e-06,-0.05661386020647763
113,0.1036,514.618,-0.164563,0.0187777,0.0121099,-0.0476512,0.0182852,0.0985639,-0.0369882,-0.0588305,-7.46761e-07,-5.9717e-07,1.15013e-05,0.0914885,0.10358492121782081,-7.467607211486538e-07,-5.97169821703325e-07,-0.03631249320545804,1.1501366140143077e-05,-0.05713342850266234
114,0.1046,515.815,0.181454,-0.0026334,-0.0038122,0.0380865,-0.025031,0.0994696,-0.0373309,-0.0593854,-1.35567e-06,2.60282e-06,9.94699e-06,0.0923772,0.10458489084885958,-1.3556690811045158e-06,2.602823387265474e-06,-0.03664269233118467,9.94703947143627e-06,-0.05765648002911894
115,0.1056,516.759,-0.153175,0.0181661,0.0115693,-0.0448138,0.0168368,0.100375,-0.0376823,-0.0599354,-7.56229e-07,-5.02348e-07,1.15502e-05,0.0932659,0.10558543488697048,-7.56228714093865e-07,-5.023478738541698e-07,-0.03698115661744161,1.1550266703741485e-05,-0.058174626461772405
116,0.1066,517.934,0.169688,-0.0021134,-0.00327675,0.0352286,-0.0236791,0.101279,-0.0380248,-0.0604891,-1.32321e-06,2.48413e-06,1.00993e-05,0.0941532,0.10658533600732012,-1.3232091246040412e-06,2.4841330854563637e-06,-0.03731093409368358,1.0099350998160617e-05,-0.058695970823594346
117,0.1076,518.872,-0.141441,0.0175093,0.0110142,-0.0418891,0.0153394,0.102182,-0.0383754,-0.0610382,-7.66089e-07,-4.04282e-07,1.15951e-05,0.0950404,0.10758503386138552,-7.660887065830124e-07,-4.042819182759061e-07,-0.03764839372006101,1.159516722348819e-05,-0.059212698985315004
118,0.1086,520.024,0.15768,-0.00155375,-0.00273015,0.0323054,-0.022287,0.103084,-0.0387177,-0.0615907,-1.29021e-06,2.36309e-06,1.02508e-05,0.0959262,0.10858452626523674,-1.2902091677258198e-06,2.3630927921125533e-06,-0.037977750302295776,1.0250852539694932e-05,-0.05973234040496478
119,0.1096,520.957,-0.129561,0.0168196,0.0104538,-0.0389263,0.013818,0.103986,-0.0390675,-0.062139,-7.75988e-07,-3.04817e-07,1.16369e-05,0.096812,0.109584920617954,-7.759876988755465e-07,-3.0481695356687766e-07,-0.03831420683556164,1.1636967709005575e-05,-0.06024774785085707
120,0.1106,522.088,0.145622,-0.000966835,-0.00218134,0.0293646,-0.020879,0.104887,-0.0394096,-0.0626904,-1.25701e-06,2.24148e-06,1.04007e-05,0.0976964,0.1105851071477999,-1.257009209942872e-06,2.241482512044257e-06,-0.038643143277616754,1.0400754087536157e-05,-0.06076578440688818
121,0.1116,523.016,-0.117717,0.0161093,0.00989629,-0.0359707,0.0122955,0.105787,-0.0397585,-0.0632377,-7.856e-07,-2.05661e-07,1.16766e-05,0.0985807,0.1115850836661676,-7.855996914107877e-07,-2.0566097880259093e-07,-0.03897850217816501,1.1676668171700655e-05,-0.06127968665090555
122,0.1126,524.125,0.133688,-0.000364573,-0.00163841,0.0264498,-0.0194772,0.106686,-0.0401004,-0.0637879,-1.22391e-06,2.1209e-06,1.05482e-05,0.0994637,0.11258484798310975,-1.2239092510579752e-06,2.1209022491586182e-06,-0.03930701926507407,1.054825563251427e-05,-0.06179602850863952
123,0.1136,525.049,-0.106074,0.0153899,0.00934927,-0.0330632,0.0107929,0.107584,-0.0404485,-0.0643344,-7.94637e-07,-1.08346e-07,1.1715e-05,0.100347,0.11358439790734454,-7.9463668423152e-07,-1.0834599417641755e-07,-0.03964137829310277,1.1715068620965496e-05,-0.06230861690152367
124,0.1146,526.137,0.122033,0.000241902,-0.00110857,0.0235997,-0.0181018,0.108482,-0.0407901,-0.0648834,-1.19119e-06,2.00279e-06,1.06926e-05,0.101228,0.1145848458305525,-1.1911892905391852e-06,2.002792005573184e-06,-0.03996938077226486,1.0692657166133657e-05,-0.0628232681861407
125,0.1156,527.057,-0.0947757,0.0146721,0.0088192,-0.0302395,0.00932871,0.109379,-0.0411374,-0.0654291,-8.02851e-07,-1.42096e-08,1.17529e-05,0.102109,0.115585076973864,-8.028506777169042e-07,-1.4209600052161875e-08,-0.040302741514879004,1.1752969065526031e-05,-0.06333454601384858
126,0.1166,528.124,0.110789,0.000842473,-0.000597938,0.0208476,-0.0167698,0.110275,-0.0414788,-0.0659769,-1.15909e-06,1.88836e-06,1.08334e-05,0.10299,0.11658508914138155,-1.1590893282953374e-06,1.8883617829423827e-06,-0.04063032623703189,1.0833458681469565e-05,-0.06384751083564966
127,0.1176,529.04,-0.0839417,0.0139654,0.00831149,-0.0275296,0.00791852,0.11117,-0.0418252,-0.0665217,-8.10037e-07,7.56259e-08,1.17909e-05,0.10387,0.11758488013589496,-8.100366719610008e-07,7.562590287335524e-08,-0.04096259433986549,1.179096951298142e-05,-0.06435738780864775
128,0.1186,530.087,0.100065,0.00142822,-0.000111569,0.0182208,-0.0154957,0.112064,-0.0421664,-0.0670684,-1.1278e-06,1.77864e-06,1.09701e-05,0.104748,0.11858444775888977,-1.1277993640090855e-06,1.778641581795526e-06,-0.04128976208468549,1.0970160171819288e-05,-0.06486876382736129
129,0.1196,530.999,-0.0736694,0.0132782,0.00783045,-0.0249578,0.00657516,0.112958,-0.042512,-0.0676123,-8.16032e-07,1.60254e-07,1.18295e-05,0.105627,0.11958490939490374,-8.160316670169365e-07,1.6025401294861297e-07,-0.04162103509563553,1.1829569968702103e-05,-0.0653772434131571
130,0.1206,532.026,0.0899457,0.00199154,0.000346585,0.0157412,-0.014291,0.113851,-0.0428529,-0.0681579,-1.09747e-06,1.67443e-06,1.11022e-05,0.106504,0.12058514525783637,-1.097469397803863e-06,1.6744314017547168e-06,-0.041947690803142534,1.1102261629591936e-05,-0.06588703450549471
131,0.1216,532.934,-0.0640329,0.0126175,0.00737934,-0.0225425,0.00530858,0.114743,-0.0431978,-0.0687009,-8.20717e-07,2.38985e-07,1.18691e-05,0.107381,0.12158515314461793,-8.207166631857277e-07,2.3898502865549176e-07,-0.042278066068095144,1.1869170438050247e-05,-0.0663941201595436
132,0.1226,533.943,0.0804942,0.0025262,0.000773642,0.0134245,-0.0131644,0.115634,-0.0435384,-0.0692453,-1.06821e-06,1.5763e-06,1.12297e-05,0.108257,0.12258493085089595,-1.0682094294667266e-06,1.5763012424230283e-06,-0.04260421061322328,1.12297630532332e-05,-0.06690223687860863
133,0.1236,534.846,-0.0550837,0.011989,0.00696037,-0.0202967,0.00412594,0.116524,-0.0438825,-0.0697875,-8.24014e-07,3.11335e-07,1.19101e-05,0.109132,0.12358447617104251,-8.240136605275339e-07,3.113350484085231e-07,-0.04293359383071871,1.1910170925499841e-05,-0.06740802535412627
134,0.1246,535.837,0.0717515,0.00302735,0.00116772,0.0112815,-0.0121218,0.117414,-0.0442229,-0.0703308,-1.0401e-06,1.48466e-06,1.13522e-05,0.110007,0.12458491148251127,-1.0400994591153179e-06,1.484661102058027e-06,-0.04325932379299391,1.1352264436492732e-05,-0.0679145649600077
135,0.1256,536.736,-0.0468529,0.0113967,0.00657485,-0.0182284,0.00303181,0.118303,-0.0445662,-0.070872,-8.25879e-07,3.77011e-07,1.19526e-05,0.110881,0.12558511199207234,-8.258786590165101e-07,3.7701107102883213e-07,-0.04358771649530324,1.1952671432613471e-05,-0.06841887311935413
136,0.1266,537.71,0.0637386,0.00349146,0.00152785,0.00931793,-0.0111666,0.119191,-0.0449062,-0.0714142,-1.01317e-06,1.3997e-06,1.14697e-05,0.111754,0.12658507548960451,-1.013169486752119e-06,1.3997009795652104e-06,-0.04391284139732943,1.1469765777150087e-05,-0.06892383949759284
137,0.1276,538.603,-0.0393531,0.0108438,0.0062232,-0.0163408,0.0020284,0.120078,-0.0452488,-0.0719546,-8.26303e-07,4.35896e-07,1.19968e-05,0.112627,0.12758479976373338,-8.263026586297073e-07,4.358960949968349e-07,-0.0442403407540235,1.1996871961850175e-05,-0.06942685712712338
138,0.1286,539.562,0.0564596,0.00391625,0.00185387,0.00753504,-0.0103001,0.120965,-0.0455885,-0.0724957,-9.87448e-07,1.32147e-06,1.15822e-05,0.113498,0.12858541118668576,-9.874475124238558e-07,1.321470873172359e-06,-0.04456495717104936,1.1582267073872998e-05,-0.06993025404841247
139,0.1296,540.45,-0.0325807,0.0103319,0.00590515,-0.0146332,0.00111582,0.12185,-0.0459304,-0.0730352,-8.25307e-07,4.8802e-07,1.20427e-05,0.11437,0.12958465137414987,-8.253066594576808e-07,4.88020118982746e-07,-0.04489156457547516,1.2042772513654043e-05,-0.07043189134752459
140,0.1306,541.393,0.0499034,0.00430058,0.00214633,0.00593048,-0.00952154,0.122735,-0.0462698,-0.0735752,-9.62902e-07,1.24989e-06,1.16898e-05,0.11524,0.13058477628061005,-9.629015363943338e-07,1.2498907810964965e-06,-0.04521567337408394,1.1689868326003605e-05,-0.07093372261955899
141,0.1316,542.275,-0.0265182,0.00986171,0.00561978,-0.0131015,0.000292412,0.123619,-0.046611,-0.0741138,-8.22933e-07,5.33542e-07,1.20903e-05,0.116109,0.13158465510416884,-8.229326613484744e-07,5.335421422447695e-07,-0.045541390215875555,1.2090373088025075e-05,-0.07143398298434656
142,0.1326,543.204,0.0440465,0.00464429,0.00240633,0.00449873,-0.00882854,0.124503,-0.04695,-0.0746528,-9.395e-07,1.18474e-06,1.17926e-05,0.116978,0.13258541821140324,-9.394995587053145e-07,1.184740701765108e-06,-0.04586489684712025,1.1792669532884048e-05,-0.07193434520778497
143,0.1336,544.08,-0.0211373,0.00943296,0.0053657,-0.0117387,-0.000444946,0.125385,-0.0472905,-0.0751904,-8.19243e-07,5.72726e-07,1.21395e-05,0.117847,0.13358479921250033,-8.192426643738315e-07,5.727261640497971e-07,-0.046189724544689836,1.2139573684066818e-05,-0.07243313921595862
144,0.1346,544.996,0.0388556,0.0049481,0.00263543,0.00323178,-0.00821743,0.126267,-0.0476291,-0.0757283,-9.17187e-07,1.12572e-06,1.18909e-05,0.118714,0.1345850620564759,-9.171865793522471e-07,1.1257206335990588e-06,-0.04651263003297479,1.189097069698164e-05,-0.07293194326499852
145,0.1356,545.865,-0.0164009,0.00904459,0.00514113,-0.0105357,-0.00110053,0.127148,-0.047969,-0.0762651,-8.14314e-07,6.05914e-07,1.21902e-05,0.119581,0.1355850719358187,-8.143136684957142e-07,6.059141834935389e-07,-0.04683666531711028,1.219027430088282e-05,-0.07342945985245497
146,0.1366,546.768,0.0342901,0.00521339,0.00283553,0.00211976,-0.00768354,0.128028,-0.0483072,-0.076802,-8.95896e-07,1.07247e-06,1.19847e-05,0.120447,0.1365848266266687,-8.958955987070638e-07,1.0724705750142505e-06,-0.047158970651995924,1.1984771816742068e-05,-0.07392680205199975
147,0.1376,547.631,-0.0122657,0.00869492,0.00494401,-0.00948199,-0.00167948,0.128908,-0.0486465,-0.0773377,-8.08235e-07,6.33508e-07,1.22422e-05,0.121312,0.1375854614888652,-8.082346734106238e-07,6.335082005648474e-07,-0.0474822147717876,1.2242274936014041e-05,-0.07442276660817326
148,0.1386,548.521,0.0303043,0.00544212,0.00300878,0.00115149,-0.00722145,0.129786,-0.0489843,-0.0778736,-8.75549e-07,1.02457e-06,1.20744e-05,0.122177,0.13858470012562263,-8.755486167189019e-07,1.0245705248657089e-06,-0.04780392094040675,1.2074472895751143e-05,-0.0749186505635745
149,0.1396,549.378,-0.00868432,0.0083818,0.00477212,-0.00856577,-0.00218751,0.130664,-0.0493229,-0.0784085,-8.01097e-07,6.55948e-07,1.22954e-05,0.123041,0.13958481647916443,-8.010966791038854e-07,6.559482150780838e-07,-0.0481262799543154,1.2295475588786076e-05,-0.07541334425976387
150,0.1406,550.256,0.0268492,0.00563665,0.00315743,0.000314963,-0.00682531,0.131541,-0.0496603,-0.0789434,-8.56067e-07,9.81579e-07,1.21602e-05,0.123904,0.14058467073522318,-8.560666335810652e-07,9.8157948169586e-07,-0.048447387973489686,1.2160273935579724e-05,-0.07590777341505295
151,0.1416,551.106,-0.00560714,0.00810269,0.00462313,-0.00777485,-0.00263067,0.132418,-0.0499983,-0.0794773,-7.92998e-07,6.73694e-07,1.23496e-05,0.124767,0.14158540224808536,-7.929976856280163e-07,6.736942268492641e-07,-0.04876895840788986,1.2349676256517839e-05,-0.07640101457238324
152,0.1426,551.973,0.0238748,0.00579961,0.00328382,-0.000402162,-0.00648903,0.133293,-0.0503352,-0.0800112,-8.37365e-07,9.43027e-07,1.22424e-05,0.125628,0.14258472661570432,-8.373646493975428e-07,9.430274445776377e-07,-0.0490893741687366,1.224247493847308e-05,-0.07689399245854611
153,0.1436,552.816,-0.00298405,0.00785488,0.00449473,-0.00709682,-0.00301514,0.134168,-0.0506726,-0.0805442,-7.84036e-07,6.87214e-07,1.24045e-05,0.12649,0.1435849257748103,-7.840356925914449e-07,6.872142361835643e-07,-0.049410157294735635,1.2404576936075884e-05,-0.07738587686172738
154,0.1446,553.673,0.0213311,0.00593377,0.00339027,-0.00101223,-0.00620648,0.135042,-0.0510091,-0.081077,-8.19361e-07,9.08461e-07,1.23212e-05,0.12735,0.14458485590575276,-8.193606643169815e-07,9.084614125409729e-07,-0.04972997696412873,1.2321275906224116e-05,-0.07787731473586013
155,0.1456,554.508,-0.000765662,0.00763553,0.00438461,-0.00651945,-0.00334706,0.135915,-0.051346,-0.0816091,-7.74304e-07,6.96966e-07,1.24601e-05,0.12821,0.14558451477256473,-7.743037002683195e-07,6.969662429412438e-07,-0.050050069012356424,1.2460177627460212e-05,-0.07836784569935262
156,0.1466,555.355,0.0191693,0.00604201,0.00347903,-0.00152726,-0.00597166,0.136788,-0.051682,-0.082141,-8.01974e-07,8.77435e-07,1.2397e-05,0.129069,0.14658504672261286,-8.01973678465906e-07,8.774353850160566e-07,-0.050369198572399854,1.2397076843084776e-05,-0.07885793149235398
157,0.1476,556.183,0.00109556,0.00744176,0.0042906,-0.00603096,-0.00363237,0.13766,-0.0520182,-0.0826721,-7.63894e-07,7.03393e-07,1.25159e-05,0.129927,0.14758530493255284,-7.638937081777541e-07,7.033932474254101e-07,-0.050688410785260096,1.2515978324190158e-05,-0.07934702015594752
158,0.1486,557.02,0.0173431,0.00612714,0.00355224,-0.00195875,-0.0057788,0.138531,-0.0523538,-0.083203,-7.85128e-07,8.49521e-07,1.24698e-05,0.130785,0.1485852871621911,-7.8512769174921e-07,8.495213608128438e-07,-0.051006946301351275,1.2469877748388924e-05,-0.07983566510066886
159,0.1496,557.841,0.00264452,0.00727079,0.00421061,-0.00562022,-0.00387672,0.139401,-0.0526895,-0.0837332,-7.52892e-07,7.06915e-07,1.25721e-05,0.131642,0.1495849911702094,-7.528917165267046e-07,7.069152498928588e-07,-0.051325469802317,1.257217902916885e-05,-0.08032340691925055
160,0.1506,558.668,0.0158091,0.0061919,0.00361191,-0.00231746,-0.00562248,0.14027,-0.0530246,-0.0842631,-7.68751e-07,8.24322e-07,1.254e-05,0.132498,0.1505844147141724,-7.687507045384123e-07,8.24322339720851e-07,-0.05164331737905037,1.2540078626166462e-05,-0.0808106144488887
161,0.1516,559.482,0.00392295,0.00711993,0.00414275,-0.00527686,-0.00408539,0.141139,-0.0533597,-0.0847924,-7.41378e-07,7.07921e-07,1.26282e-05,0.133353,0.1515847071346672,-7.413777252107678e-07,7.079212505090027e-07,-0.051961058462904774,1.2628279736137671e-05,-0.08129701265402012
162,0.1526,560.3,0.0145273,0.00623888,0.00365988,-0.00261332,-0.00549767,0.142007,-0.0536943,-0.0853214,-7.52779e-07,8.01469e-07,1.26078e-05,0.134208,0.15258471660178285,-7.527787166949906e-07,8.01469321132231e-07,-0.05227821922878795,1.2607879478654382e-05,-0.08178287801160866
163,0.1536,561.107,0.00496904,0.00698664,0.00408525,-0.00499141,-0.00426323,0.142874,-0.0540289,-0.0858497,-7.29425e-07,7.06767e-07,1.26843e-05,0.135062,0.1535844408689231,-7.294247339473259e-07,7.067672498362043e-07,-0.05259527389043106,1.2684380445993071e-05,-0.08226784400210918
164,0.1546,561.917,0.0134613,0.00627051,0.00369782,-0.00285536,-0.0053998,0.143741,-0.0543631,-0.0863777,-7.37152e-07,7.80626e-07,1.26734e-05,0.135916,0.15458503227285214,-7.371517283250029e-07,7.806263047083206e-07,-0.05291184364814383,1.2673480307867635e-05,-0.08275227867846713
165,0.1556,562.717,0.00581724,0.0068686,0.00403655,-0.00475529,-0.00441463,0.144607,-0.0546971,-0.0869051,-7.17098e-07,7.03777e-07,1.27401e-05,0.136768,0.1555853359797903,-7.170977428527792e-07,7.037772475904092e-07,-0.05322811827156304,1.274018115537956e-05,-0.08323590758253996
166,0.1566,563.518,0.0125785,0.006289,0.00372725,-0.00305171,-0.00532473,0.145472,-0.0550307,-0.0874321,-7.21818e-07,7.61495e-07,1.27369e-05,0.13762,0.15658534973901062,-7.218177394685554e-07,7.61495289935965e-07,-0.05354390869453651,1.2736981114702672e-05,-0.08371891497561712
167,0.1576,564.31,0.00649829,0.00676368,0.00399525,-0.00456086,-0.00454354,0.146336,-0.0553643,-0.0879586,-7.04457e-07,6.99237e-07,1.27955e-05,0.138472,0.15758507129870836,-7.044567518210698e-07,6.992372445502326e-07,-0.0538595937873948,1.279558186273455e-05,-0.08420120999157843
168,0.1586,565.103,0.01185,0.00629636,0.00374948,-0.00320956,-0.0052688,0.147199,-0.0556974,-0.0884847,-7.06732e-07,7.43808e-07,1.27985e-05,0.139322,0.1585844984060074,-7.067317502329473e-07,7.438082765265364e-07,-0.054174700672738885,1.2798581901174444e-05,-0.0846828850192759
169,0.1596,565.888,0.00703926,0.00666995,0.00396011,-0.00440137,-0.00465343,0.148062,-0.0560304,-0.0890102,-6.91554e-07,6.93402e-07,1.28505e-05,0.140172,0.1595847883911783,-6.915537609231137e-07,6.934022402926843e-07,-0.05448960806242453,1.2850582568058044e-05,-0.08516375780280838
170,0.1606,566.673,0.0112504,0.00629438,0.00376568,-0.00333521,-0.00522879,0.148924,-0.056363,-0.0895354,-6.91854e-07,7.27333e-07,1.28585e-05,0.141021,0.16058478141384436,-6.918537606148689e-07,7.273332645052477e-07,-0.05480403252709598,1.2858582670860486e-05,-0.0856441036473502
171,0.1616,567.452,0.00746378,0.00658572,0.00393007,-0.00427096,-0.00474736,0.149785,-0.0566955,-0.09006,-6.78435e-07,6.86493e-07,1.29049e-05,0.14187,0.1615844752170661,-6.784347699184679e-07,6.864932355910014e-07,-0.05511825794341019,1.2904983268668957e-05,-0.08612364895484481
172,0.1626,568.229,0.0107578,0.00628464,0.00377686,-0.00343415,-0.00520189,0.150646,-0.0570277,-0.0905842,-6.7715e-07,7.11868e-07,1.29168e-05,0.142718,0.16258503012730574,-6.771497707003249e-07,7.118682534557053e-07,-0.05543209552681261,1.2916883422198211e-05,-0.08660257739995036
173,0.1636,569.0,0.00779219,0.00650951,0.0039042,-0.00416455,-0.00482797,0.151506,-0.0573596,-0.0911079,-6.6514e-07,6.78702e-07,1.29587e-05,0.143565,0.16358528330043076,-6.651397788104418e-07,6.787022304166612e-07,-0.055745545594391155,1.2958783964345244e-05,-0.08708079839706817
174,0.1646,569.77,0.0103533,0.00626852,0.00378389,-0.00351107,-0.00518569,0.152365,-0.0576912,-0.0916312,-6.62591e-07,6.97239e-07,1.29736e-05,0.144411,0.16458523247546952,-6.625907804647113e-07,6.972392430082408e-07,-0.05605860846277988,1.2973684157424614e-05,-0.08755840403885173
175,0.1656,570.535,0.0080419,0.00644,0.00388172,-0.0040778,-0.00489751,0.153223,-0.0580227,-0.0921539,-6.51704e-07,6.70193e-07,1.30118e-05,0.145257,0.165584875390419,-6.517037876019316e-07,6.701932244723707e-07,-0.05637147317388347,1.3011884653746364e-05,-0.08803521263627767
176,0.1666,571.297,0.0100209,0.00624721,0.00378749,-0.00356997,-0.00517815,0.154081,-0.0583538,-0.0926763,-6.48154e-07,6.83299e-07,1.3029e-05,0.146102,0.1665853763670453,-6.481537899727385e-07,6.83299233417145e-07,-0.0566838568611423,1.3029084877880237e-05,-0.08851149862446472
177,0.1676,572.055,0.00822762,0.0063761,0.00386197,-0.00400705,-0.00495792,0.154937,-0.0586847,-0.0931981,-6.38157e-07,6.61105e-07,1.30642e-05,0.146947,0.16758440097074412,-6.381567964064416e-07,6.611052185689914e-07,-0.05699594853449197,1.3064285337094361e-05,-0.08898698925818749
178,0.1686,572.81,0.00974704,0.00622172,0.0037883,-0.00361424,-0.00517752,0.155794,-0.0590154,-0.0937195,-6.33819e-07,6.69925e-07,1.30831e-05,0.14779,0.16858544969048417,-6.338187991117294e-07,6.699252244057874e-07,-0.05730774841535968,1.3083185584017443e-05,-0.0894618676304384
179,0.1696,573.561,0.00836172,0.00631684,0.00384439,-0.0039492,-0.00501081,0.156649,-0.0593458,-0.0942405,-6.24523e-07,6.51554e-07,1.31159e-05,0.148633,0.16958501750431743,-6.245228050261176e-07,6.515542123608498e-07,-0.05761916248684573,1.3115986013723102e-05,-0.08993613444017101
180,0.1706,574.31,0.0095205,0.00619291,0.00378682,-0.00364669,-0.00518236,0.157504,-0.0596759,-0.0947609,-6.1957e-07,6.57013e-07,1.3136e-05,0.149476,0.1705854403140903,-6.19569808013587e-07,6.570132158323361e-07,-0.05793019106321795,1.3136086277620862e-05,-0.09040960846718116
181,0.1716,575.054,0.00845445,0.00626144,0.00382852,-0.00390171,-0.00505754,0.158357,-0.0600058,-0.095281,-6.10825e-07,6.41639e-07,1.31667e-05,0.150317,0.17158437568004237,-6.108248133962491e-07,6.416392057673193e-07,-0.0582409286342056,1.3166786681395592e-05,-0.09088256342721868
182,0.1726,575.796,0.00933189,0.00616149,0.00378348,-0.00366965,-0.00519146,0.159211,-0.0603354,-0.0958005,-6.05395e-07,6.44477e-07,1.31877e-05,0.151158,0.1725853360861318,-6.053948167217271e-07,6.444772076008576e-07,-0.05855128127520293,1.3187786958024361e-05,-0.09135472728033833
183,0.1736,576.534,0.0085143,0.00620922,0.00381399,-0.00386246,-0.00509922,0.160063,-0.0606648,-0.0963196,-5.97081e-07,6.3144e-07,1.32167e-05,0.151999,0.1735848045055639,-5.97080821784779e-07,6.314401994611529e-07,-0.05886134341311322,1.3216787341008285e-05,-0.09182628263862491
184,0.1746,577.269,0.00917354,0.00612807,0.00377865,-0.00368506,-0.00520385,0.160915,-0.060994,-0.0968383,-5.91283e-07,6.32248e-07,1.32383e-05,0.152838,0.1745851248349517,-5.912828251464219e-07,6.322481997944607e-07,-0.05917111526761676,1.3238387626790526e-05,-0.09229723019501257
185,0.1756,578.0,0.00854818,0.00615963,0.00380049,-0.00382971,-0.00513679,0.161766,-0.0613228,-0.0973565,-5.83305e-07,6.21023e-07,1.32659e-05,0.153677,0.17558512221472133,-5.833048298820032e-07,6.210231928704957e-07,-0.05948040895424822,1.3265987992339134e-05,-0.0927674799180992
186,0.1766,578.729,0.00903919,0.00609314,0.0037726,-0.00369447,-0.00521872,0.162616,-0.0616515,-0.0978742,-5.77229e-07,6.2027e-07,1.32879e-05,0.154516,0.1765847943690808,-5.7722883339828e-07,6.20270192319694e-07,-0.059789506940787884,1.3287988284593766e-05,-0.09323703263953642
187,0.1776,579.454,0.00856173,0.00611221,0.00378777,-0.00380207,-0.00517099,0.163466,-0.0619798,-0.0983915,-5.69511e-07,6.10443e-07,1.33143e-05,0.155353,0.17758531660600552,-5.695108378223068e-07,6.104431862219428e-07,-0.060098127382841704,1.3314388635610186e-05,-0.09370597981890649
188,0.1786,580.176,0.00892377,0.00605708,0.00376557,-0.00369915,-0.00523542,0.164315,-0.062308,-0.0989083,-5.63225e-07,6.08496e-07,1.33364e-05,0.15619,0.17858551106227227,-5.632248414322305e-07,6.084961852170778e-07,-0.06040655256209426,1.3336488930093537e-05,-0.094174231561864
189,0.1796,580.895,0.00855947,0.00606658,0.00377563,-0.0037784,-0.00520243,0.165163,-0.0626358,-0.0994247,-5.55711e-07,5.99743e-07,1.33618e-05,0.157026,0.17958537545823972,-5.557108455622739e-07,5.997431797855057e-07,-0.06071450081868768,1.3361889269258853e-05,-0.09464187923166478
190,0.1806,581.611,0.00882322,0.00602024,0.00375775,-0.00370013,-0.00525343,0.16601,-0.0629635,-0.0999407,-5.49268e-07,5.9689e-07,1.3384e-05,0.157862,0.18058490751332212,-5.492678492036163e-07,5.968901781727709e-07,-0.06102225424861574,1.338408956619297e-05,-0.09510892351419353
191,0.1816,582.324,0.00854503,0.00602245,0.00376391,-0.0037578,-0.0052316,0.166857,-0.0632908,-0.100456,-5.41913e-07,5.88959e-07,1.34085e-05,0.158697,0.18158528653069306,-5.419128531469752e-07,5.889591734309363e-07,-0.061329531376155155,1.3408589894403633e-05,-0.09557509376682582
192,0.1826,583.034,0.0087343,0.00598286,0.0037493,-0.00369821,-0.00527234,0.167703,-0.063618,-0.100971,-5.35356e-07,5.85423e-07,1.34306e-05,0.159531,0.18258533064211147,-5.353558566456584e-07,5.854231712731917e-07,-0.0616366141120136,1.3430690190885386e-05,-0.0960407526760747
193,0.1836,583.74,0.00852129,0.00597957,0.0037525,-0.00373955,-0.0052589,0.168548,-0.0639448,-0.101486,-5.28124e-07,5.78119e-07,1.34544e-05,0.160364,0.18358503756319355,-5.281238605325811e-07,5.781191672049601e-07,-0.0619432211642007,1.3454490510822481e-05,-0.09650617183272692
194,0.1846,584.444,0.00865444,0.00594516,0.00374032,-0.00369404,-0.00529182,0.169392,-0.0642715,-0.102,-5.21486e-07,5.74073e-07,1.34763e-05,0.161197,0.18458440500863516,-5.214858640467668e-07,5.740731647829733e-07,-0.06224963425854202,1.3476390805733374e-05,-0.09697044833112323
195,0.1856,585.145,0.00849051,0.00593775,0.00374128,-0.00372309,-0.00528464,0.170236,-0.0645978,-0.102514,-5.14353e-07,5.67246e-07,1.34994e-05,0.162029,0.18558461627624334,-5.143528677420406e-07,5.672461609318447e-07,-0.06255557228637976,1.34994911173969e-05,-0.09743448625271867
196,0.1866,585.843,0.00858163,0.00590729,0.00373092,-0.00368813,-0.00531163,0.171079,-0.064924,-0.103027,-5.07659e-07,5.62822e-07,1.35211e-05,0.162861,0.18658448549342643,-5.07658871162775e-07,5.62822158434173e-07,-0.06286131678906048,1.3521191410514888e-05,-0.0978973836179452
197,0.1876,586.538,0.00845446,0.00589683,0.00373019,-0.00370797,-0.00530907,0.171922,-0.0652498,-0.10354,-5.00604e-07,5.56357e-07,1.35436e-05,0.163692,0.18758519795573725,-5.006038746868668e-07,5.563571547906321e-07,-0.06316658684085896,1.3543691715023343e-05,-0.09836004357772299
198,0.1886,587.23,0.00851429,0.00586939,0.00372117,-0.00368088,-0.00533156,0.172763,-0.0655755,-0.104052,-4.93873e-07,5.51657e-07,1.35651e-05,0.164522,0.18858437720319987,-4.938728780379265e-07,5.516571521813063e-07,-0.06347166379904534,1.3565192006348425e-05,-0.09882156507582562
199,0.1896,587.919,0.00841453,0.00585668,0.00371918,-0.00369385,-0.00533239,0.173604,-0.0659008,-0.104564,-4.86882e-07,5.45466e-07,1.35871e-05,0.165351,0.18958439711385888,-4.868818814784959e-07,5.454661486936629e-07,-0.0637762669204277,1.358719230504235e-05,-0.0992828503354034
200,0.1906,588.606,0.00845119,0.00583155,0.00371113,-0.00367258,-0.00535147,0.174445,-0.066226,-0.105075,-4.8013e-07,5.40567e-07,1.36082e-05,0.16618,0.19058525839500962,-4.801298847390001e-07,5.405671461566897e-07,-0.0640806773786019,1.3608292591893445e-05,-0.09974299922082897
201,0.1916,589.289,0.00837178,0.00581722,0.00370819,-0.00368046,-0.00535474,0.175284,-0.0665509,-0.105586,-4.73192e-07,5.34586e-07,1.36297e-05,0.167008,0.1915845785830017,-4.7319188800631906e-07,5.345861429084664e-07,-0.0643847081740444,1.362979288477284e-05,-0.10020291303024098
202,0.1926,589.97,0.00839139,0.00579384,0.00370085,-0.00366349,-0.00537125,0.176123,-0.0668755,-0.106097,-4.6643e-07,5.29546e-07,1.36505e-05,0.167836,0.19258473755245098,-4.664298912659959e-07,5.295461402710089e-07,-0.06468835961247654,1.3650593168490488e-05,-0.10066259188373283
203,0.1936,590.648,0.00832701,0.00577835,0.00369719,-0.00366761,-0.00537626,0.176961,-0.0671999,-0.106607,-4.59536e-07,5.23725e-07,1.36715e-05,0.168663,0.19358454242225154,-4.595358944481376e-07,5.237251370360241e-07,-0.06499172550001087,1.3671593455333308e-05,-0.10112113702292269
204,0.1946,591.323,0.00833418,0.00575632,0.00369036,-0.00365377,-0.0053908,0.177799,-0.067524,-0.107117,-4.52774e-07,5.18586e-07,1.3692e-05,0.169489,0.1945851854796845,-4.527738974857698e-07,5.185861344791931e-07,-0.0652947125800678,1.369209373591751e-05,-0.10157944836371524
205,0.1956,591.996,0.00828087,0.00574003,0.00368617,-0.00365513,-0.00539703,0.178636,-0.0678479,-0.107626,-4.4592e-07,5.12889e-07,1.37126e-05,0.170314,0.19558547184137587,-4.459199005601988e-07,5.128891316097395e-07,-0.06559741459742507,1.3712694018064298e-05,-0.10203662806239422
206,0.1966,592.666,0.008279,0.00571904,0.00367969,-0.00364358,-0.00541008,0.179472,-0.0681716,-0.108135,-4.39163e-07,5.07685e-07,1.37327e-05,0.171139,0.19658539920723705,-4.391629035982447e-07,5.076851288254858e-07,-0.06589983176546055,1.3732794293952466e-05,-0.1024935751158198
207,0.1976,593.333,0.00823381,0.00570221,0.0036751,-0.00364292,-0.00541713,0.180307,-0.068495,-0.108643,-4.32345e-07,5.02084e-07,1.37529e-05,0.171963,0.19758496527633218,-4.3234490654242563e-07,5.020841260527931e-07,-0.06620187091750429,1.3752994571625266e-05,-0.10294939259221947
208,0.1986,593.998,0.00822543,0.00568202,0.00366887,-0.00363302,-0.00542903,0.181142,-0.0688181,-0.109151,-4.25599e-07,4.96839e-07,1.37727e-05,0.172787,0.19858536633165302,-4.2559890944815493e-07,4.968391233983738e-07,-0.06650353235698092,1.3772794844157943e-05,-0.10340497857214626
209,0.1996,594.66,0.00818618,0.00566485,0.00366398,-0.00363088,-0.00543661,0.181976,-0.069141,-0.109659,-4.18813e-07,4.91315e-07,1.37924e-05,0.17361,0.19958540348470133,-4.188129123505746e-07,4.913151205876432e-07,-0.06680490970639119,1.3792495115572123e-05,-0.10386033317317034
210,0.2006,595.319,0.00817316,0.00564529,0.00365791,-0.00362216,-0.00544763,0.182809,-0.0694637,-0.110166,-4.12083e-07,4.86047e-07,1.38119e-05,0.174432,0.20058507443094808,-4.12082915124401e-07,4.860471181089565e-07,-0.06710600317798443,1.381199538474931e-05,-0.10431456082781121
211,0.2016,595.976,0.00813825,0.00562791,0.00365279,-0.00361895,-0.00545554,0.183641,-0.0697861,-0.110672,-4.05329e-07,4.80584e-07,1.38313e-05,0.175254,0.20158437686504227,-4.0532891787403713e-07,4.805841153920909e-07,-0.0674067197244479,1.3831395652807998e-05,-0.10476766301551133
212,0.2026,596.63,0.00812196,0.00560886,0.00364683,-0.00361108,-0.00546585,0.184473,-0.0701083,-0.111178,-3.98617e-07,4.75307e-07,1.38504e-05,0.176074,0.20258451106472797,-3.9861692058273945e-07,4.7530711300147743e-07,-0.06770715287697271,1.3850495917289152e-05,-0.10522053599149983
213,0.2036,597.282,0.00809022,0.00559138,0.00364152,-0.00360709,-0.00547393,0.185305,-0.0704302,-0.111684,-3.91893e-07,4.69896e-07,1.38694e-05,0.176895,0.20358547772232227,-3.918929232238355e-07,4.6989611046655e-07,-0.06800720964773332,1.3869496180651808e-05,-0.10567317987172875
214,0.2046,597.931,0.00807164,0.00557275,0.00363563,-0.00359981,-0.00548368,0.186135,-0.0707519,-0.11219,-3.85203e-07,4.64619e-07,1.38881e-05,0.177714,0.20458486835857248,-3.852029257789269e-07,4.6461910785389193e-07,-0.06830698350717912,1.3888196440214884e-05,-0.10612559477209094
215,0.2056,598.577,0.00804223,0.00555525,0.00363019,-0.00359525,-0.00549182,0.186965,-0.0710734,-0.112694,-3.78507e-07,4.59251e-07,1.39068e-05,0.178533,0.2055850888333861,-3.785069283557263e-07,4.5925110536693126e-07,-0.06860647466619807,1.3906896700000004e-05,-0.10657599396219586
216,0.2066,599.222,0.00802207,0.00553695,0.00362433,-0.00358839,-0.00550111,0.187794,-0.0713946,-0.113199,-3.7184e-07,4.53982e-07,1.39252e-05,0.179351,0.2065849332502785,-3.7183993084610734e-07,4.5398210302138864e-07,-0.06890559022600473,1.3925296955985544e-05,-0.10702705918169098
217,0.2076,599.863,0.00799437,0.00551948,0.00361878,-0.00358342,-0.00550925,0.188622,-0.0717155,-0.113703,-3.65174e-07,4.48653e-07,1.39435e-05,0.180169,0.20758439929685157,-3.6517393331436665e-07,4.486531006708816e-07,-0.06920433048666275,1.3943597211074632e-05,-0.10747700414820738
218,0.2086,600.502,0.00797316,0.00550148,0.00361294,-0.00357684,-0.00551815,0.18945,-0.0720362,-0.114207,-3.58532e-07,4.43396e-07,1.39616e-05,0.180986,0.20858469324401474,-3.585319356957939e-07,4.4339609828192295e-07,-0.06950278879752758,1.3961697463482636e-05,-0.10792672239959766
219,0.2096,601.139,0.00794673,0.00548408,0.0036073,-0.00357158,-0.00552621,0.190277,-0.0723567,-0.11471,-3.51896e-07,4.38101e-07,1.39795e-05,0.181802,0.20958460619234254,-3.518959380555131e-07,4.3810109606745584e-07,-0.0698009653683701,1.3979597713653646e-05,-0.10837532242586578
220,0.2106,601.774,0.00792484,0.00546633,0.00360146,-0.00356519,-0.00553478,0.191104,-0.0726769,-0.115213,-3.4528e-07,4.32861e-07,1.39973e-05,0.182618,0.2105853464107077,-3.4527994041688714e-07,4.3286109363549485e-07,-0.07009876741860643,1.399739796270616e-05,-0.10882369686306104
221,0.2116,602.406,0.00789936,0.00544903,0.00359575,-0.00355971,-0.00554274,0.191929,-0.0729969,-0.115715,-3.38673e-07,4.27599e-07,1.40149e-05,0.183433,0.2115844914121392,-3.38672942690188e-07,4.275990914681671e-07,-0.07039628820716748,1.401499820907759e-05,-0.1092709550960268
222,0.2126,603.035,0.00787705,0.00543151,0.00358989,-0.00355344,-0.00555102,0.192754,-0.0733167,-0.116217,-3.32085e-07,4.22378e-07,1.40323e-05,0.184247,0.2125844610483123,-3.3208494487624307e-07,4.2237808917100494e-07,-0.07069352794303174,1.4032398453212025e-05,-0.10971798886170547
223,0.2136,603.662,0.0078523,0.00541432,0.00358413,-0.00354781,-0.00555885,0.193579,-0.0736362,-0.116718,-3.25507e-07,4.17146e-07,1.40496e-05,0.185061,0.2135852559998308,-3.2550694706312555e-07,4.171460870061594e-07,-0.07099039393398654,1.4049698696005919e-05,-0.110163908437105
224,0.2146,604.287,0.00782975,0.00539701,0.00357825,-0.00354162,-0.00556686,0.194402,-0.0739554,-0.117219,-3.18948e-07,4.11947e-07,1.40667e-05,0.185874,0.21458444777653618,-3.1894794916276226e-07,4.119470848884532e-07,-0.07128688647751547,1.4066798936562819e-05,-0.11060960466275094
225,0.2156,604.91,0.00780556,0.00537995,0.00357243,-0.00353586,-0.00557454,0.195225,-0.0742745,-0.11772,-3.12401e-07,4.06744e-07,1.40836e-05,0.186687,0.2155844622265577,-3.124009512189829e-07,4.067440826371893e-07,-0.07158319155405124,1.4083699174438635e-05,-0.11105507765051359
226,0.2166,605.53,0.00778292,0.00536283,0.00356654,-0.00352973,-0.00558232,0.196048,-0.0745932,-0.11822,-3.05871e-07,4.01568e-07,1.41004e-05,0.187498,0.21658530002723375,-3.0587095323220126e-07,4.0156808056579507e-07,-0.07187903084640768,1.4100499411195955e-05,-0.11149943901209047
227,0.2176,606.148,0.00775917,0.00534591,0.00356067,-0.00352388,-0.00558984,0.196869,-0.0749118,-0.11872,-2.99354e-07,3.96394e-07,1.41171e-05,0.188309,0.2175845266849723,-2.9935395517988184e-07,3.96394078672202e-07,-0.07217468308727726,1.4117199646834777e-05,-0.11194357824852241
228,0.2186,606.764,0.00773652,0.00532897,0.00355475,-0.00351777,-0.00559739,0.19769,-0.0752301,-0.119219,-2.92855e-07,3.91242e-07,1.41335e-05,0.18912,0.21858457404464926,-2.9285495717346066e-07,3.912420765139757e-07,-0.07246996288937702,1.4133599878451975e-05,-0.11238660785789589
229,0.2196,607.377,0.00771315,0.00531219,0.00354885,-0.00351185,-0.00560475,0.198511,-0.0755481,-0.119718,-2.86369e-07,3.86096e-07,1.41499e-05,0.18993,0.21958544278033698,-2.8636895899047943e-07,3.8609607444506366e-07,-0.07276487054837522,1.4150000110291217e-05,-0.1128294164506426
230,0.2206,607.989,0.00769054,0.00529542,0.0035429,-0.00350576,-0.00561209,0.19933,-0.075866,-0.120217,-2.79901e-07,3.8097e-07,1.4166e-05,0.190739,0.22058469239483647,-2.7990096085339644e-07,3.8097007259985105e-07,-0.07305959174761123,1.4166100338330878e-05,-0.11327200413702232
231,0.2216,608.598,0.00766748,0.00527879,0.00353696,-0.00349978,-0.00561927,0.200149,-0.0761836,-0.120715,-2.73447e-07,3.75852e-07,1.41821e-05,0.191548,0.22158476072999034,-2.73446962628654e-07,3.758520705776647e-07,-0.07335394127609285,1.418220056637054e-05,-0.11371348474116749
232,0.2226,609.205,0.00764497,0.00526219,0.00353099,-0.00349369,-0.00562642,0.200967,-0.0765009,-0.121212,-2.6701e-07,3.70751e-07,1.41979e-05,0.192355,0.2225844258715688,-2.670099643609092e-07,3.7075106873452057e-07,-0.07364791942842552,1.4198000790610621e-05,-0.11415385969700997
233,0.2236,609.809,0.00762219,0.0052457,0.00352501,-0.00348767,-0.00563343,0.201785,-0.076818,-0.12171,-2.60589e-07,3.65661e-07,1.42136e-05,0.193163,0.22358490907377426,-2.6058896607228377e-07,3.6566106675905985e-07,-0.07394161910463015,1.4213701013732205e-05,-0.11459490124642002
234,0.2246,610.412,0.0075998,0.00522926,0.00351902,-0.00348157,-0.00564039,0.202602,-0.0771349,-0.122207,-2.54184e-07,3.60587e-07,1.42292e-05,0.193969,0.2245849864204552,-2.5418396765175544e-07,3.605870650957854e-07,-0.0742350405104586,1.4229301235513248e-05,-0.11503483824710015
235,0.2256,611.012,0.00757726,0.00521292,0.00351301,-0.00347551,-0.00564723,0.203418,-0.0774515,-0.122703,-2.47796e-07,3.55525e-07,1.42447e-05,0.194775,0.22558465557892138,-2.477959692992471e-07,3.5552506316705035e-07,-0.07452809130424443,1.4244801456175793e-05,-0.11547367212753057
236,0.2266,611.61,0.00755502,0.00519664,0.00350699,-0.0034694,-0.005654,0.204234,-0.0777679,-0.123199,-2.41424e-07,3.50478e-07,1.42599e-05,0.195581,0.226585140800329,-2.414239708148358e-07,3.50478061461601e-07,-0.07482086429702584,1.4260001672816713e-05,-0.11591228840032741
237,0.2276,612.206,0.00753271,0.00518045,0.00350096,-0.00346331,-0.00566067,0.205049,-0.0780841,-0.123695,-2.35068e-07,3.45443e-07,1.42751e-05,0.196386,0.22758521516502883,-2.350679724205662e-07,3.454430597127356e-07,-0.07511335969377586,1.4275201889679678e-05,-0.11635068717339736
238,0.2286,612.8,0.00751062,0.00516432,0.00349491,-0.00345719,-0.00566727,0.205863,-0.0784,-0.12419,-2.2873e-07,3.40424e-07,1.42901e-05,0.19719,0.22858487633707258,-2.2872997385015026e-07,3.404240580540119e-07,-0.0754054852397893,1.429020210386156e-05,-0.11678798534302048
239,0.2296,613.392,0.00748852,0.00514827,0.00348885,-0.00345108,-0.00567376,0.206677,-0.0787156,-0.124684,-2.22408e-07,3.35417e-07,1.43049e-05,0.197993,0.22958535156458582,-2.224079752588537e-07,3.3541705635187213e-07,-0.07569724122713117,1.4305002315584403e-05,-0.117224184328241
240,0.2306,613.982,0.0074666,0.00513229,0.00348277,-0.00344493,-0.00568019,0.20749,-0.0790311,-0.125179,-2.16104e-07,3.30425e-07,1.43197e-05,0.198796,0.23058541092445362,-2.1610397660243308e-07,3.304250546509735e-07,-0.07598881274969771,1.4319802527307246e-05,-0.11766105022376916
241,0.2316,614.57,0.00744469,0.00511639,0.00347669,-0.0034388,-0.00568652,0.208302,-0.0793463,-0.125673,-2.09816e-07,3.25447e-07,1.43342e-05,0.199598,0.2315850520775069,-2.0981597803615415e-07,3.254470528624154e-07,-0.07628001518000505,1.4334302735230509e-05,-0.11809681802145067
242,0.2326,615.155,0.00742294,0.00510056,0.0034706,-0.00343264,-0.00569277,0.209114,-0.0796613,-0.126166,-2.03546e-07,3.20483e-07,1.43487e-05,0.2004,0.23258550526881927,-2.0354597929372886e-07,3.20483051430287e-07,-0.07657094115197716,1.4348802943153771e-05,-0.11853148913493272
243,0.2336,615.739,0.00740123,0.0050848,0.00346449,-0.00342648,-0.00569894,0.209925,-0.079976,-0.126659,-1.97292e-07,3.15533e-07,1.4363e-05,0.201201,0.2335855375718794,-1.9729198053042296e-07,3.155330496884545e-07,-0.07686149855519131,1.436310314839595e-05,-0.1189659460083704
244,0.2346,616.321,0.00737965,0.00506912,0.00345837,-0.00342031,-0.00570503,0.210735,-0.0802905,-0.127152,-1.91057e-07,3.10598e-07,1.43772e-05,0.202001,0.23458514664433316,-1.910569817908936e-07,3.1059804816990777e-07,-0.07715177996475142,1.4377303352519633e-05,-0.11940018874735792
245,0.2356,616.9,0.00735813,0.0050535,0.00345224,-0.00341413,-0.00571103,0.211544,-0.0806048,-0.127644,-1.84839e-07,3.05676e-07,1.43912e-05,0.202801,0.23558433014319835,-1.8483898289733958e-07,3.0567604669684556e-07,-0.07744178558353809,1.4391303553740187e-05,-0.11983333729121493
246,0.2366,617.478,0.00733672,0.00503796,0.0034461,-0.00340794,-0.00571696,0.212353,-0.0809188,-0.128136,-1.78638e-07,3.00769e-07,1.44051e-05,0.2036,0.2365843223085753,-1.7863798407180553e-07,3.0076904522502446e-07,-0.07773142338734995,1.4405203753842244e-05,-0.12026627277840463
247,0.2376,618.053,0.00731538,0.00502249,0.00343996,-0.00340175,-0.00572281,0.213162,-0.0812326,-0.128628,-1.72455e-07,2.95877e-07,1.44189e-05,0.204398,0.23758512379494046,-1.7245498518114744e-07,2.9587704375444446e-07,-0.07802078586334404,1.4419003952825804e-05,-0.12069899531372508
248,0.2386,618.627,0.00729415,0.00500708,0.0034338,-0.00339554,-0.00572858,0.21397,-0.0815462,-0.129119,-1.6629e-07,2.90998e-07,1.44325e-05,0.205196,0.23858549667118312,-1.6628998622536528e-07,2.90998042329349e-07,-0.07830987321363159,1.443260414912828e-05,-0.12113062613298842
249,0.2396,619.199,0.00727299,0.00499175,0.00342763,-0.00338933,-0.00573428,0.214777,-0.0818595,-0.129609,-1.60143e-07,2.86134e-07,1.4446e-05,0.205993,0.23958543858929304,-1.6014298720445908e-07,2.8613404090549466e-07,-0.07859859349995924,1.4446104343868171e-05,-0.12156116663514582
250,0.2406,619.769,0.00725192,0.00497649,0.00342145,-0.00338311,-0.00573989,0.215583,-0.0821726,-0.1301,-1.54014e-07,2.81285e-07,1.44594e-05,0.20679,0.2405849472006567,-1.540139881184288e-07,2.812850394828814e-07,-0.07888703912181594,1.445950453771161e-05,-0.12199237423219988
251,0.2416,620.337,0.00723094,0.00496129,0.00341527,-0.00337689,-0.00574543,0.216389,-0.0824854,-0.130589,-1.47903e-07,2.7645e-07,1.44727e-05,0.207586,0.24158526174070682,-1.479029890782968e-07,2.764500381946533e-07,-0.07917511819806222,1.4472804729992461e-05,-0.12242161500327853
252,0.2426,620.903,0.00721005,0.00494616,0.00340907,-0.00337065,-0.0057509,0.217194,-0.0827981,-0.131079,-1.4181e-07,2.7163e-07,1.44858e-05,0.208381,0.24258514027352196,-1.4180998997304073e-07,2.716300369076663e-07,-0.07946301512357146,1.4485904919814274e-05,-0.12285152307584735
253,0.2436,621.467,0.00718924,0.0049311,0.00340287,-0.00336441,-0.00575629,0.217998,-0.0831105,-0.131568,-1.35735e-07,2.66824e-07,1.44988e-05,0.209176,0.24358458044741393,-1.357349908026606e-07,2.668240355330198e-07,-0.07975054596299125,1.4498905108073501e-05,-0.12328034382584485
254,0.2446,622.029,0.00716851,0.00491611,0.00339666,-0.00335816,-0.00576161,0.218802,-0.0834226,-0.132057,-1.29679e-07,2.62033e-07,1.45117e-05,0.20997,0.2445848244943194,-1.296789915450347e-07,2.6203303438165904e-07,-0.0800377110031607,1.451180529521423e-05,-0.12370895493375733
255,0.2456,622.589,0.00714787,0.00490119,0.00339044,-0.00335191,-0.00576685,0.219605,-0.0837345,-0.132545,-1.23641e-07,2.57256e-07,1.45245e-05,0.210763,0.24558462747556176,-1.2364099233330705e-07,2.572560331426388e-07,-0.0803246024980444,1.4524605481014419e-05,-0.12413648063899319
256,0.2466,623.148,0.00712732,0.00488633,0.00338422,-0.00334565,-0.00577202,0.220408,-0.0840463,-0.133033,-1.17621e-07,2.52495e-07,1.45371e-05,0.211556,0.24658523362102547,-1.1762099305645535e-07,2.524950317717156e-07,-0.08061131258655996,1.4537205664133523e-05,-0.12456379776258297
257,0.2476,623.704,0.00710685,0.00487154,0.00337798,-0.00333938,-0.00577712,0.22121,-0.0843577,-0.13352,-1.1162e-07,2.47748e-07,1.45497e-05,0.212348,0.24758539598989038,-1.1161999380338017e-07,2.477480307572222e-07,-0.08089756565190509,1.4549805847474673e-05,-0.12499003139675857
258,0.2486,624.259,0.00708646,0.00485681,0.00337174,-0.00333311,-0.00578215,0.222011,-0.0846689,-0.134007,-1.05637e-07,2.43016e-07,1.45621e-05,0.21314,0.2485851122249787,-1.0563699437415863e-07,2.4301602952192525e-07,-0.08118354582865073,1.4562206027912694e-05,-0.12541605750569074
259,0.2496,624.812,0.00706616,0.00484215,0.0033655,-0.00332683,-0.00578711,0.222811,-0.08498,-0.134494,-9.96732e-08,2.38298e-07,1.45744e-05,0.213931,0.24958437996856198,-9.967319503090266e-08,2.3829802842101344e-07,-0.08146934516915094,1.4574506207010174e-05,-0.12584187619041987
260,0.2506,625.363,0.00704594,0.00482755,0.00335924,-0.00332055,-0.005792,0.223611,-0.0852907,-0.13498,-9.3728e-08,2.33596e-07,1.45865e-05,0.214721,0.2505844474461909,-9.372799558704514e-08,2.3359602718819872e-07,-0.08175468831325394,1.458660638342657e-05,-0.1262666138189874
261,0.2516,625.912,0.0070258,0.00481302,0.00335298,-0.00331426,-0.00579682,0.224411,-0.0856013,-0.135466,-8.78015e-08,2.28908e-07,1.45986e-05,0.215511,0.25158531529790884,-8.78014961847029e-08,2.2890802608976912e-07,-0.08203985101900313,1.4598706560065011e-05,-0.12669114507522017
262,0.2526,626.46,0.00700574,0.00479855,0.00334672,-0.00330797,-0.00580158,0.225209,-0.0859116,-0.135951,-8.18939e-08,2.24235e-07,1.46105e-05,0.2163,0.2525844789928082,-8.189389666402036e-08,2.2423502521462524e-07,-0.08232464986440591,1.4610606733800324e-05,-0.12711459717442397
263,0.2536,627.006,0.00698576,0.00478415,0.00334045,-0.00330167,-0.00580626,0.226007,-0.0862217,-0.136436,-7.60051e-08,2.19577e-07,1.46223e-05,0.217089,0.25358444033855654,-7.600509710492531e-08,2.1957702411867785e-07,-0.0826091768722903,1.462240690641714e-05,-0.12753784394915502
264,0.2546,627.55,0.00696587,0.0047698,0.00333417,-0.00329536,-0.00581088,0.226805,-0.0865315,-0.136921,-7.01353e-08,2.14934e-07,1.46341e-05,0.217877,0.2545851999719331,-7.013529756960679e-08,2.1493402302397158e-07,-0.08289334053007191,1.4634207079033956e-05,-0.12796088549897133
265,0.2556,628.092,0.00694605,0.00475553,0.00332789,-0.00328906,-0.00581543,0.227602,-0.0868411,-0.137405,-6.42845e-08,2.10306e-07,1.46456e-05,0.218664,0.255585502944095,-6.42844979470425e-08,2.10306022152551e-07,-0.08317723280305234,1.4645707247407103e-05,-0.12838285030666907
266,0.2566,628.632,0.00692632,0.00474131,0.00332161,-0.00328274,-0.00581992,0.228398,-0.0871505,-0.137889,-5.84527e-08,2.05693e-07,1.46571e-05,0.219451,0.2565853468895358,-5.8452698237232426e-08,2.0569302106032694e-07,-0.08346085388877855,1.4657207415780249e-05,-0.1288046109328158
267,0.2576,629.171,0.00690666,0.00472716,0.00331531,-0.00327643,-0.00582434,0.229193,-0.0874597,-0.138372,-5.264e-08,2.01095e-07,1.46685e-05,0.220237,0.2575847294422413,-5.26399985822934e-08,2.0109502019138858e-07,-0.08374420398457394,1.4668607583034898e-05,-0.1292252967019436
268,0.2586,629.708,0.00688709,0.00471306,0.00330902,-0.00327011,-0.0058287,0.229988,-0.0877686,-0.138855,-4.68464e-08,1.96512e-07,1.46798e-05,0.221022,0.2585849068199775,-4.684639887120312e-08,1.9651201932369133e-07,-0.08402719169026174,1.4679907748726961e-05,-0.12964577932890764
269,0.2596,630.244,0.00686759,0.00469903,0.00330272,-0.00326378,-0.00583299,0.230782,-0.0880774,-0.139338,-4.10719e-08,1.91944e-07,1.46909e-05,0.221807,0.25958462006963146,-4.1071899103961584e-08,1.919440184572352e-07,-0.0843100004255517,1.4691007911737941e-05,-0.1300660589118019
270,0.2606,630.777,0.00684817,0.00468506,0.00329642,-0.00325745,-0.00583722,0.231576,-0.0883858,-0.13982,-3.53167e-08,1.87391e-07,1.4702e-05,0.222592,0.2605851274068167,-3.531669934275783e-08,1.8739101759202015e-07,-0.08459235568000234,1.4702108074970965e-05,-0.13048526603437394
271,0.2616,631.309,0.00682882,0.00467115,0.00329011,-0.00325112,-0.00584139,0.232369,-0.0886941,-0.140302,-2.95808e-08,1.82854e-07,1.47129e-05,0.223375,0.2615851678764902,-2.9580799587591855e-08,1.828540168169468e-07,-0.0848745323569764,1.4713008235300862e-05,-0.1309042711478009
272,0.2626,631.84,0.00680956,0.0046573,0.0032838,-0.00324479,-0.0058455,0.233161,-0.0890021,-0.140783,-2.38642e-08,1.78331e-07,1.47238e-05,0.224158,0.2625847391074063,-2.386419972744136e-08,1.7833101595421397e-07,-0.0851563475992353,1.4723908395630758e-05,-0.13132220567206798
273,0.2636,632.368,0.00679037,0.00464352,0.00327748,-0.00323845,-0.00584954,0.233953,-0.0893099,-0.141265,-1.81669e-08,1.73823e-07,1.47345e-05,0.224941,0.26358510231231747,-1.8166899873328646e-08,1.7382301509272224e-07,-0.08543789314336214,1.4734608553279571e-05,-0.1317408074777946
274,0.2646,632.895,0.00677126,0.00462979,0.00327117,-0.00323211,-0.00585352,0.234744,-0.0896175,-0.141745,-1.24889e-08,1.69331e-07,1.47451e-05,0.225723,0.26458499353308995,-1.2488900025253713e-08,1.693310143213722e-07,-0.08571916918495825,1.4745208709587843e-05,-0.13215747188274807
275,0.2656,633.42,0.00675223,0.00461611,0.00326485,-0.00322577,-0.00585745,0.235534,-0.0899248,-0.142226,-6.83037e-09,1.64854e-07,1.47556e-05,0.226504,0.2655844103956637,-6.830370047339329e-09,1.6485401355126328e-07,-0.08600008451941599,1.4755708864333528e-05,-0.13257480376240927
276,0.2666,633.944,0.00673327,0.0046025,0.00325852,-0.00321942,-0.00586131,0.236324,-0.090232,-0.142705,-1.19127e-09,1.60392e-07,1.47661e-05,0.227285,0.2665846171095092,-1.1912699715566077e-09,1.6039201278239545e-07,-0.0862808221699406,1.4766209019301257e-05,-0.13299020093584157
277,0.2676,634.466,0.00671438,0.00458895,0.0032522,-0.00321307,-0.00586512,0.237113,-0.0905389,-0.143185,4.42837e-09,1.55945e-07,1.47764e-05,0.228065,0.26758434671387477,4.428369893005879e-09,1.5594501223681334e-07,-0.08656119955950559,1.4776509171587904e-05,-0.13340626577584236
278,0.2686,634.987,0.00669557,0.00457545,0.00324587,-0.00320672,-0.00586886,0.237902,-0.0908455,-0.143664,1.00285e-08,1.51513e-07,1.47866e-05,0.228844,0.26858486541615645,1.0028500030401233e-08,1.5151301147042773e-07,-0.08684121696685854,1.4786709322311964e-05,-0.13382126477434075
279,0.2696,635.506,0.00667684,0.00456201,0.00323954,-0.00320037,-0.00587255,0.23869,-0.091152,-0.144143,1.56091e-08,1.47097e-07,1.47967e-05,0.229623,0.2695849042536591,1.56091000125258e-08,1.470970107941838e-07,-0.0871210572461446,1.4796809471695482e-05,-0.13423606503592012
280,0.2706,636.023,0.00665818,0.00454863,0.00323321,-0.00319401,-0.00587618,0.239477,-0.0914582,-0.144621,2.11702e-08,1.42696e-07,1.48067e-05,0.230401,0.270584460847235,2.1170200259490457e-08,1.4269601011918098e-07,-0.08740053798773073,1.4806809619738459e-05,-0.1346498013059868
281,0.2716,636.538,0.00663959,0.00453531,0.00322687,-0.00318766,-0.00587975,0.240264,-0.0917642,-0.145099,2.67117e-08,1.3831e-07,1.48167e-05,0.231179,0.2715848044014786,2.6711700407133776e-08,1.3831000966746387e-07,-0.08767975070138256,1.4816809767781436e-05,-0.13506333985737484
282,0.2726,637.053,0.00662107,0.00452204,0.00322054,-0.0031813,-0.00588327,0.24105,-0.0920699,-0.145577,3.22336e-08,1.33939e-07,1.48265e-05,0.231956,0.2725846629506723,3.223360045545576e-08,1.3393900899494326e-07,-0.08795860437663727,1.482660991314333e-05,-0.1354766807845712
283,0.2736,637.565,0.00660263,0.00450883,0.0032142,-0.00317494,-0.00588673,0.241836,-0.0923755,-0.146054,3.77359e-08,1.29583e-07,1.48362e-05,0.232732,0.2735853076976209,3.7735900626501007e-08,1.2958300832366376e-07,-0.08823728164308464,1.4836310056942636e-05,-0.13588896007140994
284,0.2746,638.076,0.00658426,0.00449568,0.00320786,-0.00316858,-0.00589014,0.242621,-0.0926808,-0.146531,4.32185e-08,1.25243e-07,1.48458e-05,0.233508,0.2745854646744168,4.321850100019731e-08,1.2524300774252595e-07,-0.08851560031349215,1.4845910199401402e-05,-0.1363010427479241
285,0.2756,638.586,0.00656597,0.00448258,0.00320152,-0.00316222,-0.00589349,0.243405,-0.0929859,-0.147007,4.86815e-08,1.20918e-07,1.48554e-05,0.234284,0.2755851314969118,4.868150127457227e-08,1.2091800738467384e-07,-0.0887936517849276,1.4855510342082212e-05,-0.13671206562037186
286,0.2766,639.093,0.00654774,0.00446953,0.00319518,-0.00315585,-0.00589679,0.244188,-0.0932908,-0.147483,5.41248e-08,1.16608e-07,1.48648e-05,0.235058,0.27658430578055726,5.412480152955368e-08,1.1660800680601824e-07,-0.08907143625010472,1.486491048163785e-05,-0.1371228928924888
287,0.2776,639.6,0.00652959,0.00445654,0.00318884,-0.00314949,-0.00590003,0.244972,-0.0935954,-0.147959,5.95484e-08,1.12314e-07,1.48742e-05,0.235832,0.2775855403089398,5.9548401765141534e-08,1.1231400631750432e-07,-0.08934886283640886,1.4874310621415532e-05,-0.13753352465735869
288,0.2786,640.105,0.00651151,0.00444361,0.0031825,-0.00314313,-0.00590322,0.245754,-0.0938999,-0.148434,6.49524e-08,1.08034e-07,1.48834e-05,0.236606,0.2785850029404173,6.495240212345266e-08,1.0803400574133093e-07,-0.08962611389405939,1.4883510758290086e-05,-0.13794309895155077
289,0.2796,640.608,0.0064935,0.00443073,0.00317616,-0.00313676,-0.00590636,0.246536,-0.0942041,-0.148909,7.03366e-08,1.0377e-07,1.48926e-05,0.237379,0.27958524745735014,7.033660254229801e-08,1.0377000547734383e-07,-0.0899030075125582,1.4892710895386685e-05,-0.1383524787441508
290,0.2806,641.11,0.00647556,0.0044179,0.00316982,-0.0031304,-0.00590944,0.247317,-0.0945081,-0.149384,7.5701e-08,9.95216e-08,1.49016e-05,0.238151,0.2805849938857774,7.570100279963299e-08,9.952160495707574e-08,-0.09017963494877368,1.4901711029358111e-05,-0.13876166412752522
291,0.2816,641.61,0.00645769,0.00440513,0.00316348,-0.00312403,-0.00591247,0.248098,-0.0948118,-0.149858,8.10458e-08,9.52882e-08,1.49106e-05,0.238923,0.2815855214211478,8.104580317969123e-08,9.528820443804875e-08,-0.09045590543984217,1.4910711163551582e-05,-0.13916979436422128
292,0.2826,642.109,0.00643988,0.00439241,0.00315714,-0.00311767,-0.00591546,0.248878,-0.0951154,-0.150331,8.63708e-08,9.107e-08,1.49195e-05,0.239694,0.28258554808755476,8.637080362028371e-08,9.107000420449651e-08,-0.09073200111350666,1.4919611296404511e-05,-0.13957687077032732
293,0.2836,642.606,0.00642215,0.00437975,0.0031508,-0.0031113,-0.00591839,0.249657,-0.0954187,-0.150805,9.1676e-08,8.68671e-08,1.49283e-05,0.240465,0.28358507149333567,9.167600412141041e-08,8.686710373240203e-08,-0.09100774027961067,1.4928411427694854e-05,-0.13998461469063894
294,0.2846,643.102,0.00640449,0.00436713,0.00314446,-0.00310494,-0.00592127,0.250436,-0.0957218,-0.151278,9.69615e-08,8.26796e-08,1.4937e-05,0.241234,0.2845853738312041,9.696150460314357e-08,8.267960338592673e-08,-0.09128321408336793,1.4937111557644656e-05,-0.14039130577786574
295,0.2856,643.597,0.00638689,0.00435457,0.00313812,-0.00309857,-0.00592409,0.251214,-0.0960247,-0.15175,1.02227e-07,7.85073e-08,1.49456e-05,0.242004,0.28558517012237195,1.0222700530526652e-07,7.850730310288156e-08,-0.09155842271537062,1.494571168603187e-05,-0.1407969453430704
296,0.2866,644.09,0.00636937,0.00434206,0.00313178,-0.00309221,-0.00592687,0.251991,-0.0963273,-0.152223,1.07473e-07,7.43502e-08,1.49542e-05,0.242773,0.286584457972612,1.0747300582814034e-07,7.435020266122194e-08,-0.09183327554932585,1.495431181464113e-05,-0.1412032522887552
297,0.2876,644.581,0.00635191,0.00432961,0.00312545,-0.00308584,-0.00592961,0.252768,-0.0966298,-0.152695,1.12699e-07,7.02085e-08,1.49626e-05,0.243541,0.28758452257123923,1.1269900634935937e-07,7.02085025672261e-08,-0.09210795443619602,1.4962711940347262e-05,-0.1416085087056368
298,0.2886,645.072,0.00633452,0.0043172,0.00311911,-0.00307948,-0.00593229,0.253545,-0.096932,-0.153166,1.17906e-07,6.6082e-08,1.4971e-05,0.244309,0.288585364522022,1.1790600695782416e-07,6.60820020925712e-08,-0.09238227795999321,1.4971112066053394e-05,-0.14201271589976983
299,0.2896,645.56,0.00631719,0.00430485,0.00311278,-0.00307312,-0.00593492,0.25432,-0.097234,-0.153637,1.23092e-07,6.19708e-08,1.49792e-05,0.245076,0.2895844052578076,1.2309200747573357e-07,6.197080182346326e-08,-0.09265633712703214,1.4979312188856397e-05,-0.14241673275714206
300,0.2906,646.048,0.00629993,0.00429254,0.00310644,-0.00306676,-0.00593751,0.255096,-0.0975358,-0.154108,1.28259e-07,5.78748e-08,1.49874e-05,0.245842,0.2905855111351312,1.2825900830293335e-07,5.7874801617785465e-08,-0.09293013212674361,1.4987512311659401e-05,-0.14282055936738136
301,0.2916,646.534,0.00628274,0.00428029,0.00310011,-0.0030604,-0.00594005,0.25587,-0.0978373,-0.154578,1.33406e-07,5.37941e-08,1.49955e-05,0.246608,0.2915848109999093,1.3340600890643373e-07,5.379410139561003e-08,-0.09320357246870448,1.4995612433121863e-05,-0.14322333904384021
302,0.2926,647.018,0.00626562,0.00426809,0.00309378,-0.00305404,-0.00594254,0.256644,-0.0981387,-0.155048,1.38533e-07,4.97287e-08,1.50036e-05,0.247373,0.29258488462218835,1.385330095082793e-07,4.972870115693695e-08,-0.09347683972851761,1.5003712554584325e-05,-0.1436259294583312
303,0.2936,647.501,0.00624856,0.00425594,0.00308746,-0.00304768,-0.00594498,0.257417,-0.0984398,-0.155518,1.43641e-07,4.56785e-08,1.50115e-05,0.248138,0.29358443901600273,1.4364101041941524e-07,4.5678500981694015e-08,-0.09374975276295616,1.501161267314366e-05,-0.1440283306997865
304,0.2946,647.983,0.00623156,0.00424383,0.00308113,-0.00304133,-0.00594738,0.25819,-0.0987407,-0.155987,1.48728e-07,4.16436e-08,1.50194e-05,0.248902,0.2945847663640717,1.487280110179512e-07,4.164360078995344e-08,-0.0940224024401487,1.5019512791702994e-05,-0.14442968728721162
305,0.2956,648.463,0.00621463,0.00423178,0.00307481,-0.00303497,-0.00594973,0.258962,-0.0990414,-0.156456,1.53796e-07,3.76239e-08,1.50272e-05,0.249666,0.29558457167890073,1.5379601192577752e-07,3.7623900661643006e-08,-0.09429478894837096,1.5027312908921786e-05,-0.14483085568253184
306,0.2966,648.942,0.00619777,0.00421978,0.00306849,-0.00302862,-0.00595204,0.259734,-0.0993419,-0.156925,1.58845e-07,3.36194e-08,1.50349e-05,0.250429,0.2965851491414433,1.5884501269880502e-07,3.3619400596762716e-08,-0.09456691247568427,1.5035013024577992e-05,-0.14523183597398837
307,0.2976,649.42,0.00618097,0.00420782,0.00306217,-0.00302227,-0.0059543,0.260505,-0.0996421,-0.157393,1.63873e-07,2.96302e-08,1.50425e-05,0.251191,0.2975852017621772,1.6387301338127713e-07,2.9630200515384786e-08,-0.09483868269380835,1.5042613138893657e-05,-0.14563177388198234
308,0.2986,649.896,0.00616423,0.00419592,0.00305586,-0.00301592,-0.00595652,0.261275,-0.0999422,-0.157861,1.68882e-07,2.56561e-08,1.505e-05,0.251953,0.29858472713541806,1.6888201415099502e-07,2.5656100355320177e-08,-0.09511028084979034,1.505011325186878e-05,-0.14603152466282665
309,0.2996,650.371,0.00614756,0.00418406,0.00304954,-0.00300957,-0.0059587,0.262045,-0.100242,-0.158328,1.73871e-07,2.16973e-08,1.50575e-05,0.252714,0.2995850224395813,1.738710151411027e-07,2.1697300178757928e-08,-0.09538152612589301,1.5057613364621858e-05,-0.14643023483473772
310,0.3006,650.845,0.00613095,0.00417225,0.00304324,-0.00300323,-0.00596083,0.262814,-0.100542,-0.158795,1.7884e-07,1.77536e-08,1.50649e-05,0.253475,0.3005847876823047,1.7884001590751097e-07,1.7753600145553605e-08,-0.09565287096429442,1.506501347625644e-05,-0.14682875885246893
311,0.3016,651.317,0.0061144,0.00416049,0.00303693,-0.00299689,-0.00596291,0.263583,-0.100841,-0.159262,1.83789e-07,1.38252e-08,1.50722e-05,0.254235,0.30158532204018673,1.8378901689430904e-07,1.3825200095851642e-08,-0.09592323033513594,1.507231358610639e-05,-0.147227096802934
312,0.3026,651.788,0.00609792,0.00414877,0.00303063,-0.00299055,-0.00596496,0.264351,-0.10114,-0.159728,1.88719e-07,9.91189e-09,1.50794e-05,0.254995,0.3025853235189293,1.8871901774630828e-07,9.911889975455779e-09,-0.09619350888060962,1.5079513694615798e-05,-0.14762439639782854
313,0.3036,652.258,0.0060815,0.00413711,0.00302433,-0.00298422,-0.00596696,0.265118,-0.101439,-0.160194,1.93629e-07,6.01376e-09,1.50865e-05,0.255754,0.3035847897083541,1.9362901881869732e-07,6.013759934475615e-09,-0.09646370662487858,1.5086613801784665e-05,-0.1480215108942432
314,0.3046,652.726,0.00606514,0.00412549,0.00301803,-0.00297788,-0.00596892,0.265885,-0.101738,-0.160659,1.9852e-07,2.13078e-09,1.50936e-05,0.256512,0.30458502278240873,1.9852001975628752e-07,2.130779996889487e-09,-0.0967338235920987,1.5093713908953532e-05,-0.1484175887964283
315,0.3056,653.193,0.00604884,0.00411391,0.00301174,-0.00297155,-0.00597084,0.266651,-0.102036,-0.161125,2.0339e-07,-1.73706e-09,1.51006e-05,0.25727,0.3055847177441491,2.0339002060332234e-07,-1.7370600513544332e-09,-0.09700295680982718,1.5100714014559813e-05,-0.14881433375129505
316,0.3066,653.659,0.0060326,0.00410239,0.00300545,-0.00296522,-0.00597271,0.267417,-0.102335,-0.161589,2.08242e-07,-5.58978e-09,1.51075e-05,0.258027,0.3065851787655933,2.0824202162650352e-07,-5.589779972225983e-09,-0.09727291256534432,1.5107614118825552e-05,-0.14920919228617002
317,0.3076,654.123,0.00601643,0.00409091,0.00299917,-0.0029589,-0.00597455,0.268182,-0.102633,-0.162054,2.13073e-07,-9.42738e-09,1.51144e-05,0.258784,0.30758509884801577,2.130730227811739e-07,-9.427379987769768e-09,-0.09754188515849305,1.5114514223091291e-05,-0.14960471804489117
318,0.3086,654.586,0.00600031,0.00407947,0.00299289,-0.00295258,-0.00597634,0.268946,-0.102931,-0.162518,2.17885e-07,-1.32499e-08,1.51212e-05,0.25954,0.308584475576835,2.1788502380104546e-07,-1.3249899954992372e-08,-0.09781077760975065,1.5121314326016488e-05,-0.14999920992652416
319,0.3096,655.048,0.00598426,0.00406808,0.00298661,-0.00294626,-0.00597809,0.26971,-0.103228,-0.162982,2.22677e-07,-1.70573e-08,1.51279e-05,0.260296,0.30958461612121546,2.2267702481926221e-07,-1.705729990586491e-08,-0.09807868802213493,1.5128014427157055e-05,-0.15039351880638363
320,0.3106,655.509,0.00596827,0.00405674,0.00298034,-0.00293994,-0.00597981,0.270474,-0.103526,-0.163445,2.2745e-07,-2.08497e-08,1.51345e-05,0.261051,0.3105855210649353,2.2745002592472474e-07,-2.0849699744474037e-08,-0.09834742052997203,1.5134614527179124e-05,-0.15078679555658314
321,0.3116,655.968,0.00595234,0.00404544,0.00297407,-0.00293363,-0.00598148,0.271236,-0.103823,-0.163908,2.32203e-07,-2.4627e-08,1.51411e-05,0.261805,0.3115845678204596,2.3220302702853246e-07,-2.4626999661769844e-08,-0.09861517158307509,1.514121462697915e-05,-0.1511798902617939
322,0.3126,656.426,0.00593646,0.00403419,0.00296781,-0.00292733,-0.00598311,0.271998,-0.10412,-0.164371,2.36937e-07,-2.83892e-08,1.51476e-05,0.262559,0.3125843761397309,2.3693702799754135e-07,-2.8389199546730026e-08,-0.09888284312592321,1.5147714725438632e-05,-0.15157280300628329
323,0.3136,656.883,0.00592065,0.00402298,0.00296155,-0.00292102,-0.00598471,0.27276,-0.104417,-0.164833,2.41651e-07,-3.21365e-08,1.5154e-05,0.263313,0.3135849466032814,2.4165102918694004e-07,-3.213649946154362e-08,-0.0991504351821274,1.515411482233553e-05,-0.1519646858393895
324,0.3146,657.339,0.00590489,0.00401182,0.00295529,-0.00291472,-0.00598627,0.273521,-0.104713,-0.165295,2.46345e-07,-3.58687e-08,1.51603e-05,0.264065,0.31458496520646384,2.463450303746839e-07,-3.586869934402159e-08,-0.09941704719278932,1.5160414917891885e-05,-0.15235638766444293
325,0.3156,657.793,0.0058892,0.0040007,0.00294905,-0.00290843,-0.00598778,0.274281,-0.10501,-0.165757,2.5102e-07,-3.95859e-08,1.51666e-05,0.264818,0.31558442952835564,2.5102003142762896e-07,-3.958589922525846e-08,-0.09968448061394419,1.516671501344824e-05,-0.15274790856504994
326,0.3166,658.246,0.00587356,0.00398962,0.0029428,-0.00290213,-0.00598926,0.275041,-0.105306,-0.166218,2.55676e-07,-4.32882e-08,1.51728e-05,0.265569,0.3165846537318504,2.556760327898644e-07,-4.3288199025326435e-08,-0.09995093457055138,1.5172915107442009e-05,-0.1531384017636035
327,0.3176,658.698,0.00585798,0.00397859,0.00293656,-0.00289585,-0.00599071,0.2758,-0.105602,-0.166679,2.60312e-07,-4.69755e-08,1.5179e-05,0.26632,0.317584320809698,2.603120339284004e-07,-4.697549893517561e-08,-0.1002173096684591,1.5179115201657822e-05,-0.15352871498628018
328,0.3186,659.149,0.00584246,0.0039676,0.00293033,-0.00288956,-0.00599211,0.276559,-0.105898,-0.167139,2.64929e-07,-5.06479e-08,1.5185e-05,0.267071,0.3185847469228753,2.649290351541822e-07,-5.064789876385589e-08,-0.10048360593100614,1.5185115292748463e-05,-0.15391800223445506
329,0.3196,659.599,0.00582699,0.00395666,0.0029241,-0.00288328,-0.00599348,0.277317,-0.106193,-0.167599,2.69526e-07,-5.43053e-08,1.5191e-05,0.267821,0.3195846130624358,2.695260363783092e-07,-5.430529848027277e-08,-0.10074892413089787,1.5191115383839104e-05,-0.1543071104516759
330,0.3206,660.047,0.00581158,0.00394576,0.00291788,-0.00287701,-0.00599481,0.278075,-0.106489,-0.168059,2.74104e-07,-5.79479e-08,1.5197e-05,0.26857,0.3205852373878464,2.7410403746763734e-07,-5.794789836865988e-08,-0.10101506305885055,1.5197115474929745e-05,-0.15469603972027823
331,0.3216,660.494,0.00579623,0.0039349,0.00291166,-0.00287074,-0.00599611,0.278832,-0.106784,-0.168519,2.78663e-07,-6.15755e-08,1.52028e-05,0.269319,0.32158529888806986,2.786630388662559e-07,-6.157549814478358e-08,-0.10128022450201235,1.5202915563117259e-05,-0.15508479012255938
332,0.3226,660.94,0.00578094,0.00392408,0.00290545,-0.00286447,-0.00599737,0.279588,-0.107079,-0.168978,2.83202e-07,-6.51883e-08,1.52087e-05,0.270067,0.3225847951360068,2.83202040041175e-07,-6.518829787083291e-08,-0.10154530773408521,1.5208815652867358e-05,-0.15547251721371846
333,0.3236,661.385,0.0057657,0.00391331,0.00289924,-0.00285821,-0.00599859,0.280344,-0.107373,-0.169436,2.87722e-07,-6.87863e-08,1.52144e-05,0.270815,0.32358504728880333,2.877220413033399e-07,-6.878629765783018e-08,-0.10180941458800141,1.5214515739492285e-05,-0.15585922223862425
334,0.3246,661.828,0.00575052,0.00390257,0.00289304,-0.00285196,-0.00599978,0.281099,-0.107668,-0.169895,2.92223e-07,-7.23694e-08,1.52201e-05,0.271562,0.3245847313327459,2.9222304265275056e-07,-7.236939736365855e-08,-0.10207434173202301,1.5220215826339256e-05,-0.15624659394700857
335,0.3256,662.271,0.0057354,0.00389188,0.00288684,-0.0028457,-0.00600093,0.281854,-0.107962,-0.170353,2.96705e-07,-7.59377e-08,1.52257e-05,0.272309,0.32558517042313584,2.96705044089407e-07,-7.593769713043486e-08,-0.1023382930728054,1.5225815911623641e-05,-0.15663294452594478
336,0.3266,662.712,0.00572033,0.00388124,0.00288065,-0.00283946,-0.00600205,0.282608,-0.108256,-0.17081,3.01167e-07,-7.94913e-08,1.52312e-05,0.273055,0.32658503854454657,3.0116704530236404e-07,-7.949129687823131e-08,-0.10260216682330003,1.523131599534544e-05,-0.15701827521552747
337,0.3276,663.152,0.00570532,0.00387063,0.00287447,-0.00283322,-0.00600313,0.283361,-0.10855,-0.171268,3.0561e-07,-8.303e-08,1.52367e-05,0.273801,0.3275843332658157,3.0561004660256685e-07,-8.302999654485888e-08,-0.1028659630063149,1.5236816079067239e-05,-0.1574042724453658
338,0.3286,663.591,0.00569036,0.00386006,0.00286829,-0.00282698,-0.00600418,0.284114,-0.108844,-0.171725,3.10035e-07,-8.65541e-08,1.52421e-05,0.274546,0.3285843807393858,3.10035048078916e-07,-8.655409622360111e-08,-0.10312968164465164,1.5242216161448496e-05,-0.1577892507186226
339,0.3296,664.029,0.00567545,0.00384954,0.00286212,-0.00282075,-0.00600519,0.284867,-0.109137,-0.172181,3.1444e-07,-9.00634e-08,1.52475e-05,0.27529,0.32958518153229255,3.144400493315658e-07,-9.006339596329127e-08,-0.10339242615397948,1.5247616243829754e-05,-0.15817321127063588
340,0.3306,664.466,0.0056606,0.00383905,0.00285596,-0.00281452,-0.00600617,0.285619,-0.10943,-0.172638,3.18825e-07,-9.3558e-08,1.52528e-05,0.276034,0.3305854056259281,3.188250508046053e-07,-9.355799557297928e-08,-0.10365509369044312,1.5252916324648425e-05,-0.15855783821913338
341,0.3316,664.901,0.00564581,0.00382861,0.0028498,-0.0028083,-0.00600712,0.28637,-0.109723,-0.173093,3.23192e-07,-9.7038e-08,1.5258e-05,0.276777,0.331585050585252,3.2319205223174663e-07,-9.703799530580426e-08,-0.10391768427659243,1.525811640390451e-05,-0.15894060731617043
342,0.3326,665.336,0.00563107,0.00381821,0.00284365,-0.00280209,-0.00600804,0.287121,-0.110016,-0.173549,3.2754e-07,-1.00503e-07,1.52632e-05,0.27752,0.3325854465599114,3.275400537461337e-07,-1.0050299492636583e-07,-0.10418019793497035,1.5263316483160594e-05,-0.15932404296926128
343,0.3336,665.769,0.00561638,0.00380785,0.0028375,-0.00279588,-0.00600892,0.287871,-0.110309,-0.174004,3.31869e-07,-1.03954e-07,1.52683e-05,0.278262,0.33358526052820303,3.3186905512572196e-07,-1.0395399463458688e-07,-0.10444263468811354,1.5268416561076137e-05,-0.15970646352243678
344,0.3346,666.201,0.00560175,0.00379752,0.00283136,-0.00278968,-0.00600977,0.28862,-0.110601,-0.174459,3.36179e-07,-1.0739e-07,1.52734e-05,0.279004,0.33458449005308166,3.36179056592556e-07,-1.0738999423054452e-07,-0.10470409926309887,1.527351663899168e-05,-0.16008871011384007
345,0.3356,666.632,0.00558717,0.00378724,0.00282523,-0.00278348,-0.00601058,0.289369,-0.110894,-0.174914,3.4047e-07,-1.10811e-07,1.52783e-05,0.279745,0.3355844682812288,3.404700579245912e-07,-1.1081099382526105e-07,-0.10496638253563895,1.527841671378205e-05,-0.1604707828226054
346,0.3366,667.062,0.00557264,0.003777,0.00281911,-0.00277729,-0.00601137,0.290118,-0.111186,-0.175368,3.44742e-07,-1.14218e-07,1.52833e-05,0.280486,0.3365851957736332,3.4474205934387214e-07,-1.1421799350763706e-07,-0.10522769419857902,1.5283416790135007e-05,-0.16085184258009377
347,0.3376,667.491,0.00555816,0.00376679,0.00281299,-0.0027711,-0.00601212,0.290866,-0.111477,-0.175821,3.48995e-07,-1.17611e-07,1.52882e-05,0.281226,0.3375853355056999,3.489950608503989e-07,-1.1761099305562794e-07,-0.10548803505813509,1.5288316865147422e-05,-0.16123189060802756
348,0.3386,667.919,0.00554374,0.00375663,0.00280688,-0.00276492,-0.00601284,0.291613,-0.111769,-0.176275,3.5323e-07,-1.20989e-07,1.5293e-05,0.281965,0.3385848850365927,3.532300623110274e-07,-1.2098899271340002e-07,-0.10574919442077546,1.529311693859725e-05,-0.1616126049010077
349,0.3396,668.346,0.00552937,0.0037465,0.00280078,-0.00275875,-0.00601353,0.29236,-0.11206,-0.176728,3.57445e-07,-1.24352e-07,1.52977e-05,0.282704,0.33958518150993333,3.574450639920457e-07,-1.243519922589087e-07,-0.10600938354584533,1.5297817010484493e-05,-0.161992308381656
350,0.3406,668.771,0.00551505,0.00373641,0.00279468,-0.00275258,-0.00601419,0.293106,-0.112351,-0.177181,3.61642e-07,-1.27701e-07,1.53024e-05,0.283443,0.3405848848983408,3.616420654051211e-07,-1.2770099189207684e-07,-0.10626949696689514,1.5302517082371736e-05,-0.16237183989558102
351,0.3416,669.196,0.00550079,0.00372636,0.00278859,-0.00274642,-0.00601482,0.293852,-0.112642,-0.177633,3.6582e-07,-1.31035e-07,1.53071e-05,0.284181,0.34158533434372096,3.6582006690544233e-07,-1.3103499141298158e-07,-0.10652953470595172,1.530721715425898e-05,-0.1627503622714468
352,0.3426,669.619,0.00548657,0.00371635,0.00278251,-0.00274026,-0.00601542,0.294597,-0.112933,-0.178085,3.6998e-07,-1.34356e-07,1.53117e-05,0.284918,0.34258518781698055,3.699800683598653e-07,-1.3435599099942408e-07,-0.10678949678503524,1.5311817224583635e-05,-0.1631287135938596
353,0.3436,670.042,0.00547241,0.00370638,0.00277643,-0.00273411,-0.00601599,0.295341,-0.113224,-0.178537,3.74121e-07,-1.37661e-07,1.53162e-05,0.285655,0.34358444287350376,3.7412106990153404e-07,-1.376609904957249e-07,-0.10704938322615976,1.531631729356775e-05,-0.1635068939401183
354,0.3446,670.463,0.00545829,0.00369644,0.00277037,-0.00272797,-0.00601653,0.296085,-0.113514,-0.178988,3.78243e-07,-1.40953e-07,1.53207e-05,0.286391,0.3445844416524195,3.7824307153044856e-07,-1.4095299005756345e-07,-0.10730830136008007,1.5320817362551864e-05,-0.1638840672719719
355,0.3456,670.883,0.00544423,0.00368655,0.00276431,-0.00272183,-0.00601704,0.296829,-0.113804,-0.179439,3.82347e-07,-1.4423e-07,1.53251e-05,0.287127,0.34558518470726307,3.8234707311346483e-07,-1.4422998961816091e-07,-0.10756714441862814,1.5325217429973392e-05,-0.16426107053700567
356,0.3466,671.303,0.00543022,0.00367669,0.00275826,-0.0027157,-0.00601752,0.297572,-0.114094,-0.17989,3.86432e-07,-1.47492e-07,1.53294e-05,0.287862,0.34658532600598235,3.8643207456168227e-07,-1.4749198917751727e-07,-0.10782591242357253,1.5329517495832334e-05,-0.16463790381190269
357,0.3476,671.721,0.00541626,0.00366686,0.00275221,-0.00270958,-0.00601797,0.298314,-0.114384,-0.18034,3.90498e-07,-1.50741e-07,1.53337e-05,0.288597,0.3475848631002818,3.904980763191901e-07,-1.5074098869138908e-07,-0.10808460539667553,1.5333817561691276e-05,-0.16501373218746074
358,0.3486,672.138,0.00540235,0.00365708,0.00274617,-0.00270346,-0.00601839,0.299056,-0.114674,-0.180791,3.94547e-07,-1.53975e-07,1.5338e-05,0.289331,0.34858514212632774,3.9454707789765564e-07,-1.5397498809299748e-07,-0.10834322335969337,1.5338117627772263e-05,-0.16539022608848786
359,0.3496,672.554,0.00538848,0.00364733,0.00274015,-0.00269736,-0.00601878,0.299797,-0.114963,-0.18124,3.98576e-07,-1.57195e-07,1.53422e-05,0.290065,0.34958481404934894,3.985760794744664e-07,-1.5719498769328766e-07,-0.10860087493569648,1.534231769206862e-05,-0.16576488176048154
360,0.3506,672.969,0.00537467,0.00363762,0.00273412,-0.00269125,-0.00601914,0.300538,-0.115252,-0.18169,4.02588e-07,-1.60401e-07,1.53463e-05,0.290798,0.3505852270037837,4.0258808109427946e-07,-1.604009871591927e-07,-0.10885845206115263,1.5346417755024433e-05,-0.16614020311005206
361,0.3516,673.383,0.00536091,0.00362794,0.00272811,-0.00268516,-0.00601948,0.301278,-0.115541,-0.182139,4.06581e-07,-1.63592e-07,1.53504e-05,0.29153,0.35158502995323326,4.065810825792937e-07,-1.6359198662385666e-07,-0.10911595475757507,1.5350517817980247e-05,-0.16651452211794981
362,0.3526,673.796,0.00534719,0.0036183,0.00272211,-0.00267907,-0.00601979,0.302018,-0.11583,-0.182587,4.10556e-07,-1.6677e-07,1.53545e-05,0.292262,0.3525855730306793,4.105560842404543e-07,-1.6676998604303606e-07,-0.1093733830464707,1.535461788093606e-05,-0.1668878399825955
363,0.3536,674.208,0.00533353,0.0036087,0.00271611,-0.00267299,-0.00602007,0.302757,-0.116118,-0.183035,4.14512e-07,-1.69933e-07,1.53584e-05,0.292994,0.35358550319783877,4.145120859888607e-07,-1.6993298557199665e-07,-0.10962984657963182,1.5358517940766703e-05,-0.16726099063829525
364,0.3546,674.619,0.00531991,0.00359913,0.00271012,-0.00266691,-0.00602032,0.303495,-0.116406,-0.183483,4.1845e-07,-1.73082e-07,1.53624e-05,0.293725,0.3545848180010054,4.184500874693242e-07,-1.7308198496657212e-07,-0.1098862362619305,1.5362518002381975e-05,-0.1676339741599422
365,0.3556,675.029,0.00530634,0.0035896,0.00270414,-0.00266085,-0.00602055,0.304233,-0.116695,-0.183931,4.22371e-07,-1.76217e-07,1.53663e-05,0.294455,0.35558487057069876,4.223710892148347e-07,-1.7621698444880707e-07,-0.1101434419716355,1.5366418062212617e-05,-0.16800679062239554
366,0.3566,675.438,0.00529282,0.00358011,0.00269817,-0.00265479,-0.00602074,0.30497,-0.116983,-0.184378,4.26273e-07,-1.79339e-07,1.53701e-05,0.295185,0.3565843048666091,4.262730908255463e-07,-1.7933898388555747e-07,-0.11039968375975906,1.5370218120702717e-05,-0.16837860847950514
367,0.3576,675.846,0.00527935,0.00357065,0.00269221,-0.00264873,-0.00602092,0.305707,-0.11727,-0.184825,4.30156e-07,-1.82446e-07,1.53739e-05,0.295914,0.35758447601709276,4.3015609252350373e-07,-1.8244598332106676e-07,-0.11065496241628059,1.5374018178970772e-05,-0.16875026017117345
368,0.3586,676.253,0.00526593,0.00356122,0.00268625,-0.00264269,-0.00602106,0.306444,-0.117558,-0.185272,4.34022e-07,-1.85539e-07,1.53776e-05,0.296643,0.35858538456541234,4.340220942644635e-07,-1.8553898273321323e-07,-0.11091105690772785,1.5377718235898286e-05,-0.16912174577165973
369,0.3596,676.659,0.00525255,0.00355183,0.0026803,-0.00263665,-0.00602118,0.307179,-0.117845,-0.185718,4.3787e-07,-1.88618e-07,1.53813e-05,0.297371,0.35958431188388684,4.37870095959525e-07,-1.8861798223301918e-07,-0.11116618882121443,1.53814182928258e-05,-0.16949223484784026
370,0.3606,677.065,0.00523922,0.00354248,0.00267436,-0.00263062,-0.00602127,0.307915,-0.118132,-0.186164,4.417e-07,-1.91683e-07,1.53849e-05,0.298099,0.3605853342684835,4.417000976086882e-07,-1.9168298159844e-07,-0.11142124752234839,1.5385018348190727e-05,-0.16986255872273537
371,0.3616,677.469,0.00522594,0.00353316,0.00266843,-0.0026246,-0.00602134,0.308649,-0.118419,-0.18661,4.45512e-07,-1.94735e-07,1.53885e-05,0.298826,0.36158437050528236,4.4551209921195323e-07,-1.9473498102939857e-07,-0.11167623303213858,1.5388618403555654e-05,-0.17023271747000857
372,0.3626,677.872,0.0052127,0.00352387,0.00266251,-0.00261858,-0.00602138,0.309384,-0.118706,-0.187055,4.49306e-07,-1.97772e-07,1.5392e-05,0.299553,0.3625855028886851,4.493061009913646e-07,-1.9777198045911604e-07,-0.11193114537158788,1.5392118457357995e-05,-0.17060188176558666
373,0.3636,678.274,0.00519951,0.00351462,0.0026566,-0.00261257,-0.0060214,0.310117,-0.118992,-0.1875,4.53082e-07,-2.00796e-07,1.53955e-05,0.300279,0.3635846442028583,4.530821027248777e-07,-2.0079597984334896e-07,-0.11218509674723387,1.539561851138238e-05,-0.17097088181959963
374,0.3646,678.675,0.00518637,0.00350541,0.0026507,-0.00260657,-0.00602139,0.31085,-0.119279,-0.187945,4.56841e-07,-2.03806e-07,1.53989e-05,0.301005,0.3645845181560945,4.5684110427934854e-07,-2.0380597920421906e-07,-0.11243986306375231,1.5399018563622136e-05,-0.1713397177051188
375,0.3656,679.075,0.00517327,0.00349622,0.0026448,-0.00260058,-0.00602135,0.311583,-0.119565,-0.188389,4.60581e-07,-2.06802e-07,1.54023e-05,0.30173,0.3655851252856146,4.6058110614310976e-07,-2.0680197865274863e-07,-0.11269366896694188,1.5402418616083935e-05,-0.17170756120315833
376,0.3666,679.474,0.00516022,0.00348708,0.00263892,-0.0025946,-0.00602129,0.312315,-0.119851,-0.188833,4.64304e-07,-2.09785e-07,1.54057e-05,0.302455,0.36658509954325114,4.643041078278287e-07,-2.0978497794477136e-07,-0.11294740229202227,1.540581866832369e-05,-0.1720752414149368
377,0.3676,679.873,0.00514722,0.00347796,0.00263304,-0.00258862,-0.00602121,0.313046,-0.120136,-0.189277,4.6801e-07,-2.12754e-07,1.5409e-05,0.303179,0.3675844384648925,4.6801010955555e-07,-2.1275397732445356e-07,-0.1132001762603676,1.5409118719222903e-05,-0.17244275841293744
378,0.3686,680.27,0.00513426,0.00346888,0.00262717,-0.00258265,-0.0060211,0.313777,-0.120422,-0.18972,4.71697e-07,-2.15709e-07,1.54122e-05,0.303903,0.3685845081703545,4.7169711114847246e-07,-2.1570897668077293e-07,-0.11345376474507529,1.541231876855953e-05,-0.1728092850793097
379,0.3696,680.667,0.00512134,0.00345983,0.00262131,-0.00257669,-0.00602096,0.314508,-0.120707,-0.190163,4.75367e-07,-2.1865e-07,1.54154e-05,0.304626,0.36958530919403554,4.7536711300644185e-07,-2.186499761247518e-07,-0.1137063944206842,1.5415518817896157e-05,-0.1731756494103287
380,0.3706,681.062,0.00510847,0.00345081,0.00261546,-0.00257074,-0.00602081,0.315238,-0.120992,-0.190605,4.7902e-07,-2.21578e-07,1.54186e-05,0.305348,0.37058547148456755,4.79020114685369e-07,-2.215779754122238e-07,-0.1139589521070945,1.5418718867232784e-05,-0.17354102501933133
381,0.3716,681.457,0.00509565,0.00344183,0.00260962,-0.0025648,-0.00602063,0.315967,-0.121277,-0.191048,4.82655e-07,-2.24492e-07,1.54217e-05,0.30607,0.37158499257445143,4.826551165404425e-07,-2.2449197478735528e-07,-0.11421143782482024,1.5421818915006824e-05,-0.17390706526134792
382,0.3726,681.85,0.00508287,0.00343288,0.00260379,-0.00255886,-0.00602042,0.316696,-0.121562,-0.19149,4.86272e-07,-2.27393e-07,1.54247e-05,0.306792,0.3725852425808678,4.862721181275731e-07,-2.273929741170022e-07,-0.11446385159436945,1.542481896121828e-05,-0.17427211765597994
383,0.3736,682.243,0.00507013,0.00342397,0.00259797,-0.00255293,-0.00602019,0.317424,-0.121847,-0.191931,4.89873e-07,-2.3028e-07,1.54277e-05,0.307513,0.3735848484498552,4.898731200686512e-07,-2.3027997353430862e-07,-0.1147161934362445,1.5427819007651777e-05,-0.17463618336970343
384,0.3746,682.635,0.00505744,0.00341508,0.00259215,-0.00254701,-0.00601994,0.318152,-0.122131,-0.192373,4.93456e-07,-2.33154e-07,1.54307e-05,0.308233,0.3745851822968669,4.934561217417865e-07,-2.331539727951082e-07,-0.11496757833896276,1.5430819053863232e-05,-0.17500091356534286
385,0.3756,683.026,0.00504479,0.00340623,0.00258635,-0.0025411,-0.00601967,0.318879,-0.122415,-0.192814,4.97021e-07,-2.36014e-07,1.54336e-05,0.308953,0.3755848690665071,4.970211235910682e-07,-2.3601397214356723e-07,-0.11521889185850565,1.54337190985121e-05,-0.17536465795092848
386,0.3766,683.416,0.00503219,0.00339741,0.00258055,-0.0025352,-0.00601937,0.319606,-0.122699,-0.193254,5.00569e-07,-2.38861e-07,1.54365e-05,0.309673,0.3765852828726748,5.005691252613076e-07,-2.388609714465417e-07,-0.11547013401514283,1.5436619143383012e-05,-0.17572741768843525
387,0.3776,683.805,0.00501963,0.00338862,0.00257477,-0.00252931,-0.00601905,0.320332,-0.122983,-0.193695,5.041e-07,-2.41694e-07,1.54393e-05,0.310391,0.3775850466583819,5.041001269745493e-07,-2.416939708371757e-07,-0.11572130482913878,1.543941918669134e-05,-0.17609084175633782
388,0.3786,684.193,0.00500711,0.00337987,0.00256899,-0.00252342,-0.0060187,0.321058,-0.123266,-0.194135,5.07614e-07,-2.44514e-07,1.54421e-05,0.31111,0.378585536536137,5.076141287307934e-07,-2.445139700713028e-07,-0.11597152029271407,1.544221922977762e-05,-0.1764532820432545
389,0.3796,684.58,0.00499464,0.00337115,0.00256322,-0.00251754,-0.00601834,0.321783,-0.12355,-0.194574,5.11111e-07,-2.47321e-07,1.54449e-05,0.311828,0.379585373447211,5.111111305300398e-07,-2.473209693709677e-07,-0.11622254873322513,1.5445019273085947e-05,-0.17681473970667538
390,0.3806,684.966,0.00498221,0.00336245,0.00255747,-0.00251167,-0.00601795,0.322507,-0.123833,-0.195014,5.14591e-07,-2.50115e-07,1.54476e-05,0.312545,0.38058455491763343,5.145911323722885e-07,-2.5011496873617034e-07,-0.11647262236484579,1.5447719314831687e-05,-0.17717686154855694
391,0.3816,685.352,0.00496982,0.00335379,0.00255172,-0.00250581,-0.00601754,0.323231,-0.124116,-0.195453,5.18053e-07,-2.52895e-07,1.54502e-05,0.313262,0.38158446005737723,5.18053134168639e-07,-2.5289496796698785e-07,-0.1167226252356417,1.545031935501484e-05,-0.17753800163028932
392,0.3826,685.736,0.00495748,0.00334516,0.00254598,-0.00249996,-0.00601711,0.323955,-0.124399,-0.195891,5.21499e-07,-2.55662e-07,1.54529e-05,0.313978,0.38258508939056846,5.214991358748478e-07,-2.556619672633431e-07,-0.11697255736563561,1.545301939676058e-05,-0.17789816110489243
393,0.3836,686.12,0.00494518,0.00333656,0.00254025,-0.00249412,-0.00601666,0.324678,-0.124681,-0.19633,5.24928e-07,-2.58415e-07,1.54554e-05,0.314694,0.3835850598559618,5.249281378461035e-07,-2.5841496664735786e-07,-0.1172215359968215,1.545551943538115e-05,-0.17825898460561407
394,0.3846,686.503,0.00493292,0.003328,0.00253453,-0.00248828,-0.00601619,0.3254,-0.124964,-0.196768,5.2834e-07,-2.61156e-07,1.5458e-05,0.31541,0.38458436897635995,5.283401396383169e-07,-2.6115596585274403e-07,-0.1174713269550467,1.5458119475564303e-05,-0.17861882835882203
395,0.3856,686.885,0.0049207,0.00331946,0.00252883,-0.00248246,-0.00601569,0.326122,-0.125246,-0.197206,5.31735e-07,-2.63884e-07,1.54605e-05,0.316124,0.3855843998584676,5.317351414735327e-07,-2.6388396523469027e-07,-0.11772016495303861,1.546061951418487e-05,-0.17897851453497804
396,0.3866,687.266,0.00490852,0.00331095,0.00252313,-0.00247664,-0.00601517,0.326844,-0.125528,-0.197643,5.35113e-07,-2.66598e-07,1.54629e-05,0.316839,0.38658515302358487,5.351131431297063e-07,-2.6659796448225137e-07,-0.11796893278860843,1.546301955124285e-05,-0.1793372225407185
397,0.3876,687.646,0.00489639,0.00330248,0.00251744,-0.00247083,-0.00601464,0.327565,-0.12581,-0.19808,5.38474e-07,-2.69299e-07,1.54653e-05,0.317553,0.38758524140745343,5.384741450509267e-07,-2.6929896368432793e-07,-0.11821763048153922,1.5465419588300833e-05,-0.17969577382530644
398,0.3886,688.025,0.0048843,0.00329403,0.00251176,-0.00246504,-0.00601408,0.328285,-0.126091,-0.198517,5.41819e-07,-2.71988e-07,1.54677e-05,0.318266,0.3885846625296958,5.418191468820055e-07,-2.7198796304084283e-07,-0.11846537651742572,1.546781962558086e-05,-0.18005416845721423
399,0.3896,688.404,0.00487225,0.00328562,0.00250609,-0.00245925,-0.0060135,0.329005,-0.126373,-0.198953,5.45147e-07,-2.74663e-07,1.547e-05,0.318979,0.3895848034942584,5.45147148534042e-07,-2.746629622629726e-07,-0.11871393423296273,1.5470119661076254e-05,-0.18041158691688064
400,0.3906,688.781,0.00486023,0.00327724,0.00250043,-0.00245347,-0.0060129,0.329724,-0.126654,-0.199389,5.48458e-07,-2.77325e-07,1.54723e-05,0.319691,0.3905842742346446,5.484581504511254e-07,-2.773249615506401e-07,-0.11896154082708743,1.547241969657165e-05,-0.18076884957606576
401,0.3916,689.158,0.00484827,0.00326888,0.00249478,-0.00244769,-0.00601228,0.330443,-0.126935,-0.199825,5.51753e-07,-2.79975e-07,1.54746e-05,0.320403,0.3915844638528987,5.517531522780672e-07,-2.799749607707014e-07,-0.11920907785353407,1.547471973228909e-05,-0.18112595650268348
402,0.3926,689.534,0.00483634,0.00326056,0.00248914,-0.00244193,-0.00601164,0.331162,-0.127216,-0.200261,5.55032e-07,-2.82611e-07,1.54768e-05,0.321114,0.39258537286608,5.550321540148673e-07,-2.826109600784221e-07,-0.11945654533184813,1.5476919766221897e-05,-0.18148290776461862
403,0.3936,689.909,0.00482445,0.00325226,0.00248351,-0.00243618,-0.00601098,0.331879,-0.127497,-0.200696,5.58294e-07,-2.85235e-07,1.5479e-05,0.321825,0.3935842146204027,5.582941557946697e-07,-2.852349593185366e-07,-0.11970394328157008,1.547911980037675e-05,-0.18183888526902048
404,0.3946,690.283,0.0048126,0.00324399,0.00247789,-0.00243043,-0.00601031,0.332597,-0.127777,-0.201131,5.61539e-07,-2.87845e-07,1.54811e-05,0.322535,0.3945851673855416,5.615391576174744e-07,-2.8784495853528824e-07,-0.11995039167306631,1.5481219832746973e-05,-0.18219470795688297
405,0.3956,690.657,0.00480079,0.00323576,0.00247228,-0.0024247,-0.00600961,0.333314,-0.128057,-0.201565,5.64768e-07,-2.90443e-07,1.54832e-05,0.323245,0.3955854435066939,5.647681595721821e-07,-2.904429577954559e-07,-0.12019677106867277,1.548331986533924e-05,-0.1825495584455038
406,0.3966,691.029,0.00478903,0.00322755,0.00246668,-0.00241897,-0.00600889,0.33403,-0.128337,-0.201999,5.67981e-07,-2.93029e-07,1.54852e-05,0.323954,0.3965850404972633,5.679811612147034e-07,-2.9302895709903964e-07,-0.12044308148770566,1.548531989636892e-05,-0.1829042549624269
407,0.3976,691.401,0.0047773,0.00321937,0.00246109,-0.00241325,-0.00600815,0.334746,-0.128617,-0.202433,5.71177e-07,-2.95601e-07,1.54873e-05,0.324663,0.39758535345556356,5.711771631222717e-07,-2.9560095626823824e-07,-0.12068932294947565,1.5487419928739143e-05,-0.18325879757446129
408,0.3986,691.772,0.00476561,0.00321122,0.00245551,-0.00240755,-0.0060074,0.335461,-0.128897,-0.202867,5.74358e-07,-2.98161e-07,1.54892e-05,0.325371,0.39858498430872813,5.743581650285989e-07,-2.9816095559187517e-07,-0.12093549547328819,1.5489319958206238e-05,-0.1836131863483874
409,0.3996,692.142,0.00475396,0.0032031,0.00244994,-0.00240185,-0.00600662,0.336176,-0.129177,-0.2033,5.77522e-07,-3.00708e-07,1.54912e-05,0.326079,0.3995853301535315,5.775221667558839e-07,-3.0070795475900525e-07,-0.12118159907844306,1.549131998923592e-05,-0.18396660531796982
410,0.4006,692.511,0.00474236,0.00319501,0.00244438,-0.00239616,-0.00600583,0.33689,-0.129456,-0.203733,5.8067e-07,-3.03243e-07,1.54931e-05,0.326787,0.40058499091568467,5.806701686150717e-07,-3.0324295396955137e-07,-0.12142675521142932,1.5493220018703013e-05,-0.18431987129026473
411,0.4016,692.88,0.00473079,0.00318695,0.00243883,-0.00239048,-0.00600501,0.337604,-0.129735,-0.204166,5.83802e-07,-3.05764e-07,1.5495e-05,0.327493,0.4015853656904942,5.838021703841179e-07,-3.0576395326775696e-07,-0.12167184295539524,1.5495120048170108e-05,-0.18467298433150547
412,0.4026,693.247,0.00471926,0.00317892,0.00243329,-0.00238481,-0.00600418,0.338317,-0.130014,-0.204598,5.86917e-07,-3.08274e-07,1.54968e-05,0.3282,0.4025850524021932,5.869171721961663e-07,-3.0827395247623457e-07,-0.12191686232941856,1.5496920076074616e-05,-0.1850251295334342
413,0.4036,693.614,0.00470776,0.00317091,0.00242776,-0.00237915,-0.00600333,0.33903,-0.130293,-0.20503,5.90017e-07,-3.10771e-07,1.54986e-05,0.328905,0.40358545214468333,5.900171740069737e-07,-3.1077095175024994e-07,-0.12216181335257204,1.5498720103979124e-05,-0.1853771226414902
414,0.4046,693.98,0.00469631,0.00316293,0.00242224,-0.0023735,-0.00600247,0.339742,-0.130571,-0.205462,5.93101e-07,-3.13255e-07,1.55003e-05,0.329611,0.404585160840673,5.93101175949684e-07,-3.1325495097878076e-07,-0.12240581845017995,1.5500420130321046e-05,-0.18572896372136394
415,0.4056,694.345,0.00468489,0.00315498,0.00241674,-0.00236786,-0.00600158,0.340454,-0.13085,-0.205893,5.96169e-07,-3.15727e-07,1.5502e-05,0.330316,0.40558558158271274,5.961691778022526e-07,-3.157269501397053e-07,-0.12265063307360435,1.550212015666297e-05,-0.1860798389189634
416,0.4066,694.71,0.00467352,0.00314706,0.00241124,-0.00236222,-0.00600068,0.341165,-0.131128,-0.206324,5.99221e-07,-3.18186e-07,1.55037e-05,0.33102,0.40658530829194794,5.992211795646796e-07,-3.181859493661676e-07,-0.12289450229821708,1.550382018300489e-05,-0.1864305629219375
417,0.4076,695.073,0.00466218,0.00313916,0.00240575,-0.0023566,-0.00599976,0.341875,-0.131406,-0.206755,6.02258e-07,-3.20633e-07,1.55054e-05,0.331724,0.4075843384745823,6.022581813258654e-07,-3.2063294863604597e-07,-0.12313830373660806,1.5505520209346813e-05,-0.18678113579543698
418,0.4086,695.436,0.00465088,0.0031313,0.00240028,-0.00235099,-0.00599882,0.342586,-0.131684,-0.207185,6.05279e-07,-3.23068e-07,1.5507e-05,0.332427,0.4085854868052943,6.052791832189541e-07,-3.2306794783831805e-07,-0.12338203740761933,1.5507120234126148e-05,-0.18713074473573588
419,0.4096,695.798,0.00463962,0.00312346,0.00239481,-0.00234538,-0.00599786,0.343295,-0.131961,-0.207615,6.08284e-07,-3.2549e-07,1.55086e-05,0.33313,0.4095845280337047,6.082841850219012e-07,-3.254899469951056e-07,-0.1236248269553526,1.5508720258905484e-05,-0.18748020337650717
420,0.4106,696.16,0.00462839,0.00311565,0.00238935,-0.00233979,-0.00599689,0.344004,-0.132239,-0.208045,6.11273e-07,-3.279e-07,1.55101e-05,0.333832,0.41058427783350515,6.112731867347065e-07,-3.2789994619530916e-07,-0.1238684253917075,1.5510220282122233e-05,-0.18782951178236573
421,0.4116,696.52,0.0046172,0.00310786,0.00238391,-0.00233421,-0.0059959,0.344713,-0.132516,-0.208475,6.14247e-07,-3.30298e-07,1.55116e-05,0.334534,0.4115847367072505,6.142471886683154e-07,-3.3029794543892876e-07,-0.12411108022862749,1.5511720305561028e-05,-0.18817867001789867
422,0.4126,696.88,0.00460605,0.0031001,0.00237847,-0.00232863,-0.00599489,0.345421,-0.132793,-0.208904,6.17205e-07,-3.32684e-07,1.55131e-05,0.335235,0.41258449257265384,6.172051905117826e-07,-3.326839446149421e-07,-0.12435366785946622,1.5513220328777777e-05,-0.1885268666749379
423,0.4136,697.239,0.00459494,0.00309237,0.00237305,-0.00232307,-0.00599386,0.346129,-0.13307,-0.209333,6.20148e-07,-3.35057e-07,1.55145e-05,0.335936,0.4135849565158398,6.201481923540086e-07,-3.350569438564932e-07,-0.12459618830283703,1.551462035043194e-05,-0.18887491398764789
424,0.4146,697.597,0.00458386,0.00308467,0.00236763,-0.00231751,-0.00599282,0.346836,-0.133347,-0.209761,6.23075e-07,-3.37419e-07,1.55159e-05,0.336637,0.41458471445288314,6.23075194106093e-07,-3.374189431193386e-07,-0.12483864157734836,1.5516020372308148e-05,-0.18922200124249022
425,0.4156,697.954,0.00457283,0.00307699,0.00236223,-0.00231197,-0.00599177,0.347543,-0.133623,-0.21019,6.25987e-07,-3.39768e-07,1.55173e-05,0.337337,0.4155851794687109,6.259871958569363e-07,-3.397679422256772e-07,-0.12508015278219364,1.551742039396231e-05,-0.1895697504064282
426,0.4166,698.311,0.00456182,0.00306934,0.00235684,-0.00230643,-0.00599069,0.348249,-0.133899,-0.210617,6.28883e-07,-3.42105e-07,1.55187e-05,0.338036,0.4165849354777609,6.288831977396825e-07,-3.421049414864541e-07,-0.12532159733914416,1.5518820415616474e-05,-0.18991573025105102
427,0.4176,698.667,0.00455086,0.00306172,0.00235146,-0.00230091,-0.0059896,0.348955,-0.134175,-0.211045,6.31764e-07,-3.4443e-07,1.552e-05,0.338735,0.4175853975637691,6.317641996211876e-07,-3.4442994067962474e-07,-0.12556297526659232,1.5520120435930096e-05,-0.19026237213184938
428,0.4186,699.022,0.00453993,0.00305412,0.00234609,-0.00229539,-0.00598849,0.34966,-0.134451,-0.211472,6.3463e-07,-3.46743e-07,1.55212e-05,0.339433,0.4185851476395448,6.346302012794069e-07,-3.467429399162114e-07,-0.1258042865829253,1.5521320454459087e-05,-0.190608056290129
429,0.4196,699.376,0.00452903,0.00304655,0.00234072,-0.00228989,-0.00598737,0.350365,-0.134727,-0.211899,6.37481e-07,-3.49044e-07,1.55225e-05,0.340131,0.4195856027876328,6.374812031584298e-07,-3.490439390851918e-07,-0.12604553130652507,1.5522620474550664e-05,-0.19095359287278257
430,0.4206,699.73,0.00451817,0.003039,0.00233537,-0.00228439,-0.00598623,0.351069,-0.135003,-0.212326,6.40317e-07,-3.51333e-07,1.55237e-05,0.340829,0.420585342919231,6.403172050362116e-07,-3.5133293829758827e-07,-0.12628670945576892,1.55238204933017e-05,-0.19129898194281159
431,0.4216,700.082,0.00450735,0.00303148,0.00233003,-0.00227891,-0.00598508,0.351772,-0.135278,-0.212753,6.43137e-07,-3.53611e-07,1.55249e-05,0.341526,0.4215843655306073,6.431372068238517e-07,-3.5361093753127903e-07,-0.12652694757641303,1.552502051183069e-05,-0.19164422356319044
432,0.4226,700.434,0.00449657,0.00302399,0.00232471,-0.00227343,-0.00598391,0.352476,-0.135553,-0.213179,6.45943e-07,-3.55876e-07,1.5526e-05,0.342222,0.4225855132866023,6.459432086991512e-07,-3.5587593671948525e-07,-0.126767119640657,1.552612052901914e-05,-0.19198850978578041
433,0.4236,700.786,0.00448582,0.00301652,0.00231939,-0.00226797,-0.00598272,0.353178,-0.135828,-0.213604,6.48733e-07,-3.5813e-07,1.55271e-05,0.342918,0.423584518926883,6.487332104843091e-07,-3.581299358179635e-07,-0.12700722566666411,1.5527220545985543e-05,-0.19233184170592055
434,0.4246,701.136,0.0044751,0.00300908,0.00231408,-0.00226251,-0.00598152,0.35388,-0.136103,-0.21403,6.51509e-07,-3.60371e-07,1.55282e-05,0.343614,0.42458422611533786,6.515092121350818e-07,-3.603709350930018e-07,-0.12724726567259226,1.5528320563173992e-05,-0.19267583506556607
435,0.4256,701.486,0.00446442,0.00300166,0.00230878,-0.00225707,-0.0059803,0.354582,-0.136378,-0.214455,6.54269e-07,-3.62601e-07,1.55292e-05,0.344309,0.4255846353446264,6.542692141398021e-07,-3.626009342783121e-07,-0.12748723967659437,1.552932057857781e-05,-0.19301887493452763
436,0.4266,701.835,0.00445378,0.00299427,0.0023035,-0.00225163,-0.00597907,0.355283,-0.136652,-0.21488,6.57015e-07,-3.6482e-07,1.55303e-05,0.345003,0.4265843205227209,6.570152157880926e-07,-3.648199334849167e-07,-0.1277262754235302,1.553042059576626e-05,-0.19336176904252123
437,0.4276,702.184,0.00444316,0.00298691,0.00229822,-0.00224621,-0.00597782,0.355984,-0.136927,-0.215305,6.59746e-07,-3.67026e-07,1.55312e-05,0.345698,0.4275847067258056,6.597462176571867e-07,-3.670259326460368e-07,-0.12796611771796174,1.553132060960749e-05,-0.1937045174514821
438,0.4286,702.531,0.00443259,0.00297957,0.00229296,-0.00224079,-0.00597656,0.356684,-0.137201,-0.215729,6.62462e-07,-3.69221e-07,1.55322e-05,0.346391,0.42858436586039117,6.624622195250396e-07,-3.6922093182845117e-07,-0.12820502227028863,1.5532320625233353e-05,-0.1940463142700366
439,0.4296,702.878,0.00442205,0.00297225,0.0022877,-0.00223539,-0.00597529,0.357384,-0.137475,-0.216153,6.65163e-07,-3.71404e-07,1.55331e-05,0.347084,0.4295847250013449,6.651632211696068e-07,-3.714039310542816e-07,-0.12844386137173547,1.553322063929663e-05,-0.19438796619745913
440,0.4306,703.224,0.00441154,0.00296496,0.00228246,-0.00222999,-0.00597399,0.358083,-0.137748,-0.216577,6.6785e-07,-3.73576e-07,1.5534e-05,0.347777,0.43058435405377304,6.678502229018335e-07,-3.7357593019038404e-07,-0.12868176372243256,1.5534120653137862e-05,-0.19472947329517043
441,0.4316,703.57,0.00440107,0.00295769,0.00227723,-0.00222461,-0.00597269,0.358782,-0.138022,-0.217,6.70522e-07,-3.75736e-07,1.55349e-05,0.348469,0.4315846820911755,6.705222248548637e-07,-3.757359293699025e-07,-0.12892047221461578,1.5535020667201138e-05,-0.1950700306949985
442,0.4326,703.915,0.00439063,0.00295045,0.00227201,-0.00221923,-0.00597137,0.35948,-0.138295,-0.217423,6.7318e-07,-3.77885e-07,1.55357e-05,0.349161,0.4325842770173205,6.731802266735087e-07,-3.778849285707153e-07,-0.1291582444683118,1.553582067970183e-05,-0.19541044406951003
443,0.4336,704.259,0.00438023,0.00294324,0.0022668,-0.00221387,-0.00597003,0.360178,-0.138568,-0.217846,6.75823e-07,-3.80022e-07,1.55365e-05,0.349852,0.43358456990428396,6.758232282688681e-07,-3.8002192781494415e-07,-0.12939595181904218,1.5536620691980474e-05,-0.1957507134796147
444,0.4346,704.602,0.00436986,0.00293604,0.0022616,-0.00220851,-0.00596868,0.360876,-0.138841,-0.218268,6.78452e-07,-3.82148e-07,1.55373e-05,0.350543,0.4345855612394125,6.784522301739315e-07,-3.82147926969445e-07,-0.12963359428452315,1.5537420704481164e-05,-0.1960900350766337
445,0.4356,704.945,0.00435952,0.00292888,0.00225641,-0.00220317,-0.00596732,0.361572,-0.139114,-0.21869,6.81066e-07,-3.84262e-07,1.5538e-05,0.351233,0.43558438033876135,6.810662318557092e-07,-3.842619261673619e-07,-0.12987117188246577,1.5538120715419268e-05,-0.1964292135101483
446,0.4366,705.287,0.00434922,0.00292173,0.00225123,-0.00219784,-0.00596594,0.362269,-0.139387,-0.219112,6.83666e-07,-3.86365e-07,1.55388e-05,0.351923,0.43658533144279454,6.836662336251464e-07,-3.863649253865731e-07,-0.13010868463057668,1.5538920727697914e-05,-0.196768248840561
447,0.4376,705.628,0.00433895,0.00291461,0.00224606,-0.00219251,-0.00596455,0.362965,-0.139659,-0.219534,6.86252e-07,-3.88456e-07,1.55394e-05,0.352612,0.4375855428666777,6.862522354822431e-07,-3.88455924538178e-07,-0.1303452628922549,1.553952073707343e-05,-0.19710714112824823
448,0.4386,705.968,0.00432872,0.00290752,0.00224091,-0.0021872,-0.00596315,0.36366,-0.139932,-0.219955,6.88823e-07,-3.90537e-07,1.55401e-05,0.353301,0.438585012094296,6.888232373380987e-07,-3.9053692368895554e-07,-0.1305826462311852,1.5540220748011535e-05,-0.1974450878790508
449,0.4396,706.308,0.00431851,0.00290045,0.00223576,-0.0021819,-0.00596173,0.364355,-0.140204,-0.220376,6.9138e-07,-3.92606e-07,1.55407e-05,0.353989,0.4395851761944676,6.913802390595691e-07,-3.926059228831491e-07,-0.13081909559283944,1.5540820757387053e-05,-0.19778289238421587
450,0.4406,706.647,0.00430835,0.0028934,0.00223063,-0.00217661,-0.0059603,0.365049,-0.140476,-0.220797,6.93923e-07,-3.94663e-07,1.55413e-05,0.354677,0.4405845950649818,6.939232408686991e-07,-3.946629221207587e-07,-0.13105548064901307,1.5541420766540526e-05,-0.19812055470361667
451,0.4416,706.986,0.00429821,0.00288638,0.00222551,-0.00217132,-0.00595886,0.365743,-0.140747,-0.221217,6.96452e-07,-3.9671e-07,1.55419e-05,0.355365,0.4415847077729256,6.964522425434438e-07,-3.967099213575409e-07,-0.13129093270856218,1.5542020775916043e-05,-0.1984572733547746
452,0.4426,707.324,0.00428811,0.00287938,0.00222039,-0.00216605,-0.0059574,0.366437,-0.141019,-0.221637,6.98966e-07,-3.98745e-07,1.55425e-05,0.356052,0.44258551479998975,6.989662442169475e-07,-3.9874492052671684e-07,-0.1315271894424931,1.554262078529156e-05,-0.1987938506137935
453,0.4436,707.661,0.00427803,0.0028724,0.00221529,-0.00216079,-0.00595593,0.36713,-0.14129,-0.222057,7.01467e-07,-4.0077e-07,1.5543e-05,0.356738,0.4435855730419038,7.014672460670113e-07,-4.0076991969506537e-07,-0.1317625136862789,1.5543120793104492e-05,-0.1991302865400456
454,0.4446,707.997,0.004268,0.00286545,0.0022102,-0.00215554,-0.00595444,0.367822,-0.141561,-0.222476,7.03954e-07,-4.02783e-07,1.55435e-05,0.357424,0.4445848799787713,7.039542477826899e-07,-4.0278291890682993e-07,-0.13199777416583514,1.5543620800917424e-05,-0.19946578065905907
455,0.4456,708.333,0.00425799,0.00285852,0.00220512,-0.0021503,-0.00595294,0.368514,-0.141832,-0.222896,7.06427e-07,-4.04785e-07,1.55439e-05,0.35811,0.44558487867536045,7.06427249586028e-07,-4.047849180288665e-07,-0.13223297089843944,1.5544020806945724e-05,-0.19980193443394811
456,0.4466,708.668,0.00424802,0.00285161,0.00220005,-0.00214507,-0.00595143,0.369206,-0.142103,-0.223315,7.08886e-07,-4.06776e-07,1.55444e-05,0.358795,0.4465855696105343,7.08886251254981e-07,-4.067759172832197e-07,-0.1324681039013651,1.5544520814758656e-05,-0.20013714719144338
457,0.4476,709.002,0.00423807,0.00284473,0.00219499,-0.00213985,-0.00594991,0.369897,-0.142374,-0.223733,7.11331e-07,-4.08756e-07,1.55448e-05,0.359479,0.44758550567725863,7.113312530115934e-07,-4.087559164478449e-07,-0.1327031731918803,1.5544920821009e-05,-0.20047141999603402
458,0.4486,709.336,0.00422816,0.00283787,0.00218995,-0.00213464,-0.00594837,0.370587,-0.142644,-0.224151,7.13762e-07,-4.10725e-07,1.55452e-05,0.360164,0.4485846843531769,7.137622546338207e-07,-4.1072491563376445e-07,-0.13293731172499412,1.5545320827259346e-05,-0.2008055531037911
459,0.4496,709.669,0.00421829,0.00283103,0.00218491,-0.00212944,-0.00594682,0.371277,-0.142915,-0.224569,7.1618e-07,-4.12683e-07,1.55455e-05,0.360847,0.44958455270029063,7.161802564326081e-07,-4.126829148409783e-07,-0.13317225387741716,1.5545620831947105e-05,-0.20113954657309563
460,0.4506,710.001,0.00420844,0.00282422,0.00217989,-0.00212426,-0.00594526,0.371967,-0.143185,-0.224987,7.18584e-07,-4.14631e-07,1.55458e-05,0.361531,0.45058511119463707,7.185842580970103e-07,-4.1463091404736474e-07,-0.13340626577584236,1.5545920836634863e-05,-0.20147340046230422
461,0.4516,710.333,0.00419862,0.00281742,0.00217487,-0.00211908,-0.00594369,0.372656,-0.143455,-0.225405,7.20974e-07,-4.16567e-07,1.55461e-05,0.362213,0.4515849087269479,7.20974259849072e-07,-4.165669131861449e-07,-0.13364021449958385,1.5546220841322622e-05,-0.2018071148297491
462,0.4526,710.664,0.00418884,0.00281065,0.00216987,-0.00211391,-0.00594211,0.373345,-0.143725,-0.225822,7.23351e-07,-4.18493e-07,1.55464e-05,0.362896,0.4525853953571257,7.233512615556492e-07,-4.1849291243512e-07,-0.13387410006569667,1.554652084601038e-05,-0.20213989187402925
463,0.4536,710.994,0.00417909,0.00280391,0.00216488,-0.00210875,-0.00594051,0.374033,-0.143994,-0.226239,7.25714e-07,-4.20408e-07,1.55467e-05,0.363577,0.45358511797427736,7.257142633498859e-07,-4.204079115943671e-07,-0.13410705659872058,1.5546820850476095e-05,-0.20247253017921096
464,0.4546,711.324,0.00416937,0.00279718,0.0021599,-0.00210361,-0.0059389,0.374721,-0.144264,-0.226655,7.28064e-07,-4.22312e-07,1.55469e-05,0.364259,0.4545855286372502,7.28064265098638e-07,-4.223119107749085e-07,-0.13434081613448157,1.5547020853601268e-05,-0.2028042326077677
465,0.4556,711.653,0.00415968,0.00279048,0.00215493,-0.00209847,-0.00593728,0.375408,-0.144533,-0.227071,7.304e-07,-4.24205e-07,1.55471e-05,0.36494,0.45558517223368256,7.30400266713005e-07,-4.242049099767442e-07,-0.13457364713776743,1.554722085672644e-05,-0.20313579707681162
466,0.4566,711.981,0.00415002,0.0027838,0.00214997,-0.00209335,-0.00593564,0.376095,-0.144802,-0.227487,7.32723e-07,-4.26088e-07,1.55473e-05,0.36562,0.45658550282122023,7.32723268503932e-07,-4.260879091777525e-07,-0.1348064155179366,1.5547420859851613e-05,-0.20346722364372216
467,0.4576,712.309,0.00414039,0.00277714,0.00214502,-0.00208823,-0.005934,0.376781,-0.145071,-0.227903,7.35032e-07,-4.2796e-07,1.55474e-05,0.3663,0.45758506328619575,7.350322701604739e-07,-4.2795990840005516e-07,-0.1350391212918325,1.55475208614142e-05,-0.20379851236585456
468,0.4586,712.636,0.00413079,0.00277051,0.00214008,-0.00208313,-0.00593234,0.377467,-0.145339,-0.228318,7.37328e-07,-4.29822e-07,1.55475e-05,0.36698,0.45858530968489886,7.373282717715313e-07,-4.298219076215304e-07,-0.13527089974762596,1.5547620862976785e-05,-0.20412886742980563
469,0.4596,712.962,0.00412122,0.00276389,0.00213515,-0.00207804,-0.00593067,0.378152,-0.145608,-0.228733,7.39611e-07,-4.31673e-07,1.55476e-05,0.367659,0.4595847829025286,7.396112735591487e-07,-4.3167290686429993e-07,-0.13550348059206774,1.554772086453937e-05,-0.20445908542484903
470,0.4606,713.288,0.00411169,0.0027573,0.00213024,-0.00207295,-0.00592899,0.378837,-0.145876,-0.229148,7.41881e-07,-4.33513e-07,1.55477e-05,0.368337,0.46058494099385494,7.418812753012816e-07,-4.335129060173415e-07,-0.1357351346162433,1.5547820866101958e-05,-0.20478916640785638
471,0.4616,713.613,0.00410218,0.00275073,0.00212534,-0.00206788,-0.0059273,0.379521,-0.146144,-0.229563,7.44138e-07,-4.35343e-07,1.55478e-05,0.369015,0.46158432284312334,7.441382767758853e-07,-4.3534290528057795e-07,-0.13596672656545883,1.5547920867664544e-05,-0.205119110435676
472,0.4626,713.938,0.0040927,0.00274418,0.00212044,-0.00206282,-0.0059256,0.380205,-0.146412,-0.229977,7.46381e-07,-4.37162e-07,1.55478e-05,0.369693,0.4625843885034133,7.463812785601931e-07,-4.371619044540864e-07,-0.1361982564563481,1.5547920867664544e-05,-0.20544812301365267
473,0.4636,714.262,0.00408326,0.00273766,0.00211556,-0.00205777,-0.00592389,0.380889,-0.14668,-0.230391,7.48612e-07,-4.38971e-07,1.55478e-05,0.37037,0.4635851384426115,7.486122801658723e-07,-4.389709036267675e-07,-0.13642972430554057,1.5547920867664544e-05,-0.20577699940861394
474,0.4646,714.585,0.00407384,0.00273115,0.00211069,-0.00205273,-0.00592216,0.381572,-0.146948,-0.230804,7.50829e-07,-4.4077e-07,1.55478e-05,0.371047,0.4645851085430843,7.50829281859211e-07,-4.4076990290964346e-07,-0.1366611301296612,1.5547920867664544e-05,-0.20610494578227057
475,0.4656,714.907,0.00406445,0.00272467,0.00210583,-0.0020477,-0.00592042,0.382254,-0.147215,-0.231218,7.53034e-07,-4.42558e-07,1.55477e-05,0.371723,0.46558429627139697,7.530342835959658e-07,-4.4255790210279145e-07,-0.1368916108373729,1.5547820866101958e-05,-0.20643355030888622
476,0.4666,715.229,0.0040551,0.0027182,0.00210098,-0.00204268,-0.00591868,0.382937,-0.147483,-0.231631,7.55226e-07,-4.44336e-07,1.55477e-05,0.372399,0.4665856322630657,7.55226285287236e-07,-4.44335901295112e-07,-0.1371228928924888,1.5547820866101958e-05,-0.2067612255830069
477,0.4676,715.551,0.00404577,0.00271176,0.00209614,-0.00203767,-0.00591692,0.383618,-0.14775,-0.232044,7.57404e-07,-4.46104e-07,1.55476e-05,0.373075,0.4675847172284562,7.574042868441211e-07,-4.461039004866052e-07,-0.13735325032600065,1.554772086453937e-05,-0.2070887655551812
478,0.4686,715.871,0.00403647,0.00270534,0.00209131,-0.00203267,-0.00591515,0.384299,-0.148017,-0.232456,7.5957e-07,-4.47861e-07,1.55474e-05,0.373749,0.4685844828024288,7.595702884444222e-07,-4.478608996993927e-07,-0.13758354626228797,1.55475208614142e-05,-0.2074153776970512
479,0.4696,716.191,0.0040272,0.00269894,0.0020865,-0.00202769,-0.00591337,0.38498,-0.148284,-0.232868,7.61723e-07,-4.49608e-07,1.55473e-05,0.374424,0.4695849294486363,7.617232902212834e-07,-4.496078989113528e-07,-0.1378137807177684,1.5547420859851613e-05,-0.20774185530243516
480,0.4706,716.511,0.00401796,0.00269256,0.00208169,-0.00202271,-0.00591158,0.38566,-0.14855,-0.23328,7.63864e-07,-4.51345e-07,1.55471e-05,0.375098,0.47058458704572437,7.63864291819516e-07,-4.5134489812248546e-07,-0.13804309175237772,1.554722085672644e-05,-0.20806819842675073
481,0.4716,716.83,0.00400875,0.0026862,0.0020769,-0.00201775,-0.00590978,0.38634,-0.148817,-0.233692,7.65992e-07,-4.53072e-07,1.5547e-05,0.375772,0.47158492464115165,7.65992293372264e-07,-4.5307189733279074e-07,-0.13827320352559114,1.5547120855163854e-05,-0.2083944071253927
482,0.4726,717.148,0.00399957,0.00267987,0.00207211,-0.00201279,-0.00590797,0.387019,-0.149083,-0.234103,7.68107e-07,-4.54789e-07,1.55467e-05,0.376445,0.4725844701122677,7.681072951015722e-07,-4.547888965422686e-07,-0.13850239236998563,1.5546820850476095e-05,-0.20871969017381875
483,0.4736,717.466,0.00399041,0.00267355,0.00206734,-0.00200785,-0.00590615,0.387698,-0.149349,-0.234514,7.70209e-07,-4.56495e-07,1.55465e-05,0.377117,0.47358469450522667,7.702092965633511e-07,-4.564948957730408e-07,-0.13873152025825508,1.5546620847350923e-05,-0.2090448395583817
484,0.4746,717.783,0.00398129,0.00266725,0.00206258,-0.00200291,-0.00590432,0.388377,-0.149615,-0.234925,7.72299e-07,-4.58192e-07,1.55463e-05,0.37779,0.47458559828117286,7.722992982905907e-07,-4.581918949808639e-07,-0.13896058720661153,1.5546420844447795e-05,-0.2093698553340062
485,0.4756,718.099,0.00397219,0.00266098,0.00205783,-0.00199799,-0.00590248,0.389054,-0.149881,-0.235336,7.74377e-07,-4.59878e-07,1.5546e-05,0.378461,0.4755842307301512,7.743772998392018e-07,-4.5987789420998126e-07,-0.139189593231263,1.5546120839760036e-05,-0.2096947375555941
486,0.4766,718.415,0.00396313,0.00265472,0.00205309,-0.00199308,-0.00590063,0.389732,-0.150146,-0.235746,7.76442e-07,-4.61555e-07,1.55457e-05,0.379133,0.4765850160664782,7.764423013423283e-07,-4.6155489352717183e-07,-0.13941767776652103,1.5545820835072277e-05,-0.21001869629711623
487,0.4776,718.73,0.00395409,0.00264849,0.00204836,-0.00198817,-0.00589877,0.390409,-0.150411,-0.236156,7.78495e-07,-4.63222e-07,1.55454e-05,0.379804,0.47758500257959646,7.784953031109154e-07,-4.632218927325127e-07,-0.13964570186738512,1.5545520830384518e-05,-0.21034252224277927
488,0.4786,719.045,0.00394508,0.00264227,0.00204364,-0.00198328,-0.0058969,0.391086,-0.150677,-0.236565,7.80535e-07,-4.64878e-07,1.5545e-05,0.380474,0.478585666312797,7.805353046119734e-07,-4.6487789195914786e-07,-0.13987452567577274,1.5545120824134173e-05,-0.21066542611283923
489,0.4796,719.359,0.00393609,0.00263608,0.00203894,-0.0019784,-0.00589502,0.391762,-0.150942,-0.236975,7.82563e-07,-4.66525e-07,1.55447e-05,0.381144,0.47958552813844557,7.825633061564474e-07,-4.665248911628339e-07,-0.1401024287279805,1.5544820819446414e-05,-0.210988986953628
490,0.4806,719.672,0.00392714,0.0026299,0.00203424,-0.00197353,-0.00589313,0.392437,-0.151207,-0.237384,7.84579e-07,-4.68162e-07,1.55443e-05,0.381814,0.4805845855138702,7.845793077443375e-07,-4.6816189036569256e-07,-0.140330271393881,1.554442081319607e-05,-0.2113116264736845
491,0.4816,719.985,0.00391821,0.00262375,0.00202956,-0.00196867,-0.00589123,0.393112,-0.151471,-0.237793,7.86583e-07,-4.69789e-07,1.55439e-05,0.382483,0.4815843174806722,7.865833093756436e-07,-4.697888896787461e-07,-0.14055719424709845,1.5544020806945724e-05,-0.21163413406115938
492,0.4826,720.297,0.00390931,0.00261761,0.00202488,-0.00196382,-0.00588932,0.393787,-0.151736,-0.238201,7.88574e-07,-4.71406e-07,1.55434e-05,0.383151,0.48258472449435463,7.885743109614651e-07,-4.7140588887994994e-07,-0.1407849164161029,1.5543520799354837e-05,-0.21195572172611765
493,0.4836,720.609,0.00390044,0.0026115,0.00202022,-0.00195899,-0.0058874,0.394461,-0.152,-0.238609,7.90553e-07,-4.73014e-07,1.5543e-05,0.383819,0.4835843234256625,7.905533125907027e-07,-4.7301388816922696e-07,-0.14101171925887657,1.5543120793104492e-05,-0.21227717821007142
494,0.4846,720.92,0.0038916,0.0026054,0.00201557,-0.00195416,-0.00588547,0.395135,-0.152264,-0.239017,7.92521e-07,-4.74612e-07,1.55425e-05,0.384487,0.48458459631374806,7.925213141302123e-07,-4.7461188734665427e-07,-0.1412384622336026,1.554262078529156e-05,-0.21259850356653165
495,0.4856,721.23,0.00388278,0.00259932,0.00201092,-0.00194934,-0.00588354,0.395809,-0.152528,-0.239425,7.94476e-07,-4.762e-07,1.5542e-05,0.385154,0.4855855436130112,7.944763156242374e-07,-4.761998866342765e-07,-0.14146514535608412,1.554212077747863e-05,-0.21291969784898723
496,0.4866,721.54,0.00387399,0.00259327,0.00200629,-0.00194454,-0.00588159,0.396481,-0.152792,-0.239833,7.96419e-07,-4.77779e-07,1.55415e-05,0.385821,0.48658419260679975,7.964193171616785e-07,-4.777788858989496e-07,-0.14169176864212019,1.5541620769665698e-05,-0.21324076111090562
497,0.4876,721.849,0.00386523,0.00258723,0.00200168,-0.00193974,-0.00587964,0.397154,-0.153056,-0.24024,7.98351e-07,-4.79348e-07,1.5541e-05,0.386488,0.48758500050250664,7.983513186093916e-07,-4.793478851627953e-07,-0.14191833210750537,1.554112076207481e-05,-0.21356090696703245
498,0.4886,722.158,0.00385649,0.00258121,0.00199707,-0.00193496,-0.00587767,0.397826,-0.153319,-0.240646,8.0027e-07,-4.80907e-07,1.55404e-05,0.387154,0.48858499358288743,8.002703202336647e-07,-4.809068843147912e-07,-0.14214397791243705,1.5540520752699294e-05,-0.2138801364308376
499,0.4896,722.466,0.00384778,0.00257521,0.00199247,-0.00193019,-0.0058757,0.398498,-0.153583,-0.241053,8.02178e-07,-4.82457e-07,1.55399e-05,0.387819,0.4895856588844596,8.021783217682099e-07,-4.824568836658827e-07,-0.14237042201033212,1.5540020744886363e-05,-0.214200022114158
500,0.4906,722.774,0.0038391,0.00256923,0.00198788,-0.00192542,-0.00587371,0.399169,-0.153846,-0.241459,8.04074e-07,-4.83997e-07,1.55393e-05,0.388484,0.49058550627285546,8.040743233461711e-07,-4.839968829051244e-07,-0.14259594893125338,1.5539420735510845e-05,-0.2145189921498809
501,0.4916,723.081,0.00383045,0.00256327,0.00198331,-0.00192067,-0.00587172,0.399839,-0.154109,-0.241865,8.05958e-07,-4.85528e-07,1.55387e-05,0.389149,0.49158453319870654,8.059583247455038e-07,-4.855278821214171e-07,-0.14282141654639335,1.5538820726135327e-05,-0.21483783271005463
502,0.4926,723.387,0.00382182,0.00255733,0.00197874,-0.00191593,-0.00586972,0.400509,-0.154372,-0.242271,8.0783e-07,-4.8705e-07,1.5538e-05,0.389813,0.4925842296968794,8.078303261882525e-07,-4.870498814257829e-07,-0.14304682487134768,1.5538120715419268e-05,-0.2151565438472356
503,0.4936,723.693,0.00381322,0.00255141,0.00197419,-0.0019112,-0.00586771,0.401179,-0.154634,-0.242677,8.09691e-07,-4.88562e-07,1.55374e-05,0.390477,0.49358459621613826,8.096913277633178e-07,-4.88561880618299e-07,-0.14327131719345298,1.553752070604375e-05,-0.21547512561395887
504,0.4946,723.998,0.00380464,0.00254551,0.00196964,-0.00190648,-0.0058657,0.401849,-0.154897,-0.243082,8.1154e-07,-4.90064e-07,1.55367e-05,0.39114,0.4945856332055474,8.115403293817991e-07,-4.9006387992101e-07,-0.14349660721009538,1.5536820695105646e-05,-0.2157927938559241
505,0.4956,724.303,0.00379609,0.00253962,0.00196511,-0.00190177,-0.00586367,0.402517,-0.155159,-0.243487,8.13377e-07,-4.91558e-07,1.5536e-05,0.391803,0.49558434994278144,8.133773308216519e-07,-4.915578791786501e-07,-0.14372098170466407,1.5536120684167543e-05,-0.21611033346830055
506,0.4966,724.607,0.00378757,0.00253376,0.00196059,-0.00189707,-0.00586164,0.403186,-0.155421,-0.243891,8.15203e-07,-4.93042e-07,1.55353e-05,0.392466,0.4965852306301535,8.152033321717767e-07,-4.930418784354629e-07,-0.1439452974208154,1.5535420673451483e-05,-0.21642696093052538
507,0.4976,724.911,0.00377908,0.00252791,0.00195608,-0.00189238,-0.00585959,0.403854,-0.155683,-0.244296,8.17018e-07,-4.94516e-07,1.55346e-05,0.393128,0.49758528354470055,8.170183336542181e-07,-4.945158776914482e-07,-0.14416955437394752,1.553472066251338e-05,-0.21674424375723933
508,0.4986,725.214,0.00377061,0.00252208,0.00195158,-0.0018877,-0.00585754,0.404521,-0.155945,-0.2447,8.18821e-07,-4.95982e-07,1.55338e-05,0.393789,0.4985845061325127,8.188213351800755e-07,-4.95981877013385e-07,-0.14439375257945408,1.553392065001269e-05,-0.2170606151714326
509,0.4996,725.516,0.00376216,0.00251627,0.00194709,-0.00188304,-0.00585548,0.405188,-0.156207,-0.245103,8.20613e-07,-4.97438e-07,1.5533e-05,0.39445,0.4995843954241117,8.206133366162049e-07,-4.974378762234721e-07,-0.14461789205272513,1.5533120637734044e-05,-0.217376076173857
510,0.5006,725.818,0.00375374,0.00251048,0.00194261,-0.00187838,-0.00585342,0.405855,-0.156468,-0.245507,8.22393e-07,-4.98885e-07,1.55323e-05,0.395111,0.5005849518643377,8.223933380957504e-07,-4.988848755216324e-07,-0.14484111765069163,1.553242062679594e-05,-0.2176921923793097
511,0.5016,726.119,0.00374535,0.0025047,0.00193814,-0.00187374,-0.00585134,0.406521,-0.15673,-0.24591,8.24162e-07,-5.00323e-07,1.55315e-05,0.395771,0.501584674312902,8.241623397076125e-07,-5.003228747968436e-07,-0.1450651399296672,1.553162061429525e-05,-0.2180073989073994
512,0.5026,726.42,0.00373698,0.00249895,0.00193369,-0.0018691,-0.00584926,0.407187,-0.156991,-0.246313,8.2592e-07,-5.01752e-07,1.55306e-05,0.396431,0.5025850627983828,8.259203410077021e-07,-5.017518741601279e-07,-0.14528824881116997,1.5530720600454018e-05,-0.21832247843285102
513,0.5036,726.72,0.00372864,0.00249321,0.00192924,-0.00186448,-0.00584716,0.407852,-0.157252,-0.246716,8.27667e-07,-5.03172e-07,1.55298e-05,0.39709,0.5035846141791422,8.276673424401082e-07,-5.031718733894408e-07,-0.14551129946885322,1.5529920587953328e-05,-0.2186374310068363
514,0.5046,727.02,0.00372032,0.00248749,0.0019248,-0.00185987,-0.00584507,0.408517,-0.157513,-0.247118,8.29402e-07,-5.04582e-07,1.55289e-05,0.397749,0.5045848304826321,8.294023439159304e-07,-5.045818727289486e-07,-0.14573429191791132,1.552902057389005e-05,-0.2189514756323726
515,0.5056,727.319,0.00371203,0.00248179,0.00192038,-0.00185526,-0.00584296,0.409181,-0.157773,-0.247521,8.31126e-07,-5.05984e-07,1.55281e-05,0.398408,0.505584206566214,8.311263453020246e-07,-5.059838720233856e-07,-0.14595637213033408,1.5528220561611406e-05,-0.21926617477155708
516,0.5066,727.618,0.00370377,0.00247611,0.00191597,-0.00185067,-0.00584084,0.409845,-0.158034,-0.247922,8.3284e-07,-5.07377e-07,1.55272e-05,0.399066,0.5065842464558745,8.32840346909336e-07,-5.073768712948734e-07,-0.1461792484305856,1.552732054754813e-05,-0.21957918627247341
517,0.5076,727.916,0.00369553,0.00247044,0.00191156,-0.00184609,-0.00583872,0.410509,-0.158294,-0.248324,8.34542e-07,-5.08761e-07,1.55262e-05,0.399724,0.5075849505925274,8.345423483380188e-07,-5.087608705434121e-07,-0.14640121296935327,1.552632053214431e-05,-0.21989285238847833
518,0.5086,728.214,0.00368731,0.0024648,0.00190717,-0.00184152,-0.00583659,0.411172,-0.158554,-0.248725,8.36233e-07,-5.10136e-07,1.55253e-05,0.400381,0.5085848108318138,8.362333496769736e-07,-5.10135869880024e-07,-0.14662311980484255,1.5525420518081035e-05,-0.22020561264204874
519,0.5096,728.51,0.00367912,0.00245917,0.00190279,-0.00183696,-0.00583445,0.411835,-0.158814,-0.249127,8.37913e-07,-5.11502e-07,1.55244e-05,0.401038,0.5095853341982415,8.379133511482451e-07,-5.115018691936868e-07,-0.14684496895205434,1.5524520504017758e-05,-0.22051902698526293
520,0.5106,728.807,0.00367096,0.00245356,0.00189842,-0.00183241,-0.00583231,0.412497,-0.159074,-0.249527,8.39583e-07,-5.12859e-07,1.55234e-05,0.401694,0.5105850105458434,8.395833523966445e-07,-5.128588684844004e-07,-0.14706676042598577,1.552352048861394e-05,-0.22083075702430455
521,0.5116,729.103,0.00366281,0.00244796,0.00189406,-0.00182787,-0.00583015,0.413159,-0.159334,-0.249928,8.41241e-07,-5.14207e-07,1.55224e-05,0.40235,0.5115853488982867,8.412413539105046e-07,-5.14206867752165e-07,-0.14728849424162993,1.5522520472988077e-05,-0.22114314125351398
522,0.5126,729.398,0.0036547,0.00244238,0.00188971,-0.00182334,-0.00582799,0.41382,-0.159593,-0.250328,8.42889e-07,-5.15547e-07,1.55214e-05,0.403006,0.5125848371083703,8.428893552014927e-07,-5.155468670858809e-07,-0.14750931792372002,1.552152045758426e-05,-0.22145462169677077
523,0.5136,729.693,0.00364661,0.00243682,0.00188537,-0.00181883,-0.00582583,0.414481,-0.159852,-0.250728,8.44526e-07,-5.16878e-07,1.55204e-05,0.403661,0.5135849861985577,8.445263566247974e-07,-5.168778663966478e-07,-0.14773008441988245,1.5520520441958396e-05,-0.2217659775727655
524,0.5146,729.987,0.00363854,0.00243128,0.00188104,-0.00181432,-0.00582365,0.415141,-0.160112,-0.251128,8.46152e-07,-5.182e-07,1.55194e-05,0.404315,0.5145842820207958,8.461523579583741e-07,-5.181998656844655e-07,-0.14795164579370657,1.551952042655458e-05,-0.22207720893131488
525,0.5156,730.281,0.0036305,0.00242576,0.00187672,-0.00180982,-0.00582147,0.415801,-0.160371,-0.251527,8.47767e-07,-5.19513e-07,1.55183e-05,0.404969,0.5155842375959709,8.477673594242674e-07,-5.195128650603564e-07,-0.1481722977417853,1.551842040936613e-05,-0.22238753821014312
526,0.5166,730.574,0.00362248,0.00242025,0.00187241,-0.00180534,-0.00581928,0.416461,-0.160629,-0.251927,8.49372e-07,-5.20818e-07,1.55172e-05,0.405623,0.516584853359664,8.493723606672887e-07,-5.208178643911765e-07,-0.1483920409408762,1.5517320392399725e-05,-0.22269852099415588
527,0.5176,730.867,0.00361448,0.00241476,0.00186812,-0.00180086,-0.00581708,0.41712,-0.160888,-0.252325,8.50966e-07,-5.22114e-07,1.55161e-05,0.406277,0.517584612162372,8.509663620426267e-07,-5.221138636990474e-07,-0.14861257884138168,1.5516220375211276e-05,-0.22300782542713504
528,0.5186,731.159,0.00360651,0.00240929,0.00186383,-0.0017964,-0.00581488,0.417779,-0.161147,-0.252724,8.5255e-07,-5.23402e-07,1.5515e-05,0.40693,0.5185850300232671,8.525503634171372e-07,-5.234018630728698e-07,-0.14883305962996707,1.551512035824487e-05,-0.22331778346404918
529,0.5196,731.451,0.00359856,0.00240383,0.00185956,-0.00179194,-0.00581267,0.418437,-0.161405,-0.253123,8.54123e-07,-5.24681e-07,1.55139e-05,0.407582,0.5195845877914638,8.541233647019197e-07,-5.246808623127208e-07,-0.14905263237448052,1.5514020341278467e-05,-0.22362761785237595
530,0.5206,731.742,0.00359064,0.00239839,0.00185529,-0.0017875,-0.00581045,0.419095,-0.161663,-0.253521,8.55686e-07,-5.25951e-07,1.55128e-05,0.408234,0.5205848034851055,8.556863662079195e-07,-5.25950861640645e-07,-0.14927214847653314,1.5512920324090018e-05,-0.2239365525783823
531,0.5216,732.033,0.00358274,0.00239297,0.00185104,-0.00178307,-0.00580823,0.419753,-0.161921,-0.253918,8.57238e-07,-5.27213e-07,1.55116e-05,0.408886,0.52158567753725,8.572383674021467e-07,-5.272128610345206e-07,-0.14949160795073668,1.5511720305561028e-05,-0.22424458861780905
532,0.5226,732.323,0.00357487,0.00238756,0.00184679,-0.00177865,-0.005806,0.42041,-0.162179,-0.254316,8.5878e-07,-5.28467e-07,1.55105e-05,0.409537,0.5225856877947905,8.58780368817591e-07,-5.284668603833254e-07,-0.14971101081169924,1.551062028837258e-05,-0.22455327783830947
533,0.5236,732.613,0.00356701,0.00238217,0.00184256,-0.00177424,-0.00580376,0.421066,-0.162437,-0.254713,8.60311e-07,-5.29712e-07,1.55093e-05,0.410188,0.5235848316893505,8.603113701433074e-07,-5.29711859709181e-07,-0.14993035707402536,1.5509420269843588e-05,-0.22486106908640235
534,0.5246,732.902,0.00355919,0.0023768,0.00183834,-0.00176983,-0.00580152,0.421722,-0.162694,-0.25511,8.61832e-07,-5.30948e-07,1.55081e-05,0.410838,0.5245846312373363,8.618323714681964e-07,-5.309478590120875e-07,-0.15014879690153715,1.5508220251314597e-05,-0.22516873816562188
535,0.5256,733.19,0.00355138,0.00237145,0.00183412,-0.00176544,-0.00579927,0.422378,-0.162951,-0.255507,8.63343e-07,-5.32177e-07,1.55069e-05,0.411488,0.5255850868689977,8.633433725702133e-07,-5.321768583588238e-07,-0.15036718059722654,1.5507020232563562e-05,-0.22547628512445939
536,0.5266,733.479,0.0035436,0.00236611,0.00182992,-0.00176106,-0.00579701,0.423033,-0.163209,-0.255904,8.64844e-07,-5.33397e-07,1.55056e-05,0.412138,0.5265846724294307,8.648443738934475e-07,-5.333968577936332e-07,-0.1505863575895846,1.5505720212471985e-05,-0.2257837100113873
537,0.5276,733.766,0.00353584,0.00236078,0.00182573,-0.0017567,-0.00579475,0.423688,-0.163466,-0.2563,8.66334e-07,-5.34608e-07,1.55044e-05,0.412787,0.5275849129328762,8.663343753489983e-07,-5.346078570944712e-07,-0.15080462884662627,1.550452019372095e-05,-0.22609023896548408
538,0.5286,734.053,0.00352811,0.00235548,0.00182155,-0.00175234,-0.00579248,0.424342,-0.163723,-0.256696,8.67815e-07,-5.35812e-07,1.55031e-05,0.413436,0.5285842802234177,8.67815376448533e-07,-5.35811856439139e-07,-0.15102284401516242,1.5503220173629373e-05,-0.2263966465581463
539,0.5296,734.34,0.00352039,0.00235019,0.00181738,-0.00174799,-0.0057902,0.424996,-0.163979,-0.257092,8.69285e-07,-5.37007e-07,1.55018e-05,0.414084,0.5295843013139367,8.69285377902429e-07,-5.370068557608576e-07,-0.1512401543501849,1.5501920153537796e-05,-0.22670293283742338
540,0.5306,734.626,0.0035127,0.00234491,0.00181322,-0.00174365,-0.00578792,0.42565,-0.164236,-0.257487,8.70745e-07,-5.38194e-07,1.55006e-05,0.414732,0.530584976632158,8.70745379133453e-07,-5.381938551485277e-07,-0.15145825760304843,1.5500720135008805e-05,-0.2270083248600574
541,0.5316,734.911,0.00350504,0.00233966,0.00180907,-0.00173932,-0.00578563,0.426303,-0.164492,-0.257883,8.72195e-07,-5.39373e-07,1.54992e-05,0.415379,0.5315847750205458,8.721953803636495e-07,-5.393728544911269e-07,-0.15167545648645875,1.5499320113132597e-05,-0.2273143689626811
542,0.5326,735.197,0.00349739,0.00233441,0.00180493,-0.00173501,-0.00578334,0.426956,-0.164748,-0.258277,8.73635e-07,-5.40543e-07,1.54979e-05,0.416026,0.5325852264904889,8.736353815930187e-07,-5.405428539217993e-07,-0.15189259977407155,1.549802009304102e-05,-0.2276187471348724
543,0.5336,735.481,0.00348977,0.00232919,0.0018008,-0.0017307,-0.00578104,0.427608,-0.165004,-0.258672,8.75065e-07,-5.41706e-07,1.54966e-05,0.416673,0.5335847978830246,8.750653828215604e-07,-5.417058532852792e-07,-0.15210968748011744,1.5496720072949444e-05,-0.22792377748229442
544,0.5346,735.765,0.00348217,0.00232398,0.00179668,-0.00172641,-0.00577873,0.42826,-0.16526,-0.259067,8.76486e-07,-5.4286e-07,1.54952e-05,0.417319,0.5345850212086152,8.764863841381754e-07,-5.428598526258099e-07,-0.15232671961882338,1.549532005129528e-05,-0.22822868736652235
545,0.5356,736.049,0.0034746,0.00231879,0.00179257,-0.00172212,-0.00577642,0.428911,-0.165516,-0.259461,8.77896e-07,-5.44007e-07,1.54939e-05,0.417965,0.5355843613073308,8.778963853650623e-07,-5.440068520101704e-07,-0.1525436962044131,1.549402003098166e-05,-0.22853270536822068
546,0.5366,736.332,0.00346704,0.00231361,0.00178847,-0.00171785,-0.0057741,0.429562,-0.165772,-0.259855,8.79297e-07,-5.45145e-07,1.54925e-05,0.41861,0.5365843521882572,8.792973866800224e-07,-5.451448513715818e-07,-0.15276061725110612,1.5492620009327496e-05,-0.22883660361042057
547,0.5376,736.615,0.00345951,0.00230845,0.00178439,-0.00171358,-0.00577177,0.430213,-0.166027,-0.260248,8.80688e-07,-5.46275e-07,1.54911e-05,0.419255,0.5375849942751916,8.806883877721106e-07,-5.462748507989446e-07,-0.15297663575017784,1.5491219987673333e-05,-0.2291396112802946
548,0.5386,736.897,0.003452,0.0023033,0.00178031,-0.00170933,-0.00576944,0.430863,-0.166282,-0.260642,8.82069e-07,-5.47398e-07,1.54897e-05,0.4199,0.5385847494066884,8.820693890854159e-07,-5.473978501591148e-07,-0.15319259917155514,1.548981996601917e-05,-0.22944327044866575
549,0.5396,737.178,0.00344452,0.00229817,0.00177624,-0.00170508,-0.00576711,0.431513,-0.166538,-0.261035,8.8344e-07,-5.48512e-07,1.54882e-05,0.420544,0.5395851545902648,8.834403901758492e-07,-5.485118496073582e-07,-0.15340935412034995,1.548831994280242e-05,-0.22974603974531582
550,0.5406,737.46,0.00343705,0.00229306,0.00177219,-0.00170085,-0.00576477,0.432162,-0.166792,-0.261428,8.84802e-07,-5.49619e-07,1.54868e-05,0.421188,0.540584669663152,8.848023913543557e-07,-5.496188489884091e-07,-0.1536243608373944,1.5486919921148257e-05,-0.23004869007701034
551,0.5416,737.74,0.00342961,0.00228796,0.00176814,-0.00169663,-0.00576242,0.432811,-0.167047,-0.26182,8.86154e-07,-5.50718e-07,1.54853e-05,0.421831,0.5415848336318654,8.861543925320348e-07,-5.507178483243891e-07,-0.15384015910993176,1.5485419897931507e-05,-0.2303504518413303
552,0.5426,738.02,0.00342219,0.00228287,0.0017641,-0.00169242,-0.00576007,0.43346,-0.167302,-0.262213,8.87497e-07,-5.51808e-07,1.54839e-05,0.422474,0.5425856469176751,8.87497393797787e-07,-5.518078477484423e-07,-0.15405590236092515,1.5484019876277344e-05,-0.23065286468574042
553,0.5436,738.3,0.00341479,0.00227781,0.00176008,-0.00168821,-0.00575771,0.434108,-0.167556,-0.262605,8.8883e-07,-5.52891e-07,1.54824e-05,0.423116,0.5435855663557865,8.888303950627119e-07,-5.528908471053029e-07,-0.15427074487557102,1.5482519853060595e-05,-0.23095438966002746
554,0.5446,738.579,0.00340741,0.00227275,0.00175606,-0.00168402,-0.00575534,0.434755,-0.167811,-0.262997,8.90154e-07,-5.53967e-07,1.54809e-05,0.423758,0.5445845893663126,8.901543961936653e-07,-5.539668465059933e-07,-0.1544863783411925,1.5481019829843845e-05,-0.2312557964596884
555,0.5456,738.858,0.00340006,0.00226772,0.00175205,-0.00167984,-0.00575297,0.435402,-0.168065,-0.263388,8.91468e-07,-5.55034e-07,1.54794e-05,0.4244,0.5455842589538717,8.914683973237914e-07,-5.550338459947568e-07,-0.1547011115288245,1.5479519806627096e-05,-0.23155631668773946
556,0.5466,739.136,0.00339272,0.0022627,0.00174806,-0.00167567,-0.0057506,0.436049,-0.168319,-0.263779,8.92772e-07,-5.56094e-07,1.54779e-05,0.425041,0.5465845755369343,8.9277239845309e-07,-5.560938454163278e-07,-0.1549157901811531,1.5478019783410346e-05,-0.23185671943535024
557,0.5476,739.414,0.00338541,0.00225769,0.00174407,-0.00167151,-0.00574822,0.436696,-0.168573,-0.26417,8.94068e-07,-5.57146e-07,1.54763e-05,0.425682,0.5475855395342422,8.940683997593624e-07,-5.571458447928279e-07,-0.15513041431202856,1.547641975863101e-05,-0.2321570047484467
558,0.5486,739.692,0.00337812,0.0022527,0.0017401,-0.00166736,-0.00574583,0.437342,-0.168826,-0.264561,8.95353e-07,-5.58191e-07,1.54748e-05,0.426322,0.5485856027784306,8.953534007538622e-07,-5.581908442131578e-07,-0.15534413927985924,1.547491973541426e-05,-0.23245717267293653
559,0.5496,739.968,0.00337085,0.00224772,0.00173613,-0.00166322,-0.00574344,0.437987,-0.16908,-0.264952,8.9663e-07,-5.59227e-07,1.54732e-05,0.426962,0.5495847626866535,8.966304019253357e-07,-5.592268436105385e-07,-0.1555586546238802,1.5473319710634925e-05,-0.23275722325471004
560,0.5506,740.245,0.0033636,0.00224276,0.00173218,-0.00165909,-0.00574104,0.438632,-0.169333,-0.265342,8.97897e-07,-5.60257e-07,1.54716e-05,0.427602,0.5505845672608995,8.978974030959819e-07,-5.602568430296273e-07,-0.15577227126061632,1.547171968585559e-05,-0.23305638959641217
561,0.5516,740.521,0.00335638,0.00223781,0.00172823,-0.00165497,-0.00573864,0.439277,-0.169586,-0.265732,8.99156e-07,-5.61278e-07,1.547e-05,0.428241,0.5515850169171126,8.991564042215572e-07,-5.612778425367893e-07,-0.1559858338591794,1.5470119661076254e-05,-0.23335543928598967
562,0.5526,740.796,0.00334917,0.00223288,0.0017243,-0.00165086,-0.00573624,0.439921,-0.169839,-0.266122,9.00405e-07,-5.62292e-07,1.54684e-05,0.42888,0.5525845594861689,9.004054053463051e-07,-5.622918418657363e-07,-0.15619934243323963,1.5468519636296918e-05,-0.23365437236892794
563,0.5536,741.071,0.00334199,0.00222796,0.00172037,-0.00164677,-0.00573382,0.440565,-0.170092,-0.266511,9.01644e-07,-5.63299e-07,1.54668e-05,0.429518,0.5535847459679573,9.016444064702256e-07,-5.632988413495355e-07,-0.15641279699646315,1.5466919611517582e-05,-0.2339524228435007
564,0.5546,741.346,0.00333482,0.00222306,0.00171646,-0.00164268,-0.00573141,0.441209,-0.170345,-0.266901,9.02875e-07,-5.64298e-07,1.54652e-05,0.430156,0.5545855767772914,9.028754075490752e-07,-5.642978407882637e-07,-0.15662619756251317,1.5465319586738246e-05,-0.23425112314824625
565,0.5556,741.62,0.00332768,0.00221817,0.00171255,-0.0016386,-0.00572899,0.441852,-0.170598,-0.26729,9.04097e-07,-5.6529e-07,1.54635e-05,0.430794,0.5555854967429767,9.040974087159981e-07,-5.652898402708217e-07,-0.1568395441450492,1.546361956061837e-05,-0.23454894153191053
566,0.5566,741.893,0.00332056,0.0022133,0.00170866,-0.00163453,-0.00572656,0.442494,-0.17085,-0.267678,9.05309e-07,-5.66274e-07,1.54619e-05,0.431431,0.5565845032786707,9.053094098820935e-07,-5.662738397083089e-07,-0.15705199381014256,1.5462019535839033e-05,-0.23484587893301512
567,0.5576,742.167,0.00331345,0.00220844,0.00170477,-0.00163047,-0.00572413,0.443136,-0.171102,-0.268067,9.06513e-07,-5.67251e-07,1.54602e-05,0.432068,0.5575841513824822,9.065134107810735e-07,-5.672508390786035e-07,-0.1572643899446654,1.546031950949711e-05,-0.23514346600167269
568,0.5586,742.439,0.00330637,0.0022036,0.0017009,-0.00162643,-0.00572169,0.443778,-0.171354,-0.268455,9.07707e-07,-5.6822e-07,1.54585e-05,0.432704,0.5585844414664296,9.077074119012707e-07,-5.682198385148496e-07,-0.15747673256210581,1.545861948315519e-05,-0.23544017277202833
569,0.5596,742.711,0.00329931,0.00219877,0.00169703,-0.00162239,-0.00571925,0.44442,-0.171606,-0.268843,9.08893e-07,-5.69182e-07,1.54568e-05,0.43334,0.559585373942797,9.08893412976397e-07,-5.691818379949254e-07,-0.15768902167594845,1.5456919457035312e-05,-0.2357367644424878
570,0.5606,742.983,0.00329227,0.00219396,0.00169318,-0.00161836,-0.0057168,0.445061,-0.171858,-0.269231,9.1007e-07,-5.70137e-07,1.54551e-05,0.433975,0.5605853886379635,9.100704141395966e-07,-5.701368375188309e-07,-0.1579012572996743,1.545521943069339e-05,-0.2360332410577014
571,0.5616,743.255,0.00328525,0.00218916,0.00168933,-0.00161435,-0.00571435,0.445701,-0.17211,-0.269618,9.11238e-07,-5.71085e-07,1.54534e-05,0.434611,0.5615844829627734,9.112384151688246e-07,-5.710848369755439e-07,-0.15811343944676137,1.5453519404351468e-05,-0.23632883899152268
572,0.5626,743.525,0.00327825,0.00218437,0.00168549,-0.00161034,-0.0057119,0.446341,-0.172361,-0.270006,9.12397e-07,-5.72025e-07,1.54517e-05,0.435245,0.5625842169126092,9.123974162861259e-07,-5.72024836387186e-07,-0.1583247264558314,1.545181937823159e-05,-0.2366250859263721
573,0.5636,743.796,0.00327128,0.0021796,0.00168167,-0.00160634,-0.00570944,0.446981,-0.172613,-0.270393,9.13547e-07,-5.72958e-07,1.54499e-05,0.43588,0.5635845908969623,9.135474172694558e-07,-5.729578358426579e-07,-0.15853680190213593,1.5450019350327082e-05,-0.23692045486054336
574,0.5646,744.066,0.00326432,0.00217484,0.00167785,-0.00160236,-0.00570697,0.447621,-0.172864,-0.270779,9.14689e-07,-5.73884e-07,1.54482e-05,0.436514,0.5645856053255855,9.146894184297594e-07,-5.738838353419595e-07,-0.15874798266056456,1.544831932398516e-05,-0.23721494672438093
575,0.5656,744.335,0.00325738,0.0021701,0.00167405,-0.00159838,-0.0057045,0.44826,-0.173115,-0.271166,9.15822e-07,-5.74803e-07,1.54464e-05,0.437147,0.5655856950220166,9.158224194560916e-07,-5.748028347740686e-07,-0.15895911041927469,1.5446519296302696e-05,-0.2375100874265892
576,0.5666,744.604,0.00325046,0.00216537,0.00167025,-0.00159441,-0.00570203,0.448898,-0.173366,-0.271552,9.16946e-07,-5.75715e-07,1.54446e-05,0.43778,0.5665848573943457,9.169464203484523e-07,-5.757148342500074e-07,-0.15917018519156734,1.5444719268398188e-05,-0.2378043517361771
577,0.5676,744.873,0.00324356,0.00216066,0.00166646,-0.00159046,-0.00569955,0.449536,-0.173616,-0.271938,9.18062e-07,-5.76619e-07,1.54429e-05,0.438413,0.5675846574356629,9.180624214177868e-07,-5.766188337918976e-07,-0.1593803663715273,1.544301924227831e-05,-0.23809850248166076
578,0.5686,745.141,0.00323668,0.00215596,0.00166269,-0.00158651,-0.00569707,0.450174,-0.173867,-0.272324,9.19169e-07,-5.77516e-07,1.54411e-05,0.439045,0.568585095552931,9.191694223531499e-07,-5.775158332665953e-07,-0.15959133542184456,1.5441219214373803e-05,-0.23839253970686747
579,0.5696,745.409,0.00322982,0.00215127,0.00165892,-0.00158258,-0.00569458,0.450811,-0.174117,-0.272709,9.20267e-07,-5.78407e-07,1.54392e-05,0.439677,0.5695846025679852,9.202674233765862e-07,-5.78406832763001e-07,-0.15980141132740677,1.5439319185128753e-05,-0.2386857021416905
580,0.5706,745.676,0.00322298,0.0021466,0.00165516,-0.00157865,-0.00569209,0.451448,-0.174368,-0.273095,9.21357e-07,-5.7929e-07,1.54374e-05,0.440309,0.5705847464718354,9.213574243549516e-07,-5.792898322143358e-07,-0.16001227470870216,1.5437519157224244e-05,-0.23897951275156804
581,0.5716,745.943,0.00321616,0.00214194,0.00165142,-0.00157474,-0.0056896,0.452085,-0.174618,-0.273479,9.22439e-07,-5.80166e-07,1.54356e-05,0.44094,0.5715855276703092,9.224394255102908e-07,-5.801658317095004e-07,-0.16022224539259589,1.543571912954178e-05,-0.23927168851733416
582,0.5726,746.21,0.00320936,0.00213729,0.00164768,-0.00157083,-0.0056871,0.452721,-0.174868,-0.273864,9.23512e-07,-5.81036e-07,1.54337e-05,0.44157,0.5725853739833322,9.235124265316585e-07,-5.81035831226373e-07,-0.1604321635903797,1.5433819100074686e-05,-0.23956451254501265
583,0.5736,746.475,0.00320258,0.00213266,0.00164395,-0.00156693,-0.0056846,0.453356,-0.175117,-0.274249,9.24577e-07,-5.81898e-07,1.54319e-05,0.442201,0.5735842828158004,9.245774275079555e-07,-5.818978306981748e-07,-0.16064118995678311,1.5432019072392222e-05,-0.2398572238571397
584,0.5746,746.741,0.00319582,0.00212804,0.00164023,-0.00156305,-0.00568209,0.453992,-0.175367,-0.274633,9.25633e-07,-5.82754e-07,1.543e-05,0.442831,0.574585400741426,9.25633428350281e-07,-5.827538301916846e-07,-0.16085100343151681,1.5430119043147172e-05,-0.2401490626465448
585,0.5756,747.006,0.00318908,0.00212344,0.00163652,-0.00155917,-0.00567958,0.454627,-0.175616,-0.275017,9.26681e-07,-5.83603e-07,1.54281e-05,0.44346,0.5755855799942013,9.266814293695802e-07,-5.836028297290241e-07,-0.16105992551978288,1.5428219013680078e-05,-0.24044078939136881
586,0.5766,747.271,0.00318236,0.00211885,0.00163282,-0.00155531,-0.00567706,0.455261,-0.175866,-0.275401,9.2772e-07,-5.84444e-07,1.54262e-05,0.444089,0.5765848179768875,9.27720430254908e-07,-5.844438292212928e-07,-0.16126963432371022,1.5426318984435028e-05,-0.24073240413462849
587,0.5776,747.535,0.00317565,0.00211427,0.00162913,-0.00155145,-0.00567454,0.455895,-0.176115,-0.275784,9.28752e-07,-5.85279e-07,1.54243e-05,0.444718,0.5775846896773218,9.287524311840656e-07,-5.852788287352695e-07,-0.16147845218586088,1.5424418955189978e-05,-0.2410231479428515
588,0.5786,747.799,0.00316897,0.00210971,0.00162545,-0.00154761,-0.00567202,0.456529,-0.176364,-0.276167,9.29775e-07,-5.86108e-07,1.54224e-05,0.445346,0.578585195497409,9.297754322012963e-07,-5.861078282709542e-07,-0.1616872180588368,1.5422518925722883e-05,-0.24131378041751783
589,0.5796,748.062,0.00316231,0.00210516,0.00162178,-0.00154377,-0.00566949,0.457162,-0.176613,-0.27655,9.3079e-07,-5.86929e-07,1.54205e-05,0.445974,0.5795847562537622,9.307904331734562e-07,-5.869288277615681e-07,-0.1618959319555816,1.5420618896477833e-05,-0.2416043016012599
590,0.5806,748.325,0.00315566,0.00210062,0.00161812,-0.00153994,-0.00566696,0.457795,-0.176862,-0.276933,9.31797e-07,-5.87744e-07,1.54185e-05,0.446602,0.5805849499323728,9.317974341005453e-07,-5.8774382727389e-07,-0.16210459388903586,1.5418618865670197e-05,-0.24189471153669395
591,0.5816,748.588,0.00314903,0.0020961,0.00161447,-0.00153613,-0.00566442,0.458427,-0.17711,-0.277316,9.32795e-07,-5.88552e-07,1.54166e-05,0.447229,0.5815841953490215,9.327954351157075e-07,-5.885518268300416e-07,-0.16231236618492184,1.5416718836425147e-05,-0.24218501026642003
592,0.5826,748.85,0.00314242,0.00209158,0.00161083,-0.00153232,-0.00566188,0.45906,-0.177359,-0.277698,9.33786e-07,-5.89353e-07,1.54146e-05,0.447856,0.5825856550732407,9.337864359526549e-07,-5.893528263190007e-07,-0.16252092443916155,1.541471880561751e-05,-0.2424744403078407
593,0.5836,749.112,0.00313584,0.00208709,0.0016072,-0.00152852,-0.00565934,0.459691,-0.177607,-0.27808,9.34768e-07,-5.90148e-07,1.54127e-05,0.448482,0.5835845817498138,9.347684368776754e-07,-5.901478258296677e-07,-0.16272859349787294,1.541281877637246e-05,-0.2427637598081004
594,0.5846,749.373,0.00312926,0.0020826,0.00160357,-0.00152474,-0.00565679,0.460322,-0.177855,-0.278462,9.35743e-07,-5.90936e-07,1.54107e-05,0.449108,0.5845841389480286,9.357434378465257e-07,-5.909358253841646e-07,-0.1629362110610436,1.541081874534278e-05,-0.2430529688094175
595,0.5856,749.634,0.00312271,0.00207813,0.00159996,-0.00152096,-0.00565424,0.460953,-0.178103,-0.278843,9.36709e-07,-5.91717e-07,1.54087e-05,0.449734,0.5855843270658696,9.367094386814045e-07,-5.917168249824911e-07,-0.16314377714144257,1.5408818714535144e-05,-0.24334131069568388
596,0.5866,749.894,0.00311618,0.00207368,0.00159636,-0.00151719,-0.00565169,0.461584,-0.178351,-0.279225,9.37668e-07,-5.92492e-07,1.54067e-05,0.450359,0.586585146501573,9.376684395601131e-07,-5.924918244915034e-07,-0.16335129175183627,1.5406818683727508e-05,-0.24363029911469591
597,0.5876,750.154,0.00310966,0.00206923,0.00159276,-0.00151344,-0.00564913,0.462214,-0.178598,-0.279606,9.38618e-07,-5.9326e-07,1.54047e-05,0.450984,0.5875850100678219,9.386184405268949e-07,-5.932598240443454e-07,-0.16355791846332424,1.540481865291987e-05,-0.2439184210800135
598,0.5886,750.414,0.00310317,0.0020648,0.00158918,-0.00150969,-0.00564657,0.462844,-0.178846,-0.279986,9.39561e-07,-5.94022e-07,1.54027e-05,0.451608,0.5885855037465819,9.395614413154618e-07,-5.940218236188954e-07,-0.16376533037940466,1.5402818622112235e-05,-0.24420567749782696
599,0.5896,750.673,0.00309669,0.00206038,0.0015856,-0.00150595,-0.005644,0.463473,-0.179093,-0.280367,9.40496e-07,-5.94777e-07,1.54006e-05,0.452232,0.5895850383491164,9.404964422810025e-07,-5.947768231262529e-07,-0.16397185483598054,1.5400718589742013e-05,-0.24449358028573653
600,0.5906,750.932,0.00309023,0.00205597,0.00158203,-0.00150223,-0.00564143,0.464102,-0.17934,-0.280747,9.41423e-07,-5.95526e-07,1.53986e-05,0.452856,0.5905852018566857,9.414234432014723e-07,-5.955258226553184e-07,-0.16417832828731505,1.539871855915642e-05,-0.2447806181845732
601,0.5916,751.19,0.00308379,0.00205158,0.00157847,-0.00149851,-0.00563886,0.46473,-0.179587,-0.281127,9.42342e-07,-5.96268e-07,1.53966e-05,0.453479,0.5915844030797965,9.423424440768713e-07,-5.962678222282136e-07,-0.164384750746005,1.5396718528348785e-05,-0.24506754702972977
602,0.5926,751.448,0.00307737,0.0020472,0.00157493,-0.0014948,-0.00563629,0.465358,-0.179834,-0.281507,9.43254e-07,-5.97004e-07,1.53945e-05,0.454102,0.5925842319983514,9.432544447740554e-07,-5.970038218228169e-07,-0.1645911222246439,1.5394618495978563e-05,-0.24535436686263878
603,0.5936,751.706,0.00307096,0.00204283,0.00157139,-0.0014911,-0.00563371,0.465986,-0.180081,-0.281887,9.44158e-07,-5.97733e-07,1.53924e-05,0.454724,0.5935846890066667,9.441584456482133e-07,-5.977328213502275e-07,-0.1647974427358223,1.539251846360834e-05,-0.2456410777247171
604,0.5946,751.963,0.00306457,0.00203848,0.00156786,-0.00148741,-0.00563113,0.466613,-0.180328,-0.282266,9.45054e-07,-5.98457e-07,1.53903e-05,0.455347,0.5945841799143292,9.450544464773003e-07,-5.984568208772245e-07,-0.16500371229212774,1.5390418431238118e-05,-0.24592692558466833
605,0.5956,752.219,0.00305821,0.00203414,0.00156434,-0.00148373,-0.00562854,0.46724,-0.180574,-0.282645,9.45942e-07,-5.99173e-07,1.53883e-05,0.455968,0.5955842976992967,9.459424474833611e-07,-5.99172820470173e-07,-0.16520909611565782,1.538841840043048e-05,-0.2462126651288078
606,0.5966,752.476,0.00305185,0.00202981,0.00156083,-0.00148006,-0.00562595,0.467867,-0.18082,-0.283024,9.46823e-07,-5.99884e-07,1.53862e-05,0.45659,0.5965850427547437,9.46823448311207e-07,-5.998838200627077e-07,-0.16541442942098128,1.5386318368282303e-05,-0.24649829639817944
607,0.5976,752.732,0.00304552,0.00202549,0.00155732,-0.0014764,-0.00562336,0.468493,-0.181067,-0.283403,9.47696e-07,-6.00588e-07,1.5384e-05,0.457211,0.5975848178884762,9.476964490939821e-07,-6.005878196990722e-07,-0.1656205466003947,1.5384118334349495e-05,-0.24678381943381156
608,0.5986,752.987,0.00303921,0.00202119,0.00155383,-0.00147275,-0.00562077,0.469119,-0.181313,-0.283781,9.48562e-07,-6.01286e-07,1.53819e-05,0.457831,0.598585219077377,9.485624499205869e-07,-6.012858192461223e-07,-0.16582577870134763,1.5382018301979272e-05,-0.2470684813455748
609,0.5996,753.242,0.00303291,0.00201689,0.00155035,-0.00146911,-0.00561817,0.469744,-0.181559,-0.284159,9.4942e-07,-6.01978e-07,1.53798e-05,0.458451,0.5995846471280326,9.494204507021209e-07,-6.019778188148805e-07,-0.16603096032141307,1.5379918269831094e-05,-0.24735303567546962
610,0.6006,753.497,0.00302663,0.00201261,0.00154687,-0.00146548,-0.00561556,0.470369,-0.181804,-0.284537,9.50271e-07,-6.02663e-07,1.53777e-05,0.459071,0.6005847000164615,9.502714515274846e-07,-6.026628184274685e-07,-0.16623525770868253,1.5377818237460872e-05,-0.2476374824641543
611,0.6016,753.751,0.00302037,0.00200835,0.00154341,-0.00146186,-0.00561296,0.470994,-0.18205,-0.284915,9.51114e-07,-6.03343e-07,1.53755e-05,0.45969,0.6015853781333091,9.511144523077775e-07,-6.033428180396427e-07,-0.16644033860930119,1.5375618203528063e-05,-0.24792182175227173
612,0.6026,754.005,0.00301412,0.00200409,0.00153995,-0.00145825,-0.00561035,0.471618,-0.182295,-0.285292,9.5195e-07,-6.04016e-07,1.53734e-05,0.460309,0.602585079283585,9.519504531319001e-07,-6.040158175846244e-07,-0.16664453571117555,1.5373518171379885e-05,-0.2482053017861272
613,0.6036,754.258,0.00300789,0.00199985,0.0015365,-0.00145465,-0.00560774,0.472242,-0.18254,-0.285669,9.52778e-07,-6.04683e-07,1.53712e-05,0.460928,0.6035854044420488,9.527784539109518e-07,-6.046828171513141e-07,-0.16684868279088783,1.5371318137447076e-05,-0.24848867496815275
614,0.6046,754.512,0.00300168,0.00199562,0.00153307,-0.00145105,-0.00560513,0.472865,-0.182786,-0.286046,9.53599e-07,-6.05344e-07,1.5369e-05,0.461546,0.6045847494126517,9.535994547338333e-07,-6.053438167397118e-07,-0.16705361280749575,1.5369118103736312e-05,-0.2487719413386239
615,0.6056,754.764,0.00299549,0.0019914,0.00152964,-0.00144747,-0.00560251,0.473488,-0.183031,-0.286423,9.54413e-07,-6.05999e-07,1.53668e-05,0.462164,0.6055847171691489,9.544134553785e-07,-6.059988163498176e-07,-0.16725765967559592,1.5366918069803503e-05,-0.24905510093780103
616,0.6066,755.017,0.00298932,0.00198719,0.00152622,-0.0014439,-0.00559989,0.474111,-0.183275,-0.286799,9.55219e-07,-6.06647e-07,1.53646e-05,0.462782,0.6065853080996568,9.552194562001404e-07,-6.06646816003753e-07,-0.16746082401957718,1.536471803609274e-05,-0.24933740314370778
617,0.6076,755.268,0.00298316,0.001983,0.0015228,-0.00144033,-0.00559727,0.474733,-0.18352,-0.287175,9.56019e-07,-6.0729e-07,1.53624e-05,0.463399,0.6075849150068153,9.560194569324665e-07,-6.072898155462525e-07,-0.16766477113315081,1.5362518002381975e-05,-0.24961959922393806
618,0.6086,755.52,0.00297702,0.00197882,0.0015194,-0.00143678,-0.00559464,0.475355,-0.183765,-0.287551,9.56811e-07,-6.07927e-07,1.53602e-05,0.464015,0.6085851438628762,9.568114578417664e-07,-6.079268152214823e-07,-0.16786866828580205,1.5360317968449166e-05,-0.2499016892183875
619,0.6096,755.771,0.00297089,0.00197465,0.00151601,-0.00143323,-0.00559201,0.475976,-0.184009,-0.287927,9.57595e-07,-6.08558e-07,1.5358e-05,0.464632,0.6095843854696215,9.575954584839508e-07,-6.085578148073978e-07,-0.1680716835618694,1.5358117934738402e-05,-0.2501836731669369
620,0.6106,756.022,0.00296479,0.00197049,0.00151262,-0.0014297,-0.00558938,0.476597,-0.184253,-0.288303,9.58373e-07,-6.09183e-07,1.53558e-05,0.465248,0.6105842477981187,9.583734592588655e-07,-6.091828144150213e-07,-0.1682746493082523,1.5355917900805593e-05,-0.250465551109452
621,0.6116,756.272,0.0029587,0.00196634,0.00150925,-0.00142617,-0.00558675,0.477218,-0.184497,-0.288678,9.59143e-07,-6.09801e-07,1.53536e-05,0.465863,0.611584731233956,9.591434599887094e-07,-6.098008140664746e-07,-0.1684775655370344,1.535371786709483e-05,-0.25074657383273213
622,0.6126,756.522,0.00295263,0.00196221,0.00150588,-0.00142265,-0.00558411,0.477838,-0.184741,-0.289053,9.59907e-07,-6.10414e-07,1.53513e-05,0.466478,0.6125842235779306,9.59907460629239e-07,-6.104138137175141e-07,-0.1686804322602966,1.535141783182148e-05,-0.251027491192248
623,0.6136,756.772,0.00294657,0.00195809,0.00150252,-0.00141914,-0.00558147,0.478458,-0.184985,-0.289428,9.60663e-07,-6.11022e-07,1.53491e-05,0.467093,0.6135843357993005,9.606634614467424e-07,-6.1102181336814e-07,-0.1688832494901169,1.5349217798110715e-05,-0.2513083032275035
624,0.6146,757.021,0.00294053,0.00195397,0.00149917,-0.00141565,-0.00557883,0.479078,-0.185229,-0.289802,9.61412e-07,-6.11623e-07,1.53468e-05,0.467708,0.6145850682825091,9.61412462086031e-07,-6.116228129515733e-07,-0.16908601723856997,1.5346917762837364e-05,-0.2515882615666237
625,0.6156,757.27,0.00293451,0.00194988,0.00149583,-0.00141216,-0.00557619,0.479697,-0.185472,-0.290177,9.62154e-07,-6.12218e-07,1.53445e-05,0.468322,0.6155848058266242,9.621544627691492e-07,-6.122178125567146e-07,-0.16928790480604805,1.534461772734197e-05,-0.2518688633524131
626,0.6166,757.518,0.0029285,0.00194579,0.0014925,-0.00140868,-0.00557354,0.480316,-0.185716,-0.290551,9.62889e-07,-6.12808e-07,1.53422e-05,0.468935,0.6165851623998488,9.628894634960972e-07,-6.128078122724645e-07,-0.16949057383064892,1.534231769206862e-05,-0.25214861208124617
627,0.6176,757.766,0.00292251,0.00194171,0.00148918,-0.00140521,-0.00557089,0.480934,-0.185959,-0.290925,9.63618e-07,-6.13392e-07,1.534e-05,0.469549,0.6175845208001509,9.636184643557755e-07,-6.133918118989001e-07,-0.16969236310281854,1.5340117658357855e-05,-0.2524282562036172
628,0.6186,758.014,0.00291654,0.00193765,0.00148587,-0.00140174,-0.00556824,0.481552,-0.186202,-0.291298,9.64339e-07,-6.1397e-07,1.53377e-05,0.470162,0.6185844969948233,9.643394649483383e-07,-6.139698115470438e-07,-0.1698941033461523,1.5337817623084504e-05,-0.25270704846606395
629,0.6196,758.261,0.00291059,0.0019336,0.00148256,-0.00139829,-0.00556558,0.48217,-0.186445,-0.291672,9.65053e-07,-6.14542e-07,1.53354e-05,0.470774,0.619585091365781,9.65053465584731e-07,-6.145418112168954e-07,-0.17009579457256263,1.5335517587811154e-05,-0.25298648377227817
630,0.6206,758.508,0.00290465,0.00192955,0.00147926,-0.00139485,-0.00556292,0.482787,-0.186688,-0.292045,9.65761e-07,-6.15109e-07,1.53331e-05,0.471386,0.6205846837096807,9.657614663538538e-07,-6.151088107753111e-07,-0.17029743679395937,1.5333217552537803e-05,-0.25326506785466985
631,0.6216,758.754,0.00289872,0.00192552,0.00147598,-0.00139142,-0.00556026,0.483404,-0.18693,-0.292418,9.66462e-07,-6.1567e-07,1.53307e-05,0.471998,0.6215848929923624,9.66462466944762e-07,-6.156698104664571e-07,-0.1704982005208645,1.5330817515701867e-05,-0.2535435480445759
632,0.6226,759.0,0.00289282,0.00192151,0.0014727,-0.00138799,-0.0055576,0.484021,-0.187173,-0.29279,9.67156e-07,-6.16225e-07,1.53284e-05,0.47261,0.6225857195945952,9.671564678015443e-07,-6.162248101793111e-07,-0.1706997449694957,1.5328517480428516e-05,-0.25382117820229244
633,0.6236,759.246,0.00288693,0.0019175,0.00146943,-0.00138458,-0.00555494,0.484637,-0.187415,-0.293163,9.67843e-07,-6.16775e-07,1.53261e-05,0.473221,0.6235855403110304,9.678434682580672e-07,-6.167748097807291e-07,-0.17090041134960177,1.532621744537721e-05,-0.2540994510017195
634,0.6246,759.492,0.00288105,0.0019135,0.00146616,-0.00138117,-0.00555227,0.485252,-0.187657,-0.293535,9.68523e-07,-6.17319e-07,1.53237e-05,0.473831,0.6245843525215953,9.685234689804645e-07,-6.173188094038551e-07,-0.17110102917431924,1.5323817408541274e-05,-0.2543768744019952
635,0.6256,759.737,0.00287519,0.00190952,0.00146291,-0.00137778,-0.0055496,0.485868,-0.187899,-0.293907,9.69197e-07,-6.17858e-07,1.53214e-05,0.474442,0.6255854047751881,9.691974696135475e-07,-6.178578091375897e-07,-0.17130159845539727,1.5321517373267923e-05,-0.254654194619959
636,0.6266,759.981,0.00286935,0.00190555,0.00145967,-0.00137439,-0.00554693,0.486483,-0.188141,-0.294279,9.69864e-07,-6.18391e-07,1.5319e-05,0.475052,0.6265854472806751,9.698644702904602e-07,-6.1839080878201e-07,-0.1715021192045818,1.5319117336431987e-05,-0.2549314116939878
637,0.6276,760.226,0.00286353,0.00190159,0.00145643,-0.00137101,-0.00554425,0.487097,-0.188383,-0.29465,9.70524e-07,-6.18918e-07,1.53167e-05,0.475661,0.6275844774161712,9.705244710112026e-07,-6.189178084481384e-07,-0.17170259143361621,1.5316817301158636e-05,-0.25520778087059715
638,0.6286,760.469,0.00285772,0.00189763,0.0014532,-0.00136764,-0.00554158,0.487711,-0.188625,-0.295022,9.71178e-07,-6.1944e-07,1.53143e-05,0.47627,0.6285841211445242,9.711784716426308e-07,-6.19439808113853e-07,-0.1719030151542409,1.5314417264544744e-05,-0.25548479204883956
639,0.6296,760.713,0.00285192,0.0018937,0.00144998,-0.00136428,-0.0055389,0.488325,-0.188866,-0.295393,9.71825e-07,-6.19956e-07,1.53119e-05,0.476879,0.6295843788425959,9.718254723178887e-07,-6.199558078012757e-07,-0.17210256248117006,1.5312017227708807e-05,-0.2557609559594164
640,0.6306,760.956,0.00284614,0.00188977,0.00144677,-0.00136093,-0.00553622,0.488939,-0.189107,-0.295763,9.72466e-07,-6.20467e-07,1.53095e-05,0.477488,0.6305852508874792,9.724664729038324e-07,-6.204668074882846e-07,-0.1723020617229879,1.5309617191094915e-05,-0.2560362734688313
641,0.6316,761.199,0.00284038,0.00188585,0.00144357,-0.00135759,-0.00553353,0.489552,-0.189349,-0.296134,9.731e-07,-6.20973e-07,1.53071e-05,0.478096,0.6315851060705773,9.731004735336057e-07,-6.209728071748799e-07,-0.17250234038935486,1.530721715425898e-05,-0.25631223281774984
642,0.6326,761.441,0.00283464,0.00188194,0.00144038,-0.00135425,-0.00553085,0.490165,-0.18959,-0.296504,9.73728e-07,-6.21473e-07,1.53047e-05,0.478703,0.6325855743527984,9.737284740740648e-07,-6.214728068831832e-07,-0.1727017432963056,1.5304817117423042e-05,-0.2565873463924574
643,0.6336,761.683,0.00282891,0.00187805,0.00143719,-0.00135093,-0.00552816,0.490777,-0.189831,-0.296875,9.74348e-07,-6.21967e-07,1.53023e-05,0.479311,0.6335850225242479,9.74348474569453e-07,-6.219668066131945e-07,-0.17290109815294608,1.530241708080915e-05,-0.2568631013312417
644,0.6346,761.925,0.00282319,0.00187416,0.00143401,-0.00134761,-0.00552547,0.491389,-0.190071,-0.297244,9.74963e-07,-6.22457e-07,1.52999e-05,0.479918,0.6345850825451853,9.749634752864722e-07,-6.224568063206704e-07,-0.17309957807084653,1.5300017043973213e-05,-0.2571372682599412
645,0.6356,762.166,0.00281749,0.00187029,0.00143084,-0.00134431,-0.00552278,0.492,-0.190312,-0.297614,9.75571e-07,-6.22941e-07,1.52975e-05,0.480524,0.6355841192052398,9.755714758252765e-07,-6.229408059388319e-07,-0.1732988370608587,1.529761700735932e-05,-0.2574120766280018
646,0.6366,762.407,0.00281181,0.00186643,0.00142768,-0.00134101,-0.00552008,0.492612,-0.190552,-0.297984,9.76173e-07,-6.23419e-07,1.5295e-05,0.481131,0.6365854030477973,9.76173476496811e-07,-6.234188056897239e-07,-0.17349722153287517,1.5295116969182843e-05,-0.25768678333577466
647,0.6376,762.648,0.00280614,0.00186258,0.00142453,-0.00133772,-0.00551739,0.493223,-0.190793,-0.298353,9.76769e-07,-6.23893e-07,1.52926e-05,0.481737,0.6375856622771359,9.767694770790314e-07,-6.238928054180803e-07,-0.17369638470235993,1.5292716932346906e-05,-0.2579606463818842
648,0.6386,762.888,0.00280049,0.00185874,0.00142139,-0.00133444,-0.00551469,0.493833,-0.191033,-0.298722,9.77358e-07,-6.24361e-07,1.52901e-05,0.482342,0.6385848942658969,9.773584777050814e-07,-6.243608050571225e-07,-0.17389467377439094,1.5290216894170428e-05,-0.2582344083911723
649,0.6396,763.128,0.00279485,0.00185491,0.00141825,-0.00133117,-0.00551199,0.494443,-0.191273,-0.299091,9.7794e-07,-6.24824e-07,1.52877e-05,0.482947,0.6395847359721163,9.779404781529166e-07,-6.248238048067734e-07,-0.17409291526275483,1.5287816857556535e-05,-0.25850806940091453
650,0.6406,763.367,0.00278923,0.00185109,0.00141513,-0.00132791,-0.00550929,0.495053,-0.191513,-0.299459,9.78517e-07,-6.25281e-07,1.52852e-05,0.483552,0.6405851877678346,9.785174788223827e-07,-6.252808044671099e-07,-0.17429110917887058,1.5285316819158012e-05,-0.25878088822963163
651,0.6416,763.607,0.00278362,0.00184728,0.00141201,-0.00132466,-0.00550659,0.495662,-0.191753,-0.299827,9.79087e-07,-6.25733e-07,1.52828e-05,0.484156,0.6415846084398908,9.79087479313634e-07,-6.25732804238055e-07,-0.17448925553415384,1.528291678254412e-05,-0.2590536066794906
652,0.6426,763.845,0.00277803,0.00184348,0.0014089,-0.00132142,-0.00550388,0.496271,-0.191992,-0.300195,9.79651e-07,-6.26181e-07,1.52803e-05,0.48476,0.6425846379445073,9.796514799376155e-07,-6.261808039864647e-07,-0.1746865290269598,1.5280416744367642e-05,-0.25932622478742406
653,0.6436,764.084,0.00277245,0.00183969,0.00140579,-0.00131818,-0.00550117,0.49688,-0.192232,-0.300563,9.80209e-07,-6.26623e-07,1.52778e-05,0.485364,0.6435852766525756,9.802094804722827e-07,-6.266228036455601e-07,-0.1748845804928667,1.5277916706191164e-05,-0.2595987425903512
654,0.6446,764.322,0.00276689,0.00183592,0.0014027,-0.00131495,-0.00549846,0.497488,-0.192471,-0.300931,9.80761e-07,-6.2706e-07,1.52753e-05,0.485967,0.6445848803495111,9.807614809176357e-07,-6.270598034152641e-07,-0.17508175951429727,1.5275416668014685e-05,-0.2598711601251772
655,0.6456,764.56,0.00276134,0.00183215,0.00139961,-0.00131174,-0.00549575,0.498096,-0.19271,-0.301298,9.81306e-07,-6.27491e-07,1.52728e-05,0.48657,0.6455850919902906,9.813064814068184e-07,-6.274908030956539e-07,-0.17527889141557285,1.5272916629838207e-05,-0.26014273757190154
656,0.6466,764.797,0.00275581,0.00182839,0.00139654,-0.00130853,-0.00549304,0.498703,-0.192949,-0.301665,9.81845e-07,-6.27918e-07,1.52703e-05,0.487173,0.6465842653595675,9.818454820287315e-07,-6.279178028645305e-07,-0.17547597620795374,1.527041659166173e-05,-0.26041421536799003
657,0.6476,765.034,0.0027503,0.00182465,0.00139347,-0.00130533,-0.00549033,0.499311,-0.193188,-0.302032,9.82379e-07,-6.28339e-07,1.52678e-05,0.487775,0.6475856929960584,9.823794824281862e-07,-6.283388025440928e-07,-0.17567301390269752,1.526791655348525e-05,-0.26068559355000753
658,0.6486,765.271,0.00274479,0.00182091,0.0013904,-0.00130214,-0.00548761,0.499917,-0.193427,-0.302399,9.82906e-07,-6.28756e-07,1.52653e-05,0.488377,0.6485844325135233,9.829064830935152e-07,-6.28755802312142e-07,-0.17587000451105939,1.5265416515308772e-05,-0.2609568721545059
659,0.6496,765.507,0.00273931,0.00181719,0.00138735,-0.00129896,-0.00548489,0.500524,-0.193666,-0.302766,9.83427e-07,-6.29167e-07,1.52628e-05,0.488979,0.6495854270351618,9.8342748366953e-07,-6.291668021018992e-07,-0.17606694804429157,1.5262916477132293e-05,-0.2612280512180233
660,0.6506,765.743,0.00273384,0.00181347,0.00138431,-0.00129578,-0.00548217,0.50113,-0.193904,-0.303132,9.83942e-07,-6.29574e-07,1.52602e-05,0.48958,0.6505853787587157,9.839424841562305e-07,-6.29573801869121e-07,-0.17626302077707634,1.526031643739323e-05,-0.26149839227584615
661,0.6516,765.979,0.00272838,0.00180977,0.00138127,-0.00129262,-0.00547945,0.501735,-0.194143,-0.303498,9.84452e-07,-6.29975e-07,1.52577e-05,0.49018,0.6515842850515496,9.844524846425173e-07,-6.299748015470286e-07,-0.1764598703906447,1.525781639921675e-05,-0.2617686344069464
662,0.6526,766.214,0.00272294,0.00180608,0.00137824,-0.00128946,-0.00547673,0.502341,-0.194381,-0.303864,9.84955e-07,-6.30372e-07,1.52552e-05,0.490781,0.6525854484501621,9.849554851726339e-07,-6.30371801313423e-07,-0.17665584961903846,1.5255316361262317e-05,-0.2620387776475249
663,0.6536,766.449,0.00271751,0.00180239,0.00137522,-0.00128631,-0.005474,0.502946,-0.194619,-0.304229,9.85452e-07,-6.30764e-07,1.52526e-05,0.491381,0.6535855651512708,9.854524856134361e-07,-6.307638010794037e-07,-0.17685178220992592,1.5252716321523252e-05,-0.26230808434222197
664,0.6546,766.684,0.0027121,0.00179872,0.0013722,-0.00128317,-0.00547128,0.50355,-0.194857,-0.304595,9.85944e-07,-6.3115e-07,1.52501e-05,0.491981,0.6545846325205948,9.859444860538247e-07,-6.311498008670924e-07,-0.17704766817440565,1.5250216283346774e-05,-0.26257803018025094
665,0.6556,766.918,0.0027067,0.00179506,0.0013692,-0.00128004,-0.00546855,0.504154,-0.195095,-0.30496,9.86429e-07,-6.31532e-07,1.52475e-05,0.49258,0.6555843035088844,9.86429486538043e-07,-6.315318006322457e-07,-0.1772435075235731,1.5247616243829754e-05,-0.26284714008369003
666,0.6566,767.152,0.00270131,0.0017914,0.0013662,-0.00127692,-0.00546582,0.504758,-0.195332,-0.305325,9.86909e-07,-6.31909e-07,1.52449e-05,0.493179,0.6565845784808355,9.869094870218476e-07,-6.319088003969853e-07,-0.1774384777074106,1.5245016204090689e-05,-0.2631161517799383
667,0.6576,767.385,0.00269594,0.00178776,0.00136321,-0.00127381,-0.00546309,0.505362,-0.19557,-0.305689,9.87383e-07,-6.32281e-07,1.52424e-05,0.493777,0.6575854578013647,9.873834874163379e-07,-6.322808001613112e-07,-0.17763422405497697,1.524251616591421e-05,-0.2633843286895319
668,0.6586,767.619,0.00269059,0.00178413,0.00136023,-0.0012707,-0.00546036,0.505965,-0.195807,-0.306054,9.87851e-07,-6.32648e-07,1.52398e-05,0.494376,0.6585852832494961,9.878514879435585e-07,-6.326477999252234e-07,-0.17782910164996868,1.523991612639719e-05,-0.26365314434771814
669,0.6596,767.852,0.00268525,0.0017805,0.00135725,-0.00126761,-0.00545762,0.506568,-0.196045,-0.306418,9.88313e-07,-6.3301e-07,1.52372e-05,0.494974,0.6595857117741821,9.883134883814648e-07,-6.330097996887218e-07,-0.17802475504009907,1.5237316086658126e-05,-0.2639211258275874
670,0.6606,768.084,0.00267992,0.00177689,0.00135429,-0.00126452,-0.00545489,0.50717,-0.196282,-0.306782,9.88769e-07,-6.33368e-07,1.52346e-05,0.495571,0.6605850831532738,9.887694887300569e-07,-6.333677994296849e-07,-0.17821954009021435,1.5234716047141106e-05,-0.26418900977994897
671,0.6616,768.316,0.00267461,0.00177329,0.00135133,-0.00126144,-0.00545215,0.507772,-0.196519,-0.307146,9.8922e-07,-6.33721e-07,1.5232e-05,0.496168,0.6615850563350603,9.892204893002798e-07,-6.337207991702343e-07,-0.17841427898174278,1.5232116007402041e-05,-0.2644567962402966
672,0.6626,768.548,0.00266931,0.00176969,0.00134838,-0.00125837,-0.00544941,0.508374,-0.196755,-0.30751,9.89665e-07,-6.34069e-07,1.52294e-05,0.496765,0.6625856316819356,9.896654897811885e-07,-6.340687990213922e-07,-0.17860815033418376,1.5229515967885021e-05,-0.26472448524411085
673,0.6636,768.78,0.00266403,0.00176611,0.00134544,-0.00125531,-0.00544667,0.508975,-0.196992,-0.307873,9.90105e-07,-6.34412e-07,1.52268e-05,0.497362,0.6635851459705346,9.901054902616835e-07,-6.344117987611142e-07,-0.17880279713599745,1.5226915928368001e-05,-0.26499134181856865
674,0.6646,769.011,0.00265876,0.00176254,0.0013425,-0.00125226,-0.00544393,0.509576,-0.197229,-0.308236,9.90539e-07,-6.34751e-07,1.52242e-05,0.497958,0.6645852611477703,9.905394906528642e-07,-6.34750798589323e-07,-0.1789973978119852,1.5224315888628936e-05,-0.2652581015416695
675,0.6656,769.242,0.0026535,0.00175897,0.00133957,-0.00124921,-0.00544119,0.510176,-0.197465,-0.308599,9.90967e-07,-6.35085e-07,1.52216e-05,0.498554,0.66558431198974,9.909674909547306e-07,-6.350847983060959e-07,-0.17919113156461952,1.5221715849111916e-05,-0.2655247644485641
676,0.6666,769.472,0.00264826,0.00175542,0.00133665,-0.00124617,-0.00543845,0.510777,-0.197701,-0.308962,9.91389e-07,-6.35414e-07,1.5219e-05,0.499149,0.6665856290268759,9.913894913893273e-07,-6.354137981334773e-07,-0.179384819601483,1.5219115809594896e-05,-0.2657913305743904
677,0.6676,769.703,0.00264304,0.00175187,0.00133374,-0.00124314,-0.0054357,0.511376,-0.197938,-0.309324,9.91806e-07,-6.35739e-07,1.52163e-05,0.499744,0.6675842128646647,9.918064918235103e-07,-6.357387979383233e-07,-0.17957928235449094,1.521641576851529e-05,-0.2660570660117064
678,0.6686,769.932,0.00263782,0.00174834,0.00133084,-0.00124012,-0.00543296,0.511976,-0.198174,-0.309686,9.92218e-07,-6.36059e-07,1.52137e-05,0.500339,0.6685850636175836,9.922184922572796e-07,-6.360587977427556e-07,-0.1797728787985764,1.521381572899827e-05,-0.2663227052702035
679,0.6696,770.162,0.00263262,0.00174481,0.00132794,-0.00123711,-0.00543021,0.512575,-0.198409,-0.310048,9.92624e-07,-6.36374e-07,1.52111e-05,0.500933,0.6695848454754636,9.926244926017347e-07,-6.363737975467743e-07,-0.17996560952531138,1.5211215689259205e-05,-0.2665882483846921
680,0.6706,770.391,0.00262744,0.0017413,0.00132505,-0.00123411,-0.00542746,0.513174,-0.198645,-0.31041,9.93024e-07,-6.36685e-07,1.52084e-05,0.501527,0.6705852263820733,9.9302449307892e-07,-6.366847973282574e-07,-0.18015911480694202,1.5208515648401644e-05,-0.26685369538997017
681,0.6716,770.62,0.00262226,0.00173779,0.00132217,-0.00123111,-0.00542471,0.513772,-0.198881,-0.310772,9.93419e-07,-6.36991e-07,1.52058e-05,0.502121,0.6715845351109802,9.93419493333647e-07,-6.369907971093269e-07,-0.1803525744267146,1.5205915608662579e-05,-0.26711904632082273
682,0.6726,770.849,0.00261711,0.0017343,0.0013193,-0.00122813,-0.00542196,0.51437,-0.199116,-0.311133,9.93809e-07,-6.37293e-07,1.52031e-05,0.502714,0.6725844416052207,9.93809493810005e-07,-6.372927969788833e-07,-0.1805451689409825,1.5203215567805017e-05,-0.2673835685959576
683,0.6736,771.077,0.00261196,0.00173081,0.00131643,-0.00122515,-0.00541921,0.514968,-0.199352,-0.311494,9.94193e-07,-6.3759e-07,1.52004e-05,0.503307,0.6735849462223658,9.941934941970487e-07,-6.375897967370037e-07,-0.1807385374627294,1.5200515526725411e-05,-0.2676479953957853
684,0.6746,771.305,0.00260683,0.00172733,0.00131357,-0.00122218,-0.00541645,0.515565,-0.199587,-0.311855,9.94572e-07,-6.37883e-07,1.51978e-05,0.503899,0.6745843747349878,9.945724945836787e-07,-6.378827965836109e-07,-0.1809310412863404,1.5197915487208391e-05,-0.2679123267547665
685,0.6756,771.532,0.00260171,0.00172387,0.00131072,-0.00121922,-0.0054137,0.516162,-0.199822,-0.312216,9.94945e-07,-6.38171e-07,1.51951e-05,0.504492,0.6755844000845699,9.949454948809944e-07,-6.381707963187822e-07,-0.18112349987686804,1.5195215446128785e-05,-0.268176562707349
686,0.6766,771.76,0.00259661,0.00172041,0.00130788,-0.00121626,-0.00541095,0.516759,-0.200057,-0.312576,9.95313e-07,-6.38455e-07,1.51924e-05,0.505084,0.6765850226275301,9.95313495399941e-07,-6.384547961424403e-07,-0.18131591324494079,1.5192515405049178e-05,-0.2684399717283058
687,0.6776,771.987,0.00259152,0.00171696,0.00130504,-0.00121332,-0.00540819,0.517355,-0.200292,-0.312937,9.95676e-07,-6.38734e-07,1.51897e-05,0.505675,0.6775845651350956,9.956764956964292e-07,-6.387337959656847e-07,-0.18150828140118458,1.5189815363969572e-05,-0.26870401723543025
688,0.6786,772.213,0.00258644,0.00171352,0.00130221,-0.00121038,-0.00540543,0.517951,-0.200526,-0.313297,9.96033e-07,-6.39009e-07,1.5187e-05,0.506266,0.6785847035475578,9.960334961256478e-07,-6.39008795877416e-07,-0.18169978605641812,1.518711532311201e-05,-0.2689672364069319
689,0.6796,772.439,0.00258138,0.00171009,0.00129939,-0.00120745,-0.00540267,0.518547,-0.200761,-0.313657,9.96385e-07,-6.39279e-07,1.51843e-05,0.506857,0.6795854382201814,9.963854963324081e-07,-6.392787956777113e-07,-0.18189206401315006,1.5184415282032404e-05,-0.26923036083658625
690,0.6806,772.665,0.00257633,0.00170667,0.00129658,-0.00120453,-0.00539991,0.519142,-0.200995,-0.314016,9.96732e-07,-6.39545e-07,1.51816e-05,0.507448,0.6805850889225145,9.967324967607993e-07,-6.395447954554712e-07,-0.18208347887375886,1.5181715241174842e-05,-0.26949266005151973
691,0.6816,772.891,0.00257129,0.00170326,0.00129377,-0.00120161,-0.00539715,0.519737,-0.201229,-0.314376,9.97073e-07,-6.39807e-07,1.51789e-05,0.508038,0.6815853345940013,9.970734970998762e-07,-6.398067953217179e-07,-0.18227484894853052,1.5179015200095236e-05,-0.26975559536270544
692,0.6826,773.116,0.00256627,0.00169985,0.00129097,-0.00119871,-0.00539439,0.520331,-0.201463,-0.314735,9.9741e-07,-6.40064e-07,1.51762e-05,0.508627,0.6825844930034195,9.974104973053954e-07,-6.40063795187551e-07,-0.18246617424794342,1.517631515901563e-05,-0.27001770605228637
693,0.6836,773.341,0.00256126,0.00169646,0.00128818,-0.00119581,-0.00539163,0.520925,-0.201697,-0.315094,9.97741e-07,-6.40318e-07,1.51735e-05,0.509217,0.6835842450892373,9.97741497643645e-07,-6.403177950087269e-07,-0.18265745478247408,1.5173615118158068e-05,-0.2702797226610183
694,0.6846,773.566,0.00255626,0.00169308,0.0012854,-0.00119292,-0.00538886,0.521519,-0.201931,-0.315453,9.98067e-07,-6.40566e-07,1.51708e-05,0.509806,0.6845845912042032,9.980674979814808e-07,-6.405657948516108e-07,-0.18284869056259612,1.5170915077078462e-05,-0.2705416452226701
695,0.6856,773.79,0.00255128,0.0016897,0.00128262,-0.00119004,-0.0053861,0.522113,-0.202165,-0.315811,9.98388e-07,-6.40811e-07,1.51681e-05,0.510395,0.6855855317012758,9.983884983189029e-07,-6.408107946498376e-07,-0.18303988159878082,1.51682150362209e-05,-0.2708027445741078
696,0.6866,774.015,0.0025463,0.00168634,0.00127985,-0.00118717,-0.00538334,0.522706,-0.202398,-0.316169,9.98704e-07,-6.41051e-07,1.51653e-05,0.510983,0.6865853803473985,9.987044986559113e-07,-6.41050794558673e-07,-0.18323021113211657,1.5165414993800752e-05,-0.27106375046870756
697,0.6876,774.238,0.00254135,0.00168298,0.00127709,-0.0011843,-0.00538057,0.523298,-0.202632,-0.316528,9.99014e-07,-6.41287e-07,1.51626e-05,0.511571,0.6875841344946227,9.9901449912565e-07,-6.412867943339506e-07,-0.1834213129029325,1.5162714952721146e-05,-0.27132539161489344
698,0.6886,774.462,0.0025364,0.00167963,0.00127433,-0.00118145,-0.0053778,0.523891,-0.202865,-0.316885,9.9932e-07,-6.41519e-07,1.51599e-05,0.512159,0.6885851686636748,9.993204992397864e-07,-6.415187941977152e-07,-0.18361155357312742,1.5160014911863584e-05,-0.27158548202118704
699,0.6896,774.685,0.00253147,0.00167629,0.00127158,-0.0011786,-0.00537503,0.524483,-0.203098,-0.317243,9.99621e-07,-6.41746e-07,1.51571e-05,0.512746,0.6895851070360783,9.996214995755537e-07,-6.41745794061066e-07,-0.18380174992240972,1.5157214869443436e-05,-0.27184620774593415
700,0.6906,774.908,0.00252655,0.00167296,0.00126884,-0.00117576,-0.00537226,0.525075,-0.203331,-0.317601,9.99916e-07,-6.4197e-07,1.51544e-05,0.513333,0.6905856375472541,9.999164998220067e-07,-6.41969793990782e-07,-0.18399190196110504,1.5154514828585874e-05,-0.2721068401475776
701,0.6916,775.13,0.00252165,0.00166964,0.00126611,-0.00117292,-0.0053695,0.525666,-0.203564,-0.317958,1.00021e-06,-6.42189e-07,1.51516e-05,0.51392,0.6915850689619374,1.0002105002016037e-06,-6.42188793809062e-07,-0.18418200969953646,1.5151714786165726e-05,-0.2723666516265365
702,0.6926,775.352,0.00251675,0.00166633,0.00126338,-0.0011701,-0.00536673,0.526257,-0.203797,-0.318315,1.00049e-06,-6.42404e-07,1.51489e-05,0.514506,0.6925850912151623,1.0004905004468156e-06,-6.424037936048066e-07,-0.18437207314802484,1.514901474508612e-05,-0.2726263703693518
703,0.6936,775.574,0.00251187,0.00166303,0.00126066,-0.00116728,-0.00536395,0.526848,-0.20403,-0.318672,1.00077e-06,-6.42615e-07,1.51461e-05,0.515092,0.6935857046562177,1.0007705006920276e-06,-6.42614793489038e-07,-0.18456209231688858,1.5146214702665972e-05,-0.2728859964091245
704,0.6946,775.796,0.002507,0.00165973,0.00125795,-0.00116447,-0.00536118,0.527438,-0.204262,-0.319028,1.00105e-06,-6.42822e-07,1.51433e-05,0.515678,0.6945852150485365,1.001050501159284e-06,-6.428217933507341e-07,-0.18475125196810305,1.5143414660245824e-05,-0.2731448029241097
705,0.6956,776.017,0.00250215,0.00165645,0.00125524,-0.00116167,-0.00535841,0.528028,-0.204495,-0.319385,1.00132e-06,-6.43025e-07,1.51406e-05,0.516263,0.6955853153259859,1.0013205014036686e-06,-6.43024793300917e-07,-0.1849411827985935,1.5140714619388262e-05,-0.2734042439164932
706,0.6966,776.238,0.00249731,0.00165317,0.00125255,-0.00115887,-0.00535564,0.528617,-0.204727,-0.319741,1.00159e-06,-6.43223e-07,1.51378e-05,0.516848,0.6965843092515429,1.001590501648053e-06,-6.432227931396639e-07,-0.1851302545110175,1.5137914576968114e-05,-0.27366286596820244
707,0.6976,776.458,0.00249248,0.0016499,0.00124986,-0.00115609,-0.00535286,0.529207,-0.204959,-0.320097,1.00185e-06,-6.43418e-07,1.5135e-05,0.517433,0.6975855893425826,1.0018505018916102e-06,-6.43417793044776e-07,-0.18531928236389217,1.5135114534770011e-05,-0.2739213959668475
708,0.6986,776.679,0.00248766,0.00164664,0.00124717,-0.00115331,-0.00535009,0.529796,-0.205191,-0.320453,1.0021e-06,-6.43608e-07,1.51322e-05,0.518017,0.6985857617765723,1.0021005021343399e-06,-6.43607792838452e-07,-0.1855082663673917,1.5132314492349863e-05,-0.27417983394519374
709,0.6996,776.899,0.00248286,0.00164339,0.00124449,-0.00115054,-0.00534731,0.530384,-0.205423,-0.320808,1.00235e-06,-6.43795e-07,1.51294e-05,0.518601,0.699584823899976,1.0023505023770696e-06,-6.437947928095156e-07,-0.18569720653168786,1.5129514449929715e-05,-0.2744374543738115
710,0.7006,777.119,0.00247806,0.00164015,0.00124182,-0.00114778,-0.00534454,0.530972,-0.205654,-0.321164,1.0026e-06,-6.43978e-07,1.51266e-05,0.519184,0.7005844736446523,1.0026005026197993e-06,-6.439777926470214e-07,-0.1858852887526462,1.5126714407509567e-05,-0.2746957086680626
711,0.7016,777.338,0.00247328,0.00163692,0.00123916,-0.00114502,-0.00534176,0.53156,-0.205886,-0.321519,1.00284e-06,-6.44156e-07,1.51238e-05,0.519768,0.7015847113562237,1.0028405028617016e-06,-6.441557924841135e-07,-0.1860741414578947,1.5123914365311464e-05,-0.2749531459936565
712,0.7026,777.557,0.00246852,0.00163369,0.00123651,-0.00114227,-0.00533898,0.532148,-0.206117,-0.321874,1.00308e-06,-6.44331e-07,1.5121e-05,0.52035,0.7025855373805165,1.0030805031036039e-06,-6.443307923875707e-07,-0.18626213661694113,1.5121114322891316e-05,-0.27521049194521974
713,0.7036,777.776,0.00246376,0.00163048,0.00123386,-0.00113953,-0.0053362,0.532735,-0.206349,-0.322228,1.00331e-06,-6.44501e-07,1.51182e-05,0.520933,0.7035852484774601,1.0033105033446788e-06,-6.445007922906143e-07,-0.18645090190362612,1.5118314280471168e-05,-0.27546702202256845
714,0.7046,777.994,0.00245902,0.00162727,0.00123121,-0.0011368,-0.00533343,0.533322,-0.20658,-0.322583,1.00354e-06,-6.44668e-07,1.51154e-05,0.521515,0.7045855465770858,1.0035405035857536e-06,-6.446677921490007e-07,-0.18663881004106087,1.5115514238273065e-05,-0.27572418558051814
715,0.7056,778.213,0.00245429,0.00162407,0.00122858,-0.00113408,-0.00533065,0.533908,-0.206811,-0.322937,1.00376e-06,-6.44831e-07,1.51126e-05,0.522097,0.7055847264384867,1.0037605038260011e-06,-6.44830792095874e-07,-0.18682667477672898,1.5112714195852917e-05,-0.2759805338425032
716,0.7066,778.43,0.00244957,0.00162088,0.00122595,-0.00113136,-0.00532787,0.534494,-0.207042,-0.323291,1.00398e-06,-6.4499e-07,1.51098e-05,0.522679,0.7065844919908768,1.0039805040662486e-06,-6.449897920202119e-07,-0.18701449612065524,1.5109914153654813e-05,-0.27623679137326396
717,0.7076,778.648,0.00244487,0.0016177,0.00122333,-0.00112865,-0.00532509,0.53508,-0.207273,-0.323645,1.00419e-06,-6.45145e-07,1.51069e-05,0.52326,0.707584843577572,1.0041905043056687e-06,-6.451447919220143e-07,-0.18720227408286172,1.5107014109894124e-05,-0.2764929582049135
718,0.7086,778.865,0.00244017,0.00161453,0.00122071,-0.00112595,-0.00532231,0.535666,-0.207503,-0.323999,1.0044e-06,-6.45296e-07,1.51041e-05,0.523841,0.7085857815420888,1.0044005043230442e-06,-6.452957918012814e-07,-0.1873891960629709,1.5104214067473976e-05,-0.27674903436955356
719,0.7096,779.082,0.00243549,0.00161136,0.00121811,-0.00112326,-0.00531953,0.536251,-0.207734,-0.324352,1.00461e-06,-6.45444e-07,1.51013e-05,0.524421,0.7095855966416942,1.0046105045624643e-06,-6.454437917469136e-07,-0.1875768874794871,1.5101414025275872e-05,-0.27700429690393313
720,0.7106,779.299,0.00243082,0.00160821,0.0012155,-0.00112057,-0.00531674,0.536835,-0.207964,-0.324705,1.00481e-06,-6.45587e-07,1.50985e-05,0.525001,0.7105842862191054,1.004810504801057e-06,-6.455867915811098e-07,-0.18776372330842284,1.5098613982855724e-05,-0.2772594693465402
721,0.7116,779.516,0.00242617,0.00160506,0.00121291,-0.00111789,-0.00531396,0.53742,-0.208194,-0.325058,1.005e-06,-6.45727e-07,1.50956e-05,0.525581,0.7115852707859827,1.0050005050388222e-06,-6.457267914816711e-07,-0.18795051617005942,1.5095713939095035e-05,-0.2775145517291715
722,0.7126,779.732,0.00242152,0.00160192,0.00121032,-0.00111522,-0.00531118,0.538004,-0.208424,-0.325411,1.00519e-06,-6.45863e-07,1.50928e-05,0.526161,0.7125851285141609,1.0051905052765875e-06,-6.458627914707193e-07,-0.18813726607427805,1.5092913896896931e-05,-0.27776954408361276
723,0.7136,779.947,0.00241689,0.00159879,0.00120774,-0.00111256,-0.0053084,0.538588,-0.208654,-0.325764,1.00538e-06,-6.45995e-07,1.50899e-05,0.52674,0.7135855703297893,1.0053805052923082e-06,-6.459947913262098e-07,-0.18832397303095794,1.5090013853136242e-05,-0.27802444644163804
724,0.7146,780.163,0.00241227,0.00159566,0.00120517,-0.0011099,-0.00530561,0.539171,-0.208884,-0.326116,1.00556e-06,-6.46124e-07,1.50871e-05,0.527319,0.7145848819883356,1.005560505529246e-06,-6.461237912480655e-07,-0.18851063704997573,1.5087213810938138e-05,-0.2782785371139087
725,0.7156,780.378,0.00240766,0.00159255,0.0012026,-0.00110725,-0.00530283,0.539754,-0.209114,-0.326468,1.00574e-06,-6.46249e-07,1.50842e-05,0.527897,0.715584776415439,1.005740505766184e-06,-6.462487911473858e-07,-0.18869725814120597,1.5084313767177449e-05,-0.2785325383620023
726,0.7166,780.593,0.00240306,0.00158944,0.00120004,-0.00110461,-0.00530005,0.540337,-0.209344,-0.32682,1.00591e-06,-6.4637e-07,1.50814e-05,0.528476,0.7165852539509534,1.0059105060022944e-06,-6.463697911351929e-07,-0.1888838363145211,1.5081513724979345e-05,-0.2787864502173907
727,0.7176,780.808,0.00239847,0.00158634,0.00119748,-0.00110197,-0.00529726,0.540919,-0.209573,-0.327172,1.00608e-06,-6.46487e-07,1.50785e-05,0.529053,0.7175845973494734,1.0060805060163602e-06,-6.464867909894423e-07,-0.1890695606497571,1.5078613681218656e-05,-0.2790402727115343
728,0.7186,781.022,0.0023939,0.00158325,0.00119494,-0.00109935,-0.00529448,0.541501,-0.209802,-0.327523,1.00624e-06,-6.46601e-07,1.50756e-05,0.529631,0.7185845225351348,1.0062405062516433e-06,-6.466007909100568e-07,-0.18925524245898973,1.5075713637457966e-05,-0.27929328516952856
729,0.7196,781.236,0.00238934,0.00158017,0.0011924,-0.00109673,-0.00529169,0.542083,-0.210032,-0.327875,1.0064e-06,-6.46711e-07,1.50728e-05,0.530208,0.7195850298466366,1.0064005064869264e-06,-6.467107909191583e-07,-0.1894416923106692,1.5072913595259863e-05,-0.2795469292891649
730,0.7206,781.45,0.00238479,0.0015771,0.00118986,-0.00109412,-0.00528891,0.542664,-0.210261,-0.328226,1.00656e-06,-6.46817e-07,1.50699e-05,0.530785,0.7205843990376153,1.0065605065001648e-06,-6.46816790794702e-07,-0.18962728891150826,1.5070013551499173e-05,-0.2797997639419071
731,0.7216,781.664,0.00238025,0.00157403,0.00118733,-0.00109151,-0.00528612,0.543245,-0.21049,-0.328577,1.00671e-06,-6.4692e-07,1.5067e-05,0.531361,0.7215843490308003,1.0067105067346205e-06,-6.469197907366109e-07,-0.18981284301559165,1.5067113507738483e-05,-0.280052509865259
732,0.7226,781.877,0.00237572,0.00157097,0.00118481,-0.00108891,-0.00528334,0.543826,-0.210719,-0.328928,1.00685e-06,-6.47019e-07,1.50641e-05,0.531937,0.7225848801637365,1.0068505069682487e-06,-6.470187906559843e-07,-0.18999835463265025,1.5064213464199838e-05,-0.28030516709035935
733,0.7236,782.09,0.00237121,0.00156792,0.0011823,-0.00108632,-0.00528055,0.544406,-0.210947,-0.329278,1.00699e-06,-6.47115e-07,1.50612e-05,0.532513,0.7235842691890324,1.0069905069798324e-06,-6.47114790641723e-07,-0.19018301395583126,1.5061313420439149e-05,-0.2805570162057116
734,0.7246,782.302,0.0023667,0.00156488,0.00117979,-0.00108374,-0.00527776,0.544986,-0.211176,-0.329628,1.00713e-06,-6.47207e-07,1.50584e-05,0.533089,0.7245842380280929,1.0071305072134606e-06,-6.472067906049261e-07,-0.19036844081344984,1.5058513378241045e-05,-0.2808087771892974
735,0.7256,782.515,0.00236221,0.00156184,0.00117729,-0.00108117,-0.00527498,0.545566,-0.211404,-0.329979,1.00726e-06,-6.47295e-07,1.50555e-05,0.533664,0.7255847870173073,1.007260507224217e-06,-6.472947905455939e-07,-0.1905530157666001,1.50556133347024e-05,-0.28106116901114797
736,0.7266,782.727,0.00235773,0.00155882,0.00117479,-0.0010786,-0.00527219,0.546145,-0.211633,-0.330328,1.00739e-06,-6.4738e-07,1.50526e-05,0.534239,0.7265841899082073,1.0073905074570177e-06,-6.473797904416045e-07,-0.1907383579035049,1.505271329094171e-05,-0.28131203488452183
737,0.7276,782.938,0.00235326,0.0015558,0.0011723,-0.00107604,-0.0052694,0.546724,-0.211861,-0.330678,1.00752e-06,-6.47462e-07,1.50497e-05,0.534813,0.7275841716209337,1.007520507467774e-06,-6.474617904039803e-07,-0.19092284852517283,1.5049813247403065e-05,-0.28156353165780956
738,0.7286,783.15,0.0023488,0.00155279,0.00116982,-0.00107348,-0.00526661,0.547303,-0.212089,-0.331028,1.00764e-06,-6.4754e-07,1.50468e-05,0.535388,0.7285847324907215,1.0076405076997474e-06,-6.475397903438207e-07,-0.19110729708777396,1.5046913203642376e-05,-0.281814940422629
739,0.7296,783.361,0.00234435,0.00154979,0.00116735,-0.00107094,-0.00526383,0.547881,-0.212317,-0.331377,1.00776e-06,-6.47614e-07,1.50439e-05,0.535961,0.7295841432679919,1.0077605077096763e-06,-6.476137902611256e-07,-0.19129170360089653,1.504401316010373e-05,-0.28206554327568
740,0.7306,783.572,0.00233992,0.00154679,0.00116488,-0.0010684,-0.00526104,0.548459,-0.212544,-0.331726,1.00787e-06,-6.47685e-07,1.5041e-05,0.536535,0.7305841318716675,1.0078705079408223e-06,-6.476847902447957e-07,-0.19147525954979083,1.5041113116343041e-05,-0.28231605868359544
741,0.7316,783.783,0.0023355,0.00154381,0.00116241,-0.00106586,-0.00525825,0.549037,-0.212772,-0.332075,1.00798e-06,-6.47752e-07,1.5038e-05,0.537108,0.7315846986358279,1.0079805079499238e-06,-6.477517902059304e-07,-0.19165958217703538,1.503811307124181e-05,-0.2825664866768881
742,0.7326,783.993,0.00233108,0.00154083,0.00115996,-0.00106334,-0.00525546,0.549614,-0.213,-0.332424,1.00808e-06,-6.47816e-07,1.50351e-05,0.537681,0.7325841113097695,1.0080805081802424e-06,-6.47815790122408e-07,-0.19184386278351162,1.5035213027703165e-05,-0.2828168272860606
743,0.7336,784.203,0.00232668,0.00153786,0.00115751,-0.00106082,-0.00525267,0.550191,-0.213227,-0.332772,1.00818e-06,-6.47877e-07,1.50322e-05,0.538254,0.7335841008112225,1.0081805081885165e-06,-6.478767901052507e-07,-0.19202729340649638,1.503231298416452e-05,-0.2830663636083267
744,0.7346,784.413,0.00232229,0.00153489,0.00115506,-0.00105831,-0.00524989,0.550768,-0.213454,-0.33312,1.00827e-06,-6.47934e-07,1.50293e-05,0.538826,0.7345846674731129,1.008270508195963e-06,-6.47933790065558e-07,-0.19221068239545536,1.502941294040383e-05,-0.2833158131070608
745,0.7356,784.622,0.00231791,0.00153194,0.00115262,-0.00105581,-0.0052471,0.551345,-0.213682,-0.333468,1.00837e-06,-6.47988e-07,1.50264e-05,0.539398,0.7355858116285576,1.0083705084262817e-06,-6.479877900922304e-07,-0.19239483736540486,1.5026512896865185e-05,-0.2835651758124722
746,0.7366,784.832,0.00231354,0.00152899,0.00115019,-0.00105331,-0.00524431,0.55192,-0.213909,-0.333816,1.00845e-06,-6.48038e-07,1.50234e-05,0.539969,0.7365840604392733,1.008450508432901e-06,-6.480377899853451e-07,-0.1925781429313541,1.5023512851763954e-05,-0.28381445175475983
747,0.7376,785.041,0.00230919,0.00152605,0.00114777,-0.00105082,-0.00524152,0.552496,-0.214135,-0.334164,1.00854e-06,-6.48085e-07,1.50205e-05,0.54054,0.7375846209918622,1.0085405086623922e-06,-6.48084789944825e-07,-0.19276059965266545,1.5020612808225309e-05,-0.28406364096411196
748,0.7386,785.249,0.00230484,0.00152311,0.00114535,-0.00104834,-0.00523873,0.553071,-0.214362,-0.334511,1.00862e-06,-6.48129e-07,1.50176e-05,0.541111,0.7385840194484532,1.0086205086690114e-06,-6.4812878997067e-07,-0.1929438221999984,1.5017712764686664e-05,-0.28431202778309195
749,0.7396,785.458,0.0023005,0.00152019,0.00114293,-0.00104586,-0.00523594,0.553647,-0.214589,-0.334859,1.00869e-06,-6.4817e-07,1.50146e-05,0.541682,0.739585732309264,1.0086905086748033e-06,-6.481697899518579e-07,-0.19312700316053344,1.5014712719585432e-05,-0.2845610438661119
750,0.7406,785.666,0.00229618,0.00151727,0.00114053,-0.00104339,-0.00523316,0.554221,-0.214815,-0.335206,1.00876e-06,-6.48207e-07,1.50117e-05,0.542252,0.7405845411503233,1.0087605089026397e-06,-6.482067899105104e-07,-0.19330933585344878,1.5011812676046787e-05,-0.28480925811622737
751,0.7416,785.874,0.00229187,0.00151436,0.00113813,-0.00104093,-0.00523037,0.554796,-0.215042,-0.335552,1.00883e-06,-6.4824e-07,1.50087e-05,0.542822,0.7415856650570247,1.0088305089084315e-06,-6.482397898466274e-07,-0.19349243385180104,1.50088126311676e-05,-0.28505667130796875
752,0.7426,786.081,0.00228757,0.00151146,0.00113573,-0.00103847,-0.00522758,0.55537,-0.215268,-0.335899,1.00889e-06,-6.48271e-07,1.50058e-05,0.543392,0.7425856221890095,1.008890508913396e-06,-6.482707898269879e-07,-0.19367468396671172,1.5005912587628956e-05,-0.2853047136051974
753,0.7436,786.289,0.00228327,0.00150856,0.00113334,-0.00103603,-0.00522479,0.555943,-0.215494,-0.336246,1.00895e-06,-6.48298e-07,1.50029e-05,0.543961,0.7435844098758684,1.0089505089183604e-06,-6.482977898958353e-07,-0.19385689289775054,1.500301254409031e-05,-0.2855526698466805
754,0.7446,786.496,0.00227899,0.00150568,0.00113096,-0.00103359,-0.005222,0.556517,-0.21572,-0.336592,1.00901e-06,-6.48322e-07,1.49999e-05,0.54453,0.7445855146167111,1.0090105091453694e-06,-6.483217898090032e-07,-0.19403906065422383,1.500001249898908e-05,-0.2857998258624571
755,0.7456,786.703,0.00227472,0.00150279,0.00112859,-0.00103115,-0.00521921,0.55709,-0.215946,-0.336938,1.00906e-06,-6.48343e-07,1.49969e-05,0.545098,0.7455854485703051,1.0090605091495064e-06,-6.483427897885363e-07,-0.1942211872454359,1.4997012454109893e-05,-0.28604689637704483
756,0.7466,786.909,0.00227046,0.00149992,0.00112622,-0.00102872,-0.00521642,0.557662,-0.216172,-0.337284,1.00911e-06,-6.48361e-07,1.4994e-05,0.545667,0.7465842090651573,1.0091105091536434e-06,-6.483607898344346e-07,-0.19440327268068924,1.4994112410571248e-05,-0.2862938814200219
757,0.7476,787.115,0.00226622,0.00149706,0.00112385,-0.0010263,-0.00521363,0.558235,-0.216398,-0.337629,1.00915e-06,-6.48375e-07,1.4991e-05,0.546235,0.7475852885988479,1.009150509156953e-06,-6.483747898577974e-07,-0.19458531696928405,1.4991112365692061e-05,-0.28654006756138073
758,0.7486,787.321,0.00226198,0.0014942,0.00112149,-0.00102389,-0.00521085,0.558807,-0.216623,-0.337975,1.00919e-06,-6.48386e-07,1.49881e-05,0.546802,0.7485851933294168,1.0091905091602626e-06,-6.483857898365031e-07,-0.19476651488743568,1.4988212322153416e-05,-0.2867868819966449
759,0.7496,787.527,0.00225775,0.00149135,0.00111914,-0.00102148,-0.00520806,0.559379,-0.216848,-0.33832,1.00922e-06,-6.48394e-07,1.49851e-05,0.54737,0.7495856701690988,1.0092205091627449e-06,-6.483937897705516e-07,-0.194947672040642,1.4985212277274229e-05,-0.28703289808214116
760,0.7506,787.732,0.00225353,0.0014885,0.0011168,-0.00101908,-0.00520527,0.55995,-0.217074,-0.338665,1.00926e-06,-6.48399e-07,1.49821e-05,0.547937,0.7505849688593904,1.009260509388099e-06,-6.483987897709653e-07,-0.19512959330888324,1.4982212232172998e-05,-0.2872788293067272
761,0.7516,787.938,0.00224933,0.00148567,0.00111446,-0.00101669,-0.00520248,0.560521,-0.217299,-0.33901,1.00929e-06,-6.48401e-07,1.49792e-05,0.548503,0.7515848383121715,1.0092905093905813e-06,-6.484007898377442e-07,-0.19531066877863446,1.4979312188856397e-05,-0.2875246756996751
762,0.7526,788.142,0.00224513,0.00148284,0.00111212,-0.0010143,-0.00519969,0.561092,-0.217524,-0.339355,1.00931e-06,-6.48399e-07,1.49762e-05,0.54907,0.7525852788534402,1.009310509392236e-06,-6.483987897709653e-07,-0.1954917035109881,1.4976312143755166e-05,-0.28777043729024676
763,0.7536,788.347,0.00224095,0.00148002,0.00110979,-0.00101192,-0.00519691,0.561662,-0.217749,-0.339699,1.00933e-06,-6.48395e-07,1.49732e-05,0.549636,0.7535845372239671,1.009330509393891e-06,-6.483947897484299e-07,-0.19567269751510907,1.497331209887598e-05,-0.2880154021234519
764,0.7546,788.551,0.00223678,0.0014772,0.00110747,-0.00100955,-0.00519412,0.562232,-0.217974,-0.340043,1.00935e-06,-6.48387e-07,1.49702e-05,0.550202,0.7545843653341258,1.0093505093955457e-06,-6.483867898143814e-07,-0.19585365080016026,1.4970312053996793e-05,-0.2882602827032469
765,0.7556,788.755,0.00223261,0.0014744,0.00110516,-0.00100718,-0.00519133,0.562802,-0.218198,-0.340387,1.00936e-06,-6.48376e-07,1.49672e-05,0.550767,0.7555847635087605,1.0093605093963731e-06,-6.483757898356757e-07,-0.19603375940946366,1.4967312009117606e-05,-0.2885050790586098
766,0.7566,788.959,0.00222846,0.0014716,0.00110285,-0.00100483,-0.00518854,0.563372,-0.218423,-0.340731,1.00937e-06,-6.48363e-07,1.49643e-05,0.551332,0.7565857320728999,1.0093705093972005e-06,-6.483627897901911e-07,-0.19621463146472728,1.4964411965801006e-05,-0.28874979121850897
767,0.7576,789.163,0.00222431,0.0014688,0.00110054,-0.00100247,-0.00518575,0.563941,-0.218647,-0.341075,1.00938e-06,-6.48346e-07,1.49613e-05,0.551897,0.7575855137653669,1.009380509398028e-06,-6.483457898331935e-07,-0.19639465922341748,1.4961411920699774e-05,-0.2889944192119026
768,0.7586,789.366,0.00222018,0.00146602,0.00109824,-0.00100013,-0.00518297,0.564509,-0.218871,-0.341418,1.00938e-06,-6.48326e-07,1.49583e-05,0.552461,0.7585841059105072,1.009380509398028e-06,-6.483257898315387e-07,-0.19657464666040592,1.4958411875820588e-05,-0.2892382523063466
769,0.7596,789.569,0.00221606,0.00146324,0.00109595,-0.000997786,-0.00518018,0.565078,-0.219095,-0.341761,1.00938e-06,-6.48303e-07,1.49553e-05,0.553025,0.7595850250012466,1.009380509398028e-06,-6.48302789896249e-07,-0.1967545937847236,1.4955411831163445e-05,-0.28948200178038097
770,0.7606,789.772,0.00221195,0.00146047,0.00109366,-0.000995453,-0.00517739,0.565646,-0.219319,-0.342104,1.00937e-06,-6.48277e-07,1.49523e-05,0.553589,0.7605847531913754,1.0093705093972005e-06,-6.482767899163022e-07,-0.19693450060539963,1.4952411786284259e-05,-0.2897256676626826
771,0.7616,789.974,0.00220785,0.00145771,0.00109138,-0.000993127,-0.00517461,0.566214,-0.219543,-0.342447,1.00936e-06,-6.48248e-07,1.49493e-05,0.554153,0.7615850493884146,1.0093605093963731e-06,-6.482477898916983e-07,-0.19711436713146102,1.4949411741405072e-05,-0.2899692499819184
772,0.7626,790.177,0.00220376,0.00145495,0.00108911,-0.000990807,-0.00517182,0.566781,-0.219767,-0.34279,1.00935e-06,-6.48217e-07,1.49463e-05,0.554716,0.7625841513300518,1.0093505093955457e-06,-6.482167899113378e-07,-0.19729419337193277,1.4946411696525885e-05,-0.29021274876674574
773,0.7636,790.379,0.00219967,0.0014522,0.00108684,-0.000988494,-0.00516904,0.567349,-0.219991,-0.343132,1.00933e-06,-6.48182e-07,1.49433e-05,0.555279,0.7635855835078218,1.009330509393891e-06,-6.481817899084419e-07,-0.19747397933583777,1.4943411651646699e-05,-0.29045545450162125
774,0.7646,790.58,0.0021956,0.00144945,0.00108457,-0.000986187,-0.00516625,0.567915,-0.220214,-0.343475,1.00931e-06,-6.48144e-07,1.49403e-05,0.555841,0.7645840554890024,1.009310509392236e-06,-6.481437899719111e-07,-0.19765292268552082,1.4940411606767512e-05,-0.29069878654689574
775,0.7656,790.782,0.00219154,0.00144672,0.00108232,-0.000983887,-0.00516346,0.568482,-0.220438,-0.343817,1.00929e-06,-6.48103e-07,1.49373e-05,0.556403,0.7655848583492635,1.0092905093905813e-06,-6.481027899907232e-07,-0.1978326283030587,1.493741156211037e-05,-0.29094132608527157
776,0.7666,790.983,0.00218749,0.00144399,0.00108006,-0.000981593,-0.00516068,0.569048,-0.220661,-0.344159,1.00926e-06,-6.4806e-07,1.49343e-05,0.556965,0.7665844622403044,1.009260509388099e-06,-6.480597900537788e-07,-0.19801149168293897,1.4934411517231183e-05,-0.2911837826893079
777,0.7676,791.184,0.00218345,0.00144127,0.00107782,-0.000979306,-0.00515789,0.569614,-0.220884,-0.3445,1.00923e-06,-6.48013e-07,1.49313e-05,0.557527,0.7675846320672925,1.0092305091635723e-06,-6.480127900942989e-07,-0.1981903151807326,1.4931411472351996e-05,-0.2914254478131655
778,0.7686,791.385,0.00217942,0.00143855,0.00107558,-0.000977025,-0.00515511,0.57018,-0.221107,-0.344842,1.0092e-06,-6.47964e-07,1.49282e-05,0.558088,0.7685853681506383,1.00920050916109e-06,-6.479637900680402e-07,-0.19836909880533227,1.4928311426132268e-05,-0.29166773887588004
779,0.7696,791.585,0.0021754,0.00143584,0.00107334,-0.000974751,-0.00515233,0.570745,-0.22133,-0.345183,1.00916e-06,-6.47912e-07,1.49252e-05,0.558649,0.7695849012251472,1.0091605091577804e-06,-6.479117901081466e-07,-0.19854784256562874,1.4925311381253081e-05,-0.29190923899881227
780,0.7706,791.785,0.00217139,0.00143314,0.00107111,-0.000972483,-0.00514954,0.57131,-0.221553,-0.345524,1.00912e-06,-6.47856e-07,1.49222e-05,0.55921,0.7705849991954115,1.0091205091544708e-06,-6.478557901257176e-07,-0.19872654647051058,1.492231133659594e-05,-0.2921506567842419
781,0.7716,791.985,0.00216739,0.00143045,0.00106889,-0.000970221,-0.00514676,0.571875,-0.221776,-0.345865,1.00908e-06,-6.47799e-07,1.49192e-05,0.55977,0.7715856623806869,1.0090805091511612e-06,-6.477987901654103e-07,-0.19890521052886478,1.4919311291716753e-05,-0.29239199226024126
782,0.7726,792.185,0.0021634,0.00142776,0.00106667,-0.000967966,-0.00514398,0.572439,-0.221998,-0.346206,1.00903e-06,-6.47738e-07,1.49162e-05,0.56033,0.7725851185144059,1.0090305091470242e-06,-6.477377901825676e-07,-0.1990830338330103,1.491631124705961e-05,-0.2926332454548731
783,0.7736,792.384,0.00215941,0.00142508,0.00106445,-0.000965717,-0.00514119,0.573003,-0.222221,-0.346546,1.00898e-06,-6.47674e-07,1.49131e-05,0.56089,0.7735851385003754,1.0089805089208426e-06,-6.476737902660901e-07,-0.19926161840354584,1.4913211200839882e-05,-0.29287370927025336
784,0.7746,792.584,0.00215544,0.0014224,0.00106225,-0.000963475,-0.00513841,0.573567,-0.222443,-0.346887,1.00892e-06,-6.47608e-07,1.49101e-05,0.561449,0.7745857226566983,1.0089205089158781e-06,-6.476077902828337e-07,-0.19943936259392514,1.491021115618274e-05,-0.29311479822738884
785,0.7756,792.782,0.00215148,0.00141974,0.00106005,-0.000961239,-0.00513563,0.57413,-0.222665,-0.347227,1.00886e-06,-6.47538e-07,1.49071e-05,0.562008,0.7755850957156725,1.0088605089109137e-06,-6.475377903880641e-07,-0.19961706732947382,1.4907211111303553e-05,-0.29335509834265705
786,0.7766,792.981,0.00214753,0.00141708,0.00105785,-0.000959009,-0.00513285,0.574693,-0.222887,-0.347567,1.0088e-06,-6.47466e-07,1.49041e-05,0.562567,0.776585031580094,1.0088005089059493e-06,-6.474657904265158e-07,-0.19979473261894987,1.4904211066646411e-05,-0.2935953167697738
787,0.7776,793.18,0.00214359,0.00141442,0.00105566,-0.000956786,-0.00513007,0.575256,-0.223109,-0.347906,1.00874e-06,-6.47392e-07,1.4901e-05,0.563125,0.777585530566911,1.0087405086789403e-06,-6.473917903981885e-07,-0.1999723584711094,1.4901111020426683e-05,-0.29383474737160886
788,0.7786,793.378,0.00213966,0.00141177,0.00105347,-0.000954569,-0.00512728,0.575818,-0.223331,-0.348246,1.00867e-06,-6.47314e-07,1.4898e-05,0.563684,0.7785848144075473,1.0086705086731484e-06,-6.473137904583481e-07,-0.2001499448947064,1.489811097576954e-05,-0.29407480274577635
789,0.7796,793.576,0.00213573,0.00140913,0.00105129,-0.000952358,-0.0051245,0.57638,-0.223552,-0.348585,1.0086e-06,-6.47234e-07,1.48949e-05,0.564241,0.7795846600035405,1.0086005086673566e-06,-6.472337905627512e-07,-0.2003266922255853,1.4895010929549812e-05,-0.29431407082941397
790,0.7806,793.773,0.00213182,0.0014065,0.00104912,-0.000950154,-0.00512172,0.576942,-0.223774,-0.348924,1.00852e-06,-6.47151e-07,1.48919e-05,0.564799,0.7805850676706858,1.0085205086607374e-06,-6.471507906224971e-07,-0.2005041999958197,1.489201088489267e-05,-0.29455325781491815
791,0.7816,793.971,0.00212792,0.00140387,0.00104695,-0.000947955,-0.00511894,0.577503,-0.223995,-0.349263,1.00844e-06,-6.47065e-07,1.48889e-05,0.565356,0.7815842561398094,1.0084405084320736e-06,-6.470647906375859e-07,-0.20068086904497162,1.4889010840235528e-05,-0.29479236372977646
792,0.7826,794.168,0.00212402,0.00140125,0.00104479,-0.000945763,-0.00511617,0.578065,-0.224217,-0.349602,1.00836e-06,-6.46977e-07,1.48858e-05,0.565913,0.7825857878958229,1.0083605084254543e-06,-6.469767906969182e-07,-0.2008582981966791,1.48859107940158e-05,-0.29503138860146727
793,0.7836,794.365,0.00212014,0.00139864,0.00104263,-0.000943577,-0.00511339,0.578625,-0.224438,-0.349941,1.00828e-06,-6.46886e-07,1.48828e-05,0.56647,0.7835843154986781,1.008280508418835e-06,-6.468857908226155e-07,-0.2010348889987752,1.4882910749358658e-05,-0.2952703324574594
794,0.7846,794.561,0.00211626,0.00139603,0.00104048,-0.000941398,-0.00511061,0.579186,-0.224659,-0.350279,1.00819e-06,-6.46792e-07,1.48797e-05,0.567026,0.7845851870178846,1.0081905081893439e-06,-6.467917907926335e-07,-0.2012114407786162,1.4879810703360974e-05,-0.29550849083405584
795,0.7856,794.758,0.0021124,0.00139343,0.00103833,-0.000939224,-0.00510783,0.579746,-0.22488,-0.350617,1.0081e-06,-6.46696e-07,1.48767e-05,0.567582,0.7855848345978129,1.0081005081818972e-06,-6.466957909179172e-07,-0.20138795354482508,1.4876810658703832e-05,-0.29574656872672345
796,0.7866,794.954,0.00210854,0.00139083,0.00103619,-0.000937057,-0.00510505,0.580306,-0.225101,-0.350955,1.008e-06,-6.46597e-07,1.48736e-05,0.568137,0.7865850421371599,1.0080005079515786e-06,-6.465967909985437e-07,-0.20156442730602275,1.4873710612484103e-05,-0.29598456616266133
797,0.7876,795.15,0.0021047,0.00138824,0.00103405,-0.000934895,-0.00510228,0.580866,-0.225322,-0.351293,1.0079e-06,-6.46495e-07,1.48706e-05,0.568693,0.7875858099495907,1.0079005079433045e-06,-6.464947910345131e-07,-0.20174086207082853,1.4870710567826961e-05,-0.2962224831690592
798,0.7886,795.346,0.00210086,0.00138566,0.00103192,-0.00093274,-0.0050995,0.581425,-0.225542,-0.351631,1.0078e-06,-6.46391e-07,1.48675e-05,0.569248,0.7885853497627022,1.0078005079350305e-06,-6.46390791114726e-07,-0.2019164597647184,1.4867610521829278e-05,-0.2964603197730977
799,0.7896,795.541,0.00209703,0.00138309,0.00102979,-0.000930591,-0.00509673,0.581984,-0.225763,-0.351968,1.0077e-06,-6.46284e-07,1.48645e-05,0.569803,0.7895854484747669,1.0077005077047119e-06,-6.462837911502817e-07,-0.20209281673894697,1.4864610477172135e-05,-0.29669737269967256
800,0.7906,795.736,0.00209322,0.00138052,0.00102767,-0.000928448,-0.00509395,0.582542,-0.225983,-0.352305,1.00759e-06,-6.46174e-07,1.48614e-05,0.570357,0.7905843158130856,1.0075905076956104e-06,-6.461737912522025e-07,-0.20226833701132652,1.4861510431174452e-05,-0.2969343457528706
801,0.7916,795.931,0.00208941,0.00137796,0.00102556,-0.000926311,-0.00509118,0.583101,-0.226203,-0.352642,1.00748e-06,-6.46062e-07,1.48583e-05,0.570911,0.7915855322595502,1.0074805074644644e-06,-6.460617912873445e-07,-0.20244381867349337,1.4858410385176768e-05,-0.2971712389596045
802,0.7926,796.126,0.00208561,0.0013754,0.00102345,-0.000924181,-0.0050884,0.583659,-0.226423,-0.352979,1.00736e-06,-6.45948e-07,1.48553e-05,0.571465,0.792585515956056,1.0073605074545355e-06,-6.4594779136673e-07,-0.20261926173394096,1.4855410340519626e-05,-0.29740805234677814
803,0.7936,796.32,0.00208182,0.00137285,0.00102134,-0.000922056,-0.00508563,0.584216,-0.226643,-0.353316,1.00725e-06,-6.45831e-07,1.48522e-05,0.572018,0.7935842642140114,1.0072505072233895e-06,-6.458307914014583e-07,-0.2027946662011606,1.4852310294521942e-05,-0.2976447859412862
804,0.7946,796.514,0.00207804,0.00137031,0.00101924,-0.000919937,-0.00508286,0.584774,-0.226863,-0.353652,1.00713e-06,-6.45711e-07,1.48492e-05,0.572571,0.7945853635141722,1.0071305072134606e-06,-6.457107915025517e-07,-0.20297003208364195,1.48493102498648e-05,-0.2978807376511029
805,0.7956,796.708,0.00207427,0.00136777,0.00101715,-0.000917824,-0.00508008,0.585331,-0.227083,-0.353988,1.007e-06,-6.45589e-07,1.48461e-05,0.573124,0.7955852259975007,1.0070005069806598e-06,-6.455887916478886e-07,-0.20314535938987277,1.4846210203867116e-05,-0.29811661009446255
806,0.7966,796.902,0.0020705,0.00136524,0.00101506,-0.000915717,-0.00507731,0.585888,-0.227303,-0.354325,1.00688e-06,-6.45464e-07,1.4843e-05,0.573677,0.7965856455593643,1.006880506970731e-06,-6.454637916375461e-07,-0.20332064812833872,1.4843110157869432e-05,-0.29835310494524014
807,0.7976,797.096,0.00206675,0.00136272,0.00101297,-0.000913616,-0.00507454,0.586444,-0.227522,-0.35466,1.00675e-06,-6.45337e-07,1.48399e-05,0.574229,0.7975848249244184,1.00675050673793e-06,-6.453367917824693e-07,-0.203495101803024,1.4840010111871749e-05,-0.29858811728831813
808,0.7986,797.289,0.00206301,0.0013602,0.0010109,-0.000911521,-0.00507177,0.587,-0.227742,-0.354996,1.00661e-06,-6.45207e-07,1.48369e-05,0.574781,0.7985845599876695,1.0066105067263464e-06,-6.452067918827353e-07,-0.20367031360662224,1.4837010067436651e-05,-0.29882375209204537
809,0.7996,797.482,0.00205927,0.00135769,0.00100882,-0.000909432,-0.005069,0.587556,-0.227961,-0.355332,1.00648e-06,-6.45075e-07,1.48338e-05,0.575333,0.7995848510581713,1.0064805064935456e-06,-6.450747919162225e-07,-0.2038446907129523,1.4833910021438967e-05,-0.29905930773577816
810,0.8006,797.675,0.00205555,0.00135518,0.00100675,-0.000907349,-0.00506623,0.588112,-0.22818,-0.355667,1.00634e-06,-6.4494e-07,1.48307e-05,0.575884,0.8005856984451503,1.0063405062599173e-06,-6.449397920160749e-07,-0.2040190296348774,1.4830809975441284e-05,-0.29929408354054376
811,0.8016,797.867,0.00205183,0.00135268,0.00100469,-0.000905272,-0.00506346,0.588667,-0.228399,-0.356002,1.0062e-06,-6.44803e-07,1.48276e-05,0.576435,0.8015853008718024,1.0062005062483337e-06,-6.448027921601707e-07,-0.20419333038075904,1.48277099294436e-05,-0.29952878070858713
812,0.8026,798.06,0.00204812,0.00135019,0.00100263,-0.000903201,-0.00506069,0.589222,-0.228618,-0.356337,1.00605e-06,-6.44664e-07,1.48246e-05,0.576986,0.8025854582317806,1.006050506013878e-06,-6.446637922374876e-07,-0.2043675929589569,1.4824709885008502e-05,-0.2997633992662472
813,0.8036,798.252,0.00204442,0.0013477,0.00100058,-0.000901135,-0.00505793,0.589776,-0.228837,-0.356672,1.0059e-06,-6.44522e-07,1.48215e-05,0.577536,0.80358436724789,1.005900506001467e-06,-6.445217922701474e-07,-0.20454181737782873,1.4821609839010819e-05,-0.29999793923985396
814,0.8046,798.443,0.00204073,0.00134522,0.000998529,-0.000899076,-0.00505516,0.590331,-0.229056,-0.357006,1.00575e-06,-6.44377e-07,1.48184e-05,0.578086,0.8045856343976456,1.0057505057670113e-06,-6.443767923691723e-07,-0.2047160036457305,1.4818509793013135e-05,-0.3002317008877795
815,0.8056,798.635,0.00203705,0.00134275,0.000996485,-0.000897022,-0.00505239,0.590885,-0.229274,-0.357341,1.0056e-06,-6.44231e-07,1.48153e-05,0.578636,0.8055856518183504,1.0056005055325556e-06,-6.44230792490319e-07,-0.20488935666077046,1.4815409747015451e-05,-0.3004660840066178
816,0.8066,798.826,0.00203338,0.00134028,0.000994447,-0.000894974,-0.00504963,0.591438,-0.229493,-0.357675,1.00544e-06,-6.44081e-07,1.48122e-05,0.579186,0.8065844168168756,1.0054405055193172e-06,-6.440807925889303e-07,-0.20506346682590282,1.4812309701239812e-05,-0.30069968932030045
817,0.8076,799.017,0.00202972,0.00133782,0.000992413,-0.000892932,-0.00504686,0.591992,-0.229711,-0.358009,1.00528e-06,-6.4393e-07,1.48092e-05,0.579735,0.8075855418698266,1.0052805052840341e-06,-6.439297927096632e-07,-0.20523674410222548,1.4809309656804714e-05,-0.300933216622837
818,0.8086,799.208,0.00202606,0.00133536,0.000990385,-0.000890895,-0.0050441,0.592545,-0.229929,-0.358343,1.00512e-06,-6.43776e-07,1.48061e-05,0.580284,0.8085854131133987,1.005120505048751e-06,-6.43775792785739e-07,-0.20540998360821894,1.480620961080703e-05,-0.30116666594027874
819,0.8096,799.399,0.00202242,0.00133291,0.000988361,-0.000888864,-0.00504134,0.593098,-0.230147,-0.358676,1.00495e-06,-6.4362e-07,1.4803e-05,0.580833,0.8095858374386815,1.0049505050346852e-06,-6.436197929060583e-07,-0.20558318535211628,1.4803109565031392e-05,-0.30139933869835633
820,0.8106,799.589,0.00201878,0.00133047,0.000986343,-0.000886839,-0.00503857,0.59365,-0.230365,-0.35901,1.00478e-06,-6.43461e-07,1.47999e-05,0.581381,0.8105850045657039,1.0047805047985747e-06,-6.434607929817204e-07,-0.20575634934214881,1.4800009519033708e-05,-0.3016326323570213
821,0.8116,799.78,0.00201515,0.00132803,0.000984329,-0.00088482,-0.00503581,0.594202,-0.230583,-0.359343,1.00461e-06,-6.433e-07,1.47968e-05,0.581929,0.8115847233852334,1.0046105045624643e-06,-6.43299793101626e-07,-0.20592947558654595,1.4796909473258069e-05,-0.3018651499741146
822,0.8126,799.97,0.00201153,0.0013256,0.000982321,-0.000882807,-0.00503305,0.594754,-0.230801,-0.359676,1.00444e-06,-6.43137e-07,1.47937e-05,0.582477,0.8125849942018886,1.0044405045483984e-06,-6.431367931547527e-07,-0.20610256409353533,1.4793809427260385e-05,-0.3020975901757317
823,0.8136,800.159,0.00200792,0.00132317,0.000980317,-0.000880799,-0.00503029,0.595306,-0.231019,-0.360009,1.00426e-06,-6.42971e-07,1.47906e-05,0.583024,0.8135858173204558,1.0042605043114605e-06,-6.429707932742446e-07,-0.20627561487134283,1.4790709381484746e-05,-0.30232995298764775
824,0.8146,800.349,0.00200432,0.00132075,0.000978318,-0.000878797,-0.00502753,0.595857,-0.231236,-0.360342,1.00408e-06,-6.42804e-07,1.47875e-05,0.583571,0.8145853784596042,1.0040805040745227e-06,-6.428037934158581e-07,-0.20644783437642367,1.4787609335709107e-05,-0.30256223843562935
825,0.8156,800.538,0.00200073,0.00131834,0.000976324,-0.0008768,-0.00502477,0.596408,-0.231454,-0.360674,1.0039e-06,-6.42633e-07,1.47844e-05,0.584118,0.8155854905087021,1.0039005038375848e-06,-6.426327935349363e-07,-0.20662080989351317,1.4784509289711423e-05,-0.30279374933953207
826,0.8166,800.727,0.00199714,0.00131593,0.000974335,-0.000874809,-0.00502201,0.596958,-0.231671,-0.361007,1.00371e-06,-6.42461e-07,1.47813e-05,0.584665,0.816584337186139,1.0037105038218641e-06,-6.424607936761362e-07,-0.20679295449940105,1.4781409243935784e-05,-0.30302588036904055
827,0.8176,800.916,0.00199357,0.00131353,0.000972351,-0.000872824,-0.00501926,0.597509,-0.231888,-0.361339,1.00352e-06,-6.42286e-07,1.47782e-05,0.585211,0.8175855509649936,1.0035205035840988e-06,-6.422857937726789e-07,-0.20696506175396223,1.4778309198160144e-05,-0.30325723736937094
828,0.8186,801.104,0.00199,0.00131113,0.000970371,-0.000870844,-0.0050165,0.598059,-0.232105,-0.361671,1.00333e-06,-6.4211e-07,1.47751e-05,0.585757,0.8185854979782461,1.0033305033463336e-06,-6.421097938913434e-07,-0.207137131665301,1.4775209152384505e-05,-0.3034885175719263
829,0.8196,801.293,0.00198644,0.00130874,0.000968396,-0.00086887,-0.00501374,0.598608,-0.232322,-0.362003,1.00313e-06,-6.41931e-07,1.4772e-05,0.586302,0.8195841755285402,1.0031305031077409e-06,-6.419307939653507e-07,-0.20730916424152002,1.4772109106608866e-05,-0.30371972100219935
830,0.8206,801.481,0.00198289,0.00130635,0.000966427,-0.000866902,-0.00501099,0.599158,-0.232539,-0.362334,1.00294e-06,-6.41749e-07,1.47689e-05,0.586848,0.82058522208765,1.0029405028699756e-06,-6.417487941057232e-07,-0.2074811594907202,1.4769009060833227e-05,-0.3039501516361738
831,0.8216,801.669,0.00197935,0.00130397,0.000964462,-0.000864939,-0.00500824,0.599707,-0.232756,-0.362666,1.00274e-06,-6.41566e-07,1.47658e-05,0.587393,0.8215849977878946,1.0027405028534275e-06,-6.415657941571951e-07,-0.20765311742100045,1.4765909015057588e-05,-0.30418120182937625
832,0.8226,801.856,0.00197582,0.0013016,0.000962501,-0.000862982,-0.00500548,0.600256,-0.232972,-0.362997,1.00253e-06,-6.4138e-07,1.47627e-05,0.587937,0.8225853225156932,1.0025305026140074e-06,-6.413797942750321e-07,-0.20782424586510018,1.4762808969281949e-05,-0.30441147973847427
833,0.8236,802.044,0.00197229,0.00129923,0.000960546,-0.00086103,-0.00500273,0.600804,-0.233189,-0.363328,1.00233e-06,-6.41192e-07,1.47596e-05,0.588482,0.8235843729872594,1.0023305023754148e-06,-6.411917944371126e-07,-0.20799612935371448,1.475970892350631e-05,-0.3046416814381978
834,0.8246,802.231,0.00196878,0.00129687,0.000958595,-0.000859083,-0.00499998,0.601353,-0.233405,-0.363659,1.00212e-06,-6.41002e-07,1.47565e-05,0.589026,0.8245857956734044,1.0021205021359947e-06,-6.410017945324142e-07,-0.208167183715238,1.475660887773067e-05,-0.3048718069537679
835,0.8256,802.418,0.00196527,0.00129452,0.000956649,-0.000857143,-0.00499723,0.6019,-0.233621,-0.363989,1.00191e-06,-6.4081e-07,1.47534e-05,0.58957,0.825584117119661,1.0019105018965746e-06,-6.408097946719593e-07,-0.2083382011330095,1.4753508831955031e-05,-0.30510116141190613
836,0.8266,802.605,0.00196177,0.00129217,0.000954707,-0.000855207,-0.00499448,0.602448,-0.233837,-0.36432,1.00169e-06,-6.40615e-07,1.47503e-05,0.590113,0.8265848113810275,1.0016905016563271e-06,-6.406147947668472e-07,-0.20850918161500787,1.4750408786179392e-05,-0.3053311348647727
837,0.8276,802.791,0.00195828,0.00128982,0.00095277,-0.000853277,-0.00499173,0.602995,-0.234053,-0.36465,1.00148e-06,-6.40419e-07,1.47472e-05,0.590657,0.8275842265879922,1.001480501416907e-06,-6.404187948838569e-07,-0.20868012516921064,1.4747308740403753e-05,-0.3055603377697079
838,0.8286,802.978,0.0019548,0.00128749,0.000950838,-0.000851353,-0.00498898,0.603542,-0.234269,-0.36498,1.00126e-06,-6.4022e-07,1.47441e-05,0.5912,0.8285841886246199,1.0012605011766595e-06,-6.402197950672317e-07,-0.208851031803593,1.4744208694850158e-05,-0.30578946505016336
839,0.8296,803.164,0.00195132,0.00128515,0.000948911,-0.000849434,-0.00498623,0.604089,-0.234485,-0.36531,1.00104e-06,-6.40019e-07,1.47409e-05,0.591742,0.8295846977901076,1.001040500936412e-06,-6.400187951838276e-07,-0.2090219015261291,1.4741008647511933e-05,-0.3060185167310908
840,0.8306,803.349,0.00194786,0.00128283,0.000946988,-0.00084752,-0.00498348,0.604636,-0.234701,-0.36564,1.00081e-06,-6.39816e-07,1.47378e-05,0.592285,0.8305857543838167,1.0008105009173818e-06,-6.39815795344667e-07,-0.2091927343447908,1.4737908601958338e-05,-0.306247492837434
841,0.8316,803.535,0.0019444,0.0012805,0.00094507,-0.000845612,-0.00498074,0.605182,-0.234916,-0.36597,1.00059e-06,-6.39611e-07,1.47347e-05,0.592827,0.8315855271188295,1.0005905006771343e-06,-6.396107954387276e-07,-0.20936273963068364,1.4734808556182699e-05,-0.3064763933941286
842,0.8326,803.721,0.00194095,0.00127819,0.000943156,-0.000843709,-0.00497799,0.605727,-0.235132,-0.366299,1.00036e-06,-6.39404e-07,1.47316e-05,0.593368,0.8325840132938775,1.0003605004360594e-06,-6.394037955770315e-07,-0.20953349883626526,1.4731708510629105e-05,-0.30670452513097335
843,0.8336,803.906,0.00193751,0.00127588,0.000941247,-0.000841812,-0.00497525,0.606273,-0.235347,-0.366628,1.00012e-06,-6.39195e-07,1.47285e-05,0.59391,0.8335848773761658,1.000120500194157e-06,-6.391947957595789e-07,-0.20970343086566767,1.4728608464853465e-05,-0.3069325818248221
844,0.8346,804.091,0.00193407,0.00127357,0.000939343,-0.00083992,-0.00497251,0.606818,-0.235562,-0.366957,9.99887e-07,-6.38984e-07,1.47254e-05,0.594451,0.8345844534940865,9.99887499908425e-07,-6.389837958753475e-07,-0.2098733263636111,1.4725508419299871e-05,-0.3071605635003597
845,0.8356,804.275,0.00193065,0.00127127,0.000937443,-0.000838033,-0.00496976,0.607363,-0.235777,-0.367286,9.9965e-07,-6.3877e-07,1.47222e-05,0.594992,0.8355845745294677,9.9965049971118e-07,-6.387697959464589e-07,-0.21004318533794886,1.472230837218369e-05,-0.3073884701822631
846,0.8366,804.46,0.00192723,0.00126898,0.000935548,-0.000836151,-0.00496702,0.607908,-0.235992,-0.367615,9.99409e-07,-6.38555e-07,1.47191e-05,0.595532,0.8365852407793708,9.99409499380377e-07,-6.385547961507143e-07,-0.21021300779653274,1.4719208326408051e-05,-0.3076163018952014
847,0.8376,804.644,0.00192382,0.00126669,0.000933657,-0.000834275,-0.00496428,0.608452,-0.236207,-0.367943,9.99166e-07,-6.38338e-07,1.4716e-05,0.596073,0.8375846149554849,9.991664990938176e-07,-6.383377962881909e-07,-0.2103827937472128,1.4716108280854456e-05,-0.3078433665075476
848,0.8386,804.828,0.00192042,0.00126441,0.000931771,-0.000832404,-0.00496154,0.608996,-0.236422,-0.368272,9.98921e-07,-6.38118e-07,1.47129e-05,0.596613,0.8385845329390529,9.989214988515016e-07,-6.381177963810103e-07,-0.21055254319783723,1.4713008235300862e-05,-0.3080710485842113
849,0.8396,805.012,0.00191703,0.00126213,0.000929889,-0.000830539,-0.0049588,0.60954,-0.236637,-0.3686,9.98673e-07,-6.37897e-07,1.47098e-05,0.597153,0.8395849950259866,9.986734985645285e-07,-6.378967964959514e-07,-0.21072225615625295,1.4709908189747267e-05,-0.3082979640641026
850,0.8406,805.196,0.00191364,0.00125986,0.000928012,-0.000828678,-0.00495607,0.610083,-0.236851,-0.368928,9.98422e-07,-6.37673e-07,1.47066e-05,0.597692,0.8405841609272777,9.984224984549428e-07,-6.376727966772577e-07,-0.2108911435218429,1.4706708142631086e-05,-0.30852480512792135
851,0.8416,805.379,0.00191027,0.0012576,0.000926139,-0.000826823,-0.00495333,0.610627,-0.237066,-0.369255,9.98169e-07,-6.37448e-07,1.47035e-05,0.598231,0.8415857111077718,9.98169498167556e-07,-6.374477968806858e-07,-0.21106078368901426,1.4703608097077492e-05,-0.3087508805512983
852,0.8426,805.562,0.0019069,0.00125534,0.000924271,-0.000824973,-0.00495059,0.611169,-0.23728,-0.369583,9.97913e-07,-6.37221e-07,1.47004e-05,0.59877,0.8425841211078606,9.97913497835512e-07,-6.372207970173349e-07,-0.21122959861746315,1.4700508051301853e-05,-0.30897757308287
853,0.8436,805.746,0.00190354,0.00125308,0.000922407,-0.000823129,-0.00494786,0.611712,-0.237494,-0.36991,9.97655e-07,-6.36991e-07,1.46973e-05,0.599308,0.8435849159768389,9.976554975477114e-07,-6.369907971093269e-07,-0.21139837742338274,1.4697408005748258e-05,-0.3092035004753301
854,0.8446,805.928,0.00190019,0.00125083,0.000920548,-0.000821289,-0.00494512,0.612254,-0.237708,-0.370238,9.97394e-07,-6.3676e-07,1.46941e-05,0.599847,0.8445844098396671,9.973944974372984e-07,-6.367597972234407e-07,-0.21156712011450218,1.4694207958854122e-05,-0.30943004457191126
855,0.8456,806.111,0.00189684,0.00124859,0.000918693,-0.000819455,-0.00494239,0.612796,-0.237922,-0.370565,9.97131e-07,-6.36527e-07,1.4691e-05,0.600385,0.8455844455750035,9.971314971490841e-07,-6.365267973817978e-07,-0.2117358266985493,1.4691107913300527e-05,-0.30965582403038283
856,0.8466,806.293,0.0018935,0.00124635,0.000916842,-0.000817626,-0.00493966,0.613338,-0.238136,-0.370891,9.96865e-07,-6.36291e-07,1.46879e-05,0.600922,0.8465850234766219,9.968654968162127e-07,-6.362907976065202e-07,-0.21190449718325022,1.4688007867746933e-05,-0.3098808395522261
857,0.8476,806.475,0.00189017,0.00124412,0.000914996,-0.000815802,-0.00493693,0.613879,-0.23835,-0.371218,9.96597e-07,-6.36054e-07,1.46847e-05,0.60146,0.8475842962532365,9.965974965275848e-07,-6.360537977423419e-07,-0.21207313157632945,1.4684807820630752e-05,-0.31010647162483806
858,0.8486,806.657,0.00188685,0.00124189,0.000913154,-0.000813983,-0.0049342,0.61442,-0.238563,-0.371545,9.96326e-07,-6.35815e-07,1.46816e-05,0.601997,0.8485841097826836,9.963264964163443e-07,-6.358147979224071e-07,-0.21224094212684563,1.4681707775299202e-05,-0.3103320299278244
859,0.8496,806.839,0.00188354,0.00123967,0.000911316,-0.000812169,-0.00493147,0.614961,-0.238777,-0.371871,9.96053e-07,-6.35574e-07,1.46785e-05,0.602534,0.8495844643575898,9.960534961273027e-07,-6.355737980356935e-07,-0.21240950452841023,1.4678607729745607e-05,-0.3105568250424733
860,0.8506,807.021,0.00188023,0.00123745,0.000909483,-0.00081036,-0.00492874,0.615502,-0.23899,-0.372197,9.95777e-07,-6.35332e-07,1.46754e-05,0.60307,0.8505853602707398,9.957774957936039e-07,-6.353317981711015e-07,-0.21257724343911744,1.4675507684192013e-05,-0.3107815468858588
861,0.8516,807.202,0.00187694,0.00123524,0.000907654,-0.000808557,-0.00492601,0.616042,-0.239203,-0.372523,9.95499e-07,-6.35087e-07,1.46722e-05,0.603606,0.8515849462292049,9.954994955041485e-07,-6.350867983728747e-07,-0.21274494662524157,1.4672307637297877e-05,-0.31100619548186326
862,0.8526,807.383,0.00187365,0.00123303,0.00090583,-0.000806758,-0.00492329,0.616582,-0.239417,-0.372849,9.95219e-07,-6.3484e-07,1.46691e-05,0.604142,0.8525850721098533,9.952194952589366e-07,-6.348397985078691e-07,-0.21291340118138335,1.4669207591744282e-05,-0.31123077085436157
863,0.8536,807.564,0.00187036,0.00123083,0.00090401,-0.000804965,-0.00492056,0.617122,-0.23963,-0.373175,9.94936e-07,-6.34592e-07,1.4666e-05,0.604678,0.8535857382043219,9.949364949690676e-07,-6.345917986649852e-07,-0.2130810327735334,1.4666107546412732e-05,-0.31145527302722065
864,0.8546,807.744,0.00186709,0.00122864,0.000902194,-0.000803176,-0.00491784,0.617661,-0.239843,-0.3735,9.94651e-07,-6.34341e-07,1.46628e-05,0.605213,0.8545850902183876,9.94651494723442e-07,-6.343407987774441e-07,-0.21324862866395666,1.4662907499296551e-05,-0.31167901370365747
865,0.8556,807.925,0.00186382,0.00122645,0.000900382,-0.000801393,-0.00491511,0.6182,-0.240056,-0.373825,9.94363e-07,-6.34089e-07,1.46597e-05,0.605749,0.8555849810283811,9.943634944331592e-07,-6.340887989120247e-07,-0.21341618886025682,1.4659807453965001e-05,-0.3119026816761895
866,0.8566,808.105,0.00186056,0.00122426,0.000898575,-0.000799615,-0.00491239,0.618739,-0.240268,-0.37415,9.94073e-07,-6.33835e-07,1.46566e-05,0.606283,0.8565854109247921,9.940734941871199e-07,-6.338347990908488e-07,-0.21358292695335612,1.4656707408411407e-05,-0.31212627696844164
867,0.8576,808.285,0.00185731,0.00122208,0.000896771,-0.000797841,-0.00490967,0.619277,-0.240481,-0.374475,9.9378e-07,-6.33579e-07,1.46534e-05,0.606818,0.8575845226128147,9.937804938964234e-07,-6.335787993139164e-07,-0.21375041595170352,1.465350736151727e-05,-0.3123497996040312
868,0.8586,808.465,0.00185407,0.0012199,0.000894973,-0.000796073,-0.00490695,0.619815,-0.240693,-0.3748,9.93486e-07,-6.33322e-07,1.46503e-05,0.607352,0.8585841719675451,9.934864935168264e-07,-6.333217994480833e-07,-0.21391708319616964,1.465040731618572e-05,-0.3125732496065676
869,0.8596,808.644,0.00185083,0.00121774,0.000893178,-0.000794309,-0.00490423,0.620353,-0.240906,-0.375124,9.93189e-07,-6.33062e-07,1.46471e-05,0.607886,0.8595843592783254,9.931894933146168e-07,-6.330617996486154e-07,-0.21408450102681686,1.4647207269291584e-05,-0.31279593979593634
870,0.8606,808.824,0.0018476,0.00121557,0.000891387,-0.000792551,-0.00490151,0.620891,-0.241118,-0.375449,9.92889e-07,-6.32801e-07,1.4644e-05,0.60842,0.8605850848346539,9.928894928457055e-07,-6.328007997602469e-07,-0.21425109745275406,1.4644107223960035e-05,-0.3130192448264696
871,0.8616,809.003,0.00184438,0.00121341,0.000889601,-0.000790797,-0.0048988,0.621428,-0.24133,-0.375773,9.92587e-07,-6.32538e-07,1.46409e-05,0.608953,0.8615844873407665,9.925874926430822e-07,-6.325377999161219e-07,-0.21441765856399253,1.464100717840644e-05,-0.3132417905367939
872,0.8626,809.182,0.00184117,0.00121126,0.000887819,-0.000789049,-0.00489608,0.621965,-0.241542,-0.376097,9.92283e-07,-6.32273e-07,1.46377e-05,0.609486,0.8625844266701492,9.922834922626578e-07,-6.322728001162403e-07,-0.21458418436801796,1.4637807131734348e-05,-0.31346426415398787
873,0.8636,809.361,0.00183796,0.00120911,0.000886041,-0.000787305,-0.00489337,0.622502,-0.241754,-0.376421,9.91977e-07,-6.32007e-07,1.46346e-05,0.610019,0.8635849031111533,9.919774919264768e-07,-6.320068003384804e-07,-0.21475067487231492,1.4634707086180754e-05,-0.3136866657014057
874,0.8646,809.539,0.00183476,0.00120696,0.000884267,-0.000785566,-0.00489065,0.623038,-0.241966,-0.376745,9.91668e-07,-6.31738e-07,1.46315e-05,0.610551,0.8645840523673005,9.916684917676832e-07,-6.317378004050411e-07,-0.21491713008436608,1.4631607040849204e-05,-0.31390899520239435
875,0.8656,809.718,0.00183157,0.00120483,0.000882497,-0.000783832,-0.00488794,0.623575,-0.242178,-0.377068,9.91357e-07,-6.31468e-07,1.46283e-05,0.611084,0.8655856028956705,9.913574914310885e-07,-6.314678006047458e-07,-0.2150835500116527,1.4628406994177112e-05,-0.31413056681120277
876,0.8666,809.896,0.00182839,0.00120269,0.000880732,-0.000782103,-0.00488523,0.624111,-0.242389,-0.377391,9.91044e-07,-6.31196e-07,1.46252e-05,0.611616,0.8665858248143503,9.910444911387373e-07,-6.31195800848694e-07,-0.21524914991119637,1.4625306948845562e-05,-0.31435206686393846
877,0.8676,810.074,0.00182521,0.00120056,0.00087897,-0.000780379,-0.00488252,0.624646,-0.242601,-0.377715,9.90728e-07,-6.30923e-07,1.4622e-05,0.612147,0.8675847154100347,9.907284908017289e-07,-6.309228010037415e-07,-0.2154154994577403,1.4622106901951426e-05,-0.3145741808098723
878,0.8686,810.251,0.00182204,0.00119844,0.000877213,-0.000778659,-0.00487981,0.625181,-0.242812,-0.378038,9.90411e-07,-6.30647e-07,1.46189e-05,0.612679,0.8685841405551669,9.904114903758199e-07,-6.30646801114132e-07,-0.21558102932333978,1.4619006856619876e-05,-0.3147955375984248
879,0.8696,810.429,0.00181888,0.00119632,0.000875459,-0.000776945,-0.0048771,0.625716,-0.243023,-0.37836,9.90091e-07,-6.3037e-07,1.46158e-05,0.61321,0.8695841005358078,9.900914901272984e-07,-6.303698013576664e-07,-0.21574652426582208,1.4615906811288326e-05,-0.31501613791676086
880,0.8706,810.606,0.00181573,0.00119421,0.00087371,-0.000775235,-0.0048744,0.626251,-0.243235,-0.378683,9.89768e-07,-6.30092e-07,1.46126e-05,0.613741,0.8705845956381704,9.897684898341197e-07,-6.300918015123003e-07,-0.21591276838017892,1.4612706764616235e-05,-0.3152373519762198
881,0.8716,810.783,0.00181258,0.0011921,0.000871965,-0.00077353,-0.00487169,0.626786,-0.243446,-0.379005,9.89444e-07,-6.29811e-07,1.46095e-05,0.614271,0.8715856261486217,9.894444894520404e-07,-6.29810801622277e-07,-0.2160781933331044,1.4609606719284685e-05,-0.31545781005322826
882,0.8726,810.96,0.00180944,0.00119,0.000870224,-0.00077183,-0.00486898,0.62732,-0.243657,-0.379328,9.89117e-07,-6.29529e-07,1.46063e-05,0.614801,0.8725853197674256,9.891174892473487e-07,-6.295288018653977e-07,-0.21624358338504712,1.4606406672612593e-05,-0.3156788814756244
883,0.8736,811.137,0.00180631,0.0011879,0.000868487,-0.000770134,-0.00486628,0.627854,-0.243868,-0.37965,9.88788e-07,-6.29246e-07,1.46032e-05,0.615331,0.8735855473651815,9.887884888648557e-07,-6.292458020196179e-07,-0.21640893854337018,1.4603306627281043e-05,-0.3158991974030213
884,0.8746,811.314,0.00180318,0.0011858,0.000866754,-0.000768444,-0.00486358,0.628387,-0.244078,-0.379972,9.88457e-07,-6.2896e-07,1.46e-05,0.615861,0.8745844346417386,9.884574885266062e-07,-6.289598022402032e-07,-0.2165734753893025,1.4600106580608951e-05,-0.31611944240011003
885,0.8756,811.49,0.00180006,0.00118371,0.000865024,-0.000766758,-0.00486088,0.628921,-0.244289,-0.380293,9.88124e-07,-6.28673e-07,1.45969e-05,0.61639,0.8755857300519179,9.881244882326001e-07,-6.286728023718879e-07,-0.2167387609477558,1.4597006535277401e-05,-0.31633893282900105
886,0.8766,811.666,0.00179695,0.00118163,0.000863299,-0.000765076,-0.00485818,0.629454,-0.244499,-0.380615,9.87788e-07,-6.28384e-07,1.45938e-05,0.61692,0.8765856837100126,9.87788487893937e-07,-6.283838025478161e-07,-0.21690322853825528,1.4593906489945851e-05,-0.3165590362540769
887,0.8776,811.842,0.00179385,0.00117955,0.000861578,-0.0007634,-0.00485548,0.629986,-0.24471,-0.380936,9.87451e-07,-6.28094e-07,1.45906e-05,0.617448,0.8775842929002384,9.874514874663731e-07,-6.28093802745866e-07,-0.21706844452613405,1.459070644327376e-05,-0.3167783855959865
888,0.8786,812.018,0.00179075,0.00117748,0.000859861,-0.000761728,-0.00485278,0.630519,-0.24492,-0.381258,9.87111e-07,-6.27802e-07,1.45875e-05,0.617977,0.8785853120762666,9.871114872161968e-07,-6.27801802877137e-07,-0.21723284289035116,1.4587606398164255e-05,-0.31699834754005096
889,0.8796,812.193,0.00178766,0.00117541,0.000858148,-0.000760061,-0.00485008,0.631051,-0.24513,-0.381579,9.86769e-07,-6.27509e-07,1.45843e-05,0.618505,0.8795849853518047,9.867694867882193e-07,-6.275088031415521e-07,-0.21739720673453655,1.4584406351492163e-05,-0.3172175558856689
890,0.8806,812.368,0.00178458,0.00117335,0.000856438,-0.000758398,-0.00484739,0.631583,-0.24534,-0.3819,9.86425e-07,-6.27213e-07,1.45812e-05,0.619033,0.8805851905950164,9.864254866265298e-07,-6.272128032502877e-07,-0.21756153606593853,1.4581306306160613e-05,-0.31743669387670037
891,0.8816,812.543,0.00178151,0.00117129,0.000854733,-0.00075674,-0.00484469,0.632114,-0.24555,-0.38222,9.86079e-07,-6.26917e-07,1.4578e-05,0.619561,0.8815840465039961,9.860794862870392e-07,-6.269168034700456e-07,-0.2177258308918042,1.4578106259488521e-05,-0.317655079191146
892,0.8826,812.718,0.00177844,0.00116923,0.000853031,-0.000755087,-0.004842,0.632646,-0.24576,-0.382541,9.8573e-07,-6.26618e-07,1.45749e-05,0.620089,0.8825853155306824,9.857304859028915e-07,-6.266178036451464e-07,-0.21789009121937886,1.4575006214379016e-05,-0.31787407675973534
893,0.8836,812.893,0.00177538,0.00116718,0.000851334,-0.000753438,-0.00483931,0.633177,-0.24597,-0.382861,9.8538e-07,-6.26318e-07,1.45717e-05,0.620616,0.8835852337880314,9.853804854298431e-07,-6.263178038423689e-07,-0.2180543170559064,1.4571806167706924e-05,-0.31809232213405003
894,0.8846,813.068,0.00177232,0.00116514,0.00084964,-0.000751794,-0.00483662,0.633708,-0.24618,-0.383181,9.85027e-07,-6.26017e-07,1.45686e-05,0.621143,0.8845856831429695,9.850274851341823e-07,-6.260168040617131e-07,-0.21821850840862922,1.4568706122597419e-05,-0.3183104976810178
895,0.8856,813.242,0.00176928,0.0011631,0.00084795,-0.000750155,-0.00483393,0.634238,-0.246389,-0.383501,9.84673e-07,-6.25713e-07,1.45654e-05,0.621669,0.8855847782918624,9.846734847496208e-07,-6.257128042364002e-07,-0.21838188366706268,1.4565506075925327e-05,-0.31852860342297995
896,0.8866,813.416,0.00176624,0.00116106,0.000846264,-0.00074852,-0.00483124,0.634768,-0.246598,-0.383821,9.84316e-07,-6.25409e-07,1.45623e-05,0.622196,0.8865844031015322,9.843164845424468e-07,-6.254088044110873e-07,-0.21854522478363503,1.4562406030815822e-05,-0.31874663938227066
897,0.8876,813.59,0.00176321,0.00115903,0.000844582,-0.000746889,-0.00482855,0.635298,-0.246808,-0.384141,9.83957e-07,-6.25103e-07,1.45591e-05,0.622722,0.8875845578527732,9.839574841574716e-07,-6.251028046300178e-07,-0.21870931305655872,1.455920598414373e-05,-0.3189646055812164
898,0.8886,813.764,0.00176018,0.00115701,0.000842904,-0.000745264,-0.00482586,0.635828,-0.247017,-0.38446,9.83596e-07,-6.24795e-07,1.4556e-05,0.623247,0.8885852428265286,9.8359648381674e-07,-6.247948047821694e-07,-0.21887258574753943,1.4556105939034225e-05,-0.31918182122429894
899,0.8896,813.937,0.00175716,0.00115499,0.000841229,-0.000743642,-0.00482318,0.636357,-0.247226,-0.38478,9.83233e-07,-6.24486e-07,1.45529e-05,0.623773,0.8895845687183779,9.83233483298207e-07,-6.244858049564428e-07,-0.21903582431809332,1.455300589392472e-05,-0.31939964818733435
900,0.8906,814.11,0.00175415,0.00115297,0.000839558,-0.000742026,-0.0048205,0.636886,-0.247435,-0.385099,9.82868e-07,-6.24175e-07,1.45497e-05,0.624298,0.8905844233934748,9.828684830459622e-07,-6.241748051749596e-07,-0.21919902877535102,1.4549805847474673e-05,-0.31961672507395833
901,0.8916,814.284,0.00175114,0.00115096,0.000837892,-0.000740413,-0.00481781,0.637415,-0.247644,-0.385418,9.82501e-07,-6.23862e-07,1.45466e-05,0.624823,0.8915848071316197,9.825014826159162e-07,-6.238618054377199e-07,-0.21936219912644128,1.4546705802365167e-05,-0.3198337327240993
902,0.8926,814.457,0.00174815,0.00114895,0.000836228,-0.000738806,-0.00481513,0.637944,-0.247853,-0.385737,9.82132e-07,-6.23549e-07,1.45434e-05,0.625348,0.892585720212761,9.821324822301136e-07,-6.235488055894578e-07,-0.21952533537849173,1.4543505755693076e-05,-0.3200506711598401
903,0.8936,814.629,0.00174515,0.00114695,0.000834569,-0.000737202,-0.00481245,0.638472,-0.248061,-0.386055,9.81761e-07,-6.23233e-07,1.45403e-05,0.625872,0.8935852693307791,9.817614818885545e-07,-6.232328058075609e-07,-0.2196876572266755,1.454040571058357e-05,-0.3202668606704573
904,0.8946,814.802,0.00174217,0.00114495,0.000832913,-0.000735604,-0.00480977,0.639,-0.24827,-0.386374,9.81388e-07,-6.22916e-07,1.45371e-05,0.626396,0.894585346350085,9.813884815912388e-07,-6.229158059367634e-07,-0.21985072546509066,1.4537205664133523e-05,-0.3204836609604187
905,0.8956,814.974,0.00173919,0.00114296,0.000831262,-0.000734009,-0.0048071,0.639527,-0.248478,-0.386692,9.81013e-07,-6.22598e-07,1.4534e-05,0.62692,0.8955840559644805,9.81013481116122e-07,-6.2259780619911e-07,-0.22001297963917488,1.4534105619024018e-05,-0.3206997128021697
906,0.8966,815.146,0.00173622,0.00114097,0.000829613,-0.000732419,-0.00480442,0.640055,-0.248687,-0.38701,9.80636e-07,-6.22278e-07,1.45308e-05,0.627444,0.896585188621793,9.806364809072932e-07,-6.222778063946777e-07,-0.22017597989231041,1.4530905572573971e-05,-0.32091569595035807
907,0.8976,815.318,0.00173326,0.00113899,0.000827969,-0.000730834,-0.00480174,0.640582,-0.248895,-0.387328,9.80257e-07,-6.21957e-07,1.45277e-05,0.627967,0.8975849524308217,9.802574805206632e-07,-6.219568066123671e-07,-0.22033816642050918,1.4527805527464466e-05,-0.3211316104268246
908,0.8986,815.49,0.0017303,0.00113701,0.000826328,-0.000729253,-0.00479907,0.641109,-0.249103,-0.387646,9.79876e-07,-6.21634e-07,1.45245e-05,0.62849,0.8985852432542341,9.798764801782767e-07,-6.216338067632776e-07,-0.2205003192174182,1.4524605481014419e-05,-0.32134745625340344
909,0.8996,815.662,0.00172735,0.00113504,0.000824691,-0.000727676,-0.0047964,0.641635,-0.249311,-0.387964,9.79493e-07,-6.2131e-07,1.45214e-05,0.629013,0.8995841617847278,9.79493479658089e-07,-6.213098069363099e-07,-0.22066243829005294,1.4521505436126958e-05,-0.32156323345192195
910,0.9006,815.833,0.00172441,0.00113307,0.000823058,-0.000726104,-0.00479372,0.642162,-0.249519,-0.388281,9.79108e-07,-6.20985e-07,1.45182e-05,0.629535,0.9005855064691375,9.791084794041893e-07,-6.209848072424862e-07,-0.22082452364542726,1.4518305389676911e-05,-0.32177826382280317
911,0.9016,816.004,0.00172147,0.0011311,0.000821428,-0.000724536,-0.00479105,0.642688,-0.249727,-0.388598,9.78721e-07,-6.20658e-07,1.45151e-05,0.630057,0.9015854774148435,9.787214789724885e-07,-6.206578073708613e-07,-0.22098657529055377,1.4515205344567406e-05,-0.3219932260398599
912,0.9026,816.175,0.00171854,0.00112914,0.000819802,-0.000722972,-0.00478839,0.643213,-0.249935,-0.388916,9.78332e-07,-6.20329e-07,1.45119e-05,0.630579,0.9025840718986018,9.783324785850311e-07,-6.203288075434799e-07,-0.22114859323244318,1.4512005298117359e-05,-0.32220879791623425
913,0.9036,816.346,0.00171562,0.00112719,0.00081818,-0.000721413,-0.00478572,0.643739,-0.250142,-0.389232,9.77941e-07,-6.19999e-07,1.45088e-05,0.631101,0.9035850943662493,9.779414782418172e-07,-6.199988078492424e-07,-0.22130979878829338,1.4508905253229898e-05,-0.3224229460988979
914,0.9046,816.517,0.0017127,0.00112523,0.000816561,-0.000719858,-0.00478305,0.644264,-0.25035,-0.389549,9.77549e-07,-6.19668e-07,1.45056e-05,0.631622,0.9045847389245276,9.775494778097027e-07,-6.196678079550821e-07,-0.2214717495066869,1.4505705206779851e-05,-0.3226377039840612
915,0.9056,816.687,0.00170979,0.00112329,0.000814946,-0.000718308,-0.00478039,0.644789,-0.250557,-0.389866,9.77154e-07,-6.19336e-07,1.45025e-05,0.632143,0.9055849084339864,9.77154477332931e-07,-6.193358081940659e-07,-0.22163288817611126,1.4502605161670346e-05,-0.32285239380176445
916,0.9066,816.857,0.00170689,0.00112135,0.000813335,-0.000716761,-0.00477772,0.645314,-0.250764,-0.390182,9.76757e-07,-6.19002e-07,1.44993e-05,0.632664,0.9065856031702981,9.767574771224474e-07,-6.190018083662707e-07,-0.22179399349328321,1.4499405115442343e-05,-0.32306633864025824
917,0.9076,817.027,0.00170399,0.00111941,0.000811727,-0.000715219,-0.00477506,0.645838,-0.250971,-0.390499,9.76359e-07,-6.18666e-07,1.44962e-05,0.633185,0.9075849158234088,9.763594766010186e-07,-6.18665808582719e-07,-0.2219550654651059,1.4496305070332838e-05,-0.32328089260230963
918,0.9086,817.197,0.0017011,0.00111747,0.000810122,-0.000713682,-0.0047724,0.646362,-0.251179,-0.390815,9.75959e-07,-6.18329e-07,1.4493e-05,0.633705,0.9085847522535673,9.759594763458779e-07,-6.18328808821289e-07,-0.22211688198198798,1.4493105024104835e-05,-0.3234947020565744
919,0.9096,817.367,0.00169822,0.00111555,0.000808522,-0.000712148,-0.00476974,0.646886,-0.251385,-0.391131,9.75556e-07,-6.17991e-07,1.44899e-05,0.634225,0.9095851127353047,9.755564758240354e-07,-6.179908090819808e-07,-0.22227710940030898,1.4490004979217375e-05,-0.32370844395772547
920,0.9106,817.536,0.00169534,0.00111362,0.000806924,-0.000710619,-0.00476708,0.647409,-0.251592,-0.391446,9.75152e-07,-6.17652e-07,1.44867e-05,0.634745,0.910584086958254,9.75152475435337e-07,-6.176518092537719e-07,-0.22243808137748866,1.4486804932767328e-05,-0.32392144224888675
921,0.9116,817.706,0.00169247,0.0011117,0.000805331,-0.000709094,-0.00476442,0.647933,-0.251799,-0.391762,9.74746e-07,-6.17311e-07,1.44836e-05,0.635264,0.9115854953659093,9.747464750908819e-07,-6.173108094698065e-07,-0.22259902003691767,1.4483704887879867e-05,-0.3241350493214411
922,0.9126,817.875,0.0016896,0.00110979,0.000803741,-0.000707573,-0.00476177,0.648456,-0.252006,-0.392078,9.74338e-07,-6.16969e-07,1.44804e-05,0.635784,0.9125855160626035,9.743384745686257e-07,-6.169688097079629e-07,-0.22275992538549194,1.448050484142982e-05,-0.32434858890482443
923,0.9136,818.044,0.00168675,0.00110788,0.000802154,-0.000706057,-0.00475911,0.648978,-0.252212,-0.392393,9.73929e-07,-6.16625e-07,1.44773e-05,0.636303,0.91358414632181,9.739294741795135e-07,-6.166248098793403e-07,-0.22292002035051495,1.4477404796542359e-05,-0.32456138558208314
924,0.9146,818.212,0.00168389,0.00110597,0.000800571,-0.000704545,-0.00475646,0.649501,-0.252419,-0.392708,9.73517e-07,-6.1628e-07,1.44741e-05,0.636821,0.9145852125863458,9.735174739677888e-07,-6.162798100728395e-07,-0.2230808592589011,1.4474204750314357e-05,-0.32477411523894484
925,0.9156,818.381,0.00168105,0.00110407,0.000798992,-0.000703037,-0.0047538,0.650023,-0.252625,-0.393023,9.73104e-07,-6.15934e-07,1.4471e-05,0.63734,0.9155848869596279,9.731044734451189e-07,-6.159338102884604e-07,-0.2232408881183553,1.4471104705426896e-05,-0.32498677789651753
926,0.9166,818.549,0.00167821,0.00110217,0.000797416,-0.000701533,-0.00475115,0.650545,-0.252831,-0.393338,9.72689e-07,-6.15587e-07,1.44679e-05,0.637858,0.916585083299154,9.726894729666924e-07,-6.15586810526203e-07,-0.2234008840152597,1.4468004660539435e-05,-0.3251993735759028
927,0.9176,818.718,0.00167538,0.00110028,0.000795843,-0.000700033,-0.0047485,0.651067,-0.253037,-0.393652,9.72272e-07,-6.15238e-07,1.44647e-05,0.638376,0.9175858018774616,9.72272472754554e-07,-6.152378106971668e-07,-0.223560846956404,1.4464804614311433e-05,-0.32541122770976016
928,0.9186,818.886,0.00167255,0.00109839,0.000794274,-0.000698537,-0.00474586,0.651588,-0.253243,-0.393967,9.71853e-07,-6.14888e-07,1.44616e-05,0.638893,0.9185851243811471,9.718534721425698e-07,-6.148878110012745e-07,-0.22372077694857617,1.4461704569423972e-05,-0.3256236897085101
929,0.9196,819.053,0.00166973,0.0010965,0.000792708,-0.000697046,-0.00474321,0.652109,-0.253449,-0.394281,9.71432e-07,-6.14536e-07,1.44584e-05,0.639411,0.9195849676675096,9.714324717968736e-07,-6.145358111275812e-07,-0.22388067399856315,1.445850452319597e-05,-0.3258354106280177
930,0.9206,819.221,0.00166692,0.00109462,0.000791146,-0.000695558,-0.00474056,0.65263,-0.253655,-0.394595,9.7101e-07,-6.14184e-07,1.44553e-05,0.639928,0.9205853320079467,9.71010471362277e-07,-6.141838113649101e-07,-0.22404053811315028,1.4455404478308509e-05,-0.32604706507759285
931,0.9216,819.388,0.00166411,0.00109275,0.000789588,-0.000694075,-0.00473792,0.65315,-0.253861,-0.394909,9.70586e-07,-6.1383e-07,1.44521e-05,0.640444,0.9215842960887417,9.705864709719236e-07,-6.138298116464824e-07,-0.22420036929912168,1.4452204432080507e-05,-0.32625865307810387
932,0.9226,819.556,0.00166131,0.00109087,0.000788032,-0.000692596,-0.00473528,0.653671,-0.254066,-0.395223,9.7016e-07,-6.13474e-07,1.4449e-05,0.640961,0.9225857023506834,9.701604706258138e-07,-6.134738118612759e-07,-0.22435939192303944,1.4449104387193046e-05,-0.3264701746504126
933,0.9236,819.723,0.00165852,0.00108901,0.00078648,-0.000691121,-0.00473263,0.654191,-0.254272,-0.395536,9.69732e-07,-6.13118e-07,1.44458e-05,0.641477,0.9235857068945537,9.697324701019028e-07,-6.131178120760694e-07,-0.22451915743189088,1.4445904340965043e-05,-0.3266809564966673
934,0.9246,819.89,0.00165573,0.00108714,0.000784932,-0.00068965,-0.00472999,0.65471,-0.254477,-0.39585,9.69302e-07,-6.1276e-07,1.44427e-05,0.641993,0.9245843069907416,9.693024698442798e-07,-6.12759812224084e-07,-0.22467811471093957,1.4442804296299627e-05,-0.326892345486519
935,0.9256,820.056,0.00165295,0.00108528,0.000783387,-0.000688183,-0.00472735,0.65523,-0.254682,-0.396163,9.68871e-07,-6.12401e-07,1.44395e-05,0.642509,0.9255853510792829,9.688714692757117e-07,-6.124008125052427e-07,-0.224837039407086,1.4439604250071625e-05,-0.3271029952139797
936,0.9266,820.223,0.00165018,0.00108343,0.000781845,-0.00068672,-0.00472472,0.655749,-0.254888,-0.396476,9.68438e-07,-6.12041e-07,1.44364e-05,0.643024,0.9265849892601623,9.684384689734316e-07,-6.120408126975008e-07,-0.2249967065306897,1.4436504205406209e-05,-0.3273135790183931
937,0.9276,820.389,0.00164741,0.00108158,0.000780307,-0.000685261,-0.00472208,0.656268,-0.255093,-0.396789,9.68003e-07,-6.1168e-07,1.44332e-05,0.64354,0.9275851463879126,9.680034684933503e-07,-6.116798129118806e-07,-0.22515556592220698,1.4433304159178206e-05,-0.32752409692039
938,0.9286,820.555,0.00164465,0.00107973,0.000778772,-0.000683806,-0.00471945,0.656787,-0.255298,-0.397102,9.67567e-07,-6.11317e-07,1.44301e-05,0.644055,0.9285858227319375,9.67567468146413e-07,-6.113168131705038e-07,-0.22531439275088672,1.4430204114290746e-05,-0.3277345489405946
939,0.9296,820.721,0.00164189,0.00107789,0.00077724,-0.000682356,-0.00471681,0.657305,-0.255502,-0.397415,9.67128e-07,-6.10953e-07,1.44269e-05,0.644569,0.9295850889757258,9.671284677548186e-07,-6.109528133402264e-07,-0.22547241249620353,1.4427004068284788e-05,-0.32794493509962463
940,0.9306,820.887,0.00163914,0.00107605,0.000775712,-0.000680909,-0.00471418,0.657823,-0.255707,-0.397727,9.66689e-07,-6.10588e-07,1.44238e-05,0.645084,0.9305848729735151,9.666894671411796e-07,-6.105878136430931e-07,-0.22563117437799296,1.4423904023397327e-05,-0.3281545835730111
941,0.9316,821.053,0.00163639,0.00107422,0.000774187,-0.000679466,-0.00471155,0.658341,-0.255912,-0.398039,9.66247e-07,-6.10222e-07,1.44207e-05,0.645598,0.9315851749935713,9.662474669269727e-07,-6.102218138570592e-07,-0.2257899037169323,1.4420803978731911e-05,-0.32836416664627666
942,0.9326,821.218,0.00163366,0.00107239,0.000772665,-0.000678027,-0.00470892,0.658858,-0.256116,-0.398352,9.65803e-07,-6.09855e-07,1.44175e-05,0.646112,0.932584062719271,9.6580346631292e-07,-6.09854814093147e-07,-0.2259478264679058,1.4417603932725953e-05,-0.3285743557658032
943,0.9336,821.384,0.00163092,0.00107057,0.000771147,-0.000676592,-0.00470629,0.659376,-0.256321,-0.398664,9.65358e-07,-6.09486e-07,1.44144e-05,0.646625,0.9335854005878772,9.65358466054056e-07,-6.09485814262456e-07,-0.22610649089981993,1.4414503888060537e-05,-0.3287838078905737
944,0.9346,821.549,0.0016282,0.00106874,0.000769632,-0.000675161,-0.00470366,0.659893,-0.256525,-0.398975,9.64912e-07,-6.09116e-07,1.44112e-05,0.647139,0.934585322697574,9.649124654842467e-07,-6.091158144538866e-07,-0.22626434907359516,1.4411303841832535e-05,-0.32899252366933396
945,0.9356,821.714,0.00162548,0.00106693,0.00076812,-0.000673734,-0.00470104,0.66041,-0.256729,-0.399287,9.64463e-07,-6.08745e-07,1.44081e-05,0.647652,0.9355857619006591,9.64463465091825e-07,-6.08744814667439e-07,-0.22642217504758744,1.4408203797167118e-05,-0.32920184534606955
946,0.9366,821.878,0.00162277,0.00106512,0.000766611,-0.000672311,-0.00469842,0.660926,-0.256934,-0.399599,9.64013e-07,-6.08373e-07,1.44049e-05,0.648164,0.9365847818787878,9.640134646105025e-07,-6.083728149031131e-07,-0.2265807422480094,1.440500375116116e-05,-0.32941110172462895
947,0.9376,822.043,0.00162006,0.00106331,0.000765106,-0.000670892,-0.00469579,0.661442,-0.257138,-0.39991,9.63561e-07,-6.08e-07,1.44018e-05,0.648677,0.9375843174842458,9.635614641734236e-07,-6.07999815160909e-07,-0.2267385036843771,1.4401903706495744e-05,-0.3296196224453398
948,0.9386,822.207,0.00161736,0.0010615,0.000763604,-0.000669477,-0.00469317,0.661958,-0.257342,-0.400221,9.63108e-07,-6.07625e-07,1.43987e-05,0.649189,0.9385843689831652,9.631084638694887e-07,-6.076248153519259e-07,-0.2268962329406944,1.4398803661830328e-05,-0.32982807832618966
949,0.9396,822.371,0.00161466,0.0010597,0.000762105,-0.000668065,-0.00469055,0.662474,-0.257545,-0.400532,9.62653e-07,-6.07249e-07,1.43955e-05,0.649701,0.9395849366418159,9.626534633877526e-07,-6.072488156760869e-07,-0.22705315707706875,1.4395603615602326e-05,-0.33003646938734066
950,0.9406,822.535,0.00161197,0.00105791,0.00076061,-0.000666658,-0.00468793,0.662989,-0.257749,-0.400843,9.62196e-07,-6.06873e-07,1.43924e-05,0.650213,0.9405840801415546,9.6219646295026e-07,-6.068728158892256e-07,-0.2272108221506407,1.4392503571158954e-05,-0.3302447956489484
951,0.9416,822.699,0.00160929,0.00105611,0.000759118,-0.000665254,-0.00468532,0.663505,-0.257953,-0.401154,9.61738e-07,-6.06495e-07,1.43892e-05,0.650724,0.9415856799174263,9.617384624238667e-07,-6.064948160355854e-07,-0.2273684550638181,1.4389303524930952e-05,-0.33045305713116246
952,0.9426,822.863,0.00160661,0.00105433,0.000757629,-0.000663854,-0.0046827,0.66402,-0.258156,-0.401464,9.61277e-07,-6.06116e-07,1.43861e-05,0.651236,0.9425858540653209,9.61277462074861e-07,-6.061158163150893e-07,-0.2275252833488307,1.438620348048758e-05,-0.3306605845150453
953,0.9436,823.026,0.00160394,0.00105254,0.000756143,-0.000662458,-0.00468009,0.664534,-0.25836,-0.401774,9.60816e-07,-6.05736e-07,1.43829e-05,0.651747,0.9435845998499883,9.608164615038106e-07,-6.057358165056925e-07,-0.2276828521184665,1.4383003434481623e-05,-0.3308680475754099
954,0.9446,823.19,0.00160127,0.00105076,0.00075466,-0.000661066,-0.00467747,0.665049,-0.258563,-0.402085,9.60353e-07,-6.05355e-07,1.43798e-05,0.652257,0.9445858037067756,9.603534611990483e-07,-6.053548167184175e-07,-0.22783961658735452,1.4379903389816207e-05,-0.33107611525641245
955,0.9456,823.353,0.00159861,0.00104899,0.00075318,-0.000659678,-0.00467486,0.665563,-0.258766,-0.402395,9.59888e-07,-6.04972e-07,1.43767e-05,0.652768,0.9455855777297935,9.598884607164848e-07,-6.049718169753859e-07,-0.2279963492362852,1.437680334515079e-05,-0.33128344952221134
956,0.9466,823.516,0.00159596,0.00104721,0.000751704,-0.000658294,-0.00467225,0.666077,-0.258969,-0.402705,9.59421e-07,-6.04589e-07,1.43735e-05,0.653278,0.9465858657687498,9.594214602781648e-07,-6.045888172323544e-07,-0.22815305007171738,1.4373603299144833e-05,-0.3314907195243493
957,0.9476,823.679,0.00159331,0.00104545,0.000750231,-0.000656913,-0.00466964,0.66659,-0.259172,-0.403014,9.58953e-07,-6.04204e-07,1.43704e-05,0.653788,0.9475847205022228,9.589534597509441e-07,-6.042038174225439e-07,-0.22830971910010844,1.4370503254701461e-05,-0.3316972569803359
958,0.9486,823.841,0.00159067,0.00104368,0.000748761,-0.000655536,-0.00466704,0.667103,-0.259375,-0.403324,9.58483e-07,-6.03819e-07,1.43673e-05,0.654298,0.9485840877796301,9.58483459267967e-07,-6.038188177237558e-07,-0.22846635632791457,1.436740321025809e-05,-0.33190439872204325
959,0.9496,824.004,0.00158804,0.00104192,0.000747294,-0.000654163,-0.00466443,0.667616,-0.259578,-0.403633,9.58012e-07,-6.03432e-07,1.43641e-05,0.654807,0.9495839678639746,9.580124589181338e-07,-6.034318179581888e-07,-0.2286229617615907,1.4364203164252132e-05,-0.332110808370905
960,0.9506,824.166,0.00158541,0.00104017,0.00074583,-0.000652793,-0.00466183,0.668129,-0.259781,-0.403942,9.57539e-07,-6.03044e-07,1.4361e-05,0.655316,0.9505843610183935,9.575394583904995e-07,-6.030438182147435e-07,-0.22877953540759033,1.4361103119586716e-05,-0.3323171542490384
961,0.9516,824.328,0.00158278,0.00103841,0.000744369,-0.000651428,-0.00465922,0.668642,-0.259983,-0.404251,9.57065e-07,-6.02656e-07,1.43578e-05,0.655825,0.9515852675061593,9.570654579960092e-07,-6.026558183602759e-07,-0.22893530620805747,1.4357903073802802e-05,-0.33252343637614545
962,0.9526,824.49,0.00158016,0.00103667,0.000742912,-0.000650066,-0.00465662,0.669154,-0.260186,-0.40456,9.56589e-07,-6.02266e-07,1.43547e-05,0.656334,0.9525847350049685,9.565894574237177e-07,-6.022658186610741e-07,-0.22909181645456977,1.4354803029137386e-05,-0.3327296547719222
963,0.9536,824.652,0.00157755,0.00103492,0.000741457,-0.000648708,-0.00465402,0.669666,-0.260388,-0.404869,9.56111e-07,-6.01875e-07,1.43516e-05,0.656842,0.9535847143621616,9.561114571177143e-07,-6.018748188729717e-07,-0.2292475241806361,1.4351702984694015e-05,-0.3329358094560587
964,0.9546,824.813,0.00157494,0.00103318,0.000740006,-0.000647353,-0.00465142,0.670178,-0.260591,-0.405178,9.55632e-07,-6.01483e-07,1.43484e-05,0.65735,0.9545852058398774,9.556324567228103e-07,-6.01482819106991e-07,-0.22940397105333266,1.4348502938688057e-05,-0.33314190044823866
965,0.9556,824.975,0.00157234,0.00103145,0.000738558,-0.000646003,-0.00464883,0.670689,-0.260793,-0.405486,9.55152e-07,-6.0109e-07,1.43453e-05,0.657858,0.9555842541151565,9.551524562390057e-07,-6.01089819363132e-07,-0.22955961573053818,1.4345402894244685e-05,-0.33334726111573443
966,0.9566,825.136,0.00156975,0.00102971,0.000737113,-0.000644655,-0.00464623,0.671201,-0.260995,-0.405794,9.5467e-07,-6.00696e-07,1.43422e-05,0.658366,0.956585769619354,9.546704557994445e-07,-6.006958195303724e-07,-0.22971522897069419,1.4342302849801314e-05,-0.33355255854188415
967,0.9576,825.297,0.00156716,0.00102798,0.00073567,-0.000643312,-0.00464363,0.671712,-0.261197,-0.406103,9.54186e-07,-6.00301e-07,1.4339e-05,0.658873,0.9575858404439634,9.541864551820822e-07,-6.003008198307569e-07,-0.22987081078015037,1.43391028040174e-05,-0.33375845898803747
968,0.9586,825.458,0.00156457,0.00102626,0.000734231,-0.000641972,-0.00464104,0.672222,-0.261399,-0.40641,9.53701e-07,-5.99905e-07,1.43359e-05,0.65938,0.9585844638499132,9.53701454697864e-07,-5.999048200422408e-07,-0.230026361165255,1.4336002759574029e-05,-0.33396296374804135
969,0.9596,825.619,0.00156199,0.00102454,0.000732795,-0.000640636,-0.00463845,0.672733,-0.261601,-0.406718,9.53214e-07,-5.99508e-07,1.43328e-05,0.659887,0.9595855562682698,9.532144542578891e-07,-5.995078202758464e-07,-0.23018188013235508,1.4332902715130658e-05,-0.33416807156698136
970,0.9606,825.779,0.00155942,0.00102282,0.000731362,-0.000639304,-0.00463586,0.673243,-0.261802,-0.407026,9.52726e-07,-5.9911e-07,1.43296e-05,0.660393,0.9605851997893973,9.527264539510583e-07,-5.991098205315737e-07,-0.23033659802477935,1.43297026691247e-05,-0.3343731162224408
971,0.9616,825.94,0.00155685,0.00102111,0.000729932,-0.000637975,-0.00463327,0.673753,-0.262004,-0.407333,9.52236e-07,-5.98711e-07,1.43265e-05,0.6609,0.9615853532587462,9.522364534664263e-07,-5.987108208094227e-07,-0.2304920543303629,1.4326602624681328e-05,-0.33457743231163617
972,0.9626,826.1,0.00155429,0.0010194,0.000728505,-0.00063665,-0.00463068,0.674262,-0.262205,-0.407641,9.51745e-07,-5.98311e-07,1.43234e-05,0.661406,0.9625840543514208,9.517454528928937e-07,-5.983108209983712e-07,-0.23064670988403868,1.4323502580460001e-05,-0.334782350903401
973,0.9636,826.26,0.00155174,0.00101769,0.000727081,-0.000635328,-0.0046281,0.674772,-0.262407,-0.407948,9.51252e-07,-5.9791e-07,1.43202e-05,0.661911,0.9635852274965917,9.512524523636046e-07,-5.979098212094414e-07,-0.23080210355335318,1.4320302534454044e-05,-0.33498654137683226
974,0.9646,826.42,0.00154919,0.00101599,0.00072566,-0.00063401,-0.00462552,0.675281,-0.262608,-0.408255,9.50758e-07,-5.97508e-07,1.43171e-05,0.662417,0.9645849467843621,9.507584519674595e-07,-5.975078214426333e-07,-0.2309566967933978,1.4317202490232717e-05,-0.33519066917340956
975,0.9656,826.579,0.00154664,0.0010143,0.000724242,-0.000632696,-0.00462293,0.67579,-0.262809,-0.408562,9.50262e-07,-5.97105e-07,1.4314e-05,0.662922,0.9655851750587763,9.502624513935132e-07,-5.971048216979469e-07,-0.23111125896332396,1.4314102445789345e-05,-0.33539473431237177
976,0.9666,826.739,0.0015441,0.0010126,0.000722827,-0.000631385,-0.00462035,0.676298,-0.26301,-0.408868,9.49765e-07,-5.96701e-07,1.43108e-05,0.663427,0.9665839459940446,9.497654509527109e-07,-5.967008219753822e-07,-0.23126579006937587,1.4310902400005432e-05,-0.3355980724113564
977,0.9676,826.898,0.00154157,0.00101091,0.000721415,-0.000630078,-0.00461777,0.676807,-0.263211,-0.409175,9.49266e-07,-5.96296e-07,1.43077e-05,0.663932,0.9675851920180518,9.492664505561521e-07,-5.96295822163917e-07,-0.23142029011779686,1.430780235556206e-05,-0.33580201249672126
978,0.9686,827.058,0.00153904,0.00100923,0.000720006,-0.000628774,-0.00461519,0.677315,-0.263412,-0.409481,9.48766e-07,-5.9589e-07,1.43046e-05,0.664437,0.9685849792200456,9.487664500706927e-07,-5.958898224855957e-07,-0.23157475911482894,1.4304702311340733e-05,-0.3360052259876475
979,0.9696,827.217,0.00153652,0.00100754,0.000718599,-0.000627474,-0.00461262,0.677823,-0.263613,-0.409787,9.48264e-07,-5.95483e-07,1.43015e-05,0.664941,0.9695852744429643,9.482644496294768e-07,-5.954828227183739e-07,-0.2317291970667127,1.4301602266897362e-05,-0.3362083773047586
980,0.9706,827.375,0.001534,0.00100586,0.000717196,-0.000626178,-0.00461004,0.67833,-0.263814,-0.410094,9.47761e-07,-5.95075e-07,1.42983e-05,0.665445,0.9705841073598556,9.477614490993602e-07,-5.950748229732739e-07,-0.23188360397968766,1.4298402221113449e-05,-0.3364121300552785
981,0.9716,827.534,0.00153149,0.00100419,0.000715796,-0.000624885,-0.00460747,0.678838,-0.264014,-0.410399,9.47257e-07,-5.94667e-07,1.42952e-05,0.665949,0.9715854183978645,9.472574487023877e-07,-5.946668232281738e-07,-0.23203721189758797,1.4295302176892122e-05,-0.3366144934936186
982,0.9726,827.693,0.00152899,0.00100252,0.000714398,-0.000623595,-0.00460489,0.679345,-0.264215,-0.410705,9.46751e-07,-5.94257e-07,1.42921e-05,0.666452,0.9725852656448517,9.46751448127614e-07,-5.942568234162948e-07,-0.23219155690580362,1.429220213244875e-05,-0.3368174584033946
983,0.9736,827.851,0.00152649,0.00100085,0.000713004,-0.000622309,-0.00460232,0.679852,-0.264415,-0.411011,9.46244e-07,-5.93846e-07,1.4289e-05,0.666955,0.97358561994292,9.462444476859844e-07,-5.938458236265376e-07,-0.23234510323927726,1.4289102088227423e-05,-0.3370203612154097
984,0.9746,828.009,0.00152399,0.000999186,0.000711612,-0.000621026,-0.00459975,0.680358,-0.264615,-0.411316,9.45735e-07,-5.93435e-07,1.42858e-05,0.667458,0.9745845069637147,9.457354472885982e-07,-5.934348239478027e-07,-0.23249861886655498,1.428590204244351e-05,-0.33722253917153333
985,0.9756,828.167,0.0015215,0.000997526,0.000710223,-0.000619747,-0.00459719,0.680865,-0.264816,-0.411621,9.45225e-07,-5.93023e-07,1.42827e-05,0.667961,0.9755858751341266,9.452254468023114e-07,-5.930228241801672e-07,-0.23265287114128985,1.4282801998222183e-05,-0.33742465547278333
986,0.9766,828.325,0.00151902,0.00099587,0.000708837,-0.000618472,-0.00459462,0.681371,-0.265016,-0.411927,9.44713e-07,-5.92609e-07,1.42796e-05,0.668463,0.9765857745401598,9.447134461382234e-07,-5.926088244567751e-07,-0.23280632522114209,1.4279701954000856e-05,-0.3376273725109199
987,0.9776,828.483,0.00151654,0.000994217,0.000707454,-0.000617199,-0.00459205,0.681876,-0.265216,-0.412232,9.442e-07,-5.92195e-07,1.42765e-05,0.668966,0.9775842024381283,9.442004458293241e-07,-5.921948246223607e-07,-0.2329597486132472,1.427660190977953e-05,-0.3378293653568293
988,0.9786,828.64,0.00151407,0.000992568,0.000706074,-0.000615931,-0.00458949,0.682382,-0.265416,-0.412536,9.43686e-07,-5.9178e-07,1.42733e-05,0.669468,0.9785851132536425,9.436864452094795e-07,-5.917798249210904e-07,-0.23311314132374217,1.4273401863995616e-05,-0.3380306346352804
989,0.9796,828.798,0.0015116,0.000990922,0.000704697,-0.000614666,-0.00458693,0.682887,-0.265615,-0.412841,9.4317e-07,-5.91364e-07,1.42702e-05,0.669969,0.9795845510726449,9.43170444855923e-07,-5.913638251309195e-07,-0.2332657366248827,1.427030181977429e-05,-0.33823250450499664
990,0.9806,828.955,0.00150914,0.000989281,0.000703322,-0.000613404,-0.00458437,0.683392,-0.265815,-0.413145,9.42653e-07,-5.90947e-07,1.42671e-05,0.670471,0.980584493735208,9.426534441914214e-07,-5.909468253628702e-07,-0.2334190681438948,1.4267201775552962e-05,-0.33843365124777314
991,0.9816,829.112,0.00150668,0.000987642,0.000701951,-0.000612145,-0.00458181,0.683897,-0.266015,-0.41345,9.42134e-07,-5.9053e-07,1.4264e-05,0.670972,0.9815849414963422,9.421344437932078e-07,-5.90529825594821e-07,-0.23357236899966938,1.4264101731331635e-05,-0.33863539821616584
992,0.9826,829.269,0.00150423,0.000986008,0.000700582,-0.00061089,-0.00457925,0.684402,-0.266214,-0.413754,9.41614e-07,-5.90111e-07,1.42609e-05,0.671473,0.982585894611187,9.416144433060936e-07,-5.901108258710153e-07,-0.23372487292359478,1.4261001687110308e-05,-0.33883642249786916
993,0.9836,829.426,0.00150178,0.000984377,0.000699216,-0.000609639,-0.00457669,0.684906,-0.266414,-0.414058,9.41093e-07,-5.89691e-07,1.42577e-05,0.671974,0.983585369748649,9.410934427300788e-07,-5.896908261693312e-07,-0.23387811262452918,1.425780164154844e-05,-0.3390373856774789
994,0.9846,829.582,0.00149934,0.00098275,0.000697852,-0.00060839,-0.00457414,0.68541,-0.266613,-0.414362,9.4057e-07,-5.89271e-07,1.42546e-05,0.672474,0.9845853487485425,9.40570442420352e-07,-5.892708263566249e-07,-0.23403055571152664,1.4254701597327113e-05,-0.3392382877735671
995,0.9856,829.739,0.0014969,0.000981126,0.000696492,-0.000607145,-0.00457159,0.685914,-0.266812,-0.414666,9.40046e-07,-5.8885e-07,1.42515e-05,0.672974,0.9855858318648789,9.400464417996801e-07,-5.888498266770625e-07,-0.234182968465368,1.4251601553105786e-05,-0.3394391288047004
996,0.9866,829.895,0.00149447,0.000979506,0.000695134,-0.000605904,-0.00456904,0.686417,-0.267011,-0.414969,9.39521e-07,-5.88428e-07,1.42484e-05,0.673474,0.9865848327659708,9.395214413121522e-07,-5.884278269085996e-07,-0.23433535089208912,1.4248501508884459e-05,-0.3396392484290185
997,0.9876,830.051,0.00149205,0.000977889,0.000693779,-0.000604666,-0.00456649,0.68692,-0.26721,-0.415273,9.38994e-07,-5.88005e-07,1.42453e-05,0.673974,0.9875843362909147,9.389944408688677e-07,-5.880048271622584e-07,-0.23448770299772437,1.4245401464663132e-05,-0.33983996758663826
998,0.9886,830.207,0.00148963,0.000976276,0.000692427,-0.000603431,-0.00456394,0.687423,-0.267409,-0.415576,9.38466e-07,-5.87581e-07,1.42422e-05,0.674473,0.9885843426925949,9.384664403366827e-07,-5.875808273270167e-07,-0.23464002478830692,1.424230142066385e-05,-0.3400399657752038
999,0.9896,830.363,0.00148721,0.000974667,0.000691078,-0.000602199,-0.00456139,0.687926,-0.267608,-0.415879,9.37937e-07,-5.87157e-07,1.4239e-05,0.674973,0.9895848522240216,9.379374399376417e-07,-5.871568276027972e-07,-0.23479231626986907,1.4239101375101981e-05,-0.3402399033734982
