,Time,S11,S22,S33,S12,S13,S23,LE11,LE22,LE33,LE12,LE13,LE23,SDV_EPBAR,E11,E12,E13,E22,E23,E33
0,1e-05,0.701761,0.0503842,0.0,0.188036,-7.92751e-19,2.95859e-18,9.12912e-06,-2.12914e-06,-3e-06,6.49996e-06,-5.48067e-23,2.04542e-22,0.0,9.129161670617947e-06,6.499981124896692e-06,0.0,-2.1291377333421124e-06,0.0,-2.9999955000192813e-06
1,2e-05,1.40352,0.100768,5.55112e-17,0.376071,-7.92751e-19,2.95859e-18,1.82581e-05,-4.25827e-06,-5.99996e-06,1.29999e-05,2.18815e-39,-5.67418e-39,0.0,1.8258266680115653e-05,1.2999984499106887e-05,0.0,-4.258260933531766e-06,0.0,-5.9999420002343484e-06
2,3.5e-05,2.45613,0.176342,-3.33067e-16,0.658119,2.37825e-18,-8.87577e-18,3.19515e-05,-7.45192e-06,-1.04998e-05,2.27496e-05,6.57689e-22,-2.45453e-21,0.0,3.19520104545834e-05,2.2749858774151477e-05,0.0,-7.451892234500157e-06,0.0,-1.0499744877323636e-05
3,5.75e-05,4.03503,0.289702,-1.55431e-15,1.08118,9.88076e-18,-1.32075e-17,5.24912e-05,-1.22423e-05,-1.72495e-05,3.73739e-05,-1.52891e-26,-4.09671e-27,0.0,5.249257768724647e-05,3.737459841279822e-05,0.0,-1.2242225063352485e-05,0.0,-1.7249351228265652e-05
4,9.125e-05,6.40331,0.459737,-1.06581e-14,1.71576,9.8805e-18,-1.32076e-17,8.32998e-05,-1.94277e-05,-2.73738e-05,5.93098e-05,8.76911e-22,-3.27277e-21,0.0,8.330326952465938e-05,5.931155886096384e-05,0.0,-1.9427511283476306e-05,0.0,-2.737342534098186e-05
5,0.00014188,9.95558,0.714778,-5.55112e-14,2.66759,3.35473e-17,-6.86607e-18,0.000129511,-3.02053e-05,-4.25596e-05,9.22122e-05,4.26707e-21,-9.38003e-21,0.0,0.0001295193869115252,9.221645167567516e-05,0.0,-3.0204843824543914e-05,0.0,-4.255869435310089e-05
6,0.00021781,15.2836,1.09732,-2.89102e-13,4.09524,5.08687e-17,2.31432e-17,0.000198823,-4.63708e-05,-6.53367e-05,0.000141563,3.50735e-21,-1.30917e-20,0.0,0.0001988427666026471,0.00014157302051431842,0.0,-4.636972489102664e-05,0.0,-6.533456560431361e-05
7,0.00033172,23.275,1.67107,-1.46239e-12,6.23651,2.88985e-17,-8.42159e-17,0.000302781,-7.06166e-05,-9.94992e-05,0.000215581,2.34898e-22,-1.3969e-20,0.0,0.00030282684279359096,0.00021560423925381933,0.0,-7.061410670661239e-05,0.0,-9.949425011879232e-05
8,0.00050258,35.2603,2.53157,-7.40252e-12,9.44797,3.5291e-18,1.04586e-17,0.000458697,-0.00010698,-0.000150736,0.000326594,-6.54649e-21,-1.75413e-21,0.0,0.00045880221755600914,0.00032664733762688414,0.0,-0.00010697427784389646,0.0,-0.00015072463989995732
9,0.00075887,53.2344,3.82206,-3.7446e-11,14.2641,3.63561e-16,-1.97488e-16,0.00069252,-0.000161514,-0.000227574,0.000493077,1.65923e-20,-9.5879e-21,0.0,0.0006927598473382979,0.0004931985824463414,0.0,-0.00016150095731615188,0.0,-0.0002275481070015406
10,0.0011433,80.187,5.75716,-1.89376e-10,21.486,3.56572e-16,2.06528e-16,0.00104314,-0.000243289,-0.000342794,0.000742721,2.61707e-20,7.01241e-21,0.0,0.0010436842597596474,0.0007429968855396929,0.0,-0.00024325940763114673,0.0,-0.00034273525284966855
11,0.00172,120.596,8.65843,-9.57341e-10,32.3137,2.68548e-16,-2.22946e-16,0.00156882,-0.000365891,-0.000515542,0.00111701,8.04505e-20,-9.07461e-20,0.0,0.0015700512418777013,0.001117634088019237,0.0,-0.0003658240700513682,0.0,-0.0005154091310572984
12,0.0025849,181.167,13.0072,-4.83557e-09,48.5435,-4.14362e-16,8.11735e-16,0.00235678,-0.000549663,-0.000774477,0.00167803,2.6223e-20,7.02643e-21,0.0,0.002359559389024879,0.0016794386801661787,0.0,-0.0005495119629675971,0.0,-0.0007741771700969791
13,0.0035849,251.128,18.0301,-1.06427e-08,67.2894,-6.90861e-16,3.31758e-16,0.00326689,-0.000761925,-0.00107356,0.00232604,9.0397e-23,2.42218e-23,0.0,0.0032722321009039934,0.002328747329752856,0.0,-0.0007616348088531621,0.0,-0.001072983940626382
14,0.0045849,295.877,20.6342,0.074876,77.868,0.219933,0.0596098,0.00416052,-0.000996511,-0.00148035,0.00303752,8.25409e-06,2.28696e-06,0.000353744,0.00416918697887958,0.0030421379383849256,8.254124065132373e-06,-0.000996014647800636,2.2869626150612277e-06,-0.001479254822420839
15,0.0055849,299.976,20.5979,0.075909,78.0974,0.585881,0.136428,0.00499805,-0.00122399,-0.00206837,0.00395263,2.52165e-05,6.69226e-06,0.00125886,0.005010561086896237,0.003960451944313492,2.5216817938655822e-05,-0.0012232412297669137,6.692282393139237e-06,-0.0020662323968103635
16,0.0065849,303.634,20.0243,-0.0161082,78.3937,0.791187,0.241079,0.00583581,-0.00145998,-0.00265381,0.00486535,3.80139e-05,1.27599e-05,0.00216566,0.005852871512279201,0.004877205033809728,3.8014622537385634e-05,-0.0014589147476785636,1.2759981407928223e-05,-0.0026502917591776365
17,0.0075849,307.587,20.3747,0.052316,78.6553,1.1723,0.29075,0.00667408,-0.00168661,-0.0032418,0.00576981,5.94407e-05,1.72395e-05,0.00307146,0.006696401302344945,0.005786487413458774,5.944246663336372e-05,-0.0016851884726536426,1.7239648601119484e-05,-0.0032365510399382513
18,0.0085849,311.144,20.1324,0.0110165,78.9348,1.41801,0.351929,0.0075129,-0.00192167,-0.00382777,0.00667063,7.78011e-05,2.25077e-05,0.0039787,0.007541192642086969,0.006692928205751514,7.78041265840912e-05,-0.0019198247743663632,2.2507953300276995e-05,-0.0038204534267770596
19,0.0095849,314.619,19.8493,0.0259706,79.2049,1.63182,0.453871,0.00835244,-0.0021596,-0.00441193,0.00756568,9.64294e-05,2.98419e-05,0.00488607,0.008387418945669411,0.007594372069627209,9.643404946402256e-05,-0.0021572697416971653,2.9842345274033732e-05,-0.0044022117341934175
20,0.010585,318.068,19.8557,0.00658678,79.4618,1.90309,0.499047,0.00919227,-0.00239506,-0.00499764,0.00845519,0.000118777,3.54837e-05,0.00579357,0.009234648666393896,0.00849103607620516,0.00011878405426712924,-0.002392194132229908,3.548432955402525e-05,-0.0049851725750958975
21,0.011585,321.337,19.5793,0.0117569,79.7255,2.09429,0.583377,0.0100326,-0.00263592,-0.00558083,0.00934029,0.000139542,4.3006e-05,0.00670147,0.010083095256341323,0.009384046635760424,0.00013955173643775964,-0.0026324490132944023,4.300692477121615e-05,-0.005565286097657274
22,0.012585,324.653,19.6935,0.014884,79.9691,2.36508,0.618374,0.0108732,-0.00287297,-0.00616575,0.0102197,0.000164742,4.9017e-05,0.00760913,0.010932528072808534,0.010272099484258002,0.0001647555707084969,-0.0028688469710808073,4.901820135283508e-05,-0.0061467807700021915
23,0.013585,327.709,19.3398,0.00286205,80.2263,2.51795,0.700475,0.0117143,-0.00311742,-0.00674766,0.0110956,0.000186774,5.71601e-05,0.00851744,0.011783181114157548,0.011157384470156462,0.00018679144334954323,-0.0031125658916800747,5.71617336695418e-05,-0.00672494566052384
24,0.014585,330.912,19.5726,0.0230815,80.4576,2.79297,0.724638,0.0125555,-0.00335555,-0.00733194,0.0119655,0.000214694,6.34159e-05,0.00942507,0.012634651204221026,0.01203737297441454,0.00021471704840614336,-0.0033499264339096335,6.341791083075421e-05,-0.007305126898621062
25,0.015585,333.759,19.0991,-0.00565257,80.7108,2.90003,0.809988,0.013397,-0.0036039,-0.00791233,0.0128329,0.000237406,7.2305e-05,0.0103336,0.013487141898363308,0.012915595021571136,0.00023743418303467934,-0.0035974137466706635,7.230761406962216e-05,-0.00788110991246116
26,0.016585,336.881,19.4881,0.0313907,80.9291,3.19067,0.819112,0.0142386,-0.00384237,-0.00849617,0.0136938,0.000268186,7.85709e-05,0.011241,0.014340451699383472,0.013787989525658295,0.00026822196508025087,-0.003834997541984797,7.857398677391103e-05,-0.008460179546793345
27,0.017585,339.681,19.2784,0.00339747,81.1666,3.34174,0.864101,0.0150803,-0.00408901,-0.00907732,0.0145524,0.000294998,8.63287e-05,0.0121492,0.015194581467665502,0.014658801679626299,0.0002950415161888653,-0.00408066138168095,8.63324264295251e-05,-0.00903624550687021
28,0.018585,342.451,19.0717,0.0232533,81.3982,3.4785,0.938102,0.0159223,-0.00433721,-0.00965702,0.0154066,0.000322053,9.55175e-05,0.0130571,0.01604973527449105,0.015525893510218491,0.00032210486463490895,-0.004327817888134744,9.552206194163304e-05,-0.00961054071979972
29,0.019585,345.203,19.0639,0.00449733,81.6202,3.65854,0.967506,0.0167643,-0.00458358,-0.0102378,0.0162567,0.000351607,0.000103308,0.0139649,0.016905609424043844,0.01638955912134743,0.0003516688209865837,-0.004573091428380027,0.00010331333645519081,-0.010185572110431473
30,0.020585,347.852,18.8825,0.0135162,81.8466,3.78764,1.02521,0.0176064,-0.00483338,-0.0108166,0.0171033,0.00038008,0.000112396,0.0148725,0.017762306299333286,0.01725039886414681,0.0003801522395552315,-0.004821718015387555,0.00011240231666698186,-0.01075831093468882
31,0.021585,350.522,18.9384,0.00976797,82.0604,3.96717,1.04906,0.0184485,-0.00508084,-0.0113963,0.0179458,0.000411272,0.000120418,0.0157797,0.018619724902902313,0.018107793451944465,0.00041135658392432717,-0.005067954364967431,0.00012042525053845843,-0.011331608155585648
32,0.022585,353.043,18.7235,0.00795955,82.2822,4.07605,1.10364,0.0192906,-0.00533274,-0.011974,0.0187853,0.000440568,0.0001298,0.016687,0.019477865842774555,0.018962853805913227,0.0004406650643353771,-0.005318546183898265,0.00012980842438459206,-0.01190259693956397
33,0.023585,355.635,18.8358,0.0135486,82.4886,4.25453,1.12243,0.0201326,-0.00558118,-0.0125528,0.0196206,0.000473218,0.000138014,0.0175937,0.0203366276938175,0.01981434905517898,0.00047332998530147385,-0.005565634149746312,0.00013802352437020105,-0.012474342237404401
34,0.024585,358.033,18.5705,0.00366376,82.7068,4.34014,1.177,0.0209747,-0.00583525,-0.0131292,0.0204534,0.000503056,0.000147759,0.0185006,0.021196215046456413,0.02066400419236447,0.0005031825538899248,-0.0058182579956486125,0.00014776991689879893,-0.013043388011791723
35,0.025585,360.557,18.7489,0.0164522,82.9059,4.5215,1.18883,0.0218166,-0.00608437,-0.0137072,0.0212818,0.000537148,0.00015605,0.0194066,0.02205632215118647,0.021509872563743926,0.000537292289820801,-0.0060658977039339534,0.00015606217643471254,-0.013613684102073642
36,0.026585,362.835,18.4189,-3.65203e-05,83.1214,4.58133,1.24575,0.0226585,-0.0063407,-0.0142822,0.0221083,0.000567279,0.000166207,0.0203131,0.022917153684993696,0.022354499467405198,0.000567439933161884,-0.00632064018191103,0.00016622081314876525,-0.014180693202976102
37,0.027585,365.304,18.6776,0.0189344,83.3129,4.77011,1.24887,0.0235001,-0.00659017,-0.0148594,0.0229301,0.000602837,0.000174471,0.0212183,0.02377840312446433,0.02319501571589022,0.0006030187427428224,-0.00656850245341889,0.00017448622095006527,-0.014749543920749009
38,0.028585,367.465,18.2664,-0.00357381,83.5269,4.80114,1.31037,0.0243418,-0.00684884,-0.0154329,0.0237505,0.000633011,0.000185086,0.0221242,0.0246404801605995,0.024034789334820728,0.0006332113937446149,-0.006825440146420059,0.00018510312947039864,-0.015314423062734006
39,0.029585,369.891,18.6223,0.0212748,83.7103,5.00233,1.303,0.0251831,-0.00709834,-0.0160095,0.0245661,0.000670088,0.000193223,0.0230287,0.025502872911203234,0.02487033279730899,0.0006703125591192016,-0.0070732062889919955,0.00019324166876621973,-0.015882029109846818
40,0.030585,371.934,18.1112,-0.00716188,83.9237,5.00094,1.37132,0.0260245,-0.00735949,-0.0165814,0.0253808,0.000700046,0.000204349,0.0239339,0.026366094134712803,0.02570563487153721,0.0007002910893889602,-0.007332475265649507,0.0002043698806792893,-0.01644468527053411
41,0.031585,374.33,18.5834,0.0236255,84.0987,5.21994,1.35156,0.0268654,-0.00760866,-0.0171575,0.0261902,0.000738726,0.000212257,0.0248375,0.02722952836331327,0.02653617708749434,0.0007389989252530871,-0.0075797874201232185,0.00021227952811098127,-0.017011148302006562
42,0.032585,376.253,17.9516,-0.0108989,84.3126,5.18194,1.42906,0.0277064,-0.00787245,-0.0177277,0.0269995,0.000768201,0.000223952,0.0257421,0.028093791768488918,0.027367289079716528,0.0007684961419593961,-0.007841543422173913,0.00022397707912125142,-0.017571488776993438
43,0.033585,378.633,18.5613,0.0260467,84.4784,5.42451,1.39485,0.0285469,-0.00812093,-0.0183033,0.027803,0.000808592,0.000231526,0.0266447,0.028958267845650143,0.02819311042578776,0.0008089189986415501,-0.008088044328923405,0.00023155280421294222,-0.01813681191244665
44,0.034585,380.629,18.3133,-0.00269215,84.674,5.46862,1.4254,0.0293873,-0.00838027,-0.0188749,0.028606,0.000842267,0.000241483,0.027548,0.029823367838047954,0.02901908107629314,0.000842621806456556,-0.00834525342176251,0.00024151215936685233,-0.018697884540923804
45,0.035585,382.653,18.1418,0.018154,84.8653,5.52031,1.47504,0.0302275,-0.00863973,-0.0194454,0.0294059,0.000876352,0.000252343,0.0284506,0.030688989028244906,0.02984252273082988,0.0008767361086106096,-0.008602514786349658,0.0002523748411731308,-0.019257557735834596
46,0.036585,384.678,18.1307,-0.000458215,85.0482,5.61125,1.48682,0.0310673,-0.00889738,-0.0200166,0.030203,0.00091217,0.000261919,0.0293528,0.031554925196935146,0.03066373745734663,0.0009125861535790314,-0.008857915445012243,0.00026195330377620785,-0.019817597856170543
47,0.037585,386.653,18.0154,0.00963652,85.2343,5.67082,1.51991,0.0319069,-0.00915705,-0.0205864,0.0309977,0.000947102,0.000272378,0.0302544,0.03242138239996528,0.031483131472592074,0.0009475506427247815,-0.00911525189738438,0.0002724150982555962,-0.020375946700219805
48,0.038585,388.643,18.0482,0.00288763,85.4124,5.7643,1.5292,0.0327462,-0.00941511,-0.0211566,0.0317897,0.000983591,0.000282023,0.0311556,0.03328825739941976,0.032300389704258414,0.0009840748842626645,-0.009370926624350795,0.000282062772225089,-0.02093436911405122
49,0.039585,390.553,17.9256,0.00551335,85.5953,5.81639,1.55895,0.0335852,-0.00967566,-0.0217252,0.0325795,0.00101881,0.000292504,0.0320563,0.034155550025759096,0.03311602260308022,0.0010193291632025758,-0.009629001407266524,0.00029254678346624097,-0.021490907592889075
50,0.040585,392.499,17.9808,0.00441264,85.7696,5.90806,1.56689,0.0344239,-0.00993425,-0.0222944,0.0333664,0.00105576,0.00030223,0.0329564,0.035023260108925536,0.03392930154389995,0.0010563175107707323,-0.009885068334192337,0.0003022756760879819,-0.022047716485443125
51,0.041585,394.348,17.8433,0.00296918,85.9498,5.95095,1.59541,0.0352623,-0.0101957,-0.0228619,0.0341515,0.00109113,0.000312789,0.0338562,0.03589138747834242,0.034741358169659176,0.0010917254989075698,-0.010143900045826548,0.000312837923579945,-0.02260254695830033
52,0.042585,396.251,17.9192,0.00492472,86.1202,6.04123,1.6011,0.0361003,-0.0104548,-0.02343,0.0349337,0.00112849,0.000322546,0.0347553,0.03675982828692659,0.03555104948901122,0.0011291269844277974,-0.010400338538283371,0.0003225980235541659,-0.023157648759777327
53,0.043585,398.042,17.7649,0.00122642,86.298,6.07468,1.62936,0.036938,-0.0107172,-0.0239964,0.0357141,0.00116394,0.000333201,0.0356541,0.037628685865269906,0.03635950894788231,0.0011646176410473608,-0.010659975423601753,0.00033325651761928476,-0.023710775607209245
54,0.044585,399.904,17.862,0.00487849,86.4647,6.1643,1.63228,0.0377753,-0.0109767,-0.0245635,0.0364918,0.00120168,0.000342953,0.036552,0.03849785619132273,0.03716579922332652,0.001202402306709427,-0.01091667585165823,0.0003430118151035444,-0.024264272267550457
55,0.045585,401.64,17.6898,-0.000123625,86.6403,6.18827,1.66087,0.0386123,-0.0112399,-0.0251287,0.0372678,0.00123716,0.000353711,0.0374498,0.03936744276817006,0.037970952242491585,0.0012379255981227466,-0.011176968326581771,0.00035377356311205865,-0.02481560228032642
56,0.046585,403.465,17.809,0.00452551,86.8033,6.2779,1.66074,0.0394489,-0.0114997,-0.0256948,0.0380409,0.00127525,0.000363432,0.0383467,0.04023734139865032,0.03877371785473427,0.0012760634770401236,-0.011433831182280807,0.00036349804941049335,-0.02536749793907045
57,0.047585,405.148,17.6176,-0.00126673,86.9769,6.2924,1.69004,0.0402851,-0.0117638,-0.0262589,0.0388127,0.00131069,0.000374294,0.0392434,0.041107551647726615,0.039575752875676384,0.0013115493295352554,-0.011694877034843398,0.0003743640567395179,-0.02591713309431265
58,0.048585,406.937,17.7597,0.00399589,87.1364,6.38262,1.6867,0.0411209,-0.0120239,-0.026824,0.0395815,0.00134909,0.000383965,0.0401392,0.04197807307962398,0.04037528601564566,0.0013500004312858582,-0.011951901769810869,0.0003840387239961718,-0.02646743182085154
59,0.049585,408.57,17.5483,-0.00229022,87.3081,6.38771,1.71699,0.0419564,-0.0122887,-0.0273868,0.0403491,0.00138446,0.000394927,0.0410348,0.042849009542725636,0.04117418466326561,0.001385418807171579,-0.01221350226878759,0.0003950049939345224,-0.02701518179892093
60,0.050585,410.327,17.7139,0.00335245,87.4641,6.47898,1.71036,0.0427913,-0.012549,-0.027951,0.0411138,0.00142315,0.000404532,0.0419294,0.043720047745093416,0.04197067506156804,0.0014241631585296677,-0.012470589632775031,0.0004046138341040617,-0.027563985001408553
61,0.051585,411.911,17.4819,-0.0032334,87.6341,6.47481,1.74182,0.043626,-0.0128146,-0.0285126,0.0418774,0.00145839,0.000415589,0.042824,0.044591604562581155,0.04276662772509643,0.0014594539678598473,-0.012732842615430728,0.00041567536907272107,-0.028109951745620365
62,0.052585,413.638,17.671,0.00262463,87.7867,6.56748,1.73189,0.0444601,-0.0130751,-0.0290758,0.0426379,0.00149733,0.000425118,0.0437174,0.04546326189410088,0.043559953369321835,0.0014984515582754376,-0.012989992214739954,0.0004252083754632263,-0.02865716611076763
63,0.053585,415.176,17.4184,-0.00411253,87.9551,6.55424,1.76464,0.0452939,-0.0133415,-0.0296362,0.0433976,0.00153242,0.000436264,0.0446108,0.04633533267765433,0.04435304708440002,0.0015335947555246143,-0.01325289666038687,0.00043635917697915083,-0.029201354139151814
64,0.054585,416.874,17.6308,0.00182605,88.1043,6.64852,1.75144,0.0461272,-0.013602,-0.0301985,0.0441542,0.00157158,0.000445706,0.045503,0.04720760729311824,0.045143503591813294,0.0015728155790337706,-0.01350991080326136,0.0004458053416778185,-0.029747080772297374
65,0.055585,418.368,17.3577,-0.0049336,88.2712,6.62653,1.78554,0.0469602,-0.0138691,-0.0307577,0.0449101,0.0016065,0.000456932,0.0463953,0.0480802946538168,0.045933826230988295,0.0016077911124230404,-0.013773367119928381,0.00045703640932837075,-0.030289494531707817
66,0.056585,420.038,17.5927,0.000963529,88.4173,6.72252,1.76916,0.0477926,-0.0141297,-0.031319,0.0456629,0.00164584,0.000466282,0.0472863,0.04895307989390818,0.04672150165920774,0.0016471951379974925,-0.014030344294876707,0.0004663907263502409,-0.030833640309628096
67,0.057585,421.49,17.3,-0.00569872,88.5827,6.69216,1.80461,0.0486246,-0.0143974,-0.031877,0.0464151,0.00168055,0.000477579,0.0481774,0.049826172012336745,0.04750914176706278,0.0016819629155320204,-0.01429425304594667,0.0004776930590073558,-0.03137428428463829
68,0.058585,423.134,17.5565,4.16466e-05,88.7257,6.78981,1.78518,0.0494561,-0.0146582,-0.0324374,0.0471641,0.00172005,0.000486833,0.0490672,0.050699465495815055,0.04829402001445682,0.0017215301345148148,-0.01455129158546975,0.00048695152241773343,-0.03191695006657114
69,0.059585,424.546,17.2454,-0.00640928,88.8896,6.75159,1.82194,0.0502873,-0.0149264,-0.0329942,0.0479127,0.00175455,0.000498191,0.0499572,0.051573169952804365,0.04907906672416118,0.001756090123460785,-0.014815553489961109,0.0004983151177468947,-0.03245582867104835
70,0.060585,426.165,17.5217,-0.000935057,89.0297,6.85072,1.79964,0.0511178,-0.0151872,-0.0335536,0.0486581,0.00179416,0.000507348,0.0508457,0.05244686422177769,0.04986134177818946,0.0017957704680544584,-0.01507245609205543,0.0005074767227646326,-0.03299692152270883
71,0.061585,427.54,17.194,-0.00706746,89.1922,6.80523,1.83758,0.051948,-0.015456,-0.0341093,0.0494032,0.00182843,0.000518754,0.0517345,0.05332096839889333,0.05064388496420835,0.0018301025973861407,-0.015337169036844234,0.0005188885761258089,-0.033534135854592195
72,0.062585,429.134,17.4879,-0.00196109,89.3295,6.90555,1.81264,0.0527776,-0.0157169,-0.0346677,0.050145,0.00186812,0.000527814,0.0526218,0.05419516604132135,0.05142354173702013,0.0018698660232583375,-0.015594034059943307,0.0005279533183195628,-0.03407365974404197
73,0.063585,430.473,17.1458,-0.00767685,89.4906,6.85347,1.85161,0.0536069,-0.0159861,-0.0352222,0.0508867,0.00190216,0.000539255,0.0535093,0.05506977269804447,0.052203671853416456,0.001903970253948284,-0.01585900047989408,0.0005394004241165984,-0.034609117430350556
74,0.064585,432.043,17.455,-0.00302965,89.6253,6.95459,1.8243,0.0544355,-0.0162471,-0.0357796,0.0516251,0.00194188,0.000548222,0.0543954,0.055944365805586926,0.052980905964232106,0.0019437666699984035,-0.01611582776335041,0.0005483723011454611,-0.035147076365211305
75,0.065585,433.349,17.1009,-0.00824257,89.7848,6.89667,1.86409,0.0552639,-0.0165167,-0.0363331,0.0523634,0.0019757,0.000559684,0.0552817,0.05681947253738362,0.053758608820788645,0.00197765298120145,-0.01638104718300115,0.0005598406523137367,-0.03568097468845166
76,0.066585,434.895,17.4225,-0.00413267,89.9171,6.99809,1.83471,0.0560915,-0.0167778,-0.0368895,0.0530984,0.00201541,0.000568562,0.0561665,0.05769445835204423,0.054533406101392234,0.0020174423038132883,-0.016637836566268827,0.0005687236620106617,-0.03621737255441049
77,0.067585,436.169,17.0593,-0.00877115,90.0751,6.93516,1.87508,0.0569188,-0.0170477,-0.0374418,0.0538334,0.00204901,0.000580029,0.0570515,0.05856985103369339,0.05530877306733073,0.002051110655499677,-0.016903210200396757,0.0005801972493486574,-0.036749522732749895
78,0.068585,437.692,17.3903,-0.00526102,90.2051,7.0363,1.84398,0.0577455,-0.0173089,-0.0379972,0.0545651,0.00208866,0.000588826,0.0579351,0.05944533255997064,0.05608122506368374,0.0020908427697212684,-0.01715996154870658,0.00058899939206003,-0.03728436350879216
79,0.069585,438.938,17.021,-0.00927021,90.3616,6.96924,1.88464,0.0585718,-0.0175791,-0.0385484,0.0552969,0.00212206,0.000600282,0.0588189,0.060321114017544364,0.05685434815542201,0.0021243131628221334,-0.017425489052714793,0.0006004622052959707,-0.03781486614766727
80,0.070585,440.436,17.3583,-0.00640484,90.4895,7.06946,1.85217,0.0593975,-0.0178404,-0.0391028,0.0560254,0.00216161,0.000609005,0.0597011,0.0611969827140173,0.057624547058940934,0.0021639479631807568,-0.017682202231387945,0.0006091904811960092,-0.038348153744893865
81,0.071585,441.656,16.986,-0.00974809,90.6443,6.99917,1.89283,0.0602228,-0.0181109,-0.0396529,0.0567541,0.00219481,0.000620434,0.0605836,0.06207315008458547,0.05839551893587047,0.0021972203585718386,-0.017947883260705066,0.0006206265089852003,-0.03887701294945811
82,0.072585,443.129,17.3261,-0.00755396,90.7703,7.09783,1.85936,0.0610474,-0.0183722,-0.0402063,0.0574795,0.00223421,0.000629092,0.0614646,0.062949296789786,0.05916355757924352,0.0022367077069496144,-0.018204459955604047,0.0006292899198734325,-0.03940875126492949
83,0.073585,444.325,16.9543,-0.0102134,90.9234,7.0252,1.89971,0.0618717,-0.0186428,-0.0407554,0.0582051,0.00226724,0.000640476,0.0623459,0.06382584711571404,0.05993236554642234,0.002269812132121851,-0.018470097886307046,0.0006406811485484276,-0.03993606713178932
84,0.074585,445.774,17.2939,-0.0086983,91.0477,7.12161,1.86561,0.0626952,-0.0189044,-0.0413077,0.0589274,0.00230645,0.000649079,0.0632256,0.06470226851779737,0.06069823125315943,0.0023091119019225115,-0.018726832526344994,0.000649289697358002,-0.040466164042175845
85,0.075585,446.948,16.9256,-0.0106747,91.199,7.04754,1.90534,0.0635185,-0.0191751,-0.0418558,0.0596499,0.00233931,0.000660403,0.0641055,0.06557919883429908,0.06146486263747852,0.0023420483204819043,-0.018992427222916053,0.0006606211140729457,-0.040991940435481156
86,0.076585,448.372,17.2615,-0.00982825,91.3217,7.14104,1.87098,0.064341,-0.0194368,-0.0424071,0.0603693,0.0023783,0.000668959,0.0649839,0.06645599825967397,0.06222875519886917,0.002381130398846132,-0.019249123314563188,0.000669182802974122,-0.04152049586902673
87,0.077585,449.526,16.8998,-0.0111398,91.4711,7.06638,1.90977,0.0651632,-0.0197075,-0.0429541,0.0610888,0.00241101,0.000680208,0.0658626,0.06733319894923007,0.06299330380161194,0.002413918821873251,-0.019514576646152526,0.0006804393939239262,-0.04204464079108117
88,0.078585,450.925,17.2291,-0.010935,91.5925,7.15635,1.87551,0.0659847,-0.0199694,-0.0435043,0.0618053,0.00244973,0.000688726,0.0667397,0.06821037342225056,0.0637552114245965,0.0024527330402484004,-0.019771332154927435,0.0006889632262097045,-0.04257156286016417
89,0.079585,452.06,16.8769,-0.011616,91.7399,7.0819,1.91308,0.0668058,-0.0202401,-0.0440503,0.0625219,0.0024823,0.000699884,0.067617,0.06908784115494582,0.06451777160178263,0.002485383457472734,-0.0200366441437152,0.00070012897595495,-0.04309417610044475
90,0.080585,453.434,17.1965,-0.012011,91.8601,7.16774,1.87924,0.0676262,-0.0205022,-0.0445995,0.0632355,0.00252072,0.000708373,0.0684928,0.06996528069631536,0.06527768258759026,0.0025238996857970264,-0.020293458882243542,0.0007086239554068285,-0.04361956449407178
91,0.081585,454.553,16.8564,-0.0121091,92.0055,7.09424,1.91532,0.0684463,-0.0207728,-0.0451445,0.0639493,0.00255317,0.000719428,0.0693688,0.07084311913146468,0.06603834924705487,0.0025564321141777757,-0.020558531606312935,0.0007196868503946963,-0.04414064982277244
92,0.082585,455.902,17.164,-0.0130498,92.1247,7.17544,1.88221,0.0692656,-0.0210351,-0.0456925,0.0646601,0.00259125,0.000727896,0.0702434,0.07172082040019712,0.06679635867033418,0.002594610190018498,-0.020815405413000088,0.0007281609805822598,-0.04466431724868991
93,0.083585,457.006,16.8383,-0.0126237,92.268,7.10353,1.91655,0.0700846,-0.0213057,-0.0462367,0.065371,0.00262359,0.000738834,0.071118,0.07259891928451512,0.06755501383373996,0.002627034624012259,-0.021080336917446152,0.0007391070050708493,-0.045184069489831225
94,0.084585,458.329,17.1317,-0.0140466,92.3862,7.17966,1.88444,0.0709029,-0.0215682,-0.0467836,0.0660791,0.00266131,0.000747287,0.0719913,0.07347698619224374,0.068311217241255,0.0026648544290355236,-0.021337269605114728,0.0007475662884954826,-0.04570611555571846
95,0.085585,459.42,16.8223,-0.0131631,92.5274,7.10989,1.91684,0.0717207,-0.0218386,-0.0473267,0.0667872,0.00269355,0.000758099,0.0728646,0.07435523473843486,0.06906795630603013,0.0026971808650415596,-0.02160186423260768,0.0007583864296756282,-0.046224251851713305
96,0.086585,460.718,17.0997,-0.0149981,92.6448,7.18059,1.88595,0.0725379,-0.0221013,-0.0478726,0.0674926,0.00273087,0.000766542,0.0737366,0.07523355666972442,0.06982234288327294,0.002734602222109528,-0.02185885566557111,0.0007668358684016496,-0.04674477594265025
97,0.087585,461.796,16.8081,-0.0137291,92.7839,7.11343,1.91624,0.0733547,-0.0223715,-0.0484148,0.068198,0.00276301,0.000777219,0.0746086,0.07611216621410222,0.07057726179253887,0.0027668306301327217,-0.022123113699902053,0.0007775211129512627,-0.04726149083106912
98,0.088585,463.068,17.0681,-0.0159022,92.9005,7.17844,1.88676,0.0741708,-0.0226345,-0.0489595,0.0689007,0.00279993,0.000785657,0.0754792,0.07699073980614157,0.07132982081504591,0.00280385346495704,-0.0223802615045805,0.0007859657093021166,-0.04778030618482432
99,0.089585,464.136,16.7954,-0.0143219,93.0375,7.11425,1.91482,0.0749864,-0.0229045,-0.0495008,0.0696034,0.00283198,0.00079619,0.0763498,0.07786949175986169,0.07208290884662372,0.0028359938435074117,-0.022644183202941592,0.0007965070433946231,-0.04829560322735982
100,0.090585,465.383,17.0371,-0.0167587,93.1535,7.17339,1.8869,0.0758014,-0.0231677,-0.0500444,0.0703036,0.00286847,0.000804626,0.0772192,0.07874831346684696,0.07283384417117467,0.002872587996578968,-0.02290138940410169,0.0008049497983395604,-0.0488128091481399
101,0.091585,466.44,16.7841,-0.0149406,93.2883,7.11242,1.91264,0.076616,-0.0234374,-0.0505848,0.0710037,0.00290042,0.000815011,0.0780885,0.07962741985441624,0.07358519812624187,0.002904630287638321,-0.02316487736643058,0.0008153432117110615,-0.04932669184246641
102,0.092585,467.663,17.0069,-0.0175682,93.4036,7.16563,1.88636,0.0774298,-0.0237009,-0.0511273,0.0717013,0.00293647,0.000823444,0.0789565,0.08050637824835527,0.07433439244905182,0.002940785651256661,-0.02342223951229272,0.0008237831230870629,-0.04984229224288783
103,0.093585,468.71,16.7739,-0.0155832,93.5364,7.10805,1.90974,0.0782432,-0.0239704,-0.0516668,0.0723988,0.00296833,0.000833678,0.0798244,0.0813856196754339,0.07508400208375421,0.002972739853715378,-0.023685391757386376,0.0008340256060943574,-0.05035476407451622
104,0.094585,469.909,16.9775,-0.0183325,93.6512,7.15531,1.88517,0.079056,-0.0242341,-0.0522082,0.073094,0.00300394,0.000842109,0.0806912,0.0822649272092788,0.0758316603378999,0.0030084563489098937,-0.023942811977232248,0.0008424636733348478,-0.05086876285322184
105,0.095585,470.947,16.7645,-0.0162468,93.7818,7.10119,1.90619,0.0798683,-0.0245032,-0.0527468,0.0737888,0.00303569,0.000852188,0.0815577,0.08314440816248081,0.07657940791292916,0.003040302372951942,-0.024205433629201134,0.0008525512153623183,-0.05137982729554025
106,0.096585,472.122,16.9491,-0.0190543,93.896,7.14259,1.88335,0.0806799,-0.0247672,-0.053287,0.0744816,0.00307085,0.000860617,0.0824232,0.0840238449913373,0.07732552055030606,0.003075569889982699,-0.02446300939322621,0.0008609874370708592,-0.051892133526463935
107,0.097585,473.151,16.7558,-0.0169278,94.0246,7.09195,1.90201,0.0814911,-0.025036,-0.0538247,0.0751739,0.00310249,0.000870541,0.0832884,0.08490356189933101,0.07807161123767559,0.0031073077031036345,-0.024725198496507117,0.0008709200307956966,-0.05240179409174428
108,0.098585,474.304,16.9218,-0.0197369,94.1384,7.12763,1.88089,0.0823016,-0.0253002,-0.0543639,0.0758642,0.0031372,0.000878964,0.0841525,0.0857832326746768,0.07881606098818272,0.0031421261620248053,-0.0249828320641714,0.0008793504020594423,-0.05291260131836584
109,0.099585,475.324,16.7477,-0.017622,94.265,7.08038,1.89728,0.0831116,-0.0255688,-0.0549007,0.0765541,0.00316872,0.000888734,0.0850163,0.08666307338052381,0.07956059298544016,0.003173745700162822,-0.025244686506853076,0.0008891290410815156,-0.05342086140476621
110,0.1006,476.455,16.8957,-0.0203839,94.3782,7.11056,1.87783,0.083921,-0.0258331,-0.0554387,0.077242,0.00320297,0.000897148,0.0858791,0.08754297452007176,0.08030347820343064,0.0032081049893524227,-0.025502280293690838,0.0008975505576425125,-0.0539299840150681
111,0.1016,477.467,16.7399,-0.0183252,94.5029,7.06657,1.89201,0.0847299,-0.0261014,-0.0559746,0.0779295,0.00323436,0.000906764,0.0867416,0.08842304392824607,0.08104644220930868,0.0032395961860198774,-0.025763702960469037,0.0009071752347640238,-0.054436847110537534
112,0.1026,478.576,16.8709,-0.0209993,94.6156,7.09151,1.87416,0.0855381,-0.0263659,-0.0565116,0.0786151,0.00326817,0.000915166,0.0876031,0.08930306300015434,0.08178786177967434,0.0032735162901829096,-0.026021354385132978,0.0009155848921793552,-0.05494447821248949
113,0.1036,479.58,16.7324,-0.019033,94.7383,7.05059,1.88625,0.0863459,-0.0266338,-0.0570466,0.0793001,0.00329942,0.000924631,0.0884642,0.09018335751753259,0.08252914032390923,0.0033048690774517553,-0.026282248315990797,0.0009250586030244978,-0.05544994769150369
114,0.1046,480.668,16.8473,-0.0215868,94.8505,7.07058,1.86992,0.087153,-0.0268985,-0.0575825,0.0799834,0.00333278,0.000933014,0.0893244,0.09106359967932609,0.08326908525888954,0.0033383398861741576,-0.026539957295573458,0.0009334493929609167,-0.055955996456658275
115,0.1056,481.664,16.7251,-0.0197411,94.9715,7.03253,1.88003,0.0879596,-0.0271662,-0.0581166,0.0806661,0.00336387,0.000942332,0.0901842,0.09194400659920521,0.0840088855654968,0.003369534160073684,-0.02680051767144309,0.0009427761342954977,-0.05646007573259715
116,0.1066,482.733,16.825,-0.0221502,95.0831,7.04788,1.86512,0.0887655,-0.0274309,-0.0586514,0.0813471,0.00339679,0.000950693,0.091043,0.09282435896446195,0.08474734703415776,0.0034025656288332318,-0.027058089483282144,0.0009511450518329134,-0.0569645459767284
117,0.1076,483.72,16.7178,-0.0204456,95.2024,7.01245,1.87338,0.089571,-0.0276983,-0.0591846,0.0820274,0.00342771,0.000959867,0.0919014,0.09370498360956891,0.08548555172620054,0.0034335913158172193,-0.027318219369238617,0.000960327819758966,-0.05746723845109025
118,0.1086,484.77,16.804,-0.022693,95.3134,7.02351,1.85977,0.0903758,-0.0279632,-0.0597184,0.0827062,0.0034602,0.000968199,0.0927589,0.09458555167343796,0.08622262945459136,0.003466193402817064,-0.027575848648423107,0.0009686678559548412,-0.057970228179302974
119,0.1096,485.749,16.7106,-0.0211428,95.431,6.99045,1.86632,0.0911801,-0.0282303,-0.0602507,0.0833842,0.00349094,0.000977233,0.0936159,0.09546628097045717,0.08695933811337575,0.0034970404277185896,-0.027835548454796077,0.0009777106477464326,-0.05847153719161269
120,0.1106,486.782,16.7843,-0.0232182,95.5415,6.99755,1.8539,0.0919838,-0.0284952,-0.0607834,0.0840608,0.00352301,0.000985531,0.0944721,0.09634706111456359,0.08769502365589665,0.003529223093851508,-0.028093040711655193,0.0009860167952515653,-0.05897295583903672
121,0.1116,487.752,16.7034,-0.0218295,95.6575,6.96659,1.85889,0.0927869,-0.0287621,-0.0613147,0.0847366,0.00355354,0.000994429,0.0953278,0.09722789108927854,0.08843033638707021,0.003559861308722434,-0.028352408064976298,0.0009949236084554336,-0.0594727907147069
122,0.1126,488.767,16.7659,-0.0237287,95.7673,6.97008,1.84752,0.0935894,-0.029027,-0.0618464,0.0854109,0.0035852,0.00100269,0.0961827,0.09810876987721717,0.08916451246254176,0.0035916345168987007,-0.02860976342385768,0.0010031928616753838,-0.059972736109622615
123,0.1136,489.728,16.6961,-0.0225031,95.8818,6.94095,1.85109,0.0943914,-0.0292936,-0.0623769,0.0860845,0.00361553,0.00101145,0.097037,0.09898980635906396,0.08989842083072475,0.0036220739127847956,-0.028868701542943853,0.0010119616880523985,-0.060471288320450234
124,0.1146,490.727,16.7487,-0.0242266,95.991,6.94117,1.84066,0.0951928,-0.0295586,-0.0629075,0.0867567,0.00364678,0.00101967,0.0978905,0.09987088979285641,0.09063129684123838,0.0036534375926493556,-0.02912601724119912,0.001020190040195823,-0.06096967002250908
125,0.1156,491.68,16.6889,-0.0231613,96.104,6.91362,1.84295,0.0959936,-0.029825,-0.0634371,0.0874281,0.00367688,0.00102831,0.0987435,0.10075201915851295,0.09136379256523597,0.003683648015785579,-0.02938462362230676,0.001028838892000783,-0.06146684882069886
126,0.1166,492.664,16.7326,-0.0247137,96.2125,6.91089,1.83334,0.0967938,-0.0300899,-0.0639667,0.0880981,0.00370774,0.00103647,0.0995957,0.10163319343505206,0.09209525131757412,0.0037146221710919747,-0.0296417055835001,0.0010370073206533714,-0.06196376438270823
127,0.1176,493.607,16.6816,-0.0238023,96.3242,6.88467,1.83449,0.0975934,-0.030356,-0.0644953,0.0887673,0.00373759,0.00104499,0.100447,0.10251441160059405,0.09282632605007834,0.0037445834997344996,-0.029899883573539343,0.001045536192288532,-0.06245947930785811
128,0.1186,494.576,16.7177,-0.0251915,96.432,6.87929,1.82558,0.0983925,-0.030621,-0.0650239,0.0894353,0.00376807,0.0010531,0.101298,0.10339578297193475,0.09355657791284733,0.0037751781008990015,-0.030156926044760612,0.0010536547045076894,-0.06295493226734228
129,0.1196,495.511,16.6744,-0.0244248,96.5424,6.85418,1.82571,0.099191,-0.0308869,-0.0655516,0.0901024,0.00379767,0.0010615,0.102148,0.1042771963621012,0.09428633288868205,0.003804890285908913,-0.03041477303584872,0.0010620635905245202,-0.06344928050433085
130,0.1206,496.466,16.7038,-0.0256609,96.6494,6.84643,1.8174,0.0999888,-0.0311517,-0.0660793,0.0907682,0.00382777,0.00106955,0.102998,0.10515854023068116,0.09501515132585392,0.003835105267839589,-0.0306714852137564,0.0010701221725721854,-0.0639433679425725
131,0.1216,497.391,16.6671,-0.025028,96.7586,6.82221,1.81662,0.100786,-0.0314174,-0.066606,0.0914332,0.00385711,0.00107783,0.103847,0.10603992389180172,0.09574357857670246,0.0038645582219010155,-0.030929001587569838,0.0010784110674997294,-0.0644362591563814
132,0.1226,498.332,16.6909,-0.0261225,96.8649,6.81236,1.80882,0.101583,-0.0316822,-0.0671327,0.092097,0.00388684,0.00108581,0.104695,0.10692178908774341,0.09647117462657384,0.003894403558865722,-0.03118557761578411,0.0010863997050947205,-0.06492889083274334
133,0.1236,499.249,16.66,-0.0256113,96.9729,6.78884,1.80725,0.102379,-0.0319477,-0.0676585,0.0927599,0.00391591,0.00109398,0.105543,0.10780324960660148,0.09719826633615503,0.003923587193359168,-0.031442763701963417,0.0010945786143909952,-0.06542042198707865
134,0.1246,500.177,16.6789,-0.0265767,97.0784,6.77713,1.79987,0.103175,-0.0322124,-0.0681841,0.0934217,0.00394527,0.0011019,0.10639,0.10868541204736037,0.09792463247686123,0.003953062822579234,-0.03169910687389599,0.0011025073148511755,-0.06591150794458722
135,0.1256,501.085,16.6529,-0.0261744,97.1853,6.75415,1.7976,0.10397,-0.0324776,-0.0687091,0.0940825,0.00397406,0.00110996,0.107236,0.10956716740125039,0.09865038083485089,0.003981967047332224,-0.03195586622295843,0.001110576233577909,-0.06640177569637062
136,0.1266,502.001,16.6677,-0.0270235,97.2901,6.74078,1.79055,0.104764,-0.0327423,-0.0692337,0.0947423,0.00400306,0.00111781,0.108081,0.11044851358029728,0.09937550954978258,0.004011082946555167,-0.03221207359462763,0.001118434982446903,-0.06689141288177736
137,0.1276,502.899,16.6459,-0.0267174,97.3958,6.71818,1.78769,0.105558,-0.0330073,-0.0697577,0.0954011,0.00403157,0.00112577,0.108926,0.11133055982610007,0.10010001676194547,0.0040397077105740475,-0.032468503416672956,0.0011264039169056606,-0.06738023369918822
138,0.1286,503.804,16.6573,-0.0274629,97.4998,6.70336,1.7809,0.106351,-0.0332718,-0.0702814,0.0960589,0.00406022,0.00113354,0.10977,0.11221219448198205,0.10082390061226776,0.004068473860272981,-0.03272438165613034,0.0011341826992845583,-0.06786851880218592
139,0.1296,504.692,16.6391,-0.0272405,97.6045,6.68101,1.77751,0.107144,-0.0335366,-0.0708045,0.0967157,0.00408843,0.00114139,0.110614,0.11309452855142688,0.10154715924232383,0.004096799031445331,-0.03298048233064199,0.0011420416334650962,-0.06835598927098374
140,0.1306,505.586,16.6477,-0.0278946,97.7077,6.66491,1.77093,0.107936,-0.033801,-0.0713272,0.0973715,0.00411673,0.00114909,0.111457,0.11397644861228406,0.10226979079434195,0.0041252153729471885,-0.03323612849320179,0.0011497504568647177,-0.06884283234786925
141,0.1316,506.466,16.6324,-0.027744,97.8114,6.6427,1.76708,0.108727,-0.0340656,-0.0718494,0.0980264,0.00414465,0.00115684,0.112299,0.1148579525719906,0.10299190371039857,0.004153250940335029,-0.03349190037349048,0.0011575093974964812,-0.06932895568296749
142,0.1326,507.348,16.6387,-0.0283181,97.9138,6.62547,1.76065,0.109518,-0.0343299,-0.0723711,0.0986802,0.00417259,0.00116446,0.113141,0.11574015407717231,0.1037132756078214,0.004181307374113041,-0.03374731470973036,0.0011651382467841032,-0.06981436013802622
143,0.1336,508.219,16.6259,-0.0282284,98.0166,6.60331,1.75641,0.110308,-0.0345943,-0.0728923,0.0993331,0.00420021,0.00117211,0.113981,0.1166219370573105,0.1044341253012413,0.004209043244853161,-0.034002758148610424,0.0011727971893868983,-0.07029904657326513
144,0.1346,509.091,16.6304,-0.0287331,98.1182,6.58508,1.75009,0.111098,-0.0348583,-0.0734132,0.099985,0.00422782,0.00117965,0.114822,0.11750441692123559,0.10515434063620765,0.004236769839301102,-0.0342577477603494,0.0011803460607369143,-0.07078320169075736
145,0.1356,509.952,16.6196,-0.0286942,98.22,6.56288,1.74551,0.111887,-0.0351225,-0.0739335,0.100636,0.00425513,0.00118721,0.115661,0.1183864758326687,0.10587403034554499,0.004264195919986946,-0.034512863161162755,0.0011879150127638294,-0.07126654743761762
146,0.1366,510.814,16.6226,-0.0291391,98.3208,6.54377,1.73926,0.112676,-0.0353865,-0.0744534,0.101286,0.00428239,0.00119466,0.1165,0.1192692309632053,0.10659308213178353,0.004291572535109145,-0.034767718122953095,0.0011953738905150502,-0.07174927046488078
147,0.1376,511.667,16.6136,-0.029142,98.4217,6.52148,1.73438,0.113464,-0.0356505,-0.0749727,0.101935,0.00430939,0.00120212,0.117338,0.12015156271025607,0.10731149414156804,0.004318688773635282,-0.03502250581191391,0.0012028428358632492,-0.07223118592854827
148,0.1386,512.519,16.6153,-0.0295356,98.5218,6.50158,1.72817,0.114251,-0.0359142,-0.0754917,0.102583,0.00433633,0.00120949,0.118176,0.12103346897470524,0.10802926452225892,0.004345745483562924,-0.0352769368289273,0.0012102217280061112,-0.0727125730122975
149,0.1396,513.364,16.6077,-0.0295723,98.6218,6.47915,1.72303,0.115038,-0.036178,-0.0760101,0.10323,0.00436301,0.00121686,0.119013,0.12191606957256895,0.10874639142194042,0.004372541785513606,-0.035531397208192095,0.0012176006745316936,-0.07319315423703188
150,0.1406,514.206,16.6086,-0.0299221,98.721,6.45855,1.71685,0.115824,-0.0364416,-0.0765281,0.103877,0.00438961,0.00122414,0.119849,0.12279824225169911,0.10946398245285649,0.004399258450455079,-0.03578559762680089,0.0012248895651962854,-0.07367311586234404
151,0.1416,515.042,16.6021,-0.0299858,98.8202,6.43594,1.71148,0.11661,-0.0367052,-0.0770456,0.104522,0.00441598,0.00123142,0.120684,0.12368110859112758,0.11017981755354134,0.004425744808121523,-0.03603973104701019,0.0012321785089239867,-0.07415236600821451
152,0.1426,515.875,16.6023,-0.0302983,98.9187,6.41471,1.70529,0.117395,-0.0369686,-0.0775627,0.105166,0.00444225,0.00123862,0.121519,0.12456354457217933,0.11089500362124194,0.00445213141902423,-0.03629360474521859,0.0012393874065612653,-0.07463099805876983
153,0.1436,516.702,16.5968,-0.0303828,99.017,6.39188,1.69973,0.118179,-0.037232,-0.0780793,0.10581,0.0044683,0.0012458,0.122354,0.1254455480913259,0.1116106504171086,0.004478297737862569,-0.03654741158190089,0.0012465763311710898,-0.07510892022724769
154,0.1446,517.527,16.5964,-0.0306638,99.1147,6.3701,1.69352,0.118963,-0.0374952,-0.0785955,0.106453,0.00449424,0.00125291,0.123187,0.12632824337236692,0.11232564591174365,0.0045043542428573335,-0.036800958934877115,0.0012536952196362527,-0.07558622579945962
155,0.1456,518.345,16.5917,-0.030764,99.2122,6.34703,1.68778,0.119747,-0.0377583,-0.0791111,0.107094,0.00451998,0.00126,0.12402,0.12721163095785615,0.11303887521634426,0.004530210517704303,-0.03705434326841073,0.0012607941335009976,-0.0760627306879208
156,0.1466,519.161,16.5909,-0.0310181,99.3092,6.32474,1.68154,0.120529,-0.0380213,-0.0796264,0.107735,0.00454559,0.00126703,0.124852,0.12809345520160642,0.11375256184748661,0.0045559368658201205,-0.03730756467605634,0.0012678330216253642,-0.0765387129154439
157,0.1476,519.971,16.5869,-0.0311299,99.4059,6.30143,1.67566,0.121311,-0.0382843,-0.0801411,0.108375,0.00457101,0.00127403,0.125684,0.12897596930161392,0.11446559163226189,0.004581473002298164,-0.037560719495228656,0.0012748419209878126,-0.07701389614101295
158,0.1486,520.779,16.5858,-0.0313611,99.5021,6.27867,1.66937,0.122093,-0.0385471,-0.0806554,0.109014,0.00459629,0.00128097,0.126515,0.1298591737975574,0.11517796272363912,0.0046068691429417274,-0.037813615306180215,0.0012817907925031236,-0.07748846584816693
159,0.1496,521.581,16.5823,-0.0314808,99.598,6.2551,1.66335,0.122874,-0.0388098,-0.0811693,0.109652,0.0046214,0.00128788,0.127345,0.13074193848703342,0.11588967327538113,0.0046320951381368936,-0.0380663484714846,0.0012887096735823,-0.07796242273191556
160,0.1506,522.38,16.5811,-0.0316924,99.6935,6.23192,1.65702,0.123654,-0.0390724,-0.0816827,0.110289,0.00464636,0.00129473,0.128175,0.13162426126020121,0.11660072144205524,0.004657171068177757,-0.0383189190844031,0.0012955685247351134,-0.07843567532974816
161,0.1516,523.174,16.578,-0.0318171,99.7886,6.2081,1.65088,0.124434,-0.039335,-0.0821956,0.110925,0.00467114,0.00130155,0.129004,0.13250727251360428,0.11731110537903877,0.004682066781333427,-0.0385714233809864,0.0013023973837988922,-0.07890822447628354
162,0.1526,523.965,16.5767,-0.032012,99.8834,6.18453,1.64449,0.125213,-0.0395974,-0.0827081,0.111561,0.00469577,0.00130832,0.129832,0.13338983939406068,0.1180219412639103,0.004706812405379512,-0.03882366914339985,0.0013091762239754168,-0.07938016306664597
163,0.1536,524.752,16.5739,-0.0321393,99.9778,6.16044,1.63824,0.125992,-0.0398597,-0.0832202,0.112195,0.00472024,0.00131505,0.130659,0.13427309406197563,0.11873099191997905,0.004731397881881039,-0.03907575263278862,0.0013159150574075795,-0.07985149179111928
164,0.1546,525.535,16.5725,-0.0323196,100.072,6.13651,1.6318,0.12677,-0.0401218,-0.0837318,0.112829,0.00474455,0.00132173,0.131486,0.13515590189687443,0.1194404922566974,0.0047558231990521005,-0.039327577874883946,0.00132260387006089,-0.080322119371119
165,0.1556,526.314,16.5701,-0.0324476,100.165,6.11217,1.62545,0.127548,-0.0403839,-0.0842429,0.113462,0.0047687,0.00132837,0.132313,0.13603939682351296,0.12014932240937082,0.004780088345182731,-0.03957933712223227,0.001329252674224568,-0.08079204663576622
166,0.1566,527.089,16.5687,-0.0326151,100.259,6.08791,1.61895,0.128324,-0.0406459,-0.0847536,0.114094,0.00479269,0.00133496,0.133138,0.1369213055317715,0.12085748053553025,0.004804193308640015,-0.03983093437522689,0.0013358514557426648,-0.0812613662865761
167,0.1576,527.86,16.5666,-0.0327423,100.352,6.06331,1.61252,0.129101,-0.0409077,-0.0852638,0.114725,0.00481652,0.00134151,0.133963,0.1378050366712562,0.12156496479355705,0.0048281380778674166,-0.04008227373484974,0.0013424102270496174,-0.08172998718214086
168,0.1586,528.628,16.5652,-0.0328986,100.444,6.03874,1.60596,0.129876,-0.0411695,-0.0857736,0.115355,0.00484019,0.00134802,0.134788,0.13868717736004021,0.12227177334269235,0.004851922641385009,-0.040333547302440764,0.0013489289873587218,-0.08219800192758053
169,0.1596,529.392,16.5633,-0.0330237,100.537,6.01389,1.59944,0.130652,-0.0414311,-0.0862829,0.115985,0.0048637,0.00135448,0.135611,0.13957114154341643,0.12297902732150923,0.004875546987789248,-0.04058456321215398,0.0013553977223339508,-0.08266531947268463
170,0.1606,530.152,16.5619,-0.0331699,100.629,5.98904,1.59283,0.131426,-0.0416926,-0.0867918,0.116613,0.00488706,0.0013609,0.136434,0.14045351103991566,0.12368447963951001,0.004899021154744165,-0.04083541754824005,0.0013618264446235706,-0.08313203232644695
171,0.1616,530.909,16.5602,-0.033292,100.72,5.96395,1.58624,0.1322,-0.041954,-0.0873003,0.117241,0.00491025,0.00136728,0.137257,0.14133656375477655,0.12439037512070517,0.004922325033252184,-0.04108611040310928,0.0013682151534561982,-0.08359814116979192
172,0.1626,531.662,16.5589,-0.0334291,100.811,5.93883,1.57957,0.132973,-0.0422153,-0.0878083,0.117868,0.00493329,0.00137361,0.138079,0.1422191579972858,0.1250955889473373,0.004945478710350226,-0.041336641869099466,0.001374553834319947,-0.08406355508893337
173,0.1636,532.412,16.5574,-0.0335474,100.902,5.91351,1.57291,0.133746,-0.0424765,-0.0883158,0.118494,0.00495617,0.00137991,0.1389,0.14310243474890005,0.1258001192810052,0.004968472125946866,-0.0415870120384757,0.0013808625138813646,-0.08452827490209891
174,0.1646,533.158,16.5562,-0.0336762,100.993,5.88814,1.56618,0.134519,-0.0427375,-0.0888229,0.119119,0.0049789,0.00138615,0.13972,0.14398639453740336,0.12650396428420785,0.004991315318930267,-0.04183712518714788,0.0013871111499592637,-0.08499239292682514
175,0.1656,533.9,16.5548,-0.0337902,101.083,5.86259,1.55946,0.13529,-0.0429984,-0.0893296,0.119744,0.00500146,0.00139236,0.14054,0.14486874815120077,0.12720824932803576,0.00501398817875276,-0.042087077273519125,0.0013933297832282587,-0.08545590983940221
176,0.1666,534.639,16.5537,-0.0339112,101.173,5.83699,1.55268,0.136061,-0.0432593,-0.0898358,0.120367,0.00502387,0.00139852,0.141359,0.14575178232195563,0.1279107188639068,0.0050365107945926635,-0.04233696415589716,0.0013994983851390863,-0.08591873490693414
177,0.1676,535.375,16.5524,-0.0340206,101.262,5.81123,1.54589,0.136832,-0.04352,-0.0903416,0.12099,0.00504612,0.00140464,0.142177,0.1466354975745794,0.12861362617465133,0.005058873105737716,-0.04258659436862966,0.0014056269688227374,-0.08638096030416076
178,0.1686,536.107,16.5514,-0.0341342,101.352,5.7854,1.53906,0.137602,-0.0437805,-0.0908469,0.121612,0.00506822,0.00141071,0.142995,0.14751874691506806,0.12931584221668135,0.005081085152275566,-0.042835968078460684,0.0014117055194267092,-0.08684249538825983
179,0.1696,536.836,16.5503,-0.0342386,101.441,5.75943,1.53222,0.138371,-0.044041,-0.0913518,0.122233,0.00509016,0.00141675,0.143812,0.14840152821735275,0.1300173651550256,0.005103136873190195,-0.04308527683490093,0.001417754064394705,-0.08730343223903836
180,0.1706,537.562,16.5493,-0.0343454,101.529,5.7334,1.52534,0.13914,-0.0443013,-0.0918562,0.122854,0.00511194,0.00142274,0.144629,0.1492849886395473,0.13071932387441065,0.005125028257907616,-0.043334329321753406,0.001423752574706949,-0.08776368030349713
181,0.1716,538.284,16.5484,-0.0344446,101.618,5.70724,1.51845,0.139908,-0.0445616,-0.0923603,0.123473,0.00513357,0.00142868,0.145445,0.15016797853554187,0.13141945580436598,0.005146769347397884,-0.04358331698868023,0.0014297010494643825,-0.08822342274443828
182,0.1726,539.003,16.5475,-0.0345447,101.705,5.68101,1.51152,0.140676,-0.0448216,-0.0928638,0.124092,0.00515504,0.00143459,0.14626,0.15105164682824745,0.13212002125014521,0.00516835008020422,-0.04383195300218079,0.0014356195164866303,-0.08868238669721518
183,0.1736,539.719,16.5466,-0.0346386,101.793,5.65467,1.50458,0.141443,-0.0450816,-0.093367,0.12471,0.00517636,0.00144045,0.147075,0.15193484210345498,0.13281988765972375,0.005189780497875329,-0.0440805243787209,0.0014414879464113017,-0.08914084636210362
184,0.1746,540.432,16.5459,-0.0347323,101.881,5.62825,1.49761,0.142209,-0.0453415,-0.0938697,0.125327,0.00519752,0.00144627,0.147889,0.1528175622311534,0.13351905320079882,0.005211050538666884,-0.04432893556800255,0.0014473163528319066,-0.08959862018754616
185,0.1756,541.141,16.5451,-0.0348208,101.968,5.60173,1.49063,0.142975,-0.0456012,-0.0943719,0.125944,0.00521853,0.00145205,0.148702,0.15370095878150636,0.13421865026012236,0.0052321702447004625,-0.04457709111904251,0.0014531047350487825,-0.09005570897588655
186,0.1766,541.848,16.5444,-0.0349083,102.054,5.57514,1.48362,0.14374,-0.0458608,-0.0948738,0.126559,0.00523939,0.00145779,0.149515,0.1545838776883972,0.134916409268935,0.005253139606481438,-0.04482508671496688,0.0014588530923678178,-0.09051229542559736
187,0.1776,542.551,16.5438,-0.0349913,102.141,5.54846,1.47659,0.144505,-0.0461203,-0.0953752,0.127174,0.0052601,0.00146349,0.150327,0.1554674722866709,0.13561459753152016,0.0052739586145826856,-0.04507292244688743,0.00146456142409912,-0.09096819825628
188,0.1786,543.251,16.5432,-0.0350729,102.227,5.52171,1.46954,0.145269,-0.0463797,-0.0958761,0.127788,0.00528065,0.00146914,0.151138,0.1563505867422641,0.13631207899930287,0.005294617206698549,-0.045320598405844015,0.001470219714855725,-0.09142341826640399
189,0.1796,543.948,16.5427,-0.0351504,102.313,5.49487,1.46247,0.146033,-0.0466389,-0.0963766,0.128401,0.00530104,0.00147475,0.151949,0.15723437615510205,0.13700885184278722,0.005315115372921619,-0.04556801923961196,0.0014758379785475562,-0.09187804706521441
190,0.1806,544.642,16.5422,-0.0352261,102.398,5.46796,1.45538,0.146796,-0.046898,-0.0968767,0.129014,0.00532129,0.00148032,0.152759,0.1581176829227875,0.13770605193896412,0.0053354732101302815,-0.04581528053174322,0.001481416214500486,-0.09233208531215054
191,0.1816,545.333,16.5417,-0.0352982,102.483,5.44098,1.44828,0.147558,-0.047157,-0.0973764,0.129626,0.00534138,0.00148585,0.153568,0.15900050490963458,0.13840254114670936,0.005355670602669171,-0.04606238237301574,0.0014869544220452724,-0.09278553366561337
192,0.1826,546.021,16.5413,-0.0353681,102.568,5.41393,1.44116,0.14832,-0.0474158,-0.0978756,0.130237,0.00536133,0.00149134,0.154377,0.15988399986320334,0.1390983176374223,0.005375727648366135,-0.04630922948506355,0.0014924526005175576,-0.09323830210680206
193,0.1836,546.706,16.5409,-0.0354347,102.653,5.38681,1.43402,0.149081,-0.0476746,-0.0983744,0.130847,0.00538112,0.00149679,0.155185,0.16076700752890205,0.139793379583522,0.0053956242308923485,-0.046556012721344686,0.0014979107492576471,-0.09369048205865593
194,0.1846,547.388,16.5406,-0.0354991,102.738,5.35963,1.42686,0.149842,-0.0479332,-0.0988728,0.131456,0.00540076,0.00150219,0.155993,0.16165068741918343,0.14048772515845598,0.005415370394858732,-0.04680254145891527,0.0015033188525777064,-0.09414207417629417
195,0.1856,548.068,16.5403,-0.0355602,102.822,5.33238,1.41969,0.150602,-0.0481917,-0.0993707,0.132065,0.00542025,0.00150756,0.1568,0.16253387751134607,0.141182493718631,0.0054349661313877196,-0.047048911157292705,0.0015086969398401262,-0.09459298857310738
196,0.1866,548.744,16.5401,-0.0356191,102.905,5.30507,1.41251,0.151362,-0.04845,-0.0998683,0.132673,0.00543959,0.00151288,0.157606,0.16341773908310864,0.141876543644609,0.005454411431668138,-0.04729502663635832,0.001514024980280304,-0.09504340702858782
197,0.1876,549.418,16.5399,-0.0356749,102.989,5.2777,1.40531,0.152121,-0.0487082,-0.100365,0.13328,0.00545878,0.00151816,0.158412,0.16430110834329947,0.14256987311080627,0.005473706286956981,-0.04754098330610823,0.0015193129882924428,-0.09549278735547362
198,0.1886,550.088,16.5398,-0.0357283,103.072,5.25027,1.39809,0.152879,-0.0489663,-0.100862,0.133886,0.00547782,0.0015234,0.159217,0.16518398315070315,0.14326248029269162,0.005492850688578743,-0.04778678125672697,0.0015245609632423829,-0.09594221574795136
199,0.1896,550.756,16.5397,-0.0357788,103.155,5.22279,1.39087,0.153637,-0.0492243,-0.101358,0.134492,0.00549672,0.00152861,0.160021,0.16606752743090936,0.14395550732173001,0.0055118546830439374,-0.048032420578327684,0.0015297789197976641,-0.09639051722098435
200,0.1906,551.421,16.5396,-0.0358268,103.238,5.19525,1.38363,0.154394,-0.0494821,-0.101854,0.135097,0.00551546,0.00153377,0.160825,0.16695057474041208,0.14464780980404401,0.005530698151763547,-0.04827780618873834,0.0015349468267900068,-0.09683859639162218
201,0.1916,552.084,16.5396,-0.0358721,103.32,5.16767,1.37637,0.155151,-0.0497398,-0.102349,0.135701,0.00553406,0.00153889,0.161628,0.16783429076980672,0.14533938591612672,0.005549401196687009,-0.04852303339920028,0.0015400746988452063,-0.09728555065610156
202,0.1926,552.743,16.5396,-0.0359148,103.403,5.14003,1.36911,0.155907,-0.0499974,-0.102844,0.136305,0.00555251,0.00154397,0.162431,0.16871750730741386,0.1460313798663555,0.00556795375428587,-0.04876810229956707,0.001545162535347755,-0.0977322837329686
203,0.1936,553.4,16.5396,-0.0359549,103.484,5.11235,1.36184,0.156663,-0.0502548,-0.103339,0.136907,0.00557082,0.00154901,0.163232,0.16960139180918232,0.1467214984618903,0.005586365872081611,-0.049012917880918216,0.0015502103356874741,-0.09817879573168387
204,0.1946,554.055,16.5397,-0.0359925,103.566,5.08462,1.35455,0.157418,-0.0505121,-0.103833,0.137509,0.00558897,0.00155401,0.164034,0.17048477429492426,0.1474120326338959,0.005604617430254422,-0.049257575380610374,0.0015552180992584042,-0.09862418538629014
205,0.1956,554.706,16.5398,-0.0360275,103.647,5.05684,1.34725,0.158172,-0.0507693,-0.104327,0.138111,0.00560698,0.00155898,0.164834,0.17136765261804277,0.14810298263262411,0.00562272853250434,-0.04950207488823799,0.0015601958410620398,-0.09906935507274361
206,0.1966,555.355,16.54,-0.0360599,103.729,5.02903,1.33995,0.158926,-0.0510264,-0.10482,0.138711,0.00562485,0.0015639,0.165634,0.1722511968824454,0.1487920511220786,0.0056406991712303345,-0.049746416493324896,0.0015651235293476784,-0.0995134044135364
207,0.1976,556.001,16.5402,-0.0360899,103.809,5.00117,1.33263,0.159679,-0.0512833,-0.105313,0.139311,0.00564257,0.00156878,0.166434,0.17313423445561993,0.14948153317668367,0.005658519282305541,-0.04999050528438009,0.0015700111790764026,-0.09995723489195829
208,0.1986,556.645,16.5404,-0.0361173,103.89,4.97328,1.32531,0.160432,-0.0515401,-0.105805,0.13991,0.00566014,0.00157362,0.167232,0.17401793720649517,0.1501702788737993,0.005676188857715925,-0.05023443640052727,0.0015748587896617927,-0.10039994701627841
209,0.1996,557.286,16.5407,-0.0361422,103.97,4.94534,1.31798,0.161184,-0.0517967,-0.106297,0.140508,0.00567757,0.00157843,0.16803,0.17490113073442015,0.15085828639431154,0.005693717946453347,-0.05047811497884824,0.0015796763763187283,-0.10084244137980702
210,0.2006,557.925,16.541,-0.0361647,104.05,4.91738,1.31064,0.161936,-0.0520532,-0.106789,0.141106,0.00569486,0.00158319,0.168828,0.17578498867366554,0.15154670546636284,0.005711106541160582,-0.05072163610943603,0.001584443906925026,-0.10128471808965589
211,0.2016,558.561,16.5413,-0.0361848,104.13,4.88938,1.30329,0.162687,-0.0523096,-0.10728,0.141703,0.005712,0.00158792,0.169625,0.17666833485513322,0.15223438410117418,0.005728344577256239,-0.05096499988136871,0.0015891814125488235,-0.10172587897921259
212,0.2026,559.194,16.5417,-0.0362024,104.21,4.86134,1.29593,0.163437,-0.0525659,-0.107771,0.142299,0.005729,0.0015926,0.170421,0.17755116712699381,0.1529213204808053,0.005745442104442722,-0.05120820638365453,0.001593868860886527,-0.10216682331194149
213,0.2036,559.825,16.5421,-0.0362176,104.289,4.83328,1.28857,0.164187,-0.052822,-0.108261,0.142895,0.00574586,0.00159725,0.171216,0.17843466177141676,0.15360866639654835,0.00576239911554377,-0.051451160850352284,0.001598526283205226,-0.10260665380124845
214,0.2046,560.454,16.5425,-0.0362304,104.368,4.80519,1.2812,0.164937,-0.053078,-0.108751,0.14349,0.00576257,0.00160186,0.172011,0.1793188192853683,0.15429526779671465,0.005779205545650257,-0.05169395827377843,0.0016031436630543627,-0.10304626882640866
215,0.2056,561.08,16.543,-0.0362409,104.447,4.77707,1.27383,0.165685,-0.0533338,-0.109241,0.144084,0.00577915,0.00160643,0.172806,0.18020127976126665,0.154981122864575,0.005795881503121603,-0.051936503936339196,0.0016077209998801578,-0.1034856684929738
216,0.2066,561.704,16.5435,-0.036249,104.526,4.74892,1.26645,0.166434,-0.0535896,-0.10973,0.144677,0.00579558,0.00161097,0.173599,0.18108558164952382,0.15566622978455902,0.005812406865210118,-0.05217898756365413,0.001612268309255871,-0.10392395683084843
217,0.2076,562.325,16.544,-0.0362547,104.604,4.72075,1.25906,0.167181,-0.0538451,-0.110219,0.14527,0.00581187,0.00161546,0.174392,0.18196818218927602,0.15635174309342892,0.00582879168277195,-0.052421124897969906,0.0016167655584369278,-0.10436203089811935
218,0.2086,562.944,16.5446,-0.0362582,104.682,4.69256,1.25167,0.167928,-0.0541006,-0.110707,0.145862,0.00582802,0.00161992,0.175185,0.18285144227794237,0.1570365059951604,0.005845035948929711,-0.05266320037409955,0.001621232779173143,-0.10479899559898231
219,0.2096,563.56,16.5452,-0.0362593,104.76,4.66435,1.24428,0.168675,-0.0543559,-0.111195,0.146453,0.00584403,0.00162433,0.175977,0.18373536240838972,0.15772051667545028,0.0058611396568650775,-0.05290502458886959,0.0016256499385496337,-0.10523574711309314
220,0.2106,564.174,16.5458,-0.0362582,104.837,4.63612,1.23688,0.169421,-0.0546111,-0.111682,0.147044,0.0058599,0.00162872,0.176768,0.18461875845450293,0.1584049317255316,0.005877102799818568,-0.053146692388471695,0.00163004708480452,-0.10567139121629976
221,0.2116,564.786,16.5465,-0.0362548,104.915,4.60786,1.22948,0.170166,-0.0548661,-0.112169,0.147634,0.00587563,0.00163306,0.177559,0.18550162825771865,0.15908859229528605,0.005892925371089985,-0.053388109199960954,0.0016343941686420838,-0.10610682321248044
222,0.2126,565.396,16.5472,-0.0362492,104.992,4.57959,1.22207,0.170911,-0.055121,-0.112656,0.148223,0.00589123,0.00163736,0.178349,0.18638515604400596,0.15977149657171452,0.005908617423123319,-0.053629369820953454,0.0016387012057972328,-0.10654204320490612
223,0.2136,566.003,16.5479,-0.0362413,105.069,4.55131,1.21466,0.171656,-0.0553758,-0.113142,0.148812,0.00590668,0.00164163,0.179138,0.18726934230374503,0.16045480319724192,0.0059241588313196925,-0.05387047433950298,0.001642978212182733,-0.10697615827340223
224,0.2146,566.607,16.5486,-0.0362313,105.146,4.52301,1.20725,0.172399,-0.0556304,-0.113628,0.1494,0.005922,0.00164586,0.179927,0.18815181122168267,0.16113735127099016,0.005939569707479997,-0.05411132825473164,0.001647215170941685,-0.10741006241323481
225,0.2156,567.21,16.5494,-0.036219,105.222,4.4947,1.19984,0.173143,-0.0558849,-0.114113,0.149987,0.00593718,0.00165005,0.180715,0.18903612509320022,0.16181913898130218,0.005954839986049176,-0.054352026291566435,0.0016514120815658284,-0.10784286357020001
226,0.2166,567.81,16.5502,-0.0362046,105.298,4.46637,1.19242,0.173885,-0.0561392,-0.114598,0.150574,0.00595222,0.00165421,0.181503,0.18991871729923404,0.16250132701848474,0.005969969660617469,-0.05459247399705902,0.0016555789601071513,-0.10827545486949874
227,0.2176,568.408,16.5511,-0.036188,105.374,4.43804,1.18501,0.174627,-0.0563935,-0.115083,0.15116,0.00596713,0.00165833,0.18229,0.19080196463170673,0.1631827524342644,0.005984968784683353,-0.054832860564474006,0.001659705789593735,-0.10870783641288717
228,0.2186,569.004,16.5519,-0.0361693,105.45,4.40969,1.17759,0.175369,-0.0566475,-0.115567,0.151745,0.0059819,0.00166241,0.183076,0.19168586757690242,0.16386341341836475,0.005999827292402005,-0.055072902531270396,0.00166379256953042,-0.10913911744163518
229,0.2196,569.598,16.5528,-0.0361485,105.526,4.38134,1.17017,0.17611,-0.0569015,-0.116051,0.15233,0.00599653,0.00166646,0.183862,0.19256923405163584,0.1645444727056331,0.006014545177536412,-0.05531288353514974,0.0016678493161050856,-0.10957018978087218
230,0.2206,570.189,16.5537,-0.0361256,105.601,4.35298,1.16275,0.17685,-0.0571553,-0.116534,0.152913,0.00601103,0.00167047,0.184647,0.19345206189084818,0.16522360007961434,0.00602913249419923,-0.05555261470213657,0.0016718660122343465,-0.11000016353218811
231,0.2216,570.779,16.5547,-0.0361006,105.676,4.32461,1.15533,0.17759,-0.057409,-0.117017,0.153497,0.0060254,0.00167444,0.185431,0.19433554326443936,0.16590428940399748,0.006043589236704783,-0.05579219061229734,0.001675842657436144,-0.11042992965632814
232,0.2226,571.366,16.5556,-0.0360736,105.751,4.29624,1.14791,0.178329,-0.0576625,-0.1175,0.154079,0.00603963,0.00167838,0.186215,0.1952184834371229,0.1665830431986257,0.006057905338838321,-0.05603151695608144,0.0016797892680309179,-0.11085948825355196
233,0.2236,571.951,16.5566,-0.0360445,105.826,4.26786,1.14049,0.179068,-0.0579159,-0.117982,0.154661,0.00605373,0.00168228,0.186998,0.19610207634374954,0.1672621921429398,0.006072090855311352,-0.05627068826540016,0.0016836958268269253,-0.111287950712466
234,0.2246,572.533,16.5576,-0.0360133,105.9,4.23949,1.13307,0.179806,-0.0581691,-0.118464,0.155243,0.00606769,0.00168614,0.187781,0.1969851254811441,0.16794173646698374,0.006086135719732599,-0.056509610278328015,0.0016875623333552081,-0.11171620670223781
235,0.2256,573.114,16.5587,-0.0359802,105.974,4.21111,1.12565,0.180544,-0.0584222,-0.118945,0.155823,0.00608153,0.00168997,0.188563,0.1978688265493347,0.16861933915992,0.006100060048207068,-0.05674837747870276,0.001691398804065658,-0.11214336846617412
236,0.2266,573.693,16.5598,-0.0359451,106.048,4.18273,1.11824,0.181281,-0.0586752,-0.119426,0.156403,0.00609523,0.00169376,0.189345,0.19875198127704352,0.16929733497641308,0.0061138437134475865,-0.05698698995344986,0.0016951952216615052,-0.1125703248147083
237,0.2276,574.269,16.5608,-0.035908,106.122,4.15435,1.11082,0.182018,-0.0589281,-0.119907,0.156982,0.00610879,0.00169752,0.190125,0.19963578712969676,0.16997455416940155,0.006127486709667673,-0.05722544778942629,0.001698961602676352,-0.11299707584662144
238,0.2286,574.844,16.562,-0.035869,106.196,4.12598,1.10341,0.182754,-0.0591807,-0.120387,0.157561,0.00612223,0.00170124,0.190906,0.20051904406770604,0.1706521655858404,0.006141009153959542,-0.05746356256615226,0.001702687929744373,-0.1134227350838255
239,0.2296,575.416,16.5631,-0.035828,106.269,4.0976,1.096,0.183489,-0.0594333,-0.120867,0.158139,0.00613554,0.00170493,0.191685,0.20140174991975823,0.17132899812330904,0.006154400979913932,-0.05770161720268163,0.0017063842194824375,-0.11384819005362379
240,0.2306,575.987,16.5643,-0.0357852,106.342,4.06923,1.08859,0.184224,-0.0596857,-0.121346,0.158716,0.00614871,0.00170858,0.192464,0.2022851047990999,0.1720050499774297,0.006167652120633305,-0.05793942330210744,0.00171004045445744,-0.11427255512703915
241,0.2316,576.555,16.5655,-0.0357404,106.415,4.04087,1.08118,0.184959,-0.059938,-0.121825,0.159293,0.00616176,0.00171219,0.193243,0.2031691091829415,0.17268149202603045,0.006180782694170439,-0.05817707520456017,0.0017136566342308424,-0.1146967169782599
242,0.2326,577.121,16.5667,-0.0356937,106.488,4.01251,1.07377,0.185692,-0.0601901,-0.122304,0.159869,0.00617467,0.00171577,0.194021,0.20405135544372532,0.17335715113658057,0.0061937725719243275,-0.05841447883791584,0.0017172427755407504,-0.11512067570460616
243,0.2336,577.686,16.5679,-0.0356452,106.561,3.98416,1.06637,0.186426,-0.0604421,-0.122782,0.160445,0.00618746,0.00171932,0.194798,0.20493545356293796,0.17403319953888374,0.006206641872574581,-0.05865172849453637,0.0017207988780645334,-0.11554354694734081
244,0.2346,578.248,16.5692,-0.0355948,106.633,3.95582,1.05898,0.187158,-0.060694,-0.12326,0.16102,0.00620012,0.00172283,0.195574,0.20581778921039495,0.17470846274818652,0.00621938052929627,-0.05888882426066322,0.0017243149242394118,-0.11596621610592328
245,0.2356,578.809,16.5705,-0.0355426,106.705,3.92748,1.05158,0.187891,-0.0609457,-0.123737,0.161594,0.00621265,0.00172631,0.19635,0.20670197766536624,0.17538293896195856,0.006231988537123367,-0.059125672135041385,0.001727800930920953,-0.11638779966516832
246,0.2366,579.367,16.5718,-0.0354886,106.777,3.89916,1.04419,0.188622,-0.0611973,-0.124214,0.162167,0.00622505,0.00172975,0.197126,0.20758439929685157,0.17605662637899622,0.006244465891140472,-0.05936236633855274,0.001731246880483095,-0.11680918217700931
247,0.2376,579.924,16.5731,-0.0354328,106.849,3.87084,1.0368,0.189353,-0.0614487,-0.124691,0.16274,0.00623733,0.00173316,0.197901,0.20846746621437284,0.17673069992954038,0.0062568226490520296,-0.05959881291707503,0.0017346627898591205,-0.11723036373732276
248,0.2386,580.478,16.5744,-0.0353752,106.92,3.84254,1.02942,0.190084,-0.0617,-0.125167,0.163313,0.00624948,0.00173653,0.198675,0.2093511788898068,0.17740515983490912,0.006269048743720695,-0.059835106043914066,0.0017380386413610172,-0.11765046209284313
249,0.2396,581.031,16.5758,-0.0353159,106.992,3.81425,1.02204,0.190814,-0.0619512,-0.125643,0.163884,0.0062615,0.00173987,0.199449,0.2102343275604419,0.17807765015889077,0.006281144170379838,-0.0600712458048801,0.001741384451997563,-0.11807036052913089
250,0.2406,581.582,16.5772,-0.0352548,107.063,3.78597,1.01467,0.191544,-0.0622022,-0.126118,0.164455,0.0062734,0.00174317,0.200222,0.21111812116497886,0.17875052458449803,0.006293118987245494,-0.06030713831643442,0.0017446902040207934,-0.11848917763094324
251,0.2416,582.131,16.5786,-0.035192,107.134,3.75771,1.0073,0.192272,-0.0624531,-0.126593,0.165026,0.00628517,0.00174645,0.200994,0.212000136171695,0.17942378333111542,0.006304963126958718,-0.06054287768069089,0.001747975931993162,-0.11890779584187261
252,0.2426,582.678,16.5801,-0.0351275,107.205,3.72946,0.999936,0.193001,-0.0627038,-0.127068,0.165596,0.00629681,0.00174968,0.201766,0.21288400640251948,0.18009624652141643,0.006316676584901648,-0.06077837006105313,0.0017512115831810338,-0.11932621525636955
253,0.2436,583.223,16.5815,-0.0350613,107.275,3.70123,0.992577,0.193729,-0.0629544,-0.127542,0.166165,0.00630834,0.00175289,0.202537,0.21376730744174743,0.18076791235649559,0.00632827948307324,-0.061013709512250935,0.0017544272097314018,-0.11974355571283601
254,0.2446,583.766,16.583,-0.0349934,107.346,3.67302,0.985224,0.194456,-0.0632048,-0.128016,0.166733,0.00631974,0.00175606,0.203308,0.2146500371076121,0.18143877903881545,0.00633975169085077,-0.06124880224455065,0.0017576027762988833,-0.12016069839680188
255,0.2456,584.308,16.5845,-0.0349238,107.416,3.64482,0.977877,0.195183,-0.0634551,-0.12849,0.167301,0.00633101,0.0017592,0.204078,0.21553340875127458,0.18211002688165,0.006351093203761593,-0.06148374226537867,0.001760748300110082,-0.12057764340198907
256,0.2466,584.847,16.586,-0.0348526,107.486,3.61664,0.970536,0.195909,-0.0637053,-0.128963,0.167869,0.00634216,0.0017623,0.204848,0.21641620642280768,0.18278165610156027,0.006362314081007181,-0.06171852965993596,0.0017638537632431728,-0.12099351181602658
257,0.2476,585.385,16.5875,-0.0347798,107.556,3.58848,0.963201,0.196635,-0.0639553,-0.129435,0.168435,0.00635319,0.00176537,0.205617,0.21729964523815726,0.18345130001026289,0.006373414318549209,-0.06195307070866829,0.0017669291829951472,-0.12140830497956201
258,0.2486,585.921,16.5891,-0.0347054,107.625,3.56034,0.955872,0.19736,-0.0642052,-0.129908,0.169002,0.0063641,0.00176841,0.206385,0.21818250747984647,0.1841225071666155,0.006384393912392872,-0.0621874593482179,0.0017699745590886717,-0.12182378058358012
259,0.2496,586.456,16.5907,-0.0346294,107.695,3.53222,0.94855,0.198085,-0.0644549,-0.13038,0.169567,0.00637489,0.00177142,0.207153,0.21906601002874404,0.18479172541951838,0.006395252858587108,-0.06242160190570378,0.0017729898912501874,-0.12223818195272806
260,0.2506,586.988,16.5923,-0.0345518,107.764,3.50412,0.941234,0.198809,-0.0647045,-0.130851,0.170132,0.00638555,0.00177439,0.20792,0.2199489333996978,0.18546132188757003,0.0064059810891641256,-0.06265559227065576,0.0017759651614486227,-0.12265151042253264
261,0.2516,587.519,16.5939,-0.0344727,107.833,3.47604,0.933926,0.199532,-0.064954,-0.131323,0.170696,0.0063961,0.00177733,0.208686,0.22083127540674585,0.18613011065381846,0.0064165987282724934,-0.06288943052784868,0.0017789103871155287,-0.1230655211953845
262,0.2526,588.048,16.5955,-0.034392,107.902,3.44798,0.926624,0.200255,-0.0652033,-0.131793,0.17126,0.00640652,0.00178024,0.209452,0.2217142555777334,0.18679927672332064,0.006427085643867958,-0.06312302307429729,0.0017818255679864503,-0.12347758355818206
263,0.2536,588.575,16.5972,-0.0343098,107.971,3.41995,0.91933,0.200978,-0.0654525,-0.132264,0.171823,0.00641682,0.00178312,0.210218,0.22259787437422007,0.18746763284070878,0.006437451896236235,-0.06335646372903359,0.0017847107037987087,-0.12389032840728387
264,0.2546,589.101,16.5988,-0.0342261,108.04,3.39195,0.912043,0.2017,-0.0657015,-0.132734,0.172386,0.00642701,0.00178596,0.210983,0.2234809087765781,0.18813636534853506,0.00644770754612356,-0.0635896589355569,0.0017875557764170935,-0.12430200320177753
265,0.2556,589.625,16.6005,-0.0341408,108.108,3.36396,0.904764,0.202421,-0.0659504,-0.133203,0.172948,0.00643707,0.00178877,0.211747,0.22436335659601725,0.18880428565388696,0.006457832460989632,-0.06382270246597743,0.00179037080340394,-0.12471260926762695
266,0.2566,590.147,16.6022,-0.0340541,108.176,3.33601,0.897492,0.203142,-0.0661992,-0.133673,0.173509,0.00644702,0.00179155,0.21251,0.22524644088975565,0.1894713919639628,0.006467846766243568,-0.06405559440464537,0.0017931557845058954,-0.1251238976809229
267,0.2576,590.667,16.604,-0.033966,108.244,3.30808,0.890229,0.203862,-0.0664478,-0.134142,0.17407,0.00645685,0.0017943,0.213274,0.22612893598730754,0.1901388726256743,0.006477740393804554,-0.06428824126467347,0.0017959107194722712,-0.12553411836863992
268,0.2586,591.186,16.6057,-0.0338764,108.312,3.28017,0.882973,0.204582,-0.0666962,-0.13461,0.17463,0.00646656,0.00179702,0.214036,0.2270120667101274,0.19080553704295933,0.006487513340111217,-0.06452064320002793,0.0017986356080552657,-0.12594327265167338
269,0.2596,591.703,16.6075,-0.0337854,108.38,3.25229,0.875726,0.205301,-0.0669445,-0.135078,0.175189,0.00647616,0.00179971,0.214798,0.22789460562081043,0.19147138342489134,0.006497175666618338,-0.06475289388920513,0.0018013304500095195,-0.1263522354953025
270,0.2606,592.218,16.6092,-0.0336929,108.447,3.22445,0.868487,0.20602,-0.0671927,-0.135546,0.175748,0.00648564,0.00180236,0.215559,0.2287777793051442,0.19213760211900244,0.006506717305071019,-0.06498499341619901,0.001803985227052829,-0.1267610069891003
271,0.2616,592.732,16.611,-0.0335991,108.515,3.19663,0.861257,0.206738,-0.0674407,-0.136013,0.176307,0.006495,0.00180498,0.21632,0.22966035855872136,0.19280419333347343,0.006516138252034898,-0.06521684838662711,0.0018066099569324923,-0.12716871439174815
272,0.2626,593.244,16.6128,-0.0335038,108.582,3.16883,0.854036,0.207456,-0.0676886,-0.13648,0.176865,0.00650425,0.00180757,0.21708,0.23054357173175255,0.19346996380604065,0.006525448569373982,-0.06544855240901193,0.0018092046394124761,-0.12757623143949026
273,0.2636,593.755,16.6147,-0.0334072,108.649,3.14107,0.846823,0.208173,-0.0679364,-0.136947,0.177422,0.00651338,0.00181013,0.21784,0.2314261878527517,0.1941349117466904,0.00653463818866995,-0.0656801055671038,0.0018117692742589675,-0.12798355822120178
274,0.2646,594.263,16.6165,-0.0333093,108.716,3.11334,0.83962,0.20889,-0.068184,-0.137413,0.177978,0.0065224,0.00181266,0.218599,0.23230943703643536,0.19479903536687915,0.006543717172052599,-0.06591141453573335,0.0018143038612414841,-0.12838982321597503
275,0.2656,594.771,16.6184,-0.03321,108.782,3.08564,0.832426,0.209606,-0.0684315,-0.137879,0.178534,0.0065313,0.00181516,0.219357,0.23319208654416923,0.19546352834247216,0.00655267545099969,-0.06614257285361391,0.0018168084001319862,-0.12879589893536525
276,0.2666,595.276,16.6203,-0.0331094,108.849,3.05798,0.825241,0.210322,-0.0686788,-0.138345,0.17909,0.00654009,0.00181763,0.220115,0.23407536825525255,0.196128390878888,0.0065615230879021436,-0.0663734872416063,0.0018192828907046543,-0.12920178546755434
277,0.2676,595.78,16.6222,-0.0330075,108.915,3.03034,0.818065,0.211037,-0.068926,-0.13881,0.179645,0.00654876,0.00182007,0.220872,0.23495804766383954,0.1967924263886347,0.006570250014138468,-0.06660425119196078,0.0018217273327372219,-0.12960661250773053
278,0.2686,596.283,16.6241,-0.0329043,108.981,3.00274,0.8109,0.211751,-0.069173,-0.139275,0.180199,0.00655733,0.00182248,0.221629,0.23584012257314102,0.19745563308414638,0.006578876358144914,-0.06683477147148986,0.0018241417260094206,-0.13001125134709324
279,0.2696,596.784,16.626,-0.0327998,109.047,2.97517,0.803744,0.212465,-0.0694199,-0.139739,0.180753,0.00656578,0.00182486,0.222385,0.23672282750882023,0.1981192072979603,0.0065873819855863935,-0.06706514152606002,0.0018265260703040909,-0.13041483248840258
280,0.2706,597.283,16.6279,-0.0326941,109.113,2.94763,0.796598,0.213179,-0.0696666,-0.140203,0.181306,0.00657412,0.0018272,0.223141,0.237606162920877,0.19878195045118874,0.006595776959359201,-0.06729526816835707,0.0018288703471178724,-0.13081822641150043
281,0.2716,597.781,16.6299,-0.0325871,109.179,2.92013,0.789461,0.213892,-0.0699132,-0.140667,0.181859,0.00658234,0.00182952,0.223896,0.23848889077012192,0.19944506020273578,0.006604051210652884,-0.06752524479794286,0.0018311945927931284,-0.13122143320323576
282,0.2726,598.277,16.6319,-0.0324789,109.244,2.89266,0.782336,0.214604,-0.0701597,-0.14113,0.182411,0.00659046,0.00183181,0.22465,0.2393710088571237,0.20010733664744973,0.006612224868733696,-0.0677550714977957,0.0018334887888555862,-0.13162358457443613
283,0.2736,598.772,16.6339,-0.0323694,109.31,2.86523,0.77522,0.215316,-0.070406,-0.141593,0.182962,0.00659846,0.00183407,0.225404,0.24025375523584902,0.20076877800030068,0.006620277798744523,-0.06798465514929852,0.0018357529350987445,-0.13202554979264935
284,0.2746,599.265,16.6359,-0.0322588,109.375,2.83783,0.768115,0.216027,-0.0706522,-0.142055,0.183513,0.00660636,0.0018363,0.226157,0.24113588921729057,0.2014305839077628,0.006628230130350632,-0.06821408908272464,0.0018379870313187663,-0.1324264613709396
285,0.2756,599.756,16.6379,-0.0321469,109.44,2.81047,0.76102,0.216738,-0.0708982,-0.142517,0.184064,0.00661414,0.00183849,0.22691,0.2420186506190145,0.20209275457076048,0.006636061728445997,-0.0684432802251439,0.0018401810589128154,-0.1328271877708601
286,0.2766,600.247,16.6399,-0.0320339,109.505,2.78315,0.753936,0.217449,-0.0711441,-0.142979,0.184614,0.00662182,0.00184066,0.227662,0.2429020398872752,0.20275408743564127,0.006643792723087127,-0.06867232186071337,0.0018423550544646172,-0.13322772907794367
287,0.2776,600.735,16.642,-0.0319198,109.569,2.75586,0.746863,0.218159,-0.0713899,-0.143441,0.185163,0.00662938,0.0018428,0.228414,0.2437848136832088,0.20341458071845997,0.006651402978926857,-0.06890121407199479,0.001844498999398425,-0.13362808537768323
288,0.2786,601.222,16.644,-0.0318045,109.634,2.72861,0.739801,0.218868,-0.0716355,-0.143902,0.185711,0.00663684,0.00184492,0.229165,0.24466696980350133,0.20407423263681146,0.0066589126264038345,-0.06912986385447617,0.001846622911987561,-0.13402739078335635
289,0.2796,601.708,16.6461,-0.031688,109.698,2.7014,0.732749,0.219577,-0.0718809,-0.144362,0.18626,0.00664419,0.001847,0.229915,0.24554975159425707,0.20473545087832856,0.006666311596603025,-0.06935827135913919,0.0018487067551304914,-0.1344256465777407
290,0.2806,602.192,16.6482,-0.0315705,109.763,2.67423,0.725709,0.220285,-0.0721262,-0.144823,0.186807,0.00665143,0.00184905,0.230665,0.24643191306669743,0.2053946214366711,0.006673599887082382,-0.06958652977813506,0.0018507605470845512,-0.13482458439243694
291,0.2816,602.675,16.6503,-0.0314518,109.827,2.6471,0.71868,0.220993,-0.0723714,-0.145283,0.187354,0.00665857,0.00185108,0.231415,0.24731469933061034,0.20605415265994154,0.00668078756224566,-0.06981463919367625,0.0018527943061925622,-0.13522247356209127
292,0.2826,603.156,16.6525,-0.0313321,109.891,2.62001,0.711663,0.2217,-0.0726164,-0.145742,0.187901,0.0066656,0.00185307,0.232163,0.24819686263101803,0.20671404474547828,0.0066878645530576986,-0.0700425066921655,0.0018547879952370838,-0.1356193153645654
293,0.2836,603.636,16.6546,-0.0312112,109.955,2.59295,0.704656,0.222407,-0.0728613,-0.146202,0.188447,0.00667252,0.00185504,0.232912,0.2490796498414054,0.20737309051703212,0.00669483085718392,-0.07027022539698302,0.00185676165111337,-0.1360168390420421
294,0.2846,604.115,16.6567,-0.0310894,110.018,2.56594,0.697662,0.223113,-0.0731061,-0.14666,0.188992,0.00667933,0.00185698,0.233659,0.24996181144059615,0.20803128819393923,0.0067016864723252745,-0.07049779539010215,0.001858705255116444,-0.1364124527273115
295,0.2856,604.592,16.6589,-0.0309664,110.082,2.53897,0.690679,0.223819,-0.0733507,-0.147119,0.189537,0.00668604,0.00185889,0.234406,0.25084459606577814,0.20868984468634832,0.006708441463304515,-0.07072512382594864,0.0018606188070708907,-0.1368087484546826
296,0.2866,605.067,16.6611,-0.0308425,110.145,2.51204,0.683708,0.224524,-0.0735951,-0.147577,0.190081,0.00669265,0.00186077,0.235153,0.251726752429585,0.2093475508417122,0.006715095828095263,-0.0709522108545203,0.0018625023068046254,-0.13720399952848528
297,0.2876,605.541,16.6633,-0.0307175,110.208,2.48515,0.676749,0.225229,-0.0738394,-0.148035,0.190625,0.00669915,0.00186263,0.235899,0.25260953093290683,0.21000561488656144,0.006721639497485166,-0.07117914950772342,0.0018643657727919205,-0.13759906961874468
298,0.2886,606.014,16.6655,-0.0305915,110.271,2.4583,0.669801,0.225933,-0.0740836,-0.148492,0.191168,0.00670555,0.00186446,0.236644,0.253491678522201,0.21066282635220968,0.006728082536595625,-0.07140593986718369,0.0018661991862589655,-0.1379930968018599
299,0.2896,606.485,16.6677,-0.0304645,110.334,2.4315,0.662866,0.226636,-0.0743276,-0.148949,0.191711,0.00671184,0.00186625,0.237389,0.2543731929882327,0.21132039478059017,0.006734414876149897,-0.07163248917771625,0.0018679925283604515,-0.13838694395569218
300,0.2906,606.956,16.67,-0.0303365,110.397,2.40473,0.655943,0.22734,-0.0745715,-0.149406,0.192253,0.00671803,0.00186803,0.238134,0.25525658263276596,0.21197710838787232,0.006740646581465004,-0.07185889040285409,0.001869775854974387,-0.1387806111624963
301,0.2916,607.424,16.6722,-0.0302076,110.46,2.37801,0.649032,0.228042,-0.0748153,-0.149862,0.192795,0.00672412,0.00186977,0.238877,0.256138082123895,0.2126341780304064,0.006746777650671776,-0.07208514362398555,0.0018715191099010209,-0.13917323767815715
302,0.2926,607.891,16.6745,-0.0300777,110.522,2.35134,0.642133,0.228744,-0.0750589,-0.150318,0.193336,0.0067301,0.00187149,0.23962,0.2570202006449209,0.2132903906102186,0.006752798014403094,-0.07231115615355499,0.0018732423303957635,-0.13956568519694135
303,0.2936,608.357,16.6767,-0.0299469,110.585,2.32471,0.635247,0.229446,-0.0753023,-0.150774,0.193876,0.00673599,0.00187318,0.240363,0.25790293863055536,0.21394574435073288,0.0067587278058465206,-0.07253692814058177,0.0018749354976059784,-0.13995795380045273
304,0.2946,608.822,16.679,-0.0298151,110.647,2.29812,0.628374,0.230147,-0.0755456,-0.151229,0.194416,0.00674177,0.00187484,0.241105,0.2587850377301477,0.214601452077835,0.0067645468881103454,-0.07276255245765395,0.0018765986113793431,-0.14034918391987172
305,0.2956,609.285,16.6813,-0.0296824,110.709,2.27157,0.621513,0.230848,-0.0757888,-0.151684,0.194955,0.00674745,0.00187647,0.241847,0.2596677553979918,0.21525629872582264,0.006770265326977221,-0.07298802918581482,0.0018782316715659775,-0.14074023607007757
306,0.2966,609.747,16.6836,-0.0295489,110.771,2.24508,0.614664,0.231548,-0.0760318,-0.152139,0.195494,0.00675303,0.00187808,0.242588,0.26054983151739397,0.21591149843129398,0.006775883120731185,-0.07321326572737452,0.0018798446968175675,-0.14113111033202774
307,0.2976,610.207,16.686,-0.0294144,110.833,2.21862,0.607829,0.232247,-0.0762747,-0.152593,0.196033,0.00675851,0.00187966,0.243328,0.26143126387434434,0.21656705138459853,0.006781400267687809,-0.07343835488694417,0.001881427668222635,-0.14152094830802042
308,0.2986,610.666,16.6883,-0.0292791,110.894,2.19221,0.601006,0.232946,-0.0765174,-0.153047,0.196571,0.00676389,0.00188122,0.244068,0.2623133125678967,0.21722174055383858,0.006786816766191528,-0.07366320411165606,0.0018829906044690592,-0.1419106093377419
309,0.2996,611.124,16.6907,-0.0291428,110.956,2.16585,0.594196,0.233645,-0.07676,-0.1535,0.197108,0.00676917,0.00188275,0.244807,0.26319597802902117,0.21787556416444365,0.006792132614617863,-0.07388790616087793,0.0018845234866171623,-0.1422992358011721
310,0.3006,611.581,16.693,-0.0290058,111.017,2.13954,0.587399,0.234343,-0.0770025,-0.153953,0.197645,0.00677435,0.00188425,0.245546,0.2640779966103599,0.21852973897261552,0.00679734781137209,-0.07411246111524528,0.0018860263145294986,-0.14268768625668327
311,0.3016,612.036,16.6954,-0.0288679,111.078,2.11327,0.580616,0.235041,-0.0772448,-0.154406,0.198181,0.00677943,0.00188572,0.246284,0.2649606310555801,0.2191830459833426,0.006802462354889904,-0.07433677648901205,0.001887499088070843,-0.14307596078398876
312,0.3026,612.49,16.6978,-0.0287292,111.14,2.08704,0.573845,0.235738,-0.077487,-0.154858,0.198717,0.00678441,0.00188717,0.247022,0.26584261595145575,0.21983670326049065,0.0068074762436372005,-0.07456094497384702,0.0018889518259976867,-0.14346320292639725
313,0.3036,612.943,16.7002,-0.0285896,111.201,2.06087,0.567088,0.236434,-0.077729,-0.15531,0.199252,0.0067893,0.00188859,0.247759,0.26672394908050934,0.2204894905017516,0.006812399544233294,-0.07478487412864276,0.0018903745093192814,-0.14385027007490903
314,0.3046,613.394,16.7026,-0.0284493,111.261,2.03474,0.560344,0.23713,-0.0779709,-0.155762,0.199787,0.00679409,0.00188999,0.248496,0.26760589583093597,0.22114262707762555,0.006817222187177396,-0.07500865660000988,0.001891777156825647,-0.1442371623086034
315,0.3056,613.844,16.705,-0.0283081,111.322,2.00866,0.553613,0.237826,-0.0782126,-0.156213,0.200321,0.00679878,0.00189136,0.249232,0.26848845662996523,0.22179489137955377,0.006821944171022443,-0.07523219999140263,0.0018931497495005,-0.14462302432997598
316,0.3066,614.293,16.7075,-0.0281662,111.383,1.98263,0.546896,0.238521,-0.0784542,-0.156664,0.200855,0.00680338,0.00189271,0.249967,0.26937036253412616,0.22244750408363445,0.006826575562618009,-0.07545559690445092,0.001894502306165613,-0.14500871236681345
317,0.3076,614.74,16.7099,-0.0280236,111.443,1.95664,0.540192,0.239215,-0.0786956,-0.157115,0.201388,0.00680788,0.00189403,0.250702,0.2702516113236848,0.22309924227611,0.006831106292402023,-0.07567875498709398,0.0018958248077816098,-0.14539422649756506
318,0.3086,615.187,16.7124,-0.0278801,111.503,1.9307,0.533502,0.23991,-0.078937,-0.157565,0.20192,0.00681228,0.00189532,0.251437,0.2711347430462805,0.22375010418691832,0.0068355363590160145,-0.07590185920587744,0.0018971172542290304,-0.14577871257978436
319,0.3096,615.632,16.7148,-0.0277359,111.564,1.90482,0.526825,0.240603,-0.0791781,-0.158015,0.202453,0.00681659,0.00189659,0.252171,0.27201594472432644,0.2244025368503091,0.006839875829529163,-0.0761246324112338,0.0018983896643760545,-0.1461630256821902
320,0.3106,616.076,16.7173,-0.027591,111.624,1.87898,0.520162,0.241296,-0.0794191,-0.158465,0.202984,0.0068208,0.00189783,0.252904,0.27289775728678256,0.22505286724481577,0.0068441146343289905,-0.07634725954717536,0.0018996320191495553,-0.14654716588260575
321,0.3116,616.518,16.7198,-0.0274454,111.684,1.85319,0.513513,0.241989,-0.07966,-0.158914,0.203515,0.00682492,0.00189905,0.253637,0.2737801811571381,0.2257035430564618,0.006848262840626784,-0.07656974069342037,0.001900854337446134,-0.14693028018952614
322,0.3126,616.96,16.7223,-0.0272991,111.743,1.82745,0.506878,0.242681,-0.0799008,-0.159363,0.204046,0.00682895,0.00190024,0.254369,0.274661942096597,0.22635456446871305,0.006852320447301885,-0.07679207592962467,0.0019020466001722358,-0.14731322251673518
323,0.3136,617.4,16.7248,-0.027152,111.803,1.80176,0.500257,0.243372,-0.0801414,-0.159812,0.204576,0.00683288,0.00190141,0.255101,0.27554303788212064,0.22700470465981337,0.006856277384696741,-0.07701417303680258,0.0019032188262524397,-0.1476959929414342
324,0.3146,617.839,16.7274,-0.0270043,111.863,1.77612,0.493649,0.244063,-0.0803818,-0.16026,0.205106,0.00683672,0.00190255,0.255832,0.276424742715234,0.2276551895165433,0.0068601437202251425,-0.07723603216106933,0.0019043609965729846,-0.14807773961895587
325,0.3156,618.277,16.7299,-0.0268559,111.922,1.75053,0.487056,0.244754,-0.0806221,-0.160708,0.205635,0.00684046,0.00190367,0.256562,0.27730705701693403,0.22830479091621902,0.006863909384204447,-0.07745774570259212,0.001905483130085761,-0.1484593153122693
326,0.3166,618.713,16.7325,-0.0267068,111.981,1.72499,0.480476,0.245444,-0.0808623,-0.161155,0.206163,0.00684412,0.00190477,0.257293,0.2781887030191672,0.22895350709182205,0.0068675945128566784,-0.0776793137406877,0.0019065852267232675,-0.14883986893825274
327,0.3176,619.148,16.735,-0.0265571,112.04,1.6995,0.473911,0.246134,-0.0811023,-0.161602,0.206691,0.00684768,0.00190584,0.258022,0.279070957567066,0.22960256588000783,0.006871178967873481,-0.07790064414467901,0.0019076572673430992,-0.14922025249477888
328,0.3186,619.583,16.7376,-0.0264068,112.099,1.67406,0.46736,0.246823,-0.0813422,-0.162049,0.207219,0.00685115,0.00190688,0.258751,0.2799525411274908,0.23025196746172316,0.0068746728169262195,-0.07812182924793476,0.0019086992518484447,-0.1496004660578515
329,0.3196,620.016,16.7402,-0.0262558,112.158,1.64868,0.460823,0.247511,-0.0815819,-0.162496,0.207746,0.00685452,0.0019079,0.25948,0.2808334514741979,0.2309004811169142,0.006878065990291171,-0.07834277696382241,0.0019097211992429308,-0.1499805097034408
330,0.3206,620.447,16.7428,-0.0261042,112.217,1.62334,0.4543,0.248199,-0.0818215,-0.162942,0.208273,0.00685781,0.0019089,0.260208,0.28171496809575847,0.23154933662887323,0.006881378624577605,-0.07856357958125204,0.0019107231094650512,-0.15035953386744172
331,0.3216,620.878,16.7454,-0.025952,112.276,1.59806,0.447792,0.248887,-0.082061,-0.163388,0.208799,0.00686101,0.00190987,0.260935,0.28259709140943245,0.23219730197988753,0.006884600650144401,-0.07878423717914018,0.0019116949633377622,-0.15073838902435677
332,0.3226,621.307,16.748,-0.0257991,112.334,1.57282,0.441298,0.249574,-0.0823003,-0.163833,0.209324,0.00686411,0.00191082,0.261662,0.28347853835358805,0.23284437540533864,0.0068877219972445225,-0.07900465773681165,0.0019126467798999958,-0.15111622636619726
333,0.3236,621.736,16.7506,-0.0256457,112.393,1.54764,0.434819,0.250261,-0.0825394,-0.164278,0.209849,0.00686713,0.00191174,0.262388,0.2843605910598499,0.2334917886335286,0.006890762802756578,-0.07922484139914099,0.001913568539959165,-0.15149389560782578
334,0.3246,622.163,16.7533,-0.0254939,112.451,1.52252,0.428352,0.250947,-0.0827785,-0.164723,0.210374,0.00687006,0.00191264,0.263114,0.28524196470191177,0.23413954184290064,0.00689371299701369,-0.07944497242185,0.0019144702625766286,-0.15187139682403006
335,0.3256,622.589,16.7559,-0.025334,112.509,1.49744,0.421904,0.251632,-0.0830174,-0.165167,0.210898,0.0068729,0.00191352,0.263839,0.28612265705042517,0.23478640042497378,0.006896572579219162,-0.07966486675051498,0.0019153519476984293,-0.15224788233787123
336,0.3266,623.014,16.7586,-0.0251833,112.567,1.47242,0.415467,0.252318,-0.0832561,-0.165611,0.211422,0.00687565,0.00191437,0.264564,0.28700523988446225,0.2354335980497655,0.006899341548600946,-0.07988452452962269,0.0019162035761095542,-0.1526242007292482
337,0.3276,623.437,16.7612,-0.0250259,112.625,1.44745,0.409045,0.253002,-0.0834947,-0.166055,0.211945,0.00687831,0.0019152,0.265288,0.28788585260375976,0.23607989881446367,0.00690201990441186,-0.08010403789308429,0.001917035166903558,-0.15300035207234686
338,0.3286,623.86,16.7639,-0.0248706,112.683,1.42253,0.402638,0.253686,-0.0837332,-0.166499,0.212467,0.00688089,0.00191601,0.266012,0.2887670678682044,0.23672530095694877,0.006904617714974304,-0.08032340691925055,0.0019178467200307026,-0.1533763364413201
339,0.3296,624.282,16.7666,-0.0247135,112.741,1.39767,0.396246,0.25437,-0.0839715,-0.166942,0.212989,0.00688337,0.00191679,0.266735,0.2896488860900779,0.2373710400872986,0.006907114841522732,-0.08054253974066905,0.001918628216255991,-0.15375130766201894
340,0.3306,624.702,16.7693,-0.0245565,112.798,1.37285,0.389869,0.255053,-0.0842096,-0.167384,0.213511,0.00688577,0.00191755,0.267458,0.29053001715128146,0.2380171163814664,0.006909531421498194,-0.08076143650126333,0.0019193896747027317,-0.15412526693294526
341,0.3316,625.121,16.772,-0.0243987,112.856,1.3481,0.383506,0.255736,-0.0844477,-0.167827,0.214032,0.00688809,0.00191829,0.26818,0.291411750230566,0.23866229135258732,0.00691186745432093,-0.08098028114874323,0.0019201310953254058,-0.15449990645091383
342,0.3326,625.539,16.7747,-0.0242405,112.913,1.32339,0.377158,0.256418,-0.0846856,-0.168269,0.214553,0.00689032,0.001919,0.268902,0.29229279344580994,0.23930780254744666,0.00691411287028898,-0.08119888993531166,0.0019208424588710304,-0.15487353491428935
343,0.3336,625.956,16.7775,-0.0240818,112.97,1.29874,0.370825,0.2571,-0.0849233,-0.16871,0.215073,0.00689246,0.00191969,0.269623,0.29317443773747076,0.23995241018823288,0.006916267668796161,-0.08141726300450658,0.001921533784490892,-0.15524615351695126
344,0.3346,626.372,16.7802,-0.0239226,113.028,1.27415,0.364507,0.257781,-0.0851609,-0.169152,0.215593,0.00689451,0.00192036,0.270343,0.2940553894595854,0.24059735311215813,0.006918331849260717,-0.08163549233614553,0.001922205072143246,-0.1556194522120078
345,0.3356,626.787,16.783,-0.0237629,113.085,1.2496,0.358203,0.258462,-0.0853984,-0.169593,0.216112,0.00689648,0.00192101,0.271063,0.2949369413141447,0.24124139025160463,0.006920315480328343,-0.08185357800801696,0.0019228563217883465,-0.15599174193766419
346,0.3366,627.201,16.7857,-0.0236028,113.141,1.22512,0.351915,0.259142,-0.0856357,-0.170034,0.216631,0.00689837,0.00192163,0.271783,0.2958177978915322,0.24188576173308052,0.006922218561522975,-0.0820714283049957,0.0019234775141518945,-0.15636386751974785
347,0.3376,627.614,16.7885,-0.0234422,113.198,1.20068,0.345641,0.259822,-0.0858729,-0.170474,0.217149,0.00690017,0.00192223,0.272502,0.29669925365509275,0.24252922520030817,0.006924031023147537,-0.08228913514115022,0.001924078668418705,-0.15673498576603762
348,0.3386,628.026,16.7913,-0.0232812,113.255,1.1763,0.339383,0.260501,-0.0861099,-0.170914,0.217667,0.00690189,0.00192281,0.27322,0.29758001143175083,0.2431730220679551,0.006925762933970292,-0.08250660684470701,0.0019246597845528068,-0.15710594075621798
349,0.3396,628.436,16.7941,-0.0231198,113.312,1.15198,0.33314,0.26118,-0.0863468,-0.171354,0.218184,0.00690353,0.00192337,0.273938,0.29846136744601814,0.2438159086922369,0.006927414293575573,-0.08272393528597521,0.001925220862519339,-0.15747673256210581
350,0.3406,628.846,16.7969,-0.022958,113.368,1.12771,0.326911,0.261859,-0.0865836,-0.171793,0.218701,0.00690508,0.0019239,0.274656,0.29934332210423564,0.2444591277748367,0.006928975032277407,-0.08294112054235026,0.001925751883027127,-0.15784651910242664
351,0.3416,629.254,16.7997,-0.0227957,113.424,1.10349,0.320698,0.262536,-0.0868202,-0.172232,0.219217,0.00690655,0.00192441,0.275373,0.3002232753638696,0.2451014343856226,0.006930455218958631,-0.08315807100697792,0.001926262865290962,-0.1582161433420839
352,0.3426,629.662,16.8025,-0.0226331,113.481,1.07933,0.3145,0.263214,-0.0870567,-0.172671,0.219733,0.00690794,0.0019249,0.276089,0.30110512565803504,0.24574407251214336,0.006931854853264197,-0.08337487848468994,0.0019267538092799796,-0.15858560535231192
353,0.3436,630.068,16.8053,-0.02247,113.537,1.05523,0.308317,0.263891,-0.087293,-0.173109,0.220249,0.00690924,0.00192537,0.276805,0.30198627206250883,0.24638704232550523,0.006933163865526337,-0.0835914514118049,0.0019272247149648702,-0.15895406415879842
354,0.3446,630.473,16.8082,-0.0223066,113.593,1.03118,0.30215,0.264567,-0.0875292,-0.173547,0.220763,0.00691046,0.00192582,0.27752,0.3028667123377078,0.24702784993870885,0.006934392324735583,-0.08380788154957597,0.001927675582317434,-0.15932236161566582
355,0.3456,630.878,16.811,-0.0221428,113.649,1.00719,0.295997,0.265243,-0.0877652,-0.173985,0.221278,0.00691161,0.00192624,0.278235,0.3037477479917481,0.24767023468130045,0.006935550299952631,-0.08402407737741913,0.0019280963920296212,-0.1596904977935698
356,0.3466,631.281,16.8139,-0.0219787,113.704,0.983248,0.28986,0.265919,-0.0880011,-0.174422,0.221792,0.00691267,0.00192665,0.278949,0.3046293794272421,0.24831170202491126,0.00693661765220166,-0.08424013061308477,0.0019285071826333766,-0.1600576328211879
357,0.3476,631.683,16.8167,-0.0218141,113.76,0.959365,0.283738,0.266594,-0.0882369,-0.174859,0.222305,0.00691365,0.00192703,0.279663,0.3055103015361196,0.24895225021461287,0.006937604450570456,-0.08445604133341178,0.0019288879155383576,-0.1604246074458494
358,0.3486,632.084,16.8196,-0.0216493,113.816,0.935538,0.277631,0.267268,-0.0884725,-0.175296,0.222819,0.00691455,0.00192739,0.280376,0.30639051207698564,0.24959437668358841,0.00693851069482232,-0.08467171808235496,0.001929248610003098,-0.1607914217376354
359,0.3496,632.485,16.8225,-0.0214841,113.871,0.911767,0.27154,0.267942,-0.088708,-0.175732,0.223331,0.00691537,0.00192773,0.281089,0.30727131607973046,0.2502343328192411,0.006939336384739647,-0.08488725251257134,0.0019295892660053937,-0.1611572369242521
360,0.3506,632.884,16.8254,-0.0213185,113.927,0.888052,0.265463,0.268616,-0.0889434,-0.176168,0.223843,0.00691611,0.00192805,0.281801,0.3081527139444822,0.2508746166963298,0.006940081520124153,-0.08510264470067475,0.0019299098835252604,-0.16152289265021236
361,0.3516,633.282,16.8283,-0.0211527,113.982,0.864394,0.259403,0.269289,-0.0891786,-0.176604,0.224355,0.00691677,0.00192835,0.282513,0.30903339703758714,0.25151522848270136,0.006940746100797313,-0.08531780325500327,0.0019302104625433802,-0.1618883889850259
362,0.3526,633.679,16.8312,-0.0209865,114.037,0.840791,0.253357,0.269962,-0.0894136,-0.17704,0.224866,0.00691735,0.00192863,0.283224,0.30991467302990183,0.2521549161907457,0.0069413301265994765,-0.08553272831655445,0.0019304910030415456,-0.16225372599817212
363,0.3536,634.075,16.8341,-0.02082,114.092,0.817244,0.247327,0.270634,-0.0896486,-0.177475,0.225377,0.00691786,0.00192888,0.283935,0.3107952315246949,0.2527949308627411,0.0069418436668087224,-0.0857476028766504,0.0019307414856957195,-0.16261806637758525
364,0.3546,634.471,16.837,-0.0206533,114.147,0.793754,0.241313,0.271306,-0.0898833,-0.177909,0.225887,0.00691828,0.00192912,0.284645,0.3116763819536643,0.2534340192311628,0.006942266582471879,-0.0859621527358444,0.0019309819491024616,-0.16298141128522925
365,0.3556,634.865,16.84,-0.0204862,114.202,0.770321,0.235314,0.271977,-0.090118,-0.178344,0.226397,0.00691863,0.00192933,0.285355,0.31255681215725484,0.2540734336177801,0.006942619012326956,-0.08617665224609516,0.0019311923546307952,-0.16334543519038058
366,0.3566,635.258,16.8429,-0.0203189,114.257,0.746944,0.22933,0.272648,-0.0903525,-0.178778,0.226906,0.0069189,0.00192953,0.286064,0.313437833327759,0.25471191947635763,0.006942890886870723,-0.08639091869742022,0.0019313927408892706,-0.163708464488452
367,0.3576,635.65,16.8459,-0.0201513,114.311,0.723623,0.223362,0.273318,-0.0905869,-0.179212,0.227415,0.0069191,0.0019297,0.286773,0.3143181315430601,0.2553507304069609,0.006943092275468965,-0.08660504356966203,0.0019315630692404717,-0.16407133626599257
368,0.3586,636.042,16.8489,-0.0199834,114.366,0.700359,0.217409,0.273988,-0.0908211,-0.179645,0.227924,0.00691922,0.00192985,0.287481,0.3151990197557928,0.2559898665750937,0.006943213108647317,-0.08681893562072118,0.0019317133589862312,-0.1644332150249841
369,0.3596,636.432,16.8518,-0.0198153,114.42,0.677152,0.211472,0.274657,-0.0910552,-0.180078,0.228432,0.00691926,0.00192999,0.288189,0.31607918228154697,0.25662807151764455,0.006943253386376691,-0.08703268628740068,0.0019318536294359312,-0.16479493712439208
370,0.3606,636.821,16.8548,-0.0196469,114.475,0.654002,0.20555,0.275326,-0.0912891,-0.180511,0.228939,0.00691923,0.0019301,0.288896,0.3169599338330382,0.25726534348469676,0.006943223178079494,-0.08724620437016484,0.0019319638419459384,-0.16515650263203574
371,0.3616,637.21,16.8578,-0.0194783,114.529,0.630909,0.199644,0.275994,-0.0915229,-0.180943,0.229446,0.00691912,0.00193019,0.289603,0.3178399569638404,0.25790293863055536,0.0069431124143310985,-0.08745958126285236,0.0019320540158267452,-0.16551707713319874
372,0.3626,637.597,16.8608,-0.0193095,114.583,0.607873,0.193753,0.276662,-0.0917566,-0.181376,0.229953,0.00691893,0.00193027,0.290309,0.31872056814648153,0.258540857119113,0.006942921095157928,-0.08767281704114005,0.001932134170394173,-0.16587833002190544
373,0.3636,637.984,16.8638,-0.0191404,114.637,0.584894,0.187878,0.27733,-0.0919901,-0.181807,0.230459,0.00691867,0.00193032,0.291014,0.31960176777391114,0.25917783993587706,0.006942659290032349,-0.08788582056923122,0.001932184267002146,-0.1662377589991575
374,0.3646,638.369,16.8668,-0.0189711,114.691,0.561972,0.182018,0.277997,-0.0922235,-0.182239,0.230965,0.00691834,0.00193036,0.29172,0.32048223575644585,0.2598151451475055,0.0069423269990096514,-0.0880986831766778,0.0019322243442903009,-0.16659786649844954
375,0.3656,638.754,16.8699,-0.0188017,114.745,0.539107,0.176174,0.278663,-0.0924567,-0.18267,0.23147,0.00691793,0.00193037,0.292424,0.32136196984439347,0.2604515124650286,0.006941914152740258,-0.08831131377007018,0.0019322343636125616,-0.16695698542230142
376,0.3666,639.138,16.8729,-0.018632,114.799,0.5163,0.170346,0.279329,-0.0926898,-0.183101,0.231975,0.00691745,0.00193036,0.293128,0.3222422900303925,0.2610882012292053,0.006941430820737393,-0.08852380363617429,0.0019322243442903009,-0.16731594959924756
377,0.3676,639.52,16.8759,-0.0184621,114.852,0.493549,0.164533,0.279995,-0.0929228,-0.183532,0.232479,0.00691689,0.00193034,0.293832,0.3231231967049144,0.26172394987782677,0.006940866933694112,-0.08873615285028302,0.0019322043056460014,-0.1676747590959693
378,0.3686,639.902,16.879,-0.018292,114.906,0.470857,0.158736,0.28066,-0.0931556,-0.183962,0.232983,0.00691626,0.0019303,0.294535,0.3240033662546624,0.2623600190245259,0.006940232561147841,-0.08894827038246067,0.0019321642283587348,-0.16803258201211757
379,0.3696,640.283,16.882,-0.0181218,114.959,0.448221,0.152954,0.281325,-0.0933883,-0.184392,0.233487,0.00691556,0.00193023,0.295238,0.32488412131182054,0.2629964088308743,0.006939527703231585,-0.0891602474554537,0.001932094093109571,-0.16839025109748795
380,0.3706,640.663,16.8851,-0.0179513,115.013,0.425644,0.147188,0.281989,-0.0936208,-0.184821,0.23399,0.00691479,0.00193015,0.29594,0.3257641365010815,0.26363185582603776,0.006938752360093892,-0.08937199308153743,0.0019320139385452517,-0.16874693516556416
381,0.3716,641.042,16.8882,-0.0177807,115.066,0.403123,0.141438,0.282653,-0.0938532,-0.185251,0.234492,0.00691394,0.00193005,0.296642,0.32664473621446866,0.2642663582644498,0.006937896462517967,-0.08958359844085018,0.0019319137453488455,-0.169104297145111
382,0.3726,641.42,16.8913,-0.01761,115.119,0.38066,0.135703,0.283316,-0.0940855,-0.185679,0.234995,0.00691302,0.00192993,0.297343,0.32752459331497774,0.26490244420485953,0.00693697008007943,-0.08979506360830214,0.0019317935135265696,-0.1694598444133899
383,0.3736,641.798,16.8944,-0.0174391,115.172,0.358255,0.129984,0.283979,-0.0943176,-0.186108,0.235496,0.00691203,0.00192979,0.298043,0.3284050339541662,0.2655363191018092,0.006935973212972568,-0.09000629765937884,0.0019316532430853073,-0.16981606972434404
384,0.3746,642.174,16.8975,-0.0172681,115.225,0.335908,0.124281,0.284641,-0.0945496,-0.186536,0.235998,0.00691097,0.00192963,0.298744,0.3292847292336547,0.26617177782079193,0.006934905861406548,-0.09021739171046506,0.0019314929340334963,-0.1701713124191424
385,0.3756,642.55,16.9006,-0.0170969,115.278,0.313618,0.118593,0.285303,-0.0947815,-0.186964,0.236498,0.00690984,0.00192945,0.299443,0.33016500706422125,0.2668050220075564,0.006933768025605858,-0.09042834583625114,0.0019313125863811287,-0.17052640310260025
386,0.3766,642.924,16.9037,-0.0169256,115.331,0.291386,0.112921,0.285964,-0.0950132,-0.187392,0.236999,0.00690864,0.00192926,0.300142,0.3310445367864401,0.26743985033479967,0.006932559705809194,-0.09063906917527931,0.001931122219449799,-0.17088134183976433
387,0.3776,643.298,16.9068,-0.0167542,115.384,0.269212,0.107265,0.286625,-0.0952448,-0.187819,0.237499,0.00690737,0.00192904,0.300841,0.33192464806999045,0.2680737287163566,0.006931280902270354,-0.09084965278033563,0.0019309017946271823,-0.1712352999313681
388,0.3786,643.671,16.91,-0.0165826,115.436,0.247095,0.101624,0.287286,-0.0954762,-0.188246,0.237998,0.00690603,0.00192881,0.301539,0.33280534129941075,0.26870665540906247,0.0069299316152580115,-0.09106000583189555,0.0019306713505462536,-0.17158910691513063
389,0.3796,644.043,16.9131,-0.016411,115.489,0.225037,0.0959992,0.287946,-0.0957075,-0.188673,0.238497,0.00690462,0.00192856,0.302237,0.33368528317354484,0.2693398980110011,0.006928511845055496,-0.09127021934041712,0.0019304208679096213,-0.1719427628555611
390,0.3806,644.414,16.9162,-0.0162392,115.541,0.203036,0.0903898,0.288606,-0.0959386,-0.1891,0.238996,0.00690313,0.00192829,0.302934,0.3345658060010095,0.26997345667984995,0.006927011522690485,-0.09148020252823563,0.0019301503467326064,-0.17229626781714125
391,0.3816,644.784,16.9194,-0.0160674,115.594,0.181093,0.0847962,0.289265,-0.0961697,-0.189526,0.239494,0.00690159,0.001928,0.303631,0.33544557471911807,0.27060606096667006,0.006925460856286758,-0.09169013719454633,0.0019298597870309742,-0.17264879451353354
392,0.3826,645.153,16.9226,-0.0158954,115.646,0.159208,0.0792182,0.289923,-0.0964005,-0.189952,0.239992,0.00689997,0.0019277,0.304327,0.33632458707063173,0.27123898036888194,0.006923829638361578,-0.09189975092052738,0.0019295592081183255,-0.17300117106553625
393,0.3836,645.522,16.9257,-0.0157234,115.698,0.137381,0.0736559,0.290582,-0.0966313,-0.190377,0.240489,0.00689828,0.00192737,0.305023,0.33720551520745157,0.27187094317187355,0.006922127938527423,-0.09210931627324292,0.0019292285714183066,-0.17335257089008138
394,0.3846,645.889,16.9289,-0.0155513,115.75,0.115612,0.0681093,0.291239,-0.0968619,-0.190802,0.240986,0.00689653,0.00192703,0.305718,0.3380843478958686,0.2725032201384412,0.006920365826345254,-0.0923186517276049,0.0019288879155383576,-0.17370382140143237
395,0.3856,646.256,16.9321,-0.0153791,115.802,0.0939008,0.0625784,0.291897,-0.0970923,-0.191227,0.241483,0.00689471,0.00192667,0.306413,0.338965097131505,0.2731358114247635,0.0069185332329471105,-0.09252775742034602,0.0019285272212037352,-0.1740549226630339
396,0.3866,646.622,16.9353,-0.0152069,115.854,0.0722477,0.0570631,0.292554,-0.0973227,-0.191652,0.241979,0.00689282,0.0019263,0.307107,0.33984508624509036,0.2737674434190154,0.006916630158717796,-0.0927368149406852,0.0019281565077171603,-0.1744058747383035
397,0.3876,646.987,16.9385,-0.0150346,115.906,0.0506526,0.0515636,0.29321,-0.0975529,-0.192076,0.242475,0.00689087,0.0019259,0.307801,0.34072431297650474,0.274399388780445,0.006914666673203396,-0.09294564288886686,0.0019277557365346976,-0.17475585244689718
398,0.3886,647.351,16.9417,-0.0148623,115.958,0.0291155,0.0460797,0.293866,-0.0977829,-0.1925,0.24297,0.00688884,0.00192549,0.308494,0.3416041166698778,0.27503037263351104,0.006912622638504784,-0.09315424140125383,0.00192734494623914,-0.17510568179639663
399,0.3896,647.714,16.9449,-0.0146899,116.009,0.00763642,0.0406115,0.294522,-0.0980128,-0.192923,0.243465,0.00688676,0.00192506,0.309187,0.34248449770382083,0.2756616689009006,0.006910528262427773,-0.0933627012777748,0.0019269141175735083,-0.17545453830464353
400,0.3906,648.077,16.9482,-0.0145174,116.061,-0.0137846,0.035159,0.295177,-0.0982426,-0.193347,0.243959,0.0068846,0.00192461,0.309879,0.34336411309240855,0.27629200144465726,0.006908353338035633,-0.09357102259198535,0.0019264632505635593,-0.17580407147413402
401,0.3916,648.438,16.9514,-0.014345,116.112,-0.0351476,0.0297222,0.295831,-0.0984722,-0.19377,0.244453,0.00688238,0.00192415,0.310571,0.3442429605741726,0.2769226454496152,0.00690611800397245,-0.09377911479529921,0.0019260023644964708,-0.17615263262601943
402,0.3926,648.799,16.9546,-0.0141725,116.164,-0.0564525,0.0243011,0.296485,-0.0987017,-0.194192,0.244946,0.0068801,0.00192367,0.311262,0.3451223830101795,0.2775523235167119,0.006903822260640569,-0.09398706862483897,0.0019255214401308063,-0.17650022286835187
403,0.3936,649.159,16.9579,-0.0139999,116.215,-0.0776994,0.0188956,0.297139,-0.0989311,-0.194615,0.24544,0.00687775,0.00192317,0.311953,0.34600238077657197,0.2781835902745806,0.0069014560394384805,-0.09419488415394384,0.0019250204774952095,-0.17684848961046962
404,0.3946,649.518,16.9612,-0.0138274,116.266,-0.0988882,0.0135058,0.297792,-0.0991603,-0.195037,0.245932,0.00687533,0.00192265,0.312643,0.34688160736745854,0.27881261132748625,0.006899019340863344,-0.0944024708961464,0.0019244994766201007,-0.17719578626310628
405,0.3956,649.877,16.9644,-0.0136549,116.317,-0.120019,0.00813166,0.298445,-0.0993894,-0.195459,0.246425,0.00687286,0.00192212,0.313333,0.3477614082808047,0.27944322137747557,0.0068965323033569614,-0.09460991952591613,0.001923968456776004,-0.1775429363874752
406,0.3966,650.234,16.9677,-0.0134823,116.368,-0.141092,0.00277318,0.299098,-0.0996184,-0.19588,0.246916,0.00687031,0.00192157,0.314023,0.3486417838917657,0.28007158224914197,0.006893964720473322,-0.09481723011637622,0.0019234173987450198,-0.17788911793492723
407,0.3976,650.591,16.971,-0.0133098,116.419,-0.162106,-0.00256966,0.29975,-0.0998472,-0.196301,0.247408,0.00686771,0.001921,0.314711,0.3495213850536818,0.28070153242264384,0.006891346799568376,-0.09502431224302688,0.0019228463025597886,-0.17823515377062227
408,0.3986,650.947,16.9743,-0.0131372,116.47,-0.183063,-0.00789684,0.300401,-0.100076,-0.196722,0.247899,0.00686504,0.00192042,0.3154,0.3504002095016723,0.2813305112767359,0.006888658403261472,-0.09523134699470692,0.001922265187477512,-0.17858104395589192
409,0.3996,651.302,16.9776,-0.0129647,116.521,-0.203962,-0.0132084,0.301052,-0.100304,-0.197143,0.248389,0.0068623,0.00191982,0.316088,0.35127960625064225,0.28195851707611697,0.006885899532117046,-0.09543761073263246,0.0019216640342987201,-0.17892678855204236
410,0.4006,651.656,16.9809,-0.0127922,116.572,-0.224802,-0.0185043,0.301703,-0.100533,-0.197563,0.24888,0.00685951,0.00191921,0.316775,0.35215957567328093,0.28258811326121624,0.006883090324376173,-0.09564473180350697,0.0019210528622699563,-0.1792715668923308
411,0.4016,652.01,16.9842,-0.0126197,116.622,-0.245585,-0.0237846,0.302353,-0.100761,-0.197983,0.249369,0.00685665,0.00191857,0.317462,0.3530387651030784,0.2832154522204757,0.006880210642855822,-0.09585090130043994,0.0019204116330013843,-0.17961620045612148
412,0.4026,652.362,16.9875,-0.0124472,116.673,-0.266309,-0.0290492,0.303002,-0.100989,-0.198402,0.249859,0.00685373,0.00191792,0.318149,0.35391717227392494,0.28384438186724337,0.006877270556933324,-0.09605702379608605,0.001919760384945457,-0.17995986926448715
413,0.4036,652.714,16.9908,-0.0122748,116.723,-0.286976,-0.0342983,0.303652,-0.101217,-0.198822,0.250348,0.00685075,0.00191726,0.318835,0.3547975045128857,0.2844723352920757,0.006874270067137811,-0.09626309930116017,0.0019190991181219363,-0.18030421380198136
414,0.4046,653.065,16.9941,-0.0121024,116.774,-0.307584,-0.0395317,0.3043,-0.101445,-0.199241,0.250836,0.0068477,0.00191658,0.31952,0.3556756977997053,0.28509931076127026,0.00687119910529721,-0.09646912782637518,0.0019184178133659913,-0.1806475943931407
415,0.4056,653.416,16.9975,-0.0119301,116.824,-0.328135,-0.0447496,0.304949,-0.101673,-0.199659,0.251324,0.0068446,0.00191588,0.320205,0.35655581689533156,0.285726592269161,0.006868077809418116,-0.09667510938244106,0.001917716470719144,-0.18099001212839205
416,0.4066,653.765,17.0008,-0.0117578,116.874,-0.348628,-0.0499518,0.305597,-0.1019,-0.200078,0.251812,0.00684143,0.00191516,0.32089,0.3574351499378159,0.28635417996513146,0.006864886042670326,-0.09688014086065799,0.0019169950902229171,-0.18133310543024406
417,0.4076,654.114,17.0042,-0.0115855,116.924,-0.369062,-0.0551385,0.306244,-0.102128,-0.200496,0.252299,0.0068382,0.00191444,0.321574,0.3583136946583956,0.2869807870172074,0.006861633874340578,-0.09708602871643435,0.0019162737102462746,-0.1816752366817611
418,0.4086,654.462,17.0075,-0.0114134,116.974,-0.389439,-0.0603096,0.306891,-0.102355,-0.200914,0.252786,0.00683492,0.00191369,0.322258,0.35919280798133246,0.28760769930123553,0.006858331373597704,-0.09729096692654882,0.0019155222733227006,-0.1820172249523001
419,0.4096,654.809,17.0109,-0.0112412,117.024,-0.409758,-0.0654652,0.307538,-0.102582,-0.201331,0.253272,0.00683157,0.00191293,0.322941,0.3600724902746313,0.2882336287316274,0.006854958403837319,-0.09749585862096932,0.0019147608178151643,-0.18235825266027617
420,0.4106,655.156,17.0143,-0.0110692,117.074,-0.430019,-0.0706052,0.308184,-0.102809,-0.201748,0.253758,0.00682816,0.00191215,0.323624,0.36095138095447377,0.28885986243765527,0.006851525034283101,-0.09770070381025375,0.001913979324606352,-0.18269913818934425
421,0.4116,655.501,17.0177,-0.0108972,117.124,-0.450222,-0.0757297,0.30883,-0.103036,-0.202165,0.254244,0.00682469,0.00191136,0.324306,0.3618308395811223,0.2894864005672333,0.006848031265552779,-0.09790550250495755,0.0019131878128755275,-0.18303988159878082
422,0.4126,655.846,17.021,-0.0107253,117.174,-0.470368,-0.0808386,0.309475,-0.103263,-0.202582,0.254729,0.00682117,0.00191055,0.324988,0.3627095038114043,0.290111953155749,0.00684448716672037,-0.09811025471563384,0.001912376263522031,-0.18338048294783726
423,0.4136,656.19,17.0244,-0.0105535,117.223,-0.490456,-0.085932,0.31012,-0.10349,-0.202998,0.255214,0.00681758,0.00190973,0.325669,0.3635887349629272,0.2907378092108548,0.006840872601499681,-0.09831496045283317,0.0019115546957102492,-0.18372012601627463
424,0.4146,656.534,17.0278,-0.0103818,117.273,-0.510486,-0.09101,0.310764,-0.103716,-0.203414,0.255699,0.00681394,0.00190889,0.32635,0.3644671689336221,0.2913639688797678,0.006837207707393489,-0.0985187182462729,0.0019107130903577296,-0.18405962782258012
425,0.4156,656.876,17.0313,-0.0102101,117.322,-0.530458,-0.0960724,0.311408,-0.103943,-0.20383,0.256183,0.00681024,0.00190803,0.32703,0.3653461687979922,0.2919891403199899,0.006833482416616743,-0.09872333127277388,0.0019098514475150985,-0.1843989884255065
426,0.4166,657.218,17.0347,-0.0100386,117.372,-0.550372,-0.101119,0.312052,-0.104169,-0.204245,0.256666,0.00680648,0.00190716,0.32771,0.36622573492059063,0.292613321802458,0.006829696729840018,-0.09892699678483652,0.0019089797863234281,-0.1847373926215824
427,0.4176,657.559,17.0381,-0.00986716,117.421,-0.570229,-0.106151,0.312695,-0.104395,-0.20466,0.25715,0.00680266,0.00190628,0.328389,0.36710450056102095,0.2932390980758526,0.006825850647744547,-0.09913061627369424,0.0019080981068091418,-0.18507565640905377
428,0.4186,657.9,17.0415,-0.00969583,117.47,-0.590029,-0.111167,0.313337,-0.104621,-0.205075,0.257632,0.00679878,0.00190538,0.329068,0.3679824634463118,0.29386258957050426,0.006821944171022443,-0.09933418974974706,0.0019071963899266464,-0.18541377984617802
429,0.4196,658.239,17.045,-0.00952461,117.52,-0.60977,-0.116167,0.31398,-0.104847,-0.20549,0.258115,0.00679485,0.00190446,0.329747,0.36886235902642084,0.294487676147523,0.006817987368556988,-0.09953771722339289,0.0019062746357298987,-0.18575176299118845
430,0.4206,658.578,17.0484,-0.00935351,117.569,-0.629454,-0.121153,0.314621,-0.105072,-0.205904,0.258597,0.00679086,0.00190353,0.330425,0.36974008107842105,0.29511176960186614,0.006813970172801831,-0.09974029844577548,0.0019053428633277747,-0.1860887919914933
431,0.4216,658.917,17.0519,-0.00918253,117.618,-0.649081,-0.126122,0.315263,-0.105298,-0.206318,0.259078,0.00678681,0.00190259,0.331102,0.3706197365496662,0.2957348682062455,0.0068098925844797265,-0.0999437341492263,0.0019044010727482519,-0.18642568149067074
432,0.4226,659.254,17.0553,-0.00901167,117.667,-0.66865,-0.131077,0.315904,-0.105523,-0.206732,0.25956,0.00678271,0.00190163,0.331779,0.3714985854417727,0.29635956295206034,0.006805764672382253,-0.10014622402807716,0.001903439244984817,-0.18676243154646222
433,0.4236,659.591,17.0588,-0.00884094,117.716,-0.688162,-0.136016,0.316544,-0.105749,-0.207145,0.26004,0.00677855,0.00190065,0.332456,0.37237662547929684,0.2969819649067964,0.006801576369112938,-0.10034956800271211,0.0019024573800954236,-0.18709822931522124
434,0.4246,659.927,17.0622,-0.00867035,117.764,-0.707617,-0.140939,0.317184,-0.105974,-0.207558,0.260521,0.00677434,0.00189966,0.333132,0.37325522764230623,0.29760596329149736,0.006797337743398746,-0.10055196657921783,0.0019014654971536427,-0.18743388842813613
435,0.4256,660.262,17.0657,-0.00849989,117.813,-0.727014,-0.145848,0.317824,-0.106199,-0.207971,0.261001,0.00677007,0.00189866,0.333808,0.3741343922906759,0.2982289636620046,0.0067930387279449,-0.10075431962116654,0.001900463596189228,-0.18776940894245997
436,0.4266,660.596,17.0692,-0.00832957,117.862,-0.746354,-0.150741,0.318463,-0.106424,-0.208383,0.261481,0.00676574,0.00189764,0.334483,0.3750127447710796,0.2988522631444708,0.006788679323525448,-0.1009566271388026,0.0018994416582374107,-0.18810397901980713
437,0.4276,660.93,17.0727,-0.0081594,117.91,-0.765636,-0.155618,0.319102,-0.106648,-0.208795,0.26196,0.00676136,0.00189661,0.335158,0.3758916586980816,0.2994745624072921,0.006784269598767212,-0.10115799030080741,0.001898409702344006,-0.18843841128267413
438,0.4286,661.263,17.0762,-0.00798937,117.959,-0.784862,-0.160481,0.31974,-0.106873,-0.209207,0.262439,0.00675693,0.00189556,0.335832,0.37676975766011433,0.3000971598228619,0.006779809554331884,-0.10136020700275761,0.0018973577095662275,-0.1887727057878289
439,0.4296,661.596,17.0797,-0.0078195,118.007,-0.80403,-0.165328,0.320378,-0.107098,-0.209619,0.262917,0.00675244,0.0018945,0.336506,0.3776484170280354,0.30071875481462507,0.006775289123135408,-0.10156237821106817,0.0018962956989299062,-0.18910686259201592
440,0.4306,661.928,17.0832,-0.00764979,118.056,-0.823141,-0.170159,0.321015,-0.107322,-0.21003,0.263395,0.00674789,0.00189342,0.337179,0.37852625863254996,0.30134064699981744,0.0067707083059913575,-0.10176360570002874,0.0018952136515146822,-0.18944007119243278
441,0.4316,662.259,17.0867,-0.00748023,118.104,-0.842195,-0.174976,0.321652,-0.107546,-0.210441,0.263873,0.0067433,0.00189233,0.337852,0.3794046596003049,0.30196283652053224,0.006766087239045593,-0.10196478811907983,0.0018941215863270688,-0.18977314287225389
442,0.4326,662.589,17.0902,-0.00731085,118.152,-0.861192,-0.179777,0.322289,-0.10777,-0.210852,0.26435,0.00673865,0.00189123,0.338525,0.3802836202877278,0.30258402093425696,0.006761405787624186,-0.10216592547831582,0.0018930195033994845,-0.19010607768774213
443,0.4336,662.918,17.0938,-0.00714163,118.2,-0.880132,-0.184563,0.322925,-0.107994,-0.211262,0.264827,0.00673394,0.00189011,0.339197,0.3811617598890238,0.30320550172362726,0.006756663952570019,-0.1023670177878292,0.0018918973838459863,-0.19043806613360814
444,0.4346,663.247,17.0973,-0.00697258,118.248,-0.899016,-0.189334,0.323561,-0.108218,-0.211672,0.265304,0.00672918,0.00188898,0.339868,0.38204045816474563,0.3038272790300476,0.006751871802255005,-0.10256806505770988,0.001890765246641557,-0.19076991849211122
445,0.4356,663.575,17.1009,-0.00680371,118.296,-0.917842,-0.19409,0.324196,-0.108442,-0.212082,0.26578,0.00672437,0.00188783,0.340539,0.3829183325512997,0.30444804854628993,0.006747029337397681,-0.10276906729804558,0.0018896130729240124,-0.19110163481903564
446,0.4366,663.903,17.1044,-0.00663502,118.344,-0.936612,-0.19883,0.324831,-0.108665,-0.212492,0.266255,0.00671951,0.00188668,0.34121,0.383796764565117,0.3050678085506977,0.006742136558724576,-0.10296912748849785,0.00188846090053163,-0.191433215170143
447,0.4376,664.23,17.108,-0.00646652,118.392,-0.955325,-0.203556,0.325465,-0.108889,-0.212901,0.266731,0.00671459,0.0018855,0.34188,0.3846743698853412,0.3056891686995511,0.006737183399597502,-0.10317003990091012,0.0018872786728452162,-0.1917638513654274
448,0.4386,664.556,17.1115,-0.0062982,118.44,-0.973981,-0.208266,0.326099,-0.109112,-0.21331,0.267206,0.00670963,0.00188432,0.34255,0.38555253178375515,0.30630951837606757,0.006732189995551474,-0.10337001068444118,0.0018860964465539087,-0.19209435235815864
449,0.4396,664.881,17.1151,-0.00613007,118.488,-0.992581,-0.212961,0.326733,-0.109335,-0.213718,0.26768,0.00670461,0.00188312,0.343219,0.38643125061334116,0.3069288558591654,0.006727136212642648,-0.10356993687945926,0.0018848941839595401,-0.19242391062793784
450,0.4406,665.206,17.1187,-0.00596213,118.535,-1.01112,-0.217641,0.327366,-0.109558,-0.214127,0.268155,0.00669954,0.0018819,0.343888,0.3873091394174726,0.3075497945269572,0.006722032119001131,-0.10376981849590661,0.0018836718851342749,-0.19275414171163097
451,0.4416,665.53,17.1222,-0.0057944,118.583,-1.02961,-0.222306,0.327999,-0.109781,-0.214535,0.268628,0.00669442,0.00188068,0.344556,0.3881875841011342,0.3081684118712369,0.006716877715391867,-0.10396965554372306,0.0018824495878000391,-0.1930834308422621
452,0.4426,665.854,17.1258,-0.00562686,118.63,-1.04804,-0.226956,0.328631,-0.110004,-0.214943,0.269102,0.00668924,0.00187944,0.345224,0.389065195950419,0.3087886306787089,0.006711662935471541,-0.10416944803284622,0.0018812072543328284,-0.1934125856503316
453,0.4436,666.176,17.1294,-0.00545953,118.678,-1.06642,-0.231591,0.329263,-0.110226,-0.21535,0.269575,0.00668402,0.00187818,0.345891,0.38994336262569873,0.30940783413109196,0.006706407914306656,-0.10436830034195999,0.0018799448848070277,-0.1937407999318349
454,0.4446,666.498,17.133,-0.00529241,118.725,-1.08473,-0.236211,0.329895,-0.110449,-0.215758,0.270048,0.00667875,0.00187691,0.346558,0.39082208447773503,0.31002733053598575,0.006701102585516594,-0.10456800394320465,0.0018786724980850433,-0.19406968658802248
455,0.4456,666.82,17.1366,-0.0051255,118.772,-1.10299,-0.240816,0.330526,-0.110671,-0.216164,0.27052,0.00667342,0.00187564,0.347225,0.391699970156844,0.3106458093855249,0.0066957368829394515,-0.10476676778272676,0.0018774001129788775,-0.19439682788109158
456,0.4466,667.141,17.1403,-0.00495881,118.82,-1.1212,-0.245406,0.331156,-0.110893,-0.216571,0.270992,0.00666805,0.00187434,0.347891,0.3925770173789094,0.3112645802259857,0.0066903309413473,-0.10496548750157397,0.0018760976732052903,-0.19472464165751535
457,0.4476,667.461,17.1439,-0.00479233,118.867,-1.13935,-0.249981,0.331787,-0.111115,-0.216978,0.271463,0.00666262,0.00187304,0.348556,0.39345601077012526,0.31188233131223275,0.006684864627691356,-0.10516416310954024,0.0018747952351250152,-0.1950523220408793
458,0.4486,667.78,17.1475,-0.00462607,118.914,-1.15744,-0.254541,0.332416,-0.111337,-0.217384,0.271935,0.00665715,0.00187172,0.349222,0.39433277031286895,0.312501685928803,0.006679358076542297,-0.10536279461641684,0.0018734727612681468,-0.19537906446493036
459,0.4496,668.099,17.1511,-0.00446004,118.961,-1.17548,-0.259086,0.333046,-0.111559,-0.217789,0.272405,0.00665163,0.00187039,0.349886,0.3952114767216217,0.31311870670971476,0.006673801221822595,-0.10556138203199328,0.001872140270435363,-0.19570486996375525
460,0.4506,668.417,17.1548,-0.00429423,119.008,-1.19346,-0.263616,0.333675,-0.111781,-0.218195,0.272876,0.00664606,0.00186904,0.350551,0.39608934079978897,0.3137373312952285,0.006668194064365807,-0.10575992536605672,0.0018707877439589904,-0.19603134750712403
461,0.4516,668.734,17.1584,-0.00412866,119.055,-1.21139,-0.268132,0.334303,-0.112002,-0.2186,0.273346,0.00664044,0.00186768,0.351214,0.39696636026109844,0.31435493296596095,0.006662536605012592,-0.1059575305863697,0.001869425200614172,-0.19635688888480496
462,0.4526,669.051,17.1621,-0.00396332,119.102,-1.22926,-0.272632,0.334931,-0.112224,-0.219005,0.273815,0.00663477,0.00186631,0.351878,0.39784393066360724,0.3149715100055357,0.006656828844611606,-0.10615598598521514,0.0018680526404417641,-0.1966822984449228
463,0.4536,669.367,17.1657,-0.00379821,119.148,-1.24707,-0.277118,0.335559,-0.112445,-0.21941,0.274285,0.00662905,0.00186493,0.352541,0.39872205235341474,0.31558969187659835,0.006651070784018609,-0.10635350368580254,0.001866670063483289,-0.19700757624085274
464,0.4546,669.683,17.1694,-0.00363335,119.195,-1.26483,-0.281589,0.336186,-0.112666,-0.219814,0.274754,0.00662329,0.00186354,0.353203,0.3995993260768125,0.3162068481539231,0.006645272490549914,-0.10655097773980138,0.0018652774697796026,-0.19733191965826957
465,0.4556,669.997,17.173,-0.00346873,119.242,-1.28253,-0.286045,0.336813,-0.112887,-0.220218,0.275222,0.00661748,0.00186213,0.353865,0.40047715002331175,0.3168229771217921,0.006639423898507024,-0.10674840815685616,0.0018638648407343084,-0.19765613206741128
466,0.4566,670.312,17.1767,-0.00330435,119.288,-1.30018,-0.290487,0.33744,-0.113108,-0.220622,0.27569,0.00661162,0.00186071,0.354527,0.4013555245380105,0.31743939450550185,0.006633525008766794,-0.10694579494660983,0.0018624421950563796,-0.19798021352119444
467,0.4576,670.625,17.1804,-0.00314022,119.335,-1.31777,-0.294913,0.338066,-0.113329,-0.221026,0.276158,0.00660571,0.00185928,0.355188,0.4022330477324745,0.31805610044006305,0.006627575822213849,-0.10714313811870291,0.001861009532788449,-0.1983041640725144
468,0.4586,670.938,17.1841,-0.00297634,119.381,-1.33531,-0.299325,0.338691,-0.11355,-0.221429,0.276626,0.00659976,0.00185783,0.355849,0.40310971731801537,0.31867309506054875,0.006621586405956226,-0.1073404376827739,0.0018595568353776404,-0.19862718240182797
469,0.4596,671.251,17.1878,-0.00281271,119.428,-1.35279,-0.303723,0.339317,-0.11377,-0.221832,0.277093,0.00659375,0.00185638,0.356509,0.40398833898094444,0.31928905921237694,0.0066155366284015305,-0.1075368011857063,0.001858104140073591,-0.19895007058098202
470,0.4606,671.562,17.1915,-0.00264935,119.474,-1.37022,-0.308106,0.339941,-0.113991,-0.222235,0.277559,0.00658771,0.00185491,0.357169,0.4048647011010138,0.31990399118199075,0.0066094566889216555,-0.10773401375985214,0.0018566314097427927,-0.19927282866241625
471,0.4616,671.873,17.1952,-0.00248624,119.52,-1.38759,-0.312474,0.340566,-0.114211,-0.222637,0.278026,0.00658162,0.00185343,0.357828,0.40574301598401186,0.32052053029655103,0.006603326455997038,-0.10793029068557147,0.0018551486630256075,-0.19959465629360607
472,0.4626,672.184,17.1989,-0.00232339,119.566,-1.4049,-0.316827,0.34119,-0.114431,-0.223039,0.278492,0.00657548,0.00185193,0.358487,0.4066204733642167,0.32113603626542164,0.006597145930546722,-0.10812652443511683,0.0018536458814297774,-0.19991635457608892
473,0.4636,672.493,17.2026,-0.0021608,119.612,-1.42217,-0.321166,0.341813,-0.114651,-0.223441,0.278957,0.00656929,0.00185043,0.359145,0.40749707095091803,0.32175050737574606,0.006590915113497964,-0.10832271501798563,0.001852143102087922,-0.20023792356185255
474,0.4646,672.803,17.2063,-0.00199849,119.658,-1.43937,-0.32549,0.342436,-0.114871,-0.223843,0.279423,0.00656306,0.00184891,0.359803,0.408374214828068,0.3223665866475047,0.006584644071631063,-0.1085188624436737,0.0018506202879877698,-0.20055936330286395
475,0.4656,673.111,17.21,-0.00183644,119.704,-1.45652,-0.3298,0.343059,-0.115091,-0.224244,0.279887,0.00655679,0.00184739,0.360461,0.409251905336111,0.3229803071158468,0.006578332805698528,-0.10871496672167458,0.0018490974762022105,-0.20087987473134317
476,0.4666,673.419,17.2138,-0.00167467,119.75,-1.47362,-0.334096,0.343682,-0.11531,-0.224645,0.280352,0.00655047,0.00184585,0.361118,0.4101301428157045,0.3235956360115366,0.006571971250737718,-0.10891013677206196,0.001847554629780257,-0.20120025766050553
477,0.4676,673.727,17.2175,-0.00151317,119.796,-1.49067,-0.338376,0.344303,-0.11553,-0.225046,0.280816,0.0065441,0.00184429,0.361775,0.4110061055926848,0.3242099268911087,0.006565559407702537,-0.10910615497917875,0.0018459917488140576,-0.20152051214186872
478,0.4686,674.033,17.2213,-0.00135194,119.842,-1.50765,-0.342643,0.344925,-0.115749,-0.225446,0.28128,0.00653769,0.00184273,0.362431,0.4118840243948063,0.3248245028677865,0.006559107343145687,-0.10930123936871794,0.001844428870285908,-0.20183984006716915
479,0.4696,674.339,17.225,-0.001191,119.888,-1.52459,-0.346895,0.345546,-0.115968,-0.225846,0.281743,0.00653124,0.00184116,0.363087,0.41276107667050166,0.3254380386351843,0.006552615057840994,-0.10949628103945375,0.0018428559757672769,-0.2021590402868424
480,0.4706,674.645,17.2288,-0.00103033,119.933,-1.54147,-0.351132,0.346167,-0.116187,-0.226246,0.282206,0.00652474,0.00183957,0.363742,0.41363867376480856,0.32605185853541396,0.00654607248710648,-0.10969128000074047,0.0018412630468926938,-0.20247811285196027
481,0.4716,674.95,17.2325,-0.000869956,119.979,-1.55829,-0.355356,0.346787,-0.116406,-0.226646,0.282669,0.0065182,0.00183797,0.364397,0.4145154015000563,0.32666596270005943,0.006539489697318102,-0.1098862362619305,0.0018396601021541947,-0.2027970578135746
482,0.4726,675.254,17.2363,-0.000709864,120.024,-1.57506,-0.359564,0.347407,-0.116625,-0.227045,0.283131,0.00651161,0.00183636,0.365052,0.41539267297504145,0.32727902398107833,0.0065328566239371,-0.11008114983237416,0.0018380471415999633,-0.2031150783381932
483,0.4736,675.558,17.2401,-0.000550061,120.07,-1.59178,-0.363759,0.348026,-0.116844,-0.227444,0.283593,0.00650498,0.00183474,0.365706,0.41626907225720733,0.3278923685618462,0.006526183333219526,-0.11027602072141962,0.0018364241652781832,-0.20343297199793375
484,0.4746,675.861,17.2438,-0.000390549,120.115,-1.60844,-0.367939,0.348645,-0.117062,-0.227843,0.284055,0.00649831,0.00183311,0.36636,0.41714601419846464,0.3285059965732777,0.006519469825966295,-0.11046995940881743,0.0018347911732377042,-0.2037507388434051
485,0.4756,676.163,17.2476,-0.000231329,120.161,-1.62505,-0.372105,0.349264,-0.117281,-0.228242,0.284516,0.0064916,0.00183147,0.367013,0.41802349913482306,0.32911857902710473,0.006512716102982541,-0.11066474515788882,0.0018331481655273762,-0.20406837892519625
486,0.4766,676.465,17.2514,-7.24053e-05,120.206,-1.64161,-0.376257,0.349882,-0.117499,-0.22864,0.284977,0.00648484,0.00182982,0.367666,0.418900108501683,0.3297314439465462,0.006505912100019273,-0.11085859911259566,0.0018314951421967152,-0.20438509667937022
487,0.4776,676.767,17.2552,8.62212e-05,120.251,-1.65811,-0.380394,0.3505,-0.117717,-0.229038,0.285438,0.00647804,0.00182815,0.368318,0.4197772597805651,0.330344591461849,0.006499067883087406,-0.11105241081174633,0.0018298220849968239,-0.20470168840495928
488,0.4786,677.067,17.259,0.000244548,120.296,-1.67456,-0.384517,0.351117,-0.117935,-0.229436,0.285898,0.0064712,0.00182647,0.36897,0.4206535326522316,0.33095669074596357,0.006492183453007838,-0.11124618026455158,0.0018281390123093821,-0.205018154152113
489,0.4796,677.367,17.2628,0.000402573,120.341,-1.69095,-0.388626,0.351734,-0.118153,-0.229833,0.286358,0.00646431,0.00182479,0.369621,0.421530346351088,0.33156907166051863,0.006485248745753847,-0.11143990748022015,0.0018264559424496785,-0.2053336993050573
490,0.4806,677.667,17.2666,0.000560295,120.387,-1.70729,-0.392721,0.352351,-0.118371,-0.230231,0.286817,0.00645739,0.00182309,0.370272,0.42240770121092774,0.3321804021540262,0.006478283891931058,-0.11163359246795879,0.001824752838922139,-0.20564991356192264
491,0.4816,677.966,17.2705,0.000717711,120.432,-1.72358,-0.396802,0.352967,-0.118589,-0.230627,0.287276,0.00645042,0.00182138,0.370923,0.42328417428086373,0.33279201331263786,0.006471268762740179,-0.11182723523697202,0.0018230397200595938,-0.2059644139209712
492,0.4826,678.264,17.2743,0.000874819,120.476,-1.73982,-0.400869,0.353583,-0.118806,-0.231024,0.287735,0.00644341,0.00181966,0.371573,0.4241611874245368,0.3334039052652087,0.006464213423875043,-0.11201994781685454,0.001821316585913113,-0.20627958348334696
493,0.4836,678.562,17.2781,0.00103162,120.521,-1.756,-0.404921,0.354199,-0.119024,-0.23142,0.288193,0.00643636,0.00181793,0.372223,0.42503874097473426,0.33401474412524124,0.006457117876182306,-0.1122135063695816,0.0018195834365346553,-0.20659383454247116
494,0.4846,678.859,17.2819,0.0011881,120.566,-1.77213,-0.40896,0.354814,-0.119241,-0.231817,0.288651,0.00642927,0.00181619,0.372872,0.4259154093483273,0.33462586281354767,0.006449982120512843,-0.11240613513772213,0.0018178402719759568,-0.20690875427445488
495,0.4856,679.156,17.2858,0.00134428,120.611,-1.7882,-0.412984,0.355428,-0.119458,-0.232212,0.289109,0.00642214,0.00181444,0.373521,0.42679119024688905,0.33523726145831856,0.006442806157722636,-0.11259872210995503,0.0018160870922896422,-0.2072219634536312
496,0.4866,679.452,17.2896,0.00150014,120.656,-1.80422,-0.416995,0.356042,-0.119675,-0.232608,0.289566,0.00641497,0.00181268,0.37417,0.4276675090400395,0.33584760433953087,0.00643558998867233,-0.11279126729534905,0.001814323897527892,-0.2075358414041676
497,0.4876,679.748,17.2935,0.00165568,120.7,-1.82019,-0.420992,0.356656,-0.119892,-0.233003,0.290023,0.00640775,0.00181091,0.374818,0.42854436605814694,0.3364582262111844,0.006428323549944492,-0.11298377070297083,0.0018125506877437747,-0.20784880293284191
498,0.4886,680.042,17.2973,0.0018109,120.745,-1.83611,-0.424975,0.35727,-0.120109,-0.233398,0.29048,0.0064005,0.00180913,0.375465,0.42942176163178325,0.33706912720080706,0.00642102697104896,-0.11317623234188523,0.0018107674629908033,-0.208161640866124
499,0.4896,680.337,17.3012,0.0019658,120.789,-1.85198,-0.428943,0.357883,-0.120325,-0.233793,0.290936,0.00639321,0.00180733,0.376112,0.4302982657927419,0.3376789697563458,0.006413690188505017,-0.11336776558936401,0.001808964205232133,-0.20847435525282465
500,0.4906,680.631,17.3051,0.00212038,120.834,-1.86779,-0.432898,0.358495,-0.120542,-0.234187,0.291392,0.00638588,0.00180553,0.376759,0.4311738762408748,0.33828909046350386,0.006406313203192626,-0.11356014391042835,0.001807160950719533,-0.20878615492828534
501,0.4916,680.924,17.3089,0.00227463,120.878,-1.88355,-0.436839,0.359107,-0.120758,-0.234582,0.291848,0.00637851,0.00180372,0.377406,0.4320500227266124,0.33889948944914683,0.006398896015996636,-0.11375159424196357,0.001805347681399283,-0.20909862268064494
502,0.4926,681.217,17.3128,0.00242856,120.923,-1.89925,-0.440767,0.359719,-0.120974,-0.234976,0.292303,0.0063711,0.00180189,0.378051,0.43292670557811075,0.33950882733070187,0.006391438627806778,-0.11394300322469297,0.001803514379290494,-0.20941017644318716
503,0.4936,681.509,17.3167,0.00258216,120.967,-1.91491,-0.44468,0.360331,-0.121191,-0.235369,0.292758,0.00636365,0.00180006,0.378697,0.43380392512372556,0.34011844252407686,0.006383941039517671,-0.11413525673273306,0.0018016810805365768,-0.20972081719893831
504,0.4946,681.8,17.3206,0.00273543,121.011,-1.93051,-0.44858,0.360942,-0.121407,-0.235763,0.293213,0.00635616,0.00179822,0.379342,0.43468024701105046,0.34072833515547685,0.006376403252028151,-0.11432658285331398,0.0017998377671393229,-0.21003212586512743
505,0.4956,682.091,17.3245,0.00288837,121.055,-1.94606,-0.452466,0.361552,-0.121622,-0.236156,0.293667,0.00634863,0.00179636,0.379987,0.4355556689382696,0.3413371640133309,0.006368825266242828,-0.11451698216934059,0.00179797442117402,-0.21034252224277927
506,0.4966,682.382,17.3284,0.00304098,121.099,-1.96156,-0.456338,0.362162,-0.121838,-0.236549,0.294121,0.00634107,0.0017945,0.380631,0.4364316250357696,0.34194626934224037,0.006361217146682696,-0.11470822584613138,0.0017961110786743895,-0.2106527966586217
507,0.4976,682.672,17.3323,0.00319326,121.143,-1.97701,-0.460197,0.362772,-0.122054,-0.236941,0.294574,0.00633347,0.00179263,0.381275,0.437308115629494,0.3425543087127718,0.00635356883049587,-0.11489942821874899,0.0017942377216983996,-0.21096216012313096
508,0.4986,682.961,17.3362,0.0033452,121.187,-1.99241,-0.464042,0.363382,-0.122269,-0.237334,0.295028,0.00632582,0.00179074,0.381918,0.4381851410455848,0.3431639667508304,0.00634587025514155,-0.11508970438626098,0.0017923443323781818,-0.2112721910691313
509,0.4996,683.25,17.3401,0.0034968,121.231,-2.00775,-0.467874,0.363991,-0.122485,-0.237726,0.29548,0.00631815,0.00178885,0.382561,0.43906126254840117,0.34377121409136224,0.006338151611917642,-0.11528082436841236,0.001790450946636657,-0.21158131177861472
510,0.5006,683.538,17.344,0.00364806,121.275,-2.02304,-0.471691,0.364599,-0.1227,-0.238118,0.295933,0.00631043,0.00178695,0.383203,0.4399364778345163,0.3443800803491408,0.006330382711375204,-0.11547101854456654,0.0017885475465881928,-0.21189031133652736
511,0.5016,683.826,17.3479,0.00379899,121.319,-2.03828,-0.475496,0.365208,-0.122915,-0.238509,0.296385,0.00630268,0.00178504,0.383846,0.4408136662262718,0.3449878774972661,0.006322583681130478,-0.11566117183336844,0.0017866341322896329,-0.21219840198914708
512,0.5026,684.113,17.3519,0.00394957,121.363,-2.05347,-0.479287,0.365815,-0.12313,-0.2389,0.296837,0.00629489,0.00178312,0.384487,0.44168850560856243,0.3455959494317995,0.006314744458737476,-0.11585128424360791,0.0017847107037987087,-0.2125063722018692
513,0.5036,684.4,17.3558,0.00409981,121.407,-2.06861,-0.483064,0.366423,-0.123345,-0.239291,0.297288,0.00628706,0.00178118,0.385128,0.44256531874415517,0.3462029500733492,0.006306865045136334,-0.11604135578407271,0.0017827672433450292,-0.21281422202177636
514,0.5046,684.686,17.3597,0.00424971,121.45,-2.0837,-0.486828,0.36703,-0.12356,-0.239682,0.29774,0.0062792,0.00177924,0.385769,0.44344122170228695,0.3468115713448279,0.006298955504261627,-0.11623138646354914,0.0017808237866616672,-0.21312195149593316
515,0.5056,684.971,17.3637,0.00439926,121.494,-2.09873,-0.490578,0.367637,-0.123774,-0.240073,0.29819,0.0062713,0.00177729,0.38641,0.4443176564949096,0.34741777293706155,0.006291005773914504,-0.11642049271175559,0.0017788703159600239,-0.21342956067138552
516,0.5066,685.257,17.3676,0.00454846,121.537,-2.11372,-0.494315,0.368243,-0.123989,-0.240463,0.298641,0.00626336,0.00177533,0.38705,0.4451931782510441,0.3480255954063203,0.006283015855048646,-0.1166104418855547,0.001776906831298275,-0.2137362633318174
517,0.5076,685.541,17.3716,0.00469732,121.581,-2.12866,-0.498039,0.368849,-0.124203,-0.240853,0.299091,0.00625539,0.00177336,0.387689,0.4460692307341567,0.3486323434323202,0.006274995811372364,-0.11679946702458,0.0017749333327357064,-0.21404284640153348
518,0.5086,685.825,17.3755,0.00484582,121.624,-2.14354,-0.501749,0.369454,-0.124417,-0.241243,0.299541,0.00624738,0.00177139,0.388328,0.44694436732087484,0.34923936455637405,0.00626693558093705,-0.11698845171655348,0.0017729598380609168,-0.21434930992716494
519,0.5096,686.109,17.3795,0.00499398,121.668,-2.15837,-0.505446,0.370059,-0.124631,-0.241632,0.29999,0.00623934,0.0017694,0.388967,0.4478200335254212,0.3498453090554201,0.006258845227298249,-0.11717739597012988,0.0017709663118545826,-0.21465486861058625
520,0.5106,686.391,17.3835,0.00514178,121.711,-2.17316,-0.509129,0.370664,-0.124845,-0.242021,0.300439,0.00623126,0.0017674,0.389606,0.44869622966831146,0.3504515256846348,0.006250714688676329,-0.11736629979396218,0.0017689627719255085,-0.2149603084547954
521,0.5116,686.674,17.3874,0.00528924,121.754,-2.18789,-0.5128,0.371268,-0.125059,-0.24241,0.300888,0.00622314,0.0017654,0.390243,0.44957150649802413,0.35105801456623187,0.006242543966046066,-0.11755516319670145,0.0017669592360034514,-0.2152656295060119
522,0.5126,686.956,17.3914,0.00543634,121.798,-2.20257,-0.516457,0.371872,-0.125273,-0.242799,0.301337,0.00621499,0.00176338,0.390881,0.4504473121546315,0.3516647758224807,0.006234343122731412,-0.11774398618699677,0.0017649356687896578,-0.21557083181043724
523,0.5136,687.237,17.3954,0.00558308,121.841,-2.2172,-0.520101,0.372476,-0.125487,-0.243187,0.301785,0.00620681,0.00176136,0.391518,0.4513236469576418,0.35227045730457096,0.0062261121594693325,-0.11793276877349557,0.0017629121056632613,-0.2158751312897782
524,0.5146,687.518,17.3994,0.00572947,121.884,-2.23179,-0.523732,0.373079,-0.1257,-0.243575,0.302232,0.00619859,0.00175933,0.392155,0.45219905902697044,0.3528750573170216,0.006217841014821701,-0.11812062908591325,0.0017608785290157414,-0.21617931272382362
525,0.5156,687.798,17.4034,0.0058755,121.927,-2.24632,-0.527349,0.373682,-0.125913,-0.243963,0.30268,0.00619034,0.00175728,0.392791,0.4530749991289629,0.35348128112669386,0.006209539751876214,-0.11830844938834562,0.001758824921319846,-0.21648337615836588
526,0.5166,688.078,17.4074,0.00602117,121.97,-2.2608,-0.530954,0.374284,-0.126127,-0.244351,0.303127,0.00618205,0.00175523,0.393427,0.4539500136313781,0.35408642249837796,0.006201198309366829,-0.1184971111926435,0.0017567713178336941,-0.21678732163918002
527,0.5176,688.357,17.4114,0.00616648,122.013,-2.27523,-0.534545,0.374886,-0.12634,-0.244738,0.303574,0.00617373,0.00175317,0.394062,0.4548255550511098,0.35469183442872065,0.006192826750222702,-0.11868485131292683,0.0017547077010102718,-0.217090366302781
528,0.5186,688.636,17.4154,0.00631143,122.056,-2.28962,-0.538124,0.375488,-0.126553,-0.245125,0.30402,0.00616537,0.00175111,0.394697,0.45570162370545786,0.3552961617418491,0.006184415013352318,-0.11887255144882303,0.0017526440884378935,-0.21739329371078764
529,0.5196,688.915,17.4194,0.00645602,122.099,-2.30395,-0.541689,0.376089,-0.126766,-0.245512,0.304466,0.00615698,0.00174903,0.395332,0.45657676333442176,0.3559007586450733,0.006175973161523851,-0.11906021160884794,0.0017505604451051315,-0.21769610390856897
530,0.5206,689.192,17.4234,0.00660025,122.142,-2.31823,-0.545242,0.37669,-0.126978,-0.245899,0.304912,0.00614856,0.00174695,0.395966,0.45745242908038475,0.35650562525865737,0.006167501195496916,-0.11924695104890681,0.0017484768061064582,-0.21799879694147672
531,0.5216,689.47,17.4274,0.00674411,122.184,-2.33247,-0.548781,0.37729,-0.127191,-0.246285,0.305358,0.0061401,0.00174485,0.3966,0.45832716293174647,0.357110761702919,0.00615898905444312,-0.11943453147030936,0.0017463731365139346,-0.21830059115582667
532,0.5226,689.746,17.4315,0.00688762,122.227,-2.34665,-0.552308,0.37789,-0.127403,-0.246671,0.305803,0.00613161,0.00174275,0.397233,0.4592024217809023,0.3577148103827399,0.006150446800887943,-0.11962119156296869,0.0017442694713392104,-0.21860226890009016
533,0.5236,690.023,17.4355,0.00703075,122.27,-2.36079,-0.555821,0.37849,-0.127616,-0.247057,0.306248,0.00612309,0.00174064,0.397866,0.460078205942946,0.35831912792404075,0.006141874435599659,-0.11980869227963054,0.0017421557931605047,-0.2189038302192159
534,0.5246,690.298,17.4395,0.00717352,122.312,-2.37488,-0.559322,0.379089,-0.127828,-0.247442,0.306692,0.00611454,0.00173852,0.398499,0.4609530547793743,0.3589223555234562,0.006133271959348763,-0.11999527305860591,0.0017400321020415443,-0.21920449436301992
535,0.5256,690.574,17.4436,0.00731592,122.355,-2.38892,-0.56281,0.379688,-0.12804,-0.247828,0.307136,0.00610595,0.00173639,0.399131,0.4618284278072353,0.3595258510153936,0.006124629311662799,-0.12018181428664865,0.00173789839804539,-0.21950582326797574
536,0.5266,690.848,17.4476,0.00745796,122.397,-2.40291,-0.566285,0.380287,-0.128252,-0.248213,0.30758,0.00609733,0.00173425,0.399763,0.46270432534061356,0.3601296145188235,0.006115956554737956,-0.1203683159721427,0.0017357546812366564,-0.21980625568906553
537,0.5276,691.123,17.4517,0.00759963,122.44,-2.41685,-0.569748,0.380885,-0.128464,-0.248598,0.308024,0.00608868,0.00173211,0.400394,0.4635792841137665,0.3607336461527697,0.006107253689353609,-0.12055477812347015,0.0017336109690153645,-0.22010657246593623
538,0.5286,691.396,17.4557,0.00774092,122.482,-2.43074,-0.573198,0.381483,-0.128676,-0.248982,0.308467,0.00607999,0.00172996,0.401025,0.46445476626874105,0.36133658469904284,0.006098510655307532,-0.12074120074901151,0.0017314572440672027,-0.22040599404948602
539,0.5296,691.67,17.4598,0.00788185,122.524,-2.44459,-0.576635,0.38208,-0.128887,-0.249366,0.30891,0.00607128,0.0017278,0.401656,0.4653293067885742,0.3619397904062638,0.006089747575443116,-0.12092670478428946,0.001729293506456342,-0.2207053006772206
540,0.5306,691.943,17.4638,0.00802241,122.567,-2.45838,-0.580059,0.382677,-0.129099,-0.24975,0.309352,0.00606253,0.00172563,0.402286,0.4662043695649758,0.36254190085022886,0.006080944328666016,-0.12111304856973604,0.0017271197562478413,-0.22100449239327458
541,0.5316,692.215,17.4679,0.00816259,122.609,-2.47213,-0.583471,0.383274,-0.12931,-0.250134,0.309794,0.00605375,0.00172345,0.402915,0.4670799549098259,0.3631442774858342,0.006072110976753198,-0.12129847415340078,0.001724935993507204,-0.22130356924176564
542,0.5326,692.487,17.472,0.0083024,122.651,-2.48583,-0.58687,0.38387,-0.129521,-0.250518,0.310236,0.00604494,0.00172127,0.403545,0.46795459517986204,0.3637469204307626,0.006063247520499138,-0.12148386061639482,0.0017227522355269809,-0.2216025312667943
543,0.5336,692.758,17.476,0.00844184,122.693,-2.49948,-0.590256,0.384466,-0.129733,-0.250901,0.310678,0.0060361,0.00171907,0.404174,0.46882975689087325,0.36434982980274877,0.0060543539607007535,-0.12167008629732445,0.001720548447896153,-0.22190060041343385
544,0.5346,693.029,17.4801,0.00858091,122.735,-2.51309,-0.59363,0.385061,-0.129944,-0.251284,0.311119,0.00602722,0.00171687,0.404802,0.46970397064902514,0.36495164076725595,0.0060454202377033806,-0.12185539435842774,0.0017183446651138912,-0.22219855542144928
545,0.5356,693.299,17.4842,0.0087196,122.777,-2.52664,-0.596992,0.385657,-0.130154,-0.251667,0.31156,0.00601832,0.00171466,0.40543,0.47058017529858076,0.3655537171889276,0.006036466473307467,-0.12203978536387927,0.0017161308700184286,-0.2224963963345472
546,0.5366,693.569,17.4883,0.00885792,122.819,-2.54015,-0.60034,0.386251,-0.130365,-0.252049,0.312001,0.00600939,0.00171245,0.406058,0.47145395941089774,0.36615605918485605,0.006027482607774859,-0.12222501542670872,0.0017139170798152747,-0.22279334599015221
547,0.5376,693.838,17.4924,0.00899586,122.861,-2.55361,-0.603677,0.386846,-0.130576,-0.252431,0.312441,0.00600042,0.00171022,0.406685,0.472329735034158,0.3667573001142017,0.0060184585817286695,-0.1224102064101178,0.0017116832602710463,-0.22309018223265198
548,0.5386,694.107,17.4965,0.00913343,122.903,-2.56703,-0.607001,0.38744,-0.130786,-0.252813,0.312881,0.00599143,0.00170799,0.407312,0.4732045586936726,0.367358805647765,0.0060094145164393264,-0.12259448091727121,0.0017094494457079445,-0.2233869051053622
549,0.5396,694.376,17.5006,0.00927062,122.945,-2.58039,-0.610313,0.388033,-0.130997,-0.253195,0.313321,0.0059824,0.00170575,0.407939,0.4740784280736412,0.3679605759019975,0.006000330292441403,-0.1227795939516858,0.0017072056190543528,-0.22368351465158176
550,0.5406,694.644,17.5047,0.00940743,122.987,-2.59371,-0.613612,0.388626,-0.131207,-0.253577,0.31376,0.00597335,0.0017035,0.408565,0.47495281581183013,0.3685612424314748,0.005991226030649166,-0.12296379089559983,0.0017049517803773284,-0.22398001091459308
551,0.5416,694.911,17.5088,0.00954386,123.029,-2.60698,-0.616899,0.389219,-0.131417,-0.253958,0.314199,0.00596427,0.00170125,0.40919,0.4758277222157168,0.3691621727114478,0.00598209167178676,-0.12314794916221705,0.0017026979467713588,-0.22427561821366826
552,0.5426,695.178,17.5129,0.00967992,123.07,-2.62021,-0.620174,0.389812,-0.131627,-0.254339,0.314638,0.00595515,0.00169898,0.409816,0.4767031475929615,0.36976336685772804,0.0059729171569467,-0.12333206875965863,0.0017004240842277696,-0.22457111290781506
553,0.5436,695.445,17.5171,0.0098156,123.112,-2.63339,-0.623436,0.390404,-0.131837,-0.25472,0.315076,0.00594601,0.00169671,0.410441,0.47757761467305326,0.37036345462203846,0.005963722606503019,-0.1235161496960443,0.0016981502268460513,-0.22486649503992784
554,0.5446,695.711,17.5212,0.00995089,123.154,-2.64652,-0.626686,0.390996,-0.132047,-0.2551,0.315514,0.00593684,0.00169443,0.411065,0.47845259959092123,0.37096380528235984,0.005954497961461858,-0.123700191979492,0.001695866357667164,-0.2251609898142618
555,0.5456,695.976,17.5253,0.0100858,123.195,-2.6596,-0.629924,0.391587,-0.132256,-0.25548,0.315952,0.00592764,0.00169215,0.411689,0.4793266233258531,0.3715644189538654,0.00594524322265233,-0.12388331950187559,0.0016935824936954447,-0.22545537270184135
556,0.5466,696.242,17.5294,0.0102204,123.237,-2.67264,-0.63315,0.392178,-0.132466,-0.25586,0.316389,0.00591841,0.00168986,0.412313,0.4802011637614825,0.3721639235871701,0.005935958390907103,-0.12406728468775963,0.0016912886180180386,-0.22574964374517537
557,0.5476,696.506,17.5336,0.0103545,123.278,-2.68563,-0.636364,0.392769,-0.132675,-0.25624,0.316826,0.00590915,0.00168756,0.412936,0.4810762212032693,0.3727636902612512,0.0059266434670604,-0.12425033549578413,0.0016889847307035577,-0.22604380298675664
558,0.5486,696.771,17.5377,0.0104883,123.32,-2.69858,-0.639566,0.393359,-0.132885,-0.25662,0.317263,0.00589986,0.00168525,0.413559,0.48195031400580013,0.3733637190906458,0.005917298451950437,-0.12443422361640155,0.0016866708318215018,-0.22633785046906163
559,0.5496,697.034,17.5419,0.0106217,123.361,-2.71148,-0.642755,0.393949,-0.133094,-0.256999,0.3177,0.00589055,0.00168293,0.414182,0.4828249226752501,0.3739640101899404,0.005907933405496113,-0.12461719774220348,0.0016843469214409268,-0.22663101286595044
560,0.5506,697.298,17.546,0.0107547,123.402,-2.72433,-0.645933,0.394538,-0.133303,-0.257378,0.318136,0.0058812,0.00168061,0.414804,0.483698563816765,0.37456318910989594,0.005898528210288134,-0.1248001336304092,0.0016820230164515948,-0.22692406417534328
561,0.5516,697.56,17.5502,0.0108856,123.443,-2.73714,-0.649099,0.395127,-0.133512,-0.257757,0.318572,0.00587183,0.00167828,0.415425,0.484572719684484,0.3751626293288197,0.005889102985235928,-0.12498303128900934,0.0016796891000570024,-0.22721700443933424
562,0.5526,697.823,17.5543,0.011022,123.485,-2.7499,-0.652251,0.395716,-0.133721,-0.258135,0.319007,0.00586243,0.00167595,0.416047,0.48544739058167075,0.37576095519901975,0.005879647672107913,-0.12516589072599316,0.0016773551891005045,-0.22750906120944914
563,0.5536,698.085,17.5585,0.0111508,123.526,-2.76262,-0.655394,0.396305,-0.133929,-0.258513,0.319443,0.00585301,0.0016736,0.416668,0.48632257681176627,0.37636091775782,0.005870172330455947,-0.12534783729762267,0.0016750012500816869,-0.2278010076029674
564,0.5546,698.346,17.5627,0.0112833,123.567,-2.77529,-0.658523,0.396893,-0.134138,-0.258891,0.319877,0.00584355,0.00167125,0.417288,0.4871967914808566,0.3769583880377996,0.005860656843633905,-0.1255306204981177,0.0016726473165946665,-0.22809284366160343
565,0.5556,698.607,17.5668,0.0114139,123.608,-2.78792,-0.661641,0.39748,-0.134346,-0.259269,0.320312,0.00583407,0.00166889,0.417908,0.4880700322685527,0.3775574952329639,0.005851121329805586,-0.12571249121384398,0.0016702833719364207,-0.2283845694270562
566,0.5566,698.868,17.571,0.0115448,123.649,-2.8005,-0.664747,0.398067,-0.134555,-0.259647,0.320746,0.00582456,0.00166653,0.418528,0.4889437857990664,0.37815548494027507,0.005841555731126213,-0.12589519820963413,0.0016679194328570457,-0.2286761849410084
567,0.5576,699.128,17.5752,0.0116751,123.69,-2.81303,-0.667841,0.398654,-0.134763,-0.260024,0.32118,0.00581503,0.00166416,0.419147,0.4898180523734663,0.3787537342314451,0.005831970106775497,-0.12607699310108234,0.0016655454827012584,-0.22896691921243195
568,0.5586,699.387,17.5794,0.011805,123.731,-2.82552,-0.670924,0.399241,-0.134971,-0.260401,0.321614,0.00580547,0.00166178,0.419766,0.49069283229299754,0.3793522432191576,0.005822354399104501,-0.1262587501831255,0.001663161521539891,-0.22925754389769348
569,0.5596,699.647,17.5835,0.0119346,123.772,-2.83797,-0.673994,0.399827,-0.135179,-0.260778,0.322048,0.00579588,0.0016594,0.420385,0.4915666342917018,0.3799510120161451,0.005812708608977424,-0.12644046946362708,0.0016607775660524293,-0.22954805903809916
570,0.5606,699.905,17.5877,0.0120638,123.813,-2.85036,-0.677053,0.400413,-0.135387,-0.261154,0.322481,0.00578626,0.001657,0.421003,0.49244094848843667,0.3805486601858392,0.005803032737261571,-0.12662215095044904,0.0016583735830708601,-0.22983769451301927
571,0.5616,700.164,17.5919,0.0121926,123.853,-2.86272,-0.680101,0.400998,-0.135595,-0.261531,0.322913,0.00577662,0.00165461,0.421621,0.49331428186840975,0.38114518604734826,0.005793336842760288,-0.12680379465145153,0.0016559796224189238,-0.23012799097786596
572,0.5626,700.422,17.5961,0.012321,123.894,-2.87503,-0.683136,0.401583,-0.135802,-0.261907,0.323346,0.00576695,0.0016522,0.422238,0.49418812629787734,0.3817433514063613,0.005783610868218325,-0.12698452755945733,0.0016535656344167649,-0.23041740843936576
573,0.5636,700.679,17.6003,0.012449,123.935,-2.8873,-0.68616,0.402168,-0.13601,-0.262283,0.323778,0.00575726,0.00164979,0.422855,0.4950624820758911,0.3823403934859728,0.005773864872248291,-0.12716609589396355,0.0016511516522323966,-0.23070671710035584
574,0.5646,700.936,17.6045,0.0125767,123.976,-2.89952,-0.689173,0.402752,-0.136217,-0.262658,0.32421,0.00574754,0.00164737,0.423472,0.49593585356507597,0.38293769354348206,0.005764088797793665,-0.1273467538133738,0.0016487276593786238,-0.23099514799727006
575,0.5656,701.193,17.6087,0.0127039,124.016,-2.91169,-0.692174,0.403336,-0.136424,-0.263033,0.324641,0.00573779,0.00164495,0.424088,0.49680973525217365,0.3835338681557994,0.0057542826457328555,-0.1275273743404649,0.0016463036723906033,-0.2312834707528756
576,0.5666,701.449,17.613,0.0128308,124.057,-2.92383,-0.695163,0.40392,-0.136631,-0.263409,0.325073,0.00572802,0.00164251,0.424704,0.49768412743522705,0.38413168390574737,0.005744456474392479,-0.12770795748297636,0.0016438596583914222,-0.2315724538356484
577,0.5676,701.705,17.6172,0.0129573,124.097,-2.93592,-0.698141,0.404503,-0.136838,-0.263783,0.325504,0.00571822,0.00164008,0.42532,0.4985575318541715,0.38472837323882536,0.005734600227014663,-0.12788850324864598,0.0016414256667696137,-0.23185979200232731
578,0.5686,701.96,17.6214,0.0130834,124.138,-2.94796,-0.701107,0.405086,-0.137045,-0.264158,0.325934,0.0057084,0.00163763,0.425935,0.49943144561635133,0.38532393447580726,0.005724723961732847,-0.1280690116452099,0.001638971648282972,-0.23214779057721868
579,0.5696,702.215,17.6256,0.0132091,124.178,-2.95996,-0.704062,0.405669,-0.137252,-0.264532,0.326365,0.00569855,0.00163518,0.426549,0.5003058690188003,0.38592113777963366,0.005714817621990775,-0.12824948268040282,0.001636517635808632,-0.23243491360818924
580,0.5706,702.469,17.6299,0.0133345,124.219,-2.97192,-0.707006,0.406251,-0.137459,-0.264906,0.326795,0.00568868,0.00163272,0.427164,0.5011793011786734,0.38651721201565503,0.005704891265727374,-0.12842991636195766,0.001634053613005948,-0.2327219292752245
581,0.5716,702.723,17.6341,0.0134594,124.259,-2.98383,-0.709938,0.406833,-0.137665,-0.26528,0.327224,0.00567879,0.00163026,0.427777,0.5020532418240184,0.38711215550586386,0.005694944893537723,-0.12860944130748275,0.0016315895962648597,-0.23300883761847102
582,0.5726,702.977,17.6383,0.013584,124.299,-2.9957,-0.712859,0.407414,-0.137872,-0.265654,0.327654,0.00566886,0.00162779,0.428391,0.5029261883239202,0.387708741989633,0.005684958392317974,-0.1287898004853132,0.0016291155692940151,-0.23329563867806058
583,0.5736,703.23,17.6426,0.0137081,124.339,-3.00753,-0.715768,0.407995,-0.138078,-0.266027,0.328083,0.00565892,0.00162532,0.429004,0.5037996421531035,0.3883041967558616,0.005674961933514133,-0.1289692513023445,0.0016266415484338381,-0.23358156607605884
584,0.5746,703.482,17.6468,0.0138319,124.38,-3.01931,-0.718666,0.408576,-0.138284,-0.2664,0.328512,0.00564895,0.00162283,0.429617,0.5046736036064121,0.38889990702698674,0.005664935404125826,-0.12914866515631473,0.001624147501201545,-0.23386738684302566
585,0.5756,703.735,17.6511,0.0139553,124.42,-3.03105,-0.721553,0.409156,-0.13849,-0.266773,0.32894,0.00563895,0.00162034,0.430229,0.5055465674315411,0.3894944834174656,0.005654878805054997,-0.12932804205483772,0.0016216534601793953,-0.23415310101872677
586,0.5766,703.987,17.6553,0.0140783,124.46,-3.04275,-0.724429,0.409736,-0.138696,-0.267146,0.329368,0.00562893,0.00161785,0.430841,0.5064200377225494,0.3900893143411055,0.005644802193653264,-0.12950738200552525,0.001619159425367389,-0.2344387086429135
587,0.5776,704.238,17.6596,0.014201,124.5,-3.0544,-0.727294,0.410316,-0.138902,-0.267518,0.329796,0.00561889,0.00161535,0.431453,0.5072940147732727,0.3906843999068703,0.005634705570524368,-0.129686685015988,0.0016166553805987416,-0.23472344447914928
588,0.5786,704.489,17.6638,0.0143232,124.54,-3.06602,-0.730147,0.410895,-0.139108,-0.267891,0.330224,0.00560883,0.00161284,0.432064,0.508166990709972,0.39127974022377043,0.005624588936272934,-0.1298659510938347,0.0016141413259489479,-0.23500883940489603
589,0.5796,704.74,17.6681,0.0144451,124.58,-3.07758,-0.73299,0.411474,-0.139313,-0.268263,0.330651,0.00559874,0.00161033,0.432675,0.5090404722460955,0.3918739435262226,0.005614442235360784,-0.13004431029141816,0.0016116272776094398,-0.23529336319193184
590,0.5806,704.99,17.6724,0.0145665,124.62,-3.08911,-0.735821,0.412053,-0.139519,-0.268634,0.331078,0.00558862,0.00160781,0.433285,0.5099144596744702,0.39246840060766286,0.005604265468700076,-0.13022350270604566,0.0016091032194889276,-0.2355770167332022
591,0.5816,705.239,17.6766,0.0146876,124.66,-3.1006,-0.738642,0.412631,-0.139724,-0.269006,0.331505,0.00557849,0.00160529,0.433896,0.5107874424998944,0.3930631115764782,0.005594078749086684,-0.13040178861306106,0.0016065791677291053,-0.2358613291975804
592,0.5826,705.489,17.6809,0.0148083,124.7,-3.11204,-0.741451,0.413209,-0.139929,-0.269377,0.331932,0.00556833,0.00160276,0.434505,0.5116609300552446,0.3936580765411013,0.005583861965147818,-0.13058003797521156,0.001604045106289309,-0.23614477206254547
593,0.5836,705.738,17.6852,0.0149287,124.739,-3.12344,-0.744249,0.413786,-0.140134,-0.269748,0.332358,0.00555815,0.00160022,0.435115,0.5125334100981729,0.3942519013574133,0.005573625173538321,-0.13075825079998804,0.0016015010352457004,-0.23642810978971207
594,0.5846,705.986,17.6895,0.0150486,124.779,-3.13479,-0.747037,0.414363,-0.140339,-0.270119,0.332784,0.00554794,0.00159768,0.435723,0.5134063937073505,0.39484597919698716,0.005563358319237821,-0.13093642709487974,0.0015989569706640339,-0.23671134241807879
595,0.5856,706.234,17.6937,0.0151681,124.819,-3.14611,-0.749813,0.41494,-0.140544,-0.270489,0.333209,0.00553771,0.00159513,0.436332,0.5142798811734195,0.3954389147280213,0.005553071458699543,-0.13111456686737477,0.0015964028965802513,-0.23699370698071864
596,0.5866,706.482,17.698,0.0152873,124.859,-3.15738,-0.752579,0.415516,-0.140749,-0.27086,0.333634,0.00552746,0.00159258,0.43694,0.515152357634074,0.39603210231021313,0.005542764592539884,-0.13129267012495938,0.001593848829009259,-0.23727672981144743
597,0.5876,706.729,17.7023,0.0154061,124.898,-3.16861,-0.755333,0.416092,-0.140954,-0.27123,0.334059,0.00551719,0.00159002,0.437548,0.5160253367859307,0.39662554205070744,0.005532437721376127,-0.13147073687511823,0.0015912847520382911,-0.2375588852194478
598,0.5886,706.976,17.7066,0.0155245,124.938,-3.1798,-0.758077,0.416668,-0.141158,-0.271599,0.334484,0.00550689,0.00158745,0.438155,0.5168988189186237,0.3972192340566938,0.005522080790605788,-0.13164789877366767,0.0015887106657441752,-0.2378401740898135
599,0.5896,707.223,17.7109,0.0156425,124.977,-3.19095,-0.76081,0.417244,-0.141363,-0.271969,0.334908,0.00549658,0.00158488,0.438763,0.5177728043219529,0.3978117806229289,0.005511713911394267,-0.13182589270941725,0.0015861365860656562,-0.23812212106199393
600,0.5906,707.469,17.7152,0.0157601,125.017,-3.20206,-0.763533,0.417818,-0.141567,-0.272338,0.335333,0.00548624,0.00158231,0.439369,0.518644255994337,0.39840597688745594,0.0055013169740245615,-0.1320029821635661,0.0015835625130022901,-0.23840320213667443
601,0.5916,707.714,17.7195,0.0158774,125.056,-3.21313,-0.766244,0.418393,-0.141771,-0.272707,0.335756,0.00547588,0.00157972,0.439975,0.5195177275405372,0.3989976277410128,0.005490900034340607,-0.1321800354951509,0.0015809684149346026,-0.23868417951157206
602,0.5926,707.959,17.7238,0.0159942,125.096,-3.22415,-0.768945,0.418967,-0.141975,-0.273076,0.33618,0.00546549,0.00157714,0.440581,0.5203901810863587,0.3995909285060488,0.005480453038161581,-0.13235705271153986,0.0015783843393695207,-0.2389650532249452
603,0.5936,708.204,17.7281,0.0161107,125.135,-3.23513,-0.771636,0.419541,-0.142179,-0.273445,0.336603,0.00545509,0.00157455,0.441187,0.5212631355642694,0.4001830807001665,0.005469996095826213,-0.13253403382009987,0.0015757902547135494,-0.23924582331503774
604,0.5946,708.449,17.7325,0.0162268,125.174,-3.24608,-0.774315,0.420115,-0.142383,-0.273813,0.337026,0.00544466,0.00157195,0.441792,0.5221365912618865,0.40077548342764624,0.005459509098456605,-0.13271097882819616,0.0015731861610441822,-0.2395257293461892
605,0.5956,708.693,17.7368,0.0163425,125.214,-3.25698,-0.776985,0.420688,-0.142587,-0.274182,0.337449,0.00543422,0.00156934,0.442397,0.5230090254572062,0.40136813679448635,0.005449012155975819,-0.13288788774319238,0.0015705720584398009,-0.23980629258495945
606,0.5966,708.936,17.7411,0.0164578,125.253,-3.26784,-0.779643,0.421261,-0.14279,-0.27455,0.337871,0.00542375,0.00156673,0.443001,0.5238819597005697,0.40195963894638953,0.0054384851599273976,-0.13306389363677784,0.001567957962657962,-0.24008599240136552
607,0.5976,709.18,17.7454,0.0165728,125.292,-3.27866,-0.782291,0.421834,-0.142994,-0.274917,0.338293,0.00541326,0.00156412,0.443605,0.5247553942785868,0.402551390764877,0.005427938165537105,-0.13324073056449603,0.0015653438736991099,-0.24036482967238526
608,0.5986,709.423,17.7498,0.0166874,125.331,-3.28944,-0.784929,0.422406,-0.143197,-0.275285,0.338715,0.00540275,0.0015615,0.444209,0.5256278038494651,0.4031433923553298,0.005417371173436658,-0.13341666483825854,0.0015627197759358058,-0.24064432398495816
609,0.5996,709.665,17.7541,0.0168015,125.371,-3.30018,-0.787556,0.422978,-0.1434,-0.275652,0.339136,0.00539222,0.00155888,0.444812,0.5265007125813641,0.4037342400882322,0.005406784184258884,-0.13359256340098813,0.0015600956850474468,-0.24092295638588268
610,0.6006,709.907,17.7584,0.0169153,125.41,-3.31088,-0.790172,0.423549,-0.143603,-0.276019,0.339557,0.00538166,0.00155625,0.445415,0.5273725933865288,0.40432533662039893,0.005396167144675834,-0.13376842625993368,0.001557461585459663,-0.2412014865474782
611,0.6016,710.149,17.7628,0.0170288,125.449,-3.32154,-0.792779,0.42412,-0.143806,-0.276386,0.339978,0.00537109,0.00155361,0.446018,0.5282449721777949,0.40491668205659614,0.005385540163352909,-0.13394425342234206,0.0015548174772512802,-0.24147991450725959
612,0.6026,710.39,17.7671,0.0171418,125.488,-3.33216,-0.795375,0.424691,-0.144009,-0.276752,0.340399,0.0053605,0.00155097,0.44662,0.5291178492395934,0.4055082765016349,0.005374893186858465,-0.13412004489545915,0.0015521733760233136,-0.2417574820605891
613,0.6036,710.631,17.7714,0.0172545,125.527,-3.34274,-0.79796,0.425261,-0.144212,-0.277119,0.340819,0.00534989,0.00154833,0.447222,0.5299896948660583,0.40609871396095243,0.0053642262158299925,-0.13429580068652902,0.0015495292817759854,-0.24203570600745583
614,0.6046,710.871,17.7758,0.0173667,125.566,-3.35328,-0.800535,0.425831,-0.144415,-0.277485,0.341239,0.00533925,0.00154567,0.447823,0.5308620375861883,0.4066893994560872,0.0053535291973714205,-0.13447152080279445,0.001546865163571276,-0.2423130701783176
615,0.6056,711.112,17.7801,0.0174786,125.604,-3.36378,-0.8031,0.426401,-0.144617,-0.27785,0.341659,0.0053286,0.00154302,0.448424,0.5317348776834081,0.40728033309123535,0.00534282223930016,-0.13464633989826913,0.0015442110678953735,-0.2425895754424221
616,0.6066,711.351,17.7845,0.0175902,125.643,-3.37424,-0.805655,0.42697,-0.14482,-0.278216,0.342079,0.00531793,0.00154036,0.449025,0.5326066828338538,0.407871514970638,0.005332095288615113,-0.1348219888622968,0.001541546963837126,-0.24286673693416316
617,0.6076,711.591,17.7888,0.0177013,125.682,-3.38467,-0.8082,0.427539,-0.145022,-0.278581,0.342498,0.00530724,0.00153769,0.449625,0.5334789841825853,0.40846153673633845,0.005321348345959098,-0.1349967371703733,0.0015388728514766914,-0.24314304014677846
618,0.6086,711.83,17.7932,0.0178121,125.721,-3.39505,-0.810734,0.428108,-0.145224,-0.278947,0.342917,0.00529652,0.00153502,0.450225,0.5343517820120194,0.4090518057729584,0.005310571358869476,-0.13517145018285648,0.001536198746256101,-0.24341999910750312
619,0.6096,712.068,17.7976,0.0179224,125.759,-3.40539,-0.813258,0.428676,-0.145426,-0.279312,0.343335,0.00528579,0.00153235,0.450825,0.5352235413804254,0.4096409125425087,0.005299784434310784,-0.1353461279068755,0.001533524648175355,-0.24369610041627476
620,0.6106,712.306,17.8019,0.0180325,125.798,-3.4157,-0.815772,0.429244,-0.145628,-0.279676,0.343754,0.00527504,0.00152967,0.451424,0.5360957960488044,0.4102316758411322,0.005288977519715354,-0.13552077034955778,0.0015308405419260929,-0.24397134493818118
621,0.6116,712.544,17.8063,0.0181421,125.837,-3.42596,-0.818276,0.429812,-0.14583,-0.280041,0.344172,0.00526427,0.00152698,0.452023,0.5369685462985669,0.41082127589946116,0.005278150615730448,-0.1356953775180294,0.0015281464275884726,-0.24424724504244666
622,0.6126,712.782,17.8107,0.0182513,125.875,-3.43619,-0.82077,0.430379,-0.146032,-0.280405,0.34459,0.00525348,0.00152429,0.452622,0.5378402545702596,0.4114111224621304,0.005267303723004435,-0.1358699494194151,0.0015254523204981663,-0.24452228898421702
623,0.6136,713.019,17.8151,0.0183602,125.914,-3.44638,-0.823254,0.430946,-0.146234,-0.280769,0.345007,0.00524268,0.0015216,0.45322,0.538712457240691,0.41199980363169053,0.005256446894751132,-0.1360444860608382,0.0015227582206549517,-0.2447972328282113
624,0.6146,713.255,17.8194,0.0184687,125.952,-3.45652,-0.825728,0.431513,-0.146435,-0.281133,0.345424,0.00523185,0.0015189,0.453817,0.5395851545902648,0.4125887303324882,0.0052455600263838775,-0.1362181236679758,0.0015200541128583822,-0.24507207661085884
625,0.6156,713.492,17.8238,0.0185768,125.991,-3.46664,-0.828192,0.432079,-0.146637,-0.281496,0.345841,0.005221,0.00151619,0.454415,0.540456806441967,0.4131779026669309,0.005234653171227288,-0.13639258998530357,0.001517339997189282,-0.24534606571501805
626,0.6166,713.728,17.8282,0.0186846,126.029,-3.47671,-0.830646,0.432645,-0.146838,-0.28186,0.346258,0.00521014,0.00151349,0.455012,0.5413289517882631,0.4137673207374697,0.005223736382172106,-0.13656615763058377,0.0015146359040218993,-0.2456207097588493
627,0.6176,713.963,17.8326,0.018792,126.068,-3.48674,-0.833091,0.433211,-0.147039,-0.282223,0.346674,0.00519926,0.00151077,0.455609,0.54220159090855,0.4143555702903201,0.005212799607416496,-0.1367396903922733,0.0015119117879169863,-0.24589449974531796
628,0.6186,714.198,17.837,0.018899,126.106,-3.49674,-0.835525,0.433776,-0.14724,-0.282586,0.34709,0.00518836,0.00150805,0.456205,0.5430731810084304,0.4149440646058917,0.005201842847615268,-0.13691318827738286,0.0015091876792217018,-0.2461681903640578
629,0.6196,714.433,17.8414,0.0190056,126.144,-3.5067,-0.83795,0.434341,-0.147441,-0.282948,0.347506,0.00517744,0.00150533,0.456801,0.5439452636958602,0.41553280378602664,0.005190866103424563,-0.13708665129292208,0.0015064635779360458,-0.24644102809253765
630,0.6206,714.668,17.8458,0.0191119,126.183,-3.51662,-0.840364,0.434905,-0.147642,-0.283311,0.347922,0.0051665,0.0015026,0.457396,0.5448162944321631,0.41612178793261023,0.005179869375501411,-0.1372600794458989,0.0015037294690225522,-0.24671452035749075
631,0.6216,714.902,17.8502,0.0192177,126.221,-3.5265,-0.842769,0.43547,-0.147843,-0.283673,0.348337,0.00515555,0.00149987,0.457992,0.5456893622569523,0.4167096004372608,0.005168862716193434,-0.13743347274332007,0.001500995367573088,-0.24698716035030532
632,0.6226,715.135,17.8546,0.0193232,126.259,-3.53634,-0.845165,0.436033,-0.148043,-0.284035,0.348752,0.00514457,0.00149714,0.458586,0.5465598303816874,0.41729765693472554,0.0051578260226723405,-0.13760596879859088,0.0014982612735878753,-0.2472597016653043
633,0.6236,715.369,17.859,0.0194284,126.297,-3.54615,-0.84755,0.436597,-0.148244,-0.284397,0.349167,0.00513358,0.0014944,0.459181,0.5474323361495208,0.417885957526283,0.005146779398865764,-0.13777929257923893,0.0014955171721113825,-0.24753214433820248
634,0.6246,715.602,17.8634,0.0195332,126.335,-3.55592,-0.849926,0.43716,-0.148444,-0.284758,0.349581,0.00512258,0.00149165,0.459775,0.5483037858448436,0.4184730838394597,0.005135722845103441,-0.13795171947745843,0.001492763063225988,-0.24780373620881424
635,0.6256,715.834,17.8678,0.0196375,126.373,-3.56565,-0.852292,0.437723,-0.148644,-0.285119,0.349995,0.00511155,0.0014889,0.460369,0.5491757263044823,0.4190604532732527,0.005124636259222992,-0.13812411189374674,0.0014900089619145351,-0.2480752300524557
636,0.6266,716.067,17.8722,0.0197416,126.411,-3.57535,-0.854649,0.438285,-0.148845,-0.28548,0.350409,0.00510051,0.00148615,0.460962,0.5500466077574317,0.4196480659283346,0.005113539744491691,-0.13829733153809864,0.0014872548681768016,-0.24834662590450807
637,0.6276,716.298,17.8766,0.0198452,126.449,-3.58501,-0.856996,0.438848,-0.149045,-0.285841,0.350823,0.00508945,0.00148339,0.461555,0.5509195297020693,0.4202359219054197,0.00510242325021637,-0.1384696548388865,0.0014844907671678342,-0.24861792380033998
638,0.6286,716.53,17.881,0.0199485,126.487,-3.59463,-0.859333,0.439409,-0.149245,-0.286202,0.351236,0.00507837,0.00148063,0.462148,0.5517898396573491,0.4208226004819535,0.005091286777062942,-0.1386419436784605,0.0014817266737876533,-0.24888912377530736
639,0.6296,716.761,17.8854,0.0200514,126.525,-3.60421,-0.861661,0.439971,-0.149444,-0.286562,0.351649,0.00506728,0.00147786,0.46274,0.5526621906549063,0.421409521406781,0.005080140376499509,-0.13881333687747954,0.0014789525732470388,-0.24915947502460356
640,0.6306,716.992,17.8899,0.020154,126.563,-3.61376,-0.86398,0.440532,-0.149644,-0.286922,0.352062,0.00505617,0.00147509,0.463332,0.5535334785172581,0.42199668478001273,0.005068973998169302,-0.13898555698751902,0.0014761784803904998,-0.24942972896496673
641,0.6316,717.222,17.8943,0.0202562,126.601,-3.62327,-0.866289,0.441093,-0.149844,-0.287282,0.352474,0.00504504,0.00147231,0.463924,0.5544052553092325,0.4225826681184208,0.005057787642740896,-0.13915774265698055,0.0014733943804841054,-0.24969988563142165
642,0.6326,717.452,17.8987,0.020358,126.639,-3.63275,-0.868589,0.441653,-0.150043,-0.287642,0.352887,0.0050339,0.00146953,0.464515,0.5552759660284525,0.4231703161013094,0.005046591361349995,-0.13932903322221535,0.0014706102883177419,-0.24996994505898074
643,0.6336,717.682,17.9031,0.0204595,126.677,-3.64219,-0.870879,0.442213,-0.150243,-0.288002,0.353298,0.00502274,0.00146675,0.465106,0.5561471644822282,0.4237553593193728,0.005035375103977113,-0.13950115020329912,0.001467826203890965,-0.25023990728264367
644,0.6346,717.911,17.9076,0.0205605,126.714,-3.65159,-0.87316,0.442773,-0.150442,-0.288361,0.35371,0.00501156,0.00146396,0.465697,0.5570188509437675,0.4243420673809739,0.005024138871294159,-0.1396723724372313,0.0014650321125535548,-0.2505090228467951
645,0.6356,718.14,17.912,0.0206613,126.752,-3.66095,-0.875432,0.443333,-0.150641,-0.28872,0.354122,0.00500036,0.00146117,0.466287,0.5578910256864309,0.4249290172160982,0.005012882663973706,-0.13984356060132896,0.0014622380290116865,-0.2507780418157989
646,0.6366,718.369,17.9164,0.0207616,126.79,-3.67028,-0.877694,0.443892,-0.15084,-0.289079,0.354533,0.00498916,0.00145838,0.466877,0.5587621302208234,0.42551478340888105,0.005001626582721963,-0.14001471470237148,0.0014594439532653602,-0.2510469642243264
647,0.6376,718.597,17.9209,0.0208616,126.827,-3.67958,-0.879947,0.444451,-0.151039,-0.289437,0.354944,0.00497793,0.00145558,0.467466,0.5596337218387777,0.42610079040104987,0.004990340477827093,-0.14018583474713653,0.0014566398707480666,-0.25131504142245253
648,0.6386,718.825,17.9253,0.0209612,126.865,-3.68884,-0.882191,0.445009,-0.151238,-0.289796,0.355354,0.00496669,0.00145277,0.468055,0.5605042403076292,0.42668561160526886,0.00497904444988384,-0.1403569207424007,0.0014538257815437383,-0.2515837710827217
649,0.6396,719.053,17.9298,0.0210605,126.902,-3.69806,-0.884425,0.445567,-0.151436,-0.290154,0.355765,0.00495543,0.00144997,0.468644,0.5613752446613356,0.42727209990672854,0.004967728449552622,-0.14052711322248224,0.0014510217147574167,-0.251851656138388
650,0.6406,719.28,17.9342,0.0211594,126.94,-3.70725,-0.886651,0.446125,-0.151635,-0.290512,0.356175,0.00494416,0.00144715,0.469232,0.5622467351710962,0.427857401446307,0.004956402527074744,-0.1406981313100868,0.0014481976268581054,-0.25211944530836894
651,0.6416,719.507,17.9387,0.021258,126.977,-3.7164,-0.888867,0.446682,-0.151833,-0.29087,0.356584,0.00493287,0.00144434,0.46982,0.5631171489903315,0.42844151456648905,0.004945056633337774,-0.1408682562371638,0.0014453835613765786,-0.2523871386269855
652,0.6426,719.734,17.9431,0.0213562,127.015,-3.72552,-0.891074,0.44724,-0.152032,-0.291227,0.356994,0.00492157,0.00144152,0.470408,0.5639896117539414,0.42902729566438036,0.004933700818358311,-0.14103920644406287,0.0014425594893767713,-0.2526539887829087
653,0.6436,719.96,17.9476,0.021454,127.052,-3.7346,-0.893273,0.447796,-0.15223,-0.291584,0.357403,0.00491025,0.0014387,0.470995,0.5648594317656321,0.42961188736916167,0.004922325033252184,-0.1412092638449487,0.0014397354253410377,-0.252920743690329
654,0.6446,720.186,17.952,0.0215514,127.09,-3.74364,-0.895462,0.448353,-0.152428,-0.291941,0.357812,0.00489891,0.00143587,0.471582,0.5657313012622389,0.43019671822085215,0.004910929278700404,-0.14137928757780238,0.0014369013548998222,-0.2531874033832443
655,0.6456,720.411,17.9565,0.0216486,127.127,-3.75265,-0.897642,0.448909,-0.152626,-0.292298,0.358221,0.00488756,0.00143304,0.472169,0.5666020899225557,0.4307817883172833,0.004899523604380285,-0.1415492776492896,0.0014340672924793019,-0.2534539678956399
656,0.6466,720.636,17.961,0.0217453,127.164,-3.76163,-0.899813,0.449465,-0.152824,-0.292655,0.358629,0.0048762,0.0014302,0.472755,0.5674733628759885,0.4313656663899439,0.004888108010632886,-0.14171923406607445,0.0014312232237667644,-0.2537204372614892
657,0.6476,720.861,17.9654,0.0218417,127.201,-3.77057,-0.901975,0.45002,-0.153022,-0.293011,0.359037,0.00486482,0.00142737,0.473341,0.568343552047543,0.4319497827334622,0.004876672449032116,-0.14188915683482017,0.001428389177415168,-0.25398606550119207
658,0.6486,721.086,17.9699,0.0219377,127.239,-3.77948,-0.904128,0.450575,-0.15322,-0.293367,0.359445,0.00485342,0.00142452,0.473927,0.5692142243081328,0.43253413744507263,0.0048652169202629825,-0.1420590459621882,0.001425535110572973,-0.2542515991940719
659,0.6496,721.31,17.9744,0.0220334,127.276,-3.78835,-0.906273,0.45113,-0.153417,-0.293723,0.359853,0.00484201,0.00142168,0.474512,0.5700853799259462,0.43311873062204875,0.004853751473548273,-0.14222804368331166,0.0014226910660919412,-0.2545170383737815
660,0.6506,721.534,17.9788,0.0221287,127.313,-3.79719,-0.908408,0.451684,-0.153615,-0.294079,0.36026,0.00483059,0.00141883,0.475097,0.5709554482130876,0.43370212865885915,0.004842276109231047,-0.14239786571772606,0.0014198370154894224,-0.2547823830739613
661,0.6516,721.757,17.9833,0.0222237,127.35,-3.80599,-0.910535,0.452239,-0.153812,-0.294435,0.360668,0.00481915,0.00141598,0.475681,0.5718275704783882,0.43428719847347796,0.004830780779345734,-0.14256679669793182,0.0014169829730208416,-0.2550476333282403
662,0.6526,721.98,17.9878,0.0223183,127.387,-3.81476,-0.912652,0.452792,-0.154009,-0.29479,0.361074,0.0048077,0.00141312,0.476265,0.5726970315086801,0.4348696373031402,0.004819275532773393,-0.14273569440201228,0.0014141189245451269,-0.2553120444826521
663,0.6536,722.203,17.9923,0.0224126,127.424,-3.82349,-0.914761,0.453346,-0.154206,-0.295145,0.361481,0.00479623,0.00141026,0.476849,0.5735685470516514,0.4354537481040073,0.004807750321780269,-0.1429045588365221,0.0014112548842606376,-0.2555763617877632
664,0.6546,722.426,17.9968,0.0225065,127.461,-3.8322,-0.916862,0.453899,-0.154404,-0.2955,0.361887,0.00478475,0.0014074,0.477433,0.5744389711082405,0.43603666064897717,0.004796215195018272,-0.14307424693419646,0.0014083908521671518,-0.25584058527688425
665,0.6556,722.648,18.0012,0.0226001,127.498,-3.84086,-0.918953,0.454452,-0.1546,-0.295855,0.362293,0.00477325,0.00140453,0.478016,0.5753098766424494,0.4366198099044891,0.004784660104985461,-0.14324218792304277,0.0014055168142097507,-0.2561047149833142
666,0.6566,722.87,18.0057,0.0226933,127.535,-3.8495,-0.921036,0.455004,-0.154797,-0.296209,0.362699,0.00476175,0.00140166,0.478599,0.5761796877401326,0.43720319596666735,0.004773105147835466,-0.14341095258815661,0.0014026427845006406,-0.256368007308719
667,0.6576,723.091,18.0102,0.0227861,127.572,-3.8581,-0.92311,0.455556,-0.154994,-0.296563,0.363105,0.00475022,0.00139879,0.479181,0.5770499791060839,0.4377868189316749,0.004761520180720513,-0.14357968400990606,0.0013997687630402655,-0.25663120644513593
668,0.6586,723.312,18.0147,0.0228787,127.608,-3.86666,-0.925176,0.456108,-0.155191,-0.296917,0.36351,0.00473869,0.00139591,0.479763,0.577920751005484,0.438369240525754,0.004749935347179601,-0.14374838219483932,0.001396884735859194,-0.25689431242554817
669,0.6596,723.533,18.0192,0.0229708,127.645,-3.8752,-0.927233,0.45666,-0.155387,-0.297271,0.363915,0.00472713,0.00139303,0.480345,0.5787920037036609,0.4389518980483511,0.004738320505060845,-0.14391619106612252,0.001394000716984145,-0.2571573252829271
670,0.6606,723.753,18.0237,0.0230626,127.682,-3.88369,-0.929282,0.457211,-0.155583,-0.297625,0.36432,0.00471557,0.00139014,0.480926,0.5796621578031409,0.4395347915950365,0.004726705797208908,-0.14408396705009008,0.0013911066925038629,-0.25742024505023253
671,0.6616,723.973,18.0282,0.0231541,127.719,-3.89216,-0.931322,0.457762,-0.15578,-0.297978,0.364724,0.00470399,0.00138726,0.481507,0.5805327914896441,0.440116481144218,0.00471507112932068,-0.14425256590104907,0.0013882226902695027,-0.257682329443113
672,0.6626,724.193,18.0327,0.0232452,127.755,-3.90059,-0.933353,0.458312,-0.155976,-0.298331,0.365128,0.0046924,0.00138437,0.482088,0.581402323624381,0.4406984057434544,0.00470342654912681,-0.14442027596200957,0.001385328682487863,-0.2579443213365298
673,0.6636,724.413,18.0372,0.023336,127.792,-3.90899,-0.935376,0.458862,-0.156172,-0.298684,0.365532,0.0046808,0.00138147,0.482668,0.5822723341333327,0.441280565487725,0.004691772056975019,-0.14458795315501938,0.001382424669245541,-0.2582062207631296
674,0.6646,724.632,18.0417,0.0234264,127.829,-3.91736,-0.937391,0.459412,-0.156368,-0.299037,0.365936,0.00466918,0.00137857,0.483248,0.5831428232796778,0.44186296047204743,0.0046800976064123034,-0.14475559748651978,0.0013795206644247049,-0.25846802775554745
675,0.6656,724.851,18.0462,0.0235165,127.865,-3.9257,-0.939397,0.459962,-0.156564,-0.299389,0.36634,0.00465755,0.00137567,0.483828,0.5840137913267389,0.44244559079147816,0.004668413244821812,-0.1449232089629512,0.0013766166680255765,-0.25872900107577845
676,0.6666,725.069,18.0507,0.0236063,127.902,-3.934,-0.941395,0.460511,-0.156759,-0.299742,0.366743,0.0046459,0.00137277,0.484407,0.5848836536535378,0.4430270135133765,0.004656708925985464,-0.1450899326811126,0.0013737126800481558,-0.2589906235593137
677,0.6676,725.287,18.0552,0.0236957,127.938,-3.94227,-0.943384,0.46106,-0.156955,-0.300094,0.367146,0.00463425,0.00136986,0.484986,0.5857539936658669,0.4436086705958524,0.004645004743503378,-0.1452574786342673,0.001370798686784136,-0.25925141295819387
678,0.6686,725.505,18.0597,0.0237847,127.975,-3.95051,-0.945365,0.461608,-0.15715,-0.300446,0.367548,0.00462258,0.00136695,0.485565,0.5866232250020291,0.444189117943532,0.004633280604708467,-0.14542413717619762,0.0013678847019997775,-0.25951211057536017
679,0.6696,725.723,18.0642,0.0238734,128.011,-3.95871,-0.947338,0.462157,-0.157346,-0.300797,0.367951,0.0046109,0.00136404,0.486143,0.5874945203012307,0.44477124344847385,0.00462154655651803,-0.14559161763169037,0.0013649707256950805,-0.25977197621546044
680,0.6706,725.94,18.0687,0.0239618,128.047,-3.96688,-0.949302,0.462705,-0.157541,-0.301149,0.368353,0.0045992,0.00136112,0.486721,0.5883647057073804,0.4453521582443909,0.0046097925531845,-0.14575821102286857,0.0013620467442494455,-0.26003249062660627
681,0.6716,726.157,18.0732,0.0240499,128.084,-3.97502,-0.951259,0.463252,-0.157736,-0.3015,0.368755,0.00458749,0.0013582,0.487299,0.5892337788712432,0.4459333066150013,0.004598028641391361,-0.14592477193150277,0.0013591227713420917,-0.2602921736453605
682,0.6726,726.373,18.0778,0.0241375,128.12,-3.98313,-0.953207,0.463799,-0.157931,-0.301851,0.369156,0.00457577,0.00135528,0.487876,0.5901033275481675,0.44651324214025556,0.004586254821490554,-0.14609130036392626,0.001356198806972575,-0.2605517655313698
683,0.6736,726.59,18.0823,0.0242249,128.156,-3.99121,-0.955146,0.464346,-0.158126,-0.302202,0.369558,0.00456404,0.00135236,0.488453,0.5909733519983302,0.44709485736042276,0.004574471093833132,-0.1462577963264714,0.0013532748511411175,-0.2608112663166162
684,0.6746,726.806,18.0868,0.0243119,128.193,-3.99925,-0.957078,0.464893,-0.158321,-0.302552,0.369959,0.0045523,0.00134943,0.489029,0.5918438524820504,0.4476752587609276,0.004562677458771258,-0.14642425982546903,0.0013503408903439151,-0.2610699371033771
685,0.6756,727.021,18.0913,0.0243986,128.229,-4.00727,-0.959002,0.465439,-0.158516,-0.302903,0.37036,0.00454054,0.0013465,0.489606,0.5927132365457568,0.448255892949065,0.004550863871148447,-0.14659069086724918,0.0013474069381433917,-0.2613292560423177
686,0.6766,727.236,18.0959,0.024485,128.265,-4.01525,-0.960917,0.465985,-0.158711,-0.303253,0.37076,0.00452877,0.00134356,0.490182,0.5935830954227743,0.44883531118216546,0.004539040377061987,-0.14675708945814014,0.0013444629810945852,-0.2615877455643978
687,0.6776,727.451,18.1004,0.024571,128.301,-4.0232,-0.962825,0.466531,-0.158905,-0.303603,0.371161,0.00451699,0.00134062,0.490757,0.5944534293724217,0.449416410644605,0.00452720697686515,-0.14692260252749845,0.0013415190327010773,-0.2618461446309758
688,0.6786,727.666,18.1049,0.0246567,128.337,-4.03112,-0.964724,0.467076,-0.1591,-0.303953,0.371561,0.0045052,0.00133768,0.491332,0.5953226433307186,0.4499962931776378,0.004515363670911432,-0.14708893640192577,0.001338575092962646,-0.2621044532737056
689,0.6796,727.88,18.1094,0.024742,128.373,-4.039,-0.966616,0.467621,-0.159294,-0.304302,0.371961,0.0044934,0.00133474,0.491907,0.5961923311397352,0.45057640771008045,0.004503510459554105,-0.14725438509922129,0.0013356311618795136,-0.2623619338865326
690,0.6806,728.094,18.114,0.024827,128.409,-4.04686,-0.968499,0.468166,-0.159488,-0.304651,0.37236,0.00448158,0.00133179,0.492482,0.5970624930577908,0.45115530317872277,0.004491637298231099,-0.14741980170258262,0.0013326772261246234,-0.2626193246543047
691,0.6816,728.308,18.1185,0.0249117,128.445,-4.05469,-0.970375,0.46871,-0.159682,-0.305001,0.37276,0.00446976,0.00132884,0.493056,0.5979315314110145,0.4517358814078989,0.004479764277247833,-0.1475851862182357,0.0013297232990838737,-0.2628773627313781
692,0.6826,728.522,18.123,0.0249961,128.481,-4.06248,-0.972242,0.469255,-0.159876,-0.305349,0.373159,0.00445792,0.00132589,0.49363,0.5988026414515577,0.45231523959885367,0.0044678713072454634,-0.14775053865240462,0.0013267693807572645,-0.26313383678007474
693,0.6836,728.735,18.1276,0.0250801,128.517,-4.07024,-0.974102,0.469798,-0.16007,-0.305698,0.373557,0.00444607,0.00132294,0.494203,0.599671027031214,0.4528933761057472,0.00445596843349505,-0.14791585901131277,0.0013238154711445738,-0.2633909582007409
694,0.6846,728.948,18.1321,0.0251638,128.553,-4.07798,-0.975954,0.470342,-0.160264,-0.306047,0.373956,0.00443421,0.00131998,0.494776,0.6005414848129689,0.45347319622923576,0.004444055656352308,-0.14808114730118205,0.001320851557037317,-0.26364798990168803
695,0.6856,729.16,18.1367,0.0252472,128.589,-4.08568,-0.977798,0.470885,-0.160457,-0.306395,0.374354,0.00442234,0.00131702,0.495349,0.6014108148409649,0.4540517936945929,0.004432132976172953,-0.14824555177421095,0.0013178876517032645,-0.263904195818787
696,0.6866,729.372,18.1412,0.0253302,128.625,-4.09335,-0.979634,0.471428,-0.160651,-0.306743,0.374752,0.00441045,0.00131406,0.495922,0.6022806170433499,0.45463062148757327,0.004420190349110786,-0.14841077610988795,0.0013149237551424164,-0.2641603125917389
697,0.6876,729.584,18.1457,0.0254129,128.661,-4.10099,-0.981463,0.47197,-0.160844,-0.307091,0.37515,0.00439856,0.00131109,0.496494,0.603149288526494,0.4552096796998659,0.004408247864045922,-0.1485751169706956,0.001311949854235106,-0.26441634025156036
698,0.6886,729.796,18.1503,0.0254953,128.697,-4.1086,-0.983284,0.472512,-0.161038,-0.307438,0.375548,0.00438665,0.00130812,0.497066,0.604018430957197,0.4557889684231957,0.004396285433050151,-0.14874027737692586,0.0013089759621602859,-0.2646715435011685
699,0.6896,730.007,18.1548,0.0255774,128.732,-4.11619,-0.985097,0.473054,-0.161231,-0.307786,0.375945,0.00437474,0.00130515,0.497637,0.604888044590782,0.4563670313815644,0.004384323144526192,-0.1489045546501253,0.001306002078917956,-0.26492739328358594
700,0.6906,730.218,18.1594,0.0256591,128.768,-4.12374,-0.986902,0.473596,-0.161424,-0.308133,0.376342,0.00436281,0.00130218,0.498208,0.6057581296827104,0.456945323876488,0.00437234091102523,-0.14906880022087043,0.0013030282045078945,-0.2651824192285561
701,0.6916,730.428,18.1639,0.0257405,128.804,-4.13126,-0.9887,0.474137,-0.161617,-0.30848,0.376739,0.00435087,0.0012992,0.498779,0.6066270798606981,0.4575238459991098,0.004360348776867973,-0.14923301409527923,0.0013000443259298944,-0.26543735669487534
702,0.6926,730.639,18.1685,0.0258216,128.839,-4.13875,-0.99049,0.474678,-0.16181,-0.308827,0.377136,0.00433893,0.00129623,0.49935,0.6074965002679176,0.4581025978406108,0.004348356785895957,-0.14939719627946835,0.0012970704692143453,-0.26569220571324037
703,0.6936,730.849,18.173,0.0259024,128.875,-4.14621,-0.992272,0.475218,-0.162003,-0.309174,0.377532,0.00432697,0.00129324,0.49992,0.6083647827932448,0.4586801208113567,0.004336344851380236,-0.14956134677955368,0.0012940765954494449,-0.26594696631433723
704,0.6946,731.059,18.1776,0.0259829,128.91,-4.15364,-0.994047,0.475759,-0.162196,-0.30952,0.377928,0.004315,0.00129026,0.50049,0.6092351435520931,0.45925787252648753,0.00432432301728336,-0.14972546560164945,0.0012910927435472175,-0.26620090473011326
705,0.6956,731.268,18.1822,0.026063,128.946,-4.16105,-0.995814,0.476298,-0.162388,-0.309866,0.378324,0.00430302,0.00128727,0.501059,0.6101027550947735,0.4598358530766038,0.0043122912839637095,-0.14988870264099663,0.0012880988876557975,-0.2664547552983958
706,0.6966,731.477,18.1867,0.0261428,128.981,-4.16842,-0.997574,0.476838,-0.162581,-0.310212,0.378719,0.00429103,0.00128429,0.501628,0.6109724453777676,0.46041260213901003,0.004300249651780996,-0.1500527582895076,0.0012851150535668765,-0.26670851804957496
707,0.6976,731.686,18.1913,0.0262223,129.017,-4.17576,-0.999326,0.477377,-0.162773,-0.310558,0.379115,0.00427903,0.00128129,0.502197,0.6118409935785387,0.46099104005260494,0.004288198121094489,-0.15021593249469112,0.0012821112027274761,-0.26696219301403024
708,0.6986,731.895,18.1958,0.0263015,129.052,-4.18308,-1.00107,0.477916,-0.162965,-0.310903,0.37951,0.00426702,0.0012783,0.502766,0.6127100100529783,0.46156824550399755,0.004276136692264121,-0.15037907537343453,0.0012791173736907968,-0.2672150474375443
709,0.6996,732.103,18.2004,0.0263804,129.088,-4.19036,-1.00281,0.478455,-0.163158,-0.311249,0.379905,0.004255,0.0012753,0.503334,0.6135794950535542,0.46214567899657855,0.004264065365649827,-0.15054303638914046,0.001276113540844559,-0.2674685471731476
710,0.7006,732.311,18.205,0.0264589,129.123,-4.19762,-1.00454,0.478994,-0.16335,-0.311594,0.380299,0.00424297,0.00127231,0.503902,0.61444944883287,0.4627218778978328,0.004251984141612208,-0.150706116469965,0.001273119729740646,-0.26772122693460776
711,0.7016,732.518,18.2095,0.0265371,129.158,-4.20485,-1.00626,0.479532,-0.163542,-0.311939,0.380694,0.00423093,0.00126931,0.504469,0.6153182563246016,0.46329976716521903,0.0042398930205118646,-0.15086916524241978,0.0012701159148873487,-0.26797381953658617
712,0.7026,732.726,18.2141,0.0266151,129.194,-4.21205,-1.00798,0.480069,-0.163734,-0.312284,0.381088,0.00421889,0.0012663,0.505036,0.6161859151737983,0.4638764208668016,0.0042278020449877385,-0.15103218271251528,0.0012671020963741508,-0.26822632500914745
713,0.7036,732.933,18.2187,0.0266927,129.229,-4.21922,-1.00968,0.480607,-0.163925,-0.312628,0.381482,0.00420683,0.0012633,0.505603,0.617055657135771,0.464453301814707,0.004215691130724064,-0.15119432008100564,0.001264098299573524,-0.26847801186072384
714,0.7046,733.14,18.2232,0.02677,129.264,-4.22636,-1.01139,0.481144,-0.164117,-0.312973,0.381875,0.00419476,0.00126029,0.50617,0.6179242492197548,0.46502894506881076,0.0042035703204812425,-0.15135727512736508,0.0012610844991733927,-0.2687303434169357
715,0.7056,733.346,18.2278,0.0268469,129.299,-4.23347,-1.01308,0.481681,-0.164309,-0.313317,0.382269,0.00418268,0.00125728,0.506736,0.6187933078629473,0.46560628020072037,0.004191439614621428,-0.15152019888935897,0.0012580707078448938,-0.2689818569159982
716,0.7066,733.552,18.2324,0.0269236,129.334,-4.24056,-1.01476,0.482217,-0.1645,-0.313661,0.382662,0.00417059,0.00125427,0.507302,0.619661213653935,0.46618237666437934,0.004179299013506554,-0.15168224305566058,0.0012550569255878052,-0.2692332839092968
717,0.7076,733.758,18.2369,0.027,129.369,-4.24761,-1.01644,0.482753,-0.164691,-0.314004,0.383055,0.0041585,0.00125125,0.507867,0.6205295847671217,0.4667586995784434,0.004167158559170714,-0.15184425627448195,0.0012520331398817586,-0.2694838939108436
718,0.7086,733.964,18.2415,0.027076,129.405,-4.25464,-1.01812,0.483289,-0.164883,-0.314348,0.383447,0.00414639,0.00124823,0.508433,0.6213984214519874,0.46733378169740947,0.0041549981685118365,-0.1520070865450711,0.0012490093633075183,-0.2697351482331172
719,0.7096,734.169,18.2461,0.0271518,129.44,-4.26164,-1.01978,0.483825,-0.165074,-0.314691,0.38384,0.00413428,0.00124522,0.508997,0.6222677239581451,0.4679105572025797,0.004142837925114495,-0.15216903772471102,0.0012459956083250567,-0.26998558612471946
720,0.7106,734.374,18.2507,0.0272272,129.475,-4.26862,-1.02144,0.48436,-0.165265,-0.315034,0.384232,0.00412215,0.00124219,0.509562,0.6231358693986611,0.46848609093824534,0.004130657746363342,-0.15233095797462948,0.0012429618375546791,-0.2702359381308551
721,0.7116,734.579,18.2552,0.0273024,129.51,-4.27556,-1.02309,0.484895,-0.165456,-0.315377,0.384624,0.00411002,0.00123917,0.510126,0.624004479421252,0.4690618503273607,0.004118477715356894,-0.15249284730073343,0.0012399380883756361,-0.2704862042809779
722,0.7126,734.783,18.2598,0.0273772,129.545,-4.28248,-1.02473,0.48543,-0.165646,-0.31572,0.385015,0.00409788,0.00123614,0.51069,0.6248735542745365,0.4696363658212983,0.004106287791030505,-0.152653858363211,0.0012369043359594656,-0.2707363846045312
723,0.7136,734.987,18.2644,0.0274517,129.579,-4.28937,-1.02637,0.485964,-0.165837,-0.316062,0.385407,0.00408573,0.00123312,0.511254,0.6257414684649838,0.4702125762065572,0.004094087973747884,-0.1528156860212304,0.0012338806050742335,-0.2709857501170633
724,0.7146,735.191,18.269,0.0275259,129.614,-4.29623,-1.028,0.486498,-0.166028,-0.316405,0.385798,0.00407357,0.00123009,0.511817,0.626609846245376,0.4707875417222871,0.004081878263873184,-0.15297748277311862,0.001230846871012048,-0.271235759125777
725,0.7156,735.395,18.2736,0.0275999,129.649,-4.30306,-1.02962,0.487032,-0.166218,-0.316747,0.386189,0.0040614,0.00122706,0.51238,0.6274786878633369,0.47136273209349033,0.004069658661771225,-0.1531384017636035,0.001227813146142065,-0.2714849538814239
726,0.7166,735.598,18.2782,0.0276735,129.684,-4.30987,-1.03123,0.487565,-0.166409,-0.317089,0.386579,0.00404923,0.00122402,0.512942,0.6283463652194419,0.4719366754706906,0.004057439208380753,-0.15330013688267108,0.001224769418216587,-0.2717340634270361
727,0.7176,735.801,18.2827,0.0277468,129.719,-4.31665,-1.03284,0.488099,-0.166599,-0.317431,0.38697,0.00403704,0.00122098,0.513505,0.6292161343861684,0.47251231524104087,0.004045199822796164,-0.15346099457469875,0.0012217256995441517,-0.2719830877917504
728,0.7186,736.004,18.2873,0.0278198,129.754,-4.3234,-1.03444,0.488631,-0.166789,-0.317772,0.38736,0.00402485,0.00121795,0.514067,0.6300831079641855,0.47308670704310596,0.004032960586408452,-0.15362182170666816,0.0012186920023111725,-0.2722312992363569
729,0.7196,736.207,18.2919,0.0278925,129.788,-4.33013,-1.03604,0.489164,-0.166979,-0.318113,0.38775,0.00401265,0.00121491,0.514628,0.6309521738462138,0.47366132290166196,0.004020711459009174,-0.15378261828438533,0.0012156483021139586,-0.2724794260552903
730,0.7206,736.409,18.2965,0.027965,129.823,-4.33682,-1.03763,0.489696,-0.167169,-0.318454,0.38814,0.00400044,0.00121186,0.51519,0.6318200712429378,0.47423616290410786,0.004008452440963817,-0.15394338431365484,0.0012125945990435483,-0.27272746827740313
731,0.7216,736.611,18.3011,0.0280371,129.858,-4.34349,-1.03921,0.490228,-0.167359,-0.318795,0.388529,0.00398822,0.00120882,0.515751,0.6326884304839167,0.47480975232738754,0.003996183532638087,-0.1541041198002805,0.001209550917382396,-0.2729754259315377
732,0.7226,736.812,18.3057,0.0281089,129.892,-4.35014,-1.04078,0.490759,-0.167549,-0.319136,0.388919,0.00397599,0.00120577,0.516311,0.6335556182584816,0.4753850403046589,0.00398390473439858,-0.15426482475006476,0.0012064972329088874,-0.2732232990465271
733,0.7236,737.014,18.3103,0.0281805,129.927,-4.35676,-1.04235,0.491291,-0.167739,-0.319477,0.389308,0.00396376,0.00120273,0.516872,0.6344249010561169,0.47595907672818316,0.003971626086327618,-0.1544254991688091,0.0012034535697837967,-0.273471087651194
734,0.7246,737.215,18.3149,0.0282517,129.961,-4.36335,-1.04391,0.491822,-0.167928,-0.319817,0.389696,0.00395152,0.00119968,0.517431,0.6352930111414077,0.4765318599627155,0.003959337548830488,-0.1545852976480342,0.00120039990390719,-0.2737180654927803
735,0.7256,737.415,18.3194,0.0283227,129.996,-4.36991,-1.04546,0.492352,-0.168118,-0.320157,0.390085,0.00393927,0.00119662,0.517991,0.6361599461547978,0.4771063425858668,0.003947039122273344,-0.15474591118271208,0.0011973362353709938,-0.27396495937617416
736,0.7266,737.616,18.324,0.0283933,130.03,-4.37645,-1.04701,0.492883,-0.168307,-0.320497,0.390473,0.00392701,0.00119357,0.518551,0.6370289777936866,0.47767957104592007,0.0039347308070238896,-0.154905649109789,0.001194282588152129,-0.27421176932991653
737,0.7276,737.816,18.3286,0.0284637,130.065,-4.38297,-1.04855,0.493413,-0.168496,-0.320837,0.390861,0.00391474,0.00119052,0.51911,0.637896833113262,0.47825302196176955,0.003922412603449166,-0.1550653568492505,0.0011912289502471474,-0.27445849538253864
738,0.7286,738.016,18.3332,0.0285337,130.099,-4.38945,-1.05008,0.493943,-0.168685,-0.321176,0.391249,0.00390247,0.00118746,0.519668,0.6387651485180683,0.47882669541974465,0.003910094551017984,-0.15522503440680147,0.0011881653097738365,-0.2747044122673369
739,0.7296,738.216,18.3378,0.0286035,130.134,-4.39591,-1.05161,0.494472,-0.168874,-0.321515,0.391637,0.00389019,0.0011844,0.520227,0.6396322846189115,0.4794005915062085,0.003897766610750697,-0.1553846817881458,0.001185101678675471,-0.27495024580044014
740,0.7306,738.415,18.3424,0.028673,130.168,-4.40235,-1.05313,0.495001,-0.169063,-0.321854,0.392024,0.0038779,0.00118134,0.520785,0.6404998795561034,0.4799732303335875,0.0038854287830150103,-0.15554429899898625,0.0011820380569516065,-0.2751959960100997
741,0.7316,738.614,18.347,0.0287422,130.202,-4.40876,-1.05465,0.49553,-0.169252,-0.322193,0.392411,0.0038656,0.00117827,0.521343,0.6413679335724327,0.48054609081508004,0.00387308106817974,-0.1557038860450246,0.0011789644328128457,-0.27544166292455763
742,0.7326,738.813,18.3516,0.0288112,130.237,-4.41514,-1.05615,0.496059,-0.169441,-0.322532,0.392798,0.0038533,0.00117521,0.5219,0.6422364469108168,0.4811191730364828,0.003860733505220315,-0.1558634429319613,0.0011759008298688478,-0.275687246572046
743,0.7336,739.012,18.3562,0.0288798,130.271,-4.4215,-1.05765,0.496587,-0.16963,-0.322871,0.393185,0.00384099,0.00117214,0.522457,0.6431037767097028,0.4816924770836257,0.003848376055650915,-0.1560229696654959,0.00117282722457146,-0.27593274698078774
744,0.7346,739.21,18.3608,0.0289481,130.305,-4.42783,-1.05915,0.497115,-0.169818,-0.323209,0.393571,0.00382867,0.00116908,0.523014,0.6439715645796427,0.48226452077711035,0.003836008719841022,-0.15618162243337141,0.0011697636404073286,-0.27617744035679814
745,0.7356,739.408,18.3654,0.0290162,130.339,-4.43413,-1.06064,0.497643,-0.170007,-0.323547,0.393957,0.00381635,0.00116601,0.52357,0.6448398107625619,0.4828367853220821,0.0038236415363954723,-0.15634108903666277,0.0011666900539508696,-0.27642205104042317
746,0.7366,739.606,18.37,0.029084,130.374,-4.44041,-1.06212,0.49817,-0.170195,-0.323885,0.394343,0.00380401,0.00116293,0.524127,0.645706869792821,0.483409270803806,0.003811254429087585,-0.1564996820037179,0.0011636064652942313,-0.27666657905960834
747,0.7376,739.803,18.3746,0.0291515,130.408,-4.44667,-1.06359,0.498697,-0.170383,-0.324223,0.394729,0.00379167,0.00115986,0.524682,0.6465743858836139,0.48398197730758064,0.0037988674746356477,-0.15665824515809768,0.0011605328977404294,-0.2769110244422893
748,0.7386,740.001,18.3792,0.0292187,130.442,-4.4529,-1.06506,0.499224,-0.170571,-0.32456,0.395114,0.00377933,0.00115679,0.525238,0.6474423592758749,0.48455342036457405,0.003786480673037662,-0.15681677850540632,0.001157459339622191,-0.27715466437141834
749,0.7396,740.198,18.3838,0.0292856,130.476,-4.4591,-1.06652,0.49975,-0.170759,-0.324898,0.3955,0.00376697,0.00115371,0.525793,0.6483091419006997,0.485126568595327,0.0037740739488103525,-0.1569752820512471,0.001154375779396144,-0.2773989448091413
750,0.7406,740.394,18.3884,0.0293523,130.51,-4.46528,-1.06798,0.500276,-0.170947,-0.325235,0.395885,0.00375461,0.00115063,0.526348,0.649176380573115,0.4856984524048056,0.0037616673779290455,-0.15713375580122224,0.0011512922286673888,-0.27764242033680986
751,0.7416,740.591,18.393,0.0294187,130.544,-4.47144,-1.06943,0.500802,-0.171135,-0.325572,0.396269,0.00374225,0.00114755,0.526903,0.6500440755330648,0.4862690701621266,0.0037492609603919647,-0.15729219976093278,0.0011482086874361475,-0.2778858138270497
752,0.7426,740.787,18.3977,0.0294848,130.578,-4.47757,-1.07087,0.501328,-0.171323,-0.325908,0.396654,0.00372987,0.00114447,0.527457,0.65091222702062,0.48684139391939296,0.003736834621460572,-0.1574506139359787,0.001145125155701976,-0.2781284034362672
753,0.7436,740.983,18.4023,0.0295506,130.612,-4.48368,-1.07231,0.501853,-0.17151,-0.326245,0.397038,0.00371749,0.00114139,0.528011,0.6517791834959679,0.48741245065053307,0.0037244084363661223,-0.15760815594053612,0.0011420416334650962,-0.2783716331777958
754,0.7446,741.178,18.4069,0.0296161,130.646,-4.48976,-1.07374,0.502378,-0.171698,-0.326581,0.397422,0.0037051,0.0011383,0.528565,0.6526465952429634,0.4879837267095666,0.0037119723679872596,-0.15776651072140346,0.0011389481093360132,-0.2786140595791319
755,0.7456,741.374,18.4115,0.0296814,130.68,-4.49581,-1.07516,0.502903,-0.171885,-0.326917,0.397806,0.00369271,0.00113522,0.529118,0.6535144625006872,0.4885552221807308,0.0036995364536902553,-0.15792399365878507,0.0011358646061243594,-0.27885640453888016
756,0.7466,741.569,18.4161,0.0297464,130.714,-4.50185,-1.07658,0.503427,-0.172073,-0.327253,0.39819,0.00368031,0.00113213,0.529671,0.654381131126387,0.4891269371482967,0.003687090656602443,-0.15808228906774247,0.0011327711010822306,-0.2790986680844002
757,0.7476,741.764,18.4207,0.0298111,130.747,-4.50785,-1.078,0.503951,-0.17226,-0.327589,0.398573,0.0036679,0.00112904,0.530224,0.6552482540054507,0.48969738199844026,0.0036746349770948594,-0.1582397129600941,0.0011296776055989,-0.2793408502430428
758,0.7486,741.958,18.4253,0.0298756,130.781,-4.51384,-1.0794,0.504475,-0.172447,-0.327925,0.398956,0.00365549,0.00112595,0.530776,0.6561158313759692,0.4902680453708055,0.003662179452161629,-0.15839710741693025,0.0011265841196745896,-0.27958295104214914
759,0.7496,742.153,18.4299,0.0299398,130.815,-4.5198,-1.0808,0.504998,-0.172634,-0.32826,0.399339,0.00364307,0.00112286,0.531328,0.6569822064931237,0.49083892734910295,0.0036497140453031207,-0.15855447244375465,0.0011234906433090774,-0.279824250333662
760,0.7506,742.347,18.4345,0.0300037,130.849,-4.52573,-1.0822,0.505521,-0.172821,-0.328595,0.399722,0.00363065,0.00111977,0.53188,0.6578490348429746,0.49141002801707434,0.003637248793264103,-0.15871180804607044,0.0011203971765023635,-0.2800654688034506
761,0.7516,742.541,18.4391,0.0300673,130.882,-4.53164,-1.08358,0.506044,-0.173008,-0.32893,0.400104,0.00361822,0.00111667,0.532431,0.6587163166626246,0.4919798554778927,0.0036247736597947444,-0.15886911422937922,0.001117293708081446,-0.28030660647858574
762,0.7526,742.734,18.4438,0.0301307,130.916,-4.53753,-1.08496,0.506567,-0.173195,-0.329265,0.400487,0.00360578,0.00111358,0.532982,0.6595840521892999,0.49255139320502894,0.003612288645267192,-0.15902639099918203,0.0011142002604234147,-0.280547663386129
763,0.7536,742.927,18.4484,0.0301938,130.95,-4.54339,-1.08634,0.507089,-0.173381,-0.3296,0.400869,0.00359334,0.00111048,0.533533,0.6604505812089407,0.4931216567506358,0.0035998037860525134,-0.15918279754419662,0.0011110968112129083,-0.28078863955313316
764,0.7546,743.12,18.453,0.0302566,130.983,-4.54923,-1.08771,0.507611,-0.173568,-0.329934,0.40125,0.00358089,0.00110738,0.534084,0.6613175626748078,0.49369064448713873,0.0035873090462752444,-0.15934001566070377,0.0011079933716231505,-0.281028816035817
765,0.7556,743.313,18.4576,0.0303192,131.017,-4.55505,-1.08907,0.508133,-0.173754,-0.330268,0.401632,0.00356843,0.00110428,0.534634,0.6621849968231399,0.49426134330986815,0.003574804426308642,-0.15949636387695598,0.0011048899416539193,-0.2812689123129507
766,0.7566,743.506,18.4622,0.0303815,131.05,-4.56084,-1.09043,0.508654,-0.17394,-0.330602,0.402013,0.00355597,0.00110118,0.535184,0.6630512208382466,0.4948307653496795,0.0035622999621482965,-0.15965268301514435,0.0011017865213054368,-0.28150892841131847
767,0.7576,743.698,18.4668,0.0304436,131.084,-4.56661,-1.09178,0.509175,-0.174127,-0.330936,0.402394,0.0035435,0.00109807,0.535733,0.66391789627365,0.4954004043806224,0.0035497856182948873,-0.15980981327128374,0.0010986730995907745,-0.2817488643576955
768,0.7586,743.89,18.4714,0.0305053,131.117,-4.57236,-1.09313,0.509696,-0.174313,-0.33127,0.402775,0.00353103,0.00109497,0.536283,0.6647850233646013,0.49597026048538595,0.0035372714304944264,-0.15996607411330643,0.0010955696985144314,-0.28198872017884813
769,0.7596,744.082,18.4761,0.0305668,131.151,-4.57808,-1.09447,0.510217,-0.174499,-0.331603,0.403156,0.00351855,0.00109186,0.536831,0.6656526023464744,0.49654033374669115,0.0035247473634973936,-0.1601223058935154,0.0010924562961340811,-0.2822277781296707
770,0.7606,744.273,18.4807,0.0306281,131.184,-4.58378,-1.0958,0.510737,-0.174685,-0.331937,0.403536,0.00350607,0.00108876,0.53738,0.6665189669349654,0.4971091271374146,0.0035122234527995566,-0.16027850861731552,0.0010893529143296554,-0.28246747402033334
771,0.7616,744.464,18.4853,0.0306891,131.218,-4.58946,-1.09713,0.511257,-0.174871,-0.33227,0.403916,0.00349358,0.00108565,0.537928,0.6673857821501952,0.4976781367106988,0.0034996896634023056,-0.16043468229011093,0.001086239531283395,-0.28270637257266806
772,0.7626,744.655,18.4899,0.0307498,131.251,-4.59511,-1.09846,0.511777,-0.175056,-0.332603,0.404296,0.00348109,0.00108254,0.538477,0.668253048226551,0.4982473625487083,0.003487156030551164,-0.1605899875077117,0.0010831261579198337,-0.28294519158502895
773,0.7636,744.846,18.4945,0.0308103,131.284,-4.60075,-1.09977,0.512296,-0.175242,-0.332935,0.404676,0.00346859,0.00107943,0.539024,0.66911909627861,0.49881680473363965,0.003474612519497766,-0.16074610325082106,0.0010800127942387494,-0.28318321426747106
774,0.7646,745.037,18.4991,0.0308705,131.318,-4.60635,-1.10108,0.512815,-0.175427,-0.333268,0.405056,0.00345608,0.00107632,0.539572,0.6699855939262682,0.4993864633477203,0.0034620591306169235,-0.16090135086087298,0.0010768994402403642,-0.28342187451798295
775,0.7656,745.227,18.5038,0.0309305,131.351,-4.61194,-1.10239,0.513334,-0.175613,-0.3336,0.405435,0.00344357,0.00107321,0.540119,0.6708525414029258,0.49995483851762024,0.003449505898777794,-0.16105740869578422,0.001073786095924234,-0.2836597389679594
776,0.7666,745.417,18.5084,0.0309902,131.384,-4.6175,-1.10369,0.513852,-0.175798,-0.333932,0.405814,0.00343106,0.00107009,0.540666,0.671718267223002,0.5005234291425358,0.0034369528239786007,-0.16121259871965576,0.0010706627505840949,-0.28389752446004624
777,0.7676,745.607,18.513,0.0310496,131.417,-4.62304,-1.10498,0.514371,-0.175983,-0.334264,0.406193,0.00341854,0.00106698,0.541212,0.6725861141904985,0.5010922353041398,0.0034243898719734656,-0.16136776003602826,0.001067549425664227,-0.284135231020453
778,0.7686,745.796,18.5176,0.0311088,131.45,-4.62856,-1.10627,0.514888,-0.176168,-0.334596,0.406571,0.00340601,0.00106386,0.541758,0.6734510647819969,0.50165975542363,0.0034118170431374217,-0.16152289265021236,0.0010644260997823007,-0.28437285867538087
779,0.7696,745.985,18.5222,0.0311678,131.484,-4.63406,-1.10755,0.515406,-0.176353,-0.334927,0.40695,0.00339348,0.00106074,0.542304,0.6743181369858668,0.5022289923345162,0.0033992443718378063,-0.16167799656751736,0.001061302783645246,-0.28460969206107156
780,0.7706,746.174,18.5269,0.0312264,131.517,-4.63953,-1.10883,0.515923,-0.176538,-0.335259,0.407328,0.00338094,0.00105762,0.54285,0.6751839832646658,0.5027969422293863,0.0033866618242059943,-0.16183307179325168,0.0010581794772528408,-0.28484716222107953
781,0.7716,746.363,18.5315,0.0312849,131.55,-4.64498,-1.1101,0.51644,-0.176723,-0.33559,0.407706,0.0033684,0.0010545,0.543395,0.6760502773017261,0.503365106849897,0.0033740794343584124,-0.16198811833272286,0.0010550561806053071,-0.28508383863827647
782,0.7726,746.552,18.5361,0.0313431,131.583,-4.65041,-1.11137,0.516957,-0.176908,-0.335921,0.408084,0.00335586,0.00105138,0.54394,0.6769170193285992,0.5039334862772304,0.0033614972022930623,-0.1621431361912372,0.001051932893702423,-0.2853204367285431
783,0.7736,746.74,18.5407,0.031401,131.616,-4.65582,-1.11263,0.517474,-0.177093,-0.336252,0.408461,0.00334331,0.00104826,0.544485,0.6777842095769555,0.5045005760912702,0.003348905094519017,-0.16229812537410038,0.0010488096165439664,-0.28555695651780133
784,0.7746,746.928,18.5453,0.0314587,131.649,-4.66121,-1.11388,0.51799,-0.177277,-0.336582,0.408838,0.00333075,0.00104514,0.545029,0.6786501696275762,0.5050678797384749,0.0033363031114115316,-0.16245224833928396,0.0010456863491303814,-0.28579268382500556
785,0.7756,747.115,18.55,0.0315161,131.682,-4.66657,-1.11513,0.518506,-0.177462,-0.336913,0.409216,0.00331819,0.00104201,0.545573,0.6795165766288866,0.5056369029356249,0.003323701286584102,-0.16260718034168908,0.0010425530810356243,-0.28602904732634205
786,0.7766,747.303,18.5546,0.0315733,131.715,-4.67191,-1.11638,0.519021,-0.177646,-0.337243,0.409592,0.00330563,0.00103889,0.546117,0.6803817504289817,0.5062031288549307,0.0033110996200345078,-0.16276124644598988,0.0010394298331422025,-0.2862646188692819
787,0.7776,747.49,18.5592,0.0316303,131.748,-4.67723,-1.11762,0.519537,-0.17783,-0.337573,0.409969,0.00329306,0.00103576,0.54666,0.6812490511565472,0.5067710744855336,0.003298488078776085,-0.16291528420473544,0.0010362965846304473,-0.28650011268643816
788,0.7786,747.677,18.5638,0.031687,131.781,-4.68253,-1.11885,0.520052,-0.178014,-0.337903,0.410345,0.00328049,0.00103263,0.547203,0.6821151174108113,0.5073377269335244,0.0032858766960435215,-0.16306929362314082,0.0010331633459257361,-0.2867355288034559
789,0.7796,747.864,18.5684,0.0317434,131.813,-4.68781,-1.12008,0.520566,-0.178198,-0.338233,0.410722,0.00326791,0.0010295,0.547746,0.6829799468232793,0.5079061003882426,0.003273255439102618,-0.16322327470642006,0.001030030117027847,-0.286970867245972
790,0.7806,748.051,18.5731,0.0317996,131.846,-4.69307,-1.1213,0.521081,-0.178382,-0.338562,0.411097,0.00325533,0.00102637,0.548289,0.6838469047183897,0.5084716712137902,0.0032606343409360417,-0.16337722745978644,0.001026896897937002,-0.28720541524538656
791,0.7816,748.237,18.5777,0.0318556,131.879,-4.6983,-1.12252,0.521595,-0.178566,-0.338891,0.411473,0.00324274,0.00102324,0.548831,0.6847126244983384,0.5090389632063779,0.003248003369061836,-0.16353115188845213,0.0010237636886532009,-0.28743988609120175
792,0.7826,748.423,18.5823,0.0319113,131.912,-4.70352,-1.12373,0.522109,-0.17875,-0.33922,0.411849,0.00323015,0.00102011,0.549373,0.6855787893726335,0.5096064685408603,0.0032353725562106472,-0.1636850479976284,0.001020630489176444,-0.287674279808797
793,0.7836,748.609,18.5869,0.0319668,131.944,-4.70871,-1.12493,0.522622,-0.178934,-0.339549,0.412224,0.00321756,0.00101698,0.549914,0.6864437131255559,0.5101726771240371,0.003222741902380255,-0.16383891579252563,0.001017497299506509,-0.28790859642354316
794,0.7846,748.794,18.5915,0.032022,131.977,-4.71388,-1.12613,0.523136,-0.179117,-0.339878,0.412599,0.00320496,0.00101385,0.550456,0.6873107680081179,0.5107390980752493,0.0032101013754677332,-0.16399191927069035,0.0010143641196433961,-0.28814283596080315
795,0.7856,748.98,18.5962,0.032077,132.01,-4.71903,-1.12733,0.523649,-0.179301,-0.340207,0.412974,0.00319235,0.00101071,0.550997,0.6881765804940208,0.5113057314741496,0.0031974509758503356,-0.16414573060646764,0.0010112209394748106,-0.288376998445931
796,0.7866,749.165,18.6008,0.0321318,132.042,-4.72416,-1.12852,0.524162,-0.179484,-0.340535,0.413348,0.00317975,0.00100758,0.551537,0.6890428372556758,0.5118710655285994,0.0031848107676015758,-0.1642986779426585,0.00100808777925665,-0.2886103725150011
797,0.7876,749.35,18.6054,0.0321863,132.075,-4.72927,-1.12971,0.524674,-0.179667,-0.340863,0.413723,0.00316713,0.00100444,0.552078,0.6899078486123615,0.5124381234948963,0.0031721506551751766,-0.16445159729204784,0.0010049446187958555,-0.28884367004992895
798,0.7886,749.534,18.61,0.0322406,132.108,-4.73436,-1.13089,0.525186,-0.17985,-0.341191,0.414097,0.00315452,0.00100131,0.552618,0.6907733029682601,0.5130038811431687,0.0031595007341131964,-0.16460448865975652,0.0010018114782224252,-0.28907689107581336
799,0.7896,749.719,18.6147,0.0322947,132.14,-4.73943,-1.13206,0.525698,-0.180033,-0.341519,0.414471,0.0031419,0.000998169,0.553158,0.691639200550245,0.5135698504243749,0.0031468409410975173,-0.16475735205090491,0.0009986673364705823,-0.2893100356177454
800,0.7906,749.903,18.6193,0.0323485,132.173,-4.74447,-1.13323,0.52621,-0.180216,-0.341847,0.414845,0.00312928,0.00099503,0.553697,0.6925055415853061,0.5141360314176797,0.0031341813078471503,-0.16491018747061215,0.0009955252065851905,-0.2895431037008076
801,0.7916,750.087,18.6239,0.0324021,132.205,-4.7495,-1.13439,0.526721,-0.180399,-0.342174,0.415218,0.00311665,0.000991891,0.554237,0.6933706329290701,0.5147009095006116,0.0031215118031453493,-0.16506299492399668,0.0009923830865632421,-0.2897753851258147
802,0.7926,750.27,18.6285,0.0324555,132.238,-4.75451,-1.13555,0.527232,-0.180582,-0.342501,0.415592,0.00310402,0.000988751,0.554775,0.6942361664474768,0.5152675135891249,0.0031088424584584384,-0.16521577441617563,0.0009892399754150016,-0.29000759060721326
803,0.7936,750.454,18.6331,0.0325086,132.27,-4.7595,-1.13671,0.527743,-0.180765,-0.342828,0.415965,0.00309139,0.00098561,0.555314,0.6951021423665349,0.5158328137936277,0.0030961732737841974,-0.1653685259522656,0.000986095873150017,-0.2902397201698327
804,0.7946,750.637,18.6378,0.0325615,132.303,-4.76446,-1.13786,0.528253,-0.180947,-0.343155,0.416338,0.00307875,0.000982468,0.555852,0.6959668649446564,0.5163983248944364,0.0030834942182857983,-0.16552041505821435,0.0009829507797778358,-0.29047177383849454
805,0.7956,750.82,18.6424,0.0326141,132.335,-4.76941,-1.139,0.528763,-0.18113,-0.343482,0.41671,0.00306611,0.000979326,0.55639,0.6968320286437693,0.5169625300069418,0.003070815323049647,-0.16567311085016767,0.0009798056962873058,-0.2907037516380121
806,0.7966,751.003,18.647,0.0326666,132.367,-4.77433,-1.14014,0.529273,-0.181312,-0.343808,0.417083,0.00305346,0.000976183,0.556928,0.697697633688902,0.5175284625704959,0.003058126557492491,-0.16582494452670926,0.000976659621702236,-0.29093494452848945
807,0.7976,751.185,18.6516,0.0327188,132.4,-4.77924,-1.14127,0.529783,-0.181494,-0.344135,0.417455,0.00304081,0.000973039,0.557466,0.6985636803051989,0.5180930881724228,0.003045437952447161,-0.1659767505720362,0.0009735125560315083,-0.2911667708959518
808,0.7986,751.367,18.6562,0.0327707,132.432,-4.78413,-1.1424,0.530292,-0.181677,-0.344461,0.417827,0.00302816,0.000969894,0.558003,0.6994284692885997,0.518657923854146,0.0030327495079116584,-0.16612936286223112,0.0009703644992848925,-0.29139781286675226
809,0.7996,751.549,18.6609,0.0328225,132.464,-4.78899,-1.14353,0.530801,-0.181859,-0.344787,0.418199,0.00301551,0.000966749,0.55854,0.7002936985616373,0.51922296969383,0.0030200612238839852,-0.16628111350846242,0.0009672164524388016,-0.2916287795301461
810,0.8006,751.731,18.6655,0.032874,132.496,-4.79384,-1.14465,0.53131,-0.182041,-0.345113,0.41857,0.00300285,0.000963602,0.559076,0.7011593683484758,0.5197867059822017,0.0030073630702882603,-0.16643283653858942,0.0009640664135652788,-0.2918596709106793
811,0.8016,751.913,18.6701,0.0329253,132.528,-4.79867,-1.14576,0.531819,-0.182223,-0.345438,0.418942,0.00299019,0.000960456,0.559612,0.7020254788733946,0.5203521718069495,0.002994665077450387,-0.16658453195763745,0.000960917385565585,-0.2920897791230235
812,0.8026,752.094,18.6747,0.0329764,132.561,-4.80348,-1.14687,0.532327,-0.182404,-0.345764,0.419313,0.00297752,0.000957308,0.560148,0.7028903274696068,0.5209163271070272,0.002981957215548281,-0.16673536650641474,0.0009577663655573332,-0.29232052024218336
813,0.8036,752.275,18.6793,0.0330272,132.593,-4.80826,-1.14798,0.532835,-0.182586,-0.346089,0.419684,0.00296485,0.00095416,0.560684,0.7037556155205178,0.5214806917475514,0.0029692495146538267,-0.1668870068700189,0.000954615355468702,-0.2925504787028307
814,0.8046,752.456,18.684,0.0330779,132.625,-4.81303,-1.14907,0.533343,-0.182768,-0.346414,0.420055,0.00295218,0.000951011,0.561219,0.7046213432494277,0.5220452658062018,0.0029565419747648036,-0.16703861963758815,0.0009514633543477036,-0.29278036243912164
815,0.8056,752.637,18.6886,0.0331283,132.657,-4.81778,-1.15017,0.53385,-0.182949,-0.346739,0.420425,0.00293951,0.000947861,0.561754,0.7054858053930912,0.5226085267513991,0.0029438345958794354,-0.16718937200393302,0.0009483103622041078,-0.2930101714753378
816,0.8066,752.817,18.6932,0.0331785,132.689,-4.82251,-1.15126,0.534357,-0.183131,-0.347064,0.420796,0.00292683,0.000944711,0.562289,0.7063507059301848,0.5231735193144638,0.0029311173486843423,-0.1673409297460554,0.0009451573799923452,-0.29323990583575255
817,0.8076,752.997,18.6978,0.0332284,132.721,-4.82723,-1.15235,0.534864,-0.183312,-0.347388,0.421166,0.00291415,0.00094156,0.562824,0.7072160450830305,0.5237371977906977,0.002918400262742926,-0.1674916273992224,0.0009420034067706418,-0.2934688590138441
818,0.8086,753.177,18.7024,0.0332782,132.753,-4.83192,-1.15343,0.53537,-0.183493,-0.347712,0.421536,0.00290147,0.000938409,0.563358,0.7080801149930938,0.5243010848665564,0.0029056833380529667,-0.16764229777858242,0.0009388494434869887,-0.2936977380231218
819,0.8096,753.357,18.707,0.0333277,132.785,-4.83659,-1.1545,0.535877,-0.183674,-0.348036,0.421905,0.00288878,0.000935257,0.563892,0.7089463311786433,0.5248636557548174,0.002892956545683001,-0.16779294088907182,0.0009356944892056074,-0.2939265428876128
820,0.8106,753.537,18.7117,0.033377,132.817,-4.84125,-1.15557,0.536383,-0.183855,-0.34836,0.422275,0.00287609,0.000932104,0.564425,0.709811276835016,0.5254279596972384,0.00288022991481518,-0.16794355673562555,0.0009325385439362677,-0.29415527363133576
821,0.8116,753.716,18.7163,0.0334261,132.849,-4.84588,-1.15664,0.536888,-0.184036,-0.348684,0.422644,0.0028634,0.000928951,0.564959,0.7106749495888331,0.52599094647904,0.0028675034454470616,-0.16809414532317812,0.0009293826086176349,-0.2943839302783021
822,0.8126,753.895,18.7209,0.033475,132.881,-4.8505,-1.1577,0.537394,-0.184217,-0.349008,0.423013,0.0028507,0.000925797,0.565492,0.711540770147453,0.5265541410412968,0.0028547671090293214,-0.1682447066566629,0.0009262256823232562,-0.2946125128525152
823,0.8136,754.074,18.7255,0.0335236,132.913,-4.8551,-1.15876,0.537899,-0.184398,-0.349331,0.423382,0.00283801,0.000922643,0.566024,0.7124053165159621,0.5271175434606947,0.0028420409627822885,-0.16839524074101242,0.0009230687659860237,-0.2948403162186397
824,0.8146,754.253,18.7301,0.0335721,132.944,-4.85968,-1.15981,0.538404,-0.184579,-0.349654,0.42375,0.00282531,0.000919488,0.566557,0.7132702995906461,0.5276796261335568,0.002829304949735878,-0.16854574758115837,0.0009199108586857019,-0.2950680460161589
825,0.8156,754.431,18.7347,0.0336203,132.976,-4.86424,-1.16086,0.538909,-0.184759,-0.349978,0.424119,0.0028126,0.000916332,0.567089,0.7141357195920979,0.5282434439335868,0.0028165590702702303,-0.168695395877843,0.0009167519604316166,-0.29529640697277704
826,0.8166,754.609,18.7394,0.0336683,133.008,-4.86878,-1.1619,0.539413,-0.18494,-0.3503,0.424487,0.0027999,0.000913176,0.567621,0.7149998617403015,0.5288059410140691,0.002803823380841841,-0.16884584839482553,0.000913593072147334,-0.29552328500040903
827,0.8176,754.787,18.744,0.0337161,133.04,-4.87331,-1.16294,0.539917,-0.18512,-0.350623,0.424855,0.00278719,0.00091002,0.568152,0.7158644395259193,0.5293686451315696,0.002791077825244903,-0.16899544267822508,0.000910434193832188,-0.2957507942346346
828,0.8186,754.965,18.7486,0.0337638,133.071,-4.87782,-1.16397,0.540421,-0.1853,-0.350946,0.425223,0.00277448,0.000906863,0.568684,0.7167294531685677,0.529931556362292,0.002778332431642827,-0.16914501003707694,0.0009072743245792658,-0.29597822999524404
829,0.8196,755.142,18.7532,0.0338111,133.103,-4.8823,-1.165,0.540924,-0.185481,-0.351268,0.42559,0.00276177,0.000903705,0.569215,0.7175931852939299,0.5304931442885581,0.0027655872000336146,-0.16929538118126108,0.0009041134643981152,-0.2962048885112062
830,0.8206,755.32,18.7578,0.0338583,133.135,-4.88677,-1.16603,0.541427,-0.185661,-0.35159,0.425958,0.00274905,0.000900547,0.569745,0.7184573519858357,0.5310564694111215,0.002752832102887126,-0.16944489455604106,0.0009009526141987578,-0.29643147405487524
831,0.8216,755.497,18.7624,0.0339053,133.166,-4.89123,-1.16705,0.54193,-0.185841,-0.351912,0.426325,0.00273633,0.000897389,0.570276,0.7193219534629267,0.5316184702562425,0.0027400771679844116,-0.16959438102083557,0.0008977917739811936,-0.29665798664974463
832,0.8226,755.674,18.767,0.0339521,133.198,-4.89566,-1.16806,0.542433,-0.186021,-0.352234,0.426692,0.00272361,0.00089423,0.570806,0.720186989943955,0.5321806773935258,0.0027273223953232506,-0.16974384058048786,0.0008946299428511661,-0.2968844263193001
833,0.8236,755.85,18.7717,0.0339986,133.229,-4.90008,-1.16907,0.542936,-0.1862,-0.352556,0.427058,0.00271089,0.000891071,0.571336,0.7210524616477827,0.5327415581563704,0.002714567784901867,-0.1698924431326988,0.0008914681217093712,-0.2971107930870198
834,0.8246,756.027,18.7763,0.034045,133.261,-4.90448,-1.17008,0.543438,-0.18638,-0.352877,0.427425,0.00269817,0.000887911,0.571865,0.721916646875874,0.5333041775425562,0.0027018133367182617,-0.17004184904599928,0.0008883053096673255,-0.29733638431310994
835,0.8256,756.203,18.7809,0.0340911,133.293,-4.90886,-1.17108,0.54394,-0.18656,-0.353198,0.427791,0.00268544,0.000884751,0.572394,0.7227812660338568,0.5338654695817142,0.002689049023879342,-0.1701912280686556,0.0008851425076197295,-0.2975619031360379
836,0.8266,756.379,18.7855,0.0341371,133.324,-4.91322,-1.17208,0.544441,-0.186739,-0.353519,0.428157,0.00267271,0.00088159,0.572923,0.7236445956941617,0.5344269670913575,0.002676284873529333,-0.17033975054567307,0.0008819787146847613,-0.2977873495790413
837,0.8276,756.555,18.7901,0.0341828,133.355,-4.91757,-1.17307,0.544942,-0.186919,-0.35384,0.428523,0.00265998,0.000878429,0.573452,0.7245083579909928,0.5349886701467017,0.0026635208856657933,-0.17048907595088525,0.0008788149317502381,-0.29801272366535037
838,0.8286,756.73,18.7947,0.0342283,133.387,-4.92189,-1.17406,0.545444,-0.187098,-0.354161,0.428889,0.00264725,0.000875268,0.57398,0.7253742785145711,0.5355505788229906,0.0026507570602869457,-0.17063754511790308,0.0008756511588166038,-0.2982380254181879
839,0.8296,756.906,18.7993,0.0342737,133.418,-4.92621,-1.17505,0.545944,-0.187277,-0.354482,0.429254,0.00263452,0.000872106,0.574509,0.7262371813615629,0.5361111570835699,0.002637993397390348,-0.1707859877113186,0.0008724863950111406,-0.2984632548607691
840,0.8306,757.081,18.8039,0.0343188,133.45,-4.9305,-1.17603,0.546445,-0.187457,-0.354802,0.42962,0.00262178,0.000868944,0.575036,0.7271022428692384,0.5366734766652688,0.002625219870721951,-0.17093523280106948,0.0008693216412125615,-0.2986877107043633
841,0.8316,757.256,18.8085,0.0343638,133.481,-4.93478,-1.17701,0.546945,-0.187636,-0.355122,0.429985,0.00260904,0.000865781,0.575564,0.7279660099144394,0.5372344648583689,0.0026124465067873803,-0.17108362211315842,0.000866155896555032,-0.2989120947335785
842,0.8326,757.43,18.8131,0.0344085,133.512,-4.93903,-1.17798,0.547445,-0.187815,-0.355442,0.43035,0.0025963,0.000862619,0.576091,0.7288302089511516,0.5377956578495326,0.0025996733055844157,-0.17123198486593771,0.000862991162773552,-0.29913640697139154
843,0.8336,757.605,18.8177,0.034453,133.544,-4.94328,-1.17894,0.547945,-0.187993,-0.355762,0.430714,0.00258356,0.000859455,0.576618,0.7296948401954251,0.5383555173572385,0.0025869002671108365,-0.17137949244406758,0.0008598244372792774,-0.29936064744077207
844,0.8346,757.779,18.8223,0.0344974,133.575,-4.9475,-1.17991,0.548444,-0.188172,-0.356082,0.431079,0.00257081,0.000856292,0.577145,0.7305581733043791,0.5389171196072498,0.0025741173656237404,-0.17152780224079733,0.0008566587226610523,-0.29958481616468235
845,0.8356,757.953,18.8269,0.0345415,133.606,-4.95171,-1.18087,0.548943,-0.188351,-0.356401,0.431443,0.00255807,0.000853128,0.577671,0.7314219373240576,0.5394773874013392,0.0025613446527308348,-0.17167608549244928,0.0008534920172025284,-0.2998082129746402
846,0.8366,758.127,18.8316,0.0345855,133.637,-4.9559,-1.18182,0.549442,-0.18853,-0.356721,0.431807,0.00254532,0.000849964,0.578197,0.7322861324695389,0.5400378591700268,0.0025485620770755446,-0.17182434220377463,0.0008503253217635454,-0.30003223850049243
847,0.8376,758.301,18.8362,0.0346292,133.668,-4.96007,-1.18277,0.549941,-0.188708,-0.35704,0.432171,0.00253257,0.0008468,0.578723,0.7331507589560087,0.5405985349875728,0.0025357796643969976,-0.17197174435168194,0.000847158636343881,-0.3002554926054879
848,0.8386,758.474,18.8408,0.0346728,133.7,-4.96423,-1.18372,0.550439,-0.188886,-0.357359,0.432535,0.00251982,0.000843635,0.579249,0.7340140829838093,0.5411594149282646,0.0025229974146934175,-0.17211912026434206,0.0008439909600996831,-0.3004786755037818
849,0.8396,758.647,18.8454,0.0347161,133.731,-4.96837,-1.18466,0.550937,-0.189065,-0.357677,0.432898,0.00250707,0.00084047,0.579774,0.7348778370540476,0.5417189573466883,0.002510215327962362,-0.1722672976795404,0.0008408232938812432,-0.3007010879195232
850,0.8406,758.82,18.85,0.0347593,133.762,-4.9725,-1.1856,0.551435,-0.189243,-0.357996,0.433261,0.00249431,0.000837305,0.580299,0.7357420213809378,0.5422787029158795,0.002497423379227648,-0.17241462098839,0.0008376556376883393,-0.3009241286955817
851,0.8416,758.993,18.8546,0.0348023,133.793,-4.9766,-1.18653,0.551933,-0.189421,-0.358315,0.433624,0.00248156,0.000834139,0.580823,0.7366066361788011,0.5428386517095956,0.0024846416185633213,-0.1725619180760244,0.0008344869906864449,-0.3011470983329798
852,0.8426,759.166,18.8592,0.0348451,133.824,-4.9807,-1.18746,0.55243,-0.189599,-0.358633,0.433987,0.0024688,0.000830974,0.581348,0.7374699441912527,0.54339880380162,0.002471849996147135,-0.1727091889471104,0.0008313193545479436,-0.3013692982240548
853,0.8436,759.338,18.8638,0.0348877,133.855,-4.98477,-1.18839,0.552927,-0.189777,-0.358951,0.43435,0.00245604,0.000827808,0.581872,0.7383336813744263,0.5439591592657635,0.002459058536950831,-0.17285643360631442,0.0008281507276068911,-0.3015914274667981
854,0.8446,759.51,18.8684,0.0349301,133.886,-4.98883,-1.18931,0.553424,-0.189955,-0.359269,0.434712,0.00244328,0.000824641,0.582396,0.7391978479416734,0.5445181736569178,0.0024462672409724107,-0.1730036520583016,0.0008249811098726134,-0.3018134860836723
855,0.8456,759.682,18.873,0.0349723,133.917,-4.99287,-1.19023,0.55392,-0.190133,-0.359587,0.435074,0.00243052,0.000821475,0.582919,0.7400607040448763,0.545077390447914,0.0024334761082100975,-0.1731508443077363,0.000821812502998176,-0.30203547409713283
856,0.8466,759.854,18.8776,0.0350144,133.948,-4.9969,-1.19114,0.554416,-0.19031,-0.359904,0.435436,0.00241776,0.000818309,0.583443,0.7409239882308625,0.5456368097120339,0.002420685138661449,-0.1732971836568794,0.0008186439061557138,-0.30225669378667075
857,0.8476,760.026,18.8821,0.0350562,133.979,-5.00091,-1.19205,0.554912,-0.190488,-0.360222,0.435798,0.00240499,0.000815142,0.583966,0.7417877007120128,0.5461964315225862,0.002407884308245789,-0.17344432366233953,0.0008154743185295743,-0.3024785408824888
858,0.8486,760.197,18.8867,0.0350979,134.01,-5.0049,-1.19296,0.555408,-0.190666,-0.360539,0.43616,0.00239223,0.000811975,0.584488,0.7426518417008152,0.5467562559529058,0.002395093665246373,-0.17359143747920946,0.0008123047409414053,-0.30269962014211504
859,0.8496,760.368,18.8913,0.0351393,134.04,-5.00888,-1.19386,0.555903,-0.190843,-0.360856,0.436521,0.00237946,0.000808808,0.585011,0.7435146678943223,0.5473147357608448,0.0023822931616317433,-0.17373769885026247,0.0008091351733912067,-0.30292062933072295
860,0.8506,760.539,18.8959,0.0351806,134.071,-5.01284,-1.19476,0.556399,-0.19102,-0.361173,0.436882,0.00236669,0.00080564,0.585533,0.7443796656713129,0.5478734172163899,0.0023694928214783584,-0.17388393433534377,0.000805964615073318,-0.3031415684705212
861,0.8516,760.71,18.9005,0.0352217,134.102,-5.01679,-1.19565,0.556893,-0.191197,-0.36149,0.437243,0.00235393,0.000802473,0.586055,0.7452416021069255,0.5484323003923488,0.002356702668351307,-0.1740301439390347,0.0008027950676023909,-0.30336243758371206
862,0.8526,760.88,18.9051,0.0352627,134.133,-5.02072,-1.19654,0.557388,-0.191375,-0.361806,0.437604,0.00234116,0.000799305,0.586576,0.746105710549164,0.5489913853615556,0.0023439026549865183,-0.1741771534891755,0.000799624529369547,-0.3035825402753788
863,0.8536,761.05,18.9097,0.0353034,134.163,-5.02463,-1.19743,0.557882,-0.191552,-0.362122,0.437965,0.00232838,0.000796137,0.587098,0.7469684998615893,0.549550672196871,0.002331092781765909,-0.17432331119766908,0.0007964540011813348,-0.30380257342558303
864,0.8546,761.221,18.9143,0.035344,134.194,-5.02853,-1.19831,0.558376,-0.191729,-0.362439,0.438325,0.00231561,0.000792969,0.587619,0.7478317154972283,0.5501086108617959,0.002318293095437296,-0.17446944303853773,0.0007932834830370883,-0.3040232330334115
865,0.8556,761.39,18.9189,0.0353843,134.225,-5.03242,-1.19919,0.55887,-0.191905,-0.362755,0.438685,0.00230284,0.000789801,0.588139,0.7486953576667366,0.5506667504207989,0.0023054935725594916,-0.17461472363149566,0.0007901129749370295,-0.30424312694670486
866,0.8566,761.56,18.9235,0.0354245,134.255,-5.03628,-1.20006,0.559364,-0.192082,-0.36307,0.439045,0.00229007,0.000786633,0.58866,0.7495594265808736,0.5512250909462149,0.0022926942131307193,-0.17476080389692805,0.0007869424768811584,-0.30446225584710285
867,0.8576,761.73,18.9281,0.0354646,134.286,-5.04014,-1.20094,0.559857,-0.192259,-0.363386,0.439405,0.00227729,0.000783465,0.58918,0.7504221720274566,0.5517836325104049,0.0022798849943497235,-0.17490685830844155,0.000783771988869475,-0.30468201105110426
868,0.8586,761.899,18.9326,0.0355044,134.317,-5.04397,-1.2018,0.56035,-0.192435,-0.363702,0.439765,0.00226452,0.000780297,0.5897,0.7512853429124065,0.5523423751857557,0.0022670859619402517,-0.17505206192308642,0.0007806015109019793,-0.30490169682343204
869,0.8596,762.068,18.9372,0.0355441,134.347,-5.0478,-1.20266,0.560843,-0.192612,-0.364017,0.440124,0.00225174,0.000777128,0.590219,0.7521489394455163,0.5528997661441379,0.002254277070430799,-0.17519806478649147,0.0007774300422009883,-0.3051206183069888
870,0.8606,762.237,18.9418,0.0355835,134.378,-5.0516,-1.20352,0.561335,-0.192788,-0.364332,0.440483,0.00223896,0.00077396,0.590739,0.753011208824597,0.5534573572417971,0.002241468342617736,-0.17534321715330603,0.0007742595843245326,-0.3053394708411383
871,0.8616,762.406,18.9464,0.0356229,134.408,-5.05539,-1.20438,0.561828,-0.192965,-0.364647,0.440842,0.00222618,0.000770791,0.591258,0.7538756564193712,0.5540151485505962,0.0022286597784992868,-0.17548916848679585,0.0007710881357210209,-0.3055582544475963
872,0.8626,762.574,18.951,0.035662,134.439,-5.05917,-1.20523,0.56232,-0.193141,-0.364962,0.441201,0.00221341,0.000767623,0.591777,0.7547387755522255,0.5545731401424236,0.0022158614002316668,-0.17563426962386752,0.0007679176979358271,-0.3057769691480715
873,0.8636,762.742,18.9556,0.0357009,134.469,-5.06293,-1.20608,0.562811,-0.193317,-0.365277,0.44156,0.00220063,0.000764454,0.592295,0.7556005638427332,0.5551313320891942,0.002203053163367663,-0.1757793452253863,0.0007647462694297946,-0.30599561496426586
874,0.8646,762.91,18.9601,0.0357397,134.5,-5.06668,-1.20692,0.563303,-0.193493,-0.365591,0.441918,0.00218785,0.000761285,0.592813,0.756464531838843,0.5556881687739015,0.0021902450901920556,-0.17592439529584603,0.0007615748509739451,-0.3062134981317196
875,0.8656,763.078,18.9647,0.0357783,134.53,-5.07041,-1.20776,0.563794,-0.193669,-0.365905,0.442276,0.00217507,0.000758116,0.593331,0.7573271676837454,0.5562452048418294,0.002177437180702624,-0.17606941983973978,0.0007584034425685005,-0.3064313128945988
876,0.8666,763.246,18.9693,0.0358168,134.56,-5.07413,-1.2086,0.564285,-0.193845,-0.36622,0.442634,0.00216228,0.000754948,0.593849,0.7581902271868473,0.5568024403643699,0.0021646194132507457,-0.17621441886155975,0.0007552330449682731,-0.3066497526249733
877,0.8676,763.414,18.9739,0.035855,134.591,-5.07783,-1.20943,0.564775,-0.194021,-0.366534,0.442992,0.0021495,0.000751779,0.594367,0.7590519515033847,0.5573598754129403,0.002151811831255346,-0.17635939236579756,0.0007520616566598637,-0.30686743042544584
878,0.8686,763.581,18.9784,0.0358931,134.621,-5.08152,-1.21026,0.565266,-0.194196,-0.366847,0.44335,0.00213672,0.00074861,0.594884,0.7599158580832823,0.5579175100589842,0.0021390044129396824,-0.1765035168608724,0.0007488902784014151,-0.30708434697051246
879,0.8696,763.748,18.983,0.0359311,134.651,-5.08519,-1.21109,0.565756,-0.194372,-0.367161,0.443707,0.00212394,0.000745441,0.595401,0.7607784281661549,0.5584737858994047,0.002126197158301757,-0.17664843948833953,0.0007457189101931494,-0.3073018883297829
880,0.8706,763.915,18.9876,0.0359688,134.682,-5.08885,-1.21191,0.566246,-0.194547,-0.367474,0.444064,0.00211115,0.000742273,0.595917,0.7616414210119364,0.5590302603657529,0.0021133800462058705,-0.17679251340459368,0.0007425485527774445,-0.3075186689108049
881,0.8716,764.082,18.9922,0.0360064,134.712,-5.09249,-1.21273,0.566735,-0.194723,-0.367788,0.444421,0.00209837,0.000739104,0.596433,0.7625030743238761,0.5595869335289507,0.0021005731190453236,-0.17693738517314495,0.0007393772046662139,-0.30773607391439506
882,0.8726,764.248,18.9967,0.0360438,134.742,-5.09612,-1.21355,0.567225,-0.194898,-0.368101,0.444778,0.00208559,0.000735935,0.59695,0.7633669124533524,0.5601438054599459,0.0020877663555560755,-0.17708140852832843,0.0007362058666047222,-0.30795271861659534
883,0.8736,764.414,19.0013,0.0360811,134.772,-5.09974,-1.21436,0.567714,-0.195073,-0.368414,0.445135,0.0020728,0.000732767,0.597465,0.7642294097369413,0.560700876229711,0.0020749497349870083,-0.17722540668163012,0.0007330355393264654,-0.3081692955196148
884,0.8746,764.581,19.0059,0.0361182,134.803,-5.10334,-1.21517,0.568203,-0.195248,-0.368727,0.445491,0.00206002,0.000729598,0.597981,0.765092328884839,0.5612565846518789,0.002062143298962704,-0.1773693796374598,0.0007298642213617867,-0.3083858046446716
885,0.8756,764.746,19.0105,0.0361551,134.833,-5.10692,-1.21597,0.568691,-0.195423,-0.369039,0.445847,0.00204723,0.000726429,0.598496,0.765953904148601,0.5618124909414635,0.0020493270061101576,-0.17751332740022663,0.0007266929134468469,-0.3086015546148768
886,0.8766,764.912,19.015,0.0361918,134.863,-5.1105,-1.21677,0.56918,-0.195598,-0.369352,0.446203,0.00203445,0.000723261,0.599011,0.7668176667804811,0.5623685951689179,0.00203652089754236,-0.17765724997433896,0.0007235226163055941,-0.3088179284640086
887,0.8776,765.078,19.0196,0.0362284,134.893,-5.11405,-1.21757,0.569668,-0.195773,-0.369664,0.446559,0.00202166,0.000720092,0.599526,0.767680084214609,0.5629248974047205,0.0020237049323983403,-0.1778011473642046,0.0007203513284872454,-0.3090335436326124
888,0.8786,765.243,19.0242,0.0362649,134.923,-5.1176,-1.21836,0.570156,-0.195948,-0.369976,0.446915,0.00200887,0.000716924,0.60004,0.7685429226111511,0.5634813977193753,0.0020108891311694244,-0.17794501957423037,0.0007171810514359223,-0.309249091539777
889,0.8796,765.408,19.0287,0.0363011,134.953,-5.12113,-1.21915,0.570643,-0.196123,-0.370288,0.44727,0.00199609,0.000713756,0.600554,0.7694044127702899,0.5640365321460963,0.001998083513834459,-0.17808886660882228,0.0007140107844281207,-0.3094645722064846
890,0.8806,765.573,19.0333,0.0363372,134.983,-5.12464,-1.21994,0.57113,-0.196297,-0.3706,0.447626,0.0019833,0.000710587,0.601068,0.7702663225773123,0.5645934282731695,0.0019852680403014134,-0.17823186670466318,0.0007108395267527712,-0.3096799856537109
891,0.8816,765.738,19.0378,0.0363732,135.013,-5.12815,-1.22073,0.571617,-0.196472,-0.370911,0.447981,0.00197052,0.000707419,0.601582,0.7711286522366363,0.5651489575408173,0.00197246275040186,-0.17837566354539935,0.0007076692798348994,-0.3098946417974121
892,0.8826,765.902,19.0424,0.0364089,135.043,-5.13163,-1.22151,0.572104,-0.196646,-0.371223,0.448336,0.00195773,0.000704251,0.602095,0.7719914019527798,0.5657046840563644,0.001959647604556247,-0.17851861374291456,0.0007044990429603271,-0.3101099210838564
893,0.8836,766.067,19.047,0.0364446,135.073,-5.13511,-1.22228,0.572591,-0.196821,-0.371534,0.44869,0.00194494,0.000701083,0.602608,0.7728545719303608,0.5662590416300217,0.001946832622615302,-0.17866236040730954,0.0007013288161288322,-0.3103244435384285
894,0.8846,766.231,19.0515,0.03648,135.103,-5.13857,-1.22306,0.573077,-0.196995,-0.371845,0.449045,0.00193216,0.000697916,0.603121,0.7737163886568201,0.5668151622953781,0.0019340278239172726,-0.17880526072391068,0.00069815960003905,-0.3105388992868906
895,0.8856,766.395,19.0561,0.0365153,135.133,-5.14202,-1.22383,0.573563,-0.197169,-0.372156,0.449399,0.00191937,0.000694748,0.603633,0.7745786243280044,0.5673699130479206,0.0019212131696513257,-0.17894813617801963,0.0006949893932910456,-0.31075328834998506
896,0.8866,766.559,19.0606,0.0365505,135.162,-5.14545,-1.22459,0.574049,-0.197343,-0.372467,0.449753,0.00190658,0.000691581,0.604145,0.7754412791475693,0.5679248602169933,0.0019083986792838292,-0.1790909867739624,0.0006918201972780924,-0.3109676107484478
897,0.8876,766.722,19.0652,0.0365855,135.192,-5.14887,-1.22536,0.574534,-0.197517,-0.372778,0.450107,0.0018938,0.000688413,0.604657,0.7763025770158056,0.5684800038721396,0.0018955943717682278,-0.17923381251606385,0.0006886500106131344,-0.3111818665030083
898,0.8886,766.886,19.0697,0.0366203,135.222,-5.15228,-1.22612,0.575019,-0.197691,-0.373088,0.450461,0.00188101,0.000685246,0.605169,0.7771642927148237,0.5690353440829281,0.001882780209063073,-0.17937661340864808,0.0006854808346770103,-0.31139536703010084
899,0.8896,767.049,19.0743,0.036655,135.252,-5.15567,-1.22687,0.575504,-0.197865,-0.373398,0.450814,0.00186822,0.000682079,0.605681,0.7780264264473211,0.5695893113288559,0.0018699662102499293,-0.17951938945603874,0.0006823116687775244,-0.31160880138228775
900,0.8906,767.212,19.0788,0.0366895,135.282,-5.15905,-1.22763,0.575989,-0.198038,-0.373708,0.451168,0.00185544,0.000678912,0.606192,0.7788889784160926,0.5701450443039995,0.0018571623938983262,-0.17966132032428872,0.0006791425129148987,-0.3118221695800798
901,0.8916,767.375,19.0834,0.0367238,135.311,-5.16242,-1.22838,0.576474,-0.198212,-0.374018,0.451521,0.00184265,0.000675745,0.606703,0.7797519488240323,0.5706994033432526,0.0018443487227348676,-0.1798040468369856,0.0006759733670889112,-0.31203547164398193
902,0.8926,767.538,19.0879,0.036758,135.341,-5.16577,-1.22913,0.576958,-0.198386,-0.374328,0.451874,0.00182987,0.000672579,0.607213,0.7806135572596848,0.5712539581057898,0.0018315452337727134,-0.17994674851742964,0.0006728052319724398,-0.3122487075944923
903,0.8936,767.7,19.0925,0.0367921,135.371,-5.16912,-1.22987,0.577442,-0.198559,-0.374638,0.452227,0.00181708,0.000669413,0.607724,0.781475582814755,0.5718087086607135,0.0018187318902505023,-0.18008860545895689,0.0006696371068861673,-0.31246187745210297
904,0.8946,767.863,19.097,0.036826,135.4,-5.17244,-1.23061,0.577926,-0.198732,-0.374947,0.452579,0.0018043,0.000666247,0.608234,0.7823380256911774,0.5723620827142819,0.0018059287286693593,-0.18023043786135595,0.0006664689918303157,-0.312674293911937
905,0.8956,768.025,19.1016,0.0368598,135.43,-5.17576,-1.23135,0.578409,-0.198906,-0.375256,0.452931,0.00179151,0.000663081,0.608743,0.7831991028909899,0.5729156515898035,0.001793115712780402,-0.18037306535621622,0.000663300886804441,-0.3128866447452249
906,0.8966,768.187,19.1061,0.0368934,135.459,-5.17906,-1.23208,0.578892,-0.199079,-0.375566,0.453284,0.00177873,0.000659915,0.609253,0.7840605960915461,0.5734709888260703,0.0017803128785718325,-0.18051484855130961,0.0006601327918089872,-0.3130996168729685
907,0.8976,768.348,19.1107,0.0369268,135.489,-5.18235,-1.23281,0.579375,-0.199252,-0.375875,0.453636,0.00176594,0.000656749,0.609762,0.7849225054938227,0.5740249481052504,0.0017675001903074694,-0.18065660722003185,0.0006569647068437323,-0.3133118363017644
908,0.8986,768.51,19.1152,0.0369601,135.519,-5.18562,-1.23354,0.579858,-0.199425,-0.376183,0.453987,0.00175316,0.000653584,0.610271,0.785784831298894,0.5745775278341045,0.0017546976834632577,-0.18079834136662554,0.0006537976325622363,-0.3135233036885342
909,0.8996,768.671,19.1197,0.0369933,135.548,-5.18889,-1.23427,0.58034,-0.199598,-0.376492,0.454339,0.00174038,0.000650419,0.61078,0.7866457870612504,0.5751318766835758,0.0017418953402339454,-0.18094005099533284,0.000650630568304722,-0.313735392218329
910,0.9006,768.833,19.1243,0.0370263,135.578,-5.19214,-1.23499,0.580822,-0.199771,-0.3768,0.454691,0.0017276,0.000647254,0.611289,0.7875071579043107,0.5756864206981891,0.0017290931606175342,-0.1810817361103948,0.0006474635140707452,-0.3139467291699646
911,0.9016,768.994,19.1288,0.0370591,135.607,-5.19538,-1.23571,0.581304,-0.199944,-0.377109,0.455042,0.00171481,0.00064409,0.611797,0.788368944028192,0.576239583706283,0.0017162811274491485,-0.18122339671605203,0.0006442974705049842,-0.3141586868814982
912,0.9026,769.154,19.1333,0.0370918,135.636,-5.1986,-1.23642,0.581786,-0.200116,-0.377417,0.455393,0.00170203,0.000640925,0.612305,0.7892311456331078,0.5767929409086716,0.0017034792751804417,-0.18136421418116766,0.000641130436315196,-0.314369893478453
913,0.9036,769.315,19.1379,0.0371244,135.666,-5.20181,-1.23713,0.582267,-0.200289,-0.377725,0.455744,0.00168925,0.000637761,0.612812,0.7900919728265006,0.5773464923735296,0.0016906775865181967,-0.18150582592234554,0.0006379644127871842,-0.314581035033793
914,0.9046,769.475,19.1424,0.0371568,135.695,-5.20501,-1.23784,0.582749,-0.200461,-0.378033,0.456094,0.00167647,0.000634598,0.61332,0.7909550051314798,0.5778986602696055,0.001677876061460637,-0.18164659481381518,0.000634799399911179,-0.3147921115675478
915,0.9056,769.636,19.1469,0.0371891,135.725,-5.2082,-1.23855,0.58323,-0.200634,-0.37834,0.456445,0.00166369,0.000631434,0.613827,0.7918166617007403,0.5784525999100798,0.00166507470000532,-0.181788157707369,0.0006316333964144771,-0.3150024381025215
916,0.9066,769.796,19.1515,0.0372212,135.754,-5.21138,-1.23925,0.58371,-0.200806,-0.378648,0.456795,0.00165091,0.000628271,0.614334,0.7926769401486666,0.5790051550115505,0.0016522735021506918,-0.18192887804194768,0.0006284684035635646,-0.315213384864117
917,0.9076,769.956,19.156,0.0372532,135.783,-5.21454,-1.23995,0.584191,-0.200978,-0.378955,0.457145,0.00163813,0.000625108,0.61484,0.7935394251678967,0.5795579035411544,0.0016394724678940875,-0.18206957417471015,0.000625303420723311,-0.315423582088039
918,0.9086,770.115,19.1605,0.0372851,135.813,-5.21769,-1.24065,0.584671,-0.20115,-0.379262,0.457495,0.00162535,0.000621945,0.615347,0.7944005307407815,0.5801108455666038,0.0016266715972335088,-0.18221024610981884,0.0006221384478941605,-0.31563371479131763
919,0.9096,770.275,19.165,0.0373168,135.842,-5.22083,-1.24134,0.585151,-0.201322,-0.379569,0.457845,0.00161258,0.000618783,0.615853,0.7952620497435565,0.5806639811556336,0.0016138809063059867,-0.18235089385143544,0.00061897448569459,-0.3158437829937577
920,0.9106,770.434,19.1696,0.0373483,135.871,-5.22396,-1.24203,0.58563,-0.201494,-0.379876,0.458194,0.0015998,0.000615621,0.616359,0.7961221862516314,0.5812157291594833,0.0016010803627037884,-0.18249151740372083,0.0006158105334994612,-0.31605378671515794
921,0.9116,770.594,19.1741,0.0373797,135.9,-5.22707,-1.24272,0.58611,-0.201666,-0.380183,0.458544,0.00158702,0.000612459,0.616864,0.7969845318474182,0.5817692515254524,0.0015882799826911764,-0.18263211677083524,0.0006126465913087742,-0.31626372597531116
922,0.9126,770.753,19.1786,0.037411,135.929,-5.23017,-1.24341,0.586589,-0.201838,-0.380489,0.458893,0.00157425,0.000609298,0.61737,0.7978454936220565,0.5823213853359805,0.0015754897820214886,-0.18277269195693802,0.000609483659731902,-0.3164729172672627
923,0.9136,770.911,19.1831,0.0374421,135.959,-5.23326,-1.24409,0.587068,-0.20201,-0.380796,0.459242,0.00156147,0.000606137,0.617875,0.7987068678961706,0.5828737118748377,0.0015626897290546005,-0.18291324296618816,0.0006063207381530322,-0.3166827278740856
924,0.9146,771.07,19.1876,0.0374731,135.988,-5.23634,-1.24477,0.587547,-0.202181,-0.381102,0.459591,0.0015487,0.000602976,0.618379,0.799568654867395,0.5834262312092979,0.0015498998551701781,-0.1830529528561049,0.0006031578265721649,-0.316891790971071
925,0.9156,771.229,19.1922,0.037504,136.017,-5.23941,-1.24545,0.588025,-0.202353,-0.381408,0.459939,0.00153593,0.000599816,0.618884,0.8004290543035046,0.5839773594285067,0.0015371101446115532,-0.18319345566462575,0.0005999959255891252,-0.3171007901045356
926,0.9166,771.387,19.1967,0.0375347,136.046,-5.24246,-1.24612,0.588503,-0.202524,-0.381714,0.460288,0.00152316,0.000596656,0.619388,0.801289865108854,0.5845302640031835,0.001524320597376505,-0.18333311764226767,0.0005968340345978707,-0.3173097252940493
927,0.9176,771.545,19.2012,0.0375653,136.075,-5.24551,-1.24679,0.588981,-0.202696,-0.382019,0.460636,0.00151038,0.000593496,0.619892,0.8021510874801248,0.5850817764926641,0.0015115211983476318,-0.18347357226658922,0.0005936721535981793,-0.31751791407743124
928,0.9186,771.703,19.2057,0.0375958,136.104,-5.24854,-1.24746,0.589459,-0.202867,-0.382325,0.460984,0.00149762,0.000590337,0.620396,0.8030127216140923,0.5856334809418899,0.0014987419928687018,-0.1836131863483874,0.0005905112831803283,-0.31772672164653615
929,0.9196,771.861,19.2102,0.0376261,136.133,-5.25156,-1.24812,0.589936,-0.203038,-0.38263,0.461332,0.00148485,0.000587178,0.620899,0.803872963833761,0.5861853774176746,0.0014859529355917278,-0.18375277655821876,0.0005873504227478232,-0.31793478326542424
930,0.9206,772.018,19.2147,0.0376563,136.162,-5.25457,-1.24878,0.590414,-0.203209,-0.382936,0.46168,0.00147208,0.000584019,0.621403,0.8047354212213675,0.5867374659868554,0.001473164041629893,-0.18389234290016498,0.000584189572300442,-0.31814346329207255
931,0.9216,772.176,19.2192,0.0376863,136.191,-5.25756,-1.24944,0.59089,-0.20338,-0.383241,0.462027,0.00145931,0.000580861,0.621906,0.8055946797691795,0.5872881594273391,0.001460375310981421,-0.18403188537830717,0.000581029732419136,-0.31835139782414035
932,0.9226,772.333,19.2237,0.0377162,136.22,-5.26055,-1.2501,0.591367,-0.203551,-0.383545,0.462374,0.00144654,0.000577703,0.622408,0.8064561538766697,0.5878390439916046,0.0014475867436438694,-0.1841714039967257,0.0005778699025165146,-0.3185585875047747
933,0.9236,772.49,19.2282,0.037746,136.249,-5.26352,-1.25075,0.591844,-0.203722,-0.38385,0.462722,0.00143378,0.000574546,0.622911,0.8073180390053303,0.5883917081368975,0.0014348083539632572,-0.18431089875950002,0.0005747110831675339,-0.31876639544326424
934,0.9246,772.647,19.2327,0.0377756,136.277,-5.26648,-1.2514,0.59232,-0.203893,-0.384155,0.463068,0.00142102,0.000571389,0.623413,0.8081785271718331,0.5889413867568303,0.0014220301273339953,-0.1844503696707095,0.0005715522737907985,-0.31897414000999713
935,0.9256,772.804,19.2372,0.0378051,136.306,-5.26943,-1.25205,0.592796,-0.204063,-0.384459,0.463415,0.00140825,0.000568232,0.623915,0.8090394250282018,0.5894928450905226,0.0014092420496611968,-0.18458900132384104,0.0005683934743865304,-0.31918114040577983
936,0.9266,772.96,19.2417,0.0378345,136.335,-5.27237,-1.2527,0.593271,-0.204234,-0.384763,0.463762,0.00139549,0.000565076,0.624416,0.8098989228696671,0.5900444948134604,0.0013964641492558716,-0.18472842468357764,0.0005652356855196938,-0.31938807788300616
937,0.9276,773.116,19.2462,0.0378638,136.364,-5.2753,-1.25334,0.593747,-0.204404,-0.385068,0.464108,0.00138273,0.00056192,0.624918,0.8107606398293192,0.5905947453965275,0.0013836864118954573,-0.18486700907137477,0.0005620779066188852,-0.3195956328655081
938,0.9286,773.273,19.2507,0.0378929,136.393,-5.27822,-1.25398,0.594222,-0.204575,-0.385372,0.464454,0.00136997,0.000558764,0.625419,0.8116209554420206,0.5911451863992365,0.0013709088375779555,-0.18500638489585097,0.0005589201376838826,-0.31980244435617766
939,0.9296,773.429,19.2552,0.0379219,136.421,-5.28113,-1.25462,0.594697,-0.204745,-0.385675,0.4648,0.00135721,0.000555609,0.62592,0.8124816798017074,0.5916958178874849,0.0013581314263011457,-0.18514492203442823,0.0005557633792705463,-0.32000851299456246
940,0.9306,773.584,19.2597,0.0379507,136.45,-5.28402,-1.25525,0.595172,-0.204915,-0.385979,0.465146,0.00134446,0.000552455,0.62642,0.8133428131025813,0.5922466399271917,0.0013453641915168735,-0.18528343562369365,0.0005526076313695505,-0.3202151989887492
941,0.9316,773.74,19.2642,0.0379795,136.479,-5.28691,-1.25588,0.595646,-0.205086,-0.386282,0.465492,0.0013317,0.000549301,0.626921,0.8142025413354863,0.5927976525842991,0.001332587106187777,-0.18542274024531746,0.0005494518934217041,-0.32042114258142573
942,0.9326,773.896,19.2687,0.0380081,136.508,-5.28978,-1.25651,0.596121,-0.205256,-0.386586,0.465837,0.00131895,0.000546147,0.627421,0.8150644922397539,0.5933472625767129,0.0013198201970914258,-0.18556120660950126,0.0005462961654270071,-0.3206277031552829
943,0.9336,774.051,19.2732,0.0380365,136.536,-5.29264,-1.25714,0.596595,-0.205426,-0.386889,0.466183,0.00130619,0.000542994,0.627921,0.8159250367420106,0.5938986561151458,0.001307043437701605,-0.18569964943640394,0.0005431414479286634,-0.32083352177813085
944,0.9346,774.206,19.2776,0.0380649,136.565,-5.29549,-1.25776,0.597068,-0.205596,-0.387192,0.466528,0.00129344,0.000539841,0.62842,0.8167841724539677,0.5944486460193088,0.0012942768542847372,-0.1858380687300265,0.0005399867403770298,-0.3210392780473831
945,0.9356,774.361,19.2821,0.0380931,136.593,-5.29833,-1.25838,0.597542,-0.205765,-0.387495,0.466873,0.00128069,0.000536689,0.62892,0.817645532277862,0.5949988257027237,0.0012815104336409977,-0.18597565047042652,0.0005368330433090929,-0.3212449719819299
946,0.9366,774.516,19.2866,0.0381212,136.622,-5.30116,-1.259,0.598015,-0.205935,-0.387797,0.467217,0.00126794,0.000533537,0.629419,0.8185054819766999,0.5955475996824784,0.0012687441757681661,-0.18611402284786127,0.0005336793561814268,-0.3214499250509203
947,0.9376,774.671,19.2911,0.0381492,136.651,-5.30398,-1.25962,0.598488,-0.206105,-0.3881,0.467562,0.00125519,0.000530385,0.629918,0.819365838527959,0.596098158570316,0.0012559780806638,-0.18625237170399123,0.0005305256789942536,-0.3216554945782737
948,0.9386,774.825,19.2956,0.038177,136.679,-5.30679,-1.26023,0.598961,-0.206274,-0.388402,0.467906,0.00124245,0.000527234,0.630416,0.8202266021241249,0.5966473107856298,0.0012432221607585614,-0.1863898834331048,0.000527373012275012,-0.32186032368815864
949,0.9396,774.979,19.3,0.0382048,136.708,-5.30959,-1.26084,0.599433,-0.206444,-0.388704,0.468251,0.0012297,0.000524084,0.630915,0.8210859518709137,0.5971982491392522,0.0012304563910578992,-0.18652818539692118,0.0005242213560139319,-0.32206509094899216
950,0.9406,775.133,19.3045,0.0382324,136.736,-5.31238,-1.26145,0.599906,-0.206613,-0.389006,0.468595,0.00121696,0.000520934,0.631413,0.8219475292731411,0.5977477798508195,0.0012177007962967945,-0.1866656505174592,0.0005210697096804662,-0.32226979637944975
951,0.9416,775.287,19.309,0.0382599,136.764,-5.31515,-1.26205,0.600378,-0.206783,-0.389308,0.468938,0.00120422,0.000517784,0.63191,0.8228076914892715,0.5982959013367695,0.0012049453640410324,-0.18680390560485582,0.0005179180732746147,-0.32247443999820136
952,0.9426,775.441,19.3135,0.0382872,136.793,-5.31792,-1.26266,0.60085,-0.206952,-0.38961,0.469282,0.00119148,0.000514635,0.632408,0.8236682597977987,0.5988458097056457,0.0011921900942881702,-0.186941324132616,0.0005147674473113817,-0.3226790218239114
953,0.9436,775.595,19.3179,0.0383145,136.821,-5.32067,-1.26326,0.601321,-0.207121,-0.389912,0.469626,0.00117874,0.000511487,0.632905,0.8245274098621207,0.5993959072755419,0.0011794349870366538,-0.1870787194386072,0.0005116178317807751,-0.3228835418752384
954,0.9446,775.748,19.3224,0.0383416,136.85,-5.32342,-1.26386,0.601793,-0.20729,-0.390213,0.469969,0.001166,0.000508339,0.633402,0.8253887900693127,0.5999445941661599,0.0011666800422840407,-0.18721609152675367,0.0005084682261653484,-0.3230873232584971
955,0.9456,775.902,19.3269,0.0383686,136.878,-5.32615,-1.26445,0.602264,-0.207459,-0.390514,0.470312,0.00115326,0.000505191,0.633899,0.8262487506942646,0.600493469288661,0.0011539252600285543,-0.1873534404009789,0.0005053186304648793,-0.32329104331279
956,0.9466,776.055,19.3313,0.0383954,136.906,-5.32888,-1.26504,0.602734,-0.207628,-0.390815,0.470655,0.00114053,0.000502044,0.634396,0.8271072893478701,0.6010425327076203,0.001141180651679452,-0.18749076606520565,0.0005021700451814937,-0.3234947020565744
957,0.9476,776.208,19.3358,0.0384222,136.935,-5.33159,-1.26563,0.603205,-0.207797,-0.391116,0.470998,0.00112779,0.000498898,0.634892,0.827968059576629,0.6015917844876344,0.0011284261942841045,-0.18762806852335612,0.0004990224703056434,-0.32369829950830165
958,0.9486,776.36,19.3402,0.0384488,136.963,-5.3343,-1.26622,0.603675,-0.207965,-0.391417,0.47134,0.00111506,0.000495752,0.635388,0.8288274064953369,0.6021396225528985,0.001115681910536237,-0.1877645355442935,0.0004958749053320943,-0.32390183568641817
959,0.9496,776.513,19.3447,0.0384754,136.991,-5.33699,-1.26681,0.604146,-0.208134,-0.391718,0.471683,0.00110233,0.000492606,0.635884,0.8296889870900983,0.6026892506992727,0.0011029377890219294,-0.18790179173931132,0.0004927273502608465,-0.3241053106093643
960,0.9506,776.666,19.3492,0.0385018,137.019,-5.33968,-1.26739,0.604615,-0.208303,-0.392018,0.472025,0.00108961,0.000489462,0.636379,0.8305473124866161,0.6032374641621705,0.0010902038406412906,-0.18803902473999212,0.0004895818060708379,-0.3243080486039618
961,0.9516,776.818,19.3536,0.0385281,137.048,-5.34235,-1.26797,0.605085,-0.208471,-0.392319,0.472367,0.00107688,0.000486317,0.636874,0.8314078719391145,0.603785865146137,0.001077460043460876,-0.18817542272608423,0.0004864352712838915,-0.3245114012752197
962,0.9526,776.97,19.3581,0.0385542,137.076,-5.34502,-1.26855,0.605554,-0.208639,-0.392619,0.472709,0.00106415,0.000483173,0.637369,0.8322670036816997,0.6043344537153152,0.0010647164085080263,-0.18831179779923934,0.0004832897468762809,-0.3247140174608897
963,0.9536,777.122,19.3625,0.0385803,137.104,-5.34767,-1.26912,0.606024,-0.208808,-0.392919,0.473051,0.00105143,0.00048003,0.637864,0.8331283715790296,0.6048832299338704,0.0010519829463002672,-0.18844896151475088,0.000480145232838014,-0.32491657287082076
964,0.9546,777.274,19.367,0.0386062,137.132,-5.35032,-1.2697,0.606493,-0.208976,-0.393219,0.473392,0.00103871,0.000476888,0.638359,0.8339883104251968,0.6054305884345983,0.0010392496460611689,-0.18858529063724938,0.0004770017291602091,-0.32511906752324293
965,0.9556,777.425,19.3714,0.0386321,137.16,-5.35295,-1.27027,0.606961,-0.209144,-0.393518,0.473733,0.00102599,0.000473745,0.638853,0.834846817829539,0.6059781336164023,0.0010265165077885108,-0.1887215968583792,0.0004738572348854664,-0.3253208267575448
966,0.9566,777.577,19.3759,0.0386578,137.188,-5.35558,-1.27084,0.60743,-0.209312,-0.393818,0.474075,0.00101327,0.000470604,0.639347,0.8357075628160229,0.6065274720696201,0.0010137835314805166,-0.18885788018198724,0.00047071475143511954,-0.32552320015199054
967,0.9576,777.728,19.3803,0.0386834,137.216,-5.35819,-1.2714,0.607898,-0.20948,-0.394117,0.474416,0.00100056,0.000467463,0.639841,0.8365668750187922,0.6070753913525242,0.001001060727145342,-0.1889941406119201,0.0004675722778553215,-0.3257248385686996
968,0.9586,777.879,19.3848,0.0387089,137.244,-5.3608,-1.27197,0.608366,-0.209648,-0.394417,0.474756,0.000987842,0.000464322,0.640334,0.8374265894737918,0.60762188988507,0.0009883300766093672,-0.1891303781520235,0.0004644298141460723,-0.3259270907777807
969,0.9596,778.03,19.3892,0.0387342,137.272,-5.36339,-1.27253,0.608834,-0.209816,-0.394716,0.475097,0.00097513,0.000461183,0.640827,0.8382867063693202,0.6081701824280863,0.0009756055938345831,-0.18926659280614266,0.00046128936122968867,-0.32612860844924496
970,0.9606,778.181,19.3936,0.0387595,137.3,-5.36598,-1.27309,0.609301,-0.209984,-0.395015,0.475437,0.000962419,0.000458043,0.64132,0.8391453867474572,0.6087170532528838,0.0009628822737750564,-0.1894027845781221,0.0004581479177132586,-0.3263300658759325
971,0.9616,778.332,19.3981,0.0387847,137.328,-5.36855,-1.27364,0.609768,-0.210151,-0.395313,0.475778,0.00094971,0.000454905,0.641813,0.8400044682229797,0.6092657193102893,0.0009501611173410307,-0.18953814301035388,0.00045500848497082025,-0.3265307896069801
972,0.9626,778.482,19.4025,0.0388097,137.356,-5.37112,-1.2742,0.610235,-0.210319,-0.395612,0.476118,0.000937003,0.000451767,0.642306,0.8408639509832441,0.6098129626809561,0.0009374421244539022,-0.1896742891657308,0.00045186906208005695,-0.3267321267994774
973,0.9636,778.632,19.4069,0.0388346,137.384,-5.37368,-1.27475,0.610702,-0.210486,-0.39591,0.476458,0.000924299,0.000448629,0.642798,0.8417238352156939,0.610360392146003,0.0009247262959604097,-0.18980960226048227,0.0004487296490405246,-0.32693273073422024
974,0.9646,778.783,19.4114,0.0388595,137.412,-5.37623,-1.2753,0.611169,-0.210654,-0.396209,0.476797,0.000911596,0.000445492,0.64329,0.8425841211078606,0.6109063968615109,0.0009120116299194958,-0.18994570281453582,0.00044559124629839353,-0.3271339477642857
975,0.9656,778.933,19.4158,0.0388842,137.44,-5.37877,-1.27585,0.611635,-0.210821,-0.396507,0.477137,0.000898894,0.000442356,0.643782,0.8434429654034759,0.6114541981573869,0.0008992981262914146,-0.19008097058699247,0.00044245385384367175,-0.32733443197422096
976,0.9666,779.082,19.4202,0.0389088,137.468,-5.3813,-1.27639,0.612101,-0.210988,-0.396805,0.477476,0.000886195,0.00043922,0.644273,0.8443022100137989,0.6120005737359904,0.0008865877868089456,-0.19021621577161718,0.0004393164712277464,-0.3275348564487628
977,0.9676,779.232,19.4246,0.0389333,137.495,-5.38382,-1.27694,0.612567,-0.211155,-0.397103,0.477816,0.000873498,0.000436085,0.644764,0.8451618551254199,0.6125487471152544,0.0008738796104819091,-0.19035143837218194,0.0004361800988867959,-0.3277352212057095
978,0.9686,779.382,19.4291,0.0389577,137.523,-5.38633,-1.27748,0.613032,-0.211322,-0.397401,0.478155,0.000860803,0.000432951,0.645255,0.8460200549040382,0.6130954938088549,0.0008611735972319234,-0.19048663839245783,0.00043304473681149425,-0.3279355262628544
979,0.9696,779.531,19.4335,0.038982,137.551,-5.38883,-1.27802,0.613498,-0.211489,-0.397698,0.478494,0.00084811,0.000429817,0.645746,0.8468805007179272,0.6136424258810045,0.0008484697469806068,-0.19062181583621562,0.0004299093845623325,-0.3281350997734209
980,0.9706,779.68,19.4379,0.0390061,137.579,-5.39132,-1.27855,0.613963,-0.211656,-0.397995,0.478832,0.000835419,0.000426684,0.646237,0.8477394998525818,0.6141879292058208,0.0008357680596497996,-0.19075697070722508,0.00042677504256616317,-0.3283346140194561
981,0.9716,779.829,19.4423,0.0390302,137.606,-5.39381,-1.27909,0.614428,-0.211823,-0.398293,0.479171,0.00082273,0.000423551,0.646727,0.8485988985147168,0.614735231676349,0.00082306853516112,-0.19089210300925574,0.00042364071038991646,-0.3285347404841541
982,0.9726,779.978,19.4467,0.0390542,137.634,-5.39628,-1.27962,0.614893,-0.21199,-0.39859,0.479509,0.000810043,0.000420419,0.647217,0.8494586968901559,0.6152811044319544,0.0008103711734364083,-0.19102721274607615,0.0004205073884540056,-0.3287341360545224
983,0.9736,780.127,19.4512,0.039078,137.662,-5.39875,-1.28015,0.615357,-0.212157,-0.398887,0.479847,0.000797358,0.000417288,0.647707,0.8503170448468391,0.6158271617237361,0.0007976759743975048,-0.1911622999214544,0.0004173750767491047,-0.3289334724131997
984,0.9746,780.275,19.4556,0.0391018,137.689,-5.4012,-1.28068,0.615821,-0.212323,-0.399184,0.480185,0.000784675,0.000414157,0.648196,0.8511757911693876,0.6163734036140778,0.0007849829379662498,-0.19129655583611826,0.00041424277485124783,-0.32913274957776917
985,0.9756,780.424,19.46,0.0391255,137.717,-5.40365,-1.2812,0.616285,-0.21249,-0.39948,0.480523,0.000771994,0.000411027,0.648685,0.8520349360426867,0.6169198301653842,0.0007722920640642617,-0.19143159803495613,0.00041111148317196644,-0.32933129689744123
986,0.9766,780.572,19.4644,0.039149,137.745,-5.40609,-1.28172,0.616749,-0.212656,-0.399777,0.480861,0.000759315,0.000407898,0.649174,0.8528944796517064,0.6174664414400817,0.0007596033526133805,-0.19156580924984334,0.00040798120170149055,-0.329530455925683
987,0.9776,780.72,19.4688,0.0391725,137.772,-5.40852,-1.28225,0.617212,-0.212822,-0.400073,0.481198,0.000746639,0.000404769,0.649663,0.8537525684280078,0.6180116194881886,0.0007469178042824876,-0.19169999818751793,0.0004048509300256242,-0.329728885541697
988,0.9786,780.868,19.4732,0.0391958,137.8,-5.41094,-1.28276,0.617676,-0.212989,-0.400369,0.481535,0.000733965,0.000401641,0.650152,0.8546129092033827,0.6185569812922587,0.0007342344182210692,-0.1918349730171086,0.00040172166854590685,-0.32992725643123666
989,0.9796,781.016,19.4776,0.0392203,137.827,-5.41335,-1.28328,0.618139,-0.213155,-0.400665,0.481873,0.000721292,0.000398514,0.65064,0.8554717937967842,0.6191041460175648,0.00072155219362946,-0.19196911727730614,0.00039859341725345665,-0.3301255686116823
990,0.9806,781.164,19.482,0.0392405,137.855,-5.41575,-1.2838,0.618601,-0.213321,-0.400961,0.48221,0.000708622,0.000395387,0.651128,0.8563292198156776,0.619649876065121,0.0007088731318851682,-0.1921032392714046,0.00039546517574273743,-0.33032382210040945
991,0.9816,781.311,19.4864,0.0392656,137.882,-5.41815,-1.28431,0.619064,-0.213487,-0.401257,0.482546,0.000695955,0.000392261,0.651616,0.8571888992448826,0.6201941698597155,0.0006961972328720645,-0.19223733900309992,0.0003923379444064068,-0.3305220169147881
992,0.9826,781.458,19.4908,0.039288,137.91,-5.42053,-1.28482,0.619526,-0.213653,-0.401552,0.482883,0.000683289,0.000389136,0.652103,0.8580471187497742,0.62074026730721,0.0006835224951071694,-0.19237141647608724,0.00038921172323513886,-0.3307194837920018
993,0.9836,781.606,19.4952,0.039311,137.937,-5.42291,-1.28533,0.619988,-0.213819,-0.401848,0.483219,0.000670626,0.000386011,0.652591,0.8589057348436822,0.6212849275348191,0.0006708509198922741,-0.1925054716940613,0.0003860855118331674,-0.33091756150785123
994,0.9846,781.753,19.4996,0.0393337,137.965,-5.42528,-1.28583,0.62045,-0.213984,-0.402143,0.483556,0.000657965,0.000382887,0.653078,0.8597647477098727,0.6218313926295951,0.000658181506452582,-0.19263869729981697,0.00038296031058360214,-0.33111491171661933
995,0.9856,781.899,19.504,0.0393564,137.992,-5.42764,-1.28634,0.620912,-0.21415,-0.402438,0.483892,0.000645306,0.000379764,0.653565,0.8606241575316973,0.6223764195369115,0.0006455142547103776,-0.19277270815285674,0.00037983611947711715,-0.3313122037156624
996,0.9866,782.046,19.5084,0.0393789,138.019,-5.42999,-1.28684,0.621373,-0.214316,-0.402733,0.484228,0.00063265,0.000376641,0.654051,0.8614821030095576,0.6229216296040379,0.0006328501652206331,-0.19290669676194105,0.0003767119381272721,-0.33150943752214945
997,0.9876,782.193,19.5127,0.0394014,138.047,-5.43234,-1.28734,0.621834,-0.214481,-0.403028,0.484563,0.000619996,0.000373519,0.654538,0.8623404440914633,0.6234653994263151,0.0006201882372467438,-0.19303985617102204,0.0003735887669078508,-0.3317066131532449
998,0.9886,782.339,19.5171,0.0394237,138.074,-5.43467,-1.28784,0.622295,-0.214647,-0.403323,0.484899,0.000607344,0.000370398,0.655024,0.8631991809598294,0.6240109754521619,0.000607528470710994,-0.193173800437216,0.0003704666058095274,-0.3319037306261079
999,0.9896,782.485,19.5215,0.039446,138.101,-5.437,-1.28834,0.622756,-0.214812,-0.403617,0.485234,0.000594695,0.000367277,0.655509,0.8640583137971554,0.6245551102664308,0.0005948718661301644,-0.19330691577782622,0.0003673444544551874,-0.3321001220583487
