,Time,S11,S22,S33,S12,S13,S23,LE11,LE22,LE33,LE12,LE13,LE23,SDV_EPBAR,E11,E12,E13,E22,E23,E33
0,1e-05,0.350881,0.0251922,-5.55112e-17,0.0940184,-7.92751e-19,2.95859e-18,4.56457e-06,-1.06457e-06,-1.5e-06,3.24999e-06,6.27117e-39,-1.46935e-39,0.0,4.5645804176430715e-06,3.2499952811182453e-06,0.0,-1.0645694333843991e-06,0.0,-1.4999988749986315e-06
1,2e-05,0.701761,0.0503842,5.55112e-17,0.188036,-3.35495e-18,6.86548e-19,9.12912e-06,-2.12914e-06,-3e-06,6.49996e-06,-1.0227e-22,-2.74033e-23,0.0,9.129161670617947e-06,6.499981124896692e-06,0.0,-2.1291377333421124e-06,0.0,-2.9999955000192813e-06
2,3.5e-05,1.22808,0.088172,8.32667e-17,0.329062,2.5622e-18,2.27204e-18,1.59759e-05,-3.72599e-06,-5.24997e-06,1.13749e-05,-2.32665e-27,-6.23425e-28,0.0,1.597602761527206e-05,1.1374964694388368e-05,0.0,-3.725983058533444e-06,0.0,-5.249956218977836e-06
3,5.75e-05,2.01754,0.144853,1.38778e-16,0.540599,1.18912e-18,-4.43789e-18,2.6246e-05,-6.12124e-06,-8.6249e-06,1.86872e-05,-6.28319e-22,7.08562e-22,0.0,2.6246344429381452e-05,1.868737460686276e-05,0.0,-6.121221265198429e-06,0.0,-8.624862805617362e-06
4,9.125e-05,3.20173,0.229874,-9.71445e-16,0.8579,1.18912e-18,-4.43789e-18,4.16509e-05,-9.71407e-06,-1.36872e-05,2.96556e-05,-1.06678e-21,2.34492e-21,0.0,4.1651767410888496e-05,2.965603973170694e-05,0.0,-9.714022818574364e-06,0.0,-1.3687106330650955e-05
5,0.00014188,4.97797,0.357402,-2.63678e-15,1.33384,1.30231e-17,-1.26698e-18,6.47577e-05,-1.51032e-05,-2.12805e-05,4.61077e-05,-3.7724e-26,-1.01081e-26,0.0,6.475979682507571e-05,4.6108762976393436e-05,0.0,-1.5103085947210104e-05,0.0,-2.1280273571733233e-05
6,0.00021781,7.64224,0.548688,-1.72917e-14,2.04773,9.85149e-18,1.05672e-17,9.94169e-05,-2.31866e-05,-3.26701e-05,7.07852e-05,8.76882e-22,-3.2728e-21,0.0,9.942184202382798e-05,7.078770533142098e-05,0.0,-2.31863311929148e-05,0.0,-3.266956633807272e-05
7,0.00033172,11.6385,0.835604,-9.07885e-14,3.11852,9.85062e-18,1.0567e-17,0.000151403,-3.53112e-05,-4.97538e-05,0.0001078,-8.77043e-22,3.27282e-21,0.0,0.00015141446201272224,0.00010780581062874717,0.0,-3.531057656691594e-05,0.0,-4.9752562300220404e-05
8,0.00050258,17.6324,1.26595,-4.62491e-13,4.72458,-9.74991e-17,3.25388e-17,0.000229377,-5.34968e-05,-7.53773e-05,0.000163317,-1.75302e-21,6.5461e-21,0.0,0.0002294033089156322,0.00016333033694726495,0.0,-5.3495369071732135e-05,0.0,-7.537445920269281e-05
9,0.00075887,26.6223,1.91139,-2.34543e-12,7.13341,2.25419e-17,-3.67685e-17,0.000346325,-8.07724e-05,-0.000113808,0.000246585,-2.01749e-25,-5.40584e-26,0.0,0.0003463849774265615,0.00024661540458015274,0.0,-8.076913799748286e-05,0.0,-0.00011380152411522015
10,0.0011433,40.1049,2.8794,-1.18587e-11,10.7461,-3.6875e-16,-9.08787e-17,0.00052172,-0.000121679,-0.000171446,0.000371467,-1.35536e-20,2.44343e-20,0.0,0.0005218561195503568,0.00037153600240991125,0.0,-0.00012167159741072187,0.0,-0.00017143130397445638
11,0.00172,60.3241,4.33108,-5.99589e-11,16.1638,-1.28598e-16,-2.29474e-16,0.000784749,-0.000183024,-0.000257882,0.000558744,6.85722e-24,1.83739e-24,0.0,0.000785056996057687,0.0005589001265056126,0.0,-0.00018300725212949676,0.0,-0.0002578487512951977
12,0.0025849,90.6419,6.5078,-3.03238e-10,24.2874,-4.07268e-17,1.99959e-16,0.00117915,-0.000275009,-0.000387489,0.000839559,7.01733e-21,-2.61918e-20,0.0,0.001179845470689056,0.0008399115283064251,0.0,-0.00027497118849117985,0.0,-0.00038741393583330286
13,0.0035849,125.676,9.02314,-6.68461e-10,33.6748,4.25474e-16,7.30766e-16,0.0016349,-0.000381303,-0.000537258,0.00116406,1.21107e-20,5.93976e-20,0.0,0.0016362371776228457,0.0011647377808088333,0.0,-0.0003812303132499917,0.0,-0.0005371137027634365
14,0.0045849,160.693,11.5372,-7.61588e-10,43.0575,-9.18469e-17,3.89206e-16,0.00209043,-0.000487544,-0.000686952,0.0014884,-1.21776e-24,-3.26298e-25,0.0,0.002092616472082698,0.0014895082170351959,0.0,-0.0004874251697364329,0.0,-0.000686716102494711
15,0.0055849,195.692,14.0501,-7.6006e-10,52.4355,2.35863e-16,6.7996e-16,0.00254573,-0.000593733,-0.000836572,0.00181257,1.2112e-20,5.94148e-20,0.0,0.0025489731220702527,0.0018142136979582002,0.0,-0.0005935567754408178,0.0,-0.0008362221712034934
16,0.0065849,230.674,16.5616,-7.58575e-10,61.8089,4.63831e-17,6.29189e-16,0.00300081,-0.000699868,-0.000986116,0.00213659,5.23847e-20,1.40364e-20,0.0,0.0030053169373547295,0.0021388741348775664,0.0,-0.0006996231495156602,0.0,-0.0009856299473984809
17,0.0075849,265.638,19.072,-7.57023e-10,71.1776,8.53897e-16,6.42617e-16,0.00345565,-0.000805951,-0.00113559,0.00246044,2.41661e-20,1.18848e-19,0.0,0.0034616276420240677,0.0024634693665122054,0.0,-0.0008056263087270477,0.0,-0.00113494546167614
18,0.0085849,300.585,21.581,-7.55513e-10,80.5416,1.61018e-15,8.45264e-16,0.00391027,-0.00091198,-0.00128498,0.00278413,5.20997e-20,1.39601e-20,0.0,0.0039179250802945376,0.002788009289241611,0.0,-0.0009115642726277295,0.0,-0.0012841547667070685
19,0.0095849,308.789,22.9451,0.0649478,84.0353,-1.9499,-0.190583,0.00437086,-0.00103735,-0.00156897,0.00308977,6.42009e-05,-6.94474e-06,0.000405961,0.004380426140912608,0.0030945482592998896,6.42029609219108e-05,-0.0010368121384883855,-6.94471588535972e-06,-0.001567739810030666
20,0.010585,309.886,23.1705,-0.0315706,84.7877,-2.4933,-0.275859,0.00484316,-0.00117969,-0.00189241,0.00335526,0.00021353,-1.05757e-05,0.000927517,0.004854907056027091,0.0033608951855754743,0.0002135527991531383,-0.0011789944392941454,-1.0575644077470692e-05,-0.0018906205211831617
21,0.011585,311.097,23.5392,0.0322212,85.5518,-3.06078,-0.359758,0.00531451,-0.00132041,-0.0022143,0.00362297,0.000360746,-1.43764e-05,0.00144847,0.0053286570587287585,0.003629540888791638,0.00036081107666330325,-0.0013195386422746314,-1.43762966600125e-05,-0.002211850246251812
22,0.012585,312.227,23.8197,0.000873668,86.2839,-3.58961,-0.442037,0.00578533,-0.00146114,-0.00253705,0.00389173,0.000508529,-1.83355e-05,0.00196998,0.005802097340876111,0.0038993126145017154,0.0005086583227924546,-0.001460073054665667,-1.8335331905761088e-05,-0.00253383440859567
23,0.013585,313.384,24.1471,0.0240739,87.0166,-4.13249,-0.523357,0.00625532,-0.00160092,-0.00285925,0.00416237,0.000654801,-2.24677e-05,0.00249139,0.00627492537212504,0.004171044693594084,0.0006550154289750587,-0.0015996392111481406,-2.2467447603147228e-05,-0.0028551662378116793
24,0.014585,314.501,24.4397,0.0110459,87.7316,-4.65846,-0.603732,0.00672468,-0.00174035,-0.00318175,0.00443435,0.000800819,-2.67703e-05,0.00301309,0.006747341429025111,0.004444196278529988,0.0008011397411482601,-0.0017388364690905656,-2.6769941678717046e-05,-0.003176693597626401
25,0.015585,315.62,24.7464,0.0203395,88.4413,-5.18832,-0.683091,0.00719331,-0.00187912,-0.00350398,0.00470795,0.000945762,-3.12342e-05,0.00353483,0.0072192440008538306,0.004719049808880049,0.0009462093739056598,-0.0018773555593843971,-3.1233712217471066e-05,-0.003497848226041711
26,0.016585,316.717,25.0377,0.0158879,89.1386,-5.70919,-0.761604,0.00766129,-0.00201743,-0.00382629,0.00498294,0.00109015,-3.58617e-05,0.00405675,0.007690712773034791,0.0049953754920455395,0.0010907444294974145,-0.002015396355905641,-3.586105697694908e-05,-0.0038189790799570966
27,0.017585,317.807,25.3319,0.0202164,89.8284,-6.22945,-0.83916,0.00812858,-0.00215517,-0.00414845,0.00525939,0.00123367,-4.06435e-05,0.00457875,0.008161706602989316,0.005273244870325433,0.0012344312838599159,-0.002152849288610814,-4.064267406411748e-05,-0.004139857067855246
28,0.018585,318.882,25.6178,0.0193037,90.5079,-6.74399,-0.915889,0.00859523,-0.00229244,-0.0044706,0.0055372,0.00137652,-4.55802e-05,0.00510089,0.00863227505021924,0.005552558626763959,0.001377467838511448,-0.002289814366175813,-4.557916123848482e-05,-0.004460621742956694
29,0.019585,319.947,25.9026,0.021869,91.1794,-7.25616,-0.991739,0.00906122,-0.00242919,-0.00479265,0.00581636,0.00151858,-5.06653e-05,0.00562311,0.00910239713165728,0.005833307864185455,0.00151973362649227,-0.002426241905615578,-5.0664016535417744e-05,-0.004781183578484116
30,0.020585,320.999,26.182,0.0224995,91.8418,-7.76402,-1.06678,0.00952658,-0.00256546,-0.00511466,0.00609683,0.00165994,-5.58976e-05,0.00614545,0.009572102305709596,0.006115453496885248,0.001661318463018313,-0.0025621720198224507,-5.58960377582407e-05,-0.005101602397759364
31,0.021585,322.041,26.4587,0.0245451,92.4961,-8.2689,-1.14101,0.00999132,-0.00270126,-0.00543658,0.00637857,0.00180055,-6.12726e-05,0.00666788,0.010041399886767444,0.006398956399932265,0.0018021719634806477,-0.0026976148800837985,-6.127072287254176e-05,-0.005421828543549556
32,0.022585,323.071,26.7313,0.0259299,93.142,-8.7701,-1.21447,0.0104554,-0.00283659,-0.00575843,0.00666156,0.00194045,-6.67881e-05,0.0071904,0.010510248682886969,0.006683797542300418,0.0019423338914366095,-0.0028325706798718597,-6.678586972452827e-05,-0.0057418820206641685
33,0.023585,324.091,27.0007,0.0279314,93.7801,-9.26817,-1.28715,0.0109189,-0.00297146,-0.0060802,0.00694575,0.00207962,-7.24405e-05,0.007713,0.010978728745018707,0.006969927666458098,0.0020817839094486867,-0.0029670495822756715,-7.243787625033082e-05,-0.0060617529900857114
34,0.024585,325.1,27.2665,0.0297584,94.4102,-9.7629,-1.3591,0.0113819,-0.00310588,-0.0064019,0.00723111,0.00221808,-7.82273e-05,0.00823568,0.011446920274402972,0.007257317607863634,0.002220541759232919,-0.003101061744311573,-7.822424032455366e-05,-0.006381451497886603
35,0.025585,326.1,27.5291,0.0318937,95.0329,-10.2545,-1.43031,0.0118442,-0.00323987,-0.00672351,0.00751763,0.00235582,-8.41457e-05,0.00875844,0.011914620286173738,0.007545958323198931,0.002358597124309636,-0.0032346272846253132,-8.414215984986484e-05,-0.006700957778309036
36,0.026585,327.089,27.7884,0.0340373,95.648,-10.743,-1.50082,0.0123059,-0.00337342,-0.00704504,0.00780526,0.00249285,-9.01931e-05,0.00928127,0.012381929136306757,0.007835800448838581,0.0024959597340579176,-0.003367736411591604,-9.018903272461909e-05,-0.007020281880464219
37,0.027585,328.069,28.0445,0.0363693,96.2559,-11.2284,-1.57064,0.0127671,-0.00350656,-0.00736649,0.00809397,0.00262917,-9.63668e-05,0.00980416,0.012848947368150565,0.008126814730131215,0.0026326292984746313,-0.0035004191982767052,-9.636215686903427e-05,-0.00733942391400233
38,0.028585,329.04,28.2975,0.0387761,96.8567,-11.7109,-1.63977,0.0132277,-0.00363928,-0.00768785,0.00838375,0.0027648,-0.000102664,0.0103271,0.013315573048952922,0.008418992050031049,0.002768625584366191,-0.003632665846558969,-0.00010265873023185268,-0.007658374065078188
39,0.029585,330.002,28.5475,0.0413236,97.4505,-12.1904,-1.70825,0.0136877,-0.0037716,-0.00800912,0.00867455,0.00289973,-0.000109084,0.0108501,0.013781805437783623,0.008712282935346982,0.0029039382836821837,-0.0037644964501091227,-0.00010907805055682118,-0.007977132452747004
40,0.030585,330.954,28.7944,0.0439682,98.0375,-12.667,-1.77608,0.0141472,-0.00390352,-0.0083303,0.00896637,0.00303396,-0.000115622,0.0113732,0.01424774521884875,0.00900668830835194,0.0030385671147297177,-0.003895911169431887,-0.00011561531603421216,-0.008295699195973949
41,0.031585,331.898,29.0385,0.0467333,98.6179,-13.1408,-1.84328,0.0146062,-0.00403506,-0.0086514,0.00925916,0.0031675,-0.000122277,0.0118963,0.014713391791617347,0.009302158629888702,0.0031725218289395674,-0.004026930083973812,-0.0001222695244723626,-0.008614084327493665
42,0.032585,332.834,29.2796,0.0496016,99.1918,-13.6118,-1.90986,0.0150646,-0.00416621,-0.00897239,0.00955291,0.00330036,-0.000129047,0.0124195,0.015178643037853323,0.009598684689118953,0.0033058121844720123,-0.004157543386938745,-0.00012903867379410183,-0.008932258224513934
43,0.033585,333.761,29.518,0.0525803,99.7592,-14.08,-1.97583,0.0155225,-0.00429699,-0.0092933,0.00984759,0.00343253,-0.00013593,0.0129427,0.015643599782223072,0.009896237068737657,0.0034384278773833543,-0.004287771147635677,-0.0001359207619361369,-0.009250250747307787
44,0.034585,334.68,29.7536,0.0556621,100.32,-14.5456,-2.04121,0.0159799,-0.0044274,-0.0096141,0.0101432,0.00356402,-0.000142923,0.0134659,0.016108261424779835,0.010194816624754521,0.003570378671179819,-0.004417613512844865,-0.00014291278699463117,-0.009568032291982997
45,0.035585,335.591,29.9865,0.0588485,100.876,-15.0085,-2.10601,0.0164368,-0.00455745,-0.00993481,0.0104396,0.00369483,-0.000150026,0.0139892,0.01657262736574583,0.010494282747088857,0.0037016642989631254,-0.004547080583428786,-0.0001500147466624302,-0.009885622798398885
46,0.036585,336.495,30.2167,0.0621356,101.425,-15.4688,-2.17023,0.0168931,-0.00468715,-0.0102554,0.010737,0.00382497,-0.000157235,0.0145125,0.0170365953018472,0.010794848438680837,0.0038322945334798852,-0.0046761824546397435,-0.0001572226392252407,-0.01020299269106073
47,0.037585,337.391,30.4443,0.0655229,101.968,-15.9265,-2.2339,0.017349,-0.0048165,-0.0105759,0.0110352,0.00395444,-0.000164549,0.0150358,0.017500367994597754,0.011096312408529263,0.003962269114376138,-0.004804919264206675,-0.00016453546255579266,-0.010520171801235767
48,0.038585,338.279,30.6694,0.069008,102.505,-16.3817,-2.29702,0.0178043,-0.00494551,-0.0108963,0.0113341,0.00408324,-0.000171966,0.0155592,0.01796374139109469,0.011398574267092565,0.004091587782581563,-0.004933301100124021,-0.00017195121469493202,-0.01083715035551469
49,0.039585,339.161,30.892,0.0725896,103.037,-16.8343,-2.3596,0.0182592,-0.00507419,-0.0112166,0.0116339,0.00421137,-0.000179484,0.0160825,0.018426918438685824,0.011701837016472538,0.004220250280311033,-0.005061338044864749,-0.00017946789371048322,-0.011153928481530628
50,0.040585,340.035,31.1121,0.0762658,103.563,-17.2845,-2.42165,0.0187136,-0.00520254,-0.0115368,0.0119345,0.00433884,-0.000187102,0.0166059,0.018889796788420732,0.01200600030213117,0.004348266394547995,-0.005189030227305547,-0.00018708449751236866,-0.01147050630681623
51,0.041585,340.902,31.3298,0.0800351,104.084,-17.7323,-2.48319,0.0191675,-0.00533056,-0.0118569,0.0122358,0.00446566,-0.000194818,0.0171293,0.019352375841557246,0.012310963650443485,0.004475645918657012,-0.005316377775965275,-0.00019479902420571626,-0.011786883958802785
52,0.042585,341.763,31.5451,0.0838959,104.6,-18.1777,-2.54421,0.0196209,-0.00545827,-0.0121769,0.0125379,0.00459181,-0.000202631,0.0176527,0.019814654999529724,0.012616828991195872,0.004602368514249333,-0.0054434007101374915,-0.00020261047172553948,-0.012103061564820883
53,0.043585,342.617,31.7581,0.0878467,105.11,-18.6207,-2.60474,0.0200739,-0.00558567,-0.0124968,0.0128407,0.00471732,-0.000210538,0.0181761,0.020276735691619363,0.012923495794025186,0.004728464070482552,-0.005570099150025043,-0.00021051583843056942,-0.012419039252100639
54,0.044585,343.464,31.9688,0.0918858,105.615,-19.0613,-2.66477,0.0205264,-0.00571277,-0.0128166,0.0131442,0.00484217,-0.000218539,0.0186996,0.02073851538429583,0.013230964731049788,0.004853912250161407,-0.005696483158549093,-0.0002185151220921444,-0.012734817147771027
55,0.045585,344.305,32.1772,0.096012,106.115,-19.4997,-2.72432,0.0209785,-0.00583956,-0.0131362,0.0134484,0.00496637,-0.000226632,0.019223,0.02120009559944669,0.013539236476276084,0.004978722856641138,-0.005822542909722728,-0.00022660632090820698,-0.013050296683895346
56,0.046585,345.14,32.3834,0.100223,106.61,-19.9357,-2.78339,0.0214301,-0.00596606,-0.0134558,0.0137533,0.00508993,-0.000234815,0.0197464,0.021661373711377552,0.013848311705602079,0.0051029056994953415,-0.005948298403841923,-0.00023478743311566852,-0.013365675408870348
57,0.047585,345.968,32.5875,0.104519,107.1,-20.3695,-2.842,0.0218812,-0.00609227,-0.0137752,0.0140588,0.00521284,-0.000243088,0.0202698,0.022122349122245755,0.014158089681004515,0.005226450489924428,-0.0060737497523264405,-0.00024305845650607338,-0.013680756091081214
58,0.048585,346.791,32.7894,0.108896,107.586,-20.801,-2.90015,0.0223319,-0.0062182,-0.0140945,0.0143649,0.00533512,-0.000251448,0.0207933,0.02258312349269964,0.014468570988995788,0.005349377095869912,-0.006198907004328347,-0.00025141638960113344,-0.013995637552160822
59,0.049585,347.608,32.9892,0.113355,108.066,-21.2304,-2.95785,0.0227822,-0.00634384,-0.0144137,0.0146717,0.00545676,-0.000259894,0.0213167,0.02304369636340775,0.014779857695514265,0.005471675232121775,-0.0063237603302022105,-0.0002598602304799691,-0.014310319918676595
60,0.050585,348.419,33.1869,0.117894,108.542,-21.6575,-3.0151,0.0232321,-0.00646922,-0.0147328,0.014979,0.00557776,-0.000268426,0.02184,0.023504067275072815,0.015091747465192817,0.005593344665677069,-0.006448339647091461,-0.0002683899769645448,-0.014624803317095814
61,0.051585,349.224,33.3826,0.122511,109.014,-22.0825,-3.07191,0.0236815,-0.00659432,-0.0150518,0.015287,0.00569813,-0.000277041,0.0223634,0.023964133372015306,0.015404443876187557,0.005714395221856128,-0.006572625185578995,-0.0002770026276858184,-0.014939087873785728
62,0.052585,350.024,33.5762,0.127205,109.481,-22.5054,-3.12829,0.0241305,-0.00671915,-0.0153706,0.0155955,0.00581787,-0.000285739,0.0228868,0.02442399649944571,0.01571774447125529,0.005834826673627003,-0.006696626985043808,-0.0002856981804999492,-0.015253075240326042
63,0.053585,350.818,33.7679,0.131974,109.943,-22.9261,-3.18425,0.0245791,-0.00684373,-0.0156894,0.0159046,0.00593699,-0.000294518,0.0234101,0.02488365619823729,0.01603175135333501,0.005954648854647804,-0.006820365011452334,-0.0002944746338313653,-0.015566962523647976
64,0.054585,351.607,33.9576,0.136818,110.402,-23.3447,-3.23978,0.0250272,-0.00696805,-0.016008,0.0162142,0.00605548,-0.000303378,0.0239334,0.025343009474995126,0.01634636348299856,0.0060738514830107615,-0.0069438294289668745,-0.0003033319855478833,-0.015880552931783365
65,0.055585,352.391,34.1455,0.141735,110.856,-23.7612,-3.29491,0.025475,-0.00709211,-0.0163265,0.0165244,0.00617334,-0.000312317,0.0244567,0.025802260893356355,0.01666168302848403,0.0061924343350967526,-0.00706702033579798,-0.00031226823412267013,-0.016193945065328008
66,0.056585,353.169,34.3314,0.146724,111.305,-24.1757,-3.34963,0.0259224,-0.00721593,-0.0166449,0.0168351,0.00629059,-0.000321333,0.02498,0.026261307505950127,0.016977608889942042,0.006310417314639549,-0.0071899576861315095,-0.000321281378080962,-0.016507139050090935
67,0.057585,353.943,34.5155,0.151783,111.751,-24.5882,-3.40395,0.0263693,-0.00733951,-0.0169631,0.0171463,0.00640722,-0.000330427,0.0255032,0.026720046181796686,0.017294141571759347,0.0064277901430744855,-0.007312641570367373,-0.00033037241501110426,-0.016820036693789953
68,0.058585,354.711,34.6977,0.156912,112.193,-24.9986,-3.45787,0.0268159,-0.00746284,-0.0172813,0.0174579,0.00652324,-0.000339596,0.0260265,0.02717868176012317,0.017611179818266764,0.006544562669130061,-0.007435062153062111,-0.0003395383438051791,-0.017132834789297724
69,0.059585,355.475,34.8782,0.162109,112.63,-25.407,-3.51141,0.027262,-0.00758594,-0.0175993,0.0177701,0.00663864,-0.00034884,0.0265496,0.027637008392210838,0.017928927626458036,0.006660724614077518,-0.007557239376748681,-0.00034877916240161344,-0.017445336857372484
70,0.060585,356.234,35.0568,0.167372,113.064,-25.8134,-3.56456,0.0277078,-0.00770881,-0.0179172,0.0180827,0.00675344,-0.000358158,0.0270728,0.028095231100804918,0.018247181949793134,0.00677629589892792,-0.007679173327580724,-0.00035809386908003393,-0.0177576413413576
71,0.061585,356.988,35.2337,0.172701,113.494,-26.2179,-3.61733,0.0281532,-0.00783144,-0.0182349,0.0183958,0.00686762,-0.000367549,0.0275959,0.02855324670924153,0.01856604505787618,0.006891256179351268,-0.007800854169542237,-0.0003674814621410505,-0.01806965017347617
72,0.062585,357.738,35.4089,0.178095,113.92,-26.6204,-3.66973,0.0285982,-0.00795386,-0.0185526,0.0187093,0.0069812,-0.000377011,0.0281189,0.02901105475876342,0.018885415571714192,0.007005625383132097,-0.007922311754404388,-0.00037693994028331623,-0.018381559896133104
73,0.063585,358.483,35.5824,0.183552,114.342,-27.021,-3.72175,0.0290428,-0.00807605,-0.0188701,0.0190232,0.00709418,-0.000386544,0.028642,0.02946865479065841,0.01920529390594017,0.0071194033058818995,-0.008043526321376282,-0.00038646930149310865,-0.01869317427946504
74,0.064585,359.224,35.7542,0.189072,114.76,-27.4196,-3.77342,0.029487,-0.00819803,-0.0191875,0.0193376,0.00720656,-0.000396147,0.029165,0.02992604634626006,0.019525782428500005,0.007232589744252227,-0.008164517792615733,-0.00039606854413754,-0.019004591641398894
75,0.065585,359.96,35.9244,0.194652,115.175,-27.8163,-3.82472,0.0299309,-0.00831979,-0.0195047,0.0196524,0.00731834,-0.000405819,0.0296879,0.03038333200527621,0.019846779667123116,0.007345184495937129,-0.008285276329000446,-0.0004057366666074813,-0.01931571403830945
76,0.066585,360.692,36.0929,0.200293,115.587,-28.2112,-3.87568,0.0303744,-0.00844134,-0.0198219,0.0199675,0.00742952,-0.000415559,0.0302108,0.030840408362210914,0.02016818402199294,0.007457187359673378,-0.008405811927963303,-0.00041547266731789545,-0.01962673776284596
77,0.067585,361.419,36.2598,0.205992,115.994,-28.6041,-3.92628,0.0308176,-0.00856268,-0.0201389,0.0202831,0.00754012,-0.000425367,0.0307336,0.031297378088208205,0.02049019991230505,0.007568618286611928,-0.008526124667222357,-0.00042527654428370365,-0.019937466833815365
78,0.068585,362.143,36.4252,0.21175,116.398,-28.9952,-3.97653,0.0312603,-0.00868382,-0.0204558,0.020599,0.00765012,-0.00043524,0.0312564,0.03175403451092884,0.020812623690611654,0.007679456930637096,-0.008646224537884217,-0.0004351452968112124,-0.02024799944408484
79,0.069585,362.862,36.589,0.217564,116.799,-29.3845,-4.02644,0.0317028,-0.00880476,-0.0207725,0.0209153,0.00775953,-0.00044518,0.0317792,0.032210686698045166,0.021135557792820947,0.007789713171477697,-0.008766111613770944,-0.0004450809220868379,-0.02055823777382837
80,0.070585,363.577,36.7512,0.223433,117.197,-29.7719,-4.07602,0.0321448,-0.0089255,-0.0210891,0.0212319,0.00786835,-0.000455184,0.0323018,0.03266702466482707,0.021458900492866695,0.00789938681529967,-0.008885785968568483,-0.00045508041947972533,-0.020868279953482283
81,0.071585,364.289,36.9119,0.229358,117.591,-30.1574,-4.12526,0.0325865,-0.00904604,-0.0214056,0.0215489,0.00797659,-0.000465251,0.0328245,0.033123254440549976,0.021782754292438256,0.008008487749364468,-0.009005247675826111,-0.0004651427875361769,-0.021178126107136763
82,0.072585,364.996,37.0711,0.235336,117.981,-30.5412,-4.17417,0.0330279,-0.0091664,-0.021722,0.0218663,0.00808425,-0.000475382,0.033347,0.03357937570361713,0.02210711961270384,0.008117015785114923,-0.009124516626466406,-0.000475269023880065,-0.021487776358783406
83,0.073585,365.7,37.2289,0.241367,118.369,-30.9232,-4.22276,0.0334689,-0.00928656,-0.0220382,0.0221839,0.00819133,-0.000485576,0.0338696,0.03403528472885364,0.022431792389200567,0.008224970734970194,-0.009243573071494149,-0.00048545812705369507,-0.021797133012034342
84,0.074585,366.4,37.3851,0.247449,118.753,-31.3033,-4.27103,0.0339095,-0.00940654,-0.0223543,0.0225019,0.00829783,-0.000495831,0.034392,0.034490981057834436,0.022756977400856915,0.008332352412326216,-0.009362436896813597,-0.0004957080961237592,-0.022106294072809285
85,0.075585,367.096,37.54,0.253582,119.134,-31.6817,-4.31897,0.0343499,-0.00952634,-0.0226703,0.0228202,0.00840375,-0.000506146,0.0349144,0.03494667122150119,0.02308257276251635,0.008439160631557252,-0.009481108168322261,-0.0005060179297217138,-0.022415259664747778
86,0.076585,367.788,37.6934,0.259764,119.512,-32.0584,-4.36661,0.0347898,-0.00964596,-0.0229861,0.0231387,0.00850911,-0.000516522,0.0354367,0.03540204441416184,0.02340847645935007,0.00854541537892306,-0.00959958695180585,-0.0005163886254764272,-0.022723932183789652
87,0.077585,368.477,37.8454,0.265996,119.887,-32.4333,-4.41393,0.0352295,-0.0097654,-0.0233018,0.0234576,0.00861389,-0.000526957,0.035959,0.035857410798053824,0.023734893466918372,0.008651096304073569,-0.009717873312938163,-0.0005268181825447416,-0.02303240954268604
88,0.078585,369.162,37.9961,0.272275,120.259,-32.8064,-4.46094,0.0356688,-0.00988466,-0.0236174,0.0237767,0.0087181,-0.000537451,0.0364812,0.036312562925462366,0.024061619397773626,0.00875621331184595,-0.009835967317281424,-0.0005373065990819104,-0.023340691864725094
89,0.079585,369.844,38.1453,0.278601,120.628,-33.1778,-4.50766,0.0361078,-0.0100038,-0.0239328,0.0240961,0.00882175,-0.000548003,0.0370033,0.03676760401479773,0.02438875692009046,0.008860776312239471,-0.009953928433052095,-0.0005478528737804522,-0.023648681637970514
90,0.080585,370.522,38.2933,0.284972,120.994,-33.5475,-4.55406,0.0365464,-0.0101227,-0.0242481,0.0244158,0.00892484,-0.000558612,0.0375254,0.03722243002197079,0.024716306361666218,0.008964785130711972,-0.010071637912994147,-0.0005584560053648602,-0.02395647668221146
91,0.081585,371.197,38.4398,0.291389,121.357,-33.9155,-4.60018,0.0369848,-0.0102414,-0.0245633,0.0247358,0.00902736,-0.000569278,0.0380474,0.037677248024114096,0.025044268050773644,0.009068229502951608,-0.010189135435957897,-0.0005691159920233613,-0.024264077120385474
92,0.082585,371.868,38.5851,0.29785,121.717,-34.2817,-4.646,0.0374228,-0.01036,-0.0248783,0.025056,0.00912932,-0.000579999,0.0385693,0.0381318502093595,0.025372539778902414,0.009171119344866696,-0.01030652004345034,-0.000579830833093764,-0.02457138553247662
93,0.083585,372.537,38.7291,0.304354,122.075,-34.6463,-4.69152,0.0378604,-0.0104785,-0.0251932,0.0253764,0.00923073,-0.000590777,0.0390911,0.038586236119397155,0.02570112177667272,0.009273464577406854,-0.010423791772337987,-0.0005906025256282588,-0.02487849964551747
94,0.084585,373.201,38.8718,0.3109,122.429,-35.0092,-4.73676,0.0382978,-0.0105967,-0.025508,0.025697,0.00933158,-0.000601608,0.0396129,0.03904061310407814,0.02603001427496454,0.009375254939002042,-0.010540752767619566,-0.0006014270701919511,-0.025185419582096413
95,0.085585,373.863,39.0133,0.317487,122.781,-35.3705,-4.78172,0.0387348,-0.0107148,-0.0258226,0.0260179,0.00943187,-0.000612494,0.0401346,0.03949477307873139,0.026359320140845632,0.009476490259680226,-0.010657601004693484,-0.0006123064638401399,-0.02549204801391458
96,0.086585,374.522,39.1535,0.324115,123.13,-35.73,-4.82639,0.0391716,-0.0108328,-0.0261371,0.026339,0.00953162,-0.000623434,0.0406562,0.039948923574859796,0.026688937035703297,0.00957719056192774,-0.010774336520244066,-0.0006232397054025673,-0.025798482575453585
97,0.087585,375.177,39.2924,0.330783,123.476,-36.088,-4.87078,0.039608,-0.0109506,-0.0264514,0.0266603,0.00963082,-0.000634426,0.0411777,0.040402856326030134,0.027018865191292818,0.009677345586838637,-0.01089086044000831,-0.0006342247943775803,-0.026104625999420872
98,0.088585,375.829,39.4302,0.337489,123.82,-36.4442,-4.9149,0.0400441,-0.0110683,-0.0267657,0.0269819,0.00972947,-0.00064547,0.0416991,0.04085667495963463,0.027349207574546286,0.009776955170142543,-0.011007271734795432,-0.0006452617290528817,-0.026410673217629466
99,0.089585,376.479,39.5667,0.344234,124.161,-36.7989,-4.95874,0.0404799,-0.0111858,-0.0270797,0.0273036,0.00982758,-0.000656566,0.0422205,0.041310379153545185,0.027679758980966085,0.009876029247213758,-0.01112347155349358,-0.00065635050770807,-0.026716332275255716
100,0.090585,377.125,39.7021,0.351016,124.5,-37.1519,-5.00232,0.0409154,-0.0113031,-0.0273937,0.0276255,0.00992514,-0.000667714,0.0427418,0.04176396858559639,0.028010622344983416,0.009974557558759978,-0.011239459967426924,-0.000667491128614639,-0.027021895371004634
101,0.091585,377.768,39.8363,0.357833,124.836,-37.5033,-5.04562,0.0413506,-0.0114203,-0.0277075,0.0279476,0.0100222,-0.000678912,0.043263,0.042217442933585536,0.0283417978994005,0.010072590446775775,-0.011355335912255682,-0.000678681591393504,-0.027327168000456648
102,0.092585,378.409,39.9693,0.364687,125.169,-37.8531,-5.08866,0.0417855,-0.0115374,-0.0280212,0.0282698,0.0101187,-0.00069016,0.0437841,0.04267080187527372,0.028673183009958247,0.010170067154929407,-0.011471099424334441,-0.0006899218943673402,-0.027632247613615712
103,0.093585,379.046,40.1012,0.371575,125.5,-38.2014,-5.13144,0.0422201,-0.0116543,-0.0283347,0.0285923,0.0102146,-0.000701457,0.0443051,0.043124045088384966,0.029004983611450097,0.010266947109689006,-0.011586651698649697,-0.0007012110365528512,-0.027937037125736586
104,0.094585,379.681,40.2319,0.378497,125.828,-38.548,-5.17395,0.0426544,-0.0117711,-0.0286481,0.0289149,0.01031,-0.000712803,0.0448261,0.043577172250607976,0.029336994169586905,0.010363331173890211,-0.011702091635907741,-0.000712549016291919,-0.02824163392548973
105,0.095585,380.313,40.3616,0.385453,126.154,-38.893,-5.21621,0.0430884,-0.0118878,-0.0289613,0.0292376,0.0104049,-0.000724198,0.0453469,0.04403018303959527,0.029669214818524026,0.010459219203833525,-0.011817419272315388,-0.0007239358319194311,-0.028545940988770613
106,0.096585,380.942,40.4901,0.392441,126.478,-39.2365,-5.25821,0.0435221,-0.0120043,-0.0292744,0.0295605,0.0104993,-0.000735641,0.0458677,0.04448307713296473,0.030001748692693786,0.010554611056551089,-0.011932535837300029,-0.0007353704824981655,-0.02885005564301346
107,0.097585,381.569,40.6176,0.39946,126.799,-39.5784,-5.29997,0.0439555,-0.0121207,-0.0295874,0.0298836,0.0105931,-0.000747131,0.0463883,0.04493585420829915,0.03033459602628752,0.010649405524859157,-0.012047540196745032,-0.0007468519671300911,-0.02915397800926567
108,0.098585,382.192,40.7439,0.406511,127.118,-39.9188,-5.34147,0.0443886,-0.012237,-0.0299003,0.0302068,0.0106864,-0.000758668,0.0469089,0.04538851394314669,0.03066765398699034,0.01074370351332754,-0.012162432386709776,-0.0007583802841977239,-0.029457708208478817
109,0.099585,382.813,40.8693,0.413591,127.435,-40.2576,-5.38272,0.0448215,-0.0123531,-0.030213,0.0305301,0.0107792,-0.000770251,0.0474294,0.045841160599132236,0.031000922709510492,0.010837504881329618,-0.012277113670932316,-0.0007699544328471086,-0.029761149337628856
110,0.1006,383.432,40.9935,0.420701,127.749,-40.5949,-5.42373,0.045254,-0.0124691,-0.0305255,0.0308536,0.0108715,-0.00078188,0.0479498,0.04629358473075751,0.03133450546210814,0.010930809488971516,-0.012391682880603883,-0.0007815744114825218,-0.030064301608451527
111,0.1016,384.048,41.1168,0.42784,128.061,-40.9307,-5.46449,0.0456863,-0.012585,-0.0308379,0.0311771,0.0109632,-0.000793555,0.0484701,0.0467459952289202,0.0316681961461831,0.011023516094734731,-0.01250614005163686,-0.0007932402185020226,-0.03036726219572139
112,0.1026,384.661,41.239,0.435007,128.371,-41.2649,-5.50501,0.0461183,-0.0127008,-0.0311502,0.0315008,0.0110545,-0.000805274,0.0489903,0.0471982871868879,0.03200220119707664,0.011115826755671687,-0.012620485219905775,-0.0008049498539071109,-0.030670031219893756
113,0.1036,385.272,41.3602,0.442201,128.679,-41.5976,-5.54529,0.04655,-0.0128164,-0.0314623,0.0318247,0.0111452,-0.000817038,0.0495104,0.0476504602820067,0.03233652085018934,0.011207539120251298,-0.012734619694714677,-0.0008167043153372022,-0.030972511898584743
114,0.1046,385.88,41.4804,0.449421,128.984,-41.9288,-5.58534,0.0469814,-0.0129319,-0.0317743,0.0321486,0.0112354,-0.000828847,0.0500304,0.04810251419158984,0.03267094880697652,0.011298754154016155,-0.012848642261209964,-0.000828503601206898,-0.03127480131527127
115,0.1056,386.486,41.5996,0.456668,129.287,-42.2585,-5.62515,0.0474125,-0.0130473,-0.0320862,0.0324726,0.0113251,-0.000840698,0.0505502,0.0485544485929188,0.0330055884030771,0.01138947172088578,-0.0129625529551195,-0.000840344712446095,-0.03157689959006604
116,0.1066,387.089,41.7178,0.46394,129.589,-42.5868,-5.66473,0.0478434,-0.0131626,-0.0323979,0.0327967,0.0114143,-0.000852593,0.05107,0.04900636806387504,0.03334043977401224,0.011479691685513771,-0.013076351812133624,-0.0008522296458599588,-0.031878710030862956
117,0.1076,387.69,41.835,0.471237,129.888,-42.9135,-5.70408,0.048274,-0.0132778,-0.0327095,0.0331209,0.0115029,-0.00086453,0.0515897,0.049458167471394754,0.033675503055410116,0.011569312756351868,-0.013190038867904708,-0.0008641564016096392,-0.03218032963004336
118,0.1086,388.288,41.9514,0.478557,130.185,-43.2388,-5.7432,0.0487043,-0.0133928,-0.0330209,0.0334452,0.0115911,-0.00087651,0.0521093,0.04990984649262975,0.03401077838300681,0.011658537104473066,-0.01330351548840425,-0.0008761259773180097,-0.03248166175554956
119,0.1096,388.884,42.0667,0.485901,130.48,-43.5626,-5.7821,0.0491344,-0.0135078,-0.0333322,0.0337696,0.0116788,-0.000888531,0.0526288,0.05036150984084675,0.03434626589264633,0.011747263448770306,-0.013416979059842626,-0.0008881363732190506,-0.032782803339125755
120,0.1106,389.478,42.1811,0.493267,130.773,-43.8849,-5.82077,0.0495642,-0.0136226,-0.0336434,0.0340941,0.011766,-0.000900594,0.0531482,0.05081305224728849,0.034681965720279706,0.01183549165683706,-0.013530232289786781,-0.0009001885869368564,-0.0330837545002971
121,0.1116,390.07,42.2947,0.500655,131.063,-44.2058,-5.85921,0.0499937,-0.0137373,-0.0339544,0.0344186,0.0118527,-0.000912698,0.0536675,0.051264473388979326,0.03501777450018384,0.011923221597001765,-0.013643373883348686,-0.0009122816178670501,-0.03338441869694153
122,0.1126,390.659,42.4073,0.508065,131.352,-44.5252,-5.89744,0.050423,-0.0138519,-0.0342652,0.0347432,0.0119389,-0.000924843,0.0541866,0.05171587811449685,0.03535379580309361,0.012010453138328714,-0.013756403875959444,-0.0009244154645239311,-0.03368479613853814
123,0.1136,391.246,42.519,0.515496,131.639,-44.8433,-5.93545,0.0508519,-0.0139664,-0.034576,0.0350679,0.0120246,-0.000937027,0.0547057,0.05216705580275893,0.03569002976522051,0.012097186150619166,-0.0138693223030123,-0.0009365881272899168,-0.033985080237332155
124,0.1146,391.831,42.6298,0.522946,131.924,-45.1598,-5.97324,0.0512807,-0.0140808,-0.0348866,0.0353926,0.0121098,-0.000949252,0.0552246,0.05261832178079828,0.03602637292024147,0.012183420504410458,-0.013982129199863302,-0.0009488016028449398,-0.034285077879364856
125,0.1156,392.413,42.7397,0.530416,132.208,-45.475,-6.01082,0.0517091,-0.0141951,-0.035197,0.0357174,0.0121945,-0.000961515,0.0557435,0.05306936007535379,0.03636292893990478,0.012269156070977338,-0.014094824601830869,-0.0009610528925719786,-0.03458478927357633
126,0.1166,392.994,42.8488,0.537906,132.489,-45.7887,-6.04818,0.0521373,-0.0143093,-0.0355073,0.0360422,0.0122787,-0.000973818,0.0562622,0.05352038093201217,0.036699594290717785,0.012354392722331076,-0.014207408544195888,-0.0009733439931294274,-0.03488431114024382
127,0.1176,393.572,42.957,0.545413,132.768,-46.101,-6.08534,0.0525653,-0.0144234,-0.0358175,0.0363671,0.0123625,-0.000986159,0.0567808,0.05397138416285774,0.03703647271183885,0.012439231575139598,-0.014319881062201723,-0.0009856729050155,-0.035183643598063585
128,0.1186,394.148,43.0643,0.552938,133.046,-46.412,-6.12228,0.052993,-0.0145374,-0.0361275,0.036692,0.0124457,-0.000998539,0.0572994,0.05442226413767348,0.03737346060254154,0.012523470023477312,-0.014432242191054656,-0.0009980406258285335,-0.03548269031391238
129,0.1196,394.722,43.1708,0.560481,133.321,-46.7215,-6.15902,0.0534204,-0.0146513,-0.0364374,0.037017,0.0125285,-0.00101096,0.0578177,0.05487302053314602,0.03771066176945892,0.01260731043774066,-0.014544491965923112,-0.0010104491521025771,-0.03578154791780663
130,0.1206,395.294,43.2765,0.56804,133.595,-47.0296,-6.19555,0.0538476,-0.0147651,-0.0367471,0.037342,0.0126108,-0.00102341,0.058336,0.05532375855830507,0.03804797254456571,0.012690651448825196,-0.01465663042193821,-0.0010228864945880378,-0.03608012013612205
131,0.1216,395.864,43.3814,0.575615,133.867,-47.3364,-6.23188,0.0542745,-0.0148788,-0.0370567,0.037667,0.0126927,-0.0010359,0.0588542,0.05577437244752481,0.03838539296349097,0.012773594209638528,-0.014768657594193768,-0.0010353636408158007,-0.03637850353879368
132,0.1226,396.432,43.4854,0.583206,134.138,-47.6418,-6.268,0.0547012,-0.0149924,-0.0373661,0.0379921,0.012774,-0.00104843,0.0593723,0.05622496749986583,0.03872302693417162,0.01285593604999824,-0.014880573517746298,-0.0010478805892905063,-0.03667660191160249
133,0.1236,396.997,43.5886,0.590812,134.406,-47.9458,-6.30393,0.0551276,-0.0151059,-0.0376754,0.0383172,0.0128549,-0.001061,0.0598902,0.05667543785946316,0.039060770687500135,0.012937879409788966,-0.014992378227614678,-0.0010604373385122434,-0.03697451176449751
134,0.1246,397.561,43.6911,0.598432,134.673,-48.2484,-6.33965,0.0555538,-0.0152193,-0.0379846,0.0386423,0.0129353,-0.0010736,0.060408,0.057125888915380285,0.039398624259173065,0.01301932288927743,-0.015104071758780702,-0.001073023897706249,-0.03727223321535167
135,0.1256,398.123,43.7928,0.606066,134.938,-48.5497,-6.37518,0.0559797,-0.0153327,-0.0382936,0.0389674,0.0130153,-0.00108623,0.0609257,0.05757621472154262,0.03973658768489807,0.01310036767685685,-0.015215752624618495,-0.0010856402657418718,-0.037569670138916766
136,0.1266,398.683,43.8937,0.613714,135.202,-48.8497,-6.41051,0.0564053,-0.0154459,-0.0386025,0.0392925,0.0130948,-0.00109891,0.0614433,0.05802641495434213,0.04007466100039436,0.013180912357695806,-0.015327223892028674,-0.00109830641951969,-0.037866918955367534
137,0.1276,399.241,43.9938,0.621374,135.463,-49.1483,-6.44565,0.0568308,-0.0155591,-0.0389112,0.0396177,0.0131738,-0.00111161,0.0619608,0.058476700985464536,0.04041294828268249,0.013260956811486313,-0.01543868254160552,-0.0011109923904720764,-0.038163883598635095
138,0.1286,399.797,44.0931,0.629047,135.723,-49.4456,-6.48059,0.057256,-0.0156721,-0.0392198,0.0399428,0.0132524,-0.00112436,0.0624781,0.05892686097595523,0.0407512415187552,0.013340602252716716,-0.015549931684783358,-0.001123728144128533,-0.03846066042913632
139,0.1296,400.351,44.1918,0.636732,135.982,-49.7416,-6.51535,0.0576809,-0.0157851,-0.0395283,0.040268,0.0133305,-0.00113713,0.0629953,0.059376894602057195,0.04108974886080752,0.013419747244324265,-0.015661168257518177,-0.0011364837126757177,-0.038757249564167595
140,0.1306,400.903,44.2896,0.644428,136.239,-50.0362,-6.54991,0.0581056,-0.015898,-0.0398366,0.0405931,0.0134081,-0.00114994,0.0635124,0.05982690752267428,0.04142826216051776,0.01349839166807465,-0.0157722938384649,-0.0011492790723648394,-0.03905355502629304
141,0.1316,401.453,44.3868,0.652136,136.494,-50.3295,-6.58429,0.05853,-0.0160108,-0.0401448,0.0409183,0.0134853,-0.00116279,0.0640294,0.06027679352128312,0.04176698970548598,0.013576636764133232,-0.0158833084623774,-0.001162114221662791,-0.03934967308649684
142,0.1326,402.002,44.4832,0.659853,136.748,-50.6215,-6.61848,0.0589543,-0.0161235,-0.0404528,0.0412434,0.013562,-0.00117566,0.0645463,0.060726764419349655,0.042105723211987245,0.013654381073629152,-0.015994212163972676,-0.001174969182530905,-0.03964550782629761
143,0.1336,402.548,44.5789,0.667581,137.0,-50.9122,-6.65249,0.0593782,-0.0162361,-0.0407607,0.0415686,0.0136383,-0.00118857,0.065063,0.061176501809892425,0.04244467110311567,0.013731725853570964,-0.016105004977930548,-0.0011878639304429006,-0.03994115545714949
144,0.1346,403.093,44.6739,0.675318,137.25,-51.2017,-6.68631,0.059802,-0.0163487,-0.0410684,0.0418937,0.0137142,-0.00120152,0.0655796,0.06162632372188992,0.042783624959655375,0.013808671011594997,-0.01621578531731993,-0.0012007984638537916,-0.040236520119431574
145,0.1356,403.636,44.7681,0.683064,137.499,-51.4898,-6.71995,0.0602255,-0.0164612,-0.041376,0.0422188,0.0137896,-0.00121449,0.0660961,0.06207601768596205,0.043122689028007866,0.013885115067294063,-0.016326454816195657,-0.0012137528054886326,-0.04053169796516276
146,0.1366,404.177,44.8617,0.690819,137.747,-51.7766,-6.75341,0.0606487,-0.0165736,-0.0416834,0.0425439,0.0138645,-0.0012275,0.0666125,0.06252558337803737,0.0434618633440087,0.013961057906436425,-0.01643701350915938,-0.0012267469300376588,-0.04082659319348958
147,0.1376,404.717,44.9546,0.698582,137.993,-52.0622,-6.78669,0.0610717,-0.0166859,-0.0419908,0.0428689,0.013939,-0.00124054,0.0671287,0.06297512677153105,0.043801043563395536,0.014036600819189005,-0.016547461430775456,-0.0012397708483415926,-0.041121397784954716
148,0.1386,405.254,45.0469,0.706353,138.237,-52.3465,-6.8198,0.0614945,-0.0167981,-0.0422979,0.043194,0.0140131,-0.00125361,0.0676448,0.06342464767715317,0.044140438448307284,0.014111743715319536,-0.01665779861557104,-0.00125282455923037,-0.04141582419220613
149,0.1396,405.79,45.1384,0.71413,138.48,-52.6296,-6.85272,0.0619171,-0.0169103,-0.0426049,0.043519,0.0140867,-0.00126671,0.0681608,0.06387414590554741,0.04447983924044441,0.014186385086425668,-0.01676812342122902,-0.0012659080615314844,-0.04171006436600144
150,0.1406,406.325,45.2293,0.721915,138.722,-52.9114,-6.88548,0.0623394,-0.0170223,-0.0429118,0.043844,0.0141599,-0.00127985,0.0686767,0.06432351483493459,0.04481935035576523,0.014260626247007302,-0.016878239224805802,-0.0012790313412794907,-0.04200411842234453
151,0.1416,406.857,45.3195,0.729706,138.962,-53.1919,-6.91806,0.0627615,-0.0171343,-0.0432185,0.0441689,0.0142327,-0.00129301,0.0691924,0.06477286061830223,0.045158867314239126,0.01433446710837294,-0.016988342696103165,-0.001292174422745318,-0.04229789070694179
152,0.1426,407.388,45.4091,0.737504,139.201,-53.4712,-6.95046,0.0631834,-0.0172463,-0.0435251,0.0444939,0.014305,-0.0013062,0.069708,0.06522218306610261,0.045498599149549124,0.01440780614151893,-0.017098433836502225,-0.0013053472920894205,-0.04259147716454725
153,0.1436,407.917,45.4981,0.745306,139.438,-53.7493,-6.9827,0.063605,-0.0173581,-0.0438316,0.0448188,0.0143769,-0.00131943,0.0702234,0.0656713754215783,0.04583833683181071,0.014480744684889801,-0.017208316089066922,-0.0013185599349428978,-0.04288487791083506
154,0.1446,408.445,45.5864,0.753115,139.674,-54.0261,-7.01477,0.0640264,-0.0174699,-0.0441379,0.0451436,0.0144483,-0.00133268,0.0707388,0.06612054397234779,0.046178080294965396,0.014553181196012899,-0.017318186057482476,-0.0013317923763587203,-0.0431779973791927
155,0.1456,408.971,45.674,0.760927,139.909,-54.3017,-7.04667,0.0644476,-0.0175816,-0.0444441,0.0454684,0.0145194,-0.00134597,0.071254,0.06656968852867218,0.046517934124719496,0.0146253184916465,-0.017427945485921637,-0.0013450645886439183,-0.04347093142590386
156,0.1466,409.495,45.7611,0.768745,140.142,-54.5761,-7.0784,0.0648685,-0.0176933,-0.0447501,0.0457931,0.01459,-0.00135928,0.071769,0.06701870219887196,0.04685779367114118,0.014696953567820303,-0.017537692654917336,-0.0013583565973757095,-0.04376358454267715
157,0.1476,410.018,45.8475,0.776566,140.374,-54.8493,-7.10996,0.0652893,-0.0178048,-0.045056,0.0461179,0.0146602,-0.00137262,0.072284,0.06746779815191895,0.04719786830765682,0.01476818779425293,-0.01764723109530486,-0.0013716783880421968,-0.0440560525269067
158,0.1486,410.539,45.9334,0.784391,140.604,-55.1212,-7.14137,0.0657098,-0.0179163,-0.0453617,0.0464425,0.0147299,-0.00138599,0.0727988,0.06791676274923297,0.047537843910764765,0.014838919601916967,-0.01775675732283699,-0.0013850299594466708,-0.04434823992852943
159,0.1496,411.058,46.0186,0.792219,140.834,-55.392,-7.17261,0.06613,-0.0180278,-0.0456673,0.0467671,0.0147993,-0.00139939,0.0733135,0.06836559566613176,0.04787792988786621,0.014909351866908782,-0.01786627133887564,-0.0013984113103899798,-0.044640242486143844
160,0.1506,411.576,46.1032,0.80005,141.062,-55.6616,-7.20368,0.0665501,-0.0181391,-0.0459727,0.0470917,0.0148682,-0.00141282,0.073828,0.06881451034079644,0.04821812627479427,0.014979281530301591,-0.01797557673991723,-0.0014118224396701962,-0.04493196480782269
161,0.1516,412.092,46.1873,0.807884,141.288,-55.93,-7.2346,0.0669699,-0.0182504,-0.046278,0.0474162,0.0149367,-0.00142628,0.0743424,0.06926329286509847,0.048558328251555816,0.015048809992409096,-0.018084869975944717,-0.001425263346082617,-0.045223502573462526
162,0.1526,412.607,46.2707,0.81572,141.514,-56.1972,-7.26536,0.0673895,-0.0183616,-0.0465832,0.0477406,0.0150049,-0.00143976,0.0748567,0.06971204988542334,0.04889853575191383,0.015118038681922075,-0.018194052867722132,-0.0014387240428074266,-0.045514855897698214
163,0.1536,413.12,46.3536,0.823557,141.738,-56.4632,-7.29596,0.0678089,-0.0184728,-0.0468882,0.048065,0.0150726,-0.00145327,0.0753708,0.0701607812115268,0.04923885363348757,0.015186764499483418,-0.018303223619036912,-0.0014522145145172694,-0.0458059294756723
164,0.1546,413.632,46.4359,0.831397,141.96,-56.7281,-7.3264,0.0682281,-0.0185839,-0.0471931,0.0483893,0.0151398,-0.00146681,0.0758848,0.0706094866531004,0.04957917697416803,0.015254987342319781,-0.01841228407247253,-0.0014657347600004478,-0.04609681889942907
165,0.1556,414.142,46.5177,0.839237,142.182,-56.9918,-7.35669,0.0686471,-0.0186949,-0.0474978,0.0487136,0.0152067,-0.00148037,0.0763987,0.07105816601977111,0.0499196106996056,0.015322910172966164,-0.018521234262093067,-0.0014792747928354943,-0.046387428922025076
166,0.1566,414.651,46.5988,0.847079,142.402,-57.2544,-7.38682,0.0690658,-0.0188059,-0.0478024,0.0490377,0.0152732,-0.00149396,0.0769124,0.07150671197042557,0.0502599447935943,0.015390431391548498,-0.018630172358913732,-0.0014928445972840487,-0.04667785507702649
167,0.1576,415.158,46.6795,0.854921,142.621,-57.5158,-7.4168,0.0694843,-0.0189168,-0.0481069,0.0493619,0.0153393,-0.00150758,0.077426,0.07195523137552451,0.05060049426778335,0.015457550917339358,-0.018739000238181647,-0.001506444172127308,-0.046968097478507276
168,0.1586,415.664,46.7596,0.862763,142.839,-57.776,-7.44663,0.0699026,-0.0190276,-0.0484112,0.0496859,0.0154049,-0.00152123,0.0779394,0.07240372404451101,0.0509409439778008,0.01552416711766691,-0.018847717933883734,-0.001520073516143916,-0.047258060966262394
169,0.1596,416.168,46.8391,0.870604,143.056,-58.0351,-7.47631,0.0703207,-0.0191384,-0.0487153,0.0500099,0.0154702,-0.0015349,0.0784527,0.07285218978676444,0.05128150401139586,0.015590483010970102,-0.01895642358433247,-0.0015337226434468665,-0.047547745741120084
170,0.1606,416.671,46.9181,0.878446,143.272,-58.2931,-7.50584,0.0707386,-0.0192491,-0.0490194,0.0503338,0.0155351,-0.00154859,0.0789659,0.07330062841160068,0.05162206924210677,0.015656396972202336,-0.01906501909736913,-0.0015473915532200344,-0.047837342436231056
171,0.1616,417.173,46.9966,0.886286,143.486,-58.55,-7.53522,0.0711562,-0.0193598,-0.0493232,0.0506576,0.0155996,-0.00156231,0.0794789,0.07374893235337354,0.051962639603493344,0.01572190892254466,-0.01917360258954781,-0.0015610902290347228,-0.0481265655163885
172,0.1626,417.673,47.0746,0.894126,143.699,-58.8057,-7.56445,0.0715737,-0.0194704,-0.049627,0.0509813,0.0156637,-0.00157606,0.0799918,0.0741973161262306,0.052303215029091854,0.015787018783655515,-0.019282075990411762,-0.0015748186696609157,-0.048415700743919765
173,0.1636,418.171,47.152,0.901964,143.911,-59.0603,-7.59353,0.0719909,-0.0195809,-0.0499306,0.051305,0.0157273,-0.00158983,0.0805046,0.07464556474467865,0.052643900716800474,0.01585162489250269,-0.01939043933382989,-0.001588566889751064,-0.04870455788644101
174,0.1646,418.668,47.2289,0.9098,144.122,-59.3138,-7.62247,0.0724079,-0.0196913,-0.050234,0.0516286,0.0157907,-0.00160363,0.0810172,0.07509378539268718,0.05298459140385248,0.015916031927202257,-0.019498692653634242,-0.0016023448724596934,-0.0489931371438912
175,0.1656,419.164,47.3054,0.917635,144.332,-59.5662,-7.65127,0.0728247,-0.0198018,-0.0505373,0.051952,0.0158536,-0.00161745,0.0815297,0.07554197787926475,0.05332518169119349,0.015979935055342676,-0.019607032062233465,-0.0016161426327108153,-0.04928153378783362
176,0.1666,419.658,47.3813,0.925467,144.541,-59.8176,-7.67992,0.0732413,-0.0199121,-0.0508405,0.0522755,0.0159161,-0.0016313,0.082042,0.07599014201335641,0.05366598750983975,0.01604343578566092,-0.019715163443041694,-0.001629970153379512,-0.049569747931316965
177,0.1676,420.151,47.4567,0.933297,144.748,-60.0678,-7.70843,0.0736577,-0.0200224,-0.0511435,0.0525988,0.0159783,-0.00164517,0.0825542,0.0764382776038457,0.054006692795643296,0.0161066356528623,-0.019823282897616368,-0.0016438174496623548,-0.0498576846730745
178,0.1686,420.643,47.5316,0.941124,144.955,-60.3169,-7.73679,0.0740739,-0.0201326,-0.0514464,0.052922,0.01604,-0.00165906,0.0830662,0.07688638445955265,0.0543474028145281,0.016169331366424844,-0.019931292420407032,-0.0016576845207308954,-0.05014543919776415
179,0.1696,421.133,47.6061,0.948948,145.16,-60.565,-7.76502,0.0744898,-0.0202428,-0.0517491,0.0532451,0.0161014,-0.00167298,0.0835781,0.0773343546557943,0.054688117499871014,0.016231726078868913,-0.020039290041204083,-0.0016715813490402187,-0.05043291666140981
180,0.1706,421.622,47.68,0.956768,145.364,-60.8119,-7.79311,0.0749056,-0.020353,-0.0520517,0.0535682,0.0161624,-0.00168692,0.0840898,0.07778240342334386,0.05502894228791466,0.016293718104897215,-0.02014727576131914,-0.0016854979501972345,-0.050720212190822234
181,0.1716,422.109,47.7535,0.964585,145.568,-61.0578,-7.82106,0.0753211,-0.020463,-0.0523542,0.0538911,0.016223,-0.00170089,0.0846015,0.07823031505916456,0.055369666140284934,0.01635530737035018,-0.020255053633093767,-0.001699444306375364,-0.05100732589849688
182,0.1726,422.596,47.8265,0.972398,145.77,-61.3027,-7.84888,0.0757365,-0.020573,-0.0526565,0.054214,0.0162833,-0.00171487,0.0851129,0.07867830497310324,0.055710500030151655,0.01641659544320162,-0.020362819649954456,-0.0017134004505903189,-0.05129416302626144
183,0.1736,423.08,47.8991,0.980208,145.971,-61.5465,-7.87656,0.0761516,-0.020683,-0.0529587,0.0545368,0.0163432,-0.00172888,0.0856242,0.07912615728281369,0.056051338387912875,0.016477480620761487,-0.020470573813205384,-0.0017273863478786122,-0.05158081861435404
184,0.1746,423.564,47.9712,0.988012,146.171,-61.7892,-7.9041,0.0765665,-0.0207929,-0.0532607,0.0548594,0.0164027,-0.00174292,0.0861354,0.07957397961979007,0.056392075507619044,0.01653796283018627,-0.020578218181976915,-0.0017414019969841377,-0.051867197961674494
185,0.1756,424.046,48.0428,0.995812,146.371,-62.0309,-7.93151,0.0769813,-0.0209027,-0.0535626,0.055182,0.0164618,-0.00175697,0.0866464,0.08002187979461062,0.05673292256685247,0.016598041999111413,-0.02068575278986251,-0.0017554274317571616,-0.052153396050834466
186,0.1766,424.527,48.114,1.00361,146.569,-62.2715,-7.95879,0.0773958,-0.0210125,-0.0538643,0.0555045,0.0165206,-0.00177105,0.0871573,0.08046964165602044,0.057073773893702606,0.01665781972142888,-0.02079327559109634,-0.0017694826163902055,-0.052439318237715304
187,0.1776,425.007,48.1847,1.0114,146.766,-62.5111,-7.98593,0.0778101,-0.0211223,-0.0541659,0.0558268,0.016579,-0.00178515,0.087668,0.08091737296969592,0.05741452367990685,0.0167171942718205,-0.020900786586974807,-0.0017835575674566284,-0.05272505944739436
188,0.1786,425.485,48.255,1.01918,146.962,-62.7497,-8.01295,0.0782242,-0.021232,-0.0544674,0.0561491,0.0166371,-0.00179928,0.0881786,0.08136507354384892,0.05775538330746732,0.016776267256861432,-0.021008187879617557,-0.0017976622661383113,-0.053010619791585945
189,0.1796,425.962,48.3248,1.02696,147.157,-62.9873,-8.03983,0.0786381,-0.0213416,-0.0547687,0.0564712,0.0166948,-0.00181342,0.0886891,0.08181274318663023,0.058096141192541806,0.016834936940086198,-0.02111547950253767,-0.0018117767474042923,-0.053295904711511355
190,0.1806,426.438,48.3942,1.03474,147.351,-63.2238,-8.06659,0.0790518,-0.0214512,-0.0550699,0.0567933,0.0167521,-0.00182759,0.0891993,0.08226038170613004,0.05843700885340963,0.016893203251286737,-0.02122275936694018,-0.0018259209743156646,-0.053581009046144046
191,0.1816,426.913,48.4632,1.0425,147.545,-63.4593,-8.09321,0.0794653,-0.0215607,-0.055371,0.0571152,0.016809,-0.00184177,0.0897095,0.08270798891037723,0.05877777456985922,0.016951066120734604,-0.021329929607111775,-0.0018400749824041274,-0.053865932906880354
192,0.1826,427.386,48.5318,1.05026,147.737,-63.6939,-8.11971,0.0798787,-0.0216702,-0.0556719,0.0574371,0.0168657,-0.00185598,0.0902195,0.08315567292290238,0.05911864999644978,0.017008728880907542,-0.021437088112784553,-0.0018542587341627836,-0.054150581820092025
193,0.1836,427.858,48.5999,1.05802,147.928,-63.9274,-8.14608,0.0802918,-0.0217797,-0.0559726,0.0577588,0.0169219,-0.00187021,0.0907293,0.08360321696524431,0.05945942327659681,0.01706588637758122,-0.021544234885243374,-0.0018684622470027668,-0.054434955982340605
194,0.1846,428.329,48.6676,1.06577,148.119,-64.1599,-8.17233,0.0807047,-0.021889,-0.0562732,0.0580804,0.0169778,-0.00188446,0.091239,0.08405072911605482,0.05980020022111798,0.017122741949728182,-0.02165117425602736,-0.001882685520074645,-0.05471915011805373
195,0.1856,428.799,48.7349,1.07351,148.308,-64.3914,-8.19846,0.0811174,-0.0219984,-0.0565737,0.0584019,0.0170334,-0.00189873,0.0917486,0.08449820918312168,0.060140980763025986,0.01717929554635611,-0.021758199763161734,-0.0018969285525280988,-0.05500316433816943
196,0.1866,429.267,48.8018,1.08124,148.497,-64.6219,-8.22446,0.0815299,-0.0221077,-0.056874,0.0587233,0.0170886,-0.00191302,0.0922579,0.084945656974172,0.06048176483530998,0.017235445393191773,-0.021865115748862518,-0.0019111913435111427,-0.05528690428223382
197,0.1876,429.734,48.8683,1.08897,148.684,-64.8515,-8.25033,0.0819422,-0.0222169,-0.0571742,0.0590445,0.0171434,-0.00192733,0.0927672,0.08539307229687298,0.060822446288687715,0.017291191423026486,-0.021971922246481923,-0.0019254738921711256,-0.055570464589036694
198,0.1886,430.201,48.9344,1.09669,148.871,-65.0801,-8.27609,0.0823543,-0.0223261,-0.0574743,0.0593657,0.0171979,-0.00194167,0.0932763,0.08584045495883275,0.06116323718652383,0.017346635303791214,-0.02207871708146847,-0.0019397861782561865,-0.05585384536920068
199,0.1896,430.665,49.0001,1.1044,149.057,-65.3077,-8.30172,0.0827662,-0.0224352,-0.0577742,0.0596867,0.0172521,-0.00195602,0.0937852,0.08628780476759856,0.0615039252631715,0.017401776985750628,-0.02218540247364087,-0.0019541082395635456,-0.056136952346961255
200,0.1906,431.129,49.0654,1.11211,149.242,-65.5343,-8.32724,0.083178,-0.0225443,-0.058074,0.0600077,0.0173059,-0.00197039,0.094294,0.0867352302041764,0.06184472271824615,0.017456514673783063,-0.022292076227071966,-0.0019684500559818963,-0.05641988007566201
201,0.1916,431.592,49.1303,1.1198,149.426,-65.76,-8.35263,0.0835895,-0.0226534,-0.0583736,0.0603285,0.0173594,-0.00198478,0.0948026,0.08718251377368813,0.06218541714975934,0.0175109500534516,-0.02239873834303141,-0.001982811626653813,-0.056702534335868915
202,0.1926,432.053,49.1949,1.12749,149.61,-65.9847,-8.37791,0.0840008,-0.0227624,-0.0586731,0.0606491,0.0174125,-0.00199919,0.0953111,0.08762976391228916,0.06252600838835565,0.01756498131941675,-0.022505291073322664,-0.00199719295072065,-0.0569850096240494
203,0.1936,432.513,49.259,1.13517,149.792,-66.2085,-8.40307,0.0844119,-0.0228713,-0.0589724,0.0609697,0.0174653,-0.00201362,0.0958194,0.08807698042728984,0.06286670883800882,0.01761871016885963,-0.0226117344511777,-0.0020115940273223165,-0.05726721177701011
204,0.1946,432.972,49.3228,1.14284,149.973,-66.4314,-8.42811,0.0848229,-0.0229802,-0.0592717,0.0612901,0.0175178,-0.00202807,0.0963276,0.08852427197836277,0.0632073058922551,0.017672136553573914,-0.022718166237979953,-0.0020260148555979463,-0.057549329479504974
205,0.1956,433.43,49.3862,1.15051,150.154,-66.6533,-8.45304,0.0852336,-0.0230891,-0.0595707,0.0616104,0.0175699,-0.00204253,0.0968356,0.08897142071257158,0.06354790573648539,0.01772515865310198,-0.022824586434991745,-0.0020404454550896345,-0.05783108010617288
206,0.1966,433.887,49.4492,1.15816,150.334,-66.8742,-8.47785,0.0856442,-0.0231979,-0.0598697,0.0619306,0.0176217,-0.00205702,0.0973435,0.08941864418661227,0.06388850830346304,0.017777878181744144,-0.022930897336569722,-0.0020549057842695895,-0.05811274650199649
207,0.1976,434.342,49.5119,1.16581,150.513,-67.0942,-8.50255,0.0860545,-0.0233067,-0.0601685,0.0622507,0.0176732,-0.00207152,0.0978512,0.08986572436854923,0.06422911352592853,0.01783029509219447,-0.02303719667215076,-0.002069375883227309,-0.0583941403710041
208,0.1986,434.797,49.5742,1.17344,150.691,-67.3134,-8.52713,0.0864647,-0.0234154,-0.0604671,0.0625706,0.0177243,-0.00208605,0.0983588,0.090312878993829,0.06456961487963331,0.01788230754918052,-0.023143386757336848,-0.0020838757098542438,-0.05867526190715522
209,0.1996,435.25,49.6362,1.18107,150.869,-67.5315,-8.55161,0.0868747,-0.0235241,-0.0607656,0.0628904,0.0177751,-0.00210059,0.0988662,0.09075999892753939,0.0649101186861285,0.01793401728382027,-0.02324956530028799,-0.0020983853048163192,-0.05895620540857227
210,0.2006,435.702,49.6977,1.18869,151.045,-67.7488,-8.57596,0.0872844,-0.0236327,-0.061064,0.0632101,0.0178256,-0.00211515,0.0993734,0.09120697485586682,0.06525062487808686,0.01798542424970795,-0.023355634637827083,-0.0021129146465524995,-0.059236970984571036
211,0.2016,436.153,49.759,1.19629,151.221,-67.9652,-8.60021,0.087694,-0.0237413,-0.0613622,0.0635297,0.0178758,-0.00212972,0.0998805,0.0916540247823423,0.06559113338815958,0.018036528400708907,-0.023461692456861583,-0.0021274537554684114,-0.059517464696132505
212,0.2026,436.603,49.8199,1.20389,151.396,-68.1806,-8.62435,0.0881034,-0.0238499,-0.0616603,0.0638491,0.0179256,-0.00214432,0.100387,0.09210103943774461,0.06593153755581538,0.018087227882229717,-0.023567738758642376,-0.0021420225882907706,-0.05979778075672193
213,0.2036,437.052,49.8804,1.21148,151.57,-68.3952,-8.64838,0.0885126,-0.0239584,-0.0619583,0.0641684,0.0179751,-0.00215893,0.100894,0.09254801862878814,0.06627194383872781,0.018137624447314593,-0.02367367591179259,-0.0021566011868439094,-0.060077919275344005
214,0.2046,437.5,49.9407,1.21906,151.744,-68.6089,-8.67231,0.0889217,-0.0240668,-0.0622561,0.0644875,0.0180244,-0.00217356,0.101401,0.092995071461631,0.06661224550825051,0.018187819869506905,-0.023779503949340475,-0.0021711995289813713,-0.060357786396701196
215,0.2056,437.947,50.0005,1.22662,151.917,-68.8217,-8.69612,0.0893305,-0.0241752,-0.0625538,0.0648066,0.0180732,-0.00218821,0.101907,0.09344197918856012,0.06695265578536347,0.018237508647512835,-0.023885320515750763,-0.0021858176138305208,-0.060637476249790545
216,0.2066,438.392,50.0601,1.23418,152.089,-69.0335,-8.71983,0.0897391,-0.0242836,-0.0628513,0.0651255,0.0181218,-0.00220287,0.102414,0.09388885087092391,0.06729296124611506,0.018286996192970806,-0.023991125612267017,-0.0022004454625219605,-0.060916895035001084
217,0.2076,438.837,50.1193,1.24173,152.26,-69.2446,-8.74343,0.0901476,-0.0243919,-0.0631487,0.0654442,0.0181701,-0.00221755,0.10292,0.09433579574878093,0.06763316172093048,0.018336180642681832,-0.024096821649819522,-0.0022150930524690304,-0.061196136825105385
218,0.2086,439.281,50.1782,1.24927,152.43,-69.4547,-8.76692,0.0905558,-0.0245002,-0.063446,0.0657629,0.018218,-0.00223225,0.103426,0.09478259480608897,0.06797347063491599,0.018384960113993598,-0.024202506241110977,-0.0022297603827959867,-0.0614752017285739
219,0.2096,439.723,50.2367,1.25679,152.6,-69.664,-8.79031,0.0909639,-0.0246085,-0.0637431,0.0660814,0.0182656,-0.00224696,0.103932,0.09522946676104982,0.06831367435988045,0.018433436391821267,-0.024308179387380835,-0.0022444374750704155,-0.06175399602919618
220,0.2106,440.164,50.295,1.26431,152.769,-69.8724,-8.8136,0.0913718,-0.0247167,-0.0640401,0.0663997,0.0183129,-0.00226169,0.104437,0.09567630198639043,0.06865377272621265,0.018481609432646096,-0.024413743531248033,-0.00225913430626401,-0.06203261371560109
221,0.2116,440.605,50.3529,1.27181,152.937,-70.0799,-8.83678,0.0917795,-0.0248248,-0.0643369,0.0667179,0.01836,-0.00227644,0.104943,0.09612310028835513,0.06899387246369293,0.01852958104617297,-0.024519198705617362,-0.002273850875498029,-0.062310961127051145
222,0.2126,441.044,50.4105,1.2793,153.105,-70.2866,-8.85986,0.092187,-0.024933,-0.0646336,0.067036,0.0184067,-0.00229121,0.105448,0.09656986147313185,0.06933397350472625,0.018577147488275436,-0.024624740018429403,-0.0022885871818927317,-0.06258913219616602
223,0.2136,441.482,50.4678,1.28678,153.271,-70.4925,-8.88284,0.0925943,-0.0250411,-0.0649302,0.067354,0.0184531,-0.00230599,0.105953,0.09701658534685098,0.06967407578169671,0.018624410564413774,-0.02473017238531139,-0.0023033332476004587,-0.0628671270308846
224,0.2146,441.92,50.5248,1.29425,153.437,-70.6975,-8.90571,0.0930015,-0.0251491,-0.0652266,0.0676718,0.0184992,-0.00232078,0.106458,0.09746338146191946,0.07001407222555356,0.018671370232152817,-0.02483549583912481,-0.002318089072182117,-0.06314485205355103
225,0.2156,442.356,50.5815,1.30171,153.603,-70.9016,-8.92849,0.0934084,-0.0252571,-0.0655229,0.0679894,0.018545,-0.00233559,0.106963,0.09791003017635491,0.0703539626666374,0.01871802644932874,-0.024940807918619523,-0.0023328646318696578,-0.06342240111296382
226,0.2166,442.791,50.6378,1.30916,153.768,-71.1049,-8.95117,0.0938152,-0.0253651,-0.0658191,0.068307,0.0185905,-0.00235042,0.107468,0.09835675083345174,0.07069396107406956,0.018764379174048607,-0.025046108625023877,-0.002347659925779788,-0.06369977431675478
227,0.2176,443.225,50.6939,1.3166,153.932,-71.3074,-8.97375,0.0942218,-0.025473,-0.0661151,0.0686244,0.0186356,-0.00236526,0.107973,0.09880343349277121,0.07103385327535316,0.01881032648365344,-0.025151300474700933,-0.0023624649766528227,-0.06397687817016351
228,0.2186,443.658,50.7497,1.32402,154.095,-71.5091,-8.99623,0.0946282,-0.0255809,-0.066411,0.0689416,0.0186805,-0.00238012,0.108477,0.09925007796015106,0.07137363910079508,0.018856072094293852,-0.025256480974789608,-0.0023772897602748477,-0.0642538064383551
229,0.2196,444.091,50.8052,1.33143,154.257,-71.7099,-9.01861,0.0950344,-0.0256887,-0.0667067,0.0692587,0.0187252,-0.002395,0.108981,0.09969668404137288,0.07171342555204863,0.01890161597861484,-0.025361552662674813,-0.002392134275759683,-0.06453046568170628
230,0.2206,444.522,50.8604,1.33883,154.419,-71.9099,-9.04089,0.0954404,-0.0257965,-0.0670023,0.0695757,0.0187695,-0.00240988,0.109485,0.10014325154216208,0.07205321256134423,0.018946754320009473,-0.02546661302444253,-0.0024069785703598745,-0.0648069496097129
231,0.2216,444.952,50.9153,1.34622,154.581,-72.1091,-9.06308,0.0958463,-0.0259043,-0.0672978,0.0698925,0.0188135,-0.00242479,0.109989,0.10058989032717247,0.072392892821596,0.018991588963554573,-0.02557166206131367,-0.002421852571423466,-0.06508325832947925
232,0.2226,445.381,50.9699,1.3536,154.741,-72.3075,-9.08517,0.096252,-0.026012,-0.0675931,0.0702092,0.0188572,-0.00243971,0.110493,0.10103649023234329,0.07273257343633865,0.019036119868985457,-0.02567660234217417,-0.0024367363263499975,-0.06535929848395983
233,0.2236,445.809,51.0243,1.36096,154.901,-72.5051,-9.10717,0.0966574,-0.0261197,-0.0678883,0.0705257,0.0189006,-0.00245464,0.110997,0.10148294091492227,0.07307214703051801,0.01908034699630945,-0.025781531321574902,-0.0024516298346962673,-0.0656351636993383
234,0.2246,446.236,51.0783,1.36831,155.061,-72.7019,-9.12907,0.0970627,-0.0262273,-0.0681834,0.0708421,0.0189438,-0.00246959,0.1115,0.10192946243234835,0.07341172077557201,0.019124372218237706,-0.025886351589373136,-0.002466543071353522,-0.06591085408241393
235,0.2256,446.663,51.1321,1.37565,155.219,-72.8979,-9.15088,0.0974679,-0.0263349,-0.0684783,0.0711584,0.0189867,-0.00248455,0.112003,0.10237605472401379,0.07375129460362317,0.019168093591622526,-0.025991160579117434,-0.002481466060245019,-0.06618627635853436
236,0.2266,447.088,51.1856,1.38298,155.377,-73.0931,-9.1726,0.0978728,-0.0264425,-0.0687731,0.0714745,0.0190292,-0.00249953,0.112507,0.10282249716474423,0.07409076103769063,0.019211409156049353,-0.02609595829202105,-0.0024964087759621334,-0.06646152407075767
237,0.2276,447.512,51.2389,1.39029,155.535,-73.2875,-9.19423,0.0982776,-0.02655,-0.0690677,0.0717904,0.0190715,-0.00251452,0.11301,0.10326901007971334,0.07443011990801396,0.019254522710501876,-0.026200647349367,-0.0025113612427255516,-0.06673650399923414
238,0.2286,447.936,51.2918,1.3976,155.691,-73.4812,-9.21576,0.0986821,-0.0266575,-0.0693622,0.0721062,0.0191135,-0.00252952,0.113512,0.10371537266503728,0.07476947852178562,0.019297332299450742,-0.02630532515324413,-0.002526323460090074,-0.06701130963169089
239,0.2296,448.358,51.3445,1.40488,155.848,-73.674,-9.2372,0.0990865,-0.026765,-0.0696566,0.0724219,0.0191553,-0.00254454,0.114015,0.10416180542436293,0.07510883681104241,0.01933993981843196,-0.026409991704862246,-0.0025413054021969916,-0.06728594107440333
240,0.2306,448.779,51.397,1.41216,156.003,-73.8661,-9.25855,0.0994907,-0.0268724,-0.0699508,0.0727374,0.0191967,-0.00255958,0.114517,0.10460819783594433,0.07544808716298523,0.019382141365506422,-0.026514549656890596,-0.0025563070681509092,-0.06756030518959899
241,0.2316,449.2,51.4491,1.41942,156.158,-74.0574,-9.27981,0.0998948,-0.0269798,-0.0702449,0.0730528,0.0192379,-0.00257462,0.11502,0.10505466021033705,0.07578733698656137,0.0194241407749125,-0.02661909637999793,-0.002571308508481529,-0.06783449538219855
242,0.2326,449.619,51.5011,1.42667,156.312,-74.248,-9.30098,0.100299,-0.0270871,-0.0705389,0.073368,0.0192788,-0.00258968,0.115522,0.1055014135867689,0.07612647860109001,0.01946583607493335,-0.02672353454774845,-0.00258632967146577,-0.06810851175817523
243,0.2336,450.038,51.5527,1.43391,156.466,-74.4378,-9.32207,0.100702,-0.0271944,-0.0708327,0.073683,0.0193194,-0.00260476,0.116024,0.10594702044019444,0.07646551183678052,0.01950722722811271,-0.026827961509884757,-0.0026013705562057954,-0.06838226126164948
244,0.2346,450.456,51.6041,1.44113,156.619,-74.6268,-9.34306,0.101106,-0.0273017,-0.0711264,0.073998,0.0193598,-0.00261984,0.116526,0.10639391330273229,0.07680465188476249,0.019548416152103343,-0.02693237726760922,-0.0026164112141309204,-0.06865583721492163
245,0.2356,450.872,51.6553,1.44834,156.772,-74.8151,-9.36397,0.101509,-0.027409,-0.07142,0.0743127,0.0193998,-0.00263494,0.117027,0.10683987990602795,0.07714357563556562,0.01958919890439903,-0.02703678182212388,-0.002631471592615453,-0.06892923972366305
246,0.2366,451.288,51.7062,1.45554,156.924,-75.0026,-9.38479,0.101912,-0.0275161,-0.0717134,0.0746273,0.0194397,-0.00265006,0.117529,0.10728602627008432,0.07748249831420262,0.019629881325044174,-0.02714098060284642,-0.0026465516907591136,-0.06920237581370436
247,0.2376,451.703,51.7568,1.46273,157.075,-75.1894,-9.40553,0.102315,-0.0276233,-0.0720067,0.0749418,0.0194792,-0.00266518,0.11803,0.10773235246735924,0.07782141985254087,0.019670157500805807,-0.02724526549995543,-0.002661631560893496,-0.06947533872491052
248,0.2386,452.117,51.8073,1.46991,157.226,-75.3755,-9.42619,0.102718,-0.0277304,-0.0722998,0.0752561,0.0195185,-0.00268032,0.118531,0.10817885857034026,0.07816023236639791,0.01971023132544114,-0.027349441953271714,-0.00267673114948741,-0.06974803553746012
249,0.2396,452.53,51.8574,1.47705,157.376,-75.5608,-9.44674,0.103121,-0.0278375,-0.0725928,0.0755703,0.0195575,-0.00269548,0.119032,0.10862554465154406,0.0784990435358548,0.019750000799962475,-0.027453607249887324,-0.002691850455638578,-0.07002055943634677
250,0.2406,452.942,51.9073,1.4842,157.525,-75.7453,-9.46722,0.103523,-0.0279446,-0.0728857,0.0758843,0.0195962,-0.00271064,0.119533,0.10907130171166002,0.07883774540893618,0.019789465888637947,-0.02755776139099697,-0.002706969532582759,-0.0702929105267236
251,0.2416,453.354,51.957,1.49133,157.674,-75.9292,-9.48762,0.103925,-0.0280516,-0.0731785,0.0761982,0.0196347,-0.00272582,0.120034,0.1095172380021372,0.07917644573345495,0.01982872853887585,-0.027661807143981143,-0.0027221083258816003,-0.07056508891366098
252,0.2426,453.764,52.0065,1.49845,157.823,-76.1123,-9.50793,0.104327,-0.0281586,-0.0734711,0.0765119,0.0196729,-0.00274101,0.120534,0.10996335359504039,0.07951503648966507,0.019867686740403068,-0.027765841764665233,-0.002737256862002657,-0.07083700178585173
253,0.2436,454.173,52.0557,1.50555,157.971,-76.2947,-9.52816,0.104729,-0.0282655,-0.0737635,0.0768255,0.0197108,-0.00275621,0.121035,0.11040964856246371,0.07985362549308905,0.019906340458213823,-0.02786976804122221,-0.002752415140495179,-0.07110864932972316
254,0.2446,454.582,52.1047,1.51264,158.118,-76.4764,-9.5483,0.105131,-0.0283724,-0.0740559,0.0771389,0.0197485,-0.00277143,0.121535,0.11085612297653036,0.08019210465623283,0.01994479165204943,-0.0279736832086539,-0.002767593133231938,-0.0713802174554643
255,0.2456,454.99,52.1534,1.51972,158.265,-76.6574,-9.56837,0.105533,-0.0284793,-0.0743481,0.0774521,0.019786,-0.00278665,0.122035,0.11130277690939239,0.08053047380925471,0.019983040298894084,-0.02807758726814802,-0.0027827708949613728,-0.07165152051661616
256,0.2466,455.396,52.202,1.52678,158.411,-76.8377,-9.58836,0.105934,-0.0285862,-0.0746402,0.0777652,0.0198231,-0.00280189,0.122535,0.11174849868417613,0.08086884086920332,0.020020882371655224,-0.02818148022089173,-0.002797968369727899,-0.07192265150686439
257,0.2476,455.802,52.2503,1.53383,158.557,-77.0173,-9.60826,0.106335,-0.028693,-0.0749321,0.0780782,0.0198601,-0.00281714,0.123034,0.11219439922923269,0.08120720576773954,0.020058623842516,-0.028285264896603768,-0.0028131755847549123,-0.07219351775003813
258,0.2486,456.207,52.2984,1.54086,158.702,-77.1962,-9.62808,0.106736,-0.0287997,-0.0752239,0.078391,0.0198967,-0.00283241,0.123534,0.11264047861626314,0.08154546028195164,0.020095958671371816,-0.02838894132760339,-0.002828402511305894,-0.07246421218531973
259,0.2496,456.612,52.3462,1.54789,158.847,-77.3744,-9.64783,0.107137,-0.0289065,-0.0755156,0.0787036,0.0199331,-0.00284768,0.124033,0.11308673691699767,0.08188360424198327,0.020133090840068757,-0.028492703847652456,-0.002843629205343423,-0.07273473491696669
260,0.2506,457.015,52.3939,1.55489,158.991,-77.5518,-9.66749,0.107538,-0.0290132,-0.0758071,0.0790161,0.0199693,-0.00286297,0.124532,0.11353317420319509,0.08222174570015994,0.020170020326376825,-0.028596358146096734,-0.0028588756096937784,-0.07300499334965815
261,0.2516,457.417,52.4413,1.56188,159.135,-77.7286,-9.68707,0.107938,-0.0291198,-0.0760985,0.0793284,0.0200052,-0.00287826,0.125031,0.11397867656740912,0.08255977633207778,0.020206645087517128,-0.028699904255212627,-0.002874121780928496,-0.07327508034101016
262,0.2526,457.819,52.4885,1.56886,159.278,-77.9048,-9.70658,0.108338,-0.0292265,-0.0763898,0.0796406,0.0200409,-0.00289357,0.12553,0.11442435716821397,0.08289780425766224,0.020243067114876112,-0.02880353644655287,-0.002889387661263343,-0.07354499599498321
263,0.2536,458.223,52.5366,1.57807,159.42,-78.0796,-9.72551,0.108739,-0.0293329,-0.0766809,0.0799529,0.0200762,-0.00290926,0.126029,0.11487133094769164,0.08323604605563961,0.020279082330810105,-0.02890686625303185,-0.0029050322040392595,-0.07381464779692515
264,0.2546,458.623,52.5804,1.58213,159.561,-78.2528,-9.74395,0.109138,-0.0294394,-0.0769719,0.080265,0.0201114,-0.00292494,0.126528,0.11531625336485929,0.0835741767881697,0.02031499678659876,-0.029010282164780854,-0.002920666530560778,-0.07408412852306889
265,0.2556,459.025,52.6272,1.58998,159.702,-78.4262,-9.76256,0.109538,-0.0295458,-0.0772628,0.080577,0.0201463,-0.00294063,0.127027,0.11576246910340338,0.08391230467653532,0.020350606401370763,-0.029113589974685494,-0.0029363105825750413,-0.07435343827707874
266,0.2566,459.424,52.6724,1.59632,159.842,-78.5985,-9.78107,0.109938,-0.0296522,-0.0775535,0.0808888,0.0201809,-0.00295633,0.127525,0.11620886336394487,0.08425032122717524,0.020385911143120827,-0.029216886793223984,-0.0029519643596164213,-0.07462248462479026
267,0.2576,459.824,52.7181,1.60344,159.982,-78.7704,-9.79955,0.110337,-0.0297585,-0.0778441,0.0812004,0.0202153,-0.00297203,0.128024,0.11665431956302919,0.08458822627014118,0.020421013022212886,-0.029320075553578073,-0.002967617890895391,-0.0748913602612361
268,0.2586,460.222,52.7634,1.61018,160.121,-78.9416,-9.81795,0.110736,-0.0298648,-0.0781345,0.0815119,0.0202495,-0.00298773,0.128522,0.11709995353460001,0.0849261281281064,0.020455912017627753,-0.02942325334554996,-0.002983271176415947,-0.07515997280578701
269,0.2596,460.619,52.8086,1.61709,160.26,-79.1122,-9.8363,0.111135,-0.0299711,-0.0784249,0.0818232,0.0202834,-0.00300343,0.12902,0.11754576534960282,0.08526391820609058,0.02049050605941094,-0.02952642017030549,-0.002998924216181753,-0.07542850735658035
270,0.2606,461.016,52.8536,1.6239,160.398,-79.2821,-9.85459,0.111534,-0.0300773,-0.078715,0.0821343,0.0203171,-0.00301914,0.129518,0.1179917550790115,0.08560159633415387,0.020524897168952005,-0.02962947899196311,-0.0030145869800509706,-0.07569668664530949
271,0.2616,461.411,52.8984,1.63073,160.536,-79.4514,-9.87282,0.111933,-0.0301836,-0.0790051,0.0824453,0.0203506,-0.00303486,0.130015,0.11843792279382792,0.08593927093629272,0.020559085325655646,-0.029732623896097432,-0.003030259467557639,-0.07596478814651075
272,0.2626,461.806,52.943,1.63754,160.673,-79.6201,-9.891,0.112332,-0.0302898,-0.079295,0.0827561,0.0203838,-0.00305058,0.130513,0.11888426856508261,0.0862768333161763,0.02059296844974523,-0.029835660820082155,-0.0030459317086946047,-0.07623262712929069
273,0.2636,462.2,52.9875,1.64433,160.81,-79.7882,-9.90911,0.11273,-0.0303959,-0.0795848,0.0830668,0.0204167,-0.0030663,0.13101,0.1193296731336011,0.08661439196530818,0.020626546510763122,-0.0299385897959904,-0.003061603703465976,-0.07650029612683751
274,0.2646,462.593,53.0317,1.65111,160.947,-79.9556,-9.92716,0.113128,-0.0305021,-0.0798745,0.0833773,0.0204495,-0.00308203,0.131507,0.11977525500841946,0.08695183811981777,0.020660023610510114,-0.030041604847558023,-0.003077285421102638,-0.076767795241932
275,0.2656,462.985,53.0758,1.65788,161.083,-80.1224,-9.94516,0.113526,-0.0306082,-0.080164,0.0836876,0.020482,-0.00309776,0.132004,0.12022101426011989,0.08728917160977057,0.020693195600319347,-0.030144511973964172,-0.00309296689206795,-0.07703503228078157
276,0.2666,463.377,53.1197,1.66463,161.219,-80.2887,-9.96309,0.113924,-0.0307142,-0.0804534,0.0839977,0.0205143,-0.00311349,0.132501,0.1206669509593119,0.08762639226524715,0.020726164522982593,-0.030247311207239225,-0.0031086481163655755,-0.07730209969592061
277,0.2676,463.767,53.1635,1.67137,161.354,-80.4543,-9.98097,0.114322,-0.0308203,-0.0807427,0.0843077,0.0205463,-0.00312923,0.132998,0.12111306517663412,0.08796360871269826,0.020758828282864572,-0.03035019650935844,-0.0031243390627561096,-0.07756899758983671
278,0.2686,464.157,53.207,1.6781,161.489,-80.6193,-9.99879,0.114719,-0.0309263,-0.0810318,0.0846176,0.0205782,-0.00314498,0.133494,0.12155823542395638,0.08830082088336533,0.020791391008859517,-0.030452973941228256,-0.0031400397307728145,-0.07783563384850523
279,0.2696,464.545,53.2504,1.68481,161.623,-80.7836,-10.0166,0.115117,-0.0310322,-0.0813208,0.0849272,0.0206098,-0.00316073,0.13399,0.12200470444309652,0.08863781098088608,0.020823648526481664,-0.030555643534836974,-0.0031557401515058814,-0.0781021008439875
280,0.2706,464.933,53.2937,1.69151,161.757,-80.9474,-10.0343,0.115514,-0.0311382,-0.0816097,0.0852367,0.0206411,-0.00317648,0.134487,0.12245022874148215,0.08897479652920826,0.0208556008067311,-0.030658399190476304,-0.003171440324959307,-0.07836839867847933
281,0.2716,465.321,53.3367,1.69819,161.89,-81.1106,-10.0519,0.115911,-0.0312441,-0.0818985,0.0855461,0.0206723,-0.00319224,0.134983,0.12289592994812804,0.08931177745951624,0.02088745199835218,-0.030761047030702926,-0.003187150219265522,-0.07863452745409605
282,0.2726,465.707,53.3796,1.70486,162.023,-81.2732,-10.0695,0.116308,-0.03135,-0.0821871,0.0858552,0.0207032,-0.003208,0.135478,0.1233418081332811,0.08964853577324505,0.02091899790800067,-0.030863684001098957,-0.0032028598659856744,-0.07890039516291714
283,0.2736,466.092,53.4224,1.71152,162.156,-81.4352,-10.087,0.116704,-0.0314559,-0.0824755,0.0861642,0.0207339,-0.00322377,0.135974,0.12378673957991393,0.08998528919652338,0.020950340602344353,-0.030966310102815253,-0.0032185792329381124,-0.07916600198660717
284,0.2746,466.477,53.4649,1.71816,162.288,-81.5967,-10.1045,0.117101,-0.0315617,-0.0827639,0.0864731,0.0207644,-0.00323954,0.136469,0.12423297148669987,0.09032203766047875,0.02098148006260714,-0.031068828443890473,-0.003234298351998066,-0.07943153222033406
285,0.2756,466.861,53.5073,1.72478,162.42,-81.7575,-10.1219,0.117497,-0.0316675,-0.0830521,0.0867818,0.0207947,-0.00325532,0.136964,0.12467825590390413,0.09065867203034639,0.02101241627013417,-0.031171335939098932,-0.003250027190669136,-0.07969680182556194
286,0.2766,467.244,53.5496,1.7314,162.551,-81.9177,-10.1393,0.117893,-0.0317732,-0.0833402,0.0870903,0.0208247,-0.0032711,0.137459,0.12512371668865607,0.09099519213622509,0.0210430471020826,-0.031273735716966566,-0.0032657557811411886,-0.0799619029873
287,0.2776,467.626,53.5916,1.738,162.682,-82.0774,-10.1566,0.118289,-0.031879,-0.0836282,0.0873986,0.0208545,-0.00328689,0.137954,0.12556935391081137,0.0913315978082303,0.021073474638254153,-0.03137622153413244,-0.0032814940906030765,-0.08022683580708245
288,0.2786,468.008,53.6336,1.74458,162.813,-82.2365,-10.1738,0.118685,-0.0319847,-0.083916,0.0877068,0.0208841,-0.00330268,0.138449,0.12601516764025256,0.0916679980432884,0.02110369886041985,-0.03147859965673716,-0.003297232151559082,-0.080491508435519
289,0.2796,468.388,53.6753,1.75115,162.943,-82.395,-10.191,0.119081,-0.0320904,-0.0842037,0.0880148,0.0209135,-0.00331848,0.138944,0.1264611579468906,0.09200428357199852,0.02113371975047129,-0.031580966958546286,-0.0033129799308833086,-0.08075601297773927
290,0.2806,468.768,53.7169,1.75771,163.073,-82.553,-10.2082,0.119476,-0.032196,-0.0844913,0.0883227,0.0209427,-0.00333428,0.139438,0.12690619799390235,0.09234056345854236,0.021163537290421974,-0.03168322660903089,-0.003328727461394565,-0.08102034953498793
291,0.2816,469.147,53.7584,1.76425,163.202,-82.7104,-10.2253,0.119872,-0.0323016,-0.0847787,0.0886304,0.0209717,-0.00335008,0.139932,0.12735254121843376,0.0926767283662373,0.021193151462406634,-0.031785475461466484,-0.003344474743096848,-0.08128442633687749
292,0.2826,469.526,53.7997,1.77078,163.331,-82.8672,-10.2423,0.120267,-0.0324072,-0.085066,0.0889379,0.0210004,-0.00336589,0.140426,0.1277979334313859,0.09301277812521236,0.02122246012643103,-0.03188771351699349,-0.0033602317423917505,-0.08154833540883744
293,0.2836,469.903,53.8408,1.77729,163.46,-83.0234,-10.2593,0.120662,-0.0325128,-0.0853532,0.0892453,0.0210289,-0.00338171,0.14092,0.1282435016090131,0.0933488219004901,0.02125156538129258,-0.03198994077675177,-0.0033759984588105363,-0.0818120768518239
294,0.2846,470.28,53.8818,1.78379,163.588,-83.1791,-10.2762,0.121057,-0.0326183,-0.0856402,0.0895525,0.0210573,-0.00339753,0.141414,0.12868924582083485,0.09368475025453127,0.021280569337603472,-0.03209206045109225,-0.0033917649258018434,-0.08207555897427432
295,0.2856,470.656,53.9226,1.79027,163.716,-83.3343,-10.293,0.121452,-0.0327238,-0.0859271,0.0898596,0.0210854,-0.00341336,0.141907,0.12913516613639864,0.0940206724195427,0.021309267724812342,-0.0321941693523754,-0.0034075411092943098,-0.0823388737220978
296,0.2866,471.031,53.9633,1.79674,163.843,-83.4889,-10.3098,0.121846,-0.0328292,-0.0862139,0.0901664,0.0211133,-0.00342919,0.1424,0.12958013304458094,0.09435636945513304,0.021337762650884384,-0.032296170711359595,-0.0034233170430516546,-0.08260202119596283
297,0.2876,471.405,54.0038,1.8032,163.971,-83.6429,-10.3266,0.122241,-0.0329347,-0.0865006,0.0904731,0.021141,-0.00344502,0.142893,0.13002640533010745,0.0946920600291632,0.02136605409874459,-0.03239825808014618,-0.003439092727077986,-0.08286500149645848
298,0.2886,471.779,54.0442,1.80964,164.097,-83.7964,-10.3433,0.122635,-0.0330401,-0.0867871,0.0907797,0.0211685,-0.00346086,0.143386,0.13047172345571756,0.09502774407250225,0.021394142051439857,-0.032500237929312115,-0.0034548781268285422,-0.0831277230368721
299,0.2896,472.152,54.0845,1.81607,164.224,-83.9493,-10.3599,0.123029,-0.0331454,-0.0870735,0.0910861,0.0211958,-0.00347671,0.143879,0.13091721707123827,0.09536331197966419,0.021422026492138757,-0.03260211029058413,-0.0034706732418335884,-0.08339027765737794
300,0.2906,472.524,54.1245,1.82248,164.349,-84.1017,-10.3765,0.123423,-0.0332508,-0.0873598,0.0913923,0.0212229,-0.00349255,0.144372,0.13136288624582648,0.09569876358081153,0.021449707404131324,-0.03270406865485931,-0.003486458141352733,-0.08365266545827865
301,0.2916,472.896,54.1645,1.82888,164.475,-84.2536,-10.3931,0.123816,-0.0333561,-0.0876459,0.0916984,0.0212498,-0.00350841,0.144864,0.13180759924050078,0.09603420830954024,0.021477184770829272,-0.03280591955388601,-0.003502262720795901,-0.08391479493128196
302,0.2926,473.266,54.2043,1.83526,164.6,-84.4049,-10.4096,0.12421,-0.0334614,-0.087932,0.0920043,0.0212764,-0.00352427,0.145356,0.1322536192947823,0.09636953645968793,0.021504356425325666,-0.032907759728577735,-0.0035180670495804645,-0.08417684941977
303,0.2936,473.636,54.244,1.84163,164.725,-84.5557,-10.426,0.124603,-0.0335666,-0.0882178,0.09231,0.0213029,-0.00354013,0.145849,0.1326986824163403,0.09670474786143579,0.021531426649449736,-0.0330094924810177,-0.0035338711277104196,-0.08443855427680047
304,0.2946,474.005,54.2835,1.84799,164.849,-84.706,-10.4424,0.124997,-0.0336719,-0.0885036,0.0926156,0.0213292,-0.003556,0.14634,0.13314505362656637,0.09703995204897331,0.021558293279265284,-0.03311131122060873,-0.003549684919692875,-0.08470018434926996
305,0.2956,474.374,54.3229,1.85433,164.974,-84.8557,-10.4587,0.12539,-0.0337771,-0.0887892,0.092921,0.0213553,-0.00357188,0.146832,0.13359046715066625,0.09737503921553503,0.021584956298670743,-0.033213022560558025,-0.0035655084250573177,-0.08496155665087846
306,0.2966,474.741,54.3621,1.86066,165.097,-85.0049,-10.475,0.125782,-0.0338822,-0.0890747,0.0932262,0.0213812,-0.00358775,0.147324,0.1340349217211938,0.09771000919132167,0.021611415691686675,-0.03331462653250461,-0.0035813217149598398,-0.0852227628374973
307,0.2976,475.108,54.4012,1.86697,165.221,-85.1536,-10.4912,0.126175,-0.0339874,-0.0893601,0.0935313,0.0214069,-0.00360364,0.147815,0.13448068503218336,0.09804497161104475,0.021637671442454876,-0.03341631648480814,-0.0035971546819645317,-0.08548380300877911
308,0.2986,475.474,54.4402,1.87327,165.344,-85.3018,-10.5074,0.126568,-0.0340925,-0.0896453,0.0938362,0.0214324,-0.00361953,0.148306,0.13492662356258278,0.09837981656740857,0.021663723535239487,-0.03351789909168612,-0.00361298739738547,-0.08574458583876177
309,0.2996,475.84,54.479,1.87955,165.466,-85.4495,-10.5235,0.12696,-0.0341975,-0.0899305,0.094141,0.0214577,-0.00363542,0.148797,0.1353716020090967,0.09871465376209443,0.02168957195442589,-0.03361937438473539,-0.003628819861226429,-0.08600529430408632
310,0.3006,476.204,54.5177,1.88582,165.589,-85.5966,-10.5395,0.127352,-0.0343026,-0.0902155,0.0944456,0.0214828,-0.00365132,0.149288,0.1358167549213547,0.09904937322081597,0.021715216684522032,-0.03372093565134948,-0.0036446620370449434,-0.0862657456791257
311,0.3016,476.568,54.5562,1.89208,165.711,-85.7432,-10.5556,0.127744,-0.0344076,-0.0905003,0.09475,0.0215077,-0.00366722,0.149779,0.13626208236776072,0.09938397477379701,0.021740657710156874,-0.03382238962667916,-0.003660503960974948,-0.08652594014130621
312,0.3026,476.932,54.5947,1.89832,165.832,-85.8893,-10.5715,0.128136,-0.0345126,-0.0907851,0.0950543,0.0215324,-0.00368313,0.150269,0.1367075844167458,0.0997185682231323,0.021765895016081727,-0.033923832949900645,-0.0036763555962568972,-0.08678606051065507
313,0.3036,477.294,54.633,1.90455,165.953,-86.035,-10.5874,0.128528,-0.0346175,-0.0910697,0.0953584,0.0215569,-0.00369904,0.15076,0.13715326113676718,0.10005304349411626,0.0217909285871698,-0.034025169024654245,-0.0036922069793412504,-0.08704592421747426
314,0.3046,477.656,54.6711,1.91076,166.074,-86.1801,-10.6033,0.12892,-0.0347225,-0.0913541,0.0956623,0.0215813,-0.00371496,0.15125,0.13759911259630964,0.10038740041699512,0.021815860589996516,-0.03412659105715676,-0.0037080680731514937,-0.0873055314387301
315,0.3056,478.017,54.7092,1.91696,166.195,-86.3247,-10.6191,0.129311,-0.0348273,-0.0916385,0.0959661,0.0216054,-0.00373088,0.15174,0.13804400081931445,0.10072174889420404,0.021840486648979418,-0.034227809286486055,-0.0037239289144551657,-0.08756506483819027
316,0.3066,478.378,54.7471,1.92314,166.315,-86.4688,-10.6349,0.129702,-0.0349322,-0.0919227,0.0962697,0.0216294,-0.00374681,0.15223,0.13848906302762654,0.10105597875069328,0.021865011114951427,-0.03432911347579426,-0.003739799465858229,-0.08782434200173317
317,0.3076,478.738,54.7848,1.92931,166.435,-86.6124,-10.6506,0.130094,-0.035037,-0.0922068,0.0965732,0.0216532,-0.00376274,0.152719,0.13893543822415588,0.1013901999557465,0.021889331791630884,-0.03443031048188627,-0.003755669764445524,-0.08808345429752606
318,0.3086,479.097,54.8225,1.93547,166.555,-86.7555,-10.6662,0.130485,-0.0351419,-0.0924908,0.0968765,0.0216767,-0.00377868,0.153209,0.1393808490526438,0.10172430226744744,0.021913346473099393,-0.03453159342993328,-0.003771549772505489,-0.08834240182421627
319,0.3096,479.455,54.86,1.94161,166.674,-86.8981,-10.6819,0.130875,-0.0352466,-0.0927746,0.0971796,0.0217001,-0.00379462,0.153698,0.1398252942449536,0.10205828551606921,0.021937259525188546,-0.03463267268051007,-0.003787429527440045,-0.08860109354048773
320,0.3106,479.813,54.8974,1.94773,166.793,-87.0403,-10.6974,0.131266,-0.0353514,-0.0930584,0.0974826,0.0217234,-0.00381056,0.154187,0.14027105307517562,0.1023922597711251,0.021961070940737404,-0.034733837875264295,-0.00380330902925341,-0.08885971185046693
321,0.3116,480.169,54.9347,1.95385,166.911,-87.1819,-10.7129,0.131656,-0.0354561,-0.093342,0.0977854,0.0217464,-0.00382651,0.154676,0.1407158455147628,0.10272611469046766,0.02198457631567985,-0.0348348959519561,-0.0038191982397576263,-0.08911807459861676
322,0.3126,480.526,54.9718,1.95995,167.03,-87.3231,-10.7284,0.132047,-0.0355608,-0.0936254,0.0980881,0.0217693,-0.00384247,0.155165,0.14116195261861453,0.10305996041038501,0.022007980030448904,-0.034935943448421214,-0.003835097158480072,-0.08937618196073482
323,0.3136,480.881,55.0088,1.96603,167.148,-87.4638,-10.7438,0.132437,-0.0356654,-0.0939088,0.0983905,0.0217919,-0.00385843,0.155654,0.1416070925767854,0.1033935761825755,0.022031077671800015,-0.03503688386946047,-0.0038509958234577146,-0.08963421618559053
324,0.3146,481.236,55.0457,1.9721,167.265,-87.604,-10.7592,0.132827,-0.0357701,-0.094192,0.0986929,0.0218144,-0.00387439,0.156142,0.14205240617339743,0.10372729285543092,0.022054073629751203,-0.03513791021889767,-0.003866894234694662,-0.08989199527232516
325,0.3156,481.59,55.0825,1.97816,167.383,-87.7437,-10.7745,0.133217,-0.0358747,-0.0944751,0.098995,0.0218368,-0.00389036,0.15663,0.14249789347618247,0.10406077924118495,0.02207696789741531,-0.03523882951531754,-0.003882802353367132,-0.0901496103813243
326,0.3166,481.944,55.1192,1.9842,167.5,-87.883,-10.7898,0.133606,-0.0359792,-0.094758,0.099297,0.0218589,-0.00390634,0.157118,0.14294241160991628,0.10439425594896412,0.022099556048003954,-0.035339641790100074,-0.0038987201790017245,-0.09040697065122083
327,0.3176,482.297,55.1557,1.99022,167.616,-88.0218,-10.805,0.133996,-0.0360838,-0.0950409,0.0995989,0.0218808,-0.00392232,0.157606,0.14338824608251555,0.1047277229091399,0.022121940273387874,-0.03544053998650121,-0.003914637750271566,-0.09066425812419465
328,0.3186,482.649,55.1921,1.99624,167.733,-88.1601,-10.8202,0.134385,-0.0361883,-0.0953236,0.0999006,0.0219026,-0.0039383,0.158094,0.1438331106307864,0.10506106954595329,0.02214422277456407,-0.03554133118364078,-0.003930555067180541,-0.09092129100511337
329,0.3196,483.0,55.2284,2.00224,167.849,-88.2979,-10.8353,0.134774,-0.0362927,-0.0956062,0.100202,0.0219242,-0.00395429,0.158581,0.14427814826502972,0.10539418515031418,0.022166301328223614,-0.03564201541285705,-0.003946482090268155,-0.0911781603509273
330,0.3206,483.351,55.2646,2.00822,167.964,-88.4353,-10.8504,0.135163,-0.0363972,-0.0958886,0.100503,0.0219457,-0.00397028,0.159069,0.14472335905258893,0.1057269588799783,0.022188278139952056,-0.03574278555691468,-0.003962408858684707,-0.0914347754026934
331,0.3216,483.701,55.3007,2.01419,168.08,-88.5723,-10.8654,0.135552,-0.0365016,-0.096171,0.100805,0.0219669,-0.00398628,0.159556,0.1451687430608335,0.10606093884999712,0.02220994876115645,-0.03584344875539214,-0.0039783453326508456,-0.09169131799660046
332,0.3226,484.051,55.3367,2.02015,168.195,-88.7087,-10.8804,0.135941,-0.036606,-0.0964532,0.101106,0.021988,-0.00400228,0.160043,0.14561430035715994,0.10639391330273229,0.02223151761862585,-0.03594410144518023,-0.0039942815516353924,-0.09194760654264722
333,0.3236,484.4,55.3725,2.02609,168.31,-88.8447,-10.8953,0.136329,-0.0367104,-0.0967353,0.101407,0.0220089,-0.00401829,0.16053,0.1460588849495319,0.106726987995863,0.022252882480606084,-0.036044743627375975,-0.004010227475540251,-0.09220373199464793
334,0.3246,484.748,55.4082,2.03202,168.424,-88.9803,-10.9102,0.136718,-0.0368147,-0.0970172,0.101707,0.0220297,-0.0040343,0.161017,0.1465047885784101,0.10705905589995668,0.022274145561697045,-0.036145278917609214,-0.004026173144152989,-0.09245960369578787
335,0.3256,485.095,55.4439,2.03793,168.538,-89.1154,-10.9251,0.137106,-0.036919,-0.0972991,0.102008,0.0220502,-0.00405031,0.161503,0.1469497187472495,0.10739233083114352,0.02229510239648791,-0.03624580372255837,-0.004042118557477603,-0.09271540327686112
336,0.3266,485.442,55.4794,2.04383,168.652,-89.2501,-10.9399,0.137494,-0.0370232,-0.0975808,0.102308,0.0220706,-0.00406633,0.161989,0.14739482158248962,0.1077245983680315,0.022315957429297262,-0.0363462216779441,-0.00405807367493749,-0.09297094935240335
337,0.3276,485.789,55.5148,2.04972,168.766,-89.3843,-10.9546,0.137882,-0.0371275,-0.0978623,0.102608,0.0220909,-0.00408236,0.162476,0.14784009715113777,0.108056965600134,0.022336710653877656,-0.03644672552565631,-0.00407403849605803,-0.09322624209602126
338,0.3286,486.134,55.55,2.05559,168.879,-89.518,-10.9694,0.13827,-0.0372317,-0.0981438,0.102909,0.0221109,-0.00409839,0.162962,0.14828554552022766,0.10839054094735068,0.022357157592559407,-0.036547122546080946,-0.004090003061264613,-0.09348146298484572
339,0.3296,486.479,55.5852,2.06145,168.992,-89.6514,-10.984,0.138657,-0.0373359,-0.0984251,0.103208,0.0221308,-0.00411442,0.163447,0.14873001802622654,0.10872199926964377,0.022377502702428664,-0.03664750910568104,-0.0041059673705613475,-0.09373643078640548
340,0.3306,486.823,55.6203,2.0673,169.105,-89.7842,-10.9986,0.139045,-0.03744,-0.0987064,0.103508,0.0221506,-0.00413046,0.163933,0.14917581175161088,0.10905466576690426,0.02239774597738986,-0.03674778888033037,-0.004121941382732808,-0.09399132687560952
341,0.3316,487.167,55.6552,2.07313,169.218,-89.9167,-11.0132,0.139432,-0.0375441,-0.0989875,0.103808,0.0221701,-0.0041465,0.164418,0.14962062885731697,0.10938743207908552,0.022417682927821092,-0.03684805821639847,-0.0041379151386831126,-0.09424597012183977
342,0.3326,487.51,55.6901,2.07894,169.33,-90.0487,-11.0278,0.139819,-0.0376482,-0.0992684,0.104107,0.0221895,-0.00416255,0.164904,0.1500656181405573,0.10971918851639284,0.022437518023269654,-0.03694831711497193,-0.004153898596877537,-0.09450036069800338
343,0.3336,487.852,55.7248,2.08474,169.442,-90.1803,-11.0422,0.140206,-0.0377523,-0.0995493,0.104406,0.0222088,-0.0041786,0.165389,0.1505107796679772,0.11005104416370615,0.022457251257792743,-0.037048565577137205,-0.004169881798539499,-0.09475467982588959
344,0.3346,488.194,55.7595,2.09053,169.553,-90.3114,-11.0567,0.140593,-0.0378563,-0.09983,0.104706,0.0222278,-0.00419466,0.165874,0.1509561135062485,0.11038410943424792,0.02247667813012133,-0.03714870731885633,-0.004185874701814529,-0.09500874652733271
345,0.3356,488.535,55.794,2.09631,169.665,-90.4421,-11.0711,0.14098,-0.0379603,-0.100111,0.105005,0.0222468,-0.00421072,0.166359,0.15140161972206778,0.11071616392264083,0.02249610537156399,-0.03724883864637596,-0.004201867348245458,-0.0952630133433977
346,0.3366,488.876,55.8284,2.10207,169.776,-90.5724,-11.0854,0.141366,-0.0380643,-0.100391,0.105303,0.0222655,-0.00422678,0.166843,0.15184614653543616,0.1110472066624082,0.022515226227513896,-0.03734895956077888,-0.004217859737836616,-0.09551630423728164
347,0.3376,489.216,55.8627,2.10781,169.886,-90.7022,-11.0997,0.141752,-0.0381682,-0.100671,0.105602,0.0222841,-0.00424285,0.167328,0.15229084496927503,0.11137945944651628,0.022534245187597612,-0.037448973808050456,-0.004233861828253471,-0.09576952421964324
348,0.3386,489.555,55.897,2.11355,169.997,-90.8317,-11.114,0.142139,-0.0382721,-0.100952,0.105901,0.0223025,-0.00425893,0.167812,0.15273686782613427,0.11171181158906007,0.02255305999080459,-0.03754897766438148,-0.004249873619020184,-0.0960235772872099
349,0.3396,489.893,55.9311,2.11927,170.107,-90.9607,-11.1282,0.142525,-0.038376,-0.101232,0.106199,0.0223208,-0.00427501,0.168296,0.1531819101447569,0.11204315107604512,0.02257177288302481,-0.03764897113085164,-0.004265885152319293,-0.09627665525300078
350,0.3406,490.231,55.9651,2.12497,170.217,-91.0893,-11.1424,0.14291,-0.0384799,-0.101512,0.106497,0.0223389,-0.00429109,0.16878,0.1536259706563261,0.1123745893169108,0.022590281599617512,-0.0377489542085403,-0.004281896428155019,-0.0965296623668811
351,0.3416,490.569,55.999,2.13066,170.327,-91.2174,-11.1565,0.143296,-0.0385837,-0.101792,0.106795,0.0223569,-0.00430718,0.169263,0.15407135623488588,0.11270612634109045,0.02260868839034691,-0.037848830683414714,-0.004297917403552454,-0.09678259864868632
352,0.3426,490.905,56.0328,2.13634,170.436,-91.3452,-11.1706,0.143682,-0.0386875,-0.102071,0.107093,0.0223747,-0.00432327,0.169747,0.15451691376546384,0.11303776217802564,0.02262689098700288,-0.03794869679164914,-0.004313938121174421,-0.09703456115325959
353,0.3436,491.242,56.0665,2.14201,170.545,-91.4725,-11.1847,0.144067,-0.0387913,-0.102351,0.107391,0.0223923,-0.00433937,0.17023,0.15496148835238,0.1133694968571668,0.022644889378669486,-0.03804855253431938,-0.004329968537725382,-0.09728735608319483
354,0.3446,491.577,56.1002,2.14766,170.654,-91.5995,-11.1987,0.144452,-0.038895,-0.10263,0.107688,0.0224098,-0.00435547,0.170714,0.155406234133465,0.1137002167072001,0.022662785820827036,-0.03814830172733652,-0.004345998696188902,-0.09753917778008747
355,0.3456,491.912,56.1337,2.15329,170.762,-91.726,-11.2126,0.144837,-0.0389987,-0.10291,0.107985,0.0224271,-0.00437158,0.171197,0.1558511511746412,0.1140310347956166,0.022680478040059127,-0.03824804057689868,-0.004362038552948477,-0.09779183143714631
356,0.3466,492.246,56.1671,2.15892,170.871,-91.8521,-11.2265,0.145222,-0.0391024,-0.103189,0.108283,0.0224443,-0.00438769,0.171679,0.15629623954185634,0.11436306551410547,0.022698068295557094,-0.03834776908407844,-0.004378078151308085,-0.09804351240504772
357,0.3476,492.58,56.2004,2.16452,170.979,-91.9778,-11.2404,0.145607,-0.039206,-0.103468,0.10858,0.0224614,-0.0044038,0.172162,0.15674149930108383,0.11469408049785512,0.02271555658204938,-0.038447391094692085,-0.004394117491271832,-0.09829512316375377
358,0.3486,492.913,56.2337,2.17012,171.087,-92.1031,-11.2542,0.145992,-0.0393096,-0.103747,0.108877,0.0224782,-0.00441992,0.172645,0.157186930518322,0.11502519380765563,0.02273273834772649,-0.038547002785000006,-0.004410166528742265,-0.09854666373285004
359,0.3496,493.246,56.2668,2.1757,171.194,-92.228,-11.268,0.146376,-0.0394132,-0.104026,0.109173,0.022495,-0.00443605,0.173127,0.15763137562764062,0.11535529011686618,0.022749920402059587,-0.03864660415607135,-0.004426225263242101,-0.09879813413191663
360,0.3506,493.578,56.2998,2.18127,171.301,-92.3525,-11.2818,0.14676,-0.0395167,-0.104305,0.10947,0.0225115,-0.00445218,0.173609,0.15807599143665363,0.11568659983508867,0.022766795914968663,-0.038746099083589836,-0.00444228373871669,-0.09904953438052844
361,0.3516,493.909,56.3328,2.18683,171.408,-92.4767,-11.2955,0.147145,-0.0396203,-0.104583,0.109766,0.022528,-0.00446831,0.174091,0.1585219365322792,0.1160168919494613,0.022783671706326336,-0.038845679829353164,-0.004458341955170142,-0.09929996379866868
362,0.3526,494.24,56.3656,2.19237,171.515,-92.6004,-11.3091,0.147529,-0.0397238,-0.104862,0.110063,0.0225442,-0.00448445,0.174573,0.15896689438234723,0.11634839819261056,0.02280024093601818,-0.038945154153605666,-0.004474409867862517,-0.09955122405633299
363,0.3536,494.57,56.3983,2.19789,171.622,-92.7237,-11.3228,0.147912,-0.0398272,-0.10514,0.110359,0.0225604,-0.0045006,0.175055,0.15941086371759616,0.11667888622829192,0.02281681043413397,-0.03904452208725551,-0.004490487476316085,-0.09980151402412785
364,0.3546,494.9,56.431,2.20341,171.728,-92.8466,-11.3363,0.148296,-0.0399307,-0.105419,0.110655,0.0225764,-0.00451675,0.175536,0.1598561629812505,0.11700947210291113,0.022833175634022318,-0.03914397583239937,-0.004506564825118464,-0.10005263436879808
365,0.3556,495.229,56.4636,2.20891,171.834,-92.9691,-11.3499,0.14868,-0.0400341,-0.105697,0.110951,0.0225922,-0.0045329,0.176017,0.16030163327265745,0.117340155845433,0.022849336525867958,-0.03924332320895041,-0.004522641914273651,-0.10030278496389977
366,0.3566,495.557,56.496,2.21439,171.94,-93.0913,-11.3634,0.149063,-0.0401374,-0.105975,0.111246,0.0226079,-0.00454906,0.176498,0.16074611391080973,0.11766981981445213,0.02286539538651322,-0.03934256424777505,-0.004538728698398775,-0.10055286602680147
367,0.3576,495.885,56.5284,2.21987,172.045,-93.213,-11.3768,0.149446,-0.0402408,-0.106253,0.111542,0.0226234,-0.00456522,0.176979,0.1611907648176507,0.11800069904882804,0.02288124992301399,-0.03944189109134555,-0.004554815222563513,-0.10080287757683049
368,0.3586,496.212,56.5607,2.22533,172.15,-93.3344,-11.3902,0.149829,-0.0403441,-0.10653,0.111837,0.0226388,-0.0045814,0.17746,0.161635586058406,0.11833055790683678,0.02289700241555659,-0.03954111161916729,-0.004570921395353977,-0.1010519206856787
369,0.3596,496.538,56.5925,2.22993,172.255,-93.4557,-11.4038,0.150212,-0.0404474,-0.106808,0.112132,0.0226541,-0.00459743,0.177941,0.16208057769832585,0.11866051408756317,0.022912652859419236,-0.0396403218980379,-0.004586877995591543,-0.10130179351779511
370,0.3606,496.864,56.6257,2.23642,172.361,-93.5769,-11.4175,0.150595,-0.0405507,-0.107086,0.112427,0.0226692,-0.00461347,0.178421,0.1625257398026856,0.11899056761972138,0.022928098957095022,-0.039739521929016086,-0.00460284429401836,-0.101551596894919
371,0.3616,497.188,56.6578,2.24155,172.466,-93.6975,-11.431,0.150978,-0.040654,-0.107363,0.112722,0.0226842,-0.00462951,0.178901,0.16297107243678566,0.11932071853203441,0.02294344299365947,-0.039838711713160224,-0.004618810336347923,-0.1018004326372377
372,0.3626,497.512,56.6901,2.24714,172.57,-93.8178,-11.4446,0.15136,-0.0407572,-0.10764,0.113016,0.0226991,-0.00464556,0.179381,0.16341541224995737,0.1196498472028269,0.022958684964512477,-0.03993779524531327,-0.004634786076236352,-0.10204919946160129
373,0.3636,497.836,56.7222,2.25249,172.675,-93.9377,-11.4581,0.151742,-0.0408605,-0.107918,0.113311,0.0227138,-0.00466161,0.179861,0.16385992183336184,0.11998019263130666,0.022973722567707577,-0.040036964548881615,-0.004650761559716221,-0.10229879508875139
374,0.3646,498.159,56.7543,2.25791,172.779,-94.0573,-11.4715,0.152125,-0.0409636,-0.108195,0.113605,0.0227283,-0.00467766,0.18034,0.16430576555704723,0.1203095152159881,0.022988555794225318,-0.040135931635995714,-0.0046667367867916365,-0.1025474238858336
375,0.3656,498.482,56.7862,2.26328,172.883,-94.1764,-11.4849,0.152507,-0.0410668,-0.108472,0.113899,0.0227428,-0.00469372,0.18082,0.16475061532038526,0.12063893463574349,0.023003389235826566,-0.04023498449663532,-0.004682721710639548,-0.10279598382227673
376,0.3666,498.803,56.8181,2.26866,172.987,-94.2952,-11.4983,0.152888,-0.0411699,-0.108748,0.114193,0.022757,-0.00470978,0.181299,0.16519446985374175,0.12096845091904651,0.023017915987093573,-0.040333931168945125,-0.0046987063777717,-0.10304357796117891
377,0.3676,499.125,56.8499,2.27401,173.09,-94.4137,-11.5116,0.15327,-0.041273,-0.109025,0.114487,0.0227712,-0.00472585,0.181778,0.1656396591669711,0.12129806409437927,0.023032442944641573,-0.04043286764037879,-0.004714700741045186,-0.10329200048197607
378,0.3686,499.446,56.8816,2.27936,173.193,-94.5317,-11.5249,0.153652,-0.0413761,-0.109302,0.114781,0.0227852,-0.00474192,0.182257,0.16608501857500402,0.1216277741902323,0.023046765499100452,-0.040531793911988245,-0.004730694847291272,-0.10354035419926477
379,0.3696,499.766,56.9132,2.28469,173.296,-94.6494,-11.5381,0.154033,-0.0414791,-0.109578,0.115075,0.0227991,-0.004758,0.182736,0.16652938161286435,0.12195758123510414,0.0230609859479729,-0.04063061404789092,-0.0047466986490471985,-0.1037877429202918
380,0.3706,500.086,56.9447,2.29001,173.399,-94.7668,-11.5513,0.154414,-0.0415821,-0.109854,0.115368,0.0228128,-0.00477407,0.183214,0.1669739139852986,0.12228636297057816,0.023075001979489862,-0.040729424005843784,-0.004762692241091049,-0.10403506337145352
381,0.3716,500.405,56.9761,2.29531,173.502,-94.8837,-11.5645,0.154795,-0.0416851,-0.110131,0.115661,0.0228264,-0.00479016,0.183693,0.16741861575683492,0.12261524105321486,0.0230889158941312,-0.0408282237868951,-0.004778705480546042,-0.10428321128882645
382,0.3726,500.723,57.0075,2.3006,173.604,-95.0004,-11.5777,0.155176,-0.041788,-0.110407,0.115954,0.0228399,-0.00480624,0.184171,0.16786348699202702,0.12294421551124812,0.023102727687725144,-0.040926917484789604,-0.004794708510297174,-0.10453039500958816
383,0.3736,501.041,57.0387,2.30588,173.706,-95.1166,-11.5908,0.155557,-0.0418909,-0.110683,0.116247,0.0228532,-0.00482233,0.184649,0.16830852775545302,0.12327328637291979,0.023116335044492287,-0.04102560102762509,-0.004810721234614568,-0.10477751051705675
384,0.3746,501.359,57.0699,2.31115,173.808,-95.2325,-11.6038,0.155938,-0.0419938,-0.110959,0.11654,0.0228664,-0.00483842,0.185127,0.168753738111715,0.12360245366648082,0.023129840269249025,-0.041124274416446394,-0.004826733701289276,-0.1050245578300566
385,0.3756,501.676,57.1011,2.3164,173.909,-95.3481,-11.6168,0.156318,-0.0420967,-0.111234,0.116833,0.0228795,-0.00485452,0.185604,0.1691979489269071,0.12393171742018927,0.023143243357946597,-0.04122293765229834,-0.004842755861897974,-0.10527064223849636
386,0.3766,501.992,57.1321,2.32164,174.011,-95.4633,-11.6298,0.156699,-0.0421995,-0.11151,0.117125,0.0228924,-0.00487062,0.186082,0.16964349821719837,0.12425995340179719,0.02315644199091693,-0.04132149486837999,-0.004858777764551903,-0.10551755346592173
387,0.3776,502.308,57.163,2.32687,174.112,-95.5781,-11.6428,0.157079,-0.0423023,-0.111786,0.117417,0.0229052,-0.00488672,0.186559,0.1700880472054791,0.12458828524230636,0.02316953847719172,-0.041420041953300624,-0.0048747994092552815,-0.10576439655525183
388,0.3786,502.624,57.1939,2.33208,174.213,-95.6926,-11.6557,0.157459,-0.0424051,-0.112061,0.11771,0.0229179,-0.00490283,0.187036,0.17053276515447613,0.12491783788698707,0.023182532812844325,-0.04151857890810151,-0.004890830747104058,-0.10601027753601477
389,0.3796,502.938,57.2247,2.33728,174.313,-95.8068,-11.6685,0.157839,-0.0425078,-0.112336,0.118002,0.0229304,-0.00491894,0.187513,0.17097765212840654,0.12524636185781546,0.0231953226744408,-0.041617009895529966,-0.004906861826689979,-0.1062560909088045
390,0.3806,503.253,57.2554,2.34247,174.414,-95.9206,-11.6814,0.158218,-0.0426105,-0.112611,0.118293,0.0229428,-0.00493505,0.18799,0.1714215367693892,0.1255738561972315,0.02320801037510556,-0.04171543077461504,-0.004922892648017374,-0.10650183669221058
391,0.3816,503.566,57.286,2.34765,174.514,-96.0341,-11.6942,0.158598,-0.0427132,-0.112886,0.118585,0.0229551,-0.00495117,0.188467,0.17186676154071057,0.1259025717533766,0.023220595911034092,-0.04181384154639489,-0.00493893316170102,-0.10674751490481771
392,0.3826,503.88,57.3166,2.35281,174.614,-96.1472,-11.707,0.158977,-0.0428158,-0.113161,0.118877,0.0229673,-0.00496729,0.188943,0.17231098321802496,0.12623138330847938,0.02323307927845275,-0.04191214640312679,-0.004954973416813613,-0.10699312556520524
393,0.3836,504.192,57.3471,2.35796,174.714,-96.26,-11.7197,0.159357,-0.0429184,-0.113436,0.119168,0.0229793,-0.00498341,0.18942,0.172756546043223,0.1265591643308479,0.023245358149077022,-0.04201044117429786,-0.004971013413359371,-0.10723866869194743
394,0.3846,504.504,57.3775,2.3631,174.814,-96.3725,-11.7324,0.159736,-0.043021,-0.113711,0.119459,0.0229912,-0.00499954,0.189896,0.17320110501277663,0.12688704075137358,0.02325753484129023,-0.04210872586094272,-0.004987063101472011,-0.10748414430361353
395,0.3856,504.816,57.4078,2.36823,174.913,-96.4846,-11.745,0.160115,-0.0431236,-0.113985,0.11975,0.023003,-0.00501567,0.190372,0.1736458325021124,0.12721501259782153,0.023269609351440845,-0.04220700046409609,-0.005003112530705178,-0.10772866014787397
396,0.3866,505.127,57.438,2.37334,175.012,-96.5964,-11.7577,0.160494,-0.0432261,-0.11426,0.120041,0.0230146,-0.0050318,0.190848,0.174090728575111,0.12754307989796443,0.023281479347755152,-0.04230516921531402,-0.005019161701063091,-0.10797400103041577
397,0.3876,505.438,57.4682,2.37844,175.111,-96.7078,-11.7702,0.160872,-0.0433286,-0.114534,0.120332,0.0230261,-0.00504794,0.191323,0.17453461876047216,0.12787124267958383,0.023293247152432306,-0.042403327904750765,-0.005035220562197962,-0.10821838267231954
398,0.3886,505.748,57.4983,2.38353,175.21,-96.819,-11.7828,0.161251,-0.043431,-0.114808,0.120623,0.0230375,-0.00506408,0.191799,0.1749798517473038,0.1281995009704684,0.023304912761943797,-0.042501380783580234,-0.0050512791641448285,-0.10846269736282621
399,0.3896,506.057,57.5283,2.3886,175.309,-96.9298,-11.7953,0.161629,-0.0435335,-0.115082,0.120913,0.0230488,-0.00508022,0.192274,0.1754240780847527,0.12852672627112516,0.02331647617279109,-0.04259951936236184,-0.00506733750690791,-0.1087069451202779
400,0.3906,506.366,57.5583,2.39367,175.407,-97.0402,-11.8078,0.162007,-0.0436359,-0.115356,0.121204,0.02306,-0.00509637,0.192749,0.1758684723714976,0.12885517533549118,0.023327937381506958,-0.0426975521522146,-0.005083405539657471,-0.10895112596301182
401,0.3916,506.675,57.5882,2.39872,175.505,-97.1504,-11.8203,0.162385,-0.0437383,-0.11563,0.121494,0.023071,-0.00511252,0.193224,0.1763130346710351,0.1291825908092874,0.023339194050729706,-0.04279557490402364,-0.005099473312910385,-0.10919523990936009
402,0.3926,506.983,57.618,2.40375,175.603,-97.2602,-11.8327,0.162763,-0.0438406,-0.115904,0.121784,0.0230819,-0.00512867,0.193699,0.17675776504688656,0.1295101012473403,0.023350348508736518,-0.04289349190817082,-0.005115540826670872,-0.10943928697764971
403,0.3936,507.29,57.6477,2.40878,175.701,-97.3697,-11.845,0.163141,-0.0439429,-0.116178,0.122074,0.0230927,-0.00514482,0.194173,0.17720266356259629,0.1298377066771934,0.023361400752182515,-0.04299139889592074,-0.00513160808094304,-0.1096832671862028
404,0.3946,507.597,57.6774,2.41379,175.798,-97.4789,-11.8574,0.163519,-0.0440452,-0.116451,0.122364,0.0231034,-0.00516098,0.194648,0.17764773028173342,0.13016540712639824,0.023372350777753015,-0.04308929586829824,-0.005147685024254445,-0.10992629048007208
405,0.3956,507.904,57.707,2.41879,175.895,-97.5877,-11.8697,0.163896,-0.0441474,-0.116725,0.122653,0.0231139,-0.00517714,0.195122,0.17809178717551455,0.13049207212987723,0.02338309624384971,-0.04318708714504116,-0.005163761707764447,-0.110170137267945
406,0.3966,508.21,57.7365,2.42378,175.993,-97.6963,-11.882,0.164273,-0.0442497,-0.116998,0.122943,0.0231243,-0.0051933,0.195596,0.1785360115103054,0.1308199623725821,0.023393739483395404,-0.04328496409953464,-0.005179838131477377,-0.11041302766442318
407,0.3976,508.515,57.7659,2.42876,176.089,-97.8045,-11.8942,0.164651,-0.0443519,-0.117271,0.123232,0.0231346,-0.00520947,0.19607,0.17898158233023587,0.13114681656986438,0.023404280493198204,-0.04338273538000614,-0.005195924243438288,-0.11065585176087345
408,0.3986,508.82,57.7953,2.43373,176.186,-97.9124,-11.9065,0.165028,-0.044454,-0.117544,0.123521,0.0231448,-0.00522563,0.196544,0.17942614218104103,0.13147376524166066,0.023414719270096862,-0.04348040101680817,-0.005212000147408857,-0.11089860957539344
409,0.3996,509.124,57.8246,2.43868,176.283,-98.02,-11.9186,0.165404,-0.0445562,-0.117817,0.12381,0.0231549,-0.0052418,0.197017,0.17986968979222628,0.13180080841527775,0.023425055810960993,-0.043578152324647346,-0.005228085739314103,-0.11114130112607534
410,0.4006,509.428,57.8539,2.44362,176.379,-98.1273,-11.9308,0.165781,-0.0446583,-0.11809,0.124099,0.0231648,-0.00525798,0.197491,0.18031458452266524,0.13212794611803091,0.023435187769166754,-0.04367579801039789,-0.005244181018675631,-0.11138392643100692
411,0.4016,509.731,57.883,2.44855,176.475,-98.2343,-11.9429,0.166158,-0.0447603,-0.118363,0.124388,0.0231747,-0.00527415,0.197964,0.18075964701003788,0.13245517837724297,0.023445319827679167,-0.04377333810437156,-0.005260266090220456,-0.1116264855082707
412,0.4026,510.034,57.9122,2.45346,176.571,-98.341,-11.955,0.166534,-0.0448624,-0.118635,0.124676,0.0231844,-0.00529033,0.198437,0.18120369611331366,0.1327813724383058,0.023455247295429693,-0.04387096386267131,-0.005276360848908146,-0.11186809024447875
413,0.4036,510.337,57.9412,2.45837,176.667,-98.4473,-11.967,0.16691,-0.0449644,-0.118908,0.124965,0.023194,-0.00530651,0.19891,0.18164791221044507,0.13310879356501437,0.02346507251296459,-0.04396848405074316,-0.00529245534718481,-0.11211051716306197
414,0.4046,510.639,57.9702,2.46326,176.762,-98.5534,-11.9791,0.167287,-0.0450664,-0.11918,0.125253,0.0232035,-0.0053227,0.199382,0.1820934774571199,0.1334351758943606,0.02347479547733755,-0.0440659942922631,-0.005308559531968959,-0.11235199026056364
415,0.4056,510.94,57.9991,2.46814,176.858,-98.6591,-11.991,0.167663,-0.0451683,-0.119452,0.125541,0.0232128,-0.00533888,0.199855,0.18253802817494136,0.13376165223535463,0.023484313837195847,-0.04416339900459032,-0.005324653509275135,-0.11259339768631449
416,0.4066,511.241,58.0279,2.47301,176.953,-98.7646,-12.003,0.168038,-0.0452702,-0.119724,0.125829,0.0232221,-0.00535507,0.200327,0.18298156309310643,0.1340882226150757,0.02349383228557511,-0.04426079379188308,-0.005340757172775268,-0.1128347394581749
417,0.4076,511.541,58.0567,2.47786,177.048,-98.8697,-12.0149,0.168414,-0.0453721,-0.119996,0.126117,0.0232313,-0.00537126,0.200799,0.18342644779391204,0.13441488706061122,0.023503248472146687,-0.04435817865515268,-0.005356860575559286,-0.11307601559400027
418,0.4086,511.841,58.0854,2.48271,177.143,-98.9746,-12.0268,0.16879,-0.045474,-0.120268,0.126405,0.0232403,-0.00538745,0.201271,0.1838714998028168,0.13474164559905555,0.023512460042834915,-0.0444555535954102,-0.005372963717631296,-0.11331722611164108
419,0.4096,512.141,58.1141,2.48754,177.237,-99.0791,-12.0387,0.169165,-0.0455758,-0.12054,0.126692,0.0232492,-0.00540365,0.201743,0.1843155348666139,0.13506736318958112,0.023521569344265636,-0.04455282306895403,-0.005389076545104787,-0.11355837102894328
420,0.4106,512.44,58.1426,2.49236,177.331,-99.1834,-12.0505,0.16954,-0.0456776,-0.120812,0.126979,0.023258,-0.00541985,0.202215,0.18475973647478483,0.13539317427447073,0.02353057637370659,-0.04465008264096937,-0.005405189111552633,-0.1137994503637475
421,0.4116,512.738,58.1712,2.49717,177.426,-99.2874,-12.0623,0.169915,-0.0457794,-0.121083,0.127267,0.0232667,-0.00543605,0.202686,0.18520410468979565,0.1357202146002081,0.02353948112845683,-0.044747332312464305,-0.005421301416978941,-0.11403957817391108
422,0.4126,513.036,58.1996,2.50197,177.52,-99.3911,-12.0741,0.17029,-0.0458811,-0.121355,0.127554,0.0232753,-0.00545225,0.203158,0.1856486395741359,0.1360462130803426,0.023548283605844933,-0.044844476568898894,-0.005437413461388152,-0.11428052663817112
423,0.4136,513.333,58.228,2.50676,177.614,-99.4944,-12.0858,0.170665,-0.0459829,-0.121626,0.127841,0.0232838,-0.00546845,0.203629,0.18609334119031784,0.13637230513546839,0.023556983803231457,-0.04494170645209916,-0.005453525244784263,-0.114520524094328
424,0.4146,513.63,58.2563,2.51153,177.707,-99.5975,-12.0975,0.17104,-0.0460845,-0.121897,0.128127,0.0232921,-0.00548466,0.2041,0.18653820960087786,0.13669735409452244,0.02356547936145348,-0.04503873544556736,-0.005469646712475185,-0.11476045651998645
425,0.4156,513.927,58.2846,2.51629,177.801,-99.7003,-12.1092,0.171414,-0.0461862,-0.122168,0.128414,0.0233004,-0.00550087,0.204571,0.1869820578857242,0.13702363305393872,0.023573974990189095,-0.04513585006781029,-0.005485767918839257,-0.11500032393276705
426,0.4166,514.223,58.3128,2.52105,177.894,-99.8028,-12.1209,0.171788,-0.0462878,-0.122439,0.128701,0.0233085,-0.00551708,0.205041,0.18742607220087493,0.13735000566885525,0.023582265972964978,-0.045232859337289044,-0.0055018888638806995,-0.11524012635028613
427,0.4176,514.518,58.341,2.52578,177.987,-99.9051,-12.1325,0.172163,-0.0463894,-0.12271,0.128987,0.0233166,-0.00553329,0.205512,0.18787144047928317,0.13767533429025192,0.02359055702289803,-0.04532985875112672,-0.0055180095476037305,-0.11547986379015485
428,0.4186,514.813,58.369,2.53051,178.08,-100.007,-12.1441,0.172537,-0.046491,-0.122981,0.129273,0.0233245,-0.00554951,0.205982,0.1883157874857333,0.13800075596894068,0.023598643420239762,-0.04542684831032451,-0.005534139914671221,-0.11571953626997988
429,0.4196,515.108,58.3971,2.53523,178.173,-100.109,-12.1556,0.17291,-0.0465925,-0.123251,0.129559,0.0233323,-0.00556572,0.206452,0.18875911194933792,0.13832627073154002,0.023606627520796453,-0.04552373256826181,-0.005550260075608882,-0.11595825976606478
430,0.4206,515.402,58.425,2.53993,178.265,-100.21,-12.1672,0.173284,-0.046694,-0.123522,0.129845,0.0233401,-0.00558194,0.206922,0.18920379100700746,0.13865187860467576,0.023614611683629105,-0.0456206069929459,-0.005566389919577142,-0.11619780261814572
431,0.4216,515.696,58.4529,2.54463,178.358,-100.311,-12.1787,0.173658,-0.0467955,-0.123792,0.130131,0.0233477,-0.00559816,0.207392,0.18964863640574836,0.13897757961498103,0.023622391184240144,-0.04571747158537487,-0.005582519501921346,-0.11643639699974784
432,0.4226,515.989,58.4808,2.54931,178.45,-100.412,-12.1902,0.174031,-0.0468969,-0.124062,0.130416,0.0233552,-0.00561438,0.207861,0.19009245811473074,0.13930223448629286,0.023630068380963376,-0.04581423092797454,-0.005598648822645935,-0.11667492696956283
433,0.4236,516.282,58.5085,2.55398,178.542,-100.513,-12.2016,0.174405,-0.0469983,-0.124333,0.130702,0.0233626,-0.00563061,0.208331,0.19053763593712936,0.13962812152498127,0.023637643271496422,-0.045910980459674344,-0.005614787825607093,-0.11691427563114565
434,0.4246,516.574,58.5363,2.55864,178.634,-100.613,-12.213,0.174778,-0.0470997,-0.124603,0.130987,0.0233699,-0.00564684,0.2088,0.19098178930478737,0.13995296182716,0.023645115853567322,-0.046007720181468925,-0.005630926566634442,-0.11715267659114736
435,0.4256,516.866,58.5639,2.56329,178.725,-100.713,-12.2244,0.175151,-0.0472011,-0.124873,0.131272,0.0233771,-0.00566306,0.209269,0.19142610837255258,0.1402778947220189,0.023652486124934313,-0.046104450094353044,-0.005647055102202758,-0.11739101319157874
436,0.4266,517.157,58.5915,2.56793,178.817,-100.812,-12.2358,0.175524,-0.0473024,-0.125142,0.131557,0.0233842,-0.00567929,0.209738,0.1918705932022431,0.14060292023595045,0.023659754083387163,-0.046201074819433474,-0.005663193319536464,-0.11762840307865896
437,0.4276,517.448,58.6191,2.57255,178.908,-100.912,-12.2471,0.175896,-0.0474037,-0.125412,0.131842,0.0233912,-0.00569553,0.210207,0.1923140515410513,0.14092803839535484,0.023666919726745395,-0.046297689756925164,-0.00567934121815572,-0.11786661125027742
438,0.4286,517.738,58.6466,2.57717,178.999,-101.011,-12.2584,0.176269,-0.0475049,-0.125682,0.132127,0.023398,-0.00571176,0.210675,0.19275886763532046,0.14125324922663962,0.02367388068546683,-0.046394199547244,-0.005695478911490026,-0.11810475511437146
439,0.4296,518.028,58.674,2.58177,179.09,-101.11,-12.2697,0.176641,-0.0476062,-0.125951,0.132412,0.0234048,-0.00572799,0.211144,0.19320265647368684,0.14157855275622033,0.023680841691522847,-0.046490794922191436,-0.0057116163429116185,-0.11834195303069561
440,0.4306,518.317,58.7014,2.58636,179.181,-101.209,-12.2809,0.177014,-0.0477074,-0.126221,0.132696,0.0234115,-0.00574423,0.211612,0.19364780407941895,0.14190280710714154,0.023687700376138654,-0.04658728517125643,-0.005727763455147361,-0.11857996856983366
441,0.4316,518.606,58.7287,2.59094,179.272,-101.307,-12.2921,0.177386,-0.0478085,-0.12649,0.13298,0.0234181,-0.00576047,0.21208,0.19409192366365757,0.14222715355937599,0.02369445673725723,-0.04668367032437404,-0.005743910305156086,-0.11881703867093019
442,0.4326,518.895,58.756,2.59551,179.362,-101.405,-12.3033,0.177758,-0.0479097,-0.126759,0.133265,0.0234246,-0.00577671,0.212548,0.19453620849111486,0.14255273469124807,0.02370111077285153,-0.04678014105543582,-0.0057600568929420115,-0.11905404500874617
443,0.4336,519.183,58.7832,2.60007,179.453,-101.503,-12.3145,0.17813,-0.0480108,-0.127028,0.133549,0.023431,-0.00579295,0.213016,0.19498065862327274,0.1428772657491293,0.023707662480925817,-0.046876506711809096,-0.005776203218509579,-0.11929098760043144
444,0.4346,519.47,58.8104,2.60462,179.543,-101.601,-12.3256,0.178501,-0.0481119,-0.127297,0.133832,0.0234372,-0.00580919,0.213483,0.19542407869695966,0.1432007457856026,0.023714009488108978,-0.046972862626107004,-0.005792349281862896,-0.1195278664631314
445,0.4356,519.758,58.8375,2.60916,179.633,-101.698,-12.3367,0.178873,-0.0482129,-0.127566,0.134116,0.0234434,-0.00582544,0.21395,0.19586885917827512,0.14352546090477003,0.02372035653464355,-0.04706911350623055,-0.005808505024921362,-0.11976468161398712
446,0.4366,520.044,58.8645,2.61368,179.723,-101.795,-12.3478,0.179244,-0.0483139,-0.127834,0.1344,0.0234495,-0.00584169,0.214418,0.19631260883550183,0.1438502682561278,0.023726601247864965,-0.04716535466550609,-0.005824660505451051,-0.12000055307112745
447,0.4376,520.331,58.8915,2.6182,179.812,-101.892,-12.3589,0.179616,-0.0484149,-0.128103,0.134683,0.0234555,-0.00585793,0.214885,0.1967577199115158,0.14417402369127763,0.02373274362589939,-0.047261586104915376,-0.005840805781864411,-0.120237241086386
448,0.4386,520.616,58.9184,2.6227,179.902,-101.988,-12.3699,0.179987,-0.0485159,-0.128371,0.134967,0.0234614,-0.00587418,0.215352,0.19720179939725413,0.14449901526062425,0.02373878366690496,-0.04735780782544008,-0.005856960737511074,-0.12047298591455691
449,0.4396,520.902,58.9453,2.6272,179.991,-102.084,-12.3809,0.180358,-0.0486168,-0.12864,0.13525,0.0234672,-0.00589043,0.215818,0.19764604366704686,0.14482295431715753,0.023744721369069577,-0.04745392457345898,-0.00587311543064184,-0.12070954686247193
450,0.4406,521.186,58.9721,2.63168,180.08,-102.18,-12.3919,0.180728,-0.0487177,-0.128908,0.135533,0.0234729,-0.00590669,0.216285,0.19808925469218708,0.1451469850614171,0.023750556730612216,-0.04755003162378724,-0.005889279802368308,-0.1209451651296547
451,0.4416,521.471,58.9989,2.63615,180.169,-102.276,-12.4028,0.181099,-0.0488186,-0.129176,0.135816,0.0234785,-0.00592294,0.216751,0.19853382826897703,0.145471107519354,0.023756289749782278,-0.04764612897740339,-0.005905433970318508,-0.12118072025960269
452,0.4426,521.755,59.0256,2.64061,180.258,-102.372,-12.4137,0.18147,-0.0489194,-0.129444,0.136098,0.023484,-0.00593919,0.217217,0.19897856681316362,0.14579417592217836,0.02376192042486025,-0.047742121409502625,-0.005921587875765688,-0.12141621226923438
453,0.4436,522.038,59.0523,2.64506,180.347,-102.467,-12.4246,0.18184,-0.0490203,-0.129712,0.136381,0.0234894,-0.00595545,0.217683,0.1994222709630904,0.14611848156104768,0.02376744875415704,-0.04783819938223721,-0.005937751459336504,-0.12165164117546357
454,0.4446,522.322,59.0789,2.6495,180.435,-102.562,-12.4355,0.18221,-0.049121,-0.12998,0.136663,0.0234947,-0.00597171,0.218149,0.19986613931392783,0.14644173254909498,0.023772874736014193,-0.047934077248027784,-0.005953914780089664,-0.12188700699520005
455,0.4456,522.604,59.1055,2.65393,180.524,-102.657,-12.4463,0.18258,-0.0492218,-0.130248,0.136946,0.0234999,-0.00598797,0.218615,0.20031017192644152,0.14676622147242346,0.02377819836880435,-0.04803004065640415,-0.005970077838029275,-0.12212230974534843
456,0.4466,522.886,59.132,2.65835,180.612,-102.751,-12.4572,0.18295,-0.0493225,-0.130515,0.137228,0.023505,-0.00600423,0.21908,0.20075436886141973,0.1470896551488836,0.023783419650930337,-0.04812589920475119,-0.005986240633159778,-0.12235667179991983
457,0.4476,523.168,59.1585,2.66276,180.7,-102.845,-12.4679,0.18332,-0.0494232,-0.130783,0.13751,0.02351,-0.00602049,0.219546,0.20119873017967294,0.14741318004650217,0.023788538580825858,-0.0482217481006284,-0.006002403165485282,-0.12259184869676565
458,0.4486,523.449,59.1849,2.66716,180.788,-102.939,-12.4787,0.18369,-0.0495239,-0.13105,0.137792,0.023515,-0.00603675,0.220011,0.20164325594203425,0.147736796191007,0.023793657536316015,-0.048317587345007684,-0.006018565435010226,-0.12282608540117201
459,0.4496,523.73,59.2113,2.67154,180.876,-103.033,-12.4895,0.184059,-0.0496245,-0.131317,0.138073,0.0235198,-0.00605301,0.220476,0.20208674412201377,0.14805935554820393,0.02379857175766631,-0.04841332178019797,-0.00603472744173883,-0.12306025957272682
460,0.4506,524.011,59.2376,2.67592,180.963,-103.127,-12.5002,0.184429,-0.0497251,-0.131584,0.138355,0.0235246,-0.00606928,0.220941,0.20253159851032576,0.1483831539398961,0.023803486002605068,-0.04850904658498845,-0.00605089912516632,-0.12329437122812414
461,0.4516,524.291,59.2638,2.68029,181.051,-103.22,-12.5109,0.184798,-0.0498257,-0.131851,0.138637,0.0235292,-0.00608554,0.221405,0.20297541454919932,0.1487070436556106,0.02380819550947244,-0.048604761760348,-0.006067060606153363,-0.12352842038405354
462,0.4526,524.57,59.2901,2.68464,181.138,-103.313,-12.5215,0.185167,-0.0499262,-0.132118,0.138918,0.0235338,-0.00610181,0.22187,0.2034193943864102,0.1490298756906545,0.023812905038003818,-0.048700372177287066,-0.006083231763524544,-0.1237624070572001
463,0.4536,524.85,59.3162,2.68899,181.225,-103.406,-12.5322,0.185536,-0.0500267,-0.132385,0.139199,0.0235383,-0.00611808,0.222334,0.2038635380824112,0.14935279845424687,0.02381751220644257,-0.048795972985862246,-0.006099402657793185,-0.12399633126424447
464,0.4546,525.128,59.3423,2.69332,181.312,-103.498,-12.5428,0.185905,-0.0501272,-0.132652,0.13948,0.0235427,-0.00613435,0.222798,0.20430784569767724,0.1496758119718864,0.023822017013406693,-0.04889156418703877,-0.006115573288963505,-0.12423019302186289
465,0.4556,525.407,59.3684,2.69765,181.399,-103.591,-12.5534,0.186274,-0.0502276,-0.132918,0.139761,0.023547,-0.00615062,0.223262,0.2047523172927055,0.14999891626907802,0.023826419457545267,-0.04898705068049225,-0.006131743657039834,-0.12446311681028188
466,0.4566,525.684,59.3944,2.70196,181.486,-103.683,-12.5639,0.186642,-0.050328,-0.133185,0.140042,0.0235512,-0.00616689,0.223726,0.2051957477316657,0.1503221113713349,0.023830719537537126,-0.049082527587583025,-0.006147913762026391,-0.1246968539527964
467,0.4576,525.962,59.4204,2.70626,181.572,-103.775,-12.5745,0.18701,-0.0504284,-0.133451,0.140322,0.0235553,-0.00618316,0.22419,0.20563934138305684,0.15064424665935472,0.023834917252092414,-0.04917799490927344,-0.006164083603927395,-0.12492965362591579
468,0.4586,526.239,59.4463,2.71056,181.658,-103.866,-12.585,0.187379,-0.0505288,-0.133717,0.140603,0.0235593,-0.00619944,0.224653,0.20608430439065306,0.1509676231249315,0.023839012599952136,-0.04927345264652594,-0.006180263120944662,-0.12516239138255736
469,0.4596,526.515,59.4722,2.71484,181.745,-103.958,-12.5955,0.187747,-0.0506291,-0.133984,0.140883,0.0235632,-0.00621571,0.225116,0.20652822509106805,0.15128993918154854,0.02384300557988772,-0.04936880573718805,-0.0061964324365260115,-0.1253959418436842
470,0.4606,526.792,59.498,2.71911,181.831,-104.049,-12.606,0.188115,-0.0507294,-0.13425,0.141163,0.0235671,-0.00623198,0.225579,0.20697230918436316,0.15161234549929747,0.02384699857539574,-0.04946414926441478,-0.006212601489034686,-0.12562855558415476
471,0.4616,527.067,59.5238,2.72338,181.917,-104.14,-12.6164,0.188483,-0.0508297,-0.134516,0.141443,0.0235709,-0.00624826,0.226042,0.20741655673067805,0.15193484210345498,0.023850889201382452,-0.04955948322916537,-0.006228780216187224,-0.12586110745759893
472,0.4626,527.343,59.5495,2.72763,182.002,-104.23,-12.6268,0.18885,-0.0509299,-0.134781,0.141723,0.0235745,-0.00626454,0.226505,0.20785975992981065,0.1522574290193046,0.023854575071218242,-0.049654712597874795,-0.006244958679952228,-0.12609272357363188
473,0.4636,527.617,59.5752,2.73187,182.088,-104.321,-12.6372,0.189218,-0.0510301,-0.135047,0.142003,0.0235781,-0.00628081,0.226968,0.20830433411809834,0.15258010627213725,0.023858260954322974,-0.04974993242507941,-0.006261126942945339,-0.12632515199481076
474,0.4646,527.892,59.6008,2.7361,182.174,-104.411,-12.6476,0.189585,-0.0511303,-0.135313,0.142283,0.0235816,-0.00629709,0.22743,0.2087478631913262,0.15290287388725066,0.023861844464507564,-0.04984514271173546,-0.006277304880109913,-0.12655751859825182
475,0.4656,528.166,59.6264,2.74033,182.259,-104.501,-12.658,0.189952,-0.0512305,-0.135578,0.142562,0.023585,-0.00631337,0.227892,0.20919155506959708,0.153224578664795,0.023865325600696652,-0.04994034345879861,-0.006293482553899832,-0.1267889501897831
476,0.4666,528.44,59.652,2.74454,182.344,-104.591,-12.6683,0.190319,-0.0513306,-0.135843,0.142842,0.0235884,-0.00632965,0.228355,0.20963540981267115,0.1535475267574442,0.023868806748721605,-0.05003543967077362,-0.006309659964319425,-0.12702032046006795
477,0.4676,528.713,59.6775,2.74874,182.429,-104.68,-12.6786,0.190686,-0.0514307,-0.136109,0.143121,0.0235916,-0.00634593,0.228817,0.21007942748033082,0.15386941141823174,0.02387208313414546,-0.0501305263640941,-0.006325837111372912,-0.12725250217328865
478,0.4686,528.986,59.7029,2.75294,182.514,-104.769,-12.6889,0.191053,-0.0515307,-0.136374,0.1434,0.0235948,-0.00636221,0.229278,0.21052360813238025,0.1541913858973687,0.023875359530053597,-0.050225508562268706,-0.0063420139950645105,-0.127483749618573
479,0.4696,529.258,59.7284,2.75712,182.599,-104.859,-12.6991,0.19142,-0.0516308,-0.136639,0.143679,0.0235979,-0.0063785,0.22974,0.21096795182864558,0.1545134502199179,0.023878533548588043,-0.05032057623064534,-0.006358200551816684,-0.12771493579140325
480,0.4706,529.53,59.7537,2.76129,182.684,-104.947,-12.7094,0.191786,-0.0517307,-0.136904,0.143958,0.0236009,-0.00639478,0.230201,0.21141124721712257,0.15483560441094912,0.023881605188796007,-0.050415444466332726,-0.006374376908635737,-0.1279460607080145
481,0.4716,529.802,59.779,2.76546,182.768,-105.036,-12.7196,0.192153,-0.0518307,-0.137169,0.144236,0.0236038,-0.00641106,0.230663,0.2118559167367171,0.15515669333826843,0.023884574449756446,-0.05051039817412151,-0.006390553002105892,-0.12817712438463758
482,0.4726,530.073,59.8043,2.76961,182.852,-105.124,-12.7298,0.192519,-0.0519307,-0.137433,0.144515,0.0236066,-0.00642735,0.231124,0.21229953717983174,0.15547902701916727,0.023887441330578518,-0.05060534238701431,-0.006406738768164111,-0.1284072552451898
483,0.4736,530.343,59.8295,2.77375,182.937,-105.213,-12.7399,0.192885,-0.0520306,-0.137698,0.144793,0.0236093,-0.00644363,0.231585,0.21274332001774487,0.15580029484283697,0.023890205830402245,-0.0507001821759836,-0.006422914334787477,-0.1286381967214527
484,0.4746,530.614,59.8547,2.77788,183.021,-105.301,-12.7501,0.193251,-0.0521304,-0.137962,0.145071,0.023612,-0.00645992,0.232045,0.21318726530990406,0.15612165199137729,0.02389297033769,-0.050794917570427534,-0.006439099573683826,-0.12886820587497405
485,0.4756,530.884,59.8799,2.78201,183.105,-105.388,-12.7602,0.193617,-0.0522303,-0.138227,0.14535,0.0236146,-0.0064762,0.232506,0.2136313731157784,0.15644425493330072,0.02389563246287363,-0.050889738421781905,-0.006455274613477613,-0.12909902521550387
486,0.4766,531.153,59.905,2.78612,183.188,-105.476,-12.7703,0.193983,-0.0523301,-0.138491,0.145628,0.0236171,-0.00649249,0.232966,0.21407564349485875,0.15676579112763234,0.023898192205154656,-0.05098445489945658,-0.006471459325229301,-0.12932891272636027
487,0.4776,531.422,59.93,2.79023,183.272,-105.563,-12.7804,0.194348,-0.0524299,-0.138755,0.145905,0.0236195,-0.00650877,0.233427,0.2145188619871885,0.15708625963461387,0.023900649563764587,-0.051079161924898475,-0.006487633838210605,-0.12955873955492436
488,0.4786,531.691,59.955,2.79432,183.356,-105.65,-12.7904,0.194714,-0.0525296,-0.139019,0.146183,0.0236218,-0.00652506,0.233887,0.21496345724664545,0.15740797433106302,0.0239030045379669,-0.05117376461643197,-0.00650381802283484,-0.1297885057172139
489,0.4796,531.959,59.98,2.79841,183.439,-105.737,-12.8005,0.195079,-0.0526294,-0.139283,0.146461,0.0236241,-0.00654135,0.234347,0.21540699985014133,0.15772977847663094,0.023905359517585545,-0.05126845274970682,-0.006520001943820852,-0.13001821122924284
490,0.4806,532.227,60.0049,2.80248,183.522,-105.824,-12.8105,0.195444,-0.0527291,-0.139547,0.146738,0.0236263,-0.00655764,0.234806,0.21585070437623655,0.1580505140450943,0.023907612111854437,-0.051363036569885834,-0.006536185601172972,-0.13024785610702072
491,0.4816,532.495,60.0298,2.80655,183.605,-105.91,-12.8205,0.195809,-0.0528287,-0.139811,0.147015,0.0236284,-0.00657393,0.235266,0.2162945708840438,0.15837133846961615,0.02390976232009745,-0.05145751610628446,-0.006552368994895419,-0.13047744036655273
492,0.4826,532.762,60.0547,2.81061,183.688,-105.997,-12.8304,0.196174,-0.0529284,-0.140075,0.147293,0.0236304,-0.00659022,0.235725,0.2167385994326969,0.1586934104676443,0.023911810141669987,-0.05155208107778653,-0.006568552124992522,-0.1307069640238402
493,0.4836,533.029,60.0795,2.81465,183.771,-106.083,-12.8404,0.196538,-0.053028,-0.140338,0.14757,0.0236323,-0.0066065,0.236185,0.21718157289917017,0.15901441299914199,0.02391375557595743,-0.0516465417862898,-0.006584725057315888,-0.1309355580308723
494,0.4846,533.295,60.1042,2.81869,183.854,-106.168,-12.8503,0.196903,-0.0531275,-0.140601,0.147847,0.0236342,-0.00662279,0.236644,0.21762592526265157,0.15933550446065703,0.02391570101394125,-0.051740898261069646,-0.006600907660337052,-0.13116409192558576
495,0.4856,533.561,60.129,2.82272,183.937,-106.254,-12.8602,0.197267,-0.0532271,-0.140865,0.148123,0.0236359,-0.00663908,0.237103,0.2180692217745177,0.15965552522072146,0.023917441672112405,-0.05183534016431801,-0.006617089999745751,-0.13139343433078787
496,0.4866,533.826,60.1536,2.82674,184.019,-106.34,-12.8701,0.197632,-0.0533266,-0.141128,0.1484,0.0236376,-0.00665538,0.237561,0.21851389818897426,0.15997679429492018,0.02391918233324275,-0.05192967785459368,-0.006633282009213537,-0.13162184781986852
497,0.4876,534.091,60.1783,2.83075,184.101,-106.425,-12.88,0.197996,-0.0534261,-0.141391,0.148676,0.0236393,-0.00667167,0.23802,0.21895751798181906,0.1602969920754067,0.023920922997332283,-0.05202400615873626,-0.006649463821248425,-0.1318502012441003
498,0.4886,534.356,60.2029,2.83475,184.183,-106.51,-12.8898,0.19836,-0.0535255,-0.141654,0.148953,0.0236408,-0.00668796,0.238478,0.2194012992816612,0.16061843886053606,0.02392245887986877,-0.05211823028950713,-0.006665645369683726,-0.13207849461927845
499,0.4896,534.62,60.2274,2.83874,184.266,-106.595,-12.8996,0.198724,-0.053625,-0.141917,0.149229,0.0236423,-0.00670425,0.238937,0.2198452421472996,0.1609388137593637,0.023923994764708967,-0.052212539833615734,-0.006681826654523659,-0.13230672796119347
500,0.4906,534.884,60.2519,2.84272,184.347,-106.679,-12.9094,0.199087,-0.0537243,-0.14218,0.149505,0.0236437,-0.00672054,0.239395,0.22028812634881834,0.16125927709386723,0.023925428259305104,-0.052306650455740566,-0.006698007675772666,-0.1325349012856324
501,0.4916,535.148,60.2764,2.84669,184.429,-106.764,-12.9192,0.199451,-0.0538237,-0.142442,0.149781,0.023645,-0.00673683,0.239853,0.2207323920782669,0.161579828888458,0.02392675936322708,-0.052400846493064646,-0.006714188433435075,-0.13276214737095848
502,0.4926,535.411,60.3008,2.85066,184.511,-106.848,-12.929,0.199814,-0.053923,-0.142705,0.150057,0.0236462,-0.00675313,0.24031,0.22117559837366718,0.1619004691675543,0.023927988076075657,-0.05249493841726649,-0.006730378860211217,-0.13299020093584157
503,0.4936,535.674,60.3252,2.85461,184.592,-106.932,-12.9387,0.200178,-0.0540223,-0.142967,0.150333,0.0236474,-0.00676942,0.240768,0.22162018720173293,0.1622211979555812,0.02392921679039839,-0.052589020998604186,-0.0067465590905512185,-0.13321732774828476
504,0.4946,535.936,60.3496,2.85855,184.674,-107.015,-12.9484,0.200541,-0.0541216,-0.14323,0.150608,0.0236485,-0.00678571,0.241225,0.22206371582526208,0.16254085273553676,0.023930343113156338,-0.052683094238005435,-0.006762739057317502,-0.1334452616164694
505,0.4956,536.198,60.3739,2.86249,184.755,-107.099,-12.9581,0.200904,-0.0542209,-0.143492,0.150883,0.0236495,-0.006802,0.241682,0.22250740547890668,0.16286059543264475,0.023931367044011553,-0.05277715813639772,-0.006778918760514174,-0.1336722692186315
506,0.4966,536.46,60.3982,2.86642,184.836,-107.182,-12.9678,0.201267,-0.0543201,-0.143754,0.151159,0.0236505,-0.0068183,0.24214,0.22295125622113154,0.16318158925209358,0.023932390975890616,-0.0528711179818252,-0.006795108132194638,-0.13389921735259236
507,0.4976,536.721,60.4224,2.87033,184.917,-107.266,-12.9774,0.20163,-0.0544192,-0.144016,0.151434,0.0236513,-0.00683459,0.242596,0.2233952681104221,0.16350150817597386,0.02393321012213101,-0.05296497380340037,-0.006811287308103431,-0.13412610603393094
508,0.4986,536.982,60.4466,2.87424,184.998,-107.349,-12.9871,0.201992,-0.0545184,-0.144278,0.151709,0.0236521,-0.00685088,0.243053,0.22383821736645615,0.16382151508965626,0.023934029269026658,-0.05305891501843785,-0.0068274662204556025,-0.13435293527822145
509,0.4996,537.242,60.4708,2.87814,185.079,-107.431,-12.9967,0.202355,-0.0546175,-0.14454,0.151984,0.0236528,-0.00686718,0.24351,0.22428255128108665,0.16414161001734118,0.023934746023098086,-0.053152752230248845,-0.0068436548008189435,-0.13457970510103456
510,0.5006,537.503,60.4949,2.88203,185.16,-107.514,-13.0063,0.202717,-0.0547166,-0.144801,0.152259,0.0236535,-0.00688347,0.243966,0.22472582179177225,0.16446179298323593,0.023935462777671113,-0.0532465801432529,-0.006859833185908881,-0.1348055503239196
511,0.5016,537.762,60.519,2.88591,185.24,-107.596,-13.0158,0.203079,-0.0548157,-0.145063,0.152533,0.0236541,-0.00689976,0.244422,0.2251692527954301,0.16478089923007277,0.02393607713913304,-0.0533403987583716,-0.006876011307455188,-0.13503220157712403
512,0.5026,538.022,60.543,2.88978,185.321,-107.679,-13.0254,0.203441,-0.0549147,-0.145325,0.152808,0.0236546,-0.00691606,0.244878,0.22561284435016926,0.16510125802467623,0.02393658910729979,-0.0534341134199422,-0.0068921990965400415,-0.13525879345547853
513,0.5036,538.28,60.567,2.89365,185.401,-107.761,-13.0349,0.203803,-0.0550137,-0.145586,0.153082,0.023655,-0.00693235,0.245334,0.2260565965141197,0.16542053950894076,0.023936998682017263,-0.05352781880422064,-0.006908376690849871,-0.13548446145943105
514,0.5046,538.539,60.591,2.8975,185.481,-107.842,-13.0444,0.204165,-0.0551127,-0.145847,0.153356,0.0236553,-0.00694865,0.24579,0.22650050934543264,0.16573990848831843,0.023937305863162894,-0.05362151491212508,-0.006924563952383278,-0.13571007057172035
515,0.5056,538.797,60.6149,2.90135,185.561,-107.924,-13.0539,0.204526,-0.0552116,-0.146108,0.15363,0.0236556,-0.00696494,0.246246,0.22694335595831072,0.16605936498678586,0.023937613044400674,-0.05371510711608951,-0.0069407410194739505,-0.13593562080771493
516,0.5066,539.055,60.6388,2.90518,185.641,-108.006,-13.0634,0.204888,-0.0553105,-0.146369,0.153904,0.0236558,-0.00698123,0.246701,0.22738758985465157,0.16637890902832675,0.02393781783194382,-0.053808690064242715,-0.006956917823042308,-0.1361611121827796
517,0.5076,539.312,60.6626,2.90901,185.721,-108.087,-13.0729,0.205249,-0.0554094,-0.14663,0.154178,0.023656,-0.00699753,0.247156,0.22783075676140285,0.16669854063693124,0.02393802261952782,-0.05390226375749996,-0.0069731042933616205,-0.13638654471227507
518,0.5086,539.57,60.6865,2.91283,185.801,-108.168,-13.0823,0.205611,-0.0555082,-0.146891,0.154452,0.0236561,-0.00701382,0.247611,0.22827531195498585,0.16701825983659568,0.023938125013335254,-0.05399573359635457,-0.006989280569736578,-0.13661191841155795
519,0.5096,539.826,60.7102,2.91664,185.88,-108.249,-13.0917,0.205972,-0.0556071,-0.147152,0.154725,0.0236561,-0.00703011,0.248066,0.2287187993872668,0.16733689931384088,0.023938125013335254,-0.05408928879192121,-0.007005456582602099,-0.13683723329598108
520,0.5106,540.083,60.734,2.92044,185.96,-108.329,-13.1011,0.206333,-0.0557058,-0.147413,0.154999,0.023656,-0.00704641,0.248521,0.22916244694741228,0.16765679344774775,0.02393802261952782,-0.05418264557188457,-0.007021642261746175,-0.13706248938089305
521,0.5116,540.339,60.7577,2.92424,186.039,-108.41,-13.1105,0.206693,-0.0558046,-0.147673,0.155272,0.0236559,-0.0070627,0.248976,0.22960502508759872,0.1679756072684655,0.023937920225730824,-0.0542760877103845,-0.007037817747444053,-0.1372868239688938
522,0.5126,540.594,60.7814,2.92802,186.118,-108.49,-13.1199,0.207054,-0.0559033,-0.147934,0.155545,0.0236557,-0.00707899,0.24943,0.23004899263297585,0.16829450813723779,0.02393771543816725,-0.05436942605420436,-0.007053992969645373,-0.13751196272595212
523,0.5136,540.849,60.805,2.9318,186.197,-108.57,-13.1292,0.207415,-0.056002,-0.148194,0.155818,0.0236554,-0.00709529,0.249884,0.23049312047956927,0.16861349607783205,0.023937408256898607,-0.054462755185984424,-0.0070701778576528485,-0.13773618046607405
524,0.5146,541.104,60.8286,2.93556,186.276,-108.65,-13.1385,0.207775,-0.0561007,-0.148454,0.156091,0.023655,-0.00711158,0.250338,0.2309361777484653,0.16893257111402193,0.023936998682017263,-0.05455607510663374,-0.007086352552712283,-0.1379603399171615
525,0.5156,541.359,60.8522,2.93932,186.355,-108.73,-13.1478,0.208135,-0.0561993,-0.148714,0.156364,0.0236546,-0.00712787,0.250792,0.23137939454669176,0.16925173326958798,0.02393658910729979,-0.05464929128199525,-0.007102526984288038,-0.13818444109436756
526,0.5166,541.613,60.8757,2.94307,186.434,-108.81,-13.1571,0.208495,-0.0562979,-0.148974,0.156636,0.0236541,-0.00714417,0.251246,0.23182277093168935,0.1695698129979193,0.02393607713913304,-0.05474249826669497,-0.0071187110811975485,-0.13840848401284145
527,0.5176,541.867,60.8992,2.94681,186.512,-108.889,-13.1664,0.208855,-0.0563965,-0.149234,0.156909,0.0236536,-0.00716046,0.2517,0.23226630696091988,0.16988914914426845,0.023935565171222528,-0.05483569606163907,-0.007134884985657175,-0.1386324686877286
528,0.5186,542.12,60.9226,2.95054,186.591,-108.968,-13.1756,0.209215,-0.0564951,-0.149494,0.157181,0.023653,-0.00717675,0.252153,0.23271000269186537,0.1702074022732991,0.02393495081006769,-0.0549288846677336,-0.007151058626646112,-0.13885639513417025
529,0.5196,542.373,60.9461,2.95427,186.669,-109.047,-13.1849,0.209575,-0.0565936,-0.149754,0.157454,0.0236523,-0.00719304,0.252606,0.23315385818202916,0.17052691250528196,0.023934234055853043,-0.05502196958808625,-0.007167232004168578,-0.13908026336730395
530,0.5206,542.626,60.9694,2.95798,186.747,-109.126,-13.1941,0.209934,-0.0566921,-0.150013,0.157726,0.0236516,-0.00720933,0.253059,0.23359663989167778,0.17084533912954125,0.023933517302139995,-0.05511504534002587,-0.007183405118228792,-0.13930321270590618
531,0.5216,542.878,60.9928,2.96169,186.826,-109.205,-13.2033,0.210294,-0.0567905,-0.150273,0.157998,0.0236507,-0.00722563,0.253512,0.2340408146286943,0.17116385237762244,0.023932595762389264,-0.055208017445261826,-0.007199587896835391,-0.13952696478157234
532,0.5226,543.13,61.0161,2.96539,186.904,-109.283,-13.2124,0.210653,-0.0568889,-0.150532,0.15827,0.0236499,-0.00724192,0.253965,0.23448391481287012,0.17148245227309067,0.023931776616640255,-0.05530098040249265,-0.007215760483822442,-0.13974979843948954
533,0.5236,543.382,61.0394,2.96908,186.981,-109.362,-13.2216,0.211012,-0.0569873,-0.150791,0.158541,0.0236489,-0.00725821,0.254418,0.23492717409856922,0.17179996703896405,0.02393075268537559,-0.05539393421261862,-0.007231932807360231,-0.13997257439096267
534,0.5246,543.633,61.0626,2.97276,187.059,-109.44,-13.2307,0.211371,-0.0570857,-0.151051,0.158813,0.0236479,-0.0072745,0.25487,0.23537059254291903,0.17211873998115368,0.02392972875513477,-0.05548687887653958,-0.007248104867453087,-0.14019615245521322
535,0.5256,543.884,61.0859,2.97644,187.137,-109.518,-13.2399,0.21173,-0.057184,-0.15131,0.159084,0.0236468,-0.00729079,0.255322,0.23581417020306783,0.17243642720436303,0.023928602433052726,-0.05557971995313238,-0.007264276664105118,-0.1404188128159659
536,0.5266,544.134,61.109,2.9801,187.215,-109.596,-13.249,0.212089,-0.0572823,-0.151569,0.159356,0.0236457,-0.00730708,0.255774,0.23625790713618455,0.17275537328726331,0.023927476112209467,-0.05567255190389586,-0.007280448197320766,-0.14064141551515263
537,0.5276,544.384,61.1322,2.98376,187.292,-109.673,-13.258,0.212448,-0.0573806,-0.151828,0.159627,0.0236445,-0.00732337,0.256226,0.23670180339945812,0.17307323306147837,0.02392624739997551,-0.05576537472972709,-0.007296619467104248,-0.1408639605677059
538,0.5286,544.634,61.1553,2.98741,187.369,-109.751,-13.2671,0.212806,-0.0574789,-0.152086,0.159898,0.0236432,-0.00733966,0.256678,0.23714462190485808,0.173391178987365,0.023924916296719,-0.055858188431522904,-0.007312790473459896,-0.1410855890745727
539,0.5296,544.884,61.1784,2.99105,187.447,-109.828,-13.2762,0.213164,-0.0575771,-0.152345,0.160169,0.0236419,-0.00735595,0.25713,0.23758759896766324,0.17370921108827386,0.02392358519519311,-0.05595089860527491,-0.007328961216392038,-0.1413080191010705
540,0.5306,545.133,61.2014,2.99468,187.524,-109.905,-13.2852,0.213523,-0.0576752,-0.152604,0.16044,0.0236405,-0.00737223,0.257581,0.23803197267600051,0.1740273293875616,0.02392215170317713,-0.05604350527969015,-0.0073451217693562,-0.14153039152565128
541,0.5316,545.382,61.2244,2.99831,187.601,-109.982,-13.2942,0.213881,-0.0577734,-0.152862,0.16071,0.023639,-0.00738852,0.258032,0.23847526746725167,0.17434435956364402,0.02392061582110161,-0.0561361972562211,-0.007361291985615859,-0.14175184811550912
542,0.5326,545.63,61.2474,3.00192,187.678,-110.059,-13.3032,0.214239,-0.0578715,-0.15312,0.160981,0.0236375,-0.00740481,0.258483,0.23891872098644873,0.1746626500114934,0.0239190799413298,-0.05622878575373025,-0.00737746193846478,-0.14197324757693675
543,0.5336,545.878,61.2704,3.00553,187.754,-110.135,-13.3122,0.214596,-0.0579696,-0.153379,0.161251,0.0236359,-0.0074211,0.258934,0.23936109392871274,0.1749798517473038,0.023917441672112405,-0.05632136516875319,-0.007393631627907293,-0.14219544772965242
544,0.5346,546.126,61.2933,3.00913,187.831,-110.212,-13.3211,0.214954,-0.0580677,-0.153637,0.161522,0.0236342,-0.00743738,0.259385,0.23980486463055528,0.17529831443687272,0.02391570101394125,-0.0564139355021811,-0.00740979112804574,-0.14241673275714206
545,0.5356,546.373,61.3161,3.01272,187.908,-110.288,-13.3301,0.215312,-0.0581657,-0.153895,0.161792,0.0236325,-0.00745367,0.259836,0.24024879423075007,0.17561568782525017,0.02391396035872906,-0.056506402405549605,-0.0074259602908500755,-0.14263796070045898
546,0.5366,546.62,61.339,3.01631,187.984,-110.364,-13.339,0.215669,-0.0582637,-0.154153,0.162062,0.0236308,-0.00746996,0.260286,0.24069164209393068,0.1759331469160117,0.023912219706476057,-0.05659886024760563,-0.007442129190260882,-0.1428591315743286
547,0.5376,546.867,61.3618,3.01988,188.06,-110.44,-13.3479,0.216026,-0.0583617,-0.154411,0.162332,0.0236289,-0.00748624,0.260736,0.241134648082022,0.17625069173230012,0.023910274275106724,-0.056691309029237025,-0.007458287900865335,-0.1430802453934733
548,0.5386,547.113,61.3846,3.02345,188.137,-110.516,-13.3568,0.216383,-0.0584596,-0.154668,0.162602,0.023627,-0.00750253,0.261187,0.24157781225148467,0.1765683222972645,0.02390832884743377,-0.05678365442970201,-0.007474456273663721,-0.14330044547348486
549,0.5396,547.359,61.4073,3.02701,188.213,-110.591,-13.3657,0.21674,-0.0585575,-0.154926,0.162871,0.0236251,-0.00751881,0.261637,0.24202113465879993,0.17688486174860985,0.023906383423456967,-0.056875990789994724,-0.007490614457987599,-0.14352144544833012
550,0.5406,547.605,61.4301,3.03056,188.289,-110.667,-13.3746,0.217097,-0.0586554,-0.155183,0.163141,0.023623,-0.00753509,0.262086,0.24246461536046815,0.17720266356259629,0.023904233222309612,-0.05696831811100023,-0.007506772379258453,-0.1437415321544967
551,0.5416,547.85,61.4527,3.0341,188.365,-110.742,-13.3834,0.217454,-0.0587533,-0.155441,0.16341,0.023621,-0.00755138,0.262536,0.242908254413011,0.17751937367469495,0.023902185415890953,-0.05706063639360348,-0.007522939962251063,-0.1439624183436572
552,0.5426,548.095,61.4754,3.03764,188.441,-110.817,-13.3922,0.21781,-0.0588511,-0.155698,0.16368,0.0236188,-0.00756766,0.262985,0.24335080852153945,0.17783734683003138,0.023899932833560955,-0.057152851353979184,-0.007539097357266877,-0.14418239173435143
553,0.5436,548.34,61.498,3.04117,188.516,-110.892,-13.401,0.218167,-0.0589489,-0.155955,0.163949,0.0236166,-0.00758394,0.263435,0.24379476400151967,0.1781542276948942,0.02389768025618655,-0.057245057296172686,-0.007555254489242547,-0.14440230859914815
554,0.5446,548.584,61.5206,3.04469,188.592,-110.967,-13.4098,0.218523,-0.0590466,-0.156212,0.164218,0.0236143,-0.00760022,0.263884,0.2442376337636445,0.17847119381217547,0.023895325294229997,-0.05733715995478672,-0.0075714113581821785,-0.14462216895257263
555,0.5456,548.828,61.5432,3.0482,188.667,-111.041,-13.4186,0.218879,-0.0591443,-0.156469,0.164487,0.023612,-0.0076165,0.264333,0.24468066121547172,0.1787882452048115,0.02389297033769,-0.057429253615410514,-0.007587567964090103,-0.14484197280914646
556,0.5466,549.072,61.5657,3.05171,188.743,-111.116,-13.4274,0.219235,-0.059242,-0.156726,0.164756,0.0236096,-0.00763278,0.264782,0.2451238464131491,0.179105381895744,0.023890512997509994,-0.05752133827892325,-0.0076037243069706495,-0.14506172018338737
557,0.5476,549.315,61.5882,3.0552,188.818,-111.19,-13.4361,0.219591,-0.0593397,-0.156983,0.165024,0.0236072,-0.00764906,0.26523,0.24556718941284372,0.1794214244859076,0.023888055663227714,-0.057613413946203784,-0.007619880386828148,-0.14528141108980963
558,0.5486,549.558,61.6107,3.05869,188.893,-111.264,-13.4448,0.219947,-0.0594373,-0.15724,0.165293,0.0236047,-0.00766534,0.265679,0.24601069027074352,0.17973873152497766,0.023885495946288193,-0.05770538638867451,-0.007636036203666707,-0.14550104554292342
559,0.5496,549.8,61.6331,3.06217,188.968,-111.338,-13.4535,0.220303,-0.059535,-0.157496,0.165561,0.0236021,-0.00768162,0.266127,0.24645434904305574,0.18005494387558874,0.023882833847459484,-0.05779744407533305,-0.007652191757490767,-0.1457197692774319
560,0.5506,550.043,61.6555,3.06565,189.043,-111.412,-13.4622,0.220658,-0.0596325,-0.157753,0.16583,0.0235995,-0.00769789,0.266575,0.24689691888846577,0.18037242135429765,0.023880171755552126,-0.057889304346274706,-0.007668337124987934,-0.1459392910869668
561,0.5516,550.284,61.6779,3.06911,189.118,-111.486,-13.4709,0.221014,-0.0597301,-0.158009,0.166098,0.0235968,-0.00771417,0.267023,0.24734089321433106,0.18068880355654215,0.023877407282820506,-0.05798124986315634,-0.00768449215295719,-0.1461579026449752
562,0.5526,550.526,61.7002,3.07257,189.193,-111.559,-13.4796,0.221369,-0.0598276,-0.158266,0.166366,0.0235941,-0.00773045,0.267471,0.24778377783879169,0.18100527056057958,0.023874642817552916,-0.05807309221390733,-0.007700646917924825,-0.1463773118687025
563,0.5536,550.767,61.7225,3.07602,189.268,-111.632,-13.4882,0.221724,-0.0599251,-0.158522,0.166634,0.0235913,-0.00774672,0.267919,0.24822681971520466,0.18132182238914019,0.023871775972566622,-0.0581649256104656,-0.007716791497062947,-0.14659581130774257
564,0.5546,551.008,61.7448,3.07946,189.342,-111.706,-13.4969,0.222079,-0.0600225,-0.158778,0.166901,0.0235885,-0.007763,0.268366,0.2486700188994042,0.18163727742709157,0.023868909135607463,-0.058256655879374564,-0.007732945736201535,-0.14681425481808552
565,0.5556,551.249,61.7671,3.0829,189.417,-111.779,-13.5055,0.222434,-0.06012,-0.159034,0.167169,0.0235856,-0.00777927,0.268814,0.24911337544724477,0.1819539986561911,0.02386593992007624,-0.058348471379347955,-0.007749089789842234,-0.14703264241404712
566,0.5566,551.489,61.7893,3.08633,189.491,-111.851,-13.5141,0.222788,-0.0602174,-0.15929,0.167437,0.0235826,-0.00779554,0.269261,0.24955563985833518,0.1822708047779551,0.023862868326863795,-0.05844018377176963,-0.0077652335808212625,-0.1472509741099397
567,0.5576,551.729,61.8115,3.08975,189.565,-111.924,-13.5227,0.223143,-0.0603147,-0.159546,0.167704,0.0235796,-0.00781181,0.269708,0.24999931085742788,0.18258651322803332,0.0238597967428662,-0.05853179308502321,-0.00778137710914284,-0.1474692499200717
568,0.5586,551.969,61.8336,3.09316,189.639,-111.997,-13.5312,0.223497,-0.0604121,-0.159801,0.167971,0.0235765,-0.00782809,0.270155,0.25044188894517094,0.1829023059835222,0.02385662278241596,-0.058623487622780246,-0.007797530296836275,-0.14768661754579204
569,0.5596,552.208,61.8558,3.09657,189.713,-112.069,-13.5398,0.223852,-0.0605094,-0.160057,0.168239,0.0235734,-0.00784436,0.270602,0.2508858746185407,0.18321936628570845,0.023853448831804958,-0.05871507910143692,-0.007813673299694623,-0.1479047818454785
570,0.5606,552.447,61.8779,3.09996,189.787,-112.141,-13.5483,0.224206,-0.0606066,-0.160312,0.168506,0.0235702,-0.00786063,0.271048,0.25132876660541226,0.1835353280355232,0.023850172506010958,-0.05880656754933766,-0.00782981603990851,-0.14812203842471672
571,0.5616,552.686,61.9,3.10335,189.861,-112.213,-13.5568,0.22456,-0.0607039,-0.160568,0.168772,0.023567,-0.00787689,0.271494,0.2517718154038011,0.1838501903076064,0.023846896190701017,-0.058898141215184,-0.007845948595941676,-0.14834009127092485
572,0.5626,552.924,61.922,3.10674,189.935,-112.285,-13.5653,0.224914,-0.0608011,-0.160823,0.169039,0.0235637,-0.00789316,0.271941,0.25221502106922844,0.18416632050992243,0.023843517501518363,-0.05898961187031204,-0.007862090811040723,-0.14855723686041145
573,0.5636,553.162,61.944,3.11011,190.009,-112.357,-13.5738,0.225268,-0.0608983,-0.161078,0.169306,0.0235603,-0.00790943,0.272387,0.25265838365723514,0.1844825351302719,0.02384003643947663,-0.05908107363492443,-0.007878232763508075,-0.14877432708483207
574,0.5646,553.4,61.966,3.11348,190.082,-112.429,-13.5823,0.225621,-0.0609954,-0.161333,0.169573,0.0235569,-0.00792569,0.272833,0.2531006501221045,0.18479883419119725,0.023836555389270542,-0.059172432427133326,-0.007894364532291753,-0.14899136195830298
575,0.5656,553.637,61.988,3.11684,190.156,-112.5,-13.5908,0.225975,-0.0610925,-0.161588,0.169839,0.0235534,-0.00794196,0.273278,0.25354432627829415,0.18511403260062198,0.023832971967597816,-0.059263782348834226,-0.007910505959669911,-0.149208341494937
576,0.5666,553.874,62.0099,3.12019,190.229,-112.572,-13.5992,0.226328,-0.0611896,-0.161843,0.170105,0.0235499,-0.00795822,0.273724,0.2539869055361137,0.18542931486397585,0.023829388558466835,-0.05935512340088833,-0.007926637203695686,-0.14942526570884296
577,0.5676,554.111,62.0318,3.12354,190.302,-112.643,-13.6076,0.226681,-0.0612867,-0.162098,0.170371,0.0235464,-0.00797449,0.274169,0.25442964105198906,0.18574468100356678,0.023825805161877822,-0.05944645558415684,-0.007942778106001747,-0.14964213461412668
578,0.5686,554.347,62.0537,3.12688,190.376,-112.714,-13.616,0.227034,-0.0613837,-0.162353,0.170637,0.0235427,-0.00799075,0.274615,0.25487253288108924,0.1860601310417087,0.023822017013406693,-0.05953768485327404,-0.007958908825286604,-0.14985894822488988
579,0.5696,554.583,62.0755,3.13021,190.449,-112.785,-13.6244,0.227387,-0.0614807,-0.162607,0.170903,0.023539,-0.00800701,0.27506,0.2553155810786023,0.186375665000722,0.023818228878951908,-0.059628905273581445,-0.007975039282288154,-0.15007485663051245
580,0.5706,554.819,62.0973,3.13353,190.522,-112.855,-13.6328,0.22774,-0.0615777,-0.162862,0.171169,0.0235353,-0.00802327,0.275505,0.25575878569973653,0.18669128290293213,0.023814440758513022,-0.05972011684593714,-0.007991169477010618,-0.1502915599112291
581,0.5716,555.054,62.1191,3.13685,190.594,-112.926,-13.6412,0.228093,-0.0616746,-0.163116,0.171435,0.0235315,-0.00803953,0.275949,0.25620214679971864,0.18700698477067124,0.023810550271030184,-0.05981122555232665,-0.008007299409458213,-0.15050735844743734
582,0.5726,555.289,62.1409,3.14016,190.667,-112.997,-13.6495,0.228446,-0.0617715,-0.16337,0.171701,0.0235277,-0.00805579,0.276394,0.256645664433796,0.187322770626277,0.023806659798331076,-0.05990232543071017,-0.00802342907963527,-0.15072310217777796
583,0.5736,555.524,62.1626,3.14346,190.74,-113.067,-13.6579,0.228798,-0.0618684,-0.163625,0.171966,0.0235238,-0.00807205,0.276838,0.25708808156852414,0.18763745285404654,0.02380266696014388,-0.05999341648194323,-0.008039558487545895,-0.15093964017695438
584,0.5746,555.759,62.1843,3.14676,190.812,-113.137,-13.6662,0.22915,-0.0619653,-0.163879,0.172231,0.0235199,-0.00808831,0.277283,0.2575306544614957,0.18795221848365684,0.023798674137528675,-0.06008449870688104,-0.008055687633194641,-0.15115527412167917
585,0.5756,555.993,62.206,3.15005,190.885,-113.207,-13.6745,0.229502,-0.0620621,-0.164133,0.172496,0.0235159,-0.00810456,0.277727,0.25797338316754725,0.188267067537212,0.02379457895102255,-0.060175478123931425,-0.008071806597303666,-0.15137085330233735
586,0.5766,556.227,62.2276,3.15333,190.957,-113.277,-13.6828,0.229855,-0.0621589,-0.164387,0.172762,0.0235118,-0.00812082,0.278171,0.25841752615843117,0.18858318861941692,0.023790381401853855,-0.06026644873460041,-0.008087935218602293,-0.15158637773283712
587,0.5776,556.46,62.2493,3.1566,191.03,-113.347,-13.6911,0.230206,-0.0622556,-0.16464,0.173027,0.0235077,-0.00813707,0.278615,0.25885930823833214,0.18889820490221498,0.02378618386989495,-0.06035731657547694,-0.008104053658692378,-0.15180099922850665
588,0.5786,556.693,62.2709,3.15987,191.102,-113.416,-13.6994,0.230558,-0.0623524,-0.164894,0.173291,0.0235036,-0.00815332,0.279058,0.25930250471283545,0.18921211546268002,0.023781986355146056,-0.060448269585035685,-0.008120171836859869,-0.1520164144158157
589,0.5796,556.926,62.2924,3.16313,191.174,-113.486,-13.7076,0.23091,-0.0624491,-0.165148,0.173556,0.0234994,-0.00816958,0.279502,0.2597458572199578,0.18952729843317684,0.023777686479833138,-0.06053911984468596,-0.008136299671746117,-0.15223177489461548
590,0.5806,557.159,62.314,3.16638,191.246,-113.555,-13.7158,0.231261,-0.0625457,-0.165401,0.173821,0.0234951,-0.00818583,0.279945,0.2601881056258968,0.1898425649382285,0.02377328424524605,-0.06062986738253229,-0.008152417325920203,-0.1524462331254569
591,0.5816,557.391,62.3355,3.16963,191.318,-113.624,-13.7241,0.231613,-0.0626424,-0.165654,0.174085,0.0234908,-0.00820208,0.280388,0.26063176991941184,0.190156724842655,0.02376888202958849,-0.060720700082524615,-0.008168534718184461,-0.15266063710522915
592,0.5826,557.623,62.357,3.17287,191.39,-113.693,-13.7323,0.231964,-0.062739,-0.165908,0.17435,0.0234865,-0.00821832,0.280831,0.2610743293352873,0.19047215816780794,0.023764479832860452,-0.06081143008056722,-0.008184641930389702,-0.15287583397224536
593,0.5836,557.855,62.3784,3.1761,191.461,-113.762,-13.7405,0.232315,-0.0628356,-0.166161,0.174614,0.0234821,-0.00823457,0.281274,0.2615170441167829,0.19078648430678902,0.023759975279059375,-0.06090215131451526,-0.00820075879900839,-0.15309012927675125
594,0.5846,558.086,62.3998,3.17933,191.533,-113.831,-13.7486,0.232666,-0.0629321,-0.166414,0.174878,0.0234776,-0.00825082,0.281717,0.26195991431844146,0.1911008934388252,0.02375536836953618,-0.06099276988449709,-0.008216875405730129,-0.153304370371403
595,0.5856,558.317,62.4212,3.18254,191.605,-113.9,-13.7568,0.233017,-0.0630286,-0.166667,0.175142,0.0234731,-0.00826706,0.282159,0.2624029399948251,0.19141538558582982,0.023750761480743954,-0.06108337971020883,-0.008232981832889008,-0.15351855726991392
596,0.5866,558.548,62.4426,3.18575,191.676,-113.968,-13.765,0.233368,-0.0631251,-0.16692,0.175406,0.0234685,-0.00828331,0.282602,0.26284612120051487,0.19172996076972182,0.023746052238072357,-0.061173980792494254,-0.00824909791599071,-0.15373268998599376
597,0.5876,558.778,62.464,3.18896,191.747,-114.036,-13.7731,0.233718,-0.0632216,-0.167173,0.17567,0.0234639,-0.00829955,0.283044,0.26328819470128484,0.19204461901242542,0.023741343017063432,-0.06126457313219713,-0.00826520381986029,-0.1539467685333492
598,0.5886,559.009,62.4853,3.19216,191.819,-114.105,-13.7812,0.234069,-0.063318,-0.167425,0.175933,0.0234593,-0.00831579,0.283486,0.26373168668591496,0.19235816797710736,0.023736633817716513,-0.06135506286567194,-0.008281309462172093,-0.15415994708605296
599,0.5896,559.238,62.5066,3.19535,191.89,-114.173,-13.7893,0.234419,-0.0634144,-0.167678,0.176197,0.0234546,-0.00833203,0.283928,0.2641740701888522,0.19267299208840738,0.023731822266844782,-0.06144554387635692,-0.00829741484293034,-0.15437391755103502
600,0.5906,559.468,62.5279,3.19853,191.961,-114.241,-13.7974,0.234769,-0.0635108,-0.16793,0.17646,0.0234498,-0.00834827,0.284369,0.2646166085531143,0.19298670633694215,0.023726908365891308,-0.061536016165092855,-0.00831351996213936,-0.15458698847574814
601,0.5916,559.697,62.5491,3.20171,192.032,-114.308,-13.8055,0.235119,-0.0636071,-0.168183,0.176723,0.023445,-0.00836451,0.284811,0.2650593018329128,0.1933005031031747,0.023721994488524523,-0.06162638589536373,-0.008329624819803372,-0.15480085091292473
602,0.5926,559.926,62.5703,3.20488,192.103,-114.376,-13.8136,0.235469,-0.0637034,-0.168435,0.176986,0.0234402,-0.00838075,0.285252,0.26550215008247724,0.19361438240881035,0.023717080634744203,-0.06171674692344875,-0.008345729415926595,-0.15501381426398542
603,0.5936,560.155,62.5915,3.20804,192.174,-114.444,-13.8216,0.235819,-0.0637997,-0.168687,0.17725,0.0234353,-0.00839698,0.285694,0.2659451533560566,0.19392953820450098,0.023712064433338842,-0.06180709925018568,-0.008361823834131643,-0.1552267239550431
604,0.5946,560.383,62.6127,3.2112,192.244,-114.511,-13.8297,0.236169,-0.0638959,-0.168939,0.177512,0.0234303,-0.00841322,0.286135,0.2663883117079189,0.194242388725139,0.023706945885813013,-0.061897349066152074,-0.008377927907347149,-0.15543957999961833
605,0.5956,560.611,62.6338,3.21435,192.315,-114.578,-13.8377,0.236518,-0.0639921,-0.169191,0.177775,0.0234253,-0.00842945,0.286576,0.26683035836135915,0.1945565157792708,0.023701827363879824,-0.061987590200503706,-0.008394021802974883,-0.15565238241122847
606,0.5966,560.839,62.6549,3.21749,192.386,-114.645,-13.8457,0.236868,-0.0640883,-0.169443,0.178038,0.0234203,-0.00844568,0.287016,0.2672738265891985,0.19487072545968243,0.023696708867539273,-0.0620778226540758,-0.008410115437400889,-0.15586513120338719
607,0.5976,561.066,62.676,3.22063,192.456,-114.712,-13.8537,0.237217,-0.0641845,-0.169695,0.1783,0.0234152,-0.00846191,0.287457,0.2677161823412668,0.19518382260368772,0.02369148802763732,-0.06216804642770335,-0.008426208810629277,-0.15607782638960488
608,0.5986,561.294,62.6971,3.22376,192.526,-114.779,-13.8617,0.237566,-0.0642806,-0.169947,0.178563,0.0234101,-0.00847814,0.287898,0.2681586925024355,0.1954981972874914,0.0236862672143614,-0.062258167748042825,-0.008442301922664264,-0.15629046798338853
609,0.5996,561.52,62.7181,3.22688,192.597,-114.846,-13.8697,0.237915,-0.0643767,-0.170199,0.178825,0.0234049,-0.00849437,0.288338,0.2686013571266028,0.19581145885065365,0.023680944059612186,-0.06234828040813967,-0.00845839477351018,-0.15650305599824188
610,0.6006,561.747,62.7392,3.23,192.667,-114.912,-13.8776,0.238264,-0.0644728,-0.17045,0.179087,0.0233996,-0.0085106,0.288778,0.2690441762676854,0.19612480249909803,0.023675518564986175,-0.062438384408825875,-0.008474487363171357,-0.15671474716283373
611,0.6016,561.973,62.7601,3.23311,192.737,-114.979,-13.8856,0.238613,-0.0645688,-0.170701,0.17935,0.0233944,-0.00852683,0.289218,0.2694871499796194,0.19643942469316023,0.023670195466129584,-0.06252838600377686,-0.00849057969165179,-0.1569263851996111
612,0.6026,562.199,62.7811,3.23621,192.807,-115.045,-13.8935,0.238962,-0.0646648,-0.170953,0.179612,0.023389,-0.00854305,0.289658,0.2699302783163593,0.19675293289021023,0.02366466766199915,-0.06261837895898958,-0.0085066618440226,-0.15713881298351584
613,0.6036,562.425,62.802,3.23931,192.877,-115.111,-13.9014,0.23931,-0.0647608,-0.171204,0.179873,0.0233837,-0.00855927,0.290097,0.2703722909589523,0.1970653261712445,0.023659242253637913,-0.06270836327529317,-0.00852274373554307,-0.15735034459312947
614,0.6046,562.65,62.8229,3.2424,192.947,-115.178,-13.9093,0.239659,-0.0648567,-0.171455,0.180135,0.0233783,-0.0085755,0.290537,0.27081572826380573,0.19737899837596573,0.023653714508654833,-0.06279824523334632,-0.008538835280828994,-0.1575618231149718
615,0.6056,562.875,62.8438,3.24549,193.016,-115.243,-13.9172,0.240007,-0.0649526,-0.171706,0.180397,0.0233728,-0.00859172,0.290976,0.27125804909660256,0.19769275277357168,0.023648084428707694,-0.06288811857213294,-0.008554916650500455,-0.1577732485623663
616,0.6066,563.1,62.8647,3.24856,193.086,-115.309,-13.9251,0.240355,-0.0650485,-0.171957,0.180658,0.0233673,-0.00860794,0.291415,0.2717005238838357,0.19800539137960893,0.023642454379726008,-0.06297798329247972,-0.008570997759334231,-0.15798462094863297
617,0.6076,563.325,62.8855,3.25163,193.156,-115.375,-13.933,0.240703,-0.0651444,-0.172208,0.18092,0.0233617,-0.00862415,0.291855,0.2721431526790907,0.1983193099136824,0.023636721998032018,-0.06306783939521299,-0.008587068693205246,-0.1581959402870884
618,0.6086,563.549,62.9064,3.2547,193.225,-115.441,-13.9408,0.241051,-0.0652402,-0.172459,0.181181,0.0233561,-0.00864037,0.292293,0.27258593553597144,0.1986321120724761,0.02363098964843946,-0.06315759319692316,-0.008603149280537181,-0.158407206591046
619,0.6096,563.773,62.9271,3.25776,193.295,-115.506,-13.9486,0.241399,-0.065336,-0.172709,0.181442,0.0233505,-0.00865659,0.292732,0.27302887250810115,0.19894499588328807,0.02362525733094789,-0.06324733840063101,-0.008619229607043977,-0.15861757849181501
620,0.6106,563.996,62.9479,3.26081,193.364,-115.571,-13.9565,0.241746,-0.0654317,-0.17296,0.181703,0.0233448,-0.0086728,0.293171,0.2734706901777939,0.19925796136743257,0.023619422683609947,-0.06333698134086296,-0.00863529975908317,-0.15882873897786398
621,0.6116,564.22,62.9686,3.26385,193.433,-115.637,-13.9643,0.242094,-0.0655275,-0.17321,0.181964,0.0233391,-0.00868901,0.293609,0.27391393509811857,0.19957100854622922,0.0236135880695294,-0.06342670936000971,-0.008651369650627294,-0.15903900550870798
622,0.6126,564.443,62.9894,3.26689,193.502,-115.702,-13.9721,0.242441,-0.0656232,-0.173461,0.182225,0.0233333,-0.00870522,0.294047,0.274356059937821,0.19988413744100297,0.023607651127935725,-0.06351633513526223,-0.008667439281680456,-0.15925006022984978
623,0.6136,564.666,63.0101,3.26993,193.571,-115.767,-13.9799,0.242788,-0.0657188,-0.173711,0.182486,0.0233275,-0.00872143,0.294485,0.2747983382214638,0.20019734807308476,0.023601714220776282,-0.063605858694329,-0.008683508652247096,-0.159460221443546
624,0.6146,564.888,63.0307,3.27295,193.64,-115.831,-13.9876,0.243136,-0.0658145,-0.173961,0.182746,0.0233216,-0.00873764,0.294923,0.275242045243709,0.2005094399537699,0.023595674988478033,-0.06369546732581055,-0.008699577762331434,-0.15967033012350584
625,0.6156,565.11,63.0514,3.27597,193.709,-115.896,-13.9954,0.243483,-0.0659101,-0.174211,0.183007,0.0233157,-0.00875385,0.295361,0.2756846310175993,0.20082281381110745,0.02358963579181128,-0.0637849737606585,-0.008715646611937466,-0.15988038628286094
626,0.6166,565.332,63.072,3.27899,193.778,-115.961,-14.0032,0.243829,-0.0660057,-0.174461,0.183267,0.0233097,-0.00877006,0.295799,0.27612609426866963,0.20113506833402717,0.023583494272421124,-0.0638744716391002,-0.008731715201069634,-0.16009038993474
627,0.6176,565.554,63.0926,3.282,193.847,-116.025,-14.0109,0.244176,-0.0661012,-0.174711,0.183527,0.0233037,-0.00878626,0.296236,0.27656898686080167,0.20144740405367823,0.023577352789879935,-0.06396386735834514,-0.008747773617209909,-0.1603003410922681
628,0.6186,565.775,63.1131,3.285,193.915,-116.089,-14.0186,0.244523,-0.0661967,-0.174961,0.183787,0.0232977,-0.00880246,0.296673,0.2770120331633301,0.20175982099117395,0.023571211344187493,-0.06405325454070654,-0.008763831773205832,-0.16051023976856726
629,0.6196,565.996,63.1337,3.28799,193.984,-116.154,-14.0263,0.244869,-0.0662922,-0.17521,0.184047,0.0232916,-0.00881866,0.297111,0.27745395577500775,0.20207231916763435,0.023564967578841856,-0.06414263318699953,-0.008779889669061847,-0.16071924669642246
630,0.6206,566.217,63.1542,3.29098,194.052,-116.218,-14.034,0.245215,-0.0663877,-0.17546,0.184307,0.0232855,-0.00883486,0.297548,0.2778960313183647,0.20238489860418363,0.023558723851583085,-0.06423200329803946,-0.008795947304781948,-0.16092904065941038
631,0.6216,566.438,63.1747,3.29396,194.121,-116.282,-14.0417,0.245562,-0.0664831,-0.175709,0.184567,0.0232793,-0.00885106,0.297984,0.2783395381852234,0.20269755932195288,0.02355237780716779,-0.06432127130677312,-0.008812004680370578,-0.1611379433188257
632,0.6226,566.658,63.1952,3.29694,194.189,-116.345,-14.0494,0.245908,-0.0665785,-0.175959,0.184826,0.0232731,-0.00886726,0.298421,0.27878192019310943,0.20300909833237757,0.023546031802098133,-0.06441053079974501,-0.008828061795831732,-0.16134763262074114
633,0.6236,566.878,63.2156,3.29991,194.257,-116.409,-14.0571,0.246254,-0.0666739,-0.176208,0.185086,0.0232669,-0.00888345,0.298858,0.2792244552916534,0.20332192136317562,0.023539685836373447,-0.06449978177776727,-0.008844108739610945,-0.16155643106373363
634,0.6246,567.097,63.2361,3.30287,194.326,-116.473,-14.0647,0.2466,-0.0667692,-0.176457,0.185345,0.0232606,-0.00889965,0.299294,0.2796671435338338,0.20363362210431224,0.02353323755666481,-0.06458893070055027,-0.008860165334990566,-0.16176517752238606
635,0.6256,567.317,63.2565,3.30583,194.394,-116.536,-14.0724,0.246945,-0.0668646,-0.176706,0.185605,0.0232542,-0.00891584,0.29973,0.28010870486330264,0.2039466075324019,0.02352668696490623,-0.06467816466003384,-0.00887621175901765,-0.16197387200964108
636,0.6266,567.536,63.2769,3.30878,194.462,-116.6,-14.08,0.247291,-0.0669598,-0.176955,0.185864,0.0232478,-0.00893203,0.300166,0.2805516991087702,0.2042584700882104,0.023520136415071446,-0.06476720306046313,-0.008892257923255209,-0.1621825145384378
637,0.6276,567.755,63.2972,3.31173,194.529,-116.663,-14.0876,0.247636,-0.0670551,-0.177204,0.186123,0.0232414,-0.00894822,0.300602,0.2809935656625606,0.20457041342688198,0.023513585907160017,-0.06485632649921214,-0.008908303827707464,-0.1623911051217124
638,0.6286,567.973,63.3176,3.31467,194.597,-116.726,-14.0952,0.247982,-0.0671503,-0.177453,0.186382,0.0232349,-0.00896441,0.301038,0.281436866122837,0.20488243756934166,0.02350693309047336,-0.06494534793944162,-0.008924349472378634,-0.16259964377239766
639,0.6296,568.192,63.3379,3.3176,194.665,-116.789,-14.1028,0.248327,-0.0672455,-0.177702,0.186641,0.0232284,-0.00898059,0.301473,0.2818790381119316,0.2051945425365207,0.023500280317029887,-0.0650343609052334,-0.008940384946676816,-0.16280813050342313
640,0.6306,568.41,63.3582,3.32053,194.733,-116.852,-14.1104,0.248672,-0.0673406,-0.17795,0.1869,0.0232219,-0.00899678,0.301909,0.2823213626766803,0.20550672834935524,0.023493627586829158,-0.06512327190972611,-0.008956430071958899,-0.16301572834386202
641,0.6316,568.627,63.3784,3.32345,194.8,-116.915,-14.1179,0.249017,-0.0674358,-0.178199,0.187158,0.0232153,-0.00901296,0.302344,0.28276383986973075,0.20581778921039495,0.02348687255117876,-0.06521226793796209,-0.008972465027197174,-0.16322411148272697
642,0.6326,568.845,63.3987,3.32637,194.868,-116.977,-14.1255,0.249362,-0.0675309,-0.178447,0.187417,0.0232087,-0.00902914,0.302779,0.28320646974374886,0.20613013646502387,0.02348011756011137,-0.06530116202430036,-0.008988499722992094,-0.16343160617267416
643,0.6336,569.062,63.4189,3.32928,194.935,-117.04,-14.133,0.249706,-0.0676259,-0.178696,0.187675,0.023202,-0.00904532,0.303214,0.28364796870280795,0.20644135818610754,0.023473260266295704,-0.06538995419621318,-0.009004534159347544,-0.1636398857708511
644,0.6346,569.279,63.4391,3.33218,195.002,-117.102,-14.1406,0.250051,-0.067721,-0.178944,0.187933,0.0231953,-0.0090615,0.303649,0.2840909036538961,0.2067526602127543,0.02346640301842373,-0.06547883138539179,-0.009020568336268076,-0.16384727736155968
645,0.6356,569.495,63.4593,3.33508,195.07,-117.164,-14.1481,0.250395,-0.067816,-0.179192,0.188191,0.0231885,-0.00907768,0.304084,0.2845327069105563,0.20706404256568534,0.023459443470545738,-0.06556760667951689,-0.009036602253757575,-0.16405461752553108
646,0.6366,569.712,63.4794,3.33797,195.137,-117.227,-14.1556,0.25074,-0.067911,-0.17944,0.188449,0.0231818,-0.00909385,0.304518,0.2849759471489852,0.20737550526562787,0.023452586315245938,-0.06565637354038967,-0.009052626002346797,-0.1642619062755173
647,0.6376,569.928,63.4996,3.34086,195.204,-117.289,-14.1631,0.251084,-0.0680059,-0.179688,0.188707,0.0231749,-0.00911003,0.304952,0.2854180549129801,0.2076870483333142,0.023445524516763516,-0.06574503854331981,-0.009068659401147539,-0.16446914362426757
648,0.6386,570.144,63.5197,3.34374,195.271,-117.351,-14.1706,0.251428,-0.0681008,-0.179936,0.188965,0.023168,-0.0091262,0.305387,0.2858603147882075,0.20799867178948128,0.02343846276700745,-0.06583369513234039,-0.00908468263137685,-0.16467632958452783
649,0.6396,570.359,63.5397,3.34661,195.338,-117.412,-14.178,0.251772,-0.0681957,-0.180184,0.189223,0.0231611,-0.00914237,0.305821,0.2863027268270024,0.20831037565487276,0.023431401065977298,-0.06592234330824975,-0.009100705602512638,-0.16488346416904065
650,0.6406,570.575,63.5598,3.34948,195.405,-117.474,-14.1855,0.252115,-0.0682906,-0.180431,0.189481,0.0231542,-0.00915854,0.306254,0.2867440043370708,0.20862215995023625,0.023424339413672612,-0.06601098307184661,-0.00911672831455912,-0.16508971248067583
651,0.6416,570.79,63.5799,3.35234,195.472,-117.536,-14.1929,0.252459,-0.0683854,-0.180679,0.189738,0.0231472,-0.00917471,0.306688,0.2871867204173628,0.20893281576290557,0.02341717546837052,-0.06609952103388561,-0.009132750767520403,-0.16529674455894183
652,0.6426,571.004,63.5999,3.3552,195.538,-117.597,-14.2004,0.252803,-0.0684802,-0.180926,0.189995,0.0231402,-0.00919087,0.307122,0.2876295888181839,0.20924355142437867,0.023410011573216094,-0.06618805060292376,-0.009148763052888365,-0.16550289080292657
653,0.6436,571.219,63.6199,3.35805,195.605,-117.659,-14.2078,0.253146,-0.068575,-0.181174,0.190253,0.0231331,-0.00920704,0.307555,0.28807132151997616,0.20955557651015155,0.02340274538792886,-0.06627657177975654,-0.009164784987852115,-0.16570982042567362
654,0.6446,571.433,63.6399,3.3609,195.671,-117.72,-14.2152,0.253489,-0.0686697,-0.181421,0.19051,0.023126,-0.0092232,0.307988,0.28851320576207296,0.20986647224170496,0.023395479254231466,-0.06636499120168327,-0.00918079675555128,-0.16591586465251895
655,0.6456,571.647,63.6598,3.36374,195.738,-117.781,-14.2226,0.253833,-0.0687644,-0.181668,0.190767,0.0231188,-0.00923936,0.308421,0.28895653055234716,0.2101774478837295,0.023388110833307163,-0.06645340225068719,-0.00919680826450231,-0.16612185799272494
656,0.6466,571.861,63.6797,3.36657,195.804,-117.842,-14.23,0.254176,-0.0688591,-0.181915,0.191024,0.0231117,-0.00925552,0.308854,0.28939871847321985,0.2104885034567645,0.023380844803514655,-0.06654180492756123,-0.009212819514709536,-0.1663278004588592
657,0.6476,572.074,63.6996,3.3694,195.871,-117.903,-14.2374,0.254519,-0.0689538,-0.182162,0.191281,0.0231044,-0.00927168,0.309287,0.2898410580905637,0.21079963898135534,0.023373374150615467,-0.06663019923309821,-0.009228830506177066,-0.1665336920634859
658,0.6486,572.288,63.7196,3.37245,195.937,-117.964,-14.2447,0.254861,-0.0690484,-0.182409,0.191537,0.0230972,-0.00928787,0.30972,0.29028225917351547,0.21110964336780302,0.023366005888847408,-0.0667184918399446,-0.009244870961563345,-0.16673953281916642
659,0.6496,572.501,63.7392,3.37498,196.003,-118.024,-14.2519,0.255204,-0.0691429,-0.182656,0.191794,0.0230899,-0.00930407,0.310152,0.2907249018972995,0.21142093854586563,0.02335853534427179,-0.06680668277537838,-0.009260921064647487,-0.16694532273845875
660,0.6506,572.714,63.759,3.37785,196.069,-118.085,-14.2592,0.255547,-0.0692375,-0.182903,0.19205,0.0230825,-0.00932026,0.310585,0.29116769647357876,0.21173110200536227,0.023350962519129936,-0.06689495868767137,-0.009276961000491912,-0.16715106183391804
661,0.6516,572.926,63.7787,3.38062,196.134,-118.145,-14.2664,0.255889,-0.069332,-0.18315,0.192307,0.0230752,-0.00933645,0.311017,0.2916093513444509,0.2120425569188198,0.023343492084370476,-0.06698313294777591,-0.00929300067665173,-0.16735675011809625
662,0.6526,573.139,63.7984,3.38342,196.2,-118.205,-14.2737,0.256231,-0.0694265,-0.183396,0.192563,0.0230677,-0.00935264,0.311449,0.2920511572871207,0.21235287953299076,0.023335817036961304,-0.06707129887580665,-0.009309040093131382,-0.16756155516551352
663,0.6536,573.351,63.8181,3.3862,196.266,-118.266,-14.2809,0.256573,-0.0695209,-0.183643,0.192819,0.0230603,-0.00936882,0.311881,0.2924931143532634,0.21266328159992054,0.023328244379934082,-0.0671593631884918,-0.009325069343185666,-0.1677671420703597
664,0.6546,573.563,63.8377,3.38899,196.332,-118.326,-14.2881,0.256915,-0.0696153,-0.183889,0.193075,0.0230528,-0.00938501,0.312313,0.2929352225945723,0.21297376313995153,0.023320569446882322,-0.06724741918829824,-0.009341108240477736,-0.16797184617377336
665,0.6556,573.774,63.8574,3.39176,196.397,-118.385,-14.2953,0.257257,-0.0697097,-0.184135,0.193331,0.0230453,-0.00940119,0.312744,0.29337748206275793,0.21328432417343168,0.023312894571392295,-0.06733546687601066,-0.009357136971673619,-0.168176499926171
666,0.6566,573.985,63.877,3.39453,196.463,-118.445,-14.3025,0.257599,-0.0698041,-0.184381,0.193587,0.0230377,-0.00941737,0.313176,0.293819892809549,0.2135949647207136,0.02330511742294683,-0.06742350625241356,-0.009373165443526732,-0.1683811033399374
667,0.6576,574.197,63.8966,3.3973,196.528,-118.505,-14.3097,0.257941,-0.0698984,-0.184627,0.193843,0.0230301,-0.00943354,0.313607,0.2942624548866912,0.21390568480215544,0.02329734033360742,-0.06751144406944076,-0.009389183749933139,-0.1685856564274545
668,0.6586,574.407,63.9162,3.40006,196.593,-118.565,-14.3169,0.258282,-0.0699927,-0.184873,0.194098,0.0230225,-0.00944972,0.314038,0.294703873641428,0.21421527022224351,0.023289563303373617,-0.06759937359432278,-0.009405211703273575,-0.16879015920110085
669,0.6596,574.618,63.9358,3.40281,196.659,-118.624,-14.3241,0.258624,-0.070087,-0.185119,0.194354,0.0230148,-0.00946589,0.314469,0.2951467380917179,0.2145261491222219,0.02328168400407149,-0.06768729482784153,-0.009421229491496264,-0.16899461167325225
670,0.6606,574.828,63.9553,3.40556,196.724,-118.684,-14.3312,0.258965,-0.0701813,-0.185365,0.194609,0.0230071,-0.00948206,0.3149,0.29558845843844583,0.214835892780886,0.02327380476543972,-0.06777520777077883,-0.009437247020713246,-0.16919901385628133
671,0.6616,575.038,63.9749,3.40831,196.789,-118.743,-14.3384,0.259306,-0.0702755,-0.185611,0.194865,0.0229993,-0.00949823,0.31533,0.29603032943749685,0.21514693058057777,0.02326582326089044,-0.06786301921022309,-0.009453264290928964,-0.16940336576255766
672,0.6626,575.248,63.9944,3.41104,196.854,-118.802,-14.3455,0.259647,-0.0703697,-0.185856,0.19512,0.0229915,-0.00951439,0.315761,0.2964723511402523,0.21545683255869874,0.023257841818596692,-0.06795082237821937,-0.009469271396840284,-0.1696068370117001
673,0.6636,575.457,64.0139,3.41378,196.919,-118.861,-14.3527,0.259988,-0.0704638,-0.186102,0.195375,0.0229837,-0.00953056,0.316191,0.2969145235981103,0.21576681357190064,0.023249860438558034,-0.0680385240794038,-0.009485288149226001,-0.16981108860581906
674,0.6646,575.667,64.0333,3.4165,196.984,-118.92,-14.3598,0.260329,-0.070558,-0.186347,0.19563,0.0229759,-0.00954672,0.316622,0.29735684686248764,0.21607687364034,0.0232418791207738,-0.06812631071562003,-0.009501294737635946,-0.17001445997510067
675,0.6656,575.876,64.0528,3.41923,197.049,-118.979,-14.3669,0.260669,-0.070652,-0.186593,0.195885,0.022968,-0.00956288,0.317052,0.2977980231861461,0.2163870127841785,0.023233795541858893,-0.06821390272552386,-0.009517301067381467,-0.17021861130630345
676,0.6666,576.084,64.0722,3.42194,197.113,-119.038,-14.374,0.26101,-0.0707461,-0.186838,0.196139,0.0229601,-0.00957904,0.317482,0.29824064777525594,0.2166960143269605,0.023225712026804013,-0.06830157967201234,-0.009533307138466784,-0.17042188284475324
677,0.6676,576.293,64.0916,3.42465,197.178,-119.097,-14.3811,0.26135,-0.0708402,-0.187083,0.196394,0.0229521,-0.00959519,0.317911,0.29868212464231414,0.2170063113718057,0.023217526253850984,-0.06838924836848836,-0.009549303046389235,-0.17062510458777613
678,0.6686,576.501,64.111,3.42736,197.243,-119.155,-14.3881,0.261691,-0.0709342,-0.187328,0.196648,0.0229441,-0.00961135,0.318341,0.29912505076142826,0.21731547023640774,0.023209340546383794,-0.06847681566341435,-0.009565308600326783,-0.17082827654757082
679,0.6696,576.709,64.1304,3.43006,197.307,-119.214,-14.3952,0.262031,-0.0710281,-0.187573,0.196903,0.0229361,-0.0096275,0.31877,0.29956682837662596,0.21762592526265157,0.023201154904402,-0.06856428158383432,-0.009581303991429757,-0.17103139873633244
680,0.6706,576.917,64.1497,3.43276,197.372,-119.272,-14.4023,0.262371,-0.0711221,-0.187818,0.197157,0.022928,-0.00964366,0.3192,0.3000087562217506,0.2179352415291711,0.023192867008613227,-0.06865183242641137,-0.00959730902823619,-0.17123447116625368
681,0.6716,577.124,64.1691,3.43545,197.436,-119.33,-14.4093,0.262711,-0.071216,-0.188063,0.197411,0.0229199,-0.00965981,0.319629,0.30045083434788866,0.2182446363720012,0.02318457917995631,-0.06873928191352885,-0.009613303902536452,-0.17143749384952367
682,0.6726,577.331,64.1884,3.43813,197.5,-119.388,-14.4163,0.263051,-0.0713099,-0.188307,0.197665,0.0229118,-0.00967596,0.320058,0.3008930628061446,0.21855410981110257,0.02317629141843036,-0.06882672318952499,-0.009629298518521567,-0.1716396384383816
683,0.6736,577.538,64.2077,3.44081,197.565,-119.446,-14.4234,0.26339,-0.0714037,-0.188552,0.197919,0.0229036,-0.00969211,0.320487,0.30133414031284933,0.21886366186644146,0.0231679014072399,-0.06891406314658177,-0.009645292876195644,-0.1718425618678291
684,0.6746,577.745,64.2269,3.44348,197.629,-119.504,-14.4304,0.26373,-0.0714976,-0.188796,0.198173,0.0228954,-0.00970825,0.320915,0.3017766691461943,0.21917329255798856,0.02315951146484707,-0.06900148801139072,-0.009661277072175789,-0.17204460763214768
685,0.6756,577.951,64.2476,3.44672,197.694,-119.563,-14.4386,0.264069,-0.0715914,-0.189041,0.198427,0.0228872,-0.0097244,0.321344,0.3022180462462263,0.21948300190572034,0.023151121591251655,-0.069088811576276,-0.009677270913400537,-0.17224743185629576
686,0.6766,578.157,64.2653,3.44838,197.757,-119.62,-14.4445,0.264409,-0.0716852,-0.189285,0.19868,0.0228789,-0.00974046,0.321772,0.3026608756586844,0.219791570137438,0.023142629472184817,-0.06917612695059505,-0.0096931753687165,-0.17244937884438838
687,0.6776,578.363,64.2851,3.45178,197.821,-119.678,-14.4516,0.264748,-0.0717789,-0.189529,0.198934,0.0228706,-0.00975656,0.3222,0.30310255255553664,0.22010143654762104,0.023134137423602263,-0.06926334106145493,-0.009709119180245085,-0.17265127656342694
688,0.6786,578.568,64.3041,3.45407,197.885,-119.736,-14.4587,0.265087,-0.0718726,-0.189773,0.199187,0.0228623,-0.00977266,0.322628,0.3035443792062391,0.22041016126309732,0.02312564544550333,-0.0693505470007354,-0.009725062735080336,-0.1728531250254317
689,0.6796,578.774,64.3235,3.45684,197.949,-119.794,-14.4657,0.265426,-0.0719663,-0.190018,0.199441,0.0228539,-0.00978876,0.323056,0.3039863556615665,0.22072018481538236,0.023117051226177354,-0.06943774476920217,-0.009741006033226363,-0.17305575118708205
690,0.6806,578.979,64.3427,3.45944,198.013,-119.851,-14.4727,0.265765,-0.07206,-0.190261,0.199694,0.0228455,-0.00980486,0.323484,0.3044284819723113,0.22102906609397488,0.02310845707904252,-0.06952493436762086,-0.009756949074687382,-0.17325667422640567
691,0.6816,579.183,64.3619,3.4621,198.077,-119.908,-14.4798,0.266103,-0.0721536,-0.190505,0.199947,0.0228371,-0.00982095,0.323912,0.30486945331917736,0.22133802552941728,0.023099863004098165,-0.06961202275796374,-0.009772881957196389,-0.17345837498940064
692,0.6826,579.388,64.3811,3.46474,198.141,-119.966,-14.4868,0.266442,-0.0722472,-0.190749,0.2002,0.0228286,-0.00983704,0.324339,0.30531187905077717,0.22164706314148575,0.023091166692221998,-0.06969910299721482,-0.00978881458334735,-0.17366002654341317
693,0.6836,579.592,64.4003,3.46737,198.204,-120.023,-14.4938,0.26678,-0.0723408,-0.190993,0.200453,0.0228201,-0.00985313,0.324766,0.3057531490363228,0.22195617894996134,0.02308247045426426,-0.06978617508613694,-0.009804746953144483,-0.17386162890044876
694,0.6846,579.796,64.4195,3.47,198.268,-120.08,-14.5008,0.267119,-0.0724344,-0.191236,0.200705,0.0228116,-0.00986922,0.325193,0.3061958743915538,0.2222641507098686,0.02307377429022406,-0.06987323902549303,-0.009820679066591786,-0.1740623561352792
695,0.6856,580.0,64.4386,3.47263,198.332,-120.137,-14.5077,0.267457,-0.0725279,-0.19148,0.200958,0.022803,-0.00988531,0.32562,0.3066374432180261,0.22257342266125058,0.02306497589359835,-0.06996020181207052,-0.009836610923693478,-0.17426386033587005
696,0.6866,580.203,64.4578,3.47524,198.395,-120.194,-14.5147,0.267795,-0.0726214,-0.191723,0.201211,0.0227944,-0.00990139,0.326047,0.3070791613199877,0.2228827728683349,0.02305617757263856,-0.07004715646800752,-0.009852532622979027,-0.17446448984033636
697,0.6876,580.407,64.4769,3.47786,198.458,-120.251,-14.5217,0.268133,-0.0727148,-0.191967,0.201463,0.0227858,-0.00991747,0.326474,0.30752102874790244,0.2231909781593333,0.02304737932734402,-0.07013401000747,-0.009868454066245702,-0.17466589593227289
698,0.6886,580.61,64.4959,3.48046,198.522,-120.308,-14.5286,0.268471,-0.0728083,-0.19221,0.201715,0.0227771,-0.00993355,0.3269,0.30796304555225107,0.22349926112785212,0.0230384788538609,-0.07022094841310045,-0.009884375253497613,-0.17486642775395822
699,0.6896,580.812,64.515,3.48307,198.585,-120.364,-14.5356,0.268808,-0.0729017,-0.192453,0.201968,0.0227684,-0.00994963,0.327327,0.3084039033789736,0.223808845601702,0.023029578457811617,-0.07030778572115326,-0.009900296184738977,-0.17506691085233106
700,0.6906,581.015,64.5341,3.48567,198.648,-120.421,-14.5425,0.269146,-0.072995,-0.192696,0.20222,0.0227597,-0.00996571,0.327753,0.30884621864538464,0.22411728429243638,0.023020678139195505,-0.0703945219584371,-0.009916216859973681,-0.1752673452392296
701,0.6916,581.217,64.5531,3.48826,198.711,-120.477,-14.5494,0.269484,-0.0730884,-0.192939,0.202472,0.0227509,-0.00998178,0.328179,0.3092886834396247,0.22442580071951523,0.023011675596839254,-0.07048134305547782,-0.009932127378527444,-0.17546773092648937
702,0.6926,581.419,64.5721,3.49085,198.774,-120.534,-14.5563,0.269821,-0.0731817,-0.193182,0.202724,0.0227421,-0.00999785,0.328605,0.30972998808159935,0.22473439490253067,0.023002673133704743,-0.0705680631006178,-0.009948037641401175,-0.17566806792594303
703,0.6936,581.621,64.5911,3.49343,198.837,-120.59,-14.5632,0.270158,-0.0732749,-0.193424,0.202975,0.0227333,-0.0100139,0.329031,0.3101714414683008,0.22504184181862485,0.02299367074979175,-0.07065468212062775,-0.009963927847877696,-0.1758675321173644
704,0.6946,581.823,64.6101,3.49601,198.9,-120.646,-14.5701,0.270495,-0.0733682,-0.193667,0.203227,0.0227245,-0.01003,0.329456,0.31061304364986375,0.22535059126355939,0.022984668445099388,-0.07074138599398727,-0.009979867300326406,-0.17606777197693158
705,0.6956,582.024,64.629,3.49858,198.963,-120.702,-14.577,0.270832,-0.0734614,-0.19391,0.203479,0.0227156,-0.0100461,0.329882,0.31105479467644104,0.22565941852315818,0.022975563922065456,-0.07082798886105635,-0.00999580649615206,-0.1762679631841244
706,0.6966,582.225,64.6479,3.50115,199.026,-120.758,-14.5839,0.271169,-0.0735546,-0.194152,0.20373,0.0227067,-0.0100621,0.330307,0.3114966945982016,0.22596709764932243,0.022966459480061374,-0.07091458365711434,-0.010011646436528299,-0.17646728221845798
707,0.6976,582.426,64.6669,3.50371,199.089,-120.814,-14.5908,0.271506,-0.0736478,-0.194395,0.203981,0.0226977,-0.0100782,0.330732,0.3119387434653318,0.22627485401264025,0.022957252823355923,-0.07100117038291343,-0.010027585120713889,-0.17666737635645646
708,0.6986,582.627,64.6858,3.50627,199.151,-120.87,-14.5976,0.271842,-0.0737409,-0.194637,0.204233,0.0226887,-0.0100942,0.331157,0.3123796289477492,0.22658391421580149,0.02294804624951019,-0.07108765614797596,-0.010043424552636182,-0.17686659874449695
709,0.6996,582.827,64.7046,3.50882,199.214,-120.926,-14.6045,0.272179,-0.073834,-0.194879,0.204484,0.0226797,-0.0101103,0.331582,0.31282197541389767,0.22689182541950936,0.02293883975852329,-0.07117413386158855,-0.010059362725198251,-0.1770657729265528
710,0.7006,583.028,64.7235,3.51137,199.276,-120.981,-14.6113,0.272515,-0.0739271,-0.195121,0.204735,0.0226707,-0.0101264,0.332007,0.31326315771211233,0.2271998139186293,0.02292963335039433,-0.0712606035245007,-0.010075300641157803,-0.1772648989142882
711,0.7016,583.227,64.7423,3.51392,199.339,-121.037,-14.6181,0.272852,-0.0740201,-0.195363,0.204986,0.0226616,-0.0101424,0.332432,0.31370580197763065,0.22750787973256514,0.02292032473308514,-0.07134697227216391,-0.010091139309637787,-0.17746397671936498
712,0.7026,583.427,64.7611,3.51645,199.401,-121.092,-14.6249,0.273188,-0.0741131,-0.195605,0.205237,0.0226525,-0.0101585,0.332856,0.3141472812914665,0.22781602288072533,0.02291101620048397,-0.0714333329879071,-0.010107076713998464,-0.1776630063534419
713,0.7036,583.627,64.7799,3.51899,199.463,-121.147,-14.6317,0.273524,-0.0742061,-0.195847,0.205487,0.0226434,-0.0101745,0.33328,0.3145889089672751,0.22812301525889378,0.022901707752589928,-0.07151968567247713,-0.01012291487406547,-0.17786198782817475
714,0.7046,583.826,64.7987,3.52152,199.526,-121.203,-14.6385,0.27386,-0.074299,-0.196089,0.205738,0.0226342,-0.0101906,0.333704,0.3150306850549147,0.22843131282544982,0.022892297100167713,-0.07160593748721933,-0.010138851766843593,-0.17806092115521688
715,0.7056,584.025,64.8175,3.52404,199.588,-121.258,-14.6453,0.274195,-0.074392,-0.196331,0.205988,0.022625,-0.0102066,0.334128,0.3154712941323079,0.22873845904533385,0.022882886534323132,-0.07169227412031742,-0.01015468941851383,-0.17825980634621863
716,0.7066,584.224,64.8362,3.52656,199.65,-121.313,-14.6521,0.274531,-0.0744849,-0.196572,0.206239,0.0226158,-0.0102227,0.334552,0.3159133667511773,0.22904691110766873,0.022873476055055297,-0.07177850990233747,-0.01017062579972594,-0.17845782187106007
717,0.7076,584.422,64.8549,3.52908,199.712,-121.368,-14.6589,0.274867,-0.0745777,-0.196814,0.206489,0.0226065,-0.0102387,0.334976,0.3163555879314035,0.22935421124636246,0.02286396337596197,-0.07186464485989474,-0.010186462943015728,-0.17865661102370956
718,0.7086,584.621,64.8736,3.53158,199.774,-121.423,-14.6656,0.275202,-0.0746705,-0.197055,0.206739,0.0225973,-0.0102547,0.335399,0.31679664092561244,0.22966158821969485,0.022854553070786432,-0.07195077182449872,-0.010202299832913098,-0.17885453093014625
719,0.7096,584.819,64.8923,3.53409,199.836,-121.478,-14.6724,0.275537,-0.0747634,-0.197296,0.206989,0.0225879,-0.0102708,0.335823,0.3172378416973256,0.22996904204687674,0.02284493828317702,-0.07203698359319766,-0.010218235447603807,-0.17905240314363258
720,0.7106,585.017,64.911,3.53659,199.898,-121.532,-14.6791,0.275872,-0.0748561,-0.197538,0.207239,0.0225786,-0.0102868,0.336246,0.31767919029605696,0.23027657274712432,0.02283542586948384,-0.07212300177781406,-0.010234071829145264,-0.17925104842502337
721,0.7116,585.214,64.9297,3.53908,199.959,-121.587,-14.6858,0.276207,-0.0749489,-0.197779,0.207489,0.0225692,-0.0103028,0.336669,0.31812068677133687,0.230584180339658,0.022825811261669493,-0.07220910476800857,-0.010249907957306625,-0.1794488250893076
722,0.7126,585.412,64.9483,3.54158,200.021,-121.641,-14.6926,0.276542,-0.0750416,-0.19802,0.207739,0.0225598,-0.0103189,0.337092,0.31856233117271215,0.2308918648437035,0.022816196744231965,-0.07229510699773167,-0.01026584280551257,-0.17964655409515884
723,0.7136,585.609,64.9669,3.54406,200.083,-121.696,-14.6993,0.276877,-0.0751343,-0.198261,0.207989,0.0225504,-0.0103349,0.337515,0.3190041235497465,0.23119962627849078,0.022806582317170365,-0.07238110125541752,-0.010281678425342444,-0.17984423545406136
724,0.7146,585.806,64.9855,3.54654,200.144,-121.75,-14.706,0.277212,-0.0752269,-0.198502,0.208238,0.0225409,-0.0103509,0.337937,0.31944606395202,0.2315062331564064,0.022796865700792424,-0.07246699478850926,-0.010297513791804325,-0.18004186917749676
725,0.7156,586.003,65.0041,3.54902,200.206,-121.804,-14.7127,0.277546,-0.0753196,-0.198742,0.208488,0.0225315,-0.010367,0.33836,0.31988683254163686,0.23181414820247248,0.022787251455441693,-0.07255297311293551,-0.010313447873562587,-0.18023863551598907
726,0.7166,586.199,65.0226,3.55149,200.267,-121.859,-14.7193,0.277881,-0.0754121,-0.198983,0.208737,0.0225219,-0.010383,0.338782,0.32032906870095923,0.23212090811539898,0.022777432744957693,-0.07263875799531061,-0.010329282731717404,-0.1804361742004621
727,0.7176,586.395,65.0412,3.55396,200.329,-121.913,-14.726,0.278215,-0.0755047,-0.199224,0.208987,0.0225124,-0.010399,0.339204,0.32077013226342,0.23242897684941521,0.02276771640549935,-0.07272462767049293,-0.010345117336516552,-0.1806336652838484
728,0.7186,586.591,65.0597,3.55642,200.39,-121.967,-14.7327,0.278549,-0.0755973,-0.199464,0.209236,0.0225028,-0.010415,0.339627,0.32121134316571487,0.2327358898737364,0.022757897882550893,-0.0728104893945114,-0.010360951687964026,-0.18083028960831748
729,0.7196,586.787,65.0782,3.55888,200.451,-122.02,-14.7393,0.278883,-0.0756898,-0.199705,0.209485,0.0224932,-0.010431,0.340048,0.32165270145706404,0.2330428793289161,0.022748079453859704,-0.07289625045773207,-0.010376785786063936,-0.18102768572133487
730,0.7206,586.983,65.0967,3.56133,200.512,-122.074,-14.746,0.279217,-0.0757822,-0.199945,0.209734,0.0224836,-0.0104471,0.34047,0.322094207186703,0.23334994523398755,0.022738261119424896,-0.0729819108866171,-0.01039271859155333,-0.18122421549224588
731,0.7216,587.178,65.1151,3.56378,200.573,-122.128,-14.7526,0.279551,-0.0758747,-0.200185,0.209983,0.0224739,-0.0104631,0.340892,0.32253586040388504,0.23365708760798953,0.022728340606406716,-0.07306765609408306,-0.01040855218138681,-0.1814206981016715
732,0.7226,587.374,65.1336,3.56622,200.634,-122.182,-14.7592,0.279885,-0.0759671,-0.200425,0.210231,0.0224642,-0.0104791,0.341313,0.32297766115787874,0.23396307250627535,0.022718420189616895,-0.07315330068581893,-0.010424385517884827,-0.18161713356092912
733,0.7236,587.568,65.152,3.56866,200.695,-122.235,-14.7659,0.280219,-0.0760595,-0.200665,0.21048,0.0224545,-0.0104951,0.341735,0.32341960949796955,0.23427036756797692,0.022708499869054766,-0.07323893736436005,-0.010440218601051598,-0.18181352188133337
734,0.7246,587.763,65.1704,3.5711,200.756,-122.289,-14.7725,0.280552,-0.0761519,-0.200905,0.210728,0.0224448,-0.0105111,0.342156,0.3238603816124166,0.23457650457855395,0.02269857964471922,-0.0733245661304377,-0.010456051430891011,-0.1820098630741963
735,0.7256,587.958,65.1888,3.57353,200.817,-122.342,-14.7791,0.280885,-0.0762442,-0.201145,0.210977,0.022435,-0.0105271,0.342577,0.32430130052841855,0.23488395240385973,0.02268855724774843,-0.07341009432579693,-0.010471884007407173,-0.182206157150827
736,0.7266,588.152,65.2072,3.57595,200.878,-122.395,-14.7857,0.281219,-0.0763365,-0.201385,0.211225,0.0224252,-0.0105431,0.342998,0.3247436910378976,0.2351902416023468,0.022678534948996854,-0.07349561462726795,-0.01048771633060408,-0.18240240412253228
737,0.7276,588.346,65.2256,3.57837,200.939,-122.449,-14.7923,0.281552,-0.0764288,-0.201625,0.211473,0.0224154,-0.0105591,0.343418,0.3251849041449184,0.23549660676997464,0.022668512748463154,-0.07358112703557951,-0.01050354840048584,-0.18259860400061567
738,0.7286,588.54,65.2439,3.58079,200.999,-122.502,-14.7988,0.281885,-0.076521,-0.201864,0.211722,0.0224055,-0.0105751,0.343839,0.32562626420036933,0.23580428372925222,0.022658388380302652,-0.07366653891811858,-0.010519380217056562,-0.18279393959072676
739,0.7296,588.733,65.2622,3.5832,201.06,-122.555,-14.8054,0.282218,-0.0766132,-0.202104,0.21197,0.0223956,-0.0105911,0.344259,0.32606777125319253,0.23611080119821204,0.022648264112372862,-0.07375194292604503,-0.010535211780320353,-0.18299004551157316
740,0.7306,588.927,65.2805,3.58561,201.12,-122.608,-14.8119,0.282551,-0.0767054,-0.202343,0.212218,0.0223857,-0.0106071,0.34468,0.32650942535234595,0.23641739469293133,0.022638139944672897,-0.07383733906008505,-0.010551043090280987,-0.18318528755834196
741,0.7316,589.12,65.2988,3.58801,201.181,-122.66,-14.8185,0.282883,-0.0767976,-0.202583,0.212465,0.0223758,-0.0106231,0.3451,0.32694989959624166,0.23672282750882023,0.022628015877201646,-0.07392272732096439,-0.010566874146942795,-0.18338129956694604
742,0.7326,589.313,65.3171,3.59041,201.241,-122.713,-14.825,0.283216,-0.0768897,-0.202822,0.212713,0.0223658,-0.0106391,0.34552,0.32739184749304817,0.237029572804887,0.02261778964817407,-0.07400801511021515,-0.010582704950309663,-0.18357644811516916
743,0.7336,589.506,65.3353,3.59281,201.302,-122.766,-14.8316,0.283548,-0.0769818,-0.203061,0.212961,0.0223559,-0.010655,0.345939,0.3278326147497317,0.23733639418322094,0.022607665782169883,-0.0740932950448222,-0.010598436560234292,-0.18377155002846224
744,0.7346,589.698,65.3536,3.5952,201.362,-122.819,-14.8381,0.28388,-0.0770738,-0.2033,0.213208,0.0223458,-0.010671,0.346359,0.328273528365439,0.23764205402002014,0.02259733749690329,-0.07417847454336102,-0.010614266858606669,-0.18396660531796982
745,0.7356,589.891,65.3718,3.59758,201.422,-122.871,-14.8446,0.284213,-0.0771659,-0.203539,0.213456,0.0223358,-0.010687,0.346779,0.3287159171040215,0.23794902731253198,0.022587111574658092,-0.07426373877937731,-0.010630096903696207,-0.18416161399483377
746,0.7366,590.083,65.39,3.59996,201.482,-122.924,-14.8511,0.284545,-0.0772579,-0.203778,0.213703,0.0223257,-0.010703,0.347198,0.32915712402479635,0.23825483848840356,0.022576783496988106,-0.07434890259781379,-0.010645926695507013,-0.18435657607019296
747,0.7376,590.275,65.4082,3.60234,201.542,-122.976,-14.8576,0.284877,-0.0773499,-0.204017,0.21395,0.0223156,-0.010719,0.347617,0.32959847745058735,0.2385607252089652,0.022566455523631124,-0.07443405858153951,-0.010661756234043307,-0.1845514915551839
748,0.7386,590.466,65.4263,3.60471,201.602,-123.028,-14.8641,0.285208,-0.0774418,-0.204256,0.214197,0.0223055,-0.0107349,0.348036,0.33003864739072974,0.2388666874928782,0.022556127654586033,-0.07451911418319113,-0.010677486587062468,-0.1847463604609404
749,0.7396,590.658,65.4445,3.60708,201.662,-123.08,-14.8706,0.28554,-0.0775337,-0.204495,0.214444,0.0222954,-0.0107509,0.348455,0.33048029353086616,0.23917272535880962,0.02254579988985217,-0.0746041619685921,-0.010693315620644572,-0.1849411827985935
750,0.7406,590.849,65.4626,3.60944,201.722,-123.133,-14.877,0.285872,-0.0776256,-0.204733,0.214691,0.0222852,-0.0107669,0.348874,0.3309220863218636,0.23947883882542986,0.0225353699758859,-0.07468920193846074,-0.010709144400964044,-0.18513514371482276
751,0.7416,591.04,65.4807,3.6118,201.782,-123.185,-14.8835,0.286203,-0.0777175,-0.204972,0.214938,0.022275,-0.0107829,0.349293,0.3313626944490584,0.23978502791141532,0.022524940168304086,-0.07477423409351525,-0.01072497292802499,-0.1853298731443812
752,0.7426,591.231,65.4988,3.61415,201.842,-123.237,-14.8899,0.286535,-0.0778093,-0.20521,0.215185,0.0222648,-0.0107988,0.349711,0.33180478024579707,0.2400912926354457,0.022514510467106064,-0.07485916592039488,-0.010740702275906844,-0.18552374156331586
753,0.7436,591.421,65.5169,3.6165,201.902,-123.288,-14.8964,0.286866,-0.0779011,-0.205448,0.215431,0.0222545,-0.0108148,0.35013,0.3322456805930405,0.24039639261919343,0.022503978621887244,-0.07494408995089075,-0.010756530298045908,-0.18571756384705707
754,0.7446,591.612,65.535,3.61885,201.961,-123.34,-14.9028,0.287197,-0.0779929,-0.205687,0.215678,0.0222442,-0.0108307,0.350548,0.33268672690245404,0.24070280836895774,0.022493446885146096,-0.0750290061857185,-0.01077225914416946,-0.18591215409483686
755,0.7456,591.802,65.553,3.62119,202.021,-123.392,-14.9092,0.287528,-0.0780847,-0.205925,0.215924,0.0222339,-0.0108467,0.350966,0.33312791922235974,0.2410080588040806,0.022482915256881064,-0.07511391462559358,-0.01078808666140274,-0.18610588394739536
756,0.7466,591.992,65.5711,3.62353,202.08,-123.444,-14.9157,0.287859,-0.0781764,-0.206163,0.216171,0.0222236,-0.0108627,0.351384,0.33356925760109446,0.2413146256540526,0.022472383737091484,-0.07519872279110862,-0.010803913925397701,-0.18629956769773526
757,0.7476,592.181,65.5891,3.62586,202.14,-123.495,-14.9221,0.28819,-0.0782681,-0.206401,0.216417,0.0222132,-0.0108786,0.351802,0.334010742087012,0.24162002661474147,0.02246175007959561,-0.07528352318007137,-0.010819642018127573,-0.18649320535682778
758,0.7486,592.371,65.6071,3.62819,202.199,-123.547,-14.9285,0.28852,-0.0783597,-0.206639,0.216663,0.0222029,-0.0108946,0.352219,0.33445103827677647,0.24192550271330826,0.022451218777806092,-0.07536822333002202,-0.010835468777240953,-0.18668679693564116
759,0.7496,592.56,65.625,3.63051,202.259,-123.598,-14.9349,0.288851,-0.0784513,-0.206876,0.216909,0.0221925,-0.0109105,0.352637,0.3348928146804073,0.2422310539682393,0.022440585340424812,-0.07545291572179424,-0.010851196368252713,-0.18687952932507712
760,0.7506,592.749,65.643,3.63283,202.318,-123.649,-14.9413,0.289181,-0.0785429,-0.207114,0.217155,0.022182,-0.0109265,0.353054,0.33533340200216166,0.2425366803980249,0.022429849770640553,-0.07553760035609869,-0.010867022622500389,-0.18707302896972666
761,0.7516,592.938,65.6609,3.63515,202.377,-123.7,-14.9476,0.289511,-0.0786345,-0.207352,0.217401,0.0221716,-0.0109424,0.353471,0.3357741347417247,0.24284238202116093,0.022419216555495725,-0.0756222772336459,-0.010882749711810025,-0.18726648256694067
762,0.7526,593.127,65.6789,3.63746,202.436,-123.752,-14.954,0.289842,-0.078726,-0.207589,0.217646,0.0221611,-0.0109584,0.353889,0.33621634916277343,0.24314691570860947,0.022408481210082654,-0.07570685392583631,-0.010898575461208315,-0.18745907758716085
763,0.7536,593.315,65.6968,3.63977,202.495,-123.803,-14.9604,0.290172,-0.0788176,-0.207827,0.217892,0.0221506,-0.0109743,0.354305,0.3366573733229814,0.24345276746809774,0.02239774597738986,-0.07579151530046657,-0.010914302048831814,-0.18765243931573672
764,0.7546,593.504,65.7147,3.64207,202.554,-123.854,-14.9667,0.290502,-0.078909,-0.208064,0.218137,0.0221401,-0.0109902,0.354722,0.3370985430451785,0.24375745071830157,0.022387010857416678,-0.0758759840956853,-0.010930028386404445,-0.18784494287504605
765,0.7556,593.692,65.7325,3.64437,202.613,-123.905,-14.973,0.290832,-0.0790005,-0.208301,0.218383,0.0221295,-0.0110062,0.355139,0.3375398583774083,0.24406345268787732,0.022376173612539185,-0.07596053757475996,-0.010945853379350057,-0.18803740081641773
766,0.7566,593.88,65.7504,3.64667,202.672,-123.955,-14.9794,0.291161,-0.0790919,-0.208538,0.218628,0.0221189,-0.0110221,0.355555,0.33797998138707963,0.2443682855742897,0.02236533648253558,-0.07604499092204886,-0.01096157921526053,-0.188229813150662
767,0.7576,594.067,65.7682,3.64896,202.731,-124.006,-14.9857,0.291491,-0.0791833,-0.208776,0.218873,0.0221083,-0.011038,0.355972,0.33842158764196184,0.24467319315390879,0.022354499467405198,-0.07612943655065452,-0.010977304801132237,-0.18842299146600072
768,0.7586,594.255,65.7861,3.65124,202.79,-124.057,-14.992,0.29182,-0.0792747,-0.209013,0.219118,0.0220977,-0.011054,0.356388,0.3388620007882861,0.24497817544503664,0.022343662567146483,-0.07621387446128247,-0.010993129037661253,-0.1886153124260893
769,0.7596,594.442,65.8039,3.65353,202.849,-124.107,-14.9983,0.29215,-0.079366,-0.209249,0.219363,0.0220871,-0.0110699,0.356804,0.33930389815760176,0.24528323246597972,0.022332825781758325,-0.07629821228446398,-0.011008854121894784,-0.18880677661869338
770,0.7606,594.629,65.8217,3.6558,202.907,-124.158,-15.0046,0.292479,-0.0794573,-0.209486,0.219608,0.0220764,-0.0110858,0.35722,0.33974460163184195,0.24558836423504937,0.022321886879045794,-0.07638254240795372,-0.011024578956101538,-0.18899900663247837
771,0.7616,594.816,65.8394,3.65808,202.966,-124.208,-15.0109,0.292808,-0.0795486,-0.209723,0.219853,0.0220657,-0.0111017,0.357636,0.340185450121379,0.24589357077056073,0.022310948093378746,-0.07646686483245457,-0.01104030354028529,-0.1891911910931483
772,0.7626,595.002,65.8572,3.66035,203.025,-124.259,-15.0172,0.293137,-0.0796398,-0.20996,0.220098,0.022055,-0.0111177,0.358051,0.34062644367393036,0.24619885209083425,0.022300009424756073,-0.0765510872137829,-0.011056126768842489,-0.1893833300114981
773,0.7636,595.189,65.8749,3.66261,203.083,-124.309,-15.0235,0.293466,-0.0797311,-0.210196,0.220342,0.0220442,-0.0111336,0.358467,0.3410675823372302,0.24650296171060937,0.022288968644274654,-0.07663539425084542,-0.01107185085142004,-0.189574612973338
774,0.7646,595.375,65.8927,3.66488,203.142,-124.359,-15.0298,0.293795,-0.0798222,-0.210433,0.220587,0.0220334,-0.0111495,0.358882,0.3415088661590273,0.246808392349954,0.022277927983032964,-0.07671950893494717,-0.0110875746839868,-0.18976666103146955
775,0.7656,595.561,65.9104,3.66713,203.2,-124.409,-15.036,0.294123,-0.0799134,-0.210669,0.220831,0.0220226,-0.0111654,0.359297,0.3419489532374629,0.24711265071569843,0.022266887441029892,-0.07680370827618399,-0.011103298266546435,-0.189957853537863
776,0.7666,595.747,65.9281,3.66939,203.258,-124.46,-15.0423,0.294452,-0.0800045,-0.210905,0.221076,0.0220118,-0.0111813,0.359712,0.34239052707799167,0.24741823074714908,0.022255847018263886,-0.07688780762757641,-0.011119021599103163,-0.1901490009281488
777,0.7676,595.932,65.9458,3.67164,203.317,-124.51,-15.0485,0.29478,-0.0800956,-0.211142,0.22132,0.022001,-0.0111972,0.360127,0.3428309033886401,0.24772263793161753,0.022244806714733834,-0.07697189931786685,-0.01113474468166098,-0.19034091287246513
778,0.7686,596.118,65.9634,3.67388,203.375,-124.559,-15.0548,0.295109,-0.0801867,-0.211378,0.221564,0.0219901,-0.0112131,0.360542,0.34327276743850565,0.24802711940050148,0.022233664307066858,-0.07705598334775332,-0.011150467514223661,-0.19053196987141463
779,0.7696,596.303,65.9811,3.67612,203.433,-124.609,-15.061,0.295437,-0.0802778,-0.211614,0.221808,0.0219792,-0.011229,0.360957,0.34371343317145486,0.24833167517192845,0.0222225220208514,-0.07714005971793358,-0.011166190096795314,-0.19072298178623248
780,0.7706,596.488,65.9987,3.67836,203.491,-124.659,-15.0672,0.295765,-0.0803688,-0.21185,0.222052,0.0219683,-0.0112449,0.361371,0.3441542434664715,0.24863630526403013,0.022211379856086344,-0.07722403615151352,-0.011181912429379937,-0.19091394862755728
781,0.7716,596.673,66.0163,3.6806,203.549,-124.709,-15.0734,0.296093,-0.0804598,-0.212086,0.222296,0.0219574,-0.0112608,0.361785,0.3445951983709796,0.24894100969494337,0.02220023781277014,-0.0773080049435857,-0.011197634511981414,-0.1911048704060252
782,0.7726,596.857,66.0339,3.68282,203.607,-124.758,-15.0796,0.296421,-0.0805507,-0.212322,0.222539,0.0219464,-0.0112767,0.362199,0.34503629793241863,0.249244539237645,0.022188993671997226,-0.07739187383403756,-0.011213356344603742,-0.1912957471322697
783,0.7736,597.042,66.0515,3.68505,203.665,-124.808,-15.0858,0.296748,-0.0806417,-0.212557,0.222783,0.0219355,-0.0112926,0.362614,0.34547619672137486,0.24954939209575544,0.022177851872688947,-0.07747582735357561,-0.011229077927250919,-0.19148577030309655
784,0.7746,597.226,66.069,3.68727,203.723,-124.857,-15.092,0.297076,-0.0807326,-0.212793,0.223027,0.0219245,-0.0113085,0.363027,0.3459175852976688,0.2498543193470386,0.022166607978159947,-0.0775596809896637,-0.01124479925992694,-0.19167655714757192
785,0.7756,597.41,66.0866,3.68949,203.781,-124.907,-15.0982,0.297404,-0.0808234,-0.213029,0.22327,0.0219134,-0.0113244,0.363441,0.3463591186731614,0.25015807085095276,0.02215526199178175,-0.07764343476815072,-0.011260520342635805,-0.19186729897166455
786,0.7766,597.594,66.1041,3.6917,203.838,-124.956,-15.1044,0.297731,-0.0809143,-0.213264,0.223513,0.0219024,-0.0113403,0.363855,0.3467994500952314,0.25046189617545145,0.02214401834573998,-0.07772727316941719,-0.011276241175381396,-0.19205718784358983
787,0.7776,597.777,66.1216,3.69391,203.896,-125.005,-15.1105,0.298058,-0.0810051,-0.213499,0.223757,0.0218913,-0.0113562,0.364268,0.3472399255292209,0.25076704610489586,0.02213267261010521,-0.07781101173122518,-0.011291961758167712,-0.19224703209687322
788,0.7786,597.961,66.1391,3.69612,203.954,-125.055,-15.1167,0.298385,-0.0810959,-0.213735,0.224,0.0218802,-0.0113721,0.364682,0.34768054502223,0.2510710194283623,0.022121327000407698,-0.07789474268991692,-0.01130768209099886,-0.1924376393047631
789,0.7796,598.144,66.1566,3.69832,204.011,-125.104,-15.1229,0.298712,-0.0811866,-0.21397,0.224243,0.0218691,-0.011388,0.365095,0.348121308621373,0.2513750666263217,0.02210998151664545,-0.07797837384402484,-0.011323402173878616,-0.19262739416245744
790,0.7806,598.327,66.1741,3.70052,204.069,-125.153,-15.129,0.299039,-0.0812773,-0.214205,0.224486,0.021858,-0.0114038,0.365508,0.34856221637378093,0.2516791877167279,0.022098636158817353,-0.07806199741313091,-0.01133902314071833,-0.19281710443299938
791,0.7816,598.51,66.1916,3.70271,204.126,-125.202,-15.1351,0.299366,-0.081368,-0.21444,0.224729,0.0218468,-0.0114197,0.365921,0.34900326832659934,0.25198338271753884,0.02208718871819837,-0.07814561339792336,-0.011354742725279254,-0.19300677012686573
792,0.7826,598.692,66.209,3.7049,204.184,-125.25,-15.1413,0.299693,-0.0814587,-0.214675,0.224971,0.0218356,-0.0114356,0.366333,0.34944446452698963,0.2522863993596913,0.022075741405789717,-0.07822922179908987,-0.011370462059900888,-0.1931963912545308
793,0.7836,598.875,66.2264,3.70709,204.241,-125.299,-15.1474,0.300019,-0.0815494,-0.21491,0.225214,0.0218244,-0.0114515,0.366746,0.3498844551369982,0.2525907419308606,0.022064294221590286,-0.0783128226173182,-0.011386181144587115,-0.19338596782646633
794,0.7846,599.057,66.2438,3.70927,204.298,-125.348,-15.1535,0.300346,-0.08164,-0.215145,0.225457,0.0218132,-0.0114673,0.367158,0.3503259395325926,0.25289515846626087,0.022052847165598743,-0.07839632369293326,-0.011401801119526933,-0.1935754998531417
795,0.7856,599.239,66.2612,3.71145,204.356,-125.397,-15.1596,0.300672,-0.0817305,-0.215379,0.225699,0.021802,-0.0114832,0.367571,0.3507662175502979,0.2531983957848454,0.022041400237813313,-0.07847972505167067,-0.011417519705925971,-0.19376418110960814
796,0.7866,599.421,66.2786,3.71362,204.413,-125.445,-15.1657,0.300999,-0.0818211,-0.215614,0.225941,0.0217907,-0.0114991,0.367983,0.3512079903293497,0.253501706495741,0.022029851235242592,-0.07856321100661012,-0.011433238042401594,-0.19395362426660456
797,0.7876,599.602,66.2959,3.71579,204.47,-125.494,-15.1718,0.301325,-0.0819116,-0.215848,0.226184,0.0217794,-0.0115149,0.368395,0.3516485559424902,0.25380634442242855,0.022018302363174813,-0.07864659726272905,-0.011448857273848256,-0.19414221705230972
798,0.7886,599.784,66.3133,3.71796,204.527,-125.542,-15.1779,0.301651,-0.0820021,-0.216083,0.226426,0.0217681,-0.0115308,0.368807,0.352089265203434,0.2541098022746979,0.022006753621608643,-0.07872997597273323,-0.011464575112060449,-0.19433157138129742
799,0.7896,599.965,66.3306,3.72012,204.584,-125.591,-15.184,0.301977,-0.0820926,-0.216317,0.226668,0.0217568,-0.0115466,0.369219,0.3525301181590177,0.25441333357265417,0.02199520501054253,-0.07881334713730559,-0.01148019384838539,-0.19452007573772434
800,0.7906,600.146,66.3479,3.72228,204.641,-125.639,-15.19,0.302302,-0.082183,-0.216552,0.22691,0.0217454,-0.0115625,0.36963,0.3529697618856551,0.2547169383340733,0.021983554331614474,-0.07889661864679542,-0.011495911188350028,-0.19470934128035366
801,0.7916,600.327,66.3652,3.72444,204.698,-125.687,-15.1961,0.302628,-0.0822734,-0.216786,0.227152,0.021734,-0.0115783,0.370042,0.3534109019299503,0.25502061657673525,0.02197190378550329,-0.078979882628881,-0.01151152942956879,-0.19489775724896596
802,0.7926,600.508,66.3825,3.72659,204.755,-125.735,-15.2021,0.302954,-0.0823638,-0.21702,0.227393,0.0217226,-0.0115942,0.370453,0.3538521858093435,0.2553231129946847,0.02196025337220764,-0.0790631390842429,-0.011527246271301639,-0.19508612913339973
803,0.7936,600.688,66.3998,3.72874,204.812,-125.783,-15.2082,0.303279,-0.0824542,-0.217254,0.227635,0.0217112,-0.01161,0.370864,0.3542922592777966,0.2556269379493661,0.02194860309172597,-0.07914638801356144,-0.011542864017429988,-0.19527445694396928
804,0.7946,600.868,66.417,3.73088,204.868,-125.831,-15.2142,0.303604,-0.0825445,-0.217488,0.227877,0.0216998,-0.0116259,0.371275,0.35473247579337097,0.25593083643858394,0.02193695294405673,-0.07922953734047522,-0.011558580360946924,-0.1954627406909869
805,0.7956,601.048,66.4342,3.73302,204.925,-125.879,-15.2202,0.30393,-0.0826348,-0.217722,0.228118,0.0216883,-0.0116417,0.371686,0.355174190576077,0.2562335522459551,0.021925200736673034,-0.0793126791593437,-0.011574197612000514,-0.19565098038476214
806,0.7966,601.228,66.4515,3.73516,204.982,-125.927,-15.2263,0.304255,-0.082725,-0.217955,0.22836,0.0216768,-0.0116576,0.372097,0.35561469376590527,0.25653759755359706,0.021913448664439228,-0.07939572141042173,-0.011589913457317191,-0.19583837187437614
807,0.7976,601.408,66.4687,3.73729,205.038,-125.975,-15.2323,0.30458,-0.0828153,-0.218189,0.228601,0.0216653,-0.0116734,0.372508,0.3560553401425368,0.25684045960801916,0.021901696727353315,-0.07947884822354623,-0.011605530213311899,-0.19602652368073759
808,0.7986,601.587,66.4859,3.73942,205.095,-126.023,-15.2383,0.304904,-0.0829055,-0.218423,0.228842,0.0216538,-0.0116892,0.372918,0.35649477325706336,0.25714339466099245,0.021889944925413962,-0.07956187548685056,-0.011621146722563758,-0.19621463146472728
809,0.7996,601.767,66.503,3.74155,205.151,-126.071,-15.2443,0.305229,-0.0829957,-0.218656,0.229083,0.0216423,-0.0117051,0.373328,0.35693570570601385,0.2574464027301113,0.021878193258619394,-0.07964489526143359,-0.011636861821395561,-0.1964018916389385
810,0.8006,601.946,66.5202,3.74367,205.208,-126.118,-15.2503,0.305554,-0.0830858,-0.21889,0.229324,0.0216307,-0.0117209,0.373739,0.35737678148129937,0.25774948383297525,0.02186633954032935,-0.0797278155207568,-0.011652477835611963,-0.19658991159710193
811,0.8016,602.125,66.5373,3.74579,205.264,-126.166,-15.2563,0.305878,-0.0831759,-0.219123,0.229565,0.0216191,-0.0117367,0.374149,0.35781664281218695,0.25805263798718725,0.021854485959541536,-0.07981072830930114,-0.011668093603097285,-0.19677708434122843
812,0.8026,602.303,66.5545,3.7479,205.32,-126.213,-15.2623,0.306203,-0.083266,-0.219356,0.229806,0.0216075,-0.0117525,0.374559,0.3582580049385615,0.25835586521035503,0.021842632516254623,-0.07989363362773982,-0.011683709123855412,-0.1969642134791857
813,0.8036,602.482,66.5716,3.75001,205.376,-126.261,-15.2682,0.306527,-0.0833561,-0.21959,0.230047,0.0215959,-0.0117684,0.374968,0.35869815183210796,0.25865916552009005,0.02183077921046661,-0.07997653147674577,-0.01169942322795281,-0.19715210186943255
814,0.8046,602.66,66.5887,3.75212,205.433,-126.308,-15.2742,0.306851,-0.0834461,-0.219823,0.230287,0.0215843,-0.0117842,0.375378,0.359138441356353,0.25896127997209883,0.02181892604217639,-0.08005932986292952,-0.011715038253706789,-0.1973391436384847
815,0.8056,602.839,66.6057,3.75422,205.489,-126.355,-15.2801,0.307175,-0.0835361,-0.220056,0.230528,0.0215726,-0.0118,0.375788,0.35957887355751605,0.2592647262043746,0.02180697083067984,-0.08014212079759397,-0.011730653032745342,-0.19752614183188144
816,0.8066,603.017,66.6228,3.75632,205.545,-126.402,-15.2861,0.307499,-0.0836261,-0.220289,0.230768,0.0215609,-0.0118158,0.376197,0.3600194484818324,0.2595669860083891,0.02179501575905829,-0.08022490428140949,-0.011746267565072244,-0.19771309645977464
817,0.8076,603.194,66.6399,3.75842,205.601,-126.45,-15.292,0.307823,-0.0837161,-0.220521,0.231009,0.0215492,-0.0118316,0.376606,0.3604601661755513,0.259870578233411,0.021783060827310408,-0.08030768031504676,-0.011761881850691602,-0.1978992054319204
818,0.8086,603.372,66.6569,3.76051,205.657,-126.497,-15.298,0.308147,-0.083806,-0.220754,0.231249,0.0215375,-0.0118474,0.377015,0.3609010266849382,0.26017298345936246,0.021771106035434418,-0.08039035693821661,-0.011777495889607081,-0.1980860731461207
819,0.8096,603.549,66.6739,3.7626,205.713,-126.544,-15.3039,0.308471,-0.0838959,-0.220987,0.231489,0.0215257,-0.0118632,0.377424,0.3613420300562724,0.2604754612712783,0.021759049207518588,-0.08047302612909202,-0.011793109681822789,-0.19827289732521558
820,0.8106,603.727,66.6909,3.76468,205.769,-126.591,-15.3098,0.308794,-0.0839857,-0.221219,0.231729,0.021514,-0.011879,0.377833,0.36178181455335334,0.260778011686581,0.021747094696576985,-0.08055559594390549,-0.011808723227342499,-0.1984588764386248
821,0.8116,603.904,66.7079,3.76677,205.824,-126.637,-15.3157,0.309117,-0.0840756,-0.221452,0.231969,0.0215022,-0.0118948,0.378242,0.36222174112377026,0.2610806347226975,0.021735038151993402,-0.08063825028046201,-0.011824336526170098,-0.19864561376467127
822,0.8126,604.081,66.7249,3.76884,205.88,-126.684,-15.3216,0.309441,-0.0841654,-0.221684,0.232209,0.0214904,-0.0119106,0.37865,0.36266317247591195,0.26138333039705897,0.021722981749676018,-0.08072080525881287,-0.011839949578309472,-0.19883150641789638
823,0.8136,604.257,66.7419,3.77092,205.936,-126.731,-15.3275,0.309764,-0.0842552,-0.221917,0.232449,0.0214786,-0.0119264,0.379058,0.36310338377091855,0.2616860987271006,0.0217109254896235,-0.08080335282405948,-0.011855562383764728,-0.19901815693127178
824,0.8146,604.434,66.7588,3.77299,205.992,-126.778,-15.3334,0.310087,-0.0843449,-0.222149,0.232689,0.0214667,-0.0119422,0.379467,0.3635437372771393,0.2619889397302617,0.021698767201952185,-0.08088580106545218,-0.01187117494253953,-0.19920396316450728
825,0.8156,604.61,66.7757,3.77506,206.047,-126.824,-15.3393,0.31041,-0.0844346,-0.222381,0.232928,0.0214549,-0.011958,0.379875,0.36398423304051586,0.262290591132764,0.02168671122762955,-0.08096824191156937,-0.011886787254637765,-0.19938972629569662
826,0.8166,604.786,66.7926,3.77712,206.103,-126.871,-15.3452,0.310733,-0.0845243,-0.222613,0.233168,0.021443,-0.0119738,0.380283,0.36442487110700483,0.26259357723151333,0.021674553228106186,-0.08105067536307442,-0.01190239932006354,-0.19957544633483848
827,0.8176,604.962,66.8095,3.77918,206.158,-126.917,-15.3511,0.311056,-0.084614,-0.222845,0.233407,0.0214311,-0.0119896,0.380691,0.3648656515225772,0.2628953731596486,0.0216623953732622,-0.08113310142063035,-0.011918011138820628,-0.19976112329192897
828,0.8186,605.138,66.8264,3.78124,206.214,-126.964,-15.3569,0.311378,-0.0847036,-0.223077,0.233646,0.0214192,-0.0120054,0.381098,0.3653052090273279,0.2631972412256307,0.021650237663095595,-0.081215428206448,-0.011933622710912806,-0.19994675717696198
829,0.8196,605.314,66.8433,3.78329,206.269,-127.01,-15.3628,0.311701,-0.0847932,-0.223309,0.233886,0.0214072,-0.0120212,0.381506,0.365746273837976,0.2635004449465159,0.021637977933802288,-0.08129774761611608,-0.01194923403634418,-0.20013234799992896
830,0.8206,605.489,66.8602,3.78534,206.324,-127.056,-15.3687,0.312023,-0.0848828,-0.223541,0.234125,0.0213953,-0.0120369,0.381913,0.3661861149487702,0.26380245764193777,0.0216258205142017,-0.08138005965029549,-0.011964746311598162,-0.20031789577081927
831,0.8216,605.664,66.877,3.78739,206.38,-127.102,-15.3745,0.312345,-0.0849724,-0.223773,0.234364,0.0213833,-0.0120527,0.38232,0.3666260977112068,0.26410454252701987,0.021613561077912236,-0.08146236430964704,-0.011980357145280562,-0.2005034004996199
832,0.8226,605.839,66.8938,3.78943,206.435,-127.149,-15.3803,0.312667,-0.0850619,-0.224004,0.234603,0.0213713,-0.0120685,0.382728,0.3670662221709051,0.2644066996190182,0.021601301788735094,-0.08154456974929292,-0.011995967732313706,-0.2006880628847778
833,0.8236,606.014,66.9107,3.79147,206.49,-127.195,-15.3862,0.31299,-0.0851514,-0.224236,0.234842,0.0213593,-0.0120843,0.383135,0.3675078558806708,0.2647089289351916,0.02158904264666872,-0.08162676783188139,-0.012011578072701479,-0.20087348174476916
834,0.8246,606.189,66.9275,3.7935,206.545,-127.241,-15.392,0.313311,-0.0852408,-0.224467,0.23508,0.0213473,-0.0121,0.383541,0.3679468963646362,0.26500996548220646,0.021576783651711118,-0.08170886672896183,-0.012027089369161748,-0.20105805865103266
835,0.8256,606.363,66.9442,3.79554,206.6,-127.287,-15.3978,0.313633,-0.0853303,-0.224699,0.235319,0.0213352,-0.0121158,0.383948,0.368387446189981,0.26531233899615225,0.021564422647413206,-0.08179105010762855,-0.012042699217831632,-0.2012433916819628
836,0.8266,606.538,66.961,3.79757,206.655,-127.333,-15.4036,0.313955,-0.0854197,-0.22493,0.235558,0.0213232,-0.0121316,0.384355,0.36882813789521096,0.2656147847860044,0.02155216394789372,-0.08187313431852994,-0.012058308819867802,-0.20142788314889937
837,0.8276,606.712,66.9778,3.79959,206.71,-127.378,-15.4094,0.314277,-0.0855091,-0.225161,0.235796,0.0213111,-0.0121473,0.384761,0.3692689715260189,0.26591603695236943,0.021539803241492406,-0.08195521119143101,-0.012073819382661055,-0.20161233200322914
838,0.8286,606.886,66.9945,3.80161,206.765,-127.424,-15.4152,0.314598,-0.0855984,-0.225392,0.236034,0.021299,-0.0121631,0.385167,0.36970857741884977,0.26621736082528247,0.021527442684654563,-0.0820371889307111,-0.01208942849300254,-0.20179673825479438
839,0.8296,607.06,67.0112,3.80363,206.82,-127.47,-15.421,0.314919,-0.0856877,-0.225623,0.236273,0.0212868,-0.0121788,0.385574,0.3701483244478234,0.2665200229412019,0.021514980125875605,-0.08211915934970593,-0.012104938567220835,-0.2019811019134351
840,0.8306,607.233,67.0279,3.80565,206.875,-127.515,-15.4268,0.315241,-0.085777,-0.225854,0.236511,0.0212747,-0.0121946,0.38598,0.37058958324714975,0.266821490579888,0.021502619869395723,-0.08220112244906908,-0.012120547185882957,-0.2021654229889892
841,0.8316,607.406,67.0446,3.80766,206.93,-127.561,-15.4326,0.315562,-0.0858663,-0.226085,0.236749,0.0212625,-0.0122103,0.386385,0.37102961312438887,0.2671230299764107,0.02149015761345341,-0.08228307822945435,-0.012136056771541615,-0.20234970149129228
842,0.8326,607.58,67.0613,3.80967,206.984,-127.606,-15.4383,0.315883,-0.0859555,-0.226316,0.236987,0.0212504,-0.0122261,0.386791,0.37146978427389166,0.2674246411478509,0.02147779765732416,-0.08236493492801322,-0.012151664898540138,-0.20253393743017767
843,0.8336,607.753,67.078,3.81167,207.039,-127.652,-15.4441,0.316204,-0.0860447,-0.226547,0.237225,0.0212382,-0.0122418,0.387197,0.3719100967410136,0.2677263241112926,0.02146533570421072,-0.0824467843252803,-0.012167173995654479,-0.20271813081547618
844,0.8346,607.926,67.0947,3.81367,207.093,-127.697,-15.4499,0.316525,-0.0861339,-0.226777,0.237463,0.021226,-0.0122576,0.387602,0.3723505505711253,0.26802807888382474,0.02145287390313233,-0.08252862642190673,-0.012182781631004724,-0.2029014845588999
845,0.8356,608.098,67.1113,3.81567,207.148,-127.743,-15.4556,0.316845,-0.0862231,-0.227008,0.2377,0.0212137,-0.0122733,0.388008,0.3727897730191516,0.26832863715326827,0.021440310110050653,-0.08261046121854365,-0.012198290239590182,-0.20308559305061724
846,0.8366,608.271,67.1279,3.81767,207.203,-127.788,-15.4613,0.317166,-0.0863122,-0.227238,0.237938,0.0212015,-0.0122891,0.388413,0.3732305092706747,0.26863053529336445,0.021427848614282707,-0.08269219698506658,-0.012213897383307692,-0.20326886228744545
847,0.8376,608.443,67.1445,3.81966,207.257,-127.833,-15.4671,0.317487,-0.0864013,-0.227469,0.238176,0.0211892,-0.0123048,0.388818,0.3736713870212438,0.2689325052937688,0.021415285129010364,-0.08277392546925721,-0.012229405503379698,-0.20345288592470867
848,0.8386,608.615,67.1611,3.82165,207.311,-127.878,-15.4728,0.317807,-0.0864904,-0.227699,0.238413,0.0211769,-0.0123205,0.389223,0.3741110322045682,0.2692332779376738,0.021402721798267965,-0.08285564667176426,-0.01224491337997613,-0.20363607069389
849,0.8396,608.788,67.1777,3.82363,207.366,-127.923,-15.4785,0.318127,-0.0865794,-0.227929,0.238651,0.0211646,-0.0123363,0.389628,0.37455081809686375,0.26953539140789995,0.021390158622053512,-0.08293726888696806,-0.01226051978705378,-0.2038192133354193
850,0.8406,608.959,67.1943,3.82561,207.42,-127.968,-15.4843,0.318447,-0.0866684,-0.228159,0.238888,0.0211523,-0.012352,0.390032,0.37499074474316396,0.2698363069527472,0.02137759560036523,-0.08301888383811795,-0.012276027175159854,-0.2040023138589847
851,0.8416,609.131,67.2108,3.82759,207.474,-128.013,-15.49,0.318767,-0.0867574,-0.228389,0.239125,0.02114,-0.0123677,0.390437,0.3754308121885179,0.2701372938230302,0.021365032733201117,-0.0831004915258603,-0.012291534319801789,-0.20418537227427247
852,0.8426,609.302,67.2274,3.82956,207.528,-128.058,-15.4957,0.319087,-0.0868463,-0.228619,0.239362,0.0211276,-0.0123834,0.390841,0.37587102047798804,0.27043835203565525,0.021352367885317358,-0.08318200026904632,-0.012307041220983472,-0.20436838859096618
853,0.8436,609.474,67.2439,3.83154,207.583,-128.103,-15.5014,0.319407,-0.0869353,-0.228849,0.239599,0.0211153,-0.0123991,0.391245,0.376311369656652,0.2707394816075326,0.021339805328452366,-0.08326359344007239,-0.012322547878708678,-0.20455136281874742
854,0.8446,609.645,67.2604,3.8335,207.637,-128.148,-15.5071,0.319727,-0.0870242,-0.229079,0.239836,0.0211029,-0.0124149,0.391649,0.37675185976960135,0.271040682555576,0.0213271407933866,-0.08334508768414284,-0.012338153059170964,-0.20473429496729556
855,0.8456,609.816,67.2769,3.83547,207.691,-128.192,-15.5127,0.320046,-0.087113,-0.229309,0.240073,0.0210905,-0.0124306,0.392053,0.37719111367014,0.271341954896704,0.021314476415359884,-0.08342648302634981,-0.012353659228444225,-0.20491718504628775
856,0.8466,609.987,67.2934,3.83743,207.745,-128.237,-15.5184,0.320366,-0.0872019,-0.229538,0.24031,0.021078,-0.0124463,0.392457,0.3776318853462215,0.27164329864783854,0.021301710064194568,-0.08350796279017958,-0.012369165154272443,-0.2050992381650345
857,0.8476,610.157,67.3099,3.83939,207.799,-128.282,-15.5241,0.320685,-0.0872907,-0.229768,0.240546,0.0210656,-0.012462,0.392861,0.37807142001969996,0.27194344188182784,0.02128904600150716,-0.08358934366971926,-0.012384670836659617,-0.20528204431674324
858,0.8486,610.328,67.3263,3.84134,207.853,-128.326,-15.5297,0.321005,-0.0873795,-0.229997,0.240783,0.0210532,-0.0124777,0.393264,0.3785124734388896,0.27224492820227164,0.021276382095853252,-0.08367071732295772,-0.01240017627560941,-0.20546401389228308
859,0.8496,610.498,67.3428,3.8433,207.906,-128.371,-15.5354,0.321324,-0.0874682,-0.230227,0.241019,0.0210407,-0.0124934,0.393668,0.3789522890647794,0.2725452134375914,0.021263616220863923,-0.08375199212574036,-0.012415681471125817,-0.2056467361552221
860,0.8506,610.668,67.3592,3.84524,207.96,-128.415,-15.5411,0.321643,-0.087557,-0.230456,0.241256,0.0210282,-0.0125091,0.394071,0.3793922450142342,0.27284684239479584,0.02125085050544695,-0.08383335133643721,-0.012431186423212504,-0.2058286222258926
861,0.8516,610.838,67.3756,3.84719,208.014,-128.459,-15.5467,0.321962,-0.0876457,-0.230685,0.241492,0.0210157,-0.0125248,0.394474,0.37983234133202437,0.27314726969862835,0.021238084949600555,-0.08391461171422265,-0.012446691131873355,-0.2060104666494217
862,0.8526,611.008,67.392,3.84913,208.068,-128.504,-15.5523,0.322281,-0.0877343,-0.230915,0.241728,0.0210032,-0.0125405,0.394877,0.3802725780629346,0.2734477679116716,0.02122531955332252,-0.08399577328411412,-0.012462195597112258,-0.20619306324267916
863,0.8536,611.177,67.4084,3.85107,208.121,-128.548,-15.558,0.322599,-0.087823,-0.231144,0.241964,0.0209906,-0.0125562,0.39528,0.3807115745394989,0.27374833705066215,0.02121245219536072,-0.08407701925571165,-0.012477699818932875,-0.20637482421877051
864,0.8546,611.347,67.4248,3.85301,208.175,-128.592,-15.5636,0.322918,-0.0879116,-0.231373,0.2422,0.0209781,-0.0125719,0.395683,0.3811520917905429,0.27404897713234044,0.021199687119490163,-0.08415816643693241,-0.012493203797339203,-0.20655654357636388
865,0.8556,611.516,67.4411,3.85494,208.229,-128.636,-15.5692,0.323237,-0.0880002,-0.231602,0.242436,0.0209655,-0.0125876,0.396085,0.38159274958900613,0.27434968817345085,0.021186820084494906,-0.08423930642883137,-0.012508707532335017,-0.20673822132498876
866,0.8566,611.685,67.4575,3.85687,208.282,-128.68,-15.5748,0.323555,-0.0880888,-0.23183,0.242672,0.0209529,-0.0126033,0.396488,0.3820321659468733,0.27465047019074174,0.021173953211623298,-0.08432043923204557,-0.012524211023923981,-0.2069190643936334
867,0.8576,611.854,67.4738,3.85879,208.335,-128.724,-15.5804,0.323873,-0.0881773,-0.232059,0.242908,0.0209403,-0.0126189,0.39689,0.3824717220613625,0.2749513232009657,0.02116108650087334,-0.08440147328736369,-0.01253961552607663,-0.20710065913449582
868,0.8586,612.023,67.4901,3.86072,208.389,-128.768,-15.586,0.324191,-0.0882658,-0.232288,0.243143,0.0209277,-0.0126346,0.397292,0.3829114179769233,0.27525097196926906,0.021148219952242808,-0.08448250017148529,-0.012555118532413867,-0.20728221229492372
869,0.8596,612.191,67.5064,3.86264,208.442,-128.812,-15.5916,0.324509,-0.0883543,-0.232516,0.243379,0.020915,-0.0126503,0.397694,0.3833512537380195,0.2755519667146369,0.021135251452199633,-0.08456351988504485,-0.01257062129535591,-0.2074629313477656
870,0.8606,612.36,67.5227,3.86455,208.495,-128.856,-15.5972,0.324827,-0.0884427,-0.232745,0.243614,0.0209024,-0.012666,0.398096,0.383791229389129,0.27585175665075257,0.021122385229088714,-0.08464444089312573,-0.012586123814906536,-0.20764440155735497
871,0.8616,612.528,67.539,3.86647,208.549,-128.899,-15.6028,0.325145,-0.0885311,-0.232973,0.24385,0.0208897,-0.0126817,0.398498,0.3842313449747441,0.27615289319803704,0.02110941705714442,-0.08472535474810572,-0.012601626091069407,-0.20782503804045827
872,0.8626,612.696,67.5553,3.86838,208.602,-128.943,-15.6084,0.325463,-0.0886195,-0.233202,0.244085,0.020877,-0.0126973,0.3989,0.38467160053937066,0.27645282436847074,0.021096449049894828,-0.0848062614506171,-0.012617029385556422,-0.2080064253371089
873,0.8636,612.864,67.5715,3.87028,208.655,-128.987,-15.6139,0.325781,-0.0887079,-0.23343,0.24432,0.0208643,-0.012713,0.399301,0.38511199612752955,0.27675282603101214,0.021083481207337718,-0.08488716100129201,-0.012632531176505646,-0.2081869792881994
874,0.8646,613.032,67.5877,3.87219,208.708,-129.03,-15.6195,0.326098,-0.0887962,-0.233658,0.244555,0.0208516,-0.0127287,0.399702,0.3855511462319161,0.27705289820222845,0.021070513529471313,-0.0849679618975635,-0.012648032724078773,-0.20836749207768168
875,0.8656,613.199,67.604,3.87409,208.761,-129.074,-15.6251,0.326416,-0.0888845,-0.233886,0.24479,0.0208389,-0.0127443,0.400104,0.3859918215600815,0.2773530408986917,0.021057546016293394,-0.08504875565943093,-0.012663435294627878,-0.20854796371493955
876,0.8666,613.367,67.6202,3.87599,208.814,-129.117,-15.6306,0.326733,-0.0889728,-0.234114,0.245025,0.0208261,-0.01276,0.400505,0.38643125061334116,0.2776532541369767,0.021044476563349068,-0.08512954228752401,-0.012678936357010118,-0.20872839420935452
877,0.8676,613.534,67.6364,3.87788,208.867,-129.161,-15.6362,0.32705,-0.0890611,-0.234342,0.24526,0.0208134,-0.0127756,0.400906,0.38687081898769193,0.27795353793366306,0.02103150938083842,-0.0852103217824729,-0.012694338445466302,-0.20890878357030618
878,0.8686,613.701,67.6525,3.87977,208.92,-129.204,-15.6417,0.327367,-0.0891493,-0.23457,0.245495,0.0208006,-0.0127913,0.401306,0.3873105267273056,0.2782538923053339,0.021018440261161064,-0.08529100267401202,-0.012709839022672864,-0.20908913180717192
879,0.8696,613.868,67.6687,3.88166,208.973,-129.247,-15.6472,0.327684,-0.0892375,-0.234798,0.245729,0.0207878,-0.0128069,0.401707,0.3877503738763679,0.2785530387148982,0.02100537130876723,-0.08537167644981036,-0.012725240629051227,-0.20926943892932692
880,0.8706,614.034,67.6849,3.88355,209.026,-129.29,-15.6527,0.328001,-0.0893257,-0.235026,0.245964,0.020775,-0.0128226,0.402108,0.38819036047907884,0.2788535339858076,0.020992302523654693,-0.08545234311049543,-0.012740740721097321,-0.20944970494614412
881,0.8716,614.201,67.701,3.88543,209.079,-129.334,-15.6583,0.328318,-0.0894138,-0.235253,0.246198,0.0207622,-0.0128382,0.402508,0.38863048657965193,0.2791528207279437,0.020979233905821904,-0.08553291120999051,-0.012756141845413072,-0.2096291394965294
882,0.8726,614.367,67.7171,3.88731,209.131,-129.377,-15.6638,0.328635,-0.0895019,-0.235481,0.246433,0.0207493,-0.0128539,0.402908,0.38907075222231535,0.2794534569641889,0.020966063358654585,-0.08561347221174864,-0.012771641452313798,-0.20980932351096604
883,0.8736,614.534,67.7333,3.88918,209.184,-129.42,-15.6693,0.328951,-0.08959,-0.235709,0.246667,0.0207365,-0.0128695,0.403309,0.3895097679408479,0.27975288410472765,0.020952995076680914,-0.0856940261163952,-0.012787042094581813,-0.20998946644813032
884,0.8746,614.7,67.7494,3.89106,209.237,-129.463,-15.6748,0.329268,-0.089678,-0.235936,0.246901,0.0207236,-0.0128852,0.403709,0.3899503123598864,0.28005238131941557,0.020939824867992396,-0.08577448150200806,-0.012802541216352492,-0.21016877848656024
885,0.8756,614.866,67.7654,3.89293,209.289,-129.506,-15.6803,0.329584,-0.0897661,-0.236163,0.247135,0.0207107,-0.0129008,0.404108,0.3903896060633416,0.2803519486246522,0.02092665482919842,-0.085855021222361,-0.012817941376587982,-0.21034804982577693
886,0.8766,615.031,67.7815,3.8948,209.342,-129.549,-15.6858,0.3299,-0.0898541,-0.236391,0.247369,0.0206978,-0.0129164,0.404508,0.39082903860554286,0.2806515860368404,0.02091348496029699,-0.0859354624410279,-0.012833341296582867,-0.21052806994734297
887,0.8776,615.197,67.7976,3.89666,209.394,-129.591,-15.6913,0.330216,-0.0899421,-0.236618,0.247603,0.0206849,-0.012932,0.404908,0.3912686100303693,0.280951293572387,0.020900315261285884,-0.08601589658117903,-0.012848740976340811,-0.21070725973665438
888,0.8786,615.362,67.8136,3.89852,209.447,-129.634,-15.6967,0.330532,-0.09003,-0.236845,0.247837,0.020672,-0.0129477,0.405307,0.39170832038171555,0.281251071247703,0.02088714573216266,-0.08609623225306506,-0.012864239129446675,-0.21088640885450005
889,0.8796,615.528,67.8297,3.90038,209.499,-129.677,-15.7022,0.330848,-0.0901179,-0.237072,0.248071,0.020659,-0.0129633,0.405707,0.39214816970348876,0.28155091907920315,0.020873874285532557,-0.0861765608637558,-0.01287963832720218,-0.21106551731011125
890,0.8806,615.693,67.8457,3.90223,209.551,-129.72,-15.7077,0.331164,-0.0902058,-0.237299,0.248305,0.0206461,-0.0129789,0.406106,0.3925881580396109,0.2818508370833057,0.020860705097495824,-0.08625688241387208,-0.01289503728473207,-0.21124458511271726
891,0.8816,615.858,67.8617,3.90409,209.604,-129.762,-15.7131,0.33148,-0.0902937,-0.237526,0.248538,0.0206331,-0.0129945,0.406505,0.39302828543401724,0.2821495431262486,0.02084743399459188,-0.0863371969040343,-0.012910436002040115,-0.21142361227154538
892,0.8826,616.022,67.8777,3.90593,209.656,-129.805,-15.7186,0.331795,-0.0903815,-0.237752,0.248772,0.0206201,-0.0130102,0.406904,0.3934671584628022,0.2824496012247686,0.020834163064211264,-0.08641741297660899,-0.012925933186541672,-0.21160181039802528
893,0.8836,616.187,67.8937,3.90778,209.708,-129.847,-15.724,0.332111,-0.0904693,-0.237979,0.249005,0.0206071,-0.0130258,0.407303,0.3939075636652336,0.2827484467960111,0.020820892306351535,-0.08649762200652178,-0.012941331421877478,-0.21178075647591665
894,0.8846,616.351,67.9096,3.90962,209.76,-129.89,-15.7295,0.332426,-0.0905571,-0.238206,0.249238,0.0205941,-0.0130414,0.407701,0.39434671371028895,0.28304736200638403,0.020807621721010472,-0.08657782399439073,-0.012956729417002544,-0.21195966193765847
895,0.8856,616.516,67.9256,3.91146,209.812,-129.932,-15.7349,0.332741,-0.0906448,-0.238432,0.249472,0.020581,-0.013057,0.4081,0.3947860021093983,0.2833476302191045,0.020794249228756057,-0.08665792760663171,-0.012972127171920866,-0.2121377389306025
896,0.8866,616.68,67.9415,3.9133,209.865,-129.974,-15.7403,0.333056,-0.0907326,-0.238659,0.249705,0.020568,-0.0130726,0.408498,0.39522542890614965,0.2836466850554811,0.020780978989772825,-0.08673811552028698,-0.012987524686635998,-0.21231656336652382
897,0.8876,616.844,67.9575,3.91514,209.917,-130.017,-15.7458,0.333371,-0.0908203,-0.238885,0.249938,0.0205549,-0.0130882,0.408896,0.39566499414414547,0.2839458095797527,0.02076760684653567,-0.08681820507557747,-0.013002921961151936,-0.21249455970885867
898,0.8886,617.008,67.9734,3.91697,209.968,-130.059,-15.7512,0.333686,-0.0909079,-0.239111,0.250171,0.0205418,-0.0131038,0.409295,0.3961046978670013,0.28424500380815876,0.02075423487847261,-0.08689819629714624,-0.013018318995472122,-0.2126725158285655
899,0.8896,617.171,67.9893,3.9188,210.02,-130.101,-15.7566,0.334001,-0.0909956,-0.239338,0.250404,0.0205287,-0.0131194,0.409693,0.39654454011834717,0.2845442677569423,0.020740863085581207,-0.08697827181396822,-0.013033715789600442,-0.21285121888390834
900,0.8906,617.335,68.0052,3.92062,210.072,-130.143,-15.762,0.334316,-0.0910832,-0.239564,0.250636,0.0205156,-0.013135,0.41009,0.3969845209418261,0.28484231659939074,0.020727491467859016,-0.08705824901430481,-0.01304911234354078,-0.2130290944077493
901,0.8916,617.498,68.021,3.92244,210.124,-130.185,-15.7674,0.334631,-0.0911708,-0.23979,0.250869,0.0205025,-0.0131506,0.410488,0.39742464038109526,0.2851417197382695,0.020714120025303817,-0.08713821920894549,-0.01306450865729658,-0.2132069297362641
902,0.8926,617.661,68.0369,3.92426,210.176,-130.227,-15.7728,0.334945,-0.0912583,-0.240016,0.251102,0.0204894,-0.0131662,0.410886,0.3978635006156259,0.2854411926462075,0.020700748757913612,-0.08721809112031764,-0.013079904730871839,-0.21338472487853588
903,0.8936,617.824,68.0527,3.92608,210.228,-130.269,-15.7782,0.335259,-0.0913459,-0.240242,0.251334,0.0204762,-0.0131818,0.411283,0.3983024986739072,0.28573944959937014,0.020687275596952936,-0.08729804731340307,-0.013095300564270218,-0.21356247984364563
904,0.8946,617.987,68.0686,3.92789,210.279,-130.311,-15.7836,0.335574,-0.0914334,-0.240468,0.251567,0.0204631,-0.0131973,0.411681,0.39874303334155714,0.28603906179459204,0.02067390468122232,-0.08737790524042788,-0.013110597468560248,-0.2137401946406725
905,0.8956,618.15,68.0844,3.9297,210.331,-130.353,-15.7889,0.335888,-0.0915208,-0.240693,0.251799,0.0204499,-0.0132129,0.412078,0.39918230761647844,0.28633745746948835,0.020660431874601315,-0.08745766492596085,-0.01312599282315563,-0.21391708319616964
906,0.8966,618.312,68.1002,3.93151,210.383,-130.395,-15.7943,0.336202,-0.0916083,-0.240919,0.252031,0.0204367,-0.0132285,0.412475,0.39962171984517947,0.2866359223802122,0.02064695924582005,-0.08753750888705558,-0.013141387937585347,-0.21409471786189394
907,0.8976,618.475,68.116,3.93332,210.434,-130.436,-15.7997,0.336516,-0.0916957,-0.241145,0.252263,0.0204235,-0.0132441,0.412872,0.4000612700709847,0.28693445654282823,0.02063348679487631,-0.0876172546238394,-0.013156782811853174,-0.21427231238671995
908,0.8986,618.637,68.1318,3.93512,210.486,-130.478,-15.805,0.33683,-0.0917831,-0.24137,0.252496,0.0204103,-0.0132596,0.413269,0.4005009583372323,0.2872343472071084,0.02062001452176787,-0.08769699339115045,-0.01317207876317572,-0.21444908122919248
909,0.8996,618.799,68.1476,3.93692,210.537,-130.52,-15.8104,0.337144,-0.0918705,-0.241595,0.252728,0.020397,-0.0132752,0.413665,0.40094078468727323,0.2875330202203903,0.020606440365843026,-0.08777672518959767,-0.013187473158670415,-0.21462581030314953
910,0.9006,618.961,68.1633,3.93872,210.588,-130.561,-15.8157,0.337457,-0.0919578,-0.241821,0.252959,0.0203838,-0.0132908,0.414062,0.40137934778442474,0.28783047470273115,0.02059296844974523,-0.08785635880543075,-0.013202867314014433,-0.21480328481464583
911,0.9016,619.122,68.1791,3.94051,210.64,-130.603,-15.8211,0.337771,-0.0920451,-0.242046,0.253191,0.0203705,-0.0133064,0.414458,0.40181944999205954,0.2881292860336364,0.020579394653530647,-0.0879359854695525,-0.013218261229211437,-0.2149799342017612
912,0.9026,619.284,68.1948,3.9423,210.691,-130.644,-15.8264,0.338084,-0.0921324,-0.242271,0.253423,0.0203573,-0.0133219,0.414854,0.4022582881544967,0.2884281666968125,0.020565923094433725,-0.08801560518257001,-0.013233556227625787,-0.2151565438472356
913,0.9036,619.446,68.2105,3.94409,210.742,-130.686,-15.8317,0.338398,-0.0922196,-0.242496,0.253655,0.020344,-0.0133375,0.415251,0.4026986663927423,0.2887271167083467,0.020552349657920077,-0.08809512675460718,-0.013248949664079523,-0.21533311376000985
914,0.9046,619.607,68.2262,3.94587,210.794,-130.727,-15.8371,0.338711,-0.0923069,-0.242722,0.253886,0.0203307,-0.013353,0.415647,0.4031377797929856,0.2890248470588379,0.020538776401932024,-0.08817473257519681,-0.013264244186826923,-0.2155104284389867
915,0.9056,619.768,68.2419,3.94766,210.845,-130.768,-15.8424,0.339024,-0.0923941,-0.242946,0.254118,0.0203174,-0.0133686,0.416043,0.4035770306572348,0.2893239355162751,0.020525203326467123,-0.0882542402719303,-0.01327963714455227,-0.21568613442321138
916,0.9066,619.929,68.2576,3.94944,210.896,-130.81,-15.8477,0.339337,-0.0924812,-0.243171,0.254349,0.020304,-0.0133841,0.416438,0.4040164190285236,0.2896218037478355,0.02051152838036474,-0.08833364986926451,-0.013294931191647263,-0.21586258519151036
917,0.9076,620.09,68.2733,3.95121,210.947,-130.851,-15.853,0.33965,-0.0925684,-0.243396,0.25458,0.0202907,-0.0133997,0.416834,0.4044559449498979,0.28991974079490523,0.020497955667296175,-0.0884131437090141,-0.013310323670659097,-0.2160389962628525
918,0.9086,620.25,68.2889,3.95299,210.998,-130.892,-15.8583,0.339963,-0.0926555,-0.243621,0.254812,0.0202773,-0.0134152,0.417229,0.40489560846441774,0.29021903689177453,0.020484281086310174,-0.08849253946646163,-0.013325617242116672,-0.21621536764616867
919,0.9096,620.411,68.3046,3.95476,211.049,-130.933,-15.8636,0.340275,-0.0927426,-0.243846,0.255043,0.020264,-0.0134308,0.417625,0.40533400428044963,0.29051711191563645,0.02047070873562795,-0.08857192830883975,-0.013341009242429758,-0.2163916993503877
920,0.9106,620.571,68.3202,3.95653,211.1,-130.974,-15.8689,0.340588,-0.0928297,-0.24407,0.255274,0.0202506,-0.0134463,0.41802,0.4057739426705558,0.2908152558027821,0.02045703451974834,-0.08865131023675099,-0.013356302338264792,-0.216567207952036
921,0.9116,620.731,68.3358,3.95829,211.151,-131.015,-15.8742,0.3409,-0.0929167,-0.244295,0.255505,0.0202372,-0.0134618,0.418415,0.40621261256961483,0.2911134685691208,0.020443360487101936,-0.0887305941238613,-0.01337159519705855,-0.2167434605010914
922,0.9126,620.891,68.3515,3.96006,211.202,-131.056,-15.8795,0.341213,-0.0930037,-0.244519,0.255736,0.0202238,-0.0134774,0.41881,0.406652826007158,0.291411750230566,0.020429686637686517,-0.08880987111357341,-0.013386986480121155,-0.21691889031706624
923,0.9136,621.051,68.3671,3.96182,211.253,-131.097,-15.8847,0.341525,-0.0930907,-0.244743,0.255967,0.0202104,-0.0134929,0.419205,0.4070917701605996,0.2917101008030336,0.020416012971499198,-0.0888891412064875,-0.013402278863314465,-0.2170942808411631
924,0.9146,621.211,68.3826,3.96357,211.304,-131.138,-15.89,0.341837,-0.0931776,-0.244968,0.256197,0.0201969,-0.0135084,0.4196,0.40753085128598343,0.29200722829457004,0.02040223744830927,-0.0889683133000394,-0.013417571009477602,-0.21727041481215914
925,0.9156,621.371,68.3982,3.96533,211.354,-131.179,-15.8953,0.342149,-0.0932646,-0.245192,0.256428,0.0201835,-0.013524,0.419994,0.4079700694260515,0.29230571643835934,0.020388564149938615,-0.08904756960908289,-0.013432961575323143,-0.21744572660358752
926,0.9166,621.53,68.4138,3.96708,211.405,-131.22,-15.9005,0.342461,-0.0933515,-0.245416,0.256658,0.02017,-0.0135395,0.420388,0.4084094246235592,0.292602980937247,0.02037478899730516,-0.08912672793580467,-0.013448253245907926,-0.21762099912957256
927,0.9176,621.689,68.4293,3.96883,211.456,-131.26,-15.9058,0.342773,-0.0934383,-0.24564,0.256889,0.0201566,-0.013555,0.420783,0.408848916921275,0.292901606715793,0.020361116066741403,-0.08920578830455028,-0.013463544679473749,-0.21779623239890866
928,0.9186,621.849,68.4448,3.97058,211.506,-131.301,-15.911,0.343085,-0.0935252,-0.245864,0.257119,0.0201431,-0.0135705,0.421177,0.40928854636198087,0.2931990082852072,0.02034734128465443,-0.08928493288266481,-0.013478835876024164,-0.21797142642038825
929,0.9196,622.008,68.4604,3.97232,211.557,-131.341,-15.9163,0.343397,-0.093612,-0.246088,0.25735,0.0201296,-0.013586,0.421571,0.40972831298847234,0.293497771761974,0.020333566688525817,-0.0893639795198169,-0.013494126835562836,-0.21814658120280217
930,0.9206,622.166,68.4759,3.97406,211.607,-131.382,-15.9215,0.343708,-0.0936988,-0.246312,0.25758,0.0201161,-0.0136016,0.421965,0.41016680667604577,0.29379531046511853,0.02031979227835312,-0.08944301929601872,-0.013509516207146799,-0.21832169675493862
931,0.9216,622.325,68.4913,3.9758,211.658,-131.423,-15.9267,0.34402,-0.0937855,-0.246536,0.25781,0.0201025,-0.0136171,0.422359,0.4106068473625062,0.2940929176100353,0.02030591602353682,-0.0895219611640663,-0.013524806691143976,-0.21849677308558446
932,0.9226,622.484,68.5068,3.97753,211.708,-131.463,-15.932,0.344331,-0.0938723,-0.246759,0.25804,0.020089,-0.0136326,0.422752,0.4110456143167609,0.2943905932124675,0.02029214198664553,-0.08960098722805643,-0.013540096938140511,-0.21867102887494372
933,0.9236,622.642,68.5223,3.97927,211.759,-131.503,-15.9372,0.344642,-0.093959,-0.246983,0.25827,0.0200755,-0.0136481,0.423146,0.4114845177487594,0.29468833728816257,0.020278368135702385,-0.08967991540087805,-0.01355538694814018,-0.21884602696395805
934,0.9246,622.8,68.5378,3.981,211.809,-131.544,-15.9424,0.344953,-0.0940457,-0.247206,0.2585,0.0200619,-0.0136636,0.423539,0.41192355770095324,0.29498614985287097,0.020264492444250548,-0.08975883673092366,-0.013570676721146424,-0.2190202048783858
935,0.9256,622.958,68.5532,3.98272,211.859,-131.584,-15.9476,0.345264,-0.0941323,-0.24743,0.258729,0.0200483,-0.0136791,0.423932,0.4123627342158065,0.29528273563896357,0.020250616941507094,-0.08983766020255723,-0.013585966257163018,-0.21919512476073488
936,0.9266,623.116,68.5686,3.98445,211.91,-131.624,-15.9528,0.345575,-0.0942189,-0.247653,0.258959,0.0200347,-0.0136946,0.424326,0.41280204733579673,0.29558068493101564,0.020236741627468913,-0.08991647684837367,-0.013601255556193625,-0.2193692248350334
937,0.9276,623.274,68.5841,3.98617,211.96,-131.664,-15.958,0.345886,-0.0943055,-0.247876,0.259189,0.0200212,-0.0137101,0.424719,0.41324149710341507,0.2958787027592864,0.020222968524425733,-0.08999528666896417,-0.013616544618242021,-0.21954328608934404
938,0.9286,623.432,68.5995,3.98789,212.01,-131.705,-15.9632,0.346197,-0.0943921,-0.2481,0.259418,0.0200075,-0.0137256,0.425111,0.4136810835611653,0.2961754929633995,0.020208991565499268,-0.09007408966491959,-0.013631833443311758,-0.21971808881462385
939,0.9296,623.589,68.6149,3.98961,212.06,-131.745,-15.9684,0.346507,-0.0944787,-0.248323,0.259648,0.0199939,-0.013741,0.425504,0.414119392631465,0.29647364761325146,0.020195116817562475,-0.09015288583683112,-0.013647023396113789,-0.21989207228094065
940,0.9306,623.746,68.6302,3.99132,212.11,-131.785,-15.9736,0.346818,-0.0945652,-0.248546,0.259877,0.0199803,-0.0137565,0.425897,0.41455925215718437,0.29677057407533725,0.020181242258320964,-0.09023158420845256,-0.013662311748766087,-0.22006601695327022
941,0.9316,623.904,68.6456,3.99303,212.16,-131.825,-15.9788,0.347128,-0.0946517,-0.248769,0.260106,0.0199666,-0.013772,0.426289,0.4149978335019493,0.29706756854136906,0.020167265871040563,-0.09031027577295936,-0.013677599864450718,-0.22023992284026261
942,0.9326,624.061,68.661,3.99474,212.21,-131.865,-15.9839,0.347438,-0.0947381,-0.248992,0.260335,0.019953,-0.0137875,0.426682,0.4154365508280069,0.29736463102692134,0.020153391690569178,-0.09038886956983161,-0.013692887743171456,-0.22041378995056593
943,0.9336,624.218,68.6763,3.99645,212.26,-131.905,-15.9891,0.347749,-0.0948246,-0.249214,0.260565,0.0199393,-0.013803,0.427074,0.41587682005363047,0.29766305920998315,0.0201394156848389,-0.09046754752974306,-0.013708175384931964,-0.22058683888005504
944,0.9346,624.374,68.6917,3.99815,212.31,-131.944,-15.9943,0.348059,-0.094911,-0.249437,0.260794,0.0199256,-0.0138184,0.427466,0.41631580990775885,0.2979602580785139,0.020125439870578576,-0.09054612773892257,-0.01372336416207709,-0.22076062863670665
945,0.9356,624.531,68.707,3.99985,212.36,-131.984,-15.9994,0.348369,-0.0949973,-0.24966,0.261022,0.0199119,-0.0138339,0.427858,0.4167549358698377,0.298256226756503,0.020111464247785538,-0.0906246102215309,-0.013738651331456797,-0.22093437964256346
946,0.9366,624.687,68.7223,4.00155,212.41,-132.024,-16.0046,0.348679,-0.0950837,-0.249882,0.261251,0.0198982,-0.0138494,0.42825,0.417194197982067,0.29855356147595624,0.020097488816457343,-0.09070317686107998,-0.013753938263887044,-0.22110731301396835
947,0.9376,624.844,68.7376,4.00325,212.459,-132.064,-16.0097,0.348988,-0.09517,-0.250105,0.26148,0.0198845,-0.0138648,0.428641,0.41763217865377245,0.29885096429285696,0.020083513576591105,-0.09078164579093384,-0.01376912633628935,-0.2212809867178286
948,0.9386,625.0,68.7529,4.00494,212.509,-132.103,-16.0148,0.349298,-0.0952563,-0.250327,0.261709,0.0198708,-0.0138803,0.429033,0.4180717127534206,0.29914843522280155,0.020069538528184605,-0.09086010794921129,-0.013784412796360779,-0.22145384315100325
949,0.9396,625.156,68.7681,4.00663,212.559,-132.143,-16.02,0.349608,-0.0953426,-0.25055,0.261937,0.0198571,-0.0138958,0.429424,0.4185113831297613,0.29944467483606485,0.020055563671234733,-0.09093856333649664,-0.01379969901949385,-0.2216274395872585
950,0.9406,625.312,68.7834,4.00832,212.609,-132.183,-16.0251,0.349917,-0.0954288,-0.250772,0.262166,0.0198433,-0.0139112,0.429816,0.41894977087456686,0.29974228174129247,0.020041487001585256,-0.09101692105507087,-0.013814886387185976,-0.22180021911643277
951,0.9416,625.467,68.7986,4.01001,212.658,-132.222,-16.0302,0.350226,-0.0955151,-0.250994,0.262394,0.0198295,-0.0139267,0.430207,0.41938829410211653,0.3000386567669986,0.020027410526192613,-0.091095362909969,-0.0138301721379821,-0.22197296029280889
952,0.9426,625.623,68.8139,4.01169,212.708,-132.262,-16.0354,0.350536,-0.0956013,-0.251216,0.262623,0.0198158,-0.0139421,0.430598,0.41982837268194384,0.30033639970966397,0.020013436246392402,-0.09117370711300254,-0.013845359036391724,-0.22214566312490025
953,0.9436,625.779,68.8291,4.01337,212.757,-132.301,-16.0405,0.350845,-0.0956874,-0.251438,0.262851,0.019802,-0.0139576,0.430989,0.4202671674394012,0.3006329102097103,0.019999360158097446,-0.09125195368825667,-0.013860644314865445,-0.22231832762121828
954,0.9446,625.934,68.8443,4.01505,212.807,-132.34,-16.0456,0.351154,-0.0957736,-0.25166,0.263079,0.0197882,-0.013973,0.43138,0.42070609780538915,0.30092948832185806,0.019985284264051106,-0.09133028439374691,-0.013875830744007223,-0.22249095379027262
955,0.9456,626.089,68.8595,4.01672,212.856,-132.38,-16.0507,0.351463,-0.0958597,-0.251882,0.263307,0.0197744,-0.0139885,0.43177,0.4211451638218169,0.30122613406152476,0.01997120856425072,-0.0914085174882775,-0.013891115550173083,-0.222663541640571
956,0.9466,626.244,68.8747,4.0184,212.906,-132.419,-16.0558,0.351772,-0.0959458,-0.252104,0.263535,0.0197605,-0.0140039,0.432161,0.4215843655306073,0.30152284744413116,0.01995703106298552,-0.09148674384722866,-0.013906301510061447,-0.2228360911806192
957,0.9476,626.399,68.8899,4.02007,212.955,-132.458,-16.0609,0.35208,-0.0960318,-0.252326,0.263763,0.0197467,-0.0140193,0.432551,0.4220222809507035,0.30181962848510135,0.019942955753076808,-0.0915648726276721,-0.01392148723608777,-0.22300860241892118
958,0.9486,626.554,68.905,4.02173,213.004,-132.497,-16.066,0.352389,-0.0961178,-0.252548,0.263991,0.0197329,-0.0140348,0.432941,0.42246175373056505,0.30211647719986345,0.019928880637405832,-0.09164299468932935,-0.013936771334583598,-0.2231810753639789
959,0.9496,626.708,68.9202,4.0234,213.054,-132.536,-16.071,0.352697,-0.0962038,-0.252769,0.264219,0.019719,-0.0140502,0.433332,0.4228999394278474,0.3024133936038489,0.019914703724494887,-0.09172111003277816,-0.013951956591378267,-0.22335273337741435
960,0.9506,626.862,68.9353,4.02506,213.103,-132.576,-16.0761,0.353006,-0.0962898,-0.252991,0.264446,0.0197052,-0.0140656,0.433722,0.4233396834460825,0.3027090750027661,0.019900628998699377,-0.0917992186585963,-0.013967141614321776,-0.22352512993387874
961,0.9516,627.017,68.9505,4.02672,213.152,-132.615,-16.0812,0.353314,-0.0963758,-0.253212,0.264674,0.0196913,-0.0140811,0.434112,0.42377813958736343,0.30300612653445436,0.019886452478483196,-0.09187732056736142,-0.01398242500518021,-0.22369671191965557
962,0.9526,627.171,68.9656,4.02838,213.201,-132.654,-16.0863,0.353622,-0.0964617,-0.253434,0.264901,0.0196774,-0.0140965,0.434501,0.42421673079393507,0.30330194249901954,0.01987227615531939,-0.09195532495518821,-0.013997609558913715,-0.22386903212135922
963,0.9536,627.325,68.9807,4.03003,213.25,-132.693,-16.0913,0.353931,-0.0965476,-0.253655,0.265129,0.0196635,-0.0141119,0.434891,0.42465688176357297,0.30359912921990806,0.019858100029205294,-0.09203332264272601,-0.01401279387880694,-0.22404053811315028
964,0.9546,627.479,68.9958,4.03169,213.299,-132.731,-16.0964,0.354239,-0.0966334,-0.253876,0.265356,0.0196496,-0.0141273,0.43528,0.4250957436644196,0.3038950798113622,0.0198439241001378,-0.09211122284167694,-0.014027977964863436,-0.2242120062063051
965,0.9556,627.633,69.0109,4.03334,213.348,-132.77,-16.1014,0.354546,-0.0967193,-0.254097,0.265583,0.0196357,-0.0141427,0.43567,0.4255333152215217,0.3041910975912263,0.01982974836811424,-0.09218920713816137,-0.014043161817086869,-0.22438343640919844
966,0.9566,627.786,69.0259,4.03498,213.397,-132.809,-16.1065,0.354854,-0.0968051,-0.254318,0.26581,0.0196217,-0.0141581,0.436059,0.4259724471054487,0.3044871825747537,0.019815470851580086,-0.09226709396279631,-0.01405834543548068,-0.22455482873020294
967,0.9576,627.94,69.041,4.03663,213.446,-132.848,-16.1115,0.355162,-0.0968909,-0.254539,0.266038,0.0196078,-0.0141736,0.436448,0.42641171426282676,0.3047846395611886,0.01980129551505394,-0.0923449741050284,-0.014073627412690803,-0.22472618317768966
968,0.9586,628.093,69.056,4.03827,213.495,-132.887,-16.1166,0.35547,-0.0969767,-0.25476,0.266265,0.0195938,-0.014189,0.436837,0.42685111673532705,0.3050808592940366,0.019787018396856926,-0.09242284756543095,-0.01408881056191813,-0.2248974997600277
969,0.9596,628.246,69.0711,4.03991,213.544,-132.925,-16.1216,0.355777,-0.0970624,-0.254981,0.266491,0.0195799,-0.0142044,0.437226,0.42728922727469154,0.305375840899903,0.01977284345581709,-0.09250062359464417,-0.014103993477326715,-0.2250687784855845
970,0.9606,628.399,69.0861,4.04155,213.593,-132.964,-16.1266,0.356084,-0.0971481,-0.255202,0.266718,0.0195659,-0.0142198,0.437615,0.4277274723346396,0.3056721948506882,0.019758566735946115,-0.09257839295873727,-0.014119176158920221,-0.2252400193627253
971,0.9616,628.552,69.1011,4.04319,213.641,-133.002,-16.1316,0.356392,-0.0972338,-0.255423,0.266945,0.0195519,-0.0142352,0.438003,0.42816728012304117,0.3059686160814561,0.019744290215947702,-0.09265615565828145,-0.014134358606702202,-0.2254112223998137
972,0.9626,628.705,69.1161,4.04482,213.69,-133.041,-16.1367,0.356699,-0.0973194,-0.255643,0.267172,0.0195379,-0.0142506,0.438392,0.4286057947865958,0.30626510460748113,0.019730013895819187,-0.09273382096723448,-0.01414954082067632,-0.22558161318721193
973,0.9636,628.857,69.1311,4.04645,213.739,-133.079,-16.1417,0.357006,-0.0974051,-0.255864,0.267398,0.0195239,-0.0142659,0.43878,0.4290444440948187,0.30656035388303393,0.019715737775557685,-0.09281157034716903,-0.01416462421731346,-0.2257527407404064
974,0.9646,629.01,69.1461,4.04808,213.788,-133.118,-16.1467,0.357313,-0.0974907,-0.256084,0.267625,0.0195099,-0.0142813,0.439168,0.4294832280890528,0.306856976748787,0.01970146185516053,-0.09288922235319408,-0.014179805965200742,-0.2259230564020338
975,0.9656,629.162,69.161,4.0497,213.836,-133.156,-16.1517,0.35762,-0.0975762,-0.256305,0.267851,0.0194958,-0.0142967,0.439557,0.42992214681065266,0.30715235980256006,0.01968708416591114,-0.0929667770091741,-0.014194987479290933,-0.22609410850461542
976,0.9666,629.314,69.176,4.05132,213.885,-133.195,-16.1567,0.357927,-0.0976618,-0.256525,0.268078,0.0194818,-0.0143121,0.439944,0.4303612003009858,0.30744911706891065,0.019672808646661766,-0.09304441573007738,-0.014210168759587583,-0.22626434907359516
977,0.9676,629.466,69.1909,4.05295,213.933,-133.233,-16.1617,0.358233,-0.0977473,-0.256745,0.268304,0.0194678,-0.0143275,0.440332,0.4307989578017597,0.3077446339615193,0.0196585333272683,-0.09312195711759097,-0.014225349806094356,-0.2264345521937693
978,0.9686,629.618,69.2059,4.05456,213.982,-133.271,-16.1667,0.35854,-0.0978328,-0.256966,0.26853,0.0194537,-0.0143429,0.44072,0.43123828051439084,0.3080402176484931,0.019644156243306954,-0.09319949187559928,-0.014240530618814806,-0.226605491268271
979,0.9696,629.77,69.2208,4.05618,214.03,-133.309,-16.1716,0.358846,-0.0979183,-0.257186,0.268756,0.0194396,-0.0143582,0.441108,0.4316763064427773,0.3083358681449293,0.019629779362061228,-0.09327702000466909,-0.014255612623318648,-0.22677561934541735
980,0.9706,629.922,69.2357,4.05779,214.079,-133.348,-16.1766,0.359153,-0.0980037,-0.257406,0.268982,0.0194255,-0.0143736,0.441495,0.43211589854279,0.3086315854659287,0.019615402683528016,-0.09335445084081695,-0.014270792969995338,-0.2269457099985035
981,0.9716,630.073,69.2506,4.0594,214.127,-133.386,-16.1816,0.359459,-0.0980891,-0.257626,0.269208,0.0194115,-0.014389,0.441882,0.43255419306338583,0.3089273696265953,0.019601128167812343,-0.09343187506465378,-0.014285973082896364,-0.22711576323576177
982,0.9726,630.224,69.2655,4.06101,214.175,-133.424,-16.1866,0.359765,-0.0981745,-0.257846,0.269434,0.0193974,-0.0144043,0.44227,0.432992621722627,0.3092232206420362,0.019586751893258203,-0.09350929267674413,-0.014301054392135915,-0.2272857790654229
983,0.9736,630.376,69.2803,4.06262,214.224,-133.462,-16.1915,0.360071,-0.0982599,-0.258065,0.26966,0.0193832,-0.0144197,0.442657,0.4334311845615664,0.309519138527363,0.019572273864175482,-0.09358670367765276,-0.01431623403901472,-0.22745498495108685
984,0.9746,630.527,69.2952,4.06422,214.272,-133.5,-16.1965,0.360377,-0.0983452,-0.258285,0.269885,0.0193691,-0.0144351,0.443044,0.43386988162126916,0.3098138134832209,0.019557897996464124,-0.09366401743435049,-0.014331413452128738,-0.22762492616017915
985,0.9756,630.678,69.31,4.06582,214.32,-133.538,-16.2014,0.360683,-0.0984305,-0.258505,0.270111,0.019355,-0.0144504,0.443431,0.43430871294281315,0.31010986485761327,0.01954352233145107,-0.093741324596466,-0.014346494066135973,-0.22779482998631773
986,0.9766,630.828,69.3249,4.06742,214.368,-133.576,-16.2064,0.360989,-0.0985158,-0.258724,0.270337,0.0193409,-0.0144658,0.443817,0.434747678567289,0.3104059831471775,0.01952914686913343,-0.09381862516456174,-0.014361673013249088,-0.2279639244020364
987,0.9776,630.979,69.3397,4.06902,214.416,-133.614,-16.2113,0.361295,-0.098601,-0.258944,0.270562,0.0193267,-0.0144811,0.444204,0.43518677853579946,0.310700857665525,0.019514669658036388,-0.09389582852878775,-0.014376753164288547,-0.22813375365676503
988,0.9786,631.13,69.3545,4.07061,214.464,-133.651,-16.2163,0.3616,-0.0986863,-0.259163,0.270787,0.0193125,-0.0144965,0.44459,0.43562457726416515,0.31099579853810355,0.019500192652514015,-0.09397311591826019,-0.01439193164541519,-0.2283027738563267
989,0.9796,631.28,69.3693,4.07221,214.512,-133.689,-16.2212,0.361906,-0.0987715,-0.259383,0.271013,0.0192984,-0.0145118,0.444977,0.4360639456047357,0.3112921170713061,0.01948581780114056,-0.09405030612043463,-0.014407011333501196,-0.22847252857237488
990,0.9806,631.43,69.3841,4.0738,214.56,-133.727,-16.2261,0.362211,-0.0988566,-0.259602,0.271238,0.0192842,-0.0145272,0.445363,0.4365020119098608,0.31158719099221854,0.01947134120531202,-0.09412739915902846,-0.014422189348655579,-0.2286414745883536
991,0.9816,631.58,69.3989,4.07538,214.608,-133.765,-16.2311,0.362516,-0.0989418,-0.259821,0.271463,0.01927,-0.0145425,0.445749,0.4369402118455865,0.31188233131223275,0.01945686481504949,-0.09420457621683076,-0.014437268573802231,-0.22881038360920591
992,0.9826,631.73,69.4136,4.07697,214.656,-133.802,-16.236,0.362821,-0.0990269,-0.260041,0.271688,0.0192558,-0.0145579,0.446135,0.4373785454526764,0.3121775380462901,0.019442388630350305,-0.09428165612759809,-0.014452446122998674,-0.22898002666339168
993,0.9836,631.88,69.4284,4.07855,214.704,-133.84,-16.2409,0.363126,-0.099112,-0.26026,0.271913,0.0192416,-0.0145732,0.446521,0.43781701277190677,0.31247281120933557,0.019427912651211354,-0.09435872947914392,-0.014467524885220184,-0.22914886154945757
994,0.9846,632.03,69.4431,4.08013,214.752,-133.877,-16.2458,0.363431,-0.0991971,-0.260479,0.272138,0.0192274,-0.0145885,0.446906,0.43825561384406564,0.3127681508163176,0.019413436877629975,-0.0944357962720267,-0.01448260341673846,-0.22931765946473193
995,0.9856,632.179,69.4579,4.08171,214.8,-133.915,-16.2507,0.363736,-0.0992821,-0.260698,0.272363,0.0192131,-0.0146039,0.447292,0.43869434870995394,0.31306355688218734,0.019398859369712085,-0.09451276595808555,-0.0144977802677837,-0.22948642041731027
996,0.9866,632.329,69.4726,4.08329,214.848,-133.952,-16.2556,0.364041,-0.0993671,-0.260916,0.272587,0.0191989,-0.0146192,0.447677,0.43913321741038525,0.31335771606352747,0.019384384008684252,-0.09458972910199925,-0.014512858336398149,-0.22965437407004596
997,0.9876,632.478,69.4873,4.08486,214.895,-133.99,-16.2605,0.364346,-0.0994521,-0.261135,0.272812,0.0191846,-0.0146345,0.448063,0.4395722199861849,0.3136532547965023,0.019369806916219368,-0.09466668570432357,-0.0145279361743198,-0.22982306129019991
998,0.9886,632.627,69.502,4.08643,214.943,-134.027,-16.2654,0.36465,-0.0995371,-0.261354,0.273037,0.0191704,-0.0146498,0.448448,0.44000991646755505,0.31394886003317346,0.019355331967733536,-0.09474363576561484,-0.014543013781552316,-0.22999171157189735
999,0.9896,632.776,69.5167,4.088,214.991,-134.065,-16.2703,0.364955,-0.099622,-0.261573,0.273261,0.0191561,-0.0146651,0.448833,0.440449186477349,0.31424321754463147,0.019340755290709888,-0.09482048876848215,-0.014558091158099251,-0.23016032492322724
