,Time,S11,S22,S33,S12,S13,S23,LE11,LE22,LE33,LE12,LE13,LE23,SDV_EPBAR,E11,E12,E13,E22,E23,E33
0,1e-05,0.564109,0.188036,-1.11022e-16,0.325688,-3.36326e-18,-1.25522e-17,6.74997e-06,2.49999e-07,-2.99999e-06,1.12583e-05,-1.83385e-22,-1.05877e-22,0.0,6.749992781163172e-06,1.1258363374899716e-05,0.0,2.499990312543332e-07,0.0,-2.999985500018454e-06
1,2e-05,1.12821,0.376071,0.0,0.651374,-7.5472e-18,-1.1431e-17,1.34999e-05,5.00011e-07,-5.99996e-06,2.25164e-05,-3.95139e-22,2.60904e-22,0.0,1.3499991124099608e-05,2.2516653495952e-05,0.0,5.000111249486849e-07,0.0,-5.9999420002343484e-06
2,3.5e-05,1.97436,0.658119,-1.11022e-16,1.1399,-3.18303e-17,-1.83772e-17,2.36246e-05,8.75006e-07,-1.04998e-05,3.94034e-05,-3.6673e-22,-2.11732e-22,0.0,2.3624879063044446e-05,3.9404176324087103e-05,0.0,8.750063829054966e-07,0.0,-1.0499744877323636e-05
3,5.75e-05,3.24355,1.08118,-1.55431e-15,1.87266,-3.79553e-17,-7.76631e-18,3.88114e-05,1.43749e-06,-1.72495e-05,6.47335e-05,8.22472e-26,4.74854e-26,0.0,3.8812153172029795e-05,6.473559525832506e-05,0.0,1.4374910330960944e-06,0.0,-1.7249351228265652e-05
4,9.125e-05,5.14728,1.71576,-1.02141e-14,2.97179,-4.40798e-17,2.84489e-18,6.1591e-05,2.28117e-06,-2.73738e-05,0.000102728,-3.16112e-21,2.08729e-21,0.0,6.159289676466173e-05,0.00010273327670162757,0.0,2.2811726019256184e-06,0.0,-2.737342534098186e-05
5,0.00014188,8.00277,2.66759,-5.72875e-14,4.6204,-1.16703e-16,-6.73788e-17,9.57588e-05,3.54668e-06,-4.25596e-05,0.000159716,-7.78903e-21,3.32788e-21,0.0,9.576338502026438e-05,0.00015972875527947572,0.0,3.5466862895461304e-06,0.0,-4.255869435310089e-05
6,0.00021781,12.2857,4.09524,-2.88658e-13,7.09316,-1.13407e-16,-1.22064e-16,0.000147007,5.4448e-06,-6.53367e-05,0.000245194,-1.51246e-20,-9.07136e-22,0.0,0.00014701780605852477,0.00024522406250571116,0.0,5.44481482300796e-06,0.0,-6.533456560431361e-05
7,0.00033172,18.7095,6.23651,-1.46194e-12,10.802,-3.50067e-16,-2.02111e-16,0.000223873,8.29167e-06,-9.94992e-05,0.000373398,-3.45441e-20,1.91826e-20,0.0,0.00022389806143019442,0.00037346772171087395,0.0,8.291704375995579e-06,0.0,-9.949425011879232e-05
8,0.00050258,28.3439,9.44797,-7.40208e-12,16.3644,-3.00982e-16,-2.86949e-16,0.000339155,1.25613e-05,-0.000150736,0.000565677,-2.34693e-20,-1.355e-20,0.0,0.0003392125195595952,0.0005658370254069123,0.0,1.256137889349418e-05,0.0,-0.00015072463989995732
9,0.00075887,42.7924,14.2641,-3.74474e-11,24.7062,-8.09994e-16,-5.80828e-16,0.000512041,1.89646e-05,-0.000227574,0.000854034,-3.02275e-20,-1.7992e-21,0.0,0.0005121721153706904,0.00085439879087712,0.0,1.896477982921141e-05,0.0,-0.0002275481070015406
10,0.0011433,64.4581,21.486,-1.89385e-10,37.2149,-8.32225e-16,-9.33195e-16,0.000771287,2.85663e-05,-0.000342794,0.00128643,-2.34289e-20,-1.35267e-20,0.0,0.0007715845183038361,0.0012872578060059148,0.0,2.8566708020649756e-05,0.0,-0.00034273525284966855
11,0.00172,96.9411,32.3137,-9.57339e-10,55.969,-1.19712e-15,-6.91159e-16,0.00115997,4.29618e-05,-0.000515542,0.00193471,9.25903e-23,5.34571e-23,0.0,0.0011606430254049727,0.001936582758945704,0.0,4.29627228712981e-05,0.0,-0.0005154091310572984
12,0.0025849,145.631,48.5435,-4.83557e-09,84.0799,-2.35635e-15,-1.81315e-15,0.00174257,6.454e-05,-0.000774478,0.00290644,-1.95609e-20,-7.39384e-20,0.0,0.0017440891573869965,0.002910667791685473,0.0,6.454208275052942e-05,0.0,-0.0007741781693227923
13,0.0035849,201.868,67.2894,-1.06427e-08,116.549,-3.22725e-15,-1.86326e-15,0.0024155,8.94631e-05,-0.00107356,0.00402881,-5.37479e-20,9.42959e-20,0.0,0.002418419670473071,0.0040369365648049715,0.0,8.946710194246421e-05,0.0,-0.001072983940626382
14,0.0045849,224.277,72.2593,-0.0738878,127.528,0.244569,0.15125,0.00303544,8.80213e-05,-0.00154679,0.00525589,9.3948e-06,5.96733e-06,0.00056375,0.003040051612907657,0.005269726420125798,9.394844131316304e-06,8.802517398831533e-05,5.967347804558543e-06,-0.0015455943369072633
15,0.0055849,227.216,72.5763,-0.114352,128.698,0.445203,0.255663,0.00358628,0.000121507,-0.00211387,0.00658024,1.88e-05,1.14978e-05,0.00141681,0.003592718396449257,0.006601937344364872,1.880017672117873e-05,0.0001215143822745901,1.1497866099885456e-05,-0.0021116373502657604
16,0.0065849,230.275,73.318,0.0598564,129.832,0.685505,0.385753,0.00413722,0.000157793,-0.00267982,0.00790056,3.08516e-05,1.8593e-05,0.00226916,0.004145790109397751,0.007931851777394305,3.085207591557726e-05,0.0001578054499702386,1.8593172850911444e-05,-0.002676232487728414
17,0.0075849,232.909,73.3333,-0.0745837,130.953,0.807485,0.486279,0.00468947,0.000185152,-0.00324592,0.00922153,3.94447e-05,2.51821e-05,0.00312328,0.004700482772399539,0.009264179304244946,3.94454779524267e-05,0.000185169141689423,2.5182417071833996e-05,-0.003240657696888194
18,0.0085849,235.816,74.1186,0.0845989,132.012,1.06046,0.58641,0.00524158,0.000219252,-0.0038115,0.0105366,5.38703e-05,3.22564e-05,0.00397598,0.005255341113267864,0.010592305446539552,5.387175103077624e-05,0.00021927603747640134,3.2256920243334264e-05,-0.003804245453702837
19,0.0095849,238.243,73.9306,-0.0862406,133.083,1.13649,0.690103,0.00579538,0.000241289,-0.0043762,0.0118535,6.25522e-05,3.99752e-05,0.0048306,0.005812205702748985,0.01192403113590279,6.255415642963946e-05,0.00024131811253225166,3.997599901905957e-05,-0.004366638389704747
20,0.010585,240.867,74.3803,-0.0462163,134.097,1.32733,0.777547,0.00634909,0.000268657,-0.00494057,0.0131653,7.61538e-05,4.75521e-05,0.00568407,0.006369288196009126,0.01325234412995746,7.615669977423245e-05,0.0002686930915238861,4.755323061900185e-05,-0.004928385458489726
21,0.011585,243.465,74.8546,0.012383,135.078,1.51694,0.872217,0.00690349,0.000295014,-0.00550454,0.0144742,9.06493e-05,5.58348e-05,0.0065374,0.006927374016479915,0.014579458463695127,9.065340877190131e-05,0.00029505752090974724,5.583635879147231e-05,-0.005489417779373507
22,0.012585,245.885,75.0655,-0.0176622,136.047,1.65664,0.962723,0.00745857,0.000317299,-0.00606793,0.0157821,0.000104093,6.44059e-05,0.00739121,0.007486454416067989,0.015907295086896145,0.00010409841786440666,0.000317349344652218,6.440797410456334e-05,-0.006049557292974406
23,0.013585,248.348,75.4916,0.0271252,136.981,1.83386,1.04816,0.00801397,0.000340655,-0.00663094,0.0170866,0.000119683,7.31985e-05,0.00824448,0.008046167810872529,0.0172334109243355,0.00011969016229596008,0.0003407130295036698,7.320117907561041e-05,-0.006609003829947668
24,0.014585,250.639,75.6216,-0.0183737,137.906,1.95384,1.13604,0.00857017,0.000359481,-0.0071932,0.0183901,0.000133853,8.24859e-05,0.00909817,0.008606999042116259,0.018560239247966015,0.00013386195871256668,0.00035954562103790444,8.248930205545513e-05,-0.007167390857398703
25,0.015585,253.013,76.068,0.0346818,138.793,2.13088,1.21465,0.00912649,0.000380608,-0.00775522,0.0196899,0.000150822,9.18053e-05,0.00995112,0.009168263394640164,0.01988502463844921,0.00015083337420973564,0.00038068044041494886,9.180951423548578e-05,-0.007725225868489116
26,0.016585,255.187,76.1279,-0.0246924,139.678,2.23281,1.3004,0.00968369,0.000396214,-0.00831633,0.0209891,0.000165651,0.000101764,0.0108046,0.009730728639268271,0.021210920377831233,0.00016566472088452855,0.00039629250313466535,0.00010176917813153885,-0.008281844990120302
27,0.017585,257.49,76.6143,0.0428424,140.521,2.41353,1.37275,0.0102408,0.000415439,-0.00887735,0.0222842,0.00018403,0.000111572,0.011657,0.010293416450450232,0.022534347441027114,0.0001840469345593121,0.00041552530673261145,0.00011157822438701004,-0.008838062670233682
28,0.018585,259.551,76.5962,-0.033362,141.37,2.49622,1.45672,0.0107989,0.000427857,-0.0094373,0.0235792,0.000199375,0.00012216,0.0125101,0.01085741857632505,0.02385938719902958,0.00019939487651621235,0.0004279485438616337,0.00012216746183657534,-0.009392908439599834
29,0.019585,261.796,77.1373,0.0525744,142.174,2.68365,1.52291,0.0113568,0.000445455,-0.00999732,0.0248696,0.000219181,0.000132407,0.0133619,0.011421533275312257,0.025181428149644747,0.000219205021910307,0.00044555422981207293,0.00013241576619371642,-0.009947512913721979
30,0.020585,263.747,77.0302,-0.0438995,142.992,2.7452,1.60571,0.0119157,0.000454671,-0.0105561,0.0261606,0.000234881,0.000143597,0.0142146,0.011986974768166014,0.026505792066353173,0.00023490858670194292,0.00045477437852636804,0.00014360731054274822,-0.010500579906678409
31,0.021585,265.947,77.6402,0.0639208,143.757,2.94235,1.6656,0.0124742,0.000470911,-0.0111151,0.0274463,0.000256138,0.000154229,0.0150657,0.012552327353588133,0.02782641934654073,0.0002561708061383783,0.0004710218959915746,0.000154240893903701,-0.011053555511429503
32,0.022585,267.79,77.4322,-0.0561814,144.547,2.98062,1.74793,0.0130339,0.000476891,-0.0116726,0.0287335,0.000272035,0.000166001,0.0159179,0.013119211518942908,0.02915028937348141,0.0002720720048761116,0.00047700473059131276,0.00016601477892841388,-0.011604739497419803
33,0.023585,269.956,78.1256,0.0768178,145.277,3.19053,1.80126,0.0135929,0.000492032,-0.0122307,0.0300146,0.000294776,0.000176966,0.0167682,0.013685703477932964,0.030469578699539035,0.00029481945071441196,0.0004921530676000874,0.00017698165940638333,-0.012156208990430128
34,0.024585,271.691,77.8049,-0.0700897,146.043,3.20328,1.88384,0.0141534,0.000494733,-0.012787,0.031298,0.000310714,0.000189305,0.0176199,0.014254033574363056,0.03179293237125003,0.00031076227659476707,0.0004948554005550498,0.00018932291932216572,-0.01270559366585311
35,0.025585,273.834,78.5954,0.0911392,146.739,3.42889,1.93032,0.0147128,0.000509021,-0.0133441,0.0325745,0.000334975,0.00020055,0.0184692,0.014821566004765474,0.033110857035881125,0.00033503111039023814,0.0005091505731733559,0.0002005701114957681,-0.013255462199520451
36,0.026585,275.633,78.6085,0.0309431,147.46,3.50573,1.99158,0.0152732,0.000513981,-0.0139,0.0338524,0.0003544,0.000212561,0.0193196,0.015390431391548498,0.034431913309216355,0.0003544628070994982,0.0005141131108674646,0.00021258359269005211,-0.013803841052059784
37,0.027585,277.458,78.6991,0.0172829,148.165,3.589,2.06692,0.015834,0.000518458,-0.014455,0.0351277,0.000374357,0.000225363,0.0201694,0.0159600220437639,0.03575196588087182,0.0003744270803265337,0.0005185924225787897,0.00022538839614871797,-0.01435102806183497
38,0.028585,279.279,78.9028,0.0111624,148.849,3.69772,2.12314,0.0163948,0.00052344,-0.0150099,0.0364006,0.000395622,0.000237716,0.0210186,0.016529932212000942,0.037071214015588216,0.00039570026870472397,0.0005235770186227118,0.00023774425668721122,-0.01489781295686421
39,0.029585,281.059,79.0388,0.00373785,149.528,3.78942,2.18624,0.0169559,0.000526623,-0.0155639,0.0376718,0.000416647,0.000250553,0.0218674,0.017100467205588776,0.038390377225339334,0.0004167338094172024,0.0005267616902369099,0.0002505843910245442,-0.015443408424587135
40,0.030585,282.842,79.2632,0.0115615,150.188,3.89863,2.24081,0.0175171,0.000530001,-0.0161177,0.0389406,0.0004387,0.000263297,0.0227157,0.017671424183327566,0.03970872311773488,0.00043879624291842667,0.0005301414753462463,0.0002633316656974749,-0.015988504913852286
41,0.031585,284.566,79.3899,0.000122162,150.844,3.98609,2.29982,0.0180786,0.000531371,-0.0166706,0.0402079,0.000460327,0.000276418,0.0235636,0.018243007144905565,0.041027181247076605,0.0004604329667325935,0.0005315122025790764,0.00027645620697569484,-0.01653241449182652
42,0.032585,286.303,79.6166,0.0127536,151.482,4.09235,2.35253,0.0186401,0.000533064,-0.0172232,0.0414727,0.000483007,0.000289512,0.024411,0.018814911140438095,0.042344705452586506,0.00048312366666380946,0.0005332061038629821,0.0002895539126437363,-0.017075728548078706
43,0.033585,287.974,79.7286,-0.00183381,152.117,4.17433,2.40871,0.019202,0.000532617,-0.0177751,0.0427361,0.000505143,0.000302934,0.025258,0.01938754410517296,0.0436624359885569,0.0005052706062107504,0.0005327588656198756,0.00030297988913785545,-0.017618054784802273
44,0.034585,289.668,79.9559,0.0136126,152.735,4.27775,2.45905,0.0197638,0.000532683,-0.0183266,0.0439971,0.000528405,0.00031633,0.0261044,0.019960396926741897,0.04497932444400865,0.0005285446305147712,0.0005328249007841013,0.0003163800376104753,-0.018159689058209305
45,0.035585,291.29,80.0533,-0.00334231,153.35,4.35417,2.51291,0.020326,0.000530477,-0.0188773,0.0452567,0.000551001,0.000330045,0.0269505,0.020533979880954734,0.04629640972725002,0.0005511528289356971,0.0005306177278070479,0.00033009947084350344,-0.0187002396631748
46,0.036585,292.941,80.2813,0.0142206,153.949,4.45497,2.56076,0.0208881,0.000528982,-0.0194277,0.0465138,0.000574808,0.000343714,0.0277959,0.02110778328338414,0.04761253602177762,0.0005749732337760882,0.0005291219356515775,0.00034377307642508015,-0.01924019844097724
47,0.037585,294.517,80.3647,-0.00469849,154.546,4.52599,2.61256,0.0214505,0.00052508,-0.0199773,0.0477697,0.000597825,0.000357705,0.0286411,0.021682215815989947,0.048929059143417275,0.0005980037329804677,0.0005252178786345763,0.0003577689840623677,-0.019779075930815404
48,0.038585,296.129,80.5936,0.0146628,155.127,4.62436,2.65795,0.0220128,0.000522084,-0.0205266,0.0490231,0.000622138,0.000371623,0.0294855,0.022256869274622115,0.05024461111033651,0.0006223315679854124,0.0005222203095722744,0.00037169206038156766,-0.020317363430210067
49,0.039585,297.661,80.6639,-0.00596993,155.707,4.69019,2.70784,0.0225754,0.00051655,-0.0210752,0.0502753,0.000645543,0.000385871,0.0303296,0.022832152801357974,0.05156055115047797,0.0006457514077253812,0.0005166834349255023,0.00038594545779102596,-0.020854669927984237
50,0.040585,299.237,80.8936,0.0149659,156.271,4.78621,2.75083,0.0231379,0.000512108,-0.0216234,0.0515249,0.000670327,0.000400017,0.031173,0.023407657732896325,0.052875402563263174,0.0006705517193523747,0.0005122391496885648,0.00040009701746934745,-0.02139129029684772
51,0.041585,300.728,80.9518,-0.00716318,156.835,4.84712,2.7989,0.0237007,0.000505004,-0.0221708,0.0527735,0.000694088,0.000414505,0.0320161,0.02398379367211434,0.05419084385000095,0.0006943289348160242,0.0005051315359878572,0.00041459091906848045,-0.021926834112823923
52,0.042585,302.268,81.1821,0.015128,157.383,4.94083,2.83959,0.0242633,0.000499162,-0.0227179,0.0540195,0.000719305,0.000428861,0.0328584,0.024560049039869636,0.055505184305497446,0.0007195637618806483,0.0004992866020825382,0.000428952974026231,-0.0224617915909191
53,0.043585,303.72,81.2293,-0.00826632,157.932,4.9971,2.88592,0.0248262,0.00049055,-0.0232642,0.0552644,0.000743398,0.000443569,0.0337004,0.025136936241144436,0.056820000947251925,0.0007436743887778707,0.0004906703393279255,0.0004436673912762146,-0.02299567487067733
54,0.044585,305.226,81.4597,0.015138,158.465,5.08849,2.92441,0.0253889,0.000483351,-0.0238102,0.0565068,0.000769012,0.000458119,0.0345416,0.025713943120827976,0.058133810085670756,0.0007693077655390734,0.00048346783291752793,0.00045822395253547477,-0.02352897362838835
55,0.045585,306.642,81.4973,-0.00926372,159.0,5.14044,2.96905,0.0259519,0.000473292,-0.0243555,0.0577482,0.000793412,0.00047303,0.0353826,0.026291582661077895,0.05944819306623028,0.0007937268345599158,0.0004734040203306922,0.0004731418963332956,-0.02406129812760338
56,0.046585,308.116,81.7271,0.0149846,159.519,5.22944,3.00545,0.0265147,0.000464774,-0.0249004,0.058987,0.000819387,0.000487759,0.0362227,0.026869342130063867,0.0607614507516645,0.0008197227892354775,0.0004648820241703877,0.00048787797376381725,-0.02459294226665354
57,0.047585,309.498,81.7564,-0.0101418,160.041,5.27741,3.04844,0.0270778,0.000453327,-0.0254445,0.0602249,0.000844075,0.000502855,0.0370626,0.02744773508787146,0.062075380440542505,0.000844431331552542,0.0004534297682130539,0.0005029814527703902,-0.02512351689085024
58,0.048585,310.942,81.9848,0.0146596,160.546,5.36393,3.08286,0.0276406,0.000443524,-0.0259884,0.0614602,0.000870376,0.000517747,0.0379016,0.028026145422579862,0.06338817283728493,0.0008707548871074167,0.00044362237131201354,0.0005178810541124346,-0.025653608038657683
59,0.049585,312.291,82.0072,-0.0108912,161.055,5.40827,3.12422,0.0282037,0.000430748,-0.0265314,0.0626947,0.000895333,0.000533012,0.0387404,0.02860518995975636,0.06470173616679609,0.0008957339302368972,0.00043084078524158187,0.0005331540761377429,-0.02618253451295882
60,0.050585,313.705,82.2334,0.0141595,161.548,5.49219,3.15677,0.0287665,0.000419689,-0.0270742,0.0639265,0.000921925,0.000548056,0.0395782,0.02918425189340934,0.0660140438497745,0.0009223501034805182,0.00041977708175022777,0.0005482062101294094,-0.02671097920036225
61,0.051585,315.024,82.2505,-0.0115082,162.045,5.53326,3.19652,0.0293296,0.000405641,-0.0276161,0.0651575,0.000947135,0.000563473,0.0404158,0.02976394874398114,0.06732711516733492,0.0009475836739945009,0.00040572328343579933,0.0005636317807322655,-0.027238261640653127
62,0.052585,316.409,82.4734,0.0134863,162.526,5.61443,3.22731,0.0298924,0.000393353,-0.0281578,0.0663859,0.000973984,0.000578656,0.0412525,0.030343663010627075,0.06863902540590594,0.000974458476447726,0.0003934303734360878,0.0005788234536809878,-0.027765063977027604
63,0.053585,317.7,82.4867,-0.0119942,163.011,5.65259,3.26547,0.0304554,0.000378088,-0.0286987,0.0676135,0.000999433,0.00059421,0.042089,0.03092390981705151,0.06995169222353748,0.000999932599585751,0.00037815948427666335,0.0005943865777351398,-0.028290803654808405
64,0.054585,319.056,82.7053,0.0126471,163.481,5.73086,3.29461,0.0310182,0.000364598,-0.0292393,0.0688385,0.00102651,0.00060952,0.0429246,0.03150427709352921,0.07126318617255012,0.0010270370417124752,0.0003646644739292437,0.0006097057950618101,-0.02881596768172634
65,0.055585,320.321,82.7162,-0.0123558,163.955,5.76645,3.33117,0.0315812,0.000348167,-0.0297791,0.0700627,0.00105218,0.000625196,0.0437599,0.032085177509656004,0.07257542962539554,0.0010527337355690225,0.000348227617164687,0.0006253914757539114,-0.029340071354064245
66,0.056585,321.65,82.9295,0.0116534,164.414,5.84169,3.35877,0.0321439,0.000333498,-0.0303187,0.0712844,0.00107945,0.000640624,0.0445943,0.03266609526492292,0.07388659579053902,0.001080032815839127,0.00033355361664044736,0.0006408292433803808,-0.029863698164342867
67,0.057585,322.889,82.9395,-0.0126043,164.878,5.87504,3.39375,0.0327068,0.000315953,-0.0308574,0.0725053,0.00110533,0.000656408,0.0454284,0.03324754664408536,0.0751985046271284,0.001105941102340191,0.00031600291840616634,0.0006566234828768724,-0.030386169849758282
68,0.058585,324.192,83.1466,0.0105213,165.327,5.9471,3.4199,0.0332694,0.000300128,-0.0313959,0.0737237,0.00113277,0.000671942,0.0462617,0.03382901526561333,0.07650932487470175,0.0011334118262606996,0.0003001730429141869,0.0006721678035985779,-0.030908166337125786
69,0.059585,325.408,83.1568,-0.0127544,165.781,5.97852,3.45329,0.0338321,0.000281516,-0.0319335,0.0749412,0.00115885,0.00068782,0.0470946,0.03441091455451417,0.07782077315988278,0.0011595217261128887,0.0002815556293478405,0.0006880566024196622,-0.03142901009155752
70,0.060585,326.685,83.357,0.00926946,166.22,6.04729,3.47809,0.0343946,0.000264558,-0.032471,0.0761564,0.00118642,0.000703451,0.0479266,0.03499293437167861,0.07913133710080023,0.0011871240746235134,0.0002645929985540807,0.000703698479681325,-0.031949477110591484
71,0.061585,327.879,83.3686,-0.0128237,166.664,6.07704,3.50991,0.0349573,0.000244922,-0.0330075,0.0773707,0.00121269,0.000719411,0.0487584,0.035575488782161546,0.08044252220836534,0.0012134256058420334,0.0002449519958418467,0.0007196698381601863,-0.032468696922952955
72,0.062585,329.13,83.5611,0.007919,167.095,6.14244,3.53345,0.0355196,0.000226855,-0.0335439,0.0785826,0.00124037,0.000735129,0.0495893,0.03615795662499077,0.08175270424547953,0.00124113957702221,0.0002268807335414902,0.000735399273547932,-0.03298754154735484
73,0.063585,330.304,83.575,-0.0128314,167.529,6.17076,3.5637,0.0360821,0.000206236,-0.0340794,0.0797937,0.00126682,0.000751159,0.0504198,0.03674095942975897,0.08306360860349304,0.0012676227554027086,0.00020625726810585832,0.0007514411905737983,-0.0335052380932348
74,0.064585,331.531,83.7594,0.00649196,167.951,6.23271,3.58605,0.0366443,0.000187083,-0.0346147,0.0810024,0.00129459,0.000766955,0.0512495,0.03732397906861462,0.0843734990600351,0.001295428343365268,0.0001871005011158111,0.0007672491851902219,-0.034022464291340815
75,0.065585,332.684,83.7763,-0.0127975,168.377,6.25982,3.61475,0.0372066,0.000165519,-0.0351492,0.0822103,0.00132119,0.000783043,0.0520788,0.03790743036400368,0.08568410519077196,0.0013220631560006968,0.00016553269902552792,0.0007833496582068111,-0.03453864132357631
76,0.066585,333.887,83.9522,0.00501049,168.79,6.31828,3.63598,0.0377686,0.000145303,-0.0356835,0.0834158,0.00134903,0.000798908,0.0529072,0.03849089827899532,0.08699368657116291,0.0013499403502876817,0.00014531355699221038,0.0007992272119976551,-0.0350543495437976
77,0.067585,335.022,83.9727,-0.0127415,169.207,6.34433,3.66314,0.0383307,0.000122829,-0.0362169,0.0846205,0.00137578,0.000815044,0.0537353,0.0390747981025894,0.08830397696032222,0.0013767268194595506,0.00012283654379041664,0.0008153762386178265,-0.035568914307128385
78,0.068585,336.202,84.1399,0.00349593,169.613,6.39931,3.68332,0.0388925,0.000101576,-0.0367501,0.085823,0.00140367,0.00083097,0.0545626,0.03965871433087398,0.08961344965528273,0.0014046556058355808,0.00010158115901659492,0.0008313153512227167,-0.03608301189142393
79,0.069585,337.319,84.1644,-0.0126819,170.022,6.42443,3.70896,0.0394543,7.82227e-05,-0.0372825,0.0870245,0.00143055,0.000847144,0.0553895,0.04024295869546046,0.09092340701433899,0.0014315737247561078,7.822575947513677e-05,0.0008475029278256496,-0.03659606470911414
80,0.070585,338.477,84.3229,0.00196809,170.421,6.47595,3.72813,0.0400159,5.59572e-05,-0.0378146,0.0882239,0.00145847,0.000863122,0.0562155,0.04082732321526228,0.09223264554210542,0.0014595340846192961,5.595876563324609e-05,0.0008634945969845376,-0.03710855558279369
81,0.071585,339.576,84.3516,-0.0126353,170.821,6.50022,3.75229,0.0405775,3.17529e-05,-0.038346,0.0894223,0.00148547,0.000879324,0.0570411,0.04141201600634825,0.09354236176973951,0.0014865738570750686,3.1753404128753715e-05,0.0008797107186904185,-0.03762010016692319
82,0.072585,340.712,84.5015,0.000444646,171.213,6.54835,3.77051,0.0411389,8.50147e-06,-0.0388771,0.0906186,0.00151341,0.000895345,0.0578659,0.0419968288537409,0.09485134931191164,0.001514555782854199,8.50150613751488e-06,0.0008957459409857371,-0.038131084427843076
83,0.073585,341.796,84.5345,-0.0126162,171.606,6.57184,3.79321,0.0417003,-1.65284e-05,-0.0394075,0.0918139,0.00154051,0.000911568,0.0586903,0.04258197010724096,0.09616080757156653,0.0015416971950803493,-1.6528263406700994e-05,0.0009119836043836038,-0.038641124426097795
84,0.074585,342.911,84.6759,-0.00105923,171.99,6.61663,3.81051,0.0422614,-4.07392e-05,-0.0399375,0.0930072,0.00156845,0.000927625,0.0595139,0.043167127001082495,0.09746963702102218,0.0015696806610272507,-4.073837017004589e-05,0.0009280553771362499,-0.039150509631148855
85,0.075585,343.978,84.7132,-0.0126363,172.376,6.63937,3.83179,0.0428225,-6.65715e-05,-0.0404668,0.0941995,0.00159564,0.00094386,0.0603371,0.04375261231858785,0.09877893044941444,0.0015969137108760023,-6.656928416681751e-05,0.0009443055760258723,-0.0396589526950738
86,0.076585,345.073,84.8465,-0.0025311,172.754,6.68095,3.84819,0.0433833,-9.17146e-05,-0.0409958,0.0953898,0.00162357,0.000959944,0.0611594,0.044338112942606145,0.10008758570199183,0.0016248887033449844,-9.171039434463513e-05,0.0009604048937070786,-0.0401668387613896
87,0.077585,346.125,84.8879,-0.0127048,173.133,6.70294,3.8681,0.0439441,-0.000118328,-0.0415241,0.096579,0.00165083,0.000976183,0.0619813,0.04492394200746075,0.10139658803743168,0.0016521933699720215,-0.00011832099951836206,0.000976659621702236,-0.04067378469891181
88,0.078585,347.201,85.0136,-0.00396128,173.505,6.74141,3.88363,0.0445047,-0.000144377,-0.0420521,0.0977663,0.00167874,0.000992286,0.0628025,0.045509890595393676,0.10270505282281839,0.0016801498728200581,-0.00014436657814254072,0.00099277847863255,-0.041180175241723016
89,0.079585,348.238,85.0588,-0.0128282,173.877,6.76265,3.90221,0.0450652,-0.000171753,-0.0425794,0.0989525,0.00170606,0.00100852,0.0636231,0.0460960631485845,0.10401385765515792,0.0017075161483361967,-0.00017173825129790377,0.0010090287273014642,-0.041685627661076086
90,0.080585,349.295,85.1772,-0.00534281,174.242,6.79814,3.91689,0.0456254,-0.000198679,-0.0431063,0.100137,0.00173393,0.00102464,0.064443,0.04668225033886242,0.10532233686337422,0.0017354341258464245,-0.00019865926463447092,0.0010251651229034042,-0.04219043050187432
91,0.081585,350.318,85.226,-0.0130102,174.608,6.81859,3.93417,0.0461856,-0.0002268,-0.0436326,0.10132,0.00176129,0.00104087,0.0652624,0.04726876600320118,0.10663070693619403,0.0017628419822619534,-0.00022677428282424916,0.0010414118931756366,-0.042694393048924195
92,0.082585,351.356,85.3377,-0.0066712,174.967,6.85125,3.94802,0.0467456,-0.000254578,-0.0441585,0.102502,0.00178913,0.00105699,0.066081,0.04785540075456263,0.10793951778662447,0.0017907314480023473,-0.0002545455977706057,0.0010575488107984476,-0.043197707709429545
93,0.083585,352.365,85.3896,-0.0132525,175.327,6.87088,3.96406,0.0473054,-0.000283428,-0.0446838,0.103682,0.00181652,0.0010732,0.0668992,0.04844215442493449,0.10924765806859105,0.0018181708719178236,-0.00028338783807879686,0.0010737760851864397,-0.04370018396662645
94,0.084585,353.386,85.4952,-0.00794418,175.681,6.90085,3.97708,0.047865,-0.000312031,-0.0452087,0.10486,0.0018443,0.00108931,0.0677166,0.04902902684613908,0.11055512175471138,0.001846001767273897,-0.0003119823233904695,0.0010899035136253676,-0.044202014023241976
95,0.085585,354.381,85.5498,-0.0135547,176.034,6.91961,3.99193,0.0484245,-0.000341593,-0.0457329,0.106038,0.0018717,0.00110551,0.0685334,0.049616122811440455,0.11186412654058353,0.0018734527237986853,-0.00034153466375375086,0.0011061213014258442,-0.04470291203065324
96,0.086585,355.386,85.6499,-0.00916136,176.383,6.94702,4.00414,0.0489838,-0.000370996,-0.0462568,0.107214,0.00189944,0.00112161,0.0693496,0.050203337308155405,0.11317244789557068,0.0019012450788555846,-0.0003709271894937194,0.0011222392397278735,-0.04520326109715811
97,0.087585,356.367,85.7069,-0.0139147,176.73,6.96487,4.01784,0.049543,-0.000401256,-0.0467801,0.108388,0.00192683,0.00113778,0.0701652,0.05079077524671782,0.11448007977912589,0.0019286875297808148,-0.0004011755075775669,0.0011384275172183767,-0.04570277552127788
98,0.088585,357.356,85.8019,-0.0103239,177.073,6.98988,4.02925,0.0501019,-0.000431433,-0.0473029,0.109561,0.0019545,0.00115387,0.0709801,0.05137822635892464,0.11578813193531423,0.0019564112801211397,-0.00043133994616595395,0.0011545359641091935,-0.046201551718776934
99,0.089585,358.324,85.8608,-0.014329,177.415,7.00677,4.04184,0.0506606,-0.000462379,-0.0478252,0.110732,0.00198189,0.00117,0.0717945,0.05196579549614588,0.1170954851437227,0.0019838552420694544,-0.0004622721193039414,0.001170684717013648,-0.04669959057414508
100,0.090585,359.298,85.9514,-0.011434,177.753,7.02951,4.05245,0.0512192,-0.000493306,-0.0483471,0.111902,0.00200948,0.00118607,0.0726081,0.05255358774460084,0.11840325175562527,0.0020115003579981305,-0.0004931843446004391,0.001186773659191287,-0.047196988250610694
101,0.091585,360.253,86.0119,-0.0147935,178.09,7.04539,4.06398,0.0517776,-0.000524922,-0.0488683,0.113071,0.00203684,0.00120217,0.0734212,0.05314149779720778,0.11971142963792447,0.002038915767688998,-0.0005247842525502033,0.0012028928960068352,-0.047693459788612835
102,0.092585,361.211,86.0984,-0.012495,178.423,7.06599,4.0738,0.0523358,-0.000556576,-0.0493892,0.114238,0.00206436,0.0012182,0.0742336,0.05372952548453713,0.12101889563433543,0.0020664922581017375,-0.0005564211403098485,0.0012189423070154692,-0.0481893870899297
103,0.093585,362.154,86.1602,-0.0153032,178.755,7.08083,4.08432,0.0528938,-0.00058885,-0.0499095,0.115404,0.00209167,0.00123426,0.0750455,0.05431767063699455,0.1223267660068954,0.0020938590676975455,-0.0005886766618637962,0.0012350220123487077,-0.048684485340847794
104,0.094585,363.098,86.2431,-0.0135104,179.083,7.09941,4.09336,0.0534516,-0.000621208,-0.0504293,0.116569,0.00211911,0.00125026,0.0758566,0.054905933084819836,0.12363503861011638,0.0021213569004587818,-0.0006210150902581368,0.001251041900859562,-0.049178850648692984
105,0.095585,364.028,86.3058,-0.0158528,179.41,7.11318,4.10291,0.0540092,-0.000654127,-0.0509486,0.117732,0.00214637,0.00126627,0.0766672,0.05549431265808802,0.12494258635165267,0.002148675100993369,-0.0006539131055744996,0.001267072058361629,-0.04967248388858703
106,0.096585,364.959,86.3855,-0.0144842,179.733,7.12986,4.11117,0.0545665,-0.000687169,-0.0514675,0.118894,0.00217372,0.00128223,0.0774771,0.0560827035784337,0.1262505294047369,0.0021760842420757154,-0.0006869329534537894,0.001283052408354468,-0.05016548091755624
107,0.097585,365.877,86.4489,-0.0164368,180.055,7.14251,4.11978,0.0551237,-0.000720719,-0.0519858,0.120054,0.00220092,0.00129819,0.0782864,0.05667131683329152,0.12755773805328086,0.0022033438022952545,-0.0007204593444448681,0.001299033013395734,-0.050657652591489466
108,0.098585,366.794,86.5259,-0.0154205,180.374,7.1574,4.12728,0.0556807,-0.000754424,-0.0525037,0.121213,0.00222818,0.0013141,0.079095,0.05726004670281526,0.12886533507778797,0.0022306642378231434,-0.0007541394937646828,0.0013149638077400994,-0.051149189698691755
109,0.099585,367.7,86.5896,-0.01705,180.691,7.16893,4.13499,0.0562375,-0.000788593,-0.053021,0.12237,0.00225529,0.00133001,0.079903,0.05784889301641982,0.1301721881391842,0.002257835079429782,-0.0007882821422590114,0.0013308948555454947,-0.0516399032888476
110,0.1006,368.604,86.6641,-0.0163232,181.005,7.18211,4.14173,0.056794,-0.000822942,-0.0535379,0.123527,0.00228245,0.00134587,0.0807104,0.058437749759575164,0.13148055410461867,0.0022850567718994963,-0.0008226034761005252,0.001346776089475643,-0.05212998395057866
111,0.1016,369.499,86.7281,-0.0176873,181.318,7.1925,4.14857,0.0573503,-0.000857716,-0.0540543,0.124681,0.00230948,0.00136172,0.0815172,0.05902672248734153,0.13278703635932776,0.0023121489031325826,-0.0008573482667760812,0.001362647561657937,-0.05261933766486293
112,0.1026,370.391,86.8005,-0.0171958,181.628,7.20407,4.15458,0.0579065,-0.000892691,-0.0545701,0.125835,0.00233653,0.00137752,0.0823233,0.059615916990190865,0.13409502716482513,0.00233926181346078,-0.0008922926699266309,0.0013784692164799939,-0.05310787060701849
113,0.1036,371.274,86.8644,-0.0183439,181.937,7.21331,4.16059,0.0584624,-0.000928059,-0.0550855,0.126987,0.00236347,0.0013933,0.0831288,0.06020512123259181,0.1354022574561975,0.0023662651969080795,-0.0009276284864372375,0.001394271093400734,-0.05359577306724317
114,0.1046,372.154,86.9349,-0.0180419,182.243,7.22335,4.16586,0.059018,-0.000963642,-0.0556005,0.128138,0.00239041,0.00140905,0.0839337,0.060794334866338895,0.1367098578341881,0.002393269307836121,-0.0009631778461526297,0.0014100431773753641,-0.05408304576062528
115,0.1056,373.026,86.9986,-0.0190154,182.547,7.23143,4.17106,0.0595735,-0.00099959,-0.0561149,0.129287,0.00241725,0.00142477,0.0847379,0.06138376981975813,0.13801668809104894,0.0024201739042424286,-0.0009990905763360702,0.0014257854669881276,-0.054569500315048036
116,0.1066,373.894,87.0675,-0.0188644,182.849,7.24001,4.17562,0.0601287,-0.00103576,-0.0566288,0.130436,0.00244407,0.00144044,0.0855415,0.061973213703242935,0.13932502075884456,0.0024470591738363634,-0.0010352237857569335,0.0014414779319966708,-0.05505523222933084
117,0.1076,374.755,87.131,-0.0196979,183.149,7.24694,4.18004,0.0606837,-0.00107228,-0.0571423,0.131582,0.00247079,0.00145609,0.0863445,0.06256277242426012,0.1406314356653977,0.0024738449171135546,-0.0010717053132275334,0.0014571506137646129,-0.05554033680632153
118,0.1086,375.612,87.1983,-0.0196658,183.447,7.25412,4.18389,0.0612384,-0.00110903,-0.0576553,0.132728,0.00249748,0.0014717,0.0871468,0.06315233949543386,0.14193934858162938,0.002500601301096639,-0.0011084152535080216,0.001472783481899942,-0.056024720358535784
119,0.1096,376.462,87.2614,-0.0203879,183.744,7.25991,4.18757,0.061793,-0.0011461,-0.0581678,0.133872,0.00252409,0.00148727,0.0879486,0.06374212731596351,0.14324647473000662,0.0025272781970318015,-0.0011454434782321998,0.0014883765345303779,-0.05650838374002409
120,0.1106,377.308,87.3274,-0.0204484,184.038,7.26576,4.19073,0.0623472,-0.00118341,-0.0586798,0.135015,0.00255066,0.0015028,0.0887496,0.06433181659072695,0.1445539525318409,0.0025539157006910784,-0.001182710046523816,0.0015039297697885257,-0.05699132780331895
121,0.1116,378.148,87.3901,-0.0210822,184.33,7.27041,4.19368,0.0629013,-0.00122103,-0.0591914,0.136156,0.00257714,0.0015183,0.0895501,0.06492172626968329,0.14586063391164483,0.0025804636798725245,-0.0012202848461854154,0.0015194532010061046,-0.05747364765207752
122,0.1126,378.984,87.4549,-0.0212141,184.621,7.27498,4.19616,0.0634551,-0.00125888,-0.0597024,0.137297,0.00260357,0.00153376,0.0903499,0.06551164325462766,0.1471688070657986,0.002606962231704424,-0.0012580879429758829,0.0015349368114405681,-0.05795515558237341
123,0.1136,379.813,87.5171,-0.0217783,184.91,7.2785,4.19841,0.0640087,-0.00129703,-0.060213,0.138436,0.00262991,0.00154917,0.0911491,0.06610167380572096,0.14847617674273783,0.002633371246894889,-0.0012961892201344138,0.0015503705837338622,-0.05843604089946386
124,0.1146,380.638,87.5809,-0.0219642,185.196,7.28184,4.20023,0.064562,-0.00133542,-0.0607231,0.139573,0.0026562,0.00156455,0.0919477,0.06669171108059668,0.14978273679432696,0.0026597308247200413,-0.001334528723498818,0.0015657745468895534,-0.05891621019740989
125,0.1156,381.458,87.6426,-0.0224738,185.482,7.28426,4.2018,0.0651151,-0.00137408,-0.0612328,0.14071,0.00268241,0.00157988,0.0927456,0.06728186145703718,0.15109078324955494,0.0026860108806636696,-0.0013731363843274558,0.0015811286679023873,-0.05939575838183553
126,0.1166,382.273,87.7053,-0.0227001,185.765,7.28641,4.20297,0.0656679,-0.00141299,-0.0617419,0.141845,0.00270855,0.00159517,0.0935429,0.06787201797428333,0.15239801300109335,0.002712221435558604,-0.0014119921996459395,0.00159644296043715,-0.05987449812770085
127,0.1176,383.083,87.7664,-0.0231667,186.047,7.28774,4.20388,0.0662205,-0.00145216,-0.0622506,0.142979,0.00273462,0.00161042,0.0943396,0.06846228712776226,0.15370557359457115,0.002738362483918344,-0.001451106125860191,0.001611717422659753,-0.06035261835031425
128,0.1186,383.888,87.8283,-0.0234226,186.327,7.28875,4.20442,0.0667729,-0.00149158,-0.0627588,0.144111,0.00276061,0.00162562,0.0951356,0.06905266874356131,0.1550123077758867,0.0027644239926272185,-0.0014904681474261494,0.0016269420364714016,-0.06083002583015307
129,0.1196,384.688,87.8888,-0.0238554,186.605,7.28901,4.20469,0.0673249,-0.00153125,-0.0632666,0.145242,0.00278652,0.00164077,0.0959311,0.06964294871899246,0.15631936569790805,0.0027904059554477723,-0.0015300782348834918,0.0016421167995919195,-0.06130681527595083
130,0.1206,385.484,87.9498,-0.0241323,186.882,7.28891,4.20461,0.0678768,-0.00157115,-0.0637739,0.146372,0.00281236,0.00165588,0.0967259,0.07023344759556704,0.1576267451113993,0.002816318394324835,-0.0015699163899854929,0.0016572517263206965,-0.06178289356109423
131,0.1216,386.275,88.0098,-0.0245385,187.157,7.28813,4.20426,0.0684284,-0.00161131,-0.0642807,0.147501,0.00283811,0.00167095,0.09752,0.07082395121118545,0.15893444376361532,0.0028421412469914475,-0.0016100125370072105,0.0016723468148454046,-0.06225826152222147
132,0.1226,387.061,88.0701,-0.0248299,187.43,7.28696,4.20358,0.0689797,-0.00165169,-0.064787,0.148629,0.00286379,0.00168596,0.0983136,0.07141445921406309,0.16024245939830717,0.0028678945638498377,-0.0016503267107522701,0.0016873820296101627,-0.06273291999448094
133,0.1236,387.843,88.1295,-0.0252147,187.702,7.28516,4.20263,0.0695307,-0.00169232,-0.0652929,0.149755,0.00288938,0.00170093,0.0991065,0.07200497125221661,0.16154962820551733,0.0028935582816376204,-0.0016908888339529637,0.0017023774019593318,-0.06320696349084298
134,0.1246,388.62,88.189,-0.0255154,187.972,7.28294,4.20136,0.0700815,-0.00173318,-0.0657983,0.15088,0.0029149,0.00171585,0.0998987,0.0725955942330192,0.16285710685609134,0.0029191524518250578,-0.0017316789108882125,0.0017173229129232581,-0.06368029906951866
135,0.1256,389.393,88.2478,-0.0258831,188.241,7.28015,4.19982,0.0706321,-0.00177427,-0.0663032,0.152004,0.00294032,0.00173072,0.10069,0.07318632798128077,0.16416489308237137,0.002944646980714616,-0.0017726969134811421,0.001732218560263954,-0.06415292756141533
136,0.1266,390.161,88.3067,-0.0261893,188.508,7.27693,4.19798,0.0711824,-0.00181559,-0.0668077,0.153126,0.00296567,0.00174554,0.101481,0.07377706494393643,0.16547181914082287,0.00297007194977561,-0.0018139428134985591,0.001747064341749871,-0.06462494333347069
137,0.1276,390.925,88.365,-0.0265427,188.774,7.27316,4.19588,0.0717324,-0.00185713,-0.0673117,0.154247,0.00299092,0.00176031,0.102272,0.0743678047682157,0.1667790456136249,0.0029953972638230297,-0.0018554066011052806,0.0017618602551578988,-0.06509625358187132
138,0.1286,391.685,88.4232,-0.0268514,189.038,7.26896,4.19348,0.0722821,-0.00189889,-0.0678152,0.155367,0.00301609,0.00177503,0.103062,0.0749585471011518,0.16808657022181284,0.003020642975688048,-0.0018970882490066954,0.001776606298271366,-0.06556685913330329
139,0.1296,392.441,88.4809,-0.027193,189.301,7.26424,4.19082,0.0728316,-0.00194088,-0.0683183,0.156486,0.00304118,0.0017897,0.103851,0.0755493991445153,0.16939439068297224,0.0030458090793279435,-0.001938997710375867,0.0017913024688818169,-0.0660368542092985
140,0.1306,393.192,88.5385,-0.0275019,189.562,7.25909,4.18788,0.0733808,-0.00198308,-0.0688209,0.157604,0.00306617,0.00180432,0.104639,0.07614025310817274,0.17070250471124404,0.0030708755073005634,-0.0019811149959915175,0.0018059487647881234,-0.06650614614343109
141,0.1316,393.939,88.5957,-0.0278332,189.822,7.25344,4.18469,0.0739298,-0.0020255,-0.0693231,0.15872,0.00309107,0.00181888,0.105427,0.07673121631168556,0.17200973800700559,0.0030958522830601964,-0.00202345005916027,0.0018205351655908864,-0.06697482906070695
142,0.1326,394.682,88.6527,-0.0281406,190.08,7.24737,4.18122,0.0744785,-0.00206813,-0.0698248,0.159835,0.00311588,0.00183339,0.106214,0.07732218084636888,0.17331725767163486,0.0031207393998786692,-0.002065992892677393,0.0018350716870183525,-0.06744281038603572
143,0.1336,395.421,88.7094,-0.0284629,190.337,7.24082,4.1775,0.0750269,-0.00211097,-0.070326,0.160949,0.0031406,0.00184784,0.107001,0.07791314635827762,0.17462506140811396,0.003145536851052011,-0.002108743469817931,0.001849548308397564,-0.06791009093918177
144,0.1346,396.156,88.7658,-0.0287674,190.593,7.23385,4.17353,0.075575,-0.00215402,-0.0708268,0.162062,0.00316523,0.00186224,0.107787,0.0785041124932715,0.1759331469160117,0.0031702446298995657,-0.002151701763727587,0.0018639750457654092,-0.06837676470077603
145,0.1356,396.887,88.822,-0.0290815,190.847,7.22643,4.1693,0.0761229,-0.00219727,-0.0713271,0.163173,0.00318976,0.00187659,0.108573,0.07909518680652816,0.17724033465056444,0.003194852697817163,-0.002194857769371006,0.0018783518969611723,-0.06884273923214779
146,0.1366,397.614,88.8779,-0.0293823,191.1,7.21859,4.16482,0.0766704,-0.00224073,-0.071827,0.164284,0.0032142,0.00189088,0.109357,0.0796861531835884,0.17854897547773385,0.0032193710796304398,-0.002238221438553012,0.0018926688409039993,-0.06930810841808632
147,0.1376,398.337,88.9336,-0.0296888,191.352,7.21031,4.1601,0.0772177,-0.00228438,-0.0723264,0.165393,0.00323854,0.00190511,0.110142,0.08027722714786201,0.1798567112970204,0.003243789736296243,-0.0022817727896720097,0.0019069258750201712,-0.06977277991061315
148,0.1386,399.056,88.989,-0.029985,191.602,7.20162,4.15514,0.0777648,-0.00232824,-0.0728254,0.166501,0.00326279,0.00191929,0.110925,0.08086840852175348,0.1811647170345001,0.003268118693184885,-0.0023255317514764284,0.0019211330159574214,-0.0702368474989451
149,0.1396,399.771,89.0442,-0.0302842,191.851,7.19252,4.14994,0.0783115,-0.00237229,-0.0733239,0.167607,0.00328694,0.00193341,0.111708,0.08145948083558752,0.18247180789954864,0.0032923479108180054,-0.0023694783438720224,0.0019352802422347715,-0.07070021892554301
150,0.1406,400.483,89.0991,-0.0305754,192.099,7.183,4.1445,0.078858,-0.00241653,-0.073822,0.168713,0.00331099,0.00194748,0.11249,0.08205065996684824,0.18378034520682895,0.003316477381940963,-0.0024136125418944276,0.0019493775708023797,-0.07116298788431918
151,0.1416,401.191,89.1538,-0.0308676,192.345,7.17309,4.13884,0.0794042,-0.00246097,-0.0743196,0.169817,0.00333494,0.00196148,0.113272,0.08264183747320186,0.18508796037870034,0.003340507099328871,-0.0024579442958941877,0.001963404960279913,-0.07162506220792186
152,0.1426,401.895,89.2083,-0.0311533,192.59,7.16278,4.13294,0.0799501,-0.00250559,-0.0748167,0.17092,0.0033588,0.00197543,0.114053,0.08323301299895691,0.18639583355845923,0.0033644470894311773,-0.0025024536294090405,0.001977382447271747,-0.0720864427038751
153,0.1436,402.596,89.2626,-0.0314386,192.834,7.15207,4.12682,0.0804957,-0.0025504,-0.0753134,0.172022,0.00338255,0.00198932,0.114834,0.08382418618823029,0.18770396241365672,0.003388277278032037,-0.002547150493021233,0.001991300009771102,-0.07254722292354321
154,0.1446,403.293,89.3166,-0.0317185,193.077,7.14099,4.12048,0.081041,-0.0025954,-0.0758097,0.173123,0.0034062,0.00200315,0.115613,0.08441535668494571,0.1890123446085039,0.003412007691400598,-0.0025920348613431843,0.002005157645275757,-0.07300740353354218
155,0.1456,403.986,89.3704,-0.0319971,193.318,7.12952,4.11392,0.0815861,-0.00264058,-0.0763055,0.174223,0.00342975,0.00201692,0.116393,0.08500663263349373,0.1903209778038768,0.0034356383224314335,-0.0026370967352526975,0.0020189553512934832,-0.07346689254613148
156,0.1466,404.676,89.424,-0.0322709,193.559,7.11767,4.10715,0.0821308,-0.00268594,-0.0768008,0.175321,0.0034532,0.00203064,0.117171,0.08559779673521595,0.191628668028059,0.0034591691640479816,-0.002682336090508497,0.0020327031456703892,-0.07392569076349542
157,0.1476,405.362,89.4774,-0.0325427,193.798,7.10546,4.10016,0.0826753,-0.00273148,-0.0772958,0.176419,0.00347655,0.00204429,0.117949,0.08618906569390394,0.192937794884674,0.003482600209204545,-0.002727752902774272,0.002046380985419427,-0.07438398410960656
158,0.1486,406.045,89.5306,-0.0328103,194.036,7.09288,4.09297,0.0832195,-0.0027772,-0.0777902,0.177515,0.00349979,0.00205788,0.118726,0.08678033065205759,0.1942459714576794,0.00350592141582462,-0.0027733471476192317,0.0020599988882705755,-0.0748414955617126
159,0.1496,406.724,89.5835,-0.0330754,194.273,7.07995,4.08556,0.0837634,-0.00282309,-0.0782843,0.17861,0.00352293,0.00207141,0.119503,0.0873715912526436,0.19555438702321237,0.003529142811516728,-0.0028191088287087274,0.002073556851774905,-0.07529850346565525
160,0.1506,407.4,89.6363,-0.0333365,194.508,7.06666,4.07796,0.084307,-0.00286916,-0.0787778,0.179704,0.00354597,0.00208488,0.120279,0.0879628471384386,0.19686303922484982,0.0035522643893266537,-0.002865047894150541,0.002087054873494587,-0.07575473107077413
161,0.1516,408.073,89.6889,-0.0335949,194.743,7.05302,4.07015,0.0848503,-0.00291539,-0.079271,0.180797,0.0035689,0.00209829,0.121055,0.08855409795202895,0.198171925702878,0.003575276106577485,-0.002911144377457986,0.002100492951002675,-0.07621045644629465
162,0.1526,408.742,89.7413,-0.0338494,194.976,7.03904,4.06215,0.0853933,-0.0029618,-0.0797637,0.181888,0.00359172,0.00211163,0.12183,0.08914534333581137,0.19947984461385304,0.0035981779556872873,-0.0029574181974550973,0.002113861060743627,-0.07666549544634071
163,0.1536,409.408,89.7935,-0.034101,195.209,7.02472,4.05395,0.085936,-0.00300837,-0.0802559,0.182979,0.00361444,0.00212492,0.122604,0.08973658293199294,0.20078919124303884,0.0036209799653204033,-0.0030038493893309592,0.002127179242456201,-0.0771198488639333
164,0.1546,410.07,89.8455,-0.0343489,195.44,7.01007,4.04556,0.0864785,-0.00305511,-0.0807477,0.184068,0.00363705,0.00213814,0.123378,0.09032792541537904,0.2020975629513957,0.0036436720922108368,-0.0030504479003947704,0.0021404274513363575,-0.0775736097333184
165,0.1556,410.73,89.8973,-0.0345936,195.67,6.99508,4.03698,0.0870206,-0.00310201,-0.0812391,0.185156,0.00365955,0.0021513,0.124151,0.09091915242134796,0.2034061568458787,0.0036662543288821237,-0.003097203737955301,0.002153615706140144,-0.07802677870875918
166,0.1566,411.386,89.949,-0.0348348,195.899,6.97978,4.02822,0.0875625,-0.00314907,-0.0817301,0.186243,0.00368195,0.0021644,0.124923,0.09151048171624687,0.20471497054974708,0.0036887367047808706,-0.0031441168796725316,0.002166744004496124,-0.07847935644348691
167,0.1576,412.039,90.0004,-0.0350727,196.127,6.96415,4.01927,0.088104,-0.0031963,-0.0822206,0.187329,0.00370423,0.00217743,0.125695,0.09210169469856488,0.20602400168301394,0.0037110991389510684,-0.003191197271220081,0.002179802322245239,-0.07893125148283286
168,0.1586,412.689,90.0517,-0.035307,196.354,6.94821,4.01014,0.0886453,-0.00324368,-0.0827106,0.188414,0.00372641,0.0021904,0.126466,0.09269300937078295,0.20733324786245255,0.003733361698020854,-0.003238424953460828,0.002192800678575413,-0.07938246461336129
169,0.1596,413.335,90.1028,-0.035538,196.58,6.93196,4.00084,0.0891862,-0.00329122,-0.0832002,0.189498,0.00374848,0.00220331,0.127237,0.09328420689450789,0.20864270670160234,0.0037555143377669964,-0.003285809872390022,0.002205739071149404,-0.07983308863692418
170,0.1606,413.979,90.1538,-0.0357655,196.805,6.9154,3.99136,0.0897269,-0.00333891,-0.0836894,0.19058,0.00377044,0.00221615,0.128007,0.09387550550835022,0.20995116585900386,0.0037775570508900014,-0.003333342038703724,0.002218607475453993,-0.08028312420228856
171,0.1616,414.619,90.2045,-0.0359895,197.029,6.89854,3.9817,0.0902672,-0.00338676,-0.0841782,0.191662,0.0037923,0.00222893,0.128776,0.09446668613704157,0.21126104153541236,0.0037994998681212255,-0.0033810313973101636,0.0022314159111032073,-0.08073257195719852
172,0.1626,415.257,90.2551,-0.0362101,197.251,6.88139,3.97188,0.0908073,-0.00343475,-0.0846665,0.192742,0.00381404,0.00224164,0.129545,0.09505796725531668,0.21256991012208526,0.0038213227064618494,-0.0034288579940050523,0.0022441543533522346,-0.0811813406665145
173,0.1636,415.891,90.3056,-0.0364271,197.473,6.86394,3.96189,0.0913471,-0.0034829,-0.0851544,0.193821,0.00383567,0.00225429,0.130313,0.09564923911595913,0.21387897917085286,0.003843035596496014,-0.00347684173927465,0.0022568328220957667,-0.08162952294744519
174,0.1646,416.523,90.3559,-0.0366407,197.694,6.84621,3.95174,0.0918865,-0.00353119,-0.0856419,0.1949,0.00385718,0.00226688,0.131081,0.09624039173506649,0.21518946146743412,0.0038646284924224172,-0.0035249626806975742,0.002269451315054294,-0.08207711944449758
175,0.1656,417.152,90.406,-0.0368508,197.914,6.82819,3.94142,0.0924257,-0.00357963,-0.0861289,0.195977,0.00387859,0.0022794,0.131848,0.09683164394155996,0.21649892553726247,0.0038861214641998654,-0.0035732307624429804,0.0022819998071381686,-0.08252403905357042
176,0.1666,417.777,90.4559,-0.0370573,198.133,6.8099,3.93094,0.0929645,-0.00362822,-0.0866155,0.197053,0.00389989,0.00229185,0.132614,0.09742277606800998,0.2178085828504175,0.00390750446631527,-0.003621645962903375,0.002294478295714164,-0.08297037425400577
177,0.1676,418.4,90.5058,-0.0372604,198.351,6.79133,3.92031,0.0935031,-0.00367695,-0.0871016,0.198127,0.00392107,0.00230424,0.13338,0.09801400717944597,0.21911721187639643,0.003928767452434201,-0.0036701982971084623,0.0023068968012327495,-0.08341603402869713
178,0.1686,419.02,90.5554,-0.0374599,198.568,6.77249,3.90952,0.0940413,-0.00372582,-0.0875874,0.199201,0.00394214,0.00231656,0.134145,0.09860511737159428,0.22042724712495576,0.003949920454410449,-0.0037188877447812407,0.00231924529826788,-0.08386120237921857
179,0.1696,419.637,90.6049,-0.0376559,198.784,6.75338,3.89857,0.0945793,-0.00377483,-0.0880727,0.200274,0.0039631,0.00232882,0.13491,0.09919632594558636,0.22173746836911024,0.003970963465273147,-0.0037677142855887524,0.0023315338075438063,-0.08430569667243992
180,0.1706,420.251,90.6543,-0.0378483,198.999,6.73401,3.88748,0.0951169,-0.00382398,-0.0885576,0.201345,0.00398394,0.00234102,0.135674,0.09978741276031444,0.22304665013943126,0.0039918864381682795,-0.0038166778991409744,0.002343762326850074,-0.08474960920483188
181,0.1716,420.862,90.7035,-0.0380373,199.213,6.71439,3.87624,0.0956542,-0.00387326,-0.089042,0.202416,0.00400467,0.00235314,0.136437,0.10037848731514987,0.22435723479453884,0.0040126994056999266,-0.003865768603649178,0.0023559108068691437,-0.0851928491327556
182,0.1726,421.471,90.7526,-0.0382227,199.427,6.6945,3.86486,0.0961912,-0.00392268,-0.089526,0.203485,0.00402529,0.0023652,0.1372,0.10096954924876367,0.22566677250173117,0.004033402361008465,-0.003914996340937393,0.002367999292046896,-0.08563550866152814
183,0.1736,422.077,90.8015,-0.0384045,199.639,6.67437,3.85333,0.096728,-0.00397224,-0.0900097,0.204554,0.0040458,0.0023772,0.137962,0.1015607083557093,0.2269777108532438,0.004053995297270685,-0.003964361090450175,0.002380027780209071,-0.08607767981827319
184,0.1746,422.68,90.8503,-0.0385828,199.851,6.654,3.84166,0.0972644,-0.00402192,-0.0904928,0.205621,0.00406619,0.00238912,0.138723,0.10215174402126559,0.22828759476951954,0.004074468166954892,-0.004013842911852583,0.0023919762213526763,-0.0865190890601657
185,0.1756,423.28,90.8989,-0.0387576,200.061,6.63338,3.82985,0.0978005,-0.00407174,-0.0909756,0.206687,0.00408646,0.00240098,0.139484,0.10274276598051624,0.2295976474795811,0.004094820962699641,-0.004063461706184213,0.0024038646606889813,-0.08696001119679897
186,0.1766,423.878,90.9475,-0.0389288,200.271,6.61252,3.81791,0.0983363,-0.00412169,-0.0914579,0.207752,0.00410662,0.00241278,0.140245,0.10333377387140374,0.23090786654195727,0.004115063718336476,-0.004113207493860682,0.0024156930960796963,-0.08740026420785107
187,0.1776,424.473,90.9958,-0.0390964,200.48,6.59143,3.80583,0.0988718,-0.00417177,-0.0919398,0.208816,0.00412667,0.00242451,0.141004,0.1039247673316881,0.23221824951207481,0.0041351964271938435,-0.004163080255604967,0.0024274515011226683,-0.08783994007212104
188,0.1786,425.066,91.0441,-0.0392606,200.688,6.5701,3.79362,0.0994069,-0.00422197,-0.0924213,0.209879,0.0041466,0.00243617,0.141764,0.10451563554737975,0.23352879394226456,0.004155209041083685,-0.004213070014222664,0.0024391398733503156,-0.08827903941932502
189,0.1796,425.656,91.0922,-0.0394211,200.895,6.54855,3.78128,0.0999418,-0.0042723,-0.0929024,0.210941,0.00416642,0.00244776,0.142522,0.10510659899991892,0.23483949738176846,0.004175111594560521,-0.004263186709211664,0.0024507582103094894,-0.088717562878184
190,0.1806,426.243,91.1402,-0.0395782,201.102,6.52678,3.76882,0.100476,-0.00432275,-0.0933831,0.212002,0.00418612,0.00245928,0.14328,0.1056971046551225,0.23615035737674606,0.004194894039115216,-0.004313420364287612,0.00246230650956214,-0.08915551107642594
191,0.1816,426.828,91.188,-0.0397316,201.307,6.50479,3.75622,0.101011,-0.00437333,-0.0938633,0.213062,0.0042057,0.00247074,0.144037,0.1062888108734128,0.23746137147028024,0.004214556367634126,-0.004363780917856386,0.002473794793422579,-0.08959279360007022
192,0.1826,427.41,91.2358,-0.0398816,201.512,6.48258,3.74351,0.101545,-0.00442402,-0.0943431,0.214121,0.00422517,0.00248214,0.144794,0.10687972685894542,0.23877253720238523,0.0042341086153872,-0.004414248438691537,0.0024852230598240155,-0.09002950220292927
193,0.1836,427.989,91.2834,-0.040028,201.716,6.46016,3.73067,0.102078,-0.00447484,-0.0948225,0.215179,0.00424453,0.00249346,0.14555,0.1074698510074763,0.2400838521100115,0.004253550775929371,-0.004464842820971815,0.0024965712567799336,-0.09046563750958736
194,0.1846,428.567,91.3309,-0.0401709,201.919,6.43752,3.71772,0.102611,-0.00452577,-0.0953015,0.216236,0.00426376,0.00250472,0.146306,0.108060289776017,0.24139531372705392,0.004272862757394913,-0.004515544135407001,0.0025078594317244907,-0.09090120014364134
195,0.1856,429.141,91.3782,-0.0403102,202.121,6.41469,3.70464,0.103144,-0.00457683,-0.09578,0.217291,0.00428289,0.00251591,0.147061,0.10865104333230469,0.24270567687805933,0.004292074681020885,-0.004566372274069974,0.002519077557436855,-0.09133609986131719
196,0.1866,429.713,91.4255,-0.040446,202.322,6.39165,3.69145,0.103677,-0.00462799,-0.0962582,0.218346,0.00430189,0.00252703,0.147815,0.10924211184416621,0.24401742319167896,0.004311156411715755,-0.004617297355789751,0.002530225631562466,-0.09177051906045464
197,0.1876,430.283,91.4726,-0.0405784,202.523,6.36841,3.67815,0.10421,-0.00467928,-0.0967359,0.219399,0.00432078,0.00253808,0.148569,0.1098334954795177,0.2453280634693018,0.00433012802864674,-0.004668349225371959,0.0025413036517616394,-0.0922042766722454
198,0.1886,430.851,91.5196,-0.0407071,202.723,6.34498,3.66474,0.104742,-0.00473067,-0.0972133,0.220452,0.00433955,0.00254907,0.149322,0.11042408398172499,0.246640084578017,0.004348979482070137,-0.0047194980046261215,0.0025523216412324246,-0.09263755491881553
199,0.1896,431.416,91.5665,-0.0408324,202.922,6.32136,3.65122,0.105273,-0.00478218,-0.0976902,0.221504,0.00435821,0.00255999,0.150075,0.11101387574617472,0.24795224001974137,0.00436772080888348,-0.004770763582927606,0.002563269572360305,-0.09307017290291708
200,0.1906,431.978,91.6133,-0.0409542,203.12,6.29754,3.63759,0.105805,-0.0048338,-0.0981667,0.222554,0.00437675,0.00257084,0.150827,0.11160509237775162,0.24926327804627446,0.004386341959044637,-0.004822135990178222,0.002574147442847563,-0.09350222202165148
201,0.1916,432.538,91.66,-0.0410725,203.318,6.27355,3.62385,0.106336,-0.00488553,-0.0986427,0.223604,0.00439517,0.00258162,0.151578,0.11219551142418793,0.25057569338569796,0.004404842925856967,-0.004873615209561977,0.002584955250410914,-0.09393361228494135
202,0.1926,433.096,91.7065,-0.0411873,203.515,6.24937,3.61001,0.106867,-0.00493737,-0.0991184,0.224652,0.00441348,0.00259234,0.152329,0.11278624406639048,0.2518869837084792,0.004423233746898347,-0.004925201224228459,0.002595703018739348,-0.09436452556472774
203,0.1936,433.652,91.753,-0.0412986,203.711,6.22501,3.59607,0.107397,-0.00498932,-0.0995937,0.225699,0.00443167,0.00260298,0.15308,0.11337617709418879,0.2531983957848454,0.004441504371690996,-0.004976894017292954,0.0026063706937713427,-0.09479487182583624
204,0.1946,434.205,91.7993,-0.0414065,203.906,6.20048,3.58203,0.107927,-0.00504137,-0.100069,0.226746,0.00444974,0.00261356,0.153829,0.11396642286936243,0.25451118162869735,0.004459654793663725,-0.0050286836221231646,0.0026169783252874,-0.095225013591969
205,0.1956,434.756,91.8455,-0.0415109,204.1,6.17577,3.5679,0.108457,-0.00509353,-0.100543,0.227791,0.0044677,0.00262407,0.154578,0.11455698155771166,0.25582283103094916,0.004477695051064767,-0.005080579972516874,0.00262751588510457,-0.0956537753109713
206,0.1966,435.305,91.8916,-0.0416118,204.294,6.15089,3.55366,0.108987,-0.00514579,-0.101017,0.228836,0.00448553,0.00263452,0.155327,0.11514785332512423,0.25713585182325294,0.004495605048034701,-0.00513257310281523,0.002637993397390348,-0.09608233384507736
207,0.1976,435.851,91.9377,-0.0417093,204.487,6.12585,3.53933,0.109516,-0.00519816,-0.101491,0.229879,0.00450326,0.00264489,0.156075,0.11573792259909577,0.2584477285414861,0.004513414912996172,-0.005184672945715452,0.002648390807292289,-0.09651068929057416
208,0.1986,436.395,91.9836,-0.0418034,204.68,6.10065,3.52491,0.110045,-0.00525063,-0.101964,0.230921,0.00452086,0.0026552,0.156822,0.11632830410229045,0.2597597145006021,0.00453109450467859,-0.005236869536536459,0.0026587281654906203,-0.09693793868209288
209,0.1996,436.937,92.0294,-0.041894,204.871,6.07528,3.5104,0.110573,-0.00530319,-0.102437,0.231963,0.00453835,0.00266544,0.157569,0.11691788108148193,0.2610730682615885,0.004548663907165462,-0.005289152912654527,0.0026689954434353513,-0.09736498603243604
210,0.2006,437.477,92.0751,-0.0419812,205.062,6.04976,3.49579,0.111102,-0.00535586,-0.102909,0.233003,0.00455572,0.00267561,0.158315,0.11750888694784334,0.26238526647738003,0.004566113069003119,-0.00534154295326672,0.0026791926389717613,-0.09779092922852672
211,0.2016,438.015,92.1207,-0.0420651,205.253,6.02408,3.48111,0.11163,-0.00540863,-0.103381,0.234043,0.00457297,0.00268571,0.15906,0.11809908743937014,0.2636988300891989,0.0045834419839150264,-0.005394029695170222,0.002689319749959118,-0.09821667142686796
212,0.2026,438.55,92.1662,-0.0421455,205.442,5.99825,3.46633,0.112157,-0.00546149,-0.103853,0.235081,0.00459011,0.00269575,0.159806,0.11868848094999973,0.2650112304928043,0.004600660691674419,-0.005446603177231224,0.002699386801265913,-0.09864221272230844
213,0.2036,439.084,92.2116,-0.0422226,205.631,5.97228,3.45147,0.112685,-0.00551445,-0.104324,0.236118,0.00460713,0.00270572,0.16055,0.1192793044316145,0.2663237275509318,0.004617759140426836,-0.005499273330409005,0.0027093837639871055,-0.0990666522767546
214,0.2046,439.615,92.2569,-0.0422962,205.819,5.94615,3.43653,0.113212,-0.0055675,-0.104795,0.237155,0.00462403,0.00271562,0.161294,0.11986932008051787,0.267637586374462,0.004634737324021643,-0.005552030194570623,0.0027193106360243746,-0.09949089196724237
215,0.2056,440.144,92.3021,-0.0423666,206.007,5.91989,3.4215,0.113738,-0.00562065,-0.105265,0.23819,0.00464082,0.00272545,0.162037,0.12045852629052867,0.26895027047319897,0.004651605282867344,-0.005604883699571461,0.0027291674152938317,-0.09991403180236724
216,0.2066,440.671,92.3472,-0.0424336,206.194,5.89348,3.4064,0.114265,-0.0056739,-0.105735,0.239225,0.00465749,0.00273521,0.16278,0.12104916355313278,0.27026431390331074,0.004668352964718903,-0.005657833829704639,0.002738954099726909,-0.10033697280849807
217,0.2076,441.196,92.3922,-0.0424972,206.38,5.86694,3.39122,0.114791,-0.00572723,-0.106205,0.240258,0.00467404,0.00274491,0.163522,0.1216389905240558,0.2715771749155407,0.004684980363551805,-0.005710860683452945,0.002748680714755647,-0.10075971507906245
218,0.2086,441.719,92.4371,-0.0425576,206.565,5.84026,3.37596,0.115316,-0.00578066,-0.106674,0.24129,0.00469047,0.00275454,0.164263,0.12222800559700864,0.27289011992315104,0.0047014874733848355,-0.005763984132960975,0.0027583372310469034,-0.10118135988925359
219,0.2096,442.239,92.482,-0.0426146,206.75,5.81346,3.36063,0.115842,-0.00583417,-0.107143,0.242322,0.00470679,0.0027641,0.165004,0.12281845280195403,0.27420442058940875,0.004717884335458278,-0.005817184278787413,0.0027679236465738555,-0.10160280699439428
220,0.2106,442.758,92.5267,-0.0426684,206.934,5.78652,3.34523,0.116367,-0.00588778,-0.107611,0.243352,0.004723,0.00277359,0.165745,0.12340808725517571,0.27551752727647005,0.004734170944366012,-0.005870480990907145,0.002777439959324113,-0.1020231585107938
221,0.2116,443.275,92.5714,-0.0427188,207.118,5.75945,3.32975,0.116892,-0.00594147,-0.108079,0.244382,0.00473908,0.00278301,0.166484,0.12399803134775866,0.27683198716019564,0.004750327199730675,-0.005923854371961523,0.002786886167300162,-0.10244331334870993
222,0.2126,443.79,92.6159,-0.0427661,207.301,5.73226,3.31421,0.117416,-0.00599525,-0.108547,0.245411,0.00475505,0.00279237,0.167224,0.12458716065458342,0.2781465234879337,0.004766373190583151,-0.005977314349521645,0.0027962722964816056,-0.10286327160016684
223,0.2136,444.302,92.6604,-0.04281,207.483,5.70495,3.29859,0.11794,-0.00604912,-0.109014,0.246438,0.0047709,0.00280166,0.167962,0.12517659874605913,0.2794598542474669,0.004782298863808654,-0.0060308609093081555,0.0028055883171240747,-0.1032821366397304
224,0.2146,444.813,92.7048,-0.0428508,207.665,5.67753,3.28291,0.118464,-0.00610308,-0.109481,0.247465,0.00478664,0.00281088,0.1687,0.1257663457840319,0.28077453449053125,0.004798114261659769,-0.006084494037018717,0.002814834227272023,-0.10370080611498822
225,0.2156,445.322,92.7491,-0.0428883,207.846,5.64998,3.26717,0.118987,-0.00615711,-0.109947,0.24849,0.00480226,0.00282004,0.169438,0.12635527557459292,0.2820880014251912,0.00481380933078257,-0.0061381938410925985,0.002824020053224574,-0.10411838423607978
226,0.2166,445.829,92.7933,-0.0429226,208.026,5.62232,3.25136,0.119511,-0.00621123,-0.110413,0.249515,0.00481776,0.00282913,0.170175,0.12694564040107026,0.2834028153536756,0.004829384065531128,-0.006191980186570301,0.002833135764997552,-0.10453576781109963
227,0.2176,446.334,92.8374,-0.0429538,208.206,5.59455,3.23548,0.120033,-0.00626544,-0.110879,0.250539,0.00483315,0.00283815,0.170911,0.12753405958940656,0.2847176929390258,0.004844848508750443,-0.006245853059086981,0.00284218136067782,-0.10495295693068518
228,0.2186,446.837,92.8814,-0.0429817,208.385,5.56667,3.21955,0.120556,-0.00631972,-0.111344,0.251562,0.00484842,0.0028471,0.171647,0.1281239141360906,0.2860326316153585,0.004860192606739089,-0.006299792570251372,0.002851156838366231,-0.10536905705493593
229,0.2196,447.338,92.9254,-0.0430066,208.563,5.53869,3.20355,0.121078,-0.00637409,-0.111809,0.252583,0.00486358,0.00285599,0.172382,0.12871294854387494,0.287346341466995,0.004875426402730865,-0.006353818581818826,0.002860072224779353,-0.1057849637376076
230,0.2206,447.837,92.9692,-0.0430283,208.741,5.5106,3.1875,0.1216,-0.00642853,-0.112274,0.253604,0.00487862,0.0028648,0.173117,0.1293022905078851,0.28866139330135554,0.004890539842796748,-0.0064079112075206,0.002868907460934711,-0.10620067706862946
231,0.2216,448.334,93.013,-0.0430468,208.919,5.48241,3.17139,0.122122,-0.00648306,-0.112738,0.254624,0.00489354,0.00287356,0.173851,0.12989194018870776,0.2899764985121609,0.0049055329214993115,-0.006462090306915913,0.002877692631043205,-0.10661530375363981
232,0.2226,448.83,93.0567,-0.0430623,209.095,5.45412,3.15522,0.122643,-0.00653766,-0.113201,0.255643,0.00490835,0.00288224,0.174584,0.13048076726568048,0.2912916545223314,0.00492041568264856,-0.006516335995864431,0.0028863976471948938,-0.1070288451257867
233,0.2236,449.323,93.1003,-0.0430747,209.272,5.42573,3.139,0.123164,-0.00659234,-0.113665,0.256661,0.00492305,0.00289086,0.175317,0.13106990120148976,0.29260685875200654,0.004935188121336198,-0.006570658197429635,0.0028950425652021217,-0.10744308762995525
234,0.2246,449.815,93.1439,-0.043084,209.447,5.39725,3.12273,0.123684,-0.0066471,-0.114128,0.257678,0.00493762,0.00289941,0.17605,0.131658210497275,0.29392210861855217,0.004949830133693878,-0.006625056898736714,0.002903617354473198,-0.10785624582687925
235,0.2256,450.305,93.1873,-0.0430902,209.622,5.36868,3.1064,0.124205,-0.00670193,-0.11459,0.258694,0.00495209,0.00290789,0.176782,0.1322479580408389,0.29523740153656775,0.004964371862945072,-0.006679522153688278,0.0029121220132082293,-0.10826832104460238
236,0.2266,450.793,93.2307,-0.0430935,209.797,5.34001,3.09003,0.124724,-0.00675684,-0.115052,0.259709,0.00496644,0.00291631,0.177513,0.1328357472491677,0.29655273491789425,0.004978793205154153,-0.006734063883669927,0.002920566568826999,-0.10868020592754568
237,0.2276,451.28,93.274,-0.0430937,209.97,5.31126,3.0736,0.125244,-0.00681182,-0.115514,0.260724,0.00498067,0.00292466,0.178244,0.13342497502368134,0.2978694040403769,0.004993094155132605,-0.00678867214364276,0.0029289409905211006,-0.10909190056362339
238,0.2286,451.764,93.3172,-0.0430909,210.144,5.28243,3.05713,0.125763,-0.00686688,-0.115975,0.261737,0.00499479,0.00293295,0.178974,0.1340133752623731,0.29918481188825874,0.00500728475780754,-0.006843356853870719,0.002937255305904607,-0.1095025145436691
239,0.2296,452.247,93.3604,-0.0430852,210.316,5.25351,3.04061,0.126282,-0.006922,-0.116436,0.262749,0.00500879,0.00294117,0.179703,0.1346020809600481,0.3005002524185314,0.005021354958285151,-0.006898098139357156,0.002945499484026781,-0.10991293927429546
240,0.2306,452.728,93.4034,-0.0430764,210.488,5.2245,3.02404,0.126801,-0.0069772,-0.116897,0.263761,0.00502269,0.00294932,0.180432,0.13519109227528125,0.30181702484844797,0.005035324852209699,-0.006952915851357155,0.0029536735231567857,-0.11032317484272613
241,0.2316,453.207,93.4464,-0.0430648,210.66,5.19542,3.00743,0.127319,-0.00703247,-0.117357,0.264771,0.00503646,0.00295741,0.181161,0.13577927358688768,0.3031325242589187,0.005049164283917218,-0.007007800046959334,0.0029617874511962405,-0.11073233206892164
242,0.2326,453.685,93.4893,-0.0430502,210.831,5.16626,2.99078,0.127837,-0.00708781,-0.117817,0.265781,0.00505013,0.00296543,0.181889,0.13636775965533876,0.30444935299499054,0.005062903399899676,-0.007062750714805666,0.0029698312369872415,-0.11114130112607534
243,0.2336,454.161,93.5322,-0.0430327,211.002,5.13703,2.97409,0.128355,-0.00714322,-0.118277,0.266789,0.00506367,0.00297338,0.182616,0.1369565506385393,0.30576490086754715,0.005076512043741932,-0.007117767843525025,0.0029778048788406952,-0.11155008210072503
244,0.2346,454.635,93.5749,-0.0430123,211.172,5.10772,2.95735,0.128872,-0.00719869,-0.118736,0.267797,0.00507711,0.00298127,0.183343,0.1375445091493983,0.3070817754809245,0.005090020362839454,-0.007172841493460869,0.0029857184049399965,-0.11195778703759973
245,0.2356,455.107,93.6176,-0.0429891,211.341,5.07834,2.94058,0.129389,-0.00725424,-0.119194,0.268804,0.00509043,0.00298909,0.184069,0.13813277171339822,0.30839866977382724,0.005103408251073915,-0.007227991510310061,0.0029935617839256246,-0.11236441724571089
246,0.2366,455.578,93.6602,-0.042963,211.51,5.0489,2.92376,0.129906,-0.00730985,-0.119653,0.26981,0.00510364,0.00299685,0.184795,0.13872133848777546,0.30971558113096886,0.005116685754794625,-0.007283198026670767,0.003001345044163939,-0.11277174848852345
247,0.2376,456.047,93.7028,-0.0429341,211.678,5.01938,2.90691,0.130423,-0.00736552,-0.120111,0.270815,0.00511674,0.00300454,0.18552,0.1393102096298473,0.3110325069343778,0.00512985286962242,-0.007338461032776578,0.0030090581541641903,-0.11317800598764693
248,0.2386,456.514,93.7452,-0.0429023,211.846,4.98981,2.89003,0.130939,-0.00742127,-0.120568,0.271819,0.00512972,0.00301217,0.186244,0.13989824539819717,0.3123494445634052,0.005142899539785306,-0.0073938003709755895,0.003016711142474149,-0.1135831910470726
249,0.2396,456.98,93.7877,-0.0428678,212.013,4.96016,2.8731,0.131454,-0.00747707,-0.121025,0.272822,0.00514259,0.00301973,0.186968,0.14048544418528652,0.31366639139473307,0.005155835812147069,-0.0074491862516344876,0.0030242939774733912,-0.11398819097923096
250,0.2406,457.444,93.83,-0.0428305,212.18,4.93046,2.85615,0.13197,-0.00753294,-0.121482,0.273824,0.00515535,0.00302723,0.187692,0.1410740865311506,0.31498334480238244,0.0051686616824409,-0.007504638516525164,0.0030318166878884334,-0.11439300586870571
251,0.2416,457.907,93.8722,-0.0427905,212.346,4.9007,2.83916,0.132485,-0.00758888,-0.121939,0.274826,0.005168,0.00303466,0.188414,0.14166189103238147,0.3163016184586802,0.005181377146436406,-0.007560157154175684,0.0030392692419725087,-0.11479763580004221
252,0.2426,458.368,93.9144,-0.0427477,212.512,4.87088,2.82214,0.133,-0.00764487,-0.122395,0.275826,0.00518053,0.00304202,0.189137,0.14224999833089425,0.3176185784473866,0.005193972147999659,-0.00761572230541574,0.003046651638161313,-0.11520119605938539
253,0.2436,458.827,93.9566,-0.0427023,212.677,4.841,2.80509,0.133514,-0.00770093,-0.12285,0.276826,0.00519295,0.00304933,0.189859,0.14283726574483224,0.31893685605478117,0.005206456734662801,-0.007671353808657688,0.003053983935984439,-0.11560368794133136
254,0.2446,459.284,93.9986,-0.0426541,212.842,4.81107,2.78801,0.134028,-0.00775705,-0.123306,0.277824,0.00520526,0.00305656,0.19058,0.14342483509181103,0.32025381208887715,0.005218830902308014,-0.007727041729664319,0.0030612360425046337,-0.11600688072468901
255,0.2456,459.74,94.0406,-0.0426033,213.006,4.78109,2.7709,0.134542,-0.00781323,-0.123761,0.278822,0.00521747,0.00306374,0.1913,0.14401270652706444,0.3215720831011599,0.005231104699164657,-0.007782786058587066,0.003068438048034583,-0.11640900610349814
256,0.2466,460.195,94.0825,-0.0425498,213.17,4.75106,2.75377,0.135056,-0.00786947,-0.124215,0.279819,0.00522955,0.00307084,0.192021,0.14460088020590534,0.3228903475136242,0.0052432479642545715,-0.007838586785567925,0.0030755598592271394,-0.11681006536738547
257,0.2476,460.648,94.1244,-0.0424937,213.333,4.72098,2.73661,0.135569,-0.00792577,-0.124669,0.280815,0.00524153,0.00307789,0.19274,0.1451882110949434,0.32420860268184404,0.005255290850501915,-0.007894443900739345,0.0030826315668517346,-0.11721094259169318
258,0.2486,461.099,94.1661,-0.0424349,213.495,4.69086,2.71942,0.136082,-0.00798212,-0.125123,0.28181,0.0052534,0.00308487,0.193459,0.14577584336202443,0.325526845958785,0.005267223301623325,-0.007950347473727581,0.003089633108055434,-0.11761163785904838
259,0.2496,461.549,94.2079,-0.0423736,213.658,4.66069,2.70221,0.136594,-0.00803854,-0.125577,0.282804,0.00526516,0.00309179,0.194178,0.14636263079859102,0.3268450746948117,0.005279045313682618,-0.008006317336198499,0.003096574512333916,-0.11801215125204079
260,0.2506,461.997,94.2495,-0.0423098,213.819,4.63047,2.68497,0.137106,-0.00809501,-0.12603,0.283797,0.0052768,0.00309864,0.194896,0.1469497187472495,0.3281632862376962,0.00529074682987285,-0.008062333637823382,0.0031034457474030663,-0.11841160126526473
261,0.2516,462.444,94.2911,-0.0422433,213.981,4.60022,2.66771,0.137618,-0.00815153,-0.126482,0.284789,0.00528834,0.00310543,0.195613,0.14753710736190184,0.32948147793262583,0.005302347952029551,-0.008118396370378367,0.003110256842923542,-0.11880998917904162
262,0.2526,462.889,94.3326,-0.0421744,214.141,4.56992,2.65043,0.13813,-0.00820812,-0.126935,0.285781,0.00529977,0.00311215,0.19633,0.148124796796528,0.33080097792252405,0.005313838623535849,-0.008174525362143026,0.0031169977664988746,-0.11920907785353407
263,0.2536,463.333,94.3741,-0.0421029,214.302,4.53959,2.63313,0.138641,-0.00826475,-0.127387,0.286772,0.00531109,0.00311882,0.197046,0.14871163849297475,0.33212045538474166,0.005325218840600776,-0.008230690848430977,0.0031236885791878777,-0.1196071053893446
264,0.2546,463.775,94.4155,-0.042029,214.461,4.50922,2.61582,0.139152,-0.00832145,-0.127838,0.287761,0.0053223,0.00312542,0.197762,0.14929878014215991,0.33343857421743994,0.00533648859947089,-0.008286922574075373,0.0031303092173804448,-0.12000407306187522
265,0.2556,464.216,94.4568,-0.0419526,214.621,4.47882,2.59848,0.139662,-0.00837819,-0.128289,0.28875,0.0053334,0.00313195,0.198477,0.14988507201175127,0.3347579973145163,0.005347647896428498,-0.00834319077774448,0.0031368596796870207,-0.1204008617423512
266,0.2566,464.655,94.4981,-0.0418737,214.78,4.44838,2.58112,0.140173,-0.00843499,-0.12874,0.289738,0.00534439,0.00313843,0.199192,0.15047281343869456,0.33607738988846814,0.0053586967277921005,-0.008399515284877146,0.0031433600275987406,-0.1207974715114799
267,0.2576,465.093,94.5393,-0.0417925,214.938,4.41791,2.56375,0.140683,-0.00849184,-0.129191,0.290725,0.00535527,0.00314484,0.199906,0.151059704217976,0.33739674926903573,0.0053696350899170575,-0.008455886170075644,0.0031497901971453413,-0.12119390244993211
268,0.2586,465.529,94.5804,-0.0417088,215.096,4.38741,2.54636,0.141192,-0.00854874,-0.129641,0.291711,0.00536605,0.00315119,0.200619,0.15164574274157472,0.33871607278342086,0.0053804730329996,-0.00851230342506648,0.003156160218537707,-0.1215892762280576
269,0.2596,465.964,94.6215,-0.0416227,215.253,4.35689,2.52896,0.141702,-0.0086057,-0.130091,0.292697,0.00537672,0.00315747,0.201332,0.15223323186736604,0.3400366977923224,0.005391200499877735,-0.008568776955881874,0.0031624600590054452,-0.12198447212800856
270,0.2606,466.397,94.6625,-0.0415343,215.41,4.32633,2.51154,0.142211,-0.0086627,-0.13054,0.293681,0.00538728,0.0031637,0.202045,0.15281986786858348,0.34135594286507875,0.005401817487012739,-0.00862528692504605,0.0031687097805994657,-0.12237861260886351
271,0.2616,466.829,94.7035,-0.0414436,215.567,4.29575,2.49411,0.142719,-0.00871976,-0.130989,0.294665,0.00539773,0.00316986,0.202757,0.15340564913730548,0.3426764867138794,0.005412323990901857,-0.008681853152324281,0.003174889318884766,-0.1227725761603663
272,0.2626,467.259,94.7444,-0.0413505,215.723,4.26515,2.47666,0.143228,-0.00877686,-0.131438,0.295647,0.00540807,0.00317596,0.203468,0.15399288205081452,0.34399564262337634,0.005422720008079196,-0.00873845580248822,0.0031810087043735447,-0.12316636286194016
273,0.2636,467.689,94.7852,-0.0412551,215.879,4.23452,2.45921,0.143736,-0.00883401,-0.131886,0.296629,0.00541831,0.003182,0.204179,0.15457925936212313,0.34531609458023116,0.005433015589445311,-0.008795104780979113,0.0031870679359651266,-0.1235590963525075
274,0.2646,468.116,94.826,-0.0411575,216.034,4.20388,2.44174,0.144243,-0.00889122,-0.132334,0.29761,0.00542845,0.00318798,0.204889,0.15516477946342322,0.3466364972206175,0.005443210731912673,-0.008851809990966575,0.0031930670125686067,-0.12395165393787677
275,0.2656,468.543,94.8667,-0.0410576,216.189,4.17321,2.42426,0.144751,-0.00894847,-0.132782,0.29859,0.00543847,0.00319389,0.205599,0.15575175224985527,0.347956847854032,0.0054532853233579814,-0.008908551600600556,0.0031989959011144986,-0.12434403569683594
276,0.2666,468.967,94.9073,-0.0409555,216.343,4.14253,2.40678,0.145258,-0.00900576,-0.133229,0.299569,0.00544839,0.00319974,0.206309,0.1563378669557689,0.3492771437874884,0.0054632594694199454,-0.00896532960325791,0.0032048646324065455,-0.12473536644394145
277,0.2676,469.391,94.9479,-0.0408511,216.497,4.11182,2.38929,0.145764,-0.0090631,-0.133676,0.300548,0.00545821,0.00320554,0.207017,0.1569231219734808,0.3505987329235831,0.0054731331671078465,-0.009022153902090269,0.003210683237495182,-0.12512652230529298
278,0.2686,469.813,94.9885,-0.0407446,216.65,4.08111,2.37178,0.146271,-0.00912049,-0.134122,0.301525,0.00546792,0.00321127,0.207725,0.15750983071441937,0.3519189126884521,0.005482896358631084,-0.009079024488760745,0.0032164316511793523,-0.12551662887611292
279,0.2696,470.234,95.029,-0.0406359,216.803,4.05038,2.35428,0.146777,-0.00917793,-0.134568,0.302502,0.00547752,0.00321694,0.208433,0.15809567889585097,0.35324038289923143,0.0054925490407689015,-0.009135941354926014,0.0032221199044730753,-0.1259065614981959
280,0.2706,470.653,95.0694,-0.0405251,216.956,4.01963,2.33676,0.147283,-0.00923541,-0.135014,0.303478,0.00548702,0.00322255,0.20914,0.15868182359147398,0.3545617902548357,0.005502101265357773,-0.0091928945841655,0.0032277479963525035,-0.12629632024910542
281,0.2716,471.071,95.1098,-0.0404121,217.108,3.98888,2.31924,0.147788,-0.00929293,-0.135459,0.304453,0.00549642,0.0032281,0.209847,0.15926710568367763,0.35588313204978417,0.0055115530295328785,-0.009249884169832745,0.0032333159258048916,-0.12668503189183955
282,0.2726,471.488,95.1501,-0.040297,217.26,3.95812,2.30172,0.148293,-0.0093505,-0.135904,0.305427,0.00550571,0.00323359,0.210553,0.15985268341798098,0.35720440557615296,0.0055208942752504875,-0.009306920012208675,0.003238823691828152,-0.12707357059637425
283,0.2736,471.904,95.1903,-0.0401798,217.411,3.92734,2.28419,0.148798,-0.00940811,-0.136349,0.3064,0.00551489,0.00323902,0.211259,0.16043855694372122,0.3585256081235828,0.005530124999428843,-0.009363992196566695,0.003244271293431078,-0.12746193643964987
284,0.2746,472.318,95.2306,-0.0400606,217.562,3.89656,2.26666,0.149302,-0.00946576,-0.136794,0.307373,0.00552398,0.0032444,0.211964,0.1610235653861649,0.3598480968267046,0.0055392653098078615,-0.009421100716247688,0.0032496687621297315,-0.12785012949857255
285,0.2756,472.73,95.2707,-0.0399393,217.713,3.86578,2.24913,0.149806,-0.00952346,-0.137238,0.308344,0.00553296,0.00324971,0.212668,0.16160886874717684,0.3611691505965333,0.005548295092953959,-0.009478255469805852,0.003254996032014734,-0.12823727808772833
286,0.2766,473.142,95.3108,-0.039816,217.863,3.83499,2.2316,0.15031,-0.00958119,-0.137681,0.309315,0.00554183,0.00325496,0.213372,0.1621944671754334,0.3624914877325458,0.005557214345888184,-0.00953543663956724,0.0032602631345699518,-0.12862338344488444
287,0.2776,473.552,95.3508,-0.0396907,218.012,3.80419,2.21406,0.150814,-0.00963897,-0.138124,0.310285,0.00555061,0.00326015,0.214075,0.16278036081968605,0.3638137456670687,0.005566043176988833,-0.009592664028723052,0.003265470068847698,-0.12900931779524816
288,0.2786,473.961,95.3908,-0.0395634,218.162,3.77339,2.19653,0.151317,-0.00969679,-0.138567,0.311254,0.00555928,0.00326528,0.214778,0.16336538646279286,0.365135921677441,0.005574761472376899,-0.009649927725379426,0.0032706168339105,-0.12939508121455867
289,0.2796,474.368,95.4307,-0.0394342,218.311,3.7426,2.17899,0.15182,-0.00975465,-0.13901,0.312222,0.00556785,0.00327036,0.215481,0.16395070644781895,0.3664580130386077,0.0055833792850099595,-0.00970722772285637,0.0032757134615895023,-0.12978067377852176
290,0.2806,474.775,95.4706,-0.039303,218.459,3.7118,2.16146,0.152322,-0.00981255,-0.139452,0.31319,0.00557632,0.00327537,0.216182,0.1645351563871169,0.3677813848038276,0.005591896612303415,-0.009764564014469568,0.003280739885505257,-0.13016522572847
291,0.2816,475.18,95.5104,-0.0391699,218.607,3.681,2.14393,0.152825,-0.00987049,-0.139894,0.314156,0.00558468,0.00328033,0.216884,0.1651210649144208,0.36910330000379354,0.00560030339569928,-0.009821936593530811,0.003285716170316144,-0.1305496077440148
292,0.2826,475.583,95.5502,-0.0390349,218.755,3.65021,2.1264,0.153326,-0.00992846,-0.140336,0.315122,0.00559295,0.00328522,0.217585,0.16570493681564136,0.37042649279081785,0.005608619744596366,-0.0098793355521416,0.003290622249463526,-0.13093381990025021
293,0.2836,475.986,95.5899,-0.0388981,218.902,3.61942,2.10888,0.153828,-0.00998648,-0.140777,0.316087,0.00560111,0.00329006,0.218285,0.1662902675996576,0.37174959264936747,0.005616825544413118,-0.009936780686593427,0.003295478187826717,-0.13131699358966575
294,0.2846,476.387,95.6296,-0.0387593,219.049,3.58863,2.09136,0.154329,-0.0100445,-0.141218,0.317051,0.00560918,0.00329485,0.218985,0.1668747254181835,0.37307259684224725,0.005624940904940701,-0.009994222488175275,0.003300283984676966,-0.13169999833673873
295,0.2856,476.787,95.6692,-0.0386188,219.195,3.55785,2.07384,0.15483,-0.0101026,-0.141658,0.318014,0.00561714,0.00329957,0.219684,0.1674594761234387,0.37439550262990795,0.005632945711329551,-0.0100517401529443,0.0033050195731934018,-0.13208196629835656
296,0.2866,477.186,95.7088,-0.0384764,219.341,3.52708,2.05633,0.155331,-0.0101607,-0.142098,0.318977,0.005625,0.00330424,0.220383,0.16804451986219582,0.37571968298945,0.005640850017346599,-0.010109254476034168,0.003309705018575304,-0.1324637662310404
297,0.2876,477.583,95.7483,-0.0383322,219.487,3.49632,2.03883,0.155831,-0.0102189,-0.142538,0.319938,0.00563277,0.00330884,0.221081,0.16862868815202914,0.3770423850613531,0.005648663877108051,-0.01016686444095738,0.0033143202538334915,-0.13284539820870667
298,0.2886,477.98,95.7877,-0.0381863,219.632,3.46556,2.02133,0.156331,-0.0102771,-0.142977,0.320899,0.00564043,0.00331339,0.221778,0.16921314859904069,0.3783663588609145,0.005656367175376875,-0.010224471053078332,0.003318885344376188,-0.13322599553166825
299,0.2896,478.375,95.8271,-0.0380386,219.777,3.43482,2.00384,0.156831,-0.0103353,-0.143416,0.321859,0.005648,0.00331789,0.222476,0.16979790134934558,0.3796902259199364,0.005663980022891035,-0.010282074312591871,0.0033234002895188297,-0.13360642580907423
300,0.2906,478.769,95.8665,-0.0378892,219.922,3.40409,1.98635,0.15733,-0.0103936,-0.143855,0.322818,0.00565546,0.00332232,0.223172,0.1703817761667703,0.3810139834868942,0.005671482304165476,-0.01033977318572099,0.0033278450220273204,-0.1339866891142415
301,0.2916,479.161,95.9058,-0.037738,220.066,3.37337,1.96888,0.157829,-0.0104519,-0.144293,0.323776,0.00566283,0.0033267,0.223868,0.17096594241043372,0.3823376288079505,0.005678894130302536,-0.010397468695103829,0.0033322396076125305,-0.13436591988680746
302,0.2926,479.553,95.945,-0.0375852,220.21,3.34266,1.95141,0.158328,-0.0105102,-0.144731,0.324734,0.0056701,0.00333103,0.224564,0.17155040022579393,0.3836625427888156,0.005686205442439585,-0.01045516084093645,0.0033365840456156537,-0.13474498459266637
303,0.2936,479.943,95.9842,-0.0374307,220.353,3.31197,1.93395,0.158826,-0.0105686,-0.145169,0.325691,0.00567727,0.0033353,0.225259,0.17213397762381777,0.38498734165741344,0.005693416238383264,-0.010512948572125147,0.0033408683019764407,-0.1351238833045394
304,0.2946,480.332,96.0234,-0.0372746,220.496,3.28129,1.91651,0.159324,-0.010627,-0.145606,0.326646,0.00568435,0.00333951,0.225953,0.17271784571576254,0.38631063634133467,0.005700536572976089,-0.010570732928608995,0.0033450923759237305,-0.13550175159729994
305,0.2956,480.72,96.0625,-0.0371168,220.639,3.25063,1.89907,0.159822,-0.0106855,-0.146043,0.327601,0.00569133,0.00334366,0.226647,0.17330200464642997,0.3876351953753101,0.005707556387220647,-0.010628612847728536,0.0033492562666972425,-0.1358794547976918
306,0.2966,481.107,96.1016,-0.0369574,220.781,3.21999,1.88165,0.160319,-0.0107439,-0.14648,0.328556,0.00569821,0.00334776,0.227341,0.17388528067482611,0.38896101996737076,0.005714475679010844,-0.010686390449615835,0.0033533700070809136,-0.13625699297784466
307,0.2976,481.493,96.1406,-0.0367964,220.923,3.18937,1.86424,0.160817,-0.0108024,-0.146916,0.329509,0.00570499,0.0033518,0.228034,0.17447002113289134,0.3902853307532599,0.005721294446271452,-0.010744263602968207,0.003357423562883932,-0.13663350284379117
308,0.2986,481.877,96.1795,-0.0366339,221.065,3.15876,1.84684,0.161313,-0.010861,-0.147352,0.330462,0.00571168,0.00335579,0.228727,0.1750527027564701,0.39161090420889466,0.00572802274423756,-0.010802232290621938,0.0033614269669908214,-0.13700984858721743
309,0.2996,482.261,96.2185,-0.0364698,221.206,3.12818,1.82945,0.16181,-0.0109195,-0.147788,0.331414,0.00571827,0.00335972,0.229419,0.17563684909808197,0.39293634860112747,0.005734650513745887,-0.010860098667424989,0.003365370185147265,-0.13738603027966523
310,0.3006,482.643,96.2573,-0.0363042,221.347,3.09762,1.81207,0.162306,-0.0109781,-0.148223,0.332365,0.00572477,0.0033636,0.23011,0.17622010961188428,0.39426166115488215,0.005741187810220483,-0.010918060567342791,0.003369263250336152,-0.1377611857542621
311,0.3016,483.024,96.2961,-0.036137,221.487,3.06708,1.79471,0.162802,-0.0110367,-0.148658,0.333315,0.00573117,0.00336742,0.230801,0.17680365949465915,0.3955868390928352,0.005747624574420129,-0.01097601907079282,0.0033730961282425476,-0.13813617807171674
312,0.3026,483.404,96.3349,-0.0359684,221.628,3.03656,1.77737,0.163297,-0.0110954,-0.149093,0.334264,0.00573747,0.00337119,0.231491,0.17738632150305889,0.3969118796354274,0.005753960804413927,-0.011034073074571715,0.003376878851945264,-0.13851100730298715
313,0.3036,483.783,96.3736,-0.0357983,221.767,3.00607,1.76004,0.163793,-0.0111541,-0.149527,0.335213,0.00574369,0.0033749,0.232181,0.1779704499704089,0.3982381782383497,0.005760216613505786,-0.011092123670680576,0.0033806013870711915,-0.13888481240424333
314,0.3046,484.16,96.4123,-0.0356268,221.907,2.9756,1.74272,0.164287,-0.0112128,-0.149961,0.336161,0.0057498,0.00337856,0.232871,0.17855251112996373,0.39956433653103174,0.005766361827202804,-0.011150170859319353,0.0033842737667926226,-0.1392584553092847
315,0.3056,484.537,96.4509,-0.0354538,222.046,2.94516,1.72542,0.164782,-0.0112715,-0.150395,0.337108,0.00575583,0.00338217,0.23356,0.1791360390342145,0.4008903517268234,0.005772426616649895,-0.01120821464068833,0.003387895990559109,-0.13963193608848912
316,0.3066,484.912,96.4895,-0.0352794,222.185,2.91474,1.70814,0.165276,-0.0113303,-0.150828,0.338054,0.00576176,0.00338572,0.234248,0.1797186761370131,0.40221622103686205,0.005778390864823679,-0.01126635388835684,0.003391458023912497,-0.14000439481702875
317,0.3076,485.287,96.5281,-0.0351036,222.323,2.88436,1.69088,0.16577,-0.0113891,-0.151261,0.339,0.00576759,0.00338921,0.234936,0.18030160113364424,0.40354334521272617,0.005784254569935143,-0.011324489717538078,0.003394959866211744,-0.14037669230584982
318,0.3086,485.66,96.5666,-0.0349265,222.461,2.854,1.67363,0.166264,-0.0114479,-0.151693,0.339944,0.00577334,0.00339266,0.235623,0.18088481416636304,0.4048689157014389,0.005790037846025831,-0.011382622128432995,0.003398421584794642,-0.14074796937315304
319,0.3096,486.032,96.605,-0.0347479,222.599,2.82367,1.6564,0.166757,-0.0115067,-0.152126,0.340888,0.00577899,0.00339605,0.23631,0.18146713390976932,0.40619573811951093,0.005795720575793473,-0.011440751121242765,0.003401823111209401,-0.14111994496388736
320,0.3106,486.403,96.6434,-0.0345681,222.736,2.79337,1.63919,0.16725,-0.0115656,-0.152557,0.341831,0.00578455,0.00339938,0.236997,0.18204974080758718,0.40752240612621127,0.0058013128155463,-0.011498975546275547,0.0034051644448436225,-0.1414900425058584
321,0.3116,486.773,96.6818,-0.0343869,222.873,2.7631,1.62199,0.167743,-0.0116245,-0.152989,0.342774,0.00579001,0.00340267,0.237683,0.18263263500141802,0.4088503257708964,0.0058068045057064754,-0.011557196541990722,0.003408465653265136,-0.1418608387097492
322,0.3126,487.142,96.7201,-0.0342045,223.01,2.73287,1.60482,0.168235,-0.0116834,-0.15342,0.343715,0.00579539,0.0034059,0.238368,0.18321463341770916,0.41017667787824164,0.005812215760871098,-0.011615414108590238,0.003411706667843406,-0.14223061699532058
323,0.3136,487.51,96.7584,-0.0340207,223.146,2.70266,1.58767,0.168727,-0.0117424,-0.153851,0.344656,0.00580067,0.00340908,0.239053,0.18379691824767286,0.411504278670334,0.005817526463390399,-0.011673727078908236,0.003414897522144189,-0.14260023594079108
324,0.3146,487.877,96.7966,-0.0338357,223.282,2.67249,1.57053,0.169219,-0.0118013,-0.154282,0.345596,0.00580587,0.0034122,0.239737,0.1843794896322597,0.4128317164903159,0.005822756728126821,-0.011731937782061275,0.0034180281815081592,-0.14296969561482165
325,0.3156,488.243,96.8348,-0.0336495,223.418,2.64236,1.55342,0.16971,-0.0118603,-0.154712,0.346535,0.00581097,0.00341527,0.240421,0.18496116275073393,0.4141589885287986,0.005827886437266727,-0.011790243877685458,0.003421108679583451,-0.14333813942461104
326,0.3166,488.608,96.8729,-0.0334621,223.553,2.61226,1.53633,0.170201,-0.0119194,-0.155142,0.347474,0.00581598,0.0034183,0.241104,0.18554312154083585,0.4154875074610507,0.005832925647601073,-0.011848645348491837,0.0034241490501487615,-0.14370642483761997
327,0.3176,488.972,96.911,-0.0332734,223.688,2.58219,1.51926,0.170692,-0.0119784,-0.155571,0.348411,0.0058209,0.00342127,0.241787,0.1861253661428648,0.4168144408267396,0.005837874357769168,-0.011906944558572663,0.0034271292242971096,-0.14407369599606845
328,0.3186,489.334,96.9491,-0.0330835,223.823,2.55216,1.50221,0.171183,-0.0120375,-0.156001,0.349348,0.00582574,0.00342418,0.24247,0.18670789669718912,0.4181426181116774,0.005842742624862174,-0.011965339132572583,0.0034300492014915918,-0.14444166518774415
329,0.3196,489.696,96.9871,-0.0328925,223.958,2.52217,1.48518,0.171673,-0.0120966,-0.156429,0.350284,0.00583048,0.00342705,0.243152,0.18728952605412563,0.4194706210106318,0.005847510330761585,-0.012023730255555143,0.003432929049865363,-0.1448077658039233
330,0.3206,490.056,97.025,-0.0327004,224.092,2.49221,1.46818,0.172163,-0.0121557,-0.156858,0.351219,0.00583513,0.00342987,0.243833,0.18787144047928317,0.420798446703053,0.005852187532559228,-0.01208211792772429,0.003435758734715133,-0.1451745645884286
331,0.3216,490.416,97.063,-0.0325071,224.225,2.4623,1.4512,0.172652,-0.0122148,-0.157286,0.352154,0.0058397,0.00343263,0.244514,0.18845245165933333,0.42212751449308694,0.005856784287559869,-0.012140502149284083,0.003438528221231252,-0.14554035159078238
332,0.3226,490.775,97.1009,-0.0323127,224.359,2.43242,1.43424,0.173141,-0.012274,-0.157714,0.353088,0.00584418,0.00343534,0.245194,0.1890337470233281,0.4234564020855238,0.005861290536047337,-0.012198981700545009,0.0034412475433274192,-0.14590598206979755
333,0.3236,491.132,97.1387,-0.0321172,224.492,2.40258,1.41731,0.17363,-0.0123332,-0.158142,0.354021,0.00584857,0.00343801,0.245874,0.18961532671026693,0.4247851066529651,0.0058657062768052715,-0.012257457789919046,0.003443926735035019,-0.14627145609245173
334,0.3246,491.489,97.1765,-0.0319206,224.625,2.37279,1.4004,0.174119,-0.0123924,-0.158569,0.354953,0.00585287,0.00344062,0.246553,0.19019719085921793,0.4261136253659208,0.005870031508641516,-0.012315930417611032,0.0034465457271015687,-0.14663592036204098
335,0.3256,491.844,97.2143,-0.031723,224.757,2.34303,1.38352,0.174607,-0.0124516,-0.158996,0.355885,0.00585708,0.00344318,0.247232,0.1907781488305731,0.42744338283548755,0.005874266230388336,-0.012374399583825912,0.003449114553546684,-0.14700022903860865
336,0.3266,492.199,97.252,-0.0315243,224.889,2.31332,1.36666,0.175095,-0.0125108,-0.159422,0.356815,0.00586121,0.00344569,0.247911,0.19135939037860505,0.4287715226708224,0.005878420499686454,-0.012432865288768524,0.003451633213985117,-0.1473635295525345
337,0.3276,492.553,97.2897,-0.0313246,225.021,2.28365,1.34982,0.175583,-0.0125701,-0.159849,0.357745,0.00586525,0.00344816,0.248589,0.19194091564173354,0.43010089825073616,0.0058824842567140045,-0.012491426283506302,0.003454111742580146,-0.14772752760630048
338,0.3286,492.905,97.3273,-0.0311239,225.153,2.25402,1.33302,0.17607,-0.0126294,-0.160275,0.358674,0.0058692,0.00345057,0.249266,0.19252153223631652,0.43143007929421096,0.005886457500374087,-0.012549983805679954,0.0034565300699036516,-0.1480905183570208
339,0.3296,493.257,97.3649,-0.0309222,225.284,2.22444,1.31623,0.176557,-0.0126887,-0.1607,0.359603,0.00587307,0.00345293,0.249943,0.19310243166004426,0.4327604957206217,0.005890350288497048,-0.012608537855495539,0.00345889823010892,-0.14845250295954238
340,0.3306,493.608,97.4024,-0.0307195,225.415,2.1949,1.29948,0.177044,-0.012748,-0.161125,0.360531,0.00587686,0.00345524,0.250619,0.19368361405068835,0.43409071458674076,0.005894162620148968,-0.012667088433159002,0.0034612162228411236,-0.14881433375129505
341,0.3316,493.957,97.44,-0.0305159,225.546,2.16541,1.28275,0.17753,-0.0128074,-0.16155,0.361458,0.00588055,0.00345751,0.251295,0.19426388528160454,0.4354207330474755,0.005897874376457279,-0.01272573426630752,0.0034634940823874416,-0.14917601079763443
342,0.3326,494.306,97.4774,-0.0303113,225.676,2.13596,1.26605,0.178016,-0.0128667,-0.161975,0.362384,0.00588417,0.00345973,0.251971,0.19484443859287892,0.43675054825569526,0.005901515733353291,-0.012784277894429819,0.0034657217738169876,-0.14953753416388837
343,0.3336,494.654,97.5149,-0.0301059,225.806,2.10656,1.24938,0.178502,-0.0129261,-0.162399,0.363309,0.00588769,0.00346189,0.252646,0.19542527412163602,0.4380801573622397,0.0059050565129206145,-0.012842916766731105,0.003467889262116941,-0.14989805381383603
344,0.3346,495.001,97.5523,-0.0298995,225.936,2.0772,1.23273,0.178987,-0.0129855,-0.162823,0.364234,0.00589114,0.00346401,0.25332,0.1960051959992728,0.43941099692620633,0.005908526891351906,-0.012901552155986873,0.003470016616297089,-0.15025842063585393
345,0.3356,495.346,97.5896,-0.0296922,226.065,2.04789,1.21611,0.179473,-0.0130449,-0.163247,0.365158,0.0058945,0.00346608,0.253994,0.19658659579323468,0.4407416273439475,0.005911906749680451,-0.012960184062403957,0.0034720938013814706,-0.15061863469472736
346,0.3366,495.691,97.6269,-0.0294841,226.195,2.01863,1.19952,0.179957,-0.0131043,-0.16367,0.366081,0.00589777,0.0034681,0.254668,0.19716588388200762,0.442072045759633,0.005915196086993646,-0.01301881248618919,0.003474120817058113,-0.1509778470334857
347,0.3376,496.035,97.6642,-0.0292751,226.323,1.98942,1.18296,0.180442,-0.0131638,-0.164093,0.367003,0.00590097,0.00347008,0.255341,0.1977466501601286,0.4434022493154306,0.005918415020771395,-0.013077536119800892,0.003476107697784503,-0.151336907457557
348,0.3386,496.378,97.7015,-0.0290653,226.452,1.96026,1.16643,0.180926,-0.0132232,-0.164516,0.367925,0.00590408,0.003472,0.256013,0.19832649985111184,0.44473367988447277,0.005921543431906651,-0.013136157573080953,0.003478034373760819,-0.15169581603118754
349,0.3396,496.721,97.7387,-0.0288546,226.58,1.93115,1.14993,0.18141,-0.0132827,-0.164938,0.368846,0.0059071,0.00347388,0.256685,0.19890663025727306,0.44606489253297177,0.005924581319554978,-0.013194874224867648,0.0034799209142386545,-0.15205372487274538
350,0.3406,497.062,97.7758,-0.0286432,226.708,1.90209,1.13346,0.181894,-0.0133422,-0.16536,0.369766,0.00591005,0.00347571,0.257357,0.19948704151451135,0.44739588439648004,0.005927548801446969,-0.013253587383117549,0.003481757284174325,-0.15241148270863647
351,0.3416,497.402,97.813,-0.0284309,226.836,1.87307,1.11702,0.182377,-0.0134017,-0.165782,0.370686,0.00591291,0.0034775,0.258028,0.20006653369165806,0.4487281013359514,0.005930425758350566,-0.01331229704803838,0.003483553518127458,-0.15276908960257174
352,0.3426,497.741,97.8501,-0.0282179,226.963,1.84411,1.1006,0.18286,-0.0134613,-0.166204,0.371604,0.00591569,0.00347924,0.258698,0.20064630583113163,0.45005864435878506,0.005933222248821313,-0.013371101882732828,0.0034852995810297216,-0.15312654561823535
353,0.3436,498.08,97.8871,-0.0280042,227.091,1.8152,1.08422,0.183342,-0.0135208,-0.166625,0.372522,0.00591839,0.00348093,0.259369,0.20122515684242903,0.4513904093809258,0.005935938272187968,-0.013429804555748937,0.0034869954726191033,-0.1534830043027121
354,0.3446,498.417,97.9241,-0.0277897,227.217,1.78635,1.06787,0.183825,-0.0135804,-0.167045,0.373439,0.00592101,0.00348257,0.260038,0.20180548873205328,0.45272194480201255,0.005938573827798832,-0.013488602387204618,0.00348864119264114,-0.15383846678855762
355,0.3456,498.754,97.9611,-0.0275744,227.344,1.75754,1.05155,0.184307,-0.0136399,-0.167466,0.374356,0.00592355,0.00348417,0.260707,0.20238489860418363,0.4540547018010883,0.005941128915021299,-0.013547298069148783,0.003490246775751382,-0.1541946258173036
356,0.3466,499.09,97.998,-0.0273585,227.47,1.72879,1.03526,0.184789,-0.0136995,-0.167886,0.375272,0.00592601,0.00348572,0.261376,0.2029645878191888,0.4553872261109002,0.005943603533242303,-0.013606088898199697,0.00349180218683931,-0.1545497894848693
357,0.3476,499.425,98.0349,-0.0271419,227.596,1.7001,1.01901,0.18527,-0.0137591,-0.168306,0.376187,0.00592839,0.00348723,0.262044,0.20354335296778947,0.4567195148519385,0.005945997681867654,-0.013664876223421718,0.0034933174606046613,-0.1549048040150156
358,0.3486,499.759,98.0718,-0.0269246,227.722,1.67146,1.00278,0.185751,-0.0138187,-0.168725,0.377101,0.00593068,0.00348869,0.262712,0.20412239656938902,0.4580515651427637,0.00594830130084012,-0.013723660045023456,0.0034947825619178197,-0.15525882472961428
359,0.3496,500.092,98.1086,-0.0267066,227.847,1.64287,0.98659,0.186232,-0.0138783,-0.169144,0.378015,0.0059329,0.0034901,0.263379,0.20470171875795606,0.45938483348411885,0.005950534508547767,-0.013782440363213966,0.003496197490558739,-0.15561269714060522
360,0.3506,500.424,98.1454,-0.026488,227.973,1.61433,0.97043,0.186712,-0.013938,-0.169563,0.378927,0.00593504,0.00349147,0.264046,0.2052801143868055,0.4607163995540908,0.005952687244995092,-0.013841315794075104,0.003497572281290884,-0.15596642131011473
361,0.3516,500.755,98.1822,-0.0262687,228.097,1.58586,0.954303,0.187193,-0.0139976,-0.169982,0.37984,0.00593711,0.00349279,0.264712,0.20585999357158946,0.4620506426161597,0.005954769569212814,-0.013900089100191915,0.0034988968989606573,-0.15631999730024304
362,0.3526,501.086,98.2189,-0.0260489,228.222,1.55744,0.938208,0.187673,-0.0140573,-0.1704,0.380751,0.00593909,0.00349407,0.265378,0.20643894530580398,0.46338317762912307,0.005956761361628482,-0.013958957507633207,0.0035001813783708258,-0.1566725818460677
363,0.3536,501.415,98.2556,-0.0258284,228.346,1.52907,0.922147,0.188152,-0.014117,-0.170818,0.381662,0.00594099,0.00349531,0.266043,0.20701696798598568,0.4647169271346008,0.0059586726812908,-0.014017822400735458,0.0035014257193670684,-0.15702501904235044
364,0.3546,501.744,98.2923,-0.0256073,228.47,1.50076,0.906119,0.188631,-0.0141767,-0.171236,0.382572,0.00594282,0.00349649,0.266708,0.20759526760535252,0.46605042618834025,0.005960513587346394,-0.014076683779708499,0.0035026098517481064,-0.15737730895067048
365,0.3556,502.072,98.3289,-0.0253857,228.594,1.47251,0.890125,0.18911,-0.0142364,-0.171653,0.383481,0.00594457,0.00349764,0.267372,0.20817384429659058,0.46738367189411556,0.005962274019785552,-0.01413554164476205,0.003503763880412958,-0.1577286093616117
366,0.3566,502.399,98.3655,-0.0251635,228.718,1.44432,0.874165,0.189589,-0.0142961,-0.17207,0.384389,0.00594625,0.00349874,0.268036,0.20875269819244902,0.4687166613538267,0.005963964037825509,-0.014194395996105946,0.003504867735160344,-0.15807976331082108
367,0.3576,502.725,98.402,-0.0249408,228.841,1.41618,0.858239,0.190067,-0.0143558,-0.172487,0.385297,0.00594784,0.0034998,0.2687,0.20933062009451575,0.47005086171763444,0.005965563521799888,-0.014253246833950017,0.003505931450883848,-0.1584307708593602
368,0.3586,503.05,98.4385,-0.0247175,228.964,1.38811,0.842347,0.190545,-0.0144155,-0.172903,0.386204,0.00594936,0.00350081,0.269362,0.2099088183092852,0.4713848027000007,0.005967092590618561,-0.014312094158503985,0.0035069449923865736,-0.15878079084947705
369,0.3596,503.375,98.475,-0.0244938,229.087,1.36009,0.82649,0.191023,-0.0144753,-0.173319,0.38711,0.00595081,0.00350178,0.270025,0.21048729296886637,0.4727184813964689,0.0059685512439602295,-0.014371036532878745,0.0035079183945954107,-0.15913066526156028
370,0.3606,503.698,98.5114,-0.0242695,229.209,1.33213,0.810667,0.191501,-0.014535,-0.173735,0.388016,0.00595218,0.0035027,0.270687,0.2110660442054315,0.474053368953367,0.005969929421819398,-0.014429876825597487,0.0035088416223048036,-0.15948039415615778
371,0.3616,504.021,98.5478,-0.0240447,229.332,1.30423,0.79488,0.191978,-0.0145948,-0.17415,0.388921,0.00595347,0.00350359,0.271348,0.21164386050674944,0.47538799107769036,0.005971227123865441,-0.01448881215677933,0.00350973474557148,-0.15982913742334992
372,0.3626,504.343,98.5842,-0.0238195,229.453,1.27639,0.779127,0.192455,-0.0146546,-0.174565,0.389825,0.00595469,0.00350443,0.272009,0.21222195249218867,0.47672234485866216,0.005972454409511219,-0.014547743963733817,0.003510577694102679,-0.16017773599211305
373,0.3636,504.664,98.6206,-0.0235938,229.575,1.24861,0.76341,0.192931,-0.0147143,-0.17498,0.390729,0.00595583,0.00350522,0.27267,0.21279910749356779,0.47805790544084426,0.005973601218763003,-0.01460657370733387,0.003511370467772057,-0.16052618992248469
374,0.3646,504.984,98.6569,-0.0233676,229.697,1.2209,0.747729,0.193407,-0.0147741,-0.175395,0.391631,0.0059569,0.00350598,0.27333,0.2133765372861227,0.4793917151292886,0.00597467761109205,-0.014665498472358096,0.0035121331367036213,-0.1608744992744774
375,0.3656,505.304,98.6931,-0.0231429,229.818,1.19324,0.732082,0.193883,-0.0148339,-0.175809,0.392533,0.0059579,0.00350669,0.27399,0.21395424200068502,0.48072672845683173,0.005975683586272762,-0.014724419713786796,0.003512845630571082,-0.16122182533032337
376,0.3666,505.622,98.7294,-0.0229114,229.939,1.16564,0.716474,0.194359,-0.0148937,-0.176223,0.393435,0.00595882,0.00350736,0.274649,0.21453222176814912,0.4820629465096453,0.0059766090843274,-0.014783337431830579,0.003513517984402803,-0.16156900762294324
377,0.3676,505.94,98.7656,-0.0226877,230.059,1.13811,0.700899,0.194834,-0.0149536,-0.176636,0.394335,0.00595967,0.00350798,0.275308,0.21510926160960175,0.4833974035771087,0.005977464164808488,-0.01484235014247004,0.0035141401629767977,-0.16191520812746985
378,0.3686,506.257,98.8018,-0.0224584,230.18,1.11064,0.685362,0.195309,-0.0150134,-0.177049,0.395235,0.00596044,0.00350857,0.275966,0.21568657561008675,0.48473306219654977,0.005978238767754052,-0.014901260808485084,0.0035147322364941225,-0.16226126568070953
379,0.3696,506.573,98.8379,-0.022231,230.3,1.08323,0.669861,0.195784,-0.0150732,-0.177462,0.396135,0.00596114,0.00350911,0.276624,0.21626416389986058,0.48606992344985267,0.005978942952767685,-0.014960167951747594,0.003515274134595847,-0.16260718034168908
380,0.3706,506.889,98.874,-0.0220021,230.42,1.05588,0.654397,0.196258,-0.0151331,-0.177875,0.397033,0.00596177,0.00350961,0.277281,0.21684080976782316,0.4874050136068726,0.005979576719701285,-0.015019170070556198,0.003515775892358297,-0.16295295216941075
381,0.3716,507.203,98.9101,-0.0217734,230.54,1.0286,0.638969,0.196732,-0.0151929,-0.178287,0.397931,0.00596233,0.00351007,0.277938,0.21741772903071666,0.48874130321332565,0.0059801400684220685,-0.015078070163055624,0.0035162375097215204,-0.1632977445210153
382,0.3726,507.517,98.9461,-0.0215441,230.659,1.00138,0.623579,0.197206,-0.0152528,-0.178699,0.398828,0.00596282,0.00351049,0.278594,0.21799492181816116,0.4900773032687531,0.005980632998811464,-0.015137065219733237,0.0035166589866297837,-0.16364239484743015
383,0.3736,507.83,98.9821,-0.0213146,230.778,0.97422,0.608225,0.19768,-0.0153126,-0.179111,0.399725,0.00596323,0.00351087,0.27925,0.21857238825983782,0.49141450225386984,0.005981045450955458,-0.01519595826231357,0.003517040323032683,-0.1639869032071577
384,0.3746,508.143,99.0181,-0.0210847,230.897,0.947127,0.59291,0.198153,-0.0153725,-0.179523,0.40062,0.00596358,0.0035112,0.279905,0.21914890933597042,0.4927499157417812,0.0059813975443829825,-0.015254946257705626,0.003517371483710452,-0.16433126965867617
385,0.3756,508.454,99.0541,-0.0208546,231.016,0.920098,0.577631,0.198626,-0.0154324,-0.179934,0.401515,0.00596385,0.0035115,0.28056,0.21972570317107465,0.4940865249597737,0.005981669159397018,-0.015313930719822455,0.003517672538967176,-0.16467465893551625
386,0.3766,508.765,99.09,-0.0206241,231.134,0.893134,0.56239,0.199098,-0.0154923,-0.180344,0.40241,0.00596405,0.00351176,0.281215,0.22030154959203596,0.4954243309785047,0.00598187035575104,-0.015372911648875887,0.003517933453595967,-0.16501707212585204
387,0.3776,509.075,99.1259,-0.0203934,231.252,0.866234,0.547187,0.19957,-0.0155522,-0.180755,0.403303,0.00596418,0.00351197,0.281869,0.22087766787666263,0.4967603413459143,0.005982001133402637,-0.01543188904507753,0.003518144192384165,-0.1653601795957934
388,0.3786,509.384,99.1617,-0.0201624,231.37,0.8394,0.532022,0.200042,-0.0156121,-0.181165,0.404196,0.00596424,0.00351215,0.282522,0.22145405815330488,0.49809754530344064,0.0059820614923244975,-0.01549086290863888,0.0035183248256662747,-0.16570231178026862
389,0.3796,509.692,99.1976,-0.0199311,231.488,0.812631,0.516895,0.200514,-0.015672,-0.181575,0.405088,0.00596424,0.00351228,0.283176,0.2220307205503731,0.4994344444822414,0.0059820614923244975,-0.015549833239771549,0.0035184552830569427,-0.16604430371930046
390,0.3806,510.0,99.2333,-0.0196996,231.606,0.785927,0.501807,0.200985,-0.0157319,-0.181985,0.40598,0.00596416,0.00351238,0.283828,0.22260643258929447,0.5007725367071292,0.005981981013762905,-0.015608800038687254,0.0035185556349075497,-0.16638615547037783
391,0.3816,510.307,99.2691,-0.0194679,231.723,0.759289,0.486757,0.201456,-0.0157918,-0.182394,0.406871,0.00596401,0.00351244,0.28448,0.22318241585245424,0.5021103209317039,0.005981830116477127,-0.015667763305597493,0.0035186158460227546,-0.16672703381841636
392,0.3826,510.613,99.3048,-0.019236,231.84,0.732718,0.471745,0.201927,-0.0158517,-0.182803,0.407761,0.0059638,0.00351245,0.285132,0.22375867046762954,0.5034477942046551,0.005981618860314786,-0.015726723040713764,0.003518625881208992,-0.16706777277571794
393,0.3836,510.918,99.3405,-0.0190038,231.957,0.706212,0.456772,0.202398,-0.0159116,-0.183212,0.408651,0.00596352,0.00351243,0.285783,0.2243351965626572,0.504786458358683,0.00598133718550109,-0.015785679244247675,0.003518605810836517,-0.16740837239928175
394,0.3846,511.222,99.3762,-0.0187715,232.073,0.679773,0.441837,0.202868,-0.0159715,-0.18362,0.409539,0.00596317,0.00351237,0.286434,0.2249107693540522,0.5061233022045262,0.0059809850920946594,-0.015844631916410834,0.0035185455997219783,-0.1677480004945
395,0.3856,511.526,99.4118,-0.018539,232.189,0.653401,0.426942,0.203338,-0.0160315,-0.184028,0.410427,0.00596275,0.00351227,0.287085,0.22548661272824133,0.507461333694941,0.005980562580169657,-0.015903679467051623,0.0035184452478724815,-0.16808749004971957
396,0.3866,511.829,99.4475,-0.0183063,232.305,0.627096,0.412086,0.203807,-0.0160914,-0.184436,0.411315,0.00596226,0.00351213,0.287735,0.22606150075031417,0.5088005538850235,0.005980069649814679,-0.015962625071213044,0.003518304755300017,-0.16842684112145323
397,0.3876,512.132,99.483,-0.0180734,232.421,0.600858,0.397268,0.204277,-0.0161513,-0.184844,0.412202,0.00596171,0.00351195,0.288384,0.22663788509537763,0.5101394536905997,0.005979516360928638,-0.016021567144638538,0.00351812412202146,-0.16876605376619058
398,0.3886,512.433,99.5186,-0.0178404,232.537,0.574688,0.38249,0.204746,-0.0162113,-0.185251,0.413088,0.00596109,0.00351174,0.289033,0.22721331319082827,0.5114780301483755,0.005978892653821788,-0.016080604079484084,0.003517913383237481,-0.169104297145111
399,0.3896,512.734,99.5541,-0.0176073,232.652,0.548585,0.367752,0.205214,-0.0162712,-0.185658,0.413973,0.00596041,0.00351149,0.289682,0.22778778343695394,0.5128162802934,0.005978208588407474,-0.01613953908617871,0.0035176625037904863,-0.1694424028869872
400,0.3906,513.034,99.5896,-0.017374,232.767,0.52255,0.353053,0.205683,-0.0163312,-0.186064,0.414858,0.00595966,0.0035112,0.29033,0.22836375096121264,0.5141557153140333,0.005977454105033919,-0.016198568942920155,0.003517371483710452,-0.16977954082778213
401,0.3916,513.334,99.6251,-0.0171406,232.882,0.496583,0.338393,0.206151,-0.0163911,-0.186471,0.415742,0.00595884,0.00351087,0.290977,0.2289387597382213,0.5154948207637753,0.0059766292038596625,-0.016257496883731015,0.003517040323032683,-0.17011737180139863
402,0.3926,513.632,99.6605,-0.0169072,232.997,0.470684,0.323773,0.206618,-0.0164511,-0.186877,0.416625,0.00595796,0.0035105,0.291624,0.22951280816889486,0.516833593671763,0.0059757439448155925,-0.0163165196632169,0.0035166690217964813,-0.17045423576043628
403,0.3936,513.93,99.6959,-0.0166736,233.111,0.444854,0.309193,0.207086,-0.016511,-0.187282,0.417508,0.00595701,0.0035101,0.292271,0.2300883548305317,0.5181735492382953,0.0059747882683127695,-0.016375440538991204,0.0035162676152089567,-0.17079013377101482
404,0.3946,514.227,99.7313,-0.0164399,233.226,0.419092,0.294653,0.207553,-0.016571,-0.187688,0.41839,0.005956,0.00350966,0.292917,0.23066294024749,0.5195131689941923,0.0059737722342896316,-0.016434456242070072,0.0035158260681484865,-0.17112672464413303
405,0.3956,514.524,99.7666,-0.0162062,233.34,0.3934,0.280153,0.20802,-0.0166309,-0.188093,0.419271,0.00595492,0.00350918,0.293563,0.2312377940585031,0.5208524499627181,0.005972685783202314,-0.01649337005365492,0.0035153443806674733,-0.17146235035185875
406,0.3966,514.82,99.8019,-0.0159724,233.454,0.367776,0.265693,0.208487,-0.0166909,-0.188498,0.420152,0.00595378,0.00350866,0.294209,0.2318129163889402,0.5221929113576786,0.0059715389749941394,-0.016552378681175095,0.003514822552824093,-0.1717978401586947
407,0.3976,515.115,99.8372,-0.0157385,233.567,0.342221,0.251273,0.208953,-0.0167509,-0.188902,0.421032,0.00595257,0.00350811,0.294854,0.2323870749765382,0.5235330306856953,0.005970321750168539,-0.01661138376828397,0.0035142706198234563,-0.17213236625244965
408,0.3986,515.409,99.8725,-0.0155046,233.68,0.316736,0.236894,0.209419,-0.0168108,-0.189307,0.421911,0.0059513,0.00350753,0.295498,0.23296150118438863,0.5248728049641997,0.005969044168671056,-0.01667028698222739,0.003513688581715302,-0.172467584757788
409,0.3996,515.703,99.9077,-0.0152707,233.794,0.29132,0.222555,0.209885,-0.0168708,-0.18971,0.42279,0.00594997,0.0035069,0.296142,0.23353619513723167,0.5262137574220289,0.005967706230732173,-0.01672928499505033,0.003513056368290579,-0.17280101313080087
410,0.4006,515.996,99.9429,-0.0150368,233.906,0.265974,0.208256,0.21035,-0.0169308,-0.190114,0.423668,0.00594857,0.00350624,0.296786,0.23410992284932575,0.5275543615401324,0.005966297876929261,-0.016788279468098688,0.003512394049892009,-0.17313513402453096
411,0.4016,516.288,99.9781,-0.0148028,234.019,0.240697,0.193998,0.210815,-0.0169907,-0.190518,0.424545,0.00594712,0.00350555,0.297429,0.2346839174068427,0.5288946143301492,0.005964839226854757,-0.01684717208630704,0.0035117016265791,-0.17346911996068326
412,0.4026,516.579,100.013,-0.0145688,234.132,0.215491,0.17978,0.21128,-0.0170507,-0.190921,0.425422,0.0059456,0.00350481,0.298072,0.23525817893389434,0.5302360430374273,0.005963310161461344,-0.01690615948634222,0.003510959028194538,-0.1738021447963276
413,0.4036,516.87,100.048,-0.0143349,234.244,0.190354,0.165603,0.211744,-0.0171107,-0.191323,0.426298,0.00594401,0.00350405,0.298714,0.23583147172256091,0.5315771171158155,0.005961710681069654,-0.01696514334723953,0.003510196360155593,-0.1741342095846251
414,0.4046,517.16,100.083,-0.0141009,234.356,0.165288,0.151467,0.212209,-0.0171706,-0.191726,0.427173,0.00594237,0.00350324,0.299356,0.23640626698645373,0.5329178335712006,0.005960060905217057,-0.017024025371618734,0.0035093835172257393,-0.17446696644315196
415,0.4056,517.45,100.119,-0.013867,234.468,0.140292,0.137372,0.212673,-0.0172306,-0.192128,0.428048,0.00594066,0.00350241,0.299997,0.23698009261158526,0.5342597236668767,0.00595834071498369,-0.017083002160775074,0.003508550604782945,-0.17479876402685912
416,0.4066,517.739,100.154,-0.0136332,234.579,0.115367,0.123317,0.213136,-0.0172906,-0.19253,0.428922,0.0059389,0.00350153,0.300638,0.23755294700002194,0.5356012528282084,0.005956570229862068,-0.017141975411430255,0.003507667517647084,-0.175130428254744
417,0.4076,518.027,100.189,-0.0133993,234.691,0.0905121,0.109304,0.2136,-0.0173505,-0.192932,0.429795,0.00593707,0.00350063,0.301278,0.2381273048081367,0.5369424180553706,0.005954729331022923,-0.01720084684388612,0.0035067643611528254,-0.17546195918040486
418,0.4086,518.314,100.224,-0.0131655,234.802,0.0657281,0.0953316,0.214063,-0.0174105,-0.193333,0.430668,0.00593518,0.00349968,0.301918,0.2387006904788025,0.5382847546309952,0.005952828078381156,-0.017259813024072312,0.003505811030179329,-0.1757925326503631
419,0.4096,518.601,100.259,-0.0129318,234.913,0.0410149,0.0814003,0.214525,-0.0174705,-0.193734,0.43154,0.00593323,0.00349871,0.302558,0.2392731024147794,0.5396267239506225,0.005950866472278937,-0.01731877566639395,0.0035048376300148565,-0.17612297358693452
420,0.4106,518.887,100.293,-0.0126982,235.024,0.0163727,0.0675102,0.214988,-0.0175304,-0.194135,0.432411,0.00593122,0.0034977,0.303197,0.23984701871256808,0.5409683230087574,0.00594884451306954,-0.01737763650883173,0.0035038240906406504,-0.1764532820432545
421,0.4116,519.172,100.328,-0.0124646,235.134,-0.00819835,0.0536612,0.21545,-0.0175904,-0.194535,0.433282,0.00592915,0.00349665,0.303836,0.24041996037454627,0.5423110911087157,0.005946762201116451,-0.01743659208195636,0.003502770412178613,-0.1767826348554834
422,0.4126,519.457,100.363,-0.0122311,235.245,-0.0326983,0.0398535,0.215912,-0.0176504,-0.194935,0.434152,0.00592703,0.00349557,0.304474,0.2409931667967271,0.5436534856149189,0.005944629596241091,-0.01749554411785259,0.003501686629771683,-0.1771118559529321
423,0.4136,519.741,100.398,-0.0119977,235.355,-0.0571269,0.0260871,0.216373,-0.0177103,-0.195335,0.435022,0.00592484,0.00349446,0.305112,0.24156539653544096,0.5449970485125191,0.005942426579914617,-0.017554394372177207,0.0035005727435177825,-0.17744094538827604
424,0.4146,520.025,100.433,-0.0117645,235.465,-0.0814841,0.0123621,0.216835,-0.0177703,-0.195735,0.43589,0.00592259,0.00349331,0.305749,0.2421391322713904,0.5463386881379901,0.005940163212001082,-0.017613339340148193,0.003499418718522662,-0.1777699032141694
425,0.4156,520.307,100.468,-0.0115313,235.575,-0.10577,-0.00132147,0.217296,-0.0178303,-0.196134,0.436758,0.00592029,0.00349213,0.306386,0.2427118904219776,0.547681492812214,0.005937849552286378,-0.01767228077152716,0.0034982345899072786,-0.17809790758156407
426,0.4166,520.59,100.502,-0.0112983,235.684,-0.129984,-0.0149636,0.217756,-0.0178902,-0.196533,0.437626,0.00591793,0.00349092,0.307023,0.24328366939065216,0.5490254635468923,0.00593547554176288,-0.01773112043964331,0.0034970203577779913,-0.178425781101322
427,0.4176,520.871,100.537,-0.0110653,235.793,-0.154127,-0.0285643,0.218217,-0.0179502,-0.196932,0.438493,0.00591551,0.00348967,0.307659,0.24385695529448892,0.5503690509847785,0.005933041180857579,-0.01779005480436835,0.0034957659872865143,-0.17875352382564103
428,0.4186,521.152,100.572,-0.0108326,235.902,-0.178197,-0.0421234,0.218677,-0.0180101,-0.19733,0.439359,0.00591303,0.00348839,0.308294,0.2444292611141714,0.5517122521050712,0.005930546470009013,-0.017848887418031145,0.003494481513528047,-0.17908031488742338
429,0.4196,521.432,100.607,-0.0106,236.011,-0.202196,-0.0556409,0.219137,-0.0180701,-0.197729,0.440224,0.00591049,0.00348708,0.30893,0.24500183025509004,0.5530550638855101,0.005927991409665934,-0.017907814716949466,0.003493166936618275,-0.17940779650485605
430,0.4206,521.712,100.641,-0.0103675,236.12,-0.226123,-0.0691168,0.219596,-0.01813,-0.198127,0.441089,0.0059079,0.00348573,0.309564,0.24557341726436044,0.5543990377006465,0.00592538605954207,-0.017966640277004786,0.00349181222175754,-0.17973432721792482
431,0.4216,521.99,100.676,-0.0101352,236.229,-0.249978,-0.082551,0.220056,-0.01819,-0.198524,0.441953,0.00590525,0.00348435,0.310199,0.24614651283817857,0.5557426188126786,0.005922720360800993,-0.01802556051096349,0.003490427404012175,-0.18005990805794636
432,0.4226,522.269,100.711,-0.00990307,236.337,-0.273762,-0.0959436,0.220515,-0.0182499,-0.198921,0.442817,0.00590255,0.00348294,0.310832,0.24671862537735456,0.5570873612804252,0.005920004373122678,-0.01808437901825699,0.0034890124835069702,-0.18038535966802827
433,0.4236,522.546,100.745,-0.00967112,236.445,-0.297473,-0.109294,0.220973,-0.0183099,-0.199319,0.44368,0.00589978,0.0034815,0.311466,0.24728975328608493,0.5584317076752441,0.005917217978569589,-0.018143292188103066,0.0034875674603693785,-0.18071150138837289
434,0.4246,522.823,100.78,-0.00943936,236.553,-0.321111,-0.122604,0.221432,-0.0183698,-0.199715,0.444542,0.00589697,0.00348003,0.312099,0.24786239069307459,0.5597756549653243,0.005914391355158477,-0.018202103643480405,0.003486092334729518,-0.18103587540352917
435,0.4256,523.099,100.814,-0.00920779,236.661,-0.344678,-0.135871,0.22189,-0.0184297,-0.200112,0.445404,0.00589409,0.00347852,0.312731,0.2484340425662983,0.5611207612374183,0.005911494325883115,-0.018260911576156946,0.0034845770718741065,-0.18136093963147526
436,0.4266,523.375,100.849,-0.00897642,236.768,-0.368172,-0.149096,0.222347,-0.0184897,-0.200508,0.446265,0.00589116,0.00347698,0.313364,0.24900470731071334,0.5624654650247529,0.005908547009522591,-0.018319814154367342,0.0034830317068152983,-0.18168505652000178
437,0.4276,523.65,100.883,-0.00874527,236.876,-0.391594,-0.16228,0.222805,-0.0185496,-0.200904,0.447125,0.00588818,0.00347542,0.313995,0.2495768824847746,0.5638097632900745,0.005905549406518995,-0.018378615036395485,0.0034814662745068503,-0.18200904508365034
438,0.4286,523.925,100.918,-0.00851433,236.983,-0.414944,-0.175422,0.223262,-0.0186095,-0.201299,0.447985,0.00588514,0.00347382,0.314627,0.2501480696263909,0.5651552181491686,0.005902491458296799,-0.018437412396356323,0.00347986070544537,-0.18233208770572418
439,0.4296,524.198,100.952,-0.00828361,237.09,-0.438221,-0.188522,0.223719,-0.0186694,-0.201695,0.448844,0.00588205,0.00347218,0.315257,0.2507195178601862,0.5665002640960859,0.005899383224400534,-0.0184962062344608,0.003478214999823148,-0.182655820095749
440,0.4306,524.472,100.987,-0.00805313,237.197,-0.461426,-0.20158,0.224176,-0.0187294,-0.20209,0.449703,0.0058789,0.00347052,0.315888,0.25129122730550635,0.5678464659338558,0.0058962146463339415,-0.018555094695415164,0.0034765492273689524,-0.182978607292143
441,0.4316,524.744,101.021,-0.00782288,237.303,-0.484558,-0.214596,0.224632,-0.0187893,-0.202485,0.450561,0.0058757,0.00346883,0.316518,0.2518619462191807,0.5691922554627746,0.005892995783597144,-0.018613881484561,0.003474853353433671,-0.1833012670127725
442,0.4326,525.016,101.055,-0.00759288,237.409,-0.507618,-0.227571,0.225088,-0.0188492,-0.202879,0.451418,0.00587244,0.0034671,0.317147,0.25243292544002505,0.5705376296361973,0.0058897165777760385,-0.018672664752483636,0.003473117343439025,-0.1836229829313717
443,0.4336,525.288,101.09,-0.00736313,237.516,-0.530605,-0.240503,0.225544,-0.0189091,-0.203273,0.452274,0.00586913,0.00346535,0.317777,0.2530041650867667,0.5718825854061105,0.005886387088324341,-0.018731444499394012,0.003471361267020301,-0.1839445721188666
444,0.4346,525.558,101.124,-0.00713364,237.622,-0.55352,-0.253394,0.226,-0.018969,-0.203667,0.45313,0.00586577,0.00346356,0.318405,0.25357566527818687,0.5732286929510524,0.005883007315741873,-0.01879022072550296,0.003469565054891266,-0.18426603462517943
445,0.4356,525.828,101.158,-0.00690442,237.727,-0.576362,-0.266242,0.226455,-0.0190289,-0.204061,0.453986,0.00586236,0.00346175,0.319033,0.2541461719863223,0.574575953257364,0.005879577260535118,-0.01884899343102131,0.003467748776622148,-0.1845873705002129
446,0.4366,526.098,101.193,-0.00667546,237.833,-0.599131,-0.279049,0.22691,-0.0190887,-0.204454,0.45484,0.00585889,0.0034599,0.319661,0.2547169383340733,0.5759212154666491,0.005876086864457841,-0.018907664506931487,0.0034658923630042082,-0.18490776470202186
447,0.4376,526.367,101.227,-0.00644679,237.939,-0.621828,-0.291813,0.227364,-0.0191486,-0.204848,0.455694,0.00585537,0.00345803,0.320289,0.2552867091522659,0.5772676270205612,0.005872546186863614,-0.018966430177778104,0.0034640158835399504,-0.18522884778520832
448,0.4386,526.635,101.261,-0.0062184,238.044,-0.644452,-0.304536,0.227819,-0.0192085,-0.20524,0.456548,0.0058518,0.00345612,0.320916,0.25585799456250524,0.5786151889010598,0.00586895522828379,-0.019025192328666507,0.0034620992690999053,-0.18554817548455826
449,0.4396,526.903,101.295,-0.0059903,238.149,-0.667003,-0.317217,0.228273,-0.0192684,-0.205633,0.457401,0.00584817,0.00345419,0.321542,0.25642828353783864,0.5799623221278314,0.0058653039306033605,-0.019083950959807416,0.0034601625891172993,-0.18586819216419648
450,0.4406,527.17,101.329,-0.0057625,238.254,-0.689482,-0.329856,0.228726,-0.0193282,-0.206025,0.458253,0.0058445,0.00345223,0.322168,0.25699757448494553,0.5813090236396639,0.005861612411711903,-0.019142607985677462,0.0034581958091259857,-0.18618726928966567
451,0.4416,527.437,101.364,-0.00553501,238.358,-0.711888,-0.342453,0.22918,-0.0193881,-0.206417,0.459104,0.00584077,0.00345023,0.322794,0.25756838094702417,0.5826552903740292,0.005857860554894678,-0.01920135958383118,0.0034561888947413077,-0.1865062213614137
452,0.4426,527.703,101.398,-0.00530782,238.463,-0.734221,-0.355007,0.229633,-0.0194479,-0.206809,0.459955,0.005837,0.00344821,0.323419,0.25813818847525405,0.5840027032690078,0.005854068477908481,-0.019260009588875526,0.003454161915287024,-0.18682504842845227
453,0.4436,527.968,101.432,-0.00508095,238.567,-0.756482,-0.36752,0.230086,-0.0195078,-0.2072,0.460806,0.00583317,0.00344616,0.324044,0.25870825418476806,0.5853512633003974,0.0058502160642035506,-0.01931875415488382,0.003452104836363601,-0.18714293768311752
454,0.4446,528.233,101.466,-0.00485441,238.671,-0.77867,-0.379991,0.230539,-0.0195676,-0.207592,0.461655,0.00582929,0.00344408,0.324669,0.2592785781925486,0.586697798046057,0.005846313372936507,-0.019377397139942576,0.0034500176581562236,-0.18746151520627163
455,0.4456,528.497,101.5,-0.00462819,238.775,-0.800785,-0.392421,0.230991,-0.0196275,-0.207983,0.462504,0.00582536,0.00344197,0.325293,0.2598479007671006,0.5880454764851448,0.005842360404692659,-0.01943613467464722,0.003447900380852742,-0.18777915565107228
456,0.4466,528.76,101.534,-0.0044023,238.879,-0.822828,-0.404808,0.231443,-0.0196873,-0.208373,0.463353,0.00582139,0.00343983,0.325916,0.26041748073362236,0.5893942995890691,0.005838367218448326,-0.01949477064056082,0.00344575300464367,-0.18809586001900236
457,0.4476,529.023,101.568,-0.00417676,238.983,-0.844798,-0.417153,0.231895,-0.0197471,-0.208764,0.464201,0.00581736,0.00343767,0.32654,0.26098731820848164,0.5907426775865894,0.005834313697996141,-0.019553403100148525,0.003443585564157914,-0.18841325248346452
458,0.4486,529.286,101.602,-0.00395156,239.086,-0.866695,-0.429456,0.232346,-0.0198069,-0.209154,0.465048,0.00581328,0.00343548,0.327162,0.26155615175131586,0.5920906074021974,0.005830209902368155,-0.019612032053619943,0.0034413880251118467,-0.18872970960184687
459,0.4496,529.548,101.636,-0.00372671,239.189,-0.88852,-0.441718,0.232798,-0.0198667,-0.209543,0.465894,0.00580916,0.00343325,0.327785,0.26212650402181015,0.5934380859591215,0.00582606589043988,-0.019670657501184796,0.0034391503533115486,-0.18904523237165427
460,0.4506,529.809,101.67,-0.00350221,239.292,-0.910272,-0.453938,0.233249,-0.0199265,-0.209933,0.46674,0.00580498,0.00343101,0.328407,0.2626958514533193,0.5947867049652469,0.005821861546271512,-0.019729279443052694,0.0034369026521321455,-0.18936144306593594
461,0.4516,530.07,101.704,-0.00327808,239.395,-0.931951,-0.466115,0.233699,-0.0199863,-0.210322,0.467586,0.00580076,0.00342873,0.329028,0.26326419245360744,0.5961364653858017,0.0058176169869719185,-0.019787897879433247,0.0034346148186021885,-0.18967672013921688
462,0.4526,530.33,101.738,-0.00305432,239.498,-0.953558,-0.478251,0.23415,-0.0200461,-0.210711,0.468431,0.00579649,0.00342642,0.329649,0.2638340530983203,0.5974857707002617,0.005813322154916811,-0.019846512810536177,0.003432296887319275,-0.18999187459356726
463,0.4536,530.59,101.772,-0.00283093,239.601,-0.975093,-0.490346,0.2346,-0.0201059,-0.2111,0.469275,0.00579217,0.00342409,0.33027,0.2644029064046092,0.5988346178241495,0.005808977050750563,-0.01990512423657098,0.003429958892791296,-0.19030690647667647
464,0.4546,530.849,101.805,-0.00260792,239.703,-0.996554,-0.502398,0.235049,-0.0201656,-0.211488,0.470118,0.0057878,0.00342173,0.33089,0.26497075078110743,0.6001830036717575,0.005804581675124876,-0.019963634154115617,0.0034275908008827294,-0.1906210064576267
465,0.4556,531.107,101.839,-0.00238529,239.805,-1.01794,-0.514409,0.235499,-0.0202254,-0.211877,0.470961,0.00578338,0.00341935,0.33151,0.2655401157164614,0.6015325266878844,0.005800136028698555,-0.020022238576503537,0.0034252026460583895,-0.19093579365603508
466,0.4566,531.365,101.873,-0.00216304,239.907,-1.03926,-0.526378,0.235948,-0.0202852,-0.212265,0.471804,0.00577892,0.00341693,0.332129,0.2661084708145891,0.6028831878315672,0.005795650170095534,-0.02008083949445172,0.0034227743600063754,-0.19124964967609126
467,0.4576,531.622,101.907,-0.00194119,240.009,-1.06051,-0.538305,0.236397,-0.0203449,-0.212652,0.472645,0.00577441,0.00341449,0.332748,0.26667708116145517,0.6042317795958843,0.005791114041942214,-0.02013933892210862,0.0034203260114238354,-0.19156257550661282
468,0.4586,531.879,101.941,-0.00171974,240.111,-1.08168,-0.55019,0.236846,-0.0204046,-0.21304,0.473486,0.00576986,0.00341203,0.333367,0.26724594687169145,0.6055815060029257,0.005786537702784367,-0.020197834857453967,0.0034178576004579853,-0.191876188382484
469,0.4596,532.135,101.974,-0.00149869,240.212,-1.10278,-0.562034,0.237294,-0.0204644,-0.213427,0.474327,0.00576526,0.00340953,0.333985,0.26781380024554835,0.6069323680073271,0.00578191109535231,-0.020256425275058554,0.0034153490589496904,-0.19218887178943822
470,0.4606,532.391,102.008,-0.00127805,240.313,-1.1238,-0.573837,0.237742,-0.0205241,-0.213814,0.475167,0.00576061,0.00340701,0.334603,0.2683819080747103,0.6082827582809651,0.005777234220339267,-0.0203149142205572,0.0034128204554559893,-0.19250143421132604
471,0.4616,532.646,102.042,-0.00105782,240.415,-1.14476,-0.585597,0.23819,-0.0205838,-0.2142,0.476006,0.00575591,0.00340447,0.33522,0.26895027047319897,0.6096326737255058,0.005772507078447342,-0.02037339967437002,0.0034102717901289825,-0.19281306850843172
472,0.4626,532.901,102.075,-0.000838006,240.516,-1.16564,-0.597316,0.238638,-0.0206435,-0.214586,0.476845,0.00575117,0.0034019,0.335837,0.2695188875550869,0.6109837222243542,0.005767739728062438,-0.020431881636705507,0.00340769302904409,-0.19312458253791198
473,0.4636,533.155,102.109,-0.000618614,240.616,-1.18645,-0.608994,0.239085,-0.0207032,-0.214972,0.477683,0.00574639,0.0033993,0.336453,0.27008648934737356,0.6123342923934432,0.0057629321697565405,-0.020490360107772054,0.003405084172433792,-0.19343597634618093
474,0.4646,533.408,102.143,-0.000399648,240.717,-1.20719,-0.62063,0.239532,-0.0207629,-0.215358,0.478521,0.00574156,0.00339668,0.33707,0.2706543449143759,0.6136859948146813,0.0057580743465257544,-0.02054883508777816,0.0034024552545570685,-0.19374724997963522
475,0.4656,533.661,102.176,-0.000181111,240.817,-1.22786,-0.632225,0.239979,-0.0208225,-0.215744,0.479357,0.00573668,0.00339403,0.337685,0.2712224543695565,0.6150356003628625,0.00575316625909883,-0.02060720863765786,0.003399796241573938,-0.1940584034846532
476,0.4666,533.914,102.21,3.69901e-05,240.918,-1.24845,-0.643778,0.240425,-0.0208822,-0.216129,0.480194,0.00573176,0.00339135,0.3383,0.2717895460362467,0.6163879510401735,0.005748217965693581,-0.020665676642014907,0.0033971071337233205,-0.19436863127662973
477,0.4676,534.166,102.244,0.000254653,241.018,-1.26898,-0.65529,0.240871,-0.0209419,-0.216514,0.481029,0.00572679,0.00338865,0.338915,0.27235689068223023,0.6177381986292083,0.005743219409471756,-0.020724141155936238,0.0033943979651915868,-0.19467873965389515
478,0.4686,534.417,102.277,0.000471873,241.118,-1.28943,-0.66676,0.241317,-0.0210015,-0.216899,0.481865,0.00572179,0.00338593,0.33953,0.27292448842036143,0.619091193236208,0.005738190705946389,-0.020782504257885637,0.0033916687361408293,-0.19498872866241523
479,0.4696,534.668,102.311,0.000688645,241.218,-1.30981,-0.67819,0.241763,-0.0210611,-0.217283,0.482699,0.00571673,0.00338318,0.340144,0.27349233936354445,0.620442078532234,0.005733101683576658,-0.020840863881497862,0.003388909412845864,-0.19529779364633415
480,0.4706,534.918,102.344,0.000904967,241.317,-1.33011,-0.689578,0.242208,-0.0211208,-0.217667,0.483533,0.00571163,0.0033804,0.340757,0.27405916956492726,0.6217940909365358,0.005727972457837627,-0.02089931793705313,0.003386119995554937,-0.1956067399720831
481,0.4716,535.168,102.378,0.00112083,241.417,-1.35035,-0.700924,0.242653,-0.0211804,-0.218051,0.484366,0.00570649,0.0033776,0.341371,0.2746262520618812,0.623145608243094,0.005722803029344581,-0.02095767059877751,0.0033833105183522783,-0.195915567685218
482,0.4726,535.417,102.411,0.00133624,241.516,-1.37051,-0.71223,0.243098,-0.02124,-0.218435,0.485199,0.00570131,0.00337478,0.341983,0.2751935869667028,0.6244982518325999,0.005717593398717913,-0.021016019782786888,0.0033804809814061976,-0.1962242768312774
483,0.4736,535.666,102.444,0.00155118,241.615,-1.39061,-0.723495,0.243543,-0.0212996,-0.218818,0.486031,0.00569608,0.00337193,0.342596,0.27576117439173853,0.6258503967924289,0.0057123335094591,-0.021074365489288538,0.003377621351110305,-0.19653206398824807
484,0.4746,535.914,102.478,0.00176566,241.714,-1.41063,-0.734718,0.243987,-0.0213592,-0.219201,0.486863,0.00569081,0.00336906,0.343208,0.27632773812100897,0.6272036672049881,0.005707033419427132,-0.02113270771848963,0.0033747416614695602,-0.19683973328530924
485,0.4756,536.162,102.511,0.00197967,241.813,-1.43058,-0.7459,0.244431,-0.0214187,-0.219584,0.487694,0.0056855,0.00336616,0.343819,0.27689455346042835,0.6285564354497939,0.005701693129258167,-0.021190948589697278,0.0033718318789377477,-0.19714728476759247
486,0.4766,536.409,102.545,0.0021932,241.912,-1.45046,-0.757042,0.244874,-0.0214783,-0.219967,0.488524,0.00568015,0.00336324,0.344431,0.27746034306075495,0.6299086984027114,0.005696312639592804,-0.021249283870752755,0.0033689020374663148,-0.19745471848021245
487,0.4776,536.655,102.578,0.00240625,242.01,-1.47026,-0.768142,0.245318,-0.0215379,-0.220349,0.489354,0.00567475,0.00336029,0.345041,0.2780276613884227,0.6312620841997958,0.005690881894167665,-0.021307615675128955,0.003365942103571218,-0.1977612322298995
488,0.4786,536.902,102.611,0.00261883,242.109,-1.49,-0.779202,0.245761,-0.0215974,-0.220731,0.490183,0.00566931,0.00335732,0.345652,0.2785939530667634,0.6326149611576171,0.005685410950651004,-0.02136584613962278,0.003362962111148393,-0.19806762891369523
489,0.4796,537.147,102.645,0.00283091,242.207,-1.50967,-0.790221,0.246204,-0.0216569,-0.221113,0.491012,0.00566383,0.00335433,0.346262,0.2791604956678928,0.6339689601154412,0.005679899809699629,-0.021424073139507116,0.0033599620603768088,-0.1983739085763102
490,0.4806,537.392,102.678,0.00304251,242.305,-1.52926,-0.801199,0.246646,-0.0217164,-0.221494,0.49184,0.00565831,0.00335131,0.346871,0.27972600957634497,0.6353224466805272,0.005674348471974344,-0.02148229667498791,0.003356931917867012,-0.1986792699421085
491,0.4816,537.637,102.711,0.00325362,242.403,-1.54878,-0.812136,0.247089,-0.021776,-0.221876,0.492667,0.00565275,0.00334827,0.347481,0.2802930537896071,0.6366754177203457,0.005668756938141284,-0.0215406145922149,0.0033538817174301183,-0.1989853160024715
492,0.4826,537.881,102.745,0.00346423,242.5,-1.56824,-0.823033,0.247531,-0.0218355,-0.222257,0.493494,0.00564715,0.00334521,0.348089,0.2808590683993959,0.6380295081300096,0.005663125208871245,-0.021598831193685553,0.0033508114592495364,-0.1992904444664111
493,0.4836,538.125,102.778,0.00367435,242.598,-1.58762,-0.833889,0.247972,-0.0218949,-0.222638,0.49432,0.00564151,0.00334212,0.348698,0.28142405181824737,0.6393830794517219,0.005657453284839908,-0.02165694649707106,0.003347711110032181,-0.1995954566985495
494,0.4846,538.368,102.811,0.00388396,242.695,-1.60693,-0.844704,0.248414,-0.0219544,-0.223018,0.495146,0.00563582,0.00333902,0.349306,0.28199056643965936,0.6407377692852274,0.005651731110210445,-0.021715156176999373,0.003344600736948866,-0.19989955264311532
495,0.4856,538.61,102.844,0.00409306,242.793,-1.62617,-0.85548,0.248855,-0.0220139,-0.223398,0.495971,0.0056301,0.00333588,0.349913,0.28255604895919006,0.6420919364620417,0.005645978798760165,-0.02177336239355465,0.0033414502398487755,-0.20020353305317518
496,0.4866,538.852,102.877,0.00430166,242.89,-1.64534,-0.866214,0.249296,-0.0220733,-0.223778,0.496795,0.00562433,0.00333273,0.35052,0.28312178091150786,0.6434455778413437,0.005640176238202788,-0.021831467330094778,0.003338289719258425,-0.20050739797262374
497,0.4876,539.094,102.911,0.00450975,242.987,-1.66444,-0.876908,0.249737,-0.0221328,-0.224158,0.497619,0.00561853,0.00332955,0.351127,0.28368776240663673,0.6448003350808136,0.005634343542095577,-0.021889666626342508,0.0033350991085701054,-0.20081114744533912
498,0.4886,539.335,102.944,0.00471733,243.083,-1.68347,-0.887562,0.250177,-0.0221922,-0.224537,0.498443,0.00561269,0.00332635,0.351733,0.2842527093012981,0.6461562091002993,0.005628470654678086,-0.021947764654616342,0.0033318884413902072,-0.20111398262956504
499,0.4896,539.575,102.977,0.00492438,243.18,-1.70243,-0.898176,0.250617,-0.0222516,-0.224917,0.499266,0.0056068,0.00332313,0.352339,0.28481790482728786,0.6475115533080289,0.005622547520429455,-0.02200585923196985,0.003328657717910799,-0.2014175016439007
500,0.4906,539.815,103.01,0.00513092,243.276,-1.72132,-0.908749,0.251057,-0.022311,-0.225296,0.500088,0.00560088,0.00331989,0.352945,0.28538334909402807,0.6488663645559858,0.005616594252569884,-0.022063950358607864,0.0033254069383261697,-0.20172010706342847
501,0.4916,540.055,103.043,0.00533694,243.373,-1.74014,-0.919283,0.251496,-0.0223704,-0.225674,0.500909,0.00559492,0.00331662,0.35355,0.2859477562625894,0.6502206396951613,0.005610600795528775,-0.02212203803473556,0.0033221260696096877,-0.20202179983943158
502,0.4926,540.294,103.076,0.00554243,243.469,-1.75889,-0.929776,0.251936,-0.0224298,-0.226053,0.501731,0.00558892,0.00331333,0.354155,0.2865136977733469,0.6515776787276222,0.005604567150024886,-0.022180122260557655,0.0033188251452449524,-0.20232417627333876
503,0.4936,540.533,103.109,0.00574571,243.565,-1.77757,-0.94023,0.252375,-0.0224892,-0.226431,0.502551,0.00558289,0.00331002,0.354759,0.28707860127391527,0.6529325278363967,0.005598503372767238,-0.022238203036279325,0.0033155041654298056,-0.20262564075433098
504,0.4946,540.771,103.142,0.00595414,243.661,-1.79618,-0.950643,0.252813,-0.0225485,-0.226809,0.503371,0.00557681,0.00330669,0.355363,0.28764246517845393,0.6542884883770652,0.005592389352453431,-0.022296182591728386,0.0033121631303638654,-0.20292699130328384
505,0.4956,541.009,103.175,0.00615504,243.756,-1.81472,-0.961017,0.253252,-0.0226079,-0.227186,0.50419,0.0055707,0.00330334,0.355967,0.28820786431669765,0.6556439056166423,0.005586245201724793,-0.022354256473671064,0.003308802040247194,-0.20322743119108522
506,0.4966,541.246,103.208,0.00635949,243.852,-1.83319,-0.971351,0.25369,-0.0226672,-0.227564,0.505009,0.00556455,0.00329996,0.35657,0.28877222294678595,0.6570004333976431,0.005580060865333802,-0.02241222914735541,0.0033054108622274647,-0.20352855430624084
507,0.4976,541.482,103.241,0.00656178,243.947,-1.85159,-0.981645,0.254128,-0.0227265,-0.227941,0.505827,0.00555836,0.00329657,0.357173,0.2893368288200966,0.6583564142727303,0.005573836344021865,-0.022470198383362172,0.0033020096626494855,-0.20382876744753442
508,0.4986,541.719,103.274,0.0067643,244.043,-1.86993,-0.9919,0.254566,-0.0227858,-0.228318,0.506645,0.00555214,0.00329315,0.357775,0.2899016820449458,0.6597135047939569,0.005567581694211787,-0.022528164181895183,0.003298578375644068,-0.20412886742980563
509,0.4996,541.954,103.307,0.00696592,244.138,-1.88819,-1.00211,0.255003,-0.0228451,-0.228695,0.507462,0.00554587,0.00328971,0.358377,0.29046549226355967,0.661070044798509,0.005561276805240434,-0.02258612654315817,0.0032951270344707684,-0.20442885429570734
510,0.5006,542.19,103.34,0.00716719,244.233,-1.90639,-1.01229,0.25544,-0.0229044,-0.229071,0.508278,0.00553958,0.00328625,0.358979,0.2910295489210821,0.6624260311222436,0.005554951844701339,-0.02264408546735508,0.0032916556393367546,-0.20472793281620671
511,0.5016,542.424,103.373,0.0073678,244.327,-1.92451,-1.02243,0.255877,-0.0229637,-0.229447,0.509094,0.00553324,0.00328277,0.35958,0.29159385212523037,0.6637831243823873,0.005548576646515979,-0.02270204095468964,0.0032881641904503045,-0.20502689890432113
512,0.5026,542.659,103.406,0.00756793,244.422,-1.94257,-1.03252,0.256314,-0.0230229,-0.229823,0.50991,0.00552687,0.00327927,0.360181,0.29215840198376886,0.6651413254825682,0.005542171322483691,-0.022759895281360132,0.003284652688020584,-0.2053257526023169
513,0.5036,542.893,103.438,0.00776747,244.517,-1.96056,-1.04258,0.25675,-0.0230821,-0.230199,0.510724,0.00552046,0.00327575,0.360781,0.2927219058819568,0.6664973023292153,0.005535725817823467,-0.022817746183155907,0.0032811211322587575,-0.2056244939524451
514,0.5046,543.126,103.471,0.00796647,244.611,-1.97848,-1.0526,0.257186,-0.0231414,-0.230574,0.511539,0.00551402,0.00327221,0.361381,0.2932856555214123,0.6678560512455876,0.005529250188600843,-0.02287569137271539,0.0032775695233762114,-0.20592232891966633
515,0.5056,543.359,103.504,0.00816491,244.705,-1.99633,-1.06258,0.257622,-0.0232006,-0.230949,0.512352,0.00550754,0.00326865,0.361981,0.2938496510093016,0.6692125695652293,0.005522734380170702,-0.022933535419585427,0.0032739978615863308,-0.20622005221971373
516,0.5066,543.591,103.537,0.0083628,244.799,-2.01412,-1.07252,0.258057,-0.0232598,-0.231324,0.513165,0.00550102,0.00326507,0.36258,0.29441259803959263,0.6705701911826945,0.005516178393315085,-0.02299137604218937,0.0032704061471031665,-0.2065176638944547
517,0.5076,543.823,103.57,0.00856012,244.893,-2.03184,-1.08242,0.258492,-0.023319,-0.231699,0.513978,0.00549447,0.00326146,0.363179,0.29497579000511154,0.6719289169953293,0.0055095922839161204,-0.023049213240729616,0.003266784347474294,-0.20681516398574085
518,0.5086,544.055,103.602,0.00875689,244.987,-2.04948,-1.09228,0.258927,-0.0233781,-0.232073,0.51479,0.00548788,0.00325784,0.363777,0.2955392270124282,0.6732870746132977,0.005502965997536746,-0.023106949326109016,0.003263152528288682,-0.20711175964756412
519,0.5096,544.286,103.635,0.00895308,245.081,-2.06706,-1.1021,0.259362,-0.0234373,-0.232447,0.515601,0.00548126,0.0032542,0.364375,0.29610290916815885,0.6746446608576218,0.005496309589934523,-0.023164779682913417,0.0032595006570597107,-0.2074082444033507
520,0.5106,544.516,103.668,0.00914872,245.174,-2.08458,-1.11189,0.259797,-0.0234964,-0.232821,0.516412,0.00547461,0.00325054,0.364973,0.2966668365789664,0.6760033485509673,0.005489623061708526,-0.02322250893851785,0.0032558287340069825,-0.20770461829457154
521,0.5116,544.746,103.7,0.00934379,245.267,-2.10202,-1.12163,0.260231,-0.0235556,-0.233195,0.517223,0.00546792,0.00324686,0.36557,0.2972297121211993,0.6773631385869714,0.005482896358631084,-0.023280332454395758,0.0032521367593505435,-0.20800088136268235
522,0.5126,544.976,103.733,0.00953828,245.361,-2.1194,-1.13134,0.260665,-0.0236147,-0.233568,0.518032,0.0054612,0.00324316,0.366167,0.2977928320044356,0.6787206744152909,0.0054761395362703524,-0.023338054881033243,0.003248424733311772,-0.2082962419457609
523,0.5136,545.205,103.766,0.00973221,245.454,-2.13671,-1.14101,0.261098,-0.0236738,-0.233941,0.518842,0.00545444,0.00323944,0.366764,0.29835489797919545,0.6800809890146047,0.005469342540540989,-0.023395773896376038,0.0032446926561133793,-0.20859149237988595
524,0.5146,545.434,103.798,0.00992557,245.547,-2.15395,-1.15064,0.261532,-0.0237329,-0.234314,0.51965,0.00544765,0.0032357,0.36736,0.2989185062990771,0.6814390430336668,0.005462515426883252,-0.023453489500625868,0.003240940527979408,-0.2088866327061355
525,0.5156,545.662,103.831,0.0101183,245.639,-2.17113,-1.16023,0.261965,-0.0237919,-0.234687,0.520458,0.00544082,0.00323194,0.367956,0.29948105979634754,0.682798194803808,0.005455648141354796,-0.023511104045099485,0.003237168349134789,-0.20918166296557217
526,0.5166,545.89,103.864,0.0103106,245.732,-2.18824,-1.16978,0.262397,-0.023851,-0.235059,0.521266,0.00543396,0.00322817,0.368551,0.300042556888819,0.6841584452123697,0.00544875073926665,-0.023568812833538955,0.003233386152139417,-0.20947579267543104
527,0.5176,546.118,103.896,0.0105022,245.825,-2.20528,-1.1793,0.26283,-0.02391,-0.235431,0.522073,0.00542707,0.00322437,0.369146,0.3006055972053834,0.6855181096284579,0.005441823221239428,-0.023626420574136775,0.0032295738725154344,-0.2097698129893868
528,0.5186,546.345,103.929,0.0106932,245.917,-2.22226,-1.18878,0.263262,-0.0239691,-0.235803,0.522879,0.00542015,0.00322056,0.369741,0.30116758020296364,0.6868771848585609,0.005434865587896187,-0.023684122547570685,0.0032257515751203947,-0.210063723948127
529,0.5196,546.571,103.961,0.0108837,246.009,-2.23917,-1.19822,0.263694,-0.0240281,-0.236175,0.523685,0.00541319,0.00321673,0.370335,0.3017298060296463,0.68823735594487,0.005427867785583906,-0.023741723485096067,0.0032219092278500394,-0.21035752559232435
530,0.5206,546.797,103.994,0.0110736,246.101,-2.25601,-1.20762,0.264126,-0.0240871,-0.236546,0.52449,0.0054062,0.00321287,0.370929,0.3022922747903558,0.6895969341732224,0.005420839869350713,-0.023799321024266296,0.003218036798754209,-0.2106504286134595
531,0.5216,547.023,104.026,0.0112629,246.193,-2.27279,-1.21698,0.264558,-0.024146,-0.236917,0.525295,0.00539918,0.003209,0.371522,0.3028549865900627,0.6909576073026873,0.0054137818398285464,-0.02385681755096858,0.0032141543524644156,-0.21094322298772916
532,0.5226,547.248,104.059,0.0114516,246.285,-2.2895,-1.22631,0.264989,-0.024205,-0.237288,0.526099,0.00539212,0.00320512,0.372115,0.30341663811649244,0.6923176838964848,0.005406683643585541,-0.023914408299789303,0.0032102618890967882,-0.21123590875543363
533,0.5236,547.473,104.091,0.0116398,246.377,-2.30614,-1.23559,0.26542,-0.024264,-0.237659,0.526903,0.00538504,0.00320121,0.372708,0.30397853176690415,0.6936788544315693,0.005399565389463845,-0.02397199565085606,0.003206339344641318,-0.2115284859568587
534,0.5246,547.697,104.124,0.0118273,246.468,-2.32272,-1.24484,0.265851,-0.0243229,-0.238029,0.527706,0.00537792,0.00319729,0.3733,0.30454066764567567,0.6950394247475506,0.005392406970042396,-0.024029482007322467,0.0032024067834990344,-0.2118201664528353
535,0.5256,547.921,104.156,0.0120143,246.56,-2.33924,-1.25406,0.266281,-0.0243818,-0.238399,0.528509,0.00537077,0.00319334,0.373892,0.30510174075483665,0.6964010880402671,0.005385218440031592,-0.02408696497794205,0.0031984441418184684,-0.21211173904699143
536,0.5266,548.145,104.189,0.0122007,246.651,-2.35568,-1.26323,0.266711,-0.0244407,-0.238769,0.529311,0.00536359,0.00318938,0.374483,0.3056630551773132,0.6977621474247353,0.005377999800078026,-0.024144444562914535,0.0031944714838454402,-0.2124032037792435
537,0.5276,548.368,104.221,0.0123865,246.742,-2.37207,-1.27237,0.267141,-0.0244996,-0.239139,0.530112,0.00535637,0.00318541,0.375075,0.30622461101689225,0.6991225996932173,0.005370740997123757,-0.02420192076243899,0.00319048880969941,-0.21269456068949288
538,0.5286,548.59,104.253,0.0125717,246.833,-2.38838,-1.28147,0.267571,-0.0245585,-0.239508,0.530913,0.00534913,0.00318141,0.375665,0.3067864083774057,0.7004841421205164,0.005363462139308606,-0.024259393576715138,0.003186476055769605,-0.21298502280304266
539,0.5296,548.812,104.286,0.0127563,246.924,-2.40464,-1.29053,0.268,-0.0246173,-0.239877,0.531713,0.00534186,0.0031774,0.376256,0.3073471400149361,0.7018450737342752,0.005356153173506906,-0.024316765437623622,0.0031824532860662558,-0.21327537775584493
540,0.5306,549.034,104.318,0.0129403,247.015,-2.42082,-1.29956,0.268429,-0.0246762,-0.240246,0.532513,0.00533455,0.00317337,0.376846,0.307908112257945,0.7032070945289395,0.005348804046888311,-0.024374231487747533,0.003178410468925863,-0.21356562558743475
541,0.5316,549.255,104.35,0.0131237,247.105,-2.43695,-1.30855,0.268858,-0.024735,-0.240615,0.533313,0.00532722,0.00316932,0.377435,0.3084693252096746,0.7045702053762024,0.005341434867162764,-0.024431596596385274,0.003174347604590677,-0.2138557663373325
542,0.5326,549.476,104.383,0.0133065,247.196,-2.453,-1.3175,0.269287,-0.0247938,-0.240983,0.534111,0.00531985,0.00316526,0.378025,0.309030778973411,0.7059309952830521,0.005334025528091146,-0.02448895833205389,0.003170274725007305,-0.21414501419045118
543,0.5336,549.697,104.415,0.0134888,247.286,-2.469,-1.32642,0.269715,-0.0248526,-0.241351,0.53491,0.00531246,0.00316118,0.378614,0.3095911640606659,0.7072945788273666,0.005326596137094075,-0.024546316694951553,0.0031661817986361473,-0.21443415561994295
544,0.5346,549.917,104.447,0.0136704,247.376,-2.48493,-1.33529,0.270143,-0.0249114,-0.241719,0.535707,0.00530503,0.00315708,0.379202,0.31015178904407215,0.7086558349952181,0.005319126588234191,-0.024603671685276662,0.0031620688257223417,-0.2147231906649647
545,0.5356,550.137,104.479,0.0138514,247.466,-2.50079,-1.34414,0.270571,-0.0249702,-0.242087,0.536505,0.00529757,0.00315297,0.37979,0.3107126540263274,0.7100198865357228,0.005311626935523561,-0.024661023303227503,0.0031579458380921466,-0.21501211936465858
546,0.5366,550.356,104.512,0.0140319,247.556,-2.51659,-1.35294,0.270999,-0.0250289,-0.242455,0.537301,0.00529009,0.00314883,0.380378,0.3112737591101733,0.7113816042571579,0.005304107232677824,-0.024718274020834596,0.0031537927727933734,-0.2153009417581525
547,0.5376,550.575,104.544,0.0142117,247.646,-2.53233,-1.36171,0.271426,-0.0250876,-0.242822,0.538097,0.00528258,0.00314469,0.380965,0.3118337925639465,0.7127444063374169,0.005296557427182158,-0.02477552137792316,0.003149639724687958,-0.21558887347382572
548,0.5386,550.793,104.576,0.014391,247.736,-2.54801,-1.37044,0.271853,-0.0251463,-0.243189,0.538893,0.00527503,0.00314052,0.381552,0.312394065203067,0.7141082936399925,0.0052889674668257225,-0.02483276537469059,0.003145456599412233,-0.21587669953794741
549,0.5396,551.011,104.608,0.0145696,247.825,-2.56362,-1.37914,0.27228,-0.025205,-0.243556,0.539688,0.00526746,0.00313634,0.382139,0.31295457712968844,0.7154715515566572,0.005281357458145841,-0.024890006011333954,0.0031412634601672984,-0.21616441998928482
550,0.5406,551.228,104.64,0.0147477,247.915,-2.57916,-1.3878,0.272706,-0.0252637,-0.243922,0.540482,0.00525986,0.00313214,0.382725,0.3135140149313371,0.716834176859251,0.005273717348861728,-0.024947243288050536,0.0031370502757084306,-0.21645125131823362
551,0.5416,551.446,104.672,0.0149251,248.004,-2.59465,-1.39642,0.273133,-0.0253224,-0.244288,0.541276,0.00525223,0.00312793,0.383311,0.31407500517860676,0.7181978845159727,0.005266047139660168,-0.025004477205037623,0.003132827077616529,-0.21673797768612513
552,0.5426,551.662,104.705,0.015102,248.093,-2.61007,-1.40501,0.273558,-0.025381,-0.244654,0.54207,0.00524457,0.0031237,0.383896,0.3146336057500212,0.7195626753865529,0.005258346831231275,-0.025061610268658385,0.003128583834732579,-0.21702459913136796
553,0.5436,551.879,104.737,0.0152782,248.182,-2.62543,-1.41356,0.273984,-0.0254397,-0.24502,0.542862,0.00523689,0.00311945,0.384482,0.3151937589702354,0.7209251084777462,0.005250626476773768,-0.025118837472500655,0.0031243205473108215,-0.21731111569235684
554,0.5446,552.094,104.769,0.0154538,248.271,-2.64072,-1.42208,0.27441,-0.0254983,-0.245386,0.543655,0.00522917,0.00311519,0.385066,0.3157541508665558,0.7222903433328451,0.0052428659718930515,-0.025175963834806026,0.003120047246807367,-0.2175975274074723
555,0.5456,552.31,104.801,0.0156289,248.36,-2.65595,-1.43056,0.274835,-0.0255569,-0.245751,0.544447,0.00522143,0.00311092,0.385651,0.3163134652265567,0.7236549375927617,0.005235085422221175,-0.02523308684960468,0.003115763933350557,-0.21788305219852433
556,0.5466,552.525,104.833,0.0158033,248.448,-2.67112,-1.43901,0.27526,-0.0256155,-0.246116,0.545238,0.00521366,0.00310662,0.386235,0.31687301734568085,0.7250188880196748,0.005227274775951862,-0.025290206517092684,0.0031114505448393004,-0.21816847279204477
557,0.5476,552.74,104.865,0.0159772,248.537,-2.68623,-1.44742,0.275685,-0.025674,-0.246481,0.546029,0.00520587,0.00310232,0.386818,0.31743280732499746,0.7263839177581872,0.00521944408598185,-0.025347225372193583,0.0031071371748756516,-0.21845378922605885
558,0.5486,552.954,104.897,0.0161504,248.625,-2.70128,-1.45579,0.276109,-0.0257326,-0.246845,0.546819,0.00519804,0.00309799,0.387401,0.317991517273442,0.7277482999132083,0.005211573248549151,-0.025404338351360245,0.003102793730375364,-0.2187382202771888
559,0.5496,553.168,104.929,0.016323,248.714,-2.71626,-1.46413,0.276533,-0.0257911,-0.24721,0.547608,0.00519019,0.00309365,0.387984,0.3185504641651331,0.7291120312431034,0.005203682368670748,-0.025461350529944138,0.0030984402736975447,-0.21902332879131847
560,0.5506,553.381,104.961,0.016495,248.802,-2.73118,-1.47243,0.276957,-0.0258496,-0.247574,0.548398,0.00518231,0.0030893,0.388567,0.3191096481005562,0.7304785694593097,0.0051957613948623305,-0.02551835937341318,0.0030940768049729783,-0.2193075525677729
561,0.5516,553.594,104.993,0.0166665,248.89,-2.74604,-1.4807,0.277381,-0.0259081,-0.247938,0.549186,0.00517441,0.00308493,0.389149,0.31966906918023885,0.7318427239783352,0.005187820379714436,-0.025575364881962548,0.003089693293435225,-0.21959167290559967
562,0.5526,553.807,105.025,0.0168373,248.978,-2.76084,-1.48893,0.277804,-0.0259666,-0.248301,0.549974,0.00516648,0.00308055,0.389731,0.3202274072766842,0.7332079538747651,0.005179849271904402,-0.025632367055787086,0.0030852997702004448,-0.21987490971774337
563,0.5536,554.019,105.057,0.0170075,249.065,-2.77558,-1.49713,0.278228,-0.026025,-0.248665,0.550762,0.00515852,0.00307615,0.390312,0.3207873023867449,0.7345742599963303,0.005171848072148988,-0.02568926846401376,0.0030808862045912377,-0.22015882357514927
564,0.5546,554.231,105.089,0.0171771,249.153,-2.79026,-1.5053,0.27865,-0.0260835,-0.249028,0.551549,0.00515054,0.00307173,0.390893,0.32134479225044,0.7359399072506554,0.005163826832806029,-0.02574626397467361,0.003076452596872503,-0.22044185454896192
565,0.5556,554.443,105.121,0.0173461,249.24,-2.80487,-1.51342,0.279073,-0.0261419,-0.249391,0.552336,0.00514253,0.0030673,0.391474,0.32190383932768296,0.7373066296924005,0.005155775502798887,-0.025803158731514397,0.003072008978030283,-0.22072478280117602
566,0.5566,554.654,105.152,0.0175145,249.328,-2.81943,-1.52152,0.279496,-0.0262003,-0.249753,0.553122,0.00513449,0.00306286,0.392054,0.3224631229318615,0.7386726894945119,0.005147694082851206,-0.02586005016579851,0.0030675553481973594,-0.2210068293762919
567,0.5576,554.865,105.184,0.0176823,249.415,-2.83392,-1.52958,0.279918,-0.0262587,-0.250116,0.553907,0.00512643,0.0030584,0.392634,0.3230213201410661,0.7400380834027585,0.005139592625085676,-0.025916938277719792,0.0030630816768768554,-0.22128955257986238
568,0.5586,555.075,105.216,0.0178495,249.502,-2.84835,-1.5376,0.28034,-0.0263171,-0.250478,0.554692,0.00511834,0.00305393,0.393214,0.3235797529592028,0.7414045495660277,0.0051314610786734605,-0.025973823067472313,0.003058597994922696,-0.22157139474531862
569,0.5596,555.285,105.248,0.0180161,249.589,-2.86273,-1.54559,0.280761,-0.0263754,-0.25084,0.555477,0.00511023,0.00304944,0.393793,0.3241370973479605,0.7427720888263707,0.0051233094955789316,-0.02603060713831573,0.003054094271928598,-0.2218531349023758
570,0.5606,555.494,105.28,0.0181821,249.676,-2.87704,-1.55355,0.281183,-0.0264338,-0.251202,0.55626,0.00510209,0.00304494,0.394372,0.32469600112344366,0.7441372137485835,0.005115127825139121,-0.0260874852900006,0.0030495805386603347,-0.22213477308795393
571,0.5616,555.704,105.312,0.0183474,249.763,-2.89129,-1.56147,0.281604,-0.0264921,-0.251563,0.557044,0.00509393,0.00304043,0.39495,0.3252538155516149,0.7455051534864721,0.005106926119158972,-0.026144262734529633,0.0030450567952531316,-0.2224155317548807
572,0.5626,555.912,105.343,0.0185122,249.849,-2.90549,-1.56936,0.282025,-0.0265504,-0.251925,0.557827,0.00508574,0.0030359,0.395528,0.3258118648691011,0.7468724192363383,0.005098694327143383,-0.02620103686903008,0.0030405130114374845,-0.2226969663896432
573,0.5636,556.121,105.375,0.0186764,249.936,-2.91962,-1.57721,0.282445,-0.0266086,-0.252286,0.558609,0.00507753,0.00303136,0.396106,0.3263688228053254,0.7482390077346424,0.005090442500736758,-0.026257710319470995,0.0030359592178454964,-0.22297752214141653
574,0.5646,556.329,105.407,0.0188399,250.022,-2.9337,-1.58503,0.282866,-0.0266669,-0.252647,0.559391,0.00506929,0.0030268,0.396683,0.3269273416396916,0.7496066653231115,0.005082160589612084,-0.026314477840170047,0.0030313853842998117,-0.22325797663084235
575,0.5656,556.536,105.438,0.0190029,250.109,-2.94771,-1.59282,0.283286,-0.0267252,-0.253007,0.560172,0.00506103,0.00302223,0.39726,0.3274847681745585,0.7509736418635844,0.00507385864525256,-0.026371242051419053,0.0030268015413428273,-0.22353755343241155
576,0.5666,556.744,105.47,0.0191653,250.195,-2.96167,-1.60057,0.283706,-0.0267834,-0.253367,0.560953,0.00505274,0.00301764,0.397837,0.32804242887774193,0.7523416864297452,0.005065526617500815,-0.026427905596206558,0.0030221976588895583,-0.2238170296044466
577,0.5676,556.951,105.502,0.019327,250.281,-2.97557,-1.60829,0.284125,-0.0268416,-0.253728,0.561734,0.00504444,0.00301305,0.398413,0.32859899524795355,0.7537107998560475,0.005057184608249221,-0.026484565843271635,0.0030175937975682743,-0.22409718108637444
578,0.5686,557.157,105.534,0.0194882,250.367,-2.9894,-1.61598,0.284544,-0.0268998,-0.254087,0.562513,0.0050361,0.00300844,0.398989,0.329155794868337,0.7550774728191418,0.005048802466283142,-0.02654122279280635,0.0030129698971188557,-0.2243756802047815
579,0.5696,557.363,105.565,0.0196487,250.453,-3.00318,-1.62363,0.284964,-0.026958,-0.254447,0.563293,0.00502774,0.00300381,0.399565,0.3297141575501368,0.7564469672813476,0.005040400293415681,-0.026597876445002555,0.00300832595781908,-0.22465485470548252
580,0.5706,557.569,105.597,0.0198087,250.538,-3.01691,-1.63125,0.285382,-0.0270161,-0.254807,0.564071,0.00501936,0.00299917,0.40014,0.33027009425066867,0.7578140147343975,0.005031978090150213,-0.026654429465499896,0.003003672009983749,-0.2249339287214518
581,0.5716,557.774,105.628,0.019968,250.624,-3.03057,-1.63884,0.285801,-0.0270742,-0.255166,0.56485,0.00501096,0.00299452,0.400715,0.3308275942082446,0.7591838853472046,0.005023535856991668,-0.02671097920036225,0.0029990080537525277,-0.22521212750137187
582,0.5726,557.979,105.66,0.0201267,250.709,-3.04418,-1.64639,0.286219,-0.0271324,-0.255525,0.565627,0.00500253,0.00298986,0.401289,0.33138399642258487,0.7605513023988484,0.005015063544295373,-0.026767622973023042,0.002994334089265527,-0.22549022642585514
583,0.5736,558.184,105.692,0.0202849,250.795,-3.05772,-1.65391,0.286637,-0.0271904,-0.255883,0.566405,0.00499408,0.00298518,0.401864,0.3319406312616662,0.7619215442670859,0.00500657120288861,-0.02682406881394539,0.0029896400867659434,-0.22576745129858156
584,0.5746,558.388,105.723,0.0204424,250.88,-3.07121,-1.6614,0.287055,-0.0272485,-0.256242,0.567181,0.00498561,0.00298049,0.402437,0.3324974988227456,0.7632893260161187,0.004998058833280528,-0.02688060869304798,0.0029849360763847255,-0.2260453508976027
585,0.5756,558.592,105.755,0.0205994,250.965,-3.08464,-1.66885,0.287473,-0.0273066,-0.2566,0.567958,0.00497711,0.00297579,0.403011,0.3330545992031213,0.7646599342347697,0.004989516386085802,-0.026937145287278863,0.0029802220582630934,-0.2263223770713375
586,0.5766,558.796,105.786,0.0207557,251.05,-3.09802,-1.67627,0.28789,-0.0273646,-0.256958,0.568733,0.00496859,0.00297107,0.403584,0.3336105988888667,0.7660280757701685,0.004980953911882358,-0.026993581296192115,0.002975488002787463,-0.22659930408745244
587,0.5776,558.999,105.818,0.0209114,251.135,-3.11134,-1.68366,0.288307,-0.0274226,-0.257316,0.569509,0.00496005,0.00296634,0.404156,0.33416683047482887,0.7673990454243949,0.004972371411183341,-0.027050014031911873,0.0029707439399488944,-0.22687613198143952
588,0.5786,559.202,105.849,0.0210666,251.219,-3.1246,-1.69102,0.288724,-0.0274806,-0.257674,0.570283,0.00495149,0.0029616,0.404729,0.33472329405773027,0.768767541825341,0.004963768884502784,-0.027106443494627763,0.002965989869889718,-0.22715286078877805
589,0.5796,559.404,105.881,0.0212211,251.304,-3.1378,-1.69834,0.289141,-0.0275386,-0.258031,0.571058,0.0049429,0.00295685,0.405301,0.3352799897343339,0.7701388679905068,0.004955136282805306,-0.027162869684529745,0.0029612257927527086,-0.22742871797403907
590,0.5806,559.606,105.912,0.0213751,251.389,-3.15095,-1.70564,0.289557,-0.0275966,-0.258388,0.571831,0.0049343,0.00295208,0.405872,0.33583558176519346,0.771507714326412,0.004946493705796362,-0.027219292601807554,0.0029564416791156845,-0.2277044766958618
591,0.5816,559.808,105.944,0.0215284,251.473,-3.16404,-1.7129,0.289973,-0.0276545,-0.258745,0.572604,0.00492567,0.0029473,0.406444,0.33639140497041886,0.7728776191896027,0.0049378210549781976,-0.027275614974217488,0.002951647558782522,-0.22798013698939124
592,0.5826,560.009,105.975,0.0216811,251.557,-3.17707,-1.72012,0.290389,-0.0277125,-0.259102,0.573377,0.00491702,0.00294251,0.407015,0.3369474594461985,0.7742485833986372,0.004929128380422032,-0.027332031352458208,0.00294684343189644,-0.22825569888976016
593,0.5836,560.21,106.006,0.0218333,251.641,-3.19005,-1.72732,0.290805,-0.0277704,-0.259458,0.574149,0.00490834,0.00293771,0.407585,0.3375037452887608,0.7756188321529862,0.004920405633444425,-0.02738834719748351,0.002942029298601989,-0.2285303909628652
594,0.5846,560.411,106.038,0.0219849,251.726,-3.20297,-1.73448,0.29122,-0.0278283,-0.259814,0.574921,0.00489965,0.0029329,0.408155,0.33805892453478137,0.776990139147802,0.004911672913063159,-0.02744465978191568,0.002937205159043055,-0.22880498526299697
595,0.5856,560.611,106.069,0.0221358,251.809,-3.21584,-1.74162,0.291635,-0.0278861,-0.26017,0.575692,0.00489093,0.00292807,0.408725,0.33861433422800324,0.7783607268387454,0.004902910121481252,-0.02750087185603567,0.002932360984040816,-0.2290794818249563
596,0.5866,560.811,106.1,0.0222862,251.893,-3.22865,-1.74872,0.29205,-0.027944,-0.260526,0.576463,0.0048822,0.00292323,0.409295,0.33916997446408237,0.7797323716602698,0.004894137357368988,-0.02755717792547885,0.0029275068031608953,-0.22935388068353169
597,0.5876,561.011,106.132,0.022436,251.977,-3.24141,-1.75579,0.292464,-0.0280018,-0.260882,0.577233,0.00487344,0.00291838,0.409864,0.33972450561353806,0.7811032933235535,0.004885334523282214,-0.027613383496238098,0.0029226426165485098,-0.22962818187349954
598,0.5886,561.21,106.163,0.0225851,252.061,-3.25411,-1.76282,0.292879,-0.0280596,-0.261237,0.578003,0.00486466,0.00291352,0.410432,0.34028060666635485,0.7824752710030323,0.00487651166877745,-0.02766958581840928,0.002917768424349765,-0.229901615331624
599,0.5896,561.409,106.194,0.0227337,252.144,-3.26675,-1.76983,0.293293,-0.0281174,-0.261592,0.578772,0.00485586,0.00290864,0.411001,0.3408355977127344,0.7838465216647377,0.004867668794383606,-0.027725784892180028,0.002912874197581683,-0.23017495173809854
600,0.5906,561.607,106.226,0.0228817,252.227,-3.27934,-1.77681,0.293707,-0.0281752,-0.261947,0.579541,0.00484705,0.00290376,0.411569,0.3413908185729755,0.7852188272237579,0.00485881594921822,-0.027781980717738297,0.002907979994697385,-0.23044819112737036
601,0.5916,561.805,106.257,0.0230291,252.311,-3.29188,-1.78375,0.29412,-0.0282329,-0.262301,0.580309,0.00483821,0.00289886,0.412137,0.34194492739664195,0.7865904019003258,0.004849933036547904,-0.027838076079084173,0.002903065757635437,-0.23072056425482335
602,0.5926,562.003,106.288,0.0231759,252.394,-3.30436,-1.79066,0.294534,-0.0282907,-0.262656,0.581077,0.00482935,0.00289396,0.412704,0.34250060761445256,0.7879630303508429,0.004841030105581234,-0.027894265414399322,0.002898151544653116,-0.23099360998602803
603,0.5936,562.201,106.319,0.0233222,252.477,-3.31678,-1.79754,0.294947,-0.0283484,-0.26301,0.581844,0.00482047,0.00288904,0.413271,0.34305517487565407,0.7893349240490997,0.004832107156851784,-0.02795035429710513,0.0028932172978857196,-0.23126579006937587
604,0.5946,562.398,106.351,0.0234678,252.56,-3.32915,-1.8044,0.29536,-0.0284061,-0.263364,0.582611,0.00481157,0.00288411,0.413838,0.343609971220437,0.7907078703934609,0.004823164190894236,-0.028006439943575656,0.0028882730465120687,-0.23153787381802637
605,0.5956,562.595,106.382,0.0236128,252.643,-3.34147,-1.81122,0.295772,-0.0284637,-0.263718,0.583377,0.00480265,0.00287916,0.414404,0.34416365257910764,0.7920800781106421,0.004814201208244606,-0.028062425160245263,0.0028833087618469477,-0.23180986126607617
606,0.5966,562.791,106.413,0.0237573,252.725,-3.35374,-1.81801,0.296185,-0.0285214,-0.264071,0.584143,0.00479371,0.00287421,0.41497,0.34471890681973094,0.7934533373416128,0.004805218209440021,-0.02811850434041352,0.002878344501755281,-0.23208098452897796
607,0.5976,562.987,106.444,0.0239012,252.808,-3.36595,-1.82477,0.296597,-0.028579,-0.264424,0.584908,0.00478475,0.00286925,0.415536,0.34527304515399915,0.7948258540653901,0.004796215195018272,-0.028174483102359704,0.0028733702375025594,-0.2323520121022582
608,0.5986,563.183,106.475,0.0240445,252.89,-3.3781,-1.83149,0.297009,-0.0286366,-0.264777,0.585672,0.00477577,0.00286427,0.416101,0.3458274118402984,0.7961976249676559,0.004787192165519372,-0.02823045864002205,0.0028683759405547793,-0.2326229440196893
609,0.5996,563.378,106.506,0.0241872,252.973,-3.39021,-1.83819,0.29742,-0.0286942,-0.26513,0.586437,0.00476677,0.00285929,0.416666,0.34638066059139505,0.7975722418746847,0.004778149121483555,-0.028286430953586295,0.0028633816684782154,-0.23289378031503183
610,0.6006,563.573,106.537,0.0243293,253.055,-3.40226,-1.84486,0.297832,-0.0287518,-0.265483,0.5872,0.00475776,0.00285429,0.41723,0.34693548370927285,0.7989443128737566,0.004769096111143956,-0.02834240004323818,0.0028583673641056073,-0.23316452102203444
611,0.6016,563.768,106.569,0.0244709,253.137,-3.41426,-1.8515,0.298243,-0.0288093,-0.265835,0.587964,0.00474872,0.00284929,0.417795,0.34748918797150896,0.8003192314808223,0.004760013039570632,-0.02839826874899498,0.0028533530848044997,-0.23343439960921675
612,0.6026,563.962,106.6,0.0246118,253.219,-3.4262,-1.85811,0.298654,-0.0288669,-0.266187,0.588727,0.00473967,0.00284427,0.418358,0.3480431198529692,0.8016933992327728,0.00475092000259858,-0.028454231396975338,0.0028483187736081383,-0.23370418321585396
613,0.6036,564.156,106.631,0.0247522,253.301,-3.43809,-1.86469,0.299065,-0.0289244,-0.266539,0.589489,0.0047306,0.00283924,0.418922,0.34859727944722474,0.8030668128071048,0.004741806953082017,-0.028510093672614145,0.002843274459251255,-0.23397387187537322
614,0.6046,564.35,106.662,0.024892,253.383,-3.44993,-1.87124,0.299475,-0.0289819,-0.266891,0.590251,0.00472151,0.0028342,0.419485,0.349150317696892,0.8044412733214137,0.00473267389156673,-0.0285659527362645,0.0028382201418848396,-0.23424346562119014
615,0.6056,564.544,106.693,0.0250312,253.465,-3.46172,-1.87776,0.299885,-0.0290393,-0.267243,0.591012,0.0047124,0.00282916,0.420048,0.34970358273873114,0.8058149757578934,0.004723520818599836,-0.028621711450287024,0.0028331658499922696,-0.23451296448670855
616,0.6066,564.737,106.724,0.0251699,253.546,-3.47345,-1.88425,0.300295,-0.0290968,-0.267594,0.591773,0.00470327,0.0028241,0.42061,0.3502570746657454,0.807189723979798,0.004714347734730007,-0.028677564096099672,0.002828091527010912,-0.23478160328730613
617,0.6076,564.929,106.755,0.0253079,253.628,-3.48514,-1.89071,0.300705,-0.0291542,-0.267945,0.592533,0.00469412,0.00281903,0.421173,0.35081079357097744,0.8085637102186589,0.004705154640506581,-0.028733316403814047,0.002823007201475658,-0.2350501478122311
618,0.6086,565.122,106.786,0.0254454,253.709,-3.49677,-1.89714,0.301114,-0.0292116,-0.268296,0.593293,0.00468496,0.00281395,0.421734,0.3513633881834428,0.8099387410839691,0.004695951583440161,-0.028789065511437784,0.0028179128735388304,-0.23531859809456834
619,0.6096,565.314,106.817,0.0255824,253.791,-3.50835,-1.90354,0.301523,-0.029269,-0.268646,0.594052,0.00467578,0.00280886,0.422296,0.3519162088533305,0.8113130060560347,0.004686728516938521,-0.028844811419154515,0.0028128085433527517,-0.23558618975396317
620,0.6106,565.505,106.848,0.0257187,253.872,-3.51988,-1.90991,0.301932,-0.0293264,-0.268997,0.594811,0.00466658,0.00280376,0.422857,0.3524692556731166,0.8126883144911583,0.00467748544155433,-0.028900554127148093,0.0028076942110708547,-0.23585445191859544
621,0.6116,565.697,106.878,0.0258545,253.953,-3.53136,-1.91625,0.302341,-0.0293837,-0.269347,0.59557,0.00465736,0.00279865,0.423418,0.3530225287353155,0.814064667181629,0.004668222357841589,-0.028956196531226497,0.0028025698768461282,-0.23612185606196912
622,0.6126,565.888,106.909,0.0259897,254.034,-3.54278,-1.92257,0.30275,-0.0294411,-0.269697,0.596327,0.00464813,0.00279354,0.423978,0.3535760281324791,0.8154384340398384,0.004658949312944305,-0.029011932845898092,0.002797445568806678,-0.2363891666302692
623,0.6136,566.079,106.94,0.0261243,254.115,-3.55416,-1.92885,0.303158,-0.0294984,-0.270047,0.597085,0.00463888,0.00278841,0.424538,0.3541283998281206,0.816815058047426,0.004649656260643731,-0.029067568868158755,0.0027923012311059647,-0.2366563836562412
624,0.6146,566.269,106.971,0.0262584,254.195,-3.56548,-1.93511,0.303566,-0.0295557,-0.270396,0.597842,0.00462961,0.00278327,0.425098,0.3546809969373952,0.8181909077397742,0.004640343201496089,-0.02912320170256666,0.0027871468919242748,-0.23692274409574487
625,0.6156,566.459,107.002,0.0263919,254.276,-3.57676,-1.94134,0.303974,-0.0296129,-0.270746,0.598598,0.00462032,0.00277812,0.425657,0.3552338195522904,0.8195659797777639,0.004631010136060043,-0.02917873426718276,0.002781982551416151,-0.23718977440228184
626,0.6166,566.649,107.033,0.0265248,254.357,-3.58798,-1.94754,0.304381,-0.0296702,-0.271095,0.599354,0.00461102,0.00277297,0.426216,0.3557855119786413,0.820942091763265,0.004621667111110783,-0.029234360731995812,0.002776818237504086,-0.23745594872089515
627,0.6176,566.838,107.064,0.0266572,254.437,-3.59916,-1.95371,0.304788,-0.0297274,-0.271443,0.60011,0.0046017,0.0027678,0.426775,0.3563374289895096,0.8223192444827749,0.004612304080805263,-0.029289886938497323,0.00277163389475521,-0.23772126788252856
628,0.6186,567.027,107.094,0.026789,254.517,-3.61028,-1.95985,0.305195,-0.0297846,-0.271792,0.600865,0.00459236,0.00276262,0.427333,0.35688957067631977,0.8236956150268593,0.004602921045703923,-0.0293454099689906,0.0027664395511450834,-0.23798725674228172
629,0.6196,567.216,107.125,0.0269203,254.598,-3.62135,-1.96596,0.305602,-0.0298418,-0.272141,0.601619,0.00458301,0.00275744,0.427891,0.3574419371305335,0.8250712000509735,0.004593528052304396,-0.029400929823657385,0.002761245234441434,-0.23825315278811976
630,0.6206,567.405,107.156,0.0270509,254.678,-3.63238,-1.97205,0.306009,-0.0298989,-0.272489,0.602374,0.00457364,0.00275224,0.428449,0.3579945284436499,0.8264496491060509,0.004584115055046523,-0.029456349448319097,0.0027560308895235863,-0.23851819457100443
631,0.6216,567.593,107.187,0.0271811,254.758,-3.64335,-1.97811,0.306415,-0.0299561,-0.272837,0.603127,0.00456425,0.00274704,0.429007,0.35854598616053956,0.8278254836285164,0.0045746820544942945,-0.029511862957429136,0.0027508165717202715,-0.2387831441353957
632,0.6226,567.781,107.217,0.0273106,254.838,-3.65428,-1.98414,0.306821,-0.0300132,-0.273185,0.60388,0.00455485,0.00274183,0.429564,0.3590976678147184,0.8292023545445304,0.004565239096864904,-0.029567276247989827,0.002745592253575291,-0.2390480015133799
633,0.6236,567.968,107.248,0.0274396,254.918,-3.66516,-1.99014,0.307227,-0.0300703,-0.273532,0.604633,0.00454543,0.00273661,0.43012,0.35964957349712345,0.8305802626347911,0.004555776136883072,-0.029622686374541907,0.0027403579352451857,-0.2393120060494187
634,0.6246,568.155,107.279,0.0275681,254.997,-3.67598,-1.99612,0.307633,-0.0301274,-0.273879,0.605385,0.004536,0.00273138,0.430677,0.3602017032987288,0.8319573767222923,0.004546303220579029,-0.02967809333726601,0.0027351136168871637,-0.23957591899177588
635,0.6256,568.342,107.309,0.027696,255.077,-3.68676,-2.00206,0.308038,-0.0301844,-0.274227,0.606137,0.00452655,0.00272614,0.431233,0.36075269655716835,0.833335526789067,0.004536810302867789,-0.029733400109687835,0.0027298592986582104,-0.2398405005321086
636,0.6266,568.529,107.34,0.0278233,255.156,-3.69749,-2.00798,0.308443,-0.0302415,-0.274574,0.606888,0.00451709,0.00272089,0.431788,0.36130391301307196,0.8347128789006677,0.004527307429590843,-0.02978880075083823,0.0027245949807157555,-0.24010423011869442
637,0.6276,568.715,107.371,0.0279501,255.236,-3.70818,-2.01387,0.308848,-0.0302985,-0.27492,0.607639,0.00450761,0.00271564,0.432344,0.3618553527568529,0.8360912657922157,0.004517784555855053,-0.029844101213117313,0.0027193306904107484,-0.24036710857447796
638,0.6286,568.901,107.401,0.0280763,255.315,-3.71881,-2.01974,0.309253,-0.0303555,-0.275267,0.608389,0.00449811,0.00271037,0.432898,0.36240701587896096,0.8374688507713526,0.004508241682230407,-0.029899398523359877,0.0027140463734622866,-0.24063065545977347
639,0.6296,569.087,107.432,0.028202,255.394,-3.7294,-2.02558,0.309657,-0.0304124,-0.275613,0.609139,0.0044886,0.0027051,0.433453,0.362957539511662,0.8388474693267667,0.004498688854275734,-0.029954595677209928,0.002708762084361993,-0.24089335180389615
640,0.6306,569.272,107.462,0.0283272,255.473,-3.73994,-2.03139,0.310061,-0.0304694,-0.275959,0.609888,0.00447907,0.00269981,0.434007,0.3635082856008438,0.8402252820077287,0.0044891160273856645,-0.030009886689447485,0.0027034577690403516,-0.2411559572708064
641,0.6316,569.457,107.493,0.0284518,255.553,-3.75043,-2.03717,0.310465,-0.0305263,-0.276305,0.610637,0.00446953,0.00269452,0.434561,0.36405925423639696,0.8416041270569623,0.004479533246928735,-0.03006507755669985,0.002698153481778709,-0.24141847189194232
642,0.6326,569.642,107.524,0.0285758,255.631,-3.76087,-2.04293,0.310869,-0.0305832,-0.27665,0.611386,0.00445997,0.00268922,0.435115,0.3646104455082486,0.8429840052480011,0.004469930468492089,-0.03012026528368117,0.0026928391956482223,-0.24168013737924765
643,0.6336,569.826,107.554,0.0286993,255.71,-3.77126,-2.04866,0.311272,-0.0306401,-0.276996,0.612134,0.0044504,0.00268392,0.435668,0.3651604943451847,0.8443630729909628,0.004460317737254638,-0.03017544987057008,0.0026875249376832056,-0.24194247066543884
644,0.6346,570.01,107.585,0.0288223,255.789,-3.78161,-2.05436,0.311675,-0.030697,-0.277341,0.612881,0.00444081,0.0026786,0.436221,0.36571076489647436,0.8457413269202401,0.00445068500899648,-0.030230631317545442,0.002682190654239802,-0.24220395540434814
645,0.6356,570.194,107.615,0.0289447,255.868,-3.79192,-2.06004,0.312078,-0.0307538,-0.277686,0.613628,0.00443121,0.00267328,0.436774,0.3662612572514867,0.8471206107898368,0.004441042328705347,-0.030285712653361774,0.0026768563991745875,-0.24246534994658242
646,0.6366,570.378,107.646,0.0290666,255.946,-3.80217,-2.06569,0.312481,-0.0308106,-0.278031,0.614375,0.0044216,0.00266795,0.437326,0.36681197149962674,0.8485009253694067,0.004431389696669452,-0.030340790860647227,0.0026715121457723257,-0.24272665432325402
647,0.6376,570.561,107.676,0.0291879,256.024,-3.81238,-2.07131,0.312884,-0.0308674,-0.278375,0.615121,0.00441197,0.00266261,0.437878,0.3673629077303351,0.849880421547831,0.00442171706896044,-0.030395865939579325,0.002666157894193333,-0.24298711155295483
648,0.6386,570.744,107.707,0.0293087,256.103,-3.82254,-2.07691,0.313286,-0.0309242,-0.27872,0.615866,0.00440232,0.00265726,0.43843,0.36791269811970695,0.851259095954334,0.004412024446157847,-0.030450937890335705,0.0026607936445981473,-0.2432482359529201
649,0.6396,570.926,107.737,0.0294289,256.181,-3.83266,-2.08248,0.313688,-0.030981,-0.279064,0.616611,0.00439267,0.0026519,0.438981,0.36846270956924543,0.8526387978559642,0.004402331916888436,-0.030506006713094114,0.002655419397147085,-0.24350851378939775
650,0.6406,571.109,107.767,0.0295487,256.259,-3.84273,-2.08802,0.31409,-0.0310377,-0.279408,0.617356,0.00438299,0.00264654,0.439532,0.36901294216783453,0.8540195280184908,0.004392609349372689,-0.03056097546413472,0.0026500451785020918,-0.2437687021056979
651,0.6416,571.291,107.798,0.0296679,256.337,-3.85275,-2.09354,0.314491,-0.0310944,-0.279752,0.6181,0.00437331,0.00264117,0.440083,0.369562026441683,0.8553994318078939,0.004382886875971215,-0.030615941098535382,0.002644660962216161,-0.24402880093261048
652,0.6426,571.472,107.828,0.0297865,256.415,-3.86273,-2.09904,0.314893,-0.0311511,-0.280095,0.618844,0.00436361,0.00263579,0.440633,0.3701127010544938,0.8567803626277244,0.004373144409219432,-0.030670903616473066,0.0026392667484504972,-0.24428805458934666
653,0.6436,571.654,107.858,0.0299047,256.493,-3.87266,-2.1045,0.315294,-0.0312078,-0.280438,0.619587,0.00435389,0.0026304,0.441183,0.37066222642008895,0.8581604630809849,0.004363381949701317,-0.03072586301812419,0.002633862537367193,-0.24454721933732737
654,0.6446,571.835,107.889,0.0300223,256.571,-3.88255,-2.10994,0.315695,-0.0312644,-0.280781,0.62033,0.00434417,0.00262501,0.441733,0.3712119721895435,0.8595415893299183,0.0043536195850739645,-0.030780722381742787,0.0026284583554123664,-0.244806295207043
655,0.6456,572.016,107.919,0.0301393,256.648,-3.89239,-2.11536,0.316095,-0.031321,-0.281124,0.621072,0.00433443,0.00261961,0.442282,0.3717605666900048,0.8609218812141617,0.004343837228459435,-0.0308355786404092,0.0026230441763555046,-0.2450652822289736
656,0.6466,572.196,107.949,0.0302559,256.726,-3.90218,-2.12075,0.316496,-0.0313776,-0.281467,0.621814,0.00432467,0.0026142,0.442831,0.3723107529822265,0.862303197655047,0.0043340348804437046,-0.03089043179429929,0.0026176200003589223,-0.24532418043358872
657,0.6476,572.376,107.98,0.0303719,256.803,-3.91194,-2.12612,0.316896,-0.0314342,-0.281809,0.622556,0.0043149,0.00260878,0.44338,0.3728597870829191,0.8636855394130769,0.004324222584856097,-0.03094528184358869,0.002612185827585156,-0.24558223543396007
658,0.6486,572.556,108.01,0.0304874,256.88,-3.92164,-2.13146,0.317296,-0.0314908,-0.282152,0.623297,0.00430512,0.00260336,0.443928,0.37340904084118054,0.8650670421813447,0.004314400341989932,-0.031000128788453152,0.0026067516842644967,-0.24584095635403191
659,0.6496,572.736,108.04,0.0306024,256.958,-3.93131,-2.13677,0.317695,-0.0315473,-0.282494,0.624037,0.00429533,0.00259793,0.444476,0.37395714038706407,0.8664477025738999,0.004304568152139199,-0.031054875734560783,0.002601307544383813,-0.24609883464725724
660,0.6506,572.915,108.07,0.0307168,257.035,-3.94092,-2.14206,0.318095,-0.0316038,-0.282836,0.624777,0.00428552,0.00259249,0.445024,0.3745068331744472,0.8678293850332639,0.004294715972650742,-0.031109619587553317,0.0025958534081058637,-0.2463566247611857
661,0.6516,573.094,108.101,0.0308308,257.112,-3.9505,-2.14732,0.318494,-0.0316603,-0.283177,0.625517,0.0042757,0.00258704,0.445571,0.375055370826868,0.8692120903160456,0.004284853846962866,-0.031164360347605613,0.00259038927559474,-0.24661357333991962
662,0.6526,573.273,108.131,0.0309442,257.189,-3.96003,-2.15256,0.318893,-0.0317168,-0.283519,0.626256,0.00426587,0.00258159,0.446118,0.3756041273894819,0.8705939485845309,0.00427498177537089,-0.03121909801489231,0.0025849251728629064,-0.2468711874433147
663,0.6536,573.451,108.161,0.0310571,257.266,-3.96951,-2.15778,0.319292,-0.0317732,-0.28386,0.626995,0.00425603,0.00257613,0.446665,0.37615310294965165,0.8719768284237004,0.00426509975816991,-0.031273735716966566,0.002579451074115724,-0.24712796058608755
664,0.6546,573.63,108.191,0.0311695,257.342,-3.97896,-2.16297,0.31969,-0.0318297,-0.284201,0.627733,0.00424617,0.00257066,0.447211,0.37670092089316487,0.8733588572289801,0.004255197753103346,-0.03132846720471949,0.0025739669795172837,-0.2473846461841459
665,0.6556,573.807,108.221,0.0312813,257.419,-3.98836,-2.16813,0.320089,-0.0318861,-0.284542,0.628471,0.0042363,0.00256519,0.447757,0.3772503341612594,0.8747419063479676,0.004245285803216925,-0.03138309873854539,0.0025684829149168475,-0.24764124426733747
666,0.6566,573.985,108.252,0.0313927,257.496,-3.99771,-2.17327,0.320487,-0.0319425,-0.284882,0.629208,0.00422642,0.00255971,0.448303,0.3777985888897093,0.8761241004088938,0.004235363908807521,-0.03143772719123972,0.0025629888546843116,-0.24789700276287852
667,0.6576,574.162,108.282,0.0315036,257.572,-4.00702,-2.17839,0.320885,-0.0319988,-0.285222,0.629945,0.00421652,0.00255422,0.448848,0.37834706186696976,0.8775073135223175,0.004225422027917203,-0.031492255712206596,0.002557484798983989,-0.24815267431531218
668,0.6586,574.339,108.312,0.0316139,257.648,-4.01629,-2.18348,0.321282,-0.0320552,-0.285563,0.630681,0.00420662,0.00254873,0.449393,0.3788943742848576,0.8788896675489506,0.004215480245451042,-0.031546878008621215,0.0025519807735010502,-0.24840901054555953
669,0.6596,574.516,108.342,0.0317238,257.725,-4.02552,-2.18855,0.32168,-0.0321115,-0.285903,0.631417,0.0041967,0.00254323,0.449938,0.37944328347150535,0.8802730393626468,0.004205518477297332,-0.031601400384570044,0.002546466752770371,-0.2486645080449379
670,0.6606,574.693,108.372,0.0318331,257.801,-4.0347,-2.1936,0.322077,-0.0321678,-0.286242,0.632153,0.00418677,0.00253772,0.450482,0.3799910311757686,0.881657429712773,0.00419554676600864,-0.03165591969099546,0.0025409427369573745,-0.24891916760947563
671,0.6616,574.869,108.402,0.0319419,257.877,-4.04385,-2.19862,0.322474,-0.032224,-0.286582,0.632888,0.00417683,0.00253221,0.451026,0.3805389963790411,0.8830409563073509,0.0041855651118827275,-0.03171033909910914,0.002535418751581364,-0.249174491684936
672,0.6626,575.045,108.432,0.0320502,257.953,-4.05295,-2.20361,0.32287,-0.0322803,-0.286921,0.633622,0.00416688,0.00252669,0.45157,0.3810857980811988,0.8844236157432173,0.004175573515218023,-0.03176485227245762,0.002529884771343749,-0.24942897839432032
673,0.6636,575.22,108.462,0.0321581,258.029,-4.062,-2.20858,0.323267,-0.0323365,-0.28726,0.634356,0.00415691,0.00252116,0.452113,0.38163419799321674,0.8858072904236585,0.004165561934657891,-0.03181926555873227,0.002524340796409952,-0.2496833788473316
674,0.6646,575.396,108.492,0.0322654,258.105,-4.07102,-2.21353,0.323663,-0.0323927,-0.287599,0.63509,0.00414693,0.00251563,0.452657,0.38218143348109734,0.887191981094138,0.004155540412357217,-0.031873675787066125,0.0025187968521342974,-0.24993769307320557
675,0.6656,575.571,108.522,0.0323722,258.18,-4.07999,-2.21846,0.324059,-0.0324489,-0.287938,0.635823,0.00413695,0.00251009,0.453199,0.3827288857171445,0.8885757999239219,0.004145518990070984,-0.031928082957631054,0.0025132429133842837,-0.2501919211011684
676,0.6666,575.745,108.552,0.0324786,258.256,-4.08892,-2.22336,0.324455,-0.0325051,-0.288276,0.636556,0.00412695,0.00250454,0.453742,0.38327655478720746,0.8899606334647543,0.004135477585088143,-0.03198248707059903,0.0025076789803260002,-0.2504453134061242
677,0.6676,575.92,108.582,0.0325844,258.332,-4.09781,-2.22824,0.32485,-0.0325612,-0.288615,0.637289,0.00411694,0.00249899,0.454284,0.38382305695342067,0.8913464824606907,0.004125426239264485,-0.03203679132982562,0.00250211507814746,-0.25069936937995896
678,0.6686,576.094,108.612,0.0326898,258.407,-4.10666,-2.23309,0.325246,-0.0326173,-0.288953,0.638021,0.00410691,0.00249343,0.454826,0.3843711594010961,0.8927314549239316,0.004115354911747193,-0.03209109254266873,0.0024965411818831384,-0.25095259019637983
679,0.6696,576.268,108.642,0.0327946,258.482,-4.11547,-2.23792,0.325641,-0.0326734,-0.289291,0.638752,0.00409688,0.00248787,0.455367,0.384918094021536,0.8941155474416627,0.004105283685244654,-0.03214539070929934,0.0024909673166095825,-0.2512057254386275
680,0.6706,576.442,108.671,0.032899,258.558,-4.12424,-2.24273,0.326036,-0.0327295,-0.289628,0.639483,0.00408684,0.0024823,0.455908,0.38546524472382404,0.8955006521009166,0.004095202518804131,-0.03219968582988808,0.002485383457472734,-0.2514580265940223
681,0.6716,576.615,108.701,0.0330029,258.633,-4.13296,-2.24751,0.32643,-0.0327855,-0.289966,0.640214,0.00407678,0.00247672,0.456449,0.3860112255814112,0.8968867696418394,0.004085101371875677,-0.03225388112999905,0.0024797896046397927,-0.25171099102763583
682,0.6726,576.788,108.731,0.0331062,258.708,-4.14165,-2.25228,0.326825,-0.0328416,-0.290303,0.640944,0.00406672,0.00247114,0.45699,0.38655880815595456,0.8982720025321671,0.00407500032656416,-0.03230817016444598,0.0024741957830205497,-0.25196312193721504
683,0.6736,576.961,108.761,0.0332092,258.783,-4.15029,-2.25702,0.327219,-0.0328976,-0.29064,0.641673,0.00405664,0.00246555,0.45753,0.3871052199624252,0.8996563473543928,0.004064879301570956,-0.03236235938960441,0.0024685919679288126,-0.25221516789299336
684,0.6746,577.134,108.791,0.0333116,258.858,-4.1589,-2.26173,0.327613,-0.0329536,-0.290977,0.642403,0.00404656,0.00245996,0.45807,0.38765184709756473,0.9010436027745841,0.004054758378597034,-0.03241654558025109,0.0024629881841622403,-0.25246712892359513
685,0.6756,577.306,108.821,0.0334135,258.933,-4.16746,-2.26643,0.328007,-0.0330095,-0.291314,0.643131,0.00403646,0.00245436,0.45861,0.38819868964622906,0.9024280664010189,0.004044617476749002,-0.0324706319836241,0.002457374407146995,-0.25271900505763556
686,0.6766,577.478,108.85,0.033515,259.007,-4.17599,-2.2711,0.3284,-0.0330654,-0.29165,0.64386,0.00402635,0.00244875,0.459149,0.3887443589482549,0.9038154420984243,0.004034466636978928,-0.032524715363651646,0.0024517506370513864,-0.2529700492941427
687,0.6776,577.65,108.88,0.033616,259.082,-4.18447,-2.27575,0.328793,-0.0331214,-0.291987,0.644588,0.00401624,0.00244314,0.459688,0.38929024274046076,0.9052019243585805,0.0040243158998334305,-0.03257889246261836,0.0024461268985049855,-0.253221755972573
688,0.6786,577.821,108.91,0.0337165,259.156,-4.19292,-2.28037,0.329186,-0.0331772,-0.292323,0.645315,0.00400611,0.00243752,0.460226,0.3898363411071579,0.9065875097568545,0.004014145185027962,-0.03263287305434637,0.0024404931671024865,-0.2534726313131488
689,0.6796,577.993,108.939,0.0338165,259.231,-4.20132,-2.28498,0.329579,-0.0332331,-0.292659,0.646042,0.00399597,0.0024319,0.460765,0.39038265413269113,0.907974102841963,0.0040039645332117235,-0.032686947365351604,0.00243485946736155,-0.2537234223737699
690,0.6806,578.164,108.969,0.0339161,259.305,-4.20969,-2.28956,0.329972,-0.033289,-0.292994,0.646769,0.00398583,0.00242627,0.461303,0.39092918190143777,0.9093617043467606,0.0039937839846269085,-0.03274101865368728,0.00242921577498989,-0.25397338315650597
691,0.6816,578.334,108.999,0.0340152,259.379,-4.21802,-2.29412,0.330364,-0.0333448,-0.29333,0.647495,0.00397567,0.00242064,0.46184,0.3914745330225793,0.9107484042552749,0.0039835834596004815,-0.03279499019902632,0.0024235721143919253,-0.25422400599277095
692,0.6826,578.505,109.029,0.0341138,259.454,-4.22631,-2.29866,0.330756,-0.0334006,-0.293665,0.648221,0.0039655,0.002415,0.462378,0.3920200979632664,0.9121361112734596,0.003973372998476998,-0.03284895873283711,0.002417918461388613,-0.25447379910808055
693,0.6836,578.675,109.058,0.0342119,259.528,-4.23455,-2.30317,0.331148,-0.0334564,-0.294,0.648946,0.00395533,0.00240936,0.462915,0.39256587680733257,0.9135229126088722,0.003963162641193341,-0.032902924255287735,0.002412264840271572,-0.25472350855671133
694,0.6846,578.845,109.088,0.0343096,259.602,-4.24277,-2.30767,0.33154,-0.0335121,-0.294335,0.649671,0.00394514,0.00240371,0.463451,0.3931118696386444,0.9149107197398096,0.0039529323086895385,-0.03295679006223007,0.0024066012269750026,-0.2549731343666872
695,0.6856,579.014,109.117,0.0344068,259.676,-4.25094,-2.31214,0.331931,-0.0335678,-0.29467,0.650395,0.00393494,0.00239806,0.463988,0.3936566828837216,0.9162976170971631,0.003942692041005502,-0.03301065286893046,0.0024009376456777254,-0.25522267656602216
696,0.6866,579.184,109.147,0.0345036,259.749,-4.25907,-2.31659,0.332323,-0.0336236,-0.295004,0.651119,0.00392474,0.0023924,0.464524,0.394203103394835,0.9176855189317803,0.003932451877771692,-0.03306460936910005,0.0023952640724269614,-0.2554713906544842
697,0.6876,579.353,109.177,0.0345999,259.823,-4.26717,-2.32102,0.332714,-0.0336792,-0.295338,0.651842,0.00391452,0.00238673,0.46506,0.39474834339573617,0.9190725068976995,0.0039221917405427575,-0.03311836948227409,0.0023895805073925747,-0.255720021686312
698,0.6886,579.522,109.206,0.0346957,259.897,-4.27523,-2.32543,0.333104,-0.0337349,-0.295672,0.652566,0.0039043,0.00238106,0.465595,0.3952924013340626,0.9204624184799728,0.003911931708171945,-0.03317222328925151,0.0023838969745837435,-0.25596856968924164
699,0.6896,579.69,109.236,0.0347911,259.97,-4.28325,-2.32981,0.333495,-0.0337905,-0.296006,0.653288,0.00389407,0.00237539,0.46613,0.3958380673337354,0.9218494930197694,0.0039016617416416377,-0.033225977419257924,0.00237821347400069,-0.2562170346910003
700,0.6906,579.859,109.265,0.034886,260.044,-4.29123,-2.33418,0.333885,-0.0338462,-0.29634,0.65401,0.00388383,0.00236971,0.466665,0.39638255034728176,0.9232375693890003,0.003891381841258701,-0.03327982523264017,0.0023725199819177867,-0.2564654167193058
701,0.6916,580.027,109.295,0.0349804,260.117,-4.29917,-2.33852,0.334275,-0.0339018,-0.296673,0.654732,0.00387357,0.00236402,0.4672,0.3969272457506168,0.9246266483112482,0.0038810819685193287,-0.033333573380144865,0.002366816498505564,-0.25671297251521064
702,0.6926,580.195,109.324,0.0350744,260.19,-4.30708,-2.34285,0.334665,-0.0339573,-0.297007,0.655453,0.00386331,0.00235833,0.467734,0.39747215362658883,0.9260148044948495,0.003870782201456313,-0.033387221878062756,0.0023611130475458264,-0.2569611889279422
703,0.6936,580.362,109.354,0.035168,260.264,-4.31495,-2.34715,0.335055,-0.0340129,-0.29734,0.656174,0.00385305,0.00235264,0.468268,0.39801727405807785,0.9274039618999568,0.0038604825400680998,-0.03344096405447994,0.002355409629039018,-0.2572085796591863
704,0.6946,580.529,109.383,0.0352611,260.337,-4.32278,-2.35143,0.335444,-0.0340684,-0.297673,0.656895,0.00384277,0.00234694,0.468801,0.39856120856608923,0.9287941212487099,0.0038501629073506294,-0.03349460659238068,0.0023496962194873294,-0.257455888023032
705,0.6956,580.696,109.413,0.0353537,260.41,-4.33058,-2.35569,0.335834,-0.0341239,-0.298005,0.657615,0.00383248,0.00234123,0.469335,0.39910675381183824,0.9301833530794532,0.003839833342320187,-0.03354824615320329,0.002343972819062179,-0.2577023717496456
706,0.6966,580.863,109.442,0.0354459,260.483,-4.33834,-2.35993,0.336223,-0.0341794,-0.298338,0.658334,0.00382219,0.00233552,0.469868,0.3996511122099149,0.9315716539446701,0.0038295038835800543,-0.03360188273711273,0.0023382494513175534,-0.2579495157081001
707,0.6976,581.03,109.471,0.0355377,260.555,-4.34606,-2.36415,0.336611,-0.0342348,-0.29867,0.659054,0.00381189,0.00232981,0.4704,0.40019428220961806,0.932962886319064,0.0038191644929381763,-0.03365541970982133,0.0023325261162534527,-0.2581958355775241
708,0.6986,581.196,109.501,0.035629,260.628,-4.35375,-2.36835,0.337,-0.0342903,-0.299002,0.659772,0.00380157,0.00232409,0.470933,0.4007390637385353,0.9343512520350885,0.0038088051326148342,-0.03370905034576355,0.0023267927906014396,-0.2584420736823252
709,0.6996,581.362,109.53,0.0357199,260.701,-4.3614,-2.37252,0.337388,-0.0343457,-0.299334,0.660491,0.00379125,0.00231837,0.471465,0.4012826559453344,0.9357425506972337,0.003798445879199752,-0.03376258138155097,0.0023210594977438603,-0.2586882300496447
710,0.7006,581.528,109.559,0.0358103,260.773,-4.36901,-2.37668,0.337776,-0.0344011,-0.299666,0.661209,0.00378093,0.00231264,0.471996,0.40182645910683235,0.937132912928945,0.003788086732691598,-0.033816109451801135,0.0023153162145272965,-0.25893430470661494
711,0.7016,581.693,109.589,0.0359003,260.846,-4.37659,-2.38082,0.338164,-0.0344564,-0.299997,0.661926,0.00377059,0.00230691,0.472528,0.4023704733048954,0.9385223352759025,0.003777707617534931,-0.03386953794363712,0.0023095729642199636,-0.2591795568602864
712,0.7026,581.859,109.618,0.0359898,260.918,-4.38413,-2.38494,0.338552,-0.0345118,-0.300328,0.662643,0.00376025,0.00230117,0.473059,0.4029146986214216,0.9399127541959114,0.003767328609697751,-0.033923060088657864,0.0023038197237830182,-0.25942472784892856
713,0.7036,582.024,109.647,0.036079,260.991,-4.39164,-2.38903,0.338939,-0.0345671,-0.300659,0.66336,0.00374989,0.00229543,0.47359,0.4034577316799073,0.941304170403771,0.0037569296340400626,-0.03397648266628717,0.0022980665163694347,-0.25966981769940267
714,0.7046,582.188,109.677,0.0361676,261.063,-4.39911,-2.39311,0.339327,-0.0346224,-0.30099,0.664076,0.00373953,0.00228969,0.47412,0.4040023789345337,0.94269464191918,0.003746530766115308,-0.03402990228972946,0.002292313341979213,-0.2599148264385609
715,0.7056,582.353,109.706,0.0362559,261.135,-4.40654,-2.39717,0.339714,-0.0346777,-0.301321,0.664792,0.00372917,0.00228394,0.47465,0.4045458330067617,0.9440861093686956,0.0037361320059221548,-0.03408331895914829,0.0022865501777467045,-0.26015975409324665
716,0.7066,582.517,109.735,0.0363437,261.207,-4.41395,-2.4012,0.3401,-0.0347329,-0.301652,0.665507,0.00371879,0.00227818,0.47518,0.40508809234762233,0.9454766279880615,0.0037257132789452196,-0.03413663608837547,0.002280777023844216,-0.2604046006902945
717,0.7076,582.681,109.764,0.0364311,261.279,-4.42131,-2.40522,0.340487,-0.0347881,-0.301982,0.666222,0.00370841,0.00227242,0.47571,0.40563196667225454,0.9468681411837592,0.003715294660114221,-0.034189950274578274,0.0022750039031953495,-0.2606486269055266
718,0.7086,582.845,109.793,0.0365181,261.351,-4.42864,-2.40922,0.340873,-0.0348433,-0.302312,0.666936,0.00369801,0.00226666,0.476239,0.4061746453416353,0.948258701407489,0.0037048560753305537,-0.03424326151791934,0.002269230815799217,-0.26089257260539356
719,0.7096,583.009,109.823,0.0366046,261.423,-4.43594,-2.4132,0.34126,-0.0348985,-0.302642,0.66765,0.00368762,0.0022609,0.476768,0.40671894024365285,0.9496502548457542,0.003694427636051767,-0.034296569818560885,0.0022634577616562623,-0.2611364378164609
720,0.7106,583.172,109.852,0.0366907,261.495,-4.4432,-2.41716,0.341645,-0.0349537,-0.302972,0.668364,0.00367721,0.00225512,0.477297,0.40726063130448487,0.9510428022079627,0.0036839792314440345,-0.034349875176665434,0.0022576646956122826,-0.2613802225652856
721,0.7116,583.335,109.881,0.0367764,261.566,-4.45043,-2.4211,0.342031,-0.0350088,-0.303301,0.669077,0.0036668,0.00224935,0.477825,0.4078039387597614,0.9524343917686622,0.0036735309356037416,-0.034403081032708505,0.002251881685571,-0.2616231885019734
722,0.7126,583.498,109.91,0.0368617,261.638,-4.45762,-2.42502,0.342417,-0.0350639,-0.303631,0.66979,0.00365638,0.00224357,0.478353,0.40834745597219624,0.9538269738865226,0.003663072711898696,-0.03445628395718947,0.002246088686436609,-0.26186681264957246
723,0.7136,583.66,109.939,0.0369465,261.709,-4.46478,-2.42892,0.342802,-0.035119,-0.30396,0.670502,0.00364595,0.00223779,0.478881,0.40888977413229255,0.9552185940499187,0.003652604560641981,-0.0345094839502702,0.0022402957207856566,-0.26210961852445425
724,0.7146,583.823,109.968,0.0370309,261.781,-4.4719,-2.4328,0.343187,-0.0351741,-0.304289,0.671214,0.00363551,0.002232,0.479408,0.4094323011250782,0.9566112053996914,0.003642126482146013,-0.03456268101211202,0.0022344927662731884,-0.2623523445293424
725,0.7156,583.985,109.997,0.0371149,261.852,-4.47899,-2.43666,0.343572,-0.0352291,-0.304617,0.671926,0.00362507,0.00222621,0.479935,0.40997503703096916,0.9580048086418169,0.003631648513040542,-0.03461577860445919,0.0022286898453593995,-0.2625942532851321
726,0.7166,584.147,110.026,0.0371985,261.923,-4.48605,-2.44051,0.343956,-0.0352841,-0.304946,0.672637,0.00361462,0.00222042,0.480462,0.41051657141313624,0.9593974450843494,0.0036211606171130395,-0.03466887327651913,0.002222886958044512,-0.26283681987140994
727,0.7176,584.308,110.055,0.0372817,261.994,-4.49307,-2.44433,0.344341,-0.0353391,-0.305274,0.673347,0.00360417,0.00221462,0.480989,0.41105972484345643,0.9607891112533877,0.0036106728307834235,-0.03472196502845226,0.002217074082157655,-0.2630785697453454
728,0.7186,584.469,110.084,0.0373645,262.065,-4.50006,-2.44814,0.344725,-0.0353941,-0.305602,0.674057,0.0035937,0.00220882,0.481515,0.4116016758257255,0.9621817658562584,0.003600165082046969,-0.03477505386041946,0.0022112612399851628,-0.263320240338325
729,0.7196,584.631,110.113,0.0374469,262.136,-4.50702,-2.45193,0.345109,-0.035449,-0.30593,0.674767,0.00358323,0.00220301,0.482041,0.4121438349571338,0.9635754095949989,0.0035896574433260664,-0.03482804325539035,0.0022054384094727375,-0.2635618316763486
730,0.7206,584.791,110.142,0.0375288,262.207,-4.51395,-2.4557,0.345493,-0.0355039,-0.306258,0.675477,0.00357276,0.00219721,0.482566,0.41268620231762587,0.9649700431721451,0.003579149914619606,-0.03488102974132323,0.002199625634786928,-0.2638033437854077
731,0.7216,584.952,110.171,0.0376104,262.278,-4.52084,-2.45945,0.345876,-0.0355588,-0.306586,0.676186,0.00356227,0.00219139,0.483092,0.4132273647591058,0.9663637009260473,0.0035686224245539133,-0.03493401331837798,0.002193792849939147,-0.26404477669148496
732,0.7226,585.112,110.2,0.0376915,262.349,-4.5277,-2.46318,0.346259,-0.0356137,-0.306913,0.676894,0.00355178,0.00218558,0.483616,0.4137687345054972,0.9677563793762995,0.0035580950449207727,-0.03498699398671412,0.0021879701209177593,-0.2642853947063173
733,0.7236,585.273,110.229,0.0377723,262.419,-4.53452,-2.46689,0.346643,-0.0356686,-0.30724,0.677602,0.00354129,0.00217976,0.484141,0.414311725947232,0.9691500441920267,0.003547567775719518,-0.03503997174649143,0.002182137403905049,-0.26452593405192193
734,0.7246,585.433,110.258,0.0378526,262.49,-4.54131,-2.47059,0.347025,-0.0357234,-0.307568,0.67831,0.00353079,0.00217393,0.484666,0.41485209623069674,0.9705446960718225,0.00353703058157806,-0.03509285010715946,0.0021762946990753207,-0.26476712998725715
735,0.7256,585.592,110.287,0.0379325,262.56,-4.54808,-2.47427,0.347408,-0.0357782,-0.307894,0.679017,0.00352028,0.00216811,0.48519,0.4153940883684222,0.9719383637754266,0.0035264834628119246,-0.0351457255701727,0.0021704620500133665,-0.2650067768383222
736,0.7266,585.752,110.316,0.0380121,262.631,-4.5548,-2.47793,0.34779,-0.035833,-0.308221,0.679724,0.00350976,0.00216228,0.485713,0.4159348721933134,0.9733330171504908,0.0035159264197359708,-0.03519859813568993,0.0021646194132507457,-0.2652470803305338
737,0.7276,585.911,110.345,0.0380912,262.701,-4.5615,-2.48157,0.348173,-0.0358877,-0.308547,0.680431,0.00349924,0.00215644,0.486237,0.41647727911365817,0.9747286568941316,0.003505369487719623,-0.035251371329011905,0.0021587667889630957,-0.26548657074328774
738,0.7286,586.07,110.373,0.03817,262.771,-4.56817,-2.48519,0.348555,-0.0359425,-0.308874,0.681137,0.00348871,0.00215061,0.48676,0.417018476796456,0.976123307579662,0.003494802631813565,-0.035304238105300145,0.002152924220383934,-0.2657267173685416
739,0.7296,586.229,110.402,0.0382483,262.842,-4.5748,-2.4888,0.348937,-0.0359972,-0.3092,0.681843,0.00347818,0.00214477,0.487283,0.4175598812562604,0.9775189432362306,0.003484235887175835,-0.035357005520273876,0.002147071664395872,-0.2659660514451053
740,0.7306,586.387,110.431,0.0383263,262.912,-4.5814,-2.49238,0.349318,-0.0360519,-0.309526,0.682548,0.00346764,0.00213892,0.487806,0.41810007447129194,0.9789135856448969,0.0034736592190687254,-0.03540977004894885,0.0021412091211745476,-0.26620530751147653
741,0.7316,586.546,110.46,0.0384039,262.982,-4.58797,-2.49595,0.349699,-0.0361065,-0.309851,0.683253,0.0034571,0.00213308,0.488328,0.4186404735391507,0.9803092116231287,0.0034630826624391098,-0.035462435237731404,0.0021353566336026475,-0.26644375203720094
742,0.7326,586.704,110.488,0.0384811,263.052,-4.59451,-2.49951,0.350081,-0.0361612,-0.310177,0.683957,0.00344654,0.00212723,0.48885,0.41918249772007,0.9817038401597564,0.0034524861482359004,-0.0355151939995586,0.002129494158914058,-0.2666828523985604
743,0.7336,586.862,110.517,0.0385579,263.121,-4.60102,-2.50304,0.350462,-0.0362158,-0.310502,0.684661,0.00343599,0.00212137,0.489372,0.41972330926975965,0.9830994508605548,0.003441899780350255,-0.03556785343235069,0.002123621697284639,-0.2669211417474142
744,0.7346,587.019,110.546,0.0386343,263.191,-4.60749,-2.50656,0.350842,-0.0362704,-0.310827,0.685365,0.00342542,0.00211552,0.489893,0.42026290664429,0.9844960444172115,0.003431293455524065,-0.0356205099900162,0.002117759291245358,-0.267159353664813
745,0.7356,587.176,110.575,0.0387103,263.261,-4.61394,-2.51006,0.351223,-0.036325,-0.311152,0.686068,0.00341486,0.00210966,0.490414,0.42080412990820637,0.9858916356292717,0.0034206972770132182,-0.035673163672712116,0.0021118868983818206,-0.2673974881759178
746,0.7366,587.334,110.603,0.038786,263.33,-4.62035,-2.51354,0.351603,-0.0363795,-0.311477,0.686771,0.00340428,0.0021038,0.490935,0.4213441380726246,0.9872882082868917,0.0034100811421953203,-0.03572571805317204,0.002106014539930756,-0.26763554530588163
747,0.7376,587.491,110.632,0.0388612,263.4,-4.62674,-2.51701,0.351983,-0.036434,-0.311802,0.687473,0.0033937,0.00209793,0.491455,0.42188435147913883,0.9886837743955015,0.0033994651196957992,-0.03577826956949637,0.0021001321948901364,-0.2678735250798492
748,0.7386,587.647,110.661,0.0389361,263.469,-4.63309,-2.52046,0.352363,-0.0364885,-0.312126,0.688175,0.00338312,0.00209206,0.491975,0.422424770205756,0.9900803205354702,0.0033888492095131006,-0.03583081822184098,0.002094249884378785,-0.2681106956340188
749,0.7396,587.804,110.689,0.0390107,263.539,-4.63942,-2.52389,0.352743,-0.036543,-0.31245,0.688876,0.00337253,0.00208619,0.492495,0.4229653943305123,0.99147585591817,0.003378223377863865,-0.035883364010362184,0.0020883676083964797,-0.26834778935737613
750,0.7406,587.96,110.718,0.0390848,263.608,-4.64571,-2.5273,0.353122,-0.0365975,-0.312774,0.689578,0.00336193,0.00208032,0.493015,0.42350480042596184,0.9928743627875032,0.0033675876250656156,-0.03593590693521587,0.002082485366942999,-0.2685848062748103
751,0.7416,588.116,110.746,0.0391586,263.677,-4.65197,-2.5307,0.353501,-0.0366519,-0.313098,0.690278,0.00335133,0.00207444,0.493534,0.42404441099506696,0.9942698632096192,0.0033569519850058516,-0.03598835059539818,0.0020765931392521253,-0.2688217464112024
752,0.7426,588.272,110.775,0.0392319,263.746,-4.65821,-2.53408,0.35388,-0.0367063,-0.313422,0.690979,0.00334072,0.00206856,0.494053,0.42458422611533786,0.9956683364913468,0.003346306424220069,-0.03604079140272287,0.0020707009462075376,-0.2690586097914255
753,0.7436,588.427,110.803,0.039305,263.815,-4.66441,-2.53745,0.354259,-0.0367607,-0.313745,0.691678,0.00333011,0.00206268,0.494572,0.42512424586431385,0.997063796314944,0.003335660976383048,-0.03609322935734527,0.0020648087878090138,-0.26929466573537564
754,0.7446,588.583,110.832,0.0393776,263.884,-4.67058,-2.54079,0.354638,-0.0368151,-0.314068,0.692378,0.0033195,0.0020568,0.49509,0.4256644703195642,0.9984622303671802,0.0033250156414936782,-0.03614566445942047,0.0020589166640561096,-0.26953064544556826
755,0.7456,588.738,110.86,0.0394499,263.953,-4.67673,-2.54412,0.355016,-0.0368694,-0.314391,0.693077,0.00330887,0.00205091,0.495609,0.4262034733545006,0.9998596438053053,0.003314350353263551,-0.03619800032890863,0.0020530145544186418,-0.2697665489466229
756,0.7466,588.893,110.889,0.0395218,264.022,-4.68284,-2.54744,0.355394,-0.0369237,-0.314714,0.693776,0.00329825,0.00204502,0.496126,0.42674268017109673,1.001258034376892,0.003303695211441582,-0.03625033335663619,0.0020471124795446993,-0.27000237626315127
757,0.7476,589.047,110.917,0.0395934,264.091,-4.68893,-2.55074,0.355772,-0.036978,-0.315037,0.694474,0.00328762,0.00203912,0.496644,0.4272820908463961,1.002655400108794,0.0032930301498463876,-0.036302663542757574,0.0020412004190215605,-0.27023812741975684
758,0.7486,589.202,110.946,0.0396646,264.159,-4.69499,-2.55402,0.35615,-0.0370323,-0.315359,0.695172,0.00327698,0.00203323,0.497161,0.42782170545747245,1.004053741542457,0.0032823551687966024,-0.036354990887426886,0.0020352984137326224,-0.270473072914473
759,0.7496,589.356,110.974,0.0397354,264.228,-4.70102,-2.55729,0.356528,-0.0370865,-0.315682,0.695869,0.00326634,0.00202733,0.497678,0.4283615240814278,1.0054510539071022,0.0032716803013281837,-0.03640721903152533,0.0020293864229121716,-0.2707086720606112
760,0.7506,589.51,111.003,0.0398059,264.297,-4.70701,-2.56053,0.356905,-0.0371407,-0.316004,0.696566,0.00325569,0.00202143,0.498195,0.42890011789456106,1.0068493405379582,0.003260995514829501,-0.03645944434493498,0.002023474466972708,-0.2709434660643444
761,0.7516,589.664,111.031,0.039876,264.365,-4.71299,-2.56377,0.357282,-0.0371949,-0.316326,0.697263,0.00324504,0.00201553,0.498711,0.4294389147958415,1.0082486021143247,0.0032503108421231275,-0.036511666827809486,0.002017562545913565,-0.27117818447657926
762,0.7526,589.818,111.059,0.0399457,264.433,-4.71893,-2.56699,0.357659,-0.0372491,-0.316648,0.697959,0.00323439,0.00200962,0.499227,0.4299779148618481,1.0096468296681413,0.0032396262832081746,-0.036563886480302066,0.0020116406396180064,-0.2714128273216524
763,0.7536,589.971,111.088,0.0400151,264.502,-4.72484,-2.57019,0.358036,-0.0373032,-0.316969,0.698655,0.00322373,0.00200371,0.499743,0.43051711816918803,1.0110460307270759,0.0032289318057936445,-0.036616006964171666,0.0020057187683211186,-0.2716466662709228
764,0.7546,590.124,111.116,0.0400842,264.57,-4.73073,-2.57337,0.358412,-0.0373573,-0.317291,0.699351,0.00321307,0.0019978,0.500259,0.4310550937386888,1.0124462059689234,0.0032182374423816995,-0.0366681246283993,0.0019997969320222353,-0.2718811582891426
765,0.7556,590.277,111.144,0.0401529,264.638,-4.73658,-2.57654,0.358788,-0.0374114,-0.317612,0.700046,0.0032024,0.00199189,0.500774,0.4315932716250366,1.0138453422256033,0.003207533160895615,-0.03672023947313774,0.0019938751307213565,-0.27211484692829857
766,0.7566,590.43,111.173,0.0402212,264.706,-4.74241,-2.5797,0.359164,-0.0374655,-0.317933,0.70074,0.00319172,0.00198597,0.501289,0.43213165190431724,1.015243435975525,0.0031968189616553566,-0.03677235149853919,0.0019879433445386674,-0.2723484605654398
767,0.7576,590.582,111.201,0.0402892,264.774,-4.74821,-2.58284,0.35954,-0.0375196,-0.318254,0.701435,0.00318105,0.00198006,0.501803,0.43267023465264476,1.0166445169827814,0.0031861149087031304,-0.03682446070475642,0.0019820216132921953,-0.2725819992246382
768,0.7586,590.734,111.229,0.0403569,264.842,-4.75399,-2.58596,0.359916,-0.0375736,-0.318574,0.702129,0.00317037,0.00197414,0.502318,0.4332090199461618,1.0180445540342316,0.0031754009382087833,-0.03687647077959366,0.0019760898972820407,-0.272814735745057
769,0.7596,590.887,111.257,0.0404242,264.909,-4.75973,-2.58907,0.360291,-0.0376276,-0.318895,0.702822,0.00315968,0.00196821,0.502832,0.4337465741137485,1.0194435436040745,0.0031646770504920596,-0.036928478045962776,0.0019701481966860612,-0.2730481247539429
770,0.7606,591.038,111.286,0.0404911,264.977,-4.76545,-2.59216,0.360667,-0.0376816,-0.319215,0.703515,0.00314899,0.00196229,0.503345,0.4342857641869968,1.020843503009699,0.0031539532774129686,-0.03698048250401531,0.0019642165509665688,-0.2732807121380554
771,0.7616,591.19,111.314,0.0405578,265.045,-4.77114,-2.59523,0.361042,-0.0377355,-0.319535,0.704208,0.0031383,0.00195636,0.503859,0.4348237222093918,1.0222444329234337,0.0031432296189704,-0.037032387857146465,0.0019582749207793793,-0.2735132251061122
772,0.7626,591.341,111.342,0.040624,265.112,-4.77681,-2.5983,0.361416,-0.0377895,-0.319855,0.7049,0.0031276,0.00195043,0.504372,0.435360446642711,1.0236443103727515,0.003132496043838362,-0.03708438670422065,0.0019523333258257836,-0.27374566368192266
773,0.7636,591.493,111.37,0.04069,265.18,-4.78245,-2.60134,0.361791,-0.0378434,-0.320175,0.705592,0.0031169,0.0019445,0.504885,0.43589880774659995,1.0250451568725172,0.003121762583554677,-0.03713628645706635,0.0019463917661060037,-0.2739780278892884
774,0.7646,591.644,111.398,0.0407556,265.247,-4.78806,-2.60437,0.362165,-0.0378973,-0.320494,0.706283,0.00310619,0.00193857,0.505397,0.4364359343371087,1.0264449466475858,0.003111019207008292,-0.03718818341259089,0.0019404502416193736,-0.2742095919619585
775,0.7656,591.794,111.426,0.0408208,265.315,-4.79364,-2.60739,0.36254,-0.0379511,-0.320814,0.706974,0.00309548,0.00193263,0.50591,0.4369746988245129,1.0278457040116522,0.003100275945522979,-0.037239981294947766,0.001934498733020984,-0.2744418077360252
776,0.7666,591.945,111.455,0.0408858,265.382,-4.7992,-2.61039,0.362914,-0.038005,-0.321133,0.707665,0.00308477,0.0019267,0.506422,0.43751222787353994,1.0292474296335516,0.0030895327990971833,-0.03729187266147105,0.0019285572790599392,-0.27467322388651905
777,0.7676,592.095,111.483,0.0409504,265.449,-4.80473,-2.61338,0.363287,-0.0380588,-0.321452,0.708355,0.00307405,0.00192076,0.506934,0.4380485199467905,1.0306480935334728,0.003078779736942039,-0.03734366496549635,0.0019226058411054847,-0.2749045662270341
778,0.7686,592.246,111.511,0.0410146,265.516,-4.81023,-2.61635,0.363661,-0.0381126,-0.321771,0.709045,0.00306333,0.00191482,0.507445,0.43858645068002744,1.03204972422499,0.0030680267900591307,-0.03739545448317072,0.0019166544385025297,-0.27513583478111214
779,0.7696,592.396,111.539,0.0410786,265.583,-4.81571,-2.61931,0.364034,-0.0381664,-0.322089,0.709735,0.00305261,0.00190888,0.507956,0.439123143513122,1.0334523223754193,0.0030572739584473485,-0.037447241214643934,0.00191070307125063,-0.2753663049389544
780,0.7706,592.545,111.567,0.0411422,265.65,-4.82116,-2.62225,0.364408,-0.0382201,-0.322408,0.710424,0.00304188,0.00190293,0.508467,0.43966147623073915,1.034853853797666,0.003046511211640013,-0.03749892890996365,0.0019047417203024164,-0.27559742622187433
781,0.7716,592.695,111.595,0.0412054,265.717,-4.82658,-2.62518,0.364781,-0.0382738,-0.322726,0.711112,0.00303115,0.00189698,0.508978,0.440198570123157,1.0362543149524743,0.0030357485803163,-0.037550613829728685,0.001898780404824274,-0.2758277496169751
782,0.7726,592.844,111.623,0.0412684,265.784,-4.83198,-2.62809,0.365153,-0.0383275,-0.323044,0.711801,0.00302042,0.00189104,0.509488,0.44073442365382,1.037657777612842,0.003024986064475099,-0.03760229597408804,0.0018928291437438904,-0.2760579997808805
783,0.7736,592.993,111.651,0.041331,265.851,-4.83736,-2.63099,0.365526,-0.0383812,-0.323362,0.712489,0.00300968,0.00188509,0.509998,0.4412719178302751,1.0390601685309977,0.0030142136339728065,-0.037653975343190815,0.0018868678991452725,-0.27628817673687445
784,0.7746,593.142,111.679,0.0413933,265.917,-4.8427,-2.63387,0.365898,-0.0384348,-0.32368,0.713176,0.00299894,0.00187913,0.510508,0.44180817072056144,1.0404614841635835,0.003003441319165745,-0.03770555570774625,0.001880896671206722,-0.27651828050823346
785,0.7756,593.291,111.707,0.0414553,265.984,-4.84802,-2.63674,0.36627,-0.0384885,-0.323997,0.713863,0.00298819,0.00187318,0.511017,0.442344623134032,1.0418637628307734,0.0029926590901261374,-0.037757229531950154,0.0018749354976059784,-0.2767475878661758
786,0.7766,593.44,111.735,0.041517,266.05,-4.85332,-2.6396,0.366642,-0.0385421,-0.324315,0.71455,0.00297744,0.00186722,0.511526,0.44288127514492337,1.0432670051943997,0.002981876976994924,-0.03780880436222944,0.0018689643407845402,-0.2769775455680219
787,0.7776,593.588,111.762,0.0415783,266.117,-4.85859,-2.64244,0.367014,-0.0385956,-0.324632,0.715236,0.00296669,0.00186127,0.512035,0.44341812682749926,1.0446691672465591,0.002971094979770772,-0.03786028021420473,0.0018630032381810047,-0.27720670736201347
788,0.7786,593.736,111.79,0.0416394,266.183,-4.86384,-2.64527,0.367385,-0.0386492,-0.324949,0.715922,0.00295594,0.00185531,0.512544,0.4439537343015951,1.0460722915118876,0.0029603130984523496,-0.03791184952111548,0.0018570321524755684,-0.27743579652322925
789,0.7796,593.884,111.818,0.0417001,266.25,-4.86906,-2.64808,0.367757,-0.0387027,-0.325266,0.716608,0.00294518,0.00184935,0.513052,0.4444909850131922,1.0474763786506904,0.002949521303543534,-0.03796331986032231,0.001851061102357665,-0.27766481307469015
790,0.7806,594.032,111.846,0.0417605,266.316,-4.87426,-2.65088,0.368128,-0.0387562,-0.325583,0.717293,0.00293442,0.00184339,0.51356,0.44502699059151873,1.0488793804433199,0.002938729624753611,-0.03801478744593956,0.0018450900878272947,-0.2778937570394099
791,0.7816,594.179,111.874,0.0418206,266.382,-4.87943,-2.65367,0.368499,-0.0388097,-0.325899,0.717978,0.00292366,0.00183742,0.514068,0.4455631950648078,1.0502833436214143,0.00292793806208147,-0.038066252278114665,0.0018391090904925633,-0.2781219065626622
792,0.7826,594.326,111.902,0.0418803,266.448,-4.88457,-2.65644,0.368869,-0.0388632,-0.326215,0.718662,0.00291289,0.00183146,0.514575,0.4460981524079872,1.051686217156505,0.0029171365863545073,-0.03811771435699485,0.0018331381471958785,-0.27834998400205513
793,0.7836,594.473,111.929,0.0419398,266.514,-4.8897,-2.6592,0.36924,-0.0389166,-0.326531,0.719346,0.00290212,0.00182549,0.515082,0.44663475435603717,1.05309005058534,0.0029063352269589338,-0.03816907749964016,0.0018271572212142928,-0.2785779893803634
794,0.7846,594.62,111.957,0.041999,266.58,-4.89479,-2.66194,0.36961,-0.03897,-0.326847,0.72003,0.00289135,0.00181952,0.515589,0.44717010824951164,1.054494844564711,0.002895533983893417,-0.03822043789956675,0.0018211763309385898,-0.27880592272035476
795,0.7856,594.767,111.985,0.0420578,266.646,-4.89987,-2.66467,0.36998,-0.0390234,-0.327163,0.720713,0.00288057,0.00181355,0.516096,0.44770566026057623,1.055898543852288,0.0028847228283093163,-0.038271795556921284,0.0018151954763687694,-0.27903378404478973
796,0.7866,594.914,112.013,0.0421164,266.712,-4.90492,-2.66739,0.37035,-0.0390768,-0.327479,0.721396,0.0028698,0.00180758,0.516602,0.44824141046254806,1.0573032021939581,0.0028739218180080517,-0.03832315047185009,0.0018092146575046097,-0.27926157337642177
797,0.7876,595.06,112.04,0.0421746,266.777,-4.90994,-2.67009,0.37072,-0.0391301,-0.327794,0.722079,0.00285902,0.00180161,0.517108,0.44877735892877113,1.0587088202449788,0.0028631108954018103,-0.03837440648194512,0.0018032338743456666,-0.2794885702269272
798,0.7886,595.206,112.068,0.0422326,266.843,-4.91494,-2.67278,0.371089,-0.0391834,-0.328109,0.722761,0.00284823,0.00179564,0.517614,0.44931205641983585,1.0601133385466874,0.002852290060813667,-0.03842565976016765,0.00179725312689194,-0.27971549558468545
799,0.7896,595.352,112.096,0.0422902,266.909,-4.91992,-2.67546,0.371459,-0.0392367,-0.328424,0.723442,0.00283745,0.00178966,0.518119,0.4498484010983579,1.0615167535388048,0.0028414793713966713,-0.038476910306663226,0.0017912623972307085,-0.2799423494722132
800,0.7906,595.498,112.123,0.0423475,266.974,-4.92487,-2.67812,0.371828,-0.03929,-0.328739,0.724124,0.00282666,0.00178368,0.518625,0.4503834938769091,1.062923187504187,0.0028306587702113806,-0.038528158121577505,0.0017852717033937093,-0.28016913191202
801,0.7916,595.643,112.151,0.0424046,267.039,-4.9298,-2.68077,0.372197,-0.0393432,-0.329054,0.724805,0.00281587,0.00177771,0.51913,0.45091878414112974,1.0643285166551415,0.0028198382857798077,-0.03857930706299151,0.0017792910631737602,-0.28039584292660835
802,0.7926,595.788,112.179,0.0424613,267.105,-4.93471,-2.68341,0.372565,-0.0393965,-0.329369,0.725485,0.00280507,0.00177173,0.519634,0.45145282051035873,1.0657327374274206,0.0028090078900107063,-0.03863054942030408,0.001773300440925274,-0.28062248253847355
803,0.7936,595.933,112.206,0.0425178,267.17,-4.93959,-2.68604,0.372934,-0.0394497,-0.329683,0.726165,0.00279428,0.00176575,0.520139,0.45198850542891633,1.0671379133945536,0.00279818763919093,-0.03868169291464596,0.001767309854500576,-0.2808483316187952
804,0.7946,596.078,112.234,0.0425739,267.235,-4.94445,-2.68865,0.373302,-0.0395028,-0.329997,0.726845,0.00278348,0.00175977,0.520643,0.45252293552802136,1.0685440452062949,0.002787357477247232,-0.03873273756150475,0.0017613193038994446,-0.28107410979363834
805,0.7956,596.223,112.261,0.0426298,267.3,-4.94929,-2.69125,0.37367,-0.039556,-0.330311,0.727525,0.00277268,0.00175378,0.521146,0.4530575623335944,1.0699511335128395,0.0027765274322688605,-0.038783875619582076,0.001755318771568426,-0.28129981708526397
806,0.7966,596.368,112.289,0.0426854,267.366,-4.9541,-2.69383,0.374038,-0.0396091,-0.330625,0.728204,0.00276188,0.0017478,0.52165,0.45359238591803686,1.0713571076066821,0.002765697504254483,-0.038834914840683354,0.001749328292673713,-0.2815254535159256
807,0.7976,596.512,112.316,0.0427407,267.43,-4.9589,-2.6964,0.374406,-0.0396622,-0.330939,0.728882,0.00275107,0.00174181,0.522153,0.454127406353777,1.0727619639181132,0.002754857665653754,-0.03888595135167394,0.001743327832168573,-0.28175101910787037
808,0.7986,596.656,112.344,0.0427957,267.495,-4.96366,-2.69896,0.374773,-0.0397153,-0.331252,0.72956,0.00274026,0.00173583,0.522656,0.4546611690513729,1.0741677730450916,0.0027440179442312918,-0.038936985152697834,0.0017373374249793905,-0.28197579585949284
809,0.7996,596.8,112.371,0.0428504,267.56,-4.96841,-2.70151,0.37514,-0.0397684,-0.331565,0.730238,0.00272946,0.00172984,0.523159,0.45519512767582926,1.0755745356338449,0.002733188367317174,-0.03898801624389869,0.001731337036299463,-0.28220050226700155
810,0.8006,596.944,112.399,0.0429048,267.625,-4.97313,-2.70405,0.375508,-0.0398214,-0.331878,0.730916,0.00271864,0.00172385,0.523661,0.45573073802907427,1.0769822523310397,0.0027223388529151737,-0.03903894852932033,0.0017253366835616735,-0.2824251383524107
811,0.8016,597.087,112.426,0.042959,267.69,-4.97783,-2.70657,0.375874,-0.0398744,-0.332191,0.731593,0.00270783,0.00171786,0.524163,0.45626363299302275,1.0783888453938961,0.0027114994830190753,-0.03908987811540232,0.0017193363667658002,-0.2826497041377276
812,0.8026,597.231,112.454,0.0430128,267.754,-4.98251,-2.70908,0.376241,-0.0399274,-0.332504,0.73227,0.00269701,0.00171187,0.524665,0.45679817982967585,1.0797963910426698,0.0027006502032893565,-0.03914080500228778,0.001713336085911843,-0.28287419964495275
813,0.8036,597.374,112.481,0.0430664,267.819,-4.98716,-2.71157,0.376608,-0.0399803,-0.332817,0.732946,0.0026862,0.00170588,0.525167,0.45733292288102123,1.081202808718631,0.0026898110678461595,-0.03919163310928786,0.0017073358409995798,-0.28309862489607984
814,0.8046,597.517,112.508,0.0431197,267.883,-4.9918,-2.71406,0.376974,-0.0400333,-0.333129,0.733622,0.00267538,0.00169989,0.525668,0.4578664043519496,1.0826101774543626,0.0026789620227838373,-0.039242554603301616,0.0017013356320285666,-0.2833222632357172
815,0.8056,597.66,112.536,0.0431727,267.948,-4.99641,-2.71653,0.37734,-0.0400862,-0.333441,0.734298,0.00266456,0.0016939,0.526169,0.45840008111283237,1.0840184978929996,0.002668113095107616,-0.03929337732789018,0.0016953354589985814,-0.2835458318110763
816,0.8066,597.802,112.563,0.0432255,268.012,-5.001,-2.71899,0.377706,-0.0401391,-0.333753,0.734973,0.00265373,0.0016879,0.52667,0.4589339532351584,1.0854256852513817,0.00265725425824348,-0.03934419736402772,0.0016893253050163093,-0.2837693306439203
817,0.8076,597.945,112.59,0.043278,268.077,-5.00557,-2.72144,0.378071,-0.040192,-0.334065,0.735648,0.00264291,0.00168191,0.52717,0.4594665613231521,1.0868338227818777,0.0026464055654440433,-0.03939501471185647,0.00168332520392811,-0.28399275975600546
818,0.8086,598.087,112.618,0.0433302,268.141,-5.01011,-2.72388,0.378437,-0.0402448,-0.334377,0.736322,0.00263208,0.00167591,0.527671,0.4600008238486746,1.0882408228842033,0.002635546963671187,-0.03944573331609669,0.0016773151220070837,-0.2842161191690812
819,0.8096,598.229,112.645,0.0433821,268.205,-5.01464,-2.7263,0.378802,-0.0402976,-0.334689,0.736996,0.00262125,0.00166991,0.528171,0.4605338214155179,1.0896487716242529,0.002624688479496262,-0.039496449242465426,0.0016713050761465453,-0.2844394089048904
820,0.8106,598.371,112.672,0.0434338,268.269,-5.01914,-2.72871,0.379167,-0.0403504,-0.335,0.73767,0.00261042,0.00166392,0.52867,0.4610670135619819,1.0910576696416237,0.0026138301129181585,-0.03954716249110379,0.0016653050829991134,-0.2846619136474401
821,0.8116,598.513,112.699,0.0434851,268.333,-5.02362,-2.73111,0.379532,-0.0404032,-0.335311,0.738343,0.00259959,0.00165792,0.52917,0.46160040035910077,1.0924654251098729,0.0026029718639357657,-0.039597873062153455,0.0016592951091984887,-0.2848843492017742
822,0.8126,598.654,112.727,0.0435363,268.397,-5.02808,-2.7335,0.379897,-0.0404559,-0.335622,0.739016,0.00258876,0.00165192,0.529669,0.4621339818779351,1.0938741283164308,0.0025921137325473076,-0.039648484920608906,0.0016532851714576857,-0.2851067155894068
823,0.8136,598.795,112.754,0.0435871,268.461,-5.03252,-2.73588,0.380261,-0.0405087,-0.335933,0.739689,0.00257792,0.00164592,0.530168,0.46266629552254446,1.0952837798993396,0.0025812456929392713,-0.03969919014197543,0.0016472752697764825,-0.28532901283184564
824,0.8146,598.936,112.781,0.0436377,268.525,-5.03694,-2.73824,0.380626,-0.0405613,-0.336244,0.740361,0.00256709,0.00163992,0.530666,0.46320026616412413,1.0966922838037387,0.0025703877968439315,-0.039749700636136365,0.001641265404154435,-0.28555124095059126
825,0.8156,599.077,112.808,0.043688,268.588,-5.04134,-2.7406,0.38099,-0.040614,-0.336554,0.741033,0.00255625,0.00163392,0.531164,0.4637329680068616,1.0981017345408621,0.0025595199927439527,-0.03980030449348948,0.0016352555745915431,-0.2857726857401808
826,0.8166,599.218,112.835,0.0437381,268.652,-5.04572,-2.74294,0.381354,-0.0406667,-0.336865,0.741704,0.00254541,0.00162791,0.531663,0.46426586378836454,1.099510033236112,0.002548652306450183,-0.039850905684089555,0.0016292357647951228,-0.28599477589810596
827,0.8176,599.359,112.862,0.0437879,268.716,-5.05007,-2.74527,0.381717,-0.0407193,-0.337175,0.742375,0.00253457,0.00162191,0.53216,0.464797488781018,1.100919277216894,0.0025377847379615126,-0.039901408198222854,0.0016232260074098281,-0.2862160832131714
828,0.8186,599.499,112.889,0.0438374,268.779,-5.05441,-2.74759,0.382081,-0.0407719,-0.337485,0.743046,0.00252373,0.00161591,0.532658,0.46533077211861373,1.1023294671177077,0.002526917287276609,-0.03995190805599369,0.001617216286082801,-0.28643732193360194
829,0.8196,599.639,112.916,0.0438867,268.843,-5.05872,-2.74989,0.382444,-0.0408245,-0.337795,0.743716,0.00251288,0.0016099,0.533155,0.4658627837431608,1.103738499833927,0.002516039929233882,-0.04000240525754195,0.0016111965847023235,-0.2866584920806585
830,0.8206,599.779,112.944,0.0439357,268.906,-5.06302,-2.75219,0.382807,-0.0408771,-0.338104,0.744386,0.00250204,0.0016039,0.533652,0.466394988522983,1.105148476918394,0.0025051727142613167,-0.04005289980300719,0.0016051869355515613,-0.2868788805548328
831,0.8216,599.919,112.971,0.0439844,268.969,-5.06729,-2.75447,0.38317,-0.0409296,-0.338414,0.745056,0.00249119,0.00159789,0.534149,0.46692738652820864,1.1065593990040479,0.0024942955921458676,-0.04010329570286353,0.001599167306467253,-0.2870999138399315
832,0.8226,600.059,112.998,0.0440329,269.033,-5.07154,-2.75675,0.383533,-0.0409821,-0.338723,0.745725,0.00248034,0.00159189,0.534645,0.4674599778289912,1.1079691587540386,0.002483418588046682,-0.04015368895700466,0.0015931577294920896,-0.28732016593585363
833,0.8236,600.198,113.025,0.0440812,269.096,-5.07578,-2.75901,0.383895,-0.0410346,-0.339032,0.746394,0.0024695,0.00158588,0.535141,0.4679912945034812,1.1093798619488489,0.0024725517266876995,-0.04020407956556937,0.00158713817270284,-0.28754034998439193
834,0.8246,600.337,113.052,0.0441292,269.159,-5.07999,-2.76126,0.384258,-0.041087,-0.339341,0.747063,0.00245865,0.00157988,0.535637,0.4685242720729623,1.110791509219855,0.00246167495850802,-0.04025437155413858,0.0015811286679023873,-0.28776046600657
835,0.8256,600.477,113.079,0.0441769,269.222,-5.08419,-2.7635,0.38462,-0.0411395,-0.33965,0.747731,0.0024478,0.00157387,0.536132,0.46905597409171196,1.11220198899581,0.002450798308340607,-0.04030475687700563,0.0015751091834077524,-0.2879805140234045
836,0.8266,600.616,113.105,0.0442244,269.285,-5.08836,-2.76573,0.384982,-0.0411919,-0.339959,0.748398,0.00243694,0.00156786,0.536628,0.46958786862143453,1.1136112976746655,0.00243991175178504,-0.040355043590221906,0.0015690897350899569,-0.28820049405590586
837,0.8276,600.754,113.132,0.0442717,269.348,-5.09251,-2.76795,0.385343,-0.0412443,-0.340267,0.749066,0.00242609,0.00156185,0.537123,0.47011848561261105,1.1150236616985771,0.0024290353377471874,-0.04040532766848337,0.0015630703229490006,-0.2884196945451285
838,0.8286,600.893,113.159,0.0443187,269.411,-5.09665,-2.77015,0.385705,-0.0412967,-0.340575,0.749733,0.00241524,0.00155584,0.537618,0.47065076484113066,1.1164348530609307,0.0024181590417178267,-0.04045560911192825,0.0015570509469846616,-0.28863882753099646
839,0.8296,601.031,113.186,0.0443654,269.473,-5.10076,-2.77235,0.386066,-0.041349,-0.340883,0.7504,0.00240438,0.00154983,0.538112,0.4711817656071098,1.1178469860019047,0.0024072728396227205,-0.04050579197127846,0.0015510316071964958,-0.28885789303429754
840,0.8306,601.169,113.213,0.0444119,269.536,-5.10486,-2.77454,0.386427,-0.0414013,-0.341191,0.751066,0.00239353,0.00154383,0.538606,0.47171295809897007,1.1192579418907398,0.0023963967797151486,-0.04055597220613383,0.00154502231903475,-0.28907689107581336
841,0.8316,601.307,113.24,0.0444582,269.599,-5.10894,-2.77671,0.386788,-0.0414536,-0.341499,0.751732,0.00238267,0.00153782,0.5391,0.4722443423859366,1.120669837789185,0.0023855108139572145,-0.040606149816631465,0.0015390030515385345,-0.28929582167631884
842,0.8326,601.445,113.267,0.0445042,269.661,-5.113,-2.77887,0.387149,-0.0415059,-0.341807,0.752397,0.00237181,0.0015318,0.539594,0.4727759185372604,1.1220805522418829,0.002374624966420047,-0.040656324802908705,0.0015329738048883712,-0.2895146848565826
843,0.8336,601.583,113.294,0.04455,269.724,-5.11703,-2.78103,0.38751,-0.0415581,-0.342114,0.753062,0.00236096,0.00152579,0.540087,0.47330768662221656,1.1234922051316873,0.002363749260739789,-0.04070640123574776,0.0015269546098033437,-0.2897327703704924
844,0.8346,601.72,113.32,0.0445955,269.786,-5.12105,-2.78317,0.38787,-0.0416104,-0.342422,0.753727,0.0023501,0.00151978,0.540581,0.473838172871196,1.1249047970828667,0.0023528636495318,-0.040756570979012974,0.0015209354508938233,-0.2899514989912815
845,0.8356,601.858,113.347,0.0446408,269.849,-5.12505,-2.7853,0.38823,-0.0416626,-0.342729,0.754392,0.00233924,0.00151377,0.541073,0.47436885012960506,1.1263183287201044,0.0023419781565410247,-0.0408066421791381,0.0015149163281591438,-0.29016945042383446
846,0.8366,601.995,113.374,0.0446859,269.911,-5.12904,-2.78742,0.38859,-0.0417148,-0.343036,0.755056,0.00232838,0.00150776,0.541566,0.4748997184662187,1.1277306729367629,0.002331092781765909,-0.04085671076561492,0.0015088972415995272,-0.29038733495556746
847,0.8376,602.132,113.401,0.0447307,269.973,-5.133,-2.78954,0.38895,-0.0417669,-0.343342,0.75572,0.00231752,0.00150175,0.542058,0.47543077794983835,1.1291439552613989,0.0023202075252053422,-0.04090668082925253,0.0015028781912143074,-0.2906044432118138
848,0.8386,602.269,113.427,0.0447753,270.035,-5.13695,-2.79164,0.38931,-0.041819,-0.343649,0.756383,0.00230666,0.00149574,0.542551,0.4759620286492885,1.1305560457600117,0.0023093223868579926,-0.04095664828951773,0.0014968591770034845,-0.29082219422125755
849,0.8396,602.405,113.454,0.0448197,270.098,-5.14087,-2.79373,0.389669,-0.0418711,-0.343955,0.757046,0.00229579,0.00148973,0.543042,0.47649199414068755,1.1319690727850493,0.0022984273437383074,-0.04100661314654597,0.0014908401989668363,-0.29103916943092567
850,0.8406,602.542,113.481,0.0448638,270.16,-5.14478,-2.79581,0.390028,-0.0419232,-0.344262,0.757709,0.00228493,0.00148371,0.543534,0.47702214992385317,1.133383036957634,0.002287542441922419,-0.04105657540047303,0.0014848112422560789,-0.2912567869999044
851,0.8416,602.678,113.507,0.0449077,270.222,-5.14867,-2.79788,0.390387,-0.0419753,-0.344568,0.758371,0.00227407,0.0014777,0.544025,0.4775524960671125,1.1347958041024304,0.0022766576583159726,-0.04110653505143447,0.0014787923366272882,-0.291473629244527
852,0.8426,602.814,113.534,0.0449514,270.283,-5.15254,-2.79994,0.390746,-0.0420273,-0.344874,0.759033,0.0022632,0.00147169,0.544516,0.47808303263881724,1.1362095068087132,0.0022657629702600435,-0.04115639621521028,0.0014727734671722281,-0.29169040514557376
853,0.8436,602.95,113.56,0.0449948,270.345,-5.15639,-2.80199,0.391105,-0.0420793,-0.345179,0.759694,0.00225234,0.00146567,0.545007,0.47861375970734343,1.137622008072952,0.0022548784231772867,-0.041206254786273044,0.001466744619222693,-0.2919064066301036
854,0.8446,603.086,113.587,0.045038,270.407,-5.16023,-2.80403,0.391463,-0.0421313,-0.345485,0.760355,0.00224148,0.00145966,0.545498,0.4791431981971537,1.139035443309171,0.0022439939943001974,-0.04125611076475744,0.001460725822173936,-0.29212305012153006
855,0.8456,603.221,113.614,0.045081,270.469,-5.16405,-2.80606,0.391822,-0.0421833,-0.34579,0.761016,0.00223061,0.00145365,0.545988,0.47967430593344096,1.140449813134928,0.002233099661296256,-0.04130596415079846,0.0014547070612982438,-0.29233891966946346
856,0.8466,603.357,113.64,0.0451237,270.53,-5.16785,-2.80808,0.39218,-0.0422352,-0.346096,0.761677,0.00221975,0.00144764,0.546478,0.4802041241667703,1.1418651181681927,0.002222215468935307,-0.04135571908010738,0.001448688336595172,-0.2925554308321473
857,0.8476,603.492,113.667,0.0451663,270.592,-5.17163,-2.81009,0.392538,-0.0422872,-0.346401,0.762337,0.00220888,0.00144162,0.546968,0.4807341321089831,1.1432792157470528,0.002211321372662667,-0.04140556728665068,0.0014426596336376551,-0.29277116852407314
858,0.8486,603.627,113.693,0.0452086,270.654,-5.17539,-2.81209,0.392895,-0.0423391,-0.346706,0.762997,0.00219801,0.00143561,0.547457,0.4812628485644179,1.1446942469383736,0.002200427394808191,-0.04145531704669103,0.0014366409813393322,-0.2929868404260363
859,0.8496,603.762,113.72,0.0452507,270.715,-5.17914,-2.81408,0.393253,-0.0423909,-0.347011,0.763656,0.00218715,0.0014296,0.547946,0.4817932355978183,1.1461080662494023,0.0021895435572660826,-0.0415049683752875,0.0014306223652129635,-0.2932024465580998
860,0.8506,603.897,113.746,0.0452925,270.776,-5.18287,-2.81606,0.39361,-0.0424428,-0.347315,0.764315,0.00217628,0.00142358,0.548435,0.48232233022069737,1.1475228175744223,0.0021786498161351364,-0.04155471297654523,0.00142459377101245,-0.293417280357954
861,0.8516,604.031,113.773,0.0453342,270.838,-5.18658,-2.81803,0.393967,-0.0424946,-0.34762,0.764974,0.00216542,0.00141757,0.548924,0.48285161376407726,1.1489385015278328,0.0021677662150962895,-0.04160435915656591,0.00141857522728972,-0.2936327552258572
862,0.8526,604.166,113.799,0.0453756,270.899,-5.19028,-2.82,0.394324,-0.0425464,-0.347924,0.765632,0.00215455,0.00141156,0.549412,0.48338108629541443,1.1503529683703948,0.002156872710683766,-0.04165400276498099,0.0014125567197382782,-0.29384745823175806
863,0.8536,604.3,113.825,0.0454168,270.96,-5.19395,-2.82195,0.394681,-0.0425982,-0.348228,0.76629,0.00214368,0.00140554,0.5499,0.4839107478821898,1.1517683662384135,0.0021459793246831893,-0.04170364380192382,0.0014065282342925478,-0.29406209597786526
864,0.8546,604.434,113.852,0.0454578,271.021,-5.19761,-2.82389,0.395037,-0.0426499,-0.348532,0.766948,0.00213282,0.00139953,0.550388,0.48443911415205165,1.153184695744704,0.0021350960784438655,-0.041753186442850976,0.0014005097991431903,-0.29427666848401457
865,0.8556,604.568,113.878,0.0454986,271.082,-5.20126,-2.82582,0.395394,-0.0427017,-0.348836,0.767605,0.00212195,0.00139352,0.550876,0.48496915352220205,1.1545998029016067,0.002124202929153718,-0.04180282234221233,0.0013944914001646769,-0.2944911757700359
866,0.8566,604.702,113.905,0.0455391,271.143,-5.20488,-2.82775,0.39575,-0.0427534,-0.349139,0.768262,0.00211108,0.0013875,0.551363,0.48549789665154885,1.1560158400893936,0.0021133098982717424,-0.04185235985574154,0.001388463023471953,-0.2947049125610185
867,0.8576,604.835,113.931,0.0455795,271.204,-5.20849,-2.82966,0.396106,-0.0428051,-0.349443,0.768918,0.00210022,0.00138149,0.55185,0.48602682804695885,1.1574306504875658,0.0021024270068203954,-0.04190189480824735,0.0013824446968941917,-0.29491928968062686
868,0.8586,604.969,113.957,0.0456196,271.265,-5.21209,-2.83157,0.396462,-0.0428567,-0.349746,0.769574,0.00208935,0.00137548,0.552337,0.48655594777546707,1.1588463893058476,0.0020915342126412995,-0.0419513313950004,0.0013764264064866083,-0.2951328967727449
869,0.8596,605.102,113.983,0.0456596,271.326,-5.21566,-2.83347,0.396817,-0.0429084,-0.350049,0.77023,0.00207848,0.00136947,0.552824,0.48708376881961946,1.1602630571534829,0.002080641536866157,-0.04200086123081004,0.0013704081522487588,-0.29534643915171854
870,0.8606,605.235,114.01,0.0456993,271.387,-5.21922,-2.83535,0.397173,-0.04296,-0.350352,0.770886,0.00206761,0.00136345,0.55331,0.48761326488602696,1.1616806546401142,0.0020697489794938573,-0.04205029271102734,0.001364379920536507,-0.295559916837153
871,0.8616,605.368,114.036,0.0457388,271.448,-5.22277,-2.83723,0.397528,-0.0430116,-0.350655,0.771541,0.00205675,0.00135744,0.553796,0.4881414613443855,1.1630970192776844,0.0020588665611114276,-0.042099721640646126,0.0013583617386978553,-0.29577332984864735
872,0.8626,605.5,114.062,0.0457781,271.508,-5.22629,-2.8391,0.397883,-0.0430631,-0.350957,0.772196,0.00204588,0.00135143,0.554282,0.48866984534577407,1.1645143119379862,0.0020479742404317935,-0.042149052234707884,0.0013523435930284933,-0.295985974192121
873,0.8636,605.633,114.088,0.0458172,271.569,-5.2298,-2.84096,0.398238,-0.0431147,-0.35126,0.77285,0.00203501,0.00134542,0.554767,0.48919841695678157,1.1659303672976238,0.0020370820381510057,-0.04219847606846672,0.001346325483527977,-0.2961992581277927
874,0.8646,605.765,114.115,0.0458561,271.629,-5.2333,-2.84281,0.398593,-0.0431662,-0.351562,0.773504,0.00202415,0.00133941,0.555253,0.4897271762440216,1.1673473490603672,0.0020261999745299075,-0.04224780157680641,0.0013403074101960843,-0.29641177386034734
875,0.8656,605.898,114.141,0.0458948,271.69,-5.23678,-2.84465,0.398947,-0.0432177,-0.351864,0.774158,0.00201328,0.00133339,0.555738,0.49025463301875294,1.1687652578322827,0.0020153080089340136,-0.04229712454494794,0.0013342793596899938,-0.29662422542284084
876,0.8666,606.03,114.167,0.0459333,271.75,-5.24024,-2.84649,0.399301,-0.0432691,-0.352166,0.774811,0.00200242,0.00132738,0.556222,0.49078227654623574,1.1701819240368234,0.002004426181777541,-0.04234634920766156,0.0013282613587550784,-0.2968366128346498
877,0.8676,606.162,114.193,0.0459715,271.81,-5.24369,-2.84831,0.399655,-0.0433206,-0.352468,0.775464,0.00199155,0.00132137,0.556707,0.49131010689259225,1.1715995156265007,0.001993534452861656,-0.04239566710073073,0.0013222433939883427,-0.2970489361151446
878,0.8686,606.293,114.219,0.0460096,271.871,-5.24712,-2.85013,0.400009,-0.043372,-0.35277,0.776117,0.00198069,0.00131536,0.557191,0.4918381241239682,1.1730180332057882,0.001982652862164702,-0.04244488669848734,0.0013162254653893424,-0.2972611952836901
879,0.8696,606.425,114.245,0.0460475,271.931,-5.25053,-2.85193,0.400363,-0.0434234,-0.353071,0.776769,0.00196982,0.00130935,0.557675,0.49236632830653226,1.174435302943166,0.001971761369923275,-0.04249410376642149,0.0013102075729580775,-0.2974726878326843
880,0.8706,606.556,114.271,0.0460852,271.991,-5.25393,-2.85373,0.400717,-0.0434748,-0.353373,0.777421,0.00195896,0.00130334,0.558159,0.49289471950647723,1.1758534970417207,0.0019608800156807327,-0.0425433183046634,0.0013041897166943262,-0.2976848190475332
881,0.8716,606.688,114.297,0.0461227,272.051,-5.25732,-2.85552,0.40107,-0.0435262,-0.353674,0.778072,0.00194809,0.00129733,0.558642,0.49342180436746763,1.1772704388328061,0.0019499887601091004,-0.04259253031334309,0.001298171896597644,-0.2978961841049629
882,0.8726,606.819,114.323,0.04616,272.111,-5.26069,-2.8573,0.401423,-0.0435775,-0.353975,0.778724,0.00193723,0.00129132,0.559125,0.49394907532225774,1.1786904820427062,0.0019391076423156406,-0.04264164405675974,0.0012921541126680314,-0.29810748555108435
883,0.8736,606.95,114.349,0.0461971,272.171,-5.26404,-2.85907,0.401776,-0.0436288,-0.354276,0.779375,0.00192637,0.00128531,0.559608,0.4944765324365501,1.180109271312316,0.0019282266426905448,-0.04269075528070598,0.001286136364905044,-0.2983187234050415
884,0.8746,607.08,114.375,0.046234,272.231,-5.26738,-2.86084,0.402129,-0.0436801,-0.354576,0.780025,0.0019155,0.00127931,0.560091,0.49500417577607037,1.1815268029865544,0.0019173357420592119,-0.042739863985311044,0.0012801286661101585,-0.29852919621552
885,0.8756,607.211,114.401,0.0462707,272.29,-5.2707,-2.86259,0.402481,-0.0437313,-0.354877,0.780675,0.00190464,0.0012733,0.560574,0.49553050987531044,1.1829452563558993,0.001906454978875649,-0.04278887444959645,0.0012741109906200254,-0.29874030715366895
886,0.8766,607.341,114.427,0.0463072,272.35,-5.274,-2.86434,0.402834,-0.0437826,-0.355177,0.781325,0.00189378,0.00126729,0.561056,0.4960585253345422,1.1843646320196477,0.0018955743338566755,-0.042837978120817244,0.0012680933512958514,-0.2989506535079921
887,0.8776,607.472,114.453,0.0463436,272.41,-5.2773,-2.86608,0.403186,-0.0438338,-0.355477,0.781975,0.00188292,0.00126128,0.561538,0.4965852306301535,1.1857849305774852,0.0018846938070007369,-0.04288698356178744,0.0012620757481378586,-0.2991609367678736
888,0.8786,607.602,114.479,0.0463797,272.47,-5.28057,-2.86781,0.403538,-0.043885,-0.355777,0.782624,0.00187206,0.00125528,0.562019,0.4971121213586631,1.1872039654244295,0.0018738133983067229,-0.042935986493743306,0.0012560681937059393,-0.2993711569522389
889,0.8796,607.732,114.505,0.0464156,272.529,-5.28384,-2.86953,0.40389,-0.0439362,-0.356077,0.783273,0.0018612,0.00124927,0.562501,0.49763919758535513,1.1886239215239036,0.0018629331077733013,-0.042984986916813295,0.0012500506628188024,-0.2995813140800079
890,0.8806,607.862,114.531,0.0464514,272.589,-5.28708,-2.87124,0.404242,-0.0439873,-0.356377,0.783921,0.00185034,0.00124326,0.562982,0.49816645937553594,1.1900426094302903,0.00185205293539914,-0.043033889134519554,0.0012440331680969585,-0.29979140817009475
891,0.8816,607.991,114.557,0.046487,272.648,-5.29032,-2.87295,0.404593,-0.0440384,-0.356676,0.784569,0.00183948,0.00123726,0.563463,0.4986924081013784,1.1914622169443607,0.0018411728811831285,-0.043082788853386345,0.0012380257219202218,-0.30000073924249704
892,0.8826,608.121,114.583,0.0465224,272.707,-5.29353,-2.87465,0.404945,-0.0440895,-0.356976,0.785217,0.00182862,0.00123125,0.563944,0.49922004068691717,1.1928827446622141,0.0018302929451237127,-0.04313168607354123,0.0012320082994681236,-0.3002107075239073
893,0.8836,608.25,114.608,0.0465576,272.767,-5.29674,-2.87634,0.405296,-0.0441406,-0.357275,0.785864,0.00181777,0.00122525,0.564424,0.4997463592847087,1.1943019988772399,0.0018194231454140564,-0.04318058079511211,0.0012260009254403403,-0.30041991324454376
894,0.8846,608.38,114.634,0.0465926,272.826,-5.29993,-2.87802,0.405647,-0.0441916,-0.357574,0.786511,0.00180691,0.00121924,0.564904,0.5002728626527531,1.195722171646863,0.0018085434455556992,-0.04322937734116905,0.0012199835752570998,-0.30062905642202054
895,0.8856,608.509,114.66,0.0466275,272.885,-5.3031,-2.87969,0.405997,-0.0442427,-0.357873,0.787158,0.00179605,0.00121324,0.565384,0.5007980500571161,1.1971432635655805,0.001797663863849941,-0.0432782670708437,0.0012139762733773818,-0.30083813707503504
896,0.8866,608.637,114.686,0.0466621,272.944,-5.30626,-2.88136,0.406348,-0.0442937,-0.358172,0.787804,0.0017852,0.00120724,0.565864,0.501324922633414,1.1985630766640987,0.0017867944181639839,-0.043327058635027615,0.0012079690075417204,-0.3010471552222793
897,0.8876,608.766,114.712,0.0466966,273.003,-5.30941,-2.88301,0.406698,-0.0443447,-0.35847,0.78845,0.00177435,0.00120124,0.566343,0.5018504783232165,1.199983807258198,0.0017759250904108015,-0.0433758477109053,0.0012019617777492275,-0.3012554121382015
898,0.8886,608.895,114.737,0.0467309,273.062,-5.31254,-2.88466,0.407049,-0.0443956,-0.358769,0.789096,0.00176349,0.00119523,0.566822,0.5023777203666735,1.2014054559407716,0.0017650458629385746,-0.043424538641062105,0.0011959445720406414,-0.3014643055388525
899,0.8896,609.023,114.763,0.046765,273.121,-5.31565,-2.88631,0.407399,-0.0444466,-0.359067,0.789741,0.00175264,0.00118923,0.567301,0.5029036446001738,1.2028258204781745,0.0017541767711557466,-0.04347332274558613,0.0011899374143948815,-0.3016724381625008
900,0.8906,609.151,114.789,0.0467989,273.18,-5.31876,-2.88794,0.407748,-0.0444975,-0.359365,0.790386,0.00174179,0.00118323,0.56778,0.5034282495103712,1.2042471014462208,0.0017433077973021405,-0.04352200871438994,0.001183930292791624,-0.3018805087718677
901,0.8916,609.28,114.814,0.0468327,273.239,-5.32185,-2.88957,0.408098,-0.0445484,-0.359663,0.791031,0.00173094,0.00117723,0.568258,0.5039545414934243,1.2056692994361997,0.001732438941376202,-0.04357069220514109,0.0011779232072313128,-0.30208851738543097
902,0.8926,609.408,114.84,0.0468663,273.298,-5.32492,-2.89118,0.408448,-0.0445992,-0.359961,0.791675,0.00172009,0.00117123,0.568736,0.5044810177109107,1.207090207948469,0.001721570203376821,-0.04361927757989803,0.00117191615771306,-0.30229646402166244
903,0.8936,609.535,114.866,0.0468997,273.356,-5.32798,-2.89279,0.408797,-0.0446501,-0.360259,0.792319,0.00170924,0.00116524,0.569214,0.5050061732203979,1.2085120318205345,0.001710701583302443,-0.04366795611978991,0.0011659191558963666,-0.30250434869902865
904,0.8946,609.663,114.891,0.046933,273.415,-5.33103,-2.8944,0.409146,-0.0447009,-0.360556,0.792963,0.00169839,0.00115924,0.569692,0.5055315120411439,1.2099347716420779,0.001699833081151958,-0.043716536553665586,0.0011599121784025002,-0.3027114741478133
905,0.8956,609.79,114.917,0.046966,273.474,-5.33406,-2.89599,0.409495,-0.0447517,-0.360853,0.793606,0.00168755,0.00115324,0.570169,0.5060570342371353,1.2113562166458376,0.0016889747138137956,-0.043765114519717874,0.0011539052369502478,-0.302918538089474
906,0.8966,609.918,114.942,0.0469989,273.532,-5.33708,-2.89758,0.409844,-0.0448024,-0.361151,0.794249,0.0016767,0.00114724,0.570646,0.5065827398723814,1.2127785759326457,0.0016781064473985197,-0.04381359439943633,0.0011478983315393876,-0.30312623741638667
907,0.8976,610.045,114.968,0.0470317,273.591,-5.34009,-2.89916,0.410192,-0.0448532,-0.361447,0.794892,0.00166586,0.00114125,0.571123,0.5071071219030383,1.2142018500905745,0.0016672483155759643,-0.04386216743507532,0.0011419014735891686,-0.30333248152447756
908,0.8986,610.172,114.993,0.0470642,273.649,-5.34308,-2.90074,0.410541,-0.0449039,-0.361744,0.795534,0.00165501,0.00113525,0.5716,0.507633194082838,1.2156238240831434,0.0016563802848907905,-0.04391064239433573,0.0011358946402006964,-0.3035393610543339
909,0.8996,610.299,115.019,0.0470966,273.707,-5.34606,-2.9023,0.410889,-0.0449546,-0.362041,0.796176,0.00164417,0.00112926,0.572076,0.5081579417351747,1.2170467112761219,0.001645522388578513,-0.043959114895978035,0.0011298978541522953,-0.30374617915009317
910,0.9006,610.426,115.044,0.0471288,273.766,-5.34903,-2.90386,0.411237,-0.0450053,-0.362338,0.796817,0.00163333,0.00112326,0.572552,0.5086828720314724,1.2184682937865694,0.0016346646099649753,-0.0440075849401268,0.001123891092785545,-0.3039529358299988
911,0.9016,610.552,115.07,0.0471609,273.824,-5.35198,-2.90541,0.411585,-0.045056,-0.362634,0.797459,0.00162249,0.00111727,0.573028,0.5092079850353026,1.219893007715417,0.001623806949049289,-0.0440560525269067,0.0011178943786380735,-0.3041589352715718
912,0.9026,610.679,115.095,0.0471928,273.882,-5.35492,-2.90696,0.411932,-0.0451066,-0.36293,0.7981,0.00161165,0.00111128,0.573504,0.5097317710777327,1.221316415286752,0.0016129494058298999,-0.04410442206688914,0.0011118977004107577,-0.3043648737463335
913,0.9036,610.805,115.121,0.0472245,273.94,-5.35785,-2.90849,0.41228,-0.0451572,-0.363226,0.79874,0.00160081,0.00110529,0.573979,0.510257249161951,1.2227385128152033,0.0016020919803056977,-0.04415278915943477,0.0011059010581033757,-0.3045707512723276
914,0.9046,610.931,115.146,0.047256,273.998,-5.36077,-2.91002,0.412627,-0.0452078,-0.363522,0.79938,0.00158997,0.0010993,0.574454,0.5107813993622108,1.2241615207773808,0.0015912346724753501,-0.04420115380466749,0.0010999044517159273,-0.3047765678675921
915,0.9056,611.057,115.171,0.0472874,274.056,-5.36367,-2.91154,0.412974,-0.0452584,-0.363818,0.80002,0.00157914,0.00109331,0.574929,0.5113057314741496,1.2255854397561485,0.001580387498141489,-0.04424951600271099,0.0010939078812479686,-0.30498232355016
916,0.9066,611.183,115.197,0.0473187,274.114,-5.36656,-2.91306,0.413321,-0.0453089,-0.364113,0.80066,0.0015683,0.00108732,0.575404,0.5118302455609023,1.2270102703347434,0.0015695304255864961,-0.04429778018347208,0.0010879113466994994,-0.30518732352572964
917,0.9076,611.309,115.222,0.0473497,274.172,-5.36943,-2.91457,0.413668,-0.0453594,-0.364409,0.801299,0.00155747,0.00108133,0.575878,0.5123549416856246,1.2284337846618771,0.0015586834863081656,-0.04434604192695357,0.0010819148480700758,-0.3053929576426153
918,0.9086,611.434,115.247,0.0473806,274.23,-5.37229,-2.91607,0.414015,-0.0454099,-0.364704,0.801938,0.00154664,0.00107534,0.576352,0.512879819911495,1.2298582089053536,0.001547836664501645,-0.04439430123327848,0.0010759183853594756,-0.3055978364989935
919,0.9096,611.56,115.273,0.0474114,274.288,-5.37514,-2.91756,0.414361,-0.0454604,-0.364999,0.802576,0.00153581,0.00106936,0.576826,0.5134033668975899,1.2312813123643664,0.0015369899601656023,-0.04444255810257003,0.0010699319692670795,-0.30580265492502323
920,0.9106,611.685,115.298,0.047442,274.345,-5.37798,-2.91905,0.414707,-0.0455108,-0.365294,0.803215,0.00152498,0.00106337,0.5773,0.5139270950622841,1.2327075567595212,0.001526143373298705,-0.04449071698402762,0.00106393557833373,-0.3060074129385284
921,0.9116,611.81,115.323,0.0474724,274.403,-5.38081,-2.92053,0.415053,-0.0455613,-0.365589,0.803852,0.00151415,0.00105739,0.577773,0.5144510044682762,1.2341302445511317,0.0015152969038996211,-0.04453896898444665,0.0010579492338980145,-0.3062121105573282
922,0.9126,611.935,115.349,0.0475027,274.46,-5.38362,-2.922,0.415399,-0.0456117,-0.365884,0.80449,0.00150333,0.0010514,0.578246,0.5149750951782865,1.2355560744385246,0.0015044605670118116,-0.04458712300691825,0.0010519529147412499,-0.30641674779923667
923,0.9136,612.06,115.374,0.0475328,274.518,-5.38642,-2.92347,0.415745,-0.045662,-0.366178,0.805127,0.0014925,0.00104542,0.578719,0.5154993672550572,1.2369805773139397,0.0014936143324364437,-0.044635179066011,0.0010459666419617708,-0.30662063130304007
924,0.9146,612.185,115.399,0.0475628,274.575,-5.38921,-2.92493,0.41609,-0.0457124,-0.366473,0.805764,0.00148168,0.00103944,0.579192,0.5160223047382893,1.238405987886757,0.0014827782301527481,-0.04468332823961674,0.001039980404980101,-0.30682514804910244
925,0.9156,612.309,115.424,0.0475926,274.633,-5.39198,-2.92638,0.416436,-0.0457627,-0.366767,0.806401,0.00147086,0.00103346,0.579664,0.5165469392122586,1.2398323067353645,0.0014719422451150432,-0.044731379459707954,0.0010339942037960181,-0.30702891150088085
926,0.9166,612.433,115.449,0.0476223,274.69,-5.39475,-2.92783,0.416781,-0.045813,-0.367061,0.807037,0.00146004,0.00102748,0.580137,0.5170702381701668,1.2412572931801042,0.0014611063773222188,-0.044779428262883614,0.0010280080384093004,-0.30723261505500987
927,0.9176,612.558,115.474,0.0476518,274.747,-5.3975,-2.92927,0.417126,-0.0458633,-0.367355,0.807673,0.00144922,0.0010215,0.580609,0.5175937176973615,1.2426831862044843,0.0014502706267727206,-0.044827474649265175,0.0010220219088197258,-0.30743625872909675
928,0.9186,612.682,115.5,0.0476811,274.805,-5.40024,-2.9307,0.417471,-0.0459136,-0.367648,0.808308,0.0014384,0.00101552,0.58108,0.5181173778561505,1.2441077422764093,0.0014394349934654382,-0.04487551861897443,0.0010160358150272941,-0.30763915018024
929,0.9196,612.806,115.525,0.0477103,274.862,-5.40296,-2.93213,0.417815,-0.0459638,-0.367942,0.808943,0.00142758,0.00100954,0.581552,0.5186397000684027,1.2455332032287085,0.0014285994773990396,-0.044923464664483936,0.0010100497570313394,-0.307842674350568
930,0.9206,612.93,115.55,0.0477394,274.919,-5.40568,-2.93355,0.41816,-0.046014,-0.368235,0.809578,0.00141677,0.00100356,0.582023,0.5191637211533657,1.2469595696361644,0.0014177740927499016,-0.044971408303162375,0.0010040637348320836,-0.3080454467393777
931,0.9216,613.053,115.575,0.0477683,274.976,-5.40838,-2.93496,0.418504,-0.0460642,-0.368529,0.810213,0.00140596,0.000997588,0.582494,0.5196864033696296,1.248386842073923,0.0014069488251227114,-0.04501934953513054,0.0009980857564138024,-0.30824885147607495
932,0.9226,613.177,115.6,0.0477971,275.033,-5.41107,-2.93637,0.418848,-0.0461144,-0.368822,0.810847,0.00139514,0.000991614,0.582964,0.5202092654195052,1.2498127713036,0.0013961136605546987,-0.04506728836050933,0.0009921058117114967,-0.30845150487242
933,0.9236,613.3,115.625,0.0478257,275.09,-5.41375,-2.93777,0.419192,-0.0461646,-0.369115,0.811481,0.00138433,0.00098564,0.583435,0.5207323073648662,1.25123960485905,0.0013852886270755427,-0.04511522477941943,0.0009861259027335034,-0.30865409890001805
934,0.9246,613.423,115.65,0.0478541,275.147,-5.41642,-2.93916,0.419536,-0.0462147,-0.369408,0.812114,0.00137353,0.000979668,0.583905,0.5212555292676073,1.25266509064758,0.0013744737243588379,-0.045163063308292783,0.0009801480314395317,-0.30885663357626125
935,0.9256,613.546,115.675,0.0478824,275.204,-5.41908,-2.94055,0.419879,-0.0462648,-0.3697,0.812748,0.00136272,0.000973696,0.584375,0.5217774094114742,1.2540937331468687,0.0013636489248061157,-0.04521089944051593,0.0009741701958452254,-0.3090584179773007
936,0.9266,613.669,115.7,0.0479106,275.26,-5.42172,-2.94193,0.420223,-0.0463149,-0.369993,0.81338,0.00135192,0.000967726,0.584845,0.5223009908911631,1.2555187706506357,0.0013528342557969086,-0.045258733176208876,0.0009681943978869789,-0.30926083420540784
937,0.9276,613.792,115.725,0.0479386,275.317,-5.42436,-2.94331,0.420566,-0.0463649,-0.370285,0.814013,0.00134111,0.000961756,0.585314,0.5228232296898725,1.2569469660086,0.0013420096901655132,-0.04530646904614344,0.000962218635603973,-0.3094625005970938
938,0.9286,613.915,115.75,0.0479665,275.374,-5.42698,-2.94468,0.420909,-0.046415,-0.370577,0.814645,0.00133031,0.000955788,0.585784,0.523345647647214,1.2583738073254804,0.001331195254858919,-0.04535429799391899,0.0009562449109088433,-0.3096641081107899
939,0.9296,614.037,115.775,0.0479943,275.43,-5.42959,-2.94604,0.421252,-0.046465,-0.370869,0.815277,0.00131951,0.000949821,0.586253,0.5238682448246494,1.259801550691091,0.001320380936347565,-0.0454020290857321,0.0009502722228149629,-0.30986565676368616
940,0.9306,614.16,115.799,0.0480219,275.487,-5.43219,-2.94739,0.421594,-0.046515,-0.371161,0.815909,0.00130871,0.000943854,0.586721,0.5243894968934026,1.2612301966757058,0.0013095667346303408,-0.045449757791050205,0.0009442995703601298,-0.3100671465729674
941,0.9316,614.282,115.824,0.0480493,275.543,-5.43478,-2.94874,0.421937,-0.0465649,-0.371453,0.81654,0.00129792,0.000937889,0.58719,0.5249124521725403,1.2626574831913464,0.0012987626626932425,-0.045497388659736404,0.0009383289554205643,-0.3102685775558134
942,0.9326,614.404,115.849,0.0480767,275.6,-5.43736,-2.95009,0.422279,-0.0466149,-0.371745,0.817171,0.00128712,0.000931925,0.587658,0.5254340614212807,1.2640856706089827,0.0012879486944521457,-0.04554511259719507,0.0009323593770278471,-0.3104699497293989
943,0.9336,614.526,115.874,0.0481038,275.656,-5.43992,-2.95143,0.422621,-0.0466648,-0.372036,0.817801,0.00127633,0.000925962,0.588126,0.5259558490908924,1.2655124939836373,0.0012771448557724607,-0.04559273870779512,0.0009263908351642147,-0.3106705737818123
944,0.9346,614.648,115.899,0.0481309,275.712,-5.44248,-2.95276,0.422963,-0.0467147,-0.372327,0.818432,0.00126554,0.00092,0.588594,0.5264778152424057,1.2669424834815808,0.0012663411336657493,-0.0456403624419115,0.0009204233298112374,-0.3108711394611201
945,0.9356,614.77,115.924,0.0481578,275.769,-5.44502,-2.95408,0.423305,-0.0467646,-0.372618,0.819062,0.00125475,0.000914039,0.589062,0.526999959936872,1.268371107215398,0.001255537528130457,-0.04568798379966288,0.0009144568609507076,-0.31107164678430643
946,0.9366,614.891,115.948,0.0481846,275.825,-5.44756,-2.9554,0.423647,-0.0468144,-0.372909,0.819691,0.00124396,0.000908079,0.589529,0.5275222832353634,1.269798361466242,0.0012447340391654738,-0.045735507354723315,0.0009084914285648615,-0.31127209576835047
947,0.9376,615.013,115.973,0.0482112,275.881,-5.45008,-2.95672,0.423988,-0.0468642,-0.3732,0.82032,0.00123317,0.000902121,0.589996,0.5280432571549516,1.271226513742409,0.0012339306667694672,-0.045783028543169735,0.0009025280335379637,-0.3114724864302265
948,0.9386,615.134,115.998,0.0482377,275.937,-5.45259,-2.95803,0.424329,-0.046914,-0.373491,0.820949,0.00122239,0.000896163,0.590463,0.5285644087569397,1.2726555646089346,0.0012231374231725933,-0.04583054736511971,0.0008965646740408673,-0.3116728187869038
949,0.9396,615.255,116.023,0.0482641,275.993,-5.45509,-2.95933,0.42467,-0.0469638,-0.373782,0.821578,0.00121161,0.000890207,0.59093,0.5290857381019274,1.27408551463121,0.0012123442959262043,-0.04587806382069137,0.0008906033518545353,-0.3118730928553465
950,0.9406,615.376,116.047,0.0482903,276.049,-5.45758,-2.96062,0.425011,-0.0470136,-0.374072,0.822206,0.00120083,0.000884252,0.591396,0.5296072452505356,1.2755140888597554,0.0012015512850291898,-0.04592557791000251,0.0008846430660582882,-0.3120726207254789
951,0.9416,615.497,116.072,0.0483164,276.105,-5.46006,-2.96191,0.425352,-0.0470633,-0.374362,0.822834,0.00119005,0.000878298,0.591862,0.5301289302634056,1.2769435605146788,0.0011907583904799957,-0.04597299423047507,0.0008786838166341404,-0.31227209074091833
952,0.9426,615.618,116.097,0.0483424,276.161,-5.46253,-2.9632,0.425693,-0.047113,-0.374652,0.823462,0.00117927,0.000872345,0.592328,0.5306507932011992,1.278373930159741,0.0011799656122777336,-0.046020408194415,0.0008727256035641062,-0.31247150291844017
953,0.9436,615.738,116.121,0.0483682,276.217,-5.46499,-2.96448,0.426033,-0.0471627,-0.374942,0.824089,0.0011685,0.000866394,0.592794,0.5311713029525311,1.2798029185549984,0.0011691829621127692,-0.046067819801939525,0.0008667694276964788,-0.31267085727481503
954,0.9446,615.859,116.146,0.0483939,276.272,-5.46744,-2.96575,0.426373,-0.0472124,-0.375232,0.824716,0.00115773,0.000860443,0.593259,0.5316919897072674,1.281232803206927,0.001158400428076467,-0.046115229053165785,0.0008608132872742758,-0.3128701538268085
955,0.9456,615.979,116.17,0.0484195,276.328,-5.46988,-2.96702,0.426713,-0.0472621,-0.375522,0.825343,0.00114696,0.000854494,0.593724,0.5322128535255994,1.282663584677655,0.0011476180101672728,-0.046162635948210684,0.0008548591840065178,-0.3130693925911816
956,0.9466,616.099,116.195,0.0484449,276.384,-5.47231,-2.96828,0.427053,-0.0473117,-0.375811,0.825969,0.00113619,0.000848546,0.594189,0.5327338944677389,1.2840929794355436,0.0011368357083840763,-0.046209945108190764,0.0008489061170084966,-0.3132678868529204
957,0.9476,616.219,116.22,0.0484703,276.439,-5.47472,-2.96954,0.427393,-0.0473613,-0.3761,0.826595,0.00112542,0.0008426,0.594654,0.5332551125939182,1.285523269274682,0.0011260535227255453,-0.04625725192169472,0.0008429550871051905,-0.3134663237581059
958,0.9486,616.339,116.244,0.0484954,276.495,-5.47713,-2.97079,0.427733,-0.0474109,-0.37639,0.827221,0.00111466,0.000836654,0.595118,0.5337765079643904,1.2869544547555662,0.001115281464343587,-0.04630455638883901,0.0008370040925864686,-0.3136653896582655
959,0.9496,616.459,116.269,0.0485205,276.55,-5.47953,-2.97203,0.428072,-0.0474604,-0.376679,0.827846,0.0011039,0.00083071,0.595582,0.5342965463421152,1.2883842480536511,0.0011045095218680245,-0.04635176314492084,0.0008310551351145001,-0.31386371170173855
960,0.9506,616.578,116.293,0.0485455,276.606,-5.48191,-2.97327,0.428411,-0.04751,-0.376967,0.828471,0.00109314,0.000824767,0.596046,0.5348167610427348,1.2898149352518624,0.0010937376952981914,-0.04639906292442464,0.0008251072138281135,-0.3140612905000558
961,0.9516,616.698,116.318,0.0485703,276.661,-5.48429,-2.9745,0.42875,-0.0475595,-0.377256,0.829096,0.00108238,0.000818825,0.59651,0.5353371521260333,1.291246516909062,0.0010829659846325335,-0.04644626500254878,0.000819160328709323,-0.3142594981447172
962,0.9526,616.817,116.342,0.048595,276.716,-5.48666,-2.97573,0.429089,-0.047609,-0.377545,0.829721,0.00107162,0.000812885,0.596974,0.5358577196518144,1.292678993584461,0.0010721943898697184,-0.046493464744227886,0.0008132154805531311,-0.3144576485156456
963,0.9536,616.937,116.366,0.0486195,276.772,-5.48902,-2.97696,0.429428,-0.0476584,-0.377833,0.830345,0.00106087,0.000806945,0.597437,0.536378463679902,1.294110071726402,0.0010614329216229734,-0.04654056680363916,0.0008072706677093588,-0.31465505628478985
964,0.9546,617.056,116.391,0.048644,276.827,-5.49136,-2.97817,0.429766,-0.0477079,-0.378122,0.830968,0.00105012,0.000801008,0.5979,0.5368978473715249,1.2955397475988808,0.0010506715690614676,-0.04658776187749458,0.0008013288925814432,-0.31485309235593295
965,0.9556,617.175,116.415,0.0486683,276.882,-5.4937,-2.97939,0.430104,-0.0477573,-0.37841,0.831592,0.00103937,0.000795071,0.598363,0.5374174066445072,1.296972611408397,0.0010399103321838687,-0.046634859278742447,0.0007953871527299761,-0.31505038625364945
966,0.9566,617.294,116.44,0.0486925,276.937,-5.49603,-2.98059,0.430443,-0.0478067,-0.378698,0.832215,0.00102862,0.000789136,0.598825,0.5379386794961161,1.2984040711987301,0.0010291492109890665,-0.04668195435343625,0.0007894474497331938,-0.31524762333890477
967,0.9576,617.412,116.464,0.0487166,276.992,-5.49835,-2.98179,0.430781,-0.0478561,-0.378985,0.832838,0.00101787,0.000783202,0.599288,0.5384585906298176,1.2998364230663655,0.0010183882054755067,-0.04672904710169068,0.0007835087827721132,-0.31544411907252
968,0.9586,617.531,116.488,0.0487405,277.047,-5.50066,-2.98299,0.431118,-0.0479054,-0.379273,0.83346,0.00100713,0.000777269,0.59975,0.538977138545276,1.301267366298724,0.0010076373257184024,-0.046776042201229884,0.0007775711518285267,-0.3156412427790509
969,0.9596,617.649,116.513,0.0487644,277.102,-5.50296,-2.98418,0.431456,-0.0479547,-0.379561,0.834082,0.000996387,0.000771338,0.600212,0.5394974007374618,1.3026991998546351,0.0009968835584346358,-0.04682303498396767,0.0007716355576561362,-0.31583830972212856
970,0.9606,617.768,116.537,0.0487881,277.157,-5.50525,-2.98537,0.431794,-0.0480041,-0.379848,0.834704,0.000985648,0.000765407,0.600673,0.5400178388079901,1.3041319242880518,0.000986133910622522,-0.046870120763011225,0.0007656999986873636,-0.31603463595307657
971,0.9616,617.886,116.561,0.0488117,277.212,-5.50753,-2.98655,0.432131,-0.0480533,-0.380135,0.835326,0.000974912,0.000759479,0.601135,0.5405369122786357,1.3055655401532729,0.0009753873811761959,-0.046917013599496404,0.0007597674772019669,-0.31623090584648117
972,0.9626,618.004,116.586,0.0488352,277.267,-5.5098,-2.98772,0.432468,-0.0481026,-0.380423,0.835947,0.000964177,0.000753551,0.601596,0.5410561607065196,1.3069977410060463,0.0009646419680688911,-0.04696399943251561,0.0007538349908842168,-0.31642780299104756
973,0.9636,618.122,116.61,0.0488586,277.321,-5.51206,-2.98889,0.432805,-0.0481518,-0.380709,0.836568,0.000953445,0.000747625,0.602057,0.541575584150612,1.3084308315317643,0.0009538996731743854,-0.04701088765028394,0.0007479045412299712,-0.3166232766853214
974,0.9646,618.24,116.634,0.0488818,277.376,-5.51431,-2.99006,0.433142,-0.0482011,-0.380996,0.837189,0.000942715,0.000741701,0.602517,0.5420951826699039,1.3098648122830854,0.000943159495452095,-0.04705786885542662,0.0007419761282034809,-0.31681937766307644
975,0.9656,618.357,116.658,0.048905,277.431,-5.51655,-2.99122,0.433478,-0.0482503,-0.381283,0.837809,0.000931987,0.000735777,0.602978,0.54261341370922,1.3112973725144834,0.0009324214348360726,-0.04710475245493284,0.0007360477502966756,-0.31701542236792624
976,0.9666,618.475,116.682,0.048928,277.485,-5.51879,-2.99237,0.433815,-0.0482994,-0.381569,0.838429,0.000921261,0.000729855,0.603438,0.5431333620360121,1.312730821208619,0.0009216854912608152,-0.04715153846298148,0.000730121408969886,-0.3172107280270885
977,0.9676,618.592,116.707,0.0489509,277.54,-5.52101,-2.99353,0.434151,-0.0483486,-0.381856,0.839048,0.000910538,0.000723935,0.603898,0.5436519419622052,1.3141628447525098,0.0009109526655715072,-0.047198417454056396,0.0007241971041871409,-0.3174066604304999
978,0.9686,618.709,116.731,0.0489737,277.594,-5.52323,-2.99467,0.434487,-0.0483977,-0.382142,0.839668,0.000899817,0.000718016,0.604358,0.5441706961605293,1.3155980705902905,0.0009002219567699754,-0.0472451988632665,0.0007182738351942941,-0.3176018542115756
979,0.9696,618.826,116.755,0.0489964,277.648,-5.52543,-2.99581,0.434823,-0.0484468,-0.382428,0.840287,0.000889099,0.000712098,0.604817,0.5446896246895501,1.3170318695109708,0.00088949436568031,-0.04729197797556561,0.0007123516019738041,-0.3177969921752122
980,0.9706,618.943,116.779,0.0490189,277.703,-5.52763,-2.99695,0.435159,-0.0484959,-0.382714,0.840905,0.000878382,0.000706182,0.605277,0.5452087276078523,1.3184642377625302,0.000878767890447163,-0.04733875479106686,0.0007064314052136478,-0.3179920743373712
981,0.9716,619.06,116.803,0.0490414,277.757,-5.52982,-2.99808,0.435494,-0.048545,-0.383,0.841524,0.000867668,0.000700267,0.605736,0.5457264592468085,1.319899811389905,0.0008680445327731157,-0.04738552930988282,0.0007005122441776646,-0.31818710071400946
982,0.9726,619.177,116.827,0.0490638,277.811,-5.532,-2.9992,0.43583,-0.048594,-0.383286,0.842142,0.000856957,0.000694353,0.606194,0.5462459106000559,1.3213339525773264,0.0008573242925604685,-0.04743220627535161,0.0006945941188483129,-0.31838207132107943
983,0.9736,619.294,116.851,0.049086,277.865,-5.53417,-3.00032,0.436165,-0.048643,-0.383571,0.84276,0.000846248,0.000688441,0.606653,0.5467639897535199,1.3227689803379246,0.000846606168864783,-0.047478880953705116,0.0006886780298958062,-0.3185763047511744
984,0.9746,619.41,116.875,0.0491081,277.92,-5.53633,-3.00144,0.4365,-0.048692,-0.383856,0.843377,0.000835541,0.000682531,0.607111,0.5472822424925745,1.324202571016038,0.0008358901616207781,-0.04752555334505548,0.0006827639772846172,-0.31877048283262943
985,0.9756,619.527,116.899,0.0491302,277.974,-5.53848,-3.00255,0.436835,-0.048741,-0.384142,0.843994,0.000824836,0.000676621,0.60757,0.54780066887538,1.325637046492532,0.0008251762707629506,-0.04757222344951473,0.0006768499596254696,-0.3189652866162703
986,0.9766,619.643,116.923,0.0491521,278.028,-5.54063,-3.00366,0.43717,-0.0487899,-0.384427,0.844611,0.000814134,0.000670714,0.608028,0.5483192689601177,1.3270724073134956,0.0008144654970398957,-0.04761879602907915,0.0006709389789310016,-0.31915935385368976
987,0.9776,619.759,116.947,0.0491739,278.082,-5.54276,-3.00476,0.437505,-0.0488389,-0.384712,0.845227,0.000803435,0.000664807,0.608485,0.5488380428049866,1.328506325517865,0.0008037578403541357,-0.047665461564758704,0.0006650280331523817,-0.3193533657898274
988,0.9786,619.875,116.971,0.0491956,278.135,-5.54489,-3.00586,0.437839,-0.0488878,-0.384996,0.845844,0.000792738,0.000658902,0.608943,0.549355441111991,1.3299434572302515,0.000793052299815411,-0.04771202958509091,0.000659119123607832,-0.3195466419874239
989,0.9796,619.991,116.995,0.0492172,278.189,-5.54701,-3.00695,0.438173,-0.0489367,-0.385281,0.84646,0.000782043,0.000652999,0.6094,0.5498730122588924,1.3313791445462,0.0007823488753575525,-0.0477585953283024,0.0006532122502618254,-0.31974054356217063
990,0.9806,620.107,117.019,0.0492387,278.243,-5.54912,-3.00804,0.438507,-0.0489855,-0.385565,0.847075,0.000771351,0.000647097,0.609857,0.5503907563034292,1.3328133837034315,0.0007716485676874107,-0.047805063575016016,0.00064730641243127,-0.3199337098168925
991,0.9816,620.222,117.043,0.0492601,278.297,-5.55122,-3.00912,0.438841,-0.0490344,-0.38585,0.84769,0.000760661,0.000641197,0.610314,0.5509086733033588,1.334248505189033,0.0007609503759460345,-0.04785162476897675,0.0006414026107397497,-0.3201275010930261
992,0.9826,620.338,117.067,0.0492814,278.351,-5.55332,-3.0102,0.439175,-0.0490832,-0.386134,0.848305,0.000749974,0.000635298,0.61077,0.5514267633164578,1.3356845095458025,0.0007502553008187363,-0.04789808847596433,0.000635499844515941,-0.32032055746741295
993,0.9836,620.453,117.09,0.0493025,278.404,-5.5554,-3.01127,0.439509,-0.049132,-0.386418,0.84892,0.000739289,0.0006294,0.611226,0.5519450264005226,1.3371213973168738,0.000739562341468103,-0.04794454991557828,0.0006295981137420803,-0.3205135590215742
994,0.9846,620.568,117.114,0.0493236,278.458,-5.55748,-3.01234,0.439842,-0.0491807,-0.386702,0.849534,0.000728607,0.000623504,0.611682,0.552461910150682,1.3385568304877138,0.0007288724985576867,-0.04799091388702559,0.000623698419023988,-0.32070650577107684
995,0.9856,620.683,117.138,0.0493446,278.511,-5.55955,-3.01341,0.440175,-0.0492295,-0.386986,0.850148,0.000717927,0.00061761,0.612138,0.5529789660517919,1.3399931452851526,0.0007181847712720568,-0.048037370796870094,0.000617800760325915,-0.320899397731483
996,0.9866,620.798,117.162,0.0493655,278.565,-5.56161,-3.01447,0.440508,-0.0492782,-0.387269,0.850762,0.000707249,0.000611717,0.612594,0.5534961941611878,1.3414303422506744,0.0007074991595454883,-0.04808373024805046,0.0006119041370002964,-0.3210915560102461
997,0.9876,620.913,117.186,0.0493862,278.618,-5.56366,-3.01552,0.440841,-0.0493269,-0.387553,0.851375,0.000696575,0.000605825,0.613049,0.5540135945362246,1.342866079058847,0.0006968176647068614,-0.04813008744158054,0.0006060085490295908,-0.3212843386319111
998,0.9886,621.028,117.209,0.0494069,278.672,-5.5657,-3.01657,0.441174,-0.0493756,-0.387836,0.851988,0.000685903,0.000599936,0.613504,0.5545311672342768,1.3443026962434907,0.0006861382852538789,-0.04817644237757035,0.000600115997595907,-0.32147638798781264
999,0.9896,621.143,117.233,0.0494275,278.725,-5.56774,-3.01762,0.441507,-0.0494243,-0.388119,0.852601,0.000675233,0.000594047,0.613959,0.5550489123127369,1.3457401943444425,0.0006754610211217038,-0.048222795056129586,0.000594223480863354,-0.3216683830014363
