,Time,S11,S22,S33,S12,S13,S23,LE11,LE22,LE33,LE12,LE13,LE23,SDV_EPBAR,E11,E12,E13,E22,E23,E33
0,1e-05,0.282055,0.0940184,2.77556e-17,0.162845,-5.60551e-19,-2.09203e-18,3.37499e-06,1.25006e-07,-1.50001e-06,5.62914e-06,1.12972e-22,-3.01552e-22,0.0,3.374995695359928e-06,5.629155843678291e-06,0.0,1.250060077673254e-07,0.0,-1.500008874999459e-06
1,2e-05,0.564109,0.188036,8.32667e-17,0.325688,-8.16292e-18,-1.17607e-18,6.74997e-06,2.49999e-07,-2.99999e-06,1.12583e-05,-1.83386e-22,-1.05878e-22,0.0,6.749992781163172e-06,1.1258363374899716e-05,0.0,2.499990312543332e-07,0.0,-2.999985500018454e-06
2,3.5e-05,0.987187,0.329062,8.32667e-17,0.569953,1.73672e-18,-6.0709e-18,1.18124e-05,4.37512e-07,-5.24997e-06,1.97019e-05,2.1176e-22,-3.66776e-22,0.0,1.1812469766780964e-05,1.970209408375112e-05,0.0,4.375120956634504e-07,0.0,-5.249956218977836e-06
3,5.75e-05,1.6218,0.540599,1.94289e-16,0.936345,-2.56096e-17,-7.71214e-18,1.9406e-05,7.1874e-07,-8.62488e-06,3.23672e-05,-1.10031e-21,-6.35263e-22,0.0,1.9406188297654836e-05,3.2367723823423233e-05,0.0,7.187402581987357e-07,0.0,-8.624842805837751e-06
4,9.125e-05,2.5737,0.8579,-6.93889e-16,1.48593,-3.84614e-17,-2.22057e-17,3.07962e-05,1.1406e-06,-1.36872e-05,5.1365e-05,-1.46705e-21,-8.46999e-22,0.0,3.079667420791132e-05,5.136631920410473e-05,0.0,1.1406006505954025e-06,0.0,-1.3687106330650955e-05
5,0.00014188,4.00153,1.33384,-2.58127e-15,2.31028,-5.13123e-17,-3.66988e-17,4.78811e-05,1.77341e-06,-2.12805e-05,7.98609e-05,-1.35348e-21,-2.73761e-21,0.0,4.788224631813165e-05,7.98640889665414e-05,0.0,1.7734115724810096e-06,0.0,-2.1280273571733233e-05
6,0.00021781,6.14319,2.04773,-1.74583e-14,3.54678,-1.04359e-16,-6.73253e-17,7.35077e-05,2.72253e-06,-3.26701e-05,0.000122604,-2.93378e-21,-1.69382e-21,0.0,7.351040175707091e-05,0.00012261151617765087,0.0,2.722533706034369e-06,0.0,-3.266956633807272e-05
7,0.00033172,9.35555,3.11852,-9.00668e-14,5.40143,-1.28855e-16,-2.48791e-17,0.000111946,4.1462e-06,-4.97538e-05,0.000186714,-6.32185e-21,4.17502e-21,0.0,0.00011195226618720966,0.00018673143214376076,0.0,4.146208595567913e-06,0.0,-4.9752562300220404e-05
8,0.00050258,14.1737,4.72458,-4.62214e-13,8.18321,-2.74086e-16,-1.65318e-16,0.000169599,6.28151e-06,-7.53773e-05,0.000282874,-1.17346e-20,-6.77497e-21,0.0,0.00016961338272358795,0.00028291401262259264,0.0,6.28152972881324e-06,0.0,-7.537445920269281e-05
9,0.00075887,21.4002,7.13341,-2.34515e-12,12.3554,-2.56109e-16,-9.83497e-17,0.000256069,9.48414e-06,-0.000113809,0.000427098,-8.34565e-21,-1.26438e-20,0.0,0.00025610178846502407,0.00042718921933682097,0.0,9.484184974706267e-06,0.0,-0.00011380252400139401
10,0.0011433,32.2383,10.7461,-1.18584e-11,18.6128,-4.92709e-16,-1.78362e-16,0.000385754,1.42872e-05,-0.000171446,0.000643399,-1.75968e-20,-1.01595e-20,0.0,0.0003858284126423417,0.0006436060255341491,0.0,1.4287302062543361e-05,0.0,-0.00017143130397445638
11,0.00172,48.4914,16.1638,-5.99568e-11,27.9965,-8.31947e-16,-3.74221e-16,0.000580234,2.14902e-05,-0.000257882,0.000967773,-2.34493e-20,-1.35385e-20,0.0,0.000580402368310251,0.0009682414433931363,0.0,2.149043091592695e-05,0.0,-0.0002578487512951977
12,0.0025849,72.8623,24.2874,-3.03245e-10,42.0671,-4.65805e-16,-6.15539e-16,0.00087185,3.22909e-05,-0.000387489,0.00145416,-3.70047e-20,9.94564e-21,0.0,0.0008722301716874714,0.001455217803329134,0.0,3.2291421356633876e-05,0.0,-0.00038741393583330286
13,0.0035849,101.024,33.6748,-6.68459e-10,58.3265,-1.07239e-15,-7.39395e-16,0.00120883,4.47717e-05,-0.000537258,0.00201621,-9.38544e-20,-5.41869e-20,0.0,0.001209560929477993,0.002018243918087581,0.0,4.4772702267437126e-05,0.0,-0.0005371137027634365
14,0.0045849,129.173,43.0575,-7.61588e-10,74.5778,-9.4727e-16,-1.34622e-15,0.00154564,5.72462e-05,-0.000686952,0.00257798,-9.38257e-20,-5.41703e-20,0.0,0.0015468351171656902,0.0025813058478159068,0.0,5.724783859495375e-05,0.0,-0.000686716102494711
15,0.0055849,157.307,52.4355,-7.60063e-10,90.821,-8.03147e-16,-8.10303e-16,0.00188229,6.97145e-05,-0.000836572,0.00313947,-7.036e-20,-4.06223e-20,0.0,0.0018840626198424193,0.003144403297235643,0.0,6.971693011226243e-05,0.0,-0.0008362221712034934
16,0.0065849,185.427,61.8089,-7.58571e-10,107.056,-9.98556e-16,-4.70413e-16,0.00221876,8.21764e-05,-0.000986116,0.00370068,-4.68523e-20,-2.70502e-20,0.0,0.0022212232694331924,0.00370753597087381,0.0,8.217977657287712e-05,0.0,-0.0009856299473984809
17,0.0075849,213.533,71.1776,-7.57024e-10,123.283,-4.05175e-15,-2.23318e-15,0.00255507,9.46325e-05,-0.00113559,0.0042616,-2.41591e-19,-1.41476e-20,0.0,0.002558336973208286,0.004270693530354253,0.0,9.463697779632518e-05,0.0,-0.00113494546167614
18,0.0085849,235.108,78.0001,-0.0242914,135.502,0.0353907,0.0204379,0.00288289,9.8839e-05,-0.00131671,0.00484143,1.23934e-06,7.15256e-07,0.000108236,0.0028870495235651106,0.004853168658541573,1.2393407680111324e-06,9.884388473491157e-05,7.1525625577884e-07,-0.0013158435177316186
19,0.0095849,236.311,78.3831,0.0755206,136.003,0.0927454,0.0535574,0.00317132,9.64688e-05,-0.00159377,0.00549271,3.38619e-06,1.95021e-06,0.00054419,0.003176353955292255,0.005507822588591171,3.3861957331460246e-06,9.647345326424528e-05,1.9502119017467123e-06,-0.0015925006230480543
20,0.010585,237.337,78.4558,-0.0198831,136.488,0.144467,0.0834311,0.00346018,9.1171e-05,-0.00187197,0.00614437,5.42905e-06,3.12267e-06,0.000980974,0.0034661733334933054,0.006163285362499105,5.429064737327849e-06,9.117515620182814e-05,3.122674875566389e-06,-0.0018702189569633765
21,0.011585,238.447,78.7148,0.0120552,136.981,0.196816,0.113671,0.00374872,8.73186e-05,-0.00214917,0.00679517,7.58408e-06,4.35736e-06,0.00141714,0.0037557552391194182,0.006818309550364665,7.584108759228769e-06,8.732241237985328e-05,4.3573694932241835e-06,-0.00214686218774518
22,0.012585,239.509,78.8863,-0.0055593,137.465,0.248072,0.143283,0.00403747,8.24577e-05,-0.00242656,0.00744564,9.78978e-06,5.61889e-06,0.00185347,0.004045631562324736,0.007473427700430246,9.789827920103633e-06,8.24610997296471e-05,5.618905785986783e-06,-0.0024236182831817166
23,0.013585,240.58,79.0999,0.00299086,137.946,0.29912,0.17278,0.00432615,7.78096e-05,-0.00270369,0.00809553,1.20755e-05,6.92423e-06,0.0022896,0.004335521295915301,0.008128387409188864,1.2075572909164833e-05,7.781262724537719e-05,6.92425397263996e-06,-0.0027000383219351054
24,0.014585,241.632,79.2901,-0.00126943,138.421,0.349523,0.201909,0.00461491,7.27655e-05,-0.00298079,0.00874495,1.44246e-05,8.26384e-06,0.00272572,0.004625575096997014,0.008783298779794224,1.4424704035009839e-05,7.276814747325666e-05,8.263874145653105e-06,-0.002976351856307846
25,0.015585,242.679,79.4887,0.0007927,138.892,0.39951,0.230801,0.00490367,6.76228e-05,-0.00325773,0.00939387,1.68436e-05,9.6415e-06,0.00316174,0.00491571266610813,0.009438130881883167,1.6843741854177807e-05,6.762508647306653e-05,9.641546479421947e-06,-0.0032524293552089745
26,0.016585,243.715,79.6801,-0.000207143,139.358,0.448983,0.259401,0.00519246,6.22385e-05,-0.00353459,0.0100423,1.93278e-05,1.10545e-05,0.00359768,0.005205964183619738,0.010092893109884704,1.9327986783057582e-05,6.224043685554292e-05,1.1054561101175864e-05,-0.003528350690064852
27,0.017585,244.742,79.872,0.000293644,139.819,0.498004,0.287744,0.00548127,5.66865e-05,-0.00381133,0.0106902,2.18779e-05,1.25035e-05,0.00403354,0.005496319644897607,0.010747544346698445,2.18781393230838e-05,5.668810670989011e-05,1.2503578169065221e-05,-0.0038040761004102253
28,0.018585,245.759,80.0606,6.42027e-05,140.276,0.546558,0.31582,0.0057701,5.09348e-05,-0.00408797,0.0113377,2.44921e-05,1.39872e-05,0.00446932,0.005786779091582428,0.011402215308513819,2.4492399933961906e-05,5.093609719897252e-05,1.3987297821316247e-05,-0.00407962562503017
29,0.019585,246.768,80.2478,0.000188059,140.729,0.594667,0.343643,0.00605895,4.50028e-05,-0.00436449,0.0119847,2.71698e-05,1.55056e-05,0.00490501,0.006077342565332433,0.01205680427851541,2.7170169102364028e-05,4.500381264116449e-05,1.5505720212471985e-05,-0.0043549794547773635
30,0.020585,247.768,80.4328,0.000139764,141.178,0.642333,0.371213,0.00634781,3.88849e-05,-0.00464091,0.0126312,2.99101e-05,1.70579e-05,0.00534061,0.006368000044144617,0.012711310548836785,2.9910547311606805e-05,3.888565602760963e-05,1.7058045486795237e-05,-0.0046301576172305126
31,0.021585,248.759,80.6161,0.00017341,141.623,0.689567,0.398538,0.00663669,3.25877e-05,-0.00491721,0.0132772,3.27119e-05,1.86438e-05,0.00577612,0.006658761627578391,0.013365733411277558,3.271243504010535e-05,3.2588230984842426e-05,1.8643973796805824e-05,-0.004905140314071854
32,0.022585,249.742,80.7974,0.000166421,142.063,0.736377,0.425621,0.00692557,2.61115e-05,-0.00519339,0.0139227,3.55745e-05,2.02628e-05,0.00621153,0.006949607218351916,0.014020072157304497,3.5575132780074625e-05,2.6111840908171757e-05,2.0263005291898395e-05,-0.0051799276652879644
33,0.023585,250.717,80.9769,0.000177791,142.5,0.782772,0.452467,0.00721447,1.94597e-05,-0.00546947,0.0145678,3.84969e-05,2.19143e-05,0.00664685,0.007240556985547375,0.014674427545490865,3.849764101526709e-05,1.9459889341266745e-05,2.1914540120127057e-05,-0.005454539681671089
34,0.024585,251.684,81.1546,0.000179218,142.933,0.828758,0.479081,0.00750338,1.26341e-05,-0.00574543,0.0152124,4.14782e-05,2.3598e-05,0.00708206,0.007531600895589685,0.015328697530048174,4.1479060232330056e-05,1.2634179810566692e-05,2.359827843489981e-05,-0.005728956581115274
35,0.025585,252.643,81.3306,0.000184267,143.361,0.874344,0.505466,0.00779229,5.63726e-06,-0.00602128,0.0158565,4.45178e-05,2.53134e-05,0.00751718,0.007822728903275733,0.015982881401426674,4.451879093192446e-05,5.637275889425197e-06,2.5313720386721528e-05,-0.006003188423276629
36,0.026585,253.594,81.5049,0.000186473,143.787,0.919537,0.531628,0.00808121,-1.52875e-06,-0.00629702,0.0165001,4.76146e-05,2.70601e-05,0.0079522,0.008113951114045337,0.016636978449748208,4.761573359313154e-05,-1.528748831414184e-06,2.706046612788171e-05,-0.006277235319518848
37,0.027585,254.538,81.6775,0.00018893,144.208,0.964343,0.557569,0.00837013,-8.86174e-06,-0.00657264,0.0171433,5.0768e-05,2.88375e-05,0.00838711,0.008405257476892025,0.017291089693912465,5.076928871661224e-05,-8.86170073488568e-06,2.883791580465811e-05,-0.006551087446624804
38,0.028585,255.474,81.8484,0.000190178,144.626,1.00877,0.583294,0.00865905,-1.63596e-05,-0.00684815,0.017786,5.39772e-05,3.06454e-05,0.00882191,0.008696648016132569,0.017945112825079157,5.397865679523939e-05,-1.6359466182502835e-05,3.0645869575129936e-05,-0.006824754855737414
39,0.029585,256.403,82.0177,0.000190921,145.04,1.05282,0.608806,0.00894797,-2.40204e-05,-0.00712355,0.0184282,5.72413e-05,3.24833e-05,0.00925661,0.008988122756090622,0.01859904713236693,5.7242938314550074e-05,-2.4020111512479403e-05,3.2483827588025704e-05,-0.00709823765793971
40,0.030585,257.325,82.1854,0.000190837,145.451,1.09651,0.63411,0.00923689,-3.18419e-05,-0.00739882,0.01907,6.05597e-05,3.43508e-05,0.0096912,0.009279681721097388,0.01925299382986445,6.056153377564932e-05,-3.18413930521233e-05,3.435138999541287e-05,-0.007371516111653986
41,0.031585,258.239,82.3515,0.000190088,145.859,1.13984,0.659208,0.00952581,-3.98224e-05,-0.00767399,0.0197114,6.39316e-05,3.62475e-05,0.0101257,0.009571324935490289,0.019906952402201528,6.393364366830134e-05,-3.9821607098700085e-05,3.624815694847072e-05,-0.007644620114828027
42,0.032585,259.147,82.5161,0.000188608,146.263,1.18281,0.684104,0.00981473,-4.79598e-05,-0.00794904,0.0203522,6.73562e-05,3.8173e-05,0.01056,0.009863052423614072,0.02056071822149841,6.735846847982785e-05,-4.7958649947221765e-05,3.817372859815649e-05,-0.007917529928422873
43,0.033585,260.048,82.6792,0.000186436,146.664,1.22544,0.708801,0.0101036,-5.62523e-05,-0.00822397,0.0209926,7.08329e-05,4.01269e-05,0.0109943,0.010154813702079268,0.021214494622307623,7.083540870911342e-05,-5.625071786907743e-05,4.012770509476127e-05,-0.008190245671332197
44,0.034585,260.942,82.8408,0.000183563,147.061,1.26772,0.733303,0.0103925,-6.4698e-05,-0.00849879,0.0216326,7.4361e-05,4.2109e-05,0.0114284,0.010446689587199298,0.02186828108821892,7.43637648477069e-05,-6.469590712954165e-05,4.2109886596364277e-05,-0.008462777377719721
45,0.035585,261.83,83.0009,0.000180002,147.456,1.30967,0.757613,0.0106814,-7.32952e-05,-0.00877348,0.0222721,7.79397e-05,4.41187e-05,0.0118624,0.010738649807444212,0.022521974850277404,7.794273737737889e-05,-7.329251397247827e-05,4.411967324413624e-05,-0.008735105332806525
46,0.036585,262.711,83.1596,0.000175753,147.847,1.35128,0.781733,0.0109703,-8.20422e-05,-0.00904807,0.0229111,8.15685e-05,4.61557e-05,0.0122963,0.01103069438718185,0.02317557519527713,8.157182680057495e-05,-8.20388346307599e-05,4.6156765190819016e-05,-0.009007259393131406
47,0.037585,263.586,83.3169,0.000170825,148.236,1.39257,0.805667,0.0112592,-9.09371e-05,-0.00932253,0.0235497,8.52466e-05,4.82198e-05,0.0127301,0.011322823350787159,0.023829183792609676,8.52502335946248e-05,-9.09329653472346e-05,4.8220962593159555e-05,-0.009279209939237809
48,0.038585,264.455,83.4729,0.00016522,148.621,1.43354,0.829417,0.0115481,-9.99783e-05,-0.00959688,0.0241879,8.89734e-05,5.03104e-05,0.0131638,0.011615036722642413,0.024482800124492776,8.897735825041941e-05,-9.99733023363536e-05,5.0311665589442e-05,-0.00955097690665263
49,0.039585,265.318,83.6274,0.000158944,149.003,1.47418,0.852986,0.0118369,-0.000109164,-0.00987111,0.0248256,9.27483e-05,5.24274e-05,0.0135973,0.011907233336408085,0.025136321159167307,9.275260125662932e-05,-0.00010915804182731748,5.242877434019633e-05,-0.009822550503739813
50,0.040585,266.174,83.7806,0.000152001,149.383,1.51452,0.876377,0.0121258,-0.000118493,-0.0101452,0.0254629,9.65706e-05,5.45704e-05,0.0140307,0.012199615568698752,0.025789848761093026,9.65752630905925e-05,-0.00011848597998176391,5.4571888991272743e-05,-0.010093911050567339
51,0.041585,267.025,83.9325,0.000144395,149.759,1.55455,0.899593,0.0124146,-0.000127963,-0.0104192,0.0260997,0.00010044,5.6739e-05,0.014464,0.012491981033216026,0.02644327976713523,0.00010044504426565126,-0.00012795481308447432,5.6740609687411236e-05,-0.010365108163238324
52,0.042585,267.87,84.0831,0.00013613,150.133,1.59428,0.922635,0.0127034,-0.000137574,-0.0106931,0.026736,0.000104355,5.89329e-05,0.0148972,0.012784430945073089,0.027096613462122665,0.00010436044517248,-0.0001375645371312073,5.893463657735687e-05,-0.010636132041697888
53,0.043585,268.709,84.2325,0.000127209,150.504,1.6337,0.945507,0.0129922,-0.000147322,-0.0109669,0.027372,0.000108316,6.11518e-05,0.0153302,0.01307696532866176,0.027750054680565794,0.00010832186638976005,-0.00014731114864707795,6.115366980941062e-05,-0.010906982787585728
54,0.044585,269.543,84.3805,0.000117637,150.872,1.67284,0.968211,0.013281,-0.000157208,-0.0112405,0.0280075,0.000112322,6.33954e-05,0.0157631,0.013369584208380969,0.028403397417981813,0.00011232830835194996,-0.00015719564346994286,6.339740953076323e-05,-0.011177561620222765
55,0.045585,270.37,84.5274,0.000107417,151.238,1.71168,0.990749,0.0135697,-0.000167229,-0.011514,0.0286425,0.000116373,6.56634e-05,0.0161959,0.013662186242413332,0.02905664095821603,0.00011637977160017243,-0.00016721501801020278,6.566555588816136e-05,-0.011447967577419504
56,0.046585,271.193,84.673,9.65528e-05,151.601,1.75024,1.01312,0.0138584,-0.000177384,-0.0117874,0.0292771,0.000120468,6.79555e-05,0.0166285,0.013954872762847792,0.029709887555790626,0.00012047525656089242,-0.00017736826838843367,6.795780902724147e-05,-0.011718200760524433
57,0.047585,272.01,84.8175,8.50468e-05,151.961,1.78851,1.03534,0.0141472,-0.000187671,-0.0120607,0.0299113,0.000124606,7.02714e-05,0.017061,0.01424774521884875,0.030363136689883774,0.00012461376365013876,-0.00018765339089943378,7.02738690927518e-05,-0.011988261270806877
58,0.048585,272.822,84.9607,7.29027e-05,152.319,1.82651,1.05739,0.0144359,-0.00019809,-0.0123339,0.0305451,0.000128787,7.26107e-05,0.0174934,0.014540600814564542,0.031016387839339243,0.0001287952934017067,-0.00019807038147134914,7.26133362207726e-05,-0.01225814920945656
59,0.049585,273.628,85.1028,6.01234e-05,152.674,1.86423,1.07929,0.0147245,-0.000208639,-0.0126069,0.0311784,0.00013301,7.49733e-05,0.0179256,0.014833439486547473,0.03166953731570987,0.0001330188462222992,-0.0002086172363974237,7.497611056805908e-05,-0.01252776593036542
60,0.050585,274.43,85.2438,4.6712e-05,153.027,1.90168,1.10103,0.0150132,-0.000219316,-0.0128799,0.0318113,0.000137275,7.73588e-05,0.0183577,0.015126464196608902,0.032322687633492775,0.00013728442264393514,-0.000219291952004097,7.73617922691372e-05,-0.012797309055955775
61,0.051585,275.226,85.3836,3.26712e-05,153.377,1.93886,1.12262,0.0153018,-0.00023012,-0.0131527,0.0324438,0.000141581,7.97669e-05,0.0187897,0.015419471973164622,0.032975838270535185,0.0001415910230628814,-0.00023009352442371345,7.977008146364817e-05,-0.013066581219652207
62,0.052585,276.018,85.5224,1.8004e-05,153.725,1.97578,1.14406,0.0155904,-0.000241051,-0.0134254,0.0330758,0.000145928,8.21975e-05,0.0192215,0.015712564323967948,0.03362888534145969,0.00014593864800849232,-0.0002410219495420085,8.220087830701495e-05,-0.013335681269494248
63,0.053585,276.804,85.66,2.71293e-06,154.071,2.01244,1.16534,0.0158789,-0.000252106,-0.0136979,0.0337074,0.000150315,8.46501e-05,0.0196532,0.016005639672861616,0.03428193155572634,0.0001503262978657105,-0.0002520742239527918,8.46536829208766e-05,-0.013604510666679337
64,0.054585,277.586,85.7966,-1.31992e-05,154.414,2.04884,1.18648,0.0161675,-0.000263284,-0.0139704,0.0343386,0.000154742,8.71246e-05,0.0200848,0.016298901216076356,0.034934976390192274,0.00015475397316078165,-0.00026324934380916876,8.71283954582136e-05,-0.013873266817834073
65,0.055585,278.362,85.9321,-2.973e-05,154.755,2.08498,1.20748,0.016456,-0.000274585,-0.0142427,0.0349693,0.000159208,8.96207e-05,0.0205162,0.016592145747567066,0.035587915762588684,0.0001592206742662139,-0.0002745473049891034,8.962471605489242e-05,-0.014141752571285249
66,0.056585,279.135,86.0666,-4.68767e-05,155.093,2.12088,1.22833,0.0167445,-0.000286006,-0.0145149,0.0355997,0.000163714,9.2138e-05,0.0209475,0.016885474892309738,0.036240956201404995,0.00016372740186820778,-0.0002859651041828837,9.214224483589106e-05,-0.014410066667030264
67,0.057585,279.902,86.2,-6.4637e-05,155.43,2.15652,1.24904,0.0170329,-0.000297548,-0.014787,0.0362296,0.000168257,9.46765e-05,0.0213786,0.01717878695683539,0.03689388999962717,0.0001682711560029304,-0.00029750373698411714,9.46809819613037e-05,-0.014678209205443382
68,0.058585,280.665,86.3324,-8.30084e-05,155.764,2.19192,1.26961,0.0173213,-0.000309208,-0.015059,0.0368591,0.000172838,9.72358e-05,0.0218096,0.017472183624759774,0.037546820191598496,0.00017285293734770057,-0.0003091602001331628,9.724052755366586e-05,-0.014946180286820265
69,0.059585,281.423,86.4639,-0.000101989,156.096,2.22708,1.29004,0.0176097,-0.000320986,-0.0153309,0.0374881,0.000177457,9.98157e-05,0.0222405,0.017765664920485813,0.038199642432570124,0.00017747274642476718,-0.00032093448950543113,9.982068175262704e-05,-0.015213980011377859
70,0.060585,282.177,86.5943,-0.000121575,156.426,2.262,1.31034,0.0178981,-0.00033288,-0.0156026,0.0381168,0.000182113,0.000102416,0.0226712,0.01805923086842376,0.038852563772084237,0.0001821295835791048,-0.0003328246016000014,0.00010242124469761471,-0.015481510027410383
71,0.061585,282.927,86.7238,-0.000141766,156.753,2.29668,1.33049,0.0181864,-0.00034489,-0.0158742,0.038745,0.000186805,0.000105036,0.0231018,0.018352779657707874,0.039505375979491664,0.00018682244914058899,-0.0003448305322807377,0.00010504151647383608,-0.01574886894030303
72,0.062585,283.672,86.8523,-0.000162558,157.079,2.33113,1.35052,0.0184747,-0.000357014,-0.0161457,0.0393728,0.000191534,0.000107676,0.0235322,0.018646413089308478,0.04015818234900981,0.00019155234380763275,-0.00035695027808535507,0.00010768179726849958,-0.01601605684998575
73,0.063585,284.413,86.9799,-0.000183951,157.403,2.36534,1.37041,0.0187629,-0.000369251,-0.0164171,0.0400003,0.000196298,0.000110336,0.0239625,0.018940029293623484,0.04081108643566722,0.00019631726771307534,-0.00036918283523967865,0.00011034208724036709,-0.016283073856309893
74,0.064585,285.15,87.1066,-0.00020594,157.724,2.39933,1.39017,0.0190511,-0.000381601,-0.0166883,0.0406272,0.000201097,0.000113015,0.0243926,0.01923373013032359,0.04146377546975577,0.00020111722135718324,-0.0003815281995989128,0.0001130213864357632,-0.01654982171403563
75,0.065585,285.882,87.2323,-0.000228525,158.044,2.43309,1.4098,0.0193393,-0.000394061,-0.0169594,0.0412538,0.000205932,0.000115714,0.0248226,0.019527515623803282,0.042116561167865996,0.0002059532054499158,-0.00039398336816165447,0.00011572069512322258,-0.016816398921195908
76,0.066585,286.611,87.3571,-0.000251703,158.361,2.46663,1.4293,0.0196274,-0.000406632,-0.0172305,0.04188,0.0002108,0.000118431,0.0252524,0.019821283816330748,0.042769338921853084,0.00021082221988133476,-0.0004065493364132644,0.00011843801322775072,-0.01708290386907041
77,0.067585,287.335,87.4811,-0.000275472,158.677,2.49994,1.44867,0.0199155,-0.000419312,-0.0175013,0.0425058,0.000215703,0.000121167,0.0256821,0.02011513665566733,0.043422108204355325,0.00021572626556487506,-0.0004192241010094744,0.00012117434101743818,-0.017349041782002916
78,0.068585,288.056,87.6042,-0.00029983,158.991,2.53304,1.46792,0.0202036,-0.000432099,-0.0177721,0.0431311,0.000220639,0.000123922,0.0261117,0.02040907416620308,0.044074764080209494,0.00022066334257453413,-0.00043200565867185237,0.0001239296786481603,-0.01761510763454588
79,0.069585,288.772,87.7264,-0.000324775,159.303,2.56592,1.48705,0.0204916,-0.000444995,-0.0180428,0.0437561,0.000225609,0.000126695,0.0265411,0.02070299430203093,0.04472751477110215,0.00022563445162449014,-0.00044489600440966726,0.00012670302615047646,-0.017881003234316073
80,0.070585,289.485,87.8477,-0.000350305,159.612,2.59858,1.50605,0.0207796,-0.000457996,-0.0183133,0.0443806,0.000230611,0.000129486,0.0269703,0.020996999099048397,0.04538015086848746,0.0002306375927607629,-0.0004578911358417148,0.00012949438367404476,-0.018146630495234572
81,0.071585,290.194,87.9682,-0.000376417,159.921,2.63103,1.52493,0.0210676,-0.000471103,-0.0185837,0.0450047,0.000235646,0.000132295,0.0273994,0.02129108858164175,0.04603277625121183,0.00023567376669975104,-0.00047099204840561626,0.00013230375136941142,-0.018412087754909656
82,0.072585,290.899,88.0879,-0.00040311,160.227,2.66327,1.54369,0.0213555,-0.000484314,-0.018854,0.0456284,0.000240713,0.000135122,0.0278284,0.021585160615682497,0.04668539039032349,0.00024074197369894357,-0.0004841967389058732,0.000135131129388677,-0.018677375112387984
83,0.073585,291.6,88.2067,-0.000430381,160.531,2.69531,1.56233,0.0216433,-0.000497628,-0.0191242,0.0462518,0.000245812,0.000137966,0.0282572,0.021879215137323715,0.047338097490357445,0.0002458422142452843,-0.0004975042037225208,0.00013797551774619166,-0.018942492666638056
84,0.074585,292.297,88.3247,-0.00045823,160.834,2.72713,1.58085,0.0219311,-0.000511046,-0.0193942,0.0468747,0.000250942,0.000140827,0.0286858,0.02217335430003553,0.04799068761937919,0.0002509734885776105,-0.0005109154382348935,0.0001408369165873946,-0.019207342437290054
85,0.075585,292.991,88.442,-0.000486652,161.135,2.75875,1.59926,0.0222189,-0.000524564,-0.0196641,0.0474972,0.000256102,0.000143706,0.0291143,0.02246757812818112,0.04864326491603266,0.0002561347969169958,-0.0005244264403589938,0.00014371632620191477,-0.019472022655364074
86,0.076585,293.681,88.5584,-0.000515648,161.434,2.79018,1.61755,0.0225066,-0.000538184,-0.0199339,0.0481193,0.000261294,0.000146601,0.0295427,0.022761784369947025,0.049295828850103085,0.00026132814025059403,-0.0005380392049676441,0.00014661174645169694,-0.019736533419545066
87,0.077585,294.368,88.674,-0.000545214,161.731,2.8214,1.63572,0.0227943,-0.000551904,-0.0202036,0.048741,0.000266516,0.000149513,0.0299709,0.02305607526702591,0.049948378891061296,0.0002665515185444889,-0.0005517517290016816,0.0001495241776257039,-0.020000874828440485
88,0.078585,295.051,88.7889,-0.000575348,162.027,2.85242,1.65378,0.023082,-0.000565723,-0.0204732,0.0493624,0.000271768,0.000152442,0.0303989,0.023350450843776516,0.050601019568161876,0.00027180493226852676,-0.0005655630089153041,0.00015245361987203943,-0.020265046980580514
89,0.079585,295.731,88.903,-0.000606049,162.321,2.88324,1.67173,0.0233696,-0.00057964,-0.0207426,0.0499833,0.000277049,0.000155387,0.0308268,0.023644808760078462,0.051253540295308264,0.0002770873816186903,-0.0005794720411886889,0.00015539907318529167,-0.02052895202731808
90,0.080585,296.407,89.0164,-0.000637315,162.614,2.91387,1.68956,0.0236571,-0.000593654,-0.0210119,0.0506038,0.000282359,0.000158348,0.0312545,0.023939148951972244,0.05190604553587663,0.0002823988670546118,-0.0005934778223287696,0.00015836053770623693,-0.0207926880668855
91,0.081585,297.079,89.129,-0.000669143,162.905,2.94431,1.70729,0.0239446,-0.000607766,-0.0212811,0.0512239,0.000287699,0.000161325,0.0316821,0.024233573778836837,0.052558534758088804,0.00028774038932644075,-0.0006075813476550396,0.00016133801357764987,-0.021056255197530405
92,0.082585,297.749,89.2409,-0.000701532,163.194,2.97456,1.7249,0.0242321,-0.000621973,-0.0215502,0.0518437,0.000293067,0.000164318,0.0321095,0.024528083265008327,0.05321111275096091,0.00029310994832876247,-0.0006217796148891841,0.00016433150094208315,-0.021319653517423265
93,0.083585,298.415,89.3521,-0.00073448,163.481,3.00462,1.74241,0.0245195,-0.000636275,-0.0218192,0.052463,0.000298463,0.000167326,0.0325368,0.02482257495256701,0.05386356840512785,0.0002985075445127716,-0.0006360726199875488,0.0001673399997759173,-0.021582883124657615
94,0.084585,299.078,89.4625,-0.000767984,163.767,3.03449,1.75981,0.0248069,-0.000650672,-0.022088,0.053082,0.000303887,0.00017035,0.0329639,0.025117151289200335,0.054516111895345,0.00030393317833188327,-0.0006504603588797231,0.0001703645103852125,-0.02184584630183939
95,0.085585,299.737,89.5723,-0.000802043,164.052,3.06417,1.7771,0.0250942,-0.000665162,-0.0223567,0.0537005,0.000309339,0.00017339,0.0333909,0.025411709758063727,0.0551685318506252,0.0003093868502423991,-0.0006649408287978664,0.0001734050329149639,-0.022108641014887187
96,0.086585,300.393,89.6813,-0.000836654,164.335,3.09367,1.79429,0.0253815,-0.000679745,-0.0226253,0.0543187,0.000314818,0.000176444,0.0338177,0.025706352865732862,0.055821038706103554,0.00031486756038723307,-0.0006795140257049859,0.00017645956715806044,-0.022371267361613323
97,0.087585,301.047,89.7897,-0.000871816,164.616,3.12299,1.81137,0.0256687,-0.00069442,-0.0228938,0.0549365,0.000320324,0.000179513,0.0342443,0.026000978036425426,0.05647352647653525,0.0003203753092109185,-0.000694178946232582,0.00017952911342278277,-0.02263372543975295
98,0.088585,301.697,89.8974,-0.000907527,164.896,3.15212,1.82835,0.0259558,-0.000709186,-0.0231621,0.0555539,0.000325857,0.000182597,0.0346708,0.026295585206055128,0.05712599462797452,0.00032591009715932096,-0.0007089345870450181,0.0001826136718470206,-0.022895917636561403
99,0.089585,302.343,90.0044,-0.000943784,165.174,3.18108,1.84522,0.026243,-0.000724043,-0.0234304,0.0561709,0.000331416,0.000185695,0.0350971,0.02659037962857913,0.057778442626168935,0.00033147092435004133,-0.0007237809441175136,0.00018571224238383977,-0.023158039496639637
100,0.090585,302.987,90.1107,-0.000980586,165.451,3.20986,1.86199,0.02653,-0.00073899,-0.0236985,0.0567875,0.000337001,0.000188808,0.0355233,0.02688505335118907,0.058430869936561214,0.00033705779121628865,-0.0007387170141387456,0.00018882582535217907,-0.023419895722854966
101,0.091585,303.628,90.2164,-0.00101793,165.727,3.23846,1.87866,0.026817,-0.000754026,-0.0239665,0.0574037,0.000342612,0.000191936,0.0359493,0.02717981165729455,0.059083276024288534,0.0003426706981946026,-0.0007537417938331403,0.00019195442089259274,-0.023681584122989374
102,0.092585,304.266,90.3214,-0.00105582,166.001,3.26689,1.89523,0.027104,-0.00076915,-0.0242343,0.0580195,0.000348248,0.000195077,0.0363752,0.027474654571174595,0.05973566035418343,0.00034830864537438444,-0.0007688542799613174,0.00019509602875533716,-0.02394300718865039
103,0.093585,304.9,90.4258,-0.00109424,166.273,3.29514,1.9117,0.0273909,-0.000784362,-0.0245021,0.058635,0.000353909,0.000198232,0.0368009,0.027769479340161718,0.0603881284295833,0.0003539716331786291,-0.000784054468537021,0.00019825164926134953,-0.02420436025458772
104,0.094585,305.532,90.5295,-0.0011332,166.545,3.32322,1.92807,0.0276778,-0.000799662,-0.0247697,0.0592501,0.000359596,0.000201401,0.0372264,0.02806438870651018,0.06104057380638506,0.000359660662392125,-0.0007993423555510137,0.00020142128254296843,-0.024465448232654174
105,0.095585,306.161,90.6327,-0.00117269,166.814,3.35113,1.94435,0.0279646,-0.000815048,-0.0250372,0.0598648,0.000365306,0.000204584,0.0376518,0.028359279858561015,0.06169299594850575,0.0003653727323624789,-0.0008147159386002745,0.00020460492873364267,-0.02472636882556667
106,0.096585,306.787,90.7352,-0.00121272,167.083,3.37887,1.96052,0.0282513,-0.000830519,-0.0253046,0.0604791,0.000371042,0.00020778,0.0380771,0.028654152732103144,0.06234539431956043,0.00037111084459739985,-0.0008301742145522262,0.00020780158775934865,-0.02498712213027221
107,0.097585,307.41,90.8371,-0.00125328,167.35,3.40644,1.9766,0.028538,-0.000846076,-0.0255719,0.061093,0.000376801,0.00021099,0.0385021,0.028949110157818092,0.06299776838286353,0.00037687199841385244,-0.0008457181786228896,0.00021101225995545647,-0.025247708243641198
108,0.098585,308.031,90.9383,-0.00129436,167.616,3.43384,1.99258,0.0288247,-0.000861717,-0.025839,0.0617065,0.000382584,0.000214212,0.038927,0.029244152159950243,0.06365011760142814,0.00038265719459262826,-0.0008613458285284814,0.00021423494502870177,-0.025508029813276045
109,0.099585,308.648,91.039,-0.00133598,167.88,3.46108,2.00847,0.0291112,-0.000877442,-0.0261061,0.0623197,0.00038839,0.000217448,0.0393518,0.029539072854916304,0.06430254786821754,0.0003884654331616222,-0.0008770571603347044,0.0002174716435301427,-0.025768281860304776
110,0.1006,309.263,91.1391,-0.00137811,168.143,3.48815,2.02426,0.0293978,-0.00089325,-0.026373,0.0629325,0.00039422,0.000220697,0.0397764,0.029834181040179653,0.06495495234586701,0.0003942977149160587,-0.0008928511709789255,0.00022072135537465343,-0.02602826960896787
111,0.1016,309.875,91.2386,-0.00142077,168.405,3.51506,2.03995,0.0296842,-0.00090914,-0.0266397,0.0635449,0.000400073,0.000223958,0.0402008,0.03012916778971575,0.0656073304964846,0.00040015303987628315,-0.0009087268574411445,0.00022398308046511772,-0.026287993233778284
112,0.1026,310.484,91.3375,-0.00146395,168.665,3.54181,2.05556,0.0299707,-0.000925113,-0.0269064,0.0641569,0.000405948,0.000227232,0.0406251,0.030424342077985056,0.0662596817818808,0.00040603040803999235,-0.0009246852148953044,0.0002272578191464536,-0.026547647599534097
113,0.1036,311.091,91.4359,-0.00150765,168.925,3.5684,2.07107,0.030257,-0.000941167,-0.0271729,0.0647686,0.000411846,0.000230518,0.0410492,0.030719394801904,0.06691211235477379,0.00041193082020773986,-0.0009407242412532435,0.00023054457131577166,-0.026807038086131274
114,0.1046,311.695,91.5336,-0.00155186,169.183,3.59482,2.08649,0.0305433,-0.000957302,-0.0274394,0.0653799,0.000417766,0.000233817,0.0414731,0.031014532011511387,0.06756451511564388,0.00041785327636856273,-0.0009568439326216316,0.0002338443373253174,-0.02706635945437419
115,0.1056,312.296,91.6309,-0.00159658,169.439,3.62109,2.10182,0.0308296,-0.000973516,-0.0277057,0.0659908,0.000423708,0.000237128,0.0418969,0.03130975373099898,0.0682168895254025,0.0004237977769139256,-0.0009730422870337652,0.0002371561170666503,-0.027325417187783363
116,0.1066,312.895,91.7275,-0.00164182,169.695,3.64721,2.11706,0.0311158,-0.000989811,-0.0279719,0.0666013,0.000429671,0.000240451,0.0423205,0.03160495682406439,0.06886923504466624,0.00042976332180622023,-0.0009893212986760158,0.00024047991065878627,-0.027584308701738558
117,0.1076,313.491,91.8236,-0.00168757,169.949,3.67316,2.13221,0.0314019,-0.00100618,-0.0282379,0.0672115,0.000435656,0.000243785,0.042744,0.031900141226326895,0.0695216580859166,0.00043575091185754644,-0.001005673970636889,0.00024381471797796372,-0.027842936876551705
118,0.1086,314.085,91.9192,-0.00173382,170.202,3.69896,2.14727,0.031688,-0.00102264,-0.0285039,0.0678212,0.000441662,0.000247132,0.0431673,0.032195410092929144,0.07017394427008838,0.0004417595470216362,-0.0010221172819144808,0.0002471625396285315,-0.028101496265419357
119,0.1096,314.676,92.0143,-0.00178058,170.454,3.72461,2.16224,0.031974,-0.00103917,-0.0287697,0.0684307,0.000447689,0.00025049,0.0435904,0.03249066019896829,0.07082641410910573,0.0004477892276768536,-0.001038630249835748,0.0002505213752397317,-0.028359792558613872
120,0.1106,315.265,92.1088,-0.00182784,170.704,3.7501,2.17712,0.03226,-0.00105577,-0.0290354,0.0690397,0.000453737,0.00025386,0.0440134,0.03278599475861421,0.07147874601020043,0.0004538399542033389,-0.0010552128709374609,0.0002538922251766884,-0.02861792306757438
121,0.1116,315.851,92.2027,-0.0018756,170.954,3.77544,2.19191,0.0325458,-0.00107246,-0.029301,0.0696484,0.000459805,0.000257241,0.0444362,0.03308120717976171,0.07213115366302203,0.0004599107265228497,-0.0010718851203044277,0.0002572740893032055,-0.028875887887963025
122,0.1126,316.435,92.2962,-0.00192386,171.202,3.80063,2.20662,0.0328317,-0.00108922,-0.0295664,0.0702567,0.000465894,0.000260633,0.0448588,0.03337660732233272,0.07278352944377264,0.0004660025454659156,-0.0010886270152122846,0.0002606669677314155,-0.029133590028730727
123,0.1136,317.016,92.3891,-0.00197262,171.449,3.82567,2.22124,0.0331175,-0.00110605,-0.0298318,0.0708646,0.000472002,0.000264037,0.0452813,0.03367198856467435,0.07343587281099895,0.00047211341047193045,-0.001105438552150173,0.0002640718608368786,-0.02939122378442549
124,0.1146,317.595,92.4816,-0.00202187,171.695,3.85057,2.23578,0.0334032,-0.00112296,-0.030097,0.0714722,0.00047813,0.000267451,0.0457037,0.033967350842299515,0.07408829063178124,0.0004782443223680932,-0.0011223297163690527,0.00026748676820731454,-0.029648595102932607
125,0.1156,318.171,92.5735,-0.00207161,171.94,3.87531,2.25023,0.0336888,-0.00113995,-0.0303621,0.0720794,0.000484278,0.000270876,0.0461258,0.03426269409070848,0.07474067508572912,0.00048439528152210976,-0.00113930050381994,0.0002709126902165071,-0.029905801166200785
126,0.1166,318.745,92.6649,-0.00212184,172.184,3.89991,2.26459,0.0339744,-0.00115701,-0.0306271,0.0726862,0.000490445,0.000274312,0.0465478,0.03455812170119543,0.07539302563050976,0.000490565287813105,-0.0011563409219981224,0.0002743496269770329,-0.030162842069467843
127,0.1176,319.317,92.7559,-0.00217256,172.427,3.92436,2.27887,0.03426,-0.00117414,-0.0308919,0.0732927,0.000496631,0.000277759,0.0469697,0.03485363369785777,0.0760454493280418,0.0004967543415925757,-0.0011734509673302362,0.00027779757860280085,-0.030419620949863724
128,0.1186,319.886,92.8463,-0.00222377,172.668,3.94867,2.29307,0.0345454,-0.00119134,-0.0311567,0.0738988,0.000502836,0.000281216,0.0473913,0.03514902307497425,0.0766978381613439,0.0005029624432140167,-0.0011906306362279295,0.0002812555449260845,-0.0306763318442137
129,0.1196,320.453,92.9363,-0.00227546,172.909,3.97283,2.30719,0.0348308,-0.00120862,-0.0314213,0.0745045,0.000509059,0.000284684,0.0478128,0.03544449676825012,0.07735019158720902,0.0005091885925219142,-0.0012078899130100185,0.0002847245263355447,-0.03093278095709384
130,0.1206,321.018,93.0258,-0.00232763,173.148,3.99685,2.32122,0.0351162,-0.00122597,-0.0316858,0.0751099,0.000515301,0.000288161,0.0482342,0.03574005480175302,0.07800261686239995,0.0005154337903683359,-0.001225218805791406,0.0002882025223691631,-0.031189065341426736
131,0.1216,321.581,93.1148,-0.00238028,173.386,4.02072,2.33517,0.0354015,-0.00124339,-0.0319502,0.0757149,0.000521561,0.000291649,0.0486554,0.0360355935959924,0.07865500577334816,0.000521697036587776,-0.001242617310938443,0.00029169153370456335,-0.03144518509202743
132,0.1226,322.141,93.2033,-0.0024334,173.624,4.04446,2.34904,0.0356867,-0.00126089,-0.0322144,0.0763196,0.000527839,0.000295147,0.0490764,0.036331113086362166,0.07930746570671854,0.0005279783315188524,-0.0012600954122016228,0.0002951905601611404,-0.03170104347374558
133,0.1236,322.699,93.2914,-0.002487,173.86,4.06805,2.36283,0.0359718,-0.00127845,-0.0324786,0.0769239,0.000534135,0.000298655,0.0494972,0.03662661320824401,0.0799598883178827,0.0005342776755006273,-0.0012776331309445332,0.00029869960184458755,-0.031956834266608225
134,0.1246,323.255,93.3791,-0.00254107,174.095,4.09151,2.37653,0.0362569,-0.00129608,-0.0327426,0.0775278,0.000540448,0.000302173,0.0499179,0.036922197589220884,0.08061227306218455,0.0005405940683331778,-0.0012952404510635507,0.0003022186588597098,-0.03221236393096205
135,0.1256,323.809,93.4662,-0.00259561,174.329,4.11483,2.39016,0.036542,-0.00131379,-0.0330065,0.0781314,0.000546778,0.0003057,0.0503384,0.03721786625331891,0.08126472752115155,0.0005469275103391347,-0.0013129273557370702,0.00030574673100680627,-0.032467729391166156
136,0.1266,324.361,93.5529,-0.00265061,174.562,4.138,2.40371,0.0368269,-0.00133156,-0.0332703,0.0787346,0.000553126,0.000309237,0.0507588,0.037513411721867396,0.08191714315356524,0.0005532790023945466,-0.00133067386733976,0.00030928481869008095,-0.032722930741614586
137,0.1276,324.91,93.6392,-0.00270608,174.794,4.16105,2.41718,0.0371118,-0.0013494,-0.033534,0.0793374,0.000559491,0.000312783,0.051179,0.037809041403315424,0.08256951941390867,0.0005596475442832816,-0.0013484899691978969,0.0003128319217029496,-0.03297796807662756
138,0.1286,325.458,93.725,-0.00276202,175.025,4.18395,2.43057,0.0373967,-0.00136731,-0.0337975,0.0799399,0.000565872,0.000316339,0.051599,0.03810475532165869,0.08322196407857385,0.0005660321357641163,-0.0013663756575756913,0.0003163890404578318,-0.033232744813730064
139,0.1296,326.003,93.8104,-0.00281841,175.256,4.20672,2.44388,0.0376814,-0.00138528,-0.0340609,0.080542,0.00057227,0.000319904,0.0520189,0.038400345820809756,0.08387436840976026,0.0005724337777166522,-0.0013843209425662417,0.00031995517474148194,-0.033487357774747095
140,0.1306,326.546,93.8954,-0.00287526,175.485,4.22936,2.45711,0.0379662,-0.00140333,-0.0343242,0.0811438,0.000578684,0.000323478,0.0524386,0.038696124356163875,0.08452684031377333,0.0005788514698883418,-0.0014023457928985517,0.0003235303246500454,-0.033741807053727424
141,0.1316,327.087,93.9799,-0.00293257,175.713,4.25186,2.47027,0.0382508,-0.00142144,-0.0345874,0.0817453,0.000585115,0.000327061,0.0528581,0.038991779342864685,0.08517937943969,0.0005852862131732195,-0.0014204302326611407,0.00032711449028033357,-0.03399609274464599
142,0.1326,327.626,94.064,-0.00299033,175.94,4.27423,2.48335,0.0385354,-0.00143961,-0.0348505,0.0823463,0.000591561,0.000330652,0.0532775,0.03928751848494927,0.08583176826993988,0.000591736006715804,-0.00143857425860483,0.00033070667139822874,-0.03425021494140401
143,0.1336,328.163,94.1477,-0.00304854,176.166,4.29646,2.49635,0.0388199,-0.00145785,-0.0351134,0.082947,0.000598023,0.000334253,0.0536967,0.03958323784804296,0.086484223358406,0.0005982018514048004,-0.0014567878529018197,0.000334308868758626,-0.034504077188241444
144,0.1346,328.698,94.231,-0.00310719,176.392,4.31857,2.50928,0.0391043,-0.00147616,-0.0353763,0.0835474,0.0006045,0.000337862,0.0541157,0.039878937367365586,0.08713674435331131,0.0006046827469465832,-0.0014750710117333865,0.00033791908179403585,-0.03475787270346642
145,0.1356,329.231,94.3139,-0.0031663,176.616,4.34054,2.52213,0.0393887,-0.00149454,-0.035639,0.0841474,0.000610993,0.00034148,0.0545346,0.04017472099559116,0.08778922212368001,0.0006111796942440684,-0.0014934237312662635,0.00034153831093242104,-0.035011408506921304
146,0.1366,329.762,94.3963,-0.00322585,176.84,4.36238,2.53491,0.039673,-0.00151297,-0.0359016,0.084747,0.000617501,0.000345107,0.0549533,0.04047048470959003,0.08844165612143096,0.0006176916929914178,-0.0015118260378890191,0.00034516655627170323,-0.03526478124175125
147,0.1376,330.291,94.4784,-0.00328584,177.062,4.3841,2.54761,0.0399572,-0.00153147,-0.0361641,0.0853463,0.000624024,0.000348742,0.0553719,0.0407662284445387,0.08909415470761672,0.0006242187434823965,-0.0015302978982421056,0.00034880281756088927,-0.035517991001440374
148,0.1386,330.818,94.56,-0.00334626,177.284,4.40568,2.56024,0.0402414,-0.00155004,-0.0364264,0.0859453,0.000630562,0.000352385,0.0557903,0.04106205624180137,0.08974671752934005,0.0006307608460105474,-0.0015488393084526209,0.0003524470948876868,-0.035770941456498284
149,0.1396,331.343,94.6413,-0.00340713,177.505,4.42714,2.5728,0.0405255,-0.00156867,-0.0366887,0.0865439,0.000637114,0.000356036,0.0562085,0.04135786398948049,0.09039923519350568,0.000637317000233617,-0.0015674402803077525,0.0003560993883393593,-0.03602382557135264
150,0.1406,331.867,94.7221,-0.00346843,177.724,4.44847,2.58528,0.0408096,-0.00158736,-0.0369508,0.0871421,0.000643681,0.000359695,0.0566265,0.04165375578807984,0.09105170715090405,0.0006438882070709528,-0.0015861008104657293,0.00035975969800339236,-0.036276450618711764
151,0.1416,332.388,94.8026,-0.00353016,177.943,4.46967,2.59768,0.0410935,-0.00160611,-0.0372128,0.08774,0.000650262,0.000363363,0.0570444,0.04194952327155588,0.09170424202247007,0.0006504734661678668,-0.0016048208955741217,0.0003634290243315075,-0.03652891311461848
152,0.1426,332.908,94.8827,-0.00359231,178.161,4.49075,2.61002,0.0413774,-0.00162493,-0.0374747,0.0883376,0.000656857,0.000367038,0.0574621,0.042245374735340846,0.0923568394541936,0.0006570727778016927,-0.0016236105160339909,0.0003671053666884916,-0.03678121315214178
153,0.1436,333.425,94.9624,-0.0036549,178.379,4.5117,2.62228,0.0416613,-0.00164381,-0.0377364,0.0889348,0.000663466,0.000370721,0.0578797,0.042541310203280114,0.09300938979085194,0.0006636861422495421,-0.0016424596843307437,0.0003707897255222914,-0.03703325452760742
154,0.1446,333.941,95.0417,-0.00371791,178.595,4.53253,2.63447,0.041945,-0.00166275,-0.0379981,0.0895317,0.000670089,0.000374412,0.0582971,0.04283712113178084,0.09366200184831008,0.000670313559789415,-0.001661368397078311,0.0003744821009215027,-0.037285229952475074
155,0.1456,334.455,95.1206,-0.00378134,178.81,4.55323,2.64659,0.0422287,-0.00168175,-0.0382596,0.0901282,0.000676725,0.00037811,0.0587143,0.043133015993747525,0.0943145658402742,0.0006769540300233245,-0.0016803366508797435,0.0003781814925964966,-0.03753694695141052
156,0.1466,334.967,95.1992,-0.00384519,179.025,4.57381,2.65864,0.0425123,-0.00170081,-0.038521,0.0907243,0.000683375,0.000381816,0.0591313,0.04342889047010101,0.0949670812158574,0.0006836085538939329,-0.0016993644423277665,0.00038188890100698814,-0.037788501913811445
157,0.1476,335.477,95.2774,-0.00390946,179.239,4.59427,2.67061,0.0427959,-0.00171993,-0.0387823,0.0913201,0.000690038,0.000385529,0.0595482,0.043724848868355704,0.09561965698586361,0.000690276130990819,-0.0017184517680042255,0.000385603325856243,-0.03803989493233306
158,0.1486,335.986,95.3553,-0.00397414,179.452,4.61461,2.68252,0.0430794,-0.00173911,-0.0390435,0.0919156,0.000696714,0.000389249,0.0599649,0.044020786810230916,0.09627229279462424,0.0006969567615739969,-0.0017375986244803077,0.00038932476722242093,-0.03829112609955798
159,0.1496,336.492,95.4327,-0.00403923,179.664,4.63482,2.69436,0.0433628,-0.00175835,-0.0393045,0.0925107,0.000703402,0.000392977,0.0603815,0.04431670423073086,0.09692487859371157,0.0007036494452012931,-0.0017568050083167641,0.00039305422557678327,-0.038542099362210425
160,0.1506,336.997,95.5099,-0.00410474,179.875,4.65492,2.70612,0.0436462,-0.00177765,-0.0395655,0.0931055,0.000710104,0.000396712,0.0607979,0.044612705526112295,0.09757752358887939,0.0007103561835339889,-0.0017760709160635768,0.00039679070061238164,-0.038793007129388934
161,0.1516,337.5,95.5866,-0.00417065,180.085,4.67489,2.71782,0.0439294,-0.00179701,-0.0398263,0.0937,0.000716818,0.000400454,0.0612141,0.04490858173841139,0.09823022742364396,0.0007170749754203953,-0.0017953963442598475,0.0004005341924071537,-0.03904365722693626
162,0.1526,338.002,95.6631,-0.00423696,180.295,4.69475,2.72945,0.0442126,-0.00181642,-0.040087,0.0942941,0.000723544,0.000404202,0.0616302,0.045204541754719996,0.09888287985296418,0.0007238058211025411,-0.0018147713075822303,0.00040428370063594343,-0.03929414589288083
163,0.1536,338.502,95.7391,-0.00430368,180.504,4.71448,2.741,0.0444958,-0.0018359,-0.0403476,0.0948878,0.000730282,0.000407958,0.0620461,0.04550058559877468,0.0995354803240136,0.0007305487208228989,-0.001834215766447489,0.0004080412261819877,-0.039544473219393805
164,0.1546,339.0,95.8149,-0.00437079,180.712,4.7341,2.75249,0.0447788,-0.00185543,-0.0406081,0.0954812,0.000737033,0.00041172,0.0624618,0.04579650413499703,0.10018813830250872,0.0007373046755621004,-0.001853709753854127,0.0004118047683123738,-0.03979463929857363
165,0.1556,339.496,95.8902,-0.00443831,180.919,4.7536,2.76392,0.0450618,-0.00187502,-0.0408684,0.0960743,0.000743795,0.00041549,0.0628773,0.04609250642801621,0.10084085343087357,0.0007440716840954043,-0.0018732632481529565,0.0004155763279256597,-0.040044548226906174
166,0.1566,339.99,95.9653,-0.00450621,181.126,4.77298,2.77527,0.0453447,-0.00189466,-0.0411286,0.096667,0.000750569,0.000419265,0.0632927,0.04638848786268457,0.10149351520191163,0.0007508507473976689,-0.0018928662647604844,0.00041935290385475277,-0.040294296141844654
167,0.1576,340.483,96.04,-0.00457451,181.331,4.79224,2.78656,0.0456276,-0.00191436,-0.0413888,0.0972594,0.000757355,0.000423047,0.0637079,0.04668455304234609,0.10214623327632233,0.0007576418657131434,-0.0019125287816186276,0.0004231364970022078,-0.04054397908082952
168,0.1586,340.975,96.1144,-0.0046432,181.536,4.81139,2.79778,0.0459104,-0.00193412,-0.0416488,0.0978515,0.000764152,0.000426836,0.064123,0.046980597292630266,0.10279900729572278,0.0007644440385221607,-0.0019322507951957668,0.00042692710744773876,-0.040793405219465395
169,0.1596,341.464,96.1884,-0.00471227,181.74,4.83043,2.80893,0.0461931,-0.00195394,-0.0419086,0.0984432,0.00077096,0.000430631,0.0645379,0.04727662054840076,0.10345172655628931,0.0007712572660492079,-0.0019520323019496244,0.0004307237348402104,-0.0410425747242692
170,0.1606,341.952,96.2621,-0.00478173,181.944,4.84934,2.82002,0.0464757,-0.0019738,-0.0421684,0.0990346,0.000777779,0.000434432,0.0649526,0.04757262274450813,0.10410450091372625,0.0007780815485198822,-0.0019718533377646175,0.0004345263792480125,-0.04129167950324386
171,0.1616,342.438,96.3355,-0.00485158,182.146,4.86815,2.83104,0.0467583,-0.00199373,-0.0424281,0.0996256,0.000784609,0.000438239,0.0653672,0.047868708602656795,0.1047572195331199,0.000784916886159559,-0.0019917438405180343,0.0004383350407397568,-0.0415406237272703
172,0.1626,342.923,96.4086,-0.0049218,182.348,4.88684,2.84199,0.0470408,-0.00201371,-0.0426876,0.100216,0.00079145,0.000442053,0.0657816,0.04816477333001079,0.10540966077723546,0.0007917632791940576,-0.0020116838462748143,0.0004421507198260066,-0.04178931166675737
173,0.1636,343.406,96.4813,-0.00499239,182.549,4.90542,2.85288,0.0473232,-0.00203374,-0.042947,0.100807,0.000798302,0.000445872,0.0661958,0.048460816861378486,0.10606315097408703,0.0007986207278496416,-0.0020316733520517882,0.00044597141569524545,-0.04203783928388549
174,0.1646,343.888,96.5538,-0.00506336,182.75,4.92388,2.8637,0.0476055,-0.00205383,-0.0432063,0.101397,0.000805164,0.000449697,0.0666099,0.04875683913155582,0.10671592078131908,0.0008054882315473577,-0.002051722334341477,0.0004497981288544839,-0.04228620666993599
175,0.1656,344.368,96.6259,-0.00513471,182.949,4.94223,2.87446,0.0478878,-0.00207397,-0.0434655,0.101986,0.000812037,0.000453529,0.0670238,0.049052944980616964,0.10736796846785235,0.0008123667913062516,-0.00207182081026136,0.00045363185982627563,-0.04253441391611834
176,0.1666,344.846,96.6977,-0.00520642,183.148,4.96047,2.88515,0.04817,-0.00209416,-0.0437246,0.102576,0.000818919,0.000457365,0.0674375,0.04934902949725073,0.10802150834455371,0.0008192544057148421,-0.0020919687768047313,0.000457469607318961,-0.042782461113570536
177,0.1676,345.323,96.7692,-0.0052785,183.347,4.9786,2.89578,0.0484521,-0.00211441,-0.0439835,0.103165,0.000825812,0.000461208,0.0678511,0.04964509261621153,0.10867432524867393,0.0008261530766116021,-0.0021121762098360586,0.00046131437276231146,-0.043030252656388934
178,0.1686,345.798,96.8404,-0.00535094,183.544,4.99662,2.90635,0.0487342,-0.00213471,-0.0442423,0.103753,0.000832714,0.000465056,0.0682644,0.04994123926635963,0.1093264174482389,0.0008330608025586272,-0.0021324331270505814,0.0004651641553070629,-0.04327788438207403
179,0.1696,346.272,96.9113,-0.00542374,183.741,5.01453,2.91685,0.0490162,-0.00215506,-0.0445011,0.104342,0.000839627,0.00046891,0.0686777,0.050237364447520694,0.10998000317021583,0.000839979585422812,-0.002152739525418168,0.0004690199554797658,-0.04352545202896063
180,0.1706,346.744,96.9819,-0.0054969,183.937,5.03232,2.92729,0.0492981,-0.00217547,-0.0447597,0.10493,0.000846549,0.000472769,0.0690907,0.05053346809440673,0.11063286333415778,0.0008469074237387186,-0.002173105380170237,0.00047288077287732655,-0.04377276436820221
181,0.1716,347.215,97.0522,-0.00557042,184.132,5.05001,2.93766,0.0495799,-0.00219593,-0.0450181,0.105518,0.00085348,0.000476633,0.0695036,0.05082955014171686,0.11128610749275958,0.0008538443176937527,-0.002193520709584562,0.0004767466075572546,-0.04401982156472506
182,0.1726,347.684,97.1222,-0.00564429,184.327,5.06759,2.94797,0.0498616,-0.00221643,-0.0452765,0.106105,0.000860421,0.000480503,0.0699164,0.051125610524138665,0.11193862393269671,0.0008607912683364916,-0.002213975532747381,0.0004806184600587571,-0.04426681492991558
183,0.1736,348.152,97.1919,-0.00571851,184.521,5.08506,2.95822,0.0501433,-0.00223699,-0.0455348,0.106692,0.000867371,0.000484378,0.0703289,0.051421754318518476,0.11259152351222435,0.0008677472750080462,-0.002234489802523054,0.0004844953299667498,-0.04451364893163556
184,0.1746,348.618,97.2613,-0.00579308,184.715,5.10243,2.96841,0.0504249,-0.0022576,-0.0457929,0.107279,0.00087433,0.000488258,0.0707413,0.051717876376563554,0.11324480645631163,0.0008747123378962662,-0.0022550535377782177,0.0004883772173394085,-0.0447602281364311
185,0.1756,349.083,97.3305,-0.005868,184.907,5.11968,2.97853,0.0507065,-0.00227827,-0.0460509,0.107865,0.000881297,0.000492143,0.0711536,0.05201408183432221,0.11389735909214371,0.0008816854563078458,-0.0022756767126802524,0.0004922641222351309,-0.0450066482080157
186,0.1766,349.546,97.3993,-0.00594326,185.099,5.13683,2.98859,0.0509879,-0.00229898,-0.0463088,0.108451,0.000888274,0.000496033,0.0715656,0.0523101602532301,0.11455029423588425,0.000888668632188061,-0.00229633936945306,0.0004961560447125368,-0.04525290923671832
187,0.1776,350.008,97.4679,-0.00601886,185.291,5.15387,2.99859,0.0512693,-0.00231974,-0.0465666,0.109037,0.000895259,0.000499928,0.0719775,0.052606322000329,0.11520361211174857,0.0008956598639553448,-0.0023170514824552013,0.0005000529848295798,-0.045499011312796434
188,0.1786,350.468,97.5362,-0.0060948,185.481,5.17081,3.00853,0.0515506,-0.00234055,-0.0468243,0.109622,0.000902253,0.000503828,0.0723892,0.05290246180881897,0.1158561970873282,0.0009026601526804789,-0.0023378130485890436,0.0005039549426448797,-0.04574495452643701
189,0.1796,350.927,97.6042,-0.00617107,185.671,5.18764,3.01841,0.0518318,-0.00236141,-0.0470818,0.110207,0.000909255,0.000507732,0.0728008,0.05319857961329166,0.1165091639368061,0.000909668497642846,-0.002358624064749182,0.0005078609177096016,-0.04599064356682492
190,0.1806,351.385,97.6719,-0.00624768,185.861,5.20437,3.02823,0.052113,-0.00238232,-0.0473393,0.110792,0.000916266,0.000511641,0.0732122,0.05349478069779945,0.11716251288364332,0.0009166858999283267,-0.002379484527823106,0.0005117719105818264,-0.04623626935042957
191,0.1816,351.841,97.7393,-0.00632461,186.049,5.22099,3.03798,0.0523941,-0.00240328,-0.0475966,0.111376,0.000923284,0.000515555,0.0736234,0.05379095970666303,0.1178151263357472,0.0009237103578787487,-0.0024003944346907558,0.0005156879213208398,-0.04648164118988485
192,0.1826,352.295,97.8065,-0.00640188,186.237,5.23751,3.04768,0.0526751,-0.00242428,-0.0478538,0.11196,0.00093031,0.000519473,0.0740345,0.05408711657443188,0.1184681210254177,0.0009307428725728872,-0.0024213438064385473,0.0005196079494653727,-0.04672685457597758
193,0.1836,352.749,97.8734,-0.00647947,186.425,5.25392,3.05731,0.052956,-0.00244534,-0.0481109,0.112544,0.000937345,0.000523396,0.0744454,0.05438325123564347,0.11912149717536247,0.0009377844451177175,-0.0024423525917146582,0.0005235329955863843,-0.04697190959849318
194,0.1846,353.201,97.9401,-0.00655738,186.612,5.27023,3.06689,0.0532369,-0.00246644,-0.0483679,0.113128,0.000944387,0.000527323,0.0748561,0.05467946909276589,0.11977525500841946,0.0009448330738139887,-0.0024634008360152615,0.0005274620592150558,-0.0472168063471462
195,0.1856,353.651,98.0065,-0.00663561,186.798,5.28644,3.07641,0.0535176,-0.00248759,-0.0486248,0.113711,0.000951436,0.000531255,0.0752667,0.05497555917403907,0.12042827431872216,0.0009518887588100267,-0.00248449851197885,0.0005313961409303403,-0.047461544911580944
196,0.1866,354.1,98.0726,-0.00671415,186.983,5.30254,3.08586,0.0537983,-0.00250879,-0.0488815,0.114294,0.000958493,0.00053519,0.0756771,0.05527173237946381,0.1210816744502814,0.0009589525012134725,-0.0025056456164502805,0.0005353332397204369,-0.04770603015197905
197,0.1876,354.548,98.1385,-0.00679302,187.168,5.31854,3.09526,0.054079,-0.00253003,-0.0491382,0.114876,0.000965558,0.00053913,0.0760873,0.05556798873237678,0.12173433389028587,0.0009660243011939684,-0.002526832171535376,0.0005392753566992869,-0.04795045264107034
198,0.1886,354.995,98.204,-0.00687219,187.353,5.33444,3.1046,0.0543595,-0.00255132,-0.0493947,0.115458,0.000972629,0.000543074,0.0764974,0.055864117083275655,0.12238737328864158,0.0009731021569754361,-0.002548068149220706,0.0005432214913831945,-0.048194622033904566
199,0.1896,355.44,98.2694,-0.00695167,187.536,5.35024,3.11388,0.05464,-0.00257266,-0.0496511,0.11604,0.000979708,0.000547022,0.0769073,0.056160328509827995,0.12304079286654868,0.0009801880706461485,-0.0025693535463303663,0.0005471716438192331,-0.04843863364918921
200,0.1906,355.884,98.3345,-0.00703146,187.719,5.36594,3.1231,0.0549204,-0.00259405,-0.0499074,0.116621,0.000986794,0.000550974,0.0773171,0.05645651738968249,0.12369346915130519,0.0009872810413891209,-0.002590688359681348,0.0005511258140549202,-0.04868248757616933
201,0.1916,356.326,98.3993,-0.00711156,187.902,5.38154,3.13226,0.0552007,-0.00261548,-0.0501636,0.117203,0.000993886,0.00055493,0.0777266,0.05675268365727004,0.12434764909825025,0.0009943800683593906,-0.0026120626122039248,0.0005550840021379955,-0.048926183904019704
202,0.1926,356.767,98.4639,-0.00719195,188.084,5.39704,3.14137,0.0554809,-0.00263695,-0.0504196,0.117783,0.00100099,0.00055889,0.078136,0.057048827247010214,0.12499995988656942,0.001001491157694101,-0.0026334763013428075,0.0005590462081157543,-0.04916962763881272
203,0.1936,357.207,98.5283,-0.00727264,188.265,5.41244,3.15042,0.0557611,-0.00265848,-0.0506756,0.118364,0.00100809,0.000562853,0.0785453,0.05734505382781063,0.12565377477809747,0.00100859829351152,-0.002654949371439619,0.0005630114314729706,-0.049413009059986135
204,0.1946,357.646,98.5923,-0.00735363,188.446,5.42773,3.1594,0.0560412,-0.00268004,-0.0509314,0.118944,0.0010152,0.00056682,0.0789543,0.057641257658797906,0.12630684333904374,0.0010157154899470555,-0.0026764518989330632,0.0005669806728123561,-0.04965613811473668
205,0.1956,358.083,98.6562,-0.00743491,188.626,5.44293,3.16834,0.0563212,-0.00270165,-0.0511871,0.119524,0.00102232,0.000570791,0.0793632,0.05793743867434942,0.1269602907896228,0.0010228427472143142,-0.002698003827938167,0.0005709539321814283,-0.04989910997494462
206,0.1966,358.519,98.7198,-0.00751649,188.806,5.45804,3.17721,0.0566011,-0.00272331,-0.0514427,0.120104,0.00102945,0.000574766,0.079772,0.05823359680883189,0.12761411734965433,0.0010299800655275693,-0.0027196051552319522,0.0005749312096281489,-0.05014192472938739
207,0.1976,358.954,98.7832,-0.00759835,188.985,5.47304,3.18603,0.056881,-0.00274501,-0.0516982,0.120683,0.00103658,0.000578743,0.0801806,0.058529837849578215,0.12826719497132633,0.001037117434730117,-0.002741245904997136,0.0005789105040423514,-0.05038458246677302
208,0.1986,359.387,98.8463,-0.00768049,189.163,5.48795,3.19479,0.0571607,-0.00276676,-0.0519536,0.121262,0.00104371,0.000582725,0.080589,0.05882595005458602,0.1289206508344316,0.0010442548548224018,-0.0027629360470176056,0.0005828948171968662,-0.050627083275739615
209,0.1996,359.819,98.9092,-0.00776292,189.341,5.50275,3.2035,0.0574404,-0.00278855,-0.0522089,0.12184,0.00105086,0.000586709,0.0809972,0.05912214509376157,0.1295733555841152,0.001051412346832592,-0.00278466560589663,0.0005868811473905833,-0.050869427244855325
210,0.2006,360.25,98.9718,-0.00784563,189.518,5.51747,3.21215,0.0577201,-0.00281038,-0.052464,0.122419,0.00105801,0.000590698,0.0814053,0.059418422990276554,0.1302275679331968,0.0010585698900189566,-0.002806434579037287,0.0005908724964200918,-0.05111151957377569
211,0.2016,360.68,99.0342,-0.00792862,189.695,5.53208,3.22074,0.0579996,-0.00283226,-0.0527191,0.122997,0.00106516,0.000594689,0.0818132,0.05971457182437412,0.13088102829931536,0.0010657274843821618,-0.002828252935554998,0.0005948658625609671,-0.051353550152819616
212,0.2026,361.108,99.0964,-0.00801188,189.871,5.5466,3.22928,0.0582791,-0.00285417,-0.052974,0.123574,0.00107232,0.000598683,0.0822209,0.06001080344363929,0.13153373494040133,0.00107289514065112,-0.002850100729189786,0.0005988622464361271,-0.05159532931682209
213,0.2036,361.536,99.1584,-0.00809542,190.046,5.56102,3.23776,0.0585585,-0.00287614,-0.0532288,0.124152,0.00107949,0.000602681,0.0826285,0.060307011840507574,0.1321879504892769,0.0010800728590414366,-0.0028720078718258435,0.0006028626486840327,-0.051836952042869644
214,0.2046,361.962,99.2201,-0.00817922,190.222,5.57535,3.24619,0.0588378,-0.00289814,-0.0534835,0.124729,0.00108666,0.000606681,0.0830359,0.060603196949239546,0.1328414114420644,0.0010872506288959194,-0.0028939444463494945,0.0006068650681394505,-0.05207841841913585
215,0.2056,362.387,99.2816,-0.00826329,190.396,5.58958,3.25456,0.059117,-0.00292019,-0.0537381,0.125305,0.00109383,0.000610685,0.0834432,0.060899358704084916,0.13349411605593797,0.0010944284502154566,-0.002915930392478505,0.0006108715060482162,-0.05231972853372524
216,0.2066,362.81,99.3429,-0.00834762,190.57,5.60372,3.26287,0.0593961,-0.00294228,-0.0539926,0.125882,0.00110101,0.000614692,0.0838503,0.06119549703928162,0.13414833088372946,0.0011016163340162866,-0.0029379557363052866,0.000614880961843145,-0.05256088247467283
217,0.2076,363.233,99.404,-0.00843222,190.743,5.61776,3.27113,0.0596752,-0.00296441,-0.0542469,0.126458,0.0011082,0.000618701,0.0842572,0.06149171803822262,0.1348017885000452,0.0011088142805142365,-0.002960020475197611,0.0006188924349419533,-0.052801785610127605
218,0.2086,363.654,99.4648,-0.00851708,190.916,5.63171,3.27934,0.0599542,-0.00298658,-0.0545012,0.127034,0.00111539,0.000622713,0.0846639,0.061787915545186145,0.13545562261636945,0.0011160122787656768,-0.002982124606518477,0.0006229069259915399,-0.05304262749170385
219,0.2096,364.074,99.5254,-0.00860219,191.089,5.64557,3.28749,0.0602331,-0.0030088,-0.0547553,0.127609,0.00112259,0.000626729,0.0850705,0.06208408949436928,0.13610869734036357,0.001123220340003117,-0.0030042780975835237,0.0006269254356547904,-0.053283218791639
220,0.2106,364.493,99.5858,-0.00868755,191.26,5.65933,3.29559,0.0605119,-0.00303105,-0.0550093,0.128184,0.00112979,0.000630746,0.0854769,0.06238023981995733,0.1367621476903058,0.001130428453138821,-0.0030264610056101038,0.0006309449620875984,-0.05352365431746142
221,0.2116,364.91,99.646,-0.00877317,191.432,5.673,3.30363,0.0607907,-0.00305335,-0.0552632,0.128759,0.00113699,0.000634767,0.0858832,0.06267647272376697,0.1374159738822438,0.0011376366181730102,-0.0030486932676390133,0.0006349685072066791,-0.05376393415681391
222,0.2126,365.327,99.706,-0.00885904,191.602,5.68657,3.31163,0.0610694,-0.00307569,-0.055517,0.129334,0.0011442,0.00063879,0.0862893,0.06297268193155103,0.13807017613234818,0.0011448548465546882,-0.0030709649110562953,0.0006389940697824059,-0.05400405839726974
223,0.2136,365.742,99.7658,-0.00894515,191.773,5.70006,3.31956,0.061348,-0.00309807,-0.0557707,0.129908,0.00115141,0.000642815,0.0866952,0.06326886737745396,0.13872361593272986,0.0011520731269800688,-0.0030932759332003013,0.0006430216498389818,-0.05424402712633403
224,0.2146,366.157,99.8253,-0.0090315,191.942,5.71345,3.32745,0.0616265,-0.00312048,-0.0560243,0.130482,0.00115863,0.000646843,0.087101,0.06356502899560956,0.1393774309152238,0.0011593014710422622,-0.003115616362561191,0.0006470522480477303,-0.05448384043144239
225,0.2156,366.57,99.8846,-0.0091181,192.112,5.72675,3.33528,0.0619049,-0.00314294,-0.0562777,0.131055,0.00116585,0.000650873,0.0875066,0.06386116672014053,0.14003048126419526,0.0011665298672933755,-0.003138006134379645,0.0006510848637939493,-0.05472340387230723
226,0.2166,366.982,99.9438,-0.00920493,192.28,5.73996,3.34305,0.0621833,-0.00316544,-0.0565311,0.131629,0.00117308,0.000654906,0.087912,0.06415738690089134,0.1406850466027212,0.0011737683274712918,-0.0031604352769127875,0.0006551204977571778,-0.05496290661548686
227,0.2176,367.393,100.003,-0.009292,192.449,5.75308,3.35078,0.0624615,-0.00318798,-0.0567843,0.132202,0.00118031,0.000658941,0.0883173,0.06445347667010437,0.14133884643018657,0.0011810068399835671,-0.00318290378748054,0.0006591581493142762,-0.05520215971681097
228,0.2186,367.802,100.061,-0.0093793,192.616,5.7661,3.35845,0.0627397,-0.00321056,-0.0570374,0.132774,0.00118754,0.000662978,0.0887224,0.0647496488229502,0.14199187899985444,0.0011882454048304236,-0.003205411663398161,0.0006631978184898912,-0.055441257791049026
229,0.2196,368.211,100.12,-0.00946683,192.784,5.77904,3.36607,0.0630179,-0.00323317,-0.0572904,0.133347,0.00119478,0.000667018,0.0891273,0.06504590338235139,0.14264642785686,0.001195494033967126,-0.003227948934255598,0.0006672405059753306,-0.05568020092524684
230,0.2206,368.618,100.178,-0.00955459,192.95,5.79189,3.37363,0.0632959,-0.00325583,-0.0575433,0.133919,0.00120202,0.000671059,0.0895321,0.06534202730280936,0.1433002085770545,0.0012027427155840709,-0.003250535533025678,0.0006712842104643624,-0.05591898920638194
231,0.2216,369.025,100.236,-0.00964257,193.116,5.80465,3.38115,0.0635739,-0.00327852,-0.0577961,0.134491,0.00120927,0.000675103,0.0899367,0.06563823355716125,0.1439543633667948,0.00121000146178174,-0.0032731515217950813,0.0006753309333202839,-0.05615762272136349
232,0.2226,369.43,100.294,-0.00973077,193.282,5.81731,3.38861,0.0638517,-0.00330126,-0.0580488,0.135062,0.00121651,0.000679149,0.0903411,0.06593430898141595,0.1446077478317893,0.0012172502484328884,-0.0032958168326239212,0.0006793796738997493,-0.056396101557031786
233,0.2236,369.834,100.352,-0.0098192,193.447,5.82989,3.39602,0.0641295,-0.00332403,-0.0583013,0.135633,0.00122377,0.000683196,0.0907454,0.06623046666684873,0.14526150548584904,0.0012245191120556775,-0.0033185115284944944,0.0006834294315440914,-0.0566343314635972
234,0.2246,370.237,100.41,-0.00990784,193.612,5.84238,3.40338,0.0644072,-0.00334684,-0.0585538,0.136204,0.00123102,0.000687246,0.0911495,0.06652659998365018,0.14591563654212525,0.001231778016132612,-0.003341245573963758,0.0006874822076401443,-0.056872501224705
235,0.2256,370.639,100.467,-0.0099967,193.776,5.85478,3.41069,0.0646849,-0.00336968,-0.0588061,0.136774,0.00123828,0.000691297,0.0915535,0.066822815548093,0.1465689946443236,0.0012390469852272545,-0.003364008999955592,0.0006915360008414861,-0.05711042227764307
236,0.2266,371.04,100.524,-0.0100858,193.94,5.86709,3.41795,0.0649624,-0.00339257,-0.0590583,0.137345,0.00124554,0.00069535,0.0919573,0.0671188999592196,0.14722387249009738,0.0012463160070950163,-0.003386821736696799,0.0006955918118558557,-0.05734818904549488
237,0.2276,371.44,100.581,-0.010175,194.104,5.87932,3.42515,0.0652399,-0.00341549,-0.0593104,0.137915,0.0012528,0.000699405,0.0923609,0.0674150665451716,0.14787797649934964,0.0012535850817358973,-0.003409663848971012,0.0006996496407079,-0.057585801614713716
238,0.2286,371.839,100.638,-0.0102645,194.266,5.89146,3.43231,0.0655173,-0.00343845,-0.0595624,0.138484,0.00126007,0.000703462,0.0927643,0.06771120855762924,0.14853130492228717,0.0012608642217590837,-0.003432545300408929,0.000703709487422044,-0.0578232600716847
239,0.2296,372.237,100.694,-0.0103542,194.429,5.90351,3.43941,0.0657946,-0.00346145,-0.0598143,0.139053,0.00126734,0.00070752,0.0931676,0.06800732593053871,0.14918500519487865,0.0012681434147017168,-0.0034554660882769594,0.0007077703513145295,-0.058060564502724676
240,0.2306,372.634,100.751,-0.0104441,194.591,5.91547,3.44647,0.0660718,-0.00348448,-0.0600661,0.139622,0.00127461,0.00071158,0.0935708,0.0683034185978344,0.14983907752876657,0.0012754226605644625,-0.0034784162446208633,0.0007118332331097488,-0.05829771499408298
241,0.2316,373.03,100.807,-0.0105342,194.752,5.92735,3.45347,0.066349,-0.00350755,-0.0603178,0.140191,0.00128189,0.000715641,0.0939737,0.06859959335339427,0.1504935221357142,0.001282711972174555,-0.0035014057323733416,0.0007158971321163943,-0.058534711631940906
242,0.2326,373.424,100.863,-0.0106245,194.913,5.93914,3.46043,0.066626,-0.00353066,-0.0605693,0.14076,0.00128916,0.000719704,0.0943765,0.06889563644082775,0.15114833922760496,0.001289991323951023,-0.0035244345487879247,0.0007199630490664077,-0.0587714603795626
243,0.2336,373.818,100.919,-0.0107149,195.074,5.95084,3.46733,0.066903,-0.0035538,-0.0608208,0.141328,0.00129644,0.000723768,0.0947792,0.06919176154355511,0.1518023772134902,0.0012972807416211651,-0.003547492726588275,0.0007240299832600439,-0.059008149592361
244,0.2346,374.21,100.974,-0.0108056,195.234,5.96246,3.47418,0.0671799,-0.00357698,-0.0610721,0.141895,0.00130373,0.000727834,0.0951816,0.06948786173550636,0.15245563434226495,0.0013045802254043615,-0.0035705902280057655,0.0007280989354381262,-0.059244591134244406
245,0.2356,374.602,101.03,-0.0108965,195.393,5.974,3.48099,0.0674568,-0.00360019,-0.0613233,0.142463,0.00131101,0.000731901,0.0955839,0.06978404392895299,0.15311041508269763,0.001311869749282213,-0.003593717086218362,0.0007321689048929159,-0.0594808792139262
246,0.2366,374.993,101.085,-0.0109875,195.553,5.98544,3.48774,0.0677335,-0.00362344,-0.0615745,0.14303,0.0013183,0.000735969,0.0959861,0.07008009413056482,0.15376441407924402,0.001319169339419668,-0.0036168832629882575,0.0007362398916364032,-0.059717107945496783
247,0.2376,375.382,101.14,-0.0110787,195.711,5.99681,3.49445,0.0680102,-0.00364673,-0.0618255,0.143597,0.00132558,0.000740038,0.0963881,0.07037622626060136,0.15441878399836795,0.001326458969506783,-0.00364008875554811,0.0007403118956810228,-0.059953089334499166
248,0.2386,375.771,101.195,-0.0111701,195.87,6.00809,3.5011,0.0682868,-0.00367005,-0.0620763,0.144164,0.00133287,0.000744109,0.0967899,0.07067233327449718,0.15507352505044225,0.001333758666000051,-0.003663323597759005,0.0007443859177833634,-0.06018882353738941
249,0.2396,376.158,101.25,-0.0112617,196.028,6.01928,3.50771,0.0685633,-0.0036934,-0.0623271,0.14473,0.00134017,0.000748181,0.0971915,0.07096841510607454,0.15572748171789952,0.0013410684291188524,-0.0036865877875424946,0.0007484609572194767,-0.06042449862555488
250,0.2406,376.545,101.304,-0.0113535,196.185,6.03039,3.51427,0.0688397,-0.00371679,-0.0625778,0.145296,0.00134746,0.000752254,0.097593,0.07126447168914485,0.1563818086295996,0.0013483682321153712,-0.003709891285718636,0.0007525370140020193,-0.06066002067982634
251,0.2416,376.931,101.359,-0.0114454,196.342,6.04142,3.52078,0.069116,-0.00374022,-0.0628284,0.145862,0.00135475,0.000756328,0.0979944,0.07156050295750904,0.1570365059951604,0.001355668088327766,-0.0037332340895038785,0.0007566140881427597,-0.06089538978566322
252,0.2426,377.315,101.413,-0.0115375,196.499,6.05236,3.52724,0.0693923,-0.00376368,-0.0630788,0.146427,0.00136205,0.000760402,0.0983955,0.07185661603061333,0.1576904163333228,0.0013629780113859624,-0.0037566062336757966,0.0007606911788935466,-0.06113051214151344
253,0.2436,377.699,101.467,-0.0116298,196.655,6.06322,3.53366,0.0696684,-0.00378717,-0.0633292,0.146992,0.00136935,0.000764478,0.0987965,0.07215259650052297,0.1583446962352184,0.0013702879878070284,-0.0037800077161438406,0.000764770287783989,-0.06136557563009626
254,0.2446,378.082,101.521,-0.0117222,196.81,6.074,3.54002,0.0699445,-0.0038107,-0.0635794,0.147557,0.00137665,0.000768555,0.0991974,0.07244865870192307,0.1589993459097092,0.001377598017590742,-0.0038034484967803817,0.0007688504140697106,-0.06160039258624739
255,0.2456,378.463,101.575,-0.0118148,196.966,6.08469,3.54634,0.0702205,-0.00383426,-0.0638295,0.148121,0.00138395,0.000772632,0.099598,0.0727446953829074,0.1596532059119904,0.0013849081007382136,-0.003826918611054775,0.0007729305569903477,-0.061835056982055714
256,0.2466,378.844,101.628,-0.0119075,197.12,6.0953,3.55261,0.0704965,-0.00385786,-0.0640795,0.148686,0.00139125,0.000776711,0.0999985,0.07304081378129235,0.1603085951033425,0.0013922182372492209,-0.0038504280183634387,0.0007770127180997122,-0.06206956890259874
257,0.2476,379.224,101.681,-0.0120004,197.275,6.10583,3.55883,0.0707723,-0.00388149,-0.0643294,0.149249,0.00139856,0.00078079,0.100399,0.07333679925225356,0.16096203276782828,0.0013995384411198408,-0.0038739667546381362,0.0007810948958602015,-0.06230392843288701
258,0.2486,379.603,101.735,-0.0120935,197.429,6.11628,3.565,0.0710481,-0.00390515,-0.0645792,0.149813,0.00140586,0.000784869,0.100799,0.07363286636726563,0.1616170000377175,0.0014068486844327488,-0.0038975348177734404,0.0007851770902718158,-0.06253813565786415
259,0.2496,379.981,101.788,-0.0121867,197.583,6.12665,3.57113,0.0713237,-0.00392884,-0.0648289,0.150376,0.00141317,0.00078895,0.101199,0.07392880036306804,0.16227117454158213,0.001414168995252485,-0.003921132205661482,0.0007892613029132356,-0.06277219066240702
260,0.2506,380.358,101.841,-0.0122801,197.736,6.13693,3.57721,0.0715993,-0.00395257,-0.0650785,0.150939,0.00142047,0.000793031,0.101599,0.07422481592951935,0.16292571744938855,0.001421479345368848,-0.003944768876743998,0.0007933455322226557,-0.06300609353132525
261,0.2516,380.734,101.893,-0.0123736,197.888,6.14714,3.58324,0.0718748,-0.00397633,-0.0653279,0.151502,0.00142778,0.000797112,0.101999,0.07452080563701813,0.16358062896860637,0.0014287997631388105,-0.003968434867882453,0.000797429778199632,-0.06323975067334175
262,0.2526,381.109,101.946,-0.0124673,198.041,6.15726,3.58922,0.0721503,-0.00400013,-0.0655773,0.152065,0.00143509,0.000801194,0.102398,0.07481687690091499,0.1642359093068222,0.001436120234421523,-0.003992140137038747,0.0008015150416460504,-0.06347334954853334
263,0.2536,381.483,101.998,-0.0125611,198.193,6.1673,3.59516,0.0724256,-0.00402395,-0.0658265,0.152627,0.0014424,0.000805277,0.102798,0.07511281472109776,0.16489039378076353,0.0014434407592169851,-0.004015864761699239,0.0008056013225741232,-0.06370670291278901
264,0.2546,381.856,102.051,-0.012655,198.344,6.17727,3.60105,0.0727009,-0.00404781,-0.0660757,0.153189,0.00144971,0.00080936,0.103197,0.07540883402417786,0.1655452461783562,0.0014507613375254191,-0.004039628659661565,0.0008096876201864056,-0.0639399981326314
265,0.2556,382.229,102.103,-0.0127491,198.496,6.18715,3.6069,0.0729761,-0.0040717,-0.0663247,0.15375,0.00145702,0.000813443,0.103596,0.07570482726210281,0.16619930050654763,0.0014580819693477132,-0.004063421868721884,0.0008137739344831196,-0.06417304805717672
266,0.2566,382.6,102.155,-0.0128433,198.646,6.19695,3.6127,0.0732512,-0.00409563,-0.0665736,0.154311,0.00146433,0.000817527,0.103995,0.0760007943684915,0.16685372186215863,0.0014654026546840893,-0.004087254345879865,0.0008178612662821383,-0.0644059464001141
267,0.2576,382.971,102.206,-0.0129376,198.797,6.20668,3.61845,0.0735262,-0.00411958,-0.0668224,0.154872,0.00147164,0.000821611,0.104393,0.0762967352769528,0.16750851045114956,0.0014727233935347694,-0.00411110617051158,0.0008219486147740263,-0.06463869324574156
268,0.2586,383.34,102.258,-0.0130321,198.947,6.21632,3.62416,0.0738011,-0.00414357,-0.0670711,0.155433,0.00147895,0.000825695,0.104792,0.07659264992108472,0.16816366647959602,0.0014800441859001978,-0.004134997258499751,0.0008260359799585615,-0.0648712886782904
269,0.2596,383.709,102.309,-0.0131267,199.096,6.22588,3.62982,0.074076,-0.00416758,-0.0673197,0.155993,0.00148626,0.000829779,0.10519,0.07688864592333444,0.1688180213350836,0.0014873650317808185,-0.004158907690169689,0.000830123361835966,-0.06510373278192583
270,0.2606,384.077,102.361,-0.0132214,199.245,6.23537,3.63544,0.0743507,-0.00419163,-0.0675682,0.156554,0.00149357,0.000833864,0.105589,0.07718450786914732,0.16947391220523977,0.0014946859311770755,-0.00418285738044355,0.0008342117612403221,-0.06533602564074636
271,0.2616,384.444,102.412,-0.0133163,199.394,6.24478,3.641,0.0746254,-0.00421571,-0.0678166,0.157113,0.00150088,0.000837949,0.105987,0.07748045109940072,0.17012783087540284,0.001502006884089191,-0.004206836368529698,0.0008383001773459853,-0.06556816733878468
272,0.2626,384.81,102.463,-0.0134112,199.543,6.25411,3.64653,0.0749,-0.00423982,-0.0680649,0.157673,0.00150819,0.000842033,0.106385,0.07777636785878417,0.17078328597099057,0.001509327890517831,-0.004230844652283849,0.0008423876093104354,-0.06580015796000693
273,0.2636,385.175,102.514,-0.0135063,199.691,6.26336,3.65201,0.0751746,-0.00426396,-0.068313,0.158232,0.0015155,0.000846118,0.106782,0.07807236588806754,0.17143793678570396,0.0015166489504632175,-0.004254882229559165,0.0008464760588144937,-0.06603190419150828
274,0.2646,385.539,102.565,-0.0136015,199.838,6.27254,3.65744,0.075449,-0.00428813,-0.0685611,0.158791,0.00152281,0.000850203,0.10718,0.07836822953590339,0.17209295365252464,0.0015239700639255727,-0.004278949098206475,0.000850564525019859,-0.0662635929339015
275,0.2656,385.903,102.615,-0.0136968,199.985,6.28163,3.66283,0.0757233,-0.00431234,-0.068809,0.15935,0.00153012,0.000854287,0.107577,0.0786640665134517,0.1727483367761331,0.0015312912309055626,-0.004303055213043083,0.0008546520070720209,-0.06649503750047381
276,0.2666,386.266,102.666,-0.0137922,200.132,6.29065,3.66817,0.0759976,-0.00433657,-0.0690568,0.159908,0.00153743,0.000858372,0.107975,0.07895998465021337,0.17340291295782473,0.0015386124514036315,-0.0043271806577342975,0.0008587405066762255,-0.06672633137168704
277,0.2676,386.627,102.716,-0.0138877,200.279,6.29959,3.67347,0.0762718,-0.00436083,-0.0693046,0.160466,0.00154474,0.000862456,0.108372,0.07925587604286055,0.17405785449495026,0.0015459337254197791,-0.004351335387333455,0.000862828022119233,-0.06695756793537966
278,0.2686,386.988,102.766,-0.0139834,200.425,6.30846,3.67873,0.0765459,-0.00438512,-0.0695522,0.161024,0.00155205,0.000866541,0.108769,0.07955174062487247,0.17471316159143502,0.0015532550529546718,-0.004375519399680949,0.0008669165551224989,-0.06718856064348144
279,0.2696,387.348,102.816,-0.0140791,200.571,6.31725,3.68394,0.0768199,-0.00440944,-0.0697997,0.161581,0.00155936,0.000870625,0.109165,0.07984757832971834,0.1753676590830715,0.0015605764340087536,-0.004399732692614289,0.0008710041039563521,-0.06741940290681381
280,0.2706,387.707,102.866,-0.0141749,200.716,6.32596,3.6891,0.0770939,-0.00443379,-0.0700471,0.162139,0.00156667,0.000874708,0.109562,0.08014349710520152,0.17602369725446754,0.0015678978685822464,-0.00442397526396876,0.0008750906686090243,-0.06765009480876971
281,0.2716,388.066,102.916,-0.0142708,200.861,6.3346,3.69423,0.0773677,-0.00445817,-0.0702944,0.162695,0.00157397,0.000878792,0.109959,0.08043928088566066,0.17667774823946547,0.001575209340923589,-0.004448247111576764,0.0008791782508259516,-0.06788063643267672
282,0.2726,388.423,102.965,-0.0143669,201.006,6.34316,3.6993,0.0776415,-0.00448258,-0.0705416,0.163252,0.00158128,0.000882875,0.110355,0.0807351456628067,0.17733334031067716,0.0015825308824641837,-0.00447254823326837,0.0008832648488537043,-0.06811102786179668
283,0.2736,388.78,103.015,-0.014463,201.15,6.35165,3.70434,0.0779152,-0.00450702,-0.0707887,0.163808,0.00158858,0.000886958,0.110751,0.08103098335571612,0.17798811965968087,0.0015898424616267448,-0.0044968786268708705,0.0008873514635667767,-0.06834126917932581
284,0.2746,389.135,103.064,-0.0145592,201.294,6.36006,3.70933,0.0781888,-0.00453149,-0.0710356,0.164365,0.00159589,0.00089104,0.111147,0.08132679389779907,0.17864444181108174,0.0015971641101357736,-0.0045212382902092285,0.0008914370940742433,-0.06857126732552588
285,0.2756,389.49,103.113,-0.0146555,201.438,6.36839,3.71427,0.0784623,-0.00455599,-0.0712825,0.16492,0.00160319,0.000895122,0.111543,0.08162257722245614,0.17929877103585112,0.0016044757961213296,-0.004545627221105519,0.0008955227412592581,-0.06880120869219342
286,0.2766,389.845,103.162,-0.0147518,201.581,6.37666,3.71918,0.0787357,-0.00458051,-0.0715293,0.165476,0.00161049,0.000899203,0.111938,0.08191833326307729,0.1799546434681869,0.0016117875354826339,-0.004570035463079769,0.0008996074042224578,-0.06903100019645014
287,0.2776,390.198,103.211,-0.0148483,201.724,6.38484,3.72403,0.0790091,-0.00460507,-0.0717759,0.166031,0.0016178,0.000903284,0.112334,0.08221417017445432,0.18060970005670063,0.0016191093444106741,-0.004594482922792742,0.00090369208385499,-0.06926054884728983
288,0.2786,390.55,103.26,-0.0149448,201.866,6.39295,3.72885,0.0792823,-0.00462965,-0.0720224,0.166586,0.0016251,0.000907364,0.112729,0.08250987147670474,0.18126512030252662,0.0016264211905969717,-0.004618949689704666,0.0009077757792492758,-0.06948994784741058
289,0.2796,390.902,103.308,-0.0150414,202.009,6.40099,3.73362,0.0795555,-0.00465426,-0.0722689,0.167141,0.00163239,0.000911443,0.113124,0.08280565357558722,0.1819209044075505,0.0016337230738228126,-0.004643445715928007,0.0009118584903935467,-0.06971929030764668
290,0.2806,391.253,103.357,-0.0151381,202.15,6.40895,3.73835,0.0798286,-0.00467889,-0.0725152,0.167695,0.00163969,0.000915522,0.113519,0.08310140818303213,0.18257586999730901,0.0016410350266897744,-0.004667961045952462,0.000915941218190941,-0.06994839023163013
291,0.2816,391.603,103.405,-0.0152349,202.292,6.41684,3.74304,0.0801016,-0.00470356,-0.0727614,0.168249,0.00164699,0.0009196,0.113914,0.08339713523237147,0.18323119853853242,0.0016483470329342609,-0.0046925155844720345,0.0009200229617218891,-0.07017734075298943
292,0.2826,391.952,103.453,-0.0153317,202.433,6.42466,3.74769,0.0803746,-0.00472825,-0.0730076,0.168803,0.00165428,0.000923678,0.114309,0.08369294302621677,0.18388689023235183,0.0016556490760000209,-0.004717089422896947,0.000924104721898189,-0.07040623491366871
293,0.2836,392.301,103.501,-0.0154286,202.574,6.4324,3.75229,0.0806474,-0.00475297,-0.0732536,0.169356,0.00166157,0.000927754,0.114704,0.0839886147888691,0.18454176073765627,0.0016629511722980883,-0.0047416925123510145,0.0009281844968636044,-0.07063488685453811
294,0.2846,392.649,103.549,-0.0155255,202.714,6.44007,3.75685,0.0809202,-0.00477772,-0.0734995,0.169909,0.00166886,0.00093183,0.115098,0.08428436722178101,0.1851969934865012,0.0016702533218282412,-0.004766324850634884,0.0009322642884583843,-0.07086338964029171
295,0.2856,392.995,103.597,-0.0156226,202.854,6.44767,3.76136,0.0811929,-0.0048025,-0.0737453,0.170462,0.00167615,0.000935905,0.115492,0.0845800918889481,0.1858525886792628,0.0016775555245915896,-0.004790986435546762,0.0009363430957458618,-0.07109174335329704
296,0.2866,393.342,103.645,-0.0157196,202.994,6.4552,3.76584,0.0814655,-0.0048273,-0.073991,0.171015,0.00168344,0.000939979,0.115886,0.08487578872364465,0.186508546516428,0.0016848577805881337,-0.004815667313039063,0.0009404209187140466,-0.07131994807585695
297,0.2876,393.687,103.692,-0.0158168,203.134,6.46265,3.77027,0.081738,-0.00485213,-0.0742365,0.171567,0.00169073,0.000944052,0.11628,0.0851714576591347,0.18716368003432082,0.0016921600898180955,-0.004840377433242171,0.0009444977573509483,-0.07154791104500491
298,0.2886,394.031,103.74,-0.015914,203.273,6.47003,3.77466,0.0820104,-0.00487699,-0.074482,0.17212,0.00169801,0.000948125,0.116674,0.08546709862867297,0.18782036310551398,0.001699452435287796,-0.0048651167939477435,0.0009485746125927896,-0.0717758180561131
299,0.2896,394.375,103.787,-0.0160112,203.411,6.47734,3.77901,0.0822827,-0.00490187,-0.0747274,0.172671,0.00170529,0.000952196,0.117067,0.08576271156550441,0.18847503247043207,0.001706744833845697,-0.00488987544184305,0.0009526494825344844,-0.0720035763232797
300,0.2906,394.718,103.834,-0.0161085,203.55,6.48458,3.78332,0.082555,-0.00492678,-0.0749727,0.173223,0.00171257,0.000956266,0.117461,0.08605840500869877,0.18913125178822465,0.0017140372854926866,-0.004914663326311408,0.0009567233681082588,-0.07223118592854827
301,0.2916,395.06,103.881,-0.0162059,203.688,6.49174,3.78759,0.0828272,-0.00495171,-0.0752178,0.173774,0.00171985,0.000960335,0.117854,0.08635407034476894,0.18978664365183695,0.001721329790228765,-0.004939470494532028,0.0009607962693019001,-0.07245855419975722
302,0.2926,395.402,103.928,-0.0163033,203.826,6.49884,3.79181,0.0830992,-0.00497667,-0.0754629,0.174325,0.00172712,0.000964403,0.118247,0.08664959884195622,0.19044239673587304,0.0017286123307682644,-0.004964306895388848,0.0009648681861034181,-0.0726858667498319
303,0.2936,395.743,103.975,-0.0164007,203.963,6.50586,3.796,0.0833713,-0.00500166,-0.0757078,0.174876,0.0017344,0.00096847,0.11864,0.08694531642835424,0.19109851123942057,0.0017359049416112438,-0.0049891725266622,0.0009689391185006002,-0.07291293817503397
304,0.2946,396.083,104.022,-0.0164982,204.1,6.51281,3.80014,0.0836432,-0.00502668,-0.0759527,0.175426,0.00174167,0.000972535,0.119033,0.08724089704225446,0.19175379560728478,0.001743187588112427,-0.005014067386129639,0.0009730080655083739,-0.07313995399725282
305,0.2956,396.422,104.068,-0.0165957,204.237,6.5197,3.80424,0.083915,-0.00505172,-0.0761974,0.175976,0.00174894,0.0009766,0.119425,0.08753644928180049,0.19240944048068132,0.001750470287558814,-0.005038981521956032,0.0009770770290562503,-0.0733667289034684
306,0.2966,396.76,104.115,-0.0166933,204.374,6.52651,3.8083,0.0841868,-0.00507678,-0.076442,0.176526,0.0017562,0.000980663,0.119818,0.08783208186336311,0.19306544605794262,0.0017577430223731927,-0.005063914932662117,0.0009811440071822997,-0.07359335568399339
307,0.2976,397.098,104.161,-0.0167908,204.51,6.53325,3.81232,0.0844584,-0.00510187,-0.0766866,0.177076,0.00176346,0.000984725,0.12021,0.08812757718324526,0.19372181253751042,0.001765015809987558,-0.0050888775658789465,0.0009852100008471698,-0.0738199270383868
308,0.2986,397.435,104.207,-0.0168885,204.646,6.53992,3.8163,0.08473,-0.00512699,-0.076931,0.177625,0.00177073,0.000988785,0.120602,0.0884231527705559,0.19437734573999266,0.0017722986681256714,-0.005113869419375416,0.000989274009049801,-0.07404625778947427
309,0.2996,397.771,104.253,-0.0169861,204.781,6.54652,3.82024,0.0850015,-0.00515213,-0.0771753,0.178174,0.00177798,0.000992844,0.120994,0.08871869977522362,0.19503323892901037,0.0017795615436189127,-0.005138880542307156,0.0009933370327588342,-0.0742724406593338
310,0.3006,398.107,104.299,-0.0170838,204.916,6.55305,3.82413,0.0852729,-0.00517729,-0.0774195,0.178723,0.00178524,0.000996902,0.121386,0.08901421813036947,0.19568949230225052,0.0017868344896365684,-0.00516391093318902,0.0009973990719625014,-0.07449847572931956
311,0.3016,398.441,104.345,-0.0171815,205.051,6.55952,3.82799,0.0855442,-0.00520249,-0.0776636,0.179272,0.00179249,0.00100096,0.121778,0.08930970776910518,0.19634610605750824,0.0017940974705148438,-0.0051889804867557565,0.001001461127649872,-0.07472436308072117
312,0.3026,398.775,104.391,-0.0172792,205.186,6.56591,3.83181,0.0858155,-0.0052277,-0.0779076,0.17982,0.00179974,0.00100501,0.122169,0.08960527758505554,0.19700188339020586,0.001801360504049887,-0.005214059356437262,0.001005515191776718,-0.07495010279476433
313,0.3036,399.109,104.437,-0.017377,205.32,6.57224,3.83559,0.0860866,-0.00525294,-0.0781515,0.180368,0.00180699,0.00100907,0.122561,0.08990070961981189,0.1976580201873661,0.0018086235902423642,-0.005239167436713821,0.0010095792824185157,-0.07517569495261067
314,0.3046,399.441,104.482,-0.0174748,205.454,6.57849,3.83932,0.0863577,-0.00527821,-0.0783953,0.180915,0.00181423,0.00101312,0.122952,0.09019622175705,0.19831331833211197,0.0018158767109333063,-0.005264304725341673,0.0010136333794241725,-0.07540113963535777
315,0.3056,399.773,104.528,-0.0175725,205.588,6.58468,3.84302,0.0866287,-0.0053035,-0.078639,0.181463,0.00182148,0.00101717,0.123343,0.09049170496931302,0.1989701739925709,0.0018231399023684869,-0.005289461272969254,0.0010176874928489177,-0.07562643692403903
316,0.3066,400.104,104.573,-0.0176703,205.721,6.5908,3.84668,0.0868996,-0.00532881,-0.0788826,0.18201,0.00182871,0.00102122,0.123734,0.09078715918965652,0.19962619008178795,0.0018303831098542833,-0.0053146370781033125,0.0010217416226929732,-0.0758515868996239
317,0.3076,400.434,104.618,-0.0177681,205.854,6.59685,3.8503,0.0871704,-0.00535415,-0.0791261,0.182557,0.00183595,0.00102526,0.124125,0.0910825843511267,0.2002825651099669,0.0018376363880847624,-0.005339842085850921,0.0010257857586981611,-0.07607658964301811
318,0.3086,400.764,104.663,-0.017866,205.987,6.60284,3.85388,0.0874412,-0.00537951,-0.0793694,0.183103,0.00184318,0.00102931,0.124515,0.0913780895245635,0.20093809833480192,0.0018448797003802753,-0.005365066347610692,0.0010298399213402032,-0.07630135286520323
319,0.3096,401.093,104.708,-0.0179638,206.119,6.60875,3.85742,0.0877118,-0.0054049,-0.0796127,0.18365,0.00185041,0.00103335,0.124906,0.09167345639692437,0.2015951911730982,0.0018521230650452303,-0.005390319807982102,0.0010338840900627755,-0.0765260614091483
320,0.3106,401.421,104.753,-0.0180616,206.251,6.6146,3.86092,0.0879824,-0.00543031,-0.0798559,0.184196,0.00185763,0.0010374,0.125296,0.09196890320637596,0.20225144128745676,0.001859356463486339,-0.005415592518864587,0.0010379382855030261,-0.07675062296322177
321,0.3116,401.749,104.798,-0.0181594,206.383,6.62038,3.86438,0.0882529,-0.00545574,-0.0800989,0.184741,0.00186486,0.00104144,0.125686,0.09226432074811441,0.20290684690476657,0.00186659993281868,-0.0054408844787582344,0.0010419824869429828,-0.07697494530557325
322,0.3126,402.076,104.842,-0.0182573,206.515,6.6261,3.8678,0.0885233,-0.0054812,-0.0803419,0.185287,0.00187208,0.00104547,0.126076,0.09255970895513044,0.20356381337870277,0.0018738334357830677,-0.005466205631499799,0.001046016694261409,-0.07719921314421807
323,0.3136,402.402,104.887,-0.0183551,206.646,6.63174,3.87119,0.0887936,-0.00550668,-0.0805847,0.185832,0.00187929,0.00104951,0.126466,0.09285506776040542,0.20421993443374142,0.0018810569721630088,-0.0054915460297422225,0.001050060928338148,-0.07742324197706574
324,0.3146,402.727,104.931,-0.0184529,206.777,6.63732,3.87453,0.0890638,-0.00553218,-0.0808275,0.186377,0.0018865,0.00105355,0.126855,0.09315039709691075,0.20487641317221472,0.0018882805606248443,-0.005516905671981598,0.0010541051787535949,-0.07764721642231576
325,0.3156,403.052,104.975,-0.0185508,206.908,6.64284,3.87784,0.0893339,-0.00555771,-0.0810701,0.186922,0.00189371,0.00105758,0.127245,0.0934456968976094,0.2055332497891138,0.0018955042011687961,-0.005542294501290068,0.0010581394349264972,-0.0778709520673806
326,0.3166,403.376,105.02,-0.0186486,207.038,6.64829,3.8811,0.089604,-0.00558325,-0.0813127,0.187466,0.00190092,0.00106161,0.127634,0.09374107646955698,0.2061892382896935,0.0019027278937955305,-0.005567692626753051,0.0010621737073575055,-0.0780946334407614
327,0.3176,403.7,105.064,-0.0187464,207.168,6.65367,3.88433,0.0898739,-0.00560883,-0.0815551,0.18801,0.00190812,0.00106564,0.128023,0.09403631702701709,0.20684558374510065,0.0019099416194057195,-0.0055931298798318485,0.0010662079960466198,-0.07831807621925657
328,0.3186,404.022,105.108,-0.0188442,207.298,6.65898,3.88752,0.0901438,-0.00563442,-0.0817974,0.188554,0.00191531,0.00106967,0.128412,0.09433163728065819,0.20750228634957124,0.0019171453777835357,-0.0056185764260482385,0.001070242300994062,-0.07854137269592798
329,0.3196,404.344,105.152,-0.0189419,207.428,6.66423,3.89068,0.0904136,-0.00566004,-0.0820397,0.189098,0.00192251,0.00107369,0.128801,0.09462692778929482,0.20815934629744737,0.0019243592072000215,-0.00564405215177477,0.001074266611456931,-0.07876461507441745
330,0.3206,404.666,105.195,-0.0190397,207.557,6.66942,3.89379,0.0906833,-0.00568568,-0.0822818,0.189641,0.0019297,0.00107771,0.12919,0.09492218848583467,0.20881555496701698,0.0019315630692404717,-0.0056695471114307505,0.0010782909380975259,-0.07898761916537345
331,0.3216,404.986,105.239,-0.0191374,207.686,6.67454,3.89687,0.090953,-0.00571134,-0.0825238,0.190184,0.00193688,0.00108173,0.129578,0.09521752882492396,0.2094721200546532,0.001938756963689281,-0.00569506130350339,0.0010823152809160685,-0.07921047719462626
332,0.3226,405.306,105.283,-0.0192351,207.814,6.67959,3.89991,0.0912225,-0.00573703,-0.0827657,0.190727,0.00194406,0.00108575,0.129966,0.09551272972547697,0.2101290417539432,0.0019459509097905503,-0.0057206046692726,0.001086339639912559,-0.07943318924208476
333,0.3236,405.626,105.326,-0.0193328,207.943,6.68458,3.90291,0.091492,-0.00576273,-0.0830076,0.191269,0.00195124,0.00108977,0.130355,0.0958080101933938,0.21078510947286477,0.0019531449075445018,-0.005746157321379619,0.0010903640150867755,-0.07965584742201448
334,0.3246,405.945,105.369,-0.0194305,208.071,6.68951,3.90587,0.0917614,-0.00578846,-0.0832493,0.191811,0.00195842,0.00109378,0.130743,0.09610326063978936,0.21144153287687217,0.0019603389569515794,-0.005771739143640153,0.0010943783954953101,-0.07987826772311646
335,0.3256,406.263,105.413,-0.0195281,208.199,6.69437,3.9088,0.0920306,-0.00581421,-0.0834909,0.192353,0.00196559,0.0010978,0.131131,0.09639837135767393,0.2120983121587987,0.0019675230383369158,-0.005797340191742384,0.0010984028029854542,-0.08010054228178665
336,0.3266,406.58,105.456,-0.0196257,208.326,6.69917,3.91169,0.0922998,-0.00583998,-0.0837324,0.192895,0.00197275,0.00110181,0.131518,0.09669356153005793,0.21275544751158249,0.0019746971514851275,-0.005822960464166971,0.0011024172156297585,-0.08032267117768177
337,0.3276,406.897,105.499,-0.0197233,208.454,6.7039,3.91454,0.092569,-0.00586578,-0.0839738,0.193437,0.00197991,0.00110581,0.131906,0.09698883117833335,0.2134129391282662,0.00198187131600025,-0.005848609900907853,0.0011064216333074306,-0.08054465449039572
338,0.3286,407.213,105.542,-0.0198209,208.581,6.70857,3.91735,0.092838,-0.00589159,-0.0842151,0.193978,0.00198707,0.00110982,0.132293,0.09728396086708391,0.21406957313181718,0.001989045531882505,-0.005874268617159117,0.0011104360781071243,-0.08076649229945909
339,0.3296,407.528,105.585,-0.0199184,208.707,6.71317,3.92013,0.0931069,-0.00591743,-0.0844563,0.194519,0.00199422,0.00111382,0.132681,0.09757906019848805,0.2147265624704735,0.001996209779170144,-0.005899956494169301,0.0011144405278602498,-0.0809881846843401
340,0.3306,407.843,105.627,-0.0200158,208.834,6.71771,3.92287,0.0933758,-0.00594329,-0.0846974,0.195059,0.00200137,0.00111782,0.133068,0.09787423889277225,0.21538269195322401,0.0020033740776823628,-0.005925663588900121,0.001118444993631229,-0.08120973172444379
341,0.3316,408.157,105.67,-0.0201133,208.96,6.72219,3.92557,0.0936446,-0.00596917,-0.0849384,0.1956,0.00200851,0.00112182,0.133455,0.09816938715433565,0.21604039188136004,0.002010528407314194,-0.005951389899826576,0.001122449475420284,-0.08143113349911268
342,0.3326,408.47,105.713,-0.0202106,209.086,6.7266,3.92824,0.0939133,-0.00599507,-0.0851793,0.19614,0.00201565,0.00112582,0.133841,0.09846450491595982,0.21669723102358307,0.0020176827880282744,-0.00597713542542222,0.0011264539732271928,-0.0816523900876267
343,0.3336,408.783,105.755,-0.020308,209.211,6.73096,3.93087,0.0941819,-0.00602099,-0.0854201,0.19668,0.00202279,0.00112981,0.134228,0.0987595921104163,0.21735442495472745,0.0020248372198246045,-0.006002900164159497,0.001130448475747503,-0.08187350156920281
344,0.3346,409.095,105.797,-0.0204053,209.337,6.73524,3.93346,0.0944504,-0.00604693,-0.0856607,0.197219,0.00202992,0.0011338,0.134615,0.09905464867046865,0.2180107558550659,0.002031981682383943,-0.0060286841145099634,0.001134442994205953,-0.08209437623243776
345,0.3356,409.407,105.84,-0.0205025,209.462,6.73947,3.93602,0.0947188,-0.00607289,-0.0859013,0.197759,0.00203705,0.00113779,0.135001,0.09934967452887089,0.21866865928116552,0.002039126195883423,-0.006054487274943843,0.0011384375286025428,-0.08231519775962126
346,0.3366,409.718,105.882,-0.0205997,209.587,6.74363,3.93854,0.0949872,-0.00609888,-0.0861418,0.198298,0.00204417,0.00114178,0.135387,0.09964477958284101,0.2193256987447465,0.0020462607398610277,-0.006080319583127269,0.0011424320789374942,-0.0825358744171284
347,0.3376,410.028,105.924,-0.0206968,209.711,6.74774,3.94103,0.0952554,-0.00612488,-0.0863822,0.198836,0.00205128,0.00114576,0.135773,0.09993974386566729,0.2199818724655751,0.002053385314102707,-0.006106161158876189,0.0011464166337464832,-0.082756406283926
348,0.3386,410.338,105.966,-0.0207939,209.836,6.75178,3.94348,0.0955236,-0.0061509,-0.0866225,0.199375,0.00205839,0.00114974,0.136159,0.10023478726852386,0.22063961994185477,0.00206050993900031,-0.006132021940112642,0.0011504012044138978,-0.08297679343891884
349,0.3396,410.647,106.008,-0.0208909,209.96,6.75575,3.94589,0.0957917,-0.00617695,-0.0868626,0.199913,0.0020655,0.00115372,0.136545,0.10052979975964793,0.22129650074247453,0.002067634614554059,-0.0061579118637233865,0.0011543857909399602,-0.08319694428064794
350,0.3406,410.955,106.05,-0.0209879,210.084,6.75967,3.94827,0.0960597,-0.00620301,-0.0871027,0.200451,0.0020726,0.0011577,0.13693,0.10082478127174066,0.22195373504004734,0.0020747493200170553,-0.006183811051072352,0.0011583703933248923,-0.08341704227050517
351,0.3416,411.263,106.091,-0.0210848,210.207,6.76352,3.95061,0.0963276,-0.0062291,-0.0873427,0.200989,0.0020797,0.00116167,0.137316,0.10111973173749411,0.22261132302480569,0.002081864075994533,-0.006209739377205481,0.001162344999944942,-0.0836369957848827
352,0.3426,411.57,106.133,-0.0211816,210.33,6.76732,3.95291,0.0965955,-0.0062552,-0.0875826,0.201526,0.00208679,0.00116564,0.137701,0.10141476123106274,0.22326804161843095,0.0020889688615972624,-0.006235676964520764,0.0011663196223441474,-0.08385680490243608
353,0.3436,411.877,106.174,-0.0212784,210.453,6.77105,3.95518,0.0968632,-0.00628133,-0.0878223,0.202064,0.00209388,0.00116961,0.138086,0.10170964943166894,0.22392633689037145,0.002096073697573253,-0.006261643687024976,0.0011702942605227307,-0.08407637810940083
354,0.3446,412.183,106.216,-0.0213751,210.576,6.77472,3.95742,0.0971309,-0.00630747,-0.088062,0.202601,0.00210096,0.00117357,0.138471,0.10200461658441351,0.22458376183608109,0.0021031685628907226,-0.006287619668151501,0.0011742589027379235,-0.0842958986909752
355,0.3456,412.488,106.257,-0.0214718,210.699,6.77833,3.95962,0.0973985,-0.00633363,-0.0883016,0.203137,0.00210804,0.00117754,0.138856,0.1022995524804744,0.22524031467286676,0.002110263478440233,-0.006313614844002502,0.0011782335724355164,-0.08451527511130419
356,0.3466,412.793,106.299,-0.0215683,210.821,6.78188,3.96178,0.097666,-0.00635982,-0.088541,0.203674,0.00211511,0.0011815,0.13924,0.10259445705249104,0.22589844541413462,0.0021173484230481154,-0.006339639149639975,0.001182198246090449,-0.08473441592224085
357,0.3476,413.097,106.34,-0.0216648,210.943,6.78537,3.96391,0.0979334,-0.00638602,-0.0887804,0.20421,0.00212218,0.00118545,0.139625,0.10288933023309399,0.22655570311020368,0.0021244334177470403,-0.006365672710053172,0.0011861529235841495,-0.08495350427714654
358,0.3486,413.401,106.381,-0.0217612,211.065,6.7888,3.966,0.0982007,-0.00641224,-0.0890197,0.204746,0.00212924,0.00118941,0.140009,0.10318417195490603,0.22721331319082827,0.0021315084412216745,-0.006391725460561659,0.0011901176285997739,-0.08517244870582741
359,0.3496,413.704,106.422,-0.0218576,211.186,6.79217,3.96806,0.0984679,-0.00643848,-0.0892588,0.205281,0.00213629,0.00119336,0.140393,0.10347898215054041,0.22787004797427546,0.0021385734932604095,-0.006417797399620229,0.0011940723373748963,-0.08539115782562456
360,0.3506,414.006,106.463,-0.0219538,211.308,6.79547,3.97008,0.0987351,-0.00646474,-0.0894979,0.205817,0.00214334,0.00119731,0.140777,0.10377387112998426,0.2285283627325838,0.002145638595107968,-0.006443888525682562,0.0011980270617713007,-0.0856098146583224
361,0.3516,414.308,106.503,-0.02205,211.429,6.79872,3.97207,0.0990021,-0.00649102,-0.0897368,0.206352,0.00215039,0.00120125,0.141161,0.10406861810054546,0.22918580125576948,0.0021527037467647947,-0.006469998837201119,0.0012019717897688853,-0.08582823638208681
362,0.3526,414.609,106.544,-0.0221461,211.549,6.80191,3.97403,0.0992691,-0.00651732,-0.0899757,0.206887,0.00215743,0.00120519,0.141545,0.10436344377905482,0.22984359160266954,0.0021597589266333372,-0.006496128332627249,0.0012059165333089261,-0.08604660593113389
363,0.3536,414.909,106.585,-0.0222421,211.67,6.80504,3.97595,0.099536,-0.00654363,-0.0902145,0.207421,0.00216446,0.00120913,0.141928,0.10465823772070104,0.23050050346044104,0.0021668041345024314,-0.006522267075634192,0.001209861292391201,-0.08626483194441459
364,0.3546,415.209,106.625,-0.0223381,211.79,6.80812,3.97783,0.0998028,-0.00656997,-0.0904531,0.207956,0.00217149,0.00121307,0.142312,0.10495299985804563,0.2311589973612045,0.002173849391899685,-0.006548434934487202,0.0012138060670159323,-0.08648282314812783
365,0.3556,415.509,106.666,-0.0224339,211.91,6.81113,3.97969,0.10007,-0.00659632,-0.0906917,0.20849,0.00217852,0.001217,0.142695,0.10524828274764486,0.23181661183323254,0.0021808946988250977,-0.006574612038341865,0.0012177408450055882,-0.08670076234534452
366,0.3566,415.807,106.706,-0.0225296,212.03,6.81408,3.9815,0.100336,-0.00662269,-0.0909301,0.209024,0.00218553,0.00122093,0.143078,0.1055423178957966,0.23247457756516665,0.002187920011520683,-0.0066008083204228685,0.0012216756384590965,-0.08691846693218352
367,0.3576,416.106,106.747,-0.0226253,212.15,6.81698,3.98329,0.100603,-0.00664909,-0.0911685,0.209557,0.00219254,0.00122486,0.143461,0.10583753710468535,0.23313166161235155,0.0021949453734637636,-0.006627033712906516,0.0012256104473762353,-0.08713611962443513
368,0.3586,416.403,106.787,-0.0227208,212.269,6.81981,3.98504,0.100869,-0.00667549,-0.0914067,0.210091,0.00219955,0.00122879,0.143844,0.10613172901534473,0.2337903297683983,0.002201970784654783,-0.006653258413048979,0.0012295452717572264,-0.08735353790519529
369,0.3596,416.7,106.827,-0.0228163,212.388,6.82259,3.98675,0.101136,-0.00670192,-0.0916449,0.210624,0.00220655,0.00123271,0.144227,0.1064271056180135,0.23444811529843612,0.002208986223004361,-0.006679512220483463,0.0012334700992673309,-0.08757090440308868
370,0.3606,416.997,106.867,-0.0229117,212.507,6.82531,3.98843,0.101402,-0.00672836,-0.091883,0.211156,0.00221355,0.00123663,0.144609,0.106721454374757,0.23510501641597892,0.00221600171046199,-0.006705775266981351,0.001237394942162684,-0.0877881279092656
371,0.3616,417.293,106.907,-0.0230069,212.626,6.82797,3.99008,0.101668,-0.00675483,-0.0921209,0.211689,0.00222054,0.00124054,0.144991,0.10701588143868412,0.23576350286077719,0.002223007224798179,-0.006732067417131948,0.001241309788030609,-0.08800511730172444
372,0.3626,417.588,106.947,-0.0231021,212.744,6.83057,3.9917,0.101934,-0.00678131,-0.0923588,0.212221,0.00222752,0.00124445,0.145374,0.10731038683062755,0.23642110395067917,0.0022300027658030963,-0.0067583688037547995,0.0012452246492054009,-0.08822205507854664
373,0.3636,417.883,106.987,-0.0231971,212.862,6.83312,3.99328,0.1022,-0.00680781,-0.0925965,0.212753,0.0022345,0.00124836,0.145756,0.10760497057142504,0.2370790549774362,0.0022369983556369544,-0.006784689358232621,0.0012491395256872817,-0.08843875893978015
374,0.3646,418.177,107.026,-0.0232921,212.98,6.83561,3.99482,0.102466,-0.00683432,-0.0928342,0.213285,0.00224147,0.00125227,0.146137,0.10789963268192015,0.23773735612726377,0.0022439839718604304,-0.006811019147114794,0.0012530544174764735,-0.08865541129662746
375,0.3656,418.471,107.066,-0.0233869,213.098,6.83804,3.99634,0.102732,-0.00686085,-0.0930717,0.213817,0.00224843,0.00125617,0.146519,0.10819437318296243,0.23839600758647705,0.0022509596142641364,-0.006837368101256458,0.001256959312003092,-0.08887182993571385
376,0.3666,418.764,107.105,-0.0234817,213.215,6.84042,3.99782,0.102998,-0.00688741,-0.0933092,0.214348,0.00225539,0.00126007,0.146901,0.10848919209540608,0.2390537704871003,0.0022579353052183393,-0.006863746150457595,0.0012608642217590837,-0.08908819718147665
377,0.3676,419.056,107.145,-0.0235763,213.332,6.84273,3.99927,0.103264,-0.00691397,-0.0935466,0.214879,0.00226234,0.00126396,0.147282,0.10878408944011153,0.23971188275257194,0.0022649010220745502,-0.006890123499067147,0.0012647591340964048,-0.08930442197656707
378,0.3686,419.348,107.184,-0.0236708,213.449,6.845,4.00068,0.103529,-0.00694056,-0.0937838,0.21541,0.00226929,0.00126785,0.147663,0.10907795615943372,0.24037034456845396,0.0022718667873427023,-0.006916529939608118,0.0012686540615851616,-0.08952041335008465
379,0.3696,419.64,107.224,-0.0237652,213.566,6.8472,4.00206,0.103795,-0.00696716,-0.094021,0.21594,0.00227623,0.00127174,0.148044,0.10937301013621137,0.24102791509187127,0.0022788225782346405,-0.006942945608581774,0.001272549004225132,-0.0897363534965242
380,0.3706,419.93,107.263,-0.0238595,213.683,6.84935,4.00341,0.10406,-0.00699378,-0.094258,0.21647,0.00228317,0.00127563,0.148425,0.1096670329401983,0.2416858342200381,0.002285778417400186,-0.0069693804355205335,0.001276443962016538,-0.0899520604184656
381,0.3716,420.221,107.302,-0.0239536,213.799,6.85144,4.00473,0.104325,-0.00702042,-0.094495,0.217,0.0022901,0.00127951,0.148806,0.10996113367055305,0.24234410213776392,0.002292724281911962,-0.006995834418857094,0.0012803289221559044,-0.09016771622392405
382,0.3726,420.51,107.341,-0.0240477,213.915,6.85347,4.00601,0.104591,-0.00704707,-0.0947318,0.21753,0.00229702,0.00128339,0.149187,0.11025642260379653,0.2430027190299564,0.0022996601715621345,-0.0070222976272460436,0.001284213897368991,-0.09038313900165873
383,0.3736,420.8,107.38,-0.0241416,214.031,6.85545,4.00726,0.104856,-0.00707374,-0.0949686,0.21806,0.00230393,0.00128726,0.149567,0.11055067954310882,0.24366168508162067,0.00230658608614287,-0.007048779989424436,0.0012880888747748287,-0.09059851077331893
384,0.3746,421.088,107.419,-0.0242354,214.147,6.85738,4.00848,0.105121,-0.00710043,-0.0952053,0.218589,0.00231084,0.00129114,0.149948,0.11084501447084327,0.24431975615748214,0.0023135120485819893,-0.007075281503822306,0.0012919738800964975,-0.09081374063236014
385,0.3756,421.376,107.458,-0.024329,214.262,6.85925,4.00967,0.105386,-0.00712713,-0.0954418,0.219118,0.00231775,0.001295,0.150328,0.11113942740766913,0.24497817544503664,0.0023204380588794926,-0.007101792239886162,0.0012958388745751837,-0.09102873775828835
386,0.3766,421.664,107.497,-0.0244226,214.377,6.86106,4.01082,0.105651,-0.00715385,-0.0956783,0.219647,0.00232464,0.00129887,0.150708,0.11143391837426186,0.2456369431285368,0.002327344070488957,-0.007128322125556696,0.0012997138969697009,-0.09124368404340844
387,0.3776,421.951,107.535,-0.024516,214.492,6.86282,4.01195,0.105916,-0.00718058,-0.0959147,0.220175,0.00233153,0.00130273,0.151088,0.11172848739130203,0.24629481309689671,0.002334250129681026,-0.0071548612308095505,0.0013035789213249327,-0.09145848864559625
388,0.3786,422.238,107.574,-0.0246092,214.607,6.86452,4.01304,0.106181,-0.00720734,-0.0961509,0.220703,0.00233842,0.00130659,0.151468,0.11202313447947554,0.24695303051231776,0.0023411562364559213,-0.007181429411239226,0.0013074439605991195,-0.09167306080860815
389,0.3796,422.523,107.613,-0.0247024,214.721,6.86617,4.0141,0.106445,-0.00723411,-0.0963871,0.221231,0.00234529,0.00131044,0.151847,0.11231674734217068,0.2476115955583007,0.0023480423438528852,-0.00720800680863376,0.0013112990016792558,-0.09188758229566019
390,0.3806,422.809,107.651,-0.0247954,214.836,6.86776,4.01512,0.10671,-0.00726089,-0.0966232,0.221759,0.00235216,0.00131429,0.152227,0.11261155033988834,0.24827050841844267,0.0023549284985577845,-0.007234593422215108,0.0013151540576012977,-0.09210196232892132
391,0.3816,423.094,107.689,-0.0248883,214.95,6.8693,4.01612,0.106974,-0.00728769,-0.0968591,0.222287,0.00235903,0.00131814,0.152606,0.11290531856487762,0.24892976927643806,0.002361814700570619,-0.007261199178592692,0.001319009128365467,-0.09231611021627162
392,0.3826,423.378,107.728,-0.024981,215.064,6.87078,4.01708,0.107239,-0.00731451,-0.097095,0.222814,0.00236589,0.00132198,0.152985,0.11320027755463746,0.24958812872732494,0.0023686909262048417,-0.00728782407618922,0.0013228542007430732,-0.09253020759209318
393,0.3836,423.662,107.766,-0.0250736,215.177,6.87221,4.01801,0.107503,-0.00734134,-0.0973308,0.223341,0.00237274,0.00132582,0.153364,0.11349420122412912,0.2502468352250813,0.0023755571752546167,-0.00731445818657106,0.0013266992878857575,-0.09274416374272143
394,0.3846,423.945,107.804,-0.025166,215.291,6.87359,4.01891,0.107767,-0.00736819,-0.0975665,0.223868,0.00237958,0.00132966,0.153743,0.113788202499713,0.250905888952649,0.002382413447514109,-0.007341111435547276,0.0013305443897935199,-0.0929579787442395
395,0.3856,424.228,107.842,-0.0252584,215.404,6.87491,4.01978,0.108031,-0.00739505,-0.097802,0.224394,0.00238642,0.00133349,0.154122,0.11408228140188004,0.2515640385284019,0.002389269766670754,-0.007367773895215701,0.0013343794931228725,-0.09317156198983101
396,0.3866,424.51,107.88,-0.0253505,215.517,6.87617,4.02062,0.108295,-0.00742193,-0.0980375,0.22492,0.00239325,0.00133732,0.1545,0.11437643795112629,0.2522225343818949,0.0023961161087633354,-0.0073944554908511595,0.0013382146111404758,-0.09338509494249025
397,0.3876,424.792,107.918,-0.0254425,215.63,6.87739,4.02143,0.108559,-0.00744882,-0.0982729,0.225446,0.00240007,0.00134114,0.154879,0.1146706721679529,0.25288137669531774,0.0024029524735873498,-0.007421146295083503,0.0013420397304262366,-0.09359848697391338
398,0.3886,425.073,107.956,-0.0255344,215.743,6.87855,4.0222,0.108823,-0.00747573,-0.0985082,0.225972,0.00240689,0.00134496,0.155257,0.11496498407286748,0.2535405656509562,0.00240978888503518,-0.007447856232652872,0.0013458648643240867,-0.09381173815994248
399,0.3896,425.354,107.994,-0.0256261,215.855,6.87966,4.02294,0.109087,-0.00750266,-0.0987434,0.226498,0.0024137,0.00134878,0.155635,0.11525937368638184,0.2542001014311923,0.0024166153189415507,-0.007474585301975978,0.001349690012833804,-0.09402484857635984
400,0.3906,425.634,108.032,-0.0257177,215.967,6.88071,4.02366,0.109351,-0.0075296,-0.0989785,0.227023,0.0024205,0.00135259,0.156013,0.115553841029014,0.2548587293591469,0.0024234317751017365,-0.007501323576481811,0.0013535051624207206,-0.09423781829888767
401,0.3916,425.914,108.069,-0.0258091,216.079,6.88171,4.02434,0.109615,-0.00755656,-0.0992135,0.227548,0.00242729,0.0013564,0.156391,0.11584838612128712,0.25551770315754685,0.0024302382533114564,-0.007528080980106822,0.0013573203265433431,-0.09445064740318831
402,0.3926,426.193,108.107,-0.0259004,216.191,6.88266,4.02499,0.109878,-0.00758353,-0.0994484,0.228073,0.00243408,0.00136021,0.156768,0.11614189284127896,0.2561770230080216,0.0024370447777373183,-0.007554847586813462,0.0013611355052016716,-0.09466333596486376
403,0.3936,426.472,108.145,-0.0259915,216.302,6.88355,4.02561,0.110142,-0.00761051,-0.0996831,0.228597,0.00244086,0.00136401,0.157146,0.11643659319972466,0.2568354322562354,0.002443841323941154,-0.007581623395818249,0.001364940684746463,-0.09487579354704023
404,0.3946,426.75,108.182,-0.0260824,216.414,6.8844,4.02621,0.110405,-0.00763751,-0.0999178,0.229121,0.00244764,0.00136781,0.157523,0.11673025463852271,0.25749418660130297,0.002450637916225684,-0.007608418330253275,0.001368745878750799,-0.09508820127127326
405,0.3956,427.028,108.219,-0.0261732,216.525,6.88519,4.02677,0.110668,-0.00766453,-0.100152,0.229645,0.00245441,0.0013716,0.1579,0.11702399332043623,0.25815328622410205,0.0024574245300170716,-0.007635232388530477,0.0013725410734897192,-0.09530010679942957
406,0.3966,427.305,108.257,-0.0262638,216.636,6.88592,4.0273,0.110931,-0.00769156,-0.100387,0.230169,0.00246117,0.00137539,0.158277,0.11731780926578272,0.2588127313056059,0.0024642011651119233,-0.00766205564568101,0.001376336282612245,-0.09551268629526266
407,0.3976,427.581,108.294,-0.0263543,216.747,6.88661,4.0278,0.111195,-0.0077186,-0.100621,0.230693,0.00246792,0.00137918,0.158654,0.11761282010714647,0.2594725220268821,0.0024709678213072905,-0.007688888100919944,0.0013801315061185981,-0.09572431156554728
408,0.3986,427.857,108.331,-0.0264446,216.857,6.88725,4.02827,0.111458,-0.00774566,-0.100856,0.231216,0.00247466,0.00138296,0.159031,0.1179067909343039,0.260131398437065,0.0024777244984002245,-0.007715739676304456,0.0013839167301699096,-0.0959367913849728
409,0.3996,428.133,108.368,-0.0265347,216.968,6.88783,4.02871,0.111721,-0.00777273,-0.10109,0.231739,0.0024814,0.00138674,0.159408,0.1182008390859568,0.2607906195297369,0.0024844812210336187,-0.007742600447669279,0.0013877019685291092,-0.09614831742627672
410,0.4006,428.408,108.405,-0.0266247,217.078,6.88836,4.02912,0.111983,-0.00779982,-0.101324,0.232262,0.00248813,0.00139051,0.159784,0.11849384608803848,0.26145018548521426,0.0024912279642950175,-0.007769480336533463,0.0013914772072818327,-0.09635979397627759
411,0.4016,428.683,108.442,-0.0267145,217.188,6.88884,4.02949,0.112246,-0.00782692,-0.101558,0.232784,0.00249486,0.00139428,0.16016,0.1187880486555013,0.26210883437444155,0.0024979747529620955,-0.007796369419267535,0.0013952524602673932,-0.09657122104655524
412,0.4026,428.957,108.479,-0.0268041,217.297,6.88927,4.02984,0.112509,-0.00785404,-0.101792,0.233306,0.00250157,0.00139805,0.160536,0.11908232860841528,0.2627678271681404,0.0025047015369410452,-0.007823277616852087,0.001399027727485569,-0.09678259864868632
413,0.4036,429.231,108.516,-0.0268936,217.407,6.88964,4.03017,0.112772,-0.00788117,-0.102026,0.233829,0.00250828,0.00140181,0.160912,0.11937668596713524,0.26342842747367157,0.002511428366056778,-0.007850195006194327,0.0014027929949083084,-0.09699392679424523
414,0.4046,429.504,108.553,-0.0269829,217.516,6.88997,4.03046,0.113034,-0.00790832,-0.102259,0.23435,0.00251498,0.00140557,0.161288,0.11967000108146086,0.2640868451873062,0.0025181452151281647,-0.00787713150773528,0.001406558276488834,-0.09720430269955749
415,0.4056,429.777,108.59,-0.027072,217.625,6.89024,4.03072,0.113297,-0.00793547,-0.102493,0.234872,0.00252168,0.00140932,0.161664,0.1199645130183673,0.2647468707721845,0.0025248621092026635,-0.007904067277960114,0.0014103135581235993,-0.09741553217791299
416,0.4066,430.049,108.626,-0.0271609,217.734,6.89047,4.03095,0.113559,-0.00796265,-0.102727,0.235393,0.00252836,0.00141307,0.16204,0.12025798216355743,0.26540597557374856,0.0025315589976491193,-0.007931032078958178,0.0014140688538404333,-0.09762671223435304
417,0.4076,430.321,108.663,-0.0272496,217.843,6.89064,4.03115,0.113821,-0.00798983,-0.10296,0.235914,0.00253504,0.00141682,0.162415,0.12055152820773696,0.26606542385838394,0.0025382559308311237,-0.00795799614706294,0.0014178241636400024,-0.09783694071783311
418,0.4086,430.592,108.7,-0.0273382,217.952,6.89077,4.03132,0.114083,-0.00801703,-0.103193,0.236435,0.00254171,0.00142056,0.16279,0.12084515117105599,0.2667252158050917,0.002544942883299095,-0.007984979322594898,0.0014215694733059614,-0.09804712022378248
419,0.4096,430.863,108.736,-0.0274266,218.06,6.89084,4.03147,0.114345,-0.00804424,-0.103427,0.236956,0.00254838,0.0014243,0.163165,0.12113885107366995,0.2673853515929665,0.002551629880369166,-0.008011971684074748,0.0014253147969796043,-0.09825815250591019
420,0.4106,431.133,108.772,-0.0275148,218.168,6.89086,4.03158,0.114607,-0.00807147,-0.10366,0.237476,0.00255503,0.00142803,0.16354,0.12143262793573961,0.2680445633559989,0.0025582968708757203,-0.008038983150323031,0.001429050120370201,-0.09846823388094572
421,0.4116,431.403,108.809,-0.0276028,218.276,6.89084,4.03167,0.114869,-0.00809871,-0.103893,0.237996,0.00256168,0.00143176,0.163915,0.12172648177743106,0.2687041179982892,0.0025649639057176987,-0.008066003800399124,0.0014327854576934307,-0.09867826631272292
422,0.4126,431.672,108.845,-0.0276906,218.384,6.89076,4.03173,0.115131,-0.00812597,-0.104126,0.238516,0.00256832,0.00143549,0.16429,0.12202041261891572,0.26936401569818047,0.0025716209591795103,-0.008093043552582002,0.0014365208089497372,-0.09888824981264432
423,0.4136,431.941,108.881,-0.0277783,218.492,6.89064,4.03175,0.115393,-0.00815323,-0.104359,0.239036,0.00257496,0.00143921,0.164664,0.12231442048036989,0.27002425663410956,0.0025782780568441854,-0.008120082567671272,0.0014402461597362581,-0.09909818439210971
424,0.4146,432.209,108.917,-0.0278658,218.599,6.89046,4.03175,0.115655,-0.00818051,-0.104591,0.239555,0.00258158,0.00144292,0.165039,0.12260850538197565,0.2706835703003996,0.0025849151470136444,-0.00814714068274447,0.001443961509941527,-0.09930716937013595
425,0.4156,432.477,108.953,-0.027953,218.706,6.89024,4.03173,0.115916,-0.00820781,-0.104824,0.240074,0.0025882,0.00144663,0.165413,0.122901544441814,0.2713432262392945,0.002591552281120846,-0.00817421789619821,0.001447676873930659,-0.09951700635271488
426,0.4166,432.745,108.989,-0.0280401,218.813,6.88996,4.03167,0.116178,-0.00823511,-0.105057,0.240593,0.00259481,0.00145034,0.165787,0.12319578319005076,0.2720032246284798,0.002598179433183967,-0.008201294370454026,0.0014513922517038758,-0.09972679444897237
427,0.4176,433.012,109.025,-0.028127,218.92,6.88964,4.03158,0.116439,-0.00826243,-0.105289,0.241112,0.00260141,0.00145405,0.166161,0.12348897554940175,0.27266356564573346,0.002604796603004944,-0.008228389940964642,0.0014551076432611776,-0.09993563360638125
428,0.4186,433.278,109.061,-0.0282137,219.027,6.88927,4.03147,0.1167,-0.00828976,-0.105522,0.24163,0.002608,0.00145775,0.166535,0.12378224444194585,0.27332297614531287,0.0026114037903852694,-0.008255494688679588,0.0014588130340145167,-0.10014532417385125
429,0.4196,433.544,109.097,-0.0283002,219.133,6.88885,4.03132,0.116962,-0.00831711,-0.105754,0.242148,0.00261459,0.00146144,0.166908,0.12407671396381259,0.27398272830801385,0.0026180110213069874,-0.00828261852997958,0.0014625084238524266,-0.10035406624362653
430,0.4206,433.81,109.133,-0.0283865,219.24,6.88838,4.03115,0.117223,-0.00834447,-0.105986,0.242666,0.00262117,0.00146513,0.167282,0.12437013627610316,0.27464282231086434,0.0026246082695244866,-0.00830975154635527,0.0014662038273265399,-0.10056275989085883
431,0.4216,434.075,109.169,-0.0284726,219.346,6.88786,4.03096,0.117484,-0.00837184,-0.106218,0.243184,0.00262774,0.00146882,0.167655,0.12466363518161239,0.2753032583309829,0.002631195534839925,-0.008336893737012852,0.0014698992444368564,-0.10077140512678096
432,0.4226,434.34,109.204,-0.0285584,219.452,6.8873,4.03073,0.117745,-0.00839922,-0.10645,0.243701,0.0026343,0.0014725,0.168028,0.12495721070033339,0.27596276058218216,0.0026377728170561276,-0.008364045101158402,0.0014735846604472247,-0.10098000196262302
433,0.4236,434.604,109.24,-0.0286441,219.557,6.88669,4.03047,0.118006,-0.00842662,-0.106682,0.244219,0.00264085,0.00147618,0.168401,0.12525086285226505,0.27662388050744147,0.0026443401159759183,-0.00839121555408573,0.0014772700900198554,-0.10118855040961239
434,0.4246,434.868,109.275,-0.0287296,219.663,6.88602,4.03019,0.118267,-0.00845402,-0.106914,0.244736,0.0026474,0.00147985,0.168774,0.12554459165741094,0.2772840656968303,0.002650907457911744,-0.008418385262552897,0.0014809455183455444,-0.10139705047897407
435,0.4256,435.131,109.311,-0.0288149,219.768,6.88531,4.02988,0.118527,-0.00848144,-0.107146,0.245252,0.00265394,0.00148352,0.169147,0.12583727129794653,0.27794331434625397,0.0026574648162889236,-0.008445574057668881,0.0014846209601599991,-0.10160550218193043
436,0.4266,435.394,109.346,-0.0289,219.874,6.88456,4.02954,0.118788,-0.00850888,-0.107377,0.245769,0.00266047,0.00148718,0.16952,0.12613115317567192,0.278604181859303,0.002664012190911391,-0.00847278193782297,0.0014882864005805185,-0.10181300734315757
437,0.4276,435.656,109.382,-0.0289849,219.979,6.88375,4.02918,0.119049,-0.00853632,-0.107609,0.246285,0.00266699,0.00149084,0.169892,0.12642511176657822,0.2792641118644412,0.0026705495815828595,-0.008499989071403036,0.0014919518544165289,-0.1020213625553148
438,0.4286,435.918,109.417,-0.0290695,220.083,6.8829,4.02878,0.119309,-0.00856378,-0.10784,0.246801,0.0026735,0.0014945,0.170264,0.1267180203721061,0.2799243824813322,0.002677076988107263,-0.00852721528788547,0.0014956173216680302,-0.10222877166389022
439,0.4296,436.18,109.452,-0.029154,220.188,6.882,4.02836,0.119569,-0.00859125,-0.108072,0.247317,0.00268001,0.00149815,0.170636,0.12701100514377273,0.2805849938857774,0.002683604437125231,-0.008554450671201752,0.0014992727873426315,-0.10243703042991326
440,0.4306,436.441,109.487,-0.0292382,220.293,6.88106,4.02791,0.11983,-0.00861873,-0.108303,0.247833,0.0026865,0.00150179,0.171008,0.12730519340601343,0.28124594625366806,0.0026901118748345887,-0.008581695220555519,0.0015029182513301986,-0.10264434353029894
441,0.4316,436.701,109.522,-0.0293223,220.397,6.88006,4.02744,0.12009,-0.00864622,-0.108534,0.248348,0.00269299,0.00150543,0.17138,0.12759833086251704,0.2819059578543883,0.0026966193547774964,-0.008608948935149852,0.0015065637285873734,-0.10285160874688926
442,0.4326,436.961,109.557,-0.0294061,220.501,6.87902,4.02694,0.12035,-0.00867373,-0.108765,0.248863,0.00269947,0.00150907,0.171752,0.12789154454466822,0.2825663094486237,0.0027031168499227487,-0.008636221727825633,0.0015102092191141558,-0.10305882609074413
443,0.4336,437.221,109.592,-0.0294897,220.605,6.87794,4.02641,0.12061,-0.00870125,-0.108996,0.249378,0.00270594,0.0015127,0.172124,0.12818483447228823,0.2832270012115159,0.0027096043600758346,-0.008663503683602247,0.0015138447077720496,-0.10326599557292071
444,0.4346,437.48,109.627,-0.0295731,220.709,6.87681,4.02585,0.12087,-0.00872877,-0.109227,0.249892,0.00271241,0.00151633,0.172495,0.12847820066520343,0.28388674943090586,0.0027160919122033444,-0.008690784888589764,0.0015174802096267204,-0.10347311720447394
445,0.4356,437.739,109.662,-0.0296563,220.812,6.87563,4.02527,0.12113,-0.00875631,-0.109458,0.250407,0.00271886,0.00151995,0.172866,0.12877164314324552,0.2845481213955259,0.0027225594518538454,-0.00871808516844741,0.0015211057094672853,-0.10368019099645587
446,0.4366,437.998,109.697,-0.0297392,220.916,6.8744,4.02466,0.12139,-0.00878387,-0.109688,0.250921,0.00272531,0.00152357,0.173238,0.12906516192625106,0.2852085488452376,0.0027290270332203104,-0.008745404521557698,0.0015247312224320186,-0.10388632084668525
447,0.4376,438.255,109.732,-0.0298219,221.019,6.87313,4.02402,0.121649,-0.00881143,-0.109919,0.251435,0.00273175,0.00152719,0.173609,0.12935762767586967,0.28586931584191455,0.002735484628947793,-0.008772723121757142,0.0015283567485213645,-0.10409329919964949
448,0.4386,438.513,109.767,-0.0299045,221.122,6.87181,4.02336,0.121909,-0.008839,-0.110149,0.251949,0.00273818,0.0015308,0.173979,0.12965129883466164,0.28653042256012884,0.0027419322388431144,-0.008800050881065724,0.001531972272415194,-0.10429933404591796
449,0.4396,438.77,109.801,-0.0299867,221.225,6.87045,4.02267,0.122169,-0.00886659,-0.11038,0.252462,0.0027446,0.0015344,0.17435,0.12994504635788195,0.2871905819833165,0.002748369862712874,-0.008827397710410634,0.0015355777940053716,-0.10450621700385176
450,0.4406,439.027,109.836,-0.0300688,221.328,6.86904,4.02195,0.122428,-0.00889419,-0.11061,0.252975,0.00275101,0.001538,0.174721,0.13023774002708266,0.2878510801551697,0.0027547975003641145,-0.008854753696719508,0.0015391833285753886,-0.10471215688994617
451,0.4416,439.283,109.87,-0.0301506,221.43,6.86759,4.02121,0.122687,-0.0089218,-0.11084,0.253488,0.00275742,0.0015416,0.175091,0.13053050951376144,0.2885119172495112,0.002761225179216842,-0.008882118839192432,0.001542788876125245,-0.10491804941531335
452,0.4426,439.539,109.905,-0.0302323,221.532,6.86609,4.02044,0.122947,-0.00894942,-0.11107,0.254001,0.00276381,0.00154519,0.175461,0.1308244856614782,0.2891730934402532,0.002767632843918122,-0.008909493137029267,0.0015463844211913713,-0.10512389459084526
453,0.4436,439.794,109.939,-0.0303136,221.635,6.86454,4.01964,0.123206,-0.00897705,-0.1113,0.254513,0.0027702,0.00154877,0.175831,0.1311174071349579,0.28983331906743226,0.002774040549564649,-0.008936876589429765,0.0015499699636656317,-0.10532969242743095
454,0.4446,440.049,109.974,-0.0303948,221.737,6.86295,4.01882,0.123465,-0.00900469,-0.11153,0.255026,0.00277658,0.00155235,0.176201,0.1314104044849247,0.29049517331121244,0.002780438268352059,-0.008964269195593233,0.0015535555189762906,-0.10553544293595718
455,0.4456,440.304,110.008,-0.0304757,221.839,6.86132,4.01797,0.123724,-0.00903234,-0.11176,0.255538,0.00278295,0.00155593,0.176571,0.13170347773103352,0.29115607601660276,0.002786826000088727,-0.008991670954718978,0.0015571410871233482,-0.105741146127308
456,0.4466,440.558,110.042,-0.0305564,221.94,6.85964,4.0171,0.123983,-0.00906001,-0.11199,0.25605,0.00278931,0.0015595,0.176941,0.13199662689294356,0.2918173171908187,0.0027932037445832503,-0.009019091775814836,0.0015607166524993499,-0.1059468020123654
457,0.4476,440.811,110.077,-0.0306369,222.042,6.85791,4.0162,0.124242,-0.00908768,-0.112219,0.256561,0.00279567,0.00156307,0.177311,0.13228985199031973,0.29247760452895033,0.002799581529640438,-0.009046511838187055,0.0015642922306402518,-0.10615151675397205
458,0.4486,441.065,110.111,-0.0307171,222.143,6.85614,4.01527,0.124501,-0.00911537,-0.112449,0.257072,0.00280201,0.00156663,0.17768,0.13258315304283208,0.2931382293601337,0.0028059392991415244,-0.009073950960377886,0.0015678578058673232,-0.1063570782646387
459,0.4496,441.317,110.145,-0.0307971,222.244,6.85433,4.01432,0.124759,-0.00914306,-0.112678,0.257583,0.00280835,0.00157019,0.178049,0.1328753971941914,0.2937991918568721,0.002812297108950812,-0.009101389322789921,0.0015714233937877964,-0.10656169906374036
460,0.4506,441.57,110.179,-0.0308768,222.345,6.85247,4.01334,0.125018,-0.00917077,-0.112908,0.258094,0.00281467,0.00157374,0.178418,0.13316884992255273,0.2944604921917564,0.00281863490269596,-0.009128846742867514,0.0015749789786518864,-0.10676716624332427
461,0.4516,441.822,110.213,-0.0309564,222.446,6.85057,4.01234,0.125276,-0.00919849,-0.113137,0.258605,0.00282099,0.00157729,0.178787,0.13346124520320202,0.2951221305374665,0.0028249727364961785,-0.009156313310547337,0.001578534576138546,-0.10697169314303079
462,0.4526,442.073,110.247,-0.0310356,222.547,6.84862,4.01131,0.125535,-0.00922622,-0.113366,0.259115,0.0028273,0.00158083,0.179156,0.13375484968584894,0.2957828112833105,0.0028313005820383985,-0.0091837890250267,0.001582080170426714,-0.10717617321143957
463,0.4536,442.324,110.281,-0.0311147,222.648,6.84664,4.01026,0.125793,-0.00925395,-0.113595,0.259626,0.0028336,0.00158437,0.179525,0.1340473961739419,0.2964451255067484,0.002837618439133216,-0.00921126397761507,0.0015856257772661753,-0.10738060645927394
464,0.4546,442.575,110.315,-0.0311935,222.748,6.8446,4.00918,0.126051,-0.0092817,-0.113824,0.260136,0.00283989,0.0015879,0.179893,0.1343400181487664,0.2971064811521116,0.002843926307591449,-0.009238757983558554,0.0015891613807654803,-0.10758499289725443
465,0.4556,442.826,110.348,-0.031272,222.848,6.84253,4.00808,0.12631,-0.00930946,-0.114053,0.260645,0.00284617,0.00159143,0.180262,0.13463385026308328,0.29776687640735244,0.0028502241872239154,-0.009266261133891507,0.0015926969967454685,-0.10778933253609924
466,0.4566,443.075,110.382,-0.0313504,222.948,6.84041,4.00695,0.126568,-0.00933723,-0.114282,0.261155,0.00285245,0.00159495,0.18063,0.13492662356258278,0.2984289063175978,0.002856522106407411,-0.009293773427809793,0.00159622260924408,-0.10799362538652435
467,0.4576,443.325,110.416,-0.0314284,223.048,6.83824,4.00579,0.126826,-0.00936501,-0.114511,0.261664,0.00285871,0.00159847,0.180998,0.13521947240733834,0.2990899748585847,0.0028628000078856353,-0.0093212948645095,0.0015997482341527647,-0.10819787145924298
468,0.4586,443.574,110.45,-0.0315063,223.148,6.83604,4.00461,0.127084,-0.0093928,-0.114739,0.262173,0.00286497,0.00160199,0.181366,0.13551239681684346,0.2997513799691085,0.0028690779486635343,-0.009348825443186048,0.0016032738714715222,-0.10840117916659087
469,0.4596,443.823,110.483,-0.0315838,223.247,6.83379,4.00341,0.127341,-0.0094206,-0.114968,0.262682,0.00287121,0.00160549,0.181734,0.13580426100576726,0.3004131218205268,0.0028753358712345634,-0.009376365163034861,0.0016067794890650688,-0.1086053319201793
470,0.4606,444.071,110.517,-0.0316612,223.347,6.83149,4.00218,0.127599,-0.00944841,-0.115196,0.26319,0.00287745,0.001609,0.182102,0.13609733631019538,0.3010738995097344,0.002881593832855245,-0.009403914023251025,0.0016102951350309702,-0.10880854673713203
471,0.4616,444.319,110.55,-0.0317382,223.446,6.82916,4.00092,0.127857,-0.00947623,-0.115425,0.263699,0.00288368,0.0016125,0.182469,0.136390487237807,0.3017363146949481,0.0028878418046471843,-0.009431472023029297,0.0016138007771988594,-0.10901260621422737
472,0.4626,444.566,110.584,-0.0318151,223.545,6.82678,3.99964,0.128114,-0.00950406,-0.115653,0.264207,0.0028899,0.00161599,0.182837,0.13668257712496978,0.30239776473689894,0.0028940797864234202,-0.009459039161564431,0.0016172964154634872,-0.10921572818322611
473,0.4636,444.813,110.617,-0.0318917,223.644,6.82436,3.99834,0.128372,-0.0095319,-0.115881,0.264715,0.00289611,0.00161948,0.183204,0.13697587906419129,0.303059550880834,0.002900307777996769,-0.009486615438050627,0.0016207920659276898,-0.10941880384569502
474,0.4646,445.06,110.65,-0.031968,223.743,6.8219,3.99701,0.128629,-0.00955974,-0.116109,0.265222,0.00290231,0.00162296,0.183571,0.1372681194163876,0.3037203695765147,0.002906525779180713,-0.00951419094682393,0.001624277712349187,-0.10962183321219099
475,0.4656,445.306,110.684,-0.0320441,223.841,6.81939,3.99566,0.128887,-0.0095876,-0.116337,0.26573,0.00290851,0.00162644,0.183938,0.13756157244500988,0.3043828277743954,0.0029127438189164856,-0.009541785497070299,0.0016277633709007588,-0.10982481629326801
476,0.4666,445.552,110.717,-0.0321199,223.94,6.81685,3.99428,0.129144,-0.00961547,-0.116565,0.266237,0.00291469,0.00162992,0.184305,0.13785396333974886,0.30504431754156336,0.0029189418388251287,-0.00956938918284933,0.0016312490415821834,-0.1100277530994781
477,0.4676,445.798,110.75,-0.0321955,224.038,6.81426,3.99288,0.129401,-0.00964335,-0.116793,0.266744,0.00292086,0.00163338,0.184671,0.13814642938860477,0.30570614276907526,0.002925129867786369,-0.009597002003354338,0.0016347146916995126,-0.1102306436413707
478,0.4686,446.043,110.783,-0.0322708,224.136,6.81163,3.99146,0.129658,-0.00967124,-0.117021,0.267251,0.00292703,0.00163685,0.185038,0.13843897061089439,0.3063683036270528,0.002931317934927735,-0.009624623957778522,0.0016381903701898626,-0.11043348792949292
479,0.4696,446.288,110.816,-0.0323458,224.234,6.80896,3.99001,0.129915,-0.00969913,-0.117248,0.267757,0.00293318,0.00164031,0.185404,0.13873158702594024,0.30702949325555684,0.002937485981499899,-0.009652245141837157,0.0016416560443242023,-0.1106353966102307
480,0.4706,446.532,110.849,-0.0324206,224.332,6.80624,3.98853,0.130172,-0.00972704,-0.117476,0.268263,0.00293933,0.00164376,0.185771,0.13902427865306888,0.3076910175306711,0.0029436540660054966,-0.009679885361954188,0.0016451117139983928,-0.11083814862519548
481,0.4716,446.776,110.882,-0.0324952,224.43,6.80349,3.98704,0.130429,-0.00975495,-0.117703,0.26877,0.00294547,0.00164721,0.186137,0.1393170455116126,0.30835418497530087,0.0029498121589468518,-0.009707524810643409,0.0016485673955948243,-0.11103996545838035
482,0.4726,447.019,110.915,-0.0325694,224.527,6.80069,3.98551,0.130686,-0.00978288,-0.11793,0.269275,0.0029516,0.00165065,0.186503,0.13960988762090842,0.30901507069831324,0.002955960260139223,-0.009735183293222982,0.001652013072593439,-0.11124173648434343
483,0.4736,447.262,110.948,-0.0326435,224.625,6.79785,3.98397,0.130942,-0.00981081,-0.118158,0.269781,0.00295772,0.00165409,0.186868,0.1399016650980629,0.3096775999298462,0.002962098369398536,-0.009762841003311928,0.0016554587614447946,-0.11144435026957578
484,0.4746,447.505,110.981,-0.0327172,224.722,6.79498,3.9824,0.131199,-0.00983875,-0.118385,0.270286,0.00296383,0.00165752,0.187234,0.1401946574739008,0.31033915414619107,0.002968226486540937,-0.009790507843026708,0.0016588944455606658,-0.11164602951060476
485,0.4756,447.747,111.014,-0.0327907,224.819,6.79206,3.98081,0.131455,-0.00986671,-0.118612,0.270791,0.00296993,0.00166095,0.1876,0.14048658467130104,0.31100104253178573,0.0029743446113827954,-0.00981819371337711,0.0016623301414608882,-0.11184766297564175
486,0.4766,447.989,111.047,-0.0328639,224.916,6.7891,3.97919,0.131712,-0.00989467,-0.118839,0.271296,0.00297602,0.00166437,0.187965,0.1407797273907876,0.3116632652554283,0.0029804527437407025,-0.009845878809641495,0.0016657558324877364,-0.11204925067507676
487,0.4776,448.231,111.079,-0.0329369,225.013,6.7861,3.97755,0.131968,-0.00992264,-0.119066,0.271801,0.0029821,0.00166779,0.18833,0.14107180438525968,0.3123258224860024,0.0029865508834316934,-0.009873573033105654,0.0016691815352307682,-0.11225079261929738
488,0.4786,448.472,111.112,-0.0330096,225.109,6.78306,3.97589,0.132224,-0.00995061,-0.119293,0.272306,0.00298817,0.0016712,0.188696,0.14136395616101427,0.31298871439247633,0.0029926390302732475,-0.009901266481973203,0.0016725972329634242,-0.11245228881868896
489,0.4796,448.713,111.144,-0.033082,225.206,6.77998,3.9742,0.13248,-0.0099786,-0.119519,0.27281,0.00299423,0.00167461,0.18906,0.14165618273719716,0.31365062749262007,0.0029987171840824,-0.009928978957686518,0.001676012942343874,-0.11265285193692987
490,0.4806,448.953,111.177,-0.0331542,225.302,6.77685,3.97249,0.132736,-0.0100066,-0.119746,0.273314,0.00300029,0.00167801,0.189425,0.14194848413296013,0.3143128742810486,0.003004795374725422,-0.009956700558171439,0.0016794186465776129,-0.11285425687921435
491,0.4816,449.193,111.21,-0.0332261,225.398,6.77369,3.97075,0.132992,-0.0100346,-0.119972,0.273818,0.00300633,0.00168141,0.18979,0.14224086036745942,0.3149754549259831,0.00301085354198527,-0.009984421382462472,0.0016828243623907557,-0.11305472916293835
492,0.4826,449.433,111.242,-0.0332977,225.494,6.77049,3.969,0.133248,-0.0100626,-0.120199,0.274321,0.00301237,0.0016848,0.190155,0.14253331145985615,0.3156370539580182,0.0030169117458362926,-0.010012141430581267,0.0016862200729210741,-0.11325604288944591
493,0.4836,449.672,111.274,-0.0333691,225.59,6.76725,3.96722,0.133504,-0.0100906,-0.120425,0.274825,0.00301839,0.00168819,0.190519,0.14282583742931654,0.31630030215771976,0.0030229499258200843,-0.010039860702549586,0.001689615794962851,-0.11345642437979164
494,0.4846,449.911,111.307,-0.0334401,225.686,6.76397,3.96542,0.13376,-0.0101187,-0.120651,0.275328,0.00302441,0.00169157,0.190883,0.14311843829501125,0.3169625677555399,0.003028988142153466,-0.01006767819162635,0.001693001511585912,-0.1136567605890374
495,0.4856,450.15,111.339,-0.0335109,225.781,6.76065,3.96359,0.134015,-0.0101467,-0.120877,0.275831,0.00303041,0.00169494,0.191247,0.14340997066557382,0.3176251665567491,0.0030350063341368916,-0.010095395908587101,0.001696377222689227,-0.11385705152741576
496,0.4866,450.388,111.371,-0.0335815,225.877,6.75729,3.96174,0.134271,-0.0101748,-0.121104,0.276333,0.00303641,0.00169832,0.191611,0.14370272108851956,0.31828678044155145,0.003041024562229655,-0.010123211837146484,0.001699762962166007,-0.11405818314741656
497,0.4876,450.626,111.404,-0.0336517,225.972,6.75389,3.95987,0.134526,-0.0102028,-0.12133,0.276836,0.0030424,0.00170168,0.191975,0.1439944024701929,0.31895004548928885,0.003047032795961302,-0.010150927999186932,0.001703128679024113,-0.11425838337454741
498,0.4886,450.863,111.436,-0.0337217,226.067,6.75045,3.95798,0.134782,-0.0102309,-0.121555,0.277338,0.00304837,0.00170504,0.192339,0.14428730252683275,0.31961232463028066,0.003053021004622014,-0.010178742367316418,0.0017064944071907284,-0.11445765281963494
499,0.4896,451.1,111.468,-0.0337914,226.162,6.74697,3.95606,0.135037,-0.0102589,-0.121781,0.27784,0.00305434,0.0017084,0.192703,0.14457913299578062,0.3202749363188637,0.0030590092490323517,-0.010206456974523825,0.0017098601466665198,-0.11465776277682083
500,0.4906,451.337,111.5,-0.0338609,226.257,6.74346,3.95412,0.135292,-0.010287,-0.122007,0.278342,0.0030603,0.00171175,0.193066,0.144871037890987,0.3209378807220191,0.0030649874985424486,-0.010234269782311123,0.001713215880318808,-0.11485782751426632
501,0.4916,451.573,111.532,-0.03393,226.352,6.7399,3.95216,0.135547,-0.0103151,-0.122232,0.278843,0.00306625,0.00171509,0.193429,0.14516301723143288,0.32159983640631373,0.0030709557529737808,-0.010262081808569357,0.001716561608047229,-0.1150569620995947
502,0.4926,451.809,111.564,-0.0339989,226.446,6.73631,3.95017,0.135802,-0.0103432,-0.122458,0.279345,0.00307219,0.00171843,0.193792,0.14545507103610444,0.32226344607628077,0.0030769140121469363,-0.010289893053320731,0.0017199073469502668,-0.11525693662818726
503,0.4936,452.045,111.596,-0.0340675,226.541,6.73268,3.94817,0.136057,-0.0103713,-0.122683,0.279846,0.00307812,0.00172176,0.194155,0.14574719932399227,0.3229260660352049,0.0030828622758836133,-0.010317703516587118,0.0017232430797957665,-0.11545598142406666
504,0.4946,452.28,111.628,-0.0341358,226.635,6.72901,3.94614,0.136312,-0.0103994,-0.122909,0.280347,0.00308404,0.00172509,0.194518,0.14603940211409228,0.3235890180499015,0.00308880054400551,-0.010345513198390499,0.0017265788237492696,-0.1156558657844814
505,0.4956,452.515,111.66,-0.0342038,226.729,6.7253,3.94409,0.136567,-0.0104276,-0.123134,0.280847,0.00308995,0.00172841,0.194881,0.14633167942540481,0.3242509780351319,0.0030947288163347686,-0.010373421061415478,0.0017299045615117858,-0.11585482083139775
506,0.4966,452.749,111.692,-0.0342716,226.823,6.72155,3.94202,0.136822,-0.0104557,-0.123359,0.281348,0.00309585,0.00173173,0.195244,0.14662403127693513,0.32491459399704525,0.0031006470926937535,-0.010401229177577798,0.001733230310315692,-0.11605373111846418
507,0.4976,452.983,111.724,-0.0343391,226.917,6.71777,3.93992,0.137076,-0.0104838,-0.123584,0.281848,0.00310174,0.00173504,0.195606,0.1469153107718093,0.32557721693597386,0.003106555372904829,-0.01042903651234306,0.0017365460527953847,-0.1162525966557506
508,0.4986,453.217,111.755,-0.0344063,227.011,6.71394,3.9378,0.137331,-0.010512,-0.123809,0.282348,0.00310762,0.00173835,0.195968,0.14720781146830997,0.32624017126921356,0.0031124536567914696,-0.01045694202004388,0.00173986180625052,-0.11645141745332455
509,0.4996,453.451,111.787,-0.0344732,227.104,6.71008,3.93566,0.137585,-0.0105401,-0.124034,0.282848,0.00311349,0.00174165,0.196331,0.1474992392621859,0.32690345716250313,0.0031183419441764837,-0.010484747789300308,0.001743167553248881,-0.11665019352125139
510,0.5006,453.684,111.819,-0.0345398,227.198,6.70618,3.9335,0.13784,-0.0105683,-0.124259,0.283348,0.00311935,0.00174495,0.196693,0.14779188887943828,0.3275670747816637,0.003124220234883568,-0.010512651725965272,0.0017464733111562936,-0.11684892486959397
511,0.5016,453.916,111.85,-0.0346061,227.291,6.70225,3.93132,0.138094,-0.0105964,-0.124484,0.283847,0.0031252,0.00174824,0.197055,0.14808346504781933,0.32822969606223995,0.003130088528736863,-0.010540455929800907,0.0017497690624750373,-0.11704761150841325
512,0.5026,454.149,111.882,-0.0346722,227.384,6.69828,3.92912,0.138348,-0.0106246,-0.124708,0.284346,0.00313105,0.00175152,0.197416,0.14837511528595382,0.3288926480733454,0.003135956856919586,-0.010568358295518387,0.0017530548071060803,-0.11724537069357976
513,0.5036,454.381,111.913,-0.0347379,227.477,6.69427,3.92689,0.138602,-0.0106528,-0.124933,0.284845,0.00313688,0.0017548,0.197778,0.14866683961265736,0.329555930980056,0.0031418051565956784,-0.010596259874400382,0.0017563405625145023,-0.11744396814212288
514,0.5046,454.612,111.945,-0.0348034,227.57,6.69022,3.92464,0.138856,-0.010681,-0.125157,0.285344,0.0031427,0.00175808,0.198139,0.14895863804675136,0.3302195449475298,0.0031476434588912916,-0.010624160666468874,0.0017596263287003033,-0.11764163855334642
515,0.5056,454.843,111.976,-0.0348686,227.663,6.68613,3.92238,0.13911,-0.0107092,-0.125382,0.285842,0.00314851,0.00176135,0.198501,0.14925051060706118,0.33088215925818276,0.0031534717636310106,-0.010652060671746177,0.0017629020880343127,-0.1178401468516509
516,0.5066,455.074,112.008,-0.0349334,227.755,6.68201,3.92009,0.139364,-0.0107374,-0.125606,0.28634,0.00315431,0.00176461,0.198862,0.14954245731241733,0.33154510363294176,0.003159290070640308,-0.010679959890254387,0.0017661678404181647,-0.11803772852878214
517,0.5076,455.305,112.039,-0.034998,227.848,6.67785,3.91777,0.139618,-0.0107656,-0.12583,0.286838,0.00316011,0.00176787,0.199223,0.14983447818165518,0.3322083782362193,0.003165108411395723,-0.010707858322015817,0.0017694336034486113,-0.11823526595257428
518,0.5086,455.535,112.07,-0.0350623,227.94,6.67366,3.91544,0.139872,-0.0107938,-0.126054,0.287336,0.00316589,0.00177112,0.199584,0.15012657323361456,0.3328719832325102,0.0031709067224794385,-0.010735755967052452,0.0017726893593983384,-0.11843275913293894
519,0.5096,455.765,112.102,-0.0351264,228.032,6.66943,3.91309,0.140125,-0.010822,-0.126278,0.287834,0.00317166,0.00177437,0.199945,0.15041759206897298,0.3335359187863913,0.003176695035310706,-0.010763652825386605,0.001775945125929379,-0.11863020807978553
520,0.5106,455.995,112.133,-0.0351901,228.124,6.66516,3.91071,0.140379,-0.0108503,-0.126502,0.288331,0.00317742,0.00177761,0.200305,0.15070983525067128,0.3341988508630034,0.0031824733497154423,-0.010791647817880667,0.001779190885249804,-0.11882761280302123
521,0.5116,456.224,112.164,-0.0352535,228.216,6.66086,3.90832,0.140632,-0.0108785,-0.126726,0.288828,0.00318318,0.00178085,0.200666,0.15100100166998875,0.3348621124987461,0.0031882516974035546,-0.010819543100086815,0.0017824366550862614,-0.11902497331255102
522,0.5126,456.453,112.195,-0.0353166,228.308,6.65652,3.9059,0.140886,-0.0109068,-0.12695,0.289325,0.00318892,0.00178408,0.201026,0.151293393056547,0.3355257038574513,0.003194010014494708,-0.010847536510908529,0.001785672417582429,-0.11922228961827774
523,0.5136,456.681,112.226,-0.0353795,228.4,6.65214,3.90346,0.141139,-0.010935,-0.127173,0.289822,0.00319465,0.0017873,0.201386,0.1515847071346672,0.33618962510303163,0.0031997583326410783,-0.010875430217075821,0.0017888981726410513,-0.11941868114922338
524,0.5146,456.909,112.257,-0.035442,228.491,6.64773,3.901,0.141392,-0.0109633,-0.127397,0.290319,0.00320037,0.00179052,0.201747,0.15187609492457343,0.33685387639948217,0.0032054966516703587,-0.010903422046314448,0.0017921239380866982,-0.11961590927427124
525,0.5156,457.137,112.288,-0.0355043,228.583,6.64328,3.89852,0.141645,-0.0109916,-0.12762,0.290815,0.00320609,0.00179374,0.202107,0.15216755644491697,0.33751712039308934,0.0032112350035227166,-0.010931413083395403,0.0017953497139193697,-0.11981221303781997
526,0.5166,457.364,112.319,-0.0355662,228.674,6.6388,3.89602,0.141898,-0.0110198,-0.127844,0.291311,0.00321179,0.00179694,0.202466,0.152459091714354,0.33818069343731505,0.003216953323859517,-0.010959304424276728,0.0017985554641675172,-0.12000935302159699
527,0.5176,457.591,112.35,-0.0356279,228.765,6.63428,3.8935,0.142151,-0.0110481,-0.128067,0.291807,0.00321748,0.00180015,0.202826,0.15275070075154562,0.33884459569540915,0.0032226616445640843,-0.010987293879908822,0.0018017712426918742,-0.120205569056972
528,0.5186,457.818,112.381,-0.0356892,228.856,6.62972,3.89096,0.142404,-0.0110764,-0.12829,0.292303,0.00322316,0.00180335,0.203186,0.1530423835751571,0.33950882733070187,0.003228359965465444,-0.011015282543450633,0.0018049770134891396,-0.12040174134104975
529,0.5196,458.045,112.412,-0.0357503,228.947,6.62513,3.8884,0.142657,-0.0111047,-0.128513,0.292798,0.00322884,0.00180654,0.203545,0.15333414020385883,0.3401720483338868,0.003234058318733357,-0.011043270414924367,0.0018081727764631683,-0.12059786988358534
530,0.5206,458.271,112.443,-0.035811,229.038,6.62051,3.88582,0.14291,-0.011133,-0.128736,0.293293,0.0032345,0.00180972,0.203904,0.1536259706563261,0.3408355977127344,0.0032397366395731098,-0.01107125749435256,0.001811358531517815,-0.1207939546943324
531,0.5216,458.496,112.474,-0.0358715,229.128,6.61585,3.88322,0.143162,-0.0111613,-0.128959,0.293788,0.00324015,0.0018129,0.204263,0.15391672103394027,0.3414994756298311,0.003245404960098064,-0.01109924378175764,0.0018145442967034686,-0.1209899957830417
532,0.5226,458.722,112.505,-0.0359316,229.219,6.61115,3.8806,0.143415,-0.0111896,-0.129182,0.294283,0.00324579,0.00181608,0.204622,0.15420869889800426,0.34216368224784377,0.0032510632801385775,-0.011127229277162032,0.0018177300720196854,-0.12118599315946244
533,0.5236,458.947,112.535,-0.0359915,229.309,6.60642,3.87795,0.143667,-0.0112179,-0.129405,0.294778,0.00325143,0.00181925,0.204981,0.15449959614163977,0.342828217729519,0.003256721632092008,-0.011155213980588052,0.0018209058392575361,-0.12138194683334114
534,0.5246,459.172,112.566,-0.036051,229.399,6.60166,3.87529,0.143919,-0.0112463,-0.129627,0.295272,0.00325705,0.00182241,0.20534,0.1547905667006182,0.3434917387452747,0.0032623599507111134,-0.01118329677373342,0.0018240715983217637,-0.12157697839184012
535,0.5256,459.396,112.597,-0.0361103,229.489,6.59686,3.87261,0.144172,-0.0112746,-0.12985,0.295766,0.00326266,0.00182557,0.205699,0.15508276567560508,0.3441555876213871,0.0032679882683379624,-0.01121127989047177,0.0018272373673899889,-0.12177284488573303
536,0.5266,459.62,112.627,-0.0361692,229.579,6.59203,3.86991,0.144424,-0.0113029,-0.130072,0.29626,0.00326826,0.00182872,0.206057,0.15537388321182433,0.34481976451985896,0.003273606584803579,-0.01123926221529914,0.0018303931281580255,-0.12196778967449617
537,0.5276,459.844,112.658,-0.0362278,229.669,6.58716,3.86718,0.144676,-0.0113313,-0.130295,0.296754,0.00327385,0.00183187,0.206415,0.15566507411890695,0.3454842696027738,0.003279214899939431,-0.011267342621508525,0.001833548898866777,-0.12216356902718961
538,0.5286,460.067,112.688,-0.0362862,229.759,6.58226,3.86444,0.144928,-0.0113596,-0.130517,0.297247,0.00327943,0.00183501,0.206773,0.15595633841534506,0.34614775688386423,0.003284813213577875,-0.011295323359783005,0.0018366946611492185,-0.12235842708482092
539,0.5296,460.29,112.719,-0.0363442,229.848,6.57732,3.86168,0.14518,-0.011388,-0.130739,0.297741,0.003285,0.00183815,0.207132,0.15624767611963453,0.3468129181570725,0.0032904015255510455,-0.011323402173878616,0.0018398404333093143,-0.12255324188876482
540,0.5306,460.513,112.749,-0.0364019,229.938,6.57235,3.8589,0.145432,-0.0114164,-0.130962,0.298234,0.00329057,0.00184128,0.207489,0.156539087250277,0.34747706062339034,0.0032959898686510947,-0.011351480190547103,0.001842976196917201,-0.12274889070017037
541,0.5316,460.735,112.78,-0.0364593,230.027,6.56734,3.8561,0.145684,-0.0114447,-0.131184,0.298726,0.00329612,0.0018444,0.207847,0.1568305718257781,0.3481401824518102,0.0033015581768467417,-0.011379458547762122,0.0018461019518791755,-0.12294361883081262
542,0.5326,460.958,112.81,-0.0365164,230.116,6.56231,3.85327,0.145935,-0.0114731,-0.131406,0.299219,0.00330166,0.00184752,0.208205,0.1571209727430969,0.34880497942074706,0.003307116482875516,-0.011407534972452282,0.001849227716593349,-0.12313830373660806
543,0.5336,461.179,112.84,-0.0365732,230.205,6.55724,3.85043,0.146187,-0.0115015,-0.131628,0.299712,0.00330719,0.00185063,0.208562,0.15741260397221968,0.3494701042153918,0.0033126647865708847,-0.011435610599783264,0.0018523434725365995,-0.12333294542715145
544,0.5346,461.401,112.87,-0.0366297,230.294,6.55213,3.84757,0.146439,-0.0115299,-0.131849,0.300204,0.00331271,0.00185374,0.20892,0.15770430870167296,0.35013420686252084,0.0033182030877660917,-0.011463685429777715,0.0018554592381698765,-0.12352666743914131
545,0.5356,461.622,112.901,-0.0366859,230.383,6.54699,3.84469,0.14669,-0.0115583,-0.132071,0.300696,0.00331821,0.00185684,0.209277,0.15799492895447287,0.3507986363285429,0.003323721353058362,-0.011491759462458395,0.0018585649949074412,-0.12372122292251209
546,0.5366,461.843,112.931,-0.0367418,230.472,6.54182,3.8418,0.146941,-0.0115867,-0.132293,0.301188,0.00332371,0.00185994,0.209634,0.15828562216211184,0.3514633927742927,0.003329239648701021,-0.011519832697847843,0.00186167076127286,-0.1239157352193595
547,0.5376,462.063,112.961,-0.0367973,230.56,6.53662,3.83888,0.147193,-0.0116151,-0.132514,0.301679,0.0033292,0.00186303,0.209991,0.15857754691987136,0.3521271242328836,0.003334747941347027,-0.011547905135968706,0.0018647665186184437,-0.12410932844903622
548,0.5386,462.283,112.991,-0.0368526,230.649,6.53138,3.83594,0.147444,-0.0116435,-0.132736,0.302171,0.00333468,0.00186611,0.210348,0.15886838638297407,0.3527925344554983,0.0033402462308309566,-0.011575976776843633,0.0018678522668513775,-0.12430375459601972
549,0.5396,462.503,113.021,-0.0369075,230.737,6.52611,3.83299,0.147695,-0.0116719,-0.132957,0.302662,0.00334015,0.00186919,0.210704,0.15915929885594426,0.3534569186828962,0.0033457345169882746,-0.011604047620495272,0.0018709380245884866,-0.12449726208288914
550,0.5406,462.723,113.051,-0.0369621,230.825,6.5208,3.83001,0.147946,-0.0117004,-0.133178,0.303153,0.00334561,0.00187227,0.211061,0.15945028435710973,0.354121629203048,0.003351212799654446,-0.011632216503729587,0.0018740237918295488,-0.12469072680932913
551,0.5416,462.942,113.081,-0.0370164,230.913,6.51547,3.82702,0.148197,-0.0117288,-0.133399,0.303643,0.00335105,0.00187533,0.211417,0.1597413429048029,0.3547853113902142,0.0033566710450985138,-0.011660285750195731,0.0018770895310329383,-0.1248841487847887
552,0.5426,463.161,113.111,-0.0370704,231.001,6.5101,3.824,0.148448,-0.0117572,-0.133621,0.304134,0.00335649,0.0018784,0.211774,0.1600324745173609,0.3554506743113368,0.0033621293202354963,-0.011688354199506534,0.0018801652984190564,-0.12507840294074934
553,0.5436,463.379,113.141,-0.0371241,231.089,6.5047,3.82097,0.148699,-0.0117857,-0.133842,0.304624,0.00336192,0.00188145,0.21213,0.1603236792131253,0.356115007890184,0.0033675775913897255,-0.01171652068003759,0.0018832210375832048,-0.1252717392492505
554,0.5446,463.597,113.171,-0.0371775,231.177,6.49926,3.81792,0.148949,-0.0118141,-0.134062,0.305114,0.00336733,0.0018845,0.212486,0.16061379639606543,0.35677966707225095,0.0033730058246679295,-0.011744587532299122,0.0018862767860674534,-0.125464158299744
555,0.5456,463.815,113.201,-0.0372306,231.264,6.4938,3.81485,0.1492,-0.0118426,-0.134283,0.305604,0.00337274,0.00188755,0.212842,0.1609051470219347,0.3574446520171226,0.003378434087312865,-0.011772752410203036,0.0018893325438718023,-0.12565740936573044
556,0.5466,464.033,113.231,-0.0372833,231.352,6.4883,3.81177,0.14945,-0.011871,-0.134504,0.306094,0.00337813,0.00189058,0.213197,0.16119540958999945,0.35810996288446173,0.003383842311647678,-0.011800817665506114,0.001892368273148426,-0.12585061772795025
557,0.5476,464.25,113.261,-0.0373357,231.439,6.48277,3.80866,0.149701,-0.0118995,-0.134725,0.306583,0.00338352,0.00189362,0.213553,0.1614869062191031,0.35877424105908906,0.0033892505651329508,-0.011828980940874034,0.0018954140305775802,-0.12604378339583977
558,0.5486,464.467,113.29,-0.0373879,231.526,6.47721,3.80554,0.149951,-0.011928,-0.134945,0.307073,0.00338889,0.00189664,0.213908,0.16177731424514863,0.35944020358470197,0.0033946387798760025,-0.011857143413600002,0.0018984397592967106,-0.12623603261530314
559,0.5496,464.684,113.32,-0.0374397,231.613,6.47161,3.80239,0.150201,-0.0119564,-0.135166,0.307562,0.00339426,0.00189967,0.214264,0.16206779488227663,0.360105132406102,0.0034000270235534646,-0.011885206272232662,0.0019014755161683716,-0.12642911311591398
560,0.5506,464.9,113.35,-0.0374911,231.7,6.46599,3.79923,0.150452,-0.0119849,-0.135386,0.308051,0.00339961,0.00190268,0.214619,0.16235951050757147,0.3607703864572076,0.003405395228058161,-0.011913367142559528,0.0019044912441483763,-0.12662127757216324
561,0.5516,465.116,113.38,-0.0375423,231.787,6.46033,3.79605,0.150702,-0.0120134,-0.135607,0.308539,0.00340495,0.00190569,0.214974,0.16265013671196038,0.3614346044618102,0.003410753427175006,-0.011941527210313163,0.0019075069812057865,-0.1268142729430458
562,0.5526,465.332,113.409,-0.0375931,231.874,6.45464,3.79285,0.150952,-0.0120419,-0.135827,0.309028,0.00341029,0.0019087,0.215329,0.16294083558198302,0.36210050878372946,0.003416111654904741,-0.011969686475516217,0.0019105227273403802,-0.12700635267345328
563,0.5536,465.547,113.439,-0.0376437,231.96,6.44892,3.78964,0.151202,-0.0120704,-0.136047,0.309516,0.00341561,0.00191169,0.215684,0.1632316071358082,0.36276537604643355,0.003421449842818225,-0.01199784493819167,0.001913518444282003,-0.127198390150968
564,0.5546,465.763,113.468,-0.0376939,232.047,6.44317,3.78641,0.151452,-0.0120989,-0.136267,0.310004,0.00342092,0.00191469,0.216038,0.16352245139160937,0.36343056784354166,0.003426778024863353,-0.012026002598362395,0.0019165241893459584,-0.12739038538488479
565,0.5556,465.977,113.498,-0.0377438,232.133,6.43739,3.78315,0.151701,-0.0121274,-0.136487,0.310492,0.00342622,0.00191767,0.216393,0.16381220455477763,0.3640960843334655,0.0034320962008800304,-0.01205415945605115,0.0019195099050366426,-0.12758233838449584
566,0.5566,466.192,113.527,-0.0377934,232.219,6.43157,3.77988,0.151951,-0.0121559,-0.136707,0.310979,0.00343151,0.00192065,0.216747,0.1641031939780786,0.3647605609134503,0.003437404370709052,-0.012082315511281028,0.0019224956296248763,-0.12777424915909208
567,0.5576,466.406,113.557,-0.0378426,232.306,6.42573,3.7766,0.152201,-0.0121844,-0.136927,0.311467,0.00343679,0.00192363,0.217102,0.16439425615782977,0.36542672659838304,0.003442702534191211,-0.012110470764074677,0.0019254813631106593,-0.12796611771796174
568,0.5586,466.62,113.586,-0.0378915,232.392,6.41985,3.77329,0.15245,-0.0122129,-0.137146,0.311954,0.00344206,0.0019266,0.217456,0.16468422642741332,0.36609185135896993,0.003447990691167746,-0.012138625214455079,0.0019284570862092565,-0.1281570722278994
569,0.5596,466.834,113.615,-0.0379402,232.477,6.41395,3.76997,0.1527,-0.0122414,-0.137366,0.312441,0.00344732,0.00192956,0.21781,0.1649754338834355,0.3667573001142017,0.003453268841480339,-0.012166778862444994,0.0019314227988314059,-0.12834885657495754
570,0.5606,467.047,113.645,-0.0379884,232.563,6.40801,3.76663,0.152949,-0.01227,-0.137586,0.312928,0.00345257,0.00193252,0.218163,0.16526554888429112,0.3674230730219019,0.0034585369849706726,-0.012195030488569403,0.0019343885202323108,-0.1285405987341003
571,0.5616,467.26,113.674,-0.0380364,232.649,6.40205,3.76327,0.153198,-0.0122985,-0.137805,0.313414,0.00345781,0.00193547,0.218517,0.1655557361327764,0.3680878021514853,0.0034637951214806506,-0.012223182529031984,0.001937344231037974,-0.12873142744647081
572,0.5626,467.473,113.703,-0.0380841,232.734,6.39605,3.75989,0.153448,-0.012327,-0.138024,0.3139,0.00346303,0.00193841,0.218871,0.16584716149346201,0.3687528544179415,0.0034690332161626536,-0.012251333767172912,0.001940289931160244,-0.1289222143719292
573,0.5636,467.685,113.733,-0.0381314,232.82,6.39002,3.7565,0.153697,-0.0123556,-0.138244,0.314387,0.00346825,0.00194135,0.219224,0.16613749358151875,0.36941959939726776,0.0034742713381876733,-0.012279582975061487,0.0019432356399429196,-0.1291138304062307
574,0.5646,467.897,113.762,-0.0381784,232.905,6.38397,3.75309,0.153946,-0.0123841,-0.138463,0.314873,0.00347346,0.00194429,0.219578,0.16642789797126656,0.3700852990744936,0.0034794994527604928,-0.012307732605812638,0.001946181357385779,-0.12930453359461036
575,0.5656,468.109,113.791,-0.0382251,232.99,6.37788,3.74966,0.154195,-0.0124127,-0.138682,0.315358,0.00347865,0.00194722,0.219931,0.16671837468071082,0.3707499516097559,0.003484707524877617,-0.012335980200717578,0.0019491170639980293,-0.12949519502356466
576,0.5666,468.32,113.82,-0.0382714,233.076,6.37176,3.74621,0.154444,-0.0124413,-0.138901,0.315844,0.00348384,0.00195014,0.220284,0.16700892372786158,0.3714162979952942,0.0034899156240246754,-0.012364226987752858,0.001952042759691297,-0.12968581470223783
577,0.5676,468.532,113.849,-0.0383175,233.161,6.36561,3.74275,0.154692,-0.0124698,-0.13912,0.316329,0.00348901,0.00195305,0.220637,0.16729837783177137,0.37208159622160064,0.003495103680299483,-0.012392374206183887,0.0019549584443780965,-0.12987639263977224
578,0.5686,468.742,113.878,-0.0383632,233.245,6.35944,3.73927,0.154941,-0.0124984,-0.139339,0.316814,0.00349417,0.00195597,0.220989,0.16758907131768863,0.3727472171958066,0.0035002817283937837,-0.012420619380373643,0.0019578841571283867,-0.13006692884530802
579,0.5696,468.953,113.907,-0.0384086,233.33,6.35323,3.73577,0.15519,-0.012527,-0.139558,0.317299,0.00349933,0.00195887,0.221342,0.1678798371952961,0.3734131610744833,0.003505459803206934,-0.012448863746763017,0.0019607898392055567,-0.13025742332798373
580,0.5706,469.163,113.936,-0.0384536,233.415,6.34699,3.73226,0.155438,-0.0125555,-0.139776,0.317784,0.00350447,0.00196177,0.221695,0.16816950731253044,0.3740794280142772,0.0035106178345265526,-0.01247700855308087,0.0019636955297093195,-0.1304470065443768
581,0.5716,469.373,113.965,-0.0384984,233.499,6.34073,3.72873,0.155687,-0.0125841,-0.139995,0.318268,0.0035096,0.00196466,0.222047,0.16846041773669596,0.37474464342658,0.0035157658572007033,-0.012505251306762943,0.0019665912089736892,-0.13063741779915017
582,0.5726,469.583,113.994,-0.0385428,233.584,6.33444,3.72518,0.155935,-0.0126127,-0.140214,0.318753,0.00351472,0.00196755,0.222399,0.1687502318557601,0.3754115562919389,0.003520903871075287,-0.012533493252713801,0.001969486896606476,-0.1308277873584246
583,0.5736,469.793,114.023,-0.0385869,233.668,6.32811,3.72161,0.156184,-0.0126413,-0.140432,0.319237,0.00351983,0.00197043,0.222751,0.16904128689834108,0.37607741661038263,0.003526031875995983,-0.012561734390956536,0.0019723725728841845,-0.131017246249011
584,0.5746,470.002,114.052,-0.0386306,233.752,6.32176,3.71803,0.156432,-0.0126699,-0.14065,0.319721,0.00352493,0.0019733,0.223103,0.16933124509082176,0.3767435992832242,0.003531149871809358,-0.012589974721514352,0.0019752482377199954,-0.13120666384206092
585,0.5756,470.21,114.081,-0.0386741,233.836,6.31538,3.71443,0.15668,-0.0126985,-0.140869,0.320204,0.00353002,0.00197617,0.223455,0.16962127520185155,0.3774087270571047,0.0035362578583622017,-0.01261821424441023,0.001978123910809204,-0.1313969087501018
586,0.5766,470.419,114.11,-0.0387172,233.92,6.30897,3.71082,0.156928,-0.0127271,-0.141087,0.320688,0.0035351,0.00197903,0.223807,0.16991137724926864,0.37807555424016126,0.003541355835500859,-0.012646452959667265,0.001980989572341274,-0.13158624358574733
587,0.5776,470.627,114.138,-0.0387599,234.004,6.30253,3.70719,0.157176,-0.0127557,-0.141305,0.321171,0.00354016,0.00198189,0.224159,0.1702015512509154,0.37874132550367645,0.0035464337676085478,-0.012674690867308658,0.0019838552420694544,-0.1317755371508974
588,0.5786,470.835,114.167,-0.0388024,234.088,6.29606,3.70354,0.157424,-0.0127843,-0.141523,0.321654,0.00354522,0.00198474,0.22451,0.1704917972246387,0.3794074184123828,0.003551511725410572,-0.012702927967357391,0.001986710900126143,-0.13196478945454793
589,0.5796,471.043,114.196,-0.0388445,234.172,6.28957,3.69987,0.157672,-0.0128129,-0.141741,0.322137,0.00355026,0.00198759,0.224861,0.17078211518829,0.38007383312167264,0.0035565696377757305,-0.012731164259836558,0.0019895665663216544,-0.13215400050569281
590,0.5806,471.25,114.224,-0.0388863,234.255,6.28304,3.69619,0.157919,-0.0128415,-0.141959,0.32262,0.0035553,0.00199043,0.225213,0.17107133408780517,0.3807405697870132,0.00356162757563272,-0.012759399744769362,0.001992412220731543,-0.13234317031332443
591,0.5816,471.457,114.253,-0.0389278,234.338,6.27649,3.69249,0.158167,-0.0128701,-0.142177,0.323102,0.00356032,0.00199326,0.225564,0.1713617957944218,0.381406247157009,0.003566665467648278,-0.012787634422178895,0.001995247863270544,-0.1325322988864326
592,0.5826,471.664,114.282,-0.0389689,234.422,6.26991,3.68878,0.158415,-0.0128988,-0.142394,0.323584,0.00356534,0.00199609,0.225915,0.17165232954447474,0.38207224546083607,0.0035717033849540503,-0.012815967010496365,0.001998083513834459,-0.1327205189549583
593,0.5836,471.871,114.31,-0.0390098,234.505,6.2633,3.68505,0.158662,-0.0129274,-0.142612,0.324066,0.00357034,0.00199891,0.226265,0.17194176341348344,0.38273856485322155,0.0035767212560156025,-0.012844200070105227,0.002000909152414021,-0.1329095652750285
594,0.5846,472.077,114.339,-0.0390502,234.588,6.25666,3.6813,0.158909,-0.012956,-0.142829,0.324548,0.00357533,0.00200172,0.226616,0.17223126878148776,0.3834052054889676,0.0035817291163493525,-0.012872432322260097,0.0020037247789246315,-0.13309770348562966
595,0.5856,472.283,114.367,-0.0390904,234.671,6.25,3.67754,0.159157,-0.0129847,-0.143047,0.32503,0.00358031,0.00200453,0.226967,0.17252201818758173,0.3840721675229508,0.003586726965804976,-0.012900762476912742,0.0020065404133473574,-0.13328666758843422
596,0.5866,472.489,114.396,-0.0391302,234.754,6.24331,3.67376,0.159404,-0.0130133,-0.143264,0.325511,0.00358528,0.00200734,0.227317,0.17281166689621696,0.38473806637136376,0.003591714804232593,-0.01292899311140594,0.0020093560556817547,-0.13347472397671145
597,0.5876,472.694,114.424,-0.0391697,234.837,6.23659,3.66997,0.159651,-0.013042,-0.143481,0.325993,0.00359024,0.00201014,0.227667,0.17310138715691958,0.38540567099914513,0.0035966926314829895,-0.01295732164278729,0.002012161685806646,-0.1336627395611798
598,0.5886,472.899,114.453,-0.0392089,234.919,6.22984,3.66616,0.159898,-0.0130706,-0.143699,0.326474,0.00359519,0.00201293,0.228017,0.173391178987365,0.3860722114170152,0.0036016604474069513,-0.012985550659711409,0.0020149573036376545,-0.13385158049954538
599,0.5896,473.104,114.481,-0.0392477,235.002,6.22306,3.66233,0.160145,-0.0130993,-0.143916,0.326954,0.00360013,0.00201571,0.228367,0.1736810424052333,0.38673768577956524,0.0036066182518552647,-0.01301387756791439,0.0020177429090910692,-0.13403951431502048
600,0.5906,473.309,114.509,-0.0392862,235.084,6.21626,3.65849,0.160392,-0.0131279,-0.144133,0.327435,0.00360505,0.00201849,0.228717,0.17397097742820877,0.3874048670506576,0.0036115560085641096,-0.013042104967362245,0.0020205285222882896,-0.1342274073532822
601,0.5916,473.513,114.538,-0.0393244,235.167,6.20943,3.65463,0.160639,-0.0131566,-0.14435,0.327915,0.00360997,0.00202127,0.229067,0.17426098407397994,0.38807098124145845,0.0036164937895664107,-0.013070430252479892,0.0020233141432295376,-0.13441525962317813
602,0.5926,473.717,114.566,-0.0393623,235.249,6.20258,3.65076,0.160886,-0.0131852,-0.144567,0.328396,0.00361488,0.00202403,0.229417,0.17455106236023976,0.38873880398192906,0.003621421558648752,-0.013098656034544076,0.0020260797313931267,-0.13460307113355396
603,0.5936,473.921,114.594,-0.0393998,235.331,6.19569,3.64687,0.161132,-0.0132139,-0.144783,0.328876,0.00361977,0.00202679,0.229766,0.17484003746406085,0.38940555861615067,0.0036263292793994317,-0.013126979696669316,0.002028845327189721,-0.134789976683663
604,0.5946,474.124,114.622,-0.039437,235.413,6.18878,3.64297,0.161379,-0.0132426,-0.145,0.329356,0.00362465,0.00202955,0.230116,0.1751302587941732,0.39007263336941955,0.0036312269878366887,-0.013155302545917236,0.002031610930619321,-0.1349777068892587
605,0.5956,474.328,114.65,-0.0394738,235.495,6.18184,3.63905,0.161626,-0.0132713,-0.145217,0.329835,0.00362953,0.0020323,0.230465,0.1754205518178078,0.39073863765609596,0.003636124720174827,-0.013183624582311038,0.00203436652133826,-0.13516539636181946
606,0.5966,474.53,114.679,-0.0395104,235.577,6.17488,3.63511,0.161872,-0.0132999,-0.145433,0.330315,0.00363439,0.00203504,0.230814,0.1757097408423467,0.3914063524408993,0.003641002403593774,-0.01321184712706358,0.002037112099263938,-0.13535218046279618
607,0.5976,474.733,114.707,-0.0395465,235.659,6.16789,3.63116,0.162118,-0.0133286,-0.14565,0.330794,0.00363924,0.00203778,0.231163,0.17599900101613652,0.39207299573204035,0.0036458700742596495,-0.01324016754065116,0.0020398576847127092,-0.13553978868340766
608,0.5986,474.935,114.735,-0.0395824,235.74,6.16087,3.62719,0.162365,-0.0133573,-0.145866,0.331273,0.00364408,0.00204051,0.231512,0.1762895086456029,0.39273995842180787,0.0036507277320261267,-0.013268487141454566,0.002042593257258085,-0.13572649192437614
609,0.5996,475.138,114.763,-0.0396179,235.822,6.15383,3.62321,0.162611,-0.013386,-0.146082,0.331752,0.00364891,0.00204324,0.23186,0.1765789114598164,0.3934072406632301,0.00365557537674821,-0.013296805929497002,0.0020453288372717093,-0.13591315484179955
610,0.6006,475.339,114.791,-0.0396531,235.903,6.14676,3.61922,0.162857,-0.0134147,-0.146298,0.33223,0.00365373,0.00204596,0.232209,0.17686838547587969,0.3940734485352637,0.003660413008280239,-0.013325123904802005,0.0020480544042731363,-0.13609977744438706
611,0.6016,475.541,114.819,-0.039688,235.984,6.13966,3.61521,0.163103,-0.0134434,-0.146514,0.332709,0.00365853,0.00204867,0.232557,0.17715793071131047,0.39474136967145346,0.0036652305898248194,-0.013353441067392668,0.0020507699581799876,-0.1362863597408457
612,0.6026,475.742,114.847,-0.0397225,236.066,6.13254,3.61118,0.163349,-0.0134721,-0.14673,0.333187,0.00366333,0.00205138,0.232906,0.17744754718363098,0.39540821540959104,0.0036700481944940133,-0.013381757417292528,0.0020534855194462853,-0.13647290173988047
613,0.6036,475.943,114.875,-0.0397567,236.147,6.12539,3.60714,0.163595,-0.0135008,-0.146946,0.333665,0.00366812,0.00205408,0.233254,0.17773723491036764,0.39607537997618514,0.003674855785539055,-0.013410072954524677,0.0020561910675096495,-0.13665940345019478
614,0.6046,476.144,114.903,-0.0397906,236.228,6.11822,3.60308,0.16384,-0.0135295,-0.147162,0.334143,0.00367289,0.00205677,0.233602,0.1780258158826462,0.3967428635236725,0.003679643326019333,-0.013438387679112651,0.002058886602289034,-0.1368458648804901
615,0.6056,476.344,114.931,-0.0398241,236.308,6.11102,3.59901,0.164086,-0.0135582,-0.147378,0.33462,0.00367766,0.00205946,0.23395,0.1783156458809816,0.3974092687945949,0.003684430889336232,-0.013466701591079655,0.002061582144319507,-0.13703228603946604
616,0.6066,476.545,114.958,-0.0398573,236.389,6.10379,3.59492,0.164332,-0.0135869,-0.147594,0.335098,0.00368241,0.00206215,0.234298,0.17860554718626687,0.39807739009334786,0.0036891984017057844,-0.013495014690449114,0.0020642776936010687,-0.13721866693581997
617,0.6076,476.745,114.986,-0.0398902,236.47,6.09654,3.59082,0.164577,-0.0136156,-0.147809,0.335575,0.00368715,0.00206482,0.234645,0.17889434092111545,0.39874443208528976,0.003693955899781498,-0.013523326977244232,0.002066953208794242,-0.13740414498282427
618,0.6086,476.944,115.014,-0.0399227,236.551,6.08926,3.5867,0.164823,-0.0136443,-0.148025,0.336052,0.00369188,0.00206749,0.234993,0.1791843846028922,0.39941179233215984,0.0036987033834208205,-0.013551638451488435,0.0020696287311310346,-0.1375904455663206
619,0.6096,477.144,115.042,-0.0399549,236.631,6.08196,3.58257,0.165068,-0.013673,-0.14824,0.336529,0.0036966,0.00207016,0.23534,0.17947332017028161,0.4000794709858013,0.003703440852481199,-0.013579949113204925,0.002072304260611668,-0.13777584368951146
620,0.6106,477.343,115.07,-0.0399868,236.711,6.07464,3.57843,0.165313,-0.0137018,-0.148456,0.337006,0.00370131,0.00207282,0.235688,0.17976232653555746,0.4007474681981309,0.003708168306820747,-0.013608357601586296,0.0020749697764861352,-0.13796206399475752
621,0.6116,477.542,115.097,-0.0400183,236.792,6.06728,3.57427,0.165559,-0.0137305,-0.148671,0.337482,0.00370601,0.00207547,0.236035,0.1800525837680611,0.4014143827060539,0.0037128857462978004,-0.01363666663548646,0.0020776252786744998,-0.1381473822285747
622,0.6126,477.74,115.125,-0.0400495,236.872,6.05991,3.57009,0.165804,-0.0137592,-0.148886,0.337958,0.0037107,0.00207812,0.236382,0.1803417320703049,0.40208161474084814,0.0037175931707706944,-0.01366497485692919,0.002080280787900124,-0.13833266062325433
623,0.6136,477.939,115.153,-0.0400804,236.952,6.0525,3.56591,0.166049,-0.013788,-0.149101,0.338434,0.00371537,0.00208076,0.236729,0.18063095122256168,0.40274916445369224,0.003722280542875822,-0.013693380896604324,0.0020829262833335083,-0.13851789918736124
624,0.6146,478.137,115.18,-0.0401109,237.032,6.04508,3.5617,0.166294,-0.0138167,-0.149316,0.33891,0.00372004,0.00208339,0.237076,0.18092024124219153,0.403417031995837,0.003726967936870995,-0.01372168749037106,0.0020855617648951608,-0.13870309792945779
625,0.6156,478.334,115.208,-0.0401411,237.112,6.03762,3.55749,0.166539,-0.0138454,-0.149531,0.339386,0.00372469,0.00208602,0.237422,0.18120960214655923,0.40408521751860516,0.0037316352781235906,-0.013749993271750194,0.0020881972533883797,-0.1388882568581048
626,0.6166,478.532,115.235,-0.040171,237.191,6.03015,3.55325,0.166783,-0.0138742,-0.149746,0.339861,0.00372934,0.00208864,0.237769,0.1814978524545905,0.4047523164203728,0.00373630264107927,-0.013778396862930253,0.0020908227279046177,-0.13907337598186142
627,0.6176,478.729,115.263,-0.0402005,237.271,6.02265,3.54901,0.167028,-0.0139029,-0.149961,0.340337,0.00373397,0.00209126,0.238115,0.18178735489104225,0.4054211376898229,0.0037409499509188926,-0.013806701016773726,0.0020934482092993534,-0.1392584553092847
628,0.6186,478.926,115.29,-0.0402297,237.351,6.01512,3.54475,0.167273,-0.0139317,-0.150176,0.340812,0.00373859,0.00209387,0.238461,0.18207692826428024,0.4060888713044042,0.0037455872448197702,-0.013835102974794289,0.002096063676612525,-0.13944349484892993
629,0.6196,479.123,115.318,-0.0402586,237.43,6.00757,3.54047,0.167517,-0.0139604,-0.15039,0.341287,0.0037432,0.00209647,0.238808,0.18236539022570475,0.40675692216779313,0.003750214522642903,-0.013863405501195691,0.002098669129765085,-0.13962763423741487
630,0.6206,479.32,115.345,-0.0402871,237.51,6.0,3.53619,0.167762,-0.0139892,-0.150605,0.341761,0.0037478,0.00209907,0.239154,0.18265510523494966,0.40742388300613164,0.0037548317842495127,-0.013891805826150683,0.0021012745896920038,-0.13981259441212257
631,0.6216,479.516,115.373,-0.0403153,237.589,5.9924,3.53188,0.168006,-0.0140179,-0.150819,0.342236,0.00375239,0.00210166,0.239499,0.18294370828876771,0.4080925681507088,0.0037594390295008218,-0.013920106725203607,0.0021038700353541717,-0.13999665482175216
632,0.6226,479.712,115.4,-0.0403432,237.668,5.98477,3.52757,0.168251,-0.0140467,-0.151034,0.34271,0.00375697,0.00210425,0.239845,0.18323356500329613,0.408760162235311,0.0037640362582593845,-0.01394850541718673,0.00210646548773874,-0.14018153566556257
633,0.6236,479.908,115.427,-0.0403707,237.747,5.97713,3.52324,0.168495,-0.0140754,-0.151248,0.343184,0.00376153,0.00210683,0.240191,0.18352230921851853,0.4094280728345172,0.0037686134327006293,-0.013976804688984767,0.002109050925754863,-0.14036551713021128
634,0.6246,480.103,115.455,-0.0403979,237.826,5.96946,3.51889,0.168739,-0.0141042,-0.151462,0.343658,0.00376609,0.0021094,0.240536,0.1838111238959257,0.41009630009839104,0.003773190628013845,-0.014005201748090168,0.0021116263493252685,-0.1405494592270391
635,0.6256,480.298,115.482,-0.0404247,237.905,5.96176,3.51454,0.168983,-0.0141329,-0.151676,0.344132,0.00377063,0.00211197,0.240882,0.18410000905271207,0.41076484417706727,0.0037777477686440353,-0.0140334993927268,0.0021142017795143797,-0.14073336196446973
636,0.6266,480.493,115.509,-0.0404513,237.984,5.95404,3.51016,0.169227,-0.0141617,-0.15189,0.344605,0.00377516,0.00211453,0.241227,0.18438896470607702,0.4114322937877519,0.0037822948921406585,-0.014061894819048182,0.002116767195154745,-0.14091722535092532
637,0.6276,480.688,115.536,-0.0404775,238.062,5.9463,3.50578,0.169471,-0.0141905,-0.152104,0.345078,0.00377969,0.00211709,0.241572,0.18467799087322367,0.41210005917677806,0.0037868420362356936,-0.014090289427593161,0.0021193326173623017,-0.14110104939482604
638,0.6286,480.883,115.564,-0.0405033,238.141,5.93854,3.50138,0.169715,-0.0142193,-0.152318,0.345552,0.0037842,0.00211964,0.241917,0.1849670875713596,0.4127695532623914,0.0037913691251019177,-0.014118683218385053,0.00212188802491875,-0.14128483410459014
639,0.6296,481.077,115.591,-0.0405288,238.22,5.93075,3.49697,0.169959,-0.014248,-0.152532,0.346024,0.0037887,0.00212218,0.242262,0.1852562548176966,0.41343653788752,0.0037958861964264567,-0.014146977606150246,0.0021244334177470403,-0.14146857948863445
640,0.6306,481.271,115.618,-0.040554,238.298,5.92294,3.49254,0.170202,-0.0142768,-0.152746,0.346497,0.00379319,0.00212472,0.242606,0.18554430708455016,0.4141052515082444,0.0038003932500736415,-0.01417536976434619,0.0021269788170403814,-0.14165228555537368
641,0.6316,481.464,115.645,-0.0405788,238.376,5.9151,3.48811,0.170446,-0.0143056,-0.152959,0.34697,0.00379767,0.00212725,0.242951,0.18583361518963226,0.4147742815053288,0.003804890285908913,-0.014203761104859658,0.00212951420150409,-0.14183509414874407
642,0.6326,481.658,115.672,-0.0406034,238.454,5.90724,3.48365,0.170689,-0.0143344,-0.153173,0.347442,0.00380213,0.00212977,0.243296,0.18612180777210408,0.4154422125855337,0.003809367265703134,-0.014232151627714407,0.0021320395710620055,-0.14201872178973785
643,0.6336,481.851,115.699,-0.0406275,238.533,5.89936,3.47919,0.170933,-0.0143631,-0.153386,0.347914,0.00380659,0.00213229,0.24364,0.1864112568045464,0.41611045900362265,0.0038138442654649385,-0.014260442758982972,0.002134564946983497,-0.14220145234050208
644,0.6346,482.044,115.726,-0.0406514,238.611,5.89146,3.47471,0.171176,-0.0143919,-0.1536,0.348386,0.00381103,0.0021348,0.243984,0.18669958977098644,0.41677902090846985,0.003818301208827757,-0.014288831649429512,0.002137080307898387,-0.14238500158923117
645,0.6356,482.237,115.753,-0.0406749,238.689,5.88353,3.47022,0.17142,-0.0144207,-0.153813,0.348858,0.00381547,0.00213731,0.244328,0.1869891797994372,0.4174478984490202,0.0038227581719796344,-0.014317219722287833,0.002139595675126671,-0.14256765413070638
646,0.6366,482.429,115.78,-0.0406981,238.766,5.87558,3.46571,0.171663,-0.0144495,-0.154026,0.349329,0.00381989,0.00213981,0.244672,0.18727765321822942,0.41811567365790636,0.0038271950783763664,-0.01434560697758136,0.002142101027247545,-0.14275026777133337
647,0.6376,482.621,115.807,-0.0407209,238.844,5.86761,3.46119,0.171906,-0.0144783,-0.15424,0.349801,0.0038243,0.0021423,0.245016,0.18756619674458008,0.4187851822474704,0.0038316219660678996,-0.014373993415333741,0.0021445963641859578,-0.14293369958612612
648,0.6386,482.813,115.834,-0.0407434,238.922,5.85961,3.45666,0.172149,-0.0145071,-0.154453,0.350272,0.0038287,0.00214479,0.24536,0.18785481039552732,0.4194535874653811,0.0038360388349216734,-0.014402379035568513,0.0021470917073376228,-0.14311623526737416
649,0.6396,483.005,115.861,-0.0407656,238.999,5.85159,3.45212,0.172392,-0.0145359,-0.154666,0.350743,0.00383309,0.00214727,0.245703,0.1881434941881137,0.420122307576301,0.003840445684805127,-0.014430763838309213,0.0021495770352066845,-0.14329873207266242
650,0.6406,483.197,115.888,-0.0407874,239.077,5.84355,3.44756,0.172635,-0.0145647,-0.154879,0.351214,0.00383747,0.00214975,0.246047,0.18843224813938564,0.42079134272857965,0.0038448425155863664,-0.014459147823579266,0.0021520623692397045,-0.1434811900102707
651,0.6416,483.388,115.915,-0.0408089,239.154,5.83549,3.44299,0.172878,-0.0145935,-0.155091,0.351684,0.00384184,0.00215222,0.24639,0.18872107226639367,0.4214592716106538,0.0038492293271332745,-0.01448753099140243,0.0021545376878906453,-0.14366275275165796
652,0.6426,483.579,115.942,-0.0408301,239.231,5.82741,3.43841,0.17312,-0.0146223,-0.155304,0.352155,0.0038462,0.00215468,0.246733,0.18900877757682055,0.42212893662131257,0.003853606119314623,-0.014515913341802023,0.002157002991085788,-0.1438451331611188
653,0.6436,483.77,115.968,-0.0408509,239.309,5.8193,3.43382,0.173363,-0.0146511,-0.155517,0.352625,0.00385054,0.00215714,0.247076,0.18929774181750503,0.4227974943202768,0.0038579628534192167,-0.014544294874801689,0.002159468300345413,-0.14402747472768918
654,0.6446,483.96,115.995,-0.0408714,239.386,5.81117,3.42921,0.173606,-0.0146799,-0.155729,0.353095,0.00385488,0.00215959,0.247419,0.1895867762850323,0.42346636631521317,0.0038623196064322407,-0.014572675590425077,0.00216192359405043,-0.14420892166899157
655,0.6456,484.15,116.022,-0.0408916,239.463,5.80302,3.42459,0.173848,-0.0147087,-0.155942,0.353565,0.0038592,0.00216204,0.247762,0.18987469112118327,0.42413555275387593,0.0038666563010201216,-0.014601055488695613,0.0021643788937710795,-0.1443911857568616
656,0.6466,484.34,116.049,-0.0409114,239.54,5.79485,3.41995,0.17409,-0.0147375,-0.156154,0.354035,0.00386351,0.00216447,0.248105,0.19016267564115608,0.42480505378408795,0.0038709829756327085,-0.014629434569636834,0.0021668141561705934,-0.14457255559959858
657,0.6476,484.53,116.075,-0.0409309,239.616,5.78665,3.41531,0.174333,-0.0147663,-0.156367,0.354504,0.00386781,0.00216691,0.248447,0.19045192031314118,0.4254734440795853,0.0038752996301403275,-0.014657812833272166,0.002169259446180405,-0.1447547422416896
658,0.6486,484.72,116.102,-0.0409501,239.693,5.77844,3.41065,0.174575,-0.0147951,-0.156579,0.354973,0.0038721,0.00216933,0.24879,0.19074004453948223,0.4261421479236527,0.0038796062644135265,-0.014686190279625477,0.0021716846987227534,-0.14493603501862107
659,0.6496,484.909,116.129,-0.0409689,239.77,5.7702,3.40598,0.174817,-0.014824,-0.156791,0.355442,0.00387638,0.00217175,0.249132,0.1910282385003237,0.4268111654633788,0.0038839028783230756,-0.0147146654372583,0.002174109957134407,-0.14511728936555746
660,0.6506,485.098,116.155,-0.0409874,239.846,5.76194,3.4013,0.175059,-0.0148528,-0.157003,0.355911,0.00388065,0.00217417,0.249474,0.19131650221254315,0.4274804968459214,0.003888189471740189,-0.01474304124628012,0.0021765352214149214,-0.14529850529064525
661,0.6516,485.287,116.182,-0.0410055,239.923,5.75366,3.3966,0.175301,-0.0148816,-0.157215,0.35638,0.00388491,0.00217658,0.249816,0.19160483569302245,0.4281501422185072,0.0038924660445365244,-0.014771416238090418,0.0021789504697753426,-0.14547968280202883
662,0.6526,485.475,116.208,-0.0410234,239.999,5.74536,3.39189,0.175543,-0.0149104,-0.157427,0.356848,0.00388915,0.00217898,0.250158,0.19189323895864785,0.4288186729090451,0.0038967225576163056,-0.014799790412712621,0.0021813557021426178,-0.14566082190785112
663,0.6536,485.664,116.235,-0.0410408,240.075,5.73704,3.38717,0.175785,-0.0149392,-0.157639,0.357317,0.00389339,0.00218137,0.2505,0.19218171202630918,0.42948894603340104,0.0039009790887438722,-0.014828163770170488,0.0021837509184450266,-0.14584192261625328
664,0.6546,485.852,116.261,-0.041058,240.151,5.72869,3.38244,0.176027,-0.0149681,-0.157851,0.357785,0.00389761,0.00218376,0.250842,0.1924702549129007,0.4301581034307622,0.00390521555981449,-0.014856634824828796,0.0021861461404719673,-0.1460229849353747
665,0.6556,486.04,116.288,-0.0410748,240.228,5.72033,3.3777,0.176268,-0.0149969,-0.158063,0.358253,0.00390182,0.00218615,0.251183,0.1927576748770492,0.4308275740670775,0.0039094420096685845,-0.014885006545191093,0.002188541368223662,-0.14620400887335294
666,0.6566,486.227,116.314,-0.0410913,240.304,5.71194,3.37294,0.17651,-0.0150257,-0.158274,0.35872,0.00390603,0.00218852,0.251525,0.19304635716351726,0.4314959265923348,0.003913668477316223,-0.014913377448459664,0.002190916557881284,-0.14638414082289175
667,0.6576,486.415,116.341,-0.0411075,240.379,5.70354,3.36817,0.176752,-0.0150545,-0.158486,0.359188,0.00391022,0.0021909,0.251866,0.19333510931955256,0.4321660234764202,0.0039178748843995415,-0.014941747534657934,0.0021933017751010198,-0.1465650882039371
668,0.6586,486.602,116.367,-0.0411233,240.455,5.69511,3.36339,0.176993,-0.0150834,-0.158697,0.359655,0.0039144,0.00219326,0.252207,0.19362273773873095,0.4328350012035249,0.003922071269887084,-0.014970215306792878,0.00219566695408413,-0.14674514397377436
669,0.6596,486.789,116.393,-0.0411388,240.531,5.68666,3.3586,0.177234,-0.0151122,-0.158909,0.360123,0.00391856,0.00219562,0.252548,0.19391043548471187,0.4335057249211962,0.0039262475943901975,-0.014998583756084427,0.0021980321386489976,-0.14692601483026368
670,0.6606,486.975,116.42,-0.0411539,240.607,5.6782,3.3538,0.177476,-0.015141,-0.15912,0.360589,0.00392272,0.00219797,0.252889,0.19419939677300468,0.4341738942603739,0.003930423936266969,-0.015026951388376397,0.002200387306791951,-0.14710599445261663
671,0.6616,487.162,116.446,-0.0411688,240.682,5.66971,3.34898,0.177717,-0.0151699,-0.159331,0.361056,0.00392687,0.00220032,0.25323,0.19448723351056074,0.43484380988211613,0.0039345902561713775,-0.015055416698155577,0.0022027424804693663,-0.14728593610327545
672,0.6626,487.348,116.472,-0.0411832,240.758,5.6612,3.34415,0.177958,-0.0151987,-0.159543,0.361523,0.003931,0.00220266,0.253571,0.19477513962513004,0.43551403842751557,0.003938736514591312,-0.01508378269368238,0.0022050876376307205,-0.14746669232398513
673,0.6636,487.534,116.499,-0.0411974,240.833,5.65267,3.33931,0.178199,-0.0152275,-0.159754,0.361989,0.00393512,0.00220499,0.253912,0.19506311513343477,0.43618314385888013,0.003942872750706261,-0.015112147872280213,0.0022074227782054034,-0.1476465578754218
674,0.6646,487.72,116.525,-0.0412112,240.908,5.64412,3.33446,0.17844,-0.0152564,-0.159965,0.362455,0.00393924,0.00220732,0.254252,0.19535116005220043,0.436852561166037,0.003947009003862689,-0.01514061071991657,0.0022097579242208454,-0.14782638547923066
675,0.6656,487.905,116.551,-0.0412247,240.983,5.63555,3.3296,0.178681,-0.0152852,-0.160176,0.362922,0.00394334,0.00220964,0.254592,0.1956392743981572,0.4375237280173634,0.00395112519503793,-0.0151689742618909,0.0022120830535563574,-0.14800617514341796
676,0.6666,488.09,116.577,-0.0412379,241.059,5.62696,3.32473,0.178922,-0.0153141,-0.160386,0.363387,0.00394743,0.00221196,0.254932,0.19592745818803903,0.43819233198926755,0.003955231363536926,-0.015197435467268372,0.002214408188286221,-0.14818507506148904
677,0.6676,488.276,116.603,-0.0412507,241.134,5.61835,3.31984,0.179163,-0.0153429,-0.160597,0.363853,0.00395151,0.00221427,0.255273,0.19621571143858385,0.4388626857962805,0.003959327509237109,-0.015225797372713457,0.002216723306243118,-0.14836478905015849
678,0.6686,488.46,116.63,-0.0412632,241.208,5.60972,3.31495,0.179403,-0.0153718,-0.160808,0.364319,0.00395558,0.00221657,0.255613,0.19650283766309773,0.4395333520609648,0.003963413632015245,-0.015254256935926747,0.0022190284073575484,-0.14854446512317654
679,0.6696,488.645,116.656,-0.0412754,241.283,5.60107,3.31004,0.179644,-0.0154006,-0.161019,0.364784,0.00395963,0.00221887,0.255952,0.19679122959680684,0.44020289072534835,0.003967479692074338,-0.015282617204937177,0.0022213335137737378,-0.1487241032885427
680,0.6706,488.829,116.682,-0.0412872,241.358,5.59241,3.30512,0.179884,-0.0154294,-0.161229,0.365249,0.00396368,0.00222116,0.256292,0.19707849396225496,0.4408727407976074,0.003971545768600926,-0.015310976657183506,0.002223628603255312,-0.14890285245753243
681,0.6716,489.013,116.708,-0.0412987,241.433,5.58372,3.30019,0.180125,-0.0154583,-0.161439,0.365714,0.00396771,0.00222344,0.256632,0.19736702464585076,0.44154290242258076,0.0039755917820829545,-0.01533943375875102,0.0022259136757336595,-0.14908156409313778
682,0.6726,489.197,116.734,-0.0413099,241.507,5.57501,3.29525,0.180365,-0.0154871,-0.16165,0.366179,0.00397174,0.00222572,0.256971,0.19765442721869508,0.4422133757451736,0.003979637811870607,-0.01536779157470436,0.0022281987534218395,-0.1492610889425765
683,0.6736,489.381,116.76,-0.0413207,241.582,5.56628,3.29029,0.180605,-0.015516,-0.16186,0.366643,0.00397575,0.002228,0.25731,0.19794189877643453,0.4428827180269199,0.003983663778290181,-0.01539624703434439,0.002230483836319852,-0.14943972535641858
684,0.6746,489.564,116.786,-0.0413312,241.656,5.55754,3.28533,0.180846,-0.0155448,-0.16207,0.367107,0.00397975,0.00223026,0.25765,0.19823063756566617,0.44355237095554934,0.003987679720977244,-0.015424603214098886,0.0022327488797728723,-0.14961832426055244
685,0.6756,489.748,116.812,-0.0413414,241.731,5.54877,3.28035,0.181086,-0.0155737,-0.162281,0.367572,0.00398374,0.00223252,0.257989,0.19851824743048518,0.44422377889829234,0.003991685639811227,-0.015453057031906359,0.002235013928344909,-0.14979773586554357
686,0.6766,489.931,116.838,-0.0413512,241.805,5.53999,3.27537,0.181326,-0.0156025,-0.162491,0.368036,0.00398772,0.00223478,0.258328,0.19880592632995553,0.4448940542235509,0.00399568153467178,-0.015481411575556492,0.0022372789820357397,-0.1499762595953641
687,0.6776,490.113,116.864,-0.0413608,241.879,5.53118,3.27037,0.181566,-0.0156314,-0.162701,0.368499,0.00399169,0.00223702,0.258666,0.19909367428064773,0.4455631950648078,0.003999667405439444,-0.015509863751625996,0.0022395239960550928,-0.15015474583913757
688,0.6786,490.296,116.89,-0.0413699,241.953,5.52236,3.26536,0.181806,-0.0156603,-0.16291,0.368963,0.00399564,0.00223927,0.259005,0.19938149129913585,0.4462340920233754,0.00400363321195818,-0.01553831510543957,0.0022417790375210966,-0.1503323449375049
689,0.6796,490.478,116.915,-0.0413788,242.027,5.51352,3.26034,0.182045,-0.0156891,-0.16312,0.369426,0.00399959,0.0022415,0.259344,0.19966817773322054,0.44690385344578676,0.00400759903414194,-0.015566667193692485,0.0022440140391803975,-0.1505107564112076
690,0.6806,490.66,116.941,-0.0413873,242.101,5.50466,3.25531,0.182285,-0.015718,-0.16333,0.36989,0.00400352,0.00224373,0.259682,0.19995613264908418,0.4475753726141847,0.004011544791759469,-0.0155951169059102,0.0022462490458237117,-0.1506891304224346
691,0.6816,490.842,116.967,-0.0413955,242.175,5.49578,3.25027,0.182525,-0.0157468,-0.16354,0.370353,0.00400745,0.00224595,0.260021,0.20024415668242135,0.44824575519329635,0.004015490564883928,-0.015623467358294896,0.002248474034966419,-0.15086746697905196
692,0.6826,491.024,116.993,-0.0414034,242.248,5.48688,3.24522,0.182764,-0.0157757,-0.163749,0.370816,0.00401136,0.00224817,0.260359,0.2005310493181729,0.44891644823140786,0.004019416273126852,-0.015651915429011565,0.0022506990290485085,-0.15104491713426627
693,0.6836,491.205,117.019,-0.0414109,242.322,5.47797,3.24016,0.183004,-0.0158045,-0.163959,0.371278,0.00401526,0.00225038,0.260697,0.20081921134806957,0.449586002285568,0.004023331956485965,-0.0156802642456223,0.0022529140055407293,-0.15122317898351878
694,0.6846,491.387,117.044,-0.0414181,242.396,5.46903,3.23509,0.183243,-0.0158334,-0.164168,0.371741,0.00401915,0.00225259,0.261035,0.20110624143831135,0.4502573160017591,0.004027237614843582,-0.015708710674932735,0.0022551289869283675,-0.15140055480269243
695,0.6856,491.568,117.07,-0.041425,242.469,5.46008,3.23,0.183482,-0.0158623,-0.164378,0.372203,0.00402303,0.00225478,0.261373,0.201393340136943,0.4509274896799511,0.00403113324808313,-0.01573715628215322,0.0022573239280643254,-0.15157874197587584
696,0.6866,491.748,117.096,-0.0414316,242.543,5.45111,3.22491,0.183722,-0.0158911,-0.164587,0.372665,0.0040269,0.00225698,0.26171,0.2016817091414722,0.451597973049916,0.004035018856087369,-0.015765502643862783,0.002259528896602303,-0.15175604349014926
697,0.6876,491.929,117.121,-0.0414378,242.616,5.44212,3.2198,0.183961,-0.01592,-0.164796,0.373127,0.00403075,0.00225916,0.262048,0.20196894539332177,0.452268766254764,0.004038884398351206,-0.015793946609819032,0.002261713824756928,-0.15193330795227822
698,0.6886,492.109,117.147,-0.0414437,242.689,5.43311,3.21469,0.1842,-0.0159489,-0.165005,0.373589,0.0040346,0.00226134,0.262386,0.20225625030284,0.45293986943767184,0.00404274995549736,-0.015822389753756605,0.0022638987576746317,-0.15211053537000596
699,0.6896,492.289,117.173,-0.0414492,242.762,5.42409,3.20956,0.184439,-0.0159777,-0.165214,0.37405,0.00403843,0.00226352,0.262723,0.20254362388643754,0.4536098291313271,0.004046595446593804,-0.015850733660777494,0.002266083695355414,-0.15228772575107385
700,0.6906,492.469,117.198,-0.0414545,242.835,5.41505,3.20443,0.184678,-0.0160066,-0.165423,0.374512,0.00404226,0.00226568,0.26306,0.20283106616052993,0.4542815520284271,0.004050440952418466,-0.01587917516359305,0.002268248592434352,-0.1524648791032217
701,0.6916,492.649,117.224,-0.0414594,242.908,5.40599,3.19928,0.184917,-0.0160355,-0.165632,0.374973,0.00404607,0.00226784,0.263397,0.20311857714153603,0.4549521303803463,0.004054266391885886,-0.015907615844460987,0.0022704134941895493,-0.15264199543418777
702,0.6926,492.828,117.249,-0.041464,242.981,5.39691,3.19413,0.185156,-0.0160643,-0.165841,0.375434,0.00404987,0.00227,0.263734,0.2034061568458787,0.4556230179401526,0.004058081805347502,-0.01593595729700581,0.002272578400620784,-0.15281907475170875
703,0.6936,493.008,117.275,-0.0414682,243.054,5.38781,3.18896,0.185394,-0.0160932,-0.16605,0.375895,0.00405366,0.00227215,0.264071,0.20369260159678126,0.4562942148504239,0.00406188719268874,-0.015964396336893727,0.002274733288980757,-0.15299611706351968
704,0.6946,493.187,117.3,-0.0414721,243.127,5.3787,3.18379,0.185633,-0.0161221,-0.166258,0.376355,0.00405744,0.00227429,0.264408,0.20398031850936427,0.45696426428881076,0.004065682553795691,-0.01599283455490541,0.0022768781592050757,-0.15317227555005275
705,0.6956,493.365,117.326,-0.0414758,243.199,5.36957,3.1786,0.185871,-0.0161509,-0.166467,0.376816,0.00406121,0.00227643,0.264745,0.20426689992700542,0.45763607965619224,0.0040694678885542235,-0.016021173553186663,0.0022790230340192785,-0.15334924405061034
706,0.6966,493.544,117.351,-0.041479,243.272,5.36042,3.1734,0.18611,-0.0161798,-0.166676,0.377276,0.00406496,0.00227856,0.265081,0.20455475411329305,0.45830674649438063,0.0040732331561186275,-0.016049610130360437,0.0022811578906118957,-0.15352617556861603
707,0.6976,493.722,117.377,-0.041482,243.344,5.35125,3.1682,0.186348,-0.0162087,-0.166884,0.377736,0.00406871,0.00228068,0.265417,0.2048414722628784,0.4589777219102822,0.004076998437802848,-0.01607804588572903,0.0022832827289189783,-0.15370222381444554
708,0.6986,493.9,117.402,-0.0414846,243.417,5.34207,3.16298,0.186587,-0.0162375,-0.167092,0.378196,0.00407244,0.0022828,0.265754,0.2051294637883656,0.4596490060458751,0.004080743651991847,-0.01610638242995932,0.00228540757173068,-0.15387823544604784
709,0.6996,494.078,117.428,-0.0414869,243.489,5.33287,3.15775,0.186825,-0.0162664,-0.167301,0.378656,0.00407617,0.00228491,0.26609,0.2054163187351319,0.4603205990432033,0.004084488880150561,-0.016134816544632224,0.002287522396171804,-0.1540550564164046
710,0.7006,494.256,117.453,-0.0414889,243.561,5.32365,3.15252,0.187063,-0.0162953,-0.167509,0.379116,0.00407988,0.00228702,0.266426,0.20570324196150058,0.4609925010443756,0.004088214040514515,-0.016163249837571003,0.0022896372250753583,-0.15423099466645762
711,0.7016,494.434,117.478,-0.0414905,243.634,5.31441,3.14727,0.187301,-0.0163242,-0.167717,0.379575,0.00408358,0.00228912,0.266762,0.2059902334837238,0.46166325052758506,0.004091929173779318,-0.016191682308799527,0.002291742035523514,-0.15440689632516036
712,0.7026,494.611,117.504,-0.0414919,243.706,5.30516,3.14202,0.187539,-0.016353,-0.167925,0.380034,0.00408727,0.00229121,0.267098,0.2062772933180581,0.46233430795547537,0.0040956342798339485,-0.016220015580347913,0.0022938368274534326,-0.15458276140012284
713,0.7036,494.788,117.529,-0.0414929,243.778,5.29589,3.13675,0.187777,-0.0163819,-0.168133,0.380493,0.00409095,0.0022933,0.267433,0.20656442148076382,0.46300567346942545,0.004099329358567161,-0.01624844641107015,0.0022959316237614047,-0.15475858989895375
714,0.7046,494.965,117.554,-0.0414935,243.85,5.28661,3.13148,0.188015,-0.0164108,-0.168341,0.380952,0.00409462,0.00229538,0.267769,0.20685161798810503,0.46367734721087905,0.004103014409867933,-0.016276876420153297,0.0022980164014674287,-0.15493438182926023
715,0.7056,495.142,117.579,-0.0414939,243.921,5.27731,3.12619,0.188253,-0.0164397,-0.168549,0.381411,0.00409827,0.00229746,0.268104,0.20713888285634963,0.4643493293213454,0.004106679392559043,-0.016305305607621,0.0023001011835095397,-0.15511013719864775
716,0.7066,495.318,117.605,-0.0414939,243.993,5.26799,3.1209,0.18849,-0.0164685,-0.168756,0.381869,0.00410192,0.00229952,0.26844,0.20742500867615687,0.4650201549215107,0.0041103443886274516,-0.016333635606865626,0.00230216592384469,-0.1552850113001536
717,0.7076,495.494,117.63,-0.0414936,244.065,5.25865,3.1156,0.188728,-0.0164974,-0.168964,0.382327,0.00410555,0.00230159,0.268775,0.20771241002762597,0.46569128783016933,0.0041139893157930985,-0.01636206315401645,0.002304240691475501,-0.15546069374619542
718,0.7086,495.67,117.655,-0.041493,244.136,5.2493,3.11028,0.188965,-0.0165263,-0.169172,0.382785,0.00410917,0.00230364,0.26911,0.20799867178948128,0.46636272818810043,0.004117624215013604,-0.016390489879623216,0.002306295417275228,-0.15563633965408852
719,0.7096,495.846,117.68,-0.0414921,244.208,5.23993,3.10496,0.189203,-0.0165552,-0.169379,0.383243,0.00411279,0.00230569,0.269445,0.20828620968902012,0.46703447613614846,0.004121259127392474,-0.016418915783709354,0.0023083501472869195,-0.15581110484295901
720,0.7106,496.022,117.705,-0.0414908,244.279,5.23055,3.09963,0.18944,-0.016584,-0.169587,0.383701,0.00411639,0.00230774,0.26978,0.20857260745751138,0.46770653181522137,0.004124873970432041,-0.016447242511028026,0.002310404881510797,-0.15598667787292364
721,0.7116,496.197,117.73,-0.0414892,244.351,5.22115,3.09429,0.189678,-0.0166129,-0.169794,0.384159,0.00411998,0.00230978,0.270114,0.2088602819699954,0.46837889536629285,0.004128478785200285,-0.016475666774986797,0.002312449596822308,-0.15616137054928814
722,0.7126,496.372,117.755,-0.0414873,244.422,5.21173,3.08894,0.189915,-0.0166418,-0.170001,0.384616,0.00412356,0.00231181,0.270449,0.20914681580974093,0.469050097879568,0.004132073571588846,-0.016504090217496326,0.0023144842931601683,-0.15633602706801109
723,0.7136,496.547,117.78,-0.0414851,244.493,5.2023,3.08358,0.190152,-0.0166707,-0.170208,0.385073,0.00412712,0.00231383,0.270783,0.2094334175660546,0.4697216072024921,0.004135648288133842,-0.01653251283858015,0.0023165089704633157,-0.15651064743657628
724,0.7146,496.722,117.805,-0.0414825,244.564,5.19285,3.07821,0.190389,-0.0166995,-0.170416,0.38553,0.00413068,0.00231585,0.271118,0.209720087255034,0.47039342347530977,0.0041392230174046585,-0.016560836294350678,0.0023185336518565247,-0.15668607497681286
725,0.7156,496.897,117.83,-0.0414797,244.635,5.18339,3.07283,0.190626,-0.0167284,-0.170623,0.385987,0.00413423,0.00231787,0.271452,0.21000682489278133,0.4710655468383287,0.004142787717973828,-0.01658925727549665,0.0023205583373393512,-0.1568606228929601
726,0.7166,497.071,117.855,-0.0414765,244.706,5.17391,3.06744,0.190863,-0.0167573,-0.17083,0.386444,0.00413776,0.00231987,0.271786,0.2102936304954024,0.4717379774319215,0.004146332348270665,-0.01661767743528808,0.0023225629804606296,-0.15703513468142805
727,0.7176,497.245,117.88,-0.041473,244.777,5.16441,3.06205,0.1911,-0.0167862,-0.171037,0.3869,0.00414128,0.00232187,0.27212,0.21058050407900675,0.4724092429865452,0.0041498669495814156,-0.01664609677374873,0.0023245676275913674,-0.15720961034969427
728,0.7186,497.419,117.905,-0.0414691,244.848,5.1549,3.05664,0.191337,-0.016815,-0.171243,0.387357,0.00414479,0.00232387,0.272454,0.21086744565970772,0.4730822877896137,0.004153391521800165,-0.016674416958349036,0.0023265722787311205,-0.15738320728886357
729,0.7196,497.593,117.93,-0.041465,244.919,5.14537,3.05123,0.191573,-0.0168439,-0.17145,0.387813,0.0041483,0.00232586,0.272787,0.21115324409977276,0.47375416648954705,0.004156916106389907,-0.01670283465706124,0.002328566910594576,-0.1575576109135569
730,0.7206,497.767,117.955,-0.0414605,244.99,5.13583,3.04581,0.19181,-0.0168728,-0.171657,0.388269,0.00415179,0.00232784,0.273121,0.21144032143594504,0.4744263516360321,0.0041604206201426575,-0.016731251534513825,0.002330551523122004,-0.15773197844043618
731,0.7216,497.94,117.98,-0.0414557,245.06,5.12627,3.04037,0.192046,-0.0169017,-0.171863,0.388724,0.00415526,0.00232982,0.273455,0.21172625509064802,0.47509736827073445,0.004163905062847695,-0.016759667590730443,0.0023325361395787336,-0.15790546778286163
732,0.7226,498.113,118.005,-0.0414506,245.131,5.1167,3.03493,0.192283,-0.0169306,-0.17207,0.38918,0.00415873,0.00233179,0.273788,0.21201346824651912,0.4757701660569029,0.004167389517643727,-0.016788082825734962,0.0023345107366199436,-0.15807976331082108
733,0.7236,498.286,118.03,-0.0414452,245.201,5.10711,3.02948,0.192519,-0.0169594,-0.172276,0.389635,0.00416219,0.00233375,0.274121,0.21229953717983174,0.4764417942662895,0.004170863942822178,-0.016816398921195908,0.002336475314186126,-0.15825318101694208
734,0.7246,498.459,118.055,-0.0414395,245.271,5.09751,3.02403,0.192756,-0.0169883,-0.172483,0.390091,0.00416563,0.00233571,0.274454,0.2125868862196596,0.4771152052505103,0.004174318296535695,-0.016844812516688568,0.002338439895603006,-0.15842740457571103
735,0.7256,498.631,118.079,-0.0414334,245.342,5.08789,3.01856,0.192992,-0.0170172,-0.172689,0.390546,0.00416907,0.00233766,0.274787,0.21287309049558356,0.4777874455919795,0.004177772662132151,-0.016873225291040295,0.002340394457466699,-0.15860075067510726
736,0.7266,498.804,118.104,-0.041427,245.412,5.07826,3.01308,0.193228,-0.0170461,-0.172895,0.391,0.00417249,0.00233961,0.27512,0.2131593623236876,0.47845851341314716,0.004181206955987227,-0.016901637244274736,0.0023423490231415656,-0.1587740610688847
737,0.7276,498.976,118.129,-0.0414203,245.482,5.06861,3.0076,0.193464,-0.0170749,-0.173101,0.391455,0.00417591,0.00234155,0.275453,0.21344570171991561,0.47913136509890064,0.004184641261587574,-0.016929950069415445,0.002344293569184863,-0.15894733576439812
738,0.7286,499.148,118.154,-0.0414133,245.552,5.05895,3.00211,0.1937,-0.0171038,-0.173307,0.39191,0.00417931,0.00234348,0.275786,0.21373210870021597,0.4798045230018302,0.004188055495172094,-0.01695836038332743,0.0023462280955381942,-0.15912057476900054
739,0.7296,499.319,118.178,-0.041406,245.622,5.04927,2.99661,0.193936,-0.0171327,-0.173513,0.392364,0.0041827,0.00234541,0.276118,0.21401858328054013,0.4804765067840493,0.004191459698450473,-0.016986769876193186,0.0023481626256252053,-0.15929377809004353
740,0.7306,499.491,118.203,-0.0413984,245.692,5.03957,2.9911,0.194172,-0.0171616,-0.173719,0.392818,0.00418608,0.00234733,0.276451,0.21430512547684355,0.4811487957161693,0.004194853871320348,-0.01701517854803647,0.002350087135944978,-0.1594669457348773
741,0.7316,499.662,118.228,-0.0413904,245.762,5.02987,2.98558,0.194408,-0.0171905,-0.173925,0.393272,0.00418944,0.00234924,0.276783,0.21459173530508546,0.4818213899367598,0.004198227971697888,-0.01704358639888104,0.0023520016264397814,-0.1596400777108501
742,0.7326,499.833,118.252,-0.0413821,245.832,5.02014,2.98005,0.194643,-0.0172193,-0.174131,0.393726,0.0041928,0.00235115,0.277115,0.21487719790342386,0.4824942895844533,0.004201602083412359,-0.01707189513594498,0.002353916120591215,-0.15981317402530915
743,0.7336,500.004,118.277,-0.0413736,245.901,5.01041,2.97452,0.194879,-0.0172482,-0.174337,0.39418,0.00419615,0.00235305,0.277447,0.2151639427566907,0.48316749479794474,0.004204966164414126,-0.017100301347703795,0.0023558205948410738,-0.15998623468559992
744,0.7346,500.175,118.301,-0.0413647,245.971,5.00066,2.96898,0.195114,-0.0172771,-0.174542,0.394633,0.00419948,0.00235495,0.277779,0.21544953983958148,0.4838395218757292,0.004208310172519214,-0.01712870673853495,0.0023577250727095933,-0.16015841985790613
745,0.7356,500.346,118.326,-0.0413554,246.04,4.99089,2.96343,0.19535,-0.017306,-0.174748,0.395086,0.00420281,0.00235684,0.278111,0.21573641978148528,0.4845118534507433,0.004211654191759839,-0.017157111308462203,0.0023596195306001544,-0.16033140940488033
746,0.7366,500.516,118.35,-0.0413459,246.11,4.98111,2.95787,0.195585,-0.0173348,-0.174953,0.395539,0.00420612,0.00235872,0.278443,0.21602215141228553,0.4851844896609556,0.004214978137836445,-0.017185416776055784,0.0023615039684563577,-0.16050352382362165
747,0.7376,500.686,118.375,-0.0413361,246.179,4.97132,2.9523,0.19582,-0.0173637,-0.175159,0.395992,0.00420942,0.0023606,0.278774,0.2163079501979095,0.485857430644397,0.004218292052732275,-0.017213819707086686,0.0023633884098550606,-0.1606764422865008
748,0.7386,500.856,118.4,-0.0413259,246.248,4.96151,2.94672,0.196056,-0.0173926,-0.175364,0.396445,0.00421271,0.00236247,0.279106,0.21659503274856484,0.48653067653916104,0.004221595936347855,-0.01724222181728463,0.0023652628311439106,-0.16084848598075097
749,0.7396,501.026,118.424,-0.0413155,246.318,4.95169,2.94114,0.196291,-0.0174215,-0.175569,0.396898,0.00421599,0.00236434,0.279437,0.2168809661771227,0.48720422748340386,0.004224889788584596,-0.01727062310667349,0.0023671372559381787,-0.1610204944096585
750,0.7406,501.195,118.448,-0.0413047,246.387,4.94185,2.93555,0.196526,-0.0174503,-0.175774,0.39735,0.00421926,0.0023662,0.279768,0.21716696680793213,0.4878765957380047,0.004228173609343244,-0.017298925305174406,0.0023690016605473208,-0.16119246758045225
751,0.7416,501.365,118.473,-0.0412936,246.456,4.932,2.92995,0.196761,-0.0174792,-0.17598,0.397802,0.00422252,0.00236805,0.280099,0.21745303465678778,0.48854926797175047,0.004231447398525434,-0.017327324955856205,0.0023708560449156035,-0.16136524413553455
752,0.7426,501.534,118.497,-0.0412822,246.525,4.92214,2.92434,0.196996,-0.0175081,-0.176185,0.398254,0.00422576,0.0023699,0.28043,0.21773916973948748,0.4892222443220713,0.004234701113686068,-0.01735572378579986,0.0023727104327146975,-0.16153714663987806
753,0.7436,501.703,118.522,-0.0412705,246.594,4.91226,2.91873,0.197231,-0.017537,-0.17639,0.398706,0.004229,0.00237174,0.280761,0.21802537207183326,0.4898955249264587,0.004237954839388713,-0.01738412179502924,0.0023745548001985473,-0.16170901390782
754,0.7446,501.872,118.546,-0.0412585,246.663,4.90237,2.9131,0.197466,-0.0175658,-0.176594,0.399158,0.00423222,0.00237358,0.281092,0.21831164166963046,0.4905691099224665,0.0042411884908093445,-0.01741242072481508,0.002376399171076349,-0.16188000782701006
755,0.7456,502.04,118.57,-0.0412461,246.732,4.89247,2.90747,0.1977,-0.0175947,-0.176799,0.399609,0.00423544,0.00237541,0.281423,0.218596759951319,0.4912415082054571,0.004244422152642535,-0.017440817095526584,0.0023782335215651873,-0.16205180481561254
756,0.7466,502.209,118.595,-0.0412335,246.8,4.88255,2.90183,0.197935,-0.0176236,-0.177004,0.400061,0.00423864,0.00237723,0.281753,0.21888316384104667,0.4919157017234228,0.0042476357399352516,-0.017469212645594867,0.00238005785161044,-0.16222356658944204
757,0.7476,502.377,118.619,-0.0412206,246.869,4.87262,2.89619,0.198169,-0.0176524,-0.177209,0.400512,0.00424183,0.00237904,0.282084,0.2191684158745717,0.49258870745628514,0.004250839295002917,-0.017497509124799415,0.0023818721611570393,-0.16239529315571677
758,0.7486,502.545,118.643,-0.0412073,246.937,4.86268,2.89053,0.198404,-0.0176813,-0.177413,0.400963,0.00424501,0.00238086,0.282414,0.21945495411922722,0.4932620167831887,0.004254032817749609,-0.017525903036491708,0.00238369649782455,-0.16256614708821926
759,0.7496,502.713,118.668,-0.0411937,247.006,4.85272,2.88487,0.198638,-0.0177102,-0.177618,0.401414,0.00424818,0.00238266,0.282744,0.21974033996733322,0.49393562984108463,0.004257216308079403,-0.017554296127611724,0.0023855007901021352,-0.16273780343268973
760,0.7506,502.881,118.692,-0.0411799,247.074,4.84275,2.8792,0.198873,-0.0177391,-0.177822,0.401864,0.00425134,0.00238446,0.283074,0.22002701262994417,0.49460805215818726,0.0042603897658970435,-0.017582688398183444,0.0023873050856273448,-0.1629085875002223
761,0.7516,503.048,118.716,-0.0411657,247.143,4.83276,2.87352,0.199107,-0.0177679,-0.178026,0.402315,0.00425449,0.00238625,0.283404,0.2203125323554045,0.4952822724149504,0.00426355319110705,-0.017610981609333387,0.0023890993605093502,-0.16307933673135855
762,0.7526,503.215,118.74,-0.0411512,247.211,4.82277,2.86784,0.199341,-0.0177968,-0.178231,0.402765,0.00425762,0.00238804,0.283734,0.22059811890029835,0.49595530085757944,0.004266696540947912,-0.017639372241718188,0.002390893638603009,-0.16325088788273479
763,0.7536,503.382,118.764,-0.0411364,247.279,4.81276,2.86215,0.199575,-0.0178257,-0.178435,0.403215,0.00426075,0.00238982,0.284064,0.220883772280263,0.49662863223116194,0.00426983990062757,-0.017667762053625635,0.002392677895981743,-0.1634215672917151
764,0.7546,503.549,118.789,-0.0411213,247.347,4.80273,2.85645,0.199809,-0.0178545,-0.178639,0.403665,0.00426386,0.00239159,0.284393,0.22116949251093998,0.49730226667204747,0.004272963184686285,-0.017696052814689667,0.0023944521325918178,-0.1635922118856472
765,0.7556,503.716,118.813,-0.0411059,247.415,4.7927,2.85074,0.200043,-0.0178834,-0.178843,0.404115,0.00426697,0.00239336,0.284723,0.22145527960797384,0.49797620431664735,0.004276086478458563,-0.017724440988552193,0.0023962263723422694,-0.1637628216716327
766,0.7566,503.882,118.837,-0.0410902,247.483,4.78265,2.84503,0.200277,-0.0179123,-0.179047,0.404564,0.00427006,0.00239512,0.285052,0.2217411335870132,0.49864894665173765,0.004279189696360097,-0.01775282834200842,0.0023979905912532296,-0.16393339665677165
767,0.7576,504.049,118.861,-0.0410742,247.551,4.77259,2.83931,0.200511,-0.0179411,-0.179251,0.405014,0.00427314,0.00239688,0.285381,0.2220270544637104,0.49932349043870006,0.004282282881028054,-0.01778111665319848,0.0023997548132692614,-0.1641039368481627
768,0.7586,504.215,118.885,-0.0410579,247.619,4.76251,2.83358,0.200744,-0.01797,-0.179455,0.405463,0.00427621,0.00239863,0.285711,0.22231181994129035,0.4999968378410866,0.0042853660323689535,-0.017809502368751673,0.0024015090143749696,-0.1642744422529031
769,0.7596,504.381,118.909,-0.0410412,247.687,4.75243,2.82784,0.200978,-0.0179989,-0.179659,0.405912,0.00427927,0.00240037,0.28604,0.22259787437422007,0.5006704876443406,0.004288439150290868,-0.01783788726396951,0.0024032531945181734,-0.1644449128780886
770,0.7606,504.546,118.933,-0.0410243,247.755,4.74233,2.8221,0.201212,-0.0180277,-0.179862,0.406361,0.00428232,0.00240211,0.286368,0.22288399575171924,0.5013444399842708,0.00429150223470165,-0.017866173125497875,0.002404997377696061,-0.1646145133457444
771,0.7616,504.712,118.957,-0.0410071,247.822,4.73222,2.81635,0.201445,-0.0180566,-0.180066,0.40681,0.00428536,0.00240384,0.286697,0.22316896091988214,0.5020186949967465,0.0042945552855089275,-0.017894556382954563,0.002406731539841722,-0.16478491460350264
772,0.7626,504.877,118.981,-0.0409896,247.89,4.72209,2.81059,0.201679,-0.0180854,-0.180269,0.407258,0.00428838,0.00240556,0.287026,0.22345521594726958,0.5026917501251968,0.004297588259645657,-0.017922840612435875,0.0024084556809027546,-0.1649544460578133
773,0.7636,505.043,119.005,-0.0409717,247.957,4.71196,2.80483,0.201912,-0.0181143,-0.180473,0.407707,0.0042914,0.00240728,0.287354,0.22374031422524476,0.5033666102157555,0.004300621242942171,-0.017951222232225783,0.002410179824929193,-0.16512477797637115
774,0.7646,505.208,119.029,-0.0409536,248.025,4.70181,2.79906,0.202145,-0.0181432,-0.180676,0.408155,0.00429441,0.002409,0.287683,0.22402547893885827,0.5040402693455102,0.004303644192361622,-0.017979603031798685,0.0024119039719212587,-0.1652942404454194
775,0.7656,505.372,119.053,-0.0409351,248.092,4.69165,2.79328,0.202378,-0.018172,-0.18088,0.408603,0.0042974,0.0024107,0.288011,0.22431071010359127,0.5047142303421679,0.004306647064747038,-0.018007884811971797,0.002413608073606577,-0.1654645030529921
776,0.7666,505.537,119.077,-0.0409164,248.159,4.68148,2.78749,0.202611,-0.0182009,-0.181083,0.409051,0.00430038,0.0024124,0.288339,0.22459600773492872,0.5053884933409958,0.004309639903014473,-0.018036263974019917,0.002415312178188689,-0.16563389656484917
777,0.7676,505.702,119.101,-0.0408974,248.227,4.67129,2.7817,0.202844,-0.0182297,-0.181286,0.409498,0.00430335,0.0024141,0.288667,0.22488137184835932,0.5060615524150152,0.004312622707074665,-0.018064544122381343,0.002417016285667817,-0.16580325569331333
778,0.7686,505.866,119.125,-0.040878,248.294,4.6611,2.7759,0.203077,-0.0182586,-0.181489,0.409946,0.00430631,0.00241579,0.288995,0.2251668024593747,0.5067364191493582,0.004315595476837464,-0.01809292164699905,0.0024187103718569247,-0.16597258044536378
779,0.7696,506.03,119.149,-0.0408584,248.361,4.65089,2.7701,0.20331,-0.0182875,-0.181692,0.410393,0.00430926,0.00241747,0.289323,0.22545229958347113,0.5074100808808981,0.004318558212214052,-0.0181212983515181,0.0024203944367049424,-0.16614187082797816
780,0.7706,506.194,119.172,-0.0408385,248.428,4.64067,2.76429,0.203543,-0.0183163,-0.181895,0.41084,0.0043122,0.00241915,0.289651,0.22573786323614775,0.5080840438065437,0.004321510913115834,-0.01814957605092471,0.0024220785043822524,-0.16631112684813276
781,0.7716,506.357,119.196,-0.0408182,248.495,4.63044,2.75847,0.203776,-0.0183452,-0.182098,0.411287,0.00431513,0.00242082,0.289979,0.2260234934329075,0.508758308060959,0.004324453579453769,-0.018177951118155122,0.0024237525506511925,-0.16648034851280258
782,0.7726,506.521,119.22,-0.0407977,248.562,4.62019,2.75264,0.204008,-0.018374,-0.182301,0.411734,0.00431805,0.00242248,0.290306,0.22630796388067997,0.5094328737788683,0.0043273862111399275,-0.018206227185985635,0.002425416575461581,-0.1666495358289608
783,0.7736,506.684,119.244,-0.0407769,248.629,4.60994,2.74681,0.204241,-0.0184029,-0.182504,0.412181,0.00432096,0.00242414,0.290634,0.22659372692636603,0.5101077410950556,0.0043303088080861585,-0.01823460061602189,0.002427080603034204,-0.16681868880357975
784,0.7746,506.848,119.267,-0.0407557,248.695,4.59967,2.74097,0.204474,-0.0184317,-0.182706,0.412627,0.00432385,0.00242579,0.290961,0.2268795565625994,0.5107813993622108,0.004333211326872588,-0.018262875052370342,0.002428734609081662,-0.16698697443102084
785,0.7756,507.01,119.291,-0.0407343,248.762,4.5894,2.73512,0.204706,-0.0184606,-0.182909,0.413074,0.00432674,0.00242744,0.291288,0.22716422564005812,0.5114568696040775,0.004336113854047641,-0.01829124684530692,0.002430388617858492,-0.1671560589125558
786,0.7766,507.173,119.315,-0.0407126,248.829,4.57911,2.72927,0.204938,-0.0184894,-0.183111,0.41352,0.00432961,0.00242908,0.291615,0.22744896076840448,0.5121311297167495,0.004338996302830633,-0.018319519650267457,0.0024320326050437657,-0.16732427639811742
787,0.7776,507.336,119.339,-0.0406906,248.895,4.56881,2.72341,0.205171,-0.0185183,-0.183314,0.413966,0.00433247,0.00243071,0.291942,0.22773498969733952,0.5128056906165019,0.0043418687164675784,-0.018347889806198836,0.002433666570588633,-0.16749329241430255
788,0.7786,507.498,119.362,-0.0406683,248.962,4.5585,2.71755,0.205403,-0.0185471,-0.183516,0.414411,0.00433532,0.00243234,0.292269,0.22801985725830876,0.5134790389577206,0.004344731094872323,-0.018376160979865497,0.002435300538796925,-0.16766144178557663
789,0.7796,507.661,119.386,-0.0406457,249.028,4.54817,2.71168,0.205635,-0.018576,-0.183718,0.414857,0.00433816,0.00243396,0.292595,0.22830479091621902,0.514154201159075,0.004347583437958935,-0.018404529498886157,0.0024369244852990857,-0.16782955719410797
790,0.7806,507.823,119.41,-0.0406228,249.094,4.53784,2.7058,0.205867,-0.0186048,-0.183921,0.415303,0.00434099,0.00243558,0.292922,0.2285897906864065,0.5148296645499313,0.004350425745641928,-0.0184327990413532,0.0024385484344322528,-0.16799847064870188
791,0.7816,507.985,119.433,-0.0405996,249.16,4.52749,2.69992,0.206099,-0.0186337,-0.184123,0.415748,0.00434381,0.00243719,0.293248,0.22887485658421136,0.5155039137599788,0.004353258017836037,-0.01846116592355751,0.0024401623617944512,-0.16816651798427862
792,0.7826,508.146,119.457,-0.0405761,249.227,4.51714,2.69403,0.206331,-0.0186625,-0.184325,0.416193,0.00434662,0.00243879,0.293575,0.22915998862497666,0.5161784630776936,0.00435608025445644,-0.018489433834918967,0.0024417662673372753,-0.1683345313777217
793,0.7836,508.308,119.48,-0.0405523,249.293,4.50677,2.68813,0.206563,-0.0186914,-0.184527,0.416638,0.00434942,0.00244039,0.293901,0.22944518682404946,0.5168533126366537,0.004358892455418095,-0.01851779908040141,0.002443370175446491,-0.16850251083588696
794,0.7846,508.469,119.504,-0.0405282,249.359,4.4964,2.68223,0.206795,-0.0187202,-0.184729,0.417083,0.00435221,0.00244198,0.294227,0.22973045119678037,0.5175284625704959,0.004361694620637069,-0.01854606536075154,0.0024449640616721613,-0.1686704563656285
795,0.7856,508.631,119.527,-0.0405039,249.425,4.48601,2.67632,0.207026,-0.018749,-0.184931,0.417527,0.00435498,0.00244357,0.294553,0.23001455174335672,0.5182023948097629,0.0043644767063844014,-0.018574330827044405,0.0024465579504320267,-0.16883836797379925
796,0.7866,508.792,119.551,-0.0404792,249.491,4.47561,2.6704,0.207258,-0.0187779,-0.185132,0.417972,0.00435775,0.00244515,0.294879,0.23029994822407285,0.5188781452187681,0.004367258799838014,-0.018602693619039212,0.002448141817244842,-0.16900541467308083
797,0.7876,508.952,119.574,-0.0404543,249.557,4.4652,2.66448,0.207489,-0.0188067,-0.185334,0.418416,0.0043605,0.00244672,0.295205,0.230584180339658,0.5195526768501861,0.004370020813597497,-0.01863095745446186,0.00244971566206309,-0.1691732586265069
798,0.7886,509.113,119.598,-0.040429,249.622,4.45478,2.65856,0.207721,-0.0188356,-0.185536,0.41886,0.00436324,0.00244829,0.295531,0.2308697089895395,0.5202275080401457,0.004372772791224833,-0.01865931860997072,0.002451289509352028,-0.16934106867887844
799,0.7896,509.274,119.621,-0.0404035,249.688,4.44435,2.65262,0.207952,-0.0188644,-0.185737,0.419304,0.00436598,0.00244985,0.295856,0.23115407273506428,0.5209026389216802,0.004375524776392359,-0.018687580814617077,0.00245285333458356,-0.16950801434547247
800,0.7906,509.434,119.645,-0.0403777,249.754,4.43391,2.64668,0.208184,-0.0188932,-0.185939,0.419748,0.0043687,0.00245141,0.296182,0.23143973361531955,0.5215780696278822,0.004378256681535131,-0.01871584220532363,0.002454417162254474,-0.16967575678401792
801,0.7916,509.594,119.668,-0.0403516,249.819,4.42346,2.64074,0.208415,-0.0189221,-0.18614,0.420191,0.00437141,0.00245296,0.296507,0.2317242290517425,0.5222522780388643,0.004380978550299064,-0.018744200907698683,0.0024559709678053654,-0.16984263518506326
802,0.7926,509.754,119.692,-0.0403252,249.885,4.413,2.63479,0.208646,-0.0189509,-0.186342,0.420635,0.00437411,0.0024545,0.296832,0.2320087902142025,0.5229283081178853,0.004383690382602001,-0.018772460667770052,0.0024575147511893825,-0.1700103100370257
803,0.7936,509.914,119.715,-0.0402985,249.95,4.40253,2.62883,0.208877,-0.0189797,-0.186543,0.421078,0.0043768,0.00245604,0.297157,0.23229341711788365,0.5236031148170295,0.004386392178363119,-0.018800719613972006,0.002459058536950831,-0.1701771211996248
804,0.7946,510.073,119.738,-0.0402716,250.016,4.39204,2.62287,0.209108,-0.0190086,-0.186744,0.421521,0.00437948,0.00245757,0.297482,0.23257810977797422,0.5242782205217662,0.004389083937501148,-0.018829075863425415,0.002460592300483677,-0.17034389883654966
805,0.7956,510.233,119.762,-0.0402443,250.081,4.38155,2.6169,0.209339,-0.0190374,-0.186945,0.421964,0.00438214,0.00245909,0.297807,0.2328628682096654,0.5249536253645846,0.0043917556160175675,-0.018857333179133184,0.0024621160417419574,-0.17051064295453822
806,0.7966,510.392,119.785,-0.0402168,250.146,4.37105,2.61093,0.20957,-0.0190662,-0.187146,0.422407,0.0043848,0.00246061,0.298132,0.2331476924281526,0.5256293294780316,0.0043944273016409685,-0.018885589681042037,0.002463639785316385,-0.1706773535603272
807,0.7976,510.551,119.808,-0.0401889,250.212,4.36054,2.60495,0.209801,-0.019095,-0.187347,0.422849,0.00438745,0.00246213,0.298456,0.23343258244863407,0.526303806690144,0.004397088950399919,-0.018913845369175397,0.0024651635312069597,-0.1708440306606519
808,0.7986,510.71,119.832,-0.0401608,250.277,4.35002,2.59896,0.210031,-0.0191239,-0.187548,0.423292,0.00439008,0.00246364,0.298781,0.2337163045693904,0.5269801090664239,0.004399730518217515,-0.018942198349341632,0.0024666772547468074,-0.17101067426224603
809,0.7996,510.869,119.855,-0.0401324,250.342,4.33949,2.59297,0.210262,-0.0191527,-0.187749,0.423734,0.0043927,0.00246514,0.299105,0.23400132595444845,0.5276551834550807,0.00440236204895883,-0.01897045240716888,0.002468180955890409,-0.17117728437184243
810,0.8006,511.027,119.878,-0.0401038,250.407,4.32895,2.58697,0.210493,-0.0191815,-0.18795,0.424176,0.00439532,0.00246663,0.29943,0.23428641318705168,0.5283305562925695,0.00440499358659463,-0.018998705651290804,0.002469674634592911,-0.17134386099617205
811,0.8016,511.186,119.901,-0.0400748,250.472,4.3184,2.58097,0.210723,-0.0192103,-0.188151,0.424618,0.00439792,0.00246812,0.299754,0.23457033171146335,0.5290062277108343,0.004407605042972884,-0.01902695808173116,0.0024711683155207442,-0.17151040414196506
812,0.8026,511.344,119.924,-0.0400456,250.536,4.30784,2.57496,0.210954,-0.0192391,-0.188351,0.42506,0.00440051,0.00246961,0.300078,0.23485555039957884,0.5296821978418762,0.004410206462038824,-0.019055209698513154,0.0024726619986743525,-0.17167608549244928
813,0.8036,511.502,119.948,-0.040016,250.601,4.29727,2.56895,0.211184,-0.019268,-0.188552,0.425501,0.00440309,0.00247108,0.300402,0.23513959984060429,0.5303569364600547,0.004412797843714289,-0.019083558593309347,0.002474135634570551,-0.1718425618678291
814,0.8046,511.66,119.971,-0.0399862,250.666,4.28669,2.56293,0.211414,-0.0192968,-0.188752,0.425943,0.00440566,0.00247255,0.300726,0.2354237146205147,0.5310335037363232,0.004415379187921786,-0.01911180858002015,0.002475609272633239,-0.17200817679341096
815,0.8056,511.818,119.994,-0.0399561,250.731,4.2761,2.55691,0.211644,-0.0193256,-0.188953,0.426384,0.00440822,0.00247402,0.301049,0.23570789475434006,0.5317088384118218,0.004417950494583822,-0.01914005775314298,0.002477082912861972,-0.17217458642514716
816,0.8066,511.975,120.017,-0.0399258,250.795,4.2655,2.55088,0.211875,-0.0193544,-0.189153,0.426825,0.00441077,0.00247548,0.301373,0.2359933762498716,0.532384470975592,0.004420511763623125,-0.019168306112701372,0.002478546530471304,-0.1723401349524576
817,0.8076,512.133,120.04,-0.0398951,250.86,4.25489,2.54484,0.212105,-0.0193832,-0.189353,0.427266,0.00441331,0.00247693,0.301697,0.23627768742094046,0.5330604015590312,0.0044230629949630895,-0.01919655365871864,0.002480000125417714,-0.1725056503733733
818,0.8086,512.29,120.063,-0.0398642,250.924,4.24428,2.5388,0.212335,-0.019412,-0.189554,0.427707,0.00441584,0.00247838,0.30202,0.23656206399109925,0.5337366302935953,0.00442560418852711,-0.019224800391218433,0.0024814537224717714,-0.17267196002296858
819,0.8096,512.447,120.086,-0.039833,250.989,4.23365,2.53276,0.212565,-0.0194408,-0.189754,0.428147,0.00441835,0.00247982,0.302343,0.23684650597539147,0.5344116228984077,0.004428125299957619,-0.019253046310223954,0.0024828972968045093,-0.17283740908550616
820,0.8106,512.604,120.109,-0.0398015,251.053,4.22301,2.52671,0.212794,-0.0194696,-0.189954,0.428588,0.00442086,0.00248126,0.302666,0.23712977625846943,0.5350884476529951,0.0044306464177161775,-0.01928129141575874,0.002484340873216029,-0.17300282506154008
821,0.8116,512.761,120.132,-0.0397697,251.117,4.21237,2.52065,0.213024,-0.0194984,-0.190154,0.429028,0.00442336,0.00248269,0.302989,0.23741434883160029,0.5357640351883208,0.004433157497470974,-0.019309535707846215,0.002485774426848497,-0.17316820795768695
822,0.8126,512.917,120.155,-0.0397377,251.182,4.20172,2.51459,0.213254,-0.0195273,-0.190354,0.429468,0.00442584,0.00248411,0.303312,0.2376989868639503,0.5364399200475685,0.004435648494790501,-0.019337877252726954,0.0024871979576588377,-0.17333355778056192
823,0.8136,513.073,120.178,-0.0397053,251.246,4.19106,2.50853,0.213483,-0.0195561,-0.190554,0.429908,0.00442831,0.00248553,0.303635,0.23798245238750604,0.5371161023615894,0.004438129453906203,-0.01936611991516579,0.0024886214904906723,-0.17349887453677915
824,0.8146,513.23,120.201,-0.0396727,251.31,4.18039,2.50245,0.213713,-0.0195849,-0.190754,0.430348,0.00443078,0.00248694,0.303958,0.23826722109870158,0.5377925822612926,0.004440610419149893,-0.019394361764227597,0.0024900350004435357,-0.17366415823295123
825,0.8156,513.386,120.224,-0.0396399,251.374,4.16971,2.49638,0.213942,-0.0196137,-0.190953,0.430787,0.00443323,0.00248835,0.304281,0.2385508167627972,0.5384678214090537,0.0044430713016601064,-0.019422602799936017,0.0024914485123892494,-0.17382858270468526
826,0.8166,513.542,120.247,-0.0396067,251.438,4.15902,2.4903,0.214172,-0.0196425,-0.191153,0.431227,0.00443567,0.00248975,0.304603,0.23883571621283362,0.5391448961960035,0.0044455221457440075,-0.019450843022314146,0.0024928520013995925,-0.17399380046581747
827,0.8176,513.697,120.27,-0.0395733,251.502,4.14832,2.48421,0.214401,-0.0196712,-0.191352,0.431666,0.0044381,0.00249114,0.304925,0.2391194420772178,0.5398207291399106,0.0044479629513285435,-0.019478984379289077,0.0024942454674323766,-0.1741581593452739
828,0.8186,513.853,120.293,-0.0395396,251.566,4.13762,2.47812,0.21463,-0.0197,-0.191552,0.432105,0.00444052,0.00249253,0.305248,0.23940323292226506,0.5404968588396135,0.0044503937183399955,-0.019507222977901195,0.002495638935402056,-0.17432331119766908
829,0.8196,514.008,120.316,-0.0395056,251.629,4.1269,2.47203,0.21486,-0.0197288,-0.191751,0.432544,0.00444293,0.00249391,0.30557,0.2396883284505662,0.5411732854254161,0.004452814446705977,-0.0195354607632533,0.002497022380338443,-0.17448760451101397
830,0.8206,514.163,120.339,-0.0394714,251.693,4.11618,2.46592,0.215089,-0.0197576,-0.191951,0.432983,0.00444533,0.00249529,0.305892,0.23997224958551056,0.5418500090276803,0.004455225136353436,-0.019563697735369034,0.0024984058271839693,-0.17465269048096443
831,0.8216,514.319,120.362,-0.0394368,251.757,4.10545,2.45982,0.215318,-0.0197864,-0.19215,0.433421,0.00444772,0.00249666,0.306214,0.24025623574583999,0.5425254872505665,0.0044576257872102065,-0.019591933894271607,0.0024997792509406924,-0.1748169182543533
832,0.8226,514.473,120.385,-0.039402,251.82,4.09471,2.45371,0.215547,-0.0198152,-0.192349,0.43386,0.0044501,0.00249803,0.306536,0.2405402869464468,0.5432028045997499,0.004460016399204569,-0.019620169239984442,0.0025011526765790215,-0.17498111334966682
833,0.8236,514.628,120.407,-0.039367,251.884,4.08396,2.44759,0.215776,-0.019844,-0.192548,0.434298,0.00445246,0.00249938,0.306857,0.2408244032022273,0.5438788754768782,0.004462386927640338,-0.019648403772531187,0.00250250605404867,-0.17514527577340733
834,0.8246,514.783,120.43,-0.0393316,251.947,4.07321,2.44147,0.216004,-0.0198728,-0.192747,0.434736,0.00445482,0.00250074,0.307179,0.24110734342011653,0.5445552425379103,0.004464757461670743,-0.019676637491935045,0.0025038694583841004,-0.17530940553207586
835,0.8256,514.937,120.453,-0.039296,252.011,4.06244,2.43535,0.216233,-0.0199016,-0.192947,0.435174,0.00445717,0.00250208,0.3075,0.24139158954669915,0.5452319059126032,0.004467117956624467,-0.019704870398219443,0.0025052128144691377,-0.17547432715825706
836,0.8266,515.091,120.476,-0.0392602,252.074,4.05167,2.42922,0.216462,-0.0199303,-0.193145,0.435612,0.0044595,0.00250342,0.307822,0.2416759007730982,0.5459088657307707,0.0044694583677358235,-0.019733004464713266,0.0025065561723542906,-0.17563756708019418
837,0.8276,515.245,120.498,-0.039224,252.137,4.04089,2.42309,0.21669,-0.0199591,-0.193344,0.436049,0.00446183,0.00250476,0.308143,0.24195903515456751,0.5465845755369343,0.004471798784300374,-0.019761235747652206,0.002507899532039559,-0.17580159888263946
838,0.8286,515.399,120.521,-0.0391876,252.201,4.0301,2.41695,0.216919,-0.0199879,-0.193543,0.436487,0.00446414,0.00250609,0.308464,0.24224347634089072,0.5472621279541667,0.004474119116835595,-0.019789466217541962,0.0025092328684326315,-0.17596559804600387
839,0.8296,515.553,120.544,-0.0391509,252.264,4.01931,2.41081,0.217147,-0.0200167,-0.193742,0.436924,0.00446644,0.00250741,0.308785,0.24252674014434294,0.5479384292651566,0.004476429409966398,-0.01981769587440585,0.0025105561814935395,-0.17612956457678186
840,0.8306,515.707,120.567,-0.039114,252.327,4.0085,2.40466,0.217376,-0.0200454,-0.193941,0.437361,0.00446873,0.00250873,0.309106,0.24281131134999545,0.5486150261844047,0.004478729663623504,-0.019845826702854952,0.0025118794963010505,-0.17629349848146658
841,0.8316,515.86,120.589,-0.0390768,252.39,3.99769,2.39851,0.217604,-0.0200742,-0.194139,0.437798,0.00447102,0.00251004,0.309427,0.24309470463458993,0.5492919188411207,0.004481029922548174,-0.01987405473656023,0.0025131927877233284,-0.17645657622353794
842,0.8326,516.013,120.612,-0.0390393,252.453,3.98687,2.39235,0.217832,-0.020103,-0.194338,0.438235,0.00447329,0.00251135,0.309748,0.24337816254022004,0.5499691073645698,0.004483310097074034,-0.01990228195730992,0.00251450608086623,-0.17662044505937957
843,0.8336,516.166,120.635,-0.0390015,252.516,3.97604,2.38619,0.21806,-0.0201318,-0.194536,0.438671,0.00447555,0.00251265,0.310068,0.24366168508162067,0.5506450412382575,0.004485580231920139,-0.01993050836512733,0.002515809350571274,-0.1767834580724369
844,0.8346,516.319,120.657,-0.0389635,252.579,3.96521,2.38003,0.218288,-0.0201605,-0.194734,0.439108,0.0044778,0.00251394,0.310389,0.2439452722735307,0.5513228212054153,0.004487840327018322,-0.019958635955904414,0.002517102596799381,-0.17694643881211292
845,0.8356,516.472,120.68,-0.0389252,252.641,3.95437,2.37386,0.218517,-0.0201893,-0.194933,0.439544,0.00448004,0.00251523,0.310709,0.24423016836023814,0.551999345427024,0.004490090382300638,-0.019986860740750068,0.002518395844695931,-0.17711021017499817
846,0.8366,516.625,120.702,-0.0388867,252.704,3.94352,2.36768,0.218744,-0.0202181,-0.195131,0.43998,0.00448227,0.00251651,0.311029,0.24451264066784995,0.5526761646775051,0.004492330397699806,-0.0200150847127335,0.002519679069063807,-0.17727312622416247
847,0.8376,516.777,120.725,-0.0388479,252.767,3.93266,2.36151,0.218972,-0.0202468,-0.195329,0.440416,0.00448449,0.00251779,0.31135,0.24479642189975315,0.5533532790855191,0.004494560373148548,-0.020043209876204227,0.0025209622950743693,-0.17743601001914222
848,0.8386,516.929,120.747,-0.0388088,252.829,3.9218,2.35532,0.2192,-0.0202756,-0.195527,0.440852,0.00448669,0.00251906,0.31167,0.2450802678411541,0.5540306887797828,0.004496770263612282,-0.020071432225356012,0.0025222354975049655,-0.1775988615663232
849,0.8396,517.082,120.77,-0.0387695,252.892,3.91092,2.34914,0.219428,-0.0203043,-0.195725,0.441288,0.00448889,0.00252032,0.31199,0.24536417850680792,0.5547083938890687,0.004498980158937904,-0.020099555771676325,0.002523498676317404,-0.17776168087208988
850,0.8406,517.234,120.792,-0.0387299,252.955,3.90004,2.34295,0.219655,-0.0203331,-0.195923,0.441723,0.00449108,0.00252158,0.312309,0.2456469082639423,0.5553848391565894,0.00450118001411326,-0.020127776498089722,0.002524761856721458,-0.17792446794282546
851,0.8416,517.385,120.815,-0.03869,253.017,3.88916,2.33675,0.219883,-0.0203618,-0.196121,0.442158,0.00449326,0.00252283,0.312629,0.2459309481383416,0.5560615787418111,0.004503369829072623,-0.02015589842735266,0.0025260150134571724,-0.17808722278491163
852,0.8426,517.537,120.837,-0.0386499,253.079,3.87826,2.33056,0.220111,-0.0203906,-0.196319,0.442594,0.00449542,0.00252408,0.312949,0.2462150527812157,0.5567401695121805,0.0045055395586945934,-0.020184117531120815,0.0025272681717591894,-0.17824994540472927
853,0.8436,517.689,120.86,-0.0386095,253.142,3.86736,2.32435,0.220338,-0.0204193,-0.196517,0.443029,0.00449758,0.00252532,0.313268,0.24649797570873444,0.5574174987943568,0.004507709293003481,-0.0202122378434193,0.0025285113063424625,-0.17841263580865763
854,0.8446,517.84,120.882,-0.0385689,253.204,3.85646,2.31815,0.220565,-0.0204481,-0.196714,0.443463,0.00449972,0.00252655,0.313588,0.24678096286704765,0.5580935646845198,0.004509858941801337,-0.020240455324635698,0.002529744417169688,-0.1785744725779581
855,0.8456,517.991,120.905,-0.038528,253.266,3.84554,2.31194,0.220793,-0.0204768,-0.196912,0.443898,0.00450186,0.00252778,0.313907,0.2470652613353752,0.5587714828216626,0.004512008595199735,-0.020268574020062657,0.0025309775295137005,-0.17873709873186716
856,0.8466,518.142,120.927,-0.0384868,253.328,3.83462,2.30572,0.22102,-0.0205056,-0.19711,0.444333,0.00450398,0.00252901,0.314226,0.24734837728214254,0.5594496959173436,0.004514138162915238,-0.020296789878820665,0.0025322106433742775,-0.1788996926889853
857,0.8476,518.293,120.949,-0.0384454,253.39,3.82369,2.2995,0.221247,-0.0205343,-0.197307,0.444767,0.00450609,0.00253023,0.314545,0.2476315575035246,0.5601266439724741,0.004516257689982872,-0.020324906957469135,0.0025334337334175228,-0.1790614335175309
858,0.8486,518.444,120.972,-0.0384038,253.452,3.81276,2.29328,0.221474,-0.0205631,-0.197504,0.445201,0.00450819,0.00253144,0.314864,0.24791480201411376,0.5608038858868234,0.004518367176338911,-0.02035312119386179,0.002534646799606133,-0.17922314248627158
859,0.8496,518.594,120.994,-0.0383618,253.514,3.80181,2.28705,0.221701,-0.0205918,-0.197702,0.445635,0.00451029,0.00253264,0.315183,0.24819811082850474,0.561481421787954,0.004520476667124962,-0.020381236655824697,0.0025358498419041364,-0.17938564021625314
860,0.8506,518.745,121.017,-0.0383197,253.576,3.79086,2.28082,0.221928,-0.0206205,-0.197899,0.446069,0.00451237,0.00253384,0.315502,0.24848148396129655,0.5621592518034839,0.0045225660718895,-0.020409351310885393,0.002537052885645652,-0.1795472853225647
861,0.8516,518.895,121.039,-0.0382772,253.638,3.77991,2.27459,0.222155,-0.0206493,-0.198096,0.446503,0.00451444,0.00253504,0.31582,0.24876492142709106,0.5628373760610865,0.004524645435753483,-0.02043756311531575,0.0025382559308311237,-0.17970889858792694
862,0.8526,519.045,121.061,-0.0382345,253.7,3.76895,2.26835,0.222382,-0.020678,-0.198293,0.446936,0.0045165,0.00253623,0.316139,0.24904842324049348,0.5635142311734775,0.004526714758654293,-0.020465676153830326,0.0025394489520653707,-0.1798704800186116
863,0.8536,519.195,121.083,-0.0381916,253.762,3.75798,2.26211,0.222608,-0.0207067,-0.19849,0.44737,0.00451855,0.00253741,0.316457,0.24933074008474754,0.5641929436197544,0.0045287740405304255,-0.02049378838551219,0.002540631949313088,-0.1800320296208896
864,0.8546,519.345,121.106,-0.0381484,253.823,3.747,2.25587,0.222835,-0.0207355,-0.198687,0.447803,0.00452059,0.00253859,0.316775,0.24961437035356426,0.5648703858199937,0.004530823281319707,-0.02052199775818986,0.0025418149479567997,-0.18019354740103055
865,0.8556,519.494,121.128,-0.0381049,253.885,3.73602,2.24962,0.223062,-0.0207642,-0.198884,0.448236,0.00452262,0.00253976,0.317094,0.24989806501376033,0.5655481214162212,0.004532862480960631,-0.020550108373464937,0.0025429879225664642,-0.1803550333653029
866,0.8566,519.644,121.15,-0.0380612,253.946,3.72503,2.24336,0.223288,-0.0207929,-0.199081,0.448669,0.00452464,0.00254092,0.317412,0.25018057389875503,0.5662261505355053,0.004534891639392358,-0.020578218181976915,0.0025441508731069984,-0.1805164875199735
867,0.8576,519.793,121.172,-0.0380173,254.008,3.71404,2.23711,0.223514,-0.0208216,-0.199278,0.449102,0.00452665,0.00254208,0.31773,0.250463146637973,0.5669044733049686,0.004536910756553825,-0.020606327183748996,0.0025453138249964535,-0.18067790987130838
868,0.8586,519.942,121.195,-0.0379731,254.069,3.70304,2.23085,0.223741,-0.0208503,-0.199475,0.449534,0.00452865,0.00254323,0.318048,0.2507470339922555,0.5675815222694831,0.004538919832384414,-0.020634435378804272,0.002546466752770371,-0.18083930042557228
869,0.8596,520.091,121.217,-0.0379286,254.131,3.69203,2.22459,0.223967,-0.0208791,-0.199671,0.449967,0.00453064,0.00254438,0.318365,0.25102973476592183,0.5682604320419842,0.004540918866823951,-0.02066264070090673,0.002547619681870117,-0.18099984018927806
870,0.8606,520.24,121.239,-0.0378839,254.192,3.68102,2.21832,0.224193,-0.0209078,-0.199868,0.450399,0.00453261,0.00254552,0.318683,0.25131249943718315,0.5689380669072186,0.004542897814383329,-0.02069074727978737,0.002548762586807918,-0.1811611673295157
871,0.8616,520.389,121.261,-0.0378389,254.253,3.67,2.21205,0.224419,-0.0209365,-0.200064,0.450831,0.00453458,0.00254666,0.319,0.2515953280204821,0.5696159945739554,0.004544876765841366,-0.02071885305202059,0.0025499054930488985,-0.18132164401349027
872,0.8626,520.538,121.283,-0.0377937,254.314,3.65898,2.20578,0.224645,-0.0209652,-0.200261,0.451263,0.00453654,0.00254779,0.319318,0.2518782205302643,0.5702942151687123,0.004546845675729383,-0.020746958017629824,0.002551038375081971,-0.18148290776461862
873,0.8636,520.686,121.305,-0.0377483,254.376,3.64795,2.1995,0.224871,-0.0209939,-0.200457,0.451695,0.00453848,0.00254892,0.319635,0.2521611769809786,0.570972728818061,0.004548794498500319,-0.02077506217663816,0.0025521712583955747,-0.18164332139364758
874,0.8646,520.834,121.327,-0.0377026,254.437,3.63691,2.19322,0.225097,-0.0210226,-0.200654,0.452126,0.00454042,0.00255004,0.319952,0.2524441973870777,0.5716499639978792,0.004550743325052009,-0.02080316552906858,0.002553294117456195,-0.1818045217805736
875,0.8656,520.982,121.349,-0.0376566,254.498,3.62587,2.18694,0.225323,-0.0210513,-0.20085,0.452558,0.00454234,0.00255115,0.320269,0.2527272817630166,0.5723290634572482,0.004552672064330743,-0.02083126807494451,0.0025544069522303037,-0.1819648723794326
876,0.8666,521.13,121.371,-0.0376104,254.559,3.61482,2.18065,0.225549,-0.02108,-0.201046,0.452989,0.00454426,0.00255226,0.320586,0.25301043012325475,0.5730068833432911,0.004554600807312736,-0.02085936981428882,0.0025555197882396463,-0.18212519155265405
877,0.8676,521.278,121.393,-0.037564,254.62,3.60377,2.17436,0.225775,-0.0211087,-0.201242,0.45342,0.00454616,0.00255336,0.320903,0.2532936424822536,0.5736849954326699,0.004556509462867453,-0.020887470747124826,0.002556622599917846,-0.1822854793063967
878,0.8686,521.426,121.415,-0.0375173,254.68,3.59271,2.16807,0.226,-0.0211374,-0.201438,0.453851,0.00454806,0.00255445,0.32122,0.25357566527818687,0.574363399851352,0.004558418122048602,-0.02091557087347562,0.00255771538723204,-0.1824457356468182
879,0.8696,521.573,121.437,-0.0374703,254.741,3.58164,2.16177,0.226226,-0.0211661,-0.201634,0.454282,0.00454994,0.00255554,0.321537,0.2538590053947669,0.575042096725358,0.004560306693649929,-0.020943670193364405,0.0025588081757375036,-0.18260596058007506
880,0.8706,521.721,121.459,-0.0374232,254.802,3.57057,2.15547,0.226451,-0.0211948,-0.20183,0.454713,0.00455182,0.00255663,0.321853,0.2541411554116675,0.5757210861807633,0.00456219526880175,-0.020971768706814276,0.0025599009654340144,-0.18276615411232233
881,0.8716,521.868,121.481,-0.0373757,254.863,3.55949,2.14917,0.226677,-0.0212235,-0.202026,0.455143,0.00455368,0.00255771,0.32217,0.25442462334346017,0.576398791944118,0.004564063756222758,-0.020999866413848323,0.0025609837307116745,-0.18292631624971412
882,0.8726,522.015,121.503,-0.0373281,254.923,3.54841,2.14286,0.226902,-0.0212522,-0.202222,0.455573,0.00455553,0.00255878,0.322486,0.25470690063871726,0.5770767891836137,0.004565922201459793,-0.02102796331448986,0.0025620564715380656,-0.18308644699840326
883,0.8736,522.162,121.525,-0.0372802,254.984,3.53732,2.13655,0.227127,-0.0212809,-0.202417,0.456004,0.00455738,0.00255985,0.322802,0.25498924145351154,0.577756655780479,0.004567780650134745,-0.021056059408761874,0.0025631292135124273,-0.1832457296106791
884,0.8746,522.309,121.547,-0.037232,255.044,3.52623,2.13024,0.227353,-0.0213095,-0.202613,0.456434,0.00455921,0.00256091,0.323118,0.2552729010744099,0.5784352370269767,0.004569619010855508,-0.02108405680509806,0.0025641919309926653,-0.18340579776048427
885,0.8756,522.455,121.569,-0.0371836,255.105,3.51513,2.12392,0.227578,-0.0213382,-0.202808,0.456864,0.00456103,0.00256197,0.323434,0.2555553692536301,0.5791141101261543,0.004571447329225986,-0.02111215128950994,0.0025652546495993356,-0.1835650181054328
886,0.8766,522.602,121.591,-0.037135,255.165,3.50403,2.11761,0.227803,-0.0213669,-0.203004,0.457293,0.00456284,0.00256302,0.32375,0.2558379009953413,0.5797916954110502,0.0045732656051911125,-0.02114024496762179,0.0025663073436694717,-0.18372502368082555
887,0.8776,522.748,121.613,-0.0370861,255.226,3.49292,2.11128,0.228028,-0.0213956,-0.203199,0.457723,0.00456464,0.00256406,0.324066,0.25612049631384637,0.5804711519127554,0.004575073838696486,-0.021168337839456597,0.002567350013171321,-0.18388418178278854
888,0.8786,522.894,121.635,-0.037037,255.286,3.48181,2.10496,0.228253,-0.0214243,-0.203395,0.458152,0.00456644,0.0025651,0.324382,0.2564031552234518,0.5811493194934714,0.004576882075456812,-0.02119642990503745,0.0025683926837574145,-0.1840441248082305
889,0.8796,523.04,121.657,-0.0369877,255.346,3.47069,2.09863,0.228478,-0.0214529,-0.20359,0.458582,0.00456822,0.00256613,0.324697,0.2566858777384673,0.5818293598990623,0.004578670223898573,-0.021224423286834937,0.002569425329733699,-0.18420322069154016
890,0.8806,523.186,121.678,-0.0369381,255.406,3.45957,2.0923,0.228702,-0.0214816,-0.203785,0.459011,0.00456999,0.00256716,0.325013,0.25696740690517017,0.582508110276005,0.0045804483297184895,-0.021252513742786583,0.002570457976773577,-0.18436228555417722
891,0.8816,523.332,121.7,-0.0368883,255.466,3.44844,2.08597,0.228927,-0.0215103,-0.20398,0.45944,0.00457175,0.00256818,0.325328,0.25725025639109766,0.5831871518993275,0.00458221639286327,-0.021280603392553776,0.0025714805991623457,-0.18452131940218996
892,0.8826,523.478,121.722,-0.0368382,255.526,3.4373,2.07963,0.229152,-0.0215389,-0.204175,0.459868,0.0045735,0.0025692,0.325643,0.2575331695253198,0.5838649010283079,0.0045839744132802895,-0.021308594367023925,0.002572503222594058,-0.1846803222416259
893,0.8836,523.623,121.744,-0.0367879,255.586,3.42616,2.0733,0.229376,-0.0215676,-0.20437,0.460297,0.00457524,0.00257021,0.325959,0.25781488850664136,0.5845445248397334,0.00458572239091648,-0.021336682407300356,0.002573515821333583,-0.18483929407853095
894,0.8846,523.768,121.766,-0.0367374,255.646,3.41502,2.06696,0.229601,-0.0215963,-0.204565,0.460725,0.00457697,0.00257121,0.326274,0.2580979286973828,0.5852228550486744,0.004587460325719661,-0.0213647696414615,0.0025745183953507222,-0.18499823491895007
895,0.8856,523.913,121.787,-0.0366866,255.706,3.40387,2.06061,0.229825,-0.0216249,-0.20476,0.461154,0.00457869,0.00257221,0.326589,0.25837977419892866,0.5859030615473522,0.004589188217637208,-0.02139275820881137,0.002575520970370393,-0.18515714476892697
896,0.8866,524.058,121.809,-0.0366356,255.766,3.39272,2.05427,0.23005,-0.0216536,-0.204955,0.461582,0.0045804,0.0025732,0.326903,0.25866294150325064,0.586581973334453,0.004590906066617828,-0.021420843833620085,0.002576513520627488,-0.18531602363450417
897,0.8876,524.203,121.831,-0.0365844,255.826,3.38156,2.04792,0.230274,-0.0216822,-0.20515,0.46201,0.0045821,0.00257419,0.327218,0.25894491358184113,0.5872611757579906,0.004592613872609785,-0.021448830797271,0.0025775060718673526,-0.18547487152172304
898,0.8886,524.348,121.852,-0.0365329,255.886,3.3704,2.04156,0.230498,-0.0217109,-0.205345,0.462438,0.00458379,0.00257517,0.327533,0.2592269488292518,0.5879406689423838,0.0045943116355620095,-0.021476914812819548,0.0025784885983046735,-0.18563368843662387
899,0.8896,524.493,121.874,-0.0364812,255.945,3.35923,2.03521,0.230722,-0.0217395,-0.205539,0.462865,0.00458547,0.00257615,0.327847,0.2595090472596342,0.5886188643924464,0.004595999355423208,-0.021504900172863328,0.002579471125705002,-0.18579166017731286
900,0.8906,524.637,121.896,-0.0364293,256.005,3.34806,2.02885,0.230946,-0.0217682,-0.205734,0.463293,0.00458714,0.00257712,0.328162,0.2597912088871428,0.5892989387919461,0.004597677032142977,-0.021532982579243853,0.0025804436282634846,-0.18595041532444845
901,0.8916,524.781,121.917,-0.0363772,256.064,3.33689,2.02249,0.23117,-0.0217968,-0.205928,0.46372,0.00458879,0.00257808,0.328476,0.2600734337259354,0.5899777143470779,0.004599334619677542,-0.021560966335772536,0.002581406105951478,-0.18610832562608093
902,0.8926,524.925,121.939,-0.0363248,256.124,3.32571,2.01613,0.231394,-0.0218254,-0.206123,0.464147,0.00459044,0.00257904,0.32879,0.26035572179017286,0.5906567798012607,0.004600992209947252,-0.021588949291977078,0.002582368584563177,-0.18626701902947418
903,0.8936,525.069,121.961,-0.0362721,256.183,3.31452,2.00977,0.231618,-0.0218541,-0.206317,0.464575,0.00459208,0.00258,0.329104,0.26063807309401943,0.5913377266152391,0.004602639756925431,-0.021617029286182587,0.002583331064099026,-0.18642486791594537
904,0.8946,525.213,121.982,-0.0362193,256.243,3.30333,2.0034,0.231842,-0.0218827,-0.206511,0.465001,0.00459371,0.00258095,0.329418,0.260920487651642,0.5920157809020861,0.0046042772605627835,-0.02164501063900981,0.0025842835187159796,-0.1865826861827029
905,0.8956,525.357,122.004,-0.0361662,256.302,3.29214,1.99703,0.232066,-0.0219113,-0.206705,0.465428,0.00459533,0.00258189,0.329732,0.2612029654772112,0.5926957167965137,0.004605904720810239,-0.021672991191581725,0.0025852259483853945,-0.18674047383568615
906,0.8966,525.501,122.025,-0.0361129,256.362,3.28094,1.99066,0.232289,-0.02194,-0.2069,0.465855,0.00459693,0.00258282,0.330046,0.261484245100025,0.5933759430855632,0.004607512091543642,-0.021701068773819276,0.002586158353079071,-0.18689904398219648
907,0.8976,525.644,122.047,-0.0360594,256.421,3.26974,1.98428,0.232513,-0.0219686,-0.207094,0.466281,0.00459853,0.00258376,0.330359,0.26176684922140736,0.5940548658375964,0.0046091194648487654,-0.02172904772315143,0.002587100784511076,-0.1870567702677196
908,0.8986,525.787,122.068,-0.0360056,256.48,3.25853,1.97791,0.232736,-0.0219972,-0.207288,0.466707,0.00460012,0.00258468,0.330673,0.2620482546043177,0.5947340778723349,0.004610716794618774,-0.02175702587229711,0.0025880231650678986,-0.18721446595731117
909,0.8996,525.93,122.09,-0.0359516,256.539,3.24732,1.97153,0.23296,-0.0220258,-0.207482,0.467134,0.0046017,0.0025856,0.330986,0.26233098507798003,0.5954151747274163,0.004612304080805263,-0.021785003221279187,0.0025889455464735978,-0.1873721310569063
910,0.9006,526.073,122.111,-0.0358974,256.598,3.23611,1.96515,0.233183,-0.0220545,-0.207675,0.46756,0.00460327,0.00258651,0.3313,0.2626125162772144,0.5960949663771911,0.0046138813233607134,-0.021813077588817564,0.0025898579028291735,-0.18752895310179818
911,0.9016,526.216,122.133,-0.035843,256.657,3.22489,1.95876,0.233406,-0.0220831,-0.207869,0.467985,0.00460482,0.00258742,0.331613,0.26289411026490694,0.596773450905651,0.004615438476083478,-0.02184105333474351,0.002590770260014974,-0.18768655719680494
912,0.9026,526.359,122.154,-0.0357883,256.716,3.21367,1.95238,0.23363,-0.0221117,-0.208063,0.468411,0.00460637,0.00258833,0.331926,0.26317703023145955,0.5974538213043425,0.004616995631220089,-0.021869028280574465,0.0025916826180309993,-0.18784413071958284
913,0.9036,526.502,122.176,-0.0357334,256.775,3.20245,1.94599,0.233853,-0.0221403,-0.208257,0.468837,0.00460791,0.00258922,0.332239,0.26345875011980113,0.5981344816025682,0.004618542742584442,-0.021897002426333523,0.002592574925025737,-0.18800167367606235
914,0.9046,526.644,122.197,-0.0356783,256.834,3.19122,1.9396,0.234076,-0.0221689,-0.20845,0.469262,0.00460943,0.00259012,0.332552,0.26374053283868326,0.5988138331092188,0.004620069763930035,-0.02192497577204333,0.002593477258749033,-0.18815837423095294
915,0.9056,526.786,122.219,-0.035623,256.893,3.17998,1.93321,0.234299,-0.0221975,-0.208644,0.469687,0.00461095,0.002591,0.332865,0.26402237840211873,0.5994934734016224,0.00462159678759666,-0.021952948317726984,0.0025943595413973064,-0.18831585623010427
916,0.9066,526.928,122.24,-0.0355674,256.952,3.16875,1.92681,0.234522,-0.0222261,-0.208837,0.470112,0.00461246,0.00259188,0.333178,0.2643042868241232,0.6001734026025387,0.0046231137673531375,-0.021980920063407128,0.002595241824821848,-0.18847249615361306
917,0.9076,527.07,122.261,-0.0355117,257.01,3.15751,1.92042,0.234745,-0.0222547,-0.209031,0.470537,0.00461396,0.00259276,0.33349,0.2645862581187157,0.6008536208347806,0.004624620703153948,-0.022008891009106968,0.0025961241090228793,-0.18862991721902211
918,0.9086,527.212,122.283,-0.0354557,257.069,3.14626,1.91402,0.234968,-0.0222833,-0.209224,0.470962,0.00461544,0.00259363,0.333803,0.2648682922999186,0.6015341282212119,0.004626107548692859,-0.02203686115484904,0.0025969963680303465,-0.18878649653460888
919,0.9096,527.354,122.304,-0.0353995,257.128,3.13501,1.90762,0.23519,-0.0223119,-0.209417,0.471386,0.00461692,0.00259449,0.334115,0.2651491242320003,0.6022133226706257,0.004627594396432233,-0.02206483050065655,0.0025978586018180483,-0.18894304563330377
920,0.9106,527.496,122.325,-0.035343,257.186,3.12376,1.90122,0.235413,-0.0223405,-0.209611,0.471811,0.00461839,0.00259535,0.334427,0.26543128394634286,0.6028944080531526,0.0046290712000816026,-0.022092799046552036,0.002598720836347157,-0.18910037542096803
921,0.9116,527.637,122.347,-0.0352864,257.245,3.11251,1.89481,0.235636,-0.0223691,-0.209804,0.472235,0.00461984,0.0025962,0.334739,0.26571350658931814,0.6035741793835054,0.004630527913290772,-0.0221207667925587,0.0025995730456220834,-0.18925686394688324
922,0.9126,527.779,122.368,-0.0352295,257.303,3.10125,1.88841,0.235858,-0.0223977,-0.209997,0.472659,0.00462129,0.00259705,0.335051,0.26599452617980135,0.6042542389980141,0.004631984628612473,-0.02214873373869919,0.002600425255621319,-0.18941332227342733
923,0.9136,527.92,122.389,-0.0351724,257.361,3.08999,1.882,0.236081,-0.0224263,-0.21019,0.473083,0.00462273,0.00259789,0.335363,0.2662768744398003,0.6049345870189371,0.004633431299711832,-0.022176699884996487,0.002601267440332178,-0.1895697504064282
924,0.9146,528.061,122.411,-0.0351151,257.42,3.07872,1.87559,0.236303,-0.0224548,-0.210383,0.473507,0.00462415,0.00259873,0.335675,0.26655801911182997,0.605615223568585,0.004634857880197352,-0.022204567451934998,0.0026021096257506926,-0.18972614835171253
925,0.9156,528.202,122.432,-0.0350576,257.478,3.06745,1.86918,0.236525,-0.0224834,-0.210576,0.473931,0.00462557,0.00259956,0.335987,0.2668392262049051,0.6062961487693195,0.004636284462708362,-0.022232532001410954,0.0026029417858468573,-0.1898825161151061
926,0.9166,528.342,122.453,-0.0349999,257.536,3.05618,1.86276,0.236748,-0.022512,-0.210768,0.474354,0.00462698,0.00260038,0.336299,0.26712176285401434,0.6069757557669955,0.004637701000868022,-0.022260495751112108,0.002603763920596247,-0.19003804374088218
927,0.9176,528.483,122.474,-0.0349419,257.594,3.04491,1.85635,0.23697,-0.0225406,-0.210961,0.474777,0.00462837,0.0026012,0.33661,0.26740309511209315,0.6076556502992407,0.00463909744824309,-0.022288458701061553,0.0026045860560197642,-0.1901943513142742
928,0.9186,528.624,122.495,-0.0348838,257.653,3.03363,1.84993,0.237192,-0.0225691,-0.211154,0.475201,0.00462976,0.00260201,0.336922,0.2676844898328663,0.6083374408243447,0.00464049389755905,-0.02231632308291931,0.002605398166063422,-0.1903506287232154
929,0.9196,528.764,122.517,-0.0348254,257.711,3.02235,1.84351,0.237414,-0.0225977,-0.211346,0.475624,0.00463114,0.00260282,0.337233,0.26796594703020227,0.6090179114712089,0.0046418803023970945,-0.022344284436229822,0.0026062102767647755,-0.19050606647999846
930,0.9206,528.904,122.538,-0.0347668,257.769,3.01106,1.83709,0.237636,-0.0226263,-0.211539,0.476047,0.00463251,0.00260363,0.337544,0.26824746671797217,0.6096986700180433,0.004643256662715922,-0.022372244989857126,0.0026070223881240473,-0.19066228373371785
931,0.9216,529.044,122.559,-0.034708,257.827,2.99978,1.83067,0.237858,-0.0226548,-0.211731,0.476469,0.00463386,0.00260442,0.337855,0.26852904891005025,0.6103781062077438,0.004644612932027892,-0.02240010698383965,0.0026078144479846355,-0.1908176616584829
932,0.9226,529.184,122.58,-0.034649,257.885,2.98849,1.82424,0.23808,-0.0226834,-0.211924,0.476892,0.00463521,0.00260521,0.338166,0.2688106936203145,0.611059440238658,0.004645969203170841,-0.022428065940964914,0.0026086065084709453,-0.19097381878013586
933,0.9236,529.324,122.601,-0.0345898,257.942,2.97719,1.81782,0.238301,-0.022712,-0.212116,0.477314,0.00463655,0.002606,0.338477,0.26909113177087884,0.6117394507945746,0.004647315429671561,-0.02245602409847547,0.002609398569582977,-0.19112913689591382
934,0.9246,529.464,122.622,-0.0345304,258.0,2.9659,1.81139,0.238523,-0.0227405,-0.212309,0.477737,0.00463788,0.00260678,0.338788,0.26937290127739,0.6124213607960582,0.00464865161148964,-0.022483883704787377,0.0026101806052187815,-0.1912852339086466
935,0.9256,529.603,122.643,-0.0344707,258.058,2.9546,1.80496,0.238745,-0.0227691,-0.212501,0.478159,0.00463919,0.00260756,0.339099,0.2696547333436754,0.613101946203735,0.004649967702085256,-0.02251184026593267,0.0026109626414645426,-0.1914404922384596
936,0.9266,529.743,122.665,-0.0344109,258.116,2.9433,1.79853,0.238966,-0.0227976,-0.212693,0.478581,0.0046405,0.00260833,0.339409,0.269935358047632,0.613782818879063,0.004651283794405048,-0.02253969828150648,0.0026117346522029905,-0.19159572076153475
937,0.9276,529.882,122.686,-0.0343508,258.173,2.93199,1.7921,0.239188,-0.0228262,-0.212885,0.479003,0.0046418,0.00260909,0.33972,0.27021731499318147,0.6144639789432949,0.0046525898419229605,-0.022567653246377772,0.0026124966374110326,-0.19175091948359435
938,0.9286,530.021,122.707,-0.0342905,258.231,2.92069,1.78566,0.239409,-0.0228547,-0.213077,0.479424,0.00464309,0.00260985,0.34003,0.27049806404142207,0.6151438113731154,0.004653885844599692,-0.022595509671304304,0.002613258623197945,-0.19190608841035994
939,0.9296,530.16,122.728,-0.0342301,258.289,2.90938,1.77923,0.239631,-0.0228832,-0.213269,0.479846,0.00464437,0.0026106,0.340341,0.2707801459215695,0.6158255458973823,0.004655171802396607,-0.022623365302333998,0.002614010583423809,-0.1920612275475514
940,0.9306,530.299,122.749,-0.0341694,258.346,2.89807,1.77279,0.239852,-0.0229118,-0.213461,0.480267,0.00464563,0.00261135,0.340651,0.2710610193691909,0.6165059516675699,0.0046564376687106,-0.022651317874362698,0.002614762544213889,-0.1922163369008878
941,0.9316,530.438,122.77,-0.0341085,258.404,2.88675,1.76635,0.240073,-0.0229403,-0.213653,0.480688,0.00464689,0.00261209,0.340961,0.271341954896704,0.6171866439488933,0.00465770353661954,-0.022679171914881335,0.0026155044794127225,-0.19237141647608724
942,0.9326,530.576,122.791,-0.0340474,258.461,2.87544,1.75991,0.240294,-0.0229688,-0.213844,0.481109,0.00464814,0.00261283,0.341271,0.27162295251782953,0.617867622861999,0.004658959359533865,-0.02270702516157108,0.0026162464151604503,-0.192525658804929
943,0.9336,530.715,122.812,-0.0339861,258.518,2.86412,1.75347,0.240515,-0.0229974,-0.214036,0.48153,0.00464938,0.00261356,0.341581,0.2719040122462921,0.6185488885275843,0.004660205137415829,-0.022734975340961916,0.0026169783252874,-0.1926806789960238
944,0.9346,530.853,122.833,-0.0339246,258.576,2.85279,1.74703,0.240736,-0.0230259,-0.214228,0.481951,0.00465061,0.00261429,0.34189,0.2721851340958188,0.6192304410663971,0.0046614408702281285,-0.02276282699727672,0.0026177102359488114,-0.1928356694260992
945,0.9356,530.991,122.854,-0.0338629,258.633,2.84147,1.74059,0.240957,-0.0230544,-0.214419,0.482372,0.00465183,0.00261501,0.3422,0.27246631808013966,0.619912280599237,0.004662666557933681,-0.022790677859830688,0.0026184321209601347,-0.19298982309109514
946,0.9366,531.13,122.875,-0.033801,258.69,2.83014,1.73414,0.241178,-0.0230829,-0.214611,0.482792,0.00465304,0.00261572,0.34251,0.2727475642129884,0.6205927866533565,0.004663882200495628,-0.02281852792864625,0.0026191439802996097,-0.19314475417120203
947,0.9376,531.267,122.895,-0.0337389,258.747,2.81881,1.7277,0.241399,-0.0231114,-0.214802,0.483213,0.00465424,0.00261643,0.342819,0.27302887250810115,0.621275199854437,0.004665087797877776,-0.02284637720374627,0.0026198558401444583,-0.19329884880664916
948,0.9386,531.405,122.916,-0.0336766,258.804,2.80748,1.72125,0.24162,-0.02314,-0.214994,0.483633,0.00465543,0.00261714,0.343129,0.27331024297921735,0.6219562784548702,0.0046662833500434875,-0.02287432339772577,0.0026205677004949024,-0.19345372055951426
949,0.9396,531.543,122.937,-0.0336141,258.861,2.79615,1.7148,0.24184,-0.0231685,-0.215185,0.484053,0.00465661,0.00261784,0.343438,0.2735904020490403,0.6226376431683951,0.004667468856957235,-0.022902171082677558,0.002621269535137971,-0.19360775618801662
950,0.9406,531.681,122.958,-0.0335514,258.918,2.78481,1.70835,0.242061,-0.023197,-0.215376,0.484473,0.00465778,0.00261853,0.343747,0.2738718966318989,0.6233192941152044,0.0046686443185834925,-0.022930017973981642,0.00262196134405257,-0.19376176239852339
951,0.9416,531.818,122.979,-0.0334885,258.975,2.77348,1.7019,0.242281,-0.0232255,-0.215567,0.484892,0.00465894,0.00261922,0.344056,0.2741521792791186,0.6239996074151217,0.004669809734886954,-0.02295786407166056,0.002622653153444565,-0.19391573919665295
952,0.9426,531.955,123.0,-0.0334254,259.032,2.76214,1.69545,0.242502,-0.023254,-0.215759,0.485312,0.00466009,0.0026199,0.344365,0.274433798028465,0.624681830507057,0.004670965105832314,-0.022985709375737073,0.002623334937080557,-0.19407049251793296
953,0.9436,532.092,123.021,-0.0333621,259.089,2.7508,1.68899,0.242722,-0.0232825,-0.21595,0.485731,0.00466123,0.00262058,0.344674,0.27471420430759097,0.6253627148293435,0.004672110431385379,-0.023013553886233717,0.002624016721180178,-0.19422441035424076
954,0.9446,532.229,123.041,-0.0332986,259.146,2.73945,1.68254,0.242943,-0.023311,-0.216141,0.486151,0.00466236,0.00262125,0.344982,0.27499594727819443,0.6260455105466352,0.004673245711511731,-0.02304139760317303,0.002624688479496262,-0.1943782987950492
955,0.9456,532.366,123.062,-0.0332349,259.203,2.72811,1.67608,0.243163,-0.0233395,-0.216331,0.48657,0.00466348,0.00262191,0.345291,0.27527647724376036,0.6267269663705797,0.004674370946176953,-0.023069240526577883,0.0026253502120090477,-0.19453135237772734
956,0.9466,532.503,123.083,-0.033171,259.259,2.71676,1.66963,0.243383,-0.023368,-0.216522,0.486989,0.00466459,0.00262258,0.3456,0.27555706893270804,0.6274087077843411,0.0046754861353477395,-0.02309708265647059,0.0026260219712188615,-0.19468518219820763
957,0.9476,532.64,123.104,-0.0331069,259.316,2.70541,1.66317,0.243603,-0.0233964,-0.216713,0.487408,0.0046657,0.00262323,0.345908,0.27583772235861814,0.628090734907607,0.004676601325756202,-0.0231248263053615,0.002626673678344904,-0.194838982639998
958,0.9486,532.776,123.125,-0.0330426,259.373,2.69406,1.65671,0.243823,-0.0234249,-0.216904,0.487826,0.00466679,0.00262388,0.346216,0.27611843753507426,0.628771419087881,0.00467769642384841,-0.023152666851082082,0.0026273253858946077,-0.19499275370870928
959,0.9496,532.913,123.145,-0.0329781,259.429,2.68271,1.65025,0.244043,-0.0234534,-0.217094,0.488245,0.00466787,0.00262453,0.346525,0.27639921447566307,0.6294540173068193,0.004678781476346483,-0.023180506603358464,0.0026279770938679725,-0.19514569055604403
960,0.9506,533.049,123.166,-0.0329134,259.486,2.67135,1.64379,0.244263,-0.0234819,-0.217285,0.488663,0.00466894,0.00262517,0.346833,0.27668005319397393,0.630135271458252,0.004679856483218003,-0.023208345562213295,0.0026286187759785307,-0.1952994030491374
961,0.9516,533.185,123.187,-0.0328486,259.542,2.66,1.63733,0.244483,-0.0235104,-0.217476,0.489081,0.00467001,0.0026258,0.347141,0.27696095370359974,0.630816810433444,0.004680931491239493,-0.023236183727669002,0.0026292504322074084,-0.19545308618594825
962,0.9526,533.321,123.207,-0.0327835,259.599,2.64864,1.63087,0.244703,-0.0235388,-0.217666,0.489499,0.00467106,0.00262643,0.347449,0.27724191601813586,0.6314986343514764,0.00468198640677131,-0.023263923426145583,0.00262988208883419,-0.19560593557842088
963,0.9536,533.457,123.228,-0.0327183,259.655,2.63728,1.6244,0.244922,-0.0235673,-0.217856,0.489917,0.00467211,0.00262705,0.347756,0.2775216626288797,0.6321807433314803,0.004683041323410908,-0.02329176000765476,0.002630503719553756,-0.19575875593226755
964,0.9546,533.593,123.249,-0.0326528,259.711,2.62592,1.61794,0.245142,-0.0235958,-0.218047,0.490335,0.00467314,0.00262767,0.348064,0.2778027483129495,0.6328631374926368,0.004684076147476457,-0.02331959579583265,0.0026311253506587917,-0.195912351341056
965,0.9556,533.728,123.269,-0.0325872,259.768,2.61456,1.61148,0.245361,-0.0236242,-0.218237,0.490753,0.00467417,0.00262828,0.348372,0.2780826177594158,0.6335458169541761,0.00468511097260782,-0.02334733312544013,0.0026317369558317427,-0.1960651134814383
966,0.9566,533.864,123.29,-0.0325214,259.824,2.60319,1.60501,0.245581,-0.0236527,-0.218427,0.49117,0.00467518,0.00262889,0.348679,0.27836382686719063,0.6342271476074142,0.004686125705082311,-0.023375167329806712,0.0026323485613777287,-0.19621784659977115
967,0.9576,533.999,123.311,-0.0324554,259.88,2.59183,1.59854,0.2458,-0.0236811,-0.218617,0.491588,0.00467619,0.00262949,0.348987,0.27864381920331627,0.6349103973443608,0.0046871404385817605,-0.023402903081205073,0.002632950140967427,-0.19637055070156817
968,0.9586,534.134,123.331,-0.0323892,259.936,2.58046,1.59208,0.24602,-0.0237096,-0.218807,0.492005,0.00467718,0.00263009,0.349294,0.2789251517889906,0.6355922971462808,0.00468813507934307,-0.023430735701850502,0.002633551720917948,-0.19652322579234194
969,0.9596,534.269,123.352,-0.0323228,259.992,2.5691,1.58561,0.246239,-0.023738,-0.218998,0.492422,0.00467817,0.00263068,0.349601,0.27920526706873616,0.6362744813597139,0.004689129721089147,-0.02345846987512945,0.002634143274887979,-0.19667667520133048
970,0.9606,534.404,123.372,-0.0322562,260.048,2.55773,1.57914,0.246458,-0.0237665,-0.219187,0.492839,0.00467915,0.00263126,0.349908,0.2794854437004455,0.6369569501032846,0.004690114316918681,-0.023486300912143765,0.002634724802859756,-0.1968284889628651
971,0.9616,534.539,123.393,-0.0321894,260.104,2.54636,1.57267,0.246677,-0.0237949,-0.219377,0.493255,0.00468011,0.00263184,0.350215,0.27976568169755645,0.6376380658567815,0.004691078819891503,-0.02351403350739323,0.0026353063311688185,-0.19698107705363443
972,0.9626,534.674,123.413,-0.0321225,260.16,2.53499,1.5662,0.246897,-0.0238234,-0.219567,0.493672,0.00468107,0.00263242,0.350522,0.2800472611201308,0.63832110333366,0.004692043323790029,-0.02354186296086669,0.002635887859815167,-0.19713363615542068
973,0.9636,534.809,123.434,-0.0320554,260.216,2.52361,1.55973,0.247116,-0.0238518,-0.219757,0.494088,0.00468202,0.00263299,0.350829,0.2803276221687303,0.6390027866929548,0.004692997781684527,-0.023569593978176262,0.0026364593624339516,-0.19728616627373108
974,0.9646,534.943,123.455,-0.031988,260.272,2.51224,1.55326,0.247335,-0.0238802,-0.219947,0.494505,0.00468296,0.00263355,0.351136,0.2806080446231234,0.6396863933770933,0.004693942193546352,-0.023597324207936143,0.0026370208390085192,-0.1974386674140719
975,0.9656,535.077,123.475,-0.0319205,260.328,2.50087,1.54679,0.247553,-0.0239087,-0.220136,0.494921,0.00468389,0.00263411,0.351442,0.28088724760887085,0.6403686448151984,0.004694876559347083,-0.023625151287658408,0.00263758231589728,-0.19759033717268704
976,0.9666,535.212,123.495,-0.0318529,260.383,2.48949,1.54032,0.247772,-0.0239371,-0.220326,0.495337,0.00468481,0.00263467,0.351749,0.2811677926346563,0.6410511801289438,0.0046958008790587424,-0.02365287993961318,0.002638143793100678,-0.197742780526047
977,0.9676,535.346,123.516,-0.031785,260.439,2.47811,1.53384,0.247991,-0.0239655,-0.220515,0.495753,0.00468572,0.00263522,0.352055,0.2814483991065304,0.6417339994364462,0.004696715152653574,-0.02368060780408532,0.002638695244231437,-0.19789439281271515
978,0.9686,535.48,123.536,-0.031717,260.495,2.46674,1.52737,0.24821,-0.0239939,-0.220705,0.496168,0.00468662,0.00263576,0.352361,0.28172906703795153,0.6424154604395902,0.0046976193801040456,-0.02370833488109736,0.002639236669273126,-0.1980467784009915
979,0.9696,535.614,123.557,-0.0316487,260.55,2.45536,1.5209,0.248428,-0.0240224,-0.220894,0.496584,0.00468751,0.0026363,0.352668,0.28200851443322517,0.6430988474057666,0.0046985135613832885,-0.02373615879706048,0.002639778094607026,-0.19819833323749048
980,0.9706,535.747,123.577,-0.0315803,260.606,2.44398,1.51442,0.248647,-0.0240508,-0.221083,0.496999,0.00468839,0.00263683,0.352974,0.2822893050433355,0.6437808749383644,0.004699397696464214,-0.023763884296446713,0.0026403094938303173,-0.19834985943283212
981,0.9716,535.881,123.598,-0.0315117,260.661,2.4326,1.50795,0.248865,-0.0240792,-0.221273,0.497415,0.00468926,0.00263736,0.35328,0.28256887458380775,0.6444648300351354,0.004700271785320398,-0.023791609008439907,0.0026408408933351613,-0.1985021584906712
982,0.9726,536.014,123.618,-0.031443,260.717,2.42122,1.50147,0.249084,-0.0241076,-0.221462,0.49783,0.00469012,0.00263788,0.353585,0.2828497879262297,0.645147424568169,0.00470113582792564,-0.023819332933062487,0.0026413622667078585,-0.19865362726846603
983,0.9736,536.148,123.638,-0.031374,260.772,2.40984,1.495,0.249302,-0.024136,-0.221651,0.498245,0.00469098,0.0026384,0.353891,0.2831294796652897,0.6458303024367218,0.004701999871274065,-0.02384705607033677,0.002641883640351894,-0.19880506742136705
984,0.9746,536.281,123.659,-0.0313049,260.827,2.39845,1.48852,0.24952,-0.0241644,-0.22184,0.49866,0.00469182,0.00263891,0.354197,0.2834092323837951,0.6465134637584025,0.004702843821308367,-0.02387477842028518,0.002642394987842911,-0.19895647895478386
985,0.9756,536.414,123.679,-0.0312356,260.883,2.38707,1.48204,0.249739,-0.0241928,-0.222029,0.499074,0.00469266,0.00263941,0.354502,0.2836903297847291,0.6471952614547836,0.004703687772051657,-0.023902499982930037,0.0026428963091658098,-0.19910786187412488
986,0.9766,536.547,123.7,-0.0311661,260.938,2.37569,1.47557,0.249957,-0.0242212,-0.222218,0.499489,0.00469348,0.00263992,0.354808,0.2839702047818884,0.6478789893520129,0.004704511629413322,-0.02393022075829354,0.0026434076571733023,-0.1992592161847978
987,0.9776,536.68,123.72,-0.0310964,260.993,2.3643,1.46909,0.250175,-0.0242496,-0.222407,0.499903,0.0046943,0.00264041,0.355113,0.2842501407984479,0.6485613524930287,0.004705335487450668,-0.023957940746398343,0.0026438989525634504,-0.19941054189220897
988,0.9786,536.813,123.74,-0.0310266,261.048,2.35292,1.46261,0.250393,-0.024278,-0.222596,0.500317,0.0046951,0.0026409,0.355419,0.28453013784771164,0.64924399819087,0.004706139252040664,-0.023985659947266647,0.002644390248194295,-0.19956183900176416
989,0.9796,536.945,123.761,-0.0309566,261.103,2.34153,1.45614,0.250611,-0.0243064,-0.222784,0.500732,0.0046959,0.00264139,0.355724,0.2848101959429856,0.6499285764902911,0.004706943017273479,-0.024013378360920767,0.0026448815440658358,-0.19971230723157507
990,0.9806,537.078,123.781,-0.0308864,261.159,2.33015,1.44966,0.250829,-0.0243347,-0.222973,0.501145,0.00469668,0.00264187,0.356029,0.28509031509757965,0.6506101377250888,0.004707726688994773,-0.024040998391487878,0.0026453628137244056,-0.19986354731287037
991,0.9816,537.21,123.801,-0.0308161,261.214,2.31876,1.44318,0.251046,-0.0243631,-0.223162,0.501559,0.00469746,0.00264234,0.356334,0.2853692099549534,0.6512936317956173,0.004708510361327134,-0.024068715233552584,0.0026458340571557937,-0.20001475881249142
992,0.9826,537.342,123.821,-0.0307455,261.269,2.30737,1.4367,0.251264,-0.0243915,-0.22335,0.501973,0.00469823,0.00264281,0.356639,0.2856494509878864,0.6519774088912731,0.00470928398717807,-0.024096431288470166,0.002646305300808338,-0.20016514190138135
993,0.9836,537.474,123.842,-0.0306748,261.323,2.29599,1.43023,0.251482,-0.0244199,-0.223539,0.502387,0.00469899,0.00264328,0.356943,0.285929753120024,0.6526614691292529,0.004710047566524045,-0.024124146556262827,0.002646776544682705,-0.20031629640501147
994,0.9846,537.606,123.862,-0.030604,261.378,2.2846,1.42375,0.251699,-0.0244482,-0.223727,0.5028,0.00469974,0.00264374,0.357248,0.28620883015521437,0.6533441592818161,0.004710801099342188,-0.024151763452134434,0.0026472377623059096,-0.20046662281016248
995,0.9856,537.738,123.882,-0.0305329,261.433,2.27321,1.41727,0.251917,-0.0244766,-0.223916,0.503213,0.00470048,0.00264419,0.357553,0.28648925424530347,0.654027131443643,0.004711544585610072,-0.024179477148515982,0.0026476889536644066,-0.20061772033928515
996,0.9866,537.87,123.902,-0.0304617,261.488,2.26183,1.41079,0.252134,-0.024505,-0.224104,0.503626,0.00470121,0.00264464,0.357857,0.28676845270541196,0.6547103857312278,0.004712278025305272,-0.024207190057839778,0.0026481401452260744,-0.20076799008206292
997,0.9876,538.002,123.922,-0.0303903,261.543,2.25044,1.40431,0.252352,-0.0245333,-0.224292,0.504039,0.00470193,0.00264508,0.358161,0.2870489988065157,0.6553939222611125,0.0047130014184060265,-0.02423480460361349,0.0026485813105048273,-0.20091823157678446
998,0.9886,538.133,123.943,-0.0303188,261.597,2.23905,1.39783,0.252569,-0.0245617,-0.22448,0.504452,0.00470264,0.00264552,0.358466,0.2873283187443738,0.6560777411498868,0.004713714764890131,-0.024262515941659846,0.002649022475977647,-0.20106844482875996
999,0.9896,538.265,123.963,-0.030247,261.652,2.22766,1.39135,0.252786,-0.02459,-0.224668,0.504865,0.00470335,0.00264596,0.35877,0.28760769930123553,0.6567618425141897,0.004714428111880942,-0.02429012892173321,0.002649463641644534,-0.2012186298432984
