,Time,S11,S22,S33,S12,S13,S23,LE11,LE22,LE33,LE12,LE13,LE23,SDV_EPBAR,E11,E12,E13,E22,E23,E33
0,1e-05,0.376073,0.376073,-5.55112e-17,0.376073,-1.29949e-17,-4.33156e-18,3.49998e-06,3.49998e-06,-2.99999e-06,1.29999e-05,-2.99403e-22,-6.19382e-26,0.0,3.499986124921861e-06,1.2999984499106887e-05,0.0,3.499986124921861e-06,0.0,-2.999985500018454e-06
1,2e-05,0.752141,0.752141,5.55112e-17,0.752141,-2.38239e-17,-1.08288e-17,6.99994e-06,6.99994e-06,-5.99996e-06,2.59997e-05,2.99488e-22,-2.99457e-22,0.0,6.999964499598832e-06,2.600003799502204e-05,0.0,6.999964499598832e-06,0.0,-5.9999420002343484e-06
2,3.5e-05,1.31624,1.31624,-2.77556e-16,1.31624,-2.81552e-17,-6.49684e-18,1.22498e-05,1.22498e-05,-1.04998e-05,4.54992e-05,5.98976e-22,-5.98921e-22,0.0,1.2249875029013424e-05,4.550023510430101e-05,0.0,1.2249875029013424e-05,0.0,-1.0499744877323636e-05
3,5.75e-05,2.16237,2.16237,-1.38778e-15,2.16237,-3.68177e-17,-2.38226e-17,2.01244e-05,2.01244e-05,-1.72495e-05,7.47478e-05,7.8347e-26,7.8347e-26,0.0,2.0124602497118005e-05,7.475059368644565e-05,0.0,2.0124602497118005e-05,0.0,-1.7249351228265652e-05
4,9.125e-05,3.43152,3.43152,-1.04916e-14,3.43152,-6.2806e-17,-1.51576e-17,3.19361e-05,3.19361e-05,-2.73738e-05,0.00011862,1.59854e-25,1.59854e-25,0.0,3.193660996259062e-05,0.0001186270356303698,0.0,3.193660996259062e-05,0.0,-2.737342534098186e-05
5,0.00014188,5.33518,5.33518,-5.62328e-14,5.33518,-6.28017e-17,-6.71334e-17,4.96528e-05,4.96528e-05,-4.25595e-05,0.000184424,-2.39546e-21,2.39629e-21,0.0,4.965403272061408e-05,0.00018444100715142575,0.0,4.965403272061408e-05,0.0,-4.255859435731146e-05
6,0.00021781,8.19048,8.19048,-2.88491e-13,8.19048,-1.49422e-16,-1.191e-16,7.62261e-05,7.62261e-05,-6.53367e-05,0.000283125,-9.58239e-21,1.30933e-24,0.0,7.622900528292398e-05,0.0002831650836656596,0.0,7.622900528292398e-05,0.0,-6.533456560431361e-05
7,0.00033172,12.473,12.473,-1.46089e-12,12.473,-2.18694e-16,-2.57679e-16,0.000116082,0.000116082,-9.94992e-05,0.000431163,-9.58049e-21,-9.58049e-21,0.0,0.00011608873777602113,0.00043125596412663114,0.0,0.00011608873777602113,0.0,-9.949425011879232e-05
8,0.00050258,18.8959,18.8959,-7.4028e-12,18.8959,-8.00347e-17,-3.2694e-16,0.000175858,0.000175858,-0.000150736,0.000653187,1.43814e-20,-2.39567e-20,0.0,0.0001758734639245585,0.0006534003730833682,0.0,0.0001758734639245585,0.0,-0.00015072463989995732
9,0.00075887,28.5282,28.5282,-3.74445e-11,28.5282,-8.42226e-16,-2.5745e-16,0.000265503,0.000265503,-0.000227574,0.000986153,-2.8737e-20,9.60401e-21,0.0,0.00026553824904107515,0.0009866394087476582,0.0,0.00026553824904107515,0.0,-0.0002275481070015406
10,0.0011433,42.9721,42.9721,-1.89375e-10,42.9721,-8.41917e-16,-3.95755e-16,0.000399927,0.000399927,-0.000342794,0.00148544,3.83773e-20,-3.83136e-20,0.0,0.00040000698146447355,0.0014865438124782582,0.0,0.00040000698146447355,0.0,-0.00034273525284966855
11,0.00172,64.6274,64.6274,-9.57343e-10,64.6274,-2.87206e-16,-3.95498e-16,0.000601466,0.000601466,-0.000515542,0.00223402,2.64264e-23,2.64264e-23,0.0,0.0006016469169445315,0.0022365172819931445,0.0,0.0006016469169445315,0.0,-0.0005154091310572984
12,0.0025849,97.0871,97.0871,-4.83557e-09,97.0871,-1.39511e-15,-3.94492e-16,0.000903557,0.000903557,-0.000774478,0.00335607,3.8466e-20,-3.8258e-20,0.0,0.0009039653306002204,0.0033617079082297607,0.0,0.0009039653306002204,0.0,-0.0007741781693227923
13,0.0035849,134.579,134.579,-1.06427e-08,134.579,-2.22347e-15,-2.88622e-15,0.00125248,0.00125248,-0.00107356,0.00465207,7.7159e-20,-2.29829e-19,0.0,0.0012532646806400205,0.0046629076770026145,0.0,0.0012532646806400205,0.0,-0.001072983940626382
14,0.0045849,143.859,142.052,0.108018,142.85,0.093561,0.100742,0.00153869,0.00157095,-0.00158785,0.00603926,3.47012e-06,4.01349e-06,0.000668763,0.0015398743908503487,0.006057533097482137,3.470126020976849e-06,0.001572184588358727,4.013498054122877e-06,-0.0015865900331564209
15,0.0055849,146.084,142.981,0.18213,144.37,0.182815,0.200609,0.00180376,0.00188997,-0.00215375,0.00744506,7.16542e-06,8.65894e-06,0.00149166,0.0018053877536139407,0.007472843366011839,7.165445671697412e-06,0.001891757118990256,8.65897748880684e-06,-0.002151432344650761
16,0.0065849,147.783,143.697,-0.102893,145.83,0.273689,0.252919,0.00206631,0.00220847,-0.0027225,0.00885191,1.1349e-05,1.18908e-05,0.00231634,0.0020684462896669586,0.008891204012100529,1.1349064400034692e-05,0.0022109104661052204,1.1890870695863143e-05,-0.002718797357785019
17,0.0075849,149.665,144.551,-0.166618,147.257,0.357138,0.321678,0.00233133,0.00252485,-0.00328873,0.0102565,1.56665e-05,1.599e-05,0.00314017,0.002334049662851001,0.010309278181602766,1.5666622720234002e-05,0.0025280401180527434,1.599012784070375e-05,-0.0032833280509667606
18,0.0085849,152.029,145.633,0.192509,148.656,0.409015,0.428772,0.0026017,0.00283748,-0.00385057,0.0116574,1.91309e-05,2.1881e-05,0.00396219,0.0026050873584382295,0.01172561228900082,1.91310829968927e-05,0.002841509456641411,2.1881239390841856e-05,-0.003843166061513914
19,0.0095849,153.812,146.492,0.159341,150.007,0.478842,0.486564,0.00286878,0.00315003,-0.00441542,0.0130598,2.35336e-05,2.63146e-05,0.00478598,0.0028728988871293826,0.013145451646329409,2.353387691744757e-05,0.003154996558066836,2.631494623206443e-05,-0.004405686364411299
20,0.010585,155.378,147.23,-0.0197559,151.32,0.539413,0.524122,0.00313554,0.00346111,-0.00498107,0.014462,2.78854e-05,3.01977e-05,0.00561038,0.0031404609474774414,0.014567080669806387,2.7885788801418343e-05,0.0034671065574685134,3.01981559551745e-05,-0.004968685042806675
21,0.011585,157.315,148.193,0.155367,152.609,0.588933,0.594339,0.00340593,0.00376989,-0.00554302,0.0158609,3.20682e-05,3.54971e-05,0.00643315,0.0034117367701951284,0.01598735173593946,3.2068714190147674e-05,0.0037770049733854005,3.549773002942125e-05,-0.005527685810295724
22,0.012585,158.627,148.842,-0.136594,153.857,0.64467,0.609549,0.0036727,0.00407847,-0.00610863,0.0172617,3.67081e-05,3.89458e-05,0.00725788,0.0036794526269052774,0.01741154408969181,3.670877375050452e-05,0.004086798277130876,3.894655839742356e-05,-0.006090010252769229
23,0.013585,160.214,149.66,-0.161135,155.081,0.693323,0.6494,0.00394211,0.00438526,-0.00667135,0.0186597,4.13048e-05,4.33951e-05,0.00808128,0.003949890335913198,0.01883488010839174,4.1305653055045966e-05,0.0043948893231837705,4.339604158087873e-05,-0.006649145949025992
24,0.014585,162.202,150.66,0.154681,156.287,0.71755,0.721703,0.00421573,0.00468913,-0.00723046,0.0200544,4.51481e-05,4.92541e-05,0.008903,0.004224628690147059,0.020256840489252248,4.5149119190845965e-05,0.004700141174293515,4.9255313003149226e-05,-0.007204383111245383
25,0.015585,163.258,151.251,-0.21743,157.449,0.768374,0.716022,0.00448284,0.00499436,-0.0077952,0.0214524,5.01258e-05,5.2379e-05,0.00972756,0.004492902958491474,0.021684157014044247,5.0127056318904906e-05,0.005006852604767964,5.2380371803772974e-05,-0.007764896220943229
26,0.016585,164.764,152.056,-0.206835,158.597,0.801909,0.748254,0.00475395,0.00529721,-0.00835602,0.0228468,5.46319e-05,5.69238e-05,0.0105502,0.0047652679481804405,0.023109787120901393,5.4633392349456855e-05,0.005311265023403067,5.692542019031244e-05,-0.0083212055025782
27,0.017585,166.691,153.059,0.155358,159.727,0.813493,0.814886,0.00502922,0.00559734,-0.00891314,0.0242378,5.84098e-05,6.29139e-05,0.011371,0.005041887754308805,0.024533923091726306,5.841150588548061e-05,0.005613034376127146,6.291587912099494e-05,-0.008873535721176773
28,0.018585,167.598,153.611,-0.238753,160.82,0.854718,0.796719,0.00529711,0.00589921,-0.00947647,0.0256325,6.33816e-05,6.58833e-05,0.0121949,0.005311164492281639,0.02596383747326869,6.338360865609793e-05,0.005916644605918897,6.588547035235592e-05,-0.009431709759447515
29,0.019585,169.016,154.402,-0.21077,161.899,0.877692,0.821558,0.00556935,0.0061987,-0.0100355,0.0270234,6.77977e-05,7.04133e-05,0.0130166,0.005584887661210125,0.02739184345134893,6.779999831607597e-05,0.006217951698790358,7.041577907451746e-05,-0.009985312396082247
30,0.020585,170.829,155.376,0.143638,162.964,0.881063,0.878722,0.0058454,0.00649571,-0.0105911,0.0284109,7.15293e-05,7.62721e-05,0.0138365,0.005862517687570401,0.028818339036597695,7.153185828134845e-05,0.006516852878746926,7.62750087905939e-05,-0.010535211780320353
31,0.021585,171.664,155.921,-0.224646,163.996,0.913197,0.855281,0.00611425,0.00679447,-0.0111526,0.029802,7.63822e-05,7.92346e-05,0.0146593,0.0061329801807421536,0.03025052415343077,7.6385117194544e-05,0.006817604777794584,7.9237739143867e-05,-0.01109064030775353
32,0.022585,172.995,156.692,-0.191303,165.016,0.927883,0.873147,0.00638723,0.00709099,-0.0117101,0.0311893,8.06697e-05,8.36685e-05,0.0154799,0.006407671852632468,0.031680782574953215,8.067295388780593e-05,0.007116190600109595,8.367200030656718e-05,-0.011641803624731883
33,0.023585,174.671,157.623,0.126259,166.022,0.925964,0.919377,0.00666351,0.00738535,-0.0122644,0.0325736,8.43537e-05,8.92461e-05,0.0162989,0.006685760577619604,0.03310992723652828,8.43572578734797e-05,0.007412688958462033,8.925008255156186e-05,-0.012189498765251328
34,0.024585,175.48,158.175,-0.193194,167.001,0.949667,0.894789,0.00693331,0.00768124,-0.0128239,0.0339609,8.90121e-05,9.22621e-05,0.0171204,0.006957401038473865,0.034544155260826104,8.901606169442466e-05,0.007710816403287746,9.226635627834767e-05,-0.012742024157300191
35,0.025585,176.725,158.922,-0.162241,167.969,0.957908,0.906285,0.00720674,0.00797513,-0.0133797,0.0353446,9.31465e-05,9.65431e-05,0.0179398,0.007232771046134623,0.03597664484782448,9.315083826999526e-05,0.008007016058046768,9.654776043510616e-05,-0.013290589679793241
36,0.026585,178.262,159.805,0.10859,168.923,0.952578,0.941902,0.00748291,0.00826716,-0.0139329,0.0367256,9.67688e-05,0.000101776,0.0187578,0.0075109769348062905,0.03740831693640079,9.677348225145543e-05,0.00830142733331618,0.00010178117935288888,-0.01383628637196066
37,0.027585,179.062,160.368,-0.157652,169.855,0.968901,0.91796,0.00775352,0.00856044,-0.0144903,0.038109,0.000101196,0.000104841,0.0195777,0.00778365637350209,0.03884446075368864,0.00010120112048794816,0.008597185343759417,0.00010484649600961404,-0.014385820856448017
38,0.028585,180.74,161.324,0.255807,170.781,0.955415,0.964916,0.00803136,0.00885037,-0.0150412,0.0394866,0.00010451,0.000110511,0.0203942,0.008063697886154353,0.04027655908566974,0.00010451546136036605,0.008889650320842657,0.00011051710656539981,-0.014928646172776228
39,0.029585,181.717,161.97,0.157924,171.686,0.960235,0.954585,0.00830407,0.00914126,-0.015596,0.0408665,0.000108467,0.000114147,0.0212124,0.008338644425836428,0.0417130275730504,0.0001084728827578374,0.00918316891996751,0.00011415351501664617,-0.015475012183933656
40,0.030585,182.589,162.585,0.00213186,172.576,0.969443,0.93864,0.0085759,0.00943199,-0.0161508,0.0422455,0.000112595,0.000117504,0.0220305,0.008612778376778651,0.04315054077562408,0.00011260133905488523,0.009476611396866286,0.00011751090386535878,-0.016021075155299158
41,0.031585,183.809,163.34,0.114977,173.455,0.962874,0.949741,0.00885075,0.00972084,-0.0167027,0.0436215,0.000116131,0.000121814,0.0228469,0.00889003369898278,0.044586903910937004,0.00011613774346552752,0.009768240832621844,0.00012182141962657766,-0.016563983294639373
42,0.032585,184.59,163.913,-0.08085,174.319,0.970858,0.92722,0.00912215,0.0100104,-0.0172569,0.0449985,0.000120189,0.000124857,0.0236641,0.009163883613881207,0.04602629086810395,0.00012019622298731214,0.010060671660529374,0.00012486479495965597,-0.0171088525378843
43,0.033585,185.964,164.74,0.174813,175.174,0.956988,0.951532,0.00939847,0.0102974,-0.0178065,0.0463711,0.000123413,0.000129587,0.0244788,0.00944277430796503,0.04746305237879889,0.0001234206156974782,0.010350600676119592,0.00012959539675794218,-0.017648901093592517
44,0.034585,186.493,165.206,-0.180022,176.013,0.969555,0.910402,0.00966809,0.0105863,-0.0183609,0.0477467,0.000127592,0.000131884,0.0252958,0.00971497696276491,0.04890493405249674,0.00012760014020551935,0.010642533132267706,0.00013189269707702955,-0.018193365603318523
45,0.035585,187.528,165.884,-0.1515,176.842,0.964604,0.909553,0.00994173,0.0108731,-0.0189115,0.0491184,0.000131125,0.000135544,0.0261105,0.009991313175657268,0.050344704191134904,0.0001311335972584704,0.010932426979560761,0.0001355531865030457,-0.018733799541101104
46,0.036585,188.839,166.69,0.0958508,177.661,0.949105,0.931305,0.0102178,0.0111585,-0.0194597,0.0504874,0.000134213,0.000140048,0.0269237,0.010270179969092519,0.0517836107980163,0.00013422200696755482,0.011220988269958099,0.00014005780717907257,-0.019271582252483488
47,0.037585,189.485,167.209,-0.134324,178.466,0.953775,0.90131,0.0104885,0.0114451,-0.0200115,0.0518585,0.000138008,0.000142637,0.0277385,0.010543697125686924,0.05322670039077804,0.00013801752354214436,0.011510845739787667,0.00014264717314049769,-0.01981259891317233
48,0.038585,190.902,168.062,0.21269,179.263,0.932435,0.931302,0.0107656,0.0117288,-0.0205578,0.0532243,0.000140798,0.000147387,0.0285502,0.010823757584744964,0.05466618021517555,0.00014080791250359326,0.011797852076647963,0.00014739786199746696,-0.020347929051644953
49,0.039585,191.211,168.441,-0.238964,180.047,0.945865,0.876782,0.0110338,0.0120151,-0.0211104,0.0545946,0.000144837,0.000149002,0.029365,0.011094896874682902,0.056112379919354805,0.0001448474893845919,0.012087571273021513,0.00014901310134929346,-0.02088913523700975
50,0.040585,192.208,169.106,-0.182181,180.823,0.936539,0.875933,0.0113073,0.0122991,-0.0216581,0.05596,0.000148032,0.000152444,0.0301768,0.011371469148512503,0.057555380675328616,0.0001480429572771058,0.012375044962594783,0.00015245562017707215,-0.021425247429914696
51,0.041585,193.488,169.899,0.0945794,181.589,0.916287,0.89768,0.0115833,0.0125815,-0.0222035,0.0573227,0.000150755,0.00015673,0.0309872,0.011650646198658077,0.058997493753159436,0.0001507663641060475,0.012660980047425996,0.00015674228278816926,-0.02195881658243226
52,0.042585,194.042,170.385,-0.146078,182.344,0.919199,0.864129,0.0118535,0.0128655,-0.0227527,0.0586878,0.000154282,0.000158968,0.0317993,0.01192403113590279,0.06044411840088659,0.00015429390207977178,0.012948616608217778,0.00015898063608199564,-0.02249580932865969
53,0.043585,195.419,171.219,0.218686,183.091,0.893844,0.893179,0.0121303,0.0131465,-0.0232963,0.0600474,0.000156715,0.000163455,0.0326082,0.012204170477217335,0.061886878790530675,0.0001567272804370301,0.013233295164948533,0.00016346835949643257,-0.023027036206161866
54,0.044585,195.632,171.564,-0.246682,183.828,0.90647,0.83544,0.0123977,0.0134303,-0.0238464,0.0614117,0.000160504,0.000164722,0.0334201,0.012474870063324595,0.06333659976155936,0.00016051688145624077,0.013520891582117667,0.0001647355674134765,-0.023564321239747388
55,0.045585,196.578,172.207,-0.180109,184.557,0.894295,0.833526,0.0126708,0.0137116,-0.0243914,0.062771,0.000163371,0.000167889,0.0342292,0.012751414710791664,0.06478297600852612,0.0001633843457686801,0.013806035112477133,0.00016790309414682625,-0.024096333698108374
56,0.046585,197.784,172.967,0.0860985,185.277,0.872387,0.852078,0.0129462,0.0139916,-0.0249343,0.0641276,0.000165804,0.000171814,0.0350367,0.013030364860075583,0.06622844083088664,0.00016581774624291334,0.014089940547214574,0.00017182876087074028,-0.024626008005443234
57,0.047585,198.298,173.438,-0.135139,185.989,0.87297,0.819114,0.0132158,0.0142731,-0.0254808,0.0654866,0.000169009,0.00017383,0.0358458,0.013303514665381044,0.06767843032667509,0.00016902328282575318,0.01437544704863325,0.00017384510930984476,-0.025158904264902304
58,0.048585,199.579,174.229,0.199482,186.691,0.846955,0.843196,0.0134918,0.0145517,-0.026022,0.0668402,0.000171181,0.000177884,0.0366519,0.013583225033684032,0.06912461840924666,0.00017119565230339084,0.014658091418713548,0.00017789982229698964,-0.02568634552743465
59,0.049585,199.791,174.575,-0.220159,187.388,0.856737,0.789335,0.0137589,0.0148331,-0.0265691,0.0681982,0.000174622,0.000179042,0.0374608,0.013853989272044842,0.07057747590801244,0.00017463724730903962,0.014943656382744974,0.0001790580289755539,-0.02621924673937781
60,0.050585,200.676,175.19,-0.157336,188.076,0.843126,0.785615,0.0140313,0.0151121,-0.0271116,0.0695514,0.000177187,0.0001819,0.0382669,0.01413020071701343,0.07202716198479475,0.00017720269854359927,0.015226865168664228,0.00018191654480825825,-0.02674737952904982
61,0.051585,201.782,175.907,0.0744076,188.755,0.821689,0.799273,0.0143055,0.0153899,-0.0276522,0.0709021,0.00017939,0.000185394,0.0390716,0.014408313345548818,0.0734761274109983,0.00017940609134825536,0.015508934369406147,0.00018541118652959376,-0.027273377705559154
62,0.052585,202.29,176.373,-0.112004,189.429,0.819768,0.769173,0.0145748,0.015669,-0.0281958,0.0722548,0.000182254,0.000187258,0.0398776,0.014681530291343448,0.07492920113339019,0.00018227060926934158,0.015792402469121836,0.00018727553387365425,-0.027802008202651662
63,0.053585,203.447,177.108,0.168138,190.093,0.795178,0.786548,0.0148494,0.0159457,-0.028735,0.0736027,0.000184229,0.000190809,0.040681,0.01496020009917487,0.07637907512666042,0.0001842459712044775,0.016073511116472705,0.00019082720519514318,-0.028326076058437732
64,0.054585,203.706,177.474,-0.177832,190.754,0.801156,0.739986,0.0151164,0.0162246,-0.0292789,0.0749541,0.000187278,0.000191976,0.0414865,0.015231230653570238,0.07783467713753711,0.0001872955376194252,0.016356933540143004,0.00019199442857154025,-0.028854425807930184
65,0.055585,204.527,178.059,-0.126687,191.405,0.787128,0.734192,0.0153879,0.0165015,-0.0298189,0.0763013,0.00018957,0.000194515,0.0422896,0.015506903353568413,0.07928771456081951,0.00018958796952794899,0.01663840174251452,0.00019453391926926855,-0.02937870285045252
66,0.056585,205.529,178.728,0.0631471,192.049,0.76725,0.742821,0.0156608,0.0167774,-0.0303573,0.0776463,0.000191578,0.000197572,0.0430915,0.015784073005572274,0.08074033320395602,0.0001915963522369779,0.016918930974783253,0.00019759151863296687,-0.029901144702870974
67,0.057585,206.04,179.193,-0.0864129,192.689,0.763122,0.716242,0.0159296,0.0170542,-0.0308981,0.0789926,0.000194108,0.000199309,0.0438943,0.016057152464631352,0.082196313787962,0.00019412684017683368,0.017200453095741253,0.0001993288633583834,-0.03042563232957851
68,0.058585,207.074,179.872,0.135908,193.319,0.740828,0.727179,0.0162027,0.0173291,-0.0314352,0.0803349,0.000195919,0.000202366,0.0446948,0.01633467556702417,0.08364992127036608,0.00019593819338070695,0.017480119938743544,0.0002023864773803563,-0.030946250897822325
69,0.059585,207.393,180.259,-0.134908,193.947,0.743131,0.688367,0.0164697,0.0176057,-0.0319759,0.0816798,0.000198582,0.000203562,0.0454969,0.01660607315536633,0.0851083025181314,0.00019860171871055599,0.017761593865968095,0.00020358272014986412,-0.031470076630912946
70,0.060585,208.594,181.001,0.212988,194.563,0.713929,0.711712,0.0167439,0.0178793,-0.032511,0.0830186,0.000200039,0.000206971,0.0462957,0.016884864761207874,0.08656201841382827,0.00020005900913488972,0.0180400915347938,0.0002069924199752382,-0.031988198357077
71,0.061585,208.651,181.282,-0.225744,195.182,0.72525,0.656241,0.0170084,0.0181559,-0.033052,0.0843624,0.000202934,0.000207459,0.0470973,0.01715386638183336,0.08802312194976691,0.00020295459249708436,0.01832172037158486,0.00020748052110652893,-0.032511751107977105
72,0.062585,209.451,181.85,-0.150465,195.789,0.709782,0.652891,0.0172789,0.0184299,-0.0335884,0.085701,0.000204835,0.000209721,0.047896,0.01742904371874654,0.0894805249229984,0.00020485598012109918,0.018600778752218883,0.00020974299298637256,-0.03303057264430698
73,0.063585,210.433,182.502,0.0611292,196.388,0.688253,0.663422,0.0175508,0.0187031,-0.0341231,0.0870372,0.000206442,0.000212491,0.0486934,0.017705720288208715,0.09093726182958584,0.00020646331061602297,0.018879098501720648,0.00021251357781171265,-0.03354747299149097
74,0.064585,210.878,182.934,-0.0943491,196.986,0.684866,0.636592,0.0178182,0.0189773,-0.0346603,0.0883752,0.000208659,0.000213869,0.0494919,0.01797789118544091,0.09239791284353194,0.0002086807708032712,0.019158513456569493,0.00021389187160503198,-0.03406651186267695
75,0.065585,211.879,183.59,0.138763,197.574,0.661595,0.64836,0.01809,0.0192495,-0.0351938,0.0897089,0.000210097,0.00021661,0.050288,0.018254615181352518,0.09385581592645775,0.00021011907192036716,0.019435966163532603,0.00021663346164002562,-0.034581699939959076
76,0.066585,212.128,183.944,-0.139143,198.163,0.665024,0.609513,0.0183555,0.0195235,-0.035731,0.0910455,0.000212466,0.000217462,0.0510858,0.01852499767337079,0.0953188411319621,0.00021248857249922537,0.019715329889344213,0.00021748564657486646,-0.03510018337363219
77,0.067585,213.293,184.66,0.213213,198.738,0.635099,0.632962,0.0186285,0.0197945,-0.0362626,0.0923758,0.000213567,0.000220535,0.0518801,0.018803092956014567,0.0967769134080656,0.0002135898070554365,0.019991710191583634,0.00022055931963094189,-0.03561298780065758
78,0.068585,213.293,184.915,-0.224213,199.32,0.647504,0.578695,0.0188915,0.0200685,-0.0368001,0.0937112,0.000216171,0.000220733,0.0526773,0.019071073407346706,0.09824252767107233,0.0002161943666343369,0.020271226212122073,0.00022075736332127782,-0.03613120653595325
79,0.069585,214.054,185.458,-0.143799,199.888,0.631858,0.576051,0.0191606,0.0203401,-0.0373329,0.0950413,0.000217741,0.000222695,0.0534716,0.019345342334429638,0.09970427197467102,0.00021776470729228947,0.02054836951151784,0.00022271979837240607,-0.03664461904387328
80,0.070585,214.972,186.075,0.0538114,200.449,0.611175,0.58527,0.019431,0.0206107,-0.0378642,0.0963693,0.000219059,0.00022509,0.0542647,0.0196210105836645,0.10116564938768402,0.00021908299517492402,0.020824567268178606,0.00022511533465485734,-0.037156313814022845
81,0.071585,215.393,186.491,-0.0838941,201.012,0.6075,0.560901,0.0196971,0.0208824,-0.0383978,0.0976988,0.000220947,0.000226235,0.0550587,0.019892367837062164,0.10263062274379631,0.0002209714105860794,0.021101962985607292,0.0002262605930676287,-0.03766995015460872
82,0.072585,216.315,187.105,0.122914,201.563,0.585735,0.570216,0.0199673,0.0211523,-0.038928,0.0990243,0.000222128,0.000228567,0.0558505,0.020167979988376494,0.1040931286959339,0.0002221526722510081,0.02137759560036523,0.0002285931234269345,-0.0381800423096571
83,0.073585,216.568,187.454,-0.118909,202.118,0.588185,0.535905,0.0202316,0.0214238,-0.0394614,0.100352,0.000224149,0.00022927,0.0566436,0.02043764602028375,0.10556000671439314,0.00022417412326425357,0.021654937264997898,0.000229296284375069,-0.0386929402730416
84,0.074585,217.623,188.116,0.183707,202.657,0.560936,0.554511,0.0205026,0.0216925,-0.0399899,0.101675,0.000225044,0.000231855,0.0574337,0.020714222096720913,0.10702363057697628,0.00022506932430066406,0.021929492831529673,0.00023188188044787061,-0.03920085682533614
85,0.075585,217.671,188.383,-0.186616,203.206,0.570958,0.508115,0.0207649,0.0219639,-0.0405234,0.103001,0.000227257,0.000232034,0.0582262,0.020981990553474716,0.10849251756797051,0.00022728282482820106,0.022206882135910044,0.0002320609219708114,-0.039713306460125164
86,0.076585,218.374,188.895,-0.118046,203.741,0.556245,0.504608,0.0210324,0.0222331,-0.0410528,0.104323,0.000228558,0.000233675,0.0590161,0.02125513976802651,0.1099589137505057,0.00022858412136983475,0.022482097270876134,0.00023370230412944615,-0.04022154769236086
87,0.077585,219.205,189.469,0.0456459,204.269,0.537948,0.51085,0.0213009,0.0225016,-0.0415809,0.105643,0.000229668,0.000235667,0.0598048,0.02152938358863965,0.11142502693848066,0.00022969437571429552,0.022756670573809812,0.00023569477164908648,-0.04072827288046188
88,0.078585,219.624,189.875,-0.0648053,204.8,0.533522,0.489999,0.0215659,0.0227709,-0.0421108,0.106964,0.000231238,0.000236648,0.0605942,0.021800124746909733,0.11289418956733699,0.00023126473756729382,0.023032136034954798,0.00023667600334698058,-0.041236456313570646
89,0.079585,220.448,190.441,0.0998229,205.319,0.514534,0.495641,0.021834,0.0230386,-0.042638,0.108281,0.000232235,0.000238556,0.0613817,0.02207410608591176,0.11436083679020315,0.00023226196863523896,0.023306038397966855,0.0002385844567454054,-0.04174178323792077
90,0.080585,220.737,190.796,-0.0894724,205.843,0.515076,0.467503,0.0220975,0.0233076,-0.0431675,0.109601,0.000233905,0.000239199,0.0621702,0.02234345809843452,0.11583276435323397,0.0002339323579074737,0.02358134474934004,0.0002392276103619917,-0.042249046653855094
91,0.081585,221.657,191.396,0.144293,206.353,0.492002,0.479791,0.0223661,0.0235744,-0.0436931,0.110915,0.000234675,0.000241272,0.0629561,0.022618096433556945,0.11729993232385039,0.00023470253833202115,0.023854472685765682,0.00024130110842990327,-0.04275230828619114
92,0.082585,221.795,191.69,-0.138,206.871,0.498313,0.443179,0.0226279,0.0238432,-0.0442224,0.112233,0.000236479,0.000241531,0.0637437,0.02288585289899525,0.11877350450540614,0.00023650696336297017,0.02412972175984196,0.00024156017096044202,-0.04325884542253622
93,0.083585,222.871,192.347,0.204802,207.369,0.469018,0.465877,0.0228976,0.0241088,-0.0447462,0.113544,0.00023695,0.000243906,0.0645279,0.0231617624182483,0.12024117841985338,0.0002369780748685546,0.024401766739915454,0.00024393574748682312,-0.04375985521338466
94,0.084585,222.798,192.558,-0.209365,207.884,0.483368,0.41721,0.0231572,0.0243776,-0.0452756,0.114861,0.000238973,0.000243653,0.0653148,0.023427409691296308,0.12171750800147207,0.00023900155632206044,0.024677162946407094,0.00024368268580321484,-0.044265954769662
95,0.085585,223.482,193.051,-0.12504,208.381,0.468643,0.41614,0.023423,0.0246439,-0.0458005,0.116172,0.000239937,0.000245035,0.0660988,0.023699472852384718,0.12318904403556896,0.00023996578718432637,0.024950070810969116,0.0002450650235277241,-0.04476748793110996
96,0.086585,224.275,193.597,0.04025,208.872,0.45089,0.423219,0.0236896,0.0249096,-0.0463242,0.117481,0.000240734,0.000246717,0.0668818,0.02397242751508699,0.12466026119576767,0.00024076297875463837,0.02522243622692688,0.0002467474371421474,-0.04526761222870268
97,0.087585,224.66,193.979,-0.0626564,209.367,0.447325,0.404384,0.0239525,0.025176,-0.0468497,0.118791,0.000242006,0.000247437,0.0676654,0.024241665256030887,0.12613453157419907,0.00024203528581434597,0.02549559186665329,0.00024746761505944903,-0.04576919229677101
98,0.088585,225.432,194.512,0.0929076,209.851,0.429532,0.409858,0.0242186,0.025441,-0.0473725,0.120098,0.000242724,0.00024901,0.0684471,0.02451425222924386,0.12760735168524717,0.00024275345985347307,0.02576738420939284,0.000249041005563555,-0.046267933780654746
99,0.089585,225.697,194.848,-0.0817059,210.341,0.430647,0.384585,0.0244802,0.0257072,-0.0478976,0.121407,0.000244096,0.000249435,0.0692298,0.024782300216775077,0.12908435619715464,0.00024412579385280075,0.02604047983448443,0.00024946611149623266,-0.0467686070253619
100,0.090585,226.55,195.409,0.131075,210.816,0.409381,0.395453,0.0247467,0.0259713,-0.048419,0.122711,0.000244621,0.000251139,0.07001,0.025055441094188335,0.1305576425715853,0.0002446509221565307,0.026311492910910284,0.00025117053803880296,-0.04726549232440458
101,0.091585,226.685,195.693,-0.121674,211.302,0.415537,0.363295,0.0250068,0.0262373,-0.0489437,0.124018,0.000246111,0.000251249,0.0707917,0.025322092690953646,0.13203624746824083,0.0002461412877967639,0.026584528080092262,0.0002512805656735839,-0.04776526099480527
102,0.092585,227.668,196.3,0.180487,211.766,0.389049,0.382529,0.025274,0.0265004,-0.0494635,0.125319,0.000246382,0.000253191,0.0715702,0.025596095359247117,0.13350998508464573,0.0002464123545378172,0.026854658003463205,0.00025322305554653646,-0.04826010399130354
103,0.093585,227.63,196.516,-0.178995,212.249,0.401957,0.340925,0.0255322,0.0267662,-0.049988,0.126625,0.000248054,0.000252895,0.0723511,0.02586093846084192,0.1349913162238492,0.0002480847679373621,0.02712763224823056,0.0002529269806363921,-0.04875916067770314
104,0.094585,228.263,196.978,-0.104584,212.714,0.388592,0.339637,0.0257958,0.0270299,-0.0505087,0.127926,0.000248771,0.000253984,0.0731294,0.026131391048305197,0.1364689008866662,0.0002488019460713531,0.02739852152003519,0.000254016256666878,-0.04925434285087138
105,0.095585,228.981,197.484,0.0340046,213.174,0.373278,0.344932,0.0260601,0.027293,-0.0510283,0.129225,0.000249369,0.000255313,0.0739067,0.026402633418059374,0.13794613324361005,0.00024940009503371385,0.027668865633255768,0.00025534559513795685,-0.04974822197341833
106,0.096585,229.358,197.853,-0.0484334,213.638,0.369657,0.329247,0.0263213,0.0275567,-0.0515493,0.130524,0.000250356,0.000255864,0.0746844,0.02667076480234254,0.13942528577226732,0.00025038734167881493,0.02793989764712368,0.0002558967359851394,-0.050243174203518426
107,0.097585,230.049,198.343,0.0758469,214.091,0.354532,0.332586,0.026585,0.0278192,-0.0520681,0.131821,0.000250895,0.000257078,0.0754605,0.026941533582315547,0.1409040791581213,0.0002509264767829311,0.028209767289096854,0.00025711104738079804,-0.050735780251683904
108,0.098585,230.333,198.676,-0.0608743,214.551,0.354695,0.312217,0.026845,0.0280826,-0.0525885,0.133119,0.000251959,0.000257407,0.0762372,0.027208573094679167,0.14238593416871748,0.00025199074433479574,0.028480633413303424,0.0002574401320245556,-0.05122964883588965
109,0.099585,231.081,199.185,0.103401,214.997,0.337045,0.31927,0.0271089,0.0283443,-0.053106,0.134413,0.000252349,0.0002587,0.0770119,0.02747968920931676,0.1438651384062708,0.0002523808426873053,0.02874982201686005,0.0002587334657309093,-0.05172051047121429
110,0.1006,231.27,199.48,-0.0888021,215.453,0.340982,0.294215,0.0273677,0.0286074,-0.0536259,0.135709,0.000253495,0.000258803,0.0777875,0.02774563536483221,0.14534854866786495,0.00025352713257253967,0.029020521704014923,0.0002588364923856723,-0.05221339284194604
111,0.1016,232.109,200.02,0.137549,215.89,0.319637,0.306988,0.0276319,0.0288683,-0.0541421,0.137001,0.000253697,0.00026025,0.0785606,0.028017201634020106,0.14682929534912015,0.00025372918380539566,0.029289028183274723,0.0002602838679692798,-0.052702514035519954
112,0.1026,232.176,200.267,-0.127947,216.343,0.328408,0.275694,0.0278892,0.0291312,-0.0546616,0.138295,0.000254964,0.000260073,0.0793353,0.028281744491979843,0.14831425301770795,0.0002549965060831827,0.02955966384228259,0.0002601068219145741,-0.05319450727316999
113,0.1036,233.142,200.852,0.183484,216.77,0.301973,0.296186,0.0281542,0.0293911,-0.0551761,0.139583,0.00025493,0.000261745,0.0801067,0.028554275263002582,0.1497942346791843,0.0002549624974139686,0.02982728117428124,0.0002617792582113587,-0.05368151340610727
114,0.1046,233.046,201.035,-0.180713,217.222,0.317162,0.256449,0.0284097,0.0296539,-0.0556954,0.140877,0.000256379,0.000261211,0.0808806,0.028817104455331588,0.15128303146263677,0.0002564118679047045,0.030097955348802552,0.0002612451185639575,-0.05417280902024857
115,0.1056,233.651,201.473,-0.100623,217.653,0.304544,0.256695,0.028671,0.0299144,-0.0562108,0.142165,0.000256825,0.000262056,0.0816518,0.029085969490412866,0.15276683937432622,0.00025685798236385615,0.030366330820558396,0.00026209033967306006,-0.05466016275263441
116,0.1066,234.319,201.946,0.0284642,218.079,0.290745,0.262003,0.0289327,0.0301745,-0.0567253,0.143451,0.000257186,0.00026309,0.0824221,0.029355316531151532,0.15425025115910085,0.0002572190751546355,0.030634363959403332,0.00026312461120925335,-0.055146414999781346
117,0.1076,234.675,202.294,-0.0420857,218.51,0.287796,0.248838,0.0291915,0.0304351,-0.057241,0.144738,0.00025791,0.000263442,0.0831927,0.029621748161835715,0.15573672757473656,0.00025794326164341186,0.03090298227409738,0.0002634767038911523,-0.055633550374913465
118,0.1086,235.307,202.749,0.0659625,218.932,0.274617,0.251622,0.0294526,0.0306946,-0.0577548,0.146022,0.000258237,0.00026435,0.0839618,0.02989061749964539,0.1572216466469769,0.0002582703460443092,0.03117053631163258,0.0002643849435401968,-0.05611864122621946
119,0.1096,235.583,203.067,-0.0498024,219.36,0.274952,0.234698,0.0297103,0.0309549,-0.0582698,0.147308,0.00025903,0.000264524,0.0847313,0.030156054511865094,0.15871079099915497,0.0002590635511672268,0.031438984939307524,0.000264558989558461,-0.056604614977006085
120,0.1106,236.257,203.534,0.0873453,219.774,0.259858,0.240113,0.0299713,0.0312137,-0.0587824,0.148589,0.000259242,0.000265483,0.0854991,0.030424960332775974,0.16019605062811282,0.00025927560611127554,0.031705955893161164,0.0002655182437305559,-0.057088075529843074
121,0.1116,236.46,203.823,-0.0703104,220.199,0.263169,0.219811,0.0302281,0.0314737,-0.0592969,0.149873,0.000260098,0.000265489,0.0862675,0.030689607441823696,0.16168669914867229,0.0002601318284176646,0.03197423431637714,0.00026552424532355623,-0.057573078937157685
122,0.1126,237.2,204.313,0.11228,220.606,0.24531,0.229313,0.0304893,0.0317317,-0.0598082,0.151152,0.000260166,0.000266552,0.0870338,0.030958858729974947,0.1631734470094668,0.00026019984610892166,0.03224051801795125,0.0002665875281409047,-0.05805481865464335
123,0.1136,237.312,204.565,-0.098396,221.029,0.252258,0.204696,0.0307448,0.0319914,-0.0603221,0.152434,0.00026111,0.000266358,0.0878012,0.031222302371872512,0.1646655916288693,0.000261144092183363,0.032508625692755144,0.0002663934764417508,-0.05853875992397706
124,0.1146,238.144,205.087,0.144599,221.428,0.230712,0.219538,0.0310064,0.0322487,-0.0608321,0.15371,0.000261003,0.000267571,0.0885659,0.03149210541487246,0.1661526534674742,0.00026103706424662754,0.032774324342811356,0.00026760680031290285,-0.05901878274019323
125,0.1156,238.139,205.293,-0.135049,221.849,0.24231,0.189273,0.0312605,0.0325081,-0.0613456,0.15499,0.000262073,0.000267131,0.0893323,0.03175424086175638,0.16764628458389663,0.00026210734412890346,0.03304226075239591,0.0002671666826628005,-0.05950185255646612
126,0.1166,239.093,205.859,0.186666,222.239,0.215892,0.210965,0.0315227,0.0327645,-0.061854,0.156263,0.00026175,0.00026855,0.0900954,0.032024802292764054,0.16913364480809556,0.0002617842595202813,0.03330716674755019,0.0002685860627793524,-0.059979880289680265
127,0.1176,238.937,206.006,-0.182397,222.659,0.233471,0.173357,0.0317751,0.0330238,-0.0623673,0.157542,0.000262997,0.000267804,0.090861,0.03228531822859071,0.1706299234059956,0.00026303158674290117,0.03357513803686385,0.00026783986269252047,-0.0604622688015245
128,0.1186,239.516,206.42,-0.0963706,223.055,0.221629,0.175135,0.0320336,0.0332808,-0.0628766,0.158815,0.00026319,0.000268423,0.0916239,0.03255219847613877,0.17212108422097772,0.00026322463752670444,0.03384080098356579,0.0002684590286770039,-0.06094065353701039
129,0.1196,240.134,206.86,0.0228203,223.448,0.209429,0.180459,0.0322922,0.0335375,-0.0633852,0.160087,0.000263333,0.000269179,0.0923859,0.03281925100306804,0.17361297087886718,0.00026336767517798343,0.034106221982506124,0.00026921523191791863,-0.0614181376861096
130,0.1206,240.47,207.187,-0.0358202,223.847,0.207161,0.169823,0.0325483,0.0337946,-0.0638948,0.16136,0.000263811,0.00026935,0.0931482,0.03308378988600813,0.17510793153136572,0.00026384580118210543,0.0343721248725295,0.00026938627796835313,-0.06189631715266841
131,0.1216,241.043,207.605,0.0563068,224.236,0.195998,0.172159,0.0328062,0.0340507,-0.0644027,0.16263,0.000263946,0.000269974,0.0939092,0.0333502565548196,0.17660126667150777,0.00026398083681034024,0.03463706149739609,0.00027001044626007165,-0.06237265903592548
132,0.1226,241.311,207.907,-0.0393968,224.632,0.196526,0.158567,0.0330613,0.0343075,-0.0649116,0.1639,0.000264486,0.000270005,0.0946703,0.03361389783128188,0.17809649955208817,0.0002645209795058001,0.0349027904129211,0.0002700414546308316,-0.06284969619734115
133,0.1236,241.912,208.333,0.07233,225.015,0.184001,0.162612,0.0333191,0.034563,-0.0654184,0.165168,0.000264536,0.000270655,0.0954299,0.03388039784451857,0.17959127339986192,0.00026457099273313744,0.03516724185810505,0.00027069163036919086,-0.06332452363987129
134,0.1246,242.126,208.612,-0.0536121,225.409,0.186776,0.146714,0.0335732,0.0348194,-0.0659266,0.166436,0.000265121,0.000270568,0.09619,0.03414314023361764,0.18108794382304927,0.00026515614767830264,0.03543269276826999,0.00027060460682282184,-0.06380042118114981
135,0.1256,242.773,209.054,0.0896193,225.786,0.17229,0.153507,0.033831,0.0350743,-0.0664323,0.167701,0.000265066,0.000271284,0.0969481,0.034409776703134165,0.18258296547381536,0.00026510113309630157,0.03569665820262191,0.00027132080083203114,-0.0642737376200101
136,0.1266,242.922,209.307,-0.0726898,226.177,0.177664,0.134813,0.0340842,0.0353304,-0.0669399,0.168968,0.000265712,0.000271062,0.0977071,0.034671722419523654,0.18408224768578685,0.0002657473045604153,0.03596193408391435,0.00027109874062358763,-0.06474859174262204
137,0.1276,243.632,209.769,0.111107,226.547,0.160656,0.145081,0.0343422,0.0355846,-0.0674444,0.17023,0.000265533,0.000271869,0.0984638,0.034938702162813806,0.18557750278988627,0.0002655682570076312,0.03622530908110244,0.00027190595972581555,-0.0652203070778895
138,0.1286,243.701,209.991,-0.0967169,226.937,0.169218,0.122857,0.0345942,0.0358404,-0.0679514,0.171495,0.000266261,0.000271487,0.0992218,0.03519953957989297,0.18707820732641278,0.00026629645060638474,0.036490409420053105,0.00027152385593076644,-0.06569412026040977
139,0.1296,244.49,210.481,0.138024,227.3,0.148997,0.137415,0.0348525,0.0360938,-0.0684546,0.172755,0.000265935,0.000272417,0.099977,0.035466966157622126,0.18857486856621675,0.0002659703638467903,0.03675308936994437,0.0002724541088805488,-0.06616414471102505
140,0.1306,244.461,210.664,-0.126638,227.689,0.161502,0.110766,0.0351033,0.0363494,-0.0689611,0.174019,0.000266775,0.000271844,0.100734,0.03572669384122462,0.19007817709091968,0.0002668105876149074,0.037018117328717404,0.000271880952928516,-0.06663701280777423
141,0.1316,245.35,211.19,0.171598,228.044,0.137219,0.130587,0.035362,0.036602,-0.069463,0.175275,0.000266272,0.000272933,0.101488,0.035994670998271916,0.19157385437005336,0.00026630745353561913,0.03728010119232361,0.00027297024960004634,-0.06710535015195818
142,0.1326,245.199,211.326,-0.163663,228.433,0.154594,0.0984341,0.0356113,0.0368574,-0.0699691,0.176537,0.000267257,0.000272131,0.102244,0.03625297666621563,0.1930785698500299,0.00026729271633385565,0.03754505636350336,0.00027216803099960885,-0.06757736867988262
143,0.1336,246.214,211.897,0.213252,228.779,0.125217,0.12469,0.0358707,0.0371092,-0.0704695,0.177791,0.000266542,0.000273423,0.102996,0.03652181555525913,0.19457562883642732,0.00026657752547509794,0.037806343103315765,0.00027346038347553225,-0.06804383624467691
144,0.1346,246.399,212.154,0.0835963,229.153,0.127512,0.108319,0.0361228,0.0373629,-0.0709733,0.179049,0.000266925,0.000273192,0.103749,0.03678315564549495,0.1960793506201941,0.00026696062764774986,0.03806966797390854,0.0002732293203329128,-0.0685132375078702
145,0.1356,246.699,212.465,0.0324918,229.52,0.128305,0.10048,0.0363755,0.0376163,-0.0714759,0.180305,0.00026726,0.000273233,0.104502,0.03704518385479649,0.19758257010879676,0.0002672957171356849,0.03833274815862464,0.00027327033153623503,-0.06898128512447999
146,0.1366,247.082,212.794,0.0264748,229.882,0.123396,0.0954481,0.0366287,0.0378691,-0.0719778,0.181559,0.000267381,0.000273354,0.105254,0.03730779694076203,0.19908528065430553,0.00026741674948582705,0.03859527185895684,0.0002733913646091324,-0.06944844617360413
147,0.1376,247.439,213.117,0.00879598,230.244,0.120805,0.0898634,0.0368815,0.0381218,-0.0724794,0.182813,0.000267574,0.00027344,0.106006,0.037570061500672436,0.2005898767808505,0.0002676098011158423,0.038857758047888824,0.00027347738812455447,-0.06991509378799765
148,0.1386,247.847,213.455,0.0213344,230.601,0.115503,0.0866716,0.0371346,0.0383741,-0.0729803,0.184065,0.000267658,0.000273598,0.106756,0.03783270371920899,0.20209395666411623,0.0002676938235985915,0.03911989492742096,0.00027363543134639734,-0.07038085665747018
149,0.1396,248.202,213.774,0.0042006,230.959,0.112658,0.0812313,0.0373869,0.0386262,-0.0734809,0.185316,0.000267818,0.000273662,0.107506,0.038094581944906336,0.20359871723539436,0.0002678538664424579,0.03938189007603321,0.0002736994488612421,-0.07084610753861587
150,0.1406,248.614,214.112,0.0224204,231.312,0.107308,0.0786655,0.0376396,0.038878,-0.0739808,0.186566,0.000267875,0.000273817,0.108256,0.03835694159350922,0.20510415633535528,0.00026791088171163047,0.03964363938880977,0.0002738544912965768,-0.07131047549101721
151,0.1416,248.959,214.425,0.00164279,231.666,0.104739,0.0730621,0.0378915,0.0391297,-0.0744806,0.187815,0.00026802,0.00027385,0.109005,0.038618536653611146,0.20661027179993074,0.00026805592056922123,0.039905350627821745,0.0002738875003343022,-0.07177451854134864
152,0.1426,249.375,214.764,0.0245381,232.016,0.0992547,0.0709946,0.0381438,0.039381,-0.0749797,0.189063,0.000268048,0.000273998,0.109753,0.03888061316997127,0.20811706146031583,0.00026808392807531334,0.04016671168107533,0.00027403554088056836,-0.07223768028751643
153,0.1436,249.709,215.071,-0.00102915,232.367,0.097108,0.065145,0.0383951,0.0396322,-0.0754786,0.19031,0.000268184,0.000273998,0.1105,0.039141716674341964,0.20962452314297297,0.00026821996454384767,0.040428034379806466,0.00027403554088056836,-0.07270042546743771
154,0.1446,250.129,215.41,0.0271776,232.712,0.0913986,0.0636106,0.0386471,0.039883,-0.0759767,0.191555,0.000268181,0.000274142,0.111247,0.03940361338454346,0.21113144353758462,0.00026821696373913184,0.04068900645535933,0.0002741795803520297,-0.07316219837142335
155,0.1456,250.449,215.71,-0.00415204,233.06,0.0897579,0.0574407,0.0388979,0.0401338,-0.0764748,0.1928,0.000268312,0.000274107,0.111994,0.03966432850308954,0.21264024121645453,0.0002683479988843107,0.04095004399091695,0.0002741445707563628,-0.07362374132359972
156,0.1466,250.877,216.05,0.0303577,233.402,0.0837395,0.0565065,0.0391495,0.040384,-0.076972,0.194043,0.000268275,0.000274249,0.112739,0.03992594095760782,0.2141484902188482,0.0002683109889560775,0.0412105222763981,0.00027428660969497365,-0.0740842211146514
157,0.1476,251.181,216.342,-0.00784114,233.747,0.0826834,0.0499318,0.0393998,0.0406344,-0.0774693,0.195286,0.000268406,0.000274178,0.113485,0.04018626699907446,0.2156586151403943,0.00026844202411346885,0.04147127403593398,0.00027421559022333675,-0.07454456455760683
158,0.1486,251.617,216.684,0.0341584,234.085,0.0762661,0.0496798,0.0396511,0.0408841,-0.0779656,0.196527,0.000268333,0.000274323,0.114229,0.040447698655483144,0.21716818397550752,0.000268369004519764,0.04173136188367721,0.00027436062999508515,-0.07500375413289839
159,0.1496,251.904,216.968,-0.0121894,234.427,0.0758819,0.0426038,0.0399008,0.041134,-0.078462,0.197768,0.000268467,0.000274212,0.114973,0.04070753088454104,0.21867962734845525,0.0002685030404903088,0.04199172308178856,0.00027424959954713835,-0.0754628083226705
160,0.1506,252.352,217.312,0.0386727,234.76,0.068965,0.0431288,0.0401518,0.0413832,-0.0789574,0.199007,0.000268356,0.000274364,0.115716,0.040968781260343645,0.2201905072035284,0.0002683920106925086,0.04225141977604485,0.00027440164124459265,-0.07592071061566452
161,0.1516,252.618,217.588,-0.0172936,235.1,0.0693524,0.0354422,0.0404009,0.0416327,-0.0794531,0.200246,0.000268497,0.000274211,0.116459,0.041228118882915554,0.22170326019891262,0.0002685330485456827,0.042511493948182766,0.0002742485992728305,-0.07637866320648545
162,0.1526,253.08,217.936,0.0440024,235.429,0.0618214,0.0368526,0.0406516,0.0418814,-0.0799474,0.201482,0.000268343,0.000274375,0.117201,0.04148918749590269,0.22321421900870564,0.00026837900720355634,0.042770798799949494,0.000274412644263089,-0.07683509641650121
163,0.1536,253.324,218.201,-0.0232585,235.767,0.0630951,0.0284327,0.0409002,0.0421305,-0.0804423,0.202719,0.000268497,0.000274175,0.117943,0.04174813389361787,0.22472827124586514,0.0002685330485456827,0.04303058536100335,0.0002742125894006353,-0.07729185769238422
164,0.1546,253.803,218.554,0.0502584,236.092,0.0548203,0.0308509,0.0411506,0.0423787,-0.0809358,0.203953,0.000268297,0.000274355,0.118683,0.042009020287958165,0.22624051879742324,0.0002683329948591773,0.04328949768197976,0.00027439263877515607,-0.07774710181988531
165,0.1556,254.021,218.808,-0.0301965,236.427,0.0571111,0.0215606,0.0413985,0.0426274,-0.0814299,0.205188,0.000268468,0.000274105,0.119424,0.04226736634475836,0.22775586136957315,0.00026850404075862144,0.04354899604733764,0.0002741425702081912,-0.07820267441839723
166,0.1566,254.521,219.167,0.0575599,236.748,0.047946,0.0251243,0.0416488,0.042875,-0.0819224,0.20642,0.000268218,0.000274308,0.120163,0.042528278518350726,0.22926938873219682,0.00026825397366403436,0.043807410769181265,0.0002743456258798016,-0.0786565478257455
167,0.1576,254.709,219.409,-0.0382281,237.081,0.0514024,0.0148109,0.041896,0.0431233,-0.0824157,0.207653,0.000268413,0.000274003,0.120902,0.042786023364751014,0.23078601269503451,0.0002684490259925454,0.04406662032881026,0.00027404054225077523,-0.07911093446702355
168,0.1586,255.234,219.776,0.0660345,237.398,0.0411826,0.0196736,0.0421461,0.0433704,-0.0829072,0.208883,0.000268107,0.000274235,0.12164,0.04304685676505171,0.23230081090056776,0.00026814294389398974,0.04432464106784306,0.00027427260585510815,-0.07956344023033224
169,0.1596,255.388,220.003,-0.0474804,237.73,0.0459719,0.00816894,0.0423926,0.0436183,-0.0833999,0.210114,0.000268332,0.000273868,0.122378,0.043303999506784985,0.233818707272323,0.00026836800425145135,0.04458356123819285,0.0002739055052645156,-0.08001682762217499
170,0.1606,255.943,220.38,0.0758174,238.042,0.0345139,0.0145004,0.0426425,0.0438649,-0.0838904,0.211342,0.000267965,0.000274136,0.123115,0.04356475375614832,0.23533476731520353,0.0002680009058277921,0.04484118730838316,0.00027417357870707093,-0.08046796871682793
171,0.1616,256.058,220.591,-0.0580865,238.372,0.0408233,0.00161977,0.0428883,0.0441124,-0.0843823,0.212571,0.000268228,0.000273703,0.123852,0.04382129350006436,0.2368539270766905,0.00026826397634649446,0.04509981750640879,0.00027374046008366015,-0.08092017529369033
172,0.1626,256.647,220.98,0.0870504,238.68,0.0279233,0.00960669,0.0431382,0.0443584,-0.0848718,0.213796,0.000267792,0.000274013,0.124587,0.04408217703735051,0.23837000154338206,0.00026782785947854215,0.045356943686738704,0.00027405054499118897,-0.0813699547753749
173,0.1636,256.719,221.173,-0.0701839,239.009,0.0359609,-0.0048513,0.0433832,0.0446056,-0.085363,0.215024,0.000268101,0.000273508,0.125324,0.0443380085088001,0.23989165400867218,0.0002681369422850022,0.045615387865602486,0.00027354540672330785,-0.08182107504937952
174,0.1646,257.348,221.575,0.0998805,239.311,0.0213943,0.00499475,0.043633,0.044851,-0.0858515,0.216246,0.000267589,0.000273868,0.126058,0.044598916729405635,0.24140772774226127,0.00026762480513009557,0.04587201336844604,0.0002739055052645156,-0.0822694959185033
175,0.1656,257.371,221.749,-0.083913,239.64,0.0313898,-0.0112587,0.0438771,0.0450979,-0.0863421,0.217472,0.000267953,0.000273282,0.126793,0.04485393444862562,0.24293062696294276,0.0002679889026118154,0.04613027104914558,0.0002733193449275806,-0.08271962407833966
176,0.1666,258.046,222.167,0.114459,239.937,0.0149103,0.000667049,0.044127,0.0453427,-0.0868295,0.218692,0.000267357,0.000273702,0.127525,0.045115076075131544,0.2444479276930871,0.00026739274306808447,0.046386395087801624,0.00027373945981001846,-0.08316659759726885
177,0.1676,258.013,222.318,-0.0994145,240.265,0.0271154,-0.0176165,0.0443702,0.0455892,-0.0873195,0.219916,0.000267785,0.000273028,0.128259,0.045369278971452376,0.24597206453804699,0.00026782085760368446,0.04664436112719894,0.00027306527553672133,-0.08361573591657134
178,0.1686,258.741,222.755,0.130938,240.557,0.00845493,-0.00337388,0.0446201,0.0458335,-0.0878058,0.221134,0.000267096,0.000273517,0.12899,0.045630549398647524,0.24749058310273053,0.0002671316733124929,0.0469000875803367,0.0002735544091851949,-0.08406126524495883
179,0.1696,258.645,222.881,-0.116828,240.886,0.0231438,-0.0239381,0.0448624,0.0460797,-0.0882952,0.222357,0.000267599,0.000272746,0.129723,0.04588393637735955,0.24901719742023687,0.0002676348078063384,0.04715786611313422,0.00027278319857204636,-0.0845094159903157
180,0.1706,259.433,223.339,0.14947,241.171,0.00201215,-0.00712561,0.0451125,0.0463234,-0.0887804,0.223572,0.000266807,0.000273312,0.130453,0.04614554466260001,0.2505356756037975,0.0002668425961533938,0.04741308958282264,0.0002733493531275055,-0.08495350427714654
181,0.1716,259.268,223.438,-0.136288,241.501,0.0194809,-0.0302361,0.0453537,0.0465694,-0.0892692,0.224793,0.000267395,0.000272436,0.131185,0.046397905401454276,0.2520635122181494,0.0002674307532297693,0.047670784898084184,0.00027247311405731445,-0.08540066970812132
182,0.1726,260.124,223.92,0.170206,241.78,-0.00443347,-0.010586,0.045604,0.0468124,-0.0897534,0.226006,0.00026649,0.00027309,0.131914,0.04665985157837271,0.2535831867547431,0.00026652551161454596,0.04792539983327626,0.00027312729246875556,-0.08584341150740904
183,0.1736,259.881,223.988,-0.157922,242.11,0.016133,-0.0365221,0.0458442,0.0470581,-0.0902416,0.227225,0.000267176,0.000272099,0.132644,0.04691128947120382,0.25511223642582914,0.0002672116946862424,0.048182906737443076,0.00027213602229081424,-0.08628959383194379
184,0.1746,260.813,224.498,0.19329,242.383,-0.0108966,-0.0137534,0.0460947,0.0473005,-0.0907246,0.228435,0.000266146,0.000272851,0.133372,0.04717357359893182,0.25663184140751394,0.000266181419988909,0.04843701707096426,0.0002728882272198252,-0.08673080939598665
185,0.1756,260.484,224.532,-0.181847,242.715,0.013106,-0.0428065,0.0463337,0.0475459,-0.0912123,0.229653,0.000266942,0.000271735,0.134102,0.04742387799320569,0.25816335149065295,0.00026697763218619386,0.04869433508658272,0.00027177192329941313,-0.08717610218677108
186,0.1766,260.989,224.872,-0.0793985,243.005,0.00315832,-0.0376926,0.04658,0.047789,-0.0916962,0.230864,0.000266539,0.000271813,0.134829,0.04768189026726244,0.2596879102433165,0.00026657452467548914,0.048949303669617805,0.00027184994450069055,-0.08761771081509806
187,0.1776,261.453,225.206,0.00568851,243.297,-0.00425725,-0.0331229,0.0468256,0.048032,-0.0921798,0.232075,0.000266204,0.000271885,0.135555,0.047939232539849774,0.2612143163549794,0.00026623943542913864,0.04920422932262203,0.0002719219640765491,-0.0880588322183955
188,0.1786,261.732,225.466,-0.0173835,243.595,-0.0051532,-0.0369789,0.0470695,0.0482752,-0.0926638,0.233285,0.000266091,0.000271655,0.136282,0.048194856090691074,0.2627413093222082,0.0002661264053505086,0.04945942682195126,0.00027169190156084433,-0.08850010494698723
189,0.1796,262.128,225.772,0.0288864,243.887,-0.0104893,-0.0358716,0.0473143,0.0485179,-0.0931469,0.234494,0.000265811,0.000271599,0.137007,0.04845148560163248,0.26426888679969474,0.00026584633087423093,0.04971416153564823,0.00027163588634770974,-0.08894034419793417
190,0.1806,262.371,226.018,-0.0126115,244.185,-0.00986167,-0.0409692,0.0475575,0.0487607,-0.0936302,0.235703,0.000265739,0.000271315,0.137733,0.04870650001142618,0.265798312235217,0.00026577431173580024,0.04996906307786397,0.0002713518092434253,-0.08938055294457103
191,0.1816,262.765,226.321,0.0337914,244.474,-0.0153126,-0.039874,0.0478018,0.049003,-0.0941124,0.23691,0.000265442,0.000271247,0.138457,0.048962730306635116,0.26732705320766637,0.0002654772328449795,0.05022350140580634,0.00027128379079388587,-0.08981954779177737
192,0.1826,262.992,226.561,-0.0146194,244.77,-0.0140766,-0.0453622,0.0480444,0.0492454,-0.0945949,0.238116,0.000265379,0.000270937,0.139181,0.04921723953572865,0.2688563716274841,0.00026541421612202853,0.050478106439430626,0.0002709737067438933,-0.09025860392915674
193,0.1836,263.393,226.865,0.0368549,245.056,-0.019863,-0.0438815,0.0482885,0.0494872,-0.0950763,0.239321,0.000265059,0.000270872,0.139904,0.04947338472514784,0.2703862651310107,0.0002650941312405397,0.05073214275732063,0.0002709086891328205,-0.09069644803969212
194,0.1846,263.607,227.099,-0.0176078,245.35,-0.0181123,-0.0496983,0.0485306,0.0497292,-0.0955581,0.240526,0.000265004,0.000270539,0.140627,0.04972749299015411,0.27191800326737714,0.0002650391166618693,0.050986450705888586,0.0002705755989755865,-0.09113444496909362
195,0.1856,264.016,227.405,0.0399228,245.633,-0.0242813,-0.0477637,0.0487743,0.0499705,-0.0960386,0.241729,0.000264659,0.000270479,0.141349,0.04998334275422334,0.2734490413600763,0.0002646940252830632,0.051240084336110714,0.0002705155827429362,-0.09157104996553533
196,0.1866,264.216,227.632,-0.0209125,245.925,-0.0220031,-0.0539279,0.0490159,0.0502121,-0.0965196,0.242932,0.000264611,0.000270123,0.142071,0.050237049376358645,0.27498192239991126,0.0002646460125788064,0.051494094623693476,0.0002701594865026635,-0.09200789921983366
197,0.1876,264.635,227.941,0.0431987,246.205,-0.0285907,-0.051511,0.0492593,0.050453,-0.0969992,0.244132,0.00026424,0.000270069,0.142792,0.05049270818659202,0.2765128190610804,0.0002642749144639023,0.05174743006411697,0.00027010547191563816,-0.09244326782163204
198,0.1886,264.82,228.161,-0.024455,246.496,-0.025756,-0.0580493,0.0495004,0.0506942,-0.0974794,0.245333,0.000264203,0.000269689,0.143513,0.05074601251314537,0.2780468319471223,0.0002642379046864374,0.052001142140694956,0.000269725369347773,-0.09287897194349193
199,0.1896,265.248,228.472,0.0467025,246.773,-0.0327984,-0.0551272,0.0497435,0.0509346,-0.0979582,0.246532,0.000263805,0.000269643,0.144233,0.05100147991959236,0.2795801291265969,0.0002638397995990971,0.05225407361641077,0.0002696793569414435,-0.09331319752982448
200,0.1906,265.418,228.685,-0.0282222,247.062,-0.0293755,-0.0620657,0.0499841,0.0511754,-0.0984377,0.247731,0.000263779,0.000269239,0.144952,0.051254381298476925,0.2811152658319651,0.0002638137927395423,0.05250748690707341,0.00026927524807263126,-0.0937478496354387
201,0.1916,265.857,229.0,0.0504313,247.336,-0.0369088,-0.0586171,0.0502269,0.0514153,-0.0989156,0.248927,0.000263354,0.000269202,0.145671,0.051509656851454144,0.28264839631918015,0.00026338868070907573,0.052760013742565226,0.0002692382381102032,-0.09418084406583782
202,0.1926,266.01,229.205,-0.0322058,247.624,-0.0328664,-0.0659806,0.0504669,0.0516558,-0.0993943,0.250125,0.00026334,0.000268772,0.146389,0.051762049454999515,0.284185929896694,0.0002633746770217549,0.0530132329742623,0.0002688081224302419,-0.0946143559264413
203,0.1936,266.462,229.523,0.0543771,247.895,-0.0409257,-0.061986,0.0507094,0.0518952,-0.0998714,0.251319,0.000262886,0.000268745,0.147106,0.0520171326795833,0.28572016365227126,0.000262920557552615,0.05326535451998127,0.0002687811151727004,-0.0950462123896777
204,0.1946,266.598,229.721,-0.0363956,248.181,-0.0362334,-0.0697972,0.0509489,0.0521353,-0.100349,0.252514,0.000262886,0.00026829,0.147824,0.05226912095725167,0.2872575176338914,0.000262920557552615,0.05351827389335728,0.00026832599298076687,-0.09547831512429383
205,0.1956,267.062,230.043,0.0585281,248.449,-0.0448525,-0.065239,0.0511912,0.0523743,-0.100826,0.253707,0.000262404,0.000268274,0.14854,0.05252411665674117,0.28879413226080475,0.0002624384309410921,0.05377009485222373,0.0002683099886877649,-0.09590966908188181
206,0.1966,267.18,230.233,-0.0407777,248.734,-0.0394813,-0.0735183,0.0514301,0.0526139,-0.101303,0.2549,0.000262419,0.000267793,0.149256,0.0527755947060673,0.2903325811628956,0.0002624534348778518,0.054022608416867346,0.0002678288597464107,-0.09634081733269706
207,0.1976,267.658,230.559,0.0628694,248.998,-0.048692,-0.0683815,0.0516721,0.0528525,-0.101778,0.25609,0.000261906,0.000267789,0.149971,0.053030397229848036,0.29186899091697405,0.00026194030037074434,0.054274128216354356,0.00026782485867493655,-0.09676995351655171
208,0.1986,267.757,230.741,-0.0453353,249.283,-0.0426152,-0.0771464,0.0519105,0.0530918,-0.102254,0.257282,0.000261938,0.000267282,0.150686,0.05328146960318536,0.29340981690399337,0.0002619723087533554,0.0545264462038797,0.00026731772301635814,-0.09719978870978596
209,0.1996,268.249,231.071,0.0673825,249.544,-0.0524465,-0.0714185,0.0521523,0.0533299,-0.102729,0.25847,0.000261395,0.00026729,0.1514,0.05353618385624759,0.2949473008511132,0.0002614291666498403,0.05477755884449431,0.0002673257251548655,-0.09762851697912389
210,0.2006,268.329,231.244,-0.0500478,249.827,-0.0456399,-0.0806835,0.0523901,0.0535688,-0.103205,0.25966,0.000261444,0.000266757,0.152114,0.05378674455125454,0.2964892053903694,0.00026147817946120533,0.055029575305469924,0.0002667925828123696,-0.09805794359339948
211,0.2016,268.836,231.58,0.0720455,250.085,-0.056118,-0.0743554,0.0526316,0.0538064,-0.103678,0.260846,0.000260869,0.000266779,0.152826,0.05404126478214466,0.29802775376680657,0.0002609030292766157,0.05528028011511443,0.0002668145886821627,-0.09848446130668853
212,0.2026,268.896,231.744,-0.0548914,250.367,-0.0485607,-0.0841314,0.0528689,0.0540449,-0.104153,0.262034,0.000260938,0.000266219,0.153539,0.05429141845383656,0.2995707270829593,0.00026097204728126044,0.055531994477666435,0.00026625443942274174,-0.09891257950144716
213,0.2036,269.419,232.084,0.0768331,250.622,-0.0597081,-0.0771975,0.0531101,0.0542821,-0.104626,0.263218,0.000260331,0.000266254,0.15425,0.05454574421442149,0.3011103300889466,0.0002603648890555643,0.05578239636324622,0.00026628944874240723,-0.09933869306754006
214,0.2046,269.459,232.24,-0.0598392,250.903,-0.0513828,-0.0874916,0.0533468,0.0545202,-0.1051,0.264404,0.000260419,0.000265668,0.154962,0.05479538473586709,0.30265436237058907,0.0002604529119714094,0.05603380808119751,0.0002657032928683467,-0.09976550536452045
215,0.2056,269.997,232.585,0.0817167,251.155,-0.063218,-0.07995,0.0535878,0.0547569,-0.105572,0.265586,0.00025978,0.000265717,0.155672,0.05504962105783484,0.30419501017038786,0.0002598137457463512,0.056283800869049605,0.0002657523058890998,-0.10019031578284288
216,0.2066,270.017,232.732,-0.0648611,251.435,-0.0541115,-0.0907653,0.053824,0.0549947,-0.106046,0.26677,0.000259889,0.000265105,0.156383,0.05529885321148731,0.30574009157011983,0.0002599227740718302,0.05653501502507563,0.00026514014343592684,-0.10061672450631076
217,0.2076,270.571,233.083,0.0866649,251.683,-0.0666485,-0.0826181,0.0540648,0.0552309,-0.106517,0.26795,0.000259217,0.000265168,0.157092,0.05555299977335859,0.3072817742920919,0.0002592505996297234,0.05678459807022174,0.00026520316014178036,-0.10104023428468611
218,0.2086,270.57,233.22,-0.0699243,251.963,-0.0567521,-0.0939532,0.0543003,0.0554684,-0.106989,0.269133,0.000259347,0.00026453,0.157801,0.055801611777719806,0.30882920375513945,0.00025938063334063344,0.057035614219251185,0.0002645649911456882,-0.10146444317293057
219,0.2096,271.141,233.576,0.0916434,252.208,-0.07,-0.0852072,0.0545409,0.0557042,-0.10746,0.27031,0.000258642,0.000264607,0.158509,0.056055668207276366,0.3103706026632713,0.00025867545072588705,0.0572848926058509,0.00026464201152021083,-0.10188755376982861
220,0.2106,271.119,233.705,-0.0749936,252.487,-0.0593103,-0.0970561,0.0547759,0.0559412,-0.107932,0.271491,0.000258794,0.000263945,0.159218,0.05630387045192653,0.311919064531772,0.0002588274900561238,0.0575354988210619,0.0002639798365464685,-0.10231136281764586
221,0.2116,271.707,234.067,0.0966158,252.729,-0.0732727,-0.0877224,0.0550162,0.0561765,-0.108401,0.272667,0.000258057,0.000264035,0.159924,0.05655773077209214,0.3134627888836692,0.00025809029957191143,0.057784366202033643,0.00026406986030869106,-0.10273228007567192
222,0.2126,271.664,234.186,-0.0800319,253.007,-0.0617914,-0.100074,0.0552506,0.0564132,-0.108872,0.273846,0.000258229,0.000263348,0.160632,0.0568054169318688,0.31501227475419635,0.00025826234397818837,0.05803477339603602,0.0002633826791287319,-0.10315479366199576
223,0.2136,272.269,234.553,0.101543,253.246,-0.0764665,-0.0901688,0.0554908,0.0566481,-0.109341,0.27502,0.00025746,0.000263452,0.161337,0.05705929208220084,0.3165570057444269,0.00025749314567025117,0.05828333495671911,0.0002634867065258728,-0.10357531544370224
224,0.2146,272.205,234.664,-0.0850005,253.523,-0.0642012,-0.103009,0.0557246,0.0568844,-0.109812,0.276197,0.000257655,0.000262741,0.162043,0.05730646143766149,0.31810750563037504,0.0002576881959004407,0.05853343685714507,0.00026277551943976185,-0.10399743205386303
225,0.2156,272.826,235.037,0.106386,253.759,-0.0795811,-0.0925514,0.0559645,0.0571189,-0.110279,0.277368,0.000256854,0.000262859,0.162747,0.05756013968524942,0.31965191359385114,0.0002568869898131876,0.05878169205487249,0.00026289355045427953,-0.10441576756414939
226,0.2166,272.742,235.138,-0.0898595,254.036,-0.0665451,-0.105859,0.0561978,0.0573548,-0.110749,0.278544,0.000257069,0.000262124,0.163453,0.05780689724898869,0.32120473712551423,0.00025710204506701473,0.05903148811831538,0.0002621583574975439,-0.10483659325161099
227,0.2176,273.379,235.517,0.111104,254.268,-0.0826159,-0.0948751,0.0564375,0.0575888,-0.111216,0.279713,0.000256237,0.000262254,0.164156,0.05806048395341157,0.32275012856852303,0.0002562698315042855,0.05927933048296086,0.0002622883915865959,-0.10525453696510956
228,0.2186,273.275,235.609,-0.0945688,254.545,-0.0688287,-0.108626,0.0566702,0.0578244,-0.111685,0.280887,0.000256474,0.000261498,0.16486,0.058306723276861705,0.3243039491336681,0.00025650689226819345,0.05952892609443117,0.0002615321935823811,-0.10567407419810171
229,0.2196,273.928,235.993,0.115655,254.774,-0.0855703,-0.0971447,0.0569096,0.0580579,-0.112151,0.282055,0.000255612,0.00026164,0.165562,0.05856011223586233,0.3258516398216684,0.0002556446715309413,0.059776354984873104,0.00026167423073020224,-0.10609073299048677
230,0.2206,273.804,236.077,-0.099088,255.05,-0.0710574,-0.111309,0.0571418,0.0582931,-0.11262,0.283226,0.000255869,0.000260863,0.166265,0.058805938433240446,0.3274051214778928,0.00025590173726475207,0.06002564369876895,0.00026089702771114887,-0.10650987813949375
231,0.2216,274.472,236.466,0.119998,255.276,-0.0884436,-0.0993646,0.057381,0.0585263,-0.113085,0.284392,0.000254978,0.000261015,0.166966,0.05905923510678823,0.3289537785411467,0.000255010509653264,0.06027287050440466,0.0002610490673791155,-0.10692525446367895
232,0.2226,274.33,236.541,-0.103378,255.551,-0.0732366,-0.113909,0.0576127,0.0587611,-0.113553,0.285562,0.000255254,0.000260219,0.167668,0.05930464756149734,0.33050956441930235,0.0002552865800742321,0.060521851803659876,0.0002602528599009446,-0.10734311565744381
233,0.2236,275.012,236.935,0.124093,255.775,-0.091235,-0.101539,0.0578516,0.0589938,-0.114017,0.286726,0.000254335,0.000260381,0.168367,0.05955774567316552,0.33205917925315576,0.0002543673458883511,0.06076866395405456,0.0002604149020750679,-0.10775721237391112
234,0.2246,274.853,237.003,-0.1074,256.049,-0.0753714,-0.116426,0.0580827,0.0592283,-0.114484,0.287894,0.000254629,0.000259567,0.169068,0.05980263776438166,0.33361593334193107,0.00025466142071550735,0.061017443373998725,0.0002596006904287407,-0.10817379247670755
235,0.2256,275.548,237.401,0.127902,256.27,-0.0939439,-0.103673,0.0583214,0.0594605,-0.114947,0.289055,0.000253684,0.000259737,0.169767,0.06005564284897158,0.33516516059294066,0.0002537161805071797,0.06126384022991793,0.000259770734575282,-0.10858661243559564
236,0.2266,275.372,237.461,-0.111118,256.544,-0.0774669,-0.11886,0.058552,0.0596946,-0.115414,0.290222,0.000253995,0.000258908,0.170467,0.060300119867329416,0.336724207862497,0.00025402725946110927,0.06151231117730549,0.00025894151956906697,-0.10900280529899076
237,0.2276,276.08,237.864,0.131389,256.762,-0.0965694,-0.105769,0.0587905,0.0599265,-0.115877,0.291382,0.000253026,0.000259084,0.171164,0.060553031604443586,0.3382757076395133,0.0002530580137782845,0.06175850442727149,0.00025911756515828444,-0.10941524151378579
238,0.2286,275.888,237.917,-0.114498,257.035,-0.0795278,-0.121212,0.0590205,0.0601602,-0.116342,0.292546,0.000253352,0.00025824,0.171863,0.060796986855491175,0.33983436752727525,0.00025338409632835734,0.06200666638635166,0.00025827334681927105,-0.10982926715805941
239,0.2296,276.607,238.323,0.134519,257.25,-0.0991111,-0.107831,0.0592587,0.0603916,-0.116804,0.293704,0.000252361,0.000258422,0.172559,0.06104969879455724,0.34138679440655584,0.0002523928457158764,0.062252443164229954,0.00025845539384161675,-0.11024043105045989
240,0.2306,276.401,238.37,-0.117508,257.522,-0.0815585,-0.123483,0.0594883,0.060625,-0.117269,0.294867,0.0002527,0.000257566,0.173257,0.0612933437747738,0.34294773475932594,0.00025273193133457106,0.06250040182011385,0.000257599172970302,-0.11065407307079833
241,0.2316,277.129,238.779,0.137261,257.735,-0.101569,-0.109862,0.0597262,0.060856,-0.11773,0.296023,0.000251688,0.000257751,0.173951,0.06154585549633618,0.3445010800012749,0.0002517196760820628,0.06274586776315938,0.00025778422064326456,-0.11106396705528998
242,0.2326,276.911,238.82,-0.120122,258.007,-0.0835634,-0.125673,0.0599553,0.061089,-0.118194,0.297184,0.000252039,0.000256885,0.174648,0.06178908351253565,0.3460629522465548,0.00025207076449729193,0.06299351640029394,0.00025691799777716184,-0.1114763376971889
243,0.2336,277.648,239.232,0.139589,258.216,-0.103942,-0.111866,0.0601929,0.0613195,-0.118655,0.298337,0.00025101,0.000257071,0.175342,0.06204139457214519,0.34761585790857197,0.00025104150564603245,0.06323856464654964,0.00025710404558121347,-0.1118858527050487
244,0.2346,277.418,239.267,-0.122317,258.487,-0.0855455,-0.127784,0.0604215,0.0615522,-0.119118,0.299497,0.00025137,0.000256197,0.176038,0.06228420498711751,0.34917999933037813,0.00025140159608572077,0.06348600904958257,0.0002562298212542835,-0.11229695437786502
245,0.2356,278.162,239.681,0.141485,258.694,-0.106231,-0.113844,0.0606589,0.0617823,-0.119577,0.300649,0.000250324,0.000256383,0.17673,0.0625364211942605,0.35073515028456925,0.00025035533366701834,0.06373074533609491,0.0002564158689302154,-0.11270431657902846
246,0.2366,277.923,239.711,-0.124076,258.965,-0.0875095,-0.129816,0.060887,0.0620146,-0.12004,0.301806,0.000250692,0.000255503,0.177425,0.06277881339571456,0.35229885528235205,0.00025072342586551777,0.06397787869166427,0.0002555356436715339,-0.11311503939078427
247,0.2376,278.672,240.127,0.142927,259.17,-0.108436,-0.115798,0.061124,0.0622444,-0.120499,0.302956,0.000249633,0.000255687,0.178116,0.06303072182445901,0.35385489351642296,0.0002496641609102124,0.06422240890363295,0.00025571969070714573,-0.11352202617709106
248,0.2386,278.425,240.153,-0.12538,259.439,-0.0894577,-0.131773,0.0613517,0.0624762,-0.120961,0.304112,0.000250005,0.000254803,0.17881,0.0632728014795414,0.35542085472451856,0.0002500362538544465,0.06446912425122098,0.00025483546504179166,-0.1139314844088627
249,0.2396,279.177,240.57,0.1439,259.642,-0.110558,-0.117732,0.0615884,0.0627056,-0.121419,0.30526,0.000248937,0.000254984,0.1795,0.06352450793993603,0.35697777136490494,0.0002489679873862727,0.06471334147896912,0.0002550165111834257,-0.11433721087055149
250,0.2406,278.924,240.592,-0.126219,259.91,-0.0913931,-0.133654,0.0618157,0.0629371,-0.12188,0.306414,0.000249311,0.000254097,0.180193,0.06376627453632344,0.35854462761523265,0.0002493420805702584,0.06495985114991498,0.0002541292853772692,-0.1147454073198294
251,0.2416,279.678,241.009,0.144396,260.11,-0.112597,-0.119645,0.062052,0.0631661,-0.122337,0.30756,0.000248235,0.000254272,0.180882,0.06401767220846155,0.36010241219855743,0.0002482658128570847,0.0652037548817399,0.0002543043298650627,-0.11514987624049644
252,0.2426,279.421,241.029,-0.126587,260.378,-0.0933179,-0.135463,0.0622789,0.0633972,-0.122798,0.308713,0.000248609,0.000253385,0.181574,0.0642591252100928,0.36167151469357917,0.0002486399057786137,0.06544995191646463,0.00025341710469062306,-0.11555769813737982
253,0.2436,280.175,241.445,0.14441,260.576,-0.114556,-0.121539,0.0625149,0.0636258,-0.123254,0.309857,0.000247527,0.000253553,0.182262,0.06451032000346202,0.3632301582805324,0.0002475576373357491,0.06569354161671459,0.0002535851472789119,-0.11596091188730728
254,0.2446,279.915,241.463,-0.126486,260.842,-0.0952336,-0.137201,0.0627414,0.0638565,-0.123714,0.311007,0.000247899,0.000252668,0.182952,0.06475145889889178,0.364798774744147,0.0002479297294963878,0.0659394254783785,0.0002526999232477234,-0.11636747635084344
255,0.2456,280.667,241.878,0.143951,261.039,-0.116434,-0.123415,0.062977,0.0640847,-0.12417,0.31215,0.000246815,0.000252827,0.183639,0.06500234389570059,0.366359631603443,0.0002468454613282489,0.06618270061190978,0.0002528589634396283,-0.11677032092608375
256,0.2466,280.407,241.895,-0.125919,261.304,-0.0971416,-0.138871,0.0632032,0.064315,-0.124629,0.313298,0.000247182,0.000251946,0.184329,0.0652432746741336,0.36792911317057464,0.0002472125519878965,0.06642827076417834,0.0002519777410590063,-0.11717563032315614
257,0.2476,281.156,242.308,0.143018,261.499,-0.118235,-0.125274,0.0634384,0.0645429,-0.125084,0.314439,0.000246098,0.000252094,0.185015,0.06549384935876468,0.3694908110679238,0.00024612828459713576,0.06667133746348375,0.00025212577836275507,-0.11757722404185977
258,0.2486,280.896,242.324,-0.124894,261.762,-0.0990432,-0.140475,0.0636641,0.0647728,-0.125542,0.315586,0.000246458,0.000251218,0.185703,0.06573435846099618,0.3710625182299636,0.00024648837326801676,0.06691659339505573,0.00025124955788435877,-0.1179812811371107
259,0.2496,281.64,242.735,0.141624,261.956,-0.119961,-0.127115,0.063899,0.0650003,-0.125997,0.316725,0.000245376,0.000251354,0.186388,0.06598472886665152,0.37262504813008035,0.00024540610715306777,0.06715934453194805,0.0002513855920636132,-0.11838250836807629
260,0.2506,281.383,242.751,-0.123424,262.218,-0.100939,-0.142017,0.0641244,0.0652298,-0.126454,0.31787,0.000245726,0.000250486,0.187075,0.06622502890533499,0.37419760392657775,0.00024575619310662766,0.06740428570744283,0.0002505173742375355,-0.11878531551330895
261,0.2516,282.12,243.159,0.139785,262.41,-0.121614,-0.128939,0.0643588,0.0654569,-0.126908,0.319007,0.000244649,0.000250608,0.187759,0.06647498134539198,0.37576095519901975,0.00024467892900714716,0.0676467207481839,0.00025063940480829494,-0.11918529617758489
262,0.2526,281.868,243.176,-0.121528,262.67,-0.102829,-0.143499,0.0645839,0.065686,-0.127364,0.32015,0.000244988,0.000249748,0.188445,0.06671507188486925,0.3773343489940695,0.0002450180120108225,0.06789134663273244,0.0002497791896283186,-0.11958685611990283
263,0.2536,282.597,243.58,0.137522,262.861,-0.123196,-0.130745,0.0648179,0.0659128,-0.127817,0.321285,0.000243919,0.000249855,0.189128,0.06696471241849378,0.37889851097418537,0.0002439487506582516,0.06813357185745095,0.00024988621636024,-0.11998559295336908
264,0.2546,282.351,243.598,-0.119226,263.119,-0.104713,-0.144925,0.0650427,0.0661415,-0.128273,0.322426,0.000244243,0.000249006,0.189813,0.06720459304741788,0.3804727320975705,0.0002442728297500363,0.06837788194112804,0.000249037004567354,-0.12038678804354985
265,0.2556,283.069,243.998,0.134859,263.309,-0.124711,-0.132533,0.0652762,0.066368,-0.128725,0.32356,0.000243183,0.000249096,0.190494,0.06745381441535692,0.38203907612497856,0.00024321257138271157,0.06861989693855142,0.00024912702698487443,-0.12078428337464187
266,0.2566,282.831,244.018,-0.116545,263.566,-0.10659,-0.146297,0.0655007,0.0665963,-0.12918,0.324699,0.000243492,0.000248259,0.191178,0.06769348469867564,0.3836141154473014,0.0002435216465832557,0.06886389071185195,0.0002482898188158611,-0.12118423552969104
267,0.2576,283.538,244.412,0.131825,263.755,-0.126163,-0.134303,0.0657338,0.0668224,-0.129632,0.325831,0.000242444,0.000248332,0.191859,0.06794239305910144,0.38518125345875487,0.0002424733919217381,0.06910558816040879,0.0002483628369436275,-0.12158137049596796
268,0.2586,283.308,244.435,-0.113514,264.009,-0.10846,-0.147619,0.0659581,0.0670503,-0.130086,0.326969,0.000242734,0.000247508,0.192542,0.06818195940422567,0.3867584870008607,0.000242763462281248,0.06934926508988193,0.00024753863263216047,-0.12198008203939403
269,0.2596,284.003,244.825,0.128446,264.198,-0.127553,-0.136051,0.0661906,0.067276,-0.130537,0.328099,0.000241701,0.000247562,0.193222,0.06843034058298025,0.38832640980071353,0.00024173021204010325,0.06959064445764973,0.0002475926460008271,-0.1223759797407521
270,0.2606,283.784,244.851,-0.110158,264.45,-0.110321,-0.148894,0.0664147,0.0675035,-0.130991,0.329234,0.000241971,0.000246752,0.193903,0.06866980265302769,0.3899030548526483,0.00024200027734377905,0.06983400401036333,0.0002467824457788037,-0.12277433061345944
271,0.2616,284.464,245.234,0.124759,264.638,-0.128886,-0.13778,0.0666467,0.0677289,-0.131441,0.330363,0.000240953,0.000246787,0.194582,0.06891776280950923,0.39147314154874224,0.0002409820315059097,0.07007517177345313,0.00024681745441679226,-0.12316899335890574
272,0.2626,284.257,245.264,-0.106516,264.888,-0.112173,-0.150125,0.0668705,0.067956,-0.131894,0.331497,0.000241202,0.000245991,0.195263,0.0691570133759658,0.3930519671161634,0.000241231091541394,0.07031821344129963,0.00024602125826711507,-0.12356610785169064
273,0.2636,284.922,245.64,0.1208,265.075,-0.130166,-0.139486,0.0671021,0.068181,-0.132343,0.332623,0.000240202,0.000246007,0.19594,0.06940465881649871,0.39462142707126757,0.00024023085081026352,0.07055906213378593,0.0002460372622035134,-0.1239595383375115
274,0.2646,284.727,245.674,-0.102623,265.324,-0.114012,-0.151315,0.0673256,0.0684077,-0.132795,0.333755,0.000240427,0.000245227,0.19662,0.06964369746931864,0.39620103241465787,0.00024045590488763757,0.07080178538481263,0.0002452570705988588,-0.12435541915037918
275,0.2656,285.376,246.044,0.116606,265.51,-0.131396,-0.141169,0.0675568,0.0686325,-0.133244,0.334881,0.000239446,0.000245221,0.197297,0.06989102768244448,0.3977740402143497,0.00023947466948159857,0.07104252868470007,0.00024525106912731687,-0.124748495314978
276,0.2666,285.195,246.083,-0.098515,265.756,-0.115838,-0.152469,0.0677801,0.0688587,-0.133696,0.336011,0.000239648,0.000244458,0.197975,0.0701299610248407,0.39935441762486357,0.00023967671787605838,0.07128482590747143,0.0002444878822918106,-0.1251440195998733
277,0.2676,285.827,246.445,0.112213,265.942,-0.132579,-0.142828,0.0680107,0.0690831,-0.134144,0.337134,0.000238687,0.000244431,0.198651,0.07037676144884841,0.4009267753494732,0.00023871548800857845,0.07152524919688918,0.0002444608756910771,-0.1255358672986543
278,0.2686,285.661,246.489,-0.0942239,266.186,-0.117649,-0.153588,0.0682337,0.069309,-0.134594,0.338262,0.000238863,0.000243684,0.199328,0.07061548208301294,0.4025079123456823,0.0002388915300379768,0.0717673340931424,0.00024371369335773885,-0.12592928763215583
279,0.2696,286.275,246.844,0.107656,266.371,-0.133721,-0.144461,0.0684638,0.0695331,-0.135042,0.339384,0.000237923,0.000243637,0.200003,0.07086185905002318,0.4040824093509783,0.00023795130592185743,0.07200754406723497,0.00024366668190434204,-0.12632078360964982
280,0.2706,286.124,246.892,-0.0897903,266.613,-0.119444,-0.154676,0.0686867,0.0697585,-0.135492,0.34051,0.000238074,0.000242907,0.200679,0.07110058076295189,0.4056642965792805,0.00023810234186383283,0.0722492018014711,0.0002429365042941889,-0.1267138508102723
281,0.2716,286.72,247.24,0.102977,266.798,-0.134824,-0.146069,0.0689163,0.0699823,-0.135939,0.341631,0.000237156,0.000242839,0.201353,0.07134653369061073,0.4072409297935575,0.00023718412370743458,0.07248919802741027,0.00024286848777688164,-0.12710412248674208
282,0.2726,286.584,247.294,-0.0852514,267.038,-0.121219,-0.155735,0.069139,0.0702073,-0.136387,0.342755,0.00023728,0.000242125,0.202028,0.07158514913250702,0.4088235578690025,0.000237308153125948,0.0727305352463854,0.00024215431462359938,-0.12749509225610067
283,0.2736,287.162,247.634,0.0982134,267.223,-0.135892,-0.147648,0.069368,0.0704308,-0.136834,0.343874,0.000236385,0.000242036,0.202701,0.07183057023130157,0.4104009137963074,0.00023641294113563305,0.07297031731566106,0.0002420652930759104,-0.12788501479568204
284,0.2746,287.042,247.693,-0.0806429,267.46,-0.122972,-0.156769,0.0695905,0.0706554,-0.137282,0.344996,0.000236481,0.00024134,0.203375,0.07206907906630189,0.4119842717192763,0.0002365089638358686,0.07321133351403608,0.00024136912484085116,-0.12827563480363857
285,0.2756,287.601,248.025,0.0934005,267.645,-0.136929,-0.149199,0.069819,0.0708785,-0.137728,0.346113,0.00023561,0.00024123,0.204046,0.07231407484056973,0.41356233933747344,0.00023563775821600075,0.07345079367333063,0.00024125909829608716,-0.12866433718344217
286,0.2766,287.497,248.09,-0.075999,267.879,-0.124703,-0.157779,0.0700413,0.0711028,-0.138175,0.347234,0.000235679,0.00024055,0.204719,0.07255247675679821,0.41514783122203913,0.00023570677447737332,0.07369159569128825,0.00024057893447126943,-0.12905373718733648
287,0.2776,288.038,248.414,0.0885725,268.064,-0.137937,-0.150721,0.0702693,0.0713255,-0.13862,0.348349,0.000234831,0.000240419,0.20539,0.0727970466014014,0.41672660105446946,0.0002348585749576415,0.07393073343664835,0.00024044790296406937,-0.1294412220525113
288,0.2786,287.95,248.485,-0.0713522,268.296,-0.12641,-0.158768,0.0704914,0.0715494,-0.139067,0.349468,0.000234873,0.000239756,0.206062,0.07303534128709699,0.4183128054368861,0.0002349005848225616,0.07417121344859767,0.00023978474376695758,-0.12983027486647192
289,0.2796,288.471,248.8,0.0837616,268.481,-0.13892,-0.152212,0.0707189,0.0717718,-0.139511,0.350582,0.000234049,0.000239606,0.206732,0.07327948459748823,0.4198936862892886,0.000234076391604221,0.0744101356936373,0.00023963470781040996,-0.13021654446623443
290,0.2806,288.4,248.877,-0.0667331,268.71,-0.128089,-0.159739,0.0709408,0.0719953,-0.139957,0.351699,0.000234063,0.000238959,0.207403,0.07351767174100665,0.42148059365964285,0.00023409039488142547,0.07465029319556615,0.00023898755297602214,-0.13060438139333885
291,0.2816,288.902,249.185,0.0789978,268.895,-0.139882,-0.153672,0.0711678,0.0722174,-0.140401,0.352811,0.000233262,0.000238789,0.208071,0.07376138791323084,0.4230621592672974,0.00023328920769571937,0.0748889995330424,0.00023881751236265458,-0.13099030736609418
292,0.2826,288.847,249.267,-0.0621701,269.122,-0.129741,-0.160692,0.0713895,0.0724405,-0.140846,0.353926,0.00023325,0.000238158,0.208741,0.07399946720304551,0.4246497584969724,0.00023327720489629833,0.07512883402138049,0.0002381863618678981,-0.1313769306492557
293,0.2836,289.331,249.567,0.0743084,269.307,-0.140824,-0.155101,0.0716159,0.0726623,-0.141289,0.355036,0.000232472,0.000237968,0.209409,0.07424264820947135,0.4262319977092104,0.00023249902370947595,0.07536732404433222,0.0002379963166305732,-0.13176164544835844
294,0.2846,289.292,249.655,-0.0576892,269.532,-0.131363,-0.16163,0.0718374,0.0728849,-0.141733,0.35615,0.000232433,0.000237353,0.210078,0.0744806193103762,0.42782170545747245,0.0002324600146428324,0.07560672745527564,0.00023738117045213336,-0.13214705770992574
295,0.2856,289.757,249.947,0.0697184,269.717,-0.141749,-0.156498,0.0720634,0.0731064,-0.142175,0.357259,0.000231679,0.000237145,0.210745,0.0747234793724938,0.4294060380788849,0.00023170583965215208,0.07584500073319833,0.0002371731210983885,-0.1325305639492954
296,0.2866,289.734,250.041,-0.0533135,269.939,-0.132954,-0.162555,0.0722847,0.0733287,-0.142619,0.35837,0.000231614,0.000236544,0.211412,0.07496134199700744,0.4309949906869246,0.000231640824593482,0.07608418766150349,0.0002365719787380538,-0.1329156348868279
297,0.2876,290.18,250.325,0.0652498,270.124,-0.14266,-0.157863,0.0725101,0.0735498,-0.143061,0.359478,0.000230881,0.000236319,0.212078,0.07520366559233693,0.43258141185163157,0.00023090765506950106,0.07632213617963468,0.0002363469255346473,-0.1332988014901505
298,0.2886,290.173,250.424,-0.0490638,270.344,-0.134513,-0.163467,0.0727312,0.0737717,-0.143504,0.360587,0.000230791,0.000235732,0.212745,0.07544141940551485,0.43417102591545387,0.00023081763429178004,0.07656099856245424,0.0002357597869713235,-0.1336826650890255
299,0.2896,290.602,250.7,0.0609218,270.529,-0.143558,-0.159196,0.0729562,0.0739926,-0.143945,0.361693,0.00023008,0.00023549,0.21341,0.0756834209490338,0.4357580965584016,0.00023010647043331112,0.07679883715534208,0.00023551772994667708,-0.13406462680497244
300,0.2906,290.609,250.805,-0.0449579,270.747,-0.13604,-0.164367,0.0731771,0.074214,-0.144387,0.362801,0.000229965,0.000234916,0.214075,0.07592106566361378,0.43734979816924113,0.0002299914439776174,0.07703726681107725,0.00023494359492426398,-0.13444728566608655
301,0.2916,291.021,251.074,0.0567507,270.932,-0.144446,-0.160497,0.0734015,0.0744346,-0.144827,0.363905,0.000229276,0.000234658,0.214739,0.07616252944197144,0.4389375086013181,0.00022930228575090972,0.07727488744072764,0.00023468553434224937,-0.13482804508717794
302,0.2926,291.042,251.184,-0.0410108,271.147,-0.137534,-0.165258,0.0736222,0.0746557,-0.145269,0.365011,0.000229137,0.000234097,0.215404,0.07640006472327343,0.44052985389045807,0.00022916325388755432,0.07751309925168592,0.000234124402840985,-0.1352103665919725
303,0.2936,291.438,251.446,0.0527502,271.332,-0.145325,-0.161765,0.0738462,0.0748759,-0.145709,0.366114,0.000228468,0.000233824,0.216066,0.07664120534451269,0.44211963492235995,0.00022849410080127974,0.07775039376130799,0.00023385133896236532,-0.13559079033131194
304,0.2946,291.473,251.561,-0.0372349,271.545,-0.138994,-0.166139,0.0740667,0.0750966,-0.146149,0.367218,0.000228306,0.000233275,0.21673,0.07687863090549718,0.44371261416205887,0.00022833206379835325,0.07798827952293919,0.00023330221072859203,-0.13597104672102556
305,0.2956,291.853,251.816,0.0489309,271.73,-0.146196,-0.163003,0.0742902,0.0753165,-0.146589,0.368319,0.000227656,0.000232987,0.217392,0.0771193401777639,0.44530301710641473,0.00022768191559374706,0.07822535521112295,0.00023301414357912442,-0.13635113583473124
306,0.2966,291.901,251.935,-0.0336399,271.941,-0.140419,-0.167011,0.0745104,0.0755368,-0.147028,0.369421,0.000227473,0.000232449,0.218054,0.07735654797209057,0.44689661894460575,0.00022749887394479806,0.07846291442306241,0.00023247601836229315,-0.13673019447664014
307,0.2976,292.266,252.184,0.0453011,272.125,-0.147061,-0.164209,0.0747334,0.0757564,-0.147467,0.370521,0.000226842,0.000232148,0.218715,0.07759682527221168,0.44848908091895745,0.0002268677305921063,0.07869977088495728,0.00023217494843219555,-0.13710908674832623
308,0.2986,292.326,252.307,-0.0302328,272.334,-0.141811,-0.167875,0.0749535,0.0759763,-0.147906,0.371621,0.000226638,0.00023162,0.219377,0.07783403043692494,0.4500832955652738,0.00022666368433177375,0.07893700304729512,0.00023164682598331154,-0.13748781272280997
309,0.2996,292.677,252.55,0.0418662,272.519,-0.14792,-0.165384,0.075176,0.0761956,-0.148344,0.372719,0.000226024,0.000231307,0.220037,0.0780738751904364,0.4516763614569286,0.00022604954534877209,0.07917363987834358,0.00023133375352690777,-0.13786551033902117
310,0.3006,292.749,252.677,-0.0270185,272.726,-0.143168,-0.168731,0.0753958,0.0764152,-0.148783,0.373818,0.0002258,0.000230789,0.220697,0.07831086187208536,0.45327263076749125,0.00022582549473892932,0.07941065243268697,0.00023081563383020587,-0.1382439043164272
311,0.3016,293.086,252.914,0.0386297,272.91,-0.148775,-0.16653,0.0756179,0.0766341,-0.14922,0.374914,0.000225202,0.000230463,0.221356,0.07855038131215641,0.4548662907369483,0.00022522735987395848,0.07964696128756499,0.00023048955863735898,-0.1386204094578758
312,0.3026,293.169,253.045,-0.0239993,273.115,-0.144491,-0.16958,0.0758375,0.0768533,-0.149658,0.376012,0.00022496,0.000229954,0.222015,0.07878725698388944,0.456464611241556,0.00022498530539838413,0.0798836458411587,0.00022998044144784124,-0.13899761110534214
313,0.3036,293.493,253.276,0.0355926,273.299,-0.149626,-0.167645,0.0760591,0.0770719,-0.150094,0.377106,0.000224378,0.000229617,0.222674,0.07902634272975928,0.45805885541881497,0.00022440317462635306,0.08011973420965801,0.00022964336400121965,-0.1393729263222374
314,0.3046,293.586,253.411,-0.0211757,273.502,-0.145781,-0.170421,0.0762785,0.0772907,-0.150531,0.378202,0.000224119,0.000229116,0.223332,0.07926310708145379,0.4596577639661852,0.00022414411653937094,0.08035609026391244,0.00022914224907544245,-0.13974893818885792
315,0.3056,293.898,253.636,0.032754,273.686,-0.150473,-0.168733,0.0764997,0.077509,-0.150967,0.379295,0.000223551,0.000228769,0.223989,0.079501866486557,0.46125404210928944,0.00022357598938693712,0.08059195774241568,0.00022879516962315272,-0.1401239258985465
316,0.3066,294.0,253.775,-0.0185463,273.887,-0.147038,-0.171255,0.0767188,0.0777275,-0.151404,0.380388,0.000223275,0.000228275,0.224646,0.07973841125803771,0.46285206593824757,0.00022329992771807916,0.08082809288200687,0.000228301056720559,-0.14049960965005048
317,0.3076,294.301,253.995,0.0301114,274.071,-0.151316,-0.169792,0.0769395,0.0779454,-0.151839,0.38148,0.00022272,0.000227919,0.225303,0.0799767358235508,0.4644503729110323,0.00022274480394068874,0.08106363098439018,0.0002279449755087093,-0.1408734110121621
318,0.3086,294.412,254.136,-0.016108,274.27,-0.148263,-0.172082,0.0771584,0.0781635,-0.152275,0.382572,0.000222429,0.000227432,0.225959,0.0802131686076466,0.46605042618834025,0.00022245373916418565,0.08129943667598383,0.00022745786461819684,-0.14124790855856317
319,0.3096,294.702,254.352,0.0276607,274.454,-0.152157,-0.170825,0.0773787,0.0783811,-0.15271,0.383662,0.000221887,0.000227067,0.226614,0.08045116578311728,0.4676492923766571,0.00022191161874118848,0.08153475303489599,0.0002270927816625523,-0.14162138448143768
320,0.3106,294.821,254.496,-0.0138562,274.651,-0.149456,-0.172901,0.0775973,0.0785989,-0.153144,0.384752,0.000221582,0.000226586,0.227269,0.08068737822503658,0.46924990227927066,0.00022160655110470273,0.08177033695826497,0.0002266116725466727,-0.14199383997188508
321,0.3116,295.101,254.707,0.0253963,274.834,-0.152994,-0.171831,0.0778172,0.0788162,-0.153579,0.38584,0.000221051,0.000226214,0.227924,0.0809250475102885,0.4708493160962923,0.00022107543357252624,0.0820054311945495,0.00022623958831635704,-0.14236699148515908
322,0.3126,295.228,254.854,-0.0117851,275.03,-0.150618,-0.173713,0.0780355,0.0790336,-0.154013,0.386929,0.000220733,0.000225738,0.228578,0.08116103920571649,0.47245194347374575,0.00022075736332127782,0.08224068474642587,0.00022576348073966024,-0.1427391234523765
323,0.3136,295.499,255.06,0.0233118,275.213,-0.153828,-0.172812,0.078255,0.0792506,-0.154446,0.388015,0.000220212,0.000225358,0.229231,0.08139838010103229,0.47405189490073507,0.00022023624844247358,0.0824755564576749,0.00022538339502164995,-0.14311023706002735
324,0.3146,295.632,255.209,-0.00988803,275.407,-0.15175,-0.174517,0.0784731,0.0794676,-0.15488,0.389102,0.000219882,0.000224887,0.229884,0.08163425880937059,0.47565506047312667,0.0002199061758187959,0.08271047914161556,0.00022491228897703053,-0.14348204652865248
325,0.3156,295.894,255.411,0.0213997,275.589,-0.154659,-0.173769,0.0786922,0.0796842,-0.155313,0.390187,0.000219371,0.000224501,0.230537,0.08187127083919532,0.47725701511697904,0.0002193950635773767,0.08294501963121559,0.00022452620223534225,-0.1438528385202461
326,0.3166,296.034,255.563,-0.00815729,275.781,-0.152853,-0.175314,0.07891,0.0799009,-0.155745,0.391272,0.000219029,0.000224034,0.231189,0.08210692806412445,0.47886070882489196,0.00021905298860280809,0.0831797192457544,0.00022405909749068087,-0.14422261421670424
327,0.3176,296.288,255.761,0.0196518,275.963,-0.155486,-0.174703,0.0791287,0.0801172,-0.156178,0.392356,0.000218527,0.000223642,0.23184,0.08234361072959806,0.4804646630193701,0.0002185508787642121,0.08341403635950972,0.00022366700973641684,-0.1445930856119031
328,0.3186,296.433,255.914,-0.00658465,276.154,-0.153928,-0.176103,0.0793462,0.0803336,-0.15661,0.393439,0.000218175,0.000223179,0.232492,0.0825790460675968,0.48206887477328797,0.0002181988018963299,0.08364851252638417,0.00022320390628594033,-0.14496254159068145
329,0.3196,296.68,256.109,0.0180593,276.336,-0.156309,-0.175614,0.0795645,0.0805496,-0.157041,0.394521,0.00021768,0.000222781,0.233142,0.08281539887032308,0.48367334115557337,0.0002177036940103072,0.0838826058862625,0.00022280581752998074,-0.14533098333035743
330,0.3206,296.83,256.264,-0.00516135,276.525,-0.154976,-0.176884,0.0797817,0.0807656,-0.157473,0.395603,0.000217319,0.000222321,0.233792,0.08305061191816998,0.48527954451001665,0.00021734261548456146,0.084116749815768,0.00022234571514512247,-0.14570012060616644
331,0.3216,297.07,256.455,0.0166133,276.706,-0.157128,-0.176504,0.0799996,0.0809812,-0.157904,0.396683,0.000216832,0.000221918,0.234442,0.0832866343602181,0.4868845129450394,0.0002168555097572522,0.08435051058553378,0.00022194262562091893,-0.14606824451778355
332,0.3226,297.224,256.611,-0.00387838,276.894,-0.155998,-0.177657,0.0802166,0.0811969,-0.158335,0.397764,0.000216462,0.000221462,0.235091,0.08352173306716137,0.4884927041742866,0.00021648542958918604,0.08458443021799233,0.0002214865245191433,-0.14643620980218153
333,0.3236,297.458,256.8,0.0153045,277.075,-0.157943,-0.177373,0.0804341,0.0814122,-0.158765,0.398842,0.000215981,0.000221054,0.23574,0.08375742467463665,0.49009816449702703,0.00021600432557544735,0.08481796638508454,0.00022107843423579965,-0.1468031633313036
334,0.3246,297.616,256.957,-0.00272655,277.261,-0.156995,-0.178422,0.0806508,0.0816275,-0.159195,0.399921,0.000215603,0.0002206,0.236388,0.08399230035642469,0.4917068481452731,0.0002156262439971801,0.08505155283792676,0.00022062433396929926,-0.14716995910432829
335,0.3256,297.845,257.143,0.0141235,277.441,-0.158752,-0.178223,0.080868,0.0818425,-0.159625,0.400998,0.000215127,0.000220189,0.237036,0.08422776905503704,0.49331428186840975,0.00021515014147244216,0.08528486400183821,0.00022021324337728743,-0.14753659718907597
336,0.3266,298.006,257.301,-0.00169662,277.626,-0.157969,-0.179178,0.0810843,0.0820575,-0.160054,0.402075,0.000214743,0.000219737,0.237683,0.08446231288648476,0.4949234477302553,0.00021476605892867262,0.08551822533304287,0.00021976114394295365,-0.14790222555598953
337,0.3276,298.229,257.484,0.0130611,277.806,-0.159557,-0.179053,0.0813011,0.0822722,-0.160483,0.40315,0.000214272,0.000219322,0.23833,0.08469744980383931,0.49653135453162633,0.00021429495788471975,0.08575131111688528,0.0002193460528281399,-0.1482676971019743
338,0.3286,298.394,257.643,-0.000779458,277.99,-0.15892,-0.179926,0.0815172,0.0824868,-0.160912,0.404226,0.000213881,0.000218872,0.238976,0.08493187825182336,0.4981424889039503,0.00021390387417175027,0.08598433835117891,0.0002188959542237523,-0.1486330118942918
339,0.3296,298.612,257.824,0.012108,278.168,-0.160356,-0.179865,0.0817336,0.0827012,-0.16134,0.4053,0.000213415,0.000218453,0.239622,0.08516668291522533,0.4997523582821437,0.00021343777460125501,0.08621719835502195,0.00021847686259413024,-0.14899731899791968
340,0.3306,298.779,257.983,3.38807e-05,278.351,-0.159848,-0.180664,0.0819494,0.0829155,-0.161768,0.406373,0.000213018,0.000218004,0.240267,0.08540088715512706,0.5013624562256478,0.00021304068994520975,0.08644999964439659,0.00021802776459889373,-0.14936147021146995
341,0.3316,298.993,258.162,0.0112553,278.529,-0.161149,-0.180661,0.0821655,0.0831295,-0.162196,0.407446,0.000212556,0.000217583,0.240912,0.08563546763234897,0.5029742827314532,0.00021257859162715498,0.08668252482362715,0.00021760667289782987,-0.14972546560164945
342,0.3326,299.162,258.322,0.00075209,278.711,-0.160756,-0.181394,0.082381,0.0833434,-0.162623,0.408518,0.000212154,0.000217136,0.241556,0.08586944728602597,0.5045863350682149,0.00021217650625149354,0.08691499107706657,0.00021715957572765454,-0.1500884553240165
343,0.3336,299.372,258.498,0.0104946,278.888,-0.161936,-0.181439,0.0825967,0.0835572,-0.163051,0.409589,0.000211695,0.000216712,0.2422,0.08610369458846878,0.5061986102523219,0.0002117174089677487,0.08714739834561058,0.00021673548374190332,-0.15045213963114434
344,0.3346,299.543,258.658,0.00138353,279.068,-0.161645,-0.182115,0.0828119,0.0837708,-0.163477,0.410659,0.000211288,0.000216265,0.242844,0.08633744925464426,0.507811105296295,0.00021131032288157492,0.08737963783219138,0.0002162883869609722,-0.15081396994433283
345,0.3356,299.75,258.833,0.00981744,279.245,-0.162716,-0.182202,0.0830272,0.0839842,-0.163904,0.411728,0.000210832,0.000215839,0.243486,0.08657136288736766,0.5094238172087953,0.00021085422662814324,0.08761170940806107,0.000215862294912883,-0.1511764949745643
346,0.3366,299.922,258.993,0.00193618,279.424,-0.162514,-0.182827,0.0832421,0.0841974,-0.16433,0.412797,0.000210421,0.000215393,0.244129,0.08680489216507437,0.5110382540321308,0.00021044314005158604,0.08784361294454546,0.0002154161987377723,-0.15153801677809375
347,0.3376,300.125,259.166,0.00921614,279.6,-0.163489,-0.182949,0.0834571,0.0844105,-0.164756,0.413865,0.000209967,0.000214965,0.244771,0.08703858033746825,0.5126529049575552,0.00020998904461344559,0.08807545712058351,0.00021498810663134194,-0.15189938460613395
348,0.3386,300.299,259.327,0.00241759,279.779,-0.163365,-0.183529,0.0836717,0.0846235,-0.165181,0.414932,0.000209553,0.00021452,0.245412,0.08727188384938023,0.5142677669828271,0.00020957495776374735,0.08830724187715044,0.00021454301106071938,-0.1522597507844392
349,0.3396,300.499,259.498,0.0086833,279.954,-0.164255,-0.183682,0.0838863,0.0848362,-0.165606,0.415998,0.000209101,0.000214089,0.246054,0.08750523743359828,0.5158828371018629,0.00020912286313801154,0.08853874944745499,0.00021411191868536683,-0.1526199638396596
350,0.3406,300.674,259.658,0.00283486,280.131,-0.164199,-0.184222,0.0841006,0.0850488,-0.166031,0.417064,0.000208683,0.000213645,0.246694,0.08773831477932581,0.5174996298036192,0.0002087047758119187,0.08877019738763181,0.00021366782371834425,-0.15298002383685871
351,0.3416,300.871,259.828,0.00821202,280.306,-0.165014,-0.184401,0.0843149,0.0852612,-0.166456,0.418128,0.000208233,0.000213213,0.247334,0.08797144207888108,0.5191151086920924,0.00020825468199614505,0.08900147673855452,0.00021323573150722197,-0.15333993084107234
352,0.3426,301.047,259.988,0.00319463,280.482,-0.165016,-0.184907,0.0845289,0.0854735,-0.16688,0.419192,0.000207813,0.000212769,0.247974,0.08820429288163312,0.5207323073648662,0.00020783459461726217,0.08923269629515374,0.00021279163692922154,-0.1536988386165703
353,0.3436,301.241,260.156,0.00779586,280.655,-0.165765,-0.185106,0.0847429,0.0856856,-0.167304,0.420255,0.000207364,0.000212335,0.248613,0.08843719351978918,0.5223497053022979,0.00020738550140042555,0.08946374705210447,0.0002123575446717485,-0.1540575942474286
354,0.3446,301.417,260.316,0.00350306,280.831,-0.165817,-0.185581,0.0849565,0.0858976,-0.167728,0.421317,0.000206941,0.000211891,0.249252,0.08866970853604483,0.5239672994798044,0.00020696241376594315,0.08969473785063897,0.0002119134504836584,-0.15441619779814253
355,0.3456,301.61,260.483,0.00742888,281.004,-0.166508,-0.185798,0.0851702,0.0861094,-0.168151,0.422379,0.000206494,0.000211456,0.24989,0.08890238211304524,0.5255866124548474,0.00020651532135351758,0.08992555963928028,0.00021147835839596674,-0.15477380410740738
356,0.3466,301.786,260.642,0.00376584,281.178,-0.166604,-0.186247,0.0853835,0.086321,-0.168574,0.42344,0.000206068,0.000211012,0.250528,0.08913466976374718,0.5272061188468768,0.00020608923346876473,0.09015621228988979,0.000211034264598009,-0.15513125918119186
357,0.3476,301.977,260.808,0.00710561,281.35,-0.167243,-0.186478,0.0855969,0.0865325,-0.168996,0.4245,0.000205622,0.000210576,0.251165,0.08936711590339574,0.528825815620487,0.00020564314165238962,0.09038680471307825,0.00021059817268209713,-0.15548771857159605
358,0.3486,302.153,260.967,0.00398818,281.523,-0.167376,-0.186903,0.0858099,0.0867438,-0.169419,0.425559,0.000205193,0.000210132,0.251802,0.08959917581258603,0.5304456997364795,0.00020521405352358357,0.09061722778825465,0.00021015407927515994,-0.1558448717234232
359,0.3496,302.341,261.132,0.00682105,281.695,-0.167971,-0.187146,0.0860229,0.0869549,-0.169841,0.426617,0.000204748,0.000209694,0.252438,0.08983128515580163,0.5320657681518719,0.00020476896230237074,0.09084748138745313,0.00020971598732355545,-0.15620103003286712
360,0.3506,302.518,261.291,0.00417484,281.867,-0.168134,-0.187551,0.0862356,0.0871659,-0.170262,0.427675,0.000204318,0.000209251,0.253074,0.0900631169245889,0.5336875515066908,0.00020433887434423426,0.09107767449054416,0.0002092728945175537,-0.15655619463182946
361,0.3516,302.705,261.454,0.00657065,282.038,-0.168689,-0.187802,0.0864483,0.0873767,-0.170684,0.428732,0.000203874,0.000208812,0.25371,0.09029499800923801,0.5353095163060182,0.00020389478371640735,0.09130769790794324,0.00020883380274328012,-0.1569120528263347
362,0.3526,302.881,261.612,0.00433016,282.209,-0.16888,-0.188189,0.0866607,0.0875874,-0.171105,0.429788,0.000203442,0.000208368,0.254345,0.0905266012622099,0.5369316594960991,0.00020346269572701914,0.09153766066561819,0.00020838971011949425,-0.15726691814770322
363,0.3536,303.066,261.774,0.00635027,282.379,-0.1694,-0.188448,0.086873,0.0877979,-0.171526,0.430843,0.000202998,0.000207929,0.254979,0.09075814463711729,0.5385539780194151,0.00020301860548821438,0.09176745352803861,0.00020795061873291054,-0.15762163410221552
364,0.3546,303.243,261.932,0.00445802,282.549,-0.169612,-0.188818,0.0870851,0.0880083,-0.171946,0.431898,0.000202564,0.000207485,0.255613,0.09098951897597618,0.5401780089919315,0.00020258451747245942,0.09199718556722392,0.0002075065265014775,-0.1579753587285213
365,0.3556,303.426,262.093,0.0061562,282.719,-0.170102,-0.189082,0.0872971,0.0882184,-0.172366,0.432951,0.000202121,0.000207044,0.256247,0.09122083327244823,0.5418006706168101,0.00020214142782548628,0.09222663827907485,0.000207065435088305,-0.1583289348216781
366,0.3566,303.602,262.251,0.00456196,282.888,-0.170332,-0.189438,0.0875089,0.0884285,-0.172786,0.434004,0.000201686,0.0002066,0.25688,0.09145197832233198,0.543425041804307,0.00020170633998861653,0.0924561392040053,0.0002066213432498909,-0.15868236244405698
367,0.3576,303.784,262.411,0.00598511,283.057,-0.170796,-0.189706,0.0877206,0.0886383,-0.173205,0.435057,0.000201243,0.000206159,0.257513,0.09168306316561048,0.5450511243555389,0.00020126325073088758,0.09268536054648835,0.0002061802522270728,-0.1590348006932235
368,0.3586,303.96,262.568,0.0046451,283.225,-0.171041,-0.190049,0.0879321,0.0888481,-0.173625,0.436108,0.000200807,0.000205715,0.258145,0.09191397855191119,0.5466758267187743,0.0002008271630751235,0.09291462998465416,0.00020573616078167767,-0.15938793191418488
369,0.3596,304.14,262.727,0.00583401,283.393,-0.171481,-0.19032,0.0881435,0.0890576,-0.174043,0.437159,0.000200364,0.000205273,0.258776,0.09214483356749259,0.548302237541832,0.00020038407420686077,0.09314361958545914,0.00020529406994396204,-0.15973923433132453
370,0.3606,304.316,262.883,0.00471026,283.561,-0.171738,-0.190652,0.0883546,0.089267,-0.174462,0.438209,0.000199927,0.000204829,0.259408,0.09237540967831093,0.5499288086916634,0.00019994698673464484,0.0933725478273506,0.00020484997889202994,-0.1600912298439301
371,0.3616,304.495,263.041,0.00570027,283.728,-0.172158,-0.190924,0.0885657,0.0894762,-0.17488,0.439258,0.000199483,0.000204386,0.260039,0.09260603446888416,0.5515555370818506,0.00019950289805681365,0.09360130529155253,0.00020440688824163722,-0.16044223834396798
372,0.3626,304.67,263.197,0.00475991,283.895,-0.172425,-0.191246,0.0887765,0.0896853,-0.175298,0.440306,0.000199045,0.000203941,0.260669,0.09283638009852657,0.5531824196222626,0.0001990648107703663,0.09383000123381646,0.0002039617973794705,-0.16079310015311343
373,0.3636,304.848,263.354,0.00558154,284.061,-0.172826,-0.191518,0.0889873,0.0898942,-0.175716,0.441354,0.000198602,0.000203498,0.261299,0.09306677429014587,0.554811008029295,0.00019862172268281242,0.09405852618967492,0.00020351870712254083,-0.16114381533267041
374,0.3646,305.022,263.51,0.00479624,284.227,-0.1731,-0.191832,0.0891978,0.090103,-0.176133,0.442401,0.000198163,0.000203053,0.261928,0.09329688906486444,0.5564397476511069,0.00019818263558435412,0.09428698946067882,0.00020307361665583556,-0.16149354543788186
375,0.3656,305.199,263.666,0.00547576,284.393,-0.173487,-0.192104,0.0894082,0.0903116,-0.17655,0.443447,0.00019772,0.000202609,0.262557,0.09352694293114161,0.5580686353869198,0.00019773954788759873,0.09451528153671607,0.0002026295265897815,-0.16184312973604242
376,0.3666,305.373,263.821,0.00482118,284.558,-0.173766,-0.192409,0.0896185,0.0905201,-0.176967,0.444492,0.000197281,0.000202164,0.263186,0.09375693583014577,0.5596976681322632,0.00019730046117616418,0.09474351176509077,0.00020218443651853768,-0.16219256828794082
377,0.3676,305.549,263.976,0.00538111,284.723,-0.174138,-0.19268,0.0898286,0.0907284,-0.177383,0.445537,0.000196837,0.00020172,0.263814,0.0939867583043692,0.5613284041066076,0.00019685637367339304,0.09497157059009353,0.00020174034684727893,-0.16254102369578294
378,0.3686,305.722,264.13,0.00483642,284.887,-0.174422,-0.192978,0.0900385,0.0909365,-0.177799,0.44658,0.000196397,0.000201274,0.264442,0.09421641022606342,0.5629577191721935,0.00019641628715350024,0.0951994578847839,0.00020129425697068548,-0.16288933417632245
379,0.3696,305.897,264.285,0.00529601,285.051,-0.174782,-0.193247,0.0902483,0.0911445,-0.178215,0.447623,0.000195954,0.000200829,0.265069,0.0944460009121495,0.5645887344999252,0.00019597320023923004,0.09542728306502135,0.00020084916749363302,-0.16323749978983648
380,0.3706,306.069,264.439,0.00484343,285.215,-0.175068,-0.193538,0.0904579,0.0913523,-0.178631,0.448666,0.000195513,0.000200384,0.265696,0.09467542083630898,0.5662214518641016,0.00019553211391221126,0.09565493650681578,0.0002004040782148664,-0.16358552059657716
381,0.3716,306.243,264.592,0.00521908,285.378,-0.175417,-0.193806,0.0906674,0.09156,-0.179046,0.449707,0.000195069,0.000199938,0.266322,0.09490477936144082,0.5678527373322624,0.00019508802719458984,0.0958825276716524,0.00019995798893401862,-0.16393256058975025
382,0.3726,306.415,264.745,0.00484349,285.541,-0.175705,-0.194091,0.0908767,0.0917675,-0.179461,0.450748,0.000194627,0.000199492,0.266948,0.09513396691540188,0.5694857218527984,0.00019464594106333166,0.09610994689007235,0.00019951189985234485,-0.16427945659120657
383,0.3736,306.588,264.898,0.00514914,285.704,-0.176045,-0.194357,0.0910859,0.0919749,-0.179875,0.451788,0.000194184,0.000199047,0.267573,0.09536309290702372,0.5711188360757233,0.000194202854933323,0.09633730366914017,0.00019906681116843572,-0.1646253732864812
384,0.3746,306.759,265.051,0.0048377,285.866,-0.176333,-0.194636,0.0912949,0.0921821,-0.18029,0.452827,0.000193741,0.0001986,0.268198,0.09559204771838559,0.5727520768680712,0.0001937597689996018,0.0965644882939749,0.00019861972228563118,-0.1649719818303198
385,0.3756,306.931,265.203,0.00508513,286.027,-0.176664,-0.194899,0.0915037,0.0923892,-0.180704,0.453866,0.000193297,0.000198154,0.268823,0.09582083122211582,0.5743870154794666,0.00019331568306890645,0.0967916103171742,0.00019817363380059128,-0.16531761187948524
386,0.3766,307.102,265.354,0.00482703,286.189,-0.176953,-0.195173,0.0917124,0.0925961,-0.181117,0.454904,0.000192855,0.000197708,0.269447,0.09604955289586847,0.5760220776519944,0.00019287359772102164,0.09701855997848163,0.00019772754551472538,-0.1656622645301078
387,0.3776,307.273,265.506,0.00502618,286.35,-0.177275,-0.195434,0.091921,0.0928028,-0.181531,0.455941,0.000192411,0.000197262,0.27007,0.0962782126809889,0.5776572602421572,0.00019242951218378934,0.09724533715144279,0.00019728145742781145,-0.16600760886138322
388,0.3786,307.443,265.657,0.00481227,286.51,-0.177564,-0.195703,0.0921294,0.0930094,-0.181944,0.456977,0.000191967,0.000196815,0.270694,0.09650670086815372,0.5792925601028325,0.00019198542684373265,0.09747205145687943,0.00019683436934281318,-0.1663519766020901
389,0.3796,307.613,265.808,0.00497152,286.671,-0.177879,-0.195961,0.0923376,0.0932159,-0.182356,0.458013,0.000191523,0.000196368,0.271316,0.09673501733019352,0.580929555012047,0.00019154134170062953,0.09769870283645488,0.0001963872814578771,-0.16669536884407077
390,0.3806,307.782,265.958,0.00479415,286.831,-0.178166,-0.196225,0.0925457,0.0934221,-0.182769,0.459048,0.00019108,0.000195921,0.271939,0.09696327163633667,0.5825666641593255,0.00019109825694596516,0.09792507164680209,0.0001959401937725591,-0.16703945259855202
391,0.3816,307.951,266.108,0.0049205,286.99,-0.178475,-0.19648,0.0927537,0.0936283,-0.183181,0.460082,0.000190635,0.000195474,0.27256,0.09719146372799203,0.5842038843870536,0.0001906531720063942,0.09815148713921062,0.00019549310628730332,-0.16738256165876164
392,0.3826,308.12,266.258,0.00477324,287.149,-0.17876,-0.19674,0.0929615,0.0938343,-0.183593,0.461115,0.000190191,0.000195026,0.273182,0.09741948380462007,0.5858412125340156,0.0001902090874548179,0.09837772964773972,0.00019504501880662772,-0.1677255293871548
393,0.3836,308.288,266.407,0.00487256,287.308,-0.179063,-0.196992,0.0931691,0.0940401,-0.184004,0.462147,0.000189746,0.000194579,0.273803,0.09764733173925522,0.5874786454354022,0.00018976400291093043,0.09860379904624428,0.0001945979317214963,-0.1680675239098881
394,0.3846,308.456,266.556,0.00475007,287.467,-0.179347,-0.197248,0.0933766,0.0942458,-0.184416,0.463179,0.000189302,0.000194132,0.274423,0.09787511719251452,0.589117769039796,0.00018931991875437149,0.09882980509163297,0.00019415084483620504,-0.16841020949195995
395,0.3856,308.623,266.705,0.00482723,287.625,-0.179644,-0.197497,0.0935839,0.0944513,-0.184827,0.46421,0.000188857,0.000193684,0.275043,0.09810273029559169,0.590756994335113,0.00018887483460594545,0.09905563782009752,0.00019370275795704828,-0.16875192266899064
396,0.3866,308.79,266.853,0.00472505,287.782,-0.179926,-0.197748,0.0937911,0.0946567,-0.185237,0.465241,0.000188412,0.000193236,0.275663,0.09833028075472239,0.5923979105432253,0.0001884297506555832,0.09928140703381017,0.0001932546712783978,-0.16909266452384286
397,0.3876,308.957,267.001,0.00478412,287.94,-0.180218,-0.197995,0.0939981,0.0948619,-0.185648,0.46627,0.000187967,0.000192788,0.276282,0.09855765865563937,0.5940373313305123,0.0001879846669035068,0.09950700272385982,0.00019280658480069768,-0.1694340972694881
398,0.3886,309.123,267.149,0.00469854,288.097,-0.180497,-0.198242,0.094205,0.095067,-0.186058,0.467299,0.000187522,0.00019234,0.276901,0.09878497375015094,0.5956784399500299,0.00018753958334927212,0.09973253473763588,0.00019235849852372588,-0.16977455949008302
399,0.3896,309.289,267.296,0.00474288,288.253,-0.180784,-0.198485,0.0944117,0.0952719,-0.186467,0.468327,0.000187077,0.000191892,0.277519,0.09901211607857596,0.5973196408190122,0.00018709449999332328,0.0999578930211713,0.00019191041244748241,-0.1701140522642467
400,0.3906,309.455,267.443,0.00467086,288.41,-0.181061,-0.198729,0.0946183,0.0954767,-0.186877,0.469355,0.000186631,0.000191444,0.278137,0.09923919543824788,0.5989625297099828,0.00018664841664861598,0.10018318746702581,0.00019146232657196727,-0.17045423576043628
401,0.3916,309.62,267.59,0.00470323,288.566,-0.181343,-0.198969,0.0948247,0.0956813,-0.187286,0.470381,0.000186186,0.000190996,0.278754,0.09946610182411986,0.6006039071481042,0.00018620333368901676,0.10040830797622435,0.0001910142408974025,-0.1707934506038461
402,0.3926,309.785,267.736,0.00464225,288.721,-0.181617,-0.19921,0.095031,0.0958858,-0.187695,0.471407,0.00018574,0.000190547,0.279371,0.09969294507900339,0.6022469695036923,0.0001857572507417693,0.10063336448644922,0.00019056515523274697,-0.17113252673675317
403,0.3936,309.949,267.883,0.00466494,288.877,-0.181896,-0.199447,0.0952371,0.0960901,-0.188103,0.472433,0.000185294,0.000190099,0.279988,0.099919615152533,0.6038917185063593,0.0001853111679934738,0.10085824685376554,0.00019011706995986088,-0.17147063568692855
404,0.3946,310.113,268.028,0.00461293,289.031,-0.182167,-0.199684,0.0954431,0.0962943,-0.188512,0.473457,0.000184849,0.00018965,0.280604,0.10014622193295142,0.6055349448143921,0.00018486608562917617,0.1010830650609309,0.00018966798469821633,-0.171809434907769
405,0.3956,310.277,268.174,0.00462781,289.186,-0.182441,-0.199918,0.0956489,0.0964983,-0.18892,0.474481,0.000184403,0.000189201,0.28122,0.10037265532462203,0.6071798546479823,0.00018442000327834052,0.10130770891909768,0.00018921889963796623,-0.1721472677357433
406,0.3966,310.44,268.319,0.00458307,289.34,-0.182709,-0.200151,0.0958546,0.0967022,-0.189327,0.475504,0.000183957,0.000188752,0.281835,0.10059902526117193,0.608824840906298,0.00018397392112645683,0.10153228845605211,0.00018876981477955468,-0.17248413524058748
407,0.3976,310.604,268.464,0.00459167,289.494,-0.18298,-0.200382,0.0960601,0.0969059,-0.189735,0.476526,0.00018351,0.000188304,0.28245,0.10082522160174112,0.6104699003759066,0.00018352683899003353,0.10175669343808202,0.0001883217303111362,-0.17282169284697502
408,0.3986,310.766,268.608,0.00455281,289.648,-0.183245,-0.200613,0.0962655,0.0971095,-0.190142,0.477548,0.000183064,0.000187855,0.283064,0.10105135432529377,0.6121166419557051,0.00018308075723649786,0.10198103393795388,0.00018787264585551355,-0.17315828591665028
409,0.3996,310.928,268.752,0.00455639,289.801,-0.183512,-0.20084,0.0964707,0.0973129,-0.190549,0.478569,0.000182618,0.000187406,0.283678,0.10127731324579381,0.6137634536014285,0.0001826346756821362,0.10220519967713959,0.00018742356160150742,-0.1734947420208205
410,0.4006,311.09,268.896,0.00452228,289.954,-0.183774,-0.201068,0.0966758,0.0975162,-0.190955,0.479589,0.000182171,0.000186956,0.284291,0.10150320838749538,0.6154103320893463,0.00018218759414434516,0.10242930077333856,0.00018697347736207348,-0.1738302350458676
411,0.4016,311.252,269.04,0.00452185,290.106,-0.184037,-0.201293,0.0968807,0.0977193,-0.191361,0.480608,0.000181725,0.000186507,0.284905,0.10172892951923429,0.6170572741922367,0.00018174151298810948,0.10265322690325451,0.00018652439351174444,-0.1741655918883933
412,0.4026,311.413,269.183,0.00449157,290.259,-0.184297,-0.201517,0.0970855,0.0979223,-0.191767,0.481627,0.000181278,0.000186058,0.285517,0.10195458671050739,0.6187058953844808,0.00018129443184955463,0.10287708822947161,0.00018607530986325393,-0.17450081260367667
413,0.4036,311.574,269.326,0.00448796,290.41,-0.184556,-0.201739,0.0972902,0.0981251,-0.192173,0.482645,0.000180831,0.000185609,0.286129,0.10218017990308259,0.6203545770225551,0.00018084735091083992,0.10310077438397403,0.0001856262264161579,-0.17483589724697424
414,0.4046,311.734,269.468,0.00446077,290.562,-0.184813,-0.20196,0.0974947,0.0983278,-0.192578,0.483662,0.000180385,0.000185159,0.286741,0.10240559879816913,0.6220033158689846,0.00018040127035234832,0.1033243955741836,0.00018517614298563245,-0.1751700210439533
415,0.4056,311.894,269.611,0.00445464,290.713,-0.185069,-0.202179,0.097699,0.0985303,-0.192983,0.484679,0.000179938,0.00018471,0.287352,0.10263084326994298,0.6236537323357461,0.00017995418981286981,0.10354784138741246,0.00018472705994243555,-0.17550400954819312
416,0.4066,312.054,269.753,0.00442993,290.864,-0.185323,-0.202397,0.0979032,0.0987327,-0.193388,0.485694,0.000179491,0.00018426,0.287963,0.1028560234782554,0.6253025775214418,0.0001795071094734535,0.10377122207587242,0.00018427697691647538,-0.17583786281447633
417,0.4076,312.214,269.894,0.00442183,291.015,-0.185576,-0.202614,0.0981072,0.098935,-0.193793,0.486709,0.000179044,0.00018381,0.288574,0.1030810290568338,0.6269530971346291,0.00017906002933365528,0.10399453758170019,0.00018382689409324193,-0.17617158089756313
418,0.4086,312.373,270.036,0.00439912,291.165,-0.185826,-0.202829,0.0983111,0.0991371,-0.194197,0.487724,0.000178597,0.000183361,0.289184,0.10330597021062982,0.6286052928757149,0.0001786129493936972,0.104217677425267,0.0001833778116557827,-0.17650434035694373
419,0.4096,312.531,270.177,0.00438947,291.315,-0.186076,-0.203043,0.0985149,0.099339,-0.194601,0.488737,0.000178149,0.000182911,0.289794,0.10353084688151304,0.6302559059317603,0.00017816486947541676,0.10444064148180332,0.0001829277292368925,-0.1768369654086549
420,0.4106,312.69,270.318,0.00436838,291.464,-0.186324,-0.203255,0.0987185,0.0995408,-0.195004,0.48975,0.000177702,0.000182461,0.290403,0.10375554863580061,0.6319081919060214,0.00017771778993558307,0.10466354009296785,0.000182477647020729,-0.17716863327603116
421,0.4116,312.848,270.458,0.00435752,291.614,-0.186571,-0.203466,0.098922,0.0997425,-0.195408,0.490763,0.000177255,0.000182011,0.291012,0.10398018574599877,0.6335621524940231,0.00017727071059581156,0.10488637320096794,0.00018202756500707018,-0.17750099000760733
422,0.4126,313.006,270.598,0.00433773,291.763,-0.186816,-0.203676,0.0991253,0.099944,-0.195811,0.491774,0.000176808,0.000181562,0.29162,0.10420464773354876,0.6352145189607004,0.00017682363145565816,0.10510903023711116,0.00018157848337740923,-0.17783239032698472
423,0.4136,313.163,270.738,0.00432595,291.911,-0.18706,-0.203884,0.0993285,0.100145,-0.196213,0.492785,0.00017636,0.000181112,0.292228,0.10442904491594973,0.6368685568146191,0.00017637555233895874,0.10533117947743942,0.00018112840176853773,-0.17816283528218724
424,0.4146,313.32,270.878,0.00430794,292.059,-0.187302,-0.20409,0.0995315,0.100347,-0.196616,0.493795,0.000175913,0.000180662,0.292835,0.1046532667698159,0.6385226292229582,0.00017592847359915176,0.10555447892817904,0.00018067832036194886,-0.1784939689316566
425,0.4156,313.477,271.017,0.0042913,292.207,-0.187542,-0.204295,0.0997344,0.100548,-0.197018,0.494804,0.000175465,0.000180212,0.293442,0.1048774236575909,0.6401767329108203,0.0001754803948834649,0.10577671771269337,0.00018022823915786468,-0.17882414798570967
426,0.4166,313.633,271.156,0.0042802,292.355,-0.187781,-0.204499,0.0999371,0.100749,-0.19742,0.495813,0.000175018,0.000179762,0.294049,0.10510140501110943,0.6418325064315926,0.0001750333165437823,0.1059990011716927,0.00017977815815650722,-0.17915419433445856
427,0.4176,313.789,271.295,0.00426092,292.503,-0.188019,-0.204702,0.10014,0.100949,-0.197821,0.496821,0.00017457,0.000179312,0.294655,0.10532565283535877,0.643488307981857,0.00017458523822910799,0.10622022309338197,0.00017932807735765444,-0.1794832875149378
428,0.4186,313.945,271.433,0.00424928,292.65,-0.188255,-0.204903,0.100342,0.10115,-0.198223,0.497828,0.000174122,0.000178862,0.295261,0.10554895116960394,0.64514413427661,0.00017413716011538405,0.10644259570592252,0.00017887799676130633,-0.17981306894284865
429,0.4196,314.1,271.571,0.00423093,292.796,-0.18849,-0.205104,0.100544,0.101351,-0.198624,0.498835,0.000173675,0.000178411,0.295866,0.10577229461466864,0.6468016288282683,0.000173690082375888,0.10666501301985076,0.00017842691618907836,-0.18014189796757685
430,0.4206,314.255,271.709,0.00421866,292.943,-0.188724,-0.205302,0.100747,0.101551,-0.199024,0.499841,0.000173227,0.000177961,0.296471,0.10599678917590238,0.6484591448576436,0.00017324200466317663,0.10688636815723052,0.0001779768359981837,-0.18046977562848587
431,0.4216,314.41,271.847,0.00420114,293.089,-0.188956,-0.2055,0.100949,0.101751,-0.199425,0.500846,0.000172779,0.000177511,0.297076,0.10622022309338197,0.6501166790696544,0.00017279392715119357,0.10710776757006535,0.00017752675600979373,-0.18079834136662554
432,0.4226,314.564,271.984,0.00418835,293.235,-0.189187,-0.205697,0.10115,0.101951,-0.199825,0.50185,0.000172331,0.000177061,0.29768,0.10644259570592252,0.6517742281658503,0.0001723458498397168,0.10732921126721084,0.00017707667622413048,-0.18112595650268348
433,0.4236,314.718,272.121,0.00417152,293.38,-0.189416,-0.205892,0.101352,0.102151,-0.200225,0.502854,0.000171884,0.000176611,0.298284,0.10666611968541706,0.6534334422770365,0.00017189877290113564,0.10755069925752503,0.00017662659664074987,-0.18145344061889268
434,0.4246,314.872,272.258,0.00415834,293.525,-0.189645,-0.206086,0.101554,0.102351,-0.200625,0.503857,0.000171436,0.00017616,0.298887,0.106889688821316,0.6550926679822318,0.00017145069599089346,0.10777223154986726,0.00017617551708393187,-0.18178079376765066
435,0.4256,315.025,272.394,0.00414206,293.67,-0.189872,-0.206279,0.101755,0.102551,-0.201024,0.504859,0.000170988,0.00017571,0.29949,0.10711219600999233,0.6567519019729562,0.0001710026192813796,0.10799380815309911,0.00017572543790622674,-0.18210719810894105
436,0.4266,315.178,272.53,0.00412862,293.815,-0.190098,-0.20647,0.101957,0.10275,-0.201423,0.505861,0.00017054,0.00017526,0.300092,0.1073358552624104,0.6584127993493565,0.00017055454277259408,0.1082143208612083,0.0001752753589310263,-0.18243347224087758
437,0.4276,315.331,272.666,0.0041128,293.959,-0.190322,-0.206661,0.102158,0.102949,-0.201822,0.506862,0.000170092,0.00017481,0.300694,0.10755845213955495,0.6600737017044485,0.00017010646646453687,0.1084348774557129,0.00017482528015833054,-0.1827596162154037
438,0.4286,315.483,272.801,0.00409916,294.103,-0.190545,-0.20685,0.102359,0.103149,-0.20222,0.507862,0.000169644,0.000174359,0.301296,0.10778109376316847,0.661734605719752,0.00016965839035720798,0.10865658660137956,0.00017437420141397375,-0.1830848131696634
439,0.4296,315.635,272.937,0.00408372,294.247,-0.190767,-0.207038,0.10256,0.103348,-0.202618,0.508862,0.000169196,0.000173909,0.301897,0.10800378014224621,0.6633971714697995,0.0001692103144506074,0.10887723121552417,0.00017392412304673144,-0.18340988072128805
440,0.4306,315.787,273.072,0.00406996,294.39,-0.190988,-0.207225,0.10276,0.103547,-0.203016,0.509861,0.000168748,0.000173459,0.302498,0.10822540305982775,0.665059735556589,0.00016876223874473517,0.10909791974231631,0.00017347404488221585,-0.1837348189217698
441,0.4316,315.939,273.207,0.00405484,294.533,-0.191207,-0.207411,0.102961,0.103745,-0.203414,0.510859,0.0001683,0.000173008,0.303098,0.1084481787540501,0.66672229465167,0.00016831416323959125,0.10931754287239759,0.00017302296674714945,-0.18405962782258012
442,0.4326,316.09,273.341,0.00404101,294.676,-0.191426,-0.207596,0.103161,0.103944,-0.203811,0.511856,0.000167852,0.000172558,0.303698,0.10866989056024234,0.6683848454232815,0.00016786608793517566,0.10953831902992839,0.00017257288898808731,-0.18438349185906966
443,0.4336,316.241,273.475,0.00402615,294.819,-0.191643,-0.20778,0.103362,0.104143,-0.204208,0.512853,0.000167404,0.000172108,0.304298,0.10889275560543177,0.6700490545845823,0.00016741801283148838,0.10975913912628621,0.00017212281143152985,-0.18470722734705525
444,0.4346,316.391,273.609,0.0040123,294.961,-0.191859,-0.207962,0.103562,0.104341,-0.204605,0.513849,0.000166956,0.000171658,0.304897,0.10911455633588663,0.6717132520757232,0.00016696993792852943,0.10997889319076748,0.00017167273407747707,-0.18503083433756062
445,0.4356,316.541,273.743,0.00399768,295.103,-0.192073,-0.208144,0.103762,0.104539,-0.205002,0.514845,0.000166508,0.000171207,0.305496,0.10933640143092371,0.6733791079332947,0.00016652186322652085,0.11019869077086164,0.0001712216567548719,-0.185354312881589
446,0.4366,316.691,273.876,0.00398383,295.244,-0.192287,-0.208324,0.103962,0.104737,-0.205398,0.515839,0.00016606,0.000170757,0.306094,0.10955829089941704,0.6750432737199552,0.00016607378872501855,0.11041853187518536,0.00017077157980627256,-0.18567684870737944
447,0.4376,316.841,274.009,0.0039694,295.386,-0.192499,-0.208503,0.104161,0.104935,-0.205794,0.516833,0.000165612,0.000170307,0.306692,0.10977911497057247,0.6767090945098075,0.00016562571442424456,0.11063841651235751,0.00017032150306039995,-0.185999256834269
448,0.4386,316.99,274.142,0.00395558,295.527,-0.19271,-0.208682,0.104361,0.105133,-0.20619,0.517827,0.000165164,0.000169856,0.307289,0.11000109299062855,0.6783765719487436,0.00016517764032442095,0.11085834469099809,0.00016987042634708516,-0.1863215373128163
449,0.4396,317.139,274.275,0.00394134,295.668,-0.19292,-0.208859,0.104561,0.105331,-0.206585,0.518819,0.000164715,0.000169406,0.307886,0.11022311541072871,0.6800423475962354,0.00016472856626048582,0.11107831641972932,0.000169420350006666,-0.18664287683684366
450,0.4406,317.288,274.407,0.00392756,295.808,-0.193129,-0.209035,0.10476,0.105528,-0.20698,0.519811,0.000164267,0.000168956,0.308483,0.1104440717951265,0.6817097765130555,0.0001642804925623409,0.11129722040939916,0.00016897027386875152,-0.1869640894568242
451,0.4416,317.436,274.539,0.00391348,295.948,-0.193336,-0.20921,0.104959,0.105725,-0.207375,0.520803,0.000163819,0.000168506,0.309079,0.11066507215422017,0.683378860340061,0.00016383241906514634,0.11151616752740279,0.00016852019793356376,-0.18728517522287524
452,0.4426,317.584,274.671,0.00389976,296.088,-0.193543,-0.209384,0.105158,0.105923,-0.20777,0.521793,0.000163371,0.000168055,0.309675,0.11088611649676139,0.6850462306239056,0.0001633843457686801,0.11173626951795113,0.00016806912203248814,-0.18760613418509398
453,0.4436,317.732,274.802,0.00388582,296.228,-0.193748,-0.209557,0.105357,0.10612,-0.208164,0.522783,0.000162923,0.000167605,0.31027,0.11110720483150405,0.6867152524216957,0.00016293627267272015,0.11195530313714941,0.00016761904650275383,-0.1879261543201186
454,0.4446,317.879,274.933,0.00387218,296.367,-0.193952,-0.209729,0.105556,0.106317,-0.208558,0.523772,0.000162475,0.000167155,0.310865,0.11132833716720314,0.6883842389841568,0.00016248819977771056,0.11217437991022106,0.0001671689711755242,-0.18824604839204606
455,0.4456,318.027,275.064,0.00385838,296.506,-0.194155,-0.2099,0.105754,0.106514,-0.208952,0.524761,0.000162027,0.000166705,0.31146,0.11154840196365812,0.6900548769908326,0.0001620401270834293,0.11239349984566838,0.00016671889605057721,-0.18856581645053538
456,0.4466,318.173,275.195,0.00384481,296.645,-0.194357,-0.21007,0.105953,0.10671,-0.209345,0.525749,0.000161579,0.000166255,0.312054,0.11176962210632313,0.6917254763494873,0.0001615920545896543,0.11261155033988834,0.00016626882112835695,-0.18888464743027922
457,0.4476,318.32,275.326,0.00383113,296.783,-0.194558,-0.210239,0.106151,0.106907,-0.209738,0.526736,0.000161131,0.000165805,0.312648,0.11198977428584667,0.6933960336790692,0.0001611439822968297,0.11283075640639395,0.00016581874640864136,-0.18920335313406633
458,0.4486,318.466,275.456,0.00381765,296.922,-0.194758,-0.210407,0.106349,0.107103,-0.210131,0.527723,0.000160683,0.000165355,0.313241,0.11220997005981759,0.695068240662706,0.0001606959102047334,0.11304889261129936,0.0001653686718916525,-0.18952193361112057
459,0.4496,318.612,275.586,0.00380409,297.06,-0.194957,-0.210574,0.106547,0.107299,-0.210524,0.528708,0.000160235,0.000164905,0.313834,0.1124302094368681,0.6967387054486052,0.00016024783831336542,0.1132670715750912,0.00016491859757694627,-0.18984038891064625
460,0.4506,318.758,275.715,0.00379069,297.197,-0.195155,-0.21074,0.106745,0.107496,-0.210916,0.529694,0.000159787,0.000164454,0.314427,0.11265049242563285,0.6984125148646136,0.00015979976662272577,0.11348640679200095,0.00016446752330034897,-0.19015790924014275
461,0.4516,318.903,275.845,0.00377726,297.335,-0.195351,-0.210905,0.106943,0.107692,-0.211308,0.530678,0.000159339,0.000164005,0.315019,0.1128708190347476,0.7000845752980585,0.00015935169513281444,0.1137046715169765,0.0001640184495552699,-0.1904753051260626
462,0.4526,319.048,275.974,0.00376395,297.472,-0.195547,-0.21107,0.107141,0.107887,-0.2117,0.531662,0.000158891,0.000163555,0.315611,0.11309118927285011,0.7017582818487267,0.00015890362384363144,0.11392186510360891,0.00016356837584829975,-0.1907925766171782
463,0.4536,319.193,276.103,0.00375062,297.609,-0.195742,-0.211233,0.107338,0.108083,-0.212092,0.532645,0.000158443,0.000163105,0.316202,0.11331048983753322,0.7034319327044105,0.00015845555275517675,0.1141402151867783,0.0001631183023438343,-0.19110972376224267
464,0.4546,319.338,276.232,0.0037374,297.745,-0.195935,-0.211395,0.107536,0.108279,-0.212483,0.533628,0.000157995,0.000162655,0.316793,0.11353094713907375,0.7051072295677654,0.0001580074818674504,0.11435860807075837,0.00016266822904165146,-0.19142593803633245
465,0.4556,319.482,276.36,0.00372419,297.882,-0.196128,-0.211557,0.107733,0.108474,-0.212874,0.534609,0.000157548,0.000162205,0.317384,0.11375033434459025,0.7067807604926784,0.00015756041133796472,0.11457592918745241,0.0001622181559424174,-0.1917420286948095
466,0.4566,319.626,276.488,0.00371106,298.018,-0.196319,-0.211717,0.10793,0.10867,-0.213265,0.53559,0.0001571,0.000161755,0.317974,0.11396976477364373,0.7084559339569625,0.00015711234085125092,0.11479440747974645,0.00016176808304546597,-0.19205799578599803
467,0.4576,319.77,276.616,0.00369795,298.154,-0.19651,-0.211877,0.108127,0.108865,-0.213655,0.536571,0.000156652,0.000161305,0.318564,0.11418923843475004,0.7101327515727394,0.00015666427056526544,0.1150118135856113,0.00016131801035101923,-0.192373031731639
468,0.4586,319.913,276.744,0.00368492,298.289,-0.196699,-0.212035,0.108324,0.10906,-0.214046,0.537551,0.000156204,0.000160856,0.319153,0.11440875533642658,0.7118095031433542,0.00015621620048000828,0.11522926208980078,0.00016086893802014224,-0.19268875214886805
469,0.4596,320.056,276.871,0.00367191,298.424,-0.196888,-0.212193,0.108521,0.109255,-0.214436,0.53853,0.000155757,0.000160406,0.319742,0.11462831548719254,0.7134861852489054,0.0001557691307514375,0.11544675300058271,0.00016041886573026076,-0.19300354214749027
470,0.4606,320.199,276.998,0.00365897,298.559,-0.197075,-0.21235,0.108717,0.109449,-0.214825,0.539508,0.000155309,0.000159956,0.320331,0.11484680404820757,0.7151627944663488,0.0001553210610671929,0.11566317066249932,0.000159968793643106,-0.19331740271975584
471,0.4616,320.341,277.125,0.00364606,298.694,-0.197262,-0.212506,0.108913,0.109644,-0.215215,0.540486,0.000154861,0.000159507,0.320919,0.11506533543717756,0.7168410442096931,0.00015487299158367662,0.11588074619370348,0.0001595197219179667,-0.19363194759245805
472,0.4626,320.484,277.252,0.00363322,298.828,-0.197448,-0.212661,0.10911,0.109838,-0.215604,0.541463,0.000154414,0.000159057,0.321507,0.11528502494696502,0.7185192175640809,0.0001544259224552924,0.11609724805846677,0.00015906965023537722,-0.1939455637625448
473,0.4636,320.626,277.378,0.00362041,298.963,-0.197632,-0.212815,0.109306,0.110033,-0.215993,0.54244,0.000153966,0.000158608,0.322094,0.11550364223564902,0.7201990312950293,0.00015397785337301073,0.1163149082430166,0.000158620578913915,-0.1942590579596667
474,0.4646,320.767,277.504,0.00360766,299.097,-0.197816,-0.212968,0.109502,0.110227,-0.216381,0.543416,0.000153519,0.000158158,0.322681,0.11572230237752112,0.7218787651263434,0.0001535307846447509,0.11653149434338816,0.0001581705076358908,-0.19457162480328938
475,0.4656,320.909,277.63,0.00359495,299.23,-0.197999,-0.213121,0.109698,0.110421,-0.21677,0.544391,0.000153071,0.000157709,0.323267,0.11594100538098129,0.7235584156188968,0.00015308271596325973,0.11674812246553912,0.00015772143671810568,-0.1948848755100283
476,0.4666,321.05,277.756,0.00358229,299.364,-0.19818,-0.213272,0.109894,0.110615,-0.217158,0.545365,0.000152624,0.00015726,0.323854,0.11615975125443123,0.7252379793304571,0.00015263564763534632,0.11696479261762271,0.00015727236600193706,-0.19519719958354198
477,0.4676,321.191,277.882,0.00356968,299.497,-0.198361,-0.213423,0.110089,0.110809,-0.217546,0.546339,0.000152176,0.000156811,0.324439,0.11637742362829262,0.726919179734012,0.0001521875793548677,0.11718150480779332,0.00015682329548760698,-0.19550940249882132
478,0.4686,321.331,278.007,0.00355712,299.63,-0.198541,-0.213573,0.110285,0.111003,-0.217933,0.547312,0.000151729,0.000156361,0.325025,0.11659625504810234,0.7286002898233219,0.00015174051142685663,0.11739825904420709,0.00015637322501826922,-0.19582068012394882
479,0.4696,321.471,278.132,0.0035446,299.762,-0.19872,-0.213722,0.11048,0.111196,-0.21832,0.548285,0.000151282,0.000155912,0.32561,0.11681401254850288,0.7302830364287849,0.00015129344369890774,0.11761393772052542,0.00015592415490761624,-0.19613183730794226
480,0.4706,321.612,278.257,0.00353213,299.895,-0.198898,-0.213871,0.110675,0.11139,-0.218707,0.549257,0.000150834,0.000155463,0.326194,0.11703181251575656,0.7319656891769506,0.00015084537601972592,0.11783077585706248,0.00015547508499835772,-0.19644287409740335
481,0.4716,321.751,278.381,0.0035197,300.027,-0.199075,-0.214018,0.11087,0.111583,-0.219094,0.550228,0.000150387,0.000155014,0.326779,0.11724965495814499,0.7336482446096055,0.00015039830869167936,0.11804653801718157,0.00015502601529093774,-0.19675379053891573
482,0.4726,321.891,278.505,0.00350732,300.159,-0.199252,-0.214165,0.111065,0.111776,-0.219481,0.551198,0.00014994,0.000154565,0.327362,0.11746753988395175,0.7353306992654665,0.000149951241563695,0.11826234182341633,0.00015457694578513426,-0.19706458667904514
483,0.4736,322.03,278.629,0.00349499,300.29,-0.199427,-0.214311,0.11126,0.111969,-0.219867,0.552168,0.000149493,0.000154116,0.327946,0.11768546730146179,0.7370147866941104,0.00014950417463532872,0.11847818728380499,0.00015412787648094728,-0.19737445993920033
484,0.4746,322.169,278.753,0.0034827,300.422,-0.199601,-0.214456,0.111455,0.112162,-0.220253,0.553137,0.000149046,0.000153668,0.328529,0.11790343721896179,0.7386987697804561,0.00014905710790702464,0.11869407440638802,0.00015367980753189237,-0.19768421361135902
485,0.4756,322.308,278.877,0.00347046,300.553,-0.199775,-0.2146,0.111649,0.112355,-0.220638,0.554106,0.000148599,0.000153219,0.329111,0.11812033152384949,0.7403843854372651,0.00014861004137833866,0.11891000319920675,0.0001532307386304943,-0.1979930457351201
486,0.4766,322.446,279.0,0.00345826,300.684,-0.199948,-0.214744,0.111844,0.112547,-0.221024,0.555074,0.000148152,0.00015277,0.329694,0.1183383862481413,0.7420698931765006,0.00014816297504949283,0.11912485454489019,0.00015278166993071274,-0.19830256067923913
487,0.4776,322.584,279.123,0.00344611,300.814,-0.20012,-0.214886,0.112038,0.11274,-0.221409,0.556041,0.000147705,0.000152322,0.330276,0.11855536494132624,0.743755289521002,0.00014771590892070918,0.11934086648629916,0.00015233360158495302,-0.19861115478520042
488,0.4786,322.722,279.246,0.00343401,300.945,-0.200291,-0.215028,0.112232,0.112932,-0.221794,0.557008,0.000147259,0.000151873,0.330857,0.11877238573246096,0.7454423164320203,0.00014726984313884195,0.11955580056567583,0.00015188453328796037,-0.19891963010529867
489,0.4796,322.86,279.369,0.00342195,301.075,-0.200461,-0.215169,0.112426,0.113124,-0.222179,0.557974,0.000146812,0.000151425,0.331438,0.11898944862971317,0.7471292283569739,0.00014682277740907246,0.11977077591635776,0.00015143646534410138,-0.19922798668525765
490,0.4806,322.997,279.491,0.00340993,301.205,-0.20063,-0.21531,0.11262,0.113316,-0.222563,0.558939,0.000146365,0.000150976,0.332019,0.11920655364125254,0.7488160218092805,0.0001463757118791431,0.11998579254626951,0.00015098739744989764,-0.19953542410660785
491,0.4816,323.134,279.613,0.00339796,301.335,-0.200799,-0.21545,0.112814,0.113508,-0.222947,0.559904,0.000145919,0.000150528,0.332599,0.11942370077525011,0.7505044438029134,0.00014592964669501995,0.12020085046333784,0.0001505393299079394,-0.19984274349465203
492,0.4826,323.271,279.735,0.00338603,301.464,-0.200966,-0.215589,0.113007,0.1137,-0.223331,0.560868,0.000145472,0.00015008,0.333179,0.11963977039954776,0.7521927437165536,0.00014548258156454885,0.12041594967549041,0.00015009126256670946,-0.2001499448947064
493,0.4836,323.408,279.857,0.00337415,301.593,-0.201133,-0.215727,0.113201,0.113892,-0.223715,0.561831,0.000145026,0.000149632,0.333759,0.11985700158574897,0.7538809180542327,0.00014503651677877372,0.12063109019065665,0.00014964319542620785,-0.20045702835206958
494,0.4846,323.544,279.978,0.00336231,301.722,-0.201299,-0.215864,0.113394,0.114083,-0.224098,0.562794,0.000144579,0.000149183,0.334338,0.12007315484517367,0.7555707188868308,0.00014458945204731677,0.12084515117105599,0.00014919412833713785,-0.2007631946756172
495,0.4856,323.68,280.1,0.00335051,301.851,-0.201464,-0.216001,0.113587,0.114275,-0.224481,0.563756,0.000144133,0.000148735,0.334916,0.1202893498262032,0.7572603905201476,0.00014414338765988965,0.12106037410082093,0.00014874606159853698,-0.20106924375991564
496,0.4866,323.816,280.221,0.00333876,301.979,-0.201629,-0.216137,0.11378,0.114466,-0.224864,0.564717,0.000143687,0.000148288,0.335495,0.12050558653689114,0.7589499294488657,0.0001436973234714145,0.12127451708227777,0.00014829899520885093,-0.20137517564985896
497,0.4876,323.951,280.342,0.00332705,302.107,-0.201792,-0.216272,0.113973,0.114657,-0.225246,0.565678,0.00014324,0.00014784,0.336073,0.1207218649852917,0.7606410928049065,0.00014325025933858981,0.12148870096895048,0.0001478509288712626,-0.20168019207091514
498,0.4886,324.087,280.462,0.00331538,302.235,-0.201955,-0.216407,0.114166,0.114848,-0.225629,0.566638,0.000142794,0.000147392,0.33665,0.12093818517946109,0.7623321198170943,0.0001428041955484627,0.12170292576865283,0.00014740286273462466,-0.20198589001245926
499,0.4896,324.222,280.583,0.00330376,302.363,-0.202117,-0.216541,0.114359,0.115039,-0.226011,0.567598,0.000142348,0.000146944,0.337228,0.1211545471274571,0.7640247709946884,0.00014235813195728753,0.12191719148919944,0.000146954796798493,-0.20229067318518223
500,0.4906,324.357,280.703,0.00329218,302.49,-0.202278,-0.216674,0.114551,0.11523,-0.226392,0.568557,0.000141902,0.000146497,0.337804,0.12136982946694874,0.7657172821794711,0.00014191206856506433,0.1221314981384074,0.00014650773120949978,-0.20259454254790932
501,0.4916,324.491,280.823,0.00328064,302.618,-0.202438,-0.216806,0.114744,0.115421,-0.226774,0.569515,0.000141456,0.000146049,0.338381,0.12158627473033201,0.7674096498504805,0.0001414660053717931,0.12234584572409468,0.00014605966567438067,-0.20289909325976663
502,0.4926,324.625,280.942,0.00326914,302.745,-0.202598,-0.216938,0.114936,0.115611,-0.227155,0.570473,0.000141011,0.000145602,0.338957,0.12180163996948146,0.769103639586564,0.00014102094251833286,0.12255911169440781,0.00014561260048573388,-0.20320273085859897
503,0.4936,324.76,281.062,0.00325769,302.871,-0.202757,-0.217069,0.115128,0.115802,-0.227536,0.571429,0.000140565,0.000145155,0.339533,0.12201704656272683,0.77079571134744,0.00014057487972252147,0.1227735409620847,0.0001451655354967052,-0.20350625279354162
504,0.4946,324.893,281.181,0.00324628,302.998,-0.202915,-0.217199,0.11532,0.115992,-0.227917,0.572386,0.000140119,0.000144707,0.340108,0.12223249451800888,0.7724911739926763,0.00014012881712566205,0.12298688820221337,0.00014471747056288287,-0.203809659108654
505,0.4956,325.027,281.3,0.00323491,303.124,-0.203072,-0.217329,0.115512,0.116182,-0.228297,0.573341,0.000139674,0.00014426,0.340683,0.12244798384326949,0.7741847115993341,0.00013968375486728135,0.1232002759821691,0.0001442704059742006,-0.20411215396053084
506,0.4966,325.16,281.419,0.00322358,303.25,-0.203229,-0.217458,0.115704,0.116372,-0.228678,0.574297,0.000139228,0.000143813,0.341257,0.12266351454645275,0.7758816431876816,0.00013923769266788177,0.12341370430965459,0.00014382334158513643,-0.20441532947126972
507,0.4976,325.293,281.538,0.00321229,303.376,-0.203385,-0.217586,0.115896,0.116562,-0.229058,0.575251,0.000138783,0.000143366,0.341831,0.12287908663550406,0.7775766426614779,0.00013879263080607274,0.12362717319237526,0.00014337627739613445,-0.20471759421213265
508,0.4986,325.426,281.656,0.00320104,303.502,-0.20354,-0.217714,0.116087,0.116751,-0.229437,0.576205,0.000138337,0.000142919,0.342405,0.1230935770242314,0.7792732599363406,0.000138346569004133,0.12383955879791597,0.00014292921340675058,-0.20501894913356133
509,0.4996,325.559,281.774,0.00318984,303.627,-0.203694,-0.217841,0.116278,0.116941,-0.229817,0.577158,0.000137892,0.000142473,0.342979,0.12330810838453576,0.780969715585782,0.00013790150753889563,0.12405310860067642,0.00014248314975984222,-0.20532098454252834
510,0.5006,325.691,281.892,0.00317867,303.752,-0.203848,-0.217968,0.11647,0.117131,-0.230196,0.57811,0.000137447,0.000142026,0.343552,0.12352380424748577,0.7826660060611732,0.00013745644627172204,0.12426669898175424,0.0001420360861699166,-0.20562211082235227
511,0.5016,325.823,282.01,0.00316755,303.877,-0.204001,-0.218093,0.116661,0.11732,-0.230575,0.579062,0.000137002,0.000141579,0.344124,0.12373841778903794,0.7843639121740182,0.00013701138520261225,0.12447920546909219,0.00014158902277960905,-0.20592312299694038
512,0.5026,325.955,282.127,0.00315647,304.002,-0.204153,-0.218218,0.116852,0.117509,-0.230954,0.580014,0.000136557,0.000141133,0.344697,0.1239530723256912,0.7860634354631366,0.00013656632433156624,0.12469175212395212,0.00014114295973044477,-0.20622402110953042
513,0.5036,326.086,282.245,0.00314542,304.126,-0.204304,-0.218343,0.117043,0.117698,-0.231332,0.580964,0.000136112,0.000140686,0.345268,0.12416776786527683,0.7877610019432335,0.000136121263658584,0.12490433895392616,0.00014069589673937344,-0.20652401172775214
514,0.5046,326.218,282.362,0.00313442,304.251,-0.204455,-0.218467,0.117233,0.117887,-0.23171,0.581914,0.000135667,0.00014024,0.34584,0.1243813800336846,0.7894601818777558,0.00013567620318366558,0.12511696596660826,0.00014024983408855718,-0.2068238889709495
515,0.5056,326.349,282.479,0.00312346,304.375,-0.204605,-0.21859,0.117424,0.118076,-0.232088,0.582864,0.000135223,0.000139794,0.346411,0.12459615738785534,0.7911609768002139,0.0001352321430418968,0.12532963316959345,0.00013980377163647084,-0.20712365288197
516,0.5066,326.48,282.596,0.00311253,304.498,-0.204754,-0.218712,0.117615,0.118265,-0.232466,0.583812,0.000134778,0.000139348,0.346982,0.12481097576841882,0.7928598025223843,0.00013478708296266184,0.12554234057047875,0.00013935770938355851,-0.20742330350364513
517,0.5076,326.61,282.712,0.00310165,304.622,-0.204903,-0.218834,0.117805,0.118453,-0.232844,0.58476,0.000134333,0.000138902,0.347552,0.12502471015793892,0.7945602394949514,0.00013434202308149068,0.12575396242233694,0.0001389116473293761,-0.20772284087879023
518,0.5086,326.741,282.828,0.00309081,304.745,-0.205051,-0.218956,0.117995,0.118642,-0.233221,0.585708,0.000133889,0.000138456,0.348122,0.125238485160851,0.7962622892461049,0.0001338979635321369,0.12596675002903002,0.00013846558547436771,-0.20802147307207353
519,0.5096,326.871,282.944,0.00308,304.868,-0.205198,-0.219076,0.118185,0.11883,-0.233598,0.586655,0.000133445,0.00013801,0.348692,0.12545230078487268,0.7979641553404293,0.00013345390418018077,0.12617845167736697,0.00013801952381808924,-0.20831999270223933
520,0.5106,327.001,283.06,0.00306924,304.991,-0.205344,-0.219197,0.118375,0.119018,-0.233974,0.587601,0.000133001,0.000137565,0.349261,0.12566615703772244,0.7996658341985763,0.0001330098450251782,0.12639019312935518,0.00013757446249851313,-0.2086176084297202
521,0.5116,327.131,283.176,0.00305851,305.114,-0.20549,-0.219316,0.118565,0.119206,-0.234351,0.588547,0.000132556,0.000137119,0.34983,0.12588005392712054,0.801369123606593,0.00013256478593470788,0.12660197439247844,0.0001371284012396945,-0.20891590335921506
522,0.5126,327.26,283.291,0.00304782,305.237,-0.205635,-0.219435,0.118755,0.119394,-0.234727,0.589492,0.000132112,0.000136674,0.350398,0.1260939914607888,0.803072222015657,0.00013212072717450063,0.1268137954742219,0.00013668334031669005,-0.2092132950664073
523,0.5136,327.389,283.407,0.00303717,305.359,-0.20578,-0.219553,0.118944,0.119582,-0.235103,0.590436,0.000131668,0.000136228,0.350967,0.12630684333904374,0.8047751258373836,0.00013167666861146898,0.12702565638207242,0.00013623727945533126,-0.2095105749753371
524,0.5146,327.518,283.522,0.00302656,305.481,-0.205924,-0.219671,0.119134,0.11977,-0.235479,0.59138,0.000131225,0.000135783,0.351534,0.12652086197040435,0.8064796379593164,0.00013123361037692405,0.1272375571235178,0.00013579221892889848,-0.20980774312803263
525,0.5156,327.647,283.637,0.00301599,305.603,-0.206067,-0.219788,0.119323,0.119957,-0.235854,0.592323,0.000130781,0.000135338,0.352102,0.12673379453481037,0.8081839517155516,0.00013078955220779953,0.12744837025711364,0.00013534715860030744,-0.21010400967091103
526,0.5166,327.776,283.751,0.00300545,305.724,-0.206209,-0.219905,0.119512,0.120145,-0.236229,0.593265,0.000130337,0.000134893,0.352669,0.12694676734727417,0.8098880635087082,0.00013034549423585062,0.12766035047623814,0.00013490209846978019,-0.2104001651346643
527,0.5176,327.904,283.866,0.00299495,305.846,-0.206351,-0.220021,0.119702,0.120332,-0.236604,0.594207,0.000129894,0.000134448,0.353235,0.1271609075757476,0.8115937813314953,0.00012990243659083411,0.12787124267958383,0.00013445703853731672,-0.2106962095609397
528,0.5186,328.032,283.98,0.00298449,305.967,-0.206493,-0.220136,0.11989,0.120519,-0.236979,0.595149,0.00012945,0.000134003,0.353802,0.12737283374680786,0.8133011066975053,0.00012945837901279234,0.1280821743234588,0.0001340119788031391,-0.21099214299136815
529,0.5196,328.16,284.094,0.00297407,306.088,-0.206633,-0.220251,0.120079,0.120706,-0.237353,0.596089,0.000129007,0.000133559,0.354368,0.12758592734909713,0.8150064111053053,0.00012901532176079478,0.12829314541523962,0.00013356791940033474,-0.21128717675513653
530,0.5206,328.287,284.208,0.00296369,306.208,-0.206773,-0.220366,0.120268,0.120893,-0.237727,0.597029,0.000128564,0.000133114,0.354933,0.12779906122988338,0.8167133192528884,0.0001285722647053067,0.12850415596230347,0.00013312286006161855,-0.2115821001969087
531,0.5216,328.415,284.321,0.00295334,306.329,-0.206912,-0.220479,0.120457,0.12108,-0.238101,0.597969,0.000128121,0.00013267,0.355498,0.12801223539677986,0.8184218326484785,0.000128129207845884,0.12871520597202935,0.00013267880105360952,-0.21187691335793757
532,0.5226,328.542,284.435,0.00294303,306.449,-0.207051,-0.220592,0.120645,0.121267,-0.238475,0.598908,0.000127678,0.000132225,0.356063,0.12822432163251607,0.8201301326706754,0.00012768615118274873,0.12892629545179735,0.0001322337421105768,-0.21217161627946024
533,0.5236,328.669,284.548,0.00293276,306.569,-0.207189,-0.220705,0.120833,0.121454,-0.238849,0.599846,0.000127235,0.000131781,0.356628,0.1284364477442126,0.8218382157008244,0.0001272430947159009,0.12913742440898912,0.00013178968349736309,-0.21246620900269864
534,0.5246,328.796,284.661,0.00292252,306.689,-0.207327,-0.220817,0.121022,0.12164,-0.239222,0.600783,0.000126792,0.000131337,0.357192,0.12864974238854532,0.8235460781175241,0.0001268000384453405,0.12934746350295945,0.00013134562508132497,-0.21275990432915703
535,0.5256,328.922,284.774,0.00291232,306.809,-0.207463,-0.220929,0.12121,0.121826,-0.239595,0.60172,0.000126349,0.000130893,0.357755,0.1288619484868625,0.8252555415512677,0.00012635698237106752,0.1295575416678345,0.00013090156686246246,-0.21305349012768704
536,0.5266,329.048,284.887,0.00290216,306.928,-0.2076,-0.22104,0.121398,0.122012,-0.239967,0.602657,0.000125907,0.000130449,0.358319,0.12907419448367663,0.826966607502911,0.000125914926619064,0.1297676589108827,0.00013045750884077556,-0.2133461797857078
537,0.5276,329.174,284.999,0.00289203,307.048,-0.207735,-0.22115,0.121586,0.122199,-0.24034,0.603593,0.000125464,0.000130005,0.358882,0.12928648038648927,0.828677448796354,0.0001254718709369218,0.12997894521775288,0.00013001345101626427,-0.21363954694427134
538,0.5286,329.3,285.111,0.00288194,307.167,-0.20787,-0.22126,0.121773,0.122385,-0.240712,0.604528,0.000125022,0.000129562,0.359444,0.1294976767045617,0.8303880617979349,0.00012502981557593884,0.13018914084915112,0.00012957039351846333,-0.2139320186297018
539,0.5296,329.426,285.223,0.00287189,307.285,-0.208005,-0.22137,0.121961,0.12257,-0.241084,0.605462,0.000124579,0.000129118,0.360007,0.1297100422295161,0.832098442871277,0.0001245867602859274,0.13039824518176268,0.00012912633608763713,-0.2142243815358995
540,0.5306,329.551,285.335,0.00286187,307.404,-0.208138,-0.221478,0.122148,0.122756,-0.241456,0.606396,0.000124137,0.000128675,0.360568,0.12992131776105942,0.8338104221868048,0.00012414470531618704,0.13060851881020774,0.00012868327898285514,-0.2145166357033227
541,0.5316,329.676,285.447,0.00285189,307.522,-0.208272,-0.221587,0.122336,0.122942,-0.241827,0.60733,0.000123695,0.000128232,0.36113,0.13013376293801948,0.8355240012379732,0.00012370265054184593,0.13081883155318508,0.0001282402220743606,-0.21480799598080336
542,0.5326,329.801,285.559,0.00284194,307.641,-0.208404,-0.221695,0.122523,0.123127,-0.242199,0.608262,0.000123253,0.000127788,0.361691,0.13034511771274437,0.8372355070449451,0.0001232605959631261,0.13102805238935322,0.00012779616523417303,-0.21510003308402958
543,0.5336,329.926,285.67,0.00283203,307.759,-0.208536,-0.221802,0.12271,0.123312,-0.24257,0.609194,0.000122812,0.000127345,0.362252,0.13055651201450802,0.8389486087188875,0.0001228195417024569,0.13123731193495636,0.00012735310871869743,-0.21539117696122667
544,0.5346,330.05,285.781,0.00282215,307.877,-0.208668,-0.221909,0.122897,0.123498,-0.24294,0.610126,0.00012237,0.000126902,0.362812,0.13076794585070228,0.8406633077478418,0.00012237748751386945,0.13144774164433248,0.00012691005239950925,-0.21568142852590033
545,0.5356,330.175,285.892,0.00281231,307.994,-0.208799,-0.222015,0.123084,0.123683,-0.243311,0.611057,0.000121928,0.00012646,0.363372,0.1309794192287208,0.8423777632425526,0.00012193543352068126,0.1316570788396303,0.0001264679964028126,-0.2159723567453955
546,0.5366,330.299,286.003,0.0028025,308.112,-0.208929,-0.222121,0.123271,0.123868,-0.243681,0.611987,0.000121487,0.000126017,0.363932,0.131190932155959,0.8440919715456776,0.00012149437984443345,0.13186645476589165,0.0001260249404757552,-0.21626239331332586
547,0.5376,330.423,286.113,0.00279273,308.229,-0.209059,-0.222226,0.123457,0.124053,-0.244051,0.612917,0.000121046,0.000125575,0.364491,0.13140135323789393,0.845807774804064,0.00012105332636269672,0.13207586943028238,0.00012558288487030111,-0.2165523225875765
548,0.5386,330.546,286.223,0.00278299,308.346,-0.209188,-0.222331,0.123644,0.124237,-0.244421,0.613846,0.000120604,0.000125132,0.36505,0.13161294507416943,0.8475233269774587,0.0001206112729548181,0.13228419055521345,0.00012513982933537449,-0.21684214460783902
549,0.5396,330.67,286.334,0.00277329,308.463,-0.209316,-0.222435,0.12383,0.124422,-0.24479,0.614775,0.000120163,0.00012469,0.365609,0.1318234446578077,0.8492404736393477,0.00012017021986254761,0.1324936825078742,0.000124697774121163,-0.21713107654525776
550,0.5406,330.793,286.444,0.00276362,308.579,-0.209444,-0.222539,0.124016,0.124606,-0.24516,0.615702,0.000119722,0.000124248,0.366167,0.13203398339800998,0.8509555143569687,0.00011972916696456615,0.13270208051748456,0.00012425571910235078,-0.2174206844661667
551,0.5416,330.916,286.553,0.00275399,308.696,-0.209572,-0.222643,0.124202,0.124791,-0.245529,0.61663,0.000119281,0.000123806,0.366725,0.13224456130205997,0.8526739983275269,0.0001192881142613178,0.13291164978694003,0.00012381366427915985,-0.21770940296176022
552,0.5426,331.039,286.663,0.00274439,308.812,-0.209699,-0.222746,0.124388,0.124975,-0.245898,0.617557,0.000118841,0.000123364,0.367283,0.13245517837724297,0.8543922233982535,0.00011884806187145713,0.13312012470960566,0.00012337160965114613,-0.21799801493988258
553,0.5436,331.161,286.772,0.00273482,308.928,-0.209825,-0.222848,0.124574,0.125159,-0.246266,0.618483,0.0001184,0.000122922,0.36784,0.13266583463084536,0.856110185890995,0.0001184070095565648,0.13332863799518613,0.00012292955521853166,-0.21828573872596102
554,0.5446,331.284,286.882,0.00272529,309.044,-0.209951,-0.22295,0.12476,0.125343,-0.246634,0.619408,0.00011796,0.00012248,0.368397,0.1328765300701551,0.857827882124977,0.00011796695755439401,0.13353718965074113,0.0001224875009815385,-0.2185733566491661
555,0.5456,331.406,286.991,0.00271579,309.159,-0.210076,-0.223051,0.124946,0.125527,-0.247003,0.620333,0.000117519,0.000122039,0.368953,0.13308726470246146,0.8595471679630542,0.00011752590562830179,0.13374577968333146,0.00012204644706170775,-0.21886164988718904
556,0.5466,331.528,287.099,0.00270632,309.275,-0.210201,-0.223152,0.125131,0.125711,-0.24737,0.621257,0.000117079,0.000121598,0.369509,0.13329690523758297,0.861266183609176,0.00011708585401359883,0.1339544081000188,0.00012160539333638809,-0.2191482750627436
557,0.5476,331.65,287.208,0.00269689,309.39,-0.210325,-0.223253,0.125316,0.125894,-0.247738,0.622181,0.000116639,0.000121156,0.370065,0.13350658455979114,0.8629867883598079,0.00011664580259274082,0.13416194074535914,0.00012116333968448245,-0.2194355756309737
558,0.5486,331.771,287.317,0.00268749,309.505,-0.210449,-0.223353,0.125502,0.126078,-0.248105,0.623104,0.000116199,0.000120715,0.37062,0.13371743639313194,0.8647071189759101,0.00011620575136528366,0.13437064574272717,0.00012072228634885107,-0.2197219902144263
559,0.5496,331.892,287.425,0.00267813,309.62,-0.210572,-0.223452,0.125687,0.126261,-0.248473,0.624027,0.000115759,0.000120274,0.371175,0.13392719352080062,0.8664290381901962,0.00011576570033167144,0.13457825456652595,0.00012028123320750872,-0.22000907969432315
560,0.5506,332.014,287.533,0.0026688,309.734,-0.210695,-0.223552,0.125872,0.126445,-0.248839,0.624949,0.000115319,0.000119834,0.37173,0.13413698945712782,0.8681506793180058,0.00011532564949146007,0.13478703617268506,0.00011984118038066427,-0.22029450413529617
561,0.5516,332.135,287.641,0.0026595,309.849,-0.210817,-0.22365,0.126057,0.126628,-0.249206,0.62587,0.00011488,0.000119393,0.372284,0.13434682420929356,0.8698720386579566,0.00011488659895997344,0.13499472120290523,0.00011940012762789998,-0.22058060354982478
562,0.5526,332.255,287.749,0.00265023,309.963,-0.210939,-0.223749,0.126242,0.126811,-0.249573,0.626791,0.00011444,0.000118952,0.372838,0.13455669778447943,0.8715949841001471,0.00011444654850656377,0.1352024442429638,0.00011895907506964676,-0.22086659798513308
563,0.5536,332.376,287.856,0.00264099,310.077,-0.21106,-0.223846,0.126426,0.126994,-0.249939,0.627711,0.000114001,0.000118512,0.373392,0.13476547542382544,0.8733176437874706,0.00011400749836099067,0.13541020529981718,0.00011851902282455917,-0.22115170863183942
564,0.5546,332.496,287.964,0.00263179,310.191,-0.21118,-0.223944,0.126611,0.127176,-0.250305,0.628631,0.000113562,0.000118072,0.373945,0.13497542645665073,0.8750418890509597,0.00011356844840793023,0.1356168687629864,0.00011807897077287244,-0.221436714947143
565,0.5556,332.616,288.071,0.00262262,310.304,-0.2113,-0.224041,0.126795,0.127359,-0.25067,0.62955,0.000113123,0.000117631,0.374498,0.13518428114916103,0.8767658445832325,0.00011312939864782656,0.13582470566646676,0.00011763791879726426,-0.22172083869044978
566,0.5566,332.736,288.178,0.00261348,310.418,-0.21142,-0.224137,0.12698,0.127542,-0.251036,0.630468,0.000112684,0.000117191,0.375051,0.13539430966821264,0.8784895066684093,0.00011269034908045761,0.1360325806075806,0.00011719786713348945,-0.22200563674226637
567,0.5576,332.856,288.285,0.00260438,310.531,-0.211539,-0.224233,0.127164,0.127724,-0.251401,0.631386,0.000112245,0.000116752,0.375603,0.13560324144232538,0.8802147518018884,0.00011225129970582337,0.13623935735336445,0.0001167588157799937,-0.22228955286701058
568,0.5586,332.975,288.392,0.0025953,310.644,-0.211658,-0.224329,0.127348,0.127906,-0.251766,0.632303,0.000111806,0.000116312,0.376155,0.1358122116634215,0.8819396994969346,0.0001118122505237018,0.13644617173594065,0.00011631876450302059,-0.22257336538127936
569,0.5596,333.095,288.498,0.00258626,310.757,-0.211776,-0.224424,0.127532,0.128089,-0.252131,0.63322,0.000111367,0.000115872,0.376706,0.136021220338576,0.8836662296944839,0.000111373201534537,0.13665416041575207,0.00011587871341944833,-0.2228570743228836
570,0.5606,333.214,288.605,0.00257725,310.87,-0.211893,-0.224519,0.127716,0.128271,-0.252495,0.634136,0.000110929,0.000115433,0.377258,0.136230267474865,0.8853924584529553,0.00011093515284898992,0.13686105029935614,0.0001154396626450449,-0.2231399028699117
571,0.5616,333.333,288.711,0.00256827,310.983,-0.21201,-0.224613,0.127899,0.128453,-0.25286,0.635051,0.000110491,0.000114993,0.377808,0.1364382166405813,0.8871183820420663,0.00011049710435528937,0.13706797784034563,0.0001149996119484964,-0.22342340506306646
572,0.5626,333.451,288.817,0.00255933,311.095,-0.212127,-0.224707,0.128083,0.128634,-0.253224,0.635966,0.000110053,0.000114554,0.378359,0.13664734051124938,0.8888458855739749,0.0001100590560536574,0.1372738057712004,0.00011456056156000649,-0.22370602750321888
573,0.5636,333.57,288.923,0.00255041,311.207,-0.212243,-0.2248,0.128266,0.128816,-0.253588,0.636881,0.000109614,0.000114115,0.378909,0.13685536600831538,0.8905749704949903,0.0001096200078340992,0.13748080844052235,0.0001141215113642513,-0.22398854708752403
574,0.5646,333.688,289.028,0.00254152,311.319,-0.212359,-0.224893,0.12845,0.128998,-0.253951,0.637794,0.000109177,0.000113676,0.379459,0.13706456664152888,0.8923018536452538,0.000109182960025489,0.13768784878775864,0.00011368246136123084,-0.22427018812399047
575,0.5656,333.806,289.134,0.00253267,311.431,-0.212474,-0.224986,0.128633,0.129179,-0.254315,0.638708,0.000108739,0.000113238,0.380008,0.13727266849796327,0.8940322081910523,0.00010874491229939665,0.1378937889254095,0.00011324441166427057,-0.22455250239119962
576,0.5666,333.924,289.239,0.00252385,311.542,-0.212589,-0.225078,0.128816,0.129361,-0.254678,0.63962,0.000108301,0.000112799,0.380557,0.13748080844052235,0.8957603534793925,0.00010830686476492879,0.13810090444193412,0.00011280536204649749,-0.22483393874904223
577,0.5676,334.042,289.344,0.00251505,311.654,-0.212703,-0.22517,0.128999,0.129542,-0.255041,0.640532,0.000107864,0.000112361,0.381106,0.13768898647617633,0.8974900755551418,0.00010786981753030389,0.13830691934942485,0.0001123673127336744,-0.2251152729640271
578,0.5686,334.159,289.449,0.00250629,311.765,-0.212817,-0.225262,0.129182,0.129723,-0.255403,0.641444,0.000107426,0.000111922,0.381654,0.13789720261189675,0.899221375856986,0.00010743177037930707,0.13851297154898856,0.00011192826350070462,-0.22539573046934291
579,0.5696,334.277,289.554,0.00249756,311.876,-0.21293,-0.225353,0.129365,0.129904,-0.255766,0.642354,0.000106989,0.000111484,0.382202,0.1381054568546567,0.9009504539202138,0.00010699472352726502,0.13871906104737586,0.00011149021457201869,-0.22567686079094218
580,0.5706,334.394,289.658,0.00248886,311.987,-0.213043,-0.225443,0.129547,0.130085,-0.256128,0.643265,0.000106552,0.000111046,0.38275,0.13831261089825042,0.9026830088426785,0.0001065576768659593,0.13892518785133845,0.0001110521658351793,-0.22595711503825666
581,0.5716,334.511,289.763,0.00248019,312.098,-0.213155,-0.225533,0.12973,0.130266,-0.25649,0.644174,0.000106115,0.000110608,0.383297,0.1385209411676831,0.9044133340113614,0.00010612063039583397,0.13913135196762938,0.00011061411729040849,-0.22623726785189413
582,0.5726,334.628,289.867,0.00247154,312.208,-0.213267,-0.225623,0.129912,0.130446,-0.256852,0.645083,0.000105678,0.00011017,0.383844,0.1387281708363035,0.9061452327607062,0.00010568358411644496,0.1393364140660187,0.00011017606893726217,-0.2265173192685671
583,0.5736,334.744,289.971,0.00246293,312.319,-0.213379,-0.225713,0.130094,0.130627,-0.257213,0.645992,0.000105242,0.000109733,0.384391,0.13893543822415588,0.9078787065217488,0.00010524753813356824,0.13954265262099086,0.00010973902088595722,-0.22679649612185726
584,0.5746,334.86,290.075,0.00245435,312.429,-0.21349,-0.225802,0.130277,0.130807,-0.257574,0.6469,0.000104805,0.000109295,0.384937,0.13914388248141862,0.9096118471140235,0.00010481049223587391,0.13974778876016125,0.00010930097291605989,-0.22707557221049246
585,0.5756,334.977,290.179,0.0024458,312.539,-0.2136,-0.225891,0.130459,0.130988,-0.257935,0.647807,0.000104369,0.000108858,0.385483,0.13935122553567592,0.9113446507670218,0.00010437444663358164,0.139954101780692,0.00010886392524711574,-0.22735454757084228
586,0.5766,335.093,290.283,0.00243728,312.648,-0.21371,-0.225979,0.130641,0.131168,-0.258296,0.648714,0.000103932,0.000108421,0.386029,0.1395586063298031,0.9130790267858935,0.00010393740111735994,0.14015931198737697,0.00010842687776912996,-0.22763342223926286
587,0.5776,335.208,290.386,0.00242879,312.758,-0.21382,-0.226067,0.130822,0.131348,-0.258657,0.64962,0.000103496,0.000107984,0.386574,0.1397648851052149,0.914813061783402,0.00010350135589587417,0.14036455913522383,0.00010798983048210253,-0.2279121962520977
588,0.5786,335.324,290.489,0.00242032,312.868,-0.213929,-0.226154,0.131004,0.131528,-0.259017,0.650526,0.00010306,0.000107547,0.387119,0.13997234119223534,0.9165486685285127,0.00010306531086423654,0.14056984323088262,0.00010755278338603347,-0.2281900978361605
589,0.5796,335.439,290.592,0.00241189,312.977,-0.214038,-0.226241,0.131186,0.131708,-0.259377,0.651431,0.000102624,0.00010711,0.387663,0.14017983503969966,0.9182839301609844,0.00010262926602289113,0.14077516428100423,0.00010711573648092276,-0.22846789939365886
590,0.5806,335.555,290.695,0.00240348,313.086,-0.214147,-0.226328,0.131367,0.131888,-0.259737,0.652336,0.000102189,0.000106674,0.388208,0.1403862262676845,0.9200207629160593,0.00010219422147361712,0.14098052229224134,0.00010667968987343457,-0.22874560096059593
591,0.5816,335.67,290.798,0.00239511,313.195,-0.214254,-0.226415,0.131549,0.132067,-0.260097,0.65324,0.000101753,0.000106237,0.388752,0.14059379544908768,0.9217572464580397,0.00010175817701219003,0.14118477608590085,0.00010624264335001854,-0.22902320257296183
592,0.5826,335.785,290.901,0.00238676,313.304,-0.214362,-0.226501,0.13173,0.132247,-0.260456,0.654143,0.000101318,0.000105801,0.389295,0.14080026161068804,0.9234933769965581,0.00010132313284194616,0.14139020783389888,0.0001058065971231148,-0.22929993356705258
593,0.5836,335.899,291.003,0.00237844,313.412,-0.214469,-0.226586,0.131911,0.132426,-0.260815,0.655046,0.000100883,0.000105365,0.389838,0.14100676514604582,0.9252310759689939,0.0001008880888608843,0.14159453496783403,0.00010537055108650328,-0.229576565232547
594,0.5846,336.014,291.105,0.00237015,313.521,-0.214576,-0.226672,0.132092,0.132605,-0.261174,0.655948,0.000100447,0.000104929,0.390381,0.14121330606192606,0.9269684178229016,0.00010045204496877957,0.14179889867959994,0.00010493450523996195,-0.22985309760509764
595,0.5856,336.128,291.208,0.00236189,313.629,-0.214682,-0.226757,0.132273,0.132785,-0.261533,0.65685,0.000100012,0.000104493,0.390924,0.14141988436509578,0.9287073274661286,0.00010001700136674785,0.14200444097961418,0.00010449845958371284,-0.23012953072034426
596,0.5866,336.242,291.31,0.00235366,313.737,-0.214788,-0.226841,0.132454,0.132964,-0.261892,0.657751,9.95776e-05,0.000104058,0.391466,0.14162650006232247,0.9304458758666168,9.958255801367777e-05,0.14220887807112348,0.00010406341422153353,-0.23040586461391388
597,0.5876,336.356,291.411,0.00234546,313.845,-0.214893,-0.226926,0.132634,0.133143,-0.26225,0.658652,9.91429e-05,0.000103622,0.392008,0.14183201132779266,0.9321859914051038,9.914781481978885e-05,0.14241335176014736,0.0001036273689449807,-0.2306813300031354
598,0.5886,336.47,291.513,0.00233728,313.952,-0.214998,-0.227009,0.132815,0.133321,-0.262608,0.659552,9.87084e-05,0.000103187,0.392549,0.1420387016267508,0.9339257415675084,9.871327183441636e-05,0.1426167194359469,0.00010319232396160949,-0.2309566967933978
599,0.5896,336.583,291.614,0.00232913,314.06,-0.215103,-0.227093,0.132995,0.1335,-0.262966,0.660451,9.8274e-05,0.000102751,0.39309,0.14224428709518078,0.9356651225437789,9.827882904778207e-05,0.14282126613510937,0.00010275627906475293,-0.2312319650199932
600,0.5906,336.697,291.716,0.00232101,314.167,-0.215207,-0.227176,0.133176,0.133679,-0.263323,0.66135,9.78398e-05,0.000102316,0.393631,0.1424510520228064,0.9374060679266425,9.784458646944216e-05,0.14302584945140806,0.00010232123446041186,-0.2315063662249517
601,0.5916,336.81,291.817,0.00231292,314.274,-0.215311,-0.227259,0.133356,0.133857,-0.263681,0.662248,9.74057e-05,0.000101882,0.394172,0.14265671172098804,0.9391466399755235,9.741044408917432e-05,0.1432293261615003,0.000101887190147254,-0.2317814377051104
602,0.5926,336.923,291.918,0.00230485,314.381,-0.215414,-0.227342,0.133536,0.134036,-0.264038,0.663146,9.69717e-05,0.000101447,0.394712,0.1428624084412473,0.940888775760117,9.697640190720058e-05,0.14343398252708162,0.00010145214592083285,-0.2320556427833309
603,0.5936,337.036,292.019,0.00229682,314.488,-0.215517,-0.227424,0.133716,0.134214,-0.264395,0.664043,9.65379e-05,0.000101012,0.395252,0.14306814219024866,0.9426305340537824,9.654255993307714e-05,0.14363753189132744,0.00010101710188381574,-0.23232974998780997
604,0.5946,337.149,292.119,0.00228881,314.595,-0.21562,-0.227506,0.133896,0.134392,-0.264752,0.66494,9.61043e-05,0.000100578,0.395791,0.14327391297465786,0.9443738554055636,9.610891816613787e-05,0.1438411174905847,0.00010058305813664958,-0.23260375935348243
605,0.5956,337.261,292.22,0.00228083,314.701,-0.215722,-0.227587,0.134076,0.13457,-0.265108,0.665836,9.56708e-05,0.000100143,0.39633,0.14347972080114202,0.9461167951003853,9.567537659682657e-05,0.14404473933130424,0.0001001480144775524,-0.23287690379255765
606,0.5966,337.373,292.32,0.00227287,314.808,-0.215824,-0.227668,0.134255,0.134748,-0.265464,0.666731,9.52374e-05,9.97094e-05,0.396869,0.14368442199137532,0.9478593493086893,9.524193522514324e-05,0.14424839741993756,9.97143711474191e-05,-0.23314995100951919
607,0.5976,337.486,292.42,0.00226494,314.914,-0.215925,-0.227749,0.134435,0.134926,-0.26582,0.667626,9.48042e-05,9.92754e-05,0.397408,0.1438903037161332,0.9496034638011328,9.480869406019998e-05,0.14445209176293683,9.928032796557851e-05,-0.2334229010389718
608,0.5986,337.598,292.521,0.00225704,315.02,-0.216026,-0.227829,0.134614,0.135103,-0.266176,0.668521,9.43712e-05,9.88416e-05,0.397946,0.14409507840728653,0.9513491399747949,9.437565310177476e-05,0.14465467771150653,9.884648499181026e-05,-0.23369575391550823
609,0.5996,337.709,292.62,0.00224917,315.126,-0.216127,-0.22791,0.134793,0.135281,-0.266532,0.669415,9.39383e-05,9.84079e-05,0.398484,0.1442998897563903,0.9530944261326035,9.394271234031137e-05,0.14485844437883455,9.841274221633611e-05,-0.23396850967370864
610,0.6006,337.821,292.72,0.00224132,315.231,-0.216227,-0.227989,0.134973,0.135458,-0.266887,0.670308,9.35055e-05,9.79744e-05,0.399021,0.1445058822753169,0.9548393184335973,9.350987177558778e-05,0.1450611022581827,9.797919964826818e-05,-0.23424040258892664
611,0.6016,337.932,292.82,0.0022335,315.337,-0.216327,-0.228069,0.135152,0.135636,-0.267242,0.671201,9.30729e-05,9.75411e-05,0.399558,0.14471076716489484,0.956585769619354,9.307723141671609e-05,0.14526494127551914,9.75458572878285e-05,-0.2345121989992902
612,0.6026,338.044,292.919,0.00222571,315.442,-0.216427,-0.228148,0.135331,0.135813,-0.267597,0.672093,9.26404e-05,9.71079e-05,0.400095,0.14491568873215033,0.9583318227497781,9.264469125436214e-05,0.14546767111118597,9.711261512479474e-05,-0.23478389893905283
613,0.6036,338.155,293.018,0.00221794,315.547,-0.216526,-0.228227,0.135509,0.13599,-0.267952,0.672984,9.22081e-05,9.66749e-05,0.400632,0.14511950186357514,0.9600774739759828,9.2212351297416e-05,0.1456704368332098,9.667957316872311e-05,-0.2350555024424552
614,0.6046,338.266,293.117,0.0022102,315.652,-0.216624,-0.228305,0.135688,0.136167,-0.268306,0.673876,9.1776e-05,9.6242e-05,0.401168,0.14532449660089042,0.9618266430962177,9.178021154587768e-05,0.14587323844794264,9.624663140983536e-05,-0.23532624487035347
615,0.6056,338.376,293.216,0.00220249,315.757,-0.216723,-0.228384,0.135867,0.136344,-0.268661,0.674766,9.1344e-05,9.58093e-05,0.401704,0.14552952803554797,0.9635734460205712,9.134817199019096e-05,0.14607607596173833,9.581388985746564e-05,-0.23559765587512072
616,0.6066,338.487,293.315,0.00219607,315.862,-0.216821,-0.228461,0.136045,0.136521,-0.269015,0.675656,9.09122e-05,9.53768e-05,0.402239,0.145733450440094,0.9653218042915539,9.091633263924592e-05,0.14627894938095154,9.538134851161395e-05,-0.2358682064146701
617,0.6076,338.597,293.414,0.00218457,315.967,-0.216918,-0.228538,0.136224,0.136698,-0.269368,0.676545,9.04805e-05,9.49444e-05,0.402774,0.14593855508404063,0.9670697522233045,9.048459348393045e-05,0.14648185871193808,9.494890736228001e-05,-0.2361378973345578
618,0.6086,338.708,293.512,0.00218187,316.071,-0.217015,-0.228615,0.136402,0.136874,-0.269722,0.677434,9.0049e-05,9.45122e-05,0.403309,0.1461425503018814,0.9688192547716916,9.005305453291257e-05,0.1466836572768242,9.451666641857592e-05,-0.236408256662477
619,0.6096,338.818,293.611,0.0021701,316.175,-0.217111,-0.228692,0.13658,0.137051,-0.270075,0.678323,8.96176e-05,9.40801e-05,0.403844,0.14634658183410276,0.9705703133193833,8.962161577708017e-05,0.14688663824744808,9.408452567138958e-05,-0.23667775697827098
620,0.6106,338.927,293.709,0.0021658,316.279,-0.217208,-0.228768,0.136758,0.137227,-0.270429,0.67921,8.91864e-05,9.36482e-05,0.404378,0.14655064968716935,0.9723189846083642,8.919037722510126e-05,0.14708850805980211,9.365258512961105e-05,-0.23694792522969876
621,0.6116,339.037,293.807,0.00215559,316.383,-0.217304,-0.228844,0.136936,0.137403,-0.270781,0.680098,8.87554e-05,9.32164e-05,0.404912,0.14675475386754688,0.9740711817270766,8.875933887697585e-05,0.14729041340436977,9.322074478368414e-05,-0.23721647229296194
622,0.6126,339.147,293.905,0.00215017,316.487,-0.2174,-0.22892,0.137114,0.137579,-0.271134,0.680984,8.83245e-05,9.27849e-05,0.405445,0.14695889438170195,0.9758209838419583,8.832840072359183e-05,0.14749235428740537,9.278920465205509e-05,-0.23748568735898778
623,0.6136,339.256,294.003,0.00214098,316.59,-0.217495,-0.228996,0.137292,0.137755,-0.271487,0.68187,8.78937e-05,9.23534e-05,0.405978,0.14716307123610295,0.9775723369685101,8.789756276450511e-05,0.14769433071516413,9.235766470649942e-05,-0.23775480740886668
624,0.6146,339.365,294.1,0.00213483,316.694,-0.21759,-0.229071,0.137469,0.137931,-0.271839,0.682756,8.74631e-05,9.19222e-05,0.406511,0.14736613707050794,0.979325242481538,8.746692500838371e-05,0.14789634269390262,9.192642497479753e-05,-0.23802307049958493
625,0.6156,339.474,294.198,0.00212631,316.797,-0.217684,-0.229146,0.137647,0.138107,-0.272191,0.683641,8.70327e-05,9.14911e-05,0.407044,0.1475703864205593,0.9810777206783541,8.703648745522763e-05,0.14809839022987847,9.149528543828112e-05,-0.23829123917831274
626,0.6166,339.583,294.295,0.00211973,316.9,-0.217779,-0.22922,0.137824,0.138283,-0.272543,0.684525,8.66024e-05,9.10601e-05,0.407576,0.14777352435613267,0.9828297676741102,8.66061500961468e-05,0.14830047332935004,9.106424609672814e-05,-0.2385593134782772
627,0.6176,339.692,294.392,0.00211165,317.003,-0.217873,-0.229295,0.138002,0.138458,-0.272894,0.685409,8.61723e-05,9.06294e-05,0.408108,0.14797784622757515,0.9845833641641861,8.617601293936517e-05,0.14850144349655947,9.063350696814076e-05,-0.2388265322596067
628,0.6186,339.8,294.489,0.0021048,317.106,-0.217966,-0.229369,0.138179,0.138634,-0.273246,0.686293,8.57423e-05,9.01987e-05,0.408639,0.1481810562899175,0.9863385115189407,8.574597597599265e-05,0.14870359753964868,9.020276802496063e-05,-0.23909441816956511
629,0.6196,339.909,294.586,0.00209702,317.208,-0.21806,-0.229443,0.138356,0.138809,-0.273597,0.687176,8.53125e-05,8.97683e-05,0.40917,0.1483843023236242,0.9880932230157269,8.531613921491932e-05,0.14890463825976807,8.977232929430201e-05,-0.2393614491621069
630,0.6206,340.017,294.683,0.00209002,317.311,-0.218153,-0.229516,0.138533,0.138984,-0.273948,0.688058,8.48828e-05,8.9338e-05,0.409701,0.14858758433506258,0.989847494758541,8.488640264681102e-05,0.14910571416509222,8.934199075794069e-05,-0.2396283864432176
631,0.6216,340.125,294.779,0.00208245,317.413,-0.218245,-0.22959,0.13871,0.139159,-0.274299,0.68894,8.44533e-05,8.89079e-05,0.410232,0.14879090233060177,0.9916033144515783,8.445686628033577e-05,0.14930682526177863,8.891185242454469e-05,-0.23989523004578417
632,0.6226,340.233,294.876,0.00207538,317.515,-0.218338,-0.229663,0.138886,0.139334,-0.274649,0.689821,8.4024e-05,8.84779e-05,0.410762,0.14899310732292936,0.9933586901010458,8.402753011504949e-05,0.14950797155598705,8.848181428477986e-05,-0.2401612201642821
633,0.6236,340.34,294.972,0.00206795,317.617,-0.21843,-0.229735,0.139063,0.139509,-0.274999,0.690702,8.35948e-05,8.80481e-05,0.411292,0.14919649710239002,0.9951156129178877,8.359829414272824e-05,0.14970915305387678,8.80519763477583e-05,-0.24042711720252852
634,0.6246,340.448,295.068,0.00206085,317.719,-0.218521,-0.229808,0.139239,0.139684,-0.275349,0.691582,8.31658e-05,8.76185e-05,0.411822,0.14939877348567965,0.9968720873926733,8.316925837092981e-05,0.14991036976160976,8.762233861281388e-05,-0.24069292119309582
635,0.6256,340.555,295.164,0.00205354,317.821,-0.218612,-0.22988,0.139416,0.139859,-0.275699,0.692461,8.27369e-05,8.7189e-05,0.412351,0.14960223507440595,0.998628109616194,8.274032279165233e-05,0.15011162168534775,8.719280107127858e-05,-0.24095863216854518
636,0.6266,340.662,295.26,0.00204644,317.922,-0.218704,-0.229952,0.139592,0.140033,-0.276049,0.69334,8.23082e-05,8.67597e-05,0.41288,0.149804582873863,1.0003856760618355,8.231158741289768e-05,0.15031175851892042,8.676346373159838e-05,-0.2412242501614258
637,0.6276,340.77,295.356,0.00203921,318.023,-0.218794,-0.230023,0.139768,0.140208,-0.276398,0.694219,8.18796e-05,8.63305e-05,0.413408,0.15000696628966703,1.0021447880875658,8.188295222599784e-05,0.15051308069183778,8.633422658488321e-05,-0.24148901669367218
638,0.6286,340.876,295.451,0.00203213,318.125,-0.218885,-0.230095,0.139944,0.140382,-0.276748,0.695097,8.14512e-05,8.59015e-05,0.413937,0.15020938532808703,1.0039034431481015,8.14545172389547e-05,0.15071328738535517,8.590518963957905e-05,-0.24175444908445143
639,0.6296,340.983,295.546,0.00202497,318.226,-0.218975,-0.230166,0.14012,0.140557,-0.277097,0.695974,8.1023e-05,8.54727e-05,0.414465,0.15041183999539287,1.0056616373231986,8.102628245199028e-05,0.1509146798319727,8.54763528952418e-05,-0.24201903060955932
640,0.6306,341.09,295.642,0.00201792,318.327,-0.219064,-0.230237,0.140296,0.140731,-0.277445,0.696851,8.05949e-05,8.50441e-05,0.414992,0.15061433029785598,1.0074213741109235,8.059814785621455e-05,0.15111495640982064,8.504771635209352e-05,-0.24228276209496713
641,0.6316,341.196,295.737,0.00201083,318.427,-0.219154,-0.230307,0.140472,0.140905,-0.277794,0.697728,8.0167e-05,8.46156e-05,0.41552,0.15081685624174868,1.0091826548647416,8.017021345985142e-05,0.15131526783882476,8.461918000080004e-05,-0.24254715927100512
642,0.6326,341.302,295.832,0.00200381,318.528,-0.219243,-0.230377,0.140648,0.141079,-0.278142,0.698604,7.97393e-05,8.41873e-05,0.416047,0.15101941783334438,1.0109434699948294,7.974247926245681e-05,0.1515156141250502,8.419084385025144e-05,-0.24281070699961427
643,0.6336,341.408,295.927,0.00199677,318.628,-0.219332,-0.230447,0.140823,0.141253,-0.27849,0.699479,7.93117e-05,8.37591e-05,0.416573,0.15122086385747813,1.0127038155699504,7.931484525602883e-05,0.15171599527456237,8.37626078913356e-05,-0.2430741630295704
644,0.6346,341.514,296.021,0.00198979,318.729,-0.21942,-0.230517,0.140998,0.141426,-0.278838,0.700354,7.88842e-05,8.33311e-05,0.4171,0.151422345137751,1.0144657021215284,7.888731144034544e-05,0.15191525937759276,8.333457213249851e-05,-0.24333752739277903
645,0.6356,341.62,296.116,0.00198281,318.829,-0.219508,-0.230587,0.141174,0.1416,-0.279186,0.701228,7.8457e-05,8.29033e-05,0.417626,0.15162501330477074,1.016227114770385,7.846007783096631e-05,0.1521157100714292,8.29067365735181e-05,-0.24360080012113472
646,0.6366,341.726,296.21,0.00197587,318.929,-0.219596,-0.230656,0.141349,0.141773,-0.279534,0.702102,7.80299e-05,8.24756e-05,0.418152,0.1518265653173858,1.0179900675668434,7.803294441188768e-05,0.15231504333110135,8.247900120572638e-05,-0.24386398124652076
647,0.6376,341.831,296.305,0.00196894,319.029,-0.219684,-0.230725,0.141524,0.141947,-0.279881,0.702975,7.76029e-05,8.20482e-05,0.418677,0.1520281526046896,1.0197525421040288,7.760591118288751e-05,0.1525155635933979,8.205156604557118e-05,-0.24412631492750225
648,0.6386,341.936,296.399,0.00196204,319.128,-0.219771,-0.230794,0.141699,0.14212,-0.280228,0.703847,7.71761e-05,8.16208e-05,0.419202,0.15222977517285563,1.0215145344377516,7.717907815174563e-05,0.15271496603371326,8.162413106815869e-05,-0.2443885575944883
649,0.6396,342.041,296.493,0.00195516,319.228,-0.219858,-0.230862,0.141874,0.142293,-0.280575,0.70472,7.67495e-05,8.11937e-05,0.419727,0.1524314330280585,1.0232800871779553,7.675244531823999e-05,0.1529144029736349,8.11969962977166e-05,-0.2446507092790553
650,0.6406,342.146,296.587,0.00194831,319.327,-0.219945,-0.230931,0.142049,0.142466,-0.280921,0.705591,7.6323e-05,8.07667e-05,0.420251,0.15263312617647418,1.0250431318283728,7.632591267436872e-05,0.15311387441913205,8.076996171779705e-05,-0.24491201492516113
651,0.6416,342.251,296.68,0.00194147,319.427,-0.220031,-0.230998,0.142223,0.142639,-0.281268,0.706462,7.58967e-05,8.03399e-05,0.420776,0.15283370179000122,1.0268077127596338,7.589958022746757e-05,0.15331338037617415,8.034312733617988e-05,-0.2451739850015452
652,0.6426,342.356,296.774,0.00193467,319.526,-0.220117,-0.231066,0.142398,0.142812,-0.281614,0.707333,7.54706e-05,7.99132e-05,0.421299,0.1530354653416104,1.0285738313104225,7.547344797731448e-05,0.15351292085073265,7.991639314486321e-05,-0.24543510962556958
653,0.6436,342.46,296.867,0.00192788,319.625,-0.220203,-0.231134,0.142572,0.142985,-0.28196,0.708203,7.50446e-05,7.94868e-05,0.421823,0.15323611096824297,1.0303394584801144,7.504741591635167e-05,0.15371249584877944,7.948995915940671e-05,-0.24569614391610273
654,0.6446,342.565,296.961,0.00192112,319.724,-0.220288,-0.231201,0.142747,0.143158,-0.282306,0.709072,7.46188e-05,7.90604e-05,0.422346,0.15343794494762064,1.0321045903082329,7.462158405191488e-05,0.15391210537628752,7.906352535580474e-05,-0.24595708790439452
655,0.6456,342.669,297.054,0.00191437,319.822,-0.220373,-0.231268,0.142921,0.14333,-0.282651,0.709941,7.41932e-05,7.86343e-05,0.422869,0.15363866061179787,1.0338712567025827,7.419595238356003e-05,0.15411059532805882,7.863739175761886e-05,-0.24621718783924884
656,0.6466,342.773,297.147,0.00190765,319.921,-0.220458,-0.231335,0.143095,0.143503,-0.282997,0.71081,7.37677e-05,7.82083e-05,0.423391,0.15383941120353928,1.0356394589972813,7.377042090372932e-05,0.15431027373273443,7.82113583488453e-05,-0.24647795157752828
657,0.6476,342.877,297.24,0.00190096,320.019,-0.220543,-0.231401,0.143269,0.143675,-0.283342,0.711678,7.33424e-05,7.77825e-05,0.423914,0.15404019672892288,1.0374071611194262,7.334508961953645e-05,0.15450883217535294,7.778552513704184e-05,-0.24673787184540974
658,0.6486,342.98,297.332,0.00189428,320.117,-0.220627,-0.231467,0.143443,0.143847,-0.283687,0.712545,7.29172e-05,7.73569e-05,0.424436,0.15424101719402739,1.0391743590977414,7.291985852364569e-05,0.15470742477296096,7.73598921222085e-05,-0.24699770245626562
659,0.6496,343.084,297.425,0.00188763,320.215,-0.220711,-0.231533,0.143617,0.144019,-0.284032,0.713412,7.24922e-05,7.69314e-05,0.424957,0.15444187260493325,1.0409430899010879,7.249482762294868e-05,0.15490605153143355,7.693435929612136e-05,-0.24725744344102196
660,0.6506,343.187,297.517,0.001881,320.313,-0.220795,-0.231599,0.143791,0.144191,-0.284376,0.714278,7.20674e-05,7.65061e-05,0.425479,0.15464276296772117,1.042711312146667,7.206999691744542e-05,0.1551047124566467,7.650902666633819e-05,-0.24751634234731335
661,0.6516,343.291,297.61,0.00187439,320.411,-0.220878,-0.231665,0.143964,0.144363,-0.284721,0.715144,7.16427e-05,7.6081e-05,0.426,0.1548425334453627,1.0444810663359472,7.164526639957813e-05,0.1553034075544779,7.608389423263695e-05,-0.24777590443216935
662,0.6526,343.394,297.702,0.0018678,320.509,-0.220961,-0.23173,0.144138,0.144535,-0.285065,0.716009,7.12182e-05,7.5656e-05,0.42652,0.15504349352920244,1.0462503075448346,7.122073607623847e-05,0.15550213683080494,7.565886198723781e-05,-0.24803462501855245
663,0.6536,343.497,297.794,0.00186124,320.606,-0.221044,-0.231795,0.144311,0.144707,-0.285408,0.716874,7.07939e-05,7.52312e-05,0.427041,0.15524333333922802,1.048021079809454,7.079640594720438e-05,0.15570090029150752,7.523402993769857e-05,-0.24829250491324084
664,0.6546,343.599,297.886,0.0018547,320.704,-0.221127,-0.23186,0.144484,0.144878,-0.285752,0.717738,7.03697e-05,7.48066e-05,0.427561,0.15544320772453157,1.0497913346623817,7.037217600536216e-05,0.15589854204334563,7.480939808357512e-05,-0.24855104781962123
665,0.6556,343.702,297.978,0.00184817,320.801,-0.221209,-0.231925,0.144657,0.14505,-0.286096,0.718602,6.99457e-05,7.43822e-05,0.42808,0.15564311669109498,1.051563119676437,6.994814625760348e-05,0.15609737369160848,7.438496642442338e-05,-0.24880950180253758
666,0.6566,343.805,298.07,0.00184168,320.898,-0.221291,-0.231989,0.144831,0.145221,-0.286439,0.719465,6.95219e-05,7.39579e-05,0.4286,0.15584421608853938,1.0533343828388406,6.95243167032622e-05,0.1562950832461949,7.396063495290761e-05,-0.2490671159600656
667,0.6576,343.907,298.161,0.0018352,320.995,-0.221373,-0.232053,0.145004,0.145392,-0.286782,0.720328,6.90982e-05,7.35338e-05,0.429119,0.15604419443555106,1.0551071752611336,6.91005873356687e-05,0.15649282661200603,7.353650367614151e-05,-0.24932464177108982
668,0.6586,344.009,298.253,0.00182874,321.092,-0.221454,-0.232117,0.145176,0.145564,-0.287125,0.72119,6.86747e-05,7.31099e-05,0.429638,0.15624305113818004,1.0568794413831681,6.867705816127057e-05,0.15669176048600608,7.311257259390302e-05,-0.24958207926590814
669,0.6596,344.111,298.344,0.0018223,321.188,-0.221535,-0.232181,0.145349,0.145735,-0.287468,0.722052,6.82514e-05,7.26861e-05,0.430156,0.1564430984896239,1.058653235857225,6.825372917984573e-05,0.15688957168942497,7.268874169863437e-05,-0.24983942847480745
670,0.6606,344.213,298.435,0.00181589,321.285,-0.221616,-0.232244,0.145522,0.145906,-0.28781,0.722913,6.78282e-05,7.22625e-05,0.430674,0.15664318045225345,1.0604264995737815,6.783050038428051e-05,0.157087416721452,7.226511099744926e-05,-0.25009593952437936
671,0.6616,344.315,298.526,0.0018095,321.381,-0.221697,-0.232307,0.145694,0.146077,-0.288152,0.723774,6.74052e-05,7.18391e-05,0.431192,0.15684214018933806,1.0622012907278657,6.740747178146655e-05,0.1572852955878723,7.184168048990358e-05,-0.250352362862172
672,0.6626,344.416,298.617,0.00180313,321.478,-0.221777,-0.23237,0.145867,0.146247,-0.288494,0.724634,6.69824e-05,7.14158e-05,0.43171,0.1570422911921534,1.0639755466585883,6.698464337095977e-05,0.1574820508118424,7.141835016888365e-05,-0.25060869851817735
673,0.6636,344.518,298.708,0.00179677,321.574,-0.221857,-0.232433,0.146039,0.146418,-0.288836,0.725493,6.65597e-05,7.09927e-05,0.432227,0.15724131958218934,1.0657492633554235,6.656191514586851e-05,0.1576799971664622,7.099522004128112e-05,-0.2508649465223778
674,0.6646,344.619,298.798,0.00179044,321.67,-0.221937,-0.232496,0.146211,0.146589,-0.289178,0.726352,6.61372e-05,7.05698e-05,0.432744,0.15744038220805257,1.0675245043294845,6.613938711286238e-05,0.15787797737280296,7.057229010687394e-05,-0.251121106904745
675,0.6656,344.72,298.889,0.00178413,321.766,-0.222017,-0.232558,0.146383,0.146759,-0.289519,0.727211,6.57148e-05,7.01471e-05,0.433261,0.15763947907563214,1.069301270890688,6.571695926482768e-05,0.15807483336124117,7.014956036544007e-05,-0.2513764310720459
676,0.6666,344.821,298.979,0.00177785,321.861,-0.222096,-0.23262,0.146555,0.146929,-0.28986,0.728069,6.52927e-05,6.97245e-05,0.433777,0.15783861019081802,1.0710774932715474,6.529483161465954e-05,0.15827172281804236,6.972693080942172e-05,-0.25163166818864857
677,0.6676,344.922,299.069,0.00177158,321.957,-0.222175,-0.232682,0.146727,0.1471,-0.290201,0.728926,6.48707e-05,6.93022e-05,0.434293,0.15803777555950171,1.0728531674509885,6.487280414946284e-05,0.15846980421812118,6.930460145304629e-05,-0.25188681828423254
678,0.6686,345.023,299.159,0.00176533,322.052,-0.222254,-0.232744,0.146899,0.14727,-0.290542,0.729784,6.44488e-05,6.88799e-05,0.434809,0.15823697518757474,1.0746324386668604,6.445087686857143e-05,0.15866676082567555,6.888227227475063e-05,-0.2521418813884668
679,0.6696,345.124,299.249,0.0017591,322.147,-0.222333,-0.232805,0.147071,0.14744,-0.290883,0.73064,6.40272e-05,6.84579e-05,0.435324,0.1584362090809306,1.0764090843302188,6.402924978488045e-05,0.15886375091869942,6.846024329543177e-05,-0.25239685753101027
680,0.6706,345.224,299.339,0.0017529,322.243,-0.222411,-0.232867,0.147242,0.14761,-0.291223,0.731496,6.36057e-05,6.8036e-05,0.435839,0.15863431861056565,1.078187251453357,6.360772288549477e-05,0.1590607745028858,6.803831450108433e-05,-0.25265099939288493
681,0.6716,345.324,299.429,0.00174671,322.338,-0.222489,-0.232928,0.147414,0.14778,-0.291563,0.732352,6.31843e-05,6.76143e-05,0.436354,0.158833620852868,1.079966941339202,6.318629616997029e-05,0.1592578315839286,6.761658589837793e-05,-0.2529050548612144
682,0.6726,345.424,299.519,0.00174055,322.432,-0.222567,-0.232988,0.147585,0.147949,-0.291903,0.733207,6.27632e-05,6.71928e-05,0.436868,0.15903179834572656,1.0817460735446822,6.276516965075807e-05,0.15945376271318024,6.719505748664645e-05,-0.25315902396536727
683,0.6736,345.525,299.608,0.0017344,322.527,-0.222644,-0.233049,0.147757,0.148119,-0.292243,0.734061,6.23422e-05,6.67715e-05,0.437383,0.15923116896042355,1.0835246440329929,6.234414331540705e-05,0.15965088660789784,6.677372926633396e-05,-0.2534129067347025
684,0.6746,345.624,299.697,0.00172828,322.622,-0.222721,-0.233109,0.147928,0.148288,-0.292582,0.734915,6.19214e-05,6.63503e-05,0.437897,0.15942941443982117,1.085304734069255,6.192331716947663e-05,0.15984688416906212,6.635250122988268e-05,-0.253665956864899
685,0.6756,345.724,299.787,0.00172217,322.716,-0.222798,-0.23317,0.148099,0.148458,-0.292922,0.735768,6.15007e-05,6.59293e-05,0.43841,0.1596276938220944,1.0870842578664157,6.150259120674129e-05,0.16004407490010797,6.593147338396221e-05,-0.25391966730634585
686,0.6766,345.824,299.876,0.00171609,322.811,-0.222875,-0.23323,0.14827,0.148627,-0.293261,0.736621,6.10802e-05,6.55085e-05,0.438923,0.15982600711304107,1.0888653002449584,6.108206543342654e-05,0.16024013891570887,6.551064572857257e-05,-0.25417254567382397
687,0.6776,345.923,299.965,0.00171002,322.905,-0.222952,-0.233289,0.148441,0.148796,-0.2936,0.737474,6.06599e-05,6.50878e-05,0.439436,0.16002435431846007,1.0906478625007856,6.066173984886625e-05,0.1604362360689282,6.508991825682209e-05,-0.2544253383300643
688,0.6786,346.022,300.053,0.00170398,322.999,-0.223028,-0.233349,0.148612,0.148965,-0.293939,0.738326,6.02398e-05,6.46673e-05,0.439949,0.16022273544415144,1.0924298535000059,6.0241614453282466e-05,0.16063236636536704,6.466939097493629e-05,-0.2546780453041182
689,0.6796,346.122,300.142,0.00169795,323.093,-0.223104,-0.233408,0.148782,0.149134,-0.294277,0.739177,5.98198e-05,6.4247e-05,0.440461,0.16041999007534558,1.0942112691902017,5.982158924000558e-05,0.16082852981062712,6.424906388269314e-05,-0.254929921555321
690,0.6806,346.221,300.231,0.00169194,323.187,-0.22318,-0.233468,0.148953,0.149303,-0.294616,0.740028,5.94e-05,6.38269e-05,0.440973,0.16061843886053606,1.095994201510385,5.9401764215039066e-05,0.16102472641031085,6.382893697987058e-05,-0.25518245750465185
691,0.6816,346.319,300.319,0.00168596,323.28,-0.223255,-0.233527,0.149123,0.149472,-0.294954,0.740879,5.89804e-05,6.34069e-05,0.441485,0.16081576076702908,1.097778651751756,5.8982139377938836e-05,0.16122095617002175,6.340891026002105e-05,-0.2554341632933407
692,0.6826,346.418,300.408,0.00167999,323.374,-0.22333,-0.233585,0.149294,0.149641,-0.295292,0.741729,5.85609e-05,6.29872e-05,0.441997,0.16101427723479445,1.099562521643045,5.8562614722923456e-05,0.16141721909536466,6.298918373537354e-05,-0.2556857840198493
693,0.6836,346.517,300.496,0.00167404,323.467,-0.223405,-0.233644,0.149464,0.149809,-0.295629,0.742578,5.81416e-05,6.25675e-05,0.442508,0.16121166643953155,1.1013458071214894,5.8143290255552316e-05,0.16161235357901038,6.256945738680741e-05,-0.2559365756498714
694,0.6846,346.615,300.584,0.00166812,323.561,-0.22348,-0.233702,0.149634,0.149978,-0.295967,0.743427,5.77225e-05,6.21481e-05,0.443019,0.16140908920328556,1.1031306072521838,5.772416597560337e-05,0.16180868265610493,6.215003123322127e-05,-0.25618802658969897
695,0.6856,346.714,300.672,0.00166221,323.654,-0.223555,-0.233761,0.149804,0.150146,-0.296304,0.744275,5.73035e-05,6.17288e-05,0.443529,0.16160654553176257,1.1049148184057436,5.7305141876851096e-05,0.16200388291115342,6.173070526149793e-05,-0.25643864899249147
696,0.6866,346.812,300.76,0.00165632,323.747,-0.223629,-0.233819,0.149974,0.150315,-0.296641,0.745123,5.68847e-05,6.13098e-05,0.444039,0.16180403543066868,1.1067005432120594,5.688631796529897e-05,0.16220027816229665,6.131167948408844e-05,-0.25668918694976417
697,0.6876,346.91,300.847,0.00165045,323.84,-0.223703,-0.233876,0.150144,0.150483,-0.296978,0.745971,5.64661e-05,6.08909e-05,0.444549,0.16200155890571155,1.1084877829552533,5.6467694240280863e-05,0.16239554421091684,6.089275388854176e-05,-0.2569396404899702
698,0.6886,347.008,300.935,0.0016446,323.932,-0.223777,-0.233934,0.150314,0.150651,-0.297315,0.746818,5.60477e-05,6.04721e-05,0.445059,0.16219911596259973,1.1102744286450528,5.604927070157473e-05,0.1625908430669889,6.047392847419175e-05,-0.2571900096415536
699,0.6896,347.105,301.023,0.00163877,324.025,-0.22385,-0.233991,0.150483,0.150819,-0.297651,0.747664,5.56294e-05,6.00536e-05,0.445568,0.16239554421091684,1.1120604762032786,5.563094734384322e-05,0.16278617473602486,6.005540325348946e-05,-0.2574395518728715
700,0.6906,347.203,301.11,0.00163295,324.117,-0.223924,-0.234049,0.150653,0.150987,-0.297988,0.74851,5.52113e-05,5.96352e-05,0.446077,0.16259316825100023,1.1138480353970701,5.521282417197959e-05,0.16298153922353786,5.963697821398384e-05,-0.25768975258270277
701,0.6916,347.301,301.197,0.00162716,324.21,-0.223997,-0.234106,0.150822,0.151155,-0.298324,0.749355,5.47934e-05,5.9217e-05,0.446586,0.1627896630997816,1.1156349918697628,5.47949011857618e-05,0.16317693653504217,5.921875336123428e-05,-0.25793912692859877
702,0.6926,347.398,301.284,0.00162138,324.302,-0.22407,-0.234162,0.150992,0.151322,-0.29866,0.7502,5.43756e-05,5.87989e-05,0.447095,0.16298735414577137,1.1174234589588203,5.437707837963046e-05,0.16337120330426713,5.88006286892373e-05,-0.2581884174987896
703,0.6936,347.495,301.371,0.00161563,324.394,-0.224143,-0.234219,0.151161,0.15149,-0.298996,0.751045,5.3958e-05,5.83811e-05,0.447603,0.16318391561759849,1.1192134379412533,5.395945575914496e-05,0.16356666608483605,5.838280420955577e-05,-0.25843762432141926
704,0.6946,347.592,301.458,0.00160989,324.486,-0.224215,-0.234275,0.15133,0.151657,-0.299331,0.751889,5.35406e-05,5.79634e-05,0.44811,0.16338051031112166,1.1210028090912814,5.3542033323417115e-05,0.16376099794433085,5.796507991040478e-05,-0.258686006110999
705,0.6956,347.689,301.545,0.00160417,324.578,-0.224287,-0.234332,0.151499,0.151825,-0.299666,0.752732,5.31234e-05,5.75459e-05,0.448618,0.16357713823195552,1.1227915683154266,5.312481107289102e-05,0.1639565262159004,5.7547555797121674e-05,-0.25893430470661494
706,0.6966,347.786,301.632,0.00159847,324.67,-0.224359,-0.234388,0.151668,0.151992,-0.300002,0.753575,5.27063e-05,5.71286e-05,0.449125,0.16377379938571623,1.1245818360993667,5.270768900134115e-05,0.16415092318747382,5.7130231869484405e-05,-0.25918326095324185
707,0.6976,347.883,301.718,0.00159279,324.761,-0.224431,-0.234444,0.151837,0.152159,-0.300336,0.754417,5.22894e-05,5.67114e-05,0.449632,0.16397049377802042,1.1263714873428023,5.229076711454894e-05,0.16434535262605254,5.6713008121933584e-05,-0.2594306524274075
708,0.6986,347.979,301.804,0.00158712,324.853,-0.224502,-0.234499,0.152006,0.152326,-0.300671,0.755259,5.18727e-05,5.62945e-05,0.450139,0.1641672214144858,1.1281626461071625,5.187404541184826e-05,0.16453981453705868,5.62960845651439e-05,-0.25967870160828677
709,0.6996,348.076,301.891,0.00158148,324.944,-0.224574,-0.234555,0.152174,0.152493,-0.301006,0.756101,5.14561e-05,5.58777e-05,0.450645,0.16436281793733132,1.1299553136623142,5.1457423887901754e-05,0.16473430892591567,5.587926118777453e-05,-0.25992666770660744
710,0.7006,348.172,301.977,0.00157585,325.035,-0.224645,-0.23461,0.152343,0.15266,-0.30134,0.756942,5.10397e-05,5.5461e-05,0.451151,0.16455961188218282,1.1317473595307685,5.104100254760269e-05,0.16492883579804807,5.546253798960343e-05,-0.2601738109243785
711,0.7016,348.268,302.063,0.00157024,325.126,-0.224716,-0.234665,0.152511,0.152827,-0.301674,0.757782,5.06235e-05,5.50446e-05,0.451657,0.16475527433216453,1.1335387796038696,5.062478139095106e-05,0.16512339515888086,5.504611498174938e-05,-0.2604208716100985
712,0.7026,348.364,302.149,0.00156465,325.217,-0.224786,-0.23472,0.15268,0.152994,-0.302008,0.758622,5.02075e-05,5.46283e-05,0.452163,0.16495213460775138,1.135331705102022,5.020876041772482e-05,0.16531798701383993,5.4629792152649514e-05,-0.2606678497913285
713,0.7036,348.46,302.235,0.00155908,325.308,-0.224857,-0.234775,0.152848,0.15316,-0.302342,0.759462,4.97916e-05,5.42122e-05,0.452668,0.1651478630070906,1.137126137290314,4.979283962236458e-05,0.16551144585632405,5.4213669507863216e-05,-0.2609147454956203
714,0.7046,348.556,302.32,0.00155352,325.399,-0.224927,-0.23483,0.153016,0.153327,-0.302675,0.760301,4.93759e-05,5.37963e-05,0.453173,0.16534362429156335,1.1389199385138897,4.9377119009763604e-05,0.16570610252116103,5.37977470469464e-05,-0.26116081991170614
715,0.7056,348.651,302.406,0.00154799,325.49,-0.224997,-0.234884,0.153184,0.153493,-0.303009,0.761139,4.89604e-05,5.33806e-05,0.453677,0.1655394184666945,1.1407131046540404,4.896159857992188e-05,0.16589962579616713,5.338202476967702e-05,-0.2614075509914716
716,0.7066,348.747,302.491,0.00154247,325.58,-0.225067,-0.234939,0.153352,0.15366,-0.303342,0.761977,4.85451e-05,5.2965e-05,0.454181,0.16573524553801033,1.1425077740972123,4.854627833239533e-05,0.16609434729246741,5.296640267027364e-05,-0.2616534613306476
717,0.7076,348.842,302.577,0.00153697,325.67,-0.225137,-0.234993,0.15352,0.153826,-0.303675,0.762815,4.81299e-05,5.25496e-05,0.454685,0.16593110551103774,1.144303948103702,4.8131058262290694e-05,0.166287935021455,5.2550980754517695e-05,-0.2618992897953134
718,0.7086,348.937,302.662,0.00153148,325.761,-0.225206,-0.235047,0.153688,0.153992,-0.304008,0.763652,4.77149e-05,5.21344e-05,0.455189,0.16612699839130496,1.1460994818343062,4.7716038374057135e-05,0.1664815548886729,5.213575902152101e-05,-0.2621450364127289
719,0.7096,349.032,302.747,0.00152602,325.851,-0.225275,-0.235101,0.153855,0.154158,-0.30434,0.764488,4.73001e-05,5.17194e-05,0.455693,0.16632175786199932,1.1478943711603211,4.730121866747261e-05,0.16667520689945658,5.1720737471283584e-05,-0.26238996360047706
720,0.7106,349.127,302.832,0.00152057,325.941,-0.225344,-0.235154,0.154023,0.154324,-0.304673,0.765324,4.68854e-05,5.13045e-05,0.456196,0.16651771637737456,1.1496907616412084,4.688649913764387e-05,0.1668688910591425,5.130581609846807e-05,-0.26263554685071755
721,0.7116,349.222,302.917,0.00151514,326.031,-0.225413,-0.235208,0.15419,0.15449,-0.305005,0.76616,4.64709e-05,5.08899e-05,0.456699,0.16671254110342137,1.1514886545324572,4.647197978902007e-05,0.16706260737306744,5.089119491286098e-05,-0.26288031121603017
722,0.7126,349.317,303.002,0.00150973,326.12,-0.225481,-0.235261,0.154358,0.154655,-0.305337,0.766995,4.60566e-05,5.04754e-05,0.457201,0.16690856527589637,1.153285897803634,4.605766062137917e-05,0.16725518859079758,5.047667390445376e-05,-0.2631249943330616
723,0.7136,349.411,303.086,0.00150433,326.21,-0.22555,-0.235314,0.154525,0.154821,-0.305669,0.76783,4.56425e-05,5.0061e-05,0.457703,0.1671034552791597,1.155084642399658,4.5643541634721174e-05,0.1674489690354355,5.006225307280232e-05,-0.26336959622878153
724,0.7146,349.506,303.171,0.00149895,326.299,-0.225618,-0.235367,0.154692,0.154987,-0.306,0.768664,4.52285e-05,4.96469e-05,0.458205,0.16729837783177137,1.156882732690848,4.522952282393078e-05,0.16764278165029745,4.964813242769317e-05,-0.26361338054389993
725,0.7156,349.6,303.255,0.00149359,326.389,-0.225686,-0.23542,0.154859,0.155152,-0.306331,0.769498,4.48147e-05,4.92329e-05,0.458707,0.16749333293916768,1.158682323214851,4.4815704193679196e-05,0.1678354586046813,4.9234111959117755e-05,-0.26385708417976306
726,0.7166,349.694,303.34,0.00148825,326.478,-0.225753,-0.235472,0.155026,0.155317,-0.306663,0.770331,4.44011e-05,4.88191e-05,0.459208,0.16768832060678562,1.1604812547410481,4.4402085743522335e-05,0.16802816735338566,4.8820291671747285e-05,-0.26410144306199645
727,0.7176,349.788,303.424,0.00148292,326.567,-0.225821,-0.235525,0.155193,0.155483,-0.306994,0.771163,4.39877e-05,4.84055e-05,0.459709,0.1678833408400633,1.162279523120905,4.398866747301611e-05,0.168222076123149,4.840667156513767e-05,-0.26434498517589955
728,0.7186,349.882,303.508,0.00147761,326.656,-0.225888,-0.235577,0.15536,0.155648,-0.307324,0.771996,4.35744e-05,4.79921e-05,0.46021,0.16807839364443922,1.164081452362999,4.357534937793339e-05,0.1684148486690069,4.7993251639288914e-05,-0.2645877112787818
729,0.7196,349.976,303.592,0.00147232,326.745,-0.225955,-0.235629,0.155526,0.155813,-0.307655,0.772827,4.31613e-05,4.75788e-05,0.460711,0.16827231075245908,1.1658805514720605,4.3162231462279266e-05,0.16860765302495917,4.7579931889085714e-05,-0.2648310924645402
730,0.7206,350.07,303.676,0.00146704,326.834,-0.226022,-0.235681,0.155693,0.155978,-0.307986,0.773658,4.27484e-05,4.71658e-05,0.461211,0.16846742852023477,1.1676811462538468,4.2749313725831684e-05,0.1688004891962549,4.716691232387049e-05,-0.26507439310445713
731,0.7216,350.163,303.759,0.00146179,326.922,-0.226089,-0.235733,0.15586,0.156142,-0.308316,0.774489,4.23357e-05,4.67529e-05,0.461711,0.16866257887539882,1.1694832379517797,4.23365961683686e-05,0.16899218819537132,4.6753992933856736e-05,-0.2653168785424348
732,0.7226,350.257,303.843,0.00145654,327.011,-0.226155,-0.235784,0.156026,0.156307,-0.308646,0.775319,4.19231e-05,4.63402e-05,0.46221,0.16885659296621602,1.1712846565245711,4.192397878544085e-05,0.16918508782020503,4.634127372371566e-05,-0.2655592839734199
733,0.7236,350.35,303.926,0.00145132,327.099,-0.226222,-0.235836,0.156192,0.156472,-0.308976,0.776149,4.15107e-05,4.59276e-05,0.46271,0.1690506392660458,1.173087570895448,4.151156158105351e-05,0.16937801927610274,4.592865468833196e-05,-0.26580160942381026
734,0.7246,350.443,304.01,0.00144611,327.188,-0.226288,-0.235887,0.156358,0.156636,-0.309305,0.776979,4.10985e-05,4.55152e-05,0.463209,0.16924471778023498,1.1748919823064385,4.109934455498454e-05,0.1695698129979193,4.551623583237685e-05,-0.26604312096348304
735,0.7256,350.536,304.093,0.00144092,327.276,-0.226354,-0.235938,0.156524,0.156801,-0.309635,0.777807,4.06864e-05,4.51031e-05,0.463708,0.16943882851413172,1.1766935386091713,4.068722770278477e-05,0.1697628079387088,4.510411716007745e-05,-0.26628528677400876
736,0.7266,350.629,304.176,0.00143574,327.364,-0.22642,-0.235989,0.15669,0.156965,-0.309964,0.778636,4.02746e-05,4.46911e-05,0.464206,0.16963297147308465,1.1784987657159283,4.027541103268639e-05,0.16995466477104104,4.469209866209134e-05,-0.2665266392100073
737,0.7276,350.722,304.259,0.00143059,327.452,-0.226485,-0.23604,0.156856,0.157129,-0.310293,0.779464,3.98629e-05,4.42792e-05,0.464704,0.16982714666244414,1.1803033096720421,3.986369453601313e-05,0.170146553070474,4.428018033819647e-05,-0.2667679122541151
738,0.7286,350.815,304.342,0.00142544,327.54,-0.22655,-0.236091,0.157022,0.157294,-0.310622,0.780291,3.94513e-05,4.38676e-05,0.465202,0.17002135408756036,1.1821071663010474,3.9452078212764974e-05,0.17033964318122652,4.386856219729118e-05,-0.26700910593244787
739,0.7296,350.907,304.425,0.00142032,327.627,-0.226616,-0.236141,0.157188,0.157458,-0.310951,0.781118,3.904e-05,4.34561e-05,0.4657,0.17021559375378525,1.1839125153365107,3.904076207073004e-05,0.17053159462229628,4.345704423003305e-05,-0.26725022027111256
740,0.7306,351.0,304.508,0.00141521,327.715,-0.226681,-0.236191,0.157353,0.157622,-0.311279,0.781944,3.86288e-05,4.30448e-05,0.466197,0.1704086952571906,1.185717172294896,3.8629546101676127e-05,0.17072357754598388,4.304572644064919e-05,-0.2674905227870966
741,0.7316,351.092,304.591,0.00141012,327.802,-0.226745,-0.236242,0.157519,0.157786,-0.311608,0.78277,3.82178e-05,4.26337e-05,0.466694,0.17060299922738653,1.1875233205157358,3.821853030938627e-05,0.17091559195745276,4.263460882913961e-05,-0.2677314787656677
742,0.7326,351.184,304.673,0.00140504,327.89,-0.22681,-0.236292,0.157684,0.157949,-0.311936,0.783596,3.7807e-05,4.22228e-05,0.467191,0.17079616465796876,1.1893309612313216,3.780771469363842e-05,0.17110646675481522,4.2223691395060214e-05,-0.26797162345475056
743,0.7336,351.276,304.756,0.00139998,327.977,-0.226874,-0.236342,0.15785,0.158113,-0.312264,0.784421,3.73964e-05,4.1812e-05,0.467687,0.17099053295342426,1.1911379045359634,3.7397099253988486e-05,0.17129854396526367,4.181287413396184e-05,-0.26821168938929185
744,0.7346,351.368,304.838,0.00139494,328.064,-0.226939,-0.236391,0.158015,0.158277,-0.312591,0.785245,3.69859e-05,4.14014e-05,0.468184,0.1711837623323469,1.1929441462386827,3.698658398687549e-05,0.1714906526789579,4.140225704984957e-05,-0.26845094504642975
745,0.7356,351.46,304.92,0.00138991,328.151,-0.227003,-0.236441,0.15818,0.15844,-0.312919,0.786069,3.65756e-05,4.0991e-05,0.46868,0.17137702359674756,1.1947518768979313,3.657626889541632e-05,0.17168162121885766,4.0991840142501346e-05,-0.2686908537892698
746,0.7366,351.552,305.002,0.0013849,328.238,-0.227066,-0.23649,0.158345,0.158603,-0.313246,0.786893,3.61655e-05,4.05808e-05,0.469175,0.17157031675188783,1.1965610977411143,3.616615397961098e-05,0.17187262088916677,4.0581623411695134e-05,-0.2689299527852643
747,0.7376,351.643,305.084,0.0013799,328.325,-0.22713,-0.23654,0.15851,0.158767,-0.313573,0.787716,3.57555e-05,4.01707e-05,0.469671,0.17176364180302994,1.1983696116259388,3.57561392354544e-05,0.17206482375919707,4.0171506853425853e-05,-0.2691689736086691
748,0.7386,351.735,305.166,0.00137492,328.411,-0.227194,-0.236589,0.158675,0.15893,-0.3139,0.788539,3.53457e-05,3.97609e-05,0.470166,0.17195699875543746,1.200179614530338,3.5346324666507556e-05,0.172255885896611,3.9761690475037526e-05,-0.26940791628504224
749,0.7396,351.826,305.248,0.00136995,328.498,-0.227257,-0.236638,0.158839,0.159093,-0.314227,0.789361,3.49361e-05,3.93512e-05,0.47066,0.17214921546457274,1.201988905690273,3.493671027254841e-05,0.17244697917969165,3.9351974268519996e-05,-0.2696467808399339
750,0.7406,351.917,305.329,0.00136501,328.584,-0.22732,-0.236687,0.159004,0.159256,-0.314554,0.790183,3.45267e-05,3.89417e-05,0.471155,0.17234263604188316,1.2037996846989634,3.452729605335492e-05,0.17263810361351606,3.894245823787834e-05,-0.26988556729888546
751,0.7416,352.008,305.411,0.00136007,328.671,-0.227383,-0.236736,0.159169,0.159419,-0.31488,0.791004,3.41175e-05,3.85324e-05,0.471649,0.17253608853622193,1.205609747169074,3.4118082008482986e-05,0.1728292592031624,3.853314238244643e-05,-0.2701235458113408
752,0.7426,352.099,305.492,0.00135516,328.757,-0.227446,-0.236784,0.159333,0.159582,-0.315206,0.791825,3.37084e-05,3.81232e-05,0.472143,0.17272840022386915,1.2074212963106676,3.3708968134593675e-05,0.17302044595370947,3.8123926698441224e-05,-0.2703614467554455
753,0.7436,352.19,305.574,0.00135025,328.843,-0.227508,-0.236833,0.159497,0.159745,-0.315532,0.792645,3.32995e-05,3.77142e-05,0.472637,0.17292074345321962,1.209232124111574,3.330005443458184e-05,0.17321166387023657,3.7714911189423717e-05,-0.27059927015648266
754,0.7446,352.281,305.655,0.00134537,328.929,-0.227571,-0.236881,0.159662,0.159907,-0.315858,0.793465,3.28908e-05,3.73054e-05,0.47313,0.17311429134315115,1.2110444374002438,3.289134090822543e-05,0.17340173955549854,3.730609585517186e-05,-0.2708370160397271
755,0.7456,352.371,305.736,0.0013405,329.015,-0.227633,-0.236929,0.159826,0.16007,-0.316184,0.794284,3.24823e-05,3.68968e-05,0.473623,0.1733066978638349,1.2128560245381457,3.248282755552445e-05,0.17359301962794826,3.689748069524157e-05,-0.2710746844304456
756,0.7466,352.462,305.817,0.00133564,329.1,-0.227695,-0.236977,0.15999,0.160232,-0.316509,0.795103,3.20739e-05,3.64884e-05,0.474116,0.17349913594177568,1.2146690959736506,3.207441437313996e-05,0.17378315709784742,3.6489065709854884e-05,-0.2713115466658076
757,0.7476,352.552,305.898,0.0013308,329.186,-0.227757,-0.237025,0.160154,0.160395,-0.316835,0.795922,3.16657e-05,3.60801e-05,0.474608,0.17369160558214913,1.216483652922896,3.166620136352272e-05,0.17397449934642384,3.608075089456264e-05,-0.2715490603847548
758,0.7486,352.642,305.979,0.00132598,329.272,-0.227819,-0.237073,0.160318,0.160557,-0.31716,0.79674,3.12577e-05,3.56721e-05,0.475101,0.17388410679013222,1.2182974783044287,3.125818852689477e-05,0.17416469862104322,3.5672736256930904e-05,-0.27178576847298186
759,0.7496,352.733,306.06,0.00132117,329.357,-0.22788,-0.23712,0.160482,0.160719,-0.317485,0.797557,3.08498e-05,3.52642e-05,0.475593,0.17407663957090236,1.2201105678904476,3.0850275859917176e-05,0.17435492871044111,3.526482178917156e-05,-0.2720223996435801
760,0.7506,352.823,306.14,0.00131638,329.442,-0.227941,-0.237168,0.160645,0.160881,-0.317809,0.798374,3.04422e-05,3.48565e-05,0.476084,0.17426802966102106,1.2219251393759323,3.044266336837964e-05,0.17454518961960974,3.485710749484561e-05,-0.27225822618013373
761,0.7516,352.913,306.221,0.0013116,329.528,-0.228003,-0.237215,0.160809,0.161043,-0.318134,0.799191,3.00347e-05,3.44489e-05,0.476576,0.17446062541030516,1.2237411939720881,3.003515104604837e-05,0.17473548135354244,3.4449493370170003e-05,-0.272494703826926
762,0.7526,353.002,306.301,0.00130683,329.613,-0.228064,-0.237262,0.160972,0.161205,-0.318458,0.800007,2.96274e-05,3.40416e-05,0.477067,0.174652078095217,1.225556507333493,2.9627838895818215e-05,0.174925803917233,3.404217942182264e-05,-0.2727303773617118
763,0.7536,353.092,306.381,0.00130208,329.698,-0.228125,-0.237309,0.161136,0.161367,-0.318783,0.800822,2.92202e-05,3.36344e-05,0.477558,0.17484473683360946,1.2273710752229445,2.922062691412819e-05,0.17511615731567676,3.3634965642681536e-05,-0.2729667015843029
764,0.7546,353.182,306.461,0.00129735,329.783,-0.228185,-0.237356,0.161299,0.161529,-0.319107,0.801638,2.88133e-05,3.32274e-05,0.478048,0.17503625213378626,1.2291893517762675,2.881371510721209e-05,0.17530654155386882,3.322795203608564e-05,-0.27320222221658685
765,0.7556,353.271,306.542,0.00129263,329.867,-0.228246,-0.237403,0.161462,0.16169,-0.31943,0.802452,2.84065e-05,3.28206e-05,0.478538,0.17522779865350113,1.2310046506350152,2.840690346839203e-05,0.17549578114043696,3.2821138601812905e-05,-0.27343693998984986
766,0.7566,353.36,306.622,0.00128793,329.952,-0.228306,-0.23745,0.161625,0.161852,-0.319754,0.803266,2.79999e-05,3.24139e-05,0.479028,0.17541937639784377,1.2328214277486014,2.800029200078491e-05,0.17568622688267022,3.24144253360803e-05,-0.27367230828956957
767,0.7576,353.449,306.701,0.00128324,330.036,-0.228366,-0.237496,0.161788,0.162013,-0.320077,0.80408,2.75934e-05,3.20075e-05,0.479518,0.17561098537190367,1.234639684320816,2.759378070127383e-05,0.17587552760349734,3.200801224556571e-05,-0.2739068742495502
768,0.7586,353.539,306.781,0.00127857,330.121,-0.228426,-0.237542,0.161951,0.162174,-0.320401,0.804894,2.71872e-05,3.16012e-05,0.480008,0.1758026255807721,1.2364594215564289,2.7187569575204407e-05,0.1760648588041942,3.160169932314716e-05,-0.27414209031523296
769,0.7596,353.628,306.861,0.00127391,330.205,-0.228486,-0.237589,0.162114,0.162336,-0.320724,0.805707,2.67811e-05,3.11951e-05,0.480497,0.1759942970295405,1.2382784023816686,2.6781458616786935e-05,0.1762553967444771,3.119558657216359e-05,-0.27437650456012264
770,0.7606,353.716,306.94,0.00126926,330.289,-0.228546,-0.237635,0.162277,0.162497,-0.321047,0.806519,2.63752e-05,3.07891e-05,0.480986,0.1761859997233013,1.240096622541885,2.6375547828694224e-05,0.17644478910902905,3.0789573989276064e-05,-0.2746108431014379
771,0.7616,353.805,307.02,0.00126463,330.374,-0.228605,-0.237681,0.16244,0.162658,-0.321369,0.807331,2.59695e-05,3.03834e-05,0.481474,0.17637773366714815,1.24191631969645,2.5969837210482183e-05,0.17663421196820672,3.0383861580274285e-05,-0.2748443808083706
772,0.7626,353.894,307.099,0.00126002,330.457,-0.228665,-0.237727,0.162602,0.162819,-0.321692,0.808142,2.55639e-05,2.99778e-05,0.481963,0.1765683222972645,1.243735251308797,2.556422675925596e-05,0.17682366532691973,2.9978249338702412e-05,-0.2750785682500616
773,0.7636,353.982,307.179,0.00125542,330.541,-0.228724,-0.237772,0.162765,0.16298,-0.322014,0.808953,2.51585e-05,2.95725e-05,0.482451,0.17676011856477003,1.2455556586730179,2.515881647768836e-05,0.17701314919007904,2.9572937270794242e-05,-0.27531195537374165
774,0.7646,354.071,307.258,0.00125083,330.625,-0.228783,-0.237818,0.162927,0.16314,-0.322336,0.809764,2.47533e-05,2.91672e-05,0.482939,0.17695076914625774,1.2473775429864333,2.4753606365557346e-05,0.17720148636052135,2.9167625366977035e-05,-0.27554526735886586
775,0.7656,354.159,307.337,0.00124626,330.709,-0.228842,-0.237863,0.163089,0.163301,-0.322658,0.810574,2.43483e-05,2.87622e-05,0.483426,0.17714145061564146,1.2491986562475534,2.4348596422196778e-05,0.177391031057764,2.8762613635935352e-05,-0.2757785042296248
776,0.7666,354.247,307.416,0.0012417,330.792,-0.228901,-0.237909,0.163252,0.163462,-0.32298,0.811384,2.39434e-05,2.83574e-05,0.483913,0.17733334031067716,1.2510212452079932,2.3943686645599982e-05,0.17758060627415984,2.835780207477434e-05,-0.27601166601020155
777,0.7676,354.335,307.495,0.00123716,330.876,-0.228959,-0.237954,0.163414,0.163622,-0.323301,0.812193,2.35388e-05,2.79527e-05,0.4844,0.17752408376160966,1.2528430582193675,2.353907703978031e-05,0.17776903424499935,2.7953090680377102e-05,-0.2762440289691622
778,0.7686,354.423,307.573,0.00123263,330.959,-0.229018,-0.237999,0.163576,0.163783,-0.323623,0.813002,2.31343e-05,2.75482e-05,0.484887,0.1777148581154846,1.2546663456738,2.3134567600058276e-05,0.1779586703248075,2.75485794551944e-05,-0.276477040874904
779,0.7696,354.511,307.652,0.00122811,331.042,-0.229076,-0.238044,0.163738,0.163943,-0.323944,0.81381,2.273e-05,2.71439e-05,0.485374,0.17790566337730818,1.2564888522746172,2.2730258328440556e-05,0.17814715879073462,2.714426839900419e-05,-0.2767092544725067
780,0.7706,354.599,307.731,0.00122361,331.126,-0.229134,-0.238089,0.163899,0.164103,-0.324265,0.814618,2.23258e-05,2.67398e-05,0.48586,0.17809532145617757,1.2583128320558523,2.2326049222476385e-05,0.1783356774172291,2.6740157511584428e-05,-0.27694139354150715
781,0.7716,354.686,307.809,0.00121913,331.209,-0.229192,-0.238134,0.164061,0.164263,-0.324586,0.815425,2.19218e-05,2.63358e-05,0.486346,0.1782861883580551,1.2601360260711605,2.1922040284394484e-05,0.1785242262091169,2.6336146790262305e-05,-0.27717345810582505
782,0.7726,354.774,307.887,0.00121465,331.292,-0.22925,-0.238178,0.164223,0.164423,-0.324907,0.816232,2.15181e-05,2.5932e-05,0.486831,0.1784770861828755,1.2619606919978752,2.1518331515979483e-05,0.17871280517122523,2.593233623726654e-05,-0.27740544818937274
783,0.7736,354.861,307.966,0.0012102,331.374,-0.229307,-0.238223,0.164384,0.164583,-0.325227,0.817039,2.11144e-05,2.55285e-05,0.487316,0.17866683626822288,1.263786831024309,2.1114622910545222e-05,0.17890141430838113,2.5528825854825854e-05,-0.277636641453057
784,0.7746,354.948,308.044,0.00120575,331.457,-0.229365,-0.238267,0.164546,0.164743,-0.325547,0.817845,2.0711e-05,2.5125e-05,0.487802,0.17885779576299976,1.2656121787264212,2.0711214474333772e-05,0.17909005362541341,2.5125315635365908e-05,-0.2778677607467328
785,0.7756,355.036,308.122,0.00120132,331.54,-0.229422,-0.238311,0.164707,0.164903,-0.325868,0.81865,2.03077e-05,2.47218e-05,0.488286,0.179047607147524,1.2674367308139813,2.030790620266565e-05,0.1792787231271511,2.4722105586238996e-05,-0.2780995279948997
786,0.7766,355.123,308.2,0.00119691,331.622,-0.229479,-0.238355,0.164868,0.165063,-0.326188,0.819455,1.99047e-05,2.43188e-05,0.488771,0.17923744909414152,1.2692627522573088,1.9904898099776247e-05,0.1794674228184241,2.431909570432822e-05,-0.27833049918857944
787,0.7776,355.21,308.278,0.0011925,331.705,-0.229537,-0.238399,0.16503,0.165222,-0.326507,0.82026,1.95017e-05,2.39159e-05,0.489255,0.1794285010356842,1.2710902442397103,1.9501890159423496e-05,0.17965497304850042,2.391618598740486e-05,-0.27856067504433735
788,0.7786,355.296,308.355,0.00118811,331.787,-0.229593,-0.238443,0.165191,0.165382,-0.326827,0.821064,1.9099e-05,2.35132e-05,0.489739,0.1796184043111544,1.2729169350273755,1.909918238696129e-05,0.17984373294457723,2.351347643747559e-05,-0.27879149869456943
789,0.7796,355.383,308.433,0.00118374,331.869,-0.22965,-0.238487,0.165352,0.165541,-0.327146,0.821868,1.86965e-05,2.31107e-05,0.490223,0.17980833816351338,1.2747450950649934,1.8696674780604994e-05,0.18003134301272072,2.3110967054318365e-05,-0.27902152751493836
790,0.7806,355.47,308.511,0.00117938,331.951,-0.229707,-0.238531,0.165513,0.1657,-0.327466,0.822671,1.82941e-05,2.27083e-05,0.490706,0.17999830259768412,1.2765724489607284,1.829426733812589e-05,0.18021898291323635,2.2708557835482424e-05,-0.2792522037159729
791,0.7816,355.556,308.588,0.00117503,332.033,-0.229763,-0.238574,0.165673,0.16586,-0.327785,0.823474,1.78919e-05,2.23062e-05,0.491189,0.18018711743088378,1.2784012708109467,1.7892060061086568e-05,0.18040783305811137,2.230644878520316e-05,-0.2794820855948784
792,0.7826,355.643,308.665,0.0011707,332.115,-0.229819,-0.238618,0.165834,0.166019,-0.328103,0.824277,1.74898e-05,2.19042e-05,0.491672,0.1803771428534262,1.280231561794889,1.7489952947480347e-05,0.1805955328253035,2.1904439898801087e-05,-0.2797111738646938
793,0.7836,355.729,308.743,0.00116638,332.197,-0.229876,-0.238661,0.165995,0.166178,-0.328422,0.825078,1.7088e-05,2.15024e-05,0.492155,0.1805671988725246,1.2820587589706611,1.7088146000654447e-05,0.18078326243913145,2.1502631178282883e-05,-0.2799409093554721
794,0.7846,355.815,308.82,0.00116207,332.279,-0.229932,-0.238704,0.166155,0.166337,-0.328741,0.82588,1.66863e-05,2.11008e-05,0.492637,0.18075610473641035,1.2838897042062558,1.6686439217039606e-05,0.18097102190434122,2.1101022623426502e-05,-0.2801705715723165
795,0.7856,355.901,308.897,0.00115777,332.36,-0.229987,-0.238747,0.166316,0.166496,-0.329059,0.826681,1.62848e-05,2.06993e-05,0.493119,0.18094622177328357,1.2857198327279469,1.6284932597976365e-05,0.18115881122567945,2.0699514232003224e-05,-0.28039944093839864
796,0.7866,355.987,308.974,0.00115349,332.442,-0.230043,-0.23879,0.166476,0.166654,-0.329377,0.827482,1.58835e-05,2.02981e-05,0.493601,0.1811351882856853,1.2875514277698468,1.5883626143464724e-05,0.181345449061854,2.0298306007804356e-05,-0.2806282375355932
797,0.7876,356.073,309.051,0.00114923,332.523,-0.230099,-0.238833,0.166636,0.166813,-0.329695,0.828282,1.54823e-05,1.9897e-05,0.494083,0.1813241850351477,1.2893822011237628,1.5482419851498008e-05,0.18153329792184336,1.9897197946594503e-05,-0.2808569613870371
798,0.7886,356.159,309.128,0.00114497,332.604,-0.230154,-0.238876,0.166797,0.166972,-0.330013,0.829082,1.50814e-05,1.94961e-05,0.494564,0.18151439354031207,1.2912144396823662,1.5081513724979345e-05,0.18172117665217624,1.9496290050158294e-05,-0.2810856125158596
799,0.7896,356.244,309.204,0.00114073,332.685,-0.230209,-0.238918,0.166957,0.16713,-0.33033,0.829881,1.46806e-05,1.90954e-05,0.495045,0.18170345096746932,1.2930458515712906,1.4680707760561518e-05,0.181907903349108,1.9095582318273685e-05,-0.2813134722590147
800,0.7906,356.33,309.281,0.00113651,332.766,-0.230265,-0.238961,0.167117,0.167289,-0.330648,0.83068,1.428e-05,1.86948e-05,0.495526,0.1818925386462351,1.294878727343058,1.4280101959585068e-05,0.1820958416464391,1.8694974748934e-05,-0.2815419782404597
801,0.7916,356.415,309.358,0.00113229,332.847,-0.23032,-0.239003,0.167277,0.167447,-0.330965,0.831478,1.38795e-05,1.82945e-05,0.496006,0.1820816565814498,1.2967107714558574,1.3879596320709453e-05,0.1822826275451166,1.829466734548646e-05,-0.28176969333860746
802,0.7926,356.501,309.434,0.00112809,332.928,-0.230374,-0.239045,0.167436,0.167605,-0.331282,0.832276,1.34793e-05,1.78943e-05,0.496487,0.1822696225077416,1.298544278123341,1.3479390846171668e-05,0.1824694429582978,1.789446010391771e-05,-0.28199733626250945
803,0.7936,356.586,309.51,0.0011239,333.009,-0.230429,-0.239088,0.167596,0.167763,-0.331599,0.833074,1.30792e-05,1.74943e-05,0.496966,0.18245880078120114,1.3003792485130923,1.3079285533068585e-05,0.18265628789064614,1.7494453026234424e-05,-0.282224907035041
804,0.7946,356.671,309.587,0.00111973,333.09,-0.230484,-0.23913,0.167756,0.167921,-0.331916,0.833871,1.26793e-05,1.70945e-05,0.497446,0.182648009325606,1.302213381579096,1.2679380382740746e-05,0.18284316234682607,1.7094646111770473e-05,-0.2824524056790708
805,0.7956,356.756,309.663,0.00111557,333.17,-0.230538,-0.239172,0.167915,0.168079,-0.332232,0.834667,1.22795e-05,1.66948e-05,0.497926,0.1828360653091432,1.3040466729840121,1.2279575393403519e-05,0.18303006633150298,1.6694939358963268e-05,-0.2826791148969333
806,0.7966,356.841,309.739,0.00111142,333.251,-0.230593,-0.239213,0.168075,0.168237,-0.332549,0.835464,1.188e-05,1.62953e-05,0.498405,0.18302533422070177,1.3058837301524187,1.1880070567515943e-05,0.18321699984934225,1.629543276915335e-05,-0.28290646957988974
807,0.7976,356.926,309.815,0.00110728,333.331,-0.230647,-0.239255,0.168234,0.168395,-0.332865,0.836259,1.14806e-05,1.58961e-05,0.498884,0.1832134502036673,1.3077176365991132,1.1480665902396936e-05,0.18340396290501104,1.5896226343681263e-05,-0.2831330353362277
808,0.7986,357.01,309.891,0.00110316,333.411,-0.230701,-0.239297,0.168394,0.168553,-0.333181,0.837055,1.10814e-05,1.54969e-05,0.499362,0.18340277950163975,1.3095553111352798,1.1081461398942949e-05,0.18359095550317628,1.5497020077637202e-05,-0.2833595295090974
809,0.7996,357.095,309.966,0.00109905,333.492,-0.230755,-0.239338,0.168553,0.16871,-0.333497,0.837849,1.06824e-05,1.5098e-05,0.499841,0.18359095550317628,1.3113898262584462,1.0682457056931938e-05,0.18377679387112034,1.5098113975264837e-05,-0.2835859521211157
810,0.8006,357.179,310.042,0.00109495,333.572,-0.230808,-0.23938,0.168712,0.168868,-0.333812,0.838644,1.02835e-05,1.46993e-05,0.500319,0.18377916142707562,1.313228111792001,1.028355287546745e-05,0.18396384538123223,1.4699408035223627e-05,-0.2838115870068373
811,0.8016,357.264,310.118,0.00109087,333.652,-0.230862,-0.239421,0.168871,0.169025,-0.334128,0.839438,9.88483e-06,1.43007e-05,0.500796,0.1839673972780962,1.3150655442769286,9.884878855004331e-06,0.18414974229748315,1.4300802255506895e-05,-0.2840378667912543
812,0.8026,357.348,310.193,0.00108679,333.731,-0.230915,-0.239462,0.16903,0.169183,-0.334443,0.840231,9.48633e-06,1.39023e-05,0.501274,0.1841556630609964,1.316902119359316,9.486374995315572e-06,0.18433685273810174,1.3902396637455183e-05,-0.2842633593462731
813,0.8036,357.432,310.268,0.00108273,333.811,-0.230969,-0.239503,0.169189,0.16934,-0.334758,0.841024,9.08801e-06,1.35041e-05,0.501751,0.18434395878053622,1.3187401514233614,9.088051296179955e-06,0.184522808221105,1.3504191180846448e-05,-0.2844887808823231
814,0.8046,357.516,310.344,0.00107869,333.891,-0.231022,-0.239544,0.169347,0.169497,-0.335073,0.841817,8.68986e-06,1.3106e-05,0.502228,0.18453109990978334,1.3205796416249083,8.68989775693052e-06,0.18470879290141107,1.3106085883896057e-05,-0.2847141314217718
815,0.8056,357.6,310.419,0.00107465,333.971,-0.231075,-0.239585,0.169506,0.169654,-0.335388,0.842609,8.29189e-06,1.27082e-05,0.502705,0.18471945532852807,1.3224182687012886,8.291924377790139e-06,0.18489480678360426,1.270828074950714e-05,-0.2849394109869797
816,0.8066,357.684,310.494,0.00107063,334.05,-0.231128,-0.239626,0.169665,0.169811,-0.335703,0.843401,7.8941e-06,1.23105e-05,0.503182,0.18490784069816524,1.324258352547118,7.894131158536766e-06,0.18508084987226958,1.2310575774554522e-05,-0.28516461960030004
817,0.8076,357.768,310.569,0.00106662,334.129,-0.231181,-0.239667,0.169823,0.169968,-0.336017,0.844193,7.49648e-06,1.1913e-05,0.503658,0.18509507092779431,1.3260998943166151,7.496508098725485e-06,0.18526692217199292,1.1913070960156702e-05,-0.2853890426734791
818,0.8086,357.851,310.644,0.00106263,334.209,-0.231234,-0.239707,0.169981,0.170125,-0.336331,0.844983,7.09904e-06,1.15157e-05,0.504134,0.18528233074213651,1.3279382392837782,7.099065198135079e-06,0.1854530236873606,1.151576630586959e-05,-0.28561339528887564
819,0.8096,357.935,310.719,0.00105864,334.288,-0.231286,-0.239748,0.17014,0.170282,-0.336645,0.845774,6.70177e-06,1.11186e-05,0.50461,0.1854708056160801,1.3297803668964736,6.701792456986766e-06,0.18563915442295986,1.1118661811915231e-05,-0.28583767746861
820,0.8106,358.018,310.794,0.00105467,334.367,-0.231339,-0.239788,0.170298,0.170438,-0.336959,0.846564,6.30468e-06,1.07216e-05,0.505085,0.18565812480119326,1.3316216205857683,6.304699874615238e-06,0.18582412855865726,1.0721657476508994e-05,-0.28606188923479536
821,0.8116,358.102,310.868,0.00105071,334.446,-0.231391,-0.239828,0.170456,0.170595,-0.337273,0.847354,5.90777e-06,1.03248e-05,0.50556,0.18584547358507608,1.3334643294401927,5.907787450798452e-06,0.18601031756229536,1.0324853300991421e-05,-0.28628603060953817
822,0.8126,358.185,310.943,0.00104676,334.525,-0.231443,-0.239868,0.170614,0.170751,-0.337587,0.848143,5.51103e-06,9.92821e-06,0.506035,0.18603285197240527,1.335306159302453,5.511045185757624e-06,0.186195349603959,9.92825928491925e-06,-0.28651010161493784
823,0.8136,358.268,311.017,0.00104282,334.604,-0.231495,-0.239908,0.170772,0.170908,-0.3379,0.848932,5.11447e-06,9.53179e-06,0.50651,0.18622025996785863,1.3371494429419153,5.1144830788274476e-06,0.18638159689387668,9.531835427623037e-06,-0.28673338900683254
824,0.8146,358.351,311.092,0.0010389,334.682,-0.231547,-0.239948,0.17093,0.171064,-0.338213,0.84972,4.71809e-06,9.13555e-06,0.506984,0.18640769757611464,1.3389918425130491,4.718101130229968e-06,0.18656668685963407,9.135591729325654e-06,-0.2869566065207102
825,0.8156,358.434,311.166,0.00103499,334.761,-0.231599,-0.239988,0.171088,0.17122,-0.338526,0.850508,4.32188e-06,8.73948e-06,0.507459,0.18659516480185268,1.3408356944672084,4.321889339298224e-06,0.18675180570167838,8.73951818936014e-06,-0.287179754178439
826,0.8166,358.517,311.24,0.00103109,334.84,-0.231651,-0.240028,0.171245,0.171376,-0.338839,0.851295,3.92585e-06,8.34359e-06,0.507932,0.18678147486768393,1.3426786572694938,3.925857706255087e-06,0.18693695342451466,8.343624807949368e-06,-0.28740283200188055
827,0.8176,358.6,311.314,0.0010272,334.918,-0.231702,-0.240068,0.171403,0.171532,-0.339152,0.852082,3.52999e-06,7.94788e-06,0.508406,0.18696900115489967,1.3445230710543918,3.5299962304335963e-06,0.18712213003264888,7.947911584427203e-06,-0.2876258400128896
828,0.8186,358.682,311.388,0.00102333,334.996,-0.231754,-0.240107,0.171561,0.171688,-0.339464,0.852869,3.13431e-06,7.55235e-06,0.508879,0.18715655707360956,1.3463689369642742,3.134314912056624e-06,0.1873073355305872,7.55237851901569e-06,-0.2878480660817361
829,0.8196,358.765,311.462,0.00101947,335.074,-0.231805,-0.240147,0.171718,0.171844,-0.339777,0.853655,2.73881e-06,7.157e-06,0.509353,0.18734295528494682,1.3482139079273323,2.7388137504580357e-06,0.18749256992283692,7.157025611492784e-06,-0.2880709347562854
830,0.8206,358.847,311.536,0.00101561,335.153,-0.231856,-0.240186,0.171875,0.172,-0.340089,0.854441,2.34348e-06,6.76182e-06,0.509825,0.1875293827631006,1.350060329607624,2.343482745859049e-06,0.18767783321390596,6.761842861191525e-06,-0.2882930219772334
831,0.8216,358.929,311.61,0.00101177,335.231,-0.231907,-0.240225,0.172033,0.172156,-0.340401,0.855226,1.94833e-06,6.36683e-06,0.510298,0.18771702722909955,1.3519058512388349,1.9483318980384468e-06,0.18786312540830274,6.366850268335611e-06,-0.2885150399177768
832,0.8226,359.012,311.684,0.00100795,335.309,-0.231958,-0.240265,0.17219,0.172311,-0.340713,0.856011,1.55335e-06,5.97201e-06,0.51077,0.1879035134411593,1.3537528221733033,1.5533512065513122e-06,0.188047258462684,5.972027832479299e-06,-0.2887369885995277
833,0.8236,359.094,311.757,0.00100583,335.387,-0.232009,-0.240304,0.172347,0.172467,-0.341024,0.856795,1.15855e-06,5.57738e-06,0.511243,0.18809002893385252,1.3555988879491134,1.1585506711764282e-06,0.18823260829191502,5.5773955536242426e-06,-0.28895815700260385
834,0.8246,359.176,311.831,0.000998436,335.464,-0.232059,-0.240342,0.172504,0.172622,-0.341336,0.857579,7.63968e-07,5.18294e-06,0.511714,0.18827657371177708,1.3574464016079877,7.639682917393031e-07,0.1884167986205818,5.182953431548398e-06,-0.28917996745338936
835,0.8256,359.258,311.904,0.000998221,335.542,-0.23211,-0.240381,0.172661,0.172778,-0.341647,0.858363,3.69532e-07,4.78865e-06,0.512186,0.18846314777953088,1.3592953642855115,3.695320682783887e-07,0.18860220610257428,4.788661465582322e-06,-0.2894009981114626
836,0.8266,359.34,311.977,0.000991606,335.62,-0.23216,-0.240419,0.172818,0.172933,-0.341958,0.859146,-2.47162e-08,4.39457e-06,0.512657,0.1886497511417129,1.3611434159735647,-2.4716199642504932e-08,0.1887864537233419,4.394579656175068e-06,-0.2896219600396891
837,0.8276,359.421,312.051,0.000989863,335.697,-0.23221,-0.240458,0.172974,0.173088,-0.342269,0.859929,-4.188e-07,4.00064e-06,0.513128,0.1888351949671332,1.3629929152527476,-4.1879991230509006e-07,0.1889707299047041,4.000648002655538e-06,-0.2898428532594406
838,0.8286,359.503,312.124,0.000984597,335.774,-0.23226,-0.240496,0.173131,0.173243,-0.34258,0.860711,-8.12699e-07,3.60691e-06,0.513599,0.18902185674530925,1.364841498414287,-8.126986698053784e-07,0.18915503465108818,3.606916504805824e-06,-0.2900636777920823
839,0.8296,359.585,312.197,0.000981955,335.852,-0.23231,-0.240534,0.173288,0.173398,-0.342891,0.861493,-1.20643e-06,3.21334e-06,0.51407,0.18920854783168517,1.366691527733232,-1.2064292722602232e-06,0.1893393679669222,3.2133451628446608e-06,-0.2902844336589723
840,0.8306,359.666,312.27,0.000977408,335.929,-0.23236,-0.240573,0.173444,0.173553,-0.343201,0.862274,-1.59998e-06,2.81996e-06,0.51454,0.18939407883618897,1.3685406357991012,-1.5999787200682292e-06,0.18952372985663435,2.8199639761083972e-06,-0.2905044113862286
841,0.8316,359.747,312.343,0.00097428,336.006,-0.232409,-0.240611,0.1736,0.173708,-0.343511,0.863055,-1.99336e-06,2.42675e-06,0.51501,0.1895796387857871,1.3703911885824587,-1.993358013208102e-06,0.18970812032465423,2.4267529445953784e-06,-0.29072432093095835
842,0.8326,359.829,312.415,0.000970132,336.083,-0.232459,-0.240649,0.173757,0.173863,-0.343822,0.863836,-2.38656e-06,2.03373e-06,0.51548,0.18976641745081801,1.3722431872120695,-2.3865571521231033e-06,0.18989253937541162,2.0337320680852145e-06,-0.290944871369778
843,0.8336,359.91,312.488,0.00096675,336.16,-0.232509,-0.240687,0.173913,0.174017,-0.344132,0.864616,-2.77959e-06,1.64088e-06,0.515949,0.18995203548977102,1.3740942587221343,-2.779586136925083e-06,0.19007579693694554,1.640881346354206e-06,-0.29116464439307466
844,0.8346,359.991,312.561,0.000962827,336.237,-0.232558,-0.240725,0.174069,0.174172,-0.344441,0.865396,-3.17244e-06,1.2482e-06,0.516419,0.1901376824873966,1.3759467746312195,-3.172434967835258e-06,0.19026027298199488,1.2482007789582639e-06,-0.2913836406812882
845,0.8356,360.072,312.633,0.000959321,336.314,-0.232607,-0.240763,0.174225,0.174326,-0.344751,0.866175,-3.56511e-06,8.55709e-07,0.516888,0.19032335844821313,1.3777983582668485,-3.565103644964651e-06,0.190443587178865,8.557093660321868e-07,-0.2916032777071791
846,0.8366,360.153,312.706,0.000955529,336.39,-0.232656,-0.2408,0.174381,0.174481,-0.34506,0.866954,-3.95761e-06,4.63392e-07,0.517356,0.19050906337673879,1.379651384848084,-3.957602168647156e-06,0.1906281202358202,4.633921073526892e-07,-0.2918221384786369
847,0.8376,360.233,312.778,0.000951965,336.467,-0.232706,-0.240838,0.174537,0.174635,-0.34537,0.867733,-4.34994e-06,7.12531e-08,0.517825,0.19069479727749328,1.3815058554994186,-4.349930538993796e-06,0.19081149108552964,7.125310252931172e-08,-0.29204163959127827
848,0.8386,360.314,312.85,0.000948254,336.543,-0.232755,-0.240876,0.174693,0.174789,-0.345679,0.868511,-4.74209e-06,-3.20708e-07,0.518293,0.1908805601549961,1.3833593879856418,-4.742078756336809e-06,0.19099489017652438,-3.207079485312292e-07,-0.2922603649298394
849,0.8396,360.395,312.923,0.00094467,336.62,-0.232803,-0.240913,0.174848,0.174944,-0.345988,0.869288,-5.13406e-06,-7.12492e-07,0.518761,0.19106516094801207,1.3852119778680705,-5.134046820787219e-06,0.19117950869206712,-7.124917461576175e-07,-0.292479022692712
850,0.8406,360.475,312.995,0.000941012,336.696,-0.232852,-0.240951,0.175004,0.175098,-0.346296,0.870066,-5.52586e-06,-1.1041e-06,0.519229,0.19125098160675447,1.3870683948394156,-5.525844732456875e-06,0.1913629644621373,-1.1040993904698482e-06,-0.29269690559803274
851,0.8416,360.556,313.067,0.000937428,336.772,-0.232901,-0.240988,0.17516,0.175252,-0.346605,0.870842,-5.91749e-06,-1.49553e-06,0.519696,0.19143683125578104,1.3889214788174042,-5.9174724916788435e-06,0.19154644848657165,-1.4955288817342094e-06,-0.2929154284906773
852,0.8426,360.636,313.139,0.000933809,336.848,-0.23295,-0.241025,0.175315,0.175406,-0.346913,0.871619,-6.30894e-06,-1.88678e-06,0.520164,0.19162151827750007,1.3907783921238424,-6.308920098674342e-06,0.19172996076972182,-1.8867782199949445e-06,-0.2931331770037098
853,0.8436,360.716,313.211,0.000930234,336.924,-0.232998,-0.241063,0.17547,0.175559,-0.347222,0.872395,-6.70021e-06,-2.27785e-06,0.520631,0.19180623392792606,1.392634356177048,-6.700187553665415e-06,0.1919123094030344,-2.277847405696143e-06,-0.2933515651093156
854,0.8446,360.796,313.282,0.000926647,337.0,-0.233046,-0.2411,0.175626,0.175713,-0.34753,0.87317,-7.09131e-06,-2.66875e-06,0.521097,0.19199217020307136,1.3944893665267486,-7.091284856763913e-06,0.19209587803310413,-2.6687464388386317e-06,-0.29356917931295434
855,0.8456,360.876,313.354,0.000923087,337.076,-0.233095,-0.241137,0.175781,0.175867,-0.347838,0.873945,-7.48224e-06,-3.05947e-06,0.521564,0.1921769433089986,1.396345815066697,-7.482212008080857e-06,0.1922794749349197,-3.059465319865673e-06,-0.2937867265017391
856,0.8466,360.956,313.426,0.000919526,337.152,-0.233143,-0.241174,0.175936,0.17602,-0.348145,0.87472,-7.87299e-06,-3.45001e-06,0.52203,0.19236174505697679,1.3982037029119225,-7.87295900805951e-06,0.19246190765033178,-3.4500040487772665e-06,-0.294003500700161
857,0.8476,361.036,313.497,0.000915985,337.228,-0.233191,-0.241211,0.176091,0.176174,-0.348453,0.875494,-8.26356e-06,-3.84037e-06,0.522496,0.19254657545144616,1.4000606311164883,-8.263525856921916e-06,0.19264556092504903,-3.840362625795457e-06,-0.2942209141385571
858,0.8486,361.116,313.569,0.000912448,337.303,-0.233239,-0.241247,0.176246,0.176327,-0.34876,0.876268,-8.65396e-06,-4.23056e-06,0.522962,0.19273143449684715,1.4019189971398482,-8.65392255455788e-06,0.1928280496559025,-4.230551051143117e-06,-0.29443755506183333
859,0.8496,361.195,313.64,0.000908927,337.379,-0.233287,-0.241284,0.176401,0.176481,-0.349068,0.877042,-9.04419e-06,-4.62057e-06,0.523427,0.19291632219762067,1.4037788020953053,-9.044149101411492e-06,0.1930117593208307,-4.6205593251524846e-06,-0.294654834832072
860,0.8506,361.275,313.711,0.000905413,337.454,-0.233334,-0.241321,0.176556,0.176634,-0.349375,0.877815,-9.43424e-06,-5.0104e-06,0.523892,0.19310123855820915,1.4056376414581795,-9.434195497703968e-06,0.19319430408432492,-5.010387447934583e-06,-0.29487134256214154
861,0.8516,361.354,313.782,0.000901912,337.529,-0.233382,-0.241357,0.17671,0.176787,-0.349682,0.878587,-9.82411e-06,-5.40006e-06,0.524357,0.19328499029746782,1.407495510762665,-9.82406174354633e-06,0.19337687677930493,-5.400045419712285e-06,-0.2950877838345397
862,0.8526,361.434,313.853,0.00089842,337.605,-0.23343,-0.241394,0.176865,0.17694,-0.349988,0.879359,-1.02138e-05,-5.78954e-06,0.524822,0.19346996380604065,1.4093548148960262,-1.0213747839271647e-05,0.1935594774100442,-5.789523240595784e-06,-0.29530345397347224
863,0.8536,361.513,313.924,0.00089494,337.68,-0.233477,-0.24143,0.177019,0.177093,-0.350295,0.880131,-1.06033e-05,-6.17884e-06,0.525287,0.19365377233336,1.411215554966379,-1.0603243785212157e-05,0.19374210598081731,-6.17882091102917e-06,-0.29551976260802804
864,0.8546,361.592,313.995,0.00089147,337.755,-0.233524,-0.241467,0.177174,0.177246,-0.350601,0.880903,-1.09927e-05,-6.56796e-06,0.525751,0.1938388030075786,1.413077732082694,-1.0992639580487129e-05,0.19392476249589952,-6.567938431012443e-06,-0.2957353005816782
865,0.8556,361.671,314.066,0.000888011,337.83,-0.233572,-0.241503,0.177328,0.177399,-0.350908,0.881673,-1.13819e-05,-6.95691e-06,0.526215,0.19402266834050885,1.414936517476935,-1.1381835226420556e-05,0.1941074469595665,-6.956885800768475e-06,-0.2959514766596737
866,0.8566,361.75,314.137,0.000884562,337.905,-0.233619,-0.241539,0.177482,0.177551,-0.351214,0.882444,-1.17709e-05,-7.34568e-06,0.526679,0.19420656199088104,1.4167991514850509,-1.1770830723234482e-05,0.19428896508653248,-7.345653020518483e-06,-0.296166882549034
867,0.8576,361.829,314.208,0.000881124,337.979,-0.233666,-0.241575,0.177637,0.177704,-0.35152,0.883214,-1.21597e-05,-7.73427e-06,0.527142,0.19439167835413707,1.41866080347573,-1.2159626071150953e-05,0.19447170527745894,-7.734240090595534e-06,-0.29638222253427593
868,0.8586,361.908,314.278,0.000877696,338.054,-0.233713,-0.241611,0.177791,0.177857,-0.351825,0.883984,-1.25483e-05,-8.12269e-06,0.527605,0.19457562883642732,1.42052388949047,-1.2548221270392013e-05,0.1946544734297735,-8.122657011000456e-06,-0.29659679323270816
869,0.8596,361.986,314.349,0.000874279,338.129,-0.233759,-0.241647,0.177945,0.178009,-0.352131,0.884753,-1.29368e-05,-8.51093e-06,0.528068,0.19475960764927303,1.4223859882466954,-1.2936716319966735e-05,0.19483607471108244,-8.51089378217651e-06,-0.29681200168540645
870,0.8606,362.065,314.419,0.000870872,338.203,-0.233806,-0.241683,0.178099,0.178161,-0.352436,0.885522,-1.33251e-05,-8.89899e-06,0.528531,0.1949436147970378,1.4242495195075922,-1.3325011221199112e-05,0.19501770359788417,-8.898950404123696e-06,-0.2970264413211855
871,0.8616,362.144,314.49,0.000867475,338.278,-0.233853,-0.241719,0.178253,0.178314,-0.352742,0.88629,-1.37133e-05,-9.28688e-06,0.528994,0.1951276502840853,1.426112058261908,-1.371320597309822e-05,0.19520055529433278,-9.286836877064886e-06,-0.2972415183216819
872,0.8626,362.222,314.56,0.000864089,338.352,-0.233899,-0.241755,0.178406,0.178466,-0.353047,0.887059,-1.41012e-05,-9.67459e-06,0.529456,0.19531051880366368,1.4279784559726552,-1.4101100578534087e-05,0.195382239586394,-9.67454320133232e-06,-0.29745582697486284
873,0.8636,362.3,314.63,0.000860713,338.426,-0.233946,-0.24179,0.17856,0.178618,-0.353352,0.887826,-1.4489e-05,-1.00621e-05,0.529918,0.19549461079827934,1.4298414298075208,-1.4488895034969751e-05,0.19556395149656636,-1.006204937725741e-05,-0.2976700702738716
874,0.8646,362.379,314.7,0.000857347,338.5,-0.233992,-0.241826,0.178714,0.17877,-0.353657,0.888593,-1.48766e-05,-1.04495e-05,0.53038,0.19567873114524503,1.431705833091442,-1.4876489343951249e-05,0.19574569102904849,-1.0449445404181468e-05,-0.2978842482386381
875,0.8656,362.457,314.77,0.000853992,338.575,-0.234038,-0.241861,0.178867,0.178922,-0.353961,0.88936,-1.5264e-05,-1.08367e-05,0.530841,0.19586168398664583,1.4335716669212264,-1.5263883505700626e-05,0.19592745818803903,-1.0836641283207271e-05,-0.2980976589870963
876,0.8666,362.535,314.84,0.000850646,338.649,-0.234084,-0.241897,0.179021,0.179074,-0.354266,0.890127,-1.56513e-05,-1.12237e-05,0.531302,0.19604586086723552,1.435438932394523,-1.565117751900491e-05,0.1961092529777375,-1.1223637014556864e-05,-0.2983117065571914
877,0.8676,362.613,314.91,0.000847311,338.722,-0.23413,-0.241932,0.179174,0.179226,-0.35457,0.890893,-1.60384e-05,-1.16105e-05,0.531763,0.19622886988378085,1.4373051933034118,-1.6038271385521163e-05,0.19629107540234436,-1.1610432598452292e-05,-0.29852498737807076
878,0.8686,362.691,314.98,0.000843986,338.796,-0.234176,-0.241967,0.179327,0.179378,-0.354874,0.891658,-1.64253e-05,-1.19971e-05,0.532224,0.19641190690284804,1.439170445144152,-1.642516510547143e-05,0.1964729254660602,-1.1997028035115598e-05,-0.29873820337143475
879,0.8696,362.768,315.05,0.000840671,338.87,-0.234222,-0.242003,0.17948,0.179529,-0.355178,0.892424,-1.6812e-05,-1.23836e-05,0.532685,0.19659497192872166,1.4410395654868307,-1.681185867907775e-05,0.19665360651888175,-1.2383523323555856e-05,-0.29895135455698807
880,0.8706,362.846,315.119,0.000837366,338.944,-0.234268,-0.242038,0.179633,0.179681,-0.355482,0.893188,-1.71986e-05,-1.27699e-05,0.533145,0.19677806496568673,1.4429052323088398,-1.7198452104905115e-05,0.19683551169151547,-1.2769818465208083e-05,-0.2991644409544293
881,0.8716,362.924,315.189,0.000834072,339.017,-0.234313,-0.242073,0.179786,0.179832,-0.355785,0.893953,-1.7585e-05,-1.3156e-05,0.533605,0.1969611860180298,1.4447747698184785,-1.7584845384832626e-05,0.19701624749899094,-1.31559134601833e-05,-0.2993767619605633
882,0.8726,363.001,315.258,0.000830787,339.091,-0.234359,-0.242108,0.179939,0.179984,-0.356089,0.894717,-1.79712e-05,-1.3542e-05,0.534065,0.19714433509003726,1.4466432914269869,-1.7971038518971305e-05,0.19719820779724317,-1.354190830749058e-05,-0.29958971905380904
883,0.8736,363.079,315.328,0.000827512,339.164,-0.234404,-0.242143,0.180092,0.180135,-0.356392,0.89548,-1.83572e-05,-1.39278e-05,0.534524,0.19732751218599653,1.4485107926194507,-1.835703150765422e-05,0.19737899837596573,-1.3927703008675962e-05,-0.29980191122019906
884,0.8746,363.156,315.397,0.000824247,339.238,-0.23445,-0.242178,0.180245,0.180286,-0.356695,0.896243,-1.87431e-05,-1.43134e-05,0.534984,0.19751071731019576,1.4503797192590628,-1.874292434922431e-05,0.19755981625612695,-1.4313297563739447e-05,-0.30001403910210234
885,0.8756,363.233,315.466,0.000820992,339.311,-0.234495,-0.242212,0.180398,0.180438,-0.356998,0.897006,-1.91288e-05,-1.46988e-05,0.535443,0.19769395046692328,1.4522500724338552,-1.9128617045671703e-05,0.19774185918310971,-1.4698691973125122e-05,-0.30022610271899397
886,0.8766,363.31,315.536,0.000817746,339.384,-0.23454,-0.242247,0.18055,0.180589,-0.357301,0.897769,-1.95143e-05,-1.5084e-05,0.535901,0.19787601378385578,1.4541218532326896,-1.9514109597329465e-05,0.1979227318593899,-1.5083886237055033e-05,-0.3004381020903434
887,0.8776,363.388,315.605,0.000814511,339.457,-0.234585,-0.242282,0.180703,0.18074,-0.357604,0.89853,-1.98997e-05,-1.54691e-05,0.53636,0.19805930283521955,1.4559901507600448,-1.9899502002318492e-05,0.1981036318495062,-1.5468980354094164e-05,-0.300650037235614
888,0.8786,363.465,315.674,0.000811285,339.53,-0.23463,-0.242316,0.180855,0.180891,-0.357906,0.899292,-2.02848e-05,-1.5854e-05,0.536818,0.19824142168993286,1.45786232846404,-2.0284594264841083e-05,0.19828455915758347,-1.5853874326010597e-05,-0.30086120903582214
889,0.8796,363.542,315.743,0.000808069,339.603,-0.234675,-0.242351,0.181008,0.181041,-0.358208,0.900053,-2.06698e-05,-1.62387e-05,0.537276,0.19842476665298348,1.4597334735764145,-2.0669586381139027e-05,0.19846431532283249,-1.6238568153026378e-05,-0.3010723170717754
890,0.8806,363.618,315.811,0.000804863,339.676,-0.23472,-0.242385,0.18116,0.181192,-0.358511,0.900814,-2.10546e-05,-1.66232e-05,0.537734,0.19860694106241894,1.461606043172167,-2.1054378353424497e-05,0.1986452970982262,-1.662306183536355e-05,-0.3012840600790171
891,0.8816,363.695,315.88,0.000801667,339.749,-0.234764,-0.242419,0.181312,0.181343,-0.358813,0.901574,-2.14393e-05,-1.70076e-05,0.538192,0.1987891431644695,1.463477574856935,-2.1439070179818387e-05,0.1988263062039317,-1.70074553715871e-05,-0.30149504043323616
892,0.8826,363.772,315.949,0.00079848,339.821,-0.234809,-0.242454,0.181464,0.181493,-0.359114,0.902334,-2.18238e-05,-1.73918e-05,0.538649,0.19897137296334422,1.4653505294464186,-2.1823561862643892e-05,0.1990061436373325,-1.739164876357613e-05,-0.30170525878661636
893,0.8836,363.848,316.018,0.000795303,339.894,-0.234853,-0.242488,0.181616,0.181644,-0.359416,0.903094,-2.22081e-05,-1.77758e-05,0.539106,0.19915363046325374,1.4672249080224367,-2.2207853402012034e-05,0.1991872072349794,-1.777564201144166e-05,-0.30191611195803136
894,0.8846,363.925,316.086,0.000792135,339.966,-0.234898,-0.242522,0.181768,0.181794,-0.359718,0.903853,-2.25922e-05,-1.81596e-05,0.539563,0.19933591566840891,1.4690982425681534,-2.259194479814486e-05,0.1993670988075953,-1.8159435115516764e-05,-0.302126901461403
895,0.8856,364.001,316.155,0.000788977,340.039,-0.234942,-0.242556,0.18192,0.181945,-0.360019,0.904612,-2.29762e-05,-1.85433e-05,0.54002,0.19951822858302104,1.4709729995145224,-2.297593604916326e-05,0.19954821691358804,-1.8543128074033355e-05,-0.30233692965323444
896,0.8866,364.077,316.223,0.000785829,340.111,-0.234986,-0.24259,0.182072,0.182095,-0.36032,0.90537,-2.336e-05,-1.89268e-05,0.540476,0.1997005692113023,1.4728467070936135,-2.335972715727941e-05,0.19972816264171733,-1.8926620889203605e-05,-0.30254689463609374
897,0.8876,364.154,316.291,0.00078269,340.183,-0.23503,-0.242624,0.182224,0.182245,-0.360621,0.906128,-2.37436e-05,-1.93101e-05,0.540932,0.19988293755746556,1.4747218354814677,-2.3743318122937396e-05,0.19990813536373042,-1.930991356124956e-05,-0.30275679642900366
898,0.8886,364.23,316.359,0.00077956,340.256,-0.235074,-0.242658,0.182375,0.182395,-0.360922,0.906885,-2.4127e-05,-1.96932e-05,0.541388,0.20006413356099073,1.4765959091583194,-2.4126708946248243e-05,0.2000881350836763,-1.9693006090171217e-05,-0.30296663505098165
899,0.8896,364.306,316.428,0.00077644,340.328,-0.235118,-0.242691,0.182527,0.182545,-0.361223,0.907642,-2.45103e-05,-2.00762e-05,0.541844,0.20024655717313533,1.4784714020460474,-2.450999962499978e-05,0.20026816180560547,-2.007599847442254e-05,-0.30317641052103916
900,0.8906,364.382,316.496,0.000773329,340.4,-0.235162,-0.242725,0.182678,0.182695,-0.361523,0.908399,-2.48934e-05,-2.0459e-05,0.542299,0.20042780808736804,1.480348315219402,-2.4893090161848264e-05,0.20044821553356829,-2.045879071610468e-05,-0.3033854262439568
901,0.8916,364.458,316.564,0.000770228,340.472,-0.235206,-0.242759,0.18283,0.182845,-0.361824,0.909155,-2.52763e-05,-2.08416e-05,0.542755,0.20061028698224193,1.4822241675285381,-2.5275980557015743e-05,0.20062829627161616,-2.0841382815328657e-05,-0.30359507567683486
902,0.8926,364.533,316.632,0.000767136,340.543,-0.23525,-0.242792,0.182981,0.182995,-0.362124,0.909911,-2.5659e-05,-2.12241e-05,0.54321,0.20079159282382286,1.4841014385182127,-2.565867081072426e-05,0.2008084040238005,-2.1223874770437412e-05,-0.3038039658190438
903,0.8936,364.609,316.699,0.000764053,340.615,-0.235293,-0.242826,0.183132,0.183145,-0.362424,0.910667,-2.60416e-05,-2.16063e-05,0.543664,0.2009729260446529,1.485980129261355,-2.6041260920428577e-05,0.2009885387941741,-2.1606066585633243e-05,-0.3040127933036092
904,0.8946,364.685,316.767,0.00076098,340.687,-0.235337,-0.242859,0.183283,0.183294,-0.362724,0.911422,-2.6424e-05,-2.19884e-05,0.544119,0.2011542866488667,1.4878577529727073,-2.6423650889229044e-05,0.20116749941868983,-2.1988158256935897e-05,-0.3042215581493255
905,0.8956,364.76,316.835,0.000757916,340.759,-0.23538,-0.242892,0.183434,0.183444,-0.363024,0.912177,-2.68062e-05,-2.23703e-05,0.544573,0.20133567464059943,1.4897367948252431,-2.680584071701464e-05,0.20134768805741277,-2.2370049786668567e-05,-0.30443026037498166
906,0.8966,364.836,316.903,0.000754861,340.83,-0.235423,-0.242926,0.183585,0.183593,-0.363323,0.912931,-2.71883e-05,-2.27521e-05,0.545027,0.20151709002398688,1.4916147642740523,-2.718793040157319e-05,0.2015267021991558,-2.2751841172952147e-05,-0.304638204637913
907,0.8976,364.911,316.97,0.000751815,340.902,-0.235466,-0.242959,0.183736,0.183743,-0.363623,0.913685,-2.75702e-05,-2.31336e-05,0.545481,0.20169853280316552,1.4934941502457875,-2.7569819945560958e-05,0.20170694472233675,-2.3133332420322006e-05,-0.30484678188836967
908,0.8986,364.986,317.038,0.000748779,340.973,-0.23551,-0.242992,0.183887,0.183892,-0.363922,0.914439,-2.79519e-05,-2.3515e-05,0.545934,0.2018800029822725,1.4953749538089105,-2.795150934931101e-05,0.20188601239731097,-2.3514723524575842e-05,-0.30505460162998543
909,0.8996,365.062,317.105,0.000745751,341.044,-0.235553,-0.243025,0.184038,0.184041,-0.364221,0.915192,-2.83334e-05,-2.38962e-05,0.546388,0.20206150056544558,1.4972546787767609,-2.833299861304539e-05,0.2020651067553565,-2.389591448803685e-05,-0.3052623592427872
910,0.9006,365.137,317.172,0.000742733,341.115,-0.235595,-0.243058,0.184189,0.184191,-0.36452,0.915945,-2.87148e-05,-2.42773e-05,0.546841,0.20224302555682283,1.4991358197105558,-2.8714387734107838e-05,0.2022454300452785,-2.4277005308714905e-05,-0.3054700547453486
911,0.9016,365.212,317.24,0.000739724,341.187,-0.235638,-0.243091,0.184339,0.18434,-0.364819,0.916697,-2.9096e-05,-2.46581e-05,0.547293,0.20242337553656675,1.501015876659793,-2.909557671548768e-05,0.20242457796054336,-2.465779599158946e-05,-0.30567768815623797
912,0.9026,365.287,317.307,0.000736724,341.258,-0.235681,-0.243124,0.18449,0.184489,-0.365117,0.917449,-2.9477e-05,-2.50388e-05,0.547746,0.2026049551751905,1.5028973479435788,-2.9476565557517986e-05,0.20260375257083663,-2.5038486531903104e-05,-0.3058845653789303
913,0.9036,365.361,317.374,0.000733732,341.329,-0.235724,-0.243157,0.18464,0.184638,-0.365416,0.9182,-2.98578e-05,-2.54193e-05,0.548198,0.202785359448449,1.5047777298469112,-2.9857354260309776e-05,0.20278295388013556,-2.54189769323121e-05,-0.30609207486966705
914,0.9046,365.436,317.441,0.00073075,341.4,-0.235766,-0.24319,0.18479,0.184786,-0.365714,0.918952,-3.02385e-05,-2.57997e-05,0.54865,0.20296579078437804,1.506662031108232,-3.023804282120679e-05,0.20296097893083864,-2.5799367190604272e-05,-0.30629882862351654
915,0.9056,365.511,317.508,0.000727777,341.47,-0.235809,-0.243222,0.184941,0.184935,-0.366012,0.919702,-3.0619e-05,-2.61799e-05,0.549102,0.2031474523338883,1.508542732806542,-3.0618531243198355e-05,0.203140233470831,-2.6179557309435886e-05,-0.3065055207739268
916,0.9066,365.586,317.575,0.000724812,341.541,-0.235851,-0.243255,0.185091,0.185084,-0.366311,0.920453,-3.09994e-05,-2.65599e-05,0.549554,0.20332793798782411,1.5104273559863062,-3.099891952351719e-05,0.2033195147217397,-2.6559547289028984e-05,-0.30671284462675474
917,0.9076,365.66,317.641,0.000721857,341.612,-0.235894,-0.243287,0.185241,0.185233,-0.366608,0.921203,-3.13795e-05,-2.69397e-05,0.550005,0.20350845071663848,1.512310882737537,-3.1379007668586034e-05,0.20349882268754493,-2.693933712949459e-05,-0.3069187203378442
918,0.9086,365.734,317.708,0.00071891,341.682,-0.235936,-0.24332,0.185391,0.185381,-0.366906,0.921952,-3.17595e-05,-2.73193e-05,0.550456,0.20368899052439304,1.5141933084691406,-3.175899567242624e-05,0.2036769536946721,-2.731892683127679e-05,-0.3071252277880452
919,0.9096,365.809,317.775,0.000715973,341.753,-0.235978,-0.243352,0.185541,0.185529,-0.367204,0.922702,-3.21393e-05,-2.76988e-05,0.550907,0.2038695574151499,1.516079660744173,-3.213878353824917e-05,0.20385511106713916,-2.769841639183035e-05,-0.3073316737081945
920,0.9106,365.883,317.841,0.000713044,341.823,-0.23602,-0.243385,0.185691,0.185678,-0.367501,0.92345,-3.2519e-05,-2.80781e-05,0.551358,0.204050151392972,1.51796239238426,-3.251847126306551e-05,0.2040344988427456,-2.8077705813811527e-05,-0.3075373656543372
921,0.9116,365.957,317.908,0.000710123,341.894,-0.236062,-0.243417,0.185841,0.185826,-0.367798,0.924199,-3.28984e-05,-2.84572e-05,0.551808,0.20423077246192234,1.5198490526822357,-3.2897858853520034e-05,0.2042127091358108,-2.8456795097775434e-05,-0.3077429965190429
922,0.9126,366.031,317.974,0.000707212,341.964,-0.236104,-0.243449,0.18599,0.185974,-0.368095,0.924947,-3.32777e-05,-2.88362e-05,0.552259,0.2044102162152468,1.5217346048822504,-3.3277146303523075e-05,0.20439094580595096,-2.8835784240732742e-05,-0.3079485663204501
923,0.9136,366.105,318.041,0.000704309,342.034,-0.236146,-0.243481,0.18614,0.186123,-0.368392,0.925695,-3.36569e-05,-2.9215e-05,0.552709,0.20459089129797148,1.5236215680029295,-3.3656333612852585e-05,0.20457041342688198,-2.9214573246005848e-05,-0.308154075076692
924,0.9146,366.179,318.107,0.000701415,342.104,-0.236187,-0.243514,0.18629,0.186271,-0.368689,0.926442,-3.40358e-05,-2.95936e-05,0.553158,0.20477159348399132,1.525507417591355,-3.4035220788708465e-05,0.20474870304117498,-2.9593162113705773e-05,-0.3083595228058962
925,0.9156,366.253,318.173,0.00069853,342.174,-0.236229,-0.243546,0.186439,0.186419,-0.368986,0.927189,-3.44146e-05,-2.9972e-05,0.553608,0.20495111782565179,1.5273946764357156,-3.4414007824445925e-05,0.204927019044284,-2.9971550844054562e-05,-0.3085649095261852
926,0.9166,366.327,318.239,0.000695653,342.244,-0.236271,-0.243578,0.186589,0.186566,-0.369282,0.927935,-3.47932e-05,-3.03503e-05,0.554057,0.20513187404970346,1.5292808163070362,-3.4792594723609405e-05,0.20510415633535528,-3.034983943428493e-05,-0.30876954402556545
927,0.9176,366.401,318.305,0.000692785,342.314,-0.236312,-0.243609,0.186738,0.186714,-0.369578,0.928681,-3.51717e-05,-3.07284e-05,0.554506,0.20531145207716772,1.531168363763665,-3.517108148298753e-05,0.20528252494944477,-3.072792788749723e-05,-0.3089741179620976
928,0.9186,366.474,318.371,0.000689925,342.384,-0.236354,-0.243641,0.186887,0.186862,-0.369875,0.929427,-3.555e-05,-3.11063e-05,0.554955,0.20549105686375158,1.5330573198560522,-3.554936810623577e-05,0.2054609199640427,-3.110581620402453e-05,-0.3091793221747289
929,0.9196,366.548,318.437,0.000687074,342.454,-0.236395,-0.243673,0.187036,0.18701,-0.37017,0.930172,-3.59281e-05,-3.1484e-05,0.555404,0.2056706884134425,1.5349451506890142,-3.592745459357616e-05,0.20563934138305684,-3.148350438408887e-05,-0.3093830842183082
930,0.9206,366.621,318.503,0.000684232,342.523,-0.236436,-0.243705,0.187185,0.187157,-0.370466,0.930917,-3.6306e-05,-3.18616e-05,0.555852,0.20585034673022817,1.5368343884799733,-3.6305340945119724e-05,0.20581658339320863,-3.18610924245899e-05,-0.3095874765738186
931,0.9216,366.695,318.569,0.000681398,342.593,-0.236477,-0.243737,0.187334,0.187305,-0.370762,0.931662,-3.66837e-05,-3.2239e-05,0.5563,0.20603003181809765,1.5387250342775043,-3.6683027161310555e-05,0.20599505745430569,-3.223848032907206e-05,-0.3097918084381449
932,0.9226,366.768,318.635,0.000678572,342.662,-0.236518,-0.243768,0.187483,0.187452,-0.371058,0.932406,-3.70613e-05,-3.26162e-05,0.556748,0.20620974368103995,1.5406145485151437,-3.706061323849319e-05,0.20617235175856363,-3.2615668097535355e-05,-0.30999607982919
933,0.9236,366.841,318.7,0.000675755,342.732,-0.236559,-0.2438,0.187632,0.1876,-0.371353,0.93315,-3.74387e-05,-3.29933e-05,0.557196,0.20638948232304455,1.5425054690744626,-3.7437999180656156e-05,0.20635087847727518,-3.2992755727101475e-05,-0.3101996009647968
934,0.9246,366.914,318.766,0.000672947,342.801,-0.2366,-0.243831,0.187781,0.187747,-0.371648,0.933893,-3.7816e-05,-3.33702e-05,0.557643,0.20656924774810226,1.544395252605629,-3.781528498403297e-05,0.20652822509106805,-3.3369643221092815e-05,-0.3104030620705236
935,0.9256,366.988,318.831,0.000670146,342.87,-0.236641,-0.243863,0.18793,0.187894,-0.371943,0.934636,-3.81931e-05,-3.37469e-05,0.55809,0.20674903996020388,1.546286440767715,-3.819237065283421e-05,0.20670559777672937,-3.374633057973142e-05,-0.3106064631640765
936,0.9266,367.061,318.897,0.000667354,342.94,-0.236682,-0.243894,0.188078,0.188041,-0.372238,0.935379,-3.857e-05,-3.41234e-05,0.558537,0.20692765203508556,1.5481790346047486,-3.8569256187059864e-05,0.20688299653809206,-3.412281780346138e-05,-0.3108098042631563
937,0.9276,367.133,318.962,0.000664571,343.009,-0.236723,-0.243925,0.188227,0.188188,-0.372533,0.936121,-3.89467e-05,-3.44998e-05,0.558984,0.20710749765340464,1.5500704850897749,-3.894594158715403e-05,0.2070604213789895,-3.4499204888738255e-05,-0.3110130853854589
938,0.9286,367.206,319.027,0.000661796,343.078,-0.236763,-0.243957,0.188375,0.188335,-0.372827,0.936863,-3.93233e-05,-3.48759e-05,0.55943,0.20728616278395084,1.5519633395518722,-3.932252684912818e-05,0.20723787230325552,-3.487529184287297e-05,-0.311215617764637
939,0.9296,367.279,319.093,0.000659029,343.147,-0.236804,-0.243988,0.188524,0.188482,-0.373122,0.937604,-3.96997e-05,-3.5252e-05,0.559877,0.20746606182435134,1.553855045176856,-3.969891197730391e-05,0.20741534931472483,-3.525137865556527e-05,-0.3114187791896129
940,0.9306,367.352,319.158,0.00065627,343.216,-0.236844,-0.244019,0.188672,0.188629,-0.373416,0.938345,-4.00759e-05,-3.56278e-05,0.560323,0.20764478002632214,1.5557481530751858,-4.0075096971792235e-05,0.20759285241723258,-3.5627165337448474e-05,-0.3116211923123442
941,0.9316,367.424,319.223,0.000653519,343.285,-0.236885,-0.24405,0.18882,0.188776,-0.37371,0.939086,-4.04519e-05,-3.60035e-05,0.560768,0.2078235246805442,1.5576426642863317,-4.045108183292623e-05,0.20777038161461414,-3.600285188176677e-05,-0.31182354593436434
942,0.9326,367.497,319.288,0.000650777,343.353,-0.236925,-0.244081,0.188968,0.188922,-0.374004,0.939826,-4.08278e-05,-3.6379e-05,0.561214,0.20800229579093266,1.5595360203132334,-4.082696655671736e-05,0.20794672896337318,-3.637833829217563e-05,-0.31202584007316414
943,0.9336,367.569,319.353,0.000648043,343.422,-0.236965,-0.244112,0.189116,0.189069,-0.374298,0.940566,-4.12035e-05,-3.67543e-05,0.561659,0.20818109336140367,1.5614307779421237,-4.1202651147487224e-05,0.20812431018443078,-3.67536245690081e-05,-0.31222807474622893
944,0.9346,367.642,319.418,0.000645317,343.491,-0.237005,-0.244143,0.189264,0.189216,-0.374592,0.941306,-4.15791e-05,-3.71295e-05,0.562104,0.20835991739587323,1.563326938210572,-4.157823560124729e-05,0.20830191751184657,-3.712881070860874e-05,-0.3124302499710392
945,0.9356,367.714,319.482,0.000642599,343.559,-0.237045,-0.244174,0.189412,0.189362,-0.374885,0.942045,-4.19544e-05,-3.75045e-05,0.562549,0.20853876789825865,1.5652219369336966,-4.1953519926418714e-05,0.2084783424705119,-3.750379671507709e-05,-0.31263167839709227
946,0.9366,367.786,319.547,0.000639889,343.628,-0.237085,-0.244205,0.18956,0.189508,-0.375179,0.942784,-4.23297e-05,-3.78793e-05,0.562994,0.20871764487247702,1.5671183365784538,-4.232880411092488e-05,0.20865479318910163,-3.7878582588413146e-05,-0.31283373497987044
947,0.9376,367.858,319.612,0.000637187,343.696,-0.237125,-0.244235,0.189708,0.189655,-0.375472,0.943522,-4.27047e-05,-3.82539e-05,0.563438,0.20889654832244697,1.5690135691656542,-4.270378816728648e-05,0.20883247850325115,-3.825316832894998e-05,-0.31303504520213354
948,0.9386,367.93,319.676,0.000634494,343.764,-0.237165,-0.244266,0.189856,0.189801,-0.375765,0.94426,-4.30795e-05,-3.86284e-05,0.563883,0.20907547825208694,1.570910200950745,-4.307857209162602e-05,0.20900898092947617,-3.862765393292111e-05,-0.31323629644914197
949,0.9396,368.002,319.741,0.000631808,343.832,-0.237205,-0.244297,0.190003,0.189947,-0.376058,0.944998,-4.34542e-05,-3.90027e-05,0.564327,0.20925322541148605,1.5728082329667146,-4.3453255879954966e-05,0.20918550912693679,-3.900193940453711e-05,-0.31343748873817256
950,0.9406,368.074,319.805,0.00062913,343.901,-0.237244,-0.244327,0.190151,0.190093,-0.376351,0.945735,-4.38288e-05,-3.93768e-05,0.56477,0.2094322081332416,1.574705091540936,-4.3827839532162294e-05,0.20936206309939553,-3.937602474402002e-05,-0.31363862208649784
951,0.9416,368.146,319.87,0.00062646,343.969,-0.237284,-0.244358,0.190298,0.190239,-0.376643,0.946472,-4.42031e-05,-3.97508e-05,0.565214,0.20961000773578786,1.5766033486152105,-4.4202123057335285e-05,0.2095386428506163,-3.9750009947381315e-05,-0.31383901035073825
952,0.9426,368.218,319.934,0.000623799,344.037,-0.237324,-0.244388,0.190446,0.190385,-0.376936,0.947209,-4.45773e-05,-4.01245e-05,0.565657,0.20978904326523518,1.5785030052206128,-4.457630644694177e-05,0.20971524838436273,-4.012369502304214e-05,-0.31404002607046444
953,0.9436,368.289,319.998,0.000621145,344.105,-0.237363,-0.244419,0.190593,0.190531,-0.377228,0.947945,-4.49513e-05,-4.04982e-05,0.5661,0.20996689532640134,1.5804014819862053,-4.495028970541437e-05,0.20989187970439938,-4.049737995892588e-05,-0.3142402971418524
954,0.9446,368.361,320.062,0.000618499,344.173,-0.237402,-0.244449,0.19074,0.190676,-0.37752,0.948681,-4.53252e-05,-4.08716e-05,0.566543,0.21014477353374228,1.5823013565450221,-4.532417282865353e-05,0.2100673267465598,-4.087076476755325e-05,-0.3144405097426247
955,0.9456,368.432,320.127,0.00061586,344.24,-0.237442,-0.244479,0.190887,0.190822,-0.377812,0.949416,-4.56988e-05,-4.12449e-05,0.566986,0.2103226778911016,1.5842000457248795,-4.569775582574653e-05,0.21024400947378985,-4.124404944083615e-05,-0.31464066388985223
956,0.9466,368.504,320.191,0.00061323,344.308,-0.237481,-0.24451,0.191034,0.190968,-0.378104,0.950151,-4.60723e-05,-4.1618e-05,0.567428,0.21050060840232376,1.5861001309542697,-4.6071238687939164e-05,0.21042071799858153,-4.161713398309619e-05,-0.3148407596006009
957,0.9476,368.575,320.255,0.000610608,344.376,-0.23752,-0.24454,0.191181,0.191113,-0.378396,0.950886,-4.64457e-05,-4.19909e-05,0.56787,0.2106785650712537,1.588001613259666,-4.64446214151204e-05,0.21059624172785418,-4.1990018394444384e-05,-0.31504079689193165
958,0.9486,368.646,320.318,0.000607993,344.443,-0.237559,-0.24457,0.191328,0.191259,-0.378687,0.95162,-4.68188e-05,-4.23637e-05,0.568312,0.21085654790173658,1.589901903765098,-4.681770401704366e-05,0.21077300168230906,-4.236280267111425e-05,-0.3152400910213339
959,0.9496,368.717,320.382,0.000605386,344.511,-0.237598,-0.2446,0.191475,0.191404,-0.378979,0.952354,-4.71918e-05,-4.27363e-05,0.568754,0.21103455689761885,1.591803589595783,-4.7190686484510636e-05,0.2109485764964194,-4.273538681731637e-05,-0.31544001172491243
960,0.9506,368.789,320.446,0.000602787,344.578,-0.237637,-0.24463,0.191622,0.191549,-0.37927,0.953088,-4.75647e-05,-4.31087e-05,0.569195,0.21121259206274678,1.593706671776265,-4.756356881763235e-05,0.2111241767707237,-4.3107770833383796e-05,-0.3156391896996996
961,0.9516,368.86,320.51,0.000600195,344.646,-0.237676,-0.24466,0.191769,0.191695,-0.379561,0.953821,-4.79373e-05,-4.34809e-05,0.569636,0.21139065340096774,1.595608555721988,-4.793615102594018e-05,0.21130101380932187,-4.347995471931654e-05,-0.31583830972212856
962,0.9526,368.931,320.573,0.000597611,344.713,-0.237715,-0.24469,0.191915,0.19184,-0.379852,0.954553,-4.83098e-05,-4.3853e-05,0.570077,0.21156752934799417,1.597509236749163,-4.8308633100457854e-05,0.2114766651907416,-4.385203847123709e-05,-0.3160373718090611
963,0.9536,369.001,320.637,0.000595035,344.78,-0.237754,-0.24472,0.192062,0.191985,-0.380143,0.955286,-4.86821e-05,-4.42249e-05,0.570518,0.2117456428658313,1.599413908996799,-4.8680915045840045e-05,0.2116523420434584,-4.422392209357806e-05,-0.31623637597735377
964,0.9546,369.072,320.7,0.000592466,344.847,-0.237792,-0.24475,0.192208,0.19213,-0.380434,0.956018,-4.90543e-05,-4.45966e-05,0.570959,0.21192257064510334,1.6013173765623199,-4.905309685754311e-05,0.21182804437116554,-4.459560558645048e-05,-0.31643532224385873
965,0.9556,369.143,320.764,0.000589905,344.914,-0.237831,-0.244779,0.192355,0.192275,-0.380724,0.956749,-4.94263e-05,-4.49682e-05,0.571399,0.2121007363578471,1.6032196347552485,-4.942507854055478e-05,0.2120037721775574,-4.496718894564378e-05,-0.3166335272592917
966,0.9566,369.214,320.827,0.000587352,344.981,-0.237869,-0.244809,0.192501,0.19242,-0.381014,0.957481,-4.97981e-05,-4.53396e-05,0.571839,0.2122777159845537,1.6051258891318736,-4.979686009520812e-05,0.2121795254663288,-4.533857217592363e-05,-0.31683167480360386
967,0.9576,369.284,320.89,0.000584806,345.048,-0.237908,-0.244839,0.192647,0.192564,-0.381305,0.958212,-5.01697e-05,-4.57108e-05,0.572279,0.21245472145217215,1.6070309323652987,-5.016844152161415e-05,0.21235409188647636,-4.570975527729004e-05,-0.3170304478633531
968,0.9586,369.355,320.954,0.000582268,345.115,-0.237946,-0.244868,0.192793,0.192709,-0.381595,0.958942,-5.05412e-05,-4.60819e-05,0.572719,0.21263175276447566,1.608934759758378,-5.053992281511821e-05,0.21252989597528837,-4.608083824553244e-05,-0.31722848031737905
969,0.9596,369.425,321.017,0.000579737,345.182,-0.237985,-0.244898,0.19294,0.192854,-0.381885,0.959672,-5.09125e-05,-4.64528e-05,0.573158,0.21281002273465366,1.6108399774528528,-5.091120398070803e-05,0.21270572555754153,-4.645172108541651e-05,-0.31742645535031977
970,0.9606,369.496,321.08,0.000577214,345.249,-0.238023,-0.244928,0.193086,0.192998,-0.382174,0.960402,-5.12837e-05,-4.68235e-05,0.573598,0.21298710592473125,1.612746586464013,-5.1282385013506904e-05,0.2128803677559583,-4.682240379705327e-05,-0.3176236906028568
971,0.9616,369.566,321.143,0.000574698,345.315,-0.238061,-0.244957,0.193231,0.193143,-0.382464,0.961132,-5.16546e-05,-4.7194e-05,0.574037,0.2131630018072337,1.614654587807891,-5.165326592415642e-05,0.213056248160304,-4.719288638066477e-05,-0.3178215510414316
972,0.9626,369.636,321.206,0.00057219,345.382,-0.238099,-0.244986,0.193377,0.193287,-0.382754,0.961861,-5.20255e-05,-4.75644e-05,0.574475,0.21334013653601813,1.616561365938587,-5.2024146697138285e-05,0.21323094083761007,-4.7563268831818384e-05,-0.31801935410879856
973,0.9636,369.706,321.269,0.000569689,345.448,-0.238137,-0.245016,0.193523,0.193432,-0.383043,0.962589,-5.23961e-05,-4.79346e-05,0.574914,0.21351729712836098,1.6184669161491074,-5.239472734830386e-05,0.2134068720787381,-4.793345115539083e-05,-0.31821641803835177
974,0.9646,369.776,321.332,0.000567195,345.515,-0.238175,-0.245045,0.193669,0.193576,-0.383332,0.963318,-5.27666e-05,-4.83047e-05,0.575352,0.21369448358803855,1.6203764744804237,-5.2765207867455644e-05,0.2135816152495238,-4.8303533346727434e-05,-0.31841342502465797
975,0.9656,369.846,321.394,0.000564709,345.581,-0.238213,-0.245074,0.193815,0.19372,-0.383621,0.964045,-5.31369e-05,-4.86745e-05,0.57579,0.2138716959188276,1.6222821808176895,-5.313548825991443e-05,0.21375638358513793,-4.867331541569264e-05,-0.31861037508417145
976,0.9666,369.916,321.457,0.00056223,345.648,-0.238251,-0.245104,0.19396,0.193864,-0.38391,0.964773,-5.3507e-05,-4.90442e-05,0.576228,0.214047720076179,1.6241918972977802,-5.350556852601329e-05,0.2139311770892045,-4.90429973528661e-05,-0.3188072682333417
977,0.9676,369.986,321.52,0.000559759,345.714,-0.238289,-0.245133,0.194106,0.194008,-0.384199,0.9655,-5.3877e-05,-4.94138e-05,0.576666,0.2142249839832604,1.6261003784559596,-5.387554866054245e-05,0.21410599576534795,-4.9412579158247816e-05,-0.3190041044886134
978,0.9686,370.056,321.582,0.000557295,345.78,-0.238326,-0.245162,0.194251,0.194152,-0.384487,0.966227,-5.42468e-05,-4.97831e-05,0.577103,0.214401059371095,1.6280102475844065,-5.424532866893372e-05,0.21428083961719335,-4.9781860842035286e-05,-0.31920020306696995
979,0.9696,370.126,321.645,0.000554838,345.846,-0.238364,-0.245191,0.194396,0.194296,-0.384776,0.966954,-5.46164e-05,-5.01523e-05,0.577541,0.21457716029171214,1.6299215056925433,-5.46149085516312e-05,0.21445570864836627,-5.01510423944751e-05,-0.3193969257804823
980,0.9706,370.195,321.707,0.000552388,345.912,-0.238401,-0.24522,0.194542,0.19444,-0.385064,0.96768,-5.49859e-05,-5.05213e-05,0.577978,0.21475450150270814,1.6318315219576869,-5.498438830309205e-05,0.21463060286249291,-5.0520023820666005e-05,-0.31959291124259626
981,0.9716,370.265,321.77,0.000549946,345.978,-0.238439,-0.245249,0.194687,0.194584,-0.385352,0.968405,-5.53552e-05,-5.08902e-05,0.578414,0.21493065367614994,1.6337402916565136,-5.535366792919216e-05,0.2148055222631997,-5.08889051157313e-05,-0.3197888402690243
982,0.9726,370.334,321.832,0.000547511,346.044,-0.238476,-0.245278,0.194832,0.194727,-0.38564,0.969131,-5.57243e-05,-5.12589e-05,0.578851,0.21510683139350872,1.6356530813669057,-5.5722747430042574e-05,0.21497925187425437,-5.1257586284991774e-05,-0.3199847128760176
983,0.9736,370.404,321.894,0.000545082,346.11,-0.238514,-0.245307,0.194977,0.194871,-0.385928,0.969856,-5.60932e-05,-5.16274e-05,0.579287,0.21528303465848886,1.6375646227009009,-5.6091626805865324e-05,0.21515422148403385,-5.162606732866948e-05,-0.3201805290798224
984,0.9746,370.473,321.956,0.000542662,346.176,-0.238551,-0.245335,0.195122,0.195014,-0.386216,0.97058,-5.6462e-05,-5.19957e-05,0.579723,0.21545926347479472,1.639474910928631,-5.6460406051228595e-05,0.2153280009626426,-5.1994348246986455e-05,-0.3203762888966808
985,0.9756,370.542,322.018,0.000540248,346.241,-0.238588,-0.245364,0.195267,0.195158,-0.386503,0.971305,-5.68307e-05,-5.23639e-05,0.580159,0.21563551784613155,1.6413892240937256,-5.682908516635443e-05,0.21550302079590677,-5.2362529034954974e-05,-0.32057131291448215
986,0.9766,370.611,322.08,0.000537841,346.307,-0.238625,-0.245393,0.195412,0.195301,-0.386791,0.972028,-5.71991e-05,-5.27319e-05,0.580595,0.21581179777620552,1.6432996390345274,-5.719746416266158e-05,0.21567685015638371,-5.273050969778481e-05,-0.3207669602018012
987,0.9776,370.681,322.142,0.000535442,346.372,-0.238663,-0.245422,0.195557,0.195445,-0.387078,0.972752,-5.75674e-05,-5.30998e-05,0.58103,0.2159881032687223,1.6452140809175244,-5.7565743029064365e-05,0.21585192022754884,-5.309839023059926e-05,-0.32096187211302607
988,0.9786,370.75,322.204,0.000533049,346.438,-0.2387,-0.24545,0.195701,0.195588,-0.387365,0.973475,-5.79356e-05,-5.34674e-05,0.581466,0.21616321816356288,1.6471272622297328,-5.793392176556278e-05,0.21602579948421186,-5.3465970644039906e-05,-0.321156728092559
989,0.9796,370.819,322.266,0.000530664,346.503,-0.238737,-0.245479,0.195846,0.195731,-0.387652,0.974198,-5.83035e-05,-5.3835e-05,0.581901,0.2163395746157304,1.6490418272721876,-5.8301800384019664e-05,0.2161997036073866,-5.383355092236641e-05,-0.3213515281564502
990,0.9806,370.888,322.328,0.000528286,346.569,-0.238774,-0.245507,0.19599,0.195874,-0.387939,0.97492,-5.86713e-05,-5.42023e-05,0.582336,0.21651474012608896,1.650955126089237,-5.866957887290525e-05,0.21637363260062914,-5.4200831081874234e-05,-0.32154627232074495
991,0.9816,370.956,322.39,0.000525914,346.634,-0.23881,-0.245536,0.196135,0.196017,-0.388225,0.975642,-5.90389e-05,-5.45695e-05,0.58277,0.21669114755263674,1.6528698068068381,-5.9037157238428506e-05,0.21654758646749594,-5.456801111192178e-05,-0.3217402823421057
992,0.9826,371.025,322.451,0.00052355,346.699,-0.238847,-0.245564,0.196279,0.19616,-0.388512,0.976364,-5.94064e-05,-5.49365e-05,0.583205,0.2168663636931436,1.6547858704230838,-5.940463547471353e-05,0.21672156521154462,-5.4934991018162904e-05,-0.3219349149499584
993,0.9836,371.094,322.513,0.000521193,346.764,-0.238884,-0.245593,0.196424,0.196303,-0.388798,0.977085,-5.97737e-05,-5.53033e-05,0.583639,0.217042822108805,1.6567006612347974,-5.9771913587969294e-05,0.21689556883633254,-5.530177080070864e-05,-0.32212881383542036
994,0.9846,371.162,322.574,0.000518842,346.829,-0.238921,-0.245621,0.196568,0.196446,-0.389085,0.977806,-6.01408e-05,-5.567e-05,0.584073,0.21721808889409444,1.6586168331084994,-6.013899157830682e-05,0.21706959734541798,-5.5668450454349205e-05,-0.3223233349507344
995,0.9856,371.231,322.636,0.000516499,346.894,-0.238957,-0.245649,0.196712,0.196588,-0.389371,0.978527,-6.05078e-05,-5.60365e-05,0.584506,0.21739338091961802,1.6605343870402947,-6.050596943996123e-05,0.2172424334993175,-5.6034929984627446e-05,-0.3225171227639603
996,0.9866,371.299,322.697,0.000514162,346.959,-0.238994,-0.245678,0.196856,0.196731,-0.389657,0.979247,-6.08746e-05,-5.64028e-05,0.58494,0.21756869818901103,1.6624506615750128,-6.0872747179141484e-05,0.21741651161359643,-5.640120939198745e-05,-0.3227108551617963
997,0.9876,371.368,322.759,0.000511832,347.024,-0.23903,-0.245706,0.197,0.196874,-0.389942,0.979967,-6.12412e-05,-5.6769e-05,0.585373,0.21774404070590836,1.664368316324214,-6.123932479595862e-05,0.2175906146228257,-5.6767388670775354e-05,-0.32290385506428276
998,0.9886,371.436,322.82,0.000509509,347.089,-0.239067,-0.245734,0.197144,0.197016,-0.390228,0.980687,-6.16077e-05,-5.7135e-05,0.585806,0.21791940847394642,1.6662873522820099,-6.160580228464774e-05,0.2177635247664318,-5.713336782697809e-05,-0.323097476872496
999,0.9896,371.504,322.881,0.000507193,347.154,-0.239103,-0.245762,0.197288,0.197158,-0.390514,0.981406,-6.1974e-05,-5.75008e-05,0.586239,0.2180948014967612,1.6682051022367923,-6.19720796513068e-05,0.21793645946502171,-5.7499146860706674e-05,-0.32329104331279
