,Time,S11,S22,S33,S12,S13,S23,LE11,LE22,LE33,LE12,LE13,LE23,SDV_EPBAR,E11,E12,E13,E22,E23,E33
0,1e-05,0.188037,0.188037,0.0,0.188037,-2.16583e-18,7.03895e-24,1.75e-06,1.75e-06,-1.5e-06,6.49998e-06,1.49816e-22,-2.99551e-22,0.0,1.7500015312421624e-06,6.500001124898347e-06,0.0,1.7500015312421624e-06,0.0,-1.4999988749986315e-06
1,2e-05,0.376073,0.376073,0.0,0.376073,-6.49746e-18,-6.49746e-18,3.49998e-06,3.49998e-06,-2.99999e-06,1.29999e-05,1.49673e-22,-1.49667e-22,0.0,3.499986124921861e-06,1.2999984499106887e-05,0.0,3.499986124921861e-06,0.0,-2.999985500018454e-06
2,3.5e-05,0.658125,0.658125,5.55112e-17,0.658125,-1.0829e-17,-1.0829e-17,6.12495e-06,6.12495e-06,-5.24995e-06,2.27498e-05,-2.99464e-22,-2.99464e-22,0.0,6.1249687575148926e-06,2.2750058778608917e-05,0.0,6.1249687575148926e-06,0.0,-5.2499362190872034e-06
3,5.75e-05,1.0812,1.0812,1.66533e-16,1.0812,-1.08288e-17,-1.51605e-17,1.00624e-05,1.00624e-05,-8.6249e-06,3.73744e-05,-2.39578e-21,1.93411e-26,0.0,1.0062450626069364e-05,3.737509843149134e-05,0.0,1.0062450626069364e-05,0.0,-8.624862805617362e-06
4,9.125e-05,1.7158,1.7158,-4.996e-16,1.7158,-1.51601e-17,-1.94918e-17,1.59684e-05,1.59684e-05,-1.36872e-05,5.93111e-05,-1.49745e-21,-2.99327e-22,0.0,1.5968527495635598e-05,5.931285893812088e-05,0.0,1.5968527495635598e-05,0.0,-1.3687106330650955e-05
5,0.00014188,2.66768,2.66768,-2.83107e-15,2.66768,-3.68175e-17,-2.38225e-17,2.48273e-05,2.48273e-05,-2.12805e-05,9.22155e-05,-4.1926e-21,5.99059e-22,0.0,2.482760819999541e-05,9.221975197992727e-05,0.0,2.482760819999541e-05,0.0,-2.1280273571733233e-05
6,0.00021781,4.09546,4.09546,-1.70419e-14,4.09546,-1.94889e-17,-5.8474e-17,3.81151e-05,3.81151e-05,-3.26701e-05,0.00014157,-1.19773e-21,-1.19773e-21,0.0,3.8115826389573115e-05,0.00014158002150543858,0.0,3.8115826389573115e-05,0.0,-3.266956633807272e-05
7,0.00033172,6.23703,6.23703,-9.05387e-14,6.23703,-2.1593e-18,-7.57978e-17,5.8046e-05,5.8046e-05,-4.97538e-05,0.000215599,-7.18738e-21,2.39617e-21,0.0,5.804768470163424e-05,0.000215622243134872,0.0,5.804768470163424e-05,0.0,-4.9752562300220404e-05
8,0.00050258,9.44915,9.44915,-4.61353e-13,9.44915,-1.23434e-16,-9.31124e-17,8.79401e-05,8.79401e-05,-7.53773e-05,0.000326635,-1.67704e-20,2.39717e-21,0.0,8.794396684397299e-05,0.0003266883510202323,0.0,8.794396684397299e-05,0.0,-7.537445920269281e-05
9,0.00075887,14.2668,14.2668,-2.3434e-12,14.2668,-2.27365e-16,-1.27736e-16,0.000132777,0.000132777,-0.000113809,0.00049317,-7.1851e-21,2.39907e-21,0.0,0.00013278581525599797,0.0004932916283180155,0.0,0.00013278581525599797,0.0,-0.00011380252400139401
10,0.0011433,21.4922,21.4922,-1.18593e-11,21.4922,-3.65925e-16,-5.83765e-17,0.000200021,0.000200021,-0.000171446,0.000742933,5.45094e-24,5.45094e-24,0.0,0.00020004100553405735,0.000743209043077453,0.0,0.00020004100553405735,0.0,-0.00017143130397445638
11,0.00172,32.3276,32.3276,-5.99542e-11,32.3276,-6.42891e-16,-7.51183e-16,0.000300862,0.000300862,-0.000257882,0.00111749,2.69398e-23,2.69398e-23,0.0,0.00030090726351073016,0.001118114624598876,0.0,0.00030090726351073016,0.0,-0.0002578487512951977
12,0.0025849,48.5749,48.5749,-3.03235e-10,48.5749,-1.05811e-15,-1.1664e-15,0.00045207,0.00045207,-0.000387489,0.00167912,-5.74561e-20,-5.74561e-20,0.0,0.0004521721990422556,0.0016805305113494207,0.0,0.0004521721990422556,0.0,-0.00038741393583330286
13,0.0035849,67.3496,67.3496,-6.68458e-10,67.3496,-7.80517e-16,-3.34355e-16,0.000626801,0.000626801,-0.000537258,0.00232812,-3.83079e-20,-3.83079e-20,0.0,0.0006269974807961987,0.0023308321757156136,0.0,0.0006269974807961987,0.0,-0.0005371137027634365
14,0.0045849,86.115,86.115,-7.61585e-10,86.115,-5.03107e-16,-5.69447e-17,0.000801444,0.000801444,-0.000686952,0.00297679,2.90228e-23,-7.66883e-20,0.0,0.0008017652420559962,0.002981225038986679,0.0,0.0008017652420559962,0.0,-0.000686716102494711
15,0.0055849,104.871,104.871,-7.60063e-10,104.871,-1.74973e-15,-1.02634e-15,0.000976,0.000976,-0.000836572,0.00362514,-7.65544e-20,-7.65544e-20,0.0,0.0009764764429902595,0.0036317187672585405,0.0,0.0009764764429902595,0.0,-0.0008362221712034934
16,0.0065849,123.618,123.618,-7.58576e-10,123.618,-6.40188e-16,-1.30293e-15,0.00115047,0.00115047,-0.000986117,0.00427317,7.68846e-20,-2.30077e-19,0.0,0.0011511320444734796,0.004282313009496885,0.0,0.0011511320444734796,0.0,-0.0009856309464129076
17,0.0075849,142.355,142.355,-7.57034e-10,142.355,-1.88663e-15,-1.44047e-15,0.00132485,0.00132485,-0.00113559,0.00492088,-3.80921e-20,-3.80921e-20,0.0,0.0013257280014584705,0.004933007414344104,0.0,0.0013257280014584705,0.0,-0.00113494546167614
18,0.0085849,152.565,152.967,-0.0671424,152.796,-2.53276,-0.491103,0.00148613,0.0015037,-0.00136533,0.00557673,0.000134871,-1.74306e-05,0.000226879,0.001487234838431828,0.005592308905065568,0.00013488009550233215,0.0015048311237308987,-1.7430448087996098e-05,-0.001364398361041963
19,0.0095849,152.734,154.32,0.072361,153.507,-4.97189,-1.08814,0.00162719,0.00169214,-0.001686,0.00624277,0.000531879,-4.01828e-05,0.000720001,0.0016285145920049704,0.006262296701056602,0.000532020472716388,0.0016935724767594973,-4.0181992682075673e-05,-0.0016845795004328812
20,0.010585,152.842,155.538,0.0544925,154.175,-7.19734,-1.66686,0.00176693,0.00188153,-0.00200818,0.00690873,0.00093531,-6.34095e-05,0.001214,0.0017684919406235622,0.0069326503297437725,0.0009357475387989922,0.001883301188244202,-6.340748966016108e-05,-0.002006164955626777
21,0.011585,152.947,156.725,0.0442342,154.833,-9.45166,-2.2484,0.00190488,0.00207213,-0.00232991,0.00757487,0.00133603,-8.78496e-05,0.00170827,0.0019066954364537203,0.0076036319044554546,0.0013369228856767723,0.002074278344995628,-8.784574133691159e-05,-0.002327197866447195
22,0.012585,153.086,157.886,0.06479,155.48,-11.7769,-2.82424,0.00204145,0.00226359,-0.00265092,0.00824107,0.00173225,-0.000113213,0.00220272,0.002043535177738587,0.008275121092243598,0.0017337512117308052,0.0022661538539838766,-0.00011320659165015012,-0.002647409414355817
23,0.013585,153.206,158.998,0.0433444,156.103,-14.1066,-3.40209,0.00217648,0.00245619,-0.00297211,0.00890727,0.00212651,-0.000139778,0.00269768,0.002178850251885134,0.008947057775172462,0.0021287726259380246,0.0024592089058208533,-0.00013976823151051754,-0.0029676976534828148
24,0.014585,153.366,160.095,0.0788302,156.723,-16.5106,-3.9741,0.00231013,0.00264952,-0.00329222,0.00957367,0.00251573,-0.00016728,0.0031928,0.0023128004062411556,0.009619644175371755,0.002518897104019091,0.0026530330800886848,-0.0001672660094809153,-0.003286806586081825
25,0.015585,153.496,161.126,0.0473774,157.316,-18.8985,-4.54812,0.00244242,0.00284377,-0.00361278,0.0102401,0.00290354,-0.000196006,0.00368861,0.0024454051375533137,0.01029270924530623,0.002907759354966233,0.0028478173495742887,-0.00019598679207899483,-0.003606261762351348
26,0.016585,153.682,162.157,0.101565,157.91,-21.3736,-5.11328,0.00257346,0.00303858,-0.00393189,0.0109067,0.00328538,-0.000225583,0.00418455,0.002576774190554909,0.010966394879764696,0.0032907827759760533,0.0030432011636145617,-0.0002255575580681901,-0.003924170241575209
27,0.017585,153.822,163.104,0.0556618,158.472,-23.8074,-5.68102,0.00270326,0.00323421,-0.00425181,0.0115734,0.00366641,-0.000256428,0.00468136,0.0027069171019371563,0.011640630906836646,0.0036731395030029645,0.0032394457000917143,-0.00025639512515052143,-0.004242783852880794
28,0.018585,154.038,164.065,0.130518,159.04,-26.3454,-6.23581,0.00283197,0.00343016,-0.00456984,0.0122403,0.00404034,-0.000288003,0.00517826,0.0028359838151474914,0.0123155190600297,0.004048513177422608,0.003436049731127433,-0.000287961531117098,-0.004559414168693654
29,0.019585,154.188,164.925,0.0658631,159.571,-28.8117,-6.79457,0.00295954,0.00362686,-0.00488912,0.0129072,0.00441429,-0.000320922,0.00567625,0.0029639237620786574,0.012990857446245618,0.004424047330047198,0.0036334450152992748,-0.0003208705100431475,-0.004877187706870734
30,0.020585,154.441,165.819,0.167225,160.115,-31.4036,-7.33512,0.00308618,0.00382365,-0.00520592,0.0135745,0.0047797,-0.000354401,0.00617424,0.0030909471563356217,0.013667051832584765,0.004791140986944109,0.0038309694757256985,-0.0003543382073837309,-0.005192392682700775
31,0.021585,154.598,166.587,0.0776019,160.614,-33.8864,-7.8819,0.00321175,0.00402114,-0.00552453,0.0142418,0.00514618,-0.000389332,0.00667359,0.003216913195182247,0.01434369759402232,0.005159444328074914,0.004029235631034522,-0.00038925622013175065,-0.005509297847210104
32,0.022585,154.808,167.352,0.0500486,161.106,-36.4239,-8.41517,0.00333653,0.00421891,-0.00584204,0.0149091,0.00550685,-0.000425017,0.00717342,0.0033421024120035003,0.015020795031861489,0.005522040569723385,0.004227822129543979,-0.0004249266930692608,-0.00582500846675893
33,0.023585,155.123,168.143,0.211962,161.619,-39.0849,-8.92758,0.00346053,0.00441626,-0.00615666,0.0155771,0.00585827,-0.000461201,0.00767338,0.003466524546715588,0.015699055436696696,0.005875463221477473,0.0044260260473694135,-0.00046109466316701653,-0.006137746603179228
34,0.024585,155.303,168.781,0.102085,162.074,-41.5758,-9.44956,0.00358359,0.00461433,-0.00647401,0.0162449,0.00621242,-0.000498994,0.00817508,0.003590018735667888,0.016377565795310467,0.0062317571037924235,0.004624992414332452,-0.0004988695231992191,-0.00645309874814648
35,0.025585,155.554,169.435,0.0893548,162.526,-44.1343,-9.95264,0.00370604,0.00481245,-0.00678983,0.0169129,0.00655951,-0.000537374,0.00867731,0.00371291585768474,0.017056732825794896,0.006581070702487368,0.00482404843566786,-0.0005372296404515531,-0.006766831186402755
36,0.026585,155.911,170.108,0.260622,162.998,-46.7996,-10.4314,0.00382795,0.00500989,-0.0071028,0.0175815,0.00689722,-0.000576153,0.00917988,0.00383528595817495,0.017736964333415095,0.006921060601637441,0.005022460482383639,-0.000575987055731586,-0.007077634732616467
37,0.027585,156.127,170.631,0.155714,163.414,-49.2844,-10.919,0.00394902,0.00520789,-0.0074185,0.01825,0.00723726,-0.000616538,0.00968432,0.003956827653623929,0.01841754895413583,0.007263512259415572,0.0052214746313097304,-0.0006163479795009419,-0.007391050847994518
38,0.028585,156.413,171.17,0.144407,163.826,-51.8208,-11.3855,0.00406964,0.00540578,-0.00773268,0.0189186,0.0075701,-0.000657442,0.0101895,0.004077932229845649,0.01909869060764735,0.007598825646594198,0.005420417592686633,-0.0006572259323615048,-0.007702859743014878
39,0.029585,156.806,171.728,0.31759,164.257,-54.4507,-11.8241,0.00418993,0.00560277,-0.00804399,0.019588,0.00789335,-0.000698626,0.0106951,0.004198720028950165,0.019781103649302967,0.007924584614941166,0.005618494869729096,-0.0006983820176768019,-0.008011723687036731
40,0.030585,157.059,172.141,0.218022,164.636,-56.8955,-12.2704,0.00430949,0.00580017,-0.00835793,0.0202572,0.00821832,-0.000741376,0.0112028,0.00431878920550921,0.02046376955840179,0.008252183094159316,0.005817023554752998,-0.0007411012487155144,-0.008323099607266737
41,0.031585,157.376,172.571,0.206194,165.011,-59.376,-12.6942,0.00442875,0.00599729,-0.00867047,0.0209265,0.00853617,-0.0007846,0.0117114,0.0044385714067805004,0.021146994575114153,0.008572706987117096,0.0060153097488813145,-0.0007842922819037978,-0.008632989876640629
42,0.032585,157.722,172.971,0.233456,165.382,-61.8514,-13.0994,0.00454769,0.00619387,-0.00898188,0.0215963,0.00884782,-0.000828417,0.012221,0.004558046435502616,0.021831187942860097,0.008887077655514553,0.006213091677820692,-0.000828073957371056,-0.008941663412755707
43,0.033585,158.146,173.378,0.385218,165.761,-64.3694,-13.478,0.00466651,0.00638955,-0.00929124,0.0222665,0.00915122,-0.000872547,0.0127317,0.004677415114132888,0.02251624874325131,0.009193220434386307,0.006410006721139672,-0.0008721664415595187,-0.009248209800722162
44,0.034585,158.462,173.674,0.325221,166.1,-66.729,-13.8579,0.00478476,0.00658537,-0.00960238,0.0229368,0.00945409,-0.00091796,0.0132442,0.004796225242980512,0.023201871145461128,0.0094989210764993,0.0066071012255488615,-0.0009175388036095633,-0.00955642436129911
45,0.035585,158.894,174.02,0.446308,166.449,-69.1561,-14.2046,0.00490305,0.00678038,-0.00991089,0.0236073,0.00974728,-0.000963396,0.0137576,0.004915089618559465,0.023888158052038477,0.009794939457863805,0.0068034188176835375,-0.0009629320830640831,-0.009861938979238816
46,0.036585,159.217,174.247,0.367984,166.766,-71.4403,-14.5518,0.00502092,0.00697513,-0.0102212,0.024278,0.0100398,-0.00101012,0.014273,0.005033545941258932,0.024575110183289617,0.010090367880808637,0.006999512877537528,-0.001009610000527461,-0.010169141054551134
47,0.037585,159.585,174.488,0.343413,167.077,-73.7083,-14.877,0.00513868,0.00716958,-0.0105303,0.0249487,0.0103254,-0.00105719,0.0147895,0.00515190566051249,0.025262523207878695,0.010378890888999681,0.007195342971780594,-0.0010566313715281161,-0.0104750504923119
48,0.038585,159.988,174.709,0.367132,167.388,-75.9611,-15.1805,0.00525643,0.00736318,-0.0108382,0.0256197,0.0106044,-0.00110463,0.0153074,0.005270269265924554,0.025950705220195713,0.010660825927666817,0.007390354866722237,-0.0011040201208658562,-0.010779678324403963
49,0.039585,160.473,174.948,0.521959,167.709,-78.2369,-15.4539,0.00537436,0.00755569,-0.011144,0.0262912,0.0108748,-0.00115211,0.0158264,0.005388827779444494,0.02663986247740424,0.010934145566147357,0.007584306252129247,-0.001151446576077575,-0.011082135650690161
50,0.040585,160.843,175.084,0.461676,167.998,-80.3499,-15.7293,0.00549194,0.00774807,-0.0114516,0.0269627,0.0111442,-0.00120077,0.0163474,0.005507048347865862,0.027329482659120607,0.011206527913217634,0.007778163967541829,-0.0012000493641717291,-0.011386280005964089
51,0.041585,161.326,175.283,0.577348,168.297,-82.5048,-15.9711,0.00560979,0.00793955,-0.0117567,0.0276343,0.0114043,-0.00124927,0.0168695,0.005625554336341709,0.028019668878264792,0.011469576939170834,0.007971151806444254,-0.0012484899870829347,-0.01168786004356015
52,0.042585,161.712,175.376,0.516326,168.576,-84.5232,-16.2109,0.00572749,0.00813054,-0.0120631,0.0283061,0.0116622,-0.00129874,0.0173935,0.0057439234299716535,0.02871052452424583,0.011730468583594833,0.008163682601870947,-0.0012978970021907399,-0.011990632496134301
53,0.043585,162.2,175.534,0.6151,168.862,-86.5659,-16.42,0.00584546,0.00832068,-0.0123673,0.0289779,0.0119115,-0.00134807,0.0179185,0.0058625780393233295,0.029401844442981773,0.01198272443179782,0.008355393069817474,-0.0013471617618062703,-0.012291139236336401
54,0.044585,162.61,175.602,0.568716,169.134,-88.4904,-16.6244,0.00596342,0.0085102,-0.0126725,0.0296499,0.0121579,-0.0013982,0.0184455,0.005981236587372374,0.030093834965221777,0.012232107697854433,0.00854651469402512,-0.0013972229737924113,-0.012592541984242644
55,0.045585,163.102,175.724,0.650181,169.412,-90.4201,-16.8018,0.00608167,0.0086989,-0.0129757,0.030322,0.0123964,-0.00144824,0.0189736,0.0061002009022252945,0.030786393740008133,0.012473553846849228,0.008736845378483071,-0.001447191806524195,-0.012891878543797364
56,0.046585,163.535,175.775,0.619268,169.679,-92.2482,-16.9722,0.0062,0.00888691,-0.0132796,0.0309941,0.0126314,-0.00149891,0.0195034,0.006219259782977771,0.03147941814000266,0.012711513091119286,0.008926515822194059,-0.0014977871954703348,-0.013191815124236173
57,0.047585,164.032,175.867,0.684377,169.951,-94.0652,-17.1193,0.00631865,0.00907412,-0.013582,0.0316663,0.0128593,-0.00154953,0.0200345,0.0063386547811192795,0.032173011695553644,0.012942336346263517,0.009115414636542862,-0.0015483300982308545,-0.013490180804178076
58,0.048585,164.486,175.906,0.667253,170.217,-95.7956,-17.2577,0.00643748,0.00926058,-0.0138848,0.0323386,0.0130831,-0.00160063,0.0205672,0.006458245108785565,0.03286717492814106,0.013169058210368068,0.009303591839971537,-0.0015993496750015268,-0.013788850756517812
59,0.049585,164.986,175.977,0.718218,170.486,-97.5022,-17.3762,0.00655664,0.00944626,-0.0141863,0.0330108,0.0133005,-0.00165172,0.0211011,0.006578181818959861,0.03356170164740613,0.013389345107941208,0.00949101673089281,-0.001650356661242025,-0.014086148598112969
60,0.050585,165.459,176.009,0.712137,170.751,-99.1348,-17.485,0.00667605,0.00963115,-0.014488,0.033683,0.0135136,-0.00170315,0.0216365,0.0066983844962089645,0.03425669538447895,0.013605321388839187,0.009677678780417587,-0.0017017004630818233,-0.014383553941229033
61,0.051585,165.958,176.063,0.746106,171.019,-100.737,-17.5777,0.00679583,0.00981523,-0.0147889,0.0343552,0.0137212,-0.00175471,0.0221734,0.006818974050668114,0.034952156453394556,0.013815767697130443,0.009863557355266561,-0.001753171396473907,-0.014680081315067373
62,0.052585,166.454,176.1,0.762862,171.287,-102.278,-17.6584,0.00691592,0.00999855,-0.0150894,0.0350274,0.0139237,-0.00180635,0.0227115,0.006939890201526966,0.0356480851683989,0.01402108617788378,0.010048702512487573,-0.0018047195317186793,-0.014976125467770496
63,0.053585,166.955,176.137,0.77957,171.556,-103.771,-17.7266,0.00703639,0.0101811,-0.0153895,0.0356994,0.0141211,-0.00185808,0.0232508,0.007061203557262807,0.03634427457507372,0.014221273698153292,0.010233103733840565,-0.0018563548380186035,-0.0152716867813244
64,0.054585,167.461,176.174,0.797178,171.827,-105.217,-17.7831,0.00715722,0.0103629,-0.0156891,0.0363714,0.0143137,-0.00190989,0.0237914,0.007182894114275529,0.03704093197825897,0.014416631527822688,0.010416780807839476,-0.0019080673206509635,-0.015566667193692485
65,0.055585,167.961,176.207,0.803247,172.098,-106.618,-17.8301,0.00727845,0.0105438,-0.0159887,0.0370434,0.0145023,-0.00196197,0.0243335,0.007305002297967045,0.03773805769255412,0.014607968547042605,0.010599581737333219,-0.001960046594952858,-0.015861559243166456
66,0.056585,168.48,176.254,0.836238,172.373,-107.983,-17.8645,0.00740009,0.0107239,-0.0162876,0.0377152,0.0146857,-0.002014,0.0248768,0.007427538330937011,0.03843544434566026,0.014794064712970956,0.010781607112897218,-0.002011973262844524,-0.016155674265428854
67,0.057585,168.987,176.289,0.841851,172.649,-109.295,-17.8909,0.00752213,0.0109033,-0.0165864,0.0383869,0.0148651,-0.00206616,0.0254212,0.0075504922902127625,0.0391331957472012,0.014976135099405763,0.010962957599865542,-0.002064026960746923,-0.016449603034813354
68,0.058585,169.491,176.311,0.831185,172.93,-110.546,-17.9127,0.0076446,0.0110819,-0.0168847,0.0390584,0.0150399,-0.00211831,0.0259664,0.00767389455538714,0.03983120801953732,0.015153568435043008,0.011143531708880827,-0.002116067964759938,-0.016742952363000496
69,0.059585,170.042,176.389,0.899298,173.213,-111.797,-17.9119,0.00776754,0.0112599,-0.017182,0.0397297,0.0152087,-0.00216995,0.0265126,0.007797785599410023,0.040529481058603656,0.015324940820817146,0.011323531277011245,-0.0021675973605097543,-0.017035231233855974
70,0.060585,170.543,176.415,0.873893,173.496,-112.971,-17.9134,0.00789088,0.011437,-0.0174798,0.0404008,0.0153748,-0.00222194,0.0270599,0.007922095044291755,0.04122801476010873,0.015493600300269694,0.01150265253511984,-0.0022194733185958437,-0.017327914559284396
71,0.061585,171.085,176.487,0.919553,173.785,-114.129,-17.9025,0.00801471,0.0116135,-0.0177766,0.0410717,0.0155359,-0.00227369,0.0276081,0.008046913765312746,0.041926809019534605,0.01565720949764504,0.011681198509510882,-0.0022711071248152637,-0.017619528356614955
72,0.062585,171.6,176.53,0.912143,174.075,-115.233,-17.8881,0.00813898,0.0117891,-0.0180736,0.0417424,0.0156937,-0.00232552,0.0281573,0.008172191539259632,0.04262586373213684,0.01581749285132772,0.01185886532665914,-0.0023228180732322024,-0.01791125203358257
73,0.063585,172.136,176.602,0.941506,174.37,-116.314,-17.8647,0.00826372,0.0119641,-0.0183699,0.0424129,0.0158472,-0.00237719,0.0287073,0.008297958782372161,0.043325178792944063,0.015973432804565535,0.012035956123084057,-0.0023743667214515263,-0.01820220182326504
74,0.064585,172.657,176.662,0.943811,174.666,-117.353,-17.8369,0.00838892,0.0121383,-0.0186662,0.0430832,0.0159973,-0.00242883,0.0292582,0.008424205589697031,0.044024754096758656,0.01612594186234806,0.012212268142971716,-0.002425882778998023,-0.01849306541729534
75,0.065585,173.189,176.74,0.964266,174.966,-118.364,-17.8025,0.00851457,0.0123119,-0.0189621,0.0437532,0.0161436,-0.00248034,0.0298099,0.008550922051924204,0.04472448506570226,0.016274611962595165,0.012388003446104356,-0.0024772664983769843,-0.01878345035466822
76,0.066585,173.715,176.815,0.971621,175.269,-119.34,-17.7635,0.0086407,0.0124847,-0.0192578,0.0444229,0.0162865,-0.00253176,0.0303624,0.008678138602465912,0.04542437138412647,0.01641984798151097,0.012562959208842539,-0.0025285577986230434,-0.019073553194579596
77,0.067585,174.244,176.901,0.987188,175.574,-120.289,-17.7195,0.00876728,0.0126569,-0.0195532,0.0450924,0.0164259,-0.00258306,0.0309156,0.008805825162361947,0.046124517348477445,0.016561546784496617,0.012737337563963669,-0.0025797267711126226,-0.01936327607278998
78,0.068585,174.77,176.99,0.996759,175.882,-121.207,-17.6713,0.00889433,0.0128284,-0.0198484,0.0457616,0.0165621,-0.00263423,0.0314695,0.008934002084715509,0.046824818170007276,0.01670001189642889,0.012911036911649187,-0.002630763460708896,-0.019652717310064793
79,0.069585,175.297,177.088,1.00973,176.193,-122.099,-17.619,0.00902184,0.0129992,-0.0201434,0.0464305,0.0166951,-0.00268527,0.0320241,0.009062659461698042,0.04752527353206015,0.016835241990613037,0.01308405689223946,-0.0026816678874498345,-0.019941877105291494
80,0.070585,175.822,177.189,1.01992,176.506,-122.964,-17.5632,0.00914979,0.0131694,-0.0204381,0.0470992,0.0168251,-0.00273617,0.0325793,0.009191777289113023,0.04822598794022248,0.016967439164701892,0.013256498473084743,-0.0027324300986451,-0.020230657680200825
81,0.071585,176.346,177.299,1.0315,176.821,-123.804,-17.504,0.0092782,0.013339,-0.0207326,0.0477675,0.0169521,-0.00278692,0.0331351,0.009321375925937181,0.048926751502025745,0.017096602231156943,0.013428361348785778,-0.002783040143576887,-0.020519157267864574
82,0.072585,176.868,177.413,1.04156,177.139,-124.619,-17.442,0.00940705,0.0135079,-0.021027,0.0484355,0.0170763,-0.00283752,0.0336915,0.009451435364124627,0.0496276686522934,0.017222933474161817,0.013599543854973195,-0.0028334980451498737,-0.02080747398566163
83,0.073585,177.389,177.534,1.0523,177.459,-125.412,-17.3772,0.00953634,0.0136762,-0.0213211,0.0491033,0.0171977,-0.00288795,0.0342484,0.009581955777512974,0.05032884410584537,0.017346431834484477,0.01377014701405721,-0.002883783883875446,-0.021095412164177874
84,0.074585,177.907,177.661,1.06205,177.781,-126.183,-17.3101,0.00966606,0.013844,-0.0216151,0.0497707,0.0173165,-0.00293823,0.0348058,0.009712927243442193,0.05103006754863615,0.01746729976999961,0.013940271917806335,-0.0029339176268489142,-0.021383167810848924
85,0.075585,178.423,177.794,1.07189,178.105,-126.933,-17.2409,0.00979621,0.0140111,-0.0219089,0.0504378,0.0174327,-0.00298833,0.0353637,0.00984434993306893,0.05173144362467741,0.017585536339644436,0.014109715493860309,-0.0029838693862737076,-0.021670643203942963
86,0.076585,178.937,177.933,1.08145,178.431,-127.663,-17.1697,0.00992678,0.0141777,-0.0222025,0.0511045,0.0175465,-0.00303826,0.0359221,0.00997621391839254,0.05243286677156678,0.01770134416302005,0.014278680246834652,-0.00303364915891291,-0.021957838540759833
87,0.077585,179.449,178.078,1.09046,178.758,-128.374,-17.0971,0.0100578,0.0143437,-0.022496,0.051771,0.0176578,-0.00308802,0.0364808,0.010108549671066003,0.05313454708625964,0.017814620626343647,0.014447064483260608,-0.0030832569702782253,-0.022244851793892795
88,0.078585,179.958,178.229,1.10013,179.087,-129.067,-17.0228,0.0101891,0.0145092,-0.0227893,0.0524371,0.0177669,-0.00313758,0.03704,0.010241185630998073,0.05383627369217425,0.0179256702591013,0.014614969366178343,-0.003132662939772768,-0.02253158532733346
89,0.079585,180.464,178.385,1.10849,179.417,-129.742,-16.9474,0.0103209,0.0146741,-0.0230824,0.0531028,0.0178737,-0.00318697,0.0375995,0.010374344194220786,0.05453804605858692,0.018034390526243893,0.014782293170095384,-0.003181897001705014,-0.022818039337788143
90,0.080585,180.967,178.547,1.11725,179.749,-130.401,-16.8708,0.0104531,0.0148385,-0.0233754,0.0537683,0.0179784,-0.00323618,0.0381594,0.010507924511987676,0.05524007470236003,0.018140984307019048,0.014949137093287268,-0.0032309492136138873,-0.023104311711311443
91,0.081585,181.467,178.714,1.12577,180.082,-131.044,-16.7934,0.0105856,0.0150024,-0.0236682,0.0544333,0.0180811,-0.0032852,0.0387196,0.0106418256827423,0.05594204273053749,0.018245552755605354,0.01511550088999769,-0.003279809634904818,-0.023390304897396685
92,0.082585,181.964,178.887,1.13404,180.416,-131.672,-16.7152,0.0107186,0.0151658,-0.0239609,0.0550981,0.0181818,-0.00333404,0.0392801,0.010776249984576047,0.05664426639382758,0.018348095245695584,0.015281384315149804,-0.0033284882602605537,-0.02367611672455172
93,0.083585,182.458,179.065,1.14213,180.751,-132.285,-16.6365,0.0108518,0.0153287,-0.0242535,0.0557625,0.0182806,-0.00338268,0.0398409,0.010910894348189482,0.057346534111922365,0.018448713007941375,0.015446787124347772,-0.0033769651836231818,-0.02396174730300671
94,0.084585,182.949,179.247,1.15003,181.087,-132.885,-16.5573,0.0109855,0.0154912,-0.024546,0.0564265,0.0183775,-0.00343114,0.0404019,0.011046062170531279,0.05804884535210042,0.01854740546980449,0.015611810635052459,-0.003425260365688687,-0.024247196742904764
95,0.085585,183.436,179.435,1.15777,181.423,-133.472,-16.4777,0.0111194,0.0156531,-0.0248383,0.0570902,0.0184727,-0.00347941,0.0409632,0.01118145030228912,0.0587513054563602,0.01864437579851952,0.01577625149832307,-0.0034733638673835054,-0.024532367607544625
96,0.086585,183.92,179.627,1.16534,181.761,-134.046,-16.398,0.0112538,0.0158146,-0.0251305,0.0577536,0.0185661,-0.00352748,0.0415247,0.011317362222286187,0.05945391410191969,0.018739521626460087,0.015940312610518204,-0.0035212657514513968,-0.024817357610662505
97,0.087585,184.401,179.823,1.17276,182.098,-134.608,-16.3181,0.0113884,0.0159757,-0.0254225,0.0584166,0.0186579,-0.00357536,0.0420864,0.011453494700751632,0.06015656494998667,0.01883304620725812,0.016103993779043924,-0.0035689760110544366,-0.025102069372299973
98,0.088585,184.877,180.025,1.18004,182.437,-135.159,-16.2382,0.0115234,0.0161363,-0.0257145,0.0590792,0.0187481,-0.00362305,0.0426483,0.011590050139820951,0.0608592574662441,0.01892494909278386,0.016267193185006468,-0.003616494673497006,-0.02538669801023974
99,0.089585,185.351,180.23,1.18717,182.775,-135.699,-16.1584,0.0116586,0.0162965,-0.0260063,0.0597415,0.0188368,-0.00367055,0.0432104,0.01172682636046396,0.06156209727217443,0.019015331744179687,0.016430012230811863,-0.0036638217659726857,-0.025671048682979536
100,0.090585,185.821,180.439,1.19417,183.114,-136.228,-16.0788,0.0117942,0.0164563,-0.026298,0.0604034,0.018924,-0.00371785,0.0437726,0.011864025820031543,0.06226497781701368,0.01910419375543504,0.01659245072525639,-0.0037109473526741876,-0.025955218989824558
101,0.091585,186.287,180.653,1.20104,183.453,-136.748,-15.9994,0.0119301,0.0166157,-0.0265896,0.061065,0.0190098,-0.00376497,0.044335,0.012001547485526176,0.06296800486204002,0.019191636646505694,0.01675450847756177,-0.0037578913868248076,-0.02623920904020538
102,0.092585,186.749,180.87,1.20779,183.792,-137.258,-15.9203,0.0120662,0.0167747,-0.0268811,0.0617262,0.0190942,-0.0038119,0.0448975,0.0121392902693227,0.0636710717151423,0.019277660050775358,0.016916185297376263,-0.0038046439319249226,-0.02652301894346709
103,0.093585,187.208,181.091,1.21441,184.131,-137.758,-15.8415,0.0122026,0.0169333,-0.0271725,0.0623871,0.0191772,-0.00385863,0.0454601,0.01227735548434894,0.06437428427743375,0.01936226360755855,0.01707748099477513,-0.0038511950532386097,-0.026806648808868627
104,0.094585,187.663,181.315,1.22093,184.471,-138.25,-15.7632,0.0123393,0.0170916,-0.0274638,0.0630476,0.019259,-0.00390518,0.0460228,0.012415743257432554,0.06507753571541963,0.019445650851213303,0.01723849710410552,-0.0038975647008470116,-0.02709009874558288
105,0.095585,188.115,181.543,1.22734,184.81,-138.734,-15.6853,0.0124763,0.0172494,-0.0277549,0.0637078,0.0193395,-0.00395154,0.0465855,0.012554453715708291,0.06578093207008684,0.01952771952932686,0.017399030004661142,-0.0039437429393276435,-0.027373271600029447
106,0.096585,188.563,181.775,1.23364,185.148,-139.21,-15.608,0.0126135,0.0174069,-0.028046,0.0643676,0.0194189,-0.00399772,0.0471484,0.012693385717275296,0.066484366366522,0.019608673244077446,0.017559282971476797,-0.003989739755204003,-0.027656362034854887
107,0.097585,189.007,182.009,1.23984,185.487,-139.678,-15.5312,0.0127509,0.0175641,-0.028337,0.0650271,0.0194971,-0.00404371,0.0477113,0.012832539348108352,0.06718794478562318,0.019688409759982317,0.017719255864299788,-0.0040355452137680325,-0.027939272867980036
108,0.098585,189.448,182.246,1.24595,185.825,-140.138,-15.455,0.0128886,0.0177209,-0.0286278,0.0656862,0.0195741,-0.00408952,0.0482743,0.0129720159915232,0.06789156021102305,0.01976692879047759,0.017878846755218225,-0.004081169300414134,-0.028221907030431037
109,0.099585,189.885,182.486,1.25196,186.163,-140.592,-15.3794,0.0130265,0.0178774,-0.0289186,0.0663449,0.0196501,-0.00413514,0.0488373,0.013111714464516755,0.06859521210404296,0.019844434022227242,0.01803815726045732,-0.0041266020811410176,-0.028504459014816907
110,0.1006,190.319,182.73,1.25789,186.501,-141.039,-15.3045,0.0131646,0.0180335,-0.0292092,0.0670033,0.0197251,-0.00418059,0.0494004,0.013251634853564731,0.06929900685550061,0.019920925223163133,0.018197085420825987,-0.004171863498502959,-0.02878673460239789
111,0.1016,190.749,182.975,1.26373,186.838,-141.479,-15.2303,0.0133029,0.0181894,-0.0294998,0.0676614,0.019799,-0.00422585,0.0499634,0.013391777245288061,0.07000294413706865,0.01999630016460685,0.018355834720629405,-0.0042169336600155205,-0.029068928172610753
112,0.1026,191.175,183.223,1.26949,187.175,-141.913,-15.1568,0.0134415,0.0183449,-0.0297902,0.068319,0.019872,-0.00427094,0.0505265,0.013532243079671824,0.07070680947869268,0.02007076261236529,0.01851420136561588,-0.004261832506224694,-0.029350845619474986
113,0.1036,191.598,183.474,1.27518,187.511,-142.341,-15.084,0.0135802,0.0185002,-0.0300805,0.0689764,0.019944,-0.00431586,0.0510896,0.013672829751247173,0.0714109235521816,0.020144210351360048,0.018672388904032555,-0.004306560060120201,-0.029632584172662013
114,0.1046,192.018,183.727,1.28079,187.846,-142.764,-15.012,0.0137191,0.0186551,-0.0303708,0.0696334,0.0200151,-0.0043606,0.0516527,0.013813638686253737,0.07211507181633126,0.020216745183298857,0.0188301934787225,-0.004351106388114312,-0.029914240949017623
115,0.1056,192.434,183.982,1.28633,188.181,-143.181,-14.9407,0.0138582,0.0188097,-0.0306609,0.07029,0.0200853,-0.00440516,0.0522158,0.01395466997189354,0.07281925373010911,0.02028836691270408,0.01898771680287359,-0.004395471514351268,-0.030195622011421785
116,0.1066,192.846,184.239,1.2918,188.515,-143.592,-14.8702,0.0139975,0.0189641,-0.030951,0.0709463,0.0201547,-0.00444956,0.0527788,0.014095923695514045,0.07352357610443838,0.020359177382462734,0.019145060652980606,-0.004439675374083074,-0.030476921457018857
117,0.1076,193.255,184.498,1.2972,188.849,-143.999,-14.8005,0.0141369,0.0191182,-0.0312409,0.0716022,0.0202233,-0.00449379,0.0533419,0.014237298520873631,0.0742279311860028,0.020429176422970707,0.019302123008170913,-0.004483708033451883,-0.030757945461091007
118,0.1086,193.661,184.759,1.30254,189.182,-144.401,-14.7316,0.0142765,0.019272,-0.0315308,0.0722578,0.020291,-0.00453785,0.0539049,0.014378895931016489,0.0749324259258306,0.020498261816728647,0.019458903730817934,-0.004527569515000329,-0.031038888008112053
119,0.1096,194.063,185.022,1.30782,189.514,-144.797,-14.6635,0.0144163,0.0194256,-0.0318205,0.0729131,0.020358,-0.00458175,0.0544678,0.01452071601366045,0.07563705999267678,0.020566637490829986,0.019615504645073445,-0.004571269795470512,-0.031319555385623477
120,0.1106,194.463,185.286,1.31304,189.845,-145.19,-14.5962,0.0145562,0.0195789,-0.0321101,0.073568,0.0204242,-0.00462548,0.0550307,0.014662657390398515,0.07634172542077478,0.020634201238567185,0.019771823683483625,-0.004614798942070619,-0.031600044625581525
121,0.1116,194.858,185.553,1.3182,190.175,-145.578,-14.5298,0.0146962,0.0197319,-0.0323997,0.0742226,0.0204897,-0.00466905,0.0555936,0.014804720106591285,0.07704652937140088,0.020701054968184085,0.019927860709035183,-0.00465816693050225,-0.03188045264761663
122,0.1126,195.251,185.82,1.32331,190.505,-145.961,-14.4641,0.0148364,0.0198847,-0.0326891,0.0748768,0.0205544,-0.00471247,0.0561564,0.014947005702337313,0.07775136373709879,0.020767096462859902,0.0200837175933144,-0.004701383734650455,-0.03216058590738258
123,0.1136,195.641,186.089,1.32837,190.834,-146.341,-14.3993,0.0149767,0.0200373,-0.0329785,0.0755306,0.0206185,-0.00475572,0.0567191,0.0150894127568586,0.07845622797372087,0.02083252973085692,0.020239394246445608,-0.0047444294689332756,-0.03244063810831288
124,0.1146,196.027,186.359,1.33338,191.162,-146.717,-14.3353,0.0151171,0.0201896,-0.0332677,0.0761842,0.0206819,-0.00479882,0.0572818,0.015231941315680508,0.07916133736897346,0.02089725256493402,0.020394788539164432,-0.0047873240596381095,-0.03272041581796514
125,0.1156,196.41,186.631,1.33834,191.488,-147.089,-14.2721,0.0152577,0.0203417,-0.0335569,0.0768374,0.0207447,-0.00484177,0.0578444,0.015374692961835024,0.07986647582769169,0.02096136692556505,0.020550002390215205,-0.00483006752614723,-0.033000112627602496
126,0.1166,196.791,186.904,1.34325,191.815,-147.457,-14.2097,0.0153984,0.0204936,-0.0338459,0.0774902,0.0208068,-0.00488456,0.0584069,0.015517566232033486,0.08057164280457108,0.02102477059511454,0.02070503571006088,-0.004872649936500606,-0.033279535216544254
127,0.1176,197.168,187.178,1.34812,192.14,-147.821,-14.1481,0.0155391,0.0206452,-0.0341348,0.0781427,0.0208683,-0.0049272,0.0589693,0.015660459605915555,0.08127694588160606,0.021087565549431364,0.020859786323274676,-0.004915081262064969,-0.03355878041990834
128,0.1186,197.542,187.453,1.35294,192.464,-148.183,-14.0874,0.01568,0.0207967,-0.0344237,0.0787949,0.0209293,-0.0049697,0.0595316,0.01580357624700457,0.08198238472431085,0.021149853790701778,0.021014458297008876,-0.004957371472438021,-0.033837944960985356
129,0.1196,197.914,187.729,1.35772,192.787,-148.54,-14.0275,0.015821,0.0209479,-0.0347124,0.0794467,0.0209896,-0.00501205,0.0600939,0.01594681464932557,0.08268785072906915,0.021211430983419044,0.021168847354621878,-0.004999510635453119,-0.034116835686461844
130,0.1206,198.282,188.005,1.36246,193.109,-148.895,-13.9683,0.0159621,0.0210989,-0.0350011,0.0800982,0.0210494,-0.00505425,0.060656,0.01609017485869746,0.08339345168837387,0.021272501252974862,0.02132305549299396,-0.005041498770148367,-0.03439564590780719
131,0.1216,198.648,188.283,1.36716,193.43,-149.247,-13.91,0.0161032,0.0212497,-0.0352896,0.0807494,0.0211086,-0.00509631,0.0612181,0.01623355529762205,0.08409918726667787,0.02133296237468052,0.021477082623116095,-0.00508334584465997,-0.0346741825831155
132,0.1226,199.011,188.561,1.37183,193.75,-149.595,-13.8525,0.0162445,0.0214004,-0.035578,0.0814002,0.0211673,-0.00513823,0.06178,0.016377159244365558,0.08480494864759458,0.021392916379204818,0.021631030819172503,-0.0051250518766376985,-0.0349525424074425
133,0.1236,199.371,188.84,1.37645,194.069,-149.941,-13.7957,0.0163858,0.0215508,-0.0358664,0.0820507,0.0212255,-0.00518002,0.0623419,0.016520783483780388,0.0855108438342076,0.021452363176823086,0.021784695681515753,-0.005166626832004972,-0.03523082196437122
134,0.1246,199.728,189.12,1.38104,194.388,-150.283,-13.7397,0.0165272,0.021701,-0.0361546,0.0827009,0.0212832,-0.00522166,0.0629036,0.01666452968518195,0.08621687248991128,0.02151130267856649,0.021938179269135993,-0.005208050831210009,-0.03550882837883251
135,0.1256,200.083,189.4,1.3856,194.705,-150.623,-13.6845,0.0166687,0.0218511,-0.0364427,0.0833507,0.0213403,-0.00526317,0.0634652,0.016808397894568117,0.08692292558546222,0.021569632639254044,0.022091583702559037,-0.005249343787978811,-0.03578665826206018
136,0.1266,200.435,189.681,1.39013,195.021,-150.96,-13.6301,0.0168102,0.0220009,-0.0367307,0.0840002,0.021397,-0.00530454,0.0640267,0.01695228646274627,0.08762911133462659,0.021627557279572773,0.022244704490258282,-0.005290495771391623,-0.03606431172046354
137,0.1276,200.785,189.963,1.39462,195.336,-151.295,-13.5764,0.0169518,0.0221506,-0.0370187,0.0846494,0.0214533,-0.00534578,0.0645881,0.017096297102221936,0.08833542939974204,0.021685076530199243,0.02239774597738986,-0.005331516745487708,-0.036341885226184645
138,0.1286,201.132,190.244,1.39908,195.65,-151.627,-13.5235,0.0170935,0.0223002,-0.0373065,0.0852983,0.021509,-0.00538689,0.0651493,0.017240429859086026,0.08904187944280717,0.021741985973875222,0.022550708121471308,-0.005372406726334988,-0.03661918612610304
139,0.1296,201.477,190.526,1.40351,195.963,-151.957,-13.4713,0.0172352,0.0224495,-0.0375942,0.0859468,0.0215644,-0.00542788,0.0657105,0.017384583041008872,0.08974835215064214,0.021798592047872045,0.022703386339339104,-0.005413175675818005,-0.0368963109199415
140,0.1306,201.819,190.809,1.40791,196.275,-152.284,-13.4199,0.017377,0.0225987,-0.0378818,0.086595,0.0216192,-0.00546873,0.0662715,0.017528858403765613,0.09045495601807896,0.021854588144995413,0.02285598506816311,-0.0054538037177581655,-0.037173259713775386
141,0.1316,202.159,191.091,1.41228,196.585,-152.609,-13.3691,0.0175188,0.0227477,-0.0381693,0.0872428,0.0216737,-0.00550946,0.0668323,0.01767315422621918,0.09116158158989918,0.02191028073765855,0.023008401964714986,-0.005494310759401322,-0.03745003261359692
142,0.1326,202.496,191.374,1.41663,196.895,-152.931,-13.3191,0.0176607,0.0228965,-0.0384567,0.0878904,0.0217278,-0.00555006,0.0673931,0.017817572293023387,0.09186844668835148,0.021965567579341982,0.023160636940928736,-0.005534686870743877,-0.03772662972531493
143,0.1336,202.831,191.658,1.42094,197.204,-153.252,-13.2698,0.0178026,0.0230452,-0.038744,0.0885376,0.0217814,-0.00559054,0.0679537,0.017962010854205346,0.09257533267067775,0.0220203464018236,0.02331279224010796,-0.005574942011849715,-0.03800305115475511
144,0.1346,203.164,191.941,1.42524,197.511,-153.57,-13.2212,0.0179445,0.0231938,-0.0390311,0.0891845,0.0218346,-0.0056309,0.0685141,0.018106469912673395,0.09328234831293614,0.022074719330559267,0.023464867819970703,-0.005615076197276858,-0.038279200835585114
145,0.1356,203.494,192.224,1.4295,197.818,-153.886,-13.1733,0.0180865,0.0233421,-0.0393182,0.0898311,0.0218875,-0.00567115,0.0690744,0.018251051296436227,0.09398949327468364,0.022128788513329223,0.023616658914899835,-0.005655099384987872,-0.03855527124522162
146,0.1366,203.823,192.508,1.43374,198.123,-154.2,-13.126,0.0182285,0.0234904,-0.0396052,0.0904773,0.0219399,-0.00571127,0.0696346,0.01839565321221337,0.09469665774547043,0.022182349465131868,0.023768472522117667,-0.005694991702155261,-0.03883116628954164
147,0.1376,204.149,192.791,1.43796,198.428,-154.512,-13.0794,0.0183706,0.0236384,-0.039892,0.0911232,0.021992,-0.00575128,0.0701946,0.018540377516953255,0.0954039507123825,0.022235606552874154,0.023920001468916485,-0.005734773049706154,-0.03910678998472261
148,0.1386,204.473,193.075,1.44215,198.731,-154.822,-13.0335,0.0185126,0.0237864,-0.0401788,0.0917688,0.0220438,-0.00579117,0.0707545,0.018685020519970674,0.09611137183392948,0.022288559728768975,0.024071552843658806,-0.005774433498576315,-0.039382334642362404
149,0.1396,204.794,193.358,1.44632,199.033,-155.13,-12.9882,0.0186547,0.0239342,-0.0404654,0.0924141,0.0220951,-0.00583094,0.0713143,0.018829785946726574,0.0968189207682848,0.022341004477079318,0.024222921805059805,-0.005813973063106603,-0.03965760821666642
150,0.1406,205.114,193.641,1.45047,199.335,-155.437,-12.9436,0.0187969,0.0240818,-0.040752,0.0930591,0.0221462,-0.00587061,0.0718738,0.018974673843573653,0.09752659717328682,0.02239324743720439,0.0243741082656046,-0.005853411640525774,-0.03993280290886847
151,0.1416,205.432,193.925,1.4546,199.635,-155.741,-12.8996,0.018939,0.0242293,-0.0410384,0.0937037,0.0221969,-0.00591017,0.0724333,0.019119480432991276,0.09823429088300295,0.02244508408889745,0.024525214590391364,-0.0058927393016550145,-0.04020772678313733
152,0.1426,205.748,194.208,1.4587,199.934,-156.044,-12.8562,0.0190812,0.0243767,-0.0413247,0.0943481,0.0222472,-0.00594961,0.0729926,0.019264409527323112,0.0989422211306763,0.022496514370087928,0.02467624073737551,-0.005931946118853504,-0.04048247597873522
153,0.1436,206.061,194.491,1.46279,200.232,-156.344,-12.8134,0.0192233,0.0245239,-0.0416109,0.0949921,0.0222972,-0.00598895,0.0735517,0.019409257291106874,0.09965016785546221,0.022547640473948416,0.024827084181817227,-0.005971051986875642,-0.040757050600607525
154,0.1446,206.373,194.774,1.46685,200.529,-156.643,-12.7713,0.0193655,0.024671,-0.041897,0.0956358,0.0223469,-0.00602818,0.0741106,0.019554227594638096,0.10035824053725428,0.022598462354593174,0.02497784733425834,-0.006010046977614536,-0.04103145075361714
155,0.1456,206.683,195.056,1.47089,200.825,-156.941,-12.7297,0.0195077,0.024818,-0.042183,0.0962792,0.0223963,-0.0060673,0.0746695,0.01969921851441203,0.1010664388321767,0.022648979966408245,0.025128530152732198,-0.00604893110399829,-0.04130567654254458
156,0.1466,206.991,195.338,1.47492,201.12,-157.237,-12.6887,0.0196499,0.0249648,-0.0424689,0.0969222,0.0224454,-0.00610633,0.0752281,0.01984423005336078,0.10177465221854876,0.02269919326405101,0.02527903006738219,-0.006087724257163973,-0.041579728072088096
157,0.1476,207.298,195.62,1.47892,201.413,-157.531,-12.6483,0.0197921,0.0251115,-0.0427546,0.097565,0.0224941,-0.00614524,0.0757866,0.01998926221441666,0.10248310063592236,0.02274899992754542,0.02542944953409121,-0.006126396631437214,-0.04185350963221979
158,0.1486,207.602,195.902,1.48291,201.706,-157.823,-12.6085,0.0199343,0.0252581,-0.0430403,0.0982074,0.0225426,-0.00618406,0.0763449,0.020134315000512215,0.10319156331361912,0.02279860445694193,0.025579788510970536,-0.006164978055849701,-0.042127212984132356
159,0.1496,207.905,196.184,1.48687,201.998,-158.114,-12.5692,0.0200765,0.0254046,-0.0433258,0.0988496,0.0225908,-0.00622278,0.0769031,0.020279388414580657,0.10390026047388035,0.02284790453779917,0.025730046956149888,-0.0062034586029111605,-0.042400646630315064
160,0.1506,208.206,196.465,1.49082,202.289,-158.404,-12.5305,0.0202187,0.0255509,-0.0436113,0.0994914,0.0226386,-0.00626139,0.0774611,0.020424482459555193,0.10460897106195333,0.022896797836176708,0.025880122239758885,-0.006241828346641776,-0.04267400222233453
161,0.1516,208.505,196.746,1.49475,202.578,-158.692,-12.4923,0.0203609,0.0256972,-0.0438966,0.100133,0.0226862,-0.00629991,0.0780189,0.020569597138370144,0.10531791558286918,0.02294548888259129,0.02603021948098805,-0.006280107174158944,-0.04294708837190897
162,0.1526,208.802,197.026,1.49867,202.867,-158.978,-12.4546,0.0205031,0.0258433,-0.0441818,0.100774,0.0227335,-0.00633834,0.0785766,0.020714732453959606,0.10602665149234958,0.022993875348546355,0.02618013344700265,-0.006318295095854576,-0.04322000094312273
163,0.1536,209.098,197.306,1.50256,203.155,-159.263,-12.4175,0.0206453,0.0259893,-0.0444669,0.101415,0.0227806,-0.00637666,0.0791341,0.020859888409258343,0.10673584184718221,0.02304205949480309,0.02632996668404619,-0.006356372249223585,-0.04349274004004822
164,0.1546,209.392,197.586,1.50644,203.441,-159.546,-12.3809,0.0207875,0.0261351,-0.0447519,0.102056,0.0228274,-0.0064149,0.0796914,0.021005065007201562,0.10744548693875977,0.0230899389835586,0.026479616502395276,-0.006394368455056698,-0.04376530576667581
165,0.1556,209.685,197.865,1.51031,203.727,-159.828,-12.3448,0.0209296,0.0262809,-0.0450368,0.102696,0.0228739,-0.00645304,0.0802486,0.021150160135704033,0.10815447890362906,0.0231375137718266,0.02662928814127863,-0.006432263851174125,-0.0440376982269145
166,0.1566,209.976,198.143,1.51416,204.011,-160.109,-12.3092,0.0210718,0.0264265,-0.0453215,0.103336,0.0229201,-0.00649108,0.0808056,0.021295378013221677,0.10886392476858853,0.023184783816892596,0.02677877624810221,-0.006470058448999394,-0.04430982195557842
167,0.1576,210.265,198.422,1.51799,204.295,-160.389,-12.274,0.021214,0.0265721,-0.0456062,0.103975,0.0229661,-0.00652904,0.0813624,0.021440616542189872,0.10957271525095691,0.02323185139949424,0.026928286121978617,-0.006507772129770495,-0.044581868221644116
168,0.1586,210.553,198.7,1.5218,204.577,-160.667,-12.2394,0.0213561,0.0267175,-0.0458907,0.104615,0.0230118,-0.0065669,0.0819191,0.021585773566962674,0.11028306907769525,0.02327861416362431,0.02707761235053452,-0.006545385033500883,-0.04485364601791042
169,0.1596,210.84,198.977,1.5256,204.859,-160.943,-12.2053,0.0214982,0.0268628,-0.0461751,0.105254,0.0230573,-0.00660468,0.0824755,0.02173095122001456,0.11099276668307212,0.02332517439980597,0.027226857570011642,-0.00658291703987024,-0.04512525101692144
170,0.1606,211.125,199.254,1.52939,205.14,-161.219,-12.1716,0.0216403,0.027008,-0.0464594,0.105893,0.0231025,-0.00664237,0.0830318,0.021876149504276743,0.11170291793014187,0.02337142974305184,0.02737602173878728,-0.006620358224143419,-0.045396683322126874
171,0.1616,211.408,199.53,1.53316,205.419,-161.493,-12.1383,0.0217824,0.0271531,-0.0467436,0.106531,0.0231475,-0.00667997,0.083588,0.022021368422681098,0.11241241069590746,0.02341748249356934,0.027525104815257384,-0.0066577085964828475,-0.045667943036895475
172,0.1626,211.69,199.806,1.53691,205.698,-161.765,-12.1056,0.0219245,0.0272981,-0.0470277,0.107169,0.0231923,-0.00671748,0.0841439,0.022166607978159947,0.11312235626248568,0.023463332623820277,0.027674106757835215,-0.00669496816702575,-0.045939030264514624
173,0.1636,211.971,200.081,1.54065,205.975,-162.037,-12.0732,0.0220665,0.027443,-0.0473116,0.107807,0.0232368,-0.00675491,0.0846997,0.022311765942464312,0.11383275491885558,0.023508877755493707,0.02782302752495358,-0.006732146878563383,-0.04620984972918052
174,0.1646,212.25,200.355,1.54438,206.252,-162.307,-12.0413,0.0222085,0.0275878,-0.0475955,0.108444,0.0232811,-0.00679226,0.0852553,0.02245694452066327,0.1145424924111309,0.023554220203106047,0.027971867075062384,-0.006769244740070568,-0.04648059231911328
175,0.1656,212.528,200.629,1.54809,206.528,-162.576,-12.0099,0.0223505,0.0277325,-0.0478792,0.109082,0.0233252,-0.00682952,0.0858107,0.02260214371568403,0.1152537974034542,0.023599359939540987,0.02812062536663107,-0.006806251828565202,-0.04675106740636714
176,0.1666,212.805,200.903,1.55178,206.802,-162.844,-11.9788,0.0224925,0.027877,-0.0481628,0.109719,0.023369,-0.0068667,0.0863659,0.0227473635304547,0.115964440388161,0.02364419457337763,0.028269199531221423,-0.006843178085658819,-0.047021370472864144
177,0.1676,213.08,201.176,1.55547,207.076,-163.111,-11.9482,0.0226345,0.0280215,-0.0484463,0.110355,0.0234126,-0.0069038,0.086921,0.022892603967902936,0.11667441952168045,0.02368882643322845,0.028417795166329807,-0.006880023520264844,-0.04729150162143558
178,0.1686,213.354,201.448,1.55914,207.349,-163.376,-11.918,0.0227764,0.0281659,-0.0487297,0.110992,0.023456,-0.00694082,0.0874759,0.02303776272717628,0.11738596773095988,0.02373325549239924,0.028566309418422753,-0.00691678814127672,-0.047561460954831714
179,0.1696,213.627,201.72,1.56279,207.621,-163.641,-11.8882,0.0229183,0.0283102,-0.049013,0.111628,0.0234992,-0.00697776,0.0880306,0.023182942085939295,0.11809685124343128,0.023777481724316152,0.028714742246042757,-0.006953471957568569,-0.047831248575722296
180,0.1706,213.898,201.991,1.56643,207.892,-163.904,-11.8588,0.0230601,0.0284544,-0.0492961,0.112263,0.0235422,-0.00701462,0.0885851,0.02332803971430586,0.11880706821399434,0.02382150510252634,0.028863093607750745,-0.0069900749779944205,-0.04810076939677821
181,0.1716,214.168,202.261,1.57006,208.162,-164.166,-11.8298,0.023202,0.0285985,-0.0495792,0.112899,0.0235849,-0.0070514,0.0891394,0.023473260266295704,0.11951885583384869,0.023865223214169173,0.029011363462126072,-0.007026597211388763,-0.04837021392728913
182,0.1726,214.437,202.531,1.57368,208.431,-164.427,-11.8012,0.0233438,0.0287425,-0.0498621,0.113534,0.0236275,-0.00708811,0.0896936,0.023618399064699203,0.12022997606408103,0.02390884080172606,0.029159551767766523,-0.007063048595935872,-0.048639391916747265
183,0.1736,214.705,202.8,1.57728,208.699,-164.687,-11.773,0.0234856,0.0288864,-0.0501449,0.114169,0.0236698,-0.00712474,0.0902476,0.02376355844524336,0.12094154799906076,0.023952153061739923,0.029307658483288535,-0.007099419210333857,-0.04890839865736718
184,0.1746,214.972,203.069,1.58087,208.967,-164.946,-11.7451,0.0236273,0.0290302,-0.0504276,0.114803,0.0237119,-0.00716129,0.0908013,0.023908636019978502,0.12165245027270033,0.023995262354828073,0.029455683567326973,-0.007135709063360696,-0.04917723425136511
185,0.1756,215.237,203.337,1.58445,209.233,-165.204,-11.7176,0.023769,0.0291739,-0.0507101,0.115437,0.0237539,-0.00719777,0.0913549,0.02405373415366241,0.12236380340128727,0.024038271059023453,0.029603626978535136,-0.007171928092054913,-0.049445803745461925
186,0.1766,215.501,203.604,1.58801,209.498,-165.46,-11.6904,0.0239107,0.0293175,-0.0509926,0.116071,0.0237956,-0.00723418,0.0919084,0.024198852849208752,0.1230756076707542,0.02408097434528389,0.02975148867558497,-0.007208076304070832,-0.04971429737939248
187,0.1776,215.764,203.871,1.59156,209.763,-165.716,-11.6637,0.0240523,0.0294611,-0.0512749,0.116705,0.0238372,-0.00727051,0.0924616,0.02434388967513712,0.12378786336721537,0.024123576999945717,0.02989937160709899,-0.007244143779489121,-0.04998252517110813
188,0.1786,216.026,204.137,1.5951,210.027,-165.97,-11.6372,0.0241939,0.0296045,-0.0515572,0.117338,0.0238785,-0.00730677,0.0930147,0.024488947039734255,0.12449944627695753,0.024165874177106472,0.03004706976669258,-0.007280140454211992,-0.05025067725280519
189,0.1796,216.287,204.402,1.59863,210.289,-166.224,-11.6111,0.0243355,0.0297479,-0.0518393,0.117971,0.0239197,-0.00734296,0.0935675,0.024634024945908273,0.12521147976127334,0.02420807068036468,0.030194789107720554,-0.00731606633584625,-0.05051856374958519
190,0.1806,216.547,204.667,1.60214,210.551,-166.476,-11.5854,0.024477,0.0298911,-0.0521212,0.118604,0.0239606,-0.00737908,0.0941202,0.024779020918661354,0.12592396410546658,0.0242499616471199,0.030342323564735985,-0.007351921431983266,-0.05078618484349873
191,0.1816,216.806,204.93,1.60565,210.812,-166.728,-11.56,0.0246185,0.0300343,-0.0524031,0.119236,0.0240014,-0.00741512,0.0946727,0.024924037409796096,0.12663577295868622,0.024291751898070313,0.030489879150198185,-0.00738769582407639,-0.051053730505658534
192,0.1826,217.063,205.194,1.60914,211.073,-166.978,-11.5349,0.02476,0.0301774,-0.0526849,0.119869,0.024042,-0.0074511,0.095225,0.025069074422216175,0.12734915916588307,0.024333338987409636,0.030637352803392748,-0.007423409372290024,-0.051321105889441054
193,0.1836,217.32,205.456,1.61261,211.332,-167.228,-11.5101,0.0249014,0.0303204,-0.0529665,0.1205,0.0240824,-0.00748701,0.0957771,0.025214029437417684,0.12806074096576436,0.024374722890253997,0.030784744483097537,-0.007459052157689494,-0.051588216255118
194,0.1846,217.576,205.718,1.61608,211.59,-167.476,-11.4857,0.0250428,0.0304633,-0.053248,0.121132,0.0241227,-0.00752285,0.096329,0.02535900495070731,0.12877390068878936,0.024416006023435965,0.030932054148109067,-0.007494624187805554,-0.05185515659862605
195,0.1856,217.83,205.979,1.61953,211.848,-167.724,-11.4615,0.0251841,0.0306061,-0.0535294,0.121763,0.0241627,-0.00755863,0.0968808,0.025503898414589,0.1294863817842693,0.024456983483220673,0.031079281757242505,-0.0075301353948528105,-0.05212192702120033
196,0.1866,218.084,206.24,1.62298,212.105,-167.97,-11.4377,0.0253254,0.0307489,-0.0538107,0.122394,0.0242026,-0.00759434,0.0974323,0.02564881235336358,0.13019931259719164,0.02449786013234534,0.031226530391979868,-0.007565575860924545,-0.052388527623996595
197,0.1876,218.336,206.5,1.62641,212.361,-168.216,-11.4142,0.0254667,0.0308915,-0.0540919,0.123025,0.0242423,-0.00762998,0.0979837,0.02579374676992452,0.1309126934114173,0.024538533504753657,0.03137359378058413,-0.007600945593508546,-0.052654958508090766
198,0.1886,218.588,206.759,1.62983,212.616,-168.461,-11.391,0.0256079,0.0310341,-0.0543729,0.123655,0.0242818,-0.00766556,0.0985349,0.025938599073300317,0.13162539288502817,0.024579003576105762,0.03152067814192283,-0.007636254523714747,-0.052921125066597074
199,0.1896,218.839,207.017,1.63324,212.87,-168.704,-11.3681,0.0257491,0.0311766,-0.0546539,0.124285,0.0243212,-0.00770107,0.0990858,0.026083471831265692,0.1323385415007723,0.024619372784114857,0.03166768031221401,-0.007671492734658392,-0.053187216842807916
200,0.1906,219.088,207.275,1.63663,213.123,-168.947,-11.3454,0.0258902,0.031319,-0.0549347,0.124915,0.0243604,-0.00773652,0.0996366,0.02622826242387699,0.13305213954169837,0.02465953865077375,0.031814600250341885,-0.007706670156717554,-0.05345304454836197
201,0.1916,219.337,207.532,1.64002,213.376,-169.189,-11.3231,0.0260313,0.0314613,-0.0552154,0.125545,0.0243994,-0.0077719,0.100187,0.026373073447882645,0.13376618729103362,0.024699501152045,0.031961437915209556,-0.007741776873685824,-0.05371870299185033
202,0.1926,219.585,207.788,1.64339,213.628,-169.43,-11.301,0.0261724,0.0316035,-0.055496,0.126174,0.0244382,-0.00780723,0.100738,0.026517904906165235,0.13447955055206573,0.02473926026401152,0.032108193265739216,-0.007776832737443451,-0.05398419227390261
203,0.1936,219.832,208.044,1.64676,213.879,-169.67,-11.2793,0.0263134,0.0317456,-0.0557764,0.126803,0.0244769,-0.00784249,0.101288,0.02666265413533786,0.13519336265973636,0.024778918440764297,0.032254866260871706,-0.007811817909528895,-0.054249417920015586
204,0.1946,220.078,208.298,1.65011,214.129,-169.909,-11.2578,0.0264543,0.0318877,-0.0560568,0.127431,0.0245154,-0.00787768,0.101838,0.026807321094853398,0.13590648798940297,0.024818373188623344,0.03240156009971784,-0.00784673239733269,-0.05451456920728304
205,0.1956,220.323,208.553,1.65345,214.378,-170.148,-11.2365,0.0265952,0.0320297,-0.056337,0.12806,0.0245538,-0.00791282,0.102388,0.026952008439379727,0.1366211979230585,0.024857726969741645,0.032548171530417225,-0.007881596050598239,-0.05477945711246257
206,0.1966,220.568,208.806,1.65678,214.627,-170.385,-11.2155,0.0267361,0.0321716,-0.0566171,0.128688,0.024592,-0.0079479,0.102937,0.027096716171789215,0.1373352202148872,0.024896877282678087,0.032694700511942676,-0.007916398953762283,-0.055044176310870996
207,0.1976,220.811,209.059,1.6601,214.875,-170.622,-11.1948,0.0268769,0.0323134,-0.0568971,0.129316,0.02463,-0.00798292,0.103487,0.02724134157081526,0.13804969105354403,0.024935824103999638,0.03284114700328611,-0.00795114111313222,-0.05530872690269262
208,0.1986,221.054,209.311,1.66341,215.122,-170.857,-11.1744,0.0270177,0.0324552,-0.0571769,0.129943,0.0246679,-0.00801787,0.104036,0.027385987334531237,0.13876347195676386,0.024974669907856573,0.032987614262214526,-0.007985812614862198,-0.055573014545339916
209,0.1996,221.295,209.562,1.6667,215.368,-171.092,-11.1542,0.0271584,0.0325968,-0.0574567,0.13057,0.0247057,-0.00805277,0.104585,0.02753055071274435,0.13947770054094333,0.025013414682650836,0.03313389566487279,-0.008020433305867436,-0.05583722825064896
210,0.2006,221.536,209.813,1.66999,215.614,-171.326,-11.1342,0.0272991,0.0327384,-0.0577363,0.131197,0.0247432,-0.00808761,0.105134,0.02767513443245595,0.14019237708686627,0.02505185340642302,0.0332801977824444,-0.008054993271932931,-0.056101179259559486
211,0.2016,221.776,210.063,1.67327,215.858,-171.559,-11.1145,0.0274398,0.0328799,-0.0580158,0.131824,0.0247806,-0.0081224,0.105683,0.027819738496527968,0.14090750187549284,0.02509019106264998,0.03342641727521589,-0.008089502438426543,-0.05636496211458519
212,0.2026,222.016,210.312,1.67653,216.102,-171.792,-11.0951,0.0275804,0.0330213,-0.0582952,0.13245,0.0248179,-0.00815712,0.106231,0.02796426011139186,0.14162193356545516,0.025128427639884432,0.033572554102248686,-0.008123940973045474,-0.056628576915467854
213,0.2036,222.254,210.56,1.67979,216.345,-172.023,-11.0759,0.0277209,0.0331627,-0.0585745,0.133076,0.024855,-0.00819179,0.10678,0.028108699236548462,0.1423368126296689,0.025166460610057007,0.033718711594489914,-0.008158328719896968,-0.056892023761870636
214,0.2046,222.492,210.808,1.68303,216.588,-172.254,-11.0569,0.0278614,0.0333039,-0.0588537,0.133702,0.024892,-0.00822641,0.107328,0.02825315865682798,0.14305213934827798,0.025204392470834724,0.03386468298190448,-0.008192665684180311,-0.05715530275337888
215,0.2056,222.729,211.055,1.68627,216.83,-172.484,-11.0381,0.0280018,0.0334451,-0.0591327,0.134328,0.0249288,-0.00826097,0.107876,0.028397535535322982,0.14376791400160194,0.025242120686672642,0.03401067498193422,-0.008226941953356937,-0.05741831973133604
216,0.2066,222.965,211.302,1.68949,217.071,-172.713,-11.0196,0.0281422,0.0335862,-0.0594117,0.134953,0.0249655,-0.00829547,0.108423,0.028541932685755,0.14448299238657114,0.025279747762954496,0.0341565841818261,-0.008261157533637431,-0.05768126333779233
217,0.2076,223.2,211.547,1.6927,217.311,-172.941,-11.0013,0.0282826,0.0337272,-0.0596905,0.135578,0.025002,-0.00832992,0.108971,0.028686350110969983,0.14519851783522353,0.025317171156720608,0.03430241054071259,-0.00829532234826813,-0.05794394518202317
218,0.2086,223.434,211.792,1.69591,217.55,-173.169,-10.9833,0.0284229,0.0338682,-0.0599691,0.136202,0.0250384,-0.00836431,0.109518,0.028830684930741368,0.145913344713144,0.025354493381011034,0.03444825746256508,-0.008329426485708558,-0.05820636544205582
219,0.2096,223.668,212.037,1.6991,217.789,-173.395,-10.9654,0.0285632,0.0340091,-0.0602477,0.136827,0.0250747,-0.00839865,0.110065,0.02897504000210871,0.14662976441142428,0.02539171442467847,0.0345940214908762,-0.008363479868503054,-0.05846871260198738
220,0.2106,223.901,212.28,1.70228,218.027,-173.621,-10.9478,0.0287034,0.0341499,-0.0605262,0.137451,0.0251108,-0.00843294,0.110612,0.029119312415976983,0.1473454846659128,0.025428731733727616,0.034739702584810406,-0.008397482501799947,-0.05873089255527464
221,0.2116,224.134,212.523,1.70545,218.264,-173.846,-10.9304,0.0288435,0.0342906,-0.0608045,0.138074,0.0251467,-0.00846717,0.111159,0.0292635021319001,0.1480605036081335,0.025465545285996205,0.03488530070355167,-0.008431424475053628,-0.05899281130019263
222,0.2126,224.365,212.765,1.70862,218.501,-174.07,-10.9132,0.0289836,0.0344312,-0.0610827,0.138698,0.0251826,-0.00850136,0.111705,0.029407712050217638,0.14877711692248652,0.025502360159895154,0.03503081580630263,-0.008465325625107378,-0.0592545630887269
223,0.2136,224.596,213.007,1.71177,218.737,-174.294,-10.8962,0.0291237,0.0345718,-0.0613608,0.139321,0.0252182,-0.00853549,0.112252,0.029551942173760226,0.14949302804948972,0.02553886869376476,0.03517635136991526,-0.008499166126052393,-0.05951614801966143
224,0.2146,224.826,213.247,1.71491,218.972,-174.517,-10.8794,0.0292637,0.0347123,-0.0616388,0.139944,0.0252538,-0.00856957,0.112798,0.02969608953574432,0.15020938532808703,0.02557537852736158,0.035321803865081325,-0.008532955898689853,-0.05977756619170238
225,0.2156,225.056,213.488,1.71804,219.206,-174.739,-10.8628,0.0294036,0.0348527,-0.0619167,0.140567,0.0252892,-0.00860359,0.113344,0.02984015409575136,0.15092618903631716,0.025611684538374035,0.0354671732510361,-0.008566685033794319,-0.06003881770347885
226,0.2166,225.285,213.727,1.72117,219.44,-174.96,-10.8464,0.0295435,0.0349931,-0.0621944,0.141189,0.0253245,-0.00863757,0.11389,0.029984238811800346,0.15164228780952893,0.025647889269847957,0.035612563048285306,-0.008600373365468816,-0.0602998086835278
227,0.2176,225.513,213.966,1.72428,219.673,-175.181,-10.8303,0.0296834,0.0351333,-0.062472,0.141811,0.0253596,-0.0086715,0.114435,0.030128343686711023,0.15235883213472978,0.025683890142572885,0.035757766108121425,-0.008634010984135188,-0.06056063325251204
228,0.2186,225.74,214.204,1.72738,219.906,-175.4,-10.8143,0.0298232,0.0352735,-0.0627495,0.142433,0.0253946,-0.00870538,0.114981,0.030272365696062398,0.15307582228913974,0.025719789706966534,0.03590298952685367,-0.008667597894877477,-0.060821291508778796
229,0.2196,225.967,214.441,1.73047,220.137,-175.619,-10.7985,0.029963,0.0354137,-0.0630269,0.143054,0.0254295,-0.00873921,0.115526,0.030416407841098003,0.15379210475746863,0.02575558795230304,0.03604823330733642,-0.008701134102772623,-0.06108178355059757
230,0.2206,226.193,214.678,1.73356,220.368,-175.838,-10.7829,0.0301027,0.0355537,-0.0633042,0.143676,0.0254643,-0.00877299,0.116071,0.03056036706859122,0.15450998668476257,0.02579128486788651,0.03619329021374584,-0.008734619612889127,-0.061342109476161255
231,0.2216,226.418,214.914,1.73663,220.599,-176.055,-10.7675,0.0302423,0.0356937,-0.0635814,0.144297,0.0254989,-0.00880672,0.116616,0.030704243338164128,0.15522716004577464,0.025826777860368244,0.03633836742954388,-0.008768054430288275,-0.061602269383585484
232,0.2226,226.643,215.149,1.73969,220.829,-176.272,-10.7522,0.0303819,0.0358336,-0.0638584,0.144917,0.0255334,-0.0088404,0.11716,0.03084813969426592,0.15594362296555753,0.025862169494706544,0.0364833613092328,-0.008801438560023134,-0.06186216955713031
233,0.2236,226.867,215.383,1.74275,221.058,-176.488,-10.7372,0.0305215,0.0359734,-0.0641353,0.145538,0.0255678,-0.00887404,0.117705,0.030992056139701463,0.15666168689119186,0.025897459760326313,0.036628271812152,-0.008834781918791501,-0.06212190396049222
234,0.2246,227.09,215.617,1.74579,221.286,-176.704,-10.7223,0.030661,0.0361131,-0.0644121,0.146158,0.025602,-0.00890763,0.118249,0.031135889563681074,0.15737903949339183,0.025932546053422323,0.03677309889766045,-0.008868074599313158,-0.06238147269150629
235,0.2256,227.313,215.851,1.74883,221.514,-176.919,-10.7076,0.0308004,0.0362528,-0.0646888,0.146777,0.0256361,-0.00894117,0.118793,0.0312796399258537,0.15809567889585097,0.02596753094973181,0.036917946216926234,-0.008901316606619525,-0.06264087584793077
236,0.2266,227.535,216.083,1.75185,221.741,-177.133,-10.6931,0.0309398,0.0363924,-0.0649654,0.147397,0.0256701,-0.00897467,0.119337,0.0314234103282236,0.158813920848764,0.026002414438800026,0.03706271006649953,-0.008934517856389212,-0.0629001135274474
237,0.2276,227.757,216.315,1.75487,221.967,-177.346,-10.6788,0.0310791,0.036532,-0.0652418,0.148016,0.025704,-0.00900812,0.11988,0.0315670976168696,0.15953144871773417,0.02603719651020242,0.03720749412651725,-0.00896766844232022,-0.06315909214357485
238,0.2286,227.977,216.546,1.75788,222.193,-177.559,-10.6646,0.0312184,0.0366714,-0.0655181,0.148635,0.0257377,-0.00904152,0.120424,0.031710804922549185,0.16024942087394778,0.026071774546361448,0.037352090929361426,-0.00900076836942243,-0.06341790552969984
239,0.2296,228.198,216.777,1.76087,222.418,-177.771,-10.6506,0.0313577,0.0368108,-0.0657943,0.149254,0.0257713,-0.00907488,0.120967,0.03185453224805057,0.1609678375925041,0.026106251137189673,0.037496707890404934,-0.009033827552359375,-0.06367655378322445
240,0.2306,228.417,217.007,1.76386,222.643,-177.982,-10.6368,0.0314968,0.0369501,-0.0660704,0.149872,0.0258048,-0.00910819,0.12151,0.03199807319652792,0.16168553746255387,0.026140626272382894,0.03764124124832868,-0.009066836085803387,-0.06393503700147452
241,0.2316,228.636,217.236,1.76684,222.866,-178.192,-10.6231,0.031636,0.0370894,-0.0663464,0.150491,0.0258382,-0.00914146,0.122053,0.03214173732710823,0.1624048434124672,0.02617489994166755,0.037785794741151735,-0.009099803883744428,-0.06419335528169967
242,0.2326,228.855,217.465,1.76981,223.09,-178.402,-10.6096,0.0317751,0.0372285,-0.0666223,0.151108,0.0258714,-0.00917468,0.122595,0.03228531822859071,0.16312226850373368,0.026208969513897395,0.03793016078562572,-0.009132721041502423,-0.06445150872107286
243,0.2336,229.073,217.693,1.77277,223.312,-178.612,-10.5963,0.0319141,0.0373676,-0.066898,0.151726,0.0259046,-0.00920787,0.123138,0.03242881586067892,0.1638413002235859,0.026243040217255764,0.03807454691281342,-0.009165607380739238,-0.06470940388763624
244,0.2346,229.29,217.92,1.77572,223.534,-178.82,-10.5831,0.0320531,0.0375067,-0.0671736,0.152343,0.0259376,-0.009241,0.12368,0.032572333440324286,0.16455961188218282,0.026276906796378396,0.03821895312550816,-0.009198433180404364,-0.06496713445902069
245,0.2356,229.507,218.147,1.77866,223.755,-179.028,-10.5701,0.032192,0.0376456,-0.0674491,0.15296,0.0259705,-0.0092741,0.124222,0.03271576769871776,0.16527836687582775,0.026310671862044277,0.03836317175384929,-0.009231228169506056,-0.0652247005321216
246,0.2366,229.723,218.373,1.78159,223.976,-179.235,-10.5572,0.0323309,0.0377845,-0.0677245,0.153577,0.0260033,-0.00930715,0.124764,0.032859221881513356,0.16599756547814293,0.02634433540416059,0.03850741041554895,-0.009263972536311393,-0.06548210220375794
247,0.2376,229.938,218.598,1.78452,224.196,-179.442,-10.5445,0.0324697,0.0379233,-0.0679998,0.154194,0.026036,-0.00934016,0.125305,0.03300259269121453,0.16671720796291956,0.026377897412664053,0.03865156524822866,-0.009296676192801168,-0.06573933957067302
248,0.2386,230.153,218.823,1.78743,224.416,-179.648,-10.5319,0.0326084,0.038062,-0.0682749,0.15481,0.0260685,-0.00937312,0.125847,0.03314588008757213,0.16743612716740652,0.026411255236391762,0.038795636211418794,-0.009329329236228756,-0.06599631932917072
249,0.2396,230.368,219.047,1.79033,224.635,-179.853,-10.5195,0.0327471,0.0382007,-0.06855,0.155426,0.026101,-0.00940605,0.126388,0.03328918735926978,0.16815548936255054,0.026444614144266243,0.03893972715863758,-0.009361951484288644,-0.06625322840226
250,0.2406,230.581,219.27,1.79323,224.853,-180.058,-10.5073,0.0328858,0.0383393,-0.0688249,0.156041,0.0261333,-0.00943893,0.126929,0.03343251450906459,0.16887412594660756,0.026477768840748483,0.03908373418427824,-0.009394523127843168,-0.06650988011137848
251,0.2416,230.795,219.493,1.79612,225.071,-180.262,-10.4952,0.0330244,0.0384778,-0.0690997,0.156657,0.0261655,-0.00947177,0.12747,0.033575758182132764,0.1695943742218844,0.026510821957057562,0.03922765724790467,-0.009427054077542518,-0.06676636795328039
252,0.2426,231.007,219.715,1.799,225.288,-180.466,-10.4832,0.033163,0.0386163,-0.0693744,0.157272,0.0261976,-0.00950457,0.12801,0.033719021710149955,0.17031389599229674,0.026543773483311384,0.03937160024625608,-0.009459544337325543,-0.06702269202428057
253,0.2436,231.219,219.937,1.80187,225.504,-180.669,-10.4714,0.0333015,0.0387547,-0.0696489,0.157887,0.0262296,-0.00953733,0.128551,0.033862201709642825,0.17103386040469637,0.02657662340965894,0.03951545923054223,-0.009491993911126206,-0.06727875914849923
254,0.2446,231.431,220.158,1.80473,225.72,-180.871,-10.4597,0.0334399,0.038893,-0.0699234,0.158501,0.0262615,-0.00957005,0.129091,0.034005298140404205,0.17175309597771005,0.02660937172627853,0.03965923416036121,-0.009524402802873033,-0.06753475599193881
255,0.2456,231.642,220.378,1.80758,225.936,-181.072,-10.4481,0.0335783,0.0390313,-0.0701977,0.159116,0.0262933,-0.00960273,0.129631,0.034148414377081826,0.17247394577032726,0.02664201842337932,0.03980302897562771,-0.009556771016489995,-0.0677904961320065
256,0.2466,231.853,220.598,1.81042,226.151,-181.273,-10.4367,0.0337166,0.0391694,-0.0704719,0.15973,0.026325,-0.00963537,0.130171,0.03429144699326758,0.17319406582726415,0.026674563491199788,0.03994663568974466,-0.009589098555895625,-0.06804607293678588
257,0.2476,232.063,220.817,1.81325,226.365,-181.474,-10.4255,0.0338549,0.0393075,-0.070746,0.160343,0.0263566,-0.00966797,0.130711,0.03443449939223231,0.17391345425964388,0.026707006920009713,0.040090262237318264,-0.009621385425003903,-0.06830148650216561
258,0.2486,232.272,221.035,1.81608,226.578,-181.673,-10.4143,0.0339932,0.0394456,-0.07102,0.160957,0.026388,-0.00970053,0.13125,0.0345775715767116,0.17463445844619319,0.026739246026178165,0.040233908621087666,-0.00965363162772348,-0.06855673692395936
259,0.2496,232.481,221.253,1.8189,226.791,-181.872,-10.4033,0.0341313,0.0395835,-0.0712939,0.16157,0.0264194,-0.00973305,0.131789,0.03472045660533052,0.17535473010993097,0.02677148614467062,0.040377366768298506,-0.009685837167958011,-0.06881182429790522
260,0.2506,232.689,221.47,1.8217,227.004,-182.071,-10.3925,0.0342695,0.0397214,-0.0715676,0.162183,0.0264506,-0.00976554,0.132328,0.034863464854075765,0.17607544343555426,0.026803521914793738,0.04052084469975181,-0.009718011952426164,-0.06906665562633674
261,0.2516,232.897,221.687,1.8245,227.216,-182.269,-10.3817,0.0344075,0.0398593,-0.0718412,0.162796,0.0264818,-0.00979798,0.132867,0.03500628586664889,0.17679659869388464,0.026835558684448646,0.04066434241817629,-0.009750136179060731,-0.06932132414911485
262,0.2526,233.105,221.903,1.82729,227.427,-182.466,-10.3711,0.0345456,0.039997,-0.0721148,0.163408,0.0265128,-0.00983039,0.133406,0.035149230104799534,0.1775170186383026,0.026867391080167335,0.04080765176474932,-0.009782229657069541,-0.06957592300411608
263,0.2536,233.312,222.118,1.83007,227.638,-182.663,-10.3606,0.0346835,0.0401347,-0.0723881,0.16402,0.0265437,-0.00986276,0.133944,0.0352919870264945,0.17823787961466842,0.026899121772788526,0.04095098084637816,-0.0098142824875177,-0.0698301731594928
264,0.2546,233.518,222.333,1.83285,227.848,-182.859,-10.3503,0.0348214,0.0402724,-0.0726614,0.164632,0.0265746,-0.00989509,0.134482,0.035434763635726396,0.17895918189297655,0.026930853445902958,0.041094329665780416,-0.009846294674284994,-0.07008435383779643
265,0.2556,233.724,222.547,1.83561,228.058,-183.055,-10.34,0.0349593,0.0404099,-0.0729346,0.165243,0.0266053,-0.00992739,0.13502,0.03557755993521039,0.17967974606305037,0.02696238070704471,0.04123748997815535,-0.009878276122463836,-0.07033837209185456
266,0.2566,233.929,222.761,1.83837,228.267,-183.25,-10.3299,0.0350971,0.0405474,-0.0732076,0.165855,0.0266359,-0.00995965,0.135558,0.03572027235562936,0.18040193103370106,0.026993806236702556,0.04138066997642653,-0.009910216934068128,-0.07059213507605
267,0.2576,234.134,222.974,1.84112,228.476,-183.444,-10.32,0.0352348,0.0406848,-0.0734806,0.166466,0.0266664,-0.00999187,0.136096,0.0358629008568796,0.18112337699285885,0.02702513002547824,0.04152376551091952,-0.009942117112963889,-0.0708458287924063
268,0.2586,234.338,223.187,1.84386,228.684,-183.638,-10.3101,0.0353725,0.0408222,-0.0737534,0.167076,0.0266969,-0.0100241,0.136633,0.03600554899942687,0.18184408204551783,0.02705645476964391,0.04166688070808955,-0.0099740261643122,-0.07109926747970308
269,0.2596,234.542,223.398,1.84659,228.891,-183.831,-10.3004,0.0355102,0.0409594,-0.0740261,0.167687,0.0267272,-0.0100562,0.137171,0.036148216785975684,0.18256640942819136,0.027087575051693236,0.04180980720865635,-0.010005805488011443,-0.07135254417361458
270,0.2606,234.746,223.61,1.84931,229.098,-184.024,-10.2907,0.0356478,0.0410966,-0.0742987,0.168297,0.0267574,-0.0100883,0.137708,0.03629080059014633,0.1832879949991666,0.027118593564837035,0.041952753320084524,-0.010037583791610794,-0.07160565896895887
271,0.2616,234.949,223.82,1.85202,229.305,-184.216,-10.2812,0.0357853,0.0412338,-0.0745711,0.168907,0.0267876,-0.0101204,0.138244,0.036433300371862876,0.18401002087161822,0.027149613014753937,0.04209571904506437,-0.01006936107514289,-0.07185851914633601
272,0.2626,235.151,224.031,1.85473,229.511,-184.408,-10.2718,0.0359228,0.0413709,-0.0748435,0.169517,0.0268176,-0.0101524,0.138781,0.03657581974864654,0.18473248731421243,0.02718042796536646,0.042238600162422424,-0.010101038348749425,-0.07211131045398123
273,0.2636,235.353,224.24,1.85743,229.716,-184.599,-10.2626,0.0360602,0.0415079,-0.0751157,0.170126,0.0268475,-0.0101844,0.139318,0.03671825505136139,0.185454209140977,0.02721114111932188,0.042381396631979484,-0.010132714608699467,-0.07236384738344037
274,0.2646,235.555,224.449,1.86012,229.921,-184.79,-10.2534,0.0361976,0.0416448,-0.0753878,0.170735,0.0268774,-0.0102164,0.139854,0.03686070992603119,0.18617637063019754,0.027241855191614484,0.04252410841357679,-0.010164389855025324,-0.07261622284332891
275,0.2656,235.756,224.658,1.8628,230.126,-184.979,-10.2443,0.0363349,0.0417817,-0.0756598,0.171344,0.0269071,-0.0102483,0.14039,0.03700308067503233,0.1868989720497105,0.027272364727778164,0.042666839733754625,-0.010195965107360982,-0.07286843692804501
276,0.2666,235.956,224.865,1.86547,230.329,-185.169,-10.2354,0.0364722,0.0419185,-0.0759317,0.171953,0.0269368,-0.0102802,0.140926,0.037145470972879124,0.1876220136675144,0.027302875170088337,0.04280948631423387,-0.010227539352462123,-0.07312048973191276
277,0.2676,236.156,225.073,1.86813,230.533,-185.358,-10.2266,0.0366094,0.0420552,-0.0762035,0.172561,0.0269663,-0.0103121,0.141461,0.03728777709347342,0.18834430740687047,0.02733318105191529,0.04295204811489017,-0.010259112590360941,-0.07337238134918211
278,0.2686,236.356,225.279,1.87079,230.736,-185.546,-10.2179,0.0367466,0.0421919,-0.0764751,0.173169,0.0269958,-0.010344,0.141997,0.037430102739806514,0.1890670404343502,0.027363487827779087,0.04309462940507647,-0.010290684821089635,-0.07362401923643569
279,0.2696,236.555,225.486,1.87344,230.938,-185.734,-10.2092,0.0368837,0.0423285,-0.0767467,0.173777,0.0270252,-0.0103758,0.142532,0.03757234415731858,0.18979021301712184,0.02739369275833159,0.043237125863739845,-0.010322157076900762,-0.0738755887881195
280,0.2706,236.754,225.691,1.87608,231.14,-185.921,-10.2007,0.0370207,0.042465,-0.0770181,0.174384,0.0270544,-0.0104075,0.143067,0.037714501306010506,0.19051263490928627,0.02742369309216297,0.04337953745078993,-0.010353529367267966,-0.0741269048481904
281,0.2716,236.952,225.896,1.87871,231.341,-186.108,-10.1923,0.0371577,0.0426015,-0.0772894,0.174992,0.0270836,-0.0104392,0.143602,0.037856677931565885,0.19123668668074512,0.027453694302016718,0.04352196847834855,-0.010384900663149343,-0.07437806014814818
282,0.2726,237.15,226.101,1.88133,231.542,-186.294,-10.184,0.0372947,0.0427379,-0.0775606,0.175599,0.0271127,-0.010471,0.144137,0.03799887403665325,0.191959986848953,0.027483593639554105,0.043664314582632535,-0.01041636992294448,-0.07462905478182524
283,0.2736,237.347,226.305,1.88395,231.742,-186.48,-10.1759,0.0374316,0.0428742,-0.0778317,0.176205,0.0271417,-0.0105026,0.144671,0.038140985809837824,0.1926825335105098,0.02751339109583073,0.043806575723586594,-0.010447640271580738,-0.07487988884298069
284,0.2746,237.544,226.508,1.88656,231.942,-186.665,-10.1678,0.0375684,0.0430105,-0.0781026,0.176812,0.0271706,-0.0105343,0.145205,0.03828301321114935,0.19340671157415779,0.02754308666193217,0.04394885625605571,-0.010479008584193816,-0.07513046993835126
285,0.2756,237.74,226.711,1.88916,232.141,-186.85,-10.1598,0.0377052,0.0431467,-0.0783735,0.177418,0.0271994,-0.0105659,0.145739,0.03842506004313839,0.1941301352165965,0.027572680328974863,0.044091051773572865,-0.010510276953479614,-0.07538098316049702
286,0.2766,237.936,226.914,1.89175,232.34,-187.034,-10.1519,0.0378419,0.0432828,-0.0786442,0.178024,0.0272282,-0.0105974,0.146273,0.03856702245175603,0.1948539973866228,0.027602274848327335,0.04423316223611673,-0.010541445388850157,-0.07563124365406948
287,0.2776,238.132,227.115,1.89434,232.538,-187.217,-10.1441,0.0379786,0.0434189,-0.0789149,0.178629,0.0272568,-0.010629,0.146807,0.0387090042679612,0.19557710277236473,0.02763166469366074,0.044375292041211045,-0.01057271178516428,-0.07588143641129486
288,0.2786,238.327,227.317,1.89691,232.736,-187.4,-10.1364,0.0381152,0.0435549,-0.0791854,0.179235,0.0272854,-0.0106605,0.14734,0.03885090160931193,0.19630184207047296,0.027661055379555766,0.044517336739749114,-0.010603878253868548,-0.07613137667680059
289,0.2796,238.522,227.517,1.89948,232.934,-187.583,-10.1288,0.0382518,0.0436908,-0.0794557,0.17984,0.0273138,-0.0106919,0.147873,0.038992818335163326,0.19702582366727572,0.027690241367967827,0.04465929629174514,-0.010634944804344015,-0.07638106461883931
290,0.2806,238.716,227.718,1.90204,233.131,-187.765,-10.1213,0.0383883,0.0438267,-0.079726,0.180445,0.0273422,-0.0107234,0.148406,0.03913465053469367,0.19775024340546876,0.02771942818527351,0.04480127513735521,-0.010666109312739036,-0.07663068507934778
291,0.2816,238.91,227.917,1.90459,233.327,-187.947,-10.1139,0.0385248,0.0439625,-0.0799962,0.181049,0.0273705,-0.0107548,0.148939,0.039276502095640264,0.1984739030757059,0.027748513056639945,0.044943168784879584,-0.010697173909189894,-0.07688014576458302
292,0.2826,239.104,228.117,1.90714,233.523,-188.128,-10.1066,0.0386612,0.0440982,-0.0802662,0.181654,0.0273987,-0.0107862,0.149472,0.03941826907881474,0.19919919916701123,0.02777749597336543,0.04508497719436666,-0.01072823753022778,-0.07712935448053604
293,0.2836,239.297,228.315,1.90968,233.718,-188.308,-10.0994,0.0387976,0.0442339,-0.0805361,0.182258,0.0274268,-0.0108175,0.150004,0.03956005540032437,0.19992373427088284,0.027806376926777787,0.04522680484856045,-0.010759201251808292,-0.0773784036570635
294,0.2846,239.489,228.513,1.9122,233.913,-188.489,-10.0922,0.0389339,0.0443695,-0.080806,0.182862,0.0274548,-0.0108489,0.150537,0.039701757092626355,0.20064870712614447,0.02783515590823571,0.04536854721321304,-0.01079026292521823,-0.0776273856242885
295,0.2856,239.681,228.711,1.91473,234.108,-188.668,-10.0852,0.0390701,0.044505,-0.0810757,0.183465,0.0274828,-0.0108801,0.151069,0.0398433741158426,0.201372916623761,0.02786393569551615,0.045510204248407904,-0.010821125787551789,-0.07787611597559008
296,0.2866,239.873,228.908,1.91724,234.302,-188.847,-10.0783,0.0392063,0.0446405,-0.0813452,0.184068,0.0275107,-0.0109114,0.1516,0.039985010428611245,0.2020975629513957,0.02789261349937555,0.04565188047943147,-0.01085208660177539,-0.07812459487829859
297,0.2876,240.064,229.105,1.91975,234.496,-189.026,-10.0714,0.0393425,0.0447759,-0.0816147,0.184671,0.0275384,-0.0109426,0.152132,0.0401266660335593,0.20282264637253622,0.027921086519119065,0.04579347132953271,-0.010882947535240328,-0.07837300682496562
298,0.2886,240.255,229.301,1.92225,234.689,-189.204,-10.0647,0.0394785,0.0449112,-0.0818841,0.185274,0.0275661,-0.0109738,0.152664,0.04026813287966746,0.20354816715082968,0.027949560327576117,0.04593497675882996,-0.01091380750585913,-0.07862125969576383
299,0.2896,240.446,229.496,1.92474,234.881,-189.382,-10.058,0.0396146,0.0450465,-0.0821533,0.185877,0.0275937,-0.011005,0.153195,0.040409723007541976,0.20427412555008195,0.027977932126970195,0.04607650133510699,-0.010944666513661994,-0.07886926147011719
300,0.2906,240.636,229.692,1.92722,235.074,-189.559,-10.0514,0.0397506,0.0451817,-0.0824225,0.186479,0.0276213,-0.0110361,0.153726,0.04055122835201619,0.2049993168343387,0.028006304709436547,0.046217940439155614,-0.010975425656226223,-0.07911719649137827
301,0.2916,240.826,229.886,1.9297,235.265,-189.736,-10.0449,0.0398865,0.0453169,-0.0826915,0.187081,0.0276487,-0.0110672,0.154257,0.040692648873255965,0.20572494481518078,0.028034472468082328,0.04635939866706362,-0.011006183842196093,-0.07936488065050917
302,0.2926,241.015,230.08,1.93217,235.457,-189.912,-10.0385,0.0400224,0.0454519,-0.0829604,0.187682,0.0276761,-0.0110983,0.154787,0.040834088614850605,0.2064498033051727,0.02806264099853495,0.04650066672126285,-0.011036941071601136,-0.07961240615280696
303,0.2936,241.204,230.274,1.93463,235.648,-190.088,-10.0321,0.0401582,0.045587,-0.0832292,0.188284,0.0277034,-0.0111294,0.155318,0.04097544348186277,0.2071763047417543,0.02809070749174003,0.04664205851213721,-0.011067697344471328,-0.07985977309042724
304,0.2946,241.392,230.467,1.93708,235.838,-190.263,-10.0259,0.040294,0.0457219,-0.0834978,0.188885,0.0277306,-0.0111604,0.155848,0.04111681754616936,0.2079020357612309,0.028118671939298734,0.04678326004966027,-0.011098353770676583,-0.08010688956614676
305,0.2956,241.58,230.66,1.93953,236.028,-190.438,-10.0197,0.0404297,0.0458568,-0.0837664,0.189486,0.0277577,-0.0111914,0.156378,0.041258106684561646,0.20862820307614371,0.028146534332841977,0.04692448063655541,-0.011129009246547361,-0.08035393967529425
306,0.2966,241.768,230.852,1.94197,236.217,-190.613,-10.0136,0.0405653,0.0459916,-0.0840348,0.190086,0.0277848,-0.0112224,0.156908,0.04139931085725457,0.20935359759458327,0.02817439748146633,0.047065615568825825,-0.011159663772113082,-0.08060073955585989
307,0.2976,241.955,231.043,1.9444,236.407,-190.786,-10.0076,0.0407009,0.0461264,-0.0843032,0.190687,0.0278117,-0.0112533,0.157438,0.04154053417853154,0.21008063756036321,0.028202055744760424,0.047206769527367465,-0.01119021846643009,-0.08084747320422625
308,0.2986,242.142,231.235,1.94682,236.595,-190.96,-10.0017,0.0408365,0.046261,-0.0845714,0.191287,0.0278386,-0.0112842,0.157967,0.04168177665098938,0.21080690380098366,0.028229714752072033,0.04734773304517792,-0.011220772216621655,-0.08109395685697762
309,0.2996,242.329,231.425,1.94924,236.783,-191.133,-9.99588,0.040972,0.0463957,-0.0848395,0.191887,0.0278654,-0.0113151,0.158496,0.041822934094926545,0.21153360593210246,0.028257271677688545,0.047488820286831546,-0.011251325022716863,-0.08134028254571024
310,0.3006,242.515,231.615,1.95165,236.971,-191.306,-9.99012,0.0411075,0.0465302,-0.0851075,0.192486,0.0278922,-0.011346,0.159025,0.041964110666993015,0.21225953195519454,0.02828482934184051,0.04762971700825225,-0.011281876884744912,-0.08158645036202716
311,0.3016,242.701,231.805,1.95405,237.159,-191.478,-9.98443,0.0412429,0.0466647,-0.0853754,0.193086,0.0279188,-0.0113768,0.159554,0.04210520215925584,0.21298710592473125,0.028312182082090853,0.047770632681556346,-0.011312328933972937,-0.08183246039745962
312,0.3026,242.886,231.994,1.95644,237.346,-191.65,-9.97882,0.0413782,0.0467991,-0.0856431,0.193685,0.0279454,-0.0114076,0.160083,0.04224620853197414,0.2137139028551296,0.028339535549933847,0.04791146251814182,-0.011342780045292211,-0.08207822095129336
313,0.3036,243.071,232.183,1.95883,237.532,-191.821,-9.97329,0.0415135,0.0469335,-0.0859108,0.194284,0.0279719,-0.0114384,0.160611,0.04238723398414512,0.21444113526730302,0.028366786908704755,0.04805231128352916,-0.011373230218731711,-0.08232391572383213
314,0.3046,243.256,232.372,1.96121,237.718,-191.992,-9.96784,0.0416487,0.0470678,-0.0861783,0.194882,0.0279983,-0.0114691,0.161139,0.04252817426552813,0.21516758825398719,0.028393936150247656,0.0481930741609502,-0.011403580594683382,-0.08256936124657377
315,0.3056,243.44,232.559,1.96358,237.904,-192.162,-9.96246,0.0417839,0.047202,-0.0864458,0.19548,0.0280247,-0.0114998,0.161668,0.04266913360332536,0.21589447578947474,0.028421086108539884,0.04833375111071492,-0.011433930038892814,-0.08281474112141884
316,0.3066,243.624,232.747,1.96595,238.089,-192.332,-9.95716,0.041919,0.0473362,-0.0867131,0.196078,0.0280509,-0.0115305,0.162195,0.04281000771910737,0.2166217981337033,0.028448031093973647,0.048474446940592886,-0.01146427855138854,-0.08305987197791853
317,0.3076,243.807,232.934,1.96831,238.274,-192.501,-9.95193,0.0420541,0.0474703,-0.0869803,0.196676,0.0280771,-0.0115612,0.162723,0.04295090086826825,0.21734955554676638,0.02847497678537536,0.04861505679160749,-0.011494626132199204,-0.08330484565018592
318,0.3086,243.99,233.12,1.97066,238.458,-192.67,-9.94677,0.0421892,0.0476044,-0.0872474,0.197274,0.0281033,-0.0115918,0.16325,0.04309181305337928,0.2180777482889129,0.028501923182763234,0.048755685499667356,-0.011524873933845825,-0.08354966222920324
319,0.3096,244.173,233.306,1.973,238.642,-192.839,-9.94169,0.0423241,0.0477383,-0.0875143,0.197871,0.0281293,-0.0116224,0.163778,0.04323253563048457,0.21880515781478027,0.02852866458040282,0.048896123288055815,-0.011555120809923936,-0.08379423018530863
320,0.3106,244.356,233.492,1.97534,238.826,-193.007,-9.93667,0.042459,0.0478722,-0.0877812,0.198468,0.0281553,-0.011653,0.164305,0.04337327719234607,0.21953300173378798,0.028555406673327566,0.04903657988232335,-0.011585366760461735,-0.0840387328749368
321,0.3116,244.538,233.677,1.97767,239.009,-193.175,-9.93173,0.0425939,0.0480061,-0.088048,0.199065,0.0281812,-0.0116836,0.164832,0.04351403774152485,0.2202612803053463,0.028582046603345956,0.04917705528498795,-0.011615611785487645,-0.08428307874381746
322,0.3126,244.719,233.861,1.97999,239.192,-193.342,-9.92686,0.0427287,0.0481399,-0.0883146,0.199661,0.028207,-0.0117141,0.165358,0.04365471291510614,0.2209887727996367,0.028608584362483924,0.049317444566818525,-0.011645757049610572,-0.08452717633536955
323,0.3136,244.9,234.046,1.98231,239.374,-193.509,-9.92206,0.0428635,0.0482736,-0.0885811,0.200257,0.0282328,-0.0117446,0.165885,0.04379540705297891,0.22171669900868807,0.02863512280630487,0.04945774768821165,-0.011675901394316957,-0.08477111733629406
324,0.3146,245.081,234.229,1.98462,239.556,-193.676,-9.91733,0.0429982,0.0484073,-0.0888476,0.200853,0.0282585,-0.0117751,0.166411,0.04393601576409312,0.22244505919107116,0.028661559068665632,0.04959806956938628,-0.011706044819634887,-0.0850149933356037
325,0.3156,245.262,234.413,1.98692,239.737,-193.842,-9.91267,0.0431329,0.0485409,-0.0891139,0.201449,0.0282841,-0.0118056,0.166937,0.0440766434164761,0.22317385360551123,0.028687893141652543,0.04973830523901501,-0.01173618732559234,-0.08525862140236151
326,0.3166,245.442,234.596,1.98922,239.919,-194.008,-9.90808,0.0432675,0.0486744,-0.08938,0.202045,0.0283096,-0.011836,0.167463,0.04421718559095633,0.22390308251088786,0.028714125017382575,0.049878454657529936,-0.011766230088845253,-0.08550200170002165
327,0.3176,245.622,234.778,1.99151,240.099,-194.173,-9.90355,0.043402,0.0488079,-0.0896461,0.20264,0.0283351,-0.0118664,0.167989,0.04435764224791661,0.2246315215341006,0.02874035756203397,0.05001862278724123,-0.011796271938812164,-0.08574531724280055
328,0.3186,245.801,234.96,1.99379,240.28,-194.338,-9.89909,0.0435365,0.0489413,-0.0899121,0.203235,0.0283605,-0.0118968,0.168514,0.04449811779756785,0.22536039410750086,0.02876648789896996,0.05015870461477112,-0.011826312875520717,-0.08598847664677944
329,0.3196,245.981,235.142,1.99606,240.46,-194.502,-9.89469,0.043671,0.0490746,-0.090178,0.203829,0.0283858,-0.0119272,0.169039,0.04463861224245136,0.22608847440003976,0.028792516020368142,0.05029870010058812,-0.011856352898998557,-0.08623148000211123
330,0.3206,246.159,235.323,1.99833,240.639,-194.666,-9.89037,0.0438053,0.0492079,-0.0904437,0.204424,0.0284111,-0.0119575,0.169564,0.04477891662930422,0.22681821411834524,0.028818544800286228,0.05043871424904722,-0.011886293197907905,-0.08647423604630611
331,0.3216,246.338,235.503,2.00059,240.818,-194.83,-9.8861,0.0439397,0.0493411,-0.0907093,0.205018,0.0284363,-0.0119878,0.170089,0.04491934435223066,0.22754716061320734,0.02884447135428836,0.050578642004766916,-0.011916232589639919,-0.08671683627047633
332,0.3226,246.516,235.684,2.00284,240.997,-194.993,-9.8819,0.044074,0.0494743,-0.0909749,0.205612,0.0284614,-0.0120181,0.170614,0.045059686443937874,0.22827654023091193,0.02887029567461319,0.0507185884001049,-0.011946171074222134,-0.08695937206858306
333,0.3236,246.694,235.863,2.00509,241.175,-195.156,-9.87777,0.0442082,0.0496073,-0.0912403,0.206206,0.0284865,-0.0120484,0.171138,0.04519994286485396,0.2290063532288109,0.028896120643136625,0.0508583432658547,-0.011976108651681971,-0.08720166089808623
334,0.3246,246.871,236.043,2.00733,241.353,-195.319,-9.8737,0.0443424,0.0497404,-0.0915056,0.206799,0.0285115,-0.0120786,0.171663,0.04534021810944466,0.22973537012842304,0.02892184336768544,0.050998221820054646,-0.012005946522646638,-0.08744379417705028
335,0.3256,247.048,236.222,2.00956,241.531,-195.481,-9.86969,0.0444765,0.0498733,-0.0917708,0.207392,0.0285364,-0.0121088,0.172187,0.045480407632190634,0.23046481946326125,0.028947463840558907,0.051137908765726436,-0.012035783492521102,-0.0876857719951577
336,0.3266,247.225,236.4,2.01179,241.708,-195.642,-9.86574,0.0446106,0.0500062,-0.0920358,0.207985,0.0285612,-0.012139,0.17271,0.045620615955612065,0.23119470148983523,0.028972982054086716,0.05127761427702704,-0.012065619561332785,-0.08792750323477505
337,0.3276,247.401,236.579,2.01401,241.885,-195.804,-9.86185,0.0447446,0.0501391,-0.0923008,0.208578,0.028586,-0.0121692,0.173234,0.045760738506151366,0.23192501646480768,0.028998500900474067,0.051417338356423814,-0.012095454729108668,-0.088169170424101
338,0.3286,247.577,236.756,2.01622,242.061,-195.965,-9.85803,0.0448786,0.0502718,-0.0925656,0.20917,0.0286107,-0.0121993,0.173758,0.04590087983437052,0.23265453198984454,0.029023917477339678,0.0515568706949896,-0.012125190208400083,-0.08841059126224304
339,0.3296,247.753,236.934,2.01843,242.237,-196.125,-9.85427,0.0450125,0.0504046,-0.0928304,0.209762,0.0286354,-0.0122294,0.174281,0.04604093533868703,0.2333844795159319,0.029049334682002437,0.05169652672037284,-0.01215492479266711,-0.08865194818061051
340,0.3306,247.928,237.111,2.02063,242.413,-196.285,-9.85056,0.0451464,0.0505372,-0.093095,0.210354,0.02866,-0.0122595,0.174804,0.046181009597691336,0.23411485929888998,0.029074649607008007,0.05183599092608837,-0.012184658481936617,-0.08889305897475708
341,0.3316,248.103,237.287,2.02282,242.588,-196.445,-9.84692,0.0452802,0.0506698,-0.0933595,0.210946,0.0286845,-0.0122896,0.175327,0.04632099798178957,0.23484567159469094,0.029099862244776897,0.05197547362598387,-0.01221439127623547,-0.08913401489283335
342,0.3326,248.278,237.463,2.02501,242.763,-196.604,-9.84333,0.045414,0.0508023,-0.093624,0.211537,0.0287089,-0.0123196,0.175849,0.04646100509758666,0.23557568108315907,0.0291249725877607,0.05211486961101941,-0.012244024399998166,-0.0893749070864972
343,0.3336,248.452,237.639,2.02719,242.938,-196.763,-9.8398,0.0455477,0.0509348,-0.0938883,0.212128,0.0287333,-0.0123497,0.176372,0.04660092628749135,0.2363061221347491,0.029150083543444172,0.05225428406724664,-0.012273755407409825,-0.08961555349573036
344,0.3346,248.626,237.814,2.02936,243.112,-196.922,-9.83633,0.0456813,0.0510672,-0.0941525,0.212719,0.0287577,-0.0123797,0.176894,0.04674076151202833,0.23703699500459052,0.029175195111842633,0.052393611757746594,-0.012303386750275203,-0.08985604529613112
345,0.3356,248.8,237.989,2.03153,243.286,-197.08,-9.83292,0.0458149,0.0511995,-0.0944165,0.21331,0.0287819,-0.0124097,0.177416,0.046880615419799376,0.2377682999479631,0.029200101452929728,0.05253285264316365,-0.012333017204213648,-0.0900962915862672
346,0.3366,248.973,238.163,2.03369,243.459,-197.238,-9.82956,0.0459485,0.0513318,-0.0946805,0.2139,0.0288061,-0.0124396,0.177938,0.04702048801330072,0.23849879872087976,0.02922500839675779,0.05267211195136845,-0.012362548005511509,-0.09033647445975423
347,0.3376,249.146,238.337,2.03584,243.633,-197.395,-9.82626,0.046082,0.051464,-0.0949444,0.21449,0.0288302,-0.0124695,0.17846,0.047160274578996075,0.23922972861524094,0.029249813018354498,0.05281128440366478,-0.012392077923851663,-0.09057650299098652
348,0.3386,249.319,238.511,2.03799,243.805,-197.552,-9.82302,0.0462154,0.0515962,-0.0952081,0.21508,0.0288543,-0.0124995,0.178981,0.04729997507744099,0.23996108988548293,0.029274618237749905,0.052950475255775675,-0.012421705717094889,-0.09081628635032235
349,0.3396,249.491,238.684,2.04013,243.978,-197.709,-9.81983,0.0463488,0.0517282,-0.0954717,0.215669,0.0288783,-0.0125294,0.179503,0.0474396942131754,0.24069164209393068,0.029299321125021205,0.05308947389221763,-0.012451233866645928,-0.09105591559271875
350,0.3406,249.663,238.857,2.04226,244.15,-197.865,-9.81669,0.0464822,0.0518603,-0.0957353,0.216259,0.0289022,-0.0125592,0.180024,0.04757943198868597,0.24142386614762135,0.029323921672771425,0.053228596200544986,-0.012480662381389673,-0.09129548167717139
351,0.3416,249.835,239.03,2.04439,244.321,-198.021,-9.81361,0.0466155,0.0519922,-0.0959987,0.216848,0.0289261,-0.0125891,0.180545,0.047719083634545356,0.24215528018507104,0.02934852280848177,0.05336752621461671,-0.012510188768162789,-0.09153480292730531
352,0.3426,250.006,239.202,2.04651,244.493,-198.177,-9.81059,0.0467487,0.0521241,-0.096262,0.217437,0.0289499,-0.0126189,0.181065,0.04785864911133997,0.24288712515228528,0.029373021594859106,0.05350647455476598,-0.01253961552607663,-0.09177397032592483
353,0.3436,250.177,239.373,2.04863,244.664,-198.332,-9.80761,0.0468819,0.052256,-0.0965252,0.218025,0.0289737,-0.0126487,0.181586,0.04799823317949414,0.24361815768437656,0.02939752096431425,0.053645441223410195,-0.012569041407086146,-0.09201298396136082
354,0.3446,250.348,239.545,2.05074,244.834,-198.487,-9.80469,0.0470151,0.0523878,-0.0967883,0.218614,0.0289974,-0.0126785,0.182106,0.048137835841484566,0.24435086454023924,0.029421917974664646,0.05378432084452944,-0.012598466411217424,-0.09225184392187491
355,0.3456,250.518,239.716,2.05284,245.004,-198.642,-9.80183,0.0471481,0.0525195,-0.0970513,0.219202,0.029021,-0.0127082,0.182626,0.048277247444317384,0.2450827580041799,0.029446212618604584,0.053923113378872456,-0.012627791801280819,-0.09249055029565934
356,0.3466,250.688,239.886,2.05494,245.174,-198.796,-9.79901,0.0472812,0.0526511,-0.0973141,0.21979,0.0290446,-0.012738,0.183146,0.04841678243179981,0.24581508194802626,0.02947050783590477,0.05406181878720884,-0.01265721505467643,-0.09272901244374299
357,0.3476,250.858,240.056,2.05702,245.344,-198.95,-9.79625,0.0474142,0.0527827,-0.0975769,0.220377,0.0290681,-0.0127677,0.183666,0.048556231136996475,0.24654659007776103,0.02949470067710358,0.054200542450377975,-0.012686538699931083,-0.09296741193220792
358,0.3486,251.028,240.226,2.05911,245.513,-199.103,-9.79353,0.0475471,0.0529143,-0.0978396,0.220964,0.0290915,-0.0127974,0.184185,0.04869559352053998,0.24727852772882053,0.029518791134956812,0.054339284370782615,-0.012715861474286383,-0.09320565809808934
359,0.3496,251.197,240.396,2.06118,245.682,-199.256,-9.79087,0.04768,0.0530458,-0.0981021,0.221552,0.0291149,-0.0128271,0.184705,0.048834974426574806,0.24801214316492626,0.029542882156533112,0.05447793910302612,-0.012745183377768088,-0.09344366037367324
360,0.3506,251.366,240.565,2.06326,245.85,-199.409,-9.78826,0.0478128,0.0531772,-0.0983645,0.222138,0.0291383,-0.0128567,0.185224,0.04897426896013091,0.2487436926038722,0.029566973741846025,0.054616506607910065,-0.012774405687847823,-0.09368150955001453
361,0.3516,251.534,240.733,2.06532,246.018,-199.561,-9.78569,0.0479456,0.0533085,-0.0986269,0.222725,0.0291615,-0.0128863,0.185743,0.04911358199322957,0.24947692033271518,0.029590859972716155,0.05475498684625624,-0.012803627132959905,-0.09391929632291962
362,0.3526,251.702,240.902,2.06738,246.186,-199.713,-9.78318,0.0480783,0.0534398,-0.0988891,0.223311,0.0291847,-0.012916,0.186261,0.049252808603041265,0.2502093283826299,0.029614746757752997,0.05489348526825166,-0.012832946429840342,-0.09415683954014709
363,0.3536,251.87,241.069,2.06943,246.354,-199.865,-9.78071,0.048211,0.053571,-0.0991512,0.223897,0.0292079,-0.0129456,0.18678,0.0493920536894501,0.2509421657494395,0.029638634096969874,0.055031896373088696,-0.012862166142172171,-0.09439422992113511
364,0.3546,252.038,241.237,2.07148,246.521,-200.016,-9.77829,0.0483436,0.0537022,-0.0994132,0.224483,0.029231,-0.0129751,0.187298,0.04953121230178148,0.2516754326847974,0.029662419024132358,0.055170325638654205,-0.012891286278746805,-0.0946314675534089
365,0.3556,252.205,241.404,2.07352,246.688,-200.167,-9.77593,0.0484762,0.0538333,-0.0996751,0.225069,0.029254,-0.0130047,0.187816,0.04967038936776813,0.2524091294405044,0.029686101532117704,0.05530866753645869,-0.012920504264244737,-0.09486855252442461
366,0.3566,252.372,241.571,2.07555,246.854,-200.318,-9.7736,0.0486087,0.0539644,-0.0999368,0.225654,0.029277,-0.0130342,0.188334,0.049809479908904164,0.2531420031258793,0.02970978458480711,0.05544702757207487,-0.012949622679870099,-0.09510539443211363
367,0.3576,252.539,241.737,2.07758,247.02,-200.468,-9.77133,0.0487412,0.0540953,-0.100199,0.226239,0.0292999,-0.0130637,0.188852,0.04994858888075804,0.2538753056677887,0.029733365208871154,0.05558519463082079,-0.012978740236515018,-0.09534262669518467
368,0.3586,252.705,241.904,2.0796,247.186,-200.618,-9.7691,0.0488736,0.0542263,-0.10046,0.226824,0.0293228,-0.0130932,0.189369,0.05008761127700545,0.25460903731718676,0.029756946372937687,0.05572348534916172,-0.013007856934204587,-0.09557871145921537
369,0.3596,252.871,242.069,2.08161,247.351,-200.768,-9.76692,0.0490059,0.0543571,-0.100722,0.227409,0.0293456,-0.0131227,0.189887,0.0502265470583767,0.2553431983251746,0.029780425098971497,0.0558615830124356,-0.01303697277296434,-0.09581563879797639
370,0.3606,253.037,242.235,2.08362,247.517,-200.917,-9.76478,0.0491382,0.0544879,-0.100983,0.227993,0.0293683,-0.0131521,0.190404,0.05036550122216776,0.2560765328658401,0.029803801379941097,0.055999698740065273,-0.013065989059423355,-0.09605160012195779
371,0.3616,253.203,242.4,2.08562,247.681,-201.066,-9.76269,0.0492705,0.0546187,-0.101244,0.228577,0.029391,-0.0131815,0.190921,0.05050447377081069,0.25681029579895576,0.029827178191558223,0.056137832534413734,-0.013095004492815976,-0.09628749986806995
372,0.3626,253.368,242.564,2.08762,247.846,-201.215,-9.76065,0.0494027,0.0547494,-0.101505,0.229161,0.0294137,-0.013211,0.191438,0.05064335964239719,0.25754448737477587,0.029850555533835088,0.05627587877025109,-0.013124117760760612,-0.09652333805238256
373,0.3636,253.533,242.729,2.08961,248.01,-201.363,-9.75865,0.0495349,0.05488,-0.101766,0.229745,0.0294362,-0.0132403,0.191954,0.05078226387590945,0.2582791078437008,0.029873727432017327,0.05641383740852146,-0.01315303280050284,-0.0967591146909611
374,0.3646,253.698,242.893,2.0916,248.174,-201.511,-9.75669,0.049667,0.0550105,-0.102027,0.230328,0.0294588,-0.0132697,0.192471,0.05092108138166185,0.25901289844274933,0.029897002841268394,0.056551708410190304,-0.013182045674847154,-0.09699482979986696
375,0.3656,253.862,243.056,2.09357,248.337,-201.659,-9.75478,0.049799,0.055141,-0.102288,0.230911,0.0294812,-0.0132991,0.192987,0.051059812120431536,0.2597471169664449,0.02992007279251463,0.05668959740519908,-0.013211057696225548,-0.09723048339515727
376,0.3666,254.026,243.219,2.09555,248.5,-201.806,-9.75291,0.049931,0.0552715,-0.102549,0.231494,0.0295036,-0.0133284,0.193503,0.05119856117286736,0.2604817636643406,0.02994314326053349,0.0568275043958959,-0.013239970188664962,-0.097466075492885
377,0.3676,254.19,243.382,2.09751,248.663,-201.953,-9.75108,0.050063,0.0554019,-0.102809,0.232077,0.029526,-0.0133577,0.194018,0.05133732854138695,0.26121683878613466,0.02996621424533652,0.05696532368809182,-0.013268881833980783,-0.09770070381025375
378,0.3686,254.353,243.545,2.09947,248.826,-202.1,-9.7493,0.0501949,0.0555322,-0.10307,0.232659,0.0295483,-0.013387,0.194534,0.05147600908080219,0.2619510806299592,0.0299891827480121,0.05710305524278425,-0.013297792632197769,-0.09793617319646775
379,0.3696,254.516,243.707,2.10143,248.988,-202.247,-9.74756,0.0503268,0.0556625,-0.10333,0.233241,0.0295705,-0.0134163,0.195049,0.05161470791338685,0.26268574992691374,0.030012048761680843,0.05724080474506743,-0.013326702583340788,-0.09817067930432155
380,0.3706,254.679,243.869,2.10338,249.15,-202.393,-9.74586,0.0504586,0.0557927,-0.10359,0.233823,0.0295927,-0.0134455,0.195565,0.051753319866216785,0.26342084692584833,0.030034915282980856,0.05737846645942857,-0.013355513022990873,-0.09840512444851301
381,0.3716,254.842,244.03,2.10532,249.312,-202.538,-9.7442,0.0505903,0.0559228,-0.103851,0.234405,0.0296149,-0.0134748,0.19608,0.051891844900116446,0.264156371875758,0.030057782311923242,0.057516040346902164,-0.013384421282951253,-0.09864041000493118
382,0.3726,255.004,244.192,2.10726,249.473,-202.684,-9.74258,0.050722,0.0560529,-0.104111,0.234986,0.029637,-0.013504,0.196594,0.05203038817896455,0.2648910601340899,0.030080546840459466,0.057653632133902954,-0.013413230037239932,-0.09887473303501593
383,0.3736,255.166,244.352,2.10919,249.634,-202.829,-9.74101,0.0508537,0.0561829,-0.104371,0.235567,0.029659,-0.0135332,0.197109,0.052168949705163836,0.26562617537032507,0.030103208861771202,0.057791136043640945,-0.01344203795032528,-0.09910899514903238
384,0.3746,255.328,244.513,2.11112,249.794,-202.974,-9.73947,0.0509853,0.0563129,-0.10463,0.236148,0.029681,-0.0135623,0.197623,0.05230742425037027,0.26636171783260965,0.030125871381653013,0.05792865783004908,-0.013470746369311337,-0.09934229570556252
385,0.3756,255.489,244.673,2.11304,249.955,-203.118,-9.73798,0.0511168,0.0564428,-0.10489,0.236729,0.0297029,-0.0135915,0.198137,0.05244581177543961,0.26709768776923415,0.03014843138526735,0.05806609168883692,-0.013499552602944331,-0.09957643626908685
386,0.3766,255.65,244.833,2.11495,250.115,-203.262,-9.73652,0.0512483,0.0565726,-0.10515,0.237309,0.0297248,-0.0136206,0.198651,0.05258421749966491,0.2678328175951816,0.03017099188295136,0.05820343758109381,-0.013528259348278393,-0.09981051596397783
387,0.3776,255.811,244.992,2.11686,250.274,-203.406,-9.73511,0.0513797,0.0567024,-0.105409,0.237889,0.0297466,-0.0136498,0.199165,0.0527225361531809,0.268568373920101,0.030193449855365317,0.058340801302004364,-0.013557063902556954,-0.10004363485014434
388,0.3786,255.972,245.151,2.11876,250.434,-203.55,-9.73373,0.0515111,0.0568321,-0.105669,0.238469,0.0297684,-0.0136789,0.199679,0.05286087298296227,0.2693043569914333,0.030215908317368534,0.05847807700607022,-0.013585768974336498,-0.10027759308919415
389,0.3796,256.132,245.31,2.12066,250.593,-203.693,-9.7324,0.0516425,0.0569618,-0.105928,0.239049,0.0297901,-0.013708,0.200192,0.05299922799139711,0.2700407670567633,0.03023826424513998,0.05861537051594956,-0.013614473210810663,-0.10051059101804982
390,0.3806,256.292,245.469,2.12255,250.752,-203.836,-9.7311,0.0517738,0.0570914,-0.106187,0.239628,0.0298117,-0.013737,0.200706,0.0531374958671198,0.27077633358685027,0.030260517631983452,0.0587525759586891,-0.013643077976316476,-0.10074352860825608
391,0.3816,256.452,245.627,2.12443,250.91,-203.979,-9.72984,0.051905,0.0572209,-0.106446,0.240208,0.0298334,-0.0137661,0.201219,0.0532756765710336,0.27151359764623995,0.03028287452778744,0.0588896932954317,-0.013671780545122969,-0.10097640587543866
392,0.3826,256.611,245.785,2.12631,251.068,-204.121,-9.72861,0.0520362,0.0573504,-0.106705,0.240787,0.0298549,-0.0137951,0.201731,0.053413875405444955,0.27225001719216246,0.03030502584771555,0.05902682839001927,-0.013700383648740155,-0.10120922283521916
393,0.3836,256.77,245.942,2.12818,251.226,-204.263,-9.72743,0.0521674,0.0574798,-0.106964,0.241365,0.0298764,-0.0138241,0.202244,0.05355209237273284,0.27298559026223823,0.030327177643902248,0.05916387532835854,-0.013728985922879411,-0.10144197950321521
394,0.3846,256.929,246.1,2.13005,251.384,-204.405,-9.72628,0.0522984,0.0576092,-0.107223,0.241944,0.0298979,-0.0138531,0.202756,0.05369011673723212,0.27372286233866916,0.030349329916357748,0.05930094000171904,-0.013757587367564605,-0.10167467589504031
395,0.3856,257.088,246.256,2.13191,251.541,-204.546,-9.72517,0.0524295,0.0577385,-0.107482,0.242522,0.0299193,-0.0138821,0.203269,0.053828264566928796,0.2744592869593139,0.030371379627949002,0.059437916468599195,-0.013786187982820053,-0.1019073120263041
396,0.3866,257.246,246.413,2.13377,251.698,-204.687,-9.7241,0.0525605,0.0578678,-0.10774,0.2431,0.0299407,-0.0139111,0.203781,0.05396632511235544,0.2751961373564271,0.030393429811409023,0.05957491064768128,-0.013814787768669623,-0.10213899005205085
397,0.3876,257.404,246.569,2.13562,251.855,-204.828,-9.72306,0.0526914,0.057997,-0.107999,0.243678,0.029962,-0.01394,0.204293,0.05410429833446306,0.2759334137761784,0.030415377425205392,0.05971181657006919,-0.013843288109471219,-0.10237150594151989
398,0.3886,257.562,246.725,2.13747,252.011,-204.969,-9.72205,0.0528223,0.0581261,-0.108257,0.244255,0.0299832,-0.0139689,0.204804,0.05424228961844757,0.2766698397944021,0.03043722246276337,0.05984863419697617,-0.013871787626624887,-0.10260306422068455
399,0.3896,257.72,246.881,2.13931,252.167,-205.109,-9.72109,0.0529531,0.0582552,-0.108515,0.244832,0.0300044,-0.0139978,0.205316,0.05438019352864876,0.2774066908530506,0.03045906796344111,0.059985469488178955,-0.013900286320154387,-0.10283456276551917
400,0.3906,257.877,247.036,2.14114,252.323,-205.249,-9.72016,0.0530839,0.0583842,-0.108773,0.245409,0.0300256,-0.0140267,0.205827,0.05451811547786112,0.27814396719744305,0.030480913927248388,0.06012221643373117,-0.013928784190083476,-0.10306600159143331
401,0.3916,258.034,247.191,2.14297,252.479,-205.389,-9.71926,0.0532147,0.0585131,-0.109031,0.245986,0.0300467,-0.0140556,0.206338,0.05465605546844432,0.27888166907304024,0.030502657303923986,0.06025887499488469,-0.013957281236436136,-0.10329738071383243
402,0.3926,258.191,247.346,2.14479,252.634,-205.528,-9.7184,0.0533453,0.058642,-0.109289,0.246563,0.0300678,-0.0140844,0.206849,0.0547938025439767,0.27961979672544435,0.0305244011393897,0.06039555117246187,-0.01398567885780877,-0.10352870014811821
403,0.3936,258.347,247.5,2.14661,252.789,-205.667,-9.71757,0.053476,0.0587709,-0.109547,0.247139,0.0300888,-0.0141133,0.20736,0.05493167310361402,0.2803570700426894,0.03054604237904579,0.060532244968733995,-0.014014174259929235,-0.1037599599096879
404,0.3946,258.504,247.654,2.14842,252.943,-205.806,-9.71678,0.0536066,0.0588997,-0.109805,0.247715,0.0301098,-0.0141421,0.20787,0.0550694561771603,0.28109476815169354,0.030567684073172785,0.060668850319081535,-0.014042570242806418,-0.10399116001393527
405,0.3956,258.659,247.808,2.15001,253.098,-205.944,-9.71615,0.0537371,0.0590284,-0.110062,0.248291,0.0301307,-0.0141709,0.20838,0.05520715172563051,0.28183289129720723,0.03058922316285262,0.06080536718478946,-0.0140709654078911,-0.10422140469810248
406,0.3966,258.815,247.961,2.1522,253.252,-206.082,-9.71529,0.0538676,0.059157,-0.11032,0.248866,0.0301515,-0.0141997,0.208891,0.055344865244542296,0.2825701571533237,0.03061065964163312,0.06094179552716383,-0.01409935975520682,-0.10445248576495092
407,0.3976,258.971,248.114,2.15371,253.406,-206.22,-9.71462,0.053998,0.0592856,-0.110577,0.249442,0.0301723,-0.0142284,0.2094,0.05548249118798676,0.28330913036769845,0.03063209656629695,0.06107824141535123,-0.01412765469754751,-0.10468261190363393
408,0.3986,259.126,248.267,2.15565,253.559,-206.358,-9.71396,0.0541284,0.0594142,-0.110834,0.250017,0.0301931,-0.0142572,0.20991,0.05562013507902419,0.28404724530536796,0.030653533936853217,0.06121470485160807,-0.014156047412235084,-0.10491267890749834
409,0.3996,259.281,248.42,2.15738,253.712,-206.495,-9.71334,0.0542588,0.0595427,-0.111092,0.250592,0.0302138,-0.0142859,0.21042,0.055757796919995606,0.28478578478116945,0.03067486868581959,0.06135107970307807,-0.014184340727663391,-0.10514358164860582
410,0.4006,259.435,248.572,2.15918,253.865,-206.632,-9.71275,0.054389,0.0596711,-0.111349,0.251166,0.0302345,-0.0143146,0.210929,0.05589526553416713,0.28552346351517666,0.030696203876420025,0.0614873659311006,-0.014212633231085126,-0.10537353019846785
411,0.4016,259.59,248.724,2.16094,254.018,-206.769,-9.7122,0.0545193,0.0597995,-0.111606,0.251741,0.0302551,-0.0143433,0.211438,0.05603285765119792,0.2862628520605328,0.03071743643691449,0.06162366965939814,-0.014240924922523712,-0.10560341965914577
412,0.4026,259.744,248.876,2.16272,254.17,-206.906,-9.71168,0.0546495,0.0599278,-0.111863,0.252315,0.0302757,-0.014372,0.211947,0.056170362080608216,0.28700137887453403,0.03073866943480419,0.061759884714224444,-0.014269215802002355,-0.10583325004582367
413,0.4036,259.898,249.027,2.16448,254.322,-207.042,-9.71118,0.0547796,0.0600561,-0.112119,0.252889,0.0302962,-0.0144007,0.212456,0.05630777878347759,0.28774032972461305,0.03075979979411292,0.0618961172465633,-0.014297505869544369,-0.10606212743625598
414,0.4046,260.052,249.178,2.16624,254.474,-207.178,-9.71072,0.0549097,0.0601843,-0.112376,0.253462,0.0303167,-0.0144293,0.212964,0.056445213365422964,0.2884784163751761,0.030780930586598698,0.06203226105542603,-0.014325696557747736,-0.10629183995018254
415,0.4056,260.205,249.329,2.16799,254.626,-207.313,-9.7103,0.0550397,0.0603124,-0.112632,0.254036,0.0303372,-0.014458,0.213473,0.056582560170509444,0.2892182152881513,0.030802061812269965,0.062168316102206855,-0.014353985004315395,-0.1065205999566251
416,0.4066,260.358,249.479,2.16973,254.777,-207.449,-9.7099,0.0551697,0.0604405,-0.112889,0.254609,0.0303576,-0.0144866,0.213981,0.05671992483184107,0.28995714900980474,0.030823090388821806,0.062304388578755754,-0.01438217407723863,-0.10675019465825342
417,0.4076,260.511,249.629,2.17148,254.928,-207.584,-9.70953,0.0552997,0.0605685,-0.113145,0.255182,0.0303779,-0.0145152,0.214489,0.05685730735173955,0.29069650626181076,0.030844016309953926,0.06244037224326271,-0.014410362343965866,-0.10697883734090874
418,0.4086,260.663,249.779,2.17321,255.079,-207.719,-9.7092,0.0554295,0.0606965,-0.113402,0.255755,0.0303982,-0.0145437,0.214997,0.056994496333606204,0.2914362872869216,0.030864942655886907,0.0625763733147926,-0.014438451248370288,-0.10720831429066102
419,0.4096,260.816,249.929,2.17494,255.229,-207.853,-9.70889,0.0555594,0.0608244,-0.113658,0.256327,0.0304185,-0.0145723,0.215504,0.05713180883693392,0.29217520015218246,0.030885869426628743,0.06271228552434005,-0.014466637905593438,-0.10743683970970097
420,0.4106,260.968,250.078,2.17667,255.379,-207.988,-9.70861,0.0556892,0.0609522,-0.113914,0.256899,0.0304387,-0.0146009,0.216012,0.05726903345140588,0.2929145357965055,0.030906693531513874,0.06284810883335479,-0.014494823756689756,-0.10766530663372131
421,0.4116,261.12,250.227,2.17839,255.529,-208.122,-9.70837,0.0558189,0.06108,-0.11417,0.257471,0.0304589,-0.0146294,0.216519,0.05740617013816629,0.2936542944617897,0.030927518057050296,0.0629839495016975,-0.014522910253978227,-0.10789371507769485
422,0.4126,261.271,250.376,2.1801,255.679,-208.256,-9.70815,0.0559486,0.0612078,-0.114425,0.258043,0.030479,-0.0146579,0.217026,0.05754332461270861,0.2943944763900721,0.030948239908417108,0.06311980753158708,-0.014550995950812884,-0.10812117317820968
423,0.4136,261.423,250.524,2.18181,255.828,-208.389,-9.70796,0.0560782,0.0613354,-0.114681,0.258615,0.0304991,-0.0146864,0.217533,0.05768039110929557,0.2951350818235281,0.03096896217629741,0.06325547027412681,-0.014579080847216597,-0.1083494649352843
424,0.4146,261.574,250.672,2.18352,255.977,-208.522,-9.7078,0.0562078,0.0614631,-0.114937,0.259186,0.0305191,-0.0147149,0.218039,0.05781747537085158,0.2958748151290096,0.03098958176173605,0.06339125666745771,-0.014607164943212236,-0.10857769825714925
425,0.4156,261.725,250.82,2.18522,256.126,-208.655,-9.70767,0.0563374,0.0615906,-0.115192,0.259757,0.0305391,-0.0147434,0.218546,0.05795457739967924,0.29661497094282296,0.031010201759570588,0.06352684769642702,-0.014635248238822451,-0.10880498196418942
426,0.4166,261.875,250.968,2.18691,256.275,-208.788,-9.70757,0.0564669,0.0617181,-0.115448,0.260328,0.030559,-0.0147718,0.219052,0.05809159138891684,0.2973555495062896,0.03103071906673205,0.06366245601435505,-0.014663232200398335,-0.10903309868861999
427,0.4176,262.026,251.115,2.1886,256.423,-208.921,-9.70749,0.0565963,0.0618456,-0.115703,0.260898,0.0305789,-0.0148003,0.219558,0.058228517299757865,0.29809525296496653,0.031051236782192015,0.06379808162344558,-0.01469131389811451,-0.10926026628335517
428,0.4186,262.176,251.262,2.19028,256.571,-209.053,-9.70745,0.0567257,0.061973,-0.115958,0.261469,0.0305988,-0.0148287,0.220064,0.0583654609299582,0.29883667701082994,0.031071754905958704,0.06393361813253673,-0.014719296267448279,-0.10948737595773872
429,0.4196,262.326,251.409,2.19196,256.719,-209.185,-9.70743,0.056855,0.0621003,-0.116213,0.262039,0.0306186,-0.0148571,0.22057,0.05850231643157411,0.2995772249528392,0.031092170328817836,0.06406906550316727,-0.014747277842094064,-0.10971442772653872
430,0.4206,262.475,251.555,2.19363,256.867,-209.316,-9.70743,0.0569843,0.0622276,-0.116468,0.262609,0.0306384,-0.0148855,0.221075,0.05863918962975023,0.30031819512750046,0.031112586155906508,0.0642045301173455,-0.014775258622074405,-0.10994142160451892
431,0.4216,262.625,251.701,2.1953,257.014,-209.448,-9.70747,0.0571136,0.0623548,-0.116723,0.263178,0.0306581,-0.0149139,0.22158,0.05877608052677519,0.3010582867166174,0.031132899273937253,0.06433990554327118,-0.01480323860741184,-0.11016835760643984
432,0.4226,262.774,251.847,2.19697,257.161,-209.579,-9.70753,0.0572428,0.062482,-0.116978,0.263748,0.0306778,-0.0149422,0.222085,0.058912883233643853,0.3018001013371281,0.03115321279214056,0.06447529819004605,-0.01483111928124592,-0.1103952357470579
433,0.4236,262.923,251.993,2.19862,257.307,-209.71,-9.70762,0.0573719,0.0626091,-0.117233,0.264317,0.0306975,-0.0149706,0.22259,0.05904959771159879,0.3025410363708154,0.03117352671052398,0.0646106015987955,-0.014859097680163136,-0.11062205604112585
434,0.4246,263.071,252.138,2.20028,257.454,-209.841,-9.70774,0.057501,0.0627362,-0.117487,0.264886,0.0307171,-0.0149989,0.223095,0.0591863298405324,0.30328239311650274,0.031193737909716468,0.06474592220570097,-0.014886976773207827,-0.11084792935176657
435,0.4256,263.22,252.283,2.20193,257.6,-209.971,-9.70788,0.0576301,0.0628632,-0.117742,0.265454,0.0307366,-0.0150272,0.2236,0.05932307962272332,0.30402286779069243,0.031213846383662647,0.06488115352482815,-0.014914855077285183,-0.11107463422368224
436,0.4266,263.368,252.428,2.20357,257.746,-210.101,-9.70804,0.057759,0.0629901,-0.117996,0.266023,0.0307561,-0.0150555,0.224104,0.05945963516850261,0.30476506793838287,0.03123395524972805,0.06501629551778842,-0.014942732592417851,-0.11130039259406255
437,0.4276,263.516,252.572,2.20521,257.892,-210.231,-9.70824,0.057888,0.063117,-0.11825,0.266591,0.0307756,-0.0150838,0.224608,0.059596314277052365,0.30550638501108995,0.03125406450792001,0.06515145466135608,-0.014970609318627925,-0.11152609362909882
438,0.4286,263.664,252.717,2.20684,258.037,-210.361,-9.70846,0.0580169,0.0632438,-0.118504,0.267159,0.0307951,-0.0151121,0.225112,0.05973290504504858,0.3062481232715002,0.03127417415824629,0.06528652442904948,-0.014998485255937832,-0.1117517373433522
439,0.4296,263.811,252.861,2.20847,258.183,-210.49,-9.7087,0.0581457,0.0633706,-0.118758,0.267727,0.0308145,-0.0151403,0.225616,0.05986940743378333,0.3069902829589164,0.03129418107129145,0.06542161132467528,-0.01502626190700107,-0.11197732375138036
440,0.4306,263.958,253.004,2.21009,258.327,-210.619,-9.70897,0.0582745,0.0634973,-0.119012,0.268294,0.0308338,-0.0151686,0.226119,0.06000592740515831,0.3077315565805665,0.03131408524106072,0.06555660879473924,-0.015054136269364915,-0.11220285286773712
441,0.4316,264.105,253.148,2.21171,258.472,-210.748,-9.70926,0.0584033,0.0636239,-0.119266,0.268862,0.0308531,-0.0151968,0.226623,0.060142464961437936,0.30847455909744337,0.03133398979498425,0.06569151680090912,-0.015081911351091715,-0.11242832470697295
442,0.4326,264.252,253.291,2.21332,258.617,-210.877,-9.70958,0.058532,0.0637506,-0.11952,0.269429,0.0308724,-0.015225,0.227126,0.06027891407699082,0.3092166745422984,0.031353894733069376,0.06582654847016345,-0.015109685649572158,-0.11265373928363431
443,0.4336,264.399,253.434,2.21493,258.761,-211.005,-9.70992,0.0586607,0.0638771,-0.119774,0.269996,0.0308916,-0.0152532,0.227629,0.060415380754674786,0.30995921088592415,0.03137369691794856,0.06596138405671592,-0.015137459164828448,-0.11287909661226392
444,0.4346,264.545,253.576,2.21653,258.905,-211.134,-9.71029,0.0587893,0.0640036,-0.120027,0.270562,0.0309108,-0.0152814,0.228132,0.06055175894156939,0.310700857665525,0.03139349948303338,0.06609623670104914,-0.01516523189688257,-0.11310350981135431
445,0.4356,264.691,253.719,2.21813,259.048,-211.261,-9.71068,0.0589178,0.06413,-0.120281,0.271129,0.03093,-0.0153096,0.228634,0.06068804859901622,0.311444235779601,0.03141330242833118,0.06623099978221547,-0.015193003845756725,-0.11332875291277733
446,0.4366,264.837,253.861,2.21972,259.192,-211.389,-9.71109,0.0590463,0.0642564,-0.120534,0.271695,0.0309491,-0.0153377,0.229137,0.06082435577080947,0.3121867233212048,0.0314330026105436,0.06636577989851178,-0.01522067653354564,-0.11355305236321345
447,0.4376,264.982,254.003,2.22131,259.335,-211.517,-9.71153,0.0591748,0.0643827,-0.120787,0.272261,0.0309681,-0.0153659,0.229639,0.06096068045919956,0.31292963122970985,0.03145260002376804,0.0665004704020391,-0.015248446918903147,-0.11377729507306666
448,0.4386,265.128,254.144,2.22289,259.478,-211.644,-9.71199,0.0593032,0.064509,-0.12104,0.272826,0.0309872,-0.015394,0.230141,0.06109691655674099,0.313671646070808,0.03147230095657183,0.06663517791805162,-0.015276118048763498,-0.11400148105669039
449,0.4396,265.273,254.286,2.22447,259.621,-211.771,-9.71248,0.0594316,0.0646352,-0.121293,0.273392,0.0310062,-0.0154221,0.230643,0.06123317014812013,0.3144153946834862,0.0314918991164721,0.0667697957717126,-0.015303788401076046,-0.1142256103284347
450,0.4406,265.418,254.427,2.22605,259.763,-211.898,-9.71298,0.0595599,0.0647613,-0.121546,0.273957,0.0310251,-0.0154502,0.231145,0.06136933509864506,0.31515824921812685,0.03151139449759599,0.0669043239247813,-0.015331457975862661,-0.11444968290264568
451,0.4416,265.562,254.568,2.22761,259.905,-212.024,-9.71351,0.0596881,0.0648874,-0.121799,0.274522,0.031044,-0.0154783,0.231646,0.06150541136970711,0.3159015235841709,0.03153089024718625,0.06703886904291956,-0.015359126773145104,-0.11467369879366618
452,0.4426,265.707,254.708,2.22918,260.047,-212.15,-9.71407,0.0598163,0.0650135,-0.122052,0.275086,0.0310629,-0.0155063,0.232147,0.06164150508686572,0.3166439013743303,0.03155038636524976,0.06717343112826701,-0.01538669633161982,-0.11489765801583518
453,0.4436,265.851,254.849,2.23074,260.189,-212.276,-9.71464,0.0599445,0.0651395,-0.122305,0.275651,0.0310817,-0.0155344,0.232648,0.061777616252357115,0.3173880153710158,0.03156977969481023,0.06730790345216775,-0.01541436357672632,-0.1151215605834881
454,0.4446,265.995,254.989,2.23229,260.331,-212.402,-9.71524,0.0600726,0.0652654,-0.122557,0.276215,0.0311005,-0.0155624,0.233149,0.061913638677049354,0.31813123177901104,0.031589173388968605,0.06744228597641477,-0.015441931588592195,-0.11534452185592081
455,0.4456,266.139,255.129,2.23384,260.472,-212.528,-9.71586,0.0602007,0.0653913,-0.12281,0.276779,0.0311193,-0.0155904,0.23365,0.06204967852733034,0.3188748674792894,0.03160856744773177,0.06757668542048667,-0.01546949882856452,-0.11556831138132251
456,0.4466,266.282,255.268,2.23539,260.613,-212.653,-9.7165,0.0603287,0.0655171,-0.123062,0.277343,0.031138,-0.0156184,0.23415,0.06218562958686391,0.319618922708399,0.03162785870831586,0.06771099501540889,-0.015497065296664947,-0.11579116008673829
457,0.4476,266.426,255.408,2.23692,260.754,-212.778,-9.71716,0.0604567,0.0656428,-0.123314,0.277907,0.0311567,-0.0156464,0.234651,0.062321598049247084,0.32036339770302047,0.03164715032964982,0.06784521472301441,-0.015524630992915123,-0.1160139526413555
458,0.4486,266.569,255.547,2.23846,260.894,-212.903,-9.71785,0.0605846,0.0657686,-0.123566,0.27847,0.0311753,-0.0156744,0.235151,0.06245747767095411,0.32110697159233625,0.03166633914510131,0.06797955810104783,-0.015552195917336586,-0.1162366890593225
459,0.4496,266.712,255.685,2.23999,261.035,-213.028,-9.71855,0.0607125,0.0658942,-0.123818,0.279033,0.0311939,-0.0157024,0.235651,0.06259337467277626,0.32185096423161874,0.03168552831746818,0.06811370475777889,-0.015579760069950987,-0.11645936935478385
460,0.4506,266.854,255.824,2.2414,261.175,-213.152,-9.71928,0.0608403,0.0660198,-0.12407,0.279596,0.0312125,-0.0157303,0.236151,0.06272918278401285,0.32259537585669085,0.03170471784675688,0.06824786826438833,-0.015607225011507242,-0.1166819935418808
461,0.4516,266.997,255.962,2.24305,261.315,-213.276,-9.72002,0.0609681,0.0661454,-0.124322,0.280159,0.031231,-0.0157583,0.23665,0.06286500825263519,0.3233402067035074,0.031723804560588764,0.06838204862299246,-0.015634787623328594,-0.11690456163475071
462,0.4526,267.139,256.1,2.24454,261.454,-213.4,-9.72078,0.0610958,0.0662708,-0.124574,0.280721,0.0312495,-0.0157862,0.23715,0.06300074478078188,0.32408413292336213,0.03174289162752797,0.06851603213248025,-0.015662251029637586,-0.11712707364752761
463,0.4536,267.281,256.238,2.24607,261.594,-213.524,-9.72156,0.0612235,0.0663963,-0.124825,0.281283,0.031268,-0.0158141,0.237649,0.06313649864359006,0.32482847734725695,0.03176197904758116,0.06865013930956221,-0.015689713669728267,-0.11734864694343017
464,0.4546,267.423,256.376,2.24757,261.733,-213.647,-9.72236,0.0613511,0.0665216,-0.125077,0.281845,0.0312864,-0.015842,0.238148,0.0632721635160518,0.3255732402102882,0.03178096364265337,0.0687840495613199,-0.015717175543621953,-0.11757104706080868
465,0.4556,267.564,256.513,2.24908,261.872,-213.771,-9.72318,0.0614787,0.066647,-0.125328,0.282407,0.0313048,-0.0158699,0.238647,0.06340784570045566,0.3263184217476849,0.03179994858704527,0.06891808348488615,-0.01574463665134007,-0.11779250893336868
466,0.4566,267.706,256.65,2.25057,262.01,-213.894,-9.72402,0.0616063,0.0667722,-0.12558,0.282969,0.0313231,-0.0158978,0.239145,0.06354354519901095,0.32706402219480823,0.031818830698875145,0.06905192040695507,-0.01577209699290394,-0.11801479721161812
467,0.4576,267.847,256.787,2.25207,262.149,-214.017,-9.72488,0.0617337,0.0668975,-0.125831,0.28353,0.0313414,-0.0159257,0.239644,0.06367904927809587,0.3278087139777739,0.03183771315625106,0.06918588100503831,-0.015799556568334983,-0.11823614771686752
468,0.4586,267.988,256.924,2.25355,262.287,-214.139,-9.72576,0.0618612,0.0670226,-0.126082,0.284091,0.0313597,-0.0159535,0.240142,0.06381467700296262,0.3285538236500367,0.03185659595917878,0.06931964452548578,-0.01582691696035121,-0.11845744267011205
469,0.4596,268.128,257.06,2.25504,262.425,-214.262,-9.72666,0.0619886,0.0671477,-0.126333,0.284652,0.0313779,-0.0159813,0.24064,0.06395021562643977,0.32929935144609845,0.03187537592012246,0.0694534247807963,-0.015854276591759087,-0.11867868208529375
470,0.4606,268.269,257.196,2.25652,262.563,-214.384,-9.72757,0.0621159,0.0672728,-0.126584,0.285212,0.0313961,-0.0160092,0.241138,0.06408566511006564,0.33004396755595966,0.03189415622286451,0.06958722177306376,-0.015881733874411275,-0.11889986597635083
471,0.4616,268.409,257.332,2.25799,262.7,-214.506,-9.72851,0.0622432,0.0673978,-0.126835,0.285773,0.0314143,-0.016037,0.241636,0.06422113183750855,0.3307903315572862,0.031912936867410924,0.06972092853228373,-0.015909091981930135,-0.11912099435721801
472,0.4626,268.549,257.468,2.25946,262.837,-214.628,-9.72946,0.0623705,0.0675227,-0.127085,0.286333,0.0314324,-0.0160648,0.242133,0.06435661581096341,0.3315357828498391,0.031931614660601904,0.06985454502043353,-0.015936449328904145,-0.1193411865834536
473,0.4636,268.689,257.603,2.26093,262.974,-214.749,-9.73043,0.0624977,0.0676476,-0.127336,0.286893,0.0314505,-0.0160925,0.242631,0.06449201058341947,0.3322816517120244,0.03195029279186379,0.0699881781983247,-0.015963707511730152,-0.11956220420674901
474,0.4646,268.829,257.738,2.26239,263.111,-214.871,-9.73142,0.0626248,0.0677724,-0.127586,0.287452,0.0314685,-0.0161203,0.243128,0.06462731611644923,0.3330266053504747,0.031968868064310874,0.0701217210558649,-0.015991063340413558,-0.11978228614430886
475,0.4656,268.968,257.873,2.26384,263.248,-214.992,-9.73242,0.0627519,0.0678972,-0.127837,0.288012,0.0314866,-0.0161481,0.243625,0.06476263884790501,0.33377330930706495,0.0319875468698656,0.0702552805805936,-0.016018418408615398,-0.12000319306550833
476,0.4666,269.107,258.008,2.2653,263.384,-215.112,-9.73345,0.062879,0.0680219,-0.128087,0.288571,0.0315045,-0.0161758,0.244121,0.06489797877997305,0.33451909701521165,0.03200601961228511,0.07038874973571096,-0.016045674320929404,-0.12022316476963324
477,0.4676,269.246,258.143,2.26674,263.521,-215.233,-9.73449,0.063006,0.0681466,-0.128337,0.28913,0.0315225,-0.0162035,0.244618,0.06503322941151146,0.33526530173523117,0.03202459588782425,0.07052223553546955,-0.016072929478264997,-0.12044308148770566
478,0.4686,269.385,258.277,2.26818,263.656,-215.354,-9.73555,0.0631329,0.0682712,-0.128587,0.289689,0.0315404,-0.0162312,0.245114,0.06516839070412628,0.3360119237002981,0.03204306929342704,0.07065563091637683,-0.01610018388064327,-0.12066294323347038
479,0.4696,269.523,258.411,2.26962,263.792,-215.474,-9.73663,0.0632598,0.0683957,-0.128837,0.290247,0.0315583,-0.0162589,0.245611,0.06530356914979762,0.3367576263854233,0.032061543029706874,0.0707889358404854,-0.016127437528084987,-0.12088275002066884
480,0.4706,269.662,258.545,2.27106,263.928,-215.594,-9.73772,0.0633867,0.0685202,-0.129087,0.290806,0.0315761,-0.0162866,0.246107,0.0654387647507022,0.3375050827931749,0.03207991388867293,0.07092225736209001,-0.01615469042061113,-0.12110250186303884
481,0.4716,269.8,258.678,2.27248,264.063,-215.714,-9.73884,0.0635135,0.0686447,-0.129337,0.291364,0.0315939,-0.0163143,0.246602,0.0655738709516247,0.33825161889357513,0.032098285074643185,0.07105559548325746,-0.01618194255824268,-0.12132219877431483
482,0.4726,269.938,258.812,2.27391,264.198,-215.833,-9.73996,0.0636403,0.0687691,-0.129587,0.291922,0.0316117,-0.016342,0.247098,0.06570899428509969,0.33899857167736336,0.032116656587623416,0.07118884308716456,-0.0162091939410004,-0.12154184076822805
483,0.4736,270.076,258.945,2.27533,264.333,-215.953,-9.74111,0.063767,0.0688934,-0.129837,0.292479,0.0316294,-0.0163696,0.247594,0.06584402816889146,0.33974460163184195,0.03213492521412187,0.0713220001358994,-0.01623634619254488,-0.12176142785850608
484,0.4746,270.213,259.078,2.27674,264.468,-216.072,-9.74227,0.0638937,0.0690177,-0.130086,0.293037,0.0316471,-0.0163973,0.248089,0.0659790791625603,0.3404923877324719,0.03215319416397788,0.07145517373708432,-0.016263596068342823,-0.12198008203939403
485,0.4756,270.35,259.21,2.27815,264.602,-216.191,-9.74345,0.0640203,0.0691419,-0.130335,0.293594,0.0316648,-0.0164249,0.248584,0.06611404065686455,0.3412392499742638,0.032171463437197234,0.07158825673394542,-0.016290746818409252,-0.12219868178216875
486,0.4766,270.488,259.343,2.27956,264.736,-216.309,-9.74465,0.0641469,0.0692661,-0.130585,0.294151,0.0316824,-0.0164525,0.249079,0.06624901923837578,0.3419865283342025,0.03218962981481743,0.07172135626074128,-0.01631789681912532,-0.12241810468271785
487,0.4776,270.624,259.475,2.28096,264.87,-216.428,-9.74586,0.0642734,0.0693902,-0.130834,0.294708,0.0317,-0.0164801,0.249573,0.06638390827086083,0.34273422304413037,0.03220779651216854,0.07185436513408305,-0.016345046070511682,-0.12263659537143223
488,0.4786,270.761,259.607,2.28236,265.004,-216.546,-9.74709,0.0643999,0.0695143,-0.131083,0.295264,0.0317176,-0.0165077,0.250068,0.06651881436788787,0.34348099085435635,0.03222596352925655,0.07198739051485048,-0.016372194572589094,-0.12285503166273792
489,0.4796,270.898,259.739,2.28375,265.138,-216.664,-9.74833,0.0645263,0.0696383,-0.131332,0.295821,0.0317351,-0.0165352,0.250562,0.0666536308662471,0.34422951821177894,0.032244027641678885,0.072120325193054,-0.016399243965307564,-0.12307341357017809
490,0.4806,271.034,259.87,2.28514,265.271,-216.782,-9.74959,0.0646527,0.0697623,-0.131581,0.296377,0.0317526,-0.0165628,0.251057,0.06678846440648867,0.3449771176372858,0.0322620920702259,0.07225327635617962,-0.016426390971543636,-0.12329174110729268
491,0.4816,271.17,260.002,2.28653,265.404,-216.9,-9.75086,0.0647791,0.0698862,-0.13183,0.296933,0.0317701,-0.0165904,0.25155,0.06692331499076709,0.3457251328436495,0.03228015681490315,0.07238613676765282,-0.016453537228532822,-0.12351001428761821
492,0.4826,271.306,260.133,2.28791,265.537,-217.018,-9.75215,0.0649054,0.0700101,-0.132079,0.297488,0.0317875,-0.0166179,0.252044,0.06705807591542379,0.34647221758921787,0.032298118645899265,0.07251901364155056,-0.016480584384358954,-0.12372823312468795
493,0.4836,271.442,260.264,2.28928,265.67,-217.135,-9.75346,0.0650316,0.0701339,-0.132327,0.298044,0.0318049,-0.0166454,0.252538,0.06719274714217982,0.3472210643022924,0.03231608078943382,0.0726517997147278,-0.016507630796398498,-0.1239455215779911
494,0.4846,271.577,260.394,2.29065,265.802,-217.252,-9.75478,0.0651578,0.0702576,-0.132576,0.298599,0.0318223,-0.0166729,0.253031,0.06732743536551733,0.3479689795202552,0.03233404324551237,0.07278449494938344,-0.016534676464671882,-0.12416363198724534
495,0.4856,271.712,260.525,2.29201,265.935,-217.369,-9.75612,0.065284,0.0703813,-0.132824,0.299154,0.0318396,-0.0167004,0.253524,0.06746214058758127,0.3487173099463734,0.032351902778945174,0.072917206599455,-0.016561721389199757,-0.12438081247501886
496,0.4866,271.847,260.655,2.29338,266.067,-217.486,-9.75747,0.0654101,0.0705049,-0.133072,0.299708,0.0318569,-0.0167279,0.254018,0.06759675605083593,0.34946470634577076,0.032369762621350384,0.07304982736198506,-0.01658876557000233,-0.12459793910870964
497,0.4876,271.982,260.785,2.29474,266.199,-217.602,-9.75884,0.0655361,0.0706285,-0.133321,0.300263,0.0318742,-0.0167554,0.25451,0.06773128171703724,0.3502138671306805,0.03238762277273355,0.07318246451745436,-0.016615809007100246,-0.12481588708622227
498,0.4886,272.117,260.915,2.29609,266.33,-217.718,-9.76022,0.0656621,0.0707521,-0.133569,0.300817,0.0318914,-0.0167828,0.255003,0.06786582433454069,0.35096209285245883,0.03240537999255699,0.07331511806788926,-0.01664275336479404,-0.12503290583478777
499,0.4896,272.252,261.044,2.29744,266.462,-217.834,-9.76161,0.0657881,0.0708756,-0.133817,0.301371,0.0319086,-0.0168103,0.255496,0.06800038390548169,0.35171073320612956,0.03242313751780701,0.07344768067054286,-0.016669795317247882,-0.12524987076937688
500,0.4906,272.386,261.174,2.29879,266.593,-217.95,-9.76303,0.065914,0.070999,-0.134065,0.301925,0.0319258,-0.0168377,0.255988,0.06813485361850624,0.3524597884214624,0.032440895348489374,0.07358015228766823,-0.016696738195737137,-0.1254667819033337
501,0.4916,272.52,261.303,2.30013,266.724,-218.066,-9.76445,0.0660399,0.0711224,-0.134313,0.302479,0.0319429,-0.0168651,0.25648,0.06826934026233333,0.3532092587283542,0.03245855023874866,0.07371264025279989,-0.01672368033600158,-0.12568363924999926
502,0.4926,272.654,261.432,2.30147,266.855,-218.182,-9.76589,0.0661657,0.0712457,-0.13456,0.303032,0.03196,-0.0168925,0.256972,0.06840373699871583,0.35395779039836217,0.03247620543090912,0.07384503718344604,-0.01675062173806141,-0.1258995687227168
503,0.4936,272.788,261.561,2.3028,266.986,-218.297,-9.76734,0.0662915,0.071369,-0.134808,0.303585,0.0319771,-0.0169199,0.257464,0.06853815064327118,0.35470673612085846,0.03249386092497608,0.07397745043964044,-0.016777562401937063,-0.12611631875155904
504,0.4946,272.921,261.689,2.30413,267.116,-218.412,-9.76881,0.0664172,0.0714922,-0.135056,0.304138,0.0319942,-0.0169473,0.257955,0.06867247433087398,0.3554560961248776,0.03251151672095465,0.07410977261241292,-0.01680450232764852,-0.12633301503305916
505,0.4956,273.054,261.818,2.30545,267.246,-218.527,-9.77029,0.0665429,0.0716153,-0.135303,0.304691,0.0320112,-0.0169747,0.258447,0.06880681490402552,0.35620587063958076,0.032529069565937485,0.07424200366407585,-0.016831441515216206,-0.12654878412976556
506,0.4966,273.188,261.946,2.30677,267.376,-218.642,-9.77179,0.0666685,0.0717384,-0.13555,0.305244,0.0320281,-0.0170021,0.258938,0.06894106547073653,0.3569560598942554,0.03254651945466436,0.074374250994383,-0.01685837996466022,-0.12676449993808647
507,0.4976,273.32,262.074,2.30808,267.506,-218.756,-9.7733,0.0667941,0.0718615,-0.135798,0.305796,0.0320451,-0.0170294,0.259429,0.0690753329003777,0.3577053064123312,0.03256407289469898,0.07450651460533875,-0.016885219364527804,-0.12698103549058348
508,0.4986,273.453,262.201,2.3094,267.636,-218.87,-9.77482,0.0669196,0.0719845,-0.136045,0.306348,0.032062,-0.0170568,0.25992,0.06920951027411082,0.35845496662865517,0.0325815233749871,0.07463868703507304,-0.016912156340478934,-0.12719664454600277
509,0.4996,273.586,262.329,2.3107,267.765,-218.985,-9.77635,0.0670451,0.0721075,-0.136292,0.3069,0.0320789,-0.0170841,0.26041,0.06934370448816107,0.35920504077165183,0.03259897415019064,0.07477087572301588,-0.016938994272271413,-0.12741220035256184
510,0.5006,273.718,262.456,2.31201,267.894,-219.098,-9.7779,0.0671706,0.0722304,-0.136539,0.307451,0.0320957,-0.0171114,0.260901,0.06947791554464189,0.35995416911502254,0.032616321958677474,0.0749029731808648,-0.016965831471398296,-0.12762770292341163
511,0.5016,273.85,262.583,2.3133,268.023,-219.212,-9.77947,0.067296,0.0723532,-0.136786,0.308003,0.0321126,-0.0171387,0.261391,0.06961203648445835,0.36070507104624006,0.03263377332198236,0.07503497937098569,-0.01699266793787968,-0.12784315227169973
512,0.5026,273.982,262.71,2.3146,268.152,-219.326,-9.78104,0.0674213,0.072476,-0.137032,0.308554,0.0321293,-0.017166,0.261881,0.06974606726948318,0.36145502613403924,0.032651018449993074,0.07516700177246194,-0.017019503671735547,-0.12805767646868282
513,0.5036,274.114,262.837,2.31589,268.281,-219.439,-9.78263,0.0675466,0.0725987,-0.137279,0.309105,0.0321461,-0.0171933,0.262371,0.06988011484961776,0.36220539456095646,0.03266836713283161,0.07529893285738587,-0.017046338672985883,-0.1282730196266202
514,0.5046,274.246,262.963,2.31717,268.409,-219.552,-9.78423,0.0676719,0.0727214,-0.137526,0.309656,0.0321628,-0.0172205,0.262861,0.07001417922696618,0.36295617655480394,0.03268561283856397,0.0754308801312471,-0.017073074648963127,-0.12848830960136604
515,0.5056,274.377,263.089,2.31846,268.538,-219.665,-9.78585,0.0677971,0.0728441,-0.137772,0.310206,0.0321795,-0.0172478,0.26335,0.07014815338881286,0.36370600863682956,0.03270285883230217,0.07556284359603227,-0.01709990818774565,-0.12870267510916555
516,0.5066,274.508,263.216,2.31973,268.666,-219.778,-9.78747,0.0679223,0.0729667,-0.138019,0.310757,0.0321962,-0.017275,0.26384,0.0702821443252748,0.3644576176968688,0.03272010511405066,0.0756947156842509,-0.017126642706651873,-0.1289178589721125
517,0.5076,274.639,263.341,2.32101,268.793,-219.891,-9.78911,0.0680474,0.0730892,-0.138265,0.311307,0.0322128,-0.0173022,0.264329,0.07041604499684229,0.3652082757986572,0.03273724841008452,0.07582649635832373,-0.017153376498388995,-0.12913211882376308
518,0.5086,274.77,263.467,2.32228,268.921,-220.003,-9.79076,0.0681725,0.0732117,-0.138511,0.311857,0.0322294,-0.0173295,0.264818,0.07054996242043154,0.36595934687595943,0.032754391990699405,0.07595829317651792,-0.017180207844961104,-0.12934632597397278
519,0.5096,274.901,263.593,2.32354,269.049,-220.115,-9.79243,0.0682975,0.0733341,-0.138757,0.312406,0.032246,-0.0173567,0.265307,0.07068378952975407,0.36670946444582686,0.0327715358559002,0.0760899985318062,-0.017206940179746333,-0.12956048043570434
520,0.5106,275.031,263.718,2.3248,269.176,-220.227,-9.7941,0.0684225,0.0734565,-0.139003,0.312956,0.0322626,-0.0173839,0.265795,0.0708176333685111,0.36746136140398145,0.03278868000569135,0.07622172000881644,-0.017233671787421856,-0.12977458222191773
521,0.5116,275.161,263.843,2.32606,269.303,-220.339,-9.79579,0.0685474,0.0735788,-0.139249,0.313505,0.0322791,-0.0174111,0.266284,0.07095138684364932,0.3682123038062204,0.032805721159500534,0.07635334997418175,-0.017260402668007657,-0.12998863134556948
522,0.5126,275.291,263.968,2.32731,269.43,-220.451,-9.79749,0.0686723,0.0737011,-0.139495,0.314054,0.0322956,-0.0174382,0.266772,0.07108515702564011,0.36896365858902636,0.03282276259449124,0.07648499603887648,-0.017287034550231728,-0.130202627819613
523,0.5136,275.421,264.092,2.32856,269.556,-220.563,-9.7992,0.0687971,0.0738233,-0.13974,0.314603,0.032312,-0.0174654,0.26726,0.0712188367946811,0.3697154259788582,0.032839701026692536,0.07661655054320882,-0.017313763979370123,-0.13041570207313535
524,0.5146,275.551,264.217,2.32981,269.683,-220.674,-9.80093,0.0689219,0.0739455,-0.139986,0.315151,0.0323285,-0.0174925,0.267748,0.07135253324799806,0.37046623573537873,0.03285674302235564,0.07674812112448404,-0.017340394415522153,-0.13062959350070114
525,0.5156,275.681,264.341,2.33105,269.809,-220.785,-9.80266,0.0690467,0.0740676,-0.140232,0.315699,0.0323448,-0.0175197,0.268236,0.07148624638767398,0.3712174570484019,0.03287357872447738,0.07687960009670114,-0.017367122393291967,-0.1308434323174471
526,0.5166,275.81,264.465,2.33229,269.935,-220.896,-9.80441,0.0691714,0.0741896,-0.140477,0.316248,0.0323612,-0.0175468,0.268723,0.07161986905379858,0.37197046211329865,0.032890517990070034,0.077010987422377,-0.017393751383450673,-0.13105634959309798
527,0.5176,275.939,264.589,2.33352,270.061,-221.007,-9.80617,0.069296,0.0743117,-0.140722,0.316795,0.0323776,-0.0175739,0.269211,0.07175340120836315,0.3727211352464592,0.03290745753346891,0.07714249849252863,-0.017420379651973517,-0.1312692147104061
528,0.5186,276.068,264.713,2.33475,270.187,-221.117,-9.80794,0.0694207,0.0744336,-0.140967,0.317343,0.0323939,-0.017601,0.269698,0.07188705719077104,0.3734735925830541,0.032924294062244064,0.0772738101663788,-0.017447007198880038,-0.13148202768214845
529,0.5196,276.197,264.836,2.33597,270.313,-221.228,-9.80972,0.0695452,0.0745555,-0.141213,0.317891,0.0324101,-0.0176281,0.270185,0.07202051543699484,0.3742264623792728,0.03294102757134909,0.07740513784809755,-0.017473634024189777,-0.1316956568258767
530,0.5206,276.325,264.96,2.33719,270.438,-221.338,-9.81151,0.0696697,0.0746774,-0.141458,0.318438,0.0324264,-0.0176552,0.270671,0.07215399029980452,0.3749783698821483,0.03295786464732031,0.07753648153963666,-0.017500260127922385,-0.13190836533209827
531,0.5216,276.454,265.083,2.33841,270.563,-221.448,-9.81331,0.0697942,0.0747992,-0.141703,0.318985,0.0324426,-0.0176823,0.271158,0.07228748178126909,0.3757306887909371,0.03297459870027297,0.07766773347616884,-0.0175268855100974,-0.13212102173111928
532,0.5226,276.582,265.206,2.33962,270.688,-221.558,-9.81512,0.0699186,0.0749209,-0.141947,0.319532,0.0324588,-0.0177093,0.271645,0.07242088264136415,0.3764834193307396,0.03299133302431967,0.07779889362026582,-0.017553411926080398,-0.13233275836889657
533,0.5236,276.71,265.328,2.34083,270.813,-221.668,-9.81695,0.070043,0.0750427,-0.142192,0.320078,0.032475,-0.0177364,0.272131,0.07255430009755837,0.37723518449090676,0.0330080676194644,0.0779301775205361,-0.017580035867861166,-0.13254531080435972
534,0.5246,276.838,265.451,2.34204,270.938,-221.777,-9.81878,0.0701673,0.0751643,-0.142437,0.320625,0.0324911,-0.0177634,0.272617,0.07268762688314867,0.3779887382149778,0.033024699183236805,0.07806126179988526,-0.017606560848803854,-0.13275781117085483
535,0.5256,276.966,265.573,2.34324,271.062,-221.886,-9.82063,0.0702916,0.0752859,-0.142681,0.321171,0.0325072,-0.0177904,0.273103,0.07282097024228817,0.37874132550367645,0.03304133101477946,0.07819236202005175,-0.017633085113581748,-0.13296939245096318
536,0.5266,277.093,265.695,2.34444,271.186,-221.996,-9.82248,0.0704159,0.0754074,-0.142926,0.321717,0.0325233,-0.0178174,0.273589,0.07295433017703767,0.37949432381723436,0.03305796311409703,0.0783233703506323,-0.017659608662214166,-0.13318178893018162
537,0.5276,277.221,265.817,2.34563,271.31,-222.105,-9.82435,0.07054,0.0755289,-0.14317,0.322263,0.0325394,-0.0178444,0.274074,0.07308749207193732,0.3802477333801322,0.03307459548119329,0.07845439459969183,-0.017686131494720425,-0.13339326677233665
538,0.5286,277.348,265.939,2.34682,271.434,-222.213,-9.82623,0.0706642,0.0756504,-0.143414,0.322808,0.0325554,-0.0178714,0.274559,0.07322077781532599,0.3810001734161097,0.0330911248069552,0.0785854347691648,-0.017712653611119955,-0.13360469302019307
539,0.5296,277.475,266.061,2.348,271.558,-222.322,-9.82812,0.0707883,0.0757718,-0.143659,0.323353,0.0325714,-0.0178984,0.275045,0.07335397277842937,0.3817530236436739,0.033107654397188435,0.0787163829893418,-0.01773917501143185,-0.1338169338698374
540,0.5306,277.602,266.182,2.34919,271.681,-222.431,-9.83001,0.0709124,0.0758931,-0.143903,0.323898,0.0325874,-0.0179254,0.27553,0.07348718427205347,0.3825062842864402,0.03312418425189745,0.07884723922286851,-0.017765695695675765,-0.13402825675553265
541,0.5316,277.728,266.303,2.35036,271.805,-222.539,-9.83192,0.0710364,0.0760144,-0.144147,0.324443,0.0326033,-0.0179523,0.276014,0.07362030493621363,0.3832599555681455,0.0331406110570196,0.07897811133021904,-0.017792117443087396,-0.13423952808473394
542,0.5326,277.855,266.425,2.35154,271.928,-222.647,-9.83384,0.0711603,0.0761357,-0.144391,0.324988,0.0326192,-0.0179793,0.276499,0.07375333473302104,0.3840140377126495,0.033157038123330373,0.07910899931331916,-0.017818636697904955,-0.13445074787001954
543,0.5336,277.981,266.545,2.35271,272.051,-222.755,-9.83576,0.0712842,0.0762569,-0.144634,0.325532,0.0326351,-0.0180062,0.276983,0.0738863810132413,0.3847671461760944,0.03317346545083333,0.0792397952501096,-0.017845057021222854,-0.134661050785448
544,0.5346,278.107,266.666,2.35387,272.174,-222.863,-9.8377,0.0714081,0.076378,-0.144878,0.326077,0.032651,-0.0180331,0.277468,0.074019443778917,0.38552204996335715,0.033189893039533125,0.07937049910327287,-0.017871476633843586,-0.1348721677317415
545,0.5356,278.233,266.787,2.35503,272.296,-222.97,-9.83965,0.0715319,0.0764991,-0.145122,0.326621,0.0326668,-0.01806,0.277952,0.07415241561684383,0.3862759790086445,0.033206217568806595,0.07950121878563143,-0.017897895535786246,-0.13508323317178406
546,0.5366,278.359,266.907,2.35619,272.419,-223.078,-9.8416,0.0716557,0.0766201,-0.145365,0.327164,0.0326826,-0.0180869,0.278436,0.074285403917703,0.3870289312732855,0.03322254235600952,0.0796318463359118,-0.01792431372707015,-0.13529338241195654
547,0.5376,278.484,267.027,2.35735,272.541,-223.185,-9.84357,0.0717795,0.0767411,-0.145608,0.327708,0.0326984,-0.0181138,0.27892,0.07441840868353311,0.3877836802850163,0.033238867401146344,0.0797624896930822,-0.017950731207714177,-0.13550348059206774
548,0.5386,278.61,267.147,2.3585,272.663,-223.292,-9.84554,0.0719031,0.076862,-0.145852,0.328251,0.0327141,-0.0181407,0.279403,0.07455121500610806,0.3885374514537627,0.03325508937870669,0.0798930408697458,-0.01797714797773753,-0.1357143920105638
549,0.5396,278.735,267.267,2.35965,272.785,-223.399,-9.84753,0.0720268,0.0769829,-0.146095,0.328795,0.0327298,-0.0181676,0.279886,0.07468414521296829,0.3892930213237247,0.0332713116109542,0.0800236078310006,-0.018003564037159303,-0.13592438789777161
550,0.5406,278.86,267.386,2.36079,272.906,-223.506,-9.84952,0.0721504,0.0771038,-0.146338,0.329337,0.0327455,-0.0181944,0.28037,0.07481698438260809,0.39004622224029206,0.033287534097892646,0.0801541905787555,-0.018029881188991737,-0.13613433276217834
551,0.5416,278.985,267.506,2.36193,273.028,-223.613,-9.85152,0.0722739,0.0772245,-0.146581,0.32988,0.0327612,-0.0182213,0.280853,0.07494973247720549,0.39080122230293446,0.033303756839526244,0.08028457305798264,-0.018056295829909197,-0.13634422661618106
552,0.5426,279.11,267.625,2.36306,273.149,-223.719,-9.85354,0.0723974,0.0773453,-0.146824,0.330423,0.0327769,-0.0182481,0.281336,0.07508249696720481,0.39155663244193684,0.03331997983585877,0.08041507931682745,-0.018082611568548512,-0.13655406947217374
553,0.5436,279.234,267.744,2.36419,273.271,-223.825,-9.85556,0.0725209,0.077466,-0.147067,0.330965,0.0327925,-0.0182749,0.281818,0.07521527785463133,0.3923110605682738,0.033336099753279225,0.0805454932872256,-0.018108926601935416,-0.13676386134254737
554,0.5446,279.359,267.863,2.36532,273.392,-223.931,-9.85758,0.0726443,0.0775866,-0.14731,0.331507,0.0328081,-0.0183018,0.282301,0.07534796760670792,0.3930658977054875,0.0333522199221723,0.0806758149319533,-0.018135339116559956,-0.13697360223969013
555,0.5456,279.483,267.982,2.36645,273.512,-224.037,-9.85962,0.0727677,0.0777072,-0.147552,0.332049,0.0328236,-0.0183286,0.282783,0.07548067373371037,0.3938211440753214,0.03336823700571312,0.08080615229441923,-0.01816165273686754,-0.1371824293588475
556,0.5466,279.607,268.1,2.36757,273.633,-224.143,-9.86167,0.072891,0.0778277,-0.147795,0.332591,0.0328392,-0.0183554,0.283265,0.07561328867632477,0.3945767998996399,0.03338435767595138,0.0809363972828736,-0.018187965651979554,-0.13739206855631925
557,0.5476,279.731,268.218,2.36868,273.754,-224.249,-9.86373,0.0730143,0.0779482,-0.148037,0.333132,0.0328547,-0.0183821,0.283747,0.07574591997136992,0.39533147006825975,0.03340037525763129,0.08106665796679469,-0.018214179683337717,-0.13760079441888062
558,0.5486,279.855,268.337,2.3698,273.874,-224.354,-9.86579,0.0731375,0.0780686,-0.14828,0.333673,0.0328702,-0.0184089,0.284229,0.07587846003301046,0.3960865486238996,0.033416393087585705,0.08119682622838598,-0.018240491190746444,-0.1378103319659938
559,0.5496,279.978,268.455,2.37091,273.994,-224.459,-9.86786,0.0732607,0.078189,-0.148522,0.334214,0.0328856,-0.0184357,0.28471,0.07601101642459263,0.3968420357875564,0.03343230782258244,0.08132701016317956,-0.018266801993016224,-0.13801895662105657
560,0.5506,280.101,268.572,2.37201,274.114,-224.564,-9.86994,0.0733839,0.0783093,-0.148764,0.334755,0.0329011,-0.0184624,0.285192,0.07614358914812835,0.3975979317803473,0.03344832614749538,0.08145710162734687,-0.018293013919472245,-0.13822753079506134
561,0.5516,280.225,268.69,2.37311,274.234,-224.669,-9.87203,0.073507,0.0784296,-0.149006,0.335296,0.0329165,-0.0184892,0.285673,0.07627607057801722,0.39835423682350823,0.03346424137426496,0.08158720874245873,-0.01831932331415176,-0.1384360545002229
562,0.5526,280.348,268.807,2.37421,274.353,-224.774,-9.87413,0.07363,0.0785498,-0.149248,0.335836,0.0329318,-0.0185159,0.286154,0.0764084606765223,0.399109552028144,0.03348005349812033,0.08171722333867026,-0.01834553383830717,-0.13864452774875335
563,0.5536,280.471,268.925,2.3753,274.473,-224.879,-9.87623,0.073753,0.07867,-0.14949,0.336376,0.0329472,-0.0185426,0.286635,0.07654086706001118,0.3998652752131351,0.03349596921349485,0.08184725356357547,-0.01837174366265093,-0.13885295055286173
564,0.5546,280.593,269.042,2.3764,274.592,-224.983,-9.87835,0.073876,0.0787901,-0.149732,0.336916,0.0329625,-0.0185693,0.287116,0.07667328973048693,0.40062140659885026,0.03351178182279013,0.08197719122132874,-0.0183979527872018,-0.13906132292475393
565,0.5556,280.716,269.159,2.37748,274.711,-225.088,-9.88047,0.0739989,0.0789102,-0.149974,0.337456,0.0329778,-0.018596,0.287596,0.07680562100938526,0.4013779464057776,0.03352759467401989,0.08210714448553169,-0.01842416121197843,-0.1392696448766333
566,0.5566,280.838,269.276,2.37857,274.83,-225.192,-9.8826,0.0741218,0.0790303,-0.150215,0.337995,0.0329931,-0.0186227,0.288076,0.07693796855279733,0.40213349272033017,0.03354340776718834,0.08223711335805906,-0.018450368936999362,-0.13947705589818604
567,0.5576,280.96,269.392,2.37965,274.949,-225.296,-9.88473,0.0742446,0.0791502,-0.150457,0.338535,0.0330084,-0.0186494,0.288557,0.07707022465569402,0.4028908492742649,0.03355922110229881,0.08236688136738723,-0.01847657596228336,-0.13968527725485835
568,0.5586,281.082,269.509,2.38072,275.068,-225.4,-9.88688,0.0743674,0.0792702,-0.150698,0.339074,0.0330236,-0.018676,0.289037,0.07720249700063753,0.4036472112632683,0.03357493132185696,0.08249677318650472,-0.018502684138122505,-0.1398925881210772
569,0.5596,281.204,269.625,2.38179,275.186,-225.503,-9.88903,0.0744901,0.07939,-0.15094,0.339613,0.0330388,-0.0187027,0.289516,0.07733467785614923,0.40440398104127295,0.033590641780212316,0.08262646406826102,-0.01852888976660927,-0.14010070893111815
570,0.5606,281.326,269.741,2.38286,275.304,-225.607,-9.89119,0.0746128,0.0795099,-0.151181,0.340151,0.033054,-0.0187293,0.289996,0.07746687493124682,0.4051597536676801,0.033606352477368207,0.0827562787635383,-0.018554996550919745,-0.14030791969036638
571,0.5616,281.448,269.857,2.38393,275.422,-225.71,-9.89336,0.0747355,0.0796297,-0.151422,0.34069,0.0330691,-0.018756,0.290476,0.07759908822792072,0.40591733892579285,0.03362196005112761,0.08288600073592511,-0.01858120078268377,-0.14051508051783856
572,0.5626,281.569,269.973,2.38499,275.54,-225.813,-9.89553,0.0748581,0.0797494,-0.151663,0.341228,0.0330843,-0.0187826,0.290955,0.07773120997503513,0.4066739259577974,0.03363767122432493,0.08301562994836686,-0.01860730617553974,-0.14072219142556697
573,0.5636,281.69,270.088,2.38605,275.658,-225.916,-9.89771,0.0749806,0.0798691,-0.151904,0.341766,0.0330994,-0.0188092,0.291434,0.07786324013493928,0.40743092014313964,0.033653279271000924,0.08314527467835409,-0.018633410874001388,-0.14092925242558074
574,0.5646,281.811,270.204,2.3871,275.776,-226.019,-9.8999,0.0751031,0.0799887,-0.152145,0.342304,0.0331144,-0.0188358,0.291913,0.0779952864695288,0.408188321700927,0.033668784186476675,0.08327482660025609,-0.01865951487808737,-0.14113626352990616
575,0.5656,281.932,270.319,2.38815,275.893,-226.122,-9.9021,0.0752256,0.0801083,-0.152386,0.342842,0.0331295,-0.0188624,0.292392,0.078127348980785,0.40894613085038456,0.03368439270296175,0.08340439401749444,-0.018685618187816,-0.1413432247505666
576,0.5666,282.053,270.434,2.3892,276.01,-226.225,-9.9043,0.075348,0.0802278,-0.152627,0.343379,0.0331445,-0.018889,0.29287,0.07825931984475232,0.40970293810721303,0.0336998980851424,0.08353386857853051,-0.018711720803205933,-0.14155013609958267
577,0.5676,282.173,270.549,2.39024,276.127,-226.327,-9.90651,0.0754704,0.0803473,-0.152867,0.343916,0.0331595,-0.0189156,0.293349,0.07839130686294205,0.4104601518786779,0.033715403699905444,0.08366335861270113,-0.018737822724275488,-0.14175613934554043
578,0.5686,282.294,270.664,2.39128,276.244,-226.429,-9.90873,0.0755927,0.0804667,-0.153108,0.344453,0.0331745,-0.0189421,0.293827,0.07852320218500575,0.41121777238313606,0.03373090954725466,0.08379275574257439,-0.018763825827430636,-0.1419629511941295
579,0.5696,282.414,270.778,2.39232,276.361,-226.532,-9.91096,0.075715,0.0805861,-0.153348,0.34499,0.0331895,-0.0189687,0.294305,0.07865511363885402,0.41197579983906163,0.03374641562719316,0.0839221683233875,-0.018789926362524967,-0.1421688553763527
580,0.5706,282.534,270.893,2.39335,276.478,-226.633,-9.91319,0.0758373,0.0807054,-0.153588,0.345527,0.0332044,-0.0189952,0.294783,0.07878704122645974,0.4127342344650464,0.03376181856353755,0.08405148795183082,-0.018815928084952027,-0.1423747101475017
581,0.5716,282.654,271.007,2.39438,276.594,-226.735,-9.91543,0.0759595,0.0808247,-0.153829,0.346063,0.0332193,-0.0190218,0.29526,0.07891887705790279,0.4134916629874299,0.03377722172938746,0.08418082300902618,-0.018842027234144743,-0.1425813729384896
582,0.5726,282.774,271.121,2.39541,276.711,-226.837,-9.91767,0.0760816,0.080944,-0.154069,0.346599,0.0332342,-0.0190483,0.295738,0.07905062109560146,0.4142494976003239,0.033792625124746234,0.08431017349681436,-0.01886802757591699,-0.14278712871730326
583,0.5736,282.894,271.235,2.39643,276.827,-226.938,-9.91992,0.0762037,0.0810632,-0.154309,0.347135,0.0332491,-0.0190748,0.296215,0.07918238122022903,0.41500773852145123,0.03380802874961719,0.08443943097308781,-0.01889402722868927,-0.1429928351206553
584,0.5746,283.013,271.349,2.39745,276.943,-227.04,-9.92218,0.0763258,0.0811823,-0.154549,0.347671,0.0332639,-0.0191013,0.296692,0.07931415743375014,0.41576638596865156,0.03382332922166609,0.08456859540090567,-0.0189200261924799,-0.14319849216039438
585,0.5756,283.132,271.462,2.39846,277.058,-227.141,-9.92444,0.0764478,0.0813014,-0.154789,0.348207,0.0332787,-0.0191278,0.297169,0.07944584179353975,0.41652544015988124,0.0338386299201634,0.08469777521312305,-0.0189460244673072,-0.14340409984836644
586,0.5766,283.251,271.576,2.39947,277.174,-227.242,-9.92672,0.0765698,0.0814204,-0.155028,0.348742,0.0332935,-0.0191543,0.297646,0.07957754221980107,0.41728348402902093,0.03385393084511268,0.08482686192888056,-0.018972022053189264,-0.1436088018056444
587,0.5776,283.37,271.689,2.40048,277.29,-227.343,-9.92899,0.0766917,0.0815394,-0.155268,0.349277,0.0333083,-0.0191807,0.298123,0.07970915074357432,0.4180419335601353,0.03386923199651748,0.08495596400687155,-0.018997920849941452,-0.14381431103111753
588,0.5786,283.489,271.802,2.40149,277.405,-227.444,-9.93128,0.0768136,0.0816584,-0.155508,0.349812,0.033323,-0.0192072,0.298599,0.07984077531140432,0.41880078897031203,0.033884429985932885,0.08508508144892368,-0.019023917060587592,-0.14401977094029472
589,0.5796,283.608,271.915,2.40249,277.52,-227.544,-9.93357,0.0769354,0.0817773,-0.155747,0.350347,0.0333377,-0.0192337,0.299076,0.07997230792801102,0.41956005047675404,0.033899628198760245,0.08521410573544985,-0.019049912582343342,-0.14422432576976418
590,0.5806,283.726,272.028,2.40349,277.635,-227.645,-9.93586,0.0770572,0.0818961,-0.155987,0.350881,0.0333524,-0.0192601,0.299552,0.08010385656626617,0.4203182979777733,0.03391482663500289,0.08534303682956668,-0.01907580932281272,-0.14442968728721162
591,0.5816,283.845,272.141,2.40448,277.75,-227.745,-9.93816,0.077179,0.0820149,-0.156226,0.351416,0.0333671,-0.0192865,0.300028,0.0802354212281211,0.4210783715687476,0.03393002529466438,0.0854719832416071,-0.019101705379617084,-0.14463414415838072
592,0.5826,283.963,272.253,2.40547,277.865,-227.845,-9.94047,0.0773007,0.0821336,-0.156465,0.35195,0.0333818,-0.019313,0.300503,0.08036689387883311,0.4218374300697476,0.03394522417774759,0.0856008364133023,-0.019127698840009644,-0.14483855217019637
593,0.5836,284.081,272.365,2.40646,277.979,-227.945,-9.94279,0.0774224,0.0822523,-0.156704,0.352484,0.0333964,-0.0193394,0.300979,0.08049838253074038,0.42259689401623146,0.033960319888219015,0.0857297048807768,-0.019153593526948898,-0.1450429113343349
594,0.5846,284.199,272.478,2.40744,278.094,-228.045,-9.94511,0.077544,0.082371,-0.156943,0.353017,0.033411,-0.0193658,0.301454,0.080629779122807,0.4233553402687129,0.03397541581908947,0.08585858864584628,-0.019179487530277428,-0.14524722166246917
595,0.5856,284.317,272.59,2.40842,278.208,-228.145,-9.94743,0.0776656,0.0824896,-0.157182,0.353551,0.0334256,-0.0193922,0.30193,0.08076119169367058,0.42411561499570194,0.03399051197036207,0.0859873791115835,-0.01920538085001333,-0.14545148316626988
596,0.5866,284.434,272.701,2.4094,278.322,-228.245,-9.94977,0.0777871,0.0826081,-0.157421,0.354084,0.0334401,-0.0194185,0.302405,0.080892512156018,0.42487487094222964,0.034005504941484466,0.08611607624116235,-0.019231175409297085,-0.14565569585740445
597,0.5876,284.552,272.813,2.41037,278.436,-228.344,-9.9521,0.0779086,0.0827266,-0.15766,0.354617,0.0334547,-0.0194449,0.302879,0.08102384857477074,0.4256345316800443,0.034020601532061434,0.08624478862225504,-0.019257067364490954,-0.1458598597475378
598,0.5886,284.669,272.925,2.41134,278.55,-228.443,-9.95445,0.07803,0.0828451,-0.157899,0.35515,0.0334692,-0.0194713,0.303354,0.08115509283635336,0.426394597424957,0.03403559493948549,0.08637351625666834,-0.019282958636146152,-0.146063974848332
599,0.5896,284.786,273.036,2.41231,278.663,-228.542,-9.95679,0.0781514,0.0829635,-0.158137,0.355683,0.0334837,-0.0194976,0.303829,0.0812863530319563,0.42715506839289397,0.03405058856431564,0.08650215049598997,-0.019308751155160953,-0.14626718743906053
600,0.5906,284.903,273.147,2.41327,278.777,-228.642,-9.95915,0.0782728,0.0830819,-0.158376,0.356215,0.0334981,-0.019524,0.304303,0.08141762916351425,0.42791451688466586,0.0340654790000019,0.08663079996650702,-0.01933464106238214,-0.1464712052001691
601,0.5916,285.02,273.258,2.41423,278.89,-228.74,-9.96151,0.0783941,0.0832002,-0.158614,0.356747,0.0335126,-0.0195503,0.304777,0.08154881307807549,0.42867436951052573,0.03408047305815409,0.08675935599408224,-0.01936043222216699,-0.1466743208816066
602,0.5926,285.137,273.369,2.41519,279.003,-228.839,-9.96387,0.0785154,0.0833184,-0.158852,0.357279,0.033527,-0.0195766,0.305251,0.08168001290621052,0.42943462648552977,0.03409536392418011,0.08688781854194771,-0.0193862227036532,-0.14687738822726404
603,0.5936,285.253,273.48,2.41614,279.116,-228.938,-9.96624,0.0786366,0.0834367,-0.159091,0.357811,0.0335414,-0.0196029,0.305725,0.08181112046873262,0.43019528802484897,0.03411025500463616,0.08701640497661889,-0.019412012506858756,-0.14708126016781042
604,0.5946,285.37,273.591,2.41709,279.229,-229.036,-9.96862,0.0787578,0.0835548,-0.159329,0.358343,0.0335558,-0.0196292,0.306199,0.0819422439224542,0.4309563543437691,0.034125146299525344,0.08714478919498547,-0.01943780163180131,-0.1472842306734422
605,0.5956,285.486,273.701,2.41804,279.342,-229.134,-9.971,0.0788789,0.0836729,-0.159567,0.358874,0.0335701,-0.0196555,0.306672,0.0820732750619686,0.43171639394058015,0.03413993439485208,0.08727318857642352,-0.01946359007849885,-0.14748715287784175
606,0.5966,285.602,273.811,2.41898,279.454,-229.233,-9.97339,0.079,0.083791,-0.159805,0.359405,0.0335845,-0.0196818,0.307146,0.0822043220703148,0.4324768372255867,0.03415482611712739,0.08740160312272427,-0.019489377846969136,-0.14769002679250332
607,0.5976,285.718,273.922,2.41992,279.566,-229.331,-9.97578,0.079121,0.083909,-0.160043,0.359936,0.0335988,-0.0197081,0.307619,0.08233527671588159,0.4332376844132044,0.03416961463687862,0.08752992408268034,-0.019515164937230045,-0.1478928524289186
608,0.5986,285.834,274.032,2.42086,279.679,-229.428,-9.97818,0.079242,0.084027,-0.16028,0.360467,0.0336131,-0.0197344,0.308092,0.08246624720791917,0.43399893571796233,0.03418440336810713,0.08765826018540324,-0.01954095134929934,-0.14809477789378012
609,0.5996,285.949,274.141,2.42179,279.791,-229.526,-9.98058,0.079363,0.0841449,-0.160518,0.360998,0.0336273,-0.0197606,0.308565,0.08259723354834514,0.4347605913545036,0.03419908889090184,0.0877865026540241,-0.019566639039863776,-0.14829750721089574
610,0.6006,286.065,274.251,2.42272,279.903,-229.624,-9.98298,0.0794839,0.0842628,-0.160756,0.361528,0.0336416,-0.0197869,0.309037,0.08272812746625902,0.43552121601565186,0.0342138780436152,0.08791476024332345,-0.01959242409818207,-0.1485001882841751
611,0.6016,286.18,274.361,2.42365,280.014,-229.721,-9.9854,0.0796048,0.0843806,-0.160993,0.362058,0.0336558,-0.0198131,0.30951,0.08285903721020427,0.4362822439147189,0.03422856398495333,0.08804292415078585,-0.019618110440178138,-0.1487019698274944
612,0.6026,286.295,274.47,2.42457,280.126,-229.819,-9.98781,0.0797256,0.0844984,-0.16123,0.362588,0.03367,-0.0198393,0.309982,0.08298985448310336,0.4370436752654778,0.034243250134833314,0.08817110315684618,-0.01964379610920086,-0.14890370355425442
613,0.6036,286.41,274.579,2.42549,280.238,-229.916,-9.99023,0.0798464,0.0846161,-0.161468,0.363118,0.0336842,-0.0198655,0.310454,0.08312068755968371,0.4378055102818146,0.034257936493258034,0.08829918843335838,-0.019669481105267894,-0.14910624036997133
614,0.6046,286.525,274.688,2.42641,280.349,-230.013,-9.99266,0.0799671,0.0847338,-0.161705,0.363648,0.0336984,-0.0198918,0.310926,0.08325142811670605,0.43856774917772867,0.03427262306023082,0.08842728878639483,-0.0196952634588754,-0.1493078782959656
615,0.6056,286.64,274.797,2.42732,280.46,-230.11,-9.99509,0.0800878,0.0848515,-0.161942,0.364177,0.0337125,-0.019918,0.311398,0.08338218445506596,0.43932895283766027,0.034287206407028314,0.08855540421773034,-0.019720947106515507,-0.1495094684394339
616,0.6066,286.754,274.906,2.42823,280.571,-230.206,-9.99753,0.0802085,0.0849691,-0.162179,0.364706,0.0337266,-0.0199441,0.311869,0.08351295657666857,0.44009055928085483,0.03430178995945243,0.08868342586079137,-0.019746532055911037,-0.14971101081169924
617,0.6076,286.869,275.015,2.42914,280.682,-230.303,-9.99997,0.0803291,0.0850866,-0.162416,0.365235,0.0337407,-0.0199703,0.312341,0.08364363611904957,0.4408525687204412,0.034316373717506066,0.0888113536789421,-0.019772214360331497,-0.1499125054240822
618,0.6086,286.983,275.123,2.43004,280.793,-230.4,-10.0024,0.0804496,0.0852041,-0.162653,0.365764,0.0337548,-0.0199965,0.312812,0.08377422304490634,0.4416149813696604,0.0343309576811921,0.08893929652949462,-0.019797895991884418,-0.15011395228790037
619,0.6096,287.097,275.232,2.43094,280.903,-230.496,-10.0049,0.0805702,0.0853215,-0.16289,0.366293,0.0337688,-0.0200226,0.313283,0.08390493409792343,0.4423777974418672,0.03434543841596471,0.0890671455074954,-0.01982347893294023,-0.15031535141446895
620,0.6106,287.211,275.34,2.43184,281.014,-230.592,-10.0073,0.0806907,0.0854389,-0.163127,0.366821,0.0337829,-0.0200488,0.313754,0.08403555251208372,0.4431395740102331,0.034360022789465816,0.08919500949584713,-0.019849159221378865,-0.15051670281510032
621,0.6116,287.325,275.448,2.43273,281.124,-230.688,-10.0098,0.0808111,0.0855563,-0.163363,0.367349,0.0337969,-0.0200749,0.314225,0.08416607825009792,0.44390175290283107,0.03437450393115271,0.08932288849631242,-0.019874740824481818,-0.15071715721868595
622,0.6126,287.439,275.556,2.43362,281.234,-230.784,-10.0122,0.0809315,0.0856736,-0.1636,0.367877,0.0338109,-0.0201011,0.314695,0.08429661970435709,0.4446643343321448,0.03438898527557677,0.0894506735655809,-0.019900419769876554,-0.15091841340262524
623,0.6136,287.553,275.664,2.43451,281.344,-230.88,-10.0147,0.0810518,0.0857909,-0.163836,0.368405,0.0338248,-0.0201272,0.315166,0.08442706843404135,0.4454273185107698,0.03440336338239991,0.089578473624917,-0.019926000035096703,-0.15111877301369825
624,0.6146,287.666,275.772,2.4354,281.454,-230.976,-10.0172,0.0811721,0.0859081,-0.164072,0.368932,0.0338388,-0.0201533,0.315636,0.08455753285765155,0.44618925946143095,0.034417845130859215,0.08970617970545613,-0.01995157963268057,-0.1513190853454821
625,0.6156,287.779,275.879,2.43627,281.564,-231.071,-10.0196,0.0812924,0.0860252,-0.164309,0.36946,0.0338527,-0.0201794,0.316106,0.08468801297707618,0.44695304901312394,0.0344322236388368,0.08983379177064021,-0.019977158562645703,-0.15152019888935897
626,0.6166,287.892,275.986,2.43715,281.674,-231.167,-10.0221,0.0814126,0.0861423,-0.164545,0.369987,0.0338666,-0.0202055,0.316576,0.08481840031235799,0.4477157942356669,0.03444660234667718,0.08996141878007213,-0.020002736825009415,-0.15172041649581414
627,0.6176,288.005,276.094,2.43803,281.783,-231.262,-10.0246,0.0815328,0.0862594,-0.164781,0.370514,0.0338805,-0.0202316,0.317045,0.08494880332113941,0.44847894153087897,0.034460981254383016,0.09008906073550182,-0.02002831441978925,-0.15192058685648957
628,0.6186,288.118,276.201,2.4389,281.892,-231.357,-10.0271,0.0816529,0.0863764,-0.165017,0.371041,0.0338944,-0.0202577,0.317515,0.08507911349738762,0.44924249111070846,0.034475360361956975,0.09021660861701353,-0.020053891347002528,-0.1521207099825337
629,0.6196,288.231,276.308,2.43977,282.001,-231.452,-10.0296,0.081773,0.0864934,-0.165253,0.371567,0.0339082,-0.0202837,0.317984,0.08520943932482794,0.45000499318149667,0.03448963622043322,0.09034417142250017,-0.020079369614608544,-0.15232078588509268
630,0.6206,288.344,276.414,2.44063,282.11,-231.547,-10.0321,0.081893,0.0866103,-0.165489,0.372094,0.033922,-0.0203098,0.318453,0.08533967227136752,0.4507693472024976,0.03450391227591765,0.09047164010653908,-0.02010494520929862,-0.15252081457530997
631,0.6216,288.456,276.521,2.44149,282.219,-231.642,-10.0346,0.082013,0.0867272,-0.165724,0.37262,0.0339358,-0.0203358,0.318922,0.08546992084679816,0.4515326526108496,0.03451818852841293,0.09059912369253786,-0.020130422149521543,-0.15271994878469874
632,0.6226,288.568,276.628,2.44235,282.328,-231.736,-10.0371,0.082133,0.086844,-0.16596,0.373146,0.0339496,-0.0203619,0.319391,0.08560018505299594,0.4522963596234588,0.03453246497792195,0.09072651310958224,-0.020155996411757915,-0.15291988328358674
633,0.6236,288.681,276.734,2.44321,282.437,-231.831,-10.0396,0.0822529,0.0869608,-0.166195,0.373671,0.0339634,-0.0203879,0.31986,0.08573035631879522,0.4530590153918832,0.034546741624447375,0.09085391740657967,-0.020181472024666802,-0.15311892372284752
634,0.6246,288.793,276.84,2.44406,282.545,-231.925,-10.0421,0.0823728,0.0870776,-0.166431,0.374197,0.0339771,-0.0204139,0.320329,0.08586054319306502,0.45382352548250626,0.034560915011895066,0.09098133658526786,-0.0202069469752183,-0.15331876407475986
635,0.6256,288.904,276.946,2.44491,282.653,-232.019,-10.0446,0.0824926,0.0871943,-0.166666,0.374722,0.0339909,-0.0204399,0.320797,0.08599063707860766,0.4545869832235061,0.03457519205103354,0.09110866153651376,-0.020232421263429834,-0.15351771078804788
636,0.6266,289.016,277.052,2.44575,282.761,-232.113,-10.0471,0.0826124,0.0873109,-0.166901,0.375247,0.0340046,-0.0204659,0.321265,0.08612074655033153,0.45535084188505204,0.03458936582825478,0.09123589222385386,-0.020257894889318395,-0.15371661075435128
637,0.6276,289.128,277.158,2.4466,282.87,-232.207,-10.0497,0.0827321,0.0874275,-0.167137,0.375772,0.0340182,-0.0204919,0.321733,0.08625076298502199,0.4561151016776832,0.03460343633930929,0.09136313774715688,-0.0202833678529013,-0.15391631006876727
638,0.6286,289.239,277.264,2.44744,282.977,-232.301,-10.0522,0.0828518,0.0875441,-0.167372,0.376297,0.0340319,-0.0205179,0.322201,0.08638079498361106,0.45687976281204845,0.03461761050347989,0.09149039810815318,-0.020308840154195762,-0.15411511637524522
639,0.6296,289.351,277.369,2.44827,283.085,-232.395,-10.0547,0.0829715,0.0876606,-0.167607,0.376822,0.0340455,-0.0205439,0.322668,0.08651084254796193,0.4576448254989076,0.03463168139866468,0.09161756414681066,-0.020334311793218984,-0.15431387596773016
640,0.6306,289.462,277.474,2.44911,283.193,-232.488,-10.0572,0.0830911,0.087777,-0.167842,0.377346,0.0340592,-0.0205698,0.323136,0.08664079701585314,0.45840883153957024,0.0346458559497953,0.09174463582670556,-0.02035968480596162,-0.15451258885719876
641,0.6316,289.573,277.58,2.44994,283.3,-232.582,-10.0598,0.0832107,0.0878934,-0.168076,0.37787,0.0340728,-0.0205958,0.323603,0.08677076702722797,0.4591732380243052,0.03465992722912059,0.09187172229860496,-0.020385155123041176,-0.15471040976545725
642,0.6326,289.684,277.685,2.45076,283.408,-232.675,-10.0623,0.0833302,0.0880098,-0.168311,0.378394,0.0340864,-0.0206217,0.32407,0.08690064389387597,0.45993804516300063,0.0346739986998168,0.09199882356423084,-0.020410526818958608,-0.15490902948043184
643,0.6336,289.794,277.79,2.45159,283.515,-232.768,-10.0649,0.0834497,0.0881261,-0.168546,0.378918,0.0340999,-0.0206477,0.324537,0.08703053628173674,0.46070325316565364,0.0346879668930844,0.09212583041271638,-0.02043599581416289,-0.15510760252525735
644,0.6346,289.905,277.895,2.45241,283.622,-232.861,-10.0674,0.0835691,0.0882424,-0.16878,0.379441,0.0341135,-0.0206736,0.325004,0.0871603354766266,0.461467400774241,0.034702038745122454,0.09225285203295752,-0.020461366193323505,-0.1553052842166065
645,0.6356,290.016,277.999,2.45323,283.729,-232.954,-10.07,0.0836885,0.0883586,-0.169015,0.379965,0.034127,-0.0206995,0.325471,0.08729015017046549,0.46223341036923316,0.03471600731693303,0.09237977918868867,-0.020486735915399734,-0.15550376415250966
646,0.6366,290.126,278.104,2.45404,283.835,-233.047,-10.0725,0.0838079,0.0884748,-0.169249,0.380488,0.0341405,-0.0207254,0.325937,0.08741998036510412,0.46299835845934556,0.03472997607732076,0.0925067210942121,-0.020512104980408674,-0.15570135315288336
647,0.6376,290.236,278.208,2.45486,283.942,-233.14,-10.0751,0.0839272,0.0885909,-0.169484,0.381011,0.034154,-0.0207513,0.326404,0.08754971730741645,0.4637637067219451,0.03474394502628808,0.09263356848787985,-0.020537473388367422,-0.15589974002352214
648,0.6386,290.346,278.313,2.45566,284.049,-233.232,-10.0776,0.0840464,0.088707,-0.169718,0.381533,0.0341675,-0.0207772,0.32687,0.08767936096032769,0.4645279908376536,0.034757914163837444,0.09276043060938499,-0.020562841139292853,-0.15609723637638218
649,0.6396,290.456,278.417,2.45647,284.155,-233.325,-10.0802,0.0841657,0.0888231,-0.169952,0.382056,0.0341809,-0.0208031,0.327336,0.08780912884859093,0.46529413930722274,0.034771780012788245,0.0928873074604375,-0.020588208233202066,-0.15629468652050227
650,0.6406,290.566,278.521,2.45727,284.261,-233.417,-10.0828,0.0842849,0.088939,-0.170186,0.382578,0.0341943,-0.020829,0.327802,0.08793880342520088,0.46605922251728615,0.03478564604754264,0.09301398043992948,-0.020613574670112045,-0.156492090466694
651,0.6416,290.676,278.625,2.45807,284.367,-233.509,-10.0853,0.084404,0.089055,-0.17042,0.383101,0.0342077,-0.0208548,0.328267,0.08806838465309785,0.4668261720304785,0.03479951226810307,0.09314077741574289,-0.020638842513929,-0.15668944822576647
652,0.6426,290.785,278.728,2.45887,284.473,-233.601,-10.0879,0.0845231,0.0891709,-0.170654,0.383622,0.0342211,-0.0208807,0.328733,0.08819798131503798,0.4675905875790658,0.034813378674472206,0.09326747977410532,-0.02066420763942811,-0.15688675980852607
653,0.6436,290.895,278.832,2.45966,284.579,-233.693,-10.0905,0.0846421,0.0892868,-0.170888,0.384144,0.0342345,-0.0209065,0.329198,0.08832748458010586,0.46835686984805425,0.034827245266652485,0.093394196818122,-0.020689474176931233,-0.15708402522577702
654,0.6446,291.004,278.936,2.46045,284.685,-233.785,-10.093,0.0847612,0.0894026,-0.171121,0.384666,0.0342479,-0.0209324,0.329663,0.08845711210268514,0.46912355222080504,0.03484111204464613,0.09352081919740773,-0.02071483799108731,-0.1572804017691436
655,0.6456,291.113,279.039,2.46124,284.79,-233.877,-10.0956,0.0848801,0.0895183,-0.171355,0.385187,0.0342612,-0.0209582,0.330128,0.08858653734749256,0.46988916501632727,0.03485487552296318,0.093647346875674,-0.02074010322234421,-0.15747757508495197
656,0.6466,291.222,279.142,2.46203,284.896,-233.968,-10.0982,0.0849991,0.089634,-0.171588,0.385708,0.0342745,-0.020984,0.330593,0.08871608685347954,0.4706551768000431,0.0348686391843358,0.0937738891940394,-0.020765367801766632,-0.15767385994188332
657,0.6476,291.331,279.245,2.46281,285.001,-234.06,-10.1008,0.0851179,0.0897497,-0.171822,0.386229,0.0342878,-0.0210098,0.331057,0.08884543400766653,0.47142158777987975,0.03488240302876644,0.09390044615419813,-0.020790631729371234,-0.1578709411992506
658,0.6486,291.44,279.348,2.46359,285.106,-234.151,-10.1034,0.0852368,0.0898653,-0.172055,0.38675,0.0343011,-0.0210356,0.331522,0.0889749054266935,0.4721883981638728,0.03489616705625731,0.09402690835514793,-0.020815895005175,-0.15806713441255427
659,0.6496,291.548,279.451,2.46436,285.211,-234.242,-10.106,0.0853556,0.0899809,-0.172288,0.387271,0.0343143,-0.0210614,0.331986,0.08910428333035347,0.472955608160166,0.034909827775822855,0.09415338517597327,-0.020841157629194584,-0.1582632819181643
660,0.6506,291.657,279.554,2.46513,285.316,-234.334,-10.1086,0.0854743,0.0900965,-0.172522,0.387791,0.0343276,-0.0210872,0.33245,0.08923356768165913,0.47372174425453006,0.03492359216806529,0.09427987661836412,-0.02086641960144686,-0.15846022526692494
661,0.6516,291.765,279.656,2.4659,285.421,-234.425,-10.1112,0.0855931,0.0902119,-0.172755,0.388311,0.0343408,-0.021113,0.332914,0.08936297631622048,0.47448827884326295,0.03493725324964503,0.09440616380275624,-0.020891680921948708,-0.15865628119303543
662,0.6526,291.874,279.759,2.46667,285.526,-234.515,-10.1138,0.0857117,0.0903274,-0.172988,0.388831,0.034354,-0.0211387,0.333378,0.08949218242698254,0.47525521213363553,0.034950914511551856,0.0945325750147823,-0.020916843682406205,-0.1588522914434365
663,0.6536,291.982,279.861,2.46743,285.63,-234.606,-10.1164,0.0858304,0.0904428,-0.17322,0.389351,0.0343672,-0.0211645,0.333842,0.08962151282464381,0.47602254433302615,0.03496457595378888,0.09465889136225214,-0.020942103701983572,-0.15904741507660503
664,0.6546,292.09,279.963,2.46819,285.734,-234.697,-10.119,0.085949,0.0905581,-0.173453,0.389871,0.0343804,-0.0211902,0.334305,0.08975074959965412,0.47679027564892196,0.03497823757635787,0.09478511280895274,-0.020967265166592197,-0.1592433342034275
665,0.6556,292.197,280.065,2.46895,285.839,-234.787,-10.1216,0.0860675,0.0906734,-0.173686,0.39039,0.0343935,-0.021216,0.334768,0.08987989271506014,0.4775569287312498,0.03499179588007695,0.09491134880982521,-0.02099252388531203,-0.15943920768641118
666,0.6566,292.305,280.167,2.46971,285.943,-234.878,-10.1242,0.086186,0.0907887,-0.173919,0.390909,0.0344066,-0.0212417,0.335231,0.09000905113483215,0.47832397980979846,0.035005354361410834,0.09503759936654776,-0.02101768405413862,-0.15963503553618985
667,0.6576,292.413,280.269,2.47046,286.047,-234.968,-10.1268,0.0863045,0.0909039,-0.174151,0.391428,0.0344197,-0.0212674,0.335694,0.09013822486078382,0.4790914290911814,0.035018913020361975,0.09516375496441776,-0.021042843576357217,-0.15982997759379236
668,0.6586,292.52,280.371,2.47121,286.151,-235.058,-10.1294,0.0864229,0.0910191,-0.174384,0.391947,0.0344328,-0.0212931,0.336157,0.09026730486799295,0.4798592767821199,0.03503247185693259,0.09528992509624956,-0.02106800245198437,-0.16002571440478897
669,0.6596,292.628,280.472,2.47195,286.254,-235.148,-10.132,0.0865413,0.0911342,-0.174616,0.392466,0.0344459,-0.0213188,0.33662,0.09039640015917971,0.4806275230894419,0.035046030871125344,0.0954160002221125,-0.021093160681036727,-0.1602205658354071
670,0.6606,292.735,280.574,2.4727,286.358,-235.238,-10.1347,0.0866596,0.0912493,-0.174848,0.392984,0.034459,-0.0213445,0.337082,0.09052540168360812,0.4813946868246557,0.035059590062942236,0.09554208986005763,-0.021118318263530833,-0.16041537206573686
671,0.6616,292.842,280.675,2.47344,286.461,-235.328,-10.1373,0.0867779,0.0913643,-0.175081,0.393502,0.034472,-0.0213702,0.337544,0.09065441846981992,0.4821622480536263,0.035073045925076096,0.09566808444494135,-0.021143475199483452,-0.16061097249571055
672,0.6626,292.949,280.776,2.47417,286.565,-235.417,-10.1399,0.0868961,0.0914793,-0.175313,0.39402,0.034485,-0.0213959,0.338006,0.09078334144128042,0.4829302069823087,0.03508650196213714,0.09579409352003543,-0.021168631488911127,-0.16080568816220087
673,0.6636,293.056,280.877,2.47491,286.668,-235.507,-10.1425,0.0870143,0.0915942,-0.175545,0.394538,0.034498,-0.0214216,0.338468,0.09091227965233695,0.483698563816765,0.03509995817412781,0.09592000749500018,-0.02119378713183051,-0.16100035865989637
674,0.6646,293.162,280.978,2.47564,286.771,-235.596,-10.1452,0.0871325,0.0917091,-0.175777,0.395056,0.034511,-0.0214472,0.33893,0.09104123310479073,0.4844673187631636,0.03511341456105033,0.0960459359383119,-0.021218844250147417,-0.1611949839992749
675,0.6656,293.269,281.079,2.47637,286.874,-235.685,-10.1478,0.0872506,0.091824,-0.176009,0.395573,0.034524,-0.0214729,0.339392,0.0911700926834289,0.48523498679205046,0.03512687112290713,0.09617187885163303,-0.021243998602615388,-0.16138956419081207
676,0.6666,293.375,281.179,2.4771,286.977,-235.775,-10.1504,0.0873687,0.0919388,-0.17624,0.39609,0.0345369,-0.0214985,0.339853,0.09129896748128163,0.4860030518079206,0.035140224345672655,0.0962977266068481,-0.021269054435535173,-0.16158326082866104
677,0.6676,293.481,281.28,2.47782,287.079,-235.864,-10.1531,0.0874868,0.0920535,-0.176472,0.396607,0.0345499,-0.0215242,0.340315,0.09142785750014704,0.48677151401606933,0.03515368125605889,0.09642347916786131,-0.0212942074976179,-0.16177775095042235
678,0.6686,293.588,281.38,2.47854,287.182,-235.953,-10.1557,0.0876048,0.0921683,-0.176704,0.397124,0.0345628,-0.0215498,0.340776,0.09155665358615184,0.48754037362189795,0.035167034824677534,0.0965493558084507,-0.0213192620452064,-0.161972195955709
679,0.6696,293.694,281.48,2.47925,287.284,-236.041,-10.1583,0.0877227,0.0922829,-0.176935,0.397641,0.0345757,-0.0215754,0.341237,0.09168535570245018,0.4883096308309147,0.03518038856555816,0.09667502756548063,-0.021344315951406623,-0.16216575802116395
680,0.6706,293.8,281.581,2.47997,287.387,-236.13,-10.161,0.0878406,0.0923975,-0.177167,0.398158,0.0345886,-0.021601,0.341697,0.09181407299362276,0.48907928584873295,0.035193742478703216,0.09680071372531907,-0.021369369216235112,-0.16236011301925157
681,0.6716,293.905,281.681,2.48068,287.489,-236.219,-10.1636,0.0879585,0.0925121,-0.177398,0.398674,0.0346014,-0.0216266,0.342158,0.09194280546145861,0.48984784903247935,0.03520699304341046,0.09692641428961668,-0.0213944218397083,-0.1625535854862139
682,0.6726,294.011,281.781,2.48139,287.591,-236.307,-10.1663,0.0880763,0.0926267,-0.177629,0.39919,0.0346143,-0.0216522,0.342618,0.09207144390059718,0.49061680889716364,0.03522034729975543,0.09705212926002438,-0.021419473821842394,-0.16274701326619778
683,0.6736,294.117,281.88,2.4821,287.693,-236.396,-10.1689,0.0881941,0.0927412,-0.17786,0.399706,0.0346271,-0.0216778,0.343079,0.09220009749423652,0.4913861656475256,0.03523359820500649,0.09717774892041309,-0.02144452516265405,-0.16294039636952495
684,0.6746,294.222,281.98,2.4828,287.795,-236.484,-10.1716,0.0883119,0.0928556,-0.178092,0.400221,0.0346399,-0.0217034,0.343539,0.09232876624416209,0.4921544273332379,0.035246849279870096,0.09730327323474341,-0.021469575862159584,-0.16313457167236123
685,0.6756,294.327,282.079,2.4835,287.896,-236.572,-10.1742,0.0884296,0.09297,-0.178323,0.400737,0.0346527,-0.0217289,0.343999,0.09245734090641933,0.4929245776994484,0.03526010052434869,0.09742881190987673,-0.021494528069833096,-0.16332786526003595
686,0.6766,294.432,282.179,2.4842,287.998,-236.66,-10.1769,0.0885472,0.0930844,-0.178553,0.401252,0.0346655,-0.0217545,0.344459,0.09258582144421745,0.49369363187141513,0.035273351938444275,0.09755436494745617,-0.021519577489280572,-0.1635202777227447
687,0.6776,294.537,282.278,2.48489,288.099,-236.748,-10.1795,0.0886649,0.0931987,-0.178784,0.401767,0.0346782,-0.02178,0.344918,0.09271442636365257,0.49446308220828405,0.03528649999350386,0.09767982258113683,-0.021544528421928888,-0.16371348222261184
688,0.6786,294.642,282.377,2.48558,288.201,-236.836,-10.1822,0.0887824,0.0933129,-0.179015,0.402282,0.034691,-0.0218056,0.345378,0.09284282785219,0.49523292891413284,0.03529975174551492,0.09780518477492062,-0.021569576561383697,-0.16390664209739403
689,0.6796,294.747,282.476,2.48627,288.302,-236.924,-10.1848,0.0889,0.0934271,-0.179246,0.402797,0.0347037,-0.0218311,0.345837,0.09297135372591869,0.49600317219314416,0.035312900135854086,0.09793056128588429,-0.021594526219071875,-0.16409975735739823
690,0.6806,294.852,282.575,2.48696,288.403,-237.011,-10.1875,0.0890175,0.0935413,-0.179476,0.403312,0.0347164,-0.0218566,0.346296,0.09309978540519492,0.4967738122496055,0.03532604869317901,0.09805595211566343,-0.021619475240551966,-0.16429199230533953
691,0.6816,294.956,282.674,2.48764,288.504,-237.099,-10.1902,0.0891349,0.0936555,-0.179707,0.403826,0.0347291,-0.0218821,0.346755,0.09322812285326232,0.49754335174380926,0.0353391974174917,0.09818135726589272,-0.02164442362584007,-0.1644850185597263
692,0.6826,295.061,282.773,2.48832,288.605,-237.186,-10.1928,0.0892523,0.0937695,-0.179937,0.40434,0.0347418,-0.0219076,0.347214,0.09335647536903036,0.49831328688298515,0.035352346308794136,0.09830655707687463,-0.021669371374952395,-0.1646771649077805
693,0.6836,295.165,282.871,2.489,288.706,-237.273,-10.1955,0.0893697,0.0938836,-0.180168,0.404854,0.0347544,-0.0219331,0.347673,0.09348484295426851,0.4990836178705469,0.035365391830544324,0.09843188100463118,-0.021694318487905373,-0.16487010219757192
694,0.6846,295.269,282.97,2.48967,288.806,-237.36,-10.1982,0.089487,0.0939976,-0.180398,0.405368,0.0347671,-0.0219586,0.348131,0.09361311624942892,0.499854344910013,0.035378541054517765,0.09855710937694728,-0.02171926496471499,-0.16506215998657403
695,0.6856,295.373,283.068,2.49034,288.907,-237.447,-10.2008,0.0896043,0.0941115,-0.180628,0.405881,0.0347797,-0.0219841,0.348589,0.09374140459192914,0.5006239675802884,0.035391586906323935,0.0986822421578819,-0.021744210805397568,-0.16525417360736427
696,0.6866,295.477,283.166,2.49101,289.007,-237.534,-10.2035,0.0897216,0.0942254,-0.180858,0.406395,0.0347923,-0.0220096,0.349047,0.09386970798353445,0.5013954865630172,0.035404632922508616,0.09880738919225207,-0.021769156009969315,-0.16544614307010008
697,0.6876,295.581,283.264,2.49168,289.107,-237.621,-10.2062,0.0898388,0.0943393,-0.181088,0.406908,0.0348049,-0.022035,0.349505,0.0939979170262133,0.5021659000417855,0.03541767910307425,0.09893255048168115,-0.021794002757851594,-0.16563806838493678
698,0.6886,295.685,283.362,2.49234,289.207,-237.708,-10.2088,0.0899559,0.0944531,-0.181318,0.407421,0.0348175,-0.0220605,0.349963,0.09412603168326394,0.5029367088440604,0.035430725448022615,0.09905761612202602,-0.021818946692744756,-0.165829949562027
699,0.6896,295.788,283.46,2.49301,289.307,-237.794,-10.2115,0.0900731,0.0945669,-0.181548,0.407934,0.03483,-0.0220859,0.350421,0.09425427076884074,0.5037079131726947,0.035443668412984186,0.09918269599565055,-0.021843792175959775,-0.16602178661152134
700,0.6906,295.892,283.558,2.49366,289.407,-237.881,-10.2142,0.0901901,0.0946806,-0.181778,0.408447,0.0348426,-0.0221114,0.350878,0.09438230600843611,0.5044795132306452,0.03545671508539994,0.09930768017340119,-0.021868734841238968,-0.16621357954356797
701,0.6916,295.995,283.656,2.49432,289.507,-237.967,-10.2169,0.0903072,0.0947943,-0.182007,0.408959,0.0348551,-0.0221368,0.351336,0.09451046568007215,0.505250003970217,0.03546965837523408,0.09943267856266047,-0.02189357905985112,-0.1664044947732244
702,0.6926,296.098,283.753,2.49497,289.607,-238.053,-10.2196,0.0904242,0.094908,-0.182237,0.409471,0.0348676,-0.0221622,0.351793,0.09463853089622565,0.5060208893020546,0.03548260182686014,0.09955769116504487,-0.02191842264742805,-0.1665961996925157
703,0.6936,296.201,283.85,2.49562,289.706,-238.14,-10.2222,0.0905411,0.0950216,-0.182466,0.409983,0.0348801,-0.0221876,0.35225,0.09476650162023059,0.5067921694282407,0.03549554544028033,0.09968260801390394,-0.021943265603985962,-0.16678702731218975
704,0.6946,296.304,283.948,2.49627,289.805,-238.226,-10.2249,0.0906581,0.0951351,-0.182696,0.410495,0.0348926,-0.022213,0.352707,0.09489459679434176,0.5075638445509618,0.03550848921549665,0.09980742907337459,-0.021968107929540737,-0.16697864425911435
705,0.6956,296.407,284.045,2.49691,289.905,-238.312,-10.2276,0.0907749,0.0952486,-0.182925,0.411007,0.034905,-0.0222384,0.353163,0.09502248795194546,0.508335914872508,0.03552132960037335,0.09993226430083957,-0.02199294962410847,-0.16716938430900974
706,0.6966,296.51,284.142,2.49756,290.004,-238.397,-10.2303,0.0908918,0.0953621,-0.183154,0.411518,0.0349175,-0.0222638,0.35362,0.09515050356315369,0.509106871487647,0.03553427369789364,0.10005711369790693,-0.022017790687705152,-0.16736008068443464
707,0.6976,296.613,284.239,2.49819,290.103,-238.483,-10.233,0.0910086,0.0954755,-0.183383,0.41203,0.0349299,-0.0222892,0.354076,0.09527842461241387,0.5098797320412669,0.03554711440249969,0.10018186724799305,-0.02204263112034688,-0.1675507333953894
708,0.6986,296.715,284.335,2.49883,290.202,-238.569,-10.2357,0.0911253,0.0955889,-0.183612,0.412541,0.0349423,-0.0223145,0.354532,0.09540625106309442,0.5106514777485751,0.03555995526633149,0.10030663494593361,-0.022067373128791812,-0.1677413424518719
709,0.6996,296.817,284.432,2.49947,290.301,-238.654,-10.2384,0.091242,0.0957022,-0.183841,0.413052,0.0349547,-0.0223399,0.354988,0.09553409243199229,0.5114236179187162,0.03557279628939103,0.1004313067501974,-0.02209221230205549,-0.1679319078638779
710,0.7006,296.92,284.529,2.5001,290.399,-238.74,-10.241,0.0913587,0.0958155,-0.18407,0.413562,0.0349671,-0.0223653,0.355444,0.09566194872084832,0.5121946405579159,0.03558563747168009,0.1005559926805768,-0.02211705084441218,-0.168122429641401
711,0.7016,297.022,284.625,2.50072,290.498,-238.825,-10.2437,0.0914753,0.0959288,-0.184299,0.414073,0.0349795,-0.0223906,0.3559,0.09578971035242767,0.5129675694857629,0.035598478813200884,0.1006806927386723,-0.02214179097006186,-0.1683129077944322
712,0.7026,297.124,284.721,2.50135,290.596,-238.91,-10.2464,0.0915919,0.096042,-0.184528,0.414583,0.0349918,-0.0224159,0.356356,0.09591748688188151,0.5137393797410867,0.035611216752828634,0.10080529684554973,-0.022166530469794332,-0.16850334233296038
713,0.7036,297.226,284.818,2.50197,290.695,-238.995,-10.2491,0.0917084,0.0961551,-0.184756,0.415093,0.0350042,-0.0224413,0.356811,0.09604516870642521,0.5145115837200318,0.035624058411534376,0.10092980496542436,-0.022191367124493544,-0.16869290196028974
714,0.7046,297.328,284.914,2.50259,290.793,-239.08,-10.2518,0.0918249,0.0962682,-0.184985,0.415603,0.0350165,-0.0224666,0.357266,0.09617286540676795,0.5152841816234484,0.03563679666579289,0.10105432716796381,-0.02221610536996521,-0.1688832494901169
715,0.7056,297.429,285.01,2.50342,290.891,-239.165,-10.2545,0.0919414,0.0963813,-0.185214,0.416113,0.0350287,-0.0224919,0.357721,0.09630057698464278,0.5160571736522892,0.03564943151178479,0.10117886345476079,-0.02224084298956719,-0.16907355343535024
716,0.7066,297.531,285.106,2.50379,290.989,-239.25,-10.2572,0.0920578,0.0964943,-0.185442,0.416623,0.035041,-0.0225172,0.358176,0.09642819379895817,0.5168305600076093,0.035662170078134325,0.10130330369707252,-0.022265579983315242,-0.16926298306936804
717,0.7076,297.632,285.202,2.50446,291.087,-239.334,-10.2599,0.0921742,0.0966073,-0.18567,0.417132,0.0350533,-0.0225425,0.358631,0.09655582546873553,0.5176028232869845,0.03567490880116919,0.10142775800192605,-0.022290316351225248,-0.16945236951835263
718,0.7086,297.734,285.297,2.50504,291.185,-239.418,-10.2626,0.0922906,0.0967203,-0.185898,0.417641,0.0350655,-0.0225677,0.359085,0.09668347199570393,0.5183754797484252,0.03568754411213182,0.10155222637091055,-0.022314954324813452,-0.169641712792149
719,0.7096,297.835,285.393,2.50565,291.282,-239.503,-10.2653,0.0924069,0.0968332,-0.186127,0.41815,0.0350777,-0.022593,0.35954,0.09681102370048489,0.5191485295921123,0.03570017957724625,0.1016765986379502,-0.022339689443568456,-0.16983184306917198
720,0.7106,297.936,285.488,2.50625,291.38,-239.587,-10.268,0.0925231,0.096946,-0.186355,0.418659,0.0350899,-0.0226183,0.359994,0.09693848054653809,0.519921973018328,0.03571281519651426,0.10180087476731847,-0.02236442393653293,-0.1700210998328613
721,0.7116,298.037,285.584,2.50685,291.477,-239.671,-10.2707,0.0926394,0.0970588,-0.186583,0.419168,0.0351021,-0.0226435,0.360448,0.09706606191053813,0.5206958102274568,0.03572545096993762,0.10192516491582482,-0.022389060042633413,-0.1702103134509273
722,0.7126,298.138,285.679,2.50745,291.575,-239.755,-10.2734,0.0927555,0.0971716,-0.186811,0.419676,0.0351143,-0.0226688,0.360902,0.097193438674404,0.5214685199507045,0.03573808689751856,0.10204946908505086,-0.022413793286537476,-0.17039948393320603
723,0.7136,298.239,285.774,2.50805,291.672,-239.839,-10.2761,0.0928717,0.0972843,-0.187038,0.420185,0.0351265,-0.022694,0.361356,0.09732093995965929,0.5222431445525966,0.03575072297925863,0.10217367705920455,-0.02243842814854613,-0.17058778187772794
724,0.7146,298.34,285.869,2.50864,291.769,-239.923,-10.2788,0.0929878,0.097397,-0.187266,0.420693,0.0351386,-0.0227192,0.361809,0.0974483463165845,0.523016640521371,0.035763255638828984,0.10229789903238573,-0.022463062389764032,-0.17077686630701572
725,0.7156,298.44,285.964,2.50923,291.866,-240.007,-10.2816,0.0931038,0.0975096,-0.187494,0.421201,0.0351507,-0.0227444,0.362263,0.09757565770867527,0.5237905295259202,0.03577578845004559,0.10242202476396445,-0.022487696010206948,-0.170965907629968
726,0.7166,298.54,286.059,2.50982,291.963,-240.09,-10.2843,0.0932198,0.0976222,-0.187721,0.421708,0.0351628,-0.0227697,0.362716,0.09770298386974408,0.5245632872019077,0.03578832141291022,0.10254616447288734,-0.022512426758652504,-0.17115407701090324
727,0.7176,298.641,286.153,2.5104,292.06,-240.174,-10.287,0.0933358,0.0977348,-0.187949,0.422216,0.0351749,-0.0227949,0.363169,0.09783032480150422,0.5253379621025713,0.03580085452742443,0.10267031816072847,-0.022537059135128934,-0.17134303233961878
728,0.7186,298.741,286.248,2.51099,292.156,-240.257,-10.2897,0.0934518,0.0978473,-0.188176,0.422723,0.035187,-0.0228201,0.363622,0.09795768050566922,0.5261115045257918,0.03581338779359022,0.10279437554961879,-0.02256169089087734,-0.17153111612296057
729,0.7196,298.841,286.342,2.51157,292.253,-240.341,-10.2924,0.0935677,0.0979597,-0.188403,0.42323,0.0351991,-0.0228452,0.364075,0.09808494117545319,0.5268854392344569,0.035825921211409595,0.10291833660391125,-0.0225862242845406,-0.17171915721612918
730,0.7206,298.941,286.437,2.51214,292.349,-240.424,-10.2952,0.0936835,0.0980722,-0.188631,0.423737,0.0352112,-0.0228704,0.364527,0.0982121067743873,0.5276597664275053,0.03583845478088432,0.10304242189644608,-0.02261085480134284,-0.17190798372124427
731,0.7216,299.041,286.531,2.51272,292.445,-240.507,-10.2979,0.0937993,0.0981845,-0.188858,0.424244,0.0352232,-0.0228956,0.36498,0.09833928709995043,0.5284344863039778,0.03585088491692234,0.10316630051607922,-0.022635484697463792,-0.17209593927517708
732,0.7226,299.141,286.625,2.51329,292.542,-240.59,-10.3006,0.0939151,0.0982969,-0.189085,0.424751,0.0352352,-0.0229207,0.365432,0.09846648215384812,0.5292095990630148,0.035863315202122825,0.10329030337708756,-0.022660016238925773,-0.17228385216804143
733,0.7236,299.24,286.719,2.51386,292.638,-240.673,-10.3034,0.0940308,0.0984092,-0.189312,0.425257,0.0352472,-0.0229459,0.365884,0.09859358207842228,0.5299835749195185,0.035875745636487766,0.1034142098353743,-0.02268464489619415,-0.17247172240952013
734,0.7246,299.34,286.813,2.51443,292.734,-240.756,-10.3061,0.0941465,0.0985214,-0.189539,0.425763,0.0352592,-0.022971,0.366336,0.09872069670930816,0.5307579425069053,0.03588817622001872,0.10353801985532995,-0.022709175203750598,-0.172659550009294
735,0.7256,299.439,286.907,2.51499,292.83,-240.839,-10.3088,0.0942622,0.0986336,-0.189766,0.426269,0.0352712,-0.0229962,0.366788,0.09884782604820797,0.531532702023441,0.035900606952717684,0.10366184376754939,-0.022733802622228794,-0.17284733497704174
736,0.7266,299.539,287.0,2.51556,292.925,-240.921,-10.3116,0.0943778,0.0987458,-0.189992,0.426775,0.0352832,-0.0230213,0.36724,0.09897486019933166,0.5323078536674919,0.035913037834586214,0.10378568157359114,-0.02275833169594177,-0.1730342503571034
737,0.7276,299.638,287.094,2.51612,293.021,-241.004,-10.3143,0.0944934,0.0988579,-0.190219,0.427281,0.0352951,-0.0230464,0.367691,0.099101909036452,0.5330833976375249,0.03592536527308443,0.10390942288406624,-0.022782860153982787,-0.1732219502775253
738,0.7286,299.737,287.188,2.51667,293.116,-241.086,-10.317,0.0946089,0.09897,-0.190446,0.427786,0.0353071,-0.0230716,0.368143,0.09922886263837505,0.5338578002735397,0.03593779645205464,0.10403317806672008,-0.02280748571562352,-0.17340960759490098
739,0.7296,299.836,287.281,2.51723,293.212,-241.169,-10.3198,0.0947244,0.099082,-0.190672,0.428292,0.035319,-0.0230967,0.368594,0.0993558309042859,0.5346341287150098,0.035950124185182286,0.10415683670741815,-0.022832012939914104,-0.1735963959157093
740,0.7306,299.935,287.374,2.51778,293.307,-241.251,-10.3225,0.0948398,0.099194,-0.190899,0.428797,0.0353309,-0.0231218,0.369045,0.09948270388760272,0.5354093146679897,0.03596245206501103,0.10428050919865961,-0.022856539548579025,-0.17378396824357178
741,0.7316,300.033,287.467,2.51833,293.402,-241.333,-10.3253,0.0949552,0.099306,-0.191125,0.429302,0.0353428,-0.0231468,0.369496,0.09960959151290649,0.5361848921887384,0.0359747800915422,0.10440419554199565,-0.022880967829735588,-0.17397067196843308
742,0.7326,300.132,287.56,2.51888,293.497,-241.415,-10.328,0.0950706,0.0994179,-0.191351,0.429806,0.0353547,-0.0231719,0.369947,0.0997364937818872,0.5369593245149547,0.0359871082647778,0.10452778528619411,-0.022905493209648187,-0.17415733350302032
743,0.7336,300.23,287.653,2.51943,293.592,-241.497,-10.3308,0.0951859,0.0995297,-0.191577,0.430311,0.0353665,-0.023197,0.370397,0.09986330070989902,0.5377356849883548,0.035999332984780974,0.10465127839572519,-0.022930017973981642,-0.17434395285686732
744,0.7346,300.329,287.746,2.51997,293.687,-241.579,-10.3335,0.0953012,0.0996416,-0.191803,0.430815,0.0353784,-0.0232221,0.370847,0.09999012225959292,0.5385108991111383,0.03601166145019774,0.10477489579004207,-0.022954542122751054,-0.17453053003950592
745,0.7356,300.427,287.839,2.52051,293.782,-241.661,-10.3362,0.0954165,0.0997533,-0.192029,0.431319,0.0353902,-0.0232471,0.371298,0.10011695843265422,0.5392865040403143,0.036023886459930266,0.1048983060382358,-0.022978967953873886,-0.1747170650604657
746,0.7366,300.525,287.931,2.52105,293.877,-241.742,-10.339,0.0955317,0.0998651,-0.192255,0.431823,0.0354021,-0.0232722,0.371748,0.10024369920639398,0.5400624999728993,0.036036215217535084,0.10502184057430286,-0.02300349087401432,-0.17490355792927403
747,0.7376,300.623,288.024,2.52158,293.971,-241.824,-10.3417,0.0956468,0.0999768,-0.192481,0.432327,0.0354139,-0.0232972,0.372198,0.10037034454447213,0.5408388871060088,0.03604844051700362,0.10514527840776955,-0.02302791548143357,-0.17509000865545643
748,0.7386,300.721,288.116,2.52212,294.066,-241.905,-10.3445,0.095762,0.100088,-0.192707,0.432831,0.0354257,-0.0233223,0.372647,0.10049711450997334,0.5416156656368571,0.036060665960731875,0.10526817739578553,-0.023052437173006424,-0.17527641724853582
749,0.7396,300.819,288.209,2.52265,294.16,-241.987,-10.3472,0.0958771,0.1002,-0.192933,0.433334,0.0354374,-0.0233473,0.373097,0.10062378901783164,0.542391293370694,0.03607278794143709,0.1053919743641547,-0.023076860556783596,-0.17546278371803337
750,0.7406,300.917,288.301,2.52317,294.254,-242.068,-10.35,0.0959921,0.100312,-0.193158,0.433838,0.0354492,-0.0233723,0.373546,0.10075036803172255,0.543168854511501,0.036085013672466415,0.10551578519856086,-0.023101283329983735,-0.1756482837221638
751,0.7416,301.015,288.393,2.5237,294.348,-242.149,-10.3527,0.0961071,0.100423,-0.193384,0.434341,0.035461,-0.0233973,0.373996,0.10087696160303694,0.5439452636958602,0.03609723954776012,0.10563850426149979,-0.02312570549262216,-0.17583456615933424
752,0.7426,301.112,288.485,2.52422,294.442,-242.23,-10.3555,0.0962221,0.100535,-0.193609,0.434843,0.0354727,-0.0234223,0.374445,0.10100356973344926,0.5447205187909838,0.036109361956378816,0.1057623427088008,-0.023150127044714197,-0.17601998252182538
753,0.7436,301.21,288.577,2.52474,294.536,-242.311,-10.3583,0.096337,0.100646,-0.193834,0.435346,0.0354844,-0.0234473,0.374894,0.10113008231162013,0.5454977086588011,0.036121484506830503,0.10588508914114247,-0.02317454798627505,-0.17620535717032804
754,0.7446,301.307,288.668,2.52526,294.63,-242.392,-10.361,0.0964519,0.100757,-0.19406,0.435849,0.0354961,-0.0234723,0.375343,0.10125660942692116,0.5462752895514564,0.03613360719911696,0.10600784919909434,-0.023198968317319935,-0.17639151372312467
755,0.7456,301.404,288.76,2.52578,294.724,-242.473,-10.3638,0.0965668,0.100869,-0.194285,0.436351,0.0355078,-0.0234973,0.375791,0.10138315108102325,0.5470517146131966,0.03614573003323951,0.10613172901534473,-0.02322338803786428,-0.17657680478651072
756,0.7466,301.501,288.852,2.52629,294.817,-242.554,-10.3665,0.0966816,0.10098,-0.19451,0.436853,0.0355195,-0.0235222,0.37624,0.10150959712463137,0.5478285295381651,0.03615785300920016,0.10625451645184203,-0.02324770947269894,-0.17676205416409718
757,0.7476,301.598,288.943,2.5268,294.911,-242.634,-10.3693,0.0967963,0.101091,-0.194735,0.437355,0.0355312,-0.0235472,0.376688,0.10163594752147831,0.5486057345221227,0.03616997612700046,0.10637731751850144,-0.02327212797472966,-0.17694726186526255
758,0.7486,301.695,289.034,2.52731,295.004,-242.715,-10.372,0.0969111,0.101203,-0.19496,0.437857,0.0355428,-0.0235722,0.377136,0.10176242258778356,0.5493833297609281,0.0361819957684375,0.10650123871752104,-0.023296545866305363,-0.17713242789938288
759,0.7496,301.792,289.126,2.52781,295.097,-242.795,-10.3748,0.0970257,0.101314,-0.195185,0.438359,0.0355545,-0.0235971,0.377584,0.10188869179649962,0.550161315450538,0.036194119168709626,0.1066240671718719,-0.023320865479532826,-0.17731755227583212
760,0.7506,301.889,289.217,2.52832,295.19,-242.876,-10.3775,0.0971404,0.101425,-0.19541,0.43886,0.0355661,-0.023622,0.378032,0.10201508567799933,0.5509381408480922,0.03620613909020731,0.10674690926093766,-0.02334518448720946,-0.17750263500398233
761,0.7516,301.985,289.308,2.52882,295.283,-242.956,-10.3803,0.097255,0.101536,-0.195634,0.439361,0.0355777,-0.023647,0.37848,0.10214138384356453,0.5517153555326788,0.03621815915113702,0.10686976498623224,-0.02336960055239523,-0.17768685378046822
762,0.7526,302.082,289.399,2.52932,295.376,-243.036,-10.383,0.0973696,0.101647,-0.195859,0.439862,0.0355893,-0.0236719,0.378927,0.10226769648372902,0.5524929596993795,0.0362301793515003,0.10699263434926931,-0.023393918346583664,-0.17787185342512712
763,0.7536,302.178,289.49,2.52981,295.469,-243.116,-10.3858,0.0974841,0.101758,-0.196083,0.440363,0.0356009,-0.0236968,0.379375,0.10239391336075476,0.5532709535433737,0.03624219969129849,0.10711551735156255,-0.023418235535266563,-0.17805598950594892
764,0.7546,302.274,289.58,2.53031,295.562,-243.196,-10.3886,0.0975986,0.101869,-0.196308,0.440864,0.0356125,-0.0237217,0.379822,0.10252014469044024,0.5540493372599387,0.03625422017053359,0.10723841399462608,-0.023442552118459026,-0.17824090610441268
765,0.7556,302.371,289.671,2.5308,295.655,-243.276,-10.3913,0.097713,0.10198,-0.196532,0.441364,0.035624,-0.0237466,0.380269,0.10264628020980715,0.554826556217116,0.036266137162588086,0.10736132427997402,-0.02346686809617604,-0.17842495952669235
766,0.7566,302.467,289.762,2.53129,295.747,-243.356,-10.3941,0.0978274,0.102091,-0.196757,0.441865,0.0356356,-0.0237715,0.380716,0.10277243015990267,0.5556057194858819,0.03627815791949951,0.10748424820912095,-0.02349118346843282,-0.17860979311624026
767,0.7576,302.562,289.852,2.53178,295.84,-243.435,-10.3968,0.0979418,0.102202,-0.196981,0.442365,0.0356471,-0.0237964,0.381163,0.10289859454237793,0.5563837168287524,0.0362900751868398,0.10760718578358142,-0.023515498235244348,-0.17879376391708324
768,0.7586,302.658,289.942,2.53226,295.932,-243.515,-10.3996,0.0980561,0.102313,-0.197205,0.442865,0.0356586,-0.0238213,0.381609,0.10302466305641245,0.55716210326756,0.03630199259122935,0.10773013700486977,-0.023539812396625726,-0.17897769351308201
769,0.7596,302.754,290.033,2.53274,296.024,-243.595,-10.4024,0.0981704,0.102423,-0.197429,0.443365,0.0356701,-0.0238461,0.382056,0.10315074598090179,0.5579408789969016,0.036313910132669935,0.10785199402195356,-0.02356402830899973,-0.17916158191346532
770,0.7606,302.85,290.123,2.53322,296.116,-243.674,-10.4051,0.0982847,0.102534,-0.197653,0.443864,0.0356816,-0.023871,0.382502,0.10327684331749287,0.5587184854922063,0.03632582781116289,0.10797497241846465,-0.02358834126199738,-0.1793454291274601
771,0.7616,302.945,290.213,2.5337,296.208,-243.753,-10.4079,0.0983989,0.102645,-0.197877,0.444364,0.0356931,-0.0238959,0.382948,0.10340284472754324,0.5594980396072404,0.036337745626709994,0.10809796446633535,-0.023612653609609957,-0.17952923516429087
772,0.7626,303.041,290.303,2.53417,296.3,-243.833,-10.4106,0.0985131,0.102755,-0.198101,0.444863,0.0357046,-0.0239207,0.383394,0.10352886052777643,0.5602764233195892,0.036349663579312796,0.10821986194666522,-0.023636867715544296,-0.17971300003318036
773,0.7636,303.136,290.392,2.53465,296.392,-243.912,-10.4134,0.0986272,0.102866,-0.198325,0.445362,0.035716,-0.0239455,0.38384,0.10365478035435216,0.5610551955423355,0.03636147803281986,0.10834288117878232,-0.02366108122097621,-0.1798967237433492
774,0.7646,303.231,290.482,2.53512,296.484,-243.991,-10.4162,0.0987413,0.102977,-0.198548,0.445861,0.0357274,-0.0239704,0.384286,0.10378071454919979,0.5618343564693948,0.03637329262101252,0.10846591406679229,-0.023685391757386376,-0.1800795863840121
775,0.7656,303.326,290.572,2.53558,296.575,-244.07,-10.4189,0.0988553,0.103087,-0.198772,0.446359,0.0357389,-0.0239952,0.384731,0.10390655272329807,0.5626123436816539,0.0363852109824081,0.10858785202380417,-0.023709604059437006,-0.18026322798803462
776,0.7666,303.421,290.661,2.53605,296.667,-244.149,-10.4217,0.0989694,0.103198,-0.198995,0.446858,0.0357503,-0.02402,0.385177,0.10403251564701188,0.5633922818195325,0.03639702584115789,0.1087109121050871,-0.023733815761029953,-0.1804460089073633
777,0.7676,303.516,290.751,2.53651,296.758,-244.227,-10.4244,0.0990833,0.103308,-0.199219,0.447356,0.0357617,-0.0240448,0.385622,0.10415827211223871,0.5641710450718338,0.03640884083459772,0.10883287701336553,-0.023758026862180204,-0.18062956844193268
778,0.7686,303.611,290.84,2.53697,296.849,-244.306,-10.4272,0.0991973,0.103418,-0.199442,0.447854,0.0357731,-0.0240696,0.386067,0.10428415333035268,0.5649501962448189,0.036420655962729365,0.108954855338522,-0.023782237362902636,-0.1808122676764483
779,0.7696,303.706,290.929,2.53743,296.941,-244.385,-10.4299,0.0993112,0.103529,-0.199665,0.448352,0.0357844,-0.0240944,0.386512,0.10440993845874402,0.5657297355317206,0.036432367582312386,0.10907795615943372,-0.023806447263212016,-0.18099492617357715
780,0.7706,303.8,291.018,2.53789,297.032,-244.463,-10.4327,0.099425,0.103639,-0.199888,0.44885,0.0357958,-0.0241192,0.386956,0.1045356274613094,0.5665096631258677,0.036444182978650375,0.10919996144477895,-0.02383065656312333,-0.18117754394240237
781,0.7716,303.895,291.108,2.53834,297.123,-244.542,-10.4355,0.0995388,0.103749,-0.200112,0.449348,0.0358071,-0.024144,0.387401,0.10466133076809703,0.5672899792206851,0.036455894864090066,0.10932198015144357,-0.02385486526265146,-0.18136093963147526
782,0.7726,303.989,291.196,2.53879,297.214,-244.62,-10.4382,0.0996526,0.103859,-0.200335,0.449845,0.0358185,-0.0241687,0.387845,0.10478704838073472,0.5680691159397946,0.03646771052864062,0.10944401228090439,-0.02387897574971365,-0.18154347578839958
783,0.7736,304.084,291.285,2.53924,297.304,-244.698,-10.441,0.0997664,0.10397,-0.200558,0.450343,0.0358298,-0.0241935,0.38829,0.10491278030085116,0.5688502088355207,0.036479422679943196,0.10956716740125039,-0.023903183250940874,-0.18172597124429912
784,0.7746,304.178,291.374,2.53969,297.395,-244.776,-10.4437,0.0998801,0.10408,-0.20078,0.45084,0.0358411,-0.0242182,0.388734,0.10503841602622699,0.5696301211814763,0.036491134963593685,0.109689226502792,-0.023927292544563605,-0.18190760791626626
785,0.7756,304.272,291.463,2.54013,297.486,-244.854,-10.4465,0.0999937,0.10419,-0.201003,0.451337,0.0358524,-0.024243,0.389178,0.10516395552079572,0.5704104212402064,0.03650284737959386,0.10981129903157316,-0.023951498847549102,-0.18209002217975467
786,0.7766,304.366,291.551,2.54057,297.576,-244.932,-10.4493,0.100107,0.1043,-0.201226,0.451833,0.0358637,-0.0242677,0.389622,0.10528917769065838,0.5711895380141285,0.036514559927945056,0.10993338498907135,-0.023975606947791217,-0.18227239576939758
787,0.7776,304.46,291.64,2.54101,297.667,-245.01,-10.452,0.100221,0.10441,-0.201448,0.45233,0.0358749,-0.0242925,0.390065,0.105415187839357,0.5719706132956512,0.03652616895602656,0.11005548437676338,-0.023999812052594383,-0.18245391114858422
788,0.7786,304.554,291.728,2.54145,297.757,-245.088,-10.4548,0.100334,0.10452,-0.201671,0.452826,0.0358862,-0.0243172,0.390509,0.10554010681337189,0.5727505041167806,0.03653788176791317,0.11017759719612674,-0.024023918959515167,-0.1826362036000343
789,0.7796,304.647,291.816,2.54189,297.847,-245.166,-10.4575,0.100448,0.10463,-0.201893,0.453322,0.0358974,-0.0243419,0.390952,0.10566614556962128,0.5735307818597062,0.036549491057200845,0.11029972344863892,-0.024048025271002693,-0.1828176382228468
790,0.7806,304.741,291.905,2.54232,297.937,-245.243,-10.4603,0.100561,0.10474,-0.202116,0.453818,0.0359087,-0.0243666,0.391395,0.105791092903462,0.5743114467163883,0.03656120413262842,0.11042186313577784,-0.024072130987071727,-0.1829998495722025
791,0.7816,304.834,291.993,2.54275,298.027,-245.321,-10.463,0.100675,0.10485,-0.202338,0.454314,0.0359199,-0.0243913,0.391838,0.10591716027375675,0.5750924988788833,0.03657281368312826,0.11054401625902144,-0.024096236107736813,-0.18318120347456956
792,0.7826,304.928,292.081,2.54318,298.117,-245.398,-10.4658,0.100788,0.104959,-0.20256,0.45481,0.0359311,-0.024416,0.392281,0.1060421359738617,0.5758739385393425,0.036584423363655416,0.11066507215422017,-0.024120340633012827,-0.18336251712083873
793,0.7836,305.021,292.168,2.5436,298.207,-245.476,-10.4686,0.100902,0.105069,-0.202783,0.455305,0.0359423,-0.0244407,0.392724,0.10616823196469771,0.576654189235035,0.036596033174211895,0.1107872520319273,-0.024144444562914535,-0.18354460697574737
794,0.7846,305.114,292.256,2.54382,298.296,-245.553,-10.4713,0.101015,0.105179,-0.203005,0.455801,0.0359535,-0.0244654,0.393167,0.10629323603750662,0.5774364036860429,0.03660764311479903,0.11090944535016001,-0.02416854789745637,-0.1837258399553937
795,0.7856,305.207,292.344,2.54448,298.386,-245.63,-10.4741,0.101128,0.105289,-0.203227,0.456296,0.0359647,-0.02449,0.393609,0.10641825423657414,0.578217427993436,0.036619253185418144,0.11103165211039712,-0.02419255305591339,-0.18390703270578412
796,0.7866,305.3,292.431,2.54485,298.476,-245.708,-10.4768,0.101241,0.105398,-0.203449,0.456791,0.0359758,-0.0245147,0.394051,0.10654328656349632,0.5789988390035623,0.03663075972298979,0.11115276116080053,-0.024216655202190185,-0.1840881852358487
797,0.7876,305.393,292.519,2.5453,298.565,-245.785,-10.4796,0.101355,0.105508,-0.20367,0.457285,0.035987,-0.0245394,0.394493,0.1066694396887562,0.5797790571280401,0.03664237005251647,0.11127499468724888,-0.024240756753151294,-0.18426848182340483
798,0.7886,305.486,292.606,2.5457,298.654,-245.862,-10.4824,0.101468,0.105618,-0.203892,0.45778,0.0359981,-0.024564,0.394935,0.10679450040123806,0.5805612413359387,0.03665387684668664,0.11139724166012477,-0.02426476013529244,-0.18444955412067132
799,0.7896,305.579,292.693,2.54612,298.743,-245.939,-10.4851,0.101581,0.105727,-0.204114,0.458274,0.0360093,-0.0245887,0.395377,0.10691957524637918,0.5813422314778414,0.03666548743512643,0.11151839056196078,-0.024288860498076326,-0.18463058622434958
800,0.7906,305.671,292.781,2.54653,298.832,-246.016,-10.4879,0.101694,0.105837,-0.204335,0.458769,0.0360204,-0.0246133,0.395819,0.10704466422577608,0.5821251896485831,0.03667699448590089,0.11164066430985553,-0.024312862696879822,-0.18481076295453192
801,0.7916,305.764,292.868,2.54694,298.921,-246.092,-10.4906,0.101807,0.105946,-0.204557,0.459263,0.0360315,-0.024638,0.39626,0.10716976734102657,0.5829069525718131,0.036688501664404516,0.11176183974620657,-0.024336961871545215,-0.18499171487874932
802,0.7926,305.856,292.955,2.54735,299.01,-246.169,-10.4934,0.10192,0.106055,-0.204778,0.459756,0.0360426,-0.0246626,0.396702,0.10729488459372782,0.5836875180930226,0.03670000897063841,0.11188302839140007,-0.02436096288706946,-0.18517181180831732
803,0.7936,305.948,293.042,2.54775,299.099,-246.246,-10.4961,0.102033,0.106165,-0.205,0.46025,0.0360537,-0.0246872,0.397143,0.10742001598547724,0.5844700529971678,0.03671151640460413,0.11200534225166225,-0.02438496331217599,-0.18535268358858548
804,0.7946,306.041,293.128,2.54815,299.188,-246.322,-10.4989,0.102146,0.106274,-0.205221,0.460744,0.0360647,-0.0247118,0.397584,0.10754516151787308,0.5852529745690549,0.03672292029400581,0.11212655744007538,-0.024408963146879348,-0.18553270075288297
805,0.7956,306.133,293.215,2.54855,299.276,-246.399,-10.5016,0.102259,0.106383,-0.205442,0.461237,0.0360758,-0.0247364,0.398025,0.10767032119251296,0.5860346969642549,0.03673442798228854,0.11224778584166417,-0.02443296239119397,-0.18571267813778314
806,0.7966,306.225,293.302,2.54895,299.365,-246.475,-10.5043,0.102372,0.106493,-0.205663,0.46173,0.0360868,-0.024761,0.398466,0.10779549501099539,0.5868168048436095,0.03674583212371907,0.11237013982745259,-0.024456961045134507,-0.18589261575207594
807,0.7976,306.317,293.388,2.54935,299.453,-246.551,-10.5071,0.102484,0.106602,-0.205884,0.462223,0.0360979,-0.0247856,0.398906,0.10791957505478944,0.5875992983972098,0.036757340066324584,0.1124913947809687,-0.024480959108715394,-0.1860725136045498
808,0.7986,306.408,293.475,2.54974,299.542,-246.627,-10.5098,0.102597,0.106711,-0.206105,0.462716,0.0361089,-0.0248102,0.399347,0.10804477704054949,0.5883821778152396,0.036768744459789504,0.11261266295199501,-0.024504956581951287,-0.18625237170399123
809,0.7996,306.5,293.561,2.55013,299.63,-246.703,-10.5126,0.10271,0.10682,-0.206326,0.463209,0.0361199,-0.0248348,0.399787,0.10816999317493337,0.5891654432879772,0.03678014897870319,0.11273394434197259,-0.024528953464856396,-0.18643219005918443
810,0.8006,306.592,293.647,2.55052,299.718,-246.779,-10.5153,0.102823,0.106929,-0.206547,0.463701,0.0361309,-0.0248593,0.400227,0.10829522345954001,0.5899475050574945,0.03679155362306741,0.11285523895234206,-0.024552852212735732,-0.18661196867891217
811,0.8016,306.683,293.734,2.5509,299.806,-246.855,-10.518,0.102935,0.107038,-0.206768,0.464193,0.0361419,-0.0248839,0.400667,0.10841935947605474,0.5907299516960725,0.03680295839288328,0.1129765467845445,-0.024576847917422873,-0.18679170757195496
812,0.8026,306.775,293.82,2.55129,299.894,-246.931,-10.5208,0.103048,0.107147,-0.206989,0.464685,0.0361529,-0.0249084,0.401107,0.10854461794064552,0.5915127833931131,0.036814363288152574,0.1130978678400214,-0.024600745491902387,-0.18697140674709123
813,0.8036,306.866,293.906,2.55167,299.982,-247.007,-10.5235,0.10316,0.107256,-0.207209,0.465177,0.0361638,-0.024933,0.401547,0.10866878189090623,0.5922960003381119,0.036825664626304544,0.11321920212021408,-0.024624740018429403,-0.18715025336375768
814,0.8046,306.957,293.991,2.55205,300.07,-247.083,-10.5262,0.103273,0.107365,-0.20743,0.465669,0.0361748,-0.0249575,0.401986,0.10879406854182228,0.5930796027206575,0.0368370697713436,0.11334054962656426,-0.02464863641956694,-0.18732987330902928
815,0.8056,307.048,294.077,2.55243,300.158,-247.158,-10.5289,0.103385,0.107474,-0.20765,0.466161,0.0361857,-0.024982,0.402425,0.10891826043211505,0.5938635907304319,0.03684837135699759,0.11346191036051323,-0.024672532235249678,-0.18750864107172638
816,0.8066,307.139,294.163,2.5528,300.245,-247.234,-10.5317,0.103498,0.107583,-0.20787,0.466652,0.0361966,-0.0250066,0.402865,0.1090435752756993,0.594646369910043,0.036859673065839704,0.1135832843235034,-0.024696524995844515,-0.18768736950984155
817,0.8076,307.23,294.249,2.55317,300.333,-247.309,-10.5344,0.10361,0.107692,-0.208091,0.467143,0.0362075,-0.0250311,0.403304,0.10916779511231112,0.5954295335286033,0.036870974897870834,0.1137046715169765,-0.02472041963827154,-0.18786687076556052
818,0.8086,307.321,294.334,2.55354,300.42,-247.384,-10.5371,0.103723,0.1078,-0.208311,0.467634,0.0362184,-0.0250556,0.403743,0.10929313815490738,0.5962130817749187,0.036882276853092755,0.11382495811686,-0.024744313695287068,-0.18804552040181155
819,0.8096,307.412,294.42,2.55391,300.507,-247.46,-10.5398,0.103835,0.107909,-0.208531,0.468125,0.0362293,-0.0250801,0.404181,0.10941738594412698,0.596997014837888,0.0368935789315068,0.11394637165421218,-0.02476820716690531,-0.18822413073946564
820,0.8106,307.503,294.505,2.55428,300.595,-247.535,-10.5426,0.103947,0.108018,-0.208751,0.468616,0.0362402,-0.0251046,0.40462,0.10954164764987828,0.5977813329065023,0.036904881133114076,0.11406779842636139,-0.024792100053140587,-0.18840270178716745
821,0.8116,307.593,294.59,2.55464,300.682,-247.61,-10.5453,0.10406,0.108126,-0.208971,0.469106,0.036251,-0.0251291,0.405059,0.1096670329401983,0.5985644376046089,0.036916079766302845,0.11418812424606872,-0.024815992354007443,-0.18858123355355993
822,0.8126,307.684,294.675,2.555,300.769,-247.685,-10.548,0.104172,0.108235,-0.209191,0.469597,0.0362619,-0.0251535,0.405497,0.10979132260797897,0.5993495254667704,0.03692738221317038,0.11430957737068659,-0.024839786553503607,-0.18875972604728386
823,0.8136,307.774,294.761,2.55536,300.856,-247.76,-10.5507,0.104284,0.108344,-0.209411,0.470087,0.0362727,-0.025178,0.405935,0.10991562619698225,0.6001333987675237,0.03693858108937209,0.11443104373441648,-0.024863677686065455,-0.18893817927697854
824,0.8146,307.865,294.846,2.55572,300.943,-247.834,-10.5534,0.104396,0.108452,-0.209631,0.470577,0.0362836,-0.0252025,0.406373,0.11003994370876691,0.600917656260314,0.036949883781505655,0.11455140878673564,-0.024887568233301738,-0.18911659325128083
825,0.8156,307.955,294.93,2.55607,301.029,-247.909,-10.5561,0.104508,0.108561,-0.20985,0.471067,0.0362944,-0.0252269,0.406811,0.1101642751448928,0.601702298133441,0.03696108290072564,0.11467290151152665,-0.02491136068636779,-0.1892941572733886
826,0.8166,308.045,295.015,2.55643,301.116,-247.984,-10.5588,0.10462,0.108669,-0.21007,0.471556,0.0363052,-0.0252514,0.407249,0.11028862050691934,0.6024857220887743,0.03697228214089665,0.11479329268589633,-0.024935250065384884,-0.18947249294114576
827,0.8176,308.135,295.1,2.55678,301.203,-248.058,-10.5616,0.104732,0.108777,-0.210289,0.472046,0.036316,-0.0252758,0.407686,0.11041297979640619,0.6032711325024345,0.03698348150202024,0.11491369686321495,-0.024959041355028355,-0.18964997902975556
828,0.8186,308.225,295.185,2.55713,301.289,-248.133,-10.5643,0.104844,0.108886,-0.210509,0.472535,0.0363268,-0.0253002,0.408124,0.11053735301491363,0.6040553238053752,0.03699468098409753,0.11503522907955843,-0.0249828320641714,-0.18982823642533653
829,0.8196,308.315,295.269,2.55747,301.375,-248.207,-10.567,0.104956,0.108994,-0.210728,0.473024,0.0363375,-0.0253247,0.408561,0.11066174016400177,0.6048398986716368,0.03700577688654705,0.11515565938741856,-0.025006719692161283,-0.19000564461465363
830,0.8206,308.405,295.354,2.55782,301.462,-248.281,-10.5697,0.105068,0.109102,-0.210947,0.473513,0.0363483,-0.0253491,0.408998,0.11078614124523045,0.6056248572888274,0.03701697660941594,0.11527610270245447,-0.025030509237967125,-0.19018301395583126
831,0.8216,308.494,295.438,2.55816,301.548,-248.356,-10.5724,0.10518,0.109211,-0.211167,0.474002,0.036359,-0.0253735,0.409435,0.11091055626016089,0.6064101998446472,0.03702807275042974,0.11539767442318749,-0.025054298203315173,-0.1903611540966269
832,0.8226,308.584,295.522,2.5585,301.634,-248.43,-10.5751,0.105292,0.109319,-0.211386,0.474491,0.0363698,-0.0253979,0.409872,0.11103498521035315,0.6071959265268883,0.03703927271409513,0.11551814387725856,-0.025078086588219528,-0.19053844558975275
833,0.8236,308.673,295.607,2.55884,301.72,-248.504,-10.5778,0.105404,0.109427,-0.211605,0.474979,0.0363805,-0.0254223,0.410308,0.11115942809736823,0.6079804295422002,0.03705036909367876,0.11563862634273336,-0.0251018743926944,-0.19071569826029267
834,0.8246,308.763,295.691,2.55917,301.806,-248.578,-10.5805,0.105516,0.109535,-0.211824,0.475467,0.0363912,-0.0254467,0.410745,0.1112838849227673,0.6087653154884114,0.0370614655919943,0.115759121821017,-0.02512566161675389,-0.1908929121167482
835,0.8256,308.852,295.775,2.5595,301.892,-248.652,-10.5832,0.105627,0.109643,-0.212043,0.475955,0.0364019,-0.0254711,0.411181,0.11140724428031135,0.6095505845524376,0.03707256220904287,0.11587963031351523,-0.02514944826041221,-0.19107008716761842
836,0.8266,308.941,295.859,2.55984,301.978,-248.726,-10.5859,0.105739,0.109751,-0.212261,0.476443,0.0364126,-0.0254954,0.411617,0.11153172886267715,0.6103362369212855,0.037083658944826015,0.11600015182163337,-0.025173136841002086,-0.1912464146682199
837,0.8276,309.03,295.943,2.56017,302.063,-248.799,-10.5886,0.105851,0.109859,-0.21248,0.476931,0.0364232,-0.0255198,0.412053,0.11165622738809722,0.611122272782054,0.03709465208987428,0.11612068634677719,-0.025196922326279014,-0.19142351231050792
838,0.8286,309.119,296.027,2.56049,302.149,-248.873,-10.5913,0.105962,0.109967,-0.212699,0.477419,0.0364339,-0.0255441,0.412489,0.11177962807794883,0.6119086923219326,0.037105749062020355,0.1162412338903529,-0.025220609753263123,-0.19160057117265894
839,0.8296,309.208,296.11,2.56082,302.235,-248.947,-10.594,0.106074,0.110075,-0.212917,0.477906,0.0364446,-0.0255685,0.412925,0.11190415436963574,0.6126938830335131,0.03711684615290456,0.11636179445376627,-0.02524439408021517,-0.19177678304035184
840,0.8306,309.297,296.194,2.56114,302.32,-249.02,-10.5967,0.106185,0.110183,-0.213136,0.478393,0.0364552,-0.0255928,0.413361,0.11202758258090983,0.6134794562260968,0.037127839649739425,0.11648236803842371,-0.02526808035364958,-0.19195376454468394
841,0.8316,309.386,296.277,2.56146,302.405,-249.093,-10.5994,0.106297,0.110291,-0.213354,0.47888,0.0364658,-0.0256172,0.413796,0.11215213664505619,0.6142654120859969,0.03713883326310574,0.11660295464573145,-0.025291863522333147,-0.19212989942461367
842,0.8326,309.475,296.361,2.56178,302.491,-249.167,-10.6021,0.106408,0.110399,-0.213573,0.479367,0.0364765,-0.0256415,0.414232,0.11227559238389051,0.6150517507996183,0.03714993070799277,0.11672355427709591,-0.025315548642274144,-0.19230680360492491
843,0.8336,309.563,296.444,2.5621,302.576,-249.24,-10.6048,0.10652,0.110506,-0.213791,0.479854,0.0364871,-0.0256658,0.414667,0.11240017422669046,0.615838472553456,0.037160924555525554,0.1168430500903157,-0.02533923318667375,-0.1924828615307279
844,0.8346,309.652,296.527,2.56241,302.661,-249.313,-10.6075,0.106631,0.110614,-0.214009,0.48034,0.0364977,-0.0256901,0.415102,0.11252365749922455,0.6166239609093267,0.03717191851959378,0.1169636756533885,-0.02536291715554595,-0.19265888108008622
845,0.8356,309.74,296.611,2.56272,302.746,-249.386,-10.6102,0.106743,0.110722,-0.214227,0.480827,0.0365082,-0.0257144,0.415537,0.11264826712687337,0.6174114485159579,0.03718280888191261,0.11708431424472576,-0.025386600548904625,-0.19283486226136504
846,0.8366,309.828,296.694,2.56303,302.831,-249.459,-10.6129,0.106854,0.110829,-0.214445,0.481313,0.0365188,-0.0257387,0.415971,0.11277177793924764,0.6181977015239417,0.03719380307795572,0.11720384866132716,-0.025410283366763986,-0.19301080508292778
847,0.8376,309.917,296.777,2.56334,302.915,-249.532,-10.6156,0.106965,0.110937,-0.214663,0.481799,0.0365294,-0.025763,0.416406,0.11289530246208312,0.6189843367437573,0.03720479739053828,0.11732451319275006,-0.025433965609137688,-0.19318670955313577
848,0.8386,310.005,296.86,2.56365,303.0,-249.605,-10.6183,0.107076,0.111045,-0.214881,0.482285,0.0365399,-0.0257873,0.41684,0.11301884069690149,0.6197713543612051,0.03721568809808695,0.11744519075664606,-0.02545764727603994,-0.19336257568034887
849,0.8396,310.093,296.943,2.56395,303.085,-249.678,-10.6209,0.107188,0.111152,-0.215099,0.482771,0.0365505,-0.0258116,0.417275,0.11314350578817445,0.6205587545621749,0.03722668264265172,0.11756476378910019,-0.025481328367484735,-0.19353840347292484
850,0.8406,310.181,297.025,2.56425,303.169,-249.751,-10.6236,0.107299,0.11126,-0.215317,0.483256,0.036561,-0.0258359,0.417709,0.1132670715750912,0.6213449161869213,0.0372375735799968,0.11768546730146179,-0.025505008883485947,-0.19371419293921965
851,0.8416,310.269,297.108,2.56455,303.254,-249.823,-10.6263,0.10741,0.111367,-0.215534,0.483741,0.0365715,-0.0258601,0.418143,0.1133906510785716,0.6221314591925329,0.03724846463169729,0.11780506604488172,-0.02552859137692165,-0.1938891379771287
852,0.8426,310.356,297.191,2.56485,303.338,-249.896,-10.629,0.107521,0.111475,-0.215752,0.484227,0.036582,-0.0258844,0.418577,0.11351424430013823,0.6229200066832197,0.03725935579775452,0.11792579551128823,-0.02555227074444577,-0.19406485099163528
853,0.8436,310.444,297.273,2.56514,303.422,-249.968,-10.6317,0.107632,0.111582,-0.21597,0.484712,0.0365925,-0.0259086,0.41901,0.11363785124131387,0.6237073137930023,0.037270247078169394,0.11804541997120244,-0.025575852094158247,-0.1942405257048796
854,0.8446,310.532,297.356,2.56544,303.507,-250.041,-10.6344,0.107743,0.111689,-0.216187,0.485196,0.036603,-0.0259329,0.419444,0.11376147190362151,0.6244933783451547,0.037281138472943454,0.11816505723161863,-0.025599530313260788,-0.19441535654096986
855,0.8456,310.619,297.438,2.56573,303.591,-250.113,-10.6371,0.107854,0.111797,-0.216404,0.485681,0.0366135,-0.0259571,0.419877,0.11388510628858417,0.6252814487252714,0.03729202998207781,0.118285825579173,-0.02562311051930566,-0.19459014944288477
856,0.8466,310.707,297.52,2.56602,303.675,-250.185,-10.6397,0.107965,0.111904,-0.216622,0.486165,0.036624,-0.0259813,0.42031,0.11400875439772529,0.6260682753431361,0.03730292160557358,0.1184054885643655,-0.025646690154716323,-0.194765709653548
857,0.8476,310.794,297.603,2.56631,303.759,-250.257,-10.6424,0.108076,0.112011,-0.216839,0.48665,0.0366344,-0.0260056,0.420743,0.11413241623256831,0.6268571097335545,0.03731370961205571,0.11852516435418248,-0.025670366652474907,-0.19494042653708565
858,0.8486,310.881,297.685,2.56659,303.843,-250.33,-10.6451,0.108187,0.112118,-0.217056,0.487134,0.0366449,-0.0260298,0.421176,0.11425609179463692,0.6276446991559308,0.03732460146318872,0.11864485294999416,-0.02569394514430101,-0.19511510551117295
859,0.8496,310.968,297.767,2.56687,303.926,-250.402,-10.6478,0.108298,0.112225,-0.217273,0.487618,0.0366553,-0.026054,0.421609,0.11437978108545477,0.6284326698638514,0.03733538969514272,0.11876455435317057,-0.025717523065534542,-0.1952897465840353
860,0.8506,311.055,297.849,2.56716,304.01,-250.474,-10.6505,0.108408,0.112332,-0.21749,0.488102,0.0366657,-0.0260782,0.422042,0.11450236960361893,0.629221022041903,0.037346178039294964,0.11888426856508261,-0.025741100416189266,-0.19546434976389637
861,0.8516,311.142,297.93,2.56744,304.094,-250.545,-10.6531,0.108519,0.112439,-0.217707,0.488585,0.0366761,-0.0261024,0.422474,0.11462608623279102,0.6300081258658208,0.03735696649564635,0.11900399558710051,-0.025764677196279062,-0.19563891505897812
862,0.8526,311.229,298.012,2.56771,304.177,-250.617,-10.6558,0.10863,0.112546,-0.217924,0.489069,0.0366865,-0.0261265,0.422907,0.11474981659527095,0.6307972407491369,0.03736775506419843,0.11912373542059518,-0.025788155984638017,-0.19581344247750054
863,0.8536,311.316,298.094,2.56799,304.261,-250.689,-10.6585,0.10874,0.112653,-0.218141,0.489552,0.0366969,-0.0261507,0.423339,0.11487244581958,0.6315851060705773,0.037378543744952086,0.11924348806693752,-0.025811731625996814,-0.19598793202768205
864,0.8546,311.403,298.176,2.56826,304.344,-250.761,-10.6612,0.108851,0.11276,-0.218357,0.490035,0.0367073,-0.0261749,0.423771,0.1149962035294918,0.6323733520228827,0.03738933253790866,0.11936325352749844,-0.025835306696831983,-0.19616157987972094
865,0.8556,311.489,298.257,2.56853,304.427,-250.832,-10.6639,0.108962,0.112867,-0.218574,0.490518,0.0367177,-0.026199,0.424203,0.11511997497727178,0.6331619787899425,0.037400121443069256,0.1194830318036495,-0.025858783783040518,-0.19633599389228218
866,0.8566,311.576,298.339,2.5688,304.51,-250.904,-10.6665,0.109072,0.112974,-0.21879,0.491001,0.036728,-0.0262232,0.424635,0.11524264492124248,0.6339509865557347,0.037410806719349265,0.11960282289676161,-0.02588235771522729,-0.19650956657107732
867,0.8576,311.663,298.42,2.56907,304.594,-250.975,-10.6692,0.109183,0.113081,-0.219007,0.491484,0.0367384,-0.0262474,0.425066,0.11536644372553528,0.6347403755043257,0.03742159584784255,0.11972262680820656,-0.025905931076931732,-0.19668390507871925
868,0.8586,311.749,298.501,2.56933,304.677,-251.046,-10.6719,0.109293,0.113188,-0.219223,0.491966,0.0367487,-0.0262715,0.425498,0.11548914078255956,0.6355285102905439,0.03743228134530985,0.11984244353935591,-0.02592940646111319,-0.1968574026168135
869,0.8596,311.835,298.582,2.5696,304.759,-251.118,-10.6746,0.109404,0.113295,-0.21944,0.492448,0.036759,-0.0262956,0.425929,0.11561296694941148,0.6363170250492949,0.03744296695283844,0.11996227309158125,-0.02595288127954487,-0.19703166565222252
870,0.8606,311.921,298.664,2.56986,304.842,-251.189,-10.6772,0.109514,0.113401,-0.219656,0.49293,0.0367693,-0.0263197,0.42636,0.11573569112548188,0.6371059199637696,0.03745365267042944,0.1200809953846993,-0.025976355532240092,-0.19720508808214499
871,0.8616,312.008,298.745,2.57012,304.925,-251.26,-10.6799,0.109625,0.113508,-0.219872,0.493412,0.0367796,-0.0263439,0.426791,0.11585954466094095,0.6378951952172478,0.03746433849808395,0.12020085046333784,-0.0259999266192249,-0.19737847305686784
872,0.8626,312.094,298.826,2.57037,305.008,-251.331,-10.6826,0.109735,0.113615,-0.220088,0.493894,0.0367899,-0.026368,0.427222,0.11598229596205134,0.6386848509930965,0.03747502443580286,0.12032071836715597,-0.026023399738141162,-0.19755182058448062
873,0.8636,312.18,298.907,2.57063,305.09,-251.402,-10.6852,0.109845,0.113721,-0.220304,0.494376,0.0368002,-0.0263921,0.427653,0.1161050607665477,0.6394748874747718,0.03748571048358773,0.12043947865748694,-0.026046872291362155,-0.19772513067307096
874,0.8646,312.265,298.987,2.57088,305.173,-251.473,-10.6879,0.109956,0.113828,-0.22052,0.494857,0.0368105,-0.0264162,0.428083,0.11622895530431232,0.6402636645813335,0.03749639664143922,0.12055937209588796,-0.026070344278901314,-0.19789840333072484
875,0.8656,312.351,299.068,2.57113,305.255,-251.544,-10.6906,0.110066,0.113934,-0.220736,0.495338,0.0368208,-0.0264403,0.428514,0.1163517472428286,0.6410528211809443,0.03750708290935889,0.12067815768485501,-0.026093815700772405,-0.19807163856552645
876,0.8666,312.437,299.149,2.57138,305.338,-251.614,-10.6932,0.110176,0.114041,-0.220952,0.495819,0.036831,-0.0264644,0.428944,0.11647455268920104,0.6418423574561842,0.037517665535575784,0.12079807666327835,-0.026117286556989083,-0.19824483638555845
877,0.8676,312.523,299.229,2.57163,305.42,-251.685,-10.6959,0.110286,0.114147,-0.221167,0.4963,0.0368413,-0.0264884,0.429374,0.11659737164491557,0.6426322735897212,0.037528352022566214,0.12091688755627072,-0.026140659461635685,-0.19841719521649726
878,0.8686,312.608,299.31,2.57188,305.502,-251.756,-10.6986,0.110396,0.114254,-0.221383,0.496781,0.0368515,-0.0265125,0.429804,0.11672020411145834,0.6434225697643108,0.03753893486572912,0.12103683208015692,-0.026164129188931295,-0.19859031840435304
879,0.8696,312.694,299.39,2.57212,305.584,-251.826,-10.7012,0.110506,0.11436,-0.221599,0.497262,0.0368617,-0.0265366,0.430234,0.1168430500903157,0.644213246162797,0.03754951781683791,0.12115566828256474,-0.02618759835061335,-0.19876340420163863
880,0.8706,312.779,299.471,2.57236,305.666,-251.897,-10.7039,0.110616,0.114466,-0.221814,0.497742,0.0368719,-0.0265606,0.430664,0.11696590958297381,0.6450026579646309,0.03756010087589301,0.12127451708227777,-0.026210969567797227,-0.1989356515524816
881,0.8716,312.864,299.551,2.5726,305.748,-251.967,-10.7066,0.110726,0.114573,-0.22203,0.498222,0.0368821,-0.0265847,0.431093,0.11708878259091948,0.6457924487750846,0.037570684042895985,0.12139449987457063,-0.026234437600639704,-0.1991086627658626
882,0.8726,312.949,299.631,2.57284,305.83,-252.037,-10.7092,0.110836,0.114679,-0.222245,0.498702,0.0368923,-0.0266087,0.431523,0.11721166911563952,0.6465826187761254,0.037581267317847944,0.1215133739917742,-0.026257807693695012,-0.1992808358940934
883,0.8736,313.034,299.711,2.57307,305.912,-252.108,-10.7119,0.110946,0.114785,-0.22246,0.499182,0.0369025,-0.0266327,0.431952,0.1173345691586205,0.6473731681498092,0.037591850700749774,0.12163226071030198,-0.026281177225874863,-0.19945297200908074
884,0.8746,313.12,299.791,2.57331,305.993,-252.178,-10.7145,0.111056,0.114891,-0.222675,0.499662,0.0369127,-0.0266568,0.432381,0.11745748272134993,0.648164097078278,0.037602434191602585,0.12175116003149,-0.026304643566733232,-0.19962507111878147
885,0.8756,313.204,299.871,2.57354,306.075,-252.248,-10.7172,0.111166,0.114997,-0.222891,0.500142,0.0369228,-0.0266808,0.43281,0.11758040980531503,0.6489554057437621,0.037612914029111044,0.1218700719566741,-0.02632801197486556,-0.19979793343361774
886,0.8766,313.289,299.951,2.57377,306.157,-252.318,-10.7199,0.111276,0.115103,-0.223106,0.500621,0.036933,-0.0267048,0.433239,0.11770335041200308,0.6497454445823097,0.037623497734810885,0.1219889964871903,-0.026351379822162846,-0.19996995838458465
887,0.8776,313.374,300.031,2.574,306.238,-252.388,-10.7225,0.111386,0.11521,-0.223321,0.5011,0.0369431,-0.0267288,0.433668,0.11782630454290155,0.6505358619401089,0.03763397778506228,0.12210905573286945,-0.02637474710863863,-0.20014194635416271
888,0.8786,313.459,300.111,2.57422,306.319,-252.458,-10.7252,0.111495,0.115316,-0.223535,0.501579,0.0369533,-0.0267528,0.434096,0.1179481542507852,0.6513266579985142,0.03764456170561359,0.12222800559700864,-0.026398113834306125,-0.20031309766379968
889,0.8796,313.543,300.19,2.57445,306.401,-252.527,-10.7278,0.111605,0.115422,-0.22375,0.502058,0.0369634,-0.0267768,0.434525,0.11807113531158708,0.6521178329389665,0.03765504196861191,0.1223469680705016,-0.026421479999178987,-0.20048501186636292
890,0.8806,313.628,300.27,2.57467,306.482,-252.597,-10.7305,0.111715,0.115528,-0.223965,0.502537,0.0369735,-0.0268008,0.434953,0.11819412990104983,0.6529093869429936,0.037665522337461566,0.12246594315468506,-0.02644484560327065,-0.20065688911134572
891,0.8816,313.712,300.349,2.57489,306.563,-252.667,-10.7331,0.111824,0.115633,-0.22418,0.503016,0.0369836,-0.0268247,0.435381,0.11831601970408268,0.6537013201922106,0.037676002812163434,0.12258380826652648,-0.02646811329341081,-0.20082872940669305
892,0.8826,313.797,300.429,2.57511,306.644,-252.736,-10.7358,0.111934,0.115739,-0.224394,0.503494,0.0369937,-0.0268487,0.435809,0.11843904123230997,0.6544919783755139,0.03768648339271885,0.12270280845710135,-0.02649147777831673,-0.20099973376048164
893,0.8836,313.881,300.508,2.57532,306.725,-252.806,-10.7384,0.112044,0.115845,-0.224609,0.503972,0.0370038,-0.0268727,0.436237,0.1185620762936499,0.6552830145837696,0.03769696407912848,0.12282182126236507,-0.02651484170248186,-0.2011715003521528
894,0.8846,313.965,300.587,2.57554,306.806,-252.875,-10.7411,0.112153,0.115951,-0.224823,0.50445,0.0370138,-0.0268966,0.436665,0.1186840062050254,0.6560744289977167,0.037707341100654324,0.12294084668365479,-0.026538107719735193,-0.2013424313608072
895,0.8856,314.049,300.666,2.57575,306.887,-252.945,-10.7437,0.112263,0.116057,-0.225038,0.504928,0.0370239,-0.0269206,0.437092,0.11880706821399434,0.6568662217981811,0.037717821997727885,0.12305988472230789,-0.026561470524795183,-0.20151412428041438
896,0.8866,314.133,300.745,2.57596,306.967,-253.014,-10.7464,0.112372,0.116162,-0.225252,0.505406,0.037034,-0.0269445,0.43752,0.11892902483094447,0.6576583931660742,0.03772830300065899,0.12317781220128787,-0.026584735427632844,-0.20168498197539297
897,0.8876,314.217,300.824,2.57617,307.048,-253.083,-10.749,0.112482,0.116268,-0.225466,0.505884,0.037044,-0.0269685,0.437947,0.11905211379344482,0.6584509432823951,0.03773868033557548,0.12329687535961709,-0.026608097113641316,-0.2018558031107368
898,0.8886,314.301,300.903,2.57638,307.129,-253.153,-10.7517,0.112591,0.116374,-0.22568,0.506361,0.037054,-0.0269924,0.438374,0.11917409712181892,0.6592422130851856,0.03774905777426607,0.12341595113931003,-0.02663136090211693,-0.20202658769426896
899,0.8896,314.385,300.982,2.57658,307.209,-253.222,-10.7543,0.1127,0.116479,-0.225895,0.506838,0.0370641,-0.0270163,0.438801,0.11929609374710037,0.6600338604137048,0.03775953909268015,0.12353391600722685,-0.02665462413459463,-0.20219813353607585
900,0.8906,314.469,301.061,2.57678,307.29,-253.291,-10.757,0.11281,0.116585,-0.226109,0.507315,0.0370741,-0.0270402,0.439228,0.11941922308940223,0.6608258854480755,0.03776991673995922,0.12365301691456021,-0.026677886811087625,-0.20236884486873508
901,0.8916,314.552,301.14,2.57699,307.37,-253.36,-10.7596,0.112919,0.11669,-0.226323,0.507792,0.0370841,-0.0270641,0.439654,0.11954124643487063,0.6616182883685062,0.037780294491015276,0.1237710066756903,-0.026701148931609464,-0.2025395196730777
902,0.8926,314.636,301.218,2.57718,307.45,-253.428,-10.7623,0.113028,0.116796,-0.226536,0.508269,0.0370941,-0.027088,0.440081,0.11966328308160845,0.6624110693552916,0.03779067234584943,0.1238901327159665,-0.026724410496173134,-0.20270936066667944
903,0.8936,314.72,301.297,2.57738,307.53,-253.497,-10.7649,0.113137,0.116901,-0.22675,0.508746,0.0371041,-0.0271119,0.440507,0.11978533303106564,0.6632042285888124,0.03780105030446257,0.12400814737556298,-0.02674767150479218,-0.20287996260843788
904,0.8946,314.803,301.375,2.57758,307.61,-253.566,-10.7675,0.113247,0.117007,-0.226964,0.509222,0.037114,-0.0271358,0.440934,0.11990851619264875,0.6639961022526009,0.03781132458571812,0.12412729855408555,-0.026770931957479704,-0.203050528045287
905,0.8956,314.886,301.454,2.57777,307.69,-253.635,-10.7702,0.113356,0.117112,-0.227178,0.509698,0.037124,-0.0271597,0.44136,0.120030592873972,0.6647883529379777,0.037821702750854724,0.12424533811740246,-0.026794191854249028,-0.203221056985038
906,0.8966,314.969,301.532,2.57796,307.77,-253.703,-10.7728,0.113465,0.117218,-0.227391,0.510174,0.037134,-0.0271836,0.441786,0.12015268286237868,0.6655809808244473,0.03783208101977342,0.12436451443947649,-0.026817451195113473,-0.20339075282665153
907,0.8976,315.053,301.611,2.57815,307.85,-253.772,-10.7755,0.113574,0.117323,-0.227605,0.51065,0.0371439,-0.0272074,0.442211,0.12027478615931964,0.6663739860916003,0.03784235560823479,0.12448257891176895,-0.026840612664152497,-0.2035612089660891
908,0.8986,315.136,301.689,2.57834,307.93,-253.84,-10.7781,0.113683,0.117428,-0.227818,0.511126,0.0371538,-0.0272313,0.442637,0.12039690276624504,0.6671673689191127,0.03785263029841479,0.12460065578148183,-0.02686387089557285,-0.20373083236304623
909,0.8996,315.219,301.767,2.57853,308.01,-253.909,-10.7807,0.113792,0.117533,-0.228032,0.511602,0.0371638,-0.0272551,0.443063,0.12051903268460618,0.667961129486746,0.03786300887661054,0.12471874504991698,-0.026887031259836047,-0.2039012157332497
910,0.9006,315.302,301.845,2.57871,308.089,-253.977,-10.7834,0.113901,0.117639,-0.228245,0.512077,0.0371737,-0.027279,0.443488,0.1206411759158541,0.6687535992199138,0.0378732837712592,0.12483797155578547,-0.026910288381865266,-0.20407076671647784
911,0.9016,315.384,301.923,2.57889,308.169,-254.045,-10.786,0.11401,0.117744,-0.228458,0.512552,0.0371836,-0.0273028,0.443913,0.12076333246143967,0.6695464454656195,0.03788355876762961,0.12495608574368511,-0.026933447641405484,-0.20424028158919239
912,0.9026,315.467,302.001,2.57907,308.248,-254.114,-10.7886,0.114119,0.117849,-0.228671,0.513027,0.0371935,-0.0273266,0.444338,0.12088550232281436,0.670339668402749,0.03789383386572309,0.12507421233422567,-0.026956606349761825,-0.2044097603590841
913,0.9036,315.55,302.079,2.57925,308.328,-254.182,-10.7913,0.114227,0.117954,-0.228884,0.513502,0.0372034,-0.0273505,0.444763,0.1210065644943048,0.6711332682102731,0.03790410906554054,0.12519235132870943,-0.026979861808966277,-0.20457920303384214
914,0.9046,315.633,302.156,2.57943,308.407,-254.25,-10.7939,0.114336,0.118059,-0.229097,0.513977,0.0372133,-0.0273743,0.445188,0.12112876086941626,0.6719272450672482,0.03791438436708283,0.1253105027284389,-0.027003019412678686,-0.20474860962115393
915,0.9056,315.715,302.234,2.57961,308.486,-254.318,-10.7965,0.114445,0.118164,-0.22931,0.514452,0.0372231,-0.0273981,0.445613,0.1212509705646585,0.6727215991528148,0.03792455597789046,0.12542866653471663,-0.027026176465246632,-0.2049179801287052
916,0.9066,315.798,302.312,2.57978,308.565,-254.386,-10.7992,0.114554,0.118269,-0.229523,0.514926,0.037233,-0.0274219,0.446037,0.12137319358148346,0.6735146571307056,0.03793483148185839,0.12554684274884553,-0.027049332966683215,-0.20508731456418017
917,0.9076,315.88,302.389,2.57995,308.645,-254.454,-10.8018,0.114663,0.118374,-0.229736,0.515401,0.0372428,-0.0274457,0.446462,0.12149542992134332,0.6743097654161108,0.03794500329304862,0.12566503137212814,-0.027072488917001758,-0.20525661293526143
918,0.9086,315.962,302.467,2.58012,308.724,-254.521,-10.8044,0.114771,0.118479,-0.229949,0.515875,0.0372527,-0.0274695,0.446886,0.12161655796857151,0.67510357636325,0.03795527899944595,0.12578323240586786,-0.02709564431621514,-0.20542587524962974
919,0.9096,316.044,302.544,2.58029,308.802,-254.589,-10.8071,0.11488,0.118584,-0.230161,0.516349,0.0372625,-0.0274933,0.44731,0.12173882083659548,0.6758977636659673,0.037965451011023,0.12590144585136787,-0.027118799164336682,-0.20559430710966886
920,0.9106,316.127,302.621,2.58045,308.881,-254.657,-10.8097,0.114988,0.118689,-0.230374,0.516822,0.0372723,-0.027517,0.447734,0.12185997517146197,0.6766906508112085,0.037975623122286084,0.1260196717099311,-0.027141856175569856,-0.20576349750283796
921,0.9116,316.209,302.698,2.58062,308.96,-254.724,-10.8123,0.115097,0.118793,-0.230586,0.517296,0.0372822,-0.0275408,0.448158,0.121982264573407,0.6774855905655313,0.037985899131821155,0.12613678384551452,-0.02716500992386217,-0.20593185779454592
922,0.9126,316.291,302.776,2.58078,309.039,-254.792,-10.8149,0.115205,0.118898,-0.230799,0.51777,0.037292,-0.0275646,0.448582,0.1221034452016172,0.6782809072106133,0.03799607144347683,0.1262550344158646,-0.027188163121101838,-0.2061009762970758
923,0.9136,316.372,302.853,2.58094,309.117,-254.859,-10.8176,0.115314,0.119003,-0.231011,0.518243,0.0373018,-0.0275883,0.449005,0.1222257611432418,0.6790749218493826,0.038006243854821875,0.12637329740317638,-0.027211218488428668,-0.20626926505086252
924,0.9146,316.454,302.93,2.5811,309.196,-254.927,-10.8202,0.115422,0.119107,-0.231223,0.518716,0.0373116,-0.0276121,0.449429,0.1223469680705016,0.6798693121459116,0.03801641636585673,0.1264904463177443,-0.0272343705859176,-0.20643751813121514
925,0.9156,316.536,303.007,2.58126,309.275,-254.994,-10.8228,0.115531,0.119212,-0.231436,0.519189,0.0373213,-0.0276358,0.449852,0.1224693105575656,0.6806640782779292,0.03802648517392915,0.1266087340246036,-0.027257424858140533,-0.2066065289395631
926,0.9166,316.618,303.083,2.58141,309.353,-255.061,-10.8254,0.115639,0.119317,-0.231648,0.519662,0.0373311,-0.0276595,0.450275,0.12259054378958267,0.6814592204232472,0.038036657883329994,0.12672703415232434,-0.027280478583983636,-0.2067747105275497
927,0.9176,316.699,303.16,2.58156,309.431,-255.128,-10.828,0.115748,0.119421,-0.23186,0.520134,0.0373409,-0.0276833,0.450698,0.12271291282784702,0.6822530565058647,0.03804683069242398,0.1268442198574271,-0.027303629033101906,-0.2069428564648187
928,0.9186,316.781,303.237,2.58172,309.509,-255.196,-10.8307,0.115856,0.119526,-0.232072,0.520607,0.0373506,-0.027707,0.451121,0.1228341723703299,0.6830489504156632,0.03805689979551685,0.12696254471245827,-0.02732668166391905,-0.20711096675892737
929,0.9196,316.862,303.314,2.58187,309.588,-255.263,-10.8333,0.115964,0.11963,-0.232284,0.521079,0.0373604,-0.0277307,0.451543,0.12295544500955047,0.6838435370279479,0.03806707280298238,0.12707975491193313,-0.027349733748395333,-0.20727904141743114
930,0.9206,316.944,303.39,2.58201,309.666,-255.33,-10.8359,0.116072,0.119735,-0.232496,0.521551,0.0373701,-0.0277544,0.451966,0.12307673074692338,0.6846384987736385,0.03807714210242463,0.12719810449944347,-0.027372785286543744,-0.20744708044788407
931,0.9216,317.025,303.467,2.58216,309.744,-255.397,-10.8385,0.116181,0.119839,-0.232707,0.522023,0.0373798,-0.0277781,0.452388,0.12319915278245475,0.6854338358298391,0.03808721149953964,0.1273153391984101,-0.02739583627837705,-0.20761429147252608
932,0.9226,317.106,303.543,2.5823,309.822,-255.463,-10.8411,0.116289,0.119944,-0.232919,0.522495,0.0373895,-0.0278018,0.452811,0.12332046484168835,0.6862295483737386,0.038097280994328075,0.12743371352356925,-0.027418886723908464,-0.2077822594375005
933,0.9236,317.187,303.62,2.58245,309.9,-255.53,-10.8437,0.116397,0.120048,-0.233131,0.522967,0.0373992,-0.0278255,0.453233,0.12344179000333222,0.6870256365826084,0.038107350586791267,0.12755097272714866,-0.027441936623150642,-0.20795019179704077
934,0.9246,317.268,303.696,2.58259,309.977,-255.597,-10.8463,0.116505,0.120152,-0.233342,0.523438,0.0374089,-0.0278492,0.453655,0.12356312826880078,0.6878204128125482,0.03811742027692988,0.12766824412631927,-0.027464985976116796,-0.2081172966763868
935,0.9256,317.349,303.772,2.58273,310.055,-255.664,-10.849,0.116613,0.120256,-0.233554,0.52391,0.0374186,-0.0278728,0.454077,0.12368447963951001,0.6886172520866709,0.03812749006474481,0.12778552772234963,-0.02748793753161838,-0.2082851580155608
936,0.9266,317.43,303.848,2.58286,310.133,-255.73,-10.8516,0.116721,0.120361,-0.233765,0.524381,0.0374283,-0.0278965,0.454498,0.12380584411687479,0.6894127781440835,0.038137559950237376,0.12790395141989586,-0.02751098579437583,-0.20845219222449074
937,0.9276,317.511,303.924,2.583,310.21,-255.797,-10.8542,0.116829,0.120465,-0.233977,0.524852,0.037438,-0.0279202,0.45492,0.12392722170231107,0.6902086789825232,0.038147629933408256,0.1280212595307597,-0.027534033510896005,-0.2086199825733337
938,0.9286,317.592,304.0,2.58313,310.288,-255.863,-10.8568,0.116937,0.120569,-0.234188,0.525323,0.0374476,-0.0279438,0.455341,0.12404861239723441,0.6910049547785535,0.03815759619849346,0.12813857984230115,-0.027556983436894944,-0.20878694614173487
939,0.9296,317.672,304.076,2.58326,310.365,-255.93,-10.8594,0.117045,0.120673,-0.234399,0.525794,0.0374573,-0.0279674,0.455763,0.124170016203061,0.6918016057088208,0.03816766637601687,0.12825591235578981,-0.027579932821282016,-0.2089538744845395
940,0.9306,317.753,304.152,2.58339,310.443,-255.996,-10.862,0.117153,0.120777,-0.23461,0.526264,0.0374669,-0.0279911,0.456184,0.12429143312120638,0.6925969393522693,0.0381776328334531,0.12837325707249425,-0.027602978903777053,-0.20912076760917941
941,0.9316,317.834,304.228,2.58352,310.52,-256.062,-10.8646,0.117261,0.120881,-0.234821,0.526735,0.0374766,-0.0280147,0.456605,0.1244128631530872,0.6933943402838822,0.038187703205332824,0.1284906139936839,-0.027625927202683864,-0.20928762552308489
942,0.9326,317.914,304.304,2.58365,310.597,-256.128,-10.8672,0.117368,0.120985,-0.235032,0.527205,0.0374862,-0.0280383,0.457026,0.12453318176637551,0.6941904226885263,0.038197669855123406,0.12860798312062816,-0.027648874960017333,-0.20945444823368464
943,0.9336,317.994,304.379,2.58377,310.674,-256.195,-10.8698,0.117476,0.121089,-0.235243,0.527675,0.0374958,-0.028062,0.457446,0.12465463790852005,0.6949868793398415,0.03820763660059434,0.12872536445459626,-0.02767191940860292,-0.20962123574840574
944,0.9346,318.075,304.455,2.5839,310.751,-256.261,-10.8724,0.117584,0.121193,-0.235454,0.528145,0.0375054,-0.0280856,0.457867,0.12477610716863596,0.6957837104137652,0.03821760344174652,0.12884275799685785,-0.027694866080533176,-0.2097879880746737
945,0.9356,318.155,304.53,2.58402,310.828,-256.327,-10.875,0.117692,0.121297,-0.235665,0.528615,0.037515,-0.0281092,0.458287,0.12489758954814079,0.6965809160863174,0.03822757037858082,0.1289601637486828,-0.027717812210928283,-0.20995470521991255
946,0.9366,318.235,304.606,2.58414,310.905,-256.393,-10.8776,0.117799,0.121401,-0.235875,0.529084,0.0375246,-0.0281328,0.458708,0.12501796002992838,0.6973767991559532,0.038237537411098144,0.12907758171134098,-0.027740757799801008,-0.21012059731253707
947,0.9376,318.315,304.681,2.58426,310.982,-256.458,-10.8802,0.117907,0.121505,-0.236086,0.529554,0.0375342,-0.0281564,0.459128,0.12513946853095237,0.6981747537561984,0.03824750453929937,0.12919501188610205,-0.02776370284716434,-0.2102872442846303
948,0.9386,318.395,304.756,2.58437,311.059,-256.524,-10.8828,0.118015,0.121609,-0.236297,0.530023,0.0375438,-0.0281799,0.459548,0.12526099015560344,0.6989713845110199,0.03825747176318561,0.12931245427423654,-0.027786550131690735,-0.21045385609792178
949,0.9396,318.475,304.832,2.58449,311.136,-256.59,-10.8854,0.118122,0.121712,-0.236507,0.530492,0.0375533,-0.0282035,0.459968,0.12538139952333638,0.6997683889732929,0.038267335256018775,0.1294287794476705,-0.02780949409836775,-0.21061964337986727
950,0.9406,318.555,304.907,2.5846,311.212,-256.656,-10.888,0.11823,0.121816,-0.236718,0.530961,0.0375629,-0.0282271,0.460387,0.12550294727794542,0.7005657673183272,0.03827730267028073,0.12954624614889565,-0.02783243752357356,-0.21078618506434854
951,0.9416,318.635,304.982,2.58471,311.289,-256.721,-10.8906,0.118337,0.12192,-0.236928,0.53143,0.0375724,-0.0282507,0.460807,0.12562338253647565,0.7013635197215151,0.03828716635150853,0.12966372506729296,-0.02785538040732094,-0.21095190256453855
952,0.9426,318.715,305.057,2.58482,311.365,-256.787,-10.8932,0.118445,0.122024,-0.237138,0.531898,0.037582,-0.0282742,0.461227,0.1257449564266615,0.7021599441975359,0.038297133956149976,0.1297812162041332,-0.027878225537450008,-0.2111175852677073
953,0.9436,318.794,305.132,2.58493,311.442,-256.852,-10.8958,0.118552,0.122127,-0.237348,0.532367,0.0375915,-0.0282978,0.461646,0.1258654175815559,0.7029584444450361,0.038306997825775735,0.1298975896625325,-0.027901167340612987,-0.21128323318116138
954,0.9446,318.874,305.207,2.58503,311.518,-256.918,-10.8984,0.118659,0.122231,-0.237559,0.532835,0.037601,-0.0283213,0.462065,0.12598589162648377,0.7037556155205178,0.03831686178910898,0.13001510512255532,-0.02792401139476186,-0.2114496348629653
955,0.9456,318.953,305.282,2.58514,311.595,-256.983,-10.901,0.118767,0.122334,-0.237769,0.533303,0.0376105,-0.0283448,0.462484,0.1261075046697655,0.7045531597593766,0.038326725846150156,0.13013150267275386,-0.02794685491208171,-0.21161521305332565
956,0.9466,319.033,305.356,2.58524,311.671,-257.049,-10.9036,0.118874,0.122438,-0.237979,0.533771,0.03762,-0.0283684,0.462903,0.12622800461939754,0.7053510773362934,0.03833658999690037,0.130249042460995,-0.027969795095610483,-0.21178075647591665
957,0.9476,319.112,305.431,2.58534,311.747,-257.114,-10.9062,0.118981,0.122541,-0.238189,0.534239,0.0376295,-0.0283919,0.463322,0.12634851746321396,0.7061493684260316,0.038346454241360295,0.13036546410798033,-0.027992637537026077,-0.21194626513803905
958,0.9486,319.191,305.506,2.58544,311.823,-257.179,-10.9087,0.119089,0.122645,-0.238398,0.534707,0.037639,-0.0284154,0.46374,0.12647016967220104,0.7069480332034357,0.03835631857953126,0.13048302822947577,-0.028015479441650504,-0.21211095115833656
959,0.9496,319.271,305.58,2.58554,311.899,-257.244,-10.9113,0.119196,0.122748,-0.238608,0.535174,0.0376485,-0.0284389,0.464159,0.1265907084290645,0.7077453640972144,0.0383661830114137,0.13059947397823657,-0.02803832080949653,-0.21227639048685576
960,0.9506,319.35,305.655,2.58563,311.975,-257.309,-10.9139,0.119303,0.122851,-0.238818,0.535642,0.037658,-0.0284624,0.464577,0.1267112600842648,0.7085447759754004,0.03837604753700874,0.13071593172152718,-0.028061161640576593,-0.21244179507676375
961,0.9516,319.429,305.729,2.58573,312.051,-257.374,-10.9165,0.11941,0.122955,-0.239028,0.536109,0.0376674,-0.0284859,0.464996,0.12683182463918263,0.709342852722197,0.038385808317731085,0.13083353229354988,-0.02808400193490357,-0.2126071649353547
962,0.9526,319.508,305.803,2.58582,312.126,-257.439,-10.9191,0.119517,0.123058,-0.239237,0.536576,0.0376769,-0.0285094,0.465414,0.12695240209519776,0.710141302257874,0.03839567302976743,0.13095001414608864,-0.028106841692489892,-0.212771712842028
963,0.9536,319.587,305.878,2.58591,312.202,-257.504,-10.9217,0.119624,0.123161,-0.239447,0.537043,0.0376863,-0.0285329,0.465832,0.12707299245369108,0.7109401247565641,0.03840543399497043,0.13106650799687602,-0.02812968091334822,-0.21293701342516247
964,0.9546,319.665,305.952,2.586,312.278,-257.569,-10.9243,0.119731,0.123265,-0.239656,0.537509,0.0376958,-0.0285564,0.466249,0.12719359571604305,0.711737608654017,0.03841529889345163,0.1311841450307274,-0.02815251959749121,-0.21310149240070497
965,0.9556,319.744,306.026,2.58608,312.353,-257.634,-10.9268,0.119838,0.123368,-0.239866,0.537976,0.0377052,-0.0285798,0.466667,0.12731421188363456,0.7125371768018895,0.03842506004313839,0.13130066299823784,-0.028175260562462223,-0.2132667237374033
966,0.9566,319.823,306.1,2.58617,312.429,-257.698,-10.9294,0.119945,0.123471,-0.240075,0.538442,0.0377146,-0.0286033,0.467085,0.12743484095784652,0.7133354050990275,0.038434821284580645,0.13141719296771703,-0.02819809817549601,-0.213431133810691
967,0.9576,319.902,306.174,2.58625,312.504,-257.763,-10.932,0.120052,0.123574,-0.240284,0.538909,0.037724,-0.0286268,0.467502,0.12755548294006003,0.7141357195920979,0.03844458261777883,0.13153373494040133,-0.02822093525185221,-0.21359550952586404
968,0.9586,319.98,306.248,2.58633,312.58,-257.828,-10.9346,0.120159,0.123677,-0.240493,0.539375,0.0377334,-0.0286502,0.467919,0.1276761378316562,0.7149346929837697,0.03845434404273407,0.13165028891752706,-0.028243674615915704,-0.2137598508901023
969,0.9596,320.059,306.322,2.58641,312.655,-257.892,-10.9371,0.120266,0.12378,-0.240702,0.539841,0.0377428,-0.0286737,0.468336,0.1277968056340164,0.7157340387838063,0.03846410555944724,0.13176685490033058,-0.028266510621238194,-0.2139241579105846
970,0.9606,320.137,306.396,2.58649,312.73,-257.957,-10.9397,0.120373,0.123883,-0.240911,0.540306,0.0377522,-0.0286971,0.468753,0.1279174863485224,0.7165320406328914,0.03847386716791901,0.13188343289004867,-0.02828924891885054,-0.2140884305944878
971,0.9616,320.215,306.47,2.58657,312.805,-258.021,-10.9423,0.12048,0.123986,-0.24112,0.540772,0.0377616,-0.0287205,0.46917,0.12803817997655553,0.7173321309703966,0.038483628868150266,0.13200002288791812,-0.028311986684392942,-0.21425266894898765
972,0.9626,320.294,306.543,2.58665,312.88,-258.085,-10.9449,0.120586,0.124089,-0.241329,0.541237,0.037771,-0.0287439,0.469587,0.1281577583611755,0.718130876105149,0.0384933906601419,0.13211662489517595,-0.028334723917877835,-0.21441687298125822
973,0.9636,320.372,306.617,2.58672,312.955,-258.15,-10.9474,0.120693,0.124192,-0.241538,0.541703,0.0377803,-0.0287674,0.470003,0.1282784776996897,0.7189317116736096,0.038503048693584896,0.13223323891305894,-0.028357557783566745,-0.2145810426984721
974,0.9646,320.45,306.69,2.58679,313.03,-258.214,-10.95,0.1208,0.124295,-0.241747,0.542168,0.0377897,-0.0287908,0.47042,0.12839920995586396,0.7197312007863506,0.03851281066812384,0.13234986494280454,-0.028380293950700408,-0.21474517810780036
975,0.9656,320.528,306.764,2.58686,313.105,-258.278,-10.9526,0.120906,0.124398,-0.241955,0.542633,0.037799,-0.0288142,0.470836,0.12851882661169012,0.7205310617479774,0.0385224688821737,0.13246650298564955,-0.028403029585813977,-0.21490849412529933
976,0.9666,320.606,306.837,2.58693,313.18,-258.342,-10.9551,0.121013,0.1245,-0.242164,0.543098,0.0378084,-0.0288376,0.471252,0.12863958458657399,0.7213312947314394,0.03853223103926329,0.13258202046024525,-0.028425764688919997,-0.21507256110443063
977,0.9676,320.684,306.911,2.587,313.255,-258.406,-10.9577,0.12112,0.124603,-0.242373,0.543562,0.0378177,-0.028861,0.471668,0.12876035548325238,0.7221301777787288,0.03854188943392334,0.1326986824163403,-0.02844849926003079,-0.21523659379714633
978,0.9686,320.762,306.984,2.58706,313.329,-258.47,-10.9603,0.121226,0.124706,-0.242581,0.544027,0.037827,-0.0288843,0.472084,0.1288800104225334,0.7229311545240567,0.03855154791840687,0.13281535638923558,-0.028471136146277276,-0.21539980761081146
979,0.9696,320.84,307.057,2.58713,313.404,-258.534,-10.9628,0.121333,0.124809,-0.242789,0.544491,0.0378363,-0.0289077,0.4725,0.1290008070461528,0.723730780078538,0.038561206492714994,0.13293204238016898,-0.028493869655708326,-0.21556298747953373
980,0.9706,320.917,307.13,2.58719,313.479,-258.598,-10.9654,0.121439,0.124911,-0.242998,0.544955,0.0378456,-0.0289311,0.472916,0.12912048747465033,0.7245307767453681,0.03857086515684793,0.13304760734220467,-0.028516602633181454,-0.21572691768384744
981,0.9716,320.995,307.203,2.58725,313.553,-258.662,-10.968,0.121546,0.125014,-0.243206,0.54542,0.0378549,-0.0289545,0.473331,0.12924130983069082,0.7253328700287907,0.03858052391080702,0.13316431725621825,-0.028539335078709205,-0.2158900295207501
982,0.9726,321.073,307.276,2.58731,313.628,-258.725,-10.9705,0.121652,0.125116,-0.243414,0.545883,0.0378642,-0.0289778,0.473746,0.12936101575383474,0.726131884105099,0.03859018275459292,0.13327990591149974,-0.028561969848505786,-0.21605310743391892
983,0.9736,321.15,307.349,2.58736,313.702,-258.789,-10.9731,0.121758,0.125219,-0.243622,0.546347,0.0378735,-0.0290012,0.474162,0.129480734366479,0.7269329951427115,0.038599841688206515,0.13339663975349825,-0.028584701232453158,-0.21621615143040918
984,0.9746,321.227,307.422,2.58742,313.776,-258.853,-10.9757,0.121865,0.125322,-0.24383,0.546811,0.0378828,-0.0290245,0.474577,0.12960159527099924,0.7277344779820967,0.0386095007116487,0.13351338561970172,-0.0286073349452306,-0.21637916151727488
985,0.9756,321.305,307.495,2.58747,313.85,-258.916,-10.9782,0.121971,0.125424,-0.244038,0.547274,0.0378921,-0.0290478,0.474992,0.12972133938642405,0.7285346042603424,0.038619159824920146,0.13362900988177207,-0.028629968130648775,-0.2165421377015686
986,0.9766,321.382,307.568,2.58752,313.924,-258.98,-10.9808,0.122077,0.125526,-0.244246,0.547737,0.0379013,-0.0290712,0.475406,0.12984109619539774,0.7293351010828291,0.03862871516514499,0.13374464593811863,-0.02865269792345493,-0.21670507999034117
987,0.9776,321.459,307.64,2.58758,313.998,-259.043,-10.9833,0.122184,0.125629,-0.244454,0.5482,0.0379106,-0.0290945,0.475821,0.12996199566069677,0.7301359686211588,0.03863837445711171,0.13386142765080522,-0.028675330051927905,-0.21686798839064214
988,0.9786,321.536,307.713,2.58762,314.072,-259.107,-10.9859,0.12229,0.125731,-0.244662,0.548663,0.0379198,-0.0291178,0.476236,0.13008177798058762,0.7309372070470126,0.03864792997411204,0.13397708741497327,-0.028697961653078585,-0.21703086290951967
989,0.9796,321.614,307.786,2.58767,314.146,-259.17,-10.9884,0.122396,0.125834,-0.24487,0.549126,0.037929,-0.0291411,0.47665,0.13020157299807722,0.7317388165321512,0.038657485579023376,0.134093893070365,-0.02872059272691907,-0.21719370355402046
990,0.9806,321.691,307.858,2.58772,314.22,-259.233,-10.991,0.122502,0.125936,-0.245077,0.549589,0.0379383,-0.0291644,0.477064,0.13032138071451183,0.7325407972484146,0.03866714513855629,0.1342095765472151,-0.02874322327346157,-0.21735572768730838
991,0.9816,321.767,307.93,2.58776,314.294,-259.296,-10.9935,0.122608,0.126038,-0.245285,0.550051,0.0379475,-0.0291877,0.477478,0.13044120113123747,0.7333414160254403,0.038676700920248,0.13432527182438192,-0.028765853292718524,-0.21751850076696233
992,0.9826,321.844,308.003,2.5878,314.368,-259.359,-10.9961,0.122714,0.12614,-0.245492,0.550514,0.0379567,-0.029211,0.477892,0.13056103424960042,0.7341441389170695,0.03868625678985338,0.13444097890306872,-0.028788482784702252,-0.2176804576741853
993,0.9836,321.921,308.075,2.58784,314.441,-259.423,-10.9987,0.12282,0.126243,-0.2457,0.550976,0.0379659,-0.0292343,0.478306,0.13068088007094714,0.7349454986090844,0.038695812747373326,0.13455783234174445,-0.028811111749424856,-0.21784316321702601
994,0.9846,321.998,308.147,2.58788,314.515,-259.486,-11.0012,0.122926,0.126345,-0.245907,0.551438,0.0379751,-0.0292576,0.47872,0.13080073859662433,0.7357472286148128,0.03870536879280828,0.13467356314281376,-0.02883374018689877,-0.2180050529260772
995,0.9856,322.075,308.22,2.58792,314.589,-259.548,-11.0037,0.123032,0.126447,-0.246114,0.5519,0.0379843,-0.0292808,0.479133,0.1309206098279787,0.7365493291053791,0.038714924926159355,0.13478930574902703,-0.028856270982768217,-0.21816690912742664
996,0.9866,322.151,308.292,2.58796,314.662,-259.611,-11.0063,0.123138,0.126549,-0.246322,0.552361,0.0379935,-0.0293041,0.479547,0.13104049376635696,0.7373500629010556,0.038724481147427214,0.134905060161588,-0.028878898368044248,-0.2183295134988873
997,0.9876,322.228,308.364,2.58799,314.735,-259.674,-11.0088,0.123244,0.126651,-0.246529,0.552823,0.0380026,-0.0293274,0.47996,0.13116039041310623,0.7381529040721462,0.0387339335832142,0.13502082638170143,-0.028901525226108338,-0.2184913025438492
998,0.9886,322.304,308.436,2.58802,314.809,-259.737,-11.0114,0.12335,0.126753,-0.246736,0.553284,0.0380118,-0.0293506,0.480373,0.13128029976957345,0.7389543772863052,0.03874348997936239,0.1351366044105713,-0.028924054449383174,-0.2186530581019448
999,0.9896,322.381,308.508,2.58805,314.882,-259.8,-11.0139,0.123456,0.126855,-0.246943,0.553746,0.0380209,-0.0293739,0.480786,0.13140022183710642,0.7397579598218837,0.03875294258813056,0.1352523942494026,-0.028946680255322765,-0.21881478018010503
