,Time,S11,S22,S33,S12,S13,S23,LE11,LE22,LE33,LE12,LE13,LE23,SDV_EPBAR,E11,E12,E13,E22,E23,E33
0,1e-05,0.188036,0.564109,-1.66533e-16,0.325688,-2.6526e-18,1.53148e-18,2.50015e-07,6.74997e-06,-3.00001e-06,1.12583e-05,-3.66778e-22,2.11759e-22,0.0,2.500150313444749e-07,1.1258363374899716e-05,0.0,6.749992781163172e-06,0.0,-3.0000055000201087e-06
1,2e-05,0.376071,1.12821,2.22045e-16,0.651374,6.83665e-18,-4.10393e-19,5.00016e-07,1.34999e-05,-5.99997e-06,2.25164e-05,-2.60901e-22,3.95147e-22,0.0,5.000161249490986e-07,2.2516653495952e-05,0.0,1.3499991124099608e-05,0.0,-5.999952000235176e-06
2,3.5e-05,0.658119,1.97436,-1.11022e-16,1.1399,-3.77377e-18,5.71547e-18,8.74997e-07,2.36246e-05,-1.04998e-05,3.94035e-05,-5.21807e-22,7.903e-22,0.0,8.749973827715252e-07,3.940427632809218e-05,0.0,2.3624879063044446e-05,0.0,-1.0499744877323636e-05
3,5.75e-05,1.08118,3.24355,-1.66533e-15,1.87266,1.82675e-17,7.1366e-18,1.43746e-06,3.88114e-05,-1.72495e-05,6.47335e-05,4.23504e-22,7.3353e-22,0.0,1.4374610330936122e-06,6.473559525832506e-05,0.0,3.8812153172029795e-05,0.0,-1.7249351228265652e-05
4,9.125e-05,1.71576,5.14728,-1.0103e-14,2.97179,-2.95361e-18,1.93878e-17,2.2812e-06,6.1591e-05,-2.73738e-05,0.000102728,5.67199e-21,-3.40504e-22,0.0,2.2812026019281006e-06,0.00010273327670162757,0.0,6.159289676466173e-05,0.0,-2.737342534098186e-05
5,0.00014188,2.66759,8.00277,-5.60663e-14,4.6204,7.65628e-18,1.32611e-17,3.54667e-06,9.57588e-05,-4.25595e-05,0.000159716,-2.93439e-21,1.69406e-21,0.0,3.546676289545303e-06,0.00015972875527947572,0.0,9.576338502026438e-05,0.0,-4.255859435731146e-05
6,0.00021781,4.09524,12.2857,-2.88325e-13,7.09316,5.33775e-17,4.34453e-17,5.44479e-06,0.000147007,-6.53367e-05,0.000245194,9.25684e-21,2.4799e-21,0.0,5.444804822785088e-06,0.00024522406250571116,0.0,0.00014701780605852477,0.0,-6.533456560431361e-05
7,0.00033172,6.23651,18.7095,-1.46072e-12,10.802,-5.60104e-17,5.00091e-17,8.29165e-06,0.000223873,-9.94992e-05,0.000373398,3.38836e-21,5.8688e-21,0.0,8.29168437577188e-06,0.00037346772171087395,0.0,0.00022389806143019442,0.0,-9.949425011879232e-05
8,0.00050258,9.44797,28.3439,-7.40352e-12,16.3644,7.13126e-17,-2.35048e-17,1.25613e-05,0.000339155,-0.000150736,0.000565677,1.01658e-20,1.76076e-20,0.0,1.256137889349418e-05,0.0005658370254069123,0.0,0.0003392125195595952,0.0,-0.00015072463989995732
9,0.00075887,14.2641,42.7924,-3.74462e-11,24.7062,9.22026e-18,-3.27081e-16,1.89646e-05,0.000512041,-0.000227574,0.000854034,2.34838e-20,-1.35474e-20,0.0,1.896477982921141e-05,0.00085439879087712,0.0,0.0005121721153706904,0.0,-0.0002275481070015406
10,0.0011433,21.486,64.4581,-1.89376e-10,37.2149,-2.09459e-16,-3.13787e-16,2.85663e-05,0.000771287,-0.000342794,0.00128643,-6.76891e-21,-1.17241e-20,0.0,2.8566708020649756e-05,0.0012872578060059148,0.0,0.0007715845183038361,0.0,-0.00034273525284966855
11,0.00172,32.3137,96.9411,-9.57345e-10,55.969,4.95863e-16,-2.68308e-16,4.2962e-05,0.00115997,-0.000515542,0.00193471,3.34115e-20,-5.06058e-20,0.0,4.2962922879974386e-05,0.001936582758945704,0.0,0.0011606430254049727,0.0,-0.0005154091310572984
12,0.0025849,48.5435,145.631,-4.83557e-09,84.0799,-1.16226e-15,-1.57202e-15,6.45399e-05,0.00174257,-0.000774478,0.00290644,3.98283e-20,-1.48024e-19,0.0,6.454198274408185e-05,0.002910667791685473,0.0,0.0017440891573869965,0.0,-0.0007741781693227923
13,0.0035849,67.2894,201.868,-1.06427e-08,116.549,6.40702e-16,-8.01557e-16,8.94632e-05,0.0024155,-0.00107356,0.00402881,1.60887e-19,-1.55482e-19,0.0,8.946720195135427e-05,0.0040369365648049715,0.0,0.002418419670473071,0.0,-0.001072983940626382
14,0.0045849,70.8774,213.592,0.0466217,122.972,-0.0143477,-0.0370314,5.77846e-05,0.00306265,-0.00160738,0.00522621,-6.24275e-07,-1.26822e-06,0.000681774,5.778626956209898e-05,0.005239890457413576,-6.242748051832336e-07,0.003067344704032804,-1.2682191957713584e-06,-0.0016060888566464815
15,0.0055849,71.4603,215.584,-0.126769,124.289,-0.0660498,-0.070195,2.08983e-05,0.00369706,-0.00219219,0.00644639,-2.83228e-06,-2.4817e-06,0.00150354,2.0898518370948693e-05,0.0064672126917000305,-2.8322759890730964e-06,0.0037039025561700356,-2.481696920630938e-06,-0.0021897889063735576
16,0.0065849,72.3404,218.142,0.122033,125.454,-0.00771274,-0.0510885,-1.64517e-05,0.00433524,-0.00277346,0.00765802,-9.5832e-07,-1.80634e-06,0.00232342,-1.645156467156017e-05,0.0076874176297916375,-9.583195408335854e-07,0.004344650747297063,-1.806338368548488e-06,-0.0027696175129631184
17,0.0075849,72.8369,219.913,-0.113552,126.722,-0.0780365,-0.0884801,-5.37475e-05,0.00496783,-0.00335799,0.00887704,-3.85178e-06,-3.26478e-06,0.00314564,-5.374605562902257e-05,0.008916557766625921,-3.8517725818865145e-06,0.004980190126647743,-3.2647746706082614e-06,-0.003352358257122323
18,0.0085849,73.6893,222.368,0.138213,127.817,-0.0144341,-0.0705587,-9.14275e-05,0.00560495,-0.00393855,0.0100862,-1.81811e-06,-2.73307e-06,0.00396552,-9.142332063349912e-05,0.010137237161237156,-1.8181083472068593e-06,0.005620687120437395,-2.733066265192541e-06,-0.003930804084510742
19,0.0095849,74.132,223.992,-0.119388,129.031,-0.0920954,-0.108918,-0.000129084,0.00623607,-0.00452243,0.0113034,-5.01609e-06,-4.32774e-06,0.0047878,-0.00012907566901898537,0.011367524807474272,-5.016077419428555e-06,0.00625555476625439,-4.327730635300675e-06,-0.004512219211771806
20,0.010585,74.9647,226.369,0.146951,130.062,-0.0226387,-0.0894124,-0.000167089,0.00687218,-0.00510209,0.0125099,-2.80919e-06,-3.83574e-06,0.00560745,-0.00016707504141044716,0.01258847611692615,-2.809186054220092e-06,0.006895847613947792,-3.8357326435090044e-06,-0.005089096446301733
21,0.011585,75.3643,227.87,-0.125709,131.228,-0.105031,-0.128308,-0.000205055,0.00750192,-0.00568525,0.0137252,-6.2161e-06,-5.54215e-06,0.00642957,-0.0002050339776604737,0.013819822968311746,-6.216080680077063e-06,0.007530129900526372,-5.542134642322338e-06,-0.005669119549244095
22,0.012585,76.1775,230.176,0.152808,132.203,-0.0311407,-0.107225,-0.000243361,0.00813699,-0.00626398,0.0149291,-3.88632e-06,-5.081e-06,0.00724887,-0.00024333139011389893,0.01504109565076761,-3.886312448297957e-06,0.0081701852785947,-5.080987091732325e-06,-0.006244402176973307
23,0.013585,76.5418,231.573,-0.129921,133.323,-0.116544,-0.146365,-0.000281599,0.00876541,-0.00684634,0.0161423,-7.43608e-06,-6.87916e-06,0.00807066,-0.00028155935472307103,0.01627329080645823,-7.436052352427502e-06,0.008803938697232727,-6.87913633867776e-06,-0.006822957206916835
24,0.014585,77.3341,233.809,0.155953,134.248,-0.0398617,-0.124181,-0.00032018,0.00939937,-0.00742413,0.0173439,-5.04089e-06,-6.45803e-06,0.00888948,-0.00032012874785392054,0.017495178755953633,-5.040877294693047e-06,0.00944368280687069,-6.458009147003452e-06,-0.007396639220646928
25,0.015585,77.6702,235.118,-0.131528,135.326,-0.126665,-0.163128,-0.000358666,0.0100265,-0.00800563,0.0185549,-8.67144e-06,-8.32382e-06,0.00971081,-0.0003586016870393838,0.018728111807713166,-8.671402403126471e-06,0.010076933768252694,-8.323785357089442e-06,-0.007973670286897772
26,0.016585,78.4398,237.283,0.156314,136.208,-0.0488512,-0.140434,-0.000397495,0.0106593,-0.0085825,0.0197541,-6.26914e-06,-7.9571e-06,0.0105291,-0.0003974160093289658,0.019950503358875382,-6.269120348956214e-06,0.01071631273010909,-7.957068342334672e-06,-0.008545775484691265
27,0.017585,78.7542,238.521,-0.130466,137.246,-0.135467,-0.178691,-0.000436206,0.0112853,-0.00916307,0.0209629,-9.91979e-06,-9.86552e-06,0.0113498,-0.0004361108759944887,0.021184165002214428,-9.919740799002597e-06,0.011349219220941231,-9.865471335968046e-06,-0.00912121700561297
28,0.018585,79.4991,240.613,0.153971,138.09,-0.0581345,-0.156085,-0.00047526,0.0119169,-0.00973903,0.0221599,-7.56699e-06,-9.56877e-06,0.0121674,-0.0004751470818553649,0.02240725432064128,-7.5669613703865934e-06,0.011988189153264495,-9.568724219422009e-06,-0.009691759228944719
29,0.019585,79.7977,241.795,-0.126874,139.089,-0.143053,-0.193164,-0.000514179,0.0125417,-0.0103186,0.0233662,-1.11803e-05,-1.14961e-05,0.0129875,-0.000514046832631565,0.02364132837364541,-1.1180237500685308e-05,0.012620676942457054,-1.14960339201442e-05,-0.010265545885220884
30,0.020585,80.5159,243.812,0.149152,139.901,-0.0676962,-0.1712,-0.000553436,0.0131721,-0.0108937,0.0245611,-8.92941e-06,-1.1284e-05,0.0138044,-0.0005532828825451919,0.024865208458455967,-8.929370132970682e-06,0.013259234269324072,-1.128393633587077e-05,-0.01083457852876224
31,0.021585,80.8042,244.949,-0.121026,140.863,-0.149547,-0.20666,-0.000592546,0.0137958,-0.0114722,0.025765,-1.24533e-05,-1.3209e-05,0.0146236,-0.0005923704792887285,0.02609978668817048,-1.245322245801983e-05,0.013891401174494389,-1.320891276157532e-05,-0.01140664523883328
32,0.022585,81.4939,246.89,0.1422,141.646,-0.0774836,-0.185818,-0.000631988,0.0144248,-0.0120464,0.0269579,-1.03505e-05,-1.30943e-05,0.0154399,-0.000631788337647543,0.027324551489438687,-1.0350446433715632e-05,0.01452933947639612,-1.3094214269981919e-05,-0.01197413260192326
33,0.023585,81.7764,247.994,-0.113294,142.573,-0.155097,-0.219291,-0.000671276,0.0150476,-0.0126239,0.0281592,-1.37408e-05,-1.4999e-05,0.0162582,-0.000671050744671553,0.02855941804723572,-1.3740705595677305e-05,0.015161385147614226,-1.4998887515549342e-05,-0.012544552815655696
34,0.024585,82.4364,249.857,0.133534,143.331,-0.0874157,-0.19996,-0.000710883,0.0156752,-0.0131972,0.0293501,-1.18237e-05,-1.49917e-05,0.0170737,-0.0007106303825441529,0.02978505912131113,-1.1823630100327165e-05,0.015798700401540744,-1.4991587625079461e-05,-0.01311049877961501
35,0.025585,82.7167,250.938,-0.104109,144.224,-0.15986,-0.231164,-0.000750337,0.016297,-0.0137736,0.0305489,-1.50449e-05,-1.68619e-05,0.017891,-0.0007500555675873377,0.031020305709057006,-1.5044786826012846e-05,0.016430520445945174,-1.6861757838992908e-05,-0.013679177979028512
36,0.026585,83.3461,252.722,0.123609,144.96,-0.0973946,-0.213636,-0.000790095,0.0169232,-0.0143461,0.0317378,-1.33422e-05,-1.69687e-05,0.0187057,-0.0007897829571320569,0.03224681470431601,-1.3342110993241896e-05,0.01706720856409305,-1.696855603239289e-05,-0.014243685044069698
37,0.027585,83.6272,253.787,-0.0939213,145.821,-0.163996,-0.242383,-0.000829704,0.017544,-0.0149213,0.032934,-1.63687e-05,-1.87941e-05,0.019522,-0.0008293598908123423,0.033482327156739045,-1.636856603359771e-05,0.017698799912839958,-1.879392339199093e-05,-0.01481052903647151
38,0.028585,84.2258,255.494,0.112888,146.537,-0.107316,-0.226848,-0.000869597,0.0181688,-0.0154929,0.034121,-1.48993e-05,-1.90185e-05,0.0203358,-0.0008692190101030617,0.03470979903951399,-1.4899189005990188e-05,0.01833485680650737,-1.90183191495219e-05,-0.015373502424951724
39,0.029585,84.5096,256.548,-0.0831757,147.366,-0.167662,-0.253039,-0.00090935,0.0187887,-0.0160669,0.0353145,-1.77152e-05,-2.07924e-05,0.0211511,-0.000908936666586535,0.03594546242011254,-1.771504308678562e-05,0.01896631828550599,-2.0792183839546396e-05,-0.015938515860190683
40,0.030585,85.0779,258.179,0.101808,148.066,-0.117077,-0.239596,-0.000949367,0.0194121,-0.0166377,0.0364998,-1.64887e-05,-2.11349e-05,0.021964,-0.0009489164937261929,0.03717409658290971,-1.648856406211152e-05,0.019601739928672757,-2.113467665953994e-05,-0.01650005787599984
41,0.031585,85.3656,259.226,-0.0722802,148.865,-0.171,-0.263217,-0.000989255,0.0200311,-0.0172106,0.0376906,-1.90869e-05,-2.28541e-05,0.0227781,-0.0009887658485843165,0.03840989914793669,-1.9086717846228396e-05,0.020233068781810193,-2.2853838847036734e-05,-0.017063343624233562
42,0.032585,85.9043,260.783,0.0907573,149.549,-0.126587,-0.251879,-0.00102938,0.0206531,-0.0177805,0.038874,-1.81047e-05,-2.33124e-05,0.0235901,-0.0010288503701535445,0.039639480822569295,-1.8104536110952196e-05,0.020867851147442718,-2.3312128268115906e-05,-0.017623359632983338
43,0.033585,86.1967,261.826,-0.0615887,150.32,-0.174136,-0.272991,-0.0010694,0.0212711,-0.0183522,0.0400621,-2.04863e-05,-2.49766e-05,0.0244032,-0.0010688283955960776,0.04087541054840371,-2.0486090157145753e-05,0.02149894246658368,-2.4976288087286136e-05,-0.018184823848442777
44,0.034585,86.7071,263.312,0.0800631,150.989,-0.135768,-0.2637,-0.00110963,0.0218917,-0.0189213,0.0412437,-1.97423e-05,-2.5546e-05,0.0252142,-0.0011090145882790559,0.042106035843751055,-1.974210512212249e-05,0.0221330814632561,-2.554567370371963e-05,-0.01874341590274542
45,0.035585,87.0041,264.352,-0.0513895,151.734,-0.177174,-0.282421,-0.00114976,0.0225088,-0.0194918,0.0424292,-2.1915e-05,-2.71573e-05,0.026026,-0.0011490992792189125,0.043342185131959754,-2.1914759868124634e-05,0.022764034448347736,-2.715693124388796e-05,-0.019303063129422426
46,0.036585,87.4879,265.772,0.069981,152.39,-0.144563,-0.275065,-0.00119008,0.023128,-0.02006,0.0436089,-2.13973e-05,-2.78314e-05,0.0268361,-0.0011893721356297515,0.044573742198866784,-2.13970710793987e-05,0.023397526047236772,-2.7831012710199943e-05,-0.019860136849320753
47,0.037585,87.7891,266.809,-0.0419001,153.109,-0.180197,-0.291558,-0.00123032,0.0237442,-0.0206294,0.0447918,-2.33741e-05,-2.93939e-05,0.0276468,-0.001229563466639938,0.045810099577920926,-2.337382682782163e-05,0.024028337935969812,-2.9393468003569012e-05,-0.020418069628862168
48,0.038585,88.2481,268.167,0.0606946,153.752,-0.152931,-0.285983,-0.00127074,0.024362,-0.0211967,0.0459696,-2.30667e-05,-3.0165e-05,0.0284558,-0.0012699329518118807,0.04704258037867137,-2.306643396576824e-05,0.02466117810734736,-3.0164545041011515e-05,-0.020973628858686588
49,0.039585,88.5529,269.199,-0.0332685,154.449,-0.183265,-0.300443,-0.00131108,0.0249772,-0.0217649,0.04715,-2.4864e-05,-3.16838e-05,0.0292652,-0.0013102209101030216,0.048279239172979826,-2.4863690893273116e-05,0.025291743606178807,-3.168329807368142e-05,-0.021529753632758664
50,0.040585,88.9891,270.5,0.0523194,155.08,-0.160852,-0.296468,-0.00135157,0.0255938,-0.0223313,0.0483259,-2.47478e-05,-3.25434e-05,0.0300732,-0.0013506570406234264,0.049512635763726554,-2.4747493775678642e-05,0.0259241334410365,-3.254287046927651e-05,-0.02208380225891815
51,0.041585,89.2967,271.528,-0.0255783,155.754,-0.186417,-0.309108,-0.001392,0.0262079,-0.0228984,0.0495038,-2.63847e-05,-3.40245e-05,0.0308815,-0.0013910316173816328,0.050749585055661184,-2.6384351926811433e-05,0.026554346938631568,-3.402392117324293e-05,-0.022638221314275397
52,0.042585,89.712,272.776,0.0449102,156.373,-0.168319,-0.30654,-0.00143256,0.0268232,-0.0234639,0.0506777,-2.64391e-05,-3.49639e-05,0.0316884,-0.0014315343757377308,0.05198378426505257,-2.643875049002098e-05,0.027186180191869136,-3.496328876995136e-05,-0.023190763154192218
53,0.043585,90.0213,273.798,-0.0188582,157.027,-0.189676,-0.317575,-0.00147308,0.0274363,-0.0240298,0.0518531,-2.79352e-05,-3.64137e-05,0.0324954,-0.001471995550215932,0.05322101298195192,-2.793480981588825e-05,0.027816141133738537,-3.641303702928145e-05,-0.023743383122755368
54,0.044585,90.4178,274.997,0.0384713,157.635,-0.175343,-0.316219,-0.00151371,0.0280503,-0.0245943,0.0530251,-2.81394e-05,-3.74241e-05,0.0333012,-0.001512564918864423,0.05445611163560171,-2.8139004090821373e-05,0.028447414025340123,-3.7423399727121165e-05,-0.024294324465158446
55,0.045585,90.7279,276.012,-0.0130917,158.27,-0.193051,-0.325861,-0.00155431,0.0286624,-0.0251592,0.054198,-2.95147e-05,-3.88489e-05,0.034107,-0.00155310268580644,0.05569360879728147,-2.9514264445529292e-05,0.029077119389130823,-3.884814539123482e-05,-0.024845344950878756
56,0.046585,91.1075,277.168,0.0329676,158.866,-0.181942,-0.325529,-0.00159501,0.0292751,-0.0257228,0.055368,-2.98482e-05,-3.99219e-05,0.0349117,-0.0015937386475797233,0.05692949317094942,-2.984775454695221e-05,0.029707828138074932,-3.992110313155717e-05,-0.02539478726707578
57,0.047585,91.4173,278.173,-0.00822864,159.483,-0.196538,-0.333979,-0.00163568,0.0298863,-0.0262865,0.0565385,-3.11216e-05,-4.13278e-05,0.0357162,-0.0016343430045336893,0.05816735345911006,-3.112111572800558e-05,0.03033737793345237,-4.1326946018216404e-05,-0.02594401741043395
58,0.048585,91.7818,279.289,0.0283353,160.069,-0.188143,-0.334492,-0.00167643,0.0304977,-0.0268491,0.0577065,-3.15652e-05,-4.24556e-05,0.0365197,-0.0016750255761432964,0.05940401499769843,-3.156470182430482e-05,0.030967518820760542,-4.245469877373065e-05,-0.026491867181647755
59,0.049585,92.0904,280.284,-0.00419524,160.67,-0.200125,-0.341936,-0.00171717,0.0311078,-0.0274117,0.0588747,-3.27545e-05,-4.38481e-05,0.037323,-0.0017156965071287722,0.06064233392927987,-3.275396357727001e-05,0.031596704017420985,-4.3847138686103904e-05,-0.027039408819266475
60,0.050585,92.4415,281.364,0.0244923,161.245,-0.193979,-0.343135,-0.00175798,0.031718,-0.0279734,0.0600406,-3.32905e-05,-4.50237e-05,0.0381254,-0.001756435658266331,0.061879657984305725,-3.3289945877479354e-05,0.03222637641972459,-4.5022686448459304e-05,-0.02758576732418161
61,0.051585,92.7481,282.347,-0.000903775,161.83,-0.203797,-0.349737,-0.00179878,0.032327,-0.0285349,0.0612065,-3.44114e-05,-4.64075e-05,0.0389274,-0.001797163164844684,0.06311842547673563,-3.4410807934537324e-05,0.032855193738402955,-4.6406423188649626e-05,-0.028131624652042664
62,0.052585,93.0871,283.394,0.0213464,162.394,-0.199483,-0.35148,-0.00183963,0.032936,-0.0290956,0.0623703,-3.50243e-05,-4.76246e-05,0.0397286,-0.0018379389178789785,0.0643564029396615,-3.502368665631028e-05,0.03348439412346038,-4.762346596676181e-05,-0.028676398508477252
63,0.053585,93.3912,284.365,0.00173968,162.966,-0.207535,-0.357387,-0.00188049,0.033544,-0.0296561,0.0635339,-3.60909e-05,-4.90041e-05,0.0405294,-0.0018787229864706267,0.06559560888031823,-3.6090248731301955e-05,0.03411294369479445,-4.900289931875079e-05,-0.029220672839982753
64,0.054585,93.7194,285.383,0.018803,163.52,-0.204691,-0.359551,-0.00192139,0.0341518,-0.0302158,0.0646956,-3.67669e-05,-5.02571e-05,0.0413294,-0.0019195453118782124,0.06683423061328986,-3.6766224105866385e-05,0.03474166859211314,-5.0255837133139636e-05,-0.029763866002607386
65,0.055585,94.0203,286.339,0.00382907,164.078,-0.211317,-0.364887,-0.0019623,0.0347587,-0.0307752,0.0658569,-3.77911e-05,-5.16359e-05,0.0421289,-0.0019603759480831817,0.0680738648596102,-3.779038592532924e-05,0.03536984391130105,-5.1634566889835476e-05,-0.030306464317067405
66,0.056585,94.3389,287.33,0.0167696,164.621,-0.209635,-0.36737,-0.00200325,0.0353654,-0.0313338,0.0670166,-3.85185e-05,-5.29201e-05,0.0429277,-0.0020012448338918576,0.06931322862686629,-3.851775817209635e-05,0.03599819338614152,-5.291869975621033e-05,-0.03084798386560894
67,0.057585,94.6362,288.273,0.00545387,165.167,-0.215126,-0.372241,-0.0020442,0.0359712,-0.0318922,0.0681757,-3.95105e-05,-5.43009e-05,0.0437259,-0.002042112046154121,0.07055338818579249,-3.950971947042081e-05,0.036625991232462685,-5.429942573276225e-05,-0.03138900728362204
68,0.058585,94.9461,289.239,0.0151604,165.7,-0.214347,-0.374957,-0.00208518,0.0365767,-0.0324499,0.0693332,-4.02795e-05,-5.56124e-05,0.0445235,-0.002083007522448388,0.07179327117646483,-4.027868879186158e-05,0.03725385833773709,-5.56108536591271e-05,-0.03192905102906407
69,0.059585,95.2394,290.167,0.00669607,166.234,-0.218943,-0.379449,-0.00212618,0.0371814,-0.0330072,0.0704901,-4.12476e-05,-5.69977e-05,0.0453205,-0.0021239212804021745,0.07303394634205995,-4.1246749329482135e-05,0.03788127542631203,-5.699607566200804e-05,-0.03246840666351847
70,0.060585,95.5415,291.111,0.0138977,166.758,-0.218856,-0.382329,-0.0021672,0.0377858,-0.0335639,0.0716456,-4.20501e-05,-5.8333e-05,0.0461168,-0.0021648533176295004,0.0742745536899172,-4.2049215906891924e-05,0.03850876047606011,-5.8331298663616415e-05,-0.033006881603122706
71,0.061585,95.8306,292.024,0.00762848,167.281,-0.222752,-0.386514,-0.00220823,0.0383894,-0.0341201,0.0728002,-4.3001e-05,-5.97245e-05,0.0469125,-0.002205793653801136,0.07551562742360107,-4.3000075470200905e-05,0.03913579358343777,-5.9722716527543795e-05,-0.03354457362956087
72,0.062585,96.1256,292.947,0.0129136,167.795,-0.223186,-0.389504,-0.00224929,0.0389926,-0.0346758,0.0739535,-4.38305e-05,-6.10808e-05,0.0477076,-0.0022467622428228307,0.07675673514390913,-4.3829539457695965e-05,0.03976278937704758,-6.107893460594038e-05,-0.03408148371571085
73,0.063585,96.4103,293.845,0.008314,168.307,-0.226541,-0.39344,-0.00229036,0.0395952,-0.035231,0.075106,-4.47696e-05,-6.24799e-05,0.048502,-0.002287739126831445,0.07799841266039254,-4.476859785640386e-05,0.04038953925469868,-6.247794817171304e-05,-0.03461761283273734
74,0.064585,96.6987,294.749,0.0121503,168.812,-0.22736,-0.396495,-0.00233145,0.0401972,-0.0357857,0.0762572,-4.56207e-05,-6.3855e-05,0.0492958,-0.0023287342813794742,0.07924011902209682,-4.561965939164914e-05,0.04101604231583078,-6.385296131283802e-05,-0.03515296195009443
75,0.065585,96.979,295.632,0.00880576,169.315,-0.230299,-0.400228,-0.00237254,0.0407987,-0.0363399,0.0774075,-4.65523e-05,-6.52626e-05,0.050089,-0.0023697277514712622,0.08048228322478068,-4.655121645846805e-05,0.0416424018240209,-6.526047044286276e-05,-0.03568753203552877
76,0.066585,97.2613,296.518,0.0115594,169.811,-0.231397,-0.403317,-0.00241366,0.0413997,-0.0368935,0.0785566,-4.74209e-05,-6.66545e-05,0.0508816,-0.0024107494648538674,0.08172457904079833,-4.7419775646928564e-05,0.042268617066348435,-6.665227863822398e-05,-0.03622122767721003
77,0.067585,97.5372,297.387,0.00914763,170.304,-0.234016,-0.406883,-0.00245479,0.042,-0.0374467,0.0797048,-4.83481e-05,-6.80714e-05,0.0516735,-0.00245177946694064,0.08296732852840094,-4.834693124944334e-05,0.04289447875076324,-6.806908319478833e-05,-0.03675424264852467
78,0.068585,97.8138,298.255,0.0111013,170.791,-0.235312,-0.40998,-0.00249593,0.0425999,-0.0379993,0.0808518,-4.92309e-05,-6.94785e-05,0.0524648,-0.002492817756569954,0.08421020470745,-4.922968817910878e-05,0.04352029884453468,-6.947608642493552e-05,-0.037286385209506
79,0.069585,98.0852,299.109,0.0093752,171.276,-0.237687,-0.413409,-0.00253708,0.0431991,-0.0385515,0.0819978,-5.01561e-05,-7.0905e-05,0.0532554,-0.0025338643325801824,0.0854534218293943,-5.015484220383115e-05,0.04414576357812239,-7.090248629992857e-05,-0.03781784891695894
80,0.070585,98.3566,299.961,0.0107442,171.755,-0.239118,-0.416496,-0.00257824,0.0437979,-0.0391031,0.0831427,-5.10506e-05,-7.23262e-05,0.0540454,-0.0025749191938093663,0.08669686912762709,-5.104929694033089e-05,0.04477118529392721,-7.232358452347043e-05,-0.03834844224040446
81,0.071585,98.6236,300.802,0.00951676,172.23,-0.241307,-0.419808,-0.00261942,0.044396,-0.0396542,0.0842865,-5.19758e-05,-7.37625e-05,0.0548348,-0.0026159923129356333,0.08794054412867891,-5.197444928151107e-05,0.045396249846772596,-7.375977961365798e-05,-0.038878262408529096
82,0.072585,98.8899,301.638,0.0104632,172.701,-0.242828,-0.422872,-0.0026606,0.0449937,-0.0402048,0.0854293,-5.288e-05,-7.51967e-05,0.0556235,-0.002657063740705734,0.08918455327394592,-5.287860187741522e-05,0.046021269953957944,-7.519387279897316e-05,-0.039407310376975646
83,0.073585,99.1526,302.465,0.00959451,173.168,-0.244874,-0.426086,-0.00270179,0.0455908,-0.0407549,0.0865711,-5.38063e-05,-7.66429e-05,0.0564116,-0.0026981434502078017,0.09042889445606694,-5.380485246697653e-05,0.046646035759516424,-7.663996300799614e-05,-0.03993558709970291
84,0.074585,99.4142,303.287,0.0102386,173.631,-0.24645,-0.429118,-0.002743,0.0461873,-0.0413045,0.0877117,-5.47188e-05,-7.80891e-05,0.057199,-0.002739241412886839,0.09167334722958431,-5.471730295381061e-05,0.04727054636161676,-7.808605112558098e-05,-0.040463093528987915
85,0.075585,99.6727,304.1,0.00962553,174.09,-0.248386,-0.432246,-0.00278421,0.0467833,-0.0418536,0.0888514,-5.56472e-05,-7.95452e-05,0.0579858,-0.0027803376819538483,0.0929182366088841,-5.564565172333502e-05,0.04789490564783372,-7.954203636451052e-05,-0.04098983061542938
86,0.076585,99.9297,304.909,0.0100556,174.546,-0.249992,-0.435241,-0.00282542,0.0473788,-0.0424022,0.08999,-5.65668e-05,-8.10028e-05,0.058772,-0.00282143225747844,0.09416334201708176,-5.656520012875532e-05,0.04851911290341082,-8.099951936180183e-05,-0.04151579930795002
87,0.077585,100.184,305.709,0.00962283,174.998,-0.251841,-0.438293,-0.00286665,0.0479737,-0.0429503,0.0911275,-5.7498e-05,-8.24687e-05,0.0595575,-0.002862545082279677,0.09540866095949752,-5.7496347021679384e-05,0.049143062499082735,-8.24652995502495e-05,-0.04204100055379967
88,0.078585,100.437,306.504,0.00990295,175.445,-0.25346,-0.441247,-0.00290788,0.0485681,-0.0434979,0.092264,-5.84238e-05,-8.3937e-05,0.0603423,-0.0029036562120342557,0.09665430060333002,-5.842209336304194e-05,0.04976685850924012,-8.393347738855361e-05,-0.042565435298558385
89,0.079585,100.687,307.291,0.00959612,175.89,-0.25524,-0.444232,-0.00294912,0.0491619,-0.044045,0.0933994,-5.93582e-05,-8.54124e-05,0.0611266,-0.0029447756173640594,0.09790014903054844,-5.9356438336877204e-05,0.050390395179538805,-8.54087524647662e-05,-0.04308910448613823
90,0.080585,100.936,308.073,0.00977223,176.331,-0.256861,-0.447142,-0.00299036,0.0497552,-0.0445916,0.0945338,-6.02895e-05,-8.6891e-05,0.0619102,-0.0029858933269646393,0.09914631365054416,-6.028768262467121e-05,0.05101377670884344,-8.688722508642943e-05,-0.04361200905878737
91,0.081585,101.182,308.848,0.00955261,176.768,-0.258585,-0.450065,-0.00303161,0.0503479,-0.0451377,0.0956672,-6.12273e-05,-8.83758e-05,0.0626931,-0.003027019310635648,0.10039279232846732,-6.122542564712674e-05,0.051636897217820055,-8.837189497401532e-05,-0.04413414995709175
92,0.082585,101.427,309.618,0.00965732,177.202,-0.260197,-0.452932,-0.00307286,0.0509402,-0.0456833,0.0967995,-6.21637e-05,-8.98641e-05,0.0634754,-0.003068143597894757,0.1016394727621508,-6.216176787721128e-05,0.05225996625572238,-8.986006234268373e-05,-0.04465552811997875
93,0.083585,101.669,310.381,0.00949753,177.633,-0.261875,-0.455799,-0.00311412,0.0515318,-0.0462284,0.0979308,-6.31051e-05,-9.1358e-05,0.0642571,-0.0031092761577193873,0.10288646272456314,-6.310310891510795e-05,0.0528826674286047,-9.135382698499672e-05,-0.04517614448471918
94,0.084585,101.91,311.139,0.00955373,178.06,-0.263474,-0.458621,-0.00315538,0.052123,-0.0467729,0.099061,-6.40462e-05,-9.28557e-05,0.0650381,-0.0031504070204496637,0.1041336496573122,-6.404414908589562e-05,0.05350531569828143,-9.28513890429139e-05,-0.04569590455652617
95,0.085585,102.149,311.891,0.00943467,178.484,-0.265112,-0.461436,-0.00319665,0.0527136,-0.047317,0.10019,-6.49912e-05,-9.43584e-05,0.0658185,-0.003191546154239999,0.10538092049968051,-6.49890881176951e-05,0.054127699709640265,-9.435394838619438e-05,-0.0462150001820858
96,0.086585,102.386,312.637,0.00945827,178.905,-0.266695,-0.464215,-0.00323791,0.0533037,-0.0478606,0.101318,-6.59367e-05,-9.58651e-05,0.0665982,-0.0032326736225801733,0.10662849367699345,-6.593452622360996e-05,0.05474992403447021,-9.586050508814115e-05,-0.04673333681132685
97,0.087585,102.622,313.378,0.00936673,179.322,-0.268299,-0.466981,-0.00327918,0.0538932,-0.0484037,0.102446,-6.68853e-05,-9.73765e-05,0.0673773,-0.0032738093612979524,0.1078774749108451,-6.688306322821802e-05,0.05537188241891089,-9.73717590625478e-05,-0.04725091537492376
98,0.088585,102.855,314.113,0.00936865,179.737,-0.269862,-0.469717,-0.00332045,0.0544822,-0.0489463,0.103572,-6.78349e-05,-9.88918e-05,0.0681557,-0.0033149434023788116,0.10912564753690579,-6.783259926523844e-05,0.055993679558937304,-9.888691036707975e-05,-0.047767736801908156
99,0.089585,103.087,314.843,0.00929559,180.148,-0.271435,-0.472438,-0.00336172,0.0550707,-0.0494884,0.104697,-6.87872e-05,-0.000100412,0.0689335,-0.003356075745892917,0.11037411602223335,-6.878483421479675e-05,0.05661531473756787,-0.00010040695888391404,-0.04828380201967242
100,0.090585,103.317,315.567,0.00928328,180.557,-0.272978,-0.475131,-0.003403,0.0556586,-0.05003,0.105821,-6.97406e-05,-0.000101935,0.0697106,-0.0033972163579379933,0.11162287820151584,-6.973816818089951e-05,0.05723668151396932,-0.0001019298048043904,-0.04879911195397202
101,0.091585,103.546,316.287,0.00922257,180.962,-0.274524,-0.477809,-0.00344427,0.056246,-0.0505712,0.106944,-7.06964e-05,-0.000103463,0.0704871,-0.0034383453061173075,0.1128719319061231,-7.069390106839712e-05,0.057857884770225354,-0.00010345764788843859,-0.04931376259755671
102,0.092585,103.773,317.001,0.00920105,181.365,-0.276047,-0.480462,-0.00348555,0.0568329,-0.0511118,0.108066,-7.16536e-05,-0.000104995,0.071263,-0.0034794825221450276,0.1141212749641125,-7.165103294215491e-05,0.05847892378887054,-0.00010498948821791032,-0.04982756468427929
103,0.093585,103.998,317.71,0.00914857,181.764,-0.277567,-0.483098,-0.00352682,0.0574193,-0.0516519,0.109187,-7.26129e-05,-0.000106531,0.0720382,-0.003520608075269771,0.11537090520023319,-7.261026374716373e-05,0.05909979785226427,-0.00010652532577448692,-0.05034061425508507
104,0.094585,104.221,318.414,0.0091212,182.161,-0.279069,-0.485712,-0.00356809,0.0580051,-0.0521916,0.110307,-7.35737e-05,-0.00010807,0.0728128,-0.003561731931177814,0.11662082043593158,-7.357099352167662e-05,0.05972040027054737,-0.0001080641606479027,-0.050853007143913165
105,0.095585,104.443,319.113,0.0090742,182.555,-0.280565,-0.488309,-0.00360937,0.0585904,-0.0527307,0.111426,-7.45363e-05,-0.000109613,0.0735867,-0.003602864053910859,0.11787101848935633,-7.453352223896204e-05,0.06034083617368058,-0.00010960699271456154,-0.051364554387813066
106,0.096585,104.664,319.807,0.0090432,182.947,-0.282047,-0.490886,-0.00365064,0.0591752,-0.0532694,0.112544,-7.55005e-05,-0.000111161,0.07436,-0.0036439845151847727,0.11912149717536247,-7.549764990899543e-05,0.06096110484355677,-0.00011115482184498315,-0.05187544668117017
107,0.097585,104.883,320.497,0.00899988,183.335,-0.283521,-0.493445,-0.00369191,0.0597595,-0.0538075,0.113661,-7.64665e-05,-0.000112711,0.0751327,-0.003685103279452373,0.12037225430551834,-7.646357651169833e-05,0.06158120556189939,-0.0001127046483538896,-0.05238549526243319
108,0.098585,105.1,321.181,0.0089667,183.721,-0.284982,-0.495986,-0.00373318,0.0603432,-0.0543452,0.114777,-7.7434e-05,-0.000114266,0.0759047,-0.003726220346783493,0.12162328768810848,-7.743100206525355e-05,0.06220103139015576,-0.00011425947188925534,-0.05289489061841601
109,0.099585,105.316,321.861,0.00892588,184.105,-0.286436,-0.498509,-0.00377444,0.0609264,-0.0548824,0.115892,-7.84033e-05,-0.000115824,0.076676,-0.0037673257549215577,0.12287459512814047,-7.840022654159728e-05,0.062820687705881,-0.00011581729265952578,-0.053403538848029064
110,0.1006,105.531,322.537,0.00889146,184.486,-0.287877,-0.501014,-0.00381571,0.0615091,-0.0554191,0.117006,-7.9374e-05,-0.000117385,0.0774468,-0.003808439429001109,0.12412617442734919,-7.93708499674528e-05,0.06344017379034961,-0.00011737811065049009,-0.0539114408610325
111,0.1016,105.744,323.208,0.00885236,184.864,-0.289311,-0.503503,-0.00385697,0.0620913,-0.0559553,0.118118,-8.03463e-05,-0.00011895,0.0782169,-0.0038495414448499465,0.12537689800674134,-8.034307232251958e-05,0.06405948892467239,-0.00011894292572922627,-0.05441859756557921
112,0.1026,105.955,323.875,0.0088173,185.239,-0.290734,-0.505975,-0.00389823,0.0626729,-0.0564911,0.11923,-8.13202e-05,-0.000120519,0.0789863,-0.003890641764864422,0.12662901316432773,-8.131689360213468e-05,0.06467852592194023,-0.00012051173787708258,-0.05492510437571174
113,0.1036,106.166,324.537,0.00877944,185.613,-0.292148,-0.508431,-0.00393948,0.0632541,-0.0570263,0.120341,-8.22955e-05,-0.00012209,0.0797551,-0.00393173042843209,0.1278813935664469,-8.229211381827195e-05,0.06529749693675924,-0.00012208254731926882,-0.055430773130820676
114,0.1046,106.374,325.195,0.00874413,185.984,-0.293552,-0.51087,-0.00398073,0.0638347,-0.0575611,0.121451,-8.32724e-05,-0.000123666,0.0805232,-0.003972817397127404,0.12913403700179704,-8.326893294996474e-05,0.0659161882521897,-0.00012365835367544875,-0.05593579369881363
115,0.1056,106.582,325.849,0.00870718,186.352,-0.294949,-0.513294,-0.00402198,0.0644148,-0.0580954,0.12256,-8.42507e-05,-0.000125244,0.0812908,-0.0040139026710201975,0.1303869412558305,-8.424715100940894e-05,0.06653470561661146,-0.00012523615729764792,-0.056440072474168934
116,0.1066,106.788,326.498,0.00867186,186.718,-0.296335,-0.515702,-0.00406322,0.0649943,-0.0586292,0.123668,-8.52305e-05,-0.000126825,0.0820576,-0.00405497629073015,0.13164010411075844,-8.522686798406731e-05,0.06715294159508955,-0.00012681695804961368,-0.056943610357264585
117,0.1076,106.993,327.143,0.00863562,187.082,-0.297714,-0.518096,-0.00410446,0.0655734,-0.0591625,0.124775,-8.62117e-05,-0.00012841,0.0828239,-0.004096048216599035,0.1328935233455555,-8.620798387815043e-05,0.06777110883661663,-0.00012840175578887614,-0.05744640824688718
118,0.1086,107.196,327.785,0.00860045,187.443,-0.299084,-0.520474,-0.0041457,0.066152,-0.0596953,0.125881,-8.71943e-05,-0.000129998,0.0835895,-0.004137118448696575,0.13414719673596553,-8.719049868755047e-05,0.06838909996778275,-0.0001299895506261528,-0.05794846704023382
119,0.1096,107.399,328.422,0.00856479,187.802,-0.300446,-0.522838,-0.00418693,0.06673,-0.0602277,0.126986,-8.81784e-05,-0.000131589,0.0843544,-0.0041781770288744635,0.13540112205450794,-8.817451239917506e-05,0.06900680736780562,-0.00013158034254723283,-0.05844988178793187
120,0.1106,107.6,329.055,0.00852985,188.159,-0.301799,-0.525188,-0.00422815,0.0673075,-0.0607596,0.12809,-8.91638e-05,-0.000133183,0.0851188,-0.004219223958434326,0.13665529707048085,-8.91598250265524e-05,0.06962433709360649,-0.00013317413153801638,-0.05895055912886582
121,0.1116,107.799,329.685,0.00849469,188.513,-0.303145,-0.527524,-0.00426937,0.0678845,-0.061291,0.129193,-9.01505e-05,-0.00013478,0.0858824,-0.004260269196074584,0.13790971954996856,-9.014643656579668e-05,0.07024168842484069,-0.00013477091758384852,-0.059450499955702396
122,0.1126,107.998,330.31,0.00846003,188.866,-0.304482,-0.529846,-0.00431058,0.068461,-0.0618219,0.130294,-9.11386e-05,-0.00013638,0.0866455,-0.004301302784878058,0.13916324809202796,-9.113444700392659e-05,0.07085886064101565,-0.00013637070067051837,-0.05994970515952924
123,0.1136,108.195,330.932,0.00842531,189.216,-0.305812,-0.532154,-0.00435178,0.069037,-0.0623523,0.131395,-9.2128e-05,-0.000137983,0.0874079,-0.004342324726145597,0.1404181575290555,-9.212375634615189e-05,0.07147585302149184,-0.00013797348078370408,-0.060448175629857936
124,0.1146,108.391,331.549,0.00839096,189.564,-0.307135,-0.53445,-0.00439298,0.0696125,-0.0628823,0.132495,-9.31187e-05,-0.000139589,0.0881697,-0.004383344977343828,0.14167330770837516,-9.311436458847577e-05,0.07209266484548404,-0.00013957925790886172,-0.06094600616003021
125,0.1156,108.586,332.164,0.00835666,189.91,-0.30845,-0.536732,-0.00443418,0.0701875,-0.0634118,0.133594,-9.41106e-05,-0.000141198,0.0889308,-0.004424363538542697,0.14292869638326855,-9.410617173644109e-05,0.07270929539206294,-0.00014118803203155839,-0.06144310363159866
126,0.1166,108.779,332.774,0.00832264,190.254,-0.309758,-0.539002,-0.00447536,0.0707619,-0.0639408,0.134692,-9.51039e-05,-0.00014281,0.0896913,-0.004465360499118942,0.14418432130382985,-9.509937776741584e-05,0.07332563660758717,-0.00014279980313736118,-0.06193946892958091
127,0.1176,108.972,333.381,0.00828873,190.596,-0.311058,-0.541259,-0.00451654,0.0713359,-0.0644693,0.135789,-9.60984e-05,-0.000144424,0.0904512,-0.004506355771475068,0.14544018021697136,-9.609378269670454e-05,0.0739419023743546,-0.00014441357135619448,-0.06243510293742871
128,0.1186,109.163,333.984,0.00825505,190.936,-0.312352,-0.543504,-0.00455771,0.0719094,-0.0649974,0.136886,-9.70941e-05,-0.000146041,0.0912104,-0.004547339401154149,0.14669741756327292,-9.708938652042143e-05,0.07455798470008723,-0.00014603033653226571,-0.06293010024402446
129,0.1196,109.353,334.584,0.0082215,191.274,-0.313639,-0.545737,-0.00459888,0.0724823,-0.065525,0.137981,-9.8091e-05,-0.000147661,0.091969,-0.0045883213435720105,0.14795373894593178,-9.80861892351248e-05,0.07517377534590985,-0.00014765009865114198,-0.06342436792385642
130,0.1206,109.542,335.18,0.00818816,191.609,-0.314919,-0.547958,-0.00464004,0.0730548,-0.0660521,0.139075,-9.90892e-05,-0.000149284,0.092727,-0.0046292916450908494,0.14921028754309762,-9.908429082738923e-05,0.07578948856338674,-0.00014927285769816834,-0.06391790685591137
131,0.1216,109.73,335.773,0.00815497,191.943,-0.316192,-0.550168,-0.00468119,0.0736267,-0.0665788,0.140168,-0.000100089,-0.000150909,0.0934843,-0.004670250307009405,0.1504670610890082,-0.0001000839912631557,0.07640490853446313,-0.00015089761380959743,-0.0644108114765436
132,0.1226,109.917,336.362,0.00812197,192.275,-0.317459,-0.552366,-0.00472233,0.0741981,-0.067105,0.14126,-0.000101089,-0.000152537,0.0942411,-0.004711197330625749,0.15172405731474647,-0.00010108389067919887,0.07702014205467722,-0.00015252536682330842,-0.06490298900428071
133,0.1236,110.103,336.948,0.00808913,192.605,-0.31872,-0.554553,-0.00476346,0.0747691,-0.0676307,0.142351,-0.000102091,-0.000154167,0.0949971,-0.004752132717237512,0.152981273948247,-0.00010208578889114861,0.0776352961655753,-0.0001541551168787736,-0.06539444031366637
134,0.1246,110.288,337.531,0.00805646,192.933,-0.319975,-0.556729,-0.00480458,0.0753395,-0.0681559,0.143441,-0.000103094,-0.0001558,0.0957526,-0.004793056468142098,0.15423870871430156,-0.00010308868599617771,0.0782501546794856,-0.0001557878638103194,-0.06588516627769547
135,0.1256,110.471,338.11,0.00802395,193.26,-0.321223,-0.558895,-0.0048457,0.0759095,-0.0686807,0.144531,-0.000104098,-0.000157435,0.0965074,-0.004833978536296635,0.15549751483150165,-0.00010409258199117755,0.07886493246267601,-0.0001574226077607488,-0.06637526113029535
136,0.1266,110.654,338.686,0.00799162,193.584,-0.322465,-0.56105,-0.00488681,0.0764789,-0.069205,0.145619,-0.000105103,-0.000159073,0.0972616,-0.004874888970519353,0.15675538028236113,-0.00010509747687315052,0.07947941308125017,-0.00015906034856116857,-0.06686463228102724
137,0.1276,110.836,339.259,0.00795945,193.907,-0.323701,-0.563194,-0.0049279,0.0770478,-0.0697289,0.146706,-0.000106109,-0.000160714,0.0980151,-0.004915777821264289,0.15801345702156033,-0.00010610337063921005,0.08009370363773316,-0.0001607010861969238,-0.067353373863139
138,0.1286,111.016,339.829,0.00792744,194.228,-0.324932,-0.565328,-0.00496899,0.0776163,-0.0702522,0.147793,-0.000107116,-0.000162357,0.0987681,-0.004956664991920934,0.15927290203369693,-0.00010711026328613649,0.08070791148028822,-0.00016234382081548038,-0.0678413001655448
139,0.1296,111.196,340.396,0.00789559,194.547,-0.326157,-0.567453,-0.00501007,0.0781842,-0.0707752,0.148878,-0.000108124,-0.000164002,0.0995204,-0.004997540532533762,0.1605313957417791,-0.00010811815481093223,0.08132181980598774,-0.00016398855240717936,-0.06832869170156186
140,0.1306,111.375,340.959,0.0078639,194.864,-0.327376,-0.569568,-0.00505114,0.0787517,-0.0712976,0.149963,-0.000109134,-0.00016565,0.100272,-0.005038404444397959,0.16179125565656793,-0.00010912804510165852,0.08193564409489573,-0.00016563628079624415,-0.0688152696877814
141,0.1316,111.552,341.52,0.00783236,195.18,-0.32859,-0.571673,-0.0050922,0.0793186,-0.0718196,0.151046,-0.000110144,-0.0001673,0.101023,-0.005079256728808268,0.16305015715856142,-0.0001101379343723119,0.08254916729825412,-0.0001672860061353587,-0.06930122127260618
142,0.1326,111.729,342.077,0.00780099,195.494,-0.329798,-0.573768,-0.00513325,0.0798851,-0.0723411,0.152129,-0.000111156,-0.000168952,0.101774,-0.005120097387059319,0.16431042278942387,-0.00011114982240068016,0.08316260514139229,-0.00016893772841464205,-0.06978645415024265
143,0.1336,111.905,342.631,0.00776977,195.806,-0.331001,-0.575855,-0.00517429,0.0804511,-0.0728622,0.15321,-0.000112168,-0.000170607,0.102523,-0.005160926420445078,0.1655697228855304,-0.00011216170940508974,0.08377584870746002,-0.00017059244745332158,-0.07027106215340362
144,0.1346,112.079,343.183,0.0077387,196.116,-0.332199,-0.577932,-0.00521532,0.0810165,-0.0733828,0.154291,-0.000113182,-0.000172264,0.103272,-0.005201743830259176,0.1668303850210906,-0.00011317559515910958,0.08438878883416456,-0.00017224916340907725,-0.07075495307071189
145,0.1356,112.253,343.731,0.00770779,196.425,-0.333392,-0.580001,-0.00525634,0.0815815,-0.0739029,0.155371,-0.000114197,-0.000173923,0.104021,-0.0052425496177948006,0.16809124257743835,-0.00011419047977079266,0.085001641614463,-0.00017390787627180604,-0.0712381277591504
146,0.1366,112.426,344.277,0.00767703,196.732,-0.33458,-0.58206,-0.00529734,0.082146,-0.0744226,0.156449,-0.000115212,-0.000175585,0.104769,-0.005283333837178272,0.16935112389095752,-0.00011520536335241083,0.08561429794713526,-0.0001755695858560724,-0.07172067990211861
147,0.1376,112.598,344.82,0.00764641,197.038,-0.335762,-0.584111,-0.00533834,0.08271,-0.0749418,0.157527,-0.000116229,-0.000177249,0.105516,-0.005324116384442967,0.17061236408883973,-0.0001162222456714268,0.08622675710842587,-0.00017723329232410823,-0.07220251742926742
148,0.1386,112.769,345.36,0.00761595,197.342,-0.33694,-0.586154,-0.00537933,0.0832736,-0.0754606,0.158604,-0.000117247,-0.000178915,0.106263,-0.005364887313306532,0.17187379276237347,-0.00011724012683911322,0.08683912705837438,-0.0001788989956659215,-0.0726837339248727
149,0.1396,112.939,345.897,0.00758563,197.644,-0.338114,-0.588188,-0.0054203,0.0838366,-0.0759789,0.15968,-0.000118265,-0.000180583,0.107009,-0.005405636679116865,0.173135407590441,-0.00011825800697051747,0.08745118976639343,-0.0001805666958715202,-0.07316423741234401
150,0.1406,113.108,346.431,0.00755546,197.945,-0.339282,-0.590214,-0.00546127,0.0843991,-0.0764967,0.160755,-0.000119285,-0.000182253,0.107754,-0.005446384375459856,0.1743972062488659,-0.0001192778858272181,0.08806305313107532,-0.00018223639293091232,-0.07364402874151676
151,0.1416,113.277,346.963,0.00752543,198.244,-0.340447,-0.592233,-0.00550222,0.0849612,-0.0770141,0.161829,-0.000120305,-0.000183926,0.108499,-0.005487110512146343,0.17565918641041844,-0.00012029776364363975,0.08867482529569926,-0.00018390908665022465,-0.07412320134840278
152,0.1426,113.444,347.491,0.00749554,198.542,-0.341606,-0.594243,-0.00554316,0.0855228,-0.0775311,0.162902,-0.000121327,-0.0001856,0.109244,-0.005527825036409917,0.1769213457448231,-0.00012131964017714214,0.08928639679078731,-0.00018558277738556228,-0.07460175593628537
153,0.1436,113.611,348.018,0.0074658,198.838,-0.342761,-0.596246,-0.00558409,0.0860838,-0.0780475,0.163974,-0.000122349,-0.000187277,0.109987,-0.005568527949540436,0.17818368191876277,-0.00012234151566636875,0.08989765790209736,-0.0001872594647572834,-0.07507950822326259
154,0.1446,113.777,348.541,0.0074362,199.133,-0.343912,-0.598241,-0.00562501,0.0866444,-0.0785636,0.165046,-0.000123372,-0.000188955,0.11073,-0.00560921925282698,0.17944737204266836,-0.00012336438998772348,0.09050882582347941,-0.00018893714912837645,-0.07555673652971118
155,0.1456,113.942,349.062,0.00740673,199.426,-0.345059,-0.600229,-0.00566591,0.0872046,-0.0790791,0.166116,-0.000124397,-0.000190636,0.111472,-0.005649889004057496,0.18071005614627889,-0.0001243892630140575,0.09111990001360559,-0.00019061783011242728,-0.07603316422224193
156,0.1466,114.106,349.58,0.00737741,199.718,-0.346202,-0.60221,-0.00570681,0.0877642,-0.0795943,0.167185,-0.000125422,-0.000192319,0.112214,-0.005690557091929116,0.18197291007146066,-0.00012541413498978748,0.09173066158480236,-0.00019230050788654474,-0.07650906933235158
157,0.1476,114.269,350.096,0.00734822,200.008,-0.34734,-0.604183,-0.00574769,0.0883234,-0.0801089,0.168254,-0.000126448,-0.000194004,0.112955,-0.0057312036311342185,0.18323711470931547,-0.00012644000578865278,0.0923413280972043,-0.00019398518244095886,-0.07698417550996906
158,0.1486,114.432,350.609,0.0073191,200.297,-0.348474,-0.60615,-0.00578856,0.088882,-0.0806232,0.169321,-0.000127475,-0.000195691,0.113696,-0.005771838566461351,0.18450030250155391,-0.00012746687540743373,0.0929516804186119,-0.00019567185376523355,-0.07745876049851375
159,0.1496,114.594,351.12,0.0072903,200.585,-0.349606,-0.608109,-0.00582941,0.0894402,-0.0811369,0.170388,-0.000128503,-0.00019738,0.114436,-0.005812451957321718,0.1857648388344848,-0.00012849474384313275,0.0935619363532072,-0.0001973605218493768,-0.07793254823044782
160,0.1506,114.754,351.628,0.00726144,200.871,-0.350732,-0.610062,-0.00587026,0.0899979,-0.0816503,0.171454,-0.000129531,-0.00019907,0.115175,-0.005853063689158944,0.1870295381176379,-0.00012952261122223252,0.09417198594162723,-0.00019905018688226583,-0.07840581616191289
161,0.1516,114.915,352.134,0.00723273,201.155,-0.351855,-0.612008,-0.00591109,0.0905552,-0.0821631,0.172518,-0.000130561,-0.000200763,0.115914,-0.00589365387991414,0.18829320970026053,-0.00013055247728355202,0.09478193793672918,-0.00020074284845750245,-0.0788782885071222
162,0.1526,115.074,352.637,0.00720433,201.439,-0.352974,-0.613948,-0.00595191,0.0911119,-0.0826756,0.173582,-0.000131591,-0.000202458,0.116652,-0.005934232472748047,0.18955822654499976,-0.00013158234228416443,0.09539157271767529,-0.00020243750676218752,-0.07935024243573796
163,0.1536,115.233,353.138,0.00717582,201.721,-0.35409,-0.615881,-0.00599271,0.0916682,-0.0831876,0.174645,-0.000132623,-0.000204154,0.117389,-0.005974789528693569,0.19082339925998126,-0.0001326142059586699,0.09600110857625777,-0.00020413316199019427,-0.07982149446079778
164,0.1546,115.39,353.637,0.00714765,202.001,-0.355202,-0.617808,-0.00603351,0.092224,-0.0836991,0.175707,-0.000133655,-0.000205853,0.118126,-0.0060153449299450434,0.19208872547929357,-0.00013364606856836048,0.09661043530861768,-0.00020583181372502146,-0.08029204541271584
165,0.1556,115.547,354.133,0.00711943,202.28,-0.35631,-0.619729,-0.00607429,0.0927794,-0.0842102,0.176768,-0.000134688,-0.000207553,0.118862,-0.006055878797687653,0.19335420283404936,-0.0001346789299785378,0.09721966191095488,-0.00020753146236618392,-0.08076198804423596
166,0.1566,115.704,354.626,0.00709147,202.558,-0.357415,-0.621644,-0.00611505,0.0933342,-0.0847208,0.177828,-0.000135722,-0.000209255,0.119598,-0.006096391134420842,0.19461982895239127,-0.00013571279018598226,0.09782856827438957,-0.00020923310769949133,-0.08123123116517694
167,0.1576,115.859,355.118,0.00706354,202.835,-0.358517,-0.623553,-0.0061558,0.0938886,-0.085231,0.178887,-0.000136757,-0.000210959,0.120333,-0.006136891881273754,0.1958856014594994,-0.00013674764918769622,0.0984373731777668,-0.00021093674971484067,-0.08169986743175928
168,0.1586,116.014,355.607,0.0070358,203.11,-0.359615,-0.625457,-0.00619654,0.0944425,-0.0857408,0.179946,-0.000137792,-0.000212665,0.121067,-0.0061773810395286954,0.197152715129713,-0.00013778250711837803,0.09904596617303985,-0.00021264238840179583,-0.08216789752833431
169,0.1596,116.168,356.094,0.00700813,203.384,-0.36071,-0.627354,-0.00623727,0.094996,-0.0862501,0.181003,-0.000138829,-0.000214373,0.121801,-0.006217858610467641,0.19841877454413037,-0.00013881936370030434,0.09965445649947968,-0.0002143500237502538,-0.08263523040170528
170,0.1606,116.322,356.578,0.00698062,203.657,-0.361802,-0.629247,-0.00627798,0.0955489,-0.086759,0.18206,-0.000139866,-0.000216083,0.122534,-0.006258314657955233,0.1996861728908499,-0.00013985621920697966,0.10026262356076932,-0.00021605965575000052,-0.08310195856390024
171,0.1616,116.474,357.061,0.0069532,203.928,-0.362891,-0.631133,-0.00631868,0.0961014,-0.0872674,0.183115,-0.000140904,-0.000217794,0.123267,-0.006298759121498243,0.2009525096784497,-0.00014089407349759941,0.10087068662223952,-0.00021777028460845393,-0.08356799105266977
172,0.1626,116.626,357.541,0.00692592,204.198,-0.363977,-0.633015,-0.00635936,0.0966535,-0.0877754,0.18417,-0.000141943,-0.000219507,0.123999,-0.006339182065768889,0.20222018315634083,-0.00014193292656894396,0.10147864513982952,-0.00021948291010109866,-0.08403342028418104
173,0.1636,116.777,358.019,0.00689875,204.467,-0.365059,-0.634891,-0.00640003,0.097205,-0.088283,0.185224,-0.000142982,-0.000221222,0.12473,-0.0063795934294635925,0.20348799124688233,-0.0001429717785610407,0.1020862781520262,-0.00022119753221760963,-0.08449824693705976
174,0.1646,116.928,358.494,0.0068717,204.735,-0.366139,-0.636762,-0.00644069,0.0977561,-0.0887901,0.186277,-0.000144023,-0.000222939,0.125461,-0.006419993213861552,0.20475593155507887,-0.0001440126291856192,0.10269380528864214,-0.00022291415094777278,-0.08496238018510693
175,0.1656,117.078,358.968,0.00684476,205.001,-0.367216,-0.638628,-0.00648133,0.0983068,-0.0892968,0.187329,-0.000145064,-0.000224658,0.126191,-0.006460371484845351,0.20602400168301394,-0.00014505347872673102,0.10330122600515801,-0.00022463276628115203,-0.08542591230128804
176,0.1666,117.227,359.439,0.00681794,205.267,-0.36829,-0.640489,-0.00652196,0.0988569,-0.089803,0.18838,-0.000146106,-0.000226378,0.126921,-0.006500738179896937,0.20729219922985598,-0.00014609532703813155,0.10390831897519548,-0.00022635237843393607,-0.08588875254973105
177,0.1676,117.376,359.909,0.00679123,205.531,-0.369362,-0.642345,-0.00656257,0.0994066,-0.0903088,0.18943,-0.000147149,-0.0002281,0.12765,-0.006541083365704914,0.20856052179186513,-0.0001471381741169342,0.10451530419273869,-0.00022807398717283878,-0.08635099310819949
178,0.1686,117.523,360.376,0.00676464,205.794,-0.37043,-0.644197,-0.00660317,0.0999558,-0.0908142,0.190479,-0.000148192,-0.000229823,0.128378,-0.006581416978942434,0.20982896696240028,-0.00014818102010794032,0.10512207060060574,-0.0002297965927173795,-0.08681263464963862
179,0.1696,117.671,360.841,0.00673815,206.055,-0.371496,-0.646044,-0.00664375,0.100505,-0.0913191,0.191528,-0.000149237,-0.000231549,0.129106,-0.006621729087103234,0.21109874343006263,-0.00014922586471288746,0.10572917033610763,-0.00023152219459920964,-0.08727358657329864
180,0.1706,117.817,361.304,0.00671178,206.316,-0.37256,-0.647886,-0.00668432,0.101053,-0.0918236,0.192575,-0.000150282,-0.000233276,0.129833,-0.006662029626052224,0.21236742785483487,-0.00015027070822593025,0.10633527597922998,-0.00023324879326946935,-0.08773394091472564
181,0.1716,117.963,361.765,0.00668551,206.575,-0.37362,-0.649724,-0.00672487,0.101601,-0.0923277,0.193622,-0.000151328,-0.000235005,0.13056,-0.0067023086640878304,0.21363744128781437,-0.00015131655049571702,0.10694171385926943,-0.0002349773884879891,-0.08819369834351465
182,0.1726,118.108,362.224,0.00665936,206.834,-0.374679,-0.651557,-0.00676541,0.102148,-0.0928313,0.194667,-0.000152374,-0.000236735,0.131286,-0.006742576136267386,0.21490635530606084,-0.00015236239167171206,0.10754737661041114,-0.00023670698048094962,-0.08865276839348801
183,0.1736,118.253,362.682,0.00663331,207.091,-0.375735,-0.653387,-0.00680594,0.102695,-0.0933345,0.195712,-0.000153422,-0.000238467,0.132011,-0.006782832043865095,0.2161765960325408,-0.00015341023144677113,0.10815337074970421,-0.00023843856900496174,-0.08911124295855766
184,0.1746,118.397,363.137,0.00660737,207.347,-0.376788,-0.655212,-0.00684645,0.103241,-0.0938373,0.196756,-0.00015447,-0.000240201,0.132736,-0.006823066456385529,0.21744694740683257,-0.00015445807012381962,0.10875858769932556,-0.00024017215404947834,-0.08956912270498352
185,0.1756,118.54,363.59,0.00658154,207.602,-0.377839,-0.657033,-0.00688694,0.103787,-0.0943396,0.197799,-0.000155519,-0.000241936,0.13346,-0.006863279376308595,0.21871740700248465,-0.000155506907547176,0.10936413518763,-0.0002419067358460092,-0.09002631730061339
186,0.1766,118.683,364.041,0.00655581,207.856,-0.378888,-0.65885,-0.00692742,0.104333,-0.0948415,0.198841,-0.000156568,-0.000243673,0.134184,-0.006903480737078471,0.2199879723901872,-0.00015655574387030136,0.10997001339514134,-0.00024364331414583607,-0.0904829184983047
187,0.1776,118.825,364.49,0.00653018,208.108,-0.379935,-0.660663,-0.00696788,0.104878,-0.095343,0.199883,-0.000157619,-0.000245412,0.134907,-0.006943660609403546,0.22125986239703033,-0.00015760657877805784,0.11057511192681413,-0.00024538188893841184,-0.09093892696099859
188,0.1786,118.967,364.937,0.00650466,208.36,-0.380979,-0.662473,-0.00700833,0.105423,-0.0958441,0.200923,-0.00015867,-0.000247152,0.135629,-0.0069838289259221975,0.22253063334027479,-0.00015865741258125343,0.11118054032706759,-0.00024712146046046435,-0.09139434335059238
189,0.1796,119.108,365.383,0.00647923,208.611,-0.382022,-0.664278,-0.00704876,0.105967,-0.0963447,0.201963,-0.000159722,-0.000248894,0.136351,-0.007023975758145062,0.22380272657277156,-0.00015970924512043183,0.11178518698998641,-0.0002488630284579463,-0.09184907751285387
190,0.1806,119.248,365.826,0.00645391,208.86,-0.383062,-0.66608,-0.00708918,0.106511,-0.0968449,0.203001,-0.000160774,-0.000250638,0.137073,-0.007064111037905385,0.22507369332057992,-0.00016076107655305094,0.11239016267017443,-0.00025060659292042153,-0.0923032210135235
191,0.1816,119.388,366.268,0.00642869,209.109,-0.3841,-0.667879,-0.00712958,0.107054,-0.0973447,0.204039,-0.000161828,-0.000252383,0.137793,-0.007104224837515272,0.22634598001680728,-0.0001618149065555352,0.11299435455175488,-0.000252351154089836,-0.09275677451120046
192,0.1826,119.527,366.708,0.00640357,209.356,-0.385136,-0.669674,-0.00716997,0.107597,-0.097844,0.205076,-0.000162882,-0.00025413,0.138513,-0.007144327088003721,0.22761836041329708,-0.00016286873544724134,0.11359887459861562,-0.00025409771170670226,-0.09320964798441589
193,0.1836,119.665,367.146,0.00637855,209.602,-0.386171,-0.671465,-0.00721034,0.108139,-0.0983429,0.206112,-0.000163937,-0.000255878,0.139233,-0.007184407862483311,0.22889083206118732,-0.00016392356306427214,0.11420260878583322,-0.00025584526601662994,-0.09366193285919333
194,0.1846,119.803,367.582,0.00635362,209.848,-0.387203,-0.673253,-0.00725069,0.108681,-0.0988414,0.207147,-0.000164992,-0.000257628,0.139952,-0.007224467163424175,0.23016339250880247,-0.0001649783895685264,0.11480667028567404,-0.0002575948167564679,-0.09411362979084881
195,0.1856,119.941,368.016,0.00632879,210.092,-0.388233,-0.675038,-0.00729103,0.109222,-0.0993395,0.208181,-0.000166048,-0.000259379,0.14067,-0.007264514920650167,0.23143603930166035,-0.00016603421479388647,0.11540994386508796,-0.00025934536417537846,-0.09456473943366661
196,0.1866,120.077,368.449,0.00630406,210.335,-0.389262,-0.67682,-0.00733135,0.109763,-0.0998372,0.209215,-0.000167105,-0.000261132,0.141388,-0.007304541208473125,0.23271000269186537,-0.0001670910387371327,0.11601354390380747,-0.0002610979080068798,-0.09501526244090042
197,0.1876,120.214,368.88,0.00627942,210.578,-0.390289,-0.678599,-0.00737166,0.110304,-0.100334,0.210247,-0.000168163,-0.000262887,0.142105,-0.0073445559559143225,0.23398281607338345,-0.00016814886139526752,0.11661747057849503,-0.00026285244824042486,-0.0954647471972615
198,0.1886,120.349,369.309,0.00625488,210.819,-0.391314,-0.680375,-0.00741195,0.110844,-0.100831,0.211279,-0.000169221,-0.000264643,0.142822,-0.007384549238084848,0.23525694367633299,-0.0001692066829341865,0.11722060684474322,-0.0002646079851301719,-0.0959141895222353
199,0.1896,120.485,369.736,0.00623043,211.06,-0.392338,-0.682148,-0.00745222,0.111384,-0.101328,0.21231,-0.00017028,-0.0002664,0.143538,-0.007424521057449063,0.23653115032592198,-0.00017026550318366418,0.11782406889252806,-0.0002663645186707919,-0.09636340852987257
200,0.1906,120.619,370.162,0.00620607,211.299,-0.39336,-0.683918,-0.00749248,0.111923,-0.101824,0.21334,-0.00017134,-0.00026816,0.144253,-0.007464481341825313,0.23780543355396278,-0.0001713253221404809,0.11842673847052176,-0.00026812404832088355,-0.09681150114308723
201,0.1916,120.753,370.586,0.00618181,211.537,-0.39438,-0.685685,-0.00753272,0.112462,-0.102319,0.214369,-0.000172401,-0.00026992,0.144968,-0.007504420167521619,0.23907979088949372,-0.00017238613980152806,0.11902973297497788,-0.00026988357487411907,-0.09725846881639566
202,0.1926,120.887,371.008,0.00615763,211.775,-0.395399,-0.68745,-0.00757294,0.113,-0.102814,0.215397,-0.000173462,-0.000271682,0.145682,-0.007544337536998791,0.24035421985878536,-0.00017344695633714213,0.11963193294858598,-0.00027164509778743184,-0.09770521529545606
203,0.1936,121.02,371.428,0.00613355,212.011,-0.396416,-0.689212,-0.00761315,0.113538,-0.103309,0.216424,-0.000174524,-0.000273446,0.146396,-0.0075842433768741335,0.24162871798534757,-0.00017450877157265676,0.12023445699294721,-0.0002734086170500527,-0.0981517406897322
204,0.1946,121.152,371.847,0.00610955,212.247,-0.397432,-0.690971,-0.00765334,0.114075,-0.103803,0.217451,-0.000175587,-0.000275211,0.147109,-0.007624127764650601,0.2429045256938409,-0.00017557158550496332,0.12083618444571353,-0.0002751731329265761,-0.09859714370622852
205,0.1956,121.284,372.264,0.00608564,212.482,-0.398446,-0.692728,-0.00769352,0.114612,-0.104297,0.218476,-0.00017665,-0.000276978,0.147821,-0.007664000626145917,0.24417915596909645,-0.0001766343983073959,0.12143823511289731,-0.00027693964513497704,-0.09904232674797298
206,0.1966,121.415,372.68,0.00606183,212.715,-0.399459,-0.694483,-0.00773367,0.115149,-0.104791,0.219501,-0.000177714,-0.000278746,0.148533,-0.007703842116697501,0.24545509341019245,-0.0001776982098025126,0.12204060916811121,-0.0002787071539431807,-0.09948728992360611
207,0.1976,121.546,373.094,0.0060381,212.948,-0.400471,-0.696235,-0.00777382,0.115685,-0.105284,0.220525,-0.000178779,-0.000280516,0.149245,-0.007743682007645303,0.2467310926259445,-0.00017876301998687172,0.12264218414231598,-0.00028047665906549835,-0.0999311332732985
208,0.1986,121.677,373.506,0.00601445,213.18,-0.401481,-0.697985,-0.00781394,0.11622,-0.105776,0.221548,-0.000179844,-0.000282287,0.149956,-0.00778349053255889,0.24800715112633775,-0.00017982782903724903,0.12324295840361721,-0.0002822471607736299,-0.10037385823645639
209,0.1996,121.807,373.917,0.00599089,213.411,-0.40249,-0.699733,-0.00785405,0.116755,-0.106268,0.22257,-0.00018091,-0.00028406,0.150666,-0.007823287538619272,0.24928326641862975,-0.00018089363677276094,0.12384405416514199,-0.00028401965877811186,-0.1008163654325076
210,0.2006,121.936,374.326,0.00596742,213.641,-0.403498,-0.701479,-0.00789414,0.11729,-0.10676,0.223592,-0.000181977,-0.000285834,0.151376,-0.007863063105715273,0.2505606865674186,-0.00018196044319007676,0.1244454715989387,-0.00028579315335408584,-0.10125865496856712
211,0.2016,122.065,374.733,0.00594404,213.87,-0.404505,-0.703222,-0.00793421,0.117825,-0.107252,0.224612,-0.000183045,-0.00028761,0.152085,-0.007902817236297377,0.25183690923062696,-0.00018302824828608788,0.12504721087714832,-0.00028756864420886874,-0.10170072695169718
212,0.2026,122.193,375.139,0.00592074,214.099,-0.405511,-0.704964,-0.00797427,0.118358,-0.107743,0.225632,-0.000184113,-0.000289387,0.152793,-0.007942559853388875,0.25311443430506886,-0.0001840960522416779,0.12564702087571056,-0.0002893451316209328,-0.10214168363104026
213,0.2036,122.321,375.544,0.00589752,214.326,-0.406515,-0.706705,-0.00801431,0.118892,-0.108233,0.226651,-0.000185182,-0.000291165,0.153501,-0.007982281038068972,0.2543920087272451,-0.0001851648548717444,0.12624827690593055,-0.0002911226155850599,-0.10258152643577345
214,0.2046,122.448,375.947,0.00587439,214.553,-0.407519,-0.708443,-0.00805433,0.119425,-0.108723,0.227669,-0.000186252,-0.000292945,0.154208,-0.008021980792784378,0.25566962999101683,-0.00018623465617306767,0.1268487272433214,-0.000292902095803127,-0.10302115377032672
215,0.2056,122.575,376.348,0.00585134,214.778,-0.408522,-0.71018,-0.00809434,0.119957,-0.109213,0.228686,-0.000187322,-0.000294727,0.154915,-0.008061669039364228,0.2569472955875507,-0.00018730445632964,0.12744837025711364,-0.0002946835722642538,-0.10346056574025475
216,0.2066,122.702,376.748,0.00582838,215.003,-0.409524,-0.711916,-0.00813433,0.120489,-0.109702,0.229702,-0.000188393,-0.00029651,0.155621,-0.008101335860075998,0.2582250030053257,-0.00018837525515313924,0.128048332365861,-0.00029646604525435105,-0.1038988663503746
217,0.2076,122.828,377.146,0.0058055,215.227,-0.410525,-0.713651,-0.0081743,0.121021,-0.110191,0.230718,-0.000189465,-0.000298294,0.156327,-0.008140981257363067,0.25950400923352124,-0.00018944705264034578,0.1286486137393672,-0.0002982495147680897,-0.1043369526838911
218,0.2086,122.953,377.543,0.00578271,215.45,-0.411525,-0.715385,-0.00821425,0.121552,-0.11068,0.231732,-0.000190538,-0.00030008,0.157032,-0.008180605233667704,0.26078179402628954,-0.00019051984878815098,0.12924808529887621,-0.0003000349805000191,-0.10477482484555978
219,0.2096,123.078,377.938,0.00576002,215.673,-0.412525,-0.71712,-0.00825419,0.122083,-0.111168,0.232746,-0.000191612,-0.000301868,0.157737,-0.008220217709228206,0.26206087514996645,-0.00019159364359322417,0.129847875262312,-0.0003018224424394811,-0.10521158815212062
220,0.2106,123.203,378.332,0.00573746,215.894,-0.413523,-0.718856,-0.0082941,0.122614,-0.111656,0.233759,-0.000192686,-0.000303656,0.158441,-0.00825979885049255,0.26333999057907587,-0.00019266743724499769,0.1304479837987922,-0.0003036099011830551,-0.10564813837018572
221,0.2116,123.327,378.724,0.00571561,216.115,-0.414517,-0.720602,-0.00833401,0.123144,-0.112143,0.234771,-0.000193762,-0.000305447,0.159144,-0.00829937841210504,0.2646191377888607,-0.00019374322935605814,0.13104728002967825,-0.00030540035581427816,-0.10608358168774545
222,0.2126,123.45,379.115,0.00572942,216.335,-0.415463,-0.722414,-0.00837389,0.123673,-0.11263,0.235782,-0.000194841,-0.000307239,0.159847,-0.008338926644296918,0.2658983142519111,-0.00019482201972509383,0.13164576232542458,-0.0003071918069317281,-0.10651881299603805
223,0.2136,123.573,379.504,0.00567815,216.554,-0.416639,-0.724099,-0.00841375,0.124202,-0.113116,0.236793,-0.000195926,-0.00030903,0.160549,-0.008378453466906133,0.26717878461632294,-0.00019590680775471991,0.13224456130205997,-0.0003089822551478605,-0.1069529393516726
224,0.2146,123.696,379.892,0.0056519,216.772,-0.417589,-0.72589,-0.0084536,0.124731,-0.113602,0.237802,-0.000197004,-0.000310826,0.161251,-0.008417968798187236,0.26845801327232777,-0.0001969845959862715,0.13284367712715306,-0.0003107776986034372,-0.10738685477315957
225,0.2156,123.818,380.279,0.00561702,216.989,-0.41862,-0.72766,-0.00849343,0.125259,-0.114088,0.238811,-0.000198085,-0.000312623,0.161952,-0.008457462723963305,0.2697385333214448,-0.00019806538246169847,0.13344197652581768,-0.00031257413852181504,-0.10782055936298784
226,0.2166,123.94,380.664,0.00561124,217.206,-0.419636,-0.729437,-0.00853325,0.125787,-0.114573,0.239819,-0.000199167,-0.000314421,0.162653,-0.008496945161697078,0.2710190750476369,-0.00019914716756974649,0.13404059190997786,-0.000314371574897665,-0.10825316147720421
227,0.2176,124.061,381.048,0.00557535,217.422,-0.420671,-0.731219,-0.00857305,0.126314,-0.115058,0.240826,-0.000200251,-0.000316222,0.163353,-0.00853640619799978,0.27229963591039175,-0.00020023095110677236,0.1346383888075613,-0.00031617200709310733,-0.10868555383026635
228,0.2186,124.182,381.431,0.00556304,217.637,-0.421699,-0.733006,-0.00861283,0.126841,-0.115543,0.241832,-0.000201335,-0.000318024,0.164052,-0.008575845835301577,0.2735802133665788,-0.00020131473346907125,0.13523650082713745,-0.00031797343572803616,-0.10911773652388379
229,0.2196,124.303,381.812,0.00553436,217.851,-0.422737,-0.734801,-0.00865259,0.127368,-0.116027,0.242838,-0.00020242,-0.000319829,0.164751,-0.008615264076031415,0.27486207973189947,-0.00020239951445399917,0.1358349281348188,-0.00031977786015757736,-0.10954881920898119
230,0.2206,124.422,382.192,0.00551707,218.065,-0.423774,-0.7366,-0.00869233,0.127894,-0.116511,0.243842,-0.000203505,-0.000321635,0.16545,-0.008654660922616464,0.27614268401572817,-0.0002034842942620907,0.13643253446370363,-0.0003215832810083974,-0.10997969330054258
231,0.2216,124.542,382.57,0.00549218,218.277,-0.424818,-0.738405,-0.00873206,0.128419,-0.116994,0.244846,-0.000204592,-0.000323443,0.166147,-0.00869404629054249,0.27742457467190884,-0.00020457107248395,0.13702931818631692,-0.00032339069795195297,-0.11040946930941709
232,0.2226,124.661,382.947,0.00547248,218.489,-0.425862,-0.740216,-0.00877177,0.128945,-0.117477,0.245849,-0.00020568,-0.000325253,0.166845,-0.008733410268387365,0.2787064742854941,-0.00020565884931889045,0.13762755292962714,-0.0003252001109772529,-0.11083903778660231
233,0.2236,124.78,383.323,0.00544943,218.7,-0.426912,-0.742033,-0.00881146,0.129469,-0.117959,0.246852,-0.000206769,-0.000327064,0.167541,-0.008772752858574928,0.27998966028940875,-0.00020674762476358133,0.13822382597725724,-0.0003270105204005169,-0.11126751010026614
234,0.2246,124.898,383.697,0.0054287,218.911,-0.427963,-0.743856,-0.00885114,0.129994,-0.118441,0.247853,-0.000207859,-0.000328878,0.168237,-0.008812083975407003,0.28127157142884407,-0.000207837398814803,0.1388215503748207,-0.00032882392555866335,-0.1116957759400391
235,0.2256,125.015,384.071,0.00540653,219.12,-0.429019,-0.745685,-0.0088908,0.130518,-0.118923,0.248853,-0.00020895,-0.000330694,0.168933,-0.00885139370863941,0.2825534838496573,-0.0002089281714691138,0.13941844924106217,-0.0003306393267660246,-0.11212383540541748
236,0.2266,125.133,384.442,0.00538541,219.329,-0.430078,-0.747519,-0.00893044,0.131041,-0.119404,0.249853,-0.000210041,-0.000332511,0.169628,-0.008890682060692434,0.28383667882406116,-0.00021001894293348755,0.1400145209491801,-0.0003324557243441495,-0.1125508011470947
237,0.2276,125.25,384.813,0.0053637,219.537,-0.43114,-0.749359,-0.00897006,0.131564,-0.119885,0.250852,-0.000211134,-0.000334331,0.170323,-0.008929949033985363,0.2851198725147359,-0.00021111171278553886,0.14061090448433688,-0.00033427511761907613,-0.11297756156763383
238,0.2286,125.366,385.182,0.00534248,219.745,-0.432206,-0.751205,-0.00900967,0.132087,-0.120366,0.25185,-0.000212228,-0.000336152,0.171016,-0.008969204541243725,0.2864030623527296,-0.00021220548123102034,0.14120760000966093,-0.0003360955072466698,-0.11340411676577056
239,0.2296,125.482,385.55,0.00532103,219.951,-0.433275,-0.753057,-0.00904925,0.132609,-0.120846,0.252847,-0.000213323,-0.000337976,0.17171,-0.00900842876387542,0.2876862457665357,-0.00021330024826671234,0.14180346588432902,-0.0003379188925455301,-0.11382958067021709
240,0.2306,125.598,385.917,0.00529982,220.157,-0.434347,-0.754915,-0.00908882,0.133131,-0.121326,0.253844,-0.000214419,-0.000339802,0.172403,-0.009047641524519645,0.2889707091521654,-0.00021439601388917318,0.14239964288217966,-0.0003397442738390932,-0.11425484040099498
241,0.2316,125.713,386.283,0.00527855,220.363,-0.435423,-0.756779,-0.00912838,0.133652,-0.121805,0.25484,-0.000215516,-0.000341629,0.173095,-0.009086842824414187,0.2902551635305781,-0.0002154927780951832,0.14299498817010203,-0.0003415706514579009,-0.11467901073553766
242,0.2326,125.828,386.647,0.00525742,220.567,-0.436502,-0.758648,-0.00916791,0.134174,-0.122284,0.255834,-0.000216614,-0.000343459,0.173787,-0.009126012847316733,0.29153831478365033,-0.00021659054088141172,0.14359178730494948,-0.00034340002470967246,-0.11510297794114321
243,0.2336,125.942,387.01,0.00523628,220.771,-0.437584,-0.760524,-0.00920743,0.134694,-0.122762,0.256829,-0.000217713,-0.00034529,0.174478,-0.009165171413510587,0.2928240349465665,-0.00021768930224463912,0.14418660967476082,-0.0003452303942685919,-0.11552585764138723
244,0.2346,126.056,387.372,0.00521524,220.974,-0.43867,-0.762405,-0.00924693,0.135214,-0.12324,0.257822,-0.000218813,-0.000347124,0.175169,-0.00920430861627497,0.29410844681822157,-0.0002187890621815347,0.14478174143263844,-0.00034706375943482914,-0.11594853525343751
245,0.2356,126.169,387.733,0.00519422,221.176,-0.439759,-0.764292,-0.00928642,0.135734,-0.123718,0.258814,-0.000219914,-0.00034896,0.175859,-0.009243434365584613,0.2953928393508345,-0.00021988982068876783,0.14537718273950606,-0.0003488991205409242,-0.11637101087386892
246,0.2366,126.283,388.092,0.00517328,221.378,-0.440852,-0.766185,-0.00932588,0.136253,-0.124196,0.259806,-0.000221016,-0.000350797,0.176548,-0.009282528848325367,0.2966785066330109,-0.00022099157776311884,0.14597178778400988,-0.0003507354779265226,-0.11679328459921068
247,0.2376,126.395,388.45,0.00515237,221.579,-0.441948,-0.768084,-0.00936533,0.136772,-0.124673,0.260797,-0.000222119,-0.000352637,0.177237,-0.009321611881644376,0.2979641519651288,-0.00022209433340125706,0.14656670150862738,-0.00035257483088102504,-0.11721447374086047
248,0.2386,126.508,388.807,0.00513153,221.78,-0.443047,-0.769989,-0.00940476,0.137291,-0.125149,0.261787,-0.000223224,-0.000354479,0.177926,-0.009360673560381838,0.29924977275286113,-0.00022319908737666871,0.1471619240736053,-0.00035441617974230066,-0.11763457965821933
249,0.2396,126.62,389.163,0.00511073,221.979,-0.44415,-0.7719,-0.00944418,0.137809,-0.125625,0.262776,-0.000224329,-0.000356323,0.178614,-0.009399723792944958,0.3005353663993833,-0.00022430384013127913,0.14775630788239114,-0.00035625952449935827,-0.1180544856527469
250,0.2406,126.731,389.518,0.00508999,222.178,-0.445256,-0.773816,-0.00948357,0.138327,-0.126101,0.263764,-0.000225436,-0.000358169,0.179301,-0.00943874276934098,0.3018209303053807,-0.00022541059121439222,0.14835099966174758,-0.0003581048651409846,-0.11847419181958396
251,0.2416,126.842,389.871,0.00506929,222.376,-0.446366,-0.775739,-0.00952295,0.138844,-0.126577,0.264752,-0.000226543,-0.000360018,0.179988,-0.009477750303587329,0.30310776497617176,-0.00022651734107226318,0.14894485062581952,-0.0003599532012963369,-0.11889369825382567
252,0.2426,126.953,390.224,0.00504864,222.574,-0.447479,-0.777667,-0.00956231,0.139361,-0.127052,0.265739,-0.000227652,-0.000361868,0.180674,-0.009516736492082178,0.3043945672726731,-0.000227626089249644,0.1495390086902184,-0.0003618025336722397,-0.1193121243630868
253,0.2436,127.064,390.575,0.00502804,222.771,-0.448595,-0.779602,-0.00960166,0.139877,-0.127526,0.266725,-0.000228762,-0.000363721,0.18136,-0.009555711241667986,0.30568133458804114,-0.00022873583596882963,0.15013232388085718,-0.00036365486153600024,-0.11972947149705393
254,0.2446,127.174,390.925,0.00500749,222.967,-0.449715,-0.781542,-0.00964098,0.140393,-0.128001,0.26771,-0.000229873,-0.000365576,0.182045,-0.009594654745467612,0.3069680643129651,-0.00022984658122626733,0.15072594530113492,-0.0003655091852363679,-0.12014750070829538
255,0.2456,127.283,391.274,0.00498699,223.163,-0.450838,-0.783488,-0.00968029,0.140909,-0.128475,0.268695,-0.000230986,-0.000367433,0.18273,-0.009633586814374762,0.3082560620910819,-0.0002309593247877828,0.15131987310910677,-0.00036736550476212937,-0.1205644519677046
256,0.2466,127.393,391.622,0.00496654,223.358,-0.451965,-0.785441,-0.00971958,0.141424,-0.128948,0.269678,-0.000232099,-0.000369292,0.183414,-0.009672497546342473,0.3095427100839998,-0.0002320720671108445,0.1519129555493779,-0.0003692238201024045,-0.12098032661981506
257,0.2476,127.501,391.968,0.00494613,223.552,-0.453095,-0.787399,-0.00975886,0.141939,-0.129421,0.270661,-0.000233214,-0.000371153,0.184098,-0.009711396846651565,0.31083062347373525,-0.00023318680772899114,0.15250634350576942,-0.00037108413124586903,-0.12139600460972932
258,0.2486,127.61,392.314,0.00492576,223.746,-0.454228,-0.789363,-0.00979811,0.142453,-0.129894,0.271643,-0.000234329,-0.000373017,0.184781,-0.009750264911534634,0.31211849138563785,-0.0002343015471042431,0.1530988840362022,-0.0003729474378084685,-0.12181148603044667
259,0.2496,127.718,392.658,0.00490544,223.939,-0.455365,-0.791333,-0.00983735,0.142967,-0.130366,0.272625,-0.000235446,-0.000374883,0.185463,-0.009789121548767321,0.31340762460499394,-0.00023541828476569826,0.15369172921075447,-0.0003748127401481671,-0.12222589320125443
260,0.2506,127.826,393.002,0.00488517,224.132,-0.456506,-0.793309,-0.00987657,0.143481,-0.130838,0.273605,-0.000236564,-0.000376751,0.186145,-0.009827956857854758,0.31469539498152677,-0.00023653602094331205,0.15428487918605338,-0.00037668003825386265,-0.12264010481803189
261,0.2516,127.933,393.344,0.00486494,224.323,-0.457649,-0.795291,-0.00991578,0.143994,-0.13131,0.274585,-0.000237684,-0.000378621,0.186827,-0.009866780742519121,0.3159844279916182,-0.00023765575539591577,0.15487717924105038,-0.00037854933211445285,-0.12305412097305879
262,0.2526,128.04,393.685,0.00484475,224.515,-0.458796,-0.797279,-0.00995496,0.144507,-0.131781,0.275564,-0.000238804,-0.000380494,0.187508,-0.009905573402096524,0.317273407599189,-0.00023877548859441156,0.15546978322392646,-0.00038042162133811175,-0.12346706522607487
263,0.2536,128.147,394.025,0.00482461,224.705,-0.459947,-0.799273,-0.00999413,0.145019,-0.132252,0.276542,-0.000239926,-0.000382368,0.188188,-0.009944354641250763,0.31856233117271215,-0.00023989722005901548,0.15606153522852328,-0.00038229490667274213,-0.1238798150281446
264,0.2546,128.254,394.364,0.00480451,224.895,-0.461101,-0.801273,-0.0100333,0.145531,-0.132722,0.27752,-0.000241049,-0.000384246,0.188868,-0.009983134361373658,0.31985251593010866,-0.00024101995002401289,0.15665359028772174,-0.0003841721869601855,-0.12429149476276546
265,0.2556,128.36,394.702,0.00478445,225.085,-0.462259,-0.803279,-0.0100724,0.146043,-0.133193,0.278496,-0.000242173,-0.000386125,0.189548,-0.010021843264056196,0.3211413208201357,-0.0002421436784860731,0.1572459485567257,-0.00038605046333595183,-0.12470385634995518
266,0.2566,128.465,395.039,0.00476443,225.273,-0.46342,-0.805291,-0.0101115,0.146554,-0.133662,0.279472,-0.000243298,-0.000388007,0.190226,-0.010060550653250178,0.3224313841977775,-0.00024326840544175443,0.1578374523527868,-0.0003879317350187206,-0.12511427399086728
267,0.2576,128.571,395.375,0.00474445,225.461,-0.464584,-0.807309,-0.0101506,0.147065,-0.134132,0.280447,-0.000244425,-0.000389891,0.190905,-0.010099256529014888,0.323721383569872,-0.00024439513064333784,0.15842925848452794,-0.00038981500238133293,-0.12552537366610017
268,0.2586,128.676,395.71,0.00472451,225.649,-0.465752,-0.809333,-0.0101897,0.147575,-0.134601,0.281421,-0.000245553,-0.000391777,0.191582,-0.010137960891409392,0.3250113162927277,-0.00024552285432954957,0.15902020808569461,-0.0003917002654124646,-0.12593540610572773
269,0.2596,128.78,396.044,0.00470461,225.836,-0.466923,-0.811363,-0.0102288,0.148085,-0.135069,0.282395,-0.000246682,-0.000393666,0.19226,-0.010176663740492864,0.3263025060221185,-0.00024665157649716996,0.15961145914802377,-0.000393588523707189,-0.12634437263003917
270,0.2606,128.885,396.376,0.00468476,226.022,-0.468098,-0.813399,-0.0102678,0.148595,-0.135537,0.283368,-0.000247812,-0.000395557,0.192936,-0.010215266097856057,0.3275936263886745,-0.00024778129714253527,0.16020301182530017,-0.0003954787776440094,-0.1267531478027969
271,0.2616,128.988,396.708,0.00466493,226.208,-0.469276,-0.815441,-0.0103068,0.149104,-0.136005,0.28434,-0.000248944,-0.00039745,0.193613,-0.010253866949756829,0.32888467474137695,-0.0002489130160135966,0.16079370547710048,-0.0003973710272117126,-0.12716173171353262
272,0.2626,129.092,397.039,0.00464515,226.393,-0.470458,-0.817489,-0.0103459,0.149613,-0.136473,0.285311,-0.000250077,-0.000399346,0.194288,-0.010292565267002063,0.3301756484268432,-0.00025004573335341007,0.16138469986850135,-0.0003992662719994877,-0.127570124451736
273,0.2636,129.195,397.368,0.00462541,226.578,-0.471643,-0.819543,-0.0103848,0.150121,-0.13694,0.286281,-0.000251211,-0.000401245,0.194963,-0.010331064137405255,0.3314665447893361,-0.000251179449158756,0.16197483317720396,-0.00040116451199045944,-0.1279774540847448
274,0.2646,129.298,397.697,0.0046057,226.762,-0.472832,-0.821603,-0.0104238,0.150629,-0.137406,0.287251,-0.000252347,-0.000403145,0.195638,-0.010369660473270481,0.332758693928799,-0.00025231516317381075,0.1625652663497863,-0.0004030637479736088,-0.128383721923383
275,0.2656,129.401,398.025,0.00458602,226.945,-0.474024,-0.823669,-0.0104628,0.151137,-0.137873,0.28822,-0.000253483,-0.000405048,0.196312,-0.010408255303907876,0.33405076300958547,-0.0002534508758986753,0.16315599953861804,-0.00040496597913330934,-0.12879067169507719
276,0.2666,129.503,398.351,0.00456639,227.128,-0.47522,-0.825741,-0.0105017,0.151644,-0.138339,0.289188,-0.000254622,-0.000406954,0.196986,-0.010446749674056233,0.33534274936869135,-0.00025458958656965347,0.16374586914969513,-0.0004068712054524637,-0.12919656066259266
277,0.2676,129.605,398.677,0.00454678,227.31,-0.476419,-0.827819,-0.0105406,0.152151,-0.138804,0.290155,-0.000255761,-0.000408862,0.197659,-0.01048524254680272,0.33663465034078066,-0.0002557282959436691,0.16433603790049034,-0.0004087784273227868,-0.12960139013173855
278,0.2686,129.707,399.002,0.00452722,227.492,-0.477621,-0.829904,-0.0105796,0.152657,-0.13927,0.291122,-0.000256902,-0.000410772,0.198331,-0.010523832869827165,0.33792780118532595,-0.0002568690035068544,0.1649253410167828,-0.0004106876447326213,-0.13000690139247506
279,0.2696,129.808,399.326,0.00450768,227.673,-0.478827,-0.831994,-0.0106184,0.153163,-0.139734,0.292088,-0.000258044,-0.000412685,0.199003,-0.0105622238003229,0.33922086389000494,-0.00025801070951059213,0.16551494239590636,-0.00041259985725816684,-0.13041048455169524
280,0.2706,129.909,399.648,0.00448818,227.854,-0.480037,-0.834091,-0.0106573,0.153669,-0.140199,0.293053,-0.000259187,-0.0004146,0.199675,-0.010600712181213279,0.34051383578225947,-0.0002591534139512186,0.16610484218882005,-0.0004145140652965784,-0.13081474967745255
281,0.2716,130.01,399.97,0.00446872,228.034,-0.48125,-0.836193,-0.0106962,0.154174,-0.140663,0.294017,-0.000260332,-0.000416518,0.200346,-0.010639199064934712,0.3418067141872225,-0.0002602981165652496,0.16669387385210221,-0.00041643126842005884,-0.1312179580820183
282,0.2726,130.11,400.291,0.00444928,228.213,-0.482466,-0.838302,-0.010735,0.154679,-0.141127,0.294981,-0.000261478,-0.000418438,0.201016,-0.010677585519308863,0.3431008395278945,-0.0002614438176071765,0.1672832030514959,-0.00041835046702953793,-0.13162097944128215
283,0.2736,130.21,400.611,0.00442988,228.392,-0.483687,-0.840417,-0.0107738,0.155183,-0.14159,0.295944,-0.000262625,-0.000420361,0.201686,-0.010715970484317605,0.34439486861136004,-0.0002625905170734466,0.16787166206504867,-0.0004202726606934437,-0.13202294586539287
284,0.2746,130.31,400.93,0.00441051,228.57,-0.48491,-0.842538,-0.0108126,0.155687,-0.142053,0.296906,-0.000263774,-0.000422286,0.202356,-0.010754353960018559,0.34568879875557523,-0.000263739214697023,0.16846041773669596,-0.00042219684981648076,-0.1324247262221272
285,0.2756,130.409,401.248,0.00439117,228.748,-0.486137,-0.844665,-0.0108514,0.156191,-0.142516,0.297867,-0.000264924,-0.000424214,0.203025,-0.010792735946469567,0.3469826272762102,-0.00026488891073583876,0.16904947021599104,-0.0004241240339631913,-0.13282632059761434
286,0.2766,130.508,401.565,0.00437186,228.926,-0.487368,-0.846798,-0.0108902,0.156694,-0.142978,0.298827,-0.000266076,-0.000426144,0.203693,-0.010831116443728361,0.3482763514866585,-0.0002660406049204145,0.16963765001432773,-0.00042605321354216574,-0.13322686230523928
287,0.2776,130.607,401.881,0.00435258,229.102,-0.488602,-0.848937,-0.0109289,0.157197,-0.14344,0.299787,-0.000267229,-0.000428077,0.204361,-0.010869396538797371,0.3495713182686877,-0.00026719329751112575,0.17022612574152296,-0.00042798538811383846,-0.13362721900533547
288,0.2786,130.706,402.196,0.00433333,229.279,-0.48984,-0.851082,-0.0109676,0.157699,-0.143902,0.300746,-0.000268383,-0.000430013,0.205029,-0.010907675152455387,0.35086617794888575,-0.0002683469885043088,0.1708137267321539,-0.00042992055766089,-0.13402739078335635
289,0.2796,130.804,402.51,0.00431411,229.454,-0.491081,-0.853234,-0.0110063,0.158201,-0.144363,0.301704,-0.000269539,-0.000431951,0.205695,-0.010945952284759697,0.3521609278335327,-0.00026950267762726465,0.17140162277253368,-0.00043185772259768385,-0.13442651215166135
290,0.2806,130.902,402.824,0.00429492,229.63,-0.492325,-0.855391,-0.011045,0.158703,-0.144824,0.302662,-0.000270696,-0.000433891,0.206362,-0.010984227935767699,0.3534569186828962,-0.00027065936514347744,0.17198981401081403,-0.00043379688291278473,-0.13482544956741993
291,0.2816,130.999,403.136,0.00427576,229.804,-0.493574,-0.857555,-0.0110837,0.159205,-0.145284,0.303619,-0.000271854,-0.000435834,0.207028,-0.011022502105536569,0.35475279693291606,-0.0002718170510496165,0.17257830059522172,-0.00043573903815863346,-0.13522333833918532
292,0.2826,131.097,403.448,0.00425662,229.978,-0.494825,-0.859725,-0.0111224,0.159705,-0.145744,0.304575,-0.000273014,-0.00043778,0.207693,-0.011060774794123818,0.3560485598827867,-0.00027297673506920805,0.1731647363422386,-0.00043768418831779954,-0.13562104412420584
293,0.2836,131.194,403.759,0.00423751,230.152,-0.496081,-0.861901,-0.011161,0.160206,-0.146204,0.30553,-0.000274176,-0.000439728,0.208358,-0.01109894711148629,0.3573442048294653,-0.0002741384171953687,0.17375263913249794,-0.00043963133381241803,-0.13601856700663606
294,0.2846,131.29,404.068,0.00421843,230.325,-0.497339,-0.864083,-0.0111996,0.160706,-0.146663,0.306485,-0.000275338,-0.000441679,0.209022,-0.011137117955425824,0.3586410877080861,-0.00027530009797160915,0.17433966219560038,-0.00044158147418937865,-0.13641504348606714
295,0.2856,131.387,404.377,0.00419937,230.498,-0.498602,-0.866272,-0.0112382,0.161206,-0.147122,0.307438,-0.000276503,-0.000443633,0.209686,-0.01117528732599915,0.35993648982573956,-0.000276464776568508,0.17492697884362451,-0.0004435346094309178,-0.1368113380245528
296,0.2866,131.483,404.685,0.00418034,230.67,-0.499868,-0.868466,-0.0112768,0.161705,-0.147581,0.308391,-0.000277668,-0.000445589,0.210349,-0.011213455223263114,0.3612331270500462,-0.00027762945380860327,0.17551341370939788,-0.00044548973996516583,-0.13720745070558482
297,0.2876,131.579,404.992,0.00416133,230.841,-0.501137,-0.870667,-0.0113154,0.162204,-0.148039,0.309344,-0.000278835,-0.000447548,0.211012,-0.011251621647274779,0.3625310005586233,-0.0002787961291342844,0.17610014127919293,-0.0004474478653327951,-0.137602519215567
298,0.2886,131.674,405.299,0.00414235,231.012,-0.50241,-0.872874,-0.011354,0.162703,-0.148497,0.310295,-0.000280004,-0.00044951,0.211674,-0.01128978659809099,0.3638273838727162,-0.00027996480253855704,0.17668716169910526,-0.00044940898551615316,-0.1379974068256008
299,0.2896,131.769,405.604,0.00412339,231.183,-0.503687,-0.875087,-0.0113925,0.163201,-0.148955,0.311246,-0.000281174,-0.000451474,0.212336,-0.011327851208558504,0.36512500063375186,-0.00028113447429545246,0.1772732978414171,-0.0004513721009491434,-0.13839211361851944
300,0.2906,131.864,405.908,0.00410446,231.353,-0.504967,-0.877307,-0.011431,0.163699,-0.149412,0.312196,-0.000282346,-0.000453441,0.212998,-0.011365914353566708,0.3664224855921274,-0.000282306144119282,0.1778597259522221,-0.00045333821116655404,-0.1387857784633274
301,0.2916,131.959,406.212,0.00408555,231.523,-0.506251,-0.879532,-0.0114695,0.164197,-0.149869,0.313146,-0.000283519,-0.000455411,0.213658,-0.011403976033172003,0.3677212037468891,-0.0002834788122864085,0.1784464461769566,-0.0004553073161507326,-0.13917926344440323
302,0.2926,132.053,406.515,0.00406666,231.692,-0.507538,-0.881764,-0.011508,0.164694,-0.150326,0.314094,-0.000284693,-0.000457383,0.214319,-0.011442036247430898,0.36901841823055537,-0.0002846524787933902,0.17903227962826018,-0.00045727841634124466,-0.13957256864392587
303,0.2936,132.147,406.817,0.00404779,231.861,-0.508829,-0.884002,-0.0115465,0.16519,-0.150782,0.315042,-0.000285869,-0.000459358,0.214979,-0.011480094996399792,0.37031686305664246,-0.0002858281433507637,0.17961722469333985,-0.00045925251126688327,-0.13996483410930105
304,0.2946,132.241,407.118,0.00402895,232.029,-0.510123,-0.886246,-0.0115849,0.165687,-0.151238,0.315989,-0.000287046,-0.000461336,0.215638,-0.011518053431945341,0.3716151677762143,-0.0002870048062385555,0.18020364016618662,-0.0004612296009101069,-0.1403569207424007
305,0.2956,132.335,407.418,0.00401012,232.196,-0.511421,-0.888497,-0.0116233,0.166183,-0.151693,0.316936,-0.000288225,-0.000463317,0.216297,-0.01155601040991483,0.37291470257270487,-0.0002881834671650818,0.18078916637020348,-0.00046320968525292994,-0.14074796937315304
306,0.2966,132.428,407.718,0.00399132,232.364,-0.512723,-0.890753,-0.0116618,0.166678,-0.152148,0.317881,-0.000289406,-0.0004653,0.216955,-0.01159406477096292,0.37421272018336027,-0.00028936412612323714,0.18137380169286166,-0.0004651917647429116,-0.14113884011725064
307,0.2976,132.521,408.016,0.00397254,232.53,-0.514028,-0.893016,-0.0117002,0.167174,-0.152603,0.318826,-0.000290588,-0.000467286,0.217613,-0.01163201883015319,0.3755119650004215,-0.00029054578339648973,0.18195990844095888,-0.0004671768389009623,-0.14152953305561355
308,0.2986,132.614,408.314,0.00395378,232.696,-0.515337,-0.895285,-0.0117385,0.167668,-0.153057,0.319771,-0.000291771,-0.000469275,0.21827,-0.0116698725989276,0.37681243818414667,-0.00029172843898128686,0.18254394087986414,-0.00046916490770909647,-0.14191919018874422
309,0.2996,132.706,408.611,0.00393503,232.862,-0.516649,-0.897561,-0.0117769,0.168163,-0.153511,0.320714,-0.000292956,-0.000471267,0.218927,-0.011707823747153179,0.3781113846703652,-0.0002929130925811707,0.18312944503092177,-0.0004711559711494395,-0.14230867045768758
310,0.3006,132.799,408.907,0.00391631,233.028,-0.517965,-0.899842,-0.0118152,0.168657,-0.153965,0.321657,-0.000294143,-0.000473261,0.219583,-0.011745674612654966,0.37941155664084536,-0.00029409974418903584,0.18371405536363028,-0.0004731490296773222,-0.14269797394272188
311,0.3016,132.891,409.203,0.0038976,233.192,-0.519285,-0.90213,-0.0118536,0.169151,-0.154418,0.322599,-0.000295331,-0.000475258,0.220239,-0.011783622850139008,0.3807115745394989,-0.0002952873940930134,0.18429895456518808,-0.00047514508280566137,-0.14308624381076107
312,0.3026,132.982,409.497,0.00387892,233.357,-0.520608,-0.904425,-0.0118919,0.169644,-0.154871,0.32354,-0.000296521,-0.000477258,0.220894,-0.011821470812590662,0.38201143561986206,-0.0002964770419932039,0.18488295789478104,-0.0004771441305164714,-0.14347433783238217
313,0.3036,133.074,409.791,0.00386024,233.521,-0.521934,-0.906725,-0.0119302,0.170137,-0.155324,0.324481,-0.000297712,-0.000479261,0.221549,-0.01185931732549328,0.3833125204451835,-0.00029766768818006994,0.1854672492089977,-0.00047914617279176674,-0.1438622560872257
314,0.3046,133.165,410.084,0.00384159,233.684,-0.523265,-0.909032,-0.0119684,0.17063,-0.155776,0.325421,-0.000298905,-0.000481267,0.222203,-0.01189706357861342,0.38461344555341137,-0.0002988603323510475,0.18605182864984982,-0.0004811512096134507,-0.14424914290446667
315,0.3056,133.256,410.376,0.00382295,233.847,-0.524599,-0.911345,-0.0120067,0.171122,-0.156228,0.32636,-0.000300099,-0.000483275,0.222857,-0.01193490719636836,0.38591420819126876,-0.00030005397479926366,0.18663550972331566,-0.000483158241446735,-0.1446358548883816
316,0.3066,133.346,410.667,0.00380433,234.01,-0.525936,-0.913665,-0.0120449,0.171614,-0.15668,0.327298,-0.000301295,-0.000485287,0.223511,-0.01197265056201069,0.3872148056033782,-0.00030124961521971194,0.18721947803852523,-0.00048516926730934884,-0.1450223921179773
317,0.3076,133.437,410.958,0.00378573,234.172,-0.527278,-0.91599,-0.0120832,0.172105,-0.157131,0.328236,-0.000302493,-0.000487301,0.224163,-0.012010491284839664,0.3885166235482005,-0.0003024472536052869,0.1878025459336965,-0.0004871822881512555,-0.14540790008055204
318,0.3086,133.527,411.248,0.00376714,234.333,-0.528623,-0.918322,-0.0121214,0.172596,-0.157582,0.329173,-0.000303692,-0.000489318,0.224816,-0.012048231763224893,0.38981827335216424,-0.00030364589025244637,0.18838590018549928,-0.0004891983034714942,-0.1457932342182363
319,0.3096,133.617,411.537,0.00374856,234.495,-0.529971,-0.920661,-0.0121595,0.173087,-0.158033,0.330109,-0.000304893,-0.000491338,0.225468,-0.012085872008543386,0.3911197522531291,-0.0003048465248527421,0.18896954093456864,-0.0004912173132516351,-0.14617839460940718
320,0.3106,133.706,411.825,0.00373,234.655,-0.531323,-0.923005,-0.0121977,0.173577,-0.158483,0.331045,-0.000306095,-0.000493361,0.226119,-0.012123609607439967,0.3924224499086335,-0.0003060481577049634,0.18955227876873648,-0.0004932393174738037,-0.14656252789536128
321,0.3116,133.795,412.112,0.00371146,234.816,-0.532679,-0.925356,-0.0122359,0.174067,-0.158933,0.331979,-0.000307299,-0.000495387,0.22677,-0.012161345764787779,0.3937235800100183,-0.0003072517884984416,0.1901353022144121,-0.0004952643161195702,-0.1469464883602245
322,0.3126,133.885,412.399,0.00369292,234.975,-0.534038,-0.927714,-0.012274,0.174557,-0.159382,0.332914,-0.000308504,-0.000497416,0.22742,-0.012198981700545009,0.39502732096124205,-0.0003084564175342974,0.1907186114115793,-0.0004972923091709491,-0.14732942341159838
323,0.3136,133.973,412.685,0.0036744,235.135,-0.535401,-0.930078,-0.0123121,0.175046,-0.159831,0.333847,-0.000309712,-0.000499448,0.22807,-0.012236616202400463,0.396329488818544,-0.0003096640441895282,0.19130101519868004,-0.0004993232966095107,-0.14771218656372842
324,0.3146,134.062,412.97,0.00365589,235.294,-0.536768,-0.932448,-0.0123502,0.175535,-0.16028,0.33478,-0.00031092,-0.000501482,0.22872,-0.012274249270408655,0.3976328721653948,-0.0003108716693859259,0.19188370385087672,-0.0005013562789183412,-0.14809477789378012
325,0.3156,134.15,413.254,0.0036374,235.452,-0.538138,-0.934824,-0.0123883,0.176024,-0.160729,0.335712,-0.000312131,-0.00050352,0.229369,-0.012311880904624206,0.3989360731996021,-0.0003120822921872657,0.1924666775075019,-0.0005033932550785325,-0.14847719747888433
326,0.3166,134.238,413.538,0.00361891,235.611,-0.539512,-0.937207,-0.0124264,0.176512,-0.161177,0.336643,-0.000313343,-0.00050556,0.230017,-0.012349511105101851,0.4002390891435559,-0.00031329391320933375,0.19304874325861765,-0.0005054322260765742,-0.1488585942551569
327,0.3176,134.326,413.821,0.00360044,235.768,-0.54089,-0.939596,-0.0124644,0.177,-0.161624,0.337573,-0.000314557,-0.000507604,0.230665,-0.01238704111060529,0.40154191721761245,-0.0003145075321338009,0.19363109312713878,-0.0005074751908852315,-0.1492389694433367
328,0.3186,134.414,414.103,0.00358198,235.926,-0.542271,-0.941992,-0.0125024,0.177487,-0.162072,0.338503,-0.000315772,-0.00050965,0.231313,-0.012424569689995502,0.4028459574853607,-0.0003157221492693374,0.19421253303861863,-0.0005095201504989877,-0.14962002502220317
329,0.3196,134.501,414.385,0.00356353,236.082,-0.543656,-0.944394,-0.0125404,0.177974,-0.162519,0.339432,-0.000316989,-0.0005117,0.23196,-0.012462096843326886,0.40414980692415603,-0.00031693876429517154,0.19479425618029622,-0.0005115691038825032,-0.15000005992688925
330,0.3206,134.588,414.665,0.00354508,236.239,-0.545045,-0.946802,-0.0125784,0.178461,-0.162966,0.340361,-0.000318208,-0.000513752,0.232606,-0.012499622570653512,0.4054548682018919,-0.0003181573772040869,0.1953762626901383,-0.000513620052038366,-0.15037992499393438
331,0.3216,134.675,414.945,0.00352665,236.395,-0.546437,-0.949217,-0.0126164,0.178947,-0.163412,0.341289,-0.000319428,-0.000515808,0.233252,-0.012537146872029559,0.406759735684451,-0.00031937698830808436,0.195957356748224,-0.000515674993923132,-0.15075877105843483
332,0.3226,134.762,415.225,0.00350823,236.551,-0.547833,-0.951638,-0.0126544,0.179433,-0.163858,0.342216,-0.00032065,-0.000517866,0.233898,-0.012574669747509315,0.40806440658096244,-0.0003205985972829506,0.19653873328665927,-0.0005177319305473826,-0.1511374481952642
333,0.3236,134.848,415.503,0.00348981,236.706,-0.549233,-0.954066,-0.0126923,0.179919,-0.164304,0.343142,-0.000321874,-0.000519928,0.234543,-0.012612092458361035,0.40936887809855627,-0.0003218222041214691,0.19712039244276292,-0.0005197928608593472,-0.15151595647974736
334,0.3246,134.935,415.781,0.0034714,236.86,-0.550636,-0.9565,-0.0127302,0.180404,-0.164749,0.344068,-0.000323099,-0.000521993,0.235188,-0.012649513750918828,0.41067455811622455,-0.0003230468091391936,0.19770113665218458,-0.0005218567853559897,-0.15189344788104764
335,0.3256,135.02,416.058,0.00345301,237.015,-0.552043,-0.95894,-0.0127682,0.180889,-0.165195,0.344993,-0.000324327,-0.00052406,0.235832,-0.012687032356538341,0.41198003577281517,-0.00032427441168392246,0.19828216259086173,-0.000523922704542934,-0.1522716190648501
336,0.3266,135.106,416.335,0.00343461,237.169,-0.553454,-0.961387,-0.012806,0.181374,-0.165639,0.345917,-0.000325555,-0.000526131,0.236475,-0.012724352081368018,0.41328530826889476,-0.0003255020127211905,0.19886347039546592,-0.0005259926173556417,-0.1526479269194596
337,0.3276,135.192,416.61,0.00341623,237.322,-0.554869,-0.96384,-0.0128439,0.181858,-0.166084,0.34684,-0.000326786,-0.000528205,0.237119,-0.012761769119366773,0.41459037280305755,-0.000326732611270808,0.19944386075827514,-0.0005280655242972943,-0.1530249147059768
338,0.3286,135.277,416.885,0.00339785,237.476,-0.556287,-0.9663,-0.0128818,0.182342,-0.166528,0.347763,-0.000328018,-0.000530282,0.237761,-0.012799184739286651,0.41589664246786784,-0.000327964207977538,0.20002453209801097,-0.0005301414253493508,-0.1534008881715615
339,0.3296,135.362,417.159,0.00337948,237.628,-0.557709,-0.968766,-0.0129196,0.182825,-0.166971,0.348685,-0.000329252,-0.000532362,0.238403,-0.0128365002248364,0.4172027011727646,-0.0003291978025086184,0.20060428394581464,-0.0005322203204931597,-0.15377584851825254
340,0.3306,135.447,417.433,0.00336111,237.781,-0.559134,-0.971239,-0.0129574,0.183308,-0.167415,0.349607,-0.000330488,-0.000534445,0.239045,-0.012873814299887432,0.4185099646190875,-0.0003304333948564997,0.20118431588139685,-0.0005343022097099581,-0.1541514886432317
341,0.3316,135.531,417.706,0.00334275,237.933,-0.560564,-0.973718,-0.0129952,0.183791,-0.167858,0.350527,-0.000331725,-0.000536531,0.239686,-0.012911126964493147,0.41981559428409265,-0.0003316699853456173,0.201764628040072,-0.0005363870929809833,-0.15452611654755521
342,0.3326,135.616,417.978,0.00332439,238.084,-0.561997,-0.976204,-0.013033,0.184273,-0.168301,0.351448,-0.000332965,-0.00053862,0.240327,-0.012948438218706726,0.42112384680423753,-0.00033290957330622817,0.20234401821260173,-0.0005384749702875835,-0.15490057852847194
343,0.3336,135.7,418.25,0.00330604,238.235,-0.563433,-0.978696,-0.0130708,0.184755,-0.168743,0.352367,-0.000334206,-0.000540713,0.240968,-0.01298574806258157,0.4224304599162161,-0.0003341501593957519,0.20292368771850855,-0.0005405668410704001,-0.1552740299339218
344,0.3346,135.784,418.52,0.00328769,238.386,-0.564874,-0.981194,-0.0131085,0.185237,-0.169185,0.353286,-0.000335448,-0.000542808,0.241607,-0.013022957798471624,0.42373827435757083,-0.00033539174361019164,0.20350363669246363,-0.0005426607063895306,-0.15564731631032458
345,0.3356,135.867,418.791,0.00326934,238.537,-0.566318,-0.9837,-0.0131463,0.185718,-0.169627,0.354204,-0.000336693,-0.000544907,0.242247,-0.013060264825559553,0.4250458661862522,-0.00033663632527269893,0.20408266118593965,-0.000544758565142911,-0.15602043773060703
346,0.3366,135.951,419.06,0.003251,238.687,-0.567766,-0.986211,-0.013184,0.186199,-0.170068,0.355121,-0.000337939,-0.000547009,0.242886,-0.013097471752220757,0.42635323258142477,-0.0003378819050479098,0.20466196425718985,-0.0005468594178524855,-0.15639255066063606
347,0.3376,136.034,419.329,0.00323266,238.836,-0.569218,-0.988729,-0.0132217,0.18668,-0.170509,0.356037,-0.000339187,-0.000549114,0.243524,-0.013134677276207096,0.42766037072034013,-0.0003391294825927371,0.20524154604024192,-0.0005489632644990472,-0.156764499525042
348,0.3386,136.117,419.597,0.00321432,238.985,-0.570673,-0.991254,-0.0132594,0.18716,-0.17095,0.356953,-0.000340437,-0.000551222,0.244162,-0.01317188139757175,0.42896870674633925,-0.00034037905789996437,0.20582020084838515,-0.0005510701050639444,-0.1571362843961619
349,0.3396,136.2,419.865,0.00319599,239.134,-0.572132,-0.993785,-0.013297,0.18764,-0.17139,0.357869,-0.000341688,-0.000553334,0.2448,-0.013208985437270893,0.4302782417571893,-0.0003416296313034639,0.2063991334775077,-0.0005531809389748288,-0.15750706285378502
350,0.3406,136.282,420.131,0.00317765,239.283,-0.573595,-0.996323,-0.0133347,0.18812,-0.17183,0.358783,-0.000342942,-0.000555448,0.245437,-0.013246186757270517,0.4315861136765735,-0.00034288320211395273,0.20697834406099624,-0.000555293767317,-0.15787767820477294
351,0.3416,136.365,420.397,0.00315932,239.431,-0.575062,-0.998867,-0.0133723,0.188599,-0.17227,0.359697,-0.000344197,-0.000557566,0.246073,-0.013283288003140714,0.4328951815373536,-0.00034413777100827936,0.20755662517507134,-0.0005574105889630809,-0.1582481305208766
352,0.3426,136.447,420.663,0.00314099,239.579,-0.576532,-1.00142,-0.0134099,0.189078,-0.172709,0.36061,-0.000345454,-0.000559687,0.246709,-0.013320387854030225,0.434204012228391,-0.0003453943376373614,0.20813518335215164,-0.0005595304044472282,-0.15861757849181501
353,0.3436,136.529,420.928,0.00312265,239.726,-0.578006,-1.00398,-0.0134475,0.189556,-0.173148,0.361523,-0.000346713,-0.000561812,0.247345,-0.013357486309991562,0.43551403842751557,-0.0003466529019936493,0.20871281001156738,-0.0005616542131885449,-0.1589868643106891
354,0.3446,136.61,421.192,0.00310432,239.873,-0.579484,-1.00654,-0.0134851,0.190034,-0.173587,0.362434,-0.000347973,-0.000563939,0.24798,-0.01339458337107724,0.436822387579076,-0.0003479124644174547,0.2092907128425261,-0.0005637800162892059,-0.15935598804866802
355,0.3456,136.692,421.455,0.00308598,240.02,-0.580966,-1.00911,-0.0135227,0.190512,-0.174026,0.363346,-0.000349236,-0.00056607,0.248615,-0.01343167903733955,0.4381333673124401,-0.0003491750242067271,0.20986889197706904,-0.0005659098126047368,-0.15972494977688978
356,0.3466,136.773,421.718,0.00306765,240.166,-0.582451,-1.01169,-0.0135602,0.19099,-0.174464,0.364256,-0.0003505,-0.000568204,0.249249,-0.01346867465570345,0.4394426643164788,-0.0003504385820508604,0.21044734754730143,-0.0005680426026775098,-0.16009290965979062
357,0.3476,136.854,421.981,0.00304931,240.312,-0.58394,-1.01427,-0.0135977,0.191467,-0.174901,0.365166,-0.000351766,-0.000570342,0.249883,-0.013505668886757749,0.4407531533230702,-0.0003517041375945551,0.21102486865991676,-0.0005701793859181903,-0.1604598688718416
358,0.3486,136.935,422.242,0.00303097,240.457,-0.585433,-1.01686,-0.0136352,0.191943,-0.175339,0.366075,-0.000353034,-0.000572482,0.250516,-0.013542661730554295,0.44206339335331557,-0.00035297169083003954,0.21160145371375494,-0.0005723181634458285,-0.1608275069306634
359,0.3496,137.016,422.503,0.00301263,240.602,-0.58693,-1.01946,-0.0136727,0.19242,-0.175776,0.366983,-0.000354304,-0.000574626,0.251149,-0.013579653187145269,0.44337338155912276,-0.00035424124174987526,0.2121795254663288,-0.0005744609340986306,-0.16119414519383946
360,0.3506,137.096,422.763,0.00299429,240.747,-0.588431,-1.02206,-0.0137102,0.192896,-0.176213,0.367891,-0.000355575,-0.000576774,0.251781,-0.013616643256582628,0.44468455977440335,-0.0003555117907018124,0.2127566602676363,-0.0005766076978509505,-0.16156062327109777
361,0.3516,137.177,423.023,0.00297594,240.891,-0.589935,-1.02467,-0.0137476,0.193372,-0.176649,0.368798,-0.000356849,-0.000578924,0.252413,-0.013653533304276655,0.4459954830839703,-0.00035678533696847925,0.21333406985050218,-0.0005787564558344949,-0.1619261031589463
362,0.3526,137.257,423.282,0.00295759,241.036,-0.591443,-1.02729,-0.0137851,0.193847,-0.177085,0.369704,-0.000358124,-0.000581078,0.253045,-0.01369052060326148,0.44730614863348483,-0.000358059881254702,0.213910540434606,-0.0005809092068744803,-0.16229142373229688
363,0.3536,137.337,423.541,0.00293924,241.179,-0.592955,-1.02991,-0.0138225,0.194322,-0.177521,0.37061,-0.000359402,-0.000583236,0.253676,-0.013727407887994425,0.44861800218407044,-0.0003593374228377799,0.21448728490728075,-0.0005830659509453717,-0.16265658506059533
364,0.3546,137.416,423.799,0.00292088,241.323,-0.594471,-1.03254,-0.0138599,0.194797,-0.177956,0.371515,-0.000360681,-0.000585396,0.254306,-0.01376429379316868,0.44992959488222417,-0.00036061596242764615,0.21506430339865412,-0.0005852246891914215,-0.1630207502344263
365,0.3556,137.496,424.056,0.00290251,241.466,-0.595991,-1.03518,-0.0138973,0.195271,-0.178392,0.37242,-0.000361962,-0.00058756,0.254936,-0.013801178318835872,0.4512423751090451,-0.0003618964996583429,0.2156403803979281,-0.0005873874204251894,-0.16338559364568084
366,0.3566,137.575,424.312,0.00288414,241.608,-0.597514,-1.03782,-0.0139347,0.195745,-0.178826,0.373323,-0.000363245,-0.000589727,0.255566,-0.013838061465047624,0.4525534388299508,-0.0003631790345224317,0.21621673052242518,-0.0005895531452100311,-0.16374860551876413
367,0.3576,137.654,424.568,0.00286577,241.751,-0.599041,-1.04047,-0.013972,0.196218,-0.179261,0.374226,-0.000364529,-0.000591898,0.256195,-0.01387484461934485,0.453865686976084,-0.0003644625673765445,0.2167921371088921,-0.0005917228629349625,-0.1641122957669996
368,0.3586,137.733,424.824,0.00284739,241.893,-0.600572,-1.04313,-0.0140094,0.196692,-0.179695,0.375129,-0.000365816,-0.000594072,0.256824,-0.01391172501048854,0.4551791206174638,-0.0003657490974853239,0.21736903329547674,-0.0005938955741676688,-0.16447499231979168
369,0.3596,137.811,425.079,0.002829,242.034,-0.602107,-1.04579,-0.0140467,0.197165,-0.180129,0.37603,-0.000367105,-0.00059625,0.257452,-0.01394850541718673,0.4564908278405069,-0.00036703762520429173,0.21794498505007742,-0.0005960722782927252,-0.1648375314964331
370,0.3606,137.89,425.333,0.0028106,242.175,-0.603646,-1.04846,-0.014084,0.197637,-0.180562,0.376931,-0.000368395,-0.000598431,0.25808,-0.013985284452001423,0.4578037174443408,-0.0003683271508939656,0.21851999077369655,-0.000598251975882147,-0.16519907856470595
371,0.3616,137.968,425.586,0.0027922,242.316,-0.605189,-1.05114,-0.0141213,0.19811,-0.180996,0.377832,-0.000369688,-0.000600615,0.258707,-0.014022062114983691,0.4591177904947701,-0.00036961967381132776,0.2190964870599561,-0.000600434666916283,-0.16556130355610021
372,0.3626,138.046,425.839,0.00277379,242.457,-0.606735,-1.05382,-0.0141585,0.198581,-0.181428,0.378732,-0.000370982,-0.000602803,0.259334,-0.014058739812063625,0.46043158762624325,-0.0003709131946866284,0.2196708167493857,-0.0006026213507730471,-0.1659217032210314
373,0.3636,138.124,426.092,0.00275538,242.597,-0.608285,-1.05651,-0.0141958,0.199053,-0.181861,0.379631,-0.000372278,-0.000604994,0.259961,-0.014095514735212089,0.4617451059615454,-0.0003722087131435847,0.2202466372578411,-0.0006048110280307828,-0.16628278094456805
374,0.3646,138.202,426.343,0.00273695,242.737,-0.609839,-1.05921,-0.014233,0.199524,-0.182293,0.380529,-0.000373577,-0.000607188,0.260587,-0.014132189699905373,0.4630583426217094,-0.00037350722880113985,0.22082150879560913,-0.0006070036986700611,-0.16664286899858016
375,0.3656,138.279,426.595,0.00271852,242.877,-0.611397,-1.06191,-0.0142702,0.199995,-0.182725,0.381427,-0.000374877,-0.000609386,0.261212,-0.014168863300315304,0.4643727590980522,-0.00037480674239698253,0.22139665116164653,-0.0006092003620618014,-0.16700280152814873
376,0.3666,138.357,426.845,0.00270007,243.016,-0.612959,-1.06462,-0.0143074,0.200466,-0.183157,0.382324,-0.000376179,-0.000611588,0.261837,-0.01420553553649273,0.4656868907629015,-0.0003761082535513882,0.22197206448354345,-0.0006114010181796914,-0.16736257860044568
377,0.3676,138.434,427.095,0.00268162,243.155,-0.614525,-1.06734,-0.0143446,0.200936,-0.183588,0.38322,-0.000377483,-0.000613793,0.262462,-0.014242206408488278,0.46700073473122483,-0.0003774117622563633,0.2225465263418125,-0.0006136046676109563,-0.1677213680043983
378,0.3686,138.511,427.345,0.00266315,243.293,-0.616094,-1.07006,-0.0143818,0.201406,-0.184019,0.384116,-0.000378789,-0.000616001,0.263086,-0.014278875916352796,0.468315756431289,-0.0003787172685040252,0.22312125826061435,-0.0006158113103357232,-0.1680800028034375
379,0.3696,138.587,427.594,0.00264468,243.432,-0.617667,-1.07279,-0.0144189,0.201875,-0.18445,0.385011,-0.000380097,-0.000618213,0.26371,-0.014315445491686507,0.46963048728759205,-0.0003800247722867134,0.22369503667125845,-0.0006180219457161407,-0.16843848306418374
380,0.3706,138.664,427.842,0.00262619,243.57,-0.619245,-1.07553,-0.0144561,0.202344,-0.18488,0.385906,-0.000381407,-0.000620429,0.264333,-0.014352112275107798,0.47094639535473504,-0.00038133427359654526,0.22426908424709135,-0.0006202365737256743,-0.16879597764962184
381,0.3716,138.74,428.09,0.0026077,243.707,-0.620826,-1.07827,-0.0144932,0.202813,-0.18531,0.386799,-0.000382719,-0.000622648,0.264956,-0.01438867913342301,0.47226053716277394,-0.00038264577242563824,0.2248434011143814,-0.0006224541949602092,-0.16915331854543392
382,0.3726,138.816,428.337,0.00258919,243.844,-0.622411,-1.08102,-0.0145303,0.203282,-0.18574,0.387692,-0.000384033,-0.00062487,0.265578,-0.01442524463513295,0.47357585302358407,-0.0003839592687662208,0.22541798739945573,-0.0006246748093998722,-0.16951050581769223
383,0.3736,138.892,428.583,0.00257067,243.981,-0.624,-1.08378,-0.0145673,0.20375,-0.186169,0.388585,-0.000385349,-0.000627097,0.2662,-0.014461710226463809,0.4748923439860626,-0.0003852747626101882,0.22599161723647065,-0.000626900415770848,-0.16986670939956505
384,0.3746,138.968,428.829,0.00255213,244.118,-0.625592,-1.08655,-0.0146044,0.204218,-0.186598,0.389477,-0.000386667,-0.000629326,0.266822,-0.01449827301877038,0.4762085348907712,-0.00038659225394976904,0.22656551559507832,-0.0006291280159271828,-0.17022276020287475
385,0.3756,139.044,429.075,0.00253359,244.254,-0.627189,-1.08932,-0.0146415,0.204685,-0.187027,0.390368,-0.000387987,-0.000631559,0.267443,-0.014534834454622558,0.47752442283638374,-0.00038791174277719165,0.22713845546190758,-0.0006313596085927298,-0.170578658293149
386,0.3766,139.119,429.32,0.00251503,244.39,-0.62879,-1.09209,-0.0146785,0.205153,-0.187456,0.391258,-0.000389309,-0.000633796,0.268063,-0.014571295991205213,0.478840004919896,-0.00038923322908435143,0.22771289066641698,-0.0006335951937408435,-0.17093440373588775
387,0.3776,139.195,429.564,0.00249646,244.526,-0.630394,-1.09488,-0.0147155,0.205619,-0.187884,0.392148,-0.000390633,-0.000636036,0.268684,-0.014607756178735887,0.48015675839265337,-0.0003905567128633658,0.22828513819678653,-0.0006358337719803986,-0.171289167886145
388,0.3786,139.27,429.808,0.00247787,244.661,-0.632002,-1.09767,-0.0147525,0.206086,-0.188312,0.393038,-0.000391959,-0.00063828,0.269303,-0.01464421501726465,0.4814746842976565,-0.0003918821941064632,0.22885888131491527,-0.0006380763426532265,-0.17164378022983495
389,0.3796,139.345,430.051,0.00245927,244.796,-0.633615,-1.10047,-0.0147895,0.206552,-0.188739,0.393926,-0.000393287,-0.000640528,0.269923,-0.014680672506841241,0.48279081809423263,-0.00039320967280542796,0.22943166300137574,-0.00064032290573246,-0.17199741282974357
390,0.3806,139.419,430.294,0.00244065,244.931,-0.635231,-1.10327,-0.0148264,0.207018,-0.189166,0.394814,-0.000394617,-0.000642779,0.270541,-0.01471703011922365,0.48410812113668866,-0.00039453914895248854,0.2300047116663031,-0.0006425724618337458,-0.17235089446076624
391,0.3816,139.494,430.536,0.00242202,245.065,-0.636851,-1.10609,-0.0148634,0.207483,-0.189593,0.395701,-0.000395949,-0.000645033,0.27116,-0.014753484914691417,0.485425109037924,-0.0003958706225395403,0.2305767968567265,-0.000644825010936767,-0.17270422518735284
392,0.3826,139.568,430.777,0.00240337,245.199,-0.638475,-1.1089,-0.0149003,0.207949,-0.19002,0.396588,-0.000397283,-0.000647292,0.271778,-0.014789839840345542,0.4867432656256636,-0.0003972040935587007,0.23115037927838622,-0.000647082551727185,-0.17305740507392586
393,0.3836,139.642,431.018,0.00238471,245.333,-0.640103,-1.11173,-0.0149372,0.208413,-0.190446,0.397474,-0.00039862,-0.000649554,0.272395,-0.014826193424527623,0.48806110387514434,-0.0003985405616033777,0.23172176560574798,-0.0006493430854698223,-0.17340960759490098
394,0.3846,139.716,431.259,0.00236603,245.467,-0.641735,-1.11456,-0.0149741,0.208878,-0.190872,0.398359,-0.000399958,-0.000651819,0.273012,-0.014862545667287286,0.48937862086735007,-0.00039987802746133116,0.2322946494119169,-0.000651606612144251,-0.17376166010955585
395,0.3856,139.79,431.499,0.00234733,245.6,-0.643371,-1.1174,-0.015011,0.209342,-0.191298,0.399244,-0.000401298,-0.000654088,0.273629,-0.014898896568673936,0.49069730437820236,-0.0004012174907274124,0.2328665668038179,-0.0006538741310763152,-0.17411356268177947
396,0.3866,139.864,431.738,0.00232861,245.733,-0.64501,-1.12025,-0.0150478,0.209806,-0.191723,0.400128,-0.000402641,-0.000656361,0.274245,-0.014935147622256673,0.49201566342411773,-0.00040255995099081066,0.2334387496269641,-0.0006561456422389256,-0.17446448984033636
397,0.3876,139.937,431.977,0.00230988,245.865,-0.646654,-1.1231,-0.0150847,0.21027,-0.192148,0.401012,-0.000403985,-0.000658638,0.274861,-0.014971495844680605,0.49333518841470125,-0.0004039034090473903,0.23401119800454429,-0.0006584211456046596,-0.17481526788653945
398,0.3886,140.011,432.215,0.00229113,245.998,-0.648302,-1.12596,-0.0151215,0.210733,-0.192573,0.401894,-0.000405332,-0.000660918,0.275476,-0.015007744226659181,0.49465289107233223,-0.0004052498640827462,0.23458267747650918,-0.0006606996418069278,-0.17516589688374806
399,0.3896,140.084,432.453,0.00227236,246.13,-0.649953,-1.12883,-0.0151583,0.211196,-0.192997,0.402777,-0.00040668,-0.000663202,0.276091,-0.01504399127472189,0.4959732524288989,-0.0004065973168977388,0.23515442160473277,-0.0006629821301623595,-0.17551555241125927
400,0.3906,140.157,432.691,0.00225358,246.261,-0.651609,-1.1317,-0.0151951,0.211658,-0.193421,0.403658,-0.000408031,-0.00066549,0.276705,-0.015080236988917806,0.4972917855928647,-0.00040794776667252286,0.23572519478596665,-0.0006652686106434214,-0.1758650597162521
401,0.3916,140.23,432.927,0.00223477,246.393,-0.653269,-1.13458,-0.0152318,0.21212,-0.193845,0.404539,-0.000409384,-0.000667781,0.277319,-0.015116382880939083,0.49861148089639507,-0.0004093002138042534,0.23629623172533365,-0.0006675580838905182,-0.17621441886155975
402,0.3926,140.302,433.164,0.00221594,246.524,-0.654932,-1.13747,-0.0152686,0.212582,-0.194268,0.405419,-0.000410739,-0.000670076,0.277933,-0.015152625931172836,0.49993083943219707,-0.00041065465828482584,0.23686753254471826,-0.000669851549212952,-0.17656280647320677
403,0.3936,140.375,433.399,0.0021971,246.654,-0.6566,-1.14036,-0.0153053,0.213044,-0.194692,0.406299,-0.000412096,-0.000672375,0.278546,-0.01518876916656875,0.5012513595145163,-0.0004120111001061355,0.2374390973660614,-0.0006721490065833002,-0.17691186983659957
404,0.3946,140.447,433.634,0.00217823,246.785,-0.658271,-1.14327,-0.0153421,0.213505,-0.195114,0.407178,-0.000413455,-0.000674677,0.279159,-0.015225009553036184,0.5025715395936721,-0.0004133695392599668,0.2380096883010525,-0.0006744494566485182,-0.17725913974842356
405,0.3956,140.519,433.869,0.00215934,246.915,-0.659947,-1.14617,-0.0153788,0.213966,-0.195537,0.408056,-0.000414817,-0.000676984,0.279771,-0.01526115013200191,0.5038913767291511,-0.00041473097532351844,0.23858054233910497,-0.0006767548980342042,-0.17760708553658766
406,0.3966,140.591,434.103,0.00214043,247.045,-0.661626,-1.14909,-0.0154155,0.214426,-0.195959,0.408934,-0.00041618,-0.000679294,0.280383,-0.015297289384632817,0.5052123731905045,-0.0004160934091166357,0.23915042045049795,-0.0006790633320641337,-0.1779540621292809
407,0.3976,140.663,434.337,0.0021215,247.174,-0.663309,-1.15201,-0.0154521,0.214887,-0.196381,0.409811,-0.000417546,-0.000681608,0.280994,-0.015333328844315153,0.5065330234622909,-0.0004174588398004886,0.23972180048730474,-0.0006813757580361735,-0.17830089232874313
408,0.3986,140.735,434.57,0.00210255,247.304,-0.664997,-1.15494,-0.0154888,0.215347,-0.196803,0.410687,-0.000418914,-0.000683925,0.281605,-0.015369465448035857,0.5078533245983108,-0.00041882626778144694,0.24029220369820936,-0.0006836911766061604,-0.17864757619673943
409,0.3996,140.806,434.803,0.00208357,247.433,-0.666688,-1.15788,-0.0155254,0.215806,-0.197224,0.411563,-0.000420283,-0.000686247,0.282216,-0.015405502266122695,0.5091747828248576,-0.00042019469347165384,0.24086162849269988,-0.0006860115863811522,-0.17899329278871168
410,0.4006,140.878,435.035,0.00206457,247.562,-0.668384,-1.16082,-0.015562,0.216266,-0.197645,0.412438,-0.000421655,-0.000688572,0.282826,-0.015441537765286006,0.5104958886593427,-0.0004215661160237305,0.2414325561450994,-0.0006883349887033541,-0.17933886386463205
411,0.4016,140.949,435.266,0.00204555,247.69,-0.670083,-1.16377,-0.0155986,0.216725,-0.198066,0.413313,-0.00042303,-0.000690901,0.283435,-0.015477571945574309,0.5118181509673161,-0.0004229405354253535,0.24200250448150662,-0.0006906623828608627,-0.17968428948574988
412,0.4026,141.02,435.498,0.0020265,247.818,-0.671786,-1.16673,-0.0156352,0.217183,-0.198487,0.414187,-0.000424406,-0.000693234,0.284045,-0.015513604807035675,0.5131400576203213,-0.0004243159525129103,0.242571471912155,-0.0006929937688259225,-0.18002956971328865
413,0.4036,141.091,435.728,0.00200743,247.946,-0.673494,-1.16969,-0.0156718,0.217641,-0.198907,0.41506,-0.000425785,-0.00069557,0.284653,-0.01554963634971851,0.5144616056624116,-0.0004256943664308066,0.24314069998957022,-0.0006953281472659167,-0.18037388498274098
414,0.4046,141.161,435.958,0.00198834,248.074,-0.675205,-1.17266,-0.0157083,0.218099,-0.199327,0.415933,-0.000427165,-0.000697911,0.285262,-0.015585568132232774,0.5157843079196844,-0.00042707377802075897,0.24371018883315587,-0.0006976675167645885,-0.18071805567014465
415,0.4056,141.232,436.188,0.00196922,248.201,-0.676921,-1.17564,-0.0157449,0.218557,-0.199746,0.416805,-0.000428548,-0.000700255,0.28587,-0.015621597041105995,0.5171066482928024,-0.0004284561864218439,0.24427993856236996,-0.0007000098786866804,-0.1810612628978835
416,0.4066,141.302,436.417,0.00195008,248.328,-0.67864,-1.17863,-0.0157814,0.219014,-0.200165,0.417676,-0.000429933,-0.000702603,0.286477,-0.015657526197102922,0.5184286238202322,-0.00042984059205131153,0.2448487044473988,-0.0007023562323088539,-0.1814043263519166
417,0.4076,141.373,436.646,0.00193091,248.455,-0.680364,-1.18162,-0.0158179,0.219471,-0.200584,0.418547,-0.000431321,-0.000704955,0.287084,-0.01569345404170963,0.5197517512899446,-0.0004312279944697073,0.2454177303178393,-0.0007047065776029093,-0.1817472460924725
418,0.4086,141.443,436.874,0.00191171,248.581,-0.682092,-1.18462,-0.0158544,0.219928,-0.201003,0.419417,-0.00043271,-0.000707311,0.287691,-0.01572938057497386,0.5210745106304469,-0.000432616394529739,0.24598701629253195,-0.0007070609145408691,-0.18209002217975467
419,0.4096,141.512,437.102,0.00189249,248.707,-0.683823,-1.18763,-0.0158908,0.220385,-0.201421,0.420287,-0.000434102,-0.000709671,0.288297,-0.015765207373469203,0.522398421272319,-0.00043400779135938095,0.2465565624903714,-0.0007094192430943114,-0.18243183710618693
420,0.4106,141.582,437.329,0.00187324,248.833,-0.685559,-1.19064,-0.0159273,0.220841,-0.201839,0.421156,-0.000435496,-0.000712035,0.288903,-0.01580113128778471,0.5237219604949064,-0.00043540118538132333,0.24712512190456137,-0.0007117815632349256,-0.1827735091838375
421,0.4116,141.652,437.555,0.00185396,248.959,-0.687299,-1.19366,-0.0159637,0.221296,-0.202257,0.422024,-0.000436892,-0.000714402,0.289508,-0.01583695547460162,0.5250451253270778,-0.00043679657658723947,0.2476926929476484,-0.0007141468756486358,-0.1831150384724045
422,0.4126,141.721,437.782,0.00183466,249.084,-0.689042,-1.19669,-0.0160002,0.221752,-0.202675,0.422892,-0.00043829,-0.000716774,0.290113,-0.01587287677015925,0.5263694391649199,-0.0004381939649689137,0.24826177055546617,-0.0007165171788809932,-0.18345642503156157
423,0.4136,141.791,438.007,0.00181533,249.209,-0.69079,-1.19972,-0.0160366,0.222207,-0.203092,0.423759,-0.000439691,-0.00071915,0.290718,-0.015908698345488137,0.5276933753120632,-0.00043959435007812075,0.24882985889136466,-0.0007188914736155905,-0.18379685271821766
424,0.4146,141.86,438.233,0.00179597,249.334,-0.692542,-1.20277,-0.0160729,0.222662,-0.203509,0.424626,-0.000441094,-0.000721529,0.291322,-0.015944420211382426,0.5290184598095842,-0.00044099673234354597,0.24939820576626914,-0.000721268760544902,-0.18413713847612256
425,0.4156,141.929,438.457,0.00177658,249.459,-0.694298,-1.20582,-0.0161093,0.223116,-0.203925,0.425492,-0.000442499,-0.000723912,0.291926,-0.015980239182577516,0.5303431633096056,-0.00044240111175652963,0.24996556133165537,-0.0007236500389241618,-0.18447646684132302
426,0.4166,141.997,438.682,0.00175716,249.583,-0.696058,-1.20887,-0.0161457,0.22357,-0.204341,0.426357,-0.000443906,-0.0007263,0.292529,-0.01601605684998575,0.5316674828314876,-0.00044380748830874506,0.2505331745349475,-0.0007260363079987231,-0.1848156540752809
427,0.4176,142.066,438.906,0.00173771,249.707,-0.697823,-1.21194,-0.016182,0.224024,-0.204757,0.427221,-0.000445316,-0.000728691,0.293132,-0.016051774818837017,0.5329914153931614,-0.00044521686154663787,0.25110104549313994,-0.0007284255691895059,-0.18515470023669445
428,0.4186,142.135,439.129,0.00171823,249.831,-0.699591,-1.21501,-0.0162183,0.224478,-0.205173,0.428085,-0.000446727,-0.000731086,0.293734,-0.01608749149114963,0.5343164923268662,-0.00044662723235056045,0.25166917432327995,-0.0007308188217444167,-0.18549360538423787
429,0.4196,142.203,439.352,0.00169872,249.954,-0.701363,-1.21808,-0.0162546,0.224931,-0.205588,0.428949,-0.000448141,-0.000733485,0.294336,-0.01612320686697044,0.5356427146217664,-0.00044804059982039846,0.25223630890553284,-0.0007332160656344788,-0.18583155540852303
430,0.4206,142.271,439.574,0.00167918,250.078,-0.70314,-1.22117,-0.0162909,0.225384,-0.206003,0.429812,-0.000449558,-0.000735889,0.294938,-0.016158920946346744,0.5369685462985669,-0.0004494569639433843,0.25280370045795086,-0.0007356183000956085,-0.18616936521264593
431,0.4216,142.339,439.796,0.00165961,250.201,-0.70492,-1.22426,-0.0163272,0.225837,-0.206418,0.430674,-0.000450976,-0.000738296,0.295539,-0.016194633729325503,0.5382939843672123,-0.00045087432560853014,0.2533713490969678,-0.0007380235265677104,-0.1865070348547856
432,0.4226,142.407,440.018,0.00164001,250.323,-0.706705,-1.22736,-0.0163634,0.226289,-0.206833,0.431536,-0.000452397,-0.000740707,0.29614,-0.01623024683898333,0.5396205654560438,-0.0004522946839069508,0.2539380010004424,-0.0007404327442885883,-0.18684456439309738
433,0.4236,142.475,440.239,0.00162037,250.446,-0.708494,-1.23047,-0.0163996,0.226741,-0.207247,0.432397,-0.000453821,-0.000743122,0.29674,-0.016265858659469834,0.5409467496032494,-0.0004537180388258788,0.25450490908847057,-0.0007428459532295983,-0.1871811410672598
434,0.4246,142.543,440.459,0.00160071,250.568,-0.710287,-1.23358,-0.0164358,0.227192,-0.207661,0.433257,-0.000455246,-0.000745542,0.29734,-0.016301469190831863,0.5422725338134062,-0.0004551423912628749,0.2550708184054282,-0.0007452641526163317,-0.18751757842751904
435,0.4256,142.61,440.68,0.00158101,250.69,-0.712084,-1.2367,-0.016472,0.227644,-0.208074,0.434117,-0.000456674,-0.000747965,0.29794,-0.016337078433116048,0.543599458688399,-0.0004565697403003943,0.25563823864266055,-0.0007476853439080111,-0.1878530643850097
436,0.4266,142.678,440.899,0.00156127,250.812,-0.713885,-1.23983,-0.0165082,0.228095,-0.208488,0.434976,-0.000458104,-0.000750392,0.298539,-0.016372686386368906,0.5449259802828692,-0.0004579990863836647,0.2562046592065248,-0.0007501105263327812,-0.18818922362658985
437,0.4276,142.745,441.119,0.00154151,250.933,-0.71569,-1.24296,-0.0165444,0.228545,-0.208901,0.435834,-0.000459537,-0.000752824,0.299137,-0.01640829305063718,0.5462520955960681,-0.0004594314290446988,0.2567700785129703,-0.0007525406991089056,-0.1885244322518863
438,0.4286,142.812,441.337,0.00152171,251.054,-0.717499,-1.24611,-0.0165805,0.228996,-0.209314,0.436692,-0.000460971,-0.000755259,0.299736,-0.01644380007035251,0.5475793492044647,-0.0004608647691922707,0.2573370096517418,-0.000754973863709929,-0.1888595024646046
439,0.4296,142.879,441.556,0.00150187,251.175,-0.719313,-1.24925,-0.0166167,0.229446,-0.209726,0.43755,-0.000462408,-0.000757699,0.300333,-0.016479404160351985,0.5489077420851349,-0.0004623011058976223,0.25790293863055536,-0.0007574120185991351,-0.1891936235159264
440,0.4306,142.945,441.773,0.001482,251.296,-0.721131,-1.25241,-0.0166528,0.229896,-0.210138,0.438406,-0.000463848,-0.000760143,0.300931,-0.016514908613002643,0.5502341747445443,-0.00046374043914776397,0.2584691223347182,-0.0007598541644998624,-0.18952760693772863
441,0.4316,143.012,441.991,0.0014621,251.416,-0.722952,-1.25558,-0.0166889,0.230345,-0.21055,0.439263,-0.00046529,-0.000762591,0.301528,-0.016550411783965546,0.5515632948789304,-0.0004651817693948068,0.25903430184395115,-0.0007623003013828011,-0.18986145278670308
442,0.4326,143.079,442.208,0.00144216,251.536,-0.724778,-1.25875,-0.016725,0.230794,-0.210962,0.440118,-0.000466734,-0.000765043,0.302125,-0.01658591367328721,0.5528904487734934,-0.00046662509663020213,0.25959973517576285,-0.0007647504292185303,-0.19019516111951795
443,0.4336,143.145,442.424,0.00142218,251.656,-0.726609,-1.26193,-0.016761,0.231243,-0.211373,0.440973,-0.00046818,-0.000767499,0.302721,-0.016621315943150305,0.5542187378698655,-0.0004680704208454012,0.26016542244414476,-0.0007672045479778511,-0.1905279225211456
444,0.4346,143.211,442.641,0.00140217,251.776,-0.728443,-1.26511,-0.0167971,0.231692,-0.211784,0.441827,-0.000469629,-0.000769959,0.303317,-0.01665681527287799,0.5555466075916746,-0.0004695187415620916,0.26073136376314054,-0.0007696626576312315,-0.19086054718593848
445,0.4356,143.277,442.856,0.00138212,251.895,-0.730281,-1.2683,-0.0168331,0.23214,-0.212195,0.442681,-0.00047108,-0.000772423,0.303912,-0.016692214990329468,0.5568756117985822,-0.0004709690592381577,0.2612962979499156,-0.0007721247581491397,-0.191193035170084
446,0.4366,143.343,443.071,0.00136203,252.015,-0.732124,-1.27151,-0.0168691,0.232588,-0.212605,0.443534,-0.000472533,-0.000774892,0.304507,-0.016727613433414,0.5582041932548802,-0.00047242137386493965,0.26186148528390696,-0.0007745918487274128,-0.19152457805472856
447,0.4376,143.409,443.286,0.0013419,252.134,-0.733971,-1.27471,-0.0169051,0.233036,-0.213015,0.444387,-0.000473989,-0.000777364,0.305101,-0.016763010602177553,0.5595339084746418,-0.00047387668496001734,0.2624269258785501,-0.0007770619308833382,-0.19185598503465273
448,0.4386,143.475,443.501,0.00132174,252.252,-0.735822,-1.27793,-0.0169411,0.233483,-0.213425,0.445239,-0.000475448,-0.000779841,0.305696,-0.016798406496665974,0.5608631975614018,-0.00047533499251006806,0.26299135685534303,-0.0007795370030355686,-0.1921872561655662
449,0.4396,143.54,443.715,0.00130154,252.371,-0.737677,-1.28115,-0.0169771,0.23393,-0.213835,0.44609,-0.000476908,-0.000782322,0.306289,-0.016833801116925118,0.5621920574922303,-0.0004767942974557293,0.2635560401891801,-0.000782016065928981,-0.19251839150315542
450,0.4406,143.606,443.928,0.0012813,252.489,-0.739537,-1.28438,-0.017013,0.234377,-0.214244,0.446941,-0.000478371,-0.000784807,0.306883,-0.016869096149915386,0.5635220487641772,-0.0004782565988359355,0.2641209759928902,-0.0007844991195339324,-0.19284858395207194
451,0.4416,143.671,444.141,0.00126102,252.607,-0.7414,-1.28762,-0.017049,0.234823,-0.214653,0.447791,-0.000479837,-0.000787297,0.307476,-0.01690448822539281,0.5648516074880341,-0.00047972189663769704,0.2646848996938205,-0.0007869871630334924,-0.1931786413798905
452,0.4426,143.736,444.354,0.0012407,252.725,-0.743268,-1.29086,-0.0170849,0.235269,-0.215061,0.448641,-0.000481305,-0.00078979,0.308068,-0.01693978072076141,0.5661822968172452,-0.0004811891913290012,0.2652490749608165,-0.0007894781979693732,-0.19350775734998416
453,0.4436,143.801,444.566,0.00122034,252.842,-0.74514,-1.29411,-0.0171208,0.235715,-0.21547,0.44949,-0.000482775,-0.000792288,0.30866,-0.016975071949152154,0.5675125501998999,-0.00048265848290096613,0.26581350190610165,-0.0007919742227353588,-0.19383754523100905
454,0.4446,143.866,444.778,0.00119994,252.959,-0.747016,-1.29737,-0.0171567,0.23616,-0.215878,0.450338,-0.000484247,-0.00079479,0.309252,-0.01701036191061056,0.5688423646040872,-0.00048412977134482116,0.26637691426440213,-0.0007944742380883163,-0.1941663924231658
455,0.4456,143.93,444.989,0.0011795,253.076,-0.748897,-1.30064,-0.0171925,0.236606,-0.216286,0.451186,-0.000485723,-0.000797297,0.309843,-0.01704555230974225,0.5701733071691619,-0.0004856050556805158,0.2669418443382061,-0.0007969792432013234,-0.19449510547303506
456,0.4466,143.995,445.2,0.00115901,253.193,-0.750781,-1.30391,-0.0172284,0.23705,-0.216693,0.452033,-0.0004872,-0.000799807,0.310434,-0.017080839741001164,0.5715038073476171,-0.00048708133735164694,0.26750449141550026,-0.0007994872396359654,-0.19482287925861752
457,0.4476,144.059,445.41,0.00113849,253.31,-0.75267,-1.30719,-0.0172642,0.237495,-0.217101,0.45288,-0.00048868,-0.000802322,0.311025,-0.01711602761707176,0.5728354349371145,-0.0004885606153764988,0.2680686564315864,-0.0008020002257653758,-0.1951513245164912
458,0.4486,144.124,445.621,0.00111792,253.426,-0.754563,-1.31048,-0.0173,0.237939,-0.217508,0.453726,-0.000490162,-0.000804841,0.311615,-0.017151214233438794,0.5741666167255721,-0.0004900418902320514,0.2686318039245339,-0.0008045172023567471,-0.19547883127526666
459,0.4496,144.188,445.83,0.00109731,253.542,-0.756461,-1.31378,-0.0173358,0.238383,-0.217914,0.454571,-0.000491647,-0.000807364,0.312204,-0.017186399590147672,0.5754973496721938,-0.0004915261614177879,0.26919520151048504,-0.0008070381693796591,-0.19580540057171592
460,0.4506,144.252,446.04,0.00107666,253.658,-0.758362,-1.31708,-0.0173716,0.238827,-0.218321,0.455416,-0.000493134,-0.000809892,0.312794,-0.017221583687243247,0.5768292075633774,-0.0004930124294133531,0.2697588493005054,-0.0008095641259943109,-0.19613264117570306
461,0.4516,144.316,446.248,0.00105597,253.773,-0.760268,-1.32039,-0.0174074,0.23927,-0.218727,0.456261,-0.000494624,-0.000812424,0.313382,-0.017256766524770706,0.5781621913501032,-0.0004945016937153435,0.2703214770835982,-0.0008120940729750004,-0.19645894507921102
462,0.4526,144.38,446.457,0.00103523,253.889,-0.762178,-1.32371,-0.0174431,0.239713,-0.219133,0.457104,-0.000496116,-0.00081496,0.313971,-0.017291849831964967,0.5794931429947097,-0.0004959929548062902,0.27088435416601464,-0.0008146280102914183,-0.1967851165302239
463,0.4536,144.443,446.665,0.00101444,254.004,-0.764093,-1.32704,-0.0174789,0.240156,-0.219538,0.457948,-0.000497611,-0.000817501,0.314559,-0.017327030154009493,0.5808267979306125,-0.0004974872121799034,0.271447480658219,-0.0008171669370959922,-0.1971103526932606
464,0.4546,144.507,446.872,0.000993616,254.119,-0.766011,-1.33037,-0.0175146,0.240599,-0.219944,0.45879,-0.000499108,-0.000820046,0.315147,-0.017362110952837018,0.5821584146264267,-0.0004989834663216008,0.2720108566707238,-0.0008197098541702363,-0.19743625972646262
465,0.4556,144.57,447.08,0.000972743,254.233,-0.767934,-1.33371,-0.0175503,0.241041,-0.220349,0.459632,-0.000500608,-0.000822595,0.315734,-0.01739719049930233,0.5834911530156652,-0.0005004827167219839,0.27257320974024535,-0.0008222567614837306,-0.1977612322298995
466,0.4566,144.634,447.286,0.000951824,254.348,-0.769862,-1.33706,-0.017586,0.241483,-0.220754,0.460473,-0.00050211,-0.000825148,0.316321,-0.01743226879345028,0.5848234292189707,-0.0005019839638694679,0.2731358114247635,-0.0008248076590060549,-0.1980860731461207
467,0.4576,144.697,447.493,0.00093086,254.462,-0.771793,-1.34041,-0.0176216,0.241924,-0.221158,0.461314,-0.000503614,-0.000827706,0.316907,-0.01746724758205509,0.5861568263378416,-0.0005034872077551711,0.2736973881361653,-0.0008273635458790896,-0.19840998093878992
468,0.4586,144.76,447.699,0.00090985,254.576,-0.773729,-1.34378,-0.0176573,0.242365,-0.221562,0.462154,-0.000505121,-0.000830269,0.317493,-0.01750232337520974,0.5874897578248137,-0.000504993447865032,0.27425921255751295,-0.0008299244220645319,-0.19873375789914094
469,0.4596,144.823,447.904,0.000888793,254.69,-0.775669,-1.34715,-0.0176929,0.242806,-0.221966,0.462994,-0.000506631,-0.000832835,0.318079,-0.017537299669915907,0.5888238094446245,-0.0005065026841853948,0.27482128479807044,-0.0008324882891890262,-0.19905740408001915
470,0.4606,144.885,448.11,0.000867688,254.803,-0.777613,-1.35053,-0.0177285,0.243247,-0.22237,0.463833,-0.000508143,-0.000835407,0.318664,-0.01757227471948808,0.5901573919803942,-0.0005080139172108922,0.2753836049671503,-0.0008350581447242877,-0.19938091953424875
471,0.4616,144.948,448.314,0.000846537,254.917,-0.779562,-1.35391,-0.0177641,0.243687,-0.222773,0.464672,-0.000509657,-0.000837982,0.319249,-0.017607248523970553,0.5914920938614112,-0.0005095271469323093,0.27594489722857785,-0.0008376309911370949,-0.19970350401853698
472,0.4626,145.011,448.519,0.000825337,255.03,-0.781515,-1.35731,-0.0177997,0.244127,-0.223176,0.46551,-0.000511174,-0.000840562,0.319834,-0.01764222108340785,0.5928263232000803,-0.0005110433728295893,0.2765064365129415,-0.0008402088267236429,-0.20002595852746985
473,0.4636,145.073,448.723,0.000804089,255.143,-0.783472,-1.36071,-0.0178353,0.244567,-0.223579,0.466347,-0.000512694,-0.000843146,0.320418,-0.017677192397844266,0.5941600769306696,-0.0005125625948889656,0.27706822292895517,-0.0008427906522883166,-0.2003482831134169
474,0.4646,145.135,448.926,0.000782792,255.255,-0.785434,-1.36411,-0.0178708,0.245007,-0.223982,0.467184,-0.000514216,-0.000845735,0.321002,-0.01771206423853533,0.595494947480455,-0.0005140838136110659,0.27763025658538076,-0.0008453774669546776,-0.20067047782872638
475,0.4656,145.197,449.13,0.000761446,255.368,-0.787399,-1.36753,-0.0179064,0.245446,-0.224384,0.46802,-0.000515741,-0.000848328,0.321585,-0.017747033066599527,0.5968293389544679,-0.0005156080284710596,0.2781912593991296,-0.0008479682715319958,-0.2009917437178691
476,0.4666,145.259,449.333,0.000740051,255.48,-0.78937,-1.37095,-0.0179419,0.245885,-0.224786,0.468856,-0.000517268,-0.000850926,0.322168,-0.017781902427990826,0.5981648464461837,-0.00051713423997235,0.27875250854718026,-0.0008505640651385038,-0.2013128804840797
477,0.4676,145.321,449.535,0.000718605,255.592,-0.791344,-1.37438,-0.0179774,0.246323,-0.225187,0.469691,-0.000518798,-0.000853528,0.32275,-0.01781677055154185,0.599499871388312,-0.0005186634475871088,0.27931272482433234,-0.0008531638485884674,-0.20163308981274441
478,0.4686,145.383,449.737,0.000697109,255.704,-0.793323,-1.37782,-0.0180129,0.246762,-0.225589,0.470525,-0.00052033,-0.000856134,0.323332,-0.01785163743729634,0.6008344107065915,-0.0005201946518218481,0.2798744664037853,-0.0008557676218506893,-0.20195396880964
479,0.4696,145.445,449.939,0.000675562,255.815,-0.795306,-1.38127,-0.0180483,0.2472,-0.22599,0.471359,-0.000521865,-0.000858745,0.323914,-0.017886404873943773,0.602170063494915,-0.0005217288521455199,0.28043517420611486,-0.0008583763840357417,-0.20227392111342302
480,0.4706,145.506,450.14,0.000653964,255.926,-0.797294,-1.38472,-0.0180838,0.247637,-0.226391,0.472192,-0.000523403,-0.000861361,0.324495,-0.01792126928772375,0.6035052271762751,-0.0005232660485444685,0.28099484665676666,-0.0008609901351043225,-0.2025937451420532
481,0.4716,145.568,450.341,0.000632315,256.038,-0.799286,-1.38818,-0.0181192,0.248075,-0.226791,0.473025,-0.000524943,-0.000863981,0.325076,-0.017956034259447362,0.6048415035123378,-0.0005248052415295357,0.28155604529313183,-0.0008636078758809118,-0.20291264386000074
482,0.4726,145.629,450.541,0.000610613,256.149,-0.801282,-1.39165,-0.0181547,0.248512,-0.227192,0.473857,-0.000526485,-0.000866605,0.325657,-0.01799089620142802,0.6061772872522408,-0.0005263464310916177,0.28211620767149026,-0.0008662296063342012,-0.20323221181215623
483,0.4736,145.69,450.741,0.000588858,256.259,-0.803283,-1.39513,-0.0181901,0.248949,-0.227592,0.474689,-0.00052803,-0.000869234,0.326237,-0.018025658708402448,0.6075141828266744,-0.0005278906166934494,0.2826766148943025,-0.0008688563255636605,-0.20355085519450633
484,0.4746,145.751,450.941,0.000567051,256.37,-0.805288,-1.39861,-0.0182255,0.249385,-0.227992,0.47552,-0.000529578,-0.000871868,0.326817,-0.01806041998480601,0.608850582309683,-0.0005294377983212639,0.2832359838319636,-0.00087148803353021,-0.2038693711449916
485,0.4756,145.812,451.141,0.00054519,256.48,-0.807297,-1.40211,-0.0182608,0.249822,-0.228391,0.47635,-0.000531128,-0.000874506,0.327396,-0.01809508184019515,0.610186482614935,-0.0005309869764921205,0.28379688050389484,-0.0008741237310682104,-0.20418696390193625
486,0.4766,145.873,451.34,0.000523276,256.59,-0.809311,-1.4056,-0.0182962,0.250258,-0.22879,0.47718,-0.000532681,-0.000877149,0.327975,-0.018129840659063312,0.6115234921777184,-0.0005325391506640909,0.2843567379838563,-0.0008767644172695821,-0.20450442996464813
487,0.4776,145.934,451.538,0.000501307,256.7,-0.811329,-1.40911,-0.0183315,0.250693,-0.229189,0.47801,-0.000534237,-0.000879796,0.328554,-0.018164500063945987,0.6128616119190995,-0.0005340943208231863,0.284915554698703,-0.000879409092973904,-0.20482176938366814
488,0.4786,145.994,451.736,0.000479283,256.81,-0.813352,-1.41263,-0.0183668,0.251129,-0.229588,0.478839,-0.000535795,-0.000882448,0.329132,-0.018199158245373215,0.6141992285608731,-0.0005356514874912399,0.28547590002695644,-0.0008820587572675453,-0.20513898220951687
489,0.4796,146.055,451.934,0.000457205,256.919,-0.815379,-1.41615,-0.0184021,0.251564,-0.229986,0.479667,-0.000537356,-0.000885104,0.32971,-0.018233815203388182,0.6155363390094553,-0.0005372116501215496,0.2860352036831939,-0.0008847124109954141,-0.20545527394836627
490,0.4806,146.115,452.132,0.000435071,257.028,-0.81741,-1.41968,-0.0184374,0.251999,-0.230384,0.480494,-0.000538919,-0.000887765,0.330287,-0.018268470938034187,0.6168729401702178,-0.000538773809238946,0.2865947506894466,-0.0008873710532384393,-0.20577143982815127
491,0.4816,146.175,452.329,0.000412881,257.137,-0.819446,-1.42322,-0.0184727,0.252433,-0.230782,0.481322,-0.000540485,-0.00089043,0.330864,-0.018303125449354418,0.6182122653687927,-0.0005403389642936185,0.2871532539976973,-0.0008900336848465251,-0.2060874798989537
492,0.4826,146.236,452.526,0.000390634,257.246,-0.821486,-1.42676,-0.018508,0.252867,-0.23118,0.482148,-0.000542054,-0.000893101,0.331441,-0.01833777873739184,0.6195494608857077,-0.0005419071152715782,0.2877119997489901,-0.0008927023040026238,-0.20640339421083576
493,0.4836,146.296,452.722,0.000368331,257.355,-0.823531,-1.43032,-0.0185432,0.253301,-0.231577,0.482974,-0.000543625,-0.000895775,0.332017,-0.018372332639428057,0.6208877613824135,-0.0005434772627020967,0.2882709880485681,-0.0008953739133447103,-0.20671838953262545
494,0.4846,146.355,452.918,0.00034597,257.463,-0.82558,-1.43388,-0.0185784,0.253735,-0.231974,0.4838,-0.000545199,-0.000898455,0.332593,-0.018406885325188305,0.6222271677720006,-0.0005450504060308115,0.28883021900172,-0.0008980515101546516,-0.20703325982609222
495,0.4856,146.415,453.114,0.000323552,257.571,-0.827633,-1.43745,-0.0186136,0.254168,-0.232371,0.484624,-0.000546776,-0.000901139,0.333169,-0.018441436794715438,0.6235644338361988,-0.0005466265452436225,0.2893884033247327,-0.0009007330961857685,-0.20734800514086238
496,0.4866,146.475,453.309,0.000301076,257.679,-0.829691,-1.44102,-0.0186488,0.254601,-0.232768,0.485449,-0.000548355,-0.000903827,0.333744,-0.01847598704805231,0.6249044271653592,-0.0005482046808743535,0.2899468293938914,-0.0009034186714057535,-0.2076626255265427
497,0.4876,146.534,453.504,0.000278541,257.787,-0.831753,-1.44461,-0.018684,0.255034,-0.233164,0.486273,-0.000549937,-0.000906521,0.334319,-0.018510536085241558,0.6262439002004447,-0.0005497858123638677,0.29050549731389497,-0.0009061102339703586,-0.20797632900944507
498,0.4886,146.594,453.698,0.000255948,257.895,-0.83382,-1.4482,-0.0187192,0.255466,-0.23356,0.487096,-0.000551522,-0.000909219,0.334893,-0.018545083906326143,0.6275828498325076,-0.0005513699396979543,0.2910631161257258,-0.0009088057856486698,-0.20828990829036187
499,0.4896,146.653,453.893,0.000233294,258.002,-0.835891,-1.4518,-0.0187543,0.255899,-0.233956,0.487918,-0.000553109,-0.000911921,0.335467,-0.018579532369306984,0.6289212729516092,-0.0005529560634152109,0.29162226750254505,-0.0009115053264082684,-0.2086033634184673
500,0.4906,146.713,454.086,0.000210582,258.109,-0.837967,-1.45541,-0.0187894,0.256331,-0.234351,0.488741,-0.000554699,-0.000914629,0.336041,-0.01861397962316791,0.630262426968426,-0.0005545451829517267,0.29218036886332044,-0.0009142108543885863,-0.20891590335921506
501,0.4916,146.772,454.28,0.000187808,258.216,-0.840047,-1.45902,-0.0188245,0.256762,-0.234746,0.489562,-0.000556292,-0.000917341,0.336614,-0.01864842566795155,0.6316014220032176,-0.00055613729829318,0.2927374186379037,-0.0009169203713746965,-0.20922831987106494
502,0.4926,146.831,454.473,0.000164974,258.323,-0.842132,-1.46265,-0.0188596,0.257194,-0.235141,0.490383,-0.000557887,-0.000920057,0.337187,-0.01868287050370021,0.6329415168043249,-0.0005577314099828312,0.2932960018480417,-0.0009196338773339585,-0.20954061300276194
503,0.4936,146.89,454.666,0.000142079,258.43,-0.844221,-1.46628,-0.0188947,0.257625,-0.235536,0.491203,-0.000559485,-0.000922779,0.337759,-0.018717314130456297,0.6342810779931316,-0.0005593285174519957,0.293853532564077,-0.0009223533703893727,-0.20985278280303143
504,0.4946,146.948,454.858,0.000119122,258.536,-0.846314,-1.46992,-0.0189298,0.258055,-0.23593,0.492023,-0.000561086,-0.000925505,0.338331,-0.018751756548262444,0.635621738072597,-0.0005609286206861297,0.29441000921698546,-0.0009250768523418884,-0.21016403948501416
505,0.4956,147.007,455.05,9.61038e-05,258.642,-0.848413,-1.47356,-0.0189648,0.258486,-0.236324,0.492843,-0.00056269,-0.000928236,0.338903,-0.01878609963577571,0.6369634979441805,-0.0005625317196709112,0.29496802017368107,-0.0009278053222313565,-0.2104751735560202
506,0.4966,147.066,455.242,7.30226e-05,258.748,-0.850515,-1.47722,-0.0189999,0.258916,-0.236718,0.493661,-0.000564296,-0.000930972,0.339474,-0.018820539639252898,0.6383030819006414,-0.00056413681495604,0.29552497615931084,-0.0009305387800165876,-0.21078618506434854
507,0.4976,147.124,455.433,4.98785e-05,258.854,-0.852622,-1.48088,-0.0190349,0.259346,-0.237112,0.49448,-0.000565905,-0.000933712,0.340045,-0.01885488031940008,0.6396454017296567,-0.0005657449059662811,0.2960821716875126,-0.0009332762265900074,-0.2110970740582796
508,0.4986,147.182,455.624,2.6671e-05,258.96,-0.854734,-1.48455,-0.0190699,0.259776,-0.237505,0.495297,-0.000567516,-0.000936457,0.340616,-0.018889219797644574,0.640985539394562,-0.000567354993254332,0.2966396068613113,-0.000936018660982807,-0.21140705199352083
509,0.4996,147.241,455.815,3.39974e-06,259.065,-0.85685,-1.48823,-0.0191048,0.260205,-0.237898,0.496115,-0.000569131,-0.000939207,0.341186,-0.01892345996637912,0.6423284147269186,-0.0005689690756726096,0.29719598458714414,-0.000938766083153797,-0.21171690813136823
510,0.5006,147.299,456.005,-1.99358e-05,259.17,-0.85897,-1.49191,-0.0191398,0.260634,-0.238291,0.496931,-0.000570748,-0.000941962,0.341756,-0.018957797044377944,0.643669101639204,-0.0005705851543430507,0.2977526010502265,-0.0009415184930617881,-0.21202664251967873
511,0.5016,147.357,456.195,-4.33359e-05,259.275,-0.861095,-1.49561,-0.0191748,0.261063,-0.238683,0.497747,-0.000572368,-0.000944722,0.342325,-0.01899213292060009,0.6450108829984833,-0.0005722042286836482,0.2983094563529991,-0.0009442758906654802,-0.21233546754215205
512,0.5026,147.415,456.385,-6.68012e-05,259.38,-0.863225,-1.49931,-0.0192097,0.261491,-0.239076,0.498563,-0.00057399,-0.000947486,0.342894,-0.0190263694977294,0.6463537596981899,-0.0005738252992536497,0.2988652517320449,-0.0009470372768707325,-0.21264495888437585
513,0.5036,147.473,456.574,-9.03321e-05,259.485,-0.865359,-1.50302,-0.0192446,0.26192,-0.239468,0.499378,-0.000575616,-0.000950255,0.343463,-0.019060604880023035,0.6476960849355777,-0.0005754503648924825,0.29942258446436143,-0.0009498036506944141,-0.21295354157433444
514,0.5046,147.53,456.763,-0.000113929,259.589,-0.867498,-1.50674,-0.0192795,0.262348,-0.239859,0.500192,-0.000577244,-0.000953029,0.344031,-0.01909483906752274,0.649037855575278,-0.0005770774267349621,0.2999788563642072,-0.0009525750120952248,-0.21326121658519437
515,0.5056,147.588,456.952,-0.000137592,259.694,-0.869641,-1.51046,-0.0193144,0.262775,-0.240251,0.501006,-0.000578875,-0.000955808,0.344599,-0.019129072060270036,0.6503807188609254,-0.000578707484192309,0.30053406586466713,-0.0009553513610315312,-0.2135695577494764
516,0.5066,147.645,457.14,-0.000161323,259.798,-0.871789,-1.5142,-0.0193492,0.263203,-0.240642,0.501819,-0.000580509,-0.000958592,0.345167,-0.019163205774632264,0.6517230239584466,-0.0005803405372500903,0.3010908135803694,-0.0009581326974616999,-0.21387699194509435
517,0.5076,147.703,457.328,-0.00018512,259.901,-0.873941,-1.51794,-0.0193841,0.26363,-0.241033,0.502632,-0.000582145,-0.00096138,0.345734,-0.019197436381423127,0.6530664207937429,-0.0005819755864755471,0.30164649798794607,-0.000960918022305024,-0.2141843059574392
518,0.5086,147.76,457.515,-0.000208986,260.005,-0.876098,-1.52169,-0.0194189,0.264057,-0.241424,0.503444,-0.000583785,-0.000964174,0.346301,-0.019231567716748388,0.6544092558446757,-0.0005836146306915646,0.30220241972343076,-0.0009637093336005709,-0.21449149983349347
519,0.5096,147.817,457.703,-0.00023292,260.109,-0.878259,-1.52545,-0.0194538,0.264483,-0.241814,0.504256,-0.000585427,-0.000966972,0.346867,-0.01926579593774913,0.6557531817204847,-0.0005852556710489454,0.3027572761302566,-0.0009665046332312244,-0.21479778841840214
520,0.5106,147.874,457.889,-0.000256922,260.212,-0.880425,-1.52921,-0.0194886,0.264909,-0.242204,0.505067,-0.000587072,-0.000969775,0.347433,-0.01929992489420329,0.6570965422099089,-0.0005868997069512494,0.30331236895626534,-0.0009693049201942028,-0.21510395757405287
521,0.5116,147.931,458.076,-0.000280994,260.315,-0.882596,-1.53299,-0.0195233,0.265335,-0.242594,0.505878,-0.000588719,-0.000972583,0.347999,-0.019333954596390646,0.6584409926065875,-0.000588545738971824,0.30386769830219307,-0.0009721101944473176,-0.2154100073470141
522,0.5126,147.988,458.262,-0.000305135,260.418,-0.884771,-1.53677,-0.0195581,0.265761,-0.242984,0.506688,-0.00059037,-0.000975396,0.348565,-0.01936808118096467,0.6597848740090901,-0.0005901957659207868,0.30442326426881894,-0.0009749204559487135,-0.2157159377838359
523,0.5136,148.045,458.448,-0.000329347,260.521,-0.886951,-1.54056,-0.0195929,0.266187,-0.243373,0.507497,-0.000592023,-0.000978214,0.349129,-0.019402206577954217,0.6611281832674942,-0.000591847788961708,0.30497906695696453,-0.0009777357046562019,-0.2160209649524073
524,0.5146,148.102,458.634,-0.000353628,260.624,-0.889135,-1.54436,-0.0196276,0.266612,-0.243763,0.508306,-0.000593679,-0.000981037,0.349694,-0.01943623273102879,0.6624725797027922,-0.0005935028074914861,0.3055338009330413,-0.0009805559405275943,-0.21632665716222033
525,0.5156,148.158,458.819,-0.000377981,260.726,-0.891324,-1.54816,-0.0196623,0.267037,-0.244151,0.509115,-0.000595338,-0.000983865,0.350258,-0.01947025770341637,0.6638180641948659,-0.0005951608214950221,0.30608877072116436,-0.0009833811635204803,-0.21663066343820991
526,0.5166,148.215,459.004,-0.000402406,260.828,-0.893518,-1.55197,-0.019697,0.267461,-0.24454,0.509923,-0.000597,-0.000986697,0.350822,-0.019504281495157816,0.6651629724605046,-0.0005968218309574391,0.30664266977825205,-0.0009862103745789108,-0.21693533484770144
527,0.5176,148.271,459.188,-0.000426902,260.93,-0.895716,-1.5558,-0.0197317,0.267886,-0.244928,0.51073,-0.000598665,-0.000989535,0.351386,-0.019538304106294313,0.6665073013430265,-0.000598485835863749,0.3071981109357933,-0.000989045571690661,-0.2172391050025596
528,0.5186,148.327,459.373,-0.000451471,261.032,-0.897919,-1.55963,-0.0197664,0.26831,-0.245316,0.511537,-0.000600332,-0.000992378,0.351949,-0.019572325536866497,0.667852715536821,-0.0006001518367992897,0.3077524804528624,-0.0009918857557967842,-0.2175427573174601
529,0.5196,148.384,459.556,-0.000476113,261.134,-0.900126,-1.56346,-0.019801,0.268733,-0.245704,0.512343,-0.000602003,-0.000995225,0.352511,-0.01960624774754538,0.669197546719706,-0.0006018218325503089,0.30830577676601423,-0.000994729927849325,-0.217846291838116
530,0.5206,148.44,459.74,-0.000500827,261.235,-0.902338,-1.56731,-0.0198357,0.269157,-0.246092,0.513149,-0.000603676,-0.000998078,0.353074,-0.01964026682051412,0.6705434622734674,-0.0006034938243036914,0.3088606160329752,-0.000997580085819183,-0.21814970861022254
531,0.5216,148.496,459.923,-0.000525616,261.337,-0.904555,-1.57117,-0.0198703,0.26958,-0.246479,0.513954,-0.000605352,-0.00100094,0.353636,-0.019674186680465167,0.6718887911828331,-0.0006051688114444564,0.3094143811866301,-0.0010004392266534934,-0.21845222613207427
532,0.5226,148.552,460.106,-0.000550479,261.438,-0.906776,-1.57503,-0.0199049,0.270003,-0.246866,0.514759,-0.000607031,-0.0010038,0.354198,-0.019708105366809447,0.6732352035179909,-0.000606846793957283,0.30996838063249443,-0.0010032963613115786,-0.21875462660229594
533,0.5236,148.607,460.289,-0.000575417,261.539,-0.909002,-1.5789,-0.0199395,0.270426,-0.247253,0.515563,-0.000608713,-0.00100667,0.354759,-0.019742022879587373,0.6745810255695874,-0.0006085277718272941,0.3105226144696944,-0.0010061634777367434,-0.2190569100661779
534,0.5246,148.663,460.471,-0.000600429,261.64,-0.911233,-1.58278,-0.0199741,0.270848,-0.24764,0.516367,-0.000610398,-0.00100954,0.35532,-0.01977593921883969,0.6759279300972105,-0.0006102117450392797,0.31107577172097156,-0.0010090305859332682,-0.21935907656899267
535,0.5256,148.719,460.653,-0.000625518,261.74,-0.913468,-1.58666,-0.0200086,0.27127,-0.248026,0.51717,-0.000612085,-0.00101242,0.35588,-0.01980975636558746,0.6772742406964414,-0.0006118977141899018,0.31162916245387007,-0.0010119076757821865,-0.21966034581673155
536,0.5266,148.774,460.835,-0.000650682,261.841,-0.915708,-1.59056,-0.0200432,0.271692,-0.248412,0.517973,-0.000613776,-0.0010153,0.356441,-0.019843670361301746,0.6786216328172563,-0.0006135876780420935,0.3121827867669398,-0.0010147847573450663,-0.2199614987969819
537,0.5276,148.83,461.016,-0.000675924,261.941,-0.917952,-1.59446,-0.0200777,0.272114,-0.248798,0.518775,-0.000615469,-0.00101819,0.357,-0.01987748517136545,0.6799684273591984,-0.0006152796378058323,0.3127366447587723,-0.0010176718204453206,-0.22026253555461428
538,0.5286,148.885,461.197,-0.000701242,262.041,-0.920202,-1.59837,-0.0201122,0.272535,-0.249183,0.519576,-0.000617166,-0.00102108,0.35756,-0.01991129881483833,0.6813146211481489,-0.0006169755922372788,0.31328942323792086,-0.0010205588752019157,-0.22056267669754837
539,0.5296,148.94,461.378,-0.000726637,262.141,-0.922456,-1.60229,-0.0201467,0.272956,-0.249569,0.520378,-0.000618865,-0.00102398,0.358119,-0.019945111291760576,0.6826635763330344,-0.0006186735425534051,0.31384243448580373,-0.001023455911380533,-0.2208634814452919
540,0.5306,148.995,461.558,-0.000752111,262.241,-0.924714,-1.60622,-0.0201812,0.273377,-0.249954,0.521178,-0.000620567,-0.00102688,0.358678,-0.0199789226021726,0.6840102457900614,-0.0006203744881234652,0.31439567860043693,-0.0010263529391576487,-0.22116339126858997
541,0.5316,149.05,461.738,-0.000777663,262.34,-0.926978,-1.61016,-0.0202157,0.273797,-0.250339,0.521978,-0.000622272,-0.00102979,0.359236,-0.02001273274611448,0.685357993013703,-0.00062207842893236,0.3149478407313797,-0.0010292599482408793,-0.22146318564883027
542,0.5326,149.105,461.918,-0.000803295,262.44,-0.929246,-1.6141,-0.0202501,0.274218,-0.250723,0.522777,-0.00062398,-0.0010327,0.359794,-0.020046443728275798,0.6867051321605422,-0.0006237853649646574,0.3155015503200178,-0.0010321669488647656,-0.22176208639292538
543,0.5336,149.16,462.097,-0.000829005,262.539,-0.931519,-1.61805,-0.0202846,0.274638,-0.251107,0.523576,-0.000625691,-0.00103562,0.360352,-0.020080251542779037,0.6880533481016817,-0.0006254952962050364,0.31605417701463434,-0.0010350839306785264,-0.22206087238116934
544,0.5346,149.215,462.277,-0.000854796,262.638,-0.933796,-1.62201,-0.020319,0.275057,-0.251491,0.524375,-0.000627405,-0.00103854,0.360909,-0.02011396020233369,0.6894026416978241,-0.0006272082226381759,0.3166057192548337,-0.0010380009039746563,-0.22235954365761978
545,0.5356,149.269,462.455,-0.000880666,262.737,-0.936078,-1.62598,-0.0203534,0.275477,-0.251875,0.525173,-0.000629122,-0.00104147,0.361466,-0.020147667702330452,0.6907513230581912,-0.0006289241442485327,0.3171588097978044,-0.0010409278583439763,-0.22265810026631772
546,0.5366,149.324,462.634,-0.000906618,262.835,-0.938365,-1.62996,-0.0203878,0.275896,-0.252259,0.52597,-0.000630842,-0.00104441,0.362022,-0.020181374042809064,0.6920993889955862,-0.0006306430610207858,0.31771081497611875,-0.0010438647936987788,-0.22295654225128703
547,0.5376,149.378,462.812,-0.000932651,262.934,-0.940657,-1.63395,-0.0204221,0.276315,-0.252642,0.526767,-0.000632565,-0.00104735,0.362579,-0.020214981245312624,0.6934485297697985,-0.0006323649729392811,0.31826305149306466,-0.0010468017204190438,-0.22325409291101617
548,0.5386,149.433,462.99,-0.000958766,263.032,-0.942953,-1.63794,-0.0204565,0.276733,-0.253025,0.527563,-0.000634291,-0.00105029,0.363135,-0.020248685270245148,0.6947970514399162,-0.0006340898799888084,0.31881420063073374,-0.0010497386385046603,-0.2235515296306636
549,0.5396,149.487,463.168,-0.000984963,263.131,-0.945254,-1.64194,-0.0204908,0.277152,-0.253408,0.528359,-0.00063602,-0.00105324,0.36369,-0.020282290164013173,0.6961466469606192,-0.0006358177821536026,0.31936689956313824,-0.0010526855374289878,-0.22384885245385988
550,0.5406,149.541,463.345,-0.00101124,263.229,-0.94756,-1.64595,-0.0205251,0.27757,-0.25379,0.529154,-0.000637751,-0.00105619,0.364245,-0.020315893905153093,0.6974956196905644,-0.00063754768005575,0.31991851020574824,-0.001055632427660047,-0.22414528556989266
551,0.5416,149.595,463.522,-0.00103761,263.327,-0.949871,-1.64997,-0.0205594,0.277988,-0.254173,0.529949,-0.000639486,-0.00105915,0.3648,-0.020349496493704433,0.6988456652802351,-0.0006392815724064471,0.3204703514698035,-0.0010585892986118006,-0.22444238102810743
552,0.5426,149.649,463.699,-0.00106405,263.424,-0.952186,-1.654,-0.0205937,0.278405,-0.254555,0.530743,-0.000641224,-0.00106212,0.365354,-0.020383097929706828,0.7001950843869593,-0.0006410184598256707,0.32102110242996074,-0.0010615561501958748,-0.22473858745952424
553,0.5436,149.703,463.875,-0.00109059,263.522,-0.954507,-1.65803,-0.020628,0.278822,-0.254936,0.531537,-0.000642965,-0.00106509,0.365908,-0.02041669821319969,0.7015455753579283,-0.0006427583422979888,0.3215720831011599,-0.0010645229929683309,-0.2250339057959867
554,0.5446,149.757,464.051,-0.0011172,263.619,-0.956832,-1.66208,-0.0206622,0.279239,-0.255318,0.53233,-0.000644708,-0.00106806,0.366462,-0.020450199389247414,0.7028954361482522,-0.0006445002204521488,0.32212329357921043,-0.0010674898269292799,-0.22532988630809558
555,0.5456,149.811,464.227,-0.0011439,263.716,-0.959161,-1.66613,-0.0206965,0.279656,-0.255699,0.533123,-0.000646455,-0.00107104,0.367016,-0.020483797371199652,0.7042463678027244,-0.0006462460929852476,0.3226747339599614,-0.0010704666413741126,-0.22562497940260806
556,0.5466,149.864,464.402,-0.00117069,263.813,-0.961496,-1.67019,-0.0207307,0.280073,-0.25608,0.533915,-0.000648205,-0.00107403,0.367569,-0.02051729625249543,0.7055966655733588,-0.0006479949605243673,0.3232264043393027,-0.0010734534362136783,-0.2259199600880668
557,0.5476,149.918,464.577,-0.00119756,263.91,-0.963835,-1.67426,-0.0207649,0.280489,-0.256461,0.534707,-0.000649958,-0.00107702,0.368121,-0.020550793988149074,0.7069480332034357,-0.0006497468230536319,0.32377698103552066,-0.00107644022212261,-0.22621482840729146
558,0.5486,149.971,464.752,-0.00122452,264.007,-0.966179,-1.67834,-0.0207991,0.280905,-0.256842,0.535498,-0.000651714,-0.00108002,0.368673,-0.02058429057819977,0.7082987632410023,-0.000651501680557498,0.3243277868192911,-0.0010794369883068144,-0.22650958440308555
559,0.5496,150.025,464.927,-0.00125157,264.104,-0.968528,-1.68242,-0.0208333,0.28132,-0.257222,0.536289,-0.000653472,-0.00108302,0.369225,-0.0206177860226866,0.709650562128703,-0.0006532585336732621,0.324877496907775,-0.001082433745500655,-0.22680345492207743
560,0.5506,150.078,465.101,-0.00127871,264.2,-0.970882,-1.68652,-0.0208674,0.281736,-0.257602,0.537079,-0.000655234,-0.00108603,0.369777,-0.020651182386771993,0.7110017197097576,-0.0006550193810803684,0.3254287606013868,-0.0010854404828499753,-0.22709721379148695
561,0.5516,150.131,465.275,-0.00130593,264.296,-0.973241,-1.69062,-0.0209016,0.282151,-0.257982,0.537868,-0.000656999,-0.00108904,0.370328,-0.020684675543598097,0.7123522327739522,-0.0006567832234145587,0.325978927688811,-0.0010884472111489796,-0.22739086105373285
562,0.5526,150.184,465.449,-0.00133324,264.392,-0.975604,-1.69473,-0.0209357,0.282566,-0.258361,0.538658,-0.000658767,-0.00109206,0.370879,-0.02071806962678968,0.7137055255180951,-0.000658550060659957,0.32652932314295935,-0.0010914639194832265,-0.22768362443522827
563,0.5536,150.237,465.622,-0.00136064,264.488,-0.977972,-1.69885,-0.0209698,0.28298,-0.258741,0.539446,-0.000660539,-0.00109508,0.37143,-0.02075146257126248,0.7150564576695666,-0.0006603208921402981,0.32707861997934007,-0.0010944806187068723,-0.22797704890376302
564,0.5546,150.29,465.795,-0.00138813,264.584,-0.980345,-1.70298,-0.0210039,0.283395,-0.25912,0.540234,-0.000662313,-0.00109811,0.37198,-0.02078485437705524,0.7164084547751104,-0.0006620937191584852,0.3276294719004993,-0.0010975072978451905,-0.2282695901621583
565,0.5556,150.343,465.968,-0.00141571,264.68,-0.982723,-1.70711,-0.021038,0.283809,-0.259498,0.541022,-0.00066409,-0.00110114,0.37253,-0.02081824504420693,0.7177615176742407,-0.0006638695410401407,0.32817922429275903,-0.0011005339678127335,-0.22856124913005926
566,0.5566,150.396,466.141,-0.00144339,264.775,-0.985106,-1.71126,-0.0210721,0.284223,-0.259877,0.541809,-0.00066587,-0.00110418,0.373079,-0.020851634572756184,0.7191139280923464,-0.0006656483577692773,0.3287292043296286,-0.0011035706175737126,-0.22885356901852105
567,0.5576,150.449,466.313,-0.00147115,264.87,-0.987494,-1.71541,-0.0211061,0.284636,-0.260255,0.542596,-0.000667654,-0.00110723,0.373628,-0.0208849250512394,0.7204674032763816,-0.0006674311686623025,0.32927808282662463,-0.0011066172470372004,-0.22914500728412968
568,0.5586,150.501,466.485,-0.001499,264.965,-0.989886,-1.71957,-0.0211402,0.28505,-0.260633,0.543382,-0.00066944,-0.00111028,0.374177,-0.020918312306039244,0.7218202222435639,-0.0006692159750364413,0.32982851788511014,-0.0011096638672085657,-0.22943633540689223
569,0.5596,150.554,466.656,-0.00152695,265.06,-0.992284,-1.72374,-0.0211742,0.285463,-0.261011,0.544167,-0.00067123,-0.00111333,0.374725,-0.020951600517517988,0.7231723817712032,-0.0006710047755388304,0.3303778504923718,-0.0011127104780876973,-0.22972755342843476
570,0.5606,150.606,466.828,-0.00155499,265.155,-0.994686,-1.72792,-0.0212082,0.285875,-0.261389,0.544952,-0.000673023,-0.00111639,0.375273,-0.02098488759721684,0.7245256031607985,-0.0006727965708209771,0.33092607909411176,-0.0011157670685170151,-0.23001866139036786
571,0.5616,150.658,466.999,-0.00158312,265.25,-0.997093,-1.73211,-0.0212422,0.286288,-0.261766,0.545737,-0.000674818,-0.00111946,0.375821,-0.021018173545174212,0.725879887246238,-0.0006745903615411608,0.3314758650877705,-0.0011188336384049258,-0.23030888964356044
572,0.5626,150.711,467.169,-0.00161135,265.344,-0.999505,-1.73631,-0.0212761,0.2867,-0.262143,0.546521,-0.000676617,-0.00112253,0.376369,-0.021051360466569524,0.7272335076276943,-0.0006763881463359711,0.3320245461647273,-0.0011219001988784782,-0.23059900850132398
573,0.5636,150.763,467.34,-0.00163967,265.439,-1.00192,-1.74051,-0.0213101,0.287112,-0.26252,0.547304,-0.000678419,-0.00112561,0.376916,-0.02108464415448774,0.7285864610763184,-0.0006781889258620222,0.33257345334486166,-0.001124976738687944,-0.2308890180048926
574,0.5646,150.815,467.51,-0.00166809,265.533,-1.00434,-1.74473,-0.021344,0.287524,-0.262897,0.548087,-0.000680225,-0.00112869,0.377462,-0.02111782882256763,0.7299404743023417,-0.0006799936994231759,0.33312258672134765,-0.001128053269021767,-0.2311789181954852
575,0.5656,150.867,467.68,-0.0016966,265.627,-1.00677,-1.74895,-0.0213779,0.287935,-0.263273,0.54887,-0.000682033,-0.00113178,0.378009,-0.021151012365706268,0.7312955481358945,-0.0006818004683611933,0.33367061271611775,-0.0011311397785684907,-0.23146794058262987
576,0.5666,150.919,467.85,-0.00172521,265.721,-1.0092,-1.75318,-0.0214118,0.288347,-0.263649,0.549652,-0.000683844,-0.00113487,0.378555,-0.021184194783941956,0.7326499507569408,-0.0006836102319818238,0.3342201982153956,-0.0011342262785779544,-0.2317568543177848
577,0.5676,150.971,468.019,-0.00175391,265.814,-1.01164,-1.75742,-0.0214457,0.288758,-0.264025,0.550433,-0.000685659,-0.00113797,0.3791,-0.021217376077312666,0.7340036789305235,-0.000685423989583267,0.33476867542120714,-0.0011373227576769729,-0.23204565944179556
578,0.5686,151.022,468.188,-0.00178271,265.908,-1.01408,-1.76167,-0.0214796,0.289168,-0.264401,0.551214,-0.000687477,-0.00114107,0.379646,-0.02125055624585659,0.7353584647787781,-0.0006872407418310189,0.3353160427807709,-0.001140419227176892,-0.23233435599549201
579,0.5696,151.074,468.357,-0.00181161,266.001,-1.01653,-1.76592,-0.0215135,0.289579,-0.264776,0.551995,-0.000689298,-0.00114418,0.380191,-0.021283735289611916,0.7367143091280712,-0.0006890604887087592,0.33586497047126684,-0.001143525675642576,-0.2326221766422496
580,0.5706,151.126,468.526,-0.0018406,266.095,-1.01898,-1.77019,-0.0215473,0.289989,-0.265151,0.552775,-0.000691122,-0.0011473,0.380735,-0.021316815340303163,0.7380694747350709,-0.0006908832302000567,0.3364127874039573,-0.001146642102980766,-0.23290988937649948
581,0.5716,151.177,468.694,-0.0018697,266.188,-1.02144,-1.77446,-0.0215811,0.290399,-0.265526,0.553555,-0.000692949,-0.00115042,0.381279,-0.021349894272907566,0.7394256977835927,-0.000692708966288591,0.33696082898764046,-0.001149758520595845,-0.23319749423870118
582,0.5726,151.229,468.862,-0.00189889,266.281,-1.0239,-1.77874,-0.0216149,0.290808,-0.265901,0.554334,-0.00069478,-0.00115354,0.381823,-0.02138297208746287,0.7407812383166539,-0.0006945386962633471,0.3375077578060155,-0.0011528749284875905,-0.23348499126929934
583,0.5736,151.28,469.029,-0.00192819,266.374,-1.02636,-1.78303,-0.0216487,0.291218,-0.266275,0.555112,-0.000696613,-0.00115668,0.382367,-0.021416048784007047,0.7421360930902319,-0.0006963704214951738,0.33805624841960835,-0.001156011303536264,-0.23377161428072057
584,0.5746,151.331,469.197,-0.00195758,266.466,-1.02883,-1.78733,-0.0216825,0.291627,-0.26665,0.55589,-0.00069845,-0.00115981,0.38291,-0.02144912436257773,0.7434920023509659,-0.0006982061405765849,0.33860362535616506,-0.0011591376803280484,-0.23405889605666574
585,0.5756,151.382,469.364,-0.00198707,266.559,-1.03131,-1.79164,-0.0217163,0.292036,-0.267024,0.556668,-0.00070029,-0.00116296,0.383453,-0.021482198823212673,0.7448489669195666,-0.0007000448541856219,0.33915122621567795,-0.001162284024088911,-0.23434530446782909
586,0.5766,151.434,469.531,-0.00201667,266.651,-1.03379,-1.79596,-0.02175,0.292445,-0.267397,0.557445,-0.000702133,-0.0011661,0.383996,-0.021515174317472185,0.7462052414112677,-0.0007018865623058534,0.3396990510897502,-0.0011654203695929954,-0.23463084041349824
587,0.5776,151.485,469.697,-0.00204636,266.743,-1.03628,-1.80029,-0.0217838,0.292853,-0.267771,0.558221,-0.00070398,-0.00116926,0.384538,-0.021548246545656458,0.7475608225760699,-0.0007037322642169386,0.3402457598235924,-0.0011685766818776422,-0.23491703495746785
588,0.5786,151.535,469.864,-0.00207616,266.835,-1.03877,-1.80462,-0.0218175,0.293261,-0.268144,0.558997,-0.000705829,-0.00117242,0.38508,-0.02158121981414518,0.7489174560801108,-0.0007055799613077118,0.34079269166010806,-0.0011717329841883783,-0.23520235768743158
589,0.5796,151.586,470.03,-0.00210606,266.927,-1.04127,-1.80897,-0.0218512,0.293669,-0.268517,0.559773,-0.000707682,-0.00117558,0.385621,-0.021614191971453423,0.7502751427403227,-0.0007074316521524793,0.34133984669034145,-0.001174889276525204,-0.23548757401186282
590,0.5806,151.637,470.196,-0.00213607,267.019,-1.04377,-1.81332,-0.0218849,0.294077,-0.26889,0.560548,-0.000709538,-0.00117875,0.386162,-0.02164716301761871,0.7516321317412642,-0.0007092863374381642,0.34188722500537416,-0.0011780555471077037,-0.2357726839704436
591,0.5816,151.688,470.361,-0.00216618,267.111,-1.04627,-1.81768,-0.0219185,0.294484,-0.269262,0.561323,-0.000711398,-0.00118193,0.386703,-0.021680035120686947,0.7529901728163075,-0.000711145016436987,0.3424334842621697,-0.0011812317958408425,-0.2360569236601464
592,0.5826,151.738,470.526,-0.00219639,267.202,-1.04878,-1.82205,-0.0219522,0.294891,-0.269635,0.562097,-0.00071326,-0.00118511,0.387244,-0.021713003947975484,0.7543475124327363,-0.0007130056905526594,0.3429799658917323,-0.0011844080344735053,-0.23634182129090986
593,0.5836,151.789,470.691,-0.00222671,267.294,-1.0513,-1.82643,-0.0219858,0.295298,-0.270007,0.56287,-0.000715126,-0.0011883,0.387784,-0.021745873838825536,0.755704147331683,-0.0007148703583443883,0.34352666998458625,-0.0011875942511297977,-0.23662584930090447
594,0.5846,151.839,470.856,-0.00225713,267.385,-1.05382,-1.83082,-0.0220194,0.295704,-0.270379,0.563643,-0.000716995,-0.00119149,0.388324,-0.021778742625265912,0.7570618313148252,-0.0007167380205063134,0.34407225255836815,-0.0011907804576221093,-0.23690977167212923
595,0.5856,151.89,471.02,-0.00228766,267.476,-1.05635,-1.83521,-0.022053,0.296111,-0.27075,0.564416,-0.000718868,-0.00119469,0.388863,-0.021811610307333584,0.7584205651934188,-0.0007186096763032168,0.344619401302376,-0.0011939766420108189,-0.23719282563708177
596,0.5866,151.94,471.184,-0.0023183,267.567,-1.05888,-1.83962,-0.0220866,0.296517,-0.271122,0.565188,-0.000720743,-0.0011979,0.389402,-0.021844476885065633,0.7597785899998766,-0.000720483327153465,0.3451654276151457,-0.0011971828041998922,-0.23747653713233485
597,0.5876,151.99,471.348,-0.00234904,267.658,-1.06142,-1.84403,-0.0221202,0.296923,-0.271493,0.56596,-0.000722622,-0.00120111,0.389941,-0.021877342358499252,0.7611376636062697,-0.0007223609716012769,0.34571167565960703,-0.001200388956097198,-0.23775938086630188
598,0.5886,152.041,471.512,-0.00237989,267.748,-1.06396,-1.84846,-0.0221538,0.297328,-0.271864,0.566731,-0.000724504,-0.00120432,0.39048,-0.021910206727671522,0.7624960243256786,-0.0007242416103482308,0.346256799268329,-0.0012035950977027365,-0.23804211968470657
599,0.5896,152.091,471.675,-0.00241085,267.839,-1.0665,-1.85289,-0.0221873,0.297734,-0.272234,0.567502,-0.00072639,-0.00120755,0.391018,-0.02194297218692165,0.7638554327450386,-0.0007261262426513371,0.3468034904996422,-0.0012068212048804705,-0.2383239919508383
600,0.5906,152.141,471.838,-0.00244192,267.929,-1.06906,-1.85733,-0.0222208,0.298139,-0.272605,0.568272,-0.000728279,-0.00121077,0.391556,-0.02197573654854723,0.7652141244574311,-0.0007280138692160598,0.3473490563829287,-0.0012100373137382547,-0.2386065213373827
601,0.5916,152.191,472.001,-0.00247309,268.019,-1.07161,-1.86178,-0.0222543,0.298543,-0.272975,0.569041,-0.000730171,-0.00121401,0.392093,-0.022008499812585125,0.7665720961923499,-0.0007299044900253016,0.347893495370978,-0.0012132733879749447,-0.23888818481353158
602,0.5926,152.241,472.164,-0.00250438,268.109,-1.07418,-1.86624,-0.0222878,0.298948,-0.273345,0.569811,-0.000732066,-0.00121725,0.39263,-0.02204126197907208,0.7679328805411583,-0.0007317981050620759,0.3484395027956435,-0.0012165094517266883,-0.23916974409347158
603,0.5936,152.29,472.326,-0.00253578,268.199,-1.07674,-1.8707,-0.0223213,0.299352,-0.273715,0.570579,-0.000733965,-0.00122049,0.393167,-0.022074023048044733,0.7692911745115356,-0.0007336957135757327,0.3489843824130445,-0.0012197455049937078,-0.23945119921574842
604,0.5946,152.34,472.488,-0.00256728,268.289,-1.07931,-1.87518,-0.0223548,0.299756,-0.274084,0.571348,-0.000735867,-0.00122374,0.393703,-0.022106783019540055,0.7706522827037594,-0.0007355963162789525,0.34952948220628355,-0.0012229915355459475,-0.23973178995106337
605,0.5956,152.39,472.65,-0.0025989,268.379,-1.08189,-1.87967,-0.0223882,0.30016,-0.274453,0.572115,-0.000737772,-0.001227,0.39424,-0.022139444107543982,0.7720108939654073,-0.0007374999131548599,0.3500748022643294,-0.001226247543286263,-0.2400122771674974
606,0.5966,152.439,472.811,-0.00263064,268.468,-1.08447,-1.88416,-0.0224217,0.300564,-0.274822,0.572883,-0.000739681,-0.00123026,0.394775,-0.02217220188747049,0.7733723210530576,-0.0007394075034466985,0.35062034267618736,-0.001229503540411958,-0.24029266090324186
607,0.5976,152.489,472.973,-0.00266248,268.557,-1.08706,-1.88866,-0.0224551,0.300967,-0.275191,0.57365,-0.000741593,-0.00123353,0.395311,-0.022204860790520753,0.7747330193844084,-0.000741318087873033,0.3511647523654702,-0.0012327695145954998,-0.2405729411964742
608,0.5986,152.538,473.134,-0.00269444,268.647,-1.08965,-1.89318,-0.0224885,0.30137,-0.27556,0.574416,-0.000743508,-0.0012368,0.395846,-0.02223751860278189,0.77609298567785,-0.000743231666416655,0.35170938149607234,-0.001236035478099362,-0.2408531180853577
609,0.5996,152.587,473.295,-0.00272651,268.736,-1.09225,-1.8977,-0.0225219,0.301773,-0.275928,0.575182,-0.000745427,-0.00124008,0.396381,-0.02227017532429021,0.7774539941045582,-0.0007451492383151459,0.3522542301564462,-0.0012393114185305087,-0.2411324327408535
610,0.6006,152.637,473.455,-0.0027587,268.825,-1.09486,-1.90223,-0.0225552,0.302176,-0.276296,0.575947,-0.000747349,-0.00124337,0.396915,-0.02230273318536058,0.7788142666479572,-0.0007470698042926216,0.3527992984350805,-0.001242597335790574,-0.24141164462746667
611,0.6016,152.686,473.615,-0.002791,268.913,-1.09746,-1.90677,-0.0225886,0.302578,-0.276664,0.576712,-0.000749274,-0.00124666,0.397449,-0.02233538772873822,0.7801755801979862,-0.0007489933643318736,0.3533432330765891,-0.0012458832422399535,-0.2416907537830093
612,0.6026,152.735,473.775,-0.00282341,269.002,-1.10008,-1.91132,-0.0226219,0.30298,-0.277032,0.577476,-0.000751203,-0.00124996,0.397983,-0.02236794341827164,0.7815361540142751,-0.0007509209176644882,0.3538873864237806,-0.0012491791253871343,-0.24196976024527939
613,0.6036,152.784,473.935,-0.00285595,269.091,-1.1027,-1.91588,-0.0226552,0.303382,-0.277399,0.57824,-0.000753135,-0.00125326,0.398517,-0.022400498023718574,0.7828977677061417,-0.0007528514650203544,0.3544317585645922,-0.0012524749976577931,-0.24224790630034643
614,0.6046,152.833,474.094,-0.0028886,269.179,-1.10532,-1.92044,-0.0226885,0.303783,-0.277766,0.579004,-0.000755071,-0.00125657,0.39905,-0.022433051545115323,0.7842604220683542,-0.0007547860056272837,0.35497499461132453,-0.0012557808464943587,-0.2425259502945405
615,0.6056,152.882,474.254,-0.00292136,269.267,-1.10795,-1.92502,-0.0227218,0.304185,-0.278133,0.579767,-0.00075701,-0.00125988,0.399583,-0.02246560398249775,0.7856223322730638,-0.0007567235402188288,0.35551980405852013,-0.0012590866843885662,-0.24280389226531107
616,0.6066,152.931,474.413,-0.00295425,269.355,-1.11058,-1.9296,-0.0227551,0.304586,-0.2785,0.580529,-0.000758952,-0.0012632,0.400115,-0.022498155335902048,0.7869834950274024,-0.0007586640687774482,0.35606347649898673,-0.0012624024987165638,-0.243081732250094
617,0.6076,152.98,474.571,-0.00298725,269.443,-1.11322,-1.9342,-0.0227884,0.304987,-0.278866,0.581291,-0.000760898,-0.00126653,0.400647,-0.02253070560536441,0.7883456953830361,-0.0007606085905251803,0.3566073669958194,-0.0012657282893787647,-0.24335871364540318
618,0.6086,153.028,474.73,-0.00302037,269.531,-1.11587,-1.9388,-0.0228216,0.305387,-0.279233,0.582053,-0.000762847,-0.00126986,0.401179,-0.022563157047241433,0.789708934130918,-0.0007625561062011288,0.3571501184856789,-0.0012690540689661578,-0.24363635004809914
619,0.6096,153.077,474.888,-0.00305361,269.619,-1.11852,-1.94341,-0.0228548,0.305788,-0.279599,0.582814,-0.000764799,-0.0012732,0.401711,-0.022595607411748375,0.7910714209902878,-0.0007645066157879743,0.35769444481332635,-0.0012723898247548604,-0.2439131284904369
620,0.6106,153.125,475.046,-0.00308698,269.707,-1.12117,-1.94804,-0.022888,0.306188,-0.279964,0.583574,-0.000766755,-0.00127655,0.402242,-0.022628056698921206,0.7924331526627313,-0.000766461118501538,0.3582376312212907,-0.0012757355566448414,-0.24418904983982836
621,0.6116,153.174,475.204,-0.00312046,269.794,-1.12383,-1.95267,-0.0229212,0.306588,-0.28033,0.584334,-0.000768715,-0.0012799,0.402773,-0.022660504908795565,0.7937959196446136,-0.0007684196143183941,0.3587810349472791,-0.0012790812773266769,-0.2444656260310566
622,0.6126,153.222,475.361,-0.00315406,269.881,-1.1265,-1.95731,-0.0229544,0.306987,-0.280695,0.585094,-0.000770678,-0.00128325,0.403303,-0.0226929520414072,0.7951597227230689,-0.000770381103985418,0.35932329675425945,-0.0012824269868002558,-0.24474134575564443
623,0.6136,153.271,475.518,-0.00318779,269.969,-1.12917,-1.96196,-0.0229876,0.307387,-0.28106,0.585853,-0.000772644,-0.00128662,0.403833,-0.02272539809679186,0.7965227661621654,-0.0007723455874851792,0.359867134833326,-0.0012857926593501379,-0.24501696486089697
624,0.6146,153.319,475.675,-0.00322164,270.056,-1.13184,-1.96661,-0.0230207,0.307786,-0.281425,0.586612,-0.000774614,-0.00128998,0.404363,-0.022757745350764913,0.7978868445439435,-0.0007743140640253943,0.36040983008062644,-0.001289148333449286,-0.2452924833835335
625,0.6156,153.367,475.832,-0.00325561,270.143,-1.13452,-1.97128,-0.0230539,0.308185,-0.28179,0.58737,-0.000776587,-0.00129336,0.404893,-0.02279018925504739,0.7992501594031634,-0.0007762855343588226,0.36095274190653504,-0.0012925239704231206,-0.24556790136026008
626,0.6166,153.415,475.988,-0.0032897,270.229,-1.13721,-1.97596,-0.023087,0.308583,-0.282154,0.588128,-0.000778563,-0.00129674,0.405422,-0.022822534364468572,0.8006145080468015,-0.0007782599984679228,0.3614945089022945,-0.0012958995959873043,-0.245842464670611
627,0.6176,153.463,476.145,-0.00332392,270.316,-1.1399,-1.98065,-0.0231201,0.308982,-0.282518,0.588885,-0.000780544,-0.00130012,0.405951,-0.022854878403284373,0.8019780892797732,-0.0007802394547741232,0.3620378536014057,-0.001299275210141837,-0.2461169280581038
628,0.6186,153.511,476.301,-0.00335827,270.403,-1.1426,-1.98534,-0.0231532,0.30938,-0.282882,0.589642,-0.000782527,-0.00130352,0.406479,-0.022887221371530098,0.8033427031345362,-0.000782220905594766,0.3625800525575742,-0.0013026707868336596,-0.24639129155910422
629,0.6196,153.559,476.456,-0.00339274,270.489,-1.1453,-1.99005,-0.0231862,0.309778,-0.283246,0.590398,-0.000784514,-0.00130692,0.407008,-0.02291946556119273,0.804706545685633,-0.0007842063493492812,0.36312246735187603,-0.001306066351980495,-0.24666555520996403
630,0.6206,153.607,476.612,-0.00342734,270.575,-1.14801,-1.99476,-0.0232193,0.310175,-0.28361,0.591154,-0.000786505,-0.00131032,0.407536,-0.022951806391638963,0.8060714196915393,-0.0007861957860139102,0.3636637344058158,-0.0013094619055824541,-0.24693971904702205
631,0.6216,153.655,476.767,-0.00346206,270.661,-1.15072,-1.99948,-0.0232523,0.310573,-0.283973,0.591909,-0.000788499,-0.00131373,0.408063,-0.022984048450031214,0.8074355184959077,-0.0007881882163530696,0.3642065805913346,-0.001312867434510978,-0.24721303032001074
632,0.6226,153.703,476.922,-0.00349691,270.747,-1.15344,-2.00422,-0.0232853,0.31097,-0.284336,0.592664,-0.000790496,-0.00131715,0.40859,-0.023016289444452998,0.8088006475837561,-0.0007901836403487739,0.36474827812367483,-0.0013162829386638153,-0.24748624239901218
633,0.6236,153.75,477.077,-0.00353189,270.833,-1.15617,-2.00896,-0.0233183,0.311367,-0.284699,0.593419,-0.000792497,-0.00132057,0.409117,-0.02304852937493962,0.8101668077332429,-0.000792183057190865,0.36529019075262914,-0.001319698431135663,-0.24775935532002724
634,0.6246,153.798,477.232,-0.003567,270.919,-1.15889,-2.01371,-0.0233513,0.311763,-0.285062,0.594173,-0.000794502,-0.001324,0.409644,-0.02308076824152594,0.811532188190019,-0.0007941864668554732,0.3658309527319725,-0.0013231238986953775,-0.24803236911904358
635,0.6256,153.845,477.386,-0.00360224,271.005,-1.16163,-2.01847,-0.0233843,0.31216,-0.285424,0.594926,-0.00079651,-0.00132743,0.41017,-0.023113006044247375,0.8128967856341858,-0.0007961928701145649,0.3663732952680774,-0.0013265493545057128,-0.24830453213694426
636,0.6266,153.893,477.54,-0.0036376,271.09,-1.16437,-2.02324,-0.0234173,0.312556,-0.285786,0.59568,-0.000798522,-0.00133087,0.410696,-0.023145242783138786,0.8142642252705126,-0.0007982032661520977,0.36691448624174394,-0.0013299847852670243,-0.2485765966496628
637,0.6276,153.94,477.694,-0.0036731,271.176,-1.16711,-2.02802,-0.0234502,0.312952,-0.286148,0.596432,-0.000800537,-0.00133432,0.411222,-0.023177380775978307,0.8156290650833671,-0.0008002166557440349,0.36745589156947545,-0.0013334301908761725,-0.24884856269285183
638,0.6286,153.988,477.847,-0.00370873,271.261,-1.16986,-2.03281,-0.0234831,0.313348,-0.28651,0.597184,-0.000802555,-0.00133777,0.411747,-0.023209517711495264,0.8169949316417688,-0.0008022330388722798,0.3679975113361731,-0.001336875584598718,-0.2491204303021508
639,0.6296,154.035,478.001,-0.00374449,271.346,-1.17262,-2.03761,-0.0235161,0.313743,-0.286871,0.597936,-0.000804578,-0.00134123,0.412272,-0.023241751265554278,0.8183618257181209,-0.0008042544139101881,0.36853797708810965,-0.0013403309530314322,-0.24939144890501064
640,0.6306,154.082,478.154,-0.00378038,271.431,-1.17538,-2.04241,-0.023549,0.314138,-0.287233,0.598687,-0.000806603,-0.0013447,0.412797,-0.02327388608331693,0.8197279283565688,-0.0008062777832463786,0.36907865636618675,-0.0013437962960706207,-0.24966312002506763
641,0.6316,154.129,478.307,-0.00381641,271.516,-1.17815,-2.04723,-0.0235818,0.314533,-0.287594,0.599438,-0.000808633,-0.00134817,0.413321,-0.023305922174458704,0.8210950573234366,-0.0008083061444436046,0.36961954925476426,-0.0013472616270850946,-0.24993394275229508
642,0.6326,154.176,478.459,-0.00385257,271.601,-1.18092,-2.05206,-0.0236147,0.314928,-0.287954,0.600188,-0.000810665,-0.00135165,0.413845,-0.023338054881033243,0.8224613909274838,-0.0008103364999026974,0.37016065583823465,-0.0013507369325675977,-0.25020391793445573
643,0.6336,154.223,478.612,-0.00388886,271.685,-1.1837,-2.05689,-0.0236476,0.315323,-0.288315,0.600938,-0.000812702,-0.00135513,0.414369,-0.02337018653045908,0.8238287496661114,-0.0008123718471743091,0.3707019762010242,-0.0013542122259561085,-0.2504745454688724
644,0.6346,154.27,478.764,-0.00392529,271.77,-1.18648,-2.06174,-0.0236804,0.315717,-0.288675,0.601687,-0.000814742,-0.00135862,0.414893,-0.02340221946299792,0.8251953091122373,-0.0008144101878565513,0.37124213918476734,-0.0013576974936736486,-0.25074432606908204
645,0.6356,154.317,478.916,-0.00396186,271.854,-1.18927,-2.06659,-0.0237132,0.316111,-0.289036,0.602436,-0.000816786,-0.00136212,0.415416,-0.023434251344873758,0.8265628924948043,-0.000816452521114952,0.3717825150346581,-0.001361192735615746,-0.2510147585513711
646,0.6366,154.364,479.067,-0.00399856,271.939,-1.19206,-2.07146,-0.023746,0.316505,-0.289396,0.603185,-0.000818833,-0.00136562,0.415938,-0.023466282176121123,0.8279315005810286,-0.0008184978477432381,0.372323103834582,-0.001364687965324518,-0.2512843447098725
647,0.6376,154.411,479.219,-0.00403539,272.023,-1.19486,-2.07633,-0.0237788,0.316898,-0.289755,0.603933,-0.000820884,-0.00136913,0.416461,-0.023498311956774542,0.8292993048384814,-0.0008205471669024966,0.37286253280523907,-0.0013681931691180704,-0.2515530853882836
648,0.6386,154.457,479.37,-0.00407237,272.107,-1.19766,-2.08122,-0.0238116,0.317292,-0.290115,0.60468,-0.000822938,-0.00137265,0.416983,-0.023530340686868323,0.8306663019290426,-0.0008225994793908953,0.37340354721600444,-0.001371708346891376,-0.25182247778400313
649,0.6396,154.504,479.521,-0.00410948,272.191,-1.20047,-2.08611,-0.0238443,0.317685,-0.290474,0.605427,-0.000824996,-0.00137617,0.417505,-0.02356227072266892,0.8320343205479239,-0.0008246557843653024,0.37394340088435785,-0.001375223512291357,-0.2520910253073141
650,0.6406,154.551,479.672,-0.00414673,272.274,-1.20329,-2.09101,-0.0238771,0.318078,-0.290833,0.606174,-0.000827058,-0.0013797,0.418026,-0.023594297354949556,0.8334033614584919,-0.000826716081800849,0.37448346675689836,-0.001378748651530426,-0.2523594764393673
651,0.6416,154.597,479.822,-0.00418412,272.358,-1.20611,-2.09593,-0.0239098,0.31847,-0.291192,0.60692,-0.000829123,-0.00138323,0.418548,-0.023626225299401282,0.8347715906521758,-0.0008287793725018089,0.37502236989398097,-0.0013822737783258932,-0.2526278312147613
652,0.6426,154.643,479.973,-0.00422165,272.442,-1.20894,-2.10085,-0.0239425,0.318862,-0.291551,0.607666,-0.000831192,-0.00138677,0.419068,-0.023658152199826366,0.8361408409256534,-0.0008308466556187222,0.3755614843225039,-0.001385808878819561,-0.25289608966808164
653,0.6436,154.69,480.123,-0.00425933,272.525,-1.21177,-2.10578,-0.0239752,0.319255,-0.291909,0.608411,-0.000833264,-0.00139032,0.419589,-0.02369007805625878,0.8375092755307405,-0.0008329169319596375,0.3761021862268077,-0.0013893539529055143,-0.2531635049977804
654,0.6446,154.736,480.272,-0.00429714,272.608,-1.21461,-2.11072,-0.0240079,0.319647,-0.292267,0.609156,-0.000835341,-0.00139387,0.420109,-0.023722002868732828,0.8388787299994604,-0.00083499219983596,0.37664172402630824,-0.0013928990144065345,-0.2534308246099255
655,0.6456,154.782,480.422,-0.0043351,272.692,-1.21745,-2.11567,-0.0240405,0.320038,-0.292625,0.6099,-0.00083742,-0.00139743,0.420629,-0.023753829012670424,0.8402473648436095,-0.0008370694617279018,0.3771800961853007,-0.0013964540493580646,-0.25369804853877786
656,0.6466,154.829,480.571,-0.00437319,272.775,-1.2203,-2.12063,-0.0240732,0.32043,-0.292983,0.610644,-0.000839504,-0.001401,0.421149,-0.02378575174052222,0.841617018330971,-0.0008391517151054018,0.37772005660833385,-0.0014000190576535232,-0.2539651768185859
657,0.6476,154.875,480.721,-0.00441143,272.858,-1.22315,-2.1256,-0.0241058,0.320821,-0.29334,0.611388,-0.000841591,-0.00140457,0.421668,-0.02381757580628041,0.8429876912196976,-0.0008412369616198623,0.37825885047780505,-0.0014035840532220512,-0.2542314637154224
658,0.6486,154.921,480.869,-0.00444982,272.94,-1.22601,-2.13058,-0.0241384,0.321212,-0.293698,0.612131,-0.000843682,-0.00140815,0.422187,-0.023849398834590918,0.8443575399100436,-0.0008433262004090558,0.37879785505687,-0.001407159021991844,-0.25449840106677546
659,0.6496,154.967,481.018,-0.00448835,273.023,-1.22887,-2.13557,-0.024171,0.321602,-0.294055,0.612873,-0.000845776,-0.00141173,0.422706,-0.023881220825487603,0.8457265610486882,-0.0008454184322934655,0.37933569109155196,-0.0014107339779634298,-0.25476449763653075
660,0.6506,155.013,481.167,-0.00452703,273.106,-1.23175,-2.14057,-0.0242036,0.321993,-0.294412,0.613615,-0.000847875,-0.00141532,0.423224,-0.02391304177900433,0.8470965983779777,-0.0008475156555590724,0.37987511679762176,-0.0014143189069935058,-0.25503049922676546
661,0.6516,155.059,481.315,-0.00456585,273.188,-1.23462,-2.14558,-0.0242362,0.322383,-0.294768,0.614357,-0.000849976,-0.00141892,0.423742,-0.023944861695174957,0.8484676526522055,-0.0008496148727235031,0.38041337304631906,-0.0014179138089746024,-0.25529566116741487
662,0.6526,155.104,481.463,-0.00460482,273.271,-1.2375,-2.1506,-0.0242687,0.322773,-0.295125,0.615098,-0.000852082,-0.00142253,0.42426,-0.023976582971696248,0.8498378747874251,-0.000851719081218838,0.3809518392558928,-0.0014215186837989169,-0.2555614731661132
663,0.6536,155.15,481.611,-0.00464393,273.353,-1.24039,-2.15563,-0.0243013,0.323163,-0.295481,0.615839,-0.000854191,-0.00142614,0.424778,-0.02400840081645772,0.8512091126335211,-0.0008538262827212373,0.3814905155082442,-0.0014251235456097522,-0.2558264461136829
664,0.6546,155.196,481.758,-0.0046832,273.435,-1.24328,-2.16066,-0.0243338,0.323553,-0.295837,0.616579,-0.000856304,-0.00142975,0.425295,-0.024040120027991163,0.8525795143629737,-0.000855937476355817,0.38202940188530543,-0.0014287283944069973,-0.25609132474767216
665,0.6556,155.242,481.906,-0.00472261,273.517,-1.24618,-2.16571,-0.0243663,0.323942,-0.296193,0.617319,-0.000858421,-0.00143338,0.425811,-0.024071838208667096,0.8539509305650146,-0.0008580526620972639,0.3825671159012345,-0.00143235320154389,-0.2563561091016505
666,0.6566,155.287,482.053,-0.00476217,273.599,-1.24908,-2.17077,-0.0243988,0.324331,-0.296548,0.618058,-0.000860541,-0.00143701,0.426328,-0.024103555358518824,0.8553215066681974,-0.0008601708407803832,0.3831050391286044,-0.0014359779955227525,-0.25662005582960323
667,0.6576,155.333,482.2,-0.00480188,273.681,-1.25199,-2.17584,-0.0244313,0.32472,-0.296904,0.618797,-0.000862666,-0.00144064,0.426844,-0.02413527147757999,0.8566930960014627,-0.0008622940106614019,0.3836431716488149,-0.0014396027763435848,-0.25688465198881705
668,0.6586,155.378,482.346,-0.00484174,273.762,-1.25491,-2.18092,-0.0244637,0.325108,-0.297259,0.619536,-0.000864793,-0.00144429,0.42736,-0.024166888982577683,0.8580656993138644,-0.0008644191743019114,0.3841801293624747,-0.001443247515141799,-0.25714841111734565
669,0.6596,155.423,482.493,-0.00488176,273.844,-1.25783,-2.186,-0.0244962,0.325497,-0.297614,0.620274,-0.000866925,-0.00144794,0.427876,-0.024198603043329547,0.8594374579166224,-0.0008665493290895832,0.38471868017413824,-0.0014468922406367657,-0.2574120766280018
670,0.6606,155.469,482.639,-0.00492192,273.925,-1.26076,-2.1911,-0.0245286,0.325885,-0.297968,0.621012,-0.000869061,-0.00145159,0.428391,-0.02423021849641782,0.8608102292508812,-0.0008686834758608875,0.3852560552660722,-0.001450536952828485,-0.25767490622929135
671,0.6616,155.514,482.785,-0.00496224,274.007,-1.26369,-2.19621,-0.024561,0.326273,-0.298323,0.621749,-0.0008712,-0.00145525,0.428906,-0.024261832925182025,0.8621821518812296,-0.0008708206154612874,0.3857936388999963,-0.001454191637175195,-0.25793838486735465
672,0.6626,155.559,482.931,-0.00500272,274.088,-1.26663,-2.20132,-0.0245934,0.326661,-0.298677,0.622485,-0.000873343,-0.00145892,0.429421,-0.024293446329655355,0.8635532224370868,-0.0008729617469984685,0.38633143115684043,-0.0014578562935672057,-0.258201028188501
673,0.6636,155.605,483.076,-0.00504334,274.169,-1.26957,-2.20645,-0.0246258,0.327048,-0.299031,0.623222,-0.000875489,-0.0014626,0.429935,-0.024325058709870895,0.864927167398551,-0.0008751058713218907,0.38686804524882756,-0.001461530921894716,-0.2584635785503664
674,0.6646,155.65,483.222,-0.00508413,274.25,-1.27252,-2.21159,-0.0246581,0.327435,-0.299385,0.623958,-0.00087764,-0.00146628,0.430449,-0.02435657250152412,0.8663002590294933,-0.000877254986657805,0.3874048670506576,-0.0014652055366995986,-0.25872603598585264
675,0.6656,155.695,483.367,-0.00512506,274.331,-1.27547,-2.21673,-0.0246905,0.327822,-0.299739,0.624693,-0.000879794,-0.00146997,0.430963,-0.024388182836484806,0.8676724939544387,-0.0008794070947327759,0.3879418966427297,-0.0014688901232930984,-0.25898840052784977
676,0.6666,155.74,483.512,-0.00516616,274.412,-1.27843,-2.22189,-0.0247228,0.328209,-0.300092,0.625428,-0.000881952,-0.00147366,0.431476,-0.024419694589261742,0.8690457378428023,-0.0008815631946458291,0.3884791341054745,-0.001472574696290585,-0.25924993145953834
677,0.6676,155.785,483.657,-0.00520741,274.492,-1.2814,-2.22706,-0.0247551,0.328595,-0.300445,0.626162,-0.000884114,-0.00147737,0.431989,-0.0244512053242254,0.8704181210173891,-0.0008837232863710964,0.3890151905034682,-0.0014762792261665547,-0.25951137008710057
678,0.6686,155.83,483.801,-0.00524882,274.573,-1.28437,-2.23223,-0.0247874,0.328982,-0.300798,0.626897,-0.00088628,-0.00148107,0.432502,-0.024482715041408754,0.8717933836834542,-0.0008858873698828207,0.38955284341132024,-0.0014799737570985183,-0.25977271644311406
679,0.6696,155.874,483.945,-0.00529039,274.653,-1.28735,-2.23742,-0.0248197,0.329368,-0.301151,0.62763,-0.000888449,-0.00148479,0.433014,-0.024514223740844665,0.8731659112035766,-0.0008880544460428963,0.3900893143411055,-0.0014836882446871424,-0.2600339705601451
680,0.6706,155.919,484.09,-0.00533211,274.734,-1.29033,-2.24262,-0.024852,0.329754,-0.301504,0.628363,-0.000890622,-0.00148851,0.433527,-0.024545731422565997,0.8745394451551833,-0.0008902255139416893,0.3906259923886408,-0.0014874027184579308,-0.2602951324707482
681,0.6716,155.964,484.233,-0.005374,274.814,-1.29332,-2.24782,-0.0248842,0.330139,-0.301856,0.629096,-0.0008928,-0.00149224,0.434039,-0.024577140544324583,0.875913986276259,-0.0008924015726607948,0.391161486471707,-0.0014911271634997503,-0.2605554627632991
682,0.6726,156.009,484.377,-0.00541605,274.894,-1.29631,-2.25304,-0.0249165,0.330525,-0.302208,0.629828,-0.000894981,-0.00149597,0.43455,-0.024608646193866046,0.8772876580167333,-0.0008945806239567533,0.3916985784575697,-0.001494851594649349,-0.260815701435713
683,0.6736,156.053,484.52,-0.00545826,274.974,-1.29931,-2.25827,-0.0249487,0.33091,-0.30256,0.63056,-0.000897165,-0.00149972,0.435061,-0.024640053289801678,0.8786623356530341,-0.0008967626678098028,0.39223448556577445,-0.0014985959819351358,-0.2610758485202346
684,0.6746,156.098,484.664,-0.00550063,275.054,-1.30232,-2.2635,-0.0249809,0.331295,-0.302912,0.631292,-0.000899354,-0.00150346,0.435572,-0.024671459374445037,0.8800380199217472,-0.0008989497024026738,0.39277059903793865,-0.0015023303702028645,-0.26133590404909723
685,0.6756,156.142,484.807,-0.00554316,275.134,-1.30533,-2.26875,-0.0250131,0.331679,-0.303263,0.632023,-0.000901547,-0.00150722,0.436083,-0.024702864447828765,0.881412830146227,-0.0009011407286034778,0.39330552564730503,-0.0015060847143825162,-0.26159512965002163
686,0.6766,156.187,484.949,-0.00558586,275.213,-1.30835,-2.27401,-0.0250453,0.332064,-0.303615,0.632753,-0.000903743,-0.00151098,0.436594,-0.024734268509985502,0.8827867629366881,-0.0009033347472894304,0.3938420515492882,-0.0015098390444457932,-0.2618550024240933
687,0.6776,156.231,485.092,-0.00562872,275.293,-1.31137,-2.27927,-0.0250774,0.332448,-0.303966,0.633483,-0.000905943,-0.00151475,0.437104,-0.024765574037509896,0.8841616990642598,-0.0009055327575351324,0.394377389675425,-0.0015136033452569642,-0.2621140458534611
688,0.6786,156.275,485.234,-0.00567175,275.372,-1.3144,-2.28455,-0.0251096,0.332832,-0.304316,0.634213,-0.000908147,-0.00151852,0.437613,-0.024796976080450284,0.8855376392616456,-0.0009077347593143825,0.39491293341087697,-0.0015173676318765983,-0.26237226074717
689,0.6796,156.32,485.377,-0.00571494,275.452,-1.31743,-2.28984,-0.0251417,0.333216,-0.304667,0.634942,-0.000910355,-0.00152231,0.438123,-0.024828279595094038,0.8869126973484431,-0.0009099407526005354,0.39544868283461265,-0.0015211518738821317,-0.2626311226507261
690,0.6806,156.364,485.519,-0.0057583,275.531,-1.32047,-2.29514,-0.0251738,0.333599,-0.305018,0.635671,-0.000912567,-0.00152609,0.438632,-0.024859582104911015,0.8882887582180556,-0.0009121507373673898,0.395983242041692,-0.001524926116794778,-0.26288989370969806
691,0.6816,156.408,485.66,-0.00580182,275.61,-1.32352,-2.30044,-0.0252059,0.333983,-0.305368,0.6364,-0.000914783,-0.00152989,0.439141,-0.024890883609933634,0.8896658226017788,-0.0009143647135883004,0.3965194025428638,-0.0015287203148665052,-0.26314783710417244
692,0.6826,156.452,485.802,-0.00584552,275.689,-1.32657,-2.30576,-0.025238,0.334366,-0.305718,0.637127,-0.000917003,-0.00153369,0.439649,-0.02492218411019398,0.8910401091474405,-0.0009165826812366218,0.39705437191413284,-0.001532514498520321,-0.263405690234256
693,0.6836,156.496,485.943,-0.00588938,275.768,-1.32963,-2.31109,-0.0252701,0.334749,-0.306068,0.637855,-0.000919226,-0.0015375,0.440158,-0.02495348360572447,0.8924172875790253,-0.0009188036412047795,0.3975895462179133,-0.0015363186523932315,-0.2636634531315356
694,0.6846,156.54,486.084,-0.00593341,275.847,-1.33269,-2.31643,-0.0253021,0.335131,-0.306417,0.638582,-0.000921454,-0.00154132,0.440666,-0.02498468459503067,0.8937935751670163,-0.00092102959163054,0.39812352740848245,-0.0015401327763709949,-0.2639203897483452
695,0.6856,156.584,486.225,-0.00597761,275.925,-1.33576,-2.32178,-0.0253342,0.335514,-0.306767,0.639309,-0.000923685,-0.00154514,0.441173,-0.02501598208432776,0.8951708636798759,-0.000923258534327176,0.39865911127724374,-0.0015439468857788574,-0.26417797253231656
696,0.6866,156.628,486.366,-0.00602199,276.004,-1.33884,-2.32714,-0.0253662,0.335896,-0.307116,0.640035,-0.000925921,-0.00154897,0.441681,-0.02504718107371451,0.8965472572973352,-0.000925492467423572,0.3991935011197132,-0.0015477709651391391,-0.26443472961318604
697,0.6876,156.672,486.506,-0.00606653,276.082,-1.34192,-2.33251,-0.0253982,0.336278,-0.307465,0.640761,-0.00092816,-0.00155281,0.442188,-0.025078379064749634,0.8979246505393808,-0.0009277293927416608,0.3997280951380977,-0.001551605014337265,-0.26469139710146916
698,0.6886,156.716,486.647,-0.00611125,276.161,-1.34501,-2.33788,-0.0254302,0.33666,-0.307814,0.641486,-0.000930403,-0.00155665,0.442695,-0.025109576057465,0.8993011448299086,-0.000929970309331396,0.4002628934104071,-0.0015554390488126124,-0.26494797502842815
699,0.6896,156.759,486.787,-0.00615614,276.239,-1.3481,-2.34327,-0.0254622,0.337041,-0.308162,0.642211,-0.000932651,-0.0015605,0.443201,-0.02514077205189258,0.9006786374406446,-0.0009322162162337388,0.40079649521748584,-0.0015592830529725932,-0.26520372862941066
700,0.6906,156.803,486.927,-0.00620121,276.317,-1.3512,-2.34867,-0.0254941,0.337423,-0.308511,0.642936,-0.000934902,-0.00156435,0.443707,-0.02517186956525619,0.9020571290956332,-0.0009344651152839445,0.40133170169658805,-0.00156312704233319,-0.2654601277838641
701,0.6916,156.847,487.066,-0.00624645,276.395,-1.35431,-2.35408,-0.0255261,0.337804,-0.308859,0.64366,-0.000937157,-0.00156822,0.444213,-0.025203063566323403,0.9034347170837753,-0.0009367180055249724,0.40186571079720834,-0.0015669909855547948,-0.2657157031866959
702,0.6926,156.89,487.206,-0.00629186,276.473,-1.35742,-2.35951,-0.025558,0.338185,-0.309207,0.644383,-0.000939416,-0.00157209,0.444719,-0.02523415909261939,0.904811397994407,-0.0009389748869298442,0.4023999233940596,-0.0015708549138229166,-0.2659711896647614
703,0.6936,156.934,487.345,-0.00633746,276.551,-1.36053,-2.36494,-0.0255899,0.338565,-0.309554,0.645106,-0.000941679,-0.00157597,0.445224,-0.02526525362698384,0.906189074605239,-0.0009412357594714704,0.40293293663105034,-0.0015747288113905356,-0.2662258534752213
704,0.6946,156.977,487.484,-0.00638322,276.629,-1.36365,-2.37038,-0.0256218,0.338946,-0.309902,0.645829,-0.000943946,-0.00157985,0.445729,-0.025296347169448508,0.9075677476364232,-0.0009435006231227616,0.403467555918414,-0.0015786026939274,-0.2664811624518735
705,0.6956,157.021,487.623,-0.00642917,276.707,-1.36678,-2.37583,-0.0256537,0.339326,-0.310249,0.646552,-0.000946218,-0.00158374,0.446234,-0.02532743972004503,0.9089474178086323,-0.0009457704769108011,0.4040009749328568,-0.0015824865456087744,-0.2667356493324753
706,0.6966,157.064,487.762,-0.0064753,276.784,-1.36992,-2.38129,-0.0256855,0.339706,-0.310596,0.647274,-0.000948493,-0.00158764,0.446738,-0.025358433814653192,0.9103261755159286,-0.0009480433226976004,0.4045345966850431,-0.0015863803663183074,-0.2669900479214491
707,0.6976,157.108,487.9,-0.0065216,276.862,-1.37306,-2.38677,-0.0257174,0.340085,-0.310943,0.647995,-0.000950772,-0.00159155,0.447242,-0.02538952438471731,0.9117040173407653,-0.0009503201595124633,0.4050670161843086,-0.0015902841559392034,-0.2672443582494267
708,0.6986,157.151,488.038,-0.00656809,276.939,-1.3762,-2.39225,-0.0257492,0.340465,-0.31129,0.648716,-0.000953055,-0.00159546,0.447746,-0.025420516505064494,0.913082852947773,-0.0009526009873279673,0.40560104310914835,-0.001594187930296198,-0.26749858034702934
709,0.6996,157.194,488.176,-0.00661475,277.016,-1.37936,-2.39774,-0.025781,0.340844,-0.311637,0.649437,-0.000955342,-0.00159938,0.448249,-0.025451507639878024,0.9144626830537272,-0.0009548858061168009,0.40613386686821107,-0.0015981016734085696,-0.2677527142448676
710,0.7006,157.237,488.314,-0.0066616,277.093,-1.38252,-2.40325,-0.0258128,0.341223,-0.311983,0.650157,-0.000957633,-0.0016033,0.448753,-0.025482497789189096,0.9158415925333696,-0.0009571746158515415,0.40666689260575106,-0.0016020154011791021,-0.26800602797993556
711,0.7016,157.281,488.452,-0.00670863,277.17,-1.38568,-2.40876,-0.0258446,0.341602,-0.312329,0.650877,-0.000959929,-0.00160724,0.449256,-0.02551348695302902,0.9172214951853368,-0.0009594684155453947,0.40720012039833264,-0.0016059490814891442,-0.2682592540836123
712,0.7026,157.324,488.589,-0.00675585,277.247,-1.38885,-2.41429,-0.0258764,0.341981,-0.312675,0.651596,-0.000962228,-0.00161118,0.449758,-0.025544475131429323,0.9186004731235371,-0.0009617652070873506,0.407733550322549,-0.0016098827463003618,-0.26851239258621296
713,0.7036,157.367,488.726,-0.00680325,277.324,-1.39203,-2.41982,-0.0259081,0.342359,-0.313021,0.652315,-0.000964531,-0.00161512,0.45026,-0.025575364881962548,0.9199804429033998,-0.0009640659894927239,0.40826577418854426,-0.001613816395613088,-0.26876544351804244
714,0.7046,157.41,488.863,-0.00685083,277.401,-1.39521,-2.42537,-0.0259399,0.342737,-0.313366,0.653034,-0.000966839,-0.00161908,0.450763,-0.02560635109267584,0.9213614052383148,-0.0009663717617675038,0.40879819927318906,-0.0016177699970720827,-0.2690176759274363
715,0.7056,157.453,489.0,-0.0068986,277.478,-1.3984,-2.43092,-0.0259716,0.343115,-0.313711,0.653752,-0.00096915,-0.00162304,0.451264,-0.025637238881772162,0.9227414380997865,-0.0009686805258146691,0.4093308256525581,-0.0016217235828747123,-0.2692698213316581
716,0.7066,157.495,489.137,-0.00694655,277.554,-1.40159,-2.43649,-0.0260033,0.343493,-0.314056,0.65447,-0.000971466,-0.00162701,0.451766,-0.02566812569174115,0.9241224621806579,-0.0009709942796711779,0.4098636534027551,-0.0016256871367644754,-0.2695218797607196
717,0.7076,157.538,489.273,-0.0069947,277.631,-1.40479,-2.44207,-0.026035,0.343871,-0.314401,0.655187,-0.000973785,-0.00163098,0.452267,-0.02569901152261367,0.9255025526893645,-0.0009733110252492239,0.4103966825999128,-0.0016296506749189366,-0.26977385124462194
718,0.7086,157.581,489.41,-0.00704303,277.707,-1.408,-2.44766,-0.0260667,0.344248,-0.314746,0.655904,-0.000976109,-0.00163497,0.452768,-0.025729896374420913,0.9268836330777956,-0.0009756327605765502,0.4109285023909848,-0.001633634164665665,-0.2700257358133561
719,0.7096,157.624,489.546,-0.00709155,277.783,-1.41121,-2.45326,-0.0260983,0.344625,-0.315091,0.65662,-0.000978437,-0.00163896,0.453268,-0.025760682823267045,0.9282637757912091,-0.0009779584865963198,0.41146052271591604,-0.0016376176385183294,-0.27027753349690253
720,0.7106,157.667,489.682,-0.00714026,277.859,-1.41443,-2.45887,-0.02613,0.345002,-0.315435,0.657336,-0.000980769,-0.00164295,0.453769,-0.025791565720125087,0.9296449070406594,-0.000980288203280666,0.41199274365032235,-0.00164160109647693,-0.2705285148541111
721,0.7116,157.709,489.817,-0.00718916,277.935,-1.41765,-2.46449,-0.0261616,0.345378,-0.315779,0.658052,-0.000983105,-0.00164696,0.454269,-0.02582235022025059,0.931027027534191,-0.000982621910601611,0.4125237527453889,-0.001645604505629672,-0.2707794098885812
722,0.7126,157.752,489.953,-0.00723826,278.011,-1.42088,-2.47012,-0.0261932,0.345755,-0.316123,0.658767,-0.000985445,-0.00165097,0.454768,-0.025853133747601342,0.9324082055711851,-0.0009849596085312884,0.41305637459308375,-0.001649607898728811,-0.27103021863000276
723,0.7136,157.794,490.088,-0.00728754,278.087,-1.42412,-2.47576,-0.0262248,0.346131,-0.316466,0.659482,-0.000987789,-0.00165499,0.455268,-0.025883916302207988,0.9337903715036062,-0.0009873012970414985,0.41358778368857996,-0.0016536212592381805,-0.2712802123886321
724,0.7146,157.837,490.223,-0.00733702,278.163,-1.42736,-2.48141,-0.0262564,0.346507,-0.31681,0.660196,-0.000990138,-0.00165901,0.455767,-0.02591469788410128,0.9351715908654936,-0.0009896479751145826,0.414119392631465,-0.0016576346036139,-0.27153084888362156
725,0.7156,157.879,490.358,-0.0073867,278.239,-1.43061,-2.48708,-0.026288,0.346883,-0.317153,0.66091,-0.00099249,-0.00166304,0.456266,-0.02594547849331197,0.9365537967701594,-0.0009919976446993717,0.4146512014968957,-0.0016616579152394229,-0.27178067095551994
726,0.7166,157.922,490.493,-0.00743656,278.314,-1.43387,-2.49275,-0.0263195,0.347258,-0.317496,0.661624,-0.000994847,-0.00166708,0.456764,-0.02597616072749176,0.9379369899222463,-0.0009943523037858615,0.41518179517755427,-0.0016656911939942898,-0.27203040735314155
727,0.7176,157.964,490.627,-0.00748663,278.39,-1.43713,-2.49844,-0.0263511,0.347634,-0.317839,0.662337,-0.000997208,-0.00167113,0.457262,-0.026006939394507267,0.9393192317066994,-0.0009967109533357554,0.41571400358145083,-0.0016697344397573755,-0.27228005810586775
728,0.7186,158.007,490.761,-0.00753689,278.465,-1.4404,-2.50413,-0.0263826,0.348009,-0.318182,0.663049,-0.000999573,-0.00167518,0.45776,-0.026037619692699132,0.9407005186794841,-0.0009990735933205208,0.41624499588762887,-0.0016737776691453377,-0.2725296232430696
729,0.7196,158.049,490.896,-0.00758735,278.541,-1.44367,-2.50984,-0.0264141,0.348384,-0.318524,0.663762,-0.00100194,-0.00167925,0.458258,-0.026068299024476715,0.9420847315625545,-0.0010014382257147458,0.4167761873532616,-0.001677840848601564,-0.27277837557284756
730,0.7206,158.091,491.03,-0.007638,278.616,-1.44695,-2.51556,-0.0264456,0.348758,-0.318866,0.664473,-0.00100432,-0.00168331,0.458756,-0.02609897738987066,0.9434660448053631,-0.0010038158394624075,0.41730616074617854,-0.0016818940283398476,-0.27302704284387447
731,0.7216,158.133,491.163,-0.00768886,278.691,-1.45024,-2.52128,-0.026477,0.349133,-0.319208,0.665185,-0.00100669,-0.00168739,0.459253,-0.02612955740187195,0.9448502853604244,-0.0010061834576132744,0.41783775022325575,-0.0016859671579030344,-0.27327562508523573
732,0.7226,158.175,491.297,-0.00773991,278.766,-1.45353,-2.52702,-0.0265085,0.349507,-0.31955,0.665896,-0.00100907,-0.00169147,0.459749,-0.02616023383765742,0.9462335656111718,-0.0010085610600673034,0.418368120714939,-0.001690040270847848,-0.2735241223260063
733,0.7236,158.217,491.43,-0.00779117,278.841,-1.45683,-2.53277,-0.0265399,0.349881,-0.319892,0.666607,-0.00101146,-0.00169556,0.460246,-0.0261908119262364,0.9476178297238986,-0.001010948646753218,0.41889868960228394,-0.0016941233502332231,-0.2737725345952515
734,0.7246,158.26,491.563,-0.00784263,278.916,-1.46013,-2.53853,-0.0265714,0.350255,-0.320233,0.667317,-0.00101385,-0.00169966,0.460742,-0.026221486432534746,0.9490011293962763,-0.0010133362277328084,0.41942945695950407,-0.0016982163959367025,-0.2740201359425255
735,0.7256,158.302,491.696,-0.00789429,278.99,-1.46344,-2.5443,-0.0266028,0.350628,-0.320575,0.668027,-0.00101625,-0.00170377,0.461238,-0.02625206259781243,0.9503854115601647,-0.0010157337928486943,0.41995900290112864,-0.0017023194078356063,-0.27426837860411846
736,0.7266,158.343,491.829,-0.00794615,279.065,-1.46676,-2.55009,-0.0266342,0.351002,-0.320916,0.668736,-0.00101864,-0.00170788,0.461734,-0.026282637803013653,0.9517687251436788,-0.0010181213623917662,0.4204901668896879,-0.0017064224028712216,-0.27451581089741073
737,0.7276,158.385,491.962,-0.00799822,279.139,-1.47008,-2.55588,-0.0266656,0.351375,-0.321257,0.669445,-0.00102105,-0.001712,0.462229,-0.02631321204816839,0.9531530198442888,-0.0010205289058182743,0.42102010854991323,-0.0017105353639381704,-0.27476315883067526
738,0.7286,158.427,492.094,-0.00805049,279.214,-1.47341,-2.56169,-0.0266969,0.351748,-0.321597,0.670153,-0.00102345,-0.00171613,0.462724,-0.026343687967680718,0.9545363418205342,-0.0010229264536718574,0.42155024791524753,-0.001714658290913329,-0.27500969744273385
739,0.7296,158.469,492.226,-0.00810297,279.288,-1.47675,-2.5675,-0.0267283,0.352121,-0.321938,0.670862,-0.00102587,-0.00172026,0.463219,-0.026374260295890406,0.9559225994571465,-0.0010253439752645477,0.4220805850594487,-0.001718781200860775,-0.27525687698939794
740,0.7306,158.511,492.358,-0.00815566,279.363,-1.48009,-2.57333,-0.0267596,0.352493,-0.322278,0.671569,-0.00102828,-0.0017244,0.463714,-0.026404734304622424,0.9573059256831624,-0.001027751501284535,0.42260969744589283,-0.0017229140765515627,-0.27550324776581625
741,0.7316,158.553,492.49,-0.00820856,279.437,-1.48344,-2.57916,-0.0267909,0.352866,-0.322618,0.672277,-0.0010307,-0.00172855,0.464208,-0.026435207359532975,0.9586921889578384,-0.0010301690112006767,0.423140429838478,-0.0017270569178616801,-0.2757495347904091
742,0.7326,158.594,492.622,-0.00826166,279.511,-1.48679,-2.58501,-0.0268222,0.353238,-0.322958,0.672984,-0.00103312,-0.00173271,0.464702,-0.026465679460651703,0.9600774739759828,-0.0010325865152664981,0.4236699365605219,-0.0017312097246671154,-0.27599573809164735
743,0.7336,158.636,492.753,-0.00831497,279.585,-1.49015,-2.59087,-0.0268535,0.353609,-0.323298,0.67369,-0.00103555,-0.00173687,0.465196,-0.026496150608008695,0.9614617772741751,-0.0010350140031318844,0.42419821609678054,-0.0017353625141968143,-0.27624185769799214
744,0.7346,158.678,492.884,-0.0083685,279.659,-1.49352,-2.59674,-0.0268848,0.353981,-0.323637,0.674396,-0.00103799,-0.00174104,0.465689,-0.026526620801633594,0.9628470582355706,-0.001037451474724005,0.42472811638851193,-0.0017395252690557417,-0.2764871701254268
745,0.7356,158.719,493.015,-0.00842223,279.732,-1.49689,-2.60262,-0.026916,0.354353,-0.323976,0.675102,-0.00104042,-0.00174522,0.466182,-0.02655699269726053,0.964233317550643,-0.0010398789507675144,0.4252582138398213,-0.0017436979891192195,-0.27673239940604266
746,0.7366,158.761,493.146,-0.00847618,279.806,-1.50027,-2.60852,-0.0269472,0.354724,-0.324315,0.675807,-0.00104286,-0.00174941,0.466675,-0.026587363645299122,0.965618590290781,-0.0010423164104892413,0.42578708273627,-0.0017478806742619035,-0.2769775455680219
747,0.7376,158.802,493.277,-0.00853034,279.88,-1.50366,-2.61442,-0.0269785,0.355095,-0.324654,0.676512,-0.00104531,-0.0017536,0.467167,-0.026617830984000723,0.9670048399925391,-0.001044763853815911,0.4263161478794808,-0.001752063341879162,-0.27722260863953685
748,0.7386,158.844,493.408,-0.00858472,279.953,-1.50705,-2.62034,-0.0270097,0.355466,-0.324993,0.677217,-0.00104776,-0.0017578,0.46766,-0.026648200033914327,0.9683920673449182,-0.0010472112911463771,0.4268454093422749,-0.0017562559744085382,-0.2774675886487503
749,0.7396,158.885,493.538,-0.00863931,280.027,-1.51045,-2.62626,-0.0270409,0.355836,-0.325331,0.677921,-0.00105021,-0.00176201,0.468152,-0.026678568136328407,0.9697783032581171,-0.0010496587224805287,0.4273734398233464,-0.0017604585717244658,-0.2777117633359403
750,0.7406,158.926,493.668,-0.00869411,280.1,-1.51385,-2.6322,-0.027072,0.356207,-0.32567,0.678624,-0.00105267,-0.00176623,0.468643,-0.02670883796216117,0.97116354426047,-0.0010521161372974985,0.4279030936142241,-0.0017646711337007126,-0.2779565775498156
751,0.7416,158.968,493.798,-0.00874914,280.173,-1.51727,-2.63815,-0.0271032,0.356577,-0.326008,0.679328,-0.00105514,-0.00177045,0.469135,-0.02673920417270137,0.9725517319803729,-0.0010545835355233457,0.42843151551088376,-0.0017688836779000683,-0.2782005869866859
752,0.7426,159.009,493.928,-0.00880438,280.247,-1.52068,-2.64411,-0.0271343,0.356947,-0.326346,0.680031,-0.0010576,-0.00177468,0.469626,-0.02676947211278269,0.9739389233886049,-0.0010570409382252288,0.42896013295982005,-0.0017731061865915443,-0.2784445139623033
753,0.7436,159.05,494.057,-0.00885984,280.32,-1.52411,-2.65008,-0.0271655,0.357316,-0.326683,0.680733,-0.00106007,-0.00177892,0.470117,-0.026799836431567026,0.9753251150091558,-0.0010595083242869174,0.4294875165451697,-0.0017773386596484642,-0.27868763719253276
754,0.7446,159.091,494.187,-0.00891552,280.393,-1.52754,-2.65606,-0.0271966,0.357686,-0.327021,0.681435,-0.00106255,-0.00178317,0.470607,-0.026830102486014362,0.9767122800778645,-0.0010619856936343597,0.4300165247867811,-0.0017815810969439294,-0.27893139957299873
755,0.7456,159.133,494.316,-0.00897142,280.466,-1.53098,-2.66206,-0.0272277,0.358055,-0.327358,0.682137,-0.00106503,-0.00178742,0.471098,-0.026860367599202073,0.9781004192783318,-0.0010644630568379387,0.4305442982526433,-0.0017858235162091507,-0.27917435875042185
756,0.7466,159.174,494.445,-0.00902754,280.538,-1.53442,-2.66806,-0.0272587,0.358424,-0.327695,0.682838,-0.00106751,-0.00179168,0.471588,-0.02689053446021772,0.9794875538060945,-0.0010669404138976546,0.4310722665028499,-0.0017900758995433863,-0.27941723606439695
757,0.7476,159.215,494.574,-0.00908388,280.611,-1.53787,-2.67408,-0.0272898,0.358793,-0.328032,0.683539,-0.00107,-0.00179595,0.472077,-0.026920797694000353,0.9808756610560607,-0.0010694277541192232,0.4316004296092897,-0.0017943382468191826,-0.2796600315425073
758,0.7486,159.256,494.703,-0.00914045,280.684,-1.54133,-2.6801,-0.0273209,0.359162,-0.328369,0.684239,-0.0010725,-0.00180023,0.472567,-0.02695105998661096,0.9822627594465969,-0.0010719250774281486,0.43212878764387774,-0.001798610557908753,-0.27990274521232705
759,0.7496,159.297,494.831,-0.00919724,280.756,-1.54479,-2.68614,-0.0273519,0.35953,-0.328706,0.68494,-0.00107499,-0.00180451,0.473056,-0.026981224036206175,0.9836528127977455,-0.0010744124052379789,0.43265590802193166,-0.0018028828507128392,-0.28014537710142084
760,0.7506,159.338,494.96,-0.00925426,280.829,-1.54826,-2.69219,-0.0273829,0.359899,-0.329042,0.685639,-0.0010775,-0.0018088,0.473545,-0.02701138715073037,0.9850398708341985,-0.0010769197053162038,0.43318465559992037,-0.001807165107159947,-0.28038720762491176
761,0.7516,159.379,495.088,-0.00931151,280.901,-1.55173,-2.69825,-0.0274139,0.360267,-0.329378,0.686338,-0.00108,-0.0018131,0.474034,-0.027041549330212522,0.9864278987631567,-0.0010794170098953337,0.4337121646088855,-0.001811457327121735,-0.28062895690699596
762,0.7526,159.419,495.216,-0.00936898,280.973,-1.55522,-2.70433,-0.0274449,0.360635,-0.329714,0.687037,-0.00108251,-0.00181741,0.474522,-0.027071710574681607,0.9878168972628123,-0.0010819242974119403,0.4342398677768893,-0.0018157595104694169,-0.2808706249749662
763,0.7536,159.46,495.343,-0.00942668,281.046,-1.55871,-2.71041,-0.0274758,0.361002,-0.33005,0.687736,-0.00108503,-0.00182173,0.47501,-0.027101773594348733,0.9892068670118312,-0.0010844415677909724,0.4347663304083471,-0.001820071657074096,-0.2811122118561058
764,0.7546,159.501,495.471,-0.0094846,281.118,-1.5622,-2.71651,-0.0275068,0.36137,-0.330385,0.688434,-0.00108755,-0.00182605,0.475498,-0.027131932971894535,0.9905958180925409,-0.0010869588318265233,0.4352944215807535,-0.001824383785050343,-0.28135299893104704
765,0.7556,159.542,495.598,-0.00954276,281.19,-1.5657,-2.72261,-0.0275377,0.361737,-0.330721,0.689132,-0.00109007,-0.00183038,0.475985,-0.027161994130718403,0.9919857389995346,-0.0010894760895184818,0.43582127130448445,-0.0018287058761111696,-0.28159442376176336
766,0.7566,159.582,495.726,-0.00960115,281.262,-1.56921,-2.72873,-0.0275687,0.362104,-0.331056,0.689829,-0.0010926,-0.00183472,0.476473,-0.027192151641456608,0.9933746370343544,-0.0010920033299469667,0.43634831441754884,-0.0018330379301271238,-0.28183504932277126
767,0.7576,159.623,495.853,-0.00965978,281.334,-1.57273,-2.73486,-0.0275996,0.362471,-0.331391,0.690526,-0.00109514,-0.00183906,0.47696,-0.027222210939552238,0.9947645034685519,-0.0010945405530362606,0.43687555099093367,-0.0018373699653420061,-0.2820755942877169
768,0.7586,159.664,495.98,-0.00971863,281.405,-1.57625,-2.741,-0.0276305,0.362837,-0.331726,0.691222,-0.00109767,-0.00184342,0.477446,-0.027252269308830068,0.996153342822997,-0.0010970677806517726,0.4374015436933891,-0.0018417219449216038,-0.28231605868359544
769,0.7596,159.704,496.106,-0.00977772,281.477,-1.57978,-2.74716,-0.0276613,0.363204,-0.33206,0.691918,-0.00110022,-0.00184778,0.477933,-0.027282229477546327,0.9975431491460984,-0.0010996149798812027,0.437929166872856,-0.0018460739055267128,-0.2825557250934766
770,0.7606,159.745,496.233,-0.00983705,281.549,-1.58331,-2.75332,-0.0276922,0.36357,-0.332395,0.692614,-0.00110276,-0.00185215,0.478419,-0.027312285992279972,0.998933923111101,-0.0011021521836369619,0.43845554526930197,-0.0018504358286528522,-0.28279602867247344
771,0.7616,159.785,496.359,-0.00989661,281.62,-1.58685,-2.7595,-0.027723,0.363936,-0.332729,0.693309,-0.00110531,-0.00185652,0.478905,-0.027342244312510866,1.0003236650670528,-0.0011046993699012075,0.4389821163555012,-0.0018547977327175724,-0.2830355347991472
772,0.7626,159.826,496.485,-0.0099564,281.692,-1.5904,-2.76569,-0.0277539,0.364302,-0.333063,0.694004,-0.00110787,-0.00186091,0.47939,-0.02737229897281479,1.0017143732293823,-0.0011072565385976674,0.4395088802019911,-0.0018591795805373845,-0.2832749609441323
773,0.7636,159.866,496.611,-0.0100164,281.763,-1.59395,-2.77189,-0.0277847,0.364667,-0.333397,0.694699,-0.00111043,-0.0018653,0.479876,-0.02740225544467434,1.003106048269835,-0.0011098137007476971,0.44003439684421775,-0.0018635614091209174,-0.28351430713413817
774,0.7646,159.907,496.737,-0.0100767,281.834,-1.59751,-2.7781,-0.0278155,0.365032,-0.333731,0.695393,-0.001113,-0.0018697,0.480361,-0.027432210993888817,1.0044966863629377,-0.0011123808452276895,0.440560105335029,-0.0018679531997887189,-0.2837535733958654
775,0.7656,159.947,496.863,-0.0101372,281.906,-1.60108,-2.78432,-0.0278462,0.365398,-0.334064,0.696087,-0.00111556,-0.00187411,0.480845,-0.02746206836669829,1.005888289893845,-0.0011149379942596571,0.4410874468311885,-0.0018723549524092276,-0.28399204374840725
776,0.7666,159.987,496.988,-0.010198,281.977,-1.60466,-2.79055,-0.027877,0.365762,-0.334397,0.69678,-0.00111814,-0.00187852,0.48133,-0.02749202207370316,1.0072788522529477,-0.0011175151143950623,0.44161209814258084,-0.0018767566856180418,-0.28423043470354203
777,0.7676,160.028,497.114,-0.010259,282.048,-1.60824,-2.7968,-0.0279077,0.366127,-0.33473,0.697473,-0.00112072,-0.00188295,0.481814,-0.02752187761034064,1.0086703786057503,-0.001120092227881675,0.4421383825994736,-0.0018811783617919131,-0.2844687462877048
778,0.7686,160.068,497.239,-0.0103202,282.119,-1.61183,-2.80306,-0.0279385,0.366492,-0.335063,0.698165,-0.0011233,-0.00188738,0.482298,-0.027551829475249145,1.0100608595586675,-0.0011226693347191619,0.4426648591852542,-0.0018856000183777866,-0.28470697852732163
779,0.7696,160.108,497.364,-0.0103817,282.19,-1.61542,-2.80933,-0.0279692,0.366856,-0.335396,0.698858,-0.00112589,-0.00189182,0.482782,-0.027581683175827654,1.0114543145107153,-0.001125256423655352,0.4431900847792567,-0.0018900316364754977,-0.28494513144880995
780,0.7706,160.148,497.489,-0.0104434,282.26,-1.61902,-2.81561,-0.0279999,0.36722,-0.335729,0.699549,-0.00112848,-0.00189627,0.483265,-0.027611535959911615,1.0128447097682796,-0.001127843505890902,0.4437155015901746,-0.0018944732159522637,-0.2851832050785781
781,0.7716,160.188,497.613,-0.0105054,282.331,-1.62263,-2.8219,-0.0280306,0.367584,-0.336061,0.700241,-0.00113107,-0.00190072,0.483748,-0.027641387827529118,1.0142380803580604,-0.001130430581426034,0.44424110968762376,-0.0018989147756639513,-0.2854204848638682
782,0.7726,160.229,497.738,-0.0105676,282.402,-1.62624,-2.82821,-0.0280612,0.367948,-0.336393,0.700932,-0.00113368,-0.00190519,0.484231,-0.027671141545827393,1.0156303998625762,-0.0011330376275999754,0.44476690914124495,-0.0019033762775434448,-0.285657685885345
783,0.7736,160.269,497.862,-0.0106301,282.472,-1.62986,-2.83452,-0.0280919,0.368311,-0.336725,0.701622,-0.00113628,-0.00190966,0.484714,-0.027700991583581525,1.017021664769676,-0.001135634678326003,0.4452914547285274,-0.0019078377594800022,-0.2858948081691539
784,0.7746,160.309,497.986,-0.0106928,282.543,-1.63349,-2.84085,-0.0281225,0.368674,-0.337057,0.702313,-0.00113889,-0.00191414,0.485196,-0.027730743478032727,1.0184159083957276,-0.0011382417109172538,0.44581619076042167,-0.0019123092023508592,-0.2861318517414315
785,0.7756,160.349,498.11,-0.0107558,282.613,-1.63713,-2.84719,-0.0281531,0.369037,-0.337388,0.703003,-0.00114151,-0.00191862,0.485678,-0.027760494462089946,1.019809095966958,-0.0011408587252956792,0.4463411173060716,-0.001916780625189629,-0.2863681029967653
786,0.7766,160.389,498.234,-0.010819,282.683,-1.64077,-2.85354,-0.0281837,0.3694,-0.33772,0.703692,-0.00114413,-0.00192312,0.48616,-0.02779024453578094,1.0212012239671027,-0.0011434757328175893,0.44686623443464657,-0.0019212719895712604,-0.28660498946124147
787,0.7776,160.428,498.357,-0.0108825,282.754,-1.64442,-2.85991,-0.0282143,0.369763,-0.338051,0.704381,-0.00114675,-0.00192762,0.486641,-0.02781999369913357,1.0225943114739513,-0.001146092733482873,0.4473915422153403,-0.0019257633337417257,-0.28684108413390585
788,0.7786,160.468,498.481,-0.0109462,282.824,-1.64807,-2.86628,-0.0282449,0.370125,-0.338382,0.70507,-0.00114938,-0.00193213,0.487123,-0.02784974195217582,1.0239883591488321,-0.001148719715804547,0.4479155928010554,-0.0019302646383986266,-0.28707710067216563
789,0.7796,160.508,498.604,-0.0110102,282.894,-1.65173,-2.87267,-0.0282755,0.370488,-0.338713,0.705758,-0.00115201,-0.00193665,0.487604,-0.027879489294935444,1.025381342271174,-0.0011513466912171921,0.4484412815679808,-0.001934775903407071,-0.2873130391018789
790,0.7806,160.548,498.727,-0.0110745,282.964,-1.6554,-2.87907,-0.028306,0.37085,-0.339043,0.706446,-0.00115465,-0.00194118,0.488084,-0.027909138518358967,1.0267752840956597,-0.0011539836481810894,0.448965712228131,-0.0019392971286316119,-0.28754818699743845
791,0.7816,160.588,498.85,-0.0111389,283.034,-1.65908,-2.88548,-0.0283365,0.371212,-0.339374,0.707133,-0.00115729,-0.00194571,0.488565,-0.027938786837494956,1.0281681571129324,-0.0011566205981835553,0.44949033276654604,-0.0019438183333750914,-0.2877839695233816
792,0.7826,160.628,498.972,-0.0112037,283.103,-1.66276,-2.89191,-0.028367,0.371573,-0.339704,0.707821,-0.00115994,-0.00195026,0.489045,-0.027968434252371055,1.0295640169257414,-0.0011592675296318022,0.450013693237556,-0.0019483594786705583,-0.2880189620375415
793,0.7836,160.667,499.095,-0.0112687,283.173,-1.66645,-2.89834,-0.0283975,0.371935,-0.340034,0.708507,-0.00116259,-0.00195481,0.489525,-0.0279980807630148,1.0309567755029256,-0.00116191445406566,0.4505386932137705,-0.0019529006033038865,-0.2882538770169656
794,0.7846,160.707,499.217,-0.011334,283.243,-1.67014,-2.90479,-0.028428,0.372296,-0.340364,0.709194,-0.00116525,-0.00195937,0.490004,-0.02802772636945372,1.032352522191788,-0.0011645713598394947,0.451062432211222,-0.001957451687700673,-0.28848871448723623
795,0.7856,160.747,499.34,-0.0113995,283.312,-1.67384,-2.91125,-0.0284585,0.372657,-0.340694,0.70988,-0.00116791,-0.00196394,0.490484,-0.028057371071715465,1.0337471943398642,-0.0011672282585459826,0.4515863603125825,-0.0019620127317243607,-0.2887234744739272
796,0.7866,160.786,499.462,-0.0114653,283.382,-1.67755,-2.91772,-0.0284889,0.373018,-0.341023,0.710565,-0.00117058,-0.00196851,0.490963,-0.028086917678524115,1.0351407884194668,-0.0011698951384863099,0.4521104775861313,-0.001966573754904277,-0.2889574459604054
797,0.7876,160.826,499.583,-0.0115314,283.451,-1.68127,-2.9242,-0.0285193,0.373378,-0.341353,0.71125,-0.00117325,-0.0019731,0.491442,-0.028116463387129698,1.0365353374380435,-0.0011725620113059998,0.45263333146611395,-0.0019711547178173916,-0.2891920512912298
798,0.7886,160.865,499.705,-0.0115977,283.521,-1.68499,-2.9307,-0.0285497,0.373739,-0.341682,0.711935,-0.00117592,-0.00197769,0.49192,-0.028146008197559302,1.037930842049951,-0.0011752288770051633,0.45315782676447847,-0.001975735659703992,-0.28942586864129183
799,0.7896,160.905,499.827,-0.0116643,283.59,-1.68872,-2.93721,-0.0285801,0.374099,-0.342011,0.71262,-0.0011786,-0.00198229,0.492399,-0.02817555210984035,1.039327302909995,-0.0011779057238047175,0.4536810577580417,-0.001980326560760859,-0.2896596090780986
800,0.7906,160.944,499.948,-0.0117311,283.659,-1.69246,-2.94373,-0.0286105,0.374459,-0.34234,0.713304,-0.00118129,-0.0019869,0.492877,-0.028205095124000157,1.0407226799497304,-0.0011805925516246152,0.45420447714867196,-0.0019849274208504353,-0.2898932726269505
801,0.7916,160.984,500.069,-0.0117983,283.728,-1.6962,-2.95026,-0.0286409,0.374819,-0.342668,0.713988,-0.00118398,-0.00199151,0.493354,-0.02823463724006592,1.0421190117538526,-0.00118327937221685,0.45472808500420436,-0.001989528259730089,-0.29012614943964377
802,0.7926,161.023,500.19,-0.0118657,283.797,-1.69996,-2.95681,-0.0286712,0.375178,-0.342997,0.714671,-0.00118667,-0.00199614,0.493832,-0.028264081284477993,1.0435142554603671,-0.0011859661855815329,0.45525042614134503,-0.0019941490375171567,-0.2903596595219633
803,0.7936,161.062,500.311,-0.0119333,283.866,-1.70371,-2.96336,-0.0287016,0.375538,-0.343325,0.715354,-0.00118937,-0.00200077,0.494309,-0.028293621607391795,1.0449104524438408,-0.0011886629798322224,0.45577441060630064,-0.0019987697939100046,-0.29059238338484017
804,0.7946,161.102,500.432,-0.0120012,283.935,-1.70748,-2.96993,-0.0287319,0.375897,-0.343653,0.716036,-0.00119207,-0.00200541,0.494786,-0.028323063864604703,1.0463055570490032,-0.0011913597668015141,0.4562971274417662,-0.0020034005088749307,-0.2908250309268072
805,0.7956,161.141,500.552,-0.0120695,284.004,-1.71125,-2.97651,-0.0287622,0.376256,-0.343981,0.716719,-0.00119478,-0.00201006,0.495263,-0.02835250522973065,1.0477036611426658,-0.0011940665345487878,0.45682003196626386,-0.002008041182273046,-0.2910576021728938
806,0.7966,161.18,500.673,-0.0121379,284.073,-1.71503,-2.98311,-0.0287925,0.376615,-0.344308,0.7174,-0.0011975,-0.00201472,0.495739,-0.02838194570279673,1.0490986222662557,-0.001196783282993108,0.45734312424718615,-0.0020126918139651284,-0.29128938843786356
807,0.7976,161.22,500.793,-0.0122067,284.141,-1.71881,-2.98971,-0.0288227,0.376973,-0.344636,0.718082,-0.00120021,-0.00201938,0.496215,-0.02841128812496374,1.0504965841774676,-0.001199490036042694,0.4578649464862743,-0.0020173424239853244,-0.2915218073996625
808,0.7986,161.259,500.913,-0.0122757,284.21,-1.72261,-2.99633,-0.028853,0.377332,-0.344963,0.718763,-0.00120294,-0.00202406,0.496691,-0.028440726816935102,1.0518934479294155,-0.0012022167577129261,0.4583884139588521,-0.0020220129718936386,-0.29175344189433894
809,0.7996,161.298,501.033,-0.012345,284.278,-1.72641,-3.00296,-0.0288832,0.37769,-0.34529,0.719444,-0.00120567,-0.00202874,0.497167,-0.028470067463939208,1.053291263269558,-0.0012049434719392238,0.4589106104786491,-0.002026683497943993,-0.29198500065691846
810,0.8006,161.337,501.152,-0.0124146,284.347,-1.73021,-3.0096,-0.0289134,0.378048,-0.345617,0.720124,-0.0012084,-0.00203343,0.497642,-0.02849940722486921,1.054687976157143,-0.001207670178721587,0.45943299397826776,-0.002031363981822576,-0.29221648371216136
811,0.8016,161.376,501.272,-0.0124845,284.415,-1.73403,-3.01626,-0.0289436,0.378406,-0.345944,0.720804,-0.00121113,-0.00203813,0.498117,-0.028528746099751756,1.0560856391324847,-0.001210396878060127,0.45995556452465847,-0.0020360544233893885,-0.29244789108482006
812,0.8026,161.415,501.391,-0.0125546,284.484,-1.73785,-3.02292,-0.0289738,0.378764,-0.346271,0.721483,-0.00121388,-0.00204284,0.498592,-0.02855808408861371,1.0574821953586389,-0.0012131435456920192,0.4604783221847961,-0.0020407548225035432,-0.29267922279963865
813,0.8036,161.454,501.51,-0.012625,284.552,-1.74168,-3.0296,-0.029004,0.379121,-0.346597,0.722162,-0.00121662,-0.00204756,0.499067,-0.02858742119148172,1.058879700168478,-0.0012158802179293993,0.46099980602514323,-0.002045465179024375,-0.2929097717914785
814,0.8046,161.493,501.629,-0.0126957,284.62,-1.74551,-3.0363,-0.0290341,0.379478,-0.346923,0.722841,-0.00121938,-0.00205228,0.499541,-0.028616660270053496,1.0602781542063093,-0.0012186368582958185,0.4615214760684563,-0.0020501755133123245,-0.29314024563659646
815,0.8056,161.532,501.748,-0.0127667,284.688,-1.74935,-3.043,-0.0290643,0.379835,-0.347249,0.72352,-0.00122213,-0.00205701,0.500015,-0.02864599560394754,1.061677558116878,-0.0012213835032678366,0.4620433323812221,-0.002054895804818657,-0.2933706443594867
816,0.8066,161.571,501.867,-0.012838,284.756,-1.7532,-3.04972,-0.0290944,0.380192,-0.347575,0.724198,-0.00122489,-0.00206175,0.500489,-0.028675232919456062,1.0630758494684849,-0.0012241401284452946,0.46256537502995054,-0.0020596260534018196,-0.29360096798463475
817,0.8076,161.61,501.986,-0.0129095,284.824,-1.75706,-3.05645,-0.0291245,0.380549,-0.347901,0.724875,-0.00122766,-0.0020665,0.500963,-0.028704469354934647,1.0644730247090304,-0.0012269067337453698,0.46308760408117533,-0.0020643662589200362,-0.29383121653651867
818,0.8086,161.649,502.104,-0.0129814,284.892,-1.76092,-3.06319,-0.0291546,0.380905,-0.348226,0.725553,-0.00123043,-0.00207126,0.501436,-0.02873370491040972,1.065873212029648,-0.0012296733313819086,0.46360855599216655,-0.0020691164212313096,-0.29406068410064534
819,0.8096,161.688,502.222,-0.0130535,284.96,-1.76479,-3.06995,-0.0291847,0.381261,-0.348552,0.72623,-0.00123321,-0.00207603,0.501909,-0.02876293958590792,1.067272281725848,-0.0012324499090305974,0.4641296933950536,-0.002073876540193087,-0.29429078280950116
820,0.8106,161.727,502.34,-0.0131259,285.027,-1.76867,-3.07671,-0.0292147,0.381617,-0.348877,0.726906,-0.00123599,-0.0020808,0.502382,-0.028792076260668042,1.0686702302416573,-0.0012352264789604606,0.46465101635588324,-0.002078636636449138,-0.2945201010388573
821,0.8116,161.766,502.458,-0.0131987,285.095,-1.77255,-3.08349,-0.0292448,0.381973,-0.349202,0.727582,-0.00123877,-0.00208559,0.502854,-0.028821309179214882,1.0700691240901494,-0.0012380030411713872,0.46517252494072636,-0.0020834166683314503,-0.2947493447518985
822,0.8126,161.805,502.576,-0.0132717,285.162,-1.77645,-3.09029,-0.0292748,0.382329,-0.349526,0.728258,-0.00124157,-0.00209038,0.503327,-0.028850444102913486,1.0714689639105859,-0.0012407995708477726,0.46569421921567633,-0.002088196677317411,-0.294977808951
823,0.8136,161.843,502.693,-0.013345,285.23,-1.78035,-3.09709,-0.0293048,0.382684,-0.349851,0.728934,-0.00124436,-0.00209518,0.503798,-0.028879578152577468,1.0728697503426599,-0.001243586105129757,0.4662146330314849,-0.002092986642477479,-0.29520690393313986
824,0.8146,161.882,502.811,-0.0134186,285.297,-1.78425,-3.10391,-0.0293348,0.383039,-0.350175,0.729609,-0.00124716,-0.00209999,0.50427,-0.02890871132823314,1.0742694097560497,-0.001246382619173536,0.4667352316269944,-0.0020977865636678805,-0.29543521990708044
825,0.8156,161.921,502.928,-0.0134924,285.365,-1.78817,-3.11074,-0.0293648,0.383394,-0.3505,0.730283,-0.00124997,-0.00210481,0.504742,-0.02893784362990659,1.0756679385894992,-0.0012491891128952881,0.46725601506781334,-0.0021025964407448416,-0.29566416625481384
826,0.8166,161.959,503.045,-0.0135666,285.432,-1.79209,-3.11758,-0.0293947,0.383749,-0.350824,0.730958,-0.00125278,-0.00210963,0.505213,-0.02896687795431674,1.0770694874175613,-0.0012519955987306819,0.4677769834195735,-0.0021074062946382366,-0.29589233409976046
827,0.8176,161.998,503.162,-0.0136411,285.499,-1.79601,-3.12444,-0.0294247,0.384104,-0.351148,0.731632,-0.00125559,-0.00211447,0.505684,-0.02899600851101758,1.0784699041395012,-0.0012548020766800505,0.4682981367479302,-0.0021122360831037357,-0.29612042803030003
828,0.8186,162.037,503.279,-0.0137159,285.566,-1.79995,-3.13131,-0.0294546,0.384458,-0.351471,0.732305,-0.00125841,-0.00211931,0.506155,-0.029025041096323756,1.0798691851902462,-0.0012576185341669488,0.4688180062998206,-0.002117065848193045,-0.2963477444184732
829,0.8196,162.075,503.395,-0.013791,285.633,-1.80389,-3.13819,-0.0294845,0.384812,-0.351795,0.732979,-0.00126124,-0.00212416,0.506625,-0.029054072813568643,1.0812714895445459,-0.0012604449711071108,0.4693380599181103,-0.002121905568687299,-0.2965756908199705
830,0.8206,162.114,503.512,-0.0138664,285.7,-1.80784,-3.14508,-0.0295144,0.385167,-0.352118,0.733651,-0.00126407,-0.00212902,0.507095,-0.02908310366277811,1.0826705740252551,-0.001263271400048449,0.46985976752700265,-0.0021267552444415028,-0.29680286018200863
831,0.8216,162.152,503.628,-0.0139421,285.767,-1.8118,-3.15199,-0.0295443,0.38552,-0.352441,0.734324,-0.00126691,-0.00213389,0.507565,-0.029112133643978244,1.084072683078349,-0.0012661078083299193,0.4703787196145943,-0.002131614875310328,-0.2970299561801918
832,0.8226,162.191,503.744,-0.0140181,285.834,-1.81576,-3.15891,-0.0295742,0.385874,-0.352764,0.734996,-0.00126975,-0.00213877,0.508035,-0.029141162757194916,1.0854736505937415,-0.0012689442085560554,0.47089932582320015,-0.0021364844611478917,-0.29725697883821256
833,0.8236,162.229,503.86,-0.0140944,285.901,-1.81974,-3.16584,-0.029604,0.386227,-0.353087,0.735668,-0.00127259,-0.00214366,0.508504,-0.029170093919468232,1.0868755598757027,-0.0012717806007268573,0.47141864493964714,-0.0021413640018084212,-0.297483928179756
834,0.8246,162.268,503.976,-0.014171,285.967,-1.82371,-3.17279,-0.0296338,0.386581,-0.35341,0.736339,-0.00127544,-0.00214855,0.508973,-0.02919902421960585,1.0882763232799446,-0.0012746269720960157,0.47193961934698536,-0.0021462435186080375,-0.2977108042284996
835,0.8256,162.306,504.092,-0.0142479,286.034,-1.8277,-3.17974,-0.0296637,0.386934,-0.353732,0.73701,-0.0012783,-0.00215345,0.509442,-0.029228050734833144,1.0896780269118422,-0.0012774833225782656,0.4724593057518689,-0.0021511329900355536,-0.29793690494536906
836,0.8266,162.344,504.207,-0.0143251,286.101,-1.83169,-3.18672,-0.0296935,0.387287,-0.354054,0.737681,-0.00128116,-0.00215837,0.509911,-0.02925697930788329,1.0910806714024992,-0.0012803396648914944,0.47297917563843583,-0.00215604239438405,-0.2981629328695279
837,0.8276,162.383,504.323,-0.0144026,286.167,-1.8357,-3.1937,-0.0297232,0.387639,-0.354376,0.738351,-0.00128402,-0.00216329,0.510379,-0.029285809947460772,1.092482164900233,-0.0012831959990354802,0.47349775557297447,-0.0021609517745784235,-0.29838888802441166
838,0.8286,162.421,504.438,-0.0144805,286.234,-1.8397,-3.2007,-0.029753,0.387992,-0.354698,0.739021,-0.00128689,-0.00216822,0.510847,-0.02931473679931207,1.093884597713246,-0.0012860623121497827,0.4740179920970362,-0.002165871108960049,-0.2986147704334482
839,0.8296,162.459,504.553,-0.0145586,286.3,-1.84372,-3.20771,-0.0297828,0.388344,-0.35502,0.739691,-0.00128977,-0.00217316,0.511315,-0.029343662789156122,1.0952879704710896,-0.0012889386041484707,0.4745369377593325,-0.0021708003973813783,-0.298840580120058
840,0.8306,162.498,504.668,-0.0146371,286.366,-1.84774,-3.21473,-0.0298125,0.388696,-0.355342,0.74036,-0.00129265,-0.0021781,0.511783,-0.029372490854272404,1.0966901871125034,-0.0012918148878634517,0.4750560661226555,-0.002175729661452075,-0.29906631710765386
841,0.8316,162.536,504.782,-0.0147159,286.432,-1.85177,-3.22177,-0.0298422,0.389048,-0.355663,0.741029,-0.00129554,-0.00218306,0.51225,-0.029401318063207782,1.0980933421507086,-0.001294701150347688,0.47557537725132737,-0.0021806788575590152,-0.2992912807112723
842,0.8326,162.574,504.897,-0.014795,286.499,-1.85581,-3.22882,-0.0298719,0.3894,-0.355984,0.741697,-0.00129843,-0.00218803,0.512717,-0.029430144415987902,1.0994953367173173,-0.0012975874044908187,0.4760948712096926,-0.00218563800726157,-0.29951617211316284
843,0.8336,162.612,505.011,-0.0148744,286.565,-1.85986,-3.23588,-0.0299016,0.389751,-0.356305,0.742365,-0.00130132,-0.002193,0.513184,-0.029458969912637967,1.1008982681291672,-0.0013004736502925107,0.4766130714483088,-0.0021905971323172846,-0.2997409913364987
844,0.8346,162.65,505.125,-0.0149542,286.631,-1.86391,-3.24295,-0.0299313,0.390103,-0.356626,0.743033,-0.00130422,-0.00219798,0.513651,-0.02948779455318351,1.1023021370122814,-0.0013033698747194622,0.47713293073932617,-0.002195566210770439,-0.2999657384044454
845,0.8356,162.689,505.24,-0.0150342,286.697,-1.86797,-3.25004,-0.0299609,0.390454,-0.356947,0.743701,-0.00130713,-0.00220297,0.514117,-0.02951652128930704,1.1037069439930987,-0.0013062760776845206,0.47765149540078977,-0.0022005452424723737,-0.3001904133401613
846,0.8366,162.727,505.353,-0.0151146,286.763,-1.87204,-3.25714,-0.0299906,0.390805,-0.357267,0.744368,-0.00131004,-0.00220797,0.514583,-0.029545344220602066,1.1051105845868414,-0.0013091822721926771,0.47817024211039705,-0.0022055342272737644,-0.3004143165814631
847,0.8376,162.765,505.467,-0.0151954,286.828,-1.87611,-3.26426,-0.0300202,0.391155,-0.357588,0.745034,-0.00131296,-0.00221298,0.515049,-0.029574069253280544,1.1065130552070532,-0.0013120984451228113,0.47868769224362673,-0.0022105331650248417,-0.30063884754669257
848,0.8386,162.803,505.581,-0.0152764,286.894,-1.8802,-3.27139,-0.0300498,0.391506,-0.357908,0.7457,-0.00131588,-0.002218,0.515515,-0.029602793435710595,1.1079164601838043,-0.0013150146095377568,0.47920680272216365,-0.0022155420555760585,-0.30086260731200576
849,0.8396,162.841,505.694,-0.0153578,286.96,-1.88429,-3.27853,-0.0300794,0.391856,-0.358228,0.746366,-0.0013188,-0.00222303,0.51598,-0.029631516767917532,1.1093208001395833,-0.0013179307654375139,0.47972461571510405,-0.002220560898777091,-0.30108629548564936
850,0.8406,162.879,505.808,-0.0154394,287.025,-1.88839,-3.28568,-0.0301089,0.392207,-0.358547,0.747032,-0.00132174,-0.00222806,0.516445,-0.029660142215945484,1.1107260756972939,-0.001320866886404981,0.4802440902176621,-0.002225579716733428,-0.30130921340009165
851,0.8416,162.917,505.921,-0.0155215,287.091,-1.89249,-3.29285,-0.0301385,0.392557,-0.358867,0.747697,-0.00132467,-0.00223311,0.51691,-0.029688863850653613,1.112130175349023,-0.0013237930119781582,0.48076226632476726,-0.0022306184648330785,-0.30153275868265084
852,0.8426,162.955,506.034,-0.0156038,287.156,-1.8966,-3.30003,-0.030168,0.392906,-0.359186,0.748362,-0.00132761,-0.00223816,0.517375,-0.029717487606967463,1.1135352090375528,-0.0013267291157106342,0.48127914254536863,-0.0022356571874870834,-0.30175553419804724
853,0.8436,162.993,506.146,-0.0156865,287.222,-1.90072,-3.30722,-0.0301975,0.393256,-0.359506,0.749027,-0.00133056,-0.00224323,0.517839,-0.029746110518893087,1.1149411773842255,-0.0013296751975142573,0.48179768098419307,-0.002240715839881391,-0.3019789366808002
854,0.8446,163.031,506.259,-0.0157695,287.287,-1.90485,-3.31443,-0.030227,0.393605,-0.359825,0.749691,-0.00133351,-0.0022483,0.518303,-0.029774732586455133,1.1163459646637715,-0.0013326212706270546,0.48231491862757525,-0.0022457744666284363,-0.30220156988811453
855,0.8456,163.068,506.372,-0.0158529,287.353,-1.90899,-3.32165,-0.0302565,0.393954,-0.360144,0.750355,-0.00133647,-0.00225338,0.518767,-0.0298033538096788,1.1177516850318225,-0.0013355773216930933,0.4828323368183989,-0.0022508430452199413,-0.3024241320867622
856,0.8466,163.106,506.484,-0.0159365,287.418,-1.91313,-3.32889,-0.030286,0.394303,-0.360462,0.751018,-0.00133943,-0.00225847,0.51923,-0.02983197418858874,1.119156219950875,-0.0013385333640092423,0.48334993561968553,-0.0022559215755040274,-0.302645925945666
857,0.8476,163.144,506.596,-0.0160206,287.483,-1.91728,-3.33613,-0.0303155,0.394652,-0.360781,0.751681,-0.0013424,-0.00226357,0.519694,-0.029860593723209927,1.1205616863853423,-0.001341499384160616,0.4838677150944797,-0.002261010057328372,-0.30286834641733795
858,0.8486,163.182,506.708,-0.0161049,287.548,-1.92144,-3.3434,-0.0303449,0.395001,-0.361099,0.752344,-0.00134538,-0.00226867,0.520157,-0.029889115402483735,1.1219680849530236,-0.0013444753820582855,0.4843856753058471,-0.0022660985132014755,-0.3030899990385426
859,0.8496,163.22,506.82,-0.0161896,287.613,-1.92561,-3.35067,-0.0303743,0.395349,-0.361418,0.753006,-0.00134835,-0.00227379,0.52062,-0.029917636243232515,1.1233732928977735,-0.0013474413845618871,0.48490233141380235,-0.0022712068976995514,-0.30331227787349024
860,0.8506,163.258,506.932,-0.0162747,287.678,-1.92978,-3.35796,-0.0304037,0.395698,-0.361736,0.753668,-0.00135134,-0.00227892,0.521082,-0.029946156245480804,1.1247794313981627,-0.001350427351248129,0.48542065276928126,-0.002276325233279697,-0.3035337893469354
861,0.8516,163.295,507.044,-0.0163601,287.743,-1.93396,-3.36526,-0.0304331,0.396046,-0.362054,0.75433,-0.00135433,-0.00228405,0.521545,-0.02997467540925347,1.126186501070423,-0.0013534133090062905,0.4859376691120709,-0.0022814435426027346,-0.3037552303909311
862,0.8526,163.333,507.155,-0.0164458,287.808,-1.93815,-3.37257,-0.0304625,0.396394,-0.362371,0.754991,-0.00135732,-0.0022892,0.522007,-0.03000319373457505,1.1275923749377559,-0.0013563992578364825,0.48645486540785776,-0.0022865817799375687,-0.30397590500412297
863,0.8536,163.371,507.266,-0.0165319,287.873,-1.94235,-3.3799,-0.0304918,0.396741,-0.362689,0.755652,-0.00136032,-0.00229435,0.522469,-0.030031614224636405,1.1289991783949107,-0.0013593951841448515,0.4869707547477784,-0.002291719990810459,-0.30419720547769147
864,0.8546,163.408,507.378,-0.0166183,287.937,-1.94655,-3.38724,-0.0305212,0.397089,-0.363006,0.756313,-0.00136333,-0.00229951,0.52293,-0.03006013087598136,1.1304069120565492,-0.0013624010878414694,0.48748831061992925,-0.002296868152253051,-0.3044177400069854
865,0.8556,163.446,507.488,-0.0167051,288.002,-1.95077,-3.3946,-0.0305505,0.397436,-0.363323,0.756973,-0.00136634,-0.00230468,0.523391,-0.03008854969780894,1.131813444723229,-0.0013654069824903248,0.4880045586275634,-0.0023020262641109124,-0.304638204637913
866,0.8566,163.484,507.599,-0.0167922,288.066,-1.95499,-3.40197,-0.0305798,0.397783,-0.36364,0.757633,-0.00136935,-0.00230986,0.523853,-0.030116967686977136,1.1332209060078795,-0.0013684128680914176,0.48852098580434045,-0.0023071943262296113,-0.3048585993926286
867,0.8576,163.521,507.71,-0.0168797,288.131,-1.95921,-3.40935,-0.0306091,0.39813,-0.363957,0.758293,-0.00137237,-0.00231505,0.524313,-0.030145384843510592,1.1346292965235905,-0.0013714287309305462,0.4890375922124428,-0.0023123723384541606,-0.3050789242932793
868,0.8586,163.559,507.821,-0.0169675,288.195,-1.96345,-3.41675,-0.0306384,0.398477,-0.364274,0.758952,-0.0013754,-0.00232025,0.524774,-0.03017380116743351,1.1360364808463075,-0.0013744545709174494,0.4895543779140743,-0.00231756030062924,-0.30529917936200546
869,0.8596,163.596,507.931,-0.0170557,288.26,-1.96769,-3.42416,-0.0306676,0.398823,-0.36459,0.759611,-0.00137843,-0.00232546,0.525234,-0.030202119678987116,1.1374445928091177,-0.0013774804017359088,0.4900698529008627,-0.0023227582125995294,-0.3055186701399578
870,0.8606,163.634,508.041,-0.0171442,288.324,-1.97194,-3.43158,-0.0306969,0.39917,-0.364907,0.760269,-0.00138147,-0.00233068,0.525694,-0.030230534340603632,1.1388514941709724,-0.0013805162095810175,0.490586996859107,-0.0023279660742090424,-0.30573878583134306
871,0.8616,163.671,508.151,-0.0172331,288.388,-1.9762,-3.43902,-0.0307261,0.399516,-0.365223,0.760927,-0.00138451,-0.00233591,0.526154,-0.03025885119557281,1.1402593215785592,-0.0013835520081973973,0.49110282919386794,-0.002333183885301904,-0.3059581377155973
872,0.8626,163.709,508.261,-0.0173224,288.453,-1.98047,-3.44647,-0.0307553,0.399862,-0.365539,0.761585,-0.00138755,-0.00234114,0.526614,-0.03028716722370195,1.1416680756414164,-0.0013865877975848262,0.49161884003749723,-0.0023384016691057052,-0.3061774202956068
873,0.8636,163.746,508.371,-0.017412,288.517,-1.98474,-3.45394,-0.0307845,0.400208,-0.365855,0.762243,-0.00139061,-0.00234639,0.527073,-0.030315482425015028,1.1430777569694834,-0.0013896435499508586,0.49213502945176923,-0.0023436393787479304,-0.3063966335932682
874,0.8646,163.784,508.481,-0.017502,288.581,-1.98903,-3.46142,-0.0308137,0.400553,-0.36617,0.7629,-0.00139366,-0.00235164,0.527532,-0.03034379679953636,1.144486221685808,-0.001392689306893291,0.4926499048478288,-0.0023488770608922627,-0.3066150842459022
875,0.8656,163.821,508.59,-0.0175923,288.645,-1.99332,-3.46891,-0.0308428,0.400899,-0.366486,0.763557,-0.00139673,-0.00235691,0.527991,-0.030372013384496133,1.1458956120674992,-0.0013957550266312513,0.49316645107224977,-0.0023541346684563536,-0.3068341592636047
876,0.8666,163.859,508.699,-0.017683,288.709,-1.99762,-3.47642,-0.0308719,0.401244,-0.366801,0.764213,-0.0013998,-0.00236218,0.52845,-0.030400229148365376,1.147303781418064,-0.0013988207369574068,0.4936816823701582,-0.0023593922483129415,-0.3070524721173571
877,0.8676,163.896,508.809,-0.0177741,288.773,-2.00192,-3.48394,-0.0309011,0.401589,-0.367116,0.764869,-0.00140287,-0.00236746,0.528908,-0.03042854104831849,1.1487128748307813,-0.0014018864378718687,0.4941970914535305,-0.0023646597768155475,-0.3072707162133904
878,0.8686,163.933,508.918,-0.0178655,288.837,-2.00624,-3.49147,-0.0309302,0.401934,-0.367431,0.765525,-0.00140595,-0.00237275,0.529366,-0.030456755167256544,1.150122892912036,-0.001404962115325148,0.49471267838371347,-0.002369937253806409,-0.3074888915733599
879,0.8696,163.971,509.027,-0.0179573,288.9,-2.01056,-3.49902,-0.0309593,0.402278,-0.367746,0.76618,-0.00140904,-0.00237805,0.529824,-0.030484968465175677,1.1515316847358483,-0.0014080477692248738,0.49522694799437916,-0.002375224679127319,-0.30770699821891423
880,0.8706,164.008,509.135,-0.0180495,288.964,-2.01489,-3.50658,-0.0309883,0.402623,-0.368061,0.766835,-0.00141213,-0.00238337,0.530282,-0.030513083993413015,1.152941399620575,-0.0014111334135898934,0.4957428902863652,-0.002380532028814386,-0.30792503617169475
881,0.8716,164.045,509.244,-0.0181421,289.028,-2.01923,-3.51416,-0.0310174,0.402967,-0.368375,0.76749,-0.00141522,-0.00238869,0.530739,-0.030541295652187217,1.1543520381710182,-0.0014142190484204287,0.49625751435088783,-0.002385839350266483,-0.308142313595996
882,0.8726,164.083,509.352,-0.018235,289.091,-2.02357,-3.52175,-0.0310464,0.403311,-0.368689,0.768144,-0.00141832,-0.00239402,0.531197,-0.030569409546959858,1.1557614452298548,-0.0014173146595430897,0.49677231547654155,-0.0023911566195722322,-0.3083595228058962
883,0.8736,164.12,509.461,-0.0183283,289.155,-2.02793,-3.52935,-0.0310755,0.403655,-0.369003,0.768798,-0.00142143,-0.00239935,0.531653,-0.030597619566684275,1.1571717743423866,-0.0014204202468653948,0.4972872937242456,-0.002396473860536985,-0.30857666382281146
884,0.8746,164.157,509.569,-0.018422,289.218,-2.03229,-3.53697,-0.0311045,0.403999,-0.369317,0.769452,-0.00142454,-0.0024047,0.53211,-0.030625731828087033,1.1585830261118342,-0.0014235258245292037,0.4978024491549409,-0.0024018110251249336,-0.3087937366681508
885,0.8756,164.194,509.677,-0.018516,289.282,-2.03666,-3.5446,-0.0311334,0.404342,-0.369631,0.770105,-0.00142766,-0.00241006,0.532567,-0.030653746339625587,1.1599930411476906,-0.0014266413782683118,0.49831628351255564,-0.002407158137087584,-0.30901074136331685
886,0.8766,164.232,509.785,-0.0186105,289.345,-2.04103,-3.55225,-0.0311624,0.404686,-0.369945,0.770758,-0.00143078,-0.00241543,0.533023,-0.030681856973375554,1.1614039772240528,-0.0014297569222869733,0.49883179297662816,-0.0024125151962646196,-0.3092276779297055
887,0.8776,164.269,509.892,-0.0187053,289.409,-2.04542,-3.55991,-0.0311914,0.405029,-0.370258,0.771411,-0.00143391,-0.0024208,0.533479,-0.030709966791929055,1.1628158349425557,-0.0014328824422563669,0.49934598045973133,-0.0024178722266744446,-0.3094438558329067
888,0.8786,164.306,510.0,-0.0188005,289.472,-2.04981,-3.56759,-0.0312203,0.405372,-0.370571,0.772063,-0.00143705,-0.00242619,0.533934,-0.030737978869112226,1.1642264506776967,-0.0014360179380827898,0.4998603443393914,-0.0024232491798522604,-0.3096599660830125
889,0.8796,164.343,510.107,-0.0188961,289.535,-2.05422,-3.57527,-0.0312492,0.405715,-0.370885,0.772715,-0.00144018,-0.00243159,0.53439,-0.03076599013675818,1.165637986434191,-0.0014391434384553037,0.5003748846761231,-0.002428636079761959,-0.30987669882484126
890,0.8806,164.38,510.215,-0.018992,289.598,-2.05863,-3.58298,-0.0312781,0.406057,-0.371198,0.773366,-0.00144333,-0.00243699,0.534845,-0.030794000594890125,1.1670482757627294,-0.0014422889001992623,0.5008881006416102,-0.0024340229505825928,-0.310092673616291
891,0.8816,164.417,510.322,-0.0190884,289.661,-2.06304,-3.59069,-0.031307,0.4064,-0.37151,0.774018,-0.00144648,-0.00244241,0.5353,-0.030822010243531595,1.168461651949094,-0.0014454343520351465,0.5014029935592175,-0.002439429743525734,-0.3103078911264453
892,0.8826,164.454,510.429,-0.0191851,289.724,-2.06747,-3.59843,-0.0313359,0.406742,-0.371823,0.774668,-0.00144964,-0.00244783,0.535755,-0.030850019082705904,1.1698716102096536,-0.0014485897794770386,0.5019165611980752,-0.0024448365071642053,-0.3105237309758241
893,0.8836,164.491,510.536,-0.0192823,289.787,-2.0719,-3.60617,-0.0313648,0.407084,-0.372135,0.775319,-0.0014528,-0.00245327,0.536209,-0.030878027112436368,1.1712846565245711,-0.0014517451969477957,0.5024303045071032,-0.002450263192493085,-0.3107388140170605
894,0.8846,164.528,510.642,-0.0193798,289.85,-2.07635,-3.61393,-0.0313936,0.407426,-0.372448,0.775969,-0.00145597,-0.00245871,0.536664,-0.03090593742334513,1.1726964503345934,-0.0014549105898983283,0.5029442235463912,-0.0024556898483008016,-0.3109545190086809
895,0.8856,164.565,510.749,-0.0194778,289.913,-2.0808,-3.62171,-0.0314224,0.407767,-0.37276,0.776619,-0.00145914,-0.00246416,0.537118,-0.03093384693044854,1.1741091621088984,-0.0014580759728146653,0.5034568149184826,-0.002461126449976314,-0.3111694676650162
896,0.8866,164.602,510.855,-0.0195761,289.976,-2.08526,-3.6295,-0.0314512,0.408109,-0.373072,0.777269,-0.00146232,-0.00246963,0.537571,-0.030961755633769683,1.1755227924443568,-0.0014612513310842123,0.5039710850843704,-0.0024665829726910893,-0.31138434926783154
897,0.8876,164.639,510.961,-0.0196748,290.038,-2.08972,-3.6373,-0.03148,0.40845,-0.373383,0.777918,-0.0014655,-0.0024751,0.538025,-0.030989663533331768,1.1769351650019737,-0.00146442667925617,0.5044840266759552,-0.0024720394655586286,-0.31159847543686403
898,0.8886,164.676,511.067,-0.0197739,290.101,-2.0942,-3.64512,-0.0315088,0.408791,-0.373695,0.778567,-0.00146869,-0.00248058,0.538478,-0.031017570629157887,1.178348454486891,-0.0014676120026545503,0.5049971432104485,-0.0024775059038043556,-0.31181322321013305
899,0.8896,164.713,511.173,-0.0198734,290.164,-2.09868,-3.65295,-0.0315375,0.409132,-0.374006,0.779215,-0.00147189,-0.00248607,0.538931,-0.03104538002581403,1.1797604817328167,-0.001470807301183652,0.5055104347475166,-0.0024829822872641794,-0.31202721602010797
900,0.8906,164.75,511.279,-0.0199734,290.226,-2.10317,-3.6608,-0.0315663,0.409473,-0.374318,0.779863,-0.00147509,-0.00249158,0.539384,-0.03107328551702837,1.1811734242689194,-0.0014740025894878217,0.506023901346845,-0.00248847859088952,-0.31224183004718054
901,0.8916,164.787,511.385,-0.0200737,290.289,-2.10767,-3.66866,-0.031595,0.409814,-0.374629,0.780511,-0.00147829,-0.00249709,0.539837,-0.03110109331469013,1.1825872826885,-0.0014771978675670594,0.5065375430681407,-0.0024939748642301973,-0.31245568958115466
902,0.8926,164.824,511.49,-0.0201744,290.351,-2.11218,-3.67653,-0.0316237,0.410154,-0.37494,0.781159,-0.0014815,-0.00250261,0.540289,-0.031128900314279728,1.1840020575852428,-0.0014804031206174795,0.5070498529205236,-0.00249948108229181,-0.3126694826151549
903,0.8936,164.861,511.596,-0.0202756,290.414,-2.1167,-3.68442,-0.0316524,0.410494,-0.375251,0.781806,-0.00148472,-0.00250814,0.540741,-0.03115670651581981,1.185415564136561,-0.0014836183485429366,0.507562336987871,-0.0025049972449091573,-0.3128832091698597
904,0.8946,164.898,511.701,-0.0203771,290.476,-2.12122,-3.69233,-0.031681,0.410834,-0.375561,0.782452,-0.00148795,-0.00251368,0.541193,-0.03118441503777969,1.1868277986936429,-0.0014868435512469524,0.5080749953294263,-0.002510523351917149,-0.3130961823624666
905,0.8956,164.935,511.806,-0.0204791,290.538,-2.12575,-3.70025,-0.0317097,0.411174,-0.375872,0.783099,-0.00149117,-0.00251923,0.541645,-0.031212219646070016,1.1882431340910258,-0.0014900587584342206,0.5085878280044527,-0.0025160594031500283,-0.3133097762341832
906,0.8966,164.972,511.911,-0.0205815,290.6,-2.1303,-3.70818,-0.0317383,0.411514,-0.376182,0.783745,-0.00149441,-0.00252479,0.542096,-0.03123992658037711,1.1896571958484206,-0.001493293925402872,0.5091008350722339,-0.0025216053984418174,-0.31352261721149466
907,0.8976,165.008,512.016,-0.0206843,290.663,-2.13485,-3.71613,-0.0317669,0.411853,-0.376492,0.784391,-0.00149765,-0.00253036,0.542547,-0.03126763272227717,1.1910721713848291,-0.001496529081889575,0.5096125069788113,-0.002527161337626427,-0.313735392218329
908,0.8986,165.045,512.12,-0.0207875,290.725,-2.1394,-3.72409,-0.0317955,0.412193,-0.376802,0.785036,-0.0015009,-0.00253594,0.542998,-0.031295338071792966,1.1924858688037787,-0.0014997742128967095,0.5101258624966769,-0.002532727220537323,-0.3139481012751342
909,0.8996,165.082,512.225,-0.0208911,290.787,-2.14397,-3.73207,-0.0318241,0.412532,-0.377112,0.785681,-0.00150415,-0.00254153,0.543449,-0.03132304262894703,1.1939004783516936,-0.0015030193333571695,0.5106378819464565,-0.0025383030470077506,-0.3141607444023512
910,0.9006,165.119,512.329,-0.0209952,290.849,-2.14854,-3.74006,-0.0318527,0.412871,-0.377421,0.786326,-0.0015074,-0.00254713,0.543899,-0.03135074639376212,1.1953160006170869,-0.001506264443271066,0.5111500750002538,-0.00254388881687051,-0.31437263599339405
911,0.9016,165.156,512.434,-0.0210996,290.911,-2.15313,-3.74807,-0.0318812,0.413209,-0.377731,0.786971,-0.00151067,-0.00255274,0.54435,-0.031378352504100926,1.1967324361888507,-0.0015095295124479824,0.5116609300552446,-0.0025494845299582902,-0.31458514753524525
912,0.9026,165.192,512.538,-0.0212045,290.973,-2.15772,-3.75609,-0.0319097,0.413548,-0.37804,0.787615,-0.00151394,-0.00255836,0.5448,-0.031405957827676856,1.198147587507571,-0.001512794570948106,0.5121734699811424,-0.002555090186103226,-0.31479690800597926
913,0.9036,165.229,512.642,-0.0213098,291.034,-2.16232,-3.76413,-0.0319383,0.413886,-0.378349,0.788259,-0.00151721,-0.00256399,0.545249,-0.031433659221151156,1.1995636504772618,-0.001516059618771437,0.5126846710021018,-0.0025607057851375625,-0.3150086030528363
914,0.9046,165.266,512.745,-0.0214156,291.096,-2.16693,-3.77218,-0.0319668,0.414225,-0.378658,0.788902,-0.00152049,-0.00256963,0.545699,-0.03146126296850815,1.200978424705688,-0.0015193346407248454,0.5131975580350119,-0.00256633132689299,-0.31522023269602917
915,0.9056,165.302,512.849,-0.0215217,291.158,-2.17154,-3.78025,-0.0319952,0.414563,-0.378967,0.789545,-0.00152378,-0.00257528,0.546148,-0.031488769078051204,1.202394108926475,-0.0015226196367100764,0.5137091052562379,-0.0025719668112006433,-0.3154317969557646
916,0.9066,165.339,512.953,-0.0216283,291.22,-2.17617,-3.78833,-0.0320237,0.4149,-0.379276,0.790188,-0.00152707,-0.00258094,0.546597,-0.03151637125479956,1.2038107037249346,-0.0015259046218877304,0.5142193111895803,-0.002577612237891991,-0.31564329585224293
917,0.9076,165.376,513.056,-0.0217354,291.281,-2.1808,-3.79643,-0.0320521,0.415238,-0.379584,0.790831,-0.00153037,-0.00258661,0.547046,-0.031543875799289633,1.2052282096867577,-0.0015291995809657566,0.514731203821744,-0.0025832676067976124,-0.31585404526004557
918,0.9086,165.412,513.159,-0.0218428,291.343,-2.18544,-3.80454,-0.0320806,0.415576,-0.379892,0.791473,-0.00153367,-0.00259229,0.547494,-0.03157147640551883,1.206644420752486,-0.0015324945291704806,0.5152432695028608,-0.002588932917748088,-0.31606472976702593
919,0.9096,165.449,513.262,-0.0219507,291.404,-2.19009,-3.81266,-0.032109,0.415913,-0.380201,0.792114,-0.00153698,-0.00259798,0.547943,-0.031598979385044745,1.2080593332571996,-0.0015357994511439044,0.5157539925366807,-0.0025946081705736646,-0.316276033117479
920,0.9106,165.486,513.365,-0.0220591,291.466,-2.19475,-3.82081,-0.0321374,0.41625,-0.380509,0.792756,-0.0015403,-0.00260368,0.548391,-0.031626481583497124,1.2094773624878288,-0.001539114346786996,0.5162648877131679,-0.002600293365104256,-0.3164865876722128
921,0.9116,165.522,513.468,-0.0221679,291.527,-2.19942,-3.82896,-0.0321657,0.416587,-0.380816,0.793397,-0.00154362,-0.00260939,0.548839,-0.03165388616629161,1.2108940914903195,-0.001542429231424669,0.5167759550903435,-0.002605988501169554,-0.31669639408286554
922,0.9126,165.559,513.571,-0.0222771,291.588,-2.2041,-3.83713,-0.0321941,0.416924,-0.381124,0.794038,-0.00154694,-0.00261511,0.549286,-0.03168138680541355,1.212311728907217,-0.0015457441050569232,0.5172871947262492,-0.002611693578598806,-0.31690681918635866
923,0.9136,165.595,513.673,-0.0223867,291.65,-2.20878,-3.84532,-0.0322224,0.41726,-0.381431,0.794678,-0.00155028,-0.00262084,0.549734,-0.031708789834412276,1.2137280615918327,-0.0015490789367024194,0.5177970888810981,-0.002617408597221038,-0.3171164966057377
924,0.9146,165.632,513.776,-0.0224968,291.711,-2.21347,-3.85352,-0.0322508,0.417597,-0.381739,0.795318,-0.00155361,-0.00262658,0.550181,-0.031736288914292254,1.215145301019493,-0.0015524037727336903,0.5183086726970823,-0.002623133556865054,-0.317326792337578
925,0.9156,165.669,513.878,-0.0226074,291.772,-2.21818,-3.86174,-0.0322791,0.417933,-0.382046,0.795958,-0.00155696,-0.00263233,0.550628,-0.031763690389583266,1.2165634477707,-0.0015557485665785853,0.5188189101261962,-0.0026288684573592125,-0.3175363408449887
926,0.9166,165.705,513.98,-0.0227184,291.833,-2.22289,-3.86997,-0.0323074,0.418269,-0.382353,0.796598,-0.00156031,-0.00263809,0.551075,-0.03179109108942346,1.217982502426326,-0.0015590933492183323,0.5193293190238917,-0.0026346132985317627,-0.31774582503088145
927,0.9176,165.742,514.082,-0.0228298,291.894,-2.22761,-3.87822,-0.0323356,0.418605,-0.38266,0.797237,-0.00156366,-0.00264386,0.551521,-0.03181839419567911,1.21940024616626,-0.0015624381206531535,0.5198398994477913,-0.002640368080210398,-0.31795524491499993
928,0.9186,165.778,514.184,-0.0229417,291.956,-2.23233,-3.88648,-0.0323639,0.41894,-0.382967,0.797876,-0.00156703,-0.00264964,0.551967,-0.031845793347423657,1.2208188961339528,-0.0015658028495670884,0.5203491311056465,-0.0026461328022229225,-0.31816460051708184
929,0.9196,165.815,514.285,-0.0230541,292.017,-2.23707,-3.89476,-0.0323921,0.419276,-0.383273,0.798514,-0.00157039,-0.00265543,0.552413,-0.031873094911097355,1.222236230671327,-0.0015691575828336024,0.5208600542439785,-0.0026519074643962526,-0.31837321023040965
930,0.9206,165.851,514.387,-0.0231669,292.077,-2.24182,-3.90305,-0.0324203,0.419611,-0.383579,0.799152,-0.00157377,-0.00266123,0.552859,-0.031900395704877904,1.2236544697566565,-0.0015725322733777247,0.5213696277109405,-0.0026576920665576376,-0.3185817561189309
931,0.9216,165.888,514.488,-0.0232802,292.138,-2.24657,-3.91136,-0.0324485,0.419946,-0.383886,0.79979,-0.00157715,-0.00266705,0.553305,-0.03192769572878684,1.225073613967227,-0.0015759069525154157,0.5218793719136103,-0.0026634965818986833,-0.3187909194115942
932,0.9226,165.924,514.589,-0.0233939,292.199,-2.25133,-3.91968,-0.0324767,0.420281,-0.384192,0.800428,-0.00158053,-0.00267287,0.55375,-0.03195499498284593,1.2264936638806918,-0.0015792816202466753,0.5223892869091944,-0.00266930106345753,-0.31899933750066034
933,0.9236,165.961,514.691,-0.0235081,292.26,-2.2561,-3.92802,-0.0325049,0.420616,-0.384498,0.801065,-0.00158393,-0.0026787,0.554195,-0.03198229346707704,1.227912392161568,-0.0015826762449183684,0.5228993727549178,-0.0026751154844831815,-0.3192076918235479
934,0.9246,165.997,514.792,-0.0236228,292.321,-2.26088,-3.93637,-0.032533,0.420951,-0.384803,0.801702,-0.00158732,-0.00268454,0.55464,-0.03200949438245593,1.2293320244602586,-0.00158606087390889,0.5234096295080248,-0.0026809398448016664,-0.31941530181540856
935,0.9256,166.033,514.892,-0.0237379,292.381,-2.26567,-3.94474,-0.0325612,0.421285,-0.385109,0.802338,-0.00159073,-0.0026904,0.555084,-0.03203679132982562,1.23075033060136,-0.0015894654596365632,0.523918533306484,-0.0026867841173704443,-0.3196235288726885
936,0.9266,166.07,514.993,-0.0238535,292.442,-2.27047,-3.95313,-0.0325893,0.421619,-0.385414,0.802975,-0.00159414,-0.00269626,0.555529,-0.032063990713836144,1.2321717712427325,-0.0015928700337545232,0.5244276071072005,-0.0026926283556918396,-0.31983101205358877
937,0.9276,166.106,515.094,-0.0239695,292.503,-2.27528,-3.96153,-0.0326174,0.421953,-0.38572,0.803611,-0.00159755,-0.00270213,0.555973,-0.03209118933355459,1.2335918840372422,-0.001596274596262881,0.524936850966965,-0.0026984825327813766,-0.3200391119229966
938,0.9286,166.143,515.194,-0.024086,292.563,-2.28009,-3.96995,-0.0326455,0.422287,-0.386025,0.804246,-0.00160097,-0.00270802,0.556417,-0.03211838718900273,1.2350106652989825,-0.0015996891311649275,0.5254462649425862,-0.002704356621420101,-0.3202464683703944
939,0.9296,166.179,515.294,-0.024203,292.624,-2.28491,-3.97838,-0.0326735,0.422621,-0.38633,0.804881,-0.0016044,-0.00271391,0.556861,-0.03214548749475532,1.2364303477729286,-0.001603113638358189,0.5259558490908924,-0.002710230675460501,-0.3204537615837195
940,0.9306,166.215,515.394,-0.0243205,292.684,-2.28975,-3.98682,-0.0327016,0.422955,-0.386634,0.805516,-0.00160783,-0.00271981,0.557304,-0.0321726838244466,1.2378509320315318,-0.0016065381338054019,0.526465603468731,-0.002716114667741687,-0.32066031224290714
941,0.9316,166.252,515.494,-0.0244385,292.745,-2.29459,-3.99529,-0.0327296,0.423288,-0.386939,0.806151,-0.00161127,-0.00272573,0.557747,-0.03219978260991474,1.2392724186476078,-0.0016099726014069393,0.5269740011582034,-0.0027220185708672906,-0.320867479253098
942,0.9326,166.288,515.594,-0.0245569,292.805,-2.29944,-4.00376,-0.0327576,0.423621,-0.387243,0.806785,-0.00161472,-0.00273165,0.55819,-0.032226880636627486,1.240692567500647,-0.0016134170410597726,0.5274825681722974,-0.002727922439041852,-0.3210739041612293
943,0.9336,166.324,515.694,-0.0246758,292.865,-2.3043,-4.01226,-0.0327856,0.423954,-0.387548,0.807419,-0.00161817,-0.00273759,0.558633,-0.03225397790460616,1.2421136170135378,-0.0016168614688293337,0.5279913045674074,-0.0027338462175889866,-0.3212809450451203
944,0.9346,166.361,515.794,-0.0247952,292.925,-2.30917,-4.02077,-0.0328136,0.424287,-0.387852,0.808053,-0.00162163,-0.00274354,0.559076,-0.032281074413871846,1.2435355677574802,-0.001620315868512523,0.5285002103999468,-0.002739779933551123,-0.3214872442787543
945,0.9356,166.397,515.893,-0.0249151,292.986,-2.31404,-4.02929,-0.0328415,0.42462,-0.388156,0.808686,-0.00162509,-0.00274949,0.559518,-0.03230807339525821,1.2449561753467377,-0.0016237702562434952,0.5290092857263475,-0.0027457136142078342,-0.3216934808069529
946,0.9366,166.433,515.992,-0.0250355,293.046,-2.31893,-4.03783,-0.0328694,0.424952,-0.38846,0.809319,-0.00162856,-0.00275546,0.55996,-0.03233507162338345,1.24637768246527,-0.001627234615750095,0.5295170010852948,-0.0027516672045260204,-0.3218996546487759
947,0.9376,166.47,516.091,-0.0251563,293.106,-2.32382,-4.04639,-0.0328974,0.425284,-0.388763,0.809952,-0.00163204,-0.00276144,0.560402,-0.03236216586205687,1.2478000896826593,-0.0016307089469282943,0.5300248850337255,-0.0027576307317251914,-0.32210508792870374
948,0.9386,166.506,516.19,-0.0252777,293.166,-2.32873,-4.05496,-0.0329253,0.425616,-0.389067,0.810584,-0.00163552,-0.00276743,0.560844,-0.03238916258102331,1.2492211483465763,-0.0016341832660158317,0.5305329376276207,-0.002763604195626601,-0.3223111366609792
949,0.9396,166.542,516.289,-0.0253995,293.226,-2.33364,-4.06355,-0.0329532,0.425948,-0.38937,0.811216,-0.00163901,-0.00277343,0.561285,-0.03241615854679192,1.250643105403431,-0.001637667556636191,0.5310411589229798,-0.0027695875960511707,-0.3225164452807443
950,0.9406,166.578,516.388,-0.0255218,293.286,-2.33856,-4.07216,-0.032981,0.42628,-0.389673,0.811848,-0.0016425,-0.00277944,0.561726,-0.03244305700369399,1.2520659614211875,-0.0016411518350962773,0.5315495489758213,-0.00277558093281971,-0.3227216917014212
951,0.9416,166.615,516.487,-0.0256447,293.346,-2.34349,-4.08078,-0.0330089,0.426612,-0.389976,0.812479,-0.001646,-0.00278546,0.562167,-0.03247005146582904,1.253487463479578,-0.0016446460849499633,0.5320581078421818,-0.0027815842057526963,-0.32292687594185343
952,0.9426,166.651,516.585,-0.025768,293.406,-2.34843,-4.08941,-0.0330367,0.426943,-0.390279,0.81311,-0.00164951,-0.00279149,0.562608,-0.03249694842452888,1.2549098627888204,-0.001648150306092222,0.5325653030120474,-0.002787597414670051,-0.32313199802087866
953,0.9436,166.687,516.684,-0.0258918,293.465,-2.35338,-4.09806,-0.0330645,0.427274,-0.390582,0.813741,-0.00165302,-0.00279753,0.563048,-0.03252384463550362,1.2563331599152585,-0.001651654514934764,0.5330726660913019,-0.0027936205593916963,-0.32333705795732914
954,0.9446,166.723,516.782,-0.0260162,293.525,-2.35834,-4.10673,-0.0330923,0.427606,-0.390884,0.814372,-0.00165654,-0.00280358,0.563489,-0.03255074009877412,1.2577573554255936,-0.0016551686949259903,0.5335817307164961,-0.0027996536397372207,-0.32354137931174864
955,0.9456,166.76,516.88,-0.026141,293.585,-2.36331,-4.11542,-0.0331201,0.427936,-0.391187,0.815002,-0.00166006,-0.00280964,0.563929,-0.032577634814361045,1.2591801907055644,-0.0016586828625472227,0.5340878962003437,-0.00280569665552588,-0.3237463152244585
956,0.9466,166.796,516.978,-0.0262663,293.645,-2.36828,-4.12411,-0.0331478,0.428267,-0.391489,0.815631,-0.00166359,-0.00281572,0.564369,-0.03260443204273333,1.2606016620513905,-0.0016622070011765855,0.5345957633413612,-0.0028117595784589167,-0.3239505130018443
957,0.9476,166.832,517.076,-0.0263922,293.704,-2.37327,-4.13283,-0.0331756,0.428598,-0.391791,0.816261,-0.00166713,-0.0028218,0.564808,-0.032631325265705,1.262026289809107,-0.0016657411107083853,0.5351037986142264,-0.0028178224645294403,-0.32415464912081227
958,0.9486,166.868,517.173,-0.0265186,293.764,-2.37826,-4.14156,-0.0332033,0.428928,-0.392093,0.81689,-0.00167067,-0.0028279,0.565248,-0.03265812100687249,1.263449551914404,-0.0016692752077295259,0.5356104664633661,-0.00282390525725984,-0.3243587235999804
959,0.9496,166.904,517.271,-0.0266455,293.823,-2.38327,-4.15031,-0.033231,0.429258,-0.392395,0.817519,-0.00167422,-0.002834,0.565687,-0.03268491600580814,1.2648737095331746,-0.0016728192755118831,0.5361173015404872,-0.002829988012885365,-0.3245627364579611
960,0.9506,166.94,517.368,-0.0267729,293.883,-2.38828,-4.15907,-0.0332587,0.429588,-0.392696,0.818147,-0.00167778,-0.00284012,0.566126,-0.03271171026253261,1.2662964969312442,-0.0016763733139489867,0.5366243039007841,-0.0028360906746845993,-0.32476601247971126
961,0.9516,166.977,517.465,-0.0269008,293.942,-2.3933,-4.16785,-0.0332864,0.429918,-0.392998,0.818776,-0.00168134,-0.00284625,0.566564,-0.03273850377706644,1.2677224458417324,-0.0016799273397338776,0.537131473599469,-0.002842203270713606,-0.32496990235502154
962,0.9526,167.013,517.562,-0.0270292,294.002,-2.39833,-4.17665,-0.033314,0.430248,-0.393299,0.819404,-0.00168491,-0.00285238,0.567003,-0.03276519982595505,1.2691470228080695,-0.0016834913360315173,0.5376388106917729,-0.002848315829272585,-0.3251730558382796
963,0.9536,167.049,517.659,-0.0271582,294.061,-2.40337,-4.18546,-0.0333416,0.430577,-0.3936,0.820031,-0.00168848,-0.00285853,0.567441,-0.032791895138042815,1.2705702241183556,-0.0016870553196057791,0.5381447770873988,-0.00285444829327286,-0.32537614818154126
964,0.9546,167.085,517.756,-0.0272877,294.12,-2.40842,-4.19429,-0.0333693,0.430907,-0.393901,0.820659,-0.00169207,-0.00286469,0.567879,-0.03281868643148633,1.2719965900511272,-0.0016906392566439221,0.5386524486250341,-0.002860590690952791,-0.3255791794032069
965,0.9556,167.121,517.853,-0.0274177,294.18,-2.41348,-4.20314,-0.0333969,0.431236,-0.394202,0.821285,-0.00169565,-0.00287086,0.568317,-0.032845380267364166,1.273419305179874,-0.0016942131977580877,0.5391587485624048,-0.002866743022128304,-0.3257821495216713
966,0.9566,167.157,517.95,-0.0275482,294.239,-2.41855,-4.212,-0.0334244,0.431565,-0.394503,0.821912,-0.00169925,-0.00287704,0.568754,-0.03287197665370489,1.2748451860511616,-0.0016978070921215282,0.5396652150998587,-0.0028729052866149907,-0.32598505855532367
967,0.9576,167.193,518.046,-0.0276793,294.298,-2.42363,-4.22088,-0.033452,0.431893,-0.394803,0.822538,-0.00170285,-0.00288324,0.569192,-0.0328986690187929,1.276269684959269,-0.0017014009735469848,0.5401703081211386,-0.0028790874554374124,-0.3261872327101176
968,0.9586,167.23,518.142,-0.0278109,294.357,-2.42872,-4.22977,-0.0334795,0.432222,-0.395104,0.823164,-0.00170645,-0.00288944,0.569629,-0.03292526393971307,1.2776950758828645,-0.0017049948420345684,0.5406771075164396,-0.0028852695859306055,-0.32639001983207894
969,0.9596,167.266,518.238,-0.027943,294.416,-2.43381,-4.23868,-0.0335071,0.43255,-0.395404,0.82379,-0.00171006,-0.00289565,0.570066,-0.0329519548340923,1.2791213593805248,-0.001708598680498219,0.5411825324928698,-0.0028914616491800826,-0.3265920725167112
970,0.9606,167.302,518.334,-0.0280757,294.475,-2.43892,-4.24761,-0.0335346,0.432879,-0.395704,0.824416,-0.00171368,-0.00290188,0.570503,-0.032978548289672616,1.280548536011176,-0.0017122124888300227,0.5416896649647773,-0.002897673616023666,-0.32679406459462956
971,0.9616,167.338,518.43,-0.0282089,294.534,-2.44403,-4.25655,-0.0335621,0.433207,-0.396004,0.825041,-0.00171731,-0.00290812,0.570939,-0.03300514101394303,1.2819743243586292,-0.001715836266921511,0.542195422114524,-0.002903895515128041,-0.3269959960840133
972,0.9626,167.374,518.526,-0.0283427,294.593,-2.44916,-4.26551,-0.0335895,0.433535,-0.396304,0.825665,-0.00172094,-0.00291436,0.571375,-0.033031636310092094,1.2833987207024693,-0.0017194600318587439,0.5427013451798246,-0.002910117375407806,-0.3271978670030362
973,0.9636,167.41,518.622,-0.028477,294.652,-2.45429,-4.27449,-0.033617,0.433863,-0.396603,0.82629,-0.00172458,-0.00292062,0.571811,-0.033058227574461974,1.2848262909721475,-0.001723093766410777,0.5432074342151081,-0.002916359138536273,-0.3273990047692077
974,0.9646,167.446,518.717,-0.0286118,294.711,-2.45943,-4.28348,-0.0336444,0.43419,-0.396903,0.826914,-0.00172822,-0.00292689,0.572247,-0.033084721416059115,1.2862524674985139,-0.0017267274877361682,0.5437121455619043,-0.0029226108333654244,-0.3276007548037587
975,0.9656,167.482,518.813,-0.0287472,294.77,-2.46458,-4.29249,-0.0336718,0.434518,-0.397202,0.827538,-0.00173187,-0.00293317,0.572683,-0.033111214531735045,1.2876795342367497,-0.0017303711785310316,0.5442185661940919,-0.002928872459707854,-0.32780177212448525
976,0.9666,167.518,518.908,-0.0288832,294.829,-2.46975,-4.30152,-0.0336992,0.434845,-0.397501,0.828161,-0.00173553,-0.00293946,0.573118,-0.03313770692150941,1.2891052026361738,-0.0017340248386863433,0.5447236082351108,-0.0029351440173759347,-0.32800272935001773
977,0.9676,167.554,519.003,-0.0290197,294.887,-2.47492,-4.31056,-0.0337266,0.435172,-0.3978,0.828785,-0.00173919,-0.00294577,0.573553,-0.033164198585402316,1.2905340500366442,-0.0017376784854692406,0.5452288154518818,-0.0029414354767676176,-0.3282036264983217
978,0.9686,167.59,519.098,-0.0291568,294.946,-2.4801,-4.31962,-0.033754,0.435499,-0.398099,0.829407,-0.00174286,-0.00295208,0.573988,-0.033190689523433625,1.2919592053931352,-0.001741342101466481,0.5457341878984265,-0.0029477268964603898,-0.32840446358735764
979,0.9696,167.626,519.193,-0.0292944,295.005,-2.48529,-4.3287,-0.0337813,0.435825,-0.398398,0.83003,-0.00174654,-0.0029584,0.574423,-0.03321708305733617,1.2933875408583946,-0.001745015686568152,0.546238179389831,-0.002954028246914042,-0.32860524063508056
980,0.9706,167.662,519.287,-0.0294326,295.063,-2.49049,-4.33779,-0.0338086,0.436152,-0.398696,0.830652,-0.00175022,-0.00296474,0.574857,-0.0332434758707052,1.2948144716382761,-0.0017486892581510816,0.546743881952354,-0.0029603494983365675,-0.32880528646506224
981,0.9716,167.698,519.382,-0.0295713,295.122,-2.4957,-4.3469,-0.0338359,0.436478,-0.398995,0.831274,-0.00175391,-0.00297109,0.575292,-0.03326986796356024,1.2962422902451887,-0.0017523727986915594,0.547248202657679,-0.0029666806800157097,-0.32900594368465996
982,0.9726,167.734,519.476,-0.0297106,295.181,-2.50092,-4.35603,-0.0338632,0.436805,-0.399293,0.831896,-0.00175761,-0.00297745,0.575726,-0.03329625933592095,1.2976709972315321,-0.0017560663080792294,0.5477542355518172,-0.002973021791761843,-0.3292058701229231
983,0.9736,167.77,519.571,-0.0298505,295.239,-2.50614,-4.36517,-0.0338905,0.437131,-0.399591,0.832517,-0.00176131,-0.00298381,0.576159,-0.033322649987806985,1.2990982940506064,-0.001759759803800831,0.5482588856861097,-0.0029793628631786806,-0.32940573699198383
984,0.9746,167.806,519.665,-0.029991,295.297,-2.51138,-4.37433,-0.0339178,0.437456,-0.399889,0.833138,-0.00176502,-0.0029902,0.576593,-0.03334903991923821,1.3005264774962746,-0.0017634632682220763,0.548762151600239,-0.002985733804694801,-0.3296055443095913
985,0.9756,167.842,519.759,-0.030132,295.356,-2.51663,-4.38351,-0.033945,0.437782,-0.400187,0.833759,-0.00176873,-0.00299659,0.577026,-0.033375332467772134,1.3019555481193024,-0.0017671667189034235,0.5492671303687275,-0.002992104705500709,-0.3298052920934891
986,0.9766,167.878,519.853,-0.0302736,295.414,-2.52189,-4.3927,-0.0339722,0.438108,-0.400484,0.83438,-0.00177245,-0.00300299,0.57746,-0.03340162430115845,1.3033855064707986,-0.0017708801381363104,0.5497722737871313,-0.0029984855356118834,-0.3300043103660608
987,0.9776,167.914,519.946,-0.0304158,295.473,-2.52715,-4.40191,-0.0339994,0.438433,-0.400782,0.835,-0.00177618,-0.0030094,0.577893,-0.03342791541941659,1.3048140482870125,-0.0017746035258092707,0.5502760316323279,-0.0030048762948372554,-0.33020393933537806
988,0.9786,167.951,520.04,-0.0305585,295.531,-2.53243,-4.41114,-0.0340266,0.438758,-0.401079,0.83562,-0.00177992,-0.00301583,0.578325,-0.033454205822566085,1.306243476073775,-0.001778336881810727,0.5507799532254316,-0.0030112869528723385,-0.3304028392272994
989,0.9796,167.986,520.133,-0.0307019,295.589,-2.53771,-4.42039,-0.0340537,0.439083,-0.401376,0.836239,-0.00178366,-0.00302227,0.578758,-0.033480398858671045,1.3076714827079217,-0.0017820702238493524,0.5512840386196696,-0.0030177075395101394,-0.33060168005472446
990,0.9806,168.022,520.227,-0.0308458,295.647,-2.54301,-4.42965,-0.0340809,0.439408,-0.401673,0.836858,-0.0017874,-0.00302872,0.57919,-0.03350668783429034,1.3091003735518094,-0.001785803551925369,0.5517882878682854,-0.0030241380545580343,-0.3308004618351925
991,0.9816,168.058,520.32,-0.0309903,295.705,-2.54832,-4.43893,-0.034108,0.439733,-0.40197,0.837477,-0.00179116,-0.00303518,0.579622,-0.033532879448152086,1.3105301491529335,-0.0017895568302479514,0.5522927010245404,-0.0030305784978235106,-0.3309991845862382
992,0.9826,168.094,520.413,-0.0311354,295.763,-2.55363,-4.44822,-0.0341351,0.440057,-0.402267,0.838096,-0.00179492,-0.00304165,0.580054,-0.03355907035223071,1.3119608100591287,-0.001793310094458045,0.552795725345212,-0.0030370288691137226,-0.33119784832539045
993,0.9836,168.13,520.506,-0.0312811,295.822,-2.55896,-4.45754,-0.0341622,0.440381,-0.402563,0.838714,-0.00179869,-0.00304813,0.580486,-0.033585260546545426,1.3133900434273675,-0.0017970733265852967,0.553298912672169,-0.0030434891682352694,-0.33139578446629214
994,0.9846,168.166,520.599,-0.0314274,295.88,-2.56429,-4.46687,-0.0341892,0.440706,-0.40286,0.839332,-0.00180246,-0.00305462,0.580917,-0.03361135339225563,1.314820160334814,-0.0018008365445252306,0.5538038168612738,-0.003049959394994639,-0.3315943304327702
995,0.9856,168.202,520.691,-0.0315742,295.938,-2.56963,-4.47622,-0.0342163,0.44103,-0.403156,0.83995,-0.00180624,-0.00306113,0.581348,-0.03363754216971926,1.316251161327663,-0.0018046097302317765,0.5543073308628004,-0.003056449518633597,-0.33179214923233535
996,0.9866,168.238,520.784,-0.0317217,295.996,-2.57499,-4.48558,-0.0342433,0.441353,-0.403452,0.840567,-0.00181003,-0.00306765,0.581779,-0.03366363360384472,1.317680729270561,-0.0018083928835918028,0.5548094532190642,-0.00306294956939257,-0.3319899094862011
997,0.9876,168.274,520.876,-0.0318698,296.053,-2.58035,-4.49496,-0.0342703,0.441677,-0.403748,0.841184,-0.00181382,-0.00307417,0.58221,-0.03368972433351092,1.3191111795290462,-0.0018121760226137429,0.5553132930995601,-0.0030694495777712216,-0.3321876112116944
998,0.9886,168.31,520.969,-0.0320185,296.111,-2.58573,-4.50436,-0.0342973,0.442001,-0.404044,0.841801,-0.00181762,-0.00308071,0.582641,-0.03371581435873705,1.3205425126476746,-0.001815969129137951,0.5558172962506258,-0.003075969482250973,-0.33238525442613687
999,0.9896,168.346,521.061,-0.0321678,296.169,-2.59111,-4.51378,-0.0343243,0.442324,-0.404339,0.842418,-0.00182143,-0.00308727,0.583071,-0.033741903679541885,1.3219747291713402,-0.0018197722030506291,0.556319906404485,-0.003082509282440582,-0.3325821717293509
