,Time,S11,S22,S33,S12,S13,S23,LE11,LE22,LE33,LE12,LE13,LE23,SDV_EPBAR,E11,E12,E13,E22,E23,E33
0,1e-05,0.0940184,0.282055,-2.77556e-17,0.162845,1.3263e-18,-7.65739e-19,1.25011e-07,3.375e-06,-1.50001e-06,5.62914e-06,9.16946e-23,-5.29398e-23,0.0,1.250110077677391e-07,5.629155843678291e-06,0.0,3.3750056953607555e-06,0.0,-1.500008874999459e-06
1,2e-05,0.188036,0.564109,0.0,0.325688,5.60565e-19,-2.09203e-18,2.50015e-07,6.74997e-06,-3.00001e-06,1.12583e-05,3.44106e-28,5.96009e-28,0.0,2.500150313444749e-07,1.1258363374899716e-05,0.0,6.749992781163172e-06,0.0,-3.0000055000201087e-06
2,3.5e-05,0.329062,0.987187,1.38778e-16,0.569953,-2.09203e-18,-5.60538e-19,4.37505e-07,1.18124e-05,-5.24997e-06,1.97019e-05,-3.66783e-22,2.11764e-22,0.0,4.3750509570728013e-07,1.970209408375112e-05,0.0,1.1812469766780964e-05,0.0,-5.249956218977836e-06
3,5.75e-05,0.540599,1.6218,1.94289e-16,0.936345,2.09204e-18,5.60562e-19,7.18768e-07,1.9406e-05,-8.62491e-06,3.23672e-05,9.45318e-22,-5.67423e-23,0.0,7.187682582454613e-07,3.2367723823423233e-05,0.0,1.9406188297654836e-05,0.0,-8.624872805618189e-06
4,9.125e-05,0.8579,2.5737,-6.93889e-16,1.48593,-1.38236e-17,9.7494e-18,1.14063e-06,3.07962e-05,-1.36872e-05,5.13649e-05,-1.46713e-21,8.47043e-22,0.0,1.1406306505978847e-06,5.136621919898943e-05,0.0,3.079667420791132e-05,0.0,-1.3687106330650955e-05
5,0.00014188,1.33384,4.00153,-2.47025e-15,2.31028,1.96486e-17,1.87176e-17,1.77341e-06,4.78811e-05,-2.12805e-05,7.98609e-05,-6.20129e-22,2.31412e-21,0.0,1.7734115724810096e-06,7.98640889665414e-05,0.0,4.788224631813165e-05,0.0,-2.1280273571733233e-05
6,0.00021781,2.04773,6.14319,-1.80134e-14,3.54678,-7.69842e-18,2.03585e-17,2.72256e-06,7.35077e-05,-3.26702e-05,0.000122604,-3.37261e-26,-5.84152e-26,0.0,2.722563706258896e-06,0.00012261151617765087,0.0,7.351040175707091e-05,0.0,-3.266966633486135e-05
7,0.00033172,3.11852,9.35555,-9.03999e-14,5.40143,-5.34216e-17,-9.82902e-18,4.14618e-06,0.000111946,-4.97537e-05,0.000186714,3.78157e-21,-2.2675e-22,0.0,4.1461885953442135e-06,0.00018673143214376076,0.0,0.00011195226618720966,0.0,-4.9752462305208134e-05
8,0.00050258,4.72458,14.1737,-4.61658e-13,8.18321,-2.00771e-18,-6.77995e-17,6.2815e-06,0.000169599,-7.53773e-05,0.000282874,3.37192e-25,5.84034e-25,0.0,6.281519728590368e-06,0.00028291401262259264,0.0,0.00016961338272358795,0.0,-7.537445920269281e-05
9,0.00075887,7.13341,21.4002,-2.34371e-12,12.3554,-4.44443e-17,-4.32873e-17,9.48412e-06,0.000256069,-0.000113809,0.000427098,5.0911e-25,8.81805e-25,0.0,9.484164974482567e-06,0.00042718921933682097,0.0,0.00025610178846502407,0.0,-0.00011380252400139401
10,0.0011433,10.7461,32.2383,-1.18597e-11,18.6128,-8.03249e-17,9.05949e-17,1.42873e-05,0.000385754,-0.000171446,0.000643399,2.34772e-20,-1.35557e-20,0.0,1.4287402063883903e-05,0.0006436060255341491,0.0,0.0003858284126423417,0.0,-0.00017143130397445638
11,0.00172,16.1638,48.4914,-5.99598e-11,27.9965,3.44084e-16,-1.54454e-16,2.14903e-05,0.000580234,-0.000257882,0.000967773,7.04384e-20,-4.06693e-20,0.0,2.149053091815567e-05,0.0009682414433931363,0.0,0.000580402368310251,0.0,-0.0002578487512951977
12,0.0025849,24.2874,72.8623,-3.03241e-10,42.0671,4.54029e-18,4.15565e-17,3.22909e-05,0.00087185,-0.000387489,0.00145416,-1.11115e-24,-1.92456e-24,0.0,3.2291421356633876e-05,0.001455217803329134,0.0,0.0008722301716874714,0.0,-0.00038741393583330286
13,0.0035849,33.6748,101.024,-6.68458e-10,58.3265,-3.08869e-16,6.74891e-16,4.47716e-05,0.00120883,-0.000537258,0.00201621,-1.27375e-19,1.04815e-19,0.0,4.477260226298796e-05,0.002018243918087581,0.0,0.001209560929477993,0.0,-0.0005371137027634365
14,0.0045849,43.0575,129.173,-7.61585e-10,74.5778,2.98241e-16,5.50262e-16,5.7246e-05,0.00154564,-0.000686952,0.00257798,5.42151e-20,9.39032e-20,0.0,5.7247638583612925e-05,0.0025813058478159068,0.0,0.0015468351171656902,0.0,-0.000686716102494711
15,0.0055849,52.4355,157.307,-7.60065e-10,90.821,1.28272e-16,6.47925e-16,6.97143e-05,0.00188229,-0.000836572,0.00313947,5.42161e-20,9.39051e-20,0.0,6.971673009825707e-05,0.003144403297235643,0.0,0.0018840626198424193,0.0,-0.0008362221712034934
16,0.0065849,61.8089,185.427,-7.58571e-10,107.056,2.52156e-16,1.25456e-15,8.21766e-05,0.00221876,-0.000986117,0.00370067,-1.33801e-19,2.02359e-19,0.0,8.217997658932497e-05,0.003707525933798639,0.0,0.0022212232694331924,0.0,-0.0009856309464129076
17,0.0075849,71.1776,213.533,-7.57036e-10,123.283,1.15287e-15,1.63846e-15,9.46325e-05,0.00255507,-0.00113559,0.0042616,5.41015e-20,9.37066e-20,0.0,9.463697779632518e-05,0.004270693530354253,0.0,0.002558336973208286,0.0,-0.00113494546167614
18,0.0085849,76.0582,228.493,-0.170347,132.068,-0.00522875,-0.00904577,8.76285e-05,0.0028833,-0.0013522,0.0048472,-1.8408e-07,-3.19357e-07,0.000203286,8.763233948916316e-05,0.004858966678051857,-1.8407998303437978e-07,0.0028874607073399172,-3.193569489967629e-07,-0.0013512861895113026
19,0.0095849,76.5126,229.75,0.0572114,132.533,-0.00501528,-0.00867888,6.06126e-05,0.00320685,-0.00163843,0.00545186,-1.83218e-07,-3.19752e-07,0.000627863,6.061443698079927e-05,0.005466748432983781,-1.832179832295111e-07,0.003211997444351189,-3.1975194891842307e-07,-0.0016370885063153873
20,0.010585,76.7694,230.552,-0.0346638,133.07,-0.00570314,-0.00986972,3.40436e-05,0.00352737,-0.00192725,0.00606095,-2.14415e-07,-3.75798e-07,0.00105383,3.404417948993377e-05,0.006079354722029695,-2.1441497699559164e-07,0.003533598490802481,-3.757979294416458e-07,-0.0019253940462058416
21,0.011585,77.0912,231.515,0.0151906,133.581,-0.00604042,-0.0104531,7.12338e-06,0.00384876,-0.00221462,0.00666817,-2.33883e-07,-4.11631e-07,0.0014791,7.1234053713453704e-06,0.006690451744194137,-2.3388297265558577e-07,0.0038561759878357194,-4.1163091524243356e-07,-0.002212169538408637
22,0.012585,77.3777,232.383,-0.00576696,134.099,-0.00655215,-0.0113388,-1.95982e-05,0.00416944,-0.00250256,0.00727592,-2.60018e-07,-4.59187e-07,0.0019046,-1.959800795647837e-05,0.007302453819534982,-2.600179661582658e-07,0.004178144207976686,-4.5918689461910134e-07,-0.0024994312072645908
23,0.013585,77.6747,233.281,0.00449424,134.606,-0.00697359,-0.012068,-4.64256e-05,0.00449021,-0.00279009,0.00788301,-2.83534e-07,-5.02343e-07,0.00232988,-4.642452234848715e-05,0.007914162728617447,-2.835339597551112e-07,0.004500306098466744,-5.023428738537561e-07,-0.0027862013163291177
24,0.014585,77.9628,234.153,-0.000195661,135.111,-0.00742847,-0.0128551,-7.32018e-05,0.00481071,-0.00307767,0.00848999,-3.08753e-07,-5.48599e-07,0.00275513,-7.319912081360513e-05,0.008526132174929035,-3.0875295231602706e-07,0.004822300043344718,-5.485988495701477e-07,-0.0030729388285916093
25,0.015585,78.251,235.025,0.00200622,135.611,-0.00785901,-0.0135999,-0.000100004,0.00513109,-0.00336508,0.00909659,-3.3364e-07,-5.94419e-07,0.00318026,-9.999899976664839e-05,0.009138089714663344,-3.3363994433877053e-07,0.005144276586501073,-5.944188233852898e-07,-0.0033594244638525117
26,0.016585,78.5353,235.885,0.000988319,136.106,-0.00829206,-0.0143492,-0.000126794,0.0054513,-0.00365242,0.00970294,-3.59125e-07,-6.41413e-07,0.00360531,-0.00012678596198045788,0.009750166142880046,-3.5912493556722325e-07,0.005466185371762133,-6.414127943221715e-07,-0.003645758027313928
27,0.017585,78.8177,236.739,0.00145947,136.597,-0.00871543,-0.0150816,-0.00015359,0.00577135,-0.00393964,0.010309,-3.84769e-07,-6.88817e-07,0.00403026,-0.00015357820565975455,0.01036232081106414,-3.847689259428577e-07,0.0057880363258420164,-6.888167627394637e-07,-0.003931889799342558
28,0.018585,79.0972,237.584,0.00124001,137.083,-0.00913492,-0.0158072,-0.000180384,0.00609124,-0.00422676,0.0109147,-4.10766e-07,-7.36963e-07,0.00445512,-0.00018036773178442544,0.010974482643274941,-4.1076591561495235e-07,0.006109829327219929,-7.369627283981828e-07,-0.004217839822193592
29,0.019585,79.3745,238.423,0.00133921,137.565,-0.00954806,-0.0165219,-0.000207178,0.00641097,-0.00451376,0.0115202,-4.37017e-07,-7.8568e-07,0.00487987,-0.00020715654012015694,0.011586813056839729,-4.370169045531114e-07,0.006431564254363975,-7.856796913063846e-07,-0.0045035882952974005
30,0.020585,79.6493,239.254,0.0012913,138.043,-0.00995619,-0.0172278,-0.000233971,0.00673055,-0.00480067,0.0121254,-4.6356e-07,-8.35029e-07,0.00530452,-0.00023394363092010817,0.012199210688933482,-4.6355989258284325e-07,0.0067532510532641865,-8.350286513358895e-07,-0.0047891652013855035
31,0.021585,79.9217,240.078,0.00131092,138.517,-0.0103589,-0.0179243,-0.000260763,0.00704996,-0.00508746,0.0127303,-4.9037e-07,-8.84965e-07,0.00572906,-0.00026072900428386614,0.012811675212699214,-4.903698798131018e-07,0.007074869470518053,-8.84964608371952e-07,-0.00507454079330838
32,0.022585,80.1918,240.895,0.00129942,138.987,-0.0107565,-0.0186121,-0.000287554,0.00736922,-0.00537415,0.0133348,-5.1745e-07,-9.35491e-07,0.0061535,-0.0002875126603111289,0.013424104958606575,-5.174498661775218e-07,0.007396439522841192,-9.354905624592291e-07,-0.005359735090078588
33,0.023585,80.4597,241.705,0.00130205,139.453,-0.0111491,-0.019291,-0.000314344,0.00768831,-0.00566073,0.0139391,-5.44793e-07,-9.86589e-07,0.00657782,-0.00031429459910126134,0.014036702222854025,-5.447928516089107e-07,0.0077179409439449564,-9.86588513329778e-07,-0.005644738257142068
34,0.024585,80.7253,242.509,0.00129811,139.915,-0.0115367,-0.0199614,-0.000341132,0.00800725,-0.0059472,0.0145432,-5.72394e-07,-1.03825e-06,0.00700204,-0.00034107382109505036,0.014649466861591076,-5.723938362178771e-07,0.008039393763385805,-1.038249461071672e-06,-0.005929550411956752
35,0.025585,80.9888,243.305,0.00129706,140.373,-0.0119196,-0.0206235,-0.000367918,0.00832603,-0.00623356,0.0151469,-6.00248e-07,-1.09047e-06,0.00742615,-0.00036785032647235205,0.015262195678319435,-6.00247819892985e-07,0.00836078778560112,-1.0904694054403308e-06,-0.006214171671883872
36,0.026585,81.2501,244.096,0.0012946,140.827,-0.0122978,-0.0212775,-0.000394702,0.00864465,-0.00651981,0.0157503,-6.28351e-07,-1.14323e-06,0.00785014,-0.00039462411541302256,0.015874989748569934,-6.283508026116991e-07,0.00868212288898218,-1.1432293465230003e-06,-0.006498602154187849
37,0.027585,81.5093,244.88,0.0012927,141.278,-0.0126714,-0.0219235,-0.000421484,0.00896312,-0.00680594,0.0163534,-6.56698e-07,-1.19652e-06,0.00827402,-0.000421395188096918,0.016487848743941047,-6.566977843736055e-07,0.009003409041943744,-1.196519284207831e-06,-0.006782832043865095
38,0.028585,81.7664,245.657,0.00129045,141.725,-0.0130405,-0.0225617,-0.000448264,0.00928142,-0.00709197,0.0169563,-6.85284e-07,-1.25033e-06,0.00869777,-0.0004481635447038945,0.01710087404585714,-6.852837651782906e-07,0.009324625946000031,-1.2503292183829728e-06,-0.007066881325171082
39,0.029585,82.0215,246.429,0.00128828,142.169,-0.0134052,-0.0231923,-0.000475041,0.00959957,-0.00737789,0.0175588,-7.14106e-07,-1.30466e-06,0.00912141,-0.0004749281858886789,0.01771386196653757,-7.141057449810972e-07,0.00964579366279028,-1.3046591489374038e-06,-0.007350740180066873
40,0.030585,82.2746,247.194,0.001286,142.609,-0.0137656,-0.0238155,-0.000501815,0.00991756,-0.00766369,0.0181611,-7.43159e-07,-1.35949e-06,0.00954493,-0.0005016891119112854,0.018327015658298418,-7.43158723892634e-07,0.009966901980628329,-1.3594890758694689e-06,-0.0076343988017755215
41,0.031585,82.5258,247.954,0.0012837,143.046,-0.0141218,-0.0244313,-0.000528586,0.0102354,-0.00794938,0.0187631,-7.72438e-07,-1.41481e-06,0.00996833,-0.0005284463230318392,0.018940233081649716,-7.724377016904427e-07,0.010287960880731362,-1.4148089991783408e-06,-0.007917867236405307
42,0.032585,82.7751,248.708,0.00128135,143.479,-0.0144739,-0.02504,-0.000555355,0.0105531,-0.00823496,0.0193648,-8.01941e-07,-1.47062e-06,0.0103916,-0.0005552008189549928,0.0195535139069285,-8.019406784187666e-07,0.010608980357146969,-1.470618918641975e-06,-0.008201145600637116
43,0.033585,83.0224,249.456,0.00127896,143.909,-0.014822,-0.0256418,-0.00058212,0.0108706,-0.00852043,0.0199662,-8.31662e-07,-1.52691e-06,0.0108148,-0.0005819506010246167,0.020166857804215788,-8.316616542103361e-07,0.010929899651652475,-1.5269088342595438e-06,-0.008484234011055691
44,0.034585,83.2679,250.198,0.00127653,144.336,-0.0151661,-0.0262366,-0.000608881,0.011188,-0.00880578,0.0205673,-8.61598e-07,-1.58367e-06,0.0112378,-0.0006086956695805501,0.02078026444333747,-8.615976287984495e-07,0.011250819729123895,-1.5836687460302201e-06,-0.008767122671821448
45,0.035585,83.5116,250.935,0.00127406,144.76,-0.0155063,-0.0268248,-0.000635639,0.0115052,-0.00909102,0.0211681,-8.91746e-07,-1.64088e-06,0.0116607,-0.0006354370243276675,0.021393733493864753,-8.917456023604942e-07,0.011571639368446851,-1.6408786537303044e-06,-0.009049821617310161
46,0.036585,83.7535,251.666,0.00127157,145.181,-0.0158428,-0.0274064,-0.000662393,0.0118222,-0.00937614,0.0217687,-9.22101e-07,-1.69855e-06,0.0120834,-0.0006621736661878153,0.02200736682584492,-9.221005748960565e-07,0.011892358409409054,-1.6985485574716463e-06,-0.009332321057136772
47,0.037585,83.9936,252.393,0.00126904,145.598,-0.0161755,-0.0279816,-0.000689143,0.0121391,-0.00966115,0.0223689,-9.5266e-07,-1.75666e-06,0.0125061,-0.0006889055955011658,0.022620959768235638,-9.526595462494569e-07,0.012213077913110215,-1.7566584570305466e-06,-0.009614631019819964
48,0.038585,84.232,253.113,0.00126648,146.013,-0.0165046,-0.0285504,-0.000715889,0.0124559,-0.00994605,0.0229689,-9.8342e-07,-1.81521e-06,0.0129286,-0.0007156328126074474,0.023234716452689153,-9.834195164870607e-07,0.012533797815543313,-1.8152083525180274e-06,-0.009896751621454536
49,0.039585,84.4686,253.829,0.00126389,146.424,-0.0168301,-0.0291131,-0.000742631,0.0127724,-0.0102308,0.0235685,-1.01438e-06,-1.87419e-06,0.013351,-0.0007423553178464992,0.023848431962196992,-1.0143794855199673e-06,0.012854315481797052,-1.8741882437112167e-06,-0.010178643385185704
50,0.040585,84.7036,254.54,0.00126128,146.833,-0.0171522,-0.0296697,-0.000769369,0.0130889,-0.0105155,0.0241679,-1.04553e-06,-1.93358e-06,0.0137732,-0.0007690731115582716,0.024462310673385446,-1.0455294534583714e-06,0.013174934607947275,-1.93357813060846e-06,-0.010460405414685847
51,0.041585,84.937,255.245,0.00125865,147.239,-0.0174707,-0.0302203,-0.000796102,0.0134051,-0.0108,0.024767,-1.07687e-06,-1.9934e-06,0.0141953,-0.000795785194878107,0.025076249930851446,-1.076869420191251e-06,0.013495351177460257,-1.9933980132114115e-06,-0.010741889386351788
52,0.042585,85.1687,255.946,0.00125599,147.642,-0.017786,-0.0307651,-0.000822831,0.0137213,-0.0110845,0.0253658,-1.10839e-06,-2.05361e-06,0.0146173,-0.00082249256740341,0.025690249402405385,-1.1083893857177785e-06,0.01381586907871224,-2.0536078912947175e-06,-0.011023293287218405
53,0.043585,85.3988,256.642,0.00125332,148.042,-0.0180979,-0.0313042,-0.000849555,0.0140372,-0.0113688,0.0259643,-1.1401e-06,-2.11423e-06,0.0150391,-0.0008491942303228139,0.026304308755604522,-1.1400993500387813e-06,0.01413618410284867,-2.114227764971055e-06,-0.01130441940096627
54,0.044585,85.6273,257.333,0.00125063,148.439,-0.0184065,-0.0318377,-0.000876274,0.014353,-0.011653,0.0265626,-1.172e-06,-2.17524e-06,0.0154608,-0.000875890184055983,0.026918530349600456,-1.1719993131542594e-06,0.014456498884830138,-2.175237634127747e-06,-0.011585366760461735
55,0.045585,85.8543,258.019,0.00124792,148.834,-0.018712,-0.0323656,-0.000902988,0.0146687,-0.0119371,0.0271605,-1.20407e-06,-2.23664e-06,0.0158824,-0.0009025804290223594,0.02753270852916656,-1.2040692750625581e-06,0.014776813360507735,-2.236637498764793e-06,-0.011866135472681005
56,0.046585,86.0798,258.701,0.00124519,149.226,-0.0190144,-0.0328881,-0.000929697,0.0149842,-0.012221,0.0277582,-1.23631e-06,-2.29842e-06,0.0163038,-0.0009292649656414964,0.028147048406237607,-1.2363092357636773e-06,0.015097025956003707,-2.2984173586593215e-06,-0.012146626859184106
57,0.047585,86.3038,259.378,0.00124245,149.616,-0.0193137,-0.0334053,-0.000956401,0.0152995,-0.0125049,0.0283555,-1.26872e-06,-2.36057e-06,0.0167251,-0.0009559437943325033,0.028761344079390128,-1.2687191951465948e-06,0.015417136511064689,-2.360567213810505e-06,-0.01242703862548511
58,0.048585,86.5262,260.051,0.0012397,150.002,-0.0196099,-0.0339173,-0.0009831,0.0156147,-0.0127886,0.0289526,-1.30131e-06,-2.42309e-06,0.0171462,-0.0009826169155147113,0.02937580090576941,-1.3013091533231602e-06,0.015737246439167407,-2.4230870643293656e-06,-0.012707173335639532
59,0.049585,86.7473,260.719,0.00123694,150.387,-0.0199033,-0.0344242,-0.00100979,0.0159297,-0.0130722,0.0295494,-1.33406e-06,-2.48597e-06,0.0175672,-0.0010092803336443357,0.029990315736736273,-1.3340591101806965e-06,0.016057254070351634,-2.4859669099930315e-06,-0.012987129881566917
60,0.050585,86.9668,261.383,0.00123416,150.769,-0.0201937,-0.034926,-0.00103648,0.0162446,-0.0133557,0.0301459,-1.36697e-06,-2.54921e-06,0.0179881,-0.0010359430401368774,0.030604888238098926,-1.3669690657192035e-06,0.016377260882086464,-2.5492067508015026e-06,-0.013266908369770958
61,0.051585,87.185,262.043,0.00123138,151.148,-0.0204812,-0.0354229,-0.00106316,0.0165593,-0.0136391,0.0307421,-1.40005e-06,-2.61279e-06,0.0184088,-0.0010625950456372157,0.031219518075414898,-1.4000490199395088e-06,0.016697165140380887,-2.612786586642102e-06,-0.013546508906671528
62,0.052585,87.4018,262.698,0.00122859,151.525,-0.0207659,-0.0359149,-0.00108984,0.0168739,-0.0139224,0.0313381,-1.43328e-06,-2.67672e-06,0.0188294,-0.0010892463400715702,0.03183430809741594,-1.4332789728399575e-06,0.01701706838667638,-2.676716417626679e-06,-0.013825931598605123
63,0.053585,87.6172,263.349,0.00122579,151.899,-0.0210479,-0.0364022,-0.00111651,0.0171883,-0.0142055,0.0319337,-1.46667e-06,-2.74099e-06,0.0192498,-0.001115886934617727,0.03244905166377987,-1.466668924421377e-06,0.017336868822971363,-2.7409862435323618e-06,-0.014105077962337398
64,0.054585,87.8312,263.997,0.00122298,152.272,-0.0213272,-0.0368847,-0.00114317,0.0175026,-0.0144885,0.0325291,-1.50021e-06,-2.80558e-06,0.0196701,-0.0011425168300940314,0.03306395486765901,-1.50020887468294e-06,0.01765666805465904,-2.8055760643574956e-06,-0.014384046749328805
65,0.055585,88.0439,264.64,0.00122017,152.641,-0.0216038,-0.0373626,-0.00116983,0.0178167,-0.0147715,0.0331242,-1.53391e-06,-2.87051e-06,0.0200902,-0.0011691460156266764,0.03367891419019853,-1.5339088235144516e-06,0.017976364219749463,-2.8705058801037353e-06,-0.014662936599323717
66,0.056585,88.2553,265.279,0.00121735,153.009,-0.0218778,-0.037836,-0.00119649,0.0181307,-0.0150542,0.033719,-1.56775e-06,-2.93576e-06,0.0205102,-0.0011957744912347579,0.03429392929571917,-1.567748771025279e-06,0.018296058987566255,-2.9357556906584037e-06,-0.014941452017137813
67,0.057585,88.4654,265.914,0.00121453,153.374,-0.0221492,-0.038305,-0.00122313,0.0184445,-0.0153369,0.0343135,-1.60173e-06,-3.00132e-06,0.0209301,-0.0012223822813849372,0.03490899984829188,-1.6017287172154226e-06,0.018615650432151742,-3.0013154960206734e-06,-0.015219888709771756
68,0.058585,88.6742,266.545,0.00121171,153.737,-0.022418,-0.0387695,-0.00124977,0.0187581,-0.0156195,0.0349077,-1.63586e-06,-3.0672e-06,0.0213498,-0.0012489893627131154,0.03552412551173756,-1.6358586619746873e-06,0.01893513839322103,-3.0671952961913718e-06,-0.015498148249297516
69,0.059585,88.8817,267.173,0.00120888,154.098,-0.0226844,-0.0392297,-0.00127641,0.0190716,-0.0159019,0.0355017,-1.67013e-06,-3.13338e-06,0.0217693,-0.0012755957352380554,0.03613940956356387,-1.6701286053022457e-06,0.019254624635959283,-3.1333750909467994e-06,-0.015776132319033853
70,0.060585,89.088,267.796,0.00120605,154.457,-0.0229483,-0.0396857,-0.00130303,0.019385,-0.0161842,0.0360953,-1.70454e-06,-3.19986e-06,0.0221887,-0.001302181425022475,0.036754644500744726,-1.7045385473091201e-06,0.019574109095920056,-3.1998548803979787e-06,-0.016053939502551295
71,0.061585,89.293,268.416,0.00120321,154.813,-0.0232098,-0.0401375,-0.00132966,0.0196982,-0.0164664,0.0366887,-1.73908e-06,-3.26665e-06,0.0226079,-0.0013287763938175656,0.03737003727576993,-1.7390784877724386e-06,0.01989348971928373,-3.266644664545737e-06,-0.016331569905331356
72,0.062585,89.4969,269.033,0.00120038,155.168,-0.0234689,-0.0405852,-0.00135627,0.0200112,-0.0167485,0.0372818,-1.77376e-06,-3.33372e-06,0.023027,-0.001355350681505163,0.03798548393754464,-1.773758426915073e-06,0.02021276634575142,-3.3337144431655474e-06,-0.016609023632772835
73,0.063585,89.6995,269.645,0.00119755,155.52,-0.0237257,-0.0410289,-0.00138288,0.0203241,-0.0170304,0.0378746,-1.80858e-06,-3.40108e-06,0.023446,-0.0013819242620605188,0.038600984148660755,-1.8085783645149789e-06,0.020532040868235013,-3.4010742163692598e-06,-0.016886202478816892
74,0.064585,89.901,270.254,0.00119471,155.871,-0.0239802,-0.0414685,-0.00140948,0.0206369,-0.0173122,0.0384671,-1.84352e-06,-3.46872e-06,0.0238648,-0.0014084871495871898,0.039216537571462595,-1.8435183006815237e-06,0.020851313222211676,-3.4687139840450243e-06,-0.017163204915481844
75,0.065585,90.1013,270.86,0.00119188,156.219,-0.0242324,-0.0419043,-0.00143607,0.0209494,-0.017594,0.0390594,-1.87859e-06,-3.53664e-06,0.0242834,-0.001435039344900857,0.03983224785126516,-1.8785882354155348e-06,0.021170379109041848,-3.5366337460818187e-06,-0.017440129303857854
76,0.066585,90.3004,271.462,0.00118905,156.565,-0.0244824,-0.0423362,-0.00146266,0.0212619,-0.0178755,0.0396513,-1.91379e-06,-3.60484e-06,0.0247019,-0.0014615908342010542,0.040447906745043616,-1.913788168717012e-06,0.021489544719542675,-3.6048335025906653e-06,-0.017716680980984
77,0.067585,90.4984,272.061,0.00118622,156.909,-0.0247302,-0.0427643,-0.00148924,0.0215742,-0.018157,0.040243,-1.94911e-06,-3.67331e-06,0.0251202,-0.0014881316323879235,0.041063721942423914,-1.949108100474106e-06,0.021808605723141028,-3.6733032534597143e-06,-0.017993154819769375
78,0.068585,90.6953,272.656,0.00118339,157.252,-0.0249758,-0.0431886,-0.00151582,0.0218863,-0.0184384,0.0408344,-1.98455e-06,-3.74204e-06,0.0255384,-0.001514671725129757,0.04167958912155534,-1.984548030797839e-06,0.022127561959518927,-3.742032998577116e-06,-0.018269452669072428
79,0.069585,90.8911,273.248,0.00118056,157.592,-0.0252193,-0.0436093,-0.00154238,0.0221983,-0.0187196,0.0414255,-2.02011e-06,-3.81103e-06,0.0259564,-0.0015411911432693381,0.04229550794355941,-2.0201079595771887e-06,0.02244651551301735,-3.811022738053893e-06,-0.01854547648821403
80,0.070585,91.0858,273.836,0.00117774,157.931,-0.0254607,-0.0440263,-0.00156894,0.0225101,-0.0190007,0.0420163,-2.05579e-06,-3.88028e-06,0.0263743,-0.0015677098570624493,0.04291147806931095,-2.055787886812155e-06,0.02276536404245677,-3.880272471668e-06,-0.018821324582507182
81,0.071585,91.2794,274.421,0.00117492,158.267,-0.0257,-0.0444398,-0.00159549,0.0228218,-0.0192817,0.0426069,-2.09159e-06,-3.94979e-06,0.026792,-0.0015942178824701614,0.04352760351219276,-2.09158781261376e-06,0.023084209695942493,-3.949782199641483e-06,-0.019096997056502918
82,0.072585,91.4719,275.004,0.0011721,158.602,-0.0259373,-0.0448497,-0.00162204,0.0231333,-0.0195626,0.0431972,-2.1275e-06,-4.01954e-06,0.0272096,-0.0016207252040991715,0.044143779703056385,-2.127497736870154e-06,0.023402950068498463,-4.019531921639619e-06,-0.01937249401467045
83,0.073585,91.6634,275.582,0.00116929,158.935,-0.0261726,-0.0452562,-0.00164858,0.0234447,-0.0198433,0.0437872,-2.16353e-06,-4.08954e-06,0.027627,-0.0016472218384403492,0.044760006302052124,-2.163527659582165e-06,0.02372168737197211,-4.08953163788528e-06,-0.019647717526173558
84,0.074585,91.8539,276.158,0.00116648,159.266,-0.0264059,-0.0456593,-0.00167511,0.0237559,-0.0201239,0.0443769,-2.19967e-06,-4.15978e-06,0.0280442,-0.0016737077863072658,0.04537628296908469,-2.199667580748965e-06,0.02404031913761351,-4.159771348155594e-06,-0.019922765785560292
85,0.075585,92.0433,276.731,0.00116367,159.595,-0.0266372,-0.046059,-0.00170163,0.024067,-0.0204045,0.0449663,-2.23591e-06,-4.23026e-06,0.0284613,-0.0017001830485132707,0.045992609363813,-2.235907500369727e-06,0.024358947640991113,-4.230251052450562e-06,-0.020197736877232475
86,0.076585,92.2317,277.3,0.00116087,159.923,-0.0268666,-0.0464553,-0.00172814,0.024378,-0.0206848,0.0455554,-2.27227e-06,-4.30098e-06,0.0288783,-0.0017266476258711583,0.04660898514565037,-2.2722674184461056e-06,0.024677572817354276,-4.300970750770183e-06,-0.020472336964585724
87,0.077585,92.4191,277.867,0.00115807,160.249,-0.0270942,-0.0468484,-0.00175465,0.0246887,-0.0209651,0.0461443,-2.30873e-06,-4.37192e-06,0.029295,-0.0017531115016623522,0.04722551469631098,-2.3087273348654236e-06,0.024995989602714763,-4.371910443223825e-06,-0.02074686009232074
88,0.078585,92.6055,278.43,0.00115528,160.573,-0.0273198,-0.0472383,-0.00178115,0.0249994,-0.0212453,0.0467329,-2.34529e-06,-4.44309e-06,0.0297117,-0.0017795646937012188,0.047842093075477043,-2.3452872498497257e-06,0.025314505335541027,-4.443080129479249e-06,-0.02102120838413224
89,0.079585,92.7909,278.991,0.0011525,160.895,-0.0275437,-0.047625,-0.00180765,0.0253098,-0.0215253,0.0473212,-2.38196e-06,-4.51449e-06,0.0301281,-0.0018060171847398276,0.04845871994184159,-2.3819571631777947e-06,0.025632812356691126,-4.514479809758498e-06,-0.021295284073397536
90,0.080585,92.9753,279.548,0.00114972,161.216,-0.0277657,-0.0480085,-0.00183413,0.0256202,-0.0218052,0.0479092,-2.41873e-06,-4.58611e-06,0.0305444,-0.001832449011445747,0.04907539495385338,-2.4187270748488032e-06,0.025951218195676473,-4.5860994838387015e-06,-0.021569185189136086
91,0.081585,93.1589,280.103,0.00114694,161.535,-0.0279859,-0.048389,-0.00186061,0.0259304,-0.022085,0.048497,-2.4556e-06,-4.65795e-06,0.0309606,-0.0018588801382463105,0.04969222273893337,-2.4555969849737735e-06,0.02626951762925067,-4.657939151719859e-06,-0.021842911834976553
92,0.082585,93.3414,280.655,0.00114417,161.853,-0.0282043,-0.0487664,-0.00188708,0.0262404,-0.0223646,0.0490844,-2.49257e-06,-4.72999e-06,0.0313765,-0.0018853005840129278,0.050308993078284736,-2.4925668935527057e-06,0.02658771049706199,-4.72997881362236e-06,-0.02211636632610814
93,0.083585,93.523,281.204,0.00114141,162.168,-0.0284211,-0.0491407,-0.00191354,0.0265503,-0.0226442,0.0496716,-2.52963e-06,-4.80225e-06,0.0317924,-0.0019117103495567278,0.050925915629755014,-2.52962680047375e-06,0.02690589932935805,-4.802238469214792e-06,-0.022389744370051923
94,0.084585,93.7037,281.75,0.00113865,162.482,-0.028636,-0.0495122,-0.00193999,0.02686,-0.0229236,0.0502585,-2.56679e-06,-4.87472e-06,0.032208,-0.0019381094356885065,0.051542885081613976,-2.566786705848756e-06,0.027223981338837078,-4.8747081186073515e-06,-0.022662850520768996
95,0.085585,93.8835,282.294,0.0011359,162.795,-0.0288493,-0.0498807,-0.00196644,0.0271696,-0.0232029,0.0508451,-2.60404e-06,-4.94739e-06,0.0326235,-0.0019645078235737135,0.052159901091105576,-2.6040366094548517e-06,0.027542059119359363,-4.9473777616881875e-06,-0.02293578266986962
96,0.086585,94.0624,282.834,0.00113316,163.106,-0.029061,-0.0502463,-0.00199288,0.027479,-0.0234821,0.0514315,-2.64139e-06,-5.02027e-06,0.0330389,-0.0019908955331398026,0.05277706859293163,-2.6413865115149093e-06,0.027860029819981813,-5.020257398458128e-06,-0.0232085409205246
97,0.087585,94.2403,283.372,0.00113042,163.416,-0.0292709,-0.050609,-0.00201931,0.0277883,-0.0237611,0.0520176,-2.67883e-06,-5.09334e-06,0.0334541,-0.0020172725651969037,0.05339428208958075,-2.678826411917079e-06,0.028177996098154967,-5.0933270289155175e-06,-0.023481027723931125
98,0.088585,94.4174,283.908,0.00112769,163.723,-0.0294793,-0.050969,-0.00204573,0.0280975,-0.02404,0.0526034,-2.71635e-06,-5.16661e-06,0.0338691,-0.0020436389205545913,0.05401154123758167,-2.7163463107715557e-06,0.02849595788890813,-5.166596653061184e-06,-0.023753340889462793
99,0.089585,94.5937,284.44,0.00112497,164.03,-0.029686,-0.0513261,-0.00207214,0.0284065,-0.0243189,0.0531889,-2.75397e-06,-5.24007e-06,0.0342839,-0.00206999460002244,0.05462884569322091,-2.7539662078579497e-06,0.02881381224586499,-5.2400562708943e-06,-0.02402557811744266
100,0.090585,94.769,284.971,0.00112225,164.335,-0.0298912,-0.0516805,-0.00209855,0.0287153,-0.0245975,0.0537741,-2.79167e-06,-5.31372e-06,0.0346986,-0.0020963495834459556,0.05524619511254247,-2.7916661032856283e-06,0.0291315590086616,-5.313705882192821e-06,-0.024297446718324567
101,0.091585,94.9435,285.498,0.00111954,164.638,-0.0300947,-0.0520323,-0.00212494,0.029024,-0.0248761,0.0543591,-2.82946e-06,-5.38755e-06,0.0351132,-0.0021226839132973963,0.055863694737713354,-2.829455997055419e-06,0.029449300961874814,-5.3875354871779635e-06,-0.02456923958716417
102,0.092585,95.1172,286.023,0.00111684,164.94,-0.0302968,-0.0523813,-0.00215133,0.0293326,-0.0251546,0.0549438,-2.86733e-06,-5.46158e-06,0.0355275,-0.0021490175481950757,0.05648123876142841,-2.8673258891664943e-06,0.029767038040461324,-5.4615650856293385e-06,-0.02484085922914836
103,0.093585,95.29,286.545,0.00111414,165.241,-0.0304973,-0.0527277,-0.00217772,0.029641,-0.0254329,0.0555282,-2.90528e-06,-5.53578e-06,0.0359418,-0.0021753504881573127,0.05709882683902001,-2.9052757797298767e-06,0.030084667170887425,-5.5357646775444636e-06,-0.025112208258056157
104,0.094585,95.462,287.065,0.00111146,165.54,-0.0306963,-0.0530715,-0.00220409,0.0299492,-0.0257111,0.0561123,-2.94332e-06,-5.61016e-06,0.0363558,-0.00220166277723588,0.05771645862558006,-2.9433156684133266e-06,0.030402188192785617,-5.610144263035188e-06,-0.025383384319379698
105,0.095585,95.6332,287.583,0.00110878,165.837,-0.0308938,-0.0534128,-0.00223045,0.0302573,-0.0259892,0.0566962,-2.98144e-06,-5.68471e-06,0.0367697,-0.002227964394748261,0.05833423960937756,-2.9814355555490835e-06,0.030719704017768912,-5.684693842100685e-06,-0.025654387515459454
106,0.096585,95.8036,288.098,0.00110611,166.133,-0.0310898,-0.0537515,-0.00225681,0.0305653,-0.0262671,0.0572798,-3.01963e-06,-5.75944e-06,0.0371834,-0.0022542653189591144,0.058952063735158156,-3.0196254409142753e-06,0.03103721458072317,-5.759423414408715e-06,-0.025925120541072655
107,0.097585,95.9731,288.61,0.00110344,166.428,-0.0312844,-0.0540877,-0.00228316,0.0308731,-0.026545,0.0578631,-3.05791e-06,-5.83434e-06,0.037597,-0.0022805555726923554,0.059569930657304315,-3.0579053246215793e-06,0.03135461668104833,-5.8343229802915175e-06,-0.026195778340431186
108,0.098585,96.1419,289.12,0.00110079,166.722,-0.0314776,-0.0544214,-0.00230949,0.0311808,-0.0268227,0.0584461,-3.09626e-06,-5.90941e-06,0.0380104,-0.0023068251798232797,0.060187840029957806,-3.096255206558318e-06,0.03167201332557057,-5.909392539416025e-06,-0.02646616622769027
109,0.099585,96.3099,289.628,0.00109814,167.014,-0.0316693,-0.0547527,-0.00233583,0.0314883,-0.0271003,0.0590288,-3.13469e-06,-5.98465e-06,0.0384236,-0.002333104071953418,0.060805791507021256,-3.134685086836342e-06,0.03198930125018662,-5.984632092004283e-06,-0.02673638171230097
110,0.1006,96.4771,290.134,0.0010955,167.304,-0.0318596,-0.0550815,-0.00236215,0.0317957,-0.0273778,0.0596113,-3.17319e-06,-6.06005e-06,0.0388367,-0.0023593623190942825,0.06142389088454081,-3.1731849654548228e-06,0.03230658352517812,-6.060031637944441e-06,-0.027006424896151127
111,0.1016,96.6435,290.637,0.00109286,167.594,-0.0320486,-0.055408,-0.00238846,0.0321029,-0.0276551,0.0601935,-3.21176e-06,-6.1356e-06,0.0392496,-0.0023856098989831764,0.06204203179717305,-3.2117548423027387e-06,0.03262375682296126,-6.135581177235672e-06,-0.027276198608673474
112,0.1026,96.8092,291.137,0.00109024,167.882,-0.0322362,-0.0557321,-0.00241477,0.03241,-0.0279324,0.0607755,-3.25041e-06,-6.21132e-06,0.0396623,-0.002411856788307354,0.06266032016414136,-3.250404717380917e-06,0.03294092427725137,-6.211300709768608e-06,-0.027545897523316598
113,0.1036,96.9742,291.636,0.00108762,168.169,-0.0324224,-0.0560539,-0.00244106,0.0327169,-0.0282095,0.0613571,-3.28913e-06,-6.28719e-06,0.0400749,-0.0024380830358469163,0.06327854316817194,-3.2891245907995525e-06,0.0332579824970074,-6.287170235652617e-06,-0.027815327223903785
114,0.1046,97.1383,292.132,0.00108502,168.454,-0.0326073,-0.0563734,-0.00246735,0.0330237,-0.0284865,0.0619385,-3.32792e-06,-6.36322e-06,0.0404873,-0.0024643085939074494,0.06389691305587752,-3.327914462447623e-06,0.0335750346793553,-6.363199754777504e-06,-0.02808458508432743
115,0.1056,97.3018,292.626,0.00108242,168.738,-0.0327909,-0.0566906,-0.00249363,0.0333303,-0.0287634,0.0625196,-3.36678e-06,-6.4394e-06,0.0408996,-0.0024905234874124105,0.06451532321372366,-3.366774332436151e-06,0.03389197736981964,-6.439379267142442e-06,-0.028353671206024722
116,0.1066,97.4645,293.118,0.00107982,169.021,-0.0329732,-0.0570056,-0.0025199,0.0336368,-0.0290401,0.0631004,-3.40571e-06,-6.51573e-06,0.0413117,-0.002516727717166267,0.0651337732939643,-3.4057042005430915e-06,0.03420891382891478,-6.515708772636408e-06,-0.028622488552607073
117,0.1076,97.6265,293.608,0.00107724,169.303,-0.0331542,-0.0573183,-0.00254616,0.0339432,-0.0293167,0.063681,-3.4447e-06,-6.5922e-06,0.0417236,-0.002542921283973376,0.06575236952384711,-3.444694066989662e-06,0.03452584399133318,-6.59217827148062e-06,-0.02889113441683755
118,0.1086,97.7878,294.095,0.00107467,169.583,-0.0333339,-0.0576289,-0.00257241,0.0342494,-0.0295932,0.0642613,-3.48376e-06,-6.66882e-06,0.0421353,-0.0025691041886375388,0.06637100510363503,-3.4837539316656674e-06,0.0348426643074784,-6.66879776345386e-06,-0.029159608899863576
119,0.1096,97.9483,294.58,0.0010721,169.862,-0.0335124,-0.0579373,-0.00259866,0.0345555,-0.0298696,0.0648413,-3.52289e-06,-6.74558e-06,0.0425469,-0.0025952864060094782,0.06698967968488012,-3.52288379468213e-06,0.03515947813290521,-6.745557248666323e-06,-0.029427912102752862
120,0.1106,98.1082,295.064,0.00106954,170.14,-0.0336896,-0.0582435,-0.00262489,0.0348614,-0.0301459,0.0654211,-3.56208e-06,-6.82248e-06,0.0429583,-0.002621447988536474,0.06760849967974236,-3.562073655816178e-06,0.03547618185463075,-6.822456726895965e-06,-0.02969604412649396
121,0.1116,98.2674,295.545,0.00106699,170.417,-0.0338656,-0.0585476,-0.00265112,0.0351672,-0.030422,0.0660005,-3.60133e-06,-6.89953e-06,0.0433696,-0.002647608884854047,0.06822725127948548,-3.6013235151788336e-06,0.03579287889155092,-6.899506198254635e-06,-0.029963908068391887
122,0.1126,98.4258,296.024,0.00106445,170.692,-0.0340404,-0.0588496,-0.00267734,0.0354728,-0.030698,0.0665797,-3.64064e-06,-6.9767e-06,0.0437807,-0.002673759121717967,0.06884614771853337,-3.640633372881119e-06,0.0361094655673202,-6.976675662850873e-06,-0.030231601086429194
123,0.1136,98.5836,296.501,0.00106191,170.967,-0.034214,-0.0591496,-0.00270355,0.0357783,-0.030974,0.0671586,-3.68002e-06,-7.05402e-06,0.0441916,-0.002699898699930703,0.06946508188665756,-3.6800132287018172e-06,0.036426045364152726,-7.0539951204651175e-06,-0.030499220231388513
124,0.1146,98.7408,296.975,0.00105939,171.24,-0.0343864,-0.0594475,-0.00272975,0.0360836,-0.0312497,0.0677373,-3.71945e-06,-7.13146e-06,0.0446024,-0.002726027620294391,0.07008416044264831,-3.719443082861318e-06,0.036742514542364546,-7.131434571205908e-06,-0.030766474753641915
125,0.1156,98.8972,297.448,0.00105687,171.512,-0.0345576,-0.0597434,-0.00275594,0.0363888,-0.0315254,0.0683157,-3.75895e-06,-7.20904e-06,0.045013,-0.002752145883610946,0.07070327615205141,-3.758942935139231e-06,0.037058976647463604,-7.209014014963877e-06,-0.03103365560397975
126,0.1166,99.053,297.919,0.00105436,171.783,-0.0347276,-0.0600372,-0.00278212,0.0366938,-0.0318009,0.0688938,-3.7985e-06,-7.28674e-06,0.0454234,-0.0027782534906816148,0.07132242866478533,-3.798492785755947e-06,0.03737532787645104,-7.28671345173737e-06,-0.03130056906284373
127,0.1176,99.2081,298.388,0.00105186,172.052,-0.0348965,-0.0603291,-0.00280829,0.0369988,-0.0320763,0.0694716,-3.83811e-06,-7.36457e-06,0.0458337,-0.002804350442307646,0.07194161763053342,-3.838102634490248e-06,0.03769177560727921,-7.364542881638236e-06,-0.03156731215391417
128,0.1186,99.3626,298.855,0.00104937,172.321,-0.0350643,-0.060619,-0.00283446,0.0373035,-0.0323516,0.0700492,-3.87778e-06,-7.44252e-06,0.0462438,-0.0028304467109854237,0.07256094995483364,-3.877772481453157e-06,0.038008008466936305,-7.4424923045546265e-06,-0.03183388497744544
129,0.1196,99.5164,299.32,0.00104689,172.588,-0.0352309,-0.060907,-0.00286061,0.0376081,-0.0326268,0.0706265,-3.91751e-06,-7.5206e-06,0.0466537,-0.0028565223538633555,0.07318031815467174,-3.917502326533651e-06,0.0383242338649985,-7.520571720376346e-06,-0.032100287633612834
130,0.1206,99.6696,299.783,0.00104442,172.855,-0.0353965,-0.0611931,-0.00288676,0.0379126,-0.0329019,0.0712035,-3.95728e-06,-7.5988e-06,0.0470634,-0.0028825973148722817,0.07379972187903672,-3.95727216995212e-06,0.038640451735937775,-7.5987711292135884e-06,-0.032366520222513184
131,0.1216,99.8222,300.244,0.00104195,173.12,-0.0355609,-0.0614772,-0.0029129,0.0382169,-0.0331768,0.0717803,-3.99712e-06,-7.67712e-06,0.047473,-0.0029086616231164264,0.074419268218604,-3.997112011489001e-06,0.038956558118548035,-7.677090530955333e-06,-0.0326324861074182
132,0.1226,99.9741,300.703,0.00103949,173.384,-0.0357242,-0.0617595,-0.00293903,0.0385211,-0.0334516,0.0723568,-4.037e-06,-7.75555e-06,0.0478825,-0.0029347152793957054,0.07503884950387762,-4.036991851363858e-06,0.03927265677969638,-7.755519925822796e-06,-0.032898282178183136
133,0.1236,100.125,301.16,0.00103704,173.647,-0.0358865,-0.06204,-0.00296514,0.0388252,-0.0337263,0.072933,-4.07694e-06,-7.83411e-06,0.0482917,-0.0029607483141170787,0.07565846538315335,-4.076931689245278e-06,0.0395887476538046,-7.834079313484565e-06,-0.03316390853461837
134,0.1246,100.276,301.616,0.0010346,173.909,-0.0360477,-0.0623186,-0.00299125,0.0391291,-0.0340009,0.0735089,-4.11693e-06,-7.91277e-06,0.0487008,-0.0029867806691247223,0.07627811550449382,-4.1169215254655e-06,0.0399047266847985,-7.912738694160204e-06,-0.03342936527645601
135,0.1256,100.426,302.069,0.00103217,174.17,-0.0362078,-0.0625953,-0.00301735,0.0394328,-0.0342753,0.0740846,-4.15697e-06,-7.99155e-06,0.0491098,-0.0030128023745644716,0.07689790720551293,-4.15696135980248e-06,0.040220593712273045,-7.991518067629322e-06,-0.03369455587281045
136,0.1266,100.576,302.521,0.00102975,174.43,-0.0363669,-0.0628703,-0.00304345,0.0397364,-0.0345496,0.07466,-4.19706e-06,-8.07044e-06,0.0495185,-0.003038823400846602,0.07751773256797434,-4.1970511923672404e-06,0.04053645262948158,-8.070407434113136e-06,-0.03395957710681052
137,0.1276,100.725,302.971,0.00102733,174.689,-0.0365249,-0.0631435,-0.00306953,0.0400399,-0.0348238,0.0752352,-4.2372e-06,-8.14943e-06,0.0499271,-0.0030648238092855218,0.07813769905301537,-4.237191023048759e-06,0.04085230337078016,-8.149396793499797e-06,-0.03422442907790324
138,0.1286,100.873,303.419,0.00102492,174.947,-0.036682,-0.0634149,-0.0030956,0.0403432,-0.0350979,0.0758101,-4.27739e-06,-8.22854e-06,0.0503355,-0.0030908135705508544,0.07875769861799964,-4.277380851958057e-06,0.041168041753697704,-8.228506145679937e-06,-0.034489111885457
139,0.1296,101.021,303.866,0.00102252,175.203,-0.036838,-0.0636846,-0.00312167,0.0406464,-0.0353719,0.0763847,-4.31763e-06,-8.30775e-06,0.0507438,-0.003116802654271833,0.07937773090984357,-4.3176206790951355e-06,0.041483771766208655,-8.307715490762924e-06,-0.03475362562876272
140,0.1306,101.168,304.31,0.00102013,175.459,-0.036993,-0.0639526,-0.00314772,0.0409495,-0.0356457,0.076959,-4.35791e-06,-8.38706e-06,0.0511519,-0.0031427711233219524,0.07999779557523112,-4.3579005043481445e-06,0.0417994933426189,-8.387024828748757e-06,-0.03501787390882516
141,0.1316,101.314,304.753,0.00101775,175.714,-0.037147,-0.0642188,-0.00317377,0.0412524,-0.0359195,0.0775331,-4.39824e-06,-8.46647e-06,0.0515598,-0.0031687389159021917,0.08061800032240907,-4.398230327717911e-06,0.04211510220570158,-8.466434159526415e-06,-0.03528204984761263
142,0.1326,101.46,305.194,0.00101538,175.968,-0.0373001,-0.0644834,-0.0031998,0.0415551,-0.0361931,0.0781069,-4.43861e-06,-8.54599e-06,0.0519676,-0.003194686095924215,0.08123823685983922,-4.438600149425653e-06,0.04243059819504813,-8.545953483096724e-06,-0.03554596057414061
143,0.1336,101.606,305.634,0.00101301,176.22,-0.0374522,-0.0647462,-0.00322583,0.0418577,-0.0364666,0.0786804,-4.47903e-06,-8.62561e-06,0.0523752,-0.003220632600549944,0.08185850483351897,-4.479019969139131e-06,0.04274608542487246,-8.62557279956988e-06,-0.03580970268554573
144,0.1346,101.75,306.071,0.00101065,176.472,-0.0376033,-0.0650074,-0.00325185,0.0421602,-0.0367399,0.0792537,-4.5195e-06,-8.70532e-06,0.0527826,-0.003246568462262678,0.08247891213710101,-4.5194897870803885e-06,0.043061563829416505,-8.705282108834034e-06,-0.03607317988800207
145,0.1356,101.895,306.507,0.0010083,176.723,-0.0377534,-0.065267,-0.00327786,0.0424626,-0.0370132,0.0798267,-4.56e-06,-8.78513e-06,0.0531898,-0.003272493681858002,0.08309935029231141,-4.559989603247772e-06,0.0433770333429051,-8.785091410890011e-06,-0.03633658509197801
146,0.1366,102.038,306.942,0.00100596,176.973,-0.0379026,-0.065525,-0.00330386,0.0427647,-0.0372863,0.0803994,-4.60055e-06,-8.86503e-06,0.0535969,-0.0032984082601312803,0.08371981894446368,-4.6005394175319125e-06,0.04369228516106749,-8.864990705736986e-06,-0.03659972563711256
147,0.1376,102.182,307.374,0.00100363,177.222,-0.0380509,-0.0657813,-0.00332985,0.0430668,-0.0375593,0.0809719,-4.64115e-06,-8.94503e-06,0.0540038,-0.0033243121978774326,0.0843404261726779,-4.641139229932811e-06,0.044007632231191085,-8.944989993375785e-06,-0.03686269801465081
148,0.1386,102.324,307.805,0.00100131,177.47,-0.0381983,-0.0660361,-0.00335583,0.0433687,-0.0378322,0.0815441,-4.68178e-06,-9.02512e-06,0.0544106,-0.0033502054958911565,0.08496106331188558,-4.681769040448813e-06,0.044322865717462356,-9.025079273694558e-06,-0.03712550232308365
149,0.1396,102.466,308.235,0.00099899,177.717,-0.0383447,-0.0662892,-0.0033818,0.0436705,-0.0381049,0.082116,-4.72245e-06,-9.1053e-06,0.0548172,-0.0033760881549667054,0.08558173000671832,-4.72243884930279e-06,0.04463808992327589,-9.105258546915351e-06,-0.03738804239963378
150,0.1406,102.608,308.662,0.000996682,177.963,-0.0384902,-0.0665408,-0.00340776,0.0439721,-0.0383776,0.0826877,-4.76317e-06,-9.18557e-06,0.0552236,-0.003401960175897889,0.08620253452182514,-4.763158656162503e-06,0.04495320028745087,-9.185527812816119e-06,-0.03765051089126603
151,0.1416,102.749,309.089,0.000994382,178.208,-0.0386349,-0.0667909,-0.00343371,0.0442736,-0.0386501,0.0832591,-4.80392e-06,-9.26593e-06,0.0556298,-0.0034278215594784056,0.08682336800528545,-4.803908461248341e-06,0.045268301176409675,-9.265887071396861e-06,-0.03791271540006125
152,0.1426,102.889,309.513,0.00099209,178.452,-0.0387786,-0.0670394,-0.00345965,0.0445749,-0.0389225,0.0838303,-4.84471e-06,-9.34637e-06,0.0560359,-0.0034536723065015096,0.08744433884547842,-4.844698264450109e-06,0.04558328796593103,-9.346326322767773e-06,-0.03817475228534217
153,0.1436,103.029,309.936,0.000989806,178.695,-0.0389214,-0.0672864,-0.00348559,0.0448761,-0.0391948,0.0844011,-4.88554e-06,-9.4269e-06,0.0564418,-0.0034795223829648947,0.08806522925935756,-4.885528065767808e-06,0.04589826508543937,-9.426855566929682e-06,-0.03843662164516348
154,0.1446,103.169,310.357,0.00098753,178.938,-0.0390634,-0.0675319,-0.00351151,0.0451772,-0.0394669,0.0849717,-4.92641e-06,-9.50751e-06,0.0568476,-0.0035053518589933663,0.0886862564413784,-4.92639786531246e-06,0.04621323246901654,-9.507464803770738e-06,-0.038698227447330424
155,0.1456,103.308,310.777,0.000985263,179.179,-0.0392045,-0.0677759,-0.00353743,0.0454781,-0.039739,0.0855421,-4.96731e-06,-9.58821e-06,0.0572532,-0.0035311806655303757,0.08930742022112081,-4.967297662972214e-06,0.046528085397913976,-9.588164033291768e-06,-0.03895976207624208
156,0.1466,103.446,311.196,0.000983003,179.42,-0.0393448,-0.0680184,-0.00356333,0.0457789,-0.0400109,0.0861122,-5.00825e-06,-9.66898e-06,0.0576586,-0.0035569888737333466,0.08992861143511988,-5.0082374587478995e-06,0.04684292839601478,-9.668933255602141e-06,-0.0392210333954881
157,0.1476,103.584,311.612,0.000980751,179.66,-0.0394842,-0.0682595,-0.00358923,0.0460796,-0.0402827,0.086682,-5.04922e-06,-9.74984e-06,0.0580638,-0.0035827964135124457,0.09054982972619907,-5.04920725274971e-06,0.04715776139735284,-9.749792470481466e-06,-0.03948213763293784
158,0.1486,103.721,312.028,0.000978507,179.898,-0.0396228,-0.0684991,-0.00361511,0.0463801,-0.0405544,0.0872515,-5.09023e-06,-9.83077e-06,0.0584689,-0.003608583357056827,0.09117107473695407,-5.090217044756429e-06,0.04747247958869272,-9.830721678150134e-06,-0.03974307488621187
159,0.1496,103.858,312.441,0.000976271,180.136,-0.0397605,-0.0687373,-0.00364099,0.0466804,-0.0408259,0.0878208,-5.13128e-06,-9.91178e-06,0.0588738,-0.003634369633243706,0.09179245528899349,-5.1312668349901e-06,0.047787082809622516,-9.911730878497949e-06,-0.0400037492532338
160,0.1506,103.995,312.853,0.000974043,180.374,-0.0398974,-0.068974,-0.00366686,0.0469807,-0.0410974,0.0883899,-5.17236e-06,-9.99287e-06,0.0592785,-0.003660145278691851,0.09241397121087958,-5.172346623338875e-06,0.048101780520086734,-9.992820071413888e-06,-0.040264352856771546
161,0.1516,104.131,313.264,0.000971823,180.61,-0.0400335,-0.0692094,-0.00369271,0.0472807,-0.0413687,0.0889586,-5.21347e-06,-1.0074e-05,0.0596831,-0.003685900331050873,0.09303540372389363,-5.213456409913775e-06,0.04841625822353968,-1.0073949257449755e-05,-0.040524693820992885
162,0.1526,104.266,313.673,0.00096961,180.845,-0.0401688,-0.0694433,-0.00371856,0.0475807,-0.0416399,0.0895271,-5.25461e-06,-1.01553e-05,0.0600875,-0.0037116547176504477,0.09365697101467263,-5.254596194603778e-06,0.04873083028445646,-1.0155248435061992e-05,-0.04078486824278238
163,0.1536,104.401,314.081,0.000967405,181.08,-0.0403032,-0.0696758,-0.0037444,0.0478805,-0.041911,0.0900954,-5.29579e-06,-1.02366e-05,0.0604917,-0.003737398475881726,0.09427867291116176,-5.295775977298689e-06,0.04904528692207055,-1.0236547606234936e-05,-0.041044876219328064
164,0.1546,104.535,314.488,0.000965209,181.314,-0.0404369,-0.069907,-0.00377023,0.0481802,-0.0421819,0.0906634,-5.337e-06,-1.0318e-05,0.0608958,-0.003763131606534298,0.09490039975108244,-5.3369857582197255e-06,0.04935973291193907,-1.0317946769644593e-05,-0.04130462197820872
165,0.1556,104.669,314.893,0.000963019,181.547,-0.0405698,-0.0701369,-0.00379605,0.0484797,-0.0424528,0.0912311,-5.37824e-06,-1.03994e-05,0.0612997,-0.0037888541103973106,0.0955221511754647,-5.378225537255865e-06,0.049674063220560116,-1.0399345926392911e-05,-0.041564297381493365
166,0.1566,104.803,315.296,0.000960838,181.779,-0.0407019,-0.0703653,-0.00382186,0.0487791,-0.0427235,0.0917985,-5.4195e-06,-1.04809e-05,0.0617034,-0.0038145659882594662,0.09614392682511208,-5.419485314517303e-06,0.04998838268636452,-1.0480845075599987e-05,-0.04182371081300018
167,0.1576,104.936,315.698,0.000958664,182.01,-0.0408332,-0.0705925,-0.00384766,0.0490783,-0.0429941,0.0923657,-5.4608e-06,-1.05625e-05,0.062107,-0.0038402672409093563,0.09676583601718103,-5.460785089894671e-06,0.05030258621296779,-1.0562444217043776e-05,-0.04208295823909547
168,0.1586,105.069,316.099,0.000956498,182.241,-0.0409637,-0.0708183,-0.00387345,0.0493774,-0.0432646,0.0929326,-5.50213e-06,-1.06441e-05,0.0625104,-0.003865957869135128,0.09738776883982148,-5.50211486327612e-06,0.05061677870164849,-1.0644043351715204e-05,-0.04234203975653683
169,0.1596,105.201,316.498,0.00095434,182.47,-0.0410935,-0.0710428,-0.00389923,0.0496764,-0.043535,0.0934993,-5.54349e-06,-1.07259e-05,0.0629136,-0.003891637873724596,0.09800983473414626,-5.543474634883694e-06,0.05093096008625664,-1.0725842477743441e-05,-0.04260095546200571
170,0.1606,105.332,316.896,0.000952189,182.699,-0.0412226,-0.071266,-0.003925,0.0499752,-0.0438052,0.0940657,-5.58487e-06,-1.08076e-05,0.0633167,-0.003917307255465241,0.0986319236634936,-5.584854404605544e-06,0.051245025176118064,-1.0807541598101267e-05,-0.042859609738073456
171,0.1616,105.464,317.293,0.000950045,182.927,-0.0413508,-0.0714879,-0.00395077,0.0502739,-0.0440753,0.0946319,-5.62629e-06,-1.08895e-05,0.0637196,-0.003942975975714358,0.09925414519296405,-5.626274172443324e-06,0.05155907896673684,-1.0889440709593856e-05,-0.043118098447011644
172,0.1626,105.594,317.688,0.00094791,183.155,-0.0414784,-0.0717085,-0.00397652,0.0505725,-0.0443454,0.0951978,-5.66773e-06,-1.09714e-05,0.0641223,-0.003968624113861785,0.09987638916105368,-5.66771393839538e-06,0.05187312139191702,-1.0971339814425107e-05,-0.043376517347577526
173,0.1636,105.725,318.081,0.000945781,183.381,-0.0416052,-0.0719279,-0.00400226,0.0508709,-0.0446152,0.0957634,-5.70919e-06,-1.10534e-05,0.0645248,-0.003994261631520835,0.10049865520701218,-5.709173702572734e-06,0.0521870471667365,-1.1053338911382049e-05,-0.04363457954904071
174,0.1646,105.855,318.474,0.00094366,183.607,-0.0417313,-0.072146,-0.00402799,0.0511692,-0.044885,0.0963287,-5.75069e-06,-1.11354e-05,0.0649272,-0.004019888529477655,0.10112094296986518,-5.7506734648660185e-06,0.05250096138088356,-1.1135338001677653e-05,-0.04389257213471365
175,0.1656,105.984,318.865,0.000941547,183.832,-0.0418566,-0.0723628,-0.00405372,0.0514674,-0.0451547,0.0968938,-5.79221e-06,-1.12175e-05,0.0653294,-0.004045514768062808,0.10174336226274505,-5.792193225162556e-06,0.05281486396811719,-1.1217437084098947e-05,-0.044150399538420704
176,0.1666,106.113,319.255,0.000939441,184.056,-0.0419812,-0.0725784,-0.00407943,0.0517654,-0.0454242,0.0974587,-5.83375e-06,-1.12996e-05,0.0657315,-0.004071120428715935,0.10236591291096264,-5.833732983684392e-06,0.05312864954930907,-1.129953615974788e-05,-0.04440796629706545
177,0.1676,106.242,319.643,0.000937342,184.28,-0.0421051,-0.0727928,-0.00410514,0.0520632,-0.0456936,0.0980233,-5.87532e-06,-1.13818e-05,0.0661334,-0.004096725431055992,0.10298848444079689,-5.875302740321331e-06,0.05344231796405374,-1.1381735227522505e-05,-0.04466536811736299
178,0.1686,106.37,320.031,0.000935251,184.502,-0.0422284,-0.073006,-0.00413083,0.052361,-0.0459629,0.0985876,-5.91692e-06,-1.14641e-05,0.0665351,-0.004122309857546247,0.10361107649039236,-5.916902495073373e-06,0.05375607980316244,-1.146403428742282e-05,-0.044922605095215284
179,0.1696,106.497,320.416,0.000933167,184.724,-0.0423509,-0.073218,-0.00415652,0.0526586,-0.0462321,0.0991517,-5.95853e-06,-1.15464e-05,0.0669366,-0.004147893626781141,0.10423379912104558,-5.958512248049885e-06,0.05406972428049528,-1.1546333340550774e-05,-0.0451796773264489
180,0.1706,106.625,320.801,0.00093109,184.946,-0.0424727,-0.0734287,-0.00418219,0.052956,-0.0465012,0.0997155,-6.00017e-06,-1.16288e-05,0.067338,-0.0041734568222466795,0.10485654167161895,-6.000151999030479e-06,0.05438325123564347,-1.1628732385804419e-05,-0.045436584906815014
181,0.1716,106.752,321.184,0.00092902,185.166,-0.0425938,-0.0736383,-0.00420786,0.0532533,-0.0467701,0.100279,-6.04184e-06,-1.17112e-05,0.0677392,-0.004199019361513456,0.10547930377959602,-6.041821748126175e-06,0.05469676597789319,-1.1711131424174681e-05,-0.04569323250131807
182,0.1726,106.878,321.566,0.000926958,185.386,-0.0427142,-0.0738467,-0.00423351,0.0535505,-0.0470389,0.100842,-6.08353e-06,-1.17936e-05,0.0681403,-0.004224561329089771,0.10610186386184273,-6.083511495336147e-06,0.05501026844090018,-1.1793530455772583e-05,-0.04594971568753714
183,0.1736,107.004,321.947,0.000924903,185.605,-0.042834,-0.0740539,-0.00425916,0.0538476,-0.0473076,0.101405,-6.12523e-06,-1.18762e-05,0.0685412,-0.004250102641522924,0.10672477454410045,-6.1252112407705894e-06,0.05532375855830507,-1.1876129478172182e-05,-0.04620603456094907
184,0.1746,107.13,322.327,0.000922855,185.823,-0.0429531,-0.07426,-0.0042848,0.0541445,-0.0475762,0.101968,-6.16696e-06,-1.19587e-05,0.0689419,-0.004275633341586205,0.10734803602381238,-6.166940984320135e-06,0.055637130700013415,-1.1958628495012391e-05,-0.04646218921695566
185,0.1756,107.255,322.705,0.000920814,186.041,-0.0430715,-0.074465,-0.00431042,0.0544413,-0.0478447,0.102531,-6.20872e-06,-1.20414e-05,0.0693424,-0.004301143473073754,0.10797164849853336,-6.208700725984784e-06,0.055950490300669564,-1.2041327502654298e-05,-0.04671817975088388
186,0.1766,107.38,323.082,0.00091878,186.258,-0.0431893,-0.0746687,-0.00433604,0.0547379,-0.0481131,0.103093,-6.25049e-06,-1.2124e-05,0.0697428,-0.004326652951000209,0.10859450357087108,-6.250470465762881e-06,0.05626373166749121,-1.2123926504625793e-05,-0.046974006257985645
187,0.1776,107.504,323.458,0.000916753,186.474,-0.0433064,-0.0748714,-0.00436165,0.0550344,-0.0483813,0.103655,-6.29228e-06,-1.22067e-05,0.070143,-0.004352151818903693,0.10921770878614034,-6.292260203655253e-06,0.05657696029778014,-1.2206625498500934e-05,-0.04722957355640067
188,0.1786,107.628,323.833,0.000914734,186.69,-0.0434228,-0.0750729,-0.00438724,0.0553308,-0.0486494,0.104217,-6.33409e-06,-1.22895e-05,0.070543,-0.004377630121342402,0.10984126434117703,-6.3340699396619016e-06,0.05689017612510505,-1.2289424484390743e-05,-0.0474849770693595
189,0.1796,107.752,324.206,0.000912721,186.905,-0.0435386,-0.0752734,-0.00441283,0.055627,-0.0489174,0.104778,-6.37592e-06,-1.23723e-05,0.0709429,-0.004403107771799641,0.11046405996831177,-6.375899673893848e-06,0.05720327336268505,-1.237222346339717e-05,-0.047740216891840936
190,0.1806,107.875,324.578,0.000910715,187.119,-0.0436538,-0.0754727,-0.00443841,0.0559231,-0.0491853,0.105339,-6.41778e-06,-1.24552e-05,0.0713426,-0.004428574814578035,0.11108720508181524,-6.417759406129875e-06,0.05751635760176188,-1.2455122434307242e-05,-0.047995293118749505
191,0.1816,107.998,324.949,0.000908716,187.332,-0.0437683,-0.0756709,-0.00446398,0.056219,-0.0494531,0.1059,-6.45965e-06,-1.25381e-05,0.0717421,-0.004454031250458068,0.11171069987780435,-6.45962913647935e-06,0.057829322992922316,-1.2538021398333932e-05,-0.048250205844914795
192,0.1826,108.12,325.319,0.000906724,187.545,-0.0438822,-0.0758681,-0.00448954,0.0565149,-0.0497207,0.106461,-6.50153e-06,-1.2621e-05,0.0721415,-0.004479477080220229,0.11233454455250547,-6.501508865053296e-06,0.058142381004244514,-1.2620920355477239e-05,-0.04850486001558296
193,0.1836,108.242,325.688,0.000904739,187.757,-0.0439955,-0.0760641,-0.00451509,0.0568105,-0.0499882,0.107022,-6.54344e-06,-1.2704e-05,0.0725407,-0.004504912304644448,0.1129587393022562,-6.543418591742345e-06,0.05845521412652688,-1.2703919304524192e-05,-0.04875935092585204
194,0.1846,108.364,326.056,0.000902761,187.969,-0.0441081,-0.0762591,-0.00454063,0.0571061,-0.0502556,0.107582,-6.58536e-06,-1.2787e-05,0.0729398,-0.004530336924510436,0.11358217074077581,-6.585338316544842e-06,0.05876813973594919,-1.2786918246687762e-05,-0.049013678670279615
195,0.1856,108.485,326.422,0.000900789,188.179,-0.0442201,-0.0764531,-0.00456615,0.0574015,-0.0505229,0.108142,-6.6273e-06,-1.28701e-05,0.0733386,-0.004555740986154966,0.11420595139867351,-6.627278039461615e-06,0.05908094604364411,-1.2870017180643956e-05,-0.049267843343349105
196,0.1866,108.606,326.787,0.000898824,188.39,-0.0443316,-0.0766459,-0.00459167,0.0576968,-0.0507901,0.108701,-6.66926e-06,-1.29532e-05,0.0737373,-0.004581144399495973,0.11482896664204256,-6.669237760492663e-06,0.05939373882859256,-1.2953116107716767e-05,-0.04952184503946999
197,0.1876,108.727,327.151,0.000896866,188.599,-0.0444424,-0.0768378,-0.00461718,0.0579919,-0.0510572,0.109261,-6.71123e-06,-1.30363e-05,0.0741359,-0.004606537210615658,0.11545344570117888,-6.7112074797481824e-06,0.05970641205358618,-1.3036215027795173e-05,-0.04977568385297726
198,0.1886,108.847,327.514,0.000894915,188.808,-0.0445526,-0.0770286,-0.00464268,0.058287,-0.0513241,0.10982,-6.75322e-06,-1.31195e-05,0.0745342,-0.004631919420292285,0.11607715848880851,-6.753197197006955e-06,0.06001917756206421,-1.3119413939777225e-05,-0.05002926488106341
199,0.1896,108.966,327.876,0.00089297,189.016,-0.0446622,-0.0772183,-0.00466817,0.0585818,-0.0515909,0.110379,-6.79523e-06,-1.32027e-05,0.0749324,-0.0046572910293036784,0.11670122002935357,-6.795206912491025e-06,0.060331717281700614,-1.3202612844764872e-05,-0.05028268326567742
200,0.1906,109.086,328.237,0.000891032,189.224,-0.0447712,-0.0774071,-0.00469365,0.0588766,-0.0518577,0.110938,-6.83725e-06,-1.3286e-05,0.0753305,-0.004682652038427659,0.11732563051782186,-6.837226626088544e-06,0.06064434915162886,-1.3285911741545142e-05,-0.05053603404728502
201,0.1916,109.205,328.596,0.0008891,189.43,-0.0448796,-0.0775948,-0.00471913,0.0591712,-0.0521243,0.111496,-6.87928e-06,-1.33693e-05,0.0757283,-0.004708012401361317,0.11794927219949836,-6.879256337799511e-06,0.060956861007624985,-1.3369210631331008e-05,-0.05078912740176478
202,0.1926,109.324,328.955,0.000887176,189.637,-0.0449874,-0.0777815,-0.00474459,0.0594657,-0.0523907,0.112054,-6.92133e-06,-1.34526e-05,0.076126,-0.0047333522127884775,0.11857326197034124,-6.9213060476247534e-06,0.06126935881623541,-1.345250951423349e-05,-0.05104196349896151
203,0.1936,109.442,329.312,0.000885257,189.842,-0.0450947,-0.0779673,-0.00477004,0.05976,-0.0526571,0.112612,-6.9634e-06,-1.35359e-05,0.0765236,-0.004758681426659028,0.11919760002463797,-6.963375755564272e-06,0.061581736352634975,-1.3535808390141568e-05,-0.05129473224959291
204,0.1946,109.56,329.669,0.000883345,190.047,-0.0452014,-0.078152,-0.00479548,0.0600542,-0.0529233,0.11317,-7.00547e-06,-1.36193e-05,0.0769209,-0.004784000043749348,0.1198222865567855,-7.005445461727433e-06,0.06189409964585724,-1.3619207257731247e-05,-0.05154724398106547
205,0.1956,109.677,330.024,0.00088144,190.252,-0.0453075,-0.0783357,-0.00482091,0.0603483,-0.0531895,0.113727,-7.04756e-06,-1.37028e-05,0.0773181,-0.004809308064835371,0.12044620131452688,-7.04753516600487e-06,0.06220644862922975,-1.370270611711355e-05,-0.051799688502861096
206,0.1966,109.795,330.378,0.000879541,190.456,-0.045413,-0.0785185,-0.00484633,0.0606422,-0.0534555,0.114285,-7.08967e-06,-1.37862e-05,0.0777152,-0.0048346054906927005,0.12107158476061497,-7.089644868396583e-06,0.06251867698419122,-1.3786104970825441e-05,-0.05205187624326291
207,0.1976,109.911,330.731,0.000877649,190.659,-0.045518,-0.0787003,-0.00487174,0.060936,-0.0537214,0.114841,-7.13178e-06,-1.38697e-05,0.078112,-0.004859892322096604,0.12169507387565393,-7.1317545689009165e-06,0.06283089083345783,-1.3869603816107912e-05,-0.05230390214104175
208,0.1986,110.028,331.083,0.000875762,190.861,-0.0456224,-0.0788811,-0.00489715,0.0612297,-0.0539871,0.115398,-7.17391e-06,-1.39532e-05,0.0785087,-0.004885178510970367,0.12232003206650122,-7.173884267519526e-06,0.06314309011031516,-1.3953102654507e-05,-0.05255567154519636
209,0.1996,110.144,331.434,0.000873883,191.063,-0.0457263,-0.079061,-0.00492254,0.0615232,-0.0542528,0.115955,-7.21605e-06,-1.40368e-05,0.0789053,-0.0049104441555392064,0.12294533845602507,-7.216023964362606e-06,0.06345516840251175,-1.4036701484587688e-05,-0.05280737406310654
210,0.2006,110.26,331.784,0.000872009,191.265,-0.0458296,-0.0792399,-0.00494792,0.0618166,-0.0545183,0.116511,-7.2582e-06,-1.41203e-05,0.0793016,-0.00493569920797865,0.12356986966779471,-7.258173659319134e-06,0.06376723192640132,-1.4120200308997966e-05,-0.05305882032432463
211,0.2016,110.376,332.133,0.000870142,191.465,-0.0459323,-0.0794179,-0.00497329,0.0621099,-0.0547838,0.117067,-7.30037e-06,-1.42039e-05,0.0796978,-0.004960943669062301,0.12419474821546861,-7.3003433523899375e-06,0.0640792806152286,-1.4203799125089844e-05,-0.053310199835421734
212,0.2026,110.491,332.481,0.000868281,191.665,-0.0460345,-0.079595,-0.00499866,0.062403,-0.0550491,0.117622,-7.34254e-06,-1.42876e-05,0.0800939,-0.004986187489702254,0.12481884947280708,-7.342513043573362e-06,0.06439120796309661,-1.4287497932752302e-05,-0.0535613233264014
213,0.2036,110.605,332.828,0.000866427,191.865,-0.0461362,-0.0797711,-0.00502401,0.062696,-0.0553143,0.118178,-7.38473e-06,-1.43712e-05,0.0804897,-0.005011410770142999,0.1254444226463407,-7.384702732982085e-06,0.06470312027995284,-1.4371096734855371e-05,-0.053812285584389
214,0.2046,110.72,333.174,0.000864578,192.064,-0.0462373,-0.0799463,-0.00504935,0.0629889,-0.0555793,0.118733,-7.42692e-06,-1.44549e-05,0.0808854,-0.005036623461547873,0.1260692176654894,-7.426892420503428e-06,0.06501501749900074,-1.4454795528417996e-05,-0.05406299210862742
215,0.2056,110.834,333.518,0.000862736,192.262,-0.0463379,-0.0801206,-0.00507469,0.0632816,-0.0558443,0.119288,-7.46913e-06,-1.45386e-05,0.081281,-0.005061835514071356,0.12669435954211794,-7.469102106139047e-06,0.0653267930207444,-1.4538494315097239e-05,-0.05431363220443919
216,0.2066,110.948,333.862,0.0008609,192.46,-0.046438,-0.0802939,-0.00510001,0.0635742,-0.0561092,0.119842,-7.51134e-06,-1.46224e-05,0.0816763,-0.00508702702947017,0.1273187211495006,-7.5113117899983095e-06,0.0656385532486794,-1.4622293093236038e-05,-0.05456411134584127
217,0.2076,111.061,334.205,0.00085907,192.657,-0.0465376,-0.0804664,-0.00512532,0.0638667,-0.0563739,0.120397,-7.55357e-06,-1.47061e-05,0.0820715,-0.005112207958150039,0.1279445566930375,-7.553541471860825e-06,0.06595029811596875,-1.4705991865815449e-05,-0.054814335106992185
218,0.2086,111.175,334.547,0.000857246,192.854,-0.0466366,-0.080638,-0.00515063,0.064159,-0.0566385,0.120951,-7.5958e-06,-1.47899e-05,0.0824666,-0.005137388249508712,0.12856961110152998,-7.595771151946984e-06,0.06626192092956362,-1.4789790629965438e-05,-0.05506439814912345
219,0.2096,111.287,334.888,0.000855428,193.05,-0.0467351,-0.0808086,-0.00517592,0.0644512,-0.056903,0.121505,-7.63805e-06,-1.48737e-05,0.0828614,-0.005162548006813372,0.12919501188610205,-7.638020830147418e-06,0.06657352818646234,-1.4873589387121022e-05,-0.05531430056476161
220,0.2106,111.4,335.228,0.000853616,193.246,-0.0468331,-0.0809784,-0.00520121,0.0647433,-0.0571674,0.122058,-7.6803e-06,-1.49575e-05,0.0832562,-0.005187707127835894,0.129819629418505,-7.680270506571496e-06,0.06688511981978817,-1.495738813717118e-05,-0.055564042446360595
221,0.2116,111.512,335.566,0.00085181,193.441,-0.0469305,-0.0811474,-0.00522648,0.0650353,-0.0574317,0.122612,-7.72256e-06,-1.50414e-05,0.0836507,-0.005212845716849324,0.1304457229050855,-7.722530181109022e-06,0.0671966957626493,-1.5041286878680893e-05,-0.055813623886301955
222,0.2126,111.624,335.904,0.00085001,193.635,-0.0470275,-0.0813154,-0.00525175,0.0653271,-0.0576958,0.123165,-7.76483e-06,-1.51252e-05,0.0840451,-0.005237983670618673,0.1310710322719566,-7.764799853759996e-06,0.06750814919731907,-1.512508561474224e-05,-0.05606295058319399
223,0.2136,111.735,336.241,0.000848217,193.829,-0.0471237,-0.0814827,-0.005277,0.0656187,-0.0579599,0.123718,-7.80712e-06,-1.52091e-05,0.0844393,-0.0052631010944221845,0.13169668753053765,-7.807089524525246e-06,0.06781947996344462,-1.5208984342263143e-05,-0.05631221144159981
224,0.2146,111.847,336.577,0.000846664,194.022,-0.0472208,-0.0816502,-0.00530225,0.0659103,-0.0582238,0.124271,-7.84945e-06,-1.52931e-05,0.0848333,-0.0052882178840187866,0.13232268887216003,-7.849419193184382e-06,0.06813090152685919,-1.529298306113258e-05,-0.056561217791167406
225,0.2156,111.958,336.912,0.00084487,194.215,-0.0473177,-0.0818182,-0.00532748,0.0662017,-0.0584876,0.124823,-7.89181e-06,-1.53771e-05,0.0852272,-0.005313314145690917,0.13294790353979025,-7.891778859736576e-06,0.06844220022558178,-1.5376981773007614e-05,-0.05681006411764056
226,0.2166,112.068,337.246,0.000843127,194.407,-0.0474149,-0.0819867,-0.00535271,0.066493,-0.0587513,0.125375,-7.9342e-06,-1.54612e-05,0.0856209,-0.00533840977419231,0.13357346342118714,-7.93416852429285e-06,0.06875348277460946,-1.546108047623118e-05,-0.057058750512990475
227,0.2176,112.178,337.579,0.000841366,194.599,-0.0475124,-0.0821555,-0.00537792,0.0667841,-0.0590149,0.125927,-7.97663e-06,-1.55453e-05,0.0860145,-0.005363484876808933,0.13419936870696159,-7.976598186743011e-06,0.06906464220050235,-1.5545179172460344e-05,-0.05730727706911609
228,0.2186,112.288,337.912,0.000839619,194.79,-0.0476101,-0.0823248,-0.00540313,0.0670752,-0.0592783,0.126479,-8.01909e-06,-1.56295e-05,0.0864078,-0.0053885593472901006,0.13482561958782924,-8.019057847197253e-06,0.06937589221808915,-1.562937786003804e-05,-0.057555549633403924
229,0.2196,112.398,338.243,0.000837874,194.981,-0.047708,-0.0824945,-0.00542832,0.0673661,-0.0595417,0.12703,-8.06159e-06,-1.57138e-05,0.0868011,-0.005413613293924424,0.13545108080296275,-8.061557505434358e-06,0.06968701891631945,-1.571367653885325e-05,-0.057803756811310114
230,0.2206,112.507,338.573,0.000836136,195.171,-0.0478061,-0.0826646,-0.00545351,0.0676568,-0.0598049,0.127581,-8.10412e-06,-1.57982e-05,0.0871941,-0.005438666609457687,0.13607688674218843,-8.104087161675544e-06,0.06999802213484618,-1.5798075209128015e-05,-0.058051710230416
231,0.2216,112.616,338.903,0.000834403,195.36,-0.0479045,-0.0828351,-0.00547869,0.0679474,-0.060068,0.128132,-8.14669e-06,-1.58826e-05,0.087587,-0.005463709348543011,0.13670303759550184,-8.146656815810616e-06,0.0703090087442444,-1.588247387218633e-05,-0.05829950422672481
232,0.2226,112.725,339.231,0.000832675,195.549,-0.0480032,-0.0830061,-0.00550385,0.0682379,-0.0603311,0.128683,-8.18929e-06,-1.59671e-05,0.0879797,-0.005488731566835048,0.1373295335530027,-8.189256467838746e-06,0.0706199786774806,-1.596697252648216e-05,-0.058547233037008706
233,0.2236,112.834,339.559,0.000830953,195.738,-0.0481021,-0.0831774,-0.00552901,0.0685283,-0.0605939,0.129233,-8.23193e-06,-1.60516e-05,0.0883723,-0.005513753155575896,0.1379552368490904,-8.231896117760762e-06,0.07093093186750643,-1.6051471173783582e-05,-0.05879461431684263
234,0.2246,112.942,339.885,0.000829237,195.926,-0.0482012,-0.0833492,-0.00555416,0.0688185,-0.0608567,0.129783,-8.27461e-06,-1.61362e-05,0.0887647,-0.005538764170169186,0.13858128437664585,-8.274575765465642e-06,0.07124176112307778,-1.6136069812211495e-05,-0.05904193059341811
235,0.2256,113.05,340.211,0.000827526,196.113,-0.0483006,-0.0835214,-0.0055793,0.0691087,-0.0611194,0.130333,-8.31732e-06,-1.62209e-05,0.0891569,-0.0055637646113810835,0.1392076763250485,-8.317285411174602e-06,0.07155268059438913,-1.622076844187692e-05,-0.05928908781272901
236,0.2266,113.157,340.536,0.00082582,196.3,-0.0484002,-0.083694,-0.00560442,0.0693986,-0.0613819,0.130883,-8.36006e-06,-1.63057e-05,0.089549,-0.005588744535864887,0.13983441288378207,-8.36002505477662e-06,0.07186336874856547,-1.6305567062779858e-05,-0.05953599201958326
237,0.2276,113.264,340.86,0.00082412,196.486,-0.0485,-0.083867,-0.00562954,0.0696885,-0.0616444,0.131432,-8.40285e-06,-1.63905e-05,0.0899409,-0.005613723832860851,0.14046035378151012,-8.40281469616233e-06,0.07217414698429425,-1.6390365676466345e-05,-0.05978283142258911
238,0.2286,113.371,341.183,0.000822425,196.672,-0.0486001,-0.0840404,-0.00565465,0.0699782,-0.0619067,0.131982,-8.44566e-06,-1.64754e-05,0.0903326,-0.005638692558771807,0.14108777950234663,-8.445624335551294e-06,0.07248480083071263,-1.6475264281390345e-05,-0.06002941804465767
239,0.2296,113.478,341.506,0.000820736,196.858,-0.0487004,-0.0842142,-0.00567975,0.0702678,-0.0621689,0.132531,-8.48852e-06,-1.65604e-05,0.0907242,-0.005663650714362367,0.14171440868726592,-8.488483972612926e-06,0.07279543740703853,-1.6560262877329812e-05,-0.06027584602312652
240,0.2306,113.584,341.827,0.000819052,197.043,-0.048801,-0.0843885,-0.00570484,0.0705572,-0.062431,0.133079,-8.53141e-06,-1.66455e-05,0.0911156,-0.005688598300397141,0.14234023964524734,-8.531373607678638e-06,0.07310594933553283,-1.664536146439577e-05,-0.060522115448865876
241,0.2316,113.69,342.148,0.000817373,197.227,-0.0489018,-0.0845632,-0.00572992,0.0708466,-0.062693,0.133628,-8.57434e-06,-1.67306e-05,0.0915068,-0.005713535317640295,0.14296755661956584,-8.574303240416192e-06,0.07341655113918377,-1.6730460044245277e-05,-0.0607682264126741
242,0.2326,113.796,342.467,0.000815699,197.411,-0.0490028,-0.0847383,-0.00575499,0.0711358,-0.0629548,0.134176,-8.61731e-06,-1.68158e-05,0.0918979,-0.0057384617668555515,0.1435940744908113,-8.617272871047632e-06,0.07372702809857756,-1.6815658615221274e-05,-0.06101408510669204
243,0.2336,113.902,342.786,0.00081403,197.594,-0.0491041,-0.0849138,-0.00578005,0.0714248,-0.0632166,0.134724,-8.66031e-06,-1.6901e-05,0.0922888,-0.0057633776488063004,0.14422093578794026,-8.66027249957213e-06,0.07403738005339555,-1.69008571788698e-05,-0.06125987944332856
244,0.2346,114.007,343.104,0.000812367,197.777,-0.0492056,-0.0850897,-0.0058051,0.0717138,-0.0634782,0.135272,-8.70336e-06,-1.69864e-05,0.0926796,-0.00578828296425582,0.1448481406992017,-8.70332212588032e-06,0.07434782171289012,-1.698625573187673e-05,-0.06150542174053342
245,0.2356,114.112,343.421,0.000810709,197.96,-0.0493073,-0.085266,-0.00583014,0.0720026,-0.0637398,0.135819,-8.74644e-06,-1.70718e-05,0.0930702,-0.005813177713966833,0.1454745439378311,-8.746401749970545e-06,0.07465813817134048,-1.7071654277667214e-05,-0.06175089981227433
246,0.2366,114.216,343.738,0.000809056,198.142,-0.0494093,-0.0854428,-0.00585517,0.0722913,-0.0640012,0.136366,-8.78956e-06,-1.71573e-05,0.0934606,-0.005838061898701841,0.14610128991276206,-8.789521371954656e-06,0.07496843676527742,-1.7157152814362142e-05,-0.06199612607459459
247,0.2376,114.321,344.053,0.000807409,198.323,-0.0495116,-0.0856199,-0.00588019,0.0725798,-0.0642625,0.136913,-8.83271e-06,-1.72428e-05,0.0938509,-0.0058629355192227894,0.14672837881152212,-8.832670991720803e-06,0.07527860989960744,-1.7242651343729598e-05,-0.06224119446727139
248,0.2386,114.425,344.368,0.000805766,198.504,-0.049614,-0.0857975,-0.0059052,0.0728682,-0.0645237,0.13746,-8.87591e-06,-1.73285e-05,0.094241,-0.005887798576291625,0.14735581082174254,-8.875870609270642e-06,0.07558876497291434,-1.732834986245546e-05,-0.062486105080558074
249,0.2396,114.529,344.682,0.000804129,198.685,-0.0497168,-0.0859755,-0.0059302,0.0731565,-0.0647847,0.138007,-8.91914e-06,-1.74142e-05,0.0946309,-0.005912651070669739,0.14798358613115603,-8.919100224602516e-06,0.07589890191794857,-1.741404837374283e-05,-0.06273076427771784
250,0.2406,114.632,344.995,0.000802496,198.865,-0.0498197,-0.0861539,-0.00595519,0.0734447,-0.0650457,0.138553,-8.96241e-06,-1.75e-05,0.0950207,-0.005937493003118299,0.14861055631646836,-8.962369837717254e-06,0.07620902066744661,-1.7499846875934644e-05,-0.06297535962715983
251,0.2416,114.736,345.307,0.000800869,199.044,-0.0499229,-0.0863327,-0.00598017,0.0737327,-0.0653065,0.139099,-9.00572e-06,-1.75858e-05,0.0954103,-0.00596232437439792,0.1492378689209739,-9.005679448614856e-06,0.07651901350222423,-1.7585645370687963e-05,-0.06321970378950537
252,0.2426,114.839,345.618,0.000799246,199.223,-0.0500263,-0.0865119,-0.00600514,0.0740206,-0.0655673,0.139645,-9.04907e-06,-1.76718e-05,0.0957997,-0.005987145185269216,0.1498655241316844,-9.049029057295321e-06,0.07682898794489157,-1.7671643854688668e-05,-0.06346398423520228
253,0.2436,114.941,345.929,0.000797629,199.402,-0.05013,-0.0866916,-0.00603011,0.0743084,-0.0658279,0.14019,-9.09246e-06,-1.77578e-05,0.096189,-0.006011965376372608,0.1504923716427673,-9.09241866375865e-06,0.07713894392814868,-1.7757642331250878e-05,-0.06370801372248736
254,0.2446,115.044,346.239,0.000796017,199.58,-0.0502339,-0.0868716,-0.00605506,0.0745961,-0.0660884,0.140735,-9.13589e-06,-1.78439e-05,0.0965781,-0.00603676506845896,0.15111956087885514,-9.13584826789382e-06,0.07744888138468209,-1.784374079860651e-05,-0.0639518860191669
255,0.2456,115.146,346.548,0.000794409,199.758,-0.050338,-0.0870521,-0.00608,0.0748836,-0.0663488,0.14128,-9.17936e-06,-1.79301e-05,0.0969671,-0.006061554202416386,0.15174709202623915,-9.179317869811854e-06,0.07775869247128986,-1.7929939256755567e-05,-0.06419560121495183
256,0.2466,115.248,346.856,0.000792807,199.935,-0.0504424,-0.087233,-0.00610494,0.075171,-0.0666091,0.141825,-9.22287e-06,-1.80163e-05,0.0973559,-0.006086342718140458,0.15237496527131156,-9.222827469512751e-06,0.07806848483453632,-1.801613770746613e-05,-0.06443915939948275
257,0.2476,115.35,347.163,0.000791209,200.112,-0.050547,-0.0874143,-0.00612986,0.0754583,-0.0668693,0.14237,-9.26642e-06,-1.81026e-05,0.0977445,-0.006111110737869185,0.15300318080056652,-9.26637706688549e-06,0.07837825840707224,-1.8102436148970114e-05,-0.06468256066232936
258,0.2486,115.451,347.47,0.000789616,200.288,-0.0506519,-0.087596,-0.00615477,0.0757454,-0.0671293,0.142914,-9.31001e-06,-1.8189e-05,0.098133,-0.006135868201745165,0.15363058516943773,-9.309966662041091e-06,0.07868790525273872,-1.81888345811565e-05,-0.06492571158556737
259,0.2496,115.552,347.776,0.000788028,200.464,-0.050757,-0.0877781,-0.00617968,0.0760324,-0.0673892,0.143458,-9.35363e-06,-1.82755e-05,0.0985213,-0.006160625048920454,0.1542583309391381,-9.35358625497873e-06,0.07899753311101865,-1.8275333004025285e-05,-0.06516870581465839
260,0.2506,115.653,348.081,0.000786445,200.639,-0.0508623,-0.0879606,-0.00620457,0.0763193,-0.0676491,0.144002,-9.3973e-06,-1.83621e-05,0.0989094,-0.006185361403117762,0.15488641829544036,-9.397255845478014e-06,0.07930714191452726,-1.8361931417687494e-05,-0.06541163689775553
261,0.2516,115.754,348.385,0.000784867,200.814,-0.0509679,-0.0881436,-0.00622946,0.0766061,-0.0679088,0.144546,-9.44101e-06,-1.84487e-05,0.0992974,-0.006210097141634896,0.15551484742421828,-9.440965433760162e-06,0.07961673159586669,-1.8448529823800186e-05,-0.06565431798215038
262,0.2526,115.854,348.689,0.000783294,200.989,-0.0510737,-0.088327,-0.00625433,0.0768927,-0.0681684,0.145089,-9.48476e-06,-1.85354e-05,0.0996852,-0.006234812389183664,0.156142462368406,-9.484715019825174e-06,0.07992619409499979,-1.8535228220484257e-05,-0.06589684264013962
263,0.2536,115.954,348.991,0.000781725,201.163,-0.0511798,-0.0885108,-0.0062792,0.0771792,-0.0684279,0.145632,-9.52856e-06,-1.86222e-05,0.100073,-0.006259527022071776,0.1567704182000511,-9.528514603451832e-06,0.08023563727522687,-1.862202660796175e-05,-0.06613921096082476
264,0.2546,116.054,349.293,0.000780161,201.337,-0.0512861,-0.0886949,-0.00630406,0.0774656,-0.0686873,0.146175,-9.57239e-06,-1.87091e-05,0.10046,-0.006284231103157012,0.15739871510430548,-9.572344184860526e-06,0.08054506106911474,-1.87089249858996e-05,-0.06638142303323757
265,0.2556,116.154,349.594,0.000778602,201.51,-0.0513926,-0.0888795,-0.0063289,0.0777518,-0.0689466,0.146718,-9.61626e-06,-1.87961e-05,0.100848,-0.006308914696284917,0.15802735326642203,-9.616213763941062e-06,0.08085435732377566,-1.8795923354408828e-05,-0.06662347894633969
266,0.2566,116.253,349.895,0.000777048,201.683,-0.0514994,-0.0890646,-0.00635374,0.0780379,-0.0692057,0.14726,-9.66018e-06,-1.88831e-05,0.101235,-0.006333597676279945,0.1586551742160005,-9.660133340583243e-06,0.08116363399532434,-1.888292171536854e-05,-0.06686528547555604
267,0.2576,116.352,350.195,0.000775498,201.855,-0.0516064,-0.08925,-0.00637857,0.0783239,-0.0694648,0.147802,-9.70414e-06,-1.89702e-05,0.101622,-0.0063582701067401715,0.15928333553676577,-9.704092915008289e-06,0.08147289101629296,-1.897002006689963e-05,-0.06710702936081658
268,0.2586,116.451,350.494,0.000773953,202.027,-0.0517137,-0.0894359,-0.00640338,0.0786098,-0.0697237,0.148344,-9.74814e-06,-1.90574e-05,0.102009,-0.006382922052250217,0.15991183741324932,-9.748092486994153e-06,0.08178212831920062,-1.9057218408891075e-05,-0.06734852408807368
269,0.2596,116.55,350.792,0.000772412,202.199,-0.0518211,-0.0896221,-0.00642819,0.0788956,-0.0699826,0.148886,-9.79218e-06,-1.91447e-05,0.102395,-0.006407573386153054,0.16054068003008215,-9.792132056762881e-06,0.08209134583655264,-1.91445167414539e-05,-0.06758995630043885
270,0.2606,116.648,351.089,0.000770876,202.37,-0.0519289,-0.0898088,-0.00645299,0.0791812,-0.0702413,0.149427,-9.83626e-06,-1.92321e-05,0.102782,-0.006432214172786055,0.16116870240271286,-9.83621162420345e-06,0.08240043526079233,-1.9231915064366056e-05,-0.06783113958034148
271,0.2616,116.746,351.386,0.000769345,202.54,-0.0520368,-0.0899959,-0.00647778,0.0794667,-0.0704999,0.149968,-9.88039e-06,-1.93195e-05,0.103168,-0.006456844412903617,0.16179706462736854,-9.880341189094644e-06,0.08270950470262273,-1.9319313379617675e-05,-0.06807216728142107
272,0.2626,116.844,351.682,0.000767818,202.711,-0.052145,-0.0901834,-0.00650256,0.079752,-0.0707584,0.150509,-9.92455e-06,-1.94071e-05,0.103554,-0.0064814641072598045,0.1624257668879594,-9.924500751767873e-06,0.08301844579266526,-1.9406911683450545e-05,-0.06831303949210432
273,0.2636,116.942,351.978,0.000766296,202.88,-0.0522535,-0.0903713,-0.00652733,0.0800373,-0.0710168,0.15105,-9.96877e-06,-1.94947e-05,0.10394,-0.006506073256608236,0.16305480936849426,-9.968720312003576e-06,0.08332747503617544,-1.9494509979622876e-05,-0.06855375630074845
274,0.2646,117.039,352.272,0.000764778,203.05,-0.0523622,-0.0905596,-0.00655209,0.0803224,-0.071275,0.151591,-1.0013e-05,-1.95824e-05,0.104326,-0.0065306718617024195,0.16368419225308228,-1.0012949870130683e-05,0.0836363757310099,-1.958220826603352e-05,-0.06879422467506857
275,0.2656,117.136,352.566,0.000763265,203.219,-0.0524711,-0.0907484,-0.00657684,0.0806074,-0.0715332,0.152131,-1.00573e-05,-1.96702e-05,0.104712,-0.006555259923295309,0.16431275141259793,-1.0057249425488024e-05,0.08394525611145687,-1.9670006542904517e-05,-0.0690346309684694
276,0.2666,117.233,352.859,0.000761757,203.387,-0.0525802,-0.0909375,-0.00660158,0.0808922,-0.0717912,0.152671,-1.01017e-05,-1.9758e-05,0.105098,-0.0065798374421396355,0.16494165008572037,-1.010164897796706e-05,0.0842540076845344,-1.9757804812003954e-05,-0.06927478905195461
277,0.2676,117.33,353.152,0.000760252,203.555,-0.0526896,-0.0911271,-0.00662631,0.081177,-0.0720492,0.153211,-1.0146e-05,-1.9846e-05,0.105483,-0.006604404418987797,0.165570888455836,-1.0145948529549642e-05,0.08456284720258278,-1.9845803069462598e-05,-0.06951488518264648
278,0.2686,117.426,353.443,0.000758753,203.723,-0.0527993,-0.0913171,-0.00665103,0.0814616,-0.072307,0.15375,-1.01905e-05,-1.9934e-05,0.105868,-0.006628960854591748,0.16619930050654763,-1.0190448077040948e-05,0.08487155771631905,-1.993380131914968e-05,-0.06975473332749216
279,0.2696,117.522,353.734,0.000757257,203.891,-0.0529091,-0.0915075,-0.00667574,0.0817461,-0.0725647,0.154289,-1.02349e-05,-2.00221e-05,0.106253,-0.006653506749703331,0.1668280513626541,-1.0234847623635801e-05,0.08518024758354081,-2.0021899559075074e-05,-0.06999442664690292
280,0.2706,117.618,354.025,0.000755767,204.058,-0.0530192,-0.0916983,-0.00670044,0.0820304,-0.0728223,0.154828,-1.02795e-05,-2.01103e-05,0.106638,-0.006678042105073723,0.1674571412068213,-1.0279447166139377e-05,0.0854888081877403,-2.011009778923878e-05,-0.07023396522870484
281,0.2716,117.714,354.314,0.00075428,204.224,-0.0531296,-0.0918895,-0.00672514,0.0823147,-0.0730798,0.155367,-1.0324e-05,-2.01986e-05,0.107023,-0.0067025768544283215,0.16808657022181284,-1.03239467077465e-05,0.08579745652819093,-2.0198396009640796e-05,-0.0704733491606544
282,0.2726,117.81,354.603,0.000752798,204.39,-0.0532402,-0.0920811,-0.00674982,0.0825988,-0.0733372,0.155906,-1.03686e-05,-2.0287e-05,0.107408,-0.006727091132324059,0.16871633859049107,-1.0368546246253274e-05,0.08610597540862241,-2.02867942201701e-05,-0.07071257853043977
283,0.2736,117.905,354.892,0.00075132,204.556,-0.053351,-0.0922732,-0.00677449,0.0828828,-0.0735945,0.156444,-1.04133e-05,-2.03755e-05,0.107792,-0.006751594872730915,0.16934527714995506,-1.0413245781770719e-05,0.08641447331026697,-2.037529242093772e-05,-0.07095165342567966
284,0.2746,118.0,355.179,0.000749847,204.721,-0.0534621,-0.0924657,-0.00679916,0.0831666,-0.0738516,0.156982,-1.04579e-05,-2.0464e-05,0.108176,-0.006776098008637987,0.16997455416940155,-1.0457845316391712e-05,0.08672284149316778,-2.0463790613822752e-05,-0.07119048105297687
285,0.2756,118.095,355.466,0.000748377,204.886,-0.0535734,-0.0926585,-0.00682381,0.0834504,-0.0741087,0.15752,-1.05027e-05,-2.05527e-05,0.10856,-0.006800580676072032,0.17060416983097104,-1.0502644846810405e-05,0.08703129720337843,-2.0552488794733925e-05,-0.07142924728558375
286,0.2766,118.19,355.752,0.000746913,205.051,-0.0536849,-0.0928518,-0.00684845,0.083734,-0.0743656,0.158058,-1.05475e-05,-2.06414e-05,0.108944,-0.006825052808266285,0.17123412431690221,-1.0547444375341719e-05,0.08733962299779652,-2.0641186967762515e-05,-0.07166776647285467
287,0.2776,118.284,356.038,0.000745452,205.215,-0.0537967,-0.0930455,-0.00687309,0.0840175,-0.0746225,0.158595,-1.05923e-05,-2.07302e-05,0.109328,-0.006849524337474544,0.17186324594569946,-1.059224390176361e-05,0.08764792748101202,-2.0729985130918394e-05,-0.07190622439241656
288,0.2786,118.378,356.323,0.000743996,205.379,-0.0539087,-0.0932397,-0.00689772,0.0843008,-0.0748792,0.159132,-1.06372e-05,-2.08191e-05,0.109712,-0.00687398533245176,0.172492705503537,-1.0637143425196172e-05,0.08795610178969704,-2.081888328409054e-05,-0.0721444354889127
289,0.2796,118.472,356.607,0.000742543,205.542,-0.054021,-0.0934342,-0.00692233,0.0845841,-0.0751358,0.159669,-1.06821e-05,-2.09081e-05,0.110095,-0.006898425862930768,0.1731225031719319,-1.068204294651931e-05,0.08826436341653165,-2.090788142716793e-05,-0.07238249268272201
290,0.2806,118.566,356.891,0.000741096,205.705,-0.0541335,-0.0936291,-0.00694694,0.0848672,-0.0753923,0.160206,-1.0727e-05,-2.09972e-05,0.110479,-0.006922865791935684,0.17375263913249794,-1.072694246595507e-05,0.08857249467173611,-2.099697956037261e-05,-0.07262039606093629
291,0.2816,118.659,357.174,0.000739652,205.868,-0.0542462,-0.0938245,-0.00697154,0.0851502,-0.0756487,0.160742,-1.0772e-05,-2.10863e-05,0.110862,-0.006947295188954428,0.1743819391844208,-1.0771941982179456e-05,0.08888060428318201,-2.1086077685583682e-05,-0.07285814571057869
292,0.2826,118.752,357.456,0.000738212,206.03,-0.0543592,-0.0940203,-0.00699612,0.0854331,-0.075905,0.161279,-1.08171e-05,-2.11756e-05,0.111245,-0.006971704124451583,0.1750127516437492,-1.0817041495414514e-05,0.08918869218311243,-2.117537579859885e-05,-0.073095741718604
293,0.2836,118.846,357.737,0.000736777,206.192,-0.0544724,-0.0942164,-0.0070207,0.0857158,-0.0761612,0.161815,-1.08622e-05,-2.12649e-05,0.111627,-0.006996112459984549,0.1756427272970229,-1.0862141006540149e-05,0.08949664935408763,-2.1264673903620412e-05,-0.07333318417189871
294,0.2846,118.938,358.018,0.000735345,206.353,-0.0545859,-0.094413,-0.00704527,0.0859984,-0.0764172,0.16235,-1.09073e-05,-2.13544e-05,0.11201,-0.0070205102657731056,0.17627186443530496,-1.0907240515667382e-05,0.0898045846163984,-2.135417199644607e-05,-0.07357038051432341
295,0.2856,119.031,358.299,0.000733918,206.515,-0.0546996,-0.0946101,-0.00706983,0.0862809,-0.0766732,0.162886,-1.09525e-05,-2.14439e-05,0.112393,-0.007044897542563988,0.1769025151539363,-1.0952440021583243e-05,0.09011249790225628,-2.14436700811671e-05,-0.07380751614225634
296,0.2866,119.123,358.578,0.000732495,206.675,-0.0548135,-0.0948075,-0.00709438,0.0865633,-0.076929,0.163421,-1.09978e-05,-2.15335e-05,0.112775,-0.0070692742911036,0.1775323264590456,-1.0997739524398753e-05,0.09042038914386108,-2.1533268155904395e-05,-0.07404440588013794
297,0.2876,119.216,358.857,0.000731076,206.836,-0.0549276,-0.0950053,-0.00711892,0.0868456,-0.0771848,0.163956,-1.1043e-05,-2.16232e-05,0.113157,-0.007093640512137678,0.1781624748033528,-1.104293902631781e-05,0.09072825827339948,-2.162296622032489e-05,-0.07428123502937423
298,0.2886,119.308,359.136,0.000729661,206.996,-0.0550421,-0.0952036,-0.00714345,0.0871277,-0.0774404,0.164491,-1.10884e-05,-2.1713e-05,0.113539,-0.007117996206412069,0.17879296036722248,-1.1088338523923547e-05,0.09103599611944069,-2.171276427453961e-05,-0.07451781850904404
299,0.2896,119.399,359.413,0.00072825,207.155,-0.0551567,-0.0954022,-0.00716797,0.0874097,-0.0776959,0.165026,-1.11337e-05,-2.18029e-05,0.113921,-0.007142341374672179,0.17942378333111542,-1.113363802063283e-05,0.0913437116561977,-2.180266231854855e-05,-0.07475424900113337
300,0.2906,119.491,359.69,0.000726843,207.315,-0.0552716,-0.0956013,-0.00719248,0.0876916,-0.0779513,0.16556,-1.11792e-05,-2.18929e-05,0.114303,-0.007166676017662743,0.18005376382123495,-1.1179137513028792e-05,0.09165140481582679,-2.189266035224069e-05,-0.07499052659200578
301,0.2916,119.582,359.967,0.000725441,207.474,-0.0553867,-0.0958008,-0.00721698,0.0879733,-0.0782067,0.166094,-1.12246e-05,-2.1983e-05,0.114684,-0.007191000136128722,0.18068408081077347,-1.1224537004417279e-05,0.09195896633456946,-2.198275837561603e-05,-0.07522674384528694
302,0.2926,119.673,360.243,0.000724042,207.632,-0.0555021,-0.0960007,-0.00724147,0.088255,-0.0784618,0.166628,-1.12701e-05,-2.20731e-05,0.115066,-0.007215313730814188,0.18131473447946966,-1.1270036492705415e-05,0.09226661450559637,-2.207285639088674e-05,-0.0754626234152137
303,0.2936,119.764,360.518,0.000722647,207.79,-0.0556177,-0.096201,-0.00726596,0.0885365,-0.0787169,0.167162,-1.13157e-05,-2.21634e-05,0.115447,-0.007239626730067061,0.18194572500715833,-1.1315635977671157e-05,0.09257413083847288,-2.216315439362848e-05,-0.07569844281993654
304,0.2946,119.855,360.792,0.000721256,207.948,-0.0557335,-0.0964018,-0.00729043,0.0888179,-0.0789719,0.167695,-1.13613e-05,-2.22537e-05,0.115828,-0.007263919279180353,0.18257586999730901,-1.1361235460638497e-05,0.09288162446121451,-2.2253452388265593e-05,-0.07593410966821723
305,0.2956,119.946,361.066,0.000719869,208.106,-0.0558496,-0.0966029,-0.0073149,0.0890992,-0.0792268,0.168228,-1.1407e-05,-2.23442e-05,0.116209,-0.007288211233862363,0.18320635094426385,-1.1406934940394464e-05,0.09318909530592223,-2.234395037026271e-05,-0.07616962404608019
306,0.2966,120.036,361.34,0.000718485,208.263,-0.0559659,-0.0968045,-0.00733935,0.0893803,-0.0794815,0.168761,-1.14527e-05,-2.24347e-05,0.11659,-0.007312482740377324,0.1838371680271358,-1.1452634418041008e-05,0.09349643395503615,-2.2434448344044178e-05,-0.07640489367997594
307,0.2976,120.126,361.612,0.000717106,208.419,-0.0560825,-0.0970065,-0.0073638,0.0896613,-0.0797362,0.169294,-1.14984e-05,-2.25253e-05,0.11697,-0.007336753653461203,0.1844683214251328,-1.149833389368915e-05,0.09380374962880755,-2.25250463072868e-05,-0.0766401033983265
308,0.2986,120.216,361.885,0.000715731,208.576,-0.0561993,-0.0972089,-0.00738823,0.0899422,-0.0799907,0.169826,-1.15442e-05,-2.2616e-05,0.117351,-0.007361004120348791,0.18509862621834006,-1.1544133366014897e-05,0.09411104225930766,-2.2615744260212622e-05,-0.07687506859142257
309,0.2996,120.306,362.156,0.000714359,208.732,-0.0563163,-0.0974117,-0.00741266,0.090223,-0.0802452,0.170359,-1.15901e-05,-2.27069e-05,0.117731,-0.007385253994804719,0.18573045215276807,-1.1590032835018249e-05,0.0944183117785955,-2.2706642200276406e-05,-0.07710997399348574
310,0.3006,120.395,362.427,0.000712992,208.888,-0.0564336,-0.0976149,-0.00743707,0.0905037,-0.0804995,0.170891,-1.1636e-05,-2.27978e-05,0.118111,-0.007409483425033225,0.18636142857816052,-1.16359323020232e-05,0.0947255581187183,-2.279754013212454e-05,-0.07734463508867628
311,0.3016,120.484,362.697,0.000711628,209.043,-0.0565511,-0.0978185,-0.00746148,0.0907842,-0.0807537,0.171423,-1.16819e-05,-2.28888e-05,0.118491,-0.007433712263828718,0.1869927407723182,-1.1681831766918727e-05,0.09503267170843777,-2.2888538053433827e-05,-0.07757914427505641
312,0.3026,120.573,362.967,0.000710268,209.198,-0.0566688,-0.0980226,-0.00748588,0.0910646,-0.0810078,0.171954,-1.17279e-05,-2.29799e-05,0.118871,-0.0074579305857847,0.187623201290122,-1.1727831228491858e-05,0.09533976192162075,-2.2979635964093248e-05,-0.07781350163813217
313,0.3036,120.662,363.236,0.000708911,209.353,-0.0567868,-0.0982271,-0.00751027,0.0913449,-0.0812618,0.172485,-1.1774e-05,-2.30711e-05,0.119251,-0.007482138391642357,0.188253996671359,-1.1773930686742595e-05,0.09564682869028451,-2.3070833864213824e-05,-0.07804770726334243
314,0.3046,120.751,363.505,0.000707559,209.507,-0.0569051,-0.0984319,-0.00753465,0.0916251,-0.0815157,0.173017,-1.18201e-05,-2.31624e-05,0.11963,-0.007506335682142207,0.1888863159796108,-1.1820030142883908e-05,0.09595387194643479,-2.3162131753684534e-05,-0.07828176123605912
315,0.3056,120.84,363.773,0.00070621,209.661,-0.0570235,-0.0986372,-0.00755902,0.0919051,-0.0817695,0.173547,-1.18662e-05,-2.32537e-05,0.12001,-0.007530522458024547,0.18951659273566657,-1.1866129596915798e-05,0.09626078199598154,-2.325342963482857e-05,-0.07851566364158657
316,0.3066,120.928,364.04,0.000704865,209.815,-0.0571422,-0.0988429,-0.00758338,0.0921851,-0.0820232,0.174078,-1.19124e-05,-2.33452e-05,0.120389,-0.007554698720029451,0.1901483937747399,-1.1912329047625292e-05,0.09656777799237437,-2.3344927502888524e-05,-0.07874941456516227
317,0.3076,121.016,364.307,0.000703524,209.968,-0.0572612,-0.0990491,-0.00760773,0.0924649,-0.0822768,0.174608,-1.19586e-05,-2.34368e-05,0.120768,-0.007578864468896329,0.19077933960931714,-1.1958528496225362e-05,0.09687464058473116,-2.343652536029861e-05,-0.07898301409195663
318,0.3086,121.104,364.573,0.000702186,210.121,-0.0573804,-0.0992556,-0.00763207,0.0927446,-0.0825302,0.175139,-1.20049e-05,-2.35285e-05,0.121147,-0.007603019705364811,0.1914118113450345,-1.2004827941503038e-05,0.097181479331101,-2.352822320705883e-05,-0.07921637022871453
319,0.3096,121.192,364.839,0.000700852,210.274,-0.0574998,-0.0994625,-0.0076564,0.0930241,-0.0827836,0.175669,-1.20513e-05,-2.36202e-05,0.121525,-0.0076271644301736385,0.1920434269684026,-1.2051227383347296e-05,0.09748818441461293,-2.361992104527033e-05,-0.07944966724051883
320,0.3106,121.279,365.104,0.000699522,210.426,-0.0576195,-0.0996699,-0.00768072,0.0933036,-0.0830368,0.176198,-1.20976e-05,-2.37121e-05,0.121904,-0.007651298644061444,0.19267418476199594,-1.2097526824295102e-05,0.09779497523417668,-2.371181887039775e-05,-0.0796827210789125
321,0.3116,121.366,365.368,0.000698196,210.578,-0.0577394,-0.0998777,-0.00770504,0.0935829,-0.08329,0.176728,-1.21441e-05,-2.38041e-05,0.122282,-0.007675432271012306,0.1933064696206066,-1.2144026260707541e-05,0.09810163219341028,-2.3803816684653256e-05,-0.07991571591554414
322,0.3126,121.454,365.632,0.000696873,210.73,-0.0578595,-0.100086,-0.00772934,0.0938621,-0.083543,0.177257,-1.21906e-05,-2.38961e-05,0.122661,-0.007699545465031599,0.19393789574051956,-1.2190525694899534e-05,0.09840826497306288,-2.3895814490471068e-05,-0.08014846779506324
323,0.3136,121.541,365.895,0.000695554,210.881,-0.0579799,-0.100295,-0.00775364,0.0941412,-0.0837959,0.177786,-1.22371e-05,-2.39883e-05,0.123039,-0.007723658073107487,0.1945696559732153,-1.2237025126982104e-05,0.09871487350504715,-2.398801228298275e-05,-0.08038106883391682
324,0.3146,121.627,366.158,0.000694238,211.032,-0.0581005,-0.100504,-0.00777792,0.0944202,-0.0840488,0.178315,-1.22837e-05,-2.40805e-05,0.123417,-0.00774775025020924,0.19520175049548572,-1.2283624555631256e-05,0.09902145772126447,-2.408021006705674e-05,-0.08061361105540543
325,0.3156,121.714,366.42,0.000692926,211.183,-0.0582214,-0.100713,-0.0078022,0.094699,-0.0843015,0.178844,-1.23303e-05,-2.41729e-05,0.123794,-0.007771841842360017,0.1958341794842171,-1.2330223982170985e-05,0.09932790762080823,-2.41726078378246e-05,-0.08084591064360258
326,0.3166,121.8,366.682,0.000691617,211.333,-0.0583425,-0.100923,-0.00782646,0.0949777,-0.0845541,0.179372,-1.2377e-05,-2.42654e-05,0.124172,-0.0077959130054925385,0.1964657466500439,-1.2376923405277296e-05,0.09963433300705637,-2.4265105597609526e-05,-0.08107805964492076
327,0.3176,121.886,366.943,0.000690312,211.483,-0.0584638,-0.101133,-0.00785072,0.0952564,-0.0848066,0.1799,-1.24238e-05,-2.43579e-05,0.12455,-0.007819983584665735,0.19709764737138524,-1.242372282495019e-05,0.09994084380596124,-2.4357603348734713e-05,-0.08131005814381731
328,0.3186,121.973,367.204,0.000689011,211.633,-0.0585854,-0.101344,-0.00787497,0.0955348,-0.085059,0.180428,-1.24706e-05,-2.44506e-05,0.124927,-0.007844043658334243,0.19772988182440487,-1.2470522242402637e-05,0.10024710996714825,-2.4450301086553772e-05,-0.08154190622468316
329,0.3196,122.058,367.464,0.000687713,211.782,-0.0587072,-0.101555,-0.00789921,0.0958132,-0.0853113,0.180956,-1.25174e-05,-2.45433e-05,0.125304,-0.00786809322723403,0.19836245018535958,-1.2517321657634639e-05,0.10055346140470456,-2.454299881571309e-05,-0.08177360397184275
330,0.3206,122.144,367.723,0.000686419,211.931,-0.0588293,-0.101766,-0.00792344,0.0960914,-0.0855635,0.181483,-1.25643e-05,-2.46362e-05,0.125681,-0.007892132292100618,0.19899415363584638,-1.2564221069544246e-05,0.10085967797041673,-2.4635896531344237e-05,-0.08200515146955434
331,0.3216,122.229,367.982,0.000685128,212.08,-0.0589516,-0.101978,-0.00794766,0.0963696,-0.0858155,0.18201,-1.26112e-05,-2.47291e-05,0.126058,-0.00791616085366953,0.19962619008178795,-1.2611120479122384e-05,0.10116597973742825,-2.4728794238315643e-05,-0.08223645702565985
332,0.3226,122.315,368.24,0.00068384,212.228,-0.0590741,-0.102191,-0.00797187,0.0966476,-0.0860675,0.182537,-1.26582e-05,-2.48222e-05,0.126435,-0.0079401789126754,0.20025855969871964,-1.2658119885378127e-05,0.10147214643499436,-2.4821891931758877e-05,-0.08246770430010908
333,0.3236,122.4,368.498,0.000682557,212.376,-0.0591969,-0.102403,-0.00799607,0.0969255,-0.0863194,0.183064,-1.27053e-05,-2.49153e-05,0.126811,-0.007964186469853085,0.2008912626622683,-1.2705219287978409e-05,0.10177828808090017,-2.491498961654237e-05,-0.08269880157747178
334,0.3246,122.485,368.755,0.000681276,212.524,-0.0593199,-0.102617,-0.00802026,0.0972032,-0.0865711,0.183591,-1.27524e-05,-2.50086e-05,0.127187,-0.007988183525936887,0.20152429914815428,-1.2752318688469266e-05,0.10208429439851097,-2.5008287287575648e-05,-0.08292965723471146
335,0.3256,122.57,369.012,0.000679999,212.672,-0.0594432,-0.10283,-0.00804444,0.0974809,-0.0868228,0.184117,-1.27995e-05,-2.51019e-05,0.127564,-0.008012170081660552,0.20215646717512192,-1.2799418086739678e-05,0.10239038570587633,-2.5101584949949185e-05,-0.08316045479289436
336,0.3266,122.654,369.268,0.000678726,212.819,-0.0595667,-0.103044,-0.00806862,0.0977584,-0.0870743,0.184643,-1.28467e-05,-2.51954e-05,0.12794,-0.008036156057396382,0.20278896780993994,-1.284661748146565e-05,0.102696341487311,-2.5195082598572505e-05,-0.08339101094486256
337,0.3276,122.739,369.524,0.000677455,212.966,-0.0596904,-0.103259,-0.00809278,0.0980358,-0.0873258,0.185169,-1.2894e-05,-2.52889e-05,0.128316,-0.008060121614360982,0.2034218012276059,-1.2893916872758204e-05,0.10300227188302369,-2.5288580238425062e-05,-0.08362150911924948
338,0.3286,122.823,369.779,0.000676189,213.112,-0.0598144,-0.103473,-0.00811694,0.0983131,-0.0875771,0.185695,-1.29413e-05,-2.53826e-05,0.128691,-0.008084086592324624,0.20405496760320996,-1.294121626171929e-05,0.10330817682477678,-2.5382277864527403e-05,-0.08385176610100631
339,0.3296,122.907,370.033,0.000674925,213.259,-0.0599386,-0.103689,-0.00814108,0.0985903,-0.0878283,0.18622,-1.29886e-05,-2.54764e-05,0.129067,-0.008108031153462258,0.20468726242406898,-1.298851564845993e-05,0.10361405624432152,-2.5476075479313742e-05,-0.08408187363464548
340,0.3306,122.991,370.287,0.000673665,213.405,-0.0600631,-0.103904,-0.00816522,0.0988673,-0.0880795,0.186745,-1.3036e-05,-2.55702e-05,0.129442,-0.008131975136585257,0.2053198892868624,-1.3035915031767153e-05,0.1039197996814123,-2.5569873085218298e-05,-0.08431192337253168
341,0.3316,123.074,370.541,0.000672408,213.55,-0.0601877,-0.104121,-0.00818934,0.0991443,-0.0883305,0.18727,-1.30835e-05,-2.56642e-05,0.129818,-0.00815589870482547,0.20595284836595806,-1.3083414411418914e-05,0.10422562782116596,-2.5663870677261613e-05,-0.08454173223754613
342,0.3326,123.158,370.794,0.000671155,213.696,-0.0603127,-0.104337,-0.00821346,0.0994211,-0.0885814,0.187795,-1.3131e-05,-2.57582e-05,0.130193,-0.008179821696036371,0.20658613983581509,-1.313091378885023e-05,0.10453131978076224,-2.5757868260423145e-05,-0.08477139190491767
343,0.3336,123.241,371.046,0.000669905,213.841,-0.0604379,-0.104554,-0.00823757,0.0996978,-0.0888322,0.188319,-1.31786e-05,-2.58524e-05,0.130568,-0.008203734192268941,0.20721855665182431,-1.3178513162626082e-05,0.10483698588390067,-2.5852065829612414e-05,-0.08500090245800151
344,0.3346,123.324,371.298,0.000668658,213.985,-0.0605633,-0.104771,-0.00826167,0.0999744,-0.0890829,0.188844,-1.32262e-05,-2.59467e-05,0.130943,-0.008227636194254595,0.20785251279299244,-1.3226112534181489e-05,0.1051426260622843,-2.5946363387263638e-05,-0.08523026398008726
345,0.3356,123.407,371.55,0.000667415,214.13,-0.0606889,-0.104989,-0.00828576,0.100251,-0.0893335,0.189368,-1.32739e-05,-2.60411e-05,0.131317,-0.008251527702724304,0.20848559336231953,-1.3273811902192456e-05,0.10544835079243398,-2.604076093348784e-05,-0.08545947655439867
346,0.3366,123.49,371.801,0.000666175,214.274,-0.0608148,-0.105207,-0.00830984,0.100527,-0.089584,0.189892,-1.33216e-05,-2.61355e-05,0.131692,-0.008275408718408706,0.2091190057527943,-1.3321511267871955e-05,0.10575349664544342,-2.6135158470830255e-05,-0.08568854026409434
347,0.3376,123.573,372.051,0.000664938,214.418,-0.060941,-0.105426,-0.00833391,0.100803,-0.0898344,0.190415,-1.33694e-05,-2.62301e-05,0.132066,-0.008299279242037882,0.2097515403861916,-1.3369310630007014e-05,0.10605872673033168,-2.6229755993978365e-05,-0.08591745519226712
348,0.3386,123.655,372.301,0.000663704,214.561,-0.0610674,-0.105645,-0.00835797,0.10108,-0.0900846,0.190939,-1.34172e-05,-2.63248e-05,0.132441,-0.008323139274342028,0.21038561630673658,-1.3417109989810605e-05,0.1063651474349443,-2.6324453505477408e-05,-0.08614613003656213
349,0.3396,123.738,372.55,0.000662474,214.705,-0.061194,-0.105864,-0.00838203,0.101356,-0.0903348,0.191462,-1.34651e-05,-2.64196e-05,0.132815,-0.008346998732580602,0.21101881355071117,-1.3465009345958734e-05,0.10667054635874917,-2.6419251005438404e-05,-0.08637474767356801
350,0.3406,123.82,372.799,0.000661246,214.848,-0.0613208,-0.106084,-0.00840607,0.101631,-0.0905849,0.191985,-1.3513e-05,-2.65145e-05,0.133189,-0.00837083778418457,0.2116523420434584,-1.3512908699775394e-05,0.10697492260881392,-2.6514148493750334e-05,-0.08660321677792238
351,0.3416,123.902,373.048,0.000660022,214.99,-0.0614479,-0.106304,-0.0084301,0.101907,-0.0908348,0.192507,-1.3561e-05,-2.66095e-05,0.133562,-0.008394666346651314,0.21228498967267084,-1.3560908050047615e-05,0.10728048985379401,-2.6609145970413195e-05,-0.08683144611560611
352,0.3426,123.983,373.296,0.000658802,215.133,-0.0615753,-0.106525,-0.00845413,0.102183,-0.0910847,0.19303,-1.3609e-05,-2.67046e-05,0.133936,-0.008418494336524529,0.21291918054872783,-1.3608907397988368e-05,0.1075861414469732,-2.6704243435315966e-05,-0.08705961842590426
353,0.3436,124.065,373.543,0.000657584,215.275,-0.0617029,-0.106746,-0.00847814,0.102458,-0.0913345,0.193552,-1.36571e-05,-2.67998e-05,0.134309,-0.008442301922664264,0.21355248964026652,-1.3657006742273659e-05,0.10789076952031151,-2.679944088856967e-05,-0.08728764245183485
354,0.3446,124.147,373.79,0.000656369,215.417,-0.0618307,-0.106968,-0.00850215,0.102734,-0.0915841,0.194074,-1.37053e-05,-2.68952e-05,0.134683,-0.008466108937190797,0.21418612940544945,-1.3705206082792465e-05,0.1081965895739252,-2.6894838327296e-05,-0.0875154270275812
355,0.3456,124.228,374.036,0.000655158,215.558,-0.0619587,-0.107189,-0.00852615,0.103009,-0.0918337,0.194596,-1.37535e-05,-2.69906e-05,0.135056,-0.008489905465016823,0.2148201000169332,-1.3753405421090825e-05,0.10850138554358302,-2.6990235757029524e-05,-0.0877431547553924
356,0.3466,124.309,374.282,0.00065395,215.7,-0.0620871,-0.107412,-0.00855014,0.103284,-0.0920831,0.195118,-1.38018e-05,-2.70861e-05,0.135429,-0.00851369150686998,0.21545440164746443,-1.3801704755622701e-05,0.10880626534365856,-2.7085733174891935e-05,-0.08797064324360282
357,0.3476,124.39,374.528,0.000652745,215.841,-0.0622156,-0.107635,-0.00857412,0.103559,-0.0923324,0.195639,-1.38501e-05,-2.71818e-05,0.135802,-0.008537467063477577,0.21608781838145408,-1.3850004087823109e-05,0.10911122899720849,-2.7181430578226973e-05,-0.08819798382306154
358,0.3486,124.471,374.773,0.000651543,215.981,-0.0623444,-0.107858,-0.00859809,0.103834,-0.0925817,0.19616,-1.38985e-05,-2.72775e-05,0.136174,-0.008561232135566588,0.21672156521154462,-1.3898403416257032e-05,0.10941627652729569,-2.727712797234716e-05,-0.08842526773357784
359,0.3496,124.551,375.017,0.000650344,216.122,-0.0624734,-0.108081,-0.00862205,0.104109,-0.0928308,0.196681,-1.39469e-05,-2.73734e-05,0.136547,-0.00858498672386343,0.21735564230976112,-1.394680274247051e-05,0.10972140795698926,-2.7373025351939972e-05,-0.08865231271975837
360,0.3506,124.632,375.261,0.000649148,216.262,-0.0626027,-0.108305,-0.008646,0.104384,-0.0930798,0.197202,-1.39954e-05,-2.74693e-05,0.136919,-0.008608730829094635,0.2179900498482179,-1.399530206480648e-05,0.11002662330936497,-2.7468922722206912e-05,-0.0888792100440019
361,0.3516,124.712,375.504,0.000647955,216.402,-0.0627322,-0.10853,-0.00866994,0.104658,-0.0933288,0.197722,-1.40439e-05,-2.75654e-05,0.137291,-0.008632464451985955,0.21862356937494054,-1.4043801384922006e-05,0.11033081227613706,-2.7565020077835456e-05,-0.08910605087784507
362,0.3526,124.792,375.747,0.000646766,216.541,-0.0628619,-0.108755,-0.00869387,0.104933,-0.0935776,0.198243,-1.40925e-05,-2.76616e-05,0.137663,-0.008656187593263143,0.2192586376755119,-1.4092400701160024e-05,0.1106361952377457,-2.7661217421481865e-05,-0.08933265310190108
363,0.3536,124.873,375.99,0.000645579,216.681,-0.0629919,-0.10898,-0.0087178,0.105207,-0.0938263,0.198763,-1.41411e-05,-2.77578e-05,0.138035,-0.008679910166852323,0.21989281703944763,-1.4141000015066574e-05,0.11094055125011026,-2.77574147558024e-05,-0.08955910791025201
364,0.3546,124.952,376.232,0.000644396,216.82,-0.0631222,-0.109206,-0.00874171,0.105481,-0.0940749,0.199283,-1.41898e-05,-2.78542e-05,0.138407,-0.008703612346839473,0.22052732626240856,-1.4189699325317662e-05,0.11124499066744842,-2.785381207537352e-05,-0.08978541538484097
365,0.3556,125.032,376.474,0.000643215,216.958,-0.0632526,-0.109432,-0.00876562,0.105755,-0.0943234,0.199802,-1.42386e-05,-2.79507e-05,0.138779,-0.008727313960114391,0.22116094435441092,-1.4238498631580221e-05,0.11154951351261588,-2.795030938285148e-05,-0.09001157560754636
366,0.3566,125.112,376.715,0.000642037,217.097,-0.0633833,-0.109658,-0.00878952,0.106029,-0.0945718,0.200322,-1.42874e-05,-2.80473e-05,0.13915,-0.00875100509420057,0.2217961131750561,-1.4287297935622334e-05,0.11185411980847504,-2.804690667812526e-05,-0.09023758866018217
367,0.3576,125.191,376.955,0.000640863,217.235,-0.0635143,-0.109885,-0.0088134,0.106303,-0.0948201,0.200841,-1.43363e-05,-2.81441e-05,0.139522,-0.00877467583756908,0.2224303899383766,-1.433619723578694e-05,0.11215880957789492,-2.8143703958538602e-05,-0.0904634546244979
368,0.3586,125.27,377.195,0.000639691,217.373,-0.0636455,-0.110112,-0.00883728,0.106577,-0.0950683,0.20136,-1.43852e-05,-2.82409e-05,0.139893,-0.008798346015687075,0.22306499597677676,-1.4385096533509056e-05,0.11246358284374991,-2.8240501229515047e-05,-0.09068917358217865
369,0.3596,125.349,377.435,0.000638523,217.511,-0.0637769,-0.11034,-0.00886115,0.106851,-0.0953164,0.201878,-1.44342e-05,-2.83378e-05,0.140264,-0.00882200571678804,0.22369870776187506,-1.4434095827464688e-05,0.11276843962892125,-2.8337398488287313e-05,-0.09091474561484525
370,0.3606,125.428,377.674,0.000637357,217.648,-0.0639086,-0.110568,-0.00888501,0.107124,-0.0955644,0.202397,-1.44832e-05,-2.84349e-05,0.140635,-0.008845654941595282,0.22433397222807283,-1.4483095118977829e-05,0.11307226688347316,-2.8434495732088116e-05,-0.0911401708040539
371,0.3616,125.507,377.913,0.000636194,217.785,-0.0640405,-0.110797,-0.00890886,0.107398,-0.0958123,0.202915,-1.45323e-05,-2.8532e-05,0.141005,-0.00886929369083167,0.22496834151314715,-1.4532194406613463e-05,0.11337729047092249,-2.8531592966341002e-05,-0.09136544923129686
372,0.3626,125.586,378.151,0.000635035,217.922,-0.0641727,-0.111026,-0.00893271,0.107671,-0.0960601,0.203433,-1.45814e-05,-2.86293e-05,0.141376,-0.0088929318762907,0.22560303948663396,-1.458129369191763e-05,0.11368128396444499,-2.8628890185511402e-05,-0.09159058097800188
373,0.3636,125.664,378.389,0.000633878,218.059,-0.0643051,-0.111256,-0.00895654,0.107944,-0.0963077,0.203951,-1.46306e-05,-2.87267e-05,0.141746,-0.008916549676316832,0.22623806631883814,-1.4630492973344289e-05,0.11398536045952024,-2.872628739225558e-05,-0.09181547530708489
374,0.3646,125.742,378.627,0.000632724,218.195,-0.0644378,-0.111485,-0.00898036,0.108217,-0.0965553,0.204469,-1.46799e-05,-2.88241e-05,0.142117,-0.008940157002939153,0.22687342218015272,-1.467979225078242e-05,0.11428951997881098,-2.882368458967388e-05,-0.09204031395922507
375,0.3656,125.82,378.864,0.000631573,218.331,-0.0645706,-0.111716,-0.00900418,0.10849,-0.0968028,0.204986,-1.47292e-05,-2.89217e-05,0.142487,-0.008963763767241728,0.22750787973256514,-1.4729091525889082e-05,0.11459376254498599,-2.8921281771676632e-05,-0.09226500617471145
376,0.3666,125.898,379.1,0.000630424,218.467,-0.0647038,-0.111946,-0.00902798,0.108763,-0.0970502,0.205503,-1.47786e-05,-2.90194e-05,0.142857,-0.008987350148984996,0.22814266538433858,-1.4778490797007215e-05,0.11489808818071978,-2.901897894125316e-05,-0.09248955203471565
377,0.3676,125.976,379.336,0.000629279,218.602,-0.0648371,-0.112177,-0.00905178,0.109036,-0.0972974,0.20602,-1.4828e-05,-2.91173e-05,0.143226,-0.009010935969379075,0.2287777793051442,-1.482789006579388e-05,0.115202496908694,-2.9116876095525157e-05,-0.09271386089173572
378,0.3686,126.054,379.572,0.000628137,218.738,-0.0649708,-0.112409,-0.00907557,0.109308,-0.0975446,0.206537,-1.48775e-05,-2.92152e-05,0.143596,-0.009034511318782412,0.2294132216647411,-1.4877389330592017e-05,0.11550587324516459,-2.9214773240249237e-05,-0.09293811430645926
379,0.3696,126.132,379.807,0.000626997,218.873,-0.0651046,-0.112641,-0.00909935,0.109581,-0.0977917,0.207054,-1.49271e-05,-2.93132e-05,0.143966,-0.009058076197915765,0.23004899263297585,-1.4926988591401624e-05,0.11581044792111195,-2.9312770372325048e-05,-0.0931622216088166
380,0.3706,126.209,380.042,0.00062586,219.008,-0.0652387,-0.112873,-0.00912312,0.109853,-0.0980386,0.20757,-1.49767e-05,-2.94114e-05,0.144335,-0.009081630607499225,0.23068386169530597,-1.4976587849768741e-05,0.11611398964274922,-2.9410967488985307e-05,-0.09338609221833738
381,0.3716,126.286,380.276,0.000624726,219.142,-0.0653731,-0.113106,-0.00914688,0.110126,-0.0982855,0.208086,-1.50263e-05,-2.95097e-05,0.144704,-0.009105174548252881,0.23131905843460565,-1.5026187105693367e-05,0.11641873035713668,-2.950926459310832e-05,-0.0936099075610276
382,0.3726,126.363,380.51,0.000623595,219.276,-0.0655076,-0.113339,-0.00917063,0.110398,-0.0985322,0.208602,-1.5076e-05,-2.9608e-05,0.145073,-0.00912870802089627,0.23195458302000005,-1.5075886357629464e-05,0.11672243755410006,-2.960756168746137e-05,-0.09383348641724643
383,0.3736,126.44,380.743,0.000622467,219.41,-0.0656425,-0.113573,-0.00919437,0.11067,-0.0987789,0.209118,-1.51258e-05,-2.97065e-05,0.145442,-0.009152231026148705,0.23259043562070092,-1.5125685605688055e-05,0.11702622737065682,-2.9706058766287846e-05,-0.09405701012336454
384,0.3746,126.517,380.976,0.000621341,219.544,-0.0657775,-0.113807,-0.0092181,0.110942,-0.0990255,0.209633,-1.51756e-05,-2.98051e-05,0.145811,-0.009175743564729055,0.23322538318000863,-1.5175484851193133e-05,0.11733009982928255,-2.9804655832466054e-05,-0.09428038812102901
385,0.3756,126.594,381.208,0.000620218,219.678,-0.0659128,-0.114042,-0.00924183,0.111214,-0.0992719,0.210148,-1.52255e-05,-2.99038e-05,0.146179,-0.009199255545363494,0.23386065782152565,-1.5225384092709682e-05,0.11763405495245882,-2.990335288588497e-05,-0.09450352994119482
386,0.3766,126.67,381.44,0.000619098,219.811,-0.0660484,-0.114277,-0.00926554,0.111485,-0.0995182,0.210663,-1.52755e-05,-3.00027e-05,0.146548,-0.009222747152520472,0.23449625971374277,-1.527538333012668e-05,0.11793697482513998,-3.0002249923444246e-05,-0.09472652625864642
387,0.3776,126.747,381.672,0.000617981,219.944,-0.0661842,-0.114512,-0.00928925,0.111757,-0.0997645,0.211178,-1.53255e-05,-3.01016e-05,0.146916,-0.009246238202697987,0.23513218902523758,-1.5325382565101187e-05,0.11824109504076663,-3.0101146951344582e-05,-0.09494946765886847
388,0.3786,126.823,381.903,0.000616866,220.077,-0.0663202,-0.114748,-0.00931295,0.112028,-0.100011,0.211693,-1.53755e-05,-3.02007e-05,0.147284,-0.009269718788606496,0.23576844592467472,-1.5375381797633203e-05,0.1185441794436044,-3.0200243963496298e-05,-0.0951725351208964
389,0.3796,126.899,382.134,0.000615755,220.209,-0.0664565,-0.114984,-0.00933664,0.1123,-0.100257,0.212207,-1.54257e-05,-3.02998e-05,0.147652,-0.009293188910963757,0.23640379417639257,-1.542558102451963e-05,0.11884846484135103,-3.0299340965656008e-05,-0.09539509530123202
390,0.3806,126.975,382.364,0.000614645,220.341,-0.066593,-0.11522,-0.00936032,0.112571,-0.100503,0.212721,-1.54758e-05,-3.03991e-05,0.14802,-0.009316648570486863,0.23703946908105444,-1.5475680250398582e-05,0.11915171386370971,-3.0398637952067098e-05,-0.09561760073849712
391,0.3816,127.051,382.594,0.000613539,220.473,-0.0667298,-0.115457,-0.00938399,0.112842,-0.100748,0.213235,-1.55261e-05,-3.04985e-05,0.148388,-0.009340097767892797,0.23767547080660334,-1.5525979470742968e-05,0.11945504507768989,-3.0498034925496853e-05,-0.09583914728575593
392,0.3826,127.126,382.824,0.000612435,220.605,-0.0668668,-0.115695,-0.00940765,0.113113,-0.100994,0.213749,-1.55764e-05,-3.05981e-05,0.148755,-0.009363536503898318,0.23831179952106774,-1.557627868853384e-05,0.11975845850556843,-3.0597631882955945e-05,-0.09606154349966778
393,0.3836,127.202,383.053,0.000611334,220.737,-0.0670041,-0.115933,-0.0094313,0.113384,-0.10124,0.214263,-1.56267e-05,-3.06977e-05,0.149123,-0.00938696477921952,0.23894845539256382,-1.56265779037712e-05,0.12006195416962862,-3.069722883042303e-05,-0.09628388501083973
394,0.3846,127.277,383.281,0.000610236,220.868,-0.0671415,-0.116171,-0.00945494,0.113655,-0.101485,0.214776,-1.56771e-05,-3.07974e-05,0.14949,-0.009410382594572497,0.23958419900447425,-1.5676977114909008e-05,0.12036553209215906,-3.079692576490878e-05,-0.09650526833844708
395,0.3856,127.352,383.509,0.00060914,220.999,-0.0672793,-0.11641,-0.00947858,0.113926,-0.101731,0.215289,-1.57276e-05,-3.08973e-05,0.149857,-0.009433799856334857,0.24022026883652603,-1.5727476321947265e-05,0.12066919229545525,-3.089682268331284e-05,-0.09672750070673375
396,0.3866,127.427,383.737,0.000608047,221.13,-0.0674173,-0.116649,-0.0095022,0.114196,-0.101976,0.215802,-1.57781e-05,-3.09973e-05,0.150224,-0.009457196753663744,0.2408566650561128,-1.577797552643201e-05,0.12097181382944378,-3.099681958862455e-05,-0.09694877536180857
397,0.3876,127.502,383.965,0.000606957,221.26,-0.0675555,-0.116888,-0.00952582,0.114467,-0.102221,0.216314,-1.58287e-05,-3.10973e-05,0.150591,-0.009480593098364576,0.24149214633794736,-1.58285747268172e-05,0.12127563835735544,-3.1096816483944245e-05,-0.09716999581123331
398,0.3886,127.577,384.191,0.000605869,221.39,-0.067694,-0.117128,-0.00954943,0.114737,-0.102467,0.216827,-1.58794e-05,-3.11976e-05,0.150958,-0.009503978985490047,0.2421291951980804,-1.587927392299182e-05,0.12157842365388771,-3.1197113359970885e-05,-0.09739206467667338
399,0.3896,127.652,384.418,0.000604784,221.521,-0.0678327,-0.117369,-0.00957303,0.115007,-0.102712,0.217339,-1.59301e-05,-3.12979e-05,0.151324,-0.009527354415754807,0.24276532818216934,-1.5929973116612928e-05,0.12188129071348741,-3.129741022578347e-05,-0.09761317653351909
400,0.3906,127.726,384.644,0.000603701,221.65,-0.0679716,-0.117609,-0.00959662,0.115277,-0.102956,0.217851,-1.59809e-05,-3.13983e-05,0.15169,-0.009550719389873175,0.24340178694973935,-1.5980772306134483e-05,0.12218423955823354,-3.13978070785037e-05,-0.09783333205837863
401,0.3916,127.801,384.87,0.000602621,221.78,-0.0681108,-0.117851,-0.0096202,0.115547,-0.103201,0.218363,-1.60317e-05,-3.14989e-05,0.152057,-0.009574073908559133,0.24403857166763476,-1.6031571492991503e-05,0.12248727021021133,-3.149840391480918e-05,-0.0980543358179583
402,0.3926,127.875,385.095,0.000601544,221.909,-0.0682503,-0.118092,-0.00964377,0.115817,-0.103446,0.218874,-1.60826e-05,-3.15995e-05,0.152423,-0.009597417972526223,0.24467443782772413,-1.608247067563795e-05,0.12279038269151177,-3.159900074101163e-05,-0.09827528543824915
403,0.3936,127.949,385.32,0.000600469,222.038,-0.0683899,-0.118334,-0.00966733,0.116087,-0.103691,0.219386,-1.61335e-05,-3.17003e-05,0.152789,-0.009620751582487763,0.24531187430970647,-1.6133369855841906e-05,0.1230935770242314,-3.1699797550799325e-05,-0.09849618093251389
404,0.3946,128.023,385.544,0.000599397,222.167,-0.0685299,-0.118577,-0.00969088,0.116357,-0.103935,0.219897,-1.61845e-05,-3.18012e-05,0.153154,-0.009644074739156738,0.24594839129371748,-1.6184369031724266e-05,0.12339685323047345,-3.1800694347161595e-05,-0.09871612103058314
405,0.3956,128.097,385.768,0.000598327,222.296,-0.06867,-0.11882,-0.00971443,0.116626,-0.10418,0.220408,-1.62356e-05,-3.19023e-05,0.15352,-0.009667397346571849,0.24658523362102547,-1.6235468203396053e-05,0.1236990876326971,-3.190179112699809e-05,-0.09893690853335713
406,0.3966,128.171,385.992,0.00059726,222.424,-0.0688105,-0.119063,-0.00973797,0.116896,-0.104424,0.220919,-1.62867e-05,-3.20034e-05,0.153886,-0.009690709501653183,0.24722240145792318,-1.6286567372403304e-05,0.12400252734887607,-3.2002887896620535e-05,-0.09915674110701034
407,0.3976,128.244,386.215,0.000596195,222.553,-0.0689511,-0.119307,-0.00976149,0.117165,-0.104668,0.221429,-1.63379e-05,-3.21047e-05,0.154251,-0.009714001302253084,0.24785864711151784,-1.6337766537199983e-05,0.12430492469935306,-3.210418464960618e-05,-0.09937652004805908
408,0.3986,128.318,386.438,0.000595133,222.68,-0.069092,-0.119551,-0.00978501,0.117434,-0.104912,0.221939,-1.63892e-05,-3.22061e-05,0.154616,-0.009737292555036192,0.2484952173331536,-1.6389065697786087e-05,0.12460740340565923,-3.2205581389166404e-05,-0.099596245369588
409,0.3996,128.391,386.661,0.000594073,222.808,-0.0692332,-0.119796,-0.00980852,0.117703,-0.105156,0.22245,-1.64405e-05,-3.23076e-05,0.154981,-0.009760573357621372,0.2491333614211393,-1.6440364855707656e-05,0.1249099634896822,-3.230707811507916e-05,-0.09981591708467874
410,0.4006,128.464,386.883,0.000593016,222.936,-0.0693746,-0.120041,-0.00983202,0.117972,-0.1054,0.222959,-1.64919e-05,-3.24092e-05,0.155346,-0.00978384371071972,0.24976933214292063,-1.6491764009418652e-05,0.12521260497331554,-3.2408674827566486e-05,-0.10003553520640962
411,0.4016,128.537,387.104,0.000591961,223.063,-0.0695162,-0.120286,-0.00985551,0.118241,-0.105644,0.223469,-1.65433e-05,-3.25109e-05,0.155711,-0.009807103615042334,0.25040687706244924,-1.654316316035409e-05,0.12551532787845865,-3.2510371526406345e-05,-0.10025509974785585
412,0.4026,128.61,387.326,0.000590909,223.19,-0.0696581,-0.120532,-0.009879,0.11851,-0.105888,0.223979,-1.65948e-05,-3.26128e-05,0.156075,-0.00983036297299611,0.25104474721281345,-1.6594662307078956e-05,0.12581813222701688,-3.261226820838736e-05,-0.10047461072208941
413,0.4036,128.683,387.547,0.00058986,223.317,-0.0698002,-0.120778,-0.00990247,0.118779,-0.106131,0.224488,-1.66463e-05,-3.27147e-05,0.15644,-0.009853601981666293,0.25168169107760674,-1.6646161451139285e-05,0.1261210180409016,-3.2714164880043306e-05,-0.10069316883579771
414,0.4046,128.756,387.767,0.000588812,223.443,-0.0699426,-0.121025,-0.00992594,0.119047,-0.106375,0.224997,-1.66979e-05,-3.28168e-05,0.156804,-0.00987684044492343,0.2523189592293513,-1.669776059087802e-05,0.1264228589186076,-3.2816261534729385e-05,-0.10091257293421318
415,0.4056,128.828,387.987,0.000587768,223.57,-0.0700852,-0.121272,-0.00994939,0.119316,-0.106618,0.225506,-1.67496e-05,-3.2919e-05,0.157168,-0.009900058560781466,0.2529565518331509,-1.6749459726184135e-05,0.12672590742585355,-3.291845817565697e-05,-0.10113102463603352
416,0.4066,128.901,388.207,0.000586725,223.696,-0.070228,-0.12152,-0.00997284,0.119584,-0.106862,0.226014,-1.68013e-05,-3.30214e-05,0.157532,-0.009923276132181136,0.25359321546035174,-1.6801158858936738e-05,0.12702791043563932,-3.3020854799614696e-05,-0.10135032191066673
417,0.4076,128.973,388.426,0.000585685,223.822,-0.0703712,-0.121768,-0.00999628,0.119852,-0.107105,0.226523,-1.68531e-05,-3.31238e-05,0.157896,-0.009946483258600036,0.25423145682566894,-1.6852957987256723e-05,0.12732999439307835,-3.31232514130253e-05,-0.10156866725240898
418,0.4086,129.045,388.645,0.000584648,223.947,-0.0705145,-0.122016,-0.0100197,0.12012,-0.107348,0.227031,-1.6905e-05,-3.32264e-05,0.15826,-0.009969670040443801,0.2548687682691375,-1.690485711125511e-05,0.12763215931986727,-3.3225848009244e-05,-0.10178695954267925
419,0.4096,129.117,388.864,0.000583613,224.073,-0.0706581,-0.122265,-0.0100431,0.120388,-0.107591,0.227539,-1.69569e-05,-3.33291e-05,0.158623,-0.00999283647911653,0.2555064035490666,-1.6956756232588965e-05,0.12793440523770894,-3.33285445917042e-05,-0.10200519879436742
420,0.4106,129.189,389.082,0.00058258,224.198,-0.0708019,-0.122514,-0.0100665,0.120656,-0.107834,0.228046,-1.70089e-05,-3.34319e-05,0.158987,-0.010016002375700883,0.2561431066862727,-1.70087553494902e-05,0.12823673216831177,-3.343134116029489e-05,-0.10222338502036032
421,0.4116,129.261,389.3,0.00058155,224.323,-0.070946,-0.122764,-0.0100899,0.120924,-0.108077,0.228554,-1.70609e-05,-3.35348e-05,0.15935,-0.01003916773020952,0.2567813894945761,-1.70607544637269e-05,0.12853914013339018,-3.3534237714905046e-05,-0.10244151823354153
422,0.4126,129.332,389.517,0.000580522,224.448,-0.0710903,-0.123014,-0.0101133,0.121192,-0.10832,0.229061,-1.71131e-05,-3.36379e-05,0.159713,-0.010062332542655317,0.2574187392135512,-1.71129535717629e-05,0.12884162915466435,-3.363733425221227e-05,-0.10265959844679173
423,0.4136,129.404,389.734,0.000579496,224.572,-0.0712349,-0.123265,-0.0101367,0.121459,-0.108562,0.229568,-1.71652e-05,-3.37411e-05,0.160076,-0.01008549681305082,0.25805641215076247,-1.7165052678791426e-05,0.1291430701102254,-3.374053077553896e-05,-0.1028767285501655
424,0.4146,129.475,389.951,0.000578473,224.697,-0.0713797,-0.123515,-0.0101601,0.121727,-0.108805,0.230075,-1.72174e-05,-3.38444e-05,0.160439,-0.010108660541408687,0.2586944084701237,-1.7217251781387333e-05,0.1294457210064235,-3.3843827284774086e-05,-0.10309470302015711
425,0.4156,129.546,390.167,0.000577452,224.821,-0.0715248,-0.123767,-0.0101835,0.121994,-0.109047,0.230582,-1.72697e-05,-3.39478e-05,0.160802,-0.010131823727741684,0.2593327283356306,-1.726955087955062e-05,0.12974732327604355,-3.394722377991766e-05,-0.10331172784096376
426,0.4166,129.618,390.383,0.000576434,224.945,-0.0716701,-0.124019,-0.0102068,0.122261,-0.10929,0.231089,-1.73221e-05,-3.40513e-05,0.161164,-0.0101548873875561,0.259971371911363,-1.7321949973281292e-05,0.13004900608422099,-3.405072026108069e-05,-0.10352959661896977
427,0.4176,129.689,390.598,0.000575418,225.068,-0.0718156,-0.124271,-0.0102302,0.122528,-0.109532,0.231595,-1.73745e-05,-3.4155e-05,0.161527,-0.010178049492193586,0.2606090787517743,-1.7374349064236405e-05,0.13035076945246238,-3.415441672460773e-05,-0.10374651620825903
428,0.4186,129.759,390.813,0.000574404,225.192,-0.0719614,-0.124524,-0.0102535,0.122795,-0.109774,0.232101,-1.7427e-05,-3.42588e-05,0.161889,-0.010201112074960328,0.26124710835349885,-1.74268481507589e-05,0.1306526134022803,-3.4258213174043206e-05,-0.10396338330935906
429,0.4196,129.83,391.028,0.000573392,225.315,-0.0721075,-0.124777,-0.0102769,0.123062,-0.110016,0.232607,-1.74795e-05,-3.43627e-05,0.162251,-0.010224273097952707,0.26188546087989484,-1.7479347234394815e-05,0.13095453795519285,-3.436210960916508e-05,-0.10418019793497035
430,0.4206,129.901,391.243,0.000572383,225.438,-0.0722538,-0.12503,-0.0103002,0.123329,-0.110258,0.233112,-1.75321e-05,-3.44667e-05,0.162613,-0.010247334603721958,0.26252287397089824,-1.7531946313598112e-05,0.13125654313272395,-3.4466106030084376e-05,-0.10439696009779054
431,0.4216,129.971,391.457,0.000571376,225.561,-0.0724003,-0.125284,-0.0103235,0.123595,-0.1105,0.233618,-1.75848e-05,-3.45709e-05,0.162975,-0.01027039557216436,0.2631618721980451,-1.758464538825777e-05,0.13155749739834,-3.457030243336767e-05,-0.10461366981051401
432,0.4226,130.042,391.67,0.000570371,225.684,-0.0725471,-0.125539,-0.0103468,0.123862,-0.110741,0.234123,-1.76375e-05,-3.46752e-05,0.163336,-0.010293456003292456,0.26379993003954993,-1.763734446025289e-05,0.13185966358753665,-3.4674598822226343e-05,-0.1048294319157117
433,0.4236,130.112,391.884,0.000569369,225.806,-0.0726941,-0.125793,-0.0103701,0.124129,-0.110983,0.234628,-1.76903e-05,-3.47796e-05,0.163698,-0.010316515897118794,0.264438310181639,-1.769014352759335e-05,0.1321619104658771,-3.477899519677141e-05,-0.10504603698291781
434,0.4246,130.182,392.096,0.000568369,225.928,-0.0728414,-0.126049,-0.0103934,0.124395,-0.111225,0.235133,-1.77432e-05,-3.48841e-05,0.164059,-0.010339575253655808,0.26507701278711493,-1.7743042590390168e-05,0.13246310559123686,-3.4883491556891855e-05,-0.1052625896380398
435,0.4256,130.252,392.309,0.000567371,226.05,-0.0729889,-0.126304,-0.0104167,0.124661,-0.111466,0.235638,-1.77961e-05,-3.49887e-05,0.164421,-0.010362634072916155,0.2657160380188628,-1.7795941650300406e-05,0.1327643808451564,-3.498808790258767e-05,-0.10547819537240255
436,0.4266,130.322,392.521,0.000566375,226.172,-0.0731367,-0.12656,-0.0104399,0.124927,-0.111707,0.236142,-1.78491e-05,-3.50935e-05,0.164782,-0.010385593393476444,0.26635411968509715,-1.7848940705778027e-05,0.13306573624895313,-3.5092884230314425e-05,-0.10569374915204399
437,0.4276,130.392,392.733,0.000565382,226.294,-0.0732847,-0.126817,-0.0104632,0.125193,-0.111949,0.236646,-1.79021e-05,-3.51984e-05,0.165143,-0.010408651140526581,0.26699252302554655,-1.7901939758369068e-05,0.1333671718239493,-3.519778054361655e-05,-0.10591014507978591
438,0.4286,130.461,392.945,0.000564391,226.415,-0.073433,-0.127074,-0.0104865,0.125459,-0.11219,0.23715,-1.79552e-05,-3.53034e-05,0.165503,-0.010431708350337465,0.2676312482023755,-1.7955038806416468e-05,0.13366868759147366,-3.530277684227201e-05,-0.10612559477209094
439,0.4296,130.531,393.156,0.000563402,226.536,-0.0735815,-0.127331,-0.0105097,0.125725,-0.112431,0.237654,-1.80084e-05,-3.54086e-05,0.165864,-0.010454666068393181,0.2682702953778304,-1.8008237849698183e-05,0.13397028357286023,-3.54079731229584e-05,-0.10634099254727647
440,0.4306,130.6,393.366,0.000562415,226.657,-0.0737302,-0.127589,-0.0105329,0.125991,-0.112672,0.238158,-1.80617e-05,-3.55139e-05,0.166225,-0.010477623253836055,0.26890966471423927,-1.8061536888436258e-05,0.1342719597894486,-3.55132693888871e-05,-0.10655633841785284
441,0.4316,130.67,393.577,0.000561431,226.778,-0.0738792,-0.127847,-0.0105562,0.126256,-0.112913,0.238661,-1.8115e-05,-3.56193e-05,0.166585,-0.01050067885661543,0.2695480868252911,-1.8114835924398776e-05,0.13457258168943542,-3.5618665640280156e-05,-0.1067716323963277
442,0.4326,130.739,393.787,0.000560448,226.898,-0.0740285,-0.128106,-0.0105794,0.126522,-0.113153,0.239164,-1.81683e-05,-3.57248e-05,0.166945,-0.010523634974573981,0.27018683014344136,-1.8168134957474713e-05,0.13487441813863277,-3.572416187691552e-05,-0.10698598148163341
443,0.4336,130.808,393.997,0.000559468,227.019,-0.0741779,-0.128365,-0.0106026,0.126787,-0.113394,0.239667,-1.82218e-05,-3.58304e-05,0.167305,-0.01054659055995677,0.2708258948302982,-1.8221633984016883e-05,0.13517519971123781,-3.582975809890421e-05,-0.10720117192860601
444,0.4346,130.877,394.206,0.00055849,227.139,-0.0743277,-0.128624,-0.0106258,0.127052,-0.113635,0.24017,-1.82753e-05,-3.59362e-05,0.167665,-0.010569545612776121,0.27146528104755063,-1.8275133007672473e-05,0.13547606100152154,-3.5935554302479744e-05,-0.10741631052092948
445,0.4356,130.946,394.415,0.000557514,227.259,-0.0744777,-0.128884,-0.010649,0.127317,-0.113875,0.240672,-1.83288e-05,-3.60421e-05,0.168025,-0.010592500133044358,0.27210371685261614,-1.8328632028552505e-05,0.13577700203061216,-3.604145049129759e-05,-0.10763050490205062
446,0.4366,131.014,394.624,0.000556541,227.379,-0.0746279,-0.129145,-0.0106722,0.127582,-0.114116,0.241175,-1.83824e-05,-3.61481e-05,0.168385,-0.010615454120774026,0.27274374597602313,-1.8382231044666852e-05,0.1360780228196432,-3.614744666535774e-05,-0.10784554003759461
447,0.4376,131.083,394.832,0.000555569,227.498,-0.0747784,-0.129405,-0.0106954,0.127847,-0.114356,0.241677,-1.84361e-05,-3.62543e-05,0.168744,-0.010638407575977338,0.27338282373159895,-1.8435930056126537e-05,0.13637912338975378,-3.6253642820782694e-05,-0.10805963141599251
448,0.4386,131.151,395.04,0.0005546,227.617,-0.0749291,-0.129667,-0.0107185,0.128112,-0.114596,0.242179,-1.84899e-05,-3.63606e-05,0.169104,-0.010661261564797742,0.2740222223847464,-1.8489729062820537e-05,0.13668030376208895,-3.6359938961449956e-05,-0.10827367141862498
449,0.4396,131.22,395.247,0.000553633,227.737,-0.0750801,-0.129928,-0.0107417,0.128377,-0.114836,0.24268,-1.85437e-05,-3.6467e-05,0.169463,-0.010684213957280586,0.27466066743529227,-1.8543528066627957e-05,0.13698156395779892,-3.646633508702646e-05,-0.10848766005782073
450,0.4406,131.288,395.455,0.000552667,227.856,-0.0752313,-0.13019,-0.0107648,0.128641,-0.115076,0.243182,-1.85976e-05,-3.65735e-05,0.169822,-0.010707066887985839,0.27530070772701687,-1.859742706566969e-05,0.13728176671570425,-3.6572831197734246e-05,-0.10870159734590534
451,0.4416,131.356,395.662,0.000551704,227.974,-0.0753828,-0.130453,-0.010788,0.128906,-0.115316,0.243683,-1.86515e-05,-3.66802e-05,0.170181,-0.010730018217797621,0.2759397934591965,-1.8651326061824847e-05,0.1375831863202175,-3.667952728969581e-05,-0.10891548329520173
452,0.4426,131.424,395.868,0.000550744,228.093,-0.0755345,-0.130716,-0.0108111,0.12917,-0.115556,0.244184,-1.87055e-05,-3.6787e-05,0.17054,-0.010752870090436684,0.2765791994535467,-1.8705325053214317e-05,0.13788354792739366,-3.678632336656662e-05,-0.10912931791802971
453,0.4436,131.492,396.074,0.000549785,228.211,-0.0756864,-0.130979,-0.0108342,0.129435,-0.115795,0.244685,-1.87596e-05,-3.68939e-05,0.170898,-0.010775721435203445,0.2772189258705595,-1.8759424039838102e-05,0.13818512702506003,-3.689321942845769e-05,-0.10934221056936211
454,0.4446,131.56,396.28,0.000548828,228.329,-0.0758386,-0.131243,-0.0108573,0.129699,-0.116035,0.245186,-1.88137e-05,-3.70009e-05,0.171257,-0.010798572252110339,0.2778589728708065,-1.8813523023464285e-05,0.13848564756556048,-3.700021547514698e-05,-0.10955594278993308
455,0.4456,131.627,396.486,0.000547873,228.447,-0.0759911,-0.131507,-0.0108805,0.129963,-0.116275,0.245686,-1.8868e-05,-3.71081e-05,0.171615,-0.010821521459022265,0.27849806211623895,-1.8867822000445678e-05,0.13878624745395718,-3.7107411502979026e-05,-0.10976962372092613
456,0.4466,131.695,396.691,0.000546921,228.565,-0.0761438,-0.131772,-0.0109036,0.130227,-0.116514,0.246187,-1.89222e-05,-3.72154e-05,0.171973,-0.010844371217960891,0.2791387501243041,-1.8922020976308573e-05,0.1390869267112007,-3.721470751560929e-05,-0.10998236335745759
457,0.4476,131.762,396.896,0.00054597,228.683,-0.0762968,-0.132037,-0.0109266,0.130491,-0.116753,0.246687,-1.89766e-05,-3.73228e-05,0.172331,-0.010867121535793167,0.279778479418362,-1.8976419945415657e-05,0.13938768535824697,-3.732210351292675e-05,-0.11019505215529146
458,0.4486,131.83,397.1,0.000545022,228.8,-0.07645,-0.132302,-0.0109497,0.130754,-0.116992,0.247187,-1.9031e-05,-3.74304e-05,0.172689,-0.010889970241382163,0.2804185286570464,-1.903081891163616e-05,0.13968738372810452,-3.742969949127595e-05,-0.11040769012657659
459,0.4496,131.897,397.305,0.000544076,228.917,-0.0766034,-0.132568,-0.0109728,0.131018,-0.117232,0.247686,-1.90854e-05,-3.75381e-05,0.173047,-0.010912818419172132,0.2810576169421124,-1.9085217874859062e-05,0.13998830091672976,-3.753739545431234e-05,-0.11062116666273714
460,0.4506,131.964,397.509,0.000543131,229.034,-0.0767571,-0.132834,-0.0109959,0.131282,-0.117471,0.248186,-1.914e-05,-3.76459e-05,0.173405,-0.010935666069175287,0.28169830590947753,-1.913981683132615e-05,0.14028929755798036,-3.764519140203593e-05,-0.11083370280482407
461,0.4516,132.031,397.712,0.000542189,229.151,-0.0769111,-0.133101,-0.0110189,0.131545,-0.11771,0.248685,-1.91946e-05,-3.77538e-05,0.173762,-0.010958414287250196,0.28233803296275184,-1.9194415784795638e-05,0.14058923308303073,-3.7753087334224666e-05,-0.11104618815684275
462,0.4526,132.098,397.915,0.000541249,229.267,-0.0770653,-0.133369,-0.011042,0.131808,-0.117948,0.249184,-1.92493e-05,-3.78619e-05,0.17412,-0.010981260884000865,0.28297807931948515,-1.9249114733388417e-05,0.14088924750149823,-3.786118324733412e-05,-0.11125773398910876
463,0.4536,132.165,398.118,0.00054031,229.384,-0.0772197,-0.133636,-0.011065,0.132071,-0.118187,0.249683,-1.9304e-05,-3.79701e-05,0.174477,-0.011004008053407177,0.28361844513905,-1.9303813678983595e-05,0.1411893408341347,-3.796937914490872e-05,-0.1114701180097839
464,0.4546,132.232,398.321,0.000539374,229.5,-0.0773744,-0.133904,-0.011088,0.132335,-0.118426,0.250182,-1.93588e-05,-3.80785e-05,0.174834,-0.011026754699634433,0.2842591305808979,-1.9358612619591042e-05,0.1414906545917809,-3.807777502307097e-05,-0.11168245127674348
465,0.4556,132.298,398.523,0.00053844,229.616,-0.0775293,-0.134173,-0.0111111,0.132598,-0.118664,0.25068,-1.94137e-05,-3.81869e-05,0.175191,-0.011049599717739889,0.2848988509050667,-1.9413511555321783e-05,0.1417909061152831,-3.818617088957588e-05,-0.11189384569640581
466,0.4566,132.365,398.725,0.000537508,229.732,-0.0776845,-0.134442,-0.0111341,0.13286,-0.118903,0.251178,-1.94686e-05,-3.82955e-05,0.175548,-0.011072345315371046,0.28553888988929677,-1.946841048805492e-05,0.14209009452465549,-3.829476673666843e-05,-0.11210607770454917
467,0.4576,132.431,398.926,0.000536577,229.847,-0.0778399,-0.134711,-0.0111571,0.133123,-0.119141,0.251676,-1.95236e-05,-3.84042e-05,0.175904,-0.011095090389859452,0.2861792476923204,-1.952340941580033e-05,0.14239050372159334,-3.840346256811511e-05,-0.1123173713131187
468,0.4586,132.497,399.128,0.000535649,229.963,-0.0779956,-0.134981,-0.0111801,0.133386,-0.119379,0.252174,-1.95787e-05,-3.85131e-05,0.176261,-0.011117834941217097,0.2868199244729486,-1.957850833855801e-05,0.14269099193654022,-3.8512358380038414e-05,-0.11252861463979313
469,0.4596,132.563,399.329,0.000534723,230.078,-0.0781516,-0.135251,-0.0112031,0.133648,-0.119617,0.252672,-1.96338e-05,-3.86221e-05,0.176617,-0.011140578969456194,0.287460920390072,-1.9633607258207064e-05,0.1429904161992932,-3.862135417631585e-05,-0.11273980769653824
470,0.4606,132.629,399.529,0.000533798,230.193,-0.0783078,-0.135522,-0.011226,0.133911,-0.119856,0.253169,-1.9689e-05,-3.87312e-05,0.176974,-0.011163223590915816,0.28810094750106874,-1.968880617286839e-05,0.1432910622119714,-3.8730449956725366e-05,-0.11295183754392268
471,0.4616,132.695,399.729,0.000532876,230.308,-0.0784642,-0.135793,-0.011249,0.134173,-0.120093,0.253666,-1.97443e-05,-3.88404e-05,0.17733,-0.011185966575227968,0.2887412927845987,-1.9744105082541985e-05,0.14359064371373398,-3.883964572137799e-05,-0.11316204304808863
472,0.4626,132.761,399.929,0.000531955,230.423,-0.0786209,-0.136064,-0.011272,0.134435,-0.120331,0.254163,-1.97996e-05,-3.89498e-05,0.177686,-0.011208709036457432,0.28938195639883335,-1.979940398921798e-05,0.1438903037161332,-3.894904146639622e-05,-0.11337308536681112
473,0.4636,132.827,400.129,0.000531037,230.537,-0.0787778,-0.136336,-0.0112949,0.134698,-0.120569,0.25466,-1.9855e-05,-3.90593e-05,0.178041,-0.011231352097756386,0.2900229385020221,-1.985480289079522e-05,0.1441911864303531,-3.9058537195435505e-05,-0.11358407746343835
474,0.4646,132.892,400.328,0.00053012,230.652,-0.078935,-0.136609,-0.0113179,0.13496,-0.120807,0.255157,-1.99105e-05,-3.9169e-05,0.178397,-0.011254093515130847,0.29066423925249363,-1.991030178727371e-05,0.14449100379555757,-3.916823290472937e-05,-0.11379501934992187
475,0.4656,132.958,400.527,0.000529205,230.766,-0.0790924,-0.136882,-0.0113408,0.135222,-0.121044,0.255653,-1.9966e-05,-3.92787e-05,0.178753,-0.011276735537137261,0.2913045675034416,-1.9965800680754597e-05,0.14479089972320303,-3.927792860192181e-05,-0.11400502504367815
476,0.4666,133.023,400.726,0.000528292,230.88,-0.0792501,-0.137155,-0.0113637,0.135483,-0.121282,0.25615,-2.00216e-05,-3.93887e-05,0.179108,-0.011299377040647207,0.29194650538183975,-2.0021399569136733e-05,0.14508972914357376,-3.938792427538029e-05,-0.1142158667565587
477,0.4676,133.088,400.924,0.000527382,230.994,-0.079408,-0.137429,-0.0113866,0.135745,-0.121519,0.256646,-2.00773e-05,-3.94987e-05,0.179463,-0.011322018025672675,0.29258746979454275,-2.0077098452309095e-05,0.14538978195781183,-3.9497919936626324e-05,-0.11442577272129806
478,0.4686,133.154,401.122,0.000526473,231.107,-0.0795662,-0.137703,-0.0114096,0.136007,-0.121757,0.257141,-2.0133e-05,-3.96089e-05,0.179818,-0.011344757357754864,0.29322745897634594,-2.0132797332483854e-05,0.1456899133961862,-3.960811557790489e-05,-0.11463651430814681
479,0.4696,133.219,401.32,0.000525565,231.221,-0.0797246,-0.137977,-0.0114325,0.136268,-0.121994,0.257637,-2.01888e-05,-3.97192e-05,0.180173,-0.011367397303582938,0.29386905889962556,-2.018859620755986e-05,0.14598897748974915,-3.971841120298247e-05,-0.11484632059122923
480,0.4706,133.284,401.517,0.00052466,231.334,-0.0798833,-0.138252,-0.0114553,0.13653,-0.122231,0.258132,-2.02447e-05,-3.98296e-05,0.180528,-0.011389937869961009,0.29450968262507216,-2.0244495077426095e-05,0.14628926593792047,-3.98288068119701e-05,-0.11505607715611432
481,0.4716,133.348,401.715,0.000523757,231.447,-0.0800422,-0.138528,-0.0114782,0.136791,-0.122468,0.258628,-2.03007e-05,-3.99402e-05,0.180883,-0.01141257678116725,0.29515191868903123,-2.0300493942193576e-05,0.14658848648291278,-3.993940240087923e-05,-0.11526578401458398
482,0.4726,133.413,401.911,0.000522855,231.56,-0.0802014,-0.138804,-0.0115011,0.137052,-0.122705,0.259123,-2.03567e-05,-4.00509e-05,0.181237,-0.01143521517394841,0.295793177587266,-2.035649280374141e-05,0.14688778513465972,-4.005009797336534e-05,-0.11547544117841724
483,0.4736,133.478,402.108,0.000521956,231.673,-0.0803608,-0.13908,-0.011524,0.137313,-0.122942,0.259617,-2.04127e-05,-4.01617e-05,0.181592,-0.011457853048316258,0.29643345755312467,-2.0412491662291643e-05,0.14718716191355008,-4.016089352976149e-05,-0.11568504865939033
484,0.4746,133.542,402.304,0.000521058,231.785,-0.0805205,-0.139357,-0.0115468,0.137574,-0.123178,0.260112,-2.04689e-05,-4.02727e-05,0.181946,-0.01148039155232683,0.2970753509701276,-2.046869051353095e-05,0.14748661683997755,-4.027188906574608e-05,-0.1158937223634412
485,0.4756,133.607,402.5,0.000520162,231.897,-0.0806805,-0.139634,-0.0115697,0.137835,-0.123415,0.260606,-2.05251e-05,-4.03838e-05,0.1823,-0.011503028392167436,0.2977162644861113,-2.0524889361550613e-05,0.14778614993434114,-4.0382984585307646e-05,-0.11610323072351969
486,0.4766,133.671,402.695,0.000519268,232.01,-0.0808406,-0.139911,-0.0115925,0.138096,-0.123652,0.261101,-2.05814e-05,-4.0495e-05,0.182654,-0.011525565866191911,0.298358793049732,-2.0581188204471523e-05,0.14808576121704564,-4.049418008855721e-05,-0.11631268943600037
487,0.4776,133.735,402.891,0.000518376,232.122,-0.0810011,-0.140189,-0.0116154,0.138356,-0.123888,0.261595,-2.06378e-05,-4.06064e-05,0.183008,-0.011548201671552683,0.29900034074273196,-2.0637587042071637e-05,0.1483843023236242,-4.060557557128419e-05,-0.11652121503430501
488,0.4786,133.8,403.086,0.000517485,232.233,-0.0811617,-0.140468,-0.0116382,0.138617,-0.124124,0.262089,-2.06942e-05,-4.07179e-05,0.183362,-0.011570738115638135,0.29964220543858566,-2.0693985876563126e-05,0.14868406974447734,-4.071707103758815e-05,-0.11672969142637502
489,0.4796,133.864,403.28,0.000516597,232.345,-0.0813227,-0.140747,-0.011661,0.138877,-0.124361,0.262582,-2.07507e-05,-4.08296e-05,0.183715,-0.011593274045898494,0.3002830870101936,-2.0750484705733818e-05,0.14898276643149755,-4.0828766483258505e-05,-0.11693900168526161
490,0.4806,133.928,403.475,0.00051571,232.457,-0.0814839,-0.141026,-0.0116838,0.139138,-0.124597,0.263076,-2.08072e-05,-4.09413e-05,0.184069,-0.011615809462345528,0.3009255855392472,-2.0806983531684864e-05,0.14928269007186867,-4.094046191638334e-05,-0.1171473794913156
491,0.4816,133.991,403.669,0.000514825,232.568,-0.0816453,-0.141306,-0.0117066,0.139398,-0.124833,0.263569,-2.08639e-05,-4.10533e-05,0.184422,-0.011638344364990894,0.30156709997323294,-2.0863682350324986e-05,0.149581542420409,-4.105245732477503e-05,-0.11735570812600982
492,0.4826,134.055,403.862,0.000513942,232.679,-0.081807,-0.141586,-0.0117294,0.139658,-0.125069,0.264062,-2.09206e-05,-4.11653e-05,0.184775,-0.01166087875384636,0.302208930751807,-2.092038116574546e-05,0.14988047248066216,-4.116445272062119e-05,-0.11756398760094744
493,0.4836,134.119,404.056,0.00051306,232.79,-0.0819689,-0.141867,-0.0117522,0.139918,-0.125305,0.264555,-2.09773e-05,-4.12775e-05,0.185128,-0.011683412628923584,0.30285107803096567,-2.097707997794629e-05,0.15017948027283579,-4.1276648095722734e-05,-0.11777221792772852
494,0.4846,134.182,404.249,0.00051218,232.901,-0.0821311,-0.142148,-0.011775,0.140178,-0.12554,0.265047,-2.10342e-05,-4.13898e-05,0.185481,-0.011705945990234445,0.3034922384738925,-2.103397878272517e-05,0.15047856581714258,-4.138894345406818e-05,-0.11797951709790899
495,0.4856,134.246,404.442,0.000511303,233.011,-0.0822935,-0.142429,-0.0117977,0.140438,-0.125776,0.26554,-2.10911e-05,-4.15023e-05,0.185834,-0.011728380010633366,0.30413501857973735,-2.1090877584284407e-05,0.15077772913380105,-4.1501438791446965e-05,-0.11818764937129966
496,0.4866,134.309,404.634,0.000510426,233.122,-0.0824562,-0.142711,-0.0118205,0.140698,-0.126012,0.266032,-2.1148e-05,-4.16149e-05,0.186187,-0.01175091234669945,0.3047768108768374,-2.1147776382623995e-05,0.15107697024303413,-4.161403411206965e-05,-0.11839573253126934
497,0.4876,134.372,404.827,0.000509552,233.232,-0.0826192,-0.142994,-0.0118432,0.140957,-0.126247,0.266524,-2.12051e-05,-4.17276e-05,0.186539,-0.011773345346373643,0.30541891901343776,-2.1204875173430615e-05,0.15137513778935774,-4.1726729415825226e-05,-0.11860288519273343
498,0.4886,134.435,405.019,0.000508679,233.342,-0.0827824,-0.143277,-0.011866,0.141217,-0.126483,0.267016,-2.12622e-05,-4.18405e-05,0.186891,-0.01179587665724191,0.3060613431449697,-2.126197396101759e-05,0.15167453424503563,-4.183962469850311e-05,-0.11881087036861193
499,0.4896,134.498,405.21,0.000507809,233.452,-0.0829458,-0.14356,-0.0118887,0.141476,-0.126718,0.267507,-2.13194e-05,-4.19535e-05,0.187244,-0.011818308636237784,0.3067027767235109,-2.1319172743172743e-05,0.15197285658047965,-4.195261996420285e-05,-0.11901792548414625
500,0.4906,134.561,405.402,0.000506939,233.562,-0.0831095,-0.143844,-0.0119114,0.141736,-0.126953,0.267999,-2.13767e-05,-4.20666e-05,0.187596,-0.011840740106033643,0.3073458326684497,-2.13764715200071e-05,0.15227240846324808,-4.206571521303548e-05,-0.11922493194744543
501,0.4916,134.624,405.593,0.000506072,233.671,-0.0832735,-0.144128,-0.0119342,0.141995,-0.127188,0.26849,-2.1434e-05,-4.21799e-05,0.187948,-0.011863269880318827,0.30798789708620533,-2.143377029351079e-05,0.15257088566816956,-4.2179010440568376e-05,-0.11943188976994112
502,0.4926,134.687,405.784,0.000505206,233.781,-0.0834377,-0.144412,-0.0119569,0.142254,-0.127423,0.268981,-2.14914e-05,-4.22933e-05,0.188299,-0.011885700329505977,0.30863027683499755,-2.1491169061471638e-05,0.15286944018869897,-4.229240565101211e-05,-0.11963879896306284
503,0.4936,134.75,405.974,0.000504342,233.89,-0.0836021,-0.144697,-0.0119796,0.142513,-0.127658,0.269472,-2.15488e-05,-4.24068e-05,0.188651,-0.01190813026952775,0.30927297206969184,-2.154856782632386e-05,0.15316807204486382,-4.2405900844366684e-05,-0.11984565953823689
504,0.4946,134.812,406.164,0.00050348,233.999,-0.0837668,-0.144983,-0.0120023,0.142772,-0.127893,0.269963,-2.16064e-05,-4.25205e-05,0.189002,-0.011930559700395582,0.3099159829452298,-2.160616658342107e-05,0.15346678125669655,-4.25195960163105e-05,-0.12005247150688736
505,0.4956,134.875,406.354,0.00050262,234.108,-0.0839318,-0.145269,-0.0120249,0.143031,-0.128128,0.270453,-2.1664e-05,-4.26343e-05,0.189354,-0.011952889817415047,0.310557999057975,-2.1663765337298635e-05,0.1537655678442349,-4.263339117116516e-05,-0.12025923488043533
506,0.4966,134.937,406.544,0.000501761,234.217,-0.084097,-0.145555,-0.0120476,0.143289,-0.128363,0.270943,-2.17217e-05,-4.27483e-05,0.189705,-0.01197531823225273,0.311200329835702,-2.1721464085633357e-05,0.15406327776366702,-4.2747386304498036e-05,-0.12046594967029933
507,0.4976,134.999,406.733,0.000500904,234.325,-0.0842625,-0.145842,-0.0120703,0.143548,-0.128597,0.271433,-2.17794e-05,-4.28624e-05,0.190056,-0.011997746137971221,0.3118429754326344,-2.177916283063741e-05,0.1543622188638092,-4.286148142040869e-05,-0.12067173656007135
508,0.4986,135.061,406.922,0.000500048,234.434,-0.0844282,-0.146129,-0.0120929,0.143806,-0.128832,0.271923,-2.18372e-05,-4.29766e-05,0.190407,-0.012020074736594388,0.3124859360030716,-2.1836961570098623e-05,0.15466008273906362,-4.2975676519119155e-05,-0.12087835442342987
509,0.4996,135.124,407.111,0.000499194,234.542,-0.0845941,-0.146417,-0.0121156,0.144065,-0.129066,0.272413,-2.18951e-05,-4.3091e-05,0.190758,-0.012042501626351676,0.3131292117013884,-2.1894860304016994e-05,0.15495917843171325,-4.309007159619682e-05,-0.12108404482177959
510,0.5006,135.186,407.299,0.000498342,234.65,-0.0847604,-0.146705,-0.0121382,0.144323,-0.1293,0.272902,-2.19531e-05,-4.32055e-05,0.191109,-0.012064829213512263,0.31377148890988926,-2.1952859032503547e-05,0.1552571963424061,-4.320456665585226e-05,-0.12128968709420718
511,0.5016,135.247,407.488,0.000497492,234.758,-0.0849268,-0.146993,-0.0121609,0.144581,-0.129535,0.273392,-2.20111e-05,-4.33202e-05,0.191459,-0.01208725508735442,0.3144153946834862,-2.2010857757548408e-05,0.15555529115163913,-4.3319261693652855e-05,-0.12149615975625205
512,0.5026,135.309,407.676,0.000496643,234.866,-0.0850936,-0.147282,-0.0121835,0.144839,-0.129769,0.273881,-2.20692e-05,-4.3435e-05,0.19181,-0.012109581663098279,0.3150583009892671,-2.2068956477050428e-05,0.15585346287925517,-4.343405671403122e-05,-0.12170170560506677
513,0.5036,135.371,407.863,0.000495796,234.973,-0.0852605,-0.147572,-0.0122061,0.145097,-0.130003,0.27437,-2.21274e-05,-4.35499e-05,0.19216,-0.012131907734267089,0.3157015217531103,-2.2127155190898584e-05,0.15615171154510166,-4.354895171687634e-05,-0.12190720336178007
514,0.5046,135.432,408.051,0.00049495,235.081,-0.0854278,-0.147861,-0.0122287,0.145355,-0.130237,0.274858,-2.21856e-05,-4.3665e-05,0.19251,-0.012154233300872397,0.3163437407844245,-2.218535390141607e-05,0.15645003716903094,-4.366404669775559e-05,-0.12211265303764385
515,0.5056,135.494,408.238,0.000494106,235.188,-0.0855953,-0.148152,-0.0122513,0.145613,-0.130471,0.275347,-2.22439e-05,-4.37802e-05,0.19286,-0.012176558362925749,0.31698759028204027,-2.2243652606279696e-05,0.15674843977090092,-4.3779241660990564e-05,-0.12231805464390788
516,0.5066,135.555,408.424,0.000493264,235.295,-0.085763,-0.148442,-0.0122739,0.14587,-0.130704,0.275835,-2.23023e-05,-4.38956e-05,0.19321,-0.012198882920438248,0.31763043706795635,-2.230205130560048e-05,0.15704576232423362,-4.3894636602259673e-05,-0.12252253071478847
517,0.5076,135.617,408.611,0.000492423,235.402,-0.085931,-0.148733,-0.0122965,0.146128,-0.130938,0.276323,-2.23608e-05,-4.40111e-05,0.19356,-0.01222120697342155,0.3182735976396611,-2.2360549999156376e-05,0.15734431864302234,-4.401013152577349e-05,-0.1227278364208968
518,0.5086,135.678,408.797,0.000491584,235.509,-0.0860993,-0.149025,-0.0123191,0.146385,-0.131171,0.276811,-2.24193e-05,-4.41267e-05,0.193909,-0.01224353052188687,0.31891707215031984,-2.2419048689381604e-05,0.1576417943569055,-4.412572643153201e-05,-0.1229322170237459
519,0.5096,135.739,408.983,0.000490747,235.616,-0.0862678,-0.149317,-0.0123416,0.146643,-0.131405,0.277299,-2.24779e-05,-4.42425e-05,0.194259,-0.012265754792426087,0.31956086075317214,-2.247764737395297e-05,0.15794050447179742,-4.4241521314991594e-05,-0.12313742687447338
520,0.5106,135.8,409.169,0.000489911,235.722,-0.0864365,-0.14961,-0.0123642,0.1469,-0.131638,0.277786,-2.25366e-05,-4.43584e-05,0.194608,-0.012288077334122183,0.32020364339722884,-2.253634605275945e-05,0.15823813342512905,-4.4357416180695886e-05,-0.12334171205386402
521,0.5116,135.861,409.354,0.000489077,235.828,-0.0866055,-0.149902,-0.0123868,0.147157,-0.131872,0.278273,-2.25954e-05,-4.44744e-05,0.194957,-0.01231039937133438,0.3208467391526695,-2.2595144725912064e-05,0.15853583887893152,-4.447341102853386e-05,-0.12354682609396483
522,0.5126,135.922,409.539,0.000488244,235.935,-0.0867748,-0.150196,-0.0124093,0.147414,-0.132105,0.278761,-2.26542e-05,-4.45906e-05,0.195306,-0.012332622137341542,0.3214914696628255,-2.2653943395511966e-05,0.158833620852868,-4.458960585396188e-05,-0.12375101589444937
523,0.5136,135.983,409.724,0.000487413,236.041,-0.0869443,-0.15049,-0.0124318,0.147671,-0.132338,0.279248,-2.27131e-05,-4.4707e-05,0.195655,-0.012354844403342002,0.32213519274239877,-2.2712842059458005e-05,0.15913147936660677,-4.470600065697994e-05,-0.12395515812425262
524,0.5146,136.043,409.909,0.000486584,236.146,-0.0871141,-0.150784,-0.0124544,0.147928,-0.132571,0.279734,-2.2772e-05,-4.48235e-05,0.196004,-0.012377164931635543,0.3227779066128915,-2.2771740719962352e-05,0.15942941443982117,-4.482249544190964e-05,-0.12415925279445728
525,0.5156,136.104,410.093,0.000485756,236.252,-0.0872841,-0.151079,-0.0124769,0.148185,-0.132804,0.280221,-2.28311e-05,-4.49401e-05,0.196352,-0.012399386195434459,0.32342225633983546,-2.283083937237862e-05,0.15972742609218926,-4.4939090208862e-05,-0.12436329991614337
526,0.5166,136.165,410.277,0.00048493,236.358,-0.0874544,-0.151374,-0.0124994,0.148441,-0.133037,0.280707,-2.28902e-05,-4.50568e-05,0.196701,-0.012421606959260534,0.32406559587526096,-2.2889938021353196e-05,0.16002435431846007,-4.5055784957614975e-05,-0.12456729950038836
527,0.5176,136.225,410.461,0.000484105,236.463,-0.0876249,-0.151669,-0.0125219,0.148698,-0.133269,0.281193,-2.29494e-05,-4.51738e-05,0.197049,-0.012443827223124981,0.32470924814969004,-2.2949136664562886e-05,0.16032251889002636,-4.517277967930333e-05,-0.12477037632908139
528,0.5186,136.285,410.645,0.000483282,236.568,-0.0877957,-0.151965,-0.0125444,0.148954,-0.133502,0.281679,-2.30086e-05,-4.52908e-05,0.197397,-0.012466046987039237,0.3253532133151509,-2.3008335304219862e-05,0.16061959947955518,-4.5289774387224924e-05,-0.12497428107557118
529,0.5196,136.346,410.828,0.00048246,236.673,-0.0879667,-0.152262,-0.0125669,0.149211,-0.133735,0.282165,-2.30679e-05,-4.5408e-05,0.197746,-0.012488266251014402,0.32599749152374535,-2.306763393800093e-05,0.1609179170487871,-4.540696907240349e-05,-0.12517813831778957
530,0.5206,136.406,411.011,0.00048164,236.778,-0.088138,-0.152559,-0.0125893,0.149467,-0.133967,0.282651,-2.31273e-05,-4.55253e-05,0.198094,-0.012510386266105233,0.3266420829276495,-2.3127032566017114e-05,0.1612151500797563,-4.552426373927165e-05,-0.1253810734483145
531,0.5216,136.466,411.194,0.000480821,236.883,-0.0883096,-0.152856,-0.0126118,0.149723,-0.134199,0.283136,-2.31868e-05,-4.56428e-05,0.198441,-0.012532604532457858,0.32728566039278917,-2.318653118826841e-05,0.16151245921212198,-4.564175838328577e-05,-0.12558396150335016
532,0.5226,136.526,411.376,0.000480004,236.988,-0.0884814,-0.153154,-0.0126343,0.149979,-0.134432,0.283621,-2.32464e-05,-4.57604e-05,0.198789,-0.012554822298905033,0.3279295500687045,-2.3246129804532778e-05,0.1618098444653684,-4.5759353008878456e-05,-0.12578767670657698
533,0.5236,136.586,411.558,0.000479189,237.092,-0.0886535,-0.153452,-0.0126567,0.150235,-0.134664,0.284106,-2.3306e-05,-4.58782e-05,0.199137,-0.01257694082315719,0.3285737521068546,-2.330572841724443e-05,0.16210730585898547,-4.5877147611506075e-05,-0.1259904704405984
534,0.5246,136.645,411.74,0.000478375,237.196,-0.0888258,-0.153751,-0.0126792,0.150491,-0.134896,0.284591,-2.33657e-05,-4.59961e-05,0.199484,-0.012599157592048993,0.3292182666587713,-2.33654270241912e-05,0.1624048434124672,-4.5995042195601243e-05,-0.12619321713193055
535,0.5256,136.705,411.922,0.000477562,237.3,-0.0889984,-0.15405,-0.0127016,0.150746,-0.135128,0.285076,-2.34254e-05,-4.61141e-05,0.199831,-0.012621275123201658,0.32986309387606094,-2.342512562747423e-05,0.1627012944434374,-4.6113036761274984e-05,-0.1263959167914862
536,0.5266,136.765,412.103,0.000476751,237.404,-0.0891712,-0.154349,-0.012724,0.151002,-0.13536,0.28556,-2.34853e-05,-4.62323e-05,0.200178,-0.01264339215892718,0.3305069034028345,-2.3485024222447137e-05,0.16299898407746238,-4.623123130365059e-05,-0.12659856943017556
537,0.5276,136.824,412.284,0.000475942,237.508,-0.0893443,-0.154649,-0.0127465,0.151258,-0.135592,0.286044,-2.35452e-05,-4.63507e-05,0.200525,-0.012665607432680859,0.33115102460883916,-2.3544922813978353e-05,0.16329674992978904,-4.63496258229501e-05,-0.1268011750589061
538,0.5286,136.884,412.465,0.000475134,237.612,-0.0895176,-0.15495,-0.0127689,0.151513,-0.135823,0.286528,-2.36052e-05,-4.64691e-05,0.200872,-0.012687723475373724,0.33179545764496443,-2.3604921399411616e-05,0.16359342842592195,-4.6468020328149784e-05,-0.12700286069188005
539,0.5296,136.943,412.646,0.000474327,237.715,-0.0896912,-0.15525,-0.0127913,0.151768,-0.136055,0.287012,-2.36652e-05,-4.65878e-05,0.201219,-0.012709839022672864,0.33244020266217245,-2.3664919981403187e-05,0.16389018258471766,-4.6586714805285645e-05,-0.12720537253591724
540,0.5306,137.002,412.826,0.000473522,237.819,-0.0898651,-0.155552,-0.0128137,0.152024,-0.136287,0.287496,-2.37254e-05,-4.67065e-05,0.201566,-0.012731954074589269,0.3330852598114986,-2.3725118554973612e-05,0.1641881766130675,-4.6705409268432696e-05,-0.12740783740265627
541,0.5316,137.061,413.006,0.000472719,237.922,-0.0900392,-0.155853,-0.0128361,0.152279,-0.136518,0.287979,-2.37856e-05,-4.68254e-05,0.201912,-0.012754068631134041,0.33372929551408936,-2.37853171248803e-05,0.16448508245198945,-4.682430370805957e-05,-0.12760938291281365
542,0.5326,137.12,413.186,0.000471917,238.025,-0.0902135,-0.156156,-0.0128584,0.152534,-0.136749,0.288463,-2.38458e-05,-4.69445e-05,0.202259,-0.012776083969931573,0.3343749767353692,-2.3845515691123254e-05,0.16478206401155426,-4.694339812416626e-05,-0.12781088187133505
543,0.5336,137.18,413.365,0.000471116,238.128,-0.0903882,-0.156458,-0.0128808,0.152789,-0.136981,0.288946,-2.39062e-05,-4.70637e-05,0.202605,-0.01279819753797784,0.33501963552169656,-2.390591424905608e-05,0.16507912131107316,-4.706259252140743e-05,-0.12801320627620238
544,0.5346,137.238,413.545,0.000470317,238.231,-0.090563,-0.156761,-0.0129032,0.153043,-0.137212,0.289429,-2.39666e-05,-4.7183e-05,0.202951,-0.012820310610685559,0.3356646057534258,-2.3966312803325174e-05,0.16537508899419073,-4.718188689978309e-05,-0.12821461196230033
545,0.5356,137.297,413.724,0.000469519,238.334,-0.0907382,-0.157065,-0.0129255,0.153298,-0.137443,0.289911,-2.40271e-05,-4.73025e-05,0.203297,-0.01284232447230349,0.3363085512718018,-2.4026811351496313e-05,0.16567229753436274,-4.730138125441652e-05,-0.1284159711290579
546,0.5366,137.356,413.903,0.000468723,238.436,-0.0909136,-0.157369,-0.0129479,0.153553,-0.137674,0.290394,-2.40877e-05,-4.74222e-05,0.203643,-0.012864436556579095,0.33695414420020753,-2.4087409893680523e-05,0.1659695818723761,-4.7421075585196704e-05,-0.12861728378721982
547,0.5376,137.415,414.081,0.000467928,238.538,-0.0910892,-0.157673,-0.0129702,0.153807,-0.137905,0.290876,-2.41484e-05,-4.7542e-05,0.203988,-0.012886449434199365,0.33759871142593445,-2.414810842976678e-05,0.16626577576120316,-4.754086989700035e-05,-0.1288185499475285
548,0.5386,137.473,414.259,0.000467134,238.641,-0.0912651,-0.157978,-0.0129925,0.154062,-0.138136,0.291358,-2.42091e-05,-4.76619e-05,0.204334,-0.012908461820937966,0.3382435894079503,-2.4208806962078278e-05,0.1665632114554616,-4.766076418971643e-05,-0.1290197696207236
549,0.5396,137.532,414.438,0.000466343,238.743,-0.0914413,-0.158284,-0.0130149,0.154316,-0.138367,0.29184,-2.42699e-05,-4.7782e-05,0.204679,-0.012930572423753506,0.3388887782960759,-2.4269605488402846e-05,0.16685955614535364,-4.7780858458468245e-05,-0.12922094281754237
550,0.5406,137.59,414.615,0.000465552,238.845,-0.0916177,-0.158589,-0.0130372,0.15457,-0.138597,0.292322,-2.43308e-05,-4.79022e-05,0.205024,-0.012952583826560393,0.3395342782402042,-2.433050400851844e-05,0.16715597611635724,-4.790105270791045e-05,-0.12942119897035398
551,0.5416,137.648,414.793,0.000464763,238.946,-0.0917944,-0.158896,-0.0130595,0.154824,-0.138828,0.292803,-2.43917e-05,-4.80225e-05,0.20537,-0.012974594738518475,0.34017874921088054,-2.4391402524859274e-05,0.16745247138759622,-4.8021346938154075e-05,-0.12962227944770255
552,0.5426,137.707,414.97,0.000463975,239.048,-0.0919713,-0.159202,-0.0130818,0.155078,-0.139058,0.293285,-2.44527e-05,-4.81431e-05,0.205715,-0.012996605159638741,0.34082487107085946,-2.4452401035213178e-05,0.16774904197819906,-4.814194113955672e-05,-0.12982244330370374
553,0.5436,137.765,415.147,0.000463189,239.149,-0.0921485,-0.159509,-0.0131041,0.155332,-0.139289,0.293766,-2.45138e-05,-4.82637e-05,0.20606,-0.013018615089931962,0.34146996296600785,-2.4513499539247086e-05,0.1680456879072998,-4.8262535326415446e-05,-0.1300234311043159
554,0.5446,137.823,415.324,0.000462404,239.251,-0.0923259,-0.159817,-0.0131264,0.155586,-0.139519,0.294247,-2.4575e-05,-4.83845e-05,0.206404,-0.01304062452940935,0.3421153652249944,-2.457469803718304e-05,0.16834240919403642,-4.8383329488976834e-05,-0.13022350270604566
555,0.5456,137.881,415.5,0.00046162,239.352,-0.0925037,-0.160125,-0.0131486,0.15584,-0.139749,0.294728,-2.46363e-05,-4.85055e-05,0.206749,-0.013062534784340052,0.34276107799713995,-2.4635996528798998e-05,0.16863920585755232,-4.8504323627240886e-05,-0.13042352829659865
556,0.5466,137.939,415.677,0.000460838,239.453,-0.0926816,-0.160433,-0.0131709,0.156093,-0.139979,0.295208,-2.46976e-05,-4.86266e-05,0.207093,-0.0130845432444191,0.3434057580254075,-2.469729501675122e-05,0.16893490898150199,-4.862541774608431e-05,-0.13062350788655597
557,0.5476,137.997,415.853,0.000460057,239.554,-0.0928598,-0.160742,-0.0131932,0.156347,-0.140209,0.295689,-2.4759e-05,-4.87478e-05,0.207438,-0.013106551213714956,0.3440520916257872,-2.4758693498494466e-05,0.16923185615907843,-4.874661184528506e-05,-0.13082344148649672
558,0.5486,138.054,416.029,0.000459278,239.655,-0.0930383,-0.161051,-0.0132154,0.1566,-0.140439,0.296169,-2.48205e-05,-4.88692e-05,0.207782,-0.013128460005089604,0.344697391489345,-2.4820191973917716e-05,0.16952770924252358,-4.886800592007745e-05,-0.13102332910699732
559,0.5496,138.112,416.204,0.0004585,239.755,-0.093217,-0.161361,-0.0132377,0.156854,-0.140669,0.296649,-2.4882e-05,-4.89908e-05,0.208126,-0.013150466995052623,0.34534300117118777,-2.4881690445566207e-05,0.1698248070104904,-4.898959997035046e-05,-0.13122317075863177
560,0.5506,138.17,416.379,0.000457723,239.856,-0.093396,-0.161671,-0.0132599,0.157107,-0.140899,0.297129,-2.49437e-05,-4.91125e-05,0.20847,-0.013172374811507681,0.34598892082006416,-2.4943388908460484e-05,0.17012081012947977,-4.9111294000869776e-05,-0.13142296645197182
561,0.5516,138.227,416.554,0.000456948,239.956,-0.0935753,-0.161982,-0.0132821,0.15736,-0.141128,0.297609,-2.50054e-05,-4.92343e-05,0.208814,-0.013194282141614555,0.34663515058479377,-2.5005087367580003e-05,0.17041688814673228,-4.923308801174642e-05,-0.13162184781986852
562,0.5526,138.285,416.729,0.000456174,240.056,-0.0937548,-0.162293,-0.0133043,0.157613,-0.141358,0.298088,-2.50672e-05,-4.93563e-05,0.209157,-0.013216188985384125,0.347280343333251,-2.5066885820379525e-05,0.1707130410812001,-4.9355081997881634e-05,-0.13182155182802868
563,0.5536,138.342,416.904,0.000455401,240.156,-0.0939346,-0.162605,-0.0133265,0.157866,-0.141587,0.298567,-2.5129e-05,-4.94785e-05,0.209501,-0.013238095342827272,0.34792584520306336,-2.5128684269293267e-05,0.171009268951839,-4.94772759591644e-05,-0.13202034193032453
564,0.5546,138.399,417.078,0.00045463,240.256,-0.0941146,-0.162917,-0.0133487,0.158119,-0.141817,0.299046,-2.51909e-05,-4.96007e-05,0.209844,-0.013260001213954542,0.34857165634233533,-2.5190582711998033e-05,0.17130557177761085,-4.959946990557018e-05,-0.1322199542953787
565,0.5556,138.456,417.252,0.00045386,240.356,-0.0942949,-0.163229,-0.0133709,0.158372,-0.142046,0.299525,-2.5253e-05,-4.97232e-05,0.210188,-0.013281906598776927,0.3492177768992428,-2.525268114572654e-05,0.17160194957748143,-4.9721963822135784e-05,-0.13241865317395507
566,0.5566,138.513,417.426,0.000453092,240.456,-0.0944754,-0.163542,-0.0133931,0.158624,-0.142275,0.300004,-2.5315e-05,-4.98458e-05,0.210531,-0.013303811497305196,0.34986420702203236,-2.5314679578114507e-05,0.17189723047260497,-4.9844557718725646e-05,-0.13261730655569792
567,0.5576,138.57,417.6,0.000452324,240.555,-0.0946562,-0.163856,-0.0134153,0.158877,-0.142505,0.300483,-2.53772e-05,-4.99685e-05,0.210874,-0.013325715909550007,0.35051094685902107,-2.5376878001637238e-05,0.17219375798106284,-4.996725159533977e-05,-0.1328167816346767
568,0.5586,138.627,417.773,0.000451559,240.654,-0.0948373,-0.164169,-0.0134375,0.159129,-0.142734,0.300961,-2.54394e-05,-5.00914e-05,0.211217,-0.01334761983552235,0.3511566454012769,-2.5439076421163165e-05,0.1724891880306969,-5.0090145446768375e-05,-0.13301534385544034
569,0.5596,138.684,417.946,0.000450794,240.754,-0.0950186,-0.164484,-0.0134596,0.159382,-0.142963,0.301439,-2.55018e-05,-5.02144e-05,0.21156,-0.01336942461218038,0.3518026526612137,-2.5501474831823856e-05,0.1727858653233636,-5.021313927811022e-05,-0.13321386061066143
570,0.5606,138.741,418.119,0.000450031,240.853,-0.0952002,-0.164798,-0.0134818,0.159634,-0.143191,0.301917,-2.55641e-05,-5.03376e-05,0.211902,-0.013391327567830236,0.3524489687864336,-2.5563773241144006e-05,0.17308144460285013,-5.033633308426655e-05,-0.13341146532264903
571,0.5616,138.798,418.292,0.000449269,240.952,-0.095382,-0.165114,-0.0135039,0.159886,-0.14342,0.302395,-2.56266e-05,-5.04609e-05,0.212245,-0.01341313137855804,0.35309559392460965,-2.5626271641487897e-05,0.173377098377701,-5.0459626870225094e-05,-0.13360989137643986
572,0.5626,138.854,418.464,0.000448508,241.05,-0.0955641,-0.165429,-0.0135261,0.160138,-0.143649,0.302873,-2.56892e-05,-5.05844e-05,0.212587,-0.013435033363928484,0.3537425282234852,-2.5688870035289746e-05,0.1736728266666916,-5.058312063077608e-05,-0.13380827199586676
573,0.5636,138.911,418.636,0.000447748,241.149,-0.0957465,-0.165745,-0.0135482,0.16039,-0.143877,0.30335,-2.57518e-05,-5.07081e-05,0.212929,-0.013456836208768808,0.35438841744177974,-2.5751468425205815e-05,0.1739686294886018,-5.070681436603053e-05,-0.1340057411975073
574,0.5646,138.967,418.808,0.00044699,241.248,-0.0959291,-0.166062,-0.0135703,0.160642,-0.144106,0.303827,-2.58145e-05,-5.08318e-05,0.213271,-0.013478638571771562,0.3550346148227226,-2.5814166808690864e-05,0.17426450686221617,-5.08305080859639e-05,-0.13420403117770374
575,0.5656,139.024,418.98,0.000446234,241.346,-0.096112,-0.166379,-0.0135924,0.160894,-0.144334,0.304304,-2.58773e-05,-5.09558e-05,0.213613,-0.013500440452947515,0.3556811205133419,-2.587696518552285e-05,0.17456045880632431,-5.095450177527994e-05,-0.13440141015653662
576,0.5666,139.08,419.151,0.000445478,241.444,-0.0962951,-0.166696,-0.0136145,0.161145,-0.144563,0.304781,-2.59401e-05,-5.10799e-05,0.213955,-0.013522241852307104,0.35632793466073687,-2.5939763558469053e-05,0.1748553104838222,-5.107859544406512e-05,-0.13459960953891537
577,0.5676,139.136,419.322,0.000444724,241.542,-0.0964785,-0.167014,-0.0136366,0.161397,-0.144791,0.305258,-2.6003e-05,-5.12041e-05,0.214297,-0.013544042769861098,0.35697505741207625,-2.6002661924873216e-05,0.17515141132920364,-5.120278909243048e-05,-0.13479689833616293
578,0.5686,139.192,419.493,0.000443971,241.64,-0.0966622,-0.167332,-0.0136587,0.161648,-0.145019,0.305734,-2.60661e-05,-5.13285e-05,0.214639,-0.013565843205620265,0.3576211312927893,-2.6065760282190098e-05,0.17544641135440164,-5.132718271505521e-05,-0.13499414215669225
579,0.5696,139.249,419.664,0.000443219,241.738,-0.0968461,-0.167651,-0.0136808,0.1619,-0.145247,0.306211,-2.61291e-05,-5.1453e-05,0.21498,-0.013587643159595042,0.35826887104606553,-2.6128758638055416e-05,0.1757426611759727,-5.1451676317149087e-05,-0.13519134101075692
580,0.5706,139.305,419.835,0.000442468,241.836,-0.0970303,-0.16797,-0.0137029,0.162151,-0.145475,0.306687,-2.61923e-05,-5.15777e-05,0.215321,-0.013609442631796087,0.35891556092866517,-2.619195698472243e-05,0.17603780962350846,-5.1576369893280294e-05,-0.13538849490860805
581,0.5716,139.36,420.005,0.000441719,241.933,-0.0972147,-0.16829,-0.013725,0.162402,-0.145703,0.307163,-2.62555e-05,-5.17026e-05,0.215663,-0.01363124162223417,0.3595625587089226,-2.6255155327392643e-05,0.17633303216260288,-5.170126344355985e-05,-0.13558560386049445
582,0.5726,139.416,420.175,0.000440971,242.031,-0.0973994,-0.16861,-0.013747,0.162653,-0.145931,0.307638,-2.63189e-05,-5.18276e-05,0.216004,-0.013652941496219095,0.360208504324248,-2.631855366075353e-05,0.17662832881185464,-5.1826256973086515e-05,-0.13578266787666282
583,0.5736,139.472,420.345,0.000440224,242.128,-0.0975844,-0.168931,-0.0137691,0.162904,-0.146159,0.308114,-2.63823e-05,-5.19527e-05,0.216345,-0.013674739525342816,0.36085611769205994,-2.6381951990228636e-05,0.17692369958986842,-5.195135048186028e-05,-0.13597968696735707
584,0.5746,139.528,420.514,0.000439479,242.225,-0.0977696,-0.169252,-0.0137911,0.163155,-0.146386,0.308589,-2.64457e-05,-5.2078e-05,0.216685,-0.013696438442384329,0.36150267789385504,-2.6445350315595917e-05,0.17721914451525245,-5.207664396444933e-05,-0.1361757973190485
585,0.5756,139.583,420.684,0.000438735,242.322,-0.0979551,-0.169573,-0.0138131,0.163406,-0.146614,0.309064,-2.65093e-05,-5.22035e-05,0.217026,-0.013718136882054921,0.36214954528469745,-2.6508948631653872e-05,0.17751466360662027,-5.220213742096469e-05,-0.1363727267864473
586,0.5766,139.639,420.853,0.000437992,242.419,-0.0981408,-0.169895,-0.0138352,0.163656,-0.146841,0.309539,-2.65729e-05,-5.23291e-05,0.217367,-0.013739933470376609,0.36279672001053687,-2.6572546943604003e-05,0.17780907907292187,-5.2327730856505106e-05,-0.1365687479282255
587,0.5776,139.694,421.022,0.00043725,242.516,-0.0983268,-0.170218,-0.0138572,0.163907,-0.147069,0.310014,-2.66366e-05,-5.24548e-05,0.217707,-0.01376163095316707,0.36344420221739204,-2.663624524890107e-05,0.17810474625644845,-5.245342427107058e-05,-0.13676558781309822
588,0.5786,139.75,421.191,0.000436509,242.613,-0.0985131,-0.17054,-0.0138792,0.164157,-0.147296,0.310489,-2.67004e-05,-5.25808e-05,0.218047,-0.013783327958618141,0.364091992051351,-2.670004354754507e-05,0.1783993092618541,-5.257941765401952e-05,-0.1369615197855445
589,0.5796,139.805,421.359,0.00043577,242.709,-0.0986996,-0.170864,-0.0139012,0.164408,-0.147523,0.310963,-2.67643e-05,-5.27068e-05,0.218388,-0.01380502448674037,0.36473872491916426,-2.6763941839313965e-05,0.17869512461175208,-5.270541102098125e-05,-0.13715740728648063
590,0.5806,139.86,421.527,0.000435032,242.806,-0.0988864,-0.171187,-0.0139232,0.164658,-0.14775,0.311438,-2.68282e-05,-5.2833e-05,0.218728,-0.013826720537544301,0.365387129797468,-2.6827840127086056e-05,0.1789898352301973,-5.2831604361647244e-05,-0.13735325032600065
591,0.5816,139.915,421.695,0.000434295,242.902,-0.0990734,-0.171512,-0.0139452,0.164908,-0.147977,0.311912,-2.68923e-05,-5.29594e-05,0.219067,-0.013848416111040263,0.366034476706089,-2.6891938405326776e-05,0.17928461953550778,-5.295799767568443e-05,-0.13754904891419606
592,0.5826,139.97,421.863,0.000433559,242.998,-0.0992607,-0.171836,-0.0139672,0.165158,-0.148204,0.312386,-2.69564e-05,-5.30859e-05,0.219407,-0.013870111207238911,0.36668213052987797,-2.6956036679459672e-05,0.17957947754610726,-5.3084490968524634e-05,-0.13774480306115633
593,0.5836,140.025,422.031,0.000432824,243.094,-0.0994483,-0.172161,-0.0139892,0.165408,-0.148431,0.312859,-2.70205e-05,-5.32126e-05,0.219747,-0.013891805826150683,0.3673287240849392,-2.7020134949595764e-05,0.17987440928042453,-5.321118423473603e-05,-0.13794051277696828
594,0.5846,140.08,422.198,0.000432091,243.19,-0.0996362,-0.172487,-0.0140111,0.165658,-0.148658,0.313333,-2.70848e-05,-5.33395e-05,0.220086,-0.013913401359131106,0.3679769915274018,-2.7084433210089465e-05,0.18016941475689263,-5.33380774742076e-05,-0.13813617807171674
595,0.5856,140.135,422.365,0.000431358,243.286,-0.0998242,-0.172813,-0.0140331,0.165908,-0.148884,0.313806,-2.71491e-05,-5.34664e-05,0.220426,-0.01393509502567003,0.3686241976965867,-2.714873146647534e-05,0.1804644939939497,-5.3464970697469916e-05,-0.1383309372868523
596,0.5866,140.19,422.532,0.000430627,243.381,-0.100013,-0.173139,-0.014055,0.166158,-0.149111,0.314279,-2.72136e-05,-5.35936e-05,0.220765,-0.013956689610627349,0.36927171006670045,-2.7213229713329845e-05,0.18075964701003788,-5.359216388867161e-05,-0.13852651396529536
597,0.5876,140.245,422.699,0.000429898,243.477,-0.100201,-0.173466,-0.014077,0.166407,-0.149338,0.314752,-2.72781e-05,-5.37209e-05,0.221104,-0.01397838232483517,0.3699195287826105,-2.7277727955965503e-05,0.18105369276932115,-5.3719457058343245e-05,-0.138722046252871
598,0.5886,140.299,422.865,0.000429169,243.572,-0.10039,-0.173794,-0.0140989,0.166657,-0.149564,0.315225,-2.73426e-05,-5.38483e-05,0.221443,-0.013999975961811129,0.3705676539892522,-2.7342226194493335e-05,0.18134899310351726,-5.3846850206262786e-05,-0.13891667307675837
599,0.5896,140.354,423.031,0.000428441,243.668,-0.100579,-0.174122,-0.0141208,0.166906,-0.14979,0.315698,-2.74073e-05,-5.3976e-05,0.221782,-0.014021569125891475,0.37121608583163046,-2.7406924423378776e-05,0.18164318562824922,-5.397454332189966e-05,-0.13911125591995344
600,0.5906,140.408,423.197,0.000427715,243.763,-0.100769,-0.17445,-0.0141427,0.167156,-0.150017,0.31617,-2.7472e-05,-5.41037e-05,0.222121,-0.014043161817086869,0.37186345259067966,-2.747162264804537e-05,0.18193863335408333,-5.4102236421216254e-05,-0.13930665548616983
601,0.5916,140.463,423.363,0.00042699,243.858,-0.100958,-0.174779,-0.0141646,0.167405,-0.150243,0.316642,-2.75368e-05,-5.42316e-05,0.222459,-0.014064754035407412,0.37251112497896166,-2.7536420865836853e-05,0.18223297271751848,-5.423012949334893e-05,-0.13950115020329912
602,0.5926,140.517,423.529,0.000426265,243.952,-0.101148,-0.175108,-0.0141866,0.167654,-0.150469,0.317115,-2.76017e-05,-5.43597e-05,0.222798,-0.01408644437222406,0.3731604763005578,-2.7601319076531183e-05,0.18252738538058044,-5.4358222538297696e-05,-0.13969560096958888
603,0.5936,140.571,423.694,0.000425543,244.047,-0.101338,-0.175437,-0.0142084,0.167903,-0.150695,0.317586,-2.76667e-05,-5.44879e-05,0.223136,-0.01410793705346558,0.3738073872204577,-2.7666317280350405e-05,0.18282187136152328,-5.448641556138334e-05,-0.13989000779497107
604,0.5946,140.626,423.859,0.000424821,244.142,-0.101529,-0.175768,-0.0142303,0.168152,-0.150921,0.318058,-2.77318e-05,-5.46163e-05,0.223474,-0.014129527853224078,0.37445597736245806,-2.7731415477183496e-05,0.1831164306786055,-5.461480855706302e-05,-0.14008437068937507
605,0.5956,140.68,424.024,0.0004241,244.236,-0.10172,-0.176098,-0.0142522,0.168401,-0.151146,0.31853,-2.77969e-05,-5.47449e-05,0.223813,-0.014151118180149136,0.37510487371126433,-2.779651366979774e-05,0.1834110633500896,-5.4743401525336743e-05,-0.14027782994098792
606,0.5966,140.734,424.189,0.00042338,244.331,-0.101911,-0.176429,-0.0142741,0.16865,-0.151372,0.319001,-2.78621e-05,-5.48736e-05,0.224151,-0.014172708034251191,0.3757527006580521,-2.786171185531483e-05,0.18370576939424366,-5.48720944715253e-05,-0.14047210519749043
607,0.5976,140.788,424.353,0.000422662,244.425,-0.102102,-0.176761,-0.0142959,0.168898,-0.151598,0.319472,-2.79274e-05,-5.50024e-05,0.224488,-0.014194198834965532,0.37640083280320047,-2.792701003384579e-05,0.18399936482938273,-5.500088739573972e-05,-0.14066633655274596
608,0.5986,140.842,424.518,0.000421945,244.519,-0.102293,-0.177093,-0.0143178,0.169147,-0.151823,0.319943,-2.79928e-05,-5.51314e-05,0.224826,-0.014215787745611608,0.3770492702904915,-2.7992408205279595e-05,0.18429421737884422,-5.512988029232613e-05,-0.14085966487676949
609,0.5996,140.896,424.682,0.000421228,244.613,-0.102485,-0.177425,-0.0143397,0.169395,-0.152049,0.320414,-2.80582e-05,-5.52606e-05,0.225164,-0.014237376183465655,0.3776980132637753,-2.805780637238353e-05,0.18458795876718082,-5.525907316117351e-05,-0.1410538086534342
610,0.6006,140.949,424.845,0.000420513,244.707,-0.102677,-0.177758,-0.0143615,0.169644,-0.152274,0.320885,-2.81238e-05,-5.53899e-05,0.225501,-0.01425886557442968,0.37834706186696976,-2.812340452962303e-05,0.18488295789478104,-5.538836600782471e-05,-0.1412470498060423
611,0.6016,141.003,425.009,0.000419799,244.801,-0.102869,-0.178091,-0.0143833,0.169892,-0.152499,0.321355,-2.81894e-05,-5.55194e-05,0.225839,-0.014280354496929992,0.3789950372483337,-2.8189002682643682e-05,0.18517684530887202,-5.5517858826625854e-05,-0.14144024748428208
612,0.6026,141.057,425.172,0.000419087,244.894,-0.103062,-0.178425,-0.0144051,0.17014,-0.152725,0.321825,-2.82551e-05,-5.56491e-05,0.226176,-0.014301842950977028,0.3796433172497071,-2.825470082845616e-05,0.1854708056160801,-5.564755161757695e-05,-0.1416342600641034
613,0.6036,141.11,425.336,0.000418375,244.988,-0.103255,-0.178759,-0.014427,0.170388,-0.15295,0.322295,-2.83209e-05,-5.57789e-05,0.226513,-0.014323429504242702,0.38029190201429475,-2.832049896706046e-05,0.1857648388344848,-5.577734438610982e-05,-0.14182737062983564
614,0.6046,141.164,425.499,0.000417664,245.081,-0.103448,-0.179094,-0.0144488,0.170636,-0.153175,0.322765,-2.83867e-05,-5.59088e-05,0.22685,-0.014344917019264769,0.3809407916853693,-2.8386297101445912e-05,0.1860589449821708,-5.590723713211343e-05,-0.14202043775057827
615,0.6056,141.217,425.661,0.000416954,245.174,-0.103641,-0.179429,-0.0144706,0.170884,-0.1534,0.323235,-2.84527e-05,-5.60389e-05,0.227187,-0.014366404065864091,0.3815899864062702,-2.8452295225744884e-05,0.18635312407722626,-5.603732985015597e-05,-0.14221346143610547
616,0.6066,141.27,425.824,0.000416246,245.267,-0.103835,-0.179765,-0.0144924,0.171132,-0.153625,0.323704,-2.85187e-05,-5.61692e-05,0.227523,-0.014387890644050882,0.3822381040816094,-2.8518293345713985e-05,0.18664737613774496,-5.6167622540015394e-05,-0.142406441696189
617,0.6076,141.324,425.986,0.000415538,245.36,-0.104029,-0.180101,-0.0145142,0.17138,-0.153849,0.324174,-2.85848e-05,-5.62996e-05,0.22786,-0.014409376753835468,0.3828879086826473,-2.858439145847491e-05,0.18694170118182396,-5.629801520723454e-05,-0.14259852113954818
618,0.6086,141.377,426.148,0.000414832,245.453,-0.104223,-0.180437,-0.0145359,0.171627,-0.154074,0.324643,-2.8651e-05,-5.64302e-05,0.228196,-0.014430763838309213,0.38353663522630277,-2.8650589564027662e-05,0.18723491199206022,-5.642860784615955e-05,-0.14279141477094448
619,0.6096,141.43,426.31,0.000414127,245.546,-0.104417,-0.180774,-0.0145577,0.171875,-0.154299,0.325112,-2.87172e-05,-5.6561e-05,0.228533,-0.014452249013468199,0.3841856660940657,-2.871678766513952e-05,0.1875293827631006,-5.655940045679042e-05,-0.14298426500615602
620,0.6106,141.483,426.472,0.000413422,245.639,-0.104612,-0.181112,-0.0145795,0.172122,-0.154523,0.325581,-2.87836e-05,-5.66919e-05,0.228869,-0.014473733720255622,0.3848350014286972,-2.8783185756164897e-05,0.18782273874861577,-5.669029304455897e-05,-0.14317621503158917
621,0.6116,141.536,426.634,0.000412719,245.731,-0.104807,-0.18145,-0.0146012,0.17237,-0.154748,0.326049,-2.885e-05,-5.6823e-05,0.229205,-0.014495119408198254,0.3854832558890777,-2.8849583842749382e-05,0.18811735531877027,-5.682138560392236e-05,-0.14336897869648157
622,0.6126,141.589,426.795,0.000412017,245.824,-0.105002,-0.181788,-0.014623,0.172617,-0.154972,0.326518,-2.89165e-05,-5.69542e-05,0.229541,-0.01451660318042125,0.3861331999360551,-2.891608192201467e-05,0.18841085655144396,-5.6952578140312404e-05,-0.143560842555699
623,0.6136,141.642,426.956,0.000411316,245.916,-0.105198,-0.182127,-0.0146447,0.172864,-0.155196,0.326986,-2.89831e-05,-5.70856e-05,0.229877,-0.014537987938106789,0.38678206209552757,-2.8982679993960758e-05,0.18870443028787598,-5.7083970648186266e-05,-0.14375266344222526
624,0.6146,141.695,427.117,0.000410616,246.008,-0.105393,-0.182466,-0.0146664,0.173111,-0.15542,0.327454,-2.90498e-05,-5.72171e-05,0.230212,-0.01455937223174808,0.3874312279935599,-2.904937805869867e-05,0.1889980765459771,-5.7215463132975763e-05,-0.14394444136568485
625,0.6156,141.747,427.278,0.000409917,246.1,-0.10559,-0.182806,-0.0146882,0.173358,-0.155645,0.327922,-2.91165e-05,-5.73488e-05,0.230548,-0.01458085460327474,0.3880806977723348,-2.911607611877365e-05,0.18929179534366214,-5.734715558902703e-05,-0.14413703219909635
626,0.6166,141.8,427.438,0.000409219,246.192,-0.105786,-0.183146,-0.0147099,0.173605,-0.155869,0.32839,-2.91833e-05,-5.74807e-05,0.230883,-0.014602237966719556,0.38873047157410223,-2.918287417164045e-05,0.18958558669885073,-5.747904801622905e-05,-0.14432872403359676
627,0.6176,141.853,427.598,0.000408522,246.284,-0.105982,-0.183487,-0.0147316,0.173852,-0.156093,0.328857,-2.92503e-05,-5.76127e-05,0.231219,-0.014623620866150322,0.38937916016132323,-2.9249872214198724e-05,0.18987945062946676,-5.761104042023568e-05,-0.14452037293393505
628,0.6186,141.905,427.758,0.000407826,246.375,-0.106179,-0.183828,-0.0147533,0.174098,-0.156316,0.329325,-2.93173e-05,-5.77449e-05,0.231554,-0.014645003301577253,0.39002954178570803,-2.9316870252205085e-05,0.19017219698064647,-5.774323279539306e-05,-0.14471112362127858
629,0.6196,141.958,427.918,0.000407131,246.467,-0.106376,-0.184169,-0.014775,0.174345,-0.15654,0.329792,-2.93843e-05,-5.78772e-05,0.231889,-0.014666385273010452,0.3906788371803962,-2.938386828565953e-05,0.190466205821898,-5.787552514713301e-05,-0.14490268687370222
630,0.6206,142.01,428.078,0.000406437,246.558,-0.106574,-0.184511,-0.0147967,0.174591,-0.156764,0.330259,-2.94515e-05,-5.80097e-05,0.232224,-0.014687766780459799,0.39132843586684696,-2.945106630880545e-05,0.19075909653261047,-5.800801746991269e-05,-0.14509420722076283
631,0.6216,142.062,428.237,0.000405744,246.65,-0.106771,-0.184854,-0.0148184,0.174838,-0.156987,0.330726,-2.95187e-05,-5.81424e-05,0.232559,-0.014709147823935509,0.3919783379867303,-2.951826432751048e-05,0.19105325035595566,-5.814070976339902e-05,-0.1452848299573275
632,0.6226,142.114,428.397,0.000405053,246.741,-0.106969,-0.185197,-0.01484,0.175084,-0.157211,0.331192,-2.95861e-05,-5.82752e-05,0.232893,-0.014730429876495532,0.39262715105393564,-2.9585662335684937e-05,0.19134628549738797,-5.827350203346793e-05,-0.14547626471392383
633,0.6236,142.167,428.556,0.000404362,246.832,-0.107167,-0.18554,-0.0148617,0.17533,-0.157434,0.331659,-2.96535e-05,-5.84082e-05,0.233228,-0.014751809994192011,0.39327765981545126,-2.965306033930748e-05,0.19163939273433228,-5.840649427424349e-05,-0.14566680226116646
634,0.6246,142.219,428.715,0.000403672,246.923,-0.107366,-0.185884,-0.0148833,0.175576,-0.157658,0.332125,-2.9721e-05,-5.85414e-05,0.233562,-0.014773091125259152,0.39392707850772846,-2.9720558335499803e-05,0.1919325720845264,-5.853968648572572e-05,-0.14585815146554904
635,0.6256,142.271,428.873,0.000402983,247.014,-0.107564,-0.186229,-0.014905,0.175822,-0.157881,0.332591,-2.97885e-05,-5.86747e-05,0.233897,-0.014794470317216701,0.3945767998996399,-2.978805632702919e-05,0.1922258235657126,-5.867297867345744e-05,-0.14604860386154084
636,0.6266,142.323,429.032,0.000402295,247.105,-0.107763,-0.186573,-0.0149266,0.176068,-0.158104,0.333057,-2.98562e-05,-5.88082e-05,0.234231,-0.014815750526830707,0.3952268241322763,-2.9855754308139026e-05,0.1925191471956369,-5.8806470831673785e-05,-0.1462390137913835
637,0.6276,142.375,429.19,0.000401608,247.195,-0.107962,-0.186919,-0.0149483,0.176314,-0.158327,0.333523,-2.99239e-05,-5.89418e-05,0.234565,-0.014837128793089294,0.39587715134679424,-2.9923452284585927e-05,0.19281254299205042,-5.894006296625065e-05,-0.14642938126454585
638,0.6286,142.426,429.348,0.000400922,247.286,-0.108162,-0.187264,-0.0149699,0.17656,-0.15855,0.333989,-2.99918e-05,-5.90756e-05,0.234899,-0.014858408081290131,0.3965277816844166,-2.9991350250502258e-05,0.1931060109727083,-5.907385507109009e-05,-0.1466197062904947
639,0.6296,142.478,429.506,0.000400238,247.376,-0.108362,-0.187611,-0.0149915,0.176806,-0.158773,0.334454,-3.00597e-05,-5.92095e-05,0.235233,-0.01487968690986341,0.3971773181084146,-3.005924821175565e-05,0.19339955115536966,-5.9207747152179024e-05,-0.14680998887869479
640,0.6306,142.53,429.664,0.000399554,247.467,-0.108562,-0.187957,-0.0150131,0.177051,-0.158996,0.334919,-3.01277e-05,-5.93437e-05,0.235566,-0.014900965278819012,0.3978271566370837,-3.012724616535678e-05,0.19369196986523196,-5.934193919743258e-05,-0.14700022903860865
641,0.6316,142.582,429.821,0.000398871,247.557,-0.108762,-0.188305,-0.0150347,0.177297,-0.159219,0.335384,-3.01957e-05,-5.94779e-05,0.2359,-0.014922243188166706,0.3984772974109352,-3.0195244114405995e-05,0.19398565421151237,-5.9476131224811546e-05,-0.14719042677969674
642,0.6326,142.633,429.978,0.000398189,247.647,-0.108962,-0.188652,-0.0150563,0.177542,-0.159441,0.335849,-3.02639e-05,-5.96124e-05,0.236233,-0.014943520637916596,0.39912774057054556,-3.0263442052813616e-05,0.19427821653421518,-5.961062321624411e-05,-0.14737972949157307
643,0.6336,142.685,430.135,0.000397508,247.737,-0.109163,-0.189,-0.0150779,0.177787,-0.159664,0.336314,-3.03321e-05,-5.9747e-05,0.236567,-0.014964797628078452,0.3997784862565572,-3.03316399865583e-05,0.19457085054346845,-5.97452151835931e-05,-0.1475698426134956
644,0.6346,142.736,430.292,0.000396827,247.827,-0.109364,-0.189349,-0.0150995,0.178032,-0.159886,0.336779,-3.04005e-05,-5.98818e-05,0.2369,-0.014986074158662377,0.40042953460967756,-3.0400037909439348e-05,0.1948635562568375,-5.988000712076058e-05,-0.14775906110440573
645,0.6356,142.788,430.449,0.000396148,247.916,-0.109566,-0.189698,-0.0151211,0.178278,-0.160109,0.337243,-3.04689e-05,-6.00167e-05,0.237233,-0.01500735022967814,0.40107948469049437,-3.046843582776848e-05,0.19515752884882298,-6.001489903384449e-05,-0.14794908964480968
646,0.6366,142.839,430.605,0.00039547,248.006,-0.109767,-0.190047,-0.0151426,0.178523,-0.160331,0.337707,-3.05374e-05,-6.01518e-05,0.237566,-0.015028527343993403,0.4017297364181249,-3.0536933738334326e-05,0.19545037831598577,-6.014999091674689e-05,-0.14813822395222365
647,0.6376,142.89,430.762,0.000394793,248.095,-0.109969,-0.190397,-0.0151642,0.178767,-0.160553,0.338171,-3.06059e-05,-6.02871e-05,0.237899,-0.01504980249803023,0.4023802899325666,-3.0605431644237235e-05,0.19574210379735613,-6.028528276935674e-05,-0.14832731627648166
648,0.6386,142.941,430.918,0.000394117,248.185,-0.110171,-0.190748,-0.0151857,0.179012,-0.160776,0.338635,-3.06746e-05,-6.04225e-05,0.238231,-0.015070978699631588,0.40303114537388063,-3.067412953927651e-05,0.1960350965029274,-6.042067459754996e-05,-0.14851721811011065
649,0.6396,142.992,431.074,0.000393441,248.274,-0.110374,-0.191098,-0.0152073,0.179257,-0.160998,0.339099,-3.07433e-05,-6.05581e-05,0.238564,-0.015092252936729111,0.4036823028821932,-3.074282742954182e-05,0.19632816100050565,-6.05562663952286e-05,-0.14870622630700403
650,0.6406,143.043,431.229,0.000392767,248.363,-0.110576,-0.19145,-0.0152288,0.179502,-0.16122,0.339562,-3.08122e-05,-6.06938e-05,0.238896,-0.015113428225655756,0.4043323582646361,-3.0811725309054516e-05,0.19662129730768219,-6.069195816860162e-05,-0.14889519254873496
651,0.6416,143.094,431.385,0.000392093,248.452,-0.110779,-0.191802,-0.0152503,0.179746,-0.161441,0.340025,-3.08811e-05,-6.08298e-05,0.239229,-0.015134603059318574,0.40498271469240765,-3.0880623183793254e-05,0.19691330852814537,-6.082794990525109e-05,-0.14908326592830778
652,0.6426,143.145,431.54,0.000391421,248.541,-0.110983,-0.192154,-0.0152719,0.179991,-0.161663,0.340488,-3.09501e-05,-6.09658e-05,0.239561,-0.015155875922144846,0.40563337230492413,-3.094962105054666e-05,0.19720658821402925,-6.096394162335983e-05,-0.14927214847653314
653,0.6436,143.196,431.695,0.000390749,248.63,-0.111186,-0.192507,-0.0152934,0.180235,-0.161885,0.340951,-3.10191e-05,-6.11021e-05,0.239893,-0.015177049843192014,0.4062843312416664,-3.101861891263713e-05,0.19749874226289799,-6.110023330474501e-05,-0.14946098909748684
654,0.6446,143.247,431.85,0.000390078,248.719,-0.11139,-0.19286,-0.0153149,0.180479,-0.162107,0.341414,-3.10883e-05,-6.12385e-05,0.240225,-0.015198223309004777,0.40693559164217974,-3.108781676386396e-05,0.19779096760605208,-6.123662496138049e-05,-0.14964978780047578
655,0.6456,143.298,432.005,0.000389408,248.807,-0.111594,-0.193213,-0.0153364,0.180723,-0.162328,0.341877,-3.11576e-05,-6.13751e-05,0.240557,-0.015219396319593015,0.40758715364607445,-3.115711460699444e-05,0.19808326426088962,-6.13732165870573e-05,-0.14983769443292416
656,0.6466,143.348,432.159,0.000388739,248.896,-0.111798,-0.193567,-0.0153579,0.180967,-0.16255,0.342339,-3.12269e-05,-6.15118e-05,0.240888,-0.015240568874966276,0.40823760915471174,-3.122641244546198e-05,0.19837563224481292,-6.150990818798441e-05,-0.15002640951661073
657,0.6476,143.399,432.314,0.000388071,248.984,-0.112003,-0.193922,-0.0153793,0.181211,-0.162771,0.342801,-3.12963e-05,-6.16487e-05,0.24122,-0.015261642501303796,0.4088883652432227,-3.129581027594419e-05,0.19866807157522803,-6.164679975795284e-05,-0.15021423292485647
658,0.6486,143.45,432.468,0.000387404,249.073,-0.112208,-0.194277,-0.0154008,0.181455,-0.162993,0.343264,-3.13658e-05,-6.17858e-05,0.241551,-0.015282814148393942,0.40954083159063415,-3.136530809844107e-05,0.19896058226954594,-6.178389129674056e-05,-0.15040286442627582
659,0.6496,143.5,432.622,0.000386738,249.161,-0.112413,-0.194633,-0.0154223,0.181699,-0.163214,0.343725,-3.14354e-05,-6.1923e-05,0.241883,-0.015303985340298643,0.41019077971552953,-3.1434905912952615e-05,0.19925316434518114,-6.192108281055653e-05,-0.1505906046471791
660,0.6506,143.55,432.776,0.000386073,249.249,-0.112618,-0.194989,-0.0154437,0.181943,-0.163435,0.344187,-3.15051e-05,-6.20605e-05,0.242214,-0.015325057609538284,0.41084243837731793,-3.150460371958985e-05,0.19954581781955327,-6.20585742869828e-05,-0.15077830338207787
661,0.6516,143.601,432.929,0.000385408,249.337,-0.112824,-0.195345,-0.0154652,0.182186,-0.163656,0.344649,-3.15748e-05,-6.2198e-05,0.242545,-0.015346227893218378,0.411494398174965,-3.1574301521231085e-05,0.19983734287214294,-6.219606574453529e-05,-0.15096596064013967
662,0.6526,143.651,433.083,0.000384745,249.425,-0.11303,-0.195702,-0.0154866,0.18243,-0.163877,0.34511,-3.16447e-05,-6.23358e-05,0.242876,-0.015367299258477018,0.41214524710167466,-3.1644199311786636e-05,0.20013013890346687,-6.233385716436501e-05,-0.15115357643052973
663,0.6536,143.701,433.236,0.000384082,249.512,-0.113236,-0.19606,-0.0155081,0.182673,-0.164098,0.345571,-3.17146e-05,-6.24737e-05,0.243207,-0.015388468633971364,0.41279639613890984,-3.171409709734618e-05,0.20042180596333292,-6.247174855900095e-05,-0.1513411507624115
664,0.6546,143.752,433.389,0.00038342,249.6,-0.113442,-0.196417,-0.0155295,0.182917,-0.164319,0.346032,-3.17846e-05,-6.26117e-05,0.243538,-0.01540953909528786,0.4134478454250532,-3.17840948749204e-05,0.20071474462105088,-6.26097399284431e-05,-0.1515286836449462
665,0.6556,143.802,433.542,0.000382759,249.687,-0.113649,-0.196776,-0.0155509,0.18316,-0.16454,0.346493,-3.18547e-05,-6.275e-05,0.243868,-0.015430609105701265,0.4140995950985513,-3.185419264439826e-05,0.20100655375736798,-6.274803125994044e-05,-0.15171617508729318
666,0.6566,143.852,433.695,0.000382099,249.775,-0.113856,-0.197135,-0.0155723,0.183403,-0.16476,0.346954,-3.19249e-05,-6.28884e-05,0.244199,-0.015451678665221347,0.41475164529791475,-3.192439040577977e-05,0.20129843381192147,-6.288642256602195e-05,-0.15190277700181076
667,0.6576,143.902,433.847,0.00038144,249.862,-0.114063,-0.197494,-0.0155937,0.183646,-0.164981,0.347414,-3.19952e-05,-6.3027e-05,0.244529,-0.015472747773857654,0.4154025807584296,-3.199468815906492e-05,0.20159038480194624,-6.302501384036763e-05,-0.15209018577866074
668,0.6586,143.952,433.999,0.000380781,249.949,-0.114271,-0.197854,-0.0156151,0.183889,-0.165201,0.347875,-3.20655e-05,-6.31657e-05,0.244859,-0.015493816431619845,0.41605523177265935,-3.206498590735407e-05,0.20188240674468227,-6.316370508918645e-05,-0.1522767054198766
669,0.6596,144.001,434.151,0.000380124,250.036,-0.114479,-0.198214,-0.0156365,0.184132,-0.165422,0.348335,-3.2136e-05,-6.33046e-05,0.245189,-0.015514884638517579,0.41670676702089327,-3.2135483644335494e-05,0.20217449965737289,-6.33025963060474e-05,-0.15246403156767707
670,0.6606,144.051,434.303,0.000379467,250.123,-0.114687,-0.198574,-0.0156579,0.184375,-0.165642,0.348795,-3.22065e-05,-6.34437e-05,0.245519,-0.015535952394560515,0.4173586020442843,-3.220598137620989e-05,0.20246666355726584,-6.34416874910615e-05,-0.15265046897186574
671,0.6616,144.101,434.455,0.000378811,250.21,-0.114895,-0.198936,-0.0156793,0.184618,-0.165862,0.349255,-3.22771e-05,-6.35829e-05,0.245849,-0.015557019699758312,0.41801073698076063,-3.2276579099987934e-05,0.2027588984616131,-6.358087865021567e-05,-0.15283686536433694
672,0.6626,144.151,434.607,0.000378156,250.297,-0.115104,-0.199297,-0.0157007,0.18486,-0.166082,0.349714,-3.23478e-05,-6.37223e-05,0.246179,-0.01557808655412063,0.41866175330585165,-3.23472768155586e-05,0.20305000133706796,-6.372026977741196e-05,-0.15302322075411223
673,0.6636,144.2,434.758,0.000377502,250.384,-0.115313,-0.199659,-0.015722,0.185103,-0.166303,0.350174,-3.24186e-05,-6.38619e-05,0.246508,-0.015599054517567379,0.41931448782980296,-3.241807452281087e-05,0.20334237800971988,-6.385986087231732e-05,-0.15321038194025283
674,0.6646,144.25,434.909,0.000376849,250.47,-0.115522,-0.200022,-0.0157434,0.185345,-0.166523,0.350633,-3.24895e-05,-6.40017e-05,0.246838,-0.015620120472394139,0.41996610271389256,-3.248897222185576e-05,0.20363362210431224,-6.399965193493173e-05,-0.1533966551654199
675,0.6656,144.299,435.06,0.000376196,250.557,-0.115731,-0.200385,-0.0157647,0.185588,-0.166743,0.351092,-3.25604e-05,-6.41416e-05,0.247167,-0.015641087540528065,0.4206180167578659,-3.255986991590465e-05,0.20392614061404313,-6.41395429715752e-05,-0.15358288741498483
676,0.6666,144.349,435.211,0.000375545,250.643,-0.115941,-0.200749,-0.0157861,0.18583,-0.166962,0.351551,-3.26315e-05,-6.42816e-05,0.247497,-0.015662152595857792,0.4212702300990687,-3.2630967598423766e-05,0.20421752599628107,-6.427953398224773e-05,-0.15376823246661708
677,0.6676,144.398,435.362,0.000374894,250.729,-0.116151,-0.201113,-0.0158074,0.186072,-0.167182,0.35201,-3.27026e-05,-6.44219e-05,0.247826,-0.015683118768716975,0.4219227428749104,-3.2702065275835857e-05,0.20450898190231426,-6.441982495397625e-05,-0.15395438297816733
678,0.6686,144.447,435.512,0.000374244,250.815,-0.116361,-0.201477,-0.0158287,0.186314,-0.167402,0.352468,-3.27738e-05,-6.45623e-05,0.248155,-0.01570408449500138,0.4225741326480186,-3.277326294492955e-05,0.20480050834921193,-6.456021589951177e-05,-0.1541404925411095
679,0.6696,144.497,435.662,0.000373594,250.901,-0.116572,-0.201842,-0.0158501,0.186556,-0.167621,0.352927,-3.28451e-05,-6.47029e-05,0.248484,-0.015725148202210715,0.42322724405250467,-3.284456060559382e-05,0.2050921053540471,-6.470080681253432e-05,-0.15432571549058982
680,0.6706,144.546,435.813,0.000372946,250.987,-0.116782,-0.202207,-0.0158714,0.186798,-0.167841,0.353385,-3.29165e-05,-6.48437e-05,0.248812,-0.015746113033277775,0.42387923142399186,-3.291595825793969e-05,0.2053837729338963,-6.48415976927108e-05,-0.1545117433693649
681,0.6716,144.595,435.962,0.000372298,251.073,-0.116994,-0.202573,-0.0158927,0.18704,-0.16806,0.353843,-3.2988e-05,-6.49846e-05,0.249141,-0.015767077417798703,0.42453151747408735,-3.2987455901856144e-05,0.20567551110584148,-6.498248854658328e-05,-0.15469688502381584
682,0.6726,144.644,436.112,0.000371652,251.159,-0.117205,-0.20294,-0.015914,0.187281,-0.16828,0.354301,-3.30596e-05,-6.51257e-05,0.24947,-0.015788041355782934,0.42518410233961723,-3.30590535374542e-05,0.20596611392025044,-6.512357936760971e-05,-0.15488283125427527
683,0.6736,144.693,436.262,0.000371006,251.245,-0.117417,-0.203306,-0.0159353,0.187523,-0.168499,0.354759,-3.31312e-05,-6.5267e-05,0.249798,-0.015809004847240127,0.42583698615747045,-3.31306511678342e-05,0.20625799303576775,-6.526487015567906e-05,-0.15506789164937773
684,0.6746,144.742,436.411,0.00037036,251.33,-0.117628,-0.203674,-0.0159565,0.187765,-0.168718,0.355216,-3.32029e-05,-6.54084e-05,0.250126,-0.01582986947517151,0.4264887425751427,-3.3202348789784786e-05,0.20654994279457828,-6.540626091722235e-05,-0.1552529115206911
685,0.6756,144.791,436.56,0.000369716,251.416,-0.117841,-0.204042,-0.0159778,0.188006,-0.168937,0.355674,-3.32748e-05,-6.555e-05,0.250454,-0.01585083207569926,0.42714222405507796,-3.3274246399983554e-05,0.2068407563724204,-6.554785164569754e-05,-0.15543789087708926
686,0.6766,144.84,436.709,0.000369072,251.501,-0.118053,-0.20441,-0.0159991,0.188247,-0.169156,0.356131,-3.33467e-05,-6.56918e-05,0.250782,-0.015871794229728287,0.4277945771027889,-3.334614400496427e-05,0.2071316400447809,-6.568964234099361e-05,-0.1556228297274439
687,0.6776,144.889,436.858,0.000368429,251.586,-0.118266,-0.204778,-0.0160203,0.188489,-0.169375,0.356588,-3.34187e-05,-6.58337e-05,0.25111,-0.0158926575265389,0.42844722834397486,-3.341814160151557e-05,0.20742380125175175,-6.583153300954159e-05,-0.15580772808062493
688,0.6786,144.937,437.007,0.000367787,251.671,-0.118479,-0.205148,-0.0160416,0.18873,-0.169594,0.357045,-3.34908e-05,-6.59759e-05,0.251438,-0.015913618789695327,0.4291001779149408,-3.3490239189415405e-05,0.20771482545486153,-6.597372363814635e-05,-0.15599258594550025
689,0.6796,144.986,437.155,0.000367146,251.756,-0.118692,-0.205517,-0.0160628,0.188971,-0.169813,0.357502,-3.3563e-05,-6.61182e-05,0.251766,-0.01593448119983465,0.42975342595205523,-3.3562436768774795e-05,0.20800591980325622,-6.611601424000302e-05,-0.15617740333093577
690,0.6806,145.035,437.304,0.000366506,251.841,-0.118906,-0.205887,-0.0160841,0.189212,-0.170032,0.357958,-3.36352e-05,-6.62606e-05,0.252093,-0.015955441572156337,0.4304055421854909,-3.363463434302716e-05,0.20829708431384297,-6.625840481488954e-05,-0.15636218024579562
691,0.6816,145.083,437.452,0.000365866,251.926,-0.119119,-0.206258,-0.0161053,0.189453,-0.17025,0.358415,-3.37076e-05,-6.64033e-05,0.252421,-0.015976303095662114,0.43105938691040957,-3.370703190519464e-05,0.20858831900353314,-6.640109534972183e-05,-0.1565460732454368
692,0.6826,145.132,437.6,0.000365227,252.011,-0.119333,-0.206629,-0.0161265,0.189694,-0.170469,0.358871,-3.378e-05,-6.65461e-05,0.252748,-0.01599716417690822,0.4317120987978409,-3.3779429462255095e-05,0.20887962388924186,-6.654388585736193e-05,-0.15673076943042563
693,0.6836,145.18,437.748,0.000364589,252.095,-0.119548,-0.207001,-0.0161477,0.189934,-0.170687,0.359327,-3.38525e-05,-6.6689e-05,0.253075,-0.016018024815904086,0.4323651083897644,-3.385192701055306e-05,0.2091697898174938,-6.668677633803188e-05,-0.15691458208638231
694,0.6846,145.228,437.895,0.000363951,252.18,-0.119762,-0.207373,-0.0161689,0.190175,-0.170906,0.359783,-3.39252e-05,-6.68322e-05,0.253402,-0.016038885012659154,0.4330184158219641,-3.392462454687717e-05,0.20946123485455614,-6.682996677831454e-05,-0.15709919757677138
695,0.6856,145.277,438.043,0.000363314,252.264,-0.119977,-0.207745,-0.0161901,0.190415,-0.171124,0.360238,-3.39979e-05,-6.69755e-05,0.253729,-0.016059744767182638,0.4336705875589819,-3.399732207798323e-05,0.2097515403861916,-6.697325719129399e-05,-0.15728292992414605
696,0.6866,145.325,438.19,0.000362678,252.348,-0.120192,-0.208118,-0.0162113,0.190656,-0.171342,0.360694,-3.40707e-05,-6.7119e-05,0.254056,-0.016080604079484084,0.43432449042543175,-3.40701196003268e-05,0.21004312564203653,-6.711674757031716e-05,-0.15746662222223462
697,0.6876,145.373,438.337,0.000362043,252.433,-0.120408,-0.208492,-0.0162325,0.190896,-0.17156,0.361149,-3.41435e-05,-6.72627e-05,0.254383,-0.01610146294957282,0.4349772565616097,-3.41429171173413e-05,0.21033357084422089,-6.726043791527303e-05,-0.15765027447976676
698,0.6886,145.421,438.484,0.000361409,252.517,-0.120624,-0.208866,-0.0162537,0.191137,-0.171778,0.361604,-3.42165e-05,-6.74065e-05,0.25471,-0.01612232137745817,0.4356303197739593,-3.4215914622270915e-05,0.21062529638631022,-6.740422823292569e-05,-0.1578338867054705
699,0.6896,145.469,438.631,0.000360775,252.601,-0.12084,-0.20924,-0.0162749,0.191377,-0.171996,0.362059,-3.42896e-05,-6.75505e-05,0.255036,-0.016143179363149573,0.43628368019768105,-3.4289012118438045e-05,0.21091588132624084,-6.754821851640003e-05,-0.15801745890807162
700,0.6906,145.517,438.777,0.000360142,252.685,-0.121056,-0.209615,-0.016296,0.191617,-0.172214,0.362514,-3.43627e-05,-6.76947e-05,0.255362,-0.016163938523055088,0.4369373379680368,-3.436210960916508e-05,0.21120653601492667,-6.7692408765474e-05,-0.15820099109629426
701,0.6916,145.565,438.924,0.000359509,252.768,-0.121272,-0.209991,-0.0163172,0.191857,-0.172432,0.362969,-3.44359e-05,-6.78391e-05,0.255689,-0.016184795626472348,0.43759129322034984,-3.443530709124065e-05,0.21149726046910922,-6.783679898025863e-05,-0.15838448327886068
702,0.6926,145.613,439.07,0.000358878,252.852,-0.121489,-0.210366,-0.0163383,0.192097,-0.17265,0.363423,-3.45093e-05,-6.79836e-05,0.256015,-0.01620555390828393,0.43824410784517887,-3.4508704561009296e-05,0.2117880547055344,-6.798128916740698e-05,-0.1585679354644911
703,0.6936,145.661,439.216,0.000358247,252.936,-0.121706,-0.210743,-0.0163595,0.192337,-0.172868,0.363878,-3.45827e-05,-6.81283e-05,0.256341,-0.016226410129464353,0.4388986578130738,-3.4582102025337846e-05,0.21207891874095175,-6.812597932004394e-05,-0.1587513476619039
704,0.6946,145.709,439.362,0.000357617,253.019,-0.121924,-0.21112,-0.0163806,0.192576,-0.173085,0.364332,-3.46562e-05,-6.82732e-05,0.256667,-0.01624716753321931,0.43955206611618247,-3.465559948079289e-05,0.21236864022286883,-6.827086943816951e-05,-0.15893387881411503
705,0.6956,145.757,439.508,0.000356987,253.103,-0.122141,-0.211497,-0.0164017,0.192816,-0.173303,0.364786,-3.47298e-05,-6.84182e-05,0.256992,-0.0162679244989975,0.44020577113401016,-3.472919692748544e-05,0.2126596436155328,-6.841585952832574e-05,-0.15911721124457257
706,0.6966,145.804,439.653,0.000356359,253.186,-0.122359,-0.211875,-0.0164229,0.193056,-0.17352,0.36524,-3.48035e-05,-6.85635e-05,0.257318,-0.016288779397935493,0.44085977300129553,-3.480289436519346e-05,0.2129507168573923,-6.856114957698445e-05,-0.1592996630129997
707,0.6976,145.852,439.799,0.000355731,253.269,-0.122578,-0.212253,-0.016444,0.193295,-0.173737,0.365693,-3.48772e-05,-6.87089e-05,0.257644,-0.01630953548571268,0.44151263033948784,-3.487659179757241e-05,0.21324064672396026,-6.870653959756279e-05,-0.1594820751936885
708,0.6986,145.899,439.944,0.000355104,253.352,-0.122796,-0.212632,-0.0164651,0.193534,-0.173955,0.366147,-3.49511e-05,-6.88544e-05,0.257969,-0.016330291135541075,0.4421672256555551,-3.495048921742239e-05,0.2135306458920474,-6.885202959017178e-05,-0.15966528813036052
709,0.6996,145.947,440.089,0.000354477,253.435,-0.123015,-0.213011,-0.0164862,0.193774,-0.174172,0.3666,-3.5025e-05,-6.90002e-05,0.258294,-0.016351046347429787,0.4428206754039705,-3.502438663183227e-05,0.21382192819954016,-6.899781954095019e-05,-0.15984762097900673
710,0.7006,145.994,440.234,0.000353851,253.518,-0.123234,-0.213391,-0.0165073,0.194013,-0.174389,0.367053,-3.50991e-05,-6.91461e-05,0.258619,-0.016371801121388252,0.4434744212321793,-3.5098484033824207e-05,0.21411206631050317,-6.91437094635372e-05,-0.16002991426571733
711,0.7016,146.042,440.379,0.000353226,253.601,-0.123453,-0.213771,-0.0165284,0.194252,-0.174606,0.367506,-3.51732e-05,-6.92922e-05,0.258944,-0.016392555457425573,0.4441284632743352,-3.5172581430265026e-05,0.21440227377276155,-6.92897993509467e-05,-0.16021216799907645
712,0.7026,146.089,440.523,0.000352601,253.684,-0.123673,-0.214151,-0.0165494,0.194491,-0.174823,0.367959,-3.52474e-05,-6.94385e-05,0.259269,-0.016413210996877092,0.4447828016646542,-3.5246778817721314e-05,0.21469255060289272,-6.943608920317867e-05,-0.1603943821876661
713,0.7036,146.137,440.668,0.000351977,253.766,-0.123893,-0.214532,-0.0165705,0.19473,-0.17504,0.368412,-3.53217e-05,-6.95849e-05,0.259594,-0.01643396445917522,0.4454374365374123,-3.5321076196082046e-05,0.2149828968174774,-6.958247902699721e-05,-0.16057655684006678
714,0.7046,146.184,440.812,0.000351354,253.849,-0.124113,-0.214914,-0.0165916,0.194969,-0.175256,0.368864,-3.53961e-05,-6.97315e-05,0.259919,-0.01645471748357996,0.4460909219353013,-3.5395473565458246e-05,0.21527331243310055,-6.972906881541618e-05,-0.16075785272312904
715,0.7056,146.231,440.956,0.000350732,253.931,-0.124333,-0.215296,-0.0166126,0.195208,-0.175473,0.369317,-3.54706e-05,-6.98783e-05,0.260243,-0.016475371717642573,0.4467461495207812,-3.546997092573889e-05,0.21556379746635068,-6.987585856843559e-05,-0.1609399485109806
716,0.7066,146.278,441.1,0.00035011,254.014,-0.124554,-0.215679,-0.0166337,0.195446,-0.17569,0.369769,-3.55452e-05,-7.00253e-05,0.260568,-0.01649612386836341,0.4474002265906465,-3.554456827681296e-05,0.21585313608007706,-7.00228482859444e-05,-0.16112200478833316
717,0.7076,146.325,441.244,0.000349489,254.096,-0.124775,-0.216062,-0.0166547,0.195685,-0.175906,0.370221,-3.56199e-05,-7.01725e-05,0.260892,-0.016516777232901014,0.4480545993701728,-3.5619265618902496e-05,0.21614375970774025,-7.017003796772059e-05,-0.161303182867362
718,0.7086,146.372,441.387,0.000348868,254.178,-0.124996,-0.216445,-0.0166758,0.195924,-0.176123,0.370673,-3.56946e-05,-7.03198e-05,0.261216,-0.016537528509974697,0.4487092679930509,-3.5693962955329894e-05,0.21643445280275153,-7.031732762086129e-05,-0.1614851603314108
719,0.7096,146.419,441.531,0.000348249,254.26,-0.125218,-0.216829,-0.0166968,0.196162,-0.176339,0.371124,-3.57695e-05,-7.04673e-05,0.261541,-0.016558181005024042,0.4493627832295246,-3.57688602791173e-05,0.21672399865710856,-7.046481723815834e-05,-0.16166625997731332
720,0.7106,146.466,441.674,0.00034763,254.342,-0.125439,-0.217214,-0.0167178,0.1964,-0.176555,0.371576,-3.58444e-05,-7.0615e-05,0.261865,-0.01657883306637553,0.4500180432851608,-3.584375759713154e-05,0.21701361343157988,-7.061250681961173e-05,-0.1618473205099168
721,0.7116,146.513,441.817,0.000347011,254.424,-0.125662,-0.217599,-0.0167388,0.196639,-0.176772,0.372027,-3.59194e-05,-7.07628e-05,0.262188,-0.01659948469403827,0.45067214891241414,-3.591875490605023e-05,0.2173045144464767,-7.076029637209658e-05,-0.16202917990890775
722,0.7126,146.56,441.96,0.000346393,254.506,-0.125884,-0.217984,-0.0167598,0.196877,-0.176988,0.372478,-3.59946e-05,-7.09108e-05,0.262512,-0.01662013588802136,0.45132654960783825,-3.599395220210688e-05,0.21759426740014876,-7.090828588862674e-05,-0.16221016205927152
723,0.7136,146.606,442.103,0.000345776,254.588,-0.126107,-0.21837,-0.0167808,0.197115,-0.177204,0.372929,-3.60698e-05,-7.10591e-05,0.262836,-0.016640786648334016,0.4519812455045391,-3.606914949261242e-05,0.21788408932323078,-7.105657536199406e-05,-0.1623911051217124
724,0.7146,146.653,442.245,0.00034516,254.669,-0.126329,-0.218757,-0.0168018,0.197353,-0.17742,0.37338,-3.61451e-05,-7.12074e-05,0.263159,-0.016661436974985233,0.452636236735682,-3.614444677368933e-05,0.2181739802321394,-7.120486481326793e-05,-0.16257200910467262
725,0.7156,146.7,442.388,0.000344544,254.751,-0.126553,-0.219144,-0.0168228,0.197591,-0.177636,0.373831,-3.62205e-05,-7.1356e-05,0.263483,-0.016682086867984114,0.4532915234344934,-3.621984404555967e-05,0.2184639401432953,-7.135345422115691e-05,-0.16275287401659233
726,0.7166,146.746,442.53,0.000343928,254.832,-0.126776,-0.219531,-0.0168438,0.197828,-0.177852,0.374281,-3.6296e-05,-7.15047e-05,0.263806,-0.016702736327339762,0.45394565178787993,-3.6295341308112405e-05,0.2187527503197635,-7.15021435998553e-05,-0.16293369986591
727,0.7176,146.793,442.672,0.000343314,254.913,-0.127,-0.219919,-0.0168647,0.198066,-0.178067,0.374731,-3.63715e-05,-7.16537e-05,0.264129,-0.01672328702539505,0.45460007456526585,-3.6370838565003005e-05,0.2190428479945934,-7.165113293494674e-05,-0.16311364977513032
728,0.7186,146.839,442.814,0.0003427,254.995,-0.127224,-0.220307,-0.0168857,0.198304,-0.178283,0.375182,-3.64472e-05,-7.18028e-05,0.264452,-0.01674393561955645,0.4552562471546917,-3.6446535808920544e-05,0.21933301472088695,-7.180022224062554e-05,-0.16329439770529974
729,0.7196,146.886,442.956,0.000342087,255.076,-0.127448,-0.220696,-0.0169067,0.198541,-0.178499,0.375632,-3.6523e-05,-7.1952e-05,0.264775,-0.016764583780102038,0.4559112598327104,-3.652233304340946e-05,0.21962203089243926,-7.194941151689171e-05,-0.16347510659813236
730,0.7206,146.932,443.097,0.000341474,255.157,-0.127673,-0.221085,-0.0169276,0.198779,-0.178714,0.376081,-3.65988e-05,-7.21015e-05,0.265098,-0.016785133185558965,0.4565651107669253,-3.659813027212522e-05,0.21991233548066735,-7.20989007493289e-05,-0.16365494011741766
731,0.7216,146.978,443.239,0.000340862,255.238,-0.127898,-0.221475,-0.0169485,0.199016,-0.17893,0.376531,-3.66747e-05,-7.22511e-05,0.265421,-0.016805682161537883,0.4572207125661121,-3.667402749141235e-05,0.22020148896751102,-7.22484899521314e-05,-0.1638355711414995
732,0.7226,147.025,443.38,0.00034025,255.319,-0.128123,-0.221866,-0.0169695,0.199253,-0.179145,0.376981,-3.67508e-05,-7.24009e-05,0.265743,-0.016826329025419695,0.457876609452498,-3.6750124697615405e-05,0.22049071099185236,-7.239827911809105e-05,-0.1640153271692386
733,0.7236,147.071,443.521,0.000339639,255.399,-0.128348,-0.222256,-0.0169904,0.199491,-0.17936,0.37743,-3.68269e-05,-7.25509e-05,0.266066,-0.01684687714041444,0.45853134302682985,-3.68262218980453e-05,0.22078122235054876,-7.254826824709681e-05,-0.16419504455358613
734,0.7246,147.117,443.662,0.000339029,255.48,-0.128574,-0.222648,-0.0170113,0.199728,-0.179575,0.377879,-3.69031e-05,-7.27011e-05,0.266388,-0.016867424825958155,0.4591863706425443,-3.6902419088935545e-05,0.22107058178798478,-7.269845733903768e-05,-0.1643747233028494
735,0.7256,147.163,443.803,0.00033842,255.561,-0.1288,-0.223039,-0.0170322,0.199965,-0.179791,0.378328,-3.69794e-05,-7.28514e-05,0.26671,-0.01688797208205972,0.4598416924316948,-3.697871627039717e-05,0.22136000981173476,-7.284874640123284e-05,-0.16455519887055303
736,0.7266,147.209,443.944,0.00033781,255.641,-0.129026,-0.223432,-0.0170531,0.200202,-0.180006,0.378777,-3.70558e-05,-7.30019e-05,0.267032,-0.016908518908728132,0.4604973085263955,-3.7055113442319154e-05,0.22164950643805525,-7.299923542614106e-05,-0.16473480019496156
737,0.7276,147.255,444.084,0.000337202,255.722,-0.129253,-0.223824,-0.017074,0.200439,-0.180221,0.379225,-3.71323e-05,-7.31526e-05,0.267354,-0.01692906530597238,0.4611517579063307,-3.713161060470149e-05,0.22193907168320726,-7.314992441376234e-05,-0.16491436290923622
738,0.7286,147.301,444.224,0.000336594,255.802,-0.12948,-0.224218,-0.0170949,0.200675,-0.180435,0.379674,-3.72089e-05,-7.33035e-05,0.267676,-0.016949611273801346,0.46180796235250443,-3.7208207757433165e-05,0.2222274833353608,-7.330081336409666e-05,-0.1650930521151467
739,0.7296,147.347,444.365,0.000335987,255.882,-0.129707,-0.224611,-0.0171158,0.200912,-0.18065,0.380122,-3.72856e-05,-7.34546e-05,0.267998,-0.016970156812224135,0.4624629990369,-3.728490490062519e-05,0.22251718557727096,-7.3451902276922e-05,-0.1652725378135379
740,0.7306,147.393,444.505,0.00033538,255.962,-0.129934,-0.225005,-0.0171367,0.201149,-0.180865,0.380571,-3.73623e-05,-7.36058e-05,0.26832,-0.01699070192124963,0.463119792362535,-3.736160203793304e-05,0.2228069564867492,-7.360309115955754e-05,-0.16545198492665214
741,0.7316,147.439,444.645,0.000334774,256.042,-0.130162,-0.2254,-0.0171576,0.201385,-0.18108,0.381018,-3.74392e-05,-7.37573e-05,0.268641,-0.01701124660088682,0.46377395310375435,-3.743849916193476e-05,0.22309557298388705,-7.375457999725388e-05,-0.16563139346278422
742,0.7326,147.484,444.784,0.000334169,256.122,-0.13039,-0.225795,-0.0171784,0.201622,-0.181294,0.381466,-3.75162e-05,-7.39089e-05,0.268963,-0.0170316925543188,0.46442987074932707,-3.751549627617479e-05,0.22338548098742583,-7.390616880453837e-05,-0.16580992924057358
743,0.7336,147.53,444.924,0.000333564,256.202,-0.130618,-0.226191,-0.0171993,0.201858,-0.181509,0.381914,-3.75932e-05,-7.40606e-05,0.269284,-0.01705223637726072,0.46508608231183746,-3.7592493384530634e-05,0.223674234032458,-7.405785758141104e-05,-0.16598926082695054
744,0.7346,147.576,445.063,0.00033296,256.282,-0.130846,-0.226587,-0.0172201,0.202094,-0.181723,0.382362,-3.76703e-05,-7.42126e-05,0.269605,-0.01707268147811425,0.4657425879229897,-3.766959048312479e-05,0.22396305523125037,-7.420984631312244e-05,-0.1661677200293178
745,0.7356,147.621,445.202,0.000332356,256.361,-0.131075,-0.226984,-0.017241,0.20233,-0.181938,0.382809,-3.77476e-05,-7.43647e-05,0.269926,-0.01709322444439665,0.46639792131589286,-3.77468875683018e-05,0.22425194459988984,-7.436193501419996e-05,-0.166346974698944
746,0.7366,147.667,445.342,0.000331753,256.441,-0.131304,-0.227381,-0.0172618,0.202566,-0.182152,0.383256,-3.78249e-05,-7.45171e-05,0.270247,-0.01711366869270725,0.4670535477083031,-3.7824184647483605e-05,0.22454090215446554,-7.451432366989419e-05,-0.16652535735873308
747,0.7376,147.712,445.48,0.00033115,256.52,-0.131534,-0.227778,-0.0172826,0.202802,-0.182366,0.383703,-3.79023e-05,-7.46696e-05,0.270568,-0.017134112515782007,0.46770946723122053,-3.790158171690372e-05,0.22482992791107193,-7.466681229484351e-05,-0.1667037018487173
748,0.7386,147.758,445.619,0.000330548,256.6,-0.131763,-0.228177,-0.0173034,0.203038,-0.18258,0.38415,-3.79798e-05,-7.48223e-05,0.270889,-0.017154555913629577,0.46836568001570367,-3.797907877656215e-05,0.22511902188580613,-7.481950088150668e-05,-0.166882008177064
749,0.7396,147.803,445.758,0.000329946,256.679,-0.131993,-0.228575,-0.0173243,0.203274,-0.182794,0.384597,-3.80574e-05,-7.49751e-05,0.271209,-0.017175097168754094,0.46902218619287006,-3.805667582634786e-05,0.2254081840947697,-7.497228943742495e-05,-0.1670602763519391
750,0.7406,147.848,445.896,0.000329346,256.758,-0.132223,-0.228974,-0.0173451,0.20351,-0.183008,0.385043,-3.81351e-05,-7.51282e-05,0.27153,-0.017195539714129793,0.46967751621564413,-3.813437286637189e-05,0.22569741455406778,-7.512537794740481e-05,-0.1672385063815064
751,0.7416,147.894,446.035,0.000328745,256.838,-0.132454,-0.229374,-0.0173659,0.203746,-0.183222,0.385489,-3.82129e-05,-7.52814e-05,0.27185,-0.01721598183430495,0.47033313858079606,-3.8212169896412185e-05,0.22598671327980946,-7.527856642652875e-05,-0.16741669827392824
752,0.7426,147.939,446.173,0.000328145,256.917,-0.132685,-0.229774,-0.0173867,0.203981,-0.183436,0.385936,-3.82908e-05,-7.54348e-05,0.27217,-0.017236423529288447,0.4709905244085282,-3.829006691669079e-05,0.22627485401264025,-7.543195486703347e-05,-0.16759485203736502
753,0.7436,147.984,446.311,0.000327546,256.996,-0.132916,-0.230174,-0.0174074,0.204217,-0.183649,0.386382,-3.83688e-05,-7.55884e-05,0.272491,-0.017256766524770706,0.4716467325059426,-3.836806392698566e-05,0.226564289030176,-7.558554326891898e-05,-0.16777213545252712
754,0.7446,148.029,446.449,0.000326947,257.074,-0.133147,-0.230575,-0.0174282,0.204452,-0.183863,0.386828,-3.84469e-05,-7.57422e-05,0.272811,-0.01727720737144145,0.4723032333374433,-3.8446160927407824e-05,0.2268525655092577,-7.573933163196322e-05,-0.16795021316054592
755,0.7456,148.074,446.587,0.000326349,257.153,-0.133379,-0.230977,-0.017449,0.204687,-0.184077,0.387273,-3.8525e-05,-7.58962e-05,0.273131,-0.017297647792946957,0.4729585540743282,-3.852425792172376e-05,0.22714090974127266,-7.589331995627724e-05,-0.16812825276401255
756,0.7466,148.119,446.724,0.000325751,257.232,-0.13361,-0.231379,-0.0174698,0.204923,-0.18429,0.387719,-3.86033e-05,-7.60503e-05,0.27345,-0.01731808778929622,0.4736156401087388,-3.8602554902178454e-05,0.22743054917208005,-7.604740824929124e-05,-0.16830542257691894
757,0.7476,148.164,446.861,0.000325154,257.311,-0.133843,-0.231781,-0.0174905,0.205158,-0.184504,0.388164,-3.86816e-05,-7.62046e-05,0.27377,-0.017338429094345686,0.47427154499660107,-3.868085187652692e-05,0.2277190292462168,-7.620169650324193e-05,-0.1684833861737034
758,0.7486,148.209,446.999,0.000324558,257.389,-0.134075,-0.232184,-0.0175113,0.205393,-0.184717,0.388609,-3.87601e-05,-7.63591e-05,0.27409,-0.017358868242452696,0.47492774182709074,-3.875934883701415e-05,0.22800757712113695,-7.635618471812933e-05,-0.16866048035124892
759,0.7496,148.254,447.136,0.000323962,257.468,-0.134308,-0.232588,-0.017532,0.205628,-0.18493,0.389055,-3.88386e-05,-7.65138e-05,0.274409,-0.01737920870335552,0.47558570631511987,-3.883784579128413e-05,0.22829619281277602,-7.65108728938424e-05,-0.16883753681175173
760,0.7506,148.299,447.273,0.000323366,257.546,-0.134541,-0.232992,-0.0175527,0.205863,-0.185143,0.389499,-3.89172e-05,-7.66687e-05,0.274728,-0.017399548743215254,0.4762410118357838,-3.891644273557038e-05,0.22858487633707258,-7.666576103038114e-05,-0.16901455556324452
761,0.7516,148.344,447.41,0.000322771,257.624,-0.134774,-0.233396,-0.0175735,0.206097,-0.185356,0.389944,-3.8996e-05,-7.68238e-05,0.275048,-0.017419986620046735,0.47689808527404787,-3.899523966588436e-05,0.22887239883695587,-7.68208491274125e-05,-0.16919153661375852
762,0.7526,148.388,447.546,0.000322177,257.702,-0.135008,-0.233801,-0.0175942,0.206332,-0.185569,0.390389,-3.90748e-05,-7.6979e-05,0.275367,-0.01744032581581234,0.4775554511750597,-3.90740365899811e-05,0.22916121778557996,-7.697603719281076e-05,-0.1693684799713232
763,0.7536,148.433,447.683,0.000321583,257.78,-0.135242,-0.234207,-0.0176149,0.206567,-0.185782,0.390833,-3.91537e-05,-7.71344e-05,0.275686,-0.017460664590560837,0.47821163145662426,-3.9152933503872056e-05,0.22945010461463244,-7.713142521870164e-05,-0.16954538564396637
764,0.7546,148.478,447.819,0.000320989,257.858,-0.135476,-0.234613,-0.0176356,0.206801,-0.185995,0.391277,-3.92327e-05,-7.729e-05,0.276005,-0.017481002944301105,0.47886810314692174,-3.923193040766826e-05,0.2297378296016228,-7.728701320486309e-05,-0.16972225363971394
765,0.7556,148.522,447.955,0.000320396,257.936,-0.13571,-0.235019,-0.0176563,0.207036,-0.186208,0.391722,-3.93118e-05,-7.74458e-05,0.276323,-0.017501340877041915,0.47952634590097265,-3.9311027301369705e-05,0.2300268519503752,-7.744280115140612e-05,-0.16989908396659037
766,0.7566,148.567,448.091,0.000319804,258.014,-0.135945,-0.235426,-0.017677,0.20727,-0.186421,0.392165,-3.9391e-05,-7.76018e-05,0.276642,-0.017521678388791706,0.48018192127143,-3.939022418475435e-05,0.23031471191203345,-7.759878905821971e-05,-0.17007587663261814
767,0.7576,148.611,448.227,0.000319212,258.092,-0.13618,-0.235833,-0.0176977,0.207504,-0.186633,0.392609,-3.94703e-05,-7.7758e-05,0.276961,-0.01754201547955947,0.4808392679646414,-3.946952105793322e-05,0.23060263924080449,-7.775497692508182e-05,-0.1702518018980349
768,0.7586,148.656,448.363,0.00031862,258.17,-0.136415,-0.236241,-0.0177184,0.207739,-0.186846,0.393053,-3.95497e-05,-7.79143e-05,0.277279,-0.017562352149353755,0.48149690658458777,-3.954891792090631e-05,0.2308918648437035,-7.791126475975574e-05,-0.17042851944314397
769,0.7596,148.7,448.499,0.000318029,258.247,-0.136651,-0.23665,-0.0177391,0.207973,-0.187059,0.393496,-3.96292e-05,-7.80709e-05,0.277597,-0.017582688398183444,0.4821533551068167,-3.9628414773673626e-05,0.23117992724206315,-7.806785254660387e-05,-0.17060519935142437
770,0.7606,148.744,448.634,0.000317439,258.325,-0.136887,-0.237059,-0.0177597,0.208207,-0.187271,0.39394,-3.97088e-05,-7.82276e-05,0.277915,-0.01760292598635449,0.4828115773110002,-3.970801161601312e-05,0.23146805705491103,-7.822454030104176e-05,-0.1707810124123189
771,0.7616,148.789,448.77,0.000316849,258.402,-0.137123,-0.237468,-0.0177804,0.208441,-0.187483,0.394383,-3.97885e-05,-7.83845e-05,0.278234,-0.01762326139531445,0.4834686083613815,-3.978770844814683e-05,0.23175625429802427,-7.838142801530612e-05,-0.1709567882047952
772,0.7626,148.833,448.905,0.000316259,258.479,-0.137359,-0.237878,-0.017801,0.208675,-0.187696,0.394826,-3.98682e-05,-7.85416e-05,0.278552,-0.017643498147690395,0.4841259305409984,-3.986740527384125e-05,0.23204451898718337,-7.853851568928594e-05,-0.17113335560381204
773,0.7636,148.877,449.04,0.00031567,258.557,-0.137596,-0.238288,-0.0178217,0.208908,-0.187908,0.395268,-3.99481e-05,-7.86989e-05,0.278869,-0.017663832716815264,0.48478205919604833,-3.994730208523034e-05,0.23233161880593745,-7.869580332275916e-05,-0.171309056707449
774,0.7646,148.921,449.175,0.000315082,258.634,-0.137833,-0.238699,-0.0178423,0.209142,-0.18812,0.395711,-4.00281e-05,-7.88563e-05,0.279187,-0.01768406863343064,0.48543996336328576,-4.002729888630263e-05,0.23262001814614486,-7.885319092371113e-05,-0.17148472056640007
775,0.7656,148.965,449.309,0.000314494,258.711,-0.13807,-0.23911,-0.0178629,0.209376,-0.188332,0.396154,-4.01081e-05,-7.9014e-05,0.279505,-0.01770430413319035,0.48609815904663556,-4.010729568093563e-05,0.2329084849796943,-7.901087847617116e-05,-0.17166034718856027
776,0.7666,149.009,449.444,0.000313906,258.788,-0.138308,-0.239522,-0.0178836,0.209609,-0.188544,0.396596,-4.01883e-05,-7.91718e-05,0.279822,-0.017724637443644387,0.48675515961936444,-4.018749246104125e-05,0.23319578612597835,-7.916866599577688e-05,-0.17183593658182295
777,0.7676,149.053,449.579,0.000313319,258.865,-0.138546,-0.239935,-0.0179042,0.209843,-0.188756,0.397038,-4.02685e-05,-7.93298e-05,0.28014,-0.017744872107695264,0.48741245065053307,-4.0267689234818604e-05,0.23348438770499969,-7.932665347465395e-05,-0.1720114887540798
778,0.7686,149.097,449.713,0.000312732,258.942,-0.138784,-0.240348,-0.0179248,0.210076,-0.188968,0.39748,-4.03489e-05,-7.9488e-05,0.280457,-0.01776510635491635,0.4880700322685527,-4.034808599406858e-05,0.23377182305225253,-7.948484091258035e-05,-0.17218700371322093
779,0.7696,149.141,449.847,0.000312146,259.018,-0.139022,-0.240761,-0.0179454,0.210309,-0.189179,0.397922,-4.04293e-05,-7.96464e-05,0.280774,-0.0177853401853163,0.48872790460189064,-4.042848274687927e-05,0.23405932537974405,-7.964322830966708e-05,-0.1723616538292022
780,0.7706,149.185,449.981,0.00031156,259.095,-0.139261,-0.241175,-0.017966,0.210542,-0.189391,0.398364,-4.05098e-05,-7.9805e-05,0.281091,-0.017805573598903557,0.4893860677790718,-4.050897948915111e-05,0.23434689470308268,-7.980181566569211e-05,-0.1725370945612158
781,0.7716,149.229,450.115,0.000310975,259.172,-0.1395,-0.241589,-0.0179866,0.210776,-0.189602,0.398805,-4.05905e-05,-7.99637e-05,0.281408,-0.01782580659568689,0.4900430318849003,-4.0589676216784554e-05,0.23463576567302868,-7.996050298852975e-05,-0.17271167081582073
782,0.7726,149.273,450.249,0.00031039,259.248,-0.139739,-0.242004,-0.0180072,0.211009,-0.189814,0.399246,-4.06712e-05,-8.01227e-05,0.281725,-0.017846039175674733,0.4907002857757925,-4.0670372937978705e-05,0.2349234693226041,-8.011949026220933e-05,-0.1728870373520982
783,0.7736,149.316,450.382,0.000309806,259.325,-0.139979,-0.242419,-0.0180277,0.211242,-0.190025,0.399688,-4.0752e-05,-8.02818e-05,0.282042,-0.017866173125497875,0.49135932093814705,-4.075116964852299e-05,0.23521124001493998,-8.027857750247946e-05,-0.1730615397765637
784,0.7746,149.36,450.516,0.000309222,259.401,-0.140219,-0.242835,-0.0180483,0.211474,-0.190237,0.400129,-4.08329e-05,-8.04412e-05,0.282358,-0.017886404873943773,0.49201715544052727,-4.083206634852843e-05,0.23549784226719916,-8.04379646933695e-05,-0.17323683214848307
785,0.7756,149.404,450.649,0.000308638,259.477,-0.140459,-0.243251,-0.0180689,0.211707,-0.190448,0.40057,-4.0914e-05,-8.06007e-05,0.282675,-0.01790663620561994,0.4926752801119003,-4.091316303367343e-05,0.23578574680402342,-8.05974518508501e-05,-0.17341126077403268
786,0.7766,149.447,450.782,0.000308055,259.553,-0.140699,-0.243668,-0.0180894,0.21194,-0.190659,0.40101,-4.09951e-05,-8.07604e-05,0.282991,-0.017926768913216762,0.4933322017473112,-4.099425971237913e-05,0.23607371843042046,-8.075713896671388e-05,-0.1735856525990248
787,0.7776,149.491,450.915,0.000307473,259.629,-0.14094,-0.244086,-0.01811,0.212172,-0.19087,0.401451,-4.10763e-05,-8.09203e-05,0.283307,-0.017946999413402276,0.4939909064820003,-4.107545638032395e-05,0.236360520800885,-8.091702604084983e-05,-0.17376000763122357
788,0.7786,149.534,451.048,0.00030689,259.705,-0.141181,-0.244503,-0.0181305,0.212405,-0.191081,0.401891,-4.11576e-05,-8.10804e-05,0.283624,-0.017967131293561867,0.49464840712038516,-4.11567530376189e-05,0.23664862636522632,-8.107711307325793e-05,-0.17393432587839164
789,0.7796,149.578,451.181,0.000306309,259.781,-0.141422,-0.244922,-0.0181511,0.212637,-0.191292,0.402332,-4.1239e-05,-8.12406e-05,0.28394,-0.01798736096229092,0.4953076924296511,-4.123814968415296e-05,0.23693556212980482,-8.123730007181251e-05,-0.1741086073482896
790,0.7806,149.621,451.313,0.000305727,259.857,-0.141664,-0.245341,-0.0181716,0.21287,-0.191503,0.402772,-4.13205e-05,-8.14011e-05,0.284256,-0.018007492015047144,0.49596577258133645,-4.131964631992613e-05,0.2372238016943864,-8.139778702032086e-05,-0.17428285204867677
791,0.7816,149.664,451.446,0.000305146,259.933,-0.141906,-0.24576,-0.0181921,0.213102,-0.191714,0.403212,-4.14021e-05,-8.15617e-05,0.284571,-0.018027622655121145,0.49662414235200014,-4.140124294493841e-05,0.23751087091512146,-8.155837393497567e-05,-0.17445705998731065
792,0.7826,149.708,451.578,0.000304566,260.009,-0.142148,-0.24618,-0.0182126,0.213334,-0.191925,0.403651,-4.14838e-05,-8.17226e-05,0.284887,-0.01804775288252114,0.497281304587049,-4.148293955907878e-05,0.23779800674364182,-8.171926079925118e-05,-0.17463123117194712
793,0.7836,149.751,451.71,0.000303986,260.084,-0.14239,-0.2466,-0.0182331,0.213566,-0.192135,0.404091,-4.15656e-05,-8.18836e-05,0.285203,-0.018067882697255788,0.49794025331915726,-4.156473616245826e-05,0.23808520919540266,-8.188024762956214e-05,-0.17480454041529359
794,0.7846,149.794,451.842,0.000303406,260.16,-0.142633,-0.247021,-0.0182536,0.213798,-0.192346,0.40453,-4.16475e-05,-8.20448e-05,0.285518,-0.018088012099333417,0.49859799345376077,-4.164663275496583e-05,0.23837247828586183,-8.204143441747913e-05,-0.17497863828929427
795,0.7856,149.837,451.974,0.000302827,260.235,-0.142876,-0.247442,-0.0182741,0.21403,-0.192557,0.40497,-4.17295e-05,-8.22062e-05,0.285834,-0.018108141088762464,0.49925752165644455,-4.1728629336490464e-05,0.23865981403048186,-8.220282116289113e-05,-0.17515269943251888
796,0.7866,149.88,452.106,0.000302248,260.31,-0.143119,-0.247864,-0.0182946,0.214262,-0.192767,0.405409,-4.18115e-05,-8.23678e-05,0.286149,-0.01812826966555159,0.4999158401987991,-4.181062591146478e-05,0.23894721644472794,-8.236440786590915e-05,-0.1753258991790282
797,0.7876,149.923,452.238,0.00030167,260.386,-0.143363,-0.248286,-0.0183151,0.214494,-0.192977,0.405848,-4.18937e-05,-8.25296e-05,0.286464,-0.018148397829709007,0.5005744478064389,-4.1892822471245594e-05,0.23923468554406924,-8.252619452620014e-05,-0.17549906255740944
798,0.7886,149.966,452.369,0.000301092,260.461,-0.143607,-0.248709,-0.0183356,0.214726,-0.193188,0.406287,-4.1976e-05,-8.26915e-05,0.286779,-0.018168525581243378,0.5012333446062915,-4.197511902004347e-05,0.2395222213439785,-8.26880811521935e-05,-0.17567301390269752
799,0.7896,150.009,452.501,0.000300514,260.536,-0.143851,-0.249133,-0.018356,0.214957,-0.193398,0.406725,-4.20584e-05,-8.28537e-05,0.287094,-0.018188554739023366,0.5018910288335605,-4.2057515557858416e-05,0.23980858405072825,-8.285026772703041e-05,-0.1758461043946402
800,0.7906,150.052,452.632,0.000299937,260.611,-0.144096,-0.249556,-0.0183765,0.215189,-0.193608,0.407164,-4.21408e-05,-8.3016e-05,0.287409,-0.01820868166734957,0.5025505037393692,-4.213991208901202e-05,0.24009625301053705,-8.301255426723664e-05,-0.17601915854139594
801,0.7916,150.095,452.763,0.00029936,260.686,-0.14434,-0.249981,-0.0183969,0.21542,-0.193818,0.407602,-4.22234e-05,-8.31786e-05,0.287724,-0.01822871000595383,0.5032087650087014,-4.2222508604750075e-05,0.24038274833391826,-8.317514075617538e-05,-0.17619217635059647
802,0.7926,150.138,452.894,0.000298783,260.761,-0.144585,-0.250406,-0.0184174,0.215652,-0.194028,0.40804,-4.23061e-05,-8.33413e-05,0.288038,-0.018248836111105393,0.5038673146596204,-4.230520510961622e-05,0.24067055051529396,-8.333782721037242e-05,-0.17636515782987183
803,0.7936,150.181,453.025,0.000298207,260.836,-0.144831,-0.250831,-0.0184378,0.215883,-0.194238,0.408478,-4.23889e-05,-8.35042e-05,0.288353,-0.018268863630567345,0.5045261528184652,-4.238800160327738e-05,0.2409571785167226,-8.35007136212873e-05,-0.17653810298685046
804,0.7946,150.223,453.155,0.000297632,260.91,-0.145076,-0.251257,-0.0184583,0.216114,-0.194448,0.408916,-4.24717e-05,-8.36674e-05,0.288667,-0.01828898891257802,0.5051852796116301,-4.2470798090166184e-05,0.24124387273686754,-8.366389998071266e-05,-0.17671101182915938
805,0.7956,150.266,453.286,0.000297056,260.985,-0.145322,-0.251683,-0.0184787,0.216345,-0.194658,0.409354,-4.25547e-05,-8.38307e-05,0.288981,-0.01830901561293119,0.5058446951655642,-4.2553794561639435e-05,0.24153063319102697,-8.382718630506325e-05,-0.1768838843644237
806,0.7966,150.309,453.416,0.000296482,261.06,-0.145569,-0.25211,-0.0184991,0.216576,-0.194867,0.409792,-4.26378e-05,-8.39942e-05,0.289295,-0.018329041904743826,0.5065043996067726,-4.263689102190771e-05,0.24181745989450287,-8.399067258590964e-05,-0.17705589765657637
807,0.7976,150.351,453.546,0.000295907,261.134,-0.145815,-0.252537,-0.0185195,0.216807,-0.195077,0.410229,-4.27209e-05,-8.41579e-05,0.28961,-0.018349067788024254,0.5071628858981763,-4.27199874752926e-05,0.2421043528626008,-8.415435882325184e-05,-0.1772286977734212
808,0.7986,150.394,453.676,0.000295333,261.209,-0.146062,-0.252965,-0.0185399,0.217038,-0.195287,0.410666,-4.28042e-05,-8.43217e-05,0.289923,-0.0183690932627808,0.5078216600109735,-4.2803283913261936e-05,0.24239131211062914,-8.431814502540824e-05,-0.1774014616060514
809,0.7996,150.436,453.806,0.000294759,261.283,-0.146309,-0.253394,-0.0185603,0.217269,-0.195496,0.411103,-4.28875e-05,-8.44858e-05,0.290237,-0.018389118329021903,0.5084807220709702,-4.288658034434789e-05,0.24267833765390057,-8.448223117529796e-05,-0.177573366735864
810,0.8006,150.479,453.936,0.000294186,261.357,-0.146556,-0.253822,-0.0185807,0.2175,-0.195705,0.41154,-4.2971e-05,-8.46501e-05,0.290551,-0.018409142986755778,0.5091400722040262,-4.297007675979625e-05,0.24296542950773103,-8.464651728135042e-05,-0.17774523594125857
811,0.8016,150.521,454.066,0.000293612,261.431,-0.146804,-0.254252,-0.0186011,0.21773,-0.195915,0.411977,-4.30546e-05,-8.48145e-05,0.290865,-0.018429167235990862,0.5097997105360574,-4.305367316403963e-05,0.24325134443547425,-8.481090335199504e-05,-0.17791789131226243
812,0.8026,150.563,454.196,0.00029304,261.505,-0.147052,-0.254682,-0.0186215,0.217961,-0.196124,0.412414,-4.31382e-05,-8.49792e-05,0.291178,-0.01844919107673537,0.5104596371930341,-4.313726956117758e-05,0.24353856866916046,-8.49755893700399e-05,-0.17808968851954465
813,0.8036,150.606,454.325,0.000292467,261.579,-0.1473,-0.255112,-0.0186419,0.218191,-0.196333,0.41285,-4.3222e-05,-8.5144e-05,0.291491,-0.018469214508997633,0.5111183411818851,-4.322106594278896e-05,0.2438246154340713,-8.514037535245489e-05,-0.1782614498249625
814,0.8046,150.648,454.454,0.000291895,261.653,-0.147549,-0.255543,-0.0186622,0.218422,-0.196542,0.413286,-4.33058e-05,-8.5309e-05,0.291805,-0.018489139381705044,0.5117773324282928,-4.3304862317405934e-05,0.24411197210865487,-8.530536129069954e-05,-0.17843317523601843
815,0.8056,150.69,454.583,0.000291324,261.727,-0.147797,-0.255974,-0.0186826,0.218652,-0.196751,0.413723,-4.33898e-05,-8.54743e-05,0.292118,-0.018509161999030188,0.5124381234948963,-4.338885867627429e-05,0.2443981507715245,-8.54706471761224e-05,-0.17860486476021387
816,0.8066,150.733,454.712,0.000290752,261.801,-0.148047,-0.256406,-0.0187029,0.218882,-0.19696,0.414159,-4.34738e-05,-8.56397e-05,0.292431,-0.018529086060811717,0.5130976902918531,-4.3472855028037216e-05,0.24468439526305663,-8.563603302558231e-05,-0.17877651840504827
817,0.8076,150.775,454.841,0.000290182,261.875,-0.148296,-0.256839,-0.0187233,0.219112,-0.197169,0.414595,-4.3558e-05,-8.58053e-05,0.292744,-0.01854910786323305,0.5137575447226335,-4.3557051364051524e-05,0.2449707055983934,-8.580161883053883e-05,-0.17894813617801963
818,0.8086,150.817,454.97,0.000289611,261.948,-0.148546,-0.257271,-0.0187436,0.219342,-0.197378,0.41503,-4.36422e-05,-8.59711e-05,0.293057,-0.01856903111412167,0.5144161724957428,-4.364124769307143e-05,0.2452570817926809,-8.596740459088092e-05,-0.1791197180866244
819,0.8096,150.859,455.099,0.000289041,262.022,-0.148796,-0.257705,-0.0187639,0.219572,-0.197587,0.415466,-4.37266e-05,-8.61371e-05,0.293369,-0.018588953960572474,0.515076601910101,-4.372564400612067e-05,0.24554352386106837,-8.613339030649758e-05,-0.1792912641383575
820,0.8106,150.901,455.227,0.000288471,262.095,-0.149046,-0.258139,-0.0187843,0.219802,-0.197795,0.415901,-4.3811e-05,-8.63033e-05,0.293682,-0.018608974541701073,0.5157358035979043,-4.38100403121755e-05,0.24583003181870855,-8.62995759773888e-05,-0.17946195380307617
821,0.8116,150.943,455.356,0.000287901,262.169,-0.149296,-0.258573,-0.0188046,0.220032,-0.198004,0.416336,-4.38956e-05,-8.64697e-05,0.293995,-0.018628896577308596,0.5163952921008195,-4.3894636602259673e-05,0.24611660568075777,-8.646596160322151e-05,-0.1796334283350186
822,0.8126,150.985,455.484,0.000287332,262.242,-0.149547,-0.259008,-0.0188249,0.220262,-0.198212,0.416771,-4.39802e-05,-8.66363e-05,0.294307,-0.018648818208502838,0.5170550675436383,-4.3979232885127395e-05,0.2464032454623757,-8.663254718410673e-05,-0.1798040468369856
823,0.8136,151.027,455.612,0.000286763,262.315,-0.149798,-0.259444,-0.0188452,0.220491,-0.198421,0.417206,-4.4065e-05,-8.6803e-05,0.294619,-0.018668739435292014,0.5177151300512068,-4.4064029152135475e-05,0.2466887044893975,-8.679923272858492e-05,-0.17997544987895475
824,0.8146,151.068,455.74,0.000286194,262.389,-0.15005,-0.25988,-0.0188655,0.220721,-0.198629,0.417641,-4.41498e-05,-8.697e-05,0.294931,-0.018688660257684453,0.5183754797484252,-4.4148825411927106e-05,0.24697547586887447,-8.696621821913109e-05,-0.18014599724783875
825,0.8156,151.11,455.868,0.000285626,262.462,-0.150302,-0.260316,-0.0188858,0.22095,-0.198838,0.418076,-4.42348e-05,-8.71372e-05,0.295243,-0.018708580675688258,0.5190361167602486,-4.423382165563705e-05,0.24726106595166497,-8.713340366450772e-05,-0.18031732882964002
826,0.8166,151.152,455.996,0.000285058,262.535,-0.150554,-0.260753,-0.0189061,0.22118,-0.199046,0.41851,-4.43198e-05,-8.73046e-05,0.295555,-0.018728500689311756,0.5196955215154042,-4.4318817892130546e-05,0.24754796898941844,-8.730078906427075e-05,-0.1804878050950972
827,0.8176,151.194,456.123,0.00028449,262.608,-0.150806,-0.26119,-0.0189264,0.221409,-0.199254,0.418944,-4.4405e-05,-8.74721e-05,0.295867,-0.01874842029856305,0.5203552125143338,-4.4404014112542356e-05,0.24783369018814572,-8.746827442740468e-05,-0.18065824590517865
828,0.8186,151.235,456.251,0.000283923,262.68,-0.151059,-0.261628,-0.0189466,0.221638,-0.199462,0.419379,-4.44902e-05,-8.76399e-05,0.296179,-0.018768241380279438,0.5210167108972448,-4.4489210325737716e-05,0.24811947682451962,-8.763605973616251e-05,-0.18082865126725833
829,0.8196,151.277,456.378,0.000283356,262.753,-0.151312,-0.262067,-0.0189669,0.221868,-0.19967,0.419813,-4.45756e-05,-8.78078e-05,0.296491,-0.018788160182802827,0.5216769754168114,-4.457460652274037e-05,0.24840657731948057,-8.780394500795818e-05,-0.1809990211887087
830,0.8206,151.319,456.505,0.000282789,262.826,-0.151565,-0.262506,-0.0189871,0.222097,-0.199878,0.420246,-4.4661e-05,-8.79759e-05,0.296802,-0.01880798046178167,0.5223360042166052,-4.466000271241555e-05,0.24869249516203018,-8.797203023402922e-05,-0.18116935567690062
831,0.8216,151.36,456.632,0.000282223,262.899,-0.151818,-0.262945,-0.0190074,0.222326,-0.200086,0.42068,-4.47466e-05,-8.81443e-05,0.297113,-0.018827898457610015,0.5229968414337385,-4.4745598885787e-05,0.2489784784872633,-8.814041540528006e-05,-0.18133965473920333
832,0.8226,151.402,456.759,0.000281656,262.971,-0.152072,-0.263385,-0.0190276,0.222555,-0.200294,0.421114,-4.48322e-05,-8.83128e-05,0.297425,-0.018847717933883734,0.5236579655164695,-4.4831195051941997e-05,0.249264527310177,-8.830890053945772e-05,-0.1815099183829848
833,0.8236,151.443,456.886,0.000281091,263.044,-0.152326,-0.263826,-0.0190479,0.222783,-0.200501,0.421547,-4.4918e-05,-8.84815e-05,0.297736,-0.018867635123049564,0.5243178522707104,-4.4916991201793266e-05,0.24954939209575544,-8.847758562757768e-05,-0.1816793282953486
834,0.8246,151.484,457.013,0.000280525,263.116,-0.152581,-0.264267,-0.0190681,0.223012,-0.200709,0.42198,-4.50039e-05,-8.86505e-05,0.298047,-0.0188874537966508,0.5249780248177855,-4.50028873396624e-05,0.2498355716728562,-8.864657066054438e-05,-0.1818495212943777
835,0.8256,151.526,457.139,0.00027996,263.189,-0.152835,-0.264709,-0.0190883,0.223241,-0.200916,0.422413,-4.50898e-05,-8.88196e-05,0.298358,-0.018907272069918823,0.5256384832814698,-4.5088783470204064e-05,0.2501218167925845,-8.881565565610483e-05,-0.18201886091621422
836,0.8266,151.567,457.266,0.000279395,263.261,-0.15309,-0.265151,-0.0191085,0.223469,-0.201124,0.422846,-4.51759e-05,-8.89889e-05,0.298669,-0.018927089942861852,0.5262992277855925,-4.5174879584441996e-05,0.25040687706244924,-8.898494060527451e-05,-0.18218898329980238
837,0.8276,151.608,457.392,0.00027883,263.333,-0.153345,-0.265593,-0.0191288,0.223698,-0.201331,0.423279,-4.5262e-05,-8.91584e-05,0.29898,-0.018947005520792204,0.5269602584540352,-4.526097569113041e-05,0.2506932530260928,-8.915442550794239e-05,-0.18235825266027617
838,0.8286,151.65,457.518,0.000278266,263.405,-0.153601,-0.266036,-0.019149,0.223926,-0.201539,0.423712,-4.53483e-05,-8.93281e-05,0.29929,-0.018966822591127586,0.5276215754107345,-4.5347271781404075e-05,0.2509784435982725,-8.932411036410848e-05,-0.18252830445772272
839,0.8296,151.691,457.644,0.000277702,263.477,-0.153857,-0.26648,-0.0191692,0.224155,-0.201746,0.424144,-4.54347e-05,-8.9498e-05,0.299601,-0.018986639261162175,0.5282816504972652,-4.5433667859695603e-05,0.2512649504656408,-8.94939951734397e-05,-0.18269750358598602
840,0.8306,151.732,457.77,0.000277138,263.549,-0.154113,-0.266924,-0.0191894,0.224383,-0.201953,0.424576,-4.55211e-05,-8.96682e-05,0.299911,-0.019006455530904187,0.5289420107978349,-4.5520063930437615e-05,0.25155027139969754,-8.966417992706255e-05,-0.18286666769365456
841,0.8316,151.773,457.896,0.000276574,263.621,-0.154369,-0.267369,-0.0192095,0.224611,-0.20216,0.425008,-4.56077e-05,-8.98385e-05,0.300222,-0.01902617330298373,0.529602656435683,-4.560665998465385e-05,0.25183565739434366,-8.983446464283507e-05,-0.18303579678797677
842,0.8326,151.814,458.021,0.000276011,263.693,-0.154626,-0.267814,-0.0192297,0.224839,-0.202367,0.42544,-4.56943e-05,-9.0009e-05,0.300532,-0.019045988774145983,0.5302635875341017,-4.569325603132057e-05,0.25212110846441504,-9.000494931143965e-05,-0.18320489087619973
843,0.8336,151.855,458.147,0.000275448,263.765,-0.154883,-0.268259,-0.0192499,0.225067,-0.202574,0.425872,-4.57811e-05,-9.01797e-05,0.300842,-0.019065803845039864,0.5309248042164365,-4.578005206146152e-05,0.2524066246247503,-9.017563393309835e-05,-0.183373949965569
844,0.8346,151.896,458.272,0.000274885,263.836,-0.155141,-0.268706,-0.0192701,0.225295,-0.202781,0.426304,-4.5868e-05,-9.03506e-05,0.301152,-0.019085618515673364,0.5315863066060866,-4.5866948079398284e-05,0.2526922058901919,-9.03465185074781e-05,-0.18354297406332842
845,0.8356,151.937,458.398,0.000274322,263.908,-0.155398,-0.269152,-0.0192902,0.225523,-0.202988,0.426735,-4.5955e-05,-9.05217e-05,0.301462,-0.019105334696592924,0.532246562579175,-4.595394408513087e-05,0.25297785227558545,-9.05176030345789e-05,-0.18371196317672067
846,0.8366,151.978,458.523,0.00027376,263.979,-0.155656,-0.269599,-0.0193104,0.225751,-0.203195,0.427167,-4.6042e-05,-9.06929e-05,0.301772,-0.01912514856871128,0.5329086360917916,-4.6040940083424964e-05,0.25326356379577986,-9.068878752327425e-05,-0.18388091731298672
847,0.8376,152.019,458.648,0.000273198,264.051,-0.155914,-0.270047,-0.0193305,0.225979,-0.203401,0.427598,-4.61292e-05,-9.08644e-05,0.302081,-0.019144863955084745,0.5335694621117246,-4.6128136064860215e-05,0.2535493404656277,-9.086027195548407e-05,-0.18404902052879457
848,0.8386,152.06,458.773,0.000272636,264.122,-0.156173,-0.270495,-0.0193506,0.226206,-0.203608,0.428029,-4.62165e-05,-9.10361e-05,0.302391,-0.019164578945182975,0.5342305730090593,-4.6215432033980264e-05,0.2538339284654292,-9.103195633997085e-05,-0.18421790490140943
849,0.8396,152.1,458.897,0.000272075,264.194,-0.156432,-0.270944,-0.0193708,0.226434,-0.203815,0.42846,-4.63039e-05,-9.1208e-05,0.3027,-0.01918439162057961,0.5348919689066036,-4.6302827991007156e-05,0.2541198351932479,-9.120384067684562e-05,-0.18438675431857732
850,0.8406,152.141,459.022,0.000271514,264.265,-0.156691,-0.271393,-0.0193909,0.226661,-0.204021,0.428891,-4.63914e-05,-9.13801e-05,0.30301,-0.019204105816179706,0.5355536499272193,-4.6390323935607825e-05,0.25440455271005225,-9.137592496588631e-05,-0.1845547533426941
851,0.8416,152.182,459.147,0.000270953,264.336,-0.15695,-0.271843,-0.019411,0.226889,-0.204227,0.429321,-4.64789e-05,-9.15524e-05,0.303319,-0.019223819615528437,0.5362140799789732,-4.6477819872658976e-05,0.2546905895550313,-9.15482092068709e-05,-0.1847227177625762
852,0.8426,152.223,459.271,0.000270392,264.407,-0.15721,-0.272293,-0.0194311,0.227116,-0.204434,0.429752,-4.65666e-05,-9.17249e-05,0.303628,-0.019243533018633796,0.536876330952277,-4.6565515792740264e-05,0.2549754366477821,-9.172069340002142e-05,-0.18489146269429646
853,0.8436,152.263,459.395,0.000269831,264.478,-0.15747,-0.272744,-0.0194512,0.227343,-0.20464,0.430182,-4.66544e-05,-9.18976e-05,0.303937,-0.019263246025503666,0.537537329879171,-4.665331170039533e-05,0.2552603484081626,-9.18933775448938e-05,-0.1850593577591959
854,0.8446,152.304,459.519,0.000269271,264.549,-0.15773,-0.273195,-0.0194713,0.22757,-0.204846,0.430612,-4.67423e-05,-9.20705e-05,0.304246,-0.019282958636146152,0.5381986130967216,-4.674120759573519e-05,0.2555453248508537,-9.206626164159903e-05,-0.1852272182412743
855,0.8456,152.344,459.643,0.000268711,264.62,-0.157991,-0.273647,-0.0194914,0.227797,-0.205052,0.431042,-4.68303e-05,-9.22436e-05,0.304555,-0.019302670850569248,0.5388601807272,-4.682920347864883e-05,0.2558303659905403,-9.22393456899151e-05,-0.18539504414765473
856,0.8466,152.385,459.767,0.000268151,264.691,-0.158252,-0.2741,-0.0195115,0.228024,-0.205258,0.431472,-4.69184e-05,-9.24168e-05,0.304863,-0.019322382668780613,0.5395220328929302,-4.691729934913624e-05,0.2561154718419101,-9.241252969904856e-05,-0.18556283548545915
857,0.8476,152.425,459.891,0.000267592,264.762,-0.158513,-0.274552,-0.0195316,0.228251,-0.205464,0.431902,-4.70066e-05,-9.25903e-05,0.305172,-0.019342094090788575,0.5401841697162888,-4.700549520708641e-05,0.2564006424196541,-9.258601365047525e-05,-0.185730592261808
858,0.8486,152.466,460.015,0.000267032,264.832,-0.158774,-0.275006,-0.0195517,0.228478,-0.20567,0.432332,-4.70949e-05,-9.2764e-05,0.30548,-0.019361805116600905,0.5408465913197047,-4.7093791052610356e-05,0.2566858777384673,-9.27596975531797e-05,-0.18589831448382
859,0.8496,152.506,460.138,0.000266473,264.903,-0.159036,-0.27546,-0.0195717,0.228705,-0.205876,0.432761,-4.71833e-05,-9.29379e-05,0.305789,-0.019381417684372182,0.5415077563171327,-4.7182186885597055e-05,0.25697117781304724,-9.29335814071619e-05,-0.1860660021586129
860,0.8506,152.546,460.262,0.000265914,264.974,-0.159298,-0.275914,-0.0195918,0.228932,-0.206082,0.43319,-4.72718e-05,-9.3112e-05,0.306097,-0.019401127919788208,0.5421692050151941,-4.727068270604651e-05,0.2572565426580953,-9.310766521231084e-05,-0.1862336552933025
861,0.8516,152.587,460.385,0.000265355,265.044,-0.159561,-0.276369,-0.0196118,0.229158,-0.206287,0.433619,-4.73605e-05,-9.32863e-05,0.306405,-0.019420739701111356,0.5428309375356224,-4.735937850919303e-05,0.2575407147469726,-9.328194896840447e-05,-0.18640046029587043
862,0.8526,152.627,460.508,0.000264797,265.114,-0.159823,-0.276825,-0.0196319,0.229385,-0.206493,0.434048,-4.74492e-05,-9.34608e-05,0.306713,-0.01944044914616283,0.5434929540002036,-4.744807430456799e-05,0.2578262088915797,-9.345643267544279e-05,-0.18656804453927978
863,0.8536,152.667,460.631,0.000264239,265.185,-0.160086,-0.27728,-0.0196519,0.229611,-0.206699,0.434477,-4.7538e-05,-9.36355e-05,0.307021,-0.01946006014106927,0.544155254530776,-4.753687008718366e-05,0.25811050973957483,-9.36311163334258e-05,-0.18673559426389053
864,0.8546,152.707,460.754,0.000263681,265.255,-0.160349,-0.277737,-0.019672,0.229838,-0.206904,0.434906,-4.76269e-05,-9.38104e-05,0.307329,-0.019479768795787722,0.54481783924923,-4.762576585715106e-05,0.2583961332423268,-9.380599994202043e-05,-0.18690229637951572
865,0.8556,152.747,460.877,0.000263123,265.325,-0.160613,-0.278194,-0.019692,0.230064,-0.207109,0.435334,-4.7716e-05,-9.39855e-05,0.307637,-0.019499379004309092,0.5454791627975726,-4.771486160981553e-05,0.2586805629077811,-9.398108350122669e-05,-0.18706896432470987
866,0.8566,152.787,461.0,0.000262565,265.395,-0.160877,-0.278651,-0.019712,0.23029,-0.207315,0.435763,-4.78051e-05,-9.41608e-05,0.307944,-0.01951898882063019,0.5461423155945171,-4.780395735437537e-05,0.2589650568616042,-9.415636701104457e-05,-0.1872364108704726
867,0.8576,152.827,461.122,0.000262008,265.465,-0.161141,-0.27911,-0.019732,0.230516,-0.20752,0.436191,-4.78943e-05,-9.43363e-05,0.308252,-0.019538598244758898,0.5468042061400642,-4.7893153086286944e-05,0.2592496151183268,-9.433185047114101e-05,-0.18740301032921625
868,0.8586,152.867,461.245,0.00026145,265.535,-0.161406,-0.279568,-0.019752,0.230742,-0.207725,0.436619,-4.79837e-05,-9.4512e-05,0.308559,-0.019558207276702988,0.5474663800353976,-4.798254880067354e-05,0.25953423769248296,-9.450753388162703e-05,-0.18756957563857124
869,0.8596,152.907,461.367,0.000260893,265.605,-0.16167,-0.280027,-0.019772,0.230968,-0.20793,0.437047,-4.80731e-05,-9.46879e-05,0.308867,-0.019577815916470453,0.5481288374018165,-4.807194450706653e-05,0.25981892459861,-9.468341724228058e-05,-0.18773610680553743
870,0.8606,152.947,461.489,0.000260336,265.675,-0.161935,-0.280487,-0.019792,0.231194,-0.208135,0.437475,-4.81627e-05,-9.4864e-05,0.309174,-0.019597424164068955,0.5487915783606727,-4.816154019582353e-05,0.26010367585124894,-9.485950055299064e-05,-0.18790260383711355
871,0.8616,152.987,461.611,0.00025978,265.745,-0.162201,-0.280947,-0.019812,0.23142,-0.20834,0.437902,-4.82523e-05,-9.50403e-05,0.309481,-0.019617032019506486,0.5494530535795414,-4.825113587647589e-05,0.2603884914649435,-9.503578381375721e-05,-0.18806906674029633
872,0.8626,153.027,461.733,0.000259223,265.815,-0.162466,-0.281407,-0.019832,0.231646,-0.208545,0.43833,-4.83421e-05,-9.52168e-05,0.309788,-0.01963663948279082,0.5501163614242266,-4.834093153949226e-05,0.26067337145424063,-9.521226702435825e-05,-0.18823549552208163
873,0.8636,153.067,461.855,0.000258667,265.884,-0.162732,-0.281869,-0.019852,0.231871,-0.20875,0.438757,-4.8432e-05,-9.53935e-05,0.310095,-0.019656246553929835,0.5507784024462539,-4.8430827189638315e-05,0.26095705487600607,-9.538895018479376e-05,-0.1884018901894634
874,0.8646,153.107,461.977,0.00025811,265.954,-0.162999,-0.28233,-0.0198719,0.232097,-0.208955,0.439184,-4.85219e-05,-9.55704e-05,0.310402,-0.01967575520051168,0.5514407262201608,-4.852072283167974e-05,0.2612420633751553,-9.55658332948417e-05,-0.18856825074943462
875,0.8656,153.146,462.098,0.000257554,266.023,-0.163265,-0.282793,-0.0198919,0.232322,-0.209159,0.439611,-4.8612e-05,-9.57476e-05,0.310708,-0.019695361489344143,0.552103332866708,-4.8610818455863125e-05,0.26152587476699907,-9.574301634485138e-05,-0.18873376594315794
876,0.8666,153.186,462.22,0.000256999,266.093,-0.163532,-0.283255,-0.0199118,0.232548,-0.209364,0.440038,-4.87022e-05,-9.59249e-05,0.311015,-0.019714869357546627,0.5527662225067083,-4.8701014067065174e-05,0.2618110118339714,-9.592029935390212e-05,-0.18890005847557267
877,0.8676,153.226,462.341,0.000256443,266.162,-0.163799,-0.283718,-0.0199318,0.232773,-0.209569,0.440465,-4.87925e-05,-9.61024e-05,0.311321,-0.019734474864103735,0.5534293952610254,-4.879130966528589e-05,0.2620949512536208,-9.60977823122322e-05,-0.1890663169215122
878,0.8686,153.265,462.462,0.000255888,266.231,-0.164067,-0.284182,-0.0199517,0.232998,-0.209773,0.440891,-4.88829e-05,-9.62802e-05,0.311628,-0.019753981953957722,0.5540912971585008,-4.8881705250525265e-05,0.26237895456682736,-9.6275565210302e-05,-0.18923173052009956
879,0.8696,153.305,462.583,0.000255332,266.301,-0.164334,-0.284647,-0.0199717,0.233224,-0.209977,0.441318,-4.89734e-05,-9.64581e-05,0.311934,-0.019773586678270783,0.5547550358405111,-4.8972200822672285e-05,0.26266428445162204,-9.645344806707978e-05,-0.18939711037775442
880,0.8706,153.344,462.704,0.000254777,266.37,-0.164603,-0.285111,-0.0199916,0.233449,-0.210182,0.441744,-4.9064e-05,-9.66362e-05,0.31224,-0.01979309298980736,0.5554175025811765,-4.9062796381615925e-05,0.2629484158792106,-9.663153087280385e-05,-0.18956326693849757
881,0.8716,153.384,462.825,0.000254222,266.439,-0.164871,-0.285577,-0.0200115,0.233674,-0.210386,0.44217,-4.91547e-05,-9.68146e-05,0.312546,-0.01981259891317233,0.556080251592793,-4.915349192757823e-05,0.263232611243563,-9.680991361782354e-05,-0.18972857916962127
882,0.8726,153.423,462.946,0.000253667,266.508,-0.16514,-0.286043,-0.0200314,0.233899,-0.21059,0.442596,-4.92455e-05,-9.69932e-05,0.312852,-0.019832104448373244,0.5567432829956331,-4.924428746022613e-05,0.2635168705590665,-9.69884963116785e-05,-0.1898938576804894
883,0.8736,153.463,463.067,0.000253112,266.577,-0.165409,-0.286509,-0.0200513,0.234124,-0.210794,0.443022,-4.93364e-05,-9.71719e-05,0.313158,-0.019851609595417874,0.5574065969100217,-4.933518297978168e-05,0.2638011938401119,-9.716717896379734e-05,-0.1900591024779802
884,0.8746,153.502,463.187,0.000252558,266.646,-0.165678,-0.286976,-0.0200713,0.234348,-0.210998,0.443447,-4.94274e-05,-9.73509e-05,0.313464,-0.019871212367197577,0.5580686353869198,-4.9426178486244865e-05,0.264084317016144,-9.734616155487874e-05,-0.1902243135689704
885,0.8756,153.541,463.308,0.000252004,266.715,-0.165947,-0.287443,-0.0200911,0.234573,-0.211202,0.443873,-4.95186e-05,-9.753e-05,0.313769,-0.019890618725069142,0.5587325140217041,-4.951737397440592e-05,0.2643687679870068,-9.752524410411301e-05,-0.19038949096033553
886,0.8766,153.581,463.428,0.000251449,266.783,-0.166217,-0.287911,-0.020111,0.234798,-0.211406,0.444298,-4.96098e-05,-9.77094e-05,0.314075,-0.019910122707691214,0.5593951161331383,-4.96085694542403e-05,0.2646532829665389,-9.770462659208778e-05,-0.19055463465894973
887,0.8776,153.62,463.548,0.000250895,266.852,-0.166488,-0.28838,-0.0201309,0.235022,-0.21161,0.444724,-4.97011e-05,-9.7889e-05,0.31438,-0.019929626302187975,0.5600595599690998,-4.9699864920760284e-05,0.26493659703191397,-9.788420902812067e-05,-0.1907197446716854
888,0.8786,153.659,463.668,0.000250341,266.921,-0.166758,-0.288849,-0.0201508,0.235247,-0.211814,0.445149,-4.97926e-05,-9.80688e-05,0.314686,-0.019949129508566976,0.5607227261949277,-4.9791360369089155e-05,0.26522123978735546,-9.806399141243372e-05,-0.19088482100541382
889,0.8796,153.698,463.788,0.000249787,266.989,-0.167029,-0.289318,-0.0201707,0.235471,-0.212017,0.445574,-4.98841e-05,-9.82488e-05,0.314991,-0.0199686323268361,0.561386174326302,-4.988285580898033e-05,0.26550468108930847,-9.824397374469385e-05,-0.19104905471646405
890,0.8806,153.737,463.908,0.000249234,267.058,-0.1673,-0.289788,-0.0201905,0.235695,-0.212221,0.445998,-4.99758e-05,-9.8429e-05,0.315296,-0.01998803675581151,0.5620483424339351,-4.997455123045835e-05,0.2657881858892246,-9.842415602490107e-05,-0.19121406387779516
891,0.8816,153.777,464.028,0.00024868,267.126,-0.167571,-0.290259,-0.0202104,0.23592,-0.212425,0.446423,-5.00676e-05,-9.86094e-05,0.315601,-0.02000753879983408,0.5627123540719479,-5.006634663862197e-05,0.26607302027371627,-9.860453825294435e-05,-0.19137903938069067
892,0.8826,153.816,464.147,0.000248127,267.195,-0.167843,-0.29073,-0.0202302,0.236144,-0.212628,0.446847,-5.01594e-05,-9.879e-05,0.315906,-0.020026942458469033,0.5633750845990175,-5.01581420383479e-05,0.26635665239586936,-9.878512042860166e-05,-0.19154317277559318
893,0.8836,153.855,464.267,0.000247573,267.263,-0.168115,-0.291202,-0.0202501,0.236368,-0.212832,0.447272,-5.02514e-05,-9.89708e-05,0.316211,-0.020046443728275798,0.5640396602222888,-5.0250137419549645e-05,0.26664034805873404,-9.896590255198401e-05,-0.19170808114712112
894,0.8846,153.894,464.386,0.00024702,267.331,-0.168387,-0.291674,-0.0202699,0.236592,-0.213035,0.447696,-5.03435e-05,-9.91518e-05,0.316515,-0.020065846616600713,0.5647029536464918,-5.034223278721495e-05,0.26692410727654514,-9.914688462275834e-05,-0.1918721477533244
895,0.8856,153.933,464.506,0.000246467,267.399,-0.16866,-0.292147,-0.0202898,0.236816,-0.213238,0.44812,-5.04357e-05,-9.93331e-05,0.31682,-0.02008534711222254,0.5653665283667375,-5.0434428141454823e-05,0.2672079300635404,-9.93281666309409e-05,-0.19203618105738673
896,0.8866,153.971,464.625,0.000245914,267.467,-0.168933,-0.29262,-0.0203096,0.23704,-0.213441,0.448544,-5.0528e-05,-9.95145e-05,0.317124,-0.02010474923026806,0.5660303845023202,-5.052672348215825e-05,0.267491816433961,-9.950954859638816e-05,-0.19220018106606807
897,0.8876,154.01,464.744,0.000245361,267.535,-0.169206,-0.293094,-0.0203294,0.237264,-0.213644,0.448968,-5.06204e-05,-9.96961e-05,0.317429,-0.02012415096415554,0.5666945221725856,-5.0619118809214214e-05,0.2677757664020515,-9.969113050900535e-05,-0.19236414778612643
898,0.8886,154.049,464.863,0.000244809,267.603,-0.16948,-0.293568,-0.0203492,0.237487,-0.213848,0.449391,-5.07129e-05,-9.9878e-05,0.317733,-0.02014355231389242,0.5673573741387719,-5.0711614122622706e-05,0.26805851192291286,-9.98730123585867e-05,-0.19252888869583396
899,0.8896,154.088,464.982,0.000244256,267.671,-0.169753,-0.294043,-0.020369,0.237711,-0.21405,0.449815,-5.08055e-05,-0.00010006,0.318037,-0.020162953279486473,0.5680220745719404,-5.080420942249475e-05,0.26834258884501105,-0.00010005499416521069,-0.19269198138740096
900,0.8906,154.127,465.1,0.000243704,267.739,-0.170028,-0.294518,-0.0203888,0.237934,-0.214253,0.450238,-5.08982e-05,-0.000100242,0.318341,-0.020182353860945135,0.5686854882115773,-5.0896904708608304e-05,0.2686254607813723,-0.000100236975938639,-0.19285584828212676
901,0.8916,154.165,465.219,0.000243151,267.807,-0.170302,-0.294994,-0.0204086,0.238158,-0.214456,0.450661,-5.09911e-05,-0.000100425,0.318645,-0.020201754058276067,0.5693491825345438,-5.0989799975975636e-05,0.26890966471423927,-0.00010041995757847921,-0.1930196819152492
902,0.8926,154.204,465.337,0.000242599,267.875,-0.170577,-0.29547,-0.0204284,0.238381,-0.214659,0.451084,-5.1084e-05,-0.000100607,0.318949,-0.02022115387148693,0.5700131576595946,-5.108269523468323e-05,0.26919266312262047,-0.0001006019392855162,-0.19318348229351945
903,0.8936,154.243,465.456,0.000242047,267.942,-0.170852,-0.295947,-0.0204482,0.238605,-0.214862,0.451507,-5.11771e-05,-0.00010079,0.319253,-0.020240553300585273,0.5706774137055337,-5.117579047453358e-05,0.26947699412304305,-0.000100784920858632,-0.19334724942368775
904,0.8946,154.281,465.574,0.000241495,268.01,-0.171127,-0.296425,-0.020468,0.238828,-0.215064,0.45193,-5.12702e-05,-0.000100973,0.319556,-0.020259952345578758,0.5713419507912161,-5.126888570572419e-05,0.26976011905998964,-0.00010096790239821907,-0.1935101768230828
905,0.8956,154.32,465.692,0.000240943,268.077,-0.171403,-0.296903,-0.0204877,0.239051,-0.215267,0.452352,-5.13635e-05,-0.000101157,0.31986,-0.020279253034405142,0.5720051970295634,-5.1362180918057554e-05,0.27004330714083746,-0.00010115188380321882,-0.19367387764099253
906,0.8966,154.358,465.81,0.000240391,268.145,-0.171679,-0.297381,-0.0205075,0.239274,-0.215469,0.452775,-5.14569e-05,-0.00010134,0.320163,-0.02029865131315145,0.5726702958863981,-5.1455576116410384e-05,0.27032655837966924,-0.0001013348652756374,-0.19383673906815113
907,0.8976,154.397,465.928,0.000239839,268.212,-0.171955,-0.29786,-0.0205273,0.239497,-0.215672,0.453197,-5.15503e-05,-0.000101524,0.320467,-0.020318049207815658,0.5733341028046708,-5.1548971306103475e-05,0.2706098727905706,-0.0001015188466131356,-0.19400037360065336
908,0.8986,154.435,466.046,0.000239287,268.279,-0.172232,-0.29834,-0.020547,0.23972,-0.215874,0.453619,-5.16439e-05,-0.000101708,0.32077,-0.020337348752145212,0.573998189908578,-5.164256647671728e-05,0.2708932503876307,-0.00010170282791677199,-0.1941631690822888
909,0.8996,154.474,466.163,0.000238735,268.347,-0.172509,-0.29882,-0.0205668,0.239943,-0.216077,0.454041,-5.17376e-05,-0.000101892,0.321073,-0.020356745880607652,0.5746625573163828,-5.1736261633461567e-05,0.27117669118494137,-0.00010188680918643556,-0.19432673735622363
910,0.9006,154.512,466.281,0.000238184,268.414,-0.172786,-0.2993,-0.0205865,0.240166,-0.216279,0.454463,-5.18314e-05,-0.000102077,0.321376,-0.02037604466262022,0.5753272051463989,-5.183005677622532e-05,0.27146019519659803,-0.00010207179032029057,-0.19448946691903846
911,0.9016,154.551,466.398,0.000237632,268.481,-0.173063,-0.299782,-0.0206062,0.240389,-0.216481,0.454885,-5.19253e-05,-0.000102261,0.321679,-0.020395343064450455,0.5759921335169893,-5.1923951904897514e-05,0.27174376243669895,-0.00010225577152211951,-0.19465216361380144
912,0.9026,154.589,466.516,0.000237081,268.548,-0.173341,-0.300263,-0.0206259,0.240611,-0.216683,0.455306,-5.20193e-05,-0.000102446,0.321982,-0.02041464108610591,0.5766557658900124,-5.2017947019700195e-05,0.27202612089258893,-0.0001024407525876958,-0.19481482744715117
913,0.9036,154.627,466.633,0.000236529,268.615,-0.173619,-0.300745,-0.0206457,0.240834,-0.216885,0.455728,-5.21135e-05,-0.000102631,0.322284,-0.02043403668419541,0.577321255031551,-5.211214211520154e-05,0.27230981434819257,-0.00010262573361907723,-0.194977458425725
914,0.9046,154.665,466.75,0.000235978,268.682,-0.173898,-0.301228,-0.0206654,0.241056,-0.217087,0.456149,-5.22077e-05,-0.000102816,0.322587,-0.020453333943594054,0.5779854470825359,-5.2206337201710085e-05,0.2725922984815565,-0.00010281071461626379,-0.19514005655615896
915,0.9056,154.704,466.867,0.000235427,268.749,-0.174176,-0.301712,-0.0206851,0.241279,-0.217289,0.45657,-5.23021e-05,-0.000103001,0.322889,-0.020472630822840454,0.5786499188172434,-5.2300732269028316e-05,0.2728761182088413,-0.00010299569557914445,-0.19530262184508762
916,0.9066,154.742,466.984,0.000234876,268.816,-0.174455,-0.302195,-0.0207048,0.241501,-0.217491,0.456991,-5.23965e-05,-0.000103187,0.323192,-0.02049192732194216,0.5793146703534453,-5.239512732735374e-05,0.27315872807561825,-0.00010318167640466225,-0.19546515429914435
917,0.9076,154.78,467.101,0.000234325,268.882,-0.174735,-0.30268,-0.0207245,0.241723,-0.217692,0.457412,-5.24911e-05,-0.000103373,0.323494,-0.0205112234409065,0.579979701808963,-5.248972236626681e-05,0.2734414006887502,-0.00010336765719554109,-0.195626849552213
918,0.9086,154.818,467.217,0.000233774,268.949,-0.175014,-0.303165,-0.0207442,0.241945,-0.217894,0.457832,-5.25857e-05,-0.000103559,0.323796,-0.020530519179741136,0.5806434326574441,-5.25843173962981e-05,0.2737241360621683,-0.00010355363795189199,-0.1957893165188873
919,0.9096,154.856,467.334,0.000233223,269.016,-0.175294,-0.30365,-0.0207638,0.242167,-0.218096,0.458253,-5.26805e-05,-0.000103745,0.324098,-0.020549716593429856,0.5813090236396639,-5.2679112406806006e-05,0.27400693420980704,-0.00010373961867360393,-0.19595175067054893
920,0.9106,154.894,467.451,0.000232672,269.082,-0.175574,-0.304136,-0.0207835,0.242389,-0.218297,0.458673,-5.27754e-05,-0.000103932,0.3244,-0.020569011573956852,0.5819733129205764,-5.2774007403111334e-05,0.2742897951456038,-0.00010392659925684278,-0.19611334812757564
921,0.9116,154.932,467.567,0.000232121,269.149,-0.175855,-0.304623,-0.0208032,0.242611,-0.218499,0.459094,-5.28704e-05,-0.000104118,0.324702,-0.020588306174376347,0.5826394639002581,-5.2869002384992037e-05,0.274572718883499,-0.00010411257990916578,-0.1962757168314626
922,0.9126,154.97,467.683,0.00023157,269.215,-0.176136,-0.30511,-0.0208228,0.242833,-0.2187,0.459514,-5.29655e-05,-0.000104305,0.325004,-0.020607502455451177,0.5833043120834414,-5.296409735267016e-05,0.27485570543743654,-0.0001042995604225716,-0.1964372491778349
923,0.9136,155.008,467.799,0.000231019,269.281,-0.176417,-0.305597,-0.0208425,0.243055,-0.218901,0.459934,-5.30607e-05,-0.000104492,0.325306,-0.020626796297607886,0.5839694395615094,-5.3059292305923655e-05,0.27513875482136263,-0.00010448654090111642,-0.19659874905946828
924,0.9146,155.046,467.915,0.000230468,269.348,-0.176699,-0.306085,-0.0208621,0.243277,-0.219103,0.460353,-5.31561e-05,-0.00010468,0.325607,-0.020645991824283616,0.5846332618177366,-5.315468723954275e-05,0.27542186704922766,-0.0001046745212399669,-0.19676101972226956
925,0.9156,155.084,468.031,0.000229917,269.414,-0.17698,-0.306574,-0.0208818,0.243498,-0.219304,0.460773,-5.32515e-05,-0.000104867,0.325909,-0.020665284908207182,0.5852989475719228,-5.325008216405802e-05,0.2757037664305797,-0.00010486150164834562,-0.1969224545325634
926,0.9166,155.121,468.147,0.000229367,269.48,-0.177262,-0.307063,-0.0209014,0.24372,-0.219505,0.461193,-5.3347e-05,-0.000105055,0.32621,-0.020684479680513568,0.5859649129728475,-5.3345577074148665e-05,0.2759870041049459,-0.00010504948191669694,-0.19708385689772123
927,0.9176,155.159,468.263,0.000228816,269.546,-0.177545,-0.307553,-0.020921,0.243942,-0.219706,0.461612,-5.34427e-05,-0.000105243,0.326511,-0.020703674076606227,0.5866295715076222,-5.3441271964382864e-05,0.27627030466505587,-0.00010523746214974317,-0.19724522682426393
928,0.9186,155.197,468.378,0.000228265,269.612,-0.177828,-0.308043,-0.0209407,0.244163,-0.219907,0.462031,-5.35385e-05,-0.000105431,0.326813,-0.02072296602420054,0.5872945085926751,-5.3537066840081415e-05,0.27655239157184197,-0.0001054254423474843,-0.19740656431871084
929,0.9196,155.235,468.494,0.000227715,269.678,-0.178111,-0.308534,-0.0209603,0.244384,-0.220108,0.46245,-5.36343e-05,-0.000105619,0.327114,-0.020742159665968152,0.5879597243447434,-5.363286170667614e-05,0.27683454082672365,-0.00010561342250980932,-0.1975678693875803
930,0.9206,155.272,468.609,0.000227164,269.744,-0.178394,-0.309025,-0.0209799,0.244606,-0.220309,0.462869,-5.37303e-05,-0.000105808,0.327415,-0.02076135293154413,0.5886252188806127,-5.3728856553303395e-05,0.2771180295608724,-0.00010580240253099671,-0.19772914203738912
931,0.9216,155.31,468.724,0.000226614,269.81,-0.178678,-0.309517,-0.0209995,0.244827,-0.220509,0.463288,-5.38264e-05,-0.000105997,0.327716,-0.020780545820935692,0.5892909923171183,-5.382495138528398e-05,0.2774003038355639,-0.00010599138251643492,-0.1978895801646342
932,0.9226,155.348,468.84,0.000226063,269.876,-0.178962,-0.310009,-0.0210191,0.245048,-0.22071,0.463707,-5.39226e-05,-0.000106186,0.328016,-0.020799738334150386,0.589957044771144,-5.392114620272892e-05,0.27768264049976366,-0.00010618036246623497,-0.1980507881570751
933,0.9236,155.385,468.955,0.000225513,269.941,-0.179246,-0.310502,-0.0210387,0.245269,-0.220911,0.464125,-5.40189e-05,-0.000106375,0.328317,-0.02081893047119543,0.5906217857370413,-5.401744100552719e-05,0.2779650395672617,-0.00010636934238028584,-0.19821196374996575
934,0.9246,155.423,469.07,0.000224962,270.007,-0.17953,-0.310996,-0.0210583,0.24549,-0.221111,0.464544,-5.41154e-05,-0.000106565,0.328617,-0.02083812223207837,0.5912883959103439,-5.411393578813595e-05,0.2782475010518506,-0.00010655932215208885,-0.19837230532252403
935,0.9256,155.46,469.185,0.000224412,270.073,-0.179815,-0.31149,-0.0210779,0.245711,-0.221312,0.464962,-5.42119e-05,-0.000106754,0.328918,-0.020857313616806428,0.5919536934973431,-5.4210430561529854e-05,0.2785300249673257,-0.00010674830199453034,-0.19853341629695886
936,0.9266,155.498,469.299,0.000223861,270.138,-0.180101,-0.311984,-0.0210974,0.245932,-0.221512,0.46538,-5.43086e-05,-0.000106944,0.329218,-0.02087640671303259,0.5926192692368637,-5.430712531473425e-05,0.27881261132748625,-0.00010693828169427988,-0.19869369358543632
937,0.9276,155.535,469.414,0.000223311,270.204,-0.180386,-0.31248,-0.021117,0.246152,-0.221713,0.465798,-5.44053e-05,-0.000107134,0.329519,-0.020895597347392214,0.5932851232451972,-5.440382005850175e-05,0.27909398105151295,-0.00010712826135794717,-0.19885473996732217
938,0.9286,155.572,469.528,0.00022276,270.269,-0.180672,-0.312975,-0.0211366,0.246373,-0.221913,0.466216,-5.45022e-05,-0.000107324,0.329819,-0.020914787605619045,0.593951255638685,-5.450071478207974e-05,0.27937669205974114,-0.00010731824098553222,-0.1990149529974916
939,0.9296,155.61,469.643,0.00022221,270.335,-0.180958,-0.313471,-0.0211561,0.246594,-0.222113,0.466633,-5.45992e-05,-0.000107515,0.330119,-0.020933879581113368,0.5946160719168465,-5.4597709490789015e-05,0.27965946555400656,-0.00010750922046953715,-0.19917513398825915
940,0.9306,155.647,469.757,0.000221659,270.4,-0.181245,-0.313968,-0.0211757,0.246814,-0.222313,0.467051,-5.46962e-05,-0.000107706,0.330419,-0.02095306908901584,0.5952827607631694,-5.4694704190172416e-05,0.2799410216064586,-0.00010770019991701574,-0.19933528294603187
941,0.9316,155.684,469.871,0.000221109,270.465,-0.181531,-0.314465,-0.0211952,0.247035,-0.222513,0.467468,-5.47935e-05,-0.000107897,0.330719,-0.02097216031802851,0.5959481323947511,-5.479199886360142e-05,0.2802239198313361,-0.00010789117932807901,-0.19949539987721576
942,0.9326,155.722,469.985,0.000220558,270.53,-0.181818,-0.314963,-0.0212147,0.247255,-0.222713,0.467885,-5.48908e-05,-0.000108088,0.331018,-0.020991251174765857,0.5966137815441617,-5.488929352759353e-05,0.28050560007739,-0.00010808215870261595,-0.1996554847882156
943,0.9336,155.759,470.099,0.000220008,270.596,-0.182106,-0.315462,-0.0212343,0.247475,-0.222913,0.468303,-5.49882e-05,-0.000108279,0.331318,-0.021010439558196037,0.5972813056076571,-5.49866881766059e-05,0.280787342299915,-0.00010827313804062655,-0.1998155376854347
944,0.9346,155.796,470.213,0.000219457,270.661,-0.182393,-0.31596,-0.0212538,0.247695,-0.223113,0.468719,-5.50857e-05,-0.000108471,0.331617,-0.021029529668495472,0.5979459128595137,-5.508418281063854e-05,0.2810691465125479,-0.00010846511723383578,-0.19997555857527527
945,0.9356,155.833,470.327,0.000218907,270.726,-0.182681,-0.31646,-0.0212733,0.247916,-0.223313,0.469136,-5.51834e-05,-0.000108663,0.331917,-0.021048619406541347,0.5986123952570981,-5.5181877424148595e-05,0.2813522940805808,-0.00010865709639007459,-0.20013554746413809
946,0.9366,155.87,470.441,0.000218356,270.791,-0.18297,-0.31696,-0.0212928,0.248136,-0.223513,0.469553,-5.52811e-05,-0.000108855,0.332216,-0.021067708772340987,0.5992791556357975,-5.5279572028110735e-05,0.28163422259627824,-0.000108849075509454,-0.20029550435842258
947,0.9376,155.907,470.554,0.000217805,270.855,-0.183258,-0.31746,-0.0213123,0.248356,-0.223713,0.469969,-5.5379e-05,-0.000109047,0.332515,-0.02108679776590172,0.5999445941661599,-5.5377466611439274e-05,0.28191621314307214,-0.000109041054591974,-0.2004554292645272
948,0.9386,155.944,470.668,0.000217255,270.92,-0.183547,-0.317961,-0.0213318,0.248576,-0.223912,0.470386,-5.5477e-05,-0.000109239,0.332815,-0.021105886387230544,0.6006119101876477,-5.5475461179677055e-05,0.28219826573461115,-0.00010923303363774561,-0.20061452280377134
949,0.9396,155.981,470.781,0.000216704,270.985,-0.183837,-0.318463,-0.0213513,0.248795,-0.224112,0.470802,-5.55751e-05,-0.000109432,0.333114,-0.021124974636335003,0.6012779032592401,-5.5573555732713054e-05,0.2824790979048073,-0.00010942601253705053,-0.20077438391256686
950,0.9406,156.018,470.895,0.000216153,271.05,-0.184126,-0.318965,-0.0213708,0.249015,-0.224311,0.471218,-5.56733e-05,-0.000109625,0.333413,-0.021144062513222206,0.6019441734415854,-5.567175027054727e-05,0.2827612743446166,-0.000109618991399274,-0.20093341398615117
951,0.9416,156.055,471.008,0.000215603,271.114,-0.184416,-0.319468,-0.0213903,0.249235,-0.224511,0.471634,-5.57716e-05,-0.000109818,0.333711,-0.021163150017899368,0.6026107208499856,-5.577004479317971e-05,0.2830435128700719,-0.00010981197022419398,-0.20109321132308755
952,0.9426,156.092,471.121,0.000215052,271.179,-0.184706,-0.319971,-0.0214098,0.249454,-0.22471,0.47205,-5.587e-05,-0.000110011,0.33401,-0.021182237150373928,0.6032775455997905,-5.586843930061036e-05,0.28332453016966164,-0.00011000494901181046,-0.20125217795632966
953,0.9436,156.129,471.234,0.000214501,271.243,-0.184997,-0.320475,-0.0214292,0.249674,-0.224909,0.472466,-5.59686e-05,-0.000110205,0.334309,-0.02120122603078045,0.6039446478063986,-5.596703378707435e-05,0.28360689262503014,-0.00011019892765207207,-0.20141111295835912
954,0.9446,156.166,471.347,0.00021395,271.308,-0.185288,-0.320979,-0.0214487,0.249894,-0.225109,0.472881,-5.60672e-05,-0.000110399,0.334607,-0.02122031242077993,0.6046104229740301,-5.60656282638794e-05,0.2838893172069725,-0.00011039290625469711,-0.20157081476505445
955,0.9456,156.203,471.459,0.0002134,271.372,-0.185579,-0.321484,-0.0214682,0.250113,-0.225308,0.473296,-5.6166e-05,-0.000110593,0.334906,-0.021239398438598456,0.605276474495696,-5.616442271971778e-05,0.28417051975799623,-0.00011058688481957457,-0.20172968636466782
956,0.9466,156.239,471.572,0.000212849,271.437,-0.18587,-0.321989,-0.0214876,0.250332,-0.225507,0.473712,-5.62649e-05,-0.000110787,0.335204,-0.0212583862100868,0.6059444084297119,-5.6263317160243353e-05,0.2844517838991225,-0.0001107808633469265,-0.2018885263519783
957,0.9476,156.276,471.685,0.000212298,271.501,-0.186162,-0.322495,-0.021507,0.250551,-0.225706,0.474127,-5.63639e-05,-0.000110981,0.335502,-0.02127737361321591,0.6066110136702305,-5.636231158523408e-05,0.28473310964384124,-0.00011097484183664186,-0.20204733473327618
958,0.9486,156.313,471.797,0.000211747,271.565,-0.186454,-0.323002,-0.0215265,0.250771,-0.225905,0.474542,-5.6463e-05,-0.000111176,0.3358,-0.021296458518352046,0.607277895609335,-5.6461405994800984e-05,0.28501578202078415,-0.00011116982017755905,-0.20220611151485057
959,0.9496,156.349,471.909,0.000211196,271.629,-0.186746,-0.323509,-0.0215459,0.25099,-0.226104,0.474957,-5.65622e-05,-0.000111371,0.336098,-0.02131544518288553,0.6079450543618787,-5.656060038894406e-05,0.28529723129461737,-0.0001113647984803956,-0.20236485670298898
960,0.9506,156.386,472.022,0.000210645,271.694,-0.187039,-0.324016,-0.0215653,0.251209,-0.226302,0.475371,-5.66615e-05,-0.000111566,0.336396,-0.021334431479081317,0.6086108814310778,-5.665989476755229e-05,0.2855787422125913,-0.00011155977674526252,-0.2025227728271496
961,0.9516,156.423,472.134,0.000210093,271.758,-0.187332,-0.324525,-0.0215848,0.251428,-0.226501,0.475786,-5.67609e-05,-0.000111761,0.336694,-0.0213535152715999,0.6092785934875404,-5.675928913062567e-05,0.2858603147882075,-0.00011175475497204879,-0.20268145500595658
962,0.9526,156.459,472.246,0.000209542,271.822,-0.187626,-0.325033,-0.0216042,0.251647,-0.2267,0.4762,-5.68605e-05,-0.000111957,0.336992,-0.021372500829243135,0.6099449727562349,-5.685888347239931e-05,0.28614194903497037,-0.00011195073304892666,-0.20284010561015176
963,0.9536,156.496,472.358,0.000208991,271.886,-0.187919,-0.325542,-0.0216236,0.251865,-0.226898,0.476614,-5.69602e-05,-0.000112152,0.33729,-0.021391486018570105,0.610611627963062,-5.695857779863811e-05,0.28642235854338605,-0.00011214571119955163,-0.20299792764434388
964,0.9546,156.532,472.47,0.00020844,271.949,-0.188213,-0.326052,-0.021643,0.252084,-0.227097,0.477028,-5.706e-05,-0.000112348,0.337587,-0.021410470839587914,0.6112785592222836,-5.7058372109120015e-05,0.2867041158912105,-0.00011234168919982412,-0.20315651527674994
965,0.9556,156.569,472.581,0.000207888,272.013,-0.188507,-0.326563,-0.0216624,0.252303,-0.227295,0.477442,-5.71599e-05,-0.000112545,0.337885,-0.02142945529230389,0.6119457666482091,-5.715826640406707e-05,0.28698593495065117,-0.000112538667049078,-0.20331427466802998
966,0.9566,156.605,472.693,0.000207337,272.077,-0.188802,-0.327073,-0.0216818,0.252521,-0.227494,0.477856,-5.72599e-05,-0.000112741,0.338182,-0.021448439376725026,0.6126132503551951,-5.7258260683257234e-05,0.2872665284680527,-0.00011273464497230101,-0.2034727993536417
967,0.9576,156.641,472.804,0.000206785,272.141,-0.189097,-0.327585,-0.0217011,0.25274,-0.227692,0.47827,-5.736e-05,-0.000112938,0.338479,-0.021467325239595825,0.6132810104576458,-5.7358354946690504e-05,0.28754847070933565,-0.00011293162274417234,-0.2036304961268739
968,0.9586,156.678,472.916,0.000206233,272.204,-0.189392,-0.328097,-0.0217205,0.252958,-0.22789,0.478684,-5.74602e-05,-0.000113134,0.338776,-0.02148630858934708,0.6139490470700124,-5.745854919436688e-05,0.2878291868729004,-0.00011312760059034588,-0.20378816167923597
969,0.9596,156.714,473.027,0.000205682,272.268,-0.189688,-0.328609,-0.0217399,0.253177,-0.228089,0.479097,-5.75606e-05,-0.000113331,0.339073,-0.021505291570824925,0.614615745690241,-5.755894342041046e-05,0.2881112523498679,-0.00011332457828483466,-0.20394659207071508
970,0.9606,156.75,473.138,0.00020513,272.332,-0.189984,-0.329122,-0.0217593,0.253395,-0.228287,0.47951,-5.7661e-05,-0.000113529,0.33937,-0.021524274184036574,0.6152827197138664,-5.765933763646203e-05,0.2883920912132041,-0.00011352255582697257,-0.20410419504227595
971,0.9616,156.787,473.25,0.000204578,272.395,-0.19028,-0.329636,-0.0217786,0.253613,-0.228485,0.479923,-5.77616e-05,-0.000113726,0.339667,-0.021543158583309796,0.6159499692546542,-5.7759931830880795e-05,0.28867299130608637,-0.00011371953344363472,-0.20426176681153763
972,0.9626,156.823,473.361,0.000204026,272.458,-0.190576,-0.33015,-0.021798,0.253831,-0.228683,0.480336,-5.78623e-05,-0.000113924,0.339964,-0.021562140461908408,0.616617494426416,-5.786062600943165e-05,0.28895395264186385,-0.0001139175109075019,-0.2044193073846775
973,0.9636,156.859,473.471,0.000203474,272.522,-0.190873,-0.330665,-0.0218173,0.254049,-0.228881,0.480749,-5.79631e-05,-0.000114122,0.34026,-0.021581024130369553,0.6172852953430112,-5.7961420172003564e-05,0.2892349752338894,-0.00011411548833228924,-0.20457681676787187
974,0.9646,156.895,473.582,0.000202922,272.585,-0.19117,-0.33118,-0.0218366,0.254267,-0.229079,0.481162,-5.8064e-05,-0.00011432,0.340557,-0.02159990743437934,0.6179533721183459,-5.806231431859654e-05,0.28951605909551814,-0.00011431346571777468,-0.20473429496729556
975,0.9656,156.931,473.693,0.00020237,272.648,-0.191468,-0.331696,-0.021856,0.254485,-0.229277,0.481574,-5.81651e-05,-0.000114518,0.340853,-0.021618888212060927,0.6186201062454577,-5.8163408443334674e-05,0.28979720424010824,-0.00011451144306418026,-0.20489174198912252
976,0.9666,156.967,473.804,0.000201817,272.712,-0.191765,-0.332212,-0.0218753,0.254703,-0.229474,0.481987,-5.82662e-05,-0.000114717,0.34115,-0.021637770785301047,0.6192887344115494,-5.826450255796978e-05,0.290078410681021,-0.00011471042025656963,-0.20504836288828554
977,0.9676,157.003,473.914,0.000201265,272.775,-0.192064,-0.332729,-0.0218946,0.254921,-0.229672,0.482399,-5.83675e-05,-0.000114916,0.341446,-0.021656652994111014,0.6199560188212765,-5.836579665063901e-05,0.29035967843162047,-0.00011490939740943507,-0.20520574773082012
978,0.9686,157.04,474.025,0.000200712,272.838,-0.192362,-0.333247,-0.0219139,0.255139,-0.22987,0.482811,-5.84689e-05,-0.000115115,0.341742,-0.021675534838497823,0.6206235782088216,-5.846719072721829e-05,0.29064100750527344,-0.00011510837452266554,-0.20536310141424063
979,0.9696,157.075,474.135,0.000200159,272.901,-0.192661,-0.333765,-0.0219333,0.255356,-0.230067,0.483223,-5.85704e-05,-0.000115314,0.342038,-0.021694514149022015,0.6212914126874998,-5.856868478759658e-05,0.2909211069935975,-0.00011530735159626104,-0.2055196294647429
980,0.9706,157.111,474.245,0.000199607,272.964,-0.19296,-0.334283,-0.0219526,0.255574,-0.230265,0.483635,-5.8672e-05,-0.000115514,0.342334,-0.021713395262695667,0.6219595223706709,-5.8670278831884914e-05,0.2912025584720186,-0.00011550732851484113,-0.20567692100573243
981,0.9716,157.147,474.355,0.000199054,273.027,-0.193259,-0.334803,-0.0219719,0.255791,-0.230462,0.484047,-5.87737e-05,-0.000115713,0.34263,-0.021732276011967255,0.6226279073717433,-5.8771972859972266e-05,0.2914827798301247,-0.0001157063055090557,-0.20583338723986422
982,0.9726,157.183,474.465,0.000198501,273.09,-0.193559,-0.335322,-0.0219911,0.256009,-0.230659,0.484459,-5.88755e-05,-0.000115913,0.342926,-0.021751058571954696,0.6232965678041711,-5.887376687174761e-05,0.2917643537665715,-0.00011590628234781075,-0.20598982265318377
983,0.9736,157.219,474.575,0.000197948,273.152,-0.193859,-0.335843,-0.0220104,0.256226,-0.230857,0.48487,-5.89775e-05,-0.000116113,0.343221,-0.021769938594331406,0.6239638798167637,-5.897576086144607e-05,0.2920446970474848,-0.00011610625914648676,-0.20614702110513816
984,0.9746,157.255,474.685,0.000197394,273.215,-0.194159,-0.336363,-0.0220297,0.256443,-0.231054,0.485281,-5.90796e-05,-0.000116314,0.343517,-0.021788818252327258,0.6246314661509627,-5.907785483483252e-05,0.29232510116949095,-0.0001163072357889261,-0.20630339473867187
985,0.9756,157.291,474.795,0.000196841,273.278,-0.19446,-0.336885,-0.022049,0.256661,-0.231251,0.485693,-5.91817e-05,-0.000116514,0.343812,-0.021807697545949245,0.6253009522196769,-5.917994879778288e-05,0.29260685875200654,-0.00011650721250755502,-0.20645973756963387
986,0.9766,157.327,474.905,0.000196288,273.34,-0.194761,-0.337407,-0.0220682,0.256878,-0.231448,0.486104,-5.9284e-05,-0.000116715,0.344108,-0.02182647865785714,0.6259690882035787,-5.92822427384343e-05,0.29288738487633936,-0.00011670818906939218,-0.20661604960409174
987,0.9776,157.362,475.014,0.000195734,273.403,-0.195062,-0.337929,-0.0220875,0.257095,-0.231645,0.486514,-5.93865e-05,-0.000116916,0.344403,-0.021845357224640205,0.6266358722111232,-5.938473665667576e-05,0.2931679718814466,-0.00011690916559081721,-0.20677233084811175
988,0.9786,157.398,475.124,0.00019518,273.465,-0.195364,-0.338452,-0.0221068,0.257312,-0.231842,0.486925,-5.9489e-05,-0.000117118,0.344698,-0.02186423542707061,0.627304556959905,-5.948723056448113e-05,0.2934486197805406,-0.00011711114195478434,-0.20692858130775904
989,0.9796,157.434,475.233,0.000194626,273.528,-0.195665,-0.338976,-0.022126,0.257529,-0.232039,0.487336,-5.95916e-05,-0.000117319,0.344993,-0.021883015453461607,0.6279735165946037,-5.958982445586347e-05,0.293729328586837,-0.00011731211839527411,-0.20708480098909754
990,0.9806,157.469,475.342,0.000194072,273.59,-0.195968,-0.3395,-0.0221453,0.257746,-0.232236,0.487746,-5.96944e-05,-0.000117521,0.345288,-0.021901892929095057,0.6286411225862836,-5.969261832472483e-05,0.29401009831355385,-0.00011751409467775087,-0.20724098989819006
991,0.9816,157.505,475.451,0.000193518,273.653,-0.19627,-0.340024,-0.0221645,0.257962,-0.232433,0.488157,-5.97973e-05,-0.000117723,0.345583,-0.021920672232468963,0.6293106316623571,-5.9795512177052146e-05,0.2942896346836308,-0.00011771607091959346,-0.207397148041098
992,0.9826,157.54,475.56,0.000192964,273.715,-0.196573,-0.34055,-0.0221837,0.258179,-0.232629,0.488567,-5.99003e-05,-0.000117925,0.345878,-0.02193945117528362,0.6299787859836148,-5.989850601284541e-05,0.2945705260099638,-0.00011791804712046883,-0.207552482976761
993,0.9836,157.576,475.669,0.000192409,273.777,-0.196876,-0.341075,-0.0222029,0.258396,-0.232826,0.488977,-6.00034e-05,-0.000118127,0.346173,-0.021958229757546133,0.6306472143043103,-6.00015998319936e-05,0.2948514782963285,-0.00011812002328059901,-0.20770857976157642
994,0.9846,157.612,475.778,0.000191855,273.839,-0.19718,-0.341602,-0.0222222,0.258612,-0.233022,0.489387,-6.01066e-05,-0.00011833,0.346467,-0.021977105781557538,0.6313159167368063,-6.010479363449672e-05,0.2951311964241108,-0.00011832299928171697,-0.20786385366260374
995,0.9856,157.647,475.887,0.0001913,273.901,-0.197484,-0.342129,-0.0222414,0.258829,-0.233219,0.489797,-6.02099e-05,-0.000118533,0.346762,-0.021995883640858582,0.6319848933935119,-6.020808742035477e-05,0.2954122703891571,-0.00011852597524153463,-0.20801988911343572
996,0.9866,157.682,475.996,0.000190745,273.964,-0.197788,-0.342656,-0.0222606,0.259045,-0.233415,0.490206,-6.03134e-05,-0.000118736,0.347056,-0.022014661139628133,0.6326525117335537,-6.03115811834698e-05,0.2956921096611145,-0.00011872895116016302,-0.2081751020038093
997,0.9876,157.718,476.104,0.00019019,274.026,-0.198092,-0.343184,-0.0222798,0.259261,-0.233612,0.490616,-6.0417e-05,-0.000118939,0.34735,-0.022033438277873074,0.6333220365065639,-6.041517492982873e-05,0.2959720093848832,-0.00011893192703760214,-0.2083310761447572
998,0.9886,157.753,476.213,0.000189635,274.088,-0.198397,-0.343713,-0.022299,0.259478,-0.233808,0.491025,-6.05207e-05,-0.000119143,0.347644,-0.02205221505560051,0.6339902018499937,-6.051886865943157e-05,0.29625326582613987,-0.00011913590275458574,-0.20848622804844963
999,0.9896,157.789,476.321,0.00018908,274.149,-0.198702,-0.344242,-0.0223182,0.259694,-0.234004,0.491435,-6.06245e-05,-0.000119346,0.347938,-0.022070991472817325,0.6346602751883998,-6.062266237216729e-05,0.29653328677273194,-0.00011933887854942427,-0.20864134954534885
