,Time,S11,S22,S33,S12,S13,S23,LE11,LE22,LE33,LE12,LE13,LE23,SDV_EPBAR,E11,E12,E13,E22,E23,E33
0,1e-05,0.0503842,0.701761,-5.55112e-17,0.188036,5.91718e-18,-1.5855e-18,-2.12914e-06,9.12912e-06,-3e-06,6.49996e-06,4.09083e-22,-1.09613e-22,0.0,-2.1291377333421124e-06,6.499981124896692e-06,0.0,9.129161670617947e-06,0.0,-2.9999955000192813e-06
1,2e-05,0.100768,1.40352,5.55112e-17,0.376071,4.54407e-18,5.12435e-18,-4.25827e-06,1.82581e-05,-5.99996e-06,1.29999e-05,-4.09088e-22,1.09609e-22,0.0,-4.258260933531766e-06,1.2999984499106887e-05,0.0,1.8258266680115653e-05,0.0,-5.9999420002343484e-06
2,3.5e-05,0.176342,2.45613,-2.22045e-16,0.658119,1.47929e-17,-3.96383e-18,-7.45192e-06,3.19515e-05,-1.04998e-05,2.27496e-05,-8.18177e-22,2.1923e-22,0.0,-7.451892234500157e-06,2.2749858774151477e-05,0.0,3.19520104545834e-05,0.0,-1.0499744877323636e-05
3,5.75e-05,0.289702,4.03503,-1.66533e-15,1.08118,-4.54407e-18,-5.12433e-18,-1.22423e-05,5.24912e-05,-1.72495e-05,3.73739e-05,4.09671e-27,1.52891e-26,0.0,-1.2242225063352485e-05,3.737459841279822e-05,0.0,5.249257768724647e-05,0.0,-1.7249351228265652e-05
4,9.125e-05,0.459737,6.40331,-1.03251e-14,1.71576,2.31447e-17,5.08741e-17,-1.94277e-05,8.32998e-05,-2.73738e-05,5.93098e-05,-1.19797e-21,2.07464e-21,0.0,-1.9427511283476306e-05,5.931155886096384e-05,0.0,8.330326952465938e-05,0.0,-2.737342534098186e-05
5,0.00014188,0.714778,9.95558,-5.65104e-14,2.66759,1.68022e-17,2.72034e-17,-3.02053e-05,0.000129511,-4.25596e-05,9.22122e-05,-6.54569e-21,1.75371e-21,0.0,-3.0204843824543914e-05,9.221645167567516e-05,0.0,0.0001295193869115252,0.0,-4.255869435310089e-05
6,0.00021781,1.09732,15.2836,-2.89213e-13,4.09524,4.04701e-17,2.08585e-17,-4.63708e-05,0.000198823,-6.53367e-05,0.000141563,-6.54586e-21,1.75365e-21,0.0,-4.636972489102664e-05,0.00014157302051431842,0.0,0.0001988427666026471,0.0,-6.533456560431361e-05
7,0.00033172,1.67107,23.275,-1.46161e-12,6.23651,4.04689e-17,2.08541e-17,-7.06166e-05,0.000302781,-9.94992e-05,0.000215581,-1.18154e-25,-4.40956e-25,0.0,-7.061410670661239e-05,0.00021560423925381933,0.0,0.00030282684279359096,0.0,-9.949425011879232e-05
8,0.00050258,2.53157,35.2603,-7.40263e-12,9.44797,-1.86926e-16,-7.03971e-17,-0.00010698,0.000458697,-0.000150736,0.000326594,-3.5075e-21,-1.30902e-20,0.0,-0.00010697427784389646,0.00032664733762688414,0.0,0.00045880221755600914,0.0,-0.00015072463989995732
9,0.00075887,3.82206,53.2344,-3.7447e-11,14.2641,7.17488e-17,-2.41107e-16,-0.000161514,0.00069252,-0.000227574,0.000493077,6.07869e-21,-2.96888e-20,0.0,-0.00016150095731615188,0.0004931985824463414,0.0,0.0006927598473382979,0.0,-0.0002275481070015406
10,0.0011433,5.75716,80.187,-1.89379e-10,21.486,-2.28983e-17,-2.15636e-16,-0.000243289,0.00104314,-0.000342794,0.000742721,-7.01486e-21,-2.61798e-20,0.0,-0.00024325940763114673,0.0007429968855396929,0.0,0.0010436842597596474,0.0,-0.00034273525284966855
11,0.00172,8.65843,120.596,-9.57348e-10,32.3137,2.67889e-16,1.12199e-16,-0.000365891,0.00156882,-0.000515542,0.00111701,-1.57173e-19,4.21003e-20,0.0,-0.0003658240700513682,0.001117634088019237,0.0,0.0015700512418777013,0.0,-0.0005154091310572984
12,0.0025849,13.0072,181.167,-4.83556e-09,48.5435,1.66479e-16,-2.66268e-16,-0.000549663,0.00235678,-0.000774477,0.00167803,-1.4035e-20,-5.23794e-20,0.0,-0.0005495119629675971,0.0016794386801661787,0.0,0.002359559389024879,0.0,-0.0007741771700969791
13,0.0035849,18.0301,251.128,-1.06427e-08,67.2894,6.19928e-16,-1.60357e-15,-0.000761925,0.00326689,-0.00107356,0.00232604,-1.18826e-19,-2.41116e-20,0.0,-0.0007616348088531621,0.002328747329752856,0.0,0.0032722321009039934,0.0,-0.001072983940626382
14,0.0045849,18.9052,268.257,-0.133741,71.4442,-0.0338705,-0.089388,-0.00102672,0.0041672,-0.0016141,0.0030207,-1.44259e-06,-3.26122e-06,0.000655043,-0.0010261931033613836,0.0030252669115105046,-1.442588959510438e-06,0.004175894851452977,-3.261214682193092e-06,-0.001612798041186414
15,0.0055849,19.0878,271.151,-0.114088,72.13,-0.0397228,-0.11665,-0.00129757,0.00505981,-0.00221949,0.00374179,-2.09007e-06,-4.41973e-06,0.00148433,-0.0012967285200465861,0.0037487992358382627,-2.0900678158186636e-06,0.005072632455892956,-4.419720233017621e-06,-0.002217028753310868
16,0.0065849,19.3564,274.108,0.0454024,72.7679,-0.0171239,-0.118115,-0.00156835,0.00595215,-0.00282316,0.0044599,-1.63476e-06,-4.70094e-06,0.00231315,-0.0015671207818375166,0.00446986015559947,-1.634758663771052e-06,0.005969899242722176,-4.7009289505517415e-06,-0.002819178631368713
17,0.0075849,19.4502,276.725,-0.0425987,73.4405,-0.042455,-0.165198,-0.00183966,0.00684298,-0.00342883,0.00517981,-2.9489e-06,-6.79206e-06,0.00314312,-0.0018379688627403468,0.005193248408600137,-2.948895651999628e-06,0.006866446684453242,-6.7920369339891096e-06,-0.003422958275381194
18,0.0085849,19.6712,279.469,0.0549568,74.055,-0.030845,-0.176739,-0.00211062,0.00773366,-0.00403237,0.00589631,-2.92129e-06,-7.71256e-06,0.00397229,-0.0021083942078170548,0.005913727451879458,-2.921285732981893e-06,0.007763641988830061,-7.712530258330297e-06,-0.004024250912812222
19,0.0095849,19.7596,281.952,-0.0269506,74.6928,-0.0549655,-0.220516,-0.00238199,0.00862301,-0.0046372,0.00661391,-4.23432e-06,-9.95753e-06,0.00480222,-0.002379155312998704,0.006635830202178505,-4.234311035244964e-06,0.0086602952440189,-9.957480423983256e-06,-0.004626464788265006
20,0.010585,19.958,284.54,0.0482637,75.2799,-0.0469311,-0.234478,-0.00265301,0.00951211,-0.00524015,0.00732847,-4.38936e-06,-1.12369e-05,0.00563138,-0.0026494938790919687,0.007355388954341624,-4.389350366729161e-06,0.00955749390308136,-1.123683686632404e-05,-0.005226444364301419
21,0.011585,20.05,286.914,-0.0180516,75.8843,-0.0676447,-0.273561,-0.00292436,0.0104,-0.00584402,0.00804372,-5.62665e-06,-1.3567e-05,0.00646105,-0.0029200882243797244,0.008076157630461323,-5.626634170474709e-06,0.010454267965789965,-1.356690796872062e-05,-0.005826976931293415
22,0.012585,20.2301,289.367,0.0409934,76.4464,-0.0623314,-0.288898,-0.00319539,0.0112875,-0.00644628,0.00875634,-5.9315e-06,-1.51441e-05,0.00729001,-0.0031902901747968837,0.008794788887003246,-5.931482408683131e-06,0.011351444191671112,-1.5143985328647247e-05,-0.006425547310575874
23,0.013585,20.3259,291.645,-0.0109629,77.0206,-0.0797834,-0.32377,-0.00346666,0.0121739,-0.00704914,0.00946932,-7.09588e-06,-1.75545e-05,0.00811927,-0.003460658071773537,0.009514295862145916,-7.095854824279435e-06,0.012248303541144034,-1.755434592065619e-05,-0.007024353088962543
24,0.014585,20.4902,293.977,0.0347034,77.56,-0.0767868,-0.340111,-0.00373767,0.0130598,-0.00765064,0.01018,-7.53202e-06,-1.93938e-05,0.00894788,-0.003730693606011637,0.010231992478037633,-7.531991634390778e-06,0.013145451646329409,-1.9393611941476152e-05,-0.007621448346178394
25,0.015585,20.589,296.167,-0.0051523,78.1071,-0.0914142,-0.371378,-0.00400884,0.0139447,-0.00825248,0.0108908,-8.63644e-06,-2.18865e-05,0.00977662,-0.004000815327717566,0.010950320641876843,-8.636402706097002e-06,0.014042380844286662,-2.1886260492265386e-05,-0.00821852176435045
26,0.016585,20.7397,298.391,0.0295074,78.6256,-0.0903324,-0.388429,-0.00427978,0.0148291,-0.00885317,0.0115996,-9.18563e-06,-2.39579e-05,0.0106048,-0.0042706347927192745,0.01166713623858473,-9.185587812265972e-06,0.014939596616238893,-2.395761301177135e-05,-0.008814096084834189
27,0.017585,20.8404,300.501,-0.000446912,79.1483,-0.1026,-0.416657,-0.00455083,0.0157125,-0.00945399,0.0123082,-1.02444e-05,-2.6536e-05,0.0114329,-0.0045404906632896536,0.012384257617421346,-1.024434752627812e-05,0.01583659039970975,-2.6535647923431327e-05,-0.009409441533988927
28,0.018585,20.9795,302.628,0.0253227,79.6476,-0.103046,-0.434144,-0.00482168,0.0165953,-0.0100538,0.0130152,-1.08895e-05,-2.88125e-05,0.0122604,-0.004810074361373151,0.013100266366825153,-1.0889440709593856e-05,0.016733766897153668,-2.8812084923890424e-05,-0.010003429499093386
29,0.019585,21.0811,304.662,0.00318357,80.1482,-0.113396,-0.459814,-0.00509258,0.0174772,-0.0106536,0.0137217,-1.1916e-05,-3.14781e-05,0.0130879,-0.005079634798618948,0.013816274605141121,-1.1915929004735482e-05,0.01763081990356352,-3.14776045697851e-05,-0.010597051397075896
30,0.020585,21.2104,306.702,0.0220389,80.6298,-0.115004,-0.477507,-0.00536331,0.0183584,-0.0112525,0.0144268,-1.26406e-05,-3.39369e-05,0.0139147,-0.005348953131168788,0.014531368537104239,-1.2640520107964903e-05,0.018527951400146847,-3.39363241499413e-05,-0.011189427418288433
31,0.021585,21.312,308.666,0.00597054,81.1104,-0.123824,-0.501055,-0.00563405,0.0192387,-0.0118513,0.0151314,-1.36465e-05,-3.66924e-05,0.0147414,-0.005618208504853395,0.015246459236244014,-1.3646406886946849e-05,0.019424956314551434,-3.669172684217514e-05,-0.011781349949857689
32,0.022585,21.4332,310.627,0.0195132,81.5754,-0.126288,-0.518747,-0.00590464,0.0201184,-0.0124493,0.0158346,-1.4437e-05,-3.93127e-05,0.0155675,-0.0058872418733030285,0.015960631619959864,-1.4436895787062198e-05,0.02032213901657398,-3.9311927265917035e-05,-0.012372128042332675
33,0.023585,21.5341,312.526,0.00804365,82.0378,-0.133904,-0.540531,-0.00617519,0.0209971,-0.013047,0.0165372,-1.5432e-05,-4.21592e-05,0.0163933,-0.006156162700108991,0.016674696381312026,-1.5431880927341268e-05,0.02121909009787304,-4.215831131337833e-05,-0.012962256843841002
34,0.024585,21.6484,314.415,0.0176021,82.4873,-0.136971,-0.55806,-0.00644561,0.0218752,-0.0136441,0.0172385,-1.62767e-05,-4.49235e-05,0.0172186,-0.006424881615469502,0.017387940415672487,-1.6276567535222775e-05,0.02211621640654915,-4.4922490954668604e-05,-0.013551441161796407
35,0.025585,21.7479,316.252,0.00954458,82.9332,-0.143648,-0.578374,-0.00671597,0.0227525,-0.0142408,0.0179392,-1.72686e-05,-4.78607e-05,0.0180436,-0.006693468275295267,0.018101073962682124,-1.7268450898555443e-05,0.023013312416829468,-4.785955469499559e-05,-0.014139879438835656
36,0.026585,21.8564,318.076,0.016176,83.3681,-0.147117,-0.595621,-0.00698619,0.023629,-0.0148368,0.0186388,-1.81581e-05,-5.07543e-05,0.018868,-0.006961843304514659,0.018813586681914574,-1.815793514270414e-05,0.023910376666139266,-5.075301202228655e-05,-0.014727277008826478
37,0.027585,21.9543,319.856,0.0105998,83.7987,-0.153068,-0.614701,-0.00725634,0.0245047,-0.0154325,0.0193376,-1.91526e-05,-5.37812e-05,0.019692,-0.007230076329338808,0.019525782428500005,-1.9152416590118015e-05,0.024807407690695893,-5.377975381715139e-05,-0.015314029188424505
38,0.028585,22.0578,321.619,0.0151224,84.22,-0.156784,-0.63158,-0.00752636,0.0253796,-0.0160275,0.0200354,-2.00794e-05,-5.67916e-05,0.0205155,-0.007498107875560822,0.020237455793437942,-2.0079198410183352e-05,0.025704404025513883,-5.6789987387562135e-05,-0.015899743073896633
39,0.029585,22.1537,323.345,0.0113167,84.6365,-0.162173,-0.649616,-0.00779629,0.0262538,-0.0166221,0.0207323,-2.10807e-05,-5.99063e-05,0.0213385,-0.007765977756616915,0.020948707083106255,-2.1080477803581132e-05,0.026601466864550005,-5.990450565340755e-05,-0.016484715157229823
40,0.030585,22.253,325.052,0.0143478,85.045,-0.166022,-0.666071,-0.00806609,0.0271272,-0.0172162,0.0214283,-2.2039e-05,-6.3023e-05,0.0221611,-0.00803364638569648,0.02165953472255988,-2.203875714301695e-05,0.0274984922596766,-6.302101409250138e-05,-0.01706884805409692
41,0.031585,22.3466,326.727,0.0117825,85.4485,-0.170973,-0.683211,-0.00833579,0.0279998,-0.0178097,0.0221235,-2.30501e-05,-6.62228e-05,0.0229831,-0.00830114363764034,0.02237003937390014,-2.3049834348531917e-05,0.028395478742308633,-6.622060731875656e-05,-0.017652044612079365
42,0.032585,22.4422,328.383,0.0137773,85.8449,-0.174872,-0.699208,-0.00860535,0.0288716,-0.0184027,0.0228177,-2.40352e-05,-6.94369e-05,0.0238046,-0.008568429954893153,0.02308001505928159,-2.403491115687828e-05,0.02929242484267225,-6.943448931429064e-05,-0.018234404262922332
43,0.033585,22.5336,330.011,0.0120661,86.2363,-0.179479,-0.71557,-0.0088748,0.0297427,-0.0189953,0.0235111,-2.50581e-05,-7.27188e-05,0.0246256,-0.008835535204070988,0.02378966474883759,-2.5057786048443553e-05,0.030189432108745473,-7.271615605219939e-05,-0.01881602620335432
44,0.034585,22.6259,331.618,0.0133527,86.6214,-0.18337,-0.731093,-0.00914412,0.0306129,-0.0195872,0.0242035,-2.60664e-05,-7.60228e-05,0.025446,-0.009102439674760543,0.024498782180834455,-2.6066060274332337e-05,0.031086293120197173,-7.601991034011935e-05,-0.019396617154601947
45,0.035585,22.715,333.201,0.01222,87.0015,-0.187702,-0.746768,-0.00941332,0.0314824,-0.0201787,0.0248952,-2.71021e-05,-7.93835e-05,0.0262659,-0.009369153396722396,0.025207673130139607,-2.7101732741452444e-05,0.0319832125312709,-7.938034921328718e-05,-0.019976472546416546
46,0.036585,22.8043,334.764,0.0130306,87.3759,-0.191547,-0.761814,-0.00968238,0.0323511,-0.0207696,0.0255859,-2.81309e-05,-8.27709e-05,0.0270853,-0.009635656678015359,0.025916028672396063,-2.8130504329926254e-05,0.03288008584852076,-8.276747458357825e-05,-0.02055539738859935
47,0.037585,22.8913,336.304,0.0122834,87.7454,-0.195654,-0.776875,-0.00995131,0.0332191,-0.02136,0.0262758,-2.918e-05,-8.62069e-05,0.0279041,-0.009901959550844164,0.02662405234526055,-2.917957426795681e-05,0.03377701497396379,-8.620318429197749e-05,-0.021133490812010214
48,0.038585,22.9779,337.824,0.0127788,88.1096,-0.199427,-0.79145,-0.0102201,0.0340863,-0.0219499,0.0269648,-3.02272e-05,-8.96719e-05,0.0287224,-0.010168052240007386,0.027331640053299466,-3.0226743162775627e-05,0.03467389523242215,-8.966787959530098e-05,-0.021710753885296974
49,0.039585,23.0626,339.324,0.0122847,88.4693,-0.203346,-0.805954,-0.0104888,0.0349526,-0.0225393,0.027653,-3.12898e-05,-9.31797e-05,0.0295401,-0.010433984354790926,0.028038893025817968,-3.128931047935435e-05,0.03557062158880231,-9.317535890662754e-05,-0.022287187675231745
50,0.040585,23.1467,340.806,0.0125747,88.824,-0.207034,-0.820071,-0.0107573,0.0358183,-0.0231281,0.0283404,-3.23537e-05,-9.67175e-05,0.0303572,-0.010699647163163628,0.028745809900377894,-3.235317662464432e-05,0.03646750323511938,-9.671282301337847e-05,-0.022862695532988586
51,0.041585,23.2293,342.267,0.0122442,89.1742,-0.210791,-0.834063,-0.0110257,0.0366831,-0.0237164,0.0290269,-3.34296e-05,-0.000100294,0.0311737,-0.010965139747166397,0.029452286369176406,-3.342904123715407e-05,0.037364228019827195,-0.00010028897072489329,-0.023437376350269434
52,0.042585,23.3111,343.712,0.0124022,89.5199,-0.214384,-0.847737,-0.0112939,0.0375472,-0.0243042,0.0297125,-3.45088e-05,-0.0001039,0.0319897,-0.011230363328614157,0.03015832085767811,-3.450820457817638e-05,0.03826100184459058,-0.00010389460258197758,-0.02401123118799131
53,0.043585,23.3916,345.137,0.0121761,89.8613,-0.218001,-0.861257,-0.011562,0.0384105,-0.0248914,0.0303974,-3.55979e-05,-0.00010754,0.0328051,-0.011495416936182057,0.030864117964262583,-3.559726640223193e-05,0.039157719580000805,-0.00010753421778142425,-0.0245841635636298
54,0.044585,23.4713,346.546,0.0122504,90.1984,-0.221496,-0.874504,-0.0118299,0.039273,-0.0254781,0.0310814,-3.66912e-05,-0.000111211,0.0336199,-0.011760201844462692,0.03156947022392265,-3.669052688615171e-05,0.04005437974224768,-0.00011120481628601464,-0.025156272190390627
55,0.045585,23.5499,347.938,0.0120899,90.5314,-0.224986,-0.887583,-0.0120977,0.0401347,-0.0260643,0.0317646,-3.77929e-05,-0.000114913,0.0344341,-0.012024817028854162,0.03227447928965388,-3.779218585731048e-05,0.04095098084637816,-0.00011490639775413314,-0.025727558123366356
56,0.046585,23.6276,349.314,0.012112,90.8604,-0.228382,-0.900423,-0.0123654,0.0409957,-0.02665,0.0324469,-3.88995e-05,-0.000118644,0.0352477,-0.01228926258771823,0.03297904050059719,-3.8898743424220505e-05,0.04184762559105759,-0.00011863696207892183,-0.026298022415797595
57,0.047585,23.7042,350.674,0.0119923,91.1856,-0.231757,-0.913088,-0.0126329,0.0418559,-0.0272351,0.0331285,-4.00133e-05,-0.000122405,0.0360608,-0.012553439874688599,0.03368335901908592,-4.00124994786033e-05,0.04274420848360805,-0.00012239750881359868,-0.026867568805837405
58,0.048585,23.78,352.018,0.0119822,91.5069,-0.235056,-0.925538,-0.0129002,0.0427153,-0.0278197,0.0338092,-4.11323e-05,-0.000126193,0.0368732,-0.012817349067175132,0.034387226815796534,-4.11314540785801e-05,0.04364072803565189,-0.0001261850379983276,-0.0274362957700246
59,0.049585,23.8549,353.347,0.0118875,91.8244,-0.238324,-0.937813,-0.0131674,0.043574,-0.0284037,0.0344891,-4.22577e-05,-0.000130009,0.037685,-0.013081089034275628,0.035090745825494984,-4.2256807155971465e-05,0.04453728721140737,-0.00013000054919620752,-0.02800410715623225
60,0.050585,23.9289,354.661,0.0118579,92.1384,-0.241529,-0.94989,-0.0134345,0.0444319,-0.0289873,0.0351682,-4.33883e-05,-0.000133852,0.0384962,-0.013344659873941955,0.035793914684947525,-4.338735874132027e-05,0.045433780245808686,-0.00013384304222074928,-0.028571198465956238
61,0.051585,24.002,355.96,0.0117785,92.4488,-0.244697,-0.961795,-0.0137013,0.0452891,-0.0295703,0.0358466,-4.45248e-05,-0.00013772,0.0393068,-0.013607864405641767,0.036496835680513096,-4.452380878583462e-05,0.04633031028011114,-0.00013771051703614923,-0.029137376400346193
62,0.052585,24.0743,357.246,0.0117372,92.7558,-0.24781,-0.973517,-0.0139681,0.0461454,-0.0301527,0.0365241,-4.56664e-05,-0.000141614,0.0401168,-0.013870998723739425,0.03719930021967954,-4.566535730587962e-05,0.04722666664501052,-0.0001416039732108354,-0.029702642170960525
63,0.053585,24.1458,358.518,0.0116669,93.0594,-0.250884,-0.985071,-0.0142346,0.047001,-0.0307347,0.0372008,-4.68134e-05,-0.000145532,0.0409261,-0.01413376708713987,0.03790141051836504,-4.6812304269838734e-05,0.04812305720218868,-0.0001455214107322078,-0.030267190933591648
64,0.054585,24.2165,359.776,0.0116189,93.3598,-0.253909,-0.996452,-0.014501,0.0478559,-0.0313161,0.0378768,-4.79654e-05,-0.000149474,0.0417349,-0.014396366871743504,0.03860326907333933,-4.796424967856705e-05,0.04901948072542961,-0.00014946282931826982,-0.030830829723109687
65,0.055585,24.2864,361.022,0.0115541,93.6569,-0.256894,-1.00767,-0.0147673,0.0487099,-0.031897,0.0385519,-4.91224e-05,-0.00015344,0.042543,-0.014658798174966736,0.03930466687047818,-4.9121193514634065e-05,0.049915726004232885,-0.0001534282286852484,-0.03139365660522875
66,0.056585,24.3556,362.254,0.0115022,93.9508,-0.259834,-1.01873,-0.0150334,0.0495632,-0.0324773,0.0392263,-5.02841e-05,-0.000157428,0.0433505,-0.01492096258625042,0.04000581033681816,-5.028283577579451e-05,0.0508120014347615,-0.00015741560886262107,-0.031955575809674786
67,0.057585,24.424,363.474,0.0114408,94.2417,-0.262735,-1.02963,-0.0152993,0.0504158,-0.0330571,0.0398999,-5.14506e-05,-0.000161438,0.0441574,-0.0151828602814571,0.04070659424818479,-5.1449276440629355e-05,0.051708305787434794,-0.00016142496958726493,-0.032516685285464364
68,0.058585,24.4917,364.681,0.0113868,94.5296,-0.265593,-1.04037,-0.015565,0.0512676,-0.0336364,0.0405727,-5.26216e-05,-0.00016547,0.0449636,-0.01544449143624227,0.04140701724066842,-5.262021550789253e-05,0.05260453257110265,-0.00016545631059461385,-0.03307698606288911
69,0.059585,24.5586,365.877,0.0113274,94.8146,-0.268413,-1.05097,-0.0158306,0.0521186,-0.0342152,0.0412447,-5.37971e-05,-0.000169523,0.0457692,-0.015705954655464205,0.04210707795030788,-5.3795652961929896e-05,0.05350068028509036,-0.0001695086317881067,-0.033636479170431
70,0.060585,24.6249,367.061,0.0112723,95.0967,-0.271193,-1.06141,-0.0160961,0.0529688,-0.0347934,0.041916,-5.49769e-05,-0.000173596,0.0465742,-0.01596725003600652,0.0428068792937768,-5.497538879795094e-05,0.054396747427634784,-0.00017358093308628142,-0.03419506905427705
71,0.061585,24.6905,368.233,0.0112144,95.3759,-0.273936,-1.07172,-0.0163613,0.0538184,-0.0353711,0.0425865,-5.61609e-05,-0.000177689,0.0473786,-0.016228180920332402,0.043506315766216996,-5.615932300617743e-05,0.05529294355445624,-0.00017767321424466687,-0.03475285343135437
72,0.062585,24.7554,369.395,0.0111588,95.6525,-0.276641,-1.08188,-0.0166264,0.0546671,-0.0359483,0.0432562,-5.7349e-05,-0.000181801,0.0481823,-0.01648894426386205,0.04420538600342683,-5.734735557749726e-05,0.05618895084256148,-0.00018178447519967555,-0.035309833324493
73,0.063585,24.8197,370.545,0.0111017,95.9263,-0.279309,-1.0919,-0.0168914,0.0555151,-0.036525,0.0439252,-5.8541e-05,-0.000185932,0.0489854,-0.016749540163150445,0.044904193131584336,-5.853928650911833e-05,0.057084978935092456,-0.0001859147157169394,-0.035866009754726536
74,0.064585,24.8833,371.684,0.0110461,96.1975,-0.281941,-1.10178,-0.0171561,0.0563623,-0.0371011,0.0445934,-5.9737e-05,-0.000190081,0.0497879,-0.01700977211665078,0.04560263143568499,-5.9735215780953865e-05,0.05798092079663042,-0.00019006293575130062,-0.0364212873834282
75,0.065585,24.9463,372.813,0.0109897,96.4661,-0.284539,-1.11153,-0.0174207,0.0572088,-0.0376767,0.0452608,-6.09366e-05,-0.000194249,0.0505897,-0.01726983692285755,0.04630069955132399,-6.093474340307381e-05,0.058876880807658516,-0.0001942301348845099,-0.03697576369681843
76,0.066585,25.0087,373.931,0.0109342,96.7321,-0.287101,-1.12115,-0.0176851,0.0580545,-0.0382517,0.0459275,-6.214e-05,-0.000198433,0.0513908,-0.017529636430966722,0.04699850081391865,-6.213806935018162e-05,0.05977275175139152,-0.000198413313474477,-0.03752934346325765
77,0.067585,25.0705,375.04,0.0108784,96.9957,-0.28963,-1.13065,-0.0179494,0.0588995,-0.0388263,0.0465935,-6.33469e-05,-0.000202635,0.0521914,-0.017789269036097788,0.047696034068251514,-6.334489362747053e-05,0.060668638185332746,-0.00020261447091507456,-0.03808222024579233
78,0.068585,25.1317,376.138,0.0108231,97.2569,-0.292125,-1.14001,-0.0182134,0.0597437,-0.0394003,0.0472587,-6.45572e-05,-0.000206853,0.0529913,-0.01804853844400467,0.04839319331957359,-6.455511622882604e-05,0.061564432711357364,-0.00020683160739320972,-0.03863420261727524
79,0.069585,25.1923,377.227,0.0107678,97.5156,-0.294588,-1.14925,-0.0184774,0.0605872,-0.0399738,0.0479231,-6.57709e-05,-0.000211087,0.0537905,-0.01830773941382191,0.04908997720318964,-6.576873714181364e-05,0.062460240063987094,-0.00021106472270671084,-0.03918538783460601
80,0.070585,25.2524,378.306,0.0107128,97.772,-0.297019,-1.15837,-0.0187411,0.0614299,-0.0405468,0.0485868,-6.69879e-05,-0.000215337,0.0545891,-0.018566577533632556,0.04978648933304197,-6.698565636076292e-05,0.06335595266378591,-0.0002153138166522961,-0.03973577690584873
81,0.071585,25.3119,379.375,0.0106579,98.0261,-0.299418,-1.16737,-0.0190046,0.0622719,-0.0411192,0.0492498,-6.8208e-05,-0.000219601,0.0553871,-0.01882515117187944,0.05048272855326741,-6.820567388721166e-05,0.0642516754222906,-0.0002195768894652783,-0.04028527486582856
82,0.072585,25.3708,380.436,0.0106033,98.278,-0.301786,-1.17626,-0.019268,0.0631131,-0.0416911,0.049912,-6.94312e-05,-0.000223881,0.0561844,-0.019083558593309347,0.05117858858994517,-6.942878971005761e-05,0.06514730057878326,-0.00022385594051910207,-0.040833978800287274
83,0.073585,25.4292,381.487,0.0105488,98.5277,-0.304123,-1.18502,-0.0195312,0.0639536,-0.0422625,0.0505735,-7.06574e-05,-0.000228175,0.0569811,-0.019341701827547797,0.051874173265564316,-7.06549038247406e-05,0.0660429332218122,-0.0002281489700645123,-0.041381889711745834
84,0.074585,25.4871,382.53,0.0104946,98.7751,-0.306431,-1.19368,-0.0197943,0.0647933,-0.0428334,0.0512343,-7.18865e-05,-0.000232483,0.0577771,-0.019599679087400235,0.05256948142377271,-7.188391622747758e-05,0.06693846540940762,-0.0002324559779214308,-0.04192900860096238
85,0.075585,25.5445,383.564,0.0104405,99.0205,-0.308709,-1.20222,-0.0200572,0.0656323,-0.0434038,0.0518943,-7.31184e-05,-0.000236805,0.0585725,-0.019857392453861755,0.05326440658158882,-7.311572691492962e-05,0.06783400240712445,-0.0002367769639091133,-0.04247533646693635
86,0.076585,25.6013,384.589,0.0103867,99.2638,-0.310958,-1.21065,-0.0203198,0.0664705,-0.0439736,0.0525536,-7.4353e-05,-0.00024114,0.0593673,-0.020114744110852012,0.05395905276980173,-7.435023588420187e-05,0.0687294360917734,-0.000241110928087096,-0.04302077860899378
87,0.077585,25.6577,385.606,0.010333,99.505,-0.313178,-1.21897,-0.0205824,0.067308,-0.0445429,0.0532122,-7.55902e-05,-0.000245487,0.0601614,-0.020372028196169567,0.054653418831601464,-7.558734313284354e-05,0.06962487190590871,-0.00024545687053190157,-0.04356543182948214
88,0.078585,25.7136,386.614,0.0102796,99.7442,-0.31537,-1.22719,-0.0208447,0.0681448,-0.0451117,0.0538701,-7.68301e-05,-0.000249848,0.0609548,-0.020628950916285915,0.05534750361000329,-7.682714864343243e-05,0.07052030859717995,-0.0002498167905876647,-0.044109297121905144
89,0.079585,25.769,387.615,0.0102264,99.9814,-0.317535,-1.23531,-0.0211069,0.0689808,-0.04568,0.0545272,-7.80724e-05,-0.00025422,0.0617476,-0.020885708342986087,0.05604120034372695,-7.806935242948843e-05,0.07141563777061632,-0.00025418768883389564,-0.0446523754780197
90,0.080585,25.8239,388.607,0.0101733,100.217,-0.319672,-1.24332,-0.0213688,0.0698161,-0.0462478,0.0551836,-7.93171e-05,-0.000258604,0.0625398,-0.021142104799389494,0.05673461334088126,-7.931395448201872e-05,0.07231096513426194,-0.0002585705648677772,-0.04519466788783866
91,0.081585,25.8784,389.592,0.0101205,100.45,-0.321783,-1.25123,-0.0216306,0.0706506,-0.046815,0.0558393,-8.05642e-05,-0.000263,0.0633313,-0.021398336254192074,0.05742774144406382,-8.056095479203051e-05,0.0732061821119987,-0.00026296541853165767,-0.04573607991324713
92,0.082585,25.9324,390.569,0.0100679,100.681,-0.323867,-1.25903,-0.0218923,0.0714844,-0.0473817,0.0564943,-8.18135e-05,-0.000267407,0.0641221,-0.02165440280182518,0.05812058349571103,-8.181015336683473e-05,0.07410139458886089,-0.0002673712499348113,-0.04627670807530215
93,0.083585,25.986,391.539,0.0100154,100.911,-0.325925,-1.26674,-0.0221537,0.0723175,-0.0479479,0.0571486,-8.3065e-05,-0.000271825,0.0649123,-0.021910108918687277,0.05881313833810142,-8.306155019843775e-05,0.07499660130727448,-0.00027178805893190994,-0.04681655335856816
94,0.084585,26.0391,392.501,0.00996322,101.139,-0.327958,-1.27436,-0.022415,0.0731498,-0.0485136,0.0578022,-8.43186e-05,-0.000276253,0.0657019,-0.022165650419275762,0.0595054048133592,-8.431504528672029e-05,0.07589169341945423,-0.00027621484565354404,-0.04735561674587829
95,0.085585,26.0918,393.455,0.00991119,101.365,-0.329965,-1.28188,-0.0226761,0.0739814,-0.0490788,0.058455,-8.55742e-05,-0.000280691,0.0664908,-0.022420929639798803,0.06019727574372302,-8.557053863256225e-05,0.07678677707590253,-0.0002806516099668199,-0.0478938992183372
96,0.086585,26.144,394.403,0.00985936,101.589,-0.331947,-1.2893,-0.022937,0.0748122,-0.0496435,0.0591072,-8.68319e-05,-0.00028514,0.0672791,-0.02267594675082707,0.06088896194131377,-8.682813021965163e-05,0.07768174324776744,-0.00028509935145382137,-0.04843140175532379
97,0.087585,26.1959,395.343,0.00980773,101.812,-0.333905,-1.29663,-0.0231977,0.0756423,-0.0502076,0.0597586,-8.80914e-05,-0.000289598,0.0680667,-0.022930701922729613,0.0615802501392444,-8.808752006650433e-05,0.078576698262526,-0.00028955607054681476,-0.04896803023130203
98,0.088585,26.2473,396.277,0.0097563,102.032,-0.335838,-1.30387,-0.0234583,0.0764717,-0.0507712,0.0604094,-8.93527e-05,-0.000294065,0.0688536,-0.023185293007149443,0.062271351426001376,-8.934870816634799e-05,0.07947164085745606,-0.000294021767125785,-0.04950388083258006
99,0.089585,26.2984,397.203,0.00970507,102.252,-0.337747,-1.31102,-0.0237187,0.0773004,-0.0513344,0.0610595,-9.06159e-05,-0.000298542,0.06964,-0.02343962244172082,0.06296215855409071,-9.061179450331469e-05,0.08036656976881362,-0.00029849744077148355,-0.050039049529244095
100,0.090585,26.349,398.123,0.00965403,102.469,-0.339633,-1.31808,-0.0239789,0.0781283,-0.051897,0.0617088,-9.18807e-05,-0.000303027,0.0704256,-0.023693690396287215,0.06365256399951202,-9.187647909780772e-05,0.08126137560569169,-0.0003029810919559228,-0.05057334724793772
101,0.091585,26.3992,399.037,0.00960318,102.685,-0.341496,-1.32505,-0.0242389,0.0789555,-0.0524591,0.0623575,-9.31472e-05,-0.000307521,0.0712106,-0.023947497040490595,0.06434277926489562,-9.314286193429222e-05,0.0821561650494842,-0.00030747372026396214,-0.051106870008830185
102,0.092585,26.4491,399.943,0.00955253,102.899,-0.343335,-1.33193,-0.0244987,0.079782,-0.0530207,0.0630055,-9.44152e-05,-0.000312023,0.071995,-0.024201042543772533,0.06503269689502988,-9.441074302529717e-05,0.08305093683340226,-0.0003119743258863661,-0.05163961878077594
103,0.093585,26.4986,400.843,0.00950207,103.112,-0.345152,-1.33873,-0.0247584,0.0806078,-0.0535818,0.0636528,-9.56848e-05,-0.000316532,0.0727787,-0.024454424629935967,0.06572231573078713,-9.568022235550977e-05,0.083945689689646,-0.00031648190903177387,-0.05217159453092435
104,0.094585,26.5476,401.737,0.0094518,103.323,-0.346947,-1.34545,-0.0250178,0.0814328,-0.0541423,0.0642994,-9.69559e-05,-0.00032105,0.0735618,-0.02470744833359373,0.06641163461291666,-9.695119992858547e-05,0.08484031386537039,-0.00032099846896360695,-0.05270270349499817
105,0.095585,26.5964,402.625,0.00940173,103.533,-0.348719,-1.35208,-0.0252771,0.0822571,-0.0547024,0.0649453,-9.82283e-05,-0.000325575,0.0743442,-0.024960308907450712,0.06710065238204765,-9.822347575849655e-05,0.08573491639586783,-0.0003255220062109432,-0.05323313614923886
106,0.096585,26.6447,403.506,0.00935184,103.741,-0.35047,-1.35863,-0.0255363,0.0830807,-0.055262,0.0655905,-9.95021e-05,-0.000330107,0.075126,-0.025213006444366304,0.06778936787869205,-9.949714983026325e-05,0.08662949601032932,-0.00033005252067908053,-0.05376279867285361
107,0.097585,26.6928,404.382,0.00930214,103.947,-0.352198,-1.3651,-0.0257952,0.0839036,-0.055821,0.066235,-0.000100777,-0.000334646,0.0759071,-0.025465346130216004,0.06847777994324833,-0.00010077192216872977,0.08752405143694642,-0.0003345900122728729,-0.054291597455365714
108,0.098585,26.7404,405.251,0.00925263,104.153,-0.353906,-1.37148,-0.0260539,0.0847257,-0.0563796,0.0668789,-0.000102053,-0.000339192,0.0766876,-0.025717425637281965,0.06916599433259818,-0.00010204779276978826,0.0884184725610615,-0.0003391344808970631,-0.05481972264992763
109,0.099585,26.7877,406.115,0.0092033,104.356,-0.355593,-1.37779,-0.0263125,0.0855471,-0.0569376,0.0675221,-0.000103331,-0.000343745,0.0774674,-0.025969342536753204,0.06985390310789907,-0.00010332566153614664,0.08931286677183836,-0.00034368592645639406,-0.05534698612449862
110,0.1006,26.8347,406.973,0.00915416,104.559,-0.357258,-1.38402,-0.0265709,0.0863678,-0.0574952,0.0681646,-0.00010461,-0.000348303,0.0782466,-0.026220999543156154,0.07054150510913493,-0.00010460452856475566,0.09020723279449538,-0.00034824234955188604,-0.055873577817627695
111,0.1016,26.8813,407.825,0.0091052,104.76,-0.358903,-1.39017,-0.0268291,0.0871878,-0.0580522,0.0688064,-0.000105889,-0.000352868,0.0790251,-0.02647239682428848,0.07122879917618818,-0.0001058833939576731,0.0911015693532633,-0.000352805749409546,-0.05639930980483254
112,0.1026,26.9276,408.671,0.00905642,104.959,-0.360528,-1.39625,-0.0270871,0.0880071,-0.0586087,0.0694476,-0.00010717,-0.000357438,0.079803,-0.02672353454774845,0.07191589134042697,-0.00010716425750068037,0.09199587517138741,-0.0003573741266486019,-0.056924277503115905
113,0.1036,26.9736,409.512,0.00900783,105.157,-0.362133,-1.40224,-0.0273449,0.0888256,-0.0591648,0.0700881,-0.000108452,-0.000362014,0.0805802,-0.026974412880935383,0.07260267338730242,-0.00010844611929439196,0.0928900396821215,-0.00036194848083836995,-0.05744857611765508
114,0.1046,27.0193,410.347,0.00895941,105.354,-0.363718,-1.40817,-0.0276026,0.0896435,-0.0597203,0.0707279,-0.000109734,-0.000366596,0.0813568,-0.027225129268541925,0.07328914415631771,-0.00010972797944486246,0.09378428009534345,-0.00036652881189691566,-0.05797201803416907
115,0.1056,27.0646,411.177,0.00891117,105.55,-0.365283,-1.41402,-0.0278601,0.0904606,-0.0602753,0.0713671,-0.000111018,-0.000371182,0.0821328,-0.027475586549996378,0.07397540988442297,-0.00011101183772987966,0.09467837646393518,-0.00037111312048399014,-0.05849469850691247
116,0.1066,27.1096,412.002,0.00886311,105.744,-0.366829,-1.4198,-0.0281174,0.091277,-0.0608298,0.0720056,-0.000112302,-0.000375774,0.0829081,-0.027725784892180028,0.07466136215059094,-0.00011229569436643771,0.09557243679624983,-0.00037570340579318184,-0.05901661848090467
117,0.1076,27.1544,412.821,0.00881523,105.937,-0.368355,-1.4255,-0.0283745,0.0920927,-0.0613839,0.0726434,-0.000113587,-0.00038037,0.0836828,-0.027975724461775875,0.07534699979397264,-0.00011358054924093253,0.09646645981065993,-0.00038029766850278257,-0.05953787294571833
118,0.1086,27.1988,413.635,0.00876752,106.129,-0.369863,-1.43113,-0.0286314,0.0929077,-0.0619374,0.0732806,-0.000114873,-0.00038497,0.0844568,-0.028225405425268635,0.07603242925687659,-0.00011486640234958934,0.09736044422457035,-0.0003848959085575032,-0.060058274698571834
119,0.1096,27.2429,414.444,0.00871999,106.319,-0.371352,-1.43669,-0.0288882,0.093722,-0.0624904,0.0739171,-0.000116159,-0.000389575,0.0852301,-0.02847492510145777,0.07671754191207092,-0.00011615225380456895,0.09825438875442094,-0.00038949912551289323,-0.06057791877783292
120,0.1106,27.2867,415.248,0.00867263,106.508,-0.372822,-1.44219,-0.0291447,0.0945356,-0.063043,0.074553,-0.000117446,-0.000394184,0.0860029,-0.028724089326491287,0.07740244433861987,-0.00011743910348849251,0.09914829211568943,-0.0003941063196941652,-0.06109690001219459
121,0.1116,27.3302,416.047,0.00862544,106.696,-0.374273,-1.44761,-0.0294011,0.0953484,-0.063595,0.0751882,-0.000118734,-0.000398797,0.0867749,-0.028973092546411117,0.07808702777194432,-0.00011872695139758527,0.10004204301868369,-0.00039871749104603005,-0.061615031505939166
122,0.1126,27.3735,416.841,0.00857842,106.883,-0.375707,-1.45296,-0.0296573,0.0961606,-0.0641466,0.0758227,-0.000120022,-0.000403414,0.0875464,-0.0292218377744764,0.0787712910506344,-0.0001200147976478938,0.1009358600960033,-0.00040333263951330967,-0.06213250192309894
123,0.1136,27.4164,417.631,0.00853157,107.069,-0.377122,-1.45825,-0.0299133,0.0969721,-0.0646976,0.0764566,-0.00012131,-0.000408034,0.0883172,-0.02947032517626158,0.07945534095874374,-0.00012130264223952913,0.10182963214543217,-0.0004079507654486392,-0.06264912457192895
124,0.1146,27.4591,418.415,0.00848488,107.253,-0.37852,-1.46347,-0.0301691,0.0977828,-0.0652482,0.0770899,-0.000122599,-0.000412658,0.0890873,-0.029718554917144147,0.08013917653985425,-0.00012259148504967232,0.1027232476062967,-0.0004125728683980201,-0.06316508790619868
125,0.1156,27.5015,419.195,0.00843837,107.437,-0.3799,-1.46862,-0.0304248,0.0985929,-0.0657983,0.0777225,-0.000123889,-0.000417285,0.0898569,-0.02996662416564677,0.08082268875505294,-0.00012388132607477065,0.10361692564459801,-0.0004171979487231914,-0.06368029906951866
126,0.1166,27.5436,419.97,0.00839202,107.619,-0.381262,-1.4737,-0.0306802,0.0994022,-0.0663478,0.0783544,-0.000125179,-0.000421915,0.0906257,-0.030214339055296913,0.08150587644249407,-0.0001251711654358667,0.10451044433609202,-0.0004218260063827417,-0.06419466541008523
127,0.1176,27.5855,420.74,0.00834583,107.8,-0.382607,-1.47872,-0.0309355,0.100211,-0.0668969,0.0789857,-0.000126469,-0.000426547,0.091394,-0.03046189373283692,0.08218884665915849,-0.00012646100313318254,0.10540413374274915,-0.00042645604176150265,-0.06470837506741467
128,0.1186,27.6271,421.506,0.00829981,107.98,-0.383935,-1.48368,-0.0311906,0.101019,-0.0674455,0.0796164,-0.000127759,-0.000431183,0.0921616,-0.03070919135959227,0.08287159844789094,-0.0001277508391664961,0.10629766121930118,-0.0004310900539696849,-0.0652213353349862
129,0.1196,27.6684,422.268,0.00825395,108.159,-0.385246,-1.48857,-0.0314455,0.101826,-0.0679936,0.0802464,-0.00012905,-0.00043582,0.0929285,-0.03095623210003473,0.08355402249591704,-0.00012904167340688222,0.10719080376645151,-0.00043572504425881675,-0.06573354713662183
130,0.1206,27.7095,423.025,0.00820825,108.337,-0.38654,-1.4934,-0.0317003,0.102633,-0.0685413,0.0808758,-0.000130341,-0.00044046,0.0936948,-0.031203112998133498,0.08423622606461811,-0.0001303325059809346,0.10808466737054467,-0.00044036301173455694,-0.06624510477000933
131,0.1216,27.7503,423.777,0.00816272,108.513,-0.387817,-1.49817,-0.0319548,0.103439,-0.0690884,0.0815045,-0.000131632,-0.000445103,0.0944605,-0.03144964043392873,0.08491809970446362,-0.0001316233368884312,0.10897814363501035,-0.0004450039563551611,-0.06675582235365574
132,0.1226,27.7908,424.525,0.00811734,108.689,-0.389078,-1.50287,-0.0322092,0.104244,-0.069635,0.0821326,-0.000132923,-0.000449747,0.0952256,-0.031696008306080214,0.08559975081300886,-0.00013291416612948304,0.10987123045985503,-0.00044964587897822206,-0.06726579423314549
133,0.1236,27.8311,425.269,0.00807212,108.864,-0.390322,-1.50751,-0.0324633,0.105048,-0.0701812,0.0827601,-0.000134214,-0.000454393,0.09599,-0.03194202309286731,0.08628117843219973,-0.0001342049937039791,0.1107639257445614,-0.0004542897791356415,-0.06777511454829499
134,0.1246,27.8712,426.009,0.00802706,109.037,-0.39155,-1.51209,-0.0327173,0.105852,-0.0707269,0.0833869,-0.000135505,-0.00045904,0.0967537,-0.03218787859403127,0.08696227290755076,-0.0001354958196121414,0.11165733904488029,-0.00045893465725865834,-0.06828369089061026
135,0.1256,27.911,426.745,0.00798215,109.21,-0.392762,-1.51661,-0.0329712,0.106655,-0.071272,0.0840131,-0.000136797,-0.000463689,0.0975168,-0.03243357489919041,0.08764314184065936,-0.0001367876437170512,0.1125503583874139,-0.0004635815128698484,-0.06879143105355212
136,0.1266,27.9506,427.476,0.0079374,109.381,-0.393959,-1.52107,-0.0332248,0.107457,-0.0718167,0.0846387,-0.000138088,-0.00046834,0.0982793,-0.03267891863369554,0.08832378427294896,-0.00013807846629099174,0.11344298166893152,-0.00046823034594134505,-0.06929852224223432
137,0.1276,27.99,428.203,0.00789281,109.552,-0.395139,-1.52548,-0.0334782,0.108259,-0.072361,0.0852636,-0.000139379,-0.000472992,0.0990412,-0.03292400674173901,0.08900409034523515,-0.0001393692871984875,0.11433632112146719,-0.000472880156918265,-0.0698049652156193
138,0.1286,28.0291,428.927,0.00784836,109.722,-0.396304,-1.52982,-0.0337315,0.10906,-0.0729047,0.0858879,-0.00014067,-0.000477644,0.0998024,-0.03316893606922244,0.0896841678629463,-0.0001406601064394275,0.11522926208980078,-0.0004775299462643767,-0.07031057479361258
139,0.1296,28.068,429.646,0.00780407,109.89,-0.397453,-1.5341,-0.0339846,0.109861,-0.073448,0.0865116,-0.000141961,-0.000482298,0.100563,-0.03341361004670529,0.09036401586700404,-0.00014195092401403375,0.11612291859038226,-0.0004821817130153949,-0.07081553787268569
140,0.1306,28.1066,430.362,0.00775994,110.058,-0.398586,-1.53833,-0.0342375,0.11066,-0.0739907,0.0871347,-0.000143252,-0.000486952,0.101323,-0.0336580288366658,0.09104363339814392,-0.00014324173992219524,0.11701505716423433,-0.00048683345811706413,-0.07131966947179957
141,0.1316,28.145,431.073,0.00771595,110.225,-0.399705,-1.54249,-0.0344902,0.111459,-0.074533,0.0877571,-0.000144542,-0.000491607,0.102082,-0.033902192601387715,0.09172291032462221,-0.00014453155430838027,0.11790790884165392,-0.0004914861810780824,-0.07182315628225722
142,0.1326,28.1832,431.781,0.00767211,110.391,-0.400808,-1.54661,-0.0347427,0.112257,-0.0750749,0.0883789,-0.000145833,-0.000496262,0.102841,-0.03414610150296116,0.09240195472328705,-0.0001458223668849845,0.11880035539172362,-0.0004961388823807589,-0.07232599905631298
143,0.1336,28.2212,432.485,0.00762842,110.556,-0.401896,-1.55066,-0.0349951,0.113055,-0.0756162,0.0890001,-0.000147123,-0.000500918,0.103599,-0.0343898522643018,0.09308076563440126,-0.0001471121779421658,0.11969351439837261,-0.0005007925615243547,-0.07282801311066223
144,0.1346,28.259,433.185,0.00758488,110.72,-0.40297,-1.55466,-0.0352473,0.113852,-0.076157,0.0896207,-0.000148412,-0.000505574,0.104357,-0.03463334843740262,0.09375934209805159,-0.00014840098748392094,0.12058626584354193,-0.0005054462190003939,-0.07332929216309902
145,0.1356,28.2965,433.881,0.00754149,110.883,-0.404029,-1.5586,-0.0354992,0.114648,-0.0766974,0.0902406,-0.000149702,-0.00051023,0.105113,-0.03487649367150336,0.0944375737103873,-0.00014969079521476303,0.1214786076160621,-0.0005100998548090985,-0.07382992972916014
146,0.1366,28.3339,434.574,0.00749825,111.045,-0.405073,-1.56249,-0.035751,0.115444,-0.0772373,0.09086,-0.000150991,-0.000514886,0.10587,-0.035119481176986045,0.09511567833086465,-0.00015097960143262146,0.122371659975409,-0.0005147534689505795,-0.07432983398880133
147,0.1376,28.371,435.263,0.00745515,111.206,-0.406102,-1.56633,-0.0360027,0.116239,-0.0777768,0.0914787,-0.000152279,-0.000519541,0.106625,-0.03536231104215326,0.09579343604377644,-0.00015226740614160406,0.12326430022257351,-0.0005194060619443386,-0.07482909835469198
148,0.1386,28.4079,435.948,0.00741219,111.367,-0.407117,-1.57011,-0.0362541,0.117033,-0.0783157,0.0920969,-0.000153567,-0.000524197,0.10738,-0.03560479047621534,0.096471064979462,-0.00015355520919180243,0.12415652624380646,-0.0005240596327561464,-0.07532753863679187
149,0.1396,28.4447,436.63,0.00736938,111.526,-0.408118,-1.57383,-0.0365054,0.117826,-0.0788542,0.0927144,-0.000154855,-0.000528851,0.108134,-0.03584711254332562,0.09714834495075686,-0.0001548430105833276,0.12504833592492193,-0.0005287111829584967,-0.07582534071199776
150,0.1406,28.4812,437.309,0.00732671,111.685,-0.409105,-1.5775,-0.0367564,0.118619,-0.0793922,0.0933313,-0.000156142,-0.000533505,0.108888,-0.03608908454932014,0.09782538457615808,-0.00015612981047230523,0.1259408530915953,-0.0005333627115124973,-0.076322412954272
151,0.1416,28.5175,437.983,0.00728419,111.843,-0.410077,-1.58112,-0.0370073,0.119411,-0.0799297,0.0939476,-0.000157429,-0.000538159,0.109641,-0.0363308994610575,0.09850218289465196,-0.00015741660870527419,0.12683295147157048,-0.00053801421841837,-0.07681875625309775
152,0.1426,28.5536,438.655,0.00724181,112.0,-0.411036,-1.58469,-0.037258,0.120203,-0.0804668,0.0945632,-0.000158715,-0.000542811,0.110393,-0.0365724610235556,0.0991786290271992,-0.00015870240544069159,0.1277257566733272,-0.0005426637047615257,-0.07731446376494522
153,0.1436,28.5895,439.323,0.00719956,112.156,-0.41198,-1.58821,-0.0375086,0.120994,-0.0810034,0.0951783,-0.000160001,-0.000547463,0.111145,-0.036813865715551786,0.09985494178057763,-0.00015998820052265383,0.128618140638185,-0.0005473131694753164,-0.07780944400861256
154,0.1446,28.6252,439.988,0.00715746,112.312,-0.412911,-1.59167,-0.0377589,0.121784,-0.0815395,0.0957928,-0.000161285,-0.000552113,0.111896,-0.03705492103563135,0.10053101034309342,-0.00016127199427362626,0.1295101012473403,-0.0005519606136636934,-0.07830369786909475
155,0.1456,28.6608,440.649,0.0071155,112.467,-0.413829,-1.59508,-0.0380091,0.122573,-0.0820752,0.0964067,-0.00016257,-0.000556762,0.112647,-0.0372958197567016,0.10120683375311379,-0.0001625567862135746,0.13040163638158497,-0.0005566070367982734,-0.07879731835009574
156,0.1466,28.6961,441.307,0.00707368,112.62,-0.414732,-1.59844,-0.038259,0.123362,-0.0826104,0.09702,-0.000163853,-0.00056141,0.113397,-0.03753636947340544,0.10188241104885654,-0.0001638395768303047,0.13129387521462332,-0.0005612524388928231,-0.07929021411464277
157,0.1476,28.7313,441.962,0.00703199,112.773,-0.415623,-1.60175,-0.0385088,0.12415,-0.0831451,0.0976326,-0.000165136,-0.000566056,0.114146,-0.03777676286192666,0.10255763101262372,-0.00016512236580124018,0.1321856861156403,-0.0005658958205273512,-0.07978238604326437
158,0.1486,28.7662,442.613,0.00699045,112.926,-0.4165,-1.60501,-0.0387585,0.124938,-0.0836793,0.0982447,-0.000166418,-0.000570701,0.114895,-0.03801700000938402,0.10323271312636995,-0.00016640415329272074,0.13307820004060256,-0.0005705381811593746,-0.08027383501493268
159,0.1496,28.801,443.262,0.00694904,113.077,-0.417363,-1.60822,-0.0390079,0.125725,-0.0842131,0.0988562,-0.0001677,-0.000575344,0.115643,-0.038256888654224164,0.1039075462396426,-0.0001676859391409602,0.13397028357286023,-0.0005751785213781169,-0.08076465383060527
160,0.1506,28.8356,443.907,0.00690777,113.228,-0.418214,-1.61139,-0.0392571,0.126511,-0.0847465,0.0994671,-0.00016898,-0.000579985,0.11639,-0.03849652517762059,0.10458212939008416,-0.000168965723683967,0.134861934588693,-0.0005798168412113336,-0.08125484321911991
161,0.1516,28.87,444.549,0.00686663,113.378,-0.419051,-1.6145,-0.0395062,0.127296,-0.0852793,0.100077,-0.00017026,-0.000584625,0.117137,-0.03873600586464099,0.1052560195127028,-0.00017024550658872872,0.13575315096400664,-0.0005844541401026637,-0.08174422025703298
162,0.1526,28.9043,445.188,0.00682563,113.527,-0.419876,-1.61756,-0.0397551,0.128081,-0.0858117,0.100687,-0.000171539,-0.000589262,0.117884,-0.03897523469951769,0.10593043135930635,-0.00017152428802702513,0.1366450672188415,-0.0005890884192442103,-0.08223296951757031
163,0.1536,28.9384,445.824,0.00678476,113.676,-0.420687,-1.62058,-0.0400038,0.128865,-0.0863436,0.101296,-0.000172817,-0.000593897,0.118629,-0.03921421184060869,0.10660414811793473,-0.00017280206800240894,0.1375365463657039,-0.0005937206780841642,-0.08272099999787164
164,0.1546,28.9723,446.456,0.00674403,113.823,-0.421486,-1.62354,-0.0402523,0.129649,-0.0868751,0.101905,-0.000174094,-0.00059853,0.119374,-0.03945293744608136,0.10727827529502898,-0.00017407884651898797,0.13842872470626566,-0.000598350916650281,-0.08320840424721954
165,0.1556,29.006,447.086,0.00670343,113.971,-0.422272,-1.62646,-0.0405007,0.130432,-0.0874061,0.102513,-0.000175371,-0.000603161,0.120119,-0.039691507704766926,0.10795170518835051,-0.00017535562340509347,0.1393204634678762,-0.0006029791349705382,-0.08369509135770081
166,0.1566,29.0395,447.713,0.00666297,114.117,-0.423046,-1.62934,-0.0407488,0.131214,-0.0879366,0.10312,-0.000176646,-0.000607789,0.120862,-0.03992973068892214,0.1086244360265538,-0.00017663039901394395,0.14021176052203543,-0.0006076043336803449,-0.08418106219657329
167,0.1576,29.0729,448.337,0.00662263,114.262,-0.423807,-1.63216,-0.0409968,0.131996,-0.0884667,0.103727,-0.00017792,-0.000612414,0.121605,-0.040167798594070936,0.10929757533633433,-0.00017790417317542495,0.1411037548430869,-0.0006122265128215565,-0.084666409162924
168,0.1586,29.1061,448.958,0.00658243,114.407,-0.424556,-1.63494,-0.0412446,0.132776,-0.0889964,0.104333,-0.000179194,-0.000617037,0.122348,-0.040405615546841966,0.10997001339514134,-0.00017917794571409296,0.1419941629858965,-0.000616846671818827,-0.08515113297555488
169,0.1596,29.1392,449.576,0.00654236,114.552,-0.425292,-1.63767,-0.0414923,0.133557,-0.0895255,0.104939,-0.000180466,-0.000621657,0.12309,-0.04064327764020559,0.11064285907490867,-0.00018044971699093804,0.14288640880382752,-0.0006214638113216653,-0.08563505147916817
170,0.1606,29.1721,450.191,0.00650242,114.695,-0.426016,-1.64036,-0.0417397,0.134336,-0.0900542,0.105544,-0.000181737,-0.000626274,0.123831,-0.04088059313618009,0.11131500130717242,-0.00018172048683173792,0.1437770641815148,-0.0006260779313714826,-0.08611834845663735
171,0.1616,29.2048,450.803,0.00646261,114.838,-0.426727,-1.643,-0.041987,0.135115,-0.0905825,0.106148,-0.000183008,-0.000630888,0.124572,-0.041117754039343146,0.11198643832152766,-0.00018299125505749636,0.14466841365005445,-0.0006306890320101344,-0.08660102462301211
172,0.1626,29.2374,451.413,0.00642294,114.98,-0.427427,-1.64559,-0.042234,0.135893,-0.0911103,0.106752,-0.000184277,-0.0006355,0.125312,-0.04135456870628007,0.1126582810063399,-0.0001842600220365309,0.14555931219046925,-0.000635298112643734,-0.08708298940052273
173,0.1636,29.2698,452.02,0.00638339,115.122,-0.428115,-1.64814,-0.0424809,0.136671,-0.0916376,0.107355,-0.000185545,-0.000640108,0.126052,-0.04159122904634527,0.11332941627673487,-0.00018552778759106658,0.14645090411964157,-0.0006399031745799588,-0.08756424364637905
174,0.1646,29.302,452.624,0.00634397,115.263,-0.42879,-1.65065,-0.0427277,0.137448,-0.0921645,0.107958,-0.000186812,-0.000644712,0.12679,-0.04182773514496363,0.11400095636373764,-0.00018679455172487813,0.14734204263462192,-0.0006445042178740978,-0.08804487941178973
175,0.1656,29.3341,453.225,0.00630467,115.403,-0.429454,-1.65311,-0.0429742,0.138224,-0.0926909,0.10856,-0.000188078,-0.000649314,0.127529,-0.04206389550029077,0.11467178683918244,-0.00018806031444174032,0.14823272560000134,-0.0006491032412833109,-0.08852480625943893
176,0.1666,29.3661,453.823,0.00626551,115.542,-0.430106,-1.65552,-0.0432206,0.139,-0.0932169,0.109161,-0.000189342,-0.000653912,0.128266,-0.04229990187925958,0.1153419059336902,-0.0001893240759347492,0.1491241000036052,-0.0006536982461426977,-0.08900411614179626
177,0.1676,29.3979,454.419,0.00622647,115.681,-0.430746,-1.65789,-0.0434667,0.139775,-0.0937424,0.109762,-0.000190606,-0.000658506,0.129003,-0.04253556287413229,0.11601242789082167,-0.00019058783583048022,0.1500150163666063,-0.0006582892325074363,-0.08948271871492375
178,0.1686,29.4295,455.013,0.00618757,115.819,-0.431375,-1.66022,-0.0437128,0.140549,-0.0942675,0.110363,-0.000191868,-0.000663097,0.12974,-0.042771165879969986,0.11668335295277021,-0.00019184959451246097,0.15090547255136344,-0.0006628771997699845,-0.08996070583282578
179,0.1696,29.461,455.603,0.00614878,115.957,-0.431992,-1.66251,-0.0439586,0.141323,-0.0947921,0.110963,-0.000193129,-0.000667684,0.130476,-0.04300642381301223,0.1173535640077521,-0.00019311035179525593,0.15179661821600154,-0.0006674611486389148,-0.09043798724468577
180,0.1706,29.4924,456.191,0.00611013,116.094,-0.432598,-1.66475,-0.0442042,0.142096,-0.0953163,0.111562,-0.000194388,-0.000672267,0.131211,-0.04324143257506641,0.11802305928641066,-0.00019436910787684614,0.15268730120650775,-0.0006720410791695164,-0.09091465470631521
181,0.1716,29.5236,456.776,0.0060716,116.23,-0.433192,-1.66695,-0.0444497,0.142869,-0.09584,0.112161,-0.000195647,-0.000676846,0.131946,-0.04347628797368952,0.11869295571287308,-0.00019562786237381502,0.15357867296113836,-0.0006766169914168563,-0.09139061805976323
182,0.1726,29.5546,457.359,0.00603319,116.366,-0.433775,-1.6691,-0.044695,0.14364,-0.0963633,0.112759,-0.000196904,-0.000681422,0.13268,-0.04371089446458709,0.11936213416480457,-0.00019688461567968218,0.15446842507335523,-0.0006811898847547404,-0.0918659689629211
183,0.1736,29.5855,457.94,0.00599492,116.501,-0.434346,-1.67122,-0.0449401,0.144412,-0.0968861,0.113356,-0.00019816,-0.000685993,0.133413,-0.043945252202639784,0.120030592873972,-0.0001981403676040161,0.15536001880841233,-0.0006857577605958731,-0.09234061735044796
184,0.1746,29.6163,458.517,0.00595676,116.636,-0.434906,-1.67329,-0.045185,0.145182,-0.0974085,0.113953,-0.000199414,-0.00069056,0.134146,-0.04417936134254108,0.12069945077213484,-0.00019939411834990484,0.15624998861729944,-0.0006903216183186123,-0.09281465478258633
185,0.1756,29.6469,459.092,0.00591873,116.77,-0.435455,-1.67532,-0.0454298,0.145952,-0.0979304,0.11455,-0.000200667,-0.000695123,0.134878,-0.04441331759747047,0.12136870809767997,-0.00020064686772425233,0.15714064396683836,-0.0006948814579778029,-0.09328799128635068
186,0.1766,29.6774,459.665,0.00588083,116.903,-0.435993,-1.6773,-0.0456743,0.146721,-0.0984519,0.115146,-0.000201919,-0.000699681,0.13561,-0.04464692998104025,0.12203724305133279,-0.00020189861573072232,0.15803082735369278,-0.0006994362803276477,-0.09376071832460597
187,0.1776,29.7078,460.236,0.00584304,117.036,-0.43652,-1.67925,-0.0459187,0.14749,-0.098973,0.115741,-0.000203169,-0.000704236,0.136341,-0.04488038974140807,0.12270505386496366,-0.00020314836257639968,0.15892169555484914,-0.0007039880840287172,-0.0942328365931887
188,0.1786,29.738,460.804,0.00580539,117.168,-0.437037,-1.68116,-0.0461629,0.148258,-0.0994936,0.116336,-0.000204418,-0.000708785,0.137071,-0.04511360147392174,0.12337326214426292,-0.00020439710806419153,0.15981208928446278,-0.0007085338712474742,-0.09470425625727252
189,0.1796,29.7681,461.369,0.00576785,117.3,-0.437542,-1.68302,-0.046407,0.149025,-0.100014,0.11693,-0.000205665,-0.00071333,0.137801,-0.04534666079775429,0.12404074408448684,-0.00020564385240373628,0.1607020063965292,-0.0007130756406398264,-0.0951752495992193
190,0.1806,29.798,461.932,0.00573044,117.431,-0.438036,-1.68485,-0.0466508,0.149792,-0.100533,0.117524,-0.000206911,-0.000717871,0.13853,-0.04557937691260472,0.12470862262676241,-0.00020688959539538754,0.16159260633685157,-0.0007176133922603967,-0.09564473180350697
191,0.1816,29.8278,462.493,0.00569315,117.561,-0.43852,-1.68663,-0.0468945,0.150558,-0.101053,0.118117,-0.000208155,-0.000722406,0.139259,-0.045811940879380675,0.1253757726304059,-0.00020813333725111516,0.16248272714605183,-0.0007221451276079316,-0.09611487429532739
192,0.1826,29.8575,463.051,0.00565598,117.691,-0.438993,-1.68837,-0.047138,0.151323,-0.101572,0.118709,-0.000209398,-0.000726937,0.139987,-0.04604425738609397,0.12604219232857083,-0.0002093760777689413,0.16337236667605226,-0.0007266728453108051,-0.09658386896092497
193,0.1836,29.887,463.607,0.00561893,117.821,-0.439455,-1.69008,-0.0473813,0.152088,-0.10209,0.119301,-0.00021064,-0.000731463,0.140715,-0.04627632658590908,0.1267090066639982,-0.00021061781695275172,0.16426268704067892,-0.0007311955461546393,-0.0970517173336134
194,0.1846,29.9165,464.161,0.00558201,117.95,-0.439907,-1.69174,-0.0476245,0.152852,-0.102608,0.119893,-0.00021188,-0.000735984,0.141442,-0.046508243980985076,0.12737621587038217,-0.00021185755501806902,0.16515252360786392,-0.0007357132302073799,-0.09751932342360148
195,0.1856,29.9457,464.713,0.00554521,118.078,-0.440348,-1.69337,-0.0478675,0.153616,-0.103125,0.120484,-0.000213118,-0.0007405,0.142168,-0.046739914328610466,0.12804269213829977,-0.00021309529197222066,0.16604304026994932,-0.0007402258975367504,-0.09798578534259539
196,0.1866,29.9749,465.262,0.00550852,118.206,-0.440779,-1.69495,-0.0481103,0.154379,-0.103642,0.121074,-0.000214354,-0.000745011,0.142894,-0.04697133778146734,0.1287084337011104,-0.00021433102782275615,0.16693307061307228,-0.0007447335482108075,-0.09845200616310656
197,0.1876,30.0039,465.809,0.00547196,118.333,-0.441199,-1.6965,-0.0483529,0.155141,-0.104159,0.121664,-0.00021559,-0.000749517,0.143619,-0.047202514492052705,0.12937456816733817,-0.00021556676214595782,0.1678226124852904,-0.0007492361822969418,-0.09891798600975055
198,0.1886,30.0329,466.353,0.00543552,118.459,-0.441609,-1.69801,-0.0485953,0.155903,-0.104675,0.122253,-0.000216823,-0.000754017,0.144343,-0.04743344461267851,0.13003996572833376,-0.00021679949559216816,0.1687128324467344,-0.0007537328006167465,-0.09938282439035351
199,0.1896,30.0617,466.896,0.0053992,118.586,-0.442009,-1.69947,-0.0488376,0.156664,-0.105191,0.122842,-0.000218055,-0.000758513,0.145067,-0.047664223529054084,0.13070575532393547,-0.00021803122773644823,0.16960256141115893,-0.0007582254017346468,-0.0998474229762244
200,0.1906,30.0903,467.436,0.005363,118.711,-0.442399,-1.70091,-0.0490797,0.157424,-0.105706,0.12343,-0.000219285,-0.000763002,0.145791,-0.047894756113442294,0.1313708058137486,-0.0002192609588017591,0.1704917972246387,-0.000762710987992965,-0.10031088220239748
201,0.1916,30.1189,467.974,0.00532692,118.836,-0.442778,-1.7023,-0.0493216,0.158184,-0.106221,0.124017,-0.000220514,-0.000767487,0.146513,-0.04812504251767491,0.1320351154325594,-0.0002204896885749097,0.17138170911421313,-0.0007671925571842708,-0.10077410280851906
202,0.1926,30.1473,468.51,0.00529096,118.961,-0.443147,-1.70365,-0.0495633,0.158943,-0.106736,0.124604,-0.00022174,-0.000771965,0.147236,-0.04835508289339918,0.13269981511558893,-0.00022171541750315438,0.17227112532218358,-0.000771667111677421,-0.10123708491744676
203,0.1936,30.1756,469.044,0.00525511,119.085,-0.443507,-1.70497,-0.0498049,0.159702,-0.10725,0.125191,-0.000222966,-0.000776438,0.147957,-0.04858497253358529,0.13336490509187238,-0.0002229411449287122,0.17316121685330899,-0.000776136650014303,-0.10169893035135458
204,0.1946,30.2038,469.576,0.00521939,119.209,-0.443856,-1.70625,-0.0500463,0.16046,-0.107763,0.125777,-0.000224189,-0.000780906,0.148678,-0.04881461640208562,0.1340292515607604,-0.00022416387152401906,0.17405081016895618,-0.0007806011722619743,-0.10215964061779725
205,0.1956,30.2319,470.106,0.00518379,119.332,-0.444195,-1.70749,-0.0502875,0.161217,-0.108276,0.126362,-0.000225411,-0.000785367,0.149399,-0.04904401465006858,0.13469285275734855,-0.00022538559684925907,0.17493990311147511,-0.0007850586800577375,-0.10262011460048515
206,0.1966,30.2598,470.633,0.0051483,119.454,-0.444525,-1.7087,-0.0505285,0.161974,-0.108789,0.126947,-0.000226631,-0.000789823,0.150118,-0.04927316742851895,0.13535684227420908,-0.00022660532113483178,0.1758296693521626,-0.0007895111719160575,-0.10308035242060087
207,0.1976,30.2877,471.159,0.00511293,119.576,-0.444845,-1.70987,-0.0507694,0.16273,-0.109301,0.127532,-0.000227849,-0.000794273,0.150838,-0.0495021699380257,0.136021220338576,-0.00022782304438795364,0.1767189326813774,-0.0007939576486979405,-0.10353945773917073
208,0.1986,30.3154,471.682,0.00507768,119.698,-0.445155,-1.711,-0.05101,0.163485,-0.109813,0.128116,-0.000229065,-0.000798717,0.151556,-0.049730832206764664,0.13668485049239743,-0.00022903876661595213,0.1776076909395765,-0.0007983981104834337,-0.10399832805598297
209,0.1996,30.343,472.204,0.00504255,119.819,-0.445455,-1.7121,-0.0512506,0.16424,-0.110325,0.128699,-0.00023028,-0.000803155,0.152275,-0.04995943946597958,0.13734773097111863,-0.0002302534875959772,0.17849712046363142,-0.0008028325573525841,-0.10445696349132783
210,0.2006,30.3705,472.723,0.00500754,119.94,-0.445745,-1.71315,-0.0514909,0.164994,-0.110836,0.129282,-0.000231492,-0.000807587,0.152992,-0.05018770678525908,0.1380109980218336,-0.00023146520779437907,0.17938604237390732,-0.0008072609893852167,-0.1049144690803504
211,0.2016,30.3979,473.24,0.00497264,120.06,-0.446026,-1.71418,-0.051731,0.165748,-0.111346,0.129864,-0.000232703,-0.000812013,0.153709,-0.05041572934165661,0.13867351319589716,-0.00023267592675690896,0.1802756347840504,-0.0008116834066612677,-0.10537084631503257
212,0.2026,30.4252,473.756,0.00493786,120.18,-0.446298,-1.71517,-0.051971,0.166501,-0.111856,0.130446,-0.000233912,-0.000816432,0.154425,-0.05064360222077535,0.1393364140660187,-0.00023388464472107184,0.1811647170345001,-0.0008160988100764932,-0.10582699085666691
213,0.2036,30.4523,474.269,0.0049032,120.299,-0.44656,-1.71612,-0.0522108,0.167253,-0.112366,0.131027,-0.00023512,-0.000820846,0.155141,-0.05087123059123033,0.13999856085760776,-0.00023509236145902168,0.18205328696212875,-0.0008205091980826307,-0.10628290282389641
214,0.2046,30.4794,474.78,0.00486865,120.418,-0.446812,-1.71703,-0.0524505,0.168005,-0.112875,0.131607,-0.000236325,-0.000825253,0.155856,-0.051098709492822136,0.1406599518077396,-0.00023629707744687867,0.1829425253456507,-0.0008249125723956974,-0.10673768907343972
215,0.2056,30.5064,475.29,0.00483422,120.536,-0.447055,-1.71791,-0.0526899,0.168756,-0.113384,0.132188,-0.000237528,-0.000829653,0.156571,-0.05132584927205319,0.14132286779818726,-0.000237499792458018,0.1838312488560936,-0.0008293089331083969,-0.10719224389568516
216,0.2066,30.5332,475.798,0.00479991,120.654,-0.447289,-1.71876,-0.0529292,0.169507,-0.113893,0.132767,-0.00023873,-0.000834047,0.157285,-0.051552839835818154,0.14198388508468018,-0.00023870150626104092,0.1847206400485757,-0.0008336992794794051,-0.1076465674083994
217,0.2076,30.5599,476.303,0.00476572,120.771,-0.447513,-1.71957,-0.0531683,0.170257,-0.114401,0.133346,-0.00023993,-0.000838435,0.157999,-0.05177958644317626,0.1426452852110034,-0.00023990121909944762,0.18560951381460855,-0.0008380836115876589,-0.1080997678295027
218,0.2086,30.5866,476.807,0.00473164,120.888,-0.447728,-1.72035,-0.0534073,0.171006,-0.114908,0.133925,-0.000241127,-0.000842816,0.158712,-0.05200618404252466,0.14330706839888552,-0.00024109793122140122,0.18649786798756285,-0.0008424609303548936,-0.10855184663555195
219,0.2096,30.6131,477.309,0.00469768,121.004,-0.447934,-1.72109,-0.0536461,0.171755,-0.115416,0.134503,-0.000242323,-0.00084719,0.159424,-0.0522325379380445,0.14396809090152018,-0.00024229364215322402,0.1873868877870386,-0.0008468312358729246,-0.10900458729159812
220,0.2106,30.6395,477.809,0.00466383,121.121,-0.448131,-1.7218,-0.0538847,0.172503,-0.115922,0.13508,-0.000243517,-0.000851558,0.160136,-0.052458648278456144,0.14462835095667792,-0.00024348735214196893,0.18827538543579747,-0.0008511955273824423,-0.10945531692621413
221,0.2116,30.6659,478.307,0.0046301,121.236,-0.448319,-1.72247,-0.0541231,0.17325,-0.116429,0.135657,-0.000244708,-0.000855919,0.160847,-0.05268451521229833,0.14528899209181856,-0.0002446780614394628,0.18916335876546508,-0.0008555528058177275,-0.10990670864306318
222,0.2126,30.6921,478.803,0.00459648,121.351,-0.448497,-1.72311,-0.0543613,0.173997,-0.116935,0.136234,-0.000245898,-0.000860273,0.161558,-0.05291013888792817,0.1459500145268886,-0.00024586776956470047,0.19005199565902053,-0.0008599030712702627,-0.11035698191974364
223,0.2136,30.7182,479.298,0.00456299,121.466,-0.448667,-1.72371,-0.0545994,0.174744,-0.11744,0.13681,-0.000247086,-0.00086462,0.162268,-0.053135614139964926,0.14661027187111642,-0.00024705547676828754,0.19094129661233072,-0.0008642463238315301,-0.11080613822236218
224,0.2146,30.7443,479.79,0.0045296,121.58,-0.448828,-1.72429,-0.0548373,0.175489,-0.117945,0.137385,-0.000248272,-0.000868961,0.162977,-0.05336084638492322,0.14726976236278833,-0.0002482411830574405,0.1918288784614932,-0.0008685835627242344,-0.1112550677583114
225,0.2156,30.7702,480.281,0.00449633,121.694,-0.448979,-1.72482,-0.055075,0.176234,-0.11845,0.13796,-0.000249456,-0.000873294,0.163686,-0.05358583577068976,0.1479296321705359,-0.00024942488843904265,0.19271712180550948,-0.0008729127897724176,-0.11170377064207948
226,0.2166,30.796,480.77,0.00446318,121.808,-0.449122,-1.72533,-0.0553126,0.176979,-0.118954,0.138534,-0.000250637,-0.00087762,0.164395,-0.053810677063907186,0.1485887329232214,-0.00025060559317102715,0.19360602713737696,-0.00087723500420267,-0.11215135913989982
227,0.2176,30.8218,481.258,0.00443014,121.921,-0.449256,-1.7258,-0.05555,0.177723,-0.119458,0.139108,-0.000251817,-0.00088194,0.165102,-0.05403527574825351,0.1492482121083385,-0.0002517852967603984,0.1944944004554625,-0.0008815512052244845,-0.11259872210995503
228,0.2186,30.8474,481.743,0.00439722,122.033,-0.449381,-1.72624,-0.0557872,0.178466,-0.119961,0.139682,-0.000252995,-0.000886252,0.16581,-0.05425963197114614,0.14990806994317007,-0.0002529629994637572,0.195382239586394,-0.0008858593946872162,-0.11304497271129876
229,0.2196,30.8729,482.227,0.00436441,122.146,-0.449498,-1.72665,-0.0560243,0.179209,-0.120464,0.140254,-0.00025417,-0.000890557,0.166516,-0.05448384043144239,0.1505660055108109,-0.0002541377015420343,0.19627073862692557,-0.0008901605718042438,-0.11349099890503322
230,0.2206,30.8984,482.709,0.00433172,122.257,-0.449605,-1.72702,-0.0562611,0.179951,-0.120967,0.140827,-0.000255343,-0.000894855,0.167223,-0.054707712150570575,0.1512254687501433,-0.00025531040275073025,0.19715870090825316,-0.0008944547366659394,-0.11393680080400703
231,0.2216,30.9237,483.189,0.00429914,122.369,-0.449704,-1.72736,-0.0564978,0.180693,-0.121469,0.141399,-0.000256515,-0.000899145,0.167928,-0.05493143635630027,0.15188415808545885,-0.00025648210284034967,0.198047322302094,-0.0008987408902613181,-0.11438149290294786
232,0.2226,30.949,483.668,0.00426667,122.48,-0.449795,-1.72767,-0.0567344,0.181434,-0.121971,0.14197,-0.000257684,-0.000903428,0.168633,-0.0551550131282833,0.15254207175620316,-0.0002576508023296453,0.1989354043616871,-0.0009030200317903248,-0.11482596182247784
233,0.2236,30.9741,484.145,0.00423432,122.59,-0.449877,-1.72794,-0.0569707,0.182174,-0.122472,0.142541,-0.000258851,-0.000907704,0.169338,-0.05537825362177795,0.15320036120292735,-0.00025881750097034306,0.1998229449104163,-0.0009072921613427765,-0.11526932294437009
234,0.2246,30.9992,484.62,0.00420209,122.701,-0.44995,-1.72819,-0.0572069,0.182914,-0.122973,0.143111,-0.000260016,-0.000911972,0.170041,-0.055601346929915585,0.15385787278181073,-0.0002599821987695483,0.20071114248222033,-0.0009115562799202337,-0.11571246199797303
235,0.2256,31.0242,485.093,0.00416997,122.81,-0.450015,-1.7284,-0.0574429,0.183653,-0.123474,0.143681,-0.000261178,-0.000916233,0.170745,-0.05582419871449529,0.1545157592491273,-0.0002611438959952972,0.20159879596407904,-0.0009158133867092078,-0.1161553790945149
236,0.2266,31.0491,485.565,0.00413796,122.92,-0.450072,-1.72858,-0.0576788,0.184391,-0.123974,0.14425,-0.000262339,-0.000920486,0.171448,-0.056046903516954294,0.15517286564518096,-0.0002623045921334999,0.20248590317779924,-0.0009200624827191417,-0.11659719094280119
237,0.2276,31.0739,486.036,0.00410607,123.029,-0.45012,-1.72873,-0.0579145,0.185129,-0.124473,0.144819,-0.000263497,-0.000924731,0.17215,-0.05626936704343888,0.15583034604116675,-0.00026346228771445546,0.20337366531828138,-0.0009243035680521761,-0.11703789897872108
238,0.2286,31.0986,486.504,0.00407429,123.137,-0.450159,-1.72885,-0.05815,0.185867,-0.124973,0.145387,-0.000264653,-0.000928969,0.172851,-0.05649158943978583,0.15648704416232917,-0.0002646179824840056,0.2042620828690398,-0.0009285376418816105,-0.11747926967736178
239,0.2296,31.1232,486.971,0.00404262,123.246,-0.450191,-1.72894,-0.0583853,0.186604,-0.125472,0.145955,-0.000265807,-0.0009332,0.173552,-0.056713570851653405,0.15714411539397743,-0.0002657716764491447,0.2051499511633923,-0.0009327647042964848,-0.1179195376657941
240,0.2306,31.1478,487.436,0.00401107,123.354,-0.450214,-1.72899,-0.0586205,0.18734,-0.12597,0.146522,-0.000266959,-0.000937422,0.174253,-0.056935405730984656,0.157800402147118,-0.00026692336961686713,0.2060372680199971,-0.000936982757259619,-0.11835870437444984
241,0.2316,31.1722,487.9,0.00397963,123.461,-0.450229,-1.72902,-0.0588555,0.188075,-0.126468,0.147089,-0.000268109,-0.000941637,0.174953,-0.05715699987230649,0.15845706112036195,-0.0002680730619939453,0.20692403125756065,-0.0009411937990024821,-0.11879765243253315
242,0.2326,31.1966,488.362,0.00395195,123.568,-0.450235,-1.72901,-0.0590903,0.18881,-0.126966,0.147655,-0.000269256,-0.000945844,0.175652,-0.05737835342081288,0.15911293341130506,-0.00026921975385651997,0.2078114465056884,-0.0009453968305591642,-0.11923638194890496
243,0.2336,31.2209,488.823,0.00391246,123.675,-0.450235,-1.72897,-0.059325,0.189545,-0.127463,0.148221,-0.000270401,-0.000950043,0.176351,-0.057599560761568136,0.159769177031041,-0.0002703644449445486,0.20869951424378397,-0.0009495918520303626,-0.11967401270682476
244,0.2346,31.245,489.282,0.00388795,123.781,-0.450224,-1.72891,-0.0595595,0.190279,-0.12796,0.148786,-0.000271543,-0.000954234,0.17705,-0.05782052775517699,0.1604246317645892,-0.00027150613553639236,0.20958702536397422,-0.0009537788635169964,-0.12011142601629832
245,0.2356,31.2692,489.739,0.00385378,123.887,-0.450207,-1.72881,-0.0597938,0.191012,-0.128456,0.149351,-0.000272684,-0.000958417,0.177747,-0.05804125454637066,0.1610804569347004,-0.0002726468250972003,0.21047397768187803,-0.0009579578651196519,-0.12054774253355283
246,0.2366,31.2932,490.195,0.00382482,123.993,-0.450181,-1.72868,-0.060028,0.191745,-0.128952,0.149915,-0.000273822,-0.000962593,0.178445,-0.05826183545352337,0.16173549101465845,-0.00027378451417769956,0.21136158037416397,-0.0009621298559765457,-0.12098384269147644
247,0.2376,31.3171,490.65,0.00379303,124.098,-0.450148,-1.72852,-0.060262,0.192477,-0.129448,0.150479,-0.000274958,-0.00096676,0.179141,-0.0584821764031308,0.16239089463803902,-0.00027492020251340676,0.21224862166850333,-0.0009662928381077851,-0.12141972659735656
248,0.2386,31.341,491.102,0.00376297,124.203,-0.450106,-1.72834,-0.0604958,0.193209,-0.129943,0.151042,-0.000276091,-0.000970919,0.179838,-0.05870227753946222,0.16304550496723702,-0.000276052890387235,0.21313631251477716,-0.0009704478106555836,-0.12185451621338306
249,0.2396,31.3647,491.554,0.00373211,124.308,-0.450056,-1.72812,-0.0607294,0.19394,-0.130438,0.151605,-0.000277222,-0.00097507,0.180533,-0.05892213900660992,0.16370048394581538,-0.00027718357753192535,0.21402343936458523,-0.0009745947737197502,-0.12228909066180804
250,0.2406,31.3884,492.004,0.00370188,124.412,-0.449999,-1.72787,-0.0609629,0.19467,-0.130932,0.152167,-0.000278351,-0.000979212,0.181228,-0.059141855034307356,0.1643546674261327,-0.0002783122639545832,0.2149100000305939,-0.0009787327283784508,-0.1227225727721244
251,0.2416,31.4121,492.452,0.00367147,124.516,-0.449934,-1.7276,-0.0611962,0.1954,-0.131426,0.152729,-0.000279478,-0.000983347,0.181923,-0.059361331636586634,0.16500921866089513,-0.00027943894966175886,0.21579720812217018,-0.0009828636727778894,-0.12315584079516217
252,0.2426,31.4356,492.899,0.00364134,124.619,-0.449861,-1.72729,-0.0614294,0.196129,-0.13192,0.153291,-0.000280602,-0.000987473,0.182617,-0.05958066299901821,0.16566413785683887,-0.00028056263494080635,0.2166838474276518,-0.0009869856089788076,-0.12358889483665436
253,0.2436,31.459,493.344,0.00361122,124.723,-0.44978,-1.72696,-0.0616624,0.196858,-0.132413,0.153851,-0.000281724,-0.000991591,0.18331,-0.059799755179309244,0.1663170925842985,-0.0002816843195203589,0.21757113332884237,-0.0009910995361015473,-0.12402085902357884
254,0.2446,31.4824,493.788,0.00358128,124.825,-0.449691,-1.72659,-0.0618952,0.197586,-0.132906,0.154412,-0.000282843,-0.0009957,0.184003,-0.06001860832080941,0.1669715800398044,-0.00028280300368965783,0.2184578478388255,-0.0009952044552399286,-0.12445261030464472
255,0.2456,31.5057,494.23,0.00355141,124.928,-0.449595,-1.7262,-0.0621278,0.198313,-0.133398,0.154972,-0.00028396,-0.000999801,0.184695,-0.060237222566691506,0.16762526713993187,-0.00028391968717500493,0.21934398876740246,-0.0009993013655057448,-0.12488327366849994
256,0.2466,31.5289,494.671,0.00352168,125.03,-0.449491,-1.72578,-0.0623603,0.19904,-0.13389,0.155531,-0.000285075,-0.00100389,0.185387,-0.060455692014387385,0.16827815212861608,-0.00028503436998317255,0.22023077415466719,-0.001003386271010931,-0.1253137251980957
257,0.2476,31.5521,495.111,0.00349205,125.132,-0.44938,-1.72533,-0.0625926,0.199767,-0.134382,0.15609,-0.000286187,-0.00100798,0.186078,-0.060673922808644254,0.1689314021820354,-0.00028614605240684376,0.22111820446931074,-0.001007472158805367,-0.12574396499762874
258,0.2486,31.5751,495.549,0.00346253,125.233,-0.449261,-1.72485,-0.0628248,0.200493,-0.134873,0.156648,-0.000287297,-0.00101205,0.186769,-0.060892009002981085,0.1695838479198848,-0.0002872557341688786,0.2220050581746973,-0.0010115380501195537,-0.1261731193448009
259,0.2496,31.5981,495.985,0.00343313,125.334,-0.449134,-1.72435,-0.0630568,0.201218,-0.135364,0.157206,-0.000288404,-0.00101612,0.187459,-0.06110985678557246,0.17023665782404884,-0.00028836241556418063,0.2228913330777056,-0.001015603924885644,-0.12660206302891064
260,0.2506,31.621,496.42,0.00340384,125.435,-0.449,-1.72381,-0.0632886,0.201942,-0.135855,0.157764,-0.000289509,-0.00102018,0.188149,-0.06132746629885266,0.17088983209778918,-0.0002894670963133894,0.22377702698536028,-0.0010196597933003204,-0.1270307961533681
261,0.2516,31.6438,496.854,0.00337466,125.536,-0.448859,-1.72325,-0.0635202,0.202667,-0.136345,0.158321,-0.000290612,-0.00102423,0.188838,-0.06154483768507968,0.17154219940169524,-0.00029056977642305526,0.22466458703156444,-0.001023705655485263,-0.12745844628041525
262,0.2526,31.6666,497.287,0.00334559,125.636,-0.44871,-1.72266,-0.0637517,0.20339,-0.136834,0.158877,-0.000291712,-0.00102827,0.189526,-0.06176206491013414,0.17219375798106284,-0.0002916694561915234,0.22555033968898974,-0.0010277415115620414,-0.12788501479568204
263,0.2536,31.6893,497.718,0.00331664,125.736,-0.448553,-1.72204,-0.0639831,0.204113,-0.137324,0.159433,-0.00029281,-0.0010323,0.190214,-0.06197914805082583,0.17284567892772906,-0.0002927671353357697,0.22643673297714662,-0.0010317673616516698,-0.12831224645812667
264,0.2546,31.7119,498.147,0.0032878,125.835,-0.448389,-1.72139,-0.0642142,0.204835,-0.137812,0.159989,-0.000293905,-0.00103633,0.190902,-0.06219589962310246,0.17349796244322646,-0.00029386181415647084,0.22732254003622465,-0.001035793195517054,-0.12873752630513258
265,0.2556,31.7344,498.576,0.00325907,125.934,-0.448218,-1.72072,-0.0644452,0.205557,-0.138301,0.160544,-0.000294997,-0.00104034,0.191589,-0.062412507351133795,0.17414943457917764,-0.00029495349266328574,0.22820898687893343,-0.0010397990339546803,-0.12916346950316981
266,0.2566,31.7569,499.003,0.00323045,126.033,-0.44804,-1.72002,-0.064676,0.206279,-0.138789,0.161098,-0.000296088,-0.00104435,0.192275,-0.06262887757435287,0.1748000935818368,-0.00029604417027406793,0.22909607396736376,-0.0010438048563288227,-0.12958833405467018
267,0.2576,31.7793,499.428,0.00320195,126.132,-0.447854,-1.71929,-0.0649067,0.206999,-0.139277,0.161652,-0.000297175,-0.00104834,0.192961,-0.06284510414960198,0.17545111314945072,-0.00029713084788340893,0.22998134179879592,-0.0010477906835957285,-0.1300129913228506
268,0.2586,31.8016,499.852,0.00317355,126.23,-0.447662,-1.71854,-0.0651372,0.207719,-0.139764,0.162206,-0.000298261,-0.00105233,0.193646,-0.06306109345937128,0.1761024934818276,-0.00029821652460981785,0.23086724725258323,-0.0010517764949592445,-0.13043657184584734
269,0.2596,31.8239,500.275,0.00314527,126.328,-0.447462,-1.71775,-0.0653675,0.208439,-0.140251,0.162759,-0.000299343,-0.00105631,0.194331,-0.0632768456447298,0.17675305802524033,-0.0002992982013543255,0.2317537907879792,-0.0010557523009768754,-0.13085994613535123
270,0.2606,31.8461,500.697,0.00311711,126.426,-0.447254,-1.71694,-0.0655977,0.209158,-0.140737,0.163312,-0.000300424,-0.00106028,0.195015,-0.06349245449733132,0.17740398243033817,-0.00030037887722889067,0.2326397402242113,-0.0010597181017681923,-0.13128224557445367
271,0.2616,31.8682,501.117,0.00308905,126.523,-0.44704,-1.71611,-0.0658277,0.209877,-0.141223,0.163864,-0.000301501,-0.00106424,0.195699,-0.06370782646407136,0.17805408884150165,-0.0003014555531409835,0.2335263268871437,-0.0010636738974519888,-0.13170433982589325
272,0.2626,31.8902,501.536,0.00306111,126.62,-0.446819,-1.71525,-0.0660575,0.210594,-0.141709,0.164416,-0.000302577,-0.0010682,0.196382,-0.06392296168556622,0.17870455421046727,-0.00030253122819612344,0.23441108241047326,-0.0010676296774708716,-0.1321262289893671
273,0.2636,31.9122,501.954,0.00303327,126.717,-0.44659,-1.71436,-0.0662872,0.211312,-0.142195,0.164967,-0.000303649,-0.00107214,0.197065,-0.06413795388846733,0.17935419938064556,-0.00030360290330821993,0.23529770782807913,-0.0010715654632564853,-0.13254791316452375
274,0.2646,31.9341,502.37,0.00300555,126.813,-0.446355,-1.71344,-0.0665167,0.212029,-0.14268,0.165518,-0.000304719,-0.00107607,0.197747,-0.06435270958389128,0.18000420260394723,-0.0003046725778809156,0.2361837338869759,-0.0010754912442900721,-0.1329685254199221
275,0.2656,31.9559,502.785,0.00297794,126.909,-0.446112,-1.7125,-0.0667461,0.212745,-0.143164,0.166068,-0.000305787,-0.00108,0.198429,-0.06456732245527519,0.18065338342374004,-0.00030574025192042775,0.23706915838458276,-0.0010794170098953337,-0.13338806711633833
276,0.2666,31.9777,503.199,0.00295045,127.005,-0.445863,-1.71153,-0.0669753,0.213461,-0.143648,0.166618,-0.000306852,-0.00108392,0.19911,-0.06478169905647146,0.1813029213911903,-0.00030680492574008955,0.23795521707314293,-0.001083332770905776,-0.13380740580370565
277,0.2676,31.9994,503.612,0.00292306,127.101,-0.445607,-1.71054,-0.0672043,0.214176,-0.144132,0.167167,-0.000307914,-0.00108782,0.199791,-0.06499583952736776,0.18195163475055787,-0.00030786659934955996,0.23884067156560906,-0.0010872285383112246,-0.1342265415802567
278,0.2686,32.021,504.023,0.00289579,127.196,-0.445344,-1.70952,-0.0674332,0.21489,-0.144616,0.167716,-0.000308974,-0.00109172,0.200471,-0.06520983748669917,0.18260070435133868,-0.0003089262724492725,0.23972551965828504,-0.00109112429052316,-0.1346454745441764
279,0.2696,32.0426,504.433,0.00286863,127.291,-0.445074,-1.70848,-0.0676619,0.215604,-0.145099,0.168264,-0.000310031,-0.00109561,0.20115,-0.06542359955224208,0.1832489471396248,-0.0003099829453557801,0.24061099975809874,-0.0010950100384918837,-0.13506333985737484
280,0.2706,32.0641,504.842,0.00284158,127.385,-0.444797,-1.70741,-0.0678904,0.216318,-0.145581,0.168812,-0.000311086,-0.00109949,0.201829,-0.06563712586343429,0.1838975452623115,-0.0003110376177674068,0.24149711231646465,-0.0010988857823339693,-0.1354801388709319
281,0.2716,32.0855,505.249,0.00281464,127.48,-0.444513,-1.70631,-0.0681188,0.217031,-0.146064,0.16936,-0.000312138,-0.00110336,0.202508,-0.06585050997449393,0.18454649891417563,-0.0003120892900027039,0.24238261540188288,-0.001102751522165768,-0.13589760113860383
282,0.2726,32.1069,505.655,0.00278781,127.574,-0.444223,-1.70519,-0.068347,0.217743,-0.146545,0.169907,-0.000313187,-0.00110722,0.203186,-0.06606365856693841,0.18519462309488466,-0.0003131379620709973,0.24326750680800702,-0.0011066072581034092,-0.13631313444868354
283,0.2736,32.1282,506.06,0.0027611,127.668,-0.443926,-1.70404,-0.068575,0.218455,-0.147027,0.170454,-0.000314234,-0.00111107,0.203863,-0.06627657177975654,0.18584310189650055,-0.0003141846336676135,0.24415302848116083,-0.0011104529902623561,-0.13672933120640296
284,0.2746,32.1494,506.464,0.0027345,127.761,-0.443622,-1.70287,-0.0688029,0.219166,-0.147508,0.171,-0.000315278,-0.00111491,0.20454,-0.06648934310283472,0.1864907490217118,-0.0003152283051141014,0.24503793583169564,-0.001114288718758294,-0.13714446455051965
285,0.2756,32.1706,506.867,0.002708,127.854,-0.443311,-1.70167,-0.0690307,0.219877,-0.147989,0.171545,-0.00031632,-0.00111874,0.205216,-0.06670197261105537,0.18713756272065152,-0.000316269976103456,0.24592347257507963,-0.0011181144437062418,-0.13755939826351293
286,0.2766,32.1917,507.268,0.00268162,127.947,-0.442994,-1.70045,-0.0692582,0.220587,-0.148469,0.17209,-0.000317358,-0.00112256,0.205892,-0.06691427376211478,0.18778472902913457,-0.0003173076472766656,0.246808392349954,-0.0011219301652209968,-0.13797327041508367
287,0.2776,32.2128,507.669,0.00265536,128.04,-0.442671,-1.6992,-0.0694856,0.221297,-0.148949,0.172635,-0.000318395,-0.00112638,0.206568,-0.06712643333280388,0.18843224813938564,-0.0003183443176911771,0.24769394064096528,-0.0011257458721597446,-0.13838694395569218
288,0.2786,32.2338,508.068,0.0026292,128.132,-0.44234,-1.69793,-0.0697129,0.222006,-0.149429,0.17318,-0.000319428,-0.00113018,0.207242,-0.06733845139774142,0.18908012024373377,-0.00031937698830808436,0.24857886931502504,-0.0011295415871136472,-0.13880041898064877
289,0.2796,32.2547,508.466,0.00260315,128.224,-0.442004,-1.69664,-0.06994,0.222714,-0.149908,0.173723,-0.000320459,-0.00113397,0.207917,-0.067550234786515,0.1897259660803019,-0.0003204076584990556,0.2494631761621846,-0.0011333272989770826,-0.13921283479848323
290,0.2806,32.2755,508.862,0.00257722,128.316,-0.44166,-1.69532,-0.0701669,0.223422,-0.150387,0.174267,-0.000321487,-0.00113776,0.20859,-0.06776178363711716,0.19037335307914782,-0.00032143532859174595,0.25034810932027995,-0.0011371129964926618,-0.1396250531164459
291,0.2816,32.2963,509.258,0.0025514,128.408,-0.441311,-1.69397,-0.0703937,0.22413,-0.150865,0.17481,-0.000322513,-0.00114153,0.209264,-0.0679731912900543,0.19101990133183433,-0.0003224609982729332,0.25123366923289625,-0.001140878702478365,-0.14003621406576072
292,0.2826,32.3171,509.652,0.00252568,128.499,-0.440954,-1.6926,-0.0706203,0.224837,-0.151344,0.175352,-0.000323536,-0.0011453,0.209937,-0.06818436463806399,0.19166560908935137,-0.0003234836678722708,0.25211860422470234,-0.0011446443942673135,-0.1404480380794979
293,0.2836,32.3378,510.045,0.00250008,128.59,-0.440592,-1.69121,-0.0708467,0.225543,-0.151821,0.175894,-0.000324556,-0.00114905,0.210609,-0.06839530381869363,0.19231166691533286,-0.0003245033373988626,0.253002912083228,-0.0011483900948275894,-0.140857946594381
294,0.2846,32.3584,510.438,0.00247459,128.681,-0.440223,-1.68979,-0.071073,0.226249,-0.152299,0.176436,-0.000325573,-0.0011528,0.211281,-0.06860610210871343,0.1929580749995674,-0.00032552000686203453,0.2538878444835393,-0.0011521357813416566,-0.14126851836143905
295,0.2856,32.3789,510.828,0.00244922,128.771,-0.439848,-1.68835,-0.0712991,0.226954,-0.152776,0.176977,-0.000326588,-0.00115653,0.211952,-0.06881666646382922,0.1936036399277099,-0.00032653467594423446,0.2547721470939437,-0.0011558614769267006,-0.14167803560055436
296,0.2866,32.3994,511.218,0.00242395,128.862,-0.439466,-1.68689,-0.0715251,0.227659,-0.153252,0.177517,-0.0003276,-0.00116026,0.212623,-0.06902709011843977,0.19424835995201084,-0.00032754634497933477,0.2556570733575003,-0.001159587158614972,-0.14208649963345643
297,0.2876,32.4199,511.607,0.00239879,128.952,-0.439078,-1.6854,-0.0717509,0.228363,-0.153729,0.178058,-0.00032861,-0.00116398,0.213293,-0.06923728007015251,0.1948946231131674,-0.00032855601364756293,0.25654136717204423,-0.0011633028380395594,-0.14249562678854732
298,0.2886,32.4403,511.994,0.00237375,129.041,-0.438684,-1.68389,-0.0719766,0.229067,-0.154204,0.178597,-0.000329616,-0.00116768,0.213962,-0.06944732951106958,0.19553884491720508,-0.0003295616826144432,0.2574262837486201,-0.0011669985269820993,-0.14290284464392566
299,0.2896,32.4606,512.381,0.00234882,129.131,-0.438284,-1.68236,-0.0722021,0.22977,-0.15468,0.179137,-0.00033062,-0.00117138,0.214632,-0.06965714548062518,0.1961846102344038,-0.00033056535123066055,0.25831056521461226,-0.0011706942022505773,-0.1433107258064571
300,0.2906,32.4809,512.766,0.00232399,129.22,-0.437877,-1.6808,-0.0724274,0.230473,-0.155155,0.179675,-0.000331621,-0.00117507,0.2153,-0.06986672811537797,0.1968283306999885,-0.00033156601983386214,0.2591954685490363,-0.0011743798755888823,-0.14371755658174057
301,0.2916,32.5011,513.15,0.00229928,129.309,-0.437464,-1.67922,-0.0726526,0.231175,-0.15563,0.180214,-0.00033262,-0.00117874,0.215969,-0.07007617054410376,0.19747359505335704,-0.0003325646881006117,0.260079734108855,-0.001178045558888119,-0.14412419415829425
302,0.2926,32.5212,513.534,0.00227468,129.398,-0.437045,-1.67761,-0.0728776,0.231876,-0.156104,0.180752,-0.000333616,-0.00118241,0.216636,-0.07028537986879979,0.19811800917935218,-0.00033356035637033266,0.26096335967704243,-0.00118171122873445,-0.1445297831580764
303,0.2936,32.5413,513.916,0.00225019,129.486,-0.43662,-1.67598,-0.0731024,0.232577,-0.156578,0.181289,-0.000334608,-0.00118607,0.217303,-0.07049435622558264,0.19876157133125405,-0.00033455202498655634,0.2618476048839111,-0.0011853668969814546,-0.14493517995422855
304,0.2946,32.5614,514.297,0.00222581,129.574,-0.436189,-1.67433,-0.0733271,0.233278,-0.157052,0.181826,-0.000335599,-0.00118971,0.21797,-0.0707031926800844,0.19940547916883955,-0.0003355426929546601,0.26273247016398016,-0.001189002575629039,-0.1453403846378336
305,0.2956,32.5813,514.677,0.00220155,129.662,-0.435752,-1.67266,-0.0735517,0.233978,-0.157525,0.182363,-0.000336586,-0.00119335,0.218636,-0.07091188930550019,0.20004973287779237,-0.00033652936128703015,0.26361669233474894,-0.001192638241042765,-0.14574454304490148
306,0.2966,32.6013,515.055,0.00217739,129.75,-0.435309,-1.67097,-0.0737761,0.234677,-0.157998,0.182899,-0.000337571,-0.00119698,0.219302,-0.0711203532870065,0.20069313195016236,-0.00033751402932069574,0.2645002691768208,-0.0011962639051853463,-0.14614851033024667
307,0.2976,32.6211,515.433,0.00215334,129.837,-0.43486,-1.66925,-0.0740003,0.235376,-0.158471,0.183435,-0.000338553,-0.00120059,0.219967,-0.07132858476017923,0.20133687597687477,-0.0003384956973999653,0.265384463855014,-0.001199869580164381,-0.14655228658424835
308,0.2986,32.6409,515.81,0.00212941,129.925,-0.434405,-1.66751,-0.0742244,0.236074,-0.158943,0.18397,-0.000339532,-0.0012042,0.220632,-0.0715366767067609,0.2019797631625102,-0.00033947436553360966,0.2662680105327029,-0.00120347524212705,-0.14695501885268836
309,0.2996,32.6607,516.185,0.00210558,130.012,-0.433944,-1.66574,-0.0744483,0.236772,-0.159415,0.184505,-0.000340508,-0.0012078,0.221296,-0.07174453637408817,0.20262299438481168,-0.0003404500337305105,0.2671521741412568,-0.0012070709031439808,-0.14735756107635178
310,0.3006,32.6804,516.56,0.00208187,130.098,-0.433477,-1.66396,-0.074672,0.237469,-0.159886,0.18504,-0.000341481,-0.00121138,0.221959,-0.07195216389729697,0.20326656982788815,-0.0003414227019994387,0.2680356870751226,-0.0012106465754296858,-0.14775906110440573
311,0.3016,32.7001,516.933,0.00205827,130.185,-0.433004,-1.66215,-0.0748956,0.238166,-0.160357,0.185574,-0.000342452,-0.00121496,0.222623,-0.07215965219539333,0.2039092857660587,-0.00034239337000674386,0.2689198160321622,-0.0012142222349145193,-0.14816037207047417
312,0.3026,32.7197,517.306,0.00203478,130.271,-0.432525,-1.66032,-0.0751191,0.238862,-0.160828,0.186107,-0.00034342,-0.00121853,0.223285,-0.0723670013409975,0.20455114045445133,-0.0003433610381015084,0.26980329163796735,-0.0012177878937763564,-0.1485614940635841
313,0.3036,32.7392,517.677,0.00201139,130.357,-0.432041,-1.65847,-0.0753424,0.239558,-0.161298,0.18664,-0.000344385,-0.00122208,0.223947,-0.07257411866408836,0.20519333734258072,-0.0003443257062927252,0.27068738235682854,-0.001221333564335847,-0.14896157613472272
314,0.3046,32.7587,518.048,0.00198812,130.443,-0.431551,-1.6566,-0.0755655,0.240253,-0.161768,0.187173,-0.000345347,-0.00122563,0.224609,-0.0727810042992636,0.20583587661288827,-0.00034528737458883185,0.27157081704556085,-0.0012248792223080729,-0.14936147021146995
315,0.3056,32.7781,518.417,0.00196496,130.528,-0.431055,-1.6547,-0.0757885,0.240948,-0.162238,0.187705,-0.000346307,-0.00122916,0.22527,-0.0729877510821818,0.20647755196975726,-0.00034624704265229234,0.2724548659348116,-0.0012284048922616142,-0.14976117638216246
316,0.3066,32.7975,518.786,0.00194191,130.614,-0.430553,-1.65279,-0.0760113,0.241642,-0.162707,0.188237,-0.000347264,-0.00123269,0.225931,-0.07319426640457949,0.20711956878873683,-0.0003472037108360748,0.27333825611270623,-0.0012319305497695554,-0.15015984489536527
317,0.3076,32.8169,519.153,0.00191897,130.699,-0.430045,-1.65085,-0.076234,0.242336,-0.163176,0.188768,-0.000348217,-0.00123621,0.226591,-0.0734006430605576,0.2077607194902098,-0.00034815637949703326,0.2742222595761694,-0.001235446207186519,-0.15055832647687428
318,0.3086,32.8361,519.52,0.00189614,130.784,-0.429532,-1.64889,-0.0764565,0.243029,-0.163645,0.189299,-0.000349168,-0.00123971,0.227251,-0.073606788482948,0.20840221073311116,-0.0003491070479482161,0.27510560164473064,-0.001238941877007349,-0.15095662121433995
319,0.3096,32.8554,519.885,0.00187342,130.868,-0.429013,-1.64691,-0.0766788,0.243721,-0.164113,0.18983,-0.000350116,-0.00124321,0.22791,-0.07381270280564323,0.20904404269831622,-0.0003500547165455892,0.27598828009258813,-0.0012424375345932992,-0.15135388054967636
320,0.3106,32.8745,520.249,0.00185082,130.953,-0.428489,-1.64491,-0.076901,0.244413,-0.164581,0.19036,-0.000351062,-0.00124669,0.228568,-0.07401847876052459,0.20968500588118588,-0.0003510003849465093,0.27687156956532166,-0.0012459132048631139,-0.1517509540111418
321,0.3116,32.8937,520.613,0.00182832,131.037,-0.427959,-1.64289,-0.0771231,0.245105,-0.165048,0.190889,-0.000352004,-0.00125016,0.229227,-0.07422411641948456,0.21032509853887804,-0.00035194205386068766,0.2777554704859071,-0.0012493788755313373,-0.15214699383312247
322,0.3126,32.9127,520.975,0.00180593,131.121,-0.427423,-1.64084,-0.077345,0.245796,-0.165515,0.191419,-0.000352944,-0.00125363,0.229884,-0.07442952329731511,0.2109667408612994,-0.00035288172259351214,0.27863870463826856,-0.001252844534173625,-0.15254284874768553
323,0.3136,32.9318,521.337,0.00178365,131.204,-0.426882,-1.63878,-0.0775667,0.246486,-0.165982,0.191947,-0.000353881,-0.00125708,0.230541,-0.07463469952737467,0.21160630012926251,-0.00035381839150450123,0.27952126979443204,-0.0012562902059162218,-0.1529385188411626
324,0.3146,32.9507,521.697,0.00176148,131.288,-0.426335,-1.6367,-0.0777883,0.247176,-0.166448,0.192476,-0.000354814,-0.00126052,0.231198,-0.0748397377588843,0.2122474094204878,-0.00035475106095683717,0.2804044441306963,-0.0012597258783685339,-0.1533331575334258
325,0.3156,32.9697,522.057,0.00173943,131.371,-0.425783,-1.63459,-0.0780097,0.247866,-0.166914,0.193004,-0.000355745,-0.00126396,0.231854,-0.07504454556788343,0.21288764505999658,-0.00035568173025035676,0.2812882280675406,-0.0012631615390021889,-0.1537276123669009
326,0.3166,32.9885,522.415,0.00171748,131.454,-0.425225,-1.63246,-0.078231,0.248555,-0.16738,0.193531,-0.000356674,-0.00126738,0.23251,-0.07524921556237907,0.21352700530557067,-0.0003566103993906111,0.28217133985375353,-0.001266577213148934,-0.15412188342724598
327,0.3176,33.0074,522.773,0.00169564,131.537,-0.424662,-1.63032,-0.0784521,0.249243,-0.167845,0.194058,-0.000357599,-0.00127079,0.233165,-0.07545365535916582,0.21416670258279402,-0.0003575350690984136,0.2830537772592323,-0.0012699828883139253,-0.1545151253156275
328,0.3186,33.0261,523.13,0.00167391,131.62,-0.424094,-1.62815,-0.0786731,0.249931,-0.16831,0.194585,-0.000358521,-0.00127419,0.23382,-0.07565795752511062,0.2148067370693294,-0.00035845673902612507,0.28393682199054227,-0.0012733785645995255,-0.15490818438903875
329,0.3196,33.0449,523.485,0.0016523,131.702,-0.42352,-1.62596,-0.0788939,0.250618,-0.168775,0.195111,-0.000359441,-0.00127758,0.234474,-0.07586202971768985,0.2154458934964314,-0.0003593764088228868,0.2848191896458352,-0.001276764242107431,-0.15530106073246885
330,0.3206,33.0636,523.84,0.00163079,131.784,-0.422941,-1.62376,-0.0791146,0.251305,-0.169239,0.195637,-0.000360357,-0.00128096,0.235128,-0.0760659644627043,0.21608538620824946,-0.00036029207921473017,0.28570216369598,-0.0012801399209394493,-0.15569291012419983
331,0.3216,33.0822,524.194,0.00160939,131.866,-0.422356,-1.62153,-0.0793351,0.251992,-0.169703,0.196162,-0.000361271,-0.00128433,0.235781,-0.07626966945823921,0.21672399865710856,-0.0003612057494901677,0.28658574455771335,-0.0012835056011967216,-0.1560845777399883
332,0.3226,33.1008,524.547,0.0015881,131.948,-0.421766,-1.61928,-0.0795554,0.252678,-0.170167,0.196687,-0.000362182,-0.00128769,0.236434,-0.07647314483642165,0.21736294646552734,-0.00036211642001693356,0.2874686451787687,-0.0012868612829802784,-0.15647606366415878
333,0.3236,33.1193,524.899,0.00156692,132.029,-0.421171,-1.61701,-0.0797756,0.253363,-0.17063,0.197211,-0.00036309,-0.00129104,0.237086,-0.07667648306156849,0.21800101180799514,-0.00036302409080313236,0.28835086332593507,-0.0012902069663910387,-0.15686652484794295
334,0.3246,33.1378,525.25,0.00154586,132.111,-0.420571,-1.61473,-0.0799957,0.254048,-0.171093,0.197736,-0.000363995,-0.00129438,0.237738,-0.0768796842045405,0.21864063022433755,-0.00036392876185697975,0.2892336859995588,-0.0012935426515291448,-0.15725680529004404
335,0.3256,33.1562,525.6,0.0015249,132.192,-0.419965,-1.61242,-0.0802156,0.254732,-0.171555,0.198259,-0.000364897,-0.0012977,0.238389,-0.07708265604441222,0.21927814596978057,-0.00036483043318658037,0.29011582349741394,-0.0012968583514634258,-0.15764606272060988
336,0.3266,33.1746,525.949,0.00150405,132.273,-0.419355,-1.61009,-0.0804353,0.255416,-0.172017,0.198782,-0.000365796,-0.00130102,0.23904,-0.07728539871278173,0.2199159952231633,-0.00036572910480014986,0.2909985645837214,-0.0013001740403897344,-0.1580351403557787
337,0.3276,33.193,526.297,0.00148331,132.353,-0.418739,-1.60775,-0.0806549,0.256099,-0.172479,0.199305,-0.000366692,-0.00130433,0.239691,-0.07748800459228455,0.22055417815895617,-0.0003666247767055708,0.2918806177902131,-0.001303479731342705,-0.15842403827859675
338,0.3286,33.2113,526.645,0.00146268,132.434,-0.418117,-1.60538,-0.0808744,0.256782,-0.17294,0.199828,-0.000367586,-0.00130762,0.240341,-0.07769047375347315,0.22119269495172,-0.00036751844854354676,0.2927632736448258,-0.001306765437489421,-0.1588119153844081
339,0.3296,33.2295,526.991,0.00144215,132.514,-0.417491,-1.603,-0.0810937,0.257464,-0.173401,0.20035,-0.000368476,-0.00131091,0.24099,-0.07789271405611942,0.22183032394517355,-0.00036840812105620735,0.293645238913423,-0.0013100511328261177,-0.1591996137200834
340,0.3306,33.2477,527.337,0.00142174,132.594,-0.41686,-1.6006,-0.0813128,0.258146,-0.173862,0.200871,-0.000369364,-0.00131418,0.241639,-0.0780947256312935,0.22246706340017397,-0.0003692957935156338,0.2945278058874914,-0.0013133168436194609,-0.15958713336801655
341,0.3316,33.2659,527.682,0.00140144,132.674,-0.416223,-1.59817,-0.0815318,0.258827,-0.174323,0.201392,-0.000370248,-0.00131744,0.242287,-0.07829660078024459,0.22310413468286394,-0.00037017946666761947,0.2954096795672072,-0.0013165725568997644,-0.15997447441056378
342,0.3326,33.284,528.026,0.00138125,132.754,-0.415582,-1.59573,-0.0817507,0.259508,-0.174783,0.201913,-0.00037113,-0.0013207,0.242935,-0.07849833957321728,0.2237415379661709,-0.00037106113978047084,0.2962921540074346,-0.0013198282595664468,-0.16036079729126018
343,0.3336,33.3021,528.368,0.00136116,132.833,-0.414936,-1.59327,-0.0819693,0.260189,-0.175242,0.202433,-0.000372009,-0.00132394,0.243583,-0.07869975782037009,0.2243780490444509,-0.000371939813231581,0.2971752296174308,-0.0013230639780810183,-0.16074610325082106
344,0.3346,33.3201,528.711,0.00134119,132.912,-0.414284,-1.59079,-0.0821879,0.260868,-0.175702,0.202953,-0.000372884,-0.00132717,0.24423,-0.0789011320423062,0.22501489119456286,-0.00037281448740156264,0.2980563106915144,-0.0013262896993747608,-0.16113207126387674
345,0.3356,33.3381,529.052,0.00132132,132.991,-0.413628,-1.58829,-0.0824063,0.261548,-0.176161,0.203473,-0.000373757,-0.00133039,0.244876,-0.07910227806912251,0.2256520645887088,-0.00037368716155361525,0.2989392891614404,-0.001329505423544708,-0.16151702328991813
346,0.3366,33.3561,529.392,0.00130156,133.07,-0.412966,-1.58578,-0.0826245,0.262226,-0.176619,0.203992,-0.000374627,-0.0013336,0.245522,-0.07930319603110103,0.2262883431102245,-0.00037455683606746337,0.29982026861778,-0.0013327111506870049,-0.1619009605649041
347,0.3376,33.374,529.732,0.00128191,133.149,-0.4123,-1.58324,-0.0828426,0.262905,-0.177078,0.204511,-0.000375494,-0.0013368,0.246168,-0.07950397810796528,0.2269249519460017,-0.0003754235109509896,0.3007031462832186,-0.001335906880898241,-0.16228555975173908
348,0.3386,33.3918,530.07,0.00126237,133.227,-0.411629,-1.58069,-0.0830605,0.263582,-0.177536,0.205029,-0.000376358,-0.00133998,0.246813,-0.07970453233995844,0.22756066370624084,-0.00037628718621196544,0.30158402045551536,-0.0013390826276649115,-0.16266914511761876
349,0.3396,33.4096,530.408,0.00124294,133.306,-0.410953,-1.57812,-0.0832783,0.26426,-0.177993,0.205547,-0.000377219,-0.00134316,0.247458,-0.079904950866445,0.22819670485047494,-0.0003771478618581625,0.3024667936476799,-0.0013422583643326602,-0.16305171789376238
350,0.3406,33.4274,530.745,0.00122362,133.384,-0.410272,-1.57553,-0.083496,0.264937,-0.178451,0.206064,-0.000378077,-0.00134633,0.248102,-0.08010523375705769,0.22883184671690793,-0.00037800553789735236,0.3033488622134992,-0.0013454241043560078,-0.16343495243955697
351,0.3416,33.4451,531.081,0.00120441,133.462,-0.409586,-1.57292,-0.0837134,0.265613,-0.178907,0.206581,-0.000378932,-0.00134948,0.248746,-0.08030519714243134,0.22946731703658374,-0.00037886021433730654,0.3042302239110459,-0.001348569861315485,-0.1638163391384685
352,0.3426,33.4628,531.416,0.0011853,133.539,-0.408896,-1.57029,-0.0839308,0.266289,-0.179364,0.207098,-0.000379784,-0.00135263,0.249389,-0.08050511706049013,0.2301031159793565,-0.0003797118911855746,0.305112181610526,-0.0013517156083658888,-0.16419838776672147
353,0.3436,33.4804,531.751,0.00116631,133.617,-0.4082,-1.56765,-0.084148,0.266964,-0.17982,0.207614,-0.000380633,-0.00135576,0.250032,-0.08070480966166305,0.23073801297653995,-0.00038056056844992803,0.3059934297208904,-0.0013548413726042208,-0.16457942641848466
354,0.3446,33.498,532.084,0.00114742,133.694,-0.4075,-1.56499,-0.084365,0.267639,-0.180276,0.20813,-0.000381479,-0.00135889,0.250674,-0.08090427507518638,0.2313732376651112,-0.0003814062461379164,0.3068752728745341,-0.0013579671270589344,-0.16496029135623236
355,0.3456,33.5156,532.417,0.00112864,133.771,-0.406796,-1.56231,-0.0845819,0.268313,-0.180732,0.208645,-0.000382323,-0.001362,0.251316,-0.08110360531977612,0.23200755820602814,-0.0003822499238750332,0.3077564037161886,-0.0013610728989515986,-0.1653409826591602
356,0.3466,33.5331,532.749,0.00110997,133.848,-0.406086,-1.55961,-0.0847987,0.268987,-0.181187,0.20916,-0.000383163,-0.0013651,0.251957,-0.0813028004646088,0.232642205506157,-0.0003830896024323849,0.3086381286402138,-0.0013641686748272486,-0.1657206661275109
357,0.3476,33.5505,533.08,0.0010914,133.925,-0.405372,-1.55689,-0.0850153,0.26966,-0.181642,0.209675,-0.000384,-0.00136819,0.252598,-0.08150176872898729,0.23327717973382223,-0.0003839262814362421,0.309519138527363,-0.001367254454778477,-0.16610017687917955
358,0.3486,33.568,533.41,0.00107295,134.001,-0.404653,-1.55416,-0.0852317,0.270333,-0.182096,0.210189,-0.000384834,-0.00137127,0.253238,-0.08170051024162706,0.2339112471455702,-0.0003847599608941543,0.3104007415337282,-0.0013703302388979877,-0.16647868147183253
359,0.3496,33.5853,533.739,0.0010546,134.078,-0.40393,-1.55141,-0.085448,0.271005,-0.182551,0.210703,-0.000385666,-0.00137434,0.253878,-0.08189911694117291,0.23454564055174143,-0.00038559164042784033,0.31128162677633076,-0.001373396027278262,-0.16685784740497167
360,0.3506,33.6027,534.068,0.00103636,134.154,-0.403202,-1.54864,-0.0856642,0.271677,-0.183004,0.211216,-0.000386494,-0.00137739,0.254518,-0.08209758889649876,0.23517912494019733,-0.00038641932081528996,0.31216310417275794,-0.0013764418337754991,-0.1672351753288699
361,0.3516,33.62,534.396,0.00101823,134.23,-0.402469,-1.54586,-0.0858802,0.272349,-0.183458,0.211729,-0.000387319,-0.00138044,0.255157,-0.08229583440601129,0.23581293438951545,-0.00038724400167922113,0.3130451741210707,-0.0013794876309830562,-0.16761316474917964
362,0.3526,33.6372,534.723,0.00100021,134.306,-0.401732,-1.54306,-0.086096,0.273019,-0.183911,0.212242,-0.000388141,-0.00138348,0.255795,-0.08249385359790729,0.23644706906649482,-0.0003880656830269613,0.3139252091665514,-0.001382523432726268,-0.16799015059180822
363,0.3536,33.6545,535.049,0.000982293,134.381,-0.400991,-1.54024,-0.0863118,0.27369,-0.184364,0.212754,-0.000388961,-0.0013865,0.256433,-0.08269183006187208,0.23708029205710957,-0.0003888853644770096,0.31480714883957206,-0.0013855392529515953,-0.1683669656985246
364,0.3546,33.6716,535.375,0.000964485,134.457,-0.400245,-1.5374,-0.0865273,0.27436,-0.184817,0.213265,-0.000389777,-0.00138951,0.257071,-0.08288948867401336,0.23771260162768693,-0.0003897010468136841,0.3156883648036777,-0.001388545077954606,-0.16874361014665473
365,0.3556,33.6888,535.699,0.000946785,134.532,-0.399494,-1.53455,-0.0867427,0.275029,-0.185269,0.213777,-0.00039059,-0.00139252,0.257708,-0.08308701300401888,0.23834647273687715,-0.0003905137296563721,0.3165688548107992,-0.0013915508939101873,-0.16911925313315812
366,0.3566,33.7059,536.023,0.000929192,134.607,-0.398739,-1.53168,-0.086958,0.275698,-0.185721,0.214288,-0.0003914,-0.00139551,0.258345,-0.0832844031203106,0.23897942949112316,-0.00039132341301240103,0.3174499340628161,-0.0013945367287091504,-0.16949472636739837
367,0.3576,33.7229,536.346,0.000911706,134.682,-0.397979,-1.52879,-0.0871731,0.276366,-0.186172,0.214798,-0.000392208,-0.00139849,0.258981,-0.0834815674394167,0.23961147015683393,-0.0003921310964967173,0.3183302846231211,-0.0013975125685556922,-0.16986919979570125
368,0.3586,33.74,536.668,0.000894328,134.757,-0.397215,-1.52589,-0.0873881,0.277034,-0.186623,0.215308,-0.000393012,-0.00140146,0.259617,-0.08367859772090303,0.24024383324549503,-0.0003929347809003003,0.31921122345406094,-0.0014004784135391857,-0.17024350437456637
369,0.3596,33.7569,536.99,0.000877057,134.831,-0.396447,-1.52297,-0.087603,0.277702,-0.187074,0.215818,-0.000393813,-0.00140442,0.260252,-0.08387549403298622,0.24087651892158424,-0.00039373546583887364,0.32009275094873146,-0.0014034342637483377,-0.1706176401801277
370,0.3606,33.7739,537.311,0.000859893,134.906,-0.395675,-1.52003,-0.0878176,0.278369,-0.187525,0.216328,-0.000394611,-0.00140736,0.260887,-0.08407207325826149,0.24150952734966302,-0.0003945331513196537,0.3209735465262846,-0.001406370133335888,-0.17099160728848473
371,0.3616,33.7908,537.631,0.000842836,134.98,-0.394898,-1.51708,-0.0880322,0.279035,-0.187975,0.216837,-0.000395406,-0.0014103,0.261521,-0.08426861030216126,0.24214161655213906,-0.000395327837349968,0.3218536079361911,-0.0014093059942920094,-0.1713645771406943
372,0.3626,33.8076,537.95,0.000825886,135.054,-0.394116,-1.51411,-0.0882466,0.279701,-0.188425,0.217345,-0.000396199,-0.00141322,0.262155,-0.08446492206673928,0.2427727847965082,-0.0003961205235406551,0.3227342556622179,-0.0014122218748613413,-0.17173737919422793
373,0.3636,33.8245,538.268,0.000809042,135.128,-0.393331,-1.51113,-0.0884608,0.280367,-0.188874,0.217853,-0.000396988,-0.00141614,0.262788,-0.08466100867880666,0.24340427375579998,-0.0003969092106903549,0.3236154900949819,-0.0014151377469162618,-0.17210918563417754
374,0.3646,33.8413,538.586,0.000792306,135.201,-0.392541,-1.50813,-0.0886749,0.281032,-0.189323,0.218361,-0.000397774,-0.00141904,0.263421,-0.08485696177932067,0.24403608359297935,-0.00039769489841101624,0.32449598712871075,-0.0014180336388177617,-0.17248082517050833
375,0.3656,33.858,538.903,0.000775676,135.275,-0.391747,-1.50511,-0.0888889,0.281696,-0.189772,0.218868,-0.000398557,-0.00142193,0.264054,-0.08505278143604922,0.24466696980350133,-0.00039847758670941147,0.3253757445112917,-0.0014209195365304517,-0.17285229787814316
376,0.3666,33.8747,539.219,0.000759153,135.348,-0.390948,-1.50208,-0.0891027,0.282361,-0.190221,0.219376,-0.000399337,-0.00142481,0.264686,-0.08524837624154846,0.24529942125322868,-0.00039925727559286806,0.3262574125035078,-0.0014237954401408182,-0.17322360383197122
377,0.3676,33.8914,539.534,0.000742737,135.421,-0.390146,-1.49903,-0.0893164,0.283024,-0.190669,0.219882,-0.000400114,-0.00142768,0.265318,-0.08544383777773668,0.24592970220801647,-0.0004000339650682694,0.32713701272325,-0.0014266613497353475,-0.17359391670117819
378,0.3686,33.908,539.849,0.000726426,135.494,-0.389339,-1.49597,-0.0895299,0.283687,-0.191117,0.220388,-0.000400888,-0.00143054,0.265949,-0.08563907467609055,0.24656030216566838,-0.00040080765514249883,0.3280171963113032,-0.001429517265399971,-0.17396406370737583
379,0.3696,33.9246,540.163,0.000710222,135.567,-0.388528,-1.49289,-0.0897433,0.28435,-0.191564,0.220894,-0.000401659,-0.00143339,0.266579,-0.08583417847923847,0.2471912212876406,-0.00040157834582266183,0.3288979636545688,-0.0014323631872202869,-0.17433321925848633
380,0.3706,33.9412,540.476,0.000694124,135.64,-0.387713,-1.48979,-0.0899565,0.285012,-0.192011,0.2214,-0.000402427,-0.00143622,0.26721,-0.08602905785750681,0.247822459735471,-0.0004023460371157528,0.32977798536155434,-0.001435189129633696,-0.17470220983394014
381,0.3716,33.9577,540.789,0.000678133,135.712,-0.386894,-1.48668,-0.0901696,0.285674,-0.192458,0.221905,-0.000403192,-0.00143905,0.267839,-0.08622380431430543,0.24845276921738635,-0.00040311072902854406,0.3306585898357848,-0.0014380150640498357,-0.17507103550746506
382,0.3726,33.9742,541.1,0.000662247,135.785,-0.386071,-1.48355,-0.0903826,0.286335,-0.192905,0.222409,-0.000403954,-0.00144186,0.268469,-0.08641841791690208,0.24908214800320327,-0.000403872421567919,0.3315384459240678,-0.00144082101928511,-0.17543969635275591
383,0.3736,33.9906,541.411,0.000646467,135.857,-0.385244,-1.48041,-0.0905954,0.286996,-0.193351,0.222914,-0.000404713,-0.00144467,0.269098,-0.0866128073937954,0.24971309378834672,-0.0004046311147408721,0.33241888378948126,-0.0014436269666356916,-0.17580736825125454
384,0.3746,34.0071,541.722,0.000630793,135.929,-0.384412,-1.47725,-0.0908081,0.287656,-0.193797,0.223417,-0.000405469,-0.00144746,0.269726,-0.08680706418972017,0.25034185759536265,-0.0004053868085540646,0.33329857051747,-0.001446412935030006,-0.1761748762046489
385,0.3756,34.0234,542.031,0.000615224,136.001,-0.383577,-1.47408,-0.0910206,0.288316,-0.194242,0.223921,-0.000406221,-0.00145024,0.270354,-0.08700109707185599,0.2509721887216918,-0.0004061385034205278,0.334178838030337,-0.0014491889101434507,-0.17654139682785086
386,0.3766,34.0398,542.34,0.000599761,136.072,-0.382738,-1.4709,-0.091233,0.288975,-0.194688,0.224424,-0.000406971,-0.00145301,0.270982,-0.08719499744588921,0.25160158601276716,-0.0004068881985355155,0.33505835165250786,-0.0014519548920592928,-0.17690857747749422
387,0.3776,34.0561,542.648,0.000584404,136.144,-0.381894,-1.46769,-0.0914452,0.289634,-0.195133,0.224927,-0.000407718,-0.00145576,0.271609,-0.08738867411760953,0.2522312999703149,-0.0004076348943111707,0.3359384450651757,-0.0014547008954075569,-0.1772747716762646
388,0.3786,34.0723,542.955,0.000569151,136.215,-0.381047,-1.46448,-0.0916573,0.290292,-0.195577,0.225429,-0.000408461,-0.00145851,0.272235,-0.08758221845372682,0.25286007789295417,-0.00040837759116252315,0.3368177818320981,-0.001457446891204417,-0.17763998059526065
389,0.3796,34.0886,543.262,0.000554005,136.286,-0.380196,-1.46124,-0.0918692,0.29095,-0.196021,0.225931,-0.000409202,-0.00146125,0.272862,-0.08777553929856963,0.253489171541351,-0.00040911828828027463,0.3376976973930155,-0.001460182894051587,-0.17800502739748925
390,0.3806,34.1048,543.568,0.000538963,136.357,-0.379341,-1.458,-0.092081,0.291608,-0.196465,0.226433,-0.000409939,-0.00146397,0.273487,-0.0879687279799426,0.2541185810740396,-0.0004098549864887113,0.3385781921288997,-0.0014628989186602492,-0.17836991215491427
391,0.3816,34.1209,543.873,0.000524026,136.428,-0.378482,-1.45474,-0.0922927,0.292265,-0.196909,0.226934,-0.000410674,-0.00146668,0.274113,-0.08816178456446877,0.25474705190195457,-0.00041058968497520443,0.33945792696237653,-0.0014656049505376023,-0.17873463493946762
392,0.3826,34.1371,544.178,0.000509194,136.499,-0.377619,-1.45146,-0.0925042,0.292921,-0.197352,0.227435,-0.000411405,-0.00146939,0.274738,-0.08835461795418353,0.25537583767264094,-0.0004113203845671487,0.34033689963397884,-0.0014683109750814882,-0.17909837492183478
393,0.3836,34.1532,544.482,0.000494467,136.569,-0.376752,-1.44817,-0.0927156,0.293577,-0.197795,0.227935,-0.000412134,-0.00147208,0.275362,-0.08854731941868565,0.2560036825396137,-0.00041204908444891775,0.34121644910082205,-0.0014709970217121615,-0.17946195380307617
394,0.3846,34.1692,544.785,0.000479844,136.64,-0.375882,-1.44486,-0.0929269,0.294233,-0.198238,0.228435,-0.000412859,-0.00147476,0.275986,-0.08873988902439711,0.25663184140751394,-0.0004127737854506819,0.34209657574140784,-0.0014736730758543315,-0.17982537165454393
395,0.3856,34.1852,545.088,0.000465326,136.71,-0.375008,-1.44155,-0.093138,0.294888,-0.19868,0.228935,-0.000413581,-0.00147742,0.276609,-0.08893223573091491,0.25726031443338093,-0.0004134954871674035,0.342975936957878,-0.0014763291523512967,-0.1801878087357771
396,0.3866,34.2012,545.389,0.000450913,136.78,-0.37413,-1.43821,-0.0933489,0.295542,-0.199122,0.229434,-0.0004143,-0.00148008,0.277233,-0.08912435966221854,0.2578878438858603,-0.0004142141896058549,0.3438545304894176,-0.0014789852217832467,-0.18055008565521868
397,0.3876,34.2172,545.691,0.000436603,136.85,-0.373248,-1.43486,-0.0935597,0.296197,-0.199564,0.229933,-0.000415016,-0.00148273,0.277855,-0.08931635201049726,0.2585156865536773,-0.00041492989277225334,0.3447350435434331,-0.0014816312989662794,-0.1809122024836446
398,0.3886,34.2331,545.991,0.000422398,136.92,-0.372362,-1.4315,-0.0937704,0.29685,-0.200005,0.230431,-0.000415729,-0.00148536,0.278477,-0.08950821284188037,0.2591425834499521,-0.0004156425966731492,0.3456134422928454,-0.0014842573988226304,-0.18127334056554945
399,0.3896,34.249,546.291,0.000408297,136.989,-0.371473,-1.42813,-0.0939809,0.297504,-0.200446,0.23093,-0.000416439,-0.00148798,0.279099,-0.08969985119243307,0.25977105238905307,-0.0004163523013149817,0.3464937613170487,-0.0014868735066412286,-0.1816343194206722
400,0.3906,34.2648,546.59,0.0003943,137.059,-0.37058,-1.42474,-0.0941913,0.298156,-0.200887,0.231427,-0.000417146,-0.0014906,0.27972,-0.08989135819649885,0.26039731421526313,-0.00041705900670407914,0.34737196151158023,-0.001489489607605532,-0.1819951391192164
401,0.3916,34.2806,546.888,0.000380407,137.128,-0.369683,-1.42133,-0.0944016,0.298809,-0.201327,0.231925,-0.00041785,-0.0014932,0.280341,-0.09008273392000754,0.26102514839547797,-0.0004177627128467698,0.34825208273075114,-0.0014920857315575686,-0.1823549820867456
402,0.3926,34.2964,547.186,0.000366617,137.197,-0.368783,-1.41792,-0.0946117,0.299461,-0.201767,0.232422,-0.000418551,-0.00149578,0.280962,-0.09027388745622877,0.2616520336623154,-0.000418463419749604,0.3491314297246604,-0.001494661878653103,-0.1827146667581968
403,0.3936,34.3122,547.483,0.000352931,137.266,-0.367879,-1.41448,-0.0948217,0.300112,-0.202207,0.232918,-0.000419249,-0.00149836,0.281582,-0.09046490988180633,0.26227796828996697,-0.0004191611274185769,0.350010000229082,-0.0014972380191022872,-0.18307419320320495
404,0.3946,34.3279,547.78,0.000339349,137.335,-0.366971,-1.41104,-0.0950315,0.300763,-0.202646,0.233415,-0.000419944,-0.00150093,0.282201,-0.09065571032804642,0.26290547636304673,-0.0004198558358602389,0.3508891428691121,-0.0014998041679030738,-0.18343274492452755
405,0.3956,34.3436,548.075,0.000325869,137.404,-0.36606,-1.40758,-0.0952412,0.301413,-0.203086,0.23391,-0.000420635,-0.00150348,0.28282,-0.09084637983319432,0.26353076932108577,-0.0004205465455011659,0.3517675062491499,-0.001502350340156,-0.18379195548464222
406,0.3966,34.3592,548.371,0.000312493,137.472,-0.365146,-1.40411,-0.0954507,0.302063,-0.203524,0.234406,-0.000421324,-0.00150603,0.283439,-0.09103682756652265,0.264157636032762,-0.0004212352555073018,0.35264644075097906,-0.0015048965059163422,-0.18414937632726136
407,0.3976,34.3749,548.665,0.00029922,137.541,-0.364227,-1.40063,-0.0956601,0.302713,-0.203963,0.234901,-0.000422009,-0.00150856,0.284057,-0.09122714452794889,0.26478354896326817,-0.0004219199667266915,0.3535259467459497,-0.0015074226953325498,-0.18450745614678254
408,0.3986,34.3904,548.959,0.00028605,137.609,-0.363306,-1.39713,-0.0958694,0.303362,-0.204401,0.235396,-0.000422692,-0.00151108,0.284675,-0.09141733078291336,0.2654097717973696,-0.00042260267832217036,0.3544046702003054,-0.0015099388934569635,-0.18486456366873383
409,0.3996,34.406,549.252,0.000272983,137.677,-0.36238,-1.39362,-0.0960786,0.30401,-0.204839,0.23589,-0.000423371,-0.00151359,0.285292,-0.09160738639680321,0.2660350386528352,-0.00042328139114455876,0.35528260884799634,-0.0015124451003649675,-0.18522151481184002
410,0.4006,34.4215,549.544,0.000260018,137.745,-0.361452,-1.39009,-0.0962875,0.304659,-0.205276,0.236384,-0.000424047,-0.00151609,0.285909,-0.09179712979439703,0.26666061446643385,-0.0004239571047779389,0.35616247274609036,-0.0015149413161319458,-0.18557749522248246
411,0.4016,34.437,549.836,0.000247156,137.813,-0.36052,-1.38655,-0.0964964,0.305306,-0.205714,0.236878,-0.000424721,-0.00151858,0.286526,-0.09198683355873494,0.2672864993908284,-0.00042463081880383946,0.35704019377809226,-0.0015174275408327276,-0.18593413416994387
412,0.4026,34.4525,550.128,0.000234396,137.88,-0.359584,-1.383,-0.0967051,0.305954,-0.206151,0.237371,-0.000425391,-0.00152105,0.287142,-0.09217631613337673,0.2679114256666977,-0.00042530053407685564,0.35791984079851447,-0.0015198937897409337,-0.18628980323396105
413,0.4036,34.4679,550.418,0.000221738,137.948,-0.358645,-1.37944,-0.0969137,0.3066,-0.206587,0.237864,-0.000426058,-0.00152352,0.287758,-0.09236566840370297,0.26853666010717725,-0.0004259672501789602,0.3587973404175311,-0.0015223600325574571,-0.18664450354946327
414,0.4046,34.4833,550.708,0.000209183,138.015,-0.357702,-1.37586,-0.0971221,0.307247,-0.207023,0.238357,-0.000426722,-0.00152597,0.288373,-0.09255479969024305,0.26916220286423,-0.0004266309671163704,0.3596767667605252,-0.0015248062997786915,-0.18699904924933664
415,0.4056,34.4986,550.997,0.000196729,138.083,-0.356757,-1.37227,-0.0973304,0.307893,-0.207459,0.238849,-0.000427383,-0.00152841,0.288987,-0.09274380084031442,0.26978678430247394,-0.0004272916848949704,0.3605554017203889,-0.0015272425762790087,-0.1873534404009789
416,0.4066,34.514,551.286,0.000184378,138.15,-0.355808,-1.36867,-0.0975386,0.308538,-0.207895,0.239341,-0.000428041,-0.00153085,0.289602,-0.09293267191881793,0.27041167311039227,-0.00042794940352064437,0.3614332430278866,-0.0015296788468349698,-0.18770767707175828
417,0.4076,34.5293,551.574,0.000172128,138.217,-0.354855,-1.36506,-0.0977466,0.309183,-0.20833,0.239832,-0.000428695,-0.00153326,0.290216,-0.09312132230273873,0.27103559840301417,-0.0004286031234279619,0.36231165072566873,-0.0015320851574093242,-0.18806094739036705
418,0.4086,34.5445,551.862,0.000159979,138.283,-0.353899,-1.36143,-0.0979545,0.309828,-0.208765,0.240323,-0.000429347,-0.00153567,0.290829,-0.09330984278244914,0.2716598301181752,-0.0004292548437662136,0.363190625179175,-0.0015344914621844286,-0.18841406406980632
419,0.4096,34.5598,552.148,0.000147932,138.35,-0.35294,-1.35779,-0.0981623,0.310472,-0.2092,0.240814,-0.000429996,-0.00153807,0.291442,-0.09349823342265351,0.27228436840636605,-0.00042990356496941384,0.3640688026845962,-0.0015368877765293831,-0.1887670271768943
420,0.4106,34.575,552.435,0.000135986,138.417,-0.351978,-1.35414,-0.0983699,0.311115,-0.209635,0.241304,-0.000430641,-0.00154045,0.292055,-0.09368640365664882,0.2729079405095738,-0.00043054828747368656,0.36494618097161236,-0.0015392641159086562,-0.1891198367784207
421,0.4116,34.5901,552.72,0.000124141,138.483,-0.351012,-1.35047,-0.0985774,0.311758,-0.210069,0.241794,-0.000431284,-0.00154283,0.292667,-0.09387444421800717,0.2735318182379842,-0.00043119101042443653,0.3658241235942816,-0.0015416404496322311,-0.18947168241323342
422,0.4126,34.6053,553.005,0.000112398,138.549,-0.350043,-1.3468,-0.0987847,0.312401,-0.210503,0.242284,-0.000431923,-0.00154519,0.293279,-0.09406226457746791,0.2741560017413902,-0.0004318297346893596,0.3667026309155885,-0.0015439968085801947,-0.1898233753801719
423,0.4136,34.6204,553.29,0.000100755,138.615,-0.349071,-1.34311,-0.0989919,0.313043,-0.210936,0.242773,-0.000432559,-0.00154754,0.29389,-0.0942499554308035,0.2747792163898046,-0.0004324654598434341,0.3675803357177312,-0.0015463431774307423,-0.19017410591999062
424,0.4146,34.6355,553.573,8.92123e-05,138.681,-0.348096,-1.33941,-0.099199,0.313685,-0.211369,0.243262,-0.000433193,-0.00154988,0.294501,-0.09443751684237922,0.2754027358647062,-0.00043309918545941795,0.36845860418727483,-0.001548679556254151,-0.19052468462635985
425,0.4156,34.6505,553.856,7.77705e-05,138.747,-0.347117,-1.33569,-0.0994059,0.314327,-0.211802,0.24375,-0.000433823,-0.00155221,0.295111,-0.09462485833899847,0.276025284289269,-0.0004337289124085597,0.3693374366862101,-0.001551005945120587,-0.19087511156500936
426,0.4166,34.6655,554.139,6.6429e-05,138.813,-0.346136,-1.33197,-0.0996127,0.314968,-0.212235,0.244238,-0.00043445,-0.00155453,0.295721,-0.09481207055988317,0.27664813659160337,-0.00043435564026406137,0.3702154633606114,-0.0015533223440996613,-0.19122538680164025
427,0.4176,34.6805,554.421,5.51877e-05,138.878,-0.345151,-1.32823,-0.0998193,0.315608,-0.212667,0.244726,-0.000435074,-0.00155683,0.296331,-0.0949990630691141,0.2772712929200374,-0.00043497936903158507,0.37109268193716427,-0.0015556187688174905,-0.19157470197703153
428,0.4186,34.6955,554.702,4.40464e-05,138.944,-0.344163,-1.32448,-0.100026,0.316248,-0.213099,0.245214,-0.000435695,-0.00155913,0.29694,-0.09518610743107692,0.2778947534229723,-0.00043560009871668193,0.37197046211329865,-0.0015579151882534337,-0.19192386628085756
429,0.4196,34.7104,554.983,3.30051e-05,139.009,-0.343172,-1.32072,-0.100232,0.316888,-0.21353,0.245701,-0.000436313,-0.00156141,0.297549,-0.09537247989592323,0.2785172397310023,-0.00043621782932490305,0.3728488042485538,-0.0015601916336116517,-0.19227207205075691
430,0.4206,34.7253,555.263,2.20635e-05,139.074,-0.342178,-1.31695,-0.100438,0.317527,-0.213962,0.246187,-0.000436928,-0.00156368,0.298157,-0.09555881397199584,0.2791387501243041,-0.0004368325608619106,0.37372633497567653,-0.0015624580894041395,-0.19262093515577472
431,0.4216,34.7402,555.543,1.12214e-05,139.139,-0.341181,-1.31317,-0.100645,0.318165,-0.214393,0.246674,-0.000437539,-0.00156594,0.298765,-0.0957460139216404,0.27976184240627044,-0.00043744329377060076,0.37460305202038957,-0.001564714555699065,-0.19296884055372376
432,0.4226,34.755,555.822,4.78806e-07,139.204,-0.340181,-1.30938,-0.100851,0.318804,-0.214824,0.24716,-0.000438148,-0.00156819,0.299373,-0.09593227105762892,0.280383957823481,-0.00043805202718227854,0.37548170407006287,-0.0015669610325640404,-0.19331659603675522
433,0.4236,34.7699,556.1,-1.01646e-05,139.269,-0.339178,-1.30557,-0.101056,0.319442,-0.215254,0.247645,-0.000438754,-0.00157043,0.29998,-0.096117585946637,0.2810050946565319,-0.00043865776153928504,0.3763595413975904,-0.0015691975200664565,-0.19366339533326704
434,0.4246,34.7846,556.378,-2.07088e-05,139.333,-0.338171,-1.30175,-0.101262,0.320079,-0.215684,0.248131,-0.000439356,-0.00157266,0.300586,-0.09630376654667183,0.2816278144411857,-0.00043925949728618185,0.3772365617267799,-0.0015714240182734818,-0.1940100455381384
435,0.4256,34.7994,556.655,-3.11541e-05,139.398,-0.337162,-1.29792,-0.101468,0.320716,-0.216114,0.248616,-0.000439956,-0.00157487,0.301193,-0.09648990879745312,0.28224955469101287,-0.00043985923355049916,0.3781141408958908,-0.0015736305429882025,-0.19435654671546487
436,0.4266,34.8141,556.932,-4.15007e-05,139.462,-0.33615,-1.29408,-0.101673,0.321352,-0.216543,0.2491,-0.000440552,-0.00157708,0.301798,-0.09667510938244106,0.2828703136870423,-0.00044045497121691923,0.3789909002694276,-0.0015758370628264906,-0.1947020936318108
437,0.4276,34.8288,557.208,-5.17486e-05,139.527,-0.335135,-1.29023,-0.101878,0.321988,-0.216973,0.249584,-0.000441145,-0.00157927,0.302404,-0.09686027200520031,0.2834913732031459,-0.0004410477098513166,0.3798682174392862,-0.0015780236093489997,-0.19504829729242767
438,0.4286,34.8435,557.483,-6.1898e-05,139.591,-0.334117,-1.28637,-0.102084,0.322624,-0.217402,0.250068,-0.000441736,-0.00158145,0.303009,-0.09704629962766431,0.28411273338481036,-0.0004416384490175673,0.38074609276033833,-0.001580200166885093,-0.19539354751142224
439,0.4296,34.8581,557.758,-7.19492e-05,139.655,-0.333096,-1.2825,-0.102289,0.323259,-0.21783,0.250552,-0.000442323,-0.00158362,0.303613,-0.09723138616422244,0.28473439437759307,-0.0004422251896036844,0.381623144963845,-0.0015823667355000515,-0.19573784538808592
440,0.4306,34.8727,558.032,-8.19023e-05,139.718,-0.332073,-1.27861,-0.102494,0.323894,-0.218258,0.251035,-0.000442907,-0.00158578,0.304217,-0.09741643476192952,0.28535507097140855,-0.00044280893117365494,0.3825007542723631,-0.0015845233152587124,-0.19608199593678888
441,0.4316,34.8873,558.306,-9.17574e-05,139.782,-0.331046,-1.27472,-0.102698,0.324528,-0.218686,0.251517,-0.000443488,-0.00158792,0.304821,-0.09760054302955623,0.28597476144902445,-0.00044338967373291904,0.3833775376615369,-0.0015866599220927258,-0.1964259992205738
442,0.4326,34.9019,558.579,-0.000101515,139.846,-0.330017,-1.27081,-0.102903,0.325162,-0.219114,0.252,-0.000444066,-0.00159006,0.305424,-0.09778551595786222,0.2865960372848406,-0.0004439674172868058,0.3842548771076313,-0.0015887965243542856,-0.19676985530245683
443,0.4336,34.9164,558.852,-0.000111174,139.909,-0.328984,-1.2669,-0.103107,0.325795,-0.219542,0.252482,-0.000444641,-0.00159218,0.306027,-0.09796954894060439,0.2872163260523959,-0.00044454216184031115,0.38513138783121703,-0.0015909131538620613,-0.1971135642454267
444,0.4346,34.9309,559.124,-0.000120737,139.972,-0.327949,-1.26297,-0.103312,0.326428,-0.219969,0.252964,-0.000445212,-0.0015943,0.30663,-0.09815444623045178,0.2878369138712027,-0.0004451129078437699,0.38600845356173186,-0.0015930297788825376,-0.19745632356917042
445,0.4356,34.9454,559.395,-0.000130202,140.036,-0.326911,-1.25903,-0.103516,0.327061,-0.220395,0.253445,-0.000445781,-0.0015964,0.307232,-0.09833840395909454,0.28845651242828185,-0.0004456816544127218,0.38688607465060665,-0.0015951264313185387,-0.19779813436446136
446,0.4366,34.9598,559.666,-0.000139569,140.099,-0.325871,-1.25508,-0.10372,0.327693,-0.220822,0.253926,-0.000446347,-0.00159849,0.307833,-0.09852232416418816,0.2890764090839537,-0.0004462474019967244,0.38776286368593693,-0.0015972130953236796,-0.1981406014391638
447,0.4376,34.9742,559.937,-0.00014884,140.162,-0.324827,-1.25113,-0.103924,0.328325,-0.221248,0.254407,-0.000446909,-0.00160057,0.308435,-0.0987062068533866,0.28969660398163866,-0.0004468091510478889,0.3886402070270796,-0.001599289770960688,-0.19848212079416327
448,0.4386,34.9886,560.206,-0.000158015,140.224,-0.323781,-1.24716,-0.104128,0.328956,-0.221674,0.254887,-0.000447469,-0.00160263,0.309036,-0.09889005203434253,0.2903158069483731,-0.0004473689006779802,0.38951671550705647,-0.0016013464743053207,-0.19882349469290195
449,0.4396,35.003,560.476,-0.000167092,140.287,-0.322733,-1.24318,-0.104332,0.329587,-0.2221,0.255367,-0.000448025,-0.00160469,0.309636,-0.09907385971470661,0.2909353072038754,-0.0004479246517864466,0.39039377723841673,-0.0016034031734132315,-0.19916472319733092
450,0.4406,35.0173,560.744,-0.000176073,140.35,-0.321681,-1.23919,-0.104535,0.330217,-0.222525,0.255847,-0.000448579,-0.00160673,0.310236,-0.09925672915930794,0.291555104890878,-0.0004484784034827216,0.39127000129967504,-0.0016054399003933018,-0.19950500587478115
451,0.4416,35.0316,561.013,-0.000184958,140.412,-0.320627,-1.23519,-0.104739,0.330847,-0.22295,0.256326,-0.000449129,-0.00160877,0.310835,-0.09944046204516788,0.29217390797762843,-0.00044902815666847395,0.39214677755601524,-0.0016074766232184734,-0.19984514396282094
452,0.4426,35.0459,561.28,-0.000193747,140.475,-0.31957,-1.23118,-0.104942,0.331477,-0.223375,0.256805,-0.000449676,-0.00161079,0.311435,-0.09962325707704922,0.29279300754205817,-0.0004495749109004743,0.3930241063554296,-0.0016094933740787853,-0.20018513752288758
453,0.4436,35.0601,561.547,-0.00020244,140.537,-0.318511,-1.22716,-0.105145,0.332106,-0.223799,0.257283,-0.000450221,-0.0016128,0.312033,-0.09980601500530528,0.293411110314457,-0.000450119665733717,0.393900594144839,-0.001611500136980304,-0.20052418714097942
454,0.4446,35.0744,561.814,-0.000211038,140.599,-0.317448,-1.22313,-0.105348,0.332734,-0.224223,0.257762,-0.000450762,-0.0016148,0.312632,-0.09998873583746726,0.2940308026407612,-0.00045066042207275725,0.39477623864155564,-0.0016134969119832032,-0.20086309303250538
455,0.4456,35.0886,562.08,-0.000219539,140.661,-0.316384,-1.21909,-0.105551,0.333362,-0.224647,0.258239,-0.0004513,-0.00161678,0.31323,-0.1001714195810649,0.294648202571798,-0.0004511981794728115,0.3956524332157225,-0.0016154737153023513,-0.20120185525839263
456,0.4466,35.1027,562.345,-0.000227946,140.723,-0.315316,-1.21504,-0.105754,0.33399,-0.22507,0.258717,-0.000451835,-0.00161876,0.313827,-0.10035406624362653,0.2952671923393959,-0.00045173293793865366,0.39652917821289657,-0.001617450514707297,-0.20153967541961704
457,0.4476,35.1169,562.61,-0.000236257,140.784,-0.314247,-1.21098,-0.105957,0.334618,-0.225494,0.259194,-0.000452367,-0.00162073,0.314424,-0.10053667583267867,0.29588518216899873,-0.00045226469747527975,0.3974064739788521,-0.0016194173263924805,-0.2018781508353802
458,0.4486,35.131,562.875,-0.000244473,140.846,-0.313174,-1.20692,-0.106159,0.335245,-0.225917,0.259671,-0.000452896,-0.00162268,0.315021,-0.10071834907454524,0.29650346685006657,-0.00045279345808746374,0.398282922575959,-0.0016213641666305012,-0.2022156849840715
459,0.4496,35.1451,563.139,-0.000252595,140.907,-0.312099,-1.20284,-0.106361,0.335871,-0.226339,0.260148,-0.000453421,-0.00162462,0.315617,-0.10089998562212332,0.29712204652327734,-0.0004533182202330899,0.39915852171942956,-0.001623301019305301,-0.20255227893868855
460,0.4506,35.1591,563.402,-0.000260622,140.969,-0.311022,-1.19875,-0.106564,0.336497,-0.226762,0.260624,-0.000453944,-0.00162655,0.316213,-0.10108248440078926,0.29773962358910344,-0.0004538409830110446,0.4000346691595629,-0.0016252278844749446,-0.20288952799149418
461,0.4516,35.1732,563.665,-0.000268555,141.03,-0.309942,-1.19465,-0.106766,0.337123,-0.227184,0.261099,-0.000454464,-0.00162847,0.316809,-0.10126404740045991,0.29835619633474253,-0.000454360746878546,0.4009113652397003,-0.0016271447621971635,-0.2032258376443541
462,0.4526,35.1872,563.927,-0.000276393,141.091,-0.308859,-1.19055,-0.106968,0.337748,-0.227605,0.261575,-0.000454981,-0.00163038,0.317404,-0.1014455737281087,0.2989743609957154,-0.0004548775118404791,0.4017872085154881,-0.0016290516525295784,-0.2035612089660891
463,0.4536,35.2012,564.189,-0.000284137,141.152,-0.307775,-1.18643,-0.10717,0.338373,-0.228027,0.26205,-0.000455494,-0.00163228,0.317998,-0.10162706339114258,0.2995915203809385,-0.0004553902783567265,0.4026635993644223,-0.0016309485555293657,-0.2038972352293772
464,0.4546,35.2151,564.45,-0.000291788,141.213,-0.306687,-1.18231,-0.107371,0.338997,-0.228448,0.262525,-0.000456005,-0.00163416,0.318593,-0.10180761820503426,0.30020897298650384,-0.00045590104552184485,0.4035391345890065,-0.0016328254875818127,-0.20423232395222013
465,0.4556,35.2291,564.711,-0.000299344,141.274,-0.305597,-1.17817,-0.107573,0.339621,-0.228869,0.262999,-0.000456512,-0.00163604,0.319187,-0.10198903474246968,0.3008254181256558,-0.00045640781425149157,0.4044152163180623,-0.0016347024161055268,-0.2045672716324024
466,0.4566,35.243,564.971,-0.000306808,141.334,-0.304505,-1.17403,-0.107774,0.340245,-0.22929,0.263473,-0.000457017,-0.0016379,0.31978,-0.10216951680743125,0.3014421555290647,-0.0004569125836381138,0.4052918448927152,-0.0016365593738321138,-0.2049020783292903
467,0.4576,35.2569,565.231,-0.000314178,141.395,-0.303411,-1.16988,-0.107976,0.340868,-0.22971,0.263947,-0.000457518,-0.00163975,0.320373,-0.10235086024873197,0.30205918533529696,-0.0004574133545994785,0.4061676144859858,-0.001638406344488752,-0.20523594933857214
468,0.4586,35.2707,565.49,-0.000321455,141.455,-0.302314,-1.16572,-0.108177,0.34149,-0.23013,0.264421,-0.000458016,-0.00164159,0.320966,-0.10253126959407532,0.30267650768298426,-0.0004579111266836966,0.4070425228104777,-0.0016402433281310635,-0.20556968015147337
469,0.4596,35.2846,565.749,-0.000328639,141.515,-0.301215,-1.16155,-0.108378,0.342113,-0.23055,0.264894,-0.000458511,-0.00164342,0.321558,-0.10271164268078448,0.30329281941735275,-0.00045840589989520897,0.40791938341590583,-0.0016420703248141155,-0.20590327082686422
470,0.4606,35.2984,566.007,-0.00033573,141.576,-0.300113,-1.15737,-0.108579,0.342734,-0.230969,0.265366,-0.000459004,-0.00164524,0.32215,-0.10289197951614659,0.30390811882735536,-0.0004588986737796841,0.4087939728849308,-0.001643887334592642,-0.2062359276599144
471,0.4616,35.3122,566.264,-0.000342729,141.636,-0.299009,-1.15318,-0.10878,0.343356,-0.231388,0.265839,-0.000459493,-0.00164705,0.322741,-0.1030722801074474,0.3045250132515904,-0.0004593874492586636,0.4096705153125002,-0.0016456943575211547,-0.20656844513894823
472,0.4626,35.3259,566.522,-0.000349636,141.696,-0.297903,-1.14898,-0.108981,0.343977,-0.231807,0.266311,-0.000459979,-0.00164884,0.323332,-0.10325254446197119,0.305140894394361,-0.0004598732258783711,0.41054619257215696,-0.001647481410128937,-0.20690082332234294
473,0.4636,35.3396,566.778,-0.00035645,141.756,-0.296795,-1.14478,-0.109181,0.344597,-0.232226,0.266783,-0.000460462,-0.00165063,0.323923,-0.10343187601932535,0.3057570663016458,-0.0004603560036430254,0.41142100237456725,-0.0016492684595377227,-0.20723306226845095
474,0.4646,35.3533,567.034,-0.000363172,141.815,-0.295684,-1.14056,-0.109382,0.345217,-0.232644,0.267254,-0.000460942,-0.0016524,0.324513,-0.10361206810233448,0.30637222273784226,-0.00046083578255695645,0.4122963547272285,-0.0016510355387687747,-0.2075643696003664
475,0.4656,35.367,567.29,-0.000369803,141.875,-0.294571,-1.13634,-0.109582,0.345837,-0.233062,0.267725,-0.000461419,-0.00165416,0.325103,-0.1037913277621505,0.3069876689809645,-0.00046131256262460507,0.4131722499666257,-0.0016527926313999464,-0.20789553847475684
476,0.4666,35.3807,567.545,-0.000376343,141.934,-0.293456,-1.13211,-0.109782,0.346456,-0.23348,0.268196,-0.000461893,-0.00165591,0.325692,-0.10397055157361945,0.3076034051675436,-0.00046178634385019013,0.4140472743814718,-0.0016545397374840842,-0.2082265689494852
477,0.4676,35.3943,567.8,-0.00038279,141.994,-0.292338,-1.12787,-0.109982,0.347075,-0.233897,0.268666,-0.000462364,-0.00165765,0.326282,-0.10414973954391038,0.30821812321539754,-0.00046225712623793047,0.414922840604103,-0.0016562768570737019,-0.20855666963945596
478,0.4686,35.4079,568.054,-0.000389147,142.053,-0.291219,-1.12362,-0.110182,0.347694,-0.234314,0.269136,-0.000462832,-0.00165938,0.32687,-0.10432889168019088,0.30883313024864045,-0.00046272490979215597,0.415798948970002,-0.0016580039902207577,-0.2088866327061355
479,0.4696,35.4215,568.308,-0.000395413,142.112,-0.290097,-1.11937,-0.110382,0.348312,-0.234731,0.269606,-0.000463297,-0.00166109,0.327458,-0.10450800798962678,0.309448426403127,-0.00046318969451697445,0.41667418313996785,-0.001659711153574328,-0.2092164582069007
480,0.4706,35.4351,568.561,-0.000401588,142.171,-0.288973,-1.1151,-0.110581,0.34893,-0.235148,0.270075,-0.000463759,-0.0016628,0.328046,-0.10468619316602379,0.3100627017514195,-0.00046365148041660476,0.41754995837182163,-0.001661418314008567,-0.20954614619910472
481,0.4716,35.4486,568.814,-0.000407673,142.23,-0.287847,-1.11083,-0.110781,0.349547,-0.235564,0.270544,-0.000464217,-0.00166449,0.328634,-0.10486523802230818,0.31067726526241923,-0.00046410926795947827,0.41842485657447726,-0.0016631055047859888,-0.2098749066153781
482,0.4726,35.4621,569.066,-0.000413667,142.289,-0.286719,-1.10655,-0.11098,0.350164,-0.23598,0.271013,-0.000464673,-0.00166618,0.329221,-0.10504335211700144,0.3112921170713061,-0.00046456505622172184,0.41930029475589015,-0.001664792692712025,-0.21020353029576144
483,0.4736,35.4756,569.318,-0.000419572,142.348,-0.285588,-1.10226,-0.11118,0.35078,-0.236396,0.271481,-0.000465126,-0.00166785,0.329808,-0.1052223255486383,0.31190594540672234,-0.00046501784567121174,0.420174853073767,-0.001666459911116025,-0.2105320172971249
484,0.4746,35.4891,569.569,-0.000425386,142.406,-0.284456,-1.09797,-0.111379,0.351396,-0.236811,0.271949,-0.000465575,-0.00166951,0.330394,-0.10540036858998403,0.3125200610810317,-0.00046546663677737854,0.42104995028553005,-0.0016681171434170805,-0.21085957853628823
485,0.4756,35.5025,569.82,-0.00043111,142.465,-0.283321,-1.09366,-0.111578,0.352012,-0.237226,0.272417,-0.000466022,-0.00167116,0.33098,-0.10557837620428956,0.31313446422874014,-0.00046591342861401763,0.4219255867232399,-0.0016697643896648184,-0.21118700386574063
486,0.4766,35.5159,570.07,-0.000436746,142.523,-0.282185,-1.08935,-0.111777,0.352627,-0.237641,0.272884,-0.000466466,-0.00167279,0.331565,-0.10575634839860415,0.3137478412359187,-0.00046635722164989346,0.42280033991811106,-0.001671391666622668,-0.21151429334187266
487,0.4776,35.5293,570.32,-0.000442291,142.582,-0.281046,-1.08503,-0.111976,0.353241,-0.238056,0.273352,-0.000466906,-0.00167442,0.33215,-0.10593428517997594,0.31436281911921715,-0.0004667970163559909,0.4236742075767381,-0.0016730189409279728,-0.21184144702105212
488,0.4786,35.5427,570.569,-0.000447748,142.64,-0.279905,-1.08071,-0.112174,0.353856,-0.23847,0.273818,-0.000467344,-0.00167603,0.332735,-0.10611129266719077,0.3149754549259831,-0.00046723481180299675,0.4245500365041881,-0.0016746262460736183,-0.2121676771276937
489,0.4796,35.556,570.818,-0.000453116,142.698,-0.278763,-1.07637,-0.112373,0.35447,-0.238884,0.274285,-0.000467779,-0.00167764,0.333319,-0.10628915882168066,0.31558969187659835,-0.00046766960846122974,0.42542497880640084,-0.001676233548631556,-0.21249377220302468
490,0.4806,35.5693,571.066,-0.000458395,142.756,-0.277618,-1.07203,-0.112571,0.355083,-0.239298,0.274751,-0.00046821,-0.00167923,0.333903,-0.10646609605087021,0.3162028995393016,-0.000468100406802785,0.4262990321884006,-0.0016778208821581764,-0.21281973230293627
491,0.4816,35.5826,571.314,-0.000463586,142.814,-0.276472,-1.06768,-0.112769,0.355696,-0.239711,0.275216,-0.000468639,-0.00168081,0.334487,-0.10664299824995649,0.31681507620763205,-0.0004685292058957957,0.4271736215293782,-0.0016793982299551091,-0.21314477062846082
492,0.4826,35.5959,571.562,-0.000468688,142.871,-0.275323,-1.06332,-0.112968,0.356309,-0.240124,0.275682,-0.000469064,-0.00168238,0.33507,-0.10682075860556273,0.31742885503250373,-0.0004689540066805664,0.428048747157977,-0.0016809655920695388,-0.21346967474087386
493,0.4836,35.6092,571.809,-0.000473703,142.929,-0.274172,-1.05896,-0.113166,0.356921,-0.240537,0.276147,-0.000469487,-0.00168394,0.335653,-0.10699759058841485,0.31804160190270037,-0.000469376808223676,0.4289229804793475,-0.0016825229685484278,-0.21379444469559383
494,0.4846,35.6224,572.055,-0.00047863,142.987,-0.27302,-1.05458,-0.113363,0.357533,-0.24095,0.276612,-0.000469906,-0.00168549,0.336235,-0.10717349473594151,0.3186546337664473,-0.00046979561146698323,0.4297977489952636,-0.0016840703594386275,-0.21411908054801665
495,0.4856,35.6356,572.301,-0.000483469,143.044,-0.271866,-1.0502,-0.113561,0.358145,-0.241362,0.277076,-0.000470323,-0.00168703,0.336817,-0.10735025688395361,0.31926663148900647,-0.0004702124154752907,0.43067305303336423,-0.0016856077647864343,-0.21444279679670453
496,0.4866,35.6488,572.547,-0.00048822,143.101,-0.270709,-1.04582,-0.113759,0.358756,-0.241774,0.27754,-0.000470736,-0.00168855,0.337399,-0.10752698403652516,0.31987891324439954,-0.0004706252211923445,0.43154746137331257,-0.0016871252015093763,-0.2147663797017687
497,0.4876,35.6619,572.792,-0.000492885,143.159,-0.269551,-1.04142,-0.113956,0.359366,-0.242186,0.278004,-0.000471147,-0.00169007,0.33798,-0.10770278390381449,0.3204914791644482,-0.0004710360276809489,0.4324209717183194,-0.00168864263592583,-0.21508982931813536
498,0.4886,35.6751,573.037,-0.000497462,143.216,-0.268391,-1.03702,-0.114154,0.359977,-0.242597,0.278467,-0.000471554,-0.00169157,0.338561,-0.1078794412629458,0.3211030082773665,-0.00047144283588651525,0.43329644836291803,-0.0016901401018387663,-0.2154123611134614
499,0.4896,35.6882,573.281,-0.000501953,143.273,-0.267229,-1.03261,-0.114351,0.360586,-0.243009,0.278931,-0.000471958,-0.00169306,0.339141,-0.10805517170300039,0.32171614230930223,-0.00047184664534205556,0.4341695917451449,-0.0016916275824219174,-0.21573554464030464
500,0.4906,35.7013,573.525,-0.000506357,143.33,-0.266066,-1.0282,-0.114548,0.361196,-0.243419,0.279393,-0.00047236,-0.00169454,0.339721,-0.10823086752756794,0.32232691624496446,-0.00047224845557891637,0.43504470207762513,-0.001693105077719692,-0.21605702715858244
501,0.4916,35.7143,573.768,-0.000510675,143.386,-0.2649,-1.02378,-0.114745,0.361805,-0.24383,0.279856,-0.000472758,-0.00169601,0.340301,-0.10840652874346712,0.3229392953620118,-0.0004726462675448406,0.43591891047062714,-0.0016945725877766105,-0.21637916151727488
502,0.4926,35.7274,574.011,-0.000514907,143.443,-0.263733,-1.01935,-0.114942,0.362413,-0.244241,0.280318,-0.000473154,-0.00169747,0.34088,-0.10858215535751514,0.3235506345249417,-0.0004730420802986357,0.4367922146257541,-0.0016960301126366373,-0.21670116350594992
503,0.4936,35.7404,574.253,-0.000519053,143.5,-0.262564,-1.01491,-0.115139,0.363022,-0.244651,0.28078,-0.000473546,-0.00169892,0.341459,-0.10875774737652799,0.3241622561918185,-0.0004734338947892658,0.4376674875780233,-0.0016974776523435153,-0.2170222502016419
504,0.4946,35.7534,574.495,-0.000523113,143.556,-0.261393,-1.01047,-0.115335,0.36363,-0.24506,0.281241,-0.000473936,-0.00170035,0.342037,-0.10893241374017937,0.3247728357196906,-0.00047382371007409496,0.4385418551912901,-0.001698905223929792,-0.21734242262158632
505,0.4956,35.7664,574.737,-0.000527088,143.613,-0.26022,-1.00602,-0.115532,0.364237,-0.24547,0.281703,-0.000474322,-0.00170178,0.342616,-0.10910793676508701,0.32538502217397514,-0.0004742095271036417,0.43941531516567456,-0.0017003327934745904,-0.2176632464549314
506,0.4966,35.7793,574.978,-0.000530978,143.669,-0.259046,-1.00157,-0.115728,0.364844,-0.245879,0.282163,-0.000474706,-0.00170319,0.343193,-0.10928253449834424,0.3259948395314143,-0.0004745933449334938,0.4402893054912089,-0.0017017403950130294,-0.2179831567610142
507,0.4976,35.7923,575.218,-0.000534782,143.725,-0.25787,-0.997105,-0.115925,0.365451,-0.246288,0.282624,-0.000475086,-0.0017046,0.343771,-0.10945798855625588,0.3266062640749672,-0.00047497316451583504,0.4411638264899138,-0.0017031479945667227,-0.21830293625053565
508,0.4986,35.8052,575.459,-0.000538502,143.781,-0.256692,-0.992637,-0.116121,0.366057,-0.246697,0.283084,-0.000475464,-0.00170599,0.344348,-0.1096325176860854,0.327216643332908,-0.0004753509849045878,0.44203743644584814,-0.001704535626226522,-0.2186225849769886
509,0.4996,35.8181,575.698,-0.000542137,143.837,-0.255513,-0.988162,-0.116317,0.366663,-0.247105,0.283544,-0.000475838,-0.00170737,0.344924,-0.10980701261155768,0.3278273034298955,-0.00047572480705337927,0.442911575969859,-0.0017059132730168347,-0.21894132193555693
510,0.5006,35.8309,575.938,-0.000545688,143.893,-0.254332,-0.98368,-0.116513,0.367268,-0.247514,0.284004,-0.00047621,-0.00170874,0.3455,-0.10998147333937591,0.32843824449514525,-0.0004760966300146885,0.4437848015974377,-0.0017072809349787388,-0.21926070961565247
511,0.5016,35.8438,576.176,-0.000549155,143.949,-0.253149,-0.979192,-0.116709,0.367873,-0.247922,0.284463,-0.000476578,-0.0017101,0.346076,-0.11015589987624241,0.32904813760913054,-0.00047646445474336385,0.4446585556863647,-0.0017086386121535346,-0.21957918627247341
512,0.5026,35.8566,576.415,-0.000552538,144.005,-0.251964,-0.974699,-0.116904,0.368478,-0.248329,0.284922,-0.000476944,-0.00171144,0.346652,-0.11032940255870527,0.3296583107283113,-0.00047683028029044117,0.44553283855645587,-0.0017099763216814612,-0.2198967529144651
513,0.5036,35.8694,576.653,-0.000555837,144.06,-0.250778,-0.970198,-0.1171,0.369082,-0.248737,0.285381,-0.000477306,-0.00171278,0.347227,-0.1105037609081273,0.3302687639812394,-0.00047719210761243414,0.4464062041207928,-0.0017113140294169327,-0.22021497011855207
514,0.5046,35.8822,576.89,-0.000559053,144.116,-0.249591,-0.965692,-0.117295,0.369686,-0.249144,0.285839,-0.000477666,-0.00171411,0.347802,-0.11067719576430213,0.3308781666176941,-0.0004775519357584912,0.4472800973572717,-0.0017126417524863102,-0.22053227804916975
515,0.5056,35.895,577.127,-0.000562185,144.171,-0.248401,-0.96118,-0.11749,0.370289,-0.24955,0.286297,-0.000478023,-0.00171542,0.348376,-0.11085059680397724,0.3314878484244812,-0.00047790876520870107,0.448153070430908,-0.0017139495080690237,-0.2208486777108043
516,0.5066,35.9077,577.364,-0.000565235,144.227,-0.247211,-0.956661,-0.117686,0.370892,-0.249957,0.286755,-0.000478376,-0.00171672,0.34895,-0.11102485300933773,0.3320978095294904,-0.0004782615964447068,0.4490265700660503,-0.0017152472790911144,-0.2211657277749114
517,0.5076,35.9204,577.6,-0.000568201,144.282,-0.246018,-0.952137,-0.117881,0.371495,-0.250363,0.287212,-0.000478727,-0.00171802,0.349523,-0.11119818626245948,0.3327067173532856,-0.0004786124285133253,0.44990059658031045,-0.0017165450484261102,-0.2214818703081579
518,0.5086,35.9331,577.836,-0.000571085,144.337,-0.244824,-0.947607,-0.118076,0.372097,-0.250769,0.287669,-0.000479075,-0.0017193,0.350097,-0.11137148571889222,0.33331590351155094,-0.00047896026189564456,0.4507736995170677,-0.0017178228504306503,-0.22179788451358828
519,0.5096,35.9458,578.072,-0.000573887,144.392,-0.243629,-0.94307,-0.11827,0.372699,-0.251175,0.288126,-0.00047942,-0.00172057,0.350669,-0.11154386292953267,0.3339253681315142,-0.0004793050965948842,0.45164732822003284,-0.001719090667990586,-0.22211377044329284
520,0.5106,35.9584,578.307,-0.000576607,144.447,-0.242432,-0.938528,-0.118465,0.3733,-0.25158,0.288582,-0.000479762,-0.00172183,0.351242,-0.11171709498558702,0.3345337768060175,-0.0004796469326140418,0.4525200304850552,-0.0017203485011438868,-0.22242875057848055
521,0.5116,35.9711,578.541,-0.000579245,144.502,-0.241233,-0.933981,-0.11866,0.373901,-0.251986,0.289038,-0.0004801,-0.00172308,0.351814,-0.1118902932646838,0.335142462978141,-0.0004799847704363147,0.45339325740178094,-0.0017215963499284115,-0.2227443804285505
522,0.5126,35.9837,578.775,-0.000581801,144.556,-0.240033,-0.929427,-0.118854,0.374502,-0.252391,0.289494,-0.000480436,-0.00172431,0.352386,-0.1120625698364226,0.33575142677445236,-0.0004803206091049672,0.45426700928562047,-0.001722824231609743,-0.2230591052184051
523,0.5136,35.9963,579.009,-0.000584276,144.611,-0.238832,-0.924868,-0.119048,0.375102,-0.252795,0.28995,-0.000480769,-0.00172554,0.352957,-0.11223481298974824,0.3363606683215774,-0.00048065344910286356,0.45513983131161506,-0.0017240521117808383,-0.22337292594384195
524,0.5146,36.0088,579.242,-0.00058667,144.666,-0.237629,-0.920303,-0.119242,0.375702,-0.2532,0.290405,-0.000481099,-0.00172675,0.353528,-0.11240702273114322,0.33696885077667993,-0.0004809832904327793,0.4560131771879645,-0.0017252600249469952,-0.22368739622430456
525,0.5156,36.0214,579.475,-0.000588982,144.72,-0.236424,-0.915733,-0.119437,0.376301,-0.253604,0.29086,-0.000481426,-0.00172796,0.354098,-0.112580086487446,0.33757731001776325,-0.0004813101330978231,0.4568855903427549,-0.0017264679366515434,-0.2240009631714417
526,0.5166,36.0339,579.708,-0.000591214,144.774,-0.235218,-0.911157,-0.119631,0.376901,-0.254007,0.291314,-0.000481751,-0.00172915,0.354669,-0.11275222925227935,0.3381847079854172,-0.0004816349766192385,0.45775998398882245,-0.0017276558814478538,-0.22431362777713382
527,0.5176,36.0464,579.94,-0.000593366,144.829,-0.234011,-0.906576,-0.119824,0.377499,-0.254411,0.291768,-0.000482072,-0.00173033,0.355238,-0.11292345154855066,0.338792381774355,-0.000481955821962865,0.4586319851616125,-0.0017288338421189708,-0.22462694177782228
528,0.5186,36.0589,580.171,-0.000595437,144.883,-0.232802,-0.90199,-0.120018,0.378098,-0.254814,0.292222,-0.00048239,-0.00173151,0.355808,-0.11309552770702314,0.3394003315098282,-0.00048227366865039034,0.45950596745228833,-0.0017300118013999777,-0.22493935416496158
529,0.5196,36.0714,580.402,-0.000597428,144.937,-0.231592,-0.897398,-0.120212,0.378695,-0.255217,0.292676,-0.000482705,-0.00173267,0.356377,-0.11326757048595881,0.34000855731714474,-0.00048258851668459,0.4603775526571541,-0.001731169793914633,-0.2252516406752748
530,0.5206,36.0838,580.633,-0.000599339,144.991,-0.230381,-0.892801,-0.120405,0.379293,-0.25562,0.293129,-0.000483018,-0.00173381,0.356946,-0.11343869333096934,0.34061571870528096,-0.00048290136558548635,0.4612511196041278,-0.001732307819732437,-0.22556380135947995
531,0.5216,36.0962,580.864,-0.000601171,145.045,-0.229168,-0.888199,-0.120598,0.37989,-0.256023,0.293582,-0.000483327,-0.00173495,0.357514,-0.11360978315245762,0.3412231551998328,-0.0004832102163212504,0.4621237469758841,-0.0017334458442528344,-0.2258758362682749
532,0.5226,36.1086,581.094,-0.000602924,145.099,-0.227954,-0.883591,-0.120792,0.380487,-0.256425,0.294035,-0.000483634,-0.00173608,0.358082,-0.11378172617551352,0.34183086692545195,-0.00048351706792859606,0.46299689546171874,-0.0017345738848216774,-0.22618697163969537
533,0.5236,36.121,581.323,-0.000604597,145.152,-0.226739,-0.878979,-0.120985,0.381083,-0.256827,0.294487,-0.000483937,-0.0017372,0.358649,-0.11395274979805115,0.3424375115686633,-0.0004838199213770267,0.46386910150299565,-0.0017356919414728278,-0.2264979819598335
534,0.5246,36.1334,581.552,-0.000606191,145.206,-0.225522,-0.874361,-0.121178,0.381679,-0.257229,0.294939,-0.000484238,-0.0017383,0.359217,-0.11412374041621476,0.34304443047723265,-0.0004841207757019239,0.4647418275340147,-0.00173679003160776,-0.22680886727894978
535,0.5256,36.1457,581.781,-0.000607707,145.259,-0.224304,-0.869739,-0.121371,0.382275,-0.25763,0.295391,-0.000484535,-0.0017394,0.359784,-0.11429469803637338,0.3436516237751561,-0.0004844176318740123,0.4656150738647824,-0.0017378881205347696,-0.22711885476652582
536,0.5266,36.158,582.01,-0.000609145,145.313,-0.223084,-0.865112,-0.121563,0.38287,-0.258031,0.295842,-0.00048483,-0.00174048,0.36035,-0.1144647371300751,0.3442577473280659,-0.0004847124889272303,0.46648737431738185,-0.0017389662430333797,-0.22742871797403907
537,0.5276,36.1703,582.238,-0.000610504,145.366,-0.221864,-0.860479,-0.121756,0.383465,-0.258432,0.296294,-0.000485122,-0.00174156,0.360916,-0.11463562894421842,0.34486548916916737,-0.00048500434734866094,0.4673601939431895,-0.0017400443643676988,-0.227738456951316
538,0.5286,36.1826,582.465,-0.000611785,145.419,-0.220642,-0.855842,-0.121948,0.384059,-0.258833,0.296744,-0.000485411,-0.00174262,0.361482,-0.11480560258546946,0.34547081482735176,-0.00048529320714063573,0.46823206481840596,-0.0017411025193598828,-0.22804807174816288
539,0.5296,36.1949,582.692,-0.000612989,145.473,-0.219419,-0.8512,-0.122141,0.384653,-0.259233,0.297195,-0.000485697,-0.00174367,0.362047,-0.11497642861892798,0.34607775902046667,-0.00048557906830593023,0.46910445373876675,-0.001742150690651867,-0.2283567907715427
540,0.5306,36.2071,582.919,-0.000614115,145.526,-0.218194,-0.846554,-0.122333,0.385247,-0.259633,0.297645,-0.00048598,-0.00174471,0.362612,-0.11514633683292264,0.34668363032284466,-0.0004858619308469869,0.46997736101208165,-0.0017431888782752925,-0.2286653863320074
541,0.5316,36.2193,583.145,-0.000615164,145.579,-0.216969,-0.841902,-0.122525,0.38584,-0.260033,0.298095,-0.000486261,-0.00174574,0.363177,-0.11531621242767176,0.3472897743286627,-0.0004861427942802754,0.4708493160962923,-0.0017442170822612457,-0.22897385847893226
542,0.5326,36.2315,583.371,-0.000616136,145.632,-0.215742,-0.837246,-0.122717,0.386433,-0.260433,0.298545,-0.000486538,-0.00174676,0.363741,-0.11548605540943757,0.3478961911606646,-0.000486419659580406,0.47172178840320944,-0.0017452353026404799,-0.2292822072616728
543,0.5336,36.2437,583.597,-0.000617031,145.684,-0.214514,-0.832586,-0.122909,0.387026,-0.260832,0.298994,-0.000486812,-0.00174777,0.364305,-0.1156558657844814,0.34850153243944293,-0.00048669352626395934,0.4725947782396369,-0.001746243539443748,-0.22958966231961242
544,0.5346,36.2559,583.822,-0.00061785,145.737,-0.213285,-0.827921,-0.123101,0.387618,-0.261231,0.299443,-0.000487084,-0.00174876,0.364869,-0.11582564355906277,0.34910714557748346,-0.0004869653938462948,0.47346681244501143,-0.001747231810173444,-0.22989699472745428
545,0.5356,36.268,584.047,-0.000618592,145.79,-0.212054,-0.823252,-0.123293,0.388209,-0.26163,0.299892,-0.000487352,-0.00174975,0.365432,-0.11599538873944071,0.3497130306968781,-0.000487233263303688,0.4743378887088483,-0.0017482200799247005,-0.23020420453412582
546,0.5366,36.2802,584.271,-0.000619259,145.842,-0.210823,-0.818578,-0.123484,0.388801,-0.262028,0.30034,-0.000487618,-0.00175073,0.365995,-0.11616421749653194,0.35031783760126123,-0.0004874991336643042,0.47521095514112965,-0.001749198366189697,-0.23051052229944247
547,0.5376,36.2923,584.495,-0.000619849,145.895,-0.20959,-0.8139,-0.123676,0.389392,-0.262427,0.300788,-0.000487881,-0.00175169,0.366557,-0.11633389767695401,0.35092291551984034,-0.00048776200541744696,0.47608306249795773,-0.001750156686499249,-0.23081748735744356
548,0.5386,36.3044,584.719,-0.000620364,145.947,-0.208356,-0.809217,-0.123867,0.389982,-0.262825,0.301236,-0.000488141,-0.00175265,0.367119,-0.11650266178501234,0.3515282645740567,-0.0004880218785655588,0.47695420846762215,-0.0017511150058888703,-0.23112356108476328
549,0.5396,36.3164,584.942,-0.000620804,145.999,-0.207121,-0.80453,-0.124058,0.390573,-0.263223,0.301683,-0.000488398,-0.00175359,0.367681,-0.11667139366220414,0.3521325327521976,-0.0004882787531108601,0.4778273463916689,-0.0017520533593997634,-0.23142951301897796
550,0.5406,36.3285,585.165,-0.000621169,146.052,-0.205885,-0.799839,-0.124249,0.391162,-0.26362,0.30213,-0.000488652,-0.00175452,0.368242,-0.11684009331468503,0.3527370710985922,-0.0004885326290559044,0.47869804309370045,-0.0017529817295584005,-0.23173457494351068
551,0.5416,36.3405,585.388,-0.000621458,146.104,-0.204648,-0.795144,-0.12444,0.391752,-0.264017,0.302577,-0.000488904,-0.00175544,0.368803,-0.11700876074860922,0.35334187973403264,-0.0004887845059139417,0.4795707323571432,-0.0017539001163927592,-0.23203951578249649
552,0.5426,36.3525,585.61,-0.000621674,146.156,-0.20341,-0.790445,-0.124631,0.392341,-0.264414,0.303024,-0.000489152,-0.00175636,0.369364,-0.11717739597012988,0.35394695877936555,-0.0004890323846645783,0.48044245621597637,-0.0017548185023822382,-0.2323443355839967
553,0.5436,36.3645,585.832,-0.000621814,146.208,-0.202171,-0.785742,-0.124822,0.39293,-0.264811,0.30347,-0.000489397,-0.00175726,0.369924,-0.1173459989853991,0.3545509538038596,-0.0004892772648216193,0.48131469367140167,-0.001755716922641204,-0.23264903439605367
554,0.5446,36.3765,586.053,-0.000621881,146.259,-0.200931,-0.781035,-0.125012,0.393518,-0.265207,0.303916,-0.00048964,-0.00175815,0.370484,-0.11751368731469614,0.35515521827021557,-0.0004895201458977594,0.4821859628393128,-0.0017566053596578257,-0.23295284521991955
555,0.5456,36.3884,586.274,-0.000621874,146.311,-0.19969,-0.776324,-0.125203,0.394106,-0.265604,0.304362,-0.00048988,-0.00175902,0.371044,-0.11768222610445223,0.35575975229863155,-0.0004897600283841896,0.4830577444641422,-0.0017574738310334181,-0.23325730250159804
556,0.5466,36.4003,586.494,-0.000621793,146.363,-0.198447,-0.771608,-0.125393,0.394693,-0.266,0.304807,-0.000490117,-0.00175989,0.371603,-0.11784985055666508,0.3563631996454808,-0.0004899969122830194,0.48392855491800635,-0.0017583423016533928,-0.23356087249898083
557,0.5476,36.4123,586.715,-0.000621639,146.414,-0.197204,-0.76689,-0.125584,0.395281,-0.266395,0.305252,-0.000490351,-0.00176075,0.372162,-0.11801832514537336,0.35696691558615723,-0.0004902307975963582,0.48480136148828246,-0.0017592007891098493,-0.23386355617038312
558,0.5486,36.4242,586.935,-0.000621411,146.466,-0.19596,-0.762167,-0.125774,0.395867,-0.266791,0.305697,-0.000490582,-0.0017616,0.37272,-0.11818588574483468,0.35757090024021165,-0.0004904616843263154,0.48567171007334387,-0.001760049293428545,-0.23416688613884196
559,0.5496,36.436,587.154,-0.000621111,146.517,-0.194715,-0.75744,-0.125964,0.396454,-0.267186,0.306142,-0.000490811,-0.00176243,0.373278,-0.1183534145108065,0.35817515372724795,-0.0004906905719843646,0.48654405537545453,-0.001760877832243768,-0.23446933048212693
560,0.5506,36.4479,587.373,-0.000620738,146.569,-0.193469,-0.75271,-0.126154,0.39704,-0.267581,0.306586,-0.000491036,-0.00176326,0.373836,-0.11852091144933641,0.35877831738792687,-0.0004909154615537759,0.4874154254784093,-0.0017617063703713187,-0.23477165538348765
561,0.5516,36.4597,587.592,-0.000620292,146.62,-0.192221,-0.747976,-0.126344,0.397626,-0.267975,0.30703,-0.000491259,-0.00176408,0.374394,-0.11868837656647113,0.35938174891273245,-0.0004911383520547208,0.4882873063538862,-0.0017625249254364928,-0.23507309596357273
562,0.5526,36.4716,587.81,-0.000619775,146.671,-0.190973,-0.743239,-0.126533,0.398211,-0.26837,0.307473,-0.000491478,-0.00176488,0.374951,-0.11885492872362535,0.3599840884358543,-0.0004913572444714687,0.48915820914233166,-0.001763323515097115,-0.23537518242466327
563,0.5536,36.4834,588.028,-0.000619185,146.722,-0.189724,-0.738498,-0.126723,0.398796,-0.268764,0.307917,-0.000491695,-0.00176567,0.375507,-0.11902233038350662,0.3605880554418732,-0.000491574137823414,0.49002962155796004,-0.0017641121217600864,-0.23567638526193257
564,0.5546,36.4951,588.246,-0.000618524,146.773,-0.188475,-0.733753,-0.126912,0.39938,-0.269158,0.30836,-0.00049191,-0.00176646,0.376064,-0.11918881942935367,0.36119092947717335,-0.000491789032111889,0.4909000529981915,-0.0017649007278000006,-0.23597746944865972
565,0.5556,36.5069,588.463,-0.000617791,146.824,-0.187224,-0.729005,-0.127102,0.399965,-0.269552,0.308802,-0.000492121,-0.00176723,0.37662,-0.11935615765602714,0.36179270885144676,-0.0004919999283221621,0.4917724846905849,-0.0017656693685305092,-0.23627843503158363
566,0.5566,36.5187,588.68,-0.000616987,146.875,-0.185972,-0.724254,-0.127291,0.400548,-0.269945,0.309245,-0.000492329,-0.00176799,0.377176,-0.11952258361448165,0.3623961166664309,-0.0004922078259644858,0.4926424416169628,-0.001766428026333533,-0.23657851863632562
567,0.5576,36.5304,588.896,-0.000616112,146.926,-0.18472,-0.719499,-0.12748,0.401132,-0.270338,0.309687,-0.000492535,-0.00176874,0.377731,-0.11968897812140233,0.3629984288511843,-0.0004924137245485571,0.4935143993897546,-0.0017671767012317208,-0.2368784843313817
568,0.5586,36.5421,589.113,-0.000615166,146.976,-0.183466,-0.714741,-0.127669,0.401715,-0.270731,0.310129,-0.000492738,-0.00176948,0.378286,-0.11985534118273289,0.36360100731676726,-0.0004926166245678987,0.4943853721484883,-0.00176791539324761,-0.23717833216308126
569,0.5596,36.5538,589.328,-0.00061415,147.027,-0.182212,-0.70998,-0.127858,0.402298,-0.271124,0.31057,-0.000492937,-0.00177021,0.37884,-0.120021672804416,0.3642024879777317,-0.0004928155265174761,0.4952568528323864,-0.001768644102403405,-0.23747806217773548
570,0.5606,36.5655,589.544,-0.000613064,147.077,-0.180957,-0.705216,-0.128046,0.40288,-0.271516,0.311011,-0.000493135,-0.00177093,0.379395,-0.12018709317992626,0.3648042339501645,-0.0004930134289203858,0.4961273456095616,-0.0017693628287209773,-0.23777691219893082
571,0.5616,36.5771,589.759,-0.000611907,147.128,-0.179701,-0.700448,-0.128235,0.403462,-0.271908,0.311452,-0.000493329,-0.00177164,0.379948,-0.12035336210640668,0.3654062453510938,-0.0004932073332569731,0.49699834516099006,-0.0017700715722217542,-0.23807564509387602
572,0.5626,36.5888,589.974,-0.000610681,147.178,-0.178444,-0.695677,-0.128424,0.404043,-0.2723,0.311893,-0.00049352,-0.00177234,0.380502,-0.12051959961102954,0.3660085222975993,-0.000493398239036158,0.49786835391259765,-0.0017707703329270519,-0.2383742609084757
573,0.5636,36.6004,590.188,-0.000609385,147.228,-0.177187,-0.690903,-0.128612,0.404625,-0.272692,0.312333,-0.000493709,-0.00177303,0.381055,-0.12068492638509898,0.3666096982964311,-0.0004935871457659724,0.4987403670257764,-0.0017714591108578537,-0.23867275968861634
574,0.5646,36.612,590.402,-0.00060802,147.279,-0.175928,-0.686126,-0.1288,0.405206,-0.273083,0.312773,-0.000493895,-0.00177371,0.381608,-0.12085022208065632,0.36721113887090473,-0.0004937730539414931,0.4996113881861637,-0.0017721379060349207,-0.23897038045092733
575,0.5656,36.6236,590.616,-0.000606586,147.329,-0.174669,-0.681346,-0.128989,0.405786,-0.273474,0.313213,-0.000494078,-0.00177438,0.38216,-0.12101636568761764,0.36781284413745907,-0.0004939559635642743,0.5004814150747194,-0.001772806718478459,-0.2392678848662676
576,0.5666,36.6351,590.829,-0.000605083,147.379,-0.17341,-0.676563,-0.129177,0.406366,-0.273865,0.313653,-0.000494258,-0.00177503,0.382713,-0.12118159907844306,0.36841481421258426,-0.0004941358746359814,0.5013519467252376,-0.001773455565943216,-0.23956527298011987
577,0.5676,36.6467,591.042,-0.000603512,147.429,-0.172149,-0.671778,-0.129365,0.406946,-0.274256,0.314092,-0.000494435,-0.00177568,0.383264,-0.12134680140831067,0.36901568019645703,-0.0004943127871582798,0.5022229834305647,-0.0017741044129861994,-0.23986254483794922
578,0.5686,36.6582,591.255,-0.000601872,147.479,-0.170888,-0.666989,-0.129552,0.407525,-0.274646,0.314531,-0.00049461,-0.00177632,0.383816,-0.12151109419459305,0.36961681001840496,-0.000494487700638313,0.5030930223899437,-0.0017747432773549399,-0.24015894064452326
579,0.5696,36.6697,591.467,-0.000600164,147.528,-0.169626,-0.662198,-0.12974,0.408104,-0.275036,0.314969,-0.000494782,-0.00177694,0.384367,-0.12167623458520138,0.3702168335767597,-0.0004946596155716021,0.5039635652477445,-0.0017753621768222816,-0.24045522087927085
580,0.5706,36.6812,591.679,-0.000598389,147.578,-0.168363,-0.657404,-0.129928,0.408683,-0.275426,0.315408,-0.000494951,-0.00177756,0.384918,-0.12184134393233437,0.3708184908208023,-0.0004948285319598122,0.5048346122958092,-0.0017759810759058192,-0.24075138558725595
581,0.5716,36.6927,591.89,-0.000596546,147.628,-0.167099,-0.652607,-0.130115,0.409261,-0.275815,0.315846,-0.000495117,-0.00177816,0.385468,-0.12200554424781107,0.37141904083063304,-0.0004949944498044978,0.5057046581207372,-0.001776580010137585,-0.2410466758605807
582,0.5726,36.7042,592.101,-0.000594635,147.677,-0.165835,-0.647807,-0.130303,0.409839,-0.276205,0.316283,-0.000495281,-0.00177875,0.386018,-0.12217059169054678,0.37201848191981446,-0.0004951583686120253,0.5065752069775142,-0.0017771689617815944,-0.24134260994609746
583,0.5736,36.7156,592.312,-0.000592658,147.727,-0.164571,-0.643005,-0.13049,0.410417,-0.276594,0.316721,-0.000495441,-0.00177934,0.386568,-0.12233473044244902,0.37261955764086885,-0.0004953182893738806,0.5074462591569768,-0.001777757913078215,-0.24163767027787308
584,0.5746,36.727,592.523,-0.000590613,147.776,-0.163305,-0.6382,-0.130677,0.410994,-0.276983,0.317158,-0.000495599,-0.00177991,0.387117,-0.12249883850327437,0.37321952347054377,-0.0004954762111011313,0.5083163066330685,-0.0017783268995940071,-0.24193261585350123
585,0.5756,36.7384,592.733,-0.000588502,147.825,-0.162039,-0.633393,-0.130864,0.411571,-0.277371,0.317595,-0.000495754,-0.00178047,0.387666,-0.12266291587876155,0.37381975154258207,-0.0004956311342902975,0.5091868562714139,-0.0017788859035744453,-0.24222668894468113
586,0.5766,36.7498,592.943,-0.000586325,147.875,-0.160772,-0.628583,-0.131051,0.412147,-0.27776,0.318031,-0.000495906,-0.00178103,0.388215,-0.12282696257464809,0.3744188675520539,-0.0004957830589428225,0.5100563983046906,-0.0017794449072418006,-0.2425214054366076
587,0.5776,36.7612,593.152,-0.000584082,147.924,-0.159505,-0.623771,-0.131238,0.412723,-0.278148,0.318468,-0.000496056,-0.00178157,0.388763,-0.12299097859667063,0.3750196198519913,-0.0004959329845640736,0.5109264413384529,-0.00177998394619594,-0.242815250121743
588,0.5786,36.7726,593.361,-0.000581773,147.973,-0.158237,-0.618957,-0.131425,0.413299,-0.278536,0.318904,-0.000496203,-0.0017821,0.389311,-0.12315496395056458,0.37561925911810756,-0.0004960799116511261,0.5117969856613602,-0.0017805130026643523,-0.24310898081725585
589,0.5796,36.7839,593.57,-0.000579398,148.022,-0.156968,-0.61414,-0.131611,0.413875,-0.278923,0.319339,-0.000496347,-0.00178262,0.389859,-0.12331804196054463,0.376217783665475,-0.0004962238402053121,0.5126680315622378,-0.001781032076662581,-0.24340184096958495
590,0.5806,36.7952,593.779,-0.000576958,148.071,-0.155699,-0.609321,-0.131798,0.41445,-0.279311,0.319775,-0.000496488,-0.00178313,0.390406,-0.12348196615930773,0.37681794544491365,-0.0004963647702278529,0.5135380657912556,-0.0017815411682063909,-0.243695344111997
591,0.5816,36.8065,593.987,-0.000574453,148.119,-0.154429,-0.604499,-0.131984,0.415024,-0.279698,0.32021,-0.000496627,-0.00178364,0.390953,-0.12364498335253316,0.37741699153426045,-0.0004965037012234497,0.5144070860259671,-0.0017820502594906307,-0.24398797738563494
592,0.5826,36.8178,594.195,-0.000571883,148.168,-0.153159,-0.599676,-0.13217,0.415599,-0.280085,0.320645,-0.000496762,-0.00178413,0.391499,-0.12380797022738033,0.37801629826534167,-0.0004966386341863638,0.5152781204988441,-0.0017825393861661265,-0.24428049743210678
593,0.5836,36.8291,594.402,-0.000569248,148.217,-0.151888,-0.59485,-0.132357,0.416173,-0.280471,0.321079,-0.000496895,-0.00178461,0.392046,-0.12397180281812314,0.37861448713638435,-0.0004967715681245544,0.5161481398116659,-0.0017830185304322788,-0.2445721488677498
594,0.5846,36.8404,594.609,-0.000566549,148.266,-0.150617,-0.590022,-0.132543,0.416746,-0.280858,0.321514,-0.000497025,-0.00178508,0.392592,-0.12413472891020272,0.3792143148913669,-0.0004969015035357627,0.5170171416410254,-0.0017834876923032983,-0.24486444288359777
595,0.5856,36.8516,594.816,-0.000563786,148.314,-0.149345,-0.585192,-0.132729,0.417319,-0.281244,0.321948,-0.000497153,-0.00178554,0.393137,-0.12429762470084726,0.3798130238144686,-0.0004970294399242459,0.5178866415511199,-0.001783946871793285,-0.24515586895979358
596,0.5866,36.8628,595.022,-0.000560959,148.363,-0.148072,-0.58036,-0.132914,0.417892,-0.28163,0.322382,-0.000497278,-0.00178599,0.393682,-0.12445961465574484,0.38041199263363623,-0.0004971543777877452,0.518756639827431,-0.0017843960689161165,-0.24544718256723186
597,0.5876,36.874,595.229,-0.000558068,148.411,-0.146799,-0.575526,-0.1331,0.418465,-0.282016,0.322815,-0.0004974,-0.00178643,0.394227,-0.12462245002326022,0.38100984045115815,-0.0004972763171274819,0.5196271367556045,-0.0017848352836852266,-0.2457383837493171
598,0.5886,36.8852,595.434,-0.000555114,148.459,-0.145526,-0.57069,-0.133286,0.419037,-0.282401,0.323248,-0.000497519,-0.00178686,0.394772,-0.12478525510621374,0.3816079471928382,-0.0004973952579445662,0.5204966121240775,-0.001785264516113827,-0.2460287185785327
599,0.5896,36.8964,595.64,-0.000552097,148.507,-0.144252,-0.565852,-0.133471,0.419609,-0.282786,0.323681,-0.000497636,-0.00178727,0.395316,-0.12494715485783037,0.38220631297081487,-0.0004975121997424781,0.5213665849747278,-0.001785673784071462,-0.24631894165035384
600,0.5906,36.9075,595.845,-0.000549017,148.556,-0.142977,-0.561012,-0.133656,0.42018,-0.283171,0.324114,-0.000497749,-0.00178768,0.39586,-0.12510902466076324,0.3828049378972749,-0.0004976251435171442,0.5222355333559017,-0.0017860830518613424,-0.24660905300779867
601,0.5916,36.9187,596.05,-0.000545874,148.604,-0.141702,-0.55617,-0.133842,0.420751,-0.283556,0.324546,-0.00049786,-0.00178808,0.396403,-0.1252717392492505,0.3834024386813235,-0.0004977360882746362,0.5231049780482848,-0.0017864823373482386,-0.24689905269386891
602,0.5926,36.9298,596.254,-0.000542669,148.652,-0.140427,-0.551327,-0.134027,0.421322,-0.28394,0.324978,-0.000497969,-0.00178847,0.396946,-0.125433549009625,0.38400019764147286,-0.0004978450340153984,0.5239749193353513,-0.001786871640544141,-0.24718818794011432
603,0.5936,36.9409,596.458,-0.000539402,148.7,-0.139151,-0.546481,-0.134212,0.421892,-0.284324,0.32541,-0.000498074,-0.00178885,0.397489,-0.12559532883796276,0.38459821488927903,-0.0004979499817362454,0.5248438326561431,-0.0017872509614609289,-0.24747721217973984
604,0.5946,36.952,596.662,-0.000536073,148.748,-0.137875,-0.541635,-0.134397,0.422462,-0.284708,0.325841,-0.000498177,-0.00178922,0.398032,-0.12575707873980047,0.3851951053405487,-0.0004980529304420278,0.5257132413987096,-0.0017876203001097046,-0.2477661254553637
605,0.5956,36.9631,596.866,-0.000532682,148.795,-0.136598,-0.536786,-0.134582,0.423032,-0.285092,0.326272,-0.000498278,-0.00178958,0.398574,-0.12591879872067413,0.38579225310705034,-0.0004981538801336338,0.5265831458455215,-0.0017879796565016814,-0.24805492780958804
606,0.5966,36.9741,597.069,-0.00052923,148.843,-0.135321,-0.531936,-0.134766,0.423601,-0.285475,0.326703,-0.000498375,-0.00178992,0.399116,-0.12607961486617036,0.3863896582997106,-0.0004982508318079892,0.5274520188264284,-0.0017883190485309397,-0.24834286762824187
607,0.5976,36.9852,597.272,-0.000525716,148.891,-0.134044,-0.527084,-0.134951,0.42417,-0.285859,0.327134,-0.00049847,-0.00179026,0.399657,-0.1262412751833798,0.38698732102950406,-0.0004983457844696115,0.5283213863367417,-0.0017886584404447348,-0.2486314485559884
608,0.5986,36.9962,597.474,-0.000522142,148.938,-0.132766,-0.522231,-0.135135,0.424739,-0.286242,0.327564,-0.000498562,-0.00179059,0.400198,-0.1264020319986655,0.3875838538229057,-0.0004984377386175742,0.5291912486579287,-0.0017889878501331502,-0.24891916760947563
609,0.5996,37.0072,597.677,-0.000518507,148.986,-0.131488,-0.517376,-0.13532,0.425307,-0.286624,0.327995,-0.000498651,-0.00179091,0.400739,-0.12656363267422233,0.3881820313619033,-0.0004985266942526545,0.5300600760107759,-0.001789307277605956,-0.24920602569406636
610,0.6006,37.0182,597.878,-0.000514812,149.033,-0.130209,-0.51252,-0.135504,0.425875,-0.287007,0.328424,-0.000498738,-0.00179121,0.40128,-0.12672433018118623,0.3887776892128312,-0.0004986136508771111,0.5309293969977384,-0.0017896067407687788,-0.24949352472664643
611,0.6016,37.0292,598.08,-0.000511056,149.081,-0.12893,-0.507662,-0.135688,0.426443,-0.287389,0.328854,-0.000498822,-0.00179151,0.40182,-0.12688499812252907,0.38937499203009485,-0.0004986976089900175,0.5317992118992798,-0.0017899062038418956,-0.24978016344871923
612,0.6026,37.0401,598.281,-0.000507241,149.128,-0.127651,-0.502803,-0.135872,0.42701,-0.287771,0.329283,-0.000498903,-0.0017918,0.40236,-0.12704563650369016,0.3899711617709418,-0.0004987785685922619,0.5326679883272689,-0.0017901956847270473,-0.25006669269571136
613,0.6036,37.0511,598.482,-0.000503365,149.175,-0.126371,-0.497942,-0.136056,0.427577,-0.288153,0.329712,-0.000498982,-0.00179208,0.402899,-0.12720624533010838,0.3905675873234755,-0.0004988575291855479,0.5335372574911701,-0.0017904751834332266,-0.25035311250943426
614,0.6046,37.062,598.683,-0.000499431,149.222,-0.125091,-0.493081,-0.13624,0.428143,-0.288535,0.330141,-0.000499058,-0.00179234,0.403438,-0.12736682460722104,0.39116426879746236,-0.0004989334912695043,0.5344054852641913,-0.0017907347178758304,-0.2506394229316834
615,0.6056,37.0729,598.883,-0.000495437,149.269,-0.123811,-0.488218,-0.136424,0.428709,-0.288916,0.330569,-0.000499131,-0.0017926,0.403977,-0.1275273743404649,0.39175981454220565,-0.000499006454844686,0.5352742045932295,-0.0017909942522511546,-0.2509248749294878
616,0.6066,37.0838,599.083,-0.000491384,149.316,-0.12253,-0.483354,-0.136607,0.429275,-0.289297,0.330997,-0.000499202,-0.00179285,0.404516,-0.12768702222273387,0.3923556152350829,-0.0004990774194127967,0.5361434157565836,-0.0017912438044713763,-0.2512102181907967
617,0.6076,37.0947,599.283,-0.000487273,149.363,-0.121249,-0.478488,-0.136791,0.42984,-0.289678,0.331425,-0.00049927,-0.00179309,0.405054,-0.1278475130450364,0.3929516709852352,-0.000499145385473132,0.5370115820203605,-0.001791483374544045,-0.25149545275703067
618,0.6086,37.1056,599.482,-0.000483103,149.41,-0.119968,-0.473622,-0.136974,0.430405,-0.290058,0.331853,-0.000499335,-0.00179331,0.405592,-0.12800710234728263,0.39354798190185014,-0.0004992103530265801,0.5378802389366728,-0.0017917029803935502,-0.25177983044979935
619,0.6096,37.1164,599.681,-0.000478875,149.457,-0.118687,-0.468754,-0.137158,0.43097,-0.290439,0.33228,-0.000499398,-0.00179353,0.406129,-0.1281675342802603,0.3941431539503115,-0.0004992733215744005,0.5387493867828175,-0.0017919225861947607,-0.2520648480351002
620,0.6106,37.1272,599.88,-0.000474588,149.503,-0.117405,-0.463886,-0.137341,0.431535,-0.290819,0.332707,-0.000499458,-0.00179374,0.406666,-0.12832706502397873,0.39473858019150376,-0.0004993332916162219,0.5396190258362481,-0.0017921322098690684,-0.25234900939876836
621,0.6116,37.1381,600.079,-0.000470245,149.55,-0.116123,-0.459016,-0.137524,0.432099,-0.291199,0.333134,-0.000499515,-0.00179394,0.407203,-0.12848656657624213,0.3953342607339905,-0.0004993902631525993,0.5404876158861893,-0.0017923318514225794,-0.2526330628016321
622,0.6126,37.1489,600.277,-0.000465843,149.597,-0.114841,-0.454145,-0.137707,0.432662,-0.291578,0.33356,-0.00049957,-0.00179412,0.407739,-0.12864603894239213,0.3959287997568839,-0.0004994452356845702,0.5413551546031667,-0.0017925115287866777,-0.2529162612013437
623,0.6136,37.1596,600.475,-0.000461385,149.643,-0.113559,-0.449274,-0.13789,0.433226,-0.291958,0.333987,-0.000499622,-0.0017943,0.408276,-0.12880548212776932,0.3965249886316462,-0.0004994972097120964,0.5422247241059122,-0.0017926912061184685,-0.25320009908947294
624,0.6146,37.1704,600.672,-0.000456869,149.69,-0.112276,-0.444401,-0.138072,0.433789,-0.292337,0.334413,-0.000499671,-0.00179447,0.408811,-0.12896402510217375,0.39712003501268356,-0.000499546185235511,0.5430932410901739,-0.0017928609013465602,-0.253483082623151
625,0.6156,37.1812,600.869,-0.000452297,149.736,-0.110993,-0.439528,-0.138255,0.434351,-0.292716,0.334838,-0.000499718,-0.00179463,0.409347,-0.12912341010140782,0.3977139372228442,-0.0004995931617557403,0.5439607032256948,-0.0017930206144760596,-0.2537659589263913
626,0.6166,37.1919,601.066,-0.000447668,149.782,-0.10971,-0.434654,-0.138438,0.434914,-0.293094,0.335264,-0.000499762,-0.00179478,0.409882,-0.12928276593585564,0.3983094902038795,-0.0004996371397726351,0.5448301978413783,-0.001793170345511741,-0.2540479820881816
627,0.6176,37.2026,601.263,-0.000442983,149.828,-0.108427,-0.429779,-0.13862,0.435476,-0.293473,0.335689,-0.000499803,-0.00179492,0.410417,-0.1294412220525113,0.3989038980399342,-0.0004996781192867505,0.5456986364209482,-0.001793310094458045,-0.2543306443350908
628,0.6186,37.2133,601.459,-0.000438242,149.875,-0.107143,-0.424903,-0.138802,0.436037,-0.293851,0.336114,-0.000499842,-0.00179504,0.410951,-0.129599649332778,0.39949855855300953,-0.0004997170997984579,0.5465660166333814,-0.001793429879253683,-0.25461245408613375
629,0.6196,37.224,601.655,-0.000433445,149.921,-0.10586,-0.420027,-0.138985,0.436599,-0.294229,0.336538,-0.000499878,-0.00179516,0.411486,-0.12975891802342043,0.40009207175774364,-0.000499753081808052,0.547435431017288,-0.001793549664034888,-0.2548941573332213
630,0.6206,37.2347,601.851,-0.000428593,149.967,-0.104576,-0.415149,-0.139167,0.43716,-0.294607,0.336963,-0.000499912,-0.00179527,0.412019,-0.12991728748828169,0.400687237351971,-0.0004997870648159042,0.5483037858448436,-0.0017936594667383732,-0.2551757541166042
631,0.6216,37.2454,602.046,-0.000423685,150.013,-0.103292,-0.410272,-0.139349,0.43772,-0.294984,0.337387,-0.000499943,-0.00179537,0.412553,-0.13007562813252316,0.40128125466337905,-0.0004998180493219762,0.5491710787842747,-0.001793759287367469,-0.2554564999333907
632,0.6226,37.256,602.242,-0.000418722,150.059,-0.102008,-0.405393,-0.139531,0.43828,-0.295362,0.337811,-0.000499971,-0.00179546,0.413086,-0.13023393996138954,0.4018755238915297,-0.000499846035326712,0.5500388575437685,-0.0017938491259250622,-0.2557378841914406
633,0.6236,37.2667,602.436,-0.000413705,150.104,-0.100724,-0.400514,-0.139712,0.43884,-0.295739,0.338234,-0.000499997,-0.00179554,0.413619,-0.1303913533719131,0.4024686426739146,-0.0004998720223303721,0.5509071223954609,-0.0017939289824139282,-0.25601841812513126
634,0.6246,37.2773,602.631,-0.000408633,150.15,-0.0994397,-0.395635,-0.139894,0.4394,-0.296116,0.338657,-0.00050002,-0.00179561,0.414152,-0.1305496077440148,0.40306201239861483,-0.0004998950108330291,0.5517758736116396,-0.0017939988568365095,-0.25629884631746236
635,0.6256,37.2879,602.825,-0.000403507,150.196,-0.0981553,-0.390755,-0.140076,0.439959,-0.296492,0.33908,-0.000500041,-0.00179567,0.414684,-0.13070783331644154,0.40365563317180153,-0.0004999160003350545,0.5526435588204097,-0.0017940587491948046,-0.2565784253870881
636,0.6266,37.2985,603.019,-0.000398326,150.241,-0.0968708,-0.385875,-0.140257,0.440518,-0.296868,0.339503,-0.000500058,-0.00179572,0.415216,-0.13086516096002998,0.4042495050996908,-0.0004999329918362605,0.5535117292008045,-0.0017941086594905897,-0.2568578993547441
637,0.6276,37.309,603.213,-0.000393092,150.287,-0.0955862,-0.380994,-0.140438,0.441077,-0.297245,0.339925,-0.000500074,-0.00179576,0.415747,-0.13102246012989194,0.4048422234456177,-0.0004999489838372062,0.5543803850241102,-0.0017941485877254193,-0.2571380111223015
638,0.6286,37.3196,603.406,-0.000387804,150.332,-0.0943016,-0.376113,-0.14062,0.441635,-0.29762,0.340348,-0.000500087,-0.00179579,0.416279,-0.13118059965101525,0.4054365974073657,-0.000499961977337815,0.5552479713130172,-0.0017941785339005145,-0.2574165321421755
639,0.6296,37.3301,603.599,-0.000382463,150.378,-0.0930168,-0.371231,-0.140801,0.442193,-0.297996,0.340769,-0.000500097,-0.00179581,0.416809,-0.13133784173164087,0.4060284107828487,-0.0004999719723381979,0.5561160418501658,-0.0017941984980167636,-0.25769569104092815
640,0.6306,37.3407,603.792,-0.000377069,150.423,-0.091732,-0.366349,-0.140982,0.44275,-0.298372,0.341191,-0.000500104,-0.00179582,0.41734,-0.1314950553540254,0.40662187998539334,-0.0004999789688383549,0.5569830399220239,-0.0017942084800747216,-0.25797474499566575
641,0.6316,37.3512,603.984,-0.000371622,150.468,-0.0904472,-0.361467,-0.141163,0.443307,-0.298747,0.341612,-0.000500109,-0.00179583,0.41787,-0.13165224052331947,0.4072141924698969,-0.0004999839663384353,0.5578505210463258,-0.0017942184621325685,-0.2582529522991627
642,0.6326,37.3617,604.177,-0.000366122,150.514,-0.0891623,-0.356585,-0.141343,0.443864,-0.299122,0.342034,-0.000500112,-0.00179582,0.4184,-0.1318085290536355,0.4078081621779128,-0.0004999869648384392,0.5587184854922063,-0.0017942084800747216,-0.25853105529447984
643,0.6336,37.3722,604.368,-0.00036057,150.559,-0.0878773,-0.351702,-0.141524,0.444421,-0.299496,0.342454,-0.000500111,-0.0017958,0.41893,-0.13196565748932443,0.4083995657920927,-0.0004999859653384009,0.5595869335289507,-0.0017941885159586946,-0.25880831282940886
644,0.6346,37.3826,604.56,-0.000354966,150.604,-0.0865924,-0.346819,-0.141705,0.444977,-0.299871,0.342875,-0.000500109,-0.00179577,0.419459,-0.13212275748734015,0.40899262683988225,-0.0004999839663384353,0.560454304970909,-0.0017941585697839324,-0.25908620760357115
645,0.6356,37.3931,604.751,-0.00034931,150.649,-0.0853074,-0.341937,-0.141885,0.445533,-0.300245,0.343295,-0.000500103,-0.00179574,0.419988,-0.1322789613322246,0.4095845280337047,-0.0004999779693383166,0.5613221588054818,-0.001794128623608171,-0.25936325755035794
646,0.6366,37.4035,604.942,-0.000343602,150.694,-0.0840224,-0.337054,-0.142066,0.446088,-0.300619,0.343715,-0.000500095,-0.00179569,0.420517,-0.13243600462737648,0.41017667787824164,-0.0004999699733381213,0.5621889331112397,-0.001794078713313385,-0.25964020389983866
647,0.6376,37.4139,605.133,-0.000337843,150.739,-0.0827375,-0.332171,-0.142246,0.446643,-0.300993,0.344135,-0.000500085,-0.00179563,0.421045,-0.13259215209285014,0.41076907647794836,-0.0004999599783377384,0.5630561886102561,-0.0017940188209563113,-0.2599170466907512
648,0.6386,37.4244,605.324,-0.000332033,150.783,-0.0814525,-0.327288,-0.142426,0.447198,-0.301367,0.344555,-0.000500072,-0.00179557,0.421573,-0.13274827145430934,0.4113617239373235,-0.0004999469848371296,0.5639239255696673,-0.0017939589285956847,-0.2601937859618194
649,0.6396,37.4347,605.514,-0.000326171,150.828,-0.0801676,-0.322405,-0.142606,0.447753,-0.30174,0.344974,-0.000500056,-0.00179549,0.422101,-0.1329043627168125,0.4119532084069961,-0.0004999309928361839,0.564792144256758,-0.0017938790721091502,-0.26046968222180433
650,0.6406,37.4451,605.704,-0.000320259,150.873,-0.0788827,-0.317522,-0.142786,0.448307,-0.302113,0.345393,-0.000500038,-0.00179541,0.422628,-0.1330604258854169,0.4125449407605897,-0.0004999130018347175,0.5656592792788993,-0.0017937992156162874,-0.2607454755916746
651,0.6416,37.4555,605.893,-0.000314297,150.918,-0.0775978,-0.312639,-0.142966,0.448861,-0.302486,0.345812,-0.000500018,-0.00179532,0.423155,-0.13321646096517903,0.4131369211019893,-0.0004998930118328415,0.5665268948269362,-0.0017937093770541424,-0.26102116610980086
652,0.6426,37.4658,606.083,-0.000308285,150.962,-0.076313,-0.307756,-0.143146,0.449414,-0.302859,0.34623,-0.000499994,-0.00179521,0.423682,-0.13337246796115443,0.41372773580668065,-0.0004998690238299242,0.5673934237729463,-0.0017935995743562083,-0.26129675381453976
653,0.6436,37.4762,606.272,-0.000302222,151.007,-0.0750282,-0.302873,-0.143326,0.449967,-0.303231,0.346648,-0.000499969,-0.0017951,0.424209,-0.13352844687839782,0.4143187975235405,-0.0004998440363264134,0.5682604320419842,-0.0017934897716460618,-0.2615715003161031
654,0.6446,37.4865,606.46,-0.00029611,151.051,-0.0737435,-0.297991,-0.143505,0.45052,-0.303603,0.347066,-0.00049994,-0.00179498,0.424735,-0.13368353140592726,0.4149101063558418,-0.0004998150508214172,0.5691279198991888,-0.0017933699868576403,-0.2618461446309758
655,0.6456,37.4968,606.649,-0.000289948,151.095,-0.0724589,-0.293108,-0.143685,0.451073,-0.303975,0.347484,-0.00049991,-0.00179484,0.425261,-0.13383945433678945,0.4155016624068999,-0.0004997850658153835,0.5699958876098457,-0.001793230237919663,-0.26212068679716416
656,0.6466,37.5071,606.837,-0.000283737,151.14,-0.0711743,-0.288226,-0.143864,0.451625,-0.304347,0.347901,-0.000499876,-0.0017947,0.425786,-0.133994483198966,0.4160920496873164,-0.0004997510828075313,0.5708627645758373,-0.0017930904889621457,-0.2623951268526604
657,0.6476,37.5174,607.025,-0.000277477,151.184,-0.0698899,-0.283345,-0.144043,0.452177,-0.304718,0.348318,-0.000499841,-0.00179455,0.426311,-0.13414948431345974,0.4166826832105668,-0.0004997161002981976,0.5717301201900087,-0.001792940757914474,-0.26266872750453896
658,0.6486,37.5277,607.213,-0.000271168,151.228,-0.0686056,-0.278463,-0.144222,0.452728,-0.30509,0.348735,-0.000499802,-0.00179439,0.426836,-0.13430445768523713,0.41727356307935604,-0.0004996771197863792,0.5725963821194784,-0.001792781044772207,-0.26294296372680737
659,0.6496,37.5379,607.4,-0.000264811,151.272,-0.0673213,-0.273582,-0.144401,0.453279,-0.305461,0.349152,-0.000499761,-0.00179422,0.427361,-0.13445940331926354,0.4178646893964313,-0.0004996361402722638,0.5734631214907946,-0.0017926113495305707,-0.26321636116890335
660,0.6506,37.5481,607.587,-0.000258405,151.316,-0.0660372,-0.268702,-0.14458,0.45383,-0.305832,0.349568,-0.000499718,-0.00179404,0.427885,-0.13461432122050354,0.41845464380923025,-0.0004995931617557403,0.5743303385670999,-0.001792431672184458,-0.26348965719936135
661,0.6516,37.5584,607.774,-0.000251952,151.36,-0.0647532,-0.263821,-0.144759,0.45438,-0.306202,0.349984,-0.000499672,-0.00179385,0.428409,-0.13476921139392095,0.41904484369411943,-0.0004995471847359934,0.5751964584144362,-0.0017922420127284289,-0.2637621156182818
662,0.6526,37.5686,607.961,-0.00024545,151.404,-0.0634694,-0.258941,-0.144938,0.454931,-0.306573,0.3504,-0.000499624,-0.00179366,0.428932,-0.1349240738444787,0.41963528915323667,-0.0004994992087130612,0.5760646308225561,-0.0017920523532364285,-0.26403520921139345
663,0.6536,37.5788,608.147,-0.000238901,151.448,-0.0621857,-0.254062,-0.145116,0.45548,-0.306943,0.350816,-0.000499573,-0.00179345,0.429456,-0.1350780436556146,0.420225980288762,-0.0004994482341862394,0.5769301278620766,-0.0017918427295453565,-0.2643074658134079
664,0.6546,37.589,608.333,-0.000232304,151.492,-0.0609021,-0.249183,-0.145295,0.45603,-0.307313,0.351231,-0.000499519,-0.00179323,0.429978,-0.1352328508301448,0.42081549638671145,-0.0004993942611549729,0.5777976779868157,-0.0017916231237266045,-0.2645796216991132
665,0.6556,37.5991,608.518,-0.000225661,151.536,-0.0596188,-0.244305,-0.145473,0.456579,-0.307682,0.351646,-0.000499464,-0.00179301,0.430501,-0.13538676568386865,0.4214052571846132,-0.0004993392886201153,0.5786641267304482,-0.0017914035178595578,-0.2648509417570769
666,0.6566,37.6093,608.704,-0.00021897,151.579,-0.0583356,-0.239427,-0.145652,0.457128,-0.308052,0.352061,-0.000499405,-0.00179277,0.431023,-0.1355415176021013,0.42199526278403887,-0.0004992803180794425,0.5795310512850391,-0.0017911639477676822,-0.26512289659387944
667,0.6576,37.6194,608.889,-0.000212233,151.623,-0.0570525,-0.23455,-0.14583,0.457676,-0.308421,0.352475,-0.000499344,-0.00179253,0.431545,-0.1356953775180294,0.42258409070180014,-0.0004992193485336971,0.5803968715142187,-0.001790924377618297,-0.26539401622038894
668,0.6586,37.6295,609.074,-0.00020545,151.666,-0.0557697,-0.229673,-0.146008,0.458225,-0.30879,0.35289,-0.000499281,-0.00179227,0.432067,-0.1358492100493297,0.42317458561866195,-0.000499156379982546,0.5812647476068691,-0.0017906648432248762,-0.2656650358222119
669,0.6596,37.6397,609.259,-0.00019862,151.71,-0.054487,-0.224798,-0.146186,0.458773,-0.309159,0.353304,-0.000499215,-0.00179201,0.432589,-0.13600301520087643,0.4237639018771564,-0.0004990904129246188,0.5821315181619986,-0.0017904053087639538,-0.2659359554362506
670,0.6606,37.6498,609.443,-0.000191744,151.753,-0.0532046,-0.219922,-0.146364,0.45932,-0.309528,0.353718,-0.000499147,-0.00179174,0.43311,-0.13615679297754246,0.424353462163092,-0.0004990224468605087,0.5829971808395911,-0.0017901357921370487,-0.26620677509939383
671,0.6616,37.6598,609.627,-0.000184823,151.797,-0.0519223,-0.215048,-0.146542,0.459867,-0.309896,0.354131,-0.000499076,-0.00179146,0.43363,-0.13631054338420034,0.42494184163496285,-0.0004989514822886232,0.5838633171641987,-0.0017898562933359452,-0.2664767613256448
672,0.6626,37.6699,609.811,-0.000177856,151.84,-0.0506403,-0.210174,-0.146719,0.460414,-0.310264,0.354544,-0.000499003,-0.00179117,0.434151,-0.13646340288955605,0.4255304641577424,-0.0004988785187093336,0.5847299273949775,-0.0017895668123523167,-0.2667466482152434
673,0.6636,37.68,609.995,-0.000170844,151.883,-0.0493586,-0.205302,-0.146897,0.460961,-0.310632,0.354957,-0.000498927,-0.00179087,0.434671,-0.13661709872450656,0.4261193298318311,-0.0004988025566212695,0.585597011791225,-0.0017892673491773925,-0.2670164358047392
674,0.6646,37.69,610.178,-0.000163787,151.926,-0.048077,-0.20043,-0.147075,0.461507,-0.311,0.35537,-0.000498849,-0.00179056,0.435191,-0.13677076720403325,0.42670843875767117,-0.0004987245955248021,0.5864629841486033,-0.0017889579038022907,-0.26728612413066755
675,0.6656,37.7,610.361,-0.000156685,151.969,-0.0467957,-0.195558,-0.147252,0.462053,-0.311367,0.355783,-0.000498769,-0.00179024,0.43571,-0.13692354525698147,0.4272977910357465,-0.0004986446354195984,0.5873294294559921,-0.0017886384762176855,-0.2675549807848978
676,0.6666,37.7101,610.544,-0.000149539,152.012,-0.0455147,-0.190688,-0.147429,0.462598,-0.311734,0.356195,-0.000498686,-0.00178991,0.43623,-0.13707629627060758,0.4278859588799091,-0.0004985616768036216,0.5881947597761392,-0.00178830906641414,-0.26782373878683985
677,0.6676,37.7201,610.726,-0.000142348,152.055,-0.0442339,-0.185819,-0.147606,0.463144,-0.312102,0.356607,-0.0004986,-0.00178957,0.436748,-0.13722902024969674,0.4284743690991497,-0.0004984757196762057,0.5890621508912028,-0.00178796967438144,-0.2680931300799282
678,0.6686,37.7301,610.908,-0.000135113,152.098,-0.0429534,-0.18095,-0.147784,0.463688,-0.312468,0.357018,-0.000498513,-0.00178923,0.437267,-0.1373825798168854,0.4290615927310395,-0.0004983887630398698,0.5899268358742786,-0.0017876302822334988,-0.26836095897864076
679,0.6696,37.74,611.09,-0.000127835,152.141,-0.0416731,-0.176083,-0.14796,0.464233,-0.312835,0.35743,-0.000498422,-0.00178887,0.437785,-0.13753438712340282,0.4296504874112188,-0.0004982978083890588,0.5907935821667412,-0.0017872709257157338,-0.2686294212408572
680,0.6706,37.75,611.272,-0.000120513,152.184,-0.0403932,-0.171216,-0.148137,0.464777,-0.313201,0.357841,-0.000498329,-0.00178851,0.438303,-0.13768703002758642,0.4302381945270841,-0.0004982048547265139,0.5916592093046737,-0.0017869115690685167,-0.2688970538929202
681,0.6716,37.7599,611.454,-0.000113147,152.227,-0.0391135,-0.166351,-0.148314,0.465321,-0.313567,0.358252,-0.000498234,-0.00178814,0.438821,-0.13783964591636688,0.43082614324021895,-0.0004981099020514579,0.5925253074718779,-0.0017865422301575062,-0.26916458860935566
682,0.6726,37.7699,611.635,-0.000105738,152.27,-0.0378342,-0.161487,-0.148491,0.465865,-0.313933,0.358663,-0.000498137,-0.00178775,0.439338,-0.1379922347945256,0.43141433364993986,-0.0004980129503633357,0.5933918769246631,-0.00178615292683304,-0.26943202542600186
683,0.6736,37.7798,611.816,-9.82865e-05,152.312,-0.0365551,-0.156623,-0.148667,0.466408,-0.314299,0.359073,-0.000498037,-0.00178736,0.439855,-0.1381439348112088,0.4320013338535553,-0.0004979130001596666,0.5942573236613575,-0.0017857636233568064,-0.26969936437868325
684,0.6746,37.7897,611.996,-9.07921e-05,152.355,-0.0352764,-0.151761,-0.148844,0.466951,-0.314665,0.359483,-0.000497934,-0.00178696,0.440372,-0.13829646983499932,0.4325885747765983,-0.0004978100514394512,0.5951232404632412,-0.0017853643375823625,-0.2699666055032117
685,0.6756,37.7996,612.177,-8.32553e-05,152.397,-0.033998,-0.1469,-0.14902,0.467494,-0.31503,0.359893,-0.000497829,-0.00178655,0.440889,-0.13844811631102705,0.433176056517784,-0.0004977051037039493,0.5959896275856287,-0.001784955069497829,-0.2702330190687695
686,0.6766,37.8095,612.357,-7.56762e-05,152.44,-0.0327199,-0.142041,-0.149197,0.468036,-0.315395,0.360303,-0.000497722,-0.00178613,0.441405,-0.13860059749945675,0.43376377917586795,-0.0004975981569527166,0.5968548884282865,-0.0017845358190908822,-0.27049933541112026
687,0.6776,37.8194,612.537,-6.80551e-05,152.482,-0.0314422,-0.137182,-0.149373,0.468578,-0.31576,0.360713,-0.000497612,-0.00178571,0.44192,-0.13875219045372555,0.43435174284964684,-0.0004974882116823842,0.5977206183694352,-0.0017841165685079652,-0.2707655545657439
688,0.6786,37.8292,612.717,-6.03922e-05,152.524,-0.0301648,-0.132325,-0.149549,0.46912,-0.316124,0.361122,-0.0004975,-0.00178527,0.442436,-0.13890375672998212,0.43493851269872685,-0.0004973762673948778,0.5985868176633953,-0.0017836773534225525,-0.2710309475994196
689,0.6796,37.8391,612.896,-5.26878e-05,152.567,-0.0288878,-0.127469,-0.149725,0.469661,-0.316489,0.361531,-0.000497386,-0.00178482,0.442951,-0.13905529633292135,0.4355255225857597,-0.0004972623240891982,0.5994518871119379,-0.001783228155976313,-0.2712969727510023
690,0.6806,37.8489,613.075,-4.4942e-05,152.609,-0.0276111,-0.122614,-0.149901,0.470202,-0.316853,0.361939,-0.000497269,-0.00178437,0.443466,-0.1392068092672375,0.43611133649688605,-0.0004971453822620875,0.6003174246896699,-0.001782778958327902,-0.27156217238365954
691,0.6816,37.8587,613.254,-3.71552e-05,152.651,-0.0263348,-0.117761,-0.150076,0.470743,-0.317217,0.362348,-0.00049715,-0.00178391,0.443981,-0.1393574348954888,0.4366988261669611,-0.0004970264414153602,0.6011834306499173,-0.0017823197783006783,-0.27182727550121744
692,0.6826,37.8685,613.433,-2.93274e-05,152.693,-0.0250589,-0.112908,-0.150252,0.471283,-0.317581,0.362756,-0.000497028,-0.00178343,0.444495,-0.13950889465809713,0.43728511888361843,-0.0004969045020450924,0.6020483031970394,-0.0017818406336991277,-0.2720922821388009
693,0.6836,37.8783,613.611,-2.14591e-05,152.735,-0.0237834,-0.108058,-0.150428,0.471824,-0.317944,0.363164,-0.000496904,-0.00178295,0.445009,-0.1396603277661329,0.43787165085650903,-0.0004967805636535427,0.6029152458159026,-0.0017813614888676499,-0.27235646468835084
694,0.6846,37.8881,613.789,-1.35503e-05,152.777,-0.0225082,-0.103209,-0.150603,0.472363,-0.318307,0.363572,-0.000496778,-0.00178246,0.445523,-0.139810874035591,0.43845842218326947,-0.0004966546262400451,0.6037794500155067,-0.001780872361614949,-0.2726205513570388
695,0.6856,37.8978,613.967,-5.6013e-06,152.819,-0.0212335,-0.0983607,-0.150779,0.472903,-0.318671,0.363979,-0.000496649,-0.00178196,0.446036,-0.13996225399993312,0.43904399391686266,-0.0004965256903001203,0.6046457247916541,-0.0017803732519263704,-0.2728852692947573
696,0.6866,37.9076,614.145,2.38765e-06,152.861,-0.0199591,-0.0935143,-0.150954,0.473442,-0.319033,0.364386,-0.000496518,-0.00178146,0.446549,-0.14011274743692337,0.4396298040266575,-0.0004963947553363601,0.6055108619708416,-0.0017798741419882136,-0.27314843719100945
697,0.6876,37.9173,614.322,1.04163e-05,152.903,-0.0186852,-0.0886695,-0.151129,0.473981,-0.319396,0.364793,-0.000496385,-0.00178094,0.447062,-0.14026321453986645,0.4402158526096931,-0.0004962618213480985,0.6063764655846615,-0.0017793550673878,-0.27341223642585133
698,0.6886,37.9271,614.499,1.84845e-05,152.945,-0.0174117,-0.0838261,-0.151304,0.474519,-0.319759,0.3652,-0.000496249,-0.00178041,0.447574,-0.14041365531337024,0.44080213976304794,-0.0004961258888304121,0.6072409286428577,-0.0017788260103057674,-0.2736759399189491
699,0.6896,37.9368,614.676,2.6592e-05,152.986,-0.0161387,-0.0789844,-0.151479,0.475057,-0.320121,0.365606,-0.000496111,-0.00177988,0.448087,-0.1405640697620424,0.4413872241958945,-0.0004959879572863368,0.6081058569073083,-0.0017782969529434034,-0.27393882164423533
700,0.6906,37.9465,614.853,3.47386e-05,153.028,-0.014866,-0.0741441,-0.151654,0.475595,-0.320483,0.366013,-0.00049597,-0.00177933,0.448599,-0.14071445789048898,0.4419739881945164,-0.0004958470272106164,0.6089712506283618,-0.001777747930855722,-0.27420160822355955
701,0.6916,37.9562,615.029,4.2924e-05,153.07,-0.0135938,-0.0693055,-0.151829,0.476133,-0.320845,0.366419,-0.000495827,-0.00177878,0.44911,-0.14086481970331577,0.4425595484944207,-0.0004957040981066196,0.609837110056501,-0.00177719890846606,-0.2744642996913583
702,0.6926,37.9658,615.205,5.11481e-05,153.111,-0.0123221,-0.0644686,-0.152003,0.47667,-0.321206,0.366824,-0.000495682,-0.00177822,0.449621,-0.14101429621985329,0.4431439034354492,-0.0004955591699731254,0.6107018247397142,-0.001776639903540933,-0.2747261708085891
703,0.6936,37.9755,615.381,5.94105e-05,153.153,-0.0110508,-0.0596333,-0.152178,0.477207,-0.321568,0.36723,-0.000495534,-0.00177765,0.450132,-0.14116460556556343,0.44372993881737655,-0.0004954112433049884,0.6115670038994128,-0.0017760709160635768,-0.2749886724190983
704,0.6946,37.9851,615.557,6.77111e-05,153.194,-0.00978001,-0.0547996,-0.152352,0.477744,-0.321929,0.367635,-0.000495384,-0.00177707,0.450643,-0.14131402992389885,0.44431476786248525,-0.0004952613176053555,0.6124326477850881,-0.0017754919460167828,-0.27525035427193867
705,0.6956,37.9948,615.732,7.60497e-05,153.235,-0.00850966,-0.0499677,-0.152527,0.47828,-0.32229,0.36804,-0.000495232,-0.00177649,0.451153,-0.14146428682080026,0.44489983381132703,-0.0004951093928735606,0.6132971433484147,-0.0017749129756341464,-0.2755119416746795
706,0.6966,38.0044,615.908,8.4426e-05,153.277,-0.0072398,-0.0451376,-0.152701,0.478816,-0.32265,0.368445,-0.000495078,-0.00177589,0.451663,-0.1416136590391336,0.44548513675986734,-0.0004949554691086044,0.6141621024055686,-0.0017743140404022917,-0.2757727104344835
707,0.6976,38.014,616.082,9.28399e-05,153.318,-0.00597042,-0.0403091,-0.152875,0.479352,-0.323011,0.368849,-0.000494921,-0.00177529,0.452173,-0.14176300526896202,0.4460692307341567,-0.0004947985468042315,0.6150275252050488,-0.0017737151048110578,-0.2760341093006825
708,0.6986,38.0236,616.257,0.000101291,153.359,-0.00470154,-0.0354825,-0.153049,0.479887,-0.323371,0.369253,-0.000494762,-0.00177467,0.452683,-0.14191232551480704,0.4466535607300848,-0.000494639625464588,0.615891796102884,-0.001773096204322533,-0.27629469011397356
709,0.6996,38.0332,616.432,0.000109779,153.4,-0.00343315,-0.0306577,-0.153223,0.480422,-0.323731,0.369657,-0.0004946,-0.00177405,0.453192,-0.14206161978118959,0.44723812684302366,-0.0004944777055830851,0.6167565295093596,-0.001772477303450315,-0.2765551771350555
710,0.7006,38.0428,616.606,0.000118304,153.441,-0.00216527,-0.0258348,-0.153397,0.480957,-0.324091,0.370061,-0.000494436,-0.00177342,0.453701,-0.14221088807262972,0.44782292916838395,-0.0004943137866639802,0.6176217256719838,-0.001771848419912958,-0.27681557039768734
711,0.7016,38.0523,616.78,0.000126866,153.482,-0.000897901,-0.0210137,-0.153571,0.481491,-0.324451,0.370465,-0.00049427,-0.00177278,0.454209,-0.1423601303936467,0.4484079678016146,-0.0004941478687062739,0.618485766351822,-0.0017712095536914774,-0.27707586993561606
712,0.7026,38.0619,616.953,0.000135464,153.523,0.000368947,-0.0161945,-0.153745,0.482025,-0.32481,0.370868,-0.000494102,-0.00177213,0.454718,-0.14250934674875881,0.4489917938456849,-0.0004939799517090782,0.6193502685525982,-0.001770560704766777,-0.27733535311829105
713,0.7036,38.0714,617.127,0.000144098,153.564,0.00163527,-0.0113772,-0.153918,0.482559,-0.325169,0.371271,-0.000493931,-0.00177148,0.455226,-0.1426576798005923,0.44957585521906673,-0.0004938090361650271,0.6202152325208308,-0.001769911855420414,-0.27759474316322263
714,0.7046,38.081,617.3,0.000152769,153.605,0.00290106,-0.0065619,-0.154092,0.483093,-0.325528,0.371674,-0.000493758,-0.00177081,0.455733,-0.14280684438661173,0.45016015201661674,-0.0004936361215790441,0.621080658503169,-0.0017692430410373161,-0.2778540401038414
715,0.7056,38.0905,617.473,0.000161475,153.646,0.0041663,-0.00174854,-0.154265,0.483626,-0.325887,0.372076,-0.000493583,-0.00177014,0.456241,-0.1429551259758055,0.4507432335892714,-0.0004934612079500189,0.6219449248006588,-0.0017685742262060211,-0.2781132439735656
716,0.7066,38.1,617.646,0.000170216,153.687,0.00543101,0.00306282,-0.154439,0.484159,-0.326246,0.372478,-0.000493405,-0.00176945,0.456748,-0.1431042388106929,0.45132654960783825,-0.0004932832957702526,0.6228096518748711,-0.0017678854462847005,-0.2783723548058018
717,0.7076,38.1095,617.818,0.000178993,153.728,0.00669515,0.00787216,-0.154612,0.484691,-0.326604,0.37288,-0.000493225,-0.00176876,0.457255,-0.14325246895510146,0.4519101001665844,-0.0004931033845451127,0.6236732162974377,-0.0017671966658879823,-0.27863065126495645
718,0.7086,38.1189,617.991,0.000187805,153.768,0.00795874,0.0126795,-0.154785,0.485223,-0.326962,0.373282,-0.000493043,-0.00176806,0.457761,-0.14340067345791307,0.4524938853598133,-0.0004929214742733778,0.6245372402585032,-0.00176649790268113,-0.27888885527052887
719,0.7096,38.1284,618.163,0.000196652,153.809,0.00922177,0.0174847,-0.154958,0.485755,-0.32732,0.373684,-0.000492858,-0.00176736,0.458267,-0.1435488523235634,0.4530779052818674,-0.0004927365654466831,0.6254017240026075,-0.0017657991389850025,-0.2791469668556116
720,0.7106,38.1378,618.335,0.000205534,153.849,0.0104842,0.0222878,-0.155131,0.486287,-0.327678,0.374085,-0.000492672,-0.00176664,0.458773,-0.14369700555648723,0.453660706365693,-0.0004925506570784277,0.6262666677744202,-0.0017650804101017048,-0.27940498605328523
721,0.7116,38.1473,618.506,0.00021445,153.89,0.0117461,0.0270888,-0.155304,0.486818,-0.328036,0.374486,-0.000492483,-0.00176591,0.459279,-0.1438451331611188,0.4542437411996172,-0.0004923617501526589,0.6271304446874828,-0.0017643516983444352,-0.2796629128966184
722,0.7126,38.1567,618.678,0.0002234,153.93,0.0130074,0.0318877,-0.155476,0.487349,-0.328393,0.374887,-0.000492292,-0.00176518,0.459784,-0.1439923791346983,0.45482700987739233,-0.0004921708441755213,0.6279946803878838,-0.0017636229860551467,-0.27992002733905563
723,0.7136,38.1661,618.849,0.000232385,153.971,0.0142681,0.0366844,-0.155649,0.48788,-0.32875,0.375288,-0.000492098,-0.00176444,0.460289,-0.1441404556441206,0.4554105124928085,-0.0004919769396378726,0.6288593751193032,-0.0017628842908629094,-0.2801770500080194
724,0.7146,38.1755,619.02,0.000241403,154.011,0.0155282,0.0414789,-0.155822,0.48841,-0.329107,0.375688,-0.000491902,-0.00176369,0.460794,-0.14428850653852254,0.4559927931461727,-0.0004917810360461905,0.6297228994018378,-0.001762135612745297,-0.28043398093626704
725,0.7156,38.1849,619.19,0.000250455,154.051,0.0167877,0.0462712,-0.155994,0.488941,-0.329464,0.376088,-0.000491704,-0.00176293,0.461299,-0.14443567625843923,0.45657530675838665,-0.0004915831333992537,0.6305885120612422,-0.0017613769516801048,-0.2806908201565441
726,0.7166,38.1943,619.361,0.00025954,154.091,0.0180465,0.0510612,-0.156166,0.48947,-0.32982,0.376488,-0.000491504,-0.00176216,0.461803,-0.14458282066734085,0.4571580534226529,-0.0004913832316958411,0.6314513215771187,-0.0017606083076444623,-0.2809468486487928
727,0.7176,38.2037,619.531,0.000268659,154.132,0.0193048,0.055849,-0.156339,0.49,-0.330176,0.376888,-0.000491301,-0.00176139,0.462307,-0.14473079503921316,0.4577410332322107,-0.0004911803314260332,0.6323162199553789,-0.001759839663016849,-0.28120278601112025
728,0.7186,38.213,619.701,0.00027781,154.172,0.0205624,0.0606345,-0.156511,0.490529,-0.330533,0.377287,-0.000491097,-0.0017606,0.46281,-0.14487788869204965,0.4583227879568199,-0.000490976431606005,0.6331799436705159,-0.0017590510529786885,-0.2814593508169716
729,0.7196,38.2224,619.87,0.000286994,154.212,0.0218195,0.0654177,-0.156683,0.491058,-0.330888,0.377686,-0.00049089,-0.00175981,0.463314,-0.1450249570469535,0.4589047748478785,-0.000490769533216695,0.6340441244163721,-0.0017582624423175819,-0.2817143874757462
730,0.7206,38.2317,620.04,0.000296211,154.252,0.0230758,0.0701986,-0.156855,0.491586,-0.331244,0.378085,-0.000490681,-0.00175901,0.463817,-0.1451720001082757,0.45948699399803905,-0.0004905606357656911,0.6349071275268359,-0.0017574638486080874,-0.2819700516428829
731,0.7216,38.241,620.209,0.00030546,154.292,0.0243316,0.0749771,-0.157027,0.492115,-0.3316,0.378484,-0.000490469,-0.0017582,0.464319,-0.14531901788036616,0.4600694454999916,-0.0004903487397421857,0.6357722221946631,-0.001756655271826335,-0.2822256248097751
732,0.7226,38.2503,620.378,0.000314742,154.332,0.0255867,0.0797532,-0.157198,0.492643,-0.331955,0.378882,-0.000490256,-0.00175738,0.464822,-0.14546515583315756,0.460650668795064,-0.000490135844163686,0.6366361379816792,-0.0017558367119480112,-0.28248038948956145
733,0.7236,38.2596,620.547,0.000324055,154.371,0.0268411,0.0845269,-0.15737,0.49317,-0.33231,0.37928,-0.00049004,-0.00175656,0.465324,-0.1456121231867995,0.4612321234630481,-0.0004899199500097984,0.6374988725369837,-0.0017550181513985574,-0.28273506374393786
734,0.7246,38.2689,620.716,0.0003334,154.411,0.0280949,0.0892982,-0.157542,0.493698,-0.332665,0.379678,-0.000489822,-0.00175572,0.465826,-0.14575906526423044,0.46181380959604845,-0.0004897020567885546,0.638363700236104,-0.001754179625261587,-0.2829896476049998
735,0.7256,38.2782,620.884,0.000342776,154.451,0.029348,0.0940671,-0.157713,0.494225,-0.333019,0.380076,-0.000489601,-0.00175488,0.466327,-0.1459051279753526,0.4623957272862065,-0.0004894811649882591,0.6392273454566559,-0.0017533410984202913,-0.2832434243486138
736,0.7266,38.2874,621.052,0.000352184,154.491,0.0306004,0.0988334,-0.157884,0.494751,-0.333374,0.380473,-0.000489379,-0.00175403,0.466828,-0.14605116571188648,0.46297641364855524,-0.0004892592736285284,0.6400898058475637,-0.0017524925883996012,-0.28349782777369037
737,0.7276,38.2967,621.22,0.000361623,154.53,0.0318522,0.103597,-0.158056,0.495278,-0.333728,0.380871,-0.000489154,-0.00175317,0.467329,-0.146198032280497,0.463558794147219,-0.0004890343836865263,0.6409543609655095,-0.0017516340951740927,-0.28375142465336245
738,0.7286,38.3059,621.388,0.000371093,154.57,0.0331032,0.108359,-0.158227,0.495804,-0.334082,0.381268,-0.000488927,-0.0017523,0.46783,-0.14634401993467694,0.46413994233877864,-0.000488807494671617,0.6418177300055288,-0.0017507656187180087,-0.28400493177562713
739,0.7296,38.3151,621.555,0.000380593,154.609,0.0343536,0.113118,-0.158398,0.49633,-0.334436,0.381665,-0.000488698,-0.00175143,0.468331,-0.14648998262710222,0.4647213212919734,-0.0004885786065822462,0.6426815532971208,-0.001749897141506307,-0.2842583491722529
740,0.7306,38.3244,621.722,0.000390124,154.649,0.0356033,0.117874,-0.158569,0.496855,-0.334789,0.382061,-0.000488467,-0.00175054,0.468831,-0.14663592036204098,0.46530146579623555,-0.0004883477194173036,0.6435441875342753,-0.0017490086985193498,-0.28451096138631615
741,0.7316,38.3336,621.889,0.000399685,154.688,0.0368523,0.122627,-0.15874,0.49738,-0.335143,0.382457,-0.000488234,-0.00174965,0.46933,-0.1467818331437607,0.4658818400832152,-0.00048811483317512394,0.6444072747733072,-0.0017481202547418029,-0.28476419968016287
742,0.7326,38.3427,622.056,0.000409276,154.728,0.0381006,0.127379,-0.158911,0.497905,-0.335496,0.382853,-0.000487998,-0.00174875,0.46983,-0.14692772097652795,0.4664624442439247,-0.00048787894834245726,0.6452708152521043,-0.0017472218276456397,-0.28501663336050986
743,0.7336,38.3519,622.223,0.000418897,154.767,0.0393482,0.132127,-0.159081,0.49843,-0.335849,0.383249,-0.00048776,-0.00174784,0.470329,-0.14707273093776596,0.46704327836941184,-0.00048764106442933386,0.6461348092086805,-0.001746313417204215,-0.2852689779474936
744,0.7346,38.3611,622.389,0.000428548,154.806,0.040595,0.136873,-0.159252,0.498954,-0.336202,0.383645,-0.00048752,-0.00174692,0.470828,-0.1472185690312633,0.4676243425507607,-0.00048740118143442146,0.6469976098827404,-0.001745395023390106,-0.28552123347255853
745,0.7356,38.3702,622.555,0.000438229,154.846,0.0418412,0.141616,-0.159423,0.499478,-0.336554,0.38404,-0.000487278,-0.001746,0.471327,-0.1473643821885786,0.4682041686741887,-0.00048715929935616575,0.6478608627828264,-0.0017444766287311175,-0.2857726857401808
746,0.7366,38.3794,622.721,0.000447938,154.885,0.0430866,0.146356,-0.159593,0.500002,-0.336906,0.384435,-0.000487034,-0.00174507,0.471825,-0.14750931792372002,0.46878422387417507,-0.0004869154181933455,0.6487245681459668,-0.0017435482506625855,-0.28602404951218097
747,0.7376,38.3885,622.887,0.000457677,154.924,0.0443312,0.151094,-0.159763,0.500525,-0.337259,0.38483,-0.000486787,-0.00174413,0.472323,-0.14765422902188063,0.469364508241223,-0.0004866685384309344,0.6495870766214136,-0.0017426098891569763,-0.2862760385440224
748,0.7386,38.3976,623.052,0.000467444,154.963,0.0455752,0.155829,-0.159934,0.501049,-0.337611,0.385225,-0.000486539,-0.00174318,0.472821,-0.14779996768770687,0.46994502186587117,-0.000486420659093989,0.6504516867576353,-0.0017416615441858685,-0.2865272251670157
749,0.7396,38.4068,623.218,0.00047724,155.002,0.0468183,0.160561,-0.160104,0.501571,-0.337962,0.385619,-0.000486288,-0.00174222,0.473319,-0.1479448293796073,0.47052429431366494,-0.0004861697811541221,0.6513134474380926,-0.0017407032157209512,-0.286777610165844
750,0.7406,38.4159,623.383,0.000487065,155.041,0.0480608,0.165291,-0.160274,0.502094,-0.338314,0.386014,-0.000486035,-0.00174125,0.473816,-0.1480896664471132,0.4711052661443016,-0.00048591690412302935,0.6521773102515376,-0.0017397349037334697,-0.2870286202666962
751,0.7416,38.4249,623.547,0.000496917,155.08,0.0493024,0.170018,-0.160444,0.502616,-0.338665,0.386407,-0.00048578,-0.00174028,0.474313,-0.14823447889441044,0.4716835241341486,-0.0004856620279993784,0.6530399719426014,-0.0017387665908067396,-0.2872788293067272
752,0.7426,38.434,623.712,0.000506798,155.119,0.0505434,0.174742,-0.160614,0.503138,-0.339016,0.386801,-0.000485523,-0.0017393,0.47481,-0.14837926672568402,0.4722634816867928,-0.000485405152781504,0.6539030840606197,-0.0017377882943185874,-0.28752895053879635
753,0.7436,38.4431,623.876,0.000516707,155.158,0.0517835,0.179463,-0.160783,0.50366,-0.339367,0.387195,-0.000485263,-0.00173831,0.475306,-0.14852317846872254,0.4728436677877339,-0.0004851452789530475,0.654766646840776,-0.0017368000142398143,-0.28777898399371893
754,0.7446,38.4521,624.041,0.000526643,155.196,0.0530229,0.184181,-0.160953,0.504181,-0.339718,0.387588,-0.000485002,-0.00173731,0.475802,-0.14866791722523998,0.4734226091036915,-0.0004848844055419521,0.6556290048885449,-0.0017358017505406664,-0.2880289297022991
755,0.7456,38.4612,624.204,0.000536607,155.235,0.0542615,0.188896,-0.161123,0.504702,-0.340069,0.387981,-0.000484738,-0.00173631,0.476298,-0.14881263137826017,0.4740017779883008,-0.00048462053351661094,0.6564918123419168,-0.001734803485843317,-0.28827878769533066
756,0.7466,38.4702,624.368,0.000546598,155.274,0.0554993,0.193609,-0.161292,0.505223,-0.340419,0.388374,-0.000484473,-0.0017353,0.476794,-0.1489564698888608,0.47458117453101356,-0.00048435566190596635,0.6573550694350927,-0.0017337952374856247,-0.2885278465317984
757,0.7476,38.4792,624.532,0.000556616,155.312,0.0567363,0.198318,-0.161462,0.505743,-0.340769,0.388766,-0.000484205,-0.00173427,0.477289,-0.14910113499209743,0.4751593236612559,-0.0004840877916774122,0.6582171181844492,-0.001732767022765258,-0.28877681821292644
758,0.7486,38.4882,624.695,0.000566661,155.351,0.0579725,0.203025,-0.161631,0.506263,-0.341119,0.389159,-0.000483935,-0.00173324,0.477784,-0.14924492474970708,0.4757391752088207,-0.0004838179223446426,0.6590796153157241,-0.0017317388069857387,-0.2890257027692139
759,0.7496,38.4972,624.858,0.000576733,155.39,0.059208,0.207728,-0.1618,0.506783,-0.341469,0.389551,-0.000483663,-0.00173221,0.478278,-0.1493886902089009,0.4763177783643118,-0.00048354605390610317,0.6599425610621372,-0.0017307105901471775,-0.2892745002311491
760,0.7506,38.5062,625.021,0.000586831,155.428,0.0604426,0.212429,-0.161969,0.507303,-0.341818,0.389943,-0.000483389,-0.00173116,0.478773,-0.14953243137378502,0.476896608376701,-0.0004832721863602396,0.6608059556570289,-0.0017296624068430244,-0.28952250015206493
761,0.7516,38.5152,625.184,0.000596955,155.467,0.0616764,0.217126,-0.162138,0.507822,-0.342168,0.390334,-0.000483112,-0.00173011,0.479267,-0.14967614824846487,0.47747418786000684,-0.00048299532018825087,0.661668137664893,-0.0017286142224381962,-0.2897711237653414
762,0.7526,38.5242,625.346,0.000607106,155.505,0.0629094,0.221821,-0.162307,0.508341,-0.342517,0.390726,-0.000482834,-0.00172905,0.479761,-0.14981984083704514,0.4780534712737792,-0.00048271745442241,0.6625307672613581,-0.00172755605420849,-0.290018950394885
763,0.7536,38.5331,625.508,0.000617282,155.543,0.0641416,0.226513,-0.162476,0.50886,-0.342866,0.391117,-0.000482553,-0.00172798,0.480255,-0.14996350914362988,0.47863150317892056,-0.00048243659002655814,0.6633938446787833,-0.0017264879021219315,-0.2902666905480258
764,0.7546,38.5421,625.67,0.000627484,155.582,0.065373,0.231201,-0.162645,0.509378,-0.343214,0.391508,-0.000482271,-0.0017269,0.480748,-0.15010715317232226,0.4792097611387276,-0.00048215472603385656,0.6642557058931098,-0.0017254097661467682,-0.29051363476892855
765,0.7556,38.551,625.832,0.000637712,155.62,0.0666035,0.235887,-0.162813,0.509896,-0.343563,0.391899,-0.000481986,-0.00172582,0.481241,-0.15024992317757313,0.4797882452416049,-0.00048186986340736926,0.6651180136671946,-0.001724331629007092,-0.2907612023073459
766,0.7566,38.5599,625.994,0.000647965,155.658,0.0678332,0.240569,-0.162982,0.510414,-0.343911,0.392289,-0.0004817,-0.00172473,0.481734,-0.15039351880638363,0.48036547520977657,-0.00048158400118125666,0.665980768232415,-0.0017232435079355124,-0.29100797446809656
767,0.7576,38.5688,626.155,0.000658243,155.696,0.069062,0.245248,-0.16315,0.510931,-0.344259,0.392679,-0.000481411,-0.00172363,0.482226,-0.15053624070624894,0.4809429303415398,-0.00048129514031736154,0.6668423029771329,-0.0017221454028993888,-0.29125466076707607
768,0.7586,38.5777,626.316,0.000668546,155.734,0.07029,0.249925,-0.163319,0.511449,-0.344607,0.39307,-0.00048112,-0.00172252,0.482718,-0.15067978795148573,0.481522092246077,-0.00048100428033193143,0.66770595095559,-0.0017210373138658586,-0.2915012612341591
769,0.7596,38.5866,626.477,0.000678873,155.772,0.0715172,0.254598,-0.163487,0.511966,-0.344955,0.393459,-0.000480827,-0.0017214,0.48321,-0.15082246176217418,0.48209851644719914,-0.00048071142122319,0.6685683778503766,-0.001719919240801504,-0.2917477758992101
770,0.7606,38.5955,626.638,0.000689225,155.81,0.0727435,0.259267,-0.163655,0.512482,-0.345302,0.393849,-0.000480532,-0.00172028,0.483702,-0.15096511160567572,0.48267664759686,-0.0004804165629895829,0.6694295813047302,-0.001718801166484929,-0.29199349678593367
771,0.7616,38.6043,626.799,0.000699602,155.848,0.073969,0.263934,-0.163823,0.512999,-0.34565,0.394238,-0.000480235,-0.00171915,0.484193,-0.15110773748601658,0.48325352100737917,-0.0004801197056292228,0.6702928995468007,-0.0017176731080928986,-0.292239840182815
772,0.7626,38.6132,626.959,0.000710003,155.886,0.0751935,0.268597,-0.163991,0.513515,-0.345997,0.394627,-0.000479936,-0.00171801,0.484684,-0.1512503394072222,0.4838306188653072,-0.0004798208491403333,0.6711549930839713,-0.0017165350655915512,-0.29248539035285315
773,0.7636,38.622,627.119,0.000720427,155.924,0.0764173,0.273258,-0.164159,0.51403,-0.346344,0.395016,-0.000479635,-0.00171686,0.485175,-0.15139291737331728,0.48440794125797093,-0.00047951999352113805,0.6720158595595,-0.0017153870389468029,-0.2927308553317639
774,0.7646,38.6309,627.279,0.000730876,155.962,0.0776401,0.277915,-0.164327,0.514546,-0.346691,0.395405,-0.000479331,-0.00171571,0.485666,-0.15153547138832602,0.4849854882727318,-0.00047921613924906126,0.6728788423734509,-0.0017142390109817773,-0.2929762351491033
775,0.7656,38.6397,627.439,0.000741348,155.999,0.0788621,0.282568,-0.164495,0.515061,-0.347037,0.395793,-0.000479026,-0.00171455,0.486156,-0.15167800145627186,0.48556177443446735,-0.0004789112853634814,0.6737405968600068,-0.0017130809988273876,-0.2932208230555938
776,0.7666,38.6485,627.598,0.000751843,156.037,0.0800831,0.287219,-0.164663,0.515576,-0.347383,0.396182,-0.000478719,-0.00171338,0.486646,-0.1518205075811775,0.48613977037764466,-0.00047860443234215566,0.6746027952644227,-0.0017119130024488838,-0.29346532634930744
777,0.7676,38.6573,627.758,0.000762362,156.075,0.0813033,0.291866,-0.16483,0.51609,-0.34773,0.39657,-0.00047841,-0.0017122,0.487135,-0.15196214172963085,0.4867165044877333,-0.00047829558018319673,0.6754637623507744,-0.0017107350218111828,-0.2937104513494172
778,0.7686,38.6661,627.917,0.000772904,156.112,0.0825226,0.29651,-0.164998,0.516605,-0.348076,0.396958,-0.000478098,-0.00171102,0.487625,-0.15210460012298022,0.4872934624140741,-0.00047798372936280753,0.6763268484139702,-0.0017095570397834825,-0.293954785261046
779,0.7696,38.6749,628.076,0.000783468,156.15,0.083741,0.30115,-0.165165,0.517119,-0.348421,0.397345,-0.000477785,-0.00170982,0.488114,-0.15224618683194047,0.4878691563736244,-0.000477670878922698,0.6771887018914238,-0.0017083590905331292,-0.2941983288464468
780,0.7706,38.6836,628.234,0.000794056,156.188,0.0849585,0.305788,-0.165332,0.517632,-0.348767,0.397732,-0.000477469,-0.00170862,0.488603,-0.1523877498978945,0.4884450731698531,-0.0004773550298168283,0.678049320425274,-0.001707161139845259,-0.29444249398166167
781,0.7716,38.6924,628.393,0.000804665,156.225,0.0861751,0.310421,-0.165499,0.518146,-0.349112,0.39812,-0.000477152,-0.00170742,0.489091,-0.15252928932479048,0.4890227019109723,-0.0004770381810881297,0.6789120594809157,-0.0017059631877198722,-0.29468586933657526
782,0.7726,38.7012,628.551,0.000815298,156.262,0.0873908,0.315052,-0.165666,0.518659,-0.349457,0.398506,-0.000476833,-0.0017062,0.48958,-0.15267080511657571,0.4895975756173976,-0.00047671933321247195,0.6797735623240151,-0.0017047452682520392,-0.2949291607414737
783,0.7736,38.7099,628.709,0.000825952,156.3,0.0886056,0.319679,-0.165833,0.519172,-0.349802,0.398893,-0.000476511,-0.00170498,0.490068,-0.15281229727719692,0.4901741614413222,-0.0004763974866642817,0.6806355072314529,-0.0017035273472983947,-0.29517236822531456
784,0.7746,38.7186,628.867,0.000836628,156.337,0.0898195,0.324303,-0.166,0.519684,-0.350147,0.399279,-0.000476188,-0.00170375,0.490556,-0.15295376581060038,0.4907494796969185,-0.0004760746404884886,0.6814962129330129,-0.0017022994418818271,-0.29541549181704585
785,0.7756,38.7273,629.025,0.000847326,156.374,0.0910324,0.328923,-0.166167,0.520197,-0.350492,0.399666,-0.000475862,-0.00170251,0.491043,-0.1530952107207313,0.49132651139399286,-0.00047574879563572203,0.6823590417869261,-0.001701061551965699,-0.2956585315456052
786,0.7766,38.736,629.183,0.000858045,156.412,0.0922444,0.333539,-0.166334,0.520709,-0.350836,0.400052,-0.000475535,-0.00170126,0.49153,-0.15323663201153448,0.49190227454252966,-0.0004754219511521329,0.6832206301641237,-0.001699813677512707,-0.29590078334105563
787,0.7776,38.7447,629.34,0.000868786,156.449,0.0934555,0.338153,-0.166501,0.52122,-0.35118,0.400437,-0.000475205,-0.00170001,0.492017,-0.15337802968695402,0.49247676750102687,-0.0004750921079870185,0.6840809757057023,-0.0016985658014998517,-0.2961429518162205
788,0.7786,38.7534,629.497,0.000879548,156.486,0.0946656,0.342763,-0.166667,0.521732,-0.351524,0.400823,-0.000474874,-0.00169875,0.492504,-0.15351855726991392,0.4930529747341239,-0.00047476126518775086,0.6849434459388022,-0.0016973079409002834,-0.29638503699975693
789,0.7796,38.7621,629.654,0.000890331,156.523,0.0958748,0.347369,-0.166834,0.522243,-0.351868,0.401208,-0.00047454,-0.00169748,0.49299,-0.15365990786774641,0.493627910797487,-0.00047442742370218394,0.6858046720642117,-0.0016960400956762545,-0.29662703892031217
790,0.7806,38.7708,629.811,0.000901135,156.56,0.0970831,0.351972,-0.167,0.522754,-0.352212,0.401593,-0.000474205,-0.00169621,0.493477,-0.15380038866281176,0.49420306825384985,-0.00047409258257935516,0.6866663383886327,-0.0016947722488421801,-0.296868957606524
791,0.7816,38.7794,629.967,0.00091196,156.597,0.0982904,0.356571,-0.167166,0.523264,-0.352555,0.401978,-0.000473868,-0.00169493,0.493962,-0.1539408461400006,0.49477844718846553,-0.00047375574229180373,0.6875267576094624,-0.001693494417332797,-0.2971100901974615
792,0.7826,38.7881,630.123,0.000922805,156.634,0.0994967,0.361167,-0.167333,0.523775,-0.352898,0.402363,-0.000473528,-0.00169364,0.494448,-0.15408212622148,0.49535404768661917,-0.0004734159033109586,0.6883893041444715,-0.0016922066011099135,-0.29735114009410313
793,0.7836,38.7967,630.28,0.00093367,156.671,0.100702,0.365759,-0.167499,0.524285,-0.353241,0.402747,-0.000473187,-0.00169234,0.494933,-0.1542225369341157,0.4959283739045073,-0.0004730750646876336,0.6892506023019467,-0.0016909088001350048,-0.29759210732480834
794,0.7846,38.8053,630.435,0.000944555,156.708,0.101907,0.370348,-0.167665,0.524794,-0.353584,0.403132,-0.000472844,-0.00169103,0.495418,-0.15436292434050747,0.4965044172096813,-0.00047273222689359073,0.6901106497220182,-0.00168960101436888,-0.29783299191792656
795,0.7856,38.8139,630.591,0.000955461,156.745,0.10311,0.374933,-0.167831,0.525304,-0.353927,0.403516,-0.000472498,-0.00168972,0.495903,-0.154503288444524,0.49707918525429173,-0.00047238639039914876,0.690972825989637,-0.001688293226889681,-0.29807379390179767
796,0.7866,38.8225,630.747,0.000966386,156.782,0.104312,0.379514,-0.167996,0.525813,-0.354269,0.403899,-0.000472151,-0.0016884,0.496388,-0.1546427838932397,0.49765267639878785,-0.00047203955425700883,0.6918337502447012,-0.0016869754545669746,-0.2983138116189141
797,0.7876,38.8311,630.902,0.000977331,156.818,0.105514,0.384092,-0.168162,0.526322,-0.354611,0.404283,-0.000471802,-0.00168707,0.496872,-0.1547831015444262,0.4982278854595965,-0.0004716907189379338,0.6926951128217547,-0.0016856476973613477,-0.2985537472640065
798,0.7886,38.8397,631.057,0.000988295,156.855,0.106715,0.388666,-0.168328,0.52683,-0.354954,0.404666,-0.000471451,-0.00168574,0.497356,-0.15492339590481574,0.498801816640533,-0.00047133988443981423,0.6935552203878932,-0.0016843199383898,-0.2987943020711872
799,0.7896,38.8483,631.212,0.000999279,156.892,0.107914,0.393236,-0.168493,0.527339,-0.355295,0.405049,-0.000471098,-0.0016844,0.49784,-0.15506282204151878,0.4993759676792118,-0.0004709870507605407,0.6944174594162875,-0.0016829821944822632,-0.29903337245036465
800,0.7906,38.8568,631.367,0.00101028,156.928,0.109113,0.397803,-0.168659,0.527847,-0.355637,0.405432,-0.000470743,-0.00168305,0.498323,-0.1552030699721596,0.4999503386598545,-0.0004706322178980038,0.6952784421567713,-0.0016816344655985471,-0.2992730620477292
801,0.7916,38.8654,631.522,0.0010213,156.965,0.11031,0.402366,-0.168824,0.528355,-0.355979,0.405815,-0.000470386,-0.00168169,0.498806,-0.15534244996644841,0.5005249296667151,-0.0004702753858499831,0.6961398623876005,-0.0016802767516981287,-0.29951266968526735
802,0.7926,38.8739,631.676,0.00103234,157.001,0.111507,0.406926,-0.16899,0.528862,-0.35632,0.406197,-0.000470027,-0.00168033,0.499289,-0.15548265148270624,0.5010982396850896,-0.0004699165546143691,0.6970000233302047,-0.0016789190359512984,-0.29975149514284993
803,0.7936,38.8825,631.83,0.0010434,157.038,0.112702,0.411481,-0.169155,0.529369,-0.356661,0.40658,-0.000469666,-0.00167896,0.499772,-0.1556219853498514,0.501673270422246,-0.00046955572418916347,0.6978606204849771,-0.0016775513351334759,-0.29999023917483536
804,0.7946,38.891,631.984,0.00105448,157.074,0.113897,0.416033,-0.16932,0.529876,-0.357002,0.406962,-0.000469303,-0.00167758,0.500254,-0.15576129622880508,0.502247019190585,-0.0004691928945720347,0.6987216540731338,-0.0016761736492036938,-0.30022890180898487
805,0.7956,38.8995,632.138,0.00106557,157.111,0.115091,0.420582,-0.169485,0.530383,-0.357343,0.407343,-0.000468939,-0.00167619,0.500736,-0.15590058412336005,0.502819484352585,-0.00046882906529199797,0.699583124316002,-0.001674785978120652,-0.3004674830730507
806,0.7966,38.908,632.291,0.00107669,157.147,0.116283,0.425126,-0.16965,0.530889,-0.357683,0.407725,-0.000468572,-0.0016748,0.501218,-0.1560398490373084,0.5033936710582863,-0.0004684622372850278,0.7004433309908411,-0.0016733983051087087,-0.3007052837004084
807,0.7976,38.9165,632.445,0.00108782,157.183,0.117475,0.429667,-0.169815,0.531395,-0.358023,0.408106,-0.000468203,-0.0016734,0.5017,-0.1561790909744415,0.5039665731778831,-0.00046809341007947314,0.7013039730403978,-0.0016720006468879944,-0.30094300348929603
808,0.7986,38.925,632.598,0.00109897,157.22,0.118665,0.434204,-0.16998,0.531901,-0.358364,0.408487,-0.000467833,-0.00167199,0.502181,-0.15631830993855034,0.5045396936147741,-0.0004677235832056814,0.7021650506850281,-0.0016705930034165428,-0.30118134128620233
809,0.7996,38.9334,632.751,0.00111013,157.256,0.119855,0.438737,-0.170144,0.532406,-0.358703,0.408868,-0.000467461,-0.00167058,0.502662,-0.15645666239050926,0.5051130324521544,-0.0004673517571296415,0.7030248611194863,-0.0016691853579602345,-0.3014182006615739
810,0.8006,38.9419,632.904,0.00112132,157.292,0.121043,0.443266,-0.170309,0.532912,-0.359043,0.409249,-0.000467087,-0.00166916,0.503143,-0.1565958355591126,0.5056865897732501,-0.000466977931849355,0.7038868097538262,-0.0016677677271970115,-0.3016556780998967
811,0.8016,38.9504,633.057,0.00113252,157.328,0.122231,0.447792,-0.170473,0.533416,-0.359383,0.40963,-0.00046671,-0.00166773,0.503623,-0.1567341425006018,0.5062603656613196,-0.0004666011078289234,0.7047457851495591,-0.0016663401110840192,-0.30189307480961514
812,0.8026,38.9588,633.209,0.00114374,157.364,0.123417,0.452313,-0.170638,0.533921,-0.359722,0.41001,-0.000466333,-0.00166629,0.504103,-0.15687326988876393,0.5068328533660458,-0.0004662242836666053,0.7056068991840527,-0.0016649025095787362,-0.3021296929482141
813,0.8036,38.9672,633.361,0.00115497,157.4,0.124603,0.456831,-0.170802,0.534425,-0.360061,0.41039,-0.000465953,-0.00166485,0.504583,-0.15701153133475376,0.5074055586574386,-0.0004658444607595902,0.7064667417233605,-0.0016634649060033313,-0.3023662308868589
814,0.8046,38.9757,633.513,0.00116622,157.436,0.125787,0.461345,-0.170966,0.53493,-0.3604,0.41077,-0.000465571,-0.0016634,0.505063,-0.15714977010772568,0.5079784816181969,-0.00046546263863922466,0.7073287250604043,-0.001662017316977904,-0.30260268865273243
815,0.8056,38.9841,633.665,0.00117749,157.472,0.12697,0.465855,-0.17113,0.535433,-0.360739,0.411149,-0.000465187,-0.00166195,0.505542,-0.15728798621139772,0.5085501137801824,-0.00046507881730317724,0.7081877274300945,-0.001660569725853489,-0.3028390662730087
816,0.8066,38.9925,633.817,0.00118878,157.508,0.128152,0.470361,-0.171295,0.535937,-0.361078,0.411529,-0.000464802,-0.00166048,0.506022,-0.1574270222228864,0.5091234717545345,-0.00046469399628445984,0.709048871034679,-0.0016591021658123317,-0.30307536377485267
817,0.8076,39.0009,633.969,0.00120008,157.544,0.129334,0.474863,-0.171459,0.53644,-0.361416,0.411908,-0.000464414,-0.00165901,0.506501,-0.15756519286093984,0.5096955379500259,-0.0004643061765104983,0.7099087388554368,-0.0016576346036139,-0.30331088449665256
818,0.8086,39.0093,634.12,0.00121139,157.58,0.130514,0.479362,-0.171622,0.536943,-0.361755,0.412287,-0.000464025,-0.00165753,0.506979,-0.15770249854378637,0.5102678209996967,-0.00046391735704998105,0.7107690392985038,-0.0016561570558196737,-0.30354702207922657
819,0.8096,39.0176,634.271,0.00122273,157.616,0.131693,0.483856,-0.171786,0.537446,-0.362093,0.412666,-0.000463634,-0.00165605,0.507458,-0.1578406240074276,0.5108403209857499,-0.00046352653836523316,0.7116297725815437,-0.001654679505838752,-0.30378238340745856
820,0.8106,39.026,634.422,0.00123408,157.651,0.132871,0.488346,-0.17195,0.537948,-0.36243,0.413044,-0.000463241,-0.00165456,0.507936,-0.1579787268203502,0.5114115265781383,-0.0004631337204540342,0.7124892264322473,-0.0016531919702029718,-0.30401696921432164
821,0.8116,39.0343,634.573,0.00124544,157.687,0.134048,0.492833,-0.172114,0.538451,-0.362768,0.413423,-0.000462846,-0.00165306,0.508414,-0.1581168069862685,0.5119844601107577,-0.0004627389033138307,0.7133508251870637,-0.0016516944488678131,-0.30425217172726327
822,0.8126,39.0427,634.724,0.00125682,157.723,0.135224,0.497315,-0.172277,0.538952,-0.363106,0.413801,-0.000462449,-0.00165155,0.508891,-0.1582540227633401,0.512556098269485,-0.0004623420869424022,0.7142094290127816,-0.001650186941788312,-0.3044872947551893
823,0.8136,39.051,634.874,0.00126821,157.758,0.136399,0.501794,-0.172441,0.539454,-0.363443,0.414179,-0.000462051,-0.00165004,0.509368,-0.1583920577844259,0.5131279525482806,-0.0004619442708754251,0.71507017817611,-0.0016486794324324094,-0.3047216430469518
824,0.8146,39.0593,635.024,0.00127962,157.794,0.137572,0.506268,-0.172604,0.539955,-0.36378,0.414556,-0.000461651,-0.00164852,0.509845,-0.15852922869927366,0.5136985093295869,-0.0004615444555732262,0.715929643613491,-0.0016471619372718793,-0.30495591237664577
825,0.8156,39.0677,635.174,0.00129105,157.829,0.138745,0.510738,-0.172767,0.540456,-0.364117,0.414934,-0.000461248,-0.00164699,0.510322,-0.15866637725708466,0.5142707955213894,-0.0004611416414944669,0.7167895397509376,-0.0016456344562610914,-0.305190102770877
826,0.8166,39.076,635.324,0.00130249,157.865,0.139917,0.515205,-0.17293,0.540957,-0.364454,0.415311,-0.000460844,-0.00164546,0.510799,-0.1588035034615024,0.5148417832357224,-0.0004607378277140528,0.7176498668042846,-0.001644106972913284,-0.30542421425624233
827,0.8176,39.0843,635.474,0.00131394,157.9,0.141087,0.519667,-0.173094,0.541458,-0.36479,0.415688,-0.000460438,-0.00164392,0.511275,-0.15894144837514268,0.5154129862530057,-0.00046033201469131146,0.7185106249894744,-0.0016425695036541565,-0.30565755251722915
828,0.8186,39.0925,635.623,0.00132541,157.936,0.142257,0.524125,-0.173257,0.541958,-0.365127,0.416065,-0.000460031,-0.00164237,0.511751,-0.15907852974662218,0.5159844046544237,-0.00045992520196358466,0.7193700951516042,-0.0016410220484376348,-0.3058915064985708
829,0.8196,39.1008,635.773,0.00133689,157.971,0.143425,0.52858,-0.17342,0.542458,-0.365463,0.416442,-0.000459621,-0.00164082,0.512227,-0.15921558877565922,0.5165560385211918,-0.0004595153904489724,0.7202299951562665,-0.0016394745908224762,-0.30612468777573887
830,0.8206,39.1091,635.922,0.00134839,158.006,0.144592,0.53303,-0.173582,0.542958,-0.365799,0.416818,-0.00045921,-0.00163925,0.512702,-0.1593517848181002,0.5171263708074265,-0.00045910457922537784,0.7210903252184366,-0.0016379071635671538,-0.3063577907171591
831,0.8216,39.1174,636.071,0.0013599,158.042,0.145758,0.537476,-0.173745,0.543457,-0.366135,0.417194,-0.000458797,-0.00163769,0.513178,-0.15948879931019044,0.5176969175789212,-0.0004586917687502412,0.7219493636029723,-0.0016363497174874952,-0.30659081534914767
832,0.8226,39.1256,636.22,0.00137142,158.077,0.146924,0.541918,-0.173908,0.543956,-0.36647,0.41757,-0.000458382,-0.00163611,0.513653,-0.1596257914707384,0.5182676789163381,-0.000458276959021231,0.7228088307546308,-0.0016347723016739701,-0.30682306852142727
833,0.8236,39.1338,636.368,0.00138296,158.112,0.148088,0.546355,-0.17407,0.544455,-0.366806,0.417946,-0.000457965,-0.00163453,0.514127,-0.1597619210657253,0.5188386549003687,-0.00045786015003590474,0.7236687268874196,-0.0016331948833679943,-0.3070559368463347
834,0.8246,39.1421,636.517,0.00139451,158.147,0.14925,0.550789,-0.174233,0.544954,-0.367141,0.418321,-0.000457546,-0.00163294,0.514602,-0.1598988687110553,0.5194083262026497,-0.0004574413417914869,0.7245290522154539,-0.0016316074788859103,-0.30728803422900897
835,0.8256,39.1503,636.665,0.00140608,158.182,0.150412,0.555219,-0.174395,0.545452,-0.367476,0.418697,-0.000457126,-0.00163135,0.515076,-0.16003495407111223,0.5199797311507002,-0.0004570215338287609,0.7253880815640115,-0.0016300200718798452,-0.30752005387208214
836,0.8266,39.1585,636.813,0.00141765,158.217,0.151573,0.559644,-0.174558,0.54595,-0.367811,0.419072,-0.000456704,-0.00162974,0.51555,-0.16017185721568927,0.520549830436817,-0.00045659972660283543,0.7262475388157235,-0.001628412694918202,-0.3077519958015926
837,0.8276,39.1667,636.961,0.00142925,158.252,0.152732,0.564065,-0.17472,0.546448,-0.368146,0.419447,-0.00045628,-0.00162814,0.516024,-0.16030789835519055,0.5211201435502562,-0.00045617592011126806,0.7271074241837392,-0.0016268152991005813,-0.30798386004357015
838,0.8286,39.1749,637.109,0.00144085,158.287,0.153891,0.568482,-0.174882,0.546945,-0.36848,0.419822,-0.000455854,-0.00162652,0.516497,-0.16044391745781217,0.5216906705712181,-0.00045575011435150525,0.7279660099144394,-0.0016251979332312372,-0.30821495483933636
839,0.8296,39.1831,637.256,0.00145247,158.322,0.155048,0.572895,-0.175044,0.547443,-0.368815,0.420196,-0.000455426,-0.0016249,0.51697,-0.16057991452712406,0.5222598893192827,-0.0004553223093209935,0.7288267512941913,-0.0016235805647418777,-0.3084466640160112
840,0.8306,39.1913,637.403,0.00146409,158.357,0.156204,0.577304,-0.175206,0.54794,-0.369149,0.42057,-0.000454997,-0.00162327,0.517443,-0.16071588956669502,0.5228293209949739,-0.0004548935045622926,0.7296861917428452,-0.001621953209851923,-0.30867760426106206
841,0.8316,39.1994,637.551,0.00147574,158.392,0.157359,0.581708,-0.175368,0.548436,-0.369483,0.420945,-0.000454566,-0.00162163,0.517916,-0.16085184258009377,0.5234004890776691,-0.0004544627005285129,0.7305443288943703,-0.001620315868512523,-0.3089084673849509
842,0.8326,39.2076,637.698,0.00148739,158.427,0.158513,0.586108,-0.17553,0.548933,-0.369817,0.421318,-0.000454133,-0.00161999,0.518388,-0.16098777357088834,0.5239688234478659,-0.0004540298972172119,0.7314046231912552,-0.0016186785244879376,-0.3091392534134322
843,0.8336,39.2157,637.844,0.00149906,158.462,0.159666,0.590504,-0.175692,0.549429,-0.37015,0.421692,-0.000453699,-0.00161834,0.51886,-0.16112368254264586,0.5245388943844556,-0.0004535960941720596,0.7322636128961943,-0.001617031193948515,-0.30936927174186823
844,0.8346,39.2239,637.991,0.00151073,158.496,0.160817,0.594896,-0.175853,0.549925,-0.370484,0.422066,-0.000453262,-0.00161669,0.519332,-0.1612587307580835,0.5251091785674502,-0.0004531592922980554,0.7331230287657073,-0.0016153838606909332,-0.3095999038873941
845,0.8356,39.232,638.138,0.00152242,158.531,0.161968,0.599284,-0.176015,0.550421,-0.370817,0.422439,-0.000452824,-0.00161502,0.519804,-0.16139459583833204,0.5256781503977055,-0.0004527214906859811,0.7339828710112242,-0.0016137165569897194,-0.3098297688447601
846,0.8366,39.2401,638.284,0.00153412,158.566,0.163117,0.603667,-0.176176,0.550916,-0.37115,0.422812,-0.000452384,-0.00161336,0.520275,-0.16152960044024,0.5262473344940386,-0.00045228168978672656,0.7348414050020071,-0.0016120592343836782,-0.3100595572698386
847,0.8376,39.2482,638.43,0.00154584,158.6,0.164265,0.608046,-0.176338,0.551411,-0.371483,0.423185,-0.000451943,-0.00161168,0.520746,-0.16166542164315412,0.5268167309356395,-0.00045184088914573817,0.7357003640723143,-0.0016103819412341958,-0.3102892691881106
848,0.8386,39.2563,638.576,0.00155756,158.635,0.165412,0.61242,-0.176499,0.551906,-0.371816,0.423557,-0.000451499,-0.00161,0.521217,-0.16180038264561736,0.527384812416152,-0.0004513970896645736,0.7365597484326116,-0.0016087046452669673,-0.3105189046250487
849,0.8396,39.2644,638.722,0.0015693,158.67,0.166558,0.616791,-0.17666,0.5524,-0.372148,0.42393,-0.000451054,-0.00160831,0.521688,-0.16193532192110827,0.5279546332161558,-0.0004509522904372343,0.7374178208747806,-0.0016070173625520878,-0.31074777435423595
850,0.8406,39.2725,638.867,0.00158104,158.704,0.167703,0.621157,-0.176821,0.552895,-0.37248,0.424302,-0.000450607,-0.00160662,0.522158,-0.1620702394731246,0.5285231380750599,-0.0004505054919130558,0.73827805558664,-0.0016053300769856005,-0.31097656811128516
851,0.8416,39.2806,639.013,0.0015928,158.738,0.168846,0.625519,-0.176982,0.553389,-0.372813,0.424674,-0.000450158,-0.00160491,0.522628,-0.16220513530516356,0.5290918544571126,-0.0004500566940892625,0.7391369770822418,-0.0016036228206404157,-0.3112059747157845
852,0.8426,39.2886,639.158,0.00160457,158.773,0.169989,0.629876,-0.177143,0.553882,-0.373145,0.425046,-0.000449708,-0.00160321,0.523098,-0.1623400094207218,0.5296607824410147,-0.0004496068965136324,0.7399945829944305,-0.0016019255453565417,-0.31143461637556324
853,0.8436,39.2967,639.303,0.00161635,158.807,0.17113,0.634229,-0.177304,0.554376,-0.373476,0.425417,-0.000449256,-0.00160149,0.523568,-0.1624748618232954,0.53022839187634,-0.0004491550996338356,0.7408543526640536,-0.0016002082991916078,-0.31166249380174826
854,0.8446,39.3047,639.448,0.00162814,158.842,0.17227,0.638578,-0.177465,0.554869,-0.373808,0.425789,-0.000448802,-0.00159977,0.524037,-0.1626096925163798,0.5307977427308113,-0.0004487013034472076,0.7417128054511419,-0.0015984910500730365,-0.3118909839223474
855,0.8456,39.3128,639.593,0.00163993,158.876,0.173409,0.642922,-0.177626,0.555362,-0.374139,0.42616,-0.000448347,-0.00159804,0.524506,-0.16274450150346997,0.53136577405666,-0.00044824650750285855,0.7425716815597945,-0.0015967638139684492,-0.3121187103158718
856,0.8466,39.3208,639.738,0.00165174,158.91,0.174547,0.647262,-0.177787,0.555855,-0.374471,0.426531,-0.00044789,-0.00159631,0.524975,-0.16287928878806035,0.5319340161612276,-0.0004477897122471264,0.74343098119876,-0.0015950365748758077,-0.31234704899772836
857,0.8476,39.3288,639.882,0.00166356,158.944,0.175684,0.651598,-0.177947,0.556347,-0.374802,0.426902,-0.000447431,-0.00159457,0.525444,-0.16301321738728058,0.5325024691227276,-0.00044733091767734656,0.7442889602870586,-0.0015932993487280944,-0.31257462445869355
858,0.8486,39.3368,640.026,0.00167539,158.979,0.176819,0.655929,-0.178108,0.556839,-0.375133,0.427272,-0.00044697,-0.00159282,0.525912,-0.1631479614120962,0.5330695999490358,-0.0004468701237906325,0.7451473616049282,-0.0015915521354731288,-0.3128021246046464
859,0.8496,39.3448,640.17,0.00168723,159.013,0.177953,0.660256,-0.178268,0.557331,-0.375463,0.427643,-0.000446508,-0.00159107,0.52638,-0.16328184702713544,0.5336384742902822,-0.00044640833013798176,0.7460061853601574,-0.001589804919160609,-0.3130288624897183
860,0.8506,39.3528,640.314,0.00169908,159.047,0.179086,0.664578,-0.178428,0.557823,-0.375794,0.428013,-0.000446044,-0.00158931,0.526848,-0.1634157112221899,0.5342060255162715,-0.00044594453716384486,0.7468654317606362,-0.0015880477156708928,-0.31325621230776357
861,0.8516,39.3608,640.458,0.00171094,159.081,0.180218,0.668896,-0.178588,0.558314,-0.376124,0.428383,-0.000445578,-0.00158754,0.527316,-0.1635495540006866,0.5347737867750681,-0.00044547874486544625,0.7477233532901306,-0.0015862805249513556,-0.31348280036861564
862,0.8526,39.3688,640.602,0.00172281,159.115,0.181349,0.67321,-0.178749,0.558805,-0.376454,0.428753,-0.00044511,-0.00158577,0.527783,-0.16368421168225822,0.5353417581443987,-0.0004450109532400104,0.7485816961625271,-0.0015845133311039872,-0.313709313667744
863,0.8536,39.3767,640.745,0.00173468,159.149,0.182478,0.677519,-0.178909,0.559296,-0.376784,0.429122,-0.000444641,-0.00158399,0.52825,-0.1638180115041179,0.5359084037928465,-0.00044454216184031115,0.749440460584756,-0.0015827361499559656,-0.31393575222981607
864,0.8546,39.3847,640.888,0.00174657,159.183,0.183607,0.681823,-0.179069,0.559787,-0.377114,0.429491,-0.000444171,-0.00158221,0.528717,-0.1639517899197186,0.5364752585721209,-0.0004440723706646832,0.750299646763849,-0.0015809589656445855,-0.31416211607949074
865,0.8556,39.3926,641.031,0.00175847,159.217,0.184734,0.686124,-0.179229,0.560277,-0.377444,0.429861,-0.000443698,-0.00158041,0.529183,-0.164085546932485,0.5370438596024965,-0.00044359958059914106,0.75115750374856,-0.001579161809753371,-0.3143884052414192
866,0.8566,39.4006,641.174,0.00177037,159.251,0.18586,0.690419,-0.179388,0.560767,-0.377773,0.430229,-0.000443224,-0.00157862,0.52965,-0.1642184467647061,0.5376095958319118,-0.0004431257907530073,0.7520157811861965,-0.0015773746348534123,-0.31461393435452134
867,0.8576,39.4085,641.317,0.00178228,159.284,0.186984,0.69471,-0.179548,0.561257,-0.378103,0.430598,-0.000442748,-0.00157681,0.530116,-0.16435216111579043,0.5381770784668809,-0.0004426500015676238,0.7528744792828301,-0.0015755674882660387,-0.3148400744410179
868,0.8586,39.4164,641.459,0.0017942,159.318,0.188108,0.698997,-0.179708,0.561747,-0.378432,0.430967,-0.000442271,-0.001575,0.530582,-0.16448585407429006,0.5387447705415815,-0.0004421732125979849,0.7537335982446349,-0.0015737603384077259,-0.3150654549793953
869,0.8596,39.4243,641.602,0.00180613,159.352,0.18923,0.70328,-0.179867,0.562236,-0.378761,0.431335,-0.000441791,-0.00157318,0.531047,-0.16461869026273535,0.5393111328214086,-0.0004416934247259974,0.754591383685624,-0.0015719432009979606,-0.31529076137977197
870,0.8606,39.4323,641.744,0.00181807,159.386,0.190351,0.707557,-0.180027,0.562725,-0.379089,0.431703,-0.000441311,-0.00157136,0.531512,-0.16475234057998278,0.539877703560909,-0.00044121363662363855,0.7554495886862678,-0.001570126060280952,-0.3155153091821866
871,0.8616,39.4401,641.886,0.00183001,159.419,0.191471,0.711831,-0.180186,0.563214,-0.379418,0.432071,-0.000440828,-0.00156953,0.531978,-0.16488513440044217,0.54044448283681,-0.0004407308496132689,0.7563082134517809,-0.0015682989319398821,-0.3157404676048742
872,0.8626,39.448,642.028,0.00184197,159.453,0.19259,0.716099,-0.180345,0.563702,-0.379746,0.432439,-0.000440344,-0.0015677,0.532442,-0.1650179071083625,0.5410114707258669,-0.00044024706280987314,0.7571655010210991,-0.0015664718002550426,-0.31596486792783496
873,0.8636,39.4559,642.17,0.00185393,159.487,0.193707,0.720364,-0.180505,0.56419,-0.380074,0.432806,-0.000439858,-0.00156586,0.532907,-0.16515149355602432,0.541577125726967,-0.00043976127665190656,0.7580232070488466,-0.0015646346808730893,-0.3161891946595595
874,0.8646,39.4638,642.311,0.0018659,159.52,0.194824,0.724623,-0.180664,0.564678,-0.380402,0.433174,-0.000439371,-0.00156401,0.533371,-0.16528422391620567,0.5421445305053103,-0.0004392744906971391,0.7588813317392813,-0.001562787573738622,-0.3164134478241817
875,0.8656,39.4716,642.453,0.00187787,159.554,0.195939,0.728878,-0.180823,0.565166,-0.38073,0.433541,-0.000438882,-0.00156215,0.533835,-0.16541693317393735,0.5427106014156642,-0.00043878570538291584,0.7597398752967599,-0.0015609304787964629,-0.3166376274458276
876,0.8666,39.4795,642.594,0.00188986,159.587,0.197053,0.733129,-0.180982,0.565653,-0.381058,0.433908,-0.000438391,-0.00156029,0.534299,-0.16554962133257456,0.5432768801121688,-0.0004382949207061282,0.7605970773277821,-0.0015590733804000667,-0.31686173354861524
877,0.8676,39.4873,642.735,0.00190185,159.621,0.198165,0.737375,-0.181141,0.566141,-0.381386,0.434274,-0.000437899,-0.00155843,0.534763,-0.16568228839547172,0.5438418228285002,-0.0004378031362263224,0.7614564583734387,-0.0015572162785494337,-0.31708576615665507
878,0.8686,39.4952,642.876,0.00191385,159.654,0.199277,0.741616,-0.1813,0.566628,-0.381713,0.434641,-0.000437405,-0.00155655,0.535226,-0.1658149343659827,0.5444085167594541,-0.0004373093523790672,0.7623144965840123,-0.0015553392043515801,-0.3173090426034333
879,0.8696,39.503,643.017,0.00192585,159.687,0.200387,0.745853,-0.181458,0.567114,-0.38204,0.435007,-0.000436909,-0.00155468,0.535689,-0.1659467251946033,0.5449738737306027,-0.0004368135691615871,0.7631711895888902,-0.0015534721110901373,-0.31753224605074937
880,0.8706,39.5108,643.157,0.00193787,159.721,0.201496,0.750086,-0.181617,0.567601,-0.382367,0.435373,-0.000436412,-0.00155279,0.536152,-0.1660793291230056,0.5455394376602738,-0.0004363167861344275,0.7640300630769394,-0.0015515850453691193,-0.31775537652247043
881,0.8716,39.5186,643.298,0.00194989,159.754,0.202604,0.754313,-0.181775,0.568087,-0.382694,0.435739,-0.000435913,-0.0015509,0.536615,-0.16621107818055458,0.5461052086242282,-0.00043581800373204693,0.7648875900497705,-0.001549697976081621,-0.3179784340424554
882,0.8726,39.5264,643.438,0.00196191,159.787,0.20371,0.758536,-0.181934,0.568573,-0.38302,0.436105,-0.000435413,-0.001549,0.537077,-0.16634364008017355,0.5466711866982543,-0.0004353182215161011,0.765745533881999,-0.0015478009187055441,-0.31820073683563355
883,0.8736,39.5342,643.578,0.00197394,159.821,0.204815,0.762755,-0.182092,0.569058,-0.383347,0.43647,-0.000434911,-0.0015471,0.537539,-0.16647534737989023,0.5472358247215696,-0.00043481643991993835,0.7666021281732562,-0.0015459038577251283,-0.31842364874660445
884,0.8746,39.542,643.718,0.00198598,159.854,0.205919,0.766969,-0.182251,0.569544,-0.383673,0.436836,-0.000434407,-0.00154519,0.538001,-0.16660786726404686,0.547802216676823,-0.00043431265894045,0.7674609054735293,-0.0015439968085801947,-0.3186458064234443
885,0.8756,39.5498,643.858,0.00199803,159.887,0.207022,0.771178,-0.182409,0.570029,-0.383999,0.437201,-0.000433902,-0.00154328,0.538463,-0.16673953281916642,0.5483672676014306,-0.0004338078781409571,0.7683183319217903,-0.0015420897557928415,-0.3188678916886851
886,0.8766,39.5576,643.998,0.00201008,159.92,0.208124,0.775383,-0.182567,0.570514,-0.384325,0.437566,-0.000433395,-0.00154135,0.538924,-0.1668711775727716,0.5489325248072696,-0.0004333010979530316,0.769176174322739,-0.00154016273016655,-0.31908990456592945
887,0.8776,39.5653,644.137,0.00202214,159.953,0.209224,0.779582,-0.182725,0.570998,-0.384651,0.43793,-0.000432887,-0.00153943,0.539385,-0.16700280152814873,0.5494964388724328,-0.00043279331794099374,0.7700326628446137,-0.0015382456854385884,-0.31931184507877175
888,0.8786,39.5731,644.276,0.0020342,159.986,0.210323,0.783778,-0.182883,0.571483,-0.384976,0.438295,-0.000432377,-0.00153749,0.539846,-0.16713440468858387,0.550062108301012,-0.0004322835385356383,0.7708913368977193,-0.0015363086677563365,-0.3195330327841721
889,0.8796,39.5808,644.415,0.00204627,160.019,0.211421,0.787968,-0.183041,0.571967,-0.385302,0.438659,-0.000431865,-0.00153556,0.540307,-0.16726598705736218,0.5506264336094087,-0.0004317717597337456,0.7717486557592064,-0.0015343816309725256,-0.3197548288607597
890,0.8806,39.5885,644.555,0.00205834,160.052,0.212518,0.792154,-0.183199,0.572451,-0.385627,0.439023,-0.000431352,-0.00153361,0.540767,-0.16739754863776857,0.5511909643696078,-0.0004312589811011902,0.7726063896634547,-0.0015324346211182949,-0.3199758726198234
891,0.8816,39.5963,644.693,0.00207042,160.085,0.213613,0.796336,-0.183357,0.572934,-0.385952,0.439387,-0.000430837,-0.00153166,0.541227,-0.1675290894330873,0.5517557006564071,-0.00043074420306699057,0.7734627653477413,-0.0015304876074675455,-0.3201968445513381
892,0.8826,39.604,644.832,0.00208251,160.118,0.214707,0.800512,-0.183514,0.573417,-0.386277,0.439751,-0.000430321,-0.0015297,0.541687,-0.16765977710679558,0.5523206425446319,-0.0004302284251979094,0.7743195547613908,-0.0015285306053053338,-0.3204177446786438
893,0.8836,39.6117,644.971,0.0020946,160.151,0.2158,0.804684,-0.183672,0.573901,-0.386602,0.440114,-0.000429803,-0.00152774,0.542147,-0.16779127647328917,0.5528842372241212,-0.00042971064792218794,0.775178533281929,-0.0015265735993075236,-0.32063857302507326
894,0.8846,39.6194,645.109,0.00210669,160.184,0.216892,0.808852,-0.183829,0.574383,-0.386926,0.440478,-0.000429284,-0.00152577,0.542606,-0.16792192298686315,0.5534495899744292,-0.0004291918708073661,0.7760343755763943,-0.0015246066047199802,-0.3208586504729414
895,0.8856,39.6271,645.247,0.00211879,160.216,0.217982,0.813014,-0.183987,0.574866,-0.387251,0.440841,-0.000428763,-0.0015238,0.543065,-0.1680533809375796,0.5540135945362246,-0.00042867109428068595,0.7768924073777972,-0.0015226396062575365,-0.3210793355482704
896,0.8866,39.6348,645.385,0.0021309,160.249,0.219071,0.817172,-0.184144,0.575348,-0.387575,0.441204,-0.00042824,-0.00152182,0.543524,-0.1681839863039829,0.5545778038688396,-0.00042814831833892786,0.7777490759586958,-0.0015206626191267558,-0.32129927021221316
897,0.8876,39.6424,645.523,0.00214301,160.282,0.220159,0.821325,-0.184301,0.57583,-0.387899,0.441566,-0.000427716,-0.00151983,0.543983,-0.16831457116695325,0.5551406629051792,-0.000427624542551408,0.7786061575533787,-0.0015186756432682413,-0.32151913362886764
898,0.8886,39.6501,645.661,0.00215512,160.314,0.221245,0.825473,-0.184459,0.576312,-0.388223,0.441929,-0.00042719,-0.00151784,0.544441,-0.16844596708415804,0.5557052814378776,-0.0004270987673435922,0.7794636523609668,-0.0015166886634557786,-0.3217389258213139
899,0.8896,39.6578,645.798,0.00216724,160.347,0.222331,0.829617,-0.184616,0.576794,-0.388546,0.442291,-0.000426663,-0.00151584,0.5449,-0.16857651081937441,0.5562685486949805,-0.0004265719922859068,0.7803215605806764,-0.00151469169483609,-0.32195796877093286
900,0.8906,39.6654,645.936,0.00217937,160.38,0.223415,0.833756,-0.184773,0.577275,-0.38887,0.442653,-0.000426134,-0.00151384,0.545358,-0.1687070340608332,0.5568320198917414,-0.00042604321780259635,0.7811781012328283,-0.0015126947222224851,-0.32217761880382423
901,0.8916,39.6731,646.073,0.0021915,160.412,0.224498,0.83789,-0.18493,0.577756,-0.389193,0.443015,-0.000425604,-0.00151183,0.545815,-0.16883753681175173,0.5573956951019998,-0.00042551344346508646,0.7820350539801351,-0.0015106877607219404,-0.3223965200784916
902,0.8926,39.6807,646.21,0.00220363,160.445,0.225579,0.84202,-0.185087,0.578237,-0.389516,0.443377,-0.000425072,-0.00150981,0.546273,-0.16896801907534653,0.5579595743996217,-0.0004249816696968445,0.7828924190208617,-0.0015086708102740598,-0.3226153506594649
903,0.8936,39.6883,646.347,0.00221576,160.477,0.226659,0.846145,-0.185243,0.578717,-0.389839,0.443739,-0.000424539,-0.00150779,0.54673,-0.16909764995289944,0.5585236578585004,-0.0004244488960700732,0.7837484128040646,-0.0015066538557519937,-0.32283411056957456
904,0.8946,39.6959,646.484,0.0022279,160.51,0.227738,0.850265,-0.1854,0.579198,-0.390162,0.4441,-0.000424004,-0.00150576,0.547187,-0.16922809138193673,0.5590863864653897,-0.0004239141230071297,0.7846066021686195,-0.0015046269122019895,-0.3230527998316435
905,0.8956,39.7036,646.621,0.00224005,160.542,0.228816,0.85438,-0.185557,0.579678,-0.390485,0.444461,-0.000423468,-0.00150373,0.547644,-0.16935851233327714,0.5596493182539781,-0.0004233783500815491,0.7854634189572389,-0.0015025999645372767,-0.3232714184684873
906,0.8966,39.7112,646.757,0.0022522,160.575,0.229893,0.85849,-0.185713,0.580157,-0.390807,0.444822,-0.00042293,-0.00150169,0.5481,-0.1694880822986331,0.5602124532976274,-0.00042284057771446726,0.7863188607968838,-0.0015005630277634685,-0.32348928999254256
907,0.8976,39.7188,646.893,0.00226435,160.607,0.230968,0.862596,-0.18587,0.580637,-0.39113,0.445183,-0.00042239,-0.00149965,0.548557,-0.16961846243460377,0.5607757916697262,-0.0004223008059026645,0.7871764996669284,-0.0014985260868344286,-0.3237077676658312
908,0.8986,39.7263,647.03,0.0022765,160.639,0.232042,0.866697,-0.186026,0.581116,-0.391452,0.445543,-0.000421849,-0.0014976,0.549013,-0.16974799185090683,0.5613377721051362,-0.0004217600342211192,0.7880327622687902,-0.0014964791567148028,-0.32392549870806386
909,0.8996,39.7339,647.166,0.00228866,160.672,0.233114,0.870793,-0.186182,0.581595,-0.391774,0.445904,-0.000421307,-0.00149554,0.549469,-0.1698775010621969,0.5619015167906596,-0.000421218262668166,0.7888894351186848,-0.001494422237343196,-0.3241431596521871
910,0.9006,39.7415,647.302,0.00230082,160.704,0.234185,0.874884,-0.186339,0.582074,-0.392095,0.446264,-0.000420763,-0.00149348,0.549924,-0.17000782006422077,0.5624639025600691,-0.0004206744916630534,0.7897465184131682,-0.0014923653137344228,-0.3243600748811819
911,0.9016,39.7491,647.437,0.00231299,160.736,0.235256,0.878971,-0.186495,0.582552,-0.392417,0.446624,-0.000420217,-0.00149141,0.55038,-0.17013728874547107,0.5630264908248024,-0.0004201287212023397,0.7906022217457733,-0.001490298400791401,-0.32457759591430446
912,0.9026,39.7566,647.573,0.00232515,160.768,0.236324,0.883052,-0.186651,0.583031,-0.392738,0.446984,-0.00041967,-0.00148934,0.550835,-0.17026673723118235,0.563589281657771,-0.0004195819508632237,0.7914601256615741,-0.0014882314835698018,-0.32479437171163905
913,0.9036,39.7642,647.708,0.00233732,160.8,0.237392,0.887129,-0.186807,0.583509,-0.39306,0.447343,-0.000419122,-0.00148726,0.551289,-0.17039616552450498,0.5641507109804198,-0.0004190341806440401,0.7923166482942412,-0.0014861545769312423,-0.32501175292369455
914,0.9046,39.7717,647.844,0.0023495,160.832,0.238458,0.891201,-0.186963,0.583987,-0.393381,0.447703,-0.000418572,-0.00148518,0.551744,-0.17052557362858856,0.5647139066055027,-0.00041848441096159483,0.793173580442593,-0.001484077665972805,-0.3252283893789947
915,0.9056,39.7792,647.979,0.00236167,160.864,0.239523,0.895268,-0.187119,0.584464,-0.393702,0.448062,-0.000418021,-0.00148309,0.552198,-0.17065496154658255,0.5652757397409878,-0.0004179336413947521,0.7940291282723997,-0.0014819907655143627,-0.3254449563051528
916,0.9066,39.7868,648.114,0.00237385,160.897,0.240587,0.899331,-0.187274,0.584941,-0.394023,0.448421,-0.000417468,-0.00148099,0.552653,-0.1707835000655502,0.5658377746107777,-0.0004173808723592076,0.7948850842958677,-0.0014798938754931878,-0.3256614537244841
917,0.9076,39.7943,648.249,0.00238603,160.929,0.241649,0.903388,-0.18743,0.585418,-0.394343,0.44878,-0.000416913,-0.00147889,0.553106,-0.17091284775015836,0.566400011287308,-0.00041682610385163077,0.7957414487077517,-0.0014777969810686464,-0.32587720753684113
918,0.9086,39.8018,648.383,0.00239821,160.96,0.24271,0.907441,-0.187586,0.585895,-0.394664,0.449139,-0.000416357,-0.00147679,0.55356,-0.1710421752581014,0.5669624498430401,-0.00041627033545243997,0.7965982217028997,-0.0014757000822405164,-0.32609356622579444
919,0.9096,39.8093,648.518,0.0024104,160.992,0.24377,0.911489,-0.187741,0.586372,-0.394984,0.449497,-0.0004158,-0.00147467,0.554014,-0.17117065376359497,0.5675235228261555,-0.0004157135671599699,0.797455403476252,-0.0014735832084807887,-0.32630918178427293
920,0.9106,39.8168,648.652,0.00242259,161.024,0.244828,0.915532,-0.187897,0.586848,-0.395304,0.449855,-0.000415241,-0.00147256,0.554467,-0.1712999410569368,0.5680847967093579,-0.00041515479938769584,0.7983111959107476,-0.0014714763155185828,-0.326524728356811
921,0.9116,39.8242,648.786,0.00243477,161.056,0.245885,0.91957,-0.188052,0.587324,-0.395624,0.450213,-0.000414681,-0.00147043,0.55492,-0.17142837961182777,0.5686462715645819,-0.0004145950317177016,0.7991673957994083,-0.0014693494474979918,-0.3267402059654807
922,0.9126,39.8317,648.92,0.00244697,161.088,0.246941,0.923603,-0.188207,0.5878,-0.395944,0.450571,-0.000414119,-0.00146831,0.555372,-0.17155679826028558,0.5692079474637892,-0.0004140332645622413,0.8000240033362289,-0.0014672325602749225,-0.3269556146323469
923,0.9136,39.8392,649.054,0.00245916,161.12,0.247996,0.927632,-0.188362,0.588275,-0.396263,0.450929,-0.000413556,-0.00146617,0.555825,-0.17168519700539542,0.569769824478966,-0.0004134704975045089,0.8008792178351771,-0.0014650956978662366,-0.3271702815500853
924,0.9146,39.8467,649.188,0.00247135,161.152,0.249049,0.931655,-0.188517,0.588751,-0.396583,0.451286,-0.000412992,-0.00146403,0.556277,-0.17181357585024215,0.5703303323510072,-0.00041290673054295013,0.8017366403932464,-0.001462958830884542,-0.3273855526147821
925,0.9156,39.8541,649.322,0.00248355,161.183,0.250101,0.935674,-0.188673,0.589226,-0.396902,0.451644,-0.000412425,-0.00146189,0.556729,-0.1719427628555611,0.5708926112519066,-0.00041233996450029675,0.8025926685880342,-0.0014608219593300609,-0.32760008240417726
926,0.9166,39.8616,649.455,0.00249575,161.215,0.251152,0.939688,-0.188827,0.5897,-0.397221,0.452001,-0.000411858,-0.00145974,0.557181,-0.17207027385148266,0.5714535200303832,-0.00041177319813645585,0.803447300044599,-0.001458675097789297,-0.32781454376948393
927,0.9176,39.869,649.589,0.00250795,161.247,0.252201,0.943697,-0.188982,0.590175,-0.39754,0.452358,-0.000411289,-0.00145758,0.557633,-0.1721985930140436,0.5720146290890418,-0.00041120443227360415,0.8043041409957357,-0.0014565182461981907,-0.32802893673252576
928,0.9186,39.8764,649.722,0.00252015,161.278,0.253249,0.947701,-0.189137,0.590649,-0.397859,0.452714,-0.000410719,-0.00145542,0.558084,-0.17232689228867581,0.5725743659242426,-0.0004106346664977112,0.8051595838825152,-0.0014543613899481445,-0.3282432613151197
929,0.9196,39.8838,649.855,0.00253235,161.31,0.254296,0.9517,-0.189292,0.591123,-0.398177,0.453071,-0.000410147,-0.00145325,0.558535,-0.17245517167846147,0.5731358751963189,-0.0004100629012172563,0.8060154323453372,-0.0014521945435613803,-0.32845684599625735
930,0.9206,39.8913,649.988,0.00254455,161.341,0.255341,0.955694,-0.189447,0.591597,-0.398496,0.453427,-0.000409573,-0.00145108,0.558986,-0.17258343118648267,0.5736960112661935,-0.0004094891364286868,0.8068716865764902,-0.0014500276924724886,-0.32867103409756604
931,0.9216,39.8987,650.121,0.00255675,161.373,0.256385,0.959683,-0.189601,0.592071,-0.398814,0.453783,-0.000408999,-0.0014489,0.559436,-0.172710843527078,0.5742563467800077,-0.0004089153713107141,0.8077283467683536,-0.0014478508511600596,-0.3288844827685855
932,0.9226,39.9061,650.253,0.00256896,161.404,0.257428,0.963668,-0.189756,0.592544,-0.399132,0.454139,-0.000408423,-0.00144672,0.559887,-0.17283906340903377,0.5748168818087767,-0.0004083396066801859,0.8085836045288899,-0.0014456740051022043,-0.32909786357371895
933,0.9236,39.9135,650.386,0.00258116,161.436,0.25847,0.967647,-0.18991,0.593017,-0.39945,0.454495,-0.000407845,-0.00144453,0.560337,-0.17296643638529785,0.5753776164235398,-0.0004077618425334384,0.8094392669220349,-0.0014434871687336592,-0.3293111765345442
934,0.9246,39.9208,650.518,0.00259337,161.467,0.25951,0.971622,-0.190064,0.59349,-0.399768,0.454851,-0.000407266,-0.00144234,0.560787,-0.1730937897476339,0.5759385506953627,-0.0004071830784599939,0.8102953341392254,-0.001441300327575945,-0.3295244216726322
935,0.9256,39.9282,650.65,0.00260557,161.499,0.260549,0.975591,-0.190219,0.593963,-0.400085,0.455206,-0.000406686,-0.00144014,0.561237,-0.1732219502775253,0.5764981081964395,-0.00040660331445807607,0.8111518063719882,-0.0014391034960201665,-0.32973692874681115
936,0.9266,39.9356,650.782,0.00261778,161.53,0.261586,0.979556,-0.190373,0.594435,-0.400403,0.455561,-0.000406104,-0.00143794,0.561686,-0.17334926429375175,0.5770578643756925,-0.00040602155093194536,0.8120068718041633,-0.001436906659631365,-0.32995003851722027
937,0.9276,39.9429,650.914,0.00262999,161.561,0.262623,0.983516,-0.190527,0.594907,-0.40072,0.455916,-0.000405521,-0.00143573,0.562135,-0.17347655870512924,0.577617819303665,-0.00040543878747267836,0.8128623409224844,-0.0014346998327565696,-0.33016241069224217
938,0.9286,39.9503,651.046,0.00264219,161.593,0.263658,0.987471,-0.190681,0.595379,-0.401037,0.456271,-0.000404936,-0.00143351,0.562584,-0.1736038335146768,0.5781779730509251,-0.0004048540244833143,0.8137182139175372,-0.0014324830153294998,-0.330374715555954
939,0.9296,39.9576,651.177,0.0026544,161.624,0.264691,0.991421,-0.190835,0.59585,-0.401354,0.456626,-0.00040435,-0.00143129,0.563033,-0.17373108872541276,0.5787383256880663,-0.00040426826155615103,0.8145726764064123,-0.0014302661929811444,-0.33058695312969
940,0.9306,39.965,651.309,0.00266661,161.655,0.265724,0.995366,-0.190989,0.596322,-0.401671,0.45698,-0.000403763,-0.00142907,0.563481,-0.1738583243403553,0.5792972979876196,-0.00040368149868930114,0.815429356870361,-0.0014280493657113924,-0.3307991234347778
941,0.9316,39.9723,651.44,0.00267881,161.686,0.266755,0.999306,-0.191143,0.596793,-0.401987,0.457335,-0.000403174,-0.00142684,0.56393,-0.17398554036252178,0.5798580480556532,-0.0004030927362843606,0.8162846254973974,-0.0014258225477785658,-0.3310105575034301
942,0.9326,39.9796,651.571,0.00269102,161.718,0.267784,1.00324,-0.191296,0.597264,-0.402304,0.457689,-0.000402584,-0.0014246,0.564378,-0.1741119109072531,0.5804174168070926,-0.0004025029739350705,0.817140297050839,-0.001423585739115829,-0.33122259354721306
943,0.9336,39.9869,651.703,0.00270323,161.749,0.268813,1.00717,-0.19145,0.597735,-0.40262,0.458043,-0.000401993,-0.00142236,0.564826,-0.17423908788009512,0.5809769836101226,-0.00040191221163976554,0.8179963717205088,-0.001421348925442656,-0.33143389382045063
944,0.9346,39.9943,651.833,0.00271543,161.78,0.26984,1.0111,-0.191604,0.598205,-0.402936,0.458396,-0.0004014,-0.00142011,0.565273,-0.1743662452691913,0.5815351669989091,-0.0004013194497979322,0.8188510308443786,-0.0014191021209500887,-0.3316451273333506
945,0.9356,40.0016,651.964,0.00272764,161.811,0.270866,1.01502,-0.191757,0.598675,-0.403252,0.45875,-0.000400806,-0.00141786,0.565721,-0.17449255757052773,0.5820951295555514,-0.0004007256880054211,0.8197060917524486,-0.001416855311402232,-0.3318562941070058
946,0.9366,40.0089,652.095,0.00273984,161.842,0.27189,1.01893,-0.19191,0.599145,-0.403568,0.459103,-0.00040021,-0.00141561,0.566168,-0.1746188505475602,0.5826537077195302,-0.0004001299266603864,0.8205615546336018,-0.0014146084967989747,-0.33206739416250264
947,0.9376,40.0161,652.225,0.00275205,161.873,0.272913,1.02284,-0.192064,0.599615,-0.403883,0.459456,-0.000399613,-0.00141334,0.566615,-0.17474594945770872,0.5832124830964067,-0.0003995331653597889,0.8214174196768096,-0.0014123417053875098,-0.3322777597990142
948,0.9386,40.0234,652.356,0.00276425,161.904,0.273935,1.02675,-0.192217,0.600084,-0.404199,0.459809,-0.000399015,-0.00141108,0.567061,-0.17487220366874823,0.5837714557558098,-0.00039893540410185224,0.8222718647983569,-0.0014100848947296019,-0.33248872669239304
949,0.9396,40.0307,652.486,0.00277645,161.935,0.274955,1.03065,-0.19237,0.600553,-0.404514,0.460162,-0.000398415,-0.00140881,0.567508,-0.17499843856437114,0.5843306257673921,-0.0003983356432831764,0.8231267107486533,-0.0014078180930494621,-0.3326989596300589
950,0.9406,40.038,652.616,0.00278865,161.966,0.275974,1.03454,-0.192523,0.601022,-0.404829,0.460515,-0.000397814,-0.00140653,0.567954,-0.17512465414753242,0.5848899932008316,-0.0003977348825023874,0.8239819577157312,-0.001405541300279145,-0.33290912635477843
951,0.9416,40.0452,652.746,0.00280085,161.996,0.276992,1.03843,-0.192676,0.601491,-0.405144,0.460867,-0.000397212,-0.00140425,0.5684,-0.1752508504211867,0.5854479726770647,-0.000397133121757709,0.8248376058877123,-0.0014032645023177581,-0.3331192268874056
952,0.9426,40.0525,652.875,0.00281305,162.027,0.278009,1.04232,-0.192829,0.601959,-0.405459,0.461219,-0.000396608,-0.00140196,0.568846,-0.1753770273882882,0.5860061485966457,-0.0003965293614437426,0.8256918297600626,-0.0014009777131751555,-0.33332926124878737
953,0.9436,40.0597,653.005,0.00282525,162.058,0.279024,1.0462,-0.192982,0.602428,-0.405774,0.461571,-0.000396003,-0.00139967,0.569291,-0.1755031850517904,0.5865645210287342,-0.00039592460116111283,0.8265482800501143,-0.001398690918795742,-0.33353922945976466
954,0.9446,40.0669,653.135,0.00283745,162.089,0.280037,1.05007,-0.193135,0.602896,-0.406088,0.461923,-0.000395396,-0.00139737,0.569737,-0.17562932341464665,0.5871230900425153,-0.0003953178413030889,0.8274033047053411,-0.0013963941331435192,-0.3337484652899697
955,0.9456,40.0742,653.264,0.00284964,162.12,0.28105,1.05394,-0.193288,0.603363,-0.406402,0.462275,-0.000394788,-0.00139507,0.570182,-0.17575544247980968,0.5876818557071979,-0.00039471008147162756,0.8282569013479413,-0.0013940973422087444,-0.333957635430438
956,0.9466,40.0814,653.393,0.00286184,162.15,0.282061,1.05781,-0.19344,0.603831,-0.406716,0.462626,-0.000394179,-0.00139276,0.570626,-0.17588071813136208,0.5882392298519912,-0.00039410132166473044,0.8291127258250792,-0.001391790559909234,-0.3341667399017928
957,0.9476,40.0886,653.522,0.00287403,162.181,0.283071,1.06167,-0.193593,0.604298,-0.40703,0.462978,-0.000393569,-0.00139045,0.571071,-0.17600679873607572,0.5887983884670418,-0.00039349156188051015,0.8299671209537742,-0.001389483772281097,-0.33437577872465096
958,0.9486,40.0958,653.651,0.00288622,162.212,0.284079,1.06553,-0.193745,0.604765,-0.407344,0.463329,-0.000392957,-0.00138813,0.571515,-0.17613203618438067,0.5893561545836208,-0.00039287980251012655,0.8308219151781759,-0.0013871669931959651,-0.3345847519196228
959,0.9496,40.103,653.78,0.00289841,162.242,0.285087,1.06938,-0.193898,0.605232,-0.407658,0.46368,-0.000392344,-0.00138581,0.57196,-0.17625807834037366,0.5899141165104693,-0.0003922670431576458,0.8316771086847057,-0.0013848502087359105,-0.3347936595073123
960,0.9506,40.1102,653.909,0.00291059,162.273,0.286092,1.07322,-0.19405,0.605699,-0.407971,0.46403,-0.00039173,-0.00138348,0.572404,-0.1763832775970814,0.5904706838448499,-0.0003916532838211806,0.8325327016598714,-0.001382523432726268,-0.3350018365104859
961,0.9516,40.1174,654.037,0.00292278,162.303,0.287097,1.07706,-0.194202,0.606165,-0.408285,0.464381,-0.000391114,-0.00138115,0.572847,-0.17650845782494828,0.5910290370401328,-0.0003910375248900033,0.8333868609024913,-0.0013801966512950736,-0.3352106131541732
962,0.9526,40.1246,654.165,0.00293496,162.334,0.2881,1.0809,-0.194355,0.606631,-0.408598,0.464731,-0.000390497,-0.00137881,0.573291,-0.17663444239283588,0.5915859946649955,-0.00039042076596984554,0.8342414182760756,-0.0013778598782212548,-0.3354186596712775
963,0.9536,40.1317,654.294,0.00294714,162.364,0.289102,1.08473,-0.194507,0.607097,-0.408911,0.465081,-0.000389878,-0.00137647,0.573734,-0.17675958444655515,0.5921431472591445,-0.0003898020074488695,0.8350963739661965,-0.0013755230996793655,-0.33562664108001194
964,0.9546,40.1389,654.422,0.00295932,162.395,0.290102,1.08855,-0.194659,0.607562,-0.409224,0.465431,-0.000389259,-0.00137412,0.574177,-0.17688470748012775,0.5927004948908312,-0.0003891832485447555,0.8359498922077027,-0.001373176329401149,-0.3358345574007523
965,0.9556,40.146,654.55,0.0029715,162.425,0.291101,1.09237,-0.194811,0.608028,-0.409536,0.465781,-0.000388638,-0.00137177,0.57462,-0.17700981149644468,0.5932580376283305,-0.00038856249003482723,0.8368056442322072,-0.0013708295536081216,-0.3360417446959445
966,0.9566,40.1532,654.678,0.00298367,162.456,0.292099,1.09619,-0.194963,0.608493,-0.409849,0.466131,-0.000388016,-0.00136941,0.575062,-0.1771348964983963,0.5938157755399414,-0.0003879407315272587,0.837659957469209,-0.0013684727859848422,-0.33624953110958455
967,0.9576,40.1603,654.805,0.00299584,162.486,0.293096,1.1,-0.195115,0.608958,-0.410161,0.46648,-0.000387392,-0.00136705,0.575505,-0.17725996248887244,0.5943721143210752,-0.0003873169734077697,0.8385146680542424,-0.0013661160127996785,-0.3364565889531751
968,0.9586,40.1675,654.933,0.00300801,162.516,0.294091,1.1038,-0.195266,0.609423,-0.410474,0.46683,-0.000386767,-0.00136468,0.575947,-0.17738418685536095,0.5949302422277738,-0.00038669221528553344,0.839369776172117,-0.0013637492476900048,-0.3366642455408815
969,0.9596,40.1746,655.06,0.00302017,162.547,0.295084,1.1076,-0.195418,0.609887,-0.410786,0.467179,-0.000386141,-0.00136231,0.576389,-0.17750921495658245,0.5954869700256611,-0.00038606645715899557,0.8402234417833667,-0.0013613824769710403,-0.33687117401375233
970,0.9606,40.1817,655.188,0.00303234,162.577,0.296077,1.1114,-0.19557,0.610351,-0.411098,0.467528,-0.000385514,-0.00135993,0.576831,-0.17763422405497697,0.5960438921554589,-0.00038543969902626873,0.8410775035873699,-0.0013590057142329748,-0.33707803793501023
971,0.9616,40.1888,655.315,0.0030445,162.607,0.297068,1.11519,-0.195721,0.610815,-0.411409,0.467876,-0.000384885,-0.00135755,0.577272,-0.17775839191223552,0.5965994120847904,-0.0003848109412700751,0.8419319617680021,-0.001356628945838212,-0.33728417460929816
972,0.9626,40.1959,655.442,0.00305665,162.637,0.298058,1.11897,-0.195873,0.611279,-0.411721,0.468225,-0.000384255,-0.00135516,0.577713,-0.17788336313861097,0.597156722524623,-0.00038418118350258545,0.8427868165092252,-0.001354242185329313,-0.3374909096944697
973,0.9636,40.203,655.569,0.00306881,162.667,0.299046,1.12275,-0.196024,0.611742,-0.412032,0.468573,-0.000383624,-0.00135277,0.578154,-0.17800749337870814,0.5977126297863149,-0.00038355042572191245,0.8436402243539398,-0.001351855419115866,-0.33769691798560497
974,0.9646,40.2101,655.695,0.00308096,162.698,0.300033,1.12653,-0.196175,0.612206,-0.412343,0.468921,-0.000382991,-0.00135038,0.578595,-0.178131604876554,0.598268730537399,-0.00038291766830900187,0.8444958719129223,-0.0013494686471982043,-0.3379028622181234
975,0.9656,40.2172,655.822,0.00309311,162.728,0.301019,1.1303,-0.196326,0.612669,-0.412655,0.469269,-0.000382357,-0.00134798,0.579036,-0.17825569763497862,0.5988250248452216,-0.0003822839108779119,0.8453500712335011,-0.0013470718830468353,-0.3381094043028706
976,0.9666,40.2243,655.949,0.00310525,162.758,0.302003,1.13406,-0.196478,0.613131,-0.412965,0.469617,-0.000381722,-0.00134557,0.579476,-0.1783805932766288,0.5993815127771518,-0.0003816491534266442,0.8462028199361933,-0.0013446651265899279,-0.3383145585869798
977,0.9676,40.2314,656.075,0.00311739,162.788,0.302986,1.13782,-0.196629,0.613594,-0.413276,0.469965,-0.000381086,-0.00134316,0.579916,-0.1785046484406435,0.5999381944005826,-0.0003810133959534223,0.8470578097566936,-0.0013422583643326602,-0.3385203107631375
978,0.9686,40.2384,656.201,0.00312953,162.818,0.303968,1.14158,-0.19678,0.614056,-0.413587,0.470312,-0.000380449,-0.00134074,0.580356,-0.1786286848737425,0.600493469288661,-0.0003803766384561369,0.8479113476168652,-0.0013398416096737087,-0.33872599896031763
979,0.9696,40.2455,656.327,0.00314166,162.848,0.304948,1.14533,-0.196931,0.614518,-0.413897,0.47066,-0.00037981,-0.00133832,0.580796,-0.1787527025787542,0.6010505379402971,-0.0003797378813127361,0.8487652799026333,-0.0013374248491661023,-0.3389309621297072
980,0.9706,40.2525,656.453,0.00315379,162.878,0.305927,1.14907,-0.197081,0.61498,-0.414208,0.471007,-0.00037917,-0.0013359,0.581235,-0.1788758804347973,0.6016061988785595,-0.00037909812414027577,0.8496196067962647,-0.001335008082809952,-0.3391365226341696
981,0.9716,40.2596,656.579,0.00316592,162.908,0.306905,1.15281,-0.197232,0.615442,-0.414518,0.471354,-0.000378528,-0.00133347,0.581674,-0.1789998608160972,0.6021620526646247,-0.0003784563673152608,0.8504743284801108,-0.0013325813239311035,-0.33934135856094394
982,0.9726,40.2666,656.705,0.00317804,162.938,0.307881,1.15655,-0.197383,0.615903,-0.414828,0.4717,-0.000377886,-0.00133104,0.582113,-0.17912382247777303,0.6027164966481244,-0.000377814610078242,0.8513275938080866,-0.0013301545591551944,-0.33954613099842235
983,0.9736,40.2736,656.83,0.00319016,162.967,0.308856,1.16028,-0.197534,0.616364,-0.415138,0.472047,-0.000377242,-0.0013286,0.582552,-0.17924776542265108,0.6032727357743686,-0.0003771708531835616,0.8521812525820613,-0.0013277178017594427,-0.3397508399662835
984,0.9746,40.2807,656.956,0.00320227,162.997,0.30983,1.164,-0.197684,0.616825,-0.415447,0.472393,-0.000376597,-0.00132615,0.582991,-0.17937086902483668,0.6038275641207151,-0.0003765260962508288,0.8530353049834547,-0.0013252710516707955,-0.3399548254393553
985,0.9756,40.2877,657.081,0.00321439,163.027,0.310802,1.16772,-0.197835,0.617286,-0.415757,0.47274,-0.000375951,-0.00132371,0.583429,-0.1794947746685024,0.6043841888542711,-0.0003758803392780452,0.8538897511937713,-0.001322834282359353,-0.3401594077315754
986,0.9766,40.2947,657.206,0.00322649,163.057,0.311773,1.17144,-0.197985,0.617746,-0.416066,0.473086,-0.000375303,-0.00132125,0.583867,-0.1796178412220798,0.6049394018299206,-0.00037523258263860715,0.8547427366509346,-0.0013203775335098866,-0.34036326697671093
987,0.9776,40.3017,657.331,0.0032386,163.087,0.312743,1.17514,-0.198135,0.618207,-0.416375,0.473431,-0.000374655,-0.0013188,0.584305,-0.17974088931705867,0.6054932014484931,-0.0003745848255795048,0.8555979701687102,-0.0013179307654375139,-0.34056706323907104
988,0.9786,40.3087,657.456,0.00325069,163.116,0.313711,1.17885,-0.198286,0.618667,-0.416684,0.473777,-0.000374005,-0.00131633,0.584743,-0.1798647390918785,0.6060487982088909,-0.00037393506884841887,0.8564517415873594,-0.0013154640176800125,-0.3407707965381144
989,0.9796,40.3157,657.581,0.00326279,163.146,0.314678,1.18255,-0.198436,0.619126,-0.416993,0.474123,-0.000373353,-0.00131387,0.58518,-0.17998775015495438,0.6066045872390287,-0.00037328331244168567,0.8573040485262267,-0.001313007250699716,-0.3409744668932937
990,0.9806,40.3227,657.706,0.00327488,163.176,0.315643,1.18624,-0.198586,0.619586,-0.417302,0.474468,-0.000372701,-0.0013114,0.585617,-0.18011074276775452,0.607158961445678,-0.00037263155560984806,0.8581586049214509,-0.0013105404907811646,-0.34117807432405556
991,0.9816,40.3296,657.83,0.00328696,163.205,0.316608,1.18993,-0.198736,0.620045,-0.41761,0.474813,-0.000372048,-0.00130892,0.586054,-0.18023371693304635,0.6077135269444247,-0.00037197879872519213,0.8590116954904179,-0.0013080637378504179,-0.3413809602311302
992,0.9826,40.3366,657.954,0.00329904,163.235,0.31757,1.19361,-0.198886,0.620504,-0.417919,0.475158,-0.000371393,-0.00130644,0.586491,-0.1803566726535969,0.6082682838012761,-0.0003713240421568953,0.8598651777178348,-0.0013055869787773622,-0.34158444207485483
993,0.9836,40.3436,658.079,0.00331112,163.264,0.318532,1.19729,-0.199036,0.620963,-0.418227,0.475503,-0.000370737,-0.00130396,0.586928,-0.18047960993217238,0.6088232320822615,-0.00037066828553034004,0.8607190517835144,-0.0013031102135618866,-0.341787202839935
994,0.9846,40.3505,658.203,0.00332319,163.294,0.319492,1.20097,-0.199186,0.621422,-0.418535,0.475847,-0.00037008,-0.00130147,0.587364,-0.18060252877153915,0.609376762475867,-0.00037001152884363897,0.861573317867351,-0.0013006234552103146,-0.34198990116431605
995,0.9856,40.3575,658.327,0.00333526,163.323,0.320451,1.20464,-0.199335,0.62188,-0.418843,0.476192,-0.000369421,-0.00129897,0.5878,-0.18072460989948236,0.609932093247971,-0.0003693527724641932,0.8624261137222777,-0.0012981267036479283,-0.3421925370672264
996,0.9866,40.3644,658.451,0.00334732,163.353,0.321408,1.2083,-0.199485,0.622338,-0.419151,0.476536,-0.000368762,-0.00129647,0.588236,-0.1808474919916101,0.6104860051554342,-0.0003686940156506502,0.8632793002471628,-0.001295629945843757,-0.3423951105678892
997,0.9876,40.3713,658.575,0.00335937,163.382,0.322364,1.21196,-0.199635,0.622796,-0.419459,0.47688,-0.000368101,-0.00129397,0.588672,-0.1809703556528064,0.611040107641371,-0.0003680332591390334,0.8641328776209738,-0.0012931331817976899,-0.3425976216855213
998,0.9886,40.3783,658.698,0.00337143,163.412,0.323319,1.21561,-0.199784,0.623254,-0.419766,0.477224,-0.000367439,-0.00129146,0.589107,-0.1810923819786271,0.6115944007713519,-0.00036737150255794493,0.8649868460227605,-0.0012906264244160193,-0.3427994132390755
999,0.9896,40.3852,658.822,0.00338347,163.441,0.324273,1.21926,-0.199934,0.623711,-0.420073,0.477568,-0.000366776,-0.00128895,0.589543,-0.18121520890908016,0.6121488846109697,-0.0003667087459056084,0.8658393397913824,-0.0012881196607423817,-0.343001142852131
