,Time,S11,S22,S33,S12,S13,S23,LE11,LE22,LE33,LE12,LE13,LE23,SDV_EPBAR,E11,E12,E13,E22,E23,E33
0,1e-05,0.0251922,0.350881,2.77556e-17,0.0940184,-2.95859e-18,7.92751e-19,-1.06457e-06,4.56457e-06,-1.5e-06,3.24999e-06,-1.29062e-39,1.53213e-39,0.0,-1.0645694333843991e-06,3.2499952811182453e-06,0.0,4.5645804176430715e-06,0.0,-1.4999988749986315e-06
1,2e-05,0.0503842,0.701761,5.55112e-17,0.188036,1.47929e-18,-3.96376e-19,-2.12914e-06,9.12912e-06,-3e-06,6.49996e-06,-2.87502e-39,2.7993e-39,0.0,-2.1291377333421124e-06,6.499981124896692e-06,0.0,9.129161670617947e-06,0.0,-2.9999955000192813e-06
2,3.5e-05,0.088172,1.22808,1.94289e-16,0.329062,-3.06478e-18,-5.52074e-18,-3.72599e-06,1.59759e-05,-5.24997e-06,1.13749e-05,1.24685e-27,4.65331e-27,0.0,-3.725983058533444e-06,1.1374964694388368e-05,0.0,1.597602761527206e-05,0.0,-5.249956218977836e-06
3,5.75e-05,0.144853,2.01754,2.498e-16,0.540599,-2.05965e-18,1.00648e-17,-6.12124e-06,2.6246e-05,-8.6249e-06,1.86872e-05,-3.07258e-27,-1.1467e-26,0.0,-6.121221265198429e-06,1.868737460686276e-05,0.0,2.6246344429381452e-05,0.0,-8.624862805617362e-06
4,9.125e-05,0.229874,3.20173,-8.60423e-16,0.8579,5.44295e-18,1.43962e-17,-9.71407e-06,4.16509e-05,-1.36872e-05,2.96556e-05,-8.12668e-27,-3.03292e-26,0.0,-9.714022818574364e-06,2.965603973170694e-05,0.0,4.1651767410888496e-05,0.0,-1.3687106330650955e-05
5,0.00014188,0.357402,4.97797,-2.30371e-15,1.33384,1.11109e-18,2.18982e-17,-1.51032e-05,6.47577e-05,-2.12805e-05,4.61077e-05,-1.76892e-26,-6.6017e-26,0.0,-1.5103085947210104e-05,4.6108762976393436e-05,0.0,6.475979682507571e-05,0.0,-2.1280273571733233e-05
6,0.00021781,0.548688,7.64224,-1.76248e-14,2.04773,1.29452e-17,1.87261e-17,-2.31866e-05,9.94169e-05,-3.26701e-05,7.07852e-05,3.27276e-21,-8.77041e-22,0.0,-2.31863311929148e-05,7.078770533142098e-05,0.0,9.942184202382798e-05,0.0,-3.266956633807272e-05
7,0.00033172,0.835604,11.6385,-9.11216e-14,3.11852,-4.70757e-17,-1.59253e-17,-3.53112e-05,0.000151403,-4.97538e-05,0.0001078,-7.42258e-21,-1.51874e-21,0.0,-3.531057656691594e-05,0.00010780581062874717,0.0,0.00015141446201272224,0.0,-4.9752562300220404e-05
8,0.00050258,1.26595,17.6324,-4.6238e-13,4.72458,2.62466e-19,-2.86064e-17,-5.34968e-05,0.000229377,-7.53773e-05,0.000163317,-8.76899e-22,-3.27263e-21,0.0,-5.3495369071732135e-05,0.00016333033694726495,0.0,0.0002294033089156322,0.0,-7.537445920269281e-05
9,0.00075887,1.91139,26.6223,-2.34265e-12,7.13341,1.29594e-16,-1.13984e-16,-8.07724e-05,0.000346325,-0.000113808,0.000246585,3.37865e-25,1.26093e-24,0.0,-8.076913799748286e-05,0.00024661540458015274,0.0,0.0003463849774265615,0.0,-0.00011380152411522015
10,0.0011433,2.8794,40.1049,-1.18613e-11,10.7461,4.7605e-17,-4.12714e-17,-0.000121679,0.00052172,-0.000171446,0.000371467,-3.57705e-20,2.36184e-20,0.0,-0.00012167159741072187,0.00037153600240991125,0.0,0.0005218561195503568,0.0,-0.00017143130397445638
11,0.00172,4.33108,60.3241,-5.99579e-11,16.1638,2.22491e-17,-1.35901e-16,-0.000183024,0.000784749,-0.000257882,0.000558744,1.25555e-24,4.68577e-24,0.0,-0.00018300725212949676,0.0005589001265056126,0.0,0.000785056996057687,0.0,-0.0002578487512951977
12,0.0025849,6.5078,90.6419,-3.03237e-10,24.2874,-2.84402e-17,-3.25076e-16,-0.000275009,0.00117915,-0.000387489,0.000839559,5.2388e-20,-1.4018e-20,0.0,-0.00027497118849117985,0.0008399115283064251,0.0,0.001179845470689056,0.0,-0.00038741393583330286
13,0.0035849,9.02314,125.676,-6.68453e-10,33.6748,-3.05679e-16,1.55051e-16,-0.000381303,0.0016349,-0.000537258,0.00116406,-4.53734e-20,4.02282e-20,0.0,-0.0003812303132499917,0.0011647377808088333,0.0,0.0016362371776228457,0.0,-0.0005371137027634365
14,0.0045849,11.5372,160.693,-7.61587e-10,43.0575,-1.67045e-16,-8.49557e-17,-0.000487544,0.00209043,-0.000686952,0.0014884,-5.23956e-20,1.40527e-20,0.0,-0.0004874251697364329,0.0014895082170351959,0.0,0.002092616472082698,0.0,-0.000686716102494711
15,0.0055849,14.0501,195.692,-7.60065e-10,52.4355,-1.67024e-16,-8.48771e-17,-0.000593733,0.00254573,-0.000836572,0.00181257,1.57224e-19,-4.21118e-20,0.0,-0.0005935567754408178,0.0018142136979582002,0.0,0.0025489731220702527,0.0,-0.0008362221712034934
16,0.0065849,16.5616,230.674,-7.58574e-10,61.8089,2.624e-16,2.95632e-18,-0.000699868,0.00300081,-0.000986116,0.00213659,-2.6933e-24,-1.00515e-23,0.0,-0.0006996231495156602,0.0021388741348775664,0.0,0.0030053169373547295,0.0,-0.0009856299473984809
17,0.0075849,19.072,265.638,-7.57025e-10,71.1776,-5.59177e-16,-7.91015e-16,-0.000805951,0.00345565,-0.00113559,0.00246044,3.14575e-19,-8.41298e-20,0.0,-0.0008056263087270477,0.0024634693665122054,0.0,0.0034616276420240677,0.0,-0.00113494546167614
18,0.0085849,20.446,284.457,-0.0757847,76.335,-3.34357,-0.350114,-0.000933113,0.00391381,-0.0013596,0.0027766,0.000238575,-1.27084e-05,0.000207329,-0.0009326777854432589,0.0027804583239610103,0.0002386034612786858,0.003921478956039781,-1.2708319248599942e-05,-0.0013586761626505073
19,0.0095849,20.5014,285.595,-0.0932215,76.5967,-7.74262,-0.872485,-0.00108701,0.00437815,-0.00166378,0.00307588,0.000827994,-3.38643e-05,0.000643876,-0.001086419418638629,0.0030806153727886976,0.0008283368816601744,0.004387748100907807,-3.3863726611071954e-05,-0.0016623966853392957
20,0.010585,20.6542,286.816,0.106685,76.9034,-12.2535,-1.37872,-0.001242,0.00484197,-0.00196424,0.00337646,0.00140741,-5.62826e-05,0.00107962,-0.0012412290372115775,0.0033821666620301727,0.0014084008662511582,0.004853711279399153,-5.628101616417247e-05,-0.0019623121430756285
21,0.011585,20.6525,287.742,-0.0546111,77.1541,-16.5508,-1.8713,-0.00139828,0.00530584,-0.00226779,0.00367619,0.00199204,-8.00045e-05,0.00151686,-0.0013973028620113404,0.0036829554743074144,0.0019940254298138615,0.005319940897056563,-8.000129972529635e-05,-0.0022652205069818576
22,0.012585,20.7967,288.802,0.0727082,77.4537,-21.1099,-2.3496,-0.00155548,0.0057691,-0.00256676,0.0039775,0.00256053,-0.000105003,0.00195319,-0.0015542708679929795,0.00398542075123931,0.00256381095667213,0.005785773305306163,-0.00010499748737791137,-0.0025634686881559343
23,0.013585,20.8459,289.668,0.0118291,77.7307,-25.5782,-2.81599,-0.00171424,0.00623212,-0.00286648,0.00427917,0.00312792,-0.000131361,0.00239054,-0.0017127715298345114,0.004288338721452067,0.0031328170462883165,0.006251580064662976,-0.00013135237252159815,-0.0028623755688980124
24,0.014585,20.8877,290.449,-0.0965285,77.9955,-30.0394,-3.26622,-0.00187421,0.00669486,-0.00316543,0.00458129,0.00369004,-0.000158902,0.00282842,-0.0018724547651687296,0.004591800152922154,0.003696856579505692,0.006717320670915461,-0.00015888937574592976,-0.003160425308517123
25,0.015585,21.0657,291.338,0.0680705,78.3075,-34.7304,-3.69839,-0.00203534,0.00715681,-0.00345972,0.00488565,0.00423594,-0.000187563,0.0032659,-0.0020332701000970177,0.004897604248123244,0.004244924274979134,0.007182481169373478,-0.00018754541116017265,-0.003453742064742027
26,0.016585,21.1264,292.008,0.00935541,78.5853,-39.2808,-4.11639,-0.00219832,0.00761849,-0.00375484,0.00519058,0.00478104,-0.000217495,0.00370484,-0.002195905464220327,0.005204074398183378,0.004792487407974999,0.007647584533479135,-0.0002174713496770897,-0.0037477994031487327
27,0.017585,21.1795,292.588,-0.0971137,78.8459,-43.795,-4.51486,-0.00236271,0.00807979,-0.00404895,0.00549631,0.00532021,-0.000248473,0.00414475,-0.0023599209976948865,0.005511442423268065,0.005334387448405531,0.00811251959325121,-0.00024844213314068053,-0.004040764053837798
28,0.018585,21.3706,293.264,0.0676432,79.1446,-48.5023,-4.89118,-0.00252841,0.00854026,-0.00433824,0.00580454,0.00584279,-0.000280403,0.00458484,-0.0025252162636946185,0.00582141898474986,0.005859892389825205,0.008576832057924477,-0.00028036369075301604,-0.00432884342995421
29,0.019585,21.4492,293.733,0.0354814,79.4109,-53.0616,-5.25053,-0.00269621,0.00900033,-0.00462776,0.00611385,0.00636263,-0.000313489,0.00502682,-0.0026925784903220062,0.00613257772763065,0.006382914528421324,0.009040954757328024,-0.0003134398674577987,-0.0046170684177417876
30,0.020585,21.4988,294.086,-0.0831784,79.6495,-57.524,-5.58753,-0.00286567,0.00946001,-0.00491648,0.00642412,0.00687682,-0.000347493,0.00547044,-0.002861567887095129,0.006444798916451555,0.0069005196215199405,0.009504897327801798,-0.0003474326313002152,-0.004904413894559201
31,0.021585,21.6907,294.525,0.071161,79.9177,-62.1414,-5.89855,-0.00303653,0.0099188,-0.00520023,0.00673706,0.00737382,-0.00038227,0.00591499,-0.0030319244056340455,0.006759805038261568,0.007401073557121274,0.009968154340363355,-0.0003821969441328843,-0.0051867322113111625
32,0.022585,21.7863,294.782,0.0722795,80.1583,-66.6111,-6.18947,-0.00320966,0.0103771,-0.00548351,0.00705156,0.00786554,-0.000418044,0.00636194,-0.0032045145478649673,0.007076480791598172,0.007896554622002006,0.010431128827997682,-0.0004179566317820127,-0.005468503001911262
33,0.023585,21.8201,294.893,-0.0661798,80.3611,-70.9148,-6.45629,-0.00338468,0.010835,-0.00576635,0.00736706,0.00835202,-0.000454613,0.0068113,-0.00337895842769953,0.007394263548881952,0.008386995423042443,0.010893911187823235,-0.0004545096791677139,-0.005749756513775628
34,0.024585,22.0069,295.092,0.0776817,80.5875,-75.3387,-6.69396,-0.00356111,0.011292,-0.00604408,0.00768537,0.0088205,-0.000491755,0.00726243,-0.003554776767793255,0.0077149782575536285,0.008859515237057414,0.011355995283409914,-0.0004916341083271991,-0.0060258512922228835
35,0.025585,22.1169,295.139,0.112148,80.7916,-79.6139,-6.90891,-0.00373985,0.0117483,-0.0063207,0.00800559,0.00928117,-0.000529704,0.00771655,-0.0037328654707322606,0.00803772041938089,0.009324373614875148,0.011817582327132703,-0.0005295637316041768,-0.006300766395977431
36,0.026585,22.1265,295.02,-0.0489838,80.9519,-83.6581,-7.09963,-0.00392068,0.0122043,-0.0065973,0.0083268,0.00973688,-0.000568318,0.00817381,-0.003913004168937917,0.008361564223706708,0.009784437645103061,0.012279076357316177,-0.0005681565379141995,-0.006575585594745026
37,0.027585,22.3043,294.998,0.0850862,81.1319,-87.7918,-7.25924,-0.0041028,0.0126594,-0.00686871,0.00865088,0.0101738,-0.000607293,0.00863365,-0.004094395014666907,0.00868840699818274,0.010225729059101019,0.012739869410472338,-0.0006071086349291877,-0.006845174328864667
38,0.028585,22.3173,294.763,-0.0386875,81.2747,-91.6562,-7.3982,-0.00428745,0.013114,-0.00714049,0.00897637,0.0106058,-0.000646964,0.00909724,-0.004278272007661621,0.009016778425685601,0.01066224085381351,0.013200365617963783,-0.0006467547639165128,-0.0071150572713312155
39,0.029585,22.3614,294.505,-0.105159,81.4107,-95.4399,-7.51041,-0.00447377,0.0135679,-0.00740957,0.00930393,0.011025,-0.000687014,0.00956416,-0.0044637775977837135,0.009347346099044529,0.011085999278739767,0.013660361652120256,-0.0006867780599163487,-0.007382186810500735
40,0.030585,22.4477,294.24,-0.101895,81.5403,-99.1395,-7.59544,-0.00466167,0.0140211,-0.00767581,0.00963359,0.0114308,-0.000727359,0.0100346,-0.004650821280668738,0.009680142396959468,0.011496381238115028,0.014119856641720885,-0.0007270945385658978,-0.007646426199975909
41,0.031585,22.5409,293.941,-0.0841626,81.6598,-102.715,-7.65501,-0.00485125,0.0144736,-0.00793974,0.00996526,0.0118242,-0.000767982,0.0105088,-0.004839501692389003,0.010015078550854817,0.011894382196149689,0.014578849716202491,-0.0007676871773014682,-0.007908303518548432
42,0.032585,22.6273,293.607,-0.0729359,81.7693,-106.149,-7.69045,-0.0050425,0.0149255,-0.00820161,0.0102989,0.0122056,-0.000808839,0.0109868,-0.005029807939075481,0.010352116203157236,0.012280392320970668,0.015037441509400784,-0.0008085119779114303,-0.008168068557286245
43,0.033585,22.7088,293.246,-0.0656107,81.8706,-109.44,-7.70273,-0.00523533,0.0153767,-0.00846142,0.0106344,0.0125748,-0.000849865,0.0114688,-0.005221649544207785,0.010691146207246538,0.012654195241588617,0.01549552973994306,-0.0008495039670245452,-0.008425722939352509
44,0.034585,22.7885,292.871,-0.0580301,81.9656,-112.588,-7.69292,-0.00542964,0.0158272,-0.00871918,0.0109718,0.0129318,-0.000890997,0.0119548,-0.005414926147088384,0.011032210934360798,0.013015777327852085,0.015953113539102892,-0.0008906001800368379,-0.008681278187632313
45,0.035585,22.8671,292.491,-0.0494619,82.0562,-115.594,-7.66229,-0.00562531,0.0162771,-0.00897496,0.011311,0.0132766,-0.000932175,0.0124447,-0.005609517570016487,0.011375211229871063,0.01336512539201995,0.016410293679845145,-0.0009317406598554623,-0.008934805265337298
46,0.036585,22.9449,292.113,-0.040407,82.1441,-118.458,-7.61228,-0.00582226,0.0167264,-0.0092288,0.0116519,0.0136091,-0.000973346,0.0129385,-0.005805343490940418,0.011720047813435608,0.013702125319345893,0.016867069431784065,-0.0009728724524364907,-0.009186345327553358
47,0.037585,23.0217,291.746,-0.031201,82.2308,-121.181,-7.54438,-0.00602037,0.017175,-0.0094808,0.0119946,0.0139297,-0.00101446,0.0134363,-0.006002283885766513,0.01206682369047396,0.014027170322653104,0.01732333833259392,-0.0010139456094118149,-0.009435998910858223
48,0.038585,23.0978,291.396,-0.0219681,82.318,-123.766,-7.46016,-0.00621954,0.017623,-0.00973104,0.0123389,0.0142385,-0.00105546,0.0139378,-0.006200238696900784,0.012415338291216216,0.014340350265343194,0.017779201293845803,-0.0010549031980054968,-0.009683846634490179
49,0.039585,23.1735,291.071,-0.0127979,82.4069,-126.216,-7.36118,-0.00641966,0.0180704,-0.00997959,0.0126847,0.0145357,-0.00109632,0.0144431,-0.006399098006606541,0.012765492053293581,0.014641857019126459,0.01823465758648002,-0.0010957192607830013,-0.009929959127512156
50,0.040585,23.2489,290.775,-0.00380099,82.4989,-128.537,-7.24904,-0.00662063,0.0185171,-0.0102265,0.013032,0.0148217,-0.00113698,0.014952,-0.006598761915980189,0.013117286594269695,0.01493208609101293,0.018689604612877275,-0.0011363338831369418,-0.01017438714420138
51,0.041585,23.3241,290.513,0.00484032,82.595,-130.734,-7.12521,-0.00682233,0.0189634,-0.010472,0.0133807,0.0150967,-0.00117742,0.0154643,-0.006799110739843628,0.013470622192586434,0.015211230795325603,0.019144347251687677,-0.0011767271130381785,-0.010417359506079693
52,0.042585,23.3992,290.289,0.0132722,82.6959,-132.811,-6.99137,-0.00702468,0.019409,-0.010716,0.0137308,0.0153612,-0.0012176,0.01598,-0.007000064607592171,0.013825500375217237,0.015479789681217992,0.019598579168178087,-0.0012168590258871959,-0.010658788214859993
53,0.043585,23.4743,290.105,0.0214355,82.8024,-134.775,-6.84871,-0.0072276,0.0198541,-0.0109587,0.014082,0.0156155,-0.0012575,0.0164988,-0.00720154371172077,0.01418161842161747,0.015738059029289708,0.0200525035091339,-0.001256709678186252,-0.010898872191591136
54,0.044585,23.5496,289.965,0.0290921,82.9149,-136.632,-6.69861,-0.00743098,0.0202986,-0.0112002,0.0144345,0.0158601,-0.00129708,0.0170207,-0.007403438530380613,0.014539180458717826,0.015986538946383133,0.020506017632990536,-0.0012962391553237307,-0.011137711272977024
55,0.045585,23.6247,289.868,0.0359766,83.0332,-138.388,-6.54288,-0.00763471,0.0207427,-0.0114406,0.014788,0.0160954,-0.00133631,0.0175456,-0.007605639629934435,0.014897883456029382,0.01622562870680455,0.020959325004872964,-0.001335417535372696,-0.011375405195232835
56,0.046585,23.6999,289.815,0.0428357,83.1584,-140.05,-6.38165,-0.0078388,0.0211862,-0.0116799,0.0151426,0.0163218,-0.00137521,0.0180731,-0.007808156728382087,0.015257830060264155,0.016455728235427403,0.02141222088775141,-0.001374264832045724,-0.011611954756485687
57,0.047585,23.9257,289.911,0.236843,83.297,-141.689,-6.21053,-0.0080423,0.0216291,-0.0119165,0.0154984,0.0165366,-0.00141354,0.0186033,-0.008010047225433081,0.015619123066413776,0.016674086376677222,0.021864704555494052,-0.0014125414228991495,-0.011845779705408122
58,0.048585,23.9139,289.887,0.1346,83.4346,-143.137,-6.04513,-0.00824735,0.0220716,-0.0121547,0.0158549,0.0167478,-0.00145181,0.019136,-0.008213433912316881,0.01598125583011689,0.016888830619913975,0.022316979745765853,-0.001450756633686212,-0.012081130009348295
59,0.049585,24.059,290.021,0.223738,83.5783,-144.573,-5.87227,-0.00845162,0.0225137,-0.0123906,0.0162121,0.0169487,-0.00148949,0.0196709,-0.008416005463821818,0.016344229157876367,0.0170931441085882,0.022769046004394777,-0.0014883812603238011,-0.012314152584685711
60,0.050585,24.0734,290.104,0.168276,83.7273,-145.891,-5.70632,-0.00865673,0.0229553,-0.0126269,0.0165701,0.0171446,-0.00152692,0.0202083,-0.008619368400342164,0.016708145529058527,0.017292412173188776,0.023220800555173726,-0.0015257548507621177,-0.012547515177553703
61,0.051585,24.1813,290.288,0.19817,83.8805,-147.173,-5.53249,-0.00886112,0.0233964,-0.0128621,0.0169288,0.0173326,-0.00156364,0.0207476,-0.008821975981447738,0.017072904156408608,0.017483681125395334,0.023672242808568056,-0.0015624181519017233,-0.012779736691663435
62,0.052585,24.2271,290.458,0.14324,84.0404,-148.37,-5.35677,-0.00906595,0.0238372,-0.0130972,0.0172881,0.0175151,-0.00160009,0.0212887,-0.00902497818492698,0.017438404109006322,0.017669388842514566,0.024123576999945717,-0.0015988105385047469,-0.013011804894880963
63,0.053585,24.3126,290.713,0.188345,84.2056,-149.534,-5.18928,-0.00927081,0.0242775,-0.0133306,0.0176479,0.0176907,-0.00163642,0.0218315,-0.009227968534884612,0.017804544311477377,0.01784810727821462,0.024574597895862693,-0.0016350817948465046,-0.013242141058342538
64,0.054585,24.3682,290.966,0.160721,84.3756,-150.629,-5.01671,-0.00947557,0.0247175,-0.0135642,0.0180084,0.0178614,-0.00167212,0.0223761,-0.009430818247585071,0.018171528994716413,0.01802186878024936,0.025025509912305788,-0.001670722786231038,-0.01347262077311262
65,0.055585,24.4472,291.275,0.173897,84.5487,-151.686,-4.84729,-0.00968018,0.025157,-0.0137971,0.0183693,0.0180264,-0.00170748,0.0229222,-0.009633477874063323,0.018539053415323137,0.018189856247182945,0.025476107635508782,-0.0017060230853602754,-0.013702356246000247
66,0.056585,24.5093,291.598,0.16118,84.7257,-152.692,-4.67863,-0.00988473,0.0255962,-0.0140297,0.0187307,0.0181867,-0.0017424,0.0234699,-0.009836036628761313,0.018907219952913445,0.01835308516358758,0.025926595661911467,-0.0017408829023781713,-0.013931742399293623
67,0.057585,24.5824,291.96,0.164584,84.9056,-153.661,-4.51207,-0.0100891,0.0260349,-0.0142618,0.0190924,0.0183422,-0.00177692,0.0240189,-0.010038375761226903,0.019275825352638387,0.018511451380984756,0.02637676839759795,-0.0017753422123293339,-0.014160582283986867
68,0.058585,24.6479,292.342,0.158307,85.0883,-154.589,-4.34756,-0.0102934,0.0264734,-0.0144936,0.0194545,0.0184935,-0.00181103,0.0245692,-0.010240604262714115,0.0196449719589582,0.018665563821890885,0.02682693330198238,-0.0018093910746997954,-0.014389073377872541
69,0.059585,24.7176,292.752,0.158178,85.2734,-155.484,-4.18536,-0.0104974,0.0269115,-0.0147251,0.0198169,0.0186406,-0.00184474,0.0251207,-0.010442494585931383,0.020014558261789217,0.0188154205480211,0.027276884736126883,-0.001843039512979039,-0.014617215898869884
70,0.060585,24.7841,293.183,0.154573,85.4604,-156.345,-4.02564,-0.0107013,0.0273492,-0.0149563,0.0201796,0.018784,-0.00187805,0.0256734,-0.010644244792152868,0.02038458464229853,0.018961529155064438,0.02772662224644984,-0.0018762875675835122,-0.014845010064533759
71,0.061585,24.8517,293.637,0.153286,85.6492,-157.177,-3.86851,-0.010905,0.0277866,-0.0151872,0.0205426,0.0189237,-0.00191097,0.0262271,-0.010845756034871812,0.020755051482187037,0.019103888024222915,0.028176248197047338,-0.0019091452593561486,-0.01507245609205543
72,0.062585,24.9178,294.109,0.150855,85.8393,-157.98,-3.71411,-0.0111085,0.0282237,-0.0154179,0.0209057,0.0190601,-0.0019435,0.0267819,-0.011047028443356588,0.02112575493851998,0.019242903275173973,0.028625762269278043,-0.001941612626776279,-0.015299652668302355
73,0.063585,24.9839,294.599,0.149312,86.0306,-158.758,-3.5625,-0.0113118,0.0286604,-0.0156484,0.0212691,0.0191934,-0.00197565,0.0273375,-0.011248062146705706,0.021496899470741626,0.0193787774099905,0.02907506123695014,-0.0019736996881281055,-0.01552659994168415
74,0.064585,25.049,295.106,0.147463,86.2227,-159.511,-3.41376,-0.0115149,0.0290969,-0.0158787,0.0216327,0.0193237,-0.00200742,0.0278941,-0.011448857273848256,0.02186838327505214,0.019511611118615102,0.029524350551439316,-0.002005406480023897,-0.015753298060427245
75,0.065585,25.1136,295.628,0.145986,86.4154,-160.243,-3.26793,-0.0117178,0.029533,-0.0161089,0.0219964,0.0194513,-0.00203882,0.0284514,-0.011649413953544241,0.022240104399438243,0.019641709100268523,0.02997342403407055,-0.0020367430182741675,-0.01597984557459442
76,0.066585,25.1775,296.164,0.144483,86.6085,-160.953,-3.12504,-0.0119205,0.0299688,-0.0163389,0.0223602,0.0195762,-0.00206986,0.0290096,-0.01184973231438402,0.022612063004586735,0.01976907030327668,0.030422384273595116,-0.0020677193170163255,-0.016206144184774507
77,0.067585,25.2407,296.712,0.14317,86.8017,-161.644,-2.9851,-0.0121229,0.0304044,-0.0165687,0.0227241,0.0196988,-0.00210055,0.0295684,-0.012049713689765706,0.022984259251313865,0.01989410165556116,0.030871334038344633,-0.0020983453887509773,-0.016432194038717873
78,0.068585,25.3031,297.272,0.141916,86.995,-162.318,-2.84812,-0.0123252,0.0308396,-0.0167984,0.0230881,0.019819,-0.00213089,0.0301279,-0.01224955581797349,0.023356693300566,0.02001670029461078,0.031320066880101916,-0.0021286212656644876,-0.016658093618187264
79,0.069585,25.3647,297.842,0.140783,87.1882,-162.974,-2.7141,-0.0125272,0.0312746,-0.017028,0.0234521,0.0199371,-0.00216088,0.030688,-0.01244906125697054,0.023729262940488383,0.020137171380593122,0.0317687886991147,-0.002158546979574405,-0.01688384300287138
80,0.070585,25.4257,298.421,0.139728,87.381,-163.615,-2.58303,-0.012729,0.0317093,-0.0172575,0.0238162,0.0200532,-0.00219054,0.0312487,-0.01264832892962453,0.02410207063064629,0.02025561618177818,0.032217396089314176,-0.0021881425181670133,-0.01710944227239586
81,0.071585,25.4858,299.009,0.138765,87.5735,-164.242,-2.45486,-0.0129306,0.0321437,-0.0174869,0.0241803,0.0201673,-0.00221987,0.03181,-0.012847358963610778,0.024475014084798685,0.02037203398909404,0.0326658887317246,-0.0022174079107678546,-0.017334891506322836
82,0.072585,25.5452,299.605,0.137879,87.7654,-164.855,-2.32959,-0.0131319,0.0325779,-0.0177162,0.0245444,0.0202797,-0.00224888,0.0323717,-0.013046052791046647,0.024848093352386247,0.0204867302515237,0.03311436961876657,-0.0022463531639114187,-0.017560190784151053
83,0.073585,25.6038,300.207,0.13707,87.9566,-165.455,-2.20718,-0.0133331,0.0330118,-0.0179455,0.0249085,0.0203904,-0.00227758,0.032934,-0.01324460794990634,0.02522130848286719,0.020599704385565465,0.033562735209624606,-0.0022749882826597068,-0.017785438406777376
84,0.074585,25.6616,300.816,0.13633,88.1472,-166.043,-2.08758,-0.013534,0.0334454,-0.0181746,0.0252726,0.0204995,-0.00230597,0.0334967,-0.013442827196379237,0.0255946595257186,0.02071105788753691,0.03401098518518331,-0.002303313293666953,-0.01801043798815216
85,0.075585,25.7187,301.43,0.135656,88.3369,-166.62,-1.97075,-0.0137347,0.0338788,-0.0184037,0.0256367,0.0206071,-0.00233406,0.0340598,-0.013640809352786887,0.02596814653043511,0.020820892306351535,0.0344592226722098,-0.002331338199984878,-0.018235386028027212
86,0.076585,25.775,302.048,0.135043,88.5258,-167.187,-1.85665,-0.0139352,0.0343119,-0.0186327,0.0260007,0.0207132,-0.00236185,0.0346232,-0.013838554545893667,0.02634166691235751,0.020929207149025908,0.03490734399521678,-0.002359063026858066,-0.018460184384232692
87,0.077585,25.8305,302.671,0.134524,88.7138,-167.744,-1.74524,-0.0141355,0.0347448,-0.0188617,0.0263646,0.0208181,-0.00238936,0.0351871,-0.014036062902295865,0.02671522060891962,0.021036308240209856,0.0353554523704922,-0.0023865077515302646,-0.018684931267508365
88,0.078585,25.8853,303.297,0.133976,88.9007,-168.291,-1.63645,-0.0143356,0.0351774,-0.0190906,0.0267285,0.0209216,-0.00241659,0.0357512,-0.014233334548422683,0.027088910266408694,0.021141990967099566,0.03580344403279767,-0.0024136723970757945,-0.018909528580598134
89,0.079585,25.9394,303.927,0.133557,89.0867,-168.83,-1.53025,-0.0145355,0.0356098,-0.0193195,0.0270923,0.021024,-0.00244355,0.0363157,-0.014430369610535898,0.027462633188041208,0.021246561260882313,0.036251422287916224,-0.002440566961927626,-0.01913407448924631
90,0.080585,25.9928,304.559,0.133129,89.2717,-169.36,-1.42656,-0.0147352,0.0360419,-0.0195483,0.0274561,0.0211252,-0.00247024,0.0368805,-0.01462716821472998,0.027836492094806875,0.021349916642575906,0.03669928328088612,-0.002467191467889873,-0.019358470941070127
91,0.081585,26.0454,305.193,0.132777,89.4555,-169.883,-1.32534,-0.0149347,0.0364738,-0.0197771,0.0278197,0.0212253,-0.00249667,0.0374455,-0.01482373048693253,0.02821028139410897,0.021452158886370754,0.03714713040696038,-0.002493555911611711,-0.019582816056858854
92,0.082585,26.0974,305.829,0.132435,89.6383,-170.398,-1.22653,-0.015134,0.0369055,-0.0200058,0.0281832,0.0213244,-0.00252285,0.0380108,-0.01502005655290417,0.028584103769496272,0.021553389811225898,0.03759496348097091,-0.0025196702884792144,-0.01980701182906297
93,0.083585,26.1487,306.467,0.132178,89.82,-170.906,-1.13009,-0.0153331,0.0373369,-0.0202344,0.0285467,0.0214225,-0.00254878,0.0385763,-0.015216146538238662,0.028958062054017075,0.021653609114442807,0.03804267851340559,-0.002545534618096146,-0.020031058336667296
94,0.084585,26.1994,307.106,0.131939,90.0005,-171.407,-1.03595,-0.015532,0.0377682,-0.0204631,0.02891,0.0215197,-0.00257446,0.0391421,-0.015412000568363227,0.029331950430672604,0.021752918671614996,0.03849048288271906,-0.0025711489198780857,-0.02025515160758351
95,0.085585,26.2494,307.745,0.131718,90.18,-171.903,-0.944046,-0.0157308,0.0381991,-0.0206916,0.0292732,0.0216159,-0.00259991,0.039708,-0.015607717207771765,0.029705871695060226,0.021851216030418508,0.03893806485640394,-0.002596533161122294,-0.020478997730047688
96,0.086585,26.2988,308.385,0.131534,90.3583,-172.392,-0.854338,-0.0159293,0.0386299,-0.0209202,0.0296362,0.0217114,-0.00262513,0.0402741,-0.015803099683553756,0.030079722776351625,0.02194880748146688,0.03938573579614091,-0.002621687359360192,-0.02070289063923203
97,0.087585,26.3476,309.025,0.131395,90.5355,-172.875,-0.76677,-0.0161277,0.0390604,-0.0211487,0.0299992,0.021806,-0.00265012,0.0408404,-0.01599834497960273,0.030453709590219535,0.022045488411590597,0.03983328768403305,-0.002646611531964216,-0.020926634465015415
98,0.088585,26.3958,309.666,0.131237,90.7116,-173.353,-0.681278,-0.0163259,0.0394908,-0.0213771,0.0303619,0.0218998,-0.0026749,0.0414069,-0.016193354781517955,0.03082752293764046,0.022141360774747154,0.04028092825639318,-0.002671325642721434,-0.021150229286203026
99,0.089585,26.4434,310.306,0.131181,90.8865,-173.826,-0.597827,-0.016524,0.0399209,-0.0216055,0.0307246,0.0219929,-0.00269946,0.0419734,-0.01638822757514824,0.031201471891753263,0.022236526565334147,0.04072844931614128,-0.0026958197341748757,-0.0213737730441651
100,0.090585,26.4905,310.945,0.131101,91.0604,-174.294,-0.516345,-0.0167218,0.0403507,-0.0218339,0.0310871,0.0220853,-0.00272381,0.0425402,-0.016582766743175936,0.03157535018666069,0.02233098558432811,0.04117585054329398,-0.0027201037953047402,-0.02159726575056309
101,0.091585,26.537,311.585,0.131061,91.2331,-174.757,-0.43679,-0.0169195,0.0407804,-0.0220622,0.0314495,0.022177,-0.00274796,0.043107,-0.016777169112883294,0.031949260842087046,0.022424737634171965,0.04162333994248435,-0.002744187813982446,-0.02182060959912191
102,0.092585,26.5831,312.223,0.131028,91.4048,-175.216,-0.359106,-0.0171171,0.0412098,-0.0222905,0.0318117,0.022268,-0.00277191,0.0436739,-0.016971434750189585,0.03232310056265031,0.022517782518774787,0.042070709047928645,-0.002768071804672312,-0.02204390246410004
103,0.093585,26.6286,312.86,0.131032,91.5754,-175.67,-0.283248,-0.0173144,0.0416391,-0.0225187,0.0321737,0.0223584,-0.00279566,0.044241,-0.01716536715405259,0.03269686917309089,0.022610222304529914,0.04251816604309466,-0.002791755781718641,-0.022267046583845262
104,0.094585,26.6737,313.497,0.131045,91.7449,-176.12,-0.209162,-0.0175116,0.0420681,-0.0227469,0.0325356,0.0224482,-0.00281922,0.0448081,-0.017359163034747938,0.033070669805189246,0.022702056825801176,0.04296550228308993,-0.002815249731192626,-0.022490139787912145
105,0.095585,26.7183,314.132,0.131079,91.9134,-176.565,-0.136804,-0.0177087,0.0424969,-0.022975,0.0328973,0.0225373,-0.0028426,0.0453753,-0.017552822457950756,0.03344439905131735,0.022793183638703418,0.04341282178891692,-0.0028385636381131896,-0.022713084359231472
106,0.096585,26.7624,314.765,0.131129,92.0809,-177.007,-0.0661239,-0.0179056,0.0429255,-0.0232031,0.0332589,0.022626,-0.0028658,0.0459426,-0.01774624726391172,0.033818160117942586,0.022883909417721116,0.04386012437443232,-0.002861697515082806,-0.022935978082693653
107,0.097585,26.8062,315.398,0.131197,92.2474,-177.445,0.00292281,-0.0181023,0.0433539,-0.0234312,0.0336202,0.022714,-0.00288882,0.0465099,-0.01793943757618477,0.03419174610343756,0.022973927162472485,0.044307409853423296,-0.0028846513746061397,-0.02315882096989541
108,0.098585,26.8495,316.029,0.131279,92.4128,-177.88,0.0703815,-0.0182989,0.0437821,-0.0236592,0.0339814,0.0228016,-0.00291167,0.0470773,-0.0181324917049146,0.03456536363339402,0.02306354360363483,0.04475467803960709,-0.0029074352000160175,-0.02338151537058797
109,0.099585,26.8924,316.658,0.131377,92.5773,-178.311,0.136296,-0.0184954,0.04421,-0.0238871,0.0343425,0.0228886,-0.00293435,0.0476447,-0.018325409715479357,0.03493901264447086,0.023152554003824655,0.045201824226444254,-0.002930049002944135,-0.023604061363155848
110,0.1006,26.9349,317.285,0.131488,92.7409,-178.739,0.200709,-0.0186917,0.0446378,-0.024115,0.0347034,0.0229751,-0.00295687,0.0482122,-0.018518093525017543,0.03531258954203076,0.02324106052759789,0.04564905722316559,-0.0029525027654102587,-0.023826556643271046
111,0.1016,26.9771,317.911,0.131639,92.9035,-179.163,0.263655,-0.0188879,0.0450653,-0.0243428,0.035064,0.0230612,-0.00297922,0.0487797,-0.018710641385505156,0.03568599058198085,0.023329165375768568,0.046096167758195916,-0.0029747865279514674,-0.024048903627384655
112,0.1026,27.0189,318.535,0.131739,93.0651,-179.584,0.325196,-0.0190839,0.0454927,-0.0245706,0.0354245,0.0231467,-0.00300142,0.0493472,-0.018902955252418918,0.036059422688678566,0.023416663759910916,0.04654336481950039,-0.0029969202420054852,-0.02427119996662408
113,0.1036,27.0603,319.157,0.131902,93.2259,-180.002,0.385349,-0.0192798,0.0459199,-0.0247984,0.0357849,0.0232318,-0.00302347,0.0499147,-0.019095133339026793,0.03643288579862558,0.023503760223898773,0.04699054365554978,-0.0030189039175432253,-0.02449344567252465
114,0.1046,27.1015,319.777,0.132054,93.3858,-180.417,0.444164,-0.0194755,0.0463468,-0.025026,0.036145,0.0233165,-0.00304536,0.0504823,-0.019287077639070005,0.036806172487036326,0.02359045466384746,0.047437599335881986,-0.003040727594875392,-0.024715445699728167
115,0.1056,27.1423,320.394,0.132227,93.5448,-180.829,0.501673,-0.0196711,0.0467735,-0.0252537,0.036505,0.0234007,-0.00306711,0.0510499,-0.019478886327182532,0.03717948990223441,0.0236766446086758,0.047884636328078045,-0.0030624112232399137,-0.024937492711730624
116,0.1066,27.1828,321.01,0.132406,93.703,-181.239,0.557916,-0.0198666,0.0472001,-0.0254812,0.0368648,0.0234846,-0.00308872,0.0516174,-0.019670559468245585,0.037552734225328566,0.0237625346821968,0.04833175927847999,-0.0030839548117540527,-0.025159294201262616
117,0.1076,27.223,321.624,0.132596,93.8603,-181.645,0.612927,-0.020062,0.0476264,-0.0257087,0.0372244,0.023568,-0.00311019,0.0521849,-0.019862097127086753,0.0379259052806904,0.023847920038109205,0.04877875837854906,-0.00310535836947623,-0.025381045236695154
118,0.1086,27.263,322.236,0.132795,94.0169,-182.049,0.66674,-0.0202572,0.0480526,-0.0259362,0.0375838,0.023651,-0.00313152,0.0527525,-0.02005340137382572,0.03829900289267307,0.02393290294221395,0.049225843152367776,-0.003126621905405802,-0.02560274582950517
119,0.1096,27.3027,322.845,0.133002,94.1726,-182.45,0.719388,-0.0204523,0.0484785,-0.0261636,0.037943,0.0237336,-0.00315272,0.05332,-0.020244570306081955,0.038672026885610444,0.02401748329311748,0.049672803612440086,-0.003147755397005625,-0.0258242985736018
120,0.1106,27.3421,323.452,0.133217,94.3275,-182.849,0.770905,-0.0206473,0.0489042,-0.0263909,0.038302,0.0238158,-0.00317379,0.0538875,-0.020435603988482876,0.03904497708381749,0.024101660989900076,0.05011974444954559,-0.0031687588525272092,-0.026045703546907606
121,0.1116,27.3813,324.057,0.133441,94.4817,-183.245,0.821321,-0.0208421,0.0493298,-0.0266182,0.0386609,0.0238977,-0.00319473,0.054455,-0.020626404548248045,0.0394179572533806,0.02418553835066617,0.050566770533186256,-0.0031896322801713284,-0.02626705820058195
122,0.1126,27.4202,324.66,0.133672,94.6352,-183.639,0.870667,-0.0210368,0.0497551,-0.0268454,0.0390195,0.0239792,-0.00321555,0.0550224,-0.0208170700253959,0.03979075937227661,0.024269012873582296,0.05101367160747117,-0.0032103856559838606,-0.02648826519489267
123,0.1136,27.4589,325.26,0.13391,94.7879,-184.03,0.918972,-0.0212314,0.0501803,-0.0270725,0.039378,0.0240603,-0.00323624,0.0555898,-0.021007600484354128,0.04016359118562107,0.024352084459033696,0.051460657643135344,-0.003231009019755149,-0.026709324607620544
124,0.1146,27.4974,325.859,0.134155,94.9399,-184.419,0.966266,-0.0214259,0.0506052,-0.0272996,0.0397363,0.0241411,-0.00325682,0.0561572,-0.021197995989496787,0.04053634857584143,0.024434855451360926,0.05190751820537143,-0.0032515223145069827,-0.026930333823455777
125,0.1156,27.5357,326.454,0.134406,95.0912,-184.805,1.01258,-0.0216203,0.05103,-0.0275266,0.0400944,0.0242215,-0.00327727,0.0567245,-0.021388256605145428,0.04090903136713764,0.024517223324883375,0.052354463443552435,-0.0032719056124558277,-0.027151195568921427
126,0.1166,27.5738,327.048,0.134663,95.2418,-185.19,1.05793,-0.0218145,0.0514545,-0.0277535,0.0404523,0.0243016,-0.00329762,0.0572918,-0.021578284553401716,0.04128163938369123,0.024599290441216004,0.052801282743971,-0.00329218882279414,-0.0273719099216565
127,0.1176,27.6117,327.639,0.134927,95.3917,-185.572,1.10235,-0.0220087,0.0518789,-0.0279804,0.04081,0.0243814,-0.00331785,0.057859,-0.02176827560181349,0.041654172449665516,0.024681056727024586,0.05324818643462281,-0.0033123520178629517,-0.027592574199986175
128,0.1186,27.6494,328.228,0.135196,95.541,-185.952,1.14587,-0.0222027,0.052303,-0.0282072,0.0411676,0.0244609,-0.00333798,0.0584262,-0.021958034149172523,0.04202673459187434,0.02476252210924046,0.05369496372291738,-0.003332415138280753,-0.027813091196585038
129,0.1196,27.6869,328.815,0.135471,95.6896,-186.33,1.18851,-0.0223966,0.052727,-0.0284339,0.0415249,0.02454,-0.00335799,0.0589933,-0.022147658101714707,0.04239911726634715,0.024843584030695975,0.0541418251154564,-0.003352358257122323,-0.028033460988950987
130,0.1206,27.7243,329.399,0.135751,95.8377,-186.706,1.23029,-0.0225904,0.0531507,-0.0286606,0.0418821,0.0246188,-0.00337791,0.0595604,-0.022337147523456502,0.042771528739764086,0.02492434488705353,0.054588559640783796,-0.0033722112804090987,-0.028253780829147312
131,0.1216,27.7615,329.981,0.136024,95.985,-187.079,1.27123,-0.0227841,0.0535743,-0.0288872,0.042239,0.0246974,-0.00339772,0.0601274,-0.022526502478361854,0.043143760319145574,0.025004907106615404,0.05503537798409153,-0.0033919542813485304,-0.028473953575897104
132,0.1226,27.7986,330.561,0.136325,96.1318,-187.451,1.31137,-0.0229776,0.0539977,-0.0291137,0.0425958,0.0247756,-0.00341743,0.0606943,-0.02271562530190896,0.04351602042008018,0.025085065624508296,0.055482174543286744,-0.0034115972323477406,-0.028693979306557593
133,0.1236,27.8354,331.138,0.136617,96.278,-187.821,1.35071,-0.0231711,0.0544208,-0.0293402,0.0429524,0.0248535,-0.00343704,0.0612612,-0.022904711533730082,0.043888204589455304,0.02516492286151939,0.055928843537498496,-0.0034311401393071206,-0.028913955207033437
134,0.1246,27.8722,331.713,0.136917,96.4236,-188.188,1.38929,-0.0233644,0.0548438,-0.0295665,0.0433088,0.0249311,-0.00345656,0.0618279,-0.02309356579963784,0.044260312651288825,0.02524447874626201,0.05637559591978225,-0.0034505929735914043,-0.029133687115366902
135,0.1256,27.9088,332.286,0.137219,96.5686,-188.554,1.42712,-0.0235577,0.0552666,-0.0297928,0.043665,0.0250084,-0.00347598,0.0623947,-0.02328238356354395,0.044632344429581305,0.025323733207614385,0.05682232595381165,-0.0034699457751594665,-0.02935336930399557
136,0.1266,27.9453,332.856,0.137526,96.7131,-188.918,1.46422,-0.0237508,0.0556892,-0.030019,0.044021,0.0250855,-0.00349531,0.0629613,-0.023470969526717123,0.045004299748316656,0.02540278871499546,0.05726903345140588,-0.003489208514932729,-0.0295729047414649
137,0.1276,27.9816,333.424,0.137834,96.857,-189.28,1.50062,-0.0239439,0.0561116,-0.0302452,0.0443769,0.0251623,-0.00351455,0.0635278,-0.023659519077456448,0.04537628296908469,0.025481542673281954,0.0577157182243182,-0.003508381198119026,-0.029792390525634316
138,0.1286,28.0179,333.99,0.13815,97.0004,-189.64,1.53632,-0.0241368,0.0565338,-0.0304713,0.0447325,0.0252388,-0.0035337,0.0640943,-0.02384783699237958,0.045748084877770046,0.025559995012060188,0.05816238008423613,-0.003527463829902322,-0.03001172966891197
139,0.1296,28.054,334.553,0.138468,97.1433,-189.999,1.57135,-0.0243296,0.0569558,-0.0306973,0.045088,0.025315,-0.00355277,0.0646607,-0.024036020987887374,0.0461199144107276,0.025638145661182055,0.05860901884278147,-0.0035464663799772422,-0.030230922248312364
140,0.1306,28.09,335.115,0.13879,97.2856,-190.355,1.60572,-0.0245224,0.0573776,-0.0309232,0.0454433,0.025391,-0.00357175,0.065227,-0.02422416870501809,0.046491666854228564,0.02571609712237022,0.059055634311510063,-0.0035653788885650073,-0.030449968340788836
141,0.1316,28.1259,335.673,0.139113,97.4274,-190.71,1.63946,-0.024715,0.0577993,-0.031149,0.0457984,0.0254666,-0.00359065,0.0657932,-0.024412085033202247,0.0468633420321507,0.025793644190555076,0.05950233225214041,-0.0035842113249369145,-0.03066886802323321
142,0.1326,28.1616,336.23,0.139442,97.5688,-191.064,1.67258,-0.0249075,0.0582207,-0.0313748,0.0461533,0.0255421,-0.00360946,0.0663593,-0.024599867632178363,0.0472349397683558,0.02587109453440517,0.05994890062029823,-0.0036029537296490277,-0.030887718283709398
143,0.1336,28.1973,336.784,0.139772,97.7096,-191.415,1.70509,-0.0250999,0.0586419,-0.0316004,0.046508,0.0256173,-0.0036282,0.0669253,-0.024787516565239698,0.047606459886689656,0.025948242941457922,0.06039544513291206,-0.003621626035336112,-0.031106325354659736
144,0.1346,28.2329,337.337,0.140106,97.8499,-191.765,1.73701,-0.0252923,0.059063,-0.031826,0.0468625,0.0256922,-0.00364686,0.0674912,-0.0249751293981193,0.047977902210981416,0.026025089342715857,0.06084207168547828,-0.003640218282328078,-0.031324883113417634
145,0.1356,28.2684,337.886,0.140443,97.9898,-192.113,1.76836,-0.0254845,0.0594838,-0.0320515,0.0472169,0.0257669,-0.00366544,0.068057,-0.025162511170283786,0.04834937139997719,0.026101736279617205,0.06128856796547244,-0.0036587304750935745,-0.03154329472544071
146,0.1366,28.3038,338.434,0.140783,98.1292,-192.459,1.79915,-0.0256766,0.0599045,-0.032277,0.047571,0.0258413,-0.00368394,0.0686227,-0.025349759466113397,0.048720657644740095,0.026178081088788163,0.061735145997117824,-0.0036771626180819306,-0.03176165709119816
147,0.1376,28.3391,338.98,0.141122,98.2681,-192.804,1.82939,-0.0258686,0.060325,-0.0325023,0.047925,0.0259155,-0.00370238,0.0691883,-0.02553687434869234,0.04909197047603997,0.02625422632735841,0.06218169950730501,-0.0036955346418127144,-0.031979776617768185
148,0.1386,28.3743,339.523,0.141468,98.4066,-193.147,1.8591,-0.0260606,0.0607452,-0.0327276,0.0482788,0.0259894,-0.00372074,0.0697538,-0.025723953308662506,0.049463204882688405,0.026330069317047844,0.0626281220442444,-0.00371382662387576,-0.032197847007544356
149,0.1396,28.4094,340.064,0.141814,98.5446,-193.489,1.88829,-0.0262524,0.0611653,-0.0329528,0.0486324,0.0260631,-0.00373903,0.0703192,-0.02591080153510017,0.04983436068841418,0.02640571263057856,0.06307462589988333,-0.0037320485313470098,-0.03241577151317787
150,0.1406,28.4445,340.603,0.142163,98.6822,-193.829,1.91697,-0.0264441,0.0615852,-0.0331779,0.0489859,0.0261366,-0.00375725,0.0708845,-0.026097516537241128,0.05020554273747946,0.026481156222974755,0.06352110466695571,-0.0037502003680590645,-0.03263355021109826
151,0.1416,28.4795,341.139,0.142515,98.8193,-194.167,1.94516,-0.0266358,0.0620049,-0.0334029,0.0493391,0.0262098,-0.0037754,0.0714497,-0.026284195749546768,0.05057654084958396,0.026556297393743655,0.06396755815629573,-0.0037682821378297593,-0.03285118317767388
152,0.1426,28.5144,341.674,0.142869,98.956,-194.504,1.97287,-0.0268273,0.0624244,-0.0336278,0.0496922,0.0262828,-0.00379348,0.0720148,-0.026470644473025717,0.050947564926603794,0.02663123873877926,0.064413986178673,-0.003786293844462385,-0.03306867048921236
153,0.1436,28.5492,342.207,0.143223,99.0923,-194.84,2.00012,-0.0270188,0.0628437,-0.0338526,0.0500451,0.0263556,-0.0038115,0.0725797,-0.026657057494992586,0.05131850977163466,0.02670598021351611,0.06486038854479359,-0.003804245453702837,-0.03328601222196026
154,0.1446,28.5839,342.737,0.143581,99.2281,-195.174,2.0269,-0.0272101,0.0632628,-0.0340774,0.0503978,0.0264281,-0.00382946,0.0731445,-0.02684324019095108,0.0516893752083063,0.026780419095458363,0.06530676506529898,-0.0038221369687881923,-0.033503305101778014
155,0.1456,28.6186,343.265,0.14394,99.3636,-195.506,2.05323,-0.0274014,0.0636818,-0.0343021,0.0507503,0.0265004,-0.00384735,0.0737092,-0.027029387273566408,0.052060161060234256,0.026854658003463205,0.06575322212608392,-0.003839958431344326,-0.03372045251169653
156,0.1466,28.6532,343.791,0.144302,99.4986,-195.837,2.07913,-0.0275926,0.0641005,-0.0345266,0.0511026,0.0265725,-0.00386518,0.0742738,-0.02721540147119572,0.05243086715101941,0.02692869689337507,0.06619954643166093,-0.00385771980654237,-0.03393735792156438
157,0.1476,28.6878,344.315,0.144663,99.6333,-196.167,2.1046,-0.0277837,0.0645191,-0.0347511,0.0514548,0.0266444,-0.00388295,0.0748383,-0.027401282846443498,0.05280159858440325,0.02700253572115585,0.06664595098775239,-0.0038754210975849857,-0.034154214641633374
158,0.1486,28.7223,344.837,0.145028,99.7675,-196.495,2.12966,-0.0279746,0.0649374,-0.0349756,0.0518068,0.0267161,-0.00390065,0.0754026,-0.027586934220560688,0.053172249977923025,0.027076174442883794,0.06709222232019263,-0.003893052346594539,-0.0343710226828331
159,0.1496,28.7567,345.357,0.145395,99.9014,-196.821,2.15431,-0.0281655,0.0653556,-0.0351999,0.0521586,0.0267875,-0.0039183,0.0759669,-0.02777255015721314,0.05354282115511344,0.02714951029979784,0.0675385736131171,-0.003910633479066727,-0.03458758897362779
160,0.1506,28.791,345.875,0.145761,100.035,-197.147,2.17856,-0.0283563,0.0657736,-0.0354241,0.0525103,0.0268588,-0.0039359,0.076531,-0.027958033458973408,0.053913417330831104,0.027222748670799213,0.06798489801218799,-0.003928164497644104,-0.03480401017445678
161,0.1516,28.8253,346.391,0.146132,100.168,-197.47,2.20243,-0.0285471,0.0661913,-0.0356482,0.0528617,0.0269298,-0.00395343,0.0770949,-0.028143481373895773,0.054283827582950916,0.027295684075131055,0.06843108848448054,-0.003945625483874449,-0.035020286361124864
162,0.1526,28.8596,346.905,0.146502,100.301,-197.793,2.22592,-0.0287377,0.0666089,-0.0358723,0.053213,0.0270006,-0.00397091,0.0776588,-0.02832869957449069,0.05465426255467398,0.027368419184355952,0.06887735848172172,-0.0039630363621694364,-0.03523651408572981
163,0.1536,28.8937,347.417,0.146875,100.433,-198.114,2.24904,-0.0289282,0.0670263,-0.0360963,0.0535641,0.0270712,-0.00398834,0.0782225,-0.028513785327244023,0.055024616678118754,0.027440953955197633,0.06932360101548984,-0.003980397135146085,-0.035452596904395395
164,0.1546,28.9279,347.926,0.147247,100.565,-198.434,2.2718,-0.0291187,0.0674436,-0.0363201,0.053915,0.0271416,-0.00400571,0.078786,-0.02869883582451971,0.05539488977672691,0.027513288344496845,0.0697699228727724,-0.003997697845390724,-0.0356684384596373
165,0.1556,28.9619,348.434,0.147623,100.696,-198.752,2.2942,-0.029309,0.0678606,-0.0365439,0.0542658,0.0272118,-0.00402303,0.0793495,-0.028883656849784,0.05576518725044011,0.027585422309211127,0.07021610995415117,-0.004014948455873357,-0.03588423171494404
166,0.1566,28.9959,348.94,0.147998,100.828,-199.07,2.31626,-0.0294993,0.0682774,-0.0367676,0.0546164,0.0272818,-0.00404029,0.0799128,-0.029068442706953523,0.05613540342019241,0.027657355806415707,0.07066226900186656,-0.004032139009508051,-0.03609988029111688
167,0.1576,29.0299,349.444,0.148374,100.958,-199.385,2.33798,-0.0296894,0.068694,-0.0369912,0.0549668,0.0273516,-0.00405751,0.080476,-0.02925299925333935,0.05650553810936132,0.027729088793303047,0.07110839982573114,-0.004049289428408764,-0.03631538426364178
168,0.1586,29.0638,349.946,0.148763,101.089,-199.7,2.35938,-0.0298795,0.0691105,-0.0372147,0.055317,0.0274213,-0.00407468,0.081039,-0.0294375207188603,0.05687559114131102,0.0278007240072502,0.07155460939095004,-0.004066389755302602,-0.03653074370794451
169,0.1596,29.0976,350.446,0.149132,101.219,-200.013,2.38045,-0.0300695,0.0695268,-0.0374382,0.055667,0.0274907,-0.00409179,0.0816019,-0.029621910072380464,0.057245562339393485,0.02787205585268282,0.07200079044098118,-0.0040834300335939044,-0.03674605502478989
170,0.1606,29.1314,350.945,0.149516,101.349,-200.325,2.40121,-0.0302594,0.0699428,-0.0376615,0.0560169,0.0275599,-0.00410886,0.0821647,-0.02980616737587305,0.05761555728849754,0.02794318706005905,0.07244683554075282,-0.004100430184346471,-0.03696112561717757
171,0.1616,29.1652,351.441,0.149894,101.478,-200.636,2.42166,-0.0304493,0.0703587,-0.0378847,0.0563666,0.0276289,-0.00412589,0.0827273,-0.029990389692225783,0.05798547012437094,0.02801411758704142,0.07289295894458547,-0.004117390209605443,-0.03717605190727358
172,0.1626,29.1989,351.936,0.150279,101.607,-200.945,2.44181,-0.030639,0.0707744,-0.0381079,0.0567162,0.0276978,-0.00414286,0.0832897,-0.03017438306297815,0.05835540650583804,0.02808495019989854,0.07333905326189871,-0.004134290194096835,-0.03739093023117479
173,0.1636,29.2325,352.428,0.150661,101.736,-201.253,2.46166,-0.0308286,0.0711899,-0.0383309,0.0570656,0.0277664,-0.00415979,0.0838521,-0.030358244569327897,0.05872526049460047,0.028155479246601,0.07378511830212364,-0.004151150057844721,-0.037605568120719135
174,0.1646,29.2661,352.919,0.151046,101.865,-201.56,2.48123,-0.0310182,0.0716052,-0.0385539,0.0574148,0.0278349,-0.00417667,0.0844143,-0.03054207121884045,0.05909503191389742,0.02822591030916577,0.0742311538746303,-0.004167959844556757,-0.037820158151350425
175,0.1656,29.2997,353.408,0.15143,101.993,-201.866,2.50051,-0.0312077,0.0720204,-0.0387768,0.0577638,0.0279032,-0.00419351,0.0849763,-0.030725766090705653,0.05946472058695651,0.028296140537174885,0.07467726725644841,-0.004184729514911889,-0.0380346041372055
176,0.1666,29.3331,353.895,0.151817,102.12,-202.171,2.51952,-0.031397,0.0724353,-0.0389996,0.0581126,0.0279713,-0.00421031,0.0855382,-0.030909232337556602,0.059834326336992705,0.028366169888817794,0.07512324336597942,-0.004201459070927394,-0.0382489061532727
177,0.1676,29.3666,354.381,0.152204,102.248,-202.474,2.53826,-0.0315863,0.07285,-0.0392222,0.0584613,0.0280392,-0.00422706,0.0861,-0.031092663857533953,0.060203955007599896,0.028435998322401623,0.0755691894355297,-0.004218138556796869,-0.03846296812078209
178,0.1686,29.4,354.864,0.15259,102.375,-202.776,2.55673,-0.0317756,0.0732646,-0.0394448,0.0588099,0.0281069,-0.00424377,0.0866616,-0.031276060657211,0.060573606532832835,0.028505625796351408,0.07601521287573987,-0.0042347779326792345,-0.038676982443400565
179,0.1696,29.4333,355.346,0.152979,102.501,-203.077,2.57495,-0.0319647,0.073679,-0.0396673,0.0591582,0.0281745,-0.00426044,0.087223,-0.03145922903502474,0.0609430686580823,0.028575155126720153,0.07646120598334494,-0.004251377200575779,-0.038890853020822846
180,0.1706,29.4666,355.826,0.153368,102.628,-203.377,2.59291,-0.0321537,0.0740931,-0.0398897,0.0595064,0.0282419,-0.00427707,0.0877843,-0.031642265943204406,0.06131255335814223,0.028644483428513334,0.07690706087662713,-0.004267936362483127,-0.03910457992779803
181,0.1716,29.4999,356.304,0.153757,102.754,-203.676,2.61062,-0.0323427,0.0745071,-0.0401121,0.0598544,0.0283091,-0.00429366,0.0883455,-0.03182526826067744,0.061681954398763894,0.02871361066044864,0.07735299270134854,-0.0042844554203929075,-0.03931825930719435
182,0.1726,29.5331,356.781,0.154148,102.88,-203.973,2.6281,-0.0325315,0.0749209,-0.0403343,0.0602023,0.0283761,-0.00431021,0.0889065,-0.032008042395608505,0.06205137780817527,0.02878253678136211,0.07779889362026582,-0.004300934376291976,-0.039531699075939786
183,0.1736,29.5662,357.256,0.154538,103.005,-204.27,2.64533,-0.0327203,0.0753345,-0.0405564,0.0605499,0.028443,-0.00432672,0.0894673,-0.03219078202604031,0.062420611036118734,0.028851364635338994,0.07824476344219033,-0.004317373232162303,-0.03974499539814169
184,0.1746,29.5994,357.729,0.154931,103.13,-204.565,2.66233,-0.032909,0.075748,-0.0407784,0.0608975,0.0285097,-0.00434319,0.090028,-0.032373390395830426,0.06278997263184127,0.0289199913100342,0.07869070984493831,-0.004333771989980972,-0.03995814834831035
185,0.1756,29.6324,358.2,0.155321,103.255,-204.859,2.6791,-0.0330976,0.0761612,-0.0410004,0.0612448,0.0285762,-0.00435962,0.0905886,-0.03255586756626372,0.06315914369218012,0.02898841676457753,0.07913651694364998,-0.0043501306517204075,-0.0401712539837763
186,0.1766,29.6654,358.67,0.155714,103.38,-205.152,2.69565,-0.0332862,0.0765742,-0.0412222,0.061592,0.0286425,-0.00437602,0.091149,-0.03273831032474783,0.06352833663505608,0.02905664095821603,0.07958229237143732,-0.004366459175683457,-0.040384120391885325
187,0.1776,29.6984,359.138,0.156107,103.504,-205.444,2.71198,-0.0334746,0.0769871,-0.041444,0.061939,0.0287087,-0.00439238,0.0917092,-0.032920525261896594,0.06389744500446692,0.029124766762786747,0.08002814393967927,-0.004382747607171611,-0.04059693959146071
188,0.1786,29.7313,359.604,0.1565,103.628,-205.735,2.72809,-0.033663,0.0773998,-0.0416656,0.0622859,0.0287747,-0.00440871,0.0922693,-0.033102705872984806,0.06426657505004374,0.029192691238876023,0.08047396354323078,-0.004399005904153874,-0.04080951975489522
189,0.1796,29.7642,360.069,0.156894,103.751,-206.025,2.744,-0.0338512,0.0778123,-0.0418872,0.0626326,0.0288406,-0.00442499,0.0928292,-0.03328465882143006,0.06463562024190095,0.029260517272071906,0.08091975099053217,-0.004415214156402225,-0.04102205281578464
190,0.1806,29.797,360.532,0.157288,103.874,-206.314,2.7597,-0.0340394,0.0782246,-0.0421086,0.0629791,0.0289063,-0.00444125,0.093389,-0.0334665775295524,0.06500458040297108,0.029328141909501726,0.08136550608996473,-0.004431402233410653,-0.041234347031454344
191,0.1816,29.8298,360.993,0.157683,103.997,-206.602,2.77519,-0.0342275,0.0786367,-0.04233,0.0633255,0.0289718,-0.00445747,0.0939486,-0.03364836536863691,0.06537356189352717,0.029395565110882593,0.08181122864985002,-0.00444755022510579,-0.041446594250387436
192,0.1826,29.8625,361.453,0.158077,104.12,-206.888,2.79049,-0.0344156,0.0790486,-0.0425513,0.0636717,0.0290372,-0.00447366,0.094508,-0.033830119016644566,0.06574245807289891,0.02946288978233369,0.08225691847844963,-0.004463668088793171,-0.04165869864886251
193,0.1836,29.8952,361.911,0.158473,104.242,-207.174,2.80559,-0.0346035,0.0794603,-0.0427725,0.0640177,0.0291024,-0.00448981,0.0950673,-0.03401164528235456,0.06611126876396245,0.029530012950938822,0.08270257538396653,-0.004479745870725194,-0.04187066030089848
194,0.1846,29.9279,362.368,0.158868,104.364,-207.458,2.82051,-0.0347914,0.0798719,-0.0429936,0.0643636,0.0291674,-0.00450593,0.0956264,-0.034193137442483534,0.06648010043758834,0.029596934576709977,0.08314830748936908,-0.004495793527877212,-0.04208247928045483
195,0.1856,29.9605,362.823,0.159264,104.486,-207.742,2.83523,-0.0349791,0.0802832,-0.0432145,0.0647093,0.0292323,-0.00452202,0.0961854,-0.03437440237833922,0.06684884634236687,0.029663757586147144,0.08359389801764983,-0.004511811061697957,-0.042294059890843005
196,0.1866,29.993,363.277,0.15966,104.608,-208.024,2.84978,-0.0351668,0.0806944,-0.0434354,0.0650549,0.029297,-0.00453807,0.0967442,-0.034555633293959276,0.06721761302287477,0.02973037898644204,0.08403956345104824,-0.004527788518911002,-0.04250559376823615
197,0.1876,30.0255,363.729,0.160058,104.729,-208.306,2.86414,-0.0353544,0.0811054,-0.0436562,0.0654003,0.0293616,-0.0045541,0.0973028,-0.034736733669406994,0.06758629365389246,0.029796901717585644,0.08448519528269505,-0.004543745810563049,-0.04271698519465983
198,0.1886,30.0579,364.179,0.160453,104.85,-208.586,2.87833,-0.035542,0.0815162,-0.0438769,0.0657455,0.029426,-0.00457009,0.0978613,-0.034917800073610894,0.06795488805819572,0.02986322277357134,0.0849307933204877,-0.004559663028808947,-0.04292823424383729
199,0.1896,30.0904,364.628,0.160851,104.97,-208.866,2.89235,-0.0357294,0.0819268,-0.0440975,0.0660906,0.0294903,-0.00458606,0.0984196,-0.035098639532690545,0.06832350289089573,0.029929445107820918,0.08537635737226501,-0.004575560084052133,-0.04313934098943295
200,0.1906,30.1227,365.075,0.161247,105.091,-209.144,2.90619,-0.0359167,0.0823372,-0.0443181,0.0664355,0.0295544,-0.00460199,0.0989777,-0.035279348633570407,0.06869203121609924,0.029995465701189827,0.0858218872458072,-0.004591417069078729,-0.04335040117001687
201,0.1916,30.155,365.521,0.161645,105.211,-209.422,2.91987,-0.036104,0.0827474,-0.0445385,0.0667802,0.0296184,-0.00461789,0.0995357,-0.03546002389080538,0.06906047285652805,0.030061387520470495,0.0862673827488365,-0.004607243939723338,-0.04356122350812397
202,0.1926,30.1873,365.965,0.162042,105.33,-209.699,2.93339,-0.0362912,0.0831575,-0.0447588,0.0671248,0.0296822,-0.00463377,0.100093,-0.035640568874795275,0.06942893457778276,0.03012710753344039,0.08671295236030585,-0.0046230506511839575,-0.04377190376330298
203,0.1936,30.2195,366.408,0.16244,105.45,-209.974,2.94675,-0.0364783,0.0835674,-0.044979,0.0674693,0.0297459,-0.00464962,0.100651,-0.03582098364603059,0.06979741631307945,0.030192728720202844,0.08715848730562725,-0.004638827250801336,-0.043982442008982714
204,0.1946,30.2517,366.849,0.162838,105.569,-210.249,2.95995,-0.0366654,0.083977,-0.0451991,0.0678136,0.0298094,-0.00466543,0.101209,-0.03600136466481996,0.07016581097901864,0.03025814803551774,0.08760387863194419,-0.00465456378654483,-0.04419283831853327
205,0.1956,30.2838,367.289,0.163235,105.688,-210.523,2.97299,-0.0368523,0.0843865,-0.0454192,0.0681577,0.0298728,-0.00468122,0.101766,-0.03618151917380075,0.07053411839823376,0.030323468472739368,0.0880493436229759,-0.004670280166901519,-0.04440318832495194
206,0.1966,30.3159,367.728,0.163633,105.806,-210.795,2.98588,-0.0370392,0.0847958,-0.0456391,0.0685016,0.029936,-0.00469699,0.102323,-0.03636164001505027,0.07090233839335003,0.03038858697366975,0.0884947733703001,-0.004685976392818203,-0.04461330096110827
207,0.1976,30.3479,368.165,0.164031,105.924,-211.067,2.99863,-0.037226,0.085205,-0.045859,0.0688454,0.0299991,-0.00471272,0.10288,-0.03654163084902817,0.07127057791403613,0.03045360654485374,0.08894027657530246,-0.004701632559273472,-0.04482336739857562
208,0.1986,30.3799,368.6,0.16443,106.042,-211.338,3.01123,-0.0374127,0.0856139,-0.0460787,0.0691891,0.030062,-0.00472843,0.103437,-0.03672149173601236,0.0716388368933456,0.030518424115196563,0.08938563530178056,-0.004717268573804723,-0.04503319665417038
209,0.1996,30.4118,369.034,0.164828,106.16,-211.608,3.02368,-0.0375993,0.0860226,-0.0462983,0.0695326,0.0301248,-0.00474412,0.103993,-0.03690122273623064,0.07200700806359683,0.030583142704373456,0.08983095820646514,-0.00473288443735409,-0.04524288433963464
210,0.2006,30.4437,369.467,0.165226,106.277,-211.877,3.036,-0.0377858,0.0864312,-0.0465179,0.0698759,0.0301875,-0.00475977,0.10455,-0.03708082390986034,0.07237509124732866,0.030647762293223968,0.09027635412417756,-0.004748460245831532,-0.045452525982738745
211,0.2016,30.4755,369.898,0.165624,106.395,-212.145,3.04817,-0.0379723,0.0868396,-0.0467374,0.0702191,0.03025,-0.0047754,0.105106,-0.03726039159099437,0.07274319354138514,0.030712179791392957,0.09072171392348283,-0.004764015905830088,-0.04566202615979997
212,0.2026,30.5073,370.328,0.166023,106.511,-212.412,3.06021,-0.0381586,0.0872478,-0.0469567,0.0705621,0.0303124,-0.00479101,0.105662,-0.03743973327384453,0.07311120756756728,0.03077649823812667,0.0911670374114466,-0.004779551418286898,-0.04587128953089581
213,0.2036,30.539,370.757,0.166421,106.628,-212.679,3.07212,-0.0383449,0.0876558,-0.047176,0.070905,0.0303746,-0.00480659,0.106218,-0.03761904154845119,0.07347924049628185,0.03084061453031306,0.09161232439507816,-0.004795056832088251,-0.046080507015565986
214,0.2046,30.5707,371.184,0.166819,106.744,-212.944,3.0839,-0.0385312,0.0880636,-0.0473951,0.0712477,0.0304367,-0.00482215,0.106774,-0.037798316421037814,0.0738471848756681,0.030904631720188647,0.09205757468132947,-0.004810542100528226,-0.04628948788178899
215,0.2056,30.6023,371.609,0.167218,106.86,-213.209,3.09554,-0.0387173,0.0884712,-0.0476142,0.0715903,0.0304987,-0.00483768,0.107329,-0.03797736549331898,0.07421514794968198,0.03096854978879504,0.09250278807709567,-0.0048259972727997535,-0.04649842296531992
216,0.2066,30.6339,372.034,0.167616,106.976,-213.472,3.10706,-0.0389033,0.0888787,-0.0478332,0.0719327,0.0305605,-0.00485319,0.107885,-0.038156285063301376,0.07458302219281632,0.031032265613970544,0.09294807368401758,-0.004841432301883053,-0.04670721694691504
217,0.2076,30.6654,372.457,0.168014,107.092,-213.735,3.11846,-0.0390893,0.089286,-0.0480521,0.0722749,0.0306222,-0.00486867,0.10844,-0.03833517135733844,0.0749508074274754,0.031095882267312636,0.09339332210311446,-0.004856837237276479,-0.04691586989922647
218,0.2086,30.6969,372.878,0.168413,107.207,-213.997,3.12973,-0.0392752,0.089693,-0.0482708,0.072617,0.0306838,-0.00488413,0.108995,-0.0385139282330168,0.07531861100791182,0.031159399729977943,0.09383842375725271,-0.004872222031648055,-0.04712428660728185
219,0.2096,30.7284,373.299,0.168811,107.322,-214.258,3.14089,-0.039461,0.0900999,-0.0484895,0.072959,0.0307452,-0.00489957,0.10955,-0.038692555750140856,0.07568643286682919,0.031222714860876133,0.09428359717626944,-0.004887586685924483,-0.04733265773958695
220,0.2106,30.7598,373.718,0.169209,107.436,-214.519,3.15193,-0.0396467,0.0905067,-0.0487081,0.0733008,0.0308065,-0.00491499,0.110105,-0.038871053968465574,0.07605416533148102,0.03128593075084418,0.09472884230031875,-0.0049029312010312465,-0.04754088806020185
221,0.2116,30.7911,374.135,0.169607,107.551,-214.778,3.16285,-0.0398324,0.0909132,-0.0489266,0.0736424,0.0308677,-0.00493038,0.110659,-0.03904951904274856,0.07642180822418942,0.03134904738115529,0.09517394003469937,-0.004918245627075213,-0.047748977641546064
222,0.2126,30.8224,374.552,0.170005,107.665,-215.037,3.17365,-0.040018,0.0913195,-0.049145,0.0739839,0.0309287,-0.00494575,0.111214,-0.03922785490193459,0.07678946904621031,0.03141196159190951,0.09561899961426645,-0.004933539916103014,-0.04795692655598105
223,0.2136,30.8536,374.967,0.170403,107.779,-215.294,3.18435,-0.0402034,0.0917257,-0.0493633,0.0743252,0.0309896,-0.0049611,0.111768,-0.03940596554626885,0.07715704001441326,0.03147477649306474,0.09606413045186235,-0.004948814069035912,-0.04816473487581052
224,0.2146,30.8848,375.381,0.1708,107.892,-215.551,3.19493,-0.0403888,0.0921317,-0.0495815,0.0746664,0.0310504,-0.00497643,0.112322,-0.03958404317195052,0.0775246287035305,0.03153749206600964,0.09650922283646612,-0.004964068086793838,-0.048372402673280024
225,0.2156,30.916,375.793,0.171198,108.006,-215.807,3.20541,-0.0405742,0.0925375,-0.0497996,0.0750074,0.031111,-0.00499173,0.112876,-0.03976208778510082,0.07789212725686068,0.03160000513215566,0.09695427657438915,-0.0049792920200887325,-0.048579930020577144
226,0.2166,30.947,376.204,0.171596,108.119,-216.063,3.21578,-0.0407594,0.0929431,-0.0500176,0.0753483,0.0311716,-0.00500702,0.113429,-0.03993990737984032,0.07825964332259683,0.03166252198670816,0.0973992914718882,-0.004994505770404389,-0.04878731698983163
227,0.2176,30.9781,376.614,0.171993,108.232,-216.317,3.22605,-0.0409446,0.0933485,-0.0502355,0.075689,0.031232,-0.00502228,0.113983,-0.04011769404544019,0.07862706897048177,0.031724836284909186,0.09784426733516405,-0.005009689438394638,-0.04899456365311561
228,0.2186,31.0091,377.023,0.17239,108.344,-216.571,3.23621,-0.0411297,0.0937538,-0.0504534,0.0760296,0.0312922,-0.00503753,0.114536,-0.040295351817538294,0.07899451192215556,0.031786947989596914,0.09828931379928862,-0.005024862924932538,-0.04920176516227137
229,0.2196,31.04,377.431,0.172787,108.457,-216.823,3.24627,-0.0413147,0.0941588,-0.0506711,0.07637,0.0313524,-0.00505275,0.115089,-0.040472880755519025,0.07936186417381985,0.03184906343352201,0.09873421105699087,-0.005040006331277214,-0.04940873140890212
230,0.2206,31.0709,377.837,0.173184,108.569,-217.076,3.25624,-0.0414996,0.0945637,-0.0508887,0.0767103,0.0314124,-0.00506795,0.115642,-0.04065028091871681,0.07972923352054728,0.03191097623469363,0.09917917861665115,-0.005055129608243836,-0.04961555756544567
231,0.2216,31.1017,378.242,0.173572,108.68,-217.327,3.2661,-0.0416845,0.0949684,-0.0511062,0.0770504,0.0314723,-0.00508314,0.116195,-0.0408276482836567,0.08009651188501343,0.0319727895534605,0.09962410645531294,-0.0050702427060408395,-0.049822243703742775
232,0.2226,31.1325,378.646,0.173979,108.792,-217.577,3.27587,-0.0418692,0.0953729,-0.0513237,0.0773904,0.0315321,-0.0050983,0.116747,-0.041004791057379975,0.08046380713570866,0.0320345033715006,0.10006899437889061,-0.005085325726831735,-0.050028884892693304
233,0.2236,31.1632,379.048,0.174373,108.903,-217.827,3.28555,-0.0420539,0.0957772,-0.051541,0.0777302,0.0315917,-0.00511345,0.1173,-0.04118190111585429,0.08083101112179736,0.0320960144609137,0.10051384219324411,-0.005100398569969911,-0.05023529118914982
234,0.2246,31.1939,379.45,0.17477,109.014,-218.076,3.29513,-0.0422385,0.0961814,-0.0517582,0.0780699,0.0316513,-0.00512857,0.117852,-0.04135888260101461,0.08119823178517382,0.03215752921649706,0.10095875980004942,-0.00511544133821995,-0.05044155768255143
235,0.2256,31.2245,379.85,0.175166,109.125,-218.324,3.30462,-0.0424231,0.0965854,-0.0519754,0.0784094,0.0317107,-0.00514368,0.118404,-0.04153583141840811,0.08156536090150612,0.032218841194680214,0.10140363699815169,-0.0051304739303298375,-0.05064777937973575
236,0.2266,31.2551,380.249,0.175562,109.235,-218.571,3.31402,-0.0426075,0.0969891,-0.0521924,0.0787488,0.03177,-0.00515877,0.118956,-0.04171255591659506,0.08193250648607742,0.032280053586892565,0.10184836340839398,-0.005145486398208887,-0.050853766461203764
237,0.2276,31.2857,380.647,0.175958,109.346,-218.818,3.32333,-0.0427919,0.0973927,-0.0524094,0.079088,0.0318291,-0.00517384,0.119507,-0.04188924782978898,0.08229956024107499,0.03234106314087404,0.10229315916161075,-0.005160478742761265,-0.05105970884832456
238,0.2286,31.3161,381.043,0.176353,109.456,-219.064,3.33255,-0.0429762,0.0977962,-0.0526262,0.0794271,0.0318882,-0.00518889,0.120059,-0.04206581137058396,0.08266663025515619,0.03240207630062697,0.10273802419681743,-0.005175450964889916,-0.05126541680389807
239,0.2296,31.3465,381.439,0.176748,109.565,-219.309,3.34169,-0.0431604,0.0981994,-0.052843,0.079766,0.0319471,-0.00520392,0.12061,-0.042242246597946176,0.08303360815704286,0.03246288657376595,0.10318273781641452,-0.005190403065496563,-0.05147108016682089
240,0.2306,31.3769,381.833,0.177143,109.675,-219.554,3.35074,-0.0433445,0.0986025,-0.0530597,0.0801048,0.032006,-0.00521894,0.121161,-0.042418553570792605,0.08340060210875122,0.032523700428735536,0.1036275204179391,-0.005205344993428396,-0.05167660411442476
241,0.2316,31.4072,382.226,0.177538,109.784,-219.797,3.35971,-0.0435286,0.0990053,-0.0532762,0.0804434,0.0320647,-0.00523394,0.121712,-0.042594828088513004,0.08376750366555341,0.03258431134886397,0.10407215112577628,-0.005220266801339579,-0.05188189390621223
242,0.2326,31.4375,382.618,0.177932,109.893,-220.04,3.3686,-0.0437125,0.099408,-0.0534927,0.0807819,0.0321233,-0.00524892,0.122263,-0.042770878711276605,0.08413442106281033,0.032644822562470255,0.10451685051524695,-0.005235168490129061,-0.05208713925757047
243,0.2336,31.4677,383.009,0.178327,110.002,-220.282,3.37741,-0.0438964,0.0998105,-0.0537091,0.0811203,0.0321818,-0.00526388,0.122813,-0.04294689696130749,0.08450135423248861,0.03270523405160897,0.10496150802890081,-0.0052500500606940115,-0.052292245407349336
244,0.2346,31.4979,383.399,0.178721,110.11,-220.524,3.38614,-0.0440803,0.100213,-0.0539253,0.0814584,0.0322401,-0.00527883,0.123364,-0.04312288284455834,0.08486808613288876,0.032765442521814014,0.10540634455322762,-0.0052649214612815465,-0.05249711767640197
245,0.2356,31.528,383.787,0.179112,110.218,-220.765,3.39479,-0.044264,0.100615,-0.0541415,0.0817965,0.0322984,-0.00529376,0.123914,-0.04329864502672909,0.08523494204630788,0.03282565450227515,0.10585080723475127,-0.005279772745139022,-0.05270194565685782
246,0.2366,31.5581,384.175,0.179508,110.326,-221.005,3.40336,-0.0444477,0.101017,-0.0543576,0.0821344,0.0323565,-0.00530867,0.124464,-0.043474374924352466,0.08560170489431895,0.03288566341604371,0.10629544862619134,-0.0052946039131608336,-0.05290663464895917
247,0.2376,31.5881,384.561,0.179901,110.434,-221.244,3.41185,-0.0446312,0.101419,-0.0545736,0.0824721,0.0324146,-0.00532357,0.125014,-0.043649881273353786,0.08596837449873984,0.03294567581643171,0.10674026879940346,-0.005309424913145788,-0.05311118472367171
248,0.2386,31.618,384.947,0.180294,110.542,-221.483,3.42027,-0.0448147,0.10182,-0.0547895,0.0828097,0.0324725,-0.00533845,0.125563,-0.04382535541989485,0.08633505931488483,0.033005485102523435,0.10718416064155822,-0.005324225798784221,-0.053315595951903716
249,0.2396,31.6479,385.331,0.180687,110.649,-221.72,3.42862,-0.0449982,0.102222,-0.0550053,0.0831472,0.0325303,-0.00535332,0.126113,-0.04400079736988405,0.08670175927454093,0.03306519454514878,0.10762933814881981,-0.005339016517577289,-0.053519868404506954
250,0.2406,31.6778,385.714,0.18108,110.756,-221.958,3.43689,-0.0451815,0.102623,-0.055221,0.0834845,0.032588,-0.00536816,0.126662,-0.04417601596445142,0.08706836560262587,0.03312480412659391,0.10807358657927502,-0.005353777177047769,-0.05372400215227591
251,0.2416,31.7076,386.096,0.181474,110.863,-222.194,3.4451,-0.0453648,0.103024,-0.0554366,0.0838217,0.0326456,-0.005383,0.127211,-0.04435120244439372,0.08743498686437778,0.03318431382917453,0.10851801318907306,-0.0053685376174718025,-0.053927997265948435
252,0.2426,31.7373,386.477,0.181863,110.969,-222.43,3.45324,-0.045548,0.103425,-0.0556521,0.0841587,0.0327031,-0.00539781,0.12776,-0.04452626126822801,0.08780151421134019,0.0332437236352352,0.10896261804967877,-0.005383268000350938,-0.054131853816205444
253,0.2436,31.767,386.857,0.182255,111.075,-222.665,3.4613,-0.0457311,0.103826,-0.0558675,0.0844956,0.0327604,-0.00541262,0.128309,-0.04470119249434734,0.08816805628202284,0.033302930196851266,0.10940740123258474,-0.005397998165074691,-0.054335571873670885
254,0.2446,31.7966,387.236,0.182646,111.181,-222.9,3.4693,-0.0459141,0.104226,-0.0560829,0.0848323,0.0328177,-0.0054274,0.128857,-0.04487599618109572,0.08853450415461062,0.03336214015110062,0.10985125295750464,-0.005412698274027683,-0.054539246054992496
255,0.2456,31.8262,387.613,0.183038,111.287,-223.133,3.47723,-0.0460971,0.104627,-0.0562981,0.0851689,0.0328749,-0.00544217,0.129406,-0.04505076788169626,0.08890096654086865,0.033421250156047355,0.11029639255446488,-0.005427388219988671,-0.05474268731817644
256,0.2466,31.8557,387.99,0.183428,111.393,-223.367,3.4851,-0.04628,0.105027,-0.0565132,0.0855053,0.0329319,-0.00545693,0.129954,-0.04522541212454778,0.08926733444563961,0.033480156846130926,0.11074059994704255,-0.005442068003401523,-0.05494599030011471
257,0.2476,31.8852,388.366,0.183819,111.498,-223.599,3.4929,-0.0464628,0.105427,-0.0567282,0.0858416,0.0329889,-0.00547167,0.130502,-0.045399928967885916,0.08963371665392872,0.03353906689399144,0.11118498505811836,-0.005456727679277074,-0.05514915507120466
258,0.2486,31.9147,388.74,0.184209,111.603,-223.831,3.50063,-0.0466455,0.105827,-0.0569432,0.0861778,0.0330457,-0.0054864,0.131049,-0.04557431846989746,0.09000011309725875,0.033597773580245294,0.11162954795879432,-0.0054713771937844324,-0.05535227616656424
259,0.2496,31.944,389.114,0.184599,111.708,-224.062,3.50831,-0.0468281,0.106226,-0.057158,0.0865138,0.0331024,-0.00550111,0.131597,-0.04574858068872001,0.09036641467047768,0.03365638023549011,0.11207317664646754,-0.005486006602226312,-0.05555516470663435
260,0.2506,31.9734,389.486,0.184988,111.813,-224.292,3.51592,-0.0470107,0.106626,-0.0573728,0.0868496,0.0331591,-0.00551581,0.132144,-0.04592281109016649,0.09073262119515824,0.033714990213826734,0.11251809489484343,-0.005500625850477503,-0.055758009670926256
261,0.2516,32.0026,389.858,0.185377,111.917,-224.522,3.52347,-0.0471932,0.107025,-0.0575874,0.0871854,0.0332156,-0.00553049,0.132691,-0.046096914289742386,0.0910989507126394,0.0337733967607432,0.11296207818348236,-0.00551522499413204,-0.05596062226094234
262,0.2526,32.0318,390.229,0.185766,112.021,-224.752,3.53096,-0.0473756,0.107424,-0.057802,0.0875209,0.0332721,-0.00554516,0.133238,-0.04627089034547727,0.09146507582465668,0.03383180660772278,0.11340623865679955,-0.005529813978770948,-0.05616319137496184
263,0.2536,32.061,390.598,0.186155,112.125,-224.98,3.53839,-0.0475579,0.107823,-0.0580164,0.0878564,0.0333284,-0.00555982,0.133785,-0.04644473931535231,0.091831323792257,0.03389001297692884,0.11385057638550555,-0.0055443928048349855,-0.05636552829543806
264,0.2546,32.0901,390.967,0.186543,112.229,-225.208,3.54576,-0.0477402,0.108222,-0.0582308,0.0881917,0.0333846,-0.00557446,0.134332,-0.04661855659544867,0.09219747621714824,0.03394811922842855,0.11429509144033956,-0.005558951528354172,-0.05656782183952869
265,0.2556,32.1192,391.334,0.186933,112.332,-225.435,3.55307,-0.0479224,0.10862,-0.0584451,0.0885268,0.0334407,-0.00558909,0.134878,-0.046792246870772325,0.09256353292080388,0.03400612534497349,0.11473866915284225,-0.0055735000944703295,-0.05676997769353509
266,0.2566,32.1482,391.701,0.187318,112.436,-225.662,3.56033,-0.0481045,0.109019,-0.0586593,0.0888618,0.0334968,-0.0056037,0.135424,-0.046965810199196545,0.09292960301764985,0.03406413471575309,0.11518353862739228,-0.005588028559503244,-0.056971995927387886
267,0.2576,32.1771,392.066,0.187706,112.539,-225.888,3.56753,-0.0482865,0.109417,-0.0588733,0.0891967,0.0335527,-0.00561831,0.135971,-0.04713924663854552,0.09329568643894781,0.034121940516540716,0.11562747001225171,-0.005602556812276838,-0.05717378232834447
268,0.2586,32.206,392.431,0.188092,112.641,-226.113,3.57468,-0.0484685,0.109815,-0.0590873,0.0895314,0.0336085,-0.00563289,0.136516,-0.047312651515334925,0.09366167374975887,0.03417964613079327,0.116071578116967,-0.005617055021306272,-0.05737552555163139
269,0.2596,32.2349,392.794,0.188479,112.744,-226.338,3.58177,-0.0486503,0.110213,-0.0593012,0.089866,0.0336643,-0.00564747,0.137062,-0.047485834332494314,0.09402767417425184,0.03423735496510871,0.11651586301188699,-0.005631553018953461,-0.0575771313642055
270,0.2606,32.2637,393.157,0.188865,112.846,-226.562,3.58881,-0.0488321,0.11061,-0.059515,0.0902004,0.0337199,-0.00566203,0.137608,-0.047658985667879405,0.09439357820423977,0.03429486016067451,0.11695920780762159,-0.0056460309181420865,-0.057778599835772826
271,0.2616,32.2924,393.519,0.189251,112.948,-226.786,3.5958,-0.0490138,0.111008,-0.0597287,0.0905347,0.0337754,-0.00567658,0.138153,-0.04783201031041873,0.09475949513704096,0.034352265118386294,0.11740384604946974,-0.005660498663139113,-0.05797993103598298
272,0.2626,32.3211,393.879,0.189637,113.05,-227.009,3.60273,-0.0491955,0.111405,-0.0599423,0.0908688,0.0338309,-0.00569112,0.138698,-0.04800500351723658,0.09512531539123681,0.03440967326216149,0.1178475434444568,-0.005674956254381636,-0.05818112503442974
273,0.2636,32.3497,394.239,0.190022,113.152,-227.231,3.60962,-0.049377,0.111802,-0.0601558,0.0912028,0.0338862,-0.00570564,0.139243,-0.04817777492961817,0.09549114833727868,0.034466877698781095,0.11829141702227952,-0.0056893937492003,-0.0583821819006507
274,0.2646,32.3783,394.598,0.190407,113.253,-227.453,3.61645,-0.0495585,0.112199,-0.0603692,0.0915367,0.0339415,-0.00572015,0.139787,-0.04835051498683407,0.09585699390622726,0.03452408529889328,0.1187354668528966,-0.00570382109142642,-0.058583101704127505
275,0.2656,32.4068,394.956,0.190792,113.354,-227.674,3.62323,-0.0497399,0.112596,-0.0605826,0.0918704,0.0339966,-0.00573465,0.140332,-0.048523128546892225,0.09622274240683715,0.034581089146434874,0.11917969300629427,-0.005718238281495758,-0.05878397863589291
276,0.2666,32.4353,395.313,0.191178,113.455,-227.894,3.62996,-0.0499213,0.112993,-0.0607958,0.092204,0.0340517,-0.00574914,0.140876,-0.04869571079769042,0.09658850331923197,0.03463809613497504,0.11962409555248632,-0.005732645319843743,-0.05898462450203845
277,0.2676,32.4637,395.669,0.191559,113.556,-228.114,3.63665,-0.0501025,0.113389,-0.0610089,0.0925374,0.0341066,-0.00576361,0.14142,-0.048868071518541,0.09695416687896707,0.034694899325686146,0.12006755449340023,-0.005747032264376228,-0.059185133513563026
278,0.2686,32.4921,396.024,0.191943,113.657,-228.333,3.64329,-0.0502837,0.113785,-0.061222,0.0928707,0.0341615,-0.00577807,0.141964,-0.04904040101045837,0.09731984263926807,0.03475170563497798,0.12051118907883018,-0.005761409058345213,-0.05938559980116975
279,0.2696,32.5204,396.378,0.192326,113.757,-228.552,3.64988,-0.0504648,0.114182,-0.0614349,0.0932039,0.0342163,-0.00579252,0.142508,-0.049212604200365884,0.09768553053105489,0.034808411582175625,0.12095612033390468,-0.005775775702185015,-0.059585835291147915
280,0.2706,32.5487,396.732,0.192709,113.857,-228.77,3.65642,-0.0506458,0.114577,-0.0616478,0.0935369,0.034271,-0.00580696,0.143052,-0.04938468114557226,0.09805112068010313,0.034865017150437216,0.12139898546154115,-0.005790132196329734,-0.059786028155527804
281,0.2716,32.5769,397.084,0.193091,113.957,-228.988,3.66292,-0.0508268,0.114973,-0.0618605,0.0938698,0.0343256,-0.00582138,0.143595,-0.049556726947670104,0.0984167227492656,0.03492152232295087,0.12184314739804303,-0.005804468599257762,-0.059985990400600486
282,0.2726,32.6051,397.435,0.193473,114.056,-229.205,3.66937,-0.0510077,0.115369,-0.0620732,0.0942025,0.0343801,-0.0058358,0.144138,-0.04972864658516518,0.09878222679115023,0.034977927082933125,0.12228748525750222,-0.005818804795456378,-0.060185910118226604
283,0.2736,32.6332,397.786,0.193855,114.156,-229.421,3.67577,-0.0511885,0.115764,-0.0622858,0.0945351,0.0344345,-0.0058502,0.144681,-0.049900440115259515,0.09914774254168068,0.03503423141363049,0.12273087637816027,-0.005833120901591049,-0.06038569335602473
284,0.2746,32.6612,398.136,0.194236,114.255,-229.637,3.68214,-0.0513692,0.116159,-0.0624982,0.0948676,0.0344888,-0.00586459,0.145224,-0.05007210759510683,0.09951326993163678,0.0350904352983179,0.12317444267290556,-0.005847426860049687,-0.06058524624148931
285,0.2756,32.6892,398.484,0.194619,114.354,-229.853,3.68846,-0.0515498,0.116554,-0.0627106,0.0951999,0.034543,-0.00587897,0.145767,-0.05024364908181256,0.09987869890389622,0.03514653872030005,0.12361818421094561,-0.00586172267126428,-0.06078475674642192
286,0.2766,32.7172,398.832,0.194997,114.453,-230.067,3.69474,-0.0517304,0.116949,-0.0629229,0.0955321,0.0345971,-0.00589334,0.146309,-0.05041515959092324,0.1002441393039617,0.0352025416629107,0.12406210106151505,-0.005876008335666816,-0.06098413097824107
287,0.2776,32.7451,399.179,0.195378,114.551,-230.281,3.70097,-0.0519109,0.117344,-0.0631351,0.0958641,0.0346512,-0.0059077,0.146851,-0.05058654418669206,0.10060948100157674,0.035258547635362625,0.12450619329387624,-0.005890283853688616,-0.06118336900574517
288,0.2786,32.7729,399.525,0.195758,114.65,-230.495,3.70717,-0.0520913,0.117738,-0.0633472,0.096196,0.0347052,-0.00592204,0.147393,-0.05075780292611798,0.10097483391528317,0.03531445310636916,0.12494933602741987,-0.005904539284806498,-0.06138247089767701
289,0.2796,32.8007,399.871,0.196138,114.748,-230.708,3.71332,-0.0522716,0.118133,-0.0635592,0.0965278,0.034759,-0.00593638,0.147935,-0.050928935866152325,0.10134019797572202,0.035370154522300856,0.1253937787868169,-0.005918794511502901,-0.06158143672272409
290,0.2806,32.8285,400.215,0.196517,114.846,-230.921,3.71943,-0.0524519,0.118527,-0.0637711,0.0968594,0.0348128,-0.0059507,0.148477,-0.051100037953698885,0.10170546294295524,0.03542585893504935,0.12583727129794653,-0.00593302965244169,-0.0617802665495184
291,0.2816,32.8562,400.559,0.196896,114.943,-231.133,3.7255,-0.0526321,0.118921,-0.0639829,0.0971909,0.0348665,-0.00596501,0.149018,-0.05127101432142622,0.10207073884505657,0.03548146279662445,0.12628093857955291,-0.00594725464900725,-0.061978960446636755
292,0.2826,32.8838,400.901,0.197275,115.041,-231.344,3.73153,-0.0528122,0.119315,-0.0641946,0.0975222,0.0349201,-0.00597931,0.149559,-0.0514418650261792,0.10243591536898711,0.035536966090505384,0.1267247807005094,-0.005961469501629346,-0.06217751848260056
293,0.2836,32.9114,401.243,0.197652,115.138,-231.555,3.73753,-0.0529922,0.119708,-0.0644063,0.0978534,0.0349736,-0.00599361,0.1501,-0.05161259012475461,0.10280110261582709,0.03559236880020045,0.12716767056148215,-0.005975684150980487,-0.06237603448827711
294,0.2846,32.9389,401.584,0.19803,115.235,-231.765,3.74348,-0.0531722,0.120102,-0.0646178,0.0981845,0.0350271,-0.00600789,0.150641,-0.05178328449557801,0.10316630051607922,0.03564777447401979,0.1276118621236748,-0.005989878716861297,-0.06257432098744642
295,0.2856,32.9664,401.924,0.198407,115.332,-231.975,3.7494,-0.0533521,0.120495,-0.0648293,0.0985154,0.0350804,-0.00602216,0.151182,-0.0519538533395697,0.1035313986470745,0.03570297597150618,0.1280551006761601,-0.006004063140085947,-0.06277256555345578
296,0.2866,32.9938,402.264,0.198784,115.429,-232.184,3.75528,-0.0535319,0.120888,-0.0650406,0.0988462,0.0351337,-0.00603641,0.151722,-0.05212429671342067,0.10389650721937538,0.035758180411310736,0.12849851345563001,-0.006018227481265015,-0.06297058078930784
297,0.2876,33.0212,402.602,0.199162,115.525,-232.393,3.76112,-0.0537116,0.121281,-0.0652519,0.0991768,0.0351868,-0.00605066,0.152263,-0.052294614673774276,0.10426151573724551,0.03581318063093342,0.1289421005305691,-0.00603239162060365,-0.06316855418896083
298,0.2886,33.0485,402.94,0.199536,115.621,-232.601,3.76693,-0.0538913,0.121674,-0.065463,0.0995073,0.0352399,-0.0060649,0.152803,-0.05246490203074006,0.1046265344842221,0.03586818377114542,0.12938586196948876,-0.00604654561857032,-0.06336629843453212
299,0.2896,33.0758,403.277,0.199913,115.717,-232.809,3.7727,-0.0540709,0.122066,-0.0656741,0.0998377,0.0352929,-0.00607913,0.153343,-0.052635064053328406,0.1049915633906704,0.035923086239787905,0.12982866801169468,-0.006060689475592351,-0.0635640009406988
300,0.2906,33.103,403.613,0.200288,115.813,-233.016,3.77844,-0.0542504,0.122459,-0.0658851,0.100168,0.0353459,-0.00609335,0.153882,-0.05280510079807643,0.10535660238692968,0.035977991618338256,0.13027277794010828,-0.0060748231920970674,-0.06376156809243283
301,0.2916,33.1302,403.948,0.200664,115.909,-233.223,3.78414,-0.0544298,0.122851,-0.066096,0.100498,0.0353987,-0.00610756,0.154422,-0.052975012321473836,0.10572143025900549,0.036032692700391555,0.13071593172152718,-0.006088946768511239,-0.06395899995780019
302,0.2926,33.1573,404.283,0.201037,116.004,-233.429,3.7898,-0.0546092,0.123243,-0.0663068,0.100828,0.0354515,-0.00612175,0.154961,-0.05314489336547812,0.10608637854414615,0.03608739667073824,0.1311592592532813,-0.006103050266292098,-0.06415629660481181
303,0.2936,33.1844,404.616,0.201412,116.1,-233.634,3.79543,-0.0547885,0.123635,-0.0665175,0.101158,0.0355042,-0.00613594,0.1555,-0.05331464926702634,0.10645144728209455,0.03614199991532563,0.13160276060349396,-0.00611715356394571,-0.06435345810142412
304,0.2946,33.2114,404.949,0.201787,116.195,-233.84,3.80103,-0.0549677,0.124027,-0.0667281,0.101488,0.0355567,-0.00615012,0.156039,-0.05348428008250272,0.10681663651260642,0.036196398798279406,0.13204643584031572,-0.00613124672278742,-0.06455048451553835
305,0.2956,33.2384,405.281,0.20216,116.289,-234.044,3.8066,-0.0551468,0.124418,-0.0669386,0.101817,0.0356093,-0.00616429,0.156578,-0.05365378586824365,0.10718083909405873,0.036250904162334674,0.13248915254220406,-0.006145329743242889,-0.06474737591500102
306,0.2966,33.2653,405.612,0.202534,116.384,-234.248,3.81213,-0.0553259,0.12481,-0.067149,0.102146,0.0356617,-0.00617845,0.157116,-0.05382326129821691,0.10754516151787308,0.036305205132385776,0.13293317531277782,-0.006159402625737442,-0.06494413236760388
307,0.2976,33.2921,405.943,0.202907,116.478,-234.452,3.81763,-0.0555048,0.125201,-0.0673593,0.102476,0.035714,-0.00619259,0.157655,-0.05399251717638098,0.1079107117336422,0.03635940531193649,0.13337623879759186,-0.006173455432430752,-0.06514075394108387
308,0.2986,33.319,406.272,0.20328,116.573,-234.655,3.82309,-0.0556838,0.125592,-0.0675696,0.102805,0.0357663,-0.00620673,0.158193,-0.05416183736119773,0.10827527432506057,0.03641360832623075,0.13381947555410068,-0.006187508040418788,-0.06533733416939458
309,0.2996,33.3457,406.601,0.203651,116.667,-234.857,3.82853,-0.0558626,0.125983,-0.0677797,0.103134,0.0358185,-0.00622086,0.158731,-0.054330938106620374,0.10863995687730377,0.03646771052864062,0.13426288565006694,-0.006201550511719889,-0.06553368616798583
310,0.3006,33.3724,406.929,0.204015,116.76,-235.06,3.83394,-0.0560413,0.126374,-0.0679898,0.103463,0.0358706,-0.00623498,0.159269,-0.05449991406952881,0.10900475942984578,0.03652171190308273,0.13470646915327977,-0.006215582846758161,-0.0657299969173556
311,0.3016,33.3991,407.256,0.204392,116.854,-235.261,3.83931,-0.05622,0.126764,-0.0681997,0.103791,0.0359226,-0.00624909,0.159806,-0.0546688598391305,0.10936857265304578,0.03657561243350349,0.13514909098189598,-0.006229605045957376,-0.06592607961140395
312,0.3026,33.4257,407.583,0.204767,116.948,-235.462,3.84466,-0.0563986,0.127155,-0.0684096,0.10412,0.0359746,-0.00626319,0.160344,-0.05483768090459329,0.10973361495961531,0.03662951576682438,0.13559302105914428,-0.006243617109740862,-0.0661221211520141
313,0.3036,33.4522,407.909,0.205135,117.041,-235.663,3.84997,-0.0565772,0.127545,-0.0686194,0.104449,0.0360265,-0.00627728,0.160881,-0.055006471821306246,0.11009877738486207,0.03668331823485471,0.13603598871043476,-0.0062576190385320585,-0.06631802817963062
314,0.3046,33.4788,408.234,0.205507,117.134,-235.863,3.85526,-0.0567556,0.127935,-0.0688291,0.104777,0.0360782,-0.00629137,0.161418,-0.05517504362968084,0.11046294950480706,0.036736916147901644,0.13647912915280114,-0.0062716207700372895,-0.0665138007616487
315,0.3056,33.5052,408.558,0.205877,117.227,-236.063,3.86051,-0.056934,0.128325,-0.0690387,0.105105,0.03613,-0.00630544,0.161954,-0.05534358536752726,0.11082724109279907,0.036790620511089056,0.1369224424536455,-0.006285602429971893,-0.06670943896540904
316,0.3066,33.5316,408.882,0.206244,117.319,-236.262,3.86574,-0.0571123,0.128714,-0.0692482,0.105433,0.0361816,-0.0063195,0.162491,-0.055512002591414644,0.11119165218803007,0.0368441202873897,0.13736479131503532,-0.006299573956181637,-0.06690494285819804
317,0.3076,33.558,409.204,0.206614,117.412,-236.461,3.87094,-0.0572906,0.129104,-0.0694576,0.105761,0.0362332,-0.00633356,0.163027,-0.05568038978918777,0.11155618282970492,0.036897622824350274,0.13780845009148623,-0.0063135452859531815,-0.06710031250724735
318,0.3086,33.5843,409.526,0.206984,117.504,-236.659,3.87611,-0.0574687,0.129493,-0.0696669,0.106089,0.0362846,-0.0063476,0.163564,-0.05584855813593048,0.11192083305704115,0.036950920731907866,0.13825114367689184,-0.006327496545839306,-0.0672955479797347
319,0.3096,33.6105,409.848,0.207351,117.596,-236.857,3.88125,-0.0576468,0.129882,-0.0698761,0.106416,0.0363361,-0.00636164,0.1641,-0.05601669653455765,0.11228449062422241,0.0370043250794756,0.1386940095036009,-0.006341447609851114,-0.06749064934278315
320,0.3106,33.6368,410.168,0.20772,117.688,-237.054,3.88637,-0.0578248,0.130271,-0.0700853,0.106744,0.0363874,-0.00637567,0.164635,-0.05618471060887831,0.11264937977569667,0.03705752476591262,0.13913704763862822,-0.0063553885415452704,-0.06768570989489553
321,0.3116,33.6629,410.488,0.208087,117.78,-237.251,3.89146,-0.0580028,0.13066,-0.0702943,0.107071,0.0364386,-0.00638969,0.165171,-0.05635269477935523,0.1130132756166109,0.037110623470495874,0.1395802581490151,-0.006369319341342772,-0.06788054322073578
322,0.3126,33.689,410.807,0.208455,117.871,-237.447,3.89652,-0.0581806,0.131049,-0.0705033,0.107399,0.0364898,-0.0064037,0.165706,-0.0565204603554218,0.11337840384876974,0.037163724893802375,0.1400236411018283,-0.006383240009664282,-0.06807533583066583
323,0.3136,33.7151,411.125,0.208821,117.962,-237.643,3.90155,-0.0583584,0.131437,-0.0707121,0.107726,0.0365409,-0.0064177,0.166242,-0.05668819610542053,0.11374253811953672,0.03721672531429365,0.1404660560975346,-0.00639715054693013,-0.06826990138719335
324,0.3146,33.7411,411.443,0.209188,118.053,-237.838,3.90656,-0.0585361,0.131826,-0.0709209,0.108053,0.036592,-0.00643169,0.166777,-0.05685580772023957,0.11410679148168068,0.037269728443175554,0.1409097836927784,-0.0064110509535604265,-0.06846442632267369
325,0.3156,33.767,411.76,0.209554,118.144,-238.033,3.91155,-0.0587138,0.132214,-0.0711296,0.108379,0.0366429,-0.00644567,0.167311,-0.05702338955312081,0.11447004950354422,0.03732252681606063,0.14135254257852048,-0.006424941229974834,-0.06865881751147407
326,0.3166,33.793,412.076,0.20992,118.235,-238.228,3.9165,-0.0588913,0.132602,-0.0713381,0.108706,0.0366938,-0.00645965,0.167846,-0.05719075304752563,0.11483454080081112,0.03737532787645104,0.14179547328804198,-0.006438831312204574,-0.06885298190568145
327,0.3176,33.8188,412.391,0.210285,118.326,-238.422,3.92143,-0.0590688,0.132989,-0.0715466,0.109033,0.0367446,-0.00647361,0.16838,-0.05735808683754651,0.1151991513062216,0.037428027881676096,0.1422374336500185,-0.006452701329306421,-0.06904710582083273
328,0.3186,33.8446,412.706,0.210651,118.416,-238.615,3.92634,-0.0592463,0.133377,-0.0717551,0.109359,0.0367953,-0.00648757,0.168915,-0.05752539092845543,0.11556276549544009,0.037480626816061235,0.14268070776389163,-0.006466571152784373,-0.06924118926536682
329,0.3196,33.8704,413.02,0.211016,118.506,-238.808,3.93122,-0.0594236,0.133765,-0.0719634,0.109685,0.036846,-0.00650152,0.169449,-0.057692476864038,0.11592649824220791,0.03753322841728024,0.14312415390149158,-0.0064804308474450956,-0.06943504613474893
330,0.3206,33.8961,413.333,0.211379,118.596,-239.001,3.93608,-0.0596009,0.134152,-0.0721716,0.110012,0.0368966,-0.00651546,0.169983,-0.05785953317791015,0.11629146587608918,0.03758572892688972,0.143566628562376,-0.006494280413707476,-0.0696287695908322
331,0.3216,33.9218,413.646,0.211744,118.686,-239.193,3.94091,-0.0597781,0.134539,-0.0723797,0.110338,0.0369471,-0.00652939,0.170516,-0.05802646567797465,0.11665543621790708,0.03763812832927438,0.14400927449409284,-0.006508119851989402,-0.06982235970013084
332,0.3226,33.9474,413.958,0.212107,118.776,-239.385,3.94572,-0.0599552,0.134926,-0.0725878,0.110663,0.0369976,-0.00654332,0.17105,-0.05819327441955302,0.11701840821443232,0.037690530377895604,0.14445209176293683,-0.006521959097489205,-0.07001590952751924
333,0.3236,33.9729,414.269,0.212471,118.865,-239.577,3.95051,-0.0601323,0.135313,-0.0727957,0.110989,0.0370479,-0.00655723,0.171583,-0.058360053621919095,0.11738261557808505,0.03774272752432095,0.14489508043522847,-0.006535778280925553,-0.07020923312324434
334,0.3246,33.9985,414.58,0.212834,118.954,-239.767,3.95527,-0.0603092,0.135699,-0.0730036,0.111315,0.0370982,-0.00657114,0.172116,-0.05852661499564549,0.11774694169269351,0.037794927296328495,0.14533709523964555,-0.00654959727213833,-0.07040251653117158
335,0.3256,34.0239,414.889,0.213196,119.043,-239.958,3.96001,-0.0604861,0.136086,-0.0732113,0.11164,0.0371485,-0.00658504,0.172649,-0.0586931469072709,0.11811026848614947,0.037847129694050796,0.14578042647456413,-0.006563406136764427,-0.07059557387878845
336,0.3266,34.0494,415.199,0.213558,119.132,-240.148,3.96473,-0.060663,0.136472,-0.073419,0.111966,0.0371986,-0.00659893,0.173182,-0.058859649362006716,0.11847483185427632,0.03789912713777355,0.14622278308851722,-0.006577204875220732,-0.0707885911325582
337,0.3276,34.0747,415.507,0.21392,119.221,-240.338,3.96942,-0.0608397,0.136858,-0.0736266,0.112291,0.0372487,-0.00661281,0.173714,-0.05902593417026891,0.11883839525048079,0.037951127186633515,0.14666531048508236,-0.006590993487923913,-0.07098147539895949
338,0.3286,34.1001,415.815,0.214282,119.31,-240.527,3.9741,-0.0610164,0.137244,-0.0738341,0.112616,0.0372987,-0.00662669,0.174246,-0.0591921895986014,0.11920207682399164,0.03800302604045336,0.14710800873019436,-0.006604781909242408,-0.07117422674417051
339,0.3296,34.1253,416.122,0.214643,119.398,-240.716,3.97875,-0.061193,0.13763,-0.0740415,0.112941,0.0373487,-0.00664056,0.174778,-0.05935832158803178,0.11956587661322304,0.038054927489280965,0.14755087788981314,-0.006618560205364665,-0.07136684523431591
340,0.3306,34.1506,416.429,0.215004,119.486,-240.904,3.98337,-0.0613696,0.138016,-0.0742488,0.113266,0.0373986,-0.00665441,0.17531,-0.05952442424114346,0.11992979465660114,0.038106727722567735,0.1479939180299248,-0.0066323184430298054,-0.07155933093546651
341,0.3316,34.1757,416.734,0.215364,119.574,-241.092,3.98798,-0.061546,0.138401,-0.0744561,0.11359,0.0374484,-0.00666827,0.175842,-0.059690309501197136,0.12029271069929415,0.03815842672490266,0.14843598077998532,-0.006646086423683806,-0.071751776738467
342,0.3326,34.2009,417.039,0.215724,119.662,-241.279,3.99257,-0.0617224,0.138786,-0.0746632,0.113915,0.0374981,-0.00668211,0.176373,-0.05985616550167183,0.12065686500214023,0.03821002448090449,0.14887821375697108,-0.0066598343467119125,-0.0719439970404051
343,0.3336,34.226,417.344,0.216085,119.75,-241.466,3.99713,-0.0618987,0.139172,-0.0748703,0.114239,0.0375478,-0.00669594,0.176905,-0.06002189824992288,0.12102001665379158,0.03826162480137851,0.14932176634762406,-0.006673572146205786,-0.07213617753764068
344,0.3346,34.251,417.648,0.216443,119.837,-241.653,4.00168,-0.062075,0.139556,-0.0750772,0.114564,0.0375974,-0.00670977,0.177436,-0.060187601782065836,0.12138440736948808,0.038313123855134856,0.14976319065394406,-0.006687309755707194,-0.07232813270406147
345,0.3356,34.276,417.951,0.216803,119.924,-241.839,4.0062,-0.0622512,0.139941,-0.0752841,0.114888,0.0376469,-0.00672359,0.177967,-0.0603531821385741,0.12174779478305786,0.03836452162685,0.1502059347051068,-0.0067010372422292575,-0.07252004815906654
346,0.3366,34.3009,418.253,0.217161,120.011,-242.025,4.01071,-0.0624273,0.140326,-0.0754909,0.115212,0.0376964,-0.0067374,0.178498,-0.06051863937426227,0.12211129995322523,0.03841592194281773,0.15064884924554645,-0.006714754606186313,-0.07271183118205915
347,0.3376,34.3258,418.555,0.217519,120.098,-242.21,4.01519,-0.0626033,0.14071,-0.0756976,0.115536,0.0377458,-0.0067512,0.179028,-0.06068397354389865,0.12247492291814943,0.038467220956436954,0.15109078324955494,-0.006728461847992473,-0.07290348183877615
348,0.3386,34.3507,418.856,0.217877,120.185,-242.395,4.01965,-0.0627792,0.141095,-0.0759042,0.11586,0.0377951,-0.006765,0.179558,-0.06084918470220502,0.12283866371600216,0.03851841865244299,0.151534038522271,-0.006742168900640166,-0.07309500019490078
349,0.3396,34.3755,419.157,0.218235,120.272,-242.58,4.0241,-0.0629551,0.141479,-0.0761107,0.116183,0.0378444,-0.00677879,0.180089,-0.061014366802424225,0.12320139918300654,0.0385696188725575,0.1519763125042335,-0.006755865831690411,-0.07328638631606343
350,0.3406,34.4002,419.457,0.218592,120.358,-242.764,4.02852,-0.0631309,0.141863,-0.0763171,0.116507,0.0378936,-0.00679257,0.180618,-0.06117942596761461,0.1235653753973045,0.03862071775482834,0.15241875635201696,-0.006769552641556986,-0.07347764026784098
351,0.3416,34.4249,419.756,0.218949,120.444,-242.948,4.03293,-0.0633067,0.142247,-0.0765234,0.11683,0.0379427,-0.00680634,0.181148,-0.06134445611795425,0.1239283456300948,0.038671715284049224,0.15286137013086298,-0.006783229330652896,-0.07366876211575735
352,0.3426,34.4496,420.055,0.219306,120.53,-243.131,4.03732,-0.0634823,0.14263,-0.0767297,0.117153,0.0379918,-0.00682011,0.181678,-0.061509269560416246,0.12429143312120638,0.0387227153173102,0.15330300060245983,-0.0067969058314220065,-0.07385984453930317
353,0.3436,34.4742,420.353,0.219662,120.616,-243.314,4.04168,-0.0636579,0.143014,-0.0769358,0.117476,0.0380408,-0.00683386,0.182207,-0.061674054064178585,0.12465463790852005,0.03877361397736778,0.15374595399629976,-0.0068105622800785914,-0.07405070235676992
354,0.3446,34.4988,420.65,0.220018,120.702,-243.497,4.04603,-0.0638334,0.143397,-0.0771419,0.117799,0.0380897,-0.00684761,0.182736,-0.061838715818198775,0.12501796002992838,0.03882441124907432,0.1541879233284047,-0.0068242185409601586,-0.0742415208424938
355,0.3456,34.5233,420.947,0.220373,120.788,-243.679,4.05037,-0.0640089,0.14378,-0.0773479,0.118122,0.0381386,-0.00686136,0.183265,-0.06200334867661672,0.12538139952333638,0.03887521100482827,0.1546300619671841,-0.0068378746140695945,-0.07443220744780554
356,0.3466,34.5478,421.243,0.220729,120.873,-243.861,4.05468,-0.0641843,0.144163,-0.0775538,0.118445,0.0381874,-0.00687509,0.183794,-0.062167858861293945,0.1257449564266615,0.03892590935215501,0.15507236997749474,-0.006851510636439628,-0.07462276223800324
357,0.3476,34.5722,421.539,0.221084,120.958,-244.042,4.05897,-0.0643596,0.144546,-0.0777596,0.118767,0.0382362,-0.00688882,0.184323,-0.06233224642664448,0.1261075046697655,0.03897661017362131,0.15551484742421828,-0.006865146471588313,-0.0748131852783317
358,0.3486,34.5966,421.834,0.221438,121.043,-244.223,4.06325,-0.0645348,0.144928,-0.0779653,0.11909,0.0382848,-0.00690254,0.184851,-0.06249651142703627,0.12647129614293395,0.039027105663906214,0.15595633841534506,-0.006878772188306126,-0.07500347663398299
359,0.3496,34.621,422.128,0.221792,121.128,-244.404,4.06751,-0.06471,0.145311,-0.0781709,0.119412,0.0383335,-0.00691625,0.185379,-0.06266074765072094,0.12683407830508542,0.03907770751609729,0.15639915448682262,-0.006892387787004295,-0.07519363637009635
360,0.3506,34.6452,422.421,0.222146,121.213,-244.584,4.07175,-0.064885,0.145693,-0.0783764,0.119734,0.038382,-0.00692996,0.185907,-0.06282476766771206,0.1271969773019026,0.03912810400701683,0.1568409833477764,-0.006906003199033783,-0.07538366455175782
361,0.3516,34.6695,422.715,0.2225,121.298,-244.764,4.07598,-0.06506,0.146075,-0.0785819,0.120056,0.0384305,-0.00694366,0.186435,-0.06298875898371148,0.12755999317101208,0.03917850294222536,0.1572829810195957,-0.006919608493593521,-0.07557365368664026
362,0.3526,34.6937,423.007,0.222853,121.382,-244.943,4.08019,-0.065235,0.146457,-0.0787872,0.120378,0.0384789,-0.00695735,0.186962,-0.06315272160374164,0.12792312595005306,0.03922880039895649,0.1577251475667787,-0.006933203671094068,-0.07576341893546912
363,0.3536,34.7179,423.299,0.223206,121.466,-245.122,4.08438,-0.0654099,0.146839,-0.0789925,0.1207,0.0385273,-0.00697103,0.18749,-0.06331656186448475,0.12828637567667633,0.039279100290143365,0.15816748305384842,-0.006946788731945763,-0.07595314522949115
364,0.3546,34.742,423.59,0.223558,121.55,-245.301,4.08856,-0.0655847,0.147221,-0.0791977,0.121022,0.0385756,-0.00698471,0.188017,-0.06348027982010462,0.12864974238854532,0.03932929868296875,0.15860998754535172,-0.006960373606955228,-0.07614274019098177
365,0.3556,34.766,423.881,0.223911,121.634,-245.479,4.09272,-0.0657594,0.147602,-0.0794028,0.121343,0.0386238,-0.00699838,0.188544,-0.06364387552471917,0.1290120971106734,0.03937939556249037,0.1590515020537795,-0.006973948365864291,-0.07633220388480266
366,0.3566,34.7901,424.171,0.224263,121.718,-245.657,4.09686,-0.065934,0.147984,-0.0796078,0.121665,0.038672,-0.00701204,0.189071,-0.06380734903240004,0.1293756975424709,0.039429494856739744,0.15949434430504894,-0.006987513009082846,-0.07652153637576287
367,0.3576,34.814,424.46,0.224614,121.802,-245.835,4.10098,-0.0661086,0.148365,-0.0798127,0.121986,0.0387201,-0.00702569,0.189597,-0.06397079400009809,0.1297382853336091,0.039479492617878975,0.15993619581759733,-0.007001067537020456,-0.07671073772861892
368,0.3586,34.838,424.749,0.224965,121.885,-246.012,4.1051,-0.0662831,0.148746,-0.0800175,0.122307,0.0387681,-0.00703934,0.190124,-0.06413411684621229,0.13010098953411098,0.03952938883102419,0.16037821570764588,-0.007014621879939953,-0.07689980800807461
369,0.3596,34.8619,425.037,0.225316,121.968,-246.188,4.10919,-0.0664576,0.149127,-0.0802223,0.122628,0.0388161,-0.00705298,0.19065,-0.06429741119497634,0.13046381018134978,0.0395792874392451,0.16082040403935882,-0.007028166108125733,-0.07708883956990187
370,0.3606,34.8857,425.325,0.225667,122.051,-246.365,4.11327,-0.0666319,0.149507,-0.0804269,0.122949,0.0388641,-0.00706662,0.191176,-0.0644604899434793,0.13082674731271116,0.039629188442656504,0.16126159961474396,-0.0070417101515694025,-0.0772776478775774
371,0.3616,34.9095,425.612,0.226017,122.134,-246.541,4.11733,-0.0668062,0.149888,-0.0806315,0.12327,0.0389119,-0.00708024,0.191702,-0.06462354026983341,0.13118980096559252,0.03967888390557617,0.16170412457984984,-0.007055234151378431,-0.07746641755902473
372,0.3626,34.9333,425.899,0.226367,122.217,-246.717,4.12138,-0.0669805,0.150268,-0.0808359,0.12359,0.0389597,-0.00709386,0.192228,-0.06478656217899226,0.1315518396249975,0.03972858174399585,0.16214565603285314,-0.007068757966991912,-0.07765496415315731
373,0.3636,34.957,426.185,0.226717,122.3,-246.892,4.12542,-0.0671546,0.150648,-0.0810403,0.123911,0.0390075,-0.00710747,0.192753,-0.06494936866580092,0.1319151260698721,0.039778281958028794,0.16258735529969126,-0.00708227166923503,-0.07784347221230448
374,0.3646,34.9806,426.47,0.227066,122.382,-247.067,4.12944,-0.0673287,0.151028,-0.0812446,0.124231,0.0390551,-0.00712108,0.193278,-0.06511214681046762,0.13227739687045115,0.039827776582212815,0.16302922244414542,-0.007095785187557935,-0.0780318495475314
375,0.3656,35.0043,426.755,0.227414,122.464,-247.241,4.13344,-0.0675027,0.151408,-0.0814488,0.124551,0.0391028,-0.00713468,0.193803,-0.06527480314541101,0.13263978361623674,0.03987737755012932,0.16347125753002145,-0.00710928859305604,-0.07822009622321413
376,0.3666,35.0278,427.039,0.227764,122.547,-247.415,4.13743,-0.0676766,0.151788,-0.081653,0.124872,0.0391503,-0.00714827,0.194328,-0.06543733772435278,0.13300341934718984,0.039926772898693175,0.16391346062114898,-0.0071227818861369085,-0.07840830446285008
377,0.3676,35.0514,427.323,0.228112,122.629,-247.589,4.1414,-0.0678505,0.152168,-0.081857,0.125192,0.0391978,-0.00716186,0.194853,-0.06559984404098873,0.1333660384573443,0.03997617059359193,0.16435583178138224,-0.007136274995845238,-0.0785962899935636
378,0.3686,35.0749,427.606,0.22846,122.71,-247.763,4.14536,-0.0680243,0.152547,-0.082061,0.125511,0.0392453,-0.00717543,0.195377,-0.06576222867646087,0.13372763989597525,0.040025570634936836,0.16479720627681105,-0.0071497480651785406,-0.07878423717914018
379,0.3696,35.0983,427.888,0.228808,122.792,-247.936,4.14931,-0.068198,0.152926,-0.0822648,0.125831,0.0392927,-0.00718901,0.195902,-0.06592449168438952,0.1340904907937892,0.04007486901534718,0.16523874808487715,-0.007163230880051219,-0.07897196182181221
380,0.3706,35.1217,428.17,0.229155,122.874,-248.109,4.15324,-0.0683717,0.153305,-0.0824686,0.126151,0.03934,-0.00720257,0.196426,-0.0660867265096815,0.13445345782247053,0.04012406572014471,0.1656804572690045,-0.007176693655362665,-0.07915964821010035
381,0.3716,35.1451,428.451,0.229502,122.955,-248.281,4.15716,-0.0685453,0.153684,-0.0826723,0.12647,0.0393873,-0.00721613,0.19695,-0.06624883978212026,0.1348154062032132,0.040173264752001,0.1661223338926403,-0.007190156248120139,-0.07934720428652509
382,0.3726,35.1684,428.732,0.229849,123.036,-248.453,4.16107,-0.0687188,0.154063,-0.0828759,0.126789,0.0394345,-0.00722968,0.197473,-0.06641083155522531,0.13517747006390746,0.04022236208878538,0.16656437801925628,-0.007203608730362188,-0.07953463011513551
383,0.3736,35.1917,429.013,0.230195,123.117,-248.625,4.16496,-0.0688922,0.154441,-0.0830794,0.127109,0.0394816,-0.00724322,0.197997,-0.06657270188247078,0.1355407849816146,0.040271357715877754,0.167005422706342,-0.007217051102494931,-0.07972192575992887
384,0.3746,35.2149,429.292,0.230542,123.198,-248.796,4.16884,-0.0690656,0.15482,-0.0832829,0.127428,0.0395287,-0.00725676,0.19852,-0.06673454414383473,0.1359030802750507,0.040320355650718565,0.1674478015870502,-0.007230493292619156,-0.07990918329393637
385,0.3756,35.2381,429.572,0.230887,123.279,-248.967,4.1727,-0.0692389,0.155198,-0.0834862,0.127747,0.0395757,-0.00727029,0.199043,-0.06689626503381474,0.136265491159121,0.04036925185648599,0.167889180271366,-0.007243925373176752,-0.08009621874417505
386,0.3766,35.2613,429.85,0.231233,123.359,-249.138,4.17655,-0.0694121,0.155576,-0.0836894,0.128065,0.0396227,-0.00728381,0.199566,-0.067057864605784,0.13662688104325582,0.04041815036042906,0.16833072582836128,-0.007257347344572951,-0.08028312420228856
387,0.3776,35.2844,430.128,0.231578,123.44,-249.308,4.18039,-0.0695853,0.155954,-0.0838926,0.128384,0.0396696,-0.00729733,0.200089,-0.06721943619113102,0.1369895228566027,0.040466947115955776,0.1687724383211262,-0.007270769134505306,-0.08046999168507141
388,0.3786,35.3074,430.406,0.231923,123.52,-249.478,4.18421,-0.0697583,0.156332,-0.0840957,0.128703,0.0397165,-0.00731084,0.200611,-0.0673807932708802,0.13735228037114133,0.04051574616010423,0.16921431781277385,-0.007284180815818164,-0.08065672926591694
389,0.3796,35.3304,430.683,0.232268,123.6,-249.648,4.18803,-0.0699314,0.15671,-0.0842987,0.129021,0.0397633,-0.00732435,0.201134,-0.06754221568405205,0.1377140159092014,0.04056444343653198,0.16965636436644238,-0.007297592315940515,-0.08084333700854929
390,0.3806,35.3534,430.959,0.232612,123.68,-249.817,4.19182,-0.0701043,0.157087,-0.0845016,0.129339,0.0398101,-0.00733784,0.201656,-0.06770342369812588,0.13807586649745485,0.04061314299204555,0.17009740794729966,-0.0073109837810945155,-0.08102981497664064
391,0.3816,35.3764,431.235,0.232956,123.76,-249.986,4.19561,-0.0702772,0.157464,-0.0847044,0.129658,0.0398568,-0.00735133,0.202178,-0.06786460384174353,0.13843897061089439,0.040661740760572274,0.17053861783293356,-0.007324375065598909,-0.08121616323381142
392,0.3826,35.3993,431.51,0.2333,123.84,-250.155,4.19939,-0.07045,0.157841,-0.0849072,0.129976,0.0399034,-0.00736482,0.202699,-0.06802566292229428,0.138801051771402,0.04071023672763907,0.17097999408605258,-0.007337766169456028,-0.08140247370338738
393,0.3836,35.4221,431.785,0.233643,123.919,-250.323,4.20315,-0.0706227,0.158218,-0.0851098,0.130294,0.03995,-0.0073783,0.203221,-0.06818660099290519,0.13916324809202796,0.040758734954670306,0.1714215367693892,-0.0073511471661800165,-0.08158856271076209
394,0.3846,35.4449,432.06,0.233987,123.999,-250.491,4.2069,-0.0707954,0.158595,-0.0853124,0.130611,0.0399965,-0.00739177,0.203742,-0.06834751127191119,0.13952442008440946,0.040807131361053406,0.17186324594569946,-0.007364518056174552,-0.08177461402032293
395,0.3856,35.4677,432.333,0.234329,124.078,-250.658,4.21064,-0.070968,0.158972,-0.0855149,0.130929,0.040043,-0.00740523,0.204263,-0.06850830061494628,0.13988684647273786,0.04085553001792186,0.17230512167776268,-0.007377878839843199,-0.08196053583576468
396,0.3866,35.4904,432.607,0.234672,124.157,-250.826,4.21436,-0.0711405,0.159348,-0.0857173,0.131247,0.0400894,-0.00741869,0.204784,-0.06866896907503706,0.14024938813098475,0.04090382683499216,0.17274599128180523,-0.007391239443676922,-0.08214632822048784
397,0.3876,35.5131,432.879,0.235014,124.236,-250.993,4.21807,-0.0713129,0.159725,-0.0859196,0.131564,0.0401357,-0.00743214,0.205305,-0.06882951670516513,0.14061090448433688,0.04095202179787938,0.17318819987160006,-0.0074045899417241046,-0.08233199123784152
398,0.3886,35.5358,433.152,0.235356,124.315,-251.159,4.22178,-0.0714853,0.160101,-0.0861218,0.131881,0.040182,-0.00744559,0.205826,-0.06899003665926762,0.1409725354565392,0.04100021899224515,0.17362940157547402,-0.007417940260208367,-0.08251752495112263
399,0.3896,35.5584,433.423,0.235698,124.394,-251.326,4.22547,-0.0716576,0.160477,-0.0863239,0.132198,0.0402283,-0.00745903,0.206346,-0.06915043585716352,0.14133428108393176,0.04104841841819251,0.1740707692023804,-0.007431280473444768,-0.08270292942357704
400,0.3906,35.5809,433.695,0.236039,124.472,-251.491,4.22915,-0.0718299,0.160853,-0.086526,0.132515,0.0402745,-0.00747246,0.206866,-0.06931080742065832,0.14169614140286546,0.04109651596616826,0.17451230281471775,-0.0074446105818360975,-0.08288829642957363
401,0.3916,35.6035,433.965,0.236381,124.55,-251.657,4.23281,-0.0720021,0.161228,-0.0867279,0.132832,0.0403206,-0.00748589,0.207386,-0.0694710583016237,0.1420581164497039,0.041144511621845625,0.17495282752149355,-0.007457940511205408,-0.08307344259139049
402,0.3926,35.6259,434.235,0.236721,124.629,-251.822,4.23647,-0.0721742,0.161604,-0.0869298,0.133149,0.0403667,-0.0074993,0.207906,-0.06963118855288664,0.1424202062608213,0.04119250949017372,0.17539469285011755,-0.007471250410980068,-0.08325855137597071
403,0.3936,35.6484,434.505,0.237062,124.707,-251.987,4.24011,-0.0723462,0.161979,-0.0871316,0.133466,0.0404127,-0.00751272,0.208426,-0.06979119822722901,0.1427824108726039,0.04124040544720886,0.17583554851520722,-0.007484570057424533,-0.08344353113521763
404,0.3946,35.6708,434.774,0.237402,124.785,-252.152,4.24375,-0.0725181,0.162355,-0.0873333,0.133782,0.0404587,-0.00752612,0.208945,-0.06995108737738753,0.14314358717729037,0.04128830360750868,0.17627774580933053,-0.007497869675078039,-0.08362838193215805
405,0.3956,35.6931,435.043,0.237753,124.863,-252.316,4.24736,-0.07269,0.16273,-0.087535,0.134099,0.0405046,-0.00753953,0.209464,-0.0701109490449634,0.14350602113717303,0.04133609983755937,0.1767189326813774,-0.007511179039406235,-0.08381319544845267
406,0.3966,35.7155,435.311,0.238079,124.94,-252.48,4.25098,-0.0728619,0.163105,-0.0877365,0.134415,0.0405505,-0.00755292,0.209983,-0.07027078323468039,0.1438674261388353,0.041383898261507346,0.1771602850295262,-0.007524468375746607,-0.0839977884911961
407,0.3976,35.7377,435.579,0.238423,125.018,-252.644,4.25457,-0.0730336,0.163479,-0.087938,0.134731,0.0405963,-0.00756631,0.210502,-0.070430404037361,0.14422894536252429,0.04143159473628866,0.17760062531462784,-0.007537757534143985,-0.08418234434218874
408,0.3986,35.76,435.846,0.23876,125.095,-252.807,4.25816,-0.0732053,0.163854,-0.0881393,0.135047,0.0406421,-0.00757969,0.211021,-0.07058999743550243,0.1445905788443398,0.04147929339561851,0.17804230835951573,-0.007551036590111027,-0.08436667988227808
409,0.3996,35.7822,436.112,0.2391,125.172,-252.97,4.26174,-0.0733769,0.164228,-0.0883406,0.135363,0.0406878,-0.00759306,0.211539,-0.07074947050876146,0.14495232662039292,0.0415268900869028,0.1784829785830373,-0.007564305544048633,-0.08455097831935776
410,0.4006,35.8043,436.378,0.239438,125.249,-253.133,4.2653,-0.0735485,0.164603,-0.0885418,0.135679,0.0407335,-0.00760643,0.212058,-0.07090891621878903,0.14531418872680657,0.04157448895340554,0.1789249925724492,-0.007577574320581593,-0.08473514813441518
411,0.4016,35.8265,436.644,0.239777,125.326,-253.296,4.26886,-0.0737199,0.164977,-0.0887429,0.135994,0.0407791,-0.0076198,0.212576,-0.07106814878392842,0.14567501952412254,0.04162198583302246,0.17936599298160738,-0.007590842919712126,-0.08491918939015686
412,0.4026,35.8485,436.909,0.240115,125.403,-253.458,4.2724,-0.0738913,0.165351,-0.0889439,0.13631,0.0408246,-0.00763315,0.213094,-0.07122735405894509,0.14603711003758013,0.04166938071160331,0.179807158355765,-0.007604091493524701,-0.085103102149238
413,0.4036,35.8706,437.174,0.240453,125.48,-253.62,4.27594,-0.0740627,0.165724,-0.0891449,0.136625,0.0408701,-0.0076465,0.213611,-0.07138653204851597,0.14639816859097854,0.04171677774670002,0.18024730850873216,-0.007617339890470087,-0.08528697794556939
414,0.4046,35.8926,437.438,0.24079,125.556,-253.781,4.27947,-0.0742339,0.166098,-0.0893458,0.13694,0.0409156,-0.00765985,0.214129,-0.07154549706643543,0.1467593408957364,0.041764176938410946,0.18068880355654215,-0.007630588110550396,-0.08547072533365696
415,0.4056,35.9145,437.702,0.241128,125.633,-253.942,4.28298,-0.0744051,0.166472,-0.0895465,0.137255,0.040961,-0.00767319,0.214646,-0.07170443487187328,0.14712062698769057,0.04181147410568142,0.18113046375438113,-0.007643826230206652,-0.085654252941471
416,0.4066,35.9365,437.965,0.241465,125.709,-254.103,4.28649,-0.0745763,0.166845,-0.0897472,0.13757,0.0410063,-0.00768652,0.215163,-0.07186334546948792,0.14748202690268997,0.041858669234420054,0.18157110759232853,-0.00765705424983798,-0.08583774371899022
417,0.4076,35.9584,438.227,0.241801,125.785,-254.264,4.28998,-0.0747473,0.167218,-0.0899478,0.137885,0.0410516,-0.00769984,0.21568,-0.07202204326836414,0.14784354067659455,0.04190586650114647,0.18201191582108422,-0.007670272169843839,-0.0860211062757209
418,0.4086,35.9802,438.49,0.242138,125.861,-254.424,4.29347,-0.0749183,0.167591,-0.0901484,0.1382,0.0410969,-0.00771316,0.216197,-0.0721807139322369,0.1482051683452752,0.041953065905957265,0.18245288850197783,-0.0076834899137881996,-0.08620443205361172
419,0.4096,36.002,438.751,0.242474,125.937,-254.584,4.29694,-0.0750892,0.167964,-0.0903488,0.138515,0.0411421,-0.00772648,0.216713,-0.07233926469967689,0.14856690994461474,0.04200016324892819,0.18289402569636115,-0.007696707481673282,-0.08638753833756574
420,0.4106,36.0238,439.013,0.242812,126.013,-254.744,4.30041,-0.0752601,0.168337,-0.0905491,0.138829,0.0411872,-0.00773978,0.21723,-0.07249778837310594,0.14892761658231568,0.04204715851602603,0.18333532746560954,-0.00770990502769997,-0.08657051658775317
421,0.4116,36.0455,439.273,0.243145,126.088,-254.903,4.30387,-0.0754309,0.168709,-0.0907494,0.139144,0.0412323,-0.00775309,0.217746,-0.07265619222277797,0.14928958578869622,0.04209415590265819,0.18377561009491838,-0.007723112320969339,-0.08675345819106739
422,0.4126,36.0672,439.534,0.243481,126.164,-255.062,4.30732,-0.0756016,0.169082,-0.0909496,0.139458,0.0412774,-0.00776638,0.218262,-0.07281447630083515,0.1496505193822424,0.04214115540892038,0.18421724075648194,-0.0077362995931768985,-0.08693627184847985
423,0.4136,36.0888,439.794,0.243816,126.239,-255.221,4.31075,-0.0757722,0.169454,-0.0911497,0.139772,0.0413223,-0.00777967,0.218778,-0.07297264065937481,0.1500115663267323,0.04218794859729735,0.18465785151856395,-0.007749486690126872,-0.08711895762216171
424,0.4146,36.1105,440.053,0.244151,126.314,-255.379,4.31418,-0.0759428,0.169826,-0.0913497,0.140086,0.0413673,-0.00779295,0.219293,-0.07313077803737644,0.15037272665776347,0.042234848110215495,0.18509862621834006,-0.007762663689448224,-0.0873015155742336
425,0.4156,36.132,440.312,0.244486,126.389,-255.537,4.3176,-0.0761133,0.170198,-0.0915497,0.1404,0.0414122,-0.00780623,0.219808,-0.0732887957683267,0.15073400041094498,0.042281645505489296,0.18553956491680612,-0.007775840513780108,-0.08748403701836593
426,0.4166,36.1536,440.57,0.244821,126.464,-255.695,4.32101,-0.0762837,0.17057,-0.0917495,0.140714,0.041457,-0.0078195,0.220324,-0.07344669390422454,0.15109538762189678,0.04232834076917391,0.18598066767498156,-0.007789007241015056,-0.0876663394951458
427,0.4176,36.1751,440.828,0.245155,126.539,-255.853,4.32442,-0.0764541,0.170941,-0.0919493,0.141027,0.0415018,-0.00783277,0.220839,-0.07360456513657232,0.15145573686993785,0.042375038124853326,0.18642074813256593,-0.007802173793528655,-0.08784860555152929
428,0.4186,36.1965,441.086,0.245489,126.614,-256.01,4.32781,-0.0766244,0.171313,-0.092149,0.141341,0.0415466,-0.00784603,0.221353,-0.07376231684619017,0.15181735074172176,0.04242173757262124,0.18686217875187583,-0.00781533024947667,-0.08803074399787147
429,0.4196,36.218,441.343,0.245822,126.688,-256.167,4.33119,-0.0767946,0.171684,-0.0923486,0.141654,0.0415913,-0.00785928,0.221868,-0.07391994908497901,0.1521779259995879,0.04246833486573243,0.1873025863107436,-0.007828476609256008,-0.0882127548960776
430,0.4206,36.2394,441.599,0.246156,126.763,-256.324,4.33457,-0.0769648,0.172055,-0.0925481,0.141967,0.0416359,-0.00787253,0.222382,-0.07407755449704367,0.15253861413517433,0.042514829990301095,0.18774315729112834,-0.007841622794847347,-0.0883946383080022
431,0.4216,36.2607,441.855,0.246489,126.837,-256.48,4.33793,-0.0771349,0.172426,-0.0927475,0.14228,0.0416805,-0.00788577,0.222897,-0.0742350405104586,0.15289941518381722,0.04256132718859851,0.1881838917536709,-0.007854758884800361,-0.08857639429544939
432,0.4226,36.282,442.111,0.246822,126.911,-256.636,4.34129,-0.0773049,0.172797,-0.0929469,0.142593,0.0417251,-0.007899,0.223411,-0.07439240717702611,0.15326032918086363,0.042607826460717035,0.1886247897590343,-0.007867884879511733,-0.08875811404436584
433,0.4236,36.3033,442.366,0.247155,126.985,-256.792,4.34464,-0.0774749,0.173168,-0.0931461,0.142906,0.0417696,-0.00791223,0.223925,-0.07454974709353424,0.15362135616167238,0.04265422354132209,0.18906585136790444,-0.007881010700567237,-0.08893961534991801
434,0.4246,36.3245,442.621,0.247487,127.059,-256.948,4.34798,-0.0776448,0.173538,-0.0933453,0.143219,0.041814,-0.00792546,0.224438,-0.07470696773523133,0.15398249616161253,0.04270051841658584,0.18950588713450722,-0.007894136347969316,-0.08912108050401091
435,0.4256,36.3457,442.875,0.247819,127.133,-257.103,4.35131,-0.0778146,0.173909,-0.0935444,0.143532,0.0418584,-0.00793867,0.224952,-0.07486406915382193,0.15434374921606486,0.04274681534738778,0.18994727569114866,-0.007907241979865254,-0.08930241844409159
436,0.4266,36.3669,443.129,0.248151,127.206,-257.258,4.35463,-0.0779843,0.174279,-0.0937434,0.143844,0.0419028,-0.00795188,0.225465,-0.07502105140096615,0.15470396065588288,0.04279311433381916,0.19038763764509192,-0.00792034743863701,-0.0894836292317498
437,0.4276,36.388,443.382,0.248483,127.28,-257.413,4.35795,-0.078154,0.174649,-0.0939424,0.144157,0.0419471,-0.00796509,0.225978,-0.07517800701048327,0.15506543956406627,0.04283931109203465,0.19082816256310497,-0.007933452724286694,-0.08966480396204912
438,0.4286,36.4091,443.635,0.248815,127.353,-257.567,4.36125,-0.0783236,0.175019,-0.0941412,0.144469,0.0419913,-0.00797829,0.226491,-0.07533484352038233,0.15542587620640247,0.04288540560826637,0.19126885050549514,-0.007946547916282243,-0.08984576061133454
439,0.4296,36.4302,443.888,0.249146,127.426,-257.721,4.36455,-0.0784932,0.175389,-0.09434,0.144781,0.0420355,-0.00799148,0.227004,-0.07549165343306474,0.1557864253225163,0.04293150216192054,0.1917097015325928,-0.007959633015018897,-0.09002668129001368
440,0.4306,36.4512,444.14,0.249478,127.499,-257.875,4.36784,-0.0786627,0.175758,-0.0945387,0.145093,0.0420797,-0.00800467,0.227516,-0.07564834431788026,0.15614708694750457,0.04297760075308754,0.19214952355463066,-0.007972717941164165,-0.09020747502598891
441,0.4316,36.4722,444.391,0.249807,127.572,-258.028,4.37113,-0.0788321,0.176128,-0.0947373,0.145405,0.0421238,-0.00801785,0.228028,-0.07580491622633778,0.15650786111647608,0.043023597079492326,0.1925907004910461,-0.007985792774578337,-0.09038814188063626
442,0.4326,36.4931,444.643,0.250139,127.645,-258.182,4.3744,-0.0790014,0.176497,-0.0949358,0.145717,0.0421679,-0.00803103,0.22854,-0.07596136920990182,0.15686874786454963,0.043069595434379604,0.193030847661686,-0.007998867435667356,-0.09056868191528167
443,0.4336,36.514,444.893,0.250469,127.718,-258.335,4.37767,-0.0791707,0.176866,-0.0951342,0.146028,0.0422119,-0.0080442,0.229052,-0.07611779570821786,0.15722858999768685,0.04311549150628502,0.19347115727660102,-0.008011932004552857,-0.09074909519120089
444,0.4346,36.5349,445.144,0.250799,127.79,-258.487,4.38093,-0.0793399,0.177235,-0.0953326,0.14634,0.0422559,-0.00805737,0.229564,-0.07627410335318441,0.15758970164825414,0.043161389597661914,0.19391162939574413,-0.008024996401379103,-0.09092947267667673
445,0.4356,36.5557,445.393,0.251129,127.863,-258.64,4.38418,-0.079509,0.177604,-0.0955309,0.146651,0.0422998,-0.00807053,0.230076,-0.07643029219616848,0.1579497680328874,0.04320718538787549,0.19435226407909068,-0.008038050706528965,-0.09110972348978619
446,0.4366,36.5765,445.643,0.251458,127.935,-258.792,4.38742,-0.0796781,0.177973,-0.0957291,0.146962,0.0423437,-0.00808368,0.230587,-0.07658645462985225,0.15830994641558105,0.043252983188568406,0.19479306138663732,-0.00805109492039624,-0.09128984769169246
447,0.4376,36.5973,445.892,0.251788,128.007,-258.944,4.39066,-0.0798471,0.178341,-0.0959272,0.147274,0.0423876,-0.00809683,0.231098,-0.07674249833295554,0.15867139550198828,0.04329878299982881,0.19523282614498028,-0.00806413896273328,-0.09146984534350866
448,0.4386,36.618,446.14,0.252117,128.08,-259.096,4.39388,-0.0800161,0.17871,-0.0961252,0.147585,0.0424314,-0.00810997,0.231609,-0.0768985156669012,0.15903179834572656,0.04334448048729178,0.19567394843988595,-0.00807717291431409,-0.09164971650629794
449,0.4396,36.6387,446.388,0.252446,128.152,-259.247,4.3971,-0.0801849,0.179078,-0.0963231,0.147895,0.0424751,-0.00812311,0.23212,-0.07705432204702822,0.1593911539004469,0.04339007563733599,0.19611403742431843,-0.008090206694629787,-0.09182946124107316
450,0.4406,36.6594,446.636,0.252775,128.223,-259.398,4.40031,-0.0803537,0.179446,-0.096521,0.148206,0.0425188,-0.00813624,0.232631,-0.07721010212925783,0.15975178062385886,0.043435672779931656,0.19655428839130007,-0.008103230384715276,-0.09200917040788492
451,0.4416,36.68,446.883,0.253103,128.295,-259.549,4.40352,-0.0805225,0.179814,-0.0967188,0.148517,0.0425625,-0.00814936,0.233141,-0.0773658559180288,0.16011251951962358,0.04348127191516604,0.1969947014004516,-0.008116243984963134,-0.09218875323265141
452,0.4426,36.7006,447.13,0.253432,128.367,-259.7,4.40672,-0.0806911,0.180182,-0.0969165,0.148827,0.0426061,-0.00816248,0.233651,-0.07752139892207732,0.1604722101498417,0.04352676869044392,0.19743527651141535,-0.00812925741447379,-0.09236820977627347
453,0.4436,36.7211,447.377,0.25376,128.438,-259.85,4.40991,-0.0808597,0.18055,-0.0971141,0.149138,0.0426496,-0.00817559,0.234161,-0.07767691570378599,0.16083317313403311,0.04357216309220302,0.19787601378385578,-0.00814226075467206,-0.0925475400996022
454,0.4446,36.7417,447.623,0.254088,128.51,-260.0,4.41309,-0.0810283,0.180917,-0.0973116,0.149448,0.0426932,-0.0081887,0.234671,-0.07783240626757548,0.16119308720150283,0.04361766383042265,0.1983157149611452,-0.008155263924397582,-0.09272674426343885
455,0.4456,36.7621,447.868,0.254417,128.581,-260.15,4.41627,-0.0811967,0.181284,-0.0975091,0.149758,0.0427366,-0.0082018,0.235181,-0.0779876862154214,0.16155311285962903,0.04366295781990548,0.1987555775383818,-0.0081682570053353,-0.09290591303794793
456,0.4466,36.7826,448.113,0.254742,128.652,-260.299,4.41943,-0.0813651,0.181652,-0.0977065,0.150068,0.0427801,-0.0082149,0.23569,-0.07814294001632582,0.16191325014301028,0.043708358146020476,0.19919680077101143,-0.008181249916064726,-0.0930849557386183
457,0.4476,36.803,448.358,0.25507,128.723,-260.448,4.4226,-0.0815335,0.182019,-0.0979038,0.150378,0.0428234,-0.00822799,0.236199,-0.07829816767469133,0.16227349908625577,0.04375355169636164,0.19963698676608366,-0.008194232738530594,-0.09326387242613943
458,0.4486,36.8234,448.602,0.255397,128.794,-260.597,4.42575,-0.0817017,0.182385,-0.098101,0.150688,0.0428668,-0.00824107,0.236708,-0.07845318488557562,0.16263385972398559,0.043798851583505716,0.20007613426232984,-0.00820720547312448,-0.09344266316115113
459,0.4496,36.8437,448.846,0.255724,128.865,-260.746,4.4289,-0.0818699,0.182752,-0.0982981,0.150998,0.0429101,-0.00825415,0.237217,-0.07860817602475767,0.16299433209083003,0.04384404905229733,0.20051664303201888,-0.008220178038036208,-0.09362132800424339
460,0.4506,36.864,449.09,0.256051,128.935,-260.894,4.43204,-0.082038,0.183119,-0.0984951,0.151307,0.0429533,-0.00826722,0.237726,-0.07876304897293185,0.1633537528670963,0.043889144089262144,0.2009573134980962,-0.008233140515599202,-0.09379986701595655
461,0.4516,36.8843,449.333,0.256377,129.006,-261.043,4.43517,-0.0822061,0.183485,-0.0986921,0.151617,0.0429965,-0.00828029,0.238234,-0.07891789588915155,0.1637144484354096,0.043934241074374825,0.20139694432236976,-0.008246102823743828,-0.09397837085894856
462,0.4526,36.9046,449.576,0.256703,129.076,-261.191,4.4383,-0.0823741,0.183852,-0.098889,0.151926,0.0430397,-0.00829335,0.238743,-0.07907262468505949,0.1640740917620085,0.04397934000771908,0.20183793791831106,-0.008259055045062746,-0.09415674895582649
463,0.4536,36.9248,449.818,0.257029,129.146,-261.338,4.44142,-0.082542,0.184218,-0.0990858,0.152235,0.0430828,-0.00830641,0.239251,-0.07922723541144117,0.16443384623556656,0.044024336486940596,0.20227789111011218,-0.008272007097226752,-0.09433500136701944
464,0.4546,36.9449,450.06,0.257355,129.217,-261.486,4.44453,-0.0827099,0.184584,-0.0992825,0.152544,0.0431259,-0.00831946,0.239759,-0.07938182018086104,0.16479371189043368,0.04406933490555209,0.2027180053542521,-0.008284949063087632,-0.0945131281529068
465,0.4556,36.9651,450.301,0.257681,129.287,-261.633,4.44763,-0.0828777,0.184949,-0.0994791,0.152853,0.0431689,-0.00833251,0.240267,-0.07953628695131021,0.16515368876097014,0.04411423085220889,0.20315707755200774,-0.008297890860056945,-0.09469112937381863
466,0.4566,36.9852,450.542,0.258006,129.357,-261.78,4.45073,-0.0830454,0.185315,-0.0996757,0.153162,0.0432119,-0.00834555,0.240774,-0.07969063577347801,0.16551377688154667,0.04415912872943317,0.20359751363727896,-0.008310822571245269,-0.09486909560313017
467,0.4576,37.0052,450.783,0.258332,129.426,-261.926,4.45383,-0.0832131,0.185681,-0.0998722,0.153471,0.0432549,-0.00835858,0.241282,-0.0798449587135186,0.1658739762865451,0.044204028537307316,0.20403811095166025,-0.008323744197042515,-0.09504693635241823
468,0.4586,37.0253,451.023,0.258656,129.496,-262.073,4.45691,-0.0833807,0.186046,-0.100069,0.153779,0.0432978,-0.00837161,0.241789,-0.07999916377569294,0.16623312077665386,0.044248825851027185,0.20447766507590526,-0.00833666565447222,-0.095225013591969
469,0.4596,37.0453,451.263,0.258981,129.566,-262.219,4.45999,-0.0835482,0.186411,-0.100265,0.154088,0.0433406,-0.00838463,0.242296,-0.08015325101059434,0.1665935424932612,0.044293520657235685,0.20491737966668921,-0.008349577027032096,-0.09540233211152238
470,0.4606,37.0653,451.502,0.259306,129.635,-262.365,4.46307,-0.0837157,0.186776,-0.100461,0.154396,0.0433834,-0.00839765,0.242803,-0.08030731243804534,0.16695290864389545,0.04433821737642263,0.2053572547825926,-0.008362488231487109,-0.0955796158800517
471,0.4616,37.0852,451.741,0.25963,129.705,-262.51,4.46613,-0.083883,0.187141,-0.100657,0.154704,0.0434262,-0.00841066,0.243309,-0.08046116415461957,0.1673123854963512,0.04438291600867039,0.20579729048221806,-0.00837538935159321,-0.0957568649043673
472,0.4626,37.1051,451.98,0.259954,129.774,-262.656,4.46919,-0.0840504,0.187506,-0.100853,0.155012,0.0434689,-0.00842367,0.243816,-0.08061508207245094,0.16767197308473003,0.0444275121113038,0.2062374868241894,-0.008388290303856905,-0.09593407919127861
473,0.4636,37.125,452.218,0.260278,129.843,-262.801,4.47225,-0.0842176,0.187871,-0.101049,0.15532,0.0435116,-0.00843667,0.244322,-0.08076879038035578,0.1680316714431438,0.04447211011823171,0.2066778438671517,-0.00840118117229216,-0.09611125874759341
474,0.4646,37.1448,452.456,0.260602,129.912,-262.946,4.47529,-0.0843848,0.188235,-0.101245,0.155628,0.0435543,-0.00844967,0.244828,-0.08092247299037991,0.16839148060571496,0.04451671002953517,0.2071171545520134,-0.008414071873147133,-0.09628840358011825
475,0.4656,37.1646,452.694,0.260926,129.981,-263.091,4.47833,-0.084552,0.188599,-0.101441,0.155936,0.0435969,-0.00846266,0.245334,-0.08107612990681978,0.16875140060657623,0.044561207389169466,0.20755662517507134,-0.008426952490693695,-0.09646551369565826
476,0.4666,37.1844,452.931,0.26125,130.05,-263.235,4.48137,-0.084719,0.188964,-0.101637,0.156244,0.0436394,-0.00847564,0.245839,-0.08122957737990466,0.1691114314798714,0.04460560218386611,0.20799746379141348,-0.008439823025320425,-0.0966425891010173
477,0.4676,37.2041,453.167,0.261572,130.118,-263.379,4.4844,-0.084886,0.189328,-0.101833,0.156551,0.043682,-0.00848862,0.246345,-0.08138299922940129,0.16947040378876577,0.04465010333038677,0.20843725490536058,-0.008452693392888677,-0.09681962980299785
478,0.4686,37.2238,453.404,0.261896,130.187,-263.523,4.48742,-0.0850529,0.189692,-0.102028,0.156859,0.0437244,-0.00850159,0.24685,-0.08153630361322317,0.16983065614914827,0.04469439743379633,0.20887720613241179,-0.008465553678056348,-0.09699573280458562
479,0.4696,37.2435,453.639,0.262218,130.255,-263.667,4.49044,-0.0852198,0.190055,-0.102224,0.157166,0.0437669,-0.00851456,0.247355,-0.08168958241267854,0.17018984929391268,0.04473879788919044,0.20931610821414615,-0.008478413796426998,-0.09717270429718305
480,0.4706,37.2631,453.875,0.262541,130.324,-263.81,4.49345,-0.0853866,0.190419,-0.102419,0.157473,0.0438093,-0.00852752,0.24786,-0.08184274381631584,0.17054915272790105,0.04478309575332906,0.20975637940203118,-0.008491263832915874,-0.09734873845595682
481,0.4716,37.2828,454.11,0.262864,130.392,-263.953,4.49645,-0.0855533,0.190782,-0.102614,0.15778,0.0438516,-0.00854048,0.248365,-0.08199578787434503,0.17090856648497743,0.044827291013002535,0.21019560068159326,-0.008504113702869187,-0.09752473829141628
482,0.4726,37.3023,454.345,0.263178,130.46,-264.096,4.49945,-0.08572,0.191146,-0.10281,0.158087,0.0438939,-0.00855343,0.248869,-0.08214880642205613,0.17126809059901604,0.04487148814217501,0.2106361920630082,-0.008516953491458978,-0.09770160610909884
483,0.4736,37.3219,454.579,0.26351,130.528,-264.239,4.50244,-0.0858866,0.191509,-0.103005,0.158394,0.0439362,-0.00856638,0.249374,-0.08230170769387657,0.17162772510390178,0.04491568714092575,0.21107573277253922,-0.008529793113774553,-0.09787753714207437
484,0.4746,37.3414,454.813,0.263829,130.596,-264.381,4.50543,-0.0860531,0.191872,-0.1032,0.1587,0.0439784,-0.00857932,0.249878,-0.08245449173992081,0.171986298046646,0.04495978351334995,0.2115154330643103,-0.008542622655244303,-0.09805343387184318
485,0.4756,37.3609,455.047,0.264152,130.664,-264.524,4.50841,-0.0862196,0.192235,-0.103395,0.159007,0.0440206,-0.00859225,0.250382,-0.08260725034953886,0.17234615307506673,0.04500388174668046,0.21195529299626048,-0.008555442116255363,-0.09822929630509358
486,0.4766,37.3803,455.28,0.264473,130.731,-264.666,4.51138,-0.086386,0.192597,-0.10359,0.159313,0.0440628,-0.00860518,0.250886,-0.08275989180295962,0.17270494589040886,0.045047981840995455,0.21239410023164274,-0.008568261411511902,-0.09840512444851301
487,0.4776,37.3997,455.513,0.264787,130.799,-264.807,4.51435,-0.0865523,0.19296,-0.103785,0.159619,0.0441049,-0.00861811,0.251389,-0.08291241615020184,0.17306384851315215,0.04509197928717068,0.21283427917767206,-0.008581080541016028,-0.09858091830878712
488,0.4786,37.4191,455.745,0.265118,130.866,-264.949,4.51732,-0.0867186,0.193322,-0.10398,0.159926,0.0441469,-0.00863103,0.251893,-0.083064915134754,0.17342403440035037,0.04513587407208486,0.21327340466365197,-0.008593889590708725,-0.09875667789260056
489,0.4796,37.4385,455.977,0.265436,130.934,-265.09,4.52027,-0.0868848,0.193685,-0.104174,0.160232,0.044189,-0.00864394,0.252396,-0.08321729708256798,0.17378315709784742,0.04517987521860101,0.2137139028551296,-0.008606688560976572,-0.09893150213858926
490,0.4806,37.4578,456.209,0.265759,131.001,-265.231,4.52323,-0.087051,0.194047,-0.104369,0.160538,0.044231,-0.00865685,0.252899,-0.08336965370660665,0.17414238970370488,0.04522377369522168,0.2141533468225223,-0.008619487366010814,-0.09910719336522089
491,0.4816,37.4771,456.441,0.266081,131.068,-265.372,4.52617,-0.087217,0.194409,-0.104564,0.160843,0.0442729,-0.00866975,0.253402,-0.08352180171545731,0.17450055775041506,0.04526756948885491,0.21459294989742816,-0.008632276092136348,-0.0992828503354034
492,0.4826,37.4963,456.671,0.266399,131.135,-265.513,4.52911,-0.087383,0.194771,-0.104758,0.161149,0.0443148,-0.00868265,0.253905,-0.08367392446983457,0.17486000991446304,0.045311367117570445,0.215032712137454,-0.008645064653288403,-0.09945757251383902
493,0.4836,37.5156,456.902,0.26672,131.202,-265.653,4.53205,-0.087549,0.195132,-0.104952,0.161455,0.0443567,-0.00869554,0.254407,-0.08382602197393052,0.17521957208770367,0.04535516658144512,0.2154714181282027,-0.00865784313604745,-0.09963226079945975
494,0.4846,37.5348,457.132,0.267041,131.269,-265.793,4.53498,-0.0877149,0.195494,-0.105147,0.16176,0.0443985,-0.00870843,0.254909,-0.08397800262974098,0.17557806872514847,0.04539886334066412,0.21591149843129398,-0.00867062145409303,-0.09980781539147487
495,0.4856,37.5539,457.362,0.26736,131.336,-265.933,4.5379,-0.0878807,0.195855,-0.105341,0.162066,0.0444403,-0.00872131,0.255412,-0.08412986648704335,0.1759378506580067,0.0454425619264458,0.21635052172116365,-0.008683389694261079,-0.09998243573656784
496,0.4866,37.5731,457.592,0.267682,131.402,-266.073,4.54082,-0.0880464,0.196216,-0.105535,0.162371,0.044482,-0.00873418,0.255914,-0.08428161359557129,0.17629656640382785,0.04548615779024545,0.2167897035270514,-0.008696147856936731,-0.10015702220859957
497,0.4876,37.5922,457.821,0.268003,131.469,-266.212,4.54373,-0.0882121,0.196577,-0.105729,0.162676,0.0445237,-0.00874705,0.256415,-0.08443333556168653,0.17665539157463805,0.04552975547203064,0.2172290439061919,-0.00870890585541595,-0.1003315748141409
498,0.4886,37.6112,458.05,0.268313,131.535,-266.351,4.54664,-0.0883777,0.196938,-0.105923,0.162981,0.0445654,-0.00875992,0.256917,-0.08458494084805335,0.17701432620381663,0.04557335497187709,0.21766854291584026,-0.008721663689700732,-0.10050609355976126
499,0.4896,37.6303,458.278,0.268642,131.601,-266.49,4.54954,-0.0885433,0.197299,-0.106117,0.163286,0.044607,-0.00877278,0.257418,-0.08473652103066331,0.17737337032475398,0.045616851728170316,0.21810820061327263,-0.00873441144713738,-0.10068057845202893
500,0.4906,37.6493,458.506,0.268954,131.668,-266.629,4.55244,-0.0887088,0.19766,-0.106311,0.16359,0.0446486,-0.00878563,0.257919,-0.08488798460247649,0.17773134623891473,0.04566035029396609,0.21854801705578542,-0.008747149128110587,-0.10085502949751068
501,0.4916,37.6683,458.734,0.269279,131.734,-266.767,4.55533,-0.0888742,0.19802,-0.106505,0.163895,0.0446902,-0.00879848,0.25842,-0.08503933161308042,0.17809060908431662,0.04570385066933991,0.2189867733133133,-0.008759886645405501,-0.10102944670277225
502,0.4926,37.6872,458.961,0.269598,131.8,-266.906,4.55822,-0.0890395,0.198381,-0.106699,0.1642,0.0447317,-0.00881133,0.258921,-0.0851905621120197,0.17844998152159808,0.04574724827963683,0.21942690697782585,-0.008772623999024454,-0.10120383007437794
503,0.4936,37.7062,459.188,0.269916,131.866,-267.044,4.5611,-0.0892048,0.198741,-0.106892,0.164504,0.0447732,-0.00882417,0.259422,-0.08534176761462353,0.17880828477531585,0.045790647690971964,0.21986597969268473,-0.008785351276823006,-0.10137728099662113
504,0.4946,37.725,459.415,0.270235,131.931,-267.182,4.56398,-0.08937,0.199101,-0.107086,0.164808,0.0448146,-0.008837,0.259922,-0.08549285667431361,0.17916669696978071,0.045833944320020414,0.2203052105021761,-0.008798068479185073,-0.101551596894919
505,0.4956,37.7439,459.641,0.270552,131.997,-267.319,4.56685,-0.0895352,0.199461,-0.107279,0.165112,0.044856,-0.00884983,0.260423,-0.08564392077615257,0.17952521813811617,0.04587724274158633,0.22074459946322444,-0.008810785518386544,-0.10172498070464242
506,0.4966,37.7627,459.867,0.270871,132.063,-267.457,4.56972,-0.0897003,0.199821,-0.107473,0.165416,0.0448973,-0.00886265,0.260923,-0.08579486850375473,0.17988384831345483,0.04592043836369508,0.22118414663277464,-0.008823492482664341,-0.10189922915573946
507,0.4976,37.7815,460.093,0.271188,132.128,-267.594,4.57258,-0.0898653,0.20018,-0.107666,0.16572,0.0449387,-0.00887547,0.261423,-0.08594569990651868,0.18024258752893996,0.045963740366188555,0.22162263044455055,-0.008836199284040003,-0.10207254587891057
508,0.4986,37.8003,460.318,0.271501,132.193,-267.731,4.57544,-0.0900303,0.20054,-0.107859,0.166024,0.0449799,-0.00888828,0.261922,-0.08609650642415423,0.18060143581772525,0.046006834960034215,0.22206249376215736,-0.00884889601100447,-0.10224582915518188
509,0.4996,37.819,460.543,0.271825,132.259,-267.867,4.57829,-0.0901952,0.200899,-0.108052,0.166328,0.0450212,-0.00890109,0.262422,-0.08624719668549141,0.1809603932129733,0.04605003593441204,0.2225012929571606,-0.008861592575324817,-0.102419078991008
510,0.5006,37.8377,460.767,0.272142,132.324,-268.004,4.58114,-0.09036,0.201258,-0.108245,0.166631,0.0450624,-0.00891389,0.262921,-0.08639777073983479,0.18131827842898907,0.0460931340837083,0.2229402497093549,-0.008874279065746227,-0.10259229539284231
511,0.5016,37.8564,460.991,0.27246,132.389,-268.14,4.58398,-0.0905248,0.201617,-0.108438,0.166935,0.0451035,-0.00892669,0.26342,-0.0865483199816186,0.18167745377751832,0.04613612939506684,0.223379364075313,-0.00888696539378142,-0.1027654783671369
512,0.5026,37.8751,461.215,0.272777,132.454,-268.276,4.58681,-0.0906895,0.201976,-0.108631,0.167238,0.0451447,-0.00893948,0.263919,-0.08669875308481145,0.1820355562958047,0.04617923109148658,0.22381863611162878,-0.008899641648429268,-0.1029386279203427
513,0.5036,37.8937,461.439,0.273095,132.519,-268.412,4.58965,-0.0908542,0.202335,-0.108824,0.167541,0.0451858,-0.00895226,0.264418,-0.08684916141371257,0.1823937673355942,0.04622222994150493,0.2242580658749158,-0.008912307830071908,-0.10311174405890933
514,0.5046,37.9123,461.662,0.273411,132.583,-268.548,4.59247,-0.0910187,0.202694,-0.109017,0.167845,0.0452268,-0.00896504,0.264917,-0.08699936237229244,0.1827532696824523,0.04626512593229437,0.22469765342180859,-0.00892497384984181,-0.10328482678928519
515,0.5056,37.9309,461.884,0.273729,132.648,-268.683,4.59529,-0.0911833,0.203052,-0.109209,0.168148,0.0452678,-0.00897782,0.265415,-0.08714962990988828,0.18311169822234774,0.04630802368185538,0.22513617367217464,-0.008937639707740974,-0.10345697957534539
516,0.5066,37.9494,462.107,0.274045,132.713,-268.818,4.59811,-0.0913477,0.20341,-0.109402,0.16845,0.0453088,-0.00899059,0.265913,-0.08729969017543937,0.18346905191290208,0.04635092319026013,0.22557485094089524,-0.00895029549327453,-0.10362999568169595
517,0.5076,37.9679,462.329,0.274362,132.777,-268.953,4.60092,-0.0915121,0.203769,-0.109595,0.168753,0.0453497,-0.00900335,0.266411,-0.0874497257731105,0.18382769736767424,0.04639371981820384,0.22601491129849105,-0.008962941206824282,-0.1038029783991602
518,0.5086,37.9864,462.551,0.274678,132.841,-269.088,4.60373,-0.0916764,0.204127,-0.109787,0.169056,0.0453907,-0.00901611,0.266909,-0.08759964546692589,0.18418645150848412,0.04643662284022221,0.22645390321159975,-0.008975586759015663,-0.10397503170966127
519,0.5096,38.0048,462.772,0.274995,132.906,-269.223,4.60653,-0.0918407,0.204485,-0.109979,0.169358,0.0454315,-0.00902887,0.267407,-0.08774954053095896,0.18454412982354684,0.046479318325416186,0.22689305231194812,-0.008988232149850894,-0.10414705198909768
520,0.5106,38.0232,462.993,0.275311,132.97,-269.357,4.60933,-0.0920049,0.204842,-0.110172,0.169661,0.0454723,-0.00904162,0.267904,-0.08789931975919252,0.18490310107628183,0.046522015552621365,0.22733113132407445,-0.00900086746934059,-0.1043199349243239
521,0.5116,38.0416,463.214,0.275627,133.034,-269.491,4.61212,-0.092169,0.2052,-0.110364,0.169963,0.0455131,-0.00905436,0.268402,-0.08804898320059884,0.1852609958521978,0.0465647145219088,0.2277705945283084,-0.009013492717866,-0.10449188898869999
522,0.5126,38.06,463.434,0.275943,133.098,-269.625,4.61491,-0.092333,0.205557,-0.110556,0.170265,0.0455539,-0.0090671,0.268899,-0.08819853090410712,0.1856189987286585,0.04660741523334999,0.22820898687893343,-0.009026117805546852,-0.10466381004106506
523,0.5136,38.0783,463.654,0.276259,133.162,-269.759,4.61769,-0.0924971,0.205915,-0.110748,0.170567,0.0455946,-0.00907984,0.269396,-0.08834814524899293,0.18597710973831538,0.04665001302200911,0.22864876441171766,-0.00903874273238503,-0.10483569808775661
524,0.5146,38.0966,463.874,0.276575,133.225,-269.892,4.62047,-0.092661,0.206272,-0.11094,0.170869,0.0456353,-0.00909256,0.269892,-0.08849755274370796,0.1863353289138292,0.046692612544433576,0.2290874703249588,-0.009051347679409849,-0.10500755313511134
525,0.5156,38.1149,464.094,0.27689,133.289,-270.026,4.62325,-0.0928249,0.206629,-0.111132,0.171171,0.0456759,-0.00910529,0.270389,-0.08864693575254134,0.18669365628787116,0.04673510912717749,0.22952633288417057,-0.009063962375461143,-0.1051793751894643
526,0.5166,38.1331,464.313,0.277206,133.353,-270.159,4.62602,-0.0929887,0.206986,-0.111324,0.171473,0.0457166,-0.00911801,0.270885,-0.08879620315913073,0.18705209189312244,0.0467777121130839,0.22996535214528557,-0.009076567001694125,-0.10535116425714974
527,0.5176,38.1513,464.531,0.277521,133.416,-270.292,4.62878,-0.0931524,0.207343,-0.111516,0.171774,0.0457571,-0.00913072,0.271382,-0.0889453550122613,0.18740944835223128,0.04682010746892473,0.23040452816425638,-0.009089161558489045,-0.10552292034450028
528,0.5186,38.1695,464.75,0.277836,133.479,-270.424,4.63154,-0.0933161,0.207699,-0.111707,0.172076,0.0457977,-0.00914343,0.271878,-0.08909448245123186,0.18776810015933054,0.04686260922806773,0.23084263015381,-0.009101755955208013,-0.10569374915204399
529,0.5196,38.1877,464.968,0.278151,133.543,-270.557,4.6343,-0.0934797,0.208056,-0.111899,0.172377,0.0458382,-0.00915613,0.272373,-0.08924349440439272,0.1881256721693665,0.046905008022311234,0.23128211941694077,-0.009114340282996736,-0.10586543946940896
530,0.5206,38.2058,465.186,0.278466,133.606,-270.689,4.63705,-0.0936433,0.208412,-0.11209,0.172678,0.0458786,-0.00916883,0.272869,-0.0893924819811921,0.18848335182477705,0.04694730383900514,0.23172053388459823,-0.009126924450965523,-0.10603620286204718
531,0.5216,38.2239,465.403,0.278781,133.669,-270.821,4.63979,-0.0938068,0.208768,-0.112282,0.172979,0.0459191,-0.00918152,0.273365,-0.08954135413975761,0.18884113915796852,0.046989706063449876,0.23215910445559085,-0.009139498550511438,-0.10620782743461143
532,0.5226,38.242,465.62,0.279095,133.732,-270.953,4.64254,-0.0939702,0.209124,-0.112473,0.17328,0.0459595,-0.00919421,0.27386,-0.08969011092873047,0.18919903420135697,0.04703200530201368,0.23259783118550148,-0.00915207249049299,-0.10637852543739323
533,0.5236,38.26,465.837,0.27941,133.795,-271.085,4.64527,-0.0941335,0.20948,-0.112664,0.173581,0.0459998,-0.00920689,0.274355,-0.08983875239670969,0.18955703698736803,0.04707420154207598,0.23303671412993232,-0.009164636362558709,-0.10654919083996994
534,0.5246,38.2781,466.053,0.279724,133.858,-271.216,4.64801,-0.0942968,0.209836,-0.112856,0.173882,0.0460401,-0.00921957,0.27485,-0.08998736959351894,0.18991514754843686,0.04711639948268087,0.233475753344506,-0.009177200075315528,-0.10672071692829721
535,0.5256,38.296,466.269,0.280039,133.92,-271.347,4.65073,-0.0944601,0.210192,-0.113047,0.174183,0.0460804,-0.00923224,0.275345,-0.0901359625231214,0.19027336591700883,0.047158599123897194,0.23391494888486442,-0.009189753720662996,-0.10689131697854048
536,0.5266,38.314,466.485,0.280348,133.983,-271.478,4.65346,-0.0946232,0.210547,-0.113238,0.174483,0.0461207,-0.00924491,0.275839,-0.09028434924636763,0.19063050149444205,0.047200800465793114,0.2343530664529856,-0.009202307206956917,-0.10706188444728582
537,0.5276,38.3319,466.701,0.280672,134.045,-271.609,4.65617,-0.0947864,0.210902,-0.113429,0.174784,0.0461609,-0.00925757,0.276334,-0.09043280272643717,0.19098893521696092,0.04724289878414245,0.23479133958045373,-0.009214850626347637,-0.10723241934075556
538,0.5286,38.3498,466.916,0.280979,134.108,-271.74,4.65889,-0.0949494,0.211258,-0.11362,0.175084,0.0462011,-0.00927023,0.276828,-0.09058105009710382,0.19134628549738797,0.04728499879487802,0.23523100355288817,-0.009227393886939717,-0.10740292166517118
539,0.5296,38.3677,467.131,0.281295,134.17,-271.87,4.6616,-0.0951124,0.211613,-0.113811,0.175384,0.0462412,-0.00928288,0.277322,-0.09072927330541836,0.1917037429989814,0.047326995765363256,0.23566958840335417,-0.009239927081134414,-0.1075733914267526
540,0.5306,38.3856,467.345,0.281608,134.232,-272.0,4.66431,-0.0952753,0.211968,-0.114001,0.175684,0.0462813,-0.00929553,0.277816,-0.09087738144306157,0.1920613077539126,0.0473689944199609,0.23610832897908196,-0.009252460116785266,-0.10774293637510146
541,0.5316,38.4034,467.559,0.281922,134.295,-272.131,4.66701,-0.0954382,0.212322,-0.114192,0.175984,0.0463214,-0.00930817,0.278309,-0.0910254654558541,0.1924189797943623,0.04741099475873822,0.23654598878875643,-0.009264983086543999,-0.10791334120007501
542,0.5326,38.4212,467.773,0.282235,134.357,-272.26,4.66971,-0.0956009,0.212677,-0.114383,0.176284,0.0463614,-0.0093208,0.278803,-0.09117334358241269,0.1927767591525209,0.04745289203646874,0.23698504054185165,-0.00927749599078842,-0.10808371348083501
543,0.5336,38.439,467.987,0.282549,134.419,-272.39,4.6724,-0.0957637,0.213031,-0.114573,0.176584,0.0464015,-0.00933343,0.279296,-0.09132128851903287,0.1931346458605887,0.04749489573960797,0.23742301076235872,-0.009290008736995925,-0.10825316147720421
544,0.5346,38.4567,468.2,0.282862,134.48,-272.519,4.67509,-0.0959263,0.213386,-0.114764,0.176883,0.0464414,-0.00934606,0.279789,-0.09146902766600151,0.19349144645873229,0.047536691619770144,0.23786237391352438,-0.0093025213251684,-0.10842346885848941
545,0.5356,38.4744,468.413,0.283175,134.542,-272.649,4.67778,-0.0960889,0.21374,-0.114954,0.177183,0.0464814,-0.00935868,0.280282,-0.09161674279253784,0.19384954760515627,0.04757859392547559,0.2383006547650237,-0.009315023848458281,-0.10859285230746907
546,0.5366,38.4921,468.626,0.283488,134.604,-272.778,4.68046,-0.0962515,0.214094,-0.115144,0.177482,0.0465213,-0.0093713,0.280775,-0.09176443390254707,0.19420656199088104,0.04762039314526212,0.23873909079540923,-0.009327526213967152,-0.10876220357665056
547,0.5376,38.5098,468.838,0.283801,134.665,-272.907,4.68314,-0.096414,0.214448,-0.115334,0.177782,0.0465611,-0.00938391,0.281267,-0.0919120101911397,0.194564877704148,0.047662089266656604,0.2391776820596243,-0.00934001851509747,-0.10893152267214767
548,0.5386,38.5274,469.05,0.284113,134.727,-273.035,4.68581,-0.0965764,0.214802,-0.115525,0.178081,0.046601,-0.00939652,0.28176,-0.09205947170648554,0.19492210600555104,0.04770389181797352,0.23961642861263144,-0.009352510658700908,-0.1091017004988174
549,0.5396,38.545,469.262,0.284426,134.788,-273.164,4.68848,-0.0967387,0.215155,-0.115715,0.17838,0.0466408,-0.00940912,0.282252,-0.09220681849671208,0.19527944113418627,0.04774559126268141,0.24005409045470216,-0.009364992738429279,-0.1092709550960268
550,0.5406,38.5626,469.473,0.284739,134.85,-273.292,4.69115,-0.096901,0.215509,-0.115905,0.178679,0.0466805,-0.00942171,0.282744,-0.09235414137449516,0.19563688312199967,0.04778718758833622,0.24049314731120175,-0.009377464754659282,-0.10944017753791746
551,0.5416,38.5802,469.684,0.285051,134.911,-273.42,4.69381,-0.0970632,0.215862,-0.116095,0.178977,0.0467203,-0.0094343,0.283236,-0.09250134959385492,0.19599323600711283,0.04782889034828153,0.24093111868960282,-0.009389936613867444,-0.10960936783059849
552,0.5426,38.5977,469.895,0.285363,134.972,-273.548,4.69647,-0.0972254,0.216216,-0.116284,0.179276,0.04676,-0.00944689,0.283727,-0.09264853393797778,0.1963508914515033,0.04787048998097565,0.24137048606905687,-0.009402408316055988,-0.10977763575825839
553,0.5436,38.6152,470.105,0.285675,135.033,-273.676,4.69912,-0.0973875,0.216569,-0.116474,0.179575,0.0467996,-0.00945947,0.284219,-0.09279560369030093,0.19670865385086067,0.047911986474004076,0.24180876720270827,-0.009414869955375438,-0.10994676193996833
554,0.5446,38.6327,470.315,0.285988,135.094,-273.803,4.70177,-0.0975495,0.216922,-0.116664,0.179873,0.0468393,-0.00947205,0.28471,-0.09294255889880987,0.1970653261712445,0.04795358940567973,0.24224720307690983,-0.00942733143792851,-0.11011585599075624
555,0.5456,38.6502,470.525,0.2863,135.155,-273.93,4.70441,-0.0977115,0.217274,-0.116854,0.180172,0.0468789,-0.00948462,0.285201,-0.09308949030250324,0.19742330221852167,0.047995089189510454,0.2426845510611222,-0.009439782858114976,-0.11028491791672634
556,0.5466,38.6676,470.735,0.286611,135.216,-274.058,4.70705,-0.0978734,0.217627,-0.117043,0.18047,0.0469184,-0.00949718,0.285692,-0.09323630722887233,0.19778018753585402,0.048036485813111485,0.24312329614159767,-0.009452224216310423,-0.11045305817748496
557,0.5476,38.685,470.944,0.286923,135.276,-274.185,4.70969,-0.0980353,0.21798,-0.117233,0.180768,0.046958,-0.00950975,0.286183,-0.09338310038750519,0.19813717922085905,0.048077988879704936,0.24356219612642538,-0.009464675323596627,-0.11062205604112585
558,0.5486,38.7024,471.153,0.287235,135.337,-274.311,4.71232,-0.0981971,0.218332,-0.117422,0.181066,0.0469975,-0.0095223,0.286674,-0.09352977913523175,0.19849427730523872,0.048119388777908334,0.2440000070696673,-0.009477106463915752,-0.1107901325888
559,0.5496,38.7197,471.362,0.287546,135.397,-274.438,4.71495,-0.0983588,0.218684,-0.117611,0.181364,0.0470369,-0.00953485,0.287164,-0.09367634351989573,0.198851481820705,0.04816068549536623,0.24443797214948781,-0.009489537448225116,-0.11095817737300828
560,0.5506,38.737,471.57,0.287858,135.458,-274.564,4.71758,-0.0985205,0.219036,-0.117801,0.181662,0.0470764,-0.0095474,0.287654,-0.09382288420701479,0.19920879279897918,0.04820208866015041,0.2448760914201522,-0.009501968276526496,-0.11112707927311882
561,0.5516,38.7543,471.778,0.288169,135.518,-274.69,4.7202,-0.0986821,0.219388,-0.11799,0.181959,0.0471158,-0.00955994,0.288144,-0.09396931059735592,0.19956501070618127,0.048243388636047824,0.24531436493594572,-0.009514389043965954,-0.11129506038042158
562,0.5526,38.7716,471.986,0.288481,135.578,-274.816,4.72282,-0.0988436,0.21974,-0.118179,0.182257,0.0471551,-0.00957248,0.288634,-0.09411562273867102,0.19992253434774843,0.04828458541073255,0.24575279275117157,-0.009526809655649893,-0.11146300974229495
563,0.5536,38.7888,472.193,0.288792,135.639,-274.942,4.72543,-0.0990051,0.220092,-0.118368,0.182554,0.0471945,-0.00958501,0.289124,-0.09426191125248329,0.20027896426767278,0.048325888637065884,0.24619137492015342,-0.00953922020697262,-0.11163092736473856
564,0.5546,38.8061,472.4,0.289103,135.699,-275.068,4.72804,-0.0991665,0.220443,-0.118557,0.182852,0.0472338,-0.00959753,0.289613,-0.09440808558342129,0.20063670069910544,0.04836708865406436,0.24662886486774438,-0.009551620698308394,-0.1117988132537503
565,0.5556,38.8232,472.607,0.289414,135.759,-275.193,4.73065,-0.0993278,0.220795,-0.118746,0.183149,0.047273,-0.00961005,0.290103,-0.09455414577914523,0.20099334275793734,0.048408185449431596,0.247067755468392,-0.009564021034391024,-0.11196666741532746
566,0.5566,38.8404,472.814,0.289725,135.819,-275.319,4.73325,-0.0994891,0.221146,-0.118934,0.183446,0.0473123,-0.00962257,0.290592,-0.09470018241725953,0.2013500907551915,0.04844938870075821,0.24750555307954736,-0.009576421215222397,-0.11213360198951172
567,0.5576,38.8576,473.02,0.290036,135.878,-275.444,4.73585,-0.0996504,0.221497,-0.119123,0.183743,0.0473515,-0.00963508,0.291081,-0.09484619550156381,0.20170694472233675,0.04849048872235051,0.24794350438463608,-0.009588811336692649,-0.11230139288199692
568,0.5586,38.8747,473.226,0.290342,135.938,-275.568,4.73844,-0.0998115,0.221848,-0.119312,0.18404,0.0473906,-0.00964759,0.29157,-0.09499200403427588,0.20206390469085078,0.04853148550194142,0.2483816094376139,-0.009601201303163331,-0.11246915206499997
569,0.5596,38.8918,473.431,0.290658,135.998,-275.693,4.74102,-0.0999726,0.222199,-0.1195,0.184337,0.0474298,-0.00966009,0.292058,-0.09513778907912529,0.20242097069222043,0.048572588741791156,0.24881986829245606,-0.009613581210772493,-0.11263599218094944
570,0.5606,38.9088,473.637,0.290967,136.057,-275.818,4.74361,-0.100134,0.22255,-0.119689,0.184633,0.0474689,-0.00967258,0.292547,-0.0952838220547898,0.20277693998040092,0.048613588731555524,0.24925828100315628,-0.009625951059893278,-0.11280368813066088
571,0.5616,38.9259,473.842,0.291282,136.117,-275.942,4.74619,-0.100295,0.2229,-0.119877,0.18493,0.047508,-0.00968508,0.293035,-0.09542946963449417,0.20313421778470286,0.04865459032445085,0.24969559792750484,-0.009638330658132466,-0.11297046535974153
572,0.5626,38.9429,474.047,0.291587,136.176,-276.066,4.74877,-0.100456,0.223251,-0.120066,0.185226,0.047547,-0.00969756,0.293523,-0.09557509376682582,0.20349039822527182,0.04869548865098583,0.2501343180732587,-0.009650690294641495,-0.11313809809999564
573,0.5636,38.9599,474.251,0.291899,136.236,-276.19,4.75135,-0.100616,0.223601,-0.120254,0.185523,0.047586,-0.00971004,0.294011,-0.09571979017580168,0.20384788795814224,0.04873638857258644,0.25057194166424535,-0.009663049776903243,-0.1133048124659114
574,0.5646,38.9768,474.456,0.292209,136.295,-276.314,4.75392,-0.100777,0.223951,-0.120442,0.185819,0.047625,-0.00972252,0.294498,-0.09586536757028863,0.2042042796763499,0.048777290089315084,0.2510097184502966,-0.009675409104919708,-0.11347149549247237
575,0.5656,38.9938,474.659,0.292519,136.354,-276.438,4.75649,-0.100938,0.224301,-0.12063,0.186115,0.0476639,-0.00973499,0.294986,-0.09601092152870183,0.2045607769021207,0.04881808831942003,0.25144764848503964,-0.009687758375570343,-0.11363814718556975
576,0.5666,39.0107,474.863,0.292829,136.413,-276.561,4.75906,-0.101099,0.224651,-0.120818,0.186411,0.0477028,-0.00974746,0.295473,-0.09615645205481393,0.20491737966668921,0.04885888813660699,0.25188573182212126,-0.009700107492226495,-0.11380476755109381
577,0.5676,39.0276,475.066,0.293139,136.472,-276.684,4.76162,-0.101259,0.225001,-0.121006,0.186707,0.0477417,-0.00975992,0.29596,-0.09630105545390477,0.20527408800129954,0.04889968954093771,0.2523239685152068,-0.009712446552014642,-0.1139713565949334
578,0.5686,39.0445,475.27,0.293449,136.531,-276.807,4.76418,-0.10142,0.225351,-0.121194,0.187002,0.0477806,-0.00977238,0.296447,-0.09644653927221503,0.2056296963069062,0.0489404925324739,0.2527623586179797,-0.009724785458058993,-0.11413791432297649
579,0.5696,39.0613,475.472,0.293758,136.59,-276.93,4.76673,-0.10158,0.2257,-0.121382,0.187298,0.0478194,-0.00978483,0.296934,-0.09659109626106399,0.2059866155184502,0.04898119221315289,0.2531996489838677,-0.00973711430773283,-0.11430444074111001
580,0.5706,39.0781,475.675,0.294068,136.648,-277.053,4.76928,-0.101741,0.22605,-0.12157,0.187594,0.0478582,-0.00979728,0.297421,-0.09673653338656318,0.20634364039371844,0.04902189347301,0.25363834562844656,-0.00974944300391345,-0.11447093585521961
581,0.5716,39.0949,475.877,0.294378,136.707,-277.176,4.77183,-0.101901,0.226399,-0.121758,0.187889,0.0478969,-0.00980972,0.297907,-0.09688104398006558,0.2066995642638243,0.04906249140585239,0.2540759417671554,-0.00976176164422038,-0.1146373996711898
582,0.5726,39.1117,476.079,0.294687,136.765,-277.298,4.77437,-0.102061,0.226748,-0.121945,0.188184,0.0479357,-0.00982216,0.298394,-0.09702553145372261,0.20705559314696043,0.049103195820179524,0.25451369065356966,-0.009774080131284335,-0.11480294699829385
583,0.5736,39.1284,476.281,0.294996,136.824,-277.42,4.77691,-0.102222,0.227097,-0.122133,0.18848,0.0479744,-0.00983459,0.29888,-0.0971708986407861,0.20741293448644105,0.04914379689948345,0.2549515923410075,-0.009786388562971204,-0.1149693484020361
584,0.5746,39.1452,476.482,0.295306,136.882,-277.542,4.77945,-0.102382,0.227446,-0.12232,0.188775,0.048013,-0.00984702,0.299366,-0.09731533974140738,0.2077691738448364,0.049184294631644976,0.25538964688280585,-0.009798696841665344,-0.11513483366053101
585,0.5756,39.1619,476.683,0.295615,136.941,-277.664,4.78198,-0.102542,0.227794,-0.122508,0.18907,0.0480517,-0.00985944,0.299851,-0.09745975773330129,0.2081255183093449,0.04922489884953385,0.2558265985050936,-0.009810995065478445,-0.11530117267544548
586,0.5766,39.1785,476.884,0.295924,136.999,-277.786,4.78451,-0.102702,0.228143,-0.122695,0.189364,0.0480903,-0.00987186,0.300337,-0.09760415262016497,0.20848075942961386,0.04926539971229116,0.25626495847733755,-0.009823293136548505,-0.11546659588860264
587,0.5776,39.1952,477.084,0.296233,137.057,-277.907,4.78704,-0.102862,0.228491,-0.122882,0.189659,0.0481288,-0.00988427,0.300822,-0.09774852440569493,0.20883731384283566,0.049305797207826796,0.25670221476106825,-0.009835581153233353,-0.11563198817051124
588,0.5786,39.2118,477.285,0.296542,137.115,-278.028,4.78956,-0.103022,0.22884,-0.123069,0.189954,0.0481674,-0.00989668,0.301308,-0.09789287309358696,0.2091939734551258,0.04934630119332084,0.25714088037671723,-0.009847869017424848,-0.11579734952695464
589,0.5796,39.2284,477.485,0.296851,137.173,-278.15,4.79208,-0.103182,0.229188,-0.123256,0.190248,0.0482059,-0.00990908,0.301793,-0.09803719868753658,0.2095495287473883,0.04938670180362359,0.2575784415343141,-0.009860146827726513,-0.11596267996371545
590,0.5806,39.245,477.684,0.29716,137.231,-278.271,4.7946,-0.103342,0.229536,-0.123444,0.190543,0.0482443,-0.00992148,0.302278,-0.09818150119123847,0.20990639849406834,0.04942699902667447,0.25801615498969177,-0.009872424485784181,-0.11612886335815376
591,0.5816,39.2615,477.884,0.297469,137.289,-278.391,4.79711,-0.103501,0.229884,-0.12363,0.190837,0.0482828,-0.00993388,0.302762,-0.09832487893371644,0.21026216327008518,0.04946740274390371,0.25845402079585944,-0.009884701991599854,-0.11629324810131403
592,0.5826,39.2781,478.083,0.297778,137.346,-278.512,4.79962,-0.103661,0.230231,-0.123817,0.191131,0.0483212,-0.00994627,0.303247,-0.0984691354122611,0.21061803265632295,0.04950770306593033,0.2588907801144349,-0.009896969444145198,-0.11645848581371143
593,0.5836,39.2946,478.282,0.298086,137.404,-278.633,4.80213,-0.103821,0.230579,-0.124004,0.191425,0.0483596,-0.00995865,0.303731,-0.09861336881161542,0.21097400668354194,0.04954800493551903,0.25932895034311265,-0.009909226843790031,-0.11662369262954564
594,0.5846,39.3111,478.481,0.298395,137.462,-278.753,4.80463,-0.10398,0.230926,-0.124191,0.191719,0.048398,-0.00997103,0.304215,-0.09875667789260056,0.21133008538251086,0.049588308352729094,0.2597660133149218,-0.009921484091689137,-0.11678886855459358
595,0.5856,39.3275,478.679,0.298703,137.519,-278.873,4.80713,-0.10414,0.231274,-0.124378,0.192013,0.0484363,-0.0099834,0.304699,-0.09890086528883846,0.21168626878400776,0.04962850835476407,0.2602044881777563,-0.00993373128718189,-0.11695401359463131
596,0.5866,39.3439,478.877,0.299012,137.577,-278.993,4.80963,-0.104299,0.231621,-0.124564,0.192307,0.0484746,-0.00999577,0.305183,-0.09904412866151757,0.2120425569188198,0.04966870989648875,0.26064185501391157,-0.009945978331177718,-0.11711824487412026
597,0.5876,39.3604,479.075,0.29932,137.634,-279.113,4.81212,-0.104459,0.231968,-0.124751,0.192601,0.0485128,-0.0100081,0.305667,-0.09918827006931152,0.21239894981774277,0.04970880800707578,0.2610793736426933,-0.009958185622006788,-0.11728332832654498
598,0.5886,39.3767,479.272,0.299629,137.691,-279.232,4.81461,-0.104618,0.232315,-0.124937,0.192894,0.0485511,-0.0100205,0.30615,-0.09933148774826339,0.21275423475674127,0.049749012624336064,0.2615170441167829,-0.009970462064391006,-0.11744749835918988
599,0.5896,39.3931,479.47,0.299937,137.748,-279.352,4.81709,-0.104777,0.232662,-0.125124,0.193188,0.0485893,-0.0100329,0.306633,-0.09947468265741444,0.213110836919709,0.049789113802545915,0.26195486648888,-0.009982738354548215,-0.11761252024696933
600,0.5906,39.4095,479.667,0.300245,137.806,-279.471,4.81958,-0.104936,0.233008,-0.12531,0.193481,0.0486274,-0.0100452,0.307117,-0.09961785480038488,0.21346633047218888,0.04982911152973357,0.26239157841949234,-0.009994915491976952,-0.11777662905561104
601,0.5916,39.4258,479.863,0.300553,137.863,-279.59,4.82206,-0.105096,0.233355,-0.125496,0.193774,0.0486656,-0.0100575,0.307599,-0.09976190441933996,0.21382192819954016,0.04986921576778003,0.2628297043076493,-0.010007092479627722,-0.117940707342853
602,0.5926,39.4421,480.06,0.300861,137.919,-279.709,4.82453,-0.105255,0.233701,-0.125682,0.194067,0.0487037,-0.0100699,0.308082,-0.09990503089768077,0.21417763013229107,0.04990921654691083,0.26326671898451903,-0.01001936831557071,-0.11810475511437146
603,0.5936,39.4583,480.256,0.301169,137.976,-279.828,4.82701,-0.105414,0.234047,-0.125868,0.19436,0.0487418,-0.0100822,0.308565,-0.1000481346207206,0.2145334363009781,0.049949218850100285,0.2637038848946287,-0.010031545002453623,-0.11826877237584199
604,0.5946,39.4746,480.452,0.301477,138.033,-279.947,4.82948,-0.105573,0.234393,-0.126054,0.194653,0.0487798,-0.0100946,0.309047,-0.10019121559207722,0.2148893467361468,0.04998911767848968,0.2641412020903142,-0.010043820535187153,-0.11843275913293894
605,0.5956,39.4908,480.648,0.301785,138.09,-280.065,4.83194,-0.105731,0.234739,-0.12624,0.194946,0.0488179,-0.0101069,0.309529,-0.10033337414919197,0.21524536146835183,0.05002912302597018,0.2645786706239295,-0.010055996921309651,-0.11859671539133554
606,0.5966,39.507,480.843,0.302093,138.146,-280.183,4.83441,-0.10589,0.235085,-0.126426,0.195238,0.0488559,-0.0101192,0.310011,-0.10047640977106898,0.2156002649272839,0.050069024890775804,0.26501629054784637,-0.010068173157663507,-0.11876064115670393
607,0.5976,39.5232,481.038,0.3024,138.203,-280.301,4.83687,-0.106049,0.235431,-0.126612,0.195531,0.0488938,-0.0101315,0.310493,-0.10061942265209001,0.21595648798903766,0.05010882326099342,0.265454061914455,-0.010080349244250497,-0.11892453643471546
608,0.5986,39.5394,481.233,0.302708,138.26,-280.419,4.83932,-0.106208,0.235777,-0.126798,0.195823,0.0489318,-0.0101438,0.310975,-0.10076241279587062,0.21631159912723352,0.050148728154465694,0.2658919847761636,-0.010092525181072731,-0.11908840123104003
609,0.5996,39.5555,481.428,0.303016,138.316,-280.537,4.84178,-0.106367,0.236122,-0.126983,0.196116,0.0489697,-0.0101561,0.311457,-0.1009053802060258,0.2166680306404445,0.05018852954549424,0.26632879285597255,-0.010104700968131652,-0.1192513548031422
610,0.6006,39.5716,481.622,0.303323,138.372,-280.655,4.84423,-0.106525,0.236467,-0.127169,0.196408,0.0490076,-0.0101684,0.311938,-0.10104742593404525,0.21702334957943203,0.050228332445024115,0.2667657516605677,-0.010116876605429481,-0.11941515881690323
611,0.6016,39.5877,481.816,0.303631,138.429,-280.772,4.84667,-0.106684,0.236813,-0.127354,0.1967,0.0490454,-0.0101807,0.312419,-0.10119034803071392,0.2173787722866991,0.05026803182630424,0.2672041284454525,-0.010129052092967772,-0.11957805194444326
612,0.6026,39.6038,482.01,0.303938,138.485,-280.89,4.84912,-0.106842,0.237158,-0.12754,0.196992,0.0490832,-0.010193,0.3129,-0.10133234873737385,0.21773429879255035,0.050307732708249286,0.26764138929292547,-0.010141227430748634,-0.11974179519818695
613,0.6036,39.6198,482.203,0.304245,138.541,-281.007,4.85156,-0.107001,0.237502,-0.127725,0.197284,0.049121,-0.0102053,0.313381,-0.10147522553491817,0.21808992912729996,0.05034743509091588,0.268077532943249,-0.010153402618773621,-0.11990462790358558
614,0.6046,39.6358,482.397,0.304553,138.597,-281.124,4.854,-0.107159,0.237847,-0.127911,0.197576,0.0491588,-0.0102176,0.313862,-0.10161718123448815,0.2184456633212697,0.05038713897436087,0.26851509516725813,-0.010165577657044844,-0.12006831041984956
615,0.6056,39.6518,482.59,0.30486,138.653,-281.241,4.85643,-0.107317,0.238192,-0.128096,0.197867,0.0491965,-0.0102299,0.314342,-0.10175911450682928,0.2188002826038995,0.05042673931596209,0.2689528083762778,-0.010177752545563856,-0.12023108272551941
616,0.6066,39.6678,482.783,0.305167,138.709,-281.357,4.85886,-0.107475,0.238536,-0.128281,0.198159,0.0492342,-0.0102422,0.314822,-0.10190102535548495,0.21915622425137116,0.050466341150524174,0.26938940323236893,-0.010189927284332767,-0.12039382492109796
617,0.6076,39.6838,482.975,0.305474,138.764,-281.474,4.86129,-0.107634,0.238881,-0.128466,0.19845,0.0492719,-0.0102544,0.315302,-0.10204381174063493,0.21951105033731988,0.050505944478103526,0.26982741812970934,-0.010202002893558548,-0.12055653701215507
618,0.6086,39.6997,483.168,0.305781,138.82,-281.59,4.86372,-0.107792,0.239225,-0.128651,0.198742,0.0493095,-0.0102667,0.315782,-0.10218567761068109,0.21986719955927425,0.050545444244206816,0.27026431390331074,-0.010214177334049945,-0.12071921900425953
619,0.6096,39.7156,483.36,0.306088,138.876,-281.706,4.86614,-0.10795,0.239569,-0.128836,0.199033,0.0493472,-0.010279,0.316262,-0.10232752106769039,0.22022223256914364,0.050585050554029065,0.2707013599949113,-0.010226351624796792,-0.1208818709029793
620,0.6106,39.7315,483.551,0.306395,138.931,-281.822,4.86856,-0.108108,0.239913,-0.129021,0.199324,0.0493848,-0.0102912,0.316742,-0.10246934211520387,0.22057736890865254,0.050624553294576824,0.27113855645622964,-0.010238426789648258,-0.12104449271388085
621,0.6116,39.7474,483.743,0.306702,138.987,-281.938,4.87098,-0.108266,0.240257,-0.129206,0.199615,0.0494223,-0.0103035,0.317221,-0.10261114075676203,0.22093260860787423,0.05066395245405508,0.2715759033390015,-0.010250600782128583,-0.12120708444253014
622,0.6126,39.7632,483.934,0.307009,139.042,-282.054,4.87339,-0.108424,0.240601,-0.12939,0.199906,0.0494598,-0.0103157,0.3177,-0.10275291699590461,0.22128795169689108,0.05070335309102947,0.27201340069498103,-0.010262675651142139,-0.12136876746369862
623,0.6136,39.779,484.125,0.307316,139.098,-282.169,4.8758,-0.108581,0.240944,-0.129575,0.200197,0.0494974,-0.0103279,0.31818,-0.10289377373039332,0.2216433982057937,0.0507428602798361,0.27244977612552757,-0.010274750372843311,-0.12153129920706807
624,0.6146,39.7948,484.316,0.307623,139.153,-282.285,4.87821,-0.108739,0.241288,-0.12976,0.200487,0.0495348,-0.0103402,0.318658,-0.10303550531705374,0.2219977261663444,0.050782158797688215,0.27288757414545683,-0.010286923918546242,-0.12169380088484605
625,0.6156,39.8106,484.506,0.30793,139.208,-282.4,4.88061,-0.108897,0.241631,-0.129944,0.200778,0.0495723,-0.0103524,0.319137,-0.10317721451189243,0.22235337924967258,0.0508215638674836,0.27332424946892564,-0.010298998344420274,-0.12185539435842774
626,0.6166,39.8264,484.697,0.308236,139.263,-282.515,4.88301,-0.109055,0.241974,-0.130129,0.201068,0.0496097,-0.0103646,0.319616,-0.10331890131844701,0.2227079131345837,0.0508608653289051,0.27376107459772037,-0.01031107262298725,-0.12201783608414851
627,0.6176,39.8421,484.887,0.308543,139.318,-282.63,4.88541,-0.109212,0.242317,-0.130313,0.201359,0.0496471,-0.0103769,0.320094,-0.1034596692003722,0.22306377291239232,0.050900168260228584,0.27419804958323324,-0.01032324572192922,-0.12217936994073852
628,0.6186,39.8578,485.077,0.30885,139.373,-282.745,4.88781,-0.10937,0.24266,-0.130497,0.201649,0.0496845,-0.0103891,0.320572,-0.10360131138261142,0.2234185128413404,0.05093947266150911,0.2746351744768738,-0.010335319704679935,-0.12234087407783312
629,0.6196,39.8735,485.266,0.309156,139.428,-282.86,4.8902,-0.109527,0.243003,-0.130681,0.201939,0.0497218,-0.0104013,0.32105,-0.10374203492963685,0.2237733556597863,0.050978673434929345,0.2750724493300698,-0.010347393540129035,-0.12250234850090036
630,0.6206,39.8892,485.455,0.309463,139.483,-282.974,4.89259,-0.109685,0.243346,-0.130866,0.202229,0.0497591,-0.0104135,0.321528,-0.10388363250161525,0.2241283013975719,0.051017875670565704,0.27550987419426565,-0.010359467228278185,-0.12266467055117503
631,0.6216,39.9048,485.644,0.309769,139.538,-283.088,4.89498,-0.109842,0.243688,-0.13105,0.202519,0.0497964,-0.0104257,0.322006,-0.10402431172770432,0.22448335008454867,0.05105707936847259,0.2759461731741131,-0.010371540769129273,-0.12282608540117201
632,0.6226,39.9205,485.833,0.310075,139.592,-283.203,4.89736,-0.109999,0.244031,-0.131234,0.202809,0.0498336,-0.0104379,0.322484,-0.10416496886888849,0.22483850175057563,0.0510961794190814,0.2763838977769897,-0.010383614162684074,-0.12298747055356885
633,0.6236,39.9361,486.022,0.310382,139.647,-283.317,4.89974,-0.110156,0.244373,-0.131418,0.203098,0.0498709,-0.0104501,0.322961,-0.10430560392863508,0.2251925312323777,0.05113538603777279,0.2768204957240228,-0.010395687408944254,-0.12314882601382948
634,0.6246,39.9517,486.21,0.310688,139.702,-283.43,4.90212,-0.110314,0.244715,-0.131601,0.203388,0.0499081,-0.0104623,0.323438,-0.10444711246374572,0.22554788859076158,0.051174489001443835,0.27725724301308974,-0.010407760507911812,-0.12330927509712997
635,0.6256,39.9672,486.398,0.310994,139.756,-283.544,4.90449,-0.110471,0.245057,-0.131785,0.203677,0.0499452,-0.0104745,0.323915,-0.10458770323042488,0.22590212311498759,0.05121348829841832,0.27769413969527457,-0.010419833459588523,-0.12347057135080175
636,0.6266,39.9828,486.586,0.311301,139.811,-283.658,4.90687,-0.110628,0.245399,-0.131969,0.203967,0.0499824,-0.0104867,0.324392,-0.10472827192608636,0.22625768628485865,0.05125259416754768,0.2781311858216782,-0.010431906263976054,-0.12363183792869303
637,0.6276,39.9983,486.773,0.311607,139.865,-283.771,4.90923,-0.110785,0.245741,-0.132153,0.204256,0.0500195,-0.0104988,0.324869,-0.10486881855419494,0.22661212597026248,0.051291596362277536,0.278568381443419,-0.01044387996546925,-0.12379307483626378
638,0.6286,40.0138,486.961,0.311913,139.919,-283.884,4.9116,-0.110942,0.246082,-0.132336,0.204545,0.0500566,-0.010511,0.325345,-0.10500934311821508,0.2269666681035385,0.05133060000401568,0.2790044476065465,-0.010455952476491115,-0.12395340603281679
639,0.6296,40.0293,487.148,0.312218,139.973,-283.997,4.91396,-0.111099,0.246424,-0.13252,0.204834,0.0500936,-0.0105232,0.325821,-0.10514984562161034,0.22732131271429834,0.05136949995586049,0.2794419419348939,-0.01046802484022935,-0.12411458377729956
640,0.6306,40.0447,487.335,0.312525,140.027,-284.11,4.91632,-0.111255,0.246765,-0.132703,0.205123,0.0501307,-0.0105353,0.326298,-0.10528943135772284,0.22767605983216233,0.05140850648787554,0.27987830603294395,-0.010479998104690469,-0.12427485614309952
641,0.6316,40.0602,487.521,0.312831,140.081,-284.223,4.91867,-0.111412,0.247106,-0.132887,0.205412,0.0501677,-0.0105475,0.326774,-0.10542988989071633,0.22803090948675897,0.05144740932231362,0.28031481895652477,-0.010492070175073809,-0.12443597474620316
642,0.6326,40.0756,487.708,0.313138,140.135,-284.336,4.92103,-0.111569,0.247447,-0.13307,0.205701,0.0502046,-0.0105596,0.327249,-0.1055703263734512,0.22838586170772612,0.051486208447557136,0.28075148075639467,-0.010504043148587994,-0.12459618830283703
643,0.6336,40.091,487.894,0.313444,140.189,-284.448,4.92338,-0.111726,0.247788,-0.133253,0.205989,0.0502416,-0.0105718,0.327725,-0.10571074080938891,0.22873968778440745,0.05152511415702077,0.2811882914833288,-0.010516114925623654,-0.12475637254307259
644,0.6346,40.1064,488.08,0.31375,140.243,-284.561,4.92572,-0.111882,0.248129,-0.133436,0.206278,0.0502785,-0.0105839,0.3282,-0.10585023905267676,0.22909484487190435,0.05156391614962552,0.2816252511881201,-0.010528087608198122,-0.12491652747227422
645,0.6356,40.1217,488.265,0.314055,140.297,-284.673,4.92807,-0.112039,0.24847,-0.133619,0.206566,0.0503154,-0.0105961,0.328676,-0.10599060954577344,0.22944887516514245,0.05160271957405027,0.2820623599215786,-0.010540159091893098,-0.1250766530958054
646,0.6366,40.137,488.451,0.314361,140.351,-284.785,4.93041,-0.112195,0.24881,-0.133802,0.206855,0.0503523,-0.0106082,0.329151,-0.10613006413294368,0.2298042372374114,0.05164152443034786,0.28249833523555545,-0.010552131483534954,-0.12523674941902851
647,0.6376,40.1524,488.636,0.314667,140.404,-284.897,4.93275,-0.112352,0.249151,-0.133985,0.207143,0.0503891,-0.0106203,0.329626,-0.10627039069695132,0.23015847186507354,0.05168022555054308,0.28293574174144154,-0.010564103730311802,-0.12539681644730505
648,0.6386,40.1676,488.821,0.314973,140.458,-285.009,4.93508,-0.112508,0.249491,-0.134168,0.207431,0.050426,-0.0106324,0.330101,-0.10640980164166614,0.23051280852700096,0.05171903326686378,0.2833720140557243,-0.010576075832225307,-0.1255568541859955
649,0.6396,40.1829,489.006,0.315279,140.511,-285.12,4.93742,-0.112664,0.249831,-0.134351,0.207719,0.0504627,-0.0106446,0.330575,-0.10654919083996994,0.23086724725258323,0.051757632063668346,0.28380843472781336,-0.010588146730467485,-0.12571686264045934
650,0.6406,40.1982,489.19,0.315585,140.565,-285.232,4.93975,-0.11282,0.250171,-0.134534,0.208007,0.0504995,-0.0106567,0.33105,-0.1066885582952547,0.2312217880712193,0.0517963374567032,0.28424500380815876,-0.010600118541462478,-0.12587684181605507
651,0.6416,40.2134,489.374,0.31589,140.618,-285.343,4.94207,-0.112977,0.250511,-0.134717,0.208295,0.0505362,-0.0106688,0.331524,-0.10682879718256166,0.23157643101231606,0.05183493909062342,0.28468172134722813,-0.010612090207599345,-0.1260367917181403
652,0.6426,40.2286,489.558,0.316196,140.671,-285.454,4.9444,-0.113133,0.250851,-0.134899,0.208582,0.050573,-0.0106809,0.331998,-0.10696812102265907,0.2319299441747289,0.05187364732860922,0.285118587395506,-0.010624061728879974,-0.12619583854834704
653,0.6436,40.2438,489.742,0.316493,140.725,-285.565,4.94672,-0.113289,0.251191,-0.135082,0.20887,0.0506096,-0.010693,0.332472,-0.10710742312993271,0.232284791094155,0.05191214660863386,0.28555560200349395,-0.010636033105306142,-0.1263557300793714
654,0.6446,40.259,489.926,0.316809,140.778,-285.676,4.94904,-0.113445,0.25153,-0.135264,0.209157,0.0506463,-0.0107051,0.332946,-0.10724670350777255,0.23263850758508742,0.05195075249282821,0.28599147922958856,-0.010648004336879513,-0.1265147188680783
655,0.6456,40.2741,490.109,0.317112,140.831,-285.787,4.95136,-0.113601,0.25187,-0.135447,0.209445,0.0506829,-0.0107172,0.333419,-0.10738596215956797,0.2329935586001639,0.051989254594953405,0.28642879067125904,-0.010659975423601753,-0.1266745520493433
656,0.6466,40.2893,490.292,0.317419,140.884,-285.898,4.95367,-0.113757,0.252209,-0.135629,0.209732,0.0507195,-0.0107293,0.333893,-0.10752519908870828,0.23334747853656368,0.052027758106281574,0.2868649639584917,-0.01067194636547475,-0.12683348281773166
657,0.6476,40.3044,490.475,0.317724,140.937,-286.008,4.95599,-0.113912,0.252548,-0.135811,0.210019,0.0507561,-0.0107414,0.334366,-0.10766352196254991,0.23370150006256285,0.05206626302686401,0.28730128513353415,-0.010683917162500278,-0.12699238466335228
658,0.6486,40.3195,490.657,0.31803,140.99,-286.118,4.9583,-0.114068,0.252887,-0.135993,0.210306,0.0507927,-0.0107534,0.334839,-0.10780271559573806,0.2340556232073212,0.052104769356752456,0.28773775424652914,-0.010695788884263924,-0.1271512575914686
659,0.6496,40.3345,490.84,0.318335,141.042,-286.229,4.9606,-0.114224,0.253226,-0.136176,0.210593,0.0508292,-0.0107655,0.335312,-0.1079418875164131,0.23440984800000808,0.05214317188167583,0.2881743713476359,-0.010707759392796667,-0.12731097429680505
660,0.6506,40.3496,491.022,0.318641,141.095,-286.339,4.96291,-0.11438,0.253565,-0.136358,0.21088,0.0508657,-0.0107776,0.335785,-0.10808103772796174,0.23476417446980036,0.05218157580831684,0.2886111364870312,-0.010719729756487162,-0.12746978924688424
661,0.6516,40.3646,491.204,0.318946,141.148,-286.448,4.96521,-0.114535,0.253903,-0.13654,0.211166,0.0509022,-0.0107896,0.336257,-0.108219274453491,0.23511736752789858,0.05221998113672677,0.2890467606675029,-0.010731601048502237,-0.1276285752952726
662,0.6526,40.3796,491.385,0.319252,141.2,-286.558,4.96751,-0.114691,0.254242,-0.136722,0.211453,0.0509386,-0.0108017,0.33673,-0.10835838139605258,0.235471897084937,0.05225828264112331,0.28948382159701125,-0.010743571123710383,-0.12778733244722973
663,0.6536,40.3946,491.567,0.319557,141.253,-286.668,4.9698,-0.114846,0.25458,-0.136903,0.21174,0.050975,-0.0108138,0.337202,-0.10849657513664468,0.23582652840656082,0.05229658553971994,0.28991974079490523,-0.010755541054081608,-0.12794518865363913
664,0.6546,40.4096,491.748,0.319862,141.305,-286.777,4.9721,-0.115002,0.254918,-0.137085,0.212026,0.0510114,-0.0108258,0.337674,-0.10863563882367366,0.23618002534133709,0.05233488983256751,0.2903558073583916,-0.010767411916363656,-0.12810388818720864
665,0.6556,40.4245,491.929,0.320168,141.358,-286.887,4.97439,-0.115157,0.255257,-0.137267,0.212312,0.0510478,-0.0108379,0.338146,-0.1087737895926949,0.2365336233906956,0.05237319551971664,0.2907933121299551,-0.010779381558262968,-0.12826255884009108
666,0.6566,40.4395,492.11,0.320473,141.41,-286.996,4.97667,-0.115312,0.255595,-0.137449,0.212598,0.0510841,-0.0108499,0.338618,-0.10891191895000629,0.23688732258355905,0.052411397360073275,0.2912296740104585,-0.010791252134460638,-0.12842120061754259
667,0.6576,40.4544,492.29,0.320778,141.462,-287.105,4.97896,-0.115467,0.255932,-0.13763,0.212884,0.0511205,-0.0108619,0.339089,-0.1090500268989264,0.23724112294885846,0.05244970583214714,0.2916648917406688,-0.010803122568212253,-0.12857894210419563
668,0.6586,40.4693,492.471,0.321084,141.515,-287.214,4.98124,-0.115623,0.25627,-0.137812,0.21317,0.0511568,-0.010874,0.339561,-0.10918900425421463,0.2375950245155336,0.05248791044987855,0.29210154826487256,-0.010815091778015318,-0.12873752630513258
669,0.6596,40.4842,492.651,0.321389,141.567,-287.323,4.98352,-0.115778,0.256608,-0.137993,0.213456,0.051193,-0.010886,0.340032,-0.10932706925824098,0.23794902731253198,0.05252601120185618,0.2925383524039271,-0.01082696192569299,-0.12889521054201747
670,0.6606,40.499,492.831,0.321694,141.619,-287.431,4.9858,-0.115933,0.256945,-0.138174,0.213742,0.0512293,-0.010898,0.340503,-0.10946511286385019,0.23830313136880976,0.05256421858952276,0.29297401123307676,-0.010838831930929715,-0.12905286624063816
671,0.6616,40.5138,493.01,0.321999,141.671,-287.54,4.98807,-0.116088,0.257283,-0.138356,0.214028,0.0512655,-0.01091,0.340974,-0.10960313507435859,0.23865733671333111,0.05260232210390514,0.293411110314457,-0.010850701793727269,-0.12921136419523105
672,0.6626,40.5287,493.19,0.322305,141.723,-287.648,4.99035,-0.116243,0.25762,-0.138537,0.214313,0.0513017,-0.0109221,0.341444,-0.10974113589308243,0.23901040436404486,0.052640426997659695,0.29384706331258714,-0.010862670427825183,-0.12936896267521902
673,0.6636,40.5435,493.369,0.32261,141.775,-287.756,4.99262,-0.116398,0.257957,-0.138718,0.214599,0.0513378,-0.0109341,0.341915,-0.10987911532333683,0.23936481201757154,0.05267842800298839,0.29428316325163606,-0.010874540004562339,-0.1295265326324635
674,0.6646,40.5582,493.548,0.322915,141.827,-287.864,4.99488,-0.116553,0.258294,-0.138899,0.214884,0.051374,-0.0109461,0.342385,-0.11001707336843702,0.23971808132748218,0.052716535651826435,0.2947194101811308,-0.01088640943886554,-0.12968407407212657
675,0.6656,40.573,493.727,0.32322,141.878,-287.972,4.99715,-0.116707,0.258631,-0.13908,0.215169,0.0514101,-0.0109581,0.342856,-0.11015412018626247,0.2400714513334945,0.052754539404727074,0.2951558041506155,-0.010898278730736455,-0.12984158699936965
676,0.6666,40.5877,493.905,0.323525,141.93,-288.08,4.99941,-0.116862,0.258968,-0.139261,0.215454,0.0514462,-0.0109701,0.343326,-0.11029203560891221,0.2404249220643111,0.052792544529587815,0.29559234520965116,-0.010910147880176635,-0.12999907141935274
677,0.6676,40.6025,494.084,0.32383,141.982,-288.188,5.00167,-0.117017,0.259304,-0.139442,0.215739,0.0514823,-0.0109821,0.343796,-0.11042992965632814,0.24077849354864256,0.052830551026458616,0.29602773737943,-0.010922016887187858,-0.13015652733723548
678,0.6686,40.6172,494.262,0.324136,142.033,-288.295,5.00393,-0.117171,0.259641,-0.139623,0.216024,0.0515183,-0.010994,0.344265,-0.11056691289918064,0.24113216581520813,0.05286845360853776,0.29646457232948187,-0.010933786845155558,-0.13031395475817598
679,0.6696,40.6318,494.44,0.32444,142.085,-288.403,5.00618,-0.117326,0.259977,-0.139804,0.216309,0.0515543,-0.011006,0.344735,-0.1107047643439183,0.2414859388927344,0.05290635755513473,0.2969002576168138,-0.010945655568500912,-0.13047135368733198
680,0.6706,40.6465,494.618,0.324746,142.136,-288.51,5.00843,-0.11748,0.260313,-0.139984,0.216594,0.0515903,-0.011018,0.345204,-0.11084170526548776,0.2418398128099568,0.052944262866298164,0.2973360893189987,-0.010957524149422415,-0.1306278547581493
681,0.6716,40.6611,494.795,0.325051,142.187,-288.617,5.01068,-0.117635,0.260649,-0.140165,0.216878,0.0516263,-0.01103,0.345673,-0.11097951412070939,0.24219254540245205,0.05298216954207735,0.2977720674852402,-0.010969392587921845,-0.13078519687654688
682,0.6726,40.6758,494.972,0.325356,142.239,-288.724,5.01293,-0.117789,0.260985,-0.140346,0.217163,0.0516622,-0.0110419,0.346142,-0.11111641273407102,0.24254662073122946,0.053019972280519134,0.29820819216475836,-0.010981161982122067,-0.13094251051859807
683,0.6736,40.6904,495.149,0.325661,142.29,-288.831,5.01518,-0.117944,0.261321,-0.140526,0.217447,0.0516981,-0.0110539,0.346611,-0.11125417901293477,0.2428995540856813,0.05305777637610354,0.29864446340678996,-0.010993030136969173,-0.13109892678881818
684,0.6746,40.705,495.326,0.325966,142.341,-288.938,5.01742,-0.118098,0.261657,-0.140706,0.217732,0.051734,-0.0110659,0.34708,-0.1113910353311598,0.24325383094064956,0.05309558182887919,0.2990808812605883,-0.011004898149399311,-0.13125531490664333
685,0.6756,40.7195,495.503,0.326271,142.392,-289.044,5.01966,-0.118252,0.261992,-0.140887,0.218016,0.0517699,-0.0110778,0.347548,-0.11152787057513458,0.24360696517132396,0.05313338863889494,0.2995161462586271,-0.011016667121085844,-0.1314125434650314
686,0.6766,40.7341,495.679,0.326576,142.443,-289.151,5.02189,-0.118406,0.262328,-0.141067,0.2183,0.0518057,-0.0110898,0.348017,-0.11166468474810431,0.2439601997063623,0.053171091489085276,0.29995285704707375,-0.011028534849873872,-0.13156887513693516
687,0.6776,40.7486,495.855,0.326881,142.494,-289.257,5.02413,-0.11856,0.262663,-0.141247,0.218584,0.0518415,-0.0111017,0.348485,-0.11180147785331362,0.2443135345742553,0.05320879568906167,0.30038841420593543,-0.01104030354028529,-0.13172517867167033
688,0.6786,40.7631,496.031,0.327186,142.545,-289.363,5.02636,-0.118714,0.262998,-0.141427,0.218868,0.0518773,-0.0111137,0.348953,-0.1119382498940068,0.24466696980350133,0.05324650123887276,0.3008241173008881,-0.011052170985437981,-0.1318814540743013
689,0.6796,40.7776,496.207,0.327491,142.596,-289.469,5.02859,-0.118868,0.263333,-0.141608,0.219152,0.0519131,-0.0111256,0.349421,-0.11207500087342748,0.24502050542260734,0.05328420813856649,0.30125996638082864,-0.011063939394581168,-0.13203856931175584
690,0.6806,40.7921,496.382,0.327796,142.647,-289.575,5.03082,-0.119022,0.263668,-0.141788,0.219435,0.0519488,-0.0111375,0.349889,-0.11221173079481883,0.24537289608656887,0.0533218110560052,0.3016959614946704,-0.011075707663680934,-0.13219478830914821
691,0.6816,40.8065,496.558,0.328101,142.698,-289.681,5.03304,-0.119176,0.264003,-0.141967,0.219719,0.0519846,-0.0111495,0.350356,-0.1123484396614235,0.24572663221721047,0.05335952065183869,0.3021321026913426,-0.0110875746839868,-0.13235011154019694
692,0.6826,40.821,496.733,0.328406,142.748,-289.786,5.03527,-0.11933,0.264338,-0.142147,0.220002,0.0520203,-0.0111614,0.350824,-0.11248512747648376,0.24607922274333416,0.053397126257981986,0.3025683900197915,-0.011099342671828327,-0.13250627446503482
693,0.6836,40.8354,496.908,0.328711,142.799,-289.892,5.03749,-0.119484,0.264672,-0.142327,0.220286,0.0520559,-0.0111733,0.351291,-0.11262179424324115,0.24643315949923372,0.05343462786320141,0.3030035205248074,-0.011111110519631762,-0.13266240928307593
694,0.6846,40.8498,497.082,0.329016,142.849,-289.997,5.0397,-0.119637,0.265007,-0.142507,0.220569,0.0520916,-0.0111852,0.351758,-0.11275755272293342,0.24678595000087333,0.053472236150720054,0.3034400998271334,-0.011122878227398547,-0.132818515999379
695,0.6856,40.8642,497.257,0.329321,142.9,-290.103,5.04192,-0.119791,0.265341,-0.142687,0.220852,0.0521272,-0.0111971,0.352225,-0.1128941775394332,0.2471388403563537,0.0535097404298992,0.3038755215318525,-0.01113464579513046,-0.13297459461900196
696,0.6866,40.8786,497.431,0.329627,142.95,-290.208,5.04413,-0.119945,0.265675,-0.142866,0.221135,0.0521628,-0.011209,0.352691,-0.11303078131733124,0.2474918305939373,0.05354724604425454,0.30431108869171064,-0.011146413222829166,-0.1331297782772134
697,0.6876,40.8929,497.605,0.32993,143.001,-290.313,5.04634,-0.120098,0.26601,-0.143046,0.221418,0.0521984,-0.011221,0.353158,-0.11316647722678796,0.24784492074189468,0.05358475299383336,0.3047481061027517,-0.011158279394673287,-0.13328580087466846
698,0.6886,40.9072,497.779,0.330236,143.051,-290.418,5.04855,-0.120252,0.266343,-0.143225,0.221701,0.0522339,-0.0112329,0.353624,-0.11330303907376293,0.24819811082850474,0.05362215591646269,0.3051826595712208,-0.011170046541133849,-0.13344092883194558
699,0.6896,40.9215,497.953,0.33054,143.101,-290.522,5.05076,-0.120405,0.266677,-0.143405,0.221984,0.0522694,-0.0112447,0.354091,-0.11343869333096934,0.24855140088205396,0.053659560166919196,0.30561866338810173,-0.011181714665742581,-0.1335968954273411
700,0.6906,40.9358,498.126,0.330845,143.151,-290.627,5.05296,-0.120559,0.267011,-0.143584,0.222266,0.0523049,-0.0112566,0.354557,-0.11357521325989206,0.2489035420266703,0.05369696574525018,0.3060548128545797,-0.011193481533325111,-0.1337519677036768
701,0.6916,40.9501,498.299,0.33115,143.202,-290.732,5.05516,-0.120712,0.267345,-0.143763,0.222549,0.0523404,-0.0112685,0.355022,-0.11371082587763348,0.24925703174549985,0.05373437265150294,0.3064911080193098,-0.01120524826088265,-0.13390701222455925
702,0.6926,40.9644,498.472,0.331455,143.252,-290.836,5.05736,-0.120865,0.267678,-0.143942,0.222831,0.0523759,-0.0112804,0.355488,-0.11384641774823157,0.2496093719060799,0.05377178088572432,0.3069262420040677,-0.011217014848416973,-0.13406202899495623
703,0.6936,40.9786,498.645,0.33176,143.302,-290.94,5.05955,-0.121018,0.268011,-0.144122,0.223113,0.0524113,-0.0112923,0.355954,-0.11398198887486044,0.24996181144059615,0.053809085067047624,0.3073615209125711,-0.011228781295929857,-0.13421788380238364
704,0.6946,40.9928,498.818,0.332065,143.352,-291.044,5.06175,-0.121171,0.268345,-0.144301,0.223396,0.0524467,-0.0113041,0.356419,-0.11411753926069368,0.2503156006920517,0.053846390568962565,0.30779825259068594,-0.01124044872747254,-0.13437284493174817
705,0.6956,41.007,498.99,0.33237,143.401,-291.148,5.06394,-0.121325,0.268678,-0.14448,0.223678,0.0524821,-0.011316,0.356884,-0.11425395465539245,0.2506682394111692,0.05388369739151555,0.30823382192706816,-0.011252214896123824,-0.13452777832555296
706,0.6966,41.0212,499.162,0.332675,143.451,-291.252,5.06613,-0.121478,0.269011,-0.144659,0.22396,0.0525175,-0.0113279,0.357349,-0.11438946343364431,0.2510209775884287,0.05392100553475343,0.3086695363321921,-0.011263980924758554,-0.13468268398876226
707,0.6976,41.0354,499.334,0.33298,143.501,-291.356,5.06831,-0.121631,0.269343,-0.144837,0.224242,0.0525528,-0.0113397,0.357814,-0.11452495148063913,0.25137381525188096,0.05395820960289677,0.3091040867496322,-0.011275647940948152,-0.13483669676346866
708,0.6986,41.0495,499.506,0.333285,143.551,-291.459,5.0705,-0.121783,0.269676,-0.145016,0.224524,0.0525881,-0.0113516,0.358279,-0.11465953345952451,0.251726752429585,0.053995414984366885,0.3095400910011987,-0.011287413690731274,-0.1349915471352262
709,0.6996,41.0637,499.678,0.33359,143.6,-291.563,5.07268,-0.121936,0.270009,-0.145195,0.224805,0.0526234,-0.0113634,0.358743,-0.11479498018896617,0.25207853707044503,0.05403262167921019,0.30997624046635774,-0.011299080430415831,-0.13514636979124794
710,0.7006,41.0778,499.849,0.333895,143.65,-291.666,5.07486,-0.122089,0.270341,-0.145374,0.225087,0.0526587,-0.0113753,0.359208,-0.11493040619664352,0.25243167300772584,0.05406982968747287,0.31041122478159333,-0.011310845901354005,-0.13530116473649434
711,0.7016,41.0919,500.02,0.334199,143.699,-291.769,5.07704,-0.122242,0.270674,-0.145552,0.225368,0.0526939,-0.0113871,0.359672,-0.1150658114857267,0.25278365575910144,0.05410693359850294,0.31084766438260614,-0.011322512364540183,-0.1354550674314251
712,0.7026,41.1059,500.191,0.334505,143.749,-291.873,5.07921,-0.122395,0.271006,-0.145731,0.22565,0.0527291,-0.011399,0.360136,-0.11520119605938539,0.25313699056789196,0.05414403881561358,0.3112829380586133,-0.01133427755663996,-0.13560980712473913
713,0.7036,41.12,500.362,0.334809,143.798,-291.975,5.08139,-0.122547,0.271338,-0.145909,0.225931,0.0527643,-0.0114108,0.3606,-0.11533567525690647,0.253489171541351,0.05418114533885077,0.3117183562694723,-0.011345943743334197,-0.1357636548862139
714,0.7046,41.134,500.533,0.335114,143.848,-292.078,5.08356,-0.1227,0.27167,-0.146088,0.226212,0.0527995,-0.0114226,0.361064,-0.11547101854456654,0.253841451491569,0.05421825316826068,0.3121539190631768,-0.011357609792368106,-0.135918339347317
715,0.7056,41.1481,500.703,0.335419,143.897,-292.181,5.08572,-0.122852,0.272002,-0.146266,0.226493,0.0528346,-0.0114344,0.361527,-0.1156054567321867,0.2541938304463627,0.054255256878358304,0.31258962648773614,-0.011369275703743575,-0.13607213219494374
716,0.7066,41.1621,500.873,0.335724,143.946,-292.284,5.08789,-0.123005,0.272333,-0.146444,0.226774,0.0528698,-0.0114463,0.361991,-0.11574075874643863,0.25454630843355597,0.0542923673165403,0.3130241655663537,-0.011381040339363047,-0.1362258976698797
717,0.7076,41.1761,501.043,0.336029,143.995,-292.386,5.09005,-0.123157,0.272665,-0.146623,0.227055,0.0529049,-0.0114581,0.362454,-0.11587515593666398,0.25489888548098105,0.054329373628090094,0.31346016196071824,-0.011392705974259565,-0.13638049939692942
718,0.7086,41.19,501.213,0.336334,144.044,-292.488,5.09221,-0.12331,0.272996,-0.146801,0.227336,0.0529399,-0.0114699,0.362917,-0.11601041669009415,0.25525156161647744,0.05436627580195119,0.31389498923427106,-0.011404371471502528,-0.1365342099873884
719,0.7096,41.204,501.382,0.336639,144.093,-292.591,5.09437,-0.123462,0.273328,-0.146979,0.227617,0.052975,-0.0114817,0.36338,-0.11614477289542702,0.2556043368678933,0.05440328470773448,0.3143312747900917,-0.011416036831093379,-0.13668789321979713
720,0.7106,41.2179,501.552,0.336944,144.142,-292.693,5.09653,-0.123614,0.273659,-0.147157,0.227897,0.05301,-0.0114935,0.363843,-0.11627910868016866,0.2559559553065005,0.05444018946852869,0.3147663904497162,-0.011427702053033895,-0.13684154909902513
721,0.7116,41.2319,501.721,0.33725,144.191,-292.795,5.09868,-0.123766,0.27399,-0.147335,0.228178,0.053045,-0.0115053,0.364305,-0.11641342404742272,0.2563089285203555,0.05447709552101232,0.31520165015646273,-0.011439367137325518,-0.13699517762994062
722,0.7126,41.2458,501.89,0.337554,144.24,-292.897,5.10084,-0.123918,0.274321,-0.147513,0.228458,0.05308,-0.0115171,0.364768,-0.11654771900029248,0.25666074427224794,0.05451400286523023,0.3156370539580182,-0.011451032083970025,-0.13714877881741128
723,0.7136,41.2597,502.059,0.337859,144.289,-292.998,5.10299,-0.12407,0.274652,-0.14769,0.228738,0.053115,-0.0115289,0.36523,-0.1166819935418808,0.2570126585463435,0.05455091150122793,0.3160726019020865,-0.01146269689296886,-0.137301489968225
724,0.7146,41.2735,502.227,0.338164,144.338,-293.1,5.10513,-0.124222,0.274983,-0.147868,0.229019,0.0531499,-0.0115406,0.365692,-0.11681624767528975,0.2573659287355319,0.054587715970273676,0.31650829403638636,-0.011474262711755112,-0.1374550366369517
725,0.7156,41.2874,502.396,0.338469,144.386,-293.201,5.10728,-0.124374,0.275313,-0.148046,0.229299,0.0531848,-0.0115524,0.366154,-0.11695048140362141,0.257718040488923,0.05462452172381771,0.31694281346518105,-0.01148592724663422,-0.13760855597680377
726,0.7166,41.3012,502.564,0.338774,144.435,-293.303,5.10942,-0.124526,0.275644,-0.148223,0.229579,0.0532197,-0.0115642,0.366616,-0.11708469472997685,0.25807025084740887,0.05466132876190488,0.31737879368718414,-0.01149759164387254,-0.1377611857542621
727,0.7176,41.315,502.732,0.339079,144.484,-293.404,5.11156,-0.124678,0.275974,-0.148401,0.229858,0.0532546,-0.011576,0.367077,-0.11721888765745703,0.2584213014166725,0.054698137084580045,0.31781360042826723,-0.01150925590347196,-0.13791465060442099
728,0.7186,41.3288,502.9,0.3394,144.532,-293.505,5.1137,-0.12483,0.276305,-0.148578,0.230138,0.0532895,-0.0115877,0.367539,-0.11735306018916236,0.25877370871578864,0.054734946691888275,0.31824986892846274,-0.011520821177520846,-0.13806722620792478
729,0.7196,41.3426,503.067,0.339688,144.581,-293.606,5.11584,-0.124982,0.276635,-0.148756,0.230418,0.0533243,-0.0115995,0.368,-0.1174872123281927,0.2591262147027642,0.05477165210670365,0.3186849631718107,-0.011532485163013306,-0.13822063658773087
730,0.7206,41.3564,503.235,0.339996,144.629,-293.707,5.11797,-0.125133,0.276965,-0.148933,0.230697,0.0533591,-0.0116113,0.368461,-0.11762046169855056,0.259477559927046,0.05480835879888968,0.31912020101995275,-0.01154414901087153,-0.1383731580365084
731,0.7216,41.3701,503.402,0.340299,144.677,-293.808,5.1201,-0.125285,0.277295,-0.14911,0.230977,0.0533939,-0.011623,0.368922,-0.11775457319564031,0.25983026301995427,0.05484506676849099,0.3195555825202856,-0.011555713876673535,-0.1385256524913786
732,0.7226,41.3839,503.569,0.340604,144.726,-293.909,5.12223,-0.125437,0.277624,-0.149288,0.231256,0.0534286,-0.0116348,0.369383,-0.11788866430933176,0.26018180470112107,0.054881670527379356,0.31998978772977527,-0.011567377450434568,-0.13867898127856826
733,0.7236,41.3976,503.736,0.340909,144.774,-294.009,5.12436,-0.125588,0.277954,-0.149465,0.231536,0.0534634,-0.0116465,0.369844,-0.118021853065017,0.26053470501017495,0.05491838104827296,0.32042545624107666,-0.011578942044465412,-0.13883142160751483
734,0.7246,41.4113,503.902,0.341193,144.822,-294.109,5.12649,-0.12574,0.278283,-0.149642,0.231815,0.0534981,-0.0116582,0.370304,-0.11815590355525574,0.26088644325807686,0.05495498735121118,0.3208599476861036,-0.011590506503191267,-0.1389838349569109
735,0.7256,41.425,504.069,0.341524,144.87,-294.21,5.12861,-0.125891,0.278613,-0.149819,0.232094,0.0535328,-0.01167,0.370765,-0.11828905196086126,0.26123827965464086,0.05499159492440997,0.3212959033975762,-0.011602169666401707,-0.13913622133153158
736,0.7266,41.4386,504.235,0.341822,144.918,-294.31,5.13073,-0.126042,0.278942,-0.149996,0.232373,0.0535674,-0.0116817,0.371225,-0.11842218026257545,0.26159021422725437,0.05502809826509836,0.3217306812668317,-0.011613733853365948,-0.1392885807361508
737,0.7276,41.4523,504.401,0.342131,144.966,-294.41,5.13285,-0.126194,0.279271,-0.150173,0.232652,0.0536021,-0.0116934,0.371685,-0.11855616990770457,0.2619422470033126,0.055064708375289984,0.3221656022015391,-0.011625297905030085,-0.13944091317554197
738,0.7286,41.4659,504.567,0.342451,145.014,-294.51,5.13496,-0.126345,0.2796,-0.15035,0.23293,0.0536367,-0.0117052,0.372145,-0.11868925787765383,0.26229311571647096,0.055101214245747654,0.32260066624877504,-0.011636960657704365,-0.13959321865447738
739,0.7296,41.4796,504.733,0.34274,145.062,-294.61,5.13708,-0.126496,0.279929,-0.150526,0.233209,0.0536713,-0.0117169,0.372604,-0.11882232575283691,0.26264534462940436,0.05513772137933026,0.3230358734556307,-0.011648524437616437,-0.1397446369227957
740,0.7306,41.4932,504.898,0.343047,145.11,-294.709,5.13919,-0.126647,0.280258,-0.150703,0.233488,0.0537059,-0.0117286,0.373064,-0.11895537353628782,0.26299767182791456,0.055174229776081773,0.3234712238692139,-0.011660088082233067,-0.13989688864738525
741,0.7316,41.5067,505.064,0.343367,145.158,-294.809,5.1413,-0.126798,0.280587,-0.15088,0.233766,0.0537405,-0.0117403,0.373523,-0.11908840123104003,0.2633488339899617,0.055210739436045486,0.3239067175366468,-0.01167165159155592,-0.14004911342580428
742,0.7326,41.5203,505.229,0.343655,145.206,-294.909,5.14341,-0.12695,0.280915,-0.151056,0.234044,0.053775,-0.011752,0.373982,-0.11922228961827774,0.26370009378866066,0.055247144834545514,0.324341030163376,-0.011683214965586441,-0.1402004514637034
743,0.7336,41.5339,505.394,0.343963,145.253,-295.008,5.14551,-0.1271,0.281244,-0.151233,0.234323,0.0538095,-0.0117637,0.374441,-0.11935439636658118,0.2640527153032417,0.055283551489053506,0.32477681004415926,-0.011694778204326184,-0.1403526225162589
744,0.7346,41.5474,505.558,0.344267,145.301,-295.107,5.14762,-0.127251,0.281572,-0.151409,0.234601,0.053844,-0.0117754,0.3749,-0.11948736381343494,0.2644041708081477,0.05531995939961276,0.32521140810803995,-0.011706341307776924,-0.1405039071412585
745,0.7356,41.5609,505.723,0.344588,145.349,-295.206,5.14971,-0.127402,0.2819,-0.151586,0.234879,0.0538785,-0.0117871,0.375359,-0.11962031118372007,0.26475572403126635,0.05535636856626658,0.32564614874346587,-0.011717904275940105,-0.14065602448691228
746,0.7366,41.5744,505.887,0.344876,145.396,-295.305,5.15181,-0.127553,0.282228,-0.151762,0.235157,0.0539129,-0.0117988,0.375817,-0.11975323848046782,0.2651073749997668,0.0553926734497856,0.3260810319972085,-0.011729467108817393,-0.1408072557178639
747,0.7376,41.5879,506.052,0.345184,145.444,-295.404,5.15391,-0.127704,0.282556,-0.151938,0.235435,0.0539474,-0.0118105,0.376276,-0.11988614570670919,0.26545912374082636,0.05542908512511735,0.3265160579160542,-0.011741029806410341,-0.1409584603344609
748,0.7386,41.6014,506.216,0.345489,145.491,-295.503,5.15601,-0.127855,0.282884,-0.152114,0.235713,0.0539818,-0.0118221,0.376734,-0.12001903286547444,0.2658109702816296,0.05546539251012916,0.32695122654680464,-0.011752493543974785,-0.14110963834138723
749,0.7396,41.6148,506.379,0.345794,145.538,-295.602,5.1581,-0.128005,0.283212,-0.15229,0.23599,0.0540162,-0.0118338,0.377192,-0.12015102011125378,0.2661616484870868,0.05550170114413633,0.32738653793627726,-0.011764055972159904,-0.14126078974332568
750,0.7406,41.6283,506.543,0.346099,145.586,-295.7,5.16019,-0.128156,0.283539,-0.152467,0.236268,0.0540505,-0.0118455,0.37765,-0.12028386727700346,0.26651369035691874,0.05553790547338622,0.32782066430997614,-0.011775618265065568,-0.14141277313261436
751,0.7416,41.6417,506.706,0.346405,145.633,-295.799,5.16228,-0.128306,0.283867,-0.152643,0.236545,0.0540849,-0.0118572,0.378108,-0.12041581480060026,0.26686456324279884,0.05557421660188244,0.3282562609218087,-0.011787180422693111,-0.14156387118752412
752,0.7426,41.6551,506.87,0.346709,145.68,-295.897,5.16437,-0.128457,0.284194,-0.152818,0.236823,0.0541192,-0.0118688,0.378565,-0.12054862198537064,0.26721680055009744,0.055610423418455346,0.3286906717414284,-0.011798643624913452,-0.14171408436602984
753,0.7436,41.6685,507.033,0.347015,145.727,-295.995,5.16646,-0.128607,0.284521,-0.152994,0.2371,0.0541535,-0.0118805,0.379023,-0.12068052979873944,0.267567868224478,0.05564663147694304,0.32912522463661387,-0.011810205513145933,-0.14186512939482898
754,0.7446,41.6819,507.196,0.34732,145.774,-296.093,5.16854,-0.128758,0.284849,-0.15317,0.237377,0.0541877,-0.0118921,0.37948,-0.12081329701456278,0.2679190331580741,0.055682735209110046,0.32956124921441643,-0.011821668448276812,-0.1420161478420423
755,0.7456,41.6952,507.358,0.347626,145.821,-296.191,5.17063,-0.128908,0.285176,-0.153346,0.237654,0.054222,-0.0119038,0.379937,-0.1209451651296547,0.2682702953778304,0.05571894574793479,0.3299960868349858,-0.011833230067120337,-0.14216713971234773
756,0.7466,41.7086,507.521,0.347931,145.868,-296.289,5.17271,-0.129058,0.285502,-0.153521,0.237931,0.0542562,-0.0119154,0.380394,-0.12107701346601285,0.2686216549106988,0.05575505195329189,0.33042973624030636,-0.011844692735167972,-0.14231724732809858
757,0.7476,41.7219,507.683,0.348265,145.915,-296.387,5.17478,-0.129208,0.285829,-0.153697,0.238208,0.0542904,-0.0119271,0.380851,-0.12120884202660365,0.2689731117836387,0.05579115939350254,0.3308648579025715,-0.011856254084628981,-0.1424681862095577
758,0.7486,41.7352,507.845,0.34854,145.962,-296.484,5.17686,-0.129359,0.286156,-0.153873,0.238485,0.0543246,-0.0119387,0.381307,-0.12134152947330334,0.26932466602361704,0.05582726806860849,0.3313001218728864,-0.011867716485599478,-0.14261909852811117
759,0.7496,41.7485,508.007,0.34885,146.009,-296.582,5.17893,-0.129509,0.286482,-0.154048,0.238761,0.0543588,-0.0119503,0.381764,-0.12147331835946884,0.26967504798192565,0.05586337797865237,0.3317341964629308,-0.011879178753607,-0.1427691270579895
760,0.7506,41.7618,508.169,0.349153,146.056,-296.679,5.181,-0.129659,0.286809,-0.154223,0.239038,0.054393,-0.011962,0.38222,-0.12160508747878385,0.27002679668516283,0.05589948912367637,0.33216974475343863,-0.011890739699583874,-0.14291912933517237
761,0.7516,41.7751,508.331,0.349459,146.102,-296.777,5.18307,-0.129809,0.287135,-0.154399,0.239314,0.0544271,-0.0119736,0.382676,-0.12173683683421332,0.2703773724582792,0.055935495910167665,0.332604102886757,-0.011902201700523696,-0.14306996229471958
762,0.7526,41.7883,508.492,0.349761,146.149,-296.874,5.18513,-0.129959,0.287461,-0.154574,0.239591,0.0544612,-0.0119852,0.383132,-0.12186856642872157,0.27072931573234316,0.055971503924511445,0.3330386026439105,-0.011913663568504984,-0.14321991193034211
763,0.7536,41.8015,508.653,0.350074,146.196,-296.971,5.1872,-0.130109,0.287787,-0.154749,0.239867,0.0544953,-0.0119968,0.383588,-0.12200027626527266,0.27108008542747664,0.056007513166749456,0.3334732440710757,-0.011925125303529405,-0.14336983532707448
764,0.7546,41.8148,508.815,0.350374,146.242,-297.068,5.18926,-0.130259,0.288113,-0.154924,0.240143,0.0545293,-0.0120084,0.384044,-0.12213196634682977,0.2714309519484073,0.0560434180325764,0.3339080272144448,-0.0119365869055984,-0.143519732489508
765,0.7556,41.828,508.975,0.350682,146.289,-297.165,5.19132,-0.130408,0.288439,-0.1551,0.240419,0.0545634,-0.0120201,0.384499,-0.12226275893955396,0.2717819153218626,0.056079429727127206,0.33434295212022436,-0.01194814717990389,-0.14367045975220172
766,0.7566,41.8411,509.136,0.350987,146.335,-297.261,5.19338,-0.130558,0.288765,-0.155275,0.240695,0.0545974,-0.0120317,0.384955,-0.12239440965166282,0.27213297557457783,0.05611533703815863,0.334778018834637,-0.011959608514920728,-0.14382030430996384
767,0.7576,41.8543,509.297,0.351293,146.382,-297.358,5.19544,-0.130708,0.28909,-0.15545,0.240971,0.0546314,-0.0120433,0.38541,-0.12252604061764583,0.27248413273329497,0.05615124557005946,0.3352118921913596,-0.011971069716986915,-0.14397012264722275
768,0.7586,41.8675,509.457,0.351599,146.428,-297.455,5.19749,-0.130857,0.289416,-0.155624,0.241247,0.0546654,-0.0120549,0.385865,-0.12265677449767787,0.2728353868247644,0.05618715532287122,0.3356472422264143,-0.011982530786103784,-0.14411905888805343
769,0.7596,41.8806,509.617,0.351905,146.474,-297.551,5.19955,-0.131007,0.289741,-0.155799,0.241523,0.0546993,-0.0120664,0.38632,-0.12278836611188537,0.27318673787574266,0.05622296067433408,0.33608139812665017,-0.011993892921667415,-0.14426882494783555
770,0.7606,41.8937,509.777,0.35221,146.52,-297.647,5.2016,-0.131156,0.290066,-0.155974,0.241798,0.0547333,-0.012078,0.386774,-0.1229190609083306,0.2735369123754454,0.056258872865500686,0.33651569515048485,-0.012005353726036727,-0.14441856480085036
771,0.7616,41.9068,509.937,0.352513,146.567,-297.743,5.20364,-0.131306,0.290391,-0.156149,0.242074,0.0547672,-0.0120896,0.387229,-0.12305061318252708,0.27388845707419773,0.0562946806482294,0.3369501333437912,-0.012016814397461495,-0.14456827845168374
772,0.7626,41.9199,510.097,0.352823,146.613,-297.84,5.20569,-0.131455,0.290716,-0.156323,0.242349,0.0548011,-0.0121012,0.387683,-0.12318126890706971,0.27423882457321636,0.056330489644862425,0.33738471275245674,-0.012028274935943162,-0.14471711062245873
773,0.7636,41.933,510.256,0.353131,146.659,-297.936,5.20773,-0.131605,0.291041,-0.156498,0.242624,0.054835,-0.0121128,0.388138,-0.12331278185301608,0.2745892884365464,0.05636629985544106,0.33781943342238363,-0.012039735341483393,-0.14486677203234444
774,0.7646,41.9461,510.416,0.353433,146.705,-298.031,5.20977,-0.131754,0.291366,-0.156672,0.2429,0.0548688,-0.0121243,0.388592,-0.12344339851733688,0.2749411236311783,0.05640200563980047,0.3382542953994896,-0.01205109681919836,-0.14501555226975482
775,0.7656,41.9591,510.575,0.353741,146.751,-298.127,5.21181,-0.131903,0.29169,-0.156847,0.243175,0.0549026,-0.0121359,0.389046,-0.12357399572122452,0.2752917806533075,0.05643771263103581,0.33868796004107726,-0.012062556960006354,-0.14516516145692193
776,0.7666,41.9722,510.734,0.354046,146.797,-298.223,5.21385,-0.132052,0.292015,-0.157021,0.24345,0.0549364,-0.0121475,0.389499,-0.12370457346757835,0.27564253411937845,0.05647342082918794,0.3391231043352081,-0.012074016967877466,-0.1453138897790892
777,0.7676,41.9852,510.892,0.354352,146.843,-298.318,5.21589,-0.132202,0.292339,-0.157196,0.243725,0.0549702,-0.012159,0.389953,-0.12383600792372751,0.27599338405591634,0.05650913023429749,0.339557050516498,-0.0120853780513559,-0.14546344676176015
778,0.7686,41.9982,511.051,0.354658,146.888,-298.414,5.21792,-0.132351,0.292664,-0.15737,0.243999,0.055004,-0.0121706,0.390406,-0.12396654663317153,0.2763430541457623,0.05654484084640532,0.3399924773109373,-0.012096837794503879,-0.1456121231867995
779,0.7696,42.0112,511.209,0.354964,146.934,-298.509,5.21995,-0.1325,0.292988,-0.157544,0.244274,0.0550378,-0.0121821,0.39086,-0.12409706589379688,0.27669409675179835,0.056580552665552286,0.34042670521470786,-0.012108198615544463,-0.14576077374439145
780,0.7706,42.0241,511.368,0.355271,146.98,-298.604,5.22199,-0.132649,0.293312,-0.157718,0.244549,0.0550715,-0.0121937,0.391313,-0.12422756570850102,0.27704523590782615,0.05661616003015779,0.3408610738311133,-0.012119658093975416,-0.1459093984390365
781,0.7716,42.0371,511.526,0.355577,147.026,-298.699,5.22401,-0.132798,0.293636,-0.157892,0.244823,0.0551052,-0.0122052,0.391766,-0.12435804608018142,0.2773951942445676,0.05665176859475185,0.34129558320575226,-0.012131018652583925,-0.1460579972752345
782,0.7726,42.05,511.684,0.355883,147.071,-298.794,5.22604,-0.132946,0.29396,-0.158066,0.245098,0.0551389,-0.0122167,0.392219,-0.12448763149980391,0.2777465262289187,0.05668737835937465,0.3417302333842376,-0.012142379080546828,-0.1462065702574843
783,0.7736,42.063,511.841,0.356189,147.117,-298.889,5.22807,-0.133095,0.294283,-0.15824,0.245372,0.0551726,-0.0122283,0.392671,-0.12461807312456807,0.2780966767455355,0.05672298932406661,0.34216368224784377,-0.012153838162486719,-0.14635511739028417
784,0.7746,42.0759,511.999,0.356496,147.162,-298.984,5.23009,-0.133244,0.294607,-0.158414,0.245646,0.0552062,-0.0122398,0.393124,-0.124748495314978,0.27844692321653897,0.05675849581301362,0.3425986137359882,-0.01216519832802676,-0.14650363867813143
785,0.7756,42.0888,512.156,0.356802,147.208,-299.079,5.23211,-0.133393,0.29493,-0.158588,0.24592,0.0552398,-0.0122513,0.393576,-0.12487889807392927,0.2787972656682245,0.056794003494998746,0.34303234313175146,-0.012176558362925749,-0.14665213412552291
786,0.7766,42.1017,512.314,0.357105,147.253,-299.173,5.23412,-0.133541,0.295254,-0.158762,0.246194,0.0552734,-0.0122628,0.394028,-0.1250084064131608,0.27914770412689394,0.05682951237006195,0.3434675561116216,-0.012187918267184905,-0.14680060373695425
787,0.7776,42.1145,512.471,0.357415,147.299,-299.268,5.23613,-0.13369,0.295577,-0.158935,0.246468,0.055307,-0.0122744,0.39448,-0.1251387704482435,0.2794982386188569,0.05686502243824343,0.3439015662211051,-0.012199376820873353,-0.14694819446554164
788,0.7786,42.1274,512.628,0.357721,147.344,-299.362,5.23815,-0.133839,0.2959,-0.159109,0.246742,0.0553406,-0.0122859,0.394932,-0.12526911506053195,0.2798488691704304,0.056900533699583145,0.34433571653849615,-0.01221073646272175,-0.1470966125669554
789,0.7796,42.1402,512.784,0.358028,147.389,-299.457,5.24015,-0.133987,0.296223,-0.159283,0.247016,0.0553741,-0.0122974,0.395384,-0.12539856565192298,0.2801995958079382,0.05693594046052186,0.34477000710908956,-0.012222095973935199,-0.147245004845866
790,0.7806,42.153,512.941,0.358334,147.434,-299.551,5.24216,-0.134136,0.296546,-0.159456,0.247289,0.0554077,-0.0123089,0.395835,-0.12552887155760972,0.28054913800793324,0.05697145410474724,0.3452044379781942,-0.012233455354514922,-0.14739251869971148
791,0.7816,42.1658,513.097,0.358644,147.48,-299.645,5.24417,-0.134284,0.296868,-0.15963,0.247563,0.0554412,-0.0123204,0.396287,-0.1256582837078839,0.2809000565453914,0.05700686324155946,0.34563766355279757,-0.012244814604462473,-0.14754085949543416
792,0.7826,42.1786,513.253,0.358946,147.525,-299.739,5.24618,-0.134432,0.297191,-0.159803,0.247836,0.0554747,-0.0123319,0.396738,-0.12578767670657698,0.28124978999727257,0.05704227356459768,0.346072374720199,-0.012256173723779518,-0.14768832217085226
793,0.7836,42.1914,513.409,0.359254,147.57,-299.833,5.24818,-0.134581,0.297514,-0.159976,0.24811,0.0555081,-0.0123434,0.397189,-0.12591792463903584,0.28160090053967934,0.05707757936613844,0.3465072263219868,-0.012267532712467388,-0.1478357593374341
794,0.7846,42.2042,513.565,0.35956,147.615,-299.926,5.25018,-0.134729,0.297836,-0.16015,0.248383,0.0555416,-0.0123548,0.39764,-0.1260472792137146,0.2819508253480898,0.057112992058206524,0.34694087146198327,-0.01227879279841182,-0.14798402301599523
795,0.7856,42.2169,513.721,0.359867,147.66,-300.02,5.25218,-0.134877,0.298158,-0.160323,0.248656,0.055575,-0.0123663,0.398091,-0.12617661464533292,0.2823008456990137,0.0571483002217843,0.3473746562581981,-0.012290151526981874,-0.1481314090307556
796,0.7866,42.2297,513.877,0.360174,147.705,-300.114,5.25418,-0.135025,0.29848,-0.160496,0.248929,0.0556084,-0.0123778,0.398542,-0.12630593093672382,0.2826509616185382,0.0571836095646745,0.34780858075560817,-0.012301510124927195,-0.1482787695499409
797,0.7876,42.2424,514.032,0.36048,147.75,-300.207,5.25618,-0.135173,0.298802,-0.160669,0.249202,0.0556418,-0.0123893,0.398992,-0.12643522809071972,0.28300117313275663,0.0572189200869162,0.3482426449992042,-0.012312868592249449,-0.14842610457796135
798,0.7886,42.2551,514.187,0.360787,147.794,-300.3,5.25818,-0.135321,0.299124,-0.160842,0.249475,0.0556752,-0.0124008,0.399442,-0.1265645061101529,0.28335148026777013,0.05725423178854938,0.34867684903399176,-0.012324226928950077,-0.14857341411922664
799,0.7896,42.2678,514.342,0.361094,147.839,-300.394,5.26017,-0.135469,0.299446,-0.161015,0.249748,0.0557085,-0.0124122,0.399892,-0.126693764997855,0.2837018830496867,0.05728943894066374,0.34911119290499104,-0.01233548636858417,-0.1487206981781456
800,0.7906,42.2804,514.497,0.361401,147.884,-300.487,5.26216,-0.135617,0.299768,-0.161188,0.250021,0.0557418,-0.0124237,0.400342,-0.1268230047566573,0.2840523815046214,0.057324647265195816,0.34954567665723646,-0.01234684444518186,-0.14886795675912623
801,0.7916,42.2931,514.652,0.361708,147.929,-300.58,5.26415,-0.135765,0.30009,-0.161361,0.250293,0.0557751,-0.0124351,0.400792,-0.12695222538939055,0.2844016912563634,0.05735985676218469,0.3499803003357771,-0.012358103626977757,-0.14901518986657591
802,0.7926,42.3058,514.806,0.362015,147.973,-300.673,5.26614,-0.135913,0.300411,-0.161533,0.250566,0.0558084,-0.0124466,0.401242,-0.12708142689888546,0.28475238078501897,0.05739506743166922,0.3504137135712875,-0.012369461443478502,-0.1491615466668732
803,0.7936,42.3184,514.961,0.362322,148.018,-300.765,5.26812,-0.136061,0.300732,-0.161706,0.250838,0.0558417,-0.012458,0.401692,-0.1272106092879718,0.2851018809624619,0.05743027927368849,0.3508472659547788,-0.012380720367441977,-0.149308728987662
804,0.7946,42.331,515.115,0.362629,148.062,-300.858,5.27011,-0.136208,0.301054,-0.161879,0.25111,0.0558749,-0.0124695,0.402141,-0.12733889989881553,0.28545147621688294,0.05746538654173783,0.3512823088125574,-0.012392077923851663,-0.14945588584811165
805,0.7956,42.3436,515.269,0.362936,148.107,-300.951,5.27209,-0.136356,0.301375,-0.162051,0.251382,0.0559082,-0.0124809,0.40259,-0.1274680441847177,0.28580116657414645,0.057500600725422624,0.3517161400598763,-0.012403336589988823,-0.14960216685521854
806,0.7966,42.3562,515.423,0.363243,148.151,-301.043,5.27407,-0.136504,0.301696,-0.162224,0.251655,0.0559414,-0.0124924,0.403039,-0.1275971693586797,0.2861522382117194,0.05753571032818283,0.35215011058937895,-0.012414693886313555,-0.14974927295530804
807,0.7976,42.3688,515.576,0.36355,148.196,-301.136,5.27605,-0.136651,0.302017,-0.162396,0.251926,0.0559746,-0.0125038,0.403488,-0.12772540314936942,0.2865008327006946,0.05757082109660128,0.3525842204457825,-0.012425952294630171,-0.14989550350417202
808,0.7986,42.3813,515.73,0.363857,148.24,-301.228,5.27802,-0.136799,0.302337,-0.162569,0.252198,0.0560077,-0.0125152,0.403937,-0.12785449023702322,0.28685080852174316,0.05760582727012853,0.35301711665602475,-0.012437210574601676,-0.1500425588614106
809,0.7996,42.3939,515.883,0.364164,148.284,-301.32,5.28,-0.136946,0.302658,-0.162741,0.25247,0.0560409,-0.0125266,0.404386,-0.12798268620432396,0.2872008795491625,0.05764094036646816,0.35345150486604915,-0.012448468726229511,-0.15018873896943685
810,0.8006,42.4064,516.037,0.364472,148.329,-301.412,5.28197,-0.137094,0.302979,-0.162913,0.252742,0.056074,-0.0125381,0.404834,-0.12811173521690322,0.2875510458088524,0.05767594886098171,0.3538860325370712,-0.012459825503537636,-0.15033489393664656
811,0.8016,42.4189,516.19,0.364779,148.373,-301.504,5.28394,-0.137241,0.303299,-0.163085,0.253014,0.0561071,-0.0125495,0.405282,-0.12823989337197117,0.28790130732671915,0.05771095851429542,0.35431934539384247,-0.012471083397356697,-0.15048102376736372
812,0.8026,42.4315,516.343,0.365086,148.417,-301.596,5.28591,-0.137388,0.303619,-0.163258,0.253285,0.0561402,-0.0125609,0.40573,-0.12836803268917496,0.2882503758776571,0.057745969326448154,0.35475279693291606,-0.012482341162836641,-0.15062797783835835
813,0.8036,42.4439,516.495,0.365394,148.461,-301.688,5.28787,-0.137536,0.30394,-0.16343,0.253556,0.0561733,-0.0125723,0.406178,-0.12849702467469448,0.28859953903899127,0.05778098129747766,0.3551877423857419,-0.012493598799978689,-0.15077405726297954
814,0.8046,42.4564,516.648,0.365701,148.505,-301.78,5.28984,-0.137683,0.30426,-0.163602,0.253828,0.0562063,-0.0125837,0.406626,-0.1286251261963749,0.2889500857858063,0.05781588864582865,0.3556214718563193,-0.012504856308784507,-0.15092011156410035
815,0.8056,42.4689,516.8,0.366009,148.549,-301.871,5.2918,-0.13783,0.30458,-0.163774,0.254099,0.0562394,-0.0125951,0.407074,-0.1287532088885155,0.2892994385942218,0.05785090293122597,0.3560553401425368,-0.012516113689255315,-0.15106614074604163
816,0.8066,42.476,516.946,0.360341,148.589,-301.966,5.28664,-0.137977,0.3049,-0.163946,0.25437,0.0562728,-0.0126063,0.407522,-0.12888127275388417,0.2896488860900779,0.057886235741438474,0.3564893472888224,-0.012527173446847284,-0.15121214481312362
817,0.8076,42.4903,517.1,0.36781,148.628,-302.062,5.28103,-0.138123,0.305219,-0.164118,0.254641,0.0563061,-0.0126175,0.40797,-0.12900844680413048,0.2899984282990382,0.05792146393963504,0.35692213641680337,-0.01253823308057056,-0.15135812376966562
818,0.8086,42.4997,517.249,0.366514,148.669,-302.157,5.27608,-0.13827,0.305539,-0.164291,0.254912,0.0563395,-0.0126287,0.408417,-0.12913647315228316,0.29034806524677403,0.057956799106624546,0.35735642098228126,-0.012549292590426697,-0.15150492611548438
819,0.8096,42.5109,517.399,0.36771,148.709,-302.251,5.27129,-0.138417,0.305858,-0.164463,0.255182,0.0563727,-0.0126399,0.408865,-0.12926448068194585,0.29069650626181076,0.05799192385542251,0.3577894867508924,-0.012560351976417028,-0.1516508547179729
820,0.8106,42.5213,517.548,0.367796,148.749,-302.345,5.26675,-0.138563,0.306178,-0.164635,0.255453,0.056406,-0.0126511,0.409312,-0.12939159878791873,0.29104633241431044,0.05802715557309179,0.3582240489128903,-0.012571411238542884,-0.15179675822290029
821,0.8116,42.5322,517.698,0.36826,148.789,-302.44,5.26241,-0.13871,0.306497,-0.164807,0.255724,0.0564392,-0.0126623,0.409759,-0.12951956881686932,0.2913962533825445,0.05806228265776325,0.35865739149896125,-0.01258247037680571,-0.15194263663458296
822,0.8126,42.543,517.847,0.368573,148.83,-302.533,5.25828,-0.138857,0.306816,-0.164979,0.255994,0.0564724,-0.0126735,0.410206,-0.1296475200356083,0.2917449774465879,0.05809741090867315,0.3590908723433679,-0.012593529391206948,-0.15208848995733648
823,0.8136,42.554,517.996,0.368939,148.871,-302.627,5.25435,-0.139003,0.307136,-0.165151,0.256264,0.0565056,-0.0126848,0.410653,-0.12977458222191773,0.29209379567884075,0.05813254032586035,0.3595258510153936,-0.012604687021284144,-0.15223431819547584
824,0.8146,42.565,518.146,0.369282,148.912,-302.72,5.2506,-0.13915,0.307454,-0.165323,0.256535,0.0565387,-0.012696,0.4111,-0.12990249595644132,0.29244400054808617,0.0581675650926019,0.3599582489836497,-0.0126157457868602,-0.15238012135331513
825,0.8156,42.5761,518.295,0.369633,148.953,-302.813,5.24705,-0.139296,0.307773,-0.165495,0.256805,0.0565718,-0.0127072,0.411547,-0.1300295209189838,0.29279300754205817,0.058202591018682304,0.3603921448677896,-0.012626804428578886,-0.15252589943516792
826,0.8166,42.5872,518.444,0.369979,148.994,-302.906,5.24367,-0.139442,0.308092,-0.165667,0.257075,0.0566048,-0.0127184,0.411993,-0.13015652733723548,0.29314210878064095,0.05823751228038354,0.3608261791867955,-0.012637862946441536,-0.15267165244534686
827,0.8176,42.5984,518.592,0.370325,149.035,-302.999,5.24046,-0.139589,0.308411,-0.165839,0.257345,0.0566379,-0.0127296,0.412439,-0.13028438492995353,0.29349130428928394,0.058272540521754346,0.36126035198483564,-0.01264892134044937,-0.15281738038816395
828,0.8186,42.6097,518.741,0.370669,149.076,-303.092,5.23742,-0.139735,0.308729,-0.16601,0.257615,0.0566709,-0.0127408,0.412885,-0.13041135414077587,0.29384059409344365,0.0583074640918273,0.3616933016121091,-0.012659979610603944,-0.15296223623059002
829,0.8196,42.621,518.89,0.371013,149.118,-303.184,5.23454,-0.139881,0.309048,-0.166182,0.257884,0.0567039,-0.012752,0.413331,-0.1305383048154466,0.29418868402925225,0.05834238881439702,0.362127751066327,-0.012671037756906589,-0.15310791419729408
830,0.8206,42.6324,519.038,0.371355,149.159,-303.276,5.23181,-0.140027,0.309366,-0.166353,0.258154,0.0567368,-0.0127632,0.413777,-0.13066523695667176,0.2945381621513634,0.05837720885177555,0.36256097657037056,-0.012682095779358638,-0.15325272036268633
831,0.8216,42.6438,519.187,0.371696,149.201,-303.368,5.22923,-0.140173,0.309684,-0.166525,0.258424,0.0567697,-0.0127744,0.414223,-0.13079215056715698,0.2948877346453074,0.05841203003475193,0.36299433986203145,-0.012693153677961533,-0.15339834837041633
832,0.8226,42.6553,519.335,0.372037,149.243,-303.46,5.2268,-0.140319,0.310002,-0.166696,0.258693,0.0568026,-0.0127856,0.414668,-0.13091904564960777,0.2952361062998139,0.05844685236336433,0.3634278409851328,-0.012704211452716718,-0.15354310487581102
833,0.8236,42.6668,519.483,0.372376,149.284,-303.551,5.2245,-0.140466,0.31032,-0.166867,0.258962,0.0568355,-0.0127968,0.415114,-0.1310467911603722,0.29558457167890073,0.05848167583765007,0.3638614799835127,-0.012715269103625526,-0.15368783662995955
834,0.8246,42.6784,519.632,0.372714,149.326,-303.643,5.22234,-0.140611,0.310638,-0.167039,0.259232,0.0568683,-0.012808,0.415559,-0.13117278024122492,0.295934426741562,0.05851639460600233,0.3642952569010218,-0.012726326630689289,-0.15383338980412742
835,0.8256,42.69,519.78,0.373052,149.368,-303.734,5.22031,-0.140757,0.310956,-0.16721,0.259501,0.0569011,-0.0128192,0.416004,-0.13129961975579973,0.29628307999411563,0.05855111451314876,0.36472917178152575,-0.012737384033909449,-0.1539780719237972
836,0.8266,42.7017,519.927,0.373389,149.41,-303.825,5.2184,-0.140903,0.311273,-0.167381,0.25977,0.0569339,-0.0128304,0.416449,-0.13142644075315735,0.29663182704700963,0.058585835559126664,0.3651618595063615,-0.01274844131328734,-0.15412272930493964
837,0.8276,42.7133,520.075,0.373724,149.452,-303.916,5.21662,-0.141049,0.311591,-0.167552,0.260039,0.0569667,-0.0128416,0.416894,-0.13155324323600093,0.29698066792547984,0.05862055774397379,0.3655960500103157,-0.012759498468824515,-0.1542673619517847
838,0.8286,42.725,520.223,0.374059,149.494,-304.007,5.21495,-0.141195,0.311908,-0.167723,0.260308,0.0569994,-0.0128528,0.417338,-0.1316800272070333,0.29732960265476893,0.058655175202204424,0.3660290125791106,-0.012770555500522085,-0.15441196986856176
839,0.8296,42.7368,520.37,0.374393,149.536,-304.097,5.21339,-0.141341,0.312226,-0.167894,0.260577,0.0570321,-0.012864,0.417783,-0.13180679266895723,0.29767863126012584,0.058689793792444434,0.3664634788815915,-0.012781612408381715,-0.154556553059499
840,0.8306,42.7486,520.518,0.374727,149.578,-304.188,5.21195,-0.141486,0.312543,-0.168065,0.260846,0.0570648,-0.0128751,0.418227,-0.13193267155758026,0.29802775376680657,0.05872441351473068,0.36689671646892674,-0.012792570471666598,-0.1547011115288245
841,0.8316,42.7604,520.665,0.37506,149.62,-304.278,5.2106,-0.141632,0.31286,-0.168235,0.261114,0.0570975,-0.0128863,0.418671,-0.1320594001361215,0.29837567182375335,0.05875903436910068,0.36733009141434714,-0.012803627132959905,-0.15484480012598778
842,0.8326,42.7722,520.812,0.375392,149.662,-304.368,5.20936,-0.141778,0.313177,-0.168406,0.261383,0.0571301,-0.0128975,0.419115,-0.1321861102136409,0.2987249818595674,0.05879355047623047,0.36776360376140205,-0.012814683670419269,-0.1549893093092789
843,0.8336,42.784,520.96,0.375723,149.704,-304.458,5.20822,-0.141923,0.313493,-0.168577,0.261651,0.0571627,-0.0129087,0.419559,-0.13231193410520736,0.29907308679868416,0.05882806770860394,0.3681958853570857,-0.012825740084046133,-0.15513379378361247
844,0.8346,42.7959,521.107,0.376054,149.746,-304.548,5.20717,-0.142069,0.31381,-0.168747,0.26192,0.0571953,-0.0129199,0.420002,-0.13243860731545865,0.29942258446436143,0.05886258606625727,0.3686296722043265,-0.012836796373841941,-0.15527740883104435
845,0.8356,42.8078,521.253,0.376384,149.789,-304.638,5.20622,-0.142214,0.314127,-0.168918,0.262188,0.0572279,-0.0129311,0.420446,-0.1325643945975995,0.2997708763860307,0.05889710554922756,0.36906359658379584,-0.012847852539807914,-0.1554218440445715
846,0.8366,42.8197,521.4,0.376713,149.831,-304.727,5.20535,-0.14236,0.314443,-0.169088,0.262456,0.0572604,-0.0129423,0.420889,-0.13269103095130952,0.3001192616624442,0.05893152026439408,0.36949628904212406,-0.012858908581945494,-0.15556541012762104
847,0.8376,42.8316,521.547,0.377042,149.873,-304.816,5.20457,-0.142505,0.31476,-0.169259,0.262724,0.057293,-0.0129534,0.421333,-0.1328167816346767,0.3004677403186238,0.05896604199465583,0.36993048818267815,-0.01286986578724758,-0.15570979609713698
848,0.8386,42.8436,521.693,0.37737,149.915,-304.906,5.20387,-0.14265,0.315076,-0.169429,0.262992,0.0573255,-0.0129646,0.421776,-0.13294251408551672,0.30081631237959905,0.059000458950293044,0.37036345462203846,-0.012880921582838267,-0.1558533132324984
849,0.8396,42.8555,521.84,0.377698,149.958,-304.995,5.20325,-0.142796,0.315392,-0.169599,0.26326,0.057358,-0.0129758,0.422219,-0.13306909523781119,0.3011649778704055,0.05903487702449972,0.3707965579004131,-0.01289197725460467,-0.15599680597202037
850,0.8406,42.8675,521.986,0.378025,150.0,-305.084,5.20271,-0.142941,0.315708,-0.16977,0.263528,0.0573904,-0.012987,0.422661,-0.1331947911058311,0.30151373681608606,0.05906919031038749,0.3712297980610497,-0.012903032802548231,-0.15614111817915388
851,0.8416,42.8795,522.132,0.378352,150.042,-305.173,5.20224,-0.143086,0.316024,-0.16994,0.263796,0.0574228,-0.0129981,0.423104,-0.1333204687492714,0.30186258924168996,0.05910350470804393,0.3716631751472106,-0.01291398951807421,-0.1562845619959935
852,0.8426,42.8915,522.278,0.378678,150.085,-305.261,5.20184,-0.143231,0.31634,-0.17011,0.264063,0.0574553,-0.0130093,0.423546,-0.1334461281707745,0.3022102329613887,0.059137926131291874,0.3720966892021702,-0.012925044819481757,-0.1564279814294569
853,0.8436,42.9035,522.424,0.379004,150.127,-305.35,5.20151,-0.143376,0.316656,-0.17028,0.264331,0.0574877,-0.0130205,0.423989,-0.13357176937298243,0.3025592720729742,0.05917224275602484,0.37253034026921816,-0.012936099997070682,-0.1565713764836889
854,0.8446,42.9155,522.569,0.379329,150.169,-305.439,5.20125,-0.143521,0.316971,-0.17045,0.264598,0.05752,-0.0130316,0.424431,-0.13369739235853684,0.3029071018318241,0.0592064545719837,0.3729627554282149,-0.012947056345552932,-0.15671474716283373
855,0.8456,42.9275,522.715,0.379654,150.211,-305.527,5.20106,-0.143666,0.317287,-0.17062,0.264866,0.0575524,-0.0130428,0.424873,-0.13382299713007884,0.303256327729295,0.05924077341707412,0.3733966802154358,-0.01295811127661406,-0.15685809347103463
856,0.8466,42.9395,522.86,0.379979,150.254,-305.615,5.20093,-0.143811,0.317602,-0.170789,0.265133,0.0575847,-0.013054,0.425315,-0.1339485836902493,0.3036043436268536,0.059274987446609195,0.37382936831450153,-0.012969166083860784,-0.15700057241342824
857,0.8476,42.9515,523.006,0.380303,150.296,-305.703,5.20086,-0.143956,0.317917,-0.170959,0.2654,0.057617,-0.0130651,0.425756,-0.1340741520416887,0.3039524524570629,0.059309202581275144,0.3742621927317873,-0.012980122065311406,-0.1571438701354665
858,0.8486,42.9636,523.151,0.380627,150.338,-305.791,5.20084,-0.144101,0.318233,-0.171129,0.265667,0.0576493,-0.0130763,0.426198,-0.13419970218703714,0.30430065424473907,0.05934341882110772,0.37469652820608124,-0.012991176626038659,-0.15728714349896256
859,0.8496,42.9756,523.296,0.38095,150.38,-305.879,5.20089,-0.144246,0.318548,-0.171299,0.265934,0.0576816,-0.0130875,0.426639,-0.13432523412893438,0.3046489490147051,0.05937763616614289,0.37512962582175957,-0.013002231062955394,-0.1574303925080569
860,0.8506,42.9876,523.441,0.381273,150.423,-305.967,5.20098,-0.14439,0.318862,-0.171468,0.266201,0.0577138,-0.0130986,0.42708,-0.1344498823203346,0.3049973367917904,0.05941174867523591,0.3755614843225039,-0.013013186677386823,-0.15757277474008557
861,0.8516,42.9997,523.586,0.381595,150.465,-306.055,5.20114,-0.144535,0.319177,-0.171638,0.266468,0.0577461,-0.0131098,0.427521,-0.1345753779887423,0.3053458176008317,0.059445968227360924,0.375994854442276,-0.013024240867792525,-0.15771597519599612
862,0.8526,43.0117,523.731,0.381918,150.507,-306.142,5.20134,-0.14468,0.319492,-0.171807,0.266735,0.0577783,-0.0131209,0.427962,-0.13470085546159727,0.30569439146667143,0.05948008293678164,0.37642836109513844,-0.013035196237916491,-0.15785830916862853
863,0.8536,43.0237,523.875,0.38224,150.549,-306.229,5.20159,-0.144824,0.319807,-0.171977,0.267001,0.0578105,-0.0131321,0.428403,-0.13482544956741993,0.3060417523717538,0.059514198744713864,0.37686200432410644,-0.013046250181816377,-0.158001461087812
864,0.8546,43.0357,524.02,0.382561,150.591,-306.317,5.20189,-0.144969,0.320121,-0.172146,0.267268,0.0578426,-0.0131432,0.428844,-0.13495089078252476,0.30639051207698564,0.05954820969636643,0.37729440687711224,-0.01305720530763832,-0.1581437468174054
865,0.8556,43.0478,524.164,0.382883,150.633,-306.404,5.20223,-0.145113,0.320435,-0.172315,0.267534,0.0578748,-0.0131543,0.429284,-0.13507544888585343,0.30673805817478006,0.059582327698015414,0.3777269452258385,-0.013068160311858978,-0.15828600850274221
866,0.8566,43.0598,524.308,0.383204,150.676,-306.491,5.20262,-0.145258,0.32075,-0.172484,0.267801,0.0579069,-0.0131655,0.429725,-0.13520085385368508,0.3070870038184832,0.05961634083664258,0.3781609975732403,-0.013079213886563412,-0.15842824614788575
867,0.8576,43.0718,524.452,0.383524,150.718,-306.578,5.20306,-0.145402,0.321064,-0.172653,0.268067,0.057939,-0.0131766,0.430165,-0.135325375964923,0.30743473520772313,0.05965035506710881,0.37859380807417087,-0.013090168646490263,-0.15857045975689832
868,0.8586,43.0838,524.596,0.383845,150.76,-306.665,5.20353,-0.145546,0.321378,-0.172823,0.268333,0.0579711,-0.0131878,0.430605,-0.1354498801462678,0.3077825591058161,0.059684370389449626,0.3790267544989374,-0.013101221974702648,-0.15871349062077167
869,0.8596,43.0958,524.74,0.384165,150.802,-306.752,5.20405,-0.145691,0.321692,-0.172992,0.268599,0.0580032,-0.0131989,0.431045,-0.1355752308255027,0.30813047553737216,0.05971838680369945,0.3794598368902271,-0.013112176490341021,-0.1588556560275416
870,0.8606,43.1078,524.883,0.384485,150.844,-306.838,5.2046,-0.145835,0.322006,-0.173161,0.268865,0.0580353,-0.01321,0.431484,-0.13569969903033807,0.30847848452700877,0.059752404309894036,0.37989305529074024,-0.013123130884384993,-0.15899779741038778
871,0.8616,43.1199,525.027,0.384805,150.886,-306.925,5.20519,-0.145979,0.322319,-0.173329,0.269131,0.0580673,-0.0132212,0.431924,-0.1358241493130422,0.30882658609934954,0.05978631692943104,0.3803250294174705,-0.013134183843422353,-0.1591390739128643
872,0.8626,43.1318,525.17,0.385124,150.928,-307.011,5.20582,-0.146123,0.322633,-0.173498,0.269397,0.0580993,-0.0132323,0.432363,-0.13594858167619606,0.3091747802790248,0.059820230634189064,0.38075851953109363,-0.013145137993186062,-0.15928116740213505
873,0.8636,43.1438,525.313,0.385444,150.97,-307.098,5.20648,-0.146267,0.322947,-0.173667,0.269662,0.0581313,-0.0132434,0.432803,-0.13607299612237955,0.30952175756825895,0.0598541454242032,0.3811921457819849,-0.013156092021359367,-0.159423236879635
874,0.8646,43.1558,525.457,0.385763,151.011,-307.184,5.20718,-0.146411,0.32326,-0.173836,0.269928,0.0581633,-0.0132545,0.433242,-0.13619739265417263,0.3098701366881409,0.059888061299507855,0.38162452658768076,-0.01316704592794371,-0.15956528234942213
875,0.8656,43.1678,525.599,0.386082,151.053,-307.27,5.20791,-0.146555,0.323573,-0.174004,0.270194,0.0581953,-0.0132656,0.433681,-0.1363217712741549,0.3102186084891949,0.0599219782601379,0.38205704274975094,-0.013177999712940203,-0.15970646352243678
876,0.8666,43.1798,525.742,0.3864,151.095,-307.356,5.20867,-0.146699,0.323886,-0.174173,0.270459,0.0582272,-0.0132768,0.43412,-0.1364461319849053,0.3105658624295593,0.059955790310543655,0.3824896943105687,-0.013189052057450246,-0.15984846113096562
877,0.8676,43.1917,525.885,0.386719,151.137,-307.442,5.20946,-0.146843,0.324199,-0.174342,0.270724,0.0582592,-0.0132879,0.434558,-0.13657047478900275,0.31091320840441217,0.059989709438536876,0.3829224813125205,-0.013200005598180131,-0.15999043474392627
878,0.8686,43.2037,526.028,0.387037,151.179,-307.528,5.21028,-0.146987,0.324512,-0.17451,0.27099,0.0582911,-0.013299,0.434997,-0.13669479968902554,0.31126195769944776,0.06002352364960162,0.3833554037980058,-0.013210959017326385,-0.16013154449733813
879,0.8696,43.2156,526.17,0.387355,151.22,-307.614,5.21113,-0.147131,0.324825,-0.174678,0.271255,0.058323,-0.0133101,0.435435,-0.1368191066875516,0.3116094881639908,0.06005733893935705,0.3837884618094378,-0.013221912314890338,-0.1602726305463027
880,0.8706,43.2275,526.312,0.387673,151.262,-307.7,5.21201,-0.147275,0.325138,-0.174847,0.27152,0.0583548,-0.0133212,0.435873,-0.13694339578715864,0.3119571107363108,0.06009104929872722,0.3842216553892428,-0.013232865490873436,-0.16041453248068915
881,0.8716,43.2394,526.455,0.387991,151.304,-307.785,5.21291,-0.147418,0.325451,-0.175015,0.271785,0.0583867,-0.0133323,0.436311,-0.13706680405765947,0.3123048254408194,0.060124866742585326,0.38465498457986014,-0.013243818545276898,-0.16055557099166573
882,0.8726,43.2514,526.597,0.388309,151.345,-307.871,5.21384,-0.147562,0.325763,-0.175183,0.27205,0.0584185,-0.0133434,0.436749,-0.13719105749141325,0.31265263230193496,0.060158579249373734,0.38508706433598605,-0.013254771478102167,-0.16069658581016277
883,0.8736,43.2633,526.739,0.388627,151.387,-307.956,5.2148,-0.147706,0.326075,-0.175352,0.272315,0.0584503,-0.0133545,0.437187,-0.13731529303396073,0.313000531344082,0.06019229282823679,0.3855192789220283,-0.013265724289350578,-0.16083841610216354
884,0.8746,43.2751,526.88,0.388944,151.429,-308.041,5.21578,-0.147849,0.326388,-0.17552,0.272579,0.0584822,-0.0133656,0.437625,-0.1374386481269575,0.3133472092438261,0.06022611350181495,0.3859530143323815,-0.01327667697902346,-0.16097938340667328
885,0.8756,43.287,527.022,0.389261,151.47,-308.126,5.21678,-0.147993,0.3267,-0.175688,0.272844,0.0585139,-0.0133767,0.438062,-0.1375628480190204,0.31369529237325344,0.06025972320232387,0.3863854991369744,-0.013287629547122037,-0.16112032703066503
886,0.8766,43.2989,527.163,0.389579,151.512,-308.212,5.21781,-0.148136,0.327012,-0.175856,0.273109,0.0585457,-0.0133877,0.4385,-0.1376861677141853,0.31404346775693304,0.06029343999761583,0.38681811889787854,-0.013298483323501142,-0.16126124697811683
887,0.8776,43.3107,527.305,0.389896,151.553,-308.297,5.21885,-0.14828,0.327324,-0.176024,0.273373,0.0585775,-0.0133988,0.438937,-0.1378103319659938,0.31439042102823755,0.06032715786511922,0.38725087365720645,-0.013309435649550783,-0.16140214325300606
888,0.8786,43.3226,527.446,0.390213,151.594,-308.382,5.21992,-0.148423,0.327636,-0.176191,0.273637,0.0586092,-0.0134099,0.439374,-0.13793361627348455,0.31473746590729745,0.06036077076878521,0.38768376345708466,-0.013320387854030225,-0.1615421774019059
889,0.8796,43.3344,527.587,0.390529,151.636,-308.466,5.22101,-0.148566,0.327948,-0.176359,0.273902,0.0586409,-0.013421,0.439811,-0.13805688295257978,0.3150859175035603,0.060394384737997076,0.38811678833965235,-0.013331339936940911,-0.1616830264844482
890,0.8806,43.3462,527.728,0.390846,151.677,-308.551,5.22212,-0.14871,0.328259,-0.176527,0.274166,0.0586726,-0.0134321,0.440247,-0.1381809938252374,0.3154331460179285,0.06042799977278879,0.38854855979780756,-0.013342291898284064,-0.16182385190633208
891,0.8816,43.3581,527.869,0.391163,151.718,-308.636,5.22324,-0.148853,0.328571,-0.176695,0.27443,0.0587043,-0.0134431,0.440684,-0.1383042251318719,0.3157804662127257,0.060461615873193875,0.3889818545389292,-0.01335314507338059,-0.16196465367153245
892,0.8826,43.3698,528.01,0.391479,151.76,-308.72,5.22439,-0.148996,0.328882,-0.176862,0.274694,0.058736,-0.0134542,0.44112,-0.1384274388176896,0.3161278781121588,0.06049523303924631,0.38941389507451185,-0.01336409679268813,-0.16210459388903586
893,0.8836,43.3816,528.15,0.391796,151.801,-308.805,5.22555,-0.149139,0.329193,-0.17703,0.274958,0.0587676,-0.0134653,0.441557,-0.1385506348852099,0.3164753817404409,0.06052874521810003,0.3898460699955968,-0.013375048390432243,-0.16224534849354466
894,0.8846,43.3934,528.291,0.392112,151.842,-308.889,5.22673,-0.149282,0.329505,-0.177198,0.275222,0.0587992,-0.0134763,0.441993,-0.13867381333695206,0.3168229771217921,0.06056225845595531,0.3902797696230591,-0.013385901205209327,-0.1623860794532661
895,0.8856,43.4052,528.431,0.392429,151.883,-308.973,5.22793,-0.149425,0.329816,-0.177365,0.275485,0.0588308,-0.0134874,0.442429,-0.13879697417543502,0.317169347110432,0.06059577275284567,0.39071221387300725,-0.01339685256092582,-0.16252594929854036
896,0.8866,43.4169,528.571,0.392745,151.924,-309.058,5.22914,-0.149568,0.330127,-0.177532,0.275749,0.0588624,-0.0134985,0.442865,-0.13892011740317733,0.3175171257228262,0.06062928810880441,0.39114479263403257,-0.013407803795082995,-0.16266579578750062
897,0.8876,43.4286,528.711,0.393061,151.965,-309.142,5.23037,-0.149711,0.330438,-0.1777,0.276013,0.058894,-0.0135095,0.4433,-0.1390432430226971,0.31786499616089436,0.0606628045238653,0.39157750594797425,-0.01341865624955263,-0.1628064561180097
898,0.8886,43.4403,528.851,0.393377,152.006,-309.226,5.23161,-0.149854,0.330748,-0.177867,0.276276,0.0589256,-0.0135206,0.443736,-0.1391663510365121,0.31821164023658244,0.06069632199806163,0.39200896184702727,-0.013429607241690178,-0.16294625576624244
899,0.8896,43.4521,528.991,0.393693,152.047,-309.31,5.23287,-0.149997,0.331059,-0.178034,0.27654,0.0589571,-0.0135316,0.444171,-0.13928944144713973,0.31855969405068696,0.06072973445844787,0.39244194395939025,-0.013440459456323217,-0.16308603206988326
900,0.8906,43.4637,529.131,0.394009,152.088,-309.394,5.23414,-0.15014,0.33137,-0.178201,0.276803,0.0589887,-0.0135427,0.444607,-0.1394125142570971,0.31890652085594806,0.060763254047663695,0.3928750607501317,-0.013451410206446468,-0.16322578503283047
901,0.8916,43.4754,529.27,0.394325,152.129,-309.477,5.23542,-0.150282,0.33168,-0.178368,0.277066,0.0590202,-0.0135537,0.445042,-0.1395347090040403,0.31925343888865476,0.06079666861644273,0.3933069189535272,-0.013462262181248241,-0.16336551465898141
902,0.8926,43.4871,529.41,0.394641,152.17,-309.561,5.23672,-0.150425,0.33199,-0.178536,0.277329,0.0590517,-0.0135647,0.445477,-0.13965774674324472,0.3196004481728032,0.060830084237797566,0.39373891105371883,-0.013473114036678946,-0.16350605744659397
903,0.8936,43.4987,529.549,0.394957,152.21,-309.645,5.23802,-0.150568,0.332301,-0.178703,0.277592,0.0590831,-0.0135758,0.445912,-0.1397807668893103,0.3199475487323955,0.06086339482541603,0.3941724312639552,-0.01348406442433836,-0.16364574027115997
904,0.8946,43.5104,529.688,0.395273,152.251,-309.728,5.23934,-0.15071,0.332611,-0.178869,0.277855,0.0591146,-0.0135868,0.446346,-0.13990290934809224,0.32029474059144025,0.06089681254867951,0.39460469171455514,-0.013494916039945681,-0.16378456355562354
905,0.8956,43.522,529.827,0.395589,152.292,-309.812,5.24068,-0.150853,0.332921,-0.179036,0.278118,0.0591461,-0.0135978,0.446781,-0.14002589443841185,0.32064202377395246,0.06093023132461761,0.395037086186667,-0.01350576753618593,-0.16392419987355267
906,0.8966,43.5336,529.966,0.395905,152.332,-309.895,5.24202,-0.150995,0.333231,-0.179203,0.278381,0.0591775,-0.0136089,0.447215,-0.1401480020915531,0.32098939830395357,0.060963545056904156,0.39546961472184394,-0.013516717561393499,-0.16406381287416372
907,0.8976,43.5452,530.105,0.39622,152.373,-309.978,5.24337,-0.151138,0.33354,-0.17937,0.278643,0.0592089,-0.0136199,0.447649,-0.1402709521361163,0.321335542869267,0.060996859835258155,0.39590088146007263,-0.013527568817818247,-0.16420340256135046
908,0.8986,43.5568,530.243,0.396536,152.414,-310.061,5.24474,-0.15128,0.33385,-0.179537,0.278906,0.0592403,-0.0136309,0.448084,-0.140393024993535,0.3216830998187772,0.06103017565971269,0.396333677813294,-0.013538419954879921,-0.1643429689390058
909,0.8996,43.5684,530.382,0.396852,152.454,-310.145,5.24611,-0.151423,0.33416,-0.179703,0.279168,0.0592717,-0.0136419,0.448518,-0.14051594000232837,0.32202942615769925,0.061063492530300634,0.396766608354183,-0.013549270972579741,-0.1644816764931164
910,0.9006,43.5799,530.52,0.397167,152.495,-310.228,5.24749,-0.151565,0.334469,-0.17987,0.279431,0.059303,-0.0136529,0.448951,-0.14063797807393985,0.32237716562251384,0.061096704337378904,0.3971982759253694,-0.013560121870918929,-0.1646211964029054
911,0.9016,43.5914,530.658,0.397483,152.535,-310.31,5.24889,-0.151707,0.334779,-0.180036,0.279693,0.0593344,-0.013664,0.449385,-0.14075999881737555,0.32272367383049994,0.061130023297000013,0.39763147453322123,-0.013571071292796777,-0.16475985777509017
912,0.9026,43.603,530.797,0.397799,152.575,-310.393,5.25029,-0.151849,0.335088,-0.180203,0.279955,0.0593657,-0.013675,0.449819,-0.14088200223509584,0.3230702728355306,0.06116323718652383,0.3980634093893505,-0.013581921951333786,-0.1648993312324839
913,0.9036,43.6145,530.935,0.398114,152.616,-310.476,5.2517,-0.151991,0.335397,-0.180369,0.280217,0.059397,-0.013686,0.450252,-0.14100398832956074,0.3234169626613974,0.06119645211565872,0.3984954777339733,-0.013592772490514271,-0.16503794643811898
914,0.9046,43.626,531.072,0.39843,152.656,-310.559,5.25312,-0.152134,0.335706,-0.180536,0.28048,0.0594283,-0.013697,0.450685,-0.1411268159768435,0.32376506709630415,0.06122966808443708,0.39892767960834363,-0.013603622910339452,-0.16517737345858352
915,0.9056,43.6375,531.21,0.398745,152.696,-310.641,5.25454,-0.152276,0.336015,-0.180702,0.280742,0.0594596,-0.013708,0.451118,-0.14124876731022518,0.3241119389821161,0.06126288509289157,0.3993600150537291,-0.013614473210810663,-0.16531594251303972
916,0.9066,43.6489,531.348,0.399061,152.736,-310.724,5.25597,-0.152418,0.336324,-0.180868,0.281003,0.0594909,-0.013719,0.451551,-0.14137070132774698,0.32445757730202907,0.061296103141054825,0.3997924841114091,-0.013625323391929234,-0.1654544885669419
917,0.9076,43.6604,531.485,0.399377,152.777,-310.806,5.25741,-0.15256,0.336633,-0.181034,0.281265,0.0595221,-0.01373,0.451984,-0.14149261803186763,0.32480463064928555,0.061329216096032146,0.4002250868226762,-0.013636173453696498,-0.1655930116241079
918,0.9086,43.6718,531.622,0.399692,152.817,-310.889,5.25886,-0.152701,0.336941,-0.1812,0.281527,0.0595534,-0.0137409,0.452417,-0.1416136590391336,0.32515177493643144,0.06136243622038817,0.4006564225717131,-0.013646924760811197,-0.16573151168835498
919,0.9096,43.6833,531.76,0.400008,152.857,-310.971,5.26031,-0.152843,0.33725,-0.181366,0.281788,0.0595846,-0.0137519,0.452849,-0.14173554124570853,0.325497684688949,0.061395551244989965,0.4010892922812137,-0.013657774584964644,-0.16586998876349945
920,0.9106,43.6947,531.897,0.400323,152.897,-311.053,5.26177,-0.152985,0.337558,-0.181532,0.28205,0.0596158,-0.0137629,0.453281,-0.14185740614623898,0.32584501058004234,0.061428667302796613,0.4015208942465269,-0.01366862428977067,-0.16600844285335736
921,0.9116,43.7061,532.034,0.400639,152.937,-311.135,5.26324,-0.153127,0.337866,-0.181698,0.282311,0.059647,-0.0137739,0.453714,-0.1419792537431821,0.32619110129067685,0.06146178439384031,0.4019526291657194,-0.013679473875230719,-0.16614687396174377
922,0.9126,43.7174,532.17,0.400954,152.977,-311.217,5.26471,-0.153269,0.338175,-0.181864,0.282573,0.0596781,-0.0137849,0.454146,-0.1421010840389948,0.3265386088807214,0.0614947963686685,0.4023858994649454,-0.0136903233413459,-0.1662852820924735
923,0.9136,43.7288,532.307,0.40127,153.017,-311.299,5.26619,-0.15341,0.338483,-0.18203,0.282834,0.0597093,-0.0137958,0.454578,-0.14222203925860188,0.3268848806441387,0.061527915522971544,0.40281790084677827,-0.013701074058229956,-0.1664236672493603
924,0.9146,43.7402,532.444,0.401586,153.057,-311.381,5.26767,-0.153552,0.338791,-0.182196,0.283095,0.0597404,-0.0138068,0.455009,-0.1423438350813191,0.32723124279628135,0.06156092955450965,0.4032500353055295,-0.01371192328674442,-0.16656202943621767
925,0.9156,43.7515,532.58,0.401901,153.096,-311.463,5.26916,-0.153694,0.339099,-0.182362,0.283356,0.0597715,-0.0138178,0.455441,-0.14246561361025745,0.3275776953607443,0.06159394461280043,0.4036823028821932,-0.013722772395918126,-0.16670036865685833
926,0.9166,43.7628,532.716,0.402217,153.136,-311.545,5.27065,-0.153835,0.339406,-0.182527,0.283617,0.0598027,-0.0138287,0.455872,-0.14258651743481843,0.32792423836112783,0.06162706686057673,0.4041132995037744,-0.01373352275910944,-0.16683785175336252
927,0.9176,43.7741,532.852,0.402533,153.176,-311.626,5.27215,-0.153977,0.339714,-0.182693,0.283878,0.0598337,-0.0138397,0.456304,-0.14270826150530913,0.32827087182103876,0.0616599778097664,0.4045458330067617,-0.013744371630690089,-0.16697614519129855
928,0.9186,43.7854,532.989,0.402848,153.216,-311.708,5.27365,-0.154118,0.340022,-0.182858,0.284139,0.0598648,-0.0138506,0.456735,-0.1428291311189288,0.3286175957640902,0.06169299594850575,0.4049784997505861,-0.013755121758451061,-0.16711358278842836
929,0.9196,43.7967,533.124,0.403164,153.255,-311.789,5.27516,-0.154259,0.340329,-0.183024,0.2844,0.0598959,-0.0138616,0.457166,-0.14294998369113454,0.32896441021390155,0.06172601511412501,0.40540989436569475,-0.013765970392444093,-0.16725183045881142
930,0.9206,43.808,533.26,0.40348,153.295,-311.871,5.27667,-0.154401,0.340636,-0.183189,0.28466,0.0599269,-0.0138725,0.457597,-0.14307167615308114,0.3293099858834476,0.06175892913075831,0.40584142143928137,-0.013776720284779831,-0.1673892225716247
931,0.9216,43.8192,533.396,0.403796,153.334,-311.952,5.27818,-0.154542,0.340944,-0.183355,0.284921,0.0599579,-0.0138835,0.458028,-0.14319249452884786,0.3296569810706653,0.06179184416774164,0.40627448728580173,-0.013787568681190354,-0.16752742448960123
932,0.9226,43.8305,533.531,0.404111,153.374,-312.033,5.27969,-0.154683,0.341251,-0.18352,0.285181,0.059989,-0.0138944,0.458458,-0.14331329587042452,0.33000273683204484,0.06182486640758844,0.4067062798301626,-0.013798318338106075,-0.16766477113315081
933,0.9236,43.8417,533.667,0.404427,153.413,-312.115,5.28121,-0.154824,0.341558,-0.183685,0.285442,0.06002,-0.0139054,0.458889,-0.14343408018021286,0.3303499128508576,0.061857783488659335,0.4071382049551846,-0.013809166496939307,-0.16780209511637367
934,0.9246,43.8529,533.802,0.404743,153.453,-312.196,5.28274,-0.154966,0.341865,-0.18385,0.285702,0.0600509,-0.0139163,0.459319,-0.14355570390533845,0.33069584879792324,0.061890595401110415,0.4075702627015767,-0.013819915918440118,-0.16793939644300848
935,0.9256,43.8641,533.937,0.405059,153.492,-312.277,5.28426,-0.155107,0.342172,-0.184016,0.285962,0.0600819,-0.0139272,0.459749,-0.14367645403800333,0.33104187470002877,0.061923514519811595,0.4080024531100592,-0.013830665222772764,-0.16807750703970226
936,0.9266,43.8753,534.072,0.405375,153.532,-312.358,5.28579,-0.155248,0.342478,-0.184181,0.286222,0.0601128,-0.0139382,0.460179,-0.1437971871460999,0.33138799058056545,0.06195632846338306,0.4084333677872942,-0.013841513025792285,-0.16821476292711868
937,0.9276,43.8865,534.207,0.405691,153.571,-312.439,5.28732,-0.155389,0.342785,-0.184346,0.286482,0.0601438,-0.0139491,0.460609,-0.14391790323202824,0.3317341964629308,0.06198924961984087,0.40886582320971554,-0.013852262094717793,-0.16835199616918184
938,0.9286,43.8976,534.342,0.406007,153.61,-312.519,5.28886,-0.15553,0.343091,-0.184511,0.286742,0.0601747,-0.01396,0.461039,-0.14403860229818843,0.3320804923705283,0.06202206559465817,0.4092970021186264,-0.013863011046479023,-0.16848920676962809
939,0.9296,43.9088,534.477,0.406323,153.649,-312.6,5.29039,-0.155671,0.343398,-0.184676,0.287002,0.0602056,-0.0139709,0.461469,-0.14415928434698,0.33242687832676765,0.062054882583505,0.4097297227174901,-0.013873759881077419,-0.16862639473219299
940,0.9306,43.9199,534.611,0.406639,153.689,-312.681,5.29193,-0.155811,0.343704,-0.18484,0.287262,0.0602365,-0.0139818,0.461898,-0.14427909366032377,0.3327733543550644,0.06208770058641222,0.41016116602010033,-0.01388450859851409,-0.16876272882375576
941,0.9316,43.931,534.746,0.406955,153.728,-312.761,5.29347,-0.155952,0.34401,-0.185005,0.287521,0.0602673,-0.0139927,0.462327,-0.1443997418022238,0.33311858735958677,0.06212041339136509,0.4105927413645627,-0.013895257198790367,-0.16889987165890485
942,0.9326,43.9421,534.88,0.407271,153.767,-312.842,5.29501,-0.156093,0.344316,-0.18517,0.287781,0.0602982,-0.0140037,0.462757,-0.14452037293393505,0.3334652432556138,0.062153233419205645,0.41102444879128797,-0.013906104291302013,-0.16903699186735277
943,0.9336,43.9532,535.014,0.407587,153.806,-312.922,5.29656,-0.156234,0.344622,-0.185335,0.288041,0.060329,-0.0140146,0.463186,-0.14464098705785577,0.3338119892938918,0.0621859482426006,0.41145628834069936,-0.013916852656186585,-0.16917408945283285
944,0.9346,43.9643,535.148,0.407904,153.845,-313.003,5.2981,-0.156374,0.344928,-0.185499,0.2883,0.0603599,-0.0140255,0.463615,-0.14476072893754055,0.3341574913397025,0.06221877029549949,0.411888260053233,-0.013927600903914539,-0.1693103337298265
945,0.9356,43.9753,535.282,0.40822,153.884,-313.083,5.29965,-0.156515,0.345234,-0.185664,0.288559,0.0603907,-0.0140364,0.464043,-0.14488130917365383,0.3345030828821325,0.062251487137461314,0.4123203639693367,-0.013938349034487318,-0.1694473862176199
946,0.9366,43.9864,535.416,0.408536,153.923,-313.163,5.30119,-0.156656,0.34554,-0.185828,0.288818,0.0604215,-0.0140472,0.464472,-0.14500187240915252,0.334848763944364,0.06228420498711751,0.41275260012947124,-0.013948998442810834,-0.16958358567761922
947,0.9376,43.9974,535.549,0.408853,153.962,-313.243,5.30274,-0.156796,0.345845,-0.185993,0.289078,0.0604522,-0.0140581,0.4649,-0.14512156376842467,0.3351958697447883,0.062316817612811715,0.4131835553898471,-0.013959746340151624,-0.1697205930825607
948,0.9386,44.0084,535.683,0.409169,154.0,-313.323,5.30429,-0.156937,0.346151,-0.186157,0.289337,0.060483,-0.014069,0.465329,-0.14524209313041359,0.3355417302620558,0.06234953747467764,0.413616055726973,-0.013970494120341015,-0.169856747740308
949,0.9396,44.0194,535.816,0.409486,154.039,-313.403,5.30584,-0.157077,0.346456,-0.186322,0.289596,0.0605138,-0.0140799,0.465757,-0.14536175086113867,0.3358876803687987,0.06238225834433053,0.4140472743814718,-0.013981241783380227,-0.1699937100772273
950,0.9406,44.0304,535.95,0.409802,154.078,-313.483,5.30739,-0.157217,0.346761,-0.186486,0.289855,0.0605445,-0.0140908,0.466185,-0.1454813918409542,0.3362337200882233,0.062414873980309205,0.4144786245777192,-0.013991989329270593,-0.17012981994746024
951,0.9416,44.0414,536.083,0.410119,154.117,-313.563,5.30894,-0.157358,0.347067,-0.18665,0.290113,0.0605752,-0.0141017,0.466613,-0.14560187047076156,0.3365785128643617,0.06244749061760313,0.41491152126665565,-0.014002736758013334,-0.1702659074975048
952,0.9426,44.0523,536.216,0.410435,154.155,-313.642,5.3105,-0.157498,0.347372,-0.186814,0.290372,0.0606059,-0.0141125,0.467041,-0.14572147783618472,0.3369247315325756,0.062480108256243394,0.41534313509840537,-0.0140133854709531,-0.1704019727310211
953,0.9436,44.0633,536.349,0.410752,154.194,-313.722,5.31205,-0.157638,0.347677,-0.186978,0.290631,0.0606366,-0.0141234,0.467468,-0.1458410684577488,0.3372710398830381,0.06251272689626042,0.41577488059245127,-0.014024132666479172,-0.1705380156516687
954,0.9446,44.0742,536.481,0.411069,154.233,-313.802,5.3136,-0.157778,0.347981,-0.187143,0.290889,0.0606673,-0.0141343,0.467896,-0.14596064233779782,0.33761610032221046,0.06254534653768506,0.4162053415829068,-0.014034879744861395,-0.17067486558865597
955,0.9456,44.0851,536.614,0.411386,154.271,-313.881,5.31515,-0.157919,0.348286,-0.187307,0.291148,0.0606979,-0.0141451,0.468323,-0.146081053398049,0.33796258776038046,0.06257786092275652,0.416637350090038,-0.014045528110658956,-0.1708108637585447
956,0.9466,44.0961,536.747,0.411703,154.31,-313.961,5.3167,-0.158059,0.348591,-0.18747,0.291406,0.0607286,-0.014156,0.46875,-0.1462005936825581,0.33830782664192327,0.06261048256382651,0.4170694903798595,-0.01405627495583206,-0.17094601057298742
957,0.9476,44.1069,536.879,0.41202,154.348,-314.04,5.31825,-0.158199,0.348895,-0.187634,0.291664,0.0607592,-0.0141668,0.469177,-0.14632011723259886,0.33865315460658874,0.06264299894209113,0.417500344991518,-0.014066923090562566,-0.1710819642787449
958,0.9486,44.1178,537.011,0.412337,154.387,-314.119,5.31981,-0.158339,0.3492,-0.187798,0.291923,0.0607898,-0.0141777,0.469604,-0.1464396240505138,0.3389999106766044,0.06267551631537205,0.4179327485349287,-0.01407766970253177,-0.17121789568992274
959,0.9496,44.1287,537.143,0.412654,154.425,-314.199,5.32136,-0.158479,0.349504,-0.187962,0.292181,0.0608204,-0.0141885,0.470031,-0.14655911413864542,0.33934541722198697,0.06270803468369968,0.4183638656169595,-0.014088317606200107,-0.17135380481017715
960,0.9506,44.1396,537.276,0.412971,154.463,-314.278,5.32291,-0.158619,0.349808,-0.188126,0.292439,0.060851,-0.0141994,0.470458,-0.1466785874993356,0.33969101291955806,0.06274055404710488,0.4187951137785064,-0.014099063984970406,-0.1714896916431634
961,0.9516,44.1504,537.407,0.413288,154.502,-314.357,5.32446,-0.158758,0.350112,-0.188289,0.292697,0.0608815,-0.0142102,0.470884,-0.14679719093254362,0.3400366977923224,0.06277296812831534,0.4192264930594236,-0.014109711657581792,-0.17162472781767835
962,0.9526,44.1612,537.539,0.413605,154.54,-314.436,5.32601,-0.158898,0.350416,-0.188453,0.292954,0.0609121,-0.0142211,0.47131,-0.14691663096481566,0.3403811314814884,0.06280548947871423,0.4196580034995774,-0.014120457803158182,-0.17176057022293456
963,0.9536,44.172,537.671,0.413923,154.578,-314.515,5.32756,-0.159038,0.35072,-0.188617,0.293212,0.0609426,-0.0142319,0.471737,-0.14703605427665378,0.3407269944278122,0.06283790554048574,0.4200896451388463,-0.014131105244717612,-0.171896390351863
964,0.9546,44.1828,537.803,0.41424,154.616,-314.594,5.3291,-0.159178,0.351024,-0.18878,0.29347,0.0609731,-0.0142427,0.472163,-0.14715546087039844,0.341072946618288,0.06287032259096237,0.4205214180171206,-0.014141752571285249,-0.17203136023989096
965,0.9556,44.1985,537.94,0.419444,154.658,-314.669,5.33688,-0.159318,0.351328,-0.188943,0.293728,0.0610033,-0.0142537,0.472588,-0.14727485074839008,0.3414189880759442,0.06290242175939964,0.4209533221743036,-0.014152596952362817,-0.17216630812962008
966,0.9566,44.2073,538.07,0.41397,154.7,-314.744,5.34484,-0.159458,0.351631,-0.189106,0.293985,0.0610335,-0.0142647,0.473014,-0.14739422391296886,0.3417637770593662,0.06293452189724635,0.42138393626566284,-0.014163441214152694,-0.1723012340246357
967,0.9576,44.2206,538.204,0.415499,154.741,-314.82,5.35239,-0.159597,0.351935,-0.189269,0.294243,0.0610636,-0.0142756,0.473439,-0.14751272787962844,0.34210999677427023,0.06296651670787501,0.4218161026682523,-0.01417418677408011,-0.17243613792852286
968,0.9586,44.2324,538.337,0.415135,154.782,-314.896,5.35978,-0.159737,0.352238,-0.189432,0.2945,0.0610938,-0.0142865,0.473864,-0.14763206774373983,0.34245496336975023,0.06299861878141844,0.42224697822171064,-0.01418493221688144,-0.17257101984486567
969,0.9596,44.2447,538.47,0.415613,154.823,-314.971,5.36699,-0.159877,0.352541,-0.189595,0.294758,0.061124,-0.0142975,0.474289,-0.14775139090143985,0.3428013614337284,0.06303072182445901,0.42267798435024284,-0.014195776122985504,-0.17270587977724794
970,0.9606,44.2567,538.603,0.415807,154.864,-315.047,5.37402,-0.160016,0.352845,-0.189757,0.295015,0.0611541,-0.0143084,0.474714,-0.1478698452253383,0.3431465057327596,0.06306271953074916,0.42311054420325167,-0.014206521330464295,-0.17283989056955673
971,0.9616,44.2687,538.736,0.416115,154.904,-315.123,5.38089,-0.160156,0.353148,-0.18992,0.295272,0.0611843,-0.0143193,0.475139,-0.1479891350965209,0.3434917387452747,0.06309482450966164,0.42354181203192187,-0.014217266420820884,-0.17297470667958237
972,0.9626,44.2806,538.868,0.416383,154.945,-315.198,5.38761,-0.160295,0.353451,-0.190083,0.295529,0.0612144,-0.0143303,0.475564,-0.14810755637627293,0.34383706049407636,0.06312682414547144,0.42397321055454307,-0.01422810997125068,-0.173109500816373
973,0.9636,44.2925,539.0,0.416668,154.985,-315.274,5.39416,-0.160435,0.353753,-0.190245,0.295786,0.0612446,-0.0143412,0.475988,-0.1482268129702239,0.3441824710019723,0.06315893106037263,0.4244033154066944,-0.01423885482629239,-0.17324344622736954
974,0.9646,44.3042,539.133,0.416948,155.025,-315.35,5.40057,-0.160574,0.354056,-0.190408,0.296043,0.0612747,-0.0143521,0.476412,-0.14834520121504735,0.34452797029177695,0.06319093262581865,0.42483497500438916,-0.014249599564215898,-0.17337819656318376
975,0.9656,44.3159,539.265,0.417232,155.065,-315.426,5.40684,-0.160714,0.354359,-0.19057,0.2963,0.0613048,-0.014363,0.476837,-0.1484644245410497,0.34487355838631006,0.06322293515452637,0.42526676541475905,-0.014260344185022311,-0.17351209844899496
976,0.9666,44.3275,539.396,0.417516,155.104,-315.502,5.41296,-0.160853,0.354661,-0.190733,0.296557,0.061335,-0.0143739,0.477261,-0.1485827797601602,0.34521923530839715,0.06325504497202394,0.4256972609794727,-0.014271088688713074,-0.17364680499806573
977,0.9676,44.339,539.528,0.417801,155.144,-315.577,5.41896,-0.160992,0.354964,-0.190895,0.296813,0.0613651,-0.0143848,0.477685,-0.14870111852903856,0.3455636555165418,0.0632870494305422,0.42612931270208,-0.014281833075289407,-0.17378066337283504
978,0.9686,44.3505,539.66,0.418087,155.183,-315.653,5.42482,-0.161132,0.355266,-0.191058,0.29707,0.0613952,-0.0143957,0.478108,-0.14882029203010483,0.34590950981638335,0.06331905485240918,0.4265600687954121,-0.014292577344752422,-0.17391532614939076
979,0.9696,44.3618,539.791,0.418375,155.223,-315.729,5.43055,-0.161271,0.355568,-0.19122,0.297327,0.0614253,-0.0144065,0.478532,-0.14893859778707197,0.34625545301220284,0.063351061237654,0.4269909549967299,-0.014303222927430914,-0.17404914102725677
980,0.9706,44.3732,539.922,0.418663,155.262,-315.805,5.43617,-0.16141,0.355871,-0.191382,0.297583,0.0614554,-0.0144174,0.478955,-0.14905688710068188,0.3466001385260371,0.06338306858630549,0.4274233987680167,-0.014313966963745872,-0.17418293422886844
981,0.9716,44.3844,540.053,0.418952,155.301,-315.881,5.44167,-0.161549,0.356173,-0.191544,0.297839,0.0614855,-0.0144283,0.479379,-0.14917515997321984,0.34694491229065894,0.06341507689839254,0.42785454573435966,-0.014324710882951508,-0.17431670575773694
982,0.9726,44.3956,540.184,0.419242,155.34,-315.957,5.44705,-0.161688,0.356475,-0.191707,0.298095,0.0615156,-0.0144391,0.479802,-0.1492934164069709,0.3472897743286627,0.06344708617394446,0.42828582292674966,-0.014335356118589604,-0.17445128116650466
983,0.9736,44.4068,540.315,0.419533,155.378,-316.033,5.45232,-0.161827,0.356776,-0.191869,0.298352,0.0615456,-0.01445,0.480225,-0.14941165640422016,0.34763607229804827,0.06347899006508562,0.4287158016680048,-0.014346099804654733,-0.1745850092266904
984,0.9746,44.4179,540.445,0.419825,155.417,-316.109,5.45749,-0.161966,0.357078,-0.192031,0.298608,0.0615757,-0.0144608,0.480648,-0.1495298799672521,0.34798111129566367,0.06351100126445264,0.42914733899896573,-0.01435674480929372,-0.174718715624685
985,0.9756,44.4289,540.576,0.420118,155.455,-316.184,5.46255,-0.162105,0.35738,-0.192193,0.298864,0.0616058,-0.0144717,0.481071,-0.14964808709835065,0.34832623863457,0.06354301342737134,0.4295790066738814,-0.014367488262223338,-0.17485240036399752
986,0.9766,44.4399,540.706,0.420411,155.494,-316.26,5.46752,-0.162244,0.357681,-0.192355,0.29912,0.0616358,-0.0144825,0.481494,-0.1497662777997999,0.348671454337385,0.06357492019637334,0.4300093747220324,-0.014378133035868212,-0.1749860634481365
987,0.9776,44.4508,540.836,0.420705,155.532,-316.336,5.47239,-0.162382,0.357983,-0.192517,0.299375,0.0616658,-0.0144934,0.481916,-0.1498836019579105,0.34901540941064924,0.06360682792259276,0.43044130277105097,-0.014388876255667427,-0.17511970488060957
988,0.9786,44.4617,540.966,0.421,155.57,-316.412,5.47716,-0.162521,0.358284,-0.192678,0.299631,0.0616959,-0.0145042,0.482338,-0.15000175992506937,0.3493608015637675,0.06363884296993727,0.4308719304093933,-0.014399520798323295,-0.17525249991783642
989,0.9796,44.4726,541.096,0.421296,155.608,-316.488,5.48185,-0.16266,0.358585,-0.19284,0.299887,0.0617259,-0.014515,0.482761,-0.15011990146941223,0.3497062821485959,0.06367075261386868,0.43130268768616453,-0.014410165226018679,-0.1753860981910974
990,0.9806,44.4834,541.225,0.421592,155.646,-316.563,5.48645,-0.162799,0.358886,-0.193002,0.300142,0.0617559,-0.0145259,0.483183,-0.15023802659322172,0.3500505011365995,0.06370266321510365,0.4317335746403914,-0.01442090809666896,-0.17551967482319109
991,0.9816,44.4941,541.355,0.421889,155.684,-316.639,5.49096,-0.162937,0.359187,-0.193164,0.300398,0.0617859,-0.0145367,0.483605,-0.15035528565449052,0.3503961583071207,0.06373457477367106,0.43216459131111273,-0.014431552293382666,-0.1756532298176231
992,0.9826,44.5049,541.484,0.422187,155.722,-316.715,5.4954,-0.163076,0.359488,-0.193325,0.300653,0.0618159,-0.0145475,0.484027,-0.1504733780621721,0.3507405532359762,0.06376648728959955,0.43259573773737947,-0.01444219637513977,-0.17578593896424954
993,0.9836,44.5155,541.613,0.422486,155.759,-316.791,5.49975,-0.163214,0.359789,-0.193487,0.300909,0.0618459,-0.0145583,0.484448,-0.1505906046471791,0.3510863870824481,0.06379840076291798,0.4330270139582535,-0.014452840341941386,-0.17591945082738436
994,0.9846,44.5262,541.742,0.422785,155.797,-316.866,5.50403,-0.163353,0.36009,-0.193648,0.301164,0.0618758,-0.0145691,0.48487,-0.15070866434779384,0.35143095804208446,0.06383020881062884,0.4334584200128091,-0.014463484193788845,-0.17605211711587843
995,0.9856,44.5368,541.871,0.423083,155.834,-316.942,5.50823,-0.163491,0.360391,-0.19381,0.301419,0.0619058,-0.0145799,0.485291,-0.15082585846553376,0.3517756168785191,0.06386212419562143,0.4338899559401317,-0.014474127930683256,-0.17618558586164534
996,0.9866,44.5473,542.0,0.423387,155.872,-317.018,5.51236,-0.163629,0.360691,-0.193971,0.301674,0.0619357,-0.0145907,0.485713,-0.15094303641160123,0.3521203636141639,0.06389393414869127,0.43432018745841483,-0.014484771552625952,-0.17631820930584785
997,0.9876,44.5579,542.129,0.423685,155.909,-317.093,5.51642,-0.163768,0.360992,-0.194133,0.301929,0.0619657,-0.0146015,0.486134,-0.15106104712760526,0.35246519827143574,0.0639258514454728,0.4347519828167812,-0.014495415059618155,-0.1764516349481715
998,0.9886,44.5684,542.257,0.423987,155.946,-317.169,5.52041,-0.163906,0.361292,-0.194294,0.302184,0.0619956,-0.0146122,0.486555,-0.15117819261987675,0.35281012087275765,0.06395766330401598,0.43518247298192225,-0.014505959902262,-0.17658421556191906
999,0.9896,44.5788,542.385,0.424289,155.983,-317.244,5.52434,-0.164044,0.361592,-0.194455,0.302439,0.0620255,-0.014623,0.486976,-0.15129532194718576,0.3531551314405581,0.06398947611374783,0.4356130923134869,-0.01451660318042125,-0.17671677483190595
