,Time,S11,S22,S33,S12,S13,S23,LE11,LE22,LE33,LE12,LE13,LE23,SDV_EPBAR,E11,E12,E13,E22,E23,E33
0,1e-05,-1.38778e-17,0.376074,0.0,1.62151e-40,3.06296e-18,1.53147e-18,-1.5e-06,4.99999e-06,-1.5e-06,0.0,0.0,0.0,0.0,-1.4999988749986315e-06,0.0,0.0,5.000002500032963e-06,0.0,-1.4999988749986315e-06
1,2e-05,5.55112e-17,0.752145,2.77556e-17,1.21613e-40,1.53148e-18,-9.95458e-24,-2.99999e-06,9.99995e-06,-2.99999e-06,0.0,0.0,0.0,0.0,-2.999985500018454e-06,0.0,0.0,9.999999999621423e-06,0.0,-2.999985500018454e-06
2,3.5e-05,1.52656e-16,1.31625,8.32667e-17,1.01344e-39,-1.53148e-18,-3.06294e-18,-5.24995e-06,1.74998e-05,-5.24995e-06,0.0,0.0,0.0,0.0,-5.2499362190872034e-06,0.0,0.0,1.749995312239072e-05,0.0,-5.2499362190872034e-06
3,5.75e-05,4.30211e-16,2.1624,4.16334e-16,6.89136e-40,4.59443e-18,-3.06289e-18,-8.62488e-06,2.87496e-05,-8.62488e-06,0.0,0.0,0.0,0.0,-8.624842805837751e-06,0.0,0.0,2.875001327362625e-05,0.0,-8.624842805837751e-06
4,9.125e-05,-6.245e-16,3.4316,-4.71845e-16,-7.70231e-40,-7.65739e-18,3.06295e-18,-1.36872e-05,4.5624e-05,-1.36872e-05,0.0,0.0,0.0,0.0,-1.3687106330650955e-05,0.0,0.0,4.56250407905312e-05,0.0,-1.3687106330650955e-05
5,0.00014188,-2.45637e-15,5.33537,-2.47025e-15,-1.9053e-39,4.59443e-18,-3.06286e-18,-2.12805e-05,7.0935e-05,-2.12805e-05,0.0,0.0,0.0,0.0,-2.1280273571733233e-05,0.0,0.0,7.093751594666742e-05,0.0,-2.1280273571733233e-05
6,0.00021781,-1.75554e-14,8.19093,-1.77913e-14,-1.90532e-39,4.59443e-18,-3.06271e-18,-3.26701e-05,0.0001089,-3.26701e-05,0.0,0.0,0.0,0.0,-3.266956633807272e-05,0.0,0.0,0.00010890592982026881,0.0,-3.266956633807272e-05
7,0.00033172,-9.0164e-14,12.4741,-9.01779e-14,-1.90534e-39,4.59443e-18,-3.06248e-18,-4.97537e-05,0.000165846,-4.97537e-05,0.0,0.0,0.0,0.0,-4.9752462305208134e-05,0.0,0.0,0.00016585975320815294,0.0,-4.9752462305208134e-05
8,0.00050258,-4.61645e-13,18.8983,-4.61881e-13,-1.90537e-39,4.59443e-18,-3.06214e-18,-7.53772e-05,0.000251258,-7.53772e-05,0.0,0.0,0.0,0.0,-7.537435921023405e-05,0.0,0.0,0.00025128956793518675,0.0,-7.537435921023405e-05
9,0.00075887,-2.34325e-12,28.5336,-2.34349e-12,-1.90542e-39,4.59443e-18,-3.06163e-18,-0.000113808,0.000379362,-0.000113808,0.0,0.0,0.0,0.0,-0.00011380152411522015,0.0,0.0,0.0003794339668636848,0.0,-0.00011380152411522015
10,0.0011433,-1.18565e-11,42.9843,-1.18585e-11,-1.9055e-39,4.59443e-18,-3.06087e-18,-0.000171446,0.000571487,-0.000171446,0.0,0.0,0.0,0.0,-0.00017143130397445638,0.0,0.0,0.0005716503298076603,0.0,-0.00017143130397445638
11,0.00172,-5.99549e-11,64.6552,-5.9957e-11,-1.90561e-39,4.59443e-18,-3.05972e-18,-0.000257882,0.000859606,-0.000257882,0.0,0.0,0.0,0.0,-0.0002578487512951977,0.0,0.0,0.0008599755671241383,0.0,-0.0002578487512951977
12,0.0025849,-3.03239e-10,97.1497,-3.03238e-10,-1.90578e-39,4.59443e-18,-3.058e-18,-0.000387489,0.00129163,-0.000387489,0.0,0.0,0.0,0.0,-0.00038741393583330286,0.0,0.0,0.0012924645132839085,0.0,-0.00038741393583330286
13,0.0035849,-6.68463e-10,134.699,-6.68464e-10,-1.90598e-39,4.59443e-18,-3.05601e-18,-0.000537258,0.00179086,-0.000537258,0.0,0.0,0.0,0.0,-0.0005371137027634365,0.0,0.0,0.0017924645474667322,0.0,-0.0005371137027634365
14,0.0045849,-7.61585e-10,172.23,-7.61586e-10,-1.90618e-39,4.59443e-18,-3.05402e-18,-0.000686952,0.00228984,-0.000686952,0.0,0.0,0.0,0.0,-0.000686716102494711,0.0,0.0,0.0022924636858374647,0.0,-0.000686716102494711
15,0.0055849,-7.60055e-10,209.742,-7.60055e-10,-1.90638e-39,4.59443e-18,-3.05204e-18,-0.000836572,0.00278857,-0.000836572,0.0,0.0,0.0,0.0,-0.0008362221712034934,0.0,0.0,0.002792461677887159,0.0,-0.0008362221712034934
16,0.0065849,-7.58568e-10,247.236,-7.58571e-10,-1.90657e-39,4.59443e-18,-3.05005e-18,-0.000986116,0.00328706,-0.000986116,0.0,0.0,0.0,0.0,-0.0009856299473984809,0.0,0.0,0.0032924683059070148,0.0,-0.0009856299473984809
17,0.0075849,-7.57031e-10,284.71,-7.57031e-10,-1.90677e-39,4.59443e-18,-3.04807e-18,-0.00113559,0.00378529,-0.00113559,0.0,0.0,0.0,0.0,-0.00113494546167614,0.0,0.0,0.003792463258290635,0.0,-0.00113494546167614
18,0.0085849,-0.124937,304.419,-0.172782,3.69512e-16,-1.89091e-16,-2.95312e-18,-0.00130509,0.00428328,-0.00136084,0.0,0.0,0.0,0.00020729,-0.0013042387404096356,0.0,0.0,0.0042924663550065745,0.0,-0.0013599144771243576
19,0.0095849,0.0172776,305.815,0.024203,-3.6897e-16,5.87288e-18,-2.7731e-18,-0.00149365,0.00478102,-0.0016608,0.0,0.0,0.0,0.000631607,-0.0014925350600178966,0.0,0.0,0.00479246731212557,0.0,-0.0016594216348485569
20,0.010585,-0.00885756,306.992,-0.0121898,-3.28395e-16,9.60712e-16,-3.70814e-16,-0.00168303,0.00527851,-0.00196298,0.0,0.0,0.0,0.00105684,-0.0016816144992309878,0.0,0.0,0.005292465878519614,0.0,-0.0019610546147967867
21,0.011585,0.00322979,308.205,0.0042703,-1.17836e-16,-2.00354e-17,1.99762e-17,-0.00187213,0.00577575,-0.00226453,0.0,0.0,0.0,0.00148177,-0.0018703786577155546,0.0,0.0,0.005792461802937909,0.0,-0.0022619678862989545
22,0.012585,0.000119812,309.388,4.39639e-05,-4.54212e-16,-7.85598e-16,1.87878e-17,-0.00206123,0.00627275,-0.00256618,0.0,0.0,0.0,0.00190671,-0.0020591071242724857,0.0,0.0,0.006292464896930694,0.0,-0.0025628901748000477
23,0.013585,0.00124168,310.564,0.0015586,-2.30032e-16,3.80088e-16,1.76746e-17,-0.00225022,0.0067695,-0.00286767,0.0,0.0,0.0,0.00233153,-0.002247690152902382,0.0,0.0,0.00679246485607643,0.0,-0.0028635621619650387
24,0.014585,0.000914015,311.728,0.00111863,-3.79803e-16,7.52363e-16,-3.5194e-16,-0.00243914,0.007266,-0.00316907,0.0,0.0,0.0,0.00275628,-0.0024361677151276684,0.0,0.0,0.007292461428755503,0.0,-0.0031640537979651384
25,0.015585,0.00102064,312.882,0.001263,-1.63806e-16,7.33212e-16,4.06413e-16,-0.00262798,0.00776226,-0.00347036,0.0,0.0,0.0,0.00318092,-0.0026245298835005926,0.0,0.0,0.007792464441150004,0.0,-0.0034643452605173097
26,0.016585,0.000986674,314.025,0.00121863,-1.46042e-16,3.31869e-16,1.35137e-17,-0.00281673,0.00825827,-0.00377154,0.0,0.0,0.0,0.00360548,-0.002812766738073069,0.0,0.0,0.008292463573471132,0.0,-0.0037644366759771453
27,0.017585,0.000995787,315.158,0.001232,-3.05241e-16,-6.3396e-16,-3.56098e-16,-0.0030054,0.00875403,-0.00407262,0.0,0.0,0.0,0.00402994,-0.003000888306366467,0.0,0.0,0.008792458573732453,0.0,-0.004064338129952327
28,0.018585,0.000991201,316.281,0.00122699,-4.47528e-16,9.10939e-16,4.02771e-16,-0.00319398,0.00924955,-0.00437358,0.0,0.0,0.0,0.00445429,-0.0031888846721151998,0.0,0.0,0.009292459282749688,0.0,-0.004364029826880111
29,0.019585,0.000990757,317.394,0.0012275,-2.24506e-16,-2.60056e-16,1.00925e-17,-0.00338249,0.00974483,-0.00467444,0.0,0.0,0.0,0.00487855,-0.0033767758252285507,0.0,0.0,0.009792465463292821,0.0,-0.0046635318085240796
30,0.020585,0.000988934,318.497,0.00122614,-2.0045e-16,1.2775e-16,9.51045e-18,-0.00357091,0.0102399,-0.00497518,0.0,0.0,0.0,0.00530271,-0.003564541883131822,0.0,0.0,0.010292507186784539,0.0,-0.00496282429110162
31,0.021585,0.000987456,319.591,0.00122521,-5.29576e-16,-2.59194e-16,8.96401e-18,-0.00375925,0.0107346,-0.00527581,0.0,0.0,0.0,0.00572676,-0.003752192865665749,0.0,0.0,0.010792422533955737,0.0,-0.005261917356808143
32,0.022585,0.000985795,320.676,0.00122402,-1.22738e-16,-6.37143e-16,-3.6077e-16,-0.0039475,0.0112292,-0.00557633,0.0,0.0,0.0,0.0061507,-0.003939718863920416,0.0,0.0,0.011292484121177448,0.0,-0.0055608111313760755
33,0.023585,0.00098412,321.751,0.00122278,-2.8497e-16,-6.23329e-16,3.98795e-16,-0.00413567,0.0117235,-0.00587674,0.0,0.0,0.0,0.00657453,-0.004127129893902071,0.0,0.0,0.011792489562242547,0.0,-0.0058595057404340345
34,0.024585,0.000982383,322.818,0.00122143,-2.548e-16,-6.09889e-16,3.75728e-16,-0.00432376,0.0122175,-0.00617704,0.0,0.0,0.0,0.00699826,-0.004314426007225203,0.0,0.0,0.012292438529314165,0.0,-0.006158001309507277
35,0.025585,0.000980604,323.875,0.00122001,-2.27857e-16,-1.36258e-15,-1.53988e-17,-0.00451176,0.0127113,-0.00647722,0.0,0.0,0.0,0.00742187,-0.00450159730048294,0.0,0.0,0.012792431973681628,0.0,-0.00645628802858067
36,0.026585,0.000978781,324.925,0.00121851,-2.03788e-16,5.83067e-16,-1.45228e-17,-0.00469968,0.0132049,-0.00677729,0.0,0.0,0.0,0.00784536,-0.004688653783940566,0.0,0.0,0.013292469717266275,0.0,-0.006754375964371784
37,0.027585,0.000976918,325.965,0.00121693,-6.59841e-18,1.85731e-16,-1.36993e-17,-0.00488751,0.0136982,-0.00707724,0.0,0.0,0.0,0.00826874,-0.004875585557853279,0.0,0.0,0.01379245020262565,0.0,-0.007052255312612665
38,0.028585,0.000975017,326.998,0.00121529,-5.56028e-18,-2.02432e-16,3.56742e-16,-0.00507526,0.0141913,-0.00737708,0.0,0.0,0.0,0.008692,-0.0050624026286634205,0.0,0.0,0.014292474530686938,0.0,-0.007349936133840829
39,0.029585,0.000973082,328.022,0.00121357,-3.56233e-16,-1.98642e-16,3.36407e-16,-0.00526293,0.0146841,-0.0076768,0.0,0.0,0.0,0.00911515,-0.005249105047792635,0.0,0.0,0.014792441043766313,0.0,-0.00764740862952773
40,0.030585,0.000971114,329.038,0.0012118,-3.19203e-16,-5.77949e-16,3.17276e-16,-0.00545051,0.0151767,-0.00797641,0.0,0.0,0.0,0.00953817,-0.005435682920981955,0.0,0.0,0.015292450942551827,0.0,-0.007944682854039264
41,0.031585,0.000969116,330.047,0.00120997,-1.10136e-16,-3.74019e-16,-7.06053e-17,-0.00563801,0.0156691,-0.00827589,0.0,0.0,0.0,0.00996107,-0.0056221462489509655,0.0,0.0,0.015792504048367073,0.0,-0.008241739096996104
42,0.032585,0.00096709,331.047,0.00120808,-4.50424e-16,2.08343e-16,-4.36619e-16,-0.00582543,0.0161612,-0.00857527,0.0,0.0,0.0,0.0103838,-0.005808495083006293,0.0,0.0,0.016292498553167167,0.0,-0.008538607244734875
43,0.033585,0.000965039,332.04,0.00120615,-5.19712e-17,1.12201e-17,-4.121e-16,-0.00601276,0.016653,-0.00887452,0.0,0.0,0.0,0.0108065,-0.00599471953436459,0.0,0.0,0.016792434128036993,0.0,-0.00883525767798199
44,0.034585,0.000962964,333.026,0.00120416,-4.62405e-17,3.93349e-16,3.5115e-16,-0.0062,0.0171447,-0.00917366,0.0,0.0,0.0,0.011229,-0.006180819659841519,0.0,0.0,0.017292513902434914,0.0,-0.00913171035636251
45,0.035585,0.000960866,334.004,0.00120213,-3.93415e-16,5.75327e-16,3.31496e-16,-0.00638716,0.017636,-0.00947268,0.0,0.0,0.0,0.0116514,-0.006366805452540647,0.0,0.0,0.017792432509465383,0.0,-0.009427955498513163
46,0.036585,0.000958748,334.975,0.00120006,-7.4172e-19,-3.96543e-16,-5.72304e-17,-0.00657424,0.0181272,-0.00977158,0.0,0.0,0.0,0.0120737,-0.00655267696361328,0.0,0.0,0.018292494957596883,0.0,-0.00972399323757056
47,0.037585,0.000956611,335.939,0.00119794,-1.76459e-16,3.7808e-16,6.86463e-16,-0.00676123,0.0186181,-0.0100704,0.0,0.0,0.0,0.0124958,-0.006738424311558355,0.0,0.0,0.0187924974589444,0.0,-0.010019863305762766
48,0.038585,0.000954457,336.897,0.00119579,-1.58231e-16,-2.06178e-16,-4.62656e-16,-0.00694814,0.0191087,-0.010369,0.0,0.0,0.0,0.0129178,-0.006924057483781776,0.0,0.0,0.019292439683998186,0.0,-0.01031542724468748
49,0.039585,0.000952288,337.847,0.00119361,-3.1825e-16,-2.02362e-16,-4.37154e-16,-0.00713496,0.0195991,-0.0106676,0.0,0.0,0.0,0.0133397,-0.00710956660241624,0.0,0.0,0.01979242328237718,0.0,-0.010610902941395328
50,0.040585,0.000950103,338.79,0.00119139,-2.85916e-16,-1.98644e-16,-4.1311e-16,-0.0073217,0.0200893,-0.010966,0.0,0.0,0.0,0.0137615,-0.007294961651074461,0.0,0.0,0.020292448074334057,0.0,-0.010906092603469641
51,0.041585,0.000947905,339.727,0.00118914,-2.56873e-16,-1.95021e-16,-3.90439e-16,-0.00750836,0.0205793,-0.0112643,0.0,0.0,0.0,0.0141831,-0.0074802426807162314,0.0,0.0,0.020792513880007357,0.0,-0.011201095314204212
52,0.042585,0.000945696,340.657,0.00118686,-2.30777e-16,-1.9149e-16,-3.69056e-16,-0.00769492,0.0210689,-0.0115625,0.0,0.0,0.0,0.0146046,-0.0076653898955725275,0.0,0.0,0.021292416260919822,0.0,-0.011495911188350028
53,0.043585,0.000943475,341.581,0.00118455,-2.07322e-16,5.78995e-16,3.92417e-16,-0.00788141,0.0215584,-0.0118605,0.0,0.0,0.0,0.0150259,-0.007850433122118972,0.0,0.0,0.021792461274712016,0.0,-0.011790441519616834
54,0.044585,0.000941245,342.499,0.00118222,-1.86233e-16,1.82152e-16,-3.7037e-16,-0.00806781,0.0220476,-0.0121585,0.0,0.0,0.0,0.0154471,-0.008035352566357346,0.0,0.0,0.02229244443267686,0.0,-0.0120848840939215
55,0.045585,0.000939005,343.41,0.00117987,-1.67266e-16,5.6097e-16,3.91301e-16,-0.00825412,0.0225366,-0.0124563,0.0,0.0,0.0,0.0158682,-0.008220148284641016,0.0,0.0,0.02279246768372567,0.0,-0.012379041413239533
56,0.046585,0.000936758,344.315,0.00117749,-1.50202e-16,9.31479e-16,-7.42375e-16,-0.00844035,0.0230253,-0.012754,0.0,0.0,0.0,0.0162891,-0.00840483024923111,0.0,0.0,0.023292428518162156,0.0,-0.012673012412856455
57,0.047585,0.000934504,345.215,0.0011751,-1.34844e-16,-6.23774e-16,3.95214e-17,-0.0086265,0.0235138,-0.0130516,0.0,0.0,0.0,0.0167099,-0.008589398510856272,0.0,0.0,0.02379242898466427,0.0,-0.012966797207016656
58,0.048585,0.000932243,346.108,0.00117268,-1.21018e-16,-6.11112e-16,3.74248e-17,-0.00881256,0.0240021,-0.013349,0.0,0.0,0.0,0.0171305,-0.008773843207947163,0.0,0.0,0.02429246890254766,0.0,-0.013260297235909824
59,0.049585,0.000929977,346.995,0.00117025,-1.08568e-16,-2.1509e-16,3.5445e-17,-0.00899854,0.0244901,-0.0136463,0.0,0.0,0.0,0.017551,-0.008958174307107103,0.0,0.0,0.024792445611766967,0.0,-0.013553611346238559
60,0.050585,0.000927707,347.877,0.0011678,-9.73517e-17,5.5599e-16,3.35752e-17,-0.00918443,0.0249779,-0.0139436,0.0,0.0,0.0,0.0179714,-0.009142381950375311,0.0,0.0,0.025292461310650438,0.0,-0.013846838267243755
61,0.051585,0.000925432,348.753,0.00116534,-6.18244e-16,-7.99741e-16,3.18089e-17,-0.00937023,0.0254654,-0.0142406,0.0,0.0,0.0,0.0183916,-0.009326466193853133,0.0,0.0,0.025792413238920453,0.0,-0.014139682266791853
62,0.052585,0.000923155,349.623,0.00116286,-2.03587e-16,-1.61881e-17,-3.41031e-16,-0.00955596,0.0259528,-0.0145376,0.0,0.0,0.0,0.0188117,-0.009510446903389425,0.0,0.0,0.026292506323917886,0.0,-0.014432439304586486
63,0.053585,0.000920875,350.488,0.00116037,-1.83213e-16,-4.00418e-16,-3.2287e-16,-0.00974159,0.0264398,-0.0148344,0.0,0.0,0.0,0.0192316,-0.009694294414796079,0.0,0.0,0.026792432496640206,0.0,-0.01472491235145379
64,0.054585,0.000918593,351.347,0.00115786,-1.64839e-16,-9.07848e-18,-3.05705e-16,-0.00992714,0.0269267,-0.0151312,0.0,0.0,0.0,0.0196514,-0.00987802859200193,0.0,0.0,0.027292499463446473,0.0,-0.015017298605201401
65,0.055585,0.000916309,352.201,0.00115535,-1.48264e-16,-5.85409e-16,-2.89479e-16,-0.0101126,0.0274133,-0.0154277,0.0,0.0,0.0,0.020071,-0.010061639586045557,0.0,0.0,0.027792501634347655,0.0,-0.015309302684420989
66,0.056585,0.000914025,353.049,0.00115283,-3.10544e-16,-7.65764e-16,-2.74138e-16,-0.010298,0.0278996,-0.0157242,0.0,0.0,0.0,0.0204905,-0.010245157145462813,0.0,0.0,0.028292438677732124,0.0,-0.015601220197265175
67,0.057585,0.00091174,353.893,0.00115029,-4.57367e-16,4.01009e-16,1.11809e-16,-0.0104833,0.0283857,-0.0160206,0.0,0.0,0.0,0.0209098,-0.010428541726737683,0.0,0.0,0.028792413141121687,0.0,-0.015892952758697287
68,0.058585,0.000909455,354.731,0.00114775,-5.82846e-17,-7.59626e-16,-2.65464e-16,-0.0106685,0.0288716,-0.0163168,0.0,0.0,0.0,0.021329,-0.0106117933911819,0.0,0.0,0.02929242484267225,0.0,-0.016184402100311912
69,0.059585,0.000907172,355.564,0.00114521,-5.19401e-17,4.07064e-16,-2.51478e-16,-0.0108536,0.0293573,-0.0166129,0.0,0.0,0.0,0.0217481,-0.010794912200056683,0.0,0.0,0.029792473600428693,0.0,-0.016475666774986797
70,0.060585,0.000904888,356.392,0.00114265,-4.62076e-17,3.97801e-16,-2.38247e-16,-0.0110387,0.0298427,-0.0169088,0.0,0.0,0.0,0.022167,-0.010977997116776606,0.0,0.0,0.030292456203075302,0.0,-0.01676664857230803
71,0.061585,0.000902607,357.216,0.00114009,-4.10266e-17,3.88753e-16,-2.25728e-16,-0.0112236,0.0303279,-0.0172047,0.0,0.0,0.0,0.0225857,-0.011160850379804632,0.0,0.0,0.030792475397672048,0.0,-0.017057544280852932
72,0.062585,0.000900327,358.034,0.00113753,-3.63425e-17,-4.04614e-18,-2.1388e-16,-0.0114085,0.0308128,-0.0175004,0.0,0.0,0.0,0.0230043,-0.011343669836389791,0.0,0.0,0.031292427872673834,0.0,-0.01734815739574247
73,0.063585,0.00089805,358.848,0.00113496,-3.21064e-17,-4.77117e-18,-2.02666e-16,-0.0115933,0.0312975,-0.017796,0.0,0.0,0.0,0.0234228,-0.011526356645422897,0.0,0.0,0.03179241647491282,0.0,-0.01763858635290161
74,0.064585,0.000895774,359.656,0.00113239,-2.0587e-16,-3.89483e-16,-1.9205e-16,-0.011778,0.031782,-0.0180915,0.0,0.0,0.0,0.0238411,-0.011708910867949118,0.0,0.0,0.03229244102186013,0.0,-0.017928831264836576
75,0.065585,0.000893502,360.461,0.00112981,-3.63369e-16,3.85736e-16,-1.82e-16,-0.0119626,0.0322663,-0.0183868,0.0,0.0,0.0,0.0242592,-0.01189133256496222,0.0,0.0,0.032792501330876966,0.0,-0.018218794065849475
76,0.066585,0.000891233,361.26,0.00112723,-3.2851e-16,-3.91043e-16,1.99414e-16,-0.0121472,0.0327503,-0.0186821,0.0,0.0,0.0,0.0246772,-0.012073720590038084,0.0,0.0,0.033292493889959696,0.0,-0.01850867125348854
77,0.067585,0.000888967,362.055,0.00112465,-2.96963e-16,-3.83876e-16,-1.82612e-16,-0.0123316,0.033234,-0.0189772,0.0,0.0,0.0,0.025095,-0.0122558774005872,0.0,0.0,0.033792418366241916,0.0,-0.018798266612704784
78,0.068585,0.000886705,362.845,0.00112207,-2.68407e-16,7.29234e-18,-1.73108e-16,-0.012516,0.0337176,-0.0192721,0.0,0.0,0.0,0.0255127,-0.012438000624517165,0.0,0.0,0.03429248128523188,0.0,-0.019087580342474486
79,0.069585,0.000884447,363.631,0.00111949,-6.47441e-17,-7.617e-16,-1.64105e-16,-0.0127003,0.0342009,-0.019567,0.0,0.0,0.0,0.0259302,-0.012619991530025021,0.0,0.0,0.03479247565534416,0.0,-0.0193768087662044
80,0.070585,0.000882194,364.413,0.0011169,-2.35678e-16,2.12389e-17,2.16512e-16,-0.0128844,0.034684,-0.0198617,0.0,0.0,0.0,0.0263476,-0.01280175145806961,0.0,0.0,0.03529250467261735,0.0,-0.01966575584221808
81,0.071585,0.000879944,365.19,0.00111432,-2.12944e-16,-5.56127e-16,2.05671e-16,-0.0130686,0.0351668,-0.0201563,0.0,0.0,0.0,0.0267648,-0.012983576628838644,0.0,0.0,0.03579246457448204,0.0,-0.019954519773531465
82,0.072585,0.000877699,365.963,0.00111174,-1.92345e-16,-5.45566e-16,-1.76783e-16,-0.0132526,0.0356494,-0.0204508,0.0,0.0,0.0,0.0271819,-0.013165170943549742,0.0,0.0,0.03629245865675368,0.0,-0.0202431006718351
83,0.073585,0.000875459,366.732,0.00110915,-1.73675e-16,4.09413e-17,5.76774e-16,-0.0134365,0.0361318,-0.0207451,0.0,0.0,0.0,0.0275988,-0.013346633182648837,0.0,0.0,0.03679248673588553,0.0,-0.02053140070187709
84,0.074585,0.000873224,367.496,0.00110657,-1.56749e-16,-1.5262e-16,1.75532e-16,-0.0136204,0.0366139,-0.0210393,0.0,0.0,0.0,0.0280155,-0.01352806205391055,0.0,0.0,0.037292444898972876,0.0,-0.020819517979660973
85,0.075585,0.000870995,368.257,0.00110399,3.66503e-17,-1.30278e-15,1.66825e-16,-0.0138042,0.0370958,-0.0213334,0.0,0.0,0.0,0.0284321,-0.013709358934411386,0.0,0.0,0.037792436591491896,0.0,-0.02110745261655933
86,0.076585,0.00086877,369.013,0.00110141,-5.00004e-16,2.59515e-16,-2.13793e-16,-0.0139879,0.0375775,-0.0216274,0.0,0.0,0.0,0.0288485,-0.01389052388466494,0.0,0.0,0.038292461629559904,0.0,-0.021395204723857697
87,0.077585,0.000866552,369.766,0.00109884,-4.53346e-16,2.53707e-16,-2.02943e-16,-0.0141715,0.0380589,-0.0219212,0.0,0.0,0.0,0.0292648,-0.014071556965134402,0.0,0.0,0.038792415949937986,0.0,-0.021682676581026072
88,0.078585,0.000864339,370.514,0.00109626,-5.46743e-17,-1.36077e-16,-1.92653e-16,-0.014355,0.0385402,-0.0222149,0.0,0.0,0.0,0.0296809,-0.014252458236232113,0.0,0.0,0.03929250707701071,0.0,-0.021969966188370327
89,0.079585,0.000862131,371.258,0.00109369,-4.86701e-17,1.01885e-15,5.621e-16,-0.0145384,0.0390211,-0.0225085,0.0,0.0,0.0,0.0300969,-0.014433227758319678,0.0,0.0,0.03979242303882269,0.0,-0.022257073656858584
90,0.080585,0.00085993,371.999,0.00109112,-2.21463e-16,2.29544e-16,-5.83374e-16,-0.0147218,0.0395019,-0.022802,0.0,0.0,0.0,0.0305127,-0.014613964130316903,0.0,0.0,0.04029247543878367,0.0,-0.022543999097372258
91,0.081585,0.000857735,372.735,0.00108856,-2.00364e-16,6.08793e-16,-1.81662e-16,-0.014905,0.0399824,-0.0230953,0.0,0.0,0.0,0.0309284,-0.014794470317216701,0.0,0.0,0.040792456083962314,0.0,-0.022830644903774622
92,0.082585,0.000855546,373.468,0.001086,-1.81201e-16,9.80443e-16,-1.725e-16,-0.0150882,0.0404627,-0.0233885,0.0,0.0,0.0,0.0313438,-0.01497494343841188,0.0,0.0,0.04129246876905346,0.0,-0.023117108961005828
93,0.083585,0.000853363,374.197,0.00108344,-1.63792e-16,-9.61e-16,-1.63805e-16,-0.0152713,0.0409428,-0.0236816,0.0,0.0,0.0,0.0317592,-0.015155285015493125,0.0,0.0,0.041792513309396595,0.0,-0.023403391379631433
94,0.084585,0.000851187,374.923,0.00108089,-1.47974e-16,-5.58185e-16,-1.55551e-16,-0.0154543,0.0414226,-0.0239746,0.0,0.0,0.0,0.0321743,-0.015335495108608765,0.0,0.0,0.042292485290969406,0.0,-0.023689492270129953
95,0.085585,0.000849017,375.645,0.00107834,-1.33597e-16,-5.47664e-16,-1.47715e-16,-0.0156373,0.0419022,-0.0242674,0.0,0.0,0.0,0.0325893,-0.015515672226294797,0.0,0.0,0.04279248865813834,0.0,-0.023975314140429416
96,0.086585,0.000846854,376.363,0.00107579,-1.20527e-16,-5.37374e-16,-1.40275e-16,-0.0158201,0.0423815,-0.0245601,0.0,0.0,0.0,0.0330042,-0.015695619513728665,0.0,0.0,0.04329241889666302,0.0,-0.024260954760436437
97,0.087585,0.000844697,377.077,0.00107325,-2.87147e-16,6.25823e-16,-1.3321e-16,-0.0160029,0.0428607,-0.0248527,0.0,0.0,0.0,0.0334189,-0.015875533909804784,0.0,0.0,0.04379248442993089,0.0,-0.024546414240315007
98,0.088585,0.000842547,377.788,0.00107072,-2.60403e-16,-1.55606e-16,-1.265e-16,-0.0161856,0.0433396,-0.0251451,0.0,0.0,0.0,0.0338334,-0.01605531702607177,0.0,0.0,0.044292476364237165,0.0,-0.02483159517330691
99,0.089585,0.000840404,378.496,0.00106819,-2.36076e-16,-1.52978e-16,-1.20126e-16,-0.0163682,0.0438183,-0.0254374,0.0,0.0,0.0,0.0342477,-0.016234968922465454,0.0,0.0,0.04479249884350467,0.0,-0.025116595243248274
100,0.090585,0.000838268,379.2,0.00106566,-2.13944e-16,-1.50407e-16,-1.14072e-16,-0.0165507,0.0442967,-0.0257296,0.0,0.0,0.0,0.0346619,-0.0164144896588716,0.0,0.0,0.04529244715305181,0.0,-0.025401414559989566
101,0.091585,0.000836139,379.9,0.00106314,-1.93803e-16,-1.47893e-16,-1.0832e-16,-0.0167331,0.0447749,-0.0260217,0.0,0.0,0.0,0.035076,-0.01659387929512568,0.0,0.0,0.04579242553658425,0.0,-0.025686053233294537
102,0.092585,0.000834017,380.597,0.00106063,-3.54154e-16,-5.29951e-16,-1.02854e-16,-0.0169154,0.0452529,-0.0263136,0.0,0.0,0.0,0.0354899,-0.016773137891012757,0.0,0.0,0.046292433808447386,0.0,-0.025970413969887085
103,0.093585,0.000831902,381.291,0.00105812,-1.42957e-16,4.41001e-16,-9.76599e-17,-0.0170977,0.0457307,-0.0266055,0.0,0.0,0.0,0.0359036,-0.016952363811036264,0.0,0.0,0.04679247178288026,0.0,-0.0262546917136941
104,0.094585,0.000829794,381.982,0.00105562,-6.65401e-16,-1.44823e-16,-9.27234e-17,-0.0172799,0.0462082,-0.0268971,0.0,0.0,0.0,0.0363171,-0.01713145877430322,0.0,0.0,0.04729243454476628,0.0,-0.026538594450559616
105,0.095585,0.000827693,382.669,0.00105312,-6.92613e-17,-7.19291e-16,2.85124e-16,-0.017462,0.0466855,-0.0271887,0.0,0.0,0.0,0.0367305,-0.01731042284048767,0.0,0.0,0.04779242653737148,0.0,-0.02682241441345612
106,0.096585,0.000825599,383.353,0.00105063,-2.40746e-16,-1.29256e-16,2.71615e-16,-0.017644,0.0471626,-0.0274801,0.0,0.0,0.0,0.0371437,-0.017489256069213255,0.0,0.0,0.048292447574606046,0.0,-0.02710595704772789
107,0.097585,0.000823512,384.033,0.00104814,-2.18382e-16,-5.1195e-16,-4.87691e-16,-0.0178259,0.0476395,-0.0277715,0.0,0.0,0.0,0.0375568,-0.01766795852005365,0.0,0.0,0.0487924974702747,0.0,-0.027389417069713096
108,0.098585,0.000821433,384.711,0.00104566,-5.55778e-16,-1.07954e-15,6.5571e-16,-0.0180077,0.0481161,-0.0280626,0.0,0.0,0.0,0.0379697,-0.017846530252532355,0.0,0.0,0.04929247110882318,0.0,-0.027672502805276333
109,0.099585,0.000819361,385.385,0.00104319,-1.48116e-16,-4.82444e-16,2.51237e-16,-0.0181895,0.0485925,-0.0283537,0.0,0.0,0.0,0.0383824,-0.01802506952362093,0.0,0.0,0.04979247313308499,0.0,-0.027955506146574938
110,0.1006,0.000817296,386.057,0.00104072,-1.3389e-16,2.95495e-16,2.39432e-16,-0.0183712,0.0490687,-0.0286446,0.0,0.0,0.0,0.038795,-0.018203478159573128,0.0,0.0,0.05029250335653801,0.0,-0.028238232765256388
111,0.1016,0.000815239,386.725,0.00103826,-1.20917e-16,-8.6437e-16,-1.45179e-16,-0.0185528,0.0495446,-0.0289354,0.0,0.0,0.0,0.0392074,-0.018381756219801537,0.0,0.0,0.05079245651330311,0.0,-0.028520780002808777
112,0.1026,0.000813189,387.39,0.00103581,-1.09085e-16,-4.63725e-16,2.35325e-16,-0.0187343,0.0500203,-0.0292261,0.0,0.0,0.0,0.0396197,-0.018559903763668895,0.0,0.0,0.05129243739589118,0.0,-0.028803147967889742
113,0.1036,0.000811146,388.052,0.00103336,-9.82908e-17,-4.5532e-16,-5.2258e-16,-0.0189157,0.0504958,-0.0295166,0.0,0.0,0.0,0.0400317,-0.01873792085048831,0.0,0.0,0.051792445817454125,0.0,-0.02908523967760046
114,0.1046,0.000809111,388.711,0.00103092,-2.67526e-16,1.29802e-16,-4.97642e-16,-0.019097,0.0509711,-0.0298071,0.0,0.0,0.0,0.0404437,-0.01891580753952249,0.0,0.0,0.05229248159103905,0.0,-0.02936724945157121
115,0.1056,0.000807083,389.367,0.00102849,-2.43077e-16,5.11704e-16,6.46678e-16,-0.0192783,0.0514461,-0.0300974,0.0,0.0,0.0,0.0408554,-0.019093661980623344,0.0,0.0,0.05279243925033872,0.0,-0.029648983243416915
116,0.1066,0.000805062,390.02,0.00102607,-2.20762e-16,6.94127e-16,2.42798e-16,-0.0194595,0.0519209,-0.0303875,0.0,0.0,0.0,0.041267,-0.019271386106780364,0.0,0.0,0.05329242378743104,0.0,-0.029930441245920925
117,0.1076,0.000803049,390.671,0.00102365,-3.79572e-16,-6.65747e-16,-5.15657e-16,-0.0196406,0.0523955,-0.0306776,0.0,0.0,0.0,0.0416784,-0.019448979977146008,0.0,0.0,0.053792435015039386,0.0,-0.030211817609300584
118,0.1086,0.000801043,391.318,0.00102123,-1.66379e-16,-2.69073e-16,-1.17593e-16,-0.0198216,0.0528699,-0.0309675,0.0,0.0,0.0,0.0420897,-0.019626443650823222,0.0,0.0,0.054292472745782305,0.0,-0.030492918455839235
119,0.1096,0.000799044,391.963,0.00101883,-1.50704e-16,-4.5686e-16,-1.11877e-16,-0.0200025,0.053344,-0.0312573,0.0,0.0,0.0,0.0425008,-0.01980377718686488,0.0,0.0,0.05479243131292466,0.0,-0.03077384090044244
120,0.1106,0.000797053,392.604,0.00101643,-1.36386e-16,3.20636e-16,-1.06434e-16,-0.0201834,0.0538179,-0.0315469,0.0,0.0,0.0,0.0429117,-0.01998107864617127,0.0,0.0,0.05529241590811651,0.0,-0.031054488156433524
121,0.1116,0.000795069,393.243,0.00101404,-3.02611e-16,-7.04924e-17,-1.01252e-16,-0.0203641,0.0542916,-0.0318365,0.0,0.0,0.0,0.0433225,-0.020158152066194535,0.0,0.0,0.055792426343654,0.0,-0.03133505414874693
122,0.1126,0.000793093,393.88,0.00101166,-2.75379e-16,3.15159e-16,2.77461e-16,-0.0205448,0.0547651,-0.0321259,0.0,0.0,0.0,0.043733,-0.020335193491941683,0.0,0.0,0.05629246243172914,0.0,-0.031615345224001445
123,0.1136,0.000791124,394.513,0.00100928,-2.50493e-16,-7.59564e-17,-1.0906e-16,-0.0207254,0.0552383,-0.0324151,0.0,0.0,0.0,0.0441435,-0.020512104980408674,0.0,0.0,0.056792418305182224,0.0,-0.03189536157384676
124,0.1146,0.000789163,395.144,0.00100691,-2.27747e-16,-2.67461e-16,6.43909e-16,-0.0209059,0.0557114,-0.0327043,0.0,0.0,0.0,0.0445537,-0.020688886590439548,0.0,0.0,0.05729250508448258,0.0,-0.03217529695467247
125,0.1156,0.000787208,395.772,0.00100455,-2.06953e-16,-7.06785e-17,-1.33522e-16,-0.0210863,0.0561842,-0.0329933,0.0,0.0,0.0,0.0449638,-0.020865538380828053,0.0,0.0,0.05779251117301154,0.0,-0.03245495788090225
126,0.1166,0.000785262,396.397,0.00100219,-8.48215e-18,3.1494e-16,-1.27153e-16,-0.0212667,0.0566567,-0.0332822,0.0,0.0,0.0,0.0453738,-0.021042158306107894,0.0,0.0,0.058292436232535216,0.0,-0.03273444127025105
127,0.1176,0.000783322,397.02,0.000999844,-6.24768e-18,3.08631e-16,-1.21086e-16,-0.0214469,0.0571291,-0.033571,0.0,0.0,0.0,0.0457835,-0.021218550615756615,0.0,0.0,0.058792491683209436,0.0,-0.033013747229890256
128,0.1186,0.00078139,397.64,0.000997504,-1.83718e-16,-8.24616e-17,-1.15304e-16,-0.0216271,0.0576012,-0.0338596,0.0,0.0,0.0,0.0461931,-0.021394911142375017,0.0,0.0,0.05929246562809665,0.0,-0.033292779196190336
129,0.1196,0.000779465,398.258,0.000995171,-1.66739e-16,-8.1516e-17,2.64222e-16,-0.0218072,0.0580731,-0.0341482,0.0,0.0,0.0,0.0466026,-0.021571142048808833,0.0,0.0,0.059792463707894816,0.0,-0.03357173064548402
130,0.1206,0.000777547,398.873,0.000992846,-1.51204e-16,3.04347e-16,2.52279e-16,-0.0219872,0.0585448,-0.0344366,0.0,0.0,0.0,0.0470118,-0.021747243393643534,0.0,0.0,0.0602924857339493,0.0,-0.0338504083711062
131,0.1216,0.000775637,399.485,0.000990527,-1.36986e-16,-4.71626e-16,2.40897e-16,-0.0221672,0.0590162,-0.0347248,0.0,0.0,0.0,0.0474209,-0.02192331304308881,0.0,0.0,0.06079242543825458,0.0,-0.03412881256344258
132,0.1226,0.000773734,400.095,0.000988217,-1.23971e-16,-7.86831e-17,2.30049e-16,-0.022347,0.0594875,-0.035013,0.0,0.0,0.0,0.0478299,-0.022099155422700023,0.0,0.0,0.0612924947404383,0.0,-0.0344071365312516
133,0.1236,0.000771839,400.702,0.000985913,-1.12056e-16,6.92139e-16,2.19708e-16,-0.0225268,0.0599585,-0.035301,0.0,0.0,0.0,0.0482386,-0.022274966188693512,0.0,0.0,0.061792481243039266,0.0,-0.03468518723470737
134,0.1246,0.00076995,401.307,0.000983618,-1.01146e-16,-4.75864e-16,-1.6433e-16,-0.0227065,0.0604293,-0.0355889,0.0,0.0,0.0,0.0486472,-0.02245064759182258,0.0,0.0,0.06229249083623101,0.0,-0.03496306136740179
135,0.1256,0.000768069,401.91,0.000981329,-9.11533e-17,-8.28514e-17,-1.56682e-16,-0.0228861,0.0608998,-0.0358766,0.0,0.0,0.0,0.0490557,-0.022626199690464754,0.0,0.0,0.06279241705158922,0.0,-0.03524066255980007
136,0.1266,0.000766195,402.51,0.000979048,-2.61747e-16,-4.66852e-16,2.24854e-16,-0.0230656,0.0613702,-0.0361643,0.0,0.0,0.0,0.0494639,-0.022801622542948263,0.0,0.0,0.06329247220832235,0.0,-0.03551818389782291
137,0.1276,0.000764328,403.107,0.000976775,-5.86716e-17,-7.39239e-17,-1.59456e-16,-0.023245,0.0618403,-0.0364518,0.0,0.0,0.0,0.049872,-0.022976916207552267,0.0,0.0,0.06379244350855418,0.0,-0.03579543256354689
138,0.1286,0.000762468,403.703,0.000974509,-5.22146e-17,3.11806e-16,-1.52066e-16,-0.0234244,0.0623102,-0.0367392,0.0,0.0,0.0,0.05028,-0.023152178427293446,0.0,0.0,0.06429243704203924,0.0,-0.03607250513899185
139,0.1296,0.000760616,404.296,0.00097225,-4.62962e-17,-8.49404e-16,-1.45017e-16,-0.0236037,0.0627799,-0.0370264,0.0,0.0,0.0,0.0506877,-0.023327311540548568,0.0,0.0,0.06479245261918343,0.0,-0.03634930536510084
140,0.1306,0.00075877,404.886,0.000969999,-2.20728e-16,-4.49831e-16,-5.12664e-16,-0.0237829,0.0632494,-0.0373135,0.0,0.0,0.0,0.0510953,-0.02350231560548799,0.0,0.0,0.06529249005028981,0.0,-0.03662592976819734
141,0.1316,0.000756932,405.474,0.000967756,-2.00932e-16,1.48278e-15,-1.14975e-16,-0.023962,0.0637186,-0.0376005,0.0,0.0,0.0,0.0515028,-0.023677190680232663,0.0,0.0,0.06579244256630967,0.0,-0.03690237845406996
142,0.1326,0.0007551,406.06,0.00096552,-2.86903e-18,-8.54594e-16,-1.09603e-16,-0.024141,0.0641876,-0.0378874,0.0,0.0,0.0,0.05191,-0.02385193682285458,0.0,0.0,0.06629241645658612,0.0,-0.03717865152842392
143,0.1336,0.000753276,406.644,0.000963291,-1.80943e-16,3.15244e-16,-1.04478e-16,-0.02432,0.0646565,-0.0381742,0.0,0.0,0.0,0.0523171,-0.024026651688716316,0.0,0.0,0.0667925182103557,0.0,-0.037454749096881734
144,0.1346,0.000751459,407.225,0.00096107,-3.44443e-16,-8.46167e-16,-9.95875e-17,-0.0244988,0.065125,-0.0384608,0.0,0.0,0.0,0.052724,-0.024201140123663367,0.0,0.0,0.06729242759976795,0.0,-0.03773057503804511
145,0.1356,0.000749649,407.804,0.000958856,-3.14607e-16,-4.46558e-16,-9.49201e-17,-0.0246776,0.0655934,-0.0387473,0.0,0.0,0.0,0.0531308,-0.02437559736286732,0.0,0.0,0.06779246447234888,0.0,-0.03800622573944823
146,0.1366,0.000747845,408.381,0.00095665,-2.87238e-16,-4.39156e-16,-9.04655e-17,-0.0248563,0.0660615,-0.0390337,0.0,0.0,0.0,0.0535374,-0.024549925866902855,0.0,0.0,0.06829241512929074,0.0,-0.038281701306412286
147,0.1376,0.000746049,408.956,0.000954451,-2.62127e-16,-8.16975e-16,2.8837e-16,-0.025035,0.0665295,-0.0393199,0.0,0.0,0.0,0.0539438,-0.024724223221217922,0.0,0.0,0.06879249298866297,0.0,-0.03855690569987125
148,0.1386,0.00074426,409.528,0.00095226,-2.39084e-16,-3.28371e-17,-9.88646e-17,-0.0252135,0.0669972,-0.039606,0.0,0.0,0.0,0.0543501,-0.024898294411057065,0.0,0.0,0.06929248415145306,0.0,-0.03883193522430095
149,0.1396,0.000742477,410.099,0.000950076,-3.98036e-16,1.59774e-16,-9.42596e-17,-0.025392,0.0674647,-0.039892,0.0,0.0,0.0,0.0547562,-0.025072334531961782,0.0,0.0,0.06979249525628273,0.0,-0.03910678998472261
150,0.1406,0.000740701,410.667,0.000947899,-3.75027e-18,-2.28774e-16,-8.9863e-17,-0.0255703,0.0679319,-0.0401779,0.0,0.0,0.0,0.0551621,-0.02524614863872665,0.0,0.0,0.07029241908317907,0.0,-0.03938147008607451
151,0.1416,0.000738932,411.233,0.00094573,-1.81856e-16,-1.38095e-15,2.89037e-16,-0.0257486,0.068399,-0.0404637,0.0,0.0,0.0,0.0555679,-0.025419931757199032,0.0,0.0,0.07079246944980411,0.0,-0.03965597563321266
152,0.1426,0.00073717,411.797,0.000943568,-3.45576e-16,-9.15398e-18,-9.8258e-17,-0.0259269,0.0688658,-0.0407493,0.0,0.0,0.0,0.0559734,-0.025593683892903507,0.0,0.0,0.07129243205673719,0.0,-0.039930210723936876
153,0.1436,0.000735415,412.359,0.000941414,-1.35702e-16,-2.02333e-16,2.81051e-16,-0.026105,0.0693324,-0.0410348,0.0,0.0,0.0,0.0563789,-0.02576721020482542,0.0,0.0,0.07179241374219081,0.0,-0.04020427152473427
154,0.1446,0.000733666,412.918,0.000939267,-4.83445e-16,-3.92078e-16,2.68876e-16,-0.0262831,0.0697988,-0.0413201,0.0,0.0,0.0,0.0567841,-0.025940705614463044,0.0,0.0,0.07229241431503008,0.0,-0.04047806218797301
155,0.1456,0.000731925,413.476,0.000937127,2.78282e-16,1.91884e-16,2.57248e-16,-0.026461,0.070265,-0.0416054,0.0,0.0,0.0,0.0571892,-0.026113975350134266,0.0,0.0,0.0727924335840191,0.0,-0.040751774749877234
156,0.1466,0.000730189,414.032,0.000934995,-1.02844e-16,1.87837e-16,-1.28705e-16,-0.0266389,0.070731,-0.0418905,0.0,0.0,0.0,0.0575941,-0.02628721426386127,0.0,0.0,0.07329247135782158,0.0,-0.04102521743778875
157,0.1476,0.000728461,414.585,0.00093287,-4.53409e-16,1.83784e-16,-1.22873e-16,-0.0268167,0.0711967,-0.0421755,0.0,0.0,0.0,0.0579989,-0.026460325007164,0.0,0.0,0.07379242006575404,0.0,-0.04129848630815525
158,0.1486,0.000726739,415.137,0.000930752,-2.34947e-16,-7.83253e-16,-1.17301e-16,-0.0269945,0.0716623,-0.0424604,0.0,0.0,0.0,0.0584034,-0.026633404974112707,0.0,0.0,0.07429249422476691,0.0,-0.04157158146515372
159,0.1496,0.000725024,415.686,0.000928642,-2.14328e-16,4.41318e-20,-1.11977e-16,-0.0271721,0.0721276,-0.0427451,0.0,0.0,0.0,0.0588079,-0.026806259531450216,0.0,0.0,0.0747924788347285,0.0,-0.04184440719732485
160,0.1506,0.000723315,416.234,0.000926538,-1.95373e-16,-7.71306e-16,2.68069e-16,-0.0273497,0.0725927,-0.0430297,0.0,0.0,0.0,0.0592121,-0.0269790833925444,0.0,0.0,0.07529248108314412,0.0,-0.04211705947877642
161,0.1516,0.000721613,416.78,0.000924442,-1.77945e-16,-3.73539e-16,-1.18396e-16,-0.0275272,0.0730576,-0.0433142,0.0,0.0,0.0,0.0596162,-0.02715177927802892,0.0,0.0,0.0757925007781719,0.0,-0.04238953841338844
162,0.1526,0.000719917,417.323,0.000922353,-1.61919e-16,4.02649e-16,-1.13051e-16,-0.0277046,0.0735222,-0.0435986,0.0,0.0,0.0,0.0600201,-0.027324347245153757,0.0,0.0,0.07629243009862186,0.0,-0.04266184410495888
163,0.1536,0.000718228,417.865,0.000920272,-1.4718e-16,-3.75578e-16,-1.07942e-16,-0.0278819,0.0739867,-0.0438828,0.0,0.0,0.0,0.0604238,-0.027496787351120044,0.0,0.0,0.07679248406094463,0.0,-0.04293388095059747
164,0.1546,0.000716546,418.405,0.000918197,-1.33622e-16,-3.69883e-16,2.72011e-16,-0.0280592,0.0744509,-0.0441669,0.0,0.0,0.0,0.0608274,-0.02766919688616576,0.0,0.0,0.07729244716450423,0.0,-0.04320574481492889
165,0.1556,0.000714869,418.943,0.00091613,-1.21148e-16,7.9165e-16,-4.89754e-16,-0.0282363,0.0749149,-0.0444509,0.0,0.0,0.0,0.0612308,-0.027841381424006384,0.0,0.0,0.07779242684630439,0.0,-0.043477435801455244
166,0.1566,0.000713199,419.479,0.00091407,-1.09671e-16,6.51862e-18,-9.32632e-17,-0.0284134,0.0753787,-0.0447348,0.0,0.0,0.0,0.0616341,-0.02801353547066543,0.0,0.0,0.07829242291400096,0.0,-0.04374895401359735
167,0.1576,0.000711536,420.013,0.000912017,-9.91083e-17,-7.65263e-16,-8.90254e-17,-0.0285904,0.0758423,-0.0450185,0.0,0.0,0.0,0.0620371,-0.028185561850103347,0.0,0.0,0.07879243517515055,0.0,-0.044020203956719905
168,0.1586,0.000709879,420.545,0.000909971,-8.93863e-17,-7.52995e-16,-8.49735e-17,-0.0287674,0.0763057,-0.0453022,0.0,0.0,0.0,0.06244,-0.028357557783566745,0.0,0.0,0.07929246343721119,0.0,-0.044291376957148465
169,0.1596,0.000708228,421.075,0.000907932,-8.04365e-17,2.98718e-17,-8.1099e-17,-0.0289442,0.0767689,-0.0455856,0.0,0.0,0.0,0.0628428,-0.028529328982329183,0.0,0.0,0.07979250750754141,0.0,-0.044562186405407544
170,0.1606,0.000706583,421.604,0.0009059,-4.3344e-16,2.86438e-17,-7.73939e-17,-0.029121,0.0772318,-0.045869,0.0,0.0,0.0,0.0632453,-0.028701069814628166,0.0,0.0,0.08029245916415029,0.0,-0.04483291911714293
171,0.1616,0.000704945,422.131,0.000903875,-3.61933e-17,-1.12871e-15,3.01408e-16,-0.0292976,0.0776945,-0.0461523,0.0,0.0,0.0,0.0636477,-0.028872586060368688,0.0,0.0,0.08079242614344628,0.0,-0.0451034796244516
172,0.1626,0.000703312,422.655,0.000901857,-3.92752e-16,-9.17592e-16,-8.65547e-17,-0.0294743,0.0781571,-0.0464354,0.0,0.0,0.0,0.06405,-0.029044169114602503,0.0,0.0,0.08129251638173418,0.0,-0.04537377256759867
173,0.1636,0.000701686,423.179,0.000899846,-1.79368e-16,-7.10058e-16,-4.57948e-16,-0.0296508,0.0786194,-0.0467184,0.0,0.0,0.0,0.064452,-0.02921552769591418,0.0,0.0,0.08179251347748107,0.0,-0.04564389356603793
174,0.1646,0.000700067,423.7,0.000897842,-1.63382e-16,-3.13381e-16,-6.28443e-17,-0.0298272,0.0790814,-0.0470012,0.0,0.0,0.0,0.0648539,-0.029386758973785843,0.0,0.0,0.08229241708754986,0.0,-0.04591374731381903
175,0.1656,0.000698453,424.219,0.000895845,-1.48656e-16,-3.09012e-16,3.15432e-16,-0.0300036,0.0795433,-0.047284,0.0,0.0,0.0,0.0652557,-0.029557960049124143,0.0,0.0,0.0827924434271956,0.0,-0.046183524757750116
176,0.1666,0.000696845,424.737,0.000893855,-3.15849e-16,4.66173e-16,-7.31414e-17,-0.0301799,0.080005,-0.0475666,0.0,0.0,0.0,0.0656572,-0.029729033900164348,0.0,0.0,0.08329248412383805,0.0,-0.04645303521003308
177,0.1676,0.000695244,425.253,0.000891872,-2.8928e-16,-3.13433e-16,-6.98068e-17,-0.0303561,0.0804664,-0.0478491,0.0,0.0,0.0,0.0660586,-0.029899980583546037,0.0,0.0,0.08379243060479658,0.0,-0.04672237418166525
178,0.1686,0.000693648,425.768,0.000889896,-8.39884e-17,-1.16251e-16,-6.6616e-17,-0.0305322,0.0809277,-0.0481315,0.0,0.0,0.0,0.0664598,-0.0300708001558605,0.0,0.0,0.08429249938503092,0.0,-0.046991541774943246
179,0.1696,0.000692058,426.28,0.000887926,-7.54505e-17,-1.1512e-16,-6.35627e-17,-0.0307083,0.0813887,-0.0484137,0.0,0.0,0.0,0.0668609,-0.03024158964949686,0.0,0.0,0.08479247346241747,0.0,-0.047260442818132686
180,0.1706,0.000690475,426.791,0.000885963,-6.75789e-17,1.04242e-15,-4.36131e-16,-0.0308842,0.0818495,-0.0486959,0.0,0.0,0.0,0.0672618,-0.030412155152201747,0.0,0.0,0.08529246102247567,0.0,-0.047529267988153934
181,0.1716,0.000688897,427.3,0.000884007,-2.41195e-16,-1.32498e-16,-4.1748e-16,-0.0310601,0.0823101,-0.0489779,0.0,0.0,0.0,0.0676625,-0.03058269065507324,0.0,0.0,0.08579246187137857,0.0,-0.04779782686599965
182,0.1726,0.000687325,427.808,0.000882058,1.41264e-16,-3.23962e-16,-3.99629e-16,-0.0312359,0.0827705,-0.0492598,0.0,0.0,0.0,0.0680631,-0.03075309923870273,0.0,0.0,0.08629247581520172,0.0,-0.048066214827545695
183,0.1736,0.000685759,428.314,0.000880115,-4.85038e-17,2.58781e-16,-6.97603e-18,-0.0314117,0.0832307,-0.0495415,0.0,0.0,0.0,0.0684635,-0.03092347786713634,0.0,0.0,0.08679250265992411,0.0,-0.04833433680807475
184,0.1746,0.000684199,428.818,0.000878179,-2.23668e-16,-1.32122e-16,3.69184e-16,-0.0315873,0.0836906,-0.0498231,0.0,0.0,0.0,0.0688637,-0.031093632764385593,0.0,0.0,0.0872924334821783,0.0,-0.04860228812951284
185,0.1756,0.000682645,429.321,0.00087625,-3.85386e-16,6.40097e-16,-3.97266e-16,-0.0317629,0.0841504,-0.0501046,0.0,0.0,0.0,0.0692637,-0.03126375778505819,0.0,0.0,0.08779248549624152,0.0,-0.048870068893493546
186,0.1766,0.000681097,429.822,0.000874327,-3.53735e-16,2.42902e-16,-4.71285e-18,-0.0319384,0.0846099,-0.050386,0.0,0.0,0.0,0.0696636,-0.03143375607778043,0.0,0.0,0.08829244099930711,0.0,-0.04913767920157064
187,0.1776,0.000679554,430.321,0.000872411,-1.43528e-16,6.23297e-16,-4.23854e-18,-0.0321138,0.0850693,-0.0506673,0.0,0.0,0.0,0.0700633,-0.03160362769878766,0.0,0.0,0.0887925174054578,0.0,-0.04940511915521817
188,0.1786,0.000678017,430.819,0.000870502,-3.11474e-16,6.11843e-16,-3.79474e-16,-0.0322891,0.0855284,-0.0509484,0.0,0.0,0.0,0.0704629,-0.03177337270426772,0.0,0.0,0.08929249681168949,0.0,-0.04967229382306482
189,0.1796,0.000676486,431.315,0.000868599,-1.04508e-16,4.07784e-16,-3.63364e-16,-0.0324644,0.0859873,-0.0512294,0.0,0.0,0.0,0.0708623,-0.03194308795605616,0.0,0.0,0.08979248785264615,0.0,-0.04993929839260158
190,0.1806,0.00067496,431.809,0.000866703,-2.75484e-16,-3.71289e-16,-3.47938e-16,-0.0326396,0.086446,-0.0515103,0.0,0.0,0.0,0.0712615,-0.032112676670641105,0.0,0.0,0.09029249033362641,0.0,-0.05020613296501286
191,0.1816,0.00067344,432.302,0.000864813,-2.52358e-16,-3.66337e-16,4.25982e-17,-0.0328147,0.0869045,-0.0517911,0.0,0.0,0.0,0.0716605,-0.032282138904104585,0.0,0.0,0.09079250405983141,0.0,-0.050472797641403555
192,0.1826,0.000671926,432.793,0.000862929,-2.3101e-16,4.09831e-16,-3.34646e-16,-0.0329897,0.0873627,-0.0520718,0.0,0.0,0.0,0.0720594,-0.032451474712481,0.0,0.0,0.0912924197071201,0.0,-0.050739292522799184
193,0.1836,0.000670417,433.283,0.000861052,-3.01635e-17,-1.14047e-15,-1.32551e-16,-0.0331646,0.0878208,-0.0523523,0.0,0.0,0.0,0.0724581,-0.032620684151756896,0.0,0.0,0.09179245528899349,0.0,-0.05100552281070314
194,0.1846,0.000668914,433.771,0.000859182,-2.57134e-17,4.19759e-16,-3.14658e-16,-0.0333395,0.0882787,-0.0526327,0.0,0.0,0.0,0.0728567,-0.032789863998889945,0.0,0.0,0.09229250153112023,0.0,-0.051271583558646916
195,0.1856,0.000667416,434.258,0.000857318,-2.02779e-16,6.0457e-16,-3.01321e-16,-0.0335143,0.0887363,-0.052913,0.0,0.0,0.0,0.0732551,-0.03295891755495162,0.0,0.0,0.09279244895906835,0.0,-0.051537474867367594
196,0.1866,0.000665924,434.743,0.00085546,-1.85264e-16,-1.77752e-16,8.73376e-17,-0.033689,0.0891938,-0.0531931,0.0,0.0,0.0,0.0736533,-0.03312784487582365,0.0,0.0,0.09329251588605447,0.0,-0.05180310201783822
197,0.1876,0.000664437,435.227,0.000853609,-1.69085e-16,-1.7599e-16,-2.91824e-16,-0.0338636,0.089651,-0.0534731,0.0,0.0,0.0,0.0740513,-0.03329664601733984,0.0,0.0,0.0937924835082069,0.0,-0.052068559983423635
198,0.1886,0.000662956,435.709,0.000851764,-1.54136e-16,2.11288e-16,-9.15032e-17,-0.0340381,0.090108,-0.053753,0.0,0.0,0.0,0.0744492,-0.033465321035286544,0.0,0.0,0.09429246090930476,0.0,-0.052333848864573373
199,0.1896,0.00066148,436.19,0.000849925,-1.40324e-16,-3.71909e-16,-4.63342e-16,-0.0342126,0.0905648,-0.0540328,0.0,0.0,0.0,0.0748469,-0.03363396662201046,0.0,0.0,0.09479244789378116,0.0,-0.052598968761657816
200,0.1906,0.00066001,436.669,0.000848092,-1.2756e-16,-5.59891e-16,-6.79915e-17,-0.034387,0.0910214,-0.0543125,0.0,0.0,0.0,0.0752445,-0.03380248616290049,0.0,0.0,0.09529244426597439,0.0,-0.05286391977496874
201,0.1916,0.000658545,437.147,0.000846266,-1.15763e-16,2.19493e-16,-6.48366e-17,-0.0345613,0.0914778,-0.054592,0.0,0.0,0.0,0.0756419,-0.03397087971363799,0.0,0.0,0.09579244983012791,0.0,-0.0531286073175844
202,0.1926,0.000657085,437.623,0.000844446,7.64647e-17,4.07554e-16,-6.18127e-17,-0.0347356,0.091934,-0.0548715,0.0,0.0,0.0,0.0760391,-0.03413924391593748,0.0,0.0,0.09629246439038974,0.0,-0.053393220890369686
203,0.1936,0.00065563,438.098,0.000842632,-1.0839e-16,2.06847e-16,-5.89141e-17,-0.0349097,0.09239,-0.0551508,0.0,0.0,0.0,0.0764361,-0.034307385636410226,0.0,0.0,0.0967924877508135,0.0,-0.0536575712455295
204,0.1946,0.000654181,438.571,0.000840824,-9.80574e-17,-1.83518e-16,1.31897e-16,-0.0350838,0.0928457,-0.0554299,0.0,0.0,0.0,0.076833,-0.03447549808595751,0.0,0.0,0.09729240998611166,0.0,-0.05392165856229547
205,0.1956,0.000652737,439.043,0.000839023,-2.69886e-16,7.82425e-16,-6.11477e-17,-0.0352578,0.0933013,-0.055709,0.0,0.0,0.0,0.0772297,-0.03464348473402834,0.0,0.0,0.09779245030863715,0.0,-0.054185672182576194
206,0.1966,0.000651298,439.514,0.000837227,-2.47508e-16,-1.95997e-16,1.29769e-16,-0.0354317,0.0937567,-0.0559879,0.0,0.0,0.0,0.0776263,-0.03481134563610466,0.0,0.0,0.09829249884291702,0.0,-0.05444942301684097
207,0.1976,0.000649865,439.983,0.000835438,-2.26813e-16,-1.94223e-16,-6.31993e-17,-0.0356056,0.0942118,-0.0562667,0.0,0.0,0.0,0.0780226,-0.034979177349708124,0.0,0.0,0.0987924455133764,0.0,-0.05471300577256044
208,0.1986,0.000648436,440.451,0.000833654,1.55215e-16,1.93324e-16,1.27814e-16,-0.0357793,0.0946668,-0.0565454,0.0,0.0,0.0,0.0784189,-0.03514678690929085,0.0,0.0,0.09929250983209026,0.0,-0.05497642054929741
209,0.1996,0.000647013,440.917,0.000831877,-2.16986e-16,-3.89832e-16,1.23005e-16,-0.035953,0.0951215,-0.056824,0.0,0.0,0.0,0.0788149,-0.03531436735762139,0.0,0.0,0.09979247179404904,0.0,-0.055239667446536855
210,0.2006,0.000645595,441.382,0.000830105,-1.71325e-17,-1.92076e-16,1.18394e-16,-0.0361266,0.095576,-0.0571024,0.0,0.0,0.0,0.0792108,-0.03548182224794305,0.0,0.0,0.1002924410818935,0.0,-0.05550265211395544
211,0.2016,0.000644182,441.845,0.00082834,-1.35923e-17,-9.61884e-16,-7.41378e-17,-0.0363002,0.0960303,-0.0573807,0.0,0.0,0.0,0.0796065,-0.03564924807061898,0.0,0.0,0.10079241749892098,0.0,-0.05576546915318481
212,0.2026,0.000642774,442.307,0.00082658,-1.03145e-17,-1.76304e-16,1.17338e-16,-0.0364736,0.0964845,-0.0576589,0.0,0.0,0.0,0.0800021,-0.035816451994004406,0.0,0.0,0.10129251097758063,0.0,-0.05602811866342561
213,0.2036,0.000641371,442.768,0.000824827,-1.88821e-16,-3.67632e-16,-2.63294e-16,-0.036647,0.0969384,-0.057937,0.0,0.0,0.0,0.0803974,-0.03598362692674306,0.0,0.0,0.10179250111249027,0.0,-0.05629060074380032
214,0.2046,0.000639973,443.228,0.000823079,-1.72602e-16,2.27653e-17,-6.41908e-17,-0.0368203,0.0973921,-0.058215,0.0,0.0,0.0,0.0807927,-0.036150676488934,0.0,0.0,0.10229249778591365,0.0,-0.05655291549335395
215,0.2056,0.00063858,443.686,0.000821337,-1.57589e-16,5.99853e-16,-6.12421e-17,-0.0369935,0.0978456,-0.0584928,0.0,0.0,0.0,0.0811877,-0.03631760073570911,0.0,0.0,0.10279250080077373,0.0,-0.0568149686925552
216,0.2066,0.000637192,444.142,0.000819601,-3.25289e-16,-5.68427e-16,-5.84133e-17,-0.0371667,0.0982989,-0.0587705,0.0,0.0,0.0,0.0815826,-0.036484496073708184,0.0,0.0,0.10329250995990091,0.0,-0.057076854811178745
217,0.2076,0.000635809,444.598,0.000817871,6.41753e-17,7.89769e-16,1.32477e-16,-0.0373398,0.0987519,-0.0590481,0.0,0.0,0.0,0.0819773,-0.03665126617306924,0.0,0.0,0.10379241468678457,0.0,-0.05733857394798625
218,0.2086,0.000634431,445.052,0.000816146,-1.19862e-16,-5.74469e-16,1.27547e-16,-0.0375127,0.0992048,-0.0593256,0.0,0.0,0.0,0.0823719,-0.03681781477060686,0.0,0.0,0.10429243549256073,0.0,-0.057600126201662105
219,0.2096,0.000633057,445.505,0.000814428,-1.08755e-16,9.76731e-16,3.11016e-16,-0.0376857,0.0996575,-0.059603,0.0,0.0,0.0,0.0827663,-0.03698443087594283,0.0,0.0,0.10479246185053492,0.0,-0.05786151167081299
220,0.2106,0.000631689,445.956,0.000812715,-9.84681e-17,-5.8358e-16,-7.74512e-17,-0.0378585,0.10011,-0.0598802,0.0,0.0,0.0,0.0831605,-0.03715082558937022,0.0,0.0,0.10529249356316517,0.0,-0.05812263626623693
221,0.2116,0.000630325,446.406,0.000811008,-8.89385e-17,1.35357e-15,-7.40054e-17,-0.0380313,0.100562,-0.0601573,0.0,0.0,0.0,0.0835545,-0.0373171915522752,0.0,0.0,0.10579219869510781,0.0,-0.058383594326318455
222,0.2126,0.000628966,446.855,0.000809306,-8.01095e-17,1.73032e-16,-2.58928e-16,-0.038204,0.101014,-0.0604343,0.0,0.0,0.0,0.0839484,-0.03748343251797348,0.0,0.0,0.10629212974482383,0.0,-0.058644385949382816
223,0.2136,0.000627612,447.303,0.00080761,-7.19287e-17,-6.02972e-16,-6.00298e-17,-0.0383766,0.101466,-0.0607112,0.0,0.0,0.0,0.0843422,-0.03764954854129565,0.0,0.0,0.10679228681445085,0.0,-0.05890501123367753
224,0.2146,0.000626263,447.749,0.00080592,-6.43474e-17,1.76894e-16,-5.72759e-17,-0.0385491,0.101918,-0.0609879,0.0,0.0,0.0,0.0847357,-0.03781553967702522,0.0,0.0,0.10729267000617315,0.0,-0.05916537619391571
225,0.2156,0.000624918,448.194,0.000804235,-2.39091e-16,5.5867e-16,1.33628e-16,-0.0387216,0.102369,-0.0612645,0.0,0.0,0.0,0.0851291,-0.037981502181753446,0.0,0.0,0.10779217162949539,0.0,-0.05942557506369783
226,0.2166,0.000623578,448.638,0.000802556,-4.01152e-16,3.55419e-16,1.2871e-16,-0.0388939,0.102821,-0.061541,0.0,0.0,0.0,0.0855224,-0.038147243689886534,0.0,0.0,0.10829300687130972,0.0,-0.05968560794099076
227,0.2176,0.000622243,449.081,0.000800882,-1.87864e-16,-2.3048e-16,1.23989e-16,-0.0390662,0.103272,-0.0618174,0.0,0.0,0.0,0.0859154,-0.03831295664321788,0.0,0.0,0.10879295974830816,0.0,-0.059945474923684516
228,0.2186,0.000620913,449.522,0.000799214,-1.71867e-16,-2.28329e-16,-6.88338e-17,-0.0392385,0.103722,-0.0620937,0.0,0.0,0.0,0.0863083,-0.038478641046666984,0.0,0.0,0.10929202886232381,0.0,-0.060205176109592085
229,0.2196,0.000619587,449.962,0.000797552,-1.57036e-16,-2.26216e-16,-2.54058e-16,-0.0394106,0.104173,-0.0623698,0.0,0.0,0.0,0.0867011,-0.038644104633992815,0.0,0.0,0.10979243239985648,0.0,-0.06046461764291644
230,0.2206,0.000618265,450.401,0.000795894,-1.43285e-16,-2.24141e-16,-5.53721e-17,-0.0395827,0.104623,-0.0626459,0.0,0.0,0.0,0.0870936,-0.038809539747485466,0.0,0.0,0.11029195137777714,0.0,-0.06072398755432129
231,0.2216,0.000616949,450.839,0.000794243,-1.30534e-16,-6.08108e-16,-5.28212e-17,-0.0397547,0.105074,-0.0629218,0.0,0.0,0.0,0.087486,-0.038974850289534735,0.0,0.0,0.1107928059820722,0.0,-0.06098309806021707
232,0.2226,0.000615636,451.275,0.000792597,-1.18709e-16,-6.00154e-16,-5.03717e-17,-0.0399266,0.105524,-0.0631976,0.0,0.0,0.0,0.0878783,-0.03914003631462426,0.0,0.0,0.11129277522940773,0.0,-0.06124204321159432
233,0.2236,0.000614329,451.71,0.000790956,-1.07741e-16,1.79549e-16,1.40324e-16,-0.0400984,0.105974,-0.0634732,0.0,0.0,0.0,0.0882704,-0.039305097877191275,0.0,0.0,0.11179296951353423,0.0,-0.06150072925591088
234,0.2246,0.000613026,452.144,0.00078932,-9.75678e-17,9.47268e-16,1.35202e-16,-0.0402702,0.106423,-0.0637488,0.0,0.0,0.0,0.0886623,-0.0394701310846175,0.0,0.0,0.11229227664290797,0.0,-0.06175934401617711
235,0.2256,0.000611727,452.577,0.00078769,-8.81297e-17,1.59067e-16,-5.80788e-17,-0.0404419,0.106873,-0.0640242,0.0,0.0,0.0,0.089054,-0.03963503990528294,0.0,0.0,0.11279292080388514,0.0,-0.062017699915594804
236,0.2266,0.000610433,453.009,0.000786065,-7.93727e-17,-2.30916e-16,-5.5439e-17,-0.0406135,0.107322,-0.0642995,0.0,0.0,0.0,0.0894456,-0.0397998243935217,0.0,0.0,0.11329267701219892,0.0,-0.062275890901188125
237,0.2276,0.000609143,453.439,0.000784446,-7.12468e-17,5.43232e-16,-5.29035e-17,-0.0407851,0.107771,-0.0645747,0.0,0.0,0.0,0.089837,-0.03996458060716834,0.0,0.0,0.11379265766143343,0.0,-0.06253391706998279
238,0.2286,0.000607858,453.869,0.000782832,-6.37056e-17,-2.38697e-16,-5.04679e-17,-0.0409565,0.10822,-0.0648498,0.0,0.0,0.0,0.0902283,-0.04012911657691687,0.0,0.0,0.11429286285238516,0.0,-0.06279177851892837
239,0.2296,0.000606577,454.297,0.000781223,-5.67062e-17,-2.36547e-16,1.40275e-16,-0.0411279,0.108668,-0.0651247,0.0,0.0,0.0,0.0906194,-0.04029362434761685,0.0,0.0,0.1147921778931611,0.0,-0.06304938164984086
240,0.2306,0.0006053,454.724,0.000779619,-2.32249e-16,5.37724e-16,-5.32159e-17,-0.0412992,0.109117,-0.0653996,0.0,0.0,0.0,0.0910103,-0.04045800796990695,0.0,0.0,0.11529283196946416,0.0,-0.06330691397538535
241,0.2316,0.000604028,455.15,0.000778021,-3.11766e-17,5.27961e-16,-5.07768e-17,-0.0414705,0.109565,-0.0656743,0.0,0.0,0.0,0.0914011,-0.04062236343569414,0.0,0.0,0.1157925950967682,0.0,-0.0635641882278799
242,0.2326,0.00060276,455.574,0.000776427,3.37657e-16,-2.53751e-16,-2.36865e-16,-0.0416416,0.110013,-0.0659489,0.0,0.0,0.0,0.0917917,-0.04078649890712027,0.0,0.0,0.11629258216811311,0.0,-0.06382129819897786
243,0.2336,0.000601497,455.998,0.000774839,-2.30177e-16,1.34635e-16,3.3801e-16,-0.0418127,0.110461,-0.0662233,0.0,0.0,0.0,0.0921821,-0.040950606297369685,0.0,0.0,0.11679279328384817,0.0,-0.06407815039301945
244,0.2346,0.000600237,456.42,0.000773256,-2.11373e-16,-6.4096e-16,-5.15857e-17,-0.0419837,0.110908,-0.0664977,0.0,0.0,0.0,0.0925724,-0.041114589722710315,0.0,0.0,0.1172921112516978,0.0,-0.06433493211648789
245,0.2356,0.000598982,456.842,0.000771678,-1.93912e-16,9.11735e-16,3.27703e-16,-0.0421546,0.111356,-0.0667719,0.0,0.0,0.0,0.0929625,-0.04127844923713242,0.0,0.0,0.11779277025678203,0.0,-0.06459145630702778
246,0.2366,0.000597732,457.262,0.000770105,-1.77698e-16,5.10405e-16,1.26962e-16,-0.0423255,0.111803,-0.0670461,0.0,0.0,0.0,0.0933524,-0.041442280750356275,0.0,0.0,0.11829253531425565,0.0,-0.06484791016827729
247,0.2376,0.000596485,457.681,0.000768537,1.95224e-17,-6.57038e-16,3.10916e-16,-0.0424963,0.11225,-0.0673201,0.0,0.0,0.0,0.0937422,-0.04160598842777041,0.0,0.0,0.11879252381664629,0.0,-0.06510410674035794
248,0.2386,0.000595243,458.099,0.000766975,-1.61548e-16,-1.03451e-15,-7.76682e-17,-0.042667,0.112697,-0.0675939,0.0,0.0,0.0,0.0941318,-0.04176957232326317,0.0,0.0,0.11929273586385603,0.0,-0.06536004619622193
249,0.2396,0.000594005,458.516,0.000765417,-1.47652e-16,-2.47873e-16,-2.62828e-16,-0.0428376,0.113143,-0.0678677,0.0,0.0,0.0,0.0945213,-0.04193303249067604,0.0,0.0,0.11979205176322005,0.0,-0.06561591558545565
250,0.2406,0.000592771,458.932,0.000763864,-1.34743e-16,1.40686e-16,-6.38733e-17,-0.0430082,0.11359,-0.0681413,0.0,0.0,0.0,0.0949106,-0.042096464774162956,0.0,0.0,0.12029271069929415,0.0,-0.06587152810156471
251,0.2416,0.000591541,459.346,0.000762316,5.94811e-17,3.30327e-16,-6.10608e-17,-0.0431787,0.114036,-0.0684149,0.0,0.0,0.0,0.0952997,-0.04225977340446263,0.0,0.0,0.12079247268690496,0.0,-0.06612707069165569
252,0.2426,0.000590315,459.76,0.000760773,5.78061e-17,-6.21313e-17,-5.83571e-17,-0.0433491,0.114482,-0.0686883,0.0,0.0,0.0,0.0956887,-0.04242295843531507,0.0,0.0,0.12129245761807494,0.0,-0.06638235665134773
253,0.2436,0.000589093,460.172,0.000759236,-1.26011e-16,3.23655e-16,-5.5758e-17,-0.0435194,0.114928,-0.0689616,0.0,0.0,0.0,0.0960775,-0.042586019920414,0.0,0.0,0.12179266559225943,0.0,-0.06663747948915111
254,0.2446,0.000587876,460.584,0.000757703,-1.14661e-16,-4.54734e-16,-5.32593e-17,-0.0436897,0.115373,-0.0692347,0.0,0.0,0.0,0.0964661,-0.04274905363850634,0.0,0.0,0.1222919744164217,0.0,-0.0668923459898979
255,0.2456,0.000586662,460.994,0.000756174,-2.86408e-16,-8.35297e-16,-5.08568e-17,-0.0438598,0.115819,-0.0695078,0.0,0.0,0.0,0.0968546,-0.04291186817671344,0.0,0.0,0.12279262827452264,0.0,-0.0671471428961069
256,0.2466,0.000585453,461.404,0.000754651,1.00788e-16,-2.44684e-16,-4.85469e-17,-0.04403,0.116264,-0.0697807,0.0,0.0,0.0,0.0972429,-0.04307475071505251,0.0,0.0,0.12329238218110206,0.0,-0.06740168370713717
257,0.2476,0.000584247,461.812,0.000753133,-4.50718e-16,5.30142e-16,-4.23474e-16,-0.0442,0.116709,-0.0700535,0.0,0.0,0.0,0.0976311,-0.04323741418064464,0.0,0.0,0.12379235852765924,0.0,-0.06765606182906847
258,0.2486,0.000583046,462.219,0.000751619,-4.16711e-16,-6.37576e-16,3.47331e-16,-0.0443699,0.117154,-0.0703262,0.0,0.0,0.0,0.0980191,-0.04339995433579824,0.0,0.0,0.12429255741320167,0.0,-0.06791027735714494
259,0.2496,0.000581848,462.626,0.00075011,-2.03685e-17,1.10852e-15,-4.26533e-17,-0.0445398,0.117599,-0.0705988,0.0,0.0,0.0,0.0984069,-0.04356246687772514,0.0,0.0,0.12479297893678143,0.0,-0.06816433038653624
260,0.2506,0.000580655,463.031,0.000748606,1.65995e-16,1.25228e-16,-4.06587e-17,-0.0447096,0.118043,-0.0708713,0.0,0.0,0.0,0.0987946,-0.04372485618360711,0.0,0.0,0.12529249790443409,0.0,-0.06841822101233708
261,0.2516,0.000579465,463.435,0.000747107,-2.53851e-17,5.08369e-16,1.49871e-16,-0.0448794,0.118487,-0.0711436,0.0,0.0,0.0,0.0991821,-0.043887217918125776,0.0,0.0,0.12579223870775236,0.0,-0.06867185619675786
262,0.2526,0.00057828,463.838,0.000745612,-2.03471e-16,1.13426e-16,-4.4038e-17,-0.045049,0.118931,-0.0714159,0.0,0.0,0.0,0.0995694,-0.04404936089585365,0.0,0.0,0.126292201445253,0.0,-0.0689254223257203
263,0.2536,0.000577098,464.24,0.000744122,-1.86782e-16,1.10587e-16,3.3526e-16,-0.0452186,0.119375,-0.071688,0.0,0.0,0.0,0.0999566,-0.04421147637646439,0.0,0.0,0.1267923862154965,0.0,-0.06917873325379076
264,0.2546,0.00057592,464.641,0.000742637,-1.71257e-16,-2.78391e-16,-4.31565e-16,-0.0453881,0.119819,-0.07196,0.0,0.0,0.0,0.100344,-0.04437346880197268,0.0,0.0,0.12729279311708774,0.0,-0.06943188220852714
265,0.2556,0.000574746,465.041,0.000741157,-1.56815e-16,1.1083e-16,-2.26286e-16,-0.0455576,0.120262,-0.0722318,0.0,0.0,0.0,0.10073,-0.04453543377209179,0.0,0.0,0.1277922944558163,0.0,-0.06968477625308533
266,0.2566,0.000573576,465.44,0.000739681,-1.43378e-16,3.01177e-16,-2.87325e-17,-0.0457269,0.120705,-0.0725036,0.0,0.0,0.0,0.101117,-0.044697180230930056,0.0,0.0,0.12829201712265847,0.0,-0.06993760157038265
267,0.2576,0.000572409,465.839,0.000738209,-3.13366e-16,-4.76986e-16,-2.7266e-17,-0.0458962,0.121148,-0.0727753,0.0,0.0,0.0,0.101504,-0.044858899308410805,0.0,0.0,0.12879196121568426,0.0,-0.07019026519812788
268,0.2586,0.000571247,466.236,0.000736743,-1.06628e-16,-8.48367e-17,1.62819e-16,-0.0460654,0.121591,-0.0730468,0.0,0.0,0.0,0.10189,-0.04502049551122356,0.0,0.0,0.12929212683300717,0.0,-0.07044267427504391
269,0.2596,0.000570088,466.632,0.000735281,8.58629e-17,1.08402e-16,-2.20265e-16,-0.0462346,0.122034,-0.0733182,0.0,0.0,0.0,0.102276,-0.045182064374271746,0.0,0.0,0.12979251407278447,0.0,-0.07069492190169435
270,0.2606,0.000568933,467.027,0.000733823,-9.99672e-17,-4.73647e-16,1.65753e-16,-0.0464036,0.122476,-0.0735895,0.0,0.0,0.0,0.102662,-0.04534341497088301,0.0,0.0,0.1302919927406585,0.0,-0.07094700817233368
271,0.2616,0.000567781,467.421,0.00073237,-9.04731e-17,3.04764e-16,-2.87588e-17,-0.0465726,0.122919,-0.0738607,0.0,0.0,0.0,0.103048,-0.045504738301547554,0.0,0.0,0.13079282301915884,0.0,-0.07119893318114201
272,0.2626,0.000566634,467.814,0.000730922,-8.16344e-17,-8.59815e-16,-2.72985e-17,-0.0467416,0.123361,-0.0741317,0.0,0.0,0.0,0.103434,-0.04566603437087291,0.0,0.0,0.13129274392131363,0.0,-0.0714506041672911
273,0.2636,0.00056549,468.207,0.000729478,-7.34049e-17,-7.56694e-17,-2.14611e-16,-0.0469104,0.123803,-0.0744027,0.0,0.0,0.0,0.103819,-0.04582711234890724,0.0,0.0,0.13179288583734783,0.0,-0.07170220695984353
274,0.2646,0.00056435,468.598,0.000728038,-4.30946e-16,-7.56419e-17,-2.06223e-16,-0.0470792,0.124244,-0.0746735,0.0,0.0,0.0,0.104205,-0.045988163139273674,0.0,0.0,0.13229211657228834,0.0,-0.07195355596800712
275,0.2656,0.000563213,468.988,0.000726603,-3.35731e-17,-2.68629e-16,-9.41607e-18,-0.0472479,0.124686,-0.0749442,0.0,0.0,0.0,0.10459,-0.046149091361474825,0.0,0.0,0.1327927003086693,0.0,-0.07220474414055345
276,0.2666,0.000562081,469.378,0.000725172,-2.86229e-17,-2.65637e-16,-8.66711e-18,-0.0474165,0.125127,-0.0752148,0.0,0.0,0.0,0.104975,-0.0463098970683693,0.0,0.0,0.13329237205902844,0.0,-0.07245577157124594
277,0.2676,0.000560951,469.766,0.000723746,1.58637e-16,5.09863e-16,-7.946e-18,-0.047585,0.125568,-0.0754853,0.0,0.0,0.0,0.10536,-0.04647058031276974,0.0,0.0,0.13379226421322477,0.0,-0.07270663835377389
278,0.2686,0.000559826,470.153,0.000722324,-2.14855e-16,6.94643e-16,-1.96013e-16,-0.0477535,0.126009,-0.0757556,0.0,0.0,0.0,0.105745,-0.046631236484324434,0.0,0.0,0.13429237686847806,0.0,-0.07295725187748325
279,0.2696,0.000558704,470.54,0.000720907,-1.97561e-16,2.972e-16,-1.88349e-16,-0.0479219,0.12645,-0.0760259,0.0,0.0,0.0,0.106129,-0.04679177026677661,0.0,0.0,0.13479271012205074,0.0,-0.07320779766951158
280,0.2706,0.000557585,470.926,0.000719494,-1.81452e-16,-9.43988e-17,1.96585e-16,-0.0480903,0.12689,-0.076296,0.0,0.0,0.0,0.106514,-0.04695227701761595,0.0,0.0,0.13529212877855157,0.0,-0.07345809043980078
281,0.2716,0.000556471,471.31,0.000718085,-1.66445e-16,-9.39475e-17,-1.87847e-16,-0.0482585,0.127331,-0.076566,0.0,0.0,0.0,0.106898,-0.04711256616392656,0.0,0.0,0.13579290301994718,0.0,-0.07370822298596869
282,0.2726,0.000555359,471.694,0.000716681,3.02629e-17,4.85926e-16,8.29046e-18,-0.0484267,0.127771,-0.0768359,0.0,0.0,0.0,0.107282,-0.047272828351869856,0.0,0.0,0.13629276185815598,0.0,-0.0739581954012899
283,0.2736,0.000554252,472.077,0.000715281,-3.34584e-16,-4.87999e-16,-1.80409e-16,-0.0485948,0.128211,-0.0771057,0.0,0.0,0.0,0.107666,-0.04743296832928179,0.0,0.0,0.13679284068264708,0.0,-0.07420800777896552
284,0.2746,0.000553147,472.459,0.000713885,-3.09228e-16,-6.75157e-16,2.04272e-16,-0.0487629,0.12865,-0.0773754,0.0,0.0,0.0,0.10805,-0.04759308138942586,0.0,0.0,0.1372920022976647,0.0,-0.07445766021212363
285,0.2756,0.000552047,472.84,0.000712493,-1.02828e-16,1.0632e-16,1.9717e-16,-0.0489308,0.12909,-0.0776449,0.0,0.0,0.0,0.108434,-0.047752977087441084,0.0,0.0,0.13779252088468974,0.0,-0.07470706026452989
286,0.2766,0.000550949,473.22,0.000711106,-9.3163e-17,-2.82699e-16,1.90333e-16,-0.0490987,0.129529,-0.0779144,0.0,0.0,0.0,0.108817,-0.04791284594122225,0.0,0.0,0.13829212145565983,0.0,-0.07495639311267821
287,0.2776,0.000549856,473.599,0.000709723,-4.49754e-16,-8.63381e-17,-5.0876e-18,-0.0492665,0.129968,-0.0781837,0.0,0.0,0.0,0.1092,-0.04807259276254017,0.0,0.0,0.1387919413994294,0.0,-0.07520547381579101
288,0.2786,0.000548765,473.978,0.000708344,-5.10642e-17,-1.43853e-15,-4.50105e-18,-0.0494343,0.130407,-0.0784529,0.0,0.0,0.0,0.109584,-0.04823231278059037,0.0,0.0,0.13929198081232408,0.0,-0.07545439499594564
289,0.2796,0.000547678,474.355,0.000706969,1.37949e-16,1.26934e-16,-3.93595e-18,-0.0496019,0.130846,-0.078722,0.0,0.0,0.0,0.109967,-0.048391815678252126,0.0,0.0,0.1397922397907123,0.0,-0.07570315674585759
290,0.2806,0.000546595,474.732,0.000705598,-2.34279e-16,-6.90205e-17,-3.39146e-18,-0.0497696,0.131285,-0.078991,0.0,0.0,0.0,0.110349,-0.048551386990334455,0.0,0.0,0.14029271843100433,0.0,-0.07595175915816943
291,0.2816,0.000545515,475.107,0.000704232,-3.29303e-17,8.97184e-16,-2.86681e-18,-0.0499371,0.131723,-0.0792598,0.0,0.0,0.0,0.110732,-0.048710741286718595,0.0,0.0,0.14079227603680633,0.0,-0.07620010994546655
292,0.2826,0.000544438,475.482,0.00070287,-2.79684e-17,-2.75919e-16,-2.36124e-18,-0.0501045,0.132161,-0.0795286,0.0,0.0,0.0,0.111115,-0.048869973780495624,0.0,0.0,0.14129205249676513,0.0,-0.07644839398504333
293,0.2836,0.000543365,475.856,0.000701512,-3.89118e-16,-7.96617e-17,-1.87403e-18,-0.0502719,0.132599,-0.0797972,0.0,0.0,0.0,0.111497,-0.04902917962098419,0.0,0.0,0.14179204790676025,0.0,-0.076696426634143
294,0.2846,0.000542295,476.229,0.000700157,-1.7739e-16,3.07034e-16,-1.90299e-16,-0.0504392,0.133037,-0.0800657,0.0,0.0,0.0,0.111879,-0.04918826373147667,0.0,0.0,0.1422922623627123,0.0,-0.07694430036505417
295,0.2856,0.000541228,476.601,0.000698807,-1.62747e-16,6.88156e-16,1.94831e-16,-0.0506065,0.133475,-0.0803341,0.0,0.0,0.0,0.112261,-0.04934732122942376,0.0,0.0,0.14279269596058453,0.0,-0.07719201527000885
296,0.2866,0.000540165,476.973,0.000697462,3.3844e-17,-8.684e-16,-7.5323e-19,-0.0507736,0.133912,-0.0806024,0.0,0.0,0.0,0.112643,-0.0495061620205286,0.0,0.0,0.14329220550360522,0.0,-0.07743957144116653
297,0.2876,0.000539105,477.343,0.00069612,3.43702e-17,3.02496e-16,-1.89244e-16,-0.0509407,0.134349,-0.0808706,0.0,0.0,0.0,0.113025,-0.04966497627155475,0.0,0.0,0.14379193337999863,0.0,-0.07768696897061433
298,0.2886,0.000538049,477.713,0.000694782,3.48632e-17,-8.91239e-17,6.94648e-18,-0.0511077,0.134787,-0.0811387,0.0,0.0,0.0,0.113406,-0.04982366896930834,0.0,0.0,0.14429302397764898,0.0,-0.07793420795036721
299,0.2896,0.000536995,478.082,0.000693448,3.53251e-17,4.9091e-16,7.10167e-18,-0.0512747,0.135223,-0.0814066,0.0,0.0,0.0,0.113788,-0.049982335167594094,0.0,0.0,0.1447920445146753,0.0,-0.07818119629049192
300,0.2906,0.000535945,478.45,0.000692118,3.57581e-17,4.82979e-16,7.25149e-18,-0.0514416,0.13566,-0.0816744,0.0,0.0,0.0,0.114169,-0.05014087988492999,0.0,0.0,0.1452924279639487,0.0,-0.07842802631411006
301,0.2916,0.000534898,478.817,0.000690792,3.61642e-17,-1.07075e-15,7.39613e-18,-0.0516084,0.136097,-0.0819422,0.0,0.0,0.0,0.11455,-0.05029930317329556,0.0,0.0,0.14579303012857525,0.0,-0.07867479024549795
302,0.2926,0.000533854,479.183,0.00068947,3.65452e-17,4.89479e-16,7.53578e-18,-0.0517751,0.136533,-0.0822098,0.0,0.0,0.0,0.114931,-0.05045760508462571,0.0,0.0,0.14629270481087642,0.0,-0.07892130388663199
303,0.2936,0.000532814,479.549,0.000688152,3.69027e-17,-2.91313e-16,7.67064e-18,-0.0519418,0.136969,-0.0824773,0.0,0.0,0.0,0.115312,-0.050615880609226616,0.0,0.0,0.14679259739883932,0.0,-0.07916765948631188
304,0.2946,0.000531777,479.913,0.000686838,3.72384e-17,4.8488e-16,7.80088e-18,-0.0521084,0.137405,-0.0827446,0.0,0.0,0.0,0.115692,-0.05077403482890486,0.0,0.0,0.14729270798749106,0.0,-0.07941376507745357
305,0.2956,0.000530743,480.277,0.000685528,-1.45508e-16,-4.89127e-16,7.92668e-18,-0.0522749,0.13784,-0.0830119,0.0,0.0,0.0,0.116073,-0.050932067795496194,0.0,0.0,0.14779188887943828,0.0,-0.079659804893362
306,0.2966,0.000529712,480.64,0.000684221,-1.33107e-16,-4.83084e-16,8.0482e-18,-0.0524413,0.138276,-0.083279,0.0,0.0,0.0,0.116453,-0.051089979560791865,0.0,0.0,0.1482924352541699,0.0,-0.07990559493275395
307,0.2976,0.000528684,481.002,0.000682919,6.15596e-17,-9.0576e-17,8.16561e-18,-0.0526077,0.138711,-0.0835461,0.0,0.0,0.0,0.116833,-0.051247865051755714,0.0,0.0,0.1487920511220786,0.0,-0.08015131933039321
308,0.2986,0.000527659,481.364,0.00068162,-1.22814e-16,1.03148e-16,8.27905e-18,-0.052774,0.139147,-0.083813,0.0,0.0,0.0,0.117213,-0.05140562941332738,0.0,0.0,0.14929303366262525,0.0,-0.08039679418318768
309,0.2996,0.000526638,481.724,0.000680325,-1.1193e-16,1.00876e-16,8.38867e-18,-0.0529402,0.139581,-0.0840798,0.0,0.0,0.0,0.117593,-0.05156327269719918,0.0,0.0,0.14979193509301436,0.0,-0.08064211159170209
310,0.3006,0.00052562,482.084,0.000679034,8.13664e-17,-2.87937e-16,8.49462e-18,-0.0531064,0.140016,-0.0843465,0.0,0.0,0.0,0.117973,-0.05172088978293421,0.0,0.0,0.15029220338524474,0.0,-0.08088727164699405
311,0.3016,0.000524604,482.443,0.000677747,-1.04329e-16,8.7485e-16,-1.80433e-16,-0.0532725,0.140451,-0.0846131,0.0,0.0,0.0,0.118352,-0.05187838586272975,0.0,0.0,0.1507926893415208,0.0,-0.08113227444004945
312,0.3026,0.000523592,482.801,0.000676464,-2.77837e-16,-2.97946e-16,-1.73587e-16,-0.0534385,0.140885,-0.0848796,0.0,0.0,0.0,0.118732,-0.05203576098817975,0.0,0.0,0.15129224176372946,0.0,-0.08137712006178299
313,0.3036,0.000522583,483.158,0.000675184,2.92718e-16,9.18984e-17,-1.66988e-16,-0.0536044,0.141319,-0.0851459,0.0,0.0,0.0,0.119111,-0.052193015210833416,0.0,0.0,0.15179201103874318,0.0,-0.08162171676521401
314,0.3046,0.000521577,483.515,0.000673908,9.31577e-17,-2.96729e-16,-1.60626e-16,-0.0537703,0.141753,-0.0854122,0.0,0.0,0.0,0.11949,-0.05235024334717542,0.0,0.0,0.1522919972606962,0.0,-0.08186624834121503
315,0.3056,0.000520574,483.871,0.000672636,-2.7654e-16,-6.7988e-16,3.45682e-17,-0.0539361,0.142187,-0.0856783,0.0,0.0,0.0,0.119869,-0.052507350652272855,0.0,0.0,0.15279220052376408,0.0,-0.08211053122925172
316,0.3066,0.000519574,484.226,0.000671368,2.93993e-16,2.95427e-16,-1.55305e-16,-0.0541018,0.142621,-0.0859443,0.0,0.0,0.0,0.120248,-0.052664337177577014,0.0,0.0,0.153292620922163,0.0,-0.08235465735773018
317,0.3076,0.000518577,484.58,0.000670103,-8.88608e-17,-9.59605e-17,3.97063e-17,-0.0542675,0.143054,-0.0862102,0.0,0.0,0.0,0.120626,-0.052821297692368874,0.0,0.0,0.15379210475746863,0.0,-0.08259862681716168
318,0.3086,0.000517583,484.933,0.000668842,1.02983e-16,9.80132e-17,3.87251e-17,-0.0544331,0.143488,-0.086476,0.0,0.0,0.0,0.121005,-0.05297813749877667,0.0,0.0,0.15429295920848785,0.0,-0.08284243969798633
319,0.3096,0.000516592,485.286,0.000667585,-8.41817e-17,-8.70592e-16,3.77793e-17,-0.0545986,0.143921,-0.0867417,0.0,0.0,0.0,0.121383,-0.05313485664815332,0.0,0.0,0.15479287628406113,0.0,-0.08308609609057338
320,0.3106,0.000515604,485.638,0.000666331,1.07372e-16,1.07293e-16,-1.52231e-16,-0.054764,0.144354,-0.0870072,0.0,0.0,0.0,0.121761,-0.05329145519180711,0.0,0.0,0.15529300987059957,0.0,-0.0833295044181761
321,0.3116,0.000514619,485.989,0.000665081,1.03193e-16,-2.81579e-16,7.99103e-16,-0.0549294,0.144786,-0.0872727,0.0,0.0,0.0,0.122139,-0.053448027836203726,0.0,0.0,0.15579220426909024,0.0,-0.08357284812944588
322,0.3126,0.000513637,486.34,0.000663834,-8.40075e-17,3.01457e-16,2.03979e-16,-0.0550947,0.145219,-0.087538,0.0,0.0,0.0,0.122517,-0.05360447994607931,0.0,0.0,0.15629277065834102,0.0,-0.08381594400474346
323,0.3136,0.000512658,486.689,0.000662592,-7.57536e-17,-9.02532e-17,-5.59289e-16,-0.05526,0.145651,-0.0878033,0.0,0.0,0.0,0.122894,-0.05376090619655838,0.0,0.0,0.15679239704679526,0.0,-0.08405897539525964
324,0.3146,0.000511682,487.038,0.000661352,-6.80369e-17,-8.99107e-17,-1.60926e-16,-0.0554251,0.146083,-0.0880684,0.0,0.0,0.0,0.123272,-0.05391711737535776,0.0,0.0,0.15729223932047698,0.0,-0.08430175917846994
325,0.3156,0.000510708,487.386,0.000660117,-6.08217e-17,-8.95741e-17,2.23426e-16,-0.0555902,0.146515,-0.0883334,0.0,0.0,0.0,0.123649,-0.05407330276582034,0.0,0.0,0.1577922975726691,0.0,-0.0845443870626732
326,0.3166,0.000509738,487.734,0.000658885,-5.40747e-17,-8.62592e-16,2.15993e-16,-0.0557552,0.146947,-0.0885983,0.0,0.0,0.0,0.124026,-0.05422936779514498,0.0,0.0,0.1582925718966941,0.0,-0.08478685913769601
327,0.3176,0.00050877,488.08,0.000657656,1.35597e-16,-2.71639e-16,1.96742e-17,-0.0559202,0.147378,-0.0888631,0.0,0.0,0.0,0.124403,-0.054385407075864034,0.0,0.0,0.15879190359343265,0.0,-0.08502917549329492
328,0.3186,0.000507806,488.426,0.000656431,-2.37096e-16,5.04479e-16,1.93951e-17,-0.0560851,0.14781,-0.0891277,0.0,0.0,0.0,0.12478,-0.054541326066363194,0.0,0.0,0.15929260984054738,0.0,-0.08527124474628489
329,0.3196,0.000506844,488.771,0.00065521,1.47791e-16,-4.69978e-16,-3.59204e-16,-0.0562499,0.148241,-0.0893923,0.0,0.0,0.0,0.125157,-0.05469712481765776,0.0,0.0,0.1597923726465369,0.0,-0.08551324995622378
330,0.3206,0.000505885,489.116,0.000653992,-4.23155e-17,6.95412e-16,3.21243e-17,-0.0564146,0.148672,-0.0896568,0.0,0.0,0.0,0.125533,-0.05485280338071874,0.0,0.0,0.16029235089672067,0.0,-0.08575509971556972
331,0.3216,0.000504929,489.46,0.000652777,-2.2019e-16,2.98083e-16,3.14202e-17,-0.0565793,0.149103,-0.0899211,0.0,0.0,0.0,0.12591,-0.05500845630563167,0.0,0.0,0.1607925446839753,0.0,-0.08599670271347237
332,0.3226,0.000503975,489.803,0.000651566,-1.97802e-17,-2.87022e-16,3.07413e-17,-0.0567439,0.149534,-0.0901853,0.0,0.0,0.0,0.126286,-0.05516398911302256,0.0,0.0,0.16129295410121713,0.0,-0.08623815048795991
333,0.3236,0.000503025,490.145,0.000650359,-1.56815e-17,4.89193e-16,3.00867e-17,-0.0569084,0.149964,-0.0904494,0.0,0.0,0.0,0.126662,-0.05531940185376505,0.0,0.0,0.16179241744840445,0.0,-0.08647944312832045
334,0.3246,0.000502077,490.486,0.000649154,-1.953e-16,9.46864e-17,2.94553e-17,-0.0570729,0.150394,-0.0907134,0.0,0.0,0.0,0.127038,-0.05547478903121439,0.0,0.0,0.162292095611013,0.0,-0.08672058072377142
335,0.3256,0.000501132,490.827,0.000647954,3.52048e-18,2.85637e-16,2.18055e-16,-0.0572373,0.150824,-0.0909773,0.0,0.0,0.0,0.127414,-0.055630056212585655,0.0,0.0,0.1627919886814333,0.0,-0.0869615633634605
336,0.3266,0.00050019,491.167,0.000646756,6.13349e-18,2.80633e-16,2.16712e-17,-0.0574016,0.151254,-0.0912411,0.0,0.0,0.0,0.127789,-0.05578520344865545,0.0,0.0,0.16329209675209566,0.0,-0.08720239113646544
337,0.3276,0.000499251,491.507,0.000645563,-1.74913e-16,2.75548e-16,2.13293e-17,-0.0575658,0.151684,-0.0915048,0.0,0.0,0.0,0.128165,-0.05594023079015609,0.0,0.0,0.1637924199154701,0.0,-0.08744306413179359
338,0.3286,0.000498314,491.845,0.000644372,-1.60892e-16,1.04372e-15,2.09996e-17,-0.05773,0.152114,-0.0917683,0.0,0.0,0.0,0.12854,-0.05609523267825711,0.0,0.0,0.1642929582640662,0.0,-0.08768349120673669
339,0.3296,0.00049738,492.183,0.000643185,3.57476e-17,-1.31936e-16,2.06817e-17,-0.0578941,0.152543,-0.0920318,0.0,0.0,0.0,0.128915,-0.05625011474215369,0.0,0.0,0.16479254709730418,0.0,-0.08792385493749144
340,0.3306,0.000496449,492.521,0.000642001,3.63207e-17,6.41934e-16,2.0962e-16,-0.0580582,0.152972,-0.0922951,0.0,0.0,0.0,0.12929,-0.056404971391988856,0.0,0.0,0.16529235030013067,0.0,-0.08816397297355971
341,0.3316,0.00049552,492.857,0.000640821,3.68589e-17,-9.1506e-16,2.02776e-16,-0.0582221,0.153401,-0.0925583,0.0,0.0,0.0,0.129665,-0.05655961394387443,0.0,0.0,0.16579236796452967,0.0,-0.08840393663526991
342,0.3326,0.000494595,493.193,0.000639644,3.73645e-17,2.56089e-16,6.91382e-18,-0.058386,0.15383,-0.0928215,0.0,0.0,0.0,0.13004,-0.056714231151922756,0.0,0.0,0.16629260018252534,0.0,-0.08864383714685531
343,0.3336,0.000493672,493.528,0.00063847,3.78396e-17,-5.22259e-16,7.07492e-18,-0.0585499,0.154259,-0.0930845,0.0,0.0,0.0,0.130414,-0.056868823020287174,0.0,0.0,0.1667930470461807,0.0,-0.08888349230165138
344,0.3346,0.000492751,493.863,0.0006373,-1.45296e-16,6.43686e-16,1.96503e-16,-0.0587136,0.154687,-0.0933474,0.0,0.0,0.0,0.130789,-0.05702320095777991,0.0,0.0,0.16729254135447347,0.0,-0.08912299334773333
345,0.3356,0.000491833,494.197,0.000636132,5.03707e-17,-1.39889e-16,8.52787e-19,-0.0588773,0.155115,-0.0936101,0.0,0.0,0.0,0.131163,-0.05717755362567256,0.0,0.0,0.1677922494920865,0.0,-0.08936224930973435
346,0.3366,0.000490918,494.53,0.000634969,-1.33574e-16,2.47434e-16,-1.88068e-16,-0.0590409,0.155543,-0.0938728,0.0,0.0,0.0,0.131537,-0.05733178676128492,0.0,0.0,0.1682921715505581,0.0,-0.08960144242744905
347,0.3376,0.000490006,494.862,0.000633808,6.13613e-17,6.29411e-16,1.97381e-16,-0.0592045,0.155971,-0.0941354,0.0,0.0,0.0,0.131911,-0.057485994666420126,0.0,0.0,0.16879230762146613,0.0,-0.08984048170143732
348,0.3386,0.000489096,495.194,0.000632651,-1.23293e-16,-1.54052e-16,3.80302e-16,-0.059368,0.156399,-0.0943978,0.0,0.0,0.0,0.132284,-0.057640083109218754,0.0,0.0,0.16929265779642755,0.0,-0.09007927622782685
349,0.3396,0.000488189,495.525,0.000631496,-1.1264e-16,-5.40141e-16,-2.00275e-16,-0.0595314,0.156826,-0.0946602,0.0,0.0,0.0,0.132658,-0.05779405214002631,0.0,0.0,0.16979205237446116,0.0,-0.09031800810275281
350,0.3406,0.000487284,495.856,0.000630346,-1.02663e-16,6.26105e-16,1.85605e-16,-0.0596947,0.157254,-0.0949224,0.0,0.0,0.0,0.133032,-0.05794790180914444,0.0,0.0,0.1702928305317586,0.0,-0.09055649545397026
351,0.3416,0.000486382,496.185,0.000629198,2.74022e-16,-3.50728e-16,3.68962e-16,-0.059858,0.157681,-0.0951845,0.0,0.0,0.0,0.133405,-0.058101726356662886,0.0,0.0,0.17079265227474338,0.0,-0.09079482936148875
352,0.3426,0.000485483,496.515,0.000628053,-1.07738e-16,-5.40724e-16,1.674e-16,-0.0600212,0.158108,-0.0954465,0.0,0.0,0.0,0.133778,-0.058255431612231456,0.0,0.0,0.17129268748718496,0.0,-0.0910330099131813
353,0.3436,0.000484586,496.843,0.000626912,8.56032e-17,4.32067e-16,1.62058e-16,-0.0601843,0.158535,-0.0957085,0.0,0.0,0.0,0.134151,-0.05840901762605555,0.0,0.0,0.17179293626025438,0.0,-0.09127112806974347
354,0.3446,0.000483691,497.171,0.000625774,-1.00619e-16,-3.48777e-16,-3.24421e-17,-0.0603474,0.158961,-0.0959703,0.0,0.0,0.0,0.134524,-0.05856257859204361,0.0,0.0,0.17229222639234854,0.0,-0.0915090021493391
355,0.3456,0.0004828,497.498,0.000624639,9.22885e-17,8.15047e-16,1.58384e-16,-0.0605104,0.159388,-0.0962319,0.0,0.0,0.0,0.134896,-0.05871602038588719,0.0,0.0,0.1727929020596657,0.0,-0.09174663231099656
356,0.3466,0.00048191,497.824,0.000623507,-9.43652e-17,-5.51014e-16,-3.59958e-17,-0.0606733,0.159814,-0.0964935,0.0,0.0,0.0,0.135269,-0.058869343057695644,0.0,0.0,0.1732926182679384,0.0,-0.09198420031673404
357,0.3476,0.000481024,498.15,0.000622378,-8.55796e-17,6.15445e-16,3.44322e-16,-0.0608362,0.16024,-0.096755,0.0,0.0,0.0,0.135641,-0.05902264075527508,0.0,0.0,0.1737925474006652,0.0,-0.09222161540497553
358,0.3486,0.00048014,498.475,0.000621253,-7.73462e-17,7.99296e-16,1.43615e-16,-0.060999,0.160666,-0.0970163,0.0,0.0,0.0,0.136014,-0.05917581940028005,0.0,0.0,0.1742926895485719,0.0,-0.09245878690906373
359,0.3496,0.000479258,498.8,0.00062013,-6.96295e-17,1.3642e-17,1.39099e-16,-0.0611617,0.161092,-0.0972776,0.0,0.0,0.0,0.136386,-0.0593288790427241,0.0,0.0,0.17479304480242175,0.0,-0.09269589644833398
360,0.3506,0.000478379,499.124,0.000619011,1.21383e-16,2.05484e-16,-5.46456e-17,-0.0613244,0.161517,-0.0975387,0.0,0.0,0.0,0.136758,-0.05948191378439005,0.0,0.0,0.17529243795999183,0.0,-0.09293276262554617
361,0.3516,0.000477502,499.447,0.000617895,1.16683e-16,-1.85441e-16,3.2634e-16,-0.0614869,0.161942,-0.0977998,0.0,0.0,0.0,0.137129,-0.05963473555629484,0.0,0.0,0.17579204340476173,0.0,-0.09316956696507284
362,0.3526,0.000476628,499.77,0.000616782,-7.1523e-17,-1.84402e-16,3.15645e-16,-0.0616495,0.162368,-0.0980607,0.0,0.0,0.0,0.137501,-0.059787626517921355,0.0,0.0,0.17629303751942205,0.0,-0.09340612816430127
363,0.3536,0.000475756,500.091,0.000615671,-6.41891e-17,2.03583e-16,-7.34887e-17,-0.0618119,0.162792,-0.0983215,0.0,0.0,0.0,0.137872,-0.05994030460957822,0.0,0.0,0.17679189151690422,0.0,-0.09364253701702174
364,0.3546,0.000474887,500.413,0.000614564,-5.7313e-17,1.99567e-16,3.08155e-16,-0.0619743,0.163217,-0.0985822,0.0,0.0,0.0,0.138244,-0.06009295790832625,0.0,0.0,0.17729213436487434,0.0,-0.09387879361023632
365,0.3556,0.00047402,500.733,0.00061346,-5.08657e-17,-5.77956e-16,-8.07372e-17,-0.0621366,0.163642,-0.0988428,0.0,0.0,0.0,0.138615,-0.06024549244274546,0.0,0.0,0.17779258986123958,0.0,-0.09411489803087936
366,0.3566,0.000473156,501.054,0.000612359,-2.28671e-16,2.02194e-16,1.11744e-16,-0.0622989,0.164066,-0.0991033,0.0,0.0,0.0,0.138986,-0.06039800222281855,0.0,0.0,0.17829207980372552,0.0,-0.09435085036581636
367,0.3576,0.000472294,501.373,0.000611261,-2.77213e-17,-1.88625e-16,-8.11115e-17,-0.062461,0.164491,-0.0993637,0.0,0.0,0.0,0.139357,-0.06055029936264156,0.0,0.0,0.17879296036722248,0.0,-0.09458665070184491
368,0.3586,0.000471434,501.692,0.000610166,-2.06981e-16,1.99509e-16,1.1139e-16,-0.0626231,0.164915,-0.0996239,0.0,0.0,0.0,0.139728,-0.06070257181709904,0.0,0.0,0.17929287455673704,0.0,-0.09482220860791968
369,0.3596,0.000470577,502.01,0.000609074,-7.36881e-18,2.18059e-18,2.97424e-16,-0.0627852,0.165339,-0.0998841,0.0,0.0,0.0,0.140098,-0.06085481959019212,0.0,0.0,0.17979300075481053,0.0,-0.09505770522980073
370,0.3606,0.000469722,502.328,0.000607985,-4.00709e-18,-1.92486e-16,9.83196e-17,-0.0629471,0.165762,-0.100144,0.0,0.0,0.0,0.140468,-0.06100685488731106,0.0,0.0,0.18029215875860483,0.0,-0.0952928691713335
371,0.3616,0.00046887,502.645,0.000606899,-8.52831e-19,-1.91144e-16,-9.41067e-17,-0.063109,0.166186,-0.100404,0.0,0.0,0.0,0.140839,-0.06115886557190786,0.0,0.0,0.18079270874301634,0.0,-0.095528062448898
372,0.3626,0.00046802,502.961,0.000605816,-1.81815e-16,9.70826e-16,9.88363e-17,-0.0632709,0.166609,-0.100664,0.0,0.0,0.0,0.141209,-0.0613108516479669,0.0,0.0,0.18129228971274047,0.0,-0.09576319458415916
373,0.3636,0.000467172,503.277,0.000604735,1.62514e-17,7.63352e-16,9.58545e-17,-0.0634326,0.167032,-0.100924,0.0,0.0,0.0,0.141579,-0.06146262541201586,0.0,0.0,0.18179208204991615,0.0,-0.09599826559301183
374,0.3646,0.000466327,503.592,0.000603658,1.81642e-17,1.71653e-16,9.29737e-17,-0.0635943,0.167455,-0.101183,0.0,0.0,0.0,0.141949,-0.06161437463623132,0.0,0.0,0.18229208584397005,0.0,-0.09623237172417065
375,0.3656,0.000465484,503.906,0.000602584,1.99601e-17,-2.53821e-17,9.01902e-17,-0.063756,0.167878,-0.101443,0.0,0.0,0.0,0.142318,-0.06176609932458099,0.0,0.0,0.18279230118436818,0.0,-0.09646732076282372
376,0.3666,0.000464644,504.22,0.000601512,2.16466e-17,-2.63747e-17,8.75007e-17,-0.0639175,0.168301,-0.101702,0.0,0.0,0.0,0.142688,-0.06191761186457323,0.0,0.0,0.1832927281606127,0.0,-0.09670130542442446
377,0.3676,0.000463805,504.533,0.000600444,2.32305e-17,-2.20834e-16,8.49019e-17,-0.064079,0.168723,-0.101962,0.0,0.0,0.0,0.143057,-0.06206909993726595,0.0,0.0,0.1837921830694702,0.0,-0.09693613255616418
378,0.3686,0.000462969,504.846,0.000599378,2.47182e-17,1.67602e-16,-1.0711e-16,-0.0642405,0.169146,-0.102221,0.0,0.0,0.0,0.143426,-0.06222056354661043,0.0,0.0,0.18429303308521883,0.0,-0.09716999581123331
379,0.3696,0.000462136,505.158,0.000598315,-1.57888e-16,-4.16424e-16,-1.03227e-16,-0.0644018,0.169568,-0.10248,0.0,0.0,0.0,0.143795,-0.06237181517093893,0.0,0.0,0.1847929102118362,0.0,-0.09740379850356251
380,0.3706,0.000461304,505.47,0.000597255,3.8724e-17,-2.54462e-17,-9.94744e-17,-0.0645631,0.16999,-0.102739,0.0,0.0,0.0,0.144164,-0.0625230424003479,0.0,0.0,0.18529299833111734,0.0,-0.09763754064883567
381,0.3716,0.000460475,505.781,0.000596198,-3.28781e-16,-2.65125e-17,-9.58473e-17,-0.0647243,0.170411,-0.102998,0.0,0.0,0.0,0.144533,-0.06267415150619182,0.0,0.0,0.18579211173941523,0.0,-0.09787122226273237
382,0.3726,0.000459649,506.091,0.000595144,6.2339e-17,1.65777e-16,9.71844e-17,-0.0648855,0.170833,-0.103256,0.0,0.0,0.0,0.144902,-0.06282523625521108,0.0,0.0,0.18629262161072435,0.0,-0.09810394146532053
383,0.3736,0.000458824,506.401,0.000594092,-1.2259e-16,9.35917e-16,9.42873e-17,-0.0650466,0.171254,-0.103515,0.0,0.0,0.0,0.14527,-0.06297620294895667,0.0,0.0,0.18679215594902265,0.0,-0.09833750229704763
384,0.3746,0.000458002,506.71,0.000593043,7.18911e-17,5.35141e-16,9.14873e-17,-0.0652076,0.171675,-0.103774,0.0,0.0,0.0,0.145638,-0.06312705163663668,0.0,0.0,0.18729190063555223,0.0,-0.09857100264435248
385,0.3756,0.000457182,507.018,0.000591998,7.04394e-17,1.39543e-16,8.8781e-17,-0.0653686,0.172097,-0.104032,0.0,0.0,0.0,0.146006,-0.06327787603963297,0.0,0.0,0.18779304355133863,0.0,-0.09880354132689029
386,0.3766,0.000456364,507.327,0.000590954,-2.99088e-16,3.29555e-16,8.61651e-17,-0.0655295,0.172517,-0.10429,0.0,0.0,0.0,0.146374,-0.06342858250471795,0.0,0.0,0.18829202140764512,0.0,-0.0990360200221867
387,0.3776,0.000455549,507.634,0.000589914,-2.77937e-16,3.23622e-16,8.36366e-17,-0.0656903,0.172938,-0.104549,0.0,0.0,0.0,0.146742,-0.06357917108100508,0.0,0.0,0.1887923976704704,0.0,-0.09926933947682726
388,0.3786,0.000454735,507.941,0.000588877,-2.58078e-16,-4.56261e-16,2.70756e-16,-0.065851,0.173359,-0.104807,0.0,0.0,0.0,0.14711,-0.06372964181756491,0.0,0.0,0.18929298463605226,0.0,-0.09950169801170239
389,0.3796,0.000453924,508.247,0.000587842,-2.39433e-16,7.08974e-16,7.25731e-17,-0.0660117,0.173779,-0.105065,0.0,0.0,0.0,0.147477,-0.06388008837542014,0.0,0.0,0.18979259259992753,0.0,-0.09973399660580817
390,0.3806,0.000453116,508.553,0.00058681,-3.77961e-17,-7.57906e-17,2.60067e-16,-0.0661723,0.174199,-0.105323,0.0,0.0,0.0,0.147845,-0.06403041716150237,0.0,0.0,0.19029241044321932,0.0,-0.09996623527460735
391,0.3816,0.000452309,508.858,0.000585781,-3.25294e-17,8.90996e-16,6.2233e-17,-0.0663329,0.174619,-0.10558,0.0,0.0,0.0,0.148212,-0.06418072180672019,0.0,0.0,0.1907924382540953,0.0,-0.10019751423152279
392,0.3826,0.000451504,509.162,0.000584754,-2.11733e-16,2.97342e-16,2.50077e-16,-0.0664934,0.175039,-0.105838,0.0,0.0,0.0,0.148579,-0.06433090874804581,0.0,0.0,0.1912926761207605,0.0,-0.1004296333282001
393,0.3836,0.000450702,509.466,0.00058373,-3.80093e-16,-4.82077e-16,5.25678e-17,-0.0666538,0.175458,-0.106096,0.0,0.0,0.0,0.148946,-0.06448097803440411,0.0,0.0,0.19179193233892877,0.0,-0.10066169254587509
394,0.3846,0.000449902,509.77,0.000582709,-1.69933e-16,6.8354e-16,5.11373e-17,-0.0668142,0.175878,-0.106353,0.0,0.0,0.0,0.149313,-0.06463102325157921,0.0,0.0,0.1922925900812773,0.0,-0.10089279279323704
395,0.3856,0.000449104,510.073,0.000581691,2.75243e-17,-2.94349e-16,4.97542e-17,-0.0669744,0.176297,-0.106611,0.0,0.0,0.0,0.14968,-0.0647808573596218,0.0,0.0,0.19279226535118,0.0,-0.10112473253118359
396,0.3866,0.000448308,510.375,0.000580675,-1.55328e-16,9.49315e-17,2.3803e-16,-0.0671347,0.176716,-0.106868,0.0,0.0,0.0,0.150046,-0.06493076097309147,0.0,0.0,0.1932921500288889,0.0,-0.1013557137925597
397,0.3876,0.000447515,510.677,0.000579662,-1.42949e-16,-8.7531e-16,-1.48706e-16,-0.0672948,0.177135,-0.107125,0.0,0.0,0.0,0.150413,-0.06508045357504721,0.0,0.0,0.1937922442021638,0.0,-0.10158663569937887
398,0.3886,0.000446723,510.978,0.000578652,-1.31319e-16,6.82569e-16,2.35692e-16,-0.0674549,0.177554,-0.107382,0.0,0.0,0.0,0.150779,-0.06523012221313562,0.0,0.0,0.19429254795880202,0.0,-0.10181749826689357
399,0.3896,0.000445934,511.279,0.000577644,6.3836e-17,6.72355e-16,3.8653e-17,-0.0676149,0.177972,-0.107639,0.0,0.0,0.0,0.151145,-0.06537967342916517,0.0,0.0,0.19479186659417347,0.0,-0.10204830151035182
400,0.3906,0.000445147,511.579,0.000576639,6.30166e-17,8.16694e-17,3.76762e-17,-0.0677749,0.178391,-0.107896,0.0,0.0,0.0,0.151511,-0.06552920071891433,0.0,0.0,0.19529258928035342,0.0,-0.102279045444998
401,0.3916,0.000444361,511.878,0.000575636,-1.22002e-16,-1.14359e-16,2.26375e-16,-0.0679348,0.178809,-0.108153,0.0,0.0,0.0,0.151876,-0.06567861065407676,0.0,0.0,0.19579232602037488,0.0,-0.10250973008607256
402,0.3926,0.000443578,512.177,0.000574636,-1.11654e-16,-1.14359e-16,2.96363e-17,-0.0680946,0.179227,-0.108409,0.0,0.0,0.0,0.152242,-0.06582790328329546,0.0,0.0,0.19629227169401786,0.0,-0.10273945818871877
403,0.3936,0.000442797,512.476,0.000573639,-1.01929e-16,6.59819e-16,2.89501e-17,-0.0682543,0.179645,-0.108666,0.0,0.0,0.0,0.152608,-0.06597707865517066,0.0,0.0,0.1967924263886347,0.0,-0.10297002451892179
404,0.3946,0.000442019,512.774,0.000572645,-9.27894e-17,-1.24173e-16,-1.61375e-16,-0.068414,0.180063,-0.108922,0.0,0.0,0.0,0.152973,-0.06612623020564112,0.0,0.0,0.1972927901916146,0.0,-0.10319963480127481
405,0.3956,0.000441242,513.071,0.000571653,1.00095e-16,6.9574e-17,3.38098e-17,-0.0685736,0.18048,-0.109179,0.0,0.0,0.0,0.153338,-0.06627526456604194,0.0,0.0,0.19779216539761868,0.0,-0.10343008288128419
406,0.3966,0.000440467,513.368,0.000570663,9.71412e-17,-1.26155e-16,3.29934e-17,-0.0687332,0.180898,-0.109435,0.0,0.0,0.0,0.153703,-0.06642427514245686,0.0,0.0,0.19829294717885548,0.0,-0.10365957540377035
407,0.3976,0.000439695,513.664,0.000569676,-8.99482e-17,4.54729e-16,3.22038e-17,-0.0688927,0.181315,-0.109691,0.0,0.0,0.0,0.154068,-0.06657316859600315,0.0,0.0,0.19879273953729348,0.0,-0.10388900918369015
408,0.3986,0.000438924,513.96,0.000568692,-8.15437e-17,8.34587e-16,3.14401e-17,-0.0690521,0.181732,-0.109947,0.0,0.0,0.0,0.154433,-0.0667219449751365,0.0,0.0,0.19929274035260525,0.0,-0.10411838423607978
409,0.3996,0.000438155,514.255,0.00056771,1.10694e-16,-5.32213e-16,2.20393e-16,-0.0692115,0.182149,-0.110203,0.0,0.0,0.0,0.154797,-0.06687069764120501,0.0,0.0,0.19979294971173522,0.0,-0.10434770057597142
410,0.4006,0.000437389,514.55,0.000566731,-2.61562e-16,1.60207e-15,2.38498e-17,-0.0693708,0.182565,-0.110459,0.0,0.0,0.0,0.155162,-0.06701933329992615,0.0,0.0,0.20029216740889688,0.0,-0.10457695821839375
411,0.4016,0.000436624,514.844,0.000565754,1.25771e-16,-3.55231e-16,2.33529e-17,-0.06953,0.182982,-0.110714,0.0,0.0,0.0,0.155526,-0.06716785199966269,0.0,0.0,0.2007927936160161,0.0,-0.1048052619840808
412,0.4026,0.000435862,515.138,0.00056478,-2.47407e-16,1.00246e-15,2.28723e-17,-0.0696891,0.183398,-0.11097,0.0,0.0,0.0,0.15589,-0.06731625378873418,0.0,0.0,0.2012924273347685,0.0,-0.10503440250577467
413,0.4036,0.000435102,515.431,0.000563809,-2.29653e-16,4.07431e-16,2.24074e-17,-0.0698482,0.183814,-0.111225,0.0,0.0,0.0,0.156254,-0.06746463196895913,0.0,0.0,0.2017922689443863,0.0,-0.1052625896380398
414,0.4046,0.000434343,515.724,0.00056284,-2.12959e-16,-1.79978e-16,2.11679e-16,-0.0700073,0.18423,-0.111481,0.0,0.0,0.0,0.156618,-0.06761298654409353,0.0,0.0,0.20229231853136986,0.0,-0.1054916130988387
415,0.4056,0.000433587,516.016,0.000561873,-1.28591e-17,-1.7931e-16,3.94867e-16,-0.0701662,0.184646,-0.111736,0.0,0.0,0.0,0.156982,-0.06776113107013737,0.0,0.0,0.20279257618225577,0.0,-0.10571968365726647
416,0.4066,0.000432832,516.307,0.000560909,-9.02971e-18,2.085e-16,1.92709e-16,-0.0703251,0.185062,-0.111991,0.0,0.0,0.0,0.157345,-0.06790925205788612,0.0,0.0,0.20329304198361697,0.0,-0.10594769606511634
417,0.4076,0.00043208,516.598,0.000559947,-5.4268e-18,9.78473e-16,1.86779e-16,-0.070484,0.185477,-0.112246,0.0,0.0,0.0,0.157709,-0.06805734951107989,0.0,0.0,0.20379251222894768,0.0,-0.10617565033721477
418,0.4086,0.000431329,516.889,0.000558988,1.82395e-16,3.83777e-16,-8.70294e-18,-0.0706427,0.185892,-0.112501,0.0,0.0,0.0,0.158072,-0.06820523707452397,0.0,0.0,0.20429218979744657,0.0,-0.10640354648838468
419,0.4096,0.000430581,517.179,0.000558032,-9.7649e-18,7.64274e-16,1.81577e-16,-0.0708014,0.186307,-0.112756,0.0,0.0,0.0,0.158435,-0.06835310117007387,0.0,0.0,0.20479207477517103,0.0,-0.10663138453344478
420,0.4106,0.000429834,517.468,0.000557077,-1.90576e-16,9.46305e-16,3.65768e-16,-0.0709601,0.186722,-0.113011,0.0,0.0,0.0,0.158798,-0.06850094180145383,0.0,0.0,0.20529216724821353,0.0,-0.10685916448721033
421,0.4116,0.00042909,517.757,0.000556126,1.92666e-16,5.45319e-16,1.64551e-16,-0.0711186,0.187137,-0.113265,0.0,0.0,0.0,0.159161,-0.06864857270212033,0.0,0.0,0.2057924673027025,0.0,-0.10708599345093273
422,0.4126,0.000428347,518.046,0.000555176,-9.93585e-20,7.30138e-16,1.5953e-16,-0.0712771,0.187552,-0.11352,0.0,0.0,0.0,0.159523,-0.06879618020514344,0.0,0.0,0.20629297502480215,0.0,-0.10731365749420352
423,0.4136,0.000427607,518.334,0.000554229,2.97294e-18,1.38301e-16,1.54671e-16,-0.0714356,0.187966,-0.113774,0.0,0.0,0.0,0.159886,-0.06894376431423133,0.0,0.0,0.20679248370762537,0.0,-0.10754037103136194
424,0.4146,0.000426868,518.621,0.000553285,5.865e-18,1.346e-16,1.49969e-16,-0.0715939,0.18838,-0.114029,0.0,0.0,0.0,0.160248,-0.069091138851338,0.0,0.0,0.20729219922985598,0.0,-0.10776791922312146
425,0.4156,0.000426131,518.908,0.000552343,8.58764e-18,1.30949e-16,-4.43672e-17,-0.0717522,0.188794,-0.114283,0.0,0.0,0.0,0.160611,-0.06923849006090188,0.0,0.0,0.20779212167714323,0.0,-0.10799451739245303
426,0.4166,0.000425396,519.195,0.000551403,1.1151e-17,5.14544e-16,-4.27281e-17,-0.0719105,0.189208,-0.114537,0.0,0.0,0.0,0.160973,-0.06938581794661547,0.0,0.0,0.20829225113517214,0.0,-0.10822105801315851
427,0.4176,0.000424663,519.481,0.000550466,1.35647e-17,1.18989e-16,-4.11415e-17,-0.0720687,0.189622,-0.114791,0.0,0.0,0.0,0.161335,-0.06953302946547812,0.0,0.0,0.20879258768966258,0.0,-0.10844754109985355
428,0.4186,0.000423932,519.766,0.000549531,1.58377e-17,-7.80271e-17,1.50196e-16,-0.0722268,0.190035,-0.115045,0.0,0.0,0.0,0.161696,-0.06968012466533768,0.0,0.0,0.2092919221338434,0.0,-0.10867396666714979
429,0.4196,0.000423203,520.051,0.000548598,1.79783e-17,-2.72645e-16,1.45654e-16,-0.0723848,0.190449,-0.115299,0.0,0.0,0.0,0.162058,-0.06982710359399946,0.0,0.0,0.20979267263780899,0.0,-0.10890033472965532
430,0.4206,0.000422475,520.336,0.000547668,-7.22832e-17,3.09496e-16,-4.85545e-17,-0.0725428,0.190862,-0.115553,0.0,0.0,0.0,0.16242,-0.06997405930182488,0.0,0.0,0.21029242020237704,0.0,-0.10912664530197458
431,0.4216,0.00042175,520.62,0.00054674,-6.49846e-17,3.03703e-16,1.43026e-16,-0.0727007,0.191275,-0.115806,0.0,0.0,0.0,0.162781,-0.07012089880457728,0.0,0.0,0.21079237420531594,0.0,-0.10935200775116127
432,0.4226,0.000421026,520.903,0.000545815,3.41746e-17,2.98134e-16,1.3872e-16,-0.0728586,0.191688,-0.11606,0.0,0.0,0.0,0.163142,-0.07026771512320273,0.0,0.0,0.21129253473190213,0.0,-0.10957820361310189
433,0.4236,0.000420305,521.187,0.000544892,3.52535e-17,-9.45918e-17,-5.52791e-17,-0.0730164,0.192101,-0.116313,0.0,0.0,0.0,0.163503,-0.07041441530280768,0.0,0.0,0.2117929018674476,0.0,-0.10980345183248652
434,0.4246,0.000419585,521.469,0.000543971,-5.60272e-17,2.91909e-16,1.36522e-16,-0.0731741,0.192513,-0.116566,0.0,0.0,0.0,0.163864,-0.07056099939105531,0.0,0.0,0.21229226340442997,0.0,-0.11002864307128002
435,0.4256,0.000418867,521.751,0.000543052,4.26166e-17,-2.9436e-16,-5.74121e-17,-0.0733318,0.192926,-0.11682,0.0,0.0,0.0,0.164225,-0.07070756036481474,0.0,0.0,0.21279304351319017,0.0,-0.11025466708967435
436,0.4266,0.000418151,522.033,0.000542136,-1.41406e-16,-9.89446e-17,-5.53836e-17,-0.0734893,0.193338,-0.117073,0.0,0.0,0.0,0.164586,-0.07085391239853212,0.0,0.0,0.2132928171934263,0.0,-0.11047974418544748
437,0.4276,0.000417437,522.314,0.000541222,5.45267e-17,-4.868e-16,1.36433e-16,-0.0736469,0.19375,-0.117326,0.0,0.0,0.0,0.164946,-0.07100033428359054,0.0,0.0,0.21379279682284147,0.0,-0.1107047643439183
438,0.4286,0.000416724,522.594,0.000540311,-3.78811e-17,-6.76243e-16,1.32353e-16,-0.0738043,0.194162,-0.117579,0.0,0.0,0.0,0.165307,-0.07114654732370618,0.0,0.0,0.2142929824863038,0.0,-0.11092972757949005
439,0.4296,0.000416013,522.875,0.000539401,-3.26001e-17,-8.89697e-17,1.28403e-16,-0.0739617,0.194573,-0.117831,0.0,0.0,0.0,0.165667,-0.07129273735170039,0.0,0.0,0.2147921594759501,0.0,-0.11115374506075182
440,0.4306,0.000415305,523.154,0.000538494,-1.19954e-16,-4.77036e-16,1.24579e-16,-0.0741191,0.194985,-0.118084,0.0,0.0,0.0,0.166027,-0.07143890437119504,0.0,0.0,0.21529275696165517,0.0,-0.11137859471857037
441,0.4316,0.000414598,523.433,0.00053759,-1.75799e-17,6.88663e-16,3.1075e-16,-0.0742764,0.195396,-0.118337,0.0,0.0,0.0,0.166387,-0.07158495554431155,0.0,0.0,0.2157923449430641,0.0,-0.11160338749662113
442,0.4326,0.000413892,523.712,0.000536687,-1.05811e-16,2.91054e-16,1.11323e-16,-0.0744336,0.195807,-0.118589,0.0,0.0,0.0,0.166747,-0.07173089091847906,0.0,0.0,0.21629213829733462,0.0,-0.11182723523697202
443,0.4336,0.000413189,523.99,0.000535787,-9.65951e-17,-4.889e-16,1.08034e-16,-0.0745907,0.196218,-0.118841,0.0,0.0,0.0,0.167106,-0.07187671054108447,0.0,0.0,0.2167921371088921,0.0,-0.11205102657479948
444,0.4346,0.000412487,524.268,0.000534889,4.4342e-18,-2.91264e-16,-8.50426e-17,-0.0747478,0.196629,-0.119094,0.0,0.0,0.0,0.167466,-0.07202250725722659,0.0,0.0,0.21729234146219722,0.0,-0.1122756492491096
445,0.4356,0.000411788,524.546,0.000533993,7.27537e-18,-9.60015e-17,-8.21826e-17,-0.0749048,0.19704,-0.119346,0.0,0.0,0.0,0.167825,-0.07216818828732707,0.0,0.0,0.21779275144174481,0.0,-0.1124993276008428
446,0.4366,0.00041109,524.822,0.0005331,9.9532e-18,-8.71335e-16,1.10489e-16,-0.0750618,0.19745,-0.119598,0.0,0.0,0.0,0.168184,-0.07231384644730121,0.0,0.0,0.2182921488393068,0.0,-0.11272294959273299
447,0.4376,0.000410393,525.099,0.000532208,1.24773e-17,-2.8184e-16,1.07237e-16,-0.0752186,0.197861,-0.11985,0.0,0.0,0.0,0.168543,-0.07245929623261704,0.0,0.0,0.2187929698241422,0.0,-0.11294651523898114
448,0.4386,0.000409699,525.375,0.000531319,1.48567e-17,4.94142e-16,1.04087e-16,-0.0753755,0.198271,-0.120102,0.0,0.0,0.0,0.168902,-0.07260481595271762,0.0,0.0,0.2192927773953206,0.0,-0.11317002455378433
449,0.4396,0.000409006,525.65,0.000530433,1.71e-17,4.86112e-16,1.01036e-16,-0.0755322,0.198681,-0.120354,0.0,0.0,0.0,0.169261,-0.07275012739260911,0.0,0.0,0.21979278992961793,0.0,-0.11339347755133666
450,0.4406,0.000408315,525.925,0.000529548,1.9215e-17,4.78187e-16,9.80817e-17,-0.0756889,0.199091,-0.120605,0.0,0.0,0.0,0.16962,-0.07289541606398209,0.0,0.0,0.22029300751108605,0.0,-0.11361598786225902
451,0.4416,0.000407626,526.2,0.000528665,2.12094e-17,8.31286e-17,9.52197e-17,-0.0758456,0.1995,-0.120857,0.0,0.0,0.0,0.169978,-0.07304068197040381,0.0,0.0,0.22079220943099176,0.0,-0.11383932849121658
452,0.4426,0.000406938,526.474,0.000527785,2.30902e-17,4.67334e-16,9.24475e-17,-0.0760021,0.19991,-0.121108,0.0,0.0,0.0,0.170336,-0.07318573975260789,0.0,0.0,0.22129283685846812,0.0,-0.11406172690759642
453,0.4436,0.000406253,526.748,0.000526907,-6.75278e-17,7.23376e-17,8.97621e-17,-0.0761586,0.200319,-0.12136,0.0,0.0,0.0,0.170695,-0.07333077483504546,0.0,0.0,0.22179244779221463,0.0,-0.11428495522446647
454,0.4446,0.000405568,527.021,0.000526031,-1.52953e-16,6.9437e-17,8.71609e-17,-0.0763151,0.200728,-0.121611,0.0,0.0,0.0,0.171053,-0.07347578722126857,0.0,0.0,0.22229226310862638,0.0,-0.11450724180257255
455,0.4456,0.000404886,527.293,0.000525157,-1.41087e-16,6.65732e-17,8.4641e-17,-0.0764714,0.201137,-0.121862,0.0,0.0,0.0,0.171411,-0.07362059163896584,0.0,0.0,0.22279228289131314,0.0,-0.1147294725937491
456,0.4466,0.000404206,527.566,0.000524286,-3.74953e-17,6.37458e-17,8.21999e-17,-0.0766278,0.201546,-0.122113,0.0,0.0,0.0,0.171768,-0.07376546604895928,0.0,0.0,0.22329250722391847,0.0,-0.11495164761199683
457,0.4476,0.000403527,527.838,0.000523416,-3.22377e-17,4.4829e-16,7.9835e-17,-0.076784,0.201955,-0.122364,0.0,0.0,0.0,0.172126,-0.07391013258441193,0.0,0.0,0.22379293619012053,0.0,-0.11517376687131298
458,0.4486,0.000402849,528.109,0.000522549,-1.19697e-16,4.40799e-16,2.6751e-16,-0.0769402,0.202363,-0.122615,0.0,0.0,0.0,0.172484,-0.07405477652471637,0.0,0.0,0.224292345580674,0.0,-0.11539583038569134
459,0.4496,0.000402174,528.38,0.000521684,-1.73243e-17,6.2704e-16,6.94443e-17,-0.0770963,0.202771,-0.122866,0.0,0.0,0.0,0.172841,-0.07419930529333696,0.0,0.0,0.22479195877183122,0.0,-0.11561783816912219
460,0.4506,0.0004015,528.65,0.000520821,-1.3215e-17,2.30103e-16,6.74715e-17,-0.0772524,0.20318,-0.123116,0.0,0.0,0.0,0.173198,-0.07434381150277758,0.0,0.0,0.22529300113914852,0.0,-0.1158389060749403
461,0.4516,0.000400828,528.92,0.00051996,-9.33965e-18,3.16109e-17,6.55602e-17,-0.0774084,0.203588,-0.123367,0.0,0.0,0.0,0.173555,-0.07448820260538436,0.0,0.0,0.2257930226810716,0.0,-0.11606080266032903
462,0.4526,0.000400158,529.19,0.000519101,-5.68457e-18,2.91784e-17,6.37083e-17,-0.0775643,0.203995,-0.123617,0.0,0.0,0.0,0.173912,-0.0746324786479885,0.0,0.0,0.22629202198077203,0.0,-0.1162817598388658
463,0.4536,0.000399489,529.459,0.000518244,-2.237e-18,2.67032e-17,6.1914e-17,-0.0777202,0.204403,-0.123868,0.0,0.0,0.0,0.174269,-0.0747767321997107,0.0,0.0,0.22679245120636016,0.0,-0.11650354528190876
464,0.4546,0.000398822,529.728,0.000517389,1.01509e-18,-5.56789e-16,6.01754e-17,-0.077876,0.204811,-0.124118,0.0,0.0,0.0,0.174626,-0.07492087075614884,0.0,0.0,0.22729308464873,0.0,-0.1167243917886247
465,0.4556,0.000398156,529.996,0.000516537,4.08303e-18,2.88001e-17,5.84907e-17,-0.0780317,0.205218,-0.124368,0.0,0.0,0.0,0.174982,-0.07506489436404329,0.0,0.0,0.22779269459790985,0.0,-0.11694518309061486
466,0.4566,0.000397492,530.264,0.000515686,-8.54764e-17,-1.67391e-16,-1.3315e-16,-0.0781874,0.205625,-0.124618,0.0,0.0,0.0,0.175338,-0.07520889554920762,0.0,0.0,0.22829250792972489,0.0,-0.11716591920167863
467,0.4576,0.00039683,530.532,0.000514838,1.4957e-17,-1.67551e-16,6.11168e-17,-0.078343,0.206032,-0.124868,0.0,0.0,0.0,0.175695,-0.0753527818504156,0.0,0.0,0.2287925247269682,0.0,-0.11738660013561208
468,0.4586,0.00039617,530.799,0.000513992,-7.52238e-17,-1.6771e-16,5.94084e-17,-0.0784986,0.206439,-0.125118,0.0,0.0,0.0,0.176051,-0.07549664576465698,0.0,0.0,0.22929274507246733,0.0,-0.11760722590620776
469,0.4596,0.000395511,531.065,0.000513147,-6.78342e-17,-3.61562e-16,5.77528e-17,-0.0786541,0.206845,-0.125368,0.0,0.0,0.0,0.176407,-0.07564039485945873,0.0,0.0,0.22979193925652908,0.0,-0.11782779652725484
470,0.4606,0.000394854,531.331,0.000512305,-6.08632e-17,2.21599e-16,2.46177e-16,-0.0788095,0.207252,-0.125617,0.0,0.0,0.0,0.176763,-0.07578402918142169,0.0,0.0,0.23029256644652896,0.0,-0.11804743006040985
471,0.4616,0.000394198,531.597,0.000511465,3.81907e-17,4.10396e-16,2.38806e-16,-0.0789649,0.207658,-0.125867,0.0,0.0,0.0,0.177118,-0.07592764118434525,0.0,0.0,0.23079216664048285,0.0,-0.11826789064417353
472,0.4626,0.000393544,531.862,0.000510627,-5.33095e-17,1.58926e-17,4.16233e-17,-0.0791202,0.208064,-0.126116,0.0,0.0,0.0,0.177474,-0.07607113847881608,0.0,0.0,0.23129196971329713,0.0,-0.11848741460753554
473,0.4636,0.000392892,532.127,0.000509791,4.53235e-17,-3.73925e-16,4.05054e-17,-0.0792754,0.20847,-0.126366,0.0,0.0,0.0,0.177829,-0.07621452111134408,0.0,0.0,0.23179197574735744,0.0,-0.1187077652089108
474,0.4646,0.000392241,532.392,0.000508956,-4.65827e-17,-1.7801e-16,3.9422e-17,-0.0794306,0.208876,-0.126615,0.0,0.0,0.0,0.178184,-0.07635788149261424,0.0,0.0,0.23229218482508274,0.0,-0.11892717965714128
475,0.4656,0.000391592,532.656,0.000508124,-4.08186e-17,-7.59313e-16,2.28426e-16,-0.0795857,0.209282,-0.126864,0.0,0.0,0.0,0.178539,-0.07650112727619707,0.0,0.0,0.23279259702892507,0.0,-0.1191465394779756
476,0.4666,0.000390944,532.919,0.000507294,-3.53791e-17,6.03227e-16,-1.58502e-16,-0.0797408,0.209687,-0.127113,0.0,0.0,0.0,0.178894,-0.07664435084408172,0.0,0.0,0.2332919791487753,0.0,-0.11936584468501421
477,0.4676,0.000390298,533.182,0.000506466,-1.22751e-16,3.99903e-16,3.65355e-17,-0.0798958,0.210093,-0.127362,0.0,0.0,0.0,0.179249,-0.07678745987846414,0.0,0.0,0.23379279735152547,0.0,-0.11958509529185424
478,0.4686,0.000389654,533.445,0.00050564,-2.01972e-17,5.86339e-16,2.25644e-16,-0.0800507,0.210498,-0.127611,0.0,0.0,0.0,0.179604,-0.07693045442571544,0.0,0.0,0.23429258463454605,0.0,-0.11980429131208958
479,0.4696,0.000389011,533.707,0.000504816,-1.59131e-17,-1.97988e-16,2.18934e-16,-0.0802056,0.210903,-0.12786,0.0,0.0,0.0,0.179958,-0.07707342682482665,0.0,0.0,0.23479257437241086,0.0,-0.12002343275931038
480,0.4706,0.00038837,533.969,0.000503994,-1.04388e-16,-1.9816e-16,4.02509e-16,-0.0803604,0.211308,-0.128108,0.0,0.0,0.0,0.180313,-0.07721628480086151,0.0,0.0,0.23529276664713028,0.0,-0.12024163988918357
481,0.4716,0.00038773,534.231,0.000503174,-9.53837e-17,-4.6863e-18,1.02668e-17,-0.0805151,0.211712,-0.128357,0.0,0.0,0.0,0.180667,-0.07735902840010078,0.0,0.0,0.23579192574820484,0.0,-0.12046067245016567
482,0.4726,0.000387092,534.492,0.000502356,-8.68849e-17,1.86364e-16,-1.80001e-16,-0.0806698,0.212117,-0.128605,0.0,0.0,0.0,0.181021,-0.07750174991861325,0.0,0.0,0.23629252284220192,0.0,-0.12067877115804038
483,0.4736,0.000386455,534.753,0.000501539,-7.88625e-17,-1.22742e-17,5.85963e-16,-0.0808244,0.212521,-0.128854,0.0,0.0,0.0,0.181375,-0.07764435712425477,0.0,0.0,0.23679208592637835,0.0,-0.12089769488688673
484,0.4746,0.00038582,535.013,0.000500725,2.12477e-17,7.59862e-16,-1.93604e-18,-0.080979,0.212925,-0.129102,0.0,0.0,0.0,0.181729,-0.07778694228452643,0.0,0.0,0.23729185087481475,0.0,-0.1211156852266354
485,0.4756,0.000385187,535.273,0.000499913,-6.93145e-17,-2.20487e-16,-1.75275e-18,-0.0811335,0.21333,-0.12935,0.0,0.0,0.0,0.182083,-0.07792941319578217,0.0,0.0,0.2377930555615173,0.0,-0.12133362151148286
486,0.4766,0.000384555,535.532,0.000499102,3.02675e-17,-2.70347e-17,3.78644e-16,-0.0812879,0.213733,-0.129598,0.0,0.0,0.0,0.182436,-0.07807176990416409,0.0,0.0,0.23829198669077867,0.0,-0.12155150375483303
487,0.4776,0.000383925,535.791,0.000498294,3.17485e-17,-2.23273e-16,1.77222e-16,-0.0814423,0.214137,-0.129846,0.0,0.0,0.0,0.18279,-0.07821410463436695,0.0,0.0,0.23879235772154406,0.0,-0.12176933197008677
488,0.4786,0.000383296,536.05,0.000497487,3.3148e-17,-4.17177e-16,1.71994e-16,-0.0815966,0.214541,-0.130094,0.0,0.0,0.0,0.183143,-0.07835632522542113,0.0,0.0,0.23929293094304582,0.0,-0.12198710617064112
489,0.4796,0.000382668,536.308,0.000496683,3.44708e-17,1.66121e-16,1.66923e-16,-0.0817508,0.214944,-0.130342,0.0,0.0,0.0,0.183496,-0.07849843172337878,0.0,0.0,0.23979246664389886,0.0,-0.12220482636989027
490,0.4806,0.000382043,536.566,0.00049588,-5.6843e-17,3.55091e-16,-2.81225e-17,-0.081905,0.215347,-0.130589,0.0,0.0,0.0,0.183849,-0.07864051631020386,0.0,0.0,0.24029220369820936,0.0,-0.12242161500327853
491,0.4816,0.000381418,536.823,0.000495079,-5.05149e-17,-2.33094e-16,-2.71689e-17,-0.0820591,0.21575,-0.130837,0.0,0.0,0.0,0.184202,-0.07878248686752809,0.0,0.0,0.24079214218713907,0.0,-0.12263922745769795
492,0.4826,0.000380795,537.08,0.00049428,-4.45385e-17,1.54216e-16,1.63895e-16,-0.0822132,0.216153,-0.131084,0.0,0.0,0.0,0.184555,-0.07892443554887496,0.0,0.0,0.2412922821918826,0.0,-0.1228559088072676
493,0.4836,0.000380174,537.337,0.000493483,-3.8894e-17,-4.41794e-17,-3.10639e-17,-0.0823672,0.216556,-0.131332,0.0,0.0,0.0,0.184907,-0.07906627026424706,0.0,0.0,0.24179262379366695,0.0,-0.12307341357017809
494,0.4846,0.000379554,537.593,0.000492688,-3.35625e-17,5.34606e-16,-3.00261e-17,-0.0825211,0.216958,-0.131579,0.0,0.0,0.0,0.18526,-0.07920799105955845,0.0,0.0,0.2422919247812063,0.0,-0.12328998768902144
495,0.4856,0.000378936,537.849,0.000491895,-2.85263e-17,-5.57463e-17,1.61134e-16,-0.082675,0.217361,-0.131826,0.0,0.0,0.0,0.185612,-0.07934969004571768,0.0,0.0,0.24279266932014076,0.0,-0.12350650832066346
496,0.4866,0.000378319,538.104,0.000491104,-1.1636e-16,5.23188e-16,-3.37464e-17,-0.0828288,0.217763,-0.132073,0.0,0.0,0.0,0.185964,-0.07949127517521315,0.0,0.0,0.24329237240679835,0.0,-0.12372297547831368
497,0.4876,0.000377704,538.359,0.000490314,7.84476e-17,7.07897e-16,1.57531e-16,-0.0829825,0.218165,-0.13232,0.0,0.0,0.0,0.186316,-0.07963274649386931,0.0,0.0,0.2437922764144791,0.0,-0.12393938917517877
498,0.4886,0.00037709,538.614,0.000489527,-1.53046e-17,8.90326e-16,1.52923e-16,-0.0831362,0.218567,-0.132567,0.0,0.0,0.0,0.186668,-0.07977419607005487,0.0,0.0,0.2442923814239697,0.0,-0.12415574942446173
499,0.4896,0.000376478,538.868,0.000488741,-1.12773e-17,4.89532e-16,1.48453e-16,-0.0832899,0.218969,-0.132814,0.0,0.0,0.0,0.18702,-0.07991562390711116,0.0,0.0,0.24479268751608907,0.0,-0.12437205623936254
500,0.4906,0.000375867,539.122,0.000487957,-7.47188e-18,4.80904e-16,1.44117e-16,-0.0834434,0.21937,-0.13306,0.0,0.0,0.0,0.187371,-0.08005684601976704,0.0,0.0,0.2452919494791166,0.0,-0.12458743422094976
501,0.4916,0.000375257,539.376,0.000487175,-9.64884e-17,-3.02647e-16,1.39912e-16,-0.0835969,0.219772,-0.133307,0.0,0.0,0.0,0.187723,-0.0801980464564922,0.0,0.0,0.24579265747837198,0.0,-0.12480363442287301
502,0.4926,0.000374649,539.629,0.000486395,-8.7987e-17,4.72949e-16,-5.43552e-17,-0.0837504,0.220173,-0.133553,0.0,0.0,0.0,0.188074,-0.08033922522061376,0.0,0.0,0.24629232050976313,0.0,-0.1250189062492848
503,0.4936,0.000374043,539.881,0.000485616,-7.99543e-17,7.70095e-17,1.37547e-16,-0.0839038,0.220574,-0.1338,0.0,0.0,0.0,0.188425,-0.0804802903634918,0.0,0.0,0.24679218394620817,0.0,-0.1252349998907778
504,0.4946,0.000373438,540.134,0.00048484,-7.23641e-17,4.60487e-16,-5.66542e-17,-0.0840571,0.220975,-0.134046,0.0,0.0,0.0,0.188777,-0.08062124193076547,0.0,0.0,0.24729224786808612,0.0,-0.12545016561433564
505,0.4956,0.000372834,540.386,0.000484065,2.74385e-17,6.44804e-17,-5.48807e-17,-0.0842103,0.221376,-0.134292,0.0,0.0,0.0,0.189127,-0.08076207996803253,0.0,0.0,0.24779251235580735,0.0,-0.1256652784136354
506,0.4966,0.000372232,540.637,0.000483292,-6.35051e-17,6.05804e-17,-5.31602e-17,-0.0843635,0.221777,-0.134538,0.0,0.0,0.0,0.189478,-0.08090289643056503,0.0,0.0,0.24829297748981527,0.0,-0.12588033830169476
507,0.4976,0.000371631,540.888,0.000482521,-1.49461e-16,-3.30811e-16,-5.14911e-17,-0.0845167,0.222177,-0.134784,0.0,0.0,0.0,0.189829,-0.08104369132166778,0.0,0.0,0.24879239455756585,0.0,-0.12609534529152855
508,0.4986,0.000371032,541.139,0.000481752,-4.54224e-17,4.44787e-16,1.40345e-16,-0.0846698,0.222577,-0.13503,0.0,0.0,0.0,0.190179,-0.08118437276308732,0.0,0.0,0.24929201143210222,0.0,-0.12631029939614802
509,0.4996,0.000370434,541.39,0.000480984,5.2919e-17,-3.38719e-16,1.36277e-16,-0.0848228,0.222978,-0.135276,0.0,0.0,0.0,0.19053,-0.08132494080032548,0.0,0.0,0.24979307798581618,0.0,-0.1265252006285612
510,0.5006,0.000369837,541.64,0.000480219,-1.32074e-16,4.3691e-16,-5.7896e-17,-0.0849757,0.223377,-0.135522,0.0,0.0,0.0,0.19088,-0.08146539547884335,0.0,0.0,0.25029184492131895,0.0,-0.12674004900177316
511,0.5016,0.000369242,541.889,0.000479455,6.3669e-17,-1.45721e-14,1.34136e-16,-0.0851286,0.223777,-0.135767,0.0,0.0,0.0,0.19123,-0.08160582868348254,0.0,0.0,0.2507920616959729,0.0,-0.12695397148319376
512,0.5026,0.000368649,542.138,0.000478692,-2.92603e-17,-1.21905e-14,1.30258e-16,-0.0852815,0.224177,-0.136013,0.0,0.0,0.0,0.19158,-0.0817462404175262,0.0,0.0,0.25129247859735937,0.0,-0.12716871439174815
513,0.5036,0.000368056,542.387,0.000477932,-2.44525e-17,-1.56219e-14,1.26495e-16,-0.0854342,0.224576,-0.136258,0.0,0.0,0.0,0.19193,-0.08188644706156478,0.0,0.0,0.2517918439130753,0.0,-0.1273825318630124
514,0.5046,0.000367466,542.636,0.000477173,-1.99068e-17,-1.30347e-14,1.22843e-16,-0.085587,0.224976,-0.136504,0.0,0.0,0.0,0.19228,-0.08202672409501544,0.0,0.0,0.2522926608073419,0.0,-0.1275971693586797
515,0.5056,0.000366876,542.884,0.000476417,-1.56087e-17,-1.5294e-14,-7.09495e-17,-0.0857396,0.225375,-0.136749,0.0,0.0,0.0,0.192629,-0.08216679612915057,0.0,0.0,0.25279242527538504,0.0,-0.12781088187133505
516,0.5066,0.000366288,543.132,0.000475661,-1.04222e-16,2.87161e-15,-6.87793e-17,-0.0858922,0.225774,-0.136994,0.0,0.0,0.0,0.192979,-0.08230684678992406,0.0,0.0,0.2532923891892378,0.0,-0.12802454203083824
517,0.5076,0.000365701,543.379,0.000474908,-2.6512e-18,1.32134e-14,1.23586e-16,-0.0860447,0.226173,-0.137239,0.0,0.0,0.0,0.193328,-0.0824467843252803,0.0,0.0,0.253792552628495,0.0,-0.12823814985001436
518,0.5086,0.000365116,543.626,0.000474157,7.11796e-19,9.49966e-15,1.2003e-16,-0.0861972,0.226572,-0.137484,0.0,0.0,0.0,0.193677,-0.08258670052178951,0.0,0.0,0.2542929156727829,0.0,-0.12845170534168515
519,0.5096,0.000364532,543.873,0.000473407,-8.87974e-17,-1.4372e-15,-7.36886e-17,-0.0863496,0.22697,-0.137729,0.0,0.0,0.0,0.194026,-0.0827265036553606,0.0,0.0,0.25479222360890885,0.0,-0.12866520851866936
520,0.5106,0.000363949,544.119,0.000472659,1.19396e-17,1.60966e-14,1.18827e-16,-0.086502,0.227369,-0.137973,0.0,0.0,0.0,0.194375,-0.08286628548455766,0.0,0.0,0.25529298560150293,0.0,-0.12887778827200624
521,0.5116,0.000363368,544.365,0.000471912,1.45151e-17,1.29161e-14,1.15416e-16,-0.0866542,0.227767,-0.138218,0.0,0.0,0.0,0.194724,-0.08300586261381793,0.0,0.0,0.25579269164467866,0.0,-0.12909118707145917
522,0.5126,0.000362788,544.611,0.000471167,1.69517e-17,-1.21483e-14,1.12107e-16,-0.0868065,0.228165,-0.138463,0.0,0.0,0.0,0.195072,-0.08314551018650929,0.0,0.0,0.25629259661044235,0.0,-0.12930453359461036
523,0.5136,0.00036221,544.856,0.000470424,-7.34497e-17,-1.9202e-16,-8.13922e-17,-0.0869586,0.228563,-0.138707,0.0,0.0,0.0,0.195421,-0.08328495314950368,0.0,0.0,0.2567927005779813,0.0,-0.12951695737165858
524,0.5146,0.000361633,545.101,0.000469683,-1.5896e-16,5.81451e-16,-7.89365e-17,-0.0871108,0.228961,-0.138951,0.0,0.0,0.0,0.195769,-0.08342446656239433,0.0,0.0,0.25729300362651397,0.0,-0.12972932932362813
525,0.5156,0.000361057,545.345,0.000468944,-5.44188e-17,-3.97937e-16,-7.65531e-17,-0.0872628,0.229358,-0.139196,0.0,0.0,0.0,0.196117,-0.08356377545573268,0.0,0.0,0.2577922480424131,0.0,-0.12994251952107827
526,0.5166,0.000360483,545.589,0.000468206,-1.40964e-16,3.77958e-16,3.06362e-16,-0.0874148,0.229756,-0.13944,0.0,0.0,0.0,0.196465,-0.08370306317572851,0.0,0.0,0.2582929489900132,0.0,-0.13015478764855049
527,0.5176,0.000359909,545.833,0.00046747,-3.73925e-17,-1.7707e-17,1.07182e-16,-0.0875667,0.230153,-0.139684,0.0,0.0,0.0,0.196813,-0.08384223810982827,0.0,0.0,0.25879259046303216,0.0,-0.13036700398891776
528,0.5186,0.000359338,546.077,0.000466735,-1.24863e-16,5.60083e-16,-8.61864e-17,-0.0877186,0.23055,-0.139928,0.0,0.0,0.0,0.197161,-0.08398139190486109,0.0,0.0,0.25929243033309524,0.0,-0.13057916855481488
529,0.5196,0.000358767,546.32,0.000466002,-1.14888e-16,9.37531e-16,1.06711e-16,-0.0878704,0.230947,-0.140172,0.0,0.0,0.0,0.197509,-0.08412043297608562,0.0,0.0,0.25979246867898165,0.0,-0.13079128135887297
530,0.5206,0.000358198,546.562,0.000465271,-1.27161e-17,-4.58217e-17,1.03671e-16,-0.0880221,0.231344,-0.140416,0.0,0.0,0.0,0.197856,-0.08425936136841827,0.0,0.0,0.2602927055795019,0.0,-0.1310033424137207
531,0.5216,0.00035763,546.805,0.000464542,-8.78202e-18,7.26194e-16,-8.96037e-17,-0.0881738,0.23174,-0.140659,0.0,0.0,0.0,0.198204,-0.08439826868691214,0.0,0.0,0.260791880320987,0.0,-0.1312144829469004
532,0.5226,0.000357064,547.047,0.000463814,-9.78033e-17,-6.10594e-17,1.03399e-16,-0.0883255,0.232137,-0.140903,0.0,0.0,0.0,0.198551,-0.0845371549347641,0.0,0.0,0.2612925140666975,0.0,-0.13142644075315735
533,0.5236,0.000356499,547.288,0.000463088,-8.92942e-17,-2.57942e-16,1.0046e-16,-0.088477,0.232533,-0.141146,0.0,0.0,0.0,0.198898,-0.08467583705035597,0.0,0.0,0.2617920848107469,0.0,-0.13163747848593133
534,0.5246,0.000355935,547.529,0.000462363,-8.12427e-17,3.2253e-16,2.87945e-16,-0.0886285,0.232929,-0.14139,0.0,0.0,0.0,0.199245,-0.08481449815719877,0.0,0.0,0.2622918534239864,0.0,-0.13184933309386748
535,0.5256,0.000355372,547.77,0.000461641,1.91327e-17,3.15005e-16,2.7965e-16,-0.08878,0.233326,-0.141633,0.0,0.0,0.0,0.199592,-0.08495313825847506,0.0,0.0,0.2627930827772391,0.0,-0.13206026807628746
536,0.5266,0.000354811,548.011,0.000460919,-7.13929e-17,1.08279e-15,8.12505e-17,-0.0889314,0.233721,-0.141876,0.0,0.0,0.0,0.199939,-0.08509166586653827,0.0,0.0,0.2632919845715538,0.0,-0.13227115180773374
537,0.5276,0.000354251,548.251,0.0004602,-6.43056e-17,1.06662e-15,7.89493e-17,-0.0890827,0.234117,-0.142119,0.0,0.0,0.0,0.200285,-0.08523008102612173,0.0,0.0,0.26379234726271816,0.0,-0.13248198430065916
538,0.5286,0.000353693,548.491,0.000459482,-5.75981e-17,2.75339e-16,7.67152e-17,-0.089234,0.234513,-0.142362,0.0,0.0,0.0,0.200632,-0.08536847524507585,0.0,0.0,0.264292908136746,0.0,-0.13269276556751297
539,0.5296,0.000353135,548.731,0.000458766,4.15232e-17,-5.6972e-15,7.4546e-17,-0.0893852,0.234908,-0.142605,0.0,0.0,0.0,0.200978,-0.08550675707724886,0.0,0.0,0.2647924024790982,0.0,-0.13290349562074166
540,0.5306,0.000352579,548.97,0.000458051,-5.0205e-17,5.6528e-16,2.62804e-16,-0.0895363,0.235303,-0.142848,0.0,0.0,0.0,0.201324,-0.08564492656728662,0.0,0.0,0.26529209416068733,0.0,-0.13311417447278862
541,0.5316,0.000352024,549.209,0.000457338,4.85265e-17,-1.29267e-14,6.48903e-17,-0.0896874,0.235698,-0.143091,0.0,0.0,0.0,0.20167,-0.08578307518149164,0.0,0.0,0.26579198325947817,0.0,-0.1333248021360942
542,0.5326,0.000351471,549.447,0.000456627,4.92062e-17,-1.51918e-14,6.30602e-17,-0.0898385,0.236093,-0.143333,0.0,0.0,0.0,0.202016,-0.08592120292301808,0.0,0.0,0.2662920698534659,0.0,-0.13353451215804113
543,0.5336,0.000350919,549.685,0.000455917,-4.29381e-17,1.60678e-14,2.51661e-16,-0.0899894,0.236488,-0.143576,0.0,0.0,0.0,0.202362,-0.08605912700686313,0.0,0.0,0.26679235402067625,0.0,-0.13374503769169843
544,0.5346,0.000350368,549.923,0.000455209,-3.73806e-17,-1.72784e-15,2.44448e-16,-0.0901403,0.236883,-0.143818,0.0,0.0,0.0,0.202708,-0.08619703027953418,0.0,0.0,0.2672928358391664,0.0,-0.13395464602894525
545,0.5356,0.000349818,550.161,0.000454502,6.06781e-17,8.87796e-15,4.70567e-17,-0.0902912,0.237277,-0.144061,0.0,0.0,0.0,0.203053,-0.08633491274417138,0.0,0.0,0.2677922475941421,0.0,-0.1341650694824752
546,0.5366,0.00034927,550.398,0.000453797,-3.20799e-17,-3.35588e-16,4.57343e-17,-0.090442,0.237671,-0.144303,0.0,0.0,0.0,0.203399,-0.08647268305118727,0.0,0.0,0.26829185615611784,0.0,-0.13437457618432702
547,0.5376,0.000348722,550.634,0.000453094,-2.71027e-17,4.39533e-16,4.44501e-17,-0.0905927,0.238066,-0.144545,0.0,0.0,0.0,0.203744,-0.08661034124504607,0.0,0.0,0.2687929303949468,0.0,-0.13458403219169135
548,0.5386,0.000348176,550.871,0.000452392,-1.15199e-16,6.24489e-16,4.3203e-17,-0.0907434,0.23846,-0.144787,0.0,0.0,0.0,0.204089,-0.08674797869537809,0.0,0.0,0.26929293330362714,0.0,-0.1347934375168346
549,0.5396,0.000347632,551.107,0.000451692,-1.29947e-17,-1.24812e-14,4.19919e-17,-0.090894,0.238853,-0.145029,0.0,0.0,0.0,0.204434,-0.08688550409386409,0.0,0.0,0.2697918634597696,0.0,-0.1350027921720206
550,0.5406,0.000347088,551.343,0.000450993,8.37901e-17,-1.45585e-14,2.31225e-16,-0.0910446,0.239247,-0.145271,0.0,0.0,0.0,0.204779,-0.08702300878258462,0.0,0.0,0.2702922600256228,0.0,-0.1352120961695098
551,0.5416,0.000346546,551.578,0.000450296,-1.0194e-17,2.82502e-15,3.42106e-17,-0.0911951,0.239641,-0.145513,0.0,0.0,0.0,0.205123,-0.08716040148070303,0.0,0.0,0.27079285378656803,0.0,-0.13542134952155993
552,0.5426,0.000346005,551.813,0.0004496,-9.92016e-17,-2.41696e-15,2.23672e-16,-0.0913455,0.240034,-0.145754,0.0,0.0,0.0,0.205468,-0.08729768223254897,0.0,0.0,0.27129237352730584,0.0,-0.13562968787054575
553,0.5436,0.000345465,552.048,0.000448906,2.15704e-18,1.09518e-15,2.17293e-16,-0.0914959,0.240427,-0.145996,0.0,0.0,0.0,0.205812,-0.08743494233892246,0.0,0.0,0.27179208961788226,0.0,-0.13583884017763126
554,0.5446,0.000344927,552.283,0.000448214,5.3248e-18,-2.96452e-15,2.11097e-16,-0.0916462,0.24082,-0.146238,0.0,0.0,0.0,0.206157,-0.08757209056014192,0.0,0.0,0.27229200213547755,0.0,-0.13604794187598224
555,0.5456,0.000344389,552.517,0.000447523,-8.45111e-17,-1.23478e-14,1.46485e-17,-0.0917965,0.241213,-0.146479,0.0,0.0,0.0,0.206501,-0.08770921816953281,0.0,0.0,0.27279211115730284,0.0,-0.13625612923440578
556,0.5466,0.000343853,552.75,0.000446834,-7.67648e-17,1.30936e-14,1.42414e-17,-0.0919467,0.241606,-0.14672,0.0,0.0,0.0,0.206845,-0.08784623395482061,0.0,0.0,0.27329241676059945,0.0,-0.1364642664257214
557,0.5476,0.000343319,552.984,0.000446146,-6.94277e-17,1.49843e-16,1.3846e-17,-0.0920968,0.241999,-0.146962,0.0,0.0,0.0,0.207189,-0.08798313796020141,0.0,0.0,0.2737929190226389,0.0,-0.1366732167892326
558,0.5486,0.000342785,553.217,0.00044546,3.03711e-17,1.44096e-16,1.34619e-17,-0.0922469,0.242391,-0.147203,0.0,0.0,0.0,0.207533,-0.08812002141783304,0.0,0.0,0.2742923437277427,0.0,-0.13688125347455893
559,0.5496,0.000342252,553.45,0.000444775,3.20621e-17,7.19972e-16,1.30887e-17,-0.092397,0.242783,-0.147444,0.0,0.0,0.0,0.207876,-0.0882568843307997,0.0,0.0,0.27479196424570773,0.0,-0.13708924002908507
560,0.5506,0.000341721,553.682,0.000444092,-5.91914e-17,-1.46875e-14,1.27263e-17,-0.0925469,0.243176,-0.147685,0.0,0.0,0.0,0.20822,-0.08839354438091185,0.0,0.0,0.27529305594572584,0.0,-0.13729717646489115
561,0.5516,0.000341191,553.914,0.00044341,-1.45647e-16,-1.83353e-16,2.02831e-16,-0.0926968,0.243568,-0.147925,0.0,0.0,0.0,0.208563,-0.08853018394721779,0.0,0.0,0.27579306881977717,0.0,-0.1375042002986857
562,0.5526,0.000340662,554.146,0.00044273,-4.18318e-17,-1.48057e-14,6.61441e-18,-0.0928467,0.243959,-0.148166,0.0,0.0,0.0,0.208907,-0.08866680303278784,0.0,0.0,0.27629200144465726,0.0,-0.13771203674111654
563,0.5536,0.000340135,554.378,0.000442051,-3.63362e-17,8.72336e-17,1.96898e-16,-0.0929965,0.244351,-0.148407,0.0,0.0,0.0,0.20925,-0.0888033105210273,0.0,0.0,0.2767924059821052,0.0,-0.13791982310099982
564,0.5546,0.000339608,554.609,0.000441374,-3.11289e-17,-2.21751e-15,1.91316e-16,-0.0931462,0.244743,-0.148647,0.0,0.0,0.0,0.209593,-0.08893970645595184,0.0,0.0,0.27729300671658375,0.0,-0.1381266975175326
565,0.5556,0.000339083,554.84,0.000440698,6.66815e-17,-1.21921e-14,-4.58098e-18,-0.0932959,0.245134,-0.148888,0.0,0.0,0.0,0.209936,-0.08907608197393324,0.0,0.0,0.27779252593185255,0.0,-0.13833438395620978
566,0.5566,0.000338559,555.07,0.000440024,6.23769e-16,1.44116e-14,1.86026e-16,-0.0934455,0.245525,-0.149128,0.0,0.0,0.0,0.210278,-0.08921234599926675,0.0,0.0,0.27829224049732315,0.0,-0.1385411588900758
567,0.5576,0.000338036,555.3,0.000439352,-5.57865e-17,8.71331e-16,1.80757e-16,-0.0935951,0.245916,-0.149369,0.0,0.0,0.0,0.210621,-0.08934858964102677,0.0,0.0,0.278792150489392,0.0,-0.13874874545559734
568,0.5586,0.000337514,555.53,0.00043868,4.33055e-17,1.35665e-14,1.75639e-16,-0.0937446,0.246307,-0.149609,0.0,0.0,0.0,0.210963,-0.08948472185073919,0.0,0.0,0.27929225598448637,0.0,-0.1389554209546361
569,0.5596,0.000336994,555.76,0.000438011,-1.41455e-16,3.57118e-17,-1.98247e-17,-0.093894,0.246698,-0.149849,0.0,0.0,0.0,0.211306,-0.08962074267228626,0.0,0.0,0.2797925570590625,0.0,-0.13916204685750677
570,0.5606,0.000336474,555.989,0.000437343,-1.30777e-16,-1.49782e-14,-1.92753e-17,-0.0940434,0.247089,-0.150089,0.0,0.0,0.0,0.211648,-0.08975674317384064,0.0,0.0,0.2802930537896071,0.0,-0.1393686231761112
571,0.5616,0.000335956,556.218,0.000436676,-1.20657e-16,3.04176e-16,1.71758e-16,-0.0941928,0.247479,-0.150329,0.0,0.0,0.0,0.21199,-0.08989272335843768,0.0,0.0,0.2807924654595306,0.0,-0.1395751499223481
572,0.5626,0.000335439,556.447,0.000436011,-1.11065e-16,-1.49068e-14,1.66903e-16,-0.094342,0.247869,-0.150569,0.0,0.0,0.0,0.212332,-0.09002850123483119,0.0,0.0,0.28129207193799055,0.0,-0.13978162710811337
573,0.5636,0.000334923,556.675,0.000435347,-1.01975e-16,5.68411e-16,-2.83218e-17,-0.0944912,0.248259,-0.150808,0.0,0.0,0.0,0.212674,-0.09016425885467672,0.0,0.0,0.2817918733009772,0.0,-0.13998719473292476
574,0.5646,0.000334408,556.903,0.000434684,-9.33589e-17,7.51379e-16,1.62972e-16,-0.0946404,0.248649,-0.151048,0.0,0.0,0.0,0.213015,-0.09029999622099627,0.0,0.0,0.28229186962451025,0.0,-0.1401935730398014
575,0.5656,0.000333894,557.131,0.000434024,-8.51917e-17,-1.50467e-14,1.5837e-16,-0.0947895,0.249039,-0.151287,0.0,0.0,0.0,0.213357,-0.09043562238037828,0.0,0.0,0.28279206098463905,0.0,-0.14039904222129973
576,0.5666,0.000333382,557.358,0.000433364,-7.74498e-17,-1.28615e-14,1.53898e-16,-0.0949385,0.249429,-0.151527,0.0,0.0,0.0,0.213698,-0.09057113737652567,0.0,0.0,0.283292447457443,0.0,-0.14060532169663942
577,0.5676,0.000332871,557.585,0.000432706,-7.01107e-17,1.35564e-14,1.49552e-16,-0.0950875,0.249819,-0.151766,0.0,0.0,0.0,0.21404,-0.09070663218244279,0.0,0.0,0.2837930291190305,0.0,-0.14081069248196754
578,0.5686,0.00033236,557.812,0.00043205,-6.3153e-17,4.13086e-16,1.45329e-16,-0.0952364,0.250208,-0.152006,0.0,0.0,0.0,0.214381,-0.09084201588534402,0.0,0.0,0.2842925217523762,0.0,-0.1410168731730992
579,0.5696,0.000331851,558.038,0.000431394,3.63729e-17,-1.42186e-14,1.41225e-16,-0.0953853,0.250597,-0.152245,0.0,0.0,0.0,0.214722,-0.09097737943111261,0.0,0.0,0.2847922087261532,0.0,-0.14122214560937763
580,0.5706,0.000331343,558.264,0.000430741,-5.51264e-17,8.61345e-16,-5.33003e-17,-0.0955341,0.250986,-0.152484,0.0,0.0,0.0,0.215063,-0.09111263193401753,0.0,0.0,0.28529209011597456,0.0,-0.14142736899140596
581,0.5716,0.000330837,558.49,0.000430088,4.39882e-17,4.59443e-16,1.38702e-16,-0.0956829,0.251375,-0.152723,0.0,0.0,0.0,0.215404,-0.09124786431284726,0.0,0.0,0.2857921659974825,0.0,-0.1416325433309068
582,0.5726,0.000330331,558.716,0.000429438,-4.79086e-17,-1.47548e-14,-5.57564e-17,-0.0958316,0.251764,-0.152962,0.0,0.0,0.0,0.215744,-0.09138298570889913,0.0,0.0,0.2862924364463495,0.0,-0.1418376686395999
583,0.5736,0.000329826,558.941,0.000428788,-4.21072e-17,-1.1604e-14,-5.42299e-17,-0.0959802,0.252153,-0.153201,0.0,0.0,0.0,0.216085,-0.09151799616569745,0.0,0.0,0.28679290153827663,0.0,-0.1420427449292022
584,0.5746,0.000329323,559.166,0.00042814,5.63425e-17,1.38317e-14,1.37807e-16,-0.0961288,0.252541,-0.153439,0.0,0.0,0.0,0.216425,-0.09165298656143239,0.0,0.0,0.28729227405607705,0.0,-0.14224691445877125
585,0.5756,0.00032882,559.39,0.000427494,-3.61957e-17,1.66656e-14,-5.66306e-17,-0.0962773,0.252929,-0.153678,0.0,0.0,0.0,0.216765,-0.09178786607787603,0.0,0.0,0.2877918403680082,0.0,-0.14245189295031024
586,0.5766,0.000328319,559.615,0.000426849,6.19539e-17,7.12937e-15,1.35478e-16,-0.0964258,0.253318,-0.153916,0.0,0.0,0.0,0.217106,-0.09192272556619863,0.0,0.0,0.28829288884152104,0.0,-0.14265596511423717
587,0.5776,0.000327819,559.839,0.000426205,-3.08763e-17,8.42392e-16,-5.88987e-17,-0.0965742,0.253706,-0.154155,0.0,0.0,0.0,0.217446,-0.09205747423512611,0.0,0.0,0.2887928434673168,0.0,-0.14286084585435121
588,0.5786,0.00032732,560.062,0.000425562,-1.18922e-16,4.40684e-16,-5.72924e-17,-0.0967225,0.254094,-0.154393,0.0,0.0,0.0,0.217785,-0.09219211212805045,0.0,0.0,0.28929299211314485,0.0,-0.14306482069906856
589,0.5796,0.000326822,560.286,0.000424921,-1.6501e-17,6.2499e-16,1.34843e-16,-0.0968708,0.254481,-0.154631,0.0,0.0,0.0,0.218125,-0.09232673005565584,0.0,0.0,0.2897920450616098,0.0,-0.1432687470035493
590,0.5806,0.000326325,560.509,0.000424282,-1.23208e-17,1.0012e-15,1.31058e-16,-0.097019,0.254869,-0.15487,0.0,0.0,0.0,0.218465,-0.09246123726703104,0.0,0.0,0.29029258147287806,0.0,-0.14347348130629178
591,0.5816,0.00032583,560.731,0.000423644,-8.35526e-18,-1.49957e-14,3.1796e-16,-0.0971672,0.255256,-0.155108,0.0,0.0,0.0,0.218804,-0.09259572454591458,0.0,0.0,0.2907920213372883,0.0,-0.1436773103611212
592,0.5826,0.000325335,560.954,0.000423007,-9.75712e-17,4.80286e-16,-7.20839e-17,-0.0973153,0.255644,-0.155346,0.0,0.0,0.0,0.219144,-0.09273010116827485,0.0,0.0,0.2912929458146316,0.0,-0.14388109091040802
593,0.5836,0.000324841,561.176,0.000422371,3.75685e-18,1.33758e-14,-7.01258e-17,-0.0974634,0.256031,-0.155584,0.0,0.0,0.0,0.219483,-0.0928644578909309,0.0,0.0,0.29179277289496364,0.0,-0.14408482296569503
594,0.5846,0.000324349,561.398,0.000421737,-8.60847e-17,-1.24775e-14,1.22372e-16,-0.0976114,0.256418,-0.155821,0.0,0.0,0.0,0.219822,-0.09299870401670474,0.0,0.0,0.29229279344580994,0.0,-0.14428765082660122
595,0.5856,0.000323858,561.62,0.000421105,1.46579e-17,1.41319e-14,5.00135e-16,-0.0977594,0.256805,-0.156059,0.0,0.0,0.0,0.220161,-0.09313293027552205,0.0,0.0,0.29279300754205817,0.0,-0.1444912861321419
596,0.5866,0.000323367,561.841,0.000420473,1.72468e-17,-5.56767e-15,1.05033e-16,-0.0979073,0.257191,-0.156297,0.0,0.0,0.0,0.2205,-0.09326704599703228,0.0,0.0,0.29329212196585597,0.0,-0.1446948729782468
597,0.5876,0.000322878,562.062,0.000419843,-7.32926e-17,-2.18938e-15,1.02074e-16,-0.0980551,0.257578,-0.156534,0.0,0.0,0.0,0.220838,-0.09340105122440368,0.0,0.0,0.29379272287708513,0.0,-0.14489755627443168
598,0.5886,0.00032239,562.282,0.000419215,2.68e-17,-4.17714e-15,2.89808e-16,-0.0982029,0.257964,-0.156772,0.0,0.0,0.0,0.221177,-0.09353503664726603,0.0,0.0,0.29429222326548876,0.0,-0.14510104643974808
599,0.5896,0.000321903,562.503,0.000418588,2.87724e-17,-1.12259e-14,2.81742e-16,-0.0983506,0.25835,-0.157009,0.0,0.0,0.0,0.221515,-0.093668911635442,0.0,0.0,0.29479191649825887,0.0,-0.14530363348422892
600,0.5906,0.000321417,562.723,0.000417962,3.0645e-17,-2.16323e-15,2.739e-16,-0.0984983,0.258737,-0.157246,0.0,0.0,0.0,0.221854,-0.09380276685174238,0.0,0.0,0.29529309794229786,0.0,-0.14550617252126918
601,0.5916,0.000320932,562.943,0.000417337,3.24228e-17,3.06441e-15,2.66276e-16,-0.0986459,0.259122,-0.157483,0.0,0.0,0.0,0.222192,-0.09393651169274297,0.0,0.0,0.29579188179473626,0.0,-0.14570866356224543
602,0.5926,0.000320448,563.162,0.000416714,3.41108e-17,3.11605e-16,-1.2239e-16,-0.0987934,0.259508,-0.15772,0.0,0.0,0.0,0.22253,-0.09407014620148091,0.0,0.0,0.2962921540074346,0.0,-0.14591110661853146
603,0.5936,0.000319965,563.382,0.000416092,3.57137e-17,6.9111e-16,-1.19092e-16,-0.0989409,0.259894,-0.157957,0.0,0.0,0.0,0.222868,-0.09420376100058259,0.0,0.0,0.296792619362481,0.0,-0.14611350170149817
604,0.5946,0.000319483,563.601,0.000415472,3.72358e-17,1.06658e-15,-1.15884e-16,-0.0990883,0.260279,-0.158194,0.0,0.0,0.0,0.223206,-0.09433726552668575,0.0,0.0,0.2972919806418137,0.0,-0.14631584882251392
605,0.5956,0.000319002,563.819,0.000414852,1.31707e-16,6.62257e-16,2.68511e-16,-0.0992357,0.260665,-0.158431,0.0,0.0,0.0,0.223544,-0.0944707503756721,0.0,0.0,0.2977928320044356,0.0,-0.14651814799294438
606,0.5966,0.000318522,564.038,0.000414234,-5.77126e-17,8.44078e-16,-1.20225e-16,-0.099383,0.26105,-0.158668,0.0,0.0,0.0,0.223881,-0.09460412501085869,0.0,0.0,0.2982925784397732,0.0,-0.14672039922415248
607,0.5976,0.000318044,564.256,0.000413618,4.15937e-17,6.36053e-16,2.64298e-16,-0.0995303,0.261435,-0.158904,0.0,0.0,0.0,0.224219,-0.09473748000140847,0.0,0.0,0.2987925173145307,0.0,-0.1469217494496744
608,0.5986,0.000317566,564.473,0.000413003,4.28208e-17,-1.53593e-14,2.5697e-16,-0.0996775,0.26182,-0.159141,0.0,0.0,0.0,0.224556,-0.09487072483729175,0.0,0.0,0.29929264870281136,0.0,-0.14712390503867134
609,0.5996,0.000317089,564.691,0.000412389,-4.90533e-17,7.02389e-16,2.49844e-16,-0.0998247,0.262205,-0.159377,0.0,0.0,0.0,0.224893,-0.09500395006097861,0.0,0.0,0.2997929726787474,0.0,-0.14732516004805696
610,0.6006,0.000316614,564.908,0.000411776,-4.32244e-17,1.08127e-16,5.22563e-17,-0.0999718,0.262589,-0.159614,0.0,0.0,0.0,0.22523,-0.09513706518906695,0.0,0.0,0.30029218902365984,0.0,-0.1475272200400708
611,0.6016,0.000316139,565.125,0.000411165,5.53562e-17,2.95971e-16,2.41403e-16,-0.100119,0.262974,-0.15985,0.0,0.0,0.0,0.225567,-0.0952702512103395,0.0,0.0,0.30079289789670716,0.0,-0.14772837987834675
612,0.6026,0.000315666,565.342,0.000410555,5.58947e-17,6.75677e-16,2.34709e-16,-0.100266,0.263358,-0.160086,0.0,0.0,0.0,0.225904,-0.09540323670873796,0.0,0.0,0.3012924982866352,0.0,-0.14792949224850238
613,0.6036,0.000315193,565.558,0.000409946,5.64071e-17,6.63497e-16,3.75289e-17,-0.100413,0.263742,-0.160322,0.0,0.0,0.0,0.22624,-0.09553620265970497,0.0,0.0,0.3017922905599524,0.0,-0.14813055716173873
614,0.6046,0.000314722,565.774,0.000409339,-3.61631e-17,6.95923e-17,3.64099e-17,-0.10056,0.264126,-0.160558,0.0,0.0,0.0,0.226577,-0.09566914906611368,0.0,0.0,0.3022922747903558,0.0,-0.1483315746292544
615,0.6056,0.000314251,565.99,0.000408733,-3.09938e-17,1.03348e-15,2.25999e-16,-0.100706,0.26451,-0.160794,0.0,0.0,0.0,0.226913,-0.09580117173246094,0.0,0.0,0.3027924510515714,0.0,-0.1485325446622452
616,0.6066,0.000313782,566.206,0.000408128,-2.60854e-17,1.40525e-15,2.90541e-17,-0.100853,0.264894,-0.16103,0.0,0.0,0.0,0.22725,-0.09593407919127861,0.0,0.0,0.30329281941735275,0.0,-0.1487334672719045
617,0.6076,0.000313313,566.421,0.000407524,7.1644e-17,4.15503e-16,2.18849e-16,-0.101,0.265277,-0.161266,0.0,0.0,0.0,0.227586,-0.09606696711413587,0.0,0.0,0.3037920761687545,0.0,-0.1489343424694226
618,0.6086,0.000312846,566.636,0.000406922,-2.16975e-17,2.12081e-16,2.12785e-16,-0.101147,0.265661,-0.161501,0.0,0.0,0.0,0.227922,-0.09619983550390421,0.0,0.0,0.30429282846429095,0.0,-0.14913431940073263
619,0.6096,0.000312379,566.85,0.000406321,-1.10335e-16,3.98733e-16,2.06887e-16,-0.101293,0.266044,-0.161737,0.0,0.0,0.0,0.228258,-0.09633178069568726,0.0,0.0,0.3047924682925123,0.0,-0.1493351000083104
620,0.6106,0.000311914,567.065,0.000405721,8.47269e-17,5.83355e-16,1.04524e-17,-0.10144,0.266427,-0.161972,0.0,0.0,0.0,0.228593,-0.09646461016072017,0.0,0.0,0.30529229951943826,0.0,-0.14953498277266386
621,0.6116,0.000311449,567.279,0.000405123,8.38098e-17,-1.50252e-14,2.00759e-16,-0.101586,0.26681,-0.162208,0.0,0.0,0.0,0.228929,-0.09659651669822511,0.0,0.0,0.3057923222183887,0.0,-0.14973566883484268
622,0.6126,0.000310986,567.493,0.000404526,-1.01457e-17,3.72171e-15,1.95193e-16,-0.101733,0.267193,-0.162443,0.0,0.0,0.0,0.229265,-0.09672930724992579,0.0,0.0,0.3062925364627114,0.0,-0.14993545747658166
623,0.6136,0.000310523,567.706,0.00040393,-6.57917e-16,1.46461e-14,-9.29761e-19,-0.101879,0.267576,-0.162678,0.0,0.0,0.0,0.2296,-0.09686117514447679,0.0,0.0,0.30679294232578247,0.0,-0.15013519917350604
624,0.6146,0.000310062,567.92,0.000403335,3.01339e-17,1.67005e-14,1.89691e-16,-0.102025,0.267958,-0.162913,0.0,0.0,0.0,0.229935,-0.09699302378772057,0.0,0.0,0.30729223258811933,0.0,-0.15033489393664656
625,0.6156,0.000309601,568.133,0.000402742,-6.11111e-17,-2.46256e-15,1.84431e-16,-0.102172,0.268341,-0.163148,0.0,0.0,0.0,0.23027,-0.0971257560571629,0.0,0.0,0.30779302140813813,0.0,-0.1505345417770314
626,0.6166,0.000309142,568.345,0.000402149,-5.4681e-17,1.43722e-15,-1.14074e-17,-0.102318,0.268723,-0.163383,0.0,0.0,0.0,0.230606,-0.09725756607441316,0.0,0.0,0.30829269377366164,0.0,-0.15073414270568608
627,0.6176,0.000308683,568.558,0.000401559,4.45302e-17,1.0289e-15,-1.12214e-17,-0.102464,0.269105,-0.163618,0.0,0.0,0.0,0.23094,-0.09738935684880567,0.0,0.0,0.30879255705049036,0.0,-0.15093369673363366
628,0.6186,0.000308226,568.77,0.000400969,4.56679e-17,1.01282e-15,1.79687e-16,-0.10261,0.269487,-0.163853,0.0,0.0,0.0,0.231275,-0.09752112838314964,0.0,0.0,0.3092926113115668,0.0,-0.15113320387189433
629,0.6196,0.000307769,568.982,0.00040038,-4.63608e-17,2.21012e-16,1.74706e-16,-0.102756,0.269869,-0.164087,0.0,0.0,0.0,0.23161,-0.09765288068025402,0.0,0.0,0.30979285662986045,0.0,-0.15133181546372576
630,0.6206,0.000307314,569.194,0.000399793,-4.06742e-17,9.89184e-16,1.69859e-16,-0.102902,0.27025,-0.164322,0.0,0.0,0.0,0.231944,-0.09778461374292713,0.0,0.0,0.31029198278573134,0.0,-0.1515312290550771
631,0.6216,0.000306859,569.405,0.000399207,5.78457e-17,-1.25178e-14,1.65144e-16,-0.103048,0.270632,-0.164556,0.0,0.0,0.0,0.232279,-0.09791632757397695,0.0,0.0,0.3107926099368534,0.0,-0.15172974751991197
632,0.6226,0.000306405,569.616,0.000398622,-3.47939e-17,-1.49941e-14,1.60557e-16,-0.103194,0.271013,-0.164791,0.0,0.0,0.0,0.232613,-0.09804802217621134,0.0,0.0,0.3112921170713061,0.0,-0.15192906760821712
633,0.6236,0.000305952,569.827,0.000398039,-2.96869e-17,1.70501e-14,1.56093e-16,-0.10334,0.271394,-0.165025,0.0,0.0,0.0,0.232947,-0.09817969755243716,0.0,0.0,0.3117918145542362,0.0,-0.15212749298972184
634,0.6246,0.000305501,570.038,0.000397457,1.61421e-16,-1.63842e-14,3.42501e-16,-0.103485,0.271776,-0.165259,0.0,0.0,0.0,0.233281,-0.09831045201636435,0.0,0.0,0.3122930147505387,0.0,-0.15232587194511926
635,0.6256,0.00030505,570.248,0.000396876,-2.95153e-17,3.54121e-15,3.3314e-16,-0.103631,0.272157,-0.165493,0.0,0.0,0.0,0.233615,-0.09844208908063046,0.0,0.0,0.3127930936481391,0.0,-0.15252420448527182
636,0.6266,0.0003046,570.458,0.000396296,-2.46757e-17,1.33052e-14,1.33273e-16,-0.103777,0.272537,-0.165727,0.0,0.0,0.0,0.233949,-0.09857370692728806,0.0,0.0,0.31329204981939385,0.0,-0.1527224906210397
637,0.6276,0.000304151,570.668,0.000395717,-2.00766e-17,1.71211e-14,1.29539e-16,-0.103922,0.272918,-0.165961,0.0,0.0,0.0,0.234282,-0.09870440426399774,0.0,0.0,0.3137925094218754,0.0,-0.1529207303632799
638,0.6286,0.000303703,570.877,0.00039514,-1.08847e-16,8.36549e-16,-6.48599e-17,-0.104068,0.273298,-0.166195,0.0,0.0,0.0,0.234616,-0.09883598381543424,0.0,0.0,0.31429184544329125,0.0,-0.15311892372284752
639,0.6296,0.000303256,571.087,0.000394563,-6.91853e-18,8.22646e-16,1.27496e-16,-0.104213,0.273679,-0.166429,0.0,0.0,0.0,0.234949,-0.09896664312475212,0.0,0.0,0.3147926860404804,0.0,-0.15331707071059464
640,0.6306,0.00030281,571.296,0.000393988,-9.63465e-17,6.14904e-16,1.23921e-16,-0.104359,0.274059,-0.166663,0.0,0.0,0.0,0.235283,-0.09909818439210971,0.0,0.0,0.3152924022012329,0.0,-0.15351517133737114
641,0.6316,0.000302365,571.504,0.000393414,4.96525e-18,1.18524e-15,-7.03347e-17,-0.104504,0.274439,-0.166896,0.0,0.0,0.0,0.235616,-0.09922880568510029,0.0,0.0,0.31579230829021077,0.0,-0.15371237932682646
642,0.6326,0.000301921,571.713,0.000392842,8.09943e-18,3.91727e-16,1.22172e-16,-0.104649,0.274819,-0.16713,0.0,0.0,0.0,0.235949,-0.09935940803937637,0.0,0.0,0.31629240437960027,0.0,-0.15391038746220864
643,0.6336,0.000301478,571.921,0.00039227,2.05991e-14,-8.19337e-15,-8.35178e-16,-0.104795,0.275199,-0.167363,0.0,0.0,0.0,0.236282,-0.09949089196724237,0.0,0.0,0.3167926905416152,0.0,-0.15410750337703416
644,0.6346,0.000301035,572.129,0.0003917,-7.50952e-17,-1.21007e-14,1.40946e-16,-0.10494,0.275578,-0.167596,0.0,0.0,0.0,0.236614,-0.09962145632176267,0.0,0.0,0.31729184955598866,0.0,-0.15430457336920167
645,0.6356,0.000300594,572.337,0.000391131,-6.85318e-17,1.35401e-14,-5.37594e-17,-0.105085,0.275958,-0.16783,0.0,0.0,0.0,0.236947,-0.09975200174582399,0.0,0.0,0.31779251557933974,0.0,-0.15450244294738968
646,0.6366,0.000300153,572.544,0.000390563,-6.22932e-17,7.14307e-15,1.38324e-16,-0.10523,0.276337,-0.168063,0.0,0.0,0.0,0.23728,-0.09988252824217125,0.0,0.0,0.3182920535992195,0.0,-0.15469942092935696
647,0.6376,0.000299714,572.751,0.000389996,-5.63631e-17,7.98809e-17,3.25284e-16,-0.105375,0.276717,-0.168296,0.0,0.0,0.0,0.237612,-0.10001303581354848,0.0,0.0,0.31879309977233095,0.0,-0.15489635302080085
648,0.6386,0.000299275,572.958,0.000389431,-1.43901e-16,-1.51386e-14,-6.51493e-17,-0.10552,0.277096,-0.168529,0.0,0.0,0.0,0.237944,-0.1001435244626998,0.0,0.0,0.3192930170854913,0.0,-0.15509323923241258
649,0.6396,0.000298838,573.165,0.000388866,-4.0764e-17,-1.17964e-14,1.27239e-16,-0.105665,0.277474,-0.168762,0.0,0.0,0.0,0.238276,-0.10027399419236871,0.0,0.0,0.31979180411075836,0.0,-0.15529007957488106
650,0.6406,0.000298401,573.371,0.000388303,-3.5894e-17,2.18357e-14,1.23696e-16,-0.10581,0.277853,-0.168995,0.0,0.0,0.0,0.238609,-0.10040444500529833,0.0,0.0,0.32029210000459973,0.0,-0.1554868740588924
651,0.6416,0.000297965,573.577,0.000387741,-1.24449e-16,1.04032e-15,-7.0567e-17,-0.105955,0.278232,-0.169227,0.0,0.0,0.0,0.23894,-0.10053487690423135,0.0,0.0,0.3207925855465208,0.0,-0.1556827783783309
652,0.6426,0.00029753,573.783,0.00038718,2.0852e-14,-7.35825e-15,-4.50483e-16,-0.1061,0.27861,-0.16946,0.0,0.0,0.0,0.239272,-0.10066528989191015,0.0,0.0,0.3212919395158118,0.0,-0.15587948137417984
653,0.6436,0.000297096,573.989,0.000386621,-3.01135e-16,-1.2439e-14,3.24621e-16,-0.106244,0.278989,-0.169692,0.0,0.0,0.0,0.239604,-0.10079478476631099,0.0,0.0,0.3217928040687257,0.0,-0.15607529461928638
654,0.6446,0.000296663,574.194,0.000386062,-1.90796e-16,6.82346e-16,1.25023e-16,-0.106389,0.279367,-0.169925,0.0,0.0,0.0,0.239935,-0.10092516007008201,0.0,0.0,0.32229253619208453,0.0,-0.15627190616950493
655,0.6456,0.000296231,574.399,0.000385505,-8.58807e-17,-1.20478e-14,1.21549e-16,-0.106534,0.279745,-0.170157,0.0,0.0,0.0,0.240267,-0.10105551647080435,0.0,0.0,0.3227924572498926,0.0,-0.15646762838261907
656,0.6466,0.000295799,574.604,0.000384948,-7.93192e-17,-1.55019e-14,3.09e-16,-0.106678,0.280123,-0.17039,0.0,0.0,0.0,0.240598,-0.10118495515662351,0.0,0.0,0.32329256731358025,0.0,-0.15666414852971966
657,0.6476,0.000295369,574.809,0.000384393,-7.30801e-17,-1.15748e-14,-8.10222e-17,-0.106823,0.280501,-0.170622,0.0,0.0,0.0,0.240929,-0.10131527388978934,0.0,0.0,0.3237928664546055,0.0,-0.15685977975316134
658,0.6486,0.000294939,575.013,0.000383839,-1.60356e-16,1.38674e-14,1.118e-16,-0.106967,0.280878,-0.170854,0.0,0.0,0.0,0.24126,-0.10144467517323319,0.0,0.0,0.32429203045176,0.0,-0.15705536559542366
659,0.6496,0.000294511,575.217,0.000383286,2.07293e-14,-4.58508e-15,-8.45539e-16,-0.107111,0.281256,-0.171086,0.0,0.0,0.0,0.241591,-0.10157405782423379,0.0,0.0,0.3247927074612642,0.0,-0.15725090606703374
660,0.6506,0.000294083,575.421,0.000382734,-2.3195e-16,3.0687e-16,1.30898e-16,-0.107256,0.281633,-0.171318,0.0,0.0,0.0,0.241922,-0.10170432014160302,0.0,0.0,0.3252922484695404,0.0,-0.1574464011785165
661,0.6516,0.000293656,575.625,0.000382184,-3.23328e-17,-1.20322e-14,-6.35639e-17,-0.1074,0.28201,-0.17155,0.0,0.0,0.0,0.242253,-0.10183366540642003,0.0,0.0,0.3257919778402809,0.0,-0.15764185094039396
662,0.6526,0.00029323,575.828,0.000381634,-1.22142e-16,-1.54871e-14,3.1967e-16,-0.107544,0.282387,-0.171781,0.0,0.0,0.0,0.242583,-0.10196299204685999,0.0,0.0,0.3262918956445118,0.0,-0.15783641320002062
663,0.6536,0.000292805,576.031,0.000381086,2.07681e-14,-3.95376e-15,-6.43209e-16,-0.107688,0.282764,-0.172013,0.0,0.0,0.0,0.242914,-0.10209230006560444,0.0,0.0,0.3267920019532857,0.0,-0.15803177248960432
664,0.6546,0.000292381,576.234,0.000380539,-1.9564e-16,1.70768e-15,5.18769e-16,-0.107833,0.283141,-0.172245,0.0,0.0,0.0,0.243244,-0.10222248724329641,0.0,0.0,0.32729229683768235,0.0,-0.15822708646109007
665,0.6556,0.000291957,576.437,0.000379993,-1.84781e-16,9.08566e-16,-2.58513e-16,-0.107977,0.283518,-0.172476,0.0,0.0,0.0,0.243574,-0.1023517578974229,0.0,0.0,0.3277927803688079,0.0,-0.15842151354692457
666,0.6566,0.000291535,576.639,0.000379448,-3.60923e-16,1.2817e-15,-6.09901e-17,-0.108121,0.283894,-0.172708,0.0,0.0,0.0,0.243904,-0.10248100993791542,0.0,0.0,0.32829212432500743,0.0,-0.15861673710897284
667,0.6576,0.000291113,576.841,0.000378904,-3.42008e-16,-1.2426e-14,-5.9536e-17,-0.108265,0.284271,-0.172939,0.0,0.0,0.0,0.244234,-0.10261024336745406,0.0,0.0,0.3287929848621569,0.0,-0.1588110741959029
668,0.6586,0.000290693,577.043,0.000378361,-1.37535e-16,1.36079e-14,1.32755e-16,-0.108409,0.284647,-0.17317,0.0,0.0,0.0,0.244564,-0.10273945818871877,0.0,0.0,0.3292927049659573,0.0,-0.1590053663961506
669,0.6596,0.000290273,577.245,0.000377819,-3.15993e-16,1.70362e-14,1.29116e-16,-0.108552,0.285023,-0.173401,0.0,0.0,0.0,0.244894,-0.10286775727259467,0.0,0.0,0.3297926129998454,0.0,-0.1591996137200834
670,0.6606,0.000289854,577.446,0.000377279,-2.99278e-16,1.91636e-15,3.16455e-16,-0.108696,0.285399,-0.173632,0.0,0.0,0.0,0.245223,-0.10299693501452678,0.0,0.0,0.33029270903449603,0.0,-0.15939381617806658
671,0.6616,0.000289436,577.647,0.000376739,2.08846e-14,-6.68661e-15,-8.37324e-16,-0.10884,0.285775,-0.173863,0.0,0.0,0.0,0.245553,-0.10312609415620333,0.0,0.0,0.33079299314061084,0.0,-0.15958797378046297
672,0.6626,0.000289018,577.848,0.000376201,-3.65045e-16,-1.42721e-14,1.38933e-16,-0.108984,0.28615,-0.174094,0.0,0.0,0.0,0.245882,-0.10325523470030251,0.0,0.0,0.3312921340961186,0.0,-0.15978208653763304
673,0.6636,0.000288602,578.049,0.000375664,-2.53233e-16,-1.30755e-14,-2.46642e-16,-0.109127,0.286526,-0.174325,0.0,0.0,0.0,0.246211,-0.10338346003341048,0.0,0.0,0.3317927940567127,0.0,-0.15997615445993485
674,0.6646,0.000288187,578.249,0.000375128,-3.33369e-16,8.28166e-16,-4.94315e-17,-0.109271,0.286901,-0.174556,0.0,0.0,0.0,0.24654,-0.10351256351949156,0.0,0.0,0.3322923100078712,0.0,-0.1601701775577241
675,0.6656,0.000287772,578.449,0.000374592,-4.09623e-16,1.00796e-15,-4.82813e-17,-0.109414,0.287276,-0.174786,0.0,0.0,0.0,0.246869,-0.10364075205720946,0.0,0.0,0.33279201331263786,0.0,-0.16036331620508992
676,0.6666,0.000287358,578.649,0.000374058,-3.8892e-16,9.91896e-16,-4.71613e-17,-0.109558,0.287651,-0.175017,0.0,0.0,0.0,0.247198,-0.10376981849590661,0.0,0.0,0.3332919040412836,0.0,-0.1605572498788449
677,0.6676,0.000286945,578.849,0.000373526,-3.69223e-16,-1.19379e-14,1.44837e-16,-0.109701,0.288026,-0.175247,0.0,0.0,0.0,0.247527,-0.10389797024879299,0.0,0.0,0.33379198226410556,0.0,-0.16075029950981412
678,0.6686,0.000286533,579.048,0.000372994,-3.50482e-16,7.89898e-16,-4.99999e-17,-0.109845,0.288401,-0.175478,0.0,0.0,0.0,0.247855,-0.10402699965073725,0.0,0.0,0.3342922480514272,0.0,-0.16094414380074984
679,0.6696,0.000286122,579.247,0.000372463,-3.3265e-16,-2.813e-14,-4.88386e-17,-0.109988,0.288776,-0.175708,0.0,0.0,0.0,0.248184,-0.1041551146293479,0.0,0.0,0.3347927014735985,0.0,-0.16113710445634954
680,0.6706,0.000285711,579.446,0.000371933,-4.08963e-16,-2.84268e-14,1.4321e-16,-0.110131,0.28915,-0.175938,0.0,0.0,0.0,0.248512,-0.10428321128882645,0.0,0.0,0.33529200730832076,0.0,-0.16133002073610203
681,0.6716,0.000285301,579.645,0.000371405,-3.88312e-16,1.1558e-15,1.39334e-16,-0.110274,0.289525,-0.176168,0.0,0.0,0.0,0.24884,-0.10441128963179236,0.0,0.0,0.33579283571051755,0.0,-0.16152289265021236
682,0.6726,0.000284893,579.843,0.000370877,2.08074e-14,-2.13246e-14,-1.00999e-15,-0.110417,0.289899,-0.176398,0.0,0.0,0.0,0.249169,-0.10453934966086476,0.0,0.0,0.3362925156654004,0.0,-0.16171572020888347
683,0.6736,0.000284485,580.042,0.000370351,-5.32441e-16,1.78243e-15,1.61729e-16,-0.110561,0.290273,-0.176628,0.0,0.0,0.0,0.249497,-0.10466828671082318,0.0,0.0,0.33679238253553745,0.0,-0.1619085034223161
684,0.6746,0.000284078,580.24,0.000369825,-3.19792e-16,-1.21264e-14,-2.24474e-16,-0.110704,0.290647,-0.176858,0.0,0.0,0.0,0.249824,-0.10479630999194078,0.0,0.0,0.3372924363908478,0.0,-0.16210124230070821
685,0.6756,0.000283671,580.437,0.000369301,-3.97271e-16,7.97191e-16,-2.18772e-16,-0.110847,0.291021,-0.177088,0.0,0.0,0.0,0.250152,-0.10492431496703802,0.0,0.0,0.3377926773012774,0.0,-0.16229393685425597
686,0.6766,0.000283266,580.635,0.000368777,-3.77727e-16,-2.85123e-14,-2.2279e-17,-0.11099,0.291395,-0.177318,0.0,0.0,0.0,0.25048,-0.10505230163873258,0.0,0.0,0.33829310533679746,0.0,-0.16248658709315278
687,0.6776,0.000282861,580.832,0.000368255,-4.52428e-16,-1.5892e-14,-2.18274e-17,-0.111132,0.291768,-0.177547,0.0,0.0,0.0,0.250807,-0.1051793751894643,0.0,0.0,0.338792381774355,0.0,-0.16267835570636413
688,0.6786,0.000282457,581.029,0.000367734,-3.36933e-16,-1.23523e-14,-2.13876e-17,-0.111275,0.292141,-0.177777,0.0,0.0,0.0,0.251135,-0.10530732539015486,0.0,0.0,0.3392918444767601,0.0,-0.1628709175390921
689,0.6796,0.000282054,581.226,0.000367214,-4.13603e-16,5.73563e-16,-2.09593e-17,-0.111418,0.292515,-0.178006,0.0,0.0,0.0,0.251462,-0.10543525729527481,0.0,0.0,0.3397928333056657,0.0,-0.1630625981507079
690,0.6806,0.000281652,581.423,0.000366695,-3.93287e-16,-1.17712e-14,-2.11495e-16,-0.111561,0.292888,-0.178236,0.0,0.0,0.0,0.251789,-0.10556317090744027,0.0,0.0,0.34029266924609636,0.0,-0.16325507161783603
691,0.6816,0.000281251,581.619,0.000366176,-4.67263e-16,-1.56205e-14,-1.5188e-17,-0.111703,0.293261,-0.178465,0.0,0.0,0.0,0.252116,-0.10569017191988617,0.0,0.0,0.34079269166010806,0.0,-0.16344666426823984
692,0.6826,0.00028085,581.815,0.000365659,-4.4438e-16,1.74067e-14,1.76042e-16,-0.111846,0.293634,-0.178694,0.0,0.0,0.0,0.252443,-0.10581804908186665,0.0,0.0,0.34129290061726847,0.0,-0.16363821304894988
693,0.6836,0.000280451,582.011,0.000365143,-2.35955e-16,-7.46022e-15,-1.95952e-17,-0.111989,0.294006,-0.178923,0.0,0.0,0.0,0.25277,-0.10594590795872039,0.0,0.0,0.34179195439454557,0.0,-0.16382971797001133
694,0.6846,0.000280052,582.207,0.000364628,-4.10803e-16,7.5903e-16,-1.92138e-17,-0.112131,0.294379,-0.179152,0.0,0.0,0.0,0.253097,-0.10607285462636351,0.0,0.0,0.3422925361462277,0.0,-0.16402117904146685
695,0.6856,0.000279653,582.402,0.000364114,-3.90638e-16,-1.19762e-14,-1.88423e-17,-0.112274,0.294751,-0.179381,0.0,0.0,0.0,0.253423,-0.10620067706862946,0.0,0.0,0.3427919618570969,0.0,-0.16421259627335683
696,0.6866,0.000279256,582.597,0.000363602,-4.64771e-16,-1.11936e-14,1.72493e-16,-0.112416,0.295124,-0.17961,0.0,0.0,0.0,0.25375,-0.10632758756162752,0.0,0.0,0.34329291668113604,0.0,-0.16440396967571924
697,0.6876,0.00027886,582.792,0.00036309,-5.35367e-16,-1.56317e-14,1.67921e-16,-0.112558,0.295496,-0.179839,0.0,0.0,0.0,0.254076,-0.106454480034615,0.0,0.0,0.34379271460279126,0.0,-0.16459529925859018
698,0.6886,0.000278464,582.987,0.000362579,-5.09261e-16,1.01405e-15,-2.18495e-16,-0.112701,0.295868,-0.180067,0.0,0.0,0.0,0.254402,-0.10658224790834925,0.0,0.0,0.3442926984838597,0.0,-0.1647857498181704
699,0.6896,0.000278069,583.182,0.000362069,-2.97726e-16,-1.23065e-14,-2.20132e-17,-0.112843,0.29624,-0.180296,0.0,0.0,0.0,0.254728,-0.10670910422213487,0.0,0.0,0.34479286839353085,0.0,-0.16497699198339844
700,0.6906,0.000277675,583.376,0.00036156,-3.76304e-16,8.12779e-16,-2.1256e-16,-0.112985,0.296611,-0.180524,0.0,0.0,0.0,0.255054,-0.10683594252360284,0.0,0.0,0.3452918791084687,0.0,-0.1651673555269575
701,0.6916,0.000277282,583.57,0.000361052,-3.57796e-16,-1.15356e-14,-2.07219e-16,-0.113127,0.296983,-0.180753,0.0,0.0,0.0,0.25538,-0.10696276281531059,0.0,0.0,0.3457924207824761,0.0,-0.16535851031448334
702,0.6926,0.000276889,583.764,0.000360545,-1.08697e-15,-1.46123e-14,1.79972e-16,-0.113269,0.297354,-0.180981,0.0,0.0,0.0,0.255706,-0.1070895650998156,0.0,0.0,0.3462918024001487,0.0,-0.16554878688177865
703,0.6936,0.000276497,583.957,0.00036004,-3.81176e-16,1.6352e-15,-1.57669e-17,-0.113411,0.297726,-0.181209,0.0,0.0,0.0,0.256031,-0.1072163493796745,0.0,0.0,0.3467927161148159,0.0,-0.16573902007096197
704,0.6946,0.000276106,584.151,0.000359535,-3.62427e-16,1.03028e-15,-1.54844e-17,-0.113553,0.298097,-0.181438,0.0,0.0,0.0,0.256357,-0.10734311565744381,0.0,0.0,0.3472924689109058,0.0,-0.16593004396229538
705,0.6956,0.000275716,584.344,0.000359031,-3.44572e-16,-1.57573e-14,-2.06213e-16,-0.113695,0.298468,-0.181666,0.0,0.0,0.0,0.256682,-0.10746986393567981,0.0,0.0,0.34779240714968074,0.0,-0.1661201902347732
706,0.6966,0.000275327,584.537,0.000358528,-4.20929e-16,8.89702e-16,-1.00418e-17,-0.113837,0.298839,-0.181894,0.0,0.0,0.0,0.257007,-0.10759659421693801,0.0,0.0,0.3482925308999527,0.0,-0.16631029315884283
707,0.6976,0.000274938,584.729,0.000358026,-4.93667e-16,8.67764e-15,-9.90327e-18,-0.113979,0.29921,-0.182122,0.0,0.0,0.0,0.257332,-0.10772330650377393,0.0,0.0,0.3487928402305587,0.0,-0.16650035274438646
708,0.6986,0.00027455,584.922,0.000357525,-4.69593e-16,-1.59496e-14,-9.76829e-18,-0.114121,0.29958,-0.18235,0.0,0.0,0.0,0.257657,-0.10785000079874252,0.0,0.0,0.3492919859177017,0.0,-0.1666903690012843
709,0.6996,0.000274163,585.114,0.000357026,-3.53293e-16,-1.16353e-14,-9.63681e-18,-0.114262,0.299951,-0.182577,0.0,0.0,0.0,0.257982,-0.10797578508062966,0.0,0.0,0.3497926661149109,0.0,-0.16687950881933955
710,0.7006,0.000273777,585.306,0.000356527,-4.29249e-16,1.28314e-15,-9.50873e-18,-0.114404,0.300321,-0.182805,0.0,0.0,0.0,0.258307,-0.1081024435261857,0.0,0.0,0.3502921818060776,0.0,-0.16706943863850654
711,0.7016,0.000273391,585.498,0.000356029,-3.14862e-16,1.26389e-15,-2.00408e-16,-0.114546,0.300691,-0.183033,0.0,0.0,0.0,0.258632,-0.1082290839875194,0.0,0.0,0.35079188235224623,0.0,-0.16725932515861108
712,0.7026,0.000273007,585.689,0.000355532,-3.92646e-16,1.24488e-15,-4.38222e-18,-0.114687,0.301062,-0.18326,0.0,0.0,0.0,0.258956,-0.10835481482244502,0.0,0.0,0.35129311911426897,0.0,-0.16744833583827634
713,0.7036,0.000272623,585.881,0.000355036,-4.66757e-16,1.61426e-15,-1.95416e-16,-0.114829,0.301431,-0.183487,0.0,0.0,0.0,0.259281,-0.10848141944959899,0.0,0.0,0.3517918382832501,0.0,-0.1676373036173867
714,0.7046,0.000272239,586.072,0.000354541,-3.506e-16,1.39775e-15,-3.81583e-16,-0.11497,0.301801,-0.183715,0.0,0.0,0.0,0.259605,-0.10860711470773265,0.0,0.0,0.35229209380497917,0.0,-0.16782706067903486
715,0.7056,0.000271857,586.263,0.000354047,-3.33317e-16,7.95261e-16,1.01024e-17,-0.115112,0.302171,-0.183942,0.0,0.0,0.0,0.259929,-0.10873368351084645,0.0,0.0,0.3527925344554983,0.0,-0.1680159424973633
716,0.7066,0.000271475,586.454,0.000353554,-4.10244e-16,-1.54088e-14,-1.81302e-16,-0.115253,0.30254,-0.184169,0.0,0.0,0.0,0.260253,-0.10885934320225499,0.0,0.0,0.3532918070108335,0.0,-0.168204781444385
717,0.7076,0.000271094,586.644,0.000353062,-3.90153e-16,1.62313e-15,1.42491e-17,-0.115394,0.30291,-0.184396,0.0,0.0,0.0,0.260577,-0.10898498517689614,0.0,0.0,0.35379261762367764,0.0,-0.16839357752983064
718,0.7086,0.000270714,586.834,0.000352571,-2.77614e-16,-2.8089e-14,-1.77264e-16,-0.115536,0.303279,-0.184623,0.0,0.0,0.0,0.260901,-0.10911150032621275,0.0,0.0,0.3542922592777966,0.0,-0.16858233076342888
719,0.7096,0.000270335,587.024,0.000352081,2.0323e-16,1.87832e-15,-1.72864e-16,-0.115677,0.303648,-0.18485,0.0,0.0,0.0,0.261225,-0.10923710674920584,0.0,0.0,0.3547920853337061,0.0,-0.16877104115490582
720,0.7106,0.000269956,587.214,0.000351592,2.15839e-14,-6.5329e-15,-7.41737e-16,-0.115818,0.304017,-0.185077,0.0,0.0,0.0,0.261548,-0.10936269546294186,0.0,0.0,0.35529209585946275,0.0,-0.16895970871398558
721,0.7116,0.000269578,587.404,0.000351104,-5.40454e-16,-1.24051e-14,4.23332e-16,-0.115959,0.304386,-0.185304,0.0,0.0,0.0,0.261872,-0.1094882664699176,0.0,0.0,0.35579229092314857,0.0,-0.16914833345038993
722,0.7126,0.000269201,587.593,0.000350617,3.25887e-16,1.51861e-14,-1.60674e-16,-0.1161,0.304755,-0.18553,0.0,0.0,0.0,0.262195,-0.1096138197726294,0.0,0.0,0.3562926705928706,0.0,-0.16933608471033867
723,0.7136,0.000268825,587.782,0.00035013,2.12353e-14,1.00238e-14,-9.20951e-16,-0.116241,0.305123,-0.185757,0.0,0.0,0.0,0.262518,-0.1097393553735736,0.0,0.0,0.3567918781442043,0.0,-0.1695246240190882
724,0.7146,0.000268449,587.971,0.000349645,-4.9959e-16,1.18433e-15,5.76189e-17,-0.116382,0.305492,-0.185984,0.0,0.0,0.0,0.262841,-0.10986487327524597,0.0,0.0,0.3572926267296719,0.0,-0.169713120534272
725,0.7156,0.000268074,588.16,0.000349161,-5.69827e-16,1.36048e-15,-3.26058e-16,-0.116523,0.30586,-0.18621,0.0,0.0,0.0,0.263164,-0.10999037348014173,0.0,0.0,0.35779220233258147,0.0,-0.16990074416676215
726,0.7166,0.0002677,588.348,0.000348677,-4.49933e-16,-2.79625e-14,6.42583e-17,-0.116664,0.306228,-0.186436,0.0,0.0,0.0,0.263487,-0.11011585599075624,0.0,0.0,0.35829196181314416,0.0,-0.17008832540110264
727,0.7176,0.000267326,588.537,0.000348195,-5.22507e-16,-1.51579e-14,6.25603e-17,-0.116805,0.306596,-0.186663,0.0,0.0,0.0,0.26381,-0.11024132080958393,0.0,0.0,0.3587919052390398,0.0,-0.17027669397059508
728,0.7186,0.000266954,588.725,0.000347714,-4.98261e-16,1.28917e-15,6.09054e-17,-0.116945,0.306964,-0.186889,0.0,0.0,0.0,0.264133,-0.11036587830544242,0.0,0.0,0.3592920326779725,0.0,-0.17046419024988013
729,0.7196,0.000266582,588.913,0.000347233,-5.68583e-16,6.87742e-16,-3.22875e-16,-0.117086,0.307332,-0.187115,0.0,0.0,0.0,0.264455,-0.11049130787360895,0.0,0.0,0.35979234419767137,0.0,-0.17065164415979395
730,0.7206,0.00026621,589.1,0.000346753,-5.4219e-16,-1.53226e-14,-1.23719e-16,-0.117227,0.3077,-0.187341,0.0,0.0,0.0,0.264778,-0.11061671975745324,0.0,0.0,0.36029283986589067,0.0,-0.17083905570991098
731,0.7216,0.00026584,589.288,0.000346275,-4.23597e-16,2.09657e-15,-1.20672e-16,-0.117367,0.308067,-0.187567,0.0,0.0,0.0,0.2651,-0.11074122470113779,0.0,0.0,0.36079215895757044,0.0,-0.17102642490980347
732,0.7226,0.00026547,589.475,0.000345797,-4.97422e-16,-1.50924e-14,7.3392e-17,-0.117508,0.308435,-0.187793,0.0,0.0,0.0,0.265422,-0.11086660134919346,0.0,0.0,0.3612930226253295,0.0,-0.1712137517690414
733,0.7236,0.000265101,589.662,0.00034532,-3.80923e-16,-1.1759e-14,-1.1962e-16,-0.117648,0.308802,-0.188018,0.0,0.0,0.0,0.265744,-0.11099107131190389,0.0,0.0,0.36179270885144676,0.0,-0.17140020769781472
734,0.7246,0.000264733,589.849,0.000344844,-4.56748e-16,-1.5613e-14,-1.1668e-16,-0.117789,0.309169,-0.188244,0.0,0.0,0.0,0.266066,-0.11111641273407102,0.0,0.0,0.36229257849606444,0.0,-0.17158745009168763
735,0.7256,0.000264365,590.035,0.000344369,-4.35596e-16,4.69344e-15,-1.13813e-16,-0.117929,0.309536,-0.18847,0.0,0.0,0.0,0.266388,-0.11124084772563558,0.0,0.0,0.3627926316265093,0.0,-0.17177465017356086
736,0.7266,0.000263998,590.222,0.000343895,1.45277e-16,1.92339e-15,-3.02125e-16,-0.118069,0.309903,-0.188695,0.0,0.0,0.0,0.26671,-0.11136526529752078,0.0,0.0,0.3632928683101331,0.0,-0.17196097991438986
737,0.7276,0.000263632,590.408,0.000343422,-6.09236e-16,1.31553e-15,8.76168e-17,-0.11821,0.310269,-0.188921,0.0,0.0,0.0,0.267031,-0.11149055396205532,0.0,0.0,0.3637919248217052,0.0,-0.17214809558806166
738,0.7286,0.000263267,590.594,0.00034295,-4.87557e-16,1.29602e-15,8.53584e-17,-0.11835,0.310636,-0.189146,0.0,0.0,0.0,0.267353,-0.11161493657751442,0.0,0.0,0.3642925283132368,0.0,-0.17233434131312453
739,0.7296,0.000262902,590.78,0.000342479,-3.71535e-16,1.47085e-15,8.31568e-17,-0.11849,0.311002,-0.189371,0.0,0.0,0.0,0.267674,-0.1117393017806263,0.0,0.0,0.3647919507673334,0.0,-0.17252054513761328
740,0.7306,0.000262538,590.965,0.000342008,-5.41293e-16,-1.53247e-14,-1.10108e-16,-0.11863,0.311369,-0.189596,0.0,0.0,0.0,0.267995,-0.11186364957382833,0.0,0.0,0.3652929213357414,0.0,-0.17270670707095448
741,0.7316,0.000262175,591.151,0.000341539,-5.16245e-16,1.51206e-15,-1.07414e-16,-0.11877,0.311735,-0.189821,0.0,0.0,0.0,0.268316,-0.11198797995955789,0.0,0.0,0.3657927100006968,0.0,-0.17289282712257248
742,0.7326,0.000261812,591.336,0.00034107,-4.92362e-16,1.1023e-15,-1.04787e-16,-0.11891,0.312101,-0.190046,0.0,0.0,0.0,0.268637,-0.11211229294025193,0.0,0.0,0.3662926816217824,0.0,-0.17307890530188974
743,0.7336,0.00026145,591.521,0.000340602,-4.69591e-16,-1.45253e-14,8.89025e-17,-0.11905,0.312467,-0.190271,0.0,0.0,0.0,0.268958,-0.11223658851834672,0.0,0.0,0.3667928362659727,0.0,-0.1732649416183264
744,0.7346,0.000261089,591.705,0.000340136,-4.47877e-16,-1.1587e-14,8.66214e-17,-0.11919,0.312832,-0.190496,0.0,0.0,0.0,0.269279,-0.11236086669627876,0.0,0.0,0.3672918067077757,0.0,-0.17345093608130047
745,0.7356,0.000260729,591.89,0.00033967,-4.27172e-16,-1.94179e-15,-1.06737e-16,-0.11933,0.313198,-0.190721,0.0,0.0,0.0,0.2696,-0.11248512747648376,0.0,0.0,0.36779232709867493,0.0,-0.1736368887002281
746,0.7366,0.000260369,592.074,0.000339205,-5.00909e-16,-1.17441e-14,-2.95272e-16,-0.11947,0.313564,-0.190946,0.0,0.0,0.0,0.26992,-0.1126093708613971,0.0,0.0,0.36829303071356545,0.0,-0.17382279948452295
747,0.7376,0.00026001,592.258,0.000338741,2.17713e-14,-2.58074e-15,-1.05253e-15,-0.11961,0.313929,-0.19117,0.0,0.0,0.0,0.270241,-0.11273359685345419,0.0,0.0,0.36879254882628576,0.0,-0.1740078424518524
748,0.7386,0.000259651,592.442,0.000338278,-4.56455e-16,1.46286e-14,1.20524e-16,-0.119749,0.314294,-0.191395,0.0,0.0,0.0,0.270561,-0.11285691831245159,0.0,0.0,0.3692922492963955,0.0,-0.1741936697809422
749,0.7396,0.000259294,592.626,0.000337815,-5.29372e-16,1.86133e-15,1.17481e-16,-0.119889,0.314659,-0.191619,0.0,0.0,0.0,0.270881,-0.1129811096502914,0.0,0.0,0.3697921321904669,0.0,-0.17437862968262896
750,0.7406,0.000258937,592.809,0.000337354,-5.05437e-16,-1.82465e-15,1.14514e-16,-0.120028,0.315024,-0.191844,0.0,0.0,0.0,0.271201,-0.11310439670740102,0.0,0.0,0.37029219757509746,0.0,-0.1745643735939767
751,0.7416,0.000258581,592.993,0.000336893,2.15822e-14,9.67987e-15,-1.0353e-15,-0.120168,0.315389,-0.192068,0.0,0.0,0.0,0.271521,-0.1132285534006906,0.0,0.0,0.3707924455169078,0.0,-0.17474925046730883
752,0.7426,0.000258225,593.176,0.000336434,1.71192e-17,1.51229e-14,1.37342e-16,-0.120308,0.315754,-0.192292,0.0,0.0,0.0,0.271841,-0.11335269271325987,0.0,0.0,0.371292876082544,0.0,-0.17493408593285908
753,0.7436,0.00025787,593.359,0.000335975,-5.45655e-16,1.18612e-15,-4.39582e-16,-0.120447,0.316118,-0.192516,0.0,0.0,0.0,0.272161,-0.11347592812391327,0.0,0.0,0.37179211754587205,0.0,-0.17511887999990194
754,0.7446,0.000257516,593.541,0.000335517,-5.21511e-16,-1.4832e-14,-2.37533e-16,-0.120586,0.316483,-0.19274,0.0,0.0,0.0,0.272481,-0.11359914640603508,0.0,0.0,0.3722929130583974,0.0,-0.17530363267770954
755,0.7456,0.000257162,593.724,0.00033506,-6.85494e-16,-1.18919e-14,-4.04959e-17,-0.120726,0.316847,-0.192964,0.0,0.0,0.0,0.2728,-0.11372323383921523,0.0,0.0,0.37279251860144313,0.0,-0.17548834397555202
756,0.7466,0.000256809,593.906,0.000334604,-1.403e-15,1.53088e-14,-3.95135e-17,-0.120865,0.317211,-0.193188,0.0,0.0,0.0,0.27312,-0.11384641774823157,0.0,0.0,0.37329230603400854,0.0,-0.17567301390269752
757,0.7476,0.000256457,594.088,0.000334149,2.1758e-14,-3.35725e-15,-8.03246e-16,-0.121004,0.317575,-0.193412,0.0,0.0,0.0,0.273439,-0.11396958453587447,0.0,0.0,0.3737922754223133,0.0,-0.17585764246841196
758,0.7486,0.000256106,594.27,0.000333695,-5.6367e-16,1.48308e-14,-1.86649e-17,-0.121144,0.317939,-0.193636,0.0,0.0,0.0,0.273758,-0.1140936201113466,0.0,0.0,0.37429242683260133,0.0,-0.17604222968195937
759,0.7496,0.000255755,594.452,0.000333241,-7.26245e-16,-1.12483e-14,-2.09391e-16,-0.121283,0.318303,-0.193859,0.0,0.0,0.0,0.274077,-0.1142167525402491,0.0,0.0,0.37479276033114073,0.0,-0.17622595177896505
760,0.7506,0.000255405,594.633,0.000332788,2.15636e-14,2.37521e-14,-1.16013e-15,-0.121422,0.318666,-0.194083,0.0,0.0,0.0,0.274396,-0.11433986785493344,0.0,0.0,0.37529190069163554,0.0,-0.17641045650046627
761,0.7516,0.000255055,594.814,0.000332337,-7.91734e-19,2.18887e-16,2.06846e-16,-0.121561,0.31903,-0.194306,0.0,0.0,0.0,0.274715,-0.11446296605777828,0.0,0.0,0.37579259806488086,0.0,-0.1765940964920466
762,0.7526,0.000254707,594.995,0.000331886,-7.50094e-16,1.85392e-14,-3.71819e-16,-0.1217,0.319393,-0.19453,0.0,0.0,0.0,0.275034,-0.11458604715116205,0.0,0.0,0.3762921014323546,0.0,-0.17677851875836748
763,0.7536,0.000254359,595.176,0.000331436,-6.21746e-17,1.47729e-14,-1.71438e-16,-0.121839,0.319756,-0.194753,0.0,0.0,0.0,0.275352,-0.11470911113746285,0.0,0.0,0.37679178615246434,0.0,-0.17696207668121522
764,0.7546,0.000254011,595.357,0.000330987,-1.46417e-15,-6.96683e-15,-1.67194e-16,-0.121978,0.32012,-0.194976,0.0,0.0,0.0,0.275671,-0.11483215801905833,0.0,0.0,0.37729302958339406,0.0,-0.17714559367521
765,0.7556,0.000253664,595.537,0.000330538,9.82292e-17,8.19317e-15,-3.54252e-16,-0.122117,0.320483,-0.195199,0.0,0.0,0.0,0.275989,-0.11495518779832603,0.0,0.0,0.37779307770637605,0.0,-0.17732906974947782
766,0.7566,0.000253318,595.718,0.000330091,-6.55637e-16,1.52046e-14,3.68981e-17,-0.122255,0.320845,-0.195423,0.0,0.0,0.0,0.276307,-0.1150773155554008,0.0,0.0,0.37829192908715803,0.0,-0.17751332740022663
767,0.7576,0.000252973,595.898,0.000329644,-6.26773e-16,4.90212e-16,-1.55191e-16,-0.122394,0.321208,-0.195646,0.0,0.0,0.0,0.276625,-0.11520031126013908,0.0,0.0,0.3787923398764801,0.0,-0.1776967214790165
768,0.7586,0.000252628,596.078,0.000329198,-3.72202e-17,1.25486e-15,3.98587e-17,-0.122533,0.321571,-0.195868,0.0,0.0,0.0,0.276943,-0.11532328986966256,0.0,0.0,0.37929293234789196,0.0,-0.17787925254515025
769,0.7596,0.000252284,596.257,0.000328753,-5.97098e-16,7.79369e-15,3.89033e-17,-0.122671,0.321933,-0.196091,0.0,0.0,0.0,0.277261,-0.11544536683215634,0.0,0.0,0.3797923267743395,0.0,-0.17806256503173068
770,0.7606,0.000251941,596.437,0.000328309,-5.70178e-16,1.49897e-15,-1.53241e-16,-0.12281,0.322295,-0.196314,0.0,0.0,0.0,0.277579,-0.11556831138132251,0.0,0.0,0.38029190201429475,0.0,-0.17824583664418436
771,0.7616,0.000251598,596.616,0.000327866,-6.38039e-16,1.42056e-14,4.17633e-17,-0.122949,0.322658,-0.196537,0.0,0.0,0.0,0.277897,-0.11569123884238408,0.0,0.0,0.3807930389255725,0.0,-0.178429067391625
772,0.7626,0.000251256,596.795,0.000327424,-1.35845e-15,-1.59176e-14,-3.41674e-16,-0.123087,0.32302,-0.196759,0.0,0.0,0.0,0.278214,-0.1158132650314232,0.0,0.0,0.38129297648890303,0.0,-0.17861143589501127
773,0.7636,0.000250914,596.974,0.000326982,-1.39195e-15,1.78965e-14,4.91795e-17,-0.123226,0.323382,-0.196982,0.0,0.0,0.0,0.278532,-0.11593615844629357,0.0,0.0,0.38179309506239245,0.0,-0.1787945851229088
774,0.7646,0.000250573,597.153,0.000326542,-1.14102e-16,2.25265e-14,-1.43221e-16,-0.123364,0.323743,-0.197204,0.0,0.0,0.0,0.278849,-0.11605815083875926,0.0,0.0,0.38229201241887445,0.0,-0.1789768724903651
775,0.7656,0.000250233,597.331,0.000326102,-8.59113e-16,9.47022e-16,-1.39681e-16,-0.123502,0.324105,-0.197427,0.0,0.0,0.0,0.279166,-0.11618012639743647,0.0,0.0,0.3827924927088371,0.0,-0.1791599402349875
776,0.7666,0.000249894,597.51,0.000325663,-1.57106e-15,1.70752e-15,-1.36229e-16,-0.123641,0.324466,-0.197649,0.0,0.0,0.0,0.279484,-0.11630296882212088,0.0,0.0,0.3832917709129986,0.0,-0.17934214650261127
777,0.7676,0.000249555,597.688,0.000325224,-1.50292e-15,1.87846e-15,-3.24095e-16,-0.123779,0.324828,-0.197871,0.0,0.0,0.0,0.279801,-0.11642491059824733,0.0,0.0,0.3837926131810503,0.0,-0.17952431232493327
778,0.7686,0.000249217,597.866,0.000324787,1.53566e-16,1.6593e-15,-3.16132e-16,-0.123917,0.325189,-0.198093,0.0,0.0,0.0,0.280118,-0.11654683554756984,0.0,0.0,0.38429225249387855,0.0,-0.1797064377109313
779,0.7696,0.000248879,598.044,0.00032435,-1.4465e-15,1.24825e-15,-1.17123e-16,-0.124055,0.32555,-0.198315,0.0,0.0,0.0,0.280434,-0.1166687436724102,0.0,0.0,0.3847920722090594,0.0,-0.17988852266958133
780,0.7706,0.000248542,598.221,0.000323915,2.10662e-17,1.61774e-15,-1.14217e-16,-0.124193,0.325911,-0.198537,0.0,0.0,0.0,0.280751,-0.11679063497509001,0.0,0.0,0.3852920723917297,0.0,-0.18007056720985704
781,0.7716,0.000248206,598.398,0.00032348,2.0644e-16,1.20716e-15,-1.11382e-16,-0.124331,0.326272,-0.198759,0.0,0.0,0.0,0.281068,-0.11691250945793075,0.0,0.0,0.38579225310705034,0.0,-0.18025257134073036
782,0.7726,0.00024787,598.576,0.000323046,1.02687e-16,8.99559e-15,-1.08616e-16,-0.124469,0.326633,-0.198981,0.0,0.0,0.0,0.281384,-0.11703436712325321,0.0,0.0,0.386292614420205,0.0,-0.18043453507117135
783,0.7736,0.000247535,598.753,0.000322612,9.72077e-17,9.72007e-15,-2.9717e-16,-0.124607,0.326993,-0.199203,0.0,0.0,0.0,0.2817,-0.11715620797337822,0.0,0.0,0.38679176960393846,0.0,-0.18061645841014773
784,0.7746,0.000247201,598.929,0.00032218,-8.43898e-16,1.07763e-15,-9.86224e-17,-0.124745,0.327354,-0.199424,0.0,0.0,0.0,0.282017,-0.11727803201062603,0.0,0.0,0.3872924918076852,0.0,-0.18079752216455736
785,0.7756,0.000246867,599.106,0.000321748,-9.93805e-16,8.00791e-15,2.22811e-14,-0.124883,0.327714,-0.199646,0.0,0.0,0.0,0.282333,-0.11739983923731656,0.0,0.0,0.38779200701207817,0.0,-0.18097936492934308
786,0.7766,0.000246534,599.282,0.000321317,-1.13696e-15,3.52686e-16,-4.47446e-16,-0.125021,0.328075,-0.199867,0.0,0.0,0.0,0.282649,-0.11752162965576962,0.0,0.0,0.3882930903667132,0.0,-0.18116034849027363
787,0.7776,0.000246201,599.459,0.000320887,2.10957e-14,9.70299e-15,-1.01062e-15,-0.125159,0.328435,-0.200089,0.0,0.0,0.0,0.282965,-0.11764340326830469,0.0,0.0,0.38879296585143375,0.0,-0.18134211071655515
788,0.7786,0.00024587,599.635,0.000320458,-7.28499e-16,1.06086e-15,-2.99668e-17,-0.125296,0.328795,-0.20031,0.0,0.0,0.0,0.28328,-0.11776427784195953,0.0,0.0,0.3892930213237247,0.0,-0.18152301411952443
789,0.7796,0.000245538,599.811,0.00032003,-6.96927e-16,1.0442e-15,-2.94769e-17,-0.125434,0.329154,-0.200531,0.0,0.0,0.0,0.283596,-0.11788601797135523,0.0,0.0,0.38979186705583113,0.0,-0.18170387754725914
790,0.7806,0.000245208,599.986,0.000319602,-1.08081e-17,1.22185e-15,-2.20272e-16,-0.125572,0.329514,-0.200752,0.0,0.0,0.0,0.283911,-0.11800774130177216,0.0,0.0,0.3902922821972923,0.0,-0.18188470100859278
791,0.7816,0.000244878,600.162,0.000319175,-7.59645e-16,1.2037e-15,-2.38895e-17,-0.125709,0.329874,-0.200973,0.0,0.0,0.0,0.284227,-0.11812856596453547,0.0,0.0,0.3907928775206351,0.0,-0.18206548451235693
792,0.7826,0.000244548,600.337,0.000318749,-7.25955e-16,1.57405e-15,-2.35447e-17,-0.125847,0.330233,-0.201194,0.0,0.0,0.0,0.284542,-0.11825025582563886,0.0,0.0,0.39129226179777943,0.0,-0.18224622806738122
793,0.7836,0.00024422,600.512,0.000318324,-2.0051e-15,9.70004e-16,-2.1449e-16,-0.125984,0.330592,-0.201415,0.0,0.0,0.0,0.284857,-0.11837104726618808,0.0,0.0,0.3917918253860635,0.0,-0.18242693168249335
794,0.7846,0.000243892,600.687,0.000317899,-1.54176e-15,1.14847e-15,-4.00815e-16,-0.126121,0.330952,-0.201636,0.0,0.0,0.0,0.285173,-0.11849182215944354,0.0,0.0,0.39229296064213637,0.0,-0.18260759536651916
795,0.7856,0.000243564,600.862,0.000317476,-1.38008e-15,1.46381e-14,-2.00058e-16,-0.126259,0.331311,-0.201857,0.0,0.0,0.0,0.285488,-0.11861346189465083,0.0,0.0,0.3927928835457988,0.0,-0.18278821912828225
796,0.7866,0.000243237,601.036,0.000317053,-7.57556e-16,1.2893e-15,-1.95445e-16,-0.126396,0.33167,-0.202078,0.0,0.0,0.0,0.285802,-0.11873420357937692,0.0,0.0,0.39329298595400286,0.0,-0.18296880297660467
797,0.7876,0.000242911,601.211,0.000316631,-8.1829e-16,1.4001e-14,3.5034e-19,-0.126533,0.332028,-0.202298,0.0,0.0,0.0,0.286117,-0.11885492872362535,0.0,0.0,0.39379187413863126,0.0,-0.1831485300692448
798,0.7886,0.000242585,601.385,0.00031621,-1.62606e-15,1.24082e-15,-3.82472e-16,-0.126671,0.332387,-0.202519,0.0,0.0,0.0,0.286432,-0.11897651835358414,0.0,0.0,0.3942923352488412,0.0,-0.18332903429764758
799,0.7896,0.00024226,601.559,0.000315789,-8.99633e-16,1.02854e-15,-3.73459e-16,-0.126808,0.332746,-0.202739,0.0,0.0,0.0,0.286746,-0.11909721030298237,0.0,0.0,0.3947929760568436,0.0,-0.1835086821481139
800,0.7906,0.000241936,601.733,0.000315369,2.12357e-14,9.01421e-15,-1.32118e-15,-0.126945,0.333104,-0.20296,0.0,0.0,0.0,0.287061,-0.11921788571871617,0.0,0.0,0.3952924013340626,0.0,-0.1836891067917017
801,0.7916,0.000241612,601.906,0.00031495,-7.832e-16,5.7313e-16,-3.33005e-16,-0.127082,0.333462,-0.20318,0.0,0.0,0.0,0.287375,-0.11933854460305038,0.0,0.0,0.3957920054375388,0.0,-0.18386867543493257
802,0.7926,0.000241289,602.08,0.000314532,-9.36923e-16,1.14395e-15,-7.07789e-16,-0.127219,0.33382,-0.2034,0.0,0.0,0.0,0.287689,-0.11945918695824975,0.0,0.0,0.3962917884313035,0.0,-0.18404820457740712
803,0.7936,0.000240966,602.253,0.000314115,4.06187e-17,5.44384e-16,-3.08309e-16,-0.127356,0.334179,-0.20362,0.0,0.0,0.0,0.288003,-0.11957981278657848,0.0,0.0,0.39679314717185954,0.0,-0.1842276942278146
804,0.7946,0.000240644,602.426,0.000313698,-1.46087e-15,8.0636e-15,-3.01066e-16,-0.127493,0.334536,-0.20384,0.0,0.0,0.0,0.288317,-0.11970042209030085,0.0,0.0,0.397291891345938,0.0,-0.1844071443948423
805,0.7956,0.000240323,602.599,0.000313282,-9.28899e-16,7.96546e-16,-2.93997e-16,-0.12763,0.334894,-0.20406,0.0,0.0,0.0,0.288631,-0.11982101487168029,0.0,0.0,0.397792211394985,0.0,-0.1845865550871757
806,0.7966,0.000240002,602.772,0.000312867,-7.95224e-16,1.44849e-14,-2.87099e-16,-0.127767,0.335252,-0.20428,0.0,0.0,0.0,0.288945,-0.11994159113298042,0.0,0.0,0.39829271059067506,0.0,-0.18476592631349809
807,0.7976,0.000239682,602.944,0.000312453,-7.61156e-16,1.13777e-15,-4.7169e-16,-0.127903,0.335609,-0.2045,0.0,0.0,0.0,0.289259,-0.12006127093817509,0.0,0.0,0.3987919902044641,0.0,-0.1849452580824913
808,0.7986,0.000239363,603.117,0.00031204,-1.47783e-15,1.46289e-14,-2.69201e-16,-0.12804,0.335967,-0.20472,0.0,0.0,0.0,0.289572,-0.12018181428664865,0.0,0.0,0.39929284738504345,0.0,-0.1851245504028347
809,0.7996,0.000239044,603.289,0.000311627,2.20939e-14,9.08824e-15,-1.02821e-15,-0.128177,0.336324,-0.20494,0.0,0.0,0.0,0.289886,-0.1203023411218147,0.0,0.0,0.3997924841114091,0.0,-0.18530380328320628
810,0.8006,0.000238725,603.461,0.000311215,5.06097e-16,1.61747e-15,-4.70502e-17,-0.128313,0.336681,-0.205159,0.0,0.0,0.0,0.290199,-0.12042197186834691,0.0,0.0,0.4002922992399287,0.0,-0.1854822022148912
811,0.8016,0.000238407,603.633,0.000310804,-8.28685e-16,8.19094e-16,-2.37393e-16,-0.12845,0.337038,-0.205379,0.0,0.0,0.0,0.290512,-0.12054246580417793,0.0,0.0,0.40079229283430373,0.0,-0.1856613764205186
812,0.8026,0.00023809,603.804,0.000310393,-7.92928e-16,8.05037e-16,-2.31844e-16,-0.128586,0.337395,-0.205598,0.0,0.0,0.0,0.290825,-0.12066206389597389,0.0,0.0,0.40129246495825743,0.0,-0.18583969705226067
813,0.8036,0.000237774,603.976,0.000309983,-1.60249e-15,-9.43007e-15,-2.26427e-16,-0.128723,0.337752,-0.205817,0.0,0.0,0.0,0.291138,-0.12078252494145014,0.0,0.0,0.4017928156755366,0.0,-0.1860179786360603
814,0.8046,0.000237458,604.147,0.000309574,-8.78214e-16,3.61579e-16,-2.2114e-16,-0.128859,0.338108,-0.206037,0.0,0.0,0.0,0.291451,-0.1209020903874235,0.0,0.0,0.4022919427572662,0.0,-0.18619703498383988
815,0.8056,0.000237142,604.318,0.000309166,-9.35408e-16,7.40243e-16,-2.1598e-16,-0.128996,0.338465,-0.206256,0.0,0.0,0.0,0.291764,-0.1210225185515228,0.0,0.0,0.4027926503518182,0.0,-0.186375238319201
816,0.8066,0.000236827,604.489,0.000308759,-1.64579e-15,1.3459e-14,-2.10944e-16,-0.129132,0.338821,-0.206475,0.0,0.0,0.0,0.292077,-0.12114205136058454,0.0,0.0,0.4032921334380575,0.0,-0.1865534026323047
817,0.8076,0.000236513,604.66,0.000308352,-7.57726e-17,7.03979e-16,-2.06027e-16,-0.129268,0.339177,-0.206694,0.0,0.0,0.0,0.292389,-0.12126156791428966,0.0,0.0,0.4037917943719307,0.0,-0.186731527931696
818,0.8086,0.000236199,604.83,0.000307946,-7.40711e-17,-2.19319e-15,-2.01229e-16,-0.129405,0.339534,-0.206913,0.0,0.0,0.0,0.292702,-0.12138194683334114,0.0,0.0,0.40429303750909784,0.0,-0.186909614225918
819,0.8096,0.000235886,605.001,0.000307541,-1.57208e-15,1.1223e-15,-1.96545e-16,-0.129541,0.33989,-0.207132,0.0,0.0,0.0,0.293014,-0.12150143076348041,0.0,0.0,0.404793054828253,0.0,-0.18708766152351186
820,0.8106,0.000235574,605.171,0.000307137,-8.49183e-16,1.38377e-14,-1.91972e-16,-0.129677,0.340245,-0.207351,0.0,0.0,0.0,0.293326,-0.12162089844491009,0.0,0.0,0.4052918448927152,0.0,-0.18726566983301685
821,0.8116,0.000235262,605.341,0.000306733,-2.31374e-15,1.079e-15,-1.87509e-16,-0.129813,0.340601,-0.207569,0.0,0.0,0.0,0.293638,-0.12174034987983995,0.0,0.0,0.4057922178505988,0.0,-0.18744282660620337
822,0.8126,0.00023495,605.511,0.00030633,2.2894e-14,-8.10541e-15,-1.33135e-15,-0.129949,0.340957,-0.207788,0.0,0.0,0.0,0.29395,-0.12185978507047923,0.0,0.0,0.40629276897296696,0.0,-0.1876207571430717
823,0.8136,0.00023464,605.681,0.000305928,-1.16744e-15,8.96965e-16,3.97976e-17,-0.130085,0.341312,-0.208007,0.0,0.0,0.0,0.294262,-0.12197920401903706,0.0,0.0,0.40679209153046236,0.0,-0.18779864871741891
824,0.8146,0.00023433,605.85,0.000305526,1.98672e-14,-5.59932e-16,2.16638e-14,-0.130221,0.341668,-0.208225,0.0,0.0,0.0,0.294574,-0.12209860672772221,0.0,0.0,0.40729299867122815,0.0,-0.18797568931387243
825,0.8156,0.00023402,606.02,0.000305125,-9.70038e-16,4.09742e-16,-9.35538e-17,-0.130357,0.342023,-0.208444,0.0,0.0,0.0,0.294886,-0.12221799319874327,0.0,0.0,0.40779267637330086,0.0,-0.18815350316658508
826,0.8166,0.000233711,606.189,0.000304725,-2.05636e-15,1.44918e-14,-6.65847e-16,-0.130493,0.342378,-0.208662,0.0,0.0,0.0,0.295197,-0.12233736343430823,0.0,0.0,0.4082925314924475,0.0,-0.18833046641320006
827,0.8176,0.000233402,606.358,0.000304326,-1.31457e-15,7.5614e-16,-2.67667e-16,-0.130629,0.342733,-0.20888,0.0,0.0,0.0,0.295509,-0.122456717436625,0.0,0.0,0.4087925640916623,0.0,-0.18850739108603198
828,0.8186,0.000233094,606.526,0.000303927,-1.91726e-15,-6.01227e-15,-4.53074e-16,-0.130764,0.343088,-0.209098,0.0,0.0,0.0,0.29582,-0.12257517778351767,0.0,0.0,0.4092927742339618,0.0,-0.18868427719348901
829,0.8196,0.000232787,606.695,0.00030353,-1.27529e-15,-1.53655e-14,-2.51318e-16,-0.1309,0.343442,-0.209317,0.0,0.0,0.0,0.296131,-0.12269449944528221,0.0,0.0,0.40979175218992814,0.0,-0.18886193588244715
830,0.8206,0.00023248,606.864,0.000303132,-1.88048e-15,8.90204e-16,-4.37117e-16,-0.131036,0.343797,-0.209535,0.0,0.0,0.0,0.296442,-0.12281380488040428,0.0,0.0,0.4102923171069712,0.0,-0.18903874470756254
831,0.8216,0.000232174,607.032,0.000302736,-1.33458e-15,1.36088e-14,-4.27128e-16,-0.131171,0.344152,-0.209753,0.0,0.0,0.0,0.296753,-0.1229322170237459,0.0,0.0,0.4107930597561056,0.0,-0.18921551499255518
832,0.8226,0.000231868,607.2,0.00030234,-5.31483e-16,1.04673e-15,-4.17377e-16,-0.131307,0.344506,-0.209971,0.0,0.0,0.0,0.297064,-0.12305149013147543,0.0,0.0,0.4112925689071627,0.0,-0.18939224674582578
833,0.8236,0.000231563,607.368,0.000301946,-1.3568e-15,6.4229e-16,-4.07856e-16,-0.131442,0.34486,-0.210188,0.0,0.0,0.0,0.297375,-0.123169870189474,0.0,0.0,0.4117922549157611,0.0,-0.18956812954430813
834,0.8246,0.000231259,607.536,0.000301551,-1.20876e-15,2.4154e-16,-3.9856e-16,-0.131578,0.345214,-0.210406,0.0,0.0,0.0,0.297686,-0.12328911097857076,0.0,0.0,0.4122921178445196,0.0,-0.18974478443598464
835,0.8256,0.000230955,607.703,0.000301158,2.11443e-14,-1.01493e-15,-1.5379e-15,-0.131713,0.345568,-0.210624,0.0,0.0,0.0,0.297996,-0.12340745895992022,0.0,0.0,0.4127921577560789,0.0,-0.1899214008210922
836,0.8266,0.000230652,607.871,0.000300765,-5.94374e-16,1.38582e-14,-3.53506e-16,-0.131849,0.345922,-0.210841,0.0,0.0,0.0,0.298307,-0.12352666743914131,0.0,0.0,0.4132923747131023,0.0,-0.19009716880559802
837,0.8276,0.000230349,608.038,0.000300373,-1.32448e-15,5.17059e-16,-3.45478e-16,-0.131984,0.346276,-0.211059,0.0,0.0,0.0,0.298617,-0.12364498335253316,0.0,0.0,0.41379276877827453,0.0,-0.1902737083792857
838,0.8286,0.000230046,608.205,0.000299982,-2.11715e-15,-6.44358e-15,-3.3764e-16,-0.132119,0.346629,-0.211276,0.0,0.0,0.0,0.298927,-0.12376328329435482,0.0,0.0,0.4142919257216706,0.0,-0.19044939992134557
839,0.8296,0.000229745,608.372,0.000299591,3.125e-17,4.07239e-16,-5.21402e-16,-0.132254,0.346983,-0.211494,0.0,0.0,0.0,0.299238,-0.12388156726676236,0.0,0.0,0.4147926736905372,0.0,-0.1906258627170192
840,0.8306,0.000229443,608.539,0.000299201,-2.22671e-15,1.42964e-14,-5.09423e-16,-0.13239,0.347336,-0.211711,0.0,0.0,0.0,0.299548,-0.12400071127163814,0.0,0.0,0.41529218366267306,0.0,-0.19080147784987855
841,0.8316,0.000229143,608.706,0.000298812,-7.30379e-16,9.51172e-16,-4.97726e-16,-0.132525,0.347689,-0.211928,0.0,0.0,0.0,0.299858,-0.12411896319343207,0.0,0.0,0.4157918699929546,0.0,-0.19097705487838856
842,0.8326,0.000228843,608.872,0.000298423,-2.20599e-15,1.32464e-15,-4.86305e-16,-0.13266,0.348043,-0.212145,0.0,0.0,0.0,0.300167,-0.12423719915229414,0.0,0.0,0.4162931490360877,0.0,-0.19115259381081695
843,0.8336,0.000228543,609.038,0.000298035,-5.43474e-17,3.34954e-16,-4.75153e-16,-0.132795,0.348395,-0.212362,0.0,0.0,0.0,0.300477,-0.12435541915037918,0.0,0.0,0.41679177197703776,0.0,-0.19132809465542966
844,0.8346,0.000228244,609.204,0.000297648,-8.08785e-16,7.46968e-15,-4.64263e-16,-0.13293,0.348748,-0.212579,0.0,0.0,0.0,0.300787,-0.12447362318984168,0.0,0.0,0.4172919877554362,0.0,-0.19150355742049086
845,0.8356,0.000227946,609.37,0.000297262,-1.34289e-15,7.91105e-16,-4.53629e-16,-0.133065,0.349101,-0.212796,0.0,0.0,0.0,0.301096,-0.12459181127283603,0.0,0.0,0.4177923801411738,0.0,-0.19167898211426304
846,0.8366,0.000227648,609.536,0.000296876,-1.38574e-15,1.37065e-14,-2.51812e-16,-0.1332,0.349454,-0.213013,0.0,0.0,0.0,0.301406,-0.12470998340151607,0.0,0.0,0.41829294919660387,0.0,-0.1918543687450065
847,0.8376,0.000227351,609.702,0.000296491,-1.5205e-15,5.61107e-16,-4.37595e-16,-0.133335,0.349806,-0.21323,0.0,0.0,0.0,0.301715,-0.1248281395780354,0.0,0.0,0.4187922761911165,0.0,-0.1920297173209803
848,0.8386,0.000227054,609.867,0.000296107,-1.4619e-15,1.38672e-14,-6.19029e-16,-0.133469,0.350158,-0.213446,0.0,0.0,0.0,0.302024,-0.12494540475038995,0.0,0.0,0.41929177897966907,0.0,-0.1922042200550652
849,0.8396,0.000226758,610.032,0.000295723,-1.59336e-15,1.73103e-14,-4.13335e-16,-0.133604,0.350511,-0.213663,0.0,0.0,0.0,0.302333,-0.12506352914717245,0.0,0.0,0.41979287741631954,0.0,-0.1923794927215412
850,0.8406,0.000226462,610.197,0.00029534,-2.37546e-15,5.29849e-17,-4.03896e-16,-0.133739,0.350863,-0.213879,0.0,0.0,0.0,0.302642,-0.12518163759823775,0.0,0.0,0.42029273247849974,0.0,-0.19255391991229853
851,0.8416,0.000226167,610.362,0.000294958,-1.52967e-15,-2.44925e-15,-5.86125e-16,-0.133873,0.351215,-0.214096,0.0,0.0,0.0,0.302951,-0.12529885540503116,0.0,0.0,0.42079276352063255,0.0,-0.19272911670213844
852,0.8426,0.000225872,610.527,0.000294576,2.20644e-14,-6.74625e-15,-1.5299e-15,-0.134008,0.351567,-0.214312,0.0,0.0,0.0,0.30326,-0.12541693208919602,0.0,0.0,0.42129297060467397,0.0,-0.19290346838227135
853,0.8436,0.000225578,610.692,0.000294196,-8.40332e-16,1.66156e-15,-1.54207e-16,-0.134143,0.351918,-0.214529,0.0,0.0,0.0,0.303568,-0.1255349928340843,0.0,0.0,0.42179193199995835,0.0,-0.19307858932832256
854,0.8446,0.000225284,610.856,0.000293815,-7.17223e-16,1.45696e-14,-5.33713e-16,-0.134277,0.35227,-0.214745,0.0,0.0,0.0,0.303877,-0.1256521632944484,0.0,0.0,0.42229249085321197,0.0,-0.19325286553052023
855,0.8456,0.000224991,611.02,0.000293436,-2.19431e-15,-3.31946e-16,-3.29995e-16,-0.134412,0.352621,-0.214961,0.0,0.0,0.0,0.304185,-0.12577019228526753,0.0,0.0,0.42279180314168174,0.0,-0.19342710409312347
856,0.8466,0.000224699,611.184,0.000293057,-1.4507e-15,1.47311e-14,-7.05408e-16,-0.134546,0.352973,-0.215177,0.0,0.0,0.0,0.304494,-0.1258873312310167,0.0,0.0,0.4232927140115288,0.0,-0.19360130502426154
857,0.8476,0.000224407,611.348,0.000292679,-1.58324e-15,2.24304e-17,-4.97687e-16,-0.13468,0.353324,-0.215393,0.0,0.0,0.0,0.304802,-0.12600445448119868,0.0,0.0,0.4237923774399486,0.0,-0.19377546833206183
858,0.8486,0.000224115,611.512,0.000292302,-1.42872e-15,1.3917e-14,-4.86268e-16,-0.134815,0.353675,-0.215609,0.0,0.0,0.0,0.30511,-0.12612243591591765,0.0,0.0,0.42429221628101477,0.0,-0.19394959402465028
859,0.8496,0.000223824,611.676,0.000291925,-7.17453e-16,-3.9569e-16,-4.75116e-16,-0.134949,0.354026,-0.215825,0.0,0.0,0.0,0.305418,-0.12623952766418267,0.0,0.0,0.42479223059630833,0.0,-0.19412368211015096
860,0.8506,0.000223534,611.839,0.000291549,-2.10016e-15,1.3503e-14,-4.64223e-16,-0.135083,0.354377,-0.216041,0.0,0.0,0.0,0.305726,-0.12635660372320445,0.0,0.0,0.4252924204474311,0.0,-0.19429773259668592
861,0.8516,0.000223244,612.003,0.000291173,-1.26613e-15,-1.70084e-14,-4.53583e-16,-0.135217,0.354728,-0.216256,0.0,0.0,0.0,0.306034,-0.12647366409508554,0.0,0.0,0.42579278589600733,0.0,-0.19447093996371845
862,0.8526,0.000222955,612.166,0.000290798,-1.40596e-15,4.2821e-16,-5.3893e-16,-0.135352,0.355078,-0.216472,0.0,0.0,0.0,0.306341,-0.12659158219078215,0.0,0.0,0.42629190071106837,0.0,-0.1946449154506572
863,0.8536,0.000222666,612.329,0.000290424,-6.01122e-16,1.35426e-14,-3.35077e-16,-0.135486,0.355429,-0.216687,0.0,0.0,0.0,0.306649,-0.12670861107765796,0.0,0.0,0.4267926170387928,0.0,-0.19481804818139992
864,0.8546,0.000222378,612.491,0.000290051,-7.68159e-16,7.87394e-16,-3.27434e-16,-0.13562,0.355779,-0.216903,0.0,0.0,0.0,0.306956,-0.1268256242837137,0.0,0.0,0.42729208185600065,0.0,-0.1949919487010605
865,0.8556,0.00022209,612.654,0.000289678,-1.3032e-15,5.79993e-16,-5.11455e-16,-0.135754,0.35613,-0.217118,0.0,0.0,0.0,0.307264,-0.12694262181105032,0.0,0.0,0.42779314930892576,0.0,-0.19516500682767446
866,0.8566,0.000221803,612.816,0.000289306,-2.09738e-15,7.6288e-16,-4.99725e-16,-0.135888,0.35648,-0.217334,0.0,0.0,0.0,0.307571,-0.1270596036617686,0.0,0.0,0.4282929643737179,0.0,-0.19533883241236072
867,0.8576,0.000221516,612.979,0.000288935,-1.45039e-15,1.34861e-14,-4.88267e-16,-0.136022,0.35683,-0.217549,0.0,0.0,0.0,0.307878,-0.1271765698379691,0.0,0.0,0.4287929544044,0.0,-0.19551181596699363
868,0.8586,0.00022123,613.141,0.000288564,-1.30023e-15,9.25574e-16,-4.77075e-16,-0.136155,0.35718,-0.217764,0.0,0.0,0.0,0.308185,-0.12729264763483605,0.0,0.0,0.42929311946222093,0.0,-0.19568476233416
869,0.8596,0.000220944,613.303,0.000288194,-6.87489e-16,-6.02705e-17,-1.78897e-16,-0.136289,0.357529,-0.217979,0.0,0.0,0.0,0.308492,-0.12740958258523627,0.0,0.0,0.42979202981570586,0.0,-0.1958576715218544
870,0.8606,0.000220659,613.465,0.000287824,-1.41437e-15,1.3836e-14,-4.62108e-16,-0.136423,0.357879,-0.218194,0.0,0.0,0.0,0.308799,-0.127526501867403,0.0,0.0,0.4302925446111212,0.0,-0.1960305435380696
871,0.8616,0.000220374,613.626,0.000287456,-1.45414e-15,1.76698e-14,-3.55774e-16,-0.136557,0.358228,-0.218409,0.0,0.0,0.0,0.309106,-0.12764340548343556,0.0,0.0,0.4307918038248557,0.0,-0.1962033783907965
872,0.8626,0.00022009,613.788,0.000287088,-1.49221e-15,-1.6571e-14,-4.434e-16,-0.13669,0.358578,-0.218624,0.0,0.0,0.0,0.309412,-0.1277594211952905,0.0,0.0,0.43129266860241744,0.0,-0.19637617608802438
873,0.8636,0.000219806,613.949,0.00028672,-2.09156e-15,1.44441e-15,-2.41744e-16,-0.136824,0.358927,-0.218839,0.0,0.0,0.0,0.309719,-0.12787629360222408,0.0,0.0,0.43179227692034017,0.0,-0.19654893663774087
874,0.8646,0.000219523,614.111,0.000286353,-8.82704e-16,6.54462e-17,-4.27757e-16,-0.136958,0.359276,-0.219053,0.0,0.0,0.0,0.310025,-0.12799315034930447,0.0,0.0,0.4322920596319957,0.0,-0.19672085676919016
875,0.8656,0.00021924,614.272,0.000285987,-1.41435e-15,1.27955e-14,-3.22216e-16,-0.137091,0.359625,-0.219268,0.0,0.0,0.0,0.310331,-0.12810911954818538,0.0,0.0,0.4327920167982582,0.0,-0.1968935432205261
876,0.8666,0.000218958,614.432,0.000285622,-1.45416e-15,8.24123e-16,-2.19106e-16,-0.137225,0.359974,-0.219483,0.0,0.0,0.0,0.310638,-0.12822594509867924,0.0,0.0,0.43329214848002295,0.0,-0.19706619254826596
877,0.8676,0.000218677,614.593,0.000285257,-1.39845e-15,-1.23148e-14,-2.14128e-16,-0.137358,0.360323,-0.219697,0.0,0.0,0.0,0.310944,-0.1283418833379173,0.0,0.0,0.4337924547382064,0.0,-0.1972380019987937
878,0.8686,0.000218395,614.754,0.000284893,2.18307e-14,-8.17032e-15,-1.5499e-15,-0.137492,0.360672,-0.219911,0.0,0.0,0.0,0.31125,-0.12845867770015296,0.0,0.0,0.43429293563374616,0.0,-0.19740977468603282
879,0.8696,0.000218115,614.914,0.000284529,-7.82933e-16,9.22646e-15,1.78663e-17,-0.137625,0.36102,-0.220126,0.0,0.0,0.0,0.311555,-0.12857458498801333,0.0,0.0,0.4347921564347281,0.0,-0.1975823130359381
880,0.8706,0.000217835,615.074,0.000284166,-6.61809e-16,6.89719e-18,-4.614e-16,-0.137758,0.361369,-0.22034,0.0,0.0,0.0,0.311861,-0.12869047686122959,0.0,0.0,0.4352929862870496,0.0,-0.19775401204849885
881,0.8716,0.000217555,615.235,0.000283804,-6.38967e-16,7.77786e-16,-2.59313e-16,-0.137891,0.361717,-0.220554,0.0,0.0,0.0,0.312167,-0.12880635332185153,0.0,0.0,0.43579255516622073,0.0,-0.19792567432140218
882,0.8726,0.000217276,615.394,0.000283442,-2.77612e-15,1.40849e-14,-2.53395e-16,-0.138025,0.362065,-0.220768,0.0,0.0,0.0,0.312472,-0.12892308544927922,0.0,0.0,0.4362922979256154,0.0,-0.19809729986250946
883,0.8736,0.000216997,615.554,0.000283081,-5.98707e-16,7.41962e-16,-3.4338e-16,-0.138158,0.362413,-0.220982,0.0,0.0,0.0,0.312778,-0.12903893097501629,0.0,0.0,0.4367922146257541,0.0,-0.19826888867968062
884,0.8746,0.000216719,615.714,0.000282721,-2.6438e-15,1.36608e-14,-3.35534e-16,-0.138291,0.362761,-0.221196,0.0,0.0,0.0,0.313083,-0.1291547610943229,0.0,0.0,0.4372923053271789,0.0,-0.1984404407807736
885,0.8756,0.000216442,615.873,0.000282361,-1.31732e-15,7.10088e-16,-3.27868e-16,-0.138424,0.363109,-0.22141,0.0,0.0,0.0,0.313388,-0.12927057580924806,0.0,0.0,0.437792570090453,0.0,-0.1986119561736449
886,0.8766,0.000216164,616.033,0.000282002,4.73398e-17,1.38238e-14,-2.24608e-16,-0.138557,0.363457,-0.221624,0.0,0.0,0.0,0.313694,-0.12938637512184048,0.0,0.0,0.4382930089761601,0.0,-0.19878343486614924
887,0.8776,0.000215888,616.192,0.000281644,-1.2738e-15,1.38037e-14,-3.15254e-16,-0.13869,0.363804,-0.221838,0.0,0.0,0.0,0.313999,-0.1295021590341484,0.0,0.0,0.438792183252003,0.0,-0.19895487686613966
888,0.8786,0.000215612,616.351,0.000281286,-1.31875e-15,6.57475e-16,-2.12281e-16,-0.138823,0.364152,-0.222052,0.0,0.0,0.0,0.314304,-0.12961792754822,0.0,0.0,0.4392929700636259,0.0,-0.19912628218146744
889,0.8796,0.000215336,616.51,0.000280929,-1.83109e-15,-5.20395e-16,-3.98985e-16,-0.138956,0.364499,-0.222265,0.0,0.0,0.0,0.314608,-0.12973368066610313,0.0,0.0,0.43979249138617527,0.0,-0.19929685011723275
890,0.8806,0.000215061,616.668,0.000280572,-1.10156e-15,2.55171e-16,-1.98322e-16,-0.139089,0.364846,-0.222479,0.0,0.0,0.0,0.314913,-0.12984941838984532,0.0,0.0,0.4402921860727005,0.0,-0.1994681822581147
891,0.8816,0.000214786,616.827,0.000280216,-1.34155e-15,1.29847e-14,-9.80172e-17,-0.139221,0.365193,-0.222692,0.0,0.0,0.0,0.315218,-0.12996427068619953,0.0,0.0,0.440792054183369,0.0,-0.19963867737691898
892,0.8826,0.000214512,616.985,0.000279861,-1.2898e-15,-1.54237e-16,-9.57791e-17,-0.139354,0.36554,-0.222906,0.0,0.0,0.0,0.315522,-0.13007997774350843,0.0,0.0,0.4412920957783699,0.0,-0.199809936374594
893,0.8836,0.000214238,617.144,0.000279506,2.22253e-14,2.13616e-14,-1.53029e-15,-0.139487,0.365887,-0.223119,0.0,0.0,0.0,0.315827,-0.13019566941280192,0.0,0.0,0.4417923109179127,0.0,-0.1999803587075234
894,0.8846,0.000213965,617.302,0.000279152,-1.34336e-15,1.82594e-16,-1.54456e-16,-0.13962,0.366234,-0.223332,0.0,0.0,0.0,0.316131,-0.13031134569612668,0.0,0.0,0.4422926996622274,0.0,-0.20015074474436156
895,0.8856,0.000213692,617.46,0.000278799,-2.04443e-15,3.02839e-14,-4.38261e-16,-0.139752,0.36658,-0.223545,0.0,0.0,0.0,0.316435,-0.1304261370221006,0.0,0.0,0.4427918192790248,0.0,-0.20032109449283875
896,0.8866,0.00021342,617.617,0.000278446,-1.30779e-15,3.0392e-14,-2.36687e-16,-0.139885,0.366927,-0.223758,0.0,0.0,0.0,0.316739,-0.1305417826552716,0.0,0.0,0.44329255491292274,0.0,-0.20049140796068354
897,0.8876,0.000213148,617.775,0.000278094,-1.44716e-15,1.71781e-14,-4.22839e-16,-0.140017,0.367273,-0.223971,0.0,0.0,0.0,0.317043,-0.13065654356557443,0.0,0.0,0.4437920205394932,0.0,-0.20066168515562288
898,0.8886,0.000212877,617.933,0.000277742,-1.39289e-15,1.38266e-14,-2.21614e-16,-0.14015,0.36762,-0.224184,0.0,0.0,0.0,0.317347,-0.13077215855671287,0.0,0.0,0.44429310330345184,0.0,-0.20083192608538214
899,0.8896,0.000212606,618.09,0.000277391,2.55749e-16,1.26358e-15,-2.16537e-16,-0.140282,0.367966,-0.224397,0.0,0.0,0.0,0.317651,-0.1308868890594036,0.0,0.0,0.44479291517966324,0.0,-0.2010021307576848
900,0.8906,0.000212336,618.247,0.000277041,-1.45099e-15,1.34025e-14,-2.11576e-16,-0.140415,0.368312,-0.22461,0.0,0.0,0.0,0.317955,-0.13100247341662852,0.0,0.0,0.4452929000207049,0.0,-0.20117229918025303
901,0.8916,0.000212066,618.404,0.000276691,-1.20813e-15,-7.55086e-15,-3.98306e-16,-0.140547,0.368658,-0.224823,0.0,0.0,0.0,0.318258,-0.13111717351976426,0.0,0.0,0.4457930578864331,0.0,-0.2013424313608072
902,0.8926,0.000211797,618.561,0.000276342,-1.25644e-15,1.32151e-14,-3.89219e-16,-0.140679,0.369003,-0.225035,0.0,0.0,0.0,0.318562,-0.1312318584834855,0.0,0.0,0.446291942544059,0.0,-0.2015117288191941
903,0.8936,0.000211528,618.718,0.000275994,-1.39662e-15,1.35908e-14,-1.88753e-16,-0.140811,0.369349,-0.225248,0.0,0.0,0.0,0.318865,-0.13134652830979066,0.0,0.0,0.44679244613830793,0.0,-0.20168178870893438
904,0.8946,0.000211259,618.874,0.000275646,-2.65832e-15,1.27975e-14,-3.76005e-16,-0.140944,0.369695,-0.22546,0.0,0.0,0.0,0.319168,-0.13146205153906043,0.0,0.0,0.44729312293676293,0.0,-0.2018510142311889
905,0.8956,0.000210991,619.031,0.000275299,-1.42575e-15,-5.33603e-16,-3.67426e-16,-0.141076,0.37004,-0.225673,0.0,0.0,0.0,0.319471,-0.1315766909818875,0.0,0.0,0.4477925252061141,0.0,-0.20202100186083238
906,0.8966,0.000210724,619.187,0.000274952,-1.37173e-15,-1.46022e-16,-2.63246e-16,-0.141208,0.370385,-0.225885,0.0,0.0,0.0,0.319774,-0.1316913152933069,0.0,0.0,0.44829209979897233,0.0,-0.20219015547752106
907,0.8976,0.000210457,619.343,0.000274606,-6.6199e-16,1.29774e-14,-2.57219e-16,-0.14134,0.37073,-0.226097,0.0,0.0,0.0,0.320077,-0.1318059244753158,0.0,0.0,0.44879184677479955,0.0,-0.20235927323744385
908,0.8986,0.00021019,619.499,0.00027426,-1.20275e-15,-1.75326e-14,-2.51329e-16,-0.141472,0.371075,-0.22631,0.0,0.0,0.0,0.32038,-0.13192051852991105,0.0,0.0,0.44929176619307776,0.0,-0.20252915261944782
909,0.8996,0.000209924,619.655,0.000273915,-4.99374e-16,6.86167e-15,-2.45572e-16,-0.141604,0.37142,-0.226522,0.0,0.0,0.0,0.320683,-0.13203509745908948,0.0,0.0,0.44979185811331046,0.0,-0.20269819851959392
910,0.9006,0.000209659,619.811,0.000273571,2.37447e-14,9.36097e-15,-1.58117e-15,-0.141736,0.371765,-0.226734,0.0,0.0,0.0,0.320986,-0.13214966126484728,0.0,0.0,0.4502921225950207,0.0,-0.20286720858580776
911,0.9016,0.000209394,619.966,0.000273228,-1.20087e-15,-8.30864e-16,8.32643e-17,-0.141868,0.37211,-0.226946,0.0,0.0,0.0,0.321288,-0.13226420994918087,0.0,0.0,0.45079255969775245,0.0,-0.20303618282568525
912,0.9026,0.000209129,620.122,0.000272884,-4.02713e-16,7.2538e-16,-3.01729e-16,-0.142,0.372455,-0.227158,0.0,0.0,0.0,0.321591,-0.13237874351408596,0.0,0.0,0.45129316948107023,0.0,-0.20320512124682089
913,0.9036,0.000208865,620.277,0.000272542,-1.04665e-15,8.44365e-15,-2.94823e-16,-0.142131,0.372799,-0.22737,0.0,0.0,0.0,0.321893,-0.13249239445438654,0.0,0.0,0.45179250021133344,0.0,-0.20337402385680725
914,0.9046,0.000208601,620.432,0.0002722,-1.19407e-15,1.29429e-14,-1.92267e-16,-0.142263,0.373143,-0.227581,0.0,0.0,0.0,0.322195,-0.13260689790092484,0.0,0.0,0.4522920027409154,0.0,-0.2035420942057281
915,0.9056,0.000208338,620.587,0.000271859,-1.0536e-15,1.33222e-14,-1.87828e-16,-0.142395,0.373488,-0.227793,0.0,0.0,0.0,0.322497,-0.13272138623400564,0.0,0.0,0.45279312992132903,0.0,-0.20371092538501911
916,0.9066,0.000208075,620.742,0.000271518,-1.20075e-15,-4.64551e-15,-1.83488e-16,-0.142526,0.373832,-0.228005,0.0,0.0,0.0,0.322799,-0.13283499229104978,0.0,0.0,0.4532929767267433,0.0,-0.2038797207758939
917,0.9076,0.000207812,620.896,0.000271178,-4.0255e-16,2.47429e-16,-1.79247e-16,-0.142658,0.374176,-0.228216,0.0,0.0,0.0,0.323101,-0.13294945051765827,0.0,0.0,0.4537929955090372,0.0,-0.2040476844340211
918,0.9086,0.000207551,621.051,0.000270839,-9.526e-16,4.55306e-17,-1.751e-16,-0.14279,0.374519,-0.228428,0.0,0.0,0.0,0.323403,-0.13306389363677784,0.0,0.0,0.4542917320349211,0.0,-0.20421640843954458
919,0.9096,0.000207289,621.205,0.0002705,-1.85613e-15,1.33628e-14,-1.71047e-16,-0.142921,0.374863,-0.228639,0.0,0.0,0.0,0.323705,-0.13317745482829102,0.0,0.0,0.45479209444814206,0.0,-0.20438430106406902
920,0.9106,0.000207028,621.359,0.000270161,-2.53485e-15,-1.63737e-14,-7.12714e-17,-0.143053,0.375207,-0.22885,0.0,0.0,0.0,0.324006,-0.13329186785282787,0.0,0.0,0.4552926290156418,0.0,-0.20455215826698692
921,0.9116,0.000206768,621.513,0.000269824,-1.11883e-15,1.80422e-14,-2.6118e-16,-0.143184,0.37555,-0.229062,0.0,0.0,0.0,0.324308,-0.13340539918167482,0.0,0.0,0.45579188000404414,0.0,-0.20472077533539346
922,0.9126,0.000206508,621.667,0.000269487,-1.92225e-15,8.20264e-15,-1.5938e-16,-0.143315,0.375894,-0.229273,0.0,0.0,0.0,0.324609,-0.13351891563889173,0.0,0.0,0.4562927585569372,0.0,-0.20488856154972956
923,0.9136,0.000206248,621.821,0.00026915,-1.84681e-15,1.34821e-14,-1.5568e-16,-0.143447,0.376237,-0.229484,0.0,0.0,0.0,0.324911,-0.1336332835935763,0.0,0.0,0.45679235264861084,0.0,-0.2050563123649093
924,0.9146,0.000205989,621.975,0.000268814,-3.64756e-16,-2.43247e-16,-1.52063e-16,-0.143578,0.37658,-0.229695,0.0,0.0,0.0,0.325212,-0.13374677019989056,0.0,0.0,0.4572921181304499,0.0,-0.20522402778840088
925,0.9156,0.00020573,622.128,0.000268479,-1.10493e-15,5.3074e-16,-2.44347e-16,-0.143709,0.376923,-0.229906,0.0,0.0,0.0,0.325513,-0.1338602419404331,0.0,0.0,0.45779205506125065,0.0,-0.20539170782767124
926,0.9166,0.000205472,622.282,0.000268144,-4.04509e-16,1.36502e-14,-3.34567e-16,-0.14384,0.377266,-0.230117,0.0,0.0,0.0,0.325814,-0.13397369881715115,0.0,0.0,0.45829216349983093,0.0,-0.20555935249018575
927,0.9176,0.000205214,622.435,0.00026781,-9.54454e-16,1.28585e-14,5.63452e-17,-0.143972,0.377609,-0.230328,0.0,0.0,0.0,0.326115,-0.13408800674441812,0.0,0.0,0.45879244350502746,0.0,-0.205726961783408
928,0.9186,0.000204957,622.588,0.000267476,-1.85808e-15,1.26568e-14,-1.36424e-16,-0.144103,0.377952,-0.230539,0.0,0.0,0.0,0.326416,-0.13420143378590121,0.0,0.0,0.4592928951356978,0.0,-0.2058945357148002
929,0.9196,0.0002047,622.741,0.000267143,-1.12709e-15,6.87649e-16,-2.29062e-16,-0.144234,0.378294,-0.230749,0.0,0.0,0.0,0.326716,-0.134314845969415,0.0,0.0,0.45979205865793116,0.0,-0.20606128035350024
930,0.9206,0.000204443,622.894,0.00026681,-8.96178e-16,-1.00952e-16,-3.21521e-17,-0.144365,0.378637,-0.23096,0.0,0.0,0.0,0.327017,-0.13442824329690595,0.0,0.0,0.4602928532154076,0.0,-0.20622878375111575
931,0.9216,0.000204187,623.046,0.000266478,-1.05065e-15,1.7851e-14,-1.27119e-16,-0.144496,0.378979,-0.23117,0.0,0.0,0.0,0.327317,-0.13454162577031992,0.0,0.0,0.46079235878179037,0.0,-0.20639545820509786
932,0.9226,0.000203932,623.199,0.000266147,-2.5846e-16,3.95649e-16,-2.19968e-16,-0.144627,0.379321,-0.231381,0.0,0.0,0.0,0.327618,-0.1346549933916027,0.0,0.0,0.46129203520829254,0.0,-0.20656289109862513
933,0.9236,0.000203677,623.351,0.000265816,-8.14471e-16,1.31284e-14,-3.10748e-16,-0.144758,0.379663,-0.231591,0.0,0.0,0.0,0.327918,-0.13476834616269973,0.0,0.0,0.46179188255335757,0.0,-0.2067294953974308
934,0.9246,0.000203422,623.503,0.000265486,-7.83014e-16,1.33139e-14,-1.12012e-16,-0.144888,0.380005,-0.231802,0.0,0.0,0.0,0.328218,-0.13488081896680792,0.0,0.0,0.46229190087545025,0.0,-0.20689685781654577
935,0.9256,0.000203168,623.655,0.000265156,-8.46824e-16,1.31091e-14,-1.09366e-16,-0.145019,0.380347,-0.232012,0.0,0.0,0.0,0.328518,-0.13499414215669225,0.0,0.0,0.46279209023305445,0.0,-0.20706339198970414
936,0.9266,0.000202914,623.807,0.000264827,-1.56646e-15,-2.96977e-17,-2.98446e-16,-0.14515,0.380689,-0.232222,0.0,0.0,0.0,0.328818,-0.13510745050221107,0.0,0.0,0.4632924506846745,0.0,-0.20722989119435786
937,0.9276,0.00020266,623.959,0.000264499,-9.41565e-16,-2.28669e-16,9.16888e-17,-0.145281,0.381031,-0.232432,0.0,0.0,0.0,0.329118,-0.1352207440053088,0.0,0.0,0.46379298228883425,0.0,-0.20739635543784973
938,0.9286,0.000202407,624.111,0.000264171,-1.00025e-15,5.45823e-16,-2.93537e-16,-0.145411,0.381372,-0.232642,0.0,0.0,0.0,0.329418,-0.13533315800152013,0.0,0.0,0.4642922208111251,0.0,-0.20756278472752077
939,0.9296,0.000202155,624.262,0.000263843,-8.68572e-16,-1.25942e-14,-3.82694e-16,-0.145542,0.381714,-0.232852,0.0,0.0,0.0,0.329717,-0.13544642193887202,0.0,0.0,0.46479309439514327,0.0,-0.20772917907071042
940,0.9306,0.000201903,624.414,0.000263516,-1.78489e-16,1.41706e-16,-8.65171e-17,-0.145673,0.382055,-0.233062,0.0,0.0,0.0,0.330017,-0.13555967103961997,0.0,0.0,0.46529267401381613,0.0,-0.20789553847475684
941,0.9316,0.000201651,624.565,0.00026319,-1.74674e-16,1.19059e-14,-1.80271e-16,-0.145803,0.382396,-0.233272,0.0,0.0,0.0,0.330317,-0.13567204097818053,0.0,0.0,0.4657924240181879,0.0,-0.20806186294699625
942,0.9326,0.0002014,624.716,0.000262864,-9.22841e-16,1.38173e-16,-1.76105e-16,-0.145934,0.382737,-0.233482,0.0,0.0,0.0,0.330616,-0.13578526052477013,0.0,0.0,0.46629234446637025,0.0,-0.20822815249476379
943,0.9336,0.000201149,624.867,0.000262539,-1.07633e-15,3.26673e-16,1.96534e-17,-0.146064,0.383078,-0.233691,0.0,0.0,0.0,0.330915,-0.13589760113860383,0.0,0.0,0.4667924354164943,0.0,-0.20839361551940405
944,0.9346,0.000200899,625.018,0.000262215,-1.50547e-15,1.24854e-16,-1.72299e-16,-0.146194,0.383419,-0.233901,0.0,0.0,0.0,0.331214,-0.13600992714910698,0.0,0.0,0.46729269692671127,0.0,-0.20855983540644596
945,0.9356,0.000200649,625.168,0.00026189,-1.54173e-15,1.19116e-16,-2.64156e-16,-0.146325,0.38376,-0.234111,0.0,0.0,0.0,0.331513,-0.1361231024355073,0.0,0.0,0.467793129055192,0.0,-0.20872602039097643
946,0.9366,0.0002004,625.319,0.000261567,-1.10658e-15,1.24671e-14,1.25248e-16,-0.146455,0.3841,-0.23432,0.0,0.0,0.0,0.331812,-0.13623539913274718,0.0,0.0,0.4682922635671294,0.0,-0.20889137937209934
947,0.9376,0.000200151,625.469,0.000261244,-2.19357e-16,1.2854e-14,-1.64889e-16,-0.146585,0.384441,-0.23453,0.0,0.0,0.0,0.332111,-0.1363476812323654,0.0,0.0,0.4687930366059565,0.0,-0.20905749473970703
948,0.9386,0.000199902,625.62,0.000260922,-3.07762e-16,2.98347e-14,-1.61068e-16,-0.146716,0.384781,-0.234739,0.0,0.0,0.0,0.33241,-0.1364608122758788,0.0,0.0,0.4692925111442623,0.0,-0.20922278444993014
949,0.9396,0.000199654,625.77,0.0002606,-1.70916e-15,1.31646e-14,-1.57332e-16,-0.146846,0.385121,-0.234948,0.0,0.0,0.0,0.332709,-0.13657306507369293,0.0,0.0,0.4697921555327842,0.0,-0.2093880396182134
950,0.9406,0.000199406,625.92,0.000260278,-3.27224e-16,-2.27411e-15,-5.78274e-17,-0.146976,0.385461,-0.235157,0.0,0.0,0.0,0.333007,-0.13668530327959194,0.0,0.0,0.4702919698292809,0.0,-0.20955326025177556
951,0.9416,0.000199159,626.069,0.000259958,-3.17189e-16,-5.10135e-16,1.35334e-16,-0.147106,0.385801,-0.235366,0.0,0.0,0.0,0.333306,-0.13679752689547253,0.0,0.0,0.47079195409153085,0.0,-0.20971844635783365
952,0.9426,0.000198912,626.219,0.000259637,-6.83567e-16,-8.99087e-16,-2.50884e-16,-0.147236,0.386141,-0.235575,0.0,0.0,0.0,0.333604,-0.1369097359232313,0.0,0.0,0.4712921083773325,0.0,-0.209883597943603
953,0.9436,0.000198665,626.369,0.000259318,-8.46946e-16,6.58828e-16,-5.34631e-17,-0.147366,0.386481,-0.235784,0.0,0.0,0.0,0.333902,-0.1370219303647645,0.0,0.0,0.47179243274450355,0.0,-0.21004871501629763
954,0.9446,0.000198419,626.518,0.000258999,-2.51608e-16,4.11457e-15,-5.21021e-17,-0.147496,0.386821,-0.235993,0.0,0.0,0.0,0.3342,-0.13713411022196842,0.0,0.0,0.47229292725088134,0.0,-0.21021379758313008
955,0.9456,0.000198174,626.667,0.00025868,2.47618e-14,-9.17979e-15,-1.20105e-15,-0.147626,0.38716,-0.236202,0.0,0.0,0.0,0.334499,-0.13724627549673873,0.0,0.0,0.47279211916146746,0.0,-0.21037884565131126
956,0.9466,0.000197929,626.817,0.000258362,-1.07161e-15,2.23076e-16,2.63442e-16,-0.147756,0.3875,-0.236411,0.0,0.0,0.0,0.334796,-0.13735842619097105,0.0,0.0,0.47329295361901536,0.0,-0.21054385922805074
957,0.9476,0.000197684,626.966,0.000258045,-7.48888e-16,2.22319e-17,-1.25593e-16,-0.147886,0.387839,-0.23662,0.0,0.0,0.0,0.335094,-0.13747056230656085,0.0,0.0,0.4737924845960091,0.0,-0.2107088383205563
958,0.9486,0.000197439,627.114,0.000257728,-6.2589e-17,1.27606e-14,-2.67753e-17,-0.148015,0.388178,-0.236828,0.0,0.0,0.0,0.335392,-0.13758182142765563,0.0,0.0,0.4742921849427104,0.0,-0.21087299380942304
959,0.9496,0.000197195,627.263,0.000257411,-6.1695e-17,-1.80387e-16,6.98719e-17,-0.148145,0.388517,-0.237037,0.0,0.0,0.0,0.33569,-0.13769392850375228,0.0,0.0,0.4747920547165454,0.0,-0.21103790411998902
960,0.9506,0.000196952,627.412,0.000257095,2.35369e-14,2.17333e-14,-1.08182e-15,-0.148275,0.388856,-0.237245,0.0,0.0,0.0,0.335987,-0.13780602100687622,0.0,0.0,0.47529209397495986,0.0,-0.21120199117028726
961,0.9516,0.000196709,627.56,0.00025678,-1.58902e-15,5.95264e-15,2.84223e-16,-0.148405,0.389195,-0.237454,0.0,0.0,0.0,0.336285,-0.13791809893892193,0.0,0.0,0.47579230277541873,0.0,-0.21136683272758994
962,0.9526,0.000196466,627.709,0.000256465,-9.63654e-16,6.49624e-16,-3.9286e-16,-0.148534,0.389534,-0.237662,0.0,0.0,0.0,0.336582,-0.13802930033151473,0.0,0.0,0.47629268117540646,0.0,-0.21153085136785266
963,0.9536,0.000196224,627.857,0.000256151,-1.39731e-15,-6.31538e-15,2.45412e-14,-0.148664,0.389872,-0.23787,0.0,0.0,0.0,0.336879,-0.1381413492391348,0.0,0.0,0.4767917524399361,0.0,-0.21169483589578597
964,0.9546,0.000195982,628.005,0.000255837,1.61933e-16,-2.41032e-16,-1.55052e-16,-0.148793,0.390211,-0.238079,0.0,0.0,0.0,0.337177,-0.13825252183429648,0.0,0.0,0.4772924697107952,0.0,-0.21185957445930426
965,0.9556,0.00019574,628.153,0.000255524,-8.81006e-16,-1.83966e-14,1.35867e-16,-0.148923,0.390549,-0.238287,0.0,0.0,0.0,0.337474,-0.13836454172500734,0.0,0.0,0.4777918789609663,0.0,-0.21202349061994508
966,0.9566,0.000195499,628.301,0.000255211,-7.53189e-16,2.19917e-16,-5.89283e-17,-0.149052,0.390888,-0.238495,0.0,0.0,0.0,0.337771,-0.13847568553019518,0.0,0.0,0.4782929353321905,0.0,-0.21218737268957
967,0.9576,0.000195259,628.448,0.000254899,-8.18634e-16,1.31519e-14,-5.77219e-17,-0.149182,0.391226,-0.238703,0.0,0.0,0.0,0.338067,-0.13858767641151126,0.0,0.0,0.4787926827968967,0.0,-0.21235122067526935
968,0.9586,0.000195018,628.596,0.000254587,-3.51101e-17,-1.80961e-16,-5.65419e-17,-0.149311,0.391564,-0.238911,0.0,0.0,0.0,0.338364,-0.13869879143418118,0.0,0.0,0.4792925992047956,0.0,-0.2125150345841318
969,0.9596,0.000194779,628.743,0.000254276,2.432e-14,8.60139e-15,-1.20587e-15,-0.14944,0.391902,-0.239119,0.0,0.0,0.0,0.338661,-0.13880989212393757,0.0,0.0,0.4797926846129996,0.0,-0.21267881442324454
970,0.9606,0.000194539,628.89,0.000253966,-1.78702e-16,-6.11018e-16,1.62636e-16,-0.149569,0.39224,-0.239326,0.0,0.0,0.0,0.338957,-0.1389209784826294,0.0,0.0,0.480292939078641,0.0,-0.21284177304186003
971,0.9616,0.0001943,629.038,0.000253656,2.35246e-14,2.13081e-14,-1.56675e-15,-0.149699,0.392577,-0.239534,0.0,0.0,0.0,0.339254,-0.13903291147962427,0.0,0.0,0.4807918818662482,0.0,-0.213005484926441
972,0.9626,0.000194062,629.185,0.000253346,-1.88347e-15,1.32647e-14,2.89035e-16,-0.149828,0.392915,-0.239742,0.0,0.0,0.0,0.33955,-0.13914396907067472,0.0,0.0,0.48129247411764364,0.0,-0.21316916276249132
973,0.9636,0.000193823,629.331,0.000253037,-9.64359e-16,3.19877e-16,-4.84345e-16,-0.149957,0.393252,-0.239949,0.0,0.0,0.0,0.339847,-0.13925501233621995,0.0,0.0,0.48179175380532335,0.0,-0.21333201988950523
974,0.9646,0.000193586,629.478,0.000252729,-1.77601e-15,-1.04759e-15,-9.03234e-17,-0.150086,0.39359,-0.240157,0.0,0.0,0.0,0.340143,-0.13936604127810792,0.0,0.0,0.4822926840705555,0.0,-0.21349562981334635
975,0.9656,0.000193348,629.625,0.000252421,-1.04934e-15,5.12085e-16,-8.84034e-17,-0.150215,0.393927,-0.240364,0.0,0.0,0.0,0.340439,-0.13947705589818604,0.0,0.0,0.48279230088579217,0.0,-0.2136584193686747
976,0.9666,0.000193111,629.771,0.000252113,-1.10517e-15,-7.94433e-17,-8.65252e-17,-0.150344,0.394264,-0.240572,0.0,0.0,0.0,0.340735,-0.13958805619830195,0.0,0.0,0.4832920861002694,0.0,-0.2138219614084842
977,0.9676,0.000192875,629.918,0.000251806,-4.06315e-16,-2.77151e-16,-2.76454e-16,-0.150473,0.394601,-0.240779,0.0,0.0,0.0,0.341031,-0.1396990421803026,0.0,0.0,0.4837920397707469,0.0,-0.2139846834201634
978,0.9686,0.000192638,630.064,0.0002515,-1.71157e-15,-4.73114e-16,-1.74602e-16,-0.150602,0.394938,-0.240986,0.0,0.0,0.0,0.341326,-0.13981001384603498,0.0,0.0,0.4842921619540044,0.0,-0.21414737175187226
979,0.9696,0.000192403,630.21,0.000251194,-1.74139e-15,1.10062e-16,-1.70848e-16,-0.150731,0.395275,-0.241193,0.0,0.0,0.0,0.341622,-0.1399209711973458,0.0,0.0,0.4847924527068399,0.0,-0.2143100264105816
980,0.9706,0.000192167,630.356,0.000250888,-1.95814e-15,2.9838e-14,-1.67175e-16,-0.15086,0.395612,-0.2414,0.0,0.0,0.0,0.341918,-0.14003191423608152,0.0,0.0,0.48529291208607117,0.0,-0.21447264740326122
981,0.9716,0.000191932,630.502,0.000250584,-1.13146e-15,1.64422e-14,-1.63583e-16,-0.150988,0.395948,-0.241607,0.0,0.0,0.0,0.342213,-0.14014198310650128,0.0,0.0,0.48579205435573747,0.0,-0.21463523473687907
982,0.9726,0.000191698,630.647,0.000250279,-1.09062e-15,-4.16551e-16,3.17094e-17,-0.151117,0.396285,-0.241814,0.0,0.0,0.0,0.342509,-0.1402528976365396,0.0,0.0,0.4862928506574926,0.0,-0.21479778841840214
983,0.9736,0.000191464,630.793,0.000249975,-1.05143e-15,-1.89599e-14,-2.56681e-16,-0.151246,0.396621,-0.242021,0.0,0.0,0.0,0.342804,-0.14036379785952624,0.0,0.0,0.48679232896296987,0.0,-0.2149603084547954
984,0.9746,0.00019123,630.938,0.000249672,-3.08334e-15,-9.98173e-15,2.45846e-14,-0.151374,0.396957,-0.242228,0.0,0.0,0.0,0.343099,-0.14047382425156096,0.0,0.0,0.48729197512135536,0.0,-0.21512279485302288
985,0.9756,0.000190996,631.084,0.000249369,-8.94385e-16,1.33401e-14,-4.00539e-16,-0.151503,0.397293,-0.242435,0.0,0.0,0.0,0.343394,-0.14058469597685253,0.0,0.0,0.4877917891890573,0.0,-0.21528524762004686
986,0.9766,0.000190763,631.229,0.000249067,-1.33343e-15,-1.75651e-14,-2.00399e-16,-0.151632,0.397629,-0.242642,0.0,0.0,0.0,0.343689,-0.1406955534006139,0.0,0.0,0.48829177122250256,0.0,-0.21544766676282823
987,0.9776,0.000190531,631.374,0.000248765,-1.19039e-15,2.67479e-16,-2.92272e-16,-0.15176,0.397965,-0.242848,0.0,0.0,0.0,0.343984,-0.14080553733065693,0.0,0.0,0.4887919212781373,0.0,-0.21560926789798673
988,0.9786,0.000190298,631.519,0.000248464,-1.05309e-15,-1.27236e-16,-9.44723e-17,-0.151889,0.398301,-0.243055,0.0,0.0,0.0,0.344279,-0.1409163662677212,0.0,0.0,0.48929223941242617,0.0,-0.21577161997551209
989,0.9796,0.000190067,631.664,0.000248163,-1.20355e-15,6.45296e-17,-9.27397e-17,-0.152017,0.398637,-0.243261,0.0,0.0,0.0,0.344573,-0.141026321935526,0.0,0.0,0.4897927256818535,0.0,-0.21593315438318184
990,0.9806,0.000189835,631.808,0.000247862,-1.06573e-15,-1.34097e-16,-4.74637e-16,-0.152145,0.398972,-0.243468,0.0,0.0,0.0,0.344868,-0.14113626352990616,0.0,0.0,0.4902918898502868,0.0,-0.21609543942314346
991,0.9816,0.000189604,631.953,0.000247563,-1.02753e-15,-2.38869e-14,-2.72897e-16,-0.152274,0.399308,-0.243674,0.0,0.0,0.0,0.345163,-0.1412470498060423,0.0,0.0,0.4907927120586959,0.0,-0.21625690713087742
992,0.9826,0.000189373,632.097,0.000247263,-9.90865e-16,1.33536e-14,-2.67309e-16,-0.152402,0.399643,-0.24388,0.0,0.0,0.0,0.345457,-0.1413569631490631,0.0,0.0,0.4912922112786835,0.0,-0.2164183415796893
993,0.9836,0.000189143,632.241,0.000246964,-1.14385e-15,1.31543e-14,-2.61842e-16,-0.15253,0.399978,-0.244086,0.0,0.0,0.0,0.345751,-0.14146686242407636,0.0,0.0,0.4917918778589412,0.0,-0.21657974277642988
994,0.9846,0.000188913,632.385,0.000246666,-1.10253e-15,1.37342e-14,-6.46875e-17,-0.152659,0.400313,-0.244292,0.0,0.0,0.0,0.346045,-0.1415776060557059,0.0,0.0,0.4922917118555439,0.0,-0.21674111072794822
995,0.9856,0.000188684,632.529,0.000246368,-1.06287e-15,5.91587e-16,-1.5949e-16,-0.152787,0.400649,-0.244499,0.0,0.0,0.0,0.34634,-0.14168747709023455,0.0,0.0,0.492793206117045,0.0,-0.21690322853825528
996,0.9866,0.000188455,632.673,0.000246071,-1.1189e-15,-3.8905e-16,-1.56348e-16,-0.152915,0.400983,-0.244704,0.0,0.0,0.0,0.346634,-0.14179733406217077,0.0,0.0,0.4932918823221786,0.0,-0.21706374692270847
997,0.9876,0.000188226,632.817,0.000245774,-1.17269e-15,5.82436e-16,-3.45085e-16,-0.153043,0.401318,-0.24491,0.0,0.0,0.0,0.346927,-0.14190717697331456,0.0,0.0,0.493792218904455,0.0,-0.21722501517964155
998,0.9886,0.000187997,632.961,0.000245478,-1.13024e-15,-2.37603e-14,-5.02289e-17,-0.153171,0.401653,-0.245116,0.0,0.0,0.0,0.347221,-0.1420170058254655,0.0,0.0,0.49429272312756445,0.0,-0.21738625021873537
999,0.9896,0.00018777,633.104,0.000245182,-1.08948e-15,9.27807e-16,-2.4125e-16,-0.153299,0.401987,-0.245322,0.0,0.0,0.0,0.347515,-0.14212682062042303,0.0,0.0,0.49479190025502895,0.0,-0.217547452046832
