,Time,S11,S22,S33,S12,S13,S23,LE11,LE22,LE33,LE12,LE13,LE23,SDV_EPBAR,E11,E12,E13,E22,E23,E33
0,1e-05,-1.11022e-16,0.752145,-1.11022e-16,0.0,1.01995e-39,3.06292e-18,-2.99999e-06,9.99995e-06,-2.99999e-06,0.0,0.0,0.0,0.0,-2.999985500018454e-06,0.0,0.0,9.999999999621423e-06,0.0,-2.999985500018454e-06
1,2e-05,8.32667e-17,1.50428,-5.55112e-17,-9.72908e-40,-6.12591e-18,6.12579e-18,-5.99994e-06,1.99998e-05,-5.99994e-06,0.0,0.0,0.0,0.0,-5.999922000343716e-06,0.0,0.0,1.9999999997244444e-05,0.0,-5.999922000343716e-06
2,3.5e-05,-1.94289e-16,2.63248,-1.66533e-16,2.27009e-39,-1.22518e-17,-6.12591e-18,-1.04998e-05,3.49994e-05,-1.04998e-05,0.0,0.0,0.0,0.0,-1.0499744877323636e-05,0.0,0.0,3.5000012486241516e-05,0.0,-1.0499744877323636e-05
3,5.75e-05,-1.47105e-15,4.32473,-1.4988e-15,2.27004e-39,-1.22518e-17,-6.12573e-18,-1.72495e-05,5.74983e-05,-1.72495e-05,0.0,0.0,0.0,0.0,-1.7249351228265652e-05,0.0,0.0,5.749995305892597e-05,0.0,-1.7249351228265652e-05
4,9.125e-05,-1.03528e-14,6.86305,-1.03806e-14,3.56723e-39,-1.54074e-33,6.12582e-18,-2.73738e-05,9.12458e-05,-2.73738e-05,0.0,0.0,0.0,0.0,-2.737342534098186e-05,0.0,0.0,9.124996302456445e-05,0.0,-2.737342534098186e-05
5,0.00014188,-5.66491e-14,10.6704,-5.67879e-14,7.45875e-39,-1.22518e-17,-6.1256e-18,-4.25595e-05,0.000141865,-4.25595e-05,0.0,0.0,0.0,0.0,-4.255859435731146e-05,0.0,0.0,0.00014187506331508892,0.0,-4.255859435731146e-05
6,0.00021781,-2.88908e-13,16.381,-2.89047e-13,2.04307e-38,1.22518e-17,1.83762e-17,-6.53366e-05,0.000217789,-6.53366e-05,0.0,0.0,0.0,0.0,-6.533446561085565e-05,0.0,0.0,0.0002178127177461242,0.0,-6.533446561085565e-05
7,0.00033172,-1.46219e-12,24.9461,-1.46233e-12,7.75062e-38,-3.67555e-17,-3.06265e-17,-9.94991e-05,0.000331664,-9.94991e-05,0.0,0.0,0.0,0.0,-9.949415012866503e-05,0.0,0.0,0.0003317190065854625,0.0,-9.949415012866503e-05
8,0.00050258,-7.40322e-12,37.7919,-7.40424e-12,1.0345e-37,1.22518e-17,1.83767e-17,-0.000150736,0.000502452,-0.000150736,0.0,0.0,0.0,0.0,-0.00015072463989995732,0.0,0.0,0.0005025782501502096,0.0,-0.00015072463989995732
9,0.00075887,-3.74463e-11,57.0565,-3.74451e-11,3.83627e-37,-8.57628e-17,-7.96114e-17,-0.000227574,0.000758579,-0.000227574,0.0,0.0,0.0,0.0,-0.0002275481070015406,0.0,0.0,0.0007588667938165372,0.0,-0.0002275481070015406
10,0.0011433,-1.89378e-10,85.9441,-1.89377e-10,-1.0396e-37,4.0431e-16,1.8394e-17,-0.000342794,0.00114265,-0.000342794,0.0,0.0,0.0,0.0,-0.00034273525284966855,0.0,0.0,0.0011433030732321825,0.0,-0.00034273525284966855
11,0.00172,-9.57346e-10,129.255,-9.57346e-10,-2.28245e-37,1.22518e-17,1.83803e-17,-0.000515542,0.00171847,-0.000515542,0.0,0.0,0.0,0.0,-0.0005154091310572984,0.0,0.0,0.001719947415747436,0.0,-0.0005154091310572984
12,0.0025849,-4.83556e-09,194.174,-4.83556e-09,2.119e-38,7.96369e-16,1.83597e-17,-0.000774477,0.00258159,-0.000774477,0.0,0.0,0.0,0.0,-0.0007741771700969791,0.0,0.0,0.0025849251728629064,0.0,-0.0007741771700969791
13,0.0035849,-1.06427e-08,269.158,-1.06427e-08,-2.27447e-37,1.22518e-17,1.83358e-17,-0.00107355,0.00357852,-0.00107355,0.0,0.0,0.0,0.0,-0.0010729739513561931,0.0,0.0,0.00358493054717135,0.0,-0.0010729739513561931
14,0.0045849,-0.0716651,289.061,-0.116847,0.0101178,-0.0098091,-0.0178686,-0.00142415,0.00457445,-0.00161412,4.30336e-07,-5.52457e-07,-5.26674e-07,0.000638721,-0.0014231363796283203,4.30336092538397e-07,-5.52456847380256e-07,0.004584928768509355,-5.26673861300786e-07,-0.0016128180089303168
15,0.0055849,-0.0634907,292.14,-0.109782,0.0091079,-0.00747775,-0.0157531,-0.00178732,0.00556939,-0.00222958,4.9046e-07,-8.62007e-07,-1.98164e-07,0.00147304,-0.0017857236947864674,4.904601202948555e-07,-8.620066285214278e-07,0.0055849278846065165,-1.9816398033611904e-07,-0.002227096332699685
16,0.0065849,0.0270543,295.25,0.0442525,-0.0141313,0.0140187,0.0188146,-0.00215011,0.00656334,-0.00284304,-4.44444e-07,-3.90448e-07,1.41142e-06,0.0023069,-0.002147800169253866,-4.444439012374346e-07,-3.904479237704095e-07,0.006584925915370743,1.41142099607805e-06,-0.0028390023890486615
17,0.0075849,-0.0205349,298.083,-0.0375671,-0.0018498,0.00318493,-0.000221878,-0.00251319,0.00755631,-0.00345869,-3.16956e-08,-1.07838e-06,1.06194e-06,0.00314182,-0.0025100345819538683,-3.16955994783541e-08,-1.078379418539832e-06,0.0075849309545927834,1.0619405639289425e-06,-0.0034527156215676813
18,0.0085849,0.029967,300.976,0.0478653,-0.0149642,0.0151614,0.0183878,-0.00287574,0.00854829,-0.00407213,-6.21964e-07,-9.09005e-07,2.09417e-06,0.00397607,-0.0028716090205492817,-6.219638065685373e-07,-9.090045868243024e-07,0.00858493096240287,2.0941721927680845e-06,-0.004063850121358459
19,0.0095849,-0.00976057,303.67,-0.0193222,-0.00482997,0.00609045,0.00276418,-0.00323841,0.00953928,-0.00468683,-3.1146e-07,-1.50138e-06,1.85691e-06,0.00481094,-0.003233172006118723,-3.114599514963956e-07,-1.5013788728923672e-06,0.009584923952826285,1.856911724162913e-06,-0.004675863950967196
20,0.010585,0.0248539,306.399,0.0389274,-0.0138461,0.014392,0.0153229,-0.00360061,0.0105293,-0.00529976,-7.47211e-07,-1.44458e-06,2.64526e-06,0.00564522,-0.003594135576769353,-7.4721072085282e-07,-1.4445789565664668e-06,0.010584928149636852,2.645263498690653e-06,-0.005285741048597692
21,0.011585,-0.00371475,308.974,-0.00912612,-0.00657225,0.00788097,0.00405486,-0.00396283,0.0115183,-0.00591341,-5.51168e-07,-1.92258e-06,2.54734e-06,0.00647983,-0.003954988350989286,-5.511678481395776e-07,-1.922578151791754e-06,0.011584891043720846,2.5473432445632938e-06,-0.005895960203961881
22,0.012585,0.0203032,311.561,0.0311728,-0.0128586,0.0137034,0.0126247,-0.00432464,0.0125064,-0.00652567,-8.8143e-07,-1.93918e-06,3.16805e-06,0.00731393,-0.004315302210144756,-8.814296115211562e-07,-1.939178119747531e-06,0.012584932063461896,3.16805501832107e-06,-0.006504424055321034
23,0.013585,0.000548095,314.028,-0.00197938,-0.00783109,0.00922411,0.00474013,-0.00468639,0.0134935,-0.00713828,-7.73709e-07,-2.32582e-06,3.17524e-06,0.00814815,-0.0046754260082509935,-7.737087006631782e-07,-2.325817295312227e-06,0.013584948126631247,3.1752450411204336e-06,-0.007112862993183144
24,0.014585,0.0169188,316.491,0.0254458,-0.0121428,0.0132456,0.0104592,-0.00504779,0.0144796,-0.00774978,-1.02747e-06,-2.39335e-06,3.67265e-06,0.0089819,-0.00503507131746983,-1.0274694721701394e-06,-2.3933471359205427e-06,0.014584937207563264,3.6726567442801894e-06,-0.007719827879035357
25,0.015585,0.00358177,318.859,0.0030893,-0.0087517,0.0102509,0.005029,-0.00540906,0.0154647,-0.00836136,-9.83622e-07,-2.71111e-06,3.75283e-06,0.00981562,-0.005394457375645478,-9.836215162373207e-07,-2.71110632499294e-06,0.015584897278674292,3.752837041792745e-06,-0.008326501053201651
26,0.016585,0.0145116,321.211,0.0213843,-0.0116527,0.0129829,0.00873245,-0.00577,0.0164489,-0.00897202,-1.18269e-06,-2.81265e-06,4.15988e-06,0.0106489,-0.0057533855205413875,-1.1826893006050554e-06,-2.8126460445143664e-06,0.016584927968955387,4.159888652210952e-06,-0.008931891529381564
27,0.017585,0.00569161,323.487,0.00660852,-0.0094152,0.011035,0.00503092,-0.00613079,0.0174321,-0.00958256,-1.18355e-06,-3.07946e-06,4.28818e-06,0.011482,-0.006112035054106402,-1.183549299565989e-06,-3.079455258458985e-06,0.0175849257885059,4.2881891941792816e-06,-0.00953679357508952
28,0.018585,0.0128428,325.739,0.0185729,-0.0113313,0.0128655,0.00734215,-0.00649127,0.0184143,-0.0101923,-1.34434e-06,-3.20232e-06,4.62956e-06,0.0123147,-0.0064702472196703775,-1.3443390963763235e-06,-3.2023148726079143e-06,0.01858488870401298,4.629570716341291e-06,-0.010140534529365253
29,0.019585,0.00712031,327.93,0.00899013,-0.00988589,0.0116357,0.00483042,-0.00685156,0.0193956,-0.0108018,-1.37562e-06,-3.43173e-06,4.78772e-06,0.0131472,-0.006828141577548963,-1.3756190538893875e-06,-3.431724111657708e-06,0.0195849166387565,4.787731461064482e-06,-0.010743670049348397
30,0.020585,0.0117082,330.093,0.0166642,-0.0111296,0.0128502,0.00620322,-0.00721156,0.0203759,-0.0114107,-1.51013e-06,-3.56672e-06,5.08161e-06,0.0139792,-0.007185619096766849,-1.5101288597385576e-06,-3.566713639213681e-06,0.020584905797141895,5.081622911351502e-06,-0.011345844877923561
31,0.021585,0.00806081,332.205,0.0105585,-0.0102151,0.0121007,0.00449366,-0.00757135,0.0213553,-0.0120192,-1.56152e-06,-3.76868e-06,5.25671e-06,0.0148109,-0.00754275953124095,-1.5615187808348807e-06,-3.768672898529779e-06,0.021584956298670743,5.2567238164602514e-06,-0.011947257932836242
32,0.022585,0.0109477,334.287,0.0153873,-0.0110093,0.0129027,0.0052491,-0.00793085,0.0223337,-0.012627,-1.67826e-06,-3.90945e-06,5.51612e-06,0.0156421,-0.007899483784163053,-1.6782585917640702e-06,-3.909442358063231e-06,0.022584964143978592,5.516135213712303e-06,-0.01254761392279724
33,0.023585,0.0086604,336.325,0.0115602,-0.0104425,0.0124666,0.00407048,-0.00829013,0.0233111,-0.0132345,-1.74254e-06,-4.0911e-06,5.69934e-06,0.016473,-0.008255861634078654,-1.742538481730449e-06,-4.091091631464039e-06,0.023584927290316138,5.699356241173348e-06,-0.013147309071494306
34,0.024585,0.0104415,338.333,0.0145404,-0.0109418,0.0129975,0.00442963,-0.00864913,0.0242876,-0.0138413,-1.84739e-06,-4.23337e-06,5.93344e-06,0.0173034,-0.008611833878910846,-1.8473882935632346e-06,-4.233361039274186e-06,0.024584946151559928,5.9334576028025054e-06,-0.01374594963843312
35,0.025585,0.00902741,340.303,0.0121761,-0.0105973,0.012761,0.00359688,-0.00900788,0.0252631,-0.0144478,-1.91963e-06,-4.39975e-06,6.11897e-06,0.0181334,-0.008967430594532089,-1.919628157542874e-06,-4.399740321070489e-06,0.025584916422732862,6.1189887208268345e-06,-0.014343931363688944
36,0.026585,0.0101035,342.243,0.0139783,-0.0109066,0.0131166,0.00370816,-0.00936637,0.0262377,-0.0150536,-2.01654e-06,-4.54083e-06,6.3341e-06,0.0189629,-0.009322642186632257,-2.016537966831322e-06,-4.540819690479481e-06,0.026584938713985595,6.334120060458304e-06,-0.014940860981831783
37,0.027585,0.00923899,344.149,0.012535,-0.0107011,0.0130039,0.00309788,-0.0097246,0.0272113,-0.015659,-2.09343e-06,-4.69543e-06,6.51825e-06,0.019792,-0.00967746897792654,-2.0934278087691993e-06,-4.69541897651915e-06,0.027584908516628426,6.5182712438716095e-06,-0.015537035304417302
38,0.028585,0.0098737,346.026,0.0136001,-0.0108895,0.0132474,0.00305853,-0.0100826,0.028184,-0.0162638,-2.18501e-06,-4.83368e-06,6.71877e-06,0.0206206,-0.01003194098975646,-2.185007612842682e-06,-4.833668317827389e-06,0.028584926637108543,6.718792570969967e-06,-0.016132258491829754
39,0.029585,0.00934854,347.873,0.0127256,-0.0107687,0.0132094,0.00259015,-0.0104403,0.0291557,-0.0168681,-2.26441e-06,-4.97895e-06,6.89934e-06,0.0214487,-0.010385989239159898,-2.2644074362254685e-06,-4.978937605093492e-06,0.029584888363045847,6.899363800494385e-06,-0.01672663016053577
40,0.030585,0.00971166,349.692,0.0133375,-0.0108812,0.0133818,0.00246244,-0.0107977,0.0301265,-0.0174719,-2.35233e-06,-5.11346e-06,7.08819e-06,0.0222763,-0.01073961409008084,-2.352327233223761e-06,-5.113446926330312e-06,0.030584894697205156,7.0882151212980915e-06,-0.017320151419145002
41,0.031585,0.00939214,351.482,0.012808,-0.0108106,0.0133873,0.00208437,-0.0111548,0.0310964,-0.0180751,-2.43288e-06,-5.25108e-06,7.26393e-06,0.0231034,-0.01109281590595168,-2.432877040603465e-06,-5.251066213074473e-06,0.03158494388202815,7.263956382397296e-06,-0.01791272516559972
42,0.032585,0.0095908,353.247,0.0131458,-0.0108758,0.0135149,0.00190725,-0.0115117,0.0320653,-0.0186778,-2.51819e-06,-5.38142e-06,7.44315e-06,0.02393,-0.011445693905130172,-2.5181868293921994e-06,-5.3814055201995e-06,0.03258493089963643,7.443177700405812e-06,-0.018504450831701047
43,0.033585,0.00939362,354.985,0.0128218,-0.010834,0.0135445,0.001587,-0.0118684,0.0330333,-0.01928,-2.59901e-06,-5.51258e-06,7.61345e-06,0.024756,-0.011798248344291884,-2.5990066225833885e-06,-5.5125648057430254e-06,0.033584957047315456,7.613478982371191e-06,-0.019095329519980497
44,0.034585,0.00949418,356.699,0.0129962,-0.0108697,0.0136435,0.00138428,-0.0122247,0.0340003,-0.0198817,-2.68236e-06,-5.63859e-06,7.78444e-06,0.0255815,-0.01215028190990286,-2.68235640243919e-06,-5.638574103183913e-06,0.034584917103546386,7.784470298810575e-06,-0.019685362331035683
45,0.035585,0.00936846,358.389,0.0127925,-0.0108436,0.0136856,0.00110168,-0.0125808,0.0349664,-0.0204828,-2.76293e-06,-5.76413e-06,7.94906e-06,0.0264065,-0.012501992568715314,-2.762926183064174e-06,-5.764113387485281e-06,0.03558491256198759,7.94909159385071e-06,-0.020274452390983466
46,0.036585,0.00941129,360.055,0.012871,-0.0108609,0.0137662,0.000887568,-0.0129366,0.0359316,-0.0210834,-2.84472e-06,-5.88584e-06,8.11282e-06,0.027231,-0.012853281861688215,-2.8447159537980937e-06,-5.885822678464159e-06,0.03658494165599668,8.112852909025747e-06,-0.020862698886772058
47,0.037585,0.00932653,361.699,0.0127364,-0.0108426,0.0138138,0.000630257,-0.0132921,0.0368958,-0.0216834,-2.92473e-06,-6.0064e-06,8.27176e-06,0.0280549,-0.013204150149453087,-2.924725722941446e-06,-6.006381961576324e-06,0.03758489885863869,8.271794211145433e-06,-0.021450005057969457
48,0.038585,0.00933579,363.32,0.0127593,-0.0108482,0.0138822,0.00041298,-0.0136474,0.0378591,-0.0222829,-3.00519e-06,-6.12395e-06,8.42901e-06,0.0288782,-0.013554696436669289,-3.0051854844614923e-06,-6.1239312486582875e-06,0.03858488595816789,8.429045524227519e-06,-0.02203646996951536
49,0.039585,0.00927405,364.921,0.0126636,-0.0108335,0.0139314,0.000173409,-0.0140023,0.0388215,-0.0228819,-3.08444e-06,-6.24e-06,8.5824e-06,0.0297009,-0.013904723758881632,-3.0844352431058653e-06,-6.239980531286271e-06,0.0395849011825542,8.58243682899662e-06,-0.022622094711883034
50,0.040585,0.00926401,366.5,0.0126547,-0.0108313,0.0139913,-4.24212e-05,-0.014357,0.039783,-0.0234803,-3.16372e-06,-6.35355e-06,8.73369e-06,0.0305231,-0.014254429729344098,-3.1637149954244492e-06,-6.353529816260917e-06,0.04058494275798519,8.733728138698993e-06,-0.023206782694315864
51,0.041585,0.00921493,368.06,0.0125807,-0.0108175,0.01404,-0.000268851,-0.0147115,0.0407435,-0.0240782,-3.2421e-06,-6.46546e-06,8.88172e-06,0.0313447,-0.01460381460187743,-3.24209474444892e-06,-6.465439098990444e-06,0.04158490475037402,8.881759442580517e-06,-0.02379063279956084
52,0.042585,0.00919388,369.6,0.0125537,-0.0108102,0.0140937,-0.000480777,-0.0150656,0.0417031,-0.0246756,-3.32028e-06,-6.57521e-06,9.02749e-06,0.0321658,-0.014952681620575947,-3.3202744879057278e-06,-6.5751883833176095e-06,0.042584889340844256,9.02753074782936e-06,-0.02437364611211079
53,0.043585,0.00915162,371.12,0.0124915,-0.010796,0.0141407,-0.000696894,-0.0154194,0.0426618,-0.0252724,-3.39774e-06,-6.6833e-06,9.1704e-06,0.0329862,-0.015301129717715467,-3.3977342276392264e-06,-6.683277666841292e-06,0.04358489475025573,9.170442048178629e-06,-0.0249557262101332
54,0.044585,0.00912432,372.623,0.0124544,-0.0107849,0.0141897,-0.000903711,-0.015773,0.0436196,-0.0258687,-3.47486e-06,-6.78945e-06,9.311e-06,0.0338061,-0.01564925768559533,-3.4748539626816566e-06,-6.78942695175877e-06,0.04458491919770524,9.311043347448589e-06,-0.02553697179500003
55,0.045585,0.00908564,374.107,0.0123984,-0.0107696,0.0142344,-0.00111129,-0.0161263,0.0445765,-0.0264644,-3.55136e-06,-6.89397e-06,9.44901e-06,0.0346253,-0.01599696737632139,-3.5513536938980295e-06,-6.893946236652404e-06,0.0455849609005301,9.44905464206336e-06,-0.026117286556989083
56,0.046585,0.00905483,375.574,0.0123557,-0.0107556,0.0142796,-0.0013125,-0.0164793,0.0455324,-0.0270596,-3.62746e-06,-6.99673e-06,9.58476e-06,0.035444,-0.01634425914623383,-3.6274534207514364e-06,-6.996705522954727e-06,0.04658491341581783,9.584805934048646e-06,-0.026696769076924975
57,0.047585,0.00901798,377.023,0.012303,-0.0107391,0.0143219,-0.00151271,-0.0168321,0.0464874,-0.0276543,-3.70299e-06,-7.09789e-06,9.7181e-06,0.0362621,-0.016691231682052776,-3.7029831438939453e-06,-7.097864810012844e-06,0.04758487941589551,9.718147220949547e-06,-0.027275420429321073
58,0.048585,0.00898521,378.456,0.0122572,-0.0107228,0.0143638,-0.0017082,-0.0171845,0.0474416,-0.0282484,-3.77808e-06,-7.19743e-06,9.84925e-06,0.0370795,-0.01703768864270616,-3.778072863114268e-06,-7.197404098602256e-06,0.048584961971340324,9.849298504116533e-06,-0.027853144472124614
59,0.049585,0.00894926,379.873,0.0122062,-0.0107048,0.0144036,-0.00190182,-0.0175367,0.0483948,-0.028842,-3.85265e-06,-7.29545e-06,9.97815e-06,0.0378964,-0.017383827010221564,-3.852642578516807e-06,-7.295423388287148e-06,0.0495849496755163,9.978199781990327e-06,-0.028430039606150537
60,0.050585,0.00891542,381.274,0.0121588,-0.0106866,0.0144427,-0.00209168,-0.0178886,0.0493471,-0.029435,-3.92674e-06,-7.39195e-06,1.01049e-05,0.0387126,-0.017729548808178675,-3.9267322903269175e-06,-7.391922679622631e-06,0.05058494549552939,1.0104951054579203e-05,-0.029006009800623178
61,0.051585,0.00887993,382.659,0.0121087,-0.0106672,0.0144802,-0.00227929,-0.0182402,0.0502985,-0.0300275,-4.00033e-06,-7.487e-06,1.02296e-05,0.0395282,-0.01807485439053902,-4.000321998653966e-06,-7.4869719725034756e-06,0.051584947638262824,1.022965232255757e-05,-0.02958115333671807
62,0.052585,0.00884552,384.029,0.0120605,-0.0106474,0.0145167,-0.00246372,-0.0185915,0.051249,-0.0306194,-4.07345e-06,-7.58061e-06,1.03522e-05,0.0403432,-0.018419744110765413,-4.0734417035004356e-06,-7.580581267263575e-06,0.05258495430887522,1.0352253584144933e-05,-0.030155374294600912
63,0.053585,0.00881027,385.385,0.0120109,-0.0106266,0.0145519,-0.00264577,-0.0189425,0.0521986,-0.0312108,-4.14608e-06,-7.67285e-06,1.04728e-05,0.0411576,-0.018764218321821846,-4.146071404975693e-06,-7.6728205637977e-06,0.05358496371080523,1.04728548400157e-05,-0.030728770836173425
64,0.054585,0.00877559,386.726,0.0119624,-0.0106054,0.0145862,-0.002825,-0.0192933,0.0531473,-0.0318017,-4.21823e-06,-7.76373e-06,1.05915e-05,0.0419714,-0.019108375465342164,-4.218221103302611e-06,-7.763699862328721e-06,0.05458497404577667,1.0591556090178145e-05,-0.0313013440220784
65,0.055585,0.00874051,388.053,0.0119132,-0.0105833,0.0146192,-0.00300184,-0.0196438,0.054095,-0.032392,-4.28989e-06,-7.85329e-06,1.07083e-05,0.0427845,-0.019452117735389685,-4.289880798480361e-06,-7.853259162970971e-06,0.055584877955309864,1.0708357333966134e-05,-0.03187299809840205
66,0.056585,0.00870574,389.366,0.0118646,-0.0105608,0.0146513,-0.00317612,-0.0199939,0.0550419,-0.0329818,-4.36108e-06,-7.94157e-06,1.08232e-05,0.043597,-0.019795347463100854,-4.361070490510599e-06,-7.941538465838782e-06,0.0565848846546988,1.0823258570935579e-05,-0.032443831048938776
67,0.057585,0.00867081,390.666,0.0118157,-0.0105376,0.0146824,-0.00334807,-0.0203438,0.0559879,-0.0335711,-4.43179e-06,-8.0286e-06,1.09362e-05,0.0444089,-0.020138261074788555,-4.431780179614542e-06,-8.028567770823614e-06,0.057584886882059205,1.0936259800420345e-05,-0.0330138439285107
68,0.058585,0.00863606,391.953,0.0117672,-0.0105139,0.0147125,-0.00351763,-0.0206935,0.056933,-0.0341598,-4.50203e-06,-8.11441e-06,1.10475e-05,0.0452201,-0.020480858818183956,-4.502019865904039e-06,-8.114377078261015e-06,0.05858488283230345,1.1047561023769248e-05,-0.033582941148387446
69,0.059585,0.00860129,393.226,0.0117186,-0.0104896,0.0147417,-0.00368496,-0.0210428,0.0578773,-0.0347479,-4.5718e-06,-8.19903e-06,1.1157e-05,0.0460308,-0.020822945105350543,-4.5717895493790905e-06,-8.198996388042445e-06,0.059584976657145905,1.1157062239641746e-05,-0.034151123930175054
70,0.060585,0.00856665,394.488,0.0116703,-0.0104649,0.01477,-0.00385005,-0.0213918,0.0588206,-0.0353356,-4.6411e-06,-8.28248e-06,1.12648e-05,0.0468407,-0.021164618272073166,-4.641089230150719e-06,-8.282445700391605e-06,0.060584954731135676,1.1264863448046114e-05,-0.03471858654941762
71,0.061585,0.00853205,395.737,0.0116221,-0.0104396,0.0147974,-0.004013,-0.0217406,0.059763,-0.0359227,-4.70994e-06,-8.3648e-06,1.1371e-05,0.0476501,-0.02150597651688113,-4.7099289082197515e-06,-8.364765015200781e-06,0.06158492110262115,1.1371064650100848e-05,-0.035285136940113704
72,0.062585,0.00849757,396.974,0.011574,-0.0104139,0.014824,-0.00417384,-0.0220891,0.0607045,-0.0365092,-4.77831e-06,-8.44601e-06,1.14755e-05,0.0484588,-0.021846922270816638,-4.778298583918428e-06,-8.44597433258265e-06,0.06258487395978163,1.1475565843799274e-05,-0.0358507763173368
73,0.063585,0.00846317,398.199,0.0115262,-0.0103878,0.0148497,-0.00433263,-0.0224373,0.0616452,-0.0370952,-4.84622e-06,-8.52613e-06,1.15784e-05,0.0492669,-0.02218745588213966,-4.846208257136553e-06,-8.526093652649891e-06,0.063584917847612,1.1578467030037842e-05,-0.03641560225225271
74,0.064585,0.0084289,399.412,0.0114785,-0.0103612,0.0148747,-0.00448941,-0.0227852,0.062585,-0.0376807,-4.91368e-06,-8.60519e-06,1.16797e-05,0.0500743,-0.022527577698617685,-4.913667927874954e-06,-8.605152975404984e-06,0.06458494479246268,1.1679768207928376e-05,-0.03697961578605946
75,0.065585,0.00839473,400.615,0.011431,-0.0103342,0.0148989,-0.00464425,-0.0231328,0.0635239,-0.0382656,-4.98067e-06,-8.68322e-06,1.17794e-05,0.0508811,-0.022867288067527025,-4.9806575964650435e-06,-8.683182300961434e-06,0.06558495297750899,1.1779469377470875e-05,-0.03754272171240447
76,0.066585,0.00836069,401.806,0.0113837,-0.0103068,0.0149224,-0.00479717,-0.0234801,0.0644619,-0.0388501,-5.04722e-06,-8.76022e-06,1.18776e-05,0.0516872,-0.02320658733565284,-5.047207262798281e-06,-8.760181629430264e-06,0.06658494058427,1.1877670538895657e-05,-0.03810511361651825
77,0.067585,0.00832677,402.986,0.0113366,-0.010279,0.0149452,-0.00494824,-0.0238271,0.065399,-0.0394339,-5.11331e-06,-8.83624e-06,1.19744e-05,0.0524927,-0.023545475849289788,-5.113296927095057e-06,-8.836200960593565e-06,0.06758490579261278,1.197447169332122e-05,-0.03866650396540161
78,0.068585,0.00829299,404.156,0.0112897,-0.0102509,0.0149672,-0.00509748,-0.0241739,0.0663353,-0.0400172,-5.17896e-06,-8.91128e-06,1.20697e-05,0.0532976,-0.023884051565842723,-5.178946589246003e-06,-8.911240294673384e-06,0.06858495363924755,1.2069772839184978e-05,-0.03922708628391103
79,0.069585,0.00825934,405.315,0.011243,-0.0102225,0.0149886,-0.00524495,-0.0245204,0.0672707,-0.0406,-5.24416e-06,-8.98537e-06,1.21635e-05,0.0541018,-0.024222217151404046,-5.244146249472337e-06,-8.985329631672201e-06,0.06958497564225641,1.2163573975598752e-05,-0.03978686160365241
80,0.070585,0.00822583,406.464,0.0111966,-0.0101937,0.0150093,-0.00539068,-0.0248666,0.0682052,-0.0411823,-5.30892e-06,-9.05853e-06,1.2256e-05,0.0549054,-0.024559972950923825,-5.308905907663863e-06,-9.058488971591672e-06,0.07058496997657304,1.225607510502158e-05,-0.04034583095441979
81,0.071585,0.00819247,407.603,0.0111504,-0.0101646,0.0150294,-0.00553471,-0.0252125,0.0691388,-0.041764,-5.37323e-06,-9.13078e-06,1.2347e-05,0.0557083,-0.024897319308863963,-5.373215564263845e-06,-9.130738314544473e-06,0.07158493481549844,1.2347076224550335e-05,-0.04090389945459394
82,0.072585,0.00815926,408.733,0.0111044,-0.0101352,0.0150489,-0.00567708,-0.0255581,0.0700716,-0.0423452,-5.43711e-06,-9.20213e-06,1.24367e-05,0.0565106,-0.025234256569198643,-5.437095218940868e-06,-9.202087660531433e-06,0.07258497558919874,1.2436777335977922e-05,-0.04146116415142331
83,0.073585,0.0081262,409.852,0.0110586,-0.0101055,0.0150678,-0.00581783,-0.0259034,0.0710034,-0.0429259,-5.50056e-06,-9.2726e-06,1.25251e-05,0.0573122,-0.02557078507541488,-5.500544871916979e-06,-9.272557009554205e-06,0.07358487605073072,1.252517843930434e-05,-0.04201762606904569
84,0.074585,0.00809329,410.962,0.0110131,-0.0100756,0.015086,-0.00595698,-0.0262485,0.0719345,-0.043506,-5.56357e-06,-9.34222e-06,1.26121e-05,0.0581131,-0.02590700257981826,-5.563554523413394e-06,-9.342176361615273e-06,0.0745849564439971,1.2612179532967005e-05,-0.042573190487123824
85,0.075585,0.00806054,412.063,0.0109678,-0.0100453,0.0151038,-0.00609458,-0.0265932,0.0728646,-0.0440856,-5.62615e-06,-9.41099e-06,1.26979e-05,0.0589135,-0.026242714572742853,-5.6261341732088965e-06,-9.410945716825658e-06,0.07558489286033021,1.269798061875882e-05,-0.04312795427983995
86,0.076585,0.00802795,413.154,0.0109228,-0.0100149,0.0151209,-0.00623065,-0.0269377,0.0737939,-0.0446647,-5.68831e-06,-9.47893e-06,1.27824e-05,0.0597131,-0.026578116181328437,-5.68829382163738e-06,-9.478885075075993e-06,0.07658489848191041,1.2782481695117198e-05,-0.04368191846570524
87,0.077585,0.00799552,414.237,0.010878,-0.00998414,0.0151375,-0.00636523,-0.0272819,0.0747224,-0.0452432,-5.75003e-06,-9.54607e-06,1.28657e-05,0.0605122,-0.026913110337937085,-5.750013468586168e-06,-9.54602443636876e-06,0.07758497177232804,1.2865782763382683e-05,-0.04423498848494545
88,0.078585,0.00796325,415.31,0.0108334,-0.00995318,0.0151536,-0.00649835,-0.0276258,0.0756499,-0.0458212,-5.81134e-06,-9.6124e-06,1.29477e-05,0.0613105,-0.027247697383751768,-5.811323114168765e-06,-9.6123538010362e-06,0.0785848954765822,1.2947783821770642e-05,-0.044787261039457404
89,0.079585,0.00793115,416.375,0.0107891,-0.00992199,0.0151692,-0.00663003,-0.0279694,0.0765766,-0.0463987,-5.87223e-06,-9.67796e-06,1.30285e-05,0.0621082,-0.02758187765947151,-5.872212758495365e-06,-9.677913168748553e-06,0.07958488337204805,1.3028584871177529e-05,-0.04533873714215575
90,0.080585,0.00789921,417.432,0.010745,-0.0098906,0.0151843,-0.00676031,-0.0283127,0.0775025,-0.0469756,-5.9327e-06,-9.74275e-06,1.31082e-05,0.0629053,-0.02791565150531239,-5.93268240156597e-06,-9.742702539616843e-06,0.08058493391751775,1.310828591272184e-05,-0.04588932239311261
91,0.081585,0.00786744,418.48,0.0107012,-0.00985899,0.0151989,-0.00688922,-0.0286558,0.0784275,-0.0475521,-5.99275e-06,-9.80679e-06,1.31867e-05,0.0637017,-0.02824911643610073,-5.9927320434916e-06,-9.806741913642725e-06,0.08158493741170525,1.3186786944840989e-05,-0.04643920867880147
92,0.082585,0.00783584,419.52,0.0106576,-0.00982719,0.0152131,-0.00701677,-0.0289986,0.0793516,-0.048128,-6.05239e-06,-9.87008e-06,1.3264e-05,0.0644975,-0.028582175549392907,-6.0523716842730835e-06,-9.87003129093722e-06,0.08258489201022945,1.3264087967312932e-05,-0.046988206239502284
93,0.083585,0.0078044,420.552,0.0106143,-0.0097952,0.0152268,-0.007143,-0.029341,0.0802749,-0.0487033,-6.11163e-06,-9.93266e-06,1.33402e-05,0.0652926,-0.028914732075558502,-6.11161132402227e-06,-9.932610671281594e-06,0.0835849042256207,1.3340288980812076e-05,-0.04753631624549215
94,0.084585,0.00777313,421.576,0.0105712,-0.00976303,0.01524,-0.00726793,-0.0296832,0.0811974,-0.0492782,-6.17045e-06,-9.99451e-06,1.34153e-05,0.066087,-0.029246980603276906,-6.170430962848528e-06,-9.99446005500726e-06,0.08458497251034314,1.3415389985560466e-05,-0.04808373024805046
95,0.085585,0.00774204,422.592,0.0105284,-0.00973068,0.0152528,-0.00739159,-0.0300252,0.0821189,-0.0498525,-6.22887e-06,-1.00557e-05,1.34893e-05,0.0668808,-0.02957892137080398,-6.228850600642488e-06,-1.0055649441564896e-05,0.08558487819830018,1.3489390981114013e-05,-0.04863025881107075
96,0.086585,0.00771111,423.6,0.0104858,-0.00969817,0.0152651,-0.00751399,-0.0303668,0.0830397,-0.0504263,-6.28689e-06,-1.01161e-05,1.35622e-05,0.067674,-0.02991036059822072,-6.286870237515174e-06,-1.0116048832387037e-05,0.0865849451142926,1.3562291967028628e-05,-0.049175998180966185
97,0.087585,0.00768035,424.601,0.0104435,-0.00966549,0.0152771,-0.00763517,-0.0307081,0.0839596,-0.0509996,-6.3445e-06,-1.01759e-05,1.36341e-05,0.0684665,-0.03024139569779538,-6.344479873687803e-06,-1.0175848225713047e-05,0.08758495448909653,1.3634192944866896e-05,-0.049720949356028776
98,0.088585,0.00764976,425.594,0.0104014,-0.00963267,0.0152886,-0.00775514,-0.0310492,0.0848786,-0.0515723,-6.40172e-06,-1.02351e-05,1.37049e-05,0.0692583,-0.030572123948812924,-6.4016995090510065e-06,-1.0235047621542925e-05,0.0885849044689111,1.3704993912622143e-05,-0.05026501835930297
99,0.089585,0.00761934,426.58,0.0103596,-0.00959969,0.0152998,-0.00787393,-0.03139,0.0857968,-0.0521445,-6.45855e-06,-1.02935e-05,1.37748e-05,0.0700495,-0.030902448678440164,-6.458529143604785e-06,-1.029344702208057e-05,0.08958490215687553,1.3774894872975452e-05,-0.0508083012677345
100,0.090585,0.00758909,427.559,0.010318,-0.00956658,0.0153105,-0.00799156,-0.0317305,0.0867142,-0.0527162,-6.51498e-06,-1.03514e-05,1.38435e-05,0.07084,-0.031232370222334715,-6.5149587775703566e-06,-1.0351346424464225e-05,0.09058494599608502,1.3843595821683152e-05,-0.051350799074125986
101,0.091585,0.00755901,428.53,0.0102767,-0.00953333,0.0153209,-0.00810805,-0.0320707,0.0876307,-0.0532874,-6.57102e-06,-1.04085e-05,1.39113e-05,0.0716299,-0.03156188891567724,-6.5709984109485475e-06,-1.040844583177769e-05,0.09158492526959638,1.3911396762544825e-05,-0.05189251276953466
102,0.092585,0.0075291,429.495,0.0102356,-0.00949995,0.0153309,-0.00822341,-0.0324106,0.0885464,-0.0538581,-6.62667e-06,-1.04651e-05,1.39781e-05,0.0724191,-0.031891005093171776,-6.626648043628336e-06,-1.0465045241048188e-05,0.09258494737590994,1.3978197693997885e-05,-0.052433443343276154
103,0.093585,0.00749936,430.452,0.0101947,-0.00946645,0.0153406,-0.00833767,-0.0327503,0.0894612,-0.0544282,-6.68194e-06,-1.05211e-05,1.4044e-05,0.0732077,-0.03221981586706979,-6.681917675943616e-06,-1.0521044653377665e-05,0.09358490139500275,1.4044098617382872e-05,-0.05297349708028143
104,0.094585,0.00746979,431.403,0.0101541,-0.00943283,0.0153499,-0.00845085,-0.0330896,0.0903752,-0.0549979,-6.73682e-06,-1.05764e-05,1.41089e-05,0.0739956,-0.032548127982245934,-6.736797307671516e-06,-1.0576344070090116e-05,0.09458489492230382,1.4108999530915156e-05,-0.05351286442561842
105,0.095585,0.00744038,432.348,0.0101137,-0.0093991,0.0153588,-0.00856296,-0.0334287,0.0912884,-0.055567,-6.79133e-06,-1.06312e-05,1.41728e-05,0.0747829,-0.03287613529526423,-6.791306938924713e-06,-1.0631143488981643e-05,0.0955849263932198,1.4172900434594737e-05,-0.05405135701187469
106,0.096585,0.00741114,433.285,0.0100736,-0.00936526,0.0153674,-0.00867402,-0.0337675,0.0922007,-0.0561356,-6.84545e-06,-1.06854e-05,1.42358e-05,0.0755695,-0.033203741361024885,-6.845426569923596e-06,-1.0685342911265217e-05,0.09658488458314207,1.4235901329540113e-05,-0.0545890705238391
107,0.097585,0.00738207,434.216,0.0100337,-0.00933132,0.0153757,-0.00878406,-0.0341061,0.0931122,-0.0567036,-6.8992e-06,-1.0739e-05,1.42979e-05,0.0763554,-0.03353104315887856,-6.899176200558799e-06,-1.0738942337162882e-05,0.09758487738292243,1.4298002215529237e-05,-0.05512591145452417
108,0.098585,0.00735317,435.141,0.00999407,-0.00929728,0.0153837,-0.00889308,-0.0344443,0.0940229,-0.0572712,-6.95257e-06,-1.0792e-05,1.43591e-05,0.0771407,-0.03385784769432032,-6.952545830940515e-06,-1.0791941766563617e-05,0.0985849032234054,1.4359203092340067e-05,-0.05566206981104649
109,0.099585,0.00732443,436.06,0.00995466,-0.00926314,0.0153913,-0.0090011,-0.0347823,0.0949328,-0.0578382,-7.00557e-06,-1.08445e-05,1.44194e-05,0.0779254,-0.03418434856004493,-7.005545461069573e-06,-1.0844441198587518e-05,0.09958496053392452,1.4419503959972602e-05,-0.056197357649020785
110,0.1006,0.00729586,436.972,0.00991549,-0.00922892,0.0153987,-0.00910814,-0.0351199,0.0958418,-0.0584048,-7.0582e-06,-1.08964e-05,1.44789e-05,0.0787094,-0.03451035289134363,-7.058175090945973e-06,-1.0896340634447554e-05,0.10058493768380927,1.4479004819767383e-05,-0.05673196475768061
111,0.1016,0.00726745,437.878,0.00987655,-0.00919461,0.0154057,-0.00921422,-0.0354573,0.09675,-0.0589708,-7.11046e-06,-1.09478e-05,1.45374e-05,0.0794927,-0.034836054149386064,-7.110434720791758e-06,-1.0947740073041778e-05,0.10158494295787279,1.4537505668599238e-05,-0.05726570340334214
112,0.1026,0.0072392,438.778,0.00983784,-0.00916021,0.0154125,-0.00931935,-0.0357945,0.0976574,-0.0595363,-7.16236e-06,-1.09987e-05,1.45951e-05,0.0802754,-0.03516145256667047,-7.162334350385713e-06,-1.0998639514481212e-05,0.1025849747809342,1.4595206508927205e-05,-0.057798668937859676
113,0.1036,0.00721112,439.673,0.00979937,-0.00912574,0.0154189,-0.00942354,-0.0361313,0.0985639,-0.0601013,-7.21389e-06,-1.1049e-05,1.4652e-05,0.0810575,-0.035486355472725384,-7.213863979949053e-06,-1.1048938959978827e-05,0.10358492121782081,1.465210734097333e-05,-0.05833086233111873
114,0.1046,0.0071832,440.561,0.00976113,-0.0090912,0.0154251,-0.00952681,-0.0364679,0.0994696,-0.0606658,-7.26507e-06,-1.10988e-05,1.4708e-05,0.0818389,-0.0358109561321176,-7.265043609483435e-06,-1.1098738408543696e-05,0.10458489084885958,1.4708108163175027e-05,-0.05886228455129916
115,0.1056,0.00715544,441.444,0.00972311,-0.00905659,0.015431,-0.00962918,-0.0368041,0.100375,-0.0612298,-7.31588e-06,-1.11482e-05,1.47633e-05,0.0826196,-0.036135062003416096,-7.315853238987202e-06,-1.114813785907387e-05,0.10558543488697048,1.4763408977991332e-05,-0.059392936564877874
116,0.1066,0.00712784,442.32,0.00968532,-0.00902191,0.0154366,-0.00973065,-0.0371401,0.101279,-0.0617932,-7.36634e-06,-1.1197e-05,1.48177e-05,0.0833997,-0.036458866220428154,-7.366312868573033e-06,-1.119693731388427e-05,0.10658533600732012,1.4817809782741165e-05,-0.05992272532890863
117,0.1076,0.0071004,443.192,0.00964776,-0.00898716,0.015442,-0.00983124,-0.0374759,0.102182,-0.0623562,-7.41644e-06,-1.12453e-05,1.48713e-05,0.0841792,-0.036782369013992455,-7.416412498240099e-06,-1.1245236771872946e-05,0.10758503386138552,1.4871410578320976e-05,-0.06045183987482772
118,0.1086,0.00707312,444.057,0.00961043,-0.00895236,0.0154471,-0.00993097,-0.0378113,0.103084,-0.0629186,-7.46619e-06,-1.12931e-05,1.49241e-05,0.084958,-0.037105378035784176,-7.466162128100251e-06,-1.1293036233150922e-05,0.10858452626523674,1.492421136495281e-05,-0.06098009320132314
119,0.1096,0.00704599,444.918,0.00957331,-0.0089175,0.0154519,-0.0100298,-0.0381465,0.103986,-0.0634806,-7.51559e-06,-1.13404e-05,1.49761e-05,0.0857361,-0.03742808622415261,-7.515561758042466e-06,-1.134033569794024e-05,0.109584920617954,1.4976212142414624e-05,-0.06150767412481839
120,0.1106,0.00701902,445.772,0.00953642,-0.00888259,0.0154565,-0.0101279,-0.0384814,0.104887,-0.064042,-7.56464e-06,-1.13873e-05,1.50274e-05,0.0865136,-0.03775039758402643,-7.5646113881777666e-06,-1.1387235164916909e-05,0.1105851071477999,1.5027512912046959e-05,-0.062034395851941926
121,0.1116,0.00699221,446.622,0.00949975,-0.00884762,0.0154609,-0.0102251,-0.038816,0.105787,-0.0646029,-7.61334e-06,-1.14337e-05,1.50779e-05,0.0872905,-0.03807231244163578,-7.613311018617175e-06,-1.1433634635515944e-05,0.1115850836661676,1.5078013672065183e-05,-0.0625603532407697
122,0.1126,0.00696555,447.466,0.0094633,-0.00881261,0.015465,-0.0103215,-0.0391503,0.106686,-0.0651634,-7.6617e-06,-1.14797e-05,1.51277e-05,0.0880667,-0.03839383112274464,-7.661670649250496e-06,-1.1479634108524372e-05,0.11258484798310975,1.5127814424253927e-05,-0.0630856409371493
123,0.1136,0.00693905,448.305,0.00942706,-0.00877755,0.0154688,-0.010417,-0.0394844,0.107584,-0.0657233,-7.70972e-06,-1.15251e-05,1.51767e-05,0.0888423,-0.038715050081151614,-7.709690280188752e-06,-1.1525033586257116e-05,0.11358439790734454,1.5176815166606517e-05,-0.06361007245848393
124,0.1146,0.0069127,449.139,0.00939104,-0.00874245,0.0154725,-0.0105118,-0.0398181,0.108482,-0.0662827,-7.75739e-06,-1.15702e-05,1.5225e-05,0.0896172,-0.039035777352617984,-7.757359911542139e-06,-1.157013306551935e-05,0.1145848458305525,1.5225115900907582e-05,-0.06413374249978421
125,0.1156,0.0068865,449.968,0.00935523,-0.00870731,0.0154759,-0.0106058,-0.0401517,0.109379,-0.0668416,-7.80473e-06,-1.16148e-05,1.52725e-05,0.0903914,-0.03935630155088432,-7.804699543201288e-06,-1.1614732548514972e-05,0.115585076973864,1.5272616625150448e-05,-0.06465665201042659
126,0.1166,0.00686045,450.792,0.00931963,-0.00867214,0.0154791,-0.0106991,-0.0404849,0.110275,-0.0674001,-7.85173e-06,-1.16589e-05,1.53194e-05,0.0911651,-0.039676334710722294,-7.851699175276394e-06,-1.1658832035243982e-05,0.11658508914138155,1.531951734268233e-05,-0.06517889542023159
127,0.1176,0.00683455,451.611,0.00928425,-0.00863692,0.0154821,-0.0107915,-0.0408178,0.11117,-0.067958,-7.8984e-06,-1.17027e-05,1.53655e-05,0.091938,-0.039995973252109907,-7.898368807768286e-06,-1.1702631523724527e-05,0.11758488013589496,1.536561804993397e-05,-0.06570028665886696
128,0.1186,0.00680879,452.425,0.00924907,-0.00860168,0.0154849,-0.0108833,-0.0411505,0.112064,-0.0685154,-7.94473e-06,-1.1746e-05,1.5411e-05,0.0927104,-0.04031531346661865,-7.944698440676135e-06,-1.1745931016049482e-05,0.11858444775888977,1.541111875003054e-05,-0.06622092020503412
129,0.1196,0.00678319,453.234,0.0092141,-0.00856641,0.0154874,-0.0109742,-0.0414829,0.112958,-0.0690723,-7.99074e-06,-1.17889e-05,1.54558e-05,0.0934821,-0.040634259644630855,-7.990708074112618e-06,-1.1788830511227921e-05,0.11958490939490374,1.545591944140945e-05,-0.06674079700144186
130,0.1206,0.00675773,454.039,0.00917934,-0.00853111,0.0154898,-0.0110645,-0.041815,0.113851,-0.0696287,-8.03641e-06,-1.18313e-05,1.54998e-05,0.0942531,-0.040952812108438486,-8.036377708187104e-06,-1.1831230010472815e-05,0.12058514525783637,1.5499920122508115e-05,-0.067259917989139
131,0.1216,0.00673242,454.839,0.00914478,-0.00849578,0.0154919,-0.011154,-0.0421469,0.114743,-0.0701847,-8.08176e-06,-1.18734e-05,1.55432e-05,0.0950235,-0.04127106705277017,-8.081727342679201e-06,-1.1873329511469244e-05,0.12158515314461793,1.5543320796229665e-05,-0.06777837732968417
132,0.1226,0.00670725,455.634,0.00911042,-0.00846043,0.0154939,-0.0112428,-0.0424785,0.115634,-0.0707401,-8.12678e-06,-1.19151e-05,1.5586e-05,0.0957933,-0.041588928862534735,-8.126746977810129e-06,-1.1915029015430179e-05,0.12258493085089595,1.5586121462352054e-05,-0.06829598946471971
133,0.1236,0.00668223,456.425,0.00907627,-0.00842506,0.0154956,-0.011331,-0.0428098,0.116524,-0.071295,-8.17148e-06,-1.19563e-05,1.56281e-05,0.0965624,-0.0419063978587596,-8.171446613580713e-06,-1.1956228523679613e-05,0.12358447617104251,1.5628222119312696e-05,-0.06881284860433512
134,0.1246,0.00665735,457.211,0.00904231,-0.00838967,0.0154972,-0.0114184,-0.0431408,0.117414,-0.0718495,-8.21586e-06,-1.19972e-05,1.56695e-05,0.0973309,-0.042223474362012126,-8.215826249879932e-06,-1.1997128033902626e-05,0.12458491148251127,1.5669622767333635e-05,-0.06932904875006729
135,0.1256,0.00663261,457.993,0.00900855,-0.00835426,0.0154986,-0.0115051,-0.0434716,0.118303,-0.0724034,-8.25992e-06,-1.20377e-05,1.57103e-05,0.0980987,-0.04254025443837983,-8.25988588692983e-06,-1.2037627547201168e-05,0.12558511199207234,1.5710423407311325e-05,-0.06984440464897224
136,0.1266,0.00660801,458.77,0.00897499,-0.00831884,0.0154998,-0.0115912,-0.043802,0.119191,-0.0729569,-8.30366e-06,-1.20778e-05,1.57505e-05,0.0988659,-0.04285654688392404,-8.303625524730407e-06,-1.2077727063686261e-05,0.12658507548960451,1.5750624039689853e-05,-0.07035910331500284
137,0.1276,0.00658354,459.543,0.00894162,-0.0082834,0.0155008,-0.0116766,-0.0441323,0.120078,-0.0735098,-8.34708e-06,-1.21175e-05,1.579e-05,0.0996325,-0.043172639160975024,-8.347045163170641e-06,-1.2117426583357904e-05,0.12758479976373338,1.579012466268459e-05,-0.07087295969809249
138,0.1286,0.00655922,460.312,0.00890845,-0.00824795,0.0155017,-0.0117613,-0.0444622,0.120965,-0.0740623,-8.3902e-06,-1.21568e-05,1.58289e-05,0.100398,-0.04348824444536181,-8.39016480236321e-06,-1.2156726106438143e-05,0.12858541118668576,1.5829025277636077e-05,-0.07138616060305447
139,0.1296,0.00653504,461.076,0.00887547,-0.0082125,0.0155023,-0.0118454,-0.0447919,0.12185,-0.0746143,-8.43299e-06,-1.21958e-05,1.58672e-05,0.101164,-0.04380355438946759,-8.432954442416651e-06,-1.219572563149196e-05,0.12958465137414987,1.586732588476636e-05,-0.07189861399225395
140,0.1306,0.00651099,461.836,0.00884267,-0.00817703,0.0155028,-0.0119288,-0.0451213,0.122735,-0.0751658,-8.47548e-06,-1.22344e-05,1.59049e-05,0.101928,-0.04411847362860555,-8.475444083222428e-06,-1.2234325160065396e-05,0.13058477628061005,1.5905026483631346e-05,-0.0724103207905179
141,0.1316,0.00648707,462.592,0.00881007,-0.00814156,0.0155032,-0.0120117,-0.0454504,0.123619,-0.0757168,-8.51766e-06,-1.22727e-05,1.5942e-05,0.102692,-0.04443300248037296,-8.517623724890733e-06,-1.2272624690723433e-05,0.13158465510416884,1.5942127074453083e-05,-0.07292128192104352
142,0.1326,0.00646329,463.344,0.00877765,-0.00810608,0.0155033,-0.0120938,-0.0457792,0.124503,-0.0762673,-8.55954e-06,-1.23106e-05,1.59785e-05,0.103456,-0.044747141261911594,-8.55950336720035e-06,-1.2310524224901087e-05,0.13258541821140324,1.5978627657009525e-05,-0.07343149830540108
143,0.1336,0.00643965,464.092,0.00874542,-0.0080706,0.0155033,-0.0121754,-0.0461078,0.125385,-0.0768173,-8.6011e-06,-1.23481e-05,1.60144e-05,0.104219,-0.04506098578381401,-8.601063010593712e-06,-1.2348023762487337e-05,0.13358479921250033,1.601452823107863e-05,-0.07394097086353668
144,0.1346,0.00641613,464.836,0.00871337,-0.00803511,0.0155032,-0.0122564,-0.0464361,0.126267,-0.0773668,-8.64237e-06,-1.23854e-05,1.60498e-05,0.104981,-0.04537444080572395,-8.642332654851259e-06,-1.2385323301278284e-05,0.1345850620564759,1.6049928798667068e-05,-0.07444970051377475
145,0.1356,0.00639275,465.576,0.00868151,-0.00799963,0.0155029,-0.0123367,-0.0467642,0.127148,-0.0779159,-8.68333e-06,-1.24222e-05,1.60845e-05,0.105742,-0.045687602074780065,-8.683292299971335e-06,-1.242212284480182e-05,0.1355850719358187,1.6084629356205582e-05,-0.07495778067704784
146,0.1366,0.0063695,466.312,0.00864983,-0.00796415,0.0155024,-0.0124165,-0.0470919,0.128028,-0.0784645,-8.72399e-06,-1.24587e-05,1.61187e-05,0.106503,-0.04600027901266579,-8.723951946065789e-06,-1.2458622390743024e-05,0.1365848266266687,1.6118829907041388e-05,-0.07546511966276048
147,0.1376,0.00634638,467.044,0.00861832,-0.00792867,0.0155018,-0.0124956,-0.0474194,0.128908,-0.0790125,-8.76435e-06,-1.24949e-05,1.61524e-05,0.107263,-0.046312662765657486,-8.764311593245644e-06,-1.2494821939101897e-05,0.1375854614888652,1.6152530450730396e-05,-0.07597162598177842
148,0.1386,0.00632338,467.772,0.008587,-0.00789319,0.015501,-0.0125742,-0.0477467,0.129786,-0.0795601,-8.80442e-06,-1.25308e-05,1.61855e-05,0.108023,-0.046624753554690646,-8.80438124117866e-06,-1.2530721489878438e-05,0.13858470012562263,1.6185630985932065e-05,-0.07647748540244059
149,0.1396,0.00630051,468.496,0.00855585,-0.00785772,0.0155001,-0.0126522,-0.0480736,0.130664,-0.0801072,-8.84419e-06,-1.25663e-05,1.6218e-05,0.108782,-0.046936360987743675,-8.8441508903081e-06,-1.2566221044396642e-05,0.13958481647916443,1.621813151242435e-05,-0.07698260638173371
150,0.1406,0.00627777,469.217,0.00852488,-0.00782225,0.0154991,-0.0127296,-0.0484003,0.131541,-0.0806539,-8.88367e-06,-1.26015e-05,1.625e-05,0.10954,-0.047247676022529106,-8.883630540301723e-06,-1.2601420601443536e-05,0.14058467073522318,1.6250132031991882e-05,-0.07748708207982791
151,0.1416,0.00625516,469.934,0.00849408,-0.00778679,0.0154979,-0.0128065,-0.0487268,0.132418,-0.0812,-8.92285e-06,-1.26364e-05,1.62814e-05,0.110298,-0.04755869887906339,-8.92281019149177e-06,-1.2636320161019121e-05,0.14158540224808536,1.6281532542627986e-05,-0.07799072885103653
152,0.1426,0.00623267,470.647,0.00846346,-0.00775134,0.0154966,-0.0128828,-0.0490529,0.133293,-0.0817457,-8.96174e-06,-1.2671e-05,1.63123e-05,0.111055,-0.047869239350983084,-8.961699843768045e-06,-1.267091972323442e-05,0.14258472661570432,1.6312433046339336e-05,-0.07849373205339638
153,0.1436,0.0062103,471.357,0.008433,-0.00771591,0.0154951,-0.0129586,-0.0493788,0.134168,-0.0822909,-9.00035e-06,-1.27052e-05,1.63427e-05,0.111811,-0.04817948820808138,-9.000309497020353e-06,-1.2705119289302402e-05,0.1435849257748103,1.6342833542681845e-05,-0.07899600033990462
154,0.1446,0.00618805,472.063,0.00840272,-0.00768048,0.0154935,-0.0130338,-0.0497044,0.135042,-0.0828356,-9.03867e-06,-1.27392e-05,1.63726e-05,0.112567,-0.0484893505183992,-9.03862915135889e-06,-1.2739118856686105e-05,0.14458485590575276,1.637273403165551e-05,-0.07949753461325981
155,0.1456,0.00616593,472.765,0.0083726,-0.00764506,0.0154918,-0.0131085,-0.0500298,0.135915,-0.0833798,-9.0767e-06,-1.27728e-05,1.6402e-05,0.113322,-0.04879892171377542,-9.076658806894677e-06,-1.2772718428144536e-05,0.14558451477256473,1.640213451348238e-05,-0.07999833577456783
156,0.1466,0.00614393,473.464,0.00834266,-0.00760966,0.01549,-0.0131826,-0.0503549,0.136788,-0.0839236,-9.11445e-06,-1.28062e-05,1.64308e-05,0.114077,-0.04910810692354728,-9.11440846351752e-06,-1.2806118000918687e-05,0.14658504672261286,1.643093498637782e-05,-0.08049849667349962
157,0.1476,0.00612205,474.16,0.00831288,-0.00757427,0.015488,-0.0132563,-0.0506797,0.13766,-0.0844669,-9.15192e-06,-1.28392e-05,1.64592e-05,0.114831,-0.04941690645865926,-9.151878121338441e-06,-1.283911757787859e-05,0.14758530493255284,1.6459335453467006e-05,-0.08099792615795254
158,0.1486,0.00610028,474.852,0.00828326,-0.0075389,0.0154859,-0.0133294,-0.0510043,0.138531,-0.0850097,-9.1891e-06,-1.2872e-05,1.6487e-05,0.115584,-0.049725415657071004,-9.189057780356613e-06,-1.2871917156154211e-05,0.1485852871621911,1.6487135911402717e-05,-0.08149662512449007
159,0.1496,0.00607864,475.54,0.0082538,-0.00750354,0.0154836,-0.013402,-0.0513286,0.139401,-0.085552,-9.22601e-06,-1.29044e-05,1.65143e-05,0.116337,-0.050033539739753,-9.225967440462668e-06,-1.2904316738615584e-05,0.1495849911702094,1.6514436361747542e-05,-0.08199459446809354
160,0.1506,0.00605711,476.226,0.00822451,-0.00746821,0.0154813,-0.013474,-0.0516526,0.14027,-0.0860939,-9.26263e-06,-1.29366e-05,1.65412e-05,0.117089,-0.05034127901642238,-9.262587101988018e-06,-1.29365163225037e-05,0.1505844147141724,1.6541336806508156e-05,-0.08249192683297668
161,0.1516,0.0060357,476.908,0.00819538,-0.00743289,0.0154788,-0.0135456,-0.0519764,0.141139,-0.0866353,-9.29898e-06,-1.29685e-05,1.65676e-05,0.11784,-0.05064872873148174,-9.298936764601251e-06,-1.2968415909364595e-05,0.1515847071346672,1.6567737243455838e-05,-0.08298853126084049
162,0.1526,0.0060144,477.586,0.00816641,-0.00739759,0.0154763,-0.0136167,-0.0522999,0.142007,-0.0871762,-9.33506e-06,-1.30001e-05,1.65935e-05,0.118591,-0.05095579419722007,-9.33501642841339e-06,-1.3000015499087247e-05,0.15258471660178285,1.6593637672812633e-05,-0.08348440864215378
163,0.1536,0.00599322,478.261,0.0081376,-0.00736231,0.0154736,-0.0136873,-0.0526231,0.142874,-0.0877166,-9.37086e-06,-1.30314e-05,1.66189e-05,0.119341,-0.051262475722131495,-9.37081609364565e-06,-1.3031315091671658e-05,0.1535844408689231,1.6619038094578542e-05,-0.08397955986581296
164,0.1546,0.00597215,478.934,0.00810894,-0.00732705,0.0154707,-0.0137574,-0.0529461,0.143741,-0.0882566,-9.40639e-06,-1.30624e-05,1.66438e-05,0.120091,-0.05156886845738273,-9.406345760076817e-06,-1.3062314687228849e-05,0.15458503227285214,1.6643938508753564e-05,-0.08447407737174195
165,0.1556,0.00595119,479.602,0.00808044,-0.00729181,0.0154678,-0.013827,-0.0532688,0.144607,-0.0887961,-9.44165e-06,-1.30932e-05,1.66683e-05,0.12084,-0.05187487780626754,-9.441605427817912e-06,-1.3093114284434826e-05,0.1555853359797903,1.6668438916900286e-05,-0.08496787039435516
166,0.1566,0.00593035,480.268,0.00805209,-0.0072566,0.0154648,-0.0138961,-0.0535913,0.145472,-0.0893351,-9.47664e-06,-1.31237e-05,1.66923e-05,0.121588,-0.052180598858005744,-9.476595096757912e-06,-1.3123613884613583e-05,0.15658534973901062,1.6692439317234076e-05,-0.08546093981806568
167,0.1576,0.00590962,480.931,0.0080239,-0.00722141,0.0154617,-0.0139648,-0.0539135,0.146336,-0.0898737,-9.51137e-06,-1.3154e-05,1.67159e-05,0.122336,-0.052485937076425127,-9.511324767008666e-06,-1.3153913486552149e-05,0.15758507129870836,1.6716039711539565e-05,-0.0859533779303917
168,0.1586,0.00588899,481.59,0.00799586,-0.00718625,0.0154584,-0.014033,-0.0542354,0.147199,-0.0904118,-9.54582e-06,-1.31839e-05,1.6739e-05,0.123083,-0.0527908927680284,-9.545774438790566e-06,-1.3183813092787489e-05,0.1585844984060074,1.673914009781008e-05,-0.08644509410962453
169,0.1596,0.00586848,482.246,0.00796797,-0.00715111,0.0154551,-0.0141007,-0.0545571,0.148062,-0.0909494,-9.58001e-06,-1.32136e-05,1.67616e-05,0.123829,-0.05309556092932366,-9.579964111883221e-06,-1.3213512700782637e-05,0.1595847883911783,1.6761740476489706e-05,-0.08693608923571594
170,0.1606,0.00584807,482.899,0.00794023,-0.007116,0.0154516,-0.0141679,-0.0548785,0.148924,-0.0914866,-9.61394e-06,-1.32431e-05,1.67839e-05,0.124575,-0.05339984711463164,-9.613893786175609e-06,-1.3243012310537594e-05,0.16058478141384436,1.6784040850481574e-05,-0.08742645544442229
171,0.1616,0.00582778,483.55,0.00791264,-0.00708091,0.0154481,-0.0142348,-0.0551996,0.149785,-0.0920233,-9.64761e-06,-1.32723e-05,1.68056e-05,0.12532,-0.053703751629242125,-9.647563462000797e-06,-1.3272211923376354e-05,0.1615844752170661,1.680574121487588e-05,-0.0879161022573095
172,0.1626,0.00580759,484.197,0.00788519,-0.00704585,0.0154444,-0.0143011,-0.0555205,0.150646,-0.0925595,-9.68101e-06,-1.33012e-05,1.6827e-05,0.126065,-0.05400736937727113,-9.680963139135912e-06,-1.3301111539409938e-05,0.16258503012730574,1.6827141574804472e-05,-0.08840503054988957
173,0.1636,0.0057875,484.841,0.00785789,-0.00701082,0.0154407,-0.014367,-0.0558411,0.151506,-0.0930953,-9.71416e-06,-1.33299e-05,1.68479e-05,0.126809,-0.05431060600322035,-9.714112817693632e-06,-1.3329811157314353e-05,0.16358528330043076,1.6848041926698087e-05,-0.08889333230679841
174,0.1646,0.00576753,485.482,0.00783074,-0.00697582,0.0154368,-0.0144325,-0.0561615,0.152365,-0.0936306,-9.74705e-06,-1.33584e-05,1.68684e-05,0.127553,-0.05461355634981979,-9.74700249767313e-06,-1.3358310776978577e-05,0.16458523247546952,1.6868542272341358e-05,-0.08938091719227703
175,0.1656,0.00574765,486.121,0.00780373,-0.00694085,0.0154329,-0.0144976,-0.0564816,0.153223,-0.0941654,-9.77968e-06,-1.33866e-05,1.68884e-05,0.128295,-0.05491612612155672,-9.779632179074405e-06,-1.3386510399837626e-05,0.165584875390419,1.6888542609727608e-05,-0.08986778607741852
176,0.1666,0.00572788,486.756,0.00777687,-0.00690592,0.0154289,-0.0145622,-0.0568014,0.154081,-0.0946998,-9.81205e-06,-1.34145e-05,1.69081e-05,0.129038,-0.055218315621746505,-9.81200186200848e-06,-1.3414410026002521e-05,0.1665853763670453,1.6908242942648144e-05,-0.09035403079637794
177,0.1676,0.00570822,487.389,0.00775014,-0.00687101,0.0154247,-0.0146263,-0.057121,0.154937,-0.0952337,-9.84418e-06,-1.34422e-05,1.69273e-05,0.129779,-0.05552021960124798,-9.844131546254964e-06,-1.3442109654038248e-05,0.16758440097074412,1.6927443267533704e-05,-0.09083956115547309
178,0.1686,0.00568865,488.019,0.00772356,-0.00683613,0.0154205,-0.0146901,-0.0574403,0.155794,-0.0957672,-9.87605e-06,-1.34697e-05,1.69461e-05,0.13052,-0.05582174385422056,-9.876001232034248e-06,-1.3469609283944806e-05,0.16858544969048417,1.6946243585946874e-05,-0.0913244688889574
179,0.1696,0.00566919,488.646,0.00769711,-0.00680129,0.0154162,-0.0147534,-0.0577594,0.156649,-0.0963002,-9.90767e-06,-1.34969e-05,1.69645e-05,0.131261,-0.05612298307048358,-9.907620919236138e-06,-1.3496808917268233e-05,0.16958501750431743,1.6964643897887655e-05,-0.09180866389760689
180,0.1706,0.00564983,489.27,0.00767081,-0.00676648,0.0154118,-0.0148163,-0.0580782,0.157504,-0.0968327,-9.93903e-06,-1.3524e-05,1.69825e-05,0.132,-0.056423843103843296,-9.938980607970826e-06,-1.3523908551138497e-05,0.1705854403140903,1.698264420357809e-05,-0.09229214704526878
181,0.1716,0.00563056,489.891,0.00764464,-0.0067317,0.0154074,-0.0148788,-0.0583967,0.158357,-0.0973648,-9.97015e-06,-1.35507e-05,1.70001e-05,0.132739,-0.056724324255651215,-9.97010029823997e-06,-1.3550608189638602e-05,0.17158437568004237,1.700024450257409e-05,-0.09277500991676635
182,0.1726,0.0056114,490.51,0.00761861,-0.00669696,0.0154028,-0.0149409,-0.058715,0.159211,-0.0978964,-1.0001e-05,-1.35773e-05,1.70174e-05,0.133478,-0.057024521124374394,-1.0000949990152108e-05,-1.357720782890759e-05,0.1725853360861318,1.7017544796882333e-05,-0.09325716255396899
183,0.1736,0.00559234,491.126,0.00759271,-0.00666225,0.0153982,-0.0150026,-0.0590331,0.160063,-0.0984276,-1.00317e-05,-1.36036e-05,1.70342e-05,0.134216,-0.05732443392054554,-1.0031649682717969e-05,-1.3603507471482423e-05,0.1735848045055639,1.703434508271151e-05,-0.09373869644249644
184,0.1746,0.00557337,491.739,0.00756695,-0.00662758,0.0153934,-0.0150639,-0.0593508,0.160915,-0.0989583,-1.0062e-05,-1.36297e-05,1.70506e-05,0.134953,-0.05762387437925354,-1.0061949378248336e-05,-1.362960711603911e-05,0.1745851248349517,1.7050745362290343e-05,-0.0942195217180225
185,0.1756,0.0055545,492.35,0.00754132,-0.00659294,0.0153886,-0.0151248,-0.0596684,0.161766,-0.0994885,-1.00922e-05,-1.36556e-05,1.70666e-05,0.13569,-0.05792312551315515,-1.0092149073881451e-05,-1.3655506762688674e-05,0.17558512221472133,1.706674563517474e-05,-0.09469963923720603
186,0.1766,0.00553573,492.958,0.00751583,-0.00655835,0.0153837,-0.0151853,-0.0599856,0.162616,-0.100018,-1.01221e-05,-1.36812e-05,1.70823e-05,0.136426,-0.05822190490882506,-1.012204877171019e-05,-1.3681106412755106e-05,0.1765847943690808,1.708244590337138e-05,-0.09517886889098226
187,0.1776,0.00551705,493.564,0.00749046,-0.00652378,0.0153788,-0.0152454,-0.0603027,0.163466,-0.100548,-1.01517e-05,-1.37067e-05,1.70976e-05,0.137162,-0.05852049539875426,-1.0151648471623531e-05,-1.370660606359042e-05,0.17758531660600552,1.7097746164873584e-05,-0.09565829703079043
188,0.1786,0.00549847,494.166,0.00746523,-0.00648926,0.0153737,-0.0153051,-0.0606194,0.164315,-0.101077,-1.01811e-05,-1.37319e-05,1.71125e-05,0.137897,-0.05881861474817074,-1.0181048172741569e-05,-1.3731805717842605e-05,0.17858551106227227,1.7112646419681354e-05,-0.09613656727802744
189,0.1796,0.00547998,494.767,0.00744012,-0.00645477,0.0153686,-0.0153645,-0.0609359,0.165163,-0.101605,-1.02103e-05,-1.37569e-05,1.7127e-05,0.138631,-0.0591164515214474,-1.0210247875064304e-05,-1.3756805374298686e-05,0.17958537545823972,1.712714666779469e-05,-0.09661368120134461
190,0.1806,0.00546159,495.364,0.00741515,-0.00642033,0.0153634,-0.0154234,-0.0612522,0.16601,-0.102133,-1.02393e-05,-1.37817e-05,1.71412e-05,0.139365,-0.059414005927121094,-1.0239247578591737e-05,-1.3781605032847644e-05,0.18058490751332212,1.7141346911220268e-05,-0.09709054327500433
191,0.1816,0.00544328,495.96,0.0073903,-0.00638592,0.0153582,-0.015482,-0.0615682,0.166857,-0.102661,-1.0268e-05,-1.38063e-05,1.7155e-05,0.140098,-0.05971118414461685,-1.0267947284314793e-05,-1.3806204693489477e-05,0.18158528653069306,1.715514714795141e-05,-0.09756715363194834
192,0.1826,0.00542507,496.552,0.00736557,-0.00635155,0.0153528,-0.0155402,-0.0618839,0.167703,-0.103188,-1.02964e-05,-1.38307e-05,1.71685e-05,0.14083,-0.060007986471070085,-1.0296346992233474e-05,-1.3830604356335208e-05,0.18258533064211147,1.7168647379550706e-05,-0.09804261044810914
193,0.1836,0.00540696,497.143,0.00734098,-0.00631722,0.0153474,-0.0155981,-0.0621994,0.168548,-0.103714,-1.03247e-05,-1.38548e-05,1.71816e-05,0.141562,-0.060304507172738164,-1.0324646700476947e-05,-1.385470402270883e-05,0.18358503756319355,1.7181747604455566e-05,-0.09851691528190643
194,0.1846,0.00538893,497.73,0.0073165,-0.00628293,0.0153419,-0.0156556,-0.0625146,0.169392,-0.104241,-1.03527e-05,-1.38788e-05,1.71943e-05,0.142294,-0.0606006525171191,-1.0352646411027067e-05,-1.3878703689851335e-05,0.18458440500863516,1.7194447822888037e-05,-0.0989918717055428
195,0.1856,0.00537099,498.316,0.00729216,-0.00624868,0.0153364,-0.0157127,-0.0628296,0.170236,-0.104766,-1.03804e-05,-1.39026e-05,1.72067e-05,0.143025,-0.06089651671051932,-1.0380346123883832e-05,-1.390250335930876e-05,0.18558461627624334,1.720684803618866e-05,-0.09946477682444166
196,0.1866,0.00535315,498.899,0.00726793,-0.00621448,0.0153308,-0.0157694,-0.0631443,0.171079,-0.105292,-1.0408e-05,-1.39261e-05,1.72187e-05,0.143755,-0.061192006079019756,-1.0407945836954369e-05,-1.3926003032294076e-05,0.18658448549342643,1.7218848242572804e-05,-0.09993833379543016
197,0.1876,0.00533539,499.479,0.00724383,-0.00618031,0.0153251,-0.0158258,-0.0634588,0.171922,-0.105816,-1.04353e-05,-1.39495e-05,1.72304e-05,0.144484,-0.06148721476910812,-1.0435245552442574e-05,-1.3949402706159297e-05,0.18758519795573725,1.723054844426919e-05,-0.10040984256243568
198,0.1886,0.00531772,500.057,0.00721984,-0.00614619,0.0153193,-0.0158819,-0.0637731,0.172763,-0.106341,-1.04624e-05,-1.39727e-05,1.72417e-05,0.145213,-0.06178214298710882,-1.0462345269246498e-05,-1.3972602382228416e-05,0.18858437720319987,1.7241848639049095e-05,-0.10088200344201459
199,0.1896,0.00530014,500.633,0.00719598,-0.00611211,0.0153135,-0.0159376,-0.064087,0.173604,-0.106865,-1.04892e-05,-1.39957e-05,1.72527e-05,0.145942,-0.06207660335445275,-1.0489144988579113e-05,-1.3995602060612455e-05,0.18958439711385888,1.7252848828697154e-05,-0.10135301785565709
200,0.1906,0.00528264,501.207,0.00717223,-0.00607808,0.0153076,-0.0159929,-0.0644008,0.174445,-0.107388,-1.05158e-05,-1.40185e-05,1.72634e-05,0.146669,-0.06237087754228521,-1.0515744709116426e-05,-1.4018401741311415e-05,0.19058525839500962,1.726354901343541e-05,-0.10182288734573675
201,0.1916,0.00526523,501.778,0.00714861,-0.00604408,0.0153017,-0.0160479,-0.0647142,0.175284,-0.107911,-1.05423e-05,-1.40411e-05,1.72737e-05,0.147397,-0.06266468446731355,-1.0542244430200576e-05,-1.4041001424214272e-05,0.1915845785830017,1.7273849191257185e-05,-0.10229251115832327
202,0.1926,0.00524791,502.347,0.0071251,-0.00601013,0.0152957,-0.0161026,-0.0650275,0.176123,-0.108434,-1.05684e-05,-1.40635e-05,1.72837e-05,0.148123,-0.06295830562351401,-1.0568344154693321e-05,-1.406340110943205e-05,0.19258473755245098,1.7283849363947112e-05,-0.10276188942187248
203,0.1936,0.00523067,502.913,0.00710171,-0.00597623,0.0152896,-0.0161569,-0.0653404,0.176961,-0.108956,-1.05944e-05,-1.40857e-05,1.72934e-05,0.148849,-0.06325146010327432,-1.0594343879510859e-05,-1.4085600796964748e-05,0.19358454242225154,1.7293549531727237e-05,-0.10323012549534683
204,0.1946,0.00521352,503.477,0.00707843,-0.00594237,0.0152835,-0.0162109,-0.0656532,0.177799,-0.109478,-1.06201e-05,-1.41078e-05,1.73028e-05,0.149575,-0.06354442922379477,-1.062004360696811e-05,-1.4107700485488373e-05,0.1945851854796845,1.7302949694375513e-05,-0.10369811721337319
205,0.1956,0.00519645,504.04,0.00705527,-0.00590855,0.0152773,-0.0162645,-0.0659656,0.178636,-0.109999,-1.06457e-05,-1.41296e-05,1.73118e-05,0.1503,-0.06383693225275322,-1.0645643334750154e-05,-1.4129500177650911e-05,0.19558547184137587,1.731194985010731e-05,-0.10416496886888849
206,0.1966,0.00517947,504.599,0.00703223,-0.00587478,0.0152711,-0.0163178,-0.0662779,0.179472,-0.11052,-1.0671e-05,-1.41513e-05,1.73205e-05,0.151024,-0.06412925033096695,-1.067094306506089e-05,-1.4151199870804376e-05,0.19658539920723705,1.732065000070726e-05,-0.10463157735804174
207,0.1976,0.00516257,505.157,0.00700929,-0.00584106,0.0152647,-0.0163708,-0.0665898,0.180307,-0.111041,-1.0696e-05,-1.41728e-05,1.73289e-05,0.151747,-0.06442110290101444,-1.0695942798011338e-05,-1.4172699566383784e-05,0.19758496527633218,1.7329050146175362e-05,-0.1050979428074893
208,0.1986,0.00514575,505.712,0.00698647,-0.00580738,0.0152584,-0.0164235,-0.0669016,0.181142,-0.111561,-1.07209e-05,-1.41941e-05,1.7337e-05,0.152471,-0.06471277092772154,-1.07208425313976e-05,-1.4193999264278112e-05,0.19858536633165302,1.733715028673366e-05,-0.10556317090744027
209,0.1996,0.00512901,506.266,0.00696376,-0.00577374,0.015252,-0.0164758,-0.0672131,0.181976,-0.11208,-1.07456e-05,-1.42152e-05,1.73447e-05,0.153193,-0.06500406752777665,-1.0745542266210606e-05,-1.421509896448736e-05,0.19958540348470133,1.7344850420153435e-05,-0.10602726317937738
210,0.2006,0.00511235,506.817,0.00694117,-0.00574016,0.0152455,-0.0165279,-0.0675243,0.182809,-0.112599,-1.077e-05,-1.42362e-05,1.73522e-05,0.153915,-0.06529499299161201,-1.0769942003774347e-05,-1.4236098665798558e-05,0.20058507443094808,1.7352350550225992e-05,-0.10649111464991878
211,0.2016,0.00509577,507.366,0.00691868,-0.00570662,0.015239,-0.0165796,-0.0678353,0.183641,-0.113118,-1.07942e-05,-1.4257e-05,1.73593e-05,0.154636,-0.06558564105067577,-1.0794141742875851e-05,-1.4256898369424675e-05,0.20158437686504227,1.7359450673604115e-05,-0.10695472544400786
212,0.2026,0.00507928,507.913,0.0068963,-0.00567312,0.0152324,-0.016631,-0.068146,0.184473,-0.113636,-1.08182e-05,-1.42776e-05,1.73662e-05,0.155357,-0.06587591849506513,-1.081814148351512e-05,-1.4277498075587758e-05,0.20258451106472797,1.7366350793412977e-05,-0.10741720310417269
213,0.2036,0.00506286,508.458,0.00687403,-0.00563968,0.0152258,-0.0166821,-0.0684565,0.185305,-0.114154,-1.0842e-05,-1.42981e-05,1.73727e-05,0.156077,-0.0661659189974646,-1.0841941225692153e-05,-1.4297997782630745e-05,0.20358547772232227,1.737285090630536e-05,-0.1078794412629458
214,0.2046,0.00504652,509.0,0.00685187,-0.00560628,0.0152191,-0.0167328,-0.0687668,0.186135,-0.114672,-1.08656e-05,-1.43184e-05,1.7379e-05,0.156797,-0.06645564275983318,-1.0865540969628995e-05,-1.4318297492210696e-05,0.20458486835857248,1.737915101562848e-05,-0.10834144004435675
215,0.2056,0.00503026,509.541,0.00682981,-0.00557293,0.0152123,-0.0167833,-0.0690768,0.186965,-0.115189,-1.0889e-05,-1.43385e-05,1.73849e-05,0.157516,-0.06674499665840616,-1.0888940715103601e-05,-1.433839720421659e-05,0.2055850888333861,1.7385051118257167e-05,-0.10880230837512495
216,0.2066,0.00501408,510.08,0.00680786,-0.00553963,0.0152055,-0.0168334,-0.0693865,0.187794,-0.115705,-1.09122e-05,-1.43584e-05,1.73906e-05,0.158234,-0.06703398098140878,-1.0912140462115971e-05,-1.4358296918648428e-05,0.2065849332502785,1.739075121731659e-05,-0.10926204776104109
217,0.2076,0.00499798,510.616,0.00678602,-0.00550638,0.0151987,-0.0168833,-0.0696961,0.188622,-0.116221,-1.09351e-05,-1.43782e-05,1.73959e-05,0.158952,-0.067322782552107,-1.0935040211990099e-05,-1.4378096634182214e-05,0.20758439929685157,1.7396051309459537e-05,-0.10972154998262784
218,0.2086,0.00498195,511.151,0.00676428,-0.00547317,0.0151918,-0.0169329,-0.0700053,0.18945,-0.116737,-1.09579e-05,-1.43978e-05,1.7401e-05,0.15967,-0.06761112176820183,-1.0957839962411065e-05,-1.4397696352141942e-05,0.20858469324401474,1.7401151398255266e-05,-0.11018081516223022
219,0.2096,0.004966,511.683,0.00674265,-0.00544002,0.0151849,-0.0169821,-0.0703144,0.190277,-0.117252,-1.09804e-05,-1.44173e-05,1.74058e-05,0.160386,-0.0678992786335254,-1.0980339715582765e-05,-1.441719607120362e-05,0.20958460619234254,1.7405951481919146e-05,-0.11063895406152935
220,0.2106,0.00495012,512.214,0.00672112,-0.00540691,0.0151779,-0.0170311,-0.0706231,0.191104,-0.117767,-1.10028e-05,-1.44366e-05,1.74103e-05,0.161102,-0.06818697371819027,-1.1002739469412326e-05,-1.4436495792802262e-05,0.2105853464107077,1.7410451560229134e-05,-0.1110968570800398
221,0.2116,0.00493432,512.742,0.00669969,-0.00537386,0.0151709,-0.0170798,-0.0709317,0.191929,-0.118281,-1.10249e-05,-1.44557e-05,1.74145e-05,0.161818,-0.06847448685254254,-1.1024839225992622e-05,-1.4455595516826847e-05,0.2115844914121392,1.741465163318523e-05,-0.11155363589328904
222,0.2126,0.0049186,513.269,0.00667836,-0.00534085,0.0151638,-0.0171281,-0.07124,0.192754,-0.118795,-1.10469e-05,-1.44747e-05,1.74184e-05,0.162533,-0.06876163190256201,-1.1046838983230778e-05,-1.4474595242064403e-05,0.2125844610483123,1.741855170123152e-05,-0.11201017998255747
223,0.2136,0.00490294,513.793,0.00665714,-0.00530789,0.0151567,-0.0171762,-0.071548,0.193579,-0.119309,-1.10686e-05,-1.44935e-05,1.74221e-05,0.163247,-0.06904840915397226,-1.1068538743219669e-05,-1.4493394969727902e-05,0.2135852559998308,1.7422251765708552e-05,-0.11246648946846227
224,0.2146,0.00488737,514.316,0.00663601,-0.00527499,0.0151495,-0.017224,-0.0718558,0.194402,-0.119822,-1.10901e-05,-1.45122e-05,1.74255e-05,0.163961,-0.06933491195859098,-1.1090038505079391e-05,-1.451209469849335e-05,0.21458444777653618,1.742565182483169e-05,-0.11292167739367953
225,0.2156,0.00487186,514.837,0.00661499,-0.00524213,0.0151423,-0.0172715,-0.0721634,0.195225,-0.120335,-1.11115e-05,-1.45307e-05,1.74286e-05,0.164675,-0.06962114051546364,-1.1111438267485951e-05,-1.4530594429906785e-05,0.2155844622265577,1.742875187882298e-05,-0.11337663186737656
226,0.2166,0.00485643,515.356,0.00659406,-0.00520933,0.015135,-0.0173188,-0.0724707,0.196048,-0.120847,-1.11326e-05,-1.45491e-05,1.74315e-05,0.165387,-0.06990700201411437,-1.1132538032865291e-05,-1.4548994162311146e-05,0.21658530002723375,1.743165192946705e-05,-0.11383046684019327
227,0.2176,0.00484107,515.873,0.00657323,-0.00517657,0.0151277,-0.0173657,-0.0727778,0.196869,-0.121359,-1.11536e-05,-1.45673e-05,1.7434e-05,0.166099,-0.07019258971955922,-1.1153537798791469e-05,-1.4567193897363495e-05,0.2175845266849723,1.74341519729726e-05,-0.11428406950897885
228,0.2186,0.00482578,516.388,0.0065525,-0.00514387,0.0151204,-0.0174124,-0.0730847,0.19769,-0.12187,-1.11743e-05,-1.45854e-05,1.74364e-05,0.166811,-0.07047790383008457,-1.1174237567690426e-05,-1.4585293633517793e-05,0.21858457404464926,1.7436552014915563e-05,-0.11473655472963973
229,0.2196,0.00481057,516.901,0.00653187,-0.00511122,0.015113,-0.0174588,-0.0733913,0.198511,-0.122381,-1.11949e-05,-1.46033e-05,1.74384e-05,0.167522,-0.07076285162004192,-1.1194837337358265e-05,-1.4603193372320078e-05,0.21958544278033698,1.7438552049720002e-05,-0.1151888087894195
230,0.2206,0.00479542,517.413,0.00651134,-0.00507862,0.0151056,-0.017505,-0.0736976,0.19933,-0.122892,-1.12152e-05,-1.4621e-05,1.74402e-05,0.168232,-0.07104743337267039,-1.1215137109887863e-05,-1.4620893113659328e-05,0.22058469239483647,1.7440352081177224e-05,-0.11564083180641127
231,0.2216,0.00478035,517.922,0.0064909,-0.00504607,0.0150981,-0.0175508,-0.0740038,0.200149,-0.123402,-1.12354e-05,-1.46387e-05,1.74417e-05,0.168942,-0.07133183510444441,-1.123533688307532e-05,-1.4638592854776533e-05,0.22158476072999034,1.7441852107280553e-05,-0.11609173999082945
232,0.2226,0.00476534,518.43,0.00647055,-0.00501357,0.0150906,-0.0175964,-0.0743096,0.200967,-0.123911,-1.12554e-05,-1.46562e-05,1.7443e-05,0.169652,-0.07161577841212496,-1.125533665824463e-05,-1.4656092598430703e-05,0.2225844258715688,1.7443152130036665e-05,-0.11654153481268092
233,0.2236,0.0047504,518.936,0.0064503,-0.00498113,0.0150831,-0.0176417,-0.0746153,0.201785,-0.124421,-1.12752e-05,-1.46735e-05,1.7444e-05,0.17036,-0.07189954209317595,-1.127513643517375e-05,-1.467339234473286e-05,0.22358490907377426,1.7444152147438885e-05,-0.11699198375568254
234,0.2246,0.00473554,519.44,0.00643015,-0.00494874,0.0150755,-0.0176868,-0.0749207,0.202602,-0.12493,-1.12948e-05,-1.46907e-05,1.74448e-05,0.171069,-0.0721829406958513,-1.12947362139737e-05,-1.469059209224799e-05,0.2245849864204552,1.7444952161493887e-05,-0.11744132047005584
235,0.2256,0.00472074,519.943,0.00641008,-0.0049164,0.0150679,-0.0177316,-0.0752259,0.203418,-0.125438,-1.13142e-05,-1.47077e-05,1.74453e-05,0.171776,-0.07246606725504035,-1.131413599464448e-05,-1.4707591842300083e-05,0.22558465557892138,1.7445452170194997e-05,-0.11788954642022642
236,0.2266,0.00470601,520.443,0.00639011,-0.00488411,0.0150602,-0.0177761,-0.0755308,0.204234,-0.125946,-1.13334e-05,-1.47247e-05,1.74455e-05,0.172483,-0.07274882924187875,-1.1333335777297115e-05,-1.4724591592130132e-05,0.226585140800329,1.7445652173542214e-05,-0.11833754472944003
237,0.2276,0.00469135,520.942,0.00637024,-0.00485188,0.0150526,-0.0178204,-0.0758355,0.205049,-0.126454,-1.13524e-05,-1.47414e-05,1.74455e-05,0.17319,-0.07303131963401199,-1.1352335561709559e-05,-1.4741291346043184e-05,0.22758521516502883,1.7445652173542214e-05,-0.11878531551330895
238,0.2286,0.00467675,521.439,0.00635045,-0.0048197,0.0150448,-0.0178644,-0.0761399,0.205863,-0.126961,-1.13712e-05,-1.47581e-05,1.74453e-05,0.173896,-0.0733134459585103,-1.1371135348103856e-05,-1.4757991099734191e-05,0.22858487633707258,1.7445452170194997e-05,-0.11923197811980513
239,0.2296,0.00466222,521.935,0.00633075,-0.00478757,0.0150371,-0.0179082,-0.0764442,0.206677,-0.127468,-1.13899e-05,-1.47746e-05,1.74448e-05,0.174601,-0.07359539377636903,-1.1389835135378057e-05,-1.4774490856184208e-05,0.22958535156458582,1.7444952161493887e-05,-0.11967841432575721
240,0.2306,0.00464776,522.428,0.00631115,-0.0047555,0.0150293,-0.0179517,-0.0767481,0.20749,-0.127974,-1.14083e-05,-1.4791e-05,1.74441e-05,0.175306,-0.07387688536138759,-1.1408234925625038e-05,-1.4790890613736174e-05,0.23058541092445362,1.7444252149223516e-05,-0.12012374437010542
241,0.2316,0.00463336,522.92,0.00629163,-0.00472348,0.0150214,-0.0179949,-0.0770519,0.208302,-0.12848,-1.14266e-05,-1.48072e-05,1.74432e-05,0.17601,-0.07415819882993524,-1.1426534716640901e-05,-1.4807090373936127e-05,0.2315850520775069,1.7443352133605927e-05,-0.12056884913445187
242,0.2326,0.00461903,523.41,0.00627221,-0.00469151,0.0150136,-0.0180379,-0.0773554,0.209114,-0.128986,-1.14447e-05,-1.48233e-05,1.7442e-05,0.176714,-0.07443914918021821,-1.1444634509638618e-05,-1.4823190135460074e-05,0.23258550526881927,1.7442152112634446e-05,-0.12101372873275928
243,0.2336,0.00460476,523.899,0.00625287,-0.0046596,0.0150057,-0.0180806,-0.0776587,0.209925,-0.129491,-1.14626e-05,-1.48393e-05,1.74405e-05,0.177417,-0.07471982921899223,-1.1462534304618188e-05,-1.483918989808597e-05,0.2335855375718794,1.7440652086309072e-05,-0.12145750473687711
244,0.2346,0.00459056,524.386,0.00623362,-0.00462774,0.0149977,-0.0181232,-0.0779617,0.210735,-0.129995,-1.14804e-05,-1.48551e-05,1.74388e-05,0.17812,-0.07500014664050492,-1.1480334100477663e-05,-1.4854989663581897e-05,0.23458514664433316,1.7438952056858525e-05,-0.12190017859130786
245,0.2356,0.00457642,524.871,0.00621446,-0.00459593,0.0149898,-0.0181654,-0.0782645,0.211544,-0.1305,-1.14979e-05,-1.48708e-05,1.74369e-05,0.178822,-0.07528019419476273,-1.149783389942094e-05,-1.4870689430179773e-05,0.23558433014319835,1.7437052023616673e-05,-0.12234350705126151
246,0.2366,0.00456235,525.355,0.00619538,-0.00456418,0.0149817,-0.0182074,-0.0785671,0.212353,-0.131004,-1.15153e-05,-1.48864e-05,1.74348e-05,0.179523,-0.07555997207547116,-1.1515233699133098e-05,-1.4886289198101643e-05,0.2365843223085753,1.7434951987027603e-05,-0.12278573447303631
247,0.2376,0.00454834,525.837,0.00617639,-0.00453249,0.0149737,-0.0182492,-0.0788694,0.213162,-0.131507,-1.15325e-05,-1.49019e-05,1.74325e-05,0.180224,-0.07583938806005874,-1.1532433500938133e-05,-1.4901788967236484e-05,0.23758512379494046,1.743265194686927e-05,-0.12322686229564817
248,0.2386,0.00453439,526.317,0.00615749,-0.00450084,0.0149657,-0.0182907,-0.0791715,0.21397,-0.13201,-1.15495e-05,-1.49172e-05,1.74299e-05,0.180925,-0.07611853481368569,-1.1549433304836043e-05,-1.4917088739130335e-05,0.23858549667118312,1.743005190157909e-05,-0.12366776828676063
249,0.2396,0.00452051,526.796,0.00613867,-0.00446926,0.0149576,-0.018332,-0.0794733,0.214777,-0.132513,-1.15663e-05,-1.49324e-05,1.74271e-05,0.181624,-0.07639732016905276,-1.1566233110604784e-05,-1.4932288512237157e-05,0.23958543858929304,1.742725185271965e-05,-0.12410845255792669
250,0.2406,0.00450668,527.273,0.00611993,-0.00443773,0.0149494,-0.0183731,-0.079775,0.215583,-0.133015,-1.1583e-05,-1.49475e-05,1.7424e-05,0.182324,-0.07667592906729215,-1.1582932917364452e-05,-1.4947388286667973e-05,0.2405849472006567,1.742415179872836e-05,-0.12454803976912121
251,0.2416,0.00449292,527.748,0.00610128,-0.00440625,0.0149413,-0.0184139,-0.0800764,0.216389,-0.133517,-1.15995e-05,-1.49624e-05,1.74208e-05,0.183022,-0.07695417700820018,-1.1599432726105974e-05,-1.4962288063857798e-05,0.24158526174070682,1.742095174295244e-05,-0.12498740636291517
252,0.2426,0.00447922,528.222,0.00608271,-0.00437483,0.0149331,-0.0184545,-0.0803775,0.217194,-0.134018,-1.16158e-05,-1.49773e-05,1.74173e-05,0.183721,-0.07723206426747664,-1.1615732536829348e-05,-1.4977187840825579e-05,0.24258514027352196,1.741745168204467e-05,-0.1254256778761461
253,0.2436,0.00446559,528.695,0.00606423,-0.00434346,0.0149249,-0.0184948,-0.0806785,0.217998,-0.134519,-1.16319e-05,-1.4992e-05,1.74136e-05,0.184418,-0.07750977561847705,-1.1631832349756621e-05,-1.4991887620552369e-05,0.24358458044741393,1.741375161756764e-05,-0.125863729870343
254,0.2446,0.00445201,529.166,0.00604583,-0.00431215,0.0149166,-0.0185349,-0.0809792,0.218802,-0.13502,-1.16479e-05,-1.50066e-05,1.74097e-05,0.185115,-0.07778712672711952,-1.1647832163452776e-05,-1.500648740149213e-05,0.2445848244943194,1.7409851549743394e-05,-0.12630156245545732
255,0.2456,0.00443849,529.635,0.00602751,-0.00428089,0.0149084,-0.0185748,-0.0812796,0.219605,-0.13552,-1.16637e-05,-1.5021e-05,1.74055e-05,0.185812,-0.07806411786809841,-1.1663631979352829e-05,-1.5020887185301923e-05,0.24558462747556176,1.7405651476565254e-05,-0.12673830248012463
256,0.2466,0.00442503,530.103,0.00600927,-0.00424969,0.0149001,-0.0186145,-0.0815799,0.220408,-0.13602,-1.16793e-05,-1.50354e-05,1.74012e-05,0.186508,-0.07834093364753303,-1.1679231797234735e-05,-1.5035286968889672e-05,0.24658523362102547,1.7401351401824527e-05,-0.1271748241893631
257,0.2476,0.00441163,530.569,0.00599111,-0.00421855,0.0148917,-0.0186539,-0.0818799,0.22121,-0.136519,-1.16948e-05,-1.50496e-05,1.73966e-05,0.187203,-0.0786173898969279,-1.1694731616107568e-05,-1.5049486755347452e-05,0.24758539598989038,1.739675132172991e-05,-0.12761025530299452
258,0.2486,0.00439829,531.033,0.00597304,-0.00418746,0.0148834,-0.0186932,-0.0821796,0.222011,-0.137018,-1.171e-05,-1.50637e-05,1.73919e-05,0.187898,-0.07889348688997488,-1.1709931438175225e-05,-1.5063586543018204e-05,0.2485851122249787,1.7392051240072703e-05,-0.1280454691907026
259,0.2496,0.00438501,531.497,0.00595504,-0.00415643,0.014875,-0.0187322,-0.0824792,0.222811,-0.137517,-1.17251e-05,-1.50777e-05,1.73869e-05,0.188593,-0.07916940906609671,-1.172503126123381e-05,-1.5077586332012949e-05,0.24958437996856198,1.7387051153061606e-05,-0.12848046596085605
260,0.2506,0.00437179,531.958,0.00593712,-0.00412545,0.0148666,-0.0187709,-0.0827785,0.223611,-0.138015,-1.17401e-05,-1.50916e-05,1.73817e-05,0.189286,-0.07944497242185,-1.174003108528332e-05,-1.5091486122331688e-05,0.2505844474461909,1.738185106270329e-05,-0.12891437463657973
261,0.2516,0.00435863,532.418,0.00591928,-0.00409453,0.0148582,-0.0188095,-0.0830776,0.224411,-0.138513,-1.17549e-05,-1.51054e-05,1.73763e-05,0.18998,-0.07972026925790443,-1.1754830911425707e-05,-1.510528591397442e-05,0.25158531529790884,1.7376450968775714e-05,-0.12934806727957948
262,0.2526,0.00434552,532.877,0.00590152,-0.00406366,0.0148497,-0.0188478,-0.0833764,0.225209,-0.13901,-1.17695e-05,-1.51191e-05,1.73707e-05,0.190672,-0.07999520776359181,-1.1769430739660969e-05,-1.5118985706941146e-05,0.2525844789928082,1.737085087150092e-05,-0.12978067377852176
263,0.2536,0.00433247,533.334,0.00588384,-0.00403286,0.0148412,-0.0188859,-0.083675,0.226007,-0.139507,-1.17839e-05,-1.51326e-05,1.7365e-05,0.191365,-0.08026988018392034,-1.1783830570100129e-05,-1.5132485502777904e-05,0.25358444033855654,1.7365150772441496e-05,-0.13021306532545396
264,0.2546,0.00431948,533.79,0.00586623,-0.0040021,0.0148327,-0.0189238,-0.0839734,0.226805,-0.140004,-1.17982e-05,-1.51461e-05,1.7359e-05,0.192056,-0.08054428670818392,-1.1798130401530216e-05,-1.5145985298392617e-05,0.2545851999719331,1.7359150668250223e-05,-0.13064524202718086
265,0.2556,0.00430654,534.244,0.0058487,-0.00397141,0.0148242,-0.0189615,-0.0842716,0.227602,-0.1405,-1.18123e-05,-1.51594e-05,1.73528e-05,0.192747,-0.0808184275254602,-1.1812230235053178e-05,-1.5159285096877362e-05,0.255585502944095,1.7352950560711733e-05,-0.1310763350672235
266,0.2566,0.00429366,534.697,0.00583125,-0.00394077,0.0148157,-0.018999,-0.0845695,0.228398,-0.140996,-1.18262e-05,-1.51726e-05,1.73464e-05,0.193438,-0.081092210933837,-1.1826130070780039e-05,-1.51724848966861e-05,0.2565853468895358,1.734655044960398e-05,-0.1315072143381374
267,0.2576,0.00428084,535.149,0.00581388,-0.00391019,0.0148071,-0.0190362,-0.0848672,0.229193,-0.141491,-1.184e-05,-1.51857e-05,1.73398e-05,0.194128,-0.08136572906744777,-1.1839929907497826e-05,-1.5185584697818832e-05,0.2575847294422413,1.7339950335149013e-05,-0.1319370118833717
268,0.2586,0.00426807,535.599,0.00579658,-0.00387966,0.0147985,-0.0190733,-0.0851647,0.229988,-0.141986,-1.18536e-05,-1.51987e-05,1.7333e-05,0.194817,-0.08163898211464404,-1.1853529746308489e-05,-1.519858450038658e-05,0.2585849068199775,1.7333150217346827e-05,-0.1323665967314679
269,0.2596,0.00425536,536.047,0.00577935,-0.00384919,0.0147899,-0.0191101,-0.085462,0.230782,-0.142481,-1.18671e-05,-1.52116e-05,1.7326e-05,0.195506,-0.08191197026356223,-1.18670295862211e-05,-1.52114843041673e-05,0.25958462006963146,1.732615009597538e-05,-0.1327959689876852
270,0.2606,0.0042427,536.494,0.0057622,-0.00381878,0.0147812,-0.0191468,-0.085759,0.231576,-0.142975,-1.18804e-05,-1.52244e-05,1.73189e-05,0.196195,-0.08218460192058885,-1.188032942833761e-05,-1.5224284109383035e-05,0.2605851274068167,1.7319049973041345e-05,-0.13322426198192572
271,0.2616,0.0042301,536.94,0.00574512,-0.00378842,0.0147726,-0.0191832,-0.0860558,0.232369,-0.143469,-1.18935e-05,-1.52371e-05,1.73115e-05,0.196883,-0.08245696910944866,-1.1893429272658018e-05,-1.5236983916033786e-05,0.2615851678764902,1.7311649844975463e-05,-0.1336523434516781
272,0.2626,0.00421755,537.384,0.00572812,-0.00375813,0.0147639,-0.0192194,-0.0863524,0.233161,-0.143963,-1.19065e-05,-1.52497e-05,1.7304e-05,0.19757,-0.08272907201755475,-1.190642911785833e-05,-1.5249583723897508e-05,0.2625847391074063,1.730414971512495e-05,-0.1340802135014093
273,0.2636,0.00420506,537.827,0.00571119,-0.00372789,0.0147552,-0.0192554,-0.0866487,0.233953,-0.144456,-1.19193e-05,-1.52622e-05,1.72962e-05,0.198257,-0.0830008191321927,-1.1919228965373563e-05,-1.5262083533196247e-05,0.26358510231231747,1.729634958014259e-05,-0.13450700674297478
274,0.2646,0.00419261,538.269,0.00569433,-0.0036977,0.0147464,-0.0192912,-0.0869448,0.234744,-0.144948,-1.1932e-05,-1.52745e-05,1.72883e-05,0.198943,-0.08327230239456718,-1.1931928813990744e-05,-1.5274383345365017e-05,0.26458499353308995,1.7288449443597642e-05,-0.13493272456048655
275,0.2656,0.00418023,538.709,0.00567755,-0.00366757,0.0147377,-0.0193269,-0.0872407,0.235534,-0.14544,-1.19445e-05,-1.52868e-05,1.72802e-05,0.199629,-0.08354352199137038,-1.1944428664700801e-05,-1.5286683157422765e-05,0.2655844103956637,1.7280349303483433e-05,-0.1353582329763492
276,0.2666,0.00416789,539.148,0.00566083,-0.00363751,0.0147289,-0.0193623,-0.0875364,0.236324,-0.145932,-1.19568e-05,-1.5299e-05,1.72719e-05,0.200314,-0.08381447810908116,-1.1956728517725779e-05,-1.5298882970915528e-05,0.2665846171095092,1.7272049160022007e-05,-0.13578353209356275
277,0.2676,0.00415561,539.586,0.00564419,-0.00360749,0.0147201,-0.0193975,-0.0878319,0.237113,-0.146424,-1.1969e-05,-1.53111e-05,1.72634e-05,0.200999,-0.08408517093396528,-1.1968928371852705e-05,-1.5310982785732286e-05,0.26758434671387477,1.726354901343541e-05,-0.1362086220150771
278,0.2686,0.00414338,540.022,0.00562762,-0.00357754,0.0147113,-0.0194325,-0.0881271,0.237902,-0.146915,-1.19811e-05,-1.5323e-05,1.72548e-05,0.201683,-0.0843555090876309,-1.1981028226859536e-05,-1.5322882603419075e-05,0.26858486541615645,1.7254948864842135e-05,-0.13663263947686233
279,0.2696,0.0041312,540.457,0.00561112,-0.00354764,0.0147025,-0.0194673,-0.0884221,0.23869,-0.147405,-1.1993e-05,-1.53349e-05,1.72459e-05,0.202367,-0.08462558437438672,-1.199292808429231e-05,-1.533478242099484e-05,0.2695849042536591,1.7246048711339057e-05,-0.137055585853194
280,0.2706,0.00411907,540.89,0.00559469,-0.0035178,0.0146936,-0.019502,-0.0887169,0.239477,-0.147896,-1.20047e-05,-1.53467e-05,1.72369e-05,0.20305,-0.08489539697978099,-1.200462794392898e-05,-1.5346582240005624e-05,0.270584460847235,1.7237048556273393e-05,-0.1374791875578114
281,0.2716,0.004107,541.323,0.00557833,-0.00348802,0.0146848,-0.0195364,-0.0890114,0.240264,-0.148386,-1.20163e-05,-1.53584e-05,1.72277e-05,0.203733,-0.08516485560564035,-1.2016227804556578e-05,-1.53582820603404e-05,0.2715848044014786,1.7227848397638468e-05,-0.13790171922719496
282,0.2726,0.00409497,541.754,0.00556204,-0.0034583,0.0146759,-0.0195706,-0.0893057,0.24105,-0.148875,-1.20277e-05,-1.53699e-05,1.72184e-05,0.204415,-0.08543405197444687,-1.2027627667499097e-05,-1.536978188365623e-05,0.2725846629506723,1.7218548237440956e-05,-0.1383231822303902
283,0.2736,0.004083,542.183,0.00554582,-0.00342863,0.014667,-0.0196047,-0.0895998,0.241836,-0.149364,-1.2039e-05,-1.53814e-05,1.72088e-05,0.205096,-0.08570298627103445,-1.2038927531543564e-05,-1.538128170686104e-05,0.2735853076976209,1.720894807233364e-05,-0.13874443918855894
284,0.2746,0.00407108,542.612,0.00552966,-0.00339902,0.0146581,-0.0196386,-0.0898937,0.242621,-0.149853,-1.20501e-05,-1.53928e-05,1.71991e-05,0.205777,-0.08597165868002499,-1.205002739779193e-05,-1.5392681531500862e-05,0.2745854646744168,1.7199247905441695e-05,-0.13916549020243263
285,0.2756,0.0040592,543.039,0.00551358,-0.00336947,0.0146491,-0.0196722,-0.0901874,0.243405,-0.150341,-1.20611e-05,-1.54041e-05,1.71892e-05,0.206458,-0.08624006938582907,-1.2061027265253266e-05,-1.540398135746468e-05,0.2755851314969118,1.718934773520253e-05,-0.13958547495859863
286,0.2766,0.00404738,543.464,0.00549756,-0.00333997,0.0146402,-0.0197057,-0.0904808,0.244188,-0.150829,-1.20719e-05,-1.54153e-05,1.71792e-05,0.207138,-0.08650812722346357,-1.20718271349185e-05,-1.5415181184863513e-05,0.27658430578055726,1.7179347563400782e-05,-0.14000525481220394
287,0.2776,0.00403561,543.889,0.00548161,-0.00331054,0.0146312,-0.019739,-0.090774,0.244972,-0.151317,-1.20826e-05,-1.54264e-05,1.7169e-05,0.207817,-0.08677592377966803,-1.2082527005685684e-05,-1.5426281013697363e-05,0.2775855403089398,1.716914738802977e-05,-0.14042482986321647
288,0.2786,0.00402388,544.312,0.00546573,-0.00328116,0.0146222,-0.0197721,-0.091067,0.245754,-0.151804,-1.20931e-05,-1.54374e-05,1.71586e-05,0.208496,-0.08704345923814194,-1.2093026878767787e-05,-1.5437280843966228e-05,0.2785850029404173,1.7158747209533587e-05,-0.14084334105532637
289,0.2796,0.00401221,544.734,0.00544991,-0.00325184,0.0146132,-0.0198051,-0.0913598,0.246536,-0.152291,-1.21035e-05,-1.54483e-05,1.7148e-05,0.209175,-0.0873107337823743,-1.210342675295184e-05,-1.544818067567011e-05,0.27958524745735014,1.7148147027690186e-05,-0.14126164848210654
290,0.2806,0.00400058,545.155,0.00543416,-0.00322258,0.0146042,-0.0198378,-0.0916524,0.247317,-0.152777,-1.21137e-05,-1.54592e-05,1.71373e-05,0.209853,-0.08757774759564363,-1.2113626629450813e-05,-1.5459080507151945e-05,0.2805849938857774,1.71374468442842e-05,-0.14167889392208965
291,0.2816,0.003989,545.574,0.00541847,-0.00319338,0.0145952,-0.0198704,-0.0919447,0.248098,-0.153263,-1.21238e-05,-1.54699e-05,1.71264e-05,0.21053,-0.08784440964546425,-1.2123726507051735e-05,-1.546978034172586e-05,0.2815855214211478,1.7126546657530994e-05,-0.14209593663005682
292,0.2826,0.00397748,545.993,0.00540286,-0.00316423,0.0145861,-0.0199028,-0.0922368,0.248878,-0.153749,-1.21338e-05,-1.54806e-05,1.71153e-05,0.211207,-0.08811081138353871,-1.2133726385754606e-05,-1.5480480176077727e-05,0.28258554808755476,1.7115446467652617e-05,-0.1425127767045119
293,0.2836,0.00396599,546.41,0.0053873,-0.00313514,0.014577,-0.019935,-0.0925287,0.249657,-0.154234,-1.21436e-05,-1.54911e-05,1.71041e-05,0.211883,-0.08837695299243842,-1.2143526266772398e-05,-1.549098001352167e-05,0.28358507149333567,1.710424627598961e-05,-0.14292855717289643
294,0.2846,0.00395456,546.826,0.00537181,-0.00310611,0.014568,-0.019967,-0.0928204,0.250436,-0.154719,-1.21532e-05,-1.55016e-05,1.70927e-05,0.212559,-0.08864283465452472,-1.2153126150216131e-05,-1.5501479850854594e-05,0.2845853738312041,1.7092846080979385e-05,-0.14334413603664686
295,0.2856,0.00394317,547.24,0.00535638,-0.00307714,0.0145589,-0.0199988,-0.0931118,0.251214,-0.155204,-1.21628e-05,-1.5512e-05,1.70812e-05,0.213234,-0.08890836544279168,-1.216272603343782e-05,-1.551187968951151e-05,0.28558517012237195,1.7081345884628618e-05,-0.1437595133935179
296,0.2866,0.00393183,547.654,0.00534102,-0.00304823,0.0145498,-0.0200305,-0.0934031,0.251991,-0.155688,-1.21721e-05,-1.55223e-05,1.70695e-05,0.213909,-0.08917372778403665,-1.2172025920298424e-05,-1.5522179529714464e-05,0.286584457972612,1.706964568470859e-05,-0.14417383351547775
297,0.2876,0.00392054,548.066,0.00532572,-0.00301938,0.0145406,-0.020062,-0.0936941,0.252768,-0.156172,-1.21814e-05,-1.55325e-05,1.70577e-05,0.214583,-0.0894387396681523,-1.2181325807048005e-05,-1.5532379371352434e-05,0.28758452257123923,1.705784548344802e-05,-0.14458795315501938
298,0.2886,0.00390929,548.477,0.00531049,-0.00299058,0.0145315,-0.0200933,-0.0939849,0.253545,-0.156655,-1.21904e-05,-1.55426e-05,1.70457e-05,0.215257,-0.08970349238574593,-1.2190325697325477e-05,-1.554247921442542e-05,0.288585364522022,1.7045845278840233e-05,-0.14500101741059745
299,0.2896,0.00389809,548.887,0.00529531,-0.00296184,0.0145223,-0.0201245,-0.0942755,0.25432,-0.157138,-1.21994e-05,-1.55527e-05,1.70335e-05,0.21593,-0.08996798611805801,-1.219932558760295e-05,-1.5552579057387383e-05,0.2895844052578076,1.7033645070885228e-05,-0.14541388220431406
300,0.2906,0.00388694,549.296,0.0052802,-0.00293316,0.0145132,-0.0201554,-0.0945658,0.255096,-0.157621,-1.22082e-05,-1.55626e-05,1.70212e-05,0.216603,-0.09023213006933839,-1.2208125480195342e-05,-1.55624789033304e-05,0.2905855111351312,1.7021344861367638e-05,-0.14582654763248593
301,0.2916,0.00387583,549.703,0.00526516,-0.00290454,0.014504,-0.0201863,-0.094856,0.25587,-0.158103,-1.22169e-05,-1.55725e-05,1.70087e-05,0.217275,-0.09049610640037398,-1.2216825374000706e-05,-1.557237874927342e-05,0.2915848109999093,1.7008844648724875e-05,-0.14623816002997037
302,0.2926,0.00386477,550.109,0.00525017,-0.00287598,0.0144948,-0.0202169,-0.0951459,0.256644,-0.158585,-1.22254e-05,-1.55823e-05,1.69961e-05,0.217947,-0.09075973336455379,-1.222532527012099e-05,-1.558217859654043e-05,0.29258488462218835,1.6996244434519525e-05,-0.1466495740780852
303,0.2936,0.00385375,550.515,0.00523524,-0.00284747,0.0144856,-0.0202474,-0.0954356,0.257417,-0.159066,-1.22338e-05,-1.5592e-05,1.69833e-05,0.218618,-0.091023102118992,-1.2233725167343223e-05,-1.559187844535348e-05,0.29358443901600273,1.698344421696696e-05,-0.1470599369327753
304,0.2946,0.00384278,550.919,0.00522038,-0.00281903,0.0144764,-0.0202776,-0.0957251,0.25819,-0.159547,-1.22421e-05,-1.56016e-05,1.69704e-05,0.219289,-0.09128621284381355,-1.2242025065778428e-05,-1.5601478295712568e-05,0.2945847663640717,1.697054399807385e-05,-0.1474701024503956
305,0.2956,0.00383185,551.322,0.00520558,-0.00279064,0.0144672,-0.0203078,-0.0960144,0.258962,-0.160028,-1.22502e-05,-1.56112e-05,1.69573e-05,0.219959,-0.09154906571893617,-1.2250124966639575e-05,-1.561107814584961e-05,0.29558457167890073,1.6957443775833525e-05,-0.14788007072584242
306,0.2966,0.00382097,551.723,0.00519083,-0.00276231,0.0144579,-0.0203377,-0.0963035,0.259734,-0.160508,-1.22582e-05,-1.56206e-05,1.69441e-05,0.220629,-0.09181166092407089,-1.2258124868602671e-05,-1.562047799907873e-05,0.2965851491414433,1.6944243552030613e-05,-0.1482889901433826
307,0.2976,0.00381013,552.124,0.00517615,-0.00273404,0.0144487,-0.0203675,-0.0965923,0.260505,-0.160988,-1.2266e-05,-1.563e-05,1.69307e-05,0.221298,-0.0920739078461178,-1.2265924772880687e-05,-1.5629877852196827e-05,0.2975852017621772,1.693084332510253e-05,-0.14869771332670234
308,0.2986,0.00379933,552.523,0.00516152,-0.00270583,0.0144394,-0.0203972,-0.096881,0.261275,-0.161468,-1.22737e-05,-1.56393e-05,1.69172e-05,0.221967,-0.09233598827579226,-1.2273624678482697e-05,-1.563917770674994e-05,0.29858472713541806,1.691734309661186e-05,-0.14910624036997133
309,0.2996,0.00378858,552.922,0.00514696,-0.00267768,0.0144302,-0.0204266,-0.0971694,0.262045,-0.161947,-1.22813e-05,-1.56485e-05,1.69036e-05,0.222635,-0.09259772083312467,-1.2281224585186656e-05,-1.5648377562849092e-05,0.2995850224395813,1.6903742866558602e-05,-0.14951372088146064
310,0.3006,0.00377787,553.319,0.00513245,-0.00264958,0.0144209,-0.0204559,-0.0974576,0.262814,-0.162426,-1.22888e-05,-1.56577e-05,1.68898e-05,0.223303,-0.09285919648952867,-1.2288724492992564e-05,-1.565757741883722e-05,0.3005847876823047,1.6889942633380173e-05,-0.14992100625652371
311,0.3016,0.00376721,553.715,0.00511801,-0.00262154,0.0144116,-0.0204851,-0.0977456,0.263583,-0.162905,-1.22961e-05,-1.56668e-05,1.68758e-05,0.22397,-0.0931204154236076,-1.2296024403224415e-05,-1.5666677276371388e-05,0.30158532204018673,1.687594239707657e-05,-0.15032809658860868
312,0.3026,0.00375659,554.11,0.00510362,-0.00259357,0.0144023,-0.0205141,-0.0980334,0.264351,-0.163383,-1.23033e-05,-1.56757e-05,1.68617e-05,0.224636,-0.09338137781375944,-1.2303224314669237e-05,-1.567557713688661e-05,0.3025853235189293,1.6861842159210383e-05,-0.15073414270568608
313,0.3036,0.00374601,554.504,0.00508929,-0.00256565,0.0143929,-0.0205429,-0.0983209,0.265118,-0.163861,-1.23103e-05,-1.56847e-05,1.68475e-05,0.225303,-0.09364199320238076,-1.2310224228540001e-05,-1.568457699574477e-05,0.3035847897083541,1.6847641920003653e-05,-0.15113999477909967
314,0.3046,0.00373547,554.897,0.00507501,-0.00253779,0.0143836,-0.0205716,-0.0986083,0.265885,-0.164338,-1.23172e-05,-1.56935e-05,1.68331e-05,0.225968,-0.09390244306509643,-1.2317124143623737e-05,-1.5693376857695007e-05,0.30458502278240873,1.6833241677449706e-05,-0.15154480444680885
315,0.3056,0.00372498,555.289,0.0050608,-0.00250998,0.0143743,-0.0206001,-0.0988954,0.266651,-0.164815,-1.2324e-05,-1.57023e-05,1.68186e-05,0.226633,-0.0941625463340815,-1.2323924059809421e-05,-1.5702176719534222e-05,0.3055847177441491,1.6818741433555218e-05,-0.15194942106635212
316,0.3066,0.00371453,555.68,0.00504664,-0.00248224,0.0143649,-0.0206284,-0.0991824,0.267417,-0.165292,-1.23307e-05,-1.57109e-05,1.6804e-05,0.227298,-0.0944224843803898,-1.2330623977208077e-05,-1.5710776584465513e-05,0.3065851787655933,1.6804141188098143e-05,-0.15235384472979152
317,0.3076,0.00370412,556.07,0.00503253,-0.00245455,0.0143556,-0.0206566,-0.0994691,0.268182,-0.165768,-1.23372e-05,-1.57195e-05,1.67892e-05,0.227962,-0.0946820762398467,-1.2337123897032676e-05,-1.5719376449285782e-05,0.30758509884801577,1.6789340939515895e-05,-0.15275722828679716
318,0.3086,0.00369375,556.458,0.00501849,-0.00242693,0.0143462,-0.0206846,-0.0997556,0.268946,-0.166244,-1.23436e-05,-1.57281e-05,1.67743e-05,0.228626,-0.09494141267328604,-1.2343523818070246e-05,-1.572797631410605e-05,0.308584475576835,1.6774440689371062e-05,-0.15316041987892093
319,0.3096,0.00368342,556.846,0.0050045,-0.00239936,0.0143368,-0.0207125,-0.100042,0.26971,-0.166719,-1.23499e-05,-1.57365e-05,1.67593e-05,0.229289,-0.09520058433754253,-1.2349823740320787e-05,-1.5736376181907374e-05,0.30958461612121546,1.6759440437885686e-05,-0.1535625731605128
320,0.3106,0.00367313,557.232,0.00499056,-0.00237185,0.0143275,-0.0207403,-0.100328,0.270474,-0.167195,-1.2356e-05,-1.57449e-05,1.67441e-05,0.229952,-0.095459319969463,-1.235592366499727e-05,-1.5744776049708697e-05,0.3105855210649353,1.674424018327514e-05,-0.15396538149969807
321,0.3116,0.00366289,557.618,0.00497669,-0.0023444,0.0143181,-0.0207678,-0.100614,0.271236,-0.16767,-1.2362e-05,-1.57532e-05,1.67288e-05,0.230614,-0.09571798161357348,-1.2361923590775703e-05,-1.5753075918945036e-05,0.3115845678204596,1.6728939927102005e-05,-0.1543671525153154
322,0.3126,0.00365268,558.002,0.00496286,-0.00231701,0.0143087,-0.0207953,-0.100899,0.271998,-0.168144,-1.23679e-05,-1.57615e-05,1.67133e-05,0.231276,-0.09597566526714874,-1.236782351787813e-05,-1.5761375788181375e-05,0.3125843761397309,1.6713439668025742e-05,-0.15476788750332793
323,0.3136,0.00364252,558.385,0.00494909,-0.00228967,0.0142993,-0.0208225,-0.101185,0.27276,-0.168618,-1.23737e-05,-1.57697e-05,1.66978e-05,0.231937,-0.09623417925761957,-1.2373623446082505e-05,-1.5769575658963753e-05,0.3135849466032814,1.669793940894948e-05,-0.15516843258796698
324,0.3146,0.00363239,558.768,0.00493538,-0.0022624,0.0142899,-0.0208497,-0.10147,0.273521,-0.169092,-1.23793e-05,-1.57778e-05,1.66821e-05,0.232597,-0.0964917158158285,-1.2379223376823845e-05,-1.5777675531181146e-05,0.31458496520646384,1.668223914697009e-05,-0.15556878785922512
325,0.3156,0.00362231,559.149,0.00492172,-0.00223518,0.0142804,-0.0208766,-0.101755,0.274281,-0.169565,-1.23849e-05,-1.57858e-05,1.66662e-05,0.233258,-0.09674917898657642,-1.2384823307454162e-05,-1.5785675404944577e-05,0.31558442952835564,1.6666338881865528e-05,-0.15596810937558414
326,0.3166,0.00361227,559.529,0.00490811,-0.00220802,0.014271,-0.0209035,-0.10204,0.275041,-0.170038,-1.23902e-05,-1.57937e-05,1.66503e-05,0.233917,-0.09700656879077596,-1.2390123241834416e-05,-1.5793575280143024e-05,0.3165846537318504,1.665043861698301e-05,-0.15636724205752872
327,0.3176,0.00360226,559.909,0.00489456,-0.00218092,0.0142616,-0.0209301,-0.102325,0.2758,-0.170511,-1.23955e-05,-1.58016e-05,1.66342e-05,0.234576,-0.09726388524933349,-1.2395423176103648e-05,-1.580147515534147e-05,0.317584320809698,1.663433834897532e-05,-0.15676618599435643
328,0.3186,0.0035923,560.287,0.00488106,-0.00215388,0.0142521,-0.0209567,-0.102609,0.276559,-0.170983,-1.24007e-05,-1.58095e-05,1.6618e-05,0.235235,-0.09752022590382681,-1.2400623111585851e-05,-1.580937503053992e-05,0.3185847469228753,1.6618138079627087e-05,-0.15716409843984258
329,0.3196,0.00358237,560.664,0.00486761,-0.0021269,0.0142427,-0.0209831,-0.102893,0.277317,-0.171455,-1.24057e-05,-1.58172e-05,1.66016e-05,0.235893,-0.09777649376791098,-1.2405623049605019e-05,-1.581707490871942e-05,0.3195846130624358,1.6601737807375727e-05,-0.1575618231149718
330,0.3206,0.00357248,561.04,0.00485422,-0.00209998,0.0142332,-0.0210093,-0.103177,0.278075,-0.171927,-1.24106e-05,-1.58249e-05,1.65852e-05,0.236551,-0.09803268886225547,-1.2410522988837158e-05,-1.582477478689892e-05,0.3205852373878464,1.6585337535124367e-05,-0.15795936010835065
331,0.3216,0.00356263,561.416,0.00484088,-0.00207311,0.0142237,-0.0210354,-0.103461,0.278832,-0.172398,-1.24154e-05,-1.58325e-05,1.65686e-05,0.237208,-0.09828881120752408,-1.2415322929282269e-05,-1.583237466662446e-05,0.32158529888806986,1.656873725996988e-05,-0.1583558678648329
332,0.3226,0.00355282,561.79,0.00482759,-0.0020463,0.0142142,-0.0210614,-0.103745,0.279588,-0.172869,-1.242e-05,-1.58401e-05,1.65519e-05,0.237865,-0.09854486082437464,-1.2419922872153322e-05,-1.5839974546238977e-05,0.3225847951360068,1.655203698347485e-05,-0.15875218891013565
333,0.3236,0.00354305,562.163,0.00481435,-0.00201955,0.0142048,-0.0210872,-0.104028,0.280344,-0.173339,-1.24246e-05,-1.58475e-05,1.6535e-05,0.238521,-0.098799936533846,-1.2424522815024375e-05,-1.5847374429056593e-05,0.32358504728880333,1.6535136703854647e-05,-0.15914748248008226
334,0.3246,0.00353332,562.536,0.00480117,-0.00199286,0.0141953,-0.0211128,-0.104311,0.281099,-0.173809,-1.2429e-05,-1.5855e-05,1.65181e-05,0.239177,-0.09905494006710502,-1.242892276032137e-05,-1.5854874310106126e-05,0.3245847313327459,1.651823642445649e-05,-0.1595425903057044
335,0.3256,0.00352362,562.907,0.00478803,-0.00196623,0.0141858,-0.0211384,-0.104594,0.281854,-0.174279,-1.24333e-05,-1.58623e-05,1.6501e-05,0.239832,-0.0993098714445747,-1.2433222706831337e-05,-1.5862174194358758e-05,0.32558517042313584,1.6501136142155204e-05,-0.15993751247428123
336,0.3266,0.00351397,563.277,0.00477495,-0.00193966,0.0141763,-0.0211637,-0.104877,0.282608,-0.174748,-1.24375e-05,-1.58696e-05,1.64838e-05,0.240487,-0.09956473068667215,-1.2437422654665298e-05,-1.586947407861139e-05,0.32658503854454657,1.6483935858513377e-05,-0.16033140940488033
337,0.3276,0.00350435,563.647,0.00476192,-0.00191315,0.0141668,-0.021189,-0.105159,0.283361,-0.175217,-1.24415e-05,-1.58768e-05,1.64665e-05,0.241142,-0.09981861763287658,-1.2441422604814178e-05,-1.5876673964299037e-05,0.3275843332658157,1.6466635573531008e-05,-0.16072512164113328
338,0.3286,0.00349476,564.015,0.00474893,-0.00188669,0.0141573,-0.0212141,-0.105442,0.284114,-0.175686,-1.24455e-05,-1.5884e-05,1.64491e-05,0.241795,-0.1000733329201734,-1.2445422555074082e-05,-1.5883873849986685e-05,0.3285843807393858,1.6449235287208097e-05,-0.16111864926964137
339,0.3296,0.00348522,564.383,0.004736,-0.00186029,0.0141477,-0.0212391,-0.105724,0.284867,-0.176154,-1.24493e-05,-1.5891e-05,1.64315e-05,0.242449,-0.1003270764607691,-1.2449222507759927e-05,-1.589087373876641e-05,0.32958518153229255,1.6431634997760014e-05,-0.16151115388853832
340,0.3306,0.00347571,564.749,0.00472312,-0.00183395,0.0141382,-0.0212639,-0.106006,0.285619,-0.176622,-1.2453e-05,-1.58981e-05,1.64138e-05,0.243102,-0.1005807484557748,-1.2452922461769766e-05,-1.5897973625889072e-05,0.3305854056259281,1.6413934707193434e-05,-0.16190347485825096
341,0.3316,0.00346624,565.115,0.00471029,-0.00180767,0.0141287,-0.0212886,-0.106287,0.28637,-0.17709,-1.24566e-05,-1.5905e-05,1.63961e-05,0.243754,-0.10083344975926278,-1.2456522416881555e-05,-1.5904873516103812e-05,0.331585050585252,1.6396234416848898e-05,-0.1622956122647069
342,0.3326,0.0034568,565.48,0.00469751,-0.00178145,0.0141192,-0.0213131,-0.106569,0.287121,-0.177557,-1.24601e-05,-1.59119e-05,1.63782e-05,0.244406,-0.10108697897713081,-1.2460022373317337e-05,-1.5911773406429575e-05,0.3325854465599114,1.637833412337919e-05,-0.16268672888094116
343,0.3336,0.0034474,565.844,0.00468478,-0.00175528,0.0141096,-0.0213376,-0.10685,0.287871,-0.178024,-1.24635e-05,-1.59188e-05,1.63602e-05,0.245057,-0.10133953804982665,-1.2463422330855067e-05,-1.5918673296533292e-05,0.33358526052820303,1.6360333828790985e-05,-0.16307766288835812
344,0.3346,0.00343804,566.206,0.00467209,-0.00172918,0.0141001,-0.0213619,-0.107131,0.28862,-0.178491,-1.24667e-05,-1.59256e-05,1.63421e-05,0.245708,-0.10159202616339336,-1.2466622291040785e-05,-1.592547318829407e-05,0.33458449005308166,1.6342233532862238e-05,-0.16346841437221626
345,0.3356,0.00342871,566.568,0.00465946,-0.00170313,0.0140905,-0.021386,-0.107412,0.289369,-0.178957,-1.24699e-05,-1.59323e-05,1.63238e-05,0.246359,-0.10184444333776743,-1.2469822251115481e-05,-1.5932173081600887e-05,0.3355844682812288,1.6323933234030363e-05,-0.16385814727629944
346,0.3366,0.00341942,566.929,0.00464687,-0.00167714,0.014081,-0.02141,-0.107693,0.290118,-0.179423,-1.24729e-05,-1.59389e-05,1.63055e-05,0.247009,-0.10209678959288027,-1.2472822213727142e-05,-1.593877297645374e-05,0.3365851957736332,1.6305632935420533e-05,-0.16424769860715915
347,0.3376,0.00341016,567.289,0.00463433,-0.00165121,0.0140714,-0.0214339,-0.107973,0.290866,-0.179888,-1.24758e-05,-1.59455e-05,1.6287e-05,0.247658,-0.10234816729727325,-1.2475722177551773e-05,-1.5945372871195573e-05,0.3375853355056999,1.6287132633907575e-05,-0.16463623308603959
348,0.3386,0.00340094,567.648,0.00462184,-0.00162534,0.0140618,-0.0214577,-0.108254,0.291613,-0.180354,-1.24786e-05,-1.5952e-05,1.62685e-05,0.248307,-0.10260037202583883,-1.2478522142589377e-05,-1.5951872767483444e-05,0.3385848850365927,1.6268632332838706e-05,-0.16502542191338176
349,0.3396,0.00339176,568.007,0.0046094,-0.00159952,0.0140523,-0.0214813,-0.108534,0.29236,-0.180818,-1.24813e-05,-1.59585e-05,1.62498e-05,0.248956,-0.10285160874688926,-1.2481222108950973e-05,-1.5958372663771314e-05,0.33958518150993333,1.6249932028644665e-05,-0.16541276024817098
350,0.3406,0.00338261,568.364,0.004597,-0.00157377,0.0140427,-0.0215048,-0.108814,0.293106,-0.181283,-1.24839e-05,-1.59649e-05,1.6231e-05,0.249604,-0.10310277513150534,-1.2483822076414519e-05,-1.5964772561716245e-05,0.3405848848983408,1.6231131723332126e-05,-0.16580075309932651
351,0.3416,0.00337349,568.72,0.00458465,-0.00154807,0.0140331,-0.0215282,-0.109093,0.293852,-0.181747,-1.24864e-05,-1.59713e-05,1.62121e-05,0.250251,-0.10335297455280146,-1.2486322045202058e-05,-1.597117245943913e-05,0.34158533434372096,1.621223141690109e-05,-0.16618773176389534
352,0.3426,0.00336441,569.076,0.00457235,-0.00152243,0.0140236,-0.0215514,-0.109373,0.294597,-0.182211,-1.24887e-05,-1.59776e-05,1.61931e-05,0.250898,-0.10360400057464347,-1.2488622016526563e-05,-1.5977472358819078e-05,0.34258518781698055,1.619323110890747e-05,-0.1665745309120148
353,0.3436,0.00335537,569.431,0.0045601,-0.00149684,0.014014,-0.0215745,-0.109652,0.295341,-0.182674,-1.2491e-05,-1.59838e-05,1.6174e-05,0.251545,-0.10385406017354704,-1.2490921987740045e-05,-1.5983672259745063e-05,0.34358444287350376,1.617413079979535e-05,-0.16696031758769547
354,0.3446,0.00334635,569.784,0.00454789,-0.00147132,0.0140044,-0.0215975,-0.109931,0.296085,-0.183137,-1.24931e-05,-1.599e-05,1.61548e-05,0.252191,-0.10410405001555412,-1.2493021961601514e-05,-1.5989872160671048e-05,0.3445844416524195,1.6154930489564734e-05,-0.16734592568548912
355,0.3456,0.00333738,570.137,0.00453573,-0.00144585,0.0139948,-0.0216203,-0.11021,0.296829,-0.1836,-1.24952e-05,-1.59961e-05,1.61355e-05,0.252837,-0.10435397012012404,-1.249512193535196e-05,-1.599597206303205e-05,0.34558518470726307,1.613563017777153e-05,-0.16773135528805838
356,0.3466,0.00332843,570.489,0.00452361,-0.00142045,0.0139852,-0.0216431,-0.110489,0.297572,-0.184062,-1.24971e-05,-1.60022e-05,1.61161e-05,0.253482,-0.1046038205067108,-1.249702191152835e-05,-1.6002071965504072e-05,0.34658532600598235,1.6116229865081877e-05,-0.168115774594218
357,0.3476,0.00331952,570.841,0.00451154,-0.0013951,0.0139756,-0.0216657,-0.110767,0.298314,-0.184524,-1.24989e-05,-1.60082e-05,1.60966e-05,0.254127,-0.10485270604791685,-1.2498821889028733e-05,-1.600807186941111e-05,0.3475848631002818,1.609672955105168e-05,-0.1685000163396777
358,0.3486,0.00331065,571.191,0.00449951,-0.0013698,0.013966,-0.0216881,-0.111045,0.299056,-0.184986,-1.25006e-05,-1.60141e-05,1.6077e-05,0.254771,-0.10510152240855897,-1.250052186785311e-05,-1.601397177497521e-05,0.34858514212632774,1.6077129235680943e-05,-0.16888408060645177
359,0.3496,0.0033018,571.54,0.00448753,-0.00134457,0.0139564,-0.0217105,-0.111323,0.299797,-0.185447,-1.25022e-05,-1.602e-05,1.60572e-05,0.255415,-0.10535026960786664,-1.2502121847779435e-05,-1.601987168053931e-05,0.34958481404934894,1.605732891762912e-05,-0.16926713674406857
360,0.3506,0.00329299,571.889,0.0044756,-0.00131939,0.0139468,-0.0217327,-0.111601,0.300538,-0.185908,-1.25037e-05,-1.60259e-05,1.60374e-05,0.256058,-0.10559894766506417,-1.2503621829029754e-05,-1.6025771585992388e-05,0.3505852270037837,1.6037528599799344e-05,-0.1696500163335033
361,0.3516,0.00328422,572.237,0.00446371,-0.00129427,0.0139372,-0.0217548,-0.111879,0.301278,-0.186369,-1.25051e-05,-1.60317e-05,1.60175e-05,0.256701,-0.10584755659937028,-1.2505021811604067e-05,-1.6031571492991503e-05,0.35158502995323326,1.601762828085107e-05,-0.1700327194561262
362,0.3526,0.00327547,572.583,0.00445186,-0.00126921,0.0139276,-0.0217768,-0.112156,0.302018,-0.186829,-1.25064e-05,-1.60374e-05,1.59975e-05,0.257343,-0.10609520252564797,-1.2506321795280329e-05,-1.6037271401536657e-05,0.3525855730306793,1.59976279607843e-05,-0.17041441660810075
363,0.3536,0.00326676,572.93,0.00444006,-0.00124421,0.013918,-0.0217987,-0.112434,0.302757,-0.187289,-1.25076e-05,-1.60431e-05,1.59774e-05,0.257985,-0.1063436735202773,-1.2507521780280584e-05,-1.6042971310192833e-05,0.35358550319783877,1.5977527639376987e-05,-0.1707959382197629
364,0.3546,0.00325808,573.275,0.00442831,-0.00121926,0.0139084,-0.0218204,-0.112711,0.303495,-0.187749,-1.25087e-05,-1.60487e-05,1.59571e-05,0.258627,-0.10659118204119944,-1.250862176649381e-05,-1.6048571220284025e-05,0.3545848180010054,1.595722731528859e-05,-0.17117728437184243
365,0.3556,0.00324944,573.619,0.00441659,-0.00119438,0.0138988,-0.021842,-0.112987,0.304233,-0.188208,-1.25096e-05,-1.60542e-05,1.59368e-05,0.259268,-0.10683772884993137,-1.2509521755244002e-05,-1.6054071132032277e-05,0.35558487057069876,1.593692699142224e-05,-0.17155762670307306
366,0.3566,0.00324082,573.963,0.00440493,-0.00116955,0.0138891,-0.0218635,-0.113264,0.30497,-0.188667,-1.25105e-05,-1.60598e-05,1.59164e-05,0.259908,-0.10708510053647968,-1.2510421743994193e-05,-1.605967104212347e-05,0.3565843048666091,1.5916526666659436e-05,-0.17193779449723312
367,0.3576,0.00323224,574.305,0.0043933,-0.00114477,0.0138795,-0.0218849,-0.113541,0.305707,-0.189126,-1.25113e-05,-1.60652e-05,1.58959e-05,0.260548,-0.10733240371056019,-1.2511221733957356e-05,-1.606507095541776e-05,0.35758447601709276,1.589602634055609e-05,-0.17231778783441654
368,0.3586,0.00322369,574.647,0.00438172,-0.00112006,0.0138699,-0.0219061,-0.113817,0.306444,-0.189584,-1.25119e-05,-1.60706e-05,1.58753e-05,0.261188,-0.10757874597034045,-1.2511821726457484e-05,-1.6070470868601028e-05,0.35858538456541234,1.587542601333425e-05,-0.172696779491874
369,0.3596,0.00321518,574.988,0.00437018,-0.0010954,0.0138603,-0.0219273,-0.114093,0.307179,-0.190042,-1.25125e-05,-1.6076e-05,1.58546e-05,0.261827,-0.10782502024903884,-1.2512421718957611e-05,-1.6075870781784296e-05,0.35958431188388684,1.5854725684771864e-05,-0.17307559761089553
370,0.3606,0.00320669,575.328,0.00435868,-0.0010708,0.0138506,-0.0219483,-0.114369,0.307915,-0.1905,-1.2513e-05,-1.60813e-05,1.58338e-05,0.262466,-0.10807122656541546,-1.2512921712781733e-05,-1.6081170696624625e-05,0.3605853342684835,1.5833925355313028e-05,-0.17345424227094375
371,0.3616,0.00319824,575.668,0.00434723,-0.00104626,0.013841,-0.0219692,-0.114645,0.308649,-0.190957,-1.25133e-05,-1.60865e-05,1.58129e-05,0.263104,-0.10831736493822552,-1.2513221709031797e-05,-1.608637061289997e-05,0.36158437050528236,1.581302502451365e-05,-0.1738318873837451
372,0.3626,0.00318981,576.006,0.00433582,-0.00102178,0.0138314,-0.02199,-0.11492,0.309384,-0.191414,-1.25136e-05,-1.60917e-05,1.57919e-05,0.263742,-0.10856254394920839,-1.251352170528186e-05,-1.6091570529286336e-05,0.3625855028886851,1.579202469281782e-05,-0.17420935995215925
373,0.3636,0.00318142,576.344,0.00432445,-0.000997348,0.0138218,-0.0220107,-0.115195,0.310117,-0.19187,-1.25138e-05,-1.60969e-05,1.57709e-05,0.264379,-0.1088076555452332,-1.2513721702744895e-05,-1.609677044556168e-05,0.3635846442028583,1.5771024361344033e-05,-0.17458583464126842
374,0.3646,0.00317306,576.681,0.00431312,-0.000972977,0.0138121,-0.0220312,-0.11547,0.31085,-0.192326,-1.25138e-05,-1.6102e-05,1.57497e-05,0.265016,-0.10905269974483645,-1.2513721702744895e-05,-1.6101870363494086e-05,0.3645845181560945,1.5749824027189163e-05,-0.1749621376970547
375,0.3656,0.00316473,577.017,0.00430183,-0.000948664,0.0138025,-0.0220517,-0.115745,0.311583,-0.192782,-1.25138e-05,-1.6107e-05,1.57284e-05,0.265652,-0.10929767656654976,-1.2513721702744895e-05,-1.610687028297253e-05,0.3655851252856146,1.5728523691915797e-05,-0.17533826919776507
376,0.3666,0.00315643,577.353,0.00429059,-0.000924409,0.0137929,-0.022072,-0.11602,0.312315,-0.193238,-1.25136e-05,-1.6112e-05,1.57071e-05,0.266288,-0.10954258602889944,-1.251352170528186e-05,-1.6111870202450973e-05,0.36658509954325114,1.570722335708652e-05,-0.17571422922161084
377,0.3676,0.00314816,577.687,0.00427938,-0.00090021,0.0137832,-0.0220922,-0.116294,0.313046,-0.193693,-1.25134e-05,-1.6117e-05,1.56857e-05,0.266923,-0.1097865379373899,-1.2513321707707803e-05,-1.6116870121818394e-05,0.3675844384648925,1.5685823021138745e-05,-0.17608919393637346
378,0.3686,0.00313992,578.021,0.00426822,-0.000876069,0.0137736,-0.0221123,-0.116569,0.313777,-0.194148,-1.25131e-05,-1.61219e-05,1.56641e-05,0.267558,-0.11003131298134594,-1.2513021711457739e-05,-1.6121770042842876e-05,0.3685845081703545,1.5664222682731932e-05,-0.1764639880809985
379,0.3696,0.00313171,578.354,0.0042571,-0.000851985,0.013764,-0.0221323,-0.116843,0.314508,-0.194603,-1.25127e-05,-1.61267e-05,1.56425e-05,0.268193,-0.11027513099699549,-1.2512621716531669e-05,-1.6126569965524418e-05,0.36958530919403554,1.5642622344547163e-05,-0.1768386117330778
380,0.3706,0.00312354,578.686,0.00424602,-0.000827958,0.0137543,-0.0221522,-0.117117,0.315238,-0.195057,-1.25121e-05,-1.61315e-05,1.56208e-05,0.268827,-0.11051888221566042,-1.2512021724031541e-05,-1.6131369888094937e-05,0.37058547148456755,1.5620922005243898e-05,-0.17721224218282128
381,0.3716,0.00311539,579.018,0.00423498,-0.000803988,0.0137447,-0.022172,-0.117391,0.315967,-0.195511,-1.25115e-05,-1.61363e-05,1.5599e-05,0.269461,-0.11076256665564044,-1.2511421731531414e-05,-1.6136169810665457e-05,0.37158499257445143,1.559912166504418e-05,-0.17758570304284038
382,0.3726,0.00310727,579.348,0.00422398,-0.000780075,0.0137351,-0.0221916,-0.117664,0.316696,-0.195964,-1.25108e-05,-1.6141e-05,1.55772e-05,0.270094,-0.11100529534097037,-1.2510721740244257e-05,-1.6140869734782015e-05,0.3725852425808678,1.557732132528855e-05,-0.1779581723486947
383,0.3736,0.00309918,579.678,0.00421302,-0.000756218,0.0137254,-0.0222112,-0.117937,0.317424,-0.196417,-1.251e-05,-1.61457e-05,1.55552e-05,0.270727,-0.11124795777041352,-1.2509921750281094e-05,-1.6145569658898573e-05,0.3735848484498552,1.555532098285184e-05,-0.1783304729641647
384,0.3746,0.00309112,580.007,0.0042021,-0.000732419,0.0137158,-0.0222306,-0.118211,0.318152,-0.19687,-1.25091e-05,-1.61503e-05,1.55332e-05,0.271359,-0.11149144247105713,-1.2509021761530903e-05,-1.615016958456117e-05,0.3745851822968669,1.5533320640859216e-05,-0.17870260496564982
385,0.3756,0.00308309,580.336,0.00419122,-0.000708677,0.0137062,-0.02225,-0.118484,0.318879,-0.197323,-1.25081e-05,-1.61548e-05,1.5511e-05,0.271991,-0.11173397220044823,-1.2508021773993683e-05,-1.6154669511880826e-05,0.3755848690665071,1.551112029618551e-05,-0.17907456842951497
386,0.3766,0.00307509,580.663,0.00418038,-0.000684991,0.0136965,-0.0222692,-0.118756,0.319606,-0.197775,-1.2507e-05,-1.61593e-05,1.54888e-05,0.272622,-0.11197554770425178,-1.2506921787780456e-05,-1.6159169439200483e-05,0.3765852828726748,1.5488919952177937e-05,-0.1794455428780436
387,0.3776,0.00306712,580.99,0.00416958,-0.000661362,0.0136869,-0.0222883,-0.119029,0.320332,-0.198227,-1.25058e-05,-1.61638e-05,1.54665e-05,0.273253,-0.11221794529095241,-1.25057218027802e-05,-1.616366936652014e-05,0.3775850466583819,1.5466619606829823e-05,-0.1798163496840114
388,0.3786,0.00305917,581.316,0.00415882,-0.00063779,0.0136773,-0.0223073,-0.119301,0.321058,-0.198678,-1.25045e-05,-1.61682e-05,1.54441e-05,0.273883,-0.11245938917197695,-1.2504421819103939e-05,-1.6168069295385834e-05,0.378585536536137,1.54442192608073e-05,-0.18018616910975493
389,0.3796,0.00305126,581.642,0.0041481,-0.000614275,0.0136676,-0.0223262,-0.119573,0.321783,-0.19913,-1.25031e-05,-1.61726e-05,1.54217e-05,0.274513,-0.11270076738919643,-1.2503021836529626e-05,-1.617246922425153e-05,0.379585373447211,1.5421818915006824e-05,-0.18055664122831117
390,0.3806,0.00304337,581.966,0.00413741,-0.000590816,0.013658,-0.022345,-0.119845,0.322507,-0.19958,-1.25017e-05,-1.61769e-05,1.53991e-05,0.275143,-0.11294207996046912,-1.2501621854066336e-05,-1.6176769154663262e-05,0.38058455491763343,1.5399218566747308e-05,-0.1809253077835622
391,0.3816,0.00303552,582.29,0.00412677,-0.000567413,0.0136484,-0.0223637,-0.120117,0.323231,-0.200031,-1.25001e-05,-1.61812e-05,1.53765e-05,0.275772,-0.11318332690364818,-1.2500021874028988e-05,-1.6181069085074995e-05,0.38158446005737723,1.537661821893188e-05,-0.18129462718196754
392,0.3826,0.00302769,582.613,0.00411616,-0.000544067,0.0136387,-0.0223823,-0.120389,0.323955,-0.200481,-1.24984e-05,-1.61855e-05,1.53538e-05,0.2764,-0.11342450823658212,-1.2498321895315634e-05,-1.6185369015486728e-05,0.38258508939056846,1.5353917870220002e-05,-0.18166296171824925
393,0.3836,0.00301989,582.936,0.00410559,-0.000520778,0.0136291,-0.0224007,-0.12066,0.324678,-0.200931,-1.24967e-05,-1.61897e-05,1.5331e-05,0.277029,-0.11366473764229534,-1.249662191660228e-05,-1.618956894755552e-05,0.3835850598559618,1.5331117520389625e-05,-0.18203113054127806
394,0.3846,0.00301212,583.257,0.00409506,-0.000497545,0.0136195,-0.0224191,-0.120931,0.3254,-0.201381,-1.24949e-05,-1.61938e-05,1.53081e-05,0.277656,-0.11390490195466019,-1.2494821939101897e-05,-1.6193668881170353e-05,0.38458436897635995,1.5308217169662797e-05,-0.182399133725608
395,0.3856,0.00300437,583.578,0.00408457,-0.000474368,0.0136098,-0.0224374,-0.121203,0.326122,-0.20183,-1.24929e-05,-1.61979e-05,1.52852e-05,0.278284,-0.11414588704587036,-1.2492821964027456e-05,-1.6197768814674163e-05,0.3855843998584676,1.5285316819158012e-05,-0.18276615411232233
396,0.3866,0.00299666,583.898,0.00407411,-0.000451248,0.0136002,-0.0224556,-0.121473,0.326844,-0.202279,-1.24909e-05,-1.6202e-05,1.52622e-05,0.27891,-0.11438503536989142,-1.2490821989064038e-05,-1.6201868748288994e-05,0.38658515302358487,1.526231646797882e-05,-0.18313300974387348
397,0.3876,0.00298897,584.218,0.0040637,-0.000428183,0.0135906,-0.0224736,-0.121744,0.327565,-0.202728,-1.24888e-05,-1.6206e-05,1.52391e-05,0.279537,-0.11462500450801927,-1.2488722015313591e-05,-1.6205868683449864e-05,0.38758524140745343,1.5239216115681131e-05,-0.18349970069421961
398,0.3886,0.00298131,584.537,0.00405332,-0.000405175,0.0135809,-0.0224916,-0.122014,0.328285,-0.203176,-1.24866e-05,-1.621e-05,1.52159e-05,0.280163,-0.11486402348778779,-1.2486522042776116e-05,-1.6209868618610734e-05,0.3885846625296958,1.521601576248699e-05,-0.18386541090310526
399,0.3896,0.00297367,584.855,0.00404297,-0.000382223,0.0135713,-0.0225094,-0.122285,0.329005,-0.203624,-1.24843e-05,-1.62139e-05,1.51926e-05,0.280788,-0.11510386283772289,-1.2484222071451612e-05,-1.6213768555428665e-05,0.3895848034942584,1.5192715408174351e-05,-0.18423095731051153
400,0.3906,0.00296607,585.172,0.00403267,-0.000359327,0.0135617,-0.0225272,-0.122555,0.329724,-0.204071,-1.2482e-05,-1.62178e-05,1.51693e-05,0.281413,-0.11534275254319515,-1.2481922100127107e-05,-1.6217668492246595e-05,0.3905842742346446,1.5169415054305802e-05,-0.18459552458573736
401,0.3916,0.00295849,585.489,0.0040224,-0.000336488,0.0135521,-0.0225449,-0.122825,0.330443,-0.204519,-1.24795e-05,-1.62217e-05,1.51459e-05,0.282038,-0.11558157775715383,-1.2479422131339568e-05,-1.6221568428953503e-05,0.3915844638528987,1.5146014699762844e-05,-0.18496074397547124
402,0.3926,0.00295093,585.804,0.00401216,-0.000313704,0.0135424,-0.0225624,-0.123094,0.331162,-0.204966,-1.2477e-05,-1.62255e-05,1.51224e-05,0.282662,-0.11581945431690543,-1.2476922162552029e-05,-1.6225368367317472e-05,0.39258537286608,1.512251434410139e-05,-0.185324985108956
403,0.3936,0.00294341,586.12,0.00400197,-0.000290976,0.0135328,-0.0225799,-0.123364,0.331879,-0.205412,-1.24743e-05,-1.62293e-05,1.50988e-05,0.283286,-0.11605815083875926,-1.2474222196190432e-05,-1.622916830557042e-05,0.3935842146204027,1.5098913987543483e-05,-0.18568824915169424
404,0.3946,0.00293591,586.434,0.00399181,-0.000268304,0.0135232,-0.0225972,-0.123633,0.332597,-0.205859,-1.24716e-05,-1.6233e-05,1.50752e-05,0.283909,-0.11629589921759309,-1.2471522229939858e-05,-1.6232868245591447e-05,0.3945851673855416,1.5075313631429665e-05,-0.18605216516303547
405,0.3956,0.00292844,586.748,0.00398168,-0.000245687,0.0135136,-0.0226145,-0.123902,0.333314,-0.206305,-1.24688e-05,-1.62367e-05,1.50515e-05,0.284532,-0.11653358365071398,-1.2468722264791232e-05,-1.6236568185501454e-05,0.3955854435066939,1.5051613274419395e-05,-0.18641510495578273
406,0.3966,0.00292099,587.061,0.00397159,-0.000223127,0.013504,-0.0226316,-0.124171,0.33403,-0.20675,-1.24659e-05,-1.62403e-05,1.50277e-05,0.285154,-0.11677120415532127,-1.24658223009666e-05,-1.624016812706852e-05,0.3965850404972633,1.5027812916512673e-05,-0.18677706969095065
407,0.3976,0.00291357,587.373,0.00396154,-0.000200622,0.0134944,-0.0226487,-0.12444,0.334746,-0.207196,-1.24629e-05,-1.62439e-05,1.50038e-05,0.285776,-0.11700876074860922,-1.246282233835494e-05,-1.6243768068524567e-05,0.39758535345556356,1.5003912557487453e-05,-0.1871396862483653
408,0.3986,0.00290618,587.685,0.00395152,-0.000178172,0.0134847,-0.0226657,-0.124709,0.335461,-0.207641,-1.24599e-05,-1.62475e-05,1.49799e-05,0.286398,-0.11724625344776762,-1.2459822375743279e-05,-1.6247368010091634e-05,0.39858498430872813,1.4980012199350412e-05,-0.18750132861659008
409,0.3996,0.00289881,587.996,0.00394154,-0.000155778,0.0134751,-0.0226825,-0.124977,0.336176,-0.208085,-1.24567e-05,-1.6251e-05,1.49559e-05,0.287019,-0.11748279975322296,-1.2456622415668583e-05,-1.625086795320474e-05,0.3995853301535315,1.4956011840094874e-05,-0.18786199795216674
410,0.4006,0.00289147,588.306,0.00393159,-0.00013344,0.0134655,-0.0226993,-0.125245,0.33689,-0.20853,-1.24535e-05,-1.62545e-05,1.49318e-05,0.28764,-0.11771928267276244,-1.2453422455482865e-05,-1.6254367896317845e-05,0.40058499091568467,1.4931911479942883e-05,-0.18822331896319044
411,0.4016,0.00288416,588.616,0.00392168,-0.000111157,0.0134559,-0.022716,-0.125513,0.337604,-0.208974,-1.24502e-05,-1.62579e-05,1.49077e-05,0.28826,-0.11795570222337126,-1.2450122496621141e-05,-1.625776784108801e-05,0.4015853656904942,1.4907811120234982e-05,-0.18858366780620783
412,0.4026,0.00287687,588.925,0.0039118,-8.89297e-05,0.0134463,-0.0227326,-0.125781,0.338317,-0.209418,-1.24468e-05,-1.62613e-05,1.48835e-05,0.28888,-0.11819205842203018,-1.2446722538861366e-05,-1.6261167785747155e-05,0.4025850524021932,1.4883610759852672e-05,-0.18894385668985259
413,0.4036,0.00286961,589.233,0.00390196,-6.67575e-05,0.0134367,-0.0227491,-0.126049,0.33903,-0.209861,-1.24433e-05,-1.62647e-05,1.48592e-05,0.289499,-0.11842835128571505,-1.2443222582425584e-05,-1.626456773051732e-05,0.40358545214468333,1.4859310398351866e-05,-0.1893030749886111
414,0.4046,0.00286237,589.541,0.00389215,-4.46405e-05,0.0134271,-0.0227654,-0.126316,0.339742,-0.210304,-1.24398e-05,-1.6268e-05,1.48349e-05,0.290118,-0.11866369949553757,-1.2439722625989802e-05,-1.6267867676833525e-05,0.404585160840673,1.4835010037739238e-05,-0.1896621341889062
415,0.4056,0.00285516,589.848,0.00388238,-2.25788e-05,0.0134175,-0.0227817,-0.126584,0.340454,-0.210747,-1.24361e-05,-1.62713e-05,1.48104e-05,0.290736,-0.11889986597635083,-1.2436022671979963e-05,-1.627116762314973e-05,0.40558558158271274,1.4810509674445527e-05,-0.19002103436120288
416,0.4066,0.00284797,590.154,0.00387264,-5.72144e-07,0.0134079,-0.0227979,-0.126851,0.341165,-0.211189,-1.24324e-05,-1.62745e-05,1.4786e-05,0.291354,-0.11913508830855635,-1.2432322718081146e-05,-1.6274367571011972e-05,0.40658530829194794,1.4786109313380535e-05,-0.19037896595530568
417,0.4076,0.00284081,590.46,0.00386294,2.13794e-05,0.0133983,-0.0228141,-0.127118,0.341875,-0.211632,-1.24286e-05,-1.62777e-05,1.47614e-05,0.291972,-0.1193702478447829,-1.2428522765284278e-05,-1.6277567518985236e-05,0.4075843384745823,1.476150895007855e-05,-0.1907375486414582
418,0.4086,0.00283367,590.765,0.00385326,4.3276e-05,0.0133887,-0.0228301,-0.127384,0.342586,-0.212073,-1.24247e-05,-1.62809e-05,1.47368e-05,0.292589,-0.11960446420669901,-1.2424622813700381e-05,-1.628076746684748e-05,0.4085854868052943,1.4736908587220654e-05,-0.19109435470098857
419,0.4096,0.00282656,591.069,0.00384363,6.51176e-05,0.0133791,-0.022846,-0.127651,0.343295,-0.212515,-1.24207e-05,-1.6284e-05,1.47121e-05,0.293206,-0.11983949843628983,-1.2420622863440478e-05,-1.6283867416366782e-05,0.4095845280337047,1.4712208223466305e-05,-0.19145181199232975
420,0.4106,0.00281947,591.373,0.00383402,8.69043e-05,0.0133696,-0.0228618,-0.127917,0.344004,-0.212956,-1.24167e-05,-1.62871e-05,1.46873e-05,0.293822,-0.12007358999414841,-1.2416622913069553e-05,-1.6286967365886085e-05,0.41058427783350515,1.4687407858815504e-05,-0.19180830313116748
421,0.4116,0.00281241,591.676,0.00382445,0.000108636,0.01336,-0.0228776,-0.128183,0.344713,-0.213397,-1.24125e-05,-1.62902e-05,1.46625e-05,0.294438,-0.12030761929193334,-1.2412422965235592e-05,-1.6290067315405388e-05,0.4115847367072505,1.4662607495052882e-05,-0.1921646370920732
422,0.4126,0.00280537,591.978,0.00381491,0.000130313,0.0133504,-0.0228932,-0.128449,0.345421,-0.213838,-1.24083e-05,-1.62932e-05,1.46376e-05,0.295053,-0.12054158634620393,-1.2408223017401632e-05,-1.629306726658175e-05,0.41258449257265384,1.4637707130171762e-05,-0.19252081394434728
423,0.4136,0.00279836,592.28,0.00380541,0.000151936,0.0133408,-0.0229088,-0.128715,0.346129,-0.214278,-1.2404e-05,-1.62962e-05,1.46127e-05,0.295668,-0.12077549117351472,-1.240392307066962e-05,-1.6296067217647092e-05,0.4135849565158398,1.4612806765956776e-05,-0.1928760266336893
424,0.4146,0.00279137,592.581,0.00379594,0.000173504,0.0133313,-0.0229242,-0.128981,0.346836,-0.214718,-1.23997e-05,-1.62991e-05,1.45877e-05,0.296283,-0.12100933379041567,-1.2399623124048631e-05,-1.6298967170369494e-05,0.41458471445288314,1.4587806401067382e-05,-0.19323108306382764
425,0.4156,0.0027844,592.881,0.0037865,0.000195017,0.0133217,-0.0229396,-0.129246,0.347543,-0.215158,-1.23952e-05,-1.6302e-05,1.45626e-05,0.296897,-0.12124223545612756,-1.2395123179853584e-05,-1.6301867123091895e-05,0.4155851794687109,1.4562706035281536e-05,-0.19358598330350107
426,0.4166,0.00277746,593.181,0.0037771,0.000216476,0.0133121,-0.0229549,-0.129512,0.348249,-0.215597,-1.23907e-05,-1.63049e-05,1.45374e-05,0.297511,-0.12147595393556032,-1.2390623235547515e-05,-1.6304767075814297e-05,0.4165849354777609,1.4537505668599238e-05,-0.19393992136174276
427,0.4176,0.00277055,593.48,0.00376772,0.00023788,0.0133026,-0.0229701,-0.129777,0.348955,-0.216036,-1.23861e-05,-1.63077e-05,1.45122e-05,0.298124,-0.12170873196331655,-1.238602329256544e-05,-1.630756703019376e-05,0.4175853975637691,1.4512305302583073e-05,-0.19429370407527757
428,0.4186,0.00276365,593.779,0.00375838,0.00025923,0.013293,-0.0229852,-0.130042,0.34966,-0.216475,-1.23814e-05,-1.63105e-05,1.44869e-05,0.298737,-0.12194144831306797,-1.2381323350796336e-05,-1.631036698457322e-05,0.4185851476395448,1.4487004935670456e-05,-0.19464733151228686
429,0.4196,0.00275679,594.077,0.00374907,0.000280526,0.0132834,-0.0230002,-0.130306,0.350365,-0.216913,-1.23766e-05,-1.63133e-05,1.44616e-05,0.299349,-0.12217322517482143,-1.2376523410240203e-05,-1.631316693884166e-05,0.4195856027876328,1.4461704569423972e-05,-0.19499999874132323
430,0.4206,0.00274994,594.374,0.0037398,0.000301767,0.0132739,-0.0230152,-0.130571,0.351069,-0.217351,-1.23718e-05,-1.6316e-05,1.44362e-05,0.299961,-0.12240581845017995,-1.2371723469573048e-05,-1.631586689476716e-05,0.420585342919231,1.443630420250308e-05,-0.1953525115359368
431,0.4216,0.00274312,594.67,0.00373055,0.000322954,0.0132643,-0.02303,-0.130835,0.351772,-0.217789,-1.23669e-05,-1.63187e-05,1.44108e-05,0.300573,-0.12263747273439818,-1.2366823530229887e-05,-1.6318566850692662e-05,0.4215843655306073,1.4410903836026279e-05,-0.19570486996375525
432,0.4226,0.00273632,594.966,0.00372134,0.000344088,0.0132548,-0.0230448,-0.131099,0.352476,-0.218226,-1.23619e-05,-1.63214e-05,1.43852e-05,0.301184,-0.12286906586995727,-1.2361823591988674e-05,-1.6321266806729184e-05,0.4225855132866023,1.4385303467534527e-05,-0.19605627014904836
433,0.4236,0.00272955,595.262,0.00371216,0.000365167,0.0132452,-0.0230595,-0.131363,0.353178,-0.218663,-1.23568e-05,-1.6324e-05,1.43597e-05,0.301795,-0.12310059787299854,-1.2356723655071455e-05,-1.6323866764200723e-05,0.423584518926883,1.4359803101049451e-05,-0.19640751680600899
434,0.4246,0.0027228,595.557,0.00370301,0.000386192,0.0132357,-0.0230741,-0.131627,0.35388,-0.2191,-1.23517e-05,-1.63266e-05,1.4334e-05,0.302405,-0.12333206875965863,-1.2351623718043214e-05,-1.6326466721783284e-05,0.42458422611533786,1.433410273232738e-05,-0.19675861000171413
435,0.4256,0.00271607,595.851,0.00369389,0.000407163,0.0132262,-0.0230886,-0.131891,0.354582,-0.219537,-1.23465e-05,-1.63291e-05,1.43083e-05,0.303015,-0.1235634785460702,-1.2346423782227944e-05,-1.6328966681022905e-05,0.4255846353446264,1.4308402364271444e-05,-0.19710954980321194
436,0.4266,0.00270936,596.144,0.0036848,0.000428081,0.0132166,-0.023103,-0.132154,0.355283,-0.219973,-1.23412e-05,-1.63316e-05,1.42826e-05,0.303624,-0.12379395104275082,-1.2341123847736668e-05,-1.6331466640151504e-05,0.4265843205227209,1.4282701996881642e-05,-0.19745953373745584
437,0.4276,0.00270268,596.437,0.00367575,0.000448944,0.0132071,-0.0231173,-0.132417,0.355984,-0.220409,-1.23358e-05,-1.63341e-05,1.42568e-05,0.304233,-0.1240243629331349,-1.233572391434734e-05,-1.6333966599280103e-05,0.4275847067258056,1.4256901628595386e-05,-0.19780936511196479
438,0.4286,0.00269602,596.729,0.00366672,0.000469754,0.0131976,-0.0231316,-0.132681,0.356684,-0.220845,-1.23304e-05,-1.63366e-05,1.42309e-05,0.304842,-0.12425558997800767,-1.2330323980958013e-05,-1.6336466558519724e-05,0.42858436586039117,1.4231001259634724e-05,-0.19815904399324047
439,0.4296,0.00268938,597.021,0.00365773,0.000490511,0.013188,-0.0231457,-0.132943,0.357384,-0.22128,-1.23249e-05,-1.6339e-05,1.42049e-05,0.30545,-0.12448500495875858,-1.2324824048781657e-05,-1.6338866519305384e-05,0.4295847250013449,1.4205000889999653e-05,-0.19850776895592515
440,0.4306,0.00268277,597.312,0.00364876,0.000511214,0.0131785,-0.0231598,-0.133206,0.358083,-0.221715,-1.23193e-05,-1.63414e-05,1.4179e-05,0.306058,-0.12471523512586036,-1.231922411770725e-05,-1.6341266480091043e-05,0.43058435405377304,1.4179100522593302e-05,-0.19885634225623994
441,0.4316,0.00267618,597.603,0.00363983,0.000531863,0.013169,-0.0231738,-0.133469,0.358782,-0.22215,-1.23136e-05,-1.63437e-05,1.41529e-05,0.306665,-0.12494540475038995,-1.2313524187956837e-05,-1.634356644242274e-05,0.4315846820911755,1.4153000152727913e-05,-0.19920476396014364
442,0.4326,0.00266961,597.893,0.00363093,0.000552459,0.0131595,-0.0231877,-0.133731,0.35948,-0.222584,-1.23079e-05,-1.63461e-05,1.41268e-05,0.307272,-0.12517463902334425,-1.2307824258095401e-05,-1.63459664032084e-05,0.4325842770173205,1.4126899783750702e-05,-0.19955223368620045
443,0.4336,0.00266306,598.182,0.00362205,0.000573002,0.01315,-0.0232015,-0.133993,0.360178,-0.223018,-1.23021e-05,-1.63484e-05,1.41006e-05,0.307879,-0.12540381324478622,-1.2302024329446937e-05,-1.634826636565112e-05,0.43358456990428396,1.4100699413877038e-05,-0.19989955264311532
444,0.4346,0.00265654,598.471,0.00361321,0.000593491,0.0131405,-0.0232153,-0.134255,0.360876,-0.223452,-1.22962e-05,-1.63506e-05,1.40744e-05,0.308485,-0.12563292743044718,-1.2296124402011444e-05,-1.635046632963988e-05,0.4345855612394125,1.4074499044891553e-05,-0.20024672089630802
445,0.4356,0.00265004,598.759,0.0036044,0.000613927,0.013131,-0.023229,-0.134517,0.361572,-0.223885,-1.22903e-05,-1.63528e-05,1.40482e-05,0.309091,-0.12586198159605444,-1.229022447457595e-05,-1.635266629373966e-05,0.43558438033876135,1.4048298676350157e-05,-0.20059293910450848
446,0.4366,0.00264356,599.046,0.00359561,0.00063431,0.0131215,-0.0232425,-0.134779,0.362269,-0.224318,-1.22843e-05,-1.6355e-05,1.40218e-05,0.309696,-0.1260909757573312,-1.2284224548242406e-05,-1.6354866257728418e-05,0.43658533144279454,1.4021898305793812e-05,-0.20093900743267612
447,0.4376,0.0026371,599.333,0.00358686,0.00065464,0.013112,-0.023256,-0.13504,0.362965,-0.224751,-1.22782e-05,-1.63572e-05,1.39954e-05,0.310301,-0.12631903624946972,-1.2278124623232856e-05,-1.6357066221717176e-05,0.4375855428666777,1.3995497936125645e-05,-0.20128492594569514
448,0.4386,0.00263066,599.619,0.00357814,0.000674917,0.0131025,-0.0232695,-0.135302,0.36366,-0.225184,-1.2272e-05,-1.63593e-05,1.3969e-05,0.310905,-0.12654791067811288,-1.2271924699325254e-05,-1.6359166187362995e-05,0.438585012094296,1.3969097566901567e-05,-0.2016306947084211
449,0.4396,0.00262425,599.905,0.00356944,0.000695141,0.013093,-0.0232828,-0.135563,0.364355,-0.225616,-1.22658e-05,-1.63614e-05,1.39425e-05,0.311509,-0.1267758519257991,-1.2265724775417652e-05,-1.6361266153008813e-05,0.4395851761944676,1.3942597197003082e-05,-0.201975515761597
450,0.4406,0.00261786,600.19,0.00356078,0.000715312,0.0130836,-0.0232961,-0.135824,0.365049,-0.226048,-1.22595e-05,-1.63635e-05,1.3916e-05,0.312113,-0.12700373368858286,-1.2259424852612e-05,-1.6363366118654632e-05,0.4405845950649818,1.3916096827992774e-05,-0.2023201878842491
451,0.4416,0.00261148,600.475,0.00355214,0.000735431,0.0130741,-0.0233093,-0.136084,0.365743,-0.22648,-1.22531e-05,-1.63655e-05,1.38894e-05,0.312716,-0.12723068321310715,-1.225302493113034e-05,-1.636536608595751e-05,0.4415847077729256,1.3889496458086015e-05,-0.20266471114070173
452,0.4426,0.00260513,600.759,0.00354354,0.000755496,0.0130646,-0.0233224,-0.136345,0.366437,-0.226911,-1.22467e-05,-1.63675e-05,1.38627e-05,0.313319,-0.12745844628041525,-1.2246625009426637e-05,-1.6367366053149368e-05,0.44258551479998975,1.3862796087726892e-05,-0.20300828860393816
453,0.4436,0.00259881,601.042,0.00353496,0.000775509,0.0130552,-0.0233354,-0.136605,0.36713,-0.227342,-1.22402e-05,-1.63695e-05,1.3836e-05,0.313921,-0.12768527759503367,-1.2240125089046927e-05,-1.6369366020452247e-05,0.4435855730419038,1.3836095717811858e-05,-0.20335171801719498
454,0.4446,0.0025925,601.325,0.00352641,0.00079547,0.0130457,-0.0233483,-0.136866,0.367822,-0.227773,-1.22336e-05,-1.63714e-05,1.38093e-05,0.314523,-0.12791292202869042,-1.2233525169769166e-05,-1.6371265989412187e-05,0.4445848799787713,1.3809395348785003e-05,-0.20369499944426794
455,0.4456,0.00258621,601.607,0.00351789,0.000815378,0.0130362,-0.0233612,-0.137126,0.368514,-0.228203,-1.2227e-05,-1.63733e-05,1.37825e-05,0.315125,-0.1281396351949743,-1.2226925250491405e-05,-1.6373165958261104e-05,0.44558487867536045,1.378259497908374e-05,-0.2040373369866605
456,0.4466,0.00257995,601.889,0.0035094,0.000835234,0.0130268,-0.023374,-0.137386,0.369206,-0.228634,-1.22203e-05,-1.63752e-05,1.37556e-05,0.315726,-0.12836628942349704,-1.2220225332426615e-05,-1.6375065927110022e-05,0.4465855696105343,1.3755694608708069e-05,-0.20438032297562914
457,0.4476,0.0025737,602.17,0.00350093,0.000855037,0.0130174,-0.0233867,-0.137645,0.369897,-0.229063,-1.22135e-05,-1.63771e-05,1.37287e-05,0.316326,-0.12859201332202963,-1.2213425415463774e-05,-1.637696589606996e-05,0.44758550567725863,1.3728794238998532e-05,-0.20472157061422047
458,0.4486,0.00256748,602.451,0.0034925,0.000874788,0.0130079,-0.0233993,-0.137905,0.370587,-0.229493,-1.22066e-05,-1.63789e-05,1.37017e-05,0.316927,-0.1288185499475285,-1.2206525499713905e-05,-1.637876586657594e-05,0.4485846843531769,1.3701793868614587e-05,-0.20506346682590282
459,0.4496,0.00256128,602.731,0.00348409,0.000894487,0.0129985,-0.0234119,-0.138164,0.371277,-0.229922,-1.21997e-05,-1.63807e-05,1.36747e-05,0.317527,-0.1290441567257531,-1.2199625583964036e-05,-1.6380565837081917e-05,0.44958455270029063,1.367479349911882e-05,-0.2054044214586367
460,0.4506,0.00255509,603.01,0.00347571,0.000914134,0.012989,-0.0234244,-0.138423,0.371967,-0.230351,-1.21928e-05,-1.63825e-05,1.36477e-05,0.318126,-0.1292697050793885,-1.2192725668103144e-05,-1.6382365807587895e-05,0.45058511119463707,1.3647793130289188e-05,-0.20574522985320343
461,0.4516,0.00254893,603.289,0.00346736,0.000933728,0.0129796,-0.0234368,-0.138682,0.372656,-0.23078,-1.21857e-05,-1.63842e-05,1.36206e-05,0.318725,-0.12949519502356466,-1.2185625754668195e-05,-1.6384065779750934e-05,0.4515849087269479,1.3620692760785147e-05,-0.20608589207232575
462,0.4526,0.00254279,603.568,0.00345903,0.000953271,0.0129702,-0.0234491,-0.138941,0.373345,-0.231208,-1.21786e-05,-1.63859e-05,1.35934e-05,0.319324,-0.12972062657340766,-1.2178525841122223e-05,-1.6385765751913972e-05,0.4525853953571257,1.3593492390606698e-05,-0.20642561460471087
463,0.4536,0.00253667,603.846,0.00345074,0.000972762,0.0129608,-0.0234614,-0.1392,0.374033,-0.231636,-1.21714e-05,-1.63876e-05,1.35662e-05,0.319922,-0.12994599974403975,-1.2171325928789223e-05,-1.6387465723965988e-05,0.45358511797427736,1.3566292021316428e-05,-0.2067651917669635
464,0.4546,0.00253057,604.123,0.00344247,0.000992201,0.0129514,-0.0234736,-0.139458,0.374721,-0.232064,-1.21642e-05,-1.63892e-05,1.35389e-05,0.32052,-0.13017044472145867,-1.2164126016456223e-05,-1.6389065697786087e-05,0.4545855286372502,1.353899165135175e-05,-0.2071046236212889
465,0.4556,0.00252449,604.4,0.00343423,0.00101159,0.012942,-0.0234857,-0.139717,0.375408,-0.232491,-1.21569e-05,-1.63909e-05,1.35116e-05,0.321117,-0.13039570140427625,-1.2156826105225171e-05,-1.6390765669949126e-05,0.45558517223368256,1.3511691282053206e-05,-0.20744311767337942
466,0.4566,0.00251843,604.676,0.00342601,0.00103092,0.0129326,-0.0234977,-0.139975,0.376095,-0.232919,-1.21495e-05,-1.63924e-05,1.34843e-05,0.321714,-0.13062003037363246,-1.2149426195096069e-05,-1.6392265645315263e-05,0.45658550282122023,1.348439091364284e-05,-0.2077822594375005
467,0.4576,0.00251239,604.951,0.00341783,0.00105021,0.0129232,-0.0235097,-0.140233,0.376781,-0.233345,-1.21421e-05,-1.6394e-05,1.34569e-05,0.322311,-0.13084430147358017,-1.2142026284966967e-05,-1.639386561913536e-05,0.45758506328619575,1.3456990544558067e-05,-0.2081196723209333
468,0.4586,0.00250638,605.226,0.00340967,0.00106944,0.0129138,-0.0235215,-0.140491,0.377467,-0.233772,-1.21346e-05,-1.63955e-05,1.34294e-05,0.322907,-0.13106851471904757,-1.2134526376050836e-05,-1.63953655945015e-05,0.45858530968489886,1.3429490174798886e-05,-0.20845773303975235
469,0.4596,0.00250038,605.501,0.00340153,0.00108862,0.0129044,-0.0235333,-0.140748,0.378152,-0.234198,-1.2127e-05,-1.63971e-05,1.34019e-05,0.323503,-0.1312918014171951,-1.2126926468236654e-05,-1.6396965568321598e-05,0.4595847829025286,1.3401989805927883e-05,-0.20879485823271293
470,0.4606,0.0024944,605.775,0.00339343,0.00110775,0.012895,-0.0235451,-0.141006,0.378837,-0.234624,-1.21194e-05,-1.63985e-05,1.33744e-05,0.324098,-0.13151589922256957,-1.2119326560422472e-05,-1.6398365545344795e-05,0.46058494099385494,1.3374489437723014e-05,-0.2091318398409271
471,0.4616,0.00248844,606.048,0.00338535,0.00112683,0.0128856,-0.0235567,-0.141263,0.379521,-0.23505,-1.21117e-05,-1.64e-05,1.33468e-05,0.324693,-0.131739070957673,-1.2111626653710239e-05,-1.6399865520710932e-05,0.46158432284312334,1.3346889068843737e-05,-0.2094686779255488
472,0.4626,0.0024825,606.321,0.0033773,0.00114586,0.0128762,-0.0235683,-0.14152,0.380205,-0.235475,-1.21039e-05,-1.64014e-05,1.33192e-05,0.325288,-0.13196218534501003,-1.2103826748099955e-05,-1.640126549773413e-05,0.4625843885034133,1.3319288700852638e-05,-0.20980458235268362
473,0.4636,0.00247658,606.594,0.00336927,0.00116483,0.0128669,-0.0235799,-0.141777,0.380889,-0.2359,-1.20961e-05,-1.64028e-05,1.32915e-05,0.325882,-0.13218524239931717,-1.2096026842489671e-05,-1.6402665474757328e-05,0.4635851384426115,1.3291588332409177e-05,-0.21014034405076898
474,0.4646,0.00247067,606.866,0.00336127,0.00118376,0.0128575,-0.0235913,-0.142034,0.381572,-0.236325,-1.20882e-05,-1.64042e-05,1.32638e-05,0.326476,-0.1324082421353271,-1.2088126937981336e-05,-1.6404065451891547e-05,0.4645851085430843,1.3263887964631849e-05,-0.2104759630804518
475,0.4656,0.00246479,607.137,0.0033533,0.00120263,0.0128482,-0.0236027,-0.14229,0.382254,-0.23675,-1.20803e-05,-1.64055e-05,1.3236e-05,0.327069,-0.13263031719851948,-1.2080227033473001e-05,-1.6405365430571806e-05,0.46558429627139697,1.3236087596180113e-05,-0.21081143950235337
476,0.4666,0.00245893,607.408,0.00334535,0.00122146,0.0128388,-0.023614,-0.142547,0.382937,-0.237174,-1.20723e-05,-1.64069e-05,1.32082e-05,0.327662,-0.1328532025650031,-1.2072227130066615e-05,-1.6406765407595003e-05,0.4665856322630657,1.3208287228616555e-05,-0.2111459845234479
477,0.4676,0.00245309,607.678,0.00333743,0.00124023,0.0128295,-0.0236252,-0.142803,0.383618,-0.237598,-1.20642e-05,-1.64081e-05,1.31804e-05,0.328255,-0.13307516373290484,-1.20641272278732e-05,-1.64079653878213e-05,0.4675847172284562,1.3180486861941176e-05,-0.21148038772752098
478,0.4686,0.00244726,607.948,0.00332953,0.00125895,0.0128201,-0.0236364,-0.143059,0.384299,-0.238022,-1.20561e-05,-1.64094e-05,1.31525e-05,0.328847,-0.13329706808602004,-1.2056027325568763e-05,-1.6409265366501558e-05,0.4685844828024288,1.315258649459139e-05,-0.21181464917468995
479,0.4696,0.00244146,608.217,0.00332166,0.00127762,0.0128108,-0.0236475,-0.143315,0.38498,-0.238445,-1.20479e-05,-1.64107e-05,1.31245e-05,0.329439,-0.13351891563889173,-1.2047827424366275e-05,-1.6410565345181816e-05,0.4695849294486363,1.3124586126567195e-05,-0.21214798107342225
480,0.4706,0.00243567,608.486,0.00331382,0.00129624,0.0128015,-0.0236585,-0.143571,0.38566,-0.238868,-1.20397e-05,-1.64119e-05,1.30965e-05,0.33003,-0.13374070640605873,-1.2039627523052765e-05,-1.6411765325519134e-05,0.47058458704572437,1.3096585759431179e-05,-0.21248117200257854
481,0.4716,0.0024299,608.754,0.003306,0.00131481,0.0127921,-0.0236695,-0.143826,0.38634,-0.239291,-1.20314e-05,-1.64131e-05,1.30685e-05,0.330621,-0.13396157436406364,-1.2031327622952226e-05,-1.6412965305856453e-05,0.47158492464115165,1.306858539318334e-05,-0.21281422202177636
482,0.4726,0.00242416,609.022,0.00329821,0.00133333,0.0127828,-0.0236803,-0.144082,0.387019,-0.239713,-1.2023e-05,-1.64142e-05,1.30404e-05,0.331212,-0.13418325182510082,-1.2022927724064658e-05,-1.641406528773981e-05,0.4725844701122677,1.304048502648314e-05,-0.2131463443373458
483,0.4736,0.00241843,609.289,0.00329044,0.0013518,0.0127735,-0.0236912,-0.144337,0.387698,-0.240136,-1.20146e-05,-1.64154e-05,1.30123e-05,0.331802,-0.13440400694841093,-1.2014527824955046e-05,-1.6415265268077128e-05,0.47358469450522667,1.3012384660449072e-05,-0.21347911304814693
484,0.4746,0.00241271,609.556,0.00328269,0.00137022,0.0127642,-0.0237019,-0.144592,0.388377,-0.240557,-1.20061e-05,-1.64165e-05,1.29842e-05,0.332392,-0.13462470578634134,-1.2006027927058405e-05,-1.6416365249960485e-05,0.47458559828117286,1.2984284295081139e-05,-0.2138101686494599
485,0.4756,0.00240702,609.822,0.00327498,0.00138859,0.0127549,-0.0237126,-0.144847,0.389054,-0.240979,-1.19975e-05,-1.64176e-05,1.2956e-05,0.332981,-0.1348453483532429,-1.1997428030263713e-05,-1.6417465231954864e-05,0.4755842307301512,1.2956083929260842e-05,-0.2141418707642211
486,0.4766,0.00240135,610.088,0.00326728,0.00140691,0.0127456,-0.0237232,-0.145102,0.389732,-0.2414,-1.19889e-05,-1.64186e-05,1.29278e-05,0.33357,-0.13506593466346306,-1.198882813346902e-05,-1.641846521549528e-05,0.4765850160664782,1.2927883564328724e-05,-0.21447264740326122
487,0.4776,0.00239569,610.353,0.00325962,0.00142518,0.0127363,-0.0237337,-0.145356,0.390409,-0.241821,-1.19803e-05,-1.64197e-05,1.28995e-05,0.334159,-0.13528560001737755,-1.1980228236452284e-05,-1.641956519748966e-05,0.47758500257959646,1.2899583198944242e-05,-0.21480328481464583
488,0.4786,0.00239006,610.617,0.00325197,0.0014434,0.012727,-0.0237442,-0.145611,0.391086,-0.242242,-1.19716e-05,-1.64207e-05,1.28712e-05,0.334747,-0.13550607407773574,-1.1971528340648518e-05,-1.6420565181030078e-05,0.478585666312797,1.2871282834225894e-05,-0.21513378305697728
489,0.4796,0.00238444,610.882,0.00324435,0.00146157,0.0127178,-0.0237546,-0.145865,0.391762,-0.242663,-1.19628e-05,-1.64217e-05,1.28428e-05,0.335335,-0.13572562765043583,-1.1962728445946702e-05,-1.6421565164570495e-05,0.47958552813844557,1.2842882469055183e-05,-0.21546414218883359
490,0.4806,0.00237884,611.145,0.00323676,0.00147969,0.0127085,-0.023765,-0.146119,0.392437,-0.243083,-1.19539e-05,-1.64226e-05,1.28144e-05,0.335922,-0.13594512546361026,-1.1953828552457857e-05,-1.6422465149878995e-05,0.4805845855138702,1.2814482104772651e-05,-0.21579357806273813
491,0.4816,0.00237325,611.408,0.00322919,0.00149776,0.0126992,-0.0237753,-0.146373,0.393112,-0.243503,-1.19451e-05,-1.64236e-05,1.2786e-05,0.33651,-0.13616456753142014,-1.1945028657533996e-05,-1.6423465133419413e-05,0.4815843174806722,1.2786081741156252e-05,-0.21612287560262766
492,0.4826,0.00236769,611.671,0.00322165,0.00151578,0.01269,-0.0237855,-0.146627,0.393787,-0.243922,-1.19361e-05,-1.64245e-05,1.27575e-05,0.337096,-0.13638395386802293,-1.1936028765036077e-05,-1.642436511861689e-05,0.48258472449435463,1.2757581377309535e-05,-0.21645125131823362
493,0.4836,0.00236214,611.933,0.00321413,0.00153375,0.0126807,-0.0237956,-0.14688,0.394461,-0.244342,-1.19271e-05,-1.64254e-05,1.2729e-05,0.337682,-0.1366024210904253,-1.1927028872427137e-05,-1.6425265103814368e-05,0.4835843234256625,1.2729081014128951e-05,-0.21678027269335454
494,0.4846,0.00235661,612.195,0.00320663,0.00155167,0.0126715,-0.0238057,-0.147134,0.395135,-0.244761,-1.1918e-05,-1.64262e-05,1.27004e-05,0.338268,-0.1368216962263472,-1.1917928980920145e-05,-1.6426065090668907e-05,0.48458459631374806,1.2700480650496004e-05,-0.21710837301727803
495,0.4856,0.0023511,612.456,0.00319916,0.00156954,0.0126622,-0.0238157,-0.147387,0.395809,-0.24518,-1.19089e-05,-1.64271e-05,1.26718e-05,0.338854,-0.13704005271394148,-1.1908829089302131e-05,-1.6426965075977407e-05,0.4855855436130112,1.2671880287529191e-05,-0.21743633589596256
496,0.4866,0.00234561,612.717,0.00319171,0.00158736,0.012653,-0.0238256,-0.14764,0.396481,-0.245598,-1.18997e-05,-1.64279e-05,1.26432e-05,0.339439,-0.13725835396433228,-1.1899629198897088e-05,-1.6427765062831945e-05,0.48658419260679975,1.2643279925672601e-05,-0.21776337915075594
497,0.4876,0.00234013,612.977,0.00318429,0.00160514,0.0126437,-0.0238355,-0.147893,0.397154,-0.246016,-1.18905e-05,-1.64287e-05,1.26145e-05,0.340024,-0.13747659999149275,-1.189042930827e-05,-1.6428565049686483e-05,0.48758500050250664,1.2614579563141604e-05,-0.21809028573003608
498,0.4886,0.00233467,613.237,0.00317688,0.00162286,0.0126345,-0.0238453,-0.148145,0.397826,-0.246434,-1.18812e-05,-1.64295e-05,1.25858e-05,0.340608,-0.13769392850375228,-1.1881129418855885e-05,-1.642936503654102e-05,0.48858499358288743,1.2585879201498784e-05,-0.21841705569092118
499,0.4896,0.00232923,613.496,0.00316951,0.00164053,0.0126253,-0.0238551,-0.148398,0.398498,-0.246852,-1.18719e-05,-1.64302e-05,1.25571e-05,0.341192,-0.13791206434449343,-1.1871829529219724e-05,-1.643006502505262e-05,0.4895856588844596,1.2557178840744143e-05,-0.2187436890905059
500,0.4906,0.00232381,613.755,0.00316215,0.00165816,0.0126161,-0.0238648,-0.14865,0.399169,-0.247269,-1.18625e-05,-1.64309e-05,1.25283e-05,0.341775,-0.13812928313356165,-1.1862429640796535e-05,-1.6430765013453197e-05,0.49058550627285546,1.2528378479537139e-05,-0.21906940505565664
501,0.4916,0.00231841,614.013,0.00315482,0.00167574,0.0126069,-0.0238744,-0.148903,0.399839,-0.247686,-1.1853e-05,-1.64316e-05,1.24995e-05,0.342358,-0.13834730884351354,-1.1852929753475294e-05,-1.6431465001964796e-05,0.49158453319870654,1.2499578118996268e-05,-0.2193949852255651
502,0.4926,0.00231302,614.271,0.00314752,0.00169327,0.0125977,-0.023884,-0.149155,0.400509,-0.248103,-1.18435e-05,-1.64323e-05,1.24707e-05,0.342941,-0.1385644179647868,-1.1843429866043031e-05,-1.6432164990476394e-05,0.4925842296968794,1.2470777759565621e-05,-0.21972042965684613
503,0.4936,0.00230765,614.528,0.00314023,0.00171075,0.0125885,-0.0238935,-0.149407,0.401179,-0.248519,-1.1834e-05,-1.6433e-05,1.24418e-05,0.343524,-0.13878147238145455,-1.1833929978499746e-05,-1.6432864978987993e-05,0.49358459621613826,1.2441877399460566e-05,-0.22004495845143945
504,0.4946,0.00230229,614.785,0.00313297,0.00172818,0.0125793,-0.0239029,-0.149658,0.401849,-0.248936,-1.18244e-05,-1.64336e-05,1.24129e-05,0.344106,-0.13899761110534214,-1.182433009205841e-05,-1.6433464969156653e-05,0.4945856332055474,1.2412977040465734e-05,-0.22037013190038912
505,0.4956,0.00229695,615.041,0.00312574,0.00174556,0.0125701,-0.0239123,-0.14991,0.402517,-0.249352,-1.18147e-05,-1.64342e-05,1.23839e-05,0.344687,-0.13921455637109204,-1.1814630206719023e-05,-1.6434064959325312e-05,0.49558434994278144,1.2383976680796493e-05,-0.2206943904750588
506,0.4966,0.00229163,615.297,0.00311852,0.00176289,0.0125609,-0.0239216,-0.150161,0.403186,-0.249767,-1.1805e-05,-1.64348e-05,1.23549e-05,0.345268,-0.13943058640453954,-1.1804930321268614e-05,-1.643466494938295e-05,0.4965852306301535,1.2354976322015432e-05,-0.22101773520433965
507,0.4976,0.00228633,615.553,0.00311133,0.00178018,0.0125518,-0.0239309,-0.150413,0.403854,-0.250183,-1.17952e-05,-1.64354e-05,1.23259e-05,0.345849,-0.13964742257426066,-1.1795130436920154e-05,-1.6435264939551608e-05,0.49758528354470055,1.2325975964122549e-05,-0.2213417244320629
508,0.4986,0.00228104,615.808,0.00310416,0.00179742,0.0125426,-0.02394,-0.150664,0.404521,-0.250598,-1.17854e-05,-1.64359e-05,1.22968e-05,0.34643,-0.13986334397192557,-1.1785330552460671e-05,-1.6435764931377328e-05,0.4985845061325127,1.2296875605999347e-05,-0.22166480057348747
509,0.4996,0.00227577,616.062,0.00309702,0.00181461,0.0125334,-0.0239492,-0.150915,0.405188,-0.251013,-1.17755e-05,-1.64365e-05,1.22677e-05,0.34701,-0.14007921118012068,-1.1775430669103137e-05,-1.6436364921434965e-05,0.4995843954241117,1.2267775248542279e-05,-0.2219877426661303
510,0.5006,0.00227052,616.316,0.00308989,0.00183175,0.0125243,-0.0239582,-0.151165,0.405855,-0.251427,-1.17656e-05,-1.6437e-05,1.22386e-05,0.347589,-0.14029416450704024,-1.1765530785634581e-05,-1.6436864913260685e-05,0.5005849518643377,1.2238674891973389e-05,-0.22230977307577227
511,0.5016,0.00226529,616.57,0.00308279,0.00184884,0.0125152,-0.0239672,-0.151416,0.406521,-0.251841,-1.17556e-05,-1.64374e-05,1.22094e-05,0.348169,-0.14050992359285086,-1.1755530903156952e-05,-1.6437264906632443e-05,0.501584674312902,1.2209474534952136e-05,-0.22263167019241803
512,0.5026,0.00226007,616.823,0.00307572,0.00186588,0.012506,-0.0239762,-0.151666,0.407187,-0.252255,-1.17456e-05,-1.64379e-05,1.21802e-05,0.348748,-0.1407247692551259,-1.1745531020679323e-05,-1.6437764898458163e-05,0.5025850627983828,1.2180274179041106e-05,-0.2229534340712397
513,0.5036,0.00225486,617.075,0.00306866,0.00188288,0.0124969,-0.0239851,-0.151917,0.407852,-0.252669,-1.17355e-05,-1.64383e-05,1.2151e-05,0.349326,-0.14094042027270803,-1.1735431139303643e-05,-1.6438164891940943e-05,0.5035846141791422,1.215107382379621e-05,-0.22327506476738623
514,0.5046,0.00224968,617.328,0.00306163,0.00189983,0.0124878,-0.0239939,-0.152167,0.408517,-0.253082,-1.17253e-05,-1.64388e-05,1.21217e-05,0.349904,-0.14115515832426495,-1.1725231258918889e-05,-1.643866488365564e-05,0.5045848304826321,1.212177346809895e-05,-0.223595785932158
515,0.5056,0.00224451,617.579,0.00305461,0.00191673,0.0124786,-0.0240027,-0.152417,0.409181,-0.253496,-1.17151e-05,-1.64392e-05,1.20924e-05,0.350482,-0.141369842698019,-1.1715031378534135e-05,-1.643906487713842e-05,0.505584206566214,1.209247311328987e-05,-0.2239171507496749
516,0.5066,0.00223935,617.831,0.00304763,0.00193359,0.0124695,-0.0240114,-0.152666,0.409845,-0.253909,-1.17049e-05,-1.64395e-05,1.20631e-05,0.351059,-0.14158361499143213,-1.1704831497927337e-05,-1.643936487216724e-05,0.5065842464558745,1.2063172759591012e-05,-0.22423760678768845
517,0.5076,0.00223421,618.081,0.00304066,0.00195039,0.0124604,-0.02402,-0.152916,0.410509,-0.254321,-1.16946e-05,-1.64399e-05,1.20337e-05,0.351636,-0.1417981922644076,-1.1694531618422488e-05,-1.6439764865538997e-05,0.5075849505925274,1.2033772405217746e-05,-0.22455715506222718
518,0.5086,0.00222909,618.332,0.00303371,0.00196715,0.0124513,-0.0240286,-0.153165,0.411172,-0.254733,-1.16843e-05,-1.64402e-05,1.20043e-05,0.352213,-0.14201185791205673,-1.1684231738806616e-05,-1.6440064860678838e-05,0.5085848108318138,1.2004372051954704e-05,-0.22487657170999387
519,0.5096,0.00222399,618.582,0.00302679,0.00198386,0.0124422,-0.0240371,-0.153415,0.411835,-0.255145,-1.16739e-05,-1.64406e-05,1.19749e-05,0.352789,-0.14222632813768343,-1.1673831860292694e-05,-1.6440464854050596e-05,0.5095853341982415,1.1974971699357795e-05,-0.22519585678520748
520,0.5106,0.0022189,618.831,0.00301989,0.00200053,0.0124331,-0.0240456,-0.153664,0.412497,-0.255557,-1.16634e-05,-1.64408e-05,1.19455e-05,0.353365,-0.14243988719277134,-1.1663331982769698e-05,-1.6440664850736475e-05,0.5105850105458434,1.1945571347871109e-05,-0.22551501034206467
521,0.5116,0.00221382,619.08,0.00301301,0.00201715,0.0124241,-0.024054,-0.153913,0.413159,-0.255969,-1.1653e-05,-1.64411e-05,1.1916e-05,0.353941,-0.14265339307827452,-1.165293210403373e-05,-1.6440964845876316e-05,0.5115853488982867,1.1916070995710015e-05,-0.22583403243473998
522,0.5126,0.00220877,619.329,0.00300615,0.00203372,0.012415,-0.0240624,-0.154162,0.41382,-0.25638,-1.16424e-05,-1.64414e-05,1.18865e-05,0.354516,-0.14286684580743036,-1.1642332227501662e-05,-1.6441264840905134e-05,0.5125848371083703,1.1886570644659145e-05,-0.22615214926992167
523,0.5136,0.00220372,619.577,0.00299931,0.00205024,0.0124059,-0.0240707,-0.15441,0.414481,-0.256791,-1.16318e-05,-1.64416e-05,1.18569e-05,0.355091,-0.14307938847329027,-1.163173235085857e-05,-1.6441464837591013e-05,0.5135849861985577,1.1856970293377955e-05,-0.22647013538594862
524,0.5146,0.0021987,619.824,0.00299249,0.00206672,0.0123969,-0.0240789,-0.154659,0.415141,-0.257202,-1.16212e-05,-1.64418e-05,1.18273e-05,0.355665,-0.14329273514279772,-1.1621132474104456e-05,-1.6441664834387915e-05,0.5145842820207958,1.18273699427629e-05,-0.22678799083653556
525,0.5156,0.00219369,620.072,0.0029857,0.00208314,0.0123878,-0.0240871,-0.154907,0.415801,-0.257612,-1.16105e-05,-1.6442e-05,1.17977e-05,0.356239,-0.14350517220119818,-1.1610432598452292e-05,-1.6441864831073794e-05,0.5155842375959709,1.1797769593036023e-05,-0.22710494278070403
526,0.5166,0.00218869,620.319,0.00297892,0.00209953,0.0123788,-0.0240952,-0.155155,0.416461,-0.258022,-1.15998e-05,-1.64422e-05,1.17681e-05,0.356813,-0.14371755658174057,-1.1599732722578082e-05,-1.6442064827759673e-05,0.516584853359664,1.1768169244419369e-05,-0.22742176480121157
527,0.5176,0.00218371,620.565,0.00297217,0.00211586,0.0123697,-0.0241033,-0.155403,0.41712,-0.258432,-1.1589e-05,-1.64423e-05,1.17384e-05,0.357386,-0.14392988829748732,-1.1588932847805822e-05,-1.6442164826102612e-05,0.517584612162372,1.1738468895350351e-05,-0.227738456951316
528,0.5186,0.00217875,620.811,0.00296544,0.00213215,0.0123607,-0.0241113,-0.155651,0.417779,-0.258842,-1.15782e-05,-1.64425e-05,1.17087e-05,0.357959,-0.14414216736149765,-1.1578132972922539e-05,-1.644236482278849e-05,0.5185850300232671,1.1708768547169512e-05,-0.2280550192842532
529,0.5196,0.0021738,621.056,0.00295873,0.00214839,0.0123517,-0.0241192,-0.155899,0.418437,-0.259251,-1.15673e-05,-1.64426e-05,1.1679e-05,0.358531,-0.14435439378682746,-1.1567233099030183e-05,-1.6442464821242453e-05,0.5195845877914638,1.1679068199876852e-05,-0.2283706802243034
530,0.5206,0.00216887,621.301,0.00295204,0.00216459,0.0123426,-0.0241271,-0.156146,0.419095,-0.25966,-1.15564e-05,-1.64427e-05,1.16492e-05,0.359103,-0.14456571215266956,-1.1556333225026805e-05,-1.6442564819585392e-05,0.5205848034851055,1.1649267852131828e-05,-0.2286862120854275
531,0.5216,0.00216395,621.546,0.00294537,0.00218074,0.0123336,-0.024135,-0.156394,0.419753,-0.260069,-1.15454e-05,-1.64428e-05,1.16194e-05,0.359675,-0.1447778335519151,-1.1545333352125375e-05,-1.6442664817928332e-05,0.52158567753725,1.1619467505497028e-05,-0.22900161492040805
532,0.5226,0.00215905,621.79,0.00293872,0.00219684,0.0123246,-0.0241427,-0.156641,0.42041,-0.260477,-1.15344e-05,-1.64428e-05,1.15896e-05,0.360246,-0.1449890473410509,-1.1534333479112924e-05,-1.6442664817928332e-05,0.5225856877947905,1.1589667159750405e-05,-0.2293161180985095
533,0.5236,0.00215416,622.034,0.00293209,0.0022129,0.0123156,-0.0241505,-0.156888,0.421066,-0.260886,-1.15233e-05,-1.64429e-05,1.15598e-05,0.360817,-0.1452002089668234,-1.1523233606980376e-05,-1.644276481627127e-05,0.5235848316893505,1.1559866814669917e-05,-0.22963126335460915
534,0.5246,0.00214929,622.277,0.00292548,0.00222891,0.0123066,-0.0241582,-0.157135,0.421722,-0.261293,-1.15122e-05,-1.64429e-05,1.15299e-05,0.361388,-0.14541131844211508,-1.151213373484783e-05,-1.644276481627127e-05,0.5245846312373363,1.1529966469581154e-05,-0.2299447396336738
535,0.5256,0.00214443,622.52,0.0029189,0.00224488,0.0122976,-0.0241658,-0.157381,0.422378,-0.261701,-1.15011e-05,-1.64429e-05,1.15e-05,0.361958,-0.14562152140175422,-1.150103386260426e-05,-1.644276481627127e-05,0.5255850868689977,1.1500066125158526e-05,-0.2302588580953796
536,0.5266,0.00213959,622.763,0.00291233,0.0022608,0.0122887,-0.0241733,-0.157628,0.423033,-0.262109,-1.14899e-05,-1.64429e-05,1.14701e-05,0.362528,-0.14583252682572534,-1.1489833991351617e-05,-1.644276481627127e-05,0.5265846724294307,1.147016578184612e-05,-0.23057284842289416
537,0.5276,0.00213477,623.005,0.00290578,0.00227667,0.0122797,-0.0241808,-0.157874,0.423688,-0.262516,-1.14786e-05,-1.64428e-05,1.14401e-05,0.363098,-0.14604262618084596,-1.14785341210899e-05,-1.6442664817928332e-05,0.5275849129328762,1.1440165438303396e-05,-0.2308859415548118
538,0.5286,0.00212995,623.246,0.00289926,0.0022925,0.0122707,-0.0241883,-0.158121,0.424342,-0.262923,-1.14673e-05,-1.64428e-05,1.14102e-05,0.363667,-0.14625352760478127,-1.1467234250717162e-05,-1.6442664817928332e-05,0.5285842802234177,1.1410265096545302e-05,-0.23119890728375292
539,0.5296,0.00212516,623.487,0.00289275,0.00230828,0.0122618,-0.0241957,-0.158367,0.424996,-0.263329,-1.1456e-05,-1.64427e-05,1.13801e-05,0.364235,-0.14646352340644786,-1.1455934380233401e-05,-1.6442564819585392e-05,0.5295843013139367,1.1380164753660438e-05,-0.23151097717292146
540,0.5306,0.00212037,623.728,0.00288626,0.00232402,0.0122528,-0.0242031,-0.158613,0.42565,-0.263736,-1.14446e-05,-1.64426e-05,1.13501e-05,0.364804,-0.1466734675555008,-1.144453451085159e-05,-1.6442464821242453e-05,0.530584976632158,1.1350164412560204e-05,-0.23182368856412727
541,0.5316,0.00211561,623.969,0.0028798,0.00233971,0.0122439,-0.0242104,-0.158858,0.426303,-0.264142,-1.14332e-05,-1.64425e-05,1.13201e-05,0.365372,-0.14688250694757854,-1.1433134641247733e-05,-1.644236482278849e-05,0.5315847750205458,1.1320164072570194e-05,-0.23213550484358236
542,0.5326,0.00211085,624.209,0.00287335,0.00235535,0.0122349,-0.0242176,-0.159104,0.426956,-0.264548,-1.14217e-05,-1.64424e-05,1.129e-05,0.36594,-0.1470923480393569,-1.1421634772634803e-05,-1.644226482444555e-05,0.5325852264904889,1.1290063732349864e-05,-0.23244719455132368
543,0.5336,0.00210612,624.448,0.00286692,0.00237095,0.012226,-0.0242248,-0.159349,0.427608,-0.264953,-1.14102e-05,-1.64423e-05,1.12599e-05,0.366507,-0.14730128481828675,-1.1410134903910851e-05,-1.6442164826102612e-05,0.5335847978830246,1.1259963393017713e-05,-0.23275799049710322
544,0.5346,0.00210139,624.687,0.00286052,0.00238651,0.0122171,-0.0242319,-0.159595,0.42826,-0.265358,-1.13986e-05,-1.64421e-05,1.12297e-05,0.367074,-0.14751102290337925,-1.1398535036177826e-05,-1.6441964829416733e-05,0.5345850212086152,1.12297630532332e-05,-0.2330686605960104
545,0.5356,0.00209668,624.926,0.00285413,0.00240202,0.0122082,-0.024239,-0.15984,0.428911,-0.265763,-1.1387e-05,-1.64419e-05,1.11996e-05,0.36764,-0.14771985711953184,-1.1386935168333778e-05,-1.6441764832730854e-05,0.5355843613073308,1.1199662715677405e-05,-0.23337920489900288
546,0.5366,0.00209199,625.164,0.00284776,0.00241748,0.0121992,-0.024246,-0.160085,0.429562,-0.266168,-1.13754e-05,-1.64417e-05,1.11694e-05,0.368207,-0.14792864017756857,-1.1375335300378708e-05,-1.6441564836044975e-05,0.5365843521882572,1.1169462377891293e-05,-0.23368962345701771
547,0.5376,0.00208731,625.402,0.00284141,0.0024329,0.0121903,-0.024253,-0.16033,0.430213,-0.266573,-1.13637e-05,-1.64415e-05,1.11392e-05,0.368772,-0.14813737209002165,-1.1363635433414565e-05,-1.6441364839248074e-05,0.5375849942751916,1.1139262041215403e-05,-0.2339999163209714
548,0.5386,0.00208264,625.64,0.00283508,0.00244828,0.0121814,-0.0242599,-0.160574,0.430863,-0.266977,-1.1352e-05,-1.64413e-05,1.11089e-05,0.369338,-0.14834520121504735,-1.13519355663394e-05,-1.6441164842562195e-05,0.5385847494066884,1.110896170408715e-05,-0.23430931785146025
549,0.5396,0.00207799,625.877,0.00282877,0.00246361,0.0121725,-0.0242668,-0.160819,0.431513,-0.267381,-1.13402e-05,-1.6441e-05,1.10787e-05,0.369903,-0.14855383108254727,-1.1340135700144138e-05,-1.6440864847533376e-05,0.5395851545902648,1.1078761368965573e-05,-0.23461859440897703
550,0.5406,0.00207335,626.113,0.00282248,0.00247889,0.0121637,-0.0242736,-0.161063,0.432162,-0.267785,-1.13284e-05,-1.64408e-05,1.10484e-05,0.370468,-0.148761558603975,-1.1328335833948877e-05,-1.6440664850736475e-05,0.540584669663152,1.1048461033835721e-05,-0.23492774604400068
551,0.5416,0.00206873,626.35,0.00281621,0.00249414,0.0121548,-0.0242804,-0.161308,0.432811,-0.268188,-1.13165e-05,-1.64405e-05,1.10181e-05,0.371032,-0.14897008647640952,-1.131643596863352e-05,-1.6440364855707656e-05,0.5415848336318654,1.1018160699594048e-05,-0.23523600804338007
552,0.5426,0.00206412,626.585,0.00280996,0.00250933,0.0121459,-0.0242871,-0.161552,0.43346,-0.268591,-1.13046e-05,-1.64402e-05,1.09877e-05,0.371596,-0.1491777124439112,-1.1304536103207141e-05,-1.6440064860678838e-05,0.5425856469176751,1.0987760364900012e-05,-0.2355441458382026
553,0.5436,0.00205952,626.821,0.00280372,0.00252448,0.0121371,-0.0242938,-0.161796,0.434108,-0.268994,-1.12927e-05,-1.64399e-05,1.09574e-05,0.37216,-0.14938528775685678,-1.129263623766974e-05,-1.6439764865538997e-05,0.5435855663557865,1.0957460032434696e-05,-0.23585215947851257
554,0.5446,0.00205494,627.056,0.00279751,0.00253959,0.0121282,-0.0243004,-0.162039,0.434755,-0.269397,-1.12807e-05,-1.64396e-05,1.0927e-05,0.372723,-0.14959196201999192,-1.1280636373123265e-05,-1.643946487051018e-05,0.5445845893663126,1.0927059699961106e-05,-0.2361600490143343
555,0.5456,0.00205038,627.291,0.00279131,0.00255465,0.0121194,-0.024307,-0.162283,0.435402,-0.269799,-1.12686e-05,-1.64392e-05,1.08966e-05,0.373286,-0.14979943626837144,-1.1268536509567717e-05,-1.643906487713842e-05,0.5455842589538717,1.089665936815365e-05,-0.23646705096310439
556,0.5466,0.00204582,627.525,0.00278514,0.00256967,0.0121105,-0.0243135,-0.162526,0.436049,-0.270201,-1.12566e-05,-1.64388e-05,1.08661e-05,0.373849,-0.15000600990564472,-1.1256536644688175e-05,-1.643866488365564e-05,0.5465845755369343,1.0866159036337919e-05,-0.23677392952189424
557,0.5476,0.00204128,627.759,0.00277898,0.00258465,0.0121017,-0.02432,-0.16277,0.436696,-0.270603,-1.12445e-05,-1.64385e-05,1.08357e-05,0.374411,-0.1502133831386645,-1.124443678079956e-05,-1.6438364888626822e-05,0.5475855395342422,1.083575870630682e-05,-0.23708068474029642
558,0.5486,0.00203676,627.992,0.00277284,0.00259958,0.0120929,-0.0243264,-0.163013,0.437342,-0.271005,-1.12323e-05,-1.64381e-05,1.08052e-05,0.374973,-0.15041985619906895,-1.1232236917901872e-05,-1.643796489514404e-05,0.5485856027784306,1.080525837648949e-05,-0.23738731666788393
559,0.5496,0.00203224,628.225,0.00276672,0.00261447,0.012084,-0.0243328,-0.163256,0.437987,-0.271406,-1.12201e-05,-1.64377e-05,1.07747e-05,0.375534,-0.15062627909261528,-1.1220037054893162e-05,-1.6437564901772284e-05,0.5495847626866535,1.0774758047338295e-05,-0.23769306304765392
560,0.5506,0.00202775,628.458,0.00276061,0.00262931,0.0120752,-0.0243391,-0.163499,0.438632,-0.271807,-1.12079e-05,-1.64372e-05,1.07442e-05,0.376095,-0.15083265183149253,-1.1207837191773429e-05,-1.6437064909946564e-05,0.5505845672608995,1.0744257719075279e-05,-0.23799868684770453
561,0.5516,0.00202326,628.69,0.00275453,0.00264411,0.0120664,-0.0243454,-0.163741,0.439277,-0.272208,-1.11956e-05,-1.64368e-05,1.07137e-05,0.376656,-0.1510381254664367,-1.11955373295336e-05,-1.6436664916574806e-05,0.5515850169171126,1.0713757391922485e-05,-0.23830418811718035
562,0.5526,0.00201879,628.922,0.00274846,0.00265886,0.0120576,-0.0243516,-0.163984,0.439921,-0.272608,-1.11833e-05,-1.64363e-05,1.06831e-05,0.377216,-0.15124439813880364,-1.118323746718275e-05,-1.6436164924749086e-05,0.5525845594861689,1.0683157064539373e-05,-0.23860880551439245
563,0.5536,0.00201433,629.154,0.00274242,0.00267358,0.0120488,-0.0243578,-0.164226,0.440565,-0.273009,-1.11709e-05,-1.64359e-05,1.06525e-05,0.377776,-0.15144977214319721,-1.1170837605711803e-05,-1.6435764931377328e-05,0.5535847459679573,1.0652556738044439e-05,-0.23891406217533018
564,0.5546,0.00200989,629.385,0.00273639,0.00268825,0.01204,-0.0243639,-0.164468,0.441209,-0.273409,-1.11585e-05,-1.64354e-05,1.06219e-05,0.378336,-0.15165509645309505,-1.1158437744129834e-05,-1.6435264939551608e-05,0.5545855767772914,1.0621956412659728e-05,-0.23921843567170253
565,0.5556,0.00200545,629.615,0.00273037,0.00270287,0.0120313,-0.02437,-0.16471,0.441852,-0.273808,-1.11461e-05,-1.64349e-05,1.05913e-05,0.378896,-0.15186037108052164,-1.1146037882436843e-05,-1.643476494772589e-05,0.5555854967429767,1.059135608794115e-05,-0.23952192696533003
566,0.5566,0.00200104,629.846,0.00272438,0.00271745,0.0120225,-0.024376,-0.164952,0.442494,-0.274208,-1.11336e-05,-1.64343e-05,1.05606e-05,0.379454,-0.1520655960374988,-1.1133538021734779e-05,-1.643416495766825e-05,0.5565845032786707,1.0560655763436344e-05,-0.2398260573644091
567,0.5576,0.00199663,630.076,0.00271841,0.00273199,0.0120137,-0.024382,-0.165194,0.443136,-0.274607,-1.11211e-05,-1.64338e-05,1.053e-05,0.380013,-0.15227077133604527,-1.112103816081067e-05,-1.643366496584253e-05,0.5575841513824822,1.0530055440716168e-05,-0.2401293062653418
568,0.5586,0.00199224,630.305,0.00271245,0.00274649,0.012005,-0.0243879,-0.165436,0.443778,-0.275006,-1.11086e-05,-1.64332e-05,1.04993e-05,0.380571,-0.15247589698817698,-1.1108538299775539e-05,-1.6433064975673872e-05,0.5585844414664296,1.0499355117765674e-05,-0.24043243419409854
569,0.5596,0.00198786,630.534,0.00270651,0.00276094,0.0119962,-0.0243938,-0.165677,0.44442,-0.275405,-1.1096e-05,-1.64327e-05,1.04686e-05,0.381129,-0.15268012568645617,-1.1095938439620312e-05,-1.6432564983959175e-05,0.559585373942797,1.0468654795925403e-05,-0.24073544119893775
570,0.5606,0.0019835,630.763,0.00270059,0.00277535,0.0119875,-0.0243997,-0.165918,0.445061,-0.275803,-1.10834e-05,-1.64321e-05,1.04379e-05,0.381687,-0.1528843051715495,-1.1083338579354063e-05,-1.6431964993790515e-05,0.5605853886379635,1.043795447497331e-05,-0.24103756836604617
571,0.5616,0.00197915,630.992,0.00269468,0.00278972,0.0119788,-0.0244055,-0.16616,0.445701,-0.276202,-1.10707e-05,-1.64315e-05,1.04071e-05,0.382244,-0.15308928236645702,-1.107063872007874e-05,-1.6431365003621856e-05,0.5615844829627734,1.0407154154012943e-05,-0.24134033397051335
572,0.5626,0.00197481,631.22,0.0026888,0.00280404,0.01197,-0.0244112,-0.166401,0.446341,-0.2766,-1.1058e-05,-1.64309e-05,1.03763e-05,0.382801,-0.15329336325667176,-1.1057938860581373e-05,-1.6430765013453197e-05,0.5625842169126092,1.0376353833940755e-05,-0.24164222043820094
573,0.5636,0.00197048,631.447,0.00268293,0.00281832,0.0119613,-0.0244169,-0.166641,0.446981,-0.276997,-1.10453e-05,-1.64302e-05,1.03455e-05,0.383357,-0.15349654846628968,-1.1045239000861962e-05,-1.643006502505262e-05,0.5635845908969623,1.034555351497879e-05,-0.2419432287225891
574,0.5646,0.00196617,631.674,0.00267707,0.00283256,0.0119526,-0.0244226,-0.166882,0.447621,-0.277395,-1.10325e-05,-1.64296e-05,1.03147e-05,0.383914,-0.1537005312172005,-1.1032439142244499e-05,-1.642946503488396e-05,0.5645856053255855,1.0314753196682958e-05,-0.24224487528590954
575,0.5656,0.00196187,631.901,0.00267124,0.00284676,0.0119439,-0.0244282,-0.167123,0.44826,-0.277792,-1.10197e-05,-1.64289e-05,1.02839e-05,0.384469,-0.15390446481419162,-1.101963928329397e-05,-1.6428765046372362e-05,0.5655856950220166,1.0283952879497349e-05,-0.24254564436380877
576,0.5666,0.00195758,632.128,0.00266542,0.00286091,0.0119352,-0.0244337,-0.167363,0.448898,-0.278189,-1.10068e-05,-1.64283e-05,1.02531e-05,0.385025,-0.15410750337703416,-1.1006739425445389e-05,-1.6428165056203703e-05,0.5665848573943457,1.0253152563199919e-05,-0.24284629406008285
577,0.5676,0.00195331,632.354,0.00265962,0.00287502,0.0119265,-0.0244393,-0.167603,0.449536,-0.278586,-1.09939e-05,-1.64276e-05,1.02222e-05,0.38558,-0.1543104932164686,-1.0993839567263741e-05,-1.6427465067692104e-05,0.5675846574356629,1.0222252246894215e-05,-0.243146824422117
578,0.5686,0.00194904,632.58,0.00265384,0.00288909,0.0119178,-0.0244447,-0.167843,0.450174,-0.278982,-1.0981e-05,-1.64269e-05,1.01913e-05,0.386135,-0.15451343434418718,-1.0980939709082094e-05,-1.6426765079180505e-05,0.568585095552931,1.0191351931476689e-05,-0.24344647894413451
579,0.5696,0.00194479,632.805,0.00264808,0.00290312,0.0119092,-0.0244502,-0.168083,0.450811,-0.279378,-1.0968e-05,-1.64262e-05,1.01604e-05,0.386689,-0.1547163267718794,-1.0967939851669328e-05,-1.6426065090668907e-05,0.5695846025679852,1.0160451616947341e-05,-0.24374601482645364
580,0.5706,0.00194056,633.03,0.00264233,0.0029171,0.0119005,-0.0244555,-0.168323,0.451448,-0.279774,-1.0955e-05,-1.64254e-05,1.01295e-05,0.387243,-0.15491917051123172,-1.0954939994256563e-05,-1.6425265103814368e-05,0.5705847464718354,1.0129551303528217e-05,-0.24404543211604623
581,0.5716,0.00193633,633.255,0.0026366,0.00293104,0.0118918,-0.0244609,-0.168563,0.452085,-0.28017,-1.0942e-05,-1.64247e-05,1.00985e-05,0.387797,-0.1551219655739281,-1.094194013651073e-05,-1.642456511530277e-05,0.5715855276703092,1.0098550990100819e-05,-0.24434473085986574
582,0.5726,0.00193212,633.479,0.00263088,0.00294495,0.0118832,-0.0244662,-0.168802,0.452721,-0.280565,-1.09289e-05,-1.64239e-05,1.00676e-05,0.38835,-0.15532386729593906,-1.0928840279755825e-05,-1.642376512844823e-05,0.5725853739833322,1.0067650678458051e-05,-0.24464315574838047
583,0.5736,0.00192792,633.703,0.00262518,0.0029588,0.0118745,-0.0244714,-0.169042,0.453356,-0.28096,-1.09158e-05,-1.64232e-05,1.00366e-05,0.388903,-0.1555265652430614,-1.0915740422889897e-05,-1.6423065139936632e-05,0.5735842828158004,1.003665036680701e-05,-0.24494146278234208
584,0.5746,0.00192374,633.927,0.0026195,0.00297262,0.0118659,-0.0244766,-0.169281,0.453992,-0.281355,-1.09027e-05,-1.64224e-05,1.00056e-05,0.389456,-0.15572837027730613,-1.0902640565801924e-05,-1.6422265153082094e-05,0.574585400741426,1.0005650056266191e-05,-0.2452396520082939
585,0.5756,0.00191956,634.15,0.00261384,0.0029864,0.0118573,-0.0244818,-0.16952,0.454627,-0.28175,-1.08895e-05,-1.64216e-05,9.97461e-06,0.390008,-0.15593012708591092,-1.0889440709593856e-05,-1.6421465166227556e-05,0.5755855799942013,9.974659746614378e-06,-0.24553772347276082
586,0.5766,0.0019154,634.373,0.00260819,0.00300013,0.0118486,-0.0244869,-0.169759,0.455261,-0.282144,-1.08763e-05,-1.64208e-05,9.94359e-06,0.39056,-0.15613183568040012,-1.0876240853274766e-05,-1.6420665179373017e-05,0.5765848179768875,9.943639437626217e-06,-0.24583492305754961
587,0.5776,0.00191125,634.595,0.00260256,0.00301382,0.01184,-0.0244919,-0.169997,0.455895,-0.282539,-1.0863e-05,-1.64199e-05,9.91254e-06,0.391111,-0.1563326524053701,-1.086294099783558e-05,-1.641976519417554e-05,0.5775846896773218,9.912589129301708e-06,-0.24613275943638457
588,0.5786,0.00190711,634.818,0.00259695,0.00302748,0.0118314,-0.024497,-0.170236,0.456529,-0.282932,-1.08497e-05,-1.64191e-05,9.88148e-06,0.391663,-0.1565342648078034,-1.0849641142174349e-05,-1.6418965207321e-05,0.578585195497409,9.881528822086594e-06,-0.24642897105253103
589,0.5796,0.00190299,635.039,0.00259135,0.00304109,0.0118228,-0.024502,-0.170474,0.457162,-0.283326,-1.08364e-05,-1.64182e-05,9.8504e-06,0.392214,-0.15673498576603762,-1.0836341286402096e-05,-1.6418065222123523e-05,0.5795847562537622,9.850448515313914e-06,-0.24672581955494122
590,0.5806,0.00189888,635.261,0.00258577,0.00305465,0.0118142,-0.0245069,-0.170713,0.457795,-0.28372,-1.08231e-05,-1.64174e-05,9.81931e-06,0.392764,-0.1569365020222877,-1.082304143051882e-05,-1.6417265235268985e-05,0.5805849499323728,9.81935820965063e-06,-0.24702255112207927
591,0.5816,0.00189478,635.482,0.00258021,0.00306818,0.0118056,-0.0245118,-0.170951,0.458427,-0.284113,-1.08097e-05,-1.64165e-05,9.7882e-06,0.393314,-0.15713712725945617,-1.0809641575404427e-05,-1.6416365249960485e-05,0.5815841953490215,9.788247904651826e-06,-0.247318413118798
592,0.5826,0.00189069,635.703,0.00257466,0.00308167,0.0117971,-0.0245166,-0.171189,0.45906,-0.284506,-1.07963e-05,-1.64156e-05,9.75707e-06,0.393864,-0.15733770475349984,-1.0796241720179012e-05,-1.6415465264763007e-05,0.5825856550732407,9.7571176003175e-06,-0.2476141588645967
593,0.5836,0.00188661,635.923,0.00256913,0.00309511,0.0117885,-0.0245214,-0.171427,0.459691,-0.284898,-1.07828e-05,-1.64147e-05,9.72593e-06,0.394414,-0.1575382345157802,-1.07827418658335e-05,-1.641456527956553e-05,0.5835845817498138,9.72597729709257e-06,-0.24790903631456562
594,0.5846,0.00188255,636.143,0.00256361,0.00310852,0.0117799,-0.0245262,-0.171665,0.460322,-0.285291,-1.07693e-05,-1.64138e-05,9.69477e-06,0.394963,-0.15773871655765614,-1.0769242011265945e-05,-1.641366529436805e-05,0.5845841389480286,9.694816994532118e-06,-0.24820454999105312
595,0.5856,0.00187849,636.363,0.00255811,0.00312188,0.0117714,-0.0245309,-0.171902,0.460953,-0.285683,-1.07558e-05,-1.64128e-05,9.66359e-06,0.395512,-0.15793830882921356,-1.0755742156587367e-05,-1.6412665310716612e-05,0.5855843270658696,9.663636692636146e-06,-0.24849919605305537
596,0.5866,0.00187445,636.582,0.00255263,0.00313521,0.0117628,-0.0245356,-0.17214,0.461584,-0.286075,-1.07422e-05,-1.64119e-05,9.6324e-06,0.39606,-0.15813869566473282,-1.0742142302788693e-05,-1.6411765325519134e-05,0.586585146501573,9.632446391627525e-06,-0.24879372663643673
597,0.5876,0.00187042,636.801,0.00254716,0.00314849,0.0117543,-0.0245403,-0.172377,0.462214,-0.286466,-1.07286e-05,-1.64109e-05,9.6012e-06,0.396608,-0.15833819315247422,-1.0728542448767975e-05,-1.6410765341867695e-05,0.5875850100678219,9.6012460917283e-06,-0.24908739087422205
598,0.5886,0.00186641,637.019,0.00254171,0.00316173,0.0117457,-0.0245449,-0.172614,0.462844,-0.286858,-1.0715e-05,-1.64099e-05,9.56998e-06,0.397156,-0.15853764336491327,-1.0714942594636234e-05,-1.6409765358327277e-05,0.5885855037465819,9.570025792493553e-06,-0.24938169093041973
599,0.5896,0.0018624,637.238,0.00253627,0.00317493,0.0117372,-0.0245494,-0.172851,0.463473,-0.287249,-1.07014e-05,-1.6409e-05,9.53874e-06,0.397704,-0.15873704631325314,-1.0701342740171427e-05,-1.64088653731298e-05,0.5895850383491164,9.538785493923285e-06,-0.24967512531910452
600,0.5906,0.00185841,637.455,0.00253085,0.00318809,0.0117287,-0.0245539,-0.173088,0.464102,-0.28764,-1.06877e-05,-1.6408e-05,9.50749e-06,0.398251,-0.15893640200869386,-1.0687642886697546e-05,-1.640786538947836e-05,0.5905852018566857,9.507535196240369e-06,-0.2499684449973708
601,0.5916,0.00185442,637.673,0.00252545,0.00320122,0.0117202,-0.0245584,-0.173324,0.46473,-0.288031,-1.0674e-05,-1.64069e-05,9.47623e-06,0.398797,-0.15913486959772316,-1.0673943033112643e-05,-1.6406765407595003e-05,0.5915844030797965,9.476274899666848e-06,-0.2502616500100614
602,0.5926,0.00185045,637.89,0.00252006,0.0032143,0.0117117,-0.0245628,-0.173561,0.465358,-0.288421,-1.06602e-05,-1.64059e-05,9.44495e-06,0.399344,-0.1593341310202172,-1.0660143180296622e-05,-1.6405765423943564e-05,0.5925842319983514,9.444994603757806e-06,-0.25055399095636754
603,0.5936,0.00184649,638.107,0.00251469,0.00322734,0.0117032,-0.0245672,-0.173797,0.465986,-0.288811,-1.06464e-05,-1.64049e-05,9.41365e-06,0.39989,-0.1595325047562749,-1.0646343327258556e-05,-1.6404765440403146e-05,0.5935846890066667,9.413694308513243e-06,-0.2508462179119342
604,0.5946,0.00184255,638.324,0.00250933,0.00324034,0.0116947,-0.0245716,-0.174034,0.466613,-0.289201,-1.06326e-05,-1.64038e-05,9.38234e-06,0.400436,-0.15973167195040283,-1.0632543474109468e-05,-1.6403665458408767e-05,0.5945841799143292,9.382384014378076e-06,-0.2511383309212092
605,0.5956,0.00183861,638.54,0.00250399,0.0032533,0.0116862,-0.0245759,-0.17427,0.46724,-0.289591,-1.06188e-05,-1.64028e-05,9.35102e-06,0.400981,-0.15992995187787085,-1.0618743620738336e-05,-1.6402665474757328e-05,0.5955842976992967,9.351063720908215e-06,-0.2514303300286229
606,0.5966,0.00183469,638.756,0.00249866,0.00326622,0.0116777,-0.0245802,-0.174506,0.467867,-0.28998,-1.06049e-05,-1.64017e-05,9.31968e-06,0.401526,-0.16012818501679715,-1.0604843768247108e-05,-1.640156549287397e-05,0.5965850427547437,9.319723428324878e-06,-0.2517214670004295
607,0.5976,0.00183077,638.971,0.00249335,0.0032791,0.0116693,-0.0245844,-0.174742,0.468493,-0.290369,-1.0591e-05,-1.64006e-05,9.28834e-06,0.402071,-0.1603263713782227,-1.0590943915533835e-05,-1.640046551087959e-05,0.5975848178884762,9.288383136851763e-06,-0.25201249074197873
608,0.5986,0.00182687,639.186,0.00248806,0.00329195,0.0116608,-0.0245886,-0.174977,0.469119,-0.290758,-1.0577e-05,-1.63995e-05,9.25697e-06,0.402615,-0.16052367149727687,-1.0576944063700466e-05,-1.6399365528885212e-05,0.598585219077377,9.257012845820256e-06,-0.25230340129730877
609,0.5996,0.00182298,639.401,0.00248278,0.00330475,0.0116524,-0.0245927,-0.175213,0.469744,-0.291147,-1.0563e-05,-1.63984e-05,9.2256e-06,0.403159,-0.1607217645349056,-1.0562944211756076e-05,-1.6398265547001856e-05,0.5995846471280326,9.225642555898972e-06,-0.2525941987104402
610,0.6006,0.0018191,639.615,0.00247751,0.00331751,0.0116439,-0.0245968,-0.175448,0.470369,-0.291535,-1.0549e-05,-1.63973e-05,9.19421e-06,0.403703,-0.16091897174748493,-1.0548944359478618e-05,-1.6397165565007477e-05,0.6005847000164615,9.194252266864211e-06,-0.25288413590988656
611,0.6016,0.00181523,639.83,0.00247226,0.00333024,0.0116355,-0.0246009,-0.175683,0.470994,-0.291924,-1.0535e-05,-1.63962e-05,9.1628e-06,0.404247,-0.16111613262181412,-1.0534944507090138e-05,-1.6396065583013097e-05,0.6015853781333091,9.16284197849393e-06,-0.25317470746118675
612,0.6026,0.00181138,640.043,0.00246703,0.00334292,0.0116271,-0.024605,-0.175918,0.471618,-0.292312,-1.05209e-05,-1.6395e-05,9.13139e-06,0.40479,-0.1613132471687816,-1.052084465547054e-05,-1.639486560267578e-05,0.602585079283585,9.131431691233871e-06,-0.2534644194669281
613,0.6036,0.00180753,640.257,0.00246181,0.00335557,0.0116186,-0.0246089,-0.176153,0.472242,-0.292699,-1.05068e-05,-1.63939e-05,9.09996e-06,0.405332,-0.16151031539927296,-1.050674480373992e-05,-1.6393765620792422e-05,0.6035854044420488,9.100001404860336e-06,-0.2537532728398617
614,0.6046,0.0018037,640.47,0.0024566,0.00336817,0.0116102,-0.0246129,-0.176388,0.472865,-0.293087,-1.04927e-05,-1.63927e-05,9.06852e-06,0.405875,-0.1617073373241712,-1.0492644951787256e-05,-1.6392565640455103e-05,0.6045847494126517,9.068561119152108e-06,-0.25404276040578033
615,0.6056,0.00179987,640.683,0.00245141,0.00338074,0.0116018,-0.0246168,-0.176623,0.473488,-0.293474,-1.04786e-05,-1.63915e-05,9.03706e-06,0.406417,-0.16190431295435703,-1.0478545099612546e-05,-1.6391365660117785e-05,0.6055847171691489,9.037100834330403e-06,-0.2543313900040737
616,0.6066,0.00179606,640.895,0.00244624,0.00339327,0.0115934,-0.0246207,-0.176857,0.474111,-0.293861,-1.04644e-05,-1.63903e-05,9.0056e-06,0.406958,-0.16210040440153162,-1.0464345248317741e-05,-1.6390165679780466e-05,0.6065853080996568,9.00564055061892e-06,-0.25461990792432365
617,0.6076,0.00179226,641.107,0.00244108,0.00340576,0.011585,-0.0246245,-0.177092,0.474733,-0.294248,-1.04502e-05,-1.63891e-05,8.97412e-06,0.4075,-0.16229728767180696,-1.0450145396800892e-05,-1.6388965699443148e-05,0.6075849150068153,8.974160267571918e-06,-0.25490831420974114
618,0.6086,0.00178847,641.319,0.00243594,0.00341821,0.0115766,-0.0246283,-0.177326,0.475355,-0.294634,-1.04359e-05,-1.63879e-05,8.94263e-06,0.408041,-0.16249328717365563,-1.0435845546163947e-05,-1.638776571910583e-05,0.6085851438628762,8.942669985412266e-06,-0.25519586409975714
619,0.6096,0.00178469,641.531,0.00243081,0.00343062,0.0115683,-0.0246321,-0.17756,0.475976,-0.29502,-1.04216e-05,-1.63867e-05,8.91113e-06,0.408581,-0.16268924081698666,-1.0421545695304957e-05,-1.638656573876851e-05,0.6095843854696215,8.911169704139965e-06,-0.25548330301693467
620,0.6106,0.00178092,641.742,0.00242569,0.00344299,0.0115599,-0.0246358,-0.177794,0.476597,-0.295406,-1.04073e-05,-1.63854e-05,8.87961e-06,0.409122,-0.16288514861252945,-1.0407245844223922e-05,-1.6385265760088252e-05,0.6105842477981187,8.879649423754188e-06,-0.255770631004101
621,0.6116,0.00177716,641.953,0.00242059,0.00345533,0.0115515,-0.0246395,-0.178028,0.477218,-0.295792,-1.0393e-05,-1.63842e-05,8.84809e-06,0.409662,-0.1630810105710112,-1.0392945992920843e-05,-1.6384065779750934e-05,0.611584731233956,8.848129144478634e-06,-0.25605784810406695
622,0.6126,0.00177341,642.163,0.0024155,0.00346762,0.0115432,-0.0246431,-0.178262,0.477838,-0.296178,-1.03786e-05,-1.63829e-05,8.81655e-06,0.410202,-0.16327682670315669,-1.0378546142497669e-05,-1.6382765801070676e-05,0.6125842235779306,8.816588865867558e-06,-0.2563449543596267
623,0.6136,0.00176968,642.373,0.00241043,0.00347988,0.0115348,-0.0246467,-0.178495,0.478458,-0.296563,-1.03642e-05,-1.63817e-05,8.785e-06,0.410741,-0.1634717604918665,-1.036414629185245e-05,-1.6381565820733357e-05,0.6135843357993005,8.785038588143834e-06,-0.25663120644513593
624,0.6146,0.00176595,642.583,0.00240537,0.0034921,0.0115265,-0.0246503,-0.178728,0.479078,-0.296948,-1.03498e-05,-1.63804e-05,8.75344e-06,0.41128,-0.16366664886629467,-1.0349746440985186e-05,-1.6380265841942077e-05,0.6145850682825091,8.753478311529506e-06,-0.2569173483448044
625,0.6156,0.00176224,642.793,0.00240033,0.00350429,0.0115182,-0.0246539,-0.178962,0.479697,-0.297333,-1.03354e-05,-1.63791e-05,8.72187e-06,0.411819,-0.16386232797511135,-1.0335346589895877e-05,-1.637896586326182e-05,0.6155848058266242,8.721908035580483e-06,-0.2572033801010455
626,0.6166,0.00175853,643.002,0.0023953,0.00351643,0.0115098,-0.0246574,-0.179195,0.480316,-0.297718,-1.03209e-05,-1.63778e-05,8.69029e-06,0.412357,-0.16405712535791672,-1.0320846739686473e-05,-1.637766588458156e-05,0.6165851623998488,8.690327760740857e-06,-0.2574893017562563
627,0.6176,0.00175484,643.211,0.00239029,0.00352854,0.0115015,-0.0246608,-0.179428,0.480934,-0.298102,-1.03064e-05,-1.63765e-05,8.6587e-06,0.412895,-0.16425187735821922,-1.0306346889255025e-05,-1.6376365905901302e-05,0.6175845208001509,8.658737486566537e-06,-0.25777437112755963
628,0.6186,0.00175115,643.419,0.00238529,0.0035406,0.0114932,-0.0246642,-0.179661,0.481552,-0.298486,-1.02919e-05,-1.63752e-05,8.6271e-06,0.413433,-0.16444658398659162,-1.0291847038601531e-05,-1.6375065927110022e-05,0.6185844969948233,8.627137213501612e-06,-0.2580593310532393
629,0.6196,0.00174748,643.628,0.0023803,0.00355263,0.0114849,-0.0246676,-0.179893,0.48217,-0.29887,-1.02773e-05,-1.63738e-05,8.59548e-06,0.41397,-0.16464040989443207,-1.027724718871692e-05,-1.6373665950086824e-05,0.619585091365781,8.595516941323211e-06,-0.25834418157531436
630,0.6206,0.00174382,643.836,0.00237533,0.00356463,0.0114766,-0.024671,-0.180126,0.482787,-0.299253,-1.02627e-05,-1.63725e-05,8.56386e-06,0.414507,-0.16483502600526934,-1.0262647338721287e-05,-1.6372365971406566e-05,0.6205846837096807,8.563896670032989e-06,-0.25862818136433985
631,0.6216,0.00174017,644.043,0.00237037,0.00357658,0.0114683,-0.0246743,-0.180358,0.483404,-0.299637,-1.02481e-05,-1.63711e-05,8.53223e-06,0.415044,-0.16502876180501436,-1.0248047488392587e-05,-1.6370965994272346e-05,0.6215848929923624,8.532266399630117e-06,-0.2589128134898302
632,0.6226,0.00173652,644.25,0.00236543,0.0035885,0.01146,-0.0246776,-0.18059,0.484021,-0.30002,-1.02335e-05,-1.63698e-05,8.50058e-06,0.41558,-0.1652224526632673,-1.0233447637952864e-05,-1.6369666015592088e-05,0.6225857195945952,8.50061613011377e-06,-0.2591965955345331
633,0.6236,0.00173289,644.457,0.0023605,0.00360038,0.0114518,-0.0246808,-0.180822,0.484637,-0.300403,-1.02188e-05,-1.63684e-05,8.46893e-06,0.416116,-0.16541609859045325,-1.0218747788282023e-05,-1.6368266038457868e-05,0.6235855403110304,8.4689658614856e-06,-0.259480268911524
634,0.6246,0.00172927,644.664,0.00235559,0.00361222,0.0114435,-0.024684,-0.181054,0.485252,-0.300786,-1.02041e-05,-1.6367e-05,8.43727e-06,0.416652,-0.16560969959699512,-1.0204047938389138e-05,-1.636686606143467e-05,0.6245843525215953,8.437305593966826e-06,-0.25976383366241484
635,0.6256,0.00172566,644.87,0.00235069,0.00362403,0.0114353,-0.0246872,-0.181286,0.485868,-0.301168,-1.01894e-05,-1.63656e-05,8.40559e-06,0.417187,-0.16580325569331333,-1.0189348088274208e-05,-1.636546608430045e-05,0.6255854047751881,8.405625327112531e-06,-0.26004654987572107
636,0.6266,0.00172206,645.077,0.0023458,0.0036358,0.011427,-0.0246903,-0.181518,0.486483,-0.30155,-1.01746e-05,-1.63642e-05,8.37391e-06,0.417723,-0.1659967668898258,-1.017454823892816e-05,-1.636406610716623e-05,0.6265854472806751,8.37394506136846e-06,-0.2603291581120588
637,0.6276,0.00171847,645.282,0.00234092,0.00364753,0.0114188,-0.0246934,-0.18175,0.487097,-0.301932,-1.01598e-05,-1.63628e-05,8.34222e-06,0.418257,-0.16619023319694792,-1.0159748389360068e-05,-1.6362666130143033e-05,0.6275844774161712,8.342254796511739e-06,-0.2606116584126673
638,0.6286,0.00171489,645.488,0.00233606,0.00365922,0.0114105,-0.0246965,-0.181981,0.487711,-0.302314,-1.0145e-05,-1.63613e-05,8.31052e-06,0.418792,-0.1663828210083308,-1.0144948539680954e-05,-1.6361166154665874e-05,0.6285841211445242,8.310554532542369e-06,-0.26089405081877015
639,0.6296,0.00171132,645.693,0.00233122,0.00367088,0.0114023,-0.0246995,-0.182212,0.488325,-0.302695,-1.01302e-05,-1.63599e-05,8.27881e-06,0.419326,-0.1665753643370672,-1.0130148689668772e-05,-1.6359766177531654e-05,0.6295843788425959,8.27884426946035e-06,-0.2611755965475411
640,0.6306,0.00170776,645.898,0.00232638,0.0036825,0.0113941,-0.0247025,-0.182443,0.488939,-0.303077,-1.01154e-05,-1.63585e-05,8.24709e-06,0.41986,-0.1667678631934314,-1.0115348839545568e-05,-1.6358366200508456e-05,0.6305852508874792,8.247124007265683e-06,-0.2614577735704171
641,0.6316,0.00170421,646.102,0.00232157,0.00369408,0.0113859,-0.0247055,-0.182674,0.489552,-0.303458,-1.01005e-05,-1.6357e-05,8.21537e-06,0.420393,-0.16696031758769547,-1.0100448990080224e-05,-1.6356866225031297e-05,0.6315851060705773,8.215403746181238e-06,-0.2617391045617298
642,0.6326,0.00170067,646.306,0.00231676,0.00370563,0.0113777,-0.0247084,-0.182905,0.490165,-0.303838,-1.00856e-05,-1.63555e-05,8.18363e-06,0.420926,-0.16715272753012878,-1.0085549140503858e-05,-1.6355366249554137e-05,0.6325855743527984,8.183663485983317e-06,-0.26201959040631073
643,0.6336,0.00169714,646.51,0.00231197,0.00371714,0.0113695,-0.0247113,-0.183136,0.490777,-0.304219,-1.00706e-05,-1.63541e-05,8.15189e-06,0.421459,-0.16734509303099854,-1.0070549291696373e-05,-1.6353966272419918e-05,0.6335850225242479,8.151923226673574e-06,-0.2623007073861806
644,0.6346,0.00169362,646.714,0.00230719,0.00372861,0.0113613,-0.0247141,-0.183366,0.491389,-0.304599,-1.00557e-05,-1.63526e-05,8.12013e-06,0.421991,-0.16753658163756746,-1.0055649441564896e-05,-1.6352466296942758e-05,0.6345850825451853,8.120162968250355e-06,-0.26258097986223083
645,0.6356,0.00169011,646.917,0.00230242,0.00374005,0.0113531,-0.024717,-0.183597,0.492,-0.304979,-1.00407e-05,-1.63511e-05,8.08837e-06,0.422524,-0.16772885847837904,-1.0040649592313322e-05,-1.63509663214656e-05,0.6355841192052398,8.088402710937359e-06,-0.2628611458549732
646,0.6366,0.00168661,647.12,0.00229767,0.00375145,0.0113449,-0.0247198,-0.183827,0.492612,-0.305359,-1.00257e-05,-1.63496e-05,8.05661e-06,0.423055,-0.16792025882904493,-1.0025649742839704e-05,-1.634946634598844e-05,0.6365854030477973,8.056642454512541e-06,-0.26314120540486374
647,0.6376,0.00168312,647.323,0.00229293,0.00376282,0.0113368,-0.0247225,-0.184057,0.493223,-0.305739,-1.00107e-05,-1.63481e-05,8.02483e-06,0.423587,-0.16811161516269235,-1.0010649893144041e-05,-1.634796637051128e-05,0.6375856622771359,8.024862198974247e-06,-0.26342115855234316
648,0.6386,0.00167964,647.525,0.00228821,0.00377415,0.0113286,-0.0247252,-0.184287,0.493833,-0.306118,-9.99561e-06,-1.63465e-05,7.99304e-06,0.424118,-0.16830292748944398,-9.995560044107066e-06,-1.634636639669118e-05,0.6385848942658969,7.993071944323304e-06,-0.26370026903847366
649,0.6396,0.00167617,647.727,0.0022835,0.00378544,0.0113205,-0.0247279,-0.184517,0.494443,-0.306497,-9.98053e-06,-1.6345e-05,7.96125e-06,0.424649,-0.16849419581942027,-9.980480194626828e-06,-1.634486642121402e-05,0.6395847359721163,7.961281690782585e-06,-0.2639792737617733
650,0.6406,0.00167271,647.929,0.0022788,0.0037967,0.0113123,-0.0247306,-0.184747,0.495053,-0.306876,-9.96542e-06,-1.63435e-05,7.92945e-06,0.42518,-0.16868542016273935,-9.965370345366154e-06,-1.6343366445736862e-05,0.6405851877678346,7.929481438129216e-06,-0.26425817276231856
651,0.6416,0.00166925,648.13,0.00227411,0.00380792,0.0113042,-0.0247332,-0.184977,0.495662,-0.307255,-9.95029e-06,-1.63419e-05,7.89764e-06,0.42571,-0.16887660052951703,-9.950240495992801e-06,-1.6341766471916763e-05,0.6415846084398908,7.897671186363198e-06,-0.26453696608017074
652,0.6426,0.00166581,648.331,0.00226944,0.00381911,0.0112961,-0.0247358,-0.185206,0.496271,-0.307633,-9.93514e-06,-1.63403e-05,7.86583e-06,0.42624,-0.169066905997188,-9.935090646617795e-06,-1.6340166497985642e-05,0.6425846379445073,7.865860935707403e-06,-0.2648149185706622
653,0.6436,0.00166238,648.532,0.00226478,0.00383026,0.011288,-0.0247383,-0.185435,0.49688,-0.308012,-9.91996e-06,-1.63388e-05,7.83401e-06,0.426769,-0.16925716788989642,-9.919910797351328e-06,-1.6338666522508483e-05,0.6435852766525756,7.834040685938959e-06,-0.2650935009218337
654,0.6446,0.00165896,648.733,0.00226013,0.00384137,0.0112798,-0.0247409,-0.185665,0.497488,-0.30839,-9.90475e-06,-1.63372e-05,7.80218e-06,0.427298,-0.16944821676981836,-9.904700948082379e-06,-1.6337066548688384e-05,0.6445848803495111,7.802210437057866e-06,-0.26537124308190996
655,0.6456,0.00165554,648.933,0.0022555,0.00385245,0.0112717,-0.0247434,-0.185894,0.498096,-0.308767,-9.88953e-06,-1.63356e-05,7.77034e-06,0.427827,-0.16963839135235736,-9.889481098812603e-06,-1.6335466574868285e-05,0.6455850919902906,7.770370189064124e-06,-0.2656481459238027
656,0.6466,0.00165214,649.133,0.00225088,0.00386349,0.0112636,-0.0247458,-0.186123,0.498703,-0.309145,-9.87428e-06,-1.6334e-05,7.7385e-06,0.428356,-0.16982852238990298,-9.874231249429322e-06,-1.6333866600937164e-05,0.6465842653595675,7.738529942180605e-06,-0.2659256784676881
657,0.6476,0.00164875,649.333,0.00224627,0.0038745,0.0112556,-0.0247482,-0.186351,0.499311,-0.309522,-9.85901e-06,-1.63324e-05,7.70665e-06,0.428884,-0.17001777991062084,-9.858961400155408e-06,-1.6332266627117065e-05,0.6475856929960584,7.706679696406482e-06,-0.2662023723268362
658,0.6486,0.00164536,649.532,0.00224168,0.00388547,0.0112475,-0.0247506,-0.18658,0.499917,-0.309899,-9.84371e-06,-1.63308e-05,7.67479e-06,0.429412,-0.17020782407813362,-9.843661550879013e-06,-1.6330666653185943e-05,0.6485844325135233,7.674819451297665e-06,-0.2664789618920599
659,0.6496,0.00164199,649.731,0.00223709,0.00389641,0.0112394,-0.024753,-0.186809,0.500524,-0.310276,-9.82839e-06,-1.63291e-05,7.64293e-06,0.42994,-0.17039782473051468,-9.82834170148994e-06,-1.6328966681022905e-05,0.6495854270351618,7.642959207299072e-06,-0.26675544720267086
660,0.6506,0.00163862,649.93,0.00223252,0.00390731,0.0112313,-0.0247553,-0.187037,0.50113,-0.310653,-9.81305e-06,-1.63275e-05,7.61106e-06,0.430467,-0.17058695246509514,-9.813001852210235e-06,-1.6327366707091784e-05,0.6505853787587157,7.611088964187829e-06,-0.26703182829796557
661,0.6516,0.00163526,650.128,0.00222797,0.00391818,0.0112233,-0.0247576,-0.187265,0.501735,-0.311029,-9.79768e-06,-1.63259e-05,7.57918e-06,0.430994,-0.17077603708346745,-9.797632002928047e-06,-1.6325766733271685e-05,0.6515842850515496,7.579208721963937e-06,-0.2673073725249645
662,0.6526,0.00163192,650.327,0.00222342,0.00392901,0.0112152,-0.0247599,-0.187493,0.502341,-0.311405,-9.78229e-06,-1.63242e-05,7.5473e-06,0.431521,-0.17096507859546117,-9.782242153533183e-06,-1.6324066760997624e-05,0.6525854484501621,7.547328480850268e-06,-0.26758281316680943
663,0.6536,0.00162858,650.524,0.00221889,0.00393981,0.0112072,-0.0247621,-0.187721,0.502946,-0.311781,-9.76688e-06,-1.63226e-05,7.51541e-06,0.432047,-0.17115407701090324,-9.766832304136663e-06,-1.6322466787066503e-05,0.6535855651512708,7.515438240845995e-06,-0.26785815026244086
664,0.6546,0.00162525,650.722,0.00221437,0.00395057,0.0111991,-0.0247643,-0.187949,0.50355,-0.312157,-9.75145e-06,-1.63209e-05,7.48352e-06,0.432574,-0.17134303233961878,-9.75140245473849e-06,-1.6320766814792442e-05,0.6545846325205948,7.483548001507856e-06,-0.268133383850785
665,0.6556,0.00162193,650.919,0.00220986,0.0039613,0.0111911,-0.0247665,-0.188177,0.504154,-0.312532,-9.73599e-06,-1.63192e-05,7.45162e-06,0.433099,-0.17153194459143029,-9.735942605448855e-06,-1.6319066842629404e-05,0.6555843035088844,7.451647763279112e-06,-0.2684077823789013
666,0.6566,0.00161862,651.117,0.00220537,0.00397199,0.0111831,-0.0247686,-0.188404,0.504758,-0.312907,-9.72052e-06,-1.63175e-05,7.41971e-06,0.433625,-0.17171998549655776,-9.720472755936349e-06,-1.6317366870355343e-05,0.6565845784808355,7.419737526159764e-06,-0.26868207802686084
667,0.6576,0.00161532,651.313,0.00220089,0.00398265,0.0111751,-0.0247707,-0.188632,0.505362,-0.313282,-9.70502e-06,-1.63158e-05,7.3878e-06,0.43415,-0.17190881181284656,-9.70497290642136e-06,-1.6315666898081282e-05,0.6575854578013647,7.387827289928595e-06,-0.26895627083323637
668,0.6586,0.00161203,651.51,0.00219642,0.00399328,0.0111671,-0.0247728,-0.188859,0.505965,-0.313657,-9.68949e-06,-1.63141e-05,7.35589e-06,0.434675,-0.17209676717882383,-9.689443057014913e-06,-1.6313966925807222e-05,0.6585852832494961,7.355917054585603e-06,-0.26923036083658625
669,0.6596,0.00160875,651.706,0.00219196,0.00400387,0.0111591,-0.0247749,-0.189086,0.506568,-0.314032,-9.67395e-06,-1.63124e-05,7.32397e-06,0.435199,-0.17228467988377538,-9.673903207496615e-06,-1.631226695353316e-05,0.6595857117741821,7.323996820352008e-06,-0.2695043480754544
670,0.6606,0.00160547,651.902,0.00218751,0.00401442,0.0111511,-0.0247769,-0.189313,0.50717,-0.314406,-9.65839e-06,-1.63107e-05,7.29204e-06,0.435723,-0.17247254993738392,-9.65834335786564e-06,-1.63105669812591e-05,0.6605850831532738,7.292066587005763e-06,-0.2697775023662379
671,0.6616,0.00160221,652.097,0.00218308,0.00402494,0.0111431,-0.0247789,-0.18954,0.507772,-0.31478,-9.6428e-06,-1.6309e-05,7.26011e-06,0.436247,-0.17266037734933037,-9.642753508343205e-06,-1.630886700898504e-05,0.6615850563350603,7.260136354769742e-06,-0.270050554516418
672,0.6626,0.00159895,652.293,0.00217866,0.00403543,0.0111351,-0.0247808,-0.189767,0.508374,-0.315154,-9.62719e-06,-1.63072e-05,7.22817e-06,0.436771,-0.1728481621292931,-9.627143658708093e-06,-1.630706703836804e-05,0.6625856316819356,7.228196123199027e-06,-0.2703235045641884
673,0.6636,0.0015957,652.488,0.00217425,0.00404589,0.0111272,-0.0247827,-0.189994,0.508975,-0.315528,-9.61156e-06,-1.63055e-05,7.19623e-06,0.437294,-0.1730359042869487,-9.611513809071326e-06,-1.630536706609398e-05,0.6635851459705346,7.196255892960579e-06,-0.27059635254772807
674,0.6646,0.00159247,652.683,0.00216985,0.00405631,0.0111192,-0.0247846,-0.19022,0.509576,-0.315901,-9.59591e-06,-1.63037e-05,7.16428e-06,0.437817,-0.17322277705516165,-9.595863959432904e-06,-1.6303567095365956e-05,0.6645852611477703,7.164305663609483e-06,-0.2708683693739359
675,0.6656,0.00158924,652.877,0.00216547,0.00406669,0.0111113,-0.0247865,-0.190446,0.510176,-0.316274,-9.58024e-06,-1.6302e-05,7.13233e-06,0.43834,-0.17340960759490098,-9.580194109681806e-06,-1.6301867123091895e-05,0.66558431198974,7.1323554351465646e-06,-0.27114028475678786
676,0.6666,0.00158602,653.071,0.0021611,0.00407704,0.0111033,-0.0247883,-0.190673,0.510777,-0.316647,-9.56455e-06,-1.63002e-05,7.10037e-06,0.438862,-0.17359722231890018,-9.56450425981803e-06,-1.6300067152474895e-05,0.6665856290268759,7.100395207793042e-06,-0.2714120987341154
677,0.6676,0.00158281,653.265,0.00215674,0.00408736,0.0110954,-0.0247902,-0.190899,0.511376,-0.31702,-9.54883e-06,-1.62984e-05,7.06841e-06,0.439384,-0.17378396824357178,-9.548784410062794e-06,-1.6298267181746873e-05,0.6675842128646647,7.068434981327698e-06,-0.27168381134373565
678,0.6686,0.0015796,653.459,0.00215239,0.00409765,0.0110874,-0.0247919,-0.191125,0.511976,-0.317392,-9.5331e-06,-1.62966e-05,7.03645e-06,0.439906,-0.17397067196843308,-9.533054560195708e-06,-1.6296467211129873e-05,0.6685850636175836,7.036474755972577e-06,-0.2719546945785103
679,0.6696,0.00157641,653.652,0.00214805,0.0041079,0.0110795,-0.0247937,-0.191351,0.512575,-0.317765,-9.51735e-06,-1.62949e-05,7.00448e-06,0.440427,-0.17415733350302032,-9.517304710215946e-06,-1.6294767238855812e-05,0.6695848454754636,7.004504531504807e-06,-0.2722262048376213
680,0.6706,0.00157322,653.845,0.00214373,0.00411812,0.0110716,-0.0247954,-0.191576,0.513174,-0.318137,-9.50157e-06,-1.62931e-05,6.97251e-06,0.440948,-0.17434312720040734,-9.501524860233701e-06,-1.629296726812779e-05,0.6705852263820733,6.9725343079252156e-06,-0.27249688633954083
681,0.6716,0.00157005,654.038,0.00213941,0.0041283,0.0110637,-0.0247971,-0.191802,0.513772,-0.318509,-9.48578e-06,-1.62912e-05,6.94053e-06,0.441469,-0.17452970456962325,-9.485735010139607e-06,-1.629106729916785e-05,0.6715845351109802,6.94055408545502e-06,-0.2727674671666682
682,0.6726,0.00156688,654.231,0.00213511,0.00413846,0.0110558,-0.0247987,-0.192027,0.51437,-0.31888,-9.46996e-06,-1.62894e-05,6.90855e-06,0.441989,-0.17471541449294525,-9.46991516004303e-06,-1.6289267328439827e-05,0.6725844416052207,6.908573864095047e-06,-0.27303722039403167
683,0.6736,0.00156372,654.423,0.00213082,0.00414857,0.0110479,-0.0248004,-0.192252,0.514968,-0.319252,-9.45413e-06,-1.62876e-05,6.87657e-06,0.442509,-0.17490108263623494,-9.454085309834603e-06,-1.6287467357711805e-05,0.6735849462223658,6.876593643623252e-06,-0.27330760025427303
684,0.6746,0.00156057,654.615,0.00212654,0.00415866,0.01104,-0.024802,-0.192478,0.515565,-0.319623,-9.43827e-06,-1.62858e-05,6.84458e-06,0.443029,-0.17508753392177023,-9.438225459623695e-06,-1.6285667387094804e-05,0.6745843747349878,6.844603424260853e-06,-0.27357715312942865
685,0.6756,0.00155743,654.807,0.00212228,0.00416871,0.0110321,-0.0248036,-0.192703,0.516162,-0.319994,-9.4224e-06,-1.62839e-05,6.81259e-06,0.443549,-0.17527311834760706,-9.422355609300936e-06,-1.6283767418023842e-05,0.6755844000845699,6.812613205786633e-06,-0.2738466060190159
686,0.6766,0.0015543,654.998,0.00211802,0.00417873,0.0110243,-0.0248051,-0.192928,0.516759,-0.320364,-9.4065e-06,-1.62821e-05,6.78059e-06,0.444068,-0.1754586610216452,-9.406455758975696e-06,-1.628196744729582e-05,0.6765850226275301,6.7806129881997634e-06,-0.27411523307571883
687,0.6776,0.00155117,655.19,0.00211378,0.00418872,0.0110164,-0.0248066,-0.193152,0.517355,-0.320735,-9.39059e-06,-1.62802e-05,6.74859e-06,0.444587,-0.17564333759702777,-9.390545908538606e-06,-1.6280067478224858e-05,0.6775845651350956,6.748612771723117e-06,-0.2743844863746724
688,0.6786,0.00154806,655.38,0.00210955,0.00419867,0.0110086,-0.0248081,-0.193377,0.517951,-0.321105,-9.37466e-06,-1.62784e-05,6.71659e-06,0.445105,-0.17582879698110532,-9.374616057988838e-06,-1.6278267507607858e-05,0.6785847035475578,6.716612556356694e-06,-0.2746529144524571
689,0.6796,0.00154495,655.571,0.00210533,0.00420859,0.0110007,-0.0248096,-0.193601,0.518547,-0.321475,-9.35871e-06,-1.62765e-05,6.68458e-06,0.445624,-0.17601339065531818,-9.358666207437416e-06,-1.6276367538536896e-05,0.6795854382201814,6.684602341877621e-06,-0.2749212432302246
690,0.6806,0.00154185,655.761,0.00210112,0.00421848,0.0109929,-0.024811,-0.193826,0.519142,-0.321845,-9.34274e-06,-1.62746e-05,6.65258e-06,0.446142,-0.1761987667868239,-9.342696356773317e-06,-1.6274467569465934e-05,0.6805850889225145,6.652602128509599e-06,-0.2751894727447092
691,0.6816,0.00153876,655.952,0.00209692,0.00422834,0.010985,-0.0248124,-0.19405,0.519737,-0.322215,-9.32675e-06,-1.62727e-05,6.62057e-06,0.446659,-0.1763832775970814,-9.32670650599654e-06,-1.627256760028395e-05,0.6815853345940013,6.620591916028928e-06,-0.27545760303263145
692,0.6826,0.00153568,656.141,0.00209273,0.00423816,0.0109772,-0.0248138,-0.194274,0.520331,-0.322584,-9.31074e-06,-1.62709e-05,6.58855e-06,0.447177,-0.176567747081546,-9.31069665521811e-06,-1.627076762966695e-05,0.6825844930034195,6.5885717044356085e-06,-0.2757249098559704
693,0.6836,0.0015326,656.331,0.00208856,0.00424796,0.0109694,-0.0248151,-0.194498,0.520925,-0.322953,-9.29471e-06,-1.6269e-05,6.55653e-06,0.447694,-0.17675217524947384,-9.294666804327001e-06,-1.6268867660484965e-05,0.6835842450892373,6.556551494174556e-06,-0.27599211806128776
694,0.6846,0.00152954,656.52,0.0020844,0.00425772,0.0109616,-0.0248165,-0.194722,0.521519,-0.323322,-9.27867e-06,-1.62671e-05,6.52451e-06,0.448211,-0.17693656211011854,-9.278626953324043e-06,-1.6266967691414003e-05,0.6845845912042032,6.524531284579638e-06,-0.2762592276849667
695,0.6856,0.00152648,656.709,0.00208024,0.00426744,0.0109538,-0.0248177,-0.194946,0.522113,-0.323691,-9.2626e-06,-1.62651e-05,6.49249e-06,0.448727,-0.17712090767273203,-9.26255710220758e-06,-1.62649677240001e-05,0.6855855317012758,6.492511076316987e-06,-0.27652623876337734
696,0.6866,0.00152343,656.898,0.0020761,0.00427714,0.010946,-0.024819,-0.195169,0.522706,-0.324059,-9.24652e-06,-1.62632e-05,6.46047e-06,0.449243,-0.1773043892513647,-9.24647725109029e-06,-1.626306775492914e-05,0.6865853803473985,6.4604908689425145e-06,-0.27679242812566573
697,0.6876,0.00152039,657.087,0.00207197,0.0042868,0.0109382,-0.0248203,-0.195393,0.523298,-0.324428,-9.23042e-06,-1.62613e-05,6.42844e-06,0.449759,-0.17748865242992595,-9.230377399749301e-06,-1.6261167785747155e-05,0.6875841344946227,6.428460662455393e-06,-0.2770592424894097
698,0.6886,0.00151735,657.275,0.00206785,0.00429643,0.0109304,-0.0248215,-0.195616,0.523891,-0.324796,-9.2143e-06,-1.62594e-05,6.39641e-06,0.450275,-0.17767205201062075,-9.21425754851768e-06,-1.6259267816676193e-05,0.6885851686636748,6.396430457078495e-06,-0.2773252357424132
699,0.6896,0.00151433,657.463,0.00206375,0.00430603,0.0109227,-0.0248227,-0.195839,0.524483,-0.325164,-9.19816e-06,-1.62574e-05,6.36438e-06,0.45079,-0.1778554106977689,-9.198117697062358e-06,-1.625726784915127e-05,0.6895851070360783,6.364400252811819e-06,-0.27759113112790845
700,0.6906,0.00151131,657.651,0.00205965,0.0043156,0.0109149,-0.0248238,-0.196062,0.525075,-0.325531,-9.18201e-06,-1.62555e-05,6.33235e-06,0.451305,-0.17803872850048863,-9.181967845495187e-06,-1.6255367880080307e-05,0.6905856375472541,6.332370049433322e-06,-0.27785620653847143
701,0.6916,0.0015083,657.838,0.00205556,0.00432514,0.0109072,-0.024825,-0.196285,0.525666,-0.325899,-9.16584e-06,-1.62535e-05,6.30031e-06,0.451819,-0.17822200542789612,-9.165797993815339e-06,-1.6253367912555383e-05,0.6915850689619374,6.3003298469421765e-06,-0.2781219065626622
702,0.6926,0.0015053,658.025,0.00205149,0.00433464,0.0108994,-0.0248261,-0.196508,0.526257,-0.326266,-9.14965e-06,-1.62516e-05,6.26827e-06,0.452334,-0.17840524148910553,-9.149608142133836e-06,-1.625146794348442e-05,0.6925850912151623,6.2682896455612536e-06,-0.27838678721438115
703,0.6936,0.00150231,658.212,0.00204742,0.00434412,0.0108917,-0.0248271,-0.196731,0.526848,-0.326633,-9.13344e-06,-1.62496e-05,6.23624e-06,0.452848,-0.178588436693229,-9.133398290228634e-06,-1.6249467975959497e-05,0.6935857046562177,6.236259445291381e-06,-0.27865157067273694
704,0.6946,0.00149933,658.399,0.00204337,0.00435356,0.0108839,-0.0248282,-0.196953,0.527438,-0.327,-9.11722e-06,-1.62476e-05,6.20419e-06,0.453362,-0.17877076982055706,-9.117178438322604e-06,-1.6247468008434574e-05,0.6945852150485365,6.204209246130077e-06,-0.27891625697339295
705,0.6956,0.00149635,658.585,0.00203933,0.00436297,0.0108762,-0.0248292,-0.197176,0.528028,-0.327366,-9.10098e-06,-1.62456e-05,6.17215e-06,0.453875,-0.17895388352095065,-9.100938586192875e-06,-1.624546804090965e-05,0.6955853153259859,6.172169047857778e-06,-0.2791801253324855
706,0.6966,0.00149338,658.771,0.0020353,0.00437235,0.0108685,-0.0248302,-0.197398,0.528617,-0.327732,-9.08472e-06,-1.62437e-05,6.14011e-06,0.454388,-0.17913613552808771,-9.084678734061491e-06,-1.6243568071838688e-05,0.6965843092515429,6.140128850473658e-06,-0.27944389713342976
707,0.6976,0.00149042,658.957,0.00203128,0.0043817,0.0108608,-0.0248312,-0.19762,0.529207,-0.328099,-9.06844e-06,-1.62417e-05,6.10806e-06,0.454901,-0.1793183470797699,-9.06839888181743e-06,-1.6241568104313764e-05,0.6975855893425826,6.108078654198934e-06,-0.27970829270362696
708,0.6986,0.00148747,659.143,0.00202727,0.00439101,0.0108531,-0.0248322,-0.197842,0.529796,-0.328464,-9.05215e-06,-1.62397e-05,6.07602e-06,0.455413,-0.17950051818497736,-9.05210902946152e-06,-1.623956813678884e-05,0.6985857617765723,6.07603845903526e-06,-0.27997115120219584
709,0.6996,0.00148453,659.328,0.00202327,0.0044003,0.0108454,-0.0248331,-0.198064,0.530384,-0.32883,-9.03584e-06,-1.62377e-05,6.04397e-06,0.455926,-0.17968264885268814,-9.035799176881909e-06,-1.6237568169263916e-05,0.699584823899976,6.043988264758937e-06,-0.2802346335406467
710,0.7006,0.00148159,659.513,0.00201928,0.00440956,0.0108377,-0.024834,-0.198286,0.530972,-0.329196,-9.01951e-06,-1.62356e-05,6.01192e-06,0.456438,-0.1798647390918785,-9.019469324300644e-06,-1.6235468203396053e-05,0.7005844736446523,6.011938071592837e-06,-0.280498019462207
711,0.7016,0.00147866,659.698,0.0020153,0.00441878,0.01083,-0.0248349,-0.198508,0.53156,-0.329561,-9.00317e-06,-1.62336e-05,5.97987e-06,0.456949,-0.18004678891152248,-9.00312947160753e-06,-1.623346823587113e-05,0.7015847113562237,5.97988787953696e-06,-0.28076058976310836
712,0.7026,0.00147574,659.883,0.00201133,0.00442798,0.0108223,-0.0248357,-0.198729,0.532148,-0.329926,-8.98681e-06,-1.62316e-05,5.94782e-06,0.457461,-0.18022797854898054,-8.986769618690715e-06,-1.6231468268346205e-05,0.7025855373805165,5.947837688369262e-06,-0.2810230642433381
713,0.7036,0.00147283,660.067,0.00200738,0.00443714,0.0108147,-0.0248365,-0.19895,0.532735,-0.330291,-8.97044e-06,-1.62296e-05,5.91577e-06,0.457972,-0.1804091281479533,-8.970399765773074e-06,-1.622946830071026e-05,0.7035852484774601,5.915787498311786e-06,-0.2812854429378646
714,0.7046,0.00146992,660.251,0.00200343,0.00444627,0.010807,-0.0248373,-0.199172,0.533322,-0.330655,-8.95405e-06,-1.62275e-05,5.88371e-06,0.458482,-0.1805910571266406,-8.954009912631733e-06,-1.6227368334842396e-05,0.7045855465770858,5.883727309141662e-06,-0.28154700742900984
715,0.7056,0.00146703,660.435,0.0019995,0.00445537,0.0107994,-0.0248381,-0.199393,0.533908,-0.33102,-8.93764e-06,-1.62255e-05,5.85166e-06,0.458993,-0.18077212649411356,-8.937600059377715e-06,-1.6225368367317472e-05,0.7055847264384867,5.851677121082588e-06,-0.28180919491917045
716,0.7066,0.00146414,660.619,0.00199557,0.00446444,0.0107917,-0.0248389,-0.199614,0.534494,-0.331384,-8.92122e-06,-1.62234e-05,5.81961e-06,0.459503,-0.18095315584967775,-8.921180206011847e-06,-1.6223268401338586e-05,0.7065844919908768,5.819626933911692e-06,-0.2820705687992878
717,0.7076,0.00146125,660.802,0.00199166,0.00447349,0.0107841,-0.0248396,-0.199835,0.53508,-0.331748,-8.90478e-06,-1.62214e-05,5.78755e-06,0.460013,-0.18113414520217486,-8.904740352533302e-06,-1.6221268433813663e-05,0.707584843577572,5.7875667478501924e-06,-0.2823318475566261
718,0.7086,0.00145838,660.985,0.00198775,0.0044825,0.0107765,-0.0248403,-0.200056,0.535666,-0.332111,-8.88832e-06,-1.62193e-05,5.7555e-06,0.460522,-0.1813150945604447,-8.888280499053103e-06,-1.6219168467834777e-05,0.7085857815420888,5.755516562899743e-06,-0.2825923138184764
719,0.7096,0.00145551,661.168,0.00198386,0.00449148,0.0107688,-0.024841,-0.200276,0.536251,-0.332475,-8.87185e-06,-1.62172e-05,5.72344e-06,0.461031,-0.18149518542891951,-8.871810645239009e-06,-1.6217068501966914e-05,0.7095855966416942,5.723456378836644e-06,-0.2828534026951882
720,0.7106,0.00145265,661.351,0.00197997,0.00450043,0.0107612,-0.0248416,-0.200497,0.536835,-0.332838,-8.85536e-06,-1.62152e-05,5.69138e-06,0.46154,-0.18167605500611528,-8.85532079142326e-06,-1.6215068534330968e-05,0.7105842862191054,5.691396195883769e-06,-0.2831136796668814
721,0.7116,0.0014498,661.533,0.0019761,0.00450935,0.0107536,-0.0248422,-0.200717,0.53742,-0.333201,-8.83886e-06,-1.62131e-05,5.65933e-06,0.462049,-0.18185606647202657,-8.83882093738464e-06,-1.6212968568352082e-05,0.7115852707859827,5.659346014041944e-06,-0.2833738621751801
722,0.7126,0.00144696,661.715,0.00197224,0.00451824,0.010746,-0.0248428,-0.200937,0.538004,-0.333564,-8.82235e-06,-1.6211e-05,5.62727e-06,0.462557,-0.18203603833977144,-8.822311083234169e-06,-1.621086860248422e-05,0.7125851285141609,5.62728583308747e-06,-0.2836339502543682
723,0.7136,0.00144412,661.897,0.00196838,0.0045271,0.0107384,-0.0248434,-0.201157,0.538588,-0.333927,-8.80581e-06,-1.62089e-05,5.59522e-06,0.463066,-0.18221597061806027,-8.805771228970194e-06,-1.6208768636505333e-05,0.7135855703297893,5.595235653244046e-06,-0.28389394393871714
724,0.7146,0.00144129,662.079,0.00196454,0.00453593,0.0107308,-0.024844,-0.201377,0.539171,-0.334289,-8.78927e-06,-1.62068e-05,5.56316e-06,0.463573,-0.1823958633156021,-8.789231374484174e-06,-1.6206668670526447e-05,0.7145848819883356,5.563175474510018e-06,-0.28415312741597165
725,0.7156,0.00143847,662.26,0.00196071,0.00454474,0.0107233,-0.0248445,-0.201597,0.539754,-0.334652,-8.7727e-06,-1.62047e-05,5.53111e-06,0.464081,-0.18257571644110338,-8.772661519995673e-06,-1.6204568704547562e-05,0.715584776415439,5.531125296664996e-06,-0.28441293267321255
726,0.7166,0.00143566,662.441,0.00195688,0.00455351,0.0107157,-0.024845,-0.201817,0.540337,-0.335014,-8.75613e-06,-1.62026e-05,5.49905e-06,0.464588,-0.18275553000326927,-8.756091665174104e-06,-1.6202468738568676e-05,0.7165852539509534,5.499065119707325e-06,-0.2846719283105462
727,0.7176,0.00143285,662.622,0.00195307,0.00456225,0.0107081,-0.0248455,-0.202037,0.540919,-0.335375,-8.73953e-06,-1.62005e-05,5.46699e-06,0.465095,-0.1829353040108026,-8.739491810461075e-06,-1.620036877258979e-05,0.7175845973494734,5.467004944081921e-06,-0.28493011513889965
728,0.7186,0.00143005,662.803,0.00194927,0.00457096,0.0107006,-0.024846,-0.202256,0.541501,-0.335737,-8.72293e-06,-1.61983e-05,5.43494e-06,0.465601,-0.1831142215870346,-8.722891955303957e-06,-1.6198168808267965e-05,0.7185845225351348,5.4349547693455236e-06,-0.2851889235900634
729,0.7196,0.00142726,662.983,0.00194548,0.00457965,0.010693,-0.0248464,-0.202475,0.542083,-0.336098,-8.70631e-06,-1.61962e-05,5.40289e-06,0.466108,-0.18329309998460752,-8.706272100145185e-06,-1.619606884228908e-05,0.7195850298466366,5.402904595719349e-06,-0.2854469238168046
730,0.7206,0.00142447,663.163,0.00194169,0.0045883,0.0106855,-0.0248468,-0.202695,0.542664,-0.33646,-8.68967e-06,-1.61941e-05,5.37083e-06,0.466614,-0.1834727557397533,-8.689632244873735e-06,-1.6193968876310194e-05,0.7205843990376153,5.370844422980525e-06,-0.28570554521708524
731,0.7216,0.0014217,663.343,0.00193792,0.00459693,0.010678,-0.0248472,-0.202914,0.543245,-0.336821,-8.67302e-06,-1.61919e-05,5.33878e-06,0.467119,-0.18365155562694402,-8.672982389490436e-06,-1.6191768911877347e-05,0.7215843490308003,5.338794251352752e-06,-0.28596335897707825
732,0.7226,0.00141893,663.523,0.00193416,0.00460552,0.0106704,-0.0248476,-0.203133,0.543826,-0.337181,-8.65636e-06,-1.61898e-05,5.30673e-06,0.467625,-0.1838303163612468,-8.656322533773242e-06,-1.618966894589846e-05,0.7225848801637365,5.306744080613157e-06,-0.28622036590382405
733,0.7236,0.00141616,663.702,0.00193041,0.00461409,0.0106629,-0.0248479,-0.203352,0.544406,-0.337542,-8.63968e-06,-1.61877e-05,5.27468e-06,0.46813,-0.18400903795123535,-8.639642678054393e-06,-1.6187568979919575e-05,0.7235842691890324,5.27469391120583e-06,-0.28647799384709116
734,0.7246,0.00141341,663.882,0.00192666,0.00462263,0.0106554,-0.0248482,-0.20357,0.544986,-0.337902,-8.62299e-06,-1.61855e-05,5.24263e-06,0.468635,-0.18418690459279363,-8.622952822112673e-06,-1.6185369015486728e-05,0.7245842380280929,5.242643742686681e-06,-0.286734815538628
735,0.7256,0.00141066,664.06,0.00192293,0.00463114,0.0106479,-0.0248485,-0.203789,0.545566,-0.338262,-8.60628e-06,-1.61833e-05,5.21058e-06,0.469139,-0.1843655480985099,-8.606242966058275e-06,-1.618316905105388e-05,0.7255847870173073,5.210593575055711e-06,-0.2869915447909961
736,0.7266,0.00140792,664.239,0.00191921,0.00463962,0.0106404,-0.0248488,-0.204008,0.546145,-0.338622,-8.58956e-06,-1.61812e-05,5.17853e-06,0.469644,-0.1845441524855821,-8.589523109781005e-06,-1.6181069085074995e-05,0.7265841899082073,5.1785434085349635e-06,-0.28724818163746724
737,0.7276,0.00140519,664.418,0.00191549,0.00464807,0.0106329,-0.0248491,-0.204226,0.546724,-0.338982,-8.57283e-06,-1.6179e-05,5.14648e-06,0.470148,-0.1847219024848864,-8.572793253391886e-06,-1.6178869120642148e-05,0.7275841716209337,5.146493243124439e-06,-0.28750472611130184
738,0.7286,0.00140246,664.596,0.00191179,0.00465649,0.0106255,-0.0248493,-0.204444,0.547303,-0.339341,-8.55608e-06,-1.61768e-05,5.11444e-06,0.470651,-0.18489961373891417,-8.55604339689009e-06,-1.6176669156320322e-05,0.7285847324907215,5.114453078824965e-06,-0.28776046600657
739,0.7296,0.00139974,664.774,0.00190809,0.00466489,0.010618,-0.0248495,-0.204662,0.547881,-0.339701,-8.53932e-06,-1.61746e-05,5.08239e-06,0.471155,-0.18507728625611108,-8.539283540165421e-06,-1.6174469191887475e-05,0.7295841432679919,5.0824029154128425e-06,-0.2880168260912237
740,0.7306,0.00139703,664.952,0.00190441,0.00467326,0.0106105,-0.0248497,-0.20488,0.548459,-0.34006,-8.52255e-06,-1.61724e-05,5.05035e-06,0.471658,-0.18525492004492083,-8.52251368321788e-06,-1.6172269227454628e-05,0.7305841318716675,5.05036275311177e-06,-0.28827238217559503
741,0.7316,0.00139432,665.129,0.00190073,0.00468159,0.0106031,-0.0248499,-0.205098,0.549037,-0.340419,-8.50576e-06,-1.61702e-05,5.01831e-06,0.472161,-0.1854325151137851,-8.505723826157663e-06,-1.617006926302178e-05,0.7315846986358279,5.018322591698876e-06,-0.2885278465317984
742,0.7326,0.00139162,665.306,0.00189707,0.0046899,0.0105956,-0.02485,-0.205316,0.549614,-0.340777,-8.48896e-06,-1.6168e-05,4.98627e-06,0.472663,-0.18561007147114417,-8.488923968874573e-06,-1.6167869298588933e-05,0.7325841113097695,4.986282431396205e-06,-0.28878250797562166
743,0.7336,0.00138893,665.484,0.00189341,0.00469818,0.0105882,-0.0248501,-0.205533,0.550191,-0.341136,-8.47215e-06,-1.61658e-05,4.95423e-06,0.473165,-0.1857867749126182,-8.472114111479634e-06,-1.6165669334156085e-05,0.7335841008112225,4.954242272203757e-06,-0.2890377892295316
744,0.7346,0.00138625,665.66,0.00188977,0.00470644,0.0105807,-0.0248502,-0.205751,0.550768,-0.341494,-8.45532e-06,-1.61636e-05,4.92219e-06,0.473667,-0.18596425404975836,-8.455284253860995e-06,-1.6163469369723238e-05,0.7345846674731129,4.922202113899488e-06,-0.2892922681465434
745,0.7356,0.00138357,665.837,0.00188613,0.00471466,0.0105733,-0.0248503,-0.205968,0.551345,-0.341852,-8.43848e-06,-1.61614e-05,4.89015e-06,0.474169,-0.18614088064195122,-8.438444396130507e-06,-1.616126940529039e-05,0.7355858116285576,4.890161956705441e-06,-0.2895466559764084
746,0.7366,0.0013809,666.013,0.0018825,0.00472286,0.0105659,-0.0248504,-0.206186,0.55192,-0.34221,-8.42163e-06,-1.61592e-05,4.85812e-06,0.47467,-0.18631828259245609,-8.421594538177146e-06,-1.6159069440857543e-05,0.7365840604392733,4.858131800622445e-06,-0.2898009527517301
747,0.7376,0.00137824,666.189,0.00187888,0.00473103,0.0105585,-0.0248504,-0.206403,0.552496,-0.342567,-8.40476e-06,-1.6157e-05,4.82609e-06,0.475171,-0.18649483236879005,-8.404724680111109e-06,-1.6156869476424696e-05,0.7375846209918622,4.826101645649672e-06,-0.2900544485599037
748,0.7386,0.00137558,666.365,0.00187527,0.00473917,0.0105511,-0.0248504,-0.20662,0.553071,-0.342925,-8.38788e-06,-1.61547e-05,4.79406e-06,0.475672,-0.1866713438379789,-8.387844821822199e-06,-1.6154569513537886e-05,0.7385840194484532,4.794071491565077e-06,-0.29030856357801693
749,0.7396,0.00137293,666.541,0.00187167,0.00474728,0.0105437,-0.0248504,-0.206837,0.553647,-0.343282,-8.37099e-06,-1.61525e-05,4.76203e-06,0.476173,-0.18684781700833464,-8.370954963310417e-06,-1.615236954910504e-05,0.739585732309264,4.762041338590706e-06,-0.29056187820146895
750,0.7406,0.00137029,666.716,0.00186808,0.00475537,0.0105363,-0.0248504,-0.207053,0.554221,-0.343639,-8.35409e-06,-1.61503e-05,4.73001e-06,0.476673,-0.18702343891201245,-8.354055104686786e-06,-1.615016958456117e-05,0.7405845411503233,4.73002118650534e-06,-0.2908151024077408
751,0.7416,0.00136766,666.891,0.0018645,0.00476343,0.0105289,-0.0248503,-0.20727,0.554796,-0.343996,-8.33718e-06,-1.6148e-05,4.69798e-06,0.477173,-0.18719983568602638,-8.337145245840283e-06,-1.6147869621785382e-05,0.7415856650570247,4.69799103552937e-06,-0.2910682362291056
752,0.7426,0.00136503,667.066,0.00186093,0.00477146,0.0105215,-0.0248503,-0.207487,0.55537,-0.344352,-8.32025e-06,-1.61458e-05,4.66596e-06,0.477672,-0.1873761941860932,-8.32021538677008e-06,-1.6145669657241513e-05,0.7425856221890095,4.66597088566445e-06,-0.29132057101875053
753,0.7436,0.00136241,667.241,0.00185737,0.00477946,0.0105141,-0.0248502,-0.207703,0.555943,-0.344709,-8.30331e-06,-1.61435e-05,4.63394e-06,0.478172,-0.1875517019726256,-8.303275527588028e-06,-1.6143369694354703e-05,0.7435844098758684,4.633950736687709e-06,-0.29157352442002815
754,0.7446,0.00135979,667.416,0.00185382,0.00478743,0.0105068,-0.0248501,-0.207919,0.556517,-0.345065,-8.28636e-06,-1.61412e-05,4.60193e-06,0.478671,-0.18772717185357024,-8.286325668183103e-06,-1.6141069731578916e-05,0.7445855146167111,4.601940588822018e-06,-0.2918256793590923
755,0.7456,0.00135718,667.59,0.00185027,0.00479538,0.0104994,-0.0248499,-0.208135,0.55709,-0.345421,-8.2694e-06,-1.6139e-05,4.56991e-06,0.47917,-0.18790260383711355,-8.269365808555307e-06,-1.6138869767035047e-05,0.7455854485703051,4.5699204420657225e-06,-0.2920777445469749
756,0.7466,0.00135458,667.764,0.00184674,0.0048033,0.0104921,-0.0248498,-0.208351,0.557662,-0.345777,-8.25242e-06,-1.61367e-05,4.5379e-06,0.479668,-0.18807799793144064,-8.252385948925856e-06,-1.6136569804148237e-05,0.7465842090651573,4.537910296198433e-06,-0.29232972001562163
757,0.7476,0.00135199,667.938,0.00184321,0.0048112,0.0104847,-0.0248496,-0.208567,0.558235,-0.346132,-8.23543e-06,-1.61344e-05,4.5059e-06,0.480166,-0.18825335414473454,-8.23539608896251e-06,-1.6134269841261428e-05,0.7475852885988479,4.505910151664239e-06,-0.29258089837821877
758,0.7486,0.0013494,668.111,0.00183969,0.00481906,0.0104774,-0.0248494,-0.208783,0.558807,-0.346488,-8.21844e-06,-1.61322e-05,4.47389e-06,0.480664,-0.18842867248517692,-8.218406228666097e-06,-1.613206987671756e-05,0.7485851933294168,4.4739000077953506e-06,-0.2928326947559816
759,0.7496,0.00134682,668.285,0.00183619,0.0048269,0.0104701,-0.0248492,-0.208999,0.559379,-0.346843,-8.20142e-06,-1.61299e-05,4.44189e-06,0.481162,-0.18860395296094723,-8.201386368478225e-06,-1.612976991383075e-05,0.7495856701690988,4.441899865259558e-06,-0.2930836945942359
760,0.7506,0.00134424,668.458,0.00183269,0.00483472,0.0104628,-0.024849,-0.209214,0.55995,-0.347198,-8.1844e-06,-1.61276e-05,4.40989e-06,0.481659,-0.1887783843590134,-8.184366507846264e-06,-1.612746995094394e-05,0.7505849688593904,4.409899723611943e-06,-0.29333460534336186
761,0.7516,0.00134167,668.631,0.0018292,0.0048425,0.0104555,-0.0248487,-0.20943,0.560521,-0.347552,-8.16737e-06,-1.61253e-05,4.37789e-06,0.482156,-0.18895358930517647,-8.167336647102452e-06,-1.612516998805713e-05,0.7515848383121715,4.3778995830745515e-06,-0.2935847206200545
762,0.7526,0.00133911,668.803,0.00182572,0.00485026,0.0104482,-0.0248484,-0.209645,0.561092,-0.347907,-8.15033e-06,-1.6123e-05,4.3459e-06,0.482653,-0.18912794553950907,-8.150296786135769e-06,-1.612287002517032e-05,0.7525852788534402,4.345909443426166e-06,-0.2938354535365084
763,0.7536,0.00133656,668.976,0.00182225,0.004858,0.0104409,-0.0248482,-0.20986,0.561662,-0.348261,-8.13327e-06,-1.61207e-05,4.3139e-06,0.48315,-0.18930226429128072,-8.133236925056408e-06,-1.612057006217249e-05,0.7535845372239671,4.313909304887176e-06,-0.294085391544319
764,0.7546,0.00133401,669.148,0.00181878,0.0048657,0.0104336,-0.0248478,-0.210075,0.562232,-0.348615,-8.1162e-06,-1.61184e-05,4.28192e-06,0.483646,-0.18947654556854943,-8.116167063754176e-06,-1.611827009928568e-05,0.7545843653341258,4.2819291674600635e-06,-0.29433524108973363
765,0.7556,0.00133147,669.32,0.00181533,0.00487338,0.0104263,-0.0248475,-0.21029,0.562802,-0.348969,-8.09913e-06,-1.61161e-05,4.24993e-06,0.484142,-0.1896507893793714,-8.099097202118877e-06,-1.611597013639887e-05,0.7555847635087605,4.249939030920302e-06,-0.29458500220406236
766,0.7566,0.00132893,669.492,0.00181188,0.00488103,0.010419,-0.0248472,-0.210505,0.563372,-0.349323,-8.08204e-06,-1.61137e-05,4.21795e-06,0.484638,-0.1898249957318009,-8.0820073403709e-06,-1.61135701750581e-05,0.7565857320728999,4.217958895491591e-06,-0.29483467491860427
767,0.7576,0.0013264,669.663,0.00180845,0.00488866,0.0104117,-0.0248468,-0.21072,0.563941,-0.349677,-8.06494e-06,-1.61114e-05,4.18597e-06,0.485133,-0.18999916463389066,-8.064907478511074e-06,-1.611127021206027e-05,0.7575855137653669,4.185978761173104e-06,-0.29508425926464743
768,0.7586,0.00132388,669.835,0.00180502,0.00489626,0.0104045,-0.0248464,-0.210934,0.564509,-0.35003,-8.04783e-06,-1.61091e-05,4.154e-06,0.485628,-0.19017248626658279,-8.047797616317354e-06,-1.610897024917346e-05,0.7585841059105072,4.154008627965666e-06,-0.29533305060687165
769,0.7596,0.00132136,670.006,0.0018016,0.00490383,0.0103972,-0.024846,-0.211149,0.565078,-0.350383,-8.03071e-06,-1.61068e-05,4.12203e-06,0.486123,-0.19034658046623842,-8.030677753900761e-06,-1.610667028617563e-05,0.7595850250012466,4.122038495646407e-06,-0.2955817541412511
770,0.7606,0.00131885,670.177,0.00179819,0.00491138,0.01039,-0.0248456,-0.211363,0.565646,-0.350736,-8.01358e-06,-1.61044e-05,4.09006e-06,0.486618,-0.19051982775989706,-8.013547891372319e-06,-1.6104270324834857e-05,0.7605847531913754,4.090068364215327e-06,-0.2958303698987763
771,0.7616,0.00131635,670.347,0.00179479,0.0049189,0.0103828,-0.0248451,-0.211577,0.566214,-0.351089,-7.99644e-06,-1.61021e-05,4.05809e-06,0.487112,-0.19069303798260162,-7.996408028509983e-06,-1.6101970361837026e-05,0.7615850493884146,4.058098234116514e-06,-0.2960788979104273
772,0.7626,0.00131385,670.518,0.0017914,0.0049264,0.0103755,-0.0248446,-0.211791,0.566781,-0.351441,-7.97928e-06,-1.60997e-05,4.02613e-06,0.487606,-0.1908662111422843,-7.979248165645991e-06,-1.6099570400496255e-05,0.7625841513300518,4.026138104906707e-06,-0.2963266345341591
773,0.7636,0.00131136,670.688,0.00178801,0.00493387,0.0103683,-0.0248442,-0.212005,0.567349,-0.351793,-7.96212e-06,-1.60974e-05,3.99418e-06,0.4881,-0.191039347246876,-7.962088302448933e-06,-1.6097270437498423e-05,0.7635855835078218,3.99418797680795e-06,-0.29657428396994534
774,0.7646,0.00130888,670.858,0.00178464,0.00494131,0.0103611,-0.0248437,-0.212219,0.567915,-0.352146,-7.94495e-06,-1.6095e-05,3.96222e-06,0.488593,-0.19121244630430534,-7.94491843891798e-06,-1.6094870476157652e-05,0.7645840554890024,3.962227849596545e-06,-0.29682254942627284
775,0.7656,0.0013064,671.028,0.00178127,0.00494873,0.0103539,-0.0248431,-0.212433,0.568482,-0.352498,-7.92777e-06,-1.60927e-05,3.93027e-06,0.489086,-0.1913855083224999,-7.927738575275178e-06,-1.609257051315982e-05,0.7655848583492635,3.9302777234961894e-06,-0.29707002433073637
776,0.7666,0.00130393,671.198,0.00177791,0.00495612,0.0103467,-0.0248426,-0.212646,0.569048,-0.352849,-7.91057e-06,-1.60903e-05,3.89833e-06,0.489579,-0.191557724867514,-7.910538711519699e-06,-1.609017055181905e-05,0.7665844622403044,3.898337598506885e-06,-0.2973167094564241
777,0.7676,0.00130147,671.367,0.00177456,0.00496349,0.0103395,-0.024842,-0.21286,0.569614,-0.353201,-7.89337e-06,-1.6088e-05,3.86639e-06,0.490072,-0.19173071300400157,-7.893338847431153e-06,-1.6087870588821218e-05,0.7675846320672925,3.866397474405758e-06,-0.2975640104471675
778,0.7686,0.00129901,671.536,0.00177122,0.00497083,0.0103323,-0.0248415,-0.213073,0.57018,-0.353552,-7.87616e-06,-1.60856e-05,3.83445e-06,0.490564,-0.19190285602824886,-7.876128983119735e-06,-1.6085470627480447e-05,0.7685853681506383,3.834457351414855e-06,-0.2978105222141546
779,0.7696,0.00129656,671.705,0.00176789,0.00497815,0.0103251,-0.0248409,-0.213287,0.570745,-0.353903,-7.85894e-06,-1.60832e-05,3.80252e-06,0.491056,-0.19207577031457024,-7.858909118585444e-06,-1.6083070666028654e-05,0.7695849012251472,3.802527229535002e-06,-0.298056947470695
780,0.7706,0.00129411,671.874,0.00176457,0.00498544,0.0103179,-0.0248402,-0.2135,0.57131,-0.354254,-7.84171e-06,-1.60809e-05,3.77059e-06,0.491548,-0.19224783984943716,-7.841679253828282e-06,-1.6080770703030822e-05,0.7705849991954115,3.7705971087653722e-06,-0.2983032862471484
781,0.7716,0.00129167,672.042,0.00176125,0.0049927,0.0103108,-0.0248396,-0.213713,0.571875,-0.354605,-7.82446e-06,-1.60785e-05,3.73866e-06,0.492039,-0.19241987273739625,-7.824429388958443e-06,-1.607837074157903e-05,0.7715856623806869,3.738666988883921e-06,-0.298549538573864
782,0.7726,0.00128924,672.211,0.00175794,0.00499994,0.0103036,-0.024839,-0.213926,0.572439,-0.354955,-7.80721e-06,-1.60761e-05,3.70674e-06,0.492531,-0.19259186898625247,-7.807179523866559e-06,-1.6075970780238258e-05,0.7725851185144059,3.706746869891475e-06,-0.2987950032765345
783,0.7736,0.00128681,672.379,0.00175464,0.00500716,0.0102965,-0.0248383,-0.214139,0.573003,-0.355306,-7.78995e-06,-1.60737e-05,3.67482e-06,0.493022,-0.19276382860380892,-7.78991965844078e-06,-1.6073570818786465e-05,0.7735851385003754,3.674826752231297e-06,-0.2990410830408593
784,0.7746,0.00128439,672.547,0.00175135,0.00501435,0.0102893,-0.0248376,-0.214351,0.573567,-0.355656,-7.77268e-06,-1.60713e-05,3.64291e-06,0.493512,-0.19293494453321558,-7.77264979279213e-06,-1.607117085733467e-05,0.7745857226566983,3.642916635460125e-06,-0.2992863757330698
785,0.7756,0.00128197,672.714,0.00174807,0.00502151,0.0102822,-0.0248369,-0.214564,0.57413,-0.356006,-7.7554e-06,-1.60689e-05,3.611e-06,0.494003,-0.1931068310834625,-7.755369926920608e-06,-1.6068770895882878e-05,0.7755850957156725,3.6110065195771313e-06,-0.2995315825878605
786,0.7766,0.00127956,672.882,0.0017448,0.00502865,0.010275,-0.0248362,-0.214776,0.574693,-0.356355,-7.73811e-06,-1.60665e-05,3.5791e-06,0.494493,-0.19327787430405086,-7.738080060937236e-06,-1.6066370934431085e-05,0.776585031580094,3.5791064050272325e-06,-0.2997760034116227
787,0.7776,0.00127716,673.049,0.00174153,0.00503577,0.0102679,-0.0248354,-0.214988,0.575256,-0.356705,-7.72082e-06,-1.60641e-05,3.5472e-06,0.494983,-0.19344888126731974,-7.720790194509775e-06,-1.6063970973090314e-05,0.777585530566911,3.5472062913655122e-06,-0.30002103892671206
788,0.7786,0.00127476,673.216,0.00173827,0.00504285,0.0102608,-0.0248347,-0.215201,0.575818,-0.357054,-7.70351e-06,-1.60617e-05,3.51531e-06,0.495472,-0.19362065836069997,-7.703480328080659e-06,-1.606157101163852e-05,0.7785848144075473,3.5153161788148424e-06,-0.3002652889600167
789,0.7796,0.00127237,673.383,0.00173502,0.00504992,0.0102537,-0.0248339,-0.215413,0.57638,-0.357403,-7.6862e-06,-1.60593e-05,3.48342e-06,0.495962,-0.1937915926614514,-7.686170461207453e-06,-1.6059171050186727e-05,0.7795846600035405,3.483426067152351e-06,-0.300509453764933
790,0.7806,0.00126999,673.549,0.00173178,0.00505696,0.0102466,-0.0248331,-0.215625,0.576942,-0.357752,-7.66887e-06,-1.60569e-05,3.45154e-06,0.496451,-0.193962490727972,-7.668840594332593e-06,-1.605677108862391e-05,0.7805850676706858,3.45154595660091e-06,-0.30075353337120025
791,0.7816,0.00126761,673.716,0.00172855,0.00506398,0.0102395,-0.0248323,-0.215837,0.577503,-0.358101,-7.65154e-06,-1.60544e-05,3.41966e-06,0.496939,-0.19413335256794273,-7.651510727013644e-06,-1.605427112882918e-05,0.7815842561398094,3.4196658469376473e-06,-0.3009975278085478
792,0.7826,0.00126523,673.882,0.00172532,0.00507097,0.0102324,-0.0248315,-0.216048,0.578065,-0.358449,-7.6342e-06,-1.6052e-05,3.38778e-06,0.497428,-0.19430337249281804,-7.634170859582845e-06,-1.6051871167377385e-05,0.7825857878958229,3.3877857386066523e-06,-0.3012407383477821
793,0.7836,0.00126287,674.048,0.00172211,0.00507793,0.0102253,-0.0248306,-0.21626,0.578625,-0.358798,-7.61685e-06,-1.60496e-05,3.35591e-06,0.497916,-0.1944741620735143,-7.616820991818152e-06,-1.604947120581457e-05,0.7835843154986781,3.355915631164663e-06,-0.3014845627802605
794,0.7846,0.00126051,674.214,0.0017189,0.00508488,0.0102183,-0.0248298,-0.216471,0.579186,-0.359146,-7.59949e-06,-1.60472e-05,3.32405e-06,0.498404,-0.19464411009517002,-7.599461123941609e-06,-1.6047071244362776e-05,0.7845851870178846,3.32405552461168e-06,-0.3017276038608121
795,0.7856,0.00125815,674.379,0.0017157,0.00509179,0.0102112,-0.0248289,-0.216683,0.579746,-0.359494,-7.58212e-06,-1.60447e-05,3.29219e-06,0.498892,-0.19481482744715117,-7.582091255842194e-06,-1.604457128445702e-05,0.7855848345978129,3.2921954191689196e-06,-0.3019705603777827
796,0.7866,0.0012558,674.545,0.0017125,0.00509869,0.0102041,-0.024828,-0.216894,0.580306,-0.359842,-7.56475e-06,-1.60423e-05,3.26033e-06,0.499379,-0.19498470359599585,-7.56472138729869e-06,-1.6042171323005228e-05,0.7865850421371599,3.2603353148363823e-06,-0.30221343236059517
797,0.7876,0.00125346,674.71,0.00170932,0.00510556,0.0101971,-0.0248271,-0.217105,0.580866,-0.360189,-7.54736e-06,-1.60398e-05,3.22848e-06,0.499866,-0.1951545439047544,-7.547331518753531e-06,-1.6039671363099473e-05,0.7875858099495907,3.2284852116148954e-06,-0.3024555222945333
798,0.7886,0.00125112,674.875,0.00170614,0.0051124,0.01019,-0.0248262,-0.217316,0.581425,-0.360537,-7.52997e-06,-1.60374e-05,3.19664e-06,0.500353,-0.19532434838098822,-7.529941649875305e-06,-1.6037271401536657e-05,0.7885853497627022,3.1966451092824144e-06,-0.30269822553996073
799,0.7896,0.00124879,675.039,0.00170297,0.00511922,0.010183,-0.0248252,-0.217527,0.581984,-0.360884,-7.51257e-06,-1.60349e-05,3.1648e-06,0.50084,-0.19549411703225728,-7.5125417806631845e-06,-1.6034771441630902e-05,0.7895854484747669,3.1648050080601564e-06,-0.3029401472798491
800,0.7906,0.00124646,675.204,0.00169981,0.00512602,0.010176,-0.0248243,-0.217738,0.582542,-0.361231,-7.49516e-06,-1.60325e-05,3.13297e-06,0.501326,-0.19566384986611984,-7.4951319113392145e-06,-1.603237148017911e-05,0.7905843158130856,3.1329749077269042e-06,-0.30318198508745675
801,0.7916,0.00124414,675.368,0.00169666,0.00513279,0.010169,-0.0248233,-0.217949,0.583101,-0.361577,-7.47774e-06,-1.603e-05,3.10114e-06,0.501812,-0.19583354689013244,-7.477712041792373e-06,-1.6029871520273353e-05,0.7915855322595502,3.101144808503875e-06,-0.30342304241529383
802,0.7926,0.00124183,675.532,0.00169351,0.00513954,0.0101619,-0.0248223,-0.218159,0.583659,-0.361924,-7.46032e-06,-1.60276e-05,3.06932e-06,0.502298,-0.19600240411465641,-7.460292171912464e-06,-1.6027471558710538e-05,0.792585515956056,3.0693247103918964e-06,-0.3036647126873586
803,0.7936,0.00123952,675.696,0.00169038,0.00514627,0.0101549,-0.0248213,-0.21837,0.584216,-0.36227,-7.44289e-06,-1.60251e-05,3.0375e-06,0.502783,-0.19617202971125847,-7.442862301809683e-06,-1.6024971598804783e-05,0.7935842642140114,3.037504613168096e-06,-0.303905603020338
804,0.7946,0.00123722,675.86,0.00168725,0.00515297,0.0101479,-0.0248203,-0.21858,0.584774,-0.362617,-7.42545e-06,-1.60226e-05,3.00569e-06,0.503268,-0.19634081586185292,-7.425422431373008e-06,-1.6022471638788005e-05,0.7945853635141722,3.005694517055346e-06,-0.3041471058729218
805,0.7956,0.00123492,676.024,0.00168413,0.00515965,0.0101409,-0.0248192,-0.21879,0.585331,-0.362963,-7.408e-06,-1.60202e-05,2.97388e-06,0.503753,-0.19650956657107732,-7.407972560824483e-06,-1.6020071677336212e-05,0.7955852259975007,2.9738844220528193e-06,-0.3043878293267307
806,0.7966,0.00123263,676.187,0.00168101,0.00516631,0.0101339,-0.0248182,-0.219,0.585888,-0.363308,-7.39055e-06,-1.60177e-05,2.94208e-06,0.504238,-0.19667828184637348,-7.390522689942891e-06,-1.6017571717319434e-05,0.7965856455593643,2.9420843279392983e-06,-0.304627774132754
807,0.7976,0.00123035,676.35,0.00167791,0.00517294,0.010127,-0.0248171,-0.21921,0.586444,-0.363654,-7.37308e-06,-1.60152e-05,2.91028e-06,0.504723,-0.19684696169518168,-7.373052818948622e-06,-1.601507175741368e-05,0.7975848249244184,2.9102842349360003e-06,-0.3048683313041135
808,0.7986,0.00122807,676.513,0.00167481,0.00517955,0.01012,-0.024816,-0.21942,0.587,-0.363999,-7.35561e-06,-1.60127e-05,2.8785e-06,0.505207,-0.19701560612494085,-7.355582947621286e-06,-1.6012571797396902e-05,0.7985845599876695,2.8785041428225355e-06,-0.3051081103655472
809,0.7996,0.00122579,676.676,0.00167172,0.00518613,0.010113,-0.0248149,-0.21963,0.587556,-0.364345,-7.33814e-06,-1.60103e-05,2.84671e-06,0.505691,-0.19718421514308804,-7.338113075960884e-06,-1.6010171835834086e-05,0.7995848510581713,2.8467140518184664e-06,-0.3053485013693188
810,0.8006,0.00122353,676.838,0.00166863,0.00519269,0.0101061,-0.0248138,-0.21984,0.588112,-0.36469,-7.32065e-06,-1.60078e-05,2.81493e-06,0.506174,-0.19735278875705908,-7.3206232040767816e-06,-1.600767187581731e-05,0.8005856984451503,2.8149339619254476e-06,-0.30558811480065284
811,0.8016,0.00122126,677.0,0.00166556,0.00519923,0.0100991,-0.0248127,-0.220049,0.588667,-0.365034,-7.30316e-06,-1.60053e-05,2.78316e-06,0.506658,-0.19752052449521362,-7.303133331970635e-06,-1.6005171915911554e-05,0.8015853008718024,2.7831638729214347e-06,-0.30582695140690996
812,0.8026,0.00121901,677.162,0.00166249,0.00520575,0.0100922,-0.0248115,-0.220259,0.589222,-0.365379,-7.28566e-06,-1.60028e-05,2.7514e-06,0.507141,-0.19768902749163575,-7.285633459641616e-06,-1.6002671955894776e-05,0.8025854582317806,2.7514037850284723e-06,-0.30606639980145145
813,0.8036,0.00121676,677.324,0.00165943,0.00521224,0.0100852,-0.0248104,-0.220468,0.589776,-0.365724,-7.26816e-06,-1.60003e-05,2.71964e-06,0.507624,-0.19785669296323782,-7.2681335869795305e-06,-1.6000171995878e-05,0.80358436724789,2.719643698245733e-06,-0.30630576560054534
814,0.8046,0.00121451,677.486,0.00165638,0.00521871,0.0100783,-0.0248092,-0.220677,0.590331,-0.366068,-7.25064e-06,-1.59978e-05,2.68788e-06,0.508106,-0.19802432339641807,-7.250613714204768e-06,-1.599767203586122e-05,0.8045856343976456,2.687883612351172e-06,-0.30654435537738434
815,0.8056,0.00121227,677.648,0.00165333,0.00522516,0.0100714,-0.024808,-0.220886,0.590885,-0.366412,-7.23312e-06,-1.59953e-05,2.65614e-06,0.508588,-0.19819191879849862,-7.233093841096938e-06,-1.5995172075844444e-05,0.8055856518183504,2.6561435275684886e-06,-0.30678286309345537
816,0.8066,0.00121004,677.809,0.0016503,0.00523158,0.0100645,-0.0248068,-0.221095,0.591438,-0.366756,-7.2156e-06,-1.59928e-05,2.6244e-06,0.50907,-0.1983594791768003,-7.2155739676560415e-06,-1.5992672115827666e-05,0.8065844168168756,2.624403443673984e-06,-0.3070212887769824
817,0.8076,0.00120781,677.97,0.00164727,0.00523798,0.0100575,-0.0248056,-0.221304,0.591992,-0.367099,-7.19806e-06,-1.59903e-05,2.59266e-06,0.509552,-0.19852700453864225,-7.1980340939914456e-06,-1.599017215581089e-05,0.8075855418698266,2.592663360889702e-06,-0.30725893971546603
818,0.8086,0.00120558,678.131,0.00164424,0.00524436,0.0100506,-0.0248043,-0.221513,0.592545,-0.367443,-7.18052e-06,-1.59878e-05,2.56093e-06,0.510034,-0.19869449489134217,-7.180494220104805e-06,-1.598767219579411e-05,0.8085854131133987,2.5609332792164707e-06,-0.3074972016568005
819,0.8096,0.00120336,678.292,0.00164123,0.00525072,0.0100437,-0.0248031,-0.221721,0.593098,-0.367786,-7.16297e-06,-1.59852e-05,2.52921e-06,0.510515,-0.19886114910376584,-7.162944345995292e-06,-1.5985072237323372e-05,0.8095858374386815,2.5292131984322452e-06,-0.30773468938515836
820,0.8106,0.00120115,678.452,0.00163822,0.00525705,0.0100368,-0.0248018,-0.22193,0.59365,-0.368129,-7.14542e-06,-1.59827e-05,2.49749e-06,0.510996,-0.199028569627549,-7.145394471552713e-06,-1.5982572277306595e-05,0.8105850045657039,2.4974931187582428e-06,-0.30797209566919403
821,0.8116,0.00119895,678.612,0.00163522,0.00526336,0.01003,-0.0248005,-0.222138,0.594202,-0.368472,-7.12786e-06,-1.59802e-05,2.46578e-06,0.511477,-0.19919515435965374,-7.127834596887261e-06,-1.5980072317289817e-05,0.8115847233852334,2.465783039973246e-06,-0.308209420536838
822,0.8126,0.00119674,678.773,0.00163223,0.00526965,0.0100231,-0.0247992,-0.222346,0.594754,-0.368815,-7.11029e-06,-1.59777e-05,2.43408e-06,0.511957,-0.19936170444573742,-7.110264721998938e-06,-1.597757235727304e-05,0.8125849942018886,2.4340829622993e-06,-0.3084466640160112
823,0.8136,0.00119455,678.933,0.00162924,0.00527592,0.0100162,-0.0247979,-0.222555,0.595306,-0.369158,-7.09272e-06,-1.59751e-05,2.40238e-06,0.512437,-0.1995290203643858,-7.092694846666525e-06,-1.59749723988023e-05,0.8135858173204558,2.4023828857355767e-06,-0.3086838261346252
824,0.8146,0.00119236,679.092,0.00162626,0.00528216,0.0100094,-0.0247966,-0.222763,0.595857,-0.3695,-7.07514e-06,-1.59726e-05,2.37069e-06,0.512917,-0.19969550101356226,-7.075114971222263e-06,-1.59724724386745e-05,0.8145853784596042,2.3706928100608593e-06,-0.30892021584114326
825,0.8156,0.00119017,679.252,0.00162329,0.00528838,0.0100025,-0.0247953,-0.222971,0.596408,-0.369842,-7.05756e-06,-1.59701e-05,2.33901e-06,0.513397,-0.1998619470383648,-7.057535095444933e-06,-1.5969972478657724e-05,0.8155854905087021,2.3390127354971924e-06,-0.3091565247162046
826,0.8166,0.00118799,679.411,0.00162033,0.00529458,0.00999566,-0.0247939,-0.223178,0.596958,-0.370184,-7.03997e-06,-1.59675e-05,2.30733e-06,0.513876,-0.20002755847395282,-7.039945219444732e-06,-1.5967372520186984e-05,0.816584337186139,2.307332661821704e-06,-0.30939275278744904
827,0.8176,0.00118582,679.57,0.00161737,0.00530076,0.00998881,-0.0247925,-0.223386,0.597509,-0.370526,-7.02237e-06,-1.5965e-05,2.27566e-06,0.514355,-0.20019393543798614,-7.022345343221659e-06,-1.5964872560059185e-05,0.8175855509649936,2.2756625892572657e-06,-0.30962890008250654
828,0.8186,0.00118365,679.729,0.00161443,0.00530691,0.00998198,-0.0247911,-0.223594,0.598059,-0.370867,-7.00476e-06,-1.59625e-05,2.244e-06,0.514834,-0.20036027779920973,-7.004735466775713e-06,-1.5962372599931385e-05,0.8185854979782461,2.244002517803878e-06,-0.3098642764936195
829,0.8196,0.00118148,679.888,0.00161148,0.00531305,0.00997515,-0.0247898,-0.223801,0.598608,-0.371209,-6.98715e-06,-1.59599e-05,2.21234e-06,0.515313,-0.20052578609100613,-6.987125589885679e-06,-1.5959772641460646e-05,0.8195841755285402,2.212342447238669e-06,-0.310100262555142
830,0.8206,0.00117933,680.047,0.00160855,0.00531916,0.00996833,-0.0247883,-0.224009,0.599158,-0.37155,-6.96954e-06,-1.59574e-05,2.18069e-06,0.515791,-0.2006920594344721,-6.9695157127736e-06,-1.5957272681332846e-05,0.82058522208765,2.18069237778451e-06,-0.31033547825905383
831,0.8216,0.00117717,680.205,0.00160562,0.00532525,0.00996152,-0.0247869,-0.224216,0.599707,-0.371891,-6.95192e-06,-1.59548e-05,2.14905e-06,0.516269,-0.20085749905457773,-6.951895835438648e-06,-1.5954672722862107e-05,0.8215849977878946,2.149052309219357e-06,-0.3105706137680848
832,0.8226,0.00117502,680.363,0.0016027,0.00533132,0.00995471,-0.0247855,-0.224423,0.600256,-0.372232,-6.93429e-06,-1.59523e-05,2.11741e-06,0.516747,-0.20102290443222615,-6.934265957880825e-06,-1.5952172762734307e-05,0.8225853225156932,2.117412241764427e-06,-0.3108056691095764
833,0.8236,0.00117288,680.521,0.00159979,0.00533736,0.00994791,-0.024784,-0.22463,0.600804,-0.372573,-6.91666e-06,-1.59497e-05,2.08578e-06,0.517224,-0.20118827557450503,-6.916636079989935e-06,-1.5949572804263568e-05,0.8235843729872594,2.085782175198503e-06,-0.3110406443108613
834,0.8246,0.00117074,680.679,0.00159688,0.00534339,0.00994112,-0.0247826,-0.224837,0.601353,-0.372913,-6.89902e-06,-1.59471e-05,2.05416e-06,0.517702,-0.20135361248850014,-6.898996201765151e-06,-1.5946972845681806e-05,0.8245857956734044,2.054162109743629e-06,-0.3112748506744576
835,0.8256,0.00116861,680.837,0.00159398,0.00534939,0.00993433,-0.0247811,-0.225044,0.6019,-0.373253,-6.88138e-06,-1.59446e-05,2.02255e-06,0.518179,-0.20151891518129605,-6.881356323318322e-06,-1.5944472885554006e-05,0.825584117119661,2.022552045399806e-06,-0.3115089774214259
836,0.8266,0.00116649,680.994,0.00159109,0.00535537,0.00992755,-0.0247796,-0.22525,0.602448,-0.373593,-6.86373e-06,-1.5942e-05,1.99094e-06,0.518656,-0.2016833853437603,-6.863706444648621e-06,-1.5941872926972245e-05,0.8265848113810275,1.990941981944161e-06,-0.3117430245788312
837,0.8276,0.00116436,681.151,0.00158821,0.00536134,0.00992078,-0.0247781,-0.225457,0.602995,-0.373933,-6.84607e-06,-1.59394e-05,1.95934e-06,0.519132,-0.20184861978063995,-6.846046565756048e-06,-1.5939272968390483e-05,0.8275842265879922,1.9593419195995665e-06,-0.31197699217372943
838,0.8286,0.00116225,681.309,0.00158533,0.00536728,0.00991401,-0.0247766,-0.225663,0.603542,-0.374273,-6.82841e-06,-1.59369e-05,1.92774e-06,0.519608,-0.20201302203095195,-6.828386686419385e-06,-1.5936773008262684e-05,0.8285841886246199,1.9277418581431505e-06,-0.3122108802331671
839,0.8296,0.00116014,681.465,0.00158246,0.00537319,0.00990725,-0.024775,-0.22587,0.604089,-0.374612,-6.81075e-06,-1.59343e-05,1.89616e-06,0.520084,-0.20217818824009914,-6.8107268068606786e-06,-1.5934173049680922e-05,0.8295846977901076,1.8961617977986123e-06,-0.3124440012285268
840,0.8306,0.00115803,681.622,0.0015796,0.00537909,0.0099005,-0.0247735,-0.226076,0.604636,-0.374952,-6.79308e-06,-1.59317e-05,1.86458e-06,0.52056,-0.2023425226063008,-6.7930569270791e-06,-1.593157309109916e-05,0.8305857543838167,1.8645817383422525e-06,-0.312677730531876
841,0.8316,0.00115593,681.779,0.00157674,0.00538497,0.00989376,-0.0247719,-0.226282,0.605182,-0.375291,-6.7754e-06,-1.59291e-05,1.83301e-06,0.521036,-0.20250682312310964,-6.775377047074649e-06,-1.59289731325174e-05,0.8315855271188295,1.8330116799969431e-06,-0.31291069329180676
842,0.8326,0.00115383,681.935,0.00157389,0.00539082,0.00988702,-0.0247704,-0.226488,0.605727,-0.37563,-6.75772e-06,-1.59266e-05,1.80144e-06,0.521511,-0.20267108979749793,-6.757697166626109e-06,-1.59264731723896e-05,0.8325840132938775,1.8014416225398122e-06,-0.3131435770907467
843,0.8336,0.00115174,682.091,0.00157105,0.00539666,0.00988029,-0.0247688,-0.226694,0.606273,-0.375969,-6.74004e-06,-1.5924e-05,1.76988e-06,0.521986,-0.20283532263643644,-6.740017285955524e-06,-1.5923873213807838e-05,0.8335848773761658,1.7698815661937317e-06,-0.3133763819554588
844,0.8346,0.00114966,682.247,0.00156821,0.00540247,0.00987356,-0.0247672,-0.2269,0.606818,-0.376307,-6.72235e-06,-1.59214e-05,1.73833e-06,0.52246,-0.2029995216468946,-6.722327405062067e-06,-1.5921273255226076e-05,0.8345844534940865,1.7383315109587016e-06,-0.3136084215214622
845,0.8356,0.00114757,682.403,0.00156538,0.00540826,0.00986685,-0.0247656,-0.227106,0.607363,-0.376646,-6.70465e-06,-1.59188e-05,1.70679e-06,0.522935,-0.2031636868358403,-6.704627523834716e-06,-1.5918673296533292e-05,0.8355845745294677,1.7067914566126774e-06,-0.31384106883061946
846,0.8366,0.0011455,682.558,0.00156256,0.00541403,0.00986013,-0.024764,-0.227311,0.607908,-0.376984,-6.68695e-06,-1.59162e-05,1.67526e-06,0.523409,-0.20332702153766002,-6.686927642385321e-06,-1.591607333795153e-05,0.8365852407793708,1.675261403155659e-06,-0.3140729513589998
847,0.8376,0.00114343,682.714,0.00155974,0.00541978,0.00985343,-0.0247623,-0.227517,0.608452,-0.377322,-6.66924e-06,-1.59136e-05,1.64373e-06,0.523883,-0.20349111926857666,-6.669217760713053e-06,-1.591347337936977e-05,0.8375846149554849,1.6437313510309082e-06,-0.3143047555243297
848,0.8386,0.00114136,682.869,0.00155694,0.00542551,0.00984673,-0.0247607,-0.227722,0.608996,-0.37766,-6.65153e-06,-1.5911e-05,1.61221e-06,0.524357,-0.20365438685362736,-6.651507878596696e-06,-1.5910873420676985e-05,0.8385845329390529,1.6122112995731186e-06,-0.3145364813530913
849,0.8396,0.0011393,683.024,0.00155413,0.00543122,0.00984004,-0.024759,-0.227927,0.60954,-0.377997,-6.63382e-06,-1.59084e-05,1.5807e-06,0.52483,-0.20381762097225353,-6.633797996258295e-06,-1.5908273462095224e-05,0.8395849950259866,1.5807012492263794e-06,-0.31476744363954423
850,0.8406,0.00113725,683.179,0.00155134,0.00543691,0.00983336,-0.0247573,-0.228133,0.610083,-0.378335,-6.6161e-06,-1.59058e-05,1.54919e-06,0.525303,-0.20398161765009548,-6.6160781136970215e-06,-1.590567350340244e-05,0.8405841609272777,1.5491911999898633e-06,-0.31499901310614953
851,0.8416,0.0011352,683.333,0.00154855,0.00544258,0.00982668,-0.0247557,-0.228338,0.610627,-0.378672,-6.59838e-06,-1.59032e-05,1.5177e-06,0.525776,-0.2041447846932839,-6.598358230691659e-06,-1.590307354482068e-05,0.8415857111077718,1.5177011516431804e-06,-0.3152298195456633
852,0.8426,0.00113315,683.488,0.00154577,0.00544823,0.00982001,-0.024754,-0.228543,0.611169,-0.379009,-6.58065e-06,-1.59006e-05,1.48621e-06,0.526249,-0.20430791829065675,-6.5806283475744465e-06,-1.5900473586127895e-05,0.8425841211078606,1.4862111044067206e-06,-0.3154605482165117
853,0.8436,0.00113111,683.642,0.001543,0.00545386,0.00981335,-0.0247523,-0.228747,0.611712,-0.379346,-6.56292e-06,-1.5898e-05,1.45473e-06,0.526721,-0.20447022291969041,-6.562898464124167e-06,-1.589787362743511e-05,0.8435849159768389,1.4547310580592665e-06,-0.3156911991448985
854,0.8446,0.00112907,683.796,0.00154023,0.00545946,0.00980669,-0.0247505,-0.228952,0.612254,-0.379683,-6.54518e-06,-1.58954e-05,1.42326e-06,0.527193,-0.2046332898090646,-6.545158580339994e-06,-1.589527366885335e-05,0.8445844098396671,1.4232610128228629e-06,-0.31592177235701824
855,0.8456,0.00112704,683.95,0.00153747,0.00546505,0.00980004,-0.0247488,-0.229157,0.612796,-0.38002,-6.52744e-06,-1.58928e-05,1.39179e-06,0.527665,-0.20479632327315278,-6.5274186963337755e-06,-1.5892673710160565e-05,0.8455844455750035,1.3917909684746377e-06,-0.31615226787905704
856,0.8466,0.00112502,684.104,0.00153471,0.00547062,0.0097934,-0.0247471,-0.229361,0.613338,-0.380356,-6.50969e-06,-1.58902e-05,1.36033e-06,0.528137,-0.2049585282777321,-6.509668811993663e-06,-1.589007375146778e-05,0.8465850234766219,1.360330925237463e-06,-0.31638200211953593
857,0.8476,0.001123,684.258,0.00153196,0.00547617,0.00978676,-0.0247453,-0.229566,0.613879,-0.380692,-6.49195e-06,-1.58875e-05,1.32889e-06,0.528608,-0.20512149507476773,-6.491928927321311e-06,-1.5887373794321036e-05,0.8475842962532365,1.3288908828901214e-06,-0.31661165918227663
858,0.8486,0.00112098,684.411,0.00152922,0.00548169,0.00978013,-0.0247435,-0.22977,0.61442,-0.381028,-6.47419e-06,-1.58849e-05,1.29744e-06,0.529079,-0.20528363375106518,-6.47416904242526e-06,-1.5884773835628252e-05,0.8485841097826836,1.2974408416521754e-06,-0.3168412390932064
859,0.8496,0.00111897,684.564,0.00152649,0.0054872,0.00977351,-0.0247418,-0.229974,0.614961,-0.381364,-6.45643e-06,-1.58823e-05,1.26601e-06,0.52955,-0.2054457393544462,-6.456409157307164e-06,-1.5882173876935468e-05,0.8495844643575898,1.2660108013040627e-06,-0.317070741878244
860,0.8506,0.00111696,684.717,0.00152376,0.00549269,0.00976689,-0.02474,-0.230178,0.615502,-0.3817,-6.43867e-06,-1.58797e-05,1.23459e-06,0.530021,-0.205607811891657,-6.438649271856001e-06,-1.5879573918242684e-05,0.8505853602707398,1.2345907620670005e-06,-0.3173001675632995
861,0.8516,0.00111496,684.87,0.00152104,0.00549816,0.00976028,-0.0247382,-0.230382,0.616042,-0.382035,-6.42091e-06,-1.58771e-05,1.20317e-06,0.530491,-0.20576985136944248,-6.4208893859607485e-06,-1.58769739595499e-05,0.8515849462292049,1.2031707237181166e-06,-0.31752883370344875
862,0.8526,0.00111296,685.023,0.00151832,0.0055036,0.00975368,-0.0247363,-0.230586,0.616582,-0.38237,-6.40314e-06,-1.58744e-05,1.17176e-06,0.530961,-0.20593185779454592,-6.403119499953647e-06,-1.5874274002403155e-05,0.8525850721098533,1.1717606864802832e-06,-0.3177574232532707
863,0.8536,0.00111097,685.175,0.00151561,0.00550903,0.00974708,-0.0247345,-0.23079,0.617122,-0.382706,-6.38537e-06,-1.58718e-05,1.14036e-06,0.531431,-0.20609383117370939,-6.385349613613478e-06,-1.587167404359935e-05,0.8535857382043219,1.1403606501314556e-06,-0.3179866182521416
864,0.8546,0.00110899,685.327,0.00151291,0.00551444,0.00974049,-0.0247327,-0.230993,0.617661,-0.38304,-6.36759e-06,-1.58692e-05,1.10897e-06,0.531901,-0.20625497776904833,-6.367569726939415e-06,-1.5869074084906565e-05,0.8545850902183876,1.1089706148936784e-06,-0.3182143726845378
865,0.8556,0.001107,685.48,0.00151022,0.00551983,0.00973391,-0.0247308,-0.231197,0.6182,-0.383375,-6.34981e-06,-1.58665e-05,1.07758e-06,0.53237,-0.20641688523846013,-6.349789840043307e-06,-1.586637412775982e-05,0.8555849810283811,1.0775805805440797e-06,-0.3184427326172642
866,0.8566,0.00110502,685.632,0.00150753,0.0055252,0.00972733,-0.024729,-0.2314,0.618739,-0.38371,-6.33203e-06,-1.58639e-05,1.04621e-06,0.532839,-0.20657796626047975,-6.33200995270311e-06,-1.5863774168956013e-05,0.8565854109247921,1.0462105473063588e-06,-0.31867101606222537
867,0.8576,0.00110305,685.783,0.00150484,0.00553055,0.00972076,-0.0247271,-0.231603,0.619277,-0.384044,-6.31424e-06,-1.58612e-05,1.01484e-06,0.533308,-0.20673901458637078,-6.314220065251064e-06,-1.5861074211809267e-05,0.8575845226128147,1.0148405149568163e-06,-0.3188985419439232
868,0.8586,0.00110108,685.935,0.00150217,0.00553588,0.0097142,-0.0247252,-0.231807,0.619815,-0.384378,-6.29645e-06,-1.58586e-05,9.83483e-07,0.533777,-0.20690082332234294,-6.296430177354928e-06,-1.5858474253116484e-05,0.8585841719675451,9.834834835409367e-07,-0.31912599184466606
869,0.8596,0.00109912,686.086,0.0014995,0.00554119,0.00970764,-0.0247233,-0.23201,0.620353,-0.384712,-6.27865e-06,-1.5856e-05,9.52132e-07,0.534245,-0.2070618061149022,-6.2786302893469426e-06,-1.5855874294312677e-05,0.8595843592783254,9.521324533245945e-07,-0.3193533657898274
870,0.8606,0.00109716,686.238,0.00149683,0.00554649,0.0097011,-0.0247214,-0.232213,0.620891,-0.385046,-6.26085e-06,-1.58533e-05,9.2079e-07,0.534713,-0.2072227562312714,-6.260830400894868e-06,-1.585317433705491e-05,0.8605850848346539,9.207904239083575e-07,-0.319580663804772
871,0.8616,0.00109521,686.389,0.00149418,0.00555176,0.00969455,-0.0247195,-0.232416,0.621428,-0.38538,-6.24305e-06,-1.58507e-05,8.89457e-07,0.535181,-0.20738367367808297,-6.2430305122207486e-06,-1.5850574378362126e-05,0.8615844873407665,8.894573955142704e-07,-0.31980788591485654
872,0.8626,0.00109326,686.54,0.00149153,0.00555701,0.00968802,-0.0247176,-0.232618,0.621965,-0.385713,-6.22525e-06,-1.5848e-05,8.58132e-07,0.535648,-0.20754376600613045,-6.225230623213562e-06,-1.5847874421104358e-05,0.8625844266701492,8.581323682754771e-07,-0.320034352180121
873,0.8636,0.00109131,686.69,0.00148888,0.00556225,0.00968149,-0.0247157,-0.232821,0.622502,-0.386047,-6.20744e-06,-1.58454e-05,8.26815e-07,0.536116,-0.20770461829457154,-6.207420733872482e-06,-1.584527446230055e-05,0.8635849031111533,8.268153417478885e-07,-0.32026142278359115
874,0.8646,0.00108937,686.841,0.00148624,0.00556747,0.00967496,-0.0247137,-0.233024,0.623038,-0.38638,-6.18963e-06,-1.58427e-05,7.95508e-07,0.536583,-0.20786543793331214,-6.189610844309357e-06,-1.5842574505042784e-05,0.8645840523673005,7.955083163313503e-07,-0.32048773804622166
875,0.8656,0.00108744,686.991,0.00148361,0.00557266,0.00966845,-0.0247118,-0.233226,0.623575,-0.386713,-6.17182e-06,-1.584e-05,7.64208e-07,0.53705,-0.20802543295480846,-6.171800954413165e-06,-1.5839874547896038e-05,0.8655856028956705,7.642082919812054e-07,-0.3207139779584163
876,0.8666,0.00108551,687.141,0.00148098,0.00557784,0.00966194,-0.0247098,-0.233428,0.624111,-0.387045,-6.154e-06,-1.58374e-05,7.32918e-07,0.537516,-0.20818539566057437,-6.153981064183078e-06,-1.5837274589092232e-05,0.8665858248143503,7.329182685200664e-07,-0.3209394634850654
877,0.8676,0.00108358,687.292,0.00147837,0.005583,0.00965543,-0.0247078,-0.233631,0.624646,-0.387378,-6.13618e-06,-1.58347e-05,7.01636e-07,0.537983,-0.2083461177114152,-6.136161173730947e-06,-1.5834574631834464e-05,0.8675847154100347,7.016362462142212e-07,-0.32116555299773186
878,0.8686,0.00108166,687.441,0.00147575,0.00558814,0.00964894,-0.0247058,-0.233833,0.625181,-0.38771,-6.11836e-06,-1.58321e-05,6.70363e-07,0.538449,-0.2085060156454024,-6.118341282834727e-06,-1.5831974672919635e-05,0.8685841405551669,6.703632247084812e-07,-0.32139088862635246
879,0.8696,0.00107974,687.591,0.00147314,0.00559326,0.00964245,-0.0247038,-0.234035,0.625716,-0.388043,-6.10053e-06,-1.58294e-05,6.39099e-07,0.538915,-0.20866588128326902,-6.100511391826657e-06,-1.5829274715661867e-05,0.8695841005358078,6.390992042248911e-07,-0.3216168278394731
880,0.8706,0.00107783,687.741,0.00147054,0.00559837,0.00963596,-0.0247018,-0.234237,0.626251,-0.388375,-6.0827e-06,-1.58267e-05,6.07843e-07,0.53938,-0.2088257146315382,-6.082681500374498e-06,-1.58265747584041e-05,0.8705845956381704,6.078431846745502e-07,-0.3218420136697141
881,0.8716,0.00107592,687.89,0.00146795,0.00560345,0.00962949,-0.0246998,-0.234438,0.626786,-0.388706,-6.06487e-06,-1.58241e-05,5.76597e-07,0.539846,-0.2089847246818518,-6.064851608700295e-06,-1.5823974799600293e-05,0.8715856261486217,5.765971662352598e-07,-0.32206644681745444
882,0.8726,0.00107402,688.039,0.00146536,0.00560852,0.00962302,-0.0246978,-0.23464,0.62732,-0.389038,-6.04704e-06,-1.58214e-05,5.45359e-07,0.540311,-0.209144493630259,-6.047021716693024e-06,-1.5821274842342525e-05,0.8725853197674256,5.453591487292186e-07,-0.3222914833989714
883,0.8736,0.00107212,688.188,0.00146278,0.00561357,0.00961655,-0.0246957,-0.234842,0.627854,-0.38937,-6.0292e-06,-1.58187e-05,5.1413e-07,0.540776,-0.20930423030859802,-6.029181824462881e-06,-1.5818574884973735e-05,0.8735855473651815,5.141301322453273e-07,-0.3225164452807443
884,0.8746,0.00107022,688.337,0.0014602,0.0056186,0.00961009,-0.0246937,-0.235043,0.628387,-0.389701,-6.01136e-06,-1.58161e-05,4.8291e-07,0.54124,-0.20946314418692624,-6.01134193178865e-06,-1.581597492616993e-05,0.8745844346417386,4.829101165615413e-07,-0.3227406552285629
885,0.8756,0.00106833,688.486,0.00145763,0.00562361,0.00960364,-0.0246916,-0.235245,0.628921,-0.390032,-5.99352e-06,-1.58134e-05,4.51699e-07,0.541705,-0.20962281650435344,-5.993502038892373e-06,-1.581327496880114e-05,0.8755857300519179,4.5169910212194964e-07,-0.32296479097516984
886,0.8766,0.00106645,688.634,0.00145507,0.0056286,0.0095972,-0.0246896,-0.235446,0.629454,-0.390363,-5.97567e-06,-1.58107e-05,4.20497e-07,0.542169,-0.20978166635329143,-5.975652145773225e-06,-1.581057501154337e-05,0.8765856837100126,4.2049708848246325e-07,-0.32318885254512153
887,0.8776,0.00106457,688.782,0.00145251,0.00563358,0.00959076,-0.0246875,-0.235647,0.629986,-0.390694,-5.95783e-06,-1.5808e-05,3.89304e-07,0.542633,-0.2099404842766185,-5.9578122522108146e-06,-1.580787505417458e-05,0.8775842929002384,3.893040758651267e-07,-0.32341283996296644
888,0.8786,0.00106269,688.931,0.00144996,0.00563854,0.00958433,-0.0246854,-0.235848,0.630519,-0.391024,-5.93998e-06,-1.58053e-05,3.58121e-07,0.543096,-0.21009927028075082,-5.93996235831451e-06,-1.5805175096916813e-05,0.8785853120762666,3.58121064136796e-07,-0.3236360768896598
889,0.8796,0.00106082,689.079,0.00144741,0.00564348,0.00957791,-0.0246833,-0.236049,0.631051,-0.391355,-5.92213e-06,-1.58027e-05,3.26946e-07,0.54356,-0.21025802437210372,-5.922112464196161e-06,-1.5802575138001984e-05,0.8795849853518047,3.2694605334171456e-07,-0.3238599163007432
890,0.8806,0.00105895,689.226,0.00144487,0.0056484,0.00957149,-0.0246812,-0.23625,0.631583,-0.391685,-5.90427e-06,-1.58e-05,2.9578e-07,0.544023,-0.21041674655709097,-5.90425256985494e-06,-1.5799875180633194e-05,0.8805851905950164,2.9578004379082756e-07,-0.32408300571658577
891,0.8816,0.00105709,689.374,0.00144234,0.0056533,0.00956508,-0.0246791,-0.236451,0.632114,-0.392015,-5.88641e-06,-1.57973e-05,2.64624e-07,0.544486,-0.2105754368421251,-5.886392675069629e-06,-1.5797175223264404e-05,0.8815840465039961,2.646240349069018e-07,-0.32430602152506705
892,0.8826,0.00105523,689.521,0.00143981,0.00565819,0.00955867,-0.0246769,-0.236651,0.632646,-0.392345,-5.86856e-06,-1.57946e-05,2.33476e-07,0.544948,-0.21073330596731787,-5.868542780063102e-06,-1.5794475266006636e-05,0.8825853155306824,2.3347602717826987e-07,-0.32452896375047335
893,0.8836,0.00105338,689.669,0.00143729,0.00566305,0.00955227,-0.0246748,-0.236852,0.633177,-0.392675,-5.8507e-06,-1.57919e-05,2.02338e-07,0.545411,-0.2108919326303048,-5.85068288472268e-06,-1.5791775308637845e-05,0.8835852337880314,2.023380205606884e-07,-0.32475183241708316
894,0.8846,0.00105153,689.816,0.00143477,0.0056679,0.00954588,-0.0246727,-0.237052,0.633708,-0.393004,-5.83283e-06,-1.57892e-05,1.7121e-07,0.545873,-0.2110497384626695,-5.832812989048364e-06,-1.5789075351269055e-05,0.8845856831429695,1.7121001461006813e-07,-0.32497395252345695
895,0.8856,0.00104968,689.963,0.00143226,0.00567274,0.0095395,-0.0246705,-0.237253,0.634238,-0.393334,-5.81497e-06,-1.57865e-05,1.4009e-07,0.546335,-0.2112083015291164,-5.814953093041808e-06,-1.5786375393900265e-05,0.8855847782918624,1.4009000981474173e-07,-0.3251966743679986
896,0.8866,0.00104784,690.11,0.00142976,0.00567755,0.00953312,-0.0246684,-0.237453,0.634768,-0.393663,-5.7971e-06,-1.57838e-05,1.0898e-07,0.546796,-0.21136604409402837,-5.79708319681238e-06,-1.5783675436531475e-05,0.8865844031015322,1.0898000590842116e-07,-0.32541864814544297
897,0.8876,0.001046,690.256,0.00142726,0.00568235,0.00952674,-0.0246662,-0.237653,0.635298,-0.393992,-5.77923e-06,-1.57811e-05,7.7879e-08,0.547258,-0.2115237551135819,-5.779213300249886e-06,-1.5780975479051662e-05,0.8875845578527732,7.787900302425044e-08,-0.3256405489055265
898,0.8886,0.00104417,690.403,0.00142476,0.00568713,0.00952038,-0.024664,-0.237853,0.635828,-0.394321,-5.76136e-06,-1.57784e-05,4.67875e-08,0.547719,-0.2116814345940855,-5.761343403354324e-06,-1.5778275521682872e-05,0.8885852428265286,4.6787500984635244e-08,-0.32586237667226803
899,0.8896,0.00104234,690.549,0.00142228,0.00569189,0.00951402,-0.0246618,-0.238053,0.636357,-0.39465,-5.74349e-06,-1.57757e-05,1.57054e-08,0.54818,-0.21183908254184636,-5.743473506236718e-06,-1.577557556431408e-05,0.8895845687183779,1.5705400091547972e-08,-0.3260841314696784
900,0.8906,0.00104052,690.695,0.0014198,0.00569663,0.00950766,-0.0246596,-0.238253,0.636886,-0.394978,-5.72561e-06,-1.5773e-05,-1.53673e-08,0.548641,-0.21199669896317053,-5.725593608674195e-06,-1.577287560683427e-05,0.8905844233934748,-1.5367299877055984e-08,-0.3263051396272372
901,0.8916,0.0010387,690.841,0.00141732,0.00570136,0.00950132,-0.0246574,-0.238452,0.637415,-0.395306,-5.70774e-06,-1.57703e-05,-4.64305e-08,0.549101,-0.2121534960182524,-5.7077237108904555e-06,-1.577017564946548e-05,0.8915848071316197,-4.6430498890082106e-08,-0.3265260753060073
902,0.8926,0.00103688,690.987,0.00141485,0.00570607,0.00949498,-0.0246552,-0.238652,0.637944,-0.395635,-5.68986e-06,-1.57676e-05,-7.74842e-08,0.549561,-0.21231104956316915,-5.689843812772821e-06,-1.576747569209669e-05,0.892585720212761,-7.748419694753039e-08,-0.326747611782483
903,0.8936,0.00103507,691.133,0.00141239,0.00571077,0.00948864,-0.024653,-0.238851,0.638472,-0.395963,-5.67198e-06,-1.57649e-05,-1.08528e-07,0.550021,-0.21246778406870548,-5.67196391432212e-06,-1.5764775734616876e-05,0.8935852693307791,-1.0852799414706737e-07,-0.3269684023541851
904,0.8946,0.00103326,691.278,0.00140993,0.00571544,0.00948232,-0.0246507,-0.239051,0.639,-0.39629,-5.6541e-06,-1.57622e-05,-1.39563e-07,0.550481,-0.21262527476229742,-5.654084015649374e-06,-1.5762075777137063e-05,0.894585346350085,-1.3956299027562125e-07,-0.3271884477072393
905,0.8956,0.00103146,691.424,0.00140748,0.0057201,0.00947599,-0.0246485,-0.23925,0.639527,-0.396618,-5.63622e-06,-1.57595e-05,-1.70588e-07,0.55094,-0.21278194674324058,-5.636204116532539e-06,-1.5759375819768273e-05,0.8955840559644805,-1.70587985404147e-07,-0.32740909370846893
906,0.8966,0.00102966,691.569,0.00140503,0.00572474,0.00946968,-0.0246462,-0.239449,0.640055,-0.396945,-5.61833e-06,-1.57568e-05,-2.01604e-07,0.5514,-0.21293858754956152,-5.618314217192832e-06,-1.575667586228846e-05,0.896585188621793,-2.016039797325675e-07,-0.3276289949790091
907,0.8976,0.00102787,691.714,0.00140259,0.00572937,0.00946337,-0.024644,-0.239648,0.640582,-0.397273,-5.60045e-06,-1.57541e-05,-2.32609e-07,0.551859,-0.2130951971874634,-5.600434317520886e-06,-1.5753975904808648e-05,0.8975849524308217,-2.326089729720593e-07,-0.32784949650442896
908,0.8986,0.00102608,691.859,0.00140015,0.00573397,0.00945707,-0.0246417,-0.239847,0.641109,-0.3976,-5.58256e-06,-1.57514e-05,-2.63606e-07,0.552317,-0.213251775663148,-5.582544417515045e-06,-1.5751275947328836e-05,0.8985852432542341,-2.636059652783018e-07,-0.3280692537867981
909,0.8996,0.00102429,692.003,0.00139773,0.00573856,0.00945077,-0.0246394,-0.240046,0.641635,-0.397927,-5.56467e-06,-1.57487e-05,-2.94592e-07,0.552776,-0.2134083229828161,-5.56465451728716e-06,-1.5748575989849023e-05,0.8995841617847278,-2.9459195660663795e-07,-0.3282889392202839
910,0.9006,0.00102251,692.148,0.0013953,0.00574314,0.00944449,-0.0246371,-0.240245,0.642162,-0.398254,-5.54678e-06,-1.57459e-05,-3.25569e-07,0.553234,-0.2135648391526671,-5.546764616615185e-06,-1.574577603391525e-05,0.9005855064691375,-3.2556894702384653e-07,-0.328508552828377
911,0.9016,0.00102073,692.292,0.00139288,0.0057477,0.0094382,-0.0246349,-0.240443,0.642688,-0.39858,-5.52889e-06,-1.57432e-05,-3.56536e-07,0.553692,-0.21372053789983025,-5.528874715721166e-06,-1.5743076076435436e-05,0.9015854774148435,-3.56535936441027e-07,-0.3287274233623195
912,0.9026,0.00101896,692.437,0.00139047,0.00575224,0.00943193,-0.0246326,-0.240642,0.643213,-0.398907,-5.511e-06,-1.57405e-05,-3.87493e-07,0.55415,-0.21387699194509435,-5.51098481449408e-06,-1.5740376118955623e-05,0.9025840718986018,-3.874929249692016e-07,-0.328946893609539
913,0.9036,0.00101719,692.581,0.00138806,0.00575676,0.00942566,-0.0246302,-0.240841,0.643739,-0.399233,-5.4931e-06,-1.57378e-05,-4.18441e-07,0.554608,-0.2140334148591012,-5.493084912933099e-06,-1.573767616147581e-05,0.9035850943662493,-4.184409124752264e-07,-0.3291656212676769
914,0.9046,0.00101542,692.724,0.00138566,0.00576127,0.00941939,-0.0246279,-0.241039,0.644264,-0.399559,-5.47521e-06,-1.57351e-05,-4.49378e-07,0.555065,-0.21418902083745883,-5.4751950110398795e-06,-1.5734976203996e-05,0.9045847389245276,-4.493778990033448e-07,-0.32938427763221967
915,0.9056,0.00101366,692.868,0.00138327,0.00576576,0.00941314,-0.0246256,-0.241237,0.644789,-0.399885,-5.45731e-06,-1.57323e-05,-4.80306e-07,0.555522,-0.21434459600888278,-5.4572951089237876e-06,-1.5732176248062224e-05,0.9055849084339864,-4.803058846203356e-07,-0.3296028627264054
916,0.9066,0.0010119,693.012,0.00138088,0.00577023,0.00940689,-0.0246233,-0.241435,0.645314,-0.40021,-5.43941e-06,-1.57296e-05,-5.11224e-07,0.555979,-0.21450014037947218,-5.439395206474629e-06,-1.572947629047139e-05,0.9065856031702981,-5.112238693483206e-07,-0.3298207063945058
917,0.9076,0.00101015,693.155,0.00137849,0.00577469,0.00940064,-0.0246209,-0.241633,0.645838,-0.400536,-5.42152e-06,-1.57269e-05,-5.42132e-07,0.556435,-0.21465565395532493,-5.421505303582208e-06,-1.5726776332991577e-05,0.9075849158234088,-5.421318530762775e-07,-0.33003914923610334
918,0.9086,0.0010084,693.298,0.00137611,0.00577914,0.0093944,-0.0246186,-0.241831,0.646362,-0.400861,-5.40362e-06,-1.57242e-05,-5.7303e-07,0.556892,-0.21481113674253793,-5.403605400466915e-06,-1.5724076375400742e-05,0.9085847522535673,-5.730298358042063e-07,-0.33025685113412695
919,0.9096,0.00100666,693.441,0.00137374,0.00578356,0.00938817,-0.0246162,-0.242029,0.646886,-0.401187,-5.38572e-06,-1.57214e-05,-6.03919e-07,0.557348,-0.21496658874720653,-5.385705497018556e-06,-1.5721276419466967e-05,0.9095851127353047,-6.039188176210075e-07,-0.33047515181571285
920,0.9106,0.00100492,693.584,0.00137137,0.00578797,0.00938194,-0.0246139,-0.242227,0.647409,-0.401512,-5.36782e-06,-1.57187e-05,-6.34797e-07,0.557804,-0.2151220099754253,-5.367805593237129e-06,-1.5718576461876133e-05,0.910584086958254,-6.347967985709246e-07,-0.3306927120359219
921,0.9116,0.00100318,693.727,0.00136901,0.00579236,0.00937572,-0.0246115,-0.242424,0.647933,-0.401837,-5.34991e-06,-1.5716e-05,-6.65665e-07,0.558259,-0.21527661571029522,-5.349895689232831e-06,-1.5715876504285298e-05,0.9115854953659093,-6.656647784097913e-07,-0.3309102015605482
922,0.9126,0.00100145,693.87,0.00136665,0.00579674,0.00936951,-0.0246091,-0.242622,0.648456,-0.402161,-5.33201e-06,-1.57132e-05,-6.96523e-07,0.558715,-0.21543197555925198,-5.331995784896293e-06,-1.5713076548351523e-05,0.9125855160626035,-6.965227574706745e-07,-0.3311269515398497
923,0.9136,0.000999717,694.012,0.0013643,0.0058011,0.00936331,-0.0246067,-0.242819,0.648978,-0.402486,-5.31411e-06,-1.57105e-05,-7.27372e-07,0.55917,-0.21558652023691627,-5.314095880115666e-06,-1.571037659076069e-05,0.91358414632181,-7.273717355094078e-07,-0.33134429995956793
924,0.9146,0.000997992,694.155,0.00136195,0.00580545,0.00935711,-0.0246043,-0.243017,0.649501,-0.40281,-5.2962e-06,-1.57078e-05,-7.5821e-07,0.559625,-0.21574181873085108,-5.2961859751121665e-06,-1.5707676633169854e-05,0.9145852125863458,-7.582097125702347e-07,-0.3315609093137708
925,0.9156,0.000996271,694.297,0.00135961,0.00580978,0.00935091,-0.0246019,-0.243214,0.650023,-0.403134,-5.2783e-06,-1.5705e-05,-7.89038e-07,0.56008,-0.21589630237542246,-5.278286069776428e-06,-1.5704876677125057e-05,0.9155848869596279,-7.890376887420558e-07,-0.331777448497911
926,0.9166,0.000994554,694.439,0.00135728,0.00581409,0.00934472,-0.0245995,-0.243411,0.650545,-0.403458,-5.26039e-06,-1.57023e-05,-8.19855e-07,0.560534,-0.21605075558971343,-5.260376164217817e-06,-1.5702176719534222e-05,0.916585083299154,-8.198546639359705e-07,-0.3319939175347201
927,0.9176,0.000992842,694.581,0.00135495,0.00581839,0.00933854,-0.0245971,-0.243608,0.651067,-0.403782,-5.24249e-06,-1.56996e-05,-8.50663e-07,0.560988,-0.21620517837971798,-5.2424762582159445e-06,-1.5699476761943387e-05,0.9175858018774616,-8.506626382187576e-07,-0.332210316446922
928,0.9186,0.000991133,694.722,0.00135262,0.00582267,0.00933237,-0.0245947,-0.243805,0.651588,-0.404106,-5.22458e-06,-1.56968e-05,-8.81461e-07,0.561442,-0.2163595707514293,-5.224566351880178e-06,-1.569667680589859e-05,0.9185851243811471,-8.814606115015167e-07,-0.3324266452572334
929,0.9196,0.000989428,694.864,0.0013503,0.00582693,0.0093262,-0.0245922,-0.244002,0.652109,-0.404429,-5.20667e-06,-1.56941e-05,-9.12248e-07,0.561896,-0.21651393271083896,-5.206656445322366e-06,-1.5693976848307756e-05,0.9195849676675096,-9.122475839173916e-07,-0.3326422366309342
930,0.9206,0.000987727,695.005,0.00134799,0.00583118,0.00932003,-0.0245898,-0.244199,0.65263,-0.404753,-5.18877e-06,-1.56913e-05,-9.43025e-07,0.56235,-0.21666826426393793,-5.188756538321293e-06,-1.5691176892151937e-05,0.9205853320079467,-9.430245553332384e-07,-0.33285842552177414
931,0.9216,0.00098603,695.146,0.00134568,0.00583542,0.00931388,-0.0245874,-0.244395,0.65315,-0.405076,-5.17086e-06,-1.56886e-05,-9.73792e-07,0.562803,-0.21682178223888915,-5.170846631097348e-06,-1.5688476934561102e-05,0.9215842960887417,-9.737915258600793e-07,-0.33307387745297057
932,0.9226,0.000984336,695.287,0.00134338,0.00583964,0.00930773,-0.0245849,-0.244592,0.653671,-0.405399,-5.15295e-06,-1.56859e-05,-1.00455e-06,0.563256,-0.2169760531516043,-5.152936723540336e-06,-1.5685776976859245e-05,0.9225857023506834,-1.0045494954757928e-06,-0.333289259804431
933,0.9236,0.000982647,695.428,0.00134108,0.00584384,0.00930158,-0.0245824,-0.244788,0.654191,-0.405722,-5.13504e-06,-1.56831e-05,-1.0353e-06,0.563709,-0.2171295108058452,-5.1350268156502565e-06,-1.5682977020814448e-05,0.9235857068945537,-1.0352994640472346e-06,-0.333504572598626
934,0.9246,0.000980962,695.569,0.00133879,0.00584803,0.00929545,-0.02458,-0.244984,0.65471,-0.406044,-5.11713e-06,-1.56804e-05,-1.06603e-06,0.564161,-0.2172829383853333,-5.117116907538133e-06,-1.5680277063223613e-05,0.9245843069907416,-1.0660294318398655e-06,-0.3337191495775016
935,0.9256,0.00097928,695.71,0.0013365,0.0058522,0.00928931,-0.0245775,-0.245181,0.65523,-0.406367,-5.09923e-06,-1.56776e-05,-1.09676e-06,0.564614,-0.2174371184592354,-5.099216998982747e-06,-1.5677477107067794e-05,0.9255853510792829,-1.0967593985222734e-06,-0.3339343235397224
936,0.9266,0.000977602,695.85,0.00133422,0.00585636,0.00928319,-0.024575,-0.245377,0.655749,-0.406689,-5.08132e-06,-1.56749e-05,-1.12747e-06,0.565066,-0.21759048575353157,-5.081307090093468e-06,-1.5674777149365937e-05,0.9265849892601623,-1.1274693644258704e-06,-0.3341487621610718
937,0.9276,0.000975929,695.99,0.00133194,0.0058605,0.00927707,-0.0245725,-0.245573,0.656268,-0.407011,-5.06341e-06,-1.56721e-05,-1.15818e-06,0.565518,-0.21774382299078376,-5.063397180982143e-06,-1.567197719332114e-05,0.9275851463879126,-1.1581793293302667e-06,-0.33436313174430077
938,0.9286,0.000974259,696.13,0.00132967,0.00586463,0.00927096,-0.02457,-0.245769,0.656787,-0.407333,-5.0455e-06,-1.56694e-05,-1.18887e-06,0.565969,-0.2178971301768825,-5.045487271537752e-06,-1.5669277235619283e-05,0.9285858227319375,-1.1888692933448297e-06,-0.33457743231163617
939,0.9296,0.000972592,696.27,0.0013274,0.00586874,0.00926485,-0.0245675,-0.245965,0.657305,-0.407655,-5.02759e-06,-1.56666e-05,-1.21956e-06,0.566421,-0.2180504073177174,-5.027577361649271e-06,-1.5666477279463464e-05,0.9295850889757258,-1.219559256360192e-06,-0.33479166388529735
940,0.9306,0.00097093,696.41,0.00132514,0.00587284,0.00925875,-0.024565,-0.24616,0.657823,-0.407977,-5.00968e-06,-1.56639e-05,-1.25023e-06,0.566872,-0.2182028726224401,-5.009667451538746e-06,-1.5663777321761607e-05,0.9305848729735151,-1.250229218485721e-06,-0.3350058264874969
941,0.9316,0.000969272,696.55,0.00132288,0.00587692,0.00925265,-0.0245625,-0.246356,0.658341,-0.408298,-4.99177e-06,-1.56611e-05,-1.28089e-06,0.567323,-0.21835608984362787,-4.991757541095154e-06,-1.5660977365605788e-05,0.9315851749935713,-1.280889179611222e-06,-0.3352192553600277
942,0.9326,0.000967617,696.689,0.00132063,0.00588099,0.00924657,-0.02456,-0.246551,0.658858,-0.40862,-4.97386e-06,-1.56584e-05,-1.31155e-06,0.567774,-0.21850849554606944,-4.973847630429518e-06,-1.565827740790393e-05,0.932584062719271,-1.311549139959567e-06,-0.33543328029993724
943,0.9336,0.000965966,696.829,0.00131838,0.00588504,0.00924048,-0.0245575,-0.246747,0.659376,-0.408941,-4.95595e-06,-1.56556e-05,-1.34219e-06,0.568224,-0.21866165287103434,-4.955937719319792e-06,-1.5655477451748112e-05,0.9335854005878772,-1.3421890993070562e-06,-0.3356465719818146
944,0.9346,0.000964319,696.968,0.00131614,0.00588907,0.00923441,-0.024555,-0.246942,0.659893,-0.409262,-4.93804e-06,-1.56529e-05,-1.37282e-06,0.568675,-0.21881399899449472,-4.938027807876999e-06,-1.5652777494046255e-05,0.934585322697574,-1.3728190576545174e-06,-0.33585979520804965
945,0.9356,0.000962675,697.107,0.00131391,0.0058931,0.00922834,-0.0245524,-0.247137,0.66041,-0.409583,-4.92013e-06,-1.56501e-05,-1.40344e-06,0.569125,-0.2189663154133572,-4.920117896212162e-06,-1.5649977537779414e-05,0.9355857619006591,-1.403439015223995e-06,-0.3360729500006133
946,0.9366,0.000961036,697.246,0.00131168,0.0058971,0.00922227,-0.0245499,-0.247332,0.660926,-0.409903,-4.90222e-06,-1.56473e-05,-1.43405e-06,0.569574,-0.21911860213341383,-4.902207984103235e-06,-1.5647177581623595e-05,0.9365847818787878,-1.4340489717934446e-06,-0.33628537266717384
947,0.9376,0.0009594,697.385,0.00130945,0.0059011,0.00921622,-0.0245473,-0.247527,0.661442,-0.410224,-4.88431e-06,-1.56446e-05,-1.46465e-06,0.570024,-0.2192708591604553,-4.884298071772264e-06,-1.5644477623921738e-05,0.9375843174842458,-1.464648927362866e-06,-0.33649839087129674
948,0.9386,0.000957767,697.523,0.00130723,0.00590507,0.00921017,-0.0245448,-0.247722,0.661958,-0.410544,-4.8664e-06,-1.56418e-05,-1.49524e-06,0.570473,-0.21942308650027098,-4.866388159108226e-06,-1.5641677667654896e-05,0.9385843689831652,-1.495238882154304e-06,-0.33671067741855887
949,0.9396,0.000956139,697.662,0.00130501,0.00590904,0.00920412,-0.0245422,-0.247917,0.662474,-0.410864,-4.8485e-06,-1.56391e-05,-1.52582e-06,0.570922,-0.21957528415864946,-4.848488246000926e-06,-1.563897770995304e-05,0.9395849366418159,-1.5258188359457137e-06,-0.3369228960449938
950,0.9406,0.000954514,697.8,0.0013028,0.00591299,0.00919808,-0.0245396,-0.248112,0.662989,-0.411184,-4.83059e-06,-1.56363e-05,-1.55639e-06,0.571371,-0.219727452141378,-4.830578332670754e-06,-1.5636177753686198e-05,0.9405840801415546,-1.5563887888481176e-06,-0.33713504677233264
951,0.9416,0.000952893,697.938,0.0013006,0.00591692,0.00919205,-0.0245371,-0.248306,0.663505,-0.411504,-4.81268e-06,-1.56335e-05,-1.58695e-06,0.57182,-0.21987881033344325,-4.812668419118538e-06,-1.563337779753038e-05,0.9415856799174263,-1.5869487407504934e-06,-0.33734712962229974
952,0.9426,0.000951276,698.077,0.0012984,0.00592084,0.00918602,-0.0245345,-0.248501,0.66402,-0.411824,-4.79477e-06,-1.56308e-05,-1.61749e-06,0.572268,-0.22003091913433814,-4.794758505122232e-06,-1.56306778397175e-05,0.9425858540653209,-1.6174886918740583e-06,-0.3375591446166124
953,0.9436,0.000949662,698.214,0.0012962,0.00592474,0.00918,-0.0245319,-0.248695,0.664534,-0.412143,-4.77687e-06,-1.5628e-05,-1.64803e-06,0.572716,-0.22018221845951702,-4.776858590793687e-06,-1.5627877883450658e-05,0.9435845998499883,-1.6480286419984225e-06,-0.3377704295477414
954,0.9446,0.000948052,698.352,0.00129401,0.00592864,0.00917399,-0.0245293,-0.24889,0.665049,-0.412463,-4.75896e-06,-1.56252e-05,-1.67855e-06,0.573164,-0.2203342681015955,-4.758948676131247e-06,-1.5625077927183817e-05,0.9445858037067756,-1.6785485912329534e-06,-0.3379823091077485
955,0.9456,0.000946446,698.49,0.00129183,0.00593251,0.00916798,-0.0245267,-0.249084,0.665563,-0.412782,-4.74105e-06,-1.56225e-05,-1.70907e-06,0.573612,-0.22048550858278282,-4.741038761246763e-06,-1.5622377969370937e-05,0.9455855777297935,-1.709068539579306e-06,-0.33819345907093346
956,0.9466,0.000944843,698.627,0.00128965,0.00593637,0.00916197,-0.0245241,-0.249278,0.666077,-0.413101,-4.72315e-06,-1.56197e-05,-1.73957e-06,0.57406,-0.2206367197261626,-4.723138845919017e-06,-1.5619578013104096e-05,0.9465858657687498,-1.739568486924803e-06,-0.33840454168802236
957,0.9476,0.000943244,698.764,0.00128747,0.00594022,0.00915598,-0.0245215,-0.249472,0.66659,-0.41342,-4.70524e-06,-1.56169e-05,-1.77006e-06,0.574507,-0.2207879015374259,-4.705228930368399e-06,-1.5616778056837255e-05,0.9475847205022228,-1.7700584334923164e-06,-0.3386155569804953
958,0.9486,0.000941648,698.902,0.0012853,0.00594406,0.00914999,-0.0245189,-0.249666,0.667103,-0.413738,-4.68734e-06,-1.56142e-05,-1.80055e-06,0.574954,-0.22093905402226244,-4.687329014485542e-06,-1.5614078099024375e-05,0.9485840877796301,-1.8005483790606291e-06,-0.3388258437959998
959,0.9496,0.000940057,699.039,0.00128313,0.00594788,0.009144,-0.0245162,-0.24986,0.667616,-0.414057,-4.66944e-06,-1.56114e-05,-1.83102e-06,0.575401,-0.22109017718636126,-4.669429098158595e-06,-1.5611278142757534e-05,0.9495839678639746,-1.8310183237391087e-06,-0.33903672471453405
960,0.9506,0.000938468,699.175,0.00128097,0.00595168,0.00913802,-0.0245136,-0.250054,0.668129,-0.414375,-4.65153e-06,-1.56086e-05,-1.86148e-06,0.575847,-0.22124127103540991,-4.651519181608776e-06,-1.5608478186490693e-05,0.9505843610183935,-1.86147826741756e-06,-0.33924687761999195
961,0.9516,0.000936884,699.312,0.00127882,0.00595547,0.00913205,-0.024511,-0.250247,0.668642,-0.414693,-4.63363e-06,-1.56059e-05,-1.89193e-06,0.576294,-0.22139155696704116,-4.633619264726718e-06,-1.560577822856679e-05,0.9515852675061593,-1.891928210318028e-06,-0.3394569637074505
962,0.9526,0.000935303,699.449,0.00127666,0.00595925,0.00912609,-0.0245084,-0.250441,0.669154,-0.415011,-4.61573e-06,-1.56031e-05,-1.92237e-06,0.57674,-0.22154259235408336,-4.615719347511593e-06,-1.560297827229995e-05,0.9525847350049685,-1.9223681522184677e-06,-0.33966698299815445
963,0.9536,0.000933725,699.585,0.00127452,0.00596301,0.00912013,-0.0245057,-0.250634,0.669666,-0.415329,-4.59783e-06,-1.56003e-05,-1.9528e-06,0.577186,-0.22169282013631164,-4.597819429963401e-06,-1.5600178315922086e-05,0.9535847143621616,-1.952798093340924e-06,-0.33987693551334186
964,0.9546,0.000932151,699.721,0.00127238,0.00596676,0.00911417,-0.0245031,-0.250828,0.670178,-0.415647,-4.57993e-06,-1.55975e-05,-1.98321e-06,0.577631,-0.22184379708396773,-4.579919512082142e-06,-1.5597378359655245e-05,0.9545852058398774,-1.9832080334625246e-06,-0.34008682127424394
965,0.9556,0.000930581,699.858,0.00127024,0.0059705,0.00910822,-0.0245004,-0.251021,0.670689,-0.415964,-4.56203e-06,-1.55948e-05,-2.01362e-06,0.578077,-0.22199396673929273,-4.562019593978839e-06,-1.5594678401731343e-05,0.9555842541151565,-2.013617972695947e-06,-0.3402959805983956
966,0.9566,0.000929014,699.994,0.00126811,0.00597422,0.00910228,-0.0244978,-0.251214,0.671201,-0.416282,-4.54414e-06,-1.5592e-05,-2.04401e-06,0.578522,-0.22214410741467083,-4.5441296754322735e-06,-1.559187844535348e-05,0.956585769619354,-2.044007911039536e-06,-0.3405057331241461
967,0.9576,0.000927451,700.129,0.00126598,0.00597793,0.00909634,-0.0244951,-0.251407,0.671712,-0.416599,-4.52624e-06,-1.55892e-05,-2.0744e-06,0.578967,-0.2222942191156947,-4.526229756551814e-06,-1.558907848908664e-05,0.9575858404439634,-2.0743978483839243e-06,-0.3407147596742871
968,0.9586,0.000925891,700.265,0.00126386,0.00598163,0.00909042,-0.0244924,-0.2516,0.672222,-0.416916,-4.50834e-06,-1.55864e-05,-2.10477e-06,0.579412,-0.22244430184795583,-4.50832983744931e-06,-1.5586278532708775e-05,0.9585844638499132,-2.1047677849495017e-06,-0.3409237199735131
969,0.9596,0.000924335,700.401,0.00126174,0.00598531,0.00908449,-0.0244897,-0.251793,0.672733,-0.417233,-4.49045e-06,-1.55837e-05,-2.13513e-06,0.579856,-0.22259435561704466,-4.490439917903544e-06,-1.5583578574784873e-05,0.9595855562682698,-2.1351277206260733e-06,-0.34113261404282225
970,0.9606,0.000922782,700.536,0.00125963,0.00598898,0.00907857,-0.0244871,-0.251986,0.673243,-0.41755,-4.47256e-06,-1.55809e-05,-2.16548e-06,0.5803,-0.2227443804285505,-4.472549998135733e-06,-1.558077861840701e-05,0.9605851997893973,-2.1654776553026167e-06,-0.34134144190320603
971,0.9616,0.000921233,700.671,0.00125752,0.00599263,0.00907266,-0.0244844,-0.252178,0.673753,-0.417866,-4.45466e-06,-1.55781e-05,-2.19582e-06,0.580745,-0.22289359918204954,-4.454650078034028e-06,-1.5577978662029146e-05,0.9615853532587462,-2.1958175892011766e-06,-0.3415495451255238
972,0.9626,0.000919687,700.807,0.00125542,0.00599627,0.00906675,-0.0244817,-0.252371,0.674262,-0.418182,-4.43677e-06,-1.55753e-05,-2.22615e-06,0.581188,-0.22304356624512034,-4.436760157600084e-06,-1.5575178705651282e-05,0.9625840543514208,-2.2261475220997085e-06,-0.34175758259761235
973,0.9636,0.000918145,700.941,0.00125332,0.0059999,0.00906085,-0.024479,-0.252563,0.674772,-0.418499,-4.41888e-06,-1.55725e-05,-2.25647e-06,0.581632,-0.22319272756045672,-4.41887023672205e-06,-1.557237874927342e-05,0.9635852274965917,-2.2564674542202567e-06,-0.3419662123743623
974,0.9646,0.000916606,701.076,0.00125122,0.00600351,0.00905496,-0.0244763,-0.252756,0.675281,-0.418815,-4.40099e-06,-1.55698e-05,-2.28678e-06,0.582075,-0.22334263689732126,-4.400980315621972e-06,-1.5569678791238495e-05,0.9645849467843621,-2.286777385340777e-06,-0.34217411820040133
975,0.9656,0.00091507,701.211,0.00124913,0.00600711,0.00904907,-0.0244736,-0.252948,0.67579,-0.419131,-4.38311e-06,-1.5567e-05,-2.31707e-06,0.582519,-0.2234917407966046,-4.383100394189654e-06,-1.556687883486063e-05,0.9655851750587763,-2.317067315571464e-06,-0.34238195833857876
976,0.9666,0.000913538,701.346,0.00124705,0.0060107,0.00904319,-0.0244709,-0.25314,0.676298,-0.419446,-4.36522e-06,-1.55642e-05,-2.34736e-06,0.582962,-0.2236408160706873,-4.365210472423442e-06,-1.5564078878482768e-05,0.9665839459940446,-2.3473572449139724e-06,-0.3425890753990525
977,0.9676,0.00091201,701.48,0.00124497,0.00601427,0.00903731,-0.0244682,-0.253332,0.676807,-0.419762,-4.34733e-06,-1.55614e-05,-2.37763e-06,0.583404,-0.22378986272506507,-4.347320550324163e-06,-1.5561278921993882e-05,0.9675851920180518,-2.37762717347767e-06,-0.3427967844314709
978,0.9686,0.000910485,701.614,0.00124289,0.00601784,0.00903144,-0.0244655,-0.253524,0.677315,-0.420077,-4.32945e-06,-1.55586e-05,-2.4079e-06,0.583847,-0.22393888076523227,-4.3294406278926445e-06,-1.5558478965616018e-05,0.9685849792200456,-2.407897101042167e-06,-0.3430037708423037
979,0.9696,0.000908963,701.748,0.00124082,0.00602138,0.00902558,-0.0244627,-0.253716,0.677823,-0.420393,-4.31157e-06,-1.55558e-05,-2.43815e-06,0.584289,-0.2240878701966822,-4.311560705239081e-06,-1.5555679009127132e-05,0.9695852744429643,-2.4381470277168305e-06,-0.3432113488516647
980,0.9706,0.000907445,701.882,0.00123876,0.00602492,0.00901972,-0.02446,-0.253908,0.67833,-0.420708,-4.29369e-06,-1.55531e-05,-2.46839e-06,0.584731,-0.22423683102490732,-4.293680782141429e-06,-1.555297905120323e-05,0.9705841073598556,-2.4683869535024883e-06,-0.3434182046952706
981,0.9716,0.00090593,702.016,0.0012367,0.00602844,0.00901387,-0.0244573,-0.2541,0.678838,-0.421023,-4.27581e-06,-1.55503e-05,-2.49862e-06,0.585173,-0.22438576325539883,-4.27580085871071e-06,-1.5550179094714345e-05,0.9715854183978645,-2.4986168783991403e-06,-0.3436249953895474
982,0.9726,0.000904418,702.15,0.00123464,0.00603195,0.00900802,-0.0244546,-0.254291,0.679345,-0.421337,-4.25793e-06,-1.55475e-05,-2.52883e-06,0.585615,-0.22453389142792635,-4.257920935057946e-06,-1.554737913822546e-05,0.9725852656448517,-2.5288268025169813e-06,-0.34383106478640657
983,0.9736,0.00090291,702.284,0.00123259,0.00603545,0.00900218,-0.0244518,-0.254483,0.679852,-0.421652,-4.24005e-06,-1.55447e-05,-2.55904e-06,0.586056,-0.22468276662829556,-4.240041010961093e-06,-1.5544579181736573e-05,0.97358561994292,-2.5590367256356217e-06,-0.3440377254502355
984,0.9746,0.000901406,702.417,0.00123054,0.00603893,0.00899634,-0.0244491,-0.254674,0.680358,-0.421966,-4.22218e-06,-1.55419e-05,-2.58923e-06,0.586497,-0.22483083807859594,-4.222171086643023e-06,-1.5541779225247687e-05,0.9745845069637147,-2.589226647975451e-06,-0.34424366527020034
985,0.9756,0.000899904,702.55,0.0012285,0.0060424,0.00899051,-0.0244463,-0.254865,0.680865,-0.422281,-4.2043e-06,-1.55391e-05,-2.61942e-06,0.586938,-0.22497888124995002,-4.204291161991058e-06,-1.55389792687588e-05,0.9755858751341266,-2.61941656931608e-06,-0.3444501959853449
986,0.9766,0.000898406,702.683,0.00122646,0.00604586,0.00898469,-0.0244436,-0.255057,0.681371,-0.422595,-4.18643e-06,-1.55363e-05,-2.64959e-06,0.587379,-0.22512767102047493,-4.186421236895832e-06,-1.5536179312269915e-05,0.9765857745401598,-2.6495864898778976e-06,-0.34465600630989346
987,0.9776,0.000896911,702.817,0.00122442,0.0060493,0.00897887,-0.0244408,-0.255248,0.681876,-0.422909,-4.16856e-06,-1.55336e-05,-2.67975e-06,0.587819,-0.22527565750215106,-4.168551311578561e-06,-1.553347935423499e-05,0.9775842024381283,-2.6797464094396872e-06,-0.34486175202014513
988,0.9786,0.00089542,702.949,0.00122239,0.00605274,0.00897306,-0.0244381,-0.255439,0.682382,-0.423223,-4.15069e-06,-1.55308e-05,-2.7099e-06,0.58826,-0.22542361572110847,-4.150681385928223e-06,-1.5530679397746106e-05,0.9785851132536425,-2.7098963282234934e-06,-0.34506743313638566
989,0.9796,0.000893932,703.082,0.00122037,0.00605616,0.00896726,-0.0244353,-0.25563,0.682887,-0.423536,-4.13283e-06,-1.5528e-05,-2.74004e-06,0.5887,-0.22557154568274473,-4.1328214598346236e-06,-1.552787944125722e-05,0.9795845510726449,-2.7400362461182937e-06,-0.34527239495161655
990,0.9806,0.000892447,703.215,0.00121835,0.00605956,0.00896145,-0.0244325,-0.25582,0.683392,-0.42385,-4.11496e-06,-1.55252e-05,-2.77017e-06,0.589139,-0.2257186731115166,-4.114951533518152e-06,-1.552507948465731e-05,0.980584493735208,-2.770166163124088e-06,-0.34547794714621827
991,0.9816,0.000890966,703.347,0.00121633,0.00606296,0.00895566,-0.0244298,-0.256011,0.683897,-0.424163,-4.0971e-06,-1.55224e-05,-2.80029e-06,0.589579,-0.2258665467225729,-4.097091606869441e-06,-1.5522279528168426e-05,0.9815849414963422,-2.800286079240877e-06,-0.3456827804906709
992,0.9826,0.000889488,703.48,0.00121432,0.00606634,0.00894987,-0.024427,-0.256202,0.684402,-0.424476,-4.07924e-06,-1.55196e-05,-2.83039e-06,0.590018,-0.22601439209246665,-4.079231679887663e-06,-1.551947957167954e-05,0.982585894611187,-2.8303859944678322e-06,-0.3458875497323193
993,0.9836,0.000888013,703.612,0.00121231,0.00606971,0.00894409,-0.0244242,-0.256392,0.684906,-0.424789,-4.06137e-06,-1.55168e-05,-2.86048e-06,0.590458,-0.2261614353884136,-4.061361752683013e-06,-1.551667961507963e-05,0.983585369748649,-2.860475908805782e-06,-0.3460922548912244
994,0.9846,0.000886541,703.744,0.00121031,0.00607307,0.00893831,-0.0244214,-0.256583,0.68541,-0.425102,-4.04352e-06,-1.5514e-05,-2.89057e-06,0.590897,-0.22630922443995072,-4.043511825035928e-06,-1.5513879658479723e-05,0.9845853487485425,-2.890565822255553e-06,-0.3462968959874412
995,0.9856,0.000885073,703.876,0.00120831,0.00607641,0.00893254,-0.0244186,-0.256773,0.685914,-0.425415,-4.02566e-06,-1.55112e-05,-2.92064e-06,0.591335,-0.22645621172307295,-4.025651897054949e-06,-1.5511079701990838e-05,0.9855858318648789,-2.9206357349265133e-06,-0.3465014730410181
996,0.9866,0.000883608,704.008,0.00120632,0.00607975,0.00892678,-0.0244158,-0.256963,0.686417,-0.425727,-4.00781e-06,-1.55084e-05,-2.95069e-06,0.591774,-0.2266031710812645,-4.007801968741731e-06,-1.550827974539093e-05,0.9865848327659708,-2.9506856467076403e-06,-0.3467053327776566
997,0.9876,0.000882146,704.139,0.00120433,0.00608307,0.00892102,-0.024413,-0.257154,0.68692,-0.42604,-3.98995e-06,-1.55057e-05,-2.98074e-06,0.592212,-0.22675087576934128,-3.989942040205641e-06,-1.5505579787244983e-05,0.9875843362909147,-2.980735557600589e-06,-0.34690978201052314
998,0.9886,0.000880687,704.271,0.00120234,0.00608638,0.00891527,-0.0244102,-0.257344,0.687423,-0.426352,-3.9721e-06,-1.55029e-05,-3.01078e-06,0.59265,-0.2268977791466823,-3.972092111226289e-06,-1.5502779830645075e-05,0.9885843426925949,-3.0107754676045317e-06,-0.34711351437463434
999,0.9896,0.000879232,704.402,0.00120036,0.00608967,0.00890952,-0.0244074,-0.257534,0.687926,-0.426664,-3.95425e-06,-1.55001e-05,-3.0408e-06,0.593088,-0.2270446546150331,-3.9542421819138696e-06,-1.5499979874045167e-05,0.9895848522240216,-3.0407953767186413e-06,-0.34731718318416305
