,Time,S11,S22,S33,S12,S13,S23,LE11,LE22,LE33,LE12,LE13,LE23,SDV_EPBAR,E11,E12,E13,E22,E23,E33
0,1e-05,1.07449,1.07449,-1.33227e-15,0.0,0.0,-2.91411e-39,9.99995e-06,9.99995e-06,-8.57139e-06,0.0,0.0,0.0,0.0,9.999999999621423e-06,0.0,0.0,9.999999999621423e-06,0.0,-8.571353265707238e-06
1,2e-05,2.14898,2.14898,-1.22125e-15,0.0,0.0,-5.82819e-39,1.99998e-05,1.99998e-05,-1.71427e-05,0.0,0.0,0.0,0.0,1.9999999997244444e-05,0.0,0.0,1.9999999997244444e-05,0.0,-1.714255306473067e-05
2,3.5e-05,3.76068,3.76068,-6.32827e-15,0.0,0.0,-1.09277e-38,3.49994e-05,3.49994e-05,-2.99995e-05,0.0,0.0,0.0,0.0,3.5000012486241516e-05,0.0,0.0,3.5000012486241516e-05,0.0,-2.9999050019546836e-05
3,5.75e-05,6.17819,6.17819,-2.85327e-14,0.0,0.0,-2.4587e-38,5.74983e-05,5.74983e-05,-4.92843e-05,0.0,0.0,0.0,0.0,5.749995305892597e-05,0.0,0.0,5.749995305892597e-05,0.0,-4.928308554885685e-05
4,9.125e-05,9.80435,9.80435,-1.48437e-13,0.0,0.0,-5.53195e-38,9.12458e-05,9.12458e-05,-7.82107e-05,0.0,0.0,0.0,0.0,9.124996302456445e-05,0.0,0.0,9.124996302456445e-05,0.0,-7.820764162291827e-05
5,0.00014188,15.2434,15.2434,-7.47069e-13,0.0,0.0,-1.24464e-37,0.000141865,0.000141865,-0.000121599,0.0,0.0,0.0,0.0,0.00014187506331508892,0.0,0.0,0.00014187506331508892,0.0,-0.00012159160714120265
6,0.00021781,23.4014,23.4014,-3.77665e-12,0.0,0.0,-2.8003e-37,0.000217789,0.000217789,-0.000186676,0.0,0.0,0.0,0.0,0.0002178127177461242,0.0,0.0,0.0002178127177461242,0.0,-0.00018665857711963607
7,0.00033172,35.6372,35.6372,-1.9135e-11,0.0,0.0,-6.30019e-37,0.000331664,0.000331664,-0.000284283,0.0,0.0,0.0,0.0,0.0003317190065854625,0.0,0.0,0.0003317190065854625,0.0,-0.00028424259541681707
8,0.00050258,53.9884,53.9884,-9.68222e-11,0.0,0.0,-1.41738e-36,0.000502452,0.000502452,-0.000430673,0.0,0.0,0.0,0.0,0.0005025782501502096,0.0,0.0,0.0005025782501502096,0.0,-0.00043058027369557994
9,0.00075887,81.5092,81.5092,-4.8993e-10,0.0,0.0,-3.18853e-36,0.000758579,0.000758579,-0.000650211,0.0,0.0,0.0,0.0,0.0007588667938165372,0.0,0.0,0.0007588667938165372,0.0,-0.0006499996586357693
10,0.0011433,122.777,122.777,-2.4781e-09,0.0,0.0,-7.1723e-36,0.00114265,0.00114265,-0.000979412,0.0,0.0,0.0,0.0,0.0011433030732321825,0.0,0.0,0.0011433030732321825,0.0,-0.0009789325326119425
11,0.00172,184.65,184.65,-1.25287e-08,0.0,0.0,-1.61313e-35,0.00171847,0.00171847,-0.00147298,0.0,0.0,0.0,0.0,0.001719947415747436,0.0,0.0,0.001719947415747436,0.0,-0.0014718956974104636
12,0.0025849,277.392,277.392,-6.33008e-08,0.0,0.0,-3.62737e-35,0.00258159,0.00258159,-0.00221279,0.0,0.0,0.0,0.0,0.0025849251728629064,0.0,0.0,0.0025849251728629064,0.0,-0.0022103435850081565
13,0.0035849,324.507,312.327,0.169689,0.00238409,0.024819,-0.0119536,0.00357852,0.00357852,-0.00376993,-8.56534e-12,-3.2967e-07,1.40045e-06,0.00117458,0.00358493054717135,-8.565370634983083e-12,-3.296699456756258e-07,0.00358493054717135,1.4004509807374887e-06,-0.0037628327354289892
14,0.0045849,337.447,312.765,-0.330091,0.00648152,-0.00503915,-0.0937285,0.00457445,0.00457445,-0.00569459,6.86848e-10,-5.20762e-06,2.70883e-06,0.0029531,0.004584928768509355,6.868479118793402e-10,-5.207606440404966e-06,0.004584928768509355,2.7088336689296e-06,-0.005678406556297144
15,0.0053349,344.543,315.74,-0.217055,0.00525523,0.00258504,-0.078896,0.00532075,0.00532075,-0.00713348,9.72213e-11,-6.16931e-06,4.18443e-06,0.00429003,0.005334930329121246,9.722134208800526e-11,-6.169290969859631e-06,0.005334930329121246,4.1844387548284345e-06,-0.007108097123487478
16,0.0060849,350.878,319.451,0.0952496,0.00448853,0.0277885,-0.0329764,0.00606649,0.00606649,-0.00857027,3.68579e-10,-6.14036e-06,7.00313e-06,0.00562829,0.006084928417094071,3.6857894514241707e-10,-6.140341147986561e-06,0.006084928417094071,7.003154522067234e-06,-0.008533649925377751
17,0.0070849,358.349,323.218,-0.293887,0.00554401,0.00456833,-0.0973815,0.00705995,0.00705995,-0.0105003,2.49573e-10,-9.38615e-06,7.09631e-06,0.00742442,0.007084930198717254,2.495730289098219e-10,-9.386105950248691e-06,0.007084930198717254,7.096335178813362e-06,-0.010445364298536042
18,0.0080849,365.027,327.749,-0.431644,0.00559542,-0.00136899,-0.12004,0.00805242,0.00805242,-0.0124271,-4.52506e-11,-1.18386e-05,7.98559e-06,0.00922155,0.008084927931183428,-4.525058105997459e-11,-1.1838529924035335e-05,0.008084927931183428,7.985621884865068e-06,-0.012350202460202131
19,0.0090849,371.255,332.644,-0.37307,0.00539447,0.0052771,-0.11321,0.00904391,0.00904391,-0.0143513,4.16833e-10,-1.35892e-05,9.73626e-06,0.0110194,0.009084929720343693,4.168330125509101e-10,-1.3589107667244527e-05,0.009084929720343693,9.73630739742326e-06,-0.014248810963580105
20,0.010085,377.697,338.203,0.357609,0.00516515,0.0580746,-0.00278421,0.0100344,0.0100344,-0.0162652,2.08726e-11,-1.29514e-05,1.62121e-05,0.0128129,0.010084913407549134,2.0872636952162793e-11,-1.295131613099354e-05,0.010084913407549134,1.621223141690109e-05,-0.016133635905703714
21,0.011085,383.179,343.002,0.412028,0.00497732,0.0628486,0.000309548,0.0110239,0.0110239,-0.0181899,3.92439e-11,-1.38427e-05,1.88904e-05,0.0146148,0.011084887084752193,3.924394142984511e-11,-1.3842604190239527e-05,0.011084887084752193,1.889057842463515e-05,-0.01802546231351454
22,0.012085,387.797,347.051,-0.170147,0.00480347,0.0248196,-0.0896147,0.0120125,0.0120125,-0.0201246,-2.82806e-10,-1.66047e-05,1.7177e-05,0.0164243,0.012084939848757026,-2.828060008397415e-10,-1.66045621426969e-05,0.012084939848757026,1.717714752547117e-05,-0.019923451839384154
23,0.013085,393.203,352.014,0.297765,0.00463196,0.0586126,-0.0221654,0.0130001,0.0130001,-0.0220426,-1.80982e-10,-1.6383e-05,2.15671e-05,0.0182248,0.013084968668301,-1.8098200715854773e-10,-1.6382865799413615e-05,0.013084968668301,2.156733257163701e-05,-0.02180143709518012
24,0.014085,397.356,355.727,-0.351303,0.00450257,0.0144662,-0.121783,0.0139867,0.0139867,-0.023978,3.92779e-10,-1.93421e-05,1.89612e-05,0.0200372,0.014084971518679934,3.9277892049938146e-10,-1.934191294283849e-05,0.014084971518679934,1.89613797647592e-05,-0.02369281172021309
25,0.015085,402.645,360.662,0.358588,0.00436715,0.0664169,-0.0165513,0.0149723,0.0149723,-0.0258916,-9.41805e-11,-1.82861e-05,2.45412e-05,0.0218372,0.015084946373268515,-9.418055224585942e-11,-1.8285932810280237e-05,0.015084946373268515,2.454150113773146e-05,-0.025559286742838805
26,0.016085,407.102,364.752,0.351851,0.00427318,0.0670518,-0.0200335,0.0159569,0.0159569,-0.027816,-2.38041e-10,-1.8971e-05,2.62682e-05,0.0236447,0.01608489120352563,-2.3804103133073795e-10,-1.8970820051755766e-05,0.01608489120352563,2.6268545012086975e-05,-0.027432697277661733
27,0.017085,411.026,368.317,-0.0629674,0.004181,0.0389178,-0.0829374,0.0169406,0.0169406,-0.0297462,1.38301e-10,-2.09366e-05,2.51718e-05,0.0254566,0.01708490568748644,1.383009262667656e-10,-2.0936380830893775e-05,0.01708490568748644,2.517211681252185e-05,-0.029308136117080053
28,0.018085,414.986,371.944,-0.304207,0.00408293,0.0213905,-0.122247,0.0179233,0.0179233,-0.031673,-2.89365e-10,-2.26855e-05,2.43916e-05,0.0272671,0.018084886284298385,-2.89364976424622e-10,-2.2685242686004692e-05,0.018084886284298385,2.439189747760473e-05,-0.03117666448209777
29,0.019085,419.032,375.679,-0.330732,0.00399178,0.0206413,-0.126845,0.0189051,0.0189051,-0.0335958,-9.76008e-11,-2.38175e-05,2.47103e-05,0.0290757,0.01908493286818902,-9.760081631782214e-11,-2.3817216365573657e-05,0.01908493286818902,2.4710605301958566e-05,-0.033037728191593896
30,0.020085,423.695,380.061,0.395333,0.00391332,0.0770795,-0.0163261,0.0198859,0.0198859,-0.0355058,8.82883e-11,-2.23006e-05,3.01646e-05,0.0308769,0.020084941694509917,8.828826558726632e-11,-2.2300351343429448e-05,0.020084941694509917,3.016505495612165e-05,-0.03488286346562475
31,0.021085,427.503,383.564,0.339395,0.00385997,0.0724679,-0.0287055,0.0208657,0.0208657,-0.0374273,-1.29847e-10,-2.29359e-05,3.12014e-05,0.0326857,0.021084910725212014,-1.2984702202345488e-10,-2.2935636974308338e-05,0.021084910725212014,3.120188676875024e-05,-0.03673555549956731
32,0.022085,430.929,386.687,-0.00957894,0.00380073,0.0479573,-0.080896,0.0218446,0.0218446,-0.0393525,9.38063e-11,-2.45037e-05,3.0258e-05,0.0344972,0.022084940128856534,9.380629606425828e-11,-2.45033997867683e-05,0.022084940128856534,3.025845777782088e-05,-0.03858824823385931
33,0.023085,434.981,390.474,0.38968,0.00373469,0.0796006,-0.0212506,0.0228225,0.0228225,-0.0412649,6.48589e-11,-2.37474e-05,3.37709e-05,0.0363012,0.02308492585513977,6.485900705399672e-11,-2.3747118032768633e-05,0.02308492585513977,3.377147024319349e-05,-0.04042509511512804
34,0.024085,437.88,393.076,-0.316437,0.0036843,0.0255872,-0.12991,0.0237995,0.0237995,-0.0431938,-2.39842e-10,-2.65309e-05,3.02838e-05,0.0381156,0.024084968268871965,-2.398420351212849e-10,-2.6530548058789627e-05,0.024084968268871965,3.0284258558888055e-05,-0.04227423517269757
35,0.025085,441.971,396.927,0.301486,0.00361779,0.0731029,-0.039222,0.0247755,0.0247755,-0.0451006,-5.11366e-10,-2.52461e-05,3.46024e-05,0.0399166,0.02508496311600683,-5.113659495847855e-10,-2.5245781319904737e-05,0.02508496311600683,3.460299866997474e-05,-0.044098686676215415
36,0.026085,444.726,399.399,-0.385406,0.00357553,0.0212349,-0.142321,0.0257505,0.0257505,-0.047027,-8.53486e-10,-2.79519e-05,3.11208e-05,0.0417299,0.026084908349131686,-8.534859485820334e-10,-2.795150934931101e-05,0.026084908349131686,3.112128425719618e-05,-0.0459383624216021
37,0.027085,448.731,403.178,0.301806,0.00351671,0.0748916,-0.0406768,0.0267246,0.0267246,-0.0489305,-4.12969e-10,-2.63963e-05,3.57391e-05,0.0435292,0.027084904627469708,-4.129689923360047e-10,-2.6395951620683533e-05,0.027084904627469708,3.573973864923197e-05,-0.047752691413291415
38,0.028085,451.306,405.481,-0.419851,0.0034819,0.0196867,-0.148819,0.0276978,0.0276978,-0.0508551,-1.54862e-10,-2.91911e-05,3.19685e-05,0.0453418,0.02808495019989854,-1.548620121027966e-10,-2.919067394402397e-05,0.02808495019989854,3.196901099800087e-05,-0.04958362411170081
39,0.029085,455.21,409.172,0.306346,0.00342827,0.0768936,-0.0412769,0.02867,0.02867,-0.0527556,-3.42612e-10,-2.74578e-05,3.67284e-05,0.0471394,0.029084940404958015,-3.4261204984176175e-10,-2.745742303811305e-05,0.029084940404958015,3.6729074496033576e-05,-0.05138817511632954
40,0.030085,457.628,411.328,-0.43872,0.00339832,0.0192473,-0.152761,0.0296413,0.0296413,-0.0546781,-8.37039e-11,-3.03029e-05,3.27607e-05,0.0489508,0.03008497619633399,-8.370393267398413e-11,-3.030244087176559e-05,0.03008497619633399,3.276123663753516e-05,-0.053210129434916875
41,0.031085,461.423,414.92,0.304888,0.00334888,0.078306,-0.0426155,0.0306116,0.0306116,-0.0565759,-7.03709e-11,-2.84612e-05,3.75471e-05,0.0507468,0.031084952708887226,-7.037093130435323e-11,-2.8460794983864446e-05,0.031084952708887226,3.75478049012834e-05,-0.05500524332892098
42,0.032085,463.718,416.963,-0.441595,0.00332256,0.0199903,-0.154142,0.031581,0.031581,-0.0584959,-6.38634e-10,-3.12868e-05,3.35277e-05,0.0525567,0.03208497109264119,-6.386340345443386e-10,-3.128631057314202e-05,0.03208497109264119,3.352826205960113e-05,-0.05681789256162029
43,0.033085,467.392,420.443,0.295858,0.00327686,0.078997,-0.0449623,0.0325494,0.0325494,-0.0603911,-6.05613e-10,-2.94135e-05,3.82126e-05,0.0543511,0.033084926278801996,-6.0561300418982e-10,-2.9413067427208617e-05,0.033084926278801996,3.8213330110670185e-05,-0.05860371850844537
44,0.034085,469.598,422.407,-0.426961,0.00325295,0.0220714,-0.152764,0.0335169,0.0335169,-0.0623082,-5.99932e-10,-3.21376e-05,3.43032e-05,0.056159,0.034084919613748266,-5.999319929728131e-10,-3.213708359284251e-05,0.034084919613748266,3.430378836144499e-05,-0.06040674048076489
45,0.035085,473.135,425.758,0.279111,0.00321096,0.0789453,-0.0483676,0.0344835,0.0344835,-0.0642012,-1.99086e-10,-3.03153e-05,3.87491e-05,0.057952,0.035084949333548554,-1.990859699319003e-10,-3.0314840495981876e-05,0.035084949333548554,3.8749850756136794e-05,-0.06218370809055285
46,0.036085,475.286,427.677,-0.394227,0.00318909,0.0255752,-0.148594,0.0354491,0.0354491,-0.0661148,-6.73681e-10,-3.28519e-05,3.51136e-05,0.0597576,0.03608491006397019,-6.736809998741933e-10,-3.285136038222447e-05,0.03608491006397019,3.5114216489606775e-05,-0.06397659736318484
47,0.037085,477.99,430.181,-0.44441,0.0031504,0.0216195,-0.156758,0.0364138,0.0364138,-0.0680171,-8.95543e-10,-3.36873e-05,3.4573e-05,0.0615561,0.03708490344596327,-8.955429731116737e-10,-3.368673258929977e-05,0.03708490344596327,3.457359765302037e-05,-0.0657555021402918
48,0.038085,481.565,433.585,0.449143,0.00311708,0.0961366,-0.0216138,0.0373776,0.0373776,-0.0699031,-5.41974e-10,-3.10524e-05,4.02884e-05,0.0633443,0.038084927710186456,-5.419740212175839e-10,-3.1051917879221236e-05,0.038084927710186456,4.028921158849563e-05,-0.06751582675535428
49,0.039085,484.122,435.936,0.336078,0.00310355,0.0857765,-0.0415994,0.0383404,0.0383404,-0.0718036,-5.32214e-10,-3.14692e-05,4.0424e-05,0.0651414,0.039084877177014477,-5.322140506081041e-10,-3.1468704849935136e-05,0.039084877177014477,4.0424817060902285e-05,-0.06928632997301643
50,0.040085,486.455,438.064,0.0382975,0.0030815,0.0628727,-0.0849312,0.0393024,0.0393024,-0.0737056,4.71158e-10,-3.25345e-05,3.93192e-05,0.0669394,0.040084957790507136,4.711580015026584e-10,-3.253397075886344e-05,0.040084957790507136,3.9319973009765974e-05,-0.0710548649634769
51,0.041085,489.296,440.724,0.307527,0.00305242,0.0856453,-0.0448405,0.0402634,0.0402634,-0.0755972,5.29645e-10,-3.17791e-05,4.14715e-05,0.0687306,0.04108495985897753,5.296449945291215e-10,-3.177859504976954e-05,0.04108495985897753,4.1472359954441984e-05,-0.07281039667555578
52,0.042085,491.382,442.609,-0.158133,0.00303044,0.0470298,-0.115739,0.0412234,0.0412234,-0.077499,5.26501e-10,-3.35243e-05,3.90901e-05,0.070528,0.04208488130594268,5.26501064967988e-10,-3.352373806697617e-05,0.04208488130594268,3.909086402797968e-05,-0.07457205017587598
53,0.043085,493.759,444.803,-0.282971,0.00299901,0.0361433,-0.136002,0.0421826,0.0421826,-0.0793939,-1.00732e-09,-3.43935e-05,3.82617e-05,0.072321,0.043084928670131584,-1.0073200051863296e-09,-3.439290855034027e-05,0.043084928670131584,3.826243198812307e-05,-0.07632398320483524
54,0.044085,496.874,447.76,0.38864,0.00297017,0.0935483,-0.0341481,0.0431408,0.0431408,-0.0812748,8.32212e-11,-3.23316e-05,4.26119e-05,0.0741049,0.04408489165453977,8.322120770287711e-11,-3.233107733946472e-05,0.04408489165453977,4.2612807899855554e-05,-0.07805969256524348
55,0.045085,498.517,449.199,-0.418325,0.00295635,0.0261879,-0.155707,0.0440982,0.0440981,-0.0831777,1.27638e-10,-3.5249e-05,3.80637e-05,0.0759024,0.04508497719436666,1.2763790024905575e-10,-3.5248378761343346e-05,0.04508487268587413,3.8064424431771826e-05,-0.07981238464849949
56,0.046085,501.557,452.089,0.250021,0.00292443,0.0815479,-0.0574798,0.0450546,0.0450546,-0.0850556,5.61547e-10,-3.33551e-05,4.20459e-05,0.0776841,0.04608497458908456,5.615470310971205e-10,-3.335454372488389e-05,0.04608497458908456,4.2046783941263044e-05,-0.08153878346185561
57,0.047085,503.345,453.686,-0.335707,0.00290961,0.0335049,-0.144043,0.04601,0.04601,-0.086952,-8.51789e-10,-3.55113e-05,3.88028e-05,0.079477,0.04708488175340064,-8.517889726888939e-10,-3.551066948126458e-05,0.04708488175340064,3.8803552838473365e-05,-0.08327890281022843
58,0.048085,505.646,455.822,-0.357683,0.00288181,0.0315303,-0.148048,0.0469646,0.0469646,-0.088838,7.68673e-10,-3.60658e-05,3.83818e-05,0.0812632,0.048084906217258805,7.686729031064488e-10,-3.6065149636832494e-05,0.048084906217258805,3.838253659060875e-05,-0.08500620943737702
59,0.049085,508.643,458.674,0.365247,0.00285799,0.0938955,-0.0387674,0.0479183,0.0479183,-0.0907106,-5.58016e-10,-3.37942e-05,4.2886e-05,0.0830407,0.0490849415833845,-5.580159667673001e-10,-3.3793628982481394e-05,0.0490849415833845,4.288691961762403e-05,-0.08671802353781743
60,0.050085,510.138,459.979,-0.423335,0.00284842,0.027182,-0.157244,0.048871,0.048871,-0.0926057,5.86423e-10,-3.6637e-05,3.83869e-05,0.0848321,0.05008488105276543,5.864229102314766e-10,-3.6636328873296264e-05,0.05008488105276543,3.838763678642998e-05,-0.08844714526462083
61,0.051085,512.359,462.043,-0.431642,0.00282088,0.0262589,-0.159196,0.0498229,0.0498229,-0.0944869,-7.76673e-10,-3.71777e-05,3.79142e-05,0.0866145,0.051084932750131484,-7.766729481772927e-10,-3.7177008917921306e-05,0.051084932750131484,3.7914918752379734e-05,-0.09016034655257832
62,0.052085,515.365,464.914,0.392923,0.00279806,0.097654,-0.0348853,0.0507738,0.0507738,-0.0963534,-9.21652e-10,-3.45391e-05,4.29443e-05,0.0883873,0.052084884764521444,-9.216519769594811e-10,-3.453850353218879e-05,0.052084884764521444,4.294522211956142e-05,-0.09185697839151064
63,0.053085,517.412,466.795,0.259519,0.00279078,0.0851326,-0.0573063,0.0517239,0.0517239,-0.0982336,-7.83148e-10,-3.49421e-05,4.26626e-05,0.0901685,0.05308494561721555,-7.831479909015115e-10,-3.494148953198106e-05,0.05308494561721555,4.2663510061657917e-05,-0.09356286469447828
64,0.054085,519.392,468.614,0.0881127,0.00277638,0.0719173,-0.0814317,0.052673,0.052673,-0.100113,-7.06556e-10,-3.54826e-05,4.20959e-05,0.0919487,0.0540849029938113,-7.065560359009737e-10,-3.5481970499962046e-05,0.0540849029938113,4.20967860448318e-05,-0.09526482281556159
65,0.055085,521.618,470.69,0.196842,0.00275783,0.0815323,-0.0654085,0.0536213,0.0536213,-0.101986,-1.17653e-09,-3.5133e-05,4.30595e-05,0.093725,0.05508496581216149,-1.1765299845478694e-09,-3.51323828433614e-05,0.05508496581216149,4.3060427073582375e-05,-0.09695780582890245
66,0.056085,523.514,472.429,-0.00679957,0.00274174,0.0640216,-0.0964603,0.0545686,0.0545686,-0.103863,-3.29758e-11,-3.58829e-05,4.21004e-05,0.095503,0.056084921354439876,-3.29758442774164e-11,-3.588225621642405e-05,0.056084921354439876,4.210128623438614e-05,-0.09865122625511347
67,0.057085,525.845,474.62,0.262349,0.00272227,0.0875011,-0.056419,0.0555151,0.0555151,-0.10573,-8.96994e-10,-3.49852e-05,4.3962e-05,0.097275,0.057084978935092456,-8.969940346048588e-10,-3.4984588024977725e-05,0.057084978935092456,4.396296634290309e-05,-0.10033247448211624
68,0.058085,527.512,476.129,-0.123654,0.00270851,0.0541482,-0.114672,0.0564606,0.0564606,-0.107607,2.5796e-10,-3.63665e-05,4.18791e-05,0.0990523,0.05808492543288879,2.579600977270502e-10,-3.6365838746887924e-05,0.05808492543288879,4.1879976941716635e-05,-0.102019566596244
69,0.059085,530.058,478.546,0.415442,0.0026879,0.101245,-0.0340629,0.0574053,0.0574053,-0.109467,-5.93388e-10,-3.45124e-05,4.53324e-05,0.100819,0.05908497055888562,-5.93388005398765e-10,-3.451180445401825e-05,0.05908497055888562,4.53334275287709e-05,-0.10368825783843605
70,0.060085,531.318,479.641,-0.339532,0.00267788,0.0356116,-0.147548,0.058349,0.058349,-0.111347,3.21158e-10,-3.71772e-05,4.10218e-05,0.102597,0.06008490078847206,3.2115798909160276e-10,-3.717650893642066e-05,0.06008490078847206,4.102264140559697e-05,-0.10537174094373902
71,0.061085,533.263,481.449,-0.366822,0.00265367,0.0327909,-0.152532,0.0592919,0.0592919,-0.113213,1.00874e-11,-3.76575e-05,4.04466e-05,0.104367,0.06108492622932937,1.0087486401744172e-11,-3.7656790965234777e-05,0.06108492622932937,4.044741797470941e-05,-0.10703956071535148
72,0.062085,535.916,483.984,0.353033,0.0026338,0.0965442,-0.0440408,0.0602339,0.0602339,-0.115066,2.63931e-09,-3.52478e-05,4.47623e-05,0.106128,0.06208493916198066,2.6393101038024724e-09,-3.5247178803543555e-05,0.06208493916198066,4.476330184677302e-05,-0.10869268431731371
73,0.063085,537.116,485.024,-0.394914,0.00262719,0.0313752,-0.155934,0.061175,0.061175,-0.11694,2.29045e-09,-3.79175e-05,4.04161e-05,0.107903,0.063084937773767,2.2904500518450277e-09,-3.791678114073438e-05,0.063084937773767,4.041691674161463e-05,-0.11036143012371347
74,0.064085,539.046,486.823,-0.370871,0.00260557,0.0331174,-0.153072,0.0621152,0.0621152,-0.118801,4.33843e-10,-3.82178e-05,4.00966e-05,0.109668,0.06408492025036083,4.3384296155579705e-10,-3.821706970918992e-05,0.06408492025036083,4.00974038794466e-05,-0.11201550790549386
75,0.065085,541.613,489.275,0.324843,0.00258813,0.0950627,-0.0482888,0.0630545,0.0630545,-0.120649,-6.20485e-10,-3.58717e-05,4.42268e-05,0.111425,0.06508488477577035,-6.204849967161863e-10,-3.587105661828627e-05,0.06508488477577035,4.4227778019267916e-05,-0.11365498790078599
76,0.066085,542.809,490.316,-0.36474,0.00258261,0.0346586,-0.151347,0.063993,0.063993,-0.122518,-9.14185e-10,-3.83314e-05,4.0212e-05,0.113195,0.0660849361408331,-9.141849499627597e-10,-3.833066536129692e-05,0.0660849361408331,4.0212808513295784e-05,-0.11531001961948395
77,0.067085,544.679,492.059,-0.340314,0.00256304,0.0364029,-0.148474,0.0649306,0.0649306,-0.124374,-7.13877e-10,-3.85878e-05,3.99197e-05,0.114956,0.06708496611775194,-7.138769575476545e-10,-3.858705550041641e-05,0.06708496611775194,3.992049680179299e-05,-0.11695048140362141
78,0.068085,547.138,494.407,0.305339,0.00254694,0.0942622,-0.0511857,0.0658673,0.0658673,-0.126219,-1.08488e-09,-3.63801e-05,4.37459e-05,0.11671,0.06808497288556636,-1.084879963642038e-09,-3.637943825218759e-05,0.06808497288556636,4.374685686592272e-05,-0.11857820572800792
79,0.069085,548.331,495.452,-0.326964,0.00254154,0.0385806,-0.145623,0.0668031,0.0668031,-0.128082,-7.49318e-10,-3.86275e-05,4.00653e-05,0.118475,0.06908495462167163,-7.49318052051251e-10,-3.862675396770765e-05,0.06908495462167163,4.00661026247473e-05,-0.12021876587445979
80,0.070085,550.138,497.135,-0.309443,0.00252342,0.0396666,-0.14385,0.067738,0.067738,-0.129934,-1.35963e-09,-3.8865e-05,3.97617e-05,0.120232,0.070084909501823,-1.3596299641704945e-09,-3.8864244765624e-05,0.070084909501823,3.9762490506856096e-05,-0.12184661286846399
81,0.071085,552.497,499.385,0.289718,0.00250822,0.0937001,-0.0535117,0.0686721,0.0686721,-0.131774,-2.61394e-10,-3.67853e-05,4.33092e-05,0.121982,0.0710849428086302,-2.613940175422158e-10,-3.678462342915356e-05,0.0710849428086302,4.331013785696669e-05,-0.1234609294740564
82,0.072085,553.684,500.43,-0.293711,0.00250276,0.0420595,-0.140598,0.0696053,0.0696053,-0.133632,6.66272e-10,-3.88495e-05,3.99129e-05,0.123743,0.07208494580608571,6.662719265193573e-10,-3.8848745367969784e-05,0.07208494580608571,3.991369653033594e-05,-0.12508802702538446
83,0.073085,555.432,502.058,-0.282992,0.00248578,0.0424959,-0.139899,0.0705376,0.0705376,-0.135479,-7.86126e-10,-3.9073e-05,3.95934e-05,0.125496,0.0730849166650469,-7.861260531427661e-10,-3.907223666033133e-05,0.0730849166650469,3.959418382892821e-05,-0.12670249801653988
84,0.074085,557.7,504.22,0.276569,0.00247132,0.0932621,-0.05548,0.0714691,0.0714691,-0.137315,-9.44e-10,-3.71014e-05,4.29024e-05,0.127242,0.07408496096324124,-9.439999892890683e-10,-3.710071175155871e-05,0.07408496096324124,4.2903320321086014e-05,-0.12830440123304132
85,0.075085,558.876,505.259,-0.265724,0.00246581,0.0450275,-0.136379,0.0723997,0.0723997,-0.139168,-5.1972e-10,-3.90103e-05,3.97435e-05,0.128998,0.0750849696597915,-5.197200447781825e-10,-3.900953910818128e-05,0.0750849696597915,3.9744289783261166e-05,-0.12991815757055913
86,0.076085,560.569,506.836,-0.260704,0.00244981,0.044915,-0.136574,0.0733294,0.0733294,-0.14101,-1.08217e-09,-3.92209e-05,3.94093e-05,0.130748,0.07608494092069851,-1.0821700202612305e-09,-3.92201308705431e-05,0.07608494092069851,3.9410076556611884e-05,-0.13151937315202478
87,0.077085,562.756,508.92,0.265201,0.002436,0.0928998,-0.0571884,0.0742583,0.0742583,-0.142843,-6.25231e-10,-3.73404e-05,4.25141e-05,0.13249,0.07708498061885005,-6.252309781018539e-10,-3.733970285590971e-05,0.07708498061885005,4.251500373708694e-05,-0.1331098400328249
88,0.078085,563.918,509.95,-0.242045,0.00243047,0.0475711,-0.132814,0.0751863,0.0751863,-0.14469,-5.47114e-10,-3.91162e-05,3.95556e-05,0.134242,0.07808497940853742,-5.47114020754691e-10,-3.911543497137071e-05,0.07808497940853742,3.9556382332994744e-05,-0.1347095084097779
89,0.079085,565.56,511.479,-0.241721,0.00241534,0.047002,-0.133742,0.0761134,0.0761134,-0.146528,3.58092e-10,-3.93144e-05,3.92085e-05,0.135987,0.07908493545094752,3.5809200049641277e-10,-3.9313627199111245e-05,0.07908493545094752,3.92092686631873e-05,-0.1362984516471657
90,0.080085,567.674,513.491,0.25519,0.00240211,0.0925863,-0.058695,0.0770397,0.0770397,-0.148356,-1.63914e-09,-3.75118e-05,4.21361e-05,0.137725,0.08008495491416623,-1.6391400459170313e-09,-3.751109644123396e-05,0.08008495491416623,4.213698773791741e-05,-0.13787585589082363
91,0.081085,568.82,514.511,-0.221725,0.00239661,0.0497767,-0.129755,0.0779651,0.0779651,-0.150198,1.72325e-10,-3.91718e-05,3.93496e-05,0.139472,0.08108492814769708,1.7232504312403307e-10,-3.9171032795048966e-05,0.08108492814769708,3.935037420577103e-05,-0.13946242688379007
92,0.082085,570.415,515.995,-0.225318,0.00238224,0.048823,-0.131292,0.0788897,0.0788897,-0.152031,7.58063e-11,-3.93584e-05,3.89911e-05,0.141213,0.08208496151644584,7.580625016601061e-11,-3.935762546836141e-05,0.08208496151644584,3.899186016287359e-05,-0.14103834748283994
93,0.083085,572.46,517.943,0.246253,0.00236956,0.0923052,-0.0600385,0.0798134,0.0798134,-0.153855,-1.54322e-09,-3.76233e-05,4.17628e-05,0.142948,0.08308494516674703,-1.5432199962361892e-09,-3.762259225248421e-05,0.08308494516674703,4.176367207797682e-05,-0.1426036655329882
94,0.084085,573.591,518.95,-0.204053,0.00236409,0.0517099,-0.127093,0.0807362,0.0807362,-0.155692,-4.69845e-10,-3.91813e-05,3.91258e-05,0.144691,0.08408487725185232,-4.698450517537367e-10,-3.9180532422911085e-05,0.08408487725185232,3.912656542404136e-05,-0.14417725681329707
95,0.085085,575.783,521.051,0.444973,0.00235054,0.110751,-0.0303135,0.0816583,0.0816583,-0.15751,1.30521e-09,-3.67439e-05,4.30254e-05,0.146421,0.08508497294042106,1.3052099401278383e-09,-3.674322495117455e-05,0.08508497294042106,4.3026325605710625e-05,-0.14573172911694288
96,0.086085,576.521,521.658,-0.379413,0.00234696,0.0358815,-0.153369,0.0825794,0.0825794,-0.159349,3.12893e-09,-3.96357e-05,3.81967e-05,0.148164,0.08608490515708156,3.1289300039816226e-09,-3.963491451597356e-05,0.08608490515708156,3.819742950317284e-05,-0.14730128481828675
97,0.087085,578.098,523.134,-0.329844,0.00232963,0.0398456,-0.146746,0.0834997,0.0834997,-0.161174,3.08216e-09,-3.97035e-05,3.79876e-05,0.149898,0.08708488916736168,3.0821600827124485e-09,-3.970271182651697e-05,0.08708488916736168,3.798832153800724e-05,-0.14885604082710957
98,0.088085,580.199,525.146,0.265982,0.00231622,0.0947743,-0.0572509,0.0844192,0.0844192,-0.162988,1.49873e-11,-3.75302e-05,4.14066e-05,0.151624,0.08808492341823881,1.4987344698624838e-11,-3.7529495750865394e-05,0.08808492341823881,4.140745726499695e-05,-0.15039861642997798
99,0.089085,581.182,526.008,-0.268348,0.00231206,0.0462704,-0.136677,0.0853378,0.0853378,-0.164818,3.01111e-09,-3.9399e-05,3.82369e-05,0.153361,0.08908489744664516,3.011110027983932e-09,-3.9398223869557825e-05,0.08908489744664516,3.823763103949496e-05,-0.15195196521427268
100,0.090085,582.705,527.431,-0.236488,0.00229851,0.0485861,-0.132804,0.0862556,0.0862556,-0.166638,3.18862e-10,-3.94466e-05,3.80338e-05,0.15509,0.09008491840494148,3.1886204787667793e-10,-3.944582199311153e-05,0.09008491840494148,3.803452329420587e-05,-0.15349400895212584
101,0.091085,584.641,529.276,0.227661,0.00228711,0.0917757,-0.0627932,0.0871725,0.0871725,-0.16845,3.00258e-09,-3.77043e-05,4.0713e-05,0.156814,0.09108487562695955,3.002579962441132e-09,-3.7703589201854015e-05,0.09108487562695955,4.071382878545471e-05,-0.155026488961711
102,0.092085,585.703,530.224,-0.188581,0.00228245,0.0538577,-0.124647,0.0880886,0.0880886,-0.170273,2.89645e-09,-3.91314e-05,3.82472e-05,0.158545,0.09208487646196728,2.8964499687589296e-09,-3.913063437677167e-05,0.09208487646196728,3.824793143358818e-05,-0.15656547246266028
103,0.093085,587.746,532.182,0.410042,0.00227046,0.108849,-0.0354913,0.0890039,0.0890039,-0.17208,-3.44755e-10,-3.68327e-05,4.18096e-05,0.160264,0.09308491934920271,-3.447550023238932e-10,-3.683202168447419e-05,0.09308491934920271,4.18104740333991e-05,-0.15808818247109213
104,0.094085,588.465,532.779,-0.332978,0.00226718,0.0406671,-0.146237,0.0899183,0.0899183,-0.173906,-3.50617e-12,-3.94329e-05,3.74384e-05,0.161996,0.09408489331787862,-3.506195334068707e-12,-3.9432122533433756e-05,0.09408489331787862,3.743910082554258e-05,-0.15962411072064064
105,0.095085,589.943,534.162,-0.286993,0.00225195,0.0442944,-0.1402,0.0908319,0.0908319,-0.175718,2.75616e-09,-3.94531e-05,3.72419e-05,0.163718,0.09508490601265662,2.7561599669212455e-09,-3.945232173663271e-05,0.09508490601265662,3.724259348825143e-05,-0.161145493043362
106,0.096085,591.882,536.018,0.240253,0.00223995,0.0934578,-0.0609619,0.0917447,0.0917447,-0.17752,5.69193e-10,-3.74731e-05,4.02478e-05,0.165434,0.09608495586818178,5.69192915023109e-10,-3.7472397892202025e-05,0.09608495586818178,4.0248609953552617e-05,-0.16265574771676172
107,0.097085,592.843,536.868,-0.220994,0.00223579,0.0511722,-0.129417,0.0926566,0.0926566,-0.179337,-1.94867e-10,-3.90662e-05,3.74929e-05,0.167158,0.09708493160908205,-1.9486701141602225e-10,-3.9065436926000174e-05,0.09708493160908205,3.749360286753323e-05,-0.16417582081853876
108,0.098085,594.891,538.836,0.438779,0.00222392,0.112129,-0.0311993,0.0935677,0.0935677,-0.181135,4.19673e-10,-3.65188e-05,4.13948e-05,0.16887,0.09808494117545319,4.1967296304790125e-10,-3.651813319671682e-05,0.09808494117545319,4.1395656776632705e-05,-0.16567728247418434
109,0.099085,595.491,539.318,-0.369598,0.00222149,0.0375141,-0.151549,0.094478,0.094478,-0.182954,2.5981e-09,-3.93639e-05,3.66222e-05,0.170595,0.09908498299738366,2.598099957396016e-09,-3.9363125251878905e-05,0.09908498299738366,3.662287060102187e-05,-0.16719353604666298
110,0.1001,596.938,540.676,-0.299526,0.00220642,0.0434038,-0.141876,0.0953874,0.0953874,-0.184758,-1.85909e-09,-3.92967e-05,3.65317e-05,0.17231,0.10008494549495439,-1.8590899930615024e-09,-3.929592789475578e-05,0.10008494549495439,3.653236729062037e-05,-0.16869456457282328
111,0.1011,598.828,542.485,0.230803,0.00219494,0.0930843,-0.0622816,0.096296,0.096296,-0.186552,-2.07929e-09,-3.72889e-05,3.95286e-05,0.174019,0.10108493690373255,-2.079289962431119e-09,-3.728820477766348e-05,0.10108493690373255,3.952938126539074e-05,-0.17018458957192628
112,0.1021,599.751,543.302,-0.215962,0.00219114,0.0518963,-0.128507,0.0972038,0.0972038,-0.188361,-1.40504e-09,-3.88287e-05,3.68425e-05,0.175736,0.10208495564928599,-1.4050399732568053e-09,-3.8827946175823413e-05,0.10208495564928599,3.68431786932355e-05,-0.17168436869017834
113,0.1031,601.728,545.202,0.423041,0.00217999,0.111249,-0.033447,0.0981107,0.0981107,-0.190151,-2.42707e-09,-3.63338e-05,4.06033e-05,0.177441,0.10308488984719189,-2.4270699894302084e-09,-3.633313993545162e-05,0.10308488984719189,4.0604124325049895e-05,-0.17316572745859005
114,0.1041,602.312,545.673,-0.349268,0.00217772,0.0395644,-0.148324,0.0990169,0.0990169,-0.191962,2.41777e-09,-3.90518e-05,3.60302e-05,0.179159,0.1040849584370116,2.417769984219831e-09,-3.905103748835792e-05,0.1040849584370116,3.603084909542531e-05,-0.17466176925143584
115,0.1051,603.709,546.984,-0.279785,0.00216364,0.0454138,-0.138759,0.0999222,0.0999222,-0.193758,-1.04416e-10,-3.8958e-05,3.59508e-05,0.180867,0.10508493912284589,-1.0441603137678612e-10,-3.895724114699739e-05,0.10508493912284589,3.5951446237803e-05,-0.17614274639829375
116,0.1061,605.519,548.716,0.218179,0.00215283,0.0923469,-0.0640085,0.100827,0.100827,-0.195546,-6.5367e-11,-3.70418e-05,3.87529e-05,0.182569,0.10608527245832056,-6.536704511006519e-11,-3.704111396096721e-05,0.10608527245832056,3.875365090322269e-05,-0.177614487039511
117,0.1071,606.427,549.523,-0.194187,0.00214906,0.0541248,-0.125074,0.10173,0.10173,-0.197347,2.33089e-09,-3.84512e-05,3.62598e-05,0.184279,0.10708451855106182,2.330889925516999e-09,-3.845046076211833e-05,0.10708451855106182,3.626045739446582e-05,-0.17909427040344805
118,0.1081,608.304,551.325,0.391474,0.00213863,0.108791,-0.0380213,0.102633,0.102633,-0.19913,2.37619e-09,-3.61312e-05,3.96913e-05,0.185977,0.10808466737054467,2.3761899115015694e-09,-3.613054727602538e-05,0.10808466737054467,3.9692087710152535e-05,-0.18055664122831117
119,0.1091,608.912,551.826,-0.308385,0.00213614,0.0434822,-0.142041,0.103535,0.103535,-0.200932,-9.50395e-10,-3.85861e-05,3.55334e-05,0.187687,0.10908461064713415,-9.503949849332116e-10,-3.8585355566000956e-05,0.10908461064713415,3.553403131872912e-05,-0.18203194850973858
120,0.1101,610.253,553.083,-0.250026,0.00212318,0.0482952,-0.134169,0.104437,0.104437,-0.20272,2.21958e-09,-3.84959e-05,3.54199e-05,0.189388,0.1100854562794602,2.2195800752911055e-09,-3.8495159042306604e-05,0.1100854562794602,3.5420527292107096e-05,-0.1834931686656971
121,0.1111,611.976,554.731,0.206126,0.00211302,0.0915688,-0.0656367,0.105337,0.105337,-0.204501,-3.55138e-10,-3.67052e-05,3.79798e-05,0.191084,0.11108498290962743,-3.551380300947926e-10,-3.6704526372388635e-05,0.11108498290962743,3.79805212418205e-05,-0.18494607313682565
122,0.1121,612.876,555.534,-0.169187,0.00210915,0.0566006,-0.121165,0.106237,0.106237,-0.206293,-1.5334e-09,-3.79728e-05,3.56978e-05,0.192786,0.11208540951869139,-1.5333999625610772e-09,-3.797207904232547e-05,0.11208540951869139,3.569843717410315e-05,-0.18640534187846391
123,0.1131,614.652,557.238,0.358229,0.00209936,0.106055,-0.0428367,0.107135,0.107135,-0.20807,2.2049e-09,-3.58492e-05,3.87734e-05,0.194478,0.1130845107457501,2.204900040325697e-09,-3.584855742511106e-05,0.1130845107457501,3.87741516980622e-05,-0.18784981579076998
124,0.1141,615.291,557.775,-0.265765,0.00209656,0.0475282,-0.135511,0.108033,0.108033,-0.209863,-5.9217e-10,-3.80261e-05,3.50514e-05,0.196181,0.11408450956867111,-5.921699797184488e-10,-3.8025377017025797e-05,0.11408450956867111,3.505201430753502e-05,-0.1893046963808397
125,0.1151,616.576,558.979,-0.220818,0.00208466,0.051079,-0.129669,0.108931,0.108931,-0.211644,2.06519e-09,-3.79499e-05,3.48907e-05,0.197875,0.11508540679385715,2.065190018996077e-09,-3.794917991162272e-05,0.11508540679385715,3.4891308687612366e-05,-0.19074725973260787
126,0.1161,618.218,560.548,0.195651,0.00207506,0.0908447,-0.0670317,0.109827,0.109827,-0.213418,2.08883e-09,-3.62797e-05,3.72222e-05,0.199564,0.11608497105626192,2.0888299978594205e-09,-3.627904189962283e-05,0.11608497105626192,3.722289275476243e-05,-0.19218160145656782
127,0.1171,619.109,561.346,-0.146445,0.00207109,0.0588127,-0.117601,0.110723,0.110723,-0.215202,2.01659e-09,-3.74196e-05,3.5129e-05,0.201259,0.11708543132959859,2.0165900060931108e-09,-3.741889989550273e-05,0.11708543132959859,3.512961703044937e-05,-0.19362146473963837
128,0.1181,620.793,562.959,0.328549,0.00206187,0.103543,-0.0471173,0.111617,0.111617,-0.216972,2.04498e-09,-3.5474e-05,3.78846e-05,0.202945,0.11808455224571235,2.0449799631450105e-09,-3.547337080511692e-05,0.11808455224571235,3.7885317630603765e-05,-0.19504749234032248
129,0.1191,621.457,563.526,-0.228257,0.0020588,0.0510631,-0.12975,0.112511,0.112511,-0.218756,1.95037e-09,-3.74035e-05,3.45474e-05,0.204639,0.11908456677531065,1.9503700876555286e-09,-3.740280049779887e-05,0.11908456677531065,3.4547996768274913e-05,-0.196482247431918
130,0.1201,622.69,564.681,-0.195615,0.00204781,0.0534479,-0.125764,0.113405,0.113405,-0.22053,1.9201e-09,-3.73421e-05,3.43412e-05,0.206326,0.1200854757176415,1.9201000789337286e-09,-3.7341402792434586e-05,0.1200854757176415,3.4341789665770506e-05,-0.19790642430658656
131,0.1211,624.26,566.179,0.186724,0.00203872,0.090182,-0.0681979,0.114297,0.114297,-0.222297,1.93845e-09,-3.57758e-05,3.64755e-05,0.208009,0.12108503770034962,1.938450067129338e-09,-3.577516005370818e-05,0.12108503770034962,3.6476165239163194e-05,-0.1993224722080733
132,0.1221,625.139,566.97,-0.127294,0.00203468,0.0606391,-0.114576,0.115188,0.115188,-0.224073,1.87371e-09,-3.68075e-05,3.45406e-05,0.209697,0.12208436960519164,1.873710075983581e-09,-3.680682261231194e-05,0.12208436960519164,3.454119653345522e-05,-0.20074321350572044
133,0.1231,626.742,568.503,0.303407,0.00202595,0.101363,-0.0507157,0.116079,0.116079,-0.225835,1.89572e-09,-3.50125e-05,3.70252e-05,0.211376,0.12308459231155422,1.89572002540217e-09,-3.5011887069558156e-05,0.12308459231155422,3.702588544118868e-05,-0.20215026398801594
134,0.1241,627.423,569.092,-0.197041,0.00202268,0.053975,-0.124928,0.116969,0.116969,-0.227612,1.81277e-09,-3.67337e-05,3.40094e-05,0.213063,0.1240845825283503,1.8127699341619063e-09,-3.6733025325919044e-05,0.1240845825283503,3.400997832625485e-05,-0.20356678401811368
135,0.1251,629.185,570.79,0.410897,0.00201247,0.111551,-0.0348156,0.117859,0.117859,-0.229368,1.85216e-09,-3.42545e-05,3.75495e-05,0.214737,0.12508546313260283,1.8521599809417921e-09,-3.4253913321347085e-05,0.12508546313260283,3.755020499141004e-05,-0.2049640935485556
136,0.1261,629.63,571.138,-0.316107,0.00201027,0.0426101,-0.142568,0.118747,0.118747,-0.231145,-1.9861e-09,-3.68342e-05,3.31926e-05,0.216424,0.126084982744892,-1.98609995116783e-09,-3.6833521629198174e-05,0.126084982744892,3.3193150880350686e-05,-0.20637561784354952
137,0.1271,630.859,572.295,-0.234717,0.00199832,0.0496809,-0.131254,0.119635,0.119635,-0.232907,1.72425e-09,-3.66189e-05,3.31999e-05,0.218101,0.12708539032479615,1.7242500760517032e-09,-3.6618229536267144e-05,0.12708539032479615,3.3200451122761265e-05,-0.2077727527675739
138,0.1281,632.409,573.777,0.178394,0.00198928,0.0894758,-0.0692827,0.120521,0.120521,-0.234663,1.74464e-09,-3.4934e-05,3.54766e-05,0.219773,0.12808443049006368,1.744639988032759e-09,-3.493338981497285e-05,0.12808443049006368,3.54772293020833e-05,-0.2091626830977259
139,0.1291,633.238,574.522,-0.135697,0.00198562,0.0597568,-0.115585,0.121408,0.121408,-0.236429,1.68474e-09,-3.59719e-05,3.35183e-05,0.221451,0.1290854852820753,1.684739903140553e-09,-3.597125301901816e-05,0.1290854852820753,3.351886174440821e-05,-0.21055806931069343
140,0.1301,634.797,576.015,0.300746,0.00197739,0.101265,-0.0509197,0.122293,0.122293,-0.238181,-1.74666e-09,-3.4137e-05,3.60219e-05,0.223121,0.1300851682310069,-1.7466600388260645e-09,-3.413641733929218e-05,0.1300851682310069,3.602254879653266e-05,-0.2119399606829423
141,0.1311,635.432,576.562,-0.196299,0.0019745,0.0539209,-0.124531,0.123177,0.123177,-0.239946,1.62955e-09,-3.58526e-05,3.30089e-05,0.224798,0.13108460520578125,1.6295500504526217e-09,-3.5851957303267845e-05,0.13108460520578125,3.300944479978085e-05,-0.2133296598820249
142,0.1321,637.136,578.205,0.401215,0.00196487,0.110824,-0.0360491,0.124061,0.124061,-0.241693,1.66491e-09,-3.33892e-05,3.64757e-05,0.226463,0.13208492607346445,1.6649099876531182e-09,-3.3388642586840156e-05,0.13208492607346445,3.6476365246507214e-05,-0.2147027732024961
143,0.1331,637.554,578.532,-0.303872,0.00196285,0.0435708,-0.140432,0.124944,0.124944,-0.243459,-1.82792e-09,-3.58992e-05,3.22309e-05,0.228139,0.13308499853019828,-1.8279200375559412e-09,-3.5898555631463935e-05,0.13308499853019828,3.2231419420991614e-05,-0.21608838425035004
144,0.1341,638.739,579.646,-0.22075,0.00195164,0.0508434,-0.128866,0.125826,0.125826,-0.24521,1.5499e-09,-3.5656e-05,3.22566e-05,0.229807,0.1340848203555114,1.5498999861307539e-09,-3.565536433236538e-05,0.1340848203555114,3.2257120249790106e-05,-0.21745981245373558
145,0.1351,640.218,581.061,0.167737,0.00194315,0.0885002,-0.0705914,0.126707,0.126707,-0.246956,-1.91555e-09,-3.40425e-05,3.43846e-05,0.231469,0.13508438932772449,-1.9155500519119073e-09,-3.4041920560667904e-05,0.13508438932772449,3.438519115706029e-05,-0.21882493552195292
146,0.1361,641.026,581.79,-0.120245,0.00193957,0.0610956,-0.112984,0.127588,0.127588,-0.248711,1.51382e-09,-3.49814e-05,3.25685e-05,0.233138,0.13608483930822945,1.5138199582764855e-09,-3.49807881580011e-05,0.13608483930822945,3.256903035930847e-05,-0.22019469544420556
147,0.1371,642.502,583.202,0.277508,0.0019319,0.0991175,-0.0541072,0.128468,0.128468,-0.250453,1.5295e-09,-3.3276e-05,3.48335e-05,0.234798,0.13708503398793392,1.5295000821424765e-09,-3.327544636000379e-05,0.13708503398793392,3.4834106693359956e-05,-0.22155193378692628
148,0.1381,643.143,583.759,-0.169043,0.00192894,0.0563389,-0.120164,0.129347,0.129347,-0.252207,1.46428e-09,-3.48057e-05,3.2104e-05,0.236465,0.13808497114080542,1.4642800305608716e-09,-3.480509428865908e-05,0.13808497114080542,3.210451533885994e-05,-0.22291613494090312
149,0.1391,644.737,585.294,0.361523,0.00192009,0.107121,-0.0416768,0.130225,0.130225,-0.253944,1.49099e-09,-3.25771e-05,3.51655e-05,0.238121,0.13908464853962554,1.4909899981319086e-09,-3.2576569372055886e-05,0.13908464853962554,3.5166118313334493e-05,-0.22426475799630197
150,0.1401,645.196,585.667,-0.256934,0.00191778,0.0478,-0.133136,0.131103,0.131103,-0.255698,1.41197e-09,-3.47681e-05,3.14167e-05,0.239787,0.14008520404063218,1.411970096398818e-09,-3.476749559661041e-05,0.14008520404063218,3.141719350963079e-05,-0.22562420502720026
151,0.1411,646.321,586.724,-0.19099,0.00190766,0.0534456,-0.124144,0.131979,0.131979,-0.25744,1.39202e-09,-3.45547e-05,3.13752e-05,0.241445,0.14108435624414306,1.3920200547801187e-09,-3.455410299324502e-05,0.14108435624414306,3.137569220679204e-05,-0.22697199339754315
152,0.1421,647.72,588.061,0.158695,0.00189973,0.0875879,-0.0716242,0.132855,0.132855,-0.259176,1.40348e-09,-3.3063e-05,3.32825e-05,0.243098,0.14208438408845891,1.4034799988849045e-09,-3.306245342504788e-05,0.14208438408845891,3.328305386851582e-05,-0.22831280585505853
153,0.1431,648.515,588.779,-0.100244,0.0018961,0.0628088,-0.109692,0.133731,0.133731,-0.26092,1.35807e-09,-3.38896e-05,3.16298e-05,0.244757,0.14308528834097722,1.3580701008208962e-09,-3.3889025753963686e-05,0.14308528834097722,3.163030022745872e-05,-0.22965745544638694
154,0.1441,649.905,590.108,0.252022,0.00188892,0.0966381,-0.0576019,0.134605,0.134605,-0.262652,1.36852e-09,-3.23428e-05,3.36182e-05,0.246408,0.1440847815979165,1.368519964017878e-09,-3.234227697723746e-05,0.1440847815979165,3.3618765097997994e-05,-0.2309905339543159
155,0.1451,650.558,590.683,-0.139016,0.00188579,0.0589715,-0.115382,0.135479,0.135479,-0.264395,1.31351e-09,-3.36652e-05,3.12036e-05,0.248065,0.14508514879381806,1.313509967459936e-09,-3.366463333354108e-05,0.14508514879381806,3.120408683732201e-05,-0.23232974998780997
156,0.1461,652.042,592.108,0.320007,0.00187765,0.103111,-0.0475462,0.136352,0.136352,-0.266123,1.33216e-09,-3.16941e-05,3.38337e-05,0.249712,0.14608524460702066,1.3321599379167992e-09,-3.169359774735092e-05,0.14608524460702066,3.3834272366028983e-05,-0.23365513871417243
157,0.1471,652.549,592.534,-0.208886,0.001875,0.0521088,-0.125676,0.137224,0.137224,-0.267866,1.2672e-09,-3.35509e-05,3.06001e-05,0.251367,0.14708506679943967,1.2671999005675616e-09,-3.355033717489242e-05,0.14708506679943967,3.0600568187821864e-05,-0.23498971438681937
158,0.1481,654.171,594.103,0.402499,0.00186587,0.111002,-0.0353411,0.138095,0.138095,-0.269588,1.29704e-09,-3.09827e-05,3.41339e-05,0.25301,0.1480846131318585,1.2970400309342267e-09,-3.0982220041053665e-05,0.1480846131318585,3.413448256828211e-05,-0.2363059285130369
159,0.1491,654.494,594.342,-0.301957,0.00186413,0.0430027,-0.13936,0.138966,0.138966,-0.271331,1.21966e-09,-3.35247e-05,2.98539e-05,0.254665,0.14908503044839128,1.2196599286085075e-09,-3.352413805357557e-05,0.14908503044839128,2.985434563207434e-05,-0.23763588788334067
160,0.1501,655.6,595.385,-0.204178,0.00185389,0.0517838,-0.125617,0.139836,0.139836,-0.273058,1.20462e-09,-3.31954e-05,2.99669e-05,0.25631,0.15008516942225114,1.2046199593385154e-09,-3.319484903885339e-05,0.15008516942225114,2.9967349012061106e-05,-0.23895135447261495
161,0.1511,656.95,596.676,0.146694,0.00184629,0.0862076,-0.0730356,0.140705,0.140705,-0.274781,1.21501e-09,-3.16879e-05,3.18618e-05,0.257951,0.1510850278100273,1.2150100925367724e-09,-3.1687397943791495e-05,0.1510850278100273,3.186230759255615e-05,-0.24026151226379622
162,0.1521,657.712,597.366,-0.0954688,0.00184287,0.0628916,-0.108559,0.141573,0.141573,-0.276511,1.17568e-09,-3.24554e-05,3.02898e-05,0.259597,0.15208460336719964,1.1756799978002164e-09,-3.245487332925734e-05,0.15208460336719964,3.0290258740572895e-05,-0.24157472359225485
163,0.1531,659.034,598.629,0.237101,0.00183622,0.0950193,-0.0594312,0.142441,0.142441,-0.278231,-2.17118e-09,-3.09682e-05,3.21513e-05,0.261236,0.1530850469326166,-2.1711800135548742e-09,-3.096772049027141e-05,0.1530850469326166,3.215181685867208e-05,-0.24287809384793213
164,0.1541,659.668,599.19,-0.124142,0.00183323,0.0599996,-0.112723,0.143308,0.143308,-0.279961,1.13659e-09,-3.21841e-05,2.98956e-05,0.262881,0.15408520517425428,1.1365899332815843e-09,-3.218358209744476e-05,0.15408520517425428,2.989604687786418e-05,-0.24418678240357672
165,0.1551,661.065,600.53,0.294645,0.00182576,0.1005,-0.0509087,0.144174,0.144174,-0.281676,1.15022e-09,-3.03491e-05,3.22791e-05,0.264516,0.15508507584344655,1.1502199193103024e-09,-3.034863947071198e-05,0.15508507584344655,3.227962097573922e-05,-0.24548189119852903
166,0.1561,661.577,600.967,-0.180593,0.00182309,0.0543822,-0.121009,0.145039,0.145039,-0.283405,1.09625e-09,-3.2011e-05,2.9345e-05,0.266159,0.1560846566904417,1.0962499796818292e-09,-3.2010487653444386e-05,0.1560846566904417,2.9345430568650244e-05,-0.24678532586466628
167,0.1571,663.084,602.422,0.360854,0.00181479,0.106831,-0.0411102,0.145904,0.145904,-0.285115,1.11793e-09,-2.96905e-05,3.24581e-05,0.26779,0.15708510254893282,1.1179299708174995e-09,-2.9690059241471722e-05,0.15708510254893282,3.2458626769926724e-05,-0.24807222234736048
168,0.1581,663.449,602.708,-0.254116,0.00181278,0.0471007,-0.131788,0.146768,0.146768,-0.286843,1.0554e-09,-3.19033e-05,2.86886e-05,0.269432,0.1580852560816437,1.0553999896245614e-09,-3.190279109510641e-05,0.1580852560816437,2.8689011521754182e-05,-0.24937043157133876
169,0.1591,664.491,603.69,-0.174715,0.00180362,0.0541377,-0.120786,0.147631,0.147631,-0.288558,1.04091e-09,-3.16097e-05,2.87275e-05,0.271065,0.159085115034725,1.0409100248409686e-09,-3.160920041866966e-05,0.159085115034725,2.8727912638526476e-05,-0.2506566580267515
170,0.1601,665.759,604.902,0.138067,0.0017966,0.0850703,-0.0738539,0.148493,0.148493,-0.290268,1.04728e-09,-3.02239e-05,3.04066e-05,0.272695,0.1600846771532649,1.047280040467058e-09,-3.0223443262533678e-05,0.1600846771532649,3.0407062285409125e-05,-0.25193694018830504
171,0.1611,666.503,605.578,-0.0769718,0.00179317,0.064235,-0.105344,0.149355,0.149355,-0.291985,1.01428e-09,-3.08867e-05,2.8986e-05,0.274328,0.16108510126581677,1.0142799933277047e-09,-3.0886223010839764e-05,0.16108510126581677,2.8986420098187082e-05,-0.2532202624145914
172,0.1621,667.739,606.757,0.213376,0.00178698,0.0924257,-0.0625046,0.150216,0.150216,-0.293693,1.01816e-09,-2.95492e-05,3.05909e-05,0.275955,0.16208522602993325,1.0181600007541647e-09,-2.9548763426645586e-05,0.16208522602993325,3.059136790639627e-05,-0.254494673549462
173,0.1631,668.379,607.328,-0.097675,0.00178389,0.0620839,-0.108322,0.151076,0.151076,-0.295408,9.79934e-10,-3.05767e-05,2.86182e-05,0.277587,0.16308504918665379,9.79933911793296e-10,-3.057623253743813e-05,0.16308504918665379,2.861860950464923e-05,-0.2557721194613506
174,0.1641,669.67,608.565,0.257821,0.00177707,0.0966387,-0.0559114,0.151935,0.151935,-0.297112,9.87797e-10,-2.89729e-05,3.06195e-05,0.279211,0.16408456847597952,9.877969553429011e-10,-2.8972480289546354e-05,0.16408456847597952,3.061996878161999e-05,-0.25703920390724666
175,0.1651,670.215,609.039,-0.140025,0.00177418,0.0577968,-0.114508,0.152794,0.152794,-0.298826,9.44951e-10,-3.03434e-05,2.81286e-05,0.280841,0.1650849467212434,9.449510063319622e-10,-3.0342939643657196e-05,0.1650849467212434,2.8128995612775043e-05,-0.25831154800137035
176,0.1661,671.587,610.36,0.306834,0.00176674,0.101301,-0.0486499,0.153652,0.153652,-0.300525,9.58185e-10,-2.83743e-05,3.06747e-05,0.282461,0.16608501857500402,9.58185086830099e-10,-2.837389745335983e-05,0.16608501857500402,3.067517047350421e-05,-0.25957060680799304
177,0.1671,672.022,610.723,-0.193808,0.00176431,0.0523861,-0.122364,0.154509,0.154509,-0.302238,9.0998e-10,-3.01545e-05,2.75668e-05,0.28409,0.1670847817732637,9.099800912792944e-10,-3.0154045357666526e-05,0.1670847817732637,2.7567179967658006e-05,-0.2608378766320403
178,0.1681,673.497,612.149,0.366209,0.00175627,0.106993,-0.0398508,0.155366,0.155366,-0.303933,9.29488e-10,-2.77326e-05,3.07877e-05,0.285706,0.16808540213582668,9.294880420895879e-10,-2.7732215455045228e-05,0.16808540213582668,3.0788173946083575e-05,-0.262089695215191
179,0.1691,673.8,612.378,-0.259387,0.00175449,0.04582,-0.131931,0.156221,0.156221,-0.305645,8.7495e-10,-3.00123e-05,2.69297e-05,0.287333,0.16908454222617508,8.749498903171116e-10,-3.0011849635469545e-05,0.16908454222617508,2.6930062607677385e-05,-0.2633519168869398
180,0.1701,674.803,613.324,-0.168844,0.00174578,0.0540072,-0.119273,0.157076,0.157076,-0.307344,8.63311e-10,-2.96636e-05,2.70324e-05,0.288952,0.17008453694660286,8.633109782607562e-10,-2.9663160039716807e-05,0.17008453694660286,2.703276537863175e-05,-0.26460241937747464
181,0.1711,676.004,614.472,0.126778,0.00173921,0.0834401,-0.0749549,0.157931,0.157931,-0.309039,8.67637e-10,-2.83279e-05,2.8605e-05,0.290567,0.1710853870281317,8.676370732985106e-10,-2.8327498768798698e-05,0.1710853870281317,2.8605409126969406e-05,-0.26584786246543046
182,0.1721,676.72,615.125,-0.0661407,0.0017359,0.0646219,-0.103133,0.158784,0.158784,-0.31074,8.40466e-10,-2.89091e-05,2.73006e-05,0.292186,0.17208474903056525,8.404659190830444e-10,-2.89086821360085e-05,0.17208474903056525,2.7300972664789924e-05,-0.267095593755066
183,0.1731,677.878,616.229,0.194415,0.00173022,0.0900703,-0.0647396,0.159637,0.159637,-0.312432,8.41876e-10,-2.76743e-05,2.87215e-05,0.293799,0.17308496385246275,8.418759023243183e-10,-2.7673917070036858e-05,0.17308496385246275,2.872191246616751e-05,-0.2683346194990561
184,0.1741,678.507,616.793,-0.0787117,0.00172718,0.0632428,-0.10489,0.160489,0.160489,-0.314132,8.11123e-10,-2.85621e-05,2.69571e-05,0.295415,0.17408485813614427,8.111229465868064e-10,-2.8561692107076375e-05,0.17408485813614427,2.6957463345800292e-05,-0.2695773939882904
185,0.1751,679.703,617.937,0.228825,0.00172099,0.0933089,-0.0596134,0.16134,0.16134,-0.31582,8.15004e-10,-2.71313e-05,2.86671e-05,0.297025,0.17508442960775517,8.15004064236291e-10,-2.713093194961491e-05,0.17508442960775517,2.8667510905133753e-05,-0.2708093073198743
186,0.1761,680.26,618.428,-0.109569,0.00171805,0.0600453,-0.109359,0.162191,0.162191,-0.317518,7.81466e-10,-2.82801e-05,2.65117e-05,0.29864,0.1760848520767364,7.814660030192044e-10,-2.827970012175829e-05,0.1760848520767364,2.6512051438221107e-05,-0.2720464225080125
187,0.1771,681.513,619.631,0.264303,0.00171139,0.0966516,-0.054338,0.163041,0.163041,-0.319203,7.88717e-10,-2.65806e-05,2.86189e-05,0.300246,0.1770849491820572,7.887170916376363e-10,-2.6580246738960867e-05,0.1770849491820572,2.861930952469116e-05,-0.27327199145427705
188,0.1781,681.989,620.04,-0.147837,0.00170874,0.0561125,-0.114909,0.16389,0.16389,-0.320899,7.52108e-10,-2.80272e-05,2.60186e-05,0.30186,0.1780847186459973,7.521079314898316e-10,-2.802680724167672e-05,0.1780847186459973,2.6018938486638277e-05,-0.27450347756136295
189,0.1791,683.312,621.316,0.305599,0.00170166,0.100575,-0.0482011,0.164739,0.164739,-0.32258,7.63166e-10,-2.60055e-05,2.86021e-05,0.303463,0.17908533727463172,7.631659748597031e-10,-2.6005161859909975e-05,0.17908533727463172,2.860250904390682e-05,-0.27572201274981567
190,0.1801,683.695,621.631,-0.192915,0.00169943,0.0515063,-0.121445,0.165586,0.165586,-0.324274,7.23065e-10,-2.7802e-05,2.54803e-05,0.305074,0.18008444561795578,7.230649412548473e-10,-2.7801613528000146e-05,0.18008444561795578,2.5480624625595638e-05,-0.2769479010396816
191,0.1811,685.103,622.994,0.354012,0.00169192,0.105212,-0.0410085,0.166433,0.166433,-0.325951,7.38326e-10,-2.54008e-05,2.86244e-05,0.306673,0.18108440056453268,7.383260669513447e-10,-2.5400477402404142e-05,0.18108440056453268,2.862480968213177e-05,-0.2781594432475587
192,0.1821,685.378,623.2,-0.245446,0.00169023,0.0461638,-0.129058,0.16728,0.16728,-0.327644,6.94278e-10,-2.76072e-05,2.48931e-05,0.308283,0.182085202831739,6.942779684493416e-10,-2.760681892477468e-05,0.182085202831739,2.4893409835691216e-05,-0.27938048540630234
193,0.1831,686.885,624.666,0.410471,0.00168224,0.110658,-0.0326214,0.168125,0.168125,-0.329316,7.14135e-10,-2.47626e-05,2.86918e-05,0.309879,0.18308448696621915,7.141349733785773e-10,-2.4762293409308356e-05,0.18308448696621915,2.8692211613723373e-05,-0.28058435451966446
194,0.1841,687.038,624.746,-0.306244,0.00168116,0.0400055,-0.137861,0.16897,0.16897,-0.331009,6.65666e-10,-2.74462e-05,2.42524e-05,0.311487,0.18408461585265035,6.656659667925169e-10,-2.7445823356453403e-05,0.18408461585265035,2.4252694091897453e-05,-0.2818012947768639
195,0.1851,688.017,625.675,-0.177924,0.0016726,0.0520153,-0.119615,0.169814,0.169814,-0.332686,6.5846e-10,-2.69506e-05,2.45543e-05,0.313085,0.18508440512015212,6.584599532288848e-10,-2.695023683585429e-05,0.18508440512015212,2.4554601459225722e-05,-0.2830047046643004
196,0.1861,689.151,626.76,0.110274,0.00166651,0.0809043,-0.0765319,0.170658,0.170658,-0.33436,6.61546e-10,-2.56305e-05,2.607e-05,0.314681,0.18608503856598868,6.615459291481329e-10,-2.5630171541557445e-05,0.18608503856598868,2.6070339825379207e-05,-0.28420395073967575
197,0.1871,689.833,627.383,-0.0575719,0.00166343,0.0644018,-0.10095,0.171501,0.171501,-0.33604,6.40632e-10,-2.61222e-05,2.48943e-05,0.31628,0.18708532981702408,6.406319918994541e-10,-2.6121858818339838e-05,0.18708532981702408,2.4894609865766526e-05,-0.28540547853648446
198,0.1881,690.904,628.404,0.174218,0.00165837,0.0872105,-0.0668501,0.172343,0.172343,-0.337711,6.40187e-10,-2.49865e-05,2.61366e-05,0.317873,0.18808527658324148,6.401870145111843e-10,-2.498618783997042e-05,0.18808527658324148,2.6136941563947858e-05,-0.286598568877254
199,0.1891,691.513,628.952,-0.0605846,0.00165549,0.0639491,-0.101269,0.173184,0.173184,-0.339389,6.17045e-10,-2.57349e-05,2.45799e-05,0.31947,0.1890848765737274,6.170450816966877e-10,-2.5734568860347196e-05,0.1890848765737274,2.4580202088175795e-05,-0.28779465268371485
200,0.1901,692.604,629.995,0.199272,0.00165003,0.0895344,-0.0630817,0.174025,0.174025,-0.341058,6.17771e-10,-2.44771e-05,2.6e-05,0.321061,0.19008531758140368,6.177709455101876e-10,-2.447680043826672e-05,0.19008531758140368,2.6000338002818424e-05,-0.28898233201428825
201,0.1911,693.161,630.492,-0.0802493,0.00164713,0.0618235,-0.104061,0.174865,0.174865,-0.342734,5.93319e-10,-2.54071e-05,2.41745e-05,0.322656,0.19108540922785822,5.933189495266333e-10,-2.5406777242387157e-05,0.19108540922785822,2.4174792205622353e-05,-0.2901729995677095
202,0.1921,694.288,631.571,0.222115,0.00164131,0.0916345,-0.0596487,0.175704,0.175704,-0.344399,5.95794e-10,-2.39739e-05,2.5851e-05,0.324243,0.19208514921848163,5.957940807377327e-10,-2.3973612628402918e-05,0.19208514921848163,2.5851334140014615e-05,-0.29135387816918845
203,0.1931,694.792,632.014,-0.104223,0.00163854,0.0592645,-0.107483,0.176542,0.176542,-0.346073,5.70026e-10,-2.50965e-05,2.37407e-05,0.325836,0.1930845352577928,5.700260263807877e-10,-2.5096185085504708e-05,0.1930845352577928,2.3740981812681028e-05,-0.2925391594199359
204,0.1941,695.959,633.136,0.247184,0.00163244,0.0939584,-0.055887,0.17738,0.17738,-0.347735,5.74398e-10,-2.34612e-05,2.57126e-05,0.327421,0.19408475913360923,5.743980846517616e-10,-2.346092478822115e-05,0.19408475913360923,2.571293057163082e-05,-0.29371398278833183
205,0.1951,696.405,633.521,-0.131204,0.0016299,0.0564042,-0.111337,0.178217,0.178217,-0.349406,5.47217e-10,-2.47989e-05,2.32853e-05,0.329011,0.19508462646310853,5.472169384290737e-10,-2.4798592509811535e-05,0.19508462646310853,2.3285571104647573e-05,-0.29489320121171125
206,0.1961,697.62,634.692,0.275132,0.00162356,0.0965735,-0.0516986,0.179054,0.179054,-0.351065,5.53574e-10,-2.29367e-05,2.55886e-05,0.330593,0.19608533103189818,5.535740754680774e-10,-2.2936436955944828e-05,0.19608533103189818,2.5588927391018146e-05,-0.29606200360124624
207,0.1971,698.002,635.012,-0.161157,0.00162131,0.053246,-0.115618,0.179889,0.179889,-0.352735,5.24885e-10,-2.45143e-05,2.28084e-05,0.332181,0.19708447936968843,5.248850243333436e-10,-2.451399952696498e-05,0.19708447936968843,2.2808660113504686e-05,-0.2972365989950926
208,0.1981,699.27,636.238,0.30615,0.00161473,0.0994999,-0.047055,0.180724,0.180724,-0.354389,5.33296e-10,-2.23996e-05,2.54803e-05,0.33376,0.19808446234475308,5.332960739679038e-10,-2.2399349130841628e-05,0.19808446234475308,2.5480624625595638e-05,-0.29839800890958146
209,0.1991,699.582,636.487,-0.194167,0.00161281,0.0497814,-0.120336,0.181559,0.181559,-0.356057,5.03014e-10,-2.42431e-05,2.23097e-05,0.335346,0.19908528065430553,5.030140748374379e-10,-2.424280613844143e-05,0.19908528065430553,2.2309948863208362e-05,-0.2995673055662048
210,0.2001,700.91,637.774,0.340347,0.00160596,0.10275,-0.04194,0.182392,0.182392,-0.357708,5.13536e-10,-2.18493e-05,2.53885e-05,0.336921,0.2000845348246716,5.135361025310203e-10,-2.184906130575648e-05,0.2000845348246716,2.5388822290750568e-05,-0.3007227658497881
211,0.2011,701.146,637.947,-0.230305,0.0016044,0.0460034,-0.1255,0.183225,0.183225,-0.359375,4.8159e-10,-2.39856e-05,2.17889e-05,0.338506,0.20108462172054353,4.815901011312462e-10,-2.398531234781842e-05,0.20108462172054353,2.1789137379712997e-05,-0.3018874899318742
212,0.2021,702.54,639.302,0.377792,0.00159728,0.106332,-0.036343,0.184057,0.184057,-0.361022,4.94259e-10,-2.12854e-05,2.53141e-05,0.340078,0.20208433995092978,4.942590781098488e-10,-2.128517346744463e-05,0.20208433995092978,2.5314420404543014e-05,-0.3030363349024259
213,0.2031,702.694,639.391,-0.269601,0.00159611,0.0419091,-0.131114,0.184889,0.184889,-0.362687,4.60599e-10,-2.37421e-05,2.1246e-05,0.341661,0.20308489029299426,4.6059889236005347e-10,-2.3741818158562467e-05,0.20308489029299426,2.1246225697879595e-05,-0.3041958138707108
214,0.2041,703.598,640.249,-0.151245,0.00158865,0.0530514,-0.114355,0.18572,0.18572,-0.364339,4.54869e-10,-2.32516e-05,2.15215e-05,0.343235,0.2040850693536702,4.5486903132996304e-10,-2.325132968361565e-05,0.2040850693536702,2.152173158909143e-05,-0.3053443334478233
215,0.2051,704.629,641.234,0.0978075,0.00158325,0.0782964,-0.0771172,0.18655,0.18655,-0.365987,4.55463e-10,-2.20606e-05,2.28153e-05,0.344807,0.20508487482310644,4.554630006481375e-10,-2.206035666674211e-05,0.20508487482310644,2.2815560270839086e-05,-0.3064881831952273
216,0.2061,705.275,641.828,-0.0397712,0.00158028,0.0646362,-0.0970403,0.18738,0.18738,-0.36764,4.40797e-10,-2.24391e-05,2.18058e-05,0.346381,0.20608551047556056,4.407969544928392e-10,-2.243884824526532e-05,0.20608551047556056,2.180603774815104e-05,-0.30763361127128586
217,0.2071,706.24,642.746,0.148446,0.0015758,0.0832997,-0.0694109,0.188208,0.188208,-0.369287,4.38602e-10,-2.14645e-05,2.27835e-05,0.347951,0.2070845628288307,4.3860204357315524e-10,-2.146426963922643e-05,0.2070845628288307,2.2783759545896842e-05,-0.30877300016920495
218,0.2081,706.834,643.286,-0.0363526,0.00157297,0.0648064,-0.0963975,0.189036,0.189036,-0.370938,4.22959e-10,-2.20261e-05,2.1506e-05,0.349523,0.20808444274001103,4.229590011561868e-10,-2.2025857427276918e-05,0.20808444274001103,2.1506231255630226e-05,-0.3099132743905425
219,0.2091,707.803,644.21,0.163374,0.00156823,0.0846185,-0.0671095,0.189864,0.189864,-0.372582,4.2113e-10,-2.09971e-05,2.25614e-05,0.35109,0.20908515089460344,4.211300197454193e-10,-2.0996879562473758e-05,0.20908515089460344,2.2561654510200313e-05,-0.3110468449171597
220,0.2101,708.367,644.719,-0.0459395,0.00156531,0.0636594,-0.0976819,0.190691,0.190691,-0.374231,4.05189e-10,-2.16603e-05,2.11354e-05,0.35266,0.21008547789259424,4.0518899346864146e-10,-2.1660065417372643e-05,0.21008547789259424,2.1135623354151534e-05,-0.3121819924834983
221,0.2111,709.351,645.659,0.174752,0.00156035,0.0855768,-0.0653372,0.191517,0.191517,-0.375872,4.04032e-10,-2.05426e-05,2.23188e-05,0.354224,0.21108542141715603,4.040319190323771e-10,-2.054238900228711e-05,0.21108542141715603,2.2319049066243934e-05,-0.3133097762341832
222,0.2121,709.886,646.14,-0.0575358,0.00155746,0.0623069,-0.0992601,0.192342,0.192342,-0.377518,3.87869e-10,-2.1303e-05,2.07511e-05,0.355792,0.21208497915069668,3.8786907019527916e-10,-2.13027730927573e-05,0.21208497915069668,2.0751315305655993e-05,-0.31443913862227313
223,0.2131,710.888,647.097,0.186229,0.00155236,0.0865456,-0.0635492,0.193167,0.193167,-0.379156,3.87402e-10,-2.0088e-05,2.20748e-05,0.357354,0.2130853618596229,3.874021103911218e-10,-2.0087798237478083e-05,0.2130853618596229,2.207504365014934e-05,-0.31556116812017987
224,0.2141,711.393,647.549,-0.0698277,0.00154956,0.0608827,-0.100936,0.193991,0.193991,-0.3808,3.71035e-10,-2.09496e-05,2.03601e-05,0.358919,0.21408535613885715,3.7103498051749284e-10,-2.094938055863249e-05,0.21408535613885715,2.036030726815241e-05,-0.31668546113770757
225,0.2151,712.412,648.525,0.198165,0.00154436,0.087562,-0.0616916,0.194814,0.194814,-0.382435,3.71237e-10,-1.96321e-05,2.18312e-05,0.360478,0.21508495966738983,3.712370411079746e-10,-1.963190729159514e-05,0.21508495966738983,2.183143830247758e-05,-0.31780176757955303
226,0.2161,712.888,648.946,-0.0826001,0.00154168,0.0594085,-0.102677,0.195637,0.195637,-0.384077,3.54686e-10,-2.05993e-05,1.99635e-05,0.362041,0.21608538620824946,3.546860583014677e-10,-2.0599087835915242e-05,0.21608538620824946,1.996369927192987e-05,-0.31892101792118344
227,0.2171,713.926,649.942,0.210533,0.0015364,0.0886232,-0.0597685,0.196459,0.196459,-0.385709,3.55527e-10,-1.9175e-05,2.15881e-05,0.363597,0.21708541935302628,3.555269412203188e-10,-1.91748161608718e-05,0.21708541935302628,2.158833302479124e-05,-0.32003163231209
228,0.2181,714.37,650.333,-0.0957519,0.00153386,0.0578945,-0.104468,0.19728,0.19728,-0.387349,3.38817e-10,-2.02516e-05,1.95621e-05,0.365158,0.21808505677732803,3.3881697447668557e-10,-2.0251394937775835e-05,0.21808505677732803,1.9562291339036975e-05,-0.3211458665133161
229,0.2191,715.428,651.349,0.223246,0.00152851,0.089721,-0.0577925,0.198101,0.198101,-0.388977,3.4026e-10,-1.87173e-05,2.13449e-05,0.366711,0.21908551524094566,3.4026004236409335e-10,-1.8717124832479115e-05,0.21908551524094566,2.1345127803940045e-05,-0.3222501419185565
230,0.2201,715.841,651.708,-0.109184,0.0015261,0.0563505,-0.106296,0.19892,0.19892,-0.390615,3.23422e-10,-1.99063e-05,1.91567e-05,0.36827,0.2200843552470786,3.234219558834184e-10,-1.9906101870970083e-05,0.2200843552470786,1.9156883490856202e-05,-0.3233593874659776
231,0.2211,716.919,652.746,0.236202,0.00152068,0.090845,-0.0557786,0.19974,0.19974,-0.392241,3.25425e-10,-1.82591e-05,2.11012e-05,0.369821,0.22108523472288377,3.254250202644471e-10,-1.8258933303649805e-05,0.22108523472288377,2.1101422631897293e-05,-0.3244587111096294
232,0.2221,717.301,653.073,-0.122788,0.00151842,0.0547875,-0.108144,0.200558,0.200558,-0.393876,3.08496e-10,-1.95628e-05,1.87479e-05,0.371377,0.22208449108502037,3.0849589549575285e-10,-1.9562608649659197e-05,0.22208449108502037,1.874807574298032e-05,-0.32556231867193375
233,0.2231,718.4,654.133,0.249287,0.00151292,0.0919838,-0.0537438,0.201376,0.201376,-0.395499,3.1101e-10,-1.78012e-05,2.08564e-05,0.372925,0.22308456517326558,3.11010106557319e-10,-1.7801041559573072e-05,0.22308456517326558,2.0856617496178842e-05,-0.32665604323116504
234,0.2241,718.749,654.428,-0.136443,0.00151081,0.0532175,-0.109995,0.202194,0.202194,-0.397132,2.94033e-10,-1.92208e-05,1.83366e-05,0.374479,0.224085457656793,2.9403302015396093e-10,-1.9220615281589915e-05,0.224085457656793,1.8336768116578028e-05,-0.32775471660160993
235,0.2251,719.869,655.51,0.262374,0.00150524,0.093125,-0.0517063,0.20301,0.20301,-0.398751,2.97007e-10,-1.7344e-05,2.06097e-05,0.376024,0.22508471903343552,2.970070855923268e-10,-1.7343849593731697e-05,0.22508471903343552,2.060991238139742e-05,-0.3288422011591433
236,0.2261,720.187,655.773,-0.150023,0.00150327,0.0516533,-0.11183,0.203826,0.203826,-0.400382,2.80027e-10,-1.88796e-05,1.79236e-05,0.377577,0.226084796140134,2.800268905644998e-10,-1.8879421781470285e-05,0.226084796140134,1.7923760628590912e-05,-0.3299359673202822
237,0.2271,721.328,656.877,0.275333,0.00149764,0.0942551,-0.0496857,0.204641,0.204641,-0.401999,2.83406e-10,-1.6888e-05,2.03606e-05,0.379119,0.22708446255771975,2.8340596536224893e-10,-1.688785739850651e-05,0.22708446255771975,2.0360807278407833e-05,-0.3310185853285731
238,0.2281,721.615,657.108,-0.163392,0.00149581,0.0501085,-0.11363,0.205456,0.205456,-0.403628,2.66475e-10,-1.85388e-05,1.75099e-05,0.380669,0.2280849440355277,2.664750642367153e-10,-1.853862815748286e-05,0.2280849440355277,1.7510053299085726e-05,-0.33210746891659826
239,0.2291,722.776,658.233,0.288024,0.0014901,0.09536,-0.0477022,0.20627,0.20627,-0.405241,2.70198e-10,-1.6434e-05,2.01082e-05,0.382209,0.22908501215247634,2.701980861274933e-10,-1.643386496252841e-05,0.22908501215247634,2.01084021711484e-05,-0.33318391118515833
240,0.2301,723.032,658.434,-0.176411,0.00148841,0.048597,-0.115374,0.207083,0.207083,-0.406868,2.53371e-10,-1.81977e-05,1.70964e-05,0.383756,0.23008466457100263,2.533711018770646e-10,-1.8197534422892403e-05,0.23008466457100263,1.7096546144346192e-05,-0.3342679388660116
241,0.2311,724.213,659.58,0.300305,0.00148264,0.0964255,-0.0457769,0.207896,0.207896,-0.408478,2.57376e-10,-1.59825e-05,1.98517e-05,0.385293,0.2310851300374046,2.5737589837149244e-10,-1.5982372280509693e-05,0.2310851300374046,1.985189704623025e-05,-0.335338905125261
242,0.2321,724.439,659.751,-0.188941,0.00148108,0.0471331,-0.117044,0.208708,0.208708,-0.410103,2.40709e-10,-1.78558e-05,1.6684e-05,0.386839,0.23208517712716548,2.4070900828121466e-10,-1.7855640586206256e-05,0.23208517712716548,1.668413917865763e-05,-0.33641810231923275
243,0.2331,725.639,660.916,0.312033,0.00147526,0.0974368,-0.0439307,0.209519,0.209519,-0.41171,2.44933e-10,-1.55341e-05,1.95904e-05,0.388373,0.2330848034995201,2.4493296280070354e-10,-1.55339793465048e-05,0.2330848034995201,1.959059189315937e-05,-0.3374836220543944
244,0.2341,725.837,661.059,-0.200839,0.00147382,0.045731,-0.118617,0.21033,0.21033,-0.413333,2.28484e-10,-1.75125e-05,1.62738e-05,0.389917,0.234085240897689,2.2848389846785722e-10,-1.7512346657033717e-05,0.234085240897689,1.6273932418986448e-05,-0.3385580140308706
245,0.2351,727.054,662.242,0.323067,0.00146794,0.0983795,-0.0421842,0.21114,0.21114,-0.414937,2.32864e-10,-1.50895e-05,1.93234e-05,0.391448,0.23508525489380894,2.328639503446084e-10,-1.5089386154021334e-05,0.23508525489380894,1.932358669809453e-05,-0.3396181165468599
246,0.2361,727.225,662.358,-0.211971,0.00146662,0.0444045,-0.120075,0.211949,0.211949,-0.416557,2.16691e-10,-1.71672e-05,1.58665e-05,0.392989,0.2360848431439475,2.166911095002888e-10,-1.716705264442897e-05,0.2360848431439475,1.586662587360621e-05,-0.34068706911269575
247,0.2371,728.459,663.558,0.333268,0.0014607,0.0992396,-0.0405577,0.212758,0.212758,-0.418159,2.21162e-10,-1.46494e-05,1.905e-05,0.394518,0.23708524038817447,2.211619776204543e-10,-1.4649292698010186e-05,0.23708524038817447,1.905018145231807e-05,-0.34174244284790567
248,0.2381,728.605,663.649,-0.222204,0.00145948,0.043167,-0.121398,0.213566,0.213566,-0.419777,-1.61772e-09,-1.68193e-05,1.54632e-05,0.396057,0.23808520919540266,-1.6177199579914259e-09,-1.6819158556335978e-05,0.23808520919540266,1.546331955593061e-05,-0.3428066424057693
249,0.2391,729.853,664.864,0.342509,0.00145352,0.100004,-0.0390701,0.214373,0.214373,-0.421375,-1.55436e-09,-1.42142e-05,1.87693e-05,0.397584,0.23908474721856998,-1.554359974065278e-09,-1.4214098978726497e-05,0.23908474721856998,1.8769476144431252e-05,-0.34385599873219674
250,0.2401,729.975,664.932,-0.231418,0.0014524,0.0420308,-0.122571,0.21518,0.21518,-0.422991,-1.56471e-09,-1.64684e-05,1.50646e-05,0.39912,0.2400850921944837,-1.564710028212346e-09,-1.6468264396607424e-05,0.2400850921944837,1.506471347156868e-05,-0.3449154711539649
251,0.2411,731.236,666.16,0.350669,0.00144641,0.100659,-0.0377388,0.215986,0.215986,-0.424587,1.98846e-10,-1.37846e-05,1.84808e-05,0.400644,0.2410850036889931,1.988460507362788e-10,-1.3784504992786495e-05,0.2410850036889931,1.8480970771062033e-05,-0.34596015218478826
252,0.2421,731.338,666.207,-0.239501,0.00144538,0.0410071,-0.123576,0.216791,0.216791,-0.4262,1.83842e-10,-1.6114e-05,1.46716e-05,0.402179,0.24208447935194344,1.838420526922846e-10,-1.611387017019794e-05,0.24208447935194344,1.4671707628366448e-05,-0.34701426808629254
253,0.2431,732.608,667.446,0.357642,0.00143937,0.101195,-0.0365795,0.217596,0.217596,-0.427793,1.88224e-10,-1.33611e-05,1.81838e-05,0.4037,0.24308475991673184,1.882241029704801e-10,-1.3361010740897683e-05,0.24308475991673184,1.8183965326379337e-05,-0.3480536462727074
254,0.2441,732.691,667.475,-0.246358,0.00143841,0.0401061,-0.1244,0.2184,0.2184,-0.429404,1.73712e-10,-1.57555e-05,1.42847e-05,0.405232,0.24408460194634118,1.7371193372639482e-10,-1.5755375882720024e-05,0.24408460194634118,1.4284802026809373e-05,-0.3491030862976525
255,0.2451,733.969,668.722,0.363335,0.0014324,0.101602,-0.0356056,0.219204,0.219204,-0.430995,1.77955e-10,-1.29441e-05,1.78777e-05,0.406751,0.24508524817218613,1.7795498408190724e-10,-1.2944016225535648e-05,0.24508524817218613,1.787785980700285e-05,-0.3501378399225734
256,0.2461,734.037,668.735,-0.251905,0.0014315,0.039336,-0.125031,0.220007,0.220007,-0.432603,1.6398e-10,-1.53928e-05,1.39046e-05,0.408281,0.24608545315502384,1.6397994073713562e-10,-1.5392681531500862e-05,0.24608545315502384,1.3904696669397865e-05,-0.35118197856352795
257,0.2471,735.32,669.988,0.367674,0.0014255,0.101872,-0.0348281,0.220809,0.220809,-0.434191,1.68035e-10,-1.25341e-05,1.75622e-05,0.409797,0.24708521453918175,1.6803491931227654e-10,-1.2534021448518118e-05,0.24708521453918175,1.7562354216238418e-05,-0.352211483937956
258,0.2481,735.375,669.988,-0.25608,0.00142464,0.0387036,-0.125462,0.22161,0.22161,-0.435797,1.54637e-10,-1.50254e-05,1.35317e-05,0.411325,0.2480845299684269,1.5463696989570508e-10,-1.5025287119274644e-05,0.2480845299684269,1.3531791553944572e-05,-0.3532509973420589
259,0.2491,736.661,671.243,0.3706,0.00141865,0.101998,-0.0342553,0.222411,0.222411,-0.437382,1.58462e-10,-1.21312e-05,1.72368e-05,0.412839,0.24908464616999737,1.5846191026014367e-10,-1.213112641729186e-05,0.24908464616999737,1.7236948554488762e-05,-0.35427528255080765
260,0.2501,736.705,671.234,-0.258837,0.00141784,0.0382137,-0.125684,0.223211,0.223211,-0.438986,1.45675e-10,-1.46533e-05,1.31664e-05,0.414364,0.2500843137006299,1.456750275963259e-10,-1.4653192640934343e-05,0.2500843137006299,1.3166486677373967e-05,-0.3553101947761049
261,0.2511,737.991,672.489,0.372077,0.00141187,0.101977,-0.0338925,0.224011,0.224011,-0.440568,1.49232e-10,-1.17358e-05,1.69015e-05,0.415875,0.2510847812852661,1.4923196012261997e-10,-1.1735731135775751e-05,0.2510847812852661,1.6901642831079755e-05,-0.35632928773289796
262,0.2521,738.028,672.473,-0.26015,0.00141108,0.0378691,-0.125696,0.22481,0.22481,-0.44217,1.37083e-10,-1.42762e-05,1.2809e-05,0.417398,0.25208479747878143,1.370830116087518e-10,-1.4276098095566958e-05,0.25208479747878143,1.2809082035492025e-05,-0.3573596226952903
263,0.2531,739.31,673.726,0.372088,0.00140516,0.101807,-0.0337422,0.225608,0.225608,-0.44375,1.40342e-10,-1.1348e-05,1.6556e-05,0.418907,0.2530843599195396,1.403419602752365e-10,-1.1347935611638604e-05,0.2530843599195396,1.6556137051315645e-05,-0.35837419277000826
264,0.2541,739.343,673.705,-0.260012,0.00140438,0.0376708,-0.125496,0.226406,0.226406,-0.445348,1.28851e-10,-1.3894e-05,1.24595e-05,0.420428,0.2540847203294727,1.288509299257612e-10,-1.3893903478834346e-05,0.2540847203294727,1.245957761986105e-05,-0.35939869201704966
265,0.2551,740.62,674.952,0.370635,0.0013985,0.101487,-0.0338037,0.227203,0.227203,-0.446926,1.31788e-10,-1.09678e-05,1.62005e-05,0.421935,0.2550846242603628,1.3178791391510458e-10,-1.0967739853873226e-05,0.2550846242603628,1.62006312287577e-05,-0.3604087637248724
266,0.2561,740.651,674.93,-0.258438,0.00139772,0.0376177,-0.125086,0.228,0.228,-0.448522,1.20969e-10,-1.3507e-05,1.21179e-05,0.423453,0.2560853254323441,1.2096901258473736e-10,-1.3506908780880345e-05,0.2560853254323441,1.2117973422043349e-05,-0.36142873718264046
267,0.2571,741.919,676.169,0.367742,0.00139191,0.10102,-0.0340734,0.228795,0.228795,-0.450097,1.23565e-10,-1.05951e-05,1.58351e-05,0.424957,0.2570843103099365,1.235649360609159e-10,-1.0595043872130283e-05,0.2570843103099365,1.5835225375848694e-05,-0.36243369530930936
268,0.2581,741.952,676.149,-0.25546,0.00139112,0.0377067,-0.124472,0.229591,0.229591,-0.451691,1.13427e-10,-1.31151e-05,1.17842e-05,0.426473,0.25808534778100056,1.1342704553385374e-10,-1.3115013997477831e-05,0.25808534778100056,1.1784269434045314e-05,-0.36344916645347236
269,0.2591,743.208,677.377,0.363452,0.00138537,0.10041,-0.034545,0.230385,0.230385,-0.453263,1.15671e-10,-1.023e-05,1.54601e-05,0.427975,0.2590846642232658,1.1567102831122611e-10,-1.022994767374552e-05,0.2590846642232658,1.5460219507934525e-05,-0.36444903825866304
270,0.2601,743.245,677.362,-0.251128,0.00138456,0.0379329,-0.123661,0.231179,0.231179,-0.454854,1.06212e-10,-1.27186e-05,1.14581e-05,0.429489,0.26008477443787203,1.0621192814141978e-10,-1.2718519118992688e-05,0.26008477443787203,1.1458165644295804e-05,-0.3654593958861758
271,0.2611,744.488,678.575,0.357827,0.00137889,0.0996626,-0.0352093,0.231972,0.231972,-0.456425,1.08098e-10,-9.87201e-06,1.50758e-05,0.430989,0.2610844179702765,1.0809797501565299e-10,-9.87196127189005e-06,0.2610844179702765,1.5075913640361094e-05,-0.366455476549014
272,0.2621,744.532,678.568,-0.245513,0.00137805,0.0382897,-0.122664,0.232765,0.232765,-0.458013,9.93149e-11,-1.23177e-05,1.11392e-05,0.432499,0.26208485453439767,9.931500066784338e-11,-1.2317624137447858e-05,0.26208485453439767,1.1139262041215403e-05,-0.3674607468563773
273,0.2631,745.758,679.765,0.350944,0.00137247,0.098786,-0.0360547,0.233557,0.233557,-0.459581,1.00843e-10,-9.521e-06,1.46829e-05,0.433997,0.2630848216739059,1.0084288959433252e-10,-9.5209546754349e-06,0.2630848216739059,1.4683007794280556e-05,-0.36845179122347227
274,0.2641,745.811,679.767,-0.238697,0.00137159,0.0387689,-0.121492,0.234348,0.234348,-0.461167,9.27234e-11,-1.19129e-05,1.0827e-05,0.435506,0.264084317016144,9.27233845260389e-11,-1.1912829041671458e-05,0.264084317016144,1.08270586121062e-05,-0.3694526328054246
275,0.2651,747.018,680.946,0.342897,0.0013661,0.0977894,-0.0370675,0.235139,0.235139,-0.462733,9.38985e-11,-9.17658e-06,1.42818e-05,0.437001,0.2650846032719629,9.389844457530216e-11,-9.17653789533901e-06,0.2650846032719629,1.4281901985491174e-05,-0.37043929722257496
276,0.2661,747.083,680.96,-0.230778,0.00136517,0.0393608,-0.12016,0.235929,0.235929,-0.464316,8.64269e-11,-1.15044e-05,1.05212e-05,0.438507,0.26608441498217483,8.642686566417979e-11,-1.150433382468563e-05,0.26608441498217483,1.0521255348061587e-05,-0.37143510342651287
277,0.2671,748.269,682.118,0.333791,0.00135979,0.0966836,-0.0382321,0.236719,0.236719,-0.46588,-1.30438e-09,-8.83833e-06,1.38733e-05,0.44,0.26708501685571107,-1.304380048416931e-09,-8.838290942114746e-06,0.26708501685571107,1.387339623470929e-05,-0.3724174105603404
278,0.2681,748.348,682.146,-0.221864,0.0013588,0.0400547,-0.118683,0.237508,0.237508,-0.46746,8.04146e-11,-1.10929e-05,1.02209e-05,0.441504,0.26808514143127216,8.041456389662471e-11,-1.1092838474002775e-05,0.26808514143127216,1.022095223368602e-05,-0.3734082081154676
279,0.2691,749.512,683.281,0.323743,0.00135354,0.0954803,-0.0395313,0.238296,0.238296,-0.469021,8.092e-11,-8.50577e-06,1.34582e-05,0.442995,0.2690847863310837,8.091993741743408e-11,-8.505733826047468e-06,0.2690847863310837,1.3458290561985109e-05,-0.3743855548849857
280,0.2701,749.606,683.326,-0.212074,0.00135248,0.0408389,-0.11708,0.239084,0.239084,-0.470599,7.46763e-11,-1.06787e-05,9.92568e-06,0.444496,0.2700852192615193,7.467626517154713e-11,-1.0678642982875353e-05,0.2700852192615193,9.925729259618876e-06,-0.3753719959726656
281,0.2711,750.745,684.437,0.312877,0.00134733,0.0941922,-0.040947,0.239871,0.239871,-0.472158,7.48727e-11,-8.1784e-06,1.30372e-05,0.445985,0.271085169757987,7.487277464690578e-11,-8.17836655697679e-06,0.271085169757987,1.303728498469603e-05,-0.37634503235200756
282,0.2721,750.857,684.5,-0.201532,0.00134621,0.0417009,-0.115367,0.240657,0.240657,-0.473733,6.92022e-11,-1.02624e-05,9.63469e-06,0.447484,0.2720846354399742,6.920219952633033e-11,-1.026234734180509e-05,0.2720846354399742,9.634736413799416e-06,-0.3773265158049429
283,0.2731,751.971,685.584,0.301323,0.00134118,0.0928324,-0.0424601,0.241443,0.241443,-0.47529,6.91112e-11,-7.85566e-06,1.26111e-05,0.448971,0.2730848870108016,6.911116123831107e-11,-7.855629144404297e-06,0.2730848870108016,1.2611179520227722e-05,-0.3782952640536158
284,0.2741,752.101,685.666,-0.190367,0.00133999,0.0426278,-0.113564,0.242228,0.242228,-0.476862,6.39831e-11,-9.84454e-06,9.34723e-06,0.450467,0.27408465100313206,6.398304108756747e-11,-9.844491542621014e-06,0.27408465100313206,9.347273685511581e-06,-0.37927181612749017
285,0.2751,753.187,686.724,0.289212,0.00133508,0.0914145,-0.0440512,0.243013,0.243013,-0.478417,6.36288e-11,-7.53699e-06,1.21809e-05,0.451952,0.27508520011831683,6.362887994271205e-11,-7.536961596943392e-06,0.27508520011831683,1.218097418753672e-05,-0.38023629837412
286,0.2761,753.337,686.826,-0.178709,0.00133381,0.0436065,-0.111689,0.243797,0.243797,-0.479987,5.90102e-11,-9.42573e-06,9.06255e-06,0.453445,0.2760852588870226,5.901013011566647e-11,-9.425685577935106e-06,0.2760852588870226,9.062591064923353e-06,-0.38120856395747826
287,0.2771,754.396,687.856,0.276679,0.00132903,0.0899522,-0.045701,0.24458,0.24458,-0.48154,5.84188e-11,-7.22184e-06,1.17474e-05,0.454928,0.27708482492376607,5.841882533275111e-11,-7.221813922542175e-06,0.27708482492376607,1.1747469000900068e-05,-0.38216880124040975
288,0.2781,754.566,687.98,-0.166687,0.00132768,0.0446239,-0.109761,0.245363,0.245363,-0.483106,5.42756e-11,-9.00652e-06,8.77989e-06,0.456419,0.27808517392720744,5.427569504945495e-11,-9.006479441464599e-06,0.27808517392720744,8.77992854331211e-06,-0.3831355677219409
289,0.2791,755.597,688.981,0.263852,0.00132303,0.0884587,-0.0473903,0.246145,0.246145,-0.484657,5.34745e-11,-6.90962e-06,1.13115e-05,0.4579,0.2790850274249834,5.347455811488544e-11,-6.909596128590323e-06,0.2790850274249834,1.1311563975269223e-05,-0.38409158287500367
290,0.2801,755.788,689.126,-0.154429,0.0013216,0.0456672,-0.107799,0.246926,0.246926,-0.486221,4.97721e-11,-8.58745e-06,8.49852e-06,0.459388,0.2800843830289683,4.977218637236547e-11,-8.587413127925103e-06,0.2800843830289683,8.498556112623845e-06,-0.38505411074638884
291,0.2811,756.791,690.098,0.250861,0.00131708,0.0869471,-0.0491007,0.247707,0.247707,-0.48777,4.87892e-11,-6.5998e-06,1.08741e-05,0.460867,0.28108451943454327,4.8789194906362354e-11,-6.5997782213722544e-06,0.28108451943454327,1.0874159123153149e-05,-0.38600592455872973
292,0.2821,757.003,690.266,-0.142057,0.00131557,0.046724,-0.10582,0.248488,0.248488,-0.489331,4.5493e-11,-8.16908e-06,8.21771e-06,0.462353,0.2820854372517525,4.5492942746250264e-11,-8.169046633144106e-06,0.2820854372517525,8.217743765470686e-06,-0.38696362163345677
293,0.2831,757.977,691.209,0.237824,0.00131118,0.0854299,-0.0508148,0.249267,0.249267,-0.490878,4.43565e-11,-6.29183e-06,1.04358e-05,0.46383,0.283084570919409,4.4356518458243954e-11,-6.2918102065046e-06,0.283084570919409,1.0435854453261229e-05,-0.38791125572682794
294,0.2841,758.211,691.399,-0.129687,0.00130959,0.0477825,-0.103841,0.250046,0.250046,-0.492436,4.14322e-11,-7.75191e-06,7.9368e-06,0.465313,0.2840844832154288,4.143219101138129e-11,-7.751879954054353e-06,0.2840844832154288,7.936831496468955e-06,-0.388864147494967
295,0.2851,759.155,692.313,0.224855,0.00130532,0.0839185,-0.0525162,0.250825,0.250825,-0.493981,4.017e-11,-5.98522e-06,9.99758e-06,0.466788,0.2850851747466001,4.0170089476987414e-11,-5.9852020886097534e-06,0.2850851747466001,9.9976299758886e-06,-0.3898076233643032
296,0.2861,759.411,692.525,-0.117425,0.00130366,0.0488318,-0.101877,0.251603,0.251603,-0.495536,3.75843e-11,-7.33643e-06,7.65515e-06,0.468269,0.28608536003418017,3.7584380052635424e-11,-7.33640308847594e-06,0.28608536003418017,7.655179300680715e-06,-0.39075573516200246
297,0.2871,760.327,693.411,0.212057,0.00129951,0.0824238,-0.0541898,0.25238,0.25238,-0.497079,3.62235e-11,-5.6795e-06,9.56002e-06,0.469742,0.2870850366830102,3.622346866904991e-11,-5.67948387164563e-06,0.2870850366830102,9.560065697078457e-06,-0.3916950741762293
298,0.2881,760.603,693.645,-0.105371,0.00129777,0.0498619,-0.0999425,0.253157,0.253157,-0.498632,3.39446e-11,-6.92309e-06,7.37218e-06,0.47122,0.28808549038244147,3.394462488870431e-11,-6.923066035446901e-06,0.28808549038244147,7.372207174505263e-06,-0.3926390385479772
299,0.2891,761.492,694.503,0.199525,0.00129374,0.0809555,-0.0558222,0.253933,0.253933,-0.500173,3.2511e-11,-5.37425e-06,9.12379e-06,0.472691,0.28908543265039977,3.251110491930831e-11,-5.374235558797125e-06,0.28908543265039977,9.123831621993261e-06,-0.39357426101559223
300,0.2901,761.789,694.757,-0.0936113,0.00129193,0.0508637,-0.0980504,0.254708,0.254708,-0.501723,3.05085e-11,-6.51228e-06,7.08739e-06,0.474167,0.2900848610892004,3.050848462748945e-11,-6.512258795110526e-06,0.2900848610892004,7.087415115680784e-06,-0.3945134928183289
301,0.2911,762.65,695.588,0.187341,0.00128802,0.079522,-0.0574014,0.255483,0.255483,-0.503262,2.90267e-11,-5.06908e-06,8.68948e-06,0.475635,0.2910850643852596,2.9026780978824718e-11,-5.0690671522524156e-06,0.2910850643852596,8.68951775356841e-06,-0.39544461986683477
302,0.2921,762.967,695.863,-0.082224,0.00128614,0.0518292,-0.0962115,0.256257,0.256257,-0.504809,2.7272e-11,-6.10436e-06,6.80033e-06,0.477109,0.2920847510539273,2.7271962466102195e-11,-6.10434136838478e-06,0.2920847510539273,6.8003531223936875e-06,-0.39637914399910856
303,0.2931,763.802,696.667,0.175576,0.00128235,0.0781308,-0.0589172,0.257031,0.257031,-0.506346,2.57648e-11,-4.76368e-06,8.25758e-06,0.478576,0.2930852117795977,2.5764723687871083e-11,-4.763668653651187e-06,0.2930852117795977,8.257614093842847e-06,-0.3973061966323299
304,0.2941,764.138,696.962,-0.0712746,0.0012804,0.0527517,-0.0944354,0.257804,0.257804,-0.50789,2.42317e-11,-5.69964e-06,6.51061e-06,0.480047,0.2940851530758233,2.4231727735468667e-11,-5.69962375707167e-06,0.2940851530758233,6.510631194167615e-06,-0.39823603784259176
305,0.2951,764.948,697.74,0.164291,0.00127671,0.0767882,-0.0603612,0.258576,0.258576,-0.509425,2.27197e-11,-4.45775e-06,7.82852e-06,0.481511,0.2950845725402744,2.2719603975929203e-11,-4.457740064300886e-06,0.2950845725402744,7.82855064285215e-06,-0.39915903694146226
306,0.2961,765.301,698.054,-0.0608176,0.00127471,0.0536256,-0.09273,0.259348,0.259348,-0.510967,2.1384e-11,-5.29837e-06,6.21791e-06,0.48298,0.29608476385444815,2.138400567730514e-11,-5.298355963634371e-06,0.29608476385444815,6.217929331198135e-06,-0.40008481974451626
307,0.2971,766.087,698.808,0.153534,0.00127112,0.0754991,-0.0617263,0.260119,0.260119,-0.5125,1.98863e-11,-4.15107e-06,7.40268e-06,0.484443,0.29708443052936273,1.9886314817085804e-11,-4.15106138429433e-06,0.29708443052936273,7.402707399961628e-06,-0.40100378514889456
308,0.2981,766.457,699.139,-0.0508962,0.00126906,0.0544462,-0.0911013,0.26089,0.26089,-0.514039,1.87259e-11,-4.90078e-06,5.92201e-06,0.485909,0.29808486824448166,1.872590971174759e-11,-4.900767991200539e-06,0.29808486824448166,5.9220275352434015e-06,-0.40192493131975915
309,0.2991,767.22,699.869,0.143342,0.00126557,0.0742675,-0.0630075,0.26166,0.26166,-0.51557,1.72591e-11,-3.84345e-06,6.98033e-06,0.48737,0.2990847785090778,1.7259083051612834e-11,-3.8434426139488664e-06,0.2990847785090778,6.980354362529084e-06,-0.40283988367516277
310,0.3001,767.606,700.217,-0.0415428,0.00126346,0.0552101,-0.0895541,0.26243,0.26243,-0.517106,1.62543e-11,-4.50701e-06,5.6227e-06,0.488833,0.3000854590010773,1.6254331214327067e-11,-4.506999843445492e-06,0.3000854590010773,5.622715807396261e-06,-0.40375641753563507
311,0.3011,768.347,700.926,0.133741,0.00126006,0.0730962,-0.064201,0.263198,0.263198,-0.518635,1.48331e-11,-3.53476e-06,6.56169e-06,0.490292,0.30108430814256515,1.483302369820194e-11,-3.5347537526986272e-06,0.30108430814256515,6.561711527908187e-06,-0.4046673773669588
312,0.3021,768.748,701.289,-0.0327795,0.0012579,0.0559151,-0.0880916,0.263967,0.263967,-0.520169,1.39664e-11,-4.1172e-06,5.3199e-06,0.491753,0.3020852267794172,1.3966383605179544e-11,-4.117191524377617e-06,0.3020852267794172,5.31991415075872e-06,-0.40557991751284017
313,0.3031,769.468,701.977,0.124748,0.0012546,0.071987,-0.0653047,0.264734,0.264734,-0.521696,1.26034e-11,-3.22492e-06,6.14693e-06,0.49321,0.3030843092475044,1.2603473820149702e-11,-3.2249147999818817e-06,0.3030843092475044,6.146948892338244e-06,-0.40648690431813495
314,0.3041,769.883,702.354,-0.0246188,0.00125239,0.0565596,-0.0867154,0.265502,0.265502,-0.523227,1.18593e-11,-3.7314e-06,5.01352e-06,0.494669,0.30408546239060485,1.1859402349045922e-11,-3.7313930383309213e-06,0.30408546239060485,5.0135325677658216e-06,-0.407394877636694
315,0.3051,770.583,703.022,0.11637,0.00124917,0.0709407,-0.0663176,0.266268,0.266268,-0.524752,1.0565e-11,-2.91386e-06,5.73613e-06,0.496124,0.3050847745424874,1.0565104346937915e-11,-2.913855754682615e-06,0.3050847745424874,5.736146451607027e-06,-0.40829791170980745
316,0.3061,771.011,703.413,-0.0170645,0.00124692,0.0571432,-0.0854262,0.267034,0.267034,-0.52628,9.93012e-12,-3.34966e-06,4.70359e-06,0.49758,0.3060848524607296,9.930056776852325e-12,-3.349654389861456e-06,0.3060848524607296,4.703601061972762e-06,-0.4092013421041174
317,0.3071,771.693,704.062,0.108606,0.00124378,0.0699574,-0.06724,0.267799,0.267799,-0.527803,8.71335e-12,-2.60158e-06,5.32935e-06,0.499033,0.3070843896470896,8.713252341863154e-12,-2.6015766159126485e-06,0.3070843896470896,5.329364201056563e-06,-0.41010044362049713
318,0.3081,772.132,704.464,-0.0101125,0.0012415,0.0576662,-0.0842232,0.268564,0.268564,-0.529329,8.17613e-12,-2.97198e-06,4.39013e-06,0.500487,0.30808469177194886,8.176126442549503e-12,-2.971975583632158e-06,0.30808469177194886,4.390139636711865e-06,-0.41099994385030325
319,0.3091,772.796,705.097,0.101448,0.00123843,0.0690361,-0.0680733,0.269328,0.269328,-0.53085,7.04375e-12,-2.28811e-06,4.92656e-06,0.501938,0.3090844503356045,7.043698957431843e-12,-2.288107382231175e-06,0.3090844503356045,4.926572135577345e-06,-0.41189513197255956
320,0.3101,773.246,705.51,-0.0037517,0.00123612,0.0581296,-0.083105,0.270092,0.270092,-0.532373,6.59441e-12,-2.59831e-06,4.07325e-06,0.50339,0.3100849730066544,6.594502721668505e-12,-2.5983066244128494e-06,0.3100849730066544,4.0732582957669905e-06,-0.412790133969546
321,0.3111,773.894,706.127,0.0948806,0.00123311,0.0681755,-0.0688198,0.270855,0.270855,-0.533892,5.5517e-12,-1.97349e-06,4.52774e-06,0.504838,0.31108494928349506,5.551781256940558e-12,-1.9734880526423026e-06,0.31108494928349506,4.527750250282736e-06,-0.41368142864636104
322,0.3121,774.353,706.549,0.00203467,0.00123079,0.0585352,-0.082069,0.271617,0.271617,-0.535413,5.18203e-12,-2.22861e-06,3.75306e-06,0.506288,0.3120843767483539,5.182076989740381e-12,-2.2286075166411123e-06,0.3120843767483539,3.7530670426999535e-06,-0.414572541330399
323,0.3131,774.987,707.151,0.0888843,0.00122784,0.0673736,-0.0694825,0.272379,0.272379,-0.53693,4.23283e-12,-1.6578e-06,4.13278e-06,0.507734,0.3130845660671706,4.232836303685872e-12,-1.6577986258203836e-06,0.3130845660671706,4.132788540056609e-06,-0.41545996150681275
324,0.3141,775.453,707.582,0.00726841,0.00122549,0.0588849,-0.081112,0.273141,0.273141,-0.538448,3.93603e-12,-1.86279e-06,3.42974e-06,0.509182,0.3140855178206987,3.935962666901105e-12,-1.862788264972437e-06,0.3140855178206987,3.42974588152245e-06,-0.4163466201410796
325,0.3151,776.074,708.17,0.0834345,0.0012226,0.066628,-0.0700651,0.273901,0.273901,-0.539963,3.08282e-12,-1.34114e-06,3.74159e-06,0.510626,0.3150846024183003,3.0828672947791347e-12,-1.3411391006634688e-06,0.3150846024183003,3.741596999784491e-06,-0.4172301855417764
326,0.3161,776.547,708.609,0.0119752,0.00122024,0.0591814,-0.0802304,0.274661,0.274661,-0.541478,2.85335e-12,-1.50074e-06,3.10346e-06,0.512071,0.31608444660880486,2.8532731732866523e-12,-1.500738873838614e-06,0.31608444660880486,3.10346481580126e-06,-0.41811241335437
327,0.3171,777.155,709.185,0.0785034,0.0012174,0.0659359,-0.0705717,0.275421,0.275421,-0.542991,2.09751e-12,-1.02363e-06,3.35402e-06,0.513514,0.3170850509697223,2.0974333381218457e-12,-1.0236294760712639e-06,0.3170850509697223,3.354025624791035e-06,-0.4189921435892212
328,0.3181,777.635,709.629,0.0161838,0.00121502,0.0594275,-0.0794199,0.27618,0.27618,-0.544504,1.93091e-12,-1.14234e-06,2.77442e-06,0.514956,0.3180850979932446,1.9308998844280723e-12,-1.1423393475595844e-06,0.3180850979932446,2.7744238486615558e-06,-0.4198705437986451
329,0.3191,778.231,710.194,0.0740604,0.00121224,0.0652941,-0.0710068,0.276938,0.276938,-0.546015,1.2728e-12,-7.05379e-07,2.96991e-06,0.516397,0.3190845852553401,1.2727596754302795e-12,-7.053787511868137e-07,0.3190845852553401,2.9699144101780206e-06,-0.42074645748752204
330,0.3201,778.716,710.644,0.0199251,0.00120985,0.0596265,-0.0786762,0.277696,0.277696,-0.547526,1.16556e-12,-7.8748e-07,2.44284e-06,0.517837,0.32008483041598734,1.1655121312514893e-12,-7.87479689901005e-07,0.32008483041598734,2.4428429836742538e-06,-0.42162104867022
331,0.3211,779.302,711.198,0.0700737,0.00120711,0.0646995,-0.0713752,0.278453,0.278453,-0.549034,6.04717e-13,-3.86538e-07,2.58911e-06,0.519276,0.3210845129647182,6.046274592108603e-13,-3.865379253342738e-07,0.3210845129647182,2.5891133517141895e-06,-0.42249258682389634
332,0.3221,779.79,711.653,0.0232313,0.00120471,0.0597814,-0.0779945,0.27921,0.27921,-0.550542,5.54091e-13,-4.36006e-07,2.10895e-06,0.520714,0.3220849525596441,5.540012892879531e-13,-4.3600590493575453e-07,0.3220849525596441,2.1089522237449643e-06,-0.42336281168850576
333,0.3231,780.367,712.197,0.0665101,0.00120202,0.0641488,-0.0716816,0.279966,0.279966,-0.552049,8.93643e-14,-6.72435e-08,2.21144e-06,0.52215,0.32308482668857774,8.926193117986259e-14,-6.72434977699865e-08,0.32308482668857774,2.211442445165801e-06,-0.42423114947443297
334,0.3241,780.859,712.656,0.0261353,0.00119962,0.0598957,-0.0773701,0.280722,0.280722,-0.553555,9.32766e-14,-8.77826e-08,1.77298e-06,0.523586,0.3240854570081573,9.325873406851315e-14,-8.778259619202089e-08,0.3240854570081573,1.7729815717792974e-06,-0.4250976047587328
335,0.3251,781.426,713.191,0.0633364,0.00119696,0.0636385,-0.071931,0.281477,0.281477,-0.555059,-2.77045e-13,2.52362e-07,1.83671e-06,0.52502,0.32508551900409666,-2.7700064464397656e-13,2.5236203193834683e-07,0.32508551900409666,1.836711686742376e-06,-0.42596160806782146
336,0.3261,781.921,713.653,0.0286702,0.00119456,0.0599727,-0.0767983,0.282231,0.282231,-0.556563,-2.20147e-13,2.57334e-07,1.43516e-06,0.526454,0.326085010246272,-2.2015722578316854e-13,2.5733403319350145e-07,0.326085010246272,1.4351610297946849e-06,-0.4268243128926382
337,0.3271,782.48,714.18,0.0605195,0.00119194,0.0631653,-0.0721282,0.282985,0.282985,-0.558064,-4.9821e-13,5.72135e-07,1.46476e-06,0.527887,0.32708525538902844,-4.981570711493077e-13,5.721351636900351e-07,0.32708525538902844,1.464761072655918e-06,-0.4276840042392236
338,0.3281,782.977,714.644,0.0308684,0.00118954,0.0600157,-0.0762743,0.283738,0.283738,-0.559566,-3.89459e-13,5.99486e-07,1.09571e-06,0.529318,0.3280849269154309,-3.894662370385049e-13,5.994861795866058e-07,0.3280849269154309,1.0957106002518202e-06,-0.42854297761436433
339,0.3291,783.529,715.164,0.058027,0.00118696,0.0627259,-0.0722779,0.284491,0.284491,-0.561066,-5.77738e-13,8.91934e-07,1.0954e-06,0.530748,0.32908535147797524,-5.777600620149315e-13,8.919343976732108e-07,0.32908535147797524,1.095400600004126e-06,-0.42939952058011654
340,0.3301,784.028,715.63,0.0327616,0.00118456,0.060028,-0.0757937,0.285243,0.285243,-0.562565,-4.17947e-13,9.38813e-07,7.54865e-07,0.532178,0.3300851995580465,-4.1799896877137144e-13,9.388134407650739e-07,0.3300851995580465,7.548652849465043e-07,-0.4302542099490444
341,0.3311,784.573,716.143,0.0558279,0.001182,0.0623171,-0.0723848,0.285994,0.285994,-0.564062,-5.19151e-13,1.21162e-06,7.28457e-07,0.533606,0.33108446872151975,-5.191402863147232e-13,1.2116207339651908e-06,0.33108446872151975,7.284572653976085e-07,-0.43110648131247276
342,0.3321,785.073,716.611,0.0343802,0.00117961,0.0600126,-0.075352,0.286745,0.286745,-0.565559,-3.08895e-13,1.27545e-06,4.12832e-07,0.535033,0.3320844886179999,-3.0886404545071855e-13,1.2754508134094067e-06,0.3320844886179999,4.1283208518372305e-07,-0.4319574777801678
343,0.3331,785.611,717.118,0.0538922,0.00117709,0.0619359,-0.072453,0.287496,0.287496,-0.567055,-3.25888e-13,1.53107e-06,3.63781e-07,0.536459,0.3330852598114986,-3.2585045772748344e-13,1.5310711720672998e-06,0.3330852598114986,3.6378106615941874e-07,-0.43280663406613795
344,0.3341,786.111,717.586,0.0357529,0.0011747,0.0599726,-0.0749451,0.288246,0.288246,-0.568549,-6.55784e-14,1.60952e-06,6.98186e-08,0.537884,0.33408544878033686,-6.561418075534675e-14,1.6095212953537441e-06,0.33408544878033686,6.981860245502958e-08,-0.43365338827195254
345,0.3351,786.644,718.087,0.052192,0.0011722,0.0615795,-0.0724868,0.288995,0.288995,-0.570042,-1.30648e-15,1.85016e-06,1.21321e-09,0.539308,0.33508505308655434,-1.3322676295501878e-15,1.8501617116140068e-06,0.33508505308655434,1.2132099769246452e-09,-0.4344983128701019
346,0.3361,787.144,718.555,0.0369068,0.00116982,0.0599105,-0.0745691,0.289744,0.289744,-0.571535,3.0875e-13,1.94115e-06,-2.73981e-07,0.540731,0.3360854063768568,3.086420008457935e-13,1.9411518841216946e-06,0.3360854063768568,-2.739809624729972e-07,-0.4353419769370468
347,0.3371,787.672,719.052,0.050701,0.00116735,0.0612451,-0.07249,0.290492,0.290492,-0.573026,4.5131e-13,2.16876e-06,-3.59388e-07,0.542153,0.3370851721266026,4.5141668181258865e-13,2.168762351706377e-06,0.3370851721266026,-3.593879354113483e-07,-0.4361832547209933
348,0.3381,788.172,719.52,0.0378672,0.00116498,0.0598292,-0.0742204,0.291239,0.291239,-0.574516,8.10864e-13,2.27046e-06,-6.18385e-07,0.543574,0.3380843478958686,8.109068971862143e-13,2.270462577502741e-06,0.3380843478958686,-6.18384808803718e-07,-0.4370227161174114
349,0.3391,788.695,720.011,0.0493948,0.00116254,0.0609303,-0.072466,0.291986,0.291986,-0.576005,1.02875e-12,2.48678e-06,-7.18155e-07,0.544994,0.33908427032827837,1.02873265461767e-12,2.4867830921149192e-06,0.33908427032827837,-7.181547421186707e-07,-0.4378603655083768
350,0.3401,789.194,720.479,0.0386574,0.00116017,0.0597309,-0.0738957,0.292733,0.292733,-0.577493,1.43757e-12,2.59755e-06,-9.63224e-07,0.546413,0.3400849399817971,1.4375167722846527e-12,2.5975533737288004e-06,0.3400849399817971,-9.632235361545227e-07,-0.43869620726401126
351,0.3411,789.712,720.966,0.048251,0.00115775,0.0606328,-0.0724182,0.293479,0.293479,-0.578979,1.72787e-12,2.80411e-06,-1.07521e-06,0.54783,0.34108501632912125,1.7279511155265936e-12,2.8041139314982644e-06,0.34108501632912125,-1.0752094219412811e-06,-0.43952968527248315
352,0.3421,790.211,721.434,0.0392986,0.0011554,0.0596179,-0.0735919,0.294224,0.294224,-0.580465,2.18572e-12,2.92251e-06,-1.30834e-06,0.549247,0.34208449692658105,2.185807090882008e-12,2.9225142705868734e-06,0.34208449692658105,-1.3083391441348624e-06,-0.44036192565242005
353,0.3431,790.725,721.917,0.0472493,0.001153,0.0603505,-0.0723496,0.294969,0.294969,-0.581949,2.5456e-12,3.12066e-06,-1.43065e-06,0.550663,0.34308472241452304,2.545519350860559e-12,3.120664869182832e-06,0.34308472241452304,-1.4306489766191532e-06,-0.44119181262631535
354,0.3441,791.222,722.383,0.0398103,0.00115066,0.059492,-0.0733063,0.295713,0.295713,-0.583433,3.05219e-12,3.24545e-06,-1.65359e-06,0.552077,0.3440843492630763,3.0522251392994804e-12,3.2454552665317493e-06,0.3440843492630763,-1.6535886327995186e-06,-0.4420204689613012
355,0.3451,791.732,722.862,0.0463712,0.00114828,0.0600815,-0.0722627,0.296457,0.296457,-0.584915,3.47893e-12,3.43635e-06,-1.78459e-06,0.553491,0.3450847201107383,3.4789948699653905e-12,3.4363559042738245e-06,0.3450847201107383,-1.7845884076050922e-06,-0.44284678217697004
356,0.3461,792.228,723.327,0.0402098,0.00114596,0.0593553,-0.0730363,0.2972,0.2972,-0.586396,4.03392e-12,3.56643e-06,-1.99884e-06,0.554904,0.3460844894260877,4.033884337673044e-12,3.5664363597920357e-06,0.3460844894260877,-1.9988380023372443e-06,-0.4436713153750247
357,0.3471,792.734,723.803,0.0456002,0.0011436,0.0598241,-0.0721601,0.297943,0.297943,-0.587876,4.5249e-12,3.75111e-06,-2.1371e-06,0.556315,0.3470850018460676,4.524824959162288e-12,3.7511170354331824e-06,0.3470850018460676,-2.1370977163481797e-06,-0.4444940728375666
358,0.3481,793.229,724.267,0.0405128,0.00114128,0.0592091,-0.0727798,0.298685,0.298685,-0.589356,5.12791e-12,3.88553e-06,-2.34397e-06,0.557726,0.3480849098374261,5.127898106138673e-12,3.885537548597995e-06,0.3480849098374261,-2.343967252849133e-06,-0.4453156135197037
359,0.3491,793.731,724.739,0.0449214,0.00113894,0.0595769,-0.0720438,0.299427,0.299427,-0.590833,5.68061e-12,4.06487e-06,-2.48826e-06,0.559135,0.3490855600358389,5.680567127797076e-12,4.064878261544891e-06,0.3490855600358389,-2.488256904298325e-06,-0.4461342776262641
360,0.3501,794.224,725.202,0.0407332,0.00113664,0.0590551,-0.0725347,0.300168,0.300168,-0.59231,6.33119e-12,4.20283e-06,-2.68888e-06,0.560543,0.35008560290595025,6.331157820227418e-12,4.202838831846023e-06,0.35008560290595025,-2.688876384993044e-06,-0.4469517334584694
361,0.3511,794.724,725.671,0.0443218,0.00113432,0.0593384,-0.0719158,0.300908,0.300908,-0.593786,6.94324e-12,4.37757e-06,-2.83814e-06,0.561951,0.3510850359967368,6.943334796005729e-12,4.377579581493762e-06,0.3510850359967368,-2.8381359724605204e-06,-0.44776743056733026
362,0.3521,795.215,726.132,0.0408832,0.00113203,0.0588944,-0.0722994,0.301648,0.301648,-0.595261,7.64085e-12,4.51837e-06,-3.03346e-06,0.563357,0.3520852089417228,7.640776900075252e-12,4.518380207763073e-06,0.3520852089417228,-3.0334553990929436e-06,-0.4485813731769993
363,0.3531,795.711,726.598,0.0437898,0.00112973,0.0591075,-0.0717778,0.302387,0.302387,-0.596734,8.30999e-12,4.68917e-06,-3.18679e-06,0.564763,0.3530847692031571,8.310019339319297e-12,4.689180994166264e-06,0.3530847692031571,-3.186784922171171e-06,-0.44939301489343186
364,0.3541,796.2,727.057,0.0409736,0.00112745,0.0587281,-0.0720723,0.303126,0.303126,-0.598207,9.05404e-12,4.83221e-06,-3.37763e-06,0.566167,0.35408506841263243,9.054090810423077e-12,4.832221675243886e-06,0.35408506841263243,-3.3776242958083458e-06,-0.45020346194170524
365,0.3551,796.693,727.52,0.0433154,0.00112517,0.0588831,-0.0716313,0.303864,0.303864,-0.599678,9.77812e-12,4.99962e-06,-3.53425e-06,0.56757,0.35508475203100365,9.778178267083604e-12,4.999632498225992e-06,0.35508475203100365,-3.534243754543809e-06,-0.45101161810460444
366,0.3561,797.181,727.977,0.0410139,0.00112291,0.0585573,-0.071852,0.304602,0.304602,-0.601149,1.0568e-11,5.14439e-06,-3.72131e-06,0.568972,0.3560851736881878,1.056799092680194e-11,5.144403232293371e-06,0.3560851736881878,-3.7213030759097876e-06,-0.4518185863437201
367,0.3571,797.671,728.438,0.0428897,0.00112064,0.0586644,-0.0714774,0.305339,0.305339,-0.602618,1.1345e-11,5.30888e-06,-3.88057e-06,0.570374,0.35708497684340346,1.1344924999434625e-11,5.308894092115324e-06,0.35708497684340346,-3.880562470581772e-06,-0.4526232736528456
368,0.3581,798.156,728.893,0.0410121,0.00111839,0.0583828,-0.0716375,0.306076,0.306076,-0.604086,1.21799e-11,5.45496e-06,-4.06443e-06,0.571774,0.35808551712514247,1.2179812713952742e-11,5.45497487824953e-06,0.35808551712514247,-4.064421740168633e-06,-0.45342623317063746
369,0.3591,798.644,729.351,0.0425052,0.00111614,0.0584506,-0.0713174,0.306812,0.306812,-0.605554,1.30079e-11,5.61692e-06,-4.22578e-06,0.573173,0.3590854359907514,1.3007817045718184e-11,5.616935774943599e-06,0.3590854359907514,-4.225771071397766e-06,-0.4542280148086325
370,0.3601,799.127,729.805,0.0409753,0.0011139,0.0582053,-0.0714278,0.307547,0.307547,-0.60702,1.38871e-11,5.76396e-06,-4.40692e-06,0.574571,0.3600847309821269,1.3887113681221308e-11,5.763976611561361e-06,0.3600847309821269,-4.406910289578292e-06,-0.4550275303508403
371,0.3611,799.612,730.26,0.0421553,0.00111167,0.058241,-0.0711522,0.308282,0.308282,-0.608485,1.47643e-11,5.92371e-06,-4.56991e-06,0.575969,0.3610847607253094,1.4764189870675182e-11,5.923727545154023e-06,0.3610847607253094,-4.569899557993473e-06,-0.4558253304875879
372,0.3621,800.093,730.712,0.0409095,0.00110945,0.0580255,-0.071222,0.309017,0.309017,-0.609949,1.5687e-11,6.0714e-06,-4.74874e-06,0.577365,0.36208552576053954,1.5687007248743612e-11,6.071418430897424e-06,0.36208552576053954,-4.7487287248015875e-06,-0.4566214193245376
373,0.3631,800.575,731.164,0.0418344,0.00110723,0.0580351,-0.0709827,0.30975,0.30975,-0.611412,1.66116e-11,6.22923e-06,-4.91297e-06,0.57876,0.36308430045712914,1.6611600983651442e-11,6.229249401634718e-06,0.36308430045712914,-4.912957931368922e-06,-0.45741580095621304
374,0.3641,801.054,731.614,0.0408199,0.00110502,0.0578438,-0.0710193,0.310484,0.310484,-0.612873,1.75769e-11,6.37733e-06,-5.08983e-06,0.580154,0.3640851716084419,1.7576828881260553e-11,6.3773503351516325e-06,0.3640851716084419,-5.089817046832756e-06,-0.45820793767424084
375,0.3651,801.533,732.064,0.0415378,0.00110282,0.0578323,-0.0708094,0.311217,0.311217,-0.614334,1.85474e-11,6.53347e-06,-5.25497e-06,0.581547,0.36508541258276295,1.8547385849387865e-11,6.533491343052589e-06,0.36508541258276295,-5.254956192635163e-06,-0.45899891792552827
376,0.3661,802.01,732.512,0.0407108,0.00110062,0.0576608,-0.0708193,0.311949,0.311949,-0.615794,1.95544e-11,6.68177e-06,-5.43015e-06,0.582939,0.3660850209167894,1.9554358132722882e-11,6.681792322993374e-06,0.3660850209167894,-5.430135256778712e-06,-0.4597882031869127
377,0.3671,802.487,732.96,0.0412614,0.00109844,0.0576323,-0.0706331,0.312681,0.312681,-0.617252,2.05693e-11,6.8364e-06,-5.59594e-06,0.584331,0.36708536123198865,2.05693240218352e-11,6.8364233682949305e-06,0.36708536123198865,-5.595924342793879e-06,-0.46057525808422173
378,0.3681,802.962,733.406,0.0405858,0.00109626,0.0574768,-0.0706213,0.313412,0.313412,-0.61871,2.16171e-11,6.98472e-06,-5.76966e-06,0.585721,0.36808506597861723,2.1617152512476423e-11,6.984744393312425e-06,0.36808506597861723,-5.769643355524323e-06,-0.4613611662916304
379,0.3691,803.436,733.852,0.0410018,0.00109408,0.0574347,-0.0704543,0.314143,0.314143,-0.620167,2.26747e-11,7.13801e-06,-5.93588e-06,0.58711,0.36908550177658217,2.2674750965734347e-11,7.138035475584559e-06,0.36908550177658217,-5.935862382733248e-06,-0.4621453916254552
380,0.3701,803.909,734.295,0.0404482,0.00109192,0.0572922,-0.070425,0.314873,0.314873,-0.621622,2.37623e-11,7.28623e-06,-6.10832e-06,0.588498,0.3700852990744936,2.376232544065715e-11,7.286256544558611e-06,0.3700852990744936,-6.108301344287526e-06,-0.4629274010308366
381,0.3711,804.381,734.739,0.0407563,0.00108976,0.0572392,-0.0702733,0.315602,0.315602,-0.623076,2.48614e-11,7.43829e-06,-6.27479e-06,0.589885,0.3710844554057522,2.4861446235036055e-11,7.438317664254512e-06,0.3710844554057522,-6.2747703135634936e-06,-0.4637077371479039
382,0.3721,804.851,735.181,0.0403003,0.00108761,0.0571071,-0.07023,0.316331,0.316331,-0.62453,2.59879e-11,7.58629e-06,-6.44611e-06,0.591271,0.3720843403875371,2.598787851582074e-11,7.586318776064971e-06,0.3720843403875371,-6.4460892238438205e-06,-0.46448693948071795
383,0.3731,805.321,735.622,0.0405223,0.00108546,0.0570456,-0.0700905,0.31706,0.31706,-0.625982,2.7127e-11,7.73725e-06,-6.61267e-06,0.592656,0.3730849545512285,2.712696733908615e-11,7.737279932529262e-06,0.3730849545512285,-6.612648136394839e-06,-0.46526394020555284
384,0.3741,805.789,736.061,0.0401445,0.00108333,0.056922,-0.0700361,0.317788,0.317788,-0.627433,2.82915e-11,7.88493e-06,-6.783e-06,0.594041,0.3740849243429818,2.829159129191794e-11,7.884961086057629e-06,0.3740849243429818,-6.7829769955229935e-06,-0.4660392795835625
385,0.3751,806.257,736.501,0.040298,0.0010812,0.0568537,-0.0699062,0.318515,0.318515,-0.628884,2.94694e-11,8.03486e-06,-6.94953e-06,0.595424,0.3750842472928573,2.9469315876440305e-11,8.034892279518147e-06,0.3750842472928573,-6.949505852116289e-06,-0.46681349475994016
386,0.3761,806.723,736.938,0.0399824,0.00107907,0.0567368,-0.0698429,0.319242,0.319242,-0.630333,3.06707e-11,8.18215e-06,-7.11895e-06,0.596806,0.3760842970146667,3.067079923368965e-11,8.182183473870452e-06,0.3760842970146667,-7.1189246603209355e-06,-0.4675855225368295
387,0.3771,807.188,737.375,0.0400818,0.00107696,0.0566633,-0.0697207,0.319969,0.319969,-0.631781,3.18861e-11,8.33113e-06,-7.28536e-06,0.598187,0.3770850740369658,3.1886049356444346e-11,8.331164703889726e-06,0.3770850740369658,-7.28533346183724e-06,-0.4683559008117205
388,0.3781,807.652,737.811,0.0398155,0.00107485,0.0565519,-0.0696504,0.320695,0.320695,-0.633228,3.31235e-11,8.47797e-06,-7.45396e-06,0.599567,0.37808520080280394,3.3123503939691545e-11,8.478005938172828e-06,0.37808520080280394,-7.45393221934787e-06,-0.4691246335110064
389,0.3791,808.115,738.246,0.0398722,0.00107274,0.0564742,-0.0695343,0.32142,0.32142,-0.634674,3.43752e-11,8.62606e-06,-7.62015e-06,0.600946,0.37908467483894515,3.437516937765395e-11,8.626097204533778e-06,0.37908467483894515,-7.62012096677811e-06,-0.4698917245504677
390,0.3801,808.577,738.679,0.0396449,0.00107065,0.0563673,-0.0694584,0.322145,0.322145,-0.636119,3.56475e-11,8.7724e-06,-7.78799e-06,0.602325,0.38008487375650013,3.5647484963874376e-11,8.772438477633315e-06,0.38008487375650013,-7.78795967371071e-06,-0.4706571778353036
391,0.3811,809.037,739.112,0.0396682,0.00106856,0.0562865,-0.069347,0.322869,0.322869,-0.637563,3.69344e-11,8.91964e-06,-7.95391e-06,0.603702,0.3810844169960912,3.693445549401986e-11,8.919679780117207e-06,0.3810844169960912,-7.953878367716882e-06,-0.4714209972601624
392,0.3821,809.497,739.544,0.0394718,0.00106647,0.0561831,-0.0692667,0.323593,0.323593,-0.639006,3.82407e-11,9.06545e-06,-8.12104e-06,0.605078,0.38208468416701935,3.824074390479382e-11,9.065491091364564e-06,0.38208468416701935,-8.121007024408655e-06,-0.4721831867091728
393,0.3831,809.956,739.974,0.039469,0.0010644,0.0561,-0.069159,0.324316,0.324316,-0.640448,3.95616e-11,9.21187e-06,-8.28662e-06,0.606453,0.383084292708616,3.956168725949283e-11,9.211912429307745e-06,0.383084292708616,-8.286585666095192e-06,-0.47294375005597444
394,0.3841,810.413,740.404,0.0392967,0.00106233,0.0559994,-0.0690753,0.325039,0.325039,-0.641889,4.09009e-11,9.35712e-06,-8.45308e-06,0.607828,0.38408462422851364,4.090083827179569e-11,9.357163778034305e-06,0.38408462422851364,-8.453044272771493e-06,-0.4737026911637484
395,0.3851,810.869,740.833,0.0392737,0.00106027,0.0559145,-0.0689704,0.325761,0.325761,-0.643329,4.22549e-11,9.50277e-06,-8.61828e-06,0.609201,0.3850842941646275,4.225486627262853e-11,9.502815151440913e-06,0.3850842941646275,-8.618242862690195e-06,-0.47446001388524783
396,0.3861,811.325,741.26,0.0391205,0.00105821,0.0558163,-0.068884,0.326483,0.326483,-0.644767,4.36262e-11,9.64743e-06,-8.7841e-06,0.610573,0.386084686123054,4.3626213752645526e-11,9.647476536533972e-06,0.386084686123054,-8.784061419908618e-06,-0.47521519727828776
397,0.3871,811.779,741.687,0.0390818,0.00105616,0.0557302,-0.0687814,0.327204,0.327204,-0.646205,4.50121e-11,9.79231e-06,-8.94889e-06,0.611945,0.3870844135401743,4.5011994131982647e-11,9.792357944737873e-06,0.3870844135401743,-8.94884995883416e-06,-0.4759692954980351
398,0.3881,812.232,742.113,0.0389435,0.00105412,0.0556339,-0.0686929,0.327925,0.327925,-0.647642,-3.72702e-10,9.93637e-06,-9.11409e-06,0.613315,0.3880848620206747,-3.727019803889675e-10,9.936419365974558e-06,0.3880848620206747,-9.114048466818403e-06,-0.47672178682589617
399,0.3891,812.684,742.538,0.0388928,0.00105208,0.0555468,-0.068592,0.328645,0.328645,-0.649078,4.78313e-11,1.00805e-05,-9.27843e-06,0.614684,0.38908464299929135,4.783129448071577e-11,1.0080550808311273e-05,0.38908464299929135,-9.278386955524631e-06,-0.4774726750732189
400,0.3901,813.135,742.961,0.0387662,0.00105005,0.0554521,-0.0685019,0.329365,0.329365,-0.650512,4.92639e-11,1.0224e-05,-9.44302e-06,0.616053,0.39008514407941797,4.926392627169207e-11,1.0224052265250805e-05,0.39008514407941797,-9.442975414830634e-06,-0.47822144226277796
401,0.3911,813.585,743.384,0.0387064,0.00104803,0.0553645,-0.0684023,0.330084,0.330084,-0.651946,5.07105e-11,1.03674e-05,-9.6069e-06,0.61742,0.39108497469404413,5.071054687277865e-11,1.0367453741721988e-05,0.39108497469404413,-9.606853853871833e-06,-0.4789691364896854
402,0.3921,814.034,743.806,0.0385889,0.00104601,0.0552711,-0.068311,0.330803,0.330803,-0.653378,5.21724e-11,1.05102e-05,-9.7709e-06,0.618787,0.39208552444538114,5.2172488551605056e-11,1.0510255232354382e-05,0.39208552444538114,-9.77085226494534e-06,-0.4797147187219448
403,0.3931,814.482,744.227,0.0385222,0.001044,0.0551831,-0.0682124,0.331521,0.331521,-0.65481,5.3648e-11,1.06529e-05,-9.93429e-06,0.620152,0.3930854007645763,5.364797495133189e-11,1.0652956742296382e-05,0.3930854007645763,-9.934240655096183e-06,-0.4804592340445373
404,0.3941,814.929,744.647,0.0384118,0.001042,0.0550908,-0.0681201,0.332238,0.332238,-0.656241,5.51382e-11,1.07951e-05,-1.00977e-05,0.621517,0.3940846011674626,5.5138116294983774e-11,1.0795158267296046e-05,0.3940846011674626,-1.0097649018381283e-05,-0.4812021651866085
405,0.3951,815.375,745.066,0.03834,0.00104,0.0550027,-0.0680223,0.332955,0.332955,-0.65767,5.66418e-11,1.09371e-05,-1.02606e-05,0.62288,0.395084518253938,5.6641802359536086e-11,1.0937159810264774e-05,0.395084518253938,-1.0260547360196881e-05,-0.48194299784155736
406,0.3961,815.82,745.484,0.0382352,0.00103801,0.0549113,-0.0679293,0.333672,0.333672,-0.659099,5.81594e-11,1.10787e-05,-1.04234e-05,0.624243,0.3960851525380489,5.8159477234198675e-11,1.1078761368965573e-05,0.3960851525380489,-1.0423345676580098e-05,-0.48268277260268744
407,0.3971,816.264,745.901,0.0381595,0.00103602,0.0548231,-0.0678321,0.334388,0.334388,-0.660526,5.969e-11,1.122e-05,-1.05858e-05,0.625605,0.39708510744840475,5.969003069594692e-11,1.122006294451694e-05,0.39708510744840475,-1.0585743970614736e-05,-0.4834204578225981
408,0.3981,816.707,746.317,0.0380592,0.00103404,0.0547326,-0.0677385,0.335103,0.335103,-0.661953,-3.17808e-10,1.13609e-05,-1.07481e-05,0.626965,0.3980843804977743,-3.178080021370988e-10,1.1360964535356288e-05,0.3980843804977743,-1.0748042239328015e-05,-0.4841570911164279
409,0.3991,817.149,746.732,0.0379808,0.00103207,0.0546445,-0.0676418,0.335818,0.335818,-0.663378,6.2791e-11,1.15016e-05,-1.09099e-05,0.628325,0.39908436828286176,6.27911056483299e-11,1.1501666143720612e-05,0.39908436828286176,-1.0909840487238753e-05,-0.48489164376852234
410,0.4001,817.59,747.147,0.0378839,0.0010301,0.0545547,-0.0675477,0.336533,0.336533,-0.664803,6.43608e-11,1.16418e-05,-1.10716e-05,0.629684,0.400085071314886,6.436073896054495e-11,1.1641867766032377e-05,0.400085071314886,-1.1071538710050177e-05,-0.4856251504285338
411,0.4011,818.03,747.56,0.0378035,0.00102814,0.0544668,-0.0674514,0.337247,0.337247,-0.666226,6.5943e-11,1.17818e-05,-1.12329e-05,0.631041,0.4010850890196418,6.594302881524072e-11,1.1781869405647072e-05,0.4010850890196418,-1.1232836911179156e-05,-0.4863565853001376
412,0.4021,818.469,747.972,0.0377094,0.00102619,0.0543777,-0.067357,0.33796,0.33796,-0.667649,6.75376e-11,1.19214e-05,-1.1394e-05,0.632398,0.40208441890688174,6.753753112320737e-11,1.192147106010566e-05,0.40208441890688174,-1.1393935088643836e-05,-0.48708698008011975
413,0.4031,818.907,748.384,0.0376277,0.00102424,0.05429,-0.067261,0.338673,0.338673,-0.66907,6.91442e-11,1.20608e-05,-1.15548e-05,0.633754,0.4030844615704061,6.91442458844449e-11,1.2060872731645134e-05,0.4030844615704061,-1.1554733243546167e-05,-0.4878153118791263
414,0.4041,819.344,748.794,0.0375358,0.00102229,0.0542015,-0.0671664,0.339386,0.339386,-0.670491,7.07629e-11,1.21997e-05,-1.17153e-05,0.635109,0.40408521751860516,7.076295105434838e-11,1.2199774416687958e-05,0.40408521751860516,-1.1715231376108193e-05,-0.4885426094536368
415,0.4051,819.78,749.204,0.0374532,0.00102036,0.0541141,-0.0670705,0.340098,0.340098,-0.67191,7.23931e-11,1.23384e-05,-1.18755e-05,0.636463,0.40508528217424766,7.239320254370796e-11,1.233847611836758e-05,0.40508528217424766,-1.1875429486551958e-05,-0.4892678528089681
416,0.4061,820.215,749.613,0.0373631,0.00101843,0.0540261,-0.0669758,0.340809,0.340809,-0.673329,7.40349e-11,1.24767e-05,-1.20355e-05,0.637816,0.40608465304411756,7.403500035252364e-11,1.2476777834447006e-05,0.40608465304411756,-1.2035427573664492e-05,-0.48999206777379367
417,0.4071,820.649,750.021,0.03728,0.0010165,0.0539391,-0.0668801,0.34152,0.34152,-0.674746,7.56879e-11,1.26147e-05,-1.21951e-05,0.639168,0.40708473471933737,7.568790039158557e-11,1.2614779565600642e-05,0.40708473471933737,-1.2195025640093782e-05,-0.49071423723585805
418,0.4081,821.082,750.427,0.0371914,0.00101458,0.0538516,-0.0667853,0.342231,0.342231,-0.676163,7.73521e-11,1.27524e-05,-1.23545e-05,0.640519,0.40808552770546913,7.735212470549868e-11,1.2752481312272579e-05,0.40808552770546913,-1.2354423683524907e-05,-0.4914353841084703
419,0.4091,821.514,750.834,0.037108,0.00101267,0.053765,-0.0666898,0.342941,0.342941,-0.677578,7.90272e-11,1.28898e-05,-1.25136e-05,0.641869,0.4090856234221072,7.902722920505312e-11,1.2889883073796682e-05,0.4090856234221072,-1.251352170528186e-05,-0.49215449414961776
420,0.4101,821.945,751.239,0.0370206,0.00101077,0.053678,-0.0665949,0.34365,0.34365,-0.678993,8.07129e-11,1.30268e-05,-1.26724e-05,0.643219,0.41008501937311337,8.071299184564396e-11,1.3026884849054454e-05,0.41008501937311337,-1.2672319705475665e-05,-0.49287258736962747
421,0.4111,822.375,751.643,0.0369372,0.00100886,0.0535917,-0.0664995,0.344359,0.344359,-0.680406,8.24092e-11,1.31635e-05,-1.28309e-05,0.644567,0.41108512414709675,8.240919058266627e-11,1.3163586639164393e-05,0.41108512414709675,-1.2830817684328366e-05,-0.4935886523846017
422,0.4121,822.804,752.046,0.0368509,0.00100697,0.0535053,-0.0664046,0.345067,0.345067,-0.681818,8.41158e-11,1.32999e-05,-1.29892e-05,0.645914,0.4120845261615589,8.411582541612006e-11,1.3299988444126498e-05,0.4120845261615589,-1.2989115640738014e-05,-0.4943032006176633
423,0.4131,823.233,752.449,0.0367675,0.00100508,0.0534193,-0.0663093,0.345775,0.345775,-0.68323,8.58325e-11,1.3436e-05,-1.31471e-05,0.647261,0.4130846360031888,8.583245225679548e-11,1.343609026349668e-05,0.4130846360031888,-1.3147013577241573e-05,-0.49501674062059775
424,0.4141,823.66,752.85,0.0366822,0.0010032,0.0533334,-0.0662144,0.346483,0.346483,-0.68464,8.75592e-11,1.35717e-05,-1.33048e-05,0.648606,0.414085454173305,8.755929314929745e-11,1.3571792095934399e-05,0.414085454173305,-1.3304711491524124e-05,-0.4957282652735605
425,0.4151,824.087,753.251,0.036599,0.00100132,0.0532479,-0.0661192,0.34719,0.34719,-0.68605,8.92956e-11,1.37072e-05,-1.34621e-05,0.649951,0.4150855660873083,8.929568195981119e-11,1.3707293944120735e-05,0.4150855660873083,-1.3462009386344675e-05,-0.4964387873837214
426,0.4161,824.512,753.651,0.0365145,0.000999446,0.0531624,-0.0660243,0.347896,0.347896,-0.687458,9.10416e-11,1.38423e-05,-1.36192e-05,0.651294,0.416084969244769,9.104161868833671e-11,1.3842395805152563e-05,0.416084969244769,-1.3619107259166263e-05,-0.49714730265928064
427,0.4171,824.937,754.05,0.0364316,0.00099758,0.0530773,-0.0659293,0.348602,0.348602,-0.688866,9.2797e-11,1.39771e-05,-1.3776e-05,0.652637,0.41708507822998686,9.279710333487401e-11,1.3977197680148379e-05,0.41708507822998686,-1.377590511131288e-05,-0.4978548210473054
428,0.4181,825.36,754.448,0.0363478,0.000995719,0.0529923,-0.0658344,0.349307,0.349307,-0.690272,9.45616e-11,1.41115e-05,-1.39325e-05,0.653979,0.41808447545626737,9.456169181021323e-11,1.4111599567767641e-05,0.41808447545626737,-1.3932402943117594e-05,-0.49856034107211067
429,0.4191,825.783,754.845,0.0362653,0.000993864,0.0529076,-0.0657395,0.350012,0.350012,-0.691678,9.63353e-11,1.42457e-05,-1.40887e-05,0.655319,0.4190845775060137,9.633538411435438e-11,1.4245801470469388e-05,0.4190845775060137,-1.4088600754691427e-05,-0.49926486983278306
430,0.4201,826.205,755.242,0.0361822,0.000992014,0.0528231,-0.0656447,0.350717,0.350717,-0.693083,9.81178e-11,1.43796e-05,-1.42446e-05,0.656659,0.4200853848763013,9.811773615808761e-11,1.4379703386913079e-05,0.4200853848763013,-1.4244498546145401e-05,-0.49996790869021923
431,0.4211,826.626,755.637,0.0361,0.00099017,0.0527388,-0.0655498,0.351421,0.351421,-0.694486,9.99091e-11,1.45131e-05,-1.44002e-05,0.657998,0.42108547697836896,9.990919203062276e-11,1.4513205315536126e-05,0.42108547697836896,-1.4400096317590538e-05,-0.5006689618105664
432,0.4221,827.046,756.032,0.0360176,0.000988332,0.0526547,-0.0654551,0.352124,0.352124,-0.695889,1.01709e-10,1.46463e-05,-1.45555e-05,0.659336,0.4220848513076032,1.0170908559814507e-10,1.4646407257679073e-05,0.4220848513076032,-1.4555394069248884e-05,-0.5013690320430426
433,0.4231,827.465,756.426,0.0359359,0.000986499,0.0525709,-0.0653604,0.352827,0.352827,-0.69729,1.03517e-10,1.47792e-05,-1.47105e-05,0.660673,0.4230849284439986,1.0351697277144467e-10,1.4779309212897829e-05,0.4230849284439986,-1.4710391801120437e-05,-0.5020671249009186
434,0.4241,827.883,756.819,0.035854,0.000984672,0.0524873,-0.0652658,0.353529,0.353529,-0.698691,1.05333e-10,1.49118e-05,-1.48652e-05,0.662009,0.4240842847968054,1.053330755951265e-10,1.4911911181414439e-05,0.4240842847968054,-1.4865089513427243e-05,-0.5027642404154895
435,0.4251,828.3,757.211,0.0357727,0.00098285,0.0524039,-0.0651711,0.354231,0.354231,-0.700091,1.07158e-10,1.50441e-05,-1.50197e-05,0.663344,0.42508434294407316,1.0715806020300533e-10,1.5044213163006859e-05,0.42508434294407316,-1.5019587204845308e-05,-0.5034598834151864
436,0.4261,828.717,757.603,0.0356914,0.000981034,0.0523207,-0.0650766,0.354933,0.354933,-0.701489,1.0899e-10,1.51761e-05,-1.51738e-05,0.664679,0.42608510337863414,1.0898992819363684e-10,1.5176215157675088e-05,0.42608510337863414,-1.5173684878466709e-05,-0.5041535615042105
437,0.4271,829.132,757.993,0.0356106,0.000979223,0.0522378,-0.0649821,0.355634,0.355634,-0.702887,1.1083e-10,1.53077e-05,-1.53276e-05,0.666012,0.42708513950781435,1.1083001183465058e-10,1.530781716341245e-05,0.42708513950781435,-1.532748253296745e-05,-0.5048462705088139
438,0.4281,829.547,758.383,0.0355298,0.000977417,0.0521551,-0.0648877,0.356334,0.356334,-0.704284,1.12677e-10,1.54391e-05,-1.54812e-05,0.667344,0.42808444882292496,1.1267697885841699e-10,1.5439219183566166e-05,0.42808444882292496,-1.5481080166801497e-05,-0.5055375173205948
439,0.4291,829.96,758.772,0.0354495,0.000975617,0.0520726,-0.0647933,0.357034,0.357034,-0.70568,1.14532e-10,1.55701e-05,-1.56344e-05,0.668676,0.42908445789944416,1.145319394879607e-10,1.557022121456697e-05,0.42908445789944416,-1.563427778339399e-05,-0.5062273053623396
440,0.4301,830.373,759.16,0.0353693,0.000973822,0.0519903,-0.064699,0.357734,0.357734,-0.707074,1.16394e-10,1.57009e-05,-1.57873e-05,0.670006,0.4300851672273762,1.1639400554486201e-10,1.570102325976208e-05,0.4300851672273762,-1.5787175381198892e-05,-0.5069151449630767
441,0.4311,830.785,759.547,0.0352894,0.000972033,0.0519083,-0.0646047,0.358433,0.358433,-0.708468,1.18263e-10,1.58313e-05,-1.594e-05,0.671336,0.4310851462112071,1.18262954984516e-10,1.5831425315582237e-05,0.4310851462112071,-1.593987295889221e-05,-0.5076020263834171
442,0.4321,831.196,759.933,0.0352097,0.000970249,0.0518264,-0.0645106,0.359131,0.359131,-0.709861,1.20139e-10,1.59614e-05,-1.60923e-05,0.672665,0.4320843923395916,1.201390098515276e-10,1.596152738381207e-05,0.4320843923395916,-1.609217051967704e-05,-0.508287459245839
443,0.4331,831.607,760.319,0.0351303,0.00096847,0.0517448,-0.0644164,0.359829,0.359829,-0.711253,1.22022e-10,1.60913e-05,-1.62444e-05,0.673993,0.4330843361852488,1.2202194810129185e-10,1.6091429465570073e-05,0.4330843361852488,-1.624426806046131e-05,-0.508971446936691
444,0.4341,832.016,760.704,0.0350511,0.000966696,0.0516635,-0.0643224,0.360527,0.360527,-0.712644,1.23912e-10,1.62208e-05,-1.63961e-05,0.675319,0.4340849782353551,1.2391199177841372e-10,1.6220931557953122e-05,0.4340849782353551,-1.6395965584670158e-05,-0.5096539928332773
445,0.4351,832.424,761.088,0.0349722,0.000964928,0.0515823,-0.0642284,0.361224,0.361224,-0.714034,1.25808e-10,1.635e-05,-1.65475e-05,0.676645,0.4350848838918262,1.2580803065986856e-10,1.6350133662079713e-05,0.4350848838918262,-1.6547363090868572e-05,-0.510335100303883
446,0.4361,832.832,761.471,0.0348935,0.000963165,0.0515014,-0.0641345,0.361921,0.361921,-0.715423,1.2771e-10,1.64789e-05,-1.66987e-05,0.67797,0.43608548672547776,1.2771006474565638e-10,1.6479035777727802e-05,0.43608548672547776,-1.6698560577510513e-05,-0.5110147727078009
447,0.4371,833.239,761.853,0.0348151,0.000961407,0.0514207,-0.0640407,0.362617,0.362617,-0.716811,1.29619e-10,1.66075e-05,-1.68495e-05,0.679295,0.4370853501363432,1.2961898221419688e-10,1.6607637905341477e-05,0.4370853501363432,-1.6849358048021124e-05,-0.5116930133953569
448,0.4381,833.645,762.235,0.0347369,0.000959655,0.0513402,-0.063947,0.363312,0.363312,-0.718198,1.31533e-10,1.67358e-05,-1.7e-05,0.680618,0.4380844716091832,1.3153300670865065e-10,1.6735940044254605e-05,0.4380844716091832,-1.6999855500854366e-05,-0.5123698257079363
449,0.4391,834.05,762.616,0.034659,0.000957907,0.05126,-0.0638533,0.364007,0.364007,-0.719584,1.33454e-10,1.68638e-05,-1.71503e-05,0.68194,0.4390842877128027,1.334539145858571e-10,1.686394219468923e-05,0.4390842877128027,-1.7150152934464202e-05,-0.5130452129780089
450,0.4401,834.454,762.996,0.0345813,0.000956165,0.05118,-0.0637597,0.364702,0.364702,-0.720969,1.3538e-10,1.69915e-05,-1.73002e-05,0.683262,0.44008479893013863,1.3537992948897681e-10,1.6991644356423308e-05,0.44008479893013863,-1.7300050352386798e-05,-0.5137191785291553
451,0.4411,834.857,763.375,0.0345038,0.000954428,0.0511002,-0.0636662,0.365396,0.365396,-0.722353,1.37312e-10,1.71189e-05,-1.74498e-05,0.684582,0.441084564659177,1.373119395964295e-10,1.7119046529234794e-05,0.441084564659177,-1.7449647753076114e-05,-0.5143917256760925
452,0.4421,835.26,763.753,0.0344266,0.000952695,0.0510206,-0.0635728,0.36609,0.36609,-0.723737,1.39249e-10,1.7246e-05,-1.75991e-05,0.685902,0.44208502446644893,1.3924905672979548e-10,1.7246148713123688e-05,0.44208502446644893,-1.7598945136754196e-05,-0.5150633426615984
453,0.4431,835.662,764.131,0.0343496,0.000950968,0.0509413,-0.0634795,0.366783,0.366783,-0.725119,1.41192e-10,1.73729e-05,-1.77482e-05,0.68722,0.4430847357483543,1.411919470228895e-10,1.7373050909652576e-05,0.4430847357483543,-1.774804250165296e-05,-0.5157330622392191
454,0.4441,836.063,764.508,0.0342729,0.000949246,0.0508622,-0.0633863,0.367476,0.367476,-0.7265,1.4314e-10,1.74994e-05,-1.78969e-05,0.688538,0.4440851400702883,1.431399443418968e-10,1.7499553115474242e-05,0.4440851400702883,-1.7896739851419596e-05,-0.516401373305261
455,0.4451,836.463,764.884,0.0341963,0.000947529,0.0507833,-0.0632931,0.368168,0.368168,-0.727881,1.45093e-10,1.76256e-05,-1.80453e-05,0.689855,0.4450847928271795,1.4509304868681738e-10,1.7625755331707182e-05,0.4450847928271795,-1.8045137184508064e-05,-0.5170687620707157
456,0.4461,836.862,765.259,0.0341201,0.000945817,0.0507046,-0.0632,0.36886,0.36886,-0.72926,1.47052e-10,1.77515e-05,-1.81934e-05,0.691171,0.44608513758318225,1.47051926191466e-10,1.7751657558795486e-05,0.44608513758318225,-1.819323450114041e-05,-0.5177342652778965
457,0.4471,837.26,765.634,0.034044,0.00094411,0.0506262,-0.0631071,0.369551,0.369551,-0.730639,1.49015e-10,1.78772e-05,-1.83412e-05,0.692486,0.447084727731875,1.490150225436082e-10,1.7877359798079695e-05,0.447084727731875,-1.834103180120561e-05,-0.518398851388638
458,0.4481,837.658,766.008,0.0339682,0.000942408,0.050548,-0.0630142,0.370242,0.370242,-0.732016,1.50982e-10,1.80025e-05,-1.84887e-05,0.6938,0.44808500883605795,1.5098189365403414e-10,1.8002662045990547e-05,0.44808500883605795,-1.848852908503673e-05,-0.5190615597908257
459,0.4491,838.055,766.381,0.0338926,0.000940711,0.05047,-0.0629214,0.370932,0.370932,-0.733393,1.52955e-10,1.81275e-05,-1.86359e-05,0.695114,0.44908453228808964,1.5295498201339797e-10,1.812766430409063e-05,0.44908453228808964,-1.8635726352744797e-05,-0.5197233562715459
460,0.4501,838.451,766.753,0.0338173,0.000939018,0.0503923,-0.0628288,0.371622,0.371622,-0.734769,1.54931e-10,1.82523e-05,-1.87828e-05,0.696426,0.45008474564929446,1.5493095695262582e-10,1.8252466574164572e-05,0.45008474564929446,-1.8782623604329807e-05,-0.5203837624696521
461,0.4511,838.846,767.125,0.0337422,0.000937331,0.0503148,-0.0627362,0.372312,0.372312,-0.736143,1.56913e-10,1.83768e-05,-1.89294e-05,0.697737,0.45108564939587414,1.5691292709618665e-10,1.8376968854427744e-05,0.45108564939587414,-1.8929220840013805e-05,-0.5210423026593051
462,0.4521,839.24,767.496,0.0336673,0.000935649,0.0502375,-0.0626437,0.373,0.373,-0.737517,1.58898e-10,1.85009e-05,-1.90757e-05,0.699048,0.4520843398327752,1.5889800586421643e-10,1.8501071142651426e-05,0.4520843398327752,-1.9075518060018837e-05,-0.5216999386360739
463,0.4531,839.634,767.866,0.0335926,0.000933971,0.0501604,-0.0625513,0.373689,0.373689,-0.73889,1.60887e-10,1.86248e-05,-1.92216e-05,0.700358,0.4530851706895571,1.6088708143513486e-10,1.8624973442626924e-05,0.4530851706895571,-1.9221415266224007e-05,-0.5223561939979269
464,0.4541,840.027,768.235,0.0335182,0.000932298,0.0500835,-0.0624591,0.374377,0.374377,-0.740262,1.62881e-10,1.87484e-05,-1.93673e-05,0.701667,0.4540852372704476,1.6288104198736164e-10,1.8748575752347563e-05,0.4540852372704476,-1.936711245509315e-05,-0.5230110719507584
465,0.4551,840.419,768.603,0.033444,0.00093063,0.0500069,-0.0623669,0.375064,0.375064,-0.741633,1.64878e-10,1.88717e-05,-1.95127e-05,0.702974,0.45508453704862295,1.6487788911945245e-10,1.8871878071591297e-05,0.45508453704862295,-1.951250962850537e-05,-0.5236645756919366
466,0.4561,840.81,768.971,0.03337,0.000928967,0.0499305,-0.0622748,0.375751,0.375751,-0.743003,1.6688e-10,1.89948e-05,-1.96577e-05,0.704282,0.4560845235816191,1.6688006532206145e-10,1.8994980402364803e-05,0.4560845235816191,-1.965750678867284e-05,-0.5243167084103275
467,0.4571,841.2,769.338,0.0332963,0.000927308,0.0498544,-0.0621829,0.376438,0.376438,-0.744372,-4.2006e-11,1.91175e-05,-1.98025e-05,0.705588,0.45708519734139896,-4.200595427050757e-11,1.911768274065473e-05,0.45708519734139896,-1.980230393183735e-05,-0.5249674732863197
468,0.4581,841.59,769.705,0.0332228,0.000925655,0.0497785,-0.0620911,0.377124,0.377124,-0.74574,1.70893e-10,1.924e-05,-1.9947e-05,0.706893,0.45808510071441955,1.7089307746687155e-10,1.9240185090030337e-05,0.45808510071441955,-1.9946801059878005e-05,-0.5256168734918482
469,0.4591,841.979,770.07,0.0331495,0.000924006,0.0497027,-0.0619993,0.377809,0.377809,-0.747107,1.72905e-10,1.93622e-05,-2.00911e-05,0.708197,0.4590842311715224,1.7290502363209725e-10,1.9362387448706997e-05,0.4590842311715224,-2.009089817522902e-05,-0.526264912190419
470,0.4601,842.367,770.435,0.0330764,0.000922362,0.0496273,-0.0619077,0.378495,0.378495,-0.748473,1.7492e-10,1.9484e-05,-2.02349e-05,0.709501,0.46008550635222667,1.7492007842179191e-10,1.9484189814455988e-05,0.46008550635222667,-2.023469527578925e-05,-0.5269115925371337
471,0.4611,842.754,770.799,0.0330035,0.000920722,0.049552,-0.0618162,0.379179,0.379179,-0.749839,1.76938e-10,1.96057e-05,-2.03785e-05,0.710803,0.4610845464713418,1.769380197913506e-10,1.960589219307529e-05,0.4610845464713418,-2.0378292359790606e-05,-0.5275573901215587
472,0.4621,843.141,771.163,0.0329309,0.000919087,0.049477,-0.0617249,0.379863,0.379863,-0.751203,1.7896e-10,1.9727e-05,-2.05217e-05,0.712105,0.4620842701676551,1.7895995796379793e-10,1.9727194578544882e-05,0.4620842701676551,-2.052148943132437e-05,-0.5282013625523927
473,0.4631,843.526,771.525,0.0328585,0.000917457,0.0494022,-0.0616336,0.380547,0.380547,-0.752567,1.80985e-10,1.9848e-05,-2.06646e-05,0.713406,0.4630846779088935,1.8098500476071422e-10,1.9848196972871435e-05,0.4630846779088935,-2.0664386488622455e-05,-0.5288444572036128
474,0.4641,843.911,771.887,0.0327863,0.000915831,0.0493276,-0.0615425,0.38123,0.38123,-0.753929,1.83012e-10,1.99688e-05,-2.08072e-05,0.714706,0.4640843060780653,1.8301204995907483e-10,1.996899937783958e-05,0.4640843060780653,-2.0806983531684864e-05,-0.529485734244104
475,0.4651,844.295,772.249,0.0327143,0.00091421,0.0492533,-0.0614515,0.381913,0.381913,-0.755291,1.85042e-10,2.00893e-05,-2.09496e-05,0.716005,0.46508461722648775,1.8504198173729947e-10,2.0089501791442643e-05,0.46508461722648775,-2.094938055863249e-05,-0.5301261384597944
476,0.4661,844.679,772.609,0.0326425,0.000912594,0.0491792,-0.0613606,0.382596,0.382596,-0.756652,1.87075e-10,2.02095e-05,-2.10916e-05,0.717303,0.46608561182079455,1.8707502213999305e-10,2.0209704213236535e-05,0.46608561182079455,-2.1091377573778658e-05,-0.5307652018040989
477,0.4671,845.062,772.969,0.032571,0.000910982,0.0491053,-0.0612698,0.383277,0.383277,-0.758012,1.89111e-10,2.03295e-05,-2.12333e-05,0.718601,0.4670843561562925,1.8911094912255066e-10,2.032970664567202e-05,0.4670843561562925,-2.1233074575133237e-05,-0.5314029273779604
478,0.4681,845.443,773.328,0.0324996,0.000909374,0.0490316,-0.0611792,0.383959,0.383959,-0.75937,1.91149e-10,2.04491e-05,-2.13747e-05,0.719897,0.46808524895283976,1.9114909655115753e-10,2.0449309084291656e-05,0.46808524895283976,-2.137447156269623e-05,-0.5320388503131792
479,0.4691,845.825,773.687,0.0324285,0.000907772,0.0489582,-0.0610886,0.38464,0.38464,-0.760728,1.9319e-10,2.05685e-05,-2.15158e-05,0.721193,0.46908535550500674,1.931899085150235e-10,2.0568711533108797e-05,0.46908535550500674,-2.15155685368007e-05,-0.5326739102511598
480,0.4701,846.205,774.044,0.0323576,0.000906173,0.048885,-0.0609983,0.38532,0.38532,-0.762085,1.95233e-10,2.06876e-05,-2.16566e-05,0.722487,0.47008467327628534,1.952329409249387e-10,2.068781398989472e-05,0.47008467327628534,-2.1656365497557672e-05,-0.533307641670932
481,0.4711,846.585,774.401,0.0322869,0.00090458,0.048812,-0.060908,0.386,0.386,-0.763442,1.97278e-10,2.08065e-05,-2.1797e-05,0.723781,0.47108467081474314,1.9727797173629824e-10,2.0806716456656105e-05,0.47108467081474314,-2.1796762447068296e-05,-0.5339405137003957
482,0.4721,846.964,774.758,0.0322164,0.00090299,0.0487392,-0.0608179,0.38668,0.38668,-0.764797,1.99325e-10,2.0925e-05,-2.19372e-05,0.725074,0.47208534858277895,1.993250009491021e-10,2.0925218929379596e-05,0.47208534858277895,-2.1936959381352317e-05,-0.5345715966490769
483,0.4731,847.342,775.113,0.0321462,0.000901405,0.0486667,-0.0607279,0.387359,0.387359,-0.766151,2.01375e-10,2.10433e-05,-2.20771e-05,0.726366,0.4730852339571354,2.0137491674177e-10,2.1043521411856503e-05,0.4730852339571354,-2.2076856302621906e-05,-0.5352013602610359
484,0.4741,847.719,775.468,0.0320761,0.000899825,0.0485944,-0.060638,0.388037,0.388037,-0.767504,2.03426e-10,2.11613e-05,-2.22167e-05,0.727657,0.47408432439914616,2.034259427574625e-10,2.1161523901858104e-05,0.47408432439914616,-2.2216453210988085e-05,-0.5358298075801212
485,0.4751,848.096,775.823,0.0320063,0.000898249,0.0485223,-0.0605483,0.388716,0.388716,-0.768857,2.05479e-10,2.12791e-05,-2.23559e-05,0.728948,0.47508556753899134,2.0547896717459935e-10,2.127932640161312e-05,0.47508556753899134,-2.235565010877405e-05,-0.5364574051849452
486,0.4761,848.472,776.176,0.0319366,0.000896677,0.0484505,-0.0604587,0.389393,0.389393,-0.770208,2.07534e-10,2.13966e-05,-2.24949e-05,0.730237,0.47608453858175825,2.075339899931805e-10,2.139682890889283e-05,0.47608453858175825,-2.2494646991666478e-05,-0.5370832283917764
487,0.4771,848.847,776.529,0.0318672,0.00089511,0.0483788,-0.0603693,0.39007,0.39007,-0.771559,2.09591e-10,2.15138e-05,-2.26335e-05,0.731526,0.47708418615690174,2.09591011213206e-10,2.151403142347519e-05,0.47708418615690174,-2.263324386431176e-05,-0.5377082066823246
488,0.4781,849.221,776.881,0.031798,0.000893547,0.0483074,-0.0602799,0.390747,0.390747,-0.772909,2.11649e-10,2.16308e-05,-2.27719e-05,0.732814,0.47808451072258906,2.116489206116512e-10,2.1631033947366873e-05,0.47808451072258906,-2.2771640722285547e-05,-0.5383318795294113
489,0.4791,849.595,777.233,0.031729,0.000891989,0.0482363,-0.0601908,0.391424,0.391424,-0.774258,2.13709e-10,2.17475e-05,-2.291e-05,0.7341,0.4790855127372977,2.1370905045614563e-10,2.1747736478561208e-05,0.4790855127372977,-2.2909737567911037e-05,-0.5389542499407012
490,0.4801,849.968,777.584,0.0316602,0.000890435,0.0481653,-0.0601017,0.392099,0.392099,-0.775606,2.1577e-10,2.18639e-05,-2.30477e-05,0.735386,0.4800842324883914,2.1577006847905977e-10,2.1864139016836148e-05,0.4800842324883914,-2.304743440384449e-05,-0.539575320915898
491,0.4811,850.341,777.934,0.0315915,0.000888885,0.0480946,-0.0600128,0.392775,0.392775,-0.776953,2.17833e-10,2.198e-05,-2.31851e-05,0.736672,0.481085107687256,2.1783308490341824e-10,2.198024156196965e-05,0.481085107687256,-2.3184831227651692e-05,-0.5401950954467674
492,0.4821,850.712,778.283,0.0315231,0.000887339,0.0480241,-0.0599241,0.39345,0.39345,-0.778299,2.19897e-10,2.20959e-05,-2.33223e-05,0.737956,0.4820851776205761,2.198969895061964e-10,2.209614411619043e-05,0.4820851776205761,-2.332202803723149e-05,-0.5408135765171596
493,0.4831,851.083,778.632,0.0314549,0.000885798,0.0479538,-0.0598355,0.394124,0.394124,-0.779644,2.21962e-10,2.22116e-05,-2.34591e-05,0.739239,0.48308443974379944,2.219620043319992e-10,2.2211846679498493e-05,0.48308443974379944,-2.345882483745232e-05,-0.5414307671030323
494,0.4841,851.453,778.98,0.0313869,0.000884261,0.0478838,-0.0597471,0.394798,0.394798,-0.780988,2.24028e-10,2.23269e-05,-2.35957e-05,0.740522,0.48408437559671524,2.240279073362217e-10,2.2327149246992306e-05,0.48408437559671524,-2.359542162366779e-05,-0.5420466701724724
495,0.4851,851.823,779.328,0.0313191,0.000882728,0.047814,-0.0596587,0.395472,0.395472,-0.782332,2.26096e-10,2.2442e-05,-2.37319e-05,0.741804,0.4850849856335704,2.2609603078649343e-10,2.24422518235734e-05,0.4850849856335704,-2.3731618400635313e-05,-0.5426617460242023
496,0.4861,852.192,779.675,0.0312515,0.0008812,0.0477444,-0.0595706,0.396145,0.396145,-0.783674,2.28164e-10,2.25569e-05,-2.38678e-05,0.743085,0.48608478422339085,2.2816393219216025e-10,2.2557154408797686e-05,0.48608478422339085,-2.386751516636476e-05,-0.5432750823203333
497,0.4871,852.56,780.021,0.0311842,0.000879676,0.047675,-0.0594826,0.396818,0.396818,-0.785016,2.30233e-10,2.26715e-05,-2.40035e-05,0.744365,0.4870852559041319,2.302329438208517e-10,2.2671757000436443e-05,0.4870852559041319,-2.4003211918310896e-05,-0.5438875960712064
498,0.4881,852.927,780.366,0.031117,0.000878155,0.0476059,-0.0593947,0.39749,0.39749,-0.786356,2.32303e-10,2.27858e-05,-2.41388e-05,0.745644,0.48808491304327917,2.3230306567256775e-10,2.2786059598267627e-05,0.48808491304327917,-2.4138508661564195e-05,-0.5444983773776024
499,0.4891,853.294,780.711,0.03105,0.000876639,0.047537,-0.059307,0.398162,0.398162,-0.787696,2.34374e-10,2.28999e-05,-2.42738e-05,0.746922,0.4890852421777889,2.343740757027035e-10,2.2900162204742003e-05,0.4890852421777889,-2.4273505393690442e-05,-0.5451083407851625
500,0.4901,853.66,781.055,0.0309832,0.000875128,0.0474683,-0.0592195,0.398833,0.398833,-0.789035,2.36445e-10,2.30137e-05,-2.44086e-05,0.7482,0.4900847536738955,2.364450857328393e-10,2.301396481718676e-05,0.4900847536738955,-2.4408302112588487e-05,-0.5457170331063974
501,0.4911,854.025,781.399,0.0309166,0.00087362,0.0473998,-0.0591321,0.399504,0.399504,-0.790373,2.38517e-10,2.31273e-05,-2.4543e-05,0.749476,0.49108493606727666,2.3851698394139476e-10,2.3127567438052665e-05,0.49108493606727666,-2.454269882301574e-05,-0.5463244572587233
502,0.4921,854.389,781.742,0.0308501,0.000872116,0.0473316,-0.0590448,0.400174,0.400174,-0.79171,2.4059e-10,2.32406e-05,-2.46771e-05,0.750752,0.49208429772321205,2.4058999237297485e-10,2.3240870064888952e-05,0.49208429772321205,-2.4676795522871053e-05,-0.5469306161518523
503,0.4931,854.753,782.084,0.0307839,0.000870617,0.0472636,-0.0589578,0.400844,0.400844,-0.793047,2.42663e-10,2.33536e-05,-2.48109e-05,0.752027,0.4930843291758138,2.4266300080455494e-10,2.3353872697473577e-05,0.4930843291758138,-2.4810592212154425e-05,-0.5475359651520755
504,0.4941,855.117,782.426,0.0307179,0.000869122,0.0471958,-0.0588708,0.401514,0.401514,-0.794382,2.44736e-10,2.34664e-05,-2.49445e-05,0.753301,0.4940850308739957,2.4473600923613503e-10,2.346667533803526e-05,0.4940850308739957,-2.4944188888542662e-05,-0.5481396016216027
505,0.4951,855.479,782.767,0.0306521,0.00086763,0.0471282,-0.0587841,0.402183,0.402183,-0.795716,2.4681e-10,2.3579e-05,-2.50777e-05,0.754574,0.49508490818131756,2.468099058461348e-10,2.3579277986796043e-05,0.49508490818131756,-2.507738555712624e-05,-0.548741981516319
506,0.4961,855.841,783.107,0.0305865,0.000866143,0.0470608,-0.0586975,0.402852,0.402852,-0.79705,2.48884e-10,2.36913e-05,-2.52106e-05,0.755847,0.496085454630361,2.4888402450073954e-10,2.369158064108312e-05,0.496085454630361,-2.5210282215470947e-05,-0.5493435583720019
507,0.4971,856.202,783.447,0.030521,0.00086466,0.0469937,-0.058611,0.40352,0.40352,-0.798383,2.50958e-10,2.38033e-05,-2.53433e-05,0.757118,0.4970851735830093,2.5095792111073933e-10,2.380358330089649e-05,0.4970851735830093,-2.5342978861253584e-05,-0.5499438832032993
508,0.4981,856.563,783.786,0.0304558,0.000863181,0.0469268,-0.0585247,0.404188,0.404188,-0.799714,2.53033e-10,2.39151e-05,-2.54756e-05,0.758389,0.49808556057101705,2.5303292794376375e-10,2.391538596824283e-05,0.49808556057101705,-2.5475275499675654e-05,-0.5505425094206329
509,0.4991,856.922,784.124,0.0303907,0.000861706,0.0468601,-0.0584386,0.404855,0.404855,-0.801045,2.55107e-10,2.40267e-05,-2.56076e-05,0.759659,0.4990851169549144,2.5510704659836847e-10,2.4026988643566227e-05,0.4990851169549144,-2.5607272128191916e-05,-0.5511403393964873
510,0.5001,857.281,784.462,0.0303259,0.000860235,0.0467937,-0.0583526,0.405522,0.405522,-0.802375,2.57181e-10,2.4138e-05,-2.57394e-05,0.760928,0.5000853402653149,2.5718094320836826e-10,2.4138291323971828e-05,0.5000853402653149,-2.5739068744479177e-05,-0.5517369259271054
511,0.5011,857.64,784.799,0.0302612,0.000858768,0.0467274,-0.0582669,0.406188,0.406188,-0.803705,2.59256e-10,2.42491e-05,-2.58708e-05,0.762196,0.5010847298617269,2.592559500413927e-10,2.4249394011910397e-05,0.5010847298617269,-2.5870465353738936e-05,-0.5523327195250547
512,0.5021,857.998,785.136,0.0301967,0.000857304,0.0466614,-0.0581812,0.406854,0.406854,-0.805033,2.6133e-10,2.43599e-05,-2.6002e-05,0.763463,0.5020847852733017,2.613300686959974e-10,2.4360196704709125e-05,0.5020847852733017,-2.6001661950880717e-05,-0.5529268270987833
513,0.5031,858.355,785.472,0.0301324,0.000855845,0.0465956,-0.0580958,0.40752,0.40752,-0.80636,2.63404e-10,2.44704e-05,-2.61328e-05,0.76473,0.5030855069436204,2.634039653059972e-10,2.4470699402590057e-05,0.5030855069436204,-2.6132458541328063e-05,-0.5535196997412244
514,0.5041,858.711,785.807,0.0300683,0.00085439,0.0465301,-0.0580105,0.408185,0.408185,-0.807687,2.65478e-10,2.45808e-05,-2.62634e-05,0.765996,0.5040853912304155,2.654780839606019e-10,2.4581102110232678e-05,0.5040853912304155,-2.6263055119879475e-05,-0.5541117861634415
515,0.5051,859.067,786.142,0.0300044,0.000852938,0.0464647,-0.0579254,0.408849,0.408849,-0.809012,2.67552e-10,2.46908e-05,-2.63937e-05,0.76726,0.505084435576209,2.675519805706017e-10,2.4691104820284693e-05,0.505084435576209,-2.6393351689413258e-05,-0.554702196813341
516,0.5061,859.422,786.476,0.0299406,0.000851491,0.0463996,-0.0578404,0.409514,0.409514,-0.810337,2.69625e-10,2.48007e-05,-2.65236e-05,0.768524,0.5060856495926307,2.696249890021818e-10,2.4801007539876352e-05,0.5060856495926307,-2.652324825247465e-05,-0.5552918256871706
517,0.5071,859.777,786.81,0.0298771,0.000850047,0.0463347,-0.0577556,0.410177,0.410177,-0.811661,2.71698e-10,2.49103e-05,-2.66533e-05,0.769788,0.5070845154657584,2.716979974337619e-10,2.4910610264106126e-05,0.5070845154657584,-2.6652944803973178e-05,-0.555880229700549
518,0.5081,860.131,787.142,0.0298137,0.000848608,0.04627,-0.057671,0.410841,0.410841,-0.812984,2.7377e-10,2.50196e-05,-2.67827e-05,0.77105,0.5080855518913416,2.7376989564231735e-10,2.501991299275197e-05,0.5080855518913416,-2.678234134667612e-05,-0.5564674116501488
519,0.5091,860.484,787.475,0.0297505,0.000847172,0.0462056,-0.0575866,0.411503,0.411503,-0.814306,2.75842e-10,2.51288e-05,-2.69118e-05,0.772312,0.5090842350543483,2.7584201589547774e-10,2.5129115730937457e-05,0.5090842350543483,-2.6911437880805522e-05,-0.5570533743252792
520,0.5101,860.836,787.806,0.0296875,0.00084574,0.0461413,-0.0575023,0.412166,0.412166,-0.815627,2.77913e-10,2.52376e-05,-2.70406e-05,0.773572,0.5100850896488254,2.779130259256135e-10,2.5237918470866205e-05,0.5100850896488254,-2.7040234406250363e-05,-0.5576381205079081
521,0.5111,861.188,788.137,0.0296247,0.000844311,0.0460773,-0.0574182,0.412828,0.412828,-0.816948,2.79984e-10,2.53463e-05,-2.71691e-05,0.774832,0.511085096944067,2.799840359557493e-10,2.5346621220112553e-05,0.511085096944067,-2.716873092334371e-05,-0.5582220947508081
522,0.5121,861.539,788.468,0.0295621,0.000842887,0.0460135,-0.0573343,0.413489,0.413489,-0.818267,2.82054e-10,2.54547e-05,-2.72973e-05,0.776091,0.5120842543782997,2.820539357628604e-10,2.5455023973552926e-05,0.5120842543782997,-2.729692743208556e-05,-0.5588044156827522
523,0.5131,861.89,788.798,0.0294996,0.000841466,0.0459499,-0.0572505,0.414151,0.414151,-0.819586,2.84124e-10,2.55629e-05,-2.74252e-05,0.777349,0.51308558555875,2.841240576145765e-10,2.556322673363809e-05,0.51308558555875,-2.742482393258694e-05,-0.559385969039714
524,0.5141,862.24,789.127,0.0294373,0.00084005,0.0458866,-0.057167,0.414811,0.414811,-0.820904,2.86192e-10,2.56708e-05,-2.75529e-05,0.778607,0.5140845516677721,2.861919590202433e-10,2.5671129497695233e-05,0.5140845516677721,-2.7552520422302607e-05,-0.5599663157999935
525,0.5151,862.589,789.456,0.0293752,0.000838637,0.0458234,-0.0570836,0.415471,0.415471,-0.822221,2.8826e-10,2.57785e-05,-2.76802e-05,0.779863,0.5150841773120491,2.8826008247051504e-10,2.5778832268397167e-05,0.5150841773120491,-2.767981690676713e-05,-0.5605454587127672
526,0.5161,862.938,789.784,0.0293133,0.000837227,0.0457605,-0.0570004,0.416131,0.416131,-0.823537,2.90327e-10,2.5886e-05,-2.78073e-05,0.781119,0.5160844629270176,2.9032709569776216e-10,2.5886335045299802e-05,0.5160844629270176,-2.7806913380667986e-05,-0.5611234005199827
527,0.5171,863.286,790.111,0.0292516,0.000835822,0.0456978,-0.0569173,0.416791,0.416791,-0.824852,2.92393e-10,2.59932e-05,-2.7934e-05,0.782374,0.5170854089484023,2.9239299870198465e-10,2.5993537826174418e-05,0.5170854089484023,-2.793360984942872e-05,-0.5617001439563796
528,0.5181,863.634,790.438,0.02919,0.00083442,0.0456353,-0.0568345,0.41745,0.41745,-0.826166,2.94458e-10,2.61002e-05,-2.80605e-05,0.783628,0.5180854977259581,2.9445801352778744e-10,2.6100540613249734e-05,0.5180854977259581,-2.8060106307847832e-05,-0.5622756917495092
529,0.5191,863.98,790.764,0.0291286,0.000833022,0.045573,-0.0567518,0.418108,0.418108,-0.82748,2.96522e-10,2.6207e-05,-2.81867e-05,0.784881,0.5190847266937397,2.965219181305656e-10,2.620734340652575e-05,0.5190847266937397,-2.8186302758692605e-05,-0.5628504837694904
530,0.5201,864.326,791.09,0.0290674,0.000831627,0.045511,-0.0566693,0.418766,0.418766,-0.828792,2.98585e-10,2.63135e-05,-2.83126e-05,0.786134,0.5200846133705446,2.985849345549241e-10,2.6313846203107616e-05,0.5200846133705446,-2.8312199202074062e-05,-0.5634236478569258
531,0.5211,864.672,791.415,0.0290064,0.000830236,0.0454492,-0.056587,0.419424,0.419424,-0.830104,3.00647e-10,2.64198e-05,-2.84382e-05,0.787385,0.5210851581892877,3.0064706280086284e-10,2.642014900589018e-05,0.5210851581892877,-2.8437795638214247e-05,-0.563996060446169
532,0.5221,865.017,791.74,0.0289455,0.000828849,0.0453875,-0.0565049,0.420081,0.420081,-0.831415,3.02707e-10,2.65259e-05,-2.85635e-05,0.788636,0.5220848394975686,3.0270697060075236e-10,2.6526251814873447e-05,0.5220848394975686,-2.856309206711316e-05,-0.5645672870900441
533,0.5231,865.361,792.064,0.0288848,0.000827466,0.0453261,-0.056423,0.420738,0.420738,-0.832725,3.04767e-10,2.66318e-05,-2.86886e-05,0.789886,0.523085177812272,3.047671004452468e-10,2.6632154629613325e-05,0.523085177812272,-2.868818848600352e-05,-0.5651373304840122
534,0.5241,865.705,792.387,0.0288243,0.000826086,0.0452649,-0.0563412,0.421394,0.421394,-0.834034,3.06825e-10,2.67374e-05,-2.88133e-05,0.791135,0.5240846494797813,3.06825009843692e-10,2.6737757447437005e-05,0.5240846494797813,-2.8812884900863978e-05,-0.5657061933164569
535,0.5251,866.048,792.71,0.028764,0.00082471,0.045204,-0.0562596,0.42205,0.42205,-0.835343,3.08882e-10,2.68428e-05,-2.89378e-05,0.792384,0.525084777015806,3.088820310637175e-10,2.684316027123934e-05,0.525084777015806,-2.8937381305937926e-05,-0.566274311994609
536,0.5261,866.391,793.032,0.0287038,0.000823337,0.0451432,-0.0561782,0.422706,0.422706,-0.83665,3.10938e-10,2.6948e-05,-2.9062e-05,0.793631,0.5260855608507369,3.1093794206071834e-10,2.6948363100576245e-05,0.5260855608507369,-2.906157770421469e-05,-0.5668408211744381
537,0.5271,866.732,793.354,0.0286438,0.000821968,0.0450827,-0.056097,0.423361,0.423361,-0.837957,3.12992e-10,2.7053e-05,-2.91859e-05,0.794878,0.5270854743290092,3.129920767008798e-10,2.705336593566976e-05,0.5270854743290092,-2.9185474095805297e-05,-0.5674065904104278
538,0.5281,867.074,793.675,0.028584,0.000820603,0.0450224,-0.056016,0.424015,0.424015,-0.839262,3.15045e-10,2.71577e-05,-2.93095e-05,0.796124,0.5280845148798716,3.1504510111801665e-10,2.7158068773625033e-05,0.5280845148798716,-2.9309070480820765e-05,-0.5679707566114303
539,0.5291,867.414,793.995,0.0285244,0.000819241,0.0449623,-0.0559352,0.424669,0.424669,-0.840567,3.17097e-10,2.72622e-05,-2.94329e-05,0.797369,0.5290842090169539,3.1709701531212886e-10,2.7262571617114872e-05,0.5290842090169539,-2.943246685649381e-05,-0.5685341870557261
540,0.5301,867.754,794.315,0.0284649,0.000817883,0.0449024,-0.0558546,0.425323,0.425323,-0.841871,3.19147e-10,2.73665e-05,-2.95559e-05,0.798614,0.530084557167841,3.1914693110479675e-10,2.736687446613928e-05,0.530084557167841,-2.955546322869207e-05,-0.569096451799519
541,0.5311,868.094,794.635,0.0284056,0.000816528,0.0448427,-0.0557741,0.425977,0.425977,-0.843175,3.21196e-10,2.74706e-05,-2.96787e-05,0.799857,0.5310855597603976,3.2119595871904494e-10,2.747097732047621e-05,0.5310855597603976,-2.967825959176995e-05,-0.56965798382792
542,0.5321,868.432,794.953,0.0283464,0.000815177,0.0447832,-0.0556939,0.42663,0.42663,-0.844477,3.23243e-10,2.75745e-05,-2.98012e-05,0.8011,0.5320856851363178,3.232429879318488e-10,2.757488018012566e-05,0.5320856851363178,-2.980075594860576e-05,-0.5702179245324762
543,0.5331,868.771,795.272,0.0282874,0.000813829,0.044724,-0.0556138,0.427282,0.427282,-0.845779,3.25288e-10,2.76781e-05,-2.99234e-05,0.802342,0.5330849307216889,3.2528801874320834e-10,2.767848304219278e-05,0.5330849307216889,-2.9922952299532568e-05,-0.570777136668636
544,0.5341,869.108,795.589,0.0282286,0.000812485,0.0446649,-0.0555339,0.427934,0.427934,-0.847079,3.27332e-10,2.77815e-05,-3.00453e-05,0.803583,0.5340848280276196,3.2733193933154325e-10,2.778188590935038e-05,0.5340848280276196,-3.0044848644439348e-05,-0.5713347638547634
545,0.5351,869.445,795.906,0.02817,0.000811144,0.0446061,-0.0554542,0.428586,0.428586,-0.848379,3.29374e-10,2.78847e-05,-3.0167e-05,0.804823,0.53508537747917,3.2937408356303877e-10,2.78850887818205e-05,0.53508537747917,-3.016654498066984e-05,-0.5718916665965396
546,0.5361,869.782,796.223,0.0281115,0.000809807,0.0445475,-0.0553747,0.429237,0.429237,-0.849678,3.31415e-10,2.79877e-05,-3.02884e-05,0.806063,0.5360850434158664,3.3141489552690473e-10,2.7988091659381098e-05,0.5360850434158664,-3.028794131099133e-05,-0.5724474182827625
547,0.5371,870.118,796.539,0.0280532,0.000808473,0.0444891,-0.0552954,0.429888,0.429888,-0.850976,3.33454e-10,2.80905e-05,-3.04095e-05,0.807302,0.5370853603469632,3.334539311339313e-10,2.809089454181013e-05,0.5370853603469632,-3.0409037635847902e-05,-0.573002021518465
548,0.5381,870.453,796.855,0.0279951,0.000807143,0.0444309,-0.0552163,0.430538,0.430538,-0.852274,3.35491e-10,2.81931e-05,-3.05303e-05,0.80854,0.5380847906108361,3.3549096833951353e-10,2.8193497429107595e-05,0.5380847906108361,-3.052983395512854e-05,-0.5735559053461643
549,0.5391,870.787,797.169,0.0279371,0.000805816,0.0443729,-0.0551374,0.431188,0.431188,-0.85357,3.37526e-10,2.82954e-05,-3.06509e-05,0.809777,0.5390848707155562,3.3752600714365144e-10,2.8295800318600683e-05,0.5390848707155562,-3.065043026595493e-05,-0.574108218916336
550,0.5401,871.122,797.484,0.0278793,0.000804493,0.0443151,-0.0550587,0.431838,0.431838,-0.854866,3.3956e-10,2.83976e-05,-3.07712e-05,0.811013,0.5400856010836568,3.3955993572476473e-10,2.8398003215635015e-05,0.5400856010836568,-3.077072657142743e-05,-0.5746598171517578
551,0.5411,871.455,797.798,0.0278216,0.000803173,0.0442576,-0.0549802,0.432487,0.432487,-0.856161,3.41592e-10,2.84995e-05,-3.08912e-05,0.812248,0.5410854410517354,3.415920879490386e-10,2.8499906114642926e-05,0.5410854410517354,-3.0890722871768084e-05,-0.5752102761893916
552,0.5421,871.788,798.111,0.0277641,0.000801856,0.0442002,-0.0549018,0.433135,0.433135,-0.857454,3.43621e-10,2.86012e-05,-3.10109e-05,0.813483,0.5420843880414064,3.436209095042386e-10,2.8601609018297225e-05,0.5420843880414064,-3.101041916697689e-05,-0.5757591743631365
553,0.5431,872.12,798.424,0.0277068,0.000800543,0.0441431,-0.0548237,0.433784,0.433784,-0.858748,3.45649e-10,2.87027e-05,-3.11303e-05,0.814717,0.543085525643257,3.4564906492562386e-10,2.8703111926375868e-05,0.543085525643257,-3.112981545727589e-05,-0.5763077869626074
554,0.5441,872.452,798.736,0.0276496,0.000799233,0.0440862,-0.0547458,0.434431,0.434431,-0.86004,3.47675e-10,2.8804e-05,-3.12495e-05,0.81595,0.5440842250227589,3.4767499990095985e-10,2.88044148391009e-05,0.5440842250227589,-3.1249011739453714e-05,-0.5768548438270187
555,0.5451,872.783,799.048,0.0275926,0.000797927,0.0440294,-0.054668,0.435079,0.435079,-0.861331,3.49699e-10,2.89051e-05,-3.13684e-05,0.817183,0.5450851158541796,3.496989364748515e-10,2.890551775647232e-05,0.5450851158541796,-3.136790801683276e-05,-0.577400771751339
556,0.5461,873.114,799.359,0.0275358,0.000796623,0.0439729,-0.0545905,0.435726,0.435726,-0.862622,3.51721e-10,2.9006e-05,-3.14871e-05,0.818414,0.5460851093871615,3.5172109669190377e-10,2.900642067804604e-05,0.5460851093871615,-3.148660428642369e-05,-0.577945995337457
557,0.5471,873.444,799.669,0.0274791,0.000795324,0.0439166,-0.0545131,0.436372,0.436372,-0.863912,3.53741e-10,2.91066e-05,-3.16055e-05,0.819645,0.5470842030403307,3.537410364629068e-10,2.910702360114925e-05,0.5470842030403307,-3.160500055143789e-05,-0.5784900939843916
558,0.5481,873.773,799.979,0.0274225,0.000794027,0.0438605,-0.054436,0.437019,0.437019,-0.865201,3.55759e-10,2.92071e-05,-3.17236e-05,0.820875,0.54808549040123,3.5575897783246546e-10,2.920752653157166e-05,0.54808549040123,-3.172309681187535e-05,-0.5790330702298749
559,0.5491,874.102,800.289,0.0273662,0.000792734,0.0438046,-0.054359,0.437664,0.437664,-0.866489,3.57775e-10,2.93074e-05,-3.18414e-05,0.822104,0.5490843276329176,3.577749208005798e-10,2.9307829465974322e-05,0.5490843276329176,-3.184089306795812e-05,-0.5795749266050041
560,0.5501,874.431,800.598,0.02731,0.000791444,0.0437489,-0.0542823,0.43831,0.43831,-0.867776,3.59789e-10,2.94074e-05,-3.19589e-05,0.823333,0.5500853594070192,3.597890874118548e-10,2.9407832401906475e-05,0.5500853594070192,-3.195838931979722e-05,-0.5801156656342595
561,0.5511,874.758,800.906,0.0272539,0.000790157,0.0436934,-0.0542057,0.438955,0.438955,-0.869063,3.61801e-10,2.95073e-05,-3.20762e-05,0.82456,0.5510854869703028,3.618010335770805e-10,2.9507735344713737e-05,0.5510854869703028,-3.207568556418128e-05,-0.580655709180024
562,0.5521,875.086,801.214,0.027198,0.000788874,0.0436382,-0.0541293,0.439599,0.439599,-0.870348,3.6381e-10,2.9607e-05,-3.21933e-05,0.825787,0.5520847077384647,3.6381009316244217e-10,2.9607438291501254e-05,0.5520847077384647,-3.219278180133234e-05,-0.5811942205260875
563,0.5531,875.412,801.522,0.0271423,0.000787594,0.0435831,-0.0540532,0.440243,0.440243,-0.871633,3.65818e-10,2.97064e-05,-3.231e-05,0.827013,0.5530845722120521,3.6581804252477923e-10,2.970684123937417e-05,0.5530845722120521,-3.230947803756212e-05,-0.5817320403294826
564,0.5541,875.738,801.829,0.0270867,0.000786317,0.0435282,-0.0539772,0.440887,0.440887,-0.872917,3.67823e-10,2.98057e-05,-3.24265e-05,0.828238,0.5540850808057449,3.6782310530725226e-10,2.9806144194344242e-05,0.5540850808057449,-3.2425974266780955e-05,-0.5822687517472317
565,0.5551,876.064,802.135,0.0270313,0.000785044,0.0434736,-0.0539015,0.44153,0.44153,-0.8742,3.69826e-10,2.99047e-05,-3.25428e-05,0.829463,0.5550846788490336,3.6982594764367605e-10,2.9905147149955624e-05,0.5550846788490336,-3.254227048887781e-05,-0.5828043572743231
566,0.5561,876.389,802.441,0.026976,0.000783773,0.0434191,-0.0538259,0.442173,0.442173,-0.875483,3.71827e-10,3.00036e-05,-3.26587e-05,0.830687,0.55608491984055,3.7182701362326043e-10,3.0004050112442116e-05,0.55608491984055,-3.265816671049748e-05,-0.5833392760601621
567,0.5571,876.713,802.746,0.0269209,0.000782506,0.0433649,-0.0537506,0.442815,0.442815,-0.876764,3.73825e-10,3.01023e-05,-3.27744e-05,0.831909,0.5570842471088169,3.7382497097837586e-10,3.0102753078686817e-05,0.5570842471088169,-3.277386292521722e-05,-0.5838726767314583
568,0.5581,877.037,803.051,0.0268659,0.000781242,0.0433108,-0.0536754,0.443457,0.443457,-0.878045,3.75822e-10,3.02007e-05,-3.28899e-05,0.833132,0.5580842161511774,3.758220401550716e-10,3.0201156045794875e-05,0.5580842161511774,-3.2889359133148055e-05,-0.5844053945539525
569,0.5591,877.36,803.355,0.0268111,0.000779981,0.043257,-0.0536005,0.444099,0.444099,-0.879325,3.77816e-10,3.0299e-05,-3.30051e-05,0.834353,0.5590848273797828,3.7781600070729837e-10,3.0299459019333952e-05,0.5590848273797828,-3.3004555337723396e-05,-0.5849370153390371
570,0.5601,877.683,803.659,0.0267564,0.000778724,0.0432033,-0.0535257,0.44474,0.44474,-0.880604,3.79807e-10,3.03971e-05,-3.312e-05,0.835574,0.560084521121748,3.7980707467966113e-10,3.039756199663124e-05,0.560084521121748,-3.311945153883222e-05,-0.5854675415525835
571,0.5611,878.005,803.962,0.0267019,0.00077747,0.0431499,-0.0534512,0.445381,0.445381,-0.881882,3.81796e-10,3.04949e-05,-3.32346e-05,0.836793,0.5610848558728232,3.8179592820597463e-10,3.049536497412575e-05,0.5610848558728232,-3.3234047736807604e-05,-0.5859969756540289
572,0.5621,878.327,804.265,0.0266475,0.000776218,0.0430967,-0.0533769,0.446021,0.446021,-0.88316,3.83783e-10,3.05926e-05,-3.3349e-05,0.838012,0.5620842699589761,3.8378300537544874e-10,3.059306795827332e-05,0.5620842699589761,-3.334844392832714e-05,-0.5865257335708665
573,0.5631,878.648,804.567,0.0265933,0.00077497,0.0430436,-0.0533027,0.446661,0.446661,-0.884436,3.85768e-10,3.06901e-05,-3.34632e-05,0.839231,0.5630843238748675,3.857680841434785e-10,3.069057094595706e-05,0.5630843238748675,-3.346264011339084e-05,-0.5870529902735149
574,0.5641,878.969,804.869,0.0265392,0.000773725,0.0429908,-0.0532288,0.447301,0.447301,-0.885712,3.8775e-10,3.07874e-05,-3.35771e-05,0.840448,0.5640850180301202,3.8775005428703935e-10,3.0787873936954924e-05,0.5640850180301202,-3.357653629543211e-05,-0.5875795746256615
575,0.5651,879.289,805.17,0.0264853,0.000772484,0.0429381,-0.0531551,0.44794,0.44794,-0.886987,3.8973e-10,3.08845e-05,-3.36907e-05,0.841665,0.5650847877490477,3.8973002602915585e-10,3.088497693104486e-05,0.5650847877490477,-3.369013247478403e-05,-0.5881050755899601
576,0.5661,879.608,805.471,0.0264316,0.000771245,0.0428857,-0.0530815,0.448579,0.448579,-0.888261,3.91707e-10,3.09815e-05,-3.38041e-05,0.842881,0.5660851965249827,3.917068891468034e-10,3.098197993156582e-05,0.5660851965249827,-3.380352864790215e-05,-0.5886294955971827
577,0.5671,879.927,805.771,0.026378,0.000770009,0.0428335,-0.0530082,0.449217,0.449217,-0.889535,3.93682e-10,3.10782e-05,-3.39172e-05,0.844096,0.5670846776809515,3.9368197590761156e-10,3.1078682932283996e-05,0.5670846776809515,-3.391662481821989e-05,-0.5891532479187223
578,0.5681,880.246,806.071,0.0263245,0.000768777,0.0427814,-0.0529351,0.449855,0.449855,-0.890807,3.95654e-10,3.11747e-05,-3.403e-05,0.84531,0.5680847967093579,3.9565395404395076e-10,3.117518593609425e-05,0.5680847967093579,-3.4029420986070313e-05,-0.5896755127565148
579,0.5691,880.564,806.37,0.0262712,0.000767547,0.0427296,-0.0528622,0.450493,0.450493,-0.892079,3.97624e-10,3.12711e-05,-3.41426e-05,0.846524,0.5690855540172934,3.9762393377884564e-10,3.127158894589144e-05,0.5690855540172934,-3.414201714802001e-05,-0.5901971136957627
580,0.5701,880.881,806.669,0.026218,0.000766321,0.0426779,-0.0527895,0.45113,0.45113,-0.89335,3.99591e-10,3.13673e-05,-3.4255e-05,0.847737,0.5700853799259462,3.995910269338765e-10,3.1367791959002744e-05,0.5700853799259462,-3.425441330418e-05,-0.5907176422982549
581,0.5711,881.198,806.967,0.026165,0.000765098,0.0426265,-0.052717,0.451766,0.451766,-0.89462,4.01556e-10,3.14632e-05,-3.43671e-05,0.848949,0.5710842718415376,4.015558996428581e-10,3.146369497164514e-05,0.5710842718415376,-3.4366509457983696e-05,-0.5912371009664622
582,0.5721,881.514,807.265,0.0261121,0.000763877,0.0425752,-0.0526447,0.452403,0.452403,-0.89589,4.03518e-10,3.1559e-05,-3.44789e-05,0.85016,0.5720853713390395,4.035181078165806e-10,3.155949799049651e-05,0.5720853713390395,-3.4478305609542126e-05,-0.591755900340901
583,0.5731,881.83,807.562,0.0260594,0.00076266,0.0425242,-0.0525726,0.453039,0.453039,-0.897158,4.05478e-10,3.16546e-05,-3.45905e-05,0.851371,0.5730855356537496,4.0547809554425385e-10,3.165510101221791e-05,0.5730855356537496,-3.458990175553289e-05,-0.5922732258056101
584,0.5741,882.145,807.859,0.0260068,0.000761446,0.0424733,-0.0525007,0.453674,0.453674,-0.898426,4.07435e-10,3.17501e-05,-3.47019e-05,0.852581,0.5740847621897389,4.0743497464745815e-10,3.17506040397042e-05,0.5740847621897389,-3.470129789606702e-05,-0.5927898957173383
585,0.5751,882.46,808.155,0.0259543,0.000760235,0.0424226,-0.0524291,0.454309,0.454309,-0.899693,4.0939e-10,3.18453e-05,-3.4813e-05,0.85379,0.5750846234360776,4.0939007739382305e-10,3.184580706694362e-05,0.5750846234360776,-3.481239403457792e-05,-0.5933055042125077
586,0.5761,882.774,808.451,0.025902,0.000759027,0.0423722,-0.0523576,0.454944,0.454944,-0.900959,4.11342e-10,3.19404e-05,-3.49238e-05,0.854998,0.5760851197959349,4.11342071515719e-10,3.194091009994793e-05,0.5760851197959349,-3.492319017117662e-05,-0.5938200536656462
587,0.5771,883.088,808.746,0.0258499,0.000757821,0.0423219,-0.0522863,0.455578,0.455578,-0.902225,4.13291e-10,3.20353e-05,-3.50344e-05,0.856206,0.5770846745872731,4.13290957013146e-10,3.203581313560022e-05,0.5770846745872731,-3.5033786302540726e-05,-0.5943339521113515
588,0.5781,883.401,809.041,0.0257978,0.000756619,0.0422718,-0.0522153,0.456212,0.456212,-0.903489,4.15238e-10,3.213e-05,-3.51448e-05,0.857412,0.5780848632972797,4.152380661537336e-10,3.21305161739005e-05,0.5780848632972797,-3.5144182428781257e-05,-0.5948463900668681
589,0.5791,883.714,809.335,0.025746,0.00075542,0.0422219,-0.0521444,0.456846,0.456846,-0.904753,4.17182e-10,3.22245e-05,-3.52549e-05,0.858618,0.579085686327987,4.1718206666985225e-10,3.222501921484877e-05,0.579085686327987,-3.525427855333163e-05,-0.5953581807099968
590,0.5801,884.026,809.629,0.0256942,0.000754224,0.0421722,-0.0520738,0.457479,0.457479,-0.906016,4.19124e-10,3.23188e-05,-3.53647e-05,0.859824,0.5800855639953277,4.1912406878452657e-10,3.231932225800094e-05,0.5800855639953277,-3.536407467641389e-05,-0.5958689207275458
591,0.5811,884.338,809.923,0.0256426,0.00075303,0.0421227,-0.0520033,0.458111,0.458111,-0.907278,4.21063e-10,3.2413e-05,-3.54743e-05,0.861028,0.5810844937003099,4.2106296227473194e-10,3.241352530691799e-05,0.5810844937003099,-3.54736707944836e-05,-0.5963786124664541
592,0.5821,884.649,810.216,0.0255912,0.00075184,0.0420734,-0.0519331,0.458744,0.458744,-0.908539,4.22999e-10,3.2507e-05,-3.55837e-05,0.862232,0.5820856370132517,4.229989691850733e-10,3.2507528358260984e-05,0.5820856370132517,-3.5583066907651784e-05,-0.5968872582675555
593,0.5831,884.959,810.508,0.0255399,0.000750653,0.0420243,-0.0518631,0.459375,0.459375,-0.9098,3.58851e-10,3.26008e-05,-3.56928e-05,0.863435,0.5830842480788643,3.588509489560465e-10,3.260133141180788e-05,0.5830842480788643,-3.56921630195739e-05,-0.5973952630705361
594,0.5841,885.269,810.8,0.0254887,0.000749468,0.0419753,-0.0517933,0.460007,0.460007,-0.91106,4.26863e-10,3.26944e-05,-3.58017e-05,0.864637,0.5840850735511867,4.268629893999787e-10,3.269493446778071e-05,0.5840850735511867,-3.5801059126816526e-05,-0.5979022255856116
595,0.5851,885.579,811.091,0.0254377,0.000748286,0.0419266,-0.0517237,0.460638,0.460638,-0.912319,4.28791e-10,3.27879e-05,-3.59103e-05,0.865838,0.5850849466593873,4.2879100270454273e-10,3.2788437529074344e-05,0.5850849466593873,-3.590965523292411e-05,-0.5984081481385248
596,0.5861,885.888,811.382,0.0253868,0.000747108,0.041878,-0.0516543,0.461269,0.461269,-0.913577,4.30717e-10,3.28812e-05,-3.60187e-05,0.867039,0.5860854508866162,4.3071701760766246e-10,3.288174059257187e-05,0.5860854508866162,-3.601805133446323e-05,-0.5989130330489736
597,0.5871,886.197,811.673,0.025336,0.000745932,0.0418297,-0.0515851,0.461899,0.461899,-0.914834,4.3264e-10,3.29743e-05,-3.61269e-05,0.868239,0.5870849995454421,4.3263992388631323e-10,3.29748436582733e-05,0.5870849995454421,-3.612624743143389e-05,-0.5994168826306268
598,0.5881,886.505,811.963,0.0252854,0.000744759,0.0417815,-0.0515161,0.462529,0.462529,-0.916091,4.34559e-10,3.30672e-05,-3.62348e-05,0.869438,0.5880851781183254,4.3455905540668027e-10,3.306774672595658e-05,0.5880851781183254,-3.623414352760257e-05,-0.5999200992712425
599,0.5891,886.812,812.252,0.0252349,0.000743589,0.0417335,-0.0514473,0.463158,0.463158,-0.917347,4.36477e-10,3.316e-05,-3.63425e-05,0.870637,0.5890843979170441,4.364770767040227e-10,3.316054979896066e-05,0.5890843979170441,-3.634183961931381e-05,-0.6004222841884119
600,0.5901,887.12,812.542,0.0251846,0.000742421,0.0416857,-0.0513788,0.463787,0.463787,-0.918602,4.38391e-10,3.32526e-05,-3.64499e-05,0.871835,0.5900842464227238,4.3839110119847646e-10,3.3253152873724545e-05,0.5900842464227238,-3.6449235710445116e-05,-0.6009234396809062
601,0.5911,887.426,812.83,0.0251344,0.000741257,0.0416381,-0.0513104,0.464416,0.464416,-0.919856,4.40303e-10,3.3345e-05,-3.65571e-05,0.873031,0.5910847240309458,4.40302905246881e-10,3.334555595069233e-05,0.5910847240309458,-3.655643179734103e-05,-0.6014235680415259
602,0.5921,887.732,813.118,0.0250843,0.000740096,0.0415907,-0.0512422,0.465044,0.465044,-0.92111,4.42212e-10,3.34373e-05,-3.66641e-05,0.874228,0.5920842390525045,4.422120447600264e-10,3.3437859032758865e-05,0.5920842390525045,-3.6663427880112565e-05,-0.601923069634247
603,0.5931,888.038,813.406,0.0250344,0.000738937,0.0415434,-0.0511743,0.465672,0.465672,-0.922362,4.44118e-10,3.35294e-05,-3.67708e-05,0.875423,0.5930843819666345,4.4411807564870287e-10,3.352996211658521e-05,0.5930843819666345,-3.677012396241519e-05,-0.6024211500876392
604,0.5941,888.343,813.693,0.0249846,0.000737781,0.0414964,-0.0511066,0.4663,0.4663,-0.923614,4.46022e-10,3.36213e-05,-3.68773e-05,0.876618,0.594085153167776,4.46022108135935e-10,3.3621865202171364e-05,0.594085153167776,-3.6876620040704466e-05,-0.6029186073345124
605,0.5951,888.648,813.98,0.0249349,0.000736628,0.0414495,-0.051039,0.466927,0.466927,-0.924865,4.47922e-10,3.3713e-05,-3.69836e-05,0.877812,0.5950849579648618,4.479219217756736e-10,3.3713568289517326e-05,0.5950849579648618,-3.698291611509141e-05,-0.6034150455698768
606,0.5961,888.952,814.266,0.0248854,0.000735478,0.0414028,-0.0509717,0.467554,0.467554,-0.926116,4.4982e-10,3.38046e-05,-3.70896e-05,0.879005,0.5960853898361225,4.4981995905857275e-10,3.380517138196204e-05,0.5960853898361225,-3.7088912189342516e-05,-0.6039108631493101
607,0.5971,889.255,814.552,0.024836,0.00073433,0.0413563,-0.0509046,0.46818,0.46818,-0.927365,4.51715e-10,3.3896e-05,-3.71954e-05,0.880198,0.5970848520892063,4.517151097616079e-10,3.389657447594452e-05,0.5970848520892063,-3.719470825969129e-05,-0.6044052696600977
608,0.5981,889.559,814.838,0.0247867,0.000733185,0.04131,-0.0508377,0.468806,0.468806,-0.928614,4.53608e-10,3.39873e-05,-3.7301e-05,0.881389,0.5980849402015342,4.536080400185938e-10,3.3987877574803704e-05,0.5980849402015342,-3.730030432635978e-05,-0.6048990590426302
609,0.5991,889.861,815.123,0.0247376,0.000732043,0.0412639,-0.050771,0.469432,0.469432,-0.929862,4.55497e-10,3.40784e-05,-3.74064e-05,0.88258,0.5990856545650165,4.55496973472691e-10,3.4078980675200654e-05,0.5990856545650165,-3.7405700389347984e-05,-0.6053918374592544
610,0.6001,890.163,815.407,0.0246886,0.000730904,0.0412179,-0.0507045,0.470057,0.470057,-0.931109,4.57384e-10,3.41693e-05,-3.75115e-05,0.883771,0.6000853954856136,4.5738390852534394e-10,3.416988377713537e-05,0.6000853954856136,-3.751079645253341e-05,-0.6058836071558114
611,0.6011,890.465,815.691,0.0246397,0.000729768,0.0411721,-0.0506382,0.470681,0.470681,-0.932356,4.59268e-10,3.42601e-05,-3.76163e-05,0.88496,0.6010841603546278,4.5926795699813283e-10,3.426068688394679e-05,0.6010841603546278,-3.761559251580504e-05,-0.606374763997751
612,0.6021,890.766,815.975,0.024591,0.000728634,0.0411265,-0.0505721,0.471306,0.471306,-0.933601,4.61149e-10,3.43507e-05,-3.7721e-05,0.886149,0.602085150731758,4.6114889684645277e-10,3.435128999207393e-05,0.602085150731758,-3.772028857207399e-05,-0.606864522478658
613,0.6031,891.067,816.258,0.0245424,0.000727503,0.0410811,-0.0505063,0.47193,0.47193,-0.934846,4.63027e-10,3.44411e-05,-3.78254e-05,0.887337,0.6030851638374553,4.630269501149087e-10,3.444169310151679e-05,0.6030851638374553,-3.782468462854016e-05,-0.6073536715896676
614,0.6041,891.367,816.541,0.0244939,0.000726375,0.0410359,-0.0504406,0.472553,0.472553,-0.936091,4.64902e-10,3.45314e-05,-3.79296e-05,0.888524,0.6040841970610622,4.6490189475889565e-10,3.4531996215614313e-05,0.6040841970610622,-3.792888068177014e-05,-0.6078422120889735
615,0.6051,891.667,816.823,0.0244455,0.000725249,0.0409908,-0.0503752,0.473177,0.473177,-0.937334,4.66775e-10,3.46215e-05,-3.80336e-05,0.889711,0.6050854579609402,4.667750630460432e-10,3.4622099331027556e-05,0.6050854579609402,-3.803287673176392e-05,-0.6083293613933318
616,0.6061,891.966,817.105,0.0243973,0.000724127,0.040946,-0.0503099,0.473799,0.473799,-0.938576,4.68644e-10,3.47115e-05,-3.81373e-05,0.890897,0.6060841316711183,4.686440124856972e-10,3.471210245109546e-05,0.6060841316711183,-3.8136572782399014e-05,-0.6088155143629936
617,0.6071,892.265,817.386,0.0243492,0.000723006,0.0409013,-0.0502449,0.474422,0.474422,-0.939818,4.70511e-10,3.48013e-05,-3.82409e-05,0.892082,0.6070850338337996,4.705109635239069e-10,3.480190557225704e-05,0.6070850338337996,-3.824016882614245e-05,-0.609301063905473
618,0.6081,892.564,817.667,0.0243013,0.000721889,0.0408567,-0.05018,0.475044,0.475044,-0.941059,4.72375e-10,3.48909e-05,-3.83442e-05,0.893266,0.6080849516670528,4.723750279822525e-10,3.4891508694512297e-05,0.6080849516670528,-3.83434648705272e-05,-0.6097856205555767
619,0.6091,892.862,817.947,0.0242534,0.000720774,0.0408124,-0.0501154,0.475666,0.475666,-0.9423,4.74236e-10,3.49804e-05,-3.84472e-05,0.89445,0.6090854916426642,4.742359838161292e-10,3.4981011821422214e-05,0.6090854916426642,-3.844646091588633e-05,-0.6102695762438519
620,0.6101,893.159,818.227,0.0242057,0.000719662,0.0407682,-0.050051,0.476287,0.476287,-0.943539,4.76095e-10,3.50698e-05,-3.85501e-05,0.895633,0.6100850440618784,4.760949412485616e-10,3.5070414952542706e-05,0.6100850440618784,-3.854935695446482e-05,-0.6107521532207141
621,0.6111,893.456,818.507,0.0241582,0.000718553,0.0407242,-0.0499868,0.476908,0.476908,-0.944778,4.7795e-10,3.51589e-05,-3.86527e-05,0.896815,0.6110852173959185,4.779499018781053e-10,3.515951808141793e-05,0.6110852173959185,-3.865195299401769e-05,-0.611234132654956
622,0.6121,893.753,818.786,0.0241107,0.000717446,0.0406804,-0.0499228,0.477528,0.477528,-0.946016,4.79803e-10,3.5248e-05,-3.87552e-05,0.897997,0.6120843999452872,4.798030861508096e-10,3.524862121806471e-05,0.6120843999452872,-3.875444902690095e-05,-0.6117151270017958
623,0.6131,894.049,819.065,0.0240634,0.000716342,0.0406368,-0.049859,0.478148,0.478148,-0.947253,4.81652e-10,3.53368e-05,-3.88574e-05,0.899177,0.613084202179919,4.816520515760203e-10,3.533742435202214e-05,0.613084202179919,-3.885664506098063e-05,-0.6121951384414108
624,0.6141,894.344,819.343,0.0240162,0.00071524,0.0405933,-0.0497954,0.478768,0.478768,-0.94849,4.83499e-10,3.54256e-05,-3.89593e-05,0.900357,0.614084624484138,4.834990185997867e-10,3.542622749397317e-05,0.614084624484138,-3.895854109636776e-05,-0.6126745564739732
625,0.6151,894.639,819.621,0.0239691,0.000714141,0.04055,-0.049732,0.479388,0.479388,-0.949725,4.85343e-10,3.55141e-05,-3.90611e-05,0.901537,0.6150856672425065,4.853430990436891e-10,3.55147306330128e-05,0.6150856672425065,-3.90603371251963e-05,-0.6131526081390632
626,0.6161,894.934,819.899,0.0239222,0.000713045,0.0405069,-0.0496688,0.480007,0.480007,-0.95096,4.87184e-10,3.56025e-05,-3.91626e-05,0.902715,0.6160857147533028,4.871840708631225e-10,3.560313377648505e-05,0.6160857147533028,-3.9161833155443304e-05,-0.6136300697747652
627,0.6171,895.228,820.176,0.0238754,0.000711951,0.040464,-0.0496059,0.480625,0.480625,-0.952194,4.89023e-10,3.56908e-05,-3.9264e-05,0.903893,0.6170847643995643,4.890230442811117e-10,3.5691436924167874e-05,0.6170847643995643,-3.926322917924274e-05,-0.6141065562160644
628,0.6181,895.522,820.452,0.0238287,0.00071086,0.0404212,-0.0495431,0.481243,0.481243,-0.953428,4.90858e-10,3.57789e-05,-3.93651e-05,0.90507,0.6180844316493268,4.908580208962121e-10,3.577954007250028e-05,0.6180844316493268,-3.936432520457167e-05,-0.6145824550357322
629,0.6191,895.815,820.728,0.0237821,0.000709772,0.0403786,-0.0494805,0.481861,0.481861,-0.95466,4.9269e-10,3.58669e-05,-3.9466e-05,0.906247,0.6190847168843876,4.926901109314485e-10,3.5867543225043264e-05,0.6190847168843876,-3.9465221227663605e-05,-0.6150569970732105
630,0.6201,896.108,821.004,0.0237356,0.000708686,0.0403361,-0.0494182,0.482479,0.482479,-0.955892,4.9452e-10,3.59547e-05,-3.95667e-05,0.907422,0.6200856204867795,4.945199805206357e-10,3.5955346378013786e-05,0.6200856204867795,-3.956591724840752e-05,-0.6155309548348864
631,0.6211,896.4,821.279,0.0236893,0.000707603,0.0402939,-0.049356,0.483096,0.483096,-0.957123,4.96347e-10,3.60423e-05,-3.96671e-05,0.908597,0.6210855217524396,4.963469635299589e-10,3.604294953141185e-05,0.6210855217524396,-3.9666313271014e-05,-0.6160039450442816
632,0.6221,896.692,821.554,0.0236431,0.000706522,0.0402518,-0.0492941,0.483712,0.483712,-0.958354,4.98171e-10,3.61298e-05,-3.97674e-05,0.909771,0.622084418062316,4.98171059959418e-10,3.613045268902049e-05,0.622084418062316,-3.976660928739495e-05,-0.6164763533609574
633,0.6231,896.984,821.829,0.023597,0.000705444,0.0402099,-0.0492323,0.484329,0.484329,-0.959583,4.99992e-10,3.62172e-05,-3.98675e-05,0.910945,0.6230855529666184,4.999920477644082e-10,3.621785585061765e-05,0.6230855529666184,-3.986670530176095e-05,-0.616947414396378
634,0.6241,897.275,822.103,0.023551,0.000704368,0.0401681,-0.0491708,0.484945,0.484945,-0.960812,5.0181e-10,3.63044e-05,-3.99673e-05,0.912118,0.6240856816752627,5.018099269449294e-10,3.630505901264236e-05,0.6240856816752627,-3.9966501318100534e-05,-0.6174178968533953
635,0.6251,897.565,822.376,0.0235052,0.000703295,0.0401265,-0.0491095,0.48556,0.48556,-0.96204,5.03625e-10,3.63915e-05,-4.00669e-05,0.91329,0.6250848015673687,5.036249195455866e-10,3.6392162178655596e-05,0.6250848015673687,-4.006609733253619e-05,-0.6178874193302559
636,0.6261,897.855,822.649,0.0234595,0.000702224,0.0400851,-0.0490484,0.486175,0.486175,-0.963268,5.05438e-10,3.64784e-05,-4.01664e-05,0.914461,0.6260845361071932,5.054379137447995e-10,3.647906534487433e-05,0.6260845361071932,-4.0165593340968364e-05,-0.6183563655873862
637,0.6271,898.145,822.922,0.0234139,0.000701156,0.0400438,-0.0489874,0.48679,0.48679,-0.964494,5.07247e-10,3.65652e-05,-4.02656e-05,0.915632,0.6270848856728608,5.072469111411237e-10,3.656586851508159e-05,0.6270848856728608,-4.0264789351596164e-05,-0.61882397398066
638,0.6281,898.434,823.194,0.0233684,0.000700091,0.0400028,-0.0489267,0.487404,0.487404,-0.96572,5.09054e-10,3.66519e-05,-4.03646e-05,0.916802,0.6280842225576921,5.090539101360037e-10,3.6652571689055335e-05,0.6280842225576921,-4.036378536054208e-05,-0.6192910094373256
639,0.6291,898.723,823.466,0.023323,0.000699027,0.0399618,-0.0488662,0.488018,0.488018,-0.966945,5.10858e-10,3.67384e-05,-4.04634e-05,0.917971,0.6290841732237822,5.108580225510195e-10,3.673907486323458e-05,0.6290841732237822,-4.0462581367695094e-05,-0.6197570924166554
640,0.6301,899.011,823.738,0.0232778,0.000697967,0.0399211,-0.0488059,0.488632,0.488632,-0.96817,5.12659e-10,3.68247e-05,-4.0562e-05,0.91914,0.6300847380481087,5.126590263415665e-10,3.6825378037619316e-05,0.6300847380481087,-4.0561177373166224e-05,-0.6202226047939007
641,0.6311,899.299,824.009,0.0232327,0.000696909,0.0398805,-0.0487458,0.489245,0.489245,-0.969393,5.14457e-10,3.69109e-05,-4.06604e-05,0.920307,0.6310842863227784,5.144569215076444e-10,3.6911581215548495e-05,0.6310842863227784,-4.0659573377177516e-05,-0.6206867886419569
642,0.6321,899.587,824.28,0.0231877,0.000695853,0.0398401,-0.0486859,0.489858,0.489858,-0.970616,5.16252e-10,3.6997e-05,-4.07586e-05,0.921474,0.6320844475083784,5.162519300938584e-10,3.69976843974662e-05,0.6320844475083784,-4.0757769379506925e-05,-0.6211504051401721
643,0.6331,899.874,824.55,0.0231428,0.0006948,0.0397998,-0.0486262,0.490471,0.490471,-0.971838,5.18044e-10,3.7083e-05,-4.08566e-05,0.922641,0.6330852219807386,5.180440521002083e-10,3.708368758292835e-05,0.6330852219807386,-4.085576538048752e-05,-0.6216130765952568
644,0.6341,900.16,824.82,0.023098,0.000693749,0.0397597,-0.0485667,0.491083,0.491083,-0.97306,5.19834e-10,3.71688e-05,-4.09543e-05,0.923806,0.6340849760301255,5.19833953660509e-10,3.716949076837395e-05,0.6340849760301255,-4.0953461384107825e-05,-0.6220751830111326
645,0.6351,900.446,825.089,0.0230534,0.000692701,0.0397197,-0.0485073,0.491695,0.491695,-0.97428,5.2162e-10,3.72544e-05,-4.10519e-05,0.924971,0.635085342116255,5.216200804625259e-10,3.7255093953803e-05,0.635085342116255,-4.1051057382279765e-05,-0.622535970150551
646,0.6361,900.732,825.358,0.0230088,0.000691655,0.03968,-0.0484482,0.492306,0.492306,-0.9755,5.23404e-10,3.73399e-05,-4.11493e-05,0.926136,0.6360846845283052,5.234039868184936e-10,3.734059714277649e-05,0.6360846845283052,-4.114845337921391e-05,-0.6229961954724377
647,0.6371,901.017,825.627,0.0229644,0.000690612,0.0396403,-0.0483893,0.492917,0.492917,-0.976719,5.25185e-10,3.74253e-05,-4.12465e-05,0.927299,0.6370846377251451,5.251850065945973e-10,3.742600033529442e-05,0.6370846377251451,-4.124564937479924e-05,-0.6234554831174635
648,0.6381,901.302,825.895,0.0229201,0.000689571,0.0396009,-0.0483307,0.493528,0.493528,-0.977938,5.26963e-10,3.75105e-05,-4.13435e-05,0.928462,0.638085202080078,5.26962917746232e-10,3.7511203527573755e-05,0.638085202080078,-4.13426453692578e-05,-0.6239142112319531
649,0.6391,901.586,826.163,0.0228759,0.000688533,0.0395616,-0.0482722,0.494138,0.494138,-0.979155,5.28738e-10,3.75957e-05,-4.14403e-05,0.929624,0.6390847388810772,5.287379423180028e-10,3.7596406727180565e-05,0.6390847388810772,-4.143944136258959e-05,-0.6243716292415686
650,0.6401,901.87,826.43,0.0228319,0.000687497,0.0395224,-0.0482139,0.494748,0.494748,-0.980372,5.30511e-10,3.76806e-05,-4.15368e-05,0.930785,0.6400848855855266,5.305109684883291e-10,3.768130992276575e-05,0.6400848855855266,-4.1535937359116204e-05,-0.6248284909120674
651,0.6411,902.154,826.697,0.0227879,0.000686463,0.0394835,-0.0481558,0.495358,0.495358,-0.981588,5.3228e-10,3.77655e-05,-4.16332e-05,0.931946,0.6410856425655809,5.322799978557669e-10,3.776621312545636e-05,0.6410856425655809,-4.163233335030547e-05,-0.625284422204712
652,0.6421,902.437,826.964,0.0227441,0.000685432,0.0394446,-0.0480979,0.495967,0.495967,-0.982804,5.34047e-10,3.78502e-05,-4.17294e-05,0.933106,0.6420853681074323,5.340470288217603e-10,3.785091632790838e-05,0.6420853681074323,-4.172852934070104e-05,-0.6257397994218508
653,0.6431,902.72,827.23,0.0227003,0.000684403,0.039406,-0.0480402,0.496576,0.496576,-0.984019,5.35811e-10,3.79347e-05,-4.18254e-05,0.934266,0.6430857026675665,5.358109511632847e-10,3.793541952989976e-05,0.6430857026675665,-4.1824525330191875e-05,-0.6261942494312667
654,0.6441,903.002,827.496,0.0226567,0.000683376,0.0393675,-0.0479827,0.497184,0.497184,-0.985232,5.37572e-10,3.80192e-05,-4.19213e-05,0.935424,0.6440850025311631,5.375719869249451e-10,3.801992273899657e-05,0.6440850025311631,-4.192042131456741e-05,-0.6266474009147691
655,0.6451,903.284,827.761,0.0226132,0.000682352,0.0393291,-0.0479254,0.497792,0.497792,-0.986446,5.3933e-10,3.81035e-05,-4.20169e-05,0.936582,0.6450849101538167,5.393299140621366e-10,3.810422594763274e-05,0.6450849101538167,-4.201601730247084e-05,-0.6271003759585743
656,0.6461,903.565,828.026,0.0225698,0.00068133,0.0392909,-0.0478683,0.4984,0.4984,-0.987658,5.41086e-10,3.81876e-05,-4.21123e-05,0.937739,0.6460854259051574,5.410860648424887e-10,3.818832915558623e-05,0.6460854259051574,-4.211141328958057e-05,-0.6275520565291955
657,0.6471,903.846,828.291,0.0225266,0.000680311,0.0392529,-0.0478114,0.499007,0.499007,-0.98887,5.42838e-10,3.82717e-05,-4.22075e-05,0.938896,0.6470849030693131,5.428379967753472e-10,3.827243237086719e-05,0.6470849030693131,-4.220660927600761e-05,-0.6280031899945779
658,0.6481,904.127,828.555,0.0224834,0.000679294,0.039215,-0.0477547,0.499614,0.499614,-0.990081,5.44588e-10,3.83556e-05,-4.23026e-05,0.940052,0.648084987100273,5.445879303067613e-10,3.835633558546547e-05,0.648084987100273,-4.230170525765242e-05,-0.6284534054710027
659,0.6491,904.407,828.819,0.0224404,0.000678279,0.0391772,-0.0476981,0.500221,0.500221,-0.991291,5.46335e-10,3.84394e-05,-4.23974e-05,0.941207,0.6490856783665169,5.463349772583115e-10,3.84401388031641e-05,0.6490856783665169,-4.2396501242936147e-05,-0.628902704969368
660,0.6501,904.687,829.082,0.0223974,0.000677267,0.0391396,-0.0476418,0.500827,0.500827,-0.992501,5.48079e-10,3.8523e-05,-4.24921e-05,0.942361,0.6500853271505964,5.480789155853927e-10,3.8523742020402096e-05,0.6500853271505964,-4.249119722354866e-05,-0.6293514611441173
661,0.6511,904.966,829.346,0.0223546,0.000676257,0.0391022,-0.0475857,0.501433,0.501433,-0.99371,5.4982e-10,3.86065e-05,-4.25866e-05,0.943515,0.6510855819054295,5.498199673326098e-10,3.8607245240518395e-05,0.6510855819054295,-4.2585693203589514e-05,-0.6297993044517642
662,0.6521,905.245,829.608,0.0223119,0.000675249,0.0390649,-0.0475298,0.502038,0.502038,-0.994918,5.51559e-10,3.86899e-05,-4.26809e-05,0.944668,0.652084790912729,5.515590206783827e-10,3.8690648463735045e-05,0.652084790912729,-4.2679989183391775e-05,-0.6302462368904442
663,0.6531,905.523,829.87,0.0222693,0.000674243,0.0390278,-0.0474741,0.502643,0.502643,-0.996125,5.53295e-10,3.87732e-05,-4.2775e-05,0.94582,0.6530846046243826,5.532949653996866e-10,3.877395169027409e-05,0.6530846046243826,-4.27740851627334e-05,-0.6306922604531483
664,0.6541,905.801,830.132,0.0222268,0.00067324,0.0389908,-0.0474185,0.503248,0.503248,-0.997332,5.55028e-10,3.88563e-05,-4.28689e-05,0.946972,0.6540850234063471,5.550280235411265e-10,3.885705491590841e-05,0.6540850234063471,-4.286798114183643e-05,-0.6311377459901759
665,0.6551,906.079,830.394,0.0221844,0.00067224,0.038954,-0.0473632,0.503852,0.503852,-0.998538,5.56758e-10,3.89393e-05,-4.29626e-05,0.948123,0.6550843925395804,5.567579730580974e-10,3.894005814442103e-05,0.6550843925395804,-4.296167712070087e-05,-0.6315823257330424
666,0.6561,906.356,830.655,0.0221421,0.000671241,0.0389173,-0.0473081,0.504456,0.504456,-0.999743,5.58485e-10,3.90222e-05,-4.30561e-05,0.949273,0.6560843654741002,5.584850359952043e-10,3.9022961376034004e-05,0.6560843654741002,-4.305517309943774e-05,-0.6320260016621012
667,0.6571,906.633,830.916,0.0220999,0.000670245,0.0388808,-0.0472531,0.50506,0.50506,-1.00095,5.6021e-10,3.9105e-05,-4.31495e-05,0.950423,0.6570849425747118,5.602101005308668e-10,3.9105764610525284e-05,0.6570849425747118,-4.314856907372544e-05,-0.6324698783446288
668,0.6581,906.91,831.176,0.0220579,0.000669251,0.0388444,-0.0471984,0.505663,0.505663,-1.00215,5.61932e-10,3.91876e-05,-4.32427e-05,0.951572,0.6580844661211473,5.619320564420605e-10,3.918836784411184e-05,0.6580844661211473,-4.324176504788557e-05,-0.6329106499747446
669,0.6591,907.186,831.436,0.0220159,0.000668259,0.0388082,-0.0471438,0.506266,0.506266,-1.00335,5.63651e-10,3.92701e-05,-4.33357e-05,0.95272,0.6590845925620359,5.636509037287851e-10,3.92708710805767e-05,0.6590845925620359,-4.333476102214018e-05,-0.6333508929961327
670,0.6601,907.461,831.695,0.0219741,0.00066727,0.0387721,-0.0470895,0.506869,0.506869,-1.00456,5.65367e-10,3.93525e-05,-4.34285e-05,0.953867,0.6600853222610321,5.653670864802507e-10,3.935327431969782e-05,0.6600853222610321,-4.3427556996378236e-05,-0.6337942701183528
671,0.6611,907.737,831.955,0.0219323,0.000666282,0.0387362,-0.0470353,0.507471,0.507471,-1.00576,5.6708e-10,3.94348e-05,-4.35211e-05,0.955014,0.6610849944961856,5.670799385626424e-10,3.943557756191929e-05,0.6610849944961856,-4.352015297071077e-05,-0.6342334534315208
672,0.6621,908.011,832.214,0.0218907,0.000665298,0.0387004,-0.0469813,0.508073,0.508073,-1.00696,5.68791e-10,3.95169e-05,-4.36136e-05,0.95616,0.6620852687152037,5.687910142881947e-10,3.951768080301399e-05,0.6620852687152037,-4.361264894081618e-05,-0.6346721100407987
673,0.6631,908.286,832.472,0.0218492,0.000664315,0.0386647,-0.0469275,0.508674,0.508674,-1.00816,5.70499e-10,3.95989e-05,-4.37059e-05,0.957306,0.6630844821952757,5.70498981389278e-10,3.959968404676495e-05,0.6630844821952757,-4.3704944911016064e-05,-0.6351102405778518
674,0.6641,908.56,832.73,0.0218078,0.000663334,0.0386292,-0.0468739,0.509275,0.509275,-1.00936,5.72205e-10,3.96808e-05,-4.3798e-05,0.95845,0.6640842963831444,5.72204950088917e-10,3.9681587293394216e-05,0.6640842963831444,-4.379704088164349e-05,-0.6355478456735884
675,0.6651,908.833,832.988,0.0217665,0.000662356,0.0385939,-0.0468205,0.509876,0.509876,-1.01056,5.73907e-10,3.97626e-05,-4.38899e-05,0.959595,0.6650847116399425,5.739069219856674e-10,3.9763390542679744e-05,0.6650847116399425,-4.388893685247641e-05,-0.6359849259581596
676,0.6661,909.107,833.245,0.0217253,0.00066138,0.0385586,-0.0467673,0.510477,0.510477,-1.01176,5.75607e-10,3.98442e-05,-4.39816e-05,0.960738,0.6660857283270218,5.756068954809734e-10,3.9844993790616456e-05,0.6660857283270218,-4.3980632823625854e-05,-0.6364214820609615
677,0.6671,909.379,833.502,0.0216842,0.000660406,0.0385236,-0.0467143,0.511077,0.511077,-1.01295,5.77304e-10,3.99258e-05,-4.40732e-05,0.961881,0.6670856797194373,5.773039823964154e-10,3.992659704543655e-05,0.6670856797194373,-4.407222879077022e-05,-0.6368538831676236
678,0.6681,909.652,833.758,0.0216432,0.000659435,0.0384886,-0.0466615,0.511676,0.511676,-1.01415,5.78999e-10,4.00072e-05,-4.41646e-05,0.963023,0.6680845631773182,5.789990709104131e-10,4.0008000298685786e-05,0.6680845631773182,-4.4163624758453146e-05,-0.637289397147173
679,0.6691,909.924,834.015,0.0216023,0.000658465,0.0384539,-0.0466088,0.512276,0.512276,-1.01534,5.8069e-10,4.00885e-05,-4.42558e-05,0.964164,0.669085714230506,5.806899405769173e-10,4.008930355459128e-05,0.669085714230506,-4.4254820726563615e-05,-0.6377207660491659
680,0.6701,910.195,834.271,0.0215615,0.000657498,0.0384192,-0.0465564,0.512874,0.512874,-1.01654,5.82379e-10,4.01697e-05,-4.43468e-05,0.965305,0.6700841259829771,5.82379033886582e-10,4.017050681315304e-05,0.6700841259829771,-4.434581669521265e-05,-0.6381552403931637
681,0.6711,910.467,834.526,0.0215208,0.000656533,0.0383847,-0.0465041,0.513473,0.513473,-1.01773,5.84066e-10,4.02508e-05,-4.44377e-05,0.966445,0.6710848060481998,5.840659067501974e-10,4.025161007437106e-05,0.6710848060481998,-4.443671266007865e-05,-0.6385855795545112
682,0.6721,910.737,834.781,0.0214802,0.00065557,0.0383503,-0.046452,0.514071,0.514071,-1.01893,5.85749e-10,4.03317e-05,-4.45284e-05,0.967584,0.6720844136150903,5.857490048555292e-10,4.0332513334018216e-05,0.6720844136150903,-4.452740862548321e-05,-0.6390190167447192
683,0.6731,911.008,835.036,0.0214398,0.00065461,0.0383161,-0.0464001,0.514669,0.514669,-1.02012,5.8743e-10,4.04125e-05,-4.4619e-05,0.968723,0.6730846191260738,5.874301045594166e-10,4.041331659609959e-05,0.6730846191260738,-4.4618004587215765e-05,-0.6394483286235627
684,0.6741,911.278,835.29,0.0213994,0.000653651,0.038282,-0.0463484,0.515267,0.515267,-1.02131,5.89109e-10,4.04933e-05,-4.47093e-05,0.969861,0.6740854229388269,5.891089838172547e-10,4.0494119864842304e-05,0.6740854229388269,-4.4708300554141545e-05,-0.6398771299251241
685,0.6751,911.547,835.544,0.0213591,0.000652695,0.0382481,-0.0462969,0.515864,0.515864,-1.0225,5.90784e-10,4.05739e-05,-4.47995e-05,0.970998,0.6750851503252533,5.907840883168092e-10,4.057472313179211e-05,0.6750851503252533,-4.4798496517395314e-05,-0.640305421256629
686,0.6761,911.817,835.798,0.021319,0.00065174,0.0382143,-0.0462456,0.516461,0.516461,-1.0237,5.92457e-10,4.06543e-05,-4.48895e-05,0.972135,0.676085474727121,5.924569723703144e-10,4.065512639717106e-05,0.676085474727121,-4.4888492481520714e-05,-0.6407367958745854
687,0.6771,912.086,836.051,0.0212789,0.000650788,0.0381806,-0.0461944,0.517057,0.517057,-1.02489,5.94128e-10,4.07347e-05,-4.49794e-05,0.97327,0.6770847194153966,5.941280800669801e-10,4.0735529669211346e-05,0.6770847194153966,-4.4978388441974104e-05,-0.6411640648120556
688,0.6781,912.354,836.304,0.0212389,0.000649838,0.0381471,-0.0461435,0.517653,0.517653,-1.02608,5.95795e-10,4.0815e-05,-4.50691e-05,0.974406,0.6780845598310155,5.957949689161524e-10,4.0815832943463803e-05,0.6780845598310155,-4.506808440341015e-05,-0.641590825601898
689,0.6791,912.622,836.556,0.0211991,0.000648891,0.0381136,-0.0460927,0.518249,0.518249,-1.02726,5.9746e-10,4.08951e-05,-4.51586e-05,0.97554,0.679084996329137,5.974600814084852e-10,4.0895936215923356e-05,0.679084996329137,-4.515758036571782e-05,-0.6420134990013378
690,0.6801,912.89,836.808,0.0211593,0.000647945,0.0380804,-0.0460421,0.518844,0.518844,-1.02845,5.99123e-10,4.09752e-05,-4.52479e-05,0.976674,0.6800843491799429,5.991229734547687e-10,4.097603949504425e-05,0.6800843491799429,-4.524687632923019e-05,-0.6424392495656983
691,0.6811,913.157,837.06,0.0211196,0.000647001,0.0380473,-0.0459917,0.519439,0.519439,-1.02964,6.00782e-10,4.10551e-05,-4.53371e-05,0.977808,0.681084296822628,6.007820907427686e-10,4.105594277215019e-05,0.681084296822628,-4.533607228918157e-05,-0.6428644937882204
692,0.6821,913.424,837.312,0.0210801,0.00064606,0.0380143,-0.0459414,0.520034,0.520034,-1.03083,6.02439e-10,4.11349e-05,-4.54261e-05,0.97894,0.6820848396111991,6.024389875847191e-10,4.113574605169035e-05,0.6820848396111991,-4.542506825033765e-05,-0.6432892322710924
693,0.6831,913.691,837.563,0.0210406,0.000645121,0.0379814,-0.0458914,0.520628,0.520628,-1.03201,6.04094e-10,4.12146e-05,-4.5515e-05,0.980072,0.6830842948147366,6.040941080698303e-10,4.121544933322063e-05,0.6830842948147366,-4.551396420815479e-05,-0.6437099027326284
694,0.6841,913.957,837.814,0.0210013,0.000644183,0.0379487,-0.0458415,0.521222,0.521222,-1.0332,6.05746e-10,4.12942e-05,-4.56037e-05,0.981203,0.6840843438710218,6.057458978858676e-10,4.1295052617185135e-05,0.6840843438710218,-4.56026601670656e-05,-0.6441336357772109
695,0.6851,914.223,838.064,0.020962,0.000643248,0.0379161,-0.0457919,0.521816,0.521816,-1.03438,6.07395e-10,4.13737e-05,-4.56922e-05,0.982334,0.6850849871329081,6.073950231666458e-10,4.137455590336181e-05,0.6850849871329081,-4.569115612729213e-05,-0.6445533104302523
696,0.6861,914.488,838.314,0.0209228,0.000642315,0.0378836,-0.0457424,0.522409,0.522409,-1.03557,6.09042e-10,4.1453e-05,-4.57806e-05,0.983464,0.6860845388680765,6.090419280013748e-10,4.1453859187523534e-05,0.6860845388680765,-4.577955208429074e-05,-0.6449760404166128
697,0.6871,914.753,838.564,0.0208838,0.000641384,0.0378513,-0.045693,0.523002,0.523002,-1.03675,6.10686e-10,4.15323e-05,-4.58688e-05,0.984593,0.6870846835132041,6.106859462562397e-10,4.153316247790251e-05,0.6870846835132041,-4.5867748042716094e-05,-0.6453947216184313
698,0.6881,915.018,838.813,0.0208448,0.000640455,0.0378191,-0.0456439,0.523595,0.523595,-1.03793,6.12327e-10,4.16114e-05,-4.59568e-05,0.985722,0.6880854214199912,6.123270779312406e-10,4.161226576626653e-05,0.6880854214199912,-4.5955744002457166e-05,-0.6458129090678026
699,0.6891,915.282,839.062,0.020806,0.000639528,0.037787,-0.045595,0.524187,0.524187,-1.03911,6.13966e-10,4.16905e-05,-4.60447e-05,0.986849,0.6890850638544375,6.139659891601923e-10,4.169136906106985e-05,0.6890850638544375,-4.604363995908134e-05,-0.6462306033470113
700,0.6901,915.546,839.31,0.0207672,0.000638603,0.037755,-0.0455462,0.524779,0.524779,-1.04029,6.15603e-10,4.17694e-05,-4.61324e-05,0.987977,0.690085298252409,6.156029019876996e-10,4.177027235363617e-05,0.690085298252409,-4.613133591724328e-05,-0.6466478050376552
701,0.6911,915.81,839.559,0.0207285,0.000637681,0.0377232,-0.0454976,0.52537,0.52537,-1.04147,6.17237e-10,4.18483e-05,-4.622e-05,0.989103,0.6910844338791722,6.172369282353429e-10,4.1849175652419746e-05,0.6910844338791722,-4.6218931872288316e-05,-0.6470645147206455
702,0.6921,916.073,839.807,0.0206899,0.00063676,0.0376915,-0.0454492,0.525961,0.525961,-1.04265,6.18868e-10,4.1927e-05,-4.63074e-05,0.990229,0.6920841601696148,6.188680679031222e-10,4.1927878948966324e-05,0.6920841601696148,-4.630632782887112e-05,-0.6474807329762092
703,0.6931,916.336,840.054,0.0206515,0.000635841,0.03766,-0.0454009,0.526552,0.526552,-1.04383,6.20497e-10,4.20056e-05,-4.63947e-05,0.991354,0.6930844774729223,6.204969871248522e-10,4.200648224750303e-05,0.6930844774729223,-4.639362378255907e-05,-0.6478964603838886
704,0.6941,916.598,840.301,0.0206131,0.000634925,0.0376285,-0.0453528,0.527143,0.527143,-1.04501,6.22123e-10,4.20841e-05,-4.64818e-05,0.992479,0.6940853861384864,6.221230197667182e-10,4.208498554825191e-05,0.6940853861384864,-4.6480719737895804e-05,-0.6483116975225424
705,0.6951,916.86,840.548,0.0205748,0.00063401,0.0375972,-0.0453049,0.527733,0.527733,-1.04619,6.23746e-10,4.21625e-05,-4.65687e-05,0.993603,0.6950851914298661,6.237459437841153e-10,4.216338885076887e-05,0.6950851914298661,-4.6567615694881326e-05,-0.648726444970347
706,0.6961,917.122,840.795,0.0205366,0.000633097,0.037566,-0.0452572,0.528323,0.528323,-1.04737,6.25368e-10,4.22408e-05,-4.66555e-05,0.994726,0.6960855867804183,6.253679796230927e-10,4.224169215505391e-05,0.6960855867804183,-4.6654411649083016e-05,-0.6491407033047969
707,0.6971,917.383,841.041,0.0204985,0.000632187,0.037535,-0.0452097,0.528912,0.528912,-1.04854,6.26986e-10,4.2319e-05,-4.67422e-05,0.995849,0.6970848754526566,6.269860186591814e-10,4.231989546155113e-05,0.6970848754526566,-4.674110760038985e-05,-0.6495509686299141
708,0.6981,917.644,841.287,0.0204605,0.000631278,0.0375041,-0.0451623,0.529501,0.529501,-1.04972,6.28602e-10,4.23971e-05,-4.68286e-05,0.996971,0.6980847528792937,6.286020592938257e-10,4.2397998769816425e-05,0.6980847528792937,-4.682750355822218e-05,-0.6499642546002533
709,0.6991,917.905,841.532,0.0204226,0.000630371,0.0374733,-0.0451151,0.53009,0.53009,-1.05089,6.30216e-10,4.24751e-05,-4.6915e-05,0.998092,0.6990852194072086,6.302161015270258e-10,4.2476002079849806e-05,0.6990852194072086,-4.691389950861602e-05,-0.6503735569338148
710,0.7001,918.165,841.777,0.0203848,0.000629467,0.0374426,-0.0450681,0.530678,0.530678,-1.05207,6.31827e-10,4.2553e-05,-4.70012e-05,0.999213,0.7000845752980585,6.318270351357569e-10,4.255390539165127e-05,0.7000845752980585,-4.7000095460880686e-05,-0.6507858728224163
711,0.7011,918.425,842.022,0.0203471,0.000628564,0.037412,-0.0450213,0.531266,0.531266,-1.05324,6.33436e-10,4.26308e-05,-4.70872e-05,1.00033,0.7010845189829669,6.334359703430437e-10,4.263170870544286e-05,0.7010845189829669,-4.708609141523823e-05,-0.6511942144247951
712,0.7021,918.684,842.266,0.0203095,0.000627664,0.0373816,-0.0449746,0.531854,0.531854,-1.05441,6.35042e-10,4.27085e-05,-4.71731e-05,1.00145,0.7020850508076579,6.350420189704664e-10,4.2709412021002535e-05,0.7020850508076579,-4.717198736681194e-05,-0.6516020785468795
713,0.7031,918.943,842.511,0.020272,0.000626765,0.0373513,-0.0449281,0.532441,0.532441,-1.05558,6.36646e-10,4.27861e-05,-4.72588e-05,1.00257,0.7030844680327402,6.366460691964448e-10,4.278701533833029e-05,0.7030844680327402,-4.725768332047853e-05,-0.6520094657469948
714,0.7041,919.202,842.754,0.0202345,0.000625868,0.0373211,-0.0448818,0.533028,0.533028,-1.05676,6.38247e-10,4.28636e-05,-4.73444e-05,1.00369,0.7040844720879513,6.382470107979543e-10,4.286451865720409e-05,0.7040844720879513,-4.734327927158333e-05,-0.6524198524016687
715,0.7051,919.461,842.998,0.0201972,0.000624974,0.037291,-0.0448356,0.533615,0.533615,-1.05793,6.39846e-10,4.2941e-05,-4.74298e-05,1.00481,0.7050850633178618,6.398459539980195e-10,4.2941921977845965e-05,0.7050850633178618,-4.7428675224781e-05,-0.652826283365881
716,0.7061,919.719,843.241,0.0201599,0.000624081,0.0372611,-0.0447896,0.534201,0.534201,-1.0591,6.41442e-10,4.30183e-05,-4.75151e-05,1.00592,0.7060845359818555,6.414420106182206e-10,4.3019225300255926e-05,0.7060845359818555,-4.7513971175527914e-05,-0.6532322390839385
717,0.7071,919.976,843.484,0.0201228,0.00062319,0.0372312,-0.0447438,0.534787,0.534787,-1.06027,6.43036e-10,4.30955e-05,-4.76002e-05,1.00704,0.7070845945084712,6.430360688369774e-10,4.309642862443397e-05,0.7070845945084712,-4.759906712847872e-05,-0.6536377201115539
718,0.7081,920.234,843.726,0.0200857,0.000622301,0.0372015,-0.0446982,0.535373,0.535373,-1.06143,6.44628e-10,4.31725e-05,-4.76852e-05,1.00815,0.708085239241125,6.446279066096849e-10,4.3173431945708884e-05,0.708085239241125,-4.7684063078867744e-05,-0.6540392674137624
719,0.7091,920.491,843.968,0.0200488,0.000621414,0.0371719,-0.0446527,0.535958,0.535958,-1.0626,6.46217e-10,4.32495e-05,-4.77701e-05,1.00927,0.7090847614378186,6.462170798471334e-10,4.325043527320105e-05,0.7090847614378186,-4.7768959026917024e-05,-0.654443804770387
720,0.7101,920.747,844.21,0.0200119,0.000620529,0.0371424,-0.0446074,0.536543,0.536543,-1.06377,6.47804e-10,4.33264e-05,-4.78548e-05,1.01038,0.710084868526061,6.478040326385326e-10,4.332733860201721e-05,0.710084868526061,-4.7853654977281224e-05,-0.6548478690950821
721,0.7111,921.004,844.451,0.0199751,0.000619646,0.0371131,-0.0445623,0.537128,0.537128,-1.06494,6.49388e-10,4.34032e-05,-4.79393e-05,1.0115,0.7110855608481146,6.493880988500678e-10,4.340414193260145e-05,0.7110855608481146,-4.7938150930071366e-05,-0.6552514609409712
722,0.7121,921.259,844.692,0.0199384,0.000618765,0.0370838,-0.0445173,0.537712,0.537712,-1.0661,6.5097e-10,4.34799e-05,-4.80237e-05,1.01261,0.712085126660458,6.509699446155537e-10,4.348084526450968e-05,0.712085126660458,-4.802254688063279e-05,-0.6556511373891227
723,0.7131,921.515,844.933,0.0199018,0.000617886,0.0370547,-0.0444725,0.538296,0.538296,-1.06727,6.52549e-10,4.35565e-05,-4.8108e-05,1.01372,0.7130852763897231,6.525489038011756e-10,4.3557448598186e-05,0.7130852763897231,-4.8106842828743446e-05,-0.6560537899606904
724,0.7141,921.77,845.174,0.0198653,0.000617008,0.0370257,-0.0444279,0.538879,0.538879,-1.06843,6.54127e-10,4.36331e-05,-4.81921e-05,1.01483,0.7140842962918634,6.541269748083778e-10,4.3634051937635476e-05,0.7140842962918634,-4.819093877939107e-05,-0.6564525362467775
725,0.7151,922.025,845.414,0.0198289,0.000616133,0.0369968,-0.0443834,0.539463,0.539463,-1.0696,6.55701e-10,4.37095e-05,-4.82761e-05,1.01594,0.7150856138771742,6.557010490126913e-10,4.3710455274181825e-05,0.7150856138771742,-4.827493472780997e-05,-0.6568542517299854
726,0.7161,922.28,845.653,0.0197925,0.00061526,0.036968,-0.0443391,0.540045,0.540045,-1.07076,6.57274e-10,4.37858e-05,-4.83599e-05,1.01705,0.7160840842311398,6.572740129939803e-10,4.378675861205217e-05,0.7160840842311398,-4.835873067887686e-05,-0.6572520700187623
727,0.7171,922.534,845.893,0.0197563,0.000614388,0.0369394,-0.0442949,0.540628,0.540628,-1.07192,6.58844e-10,4.3862e-05,-4.84436e-05,1.01816,0.7170848529479816,6.588440903954051e-10,4.386296195169059e-05,0.7170848529479816,-4.844242662771503e-05,-0.657649427105873
728,0.7181,922.788,846.132,0.0197201,0.000613518,0.0369108,-0.0442509,0.54121,0.54121,-1.07308,6.60411e-10,4.39381e-05,-4.85272e-05,1.01927,0.7180844871977474,6.604110591723611e-10,4.393906529243097e-05,0.7180844871977474,-4.85260225744355e-05,-0.6580463235260012
729,0.7191,923.041,846.371,0.0196841,0.00061265,0.0368824,-0.0442071,0.541792,0.541792,-1.07424,6.61977e-10,4.40142e-05,-4.86106e-05,1.02038,0.7190847034039796,6.619769177262924e-10,4.4015168639166546e-05,0.7190847034039796,-4.860941852391498e-05,-0.6584427598132109
730,0.7201,923.294,846.609,0.0196481,0.000611784,0.0368541,-0.0441635,0.542374,0.542374,-1.0754,6.6354e-10,4.40901e-05,-4.86939e-05,1.02149,0.7200855019054748,6.635398897003597e-10,4.409107198277695e-05,0.7200855019054748,-4.8692714471276766e-05,-0.6588387365009465
731,0.7211,923.547,846.847,0.0196122,0.00061092,0.0368259,-0.04412,0.542955,0.542955,-1.07656,6.65101e-10,4.4166e-05,-4.87771e-05,1.0226,0.7210851619552059,6.651010853175876e-10,4.416697533216052e-05,0.7210851619552059,-4.8775910416631874e-05,-0.6592342541220344
732,0.7221,923.799,847.085,0.0195764,0.000610058,0.0367978,-0.0440767,0.543536,0.543536,-1.07772,6.66659e-10,4.42417e-05,-4.88601e-05,1.0237,0.7220854029761816,6.666589502657416e-10,4.424267867841891e-05,0.7220854029761816,-4.885890636474599e-05,-0.6596293132086832
733,0.7231,924.051,847.323,0.0195407,0.000609198,0.0367698,-0.0440335,0.544116,0.544116,-1.07888,6.68215e-10,4.43174e-05,-4.89429e-05,1.02481,0.7230845022206807,6.682150388570562e-10,4.4318382030450465e-05,0.7230845022206807,-4.894170231584116e-05,-0.6600239142924846
734,0.7241,924.303,847.56,0.0195051,0.000608339,0.0367419,-0.0439905,0.544696,0.544696,-1.08004,6.69769e-10,4.4393e-05,-4.90257e-05,1.02591,0.7240841811108223,6.697689070023216e-10,4.439398538380601e-05,0.7240841811108223,-4.902449826005295e-05,-0.6604180579044139
735,0.7251,924.555,847.797,0.0194696,0.000607483,0.0367141,-0.0439476,0.545276,0.545276,-1.0812,6.7132e-10,4.44684e-05,-4.91083e-05,1.02702,0.7250844399828991,6.713201106123279e-10,4.4469388734036386e-05,0.7250844399828991,-4.910709420713477e-05,-0.6608117445748305
736,0.7261,924.806,848.033,0.0194341,0.000606628,0.0366865,-0.0439049,0.545856,0.545856,-1.08235,6.7287e-10,4.45438e-05,-4.91908e-05,1.02812,0.7260852791733974,6.728699819547046e-10,4.4544792089817875e-05,0.7260852791733974,-4.918959015243196e-05,-0.6612015868662879
737,0.7271,925.056,848.269,0.0193987,0.000605775,0.0366589,-0.0438624,0.546435,0.546435,-1.08351,6.74417e-10,4.46191e-05,-4.92731e-05,1.02923,0.7270849719331647,6.744169667172173e-10,4.462009544692336e-05,0.7270849719331647,-4.9271886100710205e-05,-0.6615943651700633
738,0.7281,925.307,848.505,0.0193635,0.000604924,0.0366315,-0.04382,0.547014,0.547014,-1.08466,6.75961e-10,4.46943e-05,-4.93553e-05,1.03033,0.728085243682641,6.75961064899866e-10,4.469529880513079e-05,0.728085243682641,-4.935408204720382e-05,-0.6619833079651458
739,0.7291,925.557,848.741,0.0193283,0.000604074,0.0366041,-0.0437778,0.547592,0.547592,-1.08582,6.77504e-10,4.47695e-05,-4.94374e-05,1.03143,0.7290843656719286,6.7750405285949e-10,4.477050216911138e-05,0.7290843656719286,-4.94361779919128e-05,-0.6623751799981852
740,0.7301,925.807,848.976,0.0192932,0.000603227,0.0365769,-0.0437358,0.548171,0.548171,-1.08697,6.79044e-10,4.48445e-05,-4.95193e-05,1.03253,0.7300857954055839,6.790439321946451e-10,4.484550552952271e-05,0.7300857954055839,-4.951807393971386e-05,-0.6627632253723313
741,0.7311,926.056,849.211,0.0192582,0.000602381,0.0365498,-0.0436939,0.548748,0.548748,-1.08813,6.80582e-10,4.49194e-05,-4.96011e-05,1.03363,0.7310843429627993,6.805820351729608e-10,4.4920408891258035e-05,0.7310843429627993,-4.9599869885730286e-05,-0.6631541932257039
742,0.7321,926.305,849.446,0.0192232,0.000601537,0.0365228,-0.0436521,0.549326,0.549326,-1.08928,6.82117e-10,4.49943e-05,-4.96828e-05,1.03473,0.732085198932543,6.821170295268075e-10,4.499531225876652e-05,0.732085198932543,-4.968156583018413e-05,-0.6635413432495636
743,0.7331,926.554,849.68,0.0191884,0.000600695,0.0364959,-0.0436105,0.549903,0.549903,-1.09043,6.61653e-10,4.5069e-05,-4.97643e-05,1.03583,0.7330849004784874,6.616529546477068e-10,4.507001562270574e-05,0.7330849004784874,-4.9763061777730044e-05,-0.6639280483068005
744,0.7341,926.802,849.914,0.0191536,0.000599855,0.0364691,-0.0435691,0.55048,0.55048,-1.09158,6.85182e-10,4.51437e-05,-4.98457e-05,1.03693,0.7340851790186704,6.851819112085877e-10,4.5144718992196076e-05,0.7340851790186704,-4.9844457723713376e-05,-0.6643143089088324
745,0.7351,927.05,850.148,0.019119,0.000599016,0.0364424,-0.0435278,0.551056,0.551056,-1.09273,6.86711e-10,4.52183e-05,-4.9927e-05,1.03803,0.7350842998009468,6.867109103581015e-10,4.521932236278836e-05,0.7350842998009468,-4.99257536680231e-05,-0.6647001255664888
746,0.7361,927.298,850.381,0.0190844,0.00059818,0.0364158,-0.0434867,0.551633,0.551633,-1.09388,6.88238e-10,4.52928e-05,-5.00082e-05,1.03913,0.7360857323274321,6.882379111061709e-10,4.529382573426055e-05,0.7360857323274321,-5.0006949610770235e-05,-0.6650854987900126
747,0.7371,927.545,850.614,0.0190499,0.000597345,0.0363893,-0.0434457,0.552208,0.552208,-1.09503,6.89763e-10,4.53672e-05,-5.00892e-05,1.04022,0.7370842686752086,6.897629134527961e-10,4.5368229107056735e-05,0.7370842686752086,-5.0087945556942515e-05,-0.6654704290890595
748,0.7381,927.792,850.847,0.0190154,0.000596512,0.0363629,-0.0434049,0.552784,0.552784,-1.09618,6.91285e-10,4.54416e-05,-5.01701e-05,1.04132,0.7380851174307357,6.912850292195571e-10,4.544263248518199e-05,0.7380851174307357,-5.016884150155221e-05,-0.6658549169727002
749,0.7391,928.039,851.079,0.0189811,0.00059568,0.0363366,-0.0433642,0.553359,0.553359,-1.09733,6.92806e-10,4.55158e-05,-5.02509e-05,1.04241,0.7390848037555333,6.928060347632936e-10,4.551683585973798e-05,0.7390848037555333,-5.024963744471034e-05,-0.6662389629494199
750,0.7401,928.285,851.311,0.0189469,0.000594851,0.0363104,-0.0433237,0.553934,0.553934,-1.09847,6.94324e-10,4.559e-05,-5.03315e-05,1.04351,0.74008506506526,6.943239316825611e-10,4.559103923984509e-05,0.74008506506526,-5.033023339129361e-05,-0.6666192337361259
751,0.7411,928.531,851.543,0.0189127,0.000594023,0.0362843,-0.0432834,0.554508,0.554508,-1.09962,6.9584e-10,4.5664e-05,-5.0412e-05,1.0446,0.7410841606055958,6.958400522449892e-10,4.5665042616382934e-05,0.7410841606055958,-5.041072933642532e-05,-0.6670024012537785
752,0.7421,928.777,851.775,0.0188786,0.000593197,0.0362584,-0.0432431,0.555083,0.555083,-1.10077,6.97354e-10,4.5738e-05,-5.04924e-05,1.0457,0.7420855718760933,6.973539523613681e-10,4.573904599824985e-05,0.7420855718760933,-5.049112528021649e-05,-0.6673851283820581
753,0.7431,929.022,852.006,0.0188446,0.000592372,0.0362325,-0.0432031,0.555656,0.555656,-1.10191,6.98865e-10,4.58119e-05,-5.05727e-05,1.04679,0.743084072952017,6.988649658978829e-10,4.5812949381218715e-05,0.743084072952017,-5.057142122255609e-05,-0.6677640932846661
754,0.7441,929.267,852.237,0.0188107,0.00059155,0.0362067,-0.0431632,0.55623,0.55623,-1.10306,7.00375e-10,4.58858e-05,-5.06528e-05,1.04788,0.744084890417025,7.003750912559781e-10,4.588685276951665e-05,0.744084890417025,-5.065151716854288e-05,-0.6681459449705862
755,0.7451,929.512,852.467,0.0187768,0.000590729,0.036181,-0.0431234,0.556803,0.556803,-1.1042,7.01882e-10,4.59595e-05,-5.07329e-05,1.04898,0.7450845374307524,7.018821079896043e-10,4.596055615402328e-05,0.7450845374307524,-5.07316131082014e-05,-0.6685240430364742
756,0.7461,929.757,852.698,0.0187431,0.00058991,0.0361554,-0.0430838,0.557376,0.557376,-1.10534,7.03387e-10,4.60332e-05,-5.08128e-05,1.05007,0.7460847574063563,7.033869042771812e-10,4.6034259544081024e-05,0.7460847574063563,-5.081150905150711e-05,-0.6689017103161617
757,0.7471,930.001,852.927,0.0187094,0.000589093,0.03613,-0.0430443,0.557949,0.557949,-1.10649,7.04891e-10,4.61067e-05,-5.08925e-05,1.05116,0.7470855506722385,7.048910344309434e-10,4.610776293012542e-05,0.7470855506722385,-5.089120499868205e-05,-0.6692822544944566
758,0.7481,930.244,853.157,0.0186758,0.000588277,0.0361046,-0.043005,0.558521,0.558521,-1.10763,7.06392e-10,4.61802e-05,-5.09722e-05,1.05225,0.7480851694709445,7.063920559602366e-10,4.618126632194297e-05,0.7480851694709445,-5.097090093952872e-05,-0.6696590579055807
759,0.7491,930.488,853.387,0.0186423,0.000587463,0.0360793,-0.0429658,0.559093,0.559093,-1.10877,7.07891e-10,4.62536e-05,-5.10517e-05,1.05334,0.7490853602151641,7.078910790880855e-10,4.625466971419634e-05,0.7490853602151641,-5.10503968841336e-05,-0.67003543200557
760,0.7501,930.731,853.616,0.0186088,0.000586651,0.0360541,-0.0429268,0.559664,0.559664,-1.10991,7.09388e-10,4.63269e-05,-5.11311e-05,1.05443,0.7500843731468958,7.0938810381449e-10,4.632797310732961e-05,0.7500843731468958,-5.112979282761998e-05,-0.6704113772835603
761,0.7511,930.974,853.844,0.0185755,0.00058584,0.036029,-0.0428879,0.560236,0.560236,-1.11105,7.10882e-10,4.64002e-05,-5.12104e-05,1.05551,0.7510857077627342,7.108820199164256e-10,4.6401276506014e-05,0.7510857077627342,-5.120908876987684e-05,-0.6707868942281302
762,0.7521,931.216,854.073,0.0185422,0.000585032,0.036004,-0.0428491,0.560806,0.560806,-1.11219,7.12375e-10,4.64733e-05,-5.12896e-05,1.0566,0.7520841111340881,7.123750478399415e-10,4.647437990046299e-05,0.7520841111340881,-5.1288284710904186e-05,-0.6711619833273015
763,0.7531,931.458,854.301,0.018509,0.000584224,0.0359791,-0.0428105,0.561377,0.561377,-1.11333,7.13866e-10,4.65464e-05,-5.13687e-05,1.05769,0.7530848368415453,7.138660773620131e-10,4.65474833004631e-05,0.7530848368415453,-5.1367380650924055e-05,-0.6715366450685399
764,0.7541,931.7,854.529,0.0184759,0.000583419,0.0359543,-0.0427721,0.561947,0.561947,-1.11447,7.15354e-10,4.66194e-05,-5.14476e-05,1.05877,0.7540843800412942,7.153539982596158e-10,4.662048670112107e-05,0.7540843800412942,-5.144627659492418e-05,-0.6719108799387562
765,0.7551,931.942,854.756,0.0184429,0.000582615,0.0359296,-0.0427337,0.562517,0.562517,-1.1156,7.16841e-10,4.66924e-05,-5.15264e-05,1.05986,0.7550844931430738,7.168410309787987e-10,4.6693490107108104e-05,0.7550844931430738,-5.1525072537805805e-05,-0.6722814112548041
766,0.7561,932.183,854.984,0.0184099,0.000581813,0.035905,-0.0426956,0.563087,0.563087,-1.11674,7.18325e-10,4.67652e-05,-5.16051e-05,1.06095,0.7560851764718204,7.183249550735127e-10,4.676629350908179e-05,0.7560851764718204,-5.160376847967996e-05,-0.6726547975753332
767,0.7571,932.424,855.211,0.018377,0.000581013,0.0358805,-0.0426575,0.563656,0.563656,-1.11788,7.19808e-10,4.6838e-05,-5.16837e-05,1.06203,0.7570846732671048,7.19807990989807e-10,4.6839096916162504e-05,0.7570846732671048,-5.1682364420546634e-05,-0.6730277584779911
768,0.7581,932.664,855.437,0.0183443,0.000580214,0.035856,-0.0426196,0.564225,0.564225,-1.11901,7.21288e-10,4.69106e-05,-5.17622e-05,1.06311,0.7580847389378951,7.212879182816323e-10,4.691170031945191e-05,0.7580847389378951,-5.1760860360405836e-05,-0.6733970284340924
769,0.7591,932.905,855.664,0.0183115,0.000579417,0.0358317,-0.0425819,0.564794,0.564794,-1.12015,7.22767e-10,4.69832e-05,-5.18406e-05,1.0642,0.7590853738079741,7.227669573950379e-10,4.698430372784834e-05,0.7590853738079741,-5.1839256299368586e-05,-0.6737691436756899
770,0.7601,933.145,855.89,0.0182789,0.000578622,0.0358075,-0.0425443,0.565362,0.565362,-1.12128,7.24243e-10,4.70558e-05,-5.19188e-05,1.06528,0.7600848181156101,7.242431099285795e-10,4.7056907141573845e-05,0.7600848181156101,-5.191745224242261e-05,-0.6741375763396769
771,0.7611,933.384,856.116,0.0182463,0.000577828,0.0357833,-0.0425068,0.56593,0.56593,-1.12241,7.25718e-10,4.71282e-05,-5.19969e-05,1.06636,0.7610848302688658,7.257179301944916e-10,4.712931055106395e-05,0.7610848302688658,-5.199554818458019e-05,-0.6745055929098908
772,0.7621,933.624,856.341,0.0182139,0.000577037,0.0357592,-0.0424695,0.566498,0.566498,-1.12355,7.2719e-10,4.72006e-05,-5.20749e-05,1.06744,0.7620854105903685,7.271900859251446e-10,4.720171396588313e-05,0.7620854105903685,-5.207354412595233e-05,-0.6748764451080573
773,0.7631,933.863,856.566,0.0181815,0.000576246,0.0357353,-0.0424323,0.567065,0.567065,-1.12468,7.28661e-10,4.72729e-05,-5.21528e-05,1.06852,0.7630847963172527,7.28660909388168e-10,4.727401738113812e-05,0.7630847963172527,-5.2151440066317e-05,-0.675243627228116
774,0.7641,934.101,856.791,0.0181491,0.000575458,0.0357114,-0.0423952,0.567632,0.567632,-1.12581,7.30129e-10,4.73451e-05,-5.22306e-05,1.0696,0.7640847488565201,7.301290683159323e-10,4.734622079682893e-05,0.7640847488565201,-5.222923600600726e-05,-0.6756103946667185
775,0.7651,934.34,857.016,0.0181169,0.00057467,0.0356876,-0.0423583,0.568199,0.568199,-1.12694,7.31596e-10,4.74172e-05,-5.23083e-05,1.07068,0.7650852685296443,7.31595894976067e-10,4.74183242131776e-05,0.7650852685296443,-5.230693194469005e-05,-0.6759767478921896
776,0.7661,934.578,857.24,0.0180847,0.000573885,0.0356639,-0.0423215,0.568765,0.568765,-1.12807,7.3306e-10,4.74893e-05,-5.23859e-05,1.07176,0.766084589572809,7.330600571009427e-10,4.749042763463329e-05,0.766084589572809,-5.238452788269843e-05,-0.6763426873723262
777,0.7671,934.816,857.464,0.0180526,0.000573101,0.0356403,-0.0422849,0.569331,0.569331,-1.1292,7.34523e-10,4.75613e-05,-5.24633e-05,1.07284,0.7670844763917837,7.345231090027937e-10,4.75624310565248e-05,0.7670844763917837,-5.246192382513115e-05,-0.6767082135743963
778,0.7681,935.053,857.688,0.0180206,0.000572319,0.0356168,-0.0422483,0.569897,0.569897,-1.13033,7.35983e-10,4.76332e-05,-5.25406e-05,1.07392,0.7680849293068881,7.359830522801758e-10,4.7634334478852125e-05,0.7680849293068881,-5.253921976688947e-05,-0.6770733269651403
779,0.7691,935.29,857.911,0.0179886,0.000571539,0.0355933,-0.042212,0.570462,0.570462,-1.13146,7.37442e-10,4.7705e-05,-5.26179e-05,1.075,0.769084179553559,7.374421073791382e-10,4.7706137901615264e-05,0.769084179553559,-5.2616515702541555e-05,-0.6774380280107716
780,0.7701,935.527,858.135,0.0179568,0.00057076,0.03557,-0.0421757,0.571028,0.571028,-1.13259,7.38899e-10,4.77768e-05,-5.2695e-05,1.07607,0.7700857646210217,7.388989420320513e-10,4.777794132948543e-05,0.7700857646210217,-5.269361164284003e-05,-0.6778023171769771
781,0.7711,935.764,858.357,0.017925,0.000569983,0.0355467,-0.0421396,0.571592,0.571592,-1.13371,7.40354e-10,4.78485e-05,-5.2772e-05,1.07715,0.7710843745738034,7.40354000328125e-10,4.784964475779141e-05,0.7710843745738034,-5.27706075824641e-05,-0.6781629765747752
782,0.7721,936.0,858.58,0.0178933,0.000569207,0.0355236,-0.0421036,0.572157,0.572157,-1.13484,7.41807e-10,4.79201e-05,-5.28489e-05,1.07822,0.7720853199858895,7.418070602227544e-10,4.792124818631116e-05,0.7720853199858895,-5.2847503521524786e-05,-0.6785264470117726
783,0.7731,936.236,858.802,0.0178616,0.000568433,0.0355005,-0.0420678,0.572721,0.572721,-1.13597,7.43258e-10,4.79916e-05,-5.29257e-05,1.0793,0.773085058005982,7.432578996713346e-10,4.799275161526673e-05,0.773085058005982,-5.292429945980004e-05,-0.6788895069591463
784,0.7741,936.471,859.024,0.0178301,0.00056766,0.0354775,-0.0420321,0.573285,0.573285,-1.13709,7.44707e-10,4.80631e-05,-5.30024e-05,1.08037,0.7740853600373543,7.447069627630754e-10,4.806425504932932e-05,0.7740853600373543,-5.300099539762293e-05,-0.6792489493860194
785,0.7751,936.707,859.246,0.0177986,0.000566889,0.0354546,-0.0419965,0.573848,0.573848,-1.13822,7.46154e-10,4.81345e-05,-5.3079e-05,1.08145,0.7750844513128592,7.461540274533718e-10,4.813565848360568e-05,0.7750844513128592,-5.307759133477141e-05,-0.6796111933668183
786,0.7761,936.942,859.468,0.0177672,0.00056612,0.0354317,-0.041961,0.574411,0.574411,-1.13934,7.47599e-10,4.82058e-05,-5.31554e-05,1.08252,0.7760841052351226,7.475990937422239e-10,4.820696191831786e-05,0.7760841052351226,-5.315398727678833e-05,-0.6799698279573874
787,0.7771,937.177,859.689,0.0177358,0.000565353,0.035409,-0.0419257,0.574974,0.574974,-1.14046,7.49043e-10,4.8277e-05,-5.32318e-05,1.08359,0.7770843221210035,7.490430498080514e-10,4.827816535302176e-05,0.7770843221210035,-5.323038321292106e-05,-0.6803280611020668
788,0.7781,937.411,859.91,0.0177046,0.000564586,0.0353863,-0.0418905,0.575537,0.575537,-1.14159,7.50484e-10,4.83482e-05,-5.3308e-05,1.08466,0.7780851022875397,7.504838972494099e-10,4.834936879305474e-05,0.7780851022875397,-5.3306579153811207e-05,-0.6806890863753261
789,0.7791,937.645,860.13,0.0176734,0.000563822,0.0353638,-0.0418554,0.576099,0.576099,-1.14271,7.51924e-10,4.84193e-05,-5.33842e-05,1.08573,0.7790846669663913,7.519240785569536e-10,4.842047223330148e-05,0.7790846669663913,-5.338277508892819e-05,-0.6810465144015279
790,0.7801,937.879,860.351,0.0176423,0.000563059,0.0353413,-0.0418205,0.576661,0.576661,-1.14383,7.53362e-10,4.84903e-05,-5.34602e-05,1.0868,0.7800847935584752,7.533620394184481e-10,4.849147567353995e-05,0.7800847935584752,-5.345877102902463e-05,-0.6814035423324354
791,0.7811,938.113,860.571,0.0176112,0.000562298,0.0353188,-0.0417857,0.577223,0.577223,-1.14495,7.54798e-10,4.85613e-05,-5.35362e-05,1.08787,0.7810854823796753,7.547980018784983e-10,4.856247911910749e-05,0.7810854823796753,-5.353476696323689e-05,-0.6817601706159049
792,0.7821,938.346,860.791,0.0175802,0.000561538,0.0352965,-0.041751,0.577784,0.577784,-1.14607,7.56232e-10,4.86321e-05,-5.3612e-05,1.08894,0.7820849516602106,7.562319659371042e-10,4.8633282559773505e-05,0.7820849516602106,-5.3610562902428605e-05,-0.6821163996992905
793,0.7831,938.579,861.01,0.0175493,0.000560779,0.0352743,-0.0417164,0.578345,0.578345,-1.14719,7.57664e-10,4.87029e-05,-5.36878e-05,1.09001,0.7830849818003187,7.576639315942657e-10,4.870408600554654e-05,0.7830849818003187,-5.368635883584716e-05,-0.6824722300294463
794,0.7841,938.811,861.229,0.0175185,0.000560023,0.0352521,-0.041682,0.578906,0.578906,-1.14831,7.59095e-10,4.87737e-05,-5.37634e-05,1.09108,0.7840855731147303,7.590950090730075e-10,4.877488945620456e-05,0.7840855731147303,-5.376195477435619e-05,-0.6828276620527258
795,0.7851,939.044,861.448,0.0174878,0.000559268,0.03523,-0.0416477,0.579466,0.579466,-1.14943,7.60523e-10,4.88444e-05,-5.38389e-05,1.09215,0.7850849408325187,7.605229779272804e-10,4.884559290707635e-05,0.7850849408325187,-5.383745071241286e-05,-0.683182696214983
796,0.7861,939.276,861.667,0.0174571,0.000558514,0.035208,-0.0416135,0.580026,0.580026,-1.15055,7.6195e-10,4.89149e-05,-5.39144e-05,1.09321,0.7860848683529591,7.619500586031336e-10,4.8916096353268657e-05,0.7860848683529591,-5.391294664480739e-05,-0.6835373329615728
797,0.7871,939.508,861.885,0.0174265,0.000557762,0.0351861,-0.0415795,0.580586,0.580586,-1.15166,7.63375e-10,4.89855e-05,-5.39897e-05,1.09428,0.7870853559896291,7.633749188329375e-10,4.89866998092392e-05,0.7870853559896291,-5.398824258240342e-05,-0.6838884116372734
798,0.7881,939.739,862.103,0.017396,0.000557012,0.0351643,-0.0415455,0.581145,0.581145,-1.15278,7.64798e-10,4.90559e-05,-5.40649e-05,1.09535,0.7880846159707711,7.64798002705902e-10,4.905710326030821e-05,0.7880846159707711,-5.4063438519658114e-05,-0.6842422584250497
799,0.7891,939.97,862.321,0.0173655,0.000556263,0.0351425,-0.0415117,0.581704,0.581704,-1.15389,7.6622e-10,4.91263e-05,-5.414e-05,1.09641,0.7890844346943966,7.662199763558419e-10,4.912750671648425e-05,0.7890844346943966,-5.4138534456682486e-05,-0.6845925550675946
800,0.7901,940.201,862.539,0.0173351,0.000555515,0.0351208,-0.041478,0.582263,0.582263,-1.15501,7.67639e-10,4.91966e-05,-5.42151e-05,1.09748,0.7900848124729298,7.676390634259178e-10,4.919781017265201e-05,0.7900848124729298,-5.421363038804472e-05,-0.6849456136562029
801,0.7911,940.432,862.756,0.0173048,0.000554769,0.0350992,-0.0414445,0.582822,0.582822,-1.15612,7.69057e-10,4.92669e-05,-5.429e-05,1.09854,0.79108574961897,7.690570402729691e-10,4.926811363370476e-05,0.79108574961897,-5.4288526324608455e-05,-0.6852951300075829
802,0.7921,940.662,862.973,0.0172745,0.000554025,0.0350777,-0.041411,0.58338,0.58338,-1.15724,7.70473e-10,4.93371e-05,-5.43648e-05,1.0996,0.7920854543589406,7.70473018718576e-10,4.933831709474923e-05,0.7920854543589406,-5.436332226105289e-05,-0.685647402152749
803,0.7931,940.892,863.19,0.0172444,0.000553282,0.0350562,-0.0413777,0.583938,0.583938,-1.15835,7.71888e-10,4.94072e-05,-5.44395e-05,1.10067,0.7930857170898209,7.718881089857632e-10,4.9408420555785426e-05,0.7930857170898209,-5.443801819726701e-05,-0.6859961399510746
804,0.7941,941.122,863.406,0.0172142,0.000552541,0.0350348,-0.0413445,0.584495,0.584495,-1.15946,7.733e-10,4.94772e-05,-5.45142e-05,1.10173,0.7940847440374161,7.733000906284815e-10,4.947842401681335e-05,0.7940847440374161,-5.451271412804104e-05,-0.6863444908652047
805,0.7951,941.351,863.623,0.0171842,0.000551801,0.0350135,-0.0413114,0.585052,0.585052,-1.16058,7.74711e-10,4.95472e-05,-5.45887e-05,1.10279,0.7950843275980233,7.747109620481751e-10,4.9548427482726254e-05,0.7950843275980233,-5.458721006401657e-05,-0.6866955883841237
806,0.7961,941.58,863.839,0.0171542,0.000551062,0.0349923,-0.0412785,0.585609,0.585609,-1.16169,7.7612e-10,4.96171e-05,-5.46631e-05,1.10385,0.7960844680817625,7.761200571110294e-10,4.9618330948630884e-05,0.7960844680817625,-5.466160599998382e-05,-0.6870431633412288
807,0.7971,941.809,864.054,0.0171244,0.000550325,0.0349712,-0.0412456,0.586166,0.586166,-1.1628,7.77527e-10,4.96869e-05,-5.47375e-05,1.10491,0.797085165798926,7.775269317278344e-10,4.968813441452724e-05,0.797085165798926,-5.473600193039996e-05,-0.687390352704176
808,0.7981,942.038,864.27,0.0170945,0.00054959,0.0349501,-0.0412129,0.586722,0.586722,-1.16391,7.78933e-10,4.97567e-05,-5.48117e-05,1.10597,0.7980846229744576,7.789329181662197e-10,4.9757937885086534e-05,0.7980846229744576,-5.481019786623964e-05,-0.6877371569007371
809,0.7991,942.266,864.485,0.0170648,0.000548856,0.0349291,-0.0411803,0.587278,0.587278,-1.16502,7.80337e-10,4.98264e-05,-5.48858e-05,1.10703,0.7990846360026915,7.803369062031607e-10,4.982764135563755e-05,0.7990846360026915,-5.488429380207105e-05,-0.6880835763582098
810,0.8001,942.494,864.7,0.0170351,0.000548124,0.0349082,-0.0411478,0.587834,0.587834,-1.16613,7.81739e-10,4.9896e-05,-5.49599e-05,1.10809,0.8000852051927678,7.817388958386573e-10,4.98972448261803e-05,0.8000852051927678,-5.495838973235134e-05,-0.6884296115034174
811,0.8011,942.722,864.914,0.0170055,0.000547393,0.0348874,-0.0411154,0.588389,0.588389,-1.16724,7.83139e-10,4.99656e-05,-5.50338e-05,1.10915,0.8010845297685685,7.831391091173145e-10,4.996684830138598e-05,0.8010845297685685,-5.50322856681662e-05,-0.68877526276271
812,0.8021,942.949,865.128,0.0169759,0.000546664,0.0348666,-0.0410832,0.588944,0.588944,-1.16834,7.84538e-10,5.00351e-05,-5.51077e-05,1.11021,0.8020844091234451,7.845379901283422e-10,5.003635177658339e-05,0.8020844091234451,-5.510618159854097e-05,-0.689117421751726
813,0.8031,943.176,865.343,0.0169464,0.000545936,0.0348459,-0.0410511,0.589499,0.589499,-1.16945,7.85935e-10,5.01045e-05,-5.51814e-05,1.11126,0.8030848435653863,7.859350947825305e-10,5.010575525132843e-05,0.8030848435653863,-5.517987753456133e-05,-0.6894623099652117
814,0.8041,943.403,865.556,0.016917,0.000545209,0.0348253,-0.041019,0.590053,0.590053,-1.17056,7.8733e-10,5.01739e-05,-5.52551e-05,1.11232,0.8040840293176197,7.873299789906696e-10,5.01751587311805e-05,0.8040840293176197,-5.525357346503057e-05,-0.6898068155651702
815,0.8051,943.63,865.77,0.0168877,0.000544484,0.0348047,-0.0409871,0.590608,0.590608,-1.17166,7.88724e-10,5.02432e-05,-5.53287e-05,1.11337,0.8050855738567921,7.887239750203889e-10,5.0244462210802254e-05,0.8050855738567921,-5.532716939571358e-05,-0.6901478404699641
816,0.8061,943.856,865.983,0.0168584,0.000543761,0.0347842,-0.0409553,0.591161,0.591161,-1.17277,7.90116e-10,5.03125e-05,-5.54022e-05,1.11443,0.8060840622357262,7.90115972648664e-10,5.031376569508694e-05,0.8060840622357262,-5.540066532649934e-05,-0.6904915855532274
817,0.8071,944.082,866.196,0.0168292,0.000543038,0.0347638,-0.0409236,0.591715,0.591715,-1.17387,7.91506e-10,5.03816e-05,-5.54755e-05,1.11548,0.8070849100154416,7.915059718754947e-10,5.038286917402601e-05,0.8070849100154416,-5.547396126293069e-05,-0.6908318576251684
818,0.8081,944.308,866.409,0.0168001,0.000542318,0.0347435,-0.0408921,0.592268,0.592268,-1.17498,7.92895e-10,5.04508e-05,-5.55488e-05,1.11654,0.8080845043330351,7.928950829239056e-10,5.0452072662965364e-05,0.8080845043330351,-5.554725719392195e-05,-0.6911748438706222
819,0.8091,944.533,866.621,0.016771,0.000541599,0.0347232,-0.0408606,0.592821,0.592821,-1.17608,7.94282e-10,5.05198e-05,-5.5622e-05,1.11759,0.8090846515791572,7.942819735262674e-10,5.0521076146559096e-05,0.8090846515791572,-5.5620453125238e-05,-0.691514364771634
820,0.8101,944.759,866.834,0.016742,0.000540881,0.0347031,-0.0408293,0.593374,0.593374,-1.17718,7.95667e-10,5.05888e-05,-5.56952e-05,1.11864,0.8100853520596611,7.956670877717897e-10,5.0590079634815766e-05,0.8100853520596611,-5.569364905111396e-05,-0.6918535124049894
821,0.8111,944.983,867.045,0.0167131,0.000540165,0.0346829,-0.040798,0.593926,0.593926,-1.17829,7.97051e-10,5.06577e-05,-5.57682e-05,1.1197,0.8110847949948703,7.970510917942875e-10,5.0658983122842116e-05,0.8110847949948703,-5.576664498285755e-05,-0.6921953652427951
822,0.8121,945.208,867.257,0.0166842,0.00053945,0.0346629,-0.0407669,0.594478,0.594478,-1.17939,7.98433e-10,5.07266e-05,-5.58411e-05,1.12075,0.8120847897748751,7.984330974153409e-10,5.072788661575345e-05,0.8120847897748751,-5.583954091481491e-05,-0.6925337641874866
823,0.8131,945.432,867.469,0.0166554,0.000538736,0.0346429,-0.0407359,0.59503,0.59503,-1.18049,7.99813e-10,5.07953e-05,-5.59139e-05,1.1218,0.8130853367043773,7.998131046349499e-10,5.079659010309712e-05,0.8130853367043773,-5.5912336846986044e-05,-0.6928717910979951
824,0.8141,945.657,867.68,0.0166267,0.000538024,0.034623,-0.040705,0.595581,0.595581,-1.18159,8.01192e-10,5.08641e-05,-5.59867e-05,1.12285,0.8140846220027194,8.011920016315344e-10,5.086539360021902e-05,0.8140846220027194,-5.598513277393913e-05,-0.6932094463833336
825,0.8151,945.88,867.891,0.016598,0.000537314,0.0346032,-0.0406742,0.596132,0.596132,-1.18269,8.02569e-10,5.09327e-05,-5.60593e-05,1.1239,0.8150844580589802,8.025689002266745e-10,5.093399709199531e-05,0.8150844580589802,-5.6057728706759846e-05,-0.6935467304520646
826,0.8161,946.104,868.101,0.0165694,0.000536605,0.0345834,-0.0406435,0.596683,0.596683,-1.18379,8.03945e-10,5.10013e-05,-5.61319e-05,1.12495,0.8160848451767118,8.039449106433949e-10,5.100260058843453e-05,0.8160848451767118,-5.6130324634362516e-05,-0.6938836437123022
827,0.8171,946.327,868.312,0.0165409,0.000535897,0.0345637,-0.040613,0.597234,0.597234,-1.18489,8.05318e-10,5.10699e-05,-5.62044e-05,1.126,0.8170857836596326,8.053180344802513e-10,5.107120408953669e-05,0.8170857836596326,-5.620282056228998e-05,-0.6942201865717111
828,0.8181,946.55,868.522,0.0165124,0.000535191,0.0345441,-0.0405825,0.597784,0.597784,-1.18599,7.93157e-10,5.11383e-05,-5.62768e-05,1.12705,0.8180854557252633,7.931570955577172e-10,5.113960758507119e-05,0.8180854557252633,-5.6275216490542235e-05,-0.6945563594375087
829,0.8191,946.773,868.732,0.016484,0.000534486,0.0345245,-0.0405521,0.598334,0.598334,-1.18708,8.08062e-10,5.12068e-05,-5.63491e-05,1.12809,0.8190856777617583,8.080620617079148e-10,5.120811109060597e-05,0.8190856777617583,-5.6347512419230306e-05,-0.6948891116228355
830,0.8201,946.995,868.941,0.0164557,0.000533782,0.034505,-0.0405219,0.598883,0.598883,-1.18818,8.09431e-10,5.12751e-05,-5.64213e-05,1.12914,0.8200846299861446,8.094309666972777e-10,5.127641459035104e-05,0.8200846299861446,-5.641970834835419e-05,-0.6952245490756281
831,0.8211,947.217,869.151,0.0164274,0.00053308,0.0344856,-0.0404917,0.599432,0.599432,-1.18928,8.10798e-10,5.13434e-05,-5.64934e-05,1.13019,0.8210841307858723,8.107980953298011e-10,5.134471809498109e-05,0.8210841307858723,-5.649180427791389e-05,-0.6955596177500878
832,0.8221,947.439,869.36,0.0163992,0.00053238,0.0344662,-0.0404617,0.599981,0.599981,-1.19037,8.12164e-10,5.14116e-05,-5.65655e-05,1.13123,0.8220841804621919,8.121638916946949e-10,5.1412921598936734e-05,0.8220841804621919,-5.6563900202255546e-05,-0.695891276979623
833,0.8231,947.661,869.569,0.0163711,0.00053168,0.0344469,-0.0404318,0.60053,0.60053,-1.19147,8.13529e-10,5.14798e-05,-5.66374e-05,1.13228,0.8230847793165195,8.13529021925774e-10,5.1481125107555314e-05,0.8230847793165195,-5.663579613268688e-05,-0.6962256126566111
834,0.8241,947.882,869.777,0.016343,0.000530983,0.0344277,-0.0404019,0.601078,0.601078,-1.19256,8.14891e-10,5.15479e-05,-5.67093e-05,1.13332,0.8240841035654207,8.148910435323842e-10,5.154922861572153e-05,0.8240841035654207,-5.670769205801118e-05,-0.6965565463471888
835,0.8251,948.103,869.986,0.016315,0.000530286,0.0344085,-0.0403722,0.601627,0.601627,-1.19366,8.16253e-10,5.16159e-05,-5.67811e-05,1.13437,0.8250858006789763,8.162530651389943e-10,5.1617232123435386e-05,0.8250858006789763,-5.6779487983882326e-05,-0.6968901506302128
836,0.8261,948.324,870.194,0.016287,0.000529591,0.0343894,-0.0403426,0.602174,0.602174,-1.19475,8.17612e-10,5.16839e-05,-5.68528e-05,1.13541,0.8260843957027877,8.176119781211355e-10,5.168523563581218e-05,0.8260843957027877,-5.6851183910189285e-05,-0.6972203603690247
837,0.8271,948.545,870.402,0.0162591,0.000528897,0.0343703,-0.0403131,0.602722,0.602722,-1.19584,8.18971e-10,5.17518e-05,-5.69244e-05,1.13646,0.8270853641919493,8.189708911032767e-10,5.175313914751456e-05,0.8270853641919493,-5.692277983704308e-05,-0.6975502103753111
838,0.8281,948.765,870.609,0.0162313,0.000528205,0.0343514,-0.0402837,0.603269,0.603269,-1.19693,8.20327e-10,5.18197e-05,-5.69959e-05,1.1375,0.8280850532762005,8.203269175055539e-10,5.182104266387988e-05,0.8280850532762005,-5.6994275764554736e-05,-0.697879701040967
839,0.8291,948.985,870.817,0.0162036,0.000527514,0.0343325,-0.0402543,0.603816,0.603816,-1.19803,8.21682e-10,5.18875e-05,-5.70673e-05,1.13854,0.8290852893399661,8.216820557294113e-10,5.188884617957079e-05,0.8290852893399661,-5.706567169261323e-05,-0.6982118506540429
840,0.8301,949.205,871.024,0.0161759,0.000526824,0.0343136,-0.0402251,0.604362,0.604362,-1.19912,8.23036e-10,5.19552e-05,-5.71387e-05,1.13958,0.8300842425973678,8.230360837302442e-10,5.195654969480934e-05,0.8300842425973678,-5.7137067615564696e-05,-0.6985406205246996
841,0.8311,949.424,871.231,0.0161482,0.000526136,0.0342948,-0.040196,0.604909,0.604909,-1.20021,8.24388e-10,5.20229e-05,-5.721e-05,1.14062,0.8310855725168345,8.243878912850278e-10,5.202425321448878e-05,0.8310855725168345,-5.720836353917402e-05,-0.6988690322314319
842,0.8321,949.644,871.437,0.0161207,0.000525449,0.0342761,-0.040167,0.605455,0.605455,-1.2013,8.25738e-10,5.20905e-05,-5.72812e-05,1.14166,0.8320856182270633,8.25737922482972e-10,5.209185673371586e-05,0.8320856182270633,-5.727955946344121e-05,-0.6991970861644261
843,0.8331,949.863,871.643,0.0160932,0.000524764,0.0342575,-0.0401381,0.606,0.606,-1.20239,8.27087e-10,5.21581e-05,-5.73523e-05,1.1427,0.8330843770260485,8.270870655024964e-10,5.215946025738383e-05,0.8330843770260485,-5.7350655388255234e-05,-0.699524782713443
844,0.8341,950.081,871.85,0.0160657,0.000524079,0.0342389,-0.0401093,0.606546,0.606546,-1.20347,8.28435e-10,5.22256e-05,-5.74233e-05,1.14374,0.8340855143815316,8.284350982989963e-10,5.222696378037739e-05,0.8340855143815316,-5.742165131383814e-05,-0.6998491207740342
845,0.8351,950.3,872.055,0.0160384,0.000523397,0.0342203,-0.0400806,0.607091,0.607091,-1.20456,8.29781e-10,5.22931e-05,-5.74942e-05,1.14478,0.8350853634209845,8.297809106494469e-10,5.229446730803389e-05,0.8350853634209845,-5.749254724018993e-05,-0.700176106992527
846,0.8361,950.518,872.261,0.0160111,0.000522715,0.0342019,-0.040052,0.607636,0.607636,-1.20565,8.31125e-10,5.23604e-05,-5.75651e-05,1.14582,0.8360857575266807,8.311249466430581e-10,5.236177082967863e-05,0.8360857575266807,-5.756344316143469e-05,-0.7005027369902173
847,0.8371,950.736,872.466,0.0159838,0.000522035,0.0341835,-0.0400235,0.60818,0.60818,-1.20674,8.32468e-10,5.24278e-05,-5.76359e-05,1.14685,0.8370848599099845,8.324680944582497e-10,5.2429174361101616e-05,0.8370848599099845,-5.7634239083448335e-05,-0.7008290111551742
848,0.8381,950.953,872.672,0.0159566,0.000521356,0.0341651,-0.0399951,0.608724,0.608724,-1.20782,8.3381e-10,5.2495e-05,-5.77066e-05,1.14789,0.8380845059528466,8.338099100058116e-10,5.2496377886512846e-05,0.8380845059528466,-5.770493500623086e-05,-0.7011519414094005
849,0.8391,951.171,872.876,0.0159295,0.000520679,0.0341468,-0.0399667,0.609268,0.609268,-1.20891,8.3515e-10,5.25622e-05,-5.77772e-05,1.14893,0.8390846959510982,8.351499491965342e-10,5.256358141658701e-05,0.8390846959510982,-5.777553092967125e-05,-0.7014775083270604
850,0.8401,951.388,873.081,0.0159024,0.000520003,0.0341286,-0.0399385,0.609812,0.609812,-1.20999,8.36488e-10,5.26294e-05,-5.78477e-05,1.14996,0.8400854302007321,8.364879899858124e-10,5.263078495110207e-05,0.8400854302007321,-5.784602685410256e-05,-0.7017997385824084
851,0.8411,951.605,873.285,0.0158754,0.000519328,0.0341105,-0.0399104,0.610355,0.610355,-1.21108,8.37825e-10,5.26965e-05,-5.79182e-05,1.151,0.8410848679121128,8.37824920552066e-10,5.269788848494272e-05,0.8410848679121128,-5.791652277342685e-05,-0.7021245997858337
852,0.8421,951.821,873.49,0.0158485,0.000518655,0.0340924,-0.0398824,0.610898,0.610898,-1.21216,8.27191e-10,5.27635e-05,-5.79885e-05,1.15203,0.8420848484655392,8.271909823776014e-10,5.276489201788692e-05,0.8420848484655392,-5.7986818699395926e-05,-0.7024461315596543
853,0.8431,952.038,873.693,0.0158216,0.000517982,0.0340743,-0.0398545,0.611441,0.611441,-1.21324,8.40495e-10,5.28305e-05,-5.80588e-05,1.15307,0.8430853721558542,8.404950069262895e-10,5.283189555549406e-05,0.8430853721558542,-5.805711462048002e-05,-0.702767316266609
854,0.8441,952.254,873.897,0.0157948,0.000517312,0.0340563,-0.0398266,0.611983,0.611983,-1.21433,8.41828e-10,5.28974e-05,-5.81291e-05,1.1541,0.8440845951925444,8.418279406896545e-10,5.289879909220474e-05,0.8440845951925444,-5.8127410536568114e-05,-0.7030911233849393
855,0.8451,952.47,874.1,0.015768,0.000516642,0.0340384,-0.0397989,0.612525,0.612525,-1.21541,8.43159e-10,5.29643e-05,-5.81992e-05,1.15513,0.8450843599549147,8.431590980961801e-10,5.2965702633356315e-05,0.8450843599549147,-5.819750645941202e-05,-0.7034116118767465
856,0.8461,952.685,874.304,0.0157413,0.000515974,0.0340205,-0.0397712,0.613067,0.613067,-1.21649,8.44489e-10,5.30311e-05,-5.82692e-05,1.15617,0.8460846667366604,8.444889232350761e-10,5.303250617361144e-05,0.8460846667366604,-5.826750238313583e-05,-0.7037317544278241
857,0.8471,952.901,874.507,0.0157147,0.000515307,0.0340027,-0.0397437,0.613609,0.613609,-1.21757,8.45818e-10,5.30979e-05,-5.83392e-05,1.1572,0.847085515831635,8.458180822401573e-10,5.30993097185295e-05,0.847085515831635,-5.8337498301974655e-05,-0.7040515514115866
858,0.8481,953.116,874.709,0.0156881,0.000514641,0.033985,-0.0397162,0.61415,0.61415,-1.21865,8.47144e-10,5.31645e-05,-5.84091e-05,1.15823,0.8480850594478693,8.471439105761647e-10,5.3165913256991715e-05,0.8480850594478693,-5.840739422169339e-05,-0.7043710032010451
859,0.8491,953.33,874.912,0.0156616,0.000513977,0.0339673,-0.0396889,0.614691,0.614691,-1.21973,8.4847e-10,5.32312e-05,-5.8479e-05,1.15926,0.8490851439634999,8.48469960956777e-10,5.3232616805454214e-05,0.8490851439634999,-5.847729013663816e-05,-0.7046901101688081
860,0.8501,953.545,875.114,0.0156351,0.000513314,0.0339497,-0.0396616,0.615232,0.615232,-1.22081,8.49794e-10,5.32978e-05,-5.85487e-05,1.16029,0.8500857696712327,8.497940129359449e-10,5.329922035302026e-05,0.8500857696712327,-5.8546986058338746e-05,-0.7050088726870822
861,0.8511,953.759,875.316,0.0156088,0.000512653,0.0339321,-0.0396344,0.615772,0.615772,-1.22189,8.51117e-10,5.33643e-05,-5.86184e-05,1.16132,0.8510850857779206,8.511169546920883e-10,5.3365723899689854e-05,0.8510850857779206,-5.861668197515435e-05,-0.705327291127672
862,0.8521,953.973,875.518,0.0155824,0.000511992,0.0339146,-0.0396073,0.616312,0.616312,-1.22297,8.52438e-10,5.34308e-05,-5.8688e-05,1.16235,0.8520849416610325,8.524378980467873e-10,5.3432227450578296e-05,0.8520849416610325,-5.86862778930719e-05,-0.7056453658619808
863,0.8531,954.187,875.719,0.0155561,0.000511333,0.0338971,-0.0395803,0.616852,0.616852,-1.22404,8.53758e-10,5.34972e-05,-5.87575e-05,1.16338,0.8530853376121268,8.537579532230666e-10,5.349863100079233e-05,0.8530853376121268,-5.875577381186936e-05,-0.7059601568772815
864,0.8541,954.401,875.92,0.0155299,0.000510675,0.0338797,-0.0395534,0.617391,0.617391,-1.22512,8.55077e-10,5.35635e-05,-5.88269e-05,1.16441,0.8540844198375717,8.550768981763213e-10,5.3564934549887866e-05,0.8540844198375717,-5.882516973187979e-05,-0.7062775484855351
865,0.8551,954.614,876.121,0.0155038,0.000510019,0.0338624,-0.0395266,0.61793,0.61793,-1.2262,8.56394e-10,5.36298e-05,-5.88963e-05,1.16543,0.8550840407134892,8.563940667727366e-10,5.3631238103424295e-05,0.8550840407134892,-5.889456564700524e-05,-0.706594597495888
866,0.8561,954.827,876.322,0.0154777,0.000509363,0.0338451,-0.0394999,0.618469,0.618469,-1.22727,8.57709e-10,5.36961e-05,-5.89656e-05,1.16646,0.8560842005302907,8.577090149231026e-10,5.3697541661401615e-05,0.8560842005302907,-5.8963861563232634e-05,-0.7069083733765344
867,0.8571,955.04,876.523,0.0154516,0.000508709,0.0338278,-0.0394732,0.619008,0.619008,-1.22835,8.59024e-10,5.37623e-05,-5.90348e-05,1.16749,0.8570848995785427,8.590239630734686e-10,5.376374521826044e-05,0.8570848995785427,-5.903305748045096e-05,-0.7072247414637698
868,0.8581,955.252,876.723,0.0154257,0.000508057,0.0338106,-0.0394467,0.619546,0.619546,-1.22942,8.60337e-10,5.38284e-05,-5.91039e-05,1.16851,0.8580842800637614,8.603369128223903e-10,5.382984877422281e-05,0.8580842800637614,-5.910215339888225e-05,-0.7075378434509678
869,0.8591,955.465,876.923,0.0153997,0.000507405,0.0337935,-0.0394202,0.620084,0.620084,-1.2305,8.61648e-10,5.38945e-05,-5.9173e-05,1.16954,0.8590841983603388,8.616480862144726e-10,5.3895952334626074e-05,0.8590841983603388,-5.917124931253959e-05,-0.7078535320774975
870,0.8601,955.677,877.123,0.0153739,0.000506755,0.0337765,-0.0393939,0.620622,0.620622,-1.23157,8.62958e-10,5.39605e-05,-5.9242e-05,1.17056,0.8600846547576964,8.629579273389254e-10,5.396195589391084e-05,0.8600846547576964,-5.9240245227409893e-05,-0.7081659616185617
871,0.8611,955.888,877.323,0.0153481,0.000506106,0.0337594,-0.0393676,0.62116,0.62116,-1.23264,8.64267e-10,5.40265e-05,-5.93109e-05,1.17159,0.8610856495454096,8.642671023295634e-10,5.40279594576365e-05,0.8610856495454096,-5.930914114338215e-05,-0.7084780570388035
872,0.8621,956.1,877.522,0.0153223,0.000505458,0.0337425,-0.0393414,0.621697,0.621697,-1.23371,8.65575e-10,5.40924e-05,-5.93797e-05,1.17261,0.8620853209269586,8.655749450525718e-10,5.409386302024366e-05,0.8620853209269586,-5.9377937060456354e-05,-0.708789818695541
873,0.8631,956.311,877.721,0.0152966,0.000504812,0.0337256,-0.0393153,0.622234,0.622234,-1.23479,8.66881e-10,5.41583e-05,-5.94485e-05,1.17363,0.8630855292762023,8.668810114187409e-10,5.415976658729171e-05,0.8630855292762023,-5.9446732972978644e-05,-0.7091041559186957
874,0.8641,956.522,877.92,0.015271,0.000504167,0.0337087,-0.0392893,0.62277,0.62277,-1.23586,8.68186e-10,5.42241e-05,-5.95172e-05,1.17466,0.8640844107962273,8.681859675618853e-10,5.4225570152999225e-05,0.8640844107962273,-5.9515428886602884e-05,-0.7094152480079141
875,0.8651,956.733,878.119,0.0152454,0.000503523,0.0336919,-0.0392633,0.623307,0.623307,-1.23693,8.69489e-10,5.42899e-05,-5.95858e-05,1.17568,0.8650856929450201,8.694889253035853e-10,5.4291373723369674e-05,0.8650856929450201,-5.9584024801440094e-05,-0.7097260074066184
876,0.8661,956.944,878.317,0.0152199,0.00050288,0.0336751,-0.0392375,0.623843,0.623843,-1.238,8.70791e-10,5.43556e-05,-5.96544e-05,1.1767,0.8660856468401423,8.707909948668657e-10,5.435707729239958e-05,0.8660856468401423,-5.965262071161437e-05,-0.7100364344705967
877,0.8671,957.154,878.515,0.0151944,0.000502239,0.0336585,-0.0392117,0.624378,0.624378,-1.23907,8.72092e-10,5.44212e-05,-5.97228e-05,1.17772,0.867084269769016,8.720919542071215e-10,5.442268086031099e-05,0.867084269769016,-5.9721016629099566e-05,-0.7103465295552572
878,0.8681,957.364,878.713,0.015169,0.000501599,0.0336418,-0.039186,0.624914,0.624914,-1.24014,8.73391e-10,5.44868e-05,-5.97913e-05,1.17874,0.8680852951884588,8.733909151459329e-10,5.448828443266329e-05,0.8680852951884588,-5.9789512535823874e-05,-0.7106562930156278
879,0.8691,957.574,878.911,0.0151437,0.00050096,0.0336252,-0.0391604,0.625449,0.625449,-1.2412,8.7469e-10,5.45524e-05,-5.98596e-05,1.17976,0.8690849882154246,8.746900981293493e-10,5.455388800923444e-05,0.8690849882154246,-5.985780844985911e-05,-0.710962834849157
880,0.8701,957.783,879.109,0.0151184,0.000500322,0.0336087,-0.0391349,0.625984,0.625984,-1.24227,8.75986e-10,5.46179e-05,-5.99279e-05,1.18078,0.8700852162212538,8.759859504436918e-10,5.4619391584687094e-05,0.8700852162212538,-5.99261043592314e-05,-0.7112719392155412
881,0.8711,957.993,879.306,0.0150932,0.000499685,0.0335922,-0.0391095,0.626518,0.626518,-1.24334,8.77282e-10,5.46833e-05,-5.9996e-05,1.1818,0.871084108407193,8.772820248026392e-10,5.4684795158799204e-05,0.871084108407193,-5.9994200276025644e-05,-0.7115807130171371
882,0.8721,958.202,879.503,0.015068,0.00049905,0.0335758,-0.0390842,0.627053,0.627053,-1.2444,8.78576e-10,5.47487e-05,-6.00642e-05,1.18282,0.8720854062284749,8.785761007601423e-10,5.475019873735221e-05,0.8720854062284749,-6.0062396182059e-05,-0.7118862754846204
883,0.8731,958.411,879.7,0.0150429,0.000498416,0.0335594,-0.0390589,0.627587,0.627587,-1.24547,8.79869e-10,5.4814e-05,-6.01322e-05,1.18383,0.8730853668011118,8.798690664946207e-10,5.481550231478671e-05,0.8730853668011118,-6.0130392095514296e-05,-0.7121943922979599
884,0.8741,958.619,879.896,0.0150178,0.000497783,0.033543,-0.0390337,0.62812,0.62812,-1.24654,8.8116e-10,5.48793e-05,-6.02002e-05,1.18485,0.8740839874103676,8.811600338276548e-10,5.4880805896440066e-05,0.8740839874103676,-6.019838800430666e-05,-0.7125021796026275
885,0.8751,958.828,880.093,0.0149928,0.000497152,0.0335267,-0.0390086,0.628654,0.628654,-1.2476,8.82451e-10,5.49446e-05,-6.02681e-05,1.18587,0.8750850155103602,8.82451001160689e-10,5.494610948209022e-05,0.8750850155103602,-6.0266283914534036e-05,-0.7128067658330273
886,0.8761,959.036,880.289,0.0149679,0.000496521,0.0335105,-0.0389836,0.629187,0.629187,-1.24866,8.8374e-10,5.50097e-05,-6.03359e-05,1.18688,0.8760847022164677,8.837399700922788e-10,5.5011213061284536e-05,0.8760847022164677,-6.033407982619643e-05,-0.7131110293730787
887,0.8771,959.244,880.485,0.014943,0.000495892,0.0334943,-0.0389587,0.62972,0.62972,-1.24973,8.85027e-10,5.50749e-05,-6.04037e-05,1.1879,0.8770849218976147,8.850269406224243e-10,5.507641665025709e-05,0.8770849218976147,-6.040187573319589e-05,-0.7134178364006178
888,0.8781,959.451,880.681,0.0149181,0.000495264,0.0334782,-0.0389338,0.630253,0.630253,-1.25079,8.86314e-10,5.51399e-05,-6.04714e-05,1.18891,0.8780856748379529,8.863139111525697e-10,5.514142023232971e-05,0.8780856748379529,-6.046957164174138e-05,-0.713721452549046
889,0.8791,959.659,880.876,0.0148933,0.000494637,0.0334621,-0.0389091,0.630785,0.630785,-1.25185,8.87599e-10,5.5205e-05,-6.0539e-05,1.18993,0.8790850822357632,8.875991053258758e-10,5.520652382395852e-05,0.8790850822357632,-6.053716755172189e-05,-0.714024747034868
890,0.8801,959.866,881.071,0.0148686,0.000494012,0.0334461,-0.0388844,0.631317,0.631317,-1.25292,8.88883e-10,5.52699e-05,-6.06066e-05,1.19094,0.8800850214597622,8.888829672315524e-10,5.527142740913149e-05,0.8800850214597622,-6.060476345715049e-05,-0.7143305769073802
891,0.8811,960.073,881.266,0.0148439,0.000493387,0.0334301,-0.0388597,0.631849,0.631849,-1.25398,8.90165e-10,5.53349e-05,-6.06741e-05,1.19195,0.881085492792957,8.901650527803895e-10,5.533643100386065e-05,0.881085492792957,-6.06722593640141e-05,-0.7146332260634676
892,0.8821,960.279,881.461,0.0148193,0.000492764,0.0334142,-0.0388352,0.63238,0.63238,-1.25504,8.91446e-10,5.53997e-05,-6.07415e-05,1.19297,0.8820846144329495,8.91446028106202e-10,5.5401234591689885e-05,0.8820846144329495,-6.0739655272423754e-05,-0.7149355545814178
893,0.8831,960.486,881.656,0.0147947,0.000492142,0.0333983,-0.0388108,0.632911,0.632911,-1.2561,8.92726e-10,5.54646e-05,-6.08089e-05,1.19398,0.8830842667474141,8.927258932089899e-10,5.5466138189297354e-05,0.8830842667474141,-6.080705117628149e-05,-0.7152375628009271
894,0.8841,960.692,881.85,0.0147702,0.000491521,0.0333824,-0.0387864,0.633442,0.633442,-1.25716,8.94005e-10,5.55293e-05,-6.08762e-05,1.19499,0.8840844500182143,8.94005092177963e-10,5.5530841780226936e-05,0.8840844500182143,-6.0874347081685265e-05,-0.7155392510613321
895,0.8851,960.898,882.044,0.0147458,0.000490901,0.0333666,-0.0387621,0.633973,0.633973,-1.25822,8.95283e-10,5.55941e-05,-6.09434e-05,1.196,0.8850851645273627,8.952829588793065e-10,5.559564538071271e-05,0.8850851645273627,-6.09415429887461e-05,-0.7158406197016094
896,0.8861,961.104,882.238,0.0147214,0.000490283,0.0333509,-0.0387379,0.634503,0.634503,-1.25928,8.96559e-10,5.56587e-05,-6.10106e-05,1.19701,0.8860845244715541,8.965590492238107e-10,5.566024897407651e-05,0.8860845244715541,-6.1008738891144e-05,-0.7161416690603775
897,0.8871,961.309,882.432,0.014697,0.000489666,0.0333352,-0.0387137,0.635033,0.635033,-1.26033,8.97834e-10,5.57233e-05,-6.10776e-05,1.19802,0.8870844142169008,8.978340293452902e-10,5.57248525718812e-05,0.8870844142169008,-6.107573480140793e-05,-0.7164395638857116
898,0.8881,961.515,882.625,0.0146727,0.000489049,0.0333196,-0.0386897,0.635563,0.635563,-1.26139,8.99108e-10,5.57879e-05,-6.11447e-05,1.19903,0.8880848340442717,8.991078992437451e-10,5.578945617390474e-05,0.8880848340442717,-6.114283070091098e-05,-0.7167399787000124
899,0.8891,961.72,882.819,0.0146485,0.000488435,0.033304,-0.0386657,0.636093,0.636093,-1.26245,9.0038e-10,5.58524e-05,-6.12116e-05,1.20004,0.8890857842346851,9.003799927853606e-10,5.585395977436569e-05,0.8890857842346851,-6.120972660828006e-05,-0.7170400752433234
900,0.8901,961.925,883.012,0.0146243,0.000487821,0.0332884,-0.0386418,0.636622,0.636622,-1.2635,9.01652e-10,5.59169e-05,-6.12785e-05,1.20105,0.8900853749829878,9.016520863269761e-10,5.591846337904549e-05,0.8900853749829878,-6.127662251109722e-05,-0.7173370272372386
901,0.8911,962.129,883.205,0.0146002,0.000487208,0.0332729,-0.0386179,0.637151,0.637151,-1.26456,9.02922e-10,5.59813e-05,-6.13453e-05,1.20206,0.891085494654684,9.029219594225424e-10,5.5982866982162705e-05,0.891085494654684,-6.134341841557145e-05,-0.7176364912444035
902,0.8921,962.333,883.397,0.0145761,0.000486597,0.0332574,-0.0385942,0.637679,0.637679,-1.26562,9.04191e-10,5.60457e-05,-6.14121e-05,1.20307,0.8920842514444511,9.041909443396889e-10,5.6047270589498766e-05,0.8920842514444511,-6.141021431560478e-05,-0.7179356379879003
903,0.8931,962.538,883.589,0.0145521,0.000485986,0.033242,-0.0385705,0.638208,0.638208,-1.26667,9.05458e-10,5.611e-05,-6.14788e-05,1.20407,0.8930854288015286,9.054579308553912e-10,5.6111574195494285e-05,0.8930854288015286,-6.147691021729518e-05,-0.7182316501344399
904,0.8941,962.741,883.782,0.0145281,0.000485377,0.0332267,-0.0385469,0.638736,0.638736,-1.26772,9.06725e-10,5.61743e-05,-6.15454e-05,1.20508,0.8940852418353489,9.067249173710934e-10,5.617587780548661e-05,0.8940852418353489,-6.154350612075365e-05,-0.7185273516313453
905,0.8951,962.945,883.974,0.0145042,0.000484769,0.0332113,-0.0385233,0.639264,0.639264,-1.26878,9.0799e-10,5.62385e-05,-6.1612e-05,1.20608,0.8950855829098419,9.079899054853513e-10,5.624008141413839e-05,0.8950855829098419,-6.161010201966022e-05,-0.7188255545631406
906,0.8961,963.148,884.165,0.0144803,0.000484162,0.0331961,-0.0384999,0.639791,0.639791,-1.26983,9.09254e-10,5.63027e-05,-6.16785e-05,1.20709,0.8960845562183819,9.092540054211895e-10,5.630428502678697e-05,0.8960845562183819,-6.167659792044589e-05,-0.719120632787671
907,0.8971,963.352,884.357,0.0144565,0.000483557,0.0331808,-0.0384765,0.640318,0.640318,-1.27088,9.10517e-10,5.63668e-05,-6.17449e-05,1.20809,0.8970840561246018,9.105169951340031e-10,5.636838863787297e-05,0.8970840561246018,-6.174299382288861e-05,-0.7194154013426708
908,0.8981,963.555,884.548,0.0144327,0.000482952,0.0331656,-0.0384531,0.640845,0.640845,-1.27194,9.11778e-10,5.64309e-05,-6.18113e-05,1.2091,0.8980840829060917,9.117779864453723e-10,5.643249225317781e-05,0.8980840829060917,-6.180938972100147e-05,-0.719712663440502
909,0.8991,963.757,884.739,0.014409,0.000482349,0.0331505,-0.0384299,0.641372,0.641372,-1.27299,9.13039e-10,5.64949e-05,-6.18776e-05,1.2101,0.899084636840588,9.130389777567416e-10,5.649649586692007e-05,0.899084636840588,-6.187568562077139e-05,-0.720006810689559
910,0.9001,963.96,884.93,0.0143854,0.000481746,0.0331354,-0.0384067,0.641899,0.641899,-1.27404,9.14298e-10,5.65589e-05,-6.19438e-05,1.21111,0.9000857182059736,9.142979706666665e-10,5.656049948465913e-05,0.9000857182059736,-6.194188152242042e-05,-0.7203006492460964
911,0.9011,964.162,885.121,0.0143618,0.000481145,0.0331204,-0.0383836,0.642425,0.642425,-1.27509,9.15556e-10,5.66228e-05,-6.201e-05,1.21211,0.9010854261939012,9.155560753981717e-10,5.662440310105765e-05,0.9010854261939012,-6.200807741973957e-05,-0.7205941794340711
912,0.9021,964.364,885.311,0.0143382,0.000480545,0.0331054,-0.0383606,0.642951,0.642951,-1.27614,9.16813e-10,5.66867e-05,-6.20761e-05,1.21311,0.9020856601665523,9.168130699066523e-10,5.668830672123093e-05,0.9020856601665523,-6.207417331882681e-05,-0.7208874015771005
913,0.9031,964.566,885.501,0.0143147,0.000479946,0.0330904,-0.0383377,0.643476,0.643476,-1.27719,9.18068e-10,5.67505e-05,-6.21421e-05,1.21411,0.9030845173151987,9.180680660136886e-10,5.6752110340063666e-05,0.9030845173151987,-6.214016921968213e-05,-0.7211803159984618
914,0.9041,964.768,885.691,0.0142912,0.000479349,0.0330755,-0.0383148,0.644002,0.644002,-1.27823,9.19323e-10,5.68143e-05,-6.22081e-05,1.21511,0.9040858030863783,9.193230621207249e-10,5.6815913962893205e-05,0.9040858030863783,-6.22061651163186e-05,-0.721470137736397
915,0.9051,964.969,885.881,0.0142678,0.000478752,0.0330606,-0.038292,0.644527,0.644527,-1.27928,9.20576e-10,5.6878e-05,-6.22741e-05,1.21611,0.9050857105857506,9.205760598263169e-10,5.687961758416016e-05,0.9050857105857506,-6.227216100851418e-05,-0.721762440605912
916,0.9061,965.17,886.071,0.0142445,0.000478156,0.0330458,-0.0382692,0.645051,0.645051,-1.28033,9.21828e-10,5.69417e-05,-6.23399e-05,1.21711,0.906084237089194,9.218279473088842e-10,5.6943321209423914e-05,0.906084237089194,-6.233795690879784e-05,-0.7220544367184896
917,0.9071,965.371,886.26,0.0142212,0.000477562,0.033031,-0.0382465,0.645576,0.645576,-1.28138,9.23079e-10,5.70054e-05,-6.24057e-05,1.21811,0.9070851940418752,9.230789466130318e-10,5.700702483868447e-05,0.9070851940418752,-6.240375280486266e-05,-0.7223461263960554
918,0.9081,965.572,886.449,0.014198,0.000476969,0.0330162,-0.0382239,0.6461,0.6461,-1.28242,9.24329e-10,5.7069e-05,-6.24715e-05,1.21911,0.9080847685492024,9.243290577387597e-10,5.7070628466382445e-05,0.9080847685492024,-6.246954869648658e-05,-0.7226347363214289
919,0.9091,965.772,886.638,0.0141748,0.000476377,0.0330015,-0.0382014,0.646624,0.646624,-1.28347,9.25578e-10,5.71325e-05,-6.25371e-05,1.22011,0.9090848669708249,9.25578058641463e-10,5.7134132092295786e-05,0.9090848669708249,-6.25351445963096e-05,-0.72292581700419
920,0.9101,965.972,886.827,0.0141516,0.000475786,0.0329869,-0.0381789,0.647148,0.647148,-1.28452,9.26825e-10,5.7196e-05,-6.26028e-05,1.22111,0.9100854895813459,9.26825061142722e-10,5.7197635722427975e-05,0.9100854895813459,-6.260084048559378e-05,-0.7232165922126362
921,0.9111,966.172,887.016,0.0141285,0.000475196,0.0329723,-0.0381566,0.647671,0.647671,-1.28556,9.28072e-10,5.72595e-05,-6.26683e-05,1.22211,0.9110847255698313,9.28072063643981e-10,5.726113935655697e-05,0.9110847255698313,-6.266633638307706e-05,-0.7235042973241452
922,0.9121,966.372,887.204,0.0141055,0.000474607,0.0329577,-0.0381342,0.648194,0.648194,-1.2866,9.29317e-10,5.73229e-05,-6.27338e-05,1.2231,0.9120844842954225,9.293170677437956e-10,5.732454298890133e-05,0.9120844842954225,-6.273183227634149e-05,-0.7237917033778754
923,0.9131,966.572,887.392,0.0140825,0.000474019,0.0329432,-0.038112,0.648717,0.648717,-1.28765,9.30561e-10,5.73862e-05,-6.27992e-05,1.2241,0.9130847660315826,9.305609616205857e-10,5.738784661946106e-05,0.9130847660315826,-6.279722817148503e-05,-0.724081569882782
924,0.9141,966.771,887.58,0.0140595,0.000473432,0.0329287,-0.0380898,0.64924,0.64924,-1.28869,9.31804e-10,5.74495e-05,-6.28646e-05,1.22509,0.9140855710519176,9.31803967318956e-10,5.745115025401759e-05,0.9140855710519176,-6.286262406240972e-05,-0.7243683758851318
925,0.9151,966.97,887.768,0.0140367,0.000472847,0.0329142,-0.0380677,0.649762,0.649762,-1.28973,9.33046e-10,5.75128e-05,-6.29299e-05,1.22609,0.9150849845442344,9.330460848389066e-10,5.751445389279297e-05,0.9150849845442344,-6.292791995532454e-05,-0.7246548837642903
926,0.9161,967.169,887.955,0.0140138,0.000472262,0.0328998,-0.0380456,0.650284,0.650284,-1.29078,9.34286e-10,5.7576e-05,-6.29952e-05,1.22708,0.9160849198665801,9.34285981912808e-10,5.757765752978372e-05,0.9160849198665801,-6.299321584402051e-05,-0.724943844405453
927,0.9171,967.368,888.142,0.013991,0.000471679,0.0328855,-0.0380236,0.650806,0.650806,-1.29182,9.35526e-10,5.76392e-05,-6.30603e-05,1.22808,0.9170853772914209,9.355261010313143e-10,5.764086117054923e-05,0.9170853772914209,-6.305831174102661e-05,-0.7252297541084557
928,0.9181,967.566,888.329,0.0139683,0.000471097,0.0328711,-0.0380017,0.651327,0.651327,-1.29286,9.36764e-10,5.77023e-05,-6.31255e-05,1.22907,0.9180844390059675,9.367639997037713e-10,5.770396480975215e-05,0.9180844390059675,-6.312350762749386e-05,-0.7255153666199337
929,0.9191,967.765,888.516,0.0139456,0.000470515,0.0328568,-0.0379798,0.651848,0.651848,-1.2939,9.38001e-10,5.77654e-05,-6.31905e-05,1.23007,0.9190840213672842,9.380010101978087e-10,5.7767068452951875e-05,0.9190840213672842,-6.318850352238226e-05,-0.7258006822488056
930,0.9201,967.963,888.703,0.0139229,0.000469935,0.0328426,-0.0379581,0.652369,0.652369,-1.29494,9.39238e-10,5.78284e-05,-6.32556e-05,1.23106,0.9200841246466984,9.39238020691846e-10,5.7830072094144924e-05,0.9200841246466984,-6.325359940673181e-05,-0.7260857013036686
931,0.9211,968.16,888.889,0.0139003,0.000469356,0.0328284,-0.0379363,0.65289,0.65289,-1.29598,9.40473e-10,5.78914e-05,-6.33205e-05,1.23205,0.9210847491156793,9.40473032784439e-10,5.7893075739334776e-05,0.9210847491156793,-6.331849529950251e-05,-0.7263704240927993
932,0.9221,968.358,889.076,0.0138778,0.000468778,0.0328142,-0.0379147,0.65341,0.65341,-1.29702,9.41706e-10,5.79543e-05,-6.33854e-05,1.23304,0.9220839729609034,9.417060464755878e-10,5.795597938296204e-05,0.9220839729609034,-6.338339118794334e-05,-0.7266548509241542
933,0.9231,968.555,889.262,0.0138553,0.000468201,0.0328001,-0.0378931,0.653931,0.653931,-1.29805,9.42939e-10,5.80172e-05,-6.34502e-05,1.23403,0.9230856396223235,9.429390601667365e-10,5.8018883030364066e-05,0.9230856396223235,-6.344818707859634e-05,-0.7269362514815372
934,0.9241,968.753,889.448,0.0138328,0.000467626,0.032786,-0.0378716,0.65445,0.65445,-1.29909,9.44171e-10,5.80801e-05,-6.3515e-05,1.23503,0.9240839801162362,9.441709636348605e-10,5.808178668176289e-05,0.9240839801162362,-6.351298296514152e-05,-0.727220090158301
935,0.9251,968.95,889.633,0.0138104,0.000467051,0.032772,-0.0378501,0.65497,0.65497,-1.30013,9.45402e-10,5.81429e-05,-6.35797e-05,1.23602,0.9250847639671469,9.45401978924565e-10,5.8144590331155044e-05,0.9250847639671469,-6.357767885367682e-05,-0.7275036337962879
936,0.9261,969.146,889.819,0.0137881,0.000466477,0.032758,-0.0378287,0.655489,0.655489,-1.30117,9.46631e-10,5.82056e-05,-6.36444e-05,1.237,0.9260841422758841,9.46630995812825e-10,5.8207293978762564e-05,0.9260841422758841,-6.36423747381043e-05,-0.7277868827021785
937,0.9271,969.343,890.004,0.0137658,0.000465905,0.032744,-0.0378074,0.656008,0.656008,-1.3022,9.4786e-10,5.82684e-05,-6.3709e-05,1.23799,0.9270840393965838,9.47860012701085e-10,5.827009763614832e-05,0.9270840393965838,-6.370697062474395e-05,-0.7280671178671103
938,0.9281,969.539,890.189,0.0137435,0.000465333,0.0327301,-0.0377861,0.656527,0.656527,-1.30324,9.49087e-10,5.8331e-05,-6.37735e-05,1.23898,0.9280844555985788,9.490870311879007e-10,5.8332701285968014e-05,0.9280844555985788,-6.377146651359578e-05,-0.7283497810541938
939,0.9291,969.735,890.374,0.0137213,0.000464763,0.0327162,-0.0377649,0.657046,0.657046,-1.30427,9.50313e-10,5.83936e-05,-6.3838e-05,1.23997,0.9290853911513426,9.503129394516918e-10,5.839530493934042e-05,0.9290853911513426,-6.383596239822875e-05,-0.7286294367323098
940,0.9301,969.931,890.558,0.0136992,0.000464193,0.0327024,-0.0377437,0.657564,0.657564,-1.30531,9.51538e-10,5.84562e-05,-6.39024e-05,1.24096,0.9300849162386071,9.515379595370632e-10,5.8457908596931674e-05,0.9300849162386071,-6.39003582850739e-05,-0.7289115154117702
941,0.9311,970.127,890.743,0.0136771,0.000463625,0.0326886,-0.0377227,0.658082,0.658082,-1.30634,9.52762e-10,5.85188e-05,-6.39668e-05,1.24195,0.9310849592139878,9.52762091444015e-10,5.8520512258297686e-05,0.9310849592139878,-6.396475416792224e-05,-0.7291905928013678
942,0.9321,970.322,890.927,0.013655,0.000463057,0.0326748,-0.0377016,0.6586,0.6586,-1.30737,9.53985e-10,5.85812e-05,-6.40311e-05,1.24293,0.9320855203458209,9.53984891083337e-10,5.858291591209763e-05,0.9320855203458209,-6.402905005287174e-05,-0.7294693828892397
943,0.9331,970.517,891.111,0.013633,0.000462491,0.0326611,-0.0376807,0.659117,0.659117,-1.30841,9.55207e-10,5.86437e-05,-6.40954e-05,1.24392,0.9330846668169475,9.552070245888444e-10,5.864541957545377e-05,0.9330846668169475,-6.409334593371341e-05,-0.7297505884787824
944,0.9341,970.712,891.295,0.013611,0.000461926,0.0326474,-0.0376598,0.659634,0.659634,-1.30944,9.56428e-10,5.87061e-05,-6.41595e-05,1.2449,0.9340843299803532,9.564280478713272e-10,5.8707823236803236e-05,0.9340843299803532,-6.415744182330929e-05,-0.7300288020680543
945,0.9351,970.907,891.478,0.0135891,0.000461361,0.0326337,-0.037639,0.660151,0.660151,-1.31047,9.57648e-10,5.87684e-05,-6.42237e-05,1.24589,0.9350845101032366,9.576479609307853e-10,5.8770126896146024e-05,0.9350845101032366,-6.422163770236633e-05,-0.7303067292448571
946,0.9361,971.102,891.662,0.0135672,0.000460798,0.0326201,-0.0376182,0.660668,0.660668,-1.3115,9.58867e-10,5.88307e-05,-6.42878e-05,1.24687,0.9360852074529353,9.588669858118237e-10,5.8832430559485616e-05,0.9360852074529353,-6.428573358363554e-05,-0.7305843703040437
947,0.9371,971.296,891.845,0.0135454,0.000460236,0.0326065,-0.0375975,0.661184,0.661184,-1.31253,9.60084e-10,5.8893e-05,-6.43518e-05,1.24786,0.9370844852114706,9.600840122914178e-10,5.889473422682201e-05,0.9370844852114706,-6.434972946733897e-05,-0.7308617255401633
948,0.9381,971.49,892.028,0.0135236,0.000459675,0.032593,-0.0375768,0.6617,0.6617,-1.31356,9.61301e-10,5.89552e-05,-6.44158e-05,1.24884,0.938084278730384,9.61301038771012e-10,5.8956937891929684e-05,0.938084278730384,-6.441372534693457e-05,-0.7311387952474624
949,0.9391,971.684,892.211,0.0135019,0.000459115,0.0325795,-0.0375562,0.662216,0.662216,-1.31459,9.62516e-10,5.90174e-05,-6.44797e-05,1.24982,0.9390845882758769,9.625160668491617e-10,5.901914156103416e-05,0.9390845882758769,-6.447762122885337e-05,-0.7314155797198842
950,0.9401,971.878,892.393,0.0134802,0.000458556,0.032566,-0.0375357,0.662732,0.662732,-1.31562,9.63731e-10,5.90795e-05,-6.45435e-05,1.25081,0.9400854141142871,9.637310949273115e-10,5.908124522813196e-05,0.9400854141142871,-6.454141711309536e-05,-0.7316920792510693
951,0.9411,972.071,892.576,0.0134586,0.000457998,0.0325526,-0.0375152,0.663247,0.663247,-1.31665,9.64944e-10,5.91416e-05,-6.46073e-05,1.25179,0.9410848154263052,9.64943902559412e-10,5.914334889900452e-05,0.9410848154263052,-6.460521299334054e-05,-0.7319682941343562
952,0.9421,972.265,892.758,0.013437,0.000457441,0.0325392,-0.0374948,0.663762,0.663762,-1.31768,9.66157e-10,5.92037e-05,-6.46711e-05,1.25277,0.9420847315625545,9.661569322361174e-10,5.920545257365184e-05,0.9420847315625545,-6.46690088694779e-05,-0.732244224662781
953,0.9431,972.458,892.94,0.0134154,0.000456885,0.0325258,-0.0374745,0.664277,0.664277,-1.31871,9.67368e-10,5.92657e-05,-6.47348e-05,1.25375,0.9430851627882382,9.673679635113785e-10,5.926745624629248e-05,0.9430851627882382,-6.473270474804949e-05,-0.7325198711290788
954,0.9441,972.651,893.122,0.0133939,0.00045633,0.0325125,-0.0374542,0.664791,0.664791,-1.31973,9.68578e-10,5.93276e-05,-6.47984e-05,1.25473,0.9440841652835583,9.6857810660822e-10,5.932935991692645e-05,0.9440841652835583,-6.479630062905528e-05,-0.7327925617646607
955,0.9451,972.843,893.304,0.0133725,0.000455776,0.0324992,-0.0374339,0.665306,0.665306,-1.32076,9.69788e-10,5.93895e-05,-6.4862e-05,1.25571,0.9450856264828036,9.697880276604565e-10,5.9391263591335175e-05,0.9450856264828036,-6.485989650595325e-05,-0.7330676437345091
956,0.9461,973.036,893.485,0.0133511,0.000455223,0.032486,-0.0374138,0.66582,0.66582,-1.32179,9.70996e-10,5.94514e-05,-6.49255e-05,1.25669,0.9460856574807655,9.709959503112486e-10,5.945316726951866e-05,0.9460856574807655,-6.492339238528544e-05,-0.7333424425157957
957,0.9471,973.228,893.666,0.0133297,0.000454671,0.0324728,-0.0373937,0.666333,0.666333,-1.32281,9.72203e-10,5.95132e-05,-6.4989e-05,1.25767,0.9470842555415555,9.722029847836211e-10,5.951497094569547e-05,0.9470842555415555,-6.498688826073185e-05,-0.7336142945563193
958,0.9481,973.42,893.847,0.0133084,0.00045412,0.0324596,-0.0373736,0.666847,0.666847,-1.32384,9.73409e-10,5.9575e-05,-6.50524e-05,1.25865,0.9480853140989136,9.73408909032969e-10,5.957677462564703e-05,0.9480853140989136,-6.505028413850145e-05,-0.7338885305771308
959,0.9491,973.612,894.028,0.0132871,0.00045357,0.0324465,-0.0373536,0.66736,0.66736,-1.32486,9.74614e-10,5.96367e-05,-6.51158e-05,1.25963,0.9490849382467177,9.74613945103897e-10,5.963847830336988e-05,0.9490849382467177,-6.511368001227424e-05,-0.7341598258918104
960,0.9501,973.804,894.209,0.0132659,0.000453021,0.0324334,-0.0373337,0.667873,0.667873,-1.32589,9.75818e-10,5.96984e-05,-6.51791e-05,1.2606,0.9500850753332672,9.758180929964055e-10,5.9700181984867484e-05,0.9500850753332672,-6.517697588859228e-05,-0.7344335003046241
961,0.9511,973.995,894.389,0.0132447,0.000452473,0.0324203,-0.0373138,0.668386,0.668386,-1.32691,9.77021e-10,5.97601e-05,-6.52424e-05,1.26158,0.9510857256217673,9.770209086212844e-10,5.976188567036189e-05,0.9510857256217673,-6.524027176091352e-05,-0.7347042400335786
962,0.9521,974.186,894.569,0.0132236,0.000451926,0.0324073,-0.0372939,0.668898,0.668898,-1.32793,9.78224e-10,5.98217e-05,-6.53056e-05,1.26256,0.9520849372896445,9.782239462907683e-10,5.982348935362758e-05,0.9520849372896445,-6.530346763566897e-05,-0.7349747037488004
963,0.9531,974.377,894.75,0.0132025,0.000451381,0.0323943,-0.0372742,0.66941,0.66941,-1.32895,9.79425e-10,5.98833e-05,-6.53687e-05,1.26353,0.9530846606848864,9.794249855588077e-10,5.9885093040668025e-05,0.9530846606848864,-6.536656351308068e-05,-0.73524489173168
964,0.9541,974.568,894.929,0.0131814,0.000450836,0.0323813,-0.0372544,0.669922,0.669922,-1.32998,9.80625e-10,5.99448e-05,-6.54318e-05,1.26451,0.9540848960695654,9.806249146038226e-10,5.994659672547975e-05,0.9540848960695654,-6.542965938649559e-05,-0.7355174491020542
965,0.9551,974.759,895.109,0.0131604,0.000450292,0.0323684,-0.0372348,0.670434,0.670434,-1.331,9.74664e-10,6.00063e-05,-6.54949e-05,1.26549,0.9550856437058861,9.746639051400052e-10,6.0008100414066234e-05,0.9550856437058861,-6.549275525591369e-05,-0.7357870837669137
966,0.9561,974.949,895.289,0.0131395,0.000449749,0.0323555,-0.0372152,0.670945,0.670945,-1.33202,9.83022e-10,6.00677e-05,-6.55579e-05,1.26646,0.9560849477702633,9.830221081585933e-10,6.0069504100424e-05,0.9560849477702633,-6.555575112787704e-05,-0.7360564435446313
967,0.9571,975.139,895.468,0.0131186,0.000449207,0.0323426,-0.0371956,0.671456,0.671456,-1.33304,9.84219e-10,6.01291e-05,-6.56208e-05,1.26743,0.9570847626095094,9.842189285791392e-10,6.013090779055652e-05,0.9570847626095094,-6.561864700238562e-05,-0.7363255287154491
968,0.9581,975.329,895.647,0.0130977,0.000448666,0.0323298,-0.0371761,0.671967,0.671967,-1.33406,9.85415e-10,6.01905e-05,-6.56837e-05,1.26841,0.9580850884846968,9.854150828658703e-10,6.01923114844638e-05,0.9580850884846968,-6.568154287300842e-05,-0.7365943395593231
969,0.9591,975.519,895.826,0.0130769,0.000448126,0.032317,-0.0371567,0.672477,0.672477,-1.33508,9.8661e-10,6.02518e-05,-6.57465e-05,1.26938,0.9590839665720854,9.86609904884972e-10,6.025361517614236e-05,0.9590839665720854,-6.574433874628749e-05,-0.7368628763559241
970,0.9601,975.709,896.005,0.0130561,0.000447587,0.0323042,-0.0371373,0.672988,0.672988,-1.3361,9.87804e-10,6.03131e-05,-6.58093e-05,1.27035,0.9600853143015593,9.878040607702587e-10,6.031491887159568e-05,0.9600853143015593,-6.580713461556975e-05,-0.737131139384638
971,0.9611,975.898,896.183,0.0130354,0.000447049,0.0322915,-0.037118,0.673498,0.673498,-1.33711,9.88997e-10,6.03743e-05,-6.5872e-05,1.27133,0.9610852127642884,9.88997106432521e-10,6.037612256482028e-05,0.9610852127642884,-6.586983048739725e-05,-0.7373965029027247
972,0.9621,976.088,896.362,0.0130147,0.000446512,0.0322788,-0.0370987,0.674008,0.674008,-1.33813,9.90189e-10,6.04355e-05,-6.59347e-05,1.2723,0.9620856213052922,9.901890418717585e-10,6.043732626159759e-05,0.9620856213052922,-6.593252635545e-05,-0.7376642219098591
973,0.9631,976.276,896.54,0.0129941,0.000445976,0.0322662,-0.0370795,0.674517,0.674517,-1.33915,9.9138e-10,6.04966e-05,-6.59973e-05,1.27327,0.9630845770992187,9.913800891325764e-10,6.049842995614618e-05,0.9630845770992187,-6.5995122226159e-05,-0.7379316679828263
974,0.9641,976.465,896.718,0.0129735,0.00044544,0.0322536,-0.0370603,0.675026,0.675026,-1.34016,9.9257e-10,6.05577e-05,-6.60599e-05,1.27424,0.9640840414910714,9.925700261703696e-10,6.055953365446953e-05,0.9640840414910714,-6.60577180928712e-05,-0.7381962233752011
975,0.9651,976.654,896.895,0.0129529,0.000444906,0.032241,-0.0370412,0.675535,0.675535,-1.34118,9.93759e-10,6.06188e-05,-6.61224e-05,1.27521,0.9650840147397926,9.937590750297431e-10,6.062063735656764e-05,0.9650840147397926,-6.612021396223966e-05,-0.7384631270833266
976,0.9661,976.842,897.073,0.0129324,0.000444373,0.0322284,-0.0370222,0.676044,0.676044,-1.3422,9.94947e-10,6.06798e-05,-6.61849e-05,1.27618,0.9660844971044564,9.94947013666092e-10,6.0681641056214985e-05,0.9660844971044564,-6.618270982783336e-05,-0.738729758688466
977,0.9671,977.031,897.25,0.0129119,0.000443841,0.0322159,-0.0370032,0.676553,0.676553,-1.34321,9.96134e-10,6.07408e-05,-6.62473e-05,1.27715,0.9670854888442688,9.961340641240213e-10,6.074264475963709e-05,0.9670854888442688,-6.624510569608333e-05,-0.7389935084161573
978,0.9681,977.219,897.428,0.0128915,0.00044331,0.0322034,-0.0369842,0.677061,0.677061,-1.34423,9.9732e-10,6.08017e-05,-6.63097e-05,1.27812,0.9680850221325616,9.973200043589259e-10,6.080354846083047e-05,0.9680850221325616,-6.630750156044751e-05,-0.7392595993081479
979,0.9691,977.406,897.605,0.0128711,0.000442779,0.0321909,-0.0369653,0.677569,0.677569,-1.34524,9.98506e-10,6.08626e-05,-6.6372e-05,1.27908,0.9690850633127586,9.985059445938305e-10,6.0864452165576566e-05,0.9690850633127586,-6.636979742757898e-05,-0.7395228141669674
980,0.9701,977.594,897.782,0.0128508,0.00044225,0.0321785,-0.0369465,0.678077,0.678077,-1.34625,9.9969e-10,6.09235e-05,-6.64343e-05,1.28005,0.9700856126429342,9.996901084718957e-10,6.092535587409742e-05,0.9700856126429342,-6.643209329071365e-05,-0.7397857633129872
981,0.9711,977.781,897.958,0.0128305,0.000441721,0.0321661,-0.0369277,0.678584,0.678584,-1.34727,1.00087e-09,6.09843e-05,-6.64965e-05,1.28102,0.9710846992956093,1.0008700535024673e-09,6.098615958016751e-05,0.9710846992956093,-6.649428915672662e-05,-0.7400510465169738
982,0.9721,977.969,898.135,0.0128102,0.000441194,0.0321538,-0.0369089,0.679091,0.679091,-1.34828,1.00206e-09,6.1045e-05,-6.65586e-05,1.28199,0.9720842926136464,1.0020599905402605e-09,6.104686328400888e-05,0.9720842926136464,-6.655638502550687e-05,-0.7403134624176544
983,0.9731,978.156,898.311,0.01279,0.000440667,0.0321414,-0.0368902,0.679598,0.679598,-1.34929,1.00324e-09,6.11058e-05,-6.66208e-05,1.28295,0.9730843928539896,1.0032399355708321e-09,6.110766699740644e-05,0.9730843928539896,-6.661858088374828e-05,-0.7405756134120753
984,0.9741,978.342,898.487,0.0127698,0.000440142,0.0321291,-0.0368716,0.680105,0.680105,-1.3503,1.00442e-09,6.11665e-05,-6.66828e-05,1.28392,0.9740850002737136,1.0044201026460087e-09,6.116837070857528e-05,0.9740850002737136,-6.668057675152106e-05,-0.740837499767657
985,0.9751,978.529,898.663,0.0127497,0.000439617,0.0321169,-0.036853,0.680611,0.680611,-1.35131,1.0056e-09,6.12271e-05,-6.67448e-05,1.28488,0.9750841400448962,1.0056000476765803e-09,6.122897441707131e-05,0.9750841400448962,-6.674257261540806e-05,-0.7410991217515498
986,0.9761,978.715,898.839,0.0127296,0.000439094,0.0321046,-0.0368345,0.681118,0.681118,-1.35232,1.00677e-09,6.12877e-05,-6.68068e-05,1.28585,0.9760857615935061,1.0067700006999303e-09,6.128957812956415e-05,0.9760857615935061,-6.680456847540928e-05,-0.7413604796306341
987,0.9771,978.902,899.014,0.0127096,0.000438571,0.0320924,-0.036816,0.681624,0.681624,-1.35333,1.00795e-09,6.13483e-05,-6.68687e-05,1.28681,0.9770859140060932,1.0079499457305019e-09,6.135018184538765e-05,0.9770859140060932,-6.68664643382888e-05,-0.7416215736715214
988,0.9781,979.088,899.19,0.0126896,0.000438049,0.0320803,-0.0367975,0.682129,0.682129,-1.35434,1.00913e-09,6.14088e-05,-6.69306e-05,1.28778,0.9780845945382766,1.0091298907610735e-09,6.141068555898244e-05,0.9780845945382766,-6.692836019739357e-05,-0.7418824041405536
989,0.9791,979.273,899.365,0.0126696,0.000437528,0.0320681,-0.0367792,0.682635,0.682635,-1.35535,1.0103e-09,6.14693e-05,-6.69924e-05,1.28874,0.9790857586162636,1.0103000658290284e-09,6.147118927612993e-05,0.9790857586162636,-6.699015605926562e-05,-0.7421429713038038
990,0.9801,979.459,899.54,0.0126497,0.000437008,0.032056,-0.0367608,0.68314,0.68314,-1.35636,1.01148e-09,6.15297e-05,-6.70542e-05,1.2897,0.9800854493250231,1.0114800108596e-09,6.153159299082667e-05,0.9800854493250231,-6.70519519173629e-05,-0.7424032754270766
991,0.9811,979.645,899.715,0.0126298,0.000436489,0.032044,-0.0367425,0.683645,0.683645,-1.35737,1.01265e-09,6.15901e-05,-6.71159e-05,1.29066,0.9810856450050853,1.01264996388295e-09,6.159199670907611e-05,0.9810856450050853,-6.71136477783385e-05,-0.7426633167759085
992,0.9821,979.83,899.889,0.01261,0.000435971,0.0320319,-0.0367243,0.684149,0.684149,-1.35838,1.01383e-09,6.16505e-05,-6.71776e-05,1.29163,0.98208436382617,1.0138299089135216e-09,6.165240043110032e-05,0.98208436382617,-6.717534363553934e-05,-0.7429230956155675
993,0.9831,980.015,900.064,0.0125902,0.000435454,0.0320199,-0.0367061,0.684654,0.684654,-1.35938,1.015e-09,6.17108e-05,-6.72392e-05,1.29259,0.9830855692129845,1.0150000839814766e-09,6.171270415067376e-05,0.9830855692129845,-6.723693949561849e-05,-0.7431800440243351
994,0.9841,980.2,900.238,0.0125705,0.000434938,0.0320079,-0.036688,0.685158,0.685158,-1.36039,1.01617e-09,6.17711e-05,-6.73007e-05,1.29355,0.9840852962499191,1.0161700370048266e-09,6.177300787357787e-05,0.9840852962499191,-6.729843535868696e-05,-0.7434393012329412
995,0.9851,980.384,900.412,0.0125508,0.000434422,0.031996,-0.0366699,0.685662,0.685662,-1.3614,1.01734e-09,6.18314e-05,-6.73623e-05,1.29451,0.9850855272762749,1.0173399900281765e-09,6.183331160047878e-05,0.9850855272762749,-6.736003121121659e-05,-0.7436982967239562
996,0.9861,980.569,900.586,0.0125311,0.000433908,0.031984,-0.0366519,0.686165,0.686165,-1.3624,1.01851e-09,6.18916e-05,-6.74237e-05,1.29547,0.9860842764608571,1.0185099430515265e-09,6.189351532448484e-05,0.9860842764608571,-6.74214270733886e-05,-0.7439544703190868
997,0.9871,980.753,900.76,0.0125115,0.000433394,0.0319722,-0.0366339,0.686669,0.686669,-1.36341,1.01968e-09,6.19517e-05,-6.74852e-05,1.29643,0.987085515227168,1.0196798960748765e-09,6.195361904626218e-05,0.987085515227168,-6.74829229251328e-05,-0.7442129457519984
998,0.9881,980.937,900.933,0.0124919,0.000432882,0.0319603,-0.0366159,0.687172,0.687172,-1.36441,1.02084e-09,6.20119e-05,-6.75465e-05,1.29739,0.9880852706587395,1.0208400791356098e-09,6.20138227775957e-05,0.9880852706587395,-6.75442187865194e-05,-0.7444686049553397
999,0.9891,981.121,901.107,0.0124723,0.00043237,0.0319485,-0.036598,0.687675,0.687675,-1.36541,1.02201e-09,6.20719e-05,-6.76079e-05,1.29834,0.9890855290937879,1.0220100321589598e-09,6.207382650025295e-05,0.9890855290937879,-6.760561463747816e-05,-0.7447240086272648
