,Time,S11,S22,S33,S12,S13,S23,LE11,LE22,LE33,LE12,LE13,LE23,SDV_EPBAR,E11,E12,E13,E22,E23,E33
0,1e-05,0.537248,0.537248,0.0,0.0,0.0,-7.28528e-40,4.99999e-06,4.99999e-06,-4.2857e-06,0.0,0.0,0.0,0.0,5.000002500032963e-06,0.0,0.0,5.000002500032963e-06,0.0,-4.285690816452359e-06
1,2e-05,1.07449,1.07449,3.88578e-16,0.0,0.0,-1.45705e-39,9.99995e-06,9.99995e-06,-8.57139e-06,0.0,0.0,0.0,0.0,9.999999999621423e-06,0.0,0.0,9.999999999621423e-06,0.0,-8.571353265707238e-06
2,3.5e-05,1.88036,1.88036,-5.55112e-17,0.0,0.0,-2.73196e-39,1.74998e-05,1.74998e-05,-1.49999e-05,0.0,0.0,0.0,0.0,1.749995312239072e-05,0.0,0.0,1.749995312239072e-05,0.0,-1.4999787502079087e-05
3,5.75e-05,3.08914,3.08914,-1.60982e-15,0.0,0.0,-6.14686e-39,2.87496e-05,2.87496e-05,-2.46425e-05,0.0,0.0,0.0,0.0,2.875001327362625e-05,0.0,0.0,2.875001327362625e-05,0.0,-2.464219637610121e-05
4,9.125e-05,4.90229,4.90229,-8.9373e-15,0.0,0.0,-1.38303e-38,4.5624e-05,4.5624e-05,-3.91062e-05,0.0,0.0,0.0,0.0,4.56250407905312e-05,0.0,0.0,4.56250407905312e-05,0.0,-3.910543536256306e-05
5,0.00014188,7.62195,7.62195,-4.66849e-14,0.0,0.0,-3.11176e-38,7.0935e-05,7.0935e-05,-6.08014e-05,0.0,0.0,0.0,0.0,7.093751594666742e-05,0.0,0.0,7.093751594666742e-05,0.0,-6.079955163229567e-05
6,0.00021781,11.7013,11.7013,-2.34979e-13,0.0,0.0,-7.00127e-38,0.0001089,0.0001089,-9.33431e-05,0.0,0.0,0.0,0.0,0.00010890592982026881,0.0,0.0,0.00010890592982026881,0.0,-9.333874366834749e-05
7,0.00033172,17.8201,17.8201,-1.19332e-12,0.0,0.0,-1.57522e-37,0.000165846,0.000165846,-0.000142153,0.0,0.0,0.0,0.0,0.00016585975320815294,0.0,0.0,0.00016585975320815294,0.0,-0.00014214289674108205
8,0.00050258,26.9976,26.9976,-6.05876e-12,0.0,0.0,-3.54405e-37,0.000251258,0.000251258,-0.000215364,0.0,0.0,0.0,0.0,0.00025128956793518675,0.0,0.0,0.00025128956793518675,0.0,-0.00021534081083851575
9,0.00075887,40.7624,40.7624,-3.06453e-11,0.0,0.0,-7.9734e-37,0.000379362,0.000379362,-0.000325167,0.0,0.0,0.0,0.0,0.0003794339668636848,0.0,0.0,0.0003794339668636848,0.0,-0.000325114138940763
10,0.0011433,61.4062,61.4062,-1.55093e-10,0.0,0.0,-1.79378e-36,0.000571487,0.000571487,-0.000489846,0.0,0.0,0.0,0.0,0.0005716503298076603,0.0,0.0,0.0005716503298076603,0.0,-0.000489726045035388
11,0.00172,92.3645,92.3645,-7.84592e-10,0.0,0.0,-4.0352e-36,0.000859606,0.000859606,-0.000736805,0.0,0.0,0.0,0.0,0.0008599755671241383,0.0,0.0,0.0008599755671241383,0.0,-0.0007365336258500221
12,0.0025849,138.785,138.785,-3.96804e-09,0.0,0.0,-9.0765e-36,0.00129163,0.00129163,-0.00110711,0.0,0.0,0.0,0.0,0.0012924645132839085,0.0,0.0,0.0012924645132839085,0.0,-0.0011064973798241562
13,0.0035849,192.428,192.428,-8.65841e-09,0.0,0.0,-1.35678e-35,0.00179086,0.00179086,-0.00153502,0.0,0.0,0.0,0.0,0.0017924645474667322,0.0,0.0,0.0017924645474667322,0.0,-0.001533842459393031
14,0.0045849,246.043,246.043,-9.80582e-09,0.0,0.0,-1.45383e-35,0.00228984,0.00228984,-0.00196272,0.0,0.0,0.0,0.0,0.0022924636858374647,0.0,0.0,0.0022924636858374647,0.0,-0.0019607951246372046
15,0.0055849,299.632,299.632,-9.78626e-09,0.0,0.0,-1.45248e-35,0.00278857,0.00278857,-0.0023902,0.0,0.0,0.0,0.0,0.002792461677887159,0.0,0.0,0.002792461677887159,0.0,-0.002387345746511782
16,0.0065849,332.359,329.179,0.204302,4.8681,-9.20469,-5.90042e-05,0.00328708,0.00328706,-0.00305493,-1.26854e-11,0.000329249,-7.71315e-08,0.00040134,0.0032924883717564413,-1.2685408279367039e-11,0.00032930320840129923,0.0032924683059070148,-7.713149707821998e-08,-0.0030502684494593257
17,0.0075849,336.41,328.059,0.1835,12.8389,-23.9276,0.00888446,0.00378569,0.00378529,-0.0040363,-5.65803e-10,0.00126243,-8.96996e-07,0.0013354,0.0037928647753562306,-5.658029600397185e-10,0.0012632272001869005,0.003792463258290635,-8.969955976878552e-07,-0.004028165089814739
18,0.0085849,338.163,326.359,-0.271217,18.619,-38.356,0.0237958,0.00428446,0.00428328,-0.00503519,-3.25041e-09,0.00217846,-2.98441e-06,0.00230085,0.004293651420816058,-3.250410052224595e-09,0.0021808345679732444,0.0042924663550065745,-2.9844055466909936e-06,-0.0050225346803877136
19,0.0095849,339.402,325.668,0.209515,22.751,-52.5396,0.0627688,0.00478332,0.00478102,-0.00602632,-8.86178e-09,0.00303632,-5.83309e-06,0.00328096,0.0047947783374580055,-8.861779976498951e-09,0.0030409342885415747,0.00479246731212557,-5.833072987515564e-06,-0.006008198154582423
20,0.010585,339.053,324.651,0.275925,25.7433,-66.1402,0.11516,0.00528223,0.00527851,-0.00702963,-1.90477e-08,0.00385219,-9.87476e-06,0.00429094,0.005296205573448676,-1.9047699861829415e-08,0.0038596192204245483,0.005292465878519614,-9.874711244695078e-06,-0.007004979945106959
21,0.011585,337.736,323.719,0.392494,27.8961,-78.899,0.184173,0.0057811,0.00577575,-0.00803708,-3.43588e-08,0.00461569,-1.48537e-05,0.00532937,0.005797842807002684,-3.4358799361200454e-08,0.004626358705251077,0.005792461802937909,-1.4853589684338253e-05,-0.00800486902436448
22,0.012585,335.615,322.817,0.513912,29.4336,-90.5805,0.266504,0.00627987,0.00627275,-0.00904828,-5.52164e-08,0.00532414,-2.06763e-05,0.00639924,0.006299629724787481,-5.5216398453517e-08,0.005338338420311839,0.006292464896930694,-2.0676086246784742e-05,-0.009007467501585098
23,0.013585,332.968,322.002,0.642665,30.5153,-101.017,0.358389,0.00677848,0.0067695,-0.0100614,-8.15877e-08,0.00597496,-2.71984e-05,0.00750104,0.0068015058930051,-8.158769670973953e-08,0.005992845677826875,0.00679246485607643,-2.7198030126851513e-05,-0.010010953444438253
24,0.014585,330.102,321.36,0.769412,31.2598,-110.138,0.455528,0.00727687,0.007266,-0.0110742,-1.13087e-07,0.00656713,-3.42663e-05,0.00863301,0.007303410757320661,-1.1308699365830677e-07,0.006588740879469368,0.007292461428755503,-3.426571291709202e-05,-0.011013106774678816
25,0.015585,327.302,320.979,0.887499,31.7589,-117.976,0.554031,0.00777498,0.00776226,-0.0120849,-1.49049e-07,0.0071016,-4.1721e-05,0.00979169,0.007805283642827732,-1.490489889288682e-07,0.007126876159578632,0.007792464441150004,-4.172012969116956e-05,-0.012012170865576821
26,0.016585,324.791,320.922,0.993182,32.0845,-124.645,0.650932,0.00827279,0.00825827,-0.0130918,-1.88651e-07,0.00758131,-4.94114e-05,0.0109728,0.008307104086332284,-1.8865098216913623e-07,0.0076101208927394914,0.008292463573471132,-4.94101792768431e-05,-0.01300647514423714
27,0.017585,322.702,321.208,1.08608,32.292,-130.301,0.744342,0.00877027,0.00875404,-0.0140942,-2.31036e-07,0.00801069,-5.72047e-05,0.0121724,0.008808841496288577,-2.3103597335261128e-07,0.008042861424864656,0.008792468661657171,-5.7203063842381496e-05,-0.013995341750807744
28,0.018585,320.599,321.326,0.627017,32.4247,-135.081,0.821674,0.00926743,0.00924955,-0.0150998,-2.7777e-07,0.00839956,-6.55171e-05,0.0133926,0.009310505593255192,-2.777699614764373e-07,0.00843493528032635,0.009292459282749688,-6.551495380169303e-05,-0.014986369662795762
29,0.019585,320.002,322.755,1.27912,32.5103,-139.239,0.918966,0.00976421,0.00974483,-0.016084,-3.21126e-07,0.00874021,-7.26982e-05,0.0146129,0.009812035430905919,-3.21125948388179e-07,0.008778517158290366,0.009792465463292821,-7.269555754985113e-05,-0.015955343167695535
30,0.020585,318.993,323.574,0.974964,32.5734,-142.779,0.990319,0.0102607,0.0102399,-0.0170781,-3.69262e-07,0.00905325,-8.06046e-05,0.0158535,0.010313521489482058,-3.6926193180963907e-07,0.009094354617601441,0.010292507186784539,-8.060135153653558e-05,-0.01693309588854186
31,0.021585,318.665,324.866,0.967445,32.6278,-145.889,1.06397,0.0107568,0.0107346,-0.018064,-4.16559e-07,0.00933515,-8.80677e-05,0.0170989,0.010814862374817213,-4.165589132520964e-07,0.009378858415094449,0.010792422533955737,-8.806382215398312e-05,-0.017901823936347316
32,0.022585,318.818,326.45,1.10156,32.6827,-148.647,1.13661,0.0112526,0.0112292,-0.0190444,-4.63186e-07,0.00959095,-9.51846e-05,0.0183498,0.01131614864217978,-4.631858927517385e-07,0.009637090553559435,0.011292484121177448,-9.518007008968432e-05,-0.01886420115376297
33,0.023585,319.264,328.153,1.22471,32.7441,-151.112,1.20513,0.0117481,0.0117235,-0.0200221,-5.09606e-07,0.00982535,-0.000102084,0.0196066,0.01181737996363652,-5.096058701692385e-07,0.009873777226179437,0.011792489562242547,-0.0001020787896057751,-0.019822988844557132
34,0.024585,319.938,329.931,1.32148,32.8155,-153.337,1.26928,0.0122433,0.0122175,-0.0209978,-5.55727e-07,0.0100417,-0.00010877,0.0208688,0.01231855601114229,-5.557268455413933e-07,0.01009228705433074,0.012292438529314165,-0.00010876408475801735,-0.020778881146448658
35,0.025585,320.81,331.771,1.40501,32.8984,-155.368,1.3299,0.0127382,0.0127113,-0.0219716,-6.01404e-07,0.0102426,-0.000115236,0.0221354,0.012819676456538254,-6.014038191892723e-07,0.010295234980236545,0.012792431973681628,-0.00011522936058716571,-0.02173198253160602
36,0.026585,321.847,333.657,1.48104,32.993,-157.239,1.38738,0.0132328,0.0132049,-0.0229438,-6.46565e-07,0.0104303,-0.000121482,0.0234059,0.013320740971553668,-6.465647909292827e-07,0.010484885193958071,0.013292469717266275,-0.0001214746213605844,-0.0226825925317935
37,0.027585,323.036,335.561,1.54888,33.0934,-158.978,1.44419,0.0137272,0.0136982,-0.0239145,-6.92152e-07,0.0106067,-0.000127698,0.0246798,0.01382185060998542,-6.921517604618899e-07,0.010663150450239689,0.01379245020262565,-0.00012768984695743502,-0.0236308142453584
38,0.028585,324.628,337.819,1.96726,33.2097,-160.627,1.49866,0.0142212,0.0141913,-0.0248788,-7.35771e-07,0.0107712,-0.000133472,0.0259528,0.014322802329073792,-7.357707293431659e-07,0.010829418213637254,0.014292474530686938,-0.0001334630930088787,-0.02457187324666188
39,0.029585,325.755,339.538,1.76236,33.3376,-162.145,1.54251,0.014715,0.0146841,-0.0258514,-7.80581e-07,0.0109304,-0.000139329,0.0272353,0.01482379861466665,-7.805806953031791e-07,0.010990355067250546,0.014792441043766313,-0.0001393192941656629,-0.025520113438787684
40,0.030585,327.384,341.696,2.03911,33.4722,-163.612,1.59555,0.0152085,0.0151767,-0.0268159,-8.22134e-07,0.0110802,-0.000144538,0.0285145,0.015324737755849416,-8.221336620373165e-07,0.011141812766338077,0.015292450942551827,-0.0001445275548864755,-0.02645954617511248
41,0.031585,328.652,343.434,1.85153,33.6144,-164.988,1.63743,0.0157017,0.0156691,-0.0277865,-8.65384e-07,0.0112258,-0.000149939,0.0298011,0.015825619423776693,-8.653836255367864e-07,0.011289045732576719,0.015792504048367073,-0.00014992775970990024,-0.027404006119038926
42,0.032585,330.333,345.54,2.07669,33.7614,-166.33,1.68544,0.0161947,0.0161612,-0.0287502,-9.06083e-07,0.011364,-0.000154838,0.0310847,0.01632654492214214,-9.060825895135238e-07,0.011428815536567827,0.016292498553167167,-0.00015482601321559208,-0.0283408453898345
43,0.033585,331.714,347.303,1.93246,33.9137,-167.603,1.72358,0.0166874,0.016653,-0.0297188,-9.48314e-07,0.0114988,-0.000159907,0.0323743,0.01682741238939367,-9.483135503529638e-07,0.011565165330671867,0.016792434128036993,-0.00015989421555717698,-0.029281538795628004
44,0.034585,333.415,349.355,2.11837,34.0691,-168.851,1.76755,0.0171799,0.0171447,-0.030682,-9.88208e-07,0.0116277,-0.000164525,0.0336616,0.017328323229164777,-9.882075117095823e-07,0.01169556448452802,0.017292513902434914,-0.0001645114665044245,-0.030216084667915588
45,0.035585,334.87,351.13,2.01257,34.2281,-170.045,1.80359,0.0176721,0.017636,-0.031649,-1.02927e-06,0.0117539,-0.000169256,0.0349536,0.017829175479485704,-1.0292694703206706e-06,0.011823248521459107,0.017792432509465383,-0.00016924167701137804,-0.031153412443022055
46,0.036585,336.569,353.126,2.1657,34.3888,-171.22,1.84411,0.0181641,0.0181272,-0.0326116,-1.06842e-06,0.0118754,-0.000173617,0.0362439,0.018330070643927998,-1.0684194292620575e-06,0.011946192514850962,0.018292494957596883,-0.0001736019294408253,-0.03208557544617252
47,0.037585,338.069,354.901,2.09136,34.5516,-172.352,1.87834,0.0186558,0.0186181,-0.0335772,-1.10843e-06,0.0119946,-0.000178046,0.037538,0.01883090666010756,-1.108429385721088e-06,0.01206682369047396,0.0187924974589444,-0.00017803015075157358,-0.03301974252607209
48,0.038585,339.752,356.841,2.21742,34.7152,-173.468,1.91587,0.0191472,0.0191087,-0.0345393,-1.14686e-06,0.0121099,-0.00018217,0.0388308,0.019331683198358762,-1.1468593423824558e-06,0.012183521722757717,0.019292439683998186,-0.00018215340805305402,-0.03394962683921099
49,0.039585,341.275,358.606,2.16842,34.8798,-174.551,1.94845,0.0196384,0.0195991,-0.0355037,-1.18589e-06,0.0122232,-0.000186325,0.0401266,0.019832501912152134,-1.1858892968730217e-06,0.012298208612658401,0.01979242328237718,-0.00018630764257521193,-0.034880836717509967
50,0.040585,342.932,360.493,2.27248,35.0444,-175.619,1.98334,0.0201294,0.0200893,-0.0364655,-1.2236e-06,0.0123334,-0.000190225,0.0414215,0.02033336262183294,-1.2235992513653926e-06,0.012409770022168365,0.020292448074334057,-0.0001902069083719038,-0.03580864207563539
51,0.041585,344.464,362.242,2.24361,35.2093,-176.66,2.01436,0.0206201,0.0205793,-0.0374288,-1.26171e-06,0.0124416,-0.000194128,0.0427188,0.020834163064211264,-1.2617092040034805e-06,0.012519318685760616,0.020792513880007357,-0.00019410915837902998,-0.036737000395150377
52,0.042585,346.093,364.078,2.33019,35.3736,-177.688,2.047,0.0211106,0.021069,-0.0383901,-1.29875e-06,0.0125472,-0.000197823,0.0440156,0.02133500504264796,-1.2987491566640585e-06,0.01262624637149612,0.02129251839016666,-0.0001978034343205204,-0.03766254018469661
53,0.043585,347.622,365.806,2.31685,35.5377,-178.693,2.0766,0.0216008,0.0215584,-0.0393525,-1.33603e-06,0.012651,-0.000201503,0.0453143,0.021835786193551865,-1.3360291074571151e-06,0.012731362431298798,0.021792461274712016,-0.00020148269963404797,-0.03858824823385931
54,0.044585,349.22,367.595,2.38975,35.7009,-179.687,2.10726,0.0220908,0.0220476,-0.0403133,-1.37244e-06,0.0127526,-0.000205009,0.0466126,0.02233660842021168,-1.3724390581781876e-06,0.012834261164888838,0.02229244443267686,-0.00020498798709089883,-0.03951152902983568
55,0.045585,350.74,369.299,2.3883,35.8634,-180.662,2.13553,0.0225805,0.0225366,-0.0412749,-1.40895e-06,0.0128525,-0.000208485,0.0479124,0.022837369258639217,-1.4089490074642441e-06,0.01293544836179561,0.02279246768372567,-0.00020846326851264863,-0.040434690816198327
56,0.046585,352.306,371.044,2.45059,36.0249,-181.626,2.16445,0.02307,0.0230253,-0.0422352,-1.44474e-06,0.0129504,-0.000211815,0.0492121,0.023338170712047246,-1.4447389563576607e-06,0.013034619596542951,0.023292428518162156,-0.00021179256878667285,-0.04135571908010738
57,0.047585,353.812,372.722,2.45814,36.1854,-182.573,2.19149,0.0235593,0.0235138,-0.043196,-1.48053e-06,0.0130467,-0.000215105,0.050513,0.023839012599952136,-1.480528904029832e-06,0.0131321795278454,0.02379242898466427,-0.00021508186657825945,-0.04227634216706255
58,0.048585,355.347,374.425,2.5123,36.3447,-183.51,2.21886,0.0240483,0.0240021,-0.0441557,-1.51572e-06,0.0131412,-0.000218271,0.0518138,0.024339792307773278,-1.515718851319292e-06,0.013227925042715194,0.02429246890254766,-0.00021824718061835835,-0.043195028659260504
59,0.049585,356.834,376.075,2.52654,36.5029,-184.433,2.24473,0.024537,0.0244901,-0.0451157,-1.55085e-06,0.0132343,-0.000221391,0.0531156,0.02484050950455563,-1.5508487973825424e-06,0.013322260953805065,0.024792445611766967,-0.0002213664948209626,-0.04411312067706963
60,0.050585,358.34,377.74,2.57452,36.6598,-185.346,2.27072,0.0250255,0.0249779,-0.0460749,-1.58545e-06,0.0133257,-0.000224405,0.0544175,0.02534126639336054,-1.5854487431798958e-06,0.01341488284121195,0.025292461310650438,-0.0002243798230813221,-0.04502956777342282
61,0.051585,359.806,379.362,2.59366,36.8156,-186.246,2.29551,0.0255138,0.0254655,-0.0470342,-1.61994e-06,0.0134158,-0.000227368,0.0557202,0.025842062793230758,-1.6199386878579247e-06,0.01350619563573563,0.025792515818167105,-0.0002273421538552256,-0.04594523164066344
62,0.052585,361.282,380.991,2.63698,36.97,-187.137,2.32025,0.0260019,0.0259528,-0.0479928,-1.65399e-06,0.0135043,-0.000230239,0.0570229,0.02634289852309668,-1.653988632166481e-06,0.013595894903183359,0.026292506323917886,-0.00023021249703547575,-0.04685935033452304
63,0.053585,362.727,382.585,2.65965,37.1232,-188.016,2.34402,0.0264897,0.0264398,-0.0489514,-1.68787e-06,0.0135915,-0.000233058,0.0583263,0.026843670717404677,-1.687868575572793e-06,0.01368428431894153,0.026792432496640206,-0.00023303084409398434,-0.04777259317406668
64,0.054585,364.175,384.179,2.69949,37.275,-188.887,2.36764,0.0269772,0.0269267,-0.0499094,-1.72137e-06,0.0136773,-0.000235796,0.0596299,0.027344379044617728,-1.721368518392552e-06,0.01377126216183222,0.027292499463446473,-0.00023576820230808426,-0.048684390209291495
65,0.055585,365.597,385.745,2.72465,37.4256,-189.747,2.39045,0.0274645,0.0274133,-0.0508673,-1.75468e-06,0.0137618,-0.000238482,0.0609339,0.02784512595760269,-1.7546784605304566e-06,0.013856929452876976,0.027792501634347655,-0.0002384535654282871,-0.04959521912075693
66,0.056585,367.018,387.307,2.76188,37.5748,-190.598,2.41305,0.0279516,0.0278996,-0.0518247,-1.78765e-06,0.013845,-0.000241095,0.0622381,0.028345911274819002,-1.7876484021961403e-06,0.013941285858585228,0.028292438677732124,-0.0002410659389360248,-0.050504701219419745
67,0.057585,368.417,388.846,2.78877,37.7228,-191.44,2.43497,0.0284384,0.0283858,-0.0527819,-1.82042e-06,0.0139269,-0.000243657,0.0635428,0.028846631929946742,-1.8204183430681198e-06,0.01402433105055123,0.028792516020368142,-0.00024362731804394855,-0.05141312327925418
68,0.058585,369.812,390.378,2.82403,37.8695,-192.274,2.45664,0.028925,0.0288717,-0.0537386,-1.85286e-06,0.0140076,-0.000246154,0.0648476,0.029347390525729544,-1.8528582834687057e-06,0.01410616611606752,0.02929252777191982,-0.0002461237065898292,-0.052320202373742575
69,0.059585,371.189,391.889,2.85208,38.0149,-193.099,2.47772,0.0294114,0.0293573,-0.0546951,-1.8851e-06,0.0140871,-0.0002486,0.0661527,0.029848186880281125,-1.8850982231866098e-06,0.014186790761060886,0.029792473600428693,-0.00024856910158055356,-0.0532262247259061
70,0.060585,372.559,393.392,2.88588,38.1591,-193.916,2.49853,0.0298975,0.0298427,-0.0556512,-1.91705e-06,0.0141655,-0.000250988,0.067458,0.03034891777670823,-1.91704816243643e-06,0.014266306122417971,0.030292456203075302,-0.00025095650514694867,-0.05413100253449077
71,0.061585,373.913,394.877,2.91465,38.302,-194.725,2.51883,0.0303834,0.0303279,-0.056607,-1.94878e-06,0.0142427,-0.000253327,0.0687636,0.030849685967635265,-1.9487781011129357e-06,0.014344610503761013,0.030792475397672048,-0.00025329491542491755,-0.05503463220885407
72,0.062585,375.259,396.352,2.94734,38.4437,-195.526,2.53885,0.030869,0.0308129,-0.0575624,-1.98025e-06,0.0143187,-0.000255612,0.0700693,0.03135038813578839,-1.9802480393238397e-06,0.014421703623660687,0.031292531001921864,-0.00025557933403608235,-0.05593702098148412
73,0.063585,376.591,397.812,2.97655,38.5841,-196.32,2.55843,0.0313544,0.0312976,-0.0585175,-2.01149e-06,0.0143937,-0.000257851,0.0713753,0.03185112713371274,-2.011487976960602e-06,0.014497788104564702,0.031792519654159745,-0.00025781775928801487,-0.05683826507511702
74,0.064585,377.914,399.261,3.00838,38.7234,-197.106,2.57771,0.0318396,0.031782,-0.0594723,-2.04248e-06,0.0144676,-0.000260039,0.0726813,0.032351902778945174,-2.04247791413259e-06,0.014572762261366723,0.03229244102186013,-0.0002600051927896807,-0.057738366123002205
75,0.065585,379.224,400.695,3.03781,38.8615,-197.884,2.5966,0.0323245,0.0322663,-0.0604267,-2.07325e-06,0.0145404,-0.000262184,0.0739876,0.032852611603646276,-2.073247850842286e-06,0.014646625847061223,0.032792501330876966,-0.0002621496327785966,-0.058637231619529606
76,0.066585,380.525,402.12,3.06896,38.9984,-198.656,2.61522,0.0328092,0.0327503,-0.0613807,-2.10379e-06,0.0146121,-0.000264283,0.075294,0.033353356610239526,-2.103787787088862e-06,0.014719378618290202,0.033292493889959696,-0.0002642480803242142,-0.05953486346209658
77,0.067585,381.815,403.53,3.09854,39.1342,-199.421,2.6335,0.0332937,0.0332341,-0.0623344,-2.13412e-06,0.0146829,-0.000266341,0.0766005,0.0338541376159196,-2.1341177227629515e-06,0.014791223293567857,0.03379252174548886,-0.00026630553438455884,-0.06043135750167994
78,0.068585,383.095,404.93,3.12906,39.2688,-200.179,2.65149,0.0337779,0.0337176,-0.0632877,-2.16423e-06,0.0147526,-0.000268357,0.0779071,0.034354851002281306,-2.164227658085771e-06,0.01486195670686219,0.03429248128523188,-0.0002683209954810195,-0.061326621493192124
79,0.069585,384.364,406.318,3.15861,39.4024,-200.93,2.66918,0.0342619,0.0342009,-0.0642407,-2.19413e-06,0.0148213,-0.000270333,0.0792139,0.03485559992162979,-2.194127592947126e-06,0.014931680118259738,0.03479247565534416,-0.0002702964633269911,-0.06222075110247893
80,0.070585,385.624,407.694,3.18872,39.5348,-201.675,2.6866,0.0347456,0.034684,-0.0651934,-2.22381e-06,0.0148891,-0.000272269,0.0805207,0.03535628065518526,-2.223807527346189e-06,0.015000494818963706,0.03529250467261735,-0.0002722319381595062,-0.06311374794631397
81,0.071585,386.873,409.059,3.21813,39.6662,-202.414,2.70372,0.0352291,0.0351668,-0.0661457,-2.25328e-06,0.0149559,-0.000274167,0.0818276,0.03585699645517226,-2.2532774613948092e-06,0.01506829911665597,0.03579246457448204,-0.0002741294196625388,-0.06400552003946869
82,0.072585,388.113,410.414,3.24788,39.7966,-203.146,2.72059,0.0357124,0.0356494,-0.0670976,-2.28254e-06,0.0150218,-0.000276027,0.0831345,0.0363577471382146,-2.282537394981965e-06,0.015135194321740597,0.03629245865675368,-0.00027598890805247134,-0.06489606926079627
83,0.073585,389.363,411.752,3.28031,39.9179,-203.872,2.74014,0.0361954,0.0361318,-0.0680489,-2.31391e-06,0.0150866,-0.000278148,0.0844419,0.036858428834978474,-2.313907322859521e-06,0.015200977213675193,0.03679248673588553,-0.0002781093204313745,-0.06578521064295606
84,0.074585,390.573,413.082,3.3025,40.0487,-204.592,2.75595,0.0366782,0.0366139,-0.0690002,-2.34276e-06,0.0151506,-0.000279934,0.085749,0.03735914494756343,-2.342757255746619e-06,0.015265952155392837,0.037292444898972876,-0.0002798948221336417,-0.06667350658711535
85,0.075585,391.787,414.413,3.33799,40.1777,-205.306,2.7722,0.0371608,0.0370958,-0.0699509,-2.3712e-06,0.0152137,-0.000281662,0.087056,0.03785989529225442,-2.3711971887108163e-06,0.015330017458212941,0.037792436591491896,-0.0002816223369828119,-0.06756039843356376
86,0.076585,392.982,415.722,3.36227,40.3053,-206.014,2.78783,0.0376431,0.0375775,-0.0709015,-2.39958e-06,0.015276,-0.000283371,0.0883631,0.038360575849164746,-2.399577121003915e-06,0.015393274488736619,0.038292461629559904,-0.00028333085423026816,-0.06844635435724689
87,0.077585,394.177,417.03,3.39521,40.4315,-206.718,2.80341,0.0381252,0.038059,-0.0718515,-2.42771e-06,0.0153373,-0.000285041,0.0896701,0.038861290170270735,-2.4277070531653067e-06,0.015455520004268308,0.038792519829184746,-0.0002850003796737166,-0.06933091009010839
88,0.078585,395.357,418.32,3.42092,40.5565,-207.415,2.81864,0.0386071,0.0385402,-0.0728013,-2.4557e-06,0.0153979,-0.000286686,0.0909772,0.039362038071519834,-2.455696984760003e-06,0.015517058473377476,0.03929250707701071,-0.0002866449094954815,-0.07021443993695975
89,0.079585,396.534,419.606,3.45216,40.6804,-208.107,2.83377,0.0390887,0.0390212,-0.0737507,-2.48346e-06,0.0154575,-0.000288297,0.0922843,0.039862715382474434,-2.4834569162246467e-06,0.015577585093737856,0.03979252701807012,-0.0002882554464131992,-0.07109675944433946
90,0.080585,397.699,420.878,3.47873,40.8032,-208.794,2.84861,0.0395701,0.0395019,-0.0746997,-2.51107e-06,0.0155164,-0.000289881,0.0935913,0.04036342580498853,-2.51106684723279e-06,0.01563740437516037,0.04029247543878367,-0.00028983898856249635,-0.07197787046631943
91,0.081585,398.859,422.144,3.5088,40.9251,-209.476,2.86332,0.0400512,0.0399824,-0.0756483,-2.53848e-06,0.0155744,-0.000291434,0.0948983,0.04086406506826168,-2.5384767781133633e-06,0.015696313052949273,0.040792456083962314,-0.00029139153723700684,-0.07285777485376288
92,0.082585,400.008,423.398,3.53586,41.046,-210.152,2.87778,0.0405322,0.0404627,-0.0765966,-2.56572e-06,0.0156316,-0.00029296,0.0962053,0.04136484111054273,-2.5657167085357813e-06,0.01575441254368548,0.04129246876905346,-0.0002929170914094392,-0.07373656708067844
93,0.083585,401.151,424.644,3.56509,41.1659,-210.823,2.8921,0.0410129,0.0409428,-0.0775445,-2.59278e-06,0.015688,-0.000294458,0.0975122,0.04186554552432886,-2.5927766387212614e-06,0.01581170270812038,0.041792513309396595,-0.0002944146514980428,-0.07461415618967393
94,0.084585,402.284,425.881,3.59238,41.285,-211.489,2.90621,0.0414933,0.0414226,-0.078492,-2.61966e-06,0.0157436,-0.00029593,0.098819,0.042366177974685115,-2.6196565686698037e-06,0.015868183408939807,0.042292485290969406,-0.00029588621703657836,-0.07549054402238331
95,0.085585,403.411,427.109,3.621,41.4032,-212.151,2.92016,0.0419735,0.0419022,-0.0794392,-2.64637e-06,0.0157985,-0.000297375,0.100126,0.04286684241325944,-2.6463664983822355e-06,0.015923956103155446,0.04279248865813834,-0.0002973307884373,-0.07636582478067722
96,0.086585,404.529,428.329,3.64835,41.5205,-212.807,2.93392,0.0424535,0.0423816,-0.0803859,-2.67291e-06,0.0158526,-0.000298796,0.101433,0.043367538655102456,-2.6729064277475345e-06,0.015978919075915643,0.04329252322591026,-0.0002987513649208573,-0.07723981548558168
97,0.087585,405.641,429.54,3.6765,41.637,-213.459,2.94753,0.0429333,0.0428607,-0.0813323,-2.69927e-06,0.0159059,-0.00030019,0.102739,0.04386826651515685,-2.699266356986918e-06,0.016033072195470233,0.04379248442993089,-0.0003001449474901996,-0.0781127026088676
98,0.088585,406.744,430.743,3.70382,41.7527,-214.106,2.96096,0.0434128,0.0433396,-0.0822783,-2.72548e-06,0.0159585,-0.000301561,0.104046,0.04436892137136006,-2.7254762858808235e-06,0.016086516940652107,0.044292476364237165,-0.0003015155350518661,-0.07898439561639936
99,0.089585,407.841,431.937,3.73159,41.8676,-214.749,2.97424,0.0438921,0.0438183,-0.083224,-2.75151e-06,0.0160103,-0.000302908,0.105352,0.04486960737518908,-2.7515062146488134e-06,0.016139151585455203,0.04479249884350467,-0.00030286212800356704,-0.079854988348807
100,0.090585,408.93,433.124,3.75881,41.9817,-215.387,2.98736,0.0443711,0.0442967,-0.0841692,-2.77738e-06,0.0160614,-0.000304232,0.106658,0.04537021980422673,-2.777376143070498e-06,0.016191077622800254,0.04529244715305181,-0.0003041857261378844,-0.08072429851311569
101,0.091585,410.012,434.302,3.78626,42.095,-216.02,3.00034,0.04485,0.044775,-0.0851141,-2.80309e-06,0.0161118,-0.000305532,0.107965,0.04587096749695574,-2.8030860713679218e-06,0.016242294943777935,0.04579253011583195,-0.00030548532985164023,-0.08159251187145178
102,0.092585,411.087,435.473,3.81333,42.2076,-216.65,3.01317,0.0453286,0.045253,-0.0860586,-2.82863e-06,0.0161615,-0.000306811,0.109271,0.046371641143646336,-2.828625999429235e-06,0.0162928034409624,0.046292538437695985,-0.0003067639383182996,-0.08245953822633834
103,0.093585,412.155,436.636,3.84051,42.3194,-217.274,3.02585,0.0458069,0.0457307,-0.0870027,-2.85402e-06,0.0162105,-0.000308068,0.110577,0.04687224040837612,-2.8540159272560928e-06,0.016342603008410617,0.04679247178288026,-0.0003080205519262469,-0.08332537939166462
104,0.094585,413.216,437.791,3.86741,42.4305,-217.895,3.0384,0.0462851,0.0462083,-0.0879465,-2.87925e-06,0.0162588,-0.000309303,0.111883,0.047372974429701786,-2.8792458549586897e-06,0.01639169354166259,0.04729253927401511,-0.0003092551707584157,-0.08419012875917797
105,0.095585,414.27,438.939,3.89434,42.5408,-218.512,3.05081,0.046763,0.0466856,-0.0888898,-2.90433e-06,0.0163064,-0.000310518,0.113188,0.047873633597161014,-2.904325782426831e-06,0.016440074937743354,0.047792531316619424,-0.00031046979427551413,-0.08505360488817537
106,0.096585,415.318,440.079,3.92105,42.6505,-219.124,3.06309,0.0472406,0.0471626,-0.0898328,-2.92925e-06,0.0163533,-0.000311712,0.114494,0.04837421757450544,-2.9292457097707114e-06,0.01648774709516121,0.048292447574606046,-0.00031166342286204074,-0.0859159926590255
107,0.097585,416.359,441.213,3.94774,42.7594,-219.732,3.07524,0.0477181,0.0476395,-0.0907754,-2.95402e-06,0.0163996,-0.000312886,0.115799,0.04887493580035973,-2.9540156368801362e-06,0.01653481156738601,0.0487924974702747,-0.0003128370562802685,-0.08677720229247976
108,0.098585,417.394,442.339,3.97427,42.8676,-220.336,3.08726,0.0481953,0.0481161,-0.0917176,-2.97864e-06,0.0164453,-0.000314041,0.117104,0.049375578363538786,-2.9786355638661277e-06,0.016581268269802107,0.04929247110882318,-0.00031399169428658613,-0.08763723558717085
109,0.099585,418.422,443.458,4.00074,42.9752,-220.937,3.09916,0.0486723,0.0485925,-0.0926594,-3.00312e-06,0.0164902,-0.000315177,0.11841,0.04987624991509021,-3.003115490618491e-06,0.0166269137934818,0.04979247313308499,-0.00031512733694705197,-0.08849609433862571
110,0.1006,419.444,444.57,4.02707,43.0821,-221.533,3.11095,0.049149,0.0490687,-0.0936008,-3.02744e-06,0.0165346,-0.000316294,0.119714,0.05037684523083841,-3.0274354173576157e-06,0.01667205303053776,0.05029250335653801,-0.00031624398432616996,-0.08935378033927222
111,0.1016,420.46,445.675,4.05332,43.1883,-222.126,3.12261,0.0496255,0.0495446,-0.0945419,-3.05162e-06,0.0165783,-0.000317392,0.121019,0.050877469061746394,-3.051615343863112e-06,0.016716482570033664,0.05079245651330311,-0.0003173416364876669,-0.09021038635741063
112,0.1026,421.47,446.773,4.07945,43.2938,-222.715,3.13416,0.0501018,0.0500204,-0.0954826,-3.07565e-06,0.0166214,-0.000318472,0.122324,0.0513781212211073,-3.0756452702451753e-06,0.01676030399477746,0.05129254252514004,-0.0003184212931756081,-0.09106582302924315
113,0.1036,422.473,447.865,4.1055,43.3987,-223.3,3.14561,0.0505779,0.0504958,-0.0964228,-3.09954e-06,0.0166639,-0.000319535,0.123628,0.051878801522108775,-3.09953519639361e-06,0.01680351722597173,0.051792445817454125,-0.00031948395412906283,-0.09192000133028899
114,0.1046,423.471,448.95,4.13144,43.503,-223.882,3.15694,0.0510537,0.0509711,-0.0973627,-3.12329e-06,0.0167057,-0.00032058,0.124932,0.052379404539886876,-3.1232851225304614e-06,0.016846020501304126,0.05229248159103905,-0.00032052861972242663,-0.09277310474228673
115,0.1056,424.463,450.028,4.15728,43.6066,-224.46,3.16817,0.0515293,0.0514462,-0.0983022,-3.1469e-06,0.016747,-0.000321609,0.126236,0.05288003522522633,-3.1468950485447067e-06,0.016888017109174758,0.052792544529587815,-0.0003215572893692231,-0.09362504414918049
116,0.1066,425.449,451.101,4.18302,43.7096,-225.034,3.17929,0.0520047,0.051921,-0.0992413,-3.17037e-06,0.0167877,-0.00032262,0.12754,0.053380693390989054,-3.170364974436346e-06,0.016929405293715005,0.05329252911667859,-0.00032256796376395336,-0.09447582132527133
117,0.1076,426.429,452.166,4.20867,43.812,-225.605,3.19031,0.0524799,0.0523956,-0.10018,-3.19371e-06,0.0168277,-0.000323616,0.128844,0.053881378849931716,-3.1937049000951845e-06,0.016970083283481152,0.05379254039428827,-0.00032356364199037646,-0.09532543804180016
118,0.1086,427.404,453.226,4.23422,43.9138,-226.172,3.20123,0.0529548,0.0528699,-0.101118,-3.2169e-06,0.0168672,-0.000324595,0.130147,0.054381985976501346,-3.216894825741612e-06,0.01701025439514492,0.054292472745782305,-0.0003245423247425494,-0.09617362491908221
119,0.1096,428.373,454.28,4.25967,44.015,-226.736,3.21206,0.0534295,0.0533441,-0.102056,-3.23996e-06,0.0169062,-0.000325558,0.13145,0.05488261992130994,-3.239954751377283e-06,0.01704991856851268,0.05479253679217311,-0.00032550501174477553,-0.09702101657009277
120,0.1106,429.336,455.327,4.28503,44.1156,-227.297,3.22279,0.0539039,0.053818,-0.102994,-3.26289e-06,0.0169445,-0.000326506,0.132753,0.055383174958467896,-3.2628846767801534e-06,0.017088872326353588,0.05529252143736341,-0.00032645270271680626,-0.09786761374040431
121,0.1116,430.294,456.368,4.31029,44.2156,-227.854,3.23343,0.0543782,0.0542917,-0.103931,-3.28568e-06,0.0169823,-0.000327438,0.134056,0.055883861926878886,-3.28567460217144e-06,0.017127319012365305,0.05579253192290179,-0.0003273843980287072,-0.09871251588785701
122,0.1126,431.247,457.404,4.33546,44.3151,-228.408,3.24398,0.0548522,0.0547651,-0.104868,-3.30834e-06,0.0170195,-0.000328356,0.135358,0.056384469512057,-3.308334527440948e-06,0.017165156852412045,0.05629246243172914,-0.00032830209706857794,-0.09955662673278065
123,0.1136,432.194,458.433,4.36053,44.4139,-228.959,3.25444,0.055326,0.0552384,-0.105804,-3.33087e-06,0.0170562,-0.000329258,0.13666,0.05688510306443506,-3.3308644526997e-06,0.017202487498681807,0.056792523984429355,-0.00032920380053336196,-0.10039904741577566
124,0.1146,433.137,459.457,4.38551,44.5123,-229.507,3.26482,0.0557995,0.0557114,-0.10674,-3.35328e-06,0.0170924,-0.000330147,0.137962,0.057385656657447104,-3.3532743777264784e-06,0.017239310895228677,0.05729250508448258,-0.00033009250747617624,-0.10124067996191699
125,0.1156,434.074,460.475,4.41044,44.61,-230.051,3.27514,0.0562729,0.0561842,-0.107676,-3.37557e-06,0.017128,-0.000331023,0.139264,0.05788634153006744,-3.375564302743328e-06,0.017275525259308422,0.05779251117301154,-0.00033096821793165976,-0.10208152510855562
126,0.1166,435.006,461.488,4.43516,44.7072,-230.593,3.28537,0.056746,0.0566568,-0.108611,-3.39774e-06,0.0171631,-0.000331886,0.140565,0.05838694596688754,-3.3977342276392264e-06,0.017311232256899123,0.058292542061784136,-0.0003318309319337853,-0.10292068651348762
127,0.1176,435.933,462.495,4.45992,44.8038,-231.131,3.29552,0.0572189,0.0571291,-0.109546,-3.41979e-06,0.0171976,-0.000332735,0.141867,0.058887575518162816,-3.419784152525196e-06,0.017346330099846208,0.058792491683209436,-0.00033267964984906584,-0.10375906366919974
128,0.1186,436.874,463.493,4.48821,44.8914,-231.666,3.30827,0.0576915,0.0576012,-0.11048,-3.44416e-06,0.0172316,-0.000333838,0.143168,0.05938812405665583,-3.4441540688323613e-06,0.017380920463102578,0.05929246562809665,-0.00033378228229530293,-0.10459576190483177
129,0.1196,437.799,464.481,4.50794,44.9815,-232.198,3.32058,0.0581639,0.0580731,-0.111414,-3.46817e-06,0.0172651,-0.000334899,0.144469,0.059888697232535426,-3.4681639858868962e-06,0.017415003294822373,0.059792463707894816,-0.0003348429275895626,-0.10543167902914741
130,0.1206,438.722,465.473,4.53504,45.073,-232.726,3.33269,0.0586361,0.0585448,-0.112347,-3.49175e-06,0.017298,-0.000335914,0.14577,0.06038929485716604,-3.4917439037940312e-06,0.017448476799066803,0.0602924857339493,-0.00033585758720910963,-0.10626592203773311
131,0.1216,439.633,466.455,4.55684,45.1655,-233.252,3.34445,0.0591081,0.0590163,-0.11328,-3.51505e-06,0.0173304,-0.000336896,0.14707,0.060889916741809325,-3.5150438222331104e-06,0.017481442663759283,0.060792531517502635,-0.00033683925691496697,-0.10709938706057864
132,0.1226,440.541,467.436,4.58267,45.2583,-233.775,3.356,0.0595799,0.0594875,-0.114213,-3.53805e-06,0.0173624,-0.000337846,0.148371,0.06139056269762211,-3.5380437410914567e-06,0.01751400259088043,0.0612924947404383,-0.00033778893646652097,-0.10793207482320599
133,0.1236,441.441,468.41,4.60542,45.3512,-234.294,3.3673,0.0600514,0.0599585,-0.115145,-3.56084e-06,0.0173938,-0.000338772,0.14967,0.061891126346540926,-3.5608336602654944e-06,0.017545953032181094,0.061792481243039266,-0.00033871462324541746,-0.10876309481400137
134,0.1246,442.337,469.382,4.63036,45.4439,-234.812,3.37851,0.0605227,0.0604293,-0.116077,-3.58342e-06,0.0174248,-0.000339676,0.15097,0.062391713588505704,-3.583413579533179e-06,0.01757749744566106,0.06229249083623101,-0.00033961831663886777,-0.10959334065497528
135,0.1256,443.227,470.346,4.65351,45.5359,-235.326,3.38964,0.0609938,0.0608999,-0.117009,-3.60589e-06,0.0174553,-0.000340567,0.152269,0.0628923242343562,-3.605883498791762e-06,0.017608534032638623,0.0627925233308364,-0.00034050901364224284,-0.11042281306729906
136,0.1266,444.098,471.31,4.67535,45.6343,-235.838,3.39828,0.0614646,0.0613702,-0.11794,-3.62636e-06,0.0174854,-0.000341244,0.153568,0.06339285175553888,-3.626353424768247e-06,0.017639164510499405,0.06329247220832235,-0.0003411857828885534,-0.11125062402254082
137,0.1276,444.971,472.272,4.70232,45.7305,-236.348,3.40717,0.0619353,0.0618404,-0.118871,-3.64664e-06,0.017515,-0.000341902,0.154867,0.06389350859120291,-3.6466333510620785e-06,0.017669287075580797,0.0637925498878038,-0.0003418435581717949,-0.11207766464442914
138,0.1286,445.837,473.224,4.72443,45.8251,-236.856,3.41589,0.0624057,0.0623103,-0.119801,-3.66689e-06,0.0175441,-0.000342556,0.156165,0.0643940818232378,-3.6668832770203608e-06,0.017698901682725143,0.06429254347128843,-0.0003424973343923998,-0.11290304855330269
139,0.1296,446.703,474.173,4.7497,45.9182,-237.36,3.42464,0.0628759,0.0627799,-0.120731,-3.68702e-06,0.0175729,-0.000343201,0.157463,0.0648946776013557,-3.687013202968714e-06,0.017728211833157648,0.06479245261918343,-0.0003431421132736867,-0.11372766521196764
140,0.1306,447.564,475.114,4.77233,46.0103,-237.863,3.43331,0.0633458,0.0632494,-0.121661,-3.70708e-06,0.0176011,-0.000343838,0.15876,0.06539518919635001,-3.7070731288002534e-06,0.01775691217340425,0.06529249005028981,-0.00034377889448933274,-0.11455151533363495
141,0.1316,448.423,476.051,4.7967,46.1013,-238.363,3.44198,0.0638156,0.0637187,-0.12259,-3.72704e-06,0.0176289,-0.000344464,0.160058,0.06589582944742145,-3.7270330546235186e-06,0.017785206208847937,0.06579254914555932,-0.00034440467908780636,-0.11537371500500992
142,0.1326,449.277,476.982,4.81959,46.1916,-238.86,3.45059,0.0642851,0.0641877,-0.123519,-3.7469e-06,0.0176563,-0.000345083,0.161355,0.06639638503557643,-3.7468929803274875e-06,0.017813093905557853,0.06629252308583311,-0.0003450234657098594,-0.1161951512075764
143,0.1336,450.128,477.91,4.8434,46.2811,-239.354,3.45917,0.0647544,0.0646565,-0.124448,-3.76666e-06,0.0176832,-0.000345692,0.162651,0.06689696231034392,-3.7666529061342047e-06,0.01784047344603712,0.0667925182103557,-0.0003456322554051816,-0.11701582465026761
144,0.1346,450.975,478.832,4.86636,46.37,-239.846,3.46771,0.0652235,0.0651251,-0.125376,-3.78633e-06,0.0177096,-0.000346293,0.163948,0.06739756108162553,-3.786322831822453e-06,0.017867344789236128,0.06729253432901605,-0.00034623304749969996,-0.11783485387665316
145,0.1356,451.819,479.749,4.88979,46.4583,-240.336,3.47621,0.0656923,0.0655934,-0.126304,-3.80589e-06,0.0177357,-0.000346885,0.165244,0.06789807436940865,-3.805882757612622e-06,0.017893911473628954,0.06779246447234888,-0.0003468248423544873,-0.11865312339647505
146,0.1366,452.659,480.662,4.91272,46.5461,-240.823,3.48466,0.0661609,0.0660616,-0.127231,-3.82536e-06,0.0177612,-0.000347468,0.16654,0.06839860867308634,-3.825352683284322e-06,0.017919868099317116,0.06829252195853752,-0.00034740763998575286,-0.11946975338460752
147,0.1376,453.495,481.571,4.93586,46.6334,-241.308,3.49308,0.0666293,0.0665295,-0.128158,-3.84473e-06,0.0177864,-0.000348041,0.167835,0.06889916380224825,-3.8447226090587705e-06,0.017945520003205706,0.06879249298866297,-0.00034798044075701196,-0.12028562670750953
148,0.1386,454.327,482.475,4.9587,46.7202,-241.79,3.50145,0.0670975,0.0669972,-0.129084,-3.864e-06,0.0178111,-0.000348607,0.16913,0.06939973956638257,-3.8639925347139226e-06,0.017970663568071643,0.06929248415145306,-0.0003485462436400022,-0.12109986516658933
149,0.1396,455.156,483.375,4.98162,46.8065,-242.269,3.50979,0.0675655,0.0674647,-0.130011,-3.88318e-06,0.0178354,-0.000349163,0.170425,0.06990033577487553,-3.88317246047265e-06,0.01799540055574944,0.06979249525628273,-0.00034910204969373915,-0.12191422807605423
150,0.1406,455.981,484.27,5.00434,46.8924,-242.747,3.51808,0.0680332,0.067932,-0.130936,-3.90225e-06,0.0178593,-0.000349711,0.17172,0.07040084519692202,-3.902242386222277e-06,0.018019730936569722,0.07029252611242631,-0.00034964985823571215,-0.12272608187481504
151,0.1416,456.802,485.161,5.02707,46.9779,-243.222,3.52633,0.0685008,0.068399,-0.131862,-3.92123e-06,0.0178827,-0.00035025,0.173014,0.07090148167182209,-3.921222311964456e-06,0.01804355287698911,0.07079246944980411,-0.0003501886696293255,-0.12353806151840296
152,0.1426,457.62,486.048,5.04966,47.063,-243.694,3.53455,0.0689681,0.0688659,-0.132787,-3.94011e-06,0.0179058,-0.000350781,0.174308,0.07140203087842067,-3.940102237809384e-06,0.01806706995468188,0.07129253918598577,-0.0003507194835381533,-0.12434841396571172
153,0.1436,458.434,486.931,5.07221,47.1476,-244.165,3.54272,0.0694351,0.0693325,-0.133711,-3.95889e-06,0.0179284,-0.000351304,0.175601,0.07190249247552849,-3.958882163646038e-06,0.018090078530458742,0.07179252092143762,-0.0003512422999751852,-0.1251571423411585
154,0.1446,459.244,487.81,5.09465,47.2319,-244.633,3.55085,0.069902,0.0697989,-0.134635,-3.97758e-06,0.0179507,-0.000351818,0.176895,0.07240308060246958,-3.977572089475245e-06,0.018112782192354793,0.0722925215442769,-0.0003517561193046026,-0.12596512379671654
155,0.1456,460.05,488.685,5.11704,47.3157,-245.099,3.55894,0.0703686,0.0702651,-0.135559,-3.99617e-06,0.0179725,-0.000352323,0.178187,0.07290358063745628,-3.9961620152961785e-06,0.018134977292932453,0.0727925408632677,-0.0003522609415402833,-0.12677235902222106
156,0.1466,460.853,489.556,5.13934,47.3992,-245.562,3.567,0.0708351,0.070731,-0.136482,-4.01466e-06,0.0179939,-0.000352821,0.17948,0.07340420691982508,-4.01465194121986e-06,0.018156765614580683,0.07329247135782158,-0.0003527587659903908,-0.12757797628528256
157,0.1476,461.652,490.423,5.16157,47.4823,-246.024,3.57501,0.0713013,0.0711968,-0.137405,-4.03306e-06,0.018015,-0.00035331,0.180772,0.07390474462736507,-4.033051867247117e-06,0.018178248948983455,0.07379252744500153,-0.0003532475933717416,-0.12838285030666907
158,0.1486,462.448,491.286,5.18372,47.565,-246.483,3.58299,0.0717672,0.0716623,-0.138328,-4.05137e-06,0.0180356,-0.000353792,0.182064,0.07440519341838048,-4.051361793266928e-06,0.018199223636950368,0.07429249422476691,-0.00035372942299027876,-0.12918698177207621
159,0.1496,463.24,492.145,5.2058,47.6474,-246.94,3.59093,0.072233,0.0721276,-0.13925,-4.06958e-06,0.0180559,-0.000354265,0.183355,0.07490576793222825,-4.069571719278464e-06,0.0182198932909865,0.0747924788347285,-0.00035420225556448415,-0.1299895013565031
160,0.1506,464.029,493.0,5.22781,47.7293,-247.395,3.59884,0.0726986,0.0725927,-0.140172,-4.08769e-06,0.0180758,-0.00035473,0.184647,0.07540636058670414,-4.087681645392749e-06,0.018240156068477065,0.07529248108314412,-0.0003546670907523808,-0.13079128135887297
161,0.1516,464.814,493.852,5.24974,47.8109,-247.848,3.6067,0.0731639,0.0730576,-0.141093,-4.10571e-06,0.0180953,-0.000355188,0.185937,0.07590686359928078,-4.105701571610609e-06,0.018260011945114396,0.0757925007781719,-0.0003551249282099933,-0.13159145405265438
162,0.1526,465.596,494.7,5.2716,47.8922,-248.299,3.61453,0.073629,0.0735223,-0.142014,-4.12364e-06,0.0181145,-0.000355638,0.187228,0.07640738426859994,-4.123631497821023e-06,0.01827956272503073,0.07629253772787026,-0.00035557476830261336,-0.13239089012665028
163,0.1536,466.375,495.544,5.29338,47.9731,-248.748,3.62232,0.0740939,0.0739867,-0.142935,-4.14147e-06,0.0181333,-0.00035608,0.188518,0.07690792240262034,-4.141461424134185e-06,0.01829870656076138,0.07679248406094463,-0.0003560166110408991,-0.13318959025897514
164,0.1546,467.15,496.384,5.31509,48.0536,-249.195,3.63008,0.0745586,0.074451,-0.143855,-4.15921e-06,0.0181517,-0.000356514,0.189808,0.0774084778092019,-4.159201350550923e-06,0.01831744342934072,0.07729255489375442,-0.00035645045643550866,-0.1339866891142415
165,0.1556,467.922,497.221,5.33674,48.1338,-249.64,3.6378,0.075023,0.074915,-0.144775,-4.17685e-06,0.0181697,-0.000356941,0.191097,0.07790894250520441,-4.1768412769593866e-06,0.018335773308290948,0.07779253462555258,-0.00035687730414002417,-0.13478305497578968
166,0.1566,468.69,498.054,5.35831,48.2136,-250.082,3.64549,0.0754872,0.0753788,-0.145694,-4.19441e-06,0.0181874,-0.00035736,0.192386,0.07840942398908068,-4.194401203472253e-06,0.01835379801099668,0.07829253074324871,-0.0003572961545207365,-0.13557782409592034
167,0.1576,469.455,498.883,5.37981,48.293,-250.523,3.65314,0.0759513,0.0758424,-0.146613,-4.21187e-06,0.0182047,-0.000357772,0.193675,0.07891002995938412,-4.211861130087868e-06,0.018371415684094616,0.07879254305439964,-0.0003577080072298955,-0.13637186315874228
168,0.1586,470.217,499.709,5.40124,48.3722,-250.962,3.66075,0.0764151,0.0763057,-0.147532,-4.22924e-06,0.0182217,-0.000358176,0.194963,0.0794105444916271,-4.229231056807059e-06,0.01838872814531678,0.07929246343721119,-0.0003581118626342361,-0.13716517283487006
169,0.1596,470.976,500.532,5.42259,48.451,-251.399,3.66833,0.0768787,0.0767689,-0.14845,-4.24652e-06,0.0182383,-0.000358573,0.196251,0.07991107523411478,-4.246510983518803e-06,0.018405633538518318,0.07979250750754141,-0.00035850872038500903,-0.13795689175162473
170,0.1606,471.731,501.35,5.44388,48.5294,-251.834,3.67588,0.077342,0.0772318,-0.149368,-4.2637e-06,0.0182546,-0.000358962,0.197539,0.08041151395294843,-4.263690910444318e-06,0.01842223368563589,0.08029245916415029,-0.0003588975808495043,-0.13874788420391215
171,0.1616,472.484,502.166,5.4651,48.6075,-252.267,3.6834,0.0778052,0.0776946,-0.150285,-4.2808e-06,0.0182705,-0.000359345,0.198826,0.08091207648754462,-4.280790837363213e-06,0.01843842672788587,0.08079253422269428,-0.0003592804433184549,-0.13953729039604112
172,0.1626,473.233,502.978,5.48626,48.6853,-252.699,3.69088,0.0782681,0.0781571,-0.151203,-4.2978e-06,0.0182861,-0.00035972,0.200113,0.08141254651260144,-4.297790764495879e-06,0.018454314491267,0.08129251638173418,-0.0003596553085180032,-0.1403268327080892
173,0.1636,473.979,503.787,5.50734,48.7628,-253.128,3.69833,0.0787308,0.0786194,-0.152119,-4.31472e-06,0.0183013,-0.000360088,0.201399,0.08191303187623267,-4.314710691621926e-06,0.018469795114499865,0.08179251347748107,-0.0003600231760971795,-0.14111393278245943
174,0.1646,474.722,504.592,5.52835,48.8399,-253.556,3.70574,0.0791933,0.0790815,-0.153035,-4.33154e-06,0.0183162,-0.000360449,0.202686,0.08241353238529636,-4.331530618850721e-06,0.018484970427502745,0.08229252531679698,-0.00036038404606364427,-0.14190031220327126
175,0.1656,475.462,505.394,5.5493,48.9168,-253.982,3.71312,0.0796556,0.0795434,-0.153951,-4.34828e-06,0.0183308,-0.000360803,0.203971,0.08291404784655287,-4.348270546294941e-06,0.01849984041662167,0.0827925517064454,-0.0003607379184250581,-0.14268597163034114
176,0.1666,476.199,506.193,5.57018,48.9932,-254.406,3.72047,0.0801177,0.080005,-0.154867,-4.36492e-06,0.0183451,-0.00036115,0.205257,0.0834145780666633,-4.3649104737308875e-06,0.01851440506847668,0.08329248412383805,-0.0003610847931887484,-0.1434709117228813
177,0.1676,476.933,506.988,5.59099,49.0694,-254.828,3.72779,0.0805796,0.0804665,-0.155782,-4.38148e-06,0.018359,-0.00036149,0.206542,0.08391512285219105,-4.381470401382259e-06,0.01852856251710122,0.08379253898404504,-0.00036142467036215375,-0.14425427739420582
178,0.1686,477.664,507.78,5.61174,49.1453,-255.248,3.73508,0.0810412,0.0809277,-0.156696,-4.39795e-06,0.0183726,-0.000361823,0.207826,0.08441557356803875,-4.397940329026184e-06,0.01854241459974526,0.08429249938503092,-0.0003617575499523795,-0.14503607165026677
179,0.1696,478.392,508.569,5.63242,49.2209,-255.667,3.74233,0.0815026,0.0813887,-0.157611,-4.41433e-06,0.0183858,-0.000362149,0.20911,0.08491603836203243,-4.414320256884707e-06,0.018555859448353917,0.08479247346241747,-0.0003620834319663091,-0.1458180058552535
180,0.1706,479.117,509.355,5.65303,49.2961,-256.084,3.74956,0.0819638,0.0818495,-0.158525,-4.43062e-06,0.0183988,-0.000362469,0.210394,0.08541651704043707,-4.430610184846806e-06,0.018569100760595036,0.08529246102247567,-0.0003624033160484208,-0.14659837151646837
181,0.1716,479.84,510.138,5.67358,49.371,-256.499,3.75675,0.0824248,0.0823101,-0.159438,-4.44682e-06,0.0184114,-0.000362782,0.211678,0.08591700940941993,-4.44681011291248e-06,0.018581934812119005,0.08579246187137857,-0.0003627162025672259,-0.14737717162692476
182,0.1726,480.559,510.917,5.69407,49.4457,-256.913,3.76391,0.0828856,0.0827705,-0.160351,-4.46294e-06,0.0184237,-0.000363088,0.212961,0.08641751527505104,-4.462930041082558e-06,0.018594463446968135,0.08629247581520172,-0.0003630220915292748,-0.14815526101737342
183,0.1736,481.276,511.693,5.71449,49.52,-257.324,3.77104,0.0833462,0.0832307,-0.161264,-4.47896e-06,0.0184357,-0.000363388,0.214244,0.08691803444330226,-4.478949969466406e-06,0.018606686653868554,0.08679250265992411,-0.0003633219825776024,-0.1489326403364054
184,0.1746,481.989,512.467,5.73484,49.5941,-257.735,3.77815,0.0838065,0.0836907,-0.162176,-4.49491e-06,0.0184474,-0.000363681,0.215526,0.08741845797819736,-4.494899897955484e-06,0.018618604421821283,0.08729254221142702,-0.0003636148760813862,-0.14970845994090543
185,0.1756,482.7,513.237,5.75513,49.6678,-258.143,3.78522,0.0842667,0.0841504,-0.163088,-4.51076e-06,0.0184588,-0.000363968,0.216808,0.0879190031191619,-4.510749826547311e-06,0.01863021674010179,0.08779248549624152,-0.00036390177168277305,-0.1504835723204696
186,0.1766,483.409,514.004,5.77536,49.7413,-258.55,3.79226,0.0847266,0.08461,-0.164,-4.52653e-06,0.0184699,-0.000364248,0.218089,0.08841945213812763,-4.526519755243541e-06,0.018641523598260434,0.08829254982855672,-0.0003641816697510514,-0.15125797811979325
187,0.1776,484.114,514.769,5.79551,49.8144,-258.955,3.79927,0.0851863,0.0850693,-0.164911,-4.54221e-06,0.0184807,-0.000364522,0.219371,0.08891991358252516,-4.542199684154369e-06,0.018652524986122687,0.0887925174054578,-0.0003644555699277019,-0.15203083001423767
188,0.1786,484.817,515.53,5.81563,49.8873,-259.359,3.80626,0.0856458,0.0855284,-0.165821,-4.5578e-06,0.0184911,-0.000364789,0.220651,0.08942038725783741,-4.557789613279795e-06,0.01866311902747153,0.08929249681168949,-0.00036472247258245716,-0.1528021309637665
189,0.1796,485.517,516.288,5.83566,49.9599,-259.761,3.81321,0.0861051,0.0859873,-0.166732,-4.57331e-06,0.0185013,-0.00036505,0.221932,0.08992087296945028,-4.573299542398601e-06,0.01867350944427648,0.08979248785264615,-0.0003649833773559097,-0.15357357677553796
190,0.1806,486.214,517.044,5.85565,50.0322,-260.161,3.82014,0.0865642,0.086446,-0.167642,-4.58874e-06,0.0185112,-0.000365305,0.223212,0.09042137052265287,-4.588729471732833e-06,0.018683594361940337,0.09029249033362641,-0.0003652382842526114,-0.1543434744640947
191,0.1816,486.909,517.796,5.87556,50.1043,-260.56,3.82703,0.0870231,0.0869045,-0.168551,-4.60408e-06,0.0185208,-0.000365554,0.224491,0.0909218797226381,-4.604069401281663e-06,0.018693373771387245,0.09079250405983141,-0.00036548719327722523,-0.15511182697668358
192,0.1826,487.601,518.546,5.89541,50.176,-260.957,3.8339,0.0874817,0.0873628,-0.16946,-4.61933e-06,0.0185301,-0.000365796,0.225771,0.09142229123226775,-4.6193193309340685e-06,0.018702847663816913,0.09129252883636774,-0.00036572910480014986,-0.15587948137417984
193,0.1836,488.29,519.293,5.9152,50.2475,-261.353,3.84074,0.0879402,0.0878209,-0.170369,-4.63451e-06,0.0185391,-0.000366032,0.227049,0.0919228230909579,-4.634499260691705e-06,0.018712016030703493,0.09179256446824446,-0.00036596501846020146,-0.15664643829088198
194,0.1846,488.977,520.037,5.93493,50.3187,-261.747,3.84756,0.0883984,0.0882787,-0.171278,-4.64959e-06,0.0185478,-0.000366263,0.228328,0.09242325676909835,-4.649579190663111e-06,0.018720878863796253,0.09229250153112023,-0.0003661959338956411,-0.15741269836051175
195,0.1856,489.661,520.778,5.9546,50.3896,-262.14,3.85434,0.0888564,0.0887364,-0.172186,-4.6646e-06,0.0185563,-0.000366487,0.229606,0.0929237012137285,-4.664589120739748e-06,0.01872953802806787,0.09279255823831889,-0.00036641985184260317,-0.1581774203940567
196,0.1866,490.343,521.517,5.97421,50.4603,-262.531,3.8611,0.0893142,0.0891938,-0.173093,-4.67952e-06,0.0185644,-0.000366705,0.230883,0.0934241562295568,-4.679509051030983e-06,0.018737789770745472,0.09329251588605447,-0.00036663777193934877,-0.15894060731617043
197,0.1876,491.023,522.252,5.99376,50.5307,-262.921,3.86784,0.0897718,0.089651,-0.174,-4.69436e-06,0.0185723,-0.000366918,0.23216,0.09392462162119597,-4.694348981537644e-06,0.01874583783107453,0.0937924835082069,-0.00036685069382280666,-0.1597031023415686
198,0.1886,491.715,522.984,6.01653,50.5935,-263.309,3.87678,0.0902292,0.090108,-0.174907,-4.71111e-06,0.0185799,-0.000367316,0.233437,0.09442509719316328,-4.711098902765443e-06,0.01875358032886343,0.09429246090930476,-0.0003672485477370646,-0.16046490609751674
199,0.1896,492.395,523.708,6.03188,50.6582,-263.695,3.88547,0.0906864,0.0905649,-0.175813,-4.72759e-06,0.0185872,-0.000367688,0.234714,0.09492558274988028,-4.727578824970102e-06,0.01876101725714463,0.09479255737303127,-0.00036762041105142806,-0.16122518043631184
200,0.1906,493.076,524.436,6.05337,50.7243,-264.08,3.89401,0.0911433,0.0910215,-0.176719,-4.74376e-06,0.0185942,-0.000368033,0.23599,0.09542596855307028,-4.743748748370358e-06,0.018768148609225044,0.09529255379522428,-0.00036796528416294105,-0.161984766278492
201,0.1916,493.749,525.159,6.07081,50.7914,-264.463,3.9023,0.0916001,0.0914779,-0.177624,-4.75971e-06,0.0186009,-0.000368359,0.237266,0.0959264734421188,-4.759698672640589e-06,0.018774974378687137,0.09579255940937825,-0.0003682911641531561,-0.16274282699079845
202,0.1926,494.421,525.882,6.09113,50.8591,-264.845,3.91043,0.0920566,0.091934,-0.178529,-4.77544e-06,0.0186074,-0.000368665,0.238541,0.09642687808591521,-4.775428597558751e-06,0.01878159643754218,0.09629246439038974,-0.00036859705140923626,-0.163500201968502
203,0.1936,495.087,526.601,6.10941,50.9272,-265.225,3.91836,0.0925129,0.09239,-0.179434,-4.79098e-06,0.0186136,-0.000368954,0.239816,0.09692729183109905,-4.790968523238348e-06,0.018787912903021065,0.0967924877508135,-0.0003688859448429671,-0.1642568918319116
204,0.1946,495.752,527.319,6.12906,50.9954,-265.604,3.92617,0.0929691,0.0928458,-0.180338,-4.80632e-06,0.0186195,-0.000369227,0.241091,0.09742782422439045,-4.8063084496785535e-06,0.018793923769439225,0.09729251971535802,-0.00036915884409982613,-0.16501206221325515
205,0.1956,496.412,528.034,6.14768,51.0637,-265.982,3.93383,0.093425,0.0933014,-0.181242,-4.82151e-06,0.0186252,-0.000369486,0.242365,0.09792825563412655,-4.821498376550437e-06,0.018799730911355228,0.09779256008788773,-0.000369417748454115,-0.16576655022904951
206,0.1966,497.07,528.746,6.16694,51.1319,-266.358,3.94139,0.0938807,0.0937567,-0.182146,-4.83654e-06,0.0186306,-0.000369732,0.243639,0.09842869555679523,-4.836528303964194e-06,0.018805232444756292,0.09829249884291702,-0.0003696636575470924,-0.1665203564958747
207,0.1976,497.725,529.456,6.18567,51.1999,-266.733,3.94886,0.0943362,0.0942119,-0.183049,-4.85143e-06,0.0186358,-0.000369967,0.244912,0.09892914379605511,-4.851418231810456e-06,0.018810530245739088,0.09879255539262632,-0.0003698985706486191,-0.16727264890281834
208,0.1986,498.379,530.164,6.20466,51.2677,-267.107,3.95628,0.0947915,0.0946668,-0.183952,-4.86621e-06,0.0186407,-0.000370192,0.246185,0.09942960015547042,-4.866198159980684e-06,0.0188155224295683,0.09929250983209026,-0.00037012348739606793,-0.16802426229633927
209,0.1996,499.029,530.869,6.22336,51.3351,-267.48,3.96366,0.0952465,0.0951215,-0.184854,-4.8809e-06,0.0186454,-0.00037041,0.247457,0.0999299544455099,-4.8808880884765315e-06,0.018820310873776558,0.09979247179404904,-0.00037034140668545934,-0.16877436606409135
210,0.2006,499.678,531.571,6.24212,51.4021,-267.851,3.97105,0.0957014,0.0955761,-0.185756,-4.89552e-06,0.0186498,-0.000370624,0.248729,0.10043042640550404,-4.895508016966588e-06,0.018824793693006603,0.10029255111114299,-0.00037055532740948305,-0.16952379354329705
211,0.2016,500.313,532.273,6.25907,51.4739,-268.221,3.97658,0.0961561,0.0960304,-0.186658,-4.90872e-06,0.018654,-0.000370706,0.250001,0.10093090589577991,-4.908707952222535e-06,0.018829072766125998,0.10079252757816826,-0.0003706372970205818,-0.1702725453436933
212,0.2026,500.952,532.975,6.28026,51.5444,-268.59,3.98232,0.0966105,0.0964845,-0.187559,-4.92179e-06,0.0186579,-0.000370778,0.251272,0.101431282576391,-4.921777888022838e-06,0.01883304620725812,0.10129251097758063,-0.00037070927033211465,-0.17101979309467552
213,0.2036,501.586,533.67,6.29775,51.6138,-268.958,3.98798,0.0970647,0.0969384,-0.18846,-4.93485e-06,0.0186616,-0.000370851,0.252542,0.10193166629347705,-4.934837823600269e-06,0.01883681589650288,0.10179250111249027,-0.0003707822432676977,-0.17176636787865118
214,0.2046,502.221,534.365,6.31733,51.6822,-269.324,3.9937,0.0975188,0.0973921,-0.189361,-4.94784e-06,0.0186651,-0.00037092,0.253813,0.10243216709324687,-4.947827759504975e-06,0.018840381831598974,0.10229249778591365,-0.0003708512176813228,-0.17251227030169058
215,0.2056,502.853,535.055,6.33532,51.7499,-269.69,3.99939,0.0979726,0.0978456,-0.190261,-4.96079e-06,0.0186683,-0.000370987,0.255082,0.10293256434222209,-4.960777695295349e-06,0.018843642126037397,0.10279250080077373,-0.0003709181928320815,-0.17325667422640567
216,0.2066,503.485,535.743,6.35427,51.8169,-270.054,4.00511,0.0984262,0.0982989,-0.191161,-4.97368e-06,0.0186713,-0.00037105,0.256352,0.10343296803638569,-4.973667631302803e-06,0.018846698661548533,0.10329250995990091,-0.0003709811694622145,-0.17400040848898168
217,0.2076,504.115,536.428,6.37244,51.8834,-270.416,4.01082,0.0988796,0.098752,-0.19206,-4.98651e-06,0.0186741,-0.00037111,0.257621,0.10393337797845481,-4.986497567416315e-06,0.018849551436298517,0.10379252506603165,-0.00037104114720154513,-0.1747426484349045
218,0.2086,504.743,537.111,6.39103,51.9494,-270.778,4.01654,0.0993328,0.0992049,-0.192959,-4.99927e-06,0.0186765,-0.000371167,0.258889,0.10443379397105335,-4.999257503635057e-06,0.018851996678156402,0.10429254592180981,-0.0003710981260505175,-0.1754842214069655
219,0.2096,505.369,537.792,6.40924,52.015,-271.138,4.02225,0.0997858,0.0996576,-0.193858,-5.01198e-06,0.0186788,-0.00037122,0.260157,0.1049342158167128,-5.011967440071707e-06,0.018854340040443507,0.10479257232978667,-0.0003711511063809736,-0.17622512800450496
220,0.2106,505.994,538.47,6.4276,52.0803,-271.497,4.02797,0.100239,0.10011,-0.194756,-5.02463e-06,0.0186808,-0.00037127,0.261425,0.10543508549181646,-5.024617376614415e-06,0.018856377751161446,0.10529249356316517,-0.00037120108782218164,-0.1769645457912815
221,0.2116,506.617,539.145,6.44576,52.1452,-271.855,4.03367,0.100691,0.100562,-0.195654,-5.03721e-06,0.0186826,-0.000371317,0.262692,0.1059348550898791,-5.037197313262354e-06,0.018858211694291915,0.10579219869510781,-0.00037124807037458574,-0.17770329987893108
222,0.2126,507.238,539.819,6.46396,52.2098,-272.211,4.03937,0.101144,0.101014,-0.196551,-5.04973e-06,0.0186841,-0.00037136,0.263959,0.10643595707026421,-5.049717250127372e-06,0.018859739982755697,0.10629212974482383,-0.00037129105441002785,-0.17844056930416796
223,0.2136,507.858,540.49,6.48204,52.2741,-272.566,4.04507,0.101596,0.101466,-0.197448,-5.06219e-06,0.0186854,-0.000371399,0.265226,0.1069361791645369,-5.062177187098449e-06,0.018861064501278557,0.10679228681445085,-0.0003713300399289521,-0.17917717769524866
224,0.2146,508.475,541.159,6.50011,52.3382,-272.92,4.05076,0.102048,0.101918,-0.198345,-5.07459e-06,0.0186865,-0.000371435,0.266492,0.10743662741030247,-5.0745771242866056e-06,0.0188621852490658,0.10729267000617315,-0.00037136602656040463,-0.17991312564485473
225,0.2156,509.09,541.826,6.51809,52.402,-273.272,4.05645,0.102499,0.102369,-0.199241,-5.08692e-06,0.0186873,-0.000371467,0.267757,0.10793619397305676,-5.086907061691015e-06,0.018863000339140124,0.10779217162949539,-0.00037139801467611644,-0.1806475943931407
226,0.2166,509.704,542.49,6.53604,52.4656,-273.624,4.06212,0.102951,0.102821,-0.200137,-5.09919e-06,0.0186879,-0.000371495,0.269022,0.10843709432768467,-5.099176999201482e-06,0.01886361165712369,0.10829300687130972,-0.00037142600427664263,-0.18138140535216196
227,0.2176,510.316,543.152,6.55392,52.529,-273.974,4.06779,0.103402,0.103272,-0.201033,-5.11139e-06,0.0186883,-0.00037152,0.270287,0.10893711220278202,-5.11137693681718e-06,0.018864019202649907,0.10879295974830816,-0.00037145099499069634,-0.18211455911103347
228,0.2186,510.925,543.812,6.57176,52.5921,-274.323,4.07345,0.103854,0.103722,-0.201928,-5.12354e-06,0.0186885,-0.000371541,0.271551,0.10943846507471089,-5.123526874650786e-06,0.018864222975474076,0.10929202886232381,-0.0003714719871900085,-0.18284623910499065
229,0.2196,511.533,544.47,6.58955,52.6551,-274.671,4.0791,0.104304,0.104173,-0.202823,-5.13561e-06,0.0186884,-0.000371559,0.272815,0.10993782473149061,-5.135596812810839e-06,0.018864121089056995,0.10979243239985648,-0.0003714899805032923,-0.1835772645383128
230,0.2206,512.139,545.126,6.60728,52.7178,-275.017,4.08474,0.104755,0.104624,-0.203717,-5.14763e-06,0.0186881,-0.000371572,0.274079,0.11043851958864814,-5.147616750966755e-06,0.01886381542986637,0.11029306167028352,-0.00037150297567378754,-0.18430682030379775
231,0.2216,512.743,545.78,6.62496,52.7803,-275.362,4.09037,0.105206,0.105074,-0.204611,-5.15958e-06,0.0186876,-0.000371582,0.275342,0.11093944031011449,-5.159566689338924e-06,0.018863305998086055,0.1107928059820722,-0.0003715129719588095,-0.18503572413788516
232,0.2226,513.345,546.432,6.64259,52.8426,-275.707,4.09599,0.105656,0.105524,-0.205505,-5.17146e-06,0.0186868,-0.000371589,0.276604,0.1114394755577468,-5.1714466280383675e-06,0.01886249090776726,0.11129277522940773,-0.00037151996935813614,-0.18576397662314115
233,0.2236,513.946,547.081,6.66017,52.9047,-276.05,4.10161,0.106106,0.105974,-0.206398,-5.18328e-06,0.0186859,-0.000371591,0.277866,0.11193973587187656,-5.183266566843869e-06,0.018861573931938214,0.11179296951353423,-0.0003715219686151183,-0.18649076483278304
234,0.2246,514.544,547.729,6.6777,52.9666,-276.392,4.10721,0.106556,0.106423,-0.207291,-5.19504e-06,0.0186847,-0.00037159,0.279128,0.11244022135380671,-5.195026505755429e-06,0.01886035129878305,0.11229227664290797,-0.00037152096898662723,-0.18721690431025573
235,0.2256,515.141,548.374,6.69518,53.0283,-276.733,4.1128,0.107006,0.106873,-0.208183,-5.20673e-06,0.0186833,-0.000371585,0.280389,0.11294093210488532,-5.206716444994264e-06,0.01885892489528973,0.11279292080388514,-0.00037151597084417176,-0.18794158357660806
236,0.2266,515.735,549.017,6.71262,53.0898,-277.072,4.11838,0.107455,0.107322,-0.209075,-5.21836e-06,0.0186817,-0.000371577,0.28165,0.113440754785195,-5.2183463843391564e-06,0.01885729472231401,0.11329267701219892,-0.00037150797381635403,-0.18866561671726978
237,0.2276,516.328,549.659,6.73,53.1511,-277.411,4.12395,0.107905,0.107771,-0.209967,-5.22993e-06,0.0186799,-0.000371565,0.282911,0.11394191587763713,-5.229916323901129e-06,0.018855460780834,0.11379265766143343,-0.0003714959782743499,-0.18938900430832795
238,0.2286,516.919,550.298,6.74733,53.2122,-277.748,4.12951,0.108354,0.10822,-0.210858,-5.24143e-06,0.0186779,-0.000371549,0.284171,0.11444218810057571,-5.241416263679355e-06,0.01885342307195015,0.11429286285238516,-0.0003714799842181593,-0.190110937036698
239,0.2296,517.508,550.935,6.76461,53.2732,-278.085,4.13506,0.108803,0.108668,-0.211749,-5.25286e-06,0.0186757,-0.000371529,0.28543,0.11494268499617744,-5.2528462037848556e-06,0.018851181596885036,0.1147921778931611,-0.00037145999164756027,-0.1908322268094863
240,0.2306,518.096,551.571,6.78185,53.3339,-278.42,4.1406,0.109251,0.109117,-0.21264,-5.26424e-06,0.0186733,-0.000371506,0.286689,0.11544229122249439,-5.264226143886219e-06,0.018848736356983586,0.11529283196946416,-0.0003714370001908218,-0.19155287419931122
241,0.2316,518.681,552.204,6.79903,53.3945,-278.754,4.14612,0.1097,0.109565,-0.21353,-5.27554e-06,0.0186706,-0.000371478,0.287948,0.11594323726522404,-5.275526084314031e-06,0.018845985469108983,0.1157925950967682,-0.0003714090105907397,-0.19227207205075691
242,0.2326,519.265,552.835,6.81617,53.4548,-279.088,4.15163,0.110148,0.110013,-0.214419,-5.28679e-06,0.0186678,-0.000371448,0.289206,0.11644329183937985,-5.2867760249597495e-06,0.01884313270434368,0.11629258216811311,-0.0003713790217325652,-0.19298982309109514
243,0.2336,519.847,553.465,6.83326,53.515,-279.42,4.15714,0.110596,0.110461,-0.215309,-5.29797e-06,0.0186647,-0.000371413,0.290464,0.11694357048817383,-5.297955965821721e-06,0.01883997429552764,0.11679279328384817,-0.00037134403473015887,-0.193707742626962
244,0.2346,520.427,554.092,6.85031,53.575,-279.751,4.16262,0.111044,0.110908,-0.216198,-5.30908e-06,0.0186615,-0.000371375,0.291722,0.1174440733120139,-5.309065906899946e-06,0.018836714012826494,0.1172921112516978,-0.0003713060488405029,-0.19442421792331022
245,0.2356,521.005,554.718,6.8673,53.6348,-280.081,4.1681,0.111492,0.111356,-0.217086,-5.32014e-06,0.018658,-0.000371333,0.292979,0.11794480041135325,-5.3201258480850555e-06,0.018833148090567686,0.11779277025678203,-0.00037126406443455107,-0.19513925169581303
246,0.2366,521.582,555.342,6.88425,53.6944,-280.41,4.17357,0.111939,0.111803,-0.217975,-5.33113e-06,0.0186544,-0.000371287,0.294235,0.1184446334414968,-5.33111578959744e-06,0.0188294802978366,0.11829253531425565,-0.00037121808151163727,-0.19585445494610743
247,0.2376,522.156,555.963,6.90115,53.7538,-280.738,4.17902,0.112387,0.11225,-0.218862,-5.34205e-06,0.0186505,-0.000371238,0.295491,0.11894580889219708,-5.342035731326078e-06,0.018825506870611797,0.11879252381664629,-0.00037116909970003054,-0.19656741579968695
248,0.2386,522.73,556.583,6.91801,53.8131,-281.065,4.18446,0.112834,0.112697,-0.21975,-5.35291e-06,0.0186465,-0.000371185,0.296747,0.11944608947315172,-5.3528956731607735e-06,0.01882143157673477,0.11929273586385603,-0.00037111611937068467,-0.19728054725722843
249,0.2396,523.301,557.201,6.93482,53.8722,-281.391,4.18989,0.11328,0.113143,-0.220637,-5.36371e-06,0.0186422,-0.000371128,0.298002,0.11994547378347997,-5.3636956153235715e-06,0.01881705065399797,0.11979205176322005,-0.00037105914052260047,-0.19799224372776492
250,0.2406,523.871,557.817,6.95158,53.9311,-281.715,4.1953,0.113727,0.11359,-0.221524,-5.37444e-06,0.0186378,-0.000371068,0.299257,0.12044620131452688,-5.374425557702622e-06,0.018812567868837338,0.12029271069929415,-0.00037099916278438005,-0.1987033092034195
251,0.2416,524.439,558.432,6.9683,53.9898,-282.039,4.20071,0.114174,0.114036,-0.22241,-5.38511e-06,0.0186332,-0.000371004,0.300511,0.12094715272081258,-5.385095500298753e-06,0.018807881341804222,0.12079247268690496,-0.0003709351865263111,-0.1994129436569807
252,0.2426,525.005,559.044,6.98497,54.0483,-282.362,4.2061,0.11462,0.114482,-0.223296,-5.39572e-06,0.0186284,-0.000370937,0.301765,0.12144720665466435,-5.3957054431119644e-06,0.018802991075710374,0.12129245761807494,-0.0003708682113766626,-0.2001219496528639
253,0.2436,525.569,559.655,7.00159,54.1067,-282.684,4.21148,0.115066,0.114928,-0.224181,-5.40626e-06,0.0186234,-0.000370865,0.303019,0.12194748366231223,-5.406245386252451e-06,0.01879789707348989,0.12179266559225943,-0.00037079623807656503,-0.2008295285775641
254,0.2446,526.132,560.264,7.01817,54.1649,-283.005,4.21684,0.115512,0.115373,-0.225067,-5.41674e-06,0.0186182,-0.00037079,0.304272,0.12244798384326949,-5.416725329498995e-06,0.018792599338199212,0.1222919744164217,-0.0003707212658835557,-0.20153728003505023
255,0.2456,526.694,560.871,7.0347,54.2229,-283.325,4.22219,0.115958,0.115819,-0.225951,-5.42716e-06,0.0186128,-0.000370712,0.305524,0.12294870729709362,-5.427145272962619e-06,0.01878709787301691,0.12279262827452264,-0.0003706432947967464,-0.20224280918966786
256,0.2466,527.253,561.476,7.05119,54.2807,-283.644,4.22753,0.116403,0.116264,-0.226836,-5.43751e-06,0.0186072,-0.00037063,0.306777,0.12344853067429407,-5.4374952167535184e-06,0.018781392681243236,0.12329238218110206,-0.00037056132518609175,-0.20294851198398822
257,0.2476,527.811,562.079,7.06764,54.3384,-283.962,4.23286,0.116848,0.116709,-0.22772,-5.4478e-06,0.0186014,-0.000370544,0.308028,0.12394857652239355,-5.447785160761498e-06,0.01877548376630167,0.12379235852765924,-0.00037047535705070356,-0.2036527941608084
258,0.2486,528.367,562.681,7.08404,54.3959,-284.279,4.23817,0.117293,0.117154,-0.228604,-5.45803e-06,0.0185955,-0.000370455,0.30928,0.12444884494041353,-5.458015104986558e-06,0.01876947300867915,0.12429255741320167,-0.0003703863900190729,-0.20435645402728597
259,0.2496,528.922,563.281,7.10039,54.4532,-284.595,4.24347,0.117738,0.117599,-0.229487,-5.46819e-06,0.0185894,-0.000370362,0.31053,0.12494933602741987,-5.46817504942787e-06,0.01876325853384797,0.12479297893678143,-0.00037029342446071034,-0.2050586971923949
260,0.2506,529.475,563.879,7.1167,54.5104,-284.911,4.24876,0.118183,0.118043,-0.23037,-5.4783e-06,0.0185831,-0.000370266,0.311781,0.12545004988252195,-5.47828499408709e-06,0.018756840345536485,0.12529249790443409,-0.00037019746000421794,-0.2057603205504741
261,0.2516,530.027,564.475,7.13297,54.5674,-285.225,4.25403,0.118627,0.118487,-0.231252,-5.48834e-06,0.0185766,-0.000370166,0.313031,0.12594986065445024,-5.4883249390735855e-06,0.01875021844759539,0.12579223870775236,-0.0003700974970189952,-0.20646053110949947
262,0.2526,530.576,565.07,7.14919,54.6242,-285.538,4.25929,0.119072,0.118931,-0.232134,-5.49831e-06,0.0185699,-0.000370063,0.31428,0.1264510198420905,-5.4982948842763335e-06,0.01874339284399773,0.126292201445253,-0.00036999453513375524,-0.20716012435508713
263,0.2536,531.125,565.663,7.16537,54.6809,-285.851,4.26454,0.119516,0.119375,-0.233016,-5.50823e-06,0.0185631,-0.000369956,0.315529,0.12695127514335924,-5.508214829696989e-06,0.01873646541247953,0.1267923862154965,-0.0003698875747174535,-0.2078591008314673
264,0.2546,531.672,566.254,7.18151,54.7374,-286.162,4.26977,0.11996,0.119819,-0.233897,-5.51808e-06,0.0185561,-0.000369845,0.316778,0.12745175260729802,-5.51806477544492e-06,0.01872933428218082,0.12729279311708774,-0.00036977661576875764,-0.20855666963945596
265,0.2556,532.217,566.844,7.1976,54.7937,-286.473,4.27499,0.120403,0.120262,-0.234779,-5.52787e-06,0.0185489,-0.000369732,0.318026,0.1279513243806807,-5.5278547214099305e-06,0.01872199945737929,0.1277922944558163,-0.0003696636575470924,-0.20925441490593877
266,0.2566,532.76,567.432,7.21365,54.8499,-286.782,4.2802,0.120847,0.120705,-0.235659,-5.5376e-06,0.0185415,-0.000369614,0.319274,0.12845224596506832,-5.537584667480999e-06,0.018714460942475863,0.12829201712265847,-0.0003695457011605452,-0.20994996493392304
267,0.2576,533.302,568.018,7.22965,54.9059,-287.091,4.2854,0.12129,0.121148,-0.236539,-5.54727e-06,0.0185339,-0.000369493,0.320521,0.12895226105519608,-5.54725461388017e-06,0.018706718741993145,0.12879196121568426,-0.0003694247458682076,-0.2106449031471207
268,0.2586,533.843,568.602,7.24562,54.9618,-287.399,4.29058,0.121733,0.121591,-0.237419,-5.55688e-06,0.0185262,-0.000369369,0.321768,0.12945249770107958,-5.556864560607444e-06,0.01869887473045817,0.12929212683300717,-0.0003693007916691915,-0.21133923008369193
269,0.2596,534.382,569.185,7.26154,55.0174,-287.706,4.29574,0.122176,0.122034,-0.238299,-5.56642e-06,0.0185183,-0.000369241,0.323014,0.12995295600089007,-5.5664045075509705e-06,0.018690827041136338,0.12979251407278447,-0.00036917283893145303,-0.21203294628132352
270,0.2606,534.919,569.767,7.27742,55.073,-288.012,4.3009,0.122619,0.122476,-0.239178,-5.5759e-06,0.0185102,-0.00036911,0.32426,0.13045363605284188,-5.575884454711577e-06,0.01868257567885534,0.1302919927406585,-0.00036904188728459353,-0.2127252650028879
271,0.2616,535.455,570.346,7.29325,55.1284,-288.317,4.30604,0.123061,0.122919,-0.240057,-5.58532e-06,0.018502,-0.000368976,0.325506,0.13095340700122038,-5.585304402089264e-06,0.01867422251598283,0.13079282301915884,-0.0003689079367271697,-0.21341697544367466
272,0.2626,535.99,570.924,7.30905,55.1836,-288.621,4.31117,0.123504,0.123361,-0.240935,-5.59468e-06,0.0184936,-0.000368838,0.326751,0.1314545303511485,-5.594664349795053e-06,0.018665665688452293,0.13129274392131363,-0.00036876998762702673,-0.21410729224581282
273,0.2636,536.523,571.5,7.3248,55.2387,-288.925,4.31628,0.123946,0.123803,-0.241813,-5.60398e-06,0.018485,-0.000368696,0.327996,0.13195474379259053,-5.603964297717923e-06,0.018656905201397622,0.13179288583734783,-0.0003686280399822772,-0.21479700321579798
274,0.2646,537.054,572.075,7.34051,55.2936,-289.227,4.32138,0.124388,0.124244,-0.242691,-5.61322e-06,0.0184763,-0.000368551,0.32924,0.13245517837724297,-5.613204245857872e-06,0.01864804292487321,0.13229211657228834,-0.00036848309342285557,-0.21548610888531716
275,0.2656,537.584,572.648,7.35618,55.3483,-289.529,4.32647,0.124829,0.124686,-0.243568,-5.6224e-06,0.0184674,-0.000368403,0.330484,0.13295470124760445,-5.6223841943259245e-06,0.018638976997634726,0.1327927003086693,-0.0003683351479473185,-0.21617382595980894
276,0.2666,538.113,573.22,7.37181,55.4029,-289.83,4.33155,0.125271,0.125127,-0.244445,-5.63152e-06,0.0184583,-0.000368252,0.331727,0.13345557791114415,-5.631504143011057e-06,0.018629707425120712,0.13329237205902844,-0.0003681842035545557,-0.2168609401708207
277,0.2676,538.64,573.79,7.3874,55.4574,-290.13,4.33661,0.125712,0.125568,-0.245321,-5.64058e-06,0.0184491,-0.000368097,0.33297,0.13395554205499383,-5.640564091913269e-06,0.01862033607492064,0.13379226421322477,-0.0003680292606110802,-0.2175466695938928
278,0.2686,539.166,574.358,7.40295,55.5117,-290.429,4.34166,0.126153,0.126009,-0.246197,-5.64957e-06,0.0184397,-0.000367939,0.334212,0.13445572673165507,-5.649554041253779e-06,0.018610761088764027,0.13429237686847806,-0.0003678713187472704,-0.2182317985810195
279,0.2696,539.69,574.925,7.41845,55.5658,-290.728,4.34669,0.126594,0.12645,-0.247073,-5.65851e-06,0.0184301,-0.000367778,0.335454,0.13495613203840384,-5.6584939907011744e-06,0.018600982472394945,0.13479271012205074,-0.000367710377961572,-0.21891632765795255
280,0.2706,540.213,575.491,7.43392,55.6199,-291.025,4.35171,0.127035,0.12689,-0.247948,-5.66739e-06,0.0184204,-0.000367613,0.336696,0.13545675807255986,-5.66737394036565e-06,0.01859110209078496,0.13529212877855157,-0.00036754543862016487,-0.21959947694985038
281,0.2716,540.734,576.054,7.44934,55.6737,-291.322,4.35672,0.127475,0.127331,-0.248823,-5.67621e-06,0.0184105,-0.000367445,0.337937,0.13595646897444813,-5.676193890358228e-06,0.018581018088790202,0.13579290301994718,-0.0003673775003537605,-0.22028202874755953
282,0.2726,541.254,576.617,7.46473,55.7274,-291.618,4.36172,0.127916,0.127771,-0.249698,-5.68497e-06,0.0184004,-0.000367274,0.339177,0.13645753625448043,-5.684953840567886e-06,0.01857073047246005,0.13629276185815598,-0.00036720656316069356,-0.22096398357365887
283,0.2736,541.773,577.177,7.48007,55.781,-291.913,4.3667,0.128356,0.128211,-0.250572,-5.69367e-06,0.0183902,-0.0003671,0.340418,0.1369576875956584,-5.693653791105646e-06,0.01856034110399496,0.13679284068264708,-0.00036703262703940975,-0.22164456359522278
284,0.2746,542.29,577.737,7.49538,55.8344,-292.207,4.37167,0.128796,0.12865,-0.251446,-5.70231e-06,0.0183799,-0.000366922,0.341657,0.13745805905184816,-5.702293741860487e-06,0.018549849986511102,0.1372920022976647,-0.0003668546923554228,-0.22232454904971155
285,0.2756,542.806,578.294,7.51064,55.8877,-292.5,4.37663,0.129236,0.12909,-0.25232,-5.71089e-06,0.0183694,-0.000366741,0.342897,0.13795865071992175,-5.71087369294343e-06,0.018539155269233554,0.13779252088468974,-0.00036667375873977726,-0.2230039404565498
286,0.2766,543.321,578.85,7.52587,55.9408,-292.793,4.38157,0.129675,0.129529,-0.253193,-5.71941e-06,0.0183587,-0.000366557,0.344135,0.13845832423790028,-5.719393644243453e-06,0.018528256958578293,0.13829212145565983,-0.00036648982619080783,-0.22368196201705837
287,0.2776,543.834,579.405,7.54105,55.9938,-293.085,4.3865,0.130115,0.129969,-0.254066,-5.72787e-06,0.0183479,-0.00036637,0.345374,0.1389593561194955,-5.727853595760557e-06,0.01851725691280337,0.13879308019194014,-0.0003663028947069602,-0.22435939192303944
288,0.2786,544.345,579.958,7.5562,56.0466,-293.376,4.39142,0.130554,0.130407,-0.254938,-5.73628e-06,0.0183369,-0.00036618,0.346612,0.13945946904358686,-5.73626354760659e-06,0.018506053284597535,0.13929198081232408,-0.000366112964286458,-0.2250354557266252
289,0.2796,544.856,580.51,7.57131,56.0993,-293.666,4.39633,0.130993,0.130846,-0.25581,-5.74462e-06,0.0183257,-0.000365986,0.347849,0.13995980156545018,-5.744603499668877e-06,0.018494646080681187,0.1397922397907123,-0.0003659190352934827,-0.2257109302595336
290,0.2806,545.365,581.06,7.58638,56.1519,-293.955,4.40122,0.131431,0.131285,-0.256682,-5.75291e-06,0.0183145,-0.00036579,0.349086,0.1404592133217264,-5.752893452060093e-06,0.018483239004524643,0.14029271843100433,-0.0003657231069944533,-0.22638581603538466
291,0.2816,545.872,581.609,7.60141,56.2043,-294.244,4.4061,0.13187,0.131723,-0.257553,-5.76114e-06,0.018303,-0.00036559,0.350323,0.1409599848276779,-5.761123404668389e-06,0.018471526514623138,0.14079227603680633,-0.00036552318011906504,-0.22705934062707778
292,0.2826,546.379,582.157,7.6164,56.2566,-294.532,4.41096,0.132308,0.132161,-0.258424,-5.76932e-06,0.0182914,-0.000365387,0.351559,0.14145983476017654,-5.769303357494593e-06,0.018459712313438015,0.14129205249676513,-0.0003653202542996947,-0.22773227883425917
293,0.2836,546.884,582.703,7.63135,56.3088,-294.819,4.41582,0.132747,0.132599,-0.259294,-5.77743e-06,0.0182797,-0.000365181,0.352795,0.1419610456353737,-5.777413310648072e-06,0.018447796404512218,0.14179204790676025,-0.000365114329534455,-0.22840385957169274
294,0.2846,547.388,583.247,7.64627,56.3608,-295.105,4.42066,0.133185,0.133037,-0.260165,-5.78549e-06,0.0182678,-0.000364972,0.35403,0.1424613341285439,-5.785473264130481e-06,0.01843567694784598,0.1422922623627123,-0.0003649054058215695,-0.22907562721272878
295,0.2856,547.89,583.79,7.66114,56.4127,-295.391,4.42549,0.133622,0.133475,-0.261034,-5.79349e-06,0.0182558,-0.00036476,0.355265,0.14296069883479956,-5.793473217718947e-06,0.018423455793049603,0.14279269596058453,-0.0003646934831590398,-0.2297452694909704
296,0.2866,548.391,584.332,7.67598,56.4644,-295.676,4.4303,0.13406,0.133912,-0.261904,-5.80143e-06,0.0182436,-0.000364545,0.356499,0.14346142527197392,-5.801413171746539e-06,0.01841103110267972,0.14329220550360522,-0.0003644785615449786,-0.230415099688128
297,0.2876,548.891,584.872,7.69078,56.516,-295.96,4.43511,0.134498,0.13435,-0.262773,-5.80932e-06,0.0182312,-0.000364327,0.357733,0.14396237107536525,-5.809303125881016e-06,0.018398402884189036,0.143793077172504,-0.00036426064097760946,-0.23108357847040073
298,0.2886,549.389,585.411,7.70555,56.5675,-296.243,4.4399,0.134935,0.134787,-0.263642,-5.81714e-06,0.0182188,-0.000364106,0.358967,0.14446239187811316,-5.81712308045379e-06,0.018385774822287537,0.14429302397764898,-0.000364039721454712,-0.23175147659694306
299,0.2896,549.887,585.949,7.72027,56.6188,-296.525,4.44467,0.135372,0.135223,-0.26451,-5.82492e-06,0.0182061,-0.000363882,0.3602,0.14496263123770325,-5.824903035134277e-06,0.018372841405074558,0.1447920445146753,-0.0003638158029746208,-0.23241802699053649
300,0.2906,550.383,586.485,7.73496,56.67,-296.807,4.44944,0.135809,0.13566,-0.265378,-5.83263e-06,0.0181934,-0.000363655,0.361432,0.14546308924966533,-5.832612990253061e-06,0.01835990815211508,0.1452924279639487,-0.00036358888553500446,-0.23308399906941324
301,0.2916,550.877,587.02,7.74961,56.7211,-297.088,4.45419,0.136245,0.136097,-0.266245,-5.84029e-06,0.0181805,-0.000363425,0.362664,0.1459626200463786,-5.840272945589753e-06,0.01834677139403218,0.14579303012857525,-0.0003633589691339756,-0.23374862708434274
302,0.2926,551.371,587.553,7.76423,56.772,-297.369,4.45893,0.136682,0.136533,-0.267113,-5.84789e-06,0.0181674,-0.000363192,0.363896,0.1464635151489475,-5.847872901143525e-06,0.01833343113870578,0.14629270481087642,-0.00036312605376953577,-0.23441344470344605
303,0.2936,551.861,588.073,7.76878,56.818,-297.648,4.46779,0.137118,0.136969,-0.267979,-5.85544e-06,0.0181542,-0.000362956,0.365128,0.14696348222645517,-5.8554228569152045e-06,0.01831998922613165,0.14679259739883932,-0.0003628901394394646,-0.23507615566506945
304,0.2946,552.371,588.615,7.797,56.865,-297.927,4.47133,0.137554,0.137405,-0.268846,-5.86507e-06,0.0181409,-0.000362904,0.366358,0.14746366733713656,-5.8650528005355085e-06,0.0183064456603399,0.14729270798749106,-0.0003628381583083984,-0.23573905722875532
305,0.2956,552.86,589.138,7.80518,56.9128,-298.204,4.47728,0.13799,0.137841,-0.269712,-5.87351e-06,0.0181274,-0.000362751,0.367589,0.14796407057607452,-5.873492750940734e-06,0.018292698616116265,0.1477930366719009,-0.00036268521381088714,-0.23640062070686396
306,0.2966,553.356,589.669,7.82408,56.9613,-298.481,4.48324,0.138426,0.138276,-0.270577,-5.88174e-06,0.0181137,-0.000362581,0.368819,0.14846469203839385,-5.88172270254983e-06,0.018278748101706377,0.1482924352541699,-0.00036251527545294593,-0.2370608485802307
307,0.2976,553.844,590.193,7.83571,57.0103,-298.758,4.48901,0.138861,0.138711,-0.271442,-5.88988e-06,0.0180999,-0.000362404,0.370048,0.1489643828543037,-5.88986265470659e-06,0.018264695951942578,0.1487920511220786,-0.00036233833960253037,-0.2377205056034153
308,0.2986,554.334,590.72,7.85184,57.0595,-299.033,4.49471,0.139297,0.139147,-0.272307,-5.89788e-06,0.018086,-0.000362218,0.371277,0.14946544054786792,-5.897862607517901e-06,0.018250542171037942,0.14929303366262525,-0.00036215240698012074,-0.23837959226998962
309,0.2996,554.819,591.244,7.86503,57.1089,-299.308,4.50028,0.139732,0.139582,-0.273172,-5.90578e-06,0.018072,-0.000362024,0.372506,0.14996556678407624,-5.905762560876049e-06,0.01823628676323552,0.14979308488552445,-0.0003619584772188711,-0.23903810907309886
310,0.3006,555.304,591.767,7.88003,57.1585,-299.582,4.5058,0.140167,0.140016,-0.274036,-5.91357e-06,0.0180578,-0.000361822,0.373734,0.15046591062252235,-5.913552514891229e-06,0.018221827910621657,0.15029220338524474,-0.00036175655031411846,-0.23969529620113805
311,0.3016,555.787,592.288,7.89383,57.2081,-299.856,4.51122,0.140601,0.140451,-0.2749,-5.92126e-06,0.0180435,-0.000361613,0.374962,0.15096532119198725,-5.921242469342225e-06,0.018207267442590158,0.1507926893415208,-0.00036154762589934997,-0.2403519157647218
312,0.3026,556.269,592.809,7.90834,57.2577,-300.129,4.51659,0.141036,0.140885,-0.275763,-5.92885e-06,0.0180291,-0.000361398,0.376189,0.15146610001820382,-5.92883242445108e-06,0.018192605363506198,0.15129224176372946,-0.0003613327036090519,-0.2410072092616028
313,0.3036,556.749,593.328,7.92235,57.3073,-300.401,4.5219,0.14147,0.141319,-0.276626,-5.93636e-06,0.0180145,-0.000361177,0.377416,0.15196594476407577,-5.9363423798863835e-06,0.018177739859986275,0.15179201103874318,-0.00036111178343911643,-0.24166193748414688
314,0.3046,557.228,593.846,7.93661,57.3567,-300.673,4.52716,0.141905,0.141753,-0.277489,-5.94379e-06,0.0179998,-0.000360951,0.378642,0.15246715895623142,-5.9437723357591565e-06,0.018162772757218892,0.1522919972606962,-0.00036088586502491804,-0.24231610091997546
315,0.3056,557.706,594.363,7.95065,57.406,-300.944,4.53239,0.142339,0.142187,-0.278351,-5.95115e-06,0.0179849,-0.00036072,0.379868,0.1529674382559738,-5.951132291959205e-06,0.018147602244925398,0.15279220052376408,-0.000360654948362793,-0.24296894302561067
316,0.3066,558.183,594.878,7.96476,57.4552,-301.214,4.5376,0.142772,0.142621,-0.279213,-5.95844e-06,0.01797,-0.000360486,0.381094,0.15346678125669655,-5.958422248486528e-06,0.01813243195867087,0.153292620922163,-0.0003604210327287083,-0.24362122262382635
317,0.3076,558.658,595.392,7.97875,57.5041,-301.484,4.5428,0.143206,0.143054,-0.280075,-5.96568e-06,0.0179549,-0.000360248,0.382319,0.15396749448667357,-5.965662205342781e-06,0.01811705827501986,0.15379210475746863,-0.0003601831184806281,-0.24427294019929513
318,0.3086,559.133,595.904,7.99273,57.5527,-301.753,4.54802,0.143639,0.143488,-0.280936,-5.97288e-06,0.0179397,-0.00036001,0.383543,0.15446727060550747,-5.972862162417769e-06,0.01810158301334641,0.15429295920848785,-0.00035994520417592657,-0.24492334115999026
319,0.3096,559.599,596.417,8.0057,57.6051,-302.022,4.55186,0.144073,0.143921,-0.281797,-5.97918e-06,0.0179243,-0.000359694,0.384767,0.1549684181420996,-5.979162124747361e-06,0.018085904369693928,0.15479287628406113,-0.0003596293178687038,-0.24557318236646708
320,0.3106,560.067,596.93,8.02122,57.6566,-302.29,4.55583,0.144506,0.144354,-0.282658,-5.9854e-06,0.0179088,-0.000359373,0.385991,0.1554686277547208,-5.985382087514424e-06,0.018070124160473044,0.15529300987059957,-0.0003593084332581542,-0.24622246430046635
321,0.3116,560.533,597.439,8.03452,57.7074,-302.557,4.55978,0.144939,0.144786,-0.283518,-5.99161e-06,0.0178933,-0.000359053,0.387214,0.15596905400500316,-5.991592050391681e-06,0.01805434419584362,0.15579220426909024,-0.00035898854818572357,-0.2468704343141256
322,0.3126,560.999,597.948,8.04896,57.7576,-302.824,4.56377,0.145371,0.145219,-0.284378,-5.99777e-06,0.0178775,-0.000358732,0.388437,0.15646854051765202,-5.997752013375823e-06,0.01803825906427825,0.15629277065834102,-0.0003586676633695607,-0.24751784731312365
323,0.3136,561.464,598.454,8.0626,57.8074,-303.09,4.56776,0.145804,0.145651,-0.285238,-6.0039e-06,0.0178617,-0.000358409,0.389659,0.15696939982391056,-6.003881976579528e-06,0.01802217418685581,0.15679239704679526,-0.00035834477916707463,-0.2481647037762873
324,0.3146,561.929,598.96,8.07665,57.8567,-303.356,4.57177,0.146236,0.146083,-0.286097,-6.00999e-06,0.0178457,-0.000358085,0.390881,0.1574693185793108,-6.009971940001968e-06,0.018005885962375068,0.15729223932047698,-0.0003580208952183028,-0.24881025299266013
325,0.3156,562.393,599.464,8.09037,57.9057,-303.62,4.57578,0.146668,0.146515,-0.286956,-6.01605e-06,0.0178296,-0.00035776,0.392102,0.15796945334626877,-6.01603190364397e-06,0.017989496199548816,0.1577922975726691,-0.00035769601152224606,-0.24945524792035723
326,0.3166,562.856,599.967,8.10423,57.9544,-303.885,4.57981,0.1471,0.146947,-0.287814,-6.02207e-06,0.0178134,-0.000357434,0.393323,0.15846980421812118,-6.022051867393685e-06,0.017973004903290235,0.1582925718966941,-0.00035737012807801616,-0.2500989391346221
327,0.3176,563.319,600.468,8.11794,58.0028,-304.148,4.58385,0.147532,0.147379,-0.288672,-6.02804e-06,0.0177971,-0.000357106,0.394543,0.15897037128824576,-6.028021831361308e-06,0.01795641207854226,0.1587930623859155,-0.0003570422452416899,-0.25074207829868855
328,0.3186,563.78,600.968,8.13169,58.051,-304.411,4.58789,0.147963,0.14781,-0.28953,-6.03398e-06,0.0177806,-0.000356776,0.395763,0.15946999517948535,-6.0339617955484925e-06,0.01793961593631166,0.15929260984054738,-0.00035671236301115794,-0.2513846658860125
329,0.3196,564.241,601.467,8.14536,58.0989,-304.673,4.59194,0.148395,0.148241,-0.290388,-6.03988e-06,0.017764,-0.000356445,0.396983,0.15997099442544838,-6.0398617599544124e-06,0.017922718278937877,0.1597923726465369,-0.00035638148102823397,-0.25202670236964375
330,0.3206,564.701,601.965,8.15901,58.1467,-304.935,4.59599,0.148826,0.148672,-0.291245,-6.04573e-06,0.0177473,-0.000356113,0.398202,0.1604710496782118,-6.04571172457824e-06,0.017905719111486196,0.16029235089672067,-0.0003560495992918078,-0.25266744089004123
331,0.3216,565.16,602.461,8.17262,58.1943,-305.196,4.60005,0.149257,0.149103,-0.292101,-6.05154e-06,0.0177304,-0.000355779,0.39942,0.1609713205012413,-6.051521689420802e-06,0.017888516650194308,0.1607925446839753,-0.00035571571815662395,-0.25330688384001154
332,0.3226,565.618,602.957,8.1862,58.2418,-305.456,4.60411,0.149688,0.149534,-0.292958,-6.05731e-06,0.0177135,-0.000355443,0.400639,0.16147180698746744,-6.0572916544821e-06,0.017871314479621647,0.16129295410121713,-0.00035537983762068404,-0.25394652571486853
333,0.3236,566.075,603.451,8.19974,58.2891,-305.715,4.60817,0.150118,0.149964,-0.293813,-6.06304e-06,0.0176964,-0.000355105,0.401856,0.16197134725793316,-6.063021619762132e-06,0.017853909028961112,0.16179241744840445,-0.00035504195768187863,-0.2545841288212124
334,0.3246,566.531,603.944,8.21325,58.3363,-305.974,4.61224,0.150549,0.150394,-0.294669,-6.06873e-06,0.0176792,-0.000354766,0.403074,0.1624722648485879,-6.0687115852609e-06,0.017836402092285875,0.162292095611013,-0.00035470307798368683,-0.2552219317883264
335,0.3256,566.986,604.436,8.22672,58.3833,-306.232,4.6163,0.150979,0.150824,-0.295524,-6.07437e-06,0.0176618,-0.000354425,0.404291,0.16297223540843953,-6.074351551088597e-06,0.017818691892968808,0.1627919886814333,-0.0003543621988792989,-0.2558584448885215
336,0.3266,567.44,604.927,8.24016,58.4302,-306.49,4.62036,0.151409,0.151254,-0.296379,-6.07998e-06,0.0176444,-0.000354082,0.405507,0.16347242100186055,-6.079961516913812e-06,0.017800982001806354,0.16329209675209566,-0.00035401932036671635,-0.2564944140026031
337,0.3276,567.893,605.416,8.25357,58.477,-306.747,4.62443,0.151839,0.151684,-0.297234,-6.08553e-06,0.0176268,-0.000353738,0.406723,0.16397282172133587,-6.085511483178152e-06,0.01778306886215919,0.1637924199154701,-0.00035367544209030655,-0.2571298395954805
338,0.3286,568.345,605.905,8.26695,58.5237,-307.004,4.62849,0.152268,0.152114,-0.298088,-6.09105e-06,0.0176091,-0.000353392,0.407938,0.16447227318653357,-6.091031449551032e-06,0.017765054261269952,0.1642929582640662,-0.00035332956440214947,-0.25776397989601696
339,0.3296,568.796,606.392,8.28029,58.5703,-307.259,4.63256,0.152698,0.152543,-0.298942,-6.09652e-06,0.0175913,-0.000353044,0.409153,0.16497310393489784,-6.096501416252842e-06,0.017746938204537432,0.16479254709730418,-0.0003529816873002467,-0.25839757887191517
340,0.3306,569.247,606.878,8.2936,58.6167,-307.514,4.63662,0.153127,0.152972,-0.299795,-6.10195e-06,0.0175734,-0.000352694,0.410368,0.1654729846132248,-6.101931383173387e-06,0.017728720697390843,0.16529235030013067,-0.00035263181078259986,-0.2590298960155357
341,0.3316,569.696,607.363,8.30688,58.6631,-307.769,4.64068,0.153556,0.153401,-0.300648,-6.10734e-06,0.0175554,-0.000352342,0.411582,0.16597307978636855,-6.107321350201644e-06,0.017710401745289372,0.16579236796452967,-0.0003522799348470995,-0.2596616740226072
342,0.3326,570.144,607.847,8.32013,58.7093,-308.023,4.64474,0.153985,0.15383,-0.301501,-6.11268e-06,0.0175372,-0.000351989,0.412796,0.16647338954636748,-6.112661317558832e-06,0.01769187958452978,0.16629260018252534,-0.00035192705913966726,-0.260292913352817
343,0.3336,570.591,608.33,8.33334,58.7554,-308.276,4.6488,0.154414,0.154259,-0.302353,-6.11798e-06,0.017519,-0.000351633,0.414009,0.1669739139852986,-6.1179612852457765e-06,0.017673357760870312,0.1667930470461807,-0.0003515711843623537,-0.2609228753887054
344,0.3346,571.037,608.812,8.34653,58.8015,-308.529,4.65286,0.154843,0.154687,-0.303205,-6.12323e-06,0.0175006,-0.000351276,0.415222,0.1674746531952791,-6.1232112530396066e-06,0.017654632743358212,0.16729254135447347,-0.0003512143098095555,-0.2615523009255204
345,0.3356,571.482,609.293,8.35968,58.8474,-308.781,4.65691,0.155271,0.155115,-0.304057,-6.12845e-06,0.0174821,-0.000350917,0.416434,0.16797443929344213,-6.128431221052999e-06,0.01763580630679762,0.1677922494920865,-0.0003508554358310212,-0.2621811904201643
346,0.3366,571.926,609.772,8.3728,58.8932,-309.033,4.66096,0.155699,0.155543,-0.304908,-6.13361e-06,0.0174635,-0.000350556,0.417646,0.1684744393458384,-6.133591189505516e-06,0.0176168784568298,0.1682921715505581,-0.0003504945624247524,-0.26280880713832644
347,0.3376,572.369,610.251,8.38589,58.9389,-309.284,4.66501,0.156127,0.155971,-0.305759,-6.13874e-06,0.0174448,-0.000350193,0.418857,0.16897465344405949,-6.138721157955551e-06,0.01759784919912688,0.16879230762146613,-0.00035013168958841767,-0.2634358899818573
348,0.3386,572.812,610.728,8.39895,58.9845,-309.534,4.66905,0.156555,0.156399,-0.306609,-6.14382e-06,0.0174259,-0.000349829,0.420068,0.1694750816797368,-6.143801126734516e-06,0.017578616781523948,0.16929265779642755,-0.000349767816970159,-0.26406170346696234
349,0.3396,573.253,611.205,8.41197,59.03,-309.784,4.67309,0.156983,0.156826,-0.30746,-6.14886e-06,0.017407,-0.000349462,0.421279,0.16997572414454076,-6.148841095843238e-06,0.017559384727410254,0.16979205237446116,-0.00034940094526758614,-0.26468772054926326
350,0.3406,573.693,611.68,8.42497,59.0754,-310.033,4.67713,0.15741,0.157254,-0.30831,-6.15385e-06,0.0173879,-0.000349094,0.422489,0.17047541045418524,-6.153831065058846e-06,0.017539949528768695,0.1702928305317586,-0.0003490330737794256,-0.2653124704304818
351,0.3416,574.132,612.154,8.43794,59.1207,-310.282,4.68116,0.157837,0.157681,-0.309159,-6.1588e-06,0.0173688,-0.000348723,0.423699,0.1709753101754441,-6.1587810346042104e-06,0.017520514701335754,0.17079265227474338,-0.00034866220320195485,-0.2659359554362506
352,0.3426,574.57,612.627,8.45087,59.1659,-310.53,4.68519,0.158264,0.158108,-0.310008,-6.1637e-06,0.0173495,-0.000348351,0.424908,0.17147542339946353,-6.163681004478505e-06,0.017500876744908966,0.17129268748718496,-0.0003482903328351217,-0.26655891132789034
353,0.3436,575.008,613.099,8.46378,59.211,-310.777,4.68921,0.158691,0.158535,-0.310857,-6.16857e-06,0.0173301,-0.000347977,0.426117,0.17197575021742884,-6.16855097446134e-06,0.017481137419372184,0.17179293626025438,-0.00034791646302578805,-0.26718133855442805
354,0.3446,575.444,613.571,8.47666,59.2559,-311.024,4.69323,0.159118,0.158961,-0.311705,-6.17338e-06,0.0173106,-0.000347601,0.427325,0.17247629072056392,-6.173360944772277e-06,0.017461296730639786,0.17229222639234854,-0.0003475405937717335,-0.2678025053673816
355,0.3456,575.879,614.041,8.4895,59.3008,-311.27,4.69725,0.159545,0.159388,-0.312553,-6.17816e-06,0.017291,-0.000347223,0.428533,0.17297704500013156,-6.178140915191754e-06,0.017441354684656574,0.1727929020596657,-0.0003471627250706266,-0.26842314565415637
356,0.3466,576.314,614.51,8.50231,59.3456,-311.516,4.70126,0.159971,0.159814,-0.313401,-6.18289e-06,0.0172713,-0.000346843,0.42974,0.17347683967000793,-6.1828708859401615e-06,0.017421311287397545,0.1732926182679384,-0.0003467828569202469,-0.26904325986105737
357,0.3476,576.747,614.978,8.5151,59.3903,-311.762,4.70527,0.160397,0.16024,-0.314249,-6.18758e-06,0.0172515,-0.000346461,0.430947,0.17397684729777052,-6.187560857018326e-06,0.017401166544867674,0.1737925474006652,-0.00034640098931837393,-0.2696628484340112
358,0.3486,577.18,615.445,8.52785,59.4349,-312.006,4.70927,0.160823,0.160666,-0.315096,-6.19222e-06,0.0172316,-0.000346077,0.432154,0.17447706797415852,-6.192200828203376e-06,0.017380920463102578,0.1742926895485719,-0.0003460171222626762,-0.27028118210011354
359,0.3496,577.611,615.91,8.54058,59.4794,-312.25,4.71326,0.161249,0.161092,-0.315942,-6.19682e-06,0.0172116,-0.000345691,0.43336,0.17497750178995042,-6.196800799718183e-06,0.01736057304816807,0.17479304480242175,-0.0003456312557508223,-0.2708982631579647
360,0.3506,578.042,616.375,8.55328,59.5238,-312.494,4.71725,0.161675,0.161517,-0.316789,-6.20137e-06,0.0171915,-0.000345304,0.434565,0.17547814883596247,-6.20135077156192e-06,0.017340124306160387,0.17529243795999183,-0.0003452443894352841,-0.2715155508708196
361,0.3516,578.471,616.839,8.56594,59.5681,-312.737,4.72124,0.1621,0.161942,-0.317635,-6.20588e-06,0.0171712,-0.000344914,0.43577,0.1759778332246289,-6.2058607435133695e-06,0.01731947251125332,0.17579204340476173,-0.0003448545240045675,-0.27213158809429505
362,0.3526,578.9,617.302,8.57858,59.6123,-312.98,4.72522,0.162525,0.162368,-0.31848,-6.21035e-06,0.0171509,-0.000344523,0.436975,0.1764777300242948,-6.210330715794576e-06,0.017298821135573572,0.17629303751942205,-0.0003444636587662808,-0.2727463771174119
363,0.3536,579.328,617.764,8.59119,59.6564,-313.222,4.72919,0.16295,0.162793,-0.319325,-6.21478e-06,0.0171305,-0.000344129,0.438179,0.1769778393252539,-6.214760688294518e-06,0.017278068451300532,0.17679306830938413,-0.0003440697944073756,-0.2733606468632298
364,0.3546,579.755,618.225,8.60377,59.7004,-313.463,4.73316,0.163375,0.163217,-0.32017,-6.21916e-06,0.0171099,-0.000343734,0.439383,0.17747816121783844,-6.219140661012368e-06,0.017257112738934932,0.17729213436487434,-0.00034367493023690354,-0.2739743977703526
365,0.3556,580.18,618.685,8.61632,59.7444,-313.704,4.73712,0.1638,0.163642,-0.321015,-6.22349e-06,0.0170893,-0.000343337,0.440587,0.17797869579241898,-6.2234706341701695e-06,0.017236157458252688,0.17779258986123958,-0.0003432780665970636,-0.27458763027701394
366,0.3566,580.605,619.143,8.62884,59.7882,-313.944,4.74108,0.164225,0.164066,-0.321859,-6.22779e-06,0.0170685,-0.000342938,0.441789,0.17847944313940478,-6.227770607325489e-06,0.017214999166224487,0.17829207980372552,-0.00034287920348541334,-0.2751996200210597
367,0.3576,581.029,619.601,8.64133,59.8319,-314.184,4.74503,0.164649,0.164491,-0.322703,-6.23204e-06,0.0170477,-0.000342537,0.442992,0.17897922436942926,-6.232020580920761e-06,0.017193841314284253,0.17879296036722248,-0.00034247834089962126,-0.2758110934636713
368,0.3586,581.453,620.058,8.65379,59.8756,-314.424,4.74898,0.165073,0.164915,-0.323546,-6.23624e-06,0.0170267,-0.000342134,0.444194,0.179479217551626,-6.23622055473394e-06,0.017172480467906315,0.17929287455673704,-0.0003420754788372449,-0.27642132746211245
369,0.3596,581.875,620.514,8.66623,59.9191,-314.662,4.75291,0.165497,0.165339,-0.32439,-6.24041e-06,0.0170057,-0.000341729,0.445395,0.17997942277588175,-6.240390528655659e-06,0.017151120070101555,0.17979300075481053,-0.0003416706172958417,-0.27703177021865455
370,0.3606,582.296,620.969,8.67863,59.9625,-314.901,4.75685,0.165921,0.165762,-0.325232,-6.24453e-06,0.0169846,-0.000341322,0.446597,0.18047984013212126,-6.244510503017331e-06,0.017129658407889492,0.18029215875860483,-0.00034126375627296923,-0.2776402532608203
371,0.3616,582.717,621.423,8.69101,60.0059,-315.138,4.76077,0.166345,0.166186,-0.326075,-6.2486e-06,0.0169633,-0.000340914,0.447797,0.18098046971030768,-6.248580477485888e-06,0.017107993776894537,0.18079270874301634,-0.00034085589542542927,-0.2782489459273152
372,0.3626,583.136,621.876,8.70336,60.0492,-315.376,4.76469,0.166768,0.166609,-0.326917,-6.25264e-06,0.016942,-0.000340503,0.448998,0.18148013011972153,-6.252620452285029e-06,0.017086329607351347,0.18129228971274047,-0.00034044503543273485,-0.27885640453888016
373,0.3636,583.555,622.328,8.71568,60.0923,-315.612,4.7686,0.167191,0.167032,-0.327759,-6.25663e-06,0.0169205,-0.000340091,0.450197,0.18198000193019648,-6.256610427302078e-06,0.017064462486336973,0.18179208204991615,-0.0003400331756112651,-0.2794633518855668
374,0.3646,583.973,622.779,8.72797,60.1354,-315.849,4.77251,0.167614,0.167455,-0.3286,-6.26057e-06,0.016899,-0.000339676,0.451397,0.18248008523117454,-6.260550402648057e-06,0.017042595835460972,0.18229208584397005,-0.00033961831663886777,-0.28006906846710744
375,0.3656,584.39,623.229,8.74024,60.1784,-316.084,4.77641,0.168037,0.167878,-0.329441,-6.26448e-06,0.0168774,-0.00033926,0.452596,0.1829803801121348,-6.264460378213599e-06,0.017020627952644807,0.18279230118436818,-0.00033920245783358727,-0.28067427585514904
376,0.3666,584.806,623.678,8.75248,60.2213,-316.319,4.7803,0.16846,0.168301,-0.330282,-6.26834e-06,0.0168556,-0.000338842,0.453794,0.18348088666259477,-6.268320353997048e-06,0.01699845714461823,0.1832927281606127,-0.0003387845995329597,-0.2812789744777431
377,0.3676,585.221,624.126,8.76468,60.2641,-316.554,4.78419,0.168883,0.168723,-0.331122,-6.27216e-06,0.0168338,-0.000338422,0.454992,0.18398160497210947,-6.272140329999232e-06,0.016976286819909925,0.1837921830694702,-0.0003383647417343205,-0.2818824466453872
378,0.3686,585.635,624.574,8.77687,60.3068,-316.788,4.78807,0.169305,0.169146,-0.331962,-6.27593e-06,0.0168119,-0.000338,0.456189,0.18448135064832893,-6.275910306441368e-06,0.016954015283102697,0.18429303308521883,-0.00033794288443522724,-0.2824854121092558
379,0.3696,586.049,625.02,8.78902,60.3494,-317.022,4.79194,0.169727,0.169568,-0.332802,-6.27966e-06,0.0167899,-0.000337576,0.457387,0.18498130726172857,-6.279640282991217e-06,0.016931642540867653,0.1847929102118362,-0.00033751902763312636,-0.2830878712948015
380,0.3706,586.461,625.465,8.80115,60.392,-317.255,4.79581,0.170149,0.16999,-0.333641,-6.28335e-06,0.0167677,-0.000337151,0.458583,0.18548147490134226,-6.283330259759801e-06,0.01690906690899352,0.18529299833111734,-0.0003370941709884834,-0.283689108316586
381,0.3716,586.873,625.91,8.81325,60.4344,-317.488,4.79967,0.170571,0.170411,-0.33448,-6.287e-06,0.0167455,-0.000336723,0.459779,0.1859818536562421,-6.286980236858142e-06,0.016886491778293156,0.18579211173941523,-0.0003366663151731508,-0.28428984111206157
382,0.3726,587.284,626.353,8.82532,60.4768,-317.72,4.80352,0.170993,0.170833,-0.335319,-6.29061e-06,0.0167232,-0.000336294,0.460975,0.18648244361553745,-6.290590214175218e-06,0.01686381546236837,0.18629262161072435,-0.0003362374595110573,-0.28489007010409695
383,0.3736,587.694,626.796,8.83736,60.519,-317.952,4.80736,0.171414,0.171254,-0.336157,-6.29417e-06,0.0167008,-0.000335863,0.462171,0.1869820578857242,-6.294150191710202e-06,0.01684103796801084,0.18679215594902265,-0.0003358066043365193,-0.2854890812046442
384,0.3746,588.103,627.238,8.84938,60.5612,-318.183,4.8112,0.171835,0.171676,-0.336995,-6.29769e-06,0.0166783,-0.00033543,0.463365,0.18748188253780085,-6.297670169574943e-06,0.016818159302042446,0.18729308792804655,-0.0003353737496470943,-0.28608759054415656
385,0.3756,588.511,627.678,8.86137,60.6033,-318.414,4.81503,0.172256,0.172097,-0.337833,-6.30117e-06,0.0166558,-0.000334995,0.46456,0.187981917660357,-6.301150147658419e-06,0.016795281150838504,0.18779304355133863,-0.0003349388954401178,-0.2866855985429334
386,0.3766,588.919,628.118,8.87333,60.6453,-318.644,4.81886,0.172677,0.172517,-0.33867,-6.3046e-06,0.0166331,-0.000334559,0.465754,0.1884821633420195,-6.3045801260708245e-06,0.01677220015992642,0.18829202140764512,-0.0003345030413783867,-0.28728239290367175
387,0.3776,589.325,628.557,8.88527,60.6872,-318.874,4.82267,0.173098,0.172938,-0.339507,-6.308e-06,0.0166103,-0.00033412,0.466947,0.1889826196714519,-6.3079801045917705e-06,0.016749018018040296,0.1887923976704704,-0.00033406418812897964,-0.2878786879565196
388,0.3786,589.731,628.995,8.89718,60.729,-319.103,4.82648,0.173519,0.173359,-0.340343,-6.31135e-06,0.0165875,-0.00033368,0.46814,0.18948328673735615,-6.311330083441646e-06,0.016725836404700933,0.18929298463605226,-0.00033362433502037714,-0.28847377259335116
389,0.3796,590.136,629.432,8.90906,60.7708,-319.332,4.83029,0.173939,0.173779,-0.341179,-6.31466e-06,0.0165645,-0.000333238,0.469333,0.18998297464490088,-6.3146400626212795e-06,0.01670245197938547,0.18979259259992753,-0.0003331824823846752,-0.2890683599473196
390,0.3806,590.54,629.869,8.92092,60.8125,-319.56,4.83408,0.174359,0.174199,-0.342015,-6.31793e-06,0.0165415,-0.000332794,0.470525,0.1904828724654457,-6.317910041908625e-06,0.01667906809190578,0.19029241044321932,-0.00033273863021920924,-0.28966245043397965
391,0.3816,590.943,630.304,8.93275,60.854,-319.788,4.83787,0.174779,0.174619,-0.342851,-6.32116e-06,0.0165184,-0.000332348,0.471717,0.1909829802871721,-6.3211400215257285e-06,0.016655583076685687,0.1907924382540953,-0.00033229277852120376,-0.2902560444685387
392,0.3826,591.346,630.739,8.94455,60.8955,-320.015,4.84165,0.175199,0.175039,-0.343686,-6.32434e-06,0.0164951,-0.0003319,0.472908,0.19148329819829946,-6.324320001360739e-06,0.016631895277563924,0.1912926761207605,-0.0003318449272879942,-0.29084843331464516
393,0.3836,591.747,631.172,8.95633,60.9369,-320.242,4.84543,0.175619,0.175459,-0.344521,-6.32748e-06,0.0164718,-0.000331451,0.474099,0.19198382628708366,-6.327459981525507e-06,0.01660820803036156,0.191793124131457,-0.0003313960761855972,-0.2914403277225218
394,0.3846,592.148,631.605,8.96808,60.9783,-320.468,4.8492,0.176039,0.175878,-0.345355,-6.33059e-06,0.0164484,-0.000331,0.47529,0.19248456464181785,-6.330569961909838e-06,0.0165844196766185,0.1922925900812773,-0.00033094522554366623,-0.2920310201362265
395,0.3856,592.548,632.037,8.97981,61.0195,-320.694,4.85296,0.176458,0.176297,-0.346189,-6.33365e-06,0.016425,-0.000330547,0.47648,0.1929843203659154,-6.333629942512076e-06,0.016560631879516396,0.19279226535118,-0.00033049237535920373,-0.29262122011783076
396,0.3866,592.948,632.468,8.99151,61.0606,-320.92,4.85671,0.176877,0.176716,-0.347023,-6.33667e-06,0.0164014,-0.000330093,0.477669,0.1934842855315364,-6.336649923333049e-06,0.016536641331693636,0.1932921500288889,-0.0003300385252997806,-0.2932109280778519
397,0.3876,593.346,632.898,9.00318,61.1017,-321.145,4.86046,0.177296,0.177135,-0.347857,-6.33965e-06,0.0163777,-0.000329636,0.478858,0.1939844602264551,-6.339629904483779e-06,0.01651254969878102,0.1937922442021638,-0.00032958167602292754,-0.29380014442646485
398,0.3886,593.744,633.327,9.01483,61.1427,-321.369,4.86419,0.177715,0.177554,-0.34869,-6.34258e-06,0.016354,-0.000329178,0.480047,0.1944848445384828,-6.342559885852417e-06,0.016488458636833236,0.19429254795880202,-0.00032912382686656194,-0.2943881639620194
399,0.3896,594.141,633.755,9.02645,61.1836,-321.593,4.86792,0.178134,0.177973,-0.349522,-6.34548e-06,0.0163302,-0.000328718,0.481235,0.19498543855546724,-6.345459867440617e-06,0.016464266499405245,0.19479306138663732,-0.0003286639781576728,-0.29497498885659557
400,0.3906,594.537,634.183,9.03805,61.2244,-321.817,4.87165,0.178552,0.178391,-0.350355,-6.34834e-06,0.0163062,-0.000328256,0.482423,0.19548504687964852,-6.348319849358575e-06,0.016439871649748694,0.19529258928035342,-0.0003282021298938176,-0.29556203015423255
401,0.3916,594.932,634.609,9.04962,61.2652,-322.04,4.87537,0.17897,0.178809,-0.351187,-6.35115e-06,0.0162822,-0.000327793,0.48361,0.19598486408376248,-6.35112983149444e-06,0.016415477385561372,0.19579232602037488,-0.0003277392817442326,-0.2961478787983134
402,0.3926,595.326,635.035,9.06116,61.3058,-322.263,4.87908,0.179388,0.179227,-0.352019,-6.35393e-06,0.0162581,-0.000327328,0.484797,0.19648489025513882,-6.353909813849867e-06,0.016390982067726156,0.19629227169401786,-0.00032727443403490764,-0.29673324021903535
403,0.3936,595.72,635.46,9.07268,61.3464,-322.485,4.88278,0.179806,0.179645,-0.35285,-6.35666e-06,0.016234,-0.000326861,0.485983,0.1969851254811441,-6.356639796534225e-06,0.016366487340220948,0.1967924263886347,-0.0003268075867630671,-0.29731741213936325
404,0.3946,596.113,635.884,9.08418,61.3869,-322.707,4.88647,0.180224,0.180063,-0.353681,-6.35935e-06,0.0162097,-0.000326392,0.487169,0.19748556984918153,-6.359329779326295e-06,0.016341789934653406,0.1972927901916146,-0.0003263387399258244,-0.2979010988144727
405,0.3956,596.505,636.308,9.09565,61.4273,-322.928,4.89016,0.180642,0.18048,-0.354512,-6.36201e-06,0.0161854,-0.000325922,0.488355,0.1979862234466907,-6.36198976244895e-06,0.016317093129225357,0.19779216539761868,-0.0003258688931946363,-0.2984843006474349
406,0.3966,596.896,636.73,9.10709,61.4677,-323.149,4.89384,0.181059,0.180898,-0.355342,-6.36462e-06,0.0161609,-0.00032545,0.48954,0.1984858878746607,-6.364599745900534e-06,0.016292193665463417,0.19829294717885548,-0.0003253970468933831,-0.29906631710765386
407,0.3976,597.287,637.152,9.11851,61.5079,-323.37,4.89752,0.181476,0.181315,-0.356172,-6.36719e-06,0.0161364,-0.000324976,0.490724,0.19898576070614626,-6.367169729459832e-06,0.016267294811730837,0.19879273953729348,-0.0003249232010192893,-0.29964785069463107
408,0.3986,597.677,637.572,9.1299,61.5481,-323.59,4.90118,0.181893,0.181732,-0.357002,-6.36973e-06,0.0161118,-0.000324501,0.491909,0.19948584202806963,-6.369709713349714e-06,0.016242294943777935,0.19929274035260525,-0.0003244483552450328,-0.30022890180898487
409,0.3996,598.066,637.992,9.14127,61.5882,-323.809,4.90484,0.18231,0.182149,-0.357831,-6.37222e-06,0.0160872,-0.000324024,0.493092,0.1999861319273899,-6.3721996974575035e-06,0.016217295690814426,0.19979294971173522,-0.0003239715098931617,-0.30080877166012276
410,0.4006,598.454,638.411,9.15262,61.6283,-324.029,4.90849,0.182727,0.182565,-0.35866,-6.37467e-06,0.0160624,-0.000323545,0.494276,0.2004866304911015,-6.374649681784028e-06,0.01619209381438602,0.20029216740889688,-0.00032349266496090046,-0.3013881609983542
411,0.4016,598.842,638.83,9.16394,61.6682,-324.247,4.91214,0.183144,0.182982,-0.359489,-6.37708e-06,0.0160376,-0.000323064,0.495459,0.2009873378062359,-6.37705966644031e-06,0.016166892562956114,0.2007927936160161,-0.00032301182044525145,-0.3019670702218592
412,0.4026,599.229,639.247,9.17523,61.7081,-324.466,4.91578,0.18356,0.183398,-0.360317,-6.37946e-06,0.0160127,-0.000322582,0.496641,0.20148705247220722,-6.3794396513161544e-06,0.016141590322345634,0.2012924273347685,-0.00032252997602078004,-0.3025448022736391
413,0.4036,599.615,639.664,9.1865,61.7479,-324.683,4.91941,0.183976,0.183814,-0.361145,-6.38179e-06,0.0159877,-0.000322098,0.497823,0.201986975062725,-6.381769636409906e-06,0.016116187100128965,0.2017922689443863,-0.00032204613200825793,-0.3031220561612673
414,0.4046,600.0,640.08,9.19775,61.7876,-324.901,4.92303,0.184392,0.18423,-0.361973,-6.38409e-06,0.0159626,-0.000321613,0.499005,0.2024871056643036,-6.384069621723221e-06,0.0160906829039118,0.20229231853136986,-0.00032156128808302764,-0.3036988322805001
415,0.4056,600.385,640.495,9.20897,61.8272,-325.118,4.92665,0.184808,0.184646,-0.3628,-6.38634e-06,0.0159374,-0.000321126,0.500186,0.2029874443634938,-6.386319607365465e-06,0.016065077741329148,0.20279257618225577,-0.00032107444456486167,-0.30427443530154896
416,0.4066,600.768,640.909,9.22017,61.8668,-325.334,4.93026,0.185224,0.185062,-0.363627,-6.38856e-06,0.0159122,-0.000320637,0.501366,0.20348799124688233,-6.3885395932272715e-06,0.016039473223988354,0.20329304198361697,-0.0003205856014506514,-0.30484956249568096
417,0.4076,601.151,641.322,9.23134,61.9062,-325.55,4.93386,0.185639,0.185477,-0.364454,-6.39074e-06,0.0158868,-0.000320147,0.502547,0.20398754241294714,-6.390719579307813e-06,0.0160136661491197,0.20379251222894768,-0.0003200957584176267,-0.30542421425624233
418,0.4086,601.534,641.735,9.24249,61.9457,-325.766,4.93745,0.186054,0.185892,-0.36528,-6.39288e-06,0.0158614,-0.000319655,0.503726,0.20448730093576928,-6.39285956560709e-06,0.01598785972974226,0.20429218979744657,-0.0003196039157837838,-0.3059976969742979
419,0.4096,601.915,642.147,9.25362,61.985,-325.981,4.94104,0.18647,0.186307,-0.366106,-6.39498e-06,0.015836,-0.000319161,0.504906,0.20498847188928937,-6.394959552125101e-06,0.01596205396583983,0.20479207477517103,-0.00031911007354612497,-0.3065707061912114
420,0.4106,602.296,642.558,9.26472,62.0242,-326.196,4.94462,0.186885,0.186722,-0.366932,-6.39704e-06,0.0158104,-0.000318666,0.506085,0.2054886458840488,-6.39701953897287e-06,0.01593604567016582,0.20529216724821353,-0.00031861523138310144,-0.3071432422979331
421,0.4116,602.677,642.968,9.27579,62.0634,-326.411,4.9482,0.187299,0.187137,-0.367757,-6.39906e-06,0.0157848,-0.000318169,0.507263,0.20598782150566874,-6.399039526039374e-06,0.015910038040295893,0.2057924673027025,-0.00031811838961137706,-0.30771461340005024
422,0.4126,603.056,643.378,9.28685,62.1025,-326.625,4.95176,0.187714,0.187552,-0.368582,-6.40104e-06,0.0157591,-0.000317671,0.508441,0.20648841031658738,-6.401019513435635e-06,0.015883929487814585,0.20629297502480215,-0.0003176205479104022,-0.30828551331539933
423,0.4136,603.435,643.786,9.29788,62.1416,-326.838,4.95532,0.188128,0.187966,-0.369407,-6.40299e-06,0.0157333,-0.000317171,0.509619,0.20698799992637196,-6.402969500940436e-06,0.015857720020537203,0.20679248370762537,-0.00031712070659573044,-0.3088559424325493
424,0.4146,603.813,644.194,9.30888,62.1805,-327.052,4.95888,0.188543,0.18838,-0.370231,-6.40489e-06,0.0157074,-0.000316669,0.510796,0.20748900389747504,-6.4048694887741675e-06,0.01583140964630969,0.20729219922985598,-0.00031661886566436426,-0.30942521056530425
425,0.4156,604.19,644.601,9.31987,62.2194,-327.264,4.96242,0.188957,0.188794,-0.371055,-6.40676e-06,0.0156815,-0.000316166,0.511972,0.20798900783876295,-6.406739476716439e-06,0.01580509995351176,0.20779212167714323,-0.00031611602479719725,-0.30999400981432446
426,0.4166,604.567,645.008,9.33083,62.2582,-327.477,4.96596,0.189371,0.189208,-0.371878,-6.40859e-06,0.0156554,-0.000315661,0.513149,0.20848921882453775,-6.408569464988467e-06,0.0157785877863883,0.20829225113517214,-0.0003156111843083398,-0.31056165112780676
427,0.4176,604.942,645.413,9.34176,62.2969,-327.689,4.96949,0.189784,0.189622,-0.372702,-6.41038e-06,0.0156293,-0.000315155,0.514324,0.20898842795150108,-6.410359453590253e-06,0.01575207631122333,0.20879258768966258,-0.0003151053438795737,-0.3111295143355054
428,0.4186,605.318,645.818,9.35267,62.3356,-327.9,4.97302,0.190198,0.190036,-0.373525,-6.41214e-06,0.0156032,-0.000314647,0.5155,0.20948905278286278,-6.412119442300579e-06,0.015725565527998864,0.20929313142637018,-0.0003145975038241211,-0.3116962215132164
429,0.4196,605.692,646.222,9.36356,62.3742,-328.111,4.97654,0.190611,0.190449,-0.374347,-6.41386e-06,0.0155769,-0.000314138,0.516675,0.20998867492653295,-6.41383943122964e-06,0.01569885229690593,0.20979267263780899,-0.0003140886638247631,-0.3122617747449097
430,0.4206,606.066,646.626,9.37443,62.4127,-328.322,4.98005,0.191025,0.190862,-0.375169,-6.41553e-06,0.0155506,-0.000313627,0.517849,0.21048971394587324,-6.415509420487631e-06,0.015672139768361903,0.21029242020237704,-0.00031357782419350055,-0.3128268632828618
431,0.4216,606.439,647.028,9.38527,62.4512,-328.532,4.98355,0.191438,0.191275,-0.375991,-6.41717e-06,0.0155242,-0.000313114,0.519023,0.21098974944795668,-6.417149409965184e-06,0.015645326377810242,0.21079237420531594,-0.00031306498492744694,-0.3133914875088941
432,0.4226,606.811,647.43,9.39609,62.4895,-328.742,4.98705,0.191851,0.191688,-0.376813,-6.41878e-06,0.0154977,-0.0003126,0.520197,0.21148999150735337,-6.418759399662299e-06,0.015618412133276527,0.21129253473190213,-0.0003125511457107155,-0.3139556478045141
433,0.4236,607.183,647.831,9.40689,62.5278,-328.952,4.99054,0.192263,0.192101,-0.377634,-6.42034e-06,0.0154712,-0.000312085,0.52137,0.21198922821955524,-6.420319389688345e-06,0.015591498601960962,0.2117929018674476,-0.000312036306541974,-0.3145186590699178
434,0.4246,607.554,648.231,9.41766,62.5661,-329.161,4.99402,0.192676,0.192513,-0.378455,-6.42187e-06,0.0154446,-0.000311568,0.522543,0.21248988314893635,-6.42184937982293e-06,0.015564484227390762,0.21229226340442997,-0.00031151946773122496,-0.315081208292767
435,0.4256,607.924,648.631,9.42842,62.6042,-329.37,4.9975,0.193088,0.192926,-0.379276,-6.42336e-06,0.0154179,-0.000311049,0.523715,0.21298953190136904,-6.423339370287273e-06,0.015537369017651681,0.21279304351319017,-0.0003110006292751377,-0.31564329585224293
436,0.4266,608.294,649.03,9.43914,62.6423,-329.578,5.00097,0.193501,0.193338,-0.380096,-6.42482e-06,0.0153911,-0.000310529,0.524887,0.21349060004149312,-6.424799360860156e-06,0.01551015298085856,0.2132928171934263,-0.00031048079086026803,-0.316204238331796
437,0.4276,608.663,649.428,9.44985,62.6803,-329.786,5.00443,0.193913,0.19375,-0.380916,-6.42624e-06,0.0153643,-0.000310008,0.526058,0.21399066117422993,-6.426219351762796e-06,0.01548293767344533,0.21379279682284147,-0.0003099599524851726,-0.3167647210270531
438,0.4286,609.031,649.825,9.46053,62.7183,-329.993,5.00789,0.194325,0.194162,-0.381736,-6.42762e-06,0.0153374,-0.000309485,0.527229,0.2144909283746006,-6.4275993428841716e-06,0.015455621549825382,0.2142929824863038,-0.00030943711445752253,-0.317324744314883
439,0.4296,609.398,650.221,9.4712,62.7561,-330.201,5.01134,0.194736,0.194573,-0.382555,-6.42896e-06,0.0153104,-0.00030896,0.5284,0.2149901867367281,-6.428939334335304e-06,0.015428204618173735,0.2147921594759501,-0.0003089122767742092,-0.3178836264558127
440,0.4306,609.765,650.617,9.48183,62.7939,-330.407,5.01478,0.195148,0.194985,-0.383374,-6.43027e-06,0.0152833,-0.000308434,0.52957,0.2154908658264738,-6.430249325894977e-06,0.015400686886695603,0.21529275696165517,-0.0003083864391237867,-0.31844205105965595
441,0.4316,610.132,651.013,9.49245,62.8317,-330.614,5.01822,0.195559,0.195396,-0.384192,-6.43154e-06,0.0152562,-0.000307907,0.53074,0.21599053524736078,-6.431519317673384e-06,0.015373169900937844,0.2157923449430641,-0.0003078596015045898,-0.31899933750066034
442,0.4326,610.497,651.407,9.50304,62.8694,-330.82,5.02165,0.19597,0.195807,-0.385011,-6.43277e-06,0.015229,-0.000307378,0.531909,0.2164904100745879,-6.432749309781549e-06,0.015345552126319939,0.21629213829733462,-0.00030733076422240213,-0.31955684871124346
443,0.4336,610.862,651.801,9.51362,62.907,-331.025,5.02507,0.196381,0.196218,-0.385829,-6.43397e-06,0.0152018,-0.000306847,0.533078,0.21699049039259433,-6.433949302109276e-06,0.015317935102895364,0.2167921371088921,-0.0003067999272741151,-0.3201132236206361
444,0.4346,611.226,652.194,9.52417,62.9445,-331.23,5.02849,0.196792,0.196629,-0.386646,-6.43513e-06,0.0151744,-0.000306315,0.534246,0.21749077628585445,-6.435109294544716e-06,0.015290115772599977,0.21729234146219722,-0.0003062680903501702,-0.320668464270248
445,0.4356,611.59,652.586,9.53469,62.9819,-331.435,5.0319,0.197203,0.19704,-0.387463,-6.43625e-06,0.015147,-0.000305782,0.535414,0.21799126783887668,-6.436229287420936e-06,0.015262297204543973,0.21779275144174481,-0.0003057352534491242,-0.32122325147350705
446,0.4366,611.953,652.977,9.5452,63.0193,-331.64,5.0353,0.197613,0.19745,-0.38828,-6.43734e-06,0.0151196,-0.000305247,0.536582,0.2184907466448489,-6.4373192804056956e-06,0.015234479398706258,0.2182921488393068,-0.00030520041687442934,-0.3217775856007279
447,0.4376,612.315,653.368,9.55568,63.0567,-331.844,5.0387,0.198024,0.197861,-0.389097,-6.43839e-06,0.015092,-0.000304711,0.537749,0.21899164927015846,-6.43836927360919e-06,0.01520645931375375,0.2187929698241422,-0.00030466458031819244,-0.3223314670219224
448,0.4386,612.676,653.758,9.56614,63.0939,-332.048,5.04209,0.198434,0.198271,-0.389913,-6.43941e-06,0.0150644,-0.000304174,0.538915,0.21949153831661117,-6.439389267032247e-06,0.015178440002145077,0.2192927773953206,-0.00030412774377897023,-0.3228842189913579
449,0.4396,613.037,654.148,9.57658,63.1311,-332.251,5.04547,0.198844,0.198681,-0.390729,-6.44039e-06,0.0150367,-0.000303635,0.540082,0.2199916323595943,-6.4403692607850616e-06,0.015150319948821656,0.21979278992961793,-0.0003035889075585496,-0.3234365200991629
450,0.4406,613.398,654.536,9.587,63.1682,-332.454,5.04885,0.199254,0.199091,-0.391545,-6.44133e-06,0.015009,-0.000303094,0.541247,0.2204919314831737,-6.4413092546455886e-06,0.015122200674412722,0.22029300751108605,-0.000303048071653933,-0.3239883707130904
451,0.4416,613.757,654.924,9.5974,63.2053,-332.656,5.05222,0.199664,0.1995,-0.39236,-6.44224e-06,0.0149812,-0.000302552,0.542413,0.22099243577144967,-6.4422192488367e-06,0.015093980669493856,0.22079220943099176,-0.0003025062357591146,-0.32453909574002693
452,0.4426,614.116,655.312,9.60777,63.2423,-332.859,5.05558,0.200073,0.19991,-0.393175,-6.44312e-06,0.0149533,-0.000302009,0.543577,0.22149192381602245,-6.443099243136352e-06,0.01506565994250919,0.22129283685846812,-0.0003019633998726512,-0.32508937210891964
453,0.4436,614.475,655.698,9.61813,63.2792,-333.06,5.05894,0.200482,0.200319,-0.39399,-6.44395e-06,0.0149253,-0.000301464,0.544742,0.22199161619298846,-6.443929237764934e-06,0.015037238501932837,0.22179244779221463,-0.0003014185642942202,-0.3256392001852756
454,0.4446,614.832,656.084,9.62846,63.3161,-333.262,5.06229,0.200892,0.200728,-0.394804,-6.44476e-06,0.0148973,-0.000300918,0.545906,0.22249273547806125,-6.444739232613905e-06,0.015008817857145695,0.22229226310862638,-0.0003008727287197033,-0.3261879065225479
455,0.4456,615.188,656.462,9.6328,63.3501,-333.463,5.06773,0.201301,0.201137,-0.395618,-6.44552e-06,0.0148692,-0.000300371,0.54707,0.22299283727071684,-6.445499227680784e-06,0.014980296510090696,0.22279228289131314,-0.0003003258931475461,-0.3267361663945978
456,0.4466,615.555,656.854,9.65091,63.3846,-333.663,5.07087,0.201709,0.201546,-0.396431,-6.44726e-06,0.0148411,-0.000299908,0.548233,0.2234919201543082,-6.447239216500478e-06,0.014951775964474168,0.22329250722391847,-0.0002998630320912854,-0.32728330744834366
457,0.4476,615.911,657.234,9.65808,63.4195,-333.863,5.07502,0.202118,0.201955,-0.397245,-6.44844e-06,0.0148128,-0.000299398,0.549395,0.2239924306970802,-6.44841920882655e-06,0.014923053235643025,0.22379293619012053,-0.0002993531848913822,-0.32783067602684557
458,0.4486,616.27,657.619,9.67033,63.4547,-334.063,5.07916,0.202527,0.202363,-0.398058,-6.44951e-06,0.0147845,-0.000298881,0.550558,0.22449314599053283,-6.449489201920677e-06,0.014894331319653453,0.224292345580674,-0.0002988363395234339,-0.328376927605881
459,0.4496,616.626,658.0,9.67943,63.4902,-334.263,5.0832,0.202935,0.202771,-0.39887,-6.45053e-06,0.0147562,-0.000298362,0.55172,0.22499284112497264,-6.450509195343734e-06,0.014865610216482583,0.22479195877183122,-0.00029831749448483436,-0.32892206418526104
460,0.4506,616.982,658.383,9.69026,63.5259,-334.462,5.08719,0.203343,0.20318,-0.399682,-6.45148e-06,0.0147278,-0.000297838,0.552881,0.22549274017662357,-6.451459189205089e-06,0.014836788442423643,0.22529300113914852,-0.0002977936506659562,-0.3294667582934063
461,0.4516,617.336,658.764,9.70005,63.5617,-334.66,5.09113,0.203751,0.203588,-0.400494,-6.45238e-06,0.0146993,-0.000297311,0.554042,0.22599284322870083,-6.452359183395373e-06,0.014807866006099735,0.2257930226810716,-0.00029726680746433587,-0.33001101028945756
462,0.4526,617.69,659.144,9.7104,63.5976,-334.859,5.09501,0.204159,0.203995,-0.401306,-6.45321e-06,0.0146707,-0.00029678,0.555203,0.2264931503644536,-6.453189178134977e-06,0.014778842916164159,0.22629202198077203,-0.0002967359651721013,-0.33055482053226404
463,0.4536,618.042,659.524,9.7204,63.6335,-335.057,5.09886,0.204566,0.204403,-0.402117,-6.454e-06,0.0146421,-0.000296246,0.556363,0.22699243467411678,-6.453979172982294e-06,0.014749820656277057,0.22679245120636016,-0.0002962021234865775,-0.3310975204782389
464,0.4546,618.394,659.903,9.73057,63.6695,-335.254,5.10266,0.204974,0.204811,-0.402928,-6.45473e-06,0.0146134,-0.00029571,0.557523,0.22749314972638857,-6.454709168268735e-06,0.014720697754339707,0.22729308464873,-0.0002956662821073097,-0.3316397804729818
465,0.4556,618.746,660.282,9.74062,63.7055,-335.452,5.10643,0.205381,0.205218,-0.403739,-6.45541e-06,0.0145847,-0.000295171,0.558682,0.2279928411186276,-6.4553891638841066e-06,0.014691575688217773,0.22779269459790985,-0.00029512744132620394,-0.33218160087314874
466,0.4566,619.096,660.66,9.7507,63.7414,-335.649,5.11017,0.205788,0.205625,-0.404549,-6.45604e-06,0.0145559,-0.000294629,0.559841,0.22849273592665575,-6.456019159828408e-06,0.014662352991646976,0.22829250792972489,-0.0002945856011384862,-0.3327223147577547
467,0.4576,619.446,661.037,9.76073,63.7773,-335.845,5.11388,0.206195,0.206032,-0.405359,-6.45663e-06,0.014527,-0.000294085,0.560999,0.22899283423327987,-6.456609155991444e-06,0.014633029673369435,0.2287925247269682,-0.00029404176124514514,-0.3332625908414475
468,0.4586,619.795,661.414,9.77075,63.8131,-336.042,5.11758,0.206602,0.206439,-0.406169,-6.45718e-06,0.0144981,-0.00029354,0.562157,0.22949313612134103,-6.4571591524842376e-06,0.014603707202523575,0.22929274507246733,-0.00029349692134938987,-0.3338024294787021
469,0.4596,620.144,661.79,9.78073,63.8489,-336.238,5.12127,0.207009,0.206845,-0.406978,-6.45769e-06,0.0144691,-0.000292992,0.563315,0.22999364167371317,-6.457669149195766e-06,0.014574284121651404,0.22979193925652908,-0.00029294908203558734,-0.3343411653652051
470,0.4606,620.492,662.165,9.7907,63.8845,-336.433,5.12496,0.207415,0.207252,-0.407787,-6.45817e-06,0.0144401,-0.000292444,0.564472,0.23049312047956927,-6.458149146015835e-06,0.014544861894036254,0.23029256644652896,-0.0002924012424215805,-0.33487946559062454
471,0.4616,620.839,662.539,9.80063,63.92,-336.629,5.12865,0.207822,0.207658,-0.408596,-6.45862e-06,0.0144109,-0.000291894,0.565628,0.23099403310840994,-6.458599143166488e-06,0.014515237616585575,0.23079216664048285,-0.00029185140309107016,-0.33541733050726774
472,0.4626,621.188,662.92,9.81614,63.9579,-336.824,5.1305,0.208228,0.208064,-0.409404,-6.45904e-06,0.0143818,-0.000291344,0.566785,0.2314939181556499,-6.459019140425681e-06,0.014485715652717612,0.23129196971329713,-0.00029130156345813507,-0.33595409642158547
473,0.4636,621.524,663.287,9.81918,63.9954,-337.019,5.13422,0.208634,0.20847,-0.410213,-6.45856e-06,0.0143525,-0.000290718,0.56794,0.23199400619742416,-6.4585391434945905e-06,0.014455991656707523,0.23179197574735744,-0.0002906757456170306,-0.3364910923134544
474,0.4646,621.869,663.663,9.83178,64.0325,-337.213,5.13708,0.20904,0.208876,-0.41102,-6.45845e-06,0.0143232,-0.000290126,0.569096,0.23249429731616522,-6.458429144262645e-06,0.014426268531597897,0.23229218482508274,-0.00029008391752194385,-0.3370263280053081
475,0.4656,622.21,664.033,9.83995,64.0693,-337.407,5.1399,0.209445,0.209282,-0.411828,-6.45835e-06,0.0142939,-0.000289536,0.570251,0.2329935586001639,-6.458329144920505e-06,0.014396546277363198,0.23279259702892507,-0.00028949408849743286,-0.33756179437473444
476,0.4666,622.553,664.406,9.85085,64.1058,-337.601,5.14274,0.209851,0.209687,-0.412635,-6.45821e-06,0.0142645,-0.000288945,0.571405,0.23349425561957293,-6.4581891457971e-06,0.014366723457300168,0.2332919791487753,-0.00028890325941377526,-0.33809616635857764
477,0.4676,622.894,664.776,9.86009,64.1421,-337.795,5.14559,0.210256,0.210093,-0.413442,-6.45804e-06,0.014235,-0.000288353,0.572559,0.2339939219687046,-6.458019146893257e-06,0.014336800080330114,0.23379279735152547,-0.00028831143026941675,-0.3386301072781879
478,0.4686,623.236,665.146,9.87028,64.1781,-337.988,5.14846,0.210661,0.210498,-0.414248,-6.45785e-06,0.0142055,-0.00028776,0.573713,0.23449379072369236,-6.4578291480987815e-06,0.014306877586086841,0.23429258463454605,-0.0002877186010622479,-0.3391629566445805
479,0.4696,623.577,665.515,9.87992,64.214,-338.181,5.15134,0.211066,0.210903,-0.415055,-6.45764e-06,0.0141759,-0.000287167,0.574866,0.23499386196652683,-6.457619149524696e-06,0.014276854546853457,0.23479257437241086,-0.00028712577150358243,-0.3396960370117096
480,0.4706,623.918,665.884,9.88983,64.2496,-338.373,5.15422,0.211471,0.211308,-0.41586,-6.4574e-06,0.0141463,-0.000286574,0.576019,0.23549413577923217,-6.4573791510591505e-06,0.014246832396288767,0.23529276664713028,-0.00028653294159342035,-0.3402273678125748
481,0.4716,624.258,666.252,9.89956,64.2852,-338.566,5.15712,0.211876,0.211712,-0.416666,-6.45714e-06,0.0141165,-0.000285979,0.577171,0.23599461224386586,-6.4571191527029725e-06,0.01421660829102489,0.23579192574820484,-0.0002859381119035831,-0.3407589303056563
482,0.4726,624.598,666.62,9.90936,64.3206,-338.757,5.16002,0.21228,0.212117,-0.417471,-6.45685e-06,0.0140868,-0.000285385,0.578323,0.2364940549478456,-6.456829154566357e-06,0.014186486505069373,0.23629252284220192,-0.00028534428157445113,-0.3412894058217182
483,0.4736,624.937,666.986,9.91909,64.3559,-338.949,5.16293,0.212685,0.212521,-0.418276,-6.45653e-06,0.0140569,-0.000284789,0.579475,0.23699493646175962,-6.456509156649304e-06,0.014156162782464676,0.23679208592637835,-0.00028474845146209127,-0.3418194544768244
484,0.4746,625.276,667.352,9.92883,64.3911,-339.14,5.16584,0.213089,0.212926,-0.419081,-6.45619e-06,0.0140271,-0.000284193,0.580626,0.2374947833783687,-6.456169158841618e-06,0.014125941379115048,0.23729308816728434,-0.00028415262099457106,-0.34234907661445935
485,0.4756,625.615,667.718,9.93853,64.4261,-339.331,5.16876,0.213493,0.21333,-0.419885,-6.45582e-06,0.0139971,-0.000283596,0.581776,0.23799483227392915,-6.455799161253495e-06,0.014095518057225753,0.2377930555615173,-0.00028355579045558077,-0.3428776154557759
486,0.4766,625.953,668.083,9.94822,64.4611,-339.521,5.17169,0.213897,0.213733,-0.420689,-6.45542e-06,0.0139671,-0.000282999,0.582926,0.23849508323005697,-6.455399163773912e-06,0.014065095648022385,0.23829198669077867,-0.0002829589595602089,-0.34340572952264603
487,0.4776,626.29,668.447,9.95789,64.496,-339.711,5.17462,0.214301,0.214137,-0.421492,-6.455e-06,0.013937,-0.0002824,0.584076,0.23899553632840087,-6.454979166514718e-06,0.01403457274801534,0.23879235772154406,-0.00028236012887328243,-0.34393276308954257
488,0.4786,626.627,668.81,9.96753,64.5309,-339.901,5.17755,0.214704,0.214541,-0.422296,-6.45455e-06,0.0139069,-0.000281801,0.585226,0.2394949521550711,-6.454529169475087e-06,0.014004050766733833,0.23929293094304582,-0.0002817612978276429,-0.34446002915865603
489,0.4796,626.964,669.173,9.97716,64.5656,-340.09,5.18049,0.215107,0.214944,-0.423099,-6.45407e-06,0.0138767,-0.000281201,0.586375,0.2399945692868799,-6.454049172543996e-06,0.013973428306802038,0.23979246664389886,-0.0002811614667045381,-0.34498621646276484
490,0.4806,627.3,669.536,9.98677,64.6003,-340.279,5.18343,0.215511,0.215347,-0.423901,-6.45356e-06,0.0138465,-0.000280601,0.587523,0.24049562829997728,-6.453539175832468e-06,0.013942806771654714,0.24029220369820936,-0.000280561635221388,-0.3455113269197224
491,0.4816,627.635,669.898,9.99635,64.6349,-340.468,5.18637,0.215914,0.21575,-0.424704,-6.45302e-06,0.0138162,-0.000279999,0.588671,0.2409956487855427,-6.452999179340502e-06,0.013912084770050237,0.24079214218713907,-0.0002799598039383566,-0.3460366703705815
492,0.4826,627.97,670.259,10.0059,64.6695,-340.656,5.18931,0.216317,0.216153,-0.425506,-6.45246e-06,0.0137858,-0.000279397,0.589819,0.24149587081997326,-6.452439182957903e-06,0.013881262311177034,0.2412922821918826,-0.0002793579722930595,-0.3465609387012427
493,0.4836,628.305,670.619,10.0155,64.704,-340.845,5.19226,0.216719,0.216556,-0.426307,-6.45187e-06,0.0137554,-0.000278794,0.590966,0.24199505248883568,-6.4518491866838446e-06,0.013850440789292096,0.24179262379366695,-0.0002787551405640798,-0.34708413382172376
494,0.4846,628.639,670.979,10.025,64.7384,-341.032,5.1952,0.217122,0.216958,-0.427109,-6.45125e-06,0.013725,-0.00027819,0.592113,0.24249567736412558,-6.451229190740371e-06,0.013819620204367444,0.2422919247812063,-0.00027815130874986327,-0.34760756242347346
495,0.4856,628.972,671.339,10.0345,64.7728,-341.22,5.19815,0.217524,0.217361,-0.42791,-6.4506e-06,0.0136944,-0.000277585,0.593259,0.2429952610360162,-6.450579194905437e-06,0.013788597798634505,0.24279266932014076,-0.0002775464768484115,-0.3481299195340207
496,0.4866,629.305,671.698,10.044,64.8071,-341.407,5.2011,0.217926,0.217763,-0.42871,-6.44992e-06,0.0136639,-0.00027698,0.594405,0.2434950455809155,-6.449899199290066e-06,0.013757677717935124,0.24329237240679835,-0.00027694164458114123,-0.34865120705558295
497,0.4876,629.637,672.056,10.0535,64.8413,-341.594,5.20405,0.218328,0.218165,-0.429511,-6.44922e-06,0.0136332,-0.000276373,0.59555,0.24399503107959108,-6.449199203784062e-06,0.013726555834952636,0.2437922764144791,-0.000276334812500556,-0.34917272854149217
498,0.4886,629.969,672.413,10.0629,64.8755,-341.78,5.207,0.21873,0.218567,-0.430311,-6.44849e-06,0.0136025,-0.000275766,0.596695,0.2444952176128421,-6.44846920849762e-06,0.01369543490739722,0.2442923814239697,-0.0002757279800515988,-0.3496931821494583
499,0.4896,630.3,672.77,10.0724,64.9096,-341.966,5.20996,0.219132,0.218969,-0.431111,-6.44773e-06,0.0135718,-0.000275158,0.59784,0.24499560526150121,-6.447709213430741e-06,0.013664314935239563,0.24479268751608907,-0.00027512014750941116,-0.3502132195610388
500,0.4906,630.631,673.127,10.0818,64.9437,-342.152,5.21291,0.219534,0.21937,-0.43191,-6.44694e-06,0.013541,-0.000274549,0.598984,0.24549619410643264,-6.446919218472402e-06,0.01363309455513595,0.2452919494791166,-0.0002745113148722167,-0.3507321918415741
501,0.4916,630.961,673.482,10.0912,64.9777,-342.337,5.21586,0.219935,0.219772,-0.432709,-6.44613e-06,0.0135101,-0.000273939,0.600128,0.2459957382321727,-6.446109223734453e-06,0.013601773776422688,0.24579265747837198,-0.00027390148213812804,-0.3512507496288694
502,0.4926,631.29,673.838,10.1006,65.0117,-342.523,5.21882,0.220336,0.220173,-0.433508,-6.44528e-06,0.0134792,-0.000273329,0.601272,0.2464954827152761,-6.445259229215239e-06,0.013570453965506601,0.24629232050976313,-0.00027329164903200365,-0.3517688932539723
503,0.4936,631.619,674.192,10.1099,65.0456,-342.707,5.22177,0.220737,0.220574,-0.434307,-6.44441e-06,0.0134483,-0.000272717,0.602414,0.24699542763610216,-6.444389234805392e-06,0.013539135122357493,0.24679218394620817,-0.00027267981609924163,-0.35228662304766656
504,0.4946,631.948,674.546,10.1193,65.0794,-342.892,5.22472,0.221138,0.220975,-0.435105,-6.44351e-06,0.0134172,-0.000272105,0.603557,0.24749557307504277,-6.443489240615108e-06,0.013507614545402724,0.24729224786808612,-0.0002720679827921124,-0.352803292144087
505,0.4956,632.276,674.9,10.1286,65.1132,-343.076,5.22767,0.221539,0.221376,-0.435903,-6.44258e-06,0.0133862,-0.000271491,0.604699,0.24799591911252183,-6.442559246644386e-06,0.013476196296337228,0.24779251235580735,-0.0002714541496533496,-0.3533195491030332
506,0.4966,632.603,675.253,10.1379,65.1469,-343.26,5.23062,0.22194,0.221777,-0.4367,-6.44162e-06,0.013355,-0.000270877,0.605841,0.2484964658289952,-6.441599252782204e-06,0.013444576332286795,0.24829297748981527,-0.00027084031613777704,-0.3538347480883308
507,0.4976,632.93,675.605,10.1472,65.1806,-343.444,5.23357,0.22234,0.222177,-0.437498,-6.44063e-06,0.0133239,-0.000270262,0.606982,0.24899596430836257,-6.440609259139585e-06,0.013413058696064573,0.24879239455756585,-0.00027022548251554035,-0.3543501822737638
508,0.4986,633.257,675.957,10.1565,65.2142,-343.627,5.23652,0.22274,0.222577,-0.438294,-6.43962e-06,0.0132926,-0.000269646,0.608123,0.249495662627087,-6.439599265717355e-06,0.013381339363737643,0.24929201143210222,-0.00026960964878475213,-0.35486391503590875
509,0.4996,633.583,676.308,10.1657,65.2478,-343.81,5.23946,0.22314,0.222978,-0.439091,-6.43857e-06,0.0132614,-0.000269029,0.609263,0.2499955608651201,-6.438549272402838e-06,0.013349722359177196,0.24979307798581618,-0.00026899281494363603,-0.35537788365192524
510,0.5006,633.908,676.659,10.1749,65.2813,-343.993,5.24241,0.22354,0.223378,-0.439887,-6.4375e-06,0.01323,-0.000268411,0.610403,0.25049565910244564,-6.437479279308711e-06,0.013317903677451115,0.2502930952137892,-0.00026837498099019363,-0.35589079868927076
511,0.5016,634.233,677.009,10.1842,65.3148,-344.175,5.24535,0.22394,0.223777,-0.440683,-6.4364e-06,0.0131986,-0.000267792,0.611543,0.25099595741907943,-6.436379286434146e-06,0.013286085994815844,0.2507920616959729,-0.00026775614692287064,-0.35640330560869915
512,0.5026,634.557,677.358,10.1934,65.3482,-344.357,5.24829,0.22434,0.224177,-0.441479,-6.43527e-06,0.0131672,-0.000267172,0.612682,0.25149645589506897,-6.435249293668122e-06,0.013254269311240297,0.25129247859735937,-0.0002671363127394466,-0.3569154047349429
513,0.5036,634.881,677.707,10.2025,65.3815,-344.539,5.25122,0.224739,0.224577,-0.442274,-6.43411e-06,0.0131357,-0.000266551,0.613821,0.2519959026139653,-6.434089301121659e-06,0.013222352304452345,0.251793095705545,-0.0002665154784383672,-0.3574264538192513
514,0.5046,635.204,678.056,10.2117,65.4148,-344.721,5.25416,0.225139,0.224976,-0.443069,-6.43292e-06,0.0131042,-0.00026593,0.614959,0.2524968011480393,-6.4328993087947595e-06,0.013190436303034403,0.2522926608073419,-0.00026589464375170735,-0.3579370967809927
515,0.5056,635.527,678.404,10.2209,65.4481,-344.902,5.25709,0.225538,0.225375,-0.443864,-6.4317e-06,0.0130726,-0.000265307,0.616097,0.2529966470843301,-6.431679316687422e-06,0.013158419991107673,0.25279242527538504,-0.0002652718092100992,-0.3584473339429065
516,0.5066,635.849,678.751,10.23,65.4813,-345.083,5.26002,0.225937,0.225774,-0.444659,-6.43046e-06,0.0130409,-0.000264684,0.617234,0.253496692498943,-6.430439324689452e-06,0.013126303378244941,0.2532923891892378,-0.00026464897428035705,-0.35895716562747504
517,0.5076,636.171,679.098,10.2391,65.5144,-345.263,5.26294,0.226336,0.226173,-0.445453,-6.42918e-06,0.0130092,-0.000264059,0.618371,0.25399693747148566,-6.429159332910217e-06,0.013094187783462718,0.253792552628495,-0.00026402413949078163,-0.3594659516231967
518,0.5086,636.492,679.444,10.2482,65.5475,-345.444,5.26587,0.226734,0.226572,-0.446246,-6.42788e-06,0.0129775,-0.000263434,0.619508,0.2544961275848423,-6.4278593412403495e-06,0.013062073206728808,0.2542929156727829,-0.0002633993043105187,-0.3599736937771878
519,0.5096,636.812,679.789,10.2573,65.5805,-345.624,5.26879,0.227133,0.22697,-0.44704,-6.42655e-06,0.0129457,-0.000262808,0.620644,0.2549967714115502,-6.426529349790044e-06,0.013029858345019685,0.25479222360890885,-0.00026277346900260845,-0.36048167296990186
520,0.5106,637.133,680.134,10.2663,65.6135,-345.804,5.27171,0.227531,0.227369,-0.447833,-6.42519e-06,0.0129139,-0.000262181,0.62178,0.2554963595380144,-6.425169358559302e-06,0.012997644507727113,0.25529298560150293,-0.0002621466335650524,-0.3609886099761481
521,0.5116,637.452,680.479,10.2754,65.6465,-345.983,5.27462,0.227929,0.227767,-0.448626,-6.4238e-06,0.012882,-0.000261552,0.622915,0.2559961465401266,-6.423779367437099e-06,0.012965330398280184,0.25579269164467866,-0.00026151779825756005,-0.3614951451406998
522,0.5126,637.771,680.823,10.2844,65.6793,-346.162,5.27753,0.228327,0.228165,-0.449418,-6.42239e-06,0.01285,-0.000260923,0.62405,0.25649613249705494,-6.422369376535286e-06,0.012932916026340058,0.25629259661044235,-0.00026088896255449523,-0.3620006407830507
523,0.5136,638.09,681.166,10.2934,65.7122,-346.341,5.28044,0.228725,0.228563,-0.450211,-6.42094e-06,0.012818,-0.000260293,0.625185,0.25699631748799945,-6.4209193858522084e-06,0.012900502691643334,0.2567927005779813,-0.0002602591267161225,-0.3625063737252957
524,0.5146,638.408,681.509,10.3024,65.7449,-346.52,5.28335,0.229123,0.228961,-0.451003,-6.41947e-06,0.012786,-0.000259662,0.626319,0.2574967015921912,-6.419449395278498e-06,0.012868090394156706,0.25729300362651397,-0.0002596282907406655,-0.36301106879167755
525,0.5156,638.726,681.851,10.3114,65.7776,-346.698,5.28625,0.229521,0.229358,-0.451794,-6.41797e-06,0.0127539,-0.000259031,0.627452,0.25799728488889295,-6.41794940492435e-06,0.012835577850284219,0.2577922480424131,-0.00025899745436708255,-0.36351472781285965
526,0.5166,639.043,682.193,10.3203,65.8103,-346.876,5.28915,0.229918,0.229756,-0.452586,-6.41644e-06,0.0127218,-0.000258398,0.628586,0.2584968089599613,-6.416419414678742e-06,0.012803066350047576,0.2582929489900132,-0.00025836461811212796,-0.3640186245789727
527,0.5176,639.359,682.534,10.3292,65.8429,-347.054,5.29205,0.230315,0.230153,-0.453377,-6.41488e-06,0.0126896,-0.000257764,0.629718,0.2589965313814555,-6.414859424652697e-06,0.012770454616362947,0.25879259046303216,-0.000257730781714427,-0.3645214869386483
528,0.5186,639.676,682.875,10.3382,65.8755,-347.231,5.29494,0.230712,0.23055,-0.454167,-6.41329e-06,0.0126573,-0.000257129,0.630851,0.2594964522321368,-6.413269434846214e-06,0.012737742658979645,0.25929243033309524,-0.0002570959451718702,-0.3650233167151057
529,0.5196,639.991,683.215,10.3471,65.908,-347.408,5.29783,0.231109,0.230947,-0.454958,-6.41168e-06,0.0126251,-0.000256494,0.631983,0.25999657159079725,-6.4116594452601205e-06,0.012705133028684035,0.25979246867898165,-0.0002564611082261914,-0.36552538467752704
530,0.5206,640.306,683.555,10.356,65.9405,-347.585,5.30072,0.231506,0.231344,-0.455748,-6.41004e-06,0.0125927,-0.000255858,0.633114,0.2604968895362596,-6.410019455782567e-06,0.012672321913916873,0.2602927055795019,-0.0002558252711333253,-0.36602642168795463
531,0.5216,640.621,683.894,10.3648,65.9729,-347.762,5.3036,0.231903,0.231741,-0.456537,-6.40836e-06,0.0125603,-0.00025522,0.634246,0.260997406147379,-6.408339466523749e-06,0.01263951186221246,0.2607931411134976,-0.00025518743414632006,-0.3665264295621976
532,0.5226,640.935,684.232,10.3737,66.0052,-347.938,5.30648,0.232299,0.232137,-0.457327,-6.40667e-06,0.0125279,-0.000254582,0.635376,0.2614968600055505,-6.406649477375126e-06,0.012606702873536602,0.2612925140666975,-0.00025454959675241806,-0.36702667605946004
533,0.5236,641.249,684.57,10.3825,66.0376,-348.114,5.30935,0.232695,0.232533,-0.458116,-6.40494e-06,0.0124954,-0.000253943,0.636507,0.2619965116866161,-6.404919488445238e-06,0.012573793690470403,0.2617920848107469,-0.0002539107592055556,-0.3675258950442618
534,0.5246,641.562,684.908,10.3913,66.0698,-348.29,5.31223,0.233092,0.23293,-0.458905,-6.40318e-06,0.0124629,-0.000253303,0.637636,0.2624976237659218,-6.403159499734912e-06,0.012540885576935112,0.26229311571647096,-0.0002532709215037343,-0.3680247203006308
535,0.5256,641.875,685.245,10.4001,66.102,-348.465,5.31509,0.233488,0.233326,-0.459693,-6.4014e-06,0.0124304,-0.000252662,0.638766,0.26299767182791456,-6.401379511133953e-06,0.012507978532896313,0.2627930827772391,-0.00025263008364495576,-0.3685225206619327
536,0.5266,642.187,685.581,10.4089,66.1342,-348.64,5.31796,0.233883,0.233721,-0.460481,-6.39959e-06,0.0123977,-0.00025202,0.639895,0.263496654450867,-6.399569522641535e-06,0.012474870063324595,0.2632919845715538,-0.0002519882456274436,-0.3690199289110624
537,0.5276,642.499,685.917,10.4177,66.1663,-348.815,5.32082,0.234279,0.234117,-0.461269,-6.39775e-06,0.0123651,-0.000251377,0.641024,0.2639970982073534,-6.397729534479701e-06,0.012441863920563678,0.26379234726271816,-0.0002513454074491994,-0.3695169453568825
538,0.5286,642.81,686.253,10.4265,66.1984,-348.99,5.32368,0.234674,0.234513,-0.462057,-6.39588e-06,0.0123324,-0.000250733,0.642152,0.26449647568170365,-6.395859546426408e-06,0.012408757612904608,0.264292908136746,-0.00025070156910833585,-0.3700135703080125
539,0.5296,643.12,686.587,10.4352,66.2304,-349.164,5.32653,0.23507,0.234908,-0.462844,-6.39399e-06,0.0122996,-0.000250088,0.64328,0.26499731544580185,-6.393969558482482e-06,0.012375551150243691,0.2647924024790982,-0.0002500567306028545,-0.370509174582318
540,0.5306,643.431,686.922,10.4439,66.2623,-349.338,5.32938,0.235465,0.235303,-0.463631,-6.39207e-06,0.0122668,-0.000249443,0.644407,0.26549708808400085,-6.392049570758118e-06,0.012342345776737096,0.26529209416068733,-0.0002494118916814836,-0.3710043889695004
541,0.5316,643.741,687.256,10.4526,66.2942,-349.512,5.33222,0.23586,0.235698,-0.464418,-6.39012e-06,0.012234,-0.000248796,0.645534,0.26599705817138575,-6.390099583253317e-06,0.012309141492348852,0.26579198325947817,-0.00024876505284177064,-0.3714992137762799
542,0.5326,644.05,687.589,10.4613,66.3261,-349.686,5.33506,0.236255,0.236093,-0.465204,-6.38814e-06,0.0122011,-0.000248149,0.646661,0.26649722578596413,-6.388119595857056e-06,0.012275837069454676,0.2662920698534659,-0.0002481182135835036,-0.37199302130247136
543,0.5336,644.359,687.922,10.47,66.3579,-349.859,5.3379,0.23665,0.236488,-0.46599,-6.38614e-06,0.0121682,-0.000247501,0.647787,0.2669975910057747,-6.3861196086811844e-06,0.01224253374225781,0.26679235402067625,-0.0002474703741541795,-0.3724864408484433
544,0.5346,644.667,688.254,10.4786,66.3897,-350.032,5.34073,0.237044,0.236883,-0.466776,-6.3841e-06,0.0121352,-0.000246852,0.648912,0.2674968864113667,-6.384079621724048e-06,0.012209130289804193,0.2672928358391664,-0.0002468215345519109,-0.37297947271902854
545,0.5356,644.975,688.586,10.4873,66.4214,-350.204,5.34356,0.237439,0.237277,-0.467561,-6.38204e-06,0.0121021,-0.000246202,0.650038,0.2679976465751206,-6.382019634876279e-06,0.012175626722078725,0.2677922475941421,-0.00024617169477469947,-0.37347149069062413
546,0.5366,645.282,688.917,10.4959,66.4531,-350.377,5.34639,0.237833,0.237672,-0.468346,-6.37996e-06,0.0120691,-0.000245551,0.651163,0.2684973360802396,-6.379939648137878e-06,0.01214222547752053,0.2682931244486082,-0.0002455208548206578,-0.3739631225796691
547,0.5376,645.589,689.248,10.5045,66.4847,-350.549,5.34921,0.238227,0.238066,-0.469131,-6.37784e-06,0.012036,-0.000244899,0.652287,0.26899722250181357,-6.3778196616182115e-06,0.012108724124307635,0.2687929303949468,-0.00024486901468778743,-0.37445436868911963
548,0.5386,645.896,689.578,10.5131,66.5163,-350.721,5.35203,0.238621,0.23846,-0.469916,-6.3757e-06,0.0120028,-0.000244246,0.653411,0.26949730591744303,-6.375679675318935e-06,0.012075122672453809,0.26929293330362714,-0.00024421617437409004,-0.3749452293216937
549,0.5396,646.202,689.908,10.5217,66.5478,-350.893,5.35484,0.239015,0.238854,-0.4707,-6.37353e-06,0.0119696,-0.000243593,0.654535,0.26999758640475857,-6.373509689128198e-06,0.012041522336149857,0.26979313325226784,-0.00024356333363406701,-0.3754350802152644
550,0.5406,646.507,690.237,10.5302,66.5793,-351.064,5.35765,0.239408,0.239247,-0.471484,-6.37134e-06,0.0119364,-0.000242939,0.655658,0.2704967935439935,-6.371319703046829e-06,0.012007923115358476,0.2702922600256228,-0.00024290949271066342,-0.37592454721624013
551,0.5416,646.812,690.566,10.5388,66.6107,-351.235,5.36046,0.239802,0.239641,-0.472267,-6.36911e-06,0.0119031,-0.000242283,0.656781,0.2709974679070224,-6.369089717295218e-06,0.011974223812615259,0.27079285378656803,-0.0002422536518441598,-0.37641300703879343
552,0.5426,647.117,690.894,10.5473,66.6421,-351.406,5.36326,0.240195,0.240034,-0.473051,-6.36686e-06,0.0118697,-0.000241627,0.657903,0.2714970680769129,-6.366839731541951e-06,0.011940424437992592,0.27129237352730584,-0.00024159781054744478,-0.37690170764560527
553,0.5436,647.421,691.222,10.5558,66.6734,-351.577,5.36606,0.240588,0.240427,-0.473834,-6.36458e-06,0.0118364,-0.00024097,0.659025,0.2719968646282567,-6.364559746119269e-06,0.01190672738291787,0.27179208961788226,-0.000240940969061465,-0.3773894026510075
554,0.5446,647.725,691.549,10.5643,66.7047,-351.747,5.36885,0.240981,0.24082,-0.474616,-6.36228e-06,0.0118029,-0.000240312,0.660147,0.27249685763824694,-6.362259760694933e-06,0.011872829075350255,0.27229200213547755,-0.00024028312738422208,-0.37787609381708653
555,0.5456,648.028,691.876,10.5728,66.7359,-351.917,5.37164,0.241374,0.241213,-0.475399,-6.35995e-06,0.0117695,-0.000239654,0.661268,0.27299704718410656,-6.359929775601181e-06,0.011839033087255313,0.27279211115730284,-0.0002396252852741032,-0.37836302617673123
556,0.5466,648.331,692.202,10.5813,66.7671,-352.087,5.37443,0.241767,0.241606,-0.476181,-6.35759e-06,0.011736,-0.000238994,0.662389,0.27349743334308996,-6.357569790615969e-06,0.01180513704740882,0.27329241676059945,-0.00023896544320900492,-0.37884895626683257
557,0.5476,648.633,692.528,10.5897,66.7983,-352.256,5.37721,0.242159,0.241999,-0.476963,-6.35521e-06,0.0117024,-0.000238334,0.663509,0.2739967421951015,-6.355189805740125e-06,0.01177114096594134,0.2737929190226389,-0.00023830560070847717,-0.3793345065081438
558,0.5486,648.935,692.853,10.5981,66.8294,-352.426,5.37998,0.242552,0.242391,-0.477744,-6.35279e-06,0.0116688,-0.000237672,0.664629,0.2744975213114351,-6.352769821083015e-06,0.011737146026723044,0.2742923437277427,-0.00023764375824764095,-0.3798190570169575
559,0.5496,649.237,693.178,10.6066,66.8604,-352.595,5.38276,0.242944,0.242783,-0.478525,-6.35035e-06,0.0116352,-0.00023701,0.665749,0.2749972222747792,-6.350329836535273e-06,0.011703152229715519,0.27479196424570773,-0.00023698191534882174,-0.38030322923956383
560,0.5506,649.538,693.503,10.615,66.8914,-352.763,5.38553,0.243336,0.243176,-0.479306,-6.34789e-06,0.0116015,-0.000236347,0.666868,0.275497119159299,-6.347869852207921e-06,0.011669058407969501,0.27529305594572584,-0.00023631907224808124,-0.3807870234712889
561,0.5516,649.838,693.826,10.6234,66.9224,-352.932,5.38829,0.243728,0.243568,-0.480087,-6.3454e-06,0.0115678,-0.000235684,0.667987,0.2759972120418106,-6.345379867989109e-06,0.01163496573516598,0.27579306881977717,-0.00023565622870791447,-0.38127044000722843
562,0.5526,650.138,694.15,10.6317,66.9533,-353.1,5.39105,0.24412,0.243959,-0.480867,-6.34288e-06,0.011534,-0.000235019,0.669105,0.27649750099916015,-6.34285988398986e-06,0.011600773051183788,0.27629200144465726,-0.00023499138519822438,-0.3817528608954177
563,0.5536,650.438,694.473,10.6401,66.9842,-353.268,5.39381,0.244511,0.244351,-0.481647,-6.34034e-06,0.0115002,-0.000234353,0.670223,0.2769967091108767,-6.340319900099978e-06,0.011566581522894692,0.2767924059821052,-0.00023432554148072882,-0.38223490564202844
564,0.5546,650.737,694.795,10.6484,67.015,-353.436,5.39656,0.244903,0.244743,-0.482426,-6.33776e-06,0.0114664,-0.000233687,0.67134,0.277497389947881,-6.337739916428831e-06,0.011532391150259835,0.27729300671658375,-0.00023365969731981018,-0.38271595725660257
565,0.5556,651.036,695.117,10.6568,67.0458,-353.603,5.39931,0.245294,0.245134,-0.483206,-6.33517e-06,0.0114325,-0.00023302,0.672457,0.2779969890926184,-6.335149932867878e-06,0.011498100783424725,0.27779252593185255,-0.00023299285294842154,-0.3831972510809494
566,0.5566,651.334,695.438,10.6651,67.0765,-353.77,5.40205,0.245685,0.245525,-0.483985,-6.33254e-06,0.0113986,-0.000232352,0.673574,0.2784967836188159,-6.332519949525661e-06,0.01146381157901355,0.27829224049732315,-0.0002323250083645645,-0.38367755332034614
567,0.5576,651.632,695.759,10.6734,67.1072,-353.937,5.4048,0.246076,0.245916,-0.484764,-6.32989e-06,0.0113646,-0.000231683,0.67469,0.2789967736028829,-6.3298699662928115e-06,0.011429422394039213,0.278792150489392,-0.00023165616356635166,-0.3841574815499941
568,0.5586,651.93,696.08,10.6816,67.1378,-354.104,5.40753,0.246467,0.246307,-0.485542,-6.32722e-06,0.0113306,-0.000231014,0.675806,0.27949695912125816,-6.327199983169329e-06,0.01139503437827738,0.27929225598448637,-0.00023098731832060793,-0.38463642069786186
569,0.5596,652.227,696.4,10.6899,67.1684,-354.271,5.41026,0.246858,0.246698,-0.48632,-6.32452e-06,0.0112966,-0.000230343,0.676921,0.27999734025041034,-6.3245000002654095e-06,0.011360647531688306,0.2797925570590625,-0.0002303164730880214,-0.38511498737598204
570,0.5606,652.523,696.719,10.6982,67.199,-354.437,5.41299,0.247248,0.247089,-0.487098,-6.32179e-06,0.0112625,-0.000229672,0.678036,0.2804966365695616,-6.321770017581052e-06,0.011326160721610856,0.2802930537896071,-0.00022964562740523942,-0.38559318187402347
571,0.5616,652.819,697.038,10.7064,67.2295,-354.603,5.41572,0.247639,0.247479,-0.487875,-6.31903e-06,0.0112284,-0.000229,0.679151,0.2809974086490221,-6.319010035005235e-06,0.01129167508751383,0.2807924654595306,-0.0002289737815013293,-0.3860703905521272
572,0.5626,653.115,697.357,10.7146,67.2599,-354.768,5.41844,0.248029,0.247869,-0.488653,-6.31625e-06,0.0111942,-0.000228327,0.680265,0.2814970950709139,-6.316230052538785e-06,0.01125708950364257,0.28129207193799055,-0.00022830093537429264,-0.3865478420355678
573,0.5636,653.41,697.675,10.7228,67.2904,-354.934,5.42115,0.248419,0.24826,-0.48943,-6.31345e-06,0.01116,-0.000227654,0.681379,0.2819969764085164,-6.3134300701817025e-06,0.011222505102578273,0.28179315509349134,-0.000227628088794396,-0.3870243092308293
574,0.5646,653.705,697.993,10.731,67.3207,-355.099,5.42386,0.248809,0.24865,-0.490206,-6.31062e-06,0.0111258,-0.000226979,0.682492,0.2824970527378614,-6.310600088044183e-06,0.011187921884280083,0.2822931519170211,-0.00022695324221566615,-0.3874997938549716
575,0.5656,654.0,698.31,10.7392,67.3511,-355.264,5.42657,0.249199,0.249039,-0.490983,-6.30776e-06,0.0110915,-0.000226304,0.683605,0.2829973241350108,-6.307740106126225e-06,0.011153238733378812,0.28279206098463905,-0.00022627839518130077,-0.3879755216709556
576,0.5666,654.294,698.627,10.7473,67.3813,-355.429,5.42927,0.249588,0.249429,-0.491759,-6.30488e-06,0.0110571,-0.000225628,0.684718,0.2834965071789066,-6.304860124317635e-06,0.011118455660238835,0.283292447457443,-0.0002256025479170365,-0.38845026844056885
577,0.5676,654.587,698.943,10.7555,67.4116,-355.593,5.43197,0.249978,0.249819,-0.492534,-6.30197e-06,0.0110228,-0.000224951,0.68583,0.28399716843930634,-6.301950142617585e-06,0.011083774891988085,0.2837930291190305,-0.0002249257004208749,-0.388924035873934
578,0.5686,654.88,699.259,10.7636,67.4418,-355.758,5.43467,0.250367,0.250208,-0.49331,-6.29903e-06,0.0109884,-0.000224274,0.686942,0.284496740498295,-6.2990101611370974e-06,0.011048994208363139,0.2842925217523762,-0.00022424885246652426,-0.38939804688203816
579,0.5696,655.173,699.574,10.7717,67.4719,-355.922,5.43736,0.250756,0.250597,-0.494085,-6.29607e-06,0.0109539,-0.000223595,0.688053,0.28499650692861733,-6.296050179765977e-06,0.011014113619756571,0.2847922087261532,-0.00022357000450101694,-0.38987108007166726
580,0.5706,655.465,699.889,10.7798,67.502,-356.085,5.44005,0.251145,0.250986,-0.49486,-6.29309e-06,0.0109195,-0.000222916,0.689164,0.28549646780589866,-6.293070198504225e-06,0.01097933533243789,0.28529209011597456,-0.00022289115607454502,-0.39034374680259554
581,0.5716,655.757,700.203,10.7879,67.5321,-356.249,5.44273,0.251534,0.251375,-0.495634,-6.29008e-06,0.010885,-0.000222236,0.690274,0.28599662320579355,-6.290060217462035e-06,0.010944457147021192,0.2857921659974825,-0.00022221130740940342,-0.3908154381744612
582,0.5726,656.049,700.517,10.796,67.5621,-356.412,5.44541,0.251923,0.251764,-0.496408,-6.28704e-06,0.0108504,-0.000221556,0.691385,0.2864969732039857,-6.287020236639407e-06,0.010909479073928141,0.2862924364463495,-0.00022153145828196497,-0.391286764598458
583,0.5736,656.34,700.831,10.8041,67.5921,-356.575,5.44808,0.252312,0.252153,-0.497182,-6.28398e-06,0.0108158,-0.000220874,0.692494,0.28699751787618877,-6.283960255815124e-06,0.010874502211055237,0.28679290153827663,-0.0002208496091338219,-0.3917577263569465
584,0.5746,656.63,701.144,10.8121,67.622,-356.738,5.45075,0.2527,0.252541,-0.497956,-6.2809e-06,0.0107812,-0.000220192,0.693604,0.2874969698005323,-6.280880275211231e-06,0.010839526558360957,0.28729227405607705,-0.00022016775952082845,-0.3922283237320684
585,0.5756,656.92,701.456,10.8201,67.6519,-356.9,5.45342,0.253088,0.25293,-0.498729,-6.27778e-06,0.0107465,-0.000219509,0.694712,0.28799661554982214,-6.2777602948260736e-06,0.010804451035353324,0.2877931281604924,-0.00021948490966217094,-0.39269794970400074
586,0.5766,657.21,701.768,10.8282,67.6818,-357.063,5.45608,0.253476,0.253318,-0.499502,-6.27465e-06,0.0107118,-0.000218825,0.695821,0.2884964551992768,-6.274630314440088e-06,0.010769376729445224,0.28829288884152104,-0.00021880105955596196,-0.3931672127953283
587,0.5776,657.499,702.08,10.8362,67.7116,-357.225,5.45874,0.253864,0.253706,-0.500275,-6.27149e-06,0.0106771,-0.000218141,0.696929,0.2889964888241443,-6.2714703342736655e-06,0.010734303640594245,0.2887928434673168,-0.00021811720898201603,-0.3936361132864492
588,0.5786,657.788,702.391,10.8441,67.7413,-357.387,5.4614,0.254252,0.254094,-0.501048,-6.2683e-06,0.0106423,-0.000217455,0.698037,0.28949671649970155,-6.268280354215783e-06,0.010699130698840209,0.28929299211314485,-0.00021743135837515304,-0.39410465145754525
589,0.5796,658.077,702.702,10.8521,67.771,-357.548,5.46405,0.25464,0.254481,-0.50182,-6.26509e-06,0.0106075,-0.000216769,0.699144,0.28999713830125495,-6.26507037437829e-06,0.010663958981083299,0.2897920450616098,-0.00021674550729788855,-0.3945722221611063
590,0.5806,658.365,703.013,10.8601,67.8007,-357.71,5.4667,0.255027,0.254869,-0.502592,-6.26185e-06,0.0105726,-0.000216083,0.700251,0.2904964638070311,-6.261830394649337e-06,0.010628687424407257,0.29029258147287806,-0.00021605965575000052,-0.39503943203938086
591,0.5816,658.653,703.323,10.868,67.8304,-357.871,5.46934,0.255415,0.255256,-0.503363,-6.25859e-06,0.0105377,-0.000215395,0.701357,0.2909972735858024,-6.258570415029752e-06,0.010593417098686775,0.2907920213372883,-0.00021537180416242308,-0.3955056768767974
592,0.5826,658.94,703.632,10.876,67.86,-358.032,5.47198,0.255802,0.255644,-0.504135,-6.2553e-06,0.0105028,-0.000214707,0.702463,0.2914969862188377,-6.255280435629729e-06,0.010558148003879442,0.2912929458146316,-0.00021468395210166857,-0.39597216640612176
593,0.5836,659.227,703.941,10.8839,67.8895,-358.192,5.47461,0.256189,0.256031,-0.504905,-6.25199e-06,0.0104678,-0.000214018,0.703569,0.2919968922780878,-6.251970456339073e-06,0.010522779087658973,0.29179277289496364,-0.00021399509978159426,-0.3964370888198888
594,0.5846,659.513,704.25,10.8918,67.919,-358.353,5.47724,0.256576,0.256418,-0.505676,-6.24866e-06,0.0104328,-0.000213328,0.704674,0.2924969918384226,-6.248640477157785e-06,0.01048741140932874,0.29229279344580994,-0.00021330524720020172,-0.39690225647923305
595,0.5856,659.799,704.558,10.8997,67.9485,-358.513,5.47987,0.256962,0.256805,-0.506447,-6.2453e-06,0.0103978,-0.000212638,0.705779,0.29299599197810355,-6.24528049819606e-06,0.010452044968845886,0.29279300754205817,-0.00021261539414274555,-0.39736706563253377
596,0.5866,660.085,704.865,10.9075,67.9779,-358.673,5.48249,0.257349,0.257191,-0.507217,-6.24191e-06,0.0103627,-0.000211947,0.706884,0.29349647826484904,-6.241890519342874e-06,0.010416578724503633,0.29329212196585597,-0.00021192454082130663,-0.3978309143873082
597,0.5876,660.37,705.173,10.9154,68.0073,-358.833,5.48511,0.257736,0.257578,-0.507986,-6.23851e-06,0.0103276,-0.000211255,0.707988,0.29399715827727113,-6.238490540488861e-06,0.01038111372500472,0.29379272287708513,-0.00021123268723377553,-0.3982938044101193
598,0.5886,660.655,705.48,10.9232,68.0366,-358.992,5.48773,0.258122,0.257964,-0.508756,-6.23507e-06,0.0102925,-0.000210562,0.709091,0.29449673759297124,-6.235050561964606e-06,0.010345649970305626,0.29429222326548876,-0.0002105398333779318,-0.39875693985069616
599,0.5896,660.94,705.786,10.9311,68.0659,-359.151,5.49034,0.258508,0.25835,-0.509525,-6.23161e-06,0.0102573,-0.000209869,0.710194,0.29499650978350944,-6.231590583549718e-06,0.010310086429348608,0.29479191649825887,-0.00020984697904191663,-0.3992191180336634
600,0.5906,661.224,706.092,10.9389,68.0952,-359.31,5.49295,0.258894,0.258737,-0.510294,-6.22813e-06,0.0102221,-0.000209175,0.711297,0.2954964749233502,-6.228110605244197e-06,0.010274524140206243,0.29529309794229786,-0.0002091531244350353,-0.39968094093823003
601,0.5916,661.507,706.397,10.9467,68.1244,-359.469,5.49555,0.25928,0.259123,-0.511063,-6.22463e-06,0.0101868,-0.00020848,0.7124,0.2959966330869861,-6.224610627048044e-06,0.01023886207894309,0.295793177587266,-0.0002084582695549564,-0.4001424088375002
602,0.5926,661.79,706.703,10.9545,68.1536,-359.628,5.49815,0.259666,0.259508,-0.511831,-6.2211e-06,0.0101515,-0.000207784,0.713502,0.2964969843489387,-6.221080648960431e-06,0.01020320127652874,0.2962921540074346,-0.00020776241439979248,-0.40060292260759
603,0.5936,662.073,707.007,10.9623,68.1827,-359.786,5.50074,0.260051,0.259894,-0.512599,-6.21754e-06,0.0101162,-0.000207088,0.714603,0.29699623178687795,-6.21752067109238e-06,0.01016754173291834,0.296792619362481,-0.00020706655876023827,-0.4010630828388808
604,0.5946,662.356,707.311,10.97,68.2118,-359.944,5.50334,0.260436,0.260279,-0.513367,-6.21396e-06,0.0100809,-0.000206391,0.715705,0.2974956714720862,-6.2139406934447194e-06,0.01013188344806748,0.2972919806418137,-0.0002063697028427125,-0.40152288980278594
605,0.5956,662.638,707.615,10.9778,68.2409,-360.102,5.50592,0.260822,0.260665,-0.514134,-6.21036e-06,0.0100455,-0.000205694,0.716805,0.2979966014745452,-6.210340715795404e-06,0.010096125412314416,0.2977928320044356,-0.00020567284643957517,-0.4019817457525555
606,0.5966,662.92,707.919,10.9855,68.2699,-360.26,5.50851,0.261207,0.26105,-0.514901,-6.20673e-06,0.0100101,-0.000204995,0.717906,0.29849642637623264,-6.206710738254628e-06,0.010060368642373474,0.2982925784397732,-0.00020497398996066618,-0.402440249894747
607,0.5976,663.201,708.222,10.9932,68.2989,-360.417,5.51109,0.261592,0.261435,-0.515668,-6.20308e-06,0.00997461,-0.000204296,0.719006,0.2989964437475552,-6.2030607609342425e-06,0.010024522235988487,0.2987925173145307,-0.00020427513299325906,-0.4028984024990935
608,0.5986,663.482,708.524,11.001,68.3278,-360.574,5.51366,0.261977,0.26182,-0.516435,-6.19941e-06,0.00993912,-0.000203597,0.720106,0.299496653662628,-6.199390783723224e-06,0.009988677101770094,0.29929264870281136,-0.0002035762755373538,-0.40335620383512094
609,0.5996,663.762,708.826,11.0087,68.3567,-360.731,5.51624,0.262361,0.262205,-0.517201,-6.19571e-06,0.00990359,-0.000202896,0.721205,0.2999957561991886,-6.195690806620746e-06,0.009952792841560365,0.2997929726787474,-0.00020287541799857145,-0.40381305798550526
610,0.6006,664.042,709.128,11.0163,68.3856,-360.888,5.5188,0.262746,0.262589,-0.517967,-6.19199e-06,0.00986804,-0.000202195,0.722304,0.30049635092362625,-6.1919708296276355e-06,0.009916889657957562,0.30029218902365984,-0.00020217455996862643,-0.404269562319607
611,0.6016,664.322,709.429,11.024,68.4144,-361.045,5.52137,0.26313,0.262974,-0.518733,-6.18825e-06,0.00983244,-0.000201494,0.723402,0.30099583741765,-6.188230852854915e-06,0.009880937256642408,0.30079289789670716,-0.0002014737014472967,-0.40472571710528293
612,0.6026,664.601,709.73,11.0317,68.4431,-361.201,5.52393,0.263514,0.263358,-0.519498,-6.18448e-06,0.00979682,-0.000200791,0.7245,0.3014955157513186,-6.184460876190734e-06,0.00984496593831019,0.3012924982866352,-0.00020077084283631752,-0.4051809277914099
613,0.6036,664.88,710.03,11.0393,68.4719,-361.357,5.52649,0.263898,0.263742,-0.520263,-6.18068e-06,0.00976116,-0.000200088,0.725598,0.301995385998312,-6.180660899635093e-06,0.009808955508894712,0.3017922905599524,-0.00020006798373117807,-0.40563579037452835
614,0.6046,665.159,710.33,11.0469,68.5006,-361.513,5.52904,0.264282,0.264126,-0.521028,-6.17687e-06,0.00972547,-0.000199384,0.726695,0.30249544823233965,-6.176850923189647e-06,0.009772916070400095,0.3022922747903558,-0.00019936412433130268,-0.4060903051208353
615,0.6056,665.437,710.63,11.0546,68.5292,-361.669,5.53159,0.264666,0.26451,-0.521792,-6.17303e-06,0.00968974,-0.00019868,0.727792,0.30299570252713814,-6.173010946852742e-06,0.00973683752865595,0.3027924510515714,-0.00019866026443582374,-0.4065438788404996
616,0.6066,665.715,710.929,11.0622,68.5579,-361.824,5.53414,0.26505,0.264894,-0.522557,-6.16916e-06,0.00965399,-0.000197975,0.728888,0.3034961489564736,-6.169140970735398e-06,0.00970074008195998,0.30329281941735275,-0.0001979554042428333,-0.40699769916478035
617,0.6076,665.992,711.228,11.0697,68.5864,-361.979,5.53668,0.265433,0.265277,-0.523321,-6.16528e-06,0.0096182,-0.000197269,0.729984,0.3039954835980039,-6.16526099472825e-06,0.009664603539139671,0.3037920761687545,-0.00019724954375022197,-0.40745057990014877
618,0.6086,666.269,711.526,11.0773,68.615,-362.134,5.53922,0.265816,0.265661,-0.524084,-6.16137e-06,0.00958237,-0.000196563,0.73108,0.3044950095213299,-6.161351018829642e-06,0.00962842790448537,0.30429282846429095,-0.0001965436827592315,-0.4079025226695928
619,0.6096,666.546,711.824,11.0849,68.6435,-362.289,5.54175,0.2662,0.266044,-0.524848,-6.15744e-06,0.00954652,-0.000195856,0.732175,0.30499603179510615,-6.157421043040401e-06,0.009592233374135839,0.3047924682925123,-0.00019583682146573356,-0.4083547123838074
620,0.6106,666.822,712.122,11.0924,68.6719,-362.444,5.54428,0.266583,0.266427,-0.525611,-6.15348e-06,0.00951063,-0.000195148,0.73327,0.3054959410017859,-6.1534610673597e-06,0.009555999759096157,0.30529229951943826,-0.0001951289598676187,-0.4088059655632784
621,0.6116,667.098,712.419,11.1,68.7003,-362.598,5.54681,0.266966,0.26681,-0.526373,-6.1495e-06,0.00947471,-0.000194439,0.734364,0.305996041710362,-6.149481091899389e-06,0.009519737158864894,0.3057923222183887,-0.00019442009796277748,-0.4092562838244721
622,0.6126,667.374,712.716,11.1075,68.7287,-362.752,5.54933,0.267348,0.267193,-0.527136,-6.1455e-06,0.00943876,-0.00019373,0.735458,0.306495027498513,-6.1454811164374235e-06,0.009483445576659255,0.3062925364627114,-0.0001937112355553383,-0.40970684936730073
623,0.6136,667.649,713.012,11.115,68.7571,-362.906,5.55185,0.267731,0.267576,-0.527898,-6.14147e-06,0.00940277,-0.000193021,0.736552,0.30699551093050426,-6.14145114119502e-06,0.009447114921226962,0.30679294232578247,-0.00019300237264530118,-0.41015648141651573
624,0.6146,667.924,713.308,11.1225,68.7854,-363.06,5.55437,0.268113,0.267958,-0.52866,-6.13743e-06,0.00936676,-0.00019231,0.737645,0.30749487858882985,-6.137411166062812e-06,0.009410765385095887,0.30729223258811933,-0.0001922915096173039,-0.4106057709766141
625,0.6156,668.198,713.603,11.13,68.8137,-363.213,5.55688,0.268496,0.268341,-0.529422,-6.13335e-06,0.00933071,-0.000191599,0.738738,0.3079957450371318,-6.133331191038316e-06,0.009374376782912197,0.30779302140813813,-0.00019158064608382208,-0.4110547183084733
626,0.6166,668.472,713.899,11.1375,68.8419,-363.367,5.55939,0.268878,0.268723,-0.530183,-6.12926e-06,0.00929463,-0.000190888,0.73983,0.3084954948578744,-6.129241216124015e-06,0.009337959212374791,0.30829269377366164,-0.00019086978204496674,-0.41150273517580116
627,0.6176,668.746,714.193,11.1449,68.8701,-363.52,5.56189,0.26926,0.269105,-0.530944,-6.12514e-06,0.00925852,-0.000190176,0.740923,0.30899543561951615,-6.125121241318254e-06,0.009301512676713974,0.30879255705049036,-0.00019015791769083634,-0.41195041123198817
628,0.6186,669.019,714.488,11.1524,68.8982,-363.673,5.56439,0.269642,0.269487,-0.531705,-6.121e-06,0.00922238,-0.000189463,0.742014,0.30949556739501016,-6.120981266732883e-06,0.00926503717916205,0.3092926113115668,-0.00018944505301921044,-0.4123977467362928
629,0.6196,669.292,714.781,11.1598,68.9263,-363.825,5.56689,0.270023,0.269869,-0.532465,-6.11684e-06,0.00918621,-0.000188749,0.743105,0.30999458026210247,-6.1168212921458576e-06,0.009228532722954208,0.30979285662986045,-0.00018873118802820166,-0.4128441547922248
630,0.6206,669.565,715.075,11.1672,68.9544,-363.978,5.56939,0.270405,0.27025,-0.533225,-6.11266e-06,0.00915001,-0.000188035,0.744196,0.31049509378375895,-6.112641317779222e-06,0.009191999311328525,0.31029198278573134,-0.00018801732252737846,-0.41329022370692436
631,0.6216,669.837,715.368,11.1746,68.9825,-364.13,5.57188,0.270786,0.270632,-0.533985,-6.10845e-06,0.00911377,-0.00018732,0.745287,0.31099448754296066,-6.108431343410103e-06,0.009155426855970372,0.3107926099368534,-0.00018730245670417478,-0.41373595373804084
632,0.6226,670.109,715.661,11.182,69.0105,-364.282,5.57436,0.271168,0.271013,-0.534745,-6.10422e-06,0.00907751,-0.000186605,0.746377,0.31149538310216274,-6.104201369261375e-06,0.009118835543596937,0.3112921170713061,-0.00018658759036993544,-0.41418134514302785
633,0.6236,670.38,715.953,11.1894,69.0384,-364.434,5.57685,0.271549,0.271395,-0.535504,-6.09997e-06,0.00904121,-0.000185889,0.747467,0.3119951580442053,-6.099951395222014e-06,0.009082205194711701,0.31179312634670664,-0.00018587172371031802,-0.414625812805249
634,0.6246,670.651,716.245,11.1968,69.0663,-364.585,5.57933,0.27193,0.271776,-0.536263,-6.09569e-06,0.00900489,-0.000185172,0.748556,0.31249512343677965,-6.095671421291193e-06,0.009045555994572352,0.3122930147505387,-0.0001851548567233241,-0.41506994324450686
635,0.6256,670.922,716.536,11.2042,69.0942,-364.737,5.5818,0.27231,0.272157,-0.537022,-6.0914e-06,0.00896853,-0.000184455,0.749645,0.3129939663578378,-6.091381447470567e-06,0.009008867765152528,0.3127930936481391,-0.00018443798922240795,-0.4155137367166566
636,0.6266,671.192,716.828,11.2115,69.1221,-364.888,5.58427,0.272691,0.272537,-0.53778,-6.08708e-06,0.00893214,-0.000183737,0.750733,0.3134943123688827,-6.087061473758482e-06,0.008972150600527362,0.31329204981939385,-0.0001837201213911177,-0.4159566094342605
637,0.6276,671.462,717.118,11.2188,69.1499,-365.039,5.58674,0.273072,0.272918,-0.538539,-6.08274e-06,0.00889573,-0.000183019,0.751821,0.31399484904807773,-6.082721500155763e-06,0.008935414593307156,0.3137925094218754,-0.00018300225304446194,-0.4163997301821032
638,0.6286,671.732,717.409,11.2262,69.1777,-365.19,5.58921,0.273452,0.273299,-0.539296,-6.07837e-06,0.00885928,-0.0001823,0.752909,0.3144942619731621,-6.078351526772607e-06,0.008898639567674227,0.31429315973579386,-0.00018228338436465652,-0.416841348412766
639,0.6296,672.001,717.699,11.2335,69.2054,-365.34,5.59167,0.273832,0.273679,-0.540054,-6.07398e-06,0.00882281,-0.00018158,0.753996,0.3149938647112205,-6.073961553387797e-06,0.008861845705229188,0.3147926860404804,-0.00018156351534959203,-0.41728321518200684
640,0.6306,672.27,717.988,11.2408,69.2331,-365.491,5.59413,0.274212,0.274059,-0.540811,-6.06958e-06,0.0087863,-0.00018086,0.755083,0.31549365733439494,-6.069561580113181e-06,0.00882501283163073,0.3152924022012329,-0.0001808436458161644,-0.417724164867601
641,0.6316,672.539,718.277,11.248,69.2608,-365.641,5.59658,0.274592,0.274439,-0.541568,-6.06515e-06,0.00874977,-0.000180139,0.75617,0.31599363991485574,-6.065131607058127e-06,0.008788161127012417,0.31579230829021077,-0.00018012277594459114,-0.41816478088059406
642,0.6326,672.807,718.566,11.2553,69.2884,-365.791,5.59903,0.274972,0.274819,-0.542325,-6.06069e-06,0.0087132,-0.000179418,0.757256,0.31649381252480047,-6.060671634000592e-06,0.00875127041851087,0.31629240437960027,-0.00017940190555321145,-0.4186050634734807
643,0.6336,673.075,718.855,11.2626,69.316,-365.941,5.60148,0.275352,0.275199,-0.543082,-6.05622e-06,0.00867661,-0.000178696,0.758342,0.31699417523645423,-6.056201661164273e-06,0.008714360884790162,0.3167926905416152,-0.00017868003482079953,-0.41904501289856455
644,0.6346,673.342,719.143,11.2698,69.3436,-366.09,5.60392,0.275731,0.275579,-0.543838,-6.05172e-06,0.00863999,-0.000177973,0.759427,0.31749341062799963,-6.051701688325473e-06,0.008677422441241589,0.31729316684849684,-0.00017795716374513493,-0.4194840488922972
645,0.6356,673.609,719.43,11.2771,69.3711,-366.24,5.60636,0.276111,0.275958,-0.544594,-6.0472e-06,0.00860334,-0.00017725,0.760512,0.3179941532591126,-6.047181715707062e-06,0.008640455091140087,0.31779251557933974,-0.00017723429214688835,-0.4199227531002494
646,0.6366,673.876,719.718,11.2843,69.3986,-366.389,5.6088,0.27649,0.276337,-0.545349,-6.04266e-06,0.00856666,-0.000176526,0.761597,0.3184937677141566,-6.042641743198018e-06,0.00860345883776259,0.3182920535992195,-0.0001765104202023915,-0.4203605461339923
647,0.6376,674.143,720.004,11.2915,69.426,-366.538,5.61124,0.276869,0.276717,-0.546105,-6.0381e-06,0.00852995,-0.000175802,0.762681,0.318993571558966,-6.03808177068732e-06,0.008566433684389585,0.31879309977233095,-0.00017578654773386937,-0.42079858796044156
648,0.6386,674.409,720.291,11.2987,69.4534,-366.686,5.61367,0.277248,0.277096,-0.54686,-6.03352e-06,0.00849321,-0.000175077,0.763765,0.3194935648653334,-6.033501798397012e-06,0.008529379634303114,0.3192930170854913,-0.00017506167491643243,-0.42123571998842624
649,0.6396,674.674,720.577,11.3059,69.4808,-366.835,5.61609,0.277627,0.277475,-0.547614,-6.02891e-06,0.00845645,-0.000174351,0.764848,0.3199937477050785,-6.028891826104221e-06,0.008492306775711,0.31979312390322256,-0.00017433580174763819,-0.42167194377851946
650,0.6406,674.94,720.863,11.3131,69.5082,-366.983,5.61852,0.278005,0.277853,-0.548369,-6.02429e-06,0.00841965,-0.000173625,0.765931,0.3204927996565876,-6.024271854032648e-06,0.008455194941683564,0.32029210000459973,-0.00017360992805204312,-0.42210841667171606
651,0.6416,675.205,721.148,11.3202,69.5355,-367.131,5.62093,0.278384,0.278232,-0.549123,-6.01964e-06,0.00838283,-0.000172899,0.767014,0.32099336127809286,-6.019621881958592e-06,0.008418064304985151,0.3207925855465208,-0.00017288405382931415,-0.4225439826965187
652,0.6426,675.47,721.433,11.3274,69.5627,-367.279,5.62335,0.278762,0.27861,-0.549877,-6.01497e-06,0.00834598,-0.000172171,0.768096,0.3214927911549561,-6.0149519101049265e-06,0.008380904783983789,0.3212919395158118,-0.00017215617942389905,-0.4229792204283207
653,0.6436,675.734,721.718,11.3345,69.59,-367.427,5.62576,0.279141,0.278989,-0.55063,-6.01028e-06,0.0083091,-0.000171444,0.769178,0.3219937318450683,-6.010261938249606e-06,0.008343716381973731,0.3217928040687257,-0.0001714293043172388,-0.4234135535284034
654,0.6446,675.998,722.002,11.3416,69.6172,-367.575,5.62817,0.279519,0.279367,-0.551384,-6.00557e-06,0.0082722,-0.000170715,0.770259,0.3224935399334832,-6.005551966614675e-06,0.00830650918531628,0.32229253619208453,-0.00017070042902356253,-0.4238481358509185
655,0.6456,676.262,722.286,11.3488,69.6443,-367.722,5.63058,0.279897,0.279745,-0.552137,-6.00083e-06,0.00823527,-0.000169986,0.77134,0.3229935369850674,-6.000811995088284e-06,0.008269273113500342,0.3227924572498926,-0.00016997155319853352,-0.42428181490396766
656,0.6466,676.525,722.569,11.3559,69.6714,-367.869,5.63298,0.280274,0.280123,-0.55289,-5.99608e-06,0.0081983,-0.000169257,0.772421,0.32349239957820086,-5.996062023561066e-06,0.00823199808750652,0.32329256731358025,-0.00016924267684204075,-0.4247151675196089
657,0.6476,676.788,722.853,11.3629,69.6985,-368.016,5.63538,0.280652,0.280501,-0.553642,-5.9913e-06,0.00816132,-0.000168527,0.773501,0.3239927742701003,-5.9912820522534105e-06,0.008194714357597555,0.3237928664546055,-0.0001685128001228664,-0.4251476190914637
658,0.6486,677.051,723.135,11.37,69.7256,-368.163,5.63778,0.28103,0.280878,-0.554394,-5.9865e-06,0.0081243,-0.000167796,0.774581,0.3244933381393855,-5.9864820809441e-06,0.008157391680119197,0.32429203045176,-0.00016778192303856798,-0.4255797455819824
659,0.6496,677.313,723.418,11.3771,69.7526,-368.309,5.64017,0.281407,0.281256,-0.555146,-5.98168e-06,0.00808726,-0.000167065,0.775661,0.3249927662641503,-5.981662109744157e-06,0.008120050221899433,0.3247927074612642,-0.00016705104542003024,-0.42601154723553425
660,0.6506,677.575,723.7,11.3842,69.7796,-368.456,5.64256,0.281784,0.281633,-0.555898,-5.97684e-06,0.00805019,-0.000166334,0.77674,0.3254923827088141,-5.976822138764604e-06,0.008082679904300782,0.3252922484695404,-0.00016632016726714216,-0.42644302429630476
661,0.6516,677.836,723.981,11.3912,69.8065,-368.602,5.64494,0.282161,0.28201,-0.556649,-5.97198e-06,0.00801309,-0.000165601,0.777819,0.3259921875443872,-5.971962167783396e-06,0.008045280730635263,0.3257919778402809,-0.00016558728891125085,-0.4268736038821864
662,0.6526,678.098,724.263,11.3982,69.8335,-368.748,5.64733,0.282538,0.282387,-0.5574,-5.9671e-06,0.00797597,-0.000164869,0.778897,0.3264921808419061,-5.967082196911555e-06,0.008007862784295883,0.3262918956445118,-0.00016485540985333724,-0.4273038602241924
663,0.6536,678.359,724.544,11.4052,69.8604,-368.894,5.64971,0.282915,0.282764,-0.558151,-5.9622e-06,0.00793882,-0.000164135,0.779975,0.32699236267243426,-5.962182226149082e-06,0.00797041598777204,0.3267920019532857,-0.0001641215305878685,-0.42773379356498764
664,0.6546,678.619,724.824,11.4123,69.8872,-369.039,5.65208,0.283292,0.283141,-0.558902,-5.95727e-06,0.00790164,-0.000163401,0.781052,0.3274927331070623,-5.957252255495149e-06,0.007932940344382189,0.32729229683768235,-0.00016338765078371953,-0.4281634041470551
665,0.6556,678.88,725.104,11.4193,69.914,-369.185,5.65445,0.283668,0.283518,-0.559652,-5.95233e-06,0.00786444,-0.000162667,0.78213,0.327991964224279,-5.952312284951411e-06,0.007895445936401568,0.3277927803688079,-0.00016265377044089036,-0.428592120805102
666,0.6566,679.139,725.384,11.4262,69.9408,-369.33,5.65682,0.284044,0.283894,-0.560402,-5.94736e-06,0.00782721,-0.000161932,0.783206,0.3284913830876899,-5.947342314516213e-06,0.007857922687449115,0.32829212432500743,-0.0001619188897213908,-0.4290205160462016
667,0.6576,679.399,725.664,11.4332,69.9675,-369.475,5.65919,0.284421,0.284271,-0.561151,-5.94237e-06,0.00778995,-0.000161197,0.784283,0.3289923187595549,-5.9423523441903825e-06,0.007820370600849502,0.3287929848621569,-0.0001611840084616567,-0.4294480195596314
668,0.6586,679.658,725.943,11.4402,69.9942,-369.62,5.66155,0.284797,0.284647,-0.561901,-5.93737e-06,0.00775267,-0.000160461,0.785359,0.32949211382699284,-5.937352373863725e-06,0.0077827997577581964,0.3292927049659573,-0.00016044812682225462,-0.4298757731173266
669,0.6596,679.917,726.221,11.4471,70.0209,-369.765,5.66391,0.285173,0.285023,-0.56265,-5.93234e-06,0.00771536,-0.000159724,0.786434,0.32999209685271014,-5.932322403756629e-06,0.007745200082925674,0.3297926129998454,-0.00015971124480107513,-0.4303026362830503
670,0.6606,680.176,726.5,11.4541,70.0476,-369.909,5.66627,0.285549,0.285399,-0.563399,-5.92729e-06,0.00767803,-0.000158987,0.78751,0.3304922679073925,-5.927272433647879e-06,0.007707581656758888,0.33029270903449603,-0.0001589743622366635,-0.4307291798479683
671,0.6616,680.434,726.778,11.461,70.0742,-370.053,5.66862,0.285924,0.285775,-0.564147,-5.92222e-06,0.00764067,-0.00015825,0.788585,0.3309912960697903,-5.922202463648496e-06,0.007669934404763268,0.33079299314061084,-0.0001582374791292418,-0.43115483520649156
672,0.6626,680.691,727.052,11.4649,70.0993,-370.197,5.67188,0.2863,0.28615,-0.564896,-5.91713e-06,0.00760329,-0.000157512,0.789659,0.33149184289401834,-5.917112493869503e-06,0.007632268406597031,0.3312921340961186,-0.00015749959563626792,-0.43158074071339847
673,0.6636,680.954,727.333,11.4756,70.1247,-370.341,5.67437,0.286675,0.286526,-0.565643,-5.91239e-06,0.00756587,-0.000156804,0.790733,0.3319912459673273,-5.912372521899023e-06,0.007594563512576258,0.3317927940567127,-0.00015679170689530952,-0.4320051913480363
674,0.6646,681.212,727.608,11.4812,70.1503,-370.485,5.67718,0.28705,0.286901,-0.566391,-5.90743e-06,0.00752844,-0.00015608,0.791807,0.3324908363519077,-5.907412551131586e-06,0.00755684995387762,0.3322923100078712,-0.00015606782015054055,-0.4324298926068353
675,0.6656,681.471,727.886,11.4889,70.1759,-370.628,5.67998,0.287425,0.287276,-0.567139,-5.90243e-06,0.00749097,-0.000155353,0.79288,0.3329906141180139,-5.902412580693905e-06,0.0075190975060064336,0.33279201331263786,-0.0001553409333475697,-0.4328542763078742
676,0.6666,681.728,728.162,11.4954,70.2017,-370.771,5.68273,0.2878,0.287651,-0.567886,-5.89741e-06,0.00745348,-0.000154625,0.793953,0.33349057933592774,-5.897392610365593e-06,0.007481326323065973,0.3332919040412836,-0.00015461304617081506,-0.4332777759666566
677,0.6676,681.985,728.438,11.5024,70.2276,-370.914,5.68546,0.288175,0.288026,-0.568633,-5.89235e-06,0.00741597,-0.000153896,0.795026,0.3339907320759563,-5.892332640144993e-06,0.007443536407270024,0.33379198226410556,-0.00015388415861805615,-0.43370095938932285
678,0.6686,682.242,728.713,11.5091,70.2535,-371.057,5.68816,0.28855,0.288401,-0.569379,-5.88727e-06,0.00737843,-0.000153166,0.796098,0.33449107240843357,-5.88725267003376e-06,0.007405717686775004,0.3342922480514272,-0.00015315427068707255,-0.43412326093555687
679,0.6696,682.498,728.989,11.516,70.2795,-371.2,5.69083,0.288924,0.288776,-0.570125,-5.88216e-06,0.00734087,-0.000152434,0.79717,0.3349902654127874,-5.88214270014209e-06,0.007367880238610569,0.3347927014735985,-0.0001524223825281057,-0.43454524756231694
680,0.6706,682.754,729.263,11.5228,70.3054,-371.342,5.69349,0.289299,0.28915,-0.570871,-5.87702e-06,0.00730328,-0.000151702,0.798241,0.3354909806405546,-5.87700273035896e-06,0.007330013991692974,0.33529200730832076,-0.00015169049383345623,-0.43496691950444544
681,0.6716,683.009,729.538,11.5296,70.3314,-371.485,5.69612,0.289673,0.289525,-0.571617,-5.87186e-06,0.00726567,-0.000150969,0.799312,0.3359905476805276,-5.8718427606851975e-06,0.007292129022298033,0.33579283571051755,-0.00015095760475392073,-0.43538827699660954
682,0.6726,683.264,729.812,11.5364,70.3574,-371.627,5.69874,0.290047,0.289899,-0.572363,-5.86667e-06,0.00722804,-0.000150234,0.800383,0.33649030159351656,-5.866652791119975e-06,0.007254225332645303,0.3362925156654004,-0.00015022271543774224,-0.43580932027330144
683,0.6736,683.519,730.086,11.5432,70.3834,-371.769,5.70135,0.290421,0.290273,-0.573108,-5.86146e-06,0.00719038,-0.000149499,0.801453,0.3369902424494251,-5.86144282166412e-06,0.00721629285279235,0.33679238253553745,-0.00014948782558132923,-0.4362294857986061
684,0.6746,683.773,730.36,11.55,70.4094,-371.911,5.70395,0.290795,0.290647,-0.573853,-5.85622e-06,0.00715269,-0.000148763,0.802523,0.3374903703181831,-5.8562028524278276e-06,0.0071783315860993735,0.3372924363908478,-0.00014875193533359088,-0.4366493384171666
685,0.6756,684.027,730.633,11.5567,70.4353,-372.052,5.70654,0.291169,0.291021,-0.574597,-5.85097e-06,0.00711499,-0.000148027,0.803593,0.33799068526974607,-5.850952883079685e-06,0.007140361678735774,0.3377926773012774,-0.00014801604454417472,-0.43706831543060876
686,0.6766,684.281,730.906,11.5635,70.4612,-372.194,5.70913,0.291542,0.291395,-0.575342,-5.84569e-06,0.00707725,-0.00014729,0.804662,0.33848984888357836,-5.8456729139511054e-06,0.007102352918715749,0.33829310533679746,-0.00014727915336043562,-0.43748754335382134
687,0.6776,684.534,731.178,11.5702,70.4871,-372.335,5.71172,0.291916,0.291768,-0.576086,-5.8404e-06,0.0070395,-0.000146552,0.80573,0.3389905377100353,-5.8403829449327205e-06,0.007064335522475984,0.338792381774355,-0.00014654126178026416,-0.43790589697472126
688,0.6786,684.788,731.45,11.5769,70.5128,-372.476,5.71432,0.292289,0.292142,-0.576829,-5.83509e-06,0.00700172,-0.000145815,0.806799,0.3394900743383906,-5.835072975912681e-06,0.007026289350576587,0.3392931837692743,-0.00014580436950961673,-0.4383233777799441
689,0.6796,685.042,731.726,11.5869,70.54,-372.617,5.71599,0.292662,0.292515,-0.577573,-5.82976e-06,0.00696392,-0.000145077,0.807867,0.3399897973286625,-5.8297430070020084e-06,0.006988224476269789,0.3397928333056657,-0.00014506647684098262,-0.438741109771306
690,0.6806,685.288,731.994,11.5898,70.5671,-372.758,5.71836,0.293035,0.292888,-0.578316,-5.82405e-06,0.0069261,-0.000144308,0.808934,0.3404897067503774,-5.824033040280341e-06,0.00695014090178514,0.34029266924609636,-0.00014429758810141635,-0.439157970243903
691,0.6816,685.54,732.266,11.5977,70.5939,-372.899,5.72041,0.293408,0.293261,-0.579059,-5.81848e-06,0.00688825,-0.000143553,0.810002,0.34098980267308665,-5.8184630726820785e-06,0.0069120285602326526,0.34079269166010806,-0.00014354269676108977,-0.43957452110420414
692,0.6826,685.79,732.536,11.6037,70.6206,-373.039,5.72245,0.29378,0.293634,-0.579802,-5.81292e-06,0.00685038,-0.000142798,0.811068,0.34148874367695403,-5.812903104973621e-06,0.006873897523726802,0.34129290061726847,-0.0001427878048508857,-0.43999076258216585
693,0.6836,686.04,732.807,11.6108,70.6471,-373.179,5.72448,0.294153,0.294006,-0.580545,-5.80733e-06,0.00681248,-0.000142043,0.812135,0.34198921230994306,-5.8073131374847264e-06,0.0068357377261432095,0.34179195439454557,-0.00014203291237069315,-0.4404066949075738
694,0.6846,686.29,733.077,11.6172,70.6736,-373.32,5.72654,0.294525,0.294379,-0.581287,-5.80172e-06,0.00677457,-0.000141287,0.813201,0.34248852516335493,-5.801703170105199e-06,0.006797569306812967,0.3422925361462277,-0.00014127701946187177,-0.44082175913208177
695,0.6856,686.539,733.347,11.624,70.6999,-373.46,5.7286,0.294898,0.294751,-0.582029,-5.7961e-06,0.00673663,-0.000140532,0.814267,0.3429893667843964,-5.796083202613822e-06,0.006759372131638575,0.3427919618570969,-0.00014052212584103607,-0.44123651549316667
696,0.6866,686.789,733.616,11.6306,70.7261,-373.599,5.73067,0.29527,0.295124,-0.58277,-5.79046e-06,0.00669867,-0.000139776,0.815332,0.3434890517644842,-5.790443235342835e-06,0.006721156271214168,0.34329291668113604,-0.00013976623179001724,-0.44165040586986337
697,0.6876,687.038,733.885,11.6373,70.7522,-373.739,5.73275,0.295642,0.295496,-0.583512,-5.78481e-06,0.00666068,-0.00013902,0.816397,0.343988922661963,-5.78479326807102e-06,0.006682911660948365,0.34379271460279126,-0.0001390103371675666,-0.44206454760312397
698,0.6886,687.287,734.154,11.6439,70.7782,-373.879,5.73483,0.296014,0.295868,-0.584253,-5.77914e-06,0.00662267,-0.000138264,0.817461,0.3444889795460071,-5.779123300797551e-06,0.006644648370674577,0.3442926984838597,-0.0001382544419736842,-0.4424778246352994
699,0.6896,687.536,734.422,11.6505,70.8041,-374.018,5.73693,0.296385,0.29624,-0.584994,-5.77345e-06,0.00658464,-0.000137508,0.818525,0.3449878774972661,-5.773433333633449e-06,0.006606366402633235,0.34479286839353085,-0.00013749854620825896,-0.44289079554262734
700,0.6906,687.785,734.69,11.6571,70.83,-374.157,5.73902,0.296757,0.296611,-0.585734,-5.76775e-06,0.00654659,-0.000136752,0.819589,0.34548830606163716,-5.767733366579542e-06,0.0065680657590658775,0.3452918791084687,-0.00013674264987151297,-0.44330290385504423
701,0.6916,688.033,734.958,11.6637,70.8558,-374.296,5.74112,0.297128,0.296983,-0.586474,-5.76203e-06,0.00650851,-0.000135995,0.820653,0.3459875748318162,-5.76201339952398e-06,0.006529736376917894,0.3457924207824761,-0.00013598575309914374,-0.44371470732011753
702,0.6926,688.281,735.225,11.6703,70.8815,-374.435,5.74323,0.2975,0.297355,-0.587214,-5.7563e-06,0.00647041,-0.000135238,0.821716,0.34648837535277544,-5.756283432578613e-06,0.006491388324497027,0.3462931486926242,-0.00013522885575389942,-0.4441262061633505
703,0.6936,688.529,735.492,11.6769,70.9072,-374.573,5.74534,0.297871,0.297726,-0.587954,-5.75054e-06,0.00643229,-0.000134481,0.822778,0.34698801521749534,-5.7505234656307636e-06,0.00645302160404837,0.3467927161148159,-0.000134471957835669,-0.4445374006100802
704,0.6946,688.776,735.759,11.6835,70.9329,-374.711,5.74745,0.298242,0.298097,-0.588694,-5.74477e-06,0.00639415,-0.000133724,0.823841,0.34748784048299464,-5.744753498793109e-06,0.006414636217818348,0.3472924689109058,-0.0001337150593444525,-0.4449482908854766
705,0.6956,689.024,736.025,11.69,70.9585,-374.85,5.74957,0.298613,0.298468,-0.589433,-5.73899e-06,0.00635598,-0.000132966,0.824903,0.3479878512180701,-5.73897353206565e-06,0.006376222104292006,0.34779240714968074,-0.00013295716041317185,-0.445358322573143
706,0.6966,689.271,736.291,11.6966,70.984,-374.988,5.75169,0.298984,0.298839,-0.590172,-5.73318e-06,0.00631779,-0.000132209,0.825964,0.3484880474915435,-5.733163565335708e-06,0.006337789330248311,0.3482925308999527,-0.000132200260775317,-0.4457680513593282
707,0.6976,689.518,736.557,11.7031,71.0095,-375.125,5.75381,0.299354,0.29921,-0.59091,-5.72737e-06,0.00627958,-0.000131451,0.827025,0.34898708038450743,-5.727353598605767e-06,0.0062993378979372405,0.3487928402305587,-0.0001314423606958437,-0.44617692364499417
708,0.6986,689.764,736.822,11.7097,71.035,-375.263,5.75594,0.299725,0.29958,-0.591649,-5.72153e-06,0.00624135,-0.000130692,0.828086,0.3494876474407773,-5.7215136320953874e-06,0.006260867809609882,0.3492919859177017,-0.00013068346017264254,-0.4465860477084598
709,0.6996,690.01,737.087,11.7162,71.0604,-375.4,5.75806,0.300095,0.299951,-0.592387,-5.71567e-06,0.0062031,-0.000129934,0.829146,0.34998705025415355,-5.715653665583353e-06,0.006222379067517991,0.3497926661149109,-0.00012992555894342228,-0.4469943165355236
710,0.7006,690.256,737.352,11.7227,71.0858,-375.538,5.76019,0.300465,0.300321,-0.593125,-5.7098e-06,0.00616482,-0.000129175,0.830206,0.35048663788075896,-5.709783699070492e-06,0.00618386161207618,0.3502921818060776,-0.00012916665726891985,-0.4474022841713463
711,0.7016,690.502,737.616,11.7292,71.1111,-375.675,5.76232,0.300835,0.300691,-0.593862,-5.70391e-06,0.00612652,-0.000128415,0.831266,0.3509864103889875,-5.70389373277802e-06,0.006145325508147392,0.35079188235224623,-0.00012840675514680377,-0.4478093986477998
712,0.7026,690.747,737.88,11.7357,71.1364,-375.812,5.76446,0.301205,0.301062,-0.594599,-5.69801e-06,0.00608821,-0.000127656,0.832325,0.3514863678472575,-5.697993766373699e-06,0.0061067808190555795,0.35129311911426897,-0.00012764785231955678,-0.448216213191423
713,0.7036,690.992,738.144,11.7421,71.1617,-375.949,5.76659,0.301575,0.301432,-0.595336,-5.69208e-06,0.00604987,-0.000126896,0.833384,0.3519865103240134,-5.69206380018894e-06,0.00606820742453551,0.35179319007576404,-0.00012688794904314182,-0.4486227280231849
714,0.7046,691.237,738.407,11.7486,71.187,-376.085,5.76873,0.301945,0.301801,-0.596073,-5.68614e-06,0.00601151,-0.000126136,0.834443,0.3524868378877246,-5.6861238338923314e-06,0.006029615388298826,0.35229209380497917,-0.00012612804518918885,-0.44902894336389176
715,0.7056,691.482,738.67,11.7551,71.2122,-376.222,5.77086,0.302314,0.302171,-0.59681,-5.68019e-06,0.00597312,-0.000125376,0.835501,0.3529859976202121,-5.680173867705918e-06,0.005990994652693704,0.3527925344554983,-0.0001253681407578089,-0.44943485943418726
716,0.7066,691.726,738.933,11.7615,71.2373,-376.358,5.773,0.302684,0.302541,-0.597546,-5.67421e-06,0.00593472,-0.000124615,0.836558,0.3534866950626463,-5.674193901739066e-06,0.005952365340186727,0.35329316030331737,-0.0001246072358733752,-0.4498399262947538
717,0.7076,691.97,739.196,11.7679,71.2625,-376.494,5.77514,0.303053,0.30291,-0.598282,-5.66822e-06,0.0058963,-0.000123854,0.837616,0.35398622381051026,-5.668203935660365e-06,0.005913717392742157,0.35379261762367764,-0.00012384633040996018,-0.45024469513579546
718,0.7086,692.214,739.458,11.7744,71.2876,-376.63,5.77727,0.303422,0.303279,-0.599017,-5.66221e-06,0.00585785,-0.000123092,0.838673,0.3544859369184947,-5.662193969691032e-06,0.005875040753871463,0.3542922592777966,-0.00012308442449060486,-0.45064861682546575
719,0.7096,692.457,739.72,11.7808,71.3127,-376.766,5.77941,0.303791,0.303648,-0.599753,-5.65618e-06,0.00581939,-0.000122331,0.839729,0.3549858344546408,-5.656164003831066e-06,0.005836355543725524,0.3547920853337061,-0.00012232351786833906,-0.4510527906892553
720,0.7106,692.7,739.981,11.7872,71.3377,-376.901,5.78155,0.30416,0.304017,-0.600488,-5.65014e-06,0.0057809,-0.000121569,0.840786,0.3554859164870152,-5.650124037970272e-06,0.005797641647454332,0.35529209585946275,-0.00012156161078857863,-0.45145611864691704
721,0.7116,692.943,740.242,11.7936,71.3627,-377.036,5.78369,0.304529,0.304386,-0.601223,-5.64407e-06,0.0057424,-0.000120806,0.841842,0.35598618308370966,-5.644054072218019e-06,0.005758919183663114,0.35579229092314857,-0.00012079870324899211,-0.45185915026744694
722,0.7126,693.185,740.503,11.8,71.3877,-377.172,5.78583,0.304897,0.304755,-0.601957,-5.63799e-06,0.00570387,-0.000120044,0.842897,0.35648527782688455,-5.63797410657596e-06,0.00572016803905262,0.3562926705928706,-0.00012003679500738329,-0.452261338030185
723,0.7136,693.428,740.764,11.8064,71.4127,-377.307,5.78796,0.305266,0.305123,-0.602692,-5.6319e-06,0.00566532,-0.000119281,0.843952,0.35698591325595896,-5.6318841409330744e-06,0.0056813982738666,0.3567918781442043,-0.00011927388630439406,-0.4526637780319148
724,0.7146,693.669,741.024,11.8127,71.4376,-377.442,5.7901,0.305634,0.305492,-0.603426,-5.62578e-06,0.00562676,-0.000118517,0.845007,0.3574853759675394,-5.625764175287706e-06,0.005642619946800265,0.3572926267296719,-0.00011850997713780398,-0.4530653754145697
725,0.7156,693.911,741.284,11.8191,71.4625,-377.576,5.79224,0.306002,0.30586,-0.604159,-5.61965e-06,0.00558817,-0.000117754,0.846061,0.35798502251522146,-5.619634209752533e-06,0.005603812946882281,0.35779220233258147,-0.00011774706726985773,-0.4534661315993056
726,0.7166,694.152,741.544,11.8254,71.4874,-377.711,5.79438,0.30637,0.306228,-0.604893,-5.6135e-06,0.00554956,-0.00011699,0.847115,0.35848485296666954,-5.6134842443267274e-06,0.005564987333197768,0.35829196181314416,-0.00011698315693675632,-0.45386714027052555
727,0.7176,694.393,741.803,11.8318,71.5122,-377.845,5.79651,0.306738,0.306596,-0.605626,-5.60733e-06,0.00551094,-0.000116225,0.848169,0.35898486738957214,-5.607314278899267e-06,0.005526153163279535,0.3587919052390398,-0.00011621824613639031,-0.4542673089769592
728,0.7186,694.634,742.062,11.8381,71.537,-377.98,5.79865,0.307106,0.306964,-0.606359,-5.60115e-06,0.00547229,-0.000115461,0.849222,0.35948506585164375,-5.601134313582001e-06,0.005487290328489047,0.3592920326779725,-0.00011545433463522325,-0.4546671844672079
729,0.7196,694.875,742.321,11.8444,71.5618,-378.114,5.80078,0.307473,0.307332,-0.607092,-5.59495e-06,0.00543363,-0.000114696,0.850275,0.3599840884358543,-5.594934348263081e-06,0.0054484189412336015,0.35979234419767137,-0.0001146894226652373,-0.45506676695612025
730,0.7206,695.115,742.579,11.8507,71.5865,-378.248,5.80292,0.307841,0.3077,-0.607824,-5.58873e-06,0.00539494,-0.00011393,0.851328,0.3604846546789384,-5.588714383053528e-06,0.005409518894430976,0.36029283986589067,-0.00011392351022398994,-0.4554655121241721
731,0.7216,695.355,742.837,11.857,71.6113,-378.381,5.80505,0.308208,0.308067,-0.608556,-5.58249e-06,0.00535624,-0.000113165,0.85238,0.36098404417957375,-5.5824744179533425e-06,0.0053706102989359294,0.36079215895757044,-0.00011315859708294074,-0.4558639655175635
732,0.7226,695.594,743.095,11.8633,71.636,-378.515,5.80718,0.308575,0.308435,-0.609288,-5.57624e-06,0.00531751,-0.000112399,0.853432,0.36148361698979103,-5.57622445285233e-06,0.005331673049223884,0.3612930226253295,-0.00011239268346907583,-0.4562621273497953
733,0.7236,695.834,743.352,11.8696,71.6606,-378.648,5.80931,0.308942,0.308802,-0.61002,-5.56997e-06,0.00527877,-0.000111632,0.854483,0.36198337317687734,-5.569954487749662e-06,0.005292727254594842,0.36179270885144676,-0.00011162576938017477,-0.4566599978342123
734,0.7246,696.073,743.609,11.8758,71.6852,-378.782,5.81144,0.309309,0.309169,-0.610751,-5.56368e-06,0.00524001,-0.000110866,0.855534,0.36248331280814416,-5.563664522756362e-06,0.005253762863621114,0.36229257849606444,-0.00011085985459213799,-0.4570570342413086
735,0.7256,696.312,743.866,11.8821,71.7098,-378.915,5.81357,0.309676,0.309536,-0.611482,-5.55738e-06,0.00520123,-0.000110099,0.856585,0.3629834359509281,-5.557364557762234e-06,0.00521477987858221,0.3627926316265093,-0.00011009293932751074,-0.45745378052084584
736,0.7266,696.55,744.123,11.8883,71.7344,-379.048,5.81569,0.310043,0.309903,-0.612213,-5.55105e-06,0.00516242,-0.000109331,0.857635,0.3634837426725901,-5.551034592987669e-06,0.005175768250000656,0.3632928683101331,-0.00010932502358407259,-0.45785023688482984
737,0.7276,696.788,744.379,11.8946,71.759,-379.18,5.81782,0.310409,0.310269,-0.612944,-5.54471e-06,0.00512361,-0.000108564,0.858685,0.36398286905696486,-5.544694628101254e-06,0.00513675813543113,0.3637919248217052,-0.00010855810714216485,-0.45824640354511137
738,0.7286,697.026,744.635,11.9008,71.7835,-379.313,5.81994,0.310776,0.310636,-0.613674,-5.53836e-06,0.00508477,-0.000107796,0.859735,0.3644835426378912,-5.538344663325034e-06,0.005097719381882637,0.3642925283132368,-0.00010779019022000291,-0.45864173935539654
739,0.7296,697.264,744.891,11.907,71.808,-379.446,5.82206,0.311142,0.311002,-0.614404,-5.53198e-06,0.00504591,-0.000107027,0.860784,0.36498303501602614,-5.5319646986573545e-06,0.005058662043396556,0.3647919507673334,-0.00010702127281492224,-0.4590367866758517
740,0.7306,697.501,745.146,11.9132,71.8324,-379.578,5.82419,0.311508,0.311369,-0.615134,-5.52559e-06,0.00500704,-0.000106258,0.861833,0.3654827102418303,-5.525574733988847e-06,0.005019596172453067,0.3652929213357414,-0.00010625235481864781,-0.45943154571699774
741,0.7316,697.738,745.401,11.9194,71.8568,-379.71,5.82631,0.311874,0.311735,-0.615863,-5.51918e-06,0.00496814,-0.000105489,0.862881,0.36598256838223864,-5.519164769318685e-06,0.00498050167055486,0.3657927100006968,-0.0001054834362310686,-0.4598254765149483
742,0.7326,697.975,745.656,11.9256,71.8812,-379.842,5.82842,0.31224,0.312101,-0.616592,-5.51276e-06,0.00492923,-0.00010472,0.863929,0.36648260950420997,-5.512744804758718e-06,0.004941398639989325,0.3662926816217824,-0.0001047145170521846,-0.4602191202419972
743,0.7336,698.212,745.91,11.9318,71.9056,-379.974,5.83054,0.312606,0.312467,-0.617321,-5.50631e-06,0.0048903,-0.00010395,0.864977,0.3669828336747276,-5.506294840307291e-06,0.004902277032847291,0.3667928362659727,-0.00010394459738594097,-0.4606124771073429
744,0.7346,698.448,746.164,11.938,71.93,-380.105,5.83265,0.312971,0.312833,-0.61805,-5.49985e-06,0.00485135,-0.00010318,0.866024,0.3674818734782428,-5.499834875855036e-06,0.004863136851416705,0.3672931740002663,-0.00010317467712683825,-0.4610055473200312
745,0.7356,698.684,746.418,11.9441,71.9543,-380.237,5.83477,0.313337,0.313198,-0.618779,-5.49338e-06,0.00481238,-0.00010241,0.867071,0.3679824634463118,-5.4933649114019545e-06,0.004823978097986847,0.36779232709867493,-0.00010240475627498746,-0.461398331088956
746,0.7366,698.92,746.672,11.9503,71.9786,-380.368,5.83688,0.313702,0.313564,-0.619507,-5.48688e-06,0.0047734,-0.000101639,0.868118,0.36848186818128936,-5.486864947057413e-06,0.004784810822695773,0.36829303071356545,-0.00010163383493178024,-0.46179029041341824
747,0.7376,699.155,746.925,11.9564,72.0028,-380.5,5.83899,0.314067,0.313929,-0.620235,-5.48037e-06,0.00473439,-0.000100868,0.869164,0.3689814552322659,-5.480354982823066e-06,0.004745614931746411,0.36879254882628576,-0.00010086291299438166,-0.462181964495333
748,0.7386,699.39,747.178,11.9626,72.027,-380.631,5.84109,0.314432,0.314294,-0.620962,-5.47384e-06,0.00469537,-0.000100097,0.87021,0.3694812246657988,-5.473825018587064e-06,0.004706410522734794,0.3692922492963955,-0.00010009199046245865,-0.46257281611536627
749,0.7396,699.625,747.43,11.9687,72.0512,-380.761,5.8432,0.314797,0.314659,-0.62169,-5.4673e-06,0.00465633,-9.9325e-05,0.871256,0.36998117654846996,-5.467285054350235e-06,0.004667187550105423,0.3697921321904669,-9.932006743551547e-05,-0.46296392072588277
750,0.7406,699.86,747.683,11.9748,72.0754,-380.892,5.8453,0.315162,0.315024,-0.622417,-5.46073e-06,0.00461728,-9.85529e-05,0.872301,0.3704813109468854,-5.460715090221946e-06,0.004627956062431382,0.37029219757509746,-9.854804382247728e-05,-0.4633542040703297
751,0.7416,700.094,747.935,11.9809,72.0995,-381.023,5.8474,0.315527,0.315389,-0.623144,-5.45415e-06,0.0045782,-9.77805e-05,0.873345,0.3709816279276754,-5.454135126203852e-06,0.004588695969055756,0.3707924455169078,-9.777571964275644e-05,-0.4637442037818983
752,0.7426,700.328,748.186,11.987,72.1237,-381.153,5.8495,0.315891,0.315754,-0.62387,-5.44756e-06,0.00453911,-9.70078e-05,0.87439,0.3714807560760529,-5.447545162073908e-06,0.004549427364440195,0.371292876082544,-9.700309489546477e-05,-0.46413338420036676
753,0.7436,700.562,748.438,11.9931,72.1478,-381.283,5.8516,0.316256,0.316118,-0.624597,-5.44094e-06,0.0045,-9.62348e-05,0.875434,0.37198143792089877,-5.4409251981635265e-06,0.004510140204601276,0.37179211754587205,-9.623016958015818e-05,-0.4645228176538404
754,0.7446,700.795,748.689,11.9992,72.1718,-381.414,5.8537,0.31662,0.316483,-0.625323,-5.43431e-06,0.00446088,-9.54614e-05,0.876478,0.3724809300663574,-5.434295234141295e-06,0.0044708445365448934,0.3722929130583974,-9.545684370548813e-05,-0.46491143300378257
755,0.7456,701.028,748.94,12.0053,72.1958,-381.544,5.85579,0.316984,0.316847,-0.626048,-5.42767e-06,0.00442173,-9.46877e-05,0.877521,0.3729806040600514,-5.427655270229259e-06,0.004431520272758727,0.37279251860144313,-9.468321726124884e-05,-0.46529923162086984
756,0.7466,701.261,749.191,12.0113,72.2198,-381.673,5.85788,0.317348,0.317211,-0.626774,-5.421e-06,0.00438257,-9.39137e-05,0.878564,0.3734804599681856,-5.420985306425763e-06,0.004392187504565381,0.37329230603400854,-9.390929024655215e-05,-0.4656872834988369
757,0.7476,701.494,749.441,12.0174,72.2438,-381.803,5.85997,0.317712,0.317575,-0.627499,-5.41432e-06,0.00434339,-9.31393e-05,0.879606,0.3739804978569885,-5.414305342621439e-06,0.004352836189556397,0.3737922754223133,-9.31349626700495e-05,-0.46607451982816916
758,0.7486,701.727,749.691,12.0234,72.2678,-381.932,5.86206,0.318075,0.317939,-0.628224,-5.40763e-06,0.0043042,-9.23647e-05,0.880649,0.3744793433126832,-5.407615378816288e-06,0.0043134763731667025,0.37429242683260133,-9.236043451243958e-05,-0.4664614755129085
759,0.7496,701.959,749.941,12.0294,72.2917,-382.062,5.86415,0.318439,0.318303,-0.628949,-5.40091e-06,0.00426499,-9.15896e-05,0.88169,0.3749797448612058,-5.4008954151196775e-06,0.004274098013775873,0.37479276033114073,-9.158540580067598e-05,-0.4668481507564487
760,0.7506,702.191,750.19,12.0355,72.3156,-382.191,5.86623,0.318802,0.318666,-0.629673,-5.39418e-06,0.00422576,-9.08143e-05,0.882732,0.3754789531094056,-5.394165451422239e-06,0.004234701113686068,0.37529190069163554,-9.081017650625078e-05,-0.4672340129963152
761,0.7516,702.422,750.439,12.0415,72.3395,-382.32,5.86831,0.319166,0.31903,-0.630398,-5.38743e-06,0.00418651,-9.00387e-05,0.883773,0.37597971858212453,-5.3874154878341685e-06,0.004195285675200333,0.37579259806488086,-9.003464663792649e-05,-0.46762012835316336
762,0.7526,702.654,750.688,12.0475,72.3633,-382.449,5.87039,0.319529,0.319393,-0.631122,-5.38067e-06,0.00414725,-8.92627e-05,0.884814,0.3764792898866758,-5.38065552424527e-06,0.004155861742181521,0.3762921014323546,-8.925871620368842e-05,-0.46800543188352706
763,0.7536,702.885,750.937,12.0535,72.3871,-382.578,5.87247,0.319892,0.319757,-0.631845,-5.37389e-06,0.00410797,-8.84864e-05,0.885854,0.3769790425685289,-5.373875560654717e-06,0.004116419274587502,0.37679316294493903,-8.848248519399693e-05,-0.46838992494528464
764,0.7546,703.115,751.185,12.0595,72.4109,-382.706,5.87454,0.320255,0.32012,-0.632569,-5.36709e-06,0.00406868,-8.77098e-05,0.886894,0.37747897669353514,-5.367075597173532e-06,0.004076968315493312,0.37729302958339406,-8.770595360796385e-05,-0.4687746713446216
765,0.7556,703.346,751.433,12.0654,72.4346,-382.835,5.87661,0.320618,0.320483,-0.633292,-5.36028e-06,0.00402937,-8.69329e-05,0.887934,0.377979092327571,-5.360265633691519e-06,0.004037498825646857,0.37779307770637605,-8.692912144492304e-05,-0.4691586084472521
766,0.7566,703.576,751.681,12.0714,72.4584,-382.963,5.87868,0.32098,0.320845,-0.634015,-5.35345e-06,0.00399004,-8.61557e-05,0.888973,0.3784780110578352,-5.3534356703188735e-06,0.003998010807354957,0.37829192908715803,-8.615198870420837e-05,-0.46954226806368093
767,0.7576,703.806,751.928,12.0774,72.4821,-383.091,5.88075,0.321343,0.321208,-0.634738,-5.3466e-06,0.00395069,-8.53781e-05,0.890012,0.37897848940717416,-5.346585706944573e-06,0.003958504262925988,0.3787923398764801,-8.537445539369415e-05,-0.4699256503944579
768,0.7586,704.036,752.175,12.0833,72.5058,-383.219,5.88282,0.321705,0.321571,-0.63546,-5.33974e-06,0.00391133,-8.46003e-05,0.891051,0.37947776998467164,-5.339725743569446e-06,0.003918989233859138,0.37929293234789196,-8.459672149552233e-05,-0.4703082259484789
769,0.7596,704.266,752.422,12.0893,72.5294,-383.347,5.88488,0.322068,0.321933,-0.636182,-5.33286e-06,0.00387196,-8.38221e-05,0.892089,0.37997861131237753,-5.3328457803036855e-06,0.0038794657212783967,0.3797923267743395,-8.381858702588563e-05,-0.4706905253826412
770,0.7606,704.495,752.669,12.0952,72.553,-383.475,5.88694,0.32243,0.322295,-0.636904,-5.32596e-06,0.00383256,-8.30436e-05,0.893127,0.3804782539995426,-5.325945817147293e-06,0.003839913649509974,0.38029190201429475,-8.304015197568848e-05,-0.4710725488962313
771,0.7616,704.724,752.915,12.1011,72.5766,-383.602,5.889,0.322792,0.322658,-0.637626,-5.31905e-06,0.00379316,-8.22648e-05,0.894164,0.38097807759010216,-5.3190358538790505e-06,0.003800363136062357,0.3807930389255725,-8.226141634415374e-05,-0.471454296688392
772,0.7626,704.953,753.161,12.107,72.6002,-383.73,5.89106,0.323154,0.32302,-0.638347,-5.31212e-06,0.00375373,-8.14857e-05,0.895201,0.3814780821495549,-5.312105890720176e-06,0.003760784068050471,0.38129297648890303,-8.148238013050424e-05,-0.47183524079362715
773,0.7636,705.181,753.407,12.113,72.6237,-383.857,5.89312,0.323515,0.323382,-0.639068,-5.30518e-06,0.00371429,-8.07063e-05,0.896238,0.38197688576584654,-5.3051659275604734e-06,0.003721196523398307,0.38179309506239245,-8.070304333418488e-05,-0.4722159103371538
774,0.7646,705.409,753.652,12.1189,72.6473,-383.984,5.89517,0.323877,0.323743,-0.639789,-5.29822e-06,0.00367484,-7.99266e-05,0.897274,0.3824772519593107,-5.298205964510139e-06,0.0036816005032320742,0.38229201241887445,-7.992340595441849e-05,-0.4725963055168598
775,0.7656,705.637,753.897,12.1247,72.6707,-384.111,5.89722,0.324238,0.324105,-0.640509,-5.29124e-06,0.00363537,-7.91466e-05,0.898311,0.38297641634101787,-5.291226001458149e-06,0.003641985972258066,0.3827924927088371,-7.914346799053895e-05,-0.47297589950665286
776,0.7666,705.865,754.142,12.1306,72.6942,-384.238,5.89927,0.3246,0.324467,-0.64123,-5.28425e-06,0.00359588,-7.83663e-05,0.899346,0.3834771444300493,-5.284236038405332e-06,0.0036023529327915416,0.3832931542054612,-7.83632294417691e-05,-0.47335574693165683
777,0.7676,706.092,754.387,12.1365,72.7176,-384.364,5.90131,0.324961,0.324828,-0.64195,-5.27724e-06,0.00355638,-7.75856e-05,0.900382,0.38397666983809975,-5.27722607535086e-06,0.003562711422775644,0.3837926131810503,-7.758259031520609e-05,-0.4737347943204312
778,0.7686,706.32,754.631,12.1424,72.7411,-384.491,5.90336,0.325322,0.325189,-0.64267,-5.27021e-06,0.00351686,-7.68047e-05,0.901416,0.3844763756073759,-5.2701961125167784e-06,0.0035230514081072695,0.38429225249387855,-7.680175059454619e-05,-0.47411356889331113
779,0.7696,706.547,754.875,12.1482,72.7644,-384.617,5.9054,0.325683,0.32555,-0.643389,-5.26317e-06,0.00347733,-7.60235e-05,0.902451,0.3849762618029997,-5.263156149570847e-06,0.0034833829259379723,0.3847920722090594,-7.602061028699758e-05,-0.4744915453384616
780,0.7706,706.773,755.119,12.1541,72.7878,-384.744,5.90744,0.326044,0.325911,-0.644108,-5.25611e-06,0.00343778,-7.5242e-05,0.903485,0.3854763284901168,-5.25609618662326e-06,0.003443695942958458,0.3852920723917297,-7.523916939167208e-05,-0.47486925011622405
781,0.7716,707.0,755.362,12.1599,72.8111,-384.87,5.90947,0.326405,0.326272,-0.644827,-5.24904e-06,0.00339821,-7.44602e-05,0.904519,0.38597657573389643,-5.249026223785869e-06,0.0034039904614879823,0.38579225310705034,-7.44574279081256e-05,-0.4752466834218573
782,0.7726,707.226,755.606,12.1657,72.8344,-384.996,5.91151,0.326765,0.326633,-0.645546,-5.24195e-06,0.00335864,-7.36781e-05,0.905553,0.3864756171232211,-5.241936261057845e-06,0.0033642865511325226,0.386292614420205,-7.367538583546995e-05,-0.47562384545047953
783,0.7736,707.452,755.849,12.1716,72.8577,-385.121,5.91354,0.327125,0.326994,-0.646265,-5.23484e-06,0.00331904,-7.28957e-05,0.906586,0.38697483819978773,-5.234826298217143e-06,0.003324554112092537,0.38679315639640155,-7.289304317303902e-05,-0.47600073639706886
784,0.7746,707.677,756.091,12.1774,72.881,-385.247,5.91557,0.327486,0.327354,-0.646983,-5.22772e-06,0.00327943,-7.2113e-05,0.907619,0.387475626503228,-5.227706335486637e-06,0.003284813213577875,0.3872924918076852,-7.211039992016666e-05,-0.4763768328335578
785,0.7756,707.903,756.334,12.1832,72.9042,-385.373,5.9176,0.327846,0.327714,-0.647701,-5.22058e-06,0.00323981,-7.133e-05,0.908651,0.38797520764797966,-5.220566372754476e-06,0.0032450638567183,0.38779200701207817,-7.132745607607571e-05,-0.47675265932972555
786,0.7766,708.128,756.576,12.189,72.9274,-385.498,5.91962,0.328206,0.328075,-0.648419,-5.21343e-06,0.00320017,-7.05467e-05,0.909683,0.3884749686743203,-5.21341641013251e-06,0.003205296010591052,0.3882930903667132,-7.054421164010005e-05,-0.47712821607931966
787,0.7776,708.353,756.818,12.1948,72.9506,-385.623,5.92164,0.328566,0.328435,-0.649136,-5.20626e-06,0.00316052,-6.97632e-05,0.910715,0.38897490964701875,-5.2062464473978665e-06,0.003165519709174669,0.38879296585143375,-6.976076660458741e-05,-0.47750298077919073
788,0.7786,708.577,757.059,12.2005,72.9737,-385.748,5.92367,0.328926,0.328795,-0.649853,-5.19908e-06,0.00312086,-6.89793e-05,0.911746,0.3894750306308674,-5.199066484773418e-06,0.0031257349535998014,0.3892930213237247,-6.897692098273289e-05,-0.4778774768690801
789,0.7796,708.802,757.301,12.2063,72.9968,-385.873,5.92568,0.329285,0.329154,-0.65057,-5.19188e-06,0.00308117,-6.81952e-05,0.912777,0.3899739417160455,-5.191866522258337e-06,0.003085921683279036,0.38979186705583113,-6.819287476023117e-05,-0.4782517045415122
790,0.7806,709.026,757.542,12.2121,73.0199,-385.998,5.9277,0.329645,0.329514,-0.651287,-5.18466e-06,0.00304148,-6.74108e-05,0.913808,0.390474422416184,-5.184646559630579e-06,0.003046109993115609,0.3902922821972923,-6.740852794306917e-05,-0.4786256639888733
791,0.7816,709.25,757.782,12.2178,73.043,-386.123,5.92971,0.330004,0.329874,-0.652004,-5.17743e-06,0.00300177,-6.66261e-05,0.914838,0.39097369234742185,-5.177416597113016e-06,0.0030062798229211207,0.3907928775206351,-6.662388053069179e-05,-0.478999355403412
792,0.7826,709.473,758.023,12.2236,73.066,-386.247,5.93172,0.330363,0.330233,-0.65272,-5.17018e-06,0.00296204,-6.58411e-05,0.915868,0.39147314154874224,-5.170166634593798e-06,0.002966431175022377,0.39129226179777943,-6.583893252232187e-05,-0.4793722583497575
793,0.7836,709.697,758.263,12.2293,73.0891,-386.371,5.93373,0.330723,0.330593,-0.653436,-5.16292e-06,0.00292231,-6.50559e-05,0.916898,0.3919741620579802,-5.162906672184775e-06,0.002926584110279018,0.39179321717858473,-6.505378391086225e-05,-0.47974489439315604
794,0.7846,709.92,758.503,12.235,73.1121,-386.496,5.93574,0.331082,0.330952,-0.654151,-5.15564e-06,0.00288255,-6.42703e-05,0.917927,0.3924739704924052,-5.155626709663075e-06,0.0028867085420263283,0.39229296064213637,-6.426823470850884e-05,-0.4801167438416455
795,0.7856,710.143,758.743,12.2407,73.135,-386.62,5.93775,0.33144,0.331311,-0.654867,-5.14834e-06,0.00284279,-6.34845e-05,0.918956,0.39297256541700776,-5.1483267473617644e-06,0.0028468345591947664,0.3927928835457988,-6.348248490173347e-05,-0.4804888470242188
796,0.7866,710.366,758.982,12.2465,73.158,-386.744,5.93975,0.331799,0.33167,-0.655582,-5.14103e-06,0.00280301,-6.26984e-05,0.919984,0.39347273234258373,-5.141016784948604e-06,0.0028069421055820776,0.39329298595400286,-6.269643449641205e-05,-0.48086016473669535
797,0.7876,710.588,759.222,12.2522,73.1809,-386.868,5.94175,0.332158,0.332028,-0.656297,-5.13371e-06,0.00276321,-6.19121e-05,0.921012,0.39397307886032085,-5.133696822534617e-06,0.002767031183519064,0.39379187413863126,-6.191018348544741e-05,-0.4812312170518983
798,0.7886,710.81,759.46,12.2579,73.2038,-386.991,5.94374,0.332516,0.332387,-0.657012,-5.12637e-06,0.0027234,-6.11255e-05,0.92204,0.3944722105617966,-5.126356860229997e-06,0.002727111822607764,0.3942923352488412,-6.112363187471548e-05,-0.4816020041595189
799,0.7896,711.032,759.699,12.2635,73.2266,-387.115,5.94574,0.332875,0.332746,-0.657726,-5.11901e-06,0.00268358,-6.03386e-05,0.923068,0.3949729159566291,-5.118996897923722e-06,0.002687184023982603,0.3947929760568436,-6.0336779663328066e-05,-0.4819720082213801
800,0.7906,711.254,759.938,12.2692,73.2495,-387.238,5.94773,0.333233,0.333104,-0.65844,-5.11164e-06,0.00264374,-5.95514e-05,0.924095,0.3954724056638643,-5.11162693561662e-06,0.0026472377623059096,0.3952924013340626,-5.954962685061904e-05,-0.48234174819463194
801,0.7916,711.475,760.176,12.2749,73.2723,-387.361,5.94972,0.333591,0.333462,-0.659154,-5.10425e-06,0.0026039,-5.8764e-05,0.925121,0.39597207422042713,-5.104236973307863e-06,0.0026072930920566506,0.3957920054375388,-5.876227342993534e-05,-0.48271122426776636
802,0.7926,711.696,760.413,12.2806,73.2951,-387.484,5.95171,0.333949,0.333821,-0.659868,-5.09685e-06,0.00256403,-5.79763e-05,0.926148,0.3964719216903565,-5.096837011109301e-06,0.0025673199361511134,0.39629318472379005,-5.7974619406819805e-05,-0.4830804366291409
803,0.7936,711.917,760.651,12.2862,73.3179,-387.607,5.9537,0.334307,0.334179,-0.660581,-5.08943e-06,0.00252416,-5.71883e-05,0.927174,0.3969719481377154,-5.089417048909084e-06,0.0025273483739436386,0.39679314717185954,-5.7186664780384255e-05,-0.4834488689161057
804,0.7946,712.138,760.888,12.2919,73.3406,-387.73,5.95568,0.334664,0.334536,-0.661294,-5.082e-06,0.00248427,-5.64001e-05,0.928199,0.39747075615513383,-5.08198708670804e-06,0.0024873583556233037,0.397291891345938,-5.6398509544308695e-05,-0.48381703860447745
805,0.7956,712.358,761.125,12.2975,73.3633,-387.853,5.95766,0.335022,0.334894,-0.662007,-5.07455e-06,0.00244436,-5.56116e-05,0.929225,0.39797114024924585,-5.0745371245053406e-06,0.0024473498835257956,0.397792211394985,-5.5610053703691875e-05,-0.48418494588142225
806,0.7966,712.579,761.362,12.3031,73.386,-387.976,5.95964,0.33538,0.335252,-0.66272,-5.06709e-06,0.00240445,-5.48228e-05,0.93025,0.39847170351293326,-5.067077162301814e-06,0.0024073430081343883,0.39829271059067506,-5.482129725775664e-05,-0.4845525909339725
807,0.7976,712.799,761.599,12.3087,73.4087,-388.098,5.96162,0.335737,0.335609,-0.663432,-5.05961e-06,0.00236452,-5.40338e-05,0.931274,0.3989710470386032,-5.059597200207655e-06,0.0023673176820391273,0.3987919902044641,-5.403234020051606e-05,-0.4849194588687443
808,0.7986,713.018,761.835,12.3144,73.4313,-388.22,5.9636,0.336094,0.335967,-0.664144,-5.05211e-06,0.00232458,-5.32446e-05,0.932298,0.39947056886173615,-5.052097238111841e-06,0.0023272839308501325,0.39929284738504345,-5.324318253141502e-05,-0.4852860656865152
809,0.7996,713.238,762.071,12.32,73.454,-388.342,5.96557,0.336451,0.336324,-0.664856,-5.0446e-06,0.00228462,-5.2455e-05,0.933322,0.3999702690459954,-5.0445872760152e-06,0.0022872317328324065,0.3997924841114091,-5.245362426054001e-05,-0.48565241157313443
810,0.8006,713.457,762.307,12.3256,73.4766,-388.464,5.96754,0.336808,0.336681,-0.665568,-5.03708e-06,0.00224465,-5.16653e-05,0.934346,0.4004701476550676,-5.037067313917731e-06,0.0022471711127969307,0.4002922992399287,-5.166396537137352e-05,-0.48601849671431874
811,0.8016,713.676,762.542,12.3311,73.4991,-388.586,5.96951,0.337165,0.337038,-0.666279,-5.02954e-06,0.00220467,-5.08752e-05,0.935369,0.4009702047526613,-5.02952735192963e-06,0.0022071020718812395,0.40079229283430373,-5.087390587898977e-05,-0.48638380767971723
812,0.8026,713.895,762.778,12.3367,73.5217,-388.708,5.97147,0.337522,0.337395,-0.66699,-5.02199e-06,0.00216468,-5.00849e-05,0.936392,0.4014704404025087,-5.021977389829679e-06,0.0021670246112237557,0.40129246495825743,-5.0083645772303065e-05,-0.4867488590013337
813,0.8036,714.113,763.013,12.3423,73.5442,-388.83,5.97344,0.337878,0.337752,-0.667701,-5.01442e-06,0.00212467,-4.92944e-05,0.937414,0.4019694526982105,-5.014407427839096e-06,0.002126928710692866,0.4017928156755366,-4.929318505098035e-05,-0.48711365086370917
814,0.8046,714.332,763.247,12.3479,73.5667,-388.951,5.9754,0.338235,0.338108,-0.668412,-5.00684e-06,0.00208465,-4.85036e-05,0.938436,0.40247004514325835,-5.006827465847685e-06,0.0020868243934986097,0.4022919427572662,-4.8502423719454235e-05,-0.4874781834512536
815,0.8056,714.55,763.482,12.3534,73.5892,-389.072,5.97736,0.338591,0.338465,-0.669122,-4.99924e-06,0.00204462,-4.77126e-05,0.939458,0.4029694133615982,-4.99922750385462e-06,0.002046711660779854,0.4027926503518182,-4.771146177195984e-05,-0.48784194479044685
816,0.8066,714.768,763.716,12.359,73.6116,-389.194,5.97931,0.338947,0.338821,-0.669832,-4.99162e-06,0.00200457,-4.69213e-05,0.94048,0.4034689593866716,-4.991607541859899e-06,0.0020065804936097997,0.4032921334380575,-4.69201992130408e-05,-0.4882054479507535
817,0.8076,714.985,763.95,12.3645,73.634,-389.315,5.98127,0.339303,0.339178,-0.670542,-4.984e-06,0.00196452,-4.61298e-05,0.941501,0.4039686832817888,-4.983987579865179e-06,0.0019664509336607683,0.40379319816442694,-4.612873603715428e-05,-0.48856869311541573
818,0.8086,715.203,764.184,12.37,73.6564,-389.436,5.98322,0.339659,0.339534,-0.671252,-4.97635e-06,0.00192445,-4.5338e-05,0.942521,0.40446858511028294,-4.976337617978999e-06,0.0019263029423421951,0.40429303750909784,-4.533697224839983e-05,-0.4889316804675452
819,0.8096,715.42,764.417,12.3756,73.6788,-389.556,5.98517,0.340015,0.33989,-0.671961,-4.96869e-06,0.00188437,-4.4546e-05,0.943542,0.40496866493550976,-4.968677656091991e-06,0.0018861465408599454,0.404793054828253,-4.4545007841678697e-05,-0.4892938994842789
820,0.8106,715.637,764.651,12.3811,73.7012,-389.677,5.98712,0.34037,0.340245,-0.67267,-4.96102e-06,0.00184427,-4.37538e-05,0.944562,0.40546751735262676,-4.961007694204156e-06,0.0018459717118943786,0.4052918448927152,-4.3752842816435766e-05,-0.48965586177874854
821,0.8116,715.853,764.884,12.3866,73.7235,-389.798,5.98906,0.340726,0.340601,-0.673379,-4.95333e-06,0.00180417,-4.29613e-05,0.945581,0.4059679528610396,-4.953317732314666e-06,0.0018057984939070515,0.4057922178505988,-4.296037717654855e-05,-0.4900175675329057
822,0.8126,716.07,765.116,12.3921,73.7458,-389.918,5.99101,0.341081,0.340957,-0.674088,-4.94563e-06,0.00176405,-4.21685e-05,0.946601,0.4064671600883454,-4.945617770424349e-06,0.001765606851521273,0.40629276897296696,-4.2167610921350906e-05,-0.490379016928573
823,0.8136,716.286,765.349,12.3976,73.7681,-390.038,5.99295,0.341437,0.341312,-0.674796,-4.93792e-06,0.00172392,-4.13756e-05,0.94762,0.406967951532925,-4.937907808533204e-06,0.001725406804337748,0.40679209153046236,-4.137474404164454e-05,-0.4907397008873996
824,0.8146,716.502,765.581,12.4031,73.7903,-390.159,5.99489,0.341792,0.341668,-0.675504,-4.93019e-06,0.00168378,-4.05824e-05,0.948638,0.407467513822779,-4.9301778466404045e-06,0.0016851983534975634,0.40729299867122815,-4.058157654551753e-05,-0.49110012957236104
825,0.8156,716.718,765.813,12.4086,73.8126,-390.279,5.99682,0.342147,0.342023,-0.676212,-4.92244e-06,0.00164362,-3.97889e-05,0.949656,0.40796725348872864,-4.9224278848569725e-06,0.001644971483692581,0.40779267637330086,-3.9788108432192715e-05,-0.49146030316412714
826,0.8166,716.933,766.045,12.414,73.8348,-390.398,5.99876,0.342502,0.342378,-0.67692,-4.91468e-06,0.00160346,-3.89953e-05,0.950674,0.40846717059375304,-4.914667922961691e-06,0.0016047462293664605,0.4082925314924475,-3.899453969313793e-05,-0.49182022184324004
827,0.8176,717.148,766.276,12.4195,73.857,-390.518,6.00069,0.342857,0.342733,-0.677627,-4.9069e-06,0.00156328,-3.82014e-05,0.951692,0.4089672652008547,-4.9068879611757765e-06,0.0015645025591637385,0.4087925640916623,-3.820067033577512e-05,-0.49217937796974587
828,0.8186,717.363,766.507,12.4249,73.8791,-390.638,6.00262,0.343211,0.343088,-0.678334,-4.89912e-06,0.00152309,-3.74072e-05,0.952709,0.40946612790622483,-4.89910799927884e-06,0.0015242504906765042,0.4092927742339618,-3.7406500359438155e-05,-0.49253828026261093
829,0.8196,717.578,766.738,12.4304,73.9013,-390.757,6.00455,0.343566,0.343443,-0.679041,-4.89131e-06,0.00148289,-3.66129e-05,0.953726,0.4099665772061265,-4.891298037601466e-06,0.0014839900250476212,0.40979316198238513,-3.661222975592793e-05,-0.4928969289012324
830,0.8206,717.793,766.969,12.4358,73.9234,-390.877,6.00647,0.34392,0.343797,-0.679747,-4.88349e-06,0.00144268,-3.58183e-05,0.954742,0.41046579373056913,-4.883478075812242e-06,0.001443721163419509,0.4102923171069712,-3.581765853233332e-05,-0.4932548173199509
831,0.8216,718.007,767.199,12.4413,73.9455,-390.996,6.0084,0.344274,0.344152,-0.680454,-4.87566e-06,0.00140245,-3.50235e-05,0.955759,0.4109651870089448,-4.875648114022191e-06,0.0014034338929009849,0.4107930597561056,-3.502288668433273e-05,-0.4936129595459108
832,0.8226,718.221,767.43,12.4467,73.9675,-391.115,6.01032,0.344629,0.344506,-0.68116,-4.86781e-06,0.00136222,-3.42285e-05,0.956774,0.41146616856929863,-4.867798152230485e-06,0.0013631482431066821,0.4112925689071627,-3.42279142115931e-05,-0.49397034262539985
833,0.8236,718.435,767.66,12.4521,73.9896,-391.234,6.01224,0.344983,0.34486,-0.681866,-4.85995e-06,0.00132197,-3.34332e-05,0.95779,0.411965916043056,-4.859938190437951e-06,0.0013228441875146046,0.4117922549157611,-3.343264111677069e-05,-0.4943274734814802
834,0.8246,718.649,767.889,12.4575,74.0116,-391.353,6.01415,0.345336,0.345214,-0.682571,-4.85208e-06,0.00128172,-3.26377e-05,0.958805,0.41246442799360206,-4.85206822864459e-06,0.0012825417541280082,0.4122921178445196,-3.263716739609901e-05,-0.49468384697625833
835,0.8256,718.862,768.119,12.4629,74.0336,-391.471,6.01607,0.34569,0.345568,-0.683277,-4.84419e-06,0.00124145,-3.1842e-05,0.95982,0.412964528913752,-4.844178266960597e-06,0.0012422209180369403,0.4127921577560789,-3.184149304891193e-05,-0.49504047427604325
836,0.8266,719.076,768.348,12.4683,74.0556,-391.59,6.01798,0.346044,0.345922,-0.683982,-4.83628e-06,0.00120117,-3.10461e-05,0.960834,0.41346480690096676,-4.836268305163927e-06,0.0012018916936145096,0.4132923747131023,-3.104561807487638e-05,-0.49539634528240917
837,0.8276,719.289,768.577,12.4737,74.0775,-391.709,6.01989,0.346397,0.346276,-0.684687,-4.82837e-06,0.00116088,-3.02499e-05,0.961848,0.41396384805338426,-4.828358343478278e-06,0.00116155408200469,0.41379276877827453,-3.024944247642658e-05,-0.4957519654881333
838,0.8286,719.501,768.806,12.4791,74.0994,-391.827,6.0218,0.346751,0.346629,-0.685391,-4.82043e-06,0.00112057,-2.94536e-05,0.962862,0.41446447986219703,-4.820418381790148e-06,0.0011211980731404836,0.4142919257216706,-2.945316624702876e-05,-0.4961068311770507
839,0.8296,719.714,769.034,12.4844,74.1214,-391.945,6.02371,0.347104,0.346983,-0.686096,-4.81249e-06,0.00108026,-2.8657e-05,0.963875,0.4149638739614614,-4.812478419990995e-06,0.0010808436909941488,0.4147926736905372,-2.865658939210647e-05,-0.49646195066674215
840,0.8306,719.926,769.263,12.4898,74.1432,-392.063,6.02561,0.347457,0.347336,-0.6868,-4.80453e-06,0.00103994,-2.78602e-05,0.964888,0.41546344437796057,-4.80451845830121e-06,0.001040480925095455,0.41529218366267306,-2.7859811908226284e-05,-0.49681631670199256
841,0.8316,720.138,769.491,12.4952,74.1651,-392.181,6.02751,0.34781,0.347689,-0.687504,-4.79655e-06,0.000999601,-2.70632e-05,0.965901,0.4159631911739461,-4.79653849660977e-06,0.0010001007675883855,0.4157918699929546,-2.706283379494412e-05,-0.49717043335134825
842,0.8326,720.35,769.718,12.5005,74.1869,-392.299,6.02941,0.348163,0.348043,-0.688207,-4.78857e-06,0.000959256,-2.6266e-05,0.966913,0.4164631144116908,-4.788558534807308e-06,0.0009597162331855813,0.4162931490360877,-2.626565505159384e-05,-0.4975237983143648
843,0.8336,720.562,769.946,12.5059,74.2087,-392.417,6.03131,0.348516,0.348396,-0.688911,-4.78056e-06,0.000918899,-2.54686e-05,0.967925,0.41696321415348936,-4.780548573113386e-06,0.0009193213170317627,0.416793188769518,-2.54682756779534e-05,-0.4978774170719439
844,0.8346,720.773,770.173,12.5112,74.2305,-392.534,6.0332,0.348869,0.348748,-0.689614,-4.77255e-06,0.000878533,-2.4671e-05,0.968937,0.417463490461659,-4.7725386114194635e-06,0.0008789190231524024,0.4172919877554362,-2.467069567335667e-05,-0.49823028520006263
845,0.8356,720.984,770.4,12.5165,74.2523,-392.652,6.0351,0.349221,0.349101,-0.690317,-4.76452e-06,0.000838155,-2.38731e-05,0.969948,0.4179625254353043,-4.7645086497238864e-06,0.000838506350057111,0.4177923801411738,-2.387281503979377e-05,-0.49858290534906236
846,0.8366,721.195,770.627,12.5218,74.274,-392.769,6.03699,0.349573,0.349454,-0.691019,-4.75647e-06,0.000797767,-2.30751e-05,0.970959,0.4184617361001799,-4.756458688026655e-06,0.0007980853007307775,0.41829294919660387,-2.3074833771952186e-05,-0.49893477662823804
847,0.8376,721.406,770.854,12.5271,74.2958,-392.886,6.03888,0.349926,0.349806,-0.691722,-4.74841e-06,0.000757369,-2.22768e-05,0.97197,0.4189625414799725,-4.748398726328595e-06,0.0007576558763202623,0.4187922761911165,-2.227655187392319e-05,-0.49928690169380585
848,0.8386,721.617,771.08,12.5324,74.3175,-393.003,6.04076,0.350278,0.350159,-0.692424,-4.74034e-06,0.00071696,-2.14784e-05,0.97298,0.4194621042124562,-4.740328764629709e-06,0.000717217077255139,0.4192931982721577,-2.147816934083835e-05,-0.4996382789409731
849,0.8396,721.827,771.306,12.5377,74.3391,-393.12,6.04265,0.35063,0.350511,-0.693126,-4.73226e-06,0.000676541,-2.06797e-05,0.97399,0.41996184282197424,-4.732248802929995e-06,0.0006767699054808229,0.41979287741631954,-2.0679486176455875e-05,-0.4999894096078725
850,0.8406,722.037,771.532,12.543,74.3608,-393.237,6.04453,0.350982,0.350863,-0.693827,-4.72416e-06,0.000636112,-1.98809e-05,0.974999,0.42046175737044633,-4.724148841228626e-06,0.0006363143621443967,0.42029273247849974,-1.98807023762404e-05,-0.5003397942075869
851,0.8416,722.247,771.758,12.5483,74.3824,-393.354,6.04641,0.351334,0.351215,-0.694529,-4.71604e-06,0.000595673,-1.90818e-05,0.976009,0.42096184791981384,-4.716028879525602e-06,0.0005958504483933869,0.42079276352063255,-1.908161794361707e-05,-0.5006904325835835
852,0.8426,722.457,771.983,12.5536,74.404,-393.47,6.04829,0.351685,0.351567,-0.69523,-4.70792e-06,0.000555223,-1.82825e-05,0.977017,0.42146069307063616,-4.707908917711556e-06,0.0005553771648205696,0.42129297060467397,-1.8282332876151663e-05,-0.5010403259383934
853,0.8436,722.666,772.208,12.5589,74.4256,-393.587,6.05017,0.352037,0.351918,-0.695931,-4.69978e-06,0.000514763,-1.74831e-05,0.978026,0.4219611353072634,-4.699768956006878e-06,0.0005148955132097122,0.42179193199995835,-1.748294717152099e-05,-0.5013899741039105
854,0.8446,722.875,772.433,12.5641,74.4472,-393.703,6.05204,0.352388,0.35227,-0.696632,-4.69162e-06,0.000474294,-1.66834e-05,0.979034,0.42246033126952254,-4.691608994411567e-06,0.00047440649518382116,0.42229249085321197,-1.6683260832817126e-05,-0.5017393772519522
855,0.8456,723.084,772.658,12.5694,74.4687,-393.819,6.05391,0.352739,0.352621,-0.697332,-4.68345e-06,0.000433814,-1.58836e-05,0.980042,0.42295970248031867,-4.683439032704406e-06,0.0004339081109017151,0.42279180314168174,-1.588347385628186e-05,-0.5020880376425021
856,0.8466,723.293,772.882,12.5746,74.4902,-393.935,6.05578,0.353091,0.352973,-0.698032,-4.67527e-06,0.000393325,-1.50836e-05,0.981049,0.4234606724611356,-4.675259070996418e-06,0.00039340236242035864,0.4232927140115288,-1.5083486243128164e-05,-0.5024364540561805
857,0.8476,723.502,773.106,12.5799,74.5117,-394.051,6.05765,0.353442,0.353324,-0.698732,-4.66708e-06,0.000352826,-1.42833e-05,0.982057,0.4239603948533188,-4.66706910917658e-06,0.0003528882504140185,0.4237923774399486,-1.4283197994124919e-05,-0.5027846266637116
858,0.8486,723.71,773.33,12.5851,74.5332,-394.167,6.05952,0.353792,0.353675,-0.699432,-4.65887e-06,0.000312317,-1.34829e-05,0.983063,0.42445886821926804,-4.65885914746611e-06,0.00031236577603199756,0.42429221628101477,-1.3482809106069027e-05,-0.5031325556356998
859,0.8496,723.918,773.554,12.5903,74.5546,-394.283,6.06138,0.354143,0.354026,-0.700131,-4.65065e-06,0.000271798,-1.26823e-05,0.98407,0.4249589410396588,-4.650639185754812e-06,0.0002718349404231546,0.42479223059630833,-1.2682219579951415e-05,-0.503479744622623
860,0.8506,724.126,773.778,12.5955,74.5761,-394.398,6.06324,0.354494,0.354377,-0.70083,-4.64241e-06,0.00023127,-1.18815e-05,0.985076,0.4254591894164179,-4.64239922404186e-06,0.0002312967449682457,0.4252924204474311,-1.188142941521697e-05,-0.503826691009243
861,0.8516,724.334,774.001,12.6007,74.5975,-394.514,6.0651,0.354844,0.354728,-0.701529,-4.63416e-06,0.000190733,-1.10805e-05,0.986082,0.425958187452276,-4.63414926232808e-06,0.00019075119069511537,0.42579278589600733,-1.1080438611532628e-05,-0.5041733949650784
862,0.8526,724.541,774.224,12.6059,74.6189,-394.629,6.06696,0.355195,0.355078,-0.702228,-4.6259e-06,0.000150185,-1.02793e-05,0.987087,0.42645878662608716,-4.62588930050245e-06,0.00015019627833168236,0.42629190071106837,-1.0279247168232253e-05,-0.5045198566595288
863,0.8536,724.748,774.447,12.6111,74.6402,-394.744,6.06882,0.355545,0.355429,-0.702927,-4.61762e-06,0.000109629,-9.47796e-06,0.988092,0.4269581345822011,-4.617609338786188e-06,0.00010963500947847038,0.4267926170387928,-9.477915084321609e-06,-0.504866076261876
864,0.8546,724.956,774.669,12.6163,74.6616,-394.859,6.07067,0.355895,0.355779,-0.703625,-4.60933e-06,6.90626e-05,-8.67641e-06,0.989097,0.4274576573406883,-4.609319377069099e-06,6.906498487624368e-05,0.42729208185600065,-8.676372360016948e-06,-0.5052115591530894
865,0.8556,725.162,774.892,12.6215,74.6829,-394.974,6.07252,0.356245,0.35613,-0.704323,-4.60103e-06,2.84873e-05,-7.87469e-06,0.990102,0.42795735496274045,-4.6010194152401596e-06,2.8487705767021865e-05,0.42779314930892576,-7.874658994655448e-06,-0.5055568009813856
866,0.8566,725.369,775.114,12.6267,74.7042,-395.089,6.07437,0.356595,0.35648,-0.70502,-4.59271e-06,-1.20973e-05,-7.07278e-06,0.991106,0.42845722750957016,-4.592699453520588e-06,-1.2097226827934016e-05,0.4282929643737179,-7.0727549879023854e-06,-0.5059013078165224
867,0.8576,725.576,775.336,12.6318,74.7255,-395.204,6.07622,0.356945,0.35683,-0.705718,-4.58438e-06,-5.26911e-05,-6.27069e-06,0.992109,0.4289572750424122,-4.584369491800189e-06,-5.2689711848352694e-05,0.4287929544044,-6.270670339314499e-06,-0.5062460683682365
868,0.8586,725.782,775.557,12.637,74.7467,-395.318,6.07806,0.357295,0.35718,-0.706415,-4.57604e-06,-9.32941e-05,-5.46842e-06,0.993113,0.42945749762252206,-4.57602952996794e-06,-9.328974824074354e-05,0.42929311946222093,-5.468405048225655e-06,-0.506590094951392
869,0.8596,725.988,775.779,12.6422,74.768,-395.433,6.07991,0.357644,0.357529,-0.707112,-4.56769e-06,-0.000133906,-4.66598e-06,0.994116,0.4299564653539969,-4.567679568134864e-06,-0.00013389703499178118,0.42979202981570586,-4.665969114303614e-06,-0.5069338818315652
870,0.8606,726.193,776.0,12.6473,74.7892,-395.547,6.08175,0.357994,0.357879,-0.707809,-4.55932e-06,-0.000174527,-3.86335e-06,0.995118,0.43045703771192345,-4.559309606300133e-06,-0.00017451177104910176,0.4302925446111212,-3.863342537324677e-06,-0.507277429175771
871,0.8616,726.399,776.221,12.6524,74.8104,-395.661,6.08359,0.358343,0.358229,-0.708506,-4.55094e-06,-0.000215157,-3.06056e-06,0.996121,0.4309563543437691,-4.550929644464574e-06,-0.00021513385539262408,0.43079323461737484,-3.0605553165141686e-06,-0.5076207371509076
872,0.8626,726.604,776.442,12.6576,74.8315,-395.776,6.08542,0.358692,0.358578,-0.709202,-4.54254e-06,-0.000255796,-2.25758e-06,0.997123,0.43145584526753145,-4.542529682627361e-06,-0.0002557632869925053,0.43129266860241744,-2.2575774516475633e-06,-0.5079633138873172
873,0.8636,726.81,776.662,12.6627,74.8527,-395.89,6.08726,0.359041,0.358927,-0.709898,-4.53413e-06,-0.000296444,-1.45444e-06,0.998125,0.4319555105440489,-4.5341197209003425e-06,-0.0002964000648190135,0.43179227692034017,-1.4544389422832538e-06,-0.5083056522732738
874,0.8646,727.015,776.883,12.6678,74.8738,-396.003,6.08909,0.35939,0.359276,-0.710594,-4.52571e-06,-0.0003371,-6.51122e-07,0.999126,0.43245535023418125,-4.525699758950452e-06,-0.00033704318817895373,0.4322920596319957,-6.511217880422748e-07,-0.5086477524746116
875,0.8656,727.219,777.103,12.6729,74.8949,-396.117,6.09092,0.359739,0.359625,-0.711289,-4.51728e-06,-0.000377765,1.52366e-07,1.00013,0.43295536439880955,-4.517269797110757e-06,-0.00037769365578643743,0.4327920167982582,1.5236601158541418e-07,-0.5089891236464187
876,0.8666,727.424,777.322,12.678,74.916,-396.231,6.09275,0.360088,0.359974,-0.711985,-4.50883e-06,-0.000418439,9.56023e-07,1.00113,0.433455553098836,-4.5088198352694064e-06,-0.0004183514666111776,0.43329214848002295,9.560234570660242e-07,-0.5093307483171846
877,0.8676,727.628,777.542,12.6831,74.937,-396.344,6.09458,0.360436,0.360323,-0.71268,-4.50037e-06,-0.000459122,1.75985e-06,1.00213,0.43395448243998436,-4.5003598733162065e-06,-0.00045901661962266527,0.4337924547382064,1.7598515484884558e-06,-0.5096716449717948
878,0.8686,727.832,777.761,12.6882,74.9581,-396.458,6.0964,0.360785,0.360672,-0.713374,-4.4919e-06,-0.000499813,2.56384e-06,1.00313,0.434455019893061,-4.491889911473201e-06,-0.000499688114289909,0.43429293563374616,2.5638432865626726e-06,-0.5100118147976018
879,0.8696,728.036,777.981,12.6933,74.9791,-396.571,6.09823,0.361133,0.36102,-0.714069,-4.48341e-06,-0.000540512,3.368e-06,1.00413,0.43495429710918065,-4.483399949517519e-06,-0.0005403659497040803,0.4347921564347281,3.368005671688934e-06,-0.5103522382754562
880,0.8706,728.24,778.2,12.6984,75.0001,-396.684,6.10005,0.361481,0.361369,-0.714763,-4.47491e-06,-0.00058122,4.17232e-06,1.00513,0.4354537481040073,-4.47489998756101e-06,-0.0005810511243753425,0.4352929862870496,4.172328704088457e-06,-0.5106919359333715
881,0.8716,728.443,778.418,12.7035,75.0211,-396.797,6.10187,0.361829,0.361717,-0.715457,-4.4664e-06,-0.000621937,4.97681e-06,1.00613,0.4359533729380265,-4.466390025603673e-06,-0.0006217436372725205,0.43579255516622073,4.976822384428203e-06,-0.5110313979228986
882,0.8726,728.647,778.637,12.7085,75.042,-396.91,6.10368,0.362177,0.362065,-0.716151,-4.45788e-06,-0.000662661,5.78146e-06,1.00712,0.4364531716717446,-4.457870063645508e-06,-0.0006624414886894359,0.4362922979256154,5.781476712707345e-06,-0.5113706244075347
883,0.8736,728.85,778.855,12.7136,75.0629,-397.023,6.1055,0.362525,0.362413,-0.716845,-4.44934e-06,-0.000703394,6.58627e-06,1.00812,0.4369531443656893,-4.449330101685689e-06,-0.0007031466764324534,0.4367922146257541,6.5862916895920165e-06,-0.5117096155506633
884,0.8746,729.053,779.073,12.7186,75.0839,-397.136,6.10731,0.362873,0.362761,-0.717538,-4.44079e-06,-0.000744135,7.39124e-06,1.00912,0.4374532910804094,-4.440780139725042e-06,-0.0007438582002139427,0.4372923053271789,7.391267315304262e-06,-0.5120478835636824
885,0.8756,729.255,779.291,12.7237,75.1047,-397.248,6.10912,0.36322,0.363109,-0.718232,-4.43223e-06,-0.000784885,8.19638e-06,1.01012,0.4379521739235819,-4.432220177652546e-06,-0.000784577058339897,0.437792570090453,8.196413590511042e-06,-0.5123864048520151
886,0.8766,729.458,779.508,12.7287,75.1256,-397.361,6.11093,0.363568,0.363457,-0.718924,-4.42365e-06,-0.000825642,9.00166e-06,1.01112,0.43845266836108854,-4.423640215689417e-06,-0.0008253012514291003,0.4382930089761601,9.001700514987832e-06,-0.512723716736485
887,0.8776,729.66,779.726,12.7337,75.1465,-397.473,6.11274,0.363915,0.363804,-0.719617,-4.41506e-06,-0.000866407,9.80711e-06,1.01211,0.4389518980483511,-4.415050253614439e-06,-0.0008660317778280691,0.438792183252003,9.807158089847334e-06,-0.5130612822208366
888,0.8786,729.862,779.943,12.7388,75.1673,-397.586,6.11455,0.364263,0.364152,-0.72031,-4.40646e-06,-0.000907181,1.06127e-05,1.01311,0.4394527404503954,-4.406450291538633e-06,-0.0009067696357200061,0.4392929700636259,1.0612756314865024e-05,-0.5133986138533466
889,0.8796,730.064,780.16,12.7438,75.1881,-397.698,6.11635,0.36461,0.364499,-0.721002,-4.39785e-06,-0.000947962,1.14185e-05,1.01411,0.43995231722288897,-4.3978403294619994e-06,-0.0009475128259678334,0.43979249138617527,1.141856519137896e-05,-0.5137352255314869
890,0.8806,730.266,780.377,12.7488,75.2089,-397.81,6.11815,0.364957,0.364846,-0.721694,-4.38922e-06,-0.000988751,1.22244e-05,1.0151,0.44045206737860276,-4.389210367383711e-06,-0.0009882623467953877,0.4402921860727005,1.2224474718269818e-05,-0.5140716043549229
891,0.8816,730.467,780.593,12.7538,75.2296,-397.922,6.11995,0.365303,0.365193,-0.722385,-4.38058e-06,-0.00102955,1.30304e-05,1.0161,0.4409505500264408,-4.380570405304596e-06,-0.0010290201952345424,0.440792054183369,1.3030484895981687e-05,-0.5144072648922421
892,0.8826,730.668,780.81,12.7588,75.2504,-398.033,6.12175,0.36565,0.36554,-0.723077,-4.37193e-06,-0.00107035,1.38367e-05,1.01709,0.44145064662904243,-4.3719204431136305e-06,-0.0010697773797583299,0.4412920957783699,1.3836795727639739e-05,-0.514743178825311
893,0.8836,730.869,781.026,12.7638,75.2711,-398.145,6.12354,0.365997,0.365887,-0.723768,-4.36327e-06,-0.00111117,1.4643e-05,1.01809,0.44195091679527687,-4.363260480921838e-06,-0.0011105528792121344,0.4417923109179127,1.464310720922235e-05,-0.5150783754649662
894,0.8846,731.07,781.241,12.7688,75.2918,-398.257,6.12534,0.366343,0.366234,-0.724459,-4.35459e-06,-0.00115199,1.54495e-05,1.01908,0.44244991813474166,-4.354580518839413e-06,-0.0011513267142438943,0.4422926996622274,1.5449619344076737e-05,-0.51541334056375
895,0.8856,731.271,781.457,12.7737,75.3125,-398.368,6.12713,0.36669,0.36658,-0.72515,-4.3459e-06,-0.00119281,1.62562e-05,1.02008,0.442950535108356,-4.345890556645138e-06,-0.0011920988849217773,0.4427918192790248,1.625633213264699e-05,-0.5157480742816019
896,0.8866,731.471,781.673,12.7787,75.3331,-398.479,6.12892,0.367036,0.366927,-0.72584,-4.3372e-06,-0.00123365,1.7063e-05,1.02107,0.443449882375599,-4.337190594339013e-06,-0.0012328893666559981,0.44329255491292274,1.706314557381461e-05,-0.5160820928606856
897,0.8876,731.671,781.888,12.7837,75.3538,-398.591,6.13071,0.367382,0.367273,-0.726531,-4.32849e-06,-0.00127449,1.78699e-05,1.02206,0.44394940244688996,-4.3284806321430835e-06,-0.0012736781825409826,0.4437920205394932,1.7870059667579596e-05,-0.5164163646303217
898,0.8886,731.871,782.103,12.7886,75.3744,-398.702,6.13249,0.367728,0.36762,-0.727221,-4.31976e-06,-0.00131534,1.8677e-05,1.02306,0.44444909538202926,-4.319750669834477e-06,-0.0013144753195000192,0.44429310330345184,1.8677174416170672e-05,-0.5167499222481148
899,0.8896,732.071,782.318,12.7936,75.395,-398.813,6.13428,0.368074,0.367966,-0.727911,-4.31102e-06,-0.0013562,1.94843e-05,1.02405,0.44494896124083816,-4.3110107075250426e-06,-0.0013552807763773655,0.44479291517966324,1.948448982025397e-05,-0.5170832497905367
900,0.8906,732.271,782.532,12.7985,75.4156,-398.924,6.13606,0.36842,0.368312,-0.7286,-4.30227e-06,-0.00139706,2.02917e-05,1.02504,0.4454490000831588,-4.302260745214781e-06,-0.0013960845659777288,0.4452929000207049,2.0291905878044858e-05,-0.5174158648323908
901,0.8916,732.47,782.746,12.8035,75.4361,-399.034,6.13784,0.368766,0.368658,-0.729289,-4.29351e-06,-0.00143794,2.10992e-05,1.02603,0.4459492119688535,-4.293500782903692e-06,-0.001436906659631365,0.4457930578864331,2.1099422589765382e-05,-0.5177482507814126
902,0.8926,732.67,782.961,12.8084,75.4567,-399.145,6.13962,0.369111,0.369003,-0.729979,-4.28474e-06,-0.00147882,2.19069e-05,1.02703,0.44644815050893216,-4.284730820480753e-06,-0.0014777270845119928,0.446291942544059,2.1907139957866306e-05,-0.518080889714744
903,0.8936,732.869,783.174,12.8133,75.4772,-399.256,6.1414,0.369457,0.369349,-0.730667,-4.27595e-06,-0.0015197,2.27147e-05,1.02802,0.44694870816048815,-4.275940858167182e-06,-0.0015185458406876684,0.44679244613830793,2.2714957980785044e-05,-0.5184123360320131
904,0.8946,733.068,783.388,12.8182,75.4977,-399.366,6.14317,0.369802,0.369695,-0.731356,-4.26715e-06,-0.0015606,2.35226e-05,1.02901,0.44744799158624216,-4.267140895741761e-06,-0.0015593828970392742,0.44729312293676293,2.3522876658521596e-05,-0.518744035648847
905,0.8956,733.266,783.602,12.8231,75.5182,-399.476,6.14494,0.370147,0.37004,-0.732044,-4.25834e-06,-0.0016015,2.43307e-05,1.03,0.4479474472944951,-4.258330933315513e-06,-0.0016002182831894585,0.4477925252061141,2.4330995993970816e-05,-0.5190750258786255
906,0.8966,733.465,783.815,12.828,75.5386,-399.586,6.14671,0.370492,0.370385,-0.732733,-4.24951e-06,-0.0016424,2.51389e-05,1.03099,0.44844707534469475,-4.24950097088761e-06,-0.0016410519992064998,0.44829209979897233,2.5139215984903984e-05,-0.5194062690594153
907,0.8976,733.663,784.028,12.8329,75.5591,-399.697,6.14848,0.370837,0.37073,-0.73342,-4.24068e-06,-0.00168332,2.59473e-05,1.03198,0.4489468757963091,-4.240671008348684e-06,-0.0016819040115207962,0.44879184677479955,2.594763663399391e-05,-0.5197363235658672
908,0.8986,733.861,784.241,12.8378,75.5795,-399.807,6.15025,0.371182,0.371076,-0.734108,-4.23183e-06,-0.00172424,2.67557e-05,1.03297,0.44944684870882723,-4.231821045808104e-06,-0.001722754352205036,0.44929321548556866,2.6756057937005195e-05,-0.5200666313363518
909,0.8996,734.059,784.453,12.8427,75.5999,-399.916,6.15202,0.371527,0.37142,-0.734796,-4.22297e-06,-0.00176517,2.75644e-05,1.03396,0.449946994141758,-4.222961083266696e-06,-0.0017636130036913222,0.44979185811331046,2.7564779901512182e-05,-0.5203967119332469
910,0.9006,734.256,784.666,12.8476,75.6203,-400.026,6.15378,0.371871,0.371765,-0.735483,-4.2141e-06,-0.0018061,2.83731e-05,1.03495,0.4504458617080447,-4.214091120724461e-06,-0.0018044699828673183,0.4502921225950207,2.8373502520162575e-05,-0.5207260862391202
911,0.9016,734.454,784.878,12.8525,75.6406,-400.136,6.15554,0.372216,0.37211,-0.73617,-4.20521e-06,-0.00184704,2.9182e-05,1.03594,0.4509463518599208,-4.205201158069549e-06,-0.0018453352713481141,0.45079255969775245,2.918242579874608e-05,-0.5210552343425547
912,0.9026,734.651,785.09,12.8573,75.6609,-400.245,6.1573,0.37256,0.372455,-0.736856,-4.19632e-06,-0.00188799,2.9991e-05,1.03693,0.45144556326439944,-4.196311195414637e-06,-0.0018862088679760802,0.45129316948107023,2.9991449734589892e-05,-0.5213836777828154
913,0.9036,734.848,785.302,12.8622,75.6813,-400.355,6.15906,0.372904,0.372799,-0.737543,-4.18741e-06,-0.00192895,3.08001e-05,1.03792,0.4519449464271419,-4.18740123275807e-06,-0.001927090771593809,0.45179250021133344,3.080057432791605e-05,-0.5217123742760053
914,0.9046,735.045,785.513,12.867,75.7016,-400.464,6.16081,0.373248,0.373143,-0.738229,-4.17849e-06,-0.00196991,3.16094e-05,1.0389,0.4524445014072431,-4.178481270100676e-06,-0.00196797100072299,0.4522920027409154,3.160989958228555e-05,-0.52204036707286
915,0.9056,735.242,785.725,12.8719,75.7218,-400.573,6.16257,0.373592,0.373488,-0.738915,-4.16956e-06,-0.00201088,3.24188e-05,1.03989,0.4529442282638185,-4.169551307442454e-06,-0.0020088595353436878,0.45279312992132903,3.2419325495025575e-05,-0.5223681349438144
916,0.9066,735.438,785.936,12.8767,75.7421,-400.682,6.16432,0.373936,0.373832,-0.739601,-4.16061e-06,-0.00205185,3.32283e-05,1.04088,0.4534441270560039,-4.160601344671555e-06,-0.002049746394795493,0.4532929767267433,3.322885206613613e-05,-0.5226956780431149
917,0.9076,735.635,786.147,12.8816,75.7623,-400.791,6.16607,0.37428,0.374176,-0.740287,-4.15166e-06,-0.00209283,3.4038e-05,1.04187,0.45394419784295503,-4.151651381900656e-06,-0.00209064155824068,0.4537929955090372,3.403857929940024e-05,-0.5230229965249018
918,0.9086,735.831,786.358,12.8864,75.7825,-400.9,6.16782,0.374624,0.37452,-0.740972,-4.14269e-06,-0.00213382,3.48477e-05,1.04285,0.4544444406838486,-4.14268141901708e-06,-0.0021315450245208423,0.45429318632738047,3.4848307188140026e-05,-0.5233496138930622
919,0.9096,736.027,786.568,12.8912,75.8027,-401.009,6.16957,0.374967,0.374863,-0.741657,-4.13371e-06,-0.00217482,3.56576e-05,1.04384,0.45494340069375294,-4.133701456243699e-06,-0.002172456792477906,0.45479209444814206,3.5658235739699506e-05,-0.5236760076049365
920,0.9106,736.223,786.779,12.896,75.8229,-401.118,6.17131,0.375311,0.375207,-0.742342,-4.12472e-06,-0.00221582,3.64676e-05,1.04482,0.4554439873195548,-4.124711493358468e-06,-0.0022133668830868203,0.4552926290156418,3.646826495096178e-05,-0.5240021778136766
921,0.9116,736.418,786.989,12.9008,75.8431,-401.226,6.17306,0.375654,0.37555,-0.743026,-4.11572e-06,-0.00225682,3.72778e-05,1.04581,0.4559432902327598,-4.11571153047241e-06,-0.002254275296416419,0.45579188000404414,3.7278494825709885e-05,-0.5243276490002169
922,0.9126,736.613,787.199,12.9056,75.8632,-401.335,6.1748,0.375997,0.375894,-0.743711,-4.1067e-06,-0.00229783,3.8088e-05,1.0468,0.45644276443623877,-4.106691567473675e-06,-0.002295192009583613,0.4562927585569372,3.8088725357043884e-05,-0.5246533729874496
923,0.9136,736.809,787.408,12.9104,75.8833,-401.443,6.17654,0.37634,0.376237,-0.744395,-4.09767e-06,-0.00233885,3.88984e-05,1.04778,0.456942409988754,-4.097661604585134e-06,-0.0023361170214295512,0.45679235264861084,3.8899156552529845e-05,-0.524978398908789
924,0.9146,737.004,787.618,12.9152,75.9034,-401.551,6.17827,0.376683,0.37658,-0.745079,-4.08864e-06,-0.00237988,3.97089e-05,1.04876,0.45744222694908854,-4.088631641474549e-06,-0.002377050330795605,0.4572921181304499,3.9709688408828825e-05,-0.5253032025884135
925,0.9156,737.198,787.827,12.92,75.9235,-401.659,6.18001,0.377026,0.376923,-0.745763,-4.07959e-06,-0.00242091,4.05195e-05,1.04975,0.4579422153760455,-4.079581678473332e-06,-0.00241798196070242,0.45779205506125065,4.052032092594082e-05,-0.5256277841782844
926,0.9166,737.393,788.036,12.9248,75.9436,-401.767,6.18174,0.377369,0.377266,-0.746446,-4.07053e-06,-0.00246195,4.13302e-05,1.05073,0.45844237532844767,-4.070521715360265e-06,-0.0024589218866297724,0.45829216349983093,4.133105410453197e-05,-0.5259516697821662
927,0.9176,737.587,788.245,12.9296,75.9636,-401.875,6.18348,0.377711,0.377609,-0.747129,-4.06145e-06,-0.00250299,4.2141e-05,1.05172,0.45894124792316116,-4.061441752356565e-06,-0.0024998601324169867,0.45879244350502746,4.214188794438023e-05,-0.5262753342477079
928,0.9186,737.782,788.454,12.9343,75.9836,-401.983,6.18521,0.378054,0.377952,-0.747812,-4.05237e-06,-0.00254404,4.29519e-05,1.0527,0.4594417506025015,-4.0523617891308206e-06,-0.002540806672725049,0.4592928951356978,4.295282244615173e-05,-0.5265987777258954
929,0.9196,737.976,788.662,12.9391,76.0036,-402.091,6.18693,0.378396,0.378294,-0.748495,-4.04327e-06,-0.00258509,4.3763e-05,1.05368,0.45994096504201076,-4.043261826014444e-06,-0.002581751532212073,0.45979205865793116,4.376395761407359e-05,-0.5269220003676114
930,0.9206,738.169,788.871,12.9438,76.0236,-402.199,6.18866,0.378738,0.378637,-0.749177,-4.03417e-06,-0.00262615,4.45742e-05,1.05467,0.4604403502420569,-4.034161862787045e-06,-0.002622704684720256,0.4602928532154076,4.457519344436278e-05,-0.5272445295684018
931,0.9216,738.363,789.079,12.9486,76.0436,-402.306,6.19039,0.37908,0.378979,-0.74986,-4.02505e-06,-0.00266722,4.53855e-05,1.05565,0.46093990626104975,-4.025041899446968e-06,-0.002663666129089859,0.46079235878179037,4.5386529937463393e-05,-0.5275673113121933
932,0.9226,738.557,789.287,12.9533,76.0635,-402.413,6.19211,0.379422,0.379321,-0.750542,-4.01592e-06,-0.00270829,4.61968e-05,1.05663,0.4614396331574193,-4.015911936217087e-06,-0.0027046258912074572,0.46129203520829254,4.6197867088704214e-05,-0.5278894005609602
933,0.9236,738.75,789.494,12.9581,76.0834,-402.521,6.19383,0.379764,0.379663,-0.751224,-4.00678e-06,-0.00274937,4.70083e-05,1.05761,0.46193953098961593,-4.006771972875356e-06,-0.002745593943686231,0.46179188255335757,4.7009404907427665e-05,-0.5282112702197483
934,0.9246,738.943,789.702,12.9628,76.1033,-402.628,6.19555,0.380106,0.380005,-0.751905,-3.99762e-06,-0.00279045,4.782e-05,1.05859,0.4624395998161097,-3.99761200953197e-06,-0.0027865603132321004,0.46229190087545025,4.7821143394521926e-05,-0.5285324489709513
935,0.9256,739.136,789.909,12.9675,76.1232,-402.735,6.19727,0.380447,0.380347,-0.752587,-3.98846e-06,-0.00283154,4.86317e-05,1.05957,0.462938376756282,-3.988452046077562e-06,-0.002827534971638679,0.46279209023305445,4.8632882540200484e-05,-0.5288538802202383
936,0.9266,739.329,790.116,12.9722,76.1431,-402.842,6.19899,0.380789,0.380689,-0.753268,-3.97928e-06,-0.00287263,4.94435e-05,1.06055,0.46343878724644894,-3.979272082621499e-06,-0.0028685079464311203,0.4632924506846745,4.944472235002273e-05,-0.529174621503006
937,0.9276,739.521,790.323,12.9769,76.1629,-402.949,6.2007,0.38113,0.381031,-0.753949,-3.9701e-06,-0.00291373,5.02554e-05,1.06154,0.4639379049676351,-3.970092119165436e-06,-0.0029094892085838042,0.46379298228883425,5.025666282376662e-05,-0.5294951444353169
938,0.9286,739.713,790.53,12.9816,76.1828,-403.055,6.20241,0.381472,0.381372,-0.754629,-3.9609e-06,-0.00295484,5.10674e-05,1.06252,0.4644386573549113,-3.960892155596696e-06,-0.0029504787569365476,0.4642922208111251,5.106870396187624e-05,-0.5298149789810309
939,0.9296,739.906,790.736,12.9863,76.2026,-403.162,6.20412,0.381813,0.381714,-0.75531,-3.95169e-06,-0.00299595,5.18796e-05,1.06349,0.46493811608994395,-3.951682192138151e-06,-0.0029914666202435214,0.46479309439514327,5.1880945769688935e-05,-0.5301350659783519
940,0.9306,740.098,790.942,12.991,76.2224,-403.269,6.20583,0.382154,0.382055,-0.75599,-3.94247e-06,-0.00303706,5.26918e-05,1.06447,0.46543774516944714,-3.9424622284567334e-06,-0.0030324527985741145,0.46529267401381613,5.2693188237196154e-05,-0.5304544655253332
941,0.9316,740.289,791.148,12.9957,76.2421,-403.375,6.20754,0.382495,0.382396,-0.75667,-3.93324e-06,-0.00307818,5.35041e-05,1.06545,0.4659375446515186,-3.933232264774489e-06,-0.003073447261263129,0.4657924240181879,5.350553136995728e-05,-0.5307736479544509
942,0.9326,740.481,791.354,13.0004,76.2619,-403.481,6.20924,0.382836,0.382737,-0.75735,-3.92399e-06,-0.00311931,5.43165e-05,1.06643,0.4664375145942752,-3.923982301201612e-06,-0.003114450007150049,0.46629234446637025,5.4317975167750276e-05,-0.5310926134132951
943,0.9336,740.672,791.56,13.0051,76.2816,-403.588,6.21095,0.383176,0.383078,-0.758029,-3.91474e-06,-0.00316044,5.51291e-05,1.06741,0.46693618811893267,-3.91473233740669e-06,-0.003155451066628623,0.4667924354164943,5.513061963680066e-05,-0.5314108934604831
944,0.9346,740.864,791.766,13.0097,76.3014,-403.694,6.21265,0.383517,0.383419,-0.758708,-3.90547e-06,-0.00320157,5.59417e-05,1.06839,0.46743649865717996,-3.9054623736101135e-06,-0.00319645043976835,0.46729269692671127,5.594326476598965e-05,-0.5317289574688725
945,0.9356,741.055,791.971,13.0144,76.3211,-403.8,6.21435,0.383857,0.38376,-0.759387,-3.8962e-06,-0.00324272,5.67544e-05,1.06937,0.4679355118941664,-3.896192409813537e-06,-0.0032374680618894036,0.467793129055192,5.6756010561320736e-05,-0.532046805585104
946,0.9366,741.246,792.176,13.0191,76.3407,-403.906,6.21605,0.384198,0.3841,-0.760066,-3.88691e-06,-0.00328386,5.75672e-05,1.07034,0.46843616325992876,-3.886902446015306e-06,-0.0032784740289548697,0.4682922635671294,5.756885702301595e-05,-0.5323644379557184
947,0.9376,741.436,792.381,13.0237,76.3604,-404.011,6.21775,0.384538,0.384441,-0.760745,-3.87761e-06,-0.00332501,5.83802e-05,1.07132,0.46893551644066744,-3.877602482105225e-06,-0.0033194882758745825,0.4687930366059565,5.838190415707878e-05,-0.5326818547271573
948,0.9386,741.627,792.586,13.0284,76.38,-404.117,6.21944,0.384878,0.384781,-0.761423,-3.8683e-06,-0.00336617,5.91932e-05,1.0723,0.4694350394303535,-3.868292518083294e-06,-0.003360510801487804,0.4692925111442623,5.919495195194635e-05,-0.5329985890445856
949,0.9396,741.817,792.79,13.033,76.3997,-404.223,6.22114,0.385218,0.385121,-0.762101,-3.85898e-06,-0.00340733,6.00063e-05,1.07327,0.46993473228673177,-3.858972554171558e-06,-0.003401531638648647,0.4697921555327842,6.0008100414066234e-05,-0.533315108688929
950,0.9406,742.007,792.994,13.0376,76.4193,-404.328,6.22283,0.385558,0.385461,-0.762779,-3.84965e-06,-0.00344849,6.08195e-05,1.07425,0.4704345950675666,-3.8496425901479725e-06,-0.0034425507874265016,0.4702919698292809,6.0821349543216385e-05,-0.5336314138056866
951,0.9416,742.197,793.198,13.0423,76.4388,-404.434,6.22452,0.385898,0.385801,-0.763457,-3.8403e-06,-0.00348967,6.16328e-05,1.07523,0.4709346278306423,-3.84029262601171e-06,-0.0034835881782193656,0.47079195409153085,6.163469934006294e-05,-0.5339475045402589
952,0.9426,742.387,793.402,13.0469,76.4584,-404.539,6.2262,0.386237,0.386141,-0.764134,-3.83095e-06,-0.00353084,6.24461e-05,1.0762,0.4714333591996678,-3.830942661875447e-06,-0.003524613914373531,0.4712921083773325,6.244804979838037e-05,-0.5342629153010957
953,0.9436,742.577,793.606,13.0515,76.478,-404.644,6.22789,0.386577,0.386481,-0.764811,-3.82159e-06,-0.00357202,6.32596e-05,1.07718,0.4719337316002834,-3.821582697738357e-06,-0.003565647925876436,0.47179243274450355,6.326160093061972e-05,-0.5345781126011122
954,0.9446,742.766,793.81,13.0561,76.4975,-404.749,6.22958,0.386916,0.386821,-0.765488,-3.81221e-06,-0.0036132,6.40732e-05,1.07815,0.47243280172290225,-3.81220273348859e-06,-0.0036066802476335535,0.47229292725088134,6.407525273122161e-05,-0.5348930965847722
955,0.9456,742.955,794.013,13.0607,76.517,-404.854,6.23126,0.387256,0.38716,-0.766165,-3.80282e-06,-0.00365439,6.48868e-05,1.07913,0.4729335139917503,-3.8028127692379954e-06,-0.0036477208432372787,0.47279211916146746,6.488890519396051e-05,-0.5352078673964422
956,0.9466,743.144,794.216,13.0653,76.5365,-404.959,6.23294,0.387595,0.3875,-0.766842,-3.79343e-06,-0.00369559,6.57005e-05,1.0801,0.4734329230980543,-3.793422804987401e-06,-0.0036887697115259854,0.47329295361901536,6.570265832506195e-05,-0.5355224251803907
957,0.9476,743.333,794.419,13.0699,76.556,-405.064,6.23462,0.387934,0.387839,-0.767518,-3.78402e-06,-0.00373679,6.65143e-05,1.08107,0.4739325015327449,-3.784012840624129e-06,-0.0037298168886362726,0.4737924845960091,6.651651212519205e-05,-0.5358363059173267
958,0.9486,743.522,794.622,13.0745,76.5754,-405.169,6.2363,0.388273,0.388178,-0.768194,-3.7746e-06,-0.00377799,6.73282e-05,1.08205,0.474432249353234,-3.77459287626003e-06,-0.00377086237463764,0.4742921849427104,6.733046659412878e-05,-0.5361499745425864
959,0.9496,743.711,794.824,13.0791,76.5948,-405.273,6.23797,0.388612,0.388517,-0.76887,-3.76517e-06,-0.0038192,6.81422e-05,1.08302,0.4749321666169535,-3.7651629117840812e-06,-0.003811916131480686,0.4747920547165454,6.814452173253827e-05,-0.5364634311995087
960,0.9506,743.899,795.027,13.0836,76.6143,-405.378,6.23965,0.388951,0.388856,-0.769545,-3.75573e-06,-0.00386041,6.89563e-05,1.08399,0.475432253381354,-3.755722947307305e-06,-0.0038529681965333573,0.47529209397495986,6.895867754019847e-05,-0.5367762128077802
961,0.9516,744.087,795.229,13.0882,76.6337,-405.482,6.24132,0.389289,0.389195,-0.770221,-3.74628e-06,-0.00390162,6.97704e-05,1.08497,0.4759310337721343,-3.746272982718679e-06,-0.003894018569865154,0.47579230277541873,6.977283401088386e-05,-0.537089246270691
962,0.9526,744.275,795.431,13.0928,76.653,-405.586,6.24299,0.389628,0.389534,-0.770896,-3.73682e-06,-0.00394284,7.05847e-05,1.08594,0.47643145920990215,-3.736813018129226e-06,-0.003935077212195326,0.47629268117540646,7.05871911585998e-05,-0.537401605596326
963,0.9536,744.463,795.633,13.0973,76.6724,-405.691,6.24466,0.389966,0.389873,-0.771571,-3.72735e-06,-0.00398407,7.1399e-05,1.08691,0.47693057738933575,-3.727343053427923e-06,-0.003976144122361691,0.47679322923242684,7.140154896934092e-05,-0.5377137541505594
964,0.9546,744.651,795.834,13.1019,76.6918,-405.795,6.24633,0.390304,0.390211,-0.772246,-3.71786e-06,-0.0040253,7.22134e-05,1.08788,0.47742986429922785,-3.717853088724965e-06,-0.004017209339374217,0.4772924697107952,7.221600745044299e-05,-0.5380256920756143
965,0.9556,744.838,796.036,13.1064,76.7111,-405.899,6.248,0.390642,0.390549,-0.77292,-3.70837e-06,-0.00406653,7.30279e-05,1.08885,0.4779293199966188,-3.708363124022007e-06,-0.0040582728633028475,0.4777918789609663,7.303056660190599e-05,-0.5383369578508057
966,0.9566,745.025,796.237,13.111,76.7304,-406.003,6.24966,0.390981,0.390888,-0.773594,-3.69887e-06,-0.00410776,7.38424e-05,1.08982,0.47843042296825233,-3.6988631592071997e-06,-0.004099334694217194,0.4782929353321905,7.384512641706031e-05,-0.538648013903549
967,0.9576,745.212,796.438,13.1155,76.7497,-406.106,6.25132,0.391318,0.391226,-0.774268,-3.68935e-06,-0.00414901,7.4657e-05,1.0908,0.4789287379821565,-3.6893431943907373e-06,-0.0041404147493790955,0.4787926827968967,7.465978690324171e-05,-0.5389588603751496
968,0.9586,745.399,796.639,13.12,76.769,-406.21,6.25299,0.391656,0.391564,-0.774942,-3.67983e-06,-0.00419025,7.54717e-05,1.09177,0.4794287003844806,-3.6798232294632527e-06,-0.004181483151838528,0.4792925992047956,7.547454806045018e-05,-0.5392694974068175
969,0.9596,745.586,796.839,13.1246,76.7882,-406.314,6.25464,0.391994,0.391902,-0.775616,-3.67029e-06,-0.0042315,7.62865e-05,1.09274,0.4799288318026589,-3.6702832645341132e-06,-0.004222559818446436,0.4797926846129996,7.62894098891298e-05,-0.5395799251396677
970,0.9606,745.773,797.04,13.1291,76.8075,-406.417,6.2563,0.392332,0.39224,-0.776289,-3.66074e-06,-0.00427275,7.71014e-05,1.09371,0.4804291322938281,-3.660733299493124e-06,-0.004263634790676818,0.480292939078641,7.710437238928058e-05,-0.5398896836046336
971,0.9616,745.959,797.24,13.1336,76.8267,-406.521,6.25796,0.392669,0.392577,-0.776962,-3.65119e-06,-0.00431401,7.79163e-05,1.09467,0.48092812098628324,-3.651183334452135e-06,-0.004304718025552434,0.4807918818662482,7.791933555378883e-05,-0.5401992336722863
972,0.9626,746.145,797.44,13.1381,76.8459,-406.624,6.25961,0.393006,0.392915,-0.777635,-3.64162e-06,-0.00435527,7.87313e-05,1.09564,0.48142727786626605,-3.6416133692984687e-06,-0.004345799565368624,0.48129247411764364,7.873439939021232e-05,-0.5405085754828298
973,0.9636,746.332,797.64,13.1426,76.8651,-406.727,6.26127,0.393344,0.393253,-0.778308,-3.63204e-06,-0.00439653,7.95463e-05,1.09661,0.4819280849178087,-3.632033404143975e-06,-0.004386879410195554,0.4817932355978183,7.954946389077122e-05,-0.540817709176374
974,0.9646,746.517,797.84,13.1471,76.8842,-406.83,6.26292,0.393681,0.39359,-0.77898,-3.62245e-06,-0.0044378,8.03615e-05,1.09758,0.4824275788424248,-3.622443438988654e-06,-0.004427967515823417,0.4822926840705555,8.036472907191339e-05,-0.54112617601934
975,0.9656,746.703,798.039,13.1516,76.9034,-406.933,6.26457,0.394018,0.393927,-0.779652,-3.61286e-06,-0.00447907,8.11767e-05,1.09855,0.48292724112486063,-3.6128534736112883e-06,-0.00446905392578012,0.48279230088579217,8.117999491741301e-05,-0.5414344356422214
976,0.9666,746.889,798.239,13.1561,76.9225,-407.036,6.26622,0.394355,0.394264,-0.780324,-3.60325e-06,-0.00452035,8.1992e-05,1.09952,0.4834270718218616,-3.60324350834329e-06,-0.004510148595034291,0.4832920861002694,8.199536143593811e-05,-0.541742488184223
977,0.9676,747.074,798.438,13.1606,76.9416,-407.139,6.26786,0.394691,0.394601,-0.780996,-3.59363e-06,-0.00456163,8.28073e-05,1.10048,0.48392558706386435,-3.5936235429634422e-06,-0.004551241567935516,0.4837920397707469,8.28107286190427e-05,-0.5420503337844567
978,0.9686,747.259,798.635,13.1638,76.9601,-407.242,6.26984,0.395028,0.394938,-0.781667,-3.584e-06,-0.00460291,8.36227e-05,1.10145,0.4844257542601438,-3.5839935774717446e-06,-0.004592332844553737,0.4842921619540044,8.362619647539482e-05,-0.5423575149396842
979,0.9696,747.446,798.835,13.1697,76.9787,-407.344,6.27164,0.395365,0.395275,-0.782339,-3.57446e-06,-0.0046442,8.44298e-05,1.10242,0.4849260900411734,-3.5744536116544268e-06,-0.004633432378624902,0.4847924527068399,8.443336429597714e-05,-0.5426649473807752
980,0.9706,747.631,799.034,13.1738,76.9973,-407.447,6.2735,0.395701,0.395612,-0.78301,-3.56486e-06,-0.00468549,8.52414e-05,1.10338,0.485425109037924,-3.5648536459431668e-06,-0.004674530215731276,0.48529291208607117,8.524503315143761e-05,-0.542971716268611
981,0.9716,747.817,799.232,13.1785,77.016,-407.549,6.27536,0.396037,0.395948,-0.783681,-3.55524e-06,-0.00472678,8.60534e-05,1.10435,0.48592429573322904,-3.5552336801192297e-06,-0.004715626355943026,0.48579205435573747,8.605710269993239e-05,-0.5432782793835673
982,0.9726,748.001,799.43,13.1828,77.0347,-407.651,6.2772,0.396374,0.396285,-0.784351,-3.54562e-06,-0.00476808,8.68656e-05,1.10532,0.4864251366078387,-3.5456137142952926e-06,-0.004756730751762972,0.4862928506574926,8.686937292545771e-05,-0.5435841804480805
983,0.9736,748.186,799.628,13.1873,77.0534,-407.753,6.27903,0.39671,0.396621,-0.785022,-3.53598e-06,-0.00480938,8.76781e-05,1.10628,0.4869246593688632,-3.5359737484697007e-06,-0.004797833450006284,0.48679232896296987,8.768194383690364e-05,-0.5438903327374198
984,0.9746,748.371,799.826,13.1917,77.0721,-407.855,6.28084,0.397046,0.396957,-0.785692,-3.52632e-06,-0.00485068,8.84908e-05,1.10725,0.48742434999773576,-3.5263137825314317e-06,-0.0048389344507433485,0.48729197512135536,8.84947154262683e-05,-0.5441958238635307
985,0.9756,748.555,800.024,13.1962,77.0908,-407.957,6.28265,0.397382,0.397293,-0.786362,-3.51666e-06,-0.00489199,8.93036e-05,1.10821,0.48792420855086927,-3.5166538165931627e-06,-0.004880043705243642,0.4877917891890573,8.930758768510572e-05,-0.5445011103791391
986,0.9766,748.739,800.222,13.2006,77.1096,-408.059,6.28446,0.397717,0.397629,-0.787031,-3.50698e-06,-0.00493329,9.01166e-05,1.10918,0.4884227466612048,-3.5069738505422166e-06,-0.004921141310767263,0.48829177122250256,9.012066062275004e-05,-0.5448057372272532
987,0.9776,748.923,800.419,13.205,77.1283,-408.161,6.28625,0.398053,0.397965,-0.787701,-3.4973e-06,-0.00497461,9.09298e-05,1.11014,0.48892294073198106,-3.4972938844912704e-06,-0.004962257119749847,0.4887919212781373,9.093393423964535e-05,-0.5451106152377724
988,0.9786,749.107,800.616,13.2094,77.147,-408.263,6.28804,0.398389,0.398301,-0.78837,-3.4876e-06,-0.00501592,9.17431e-05,1.11111,0.48942330289620317,-3.487593918327647e-06,-0.005003361279895979,0.48929223941242617,9.17473085269016e-05,-0.545414834463501
989,0.9796,749.291,800.813,13.2138,77.1658,-408.364,6.28983,0.398724,0.398637,-0.789039,-3.47789e-06,-0.00505724,9.25566e-05,1.11207,0.4899223432872719,-3.4778839521631966e-06,-0.005044473691619533,0.4897927256818535,9.256088349429703e-05,-0.5457188502346306
990,0.9806,749.474,801.01,13.2182,77.1845,-408.466,6.29161,0.399059,0.398972,-0.789708,-3.46817e-06,-0.00509856,9.33701e-05,1.11303,0.49042155088487704,-3.4681639858868962e-06,-0.005085584404613486,0.4902918898502868,9.337445912338538e-05,-0.5460226626872271
991,0.9816,749.657,801.206,13.2226,77.2032,-408.567,6.29339,0.399395,0.399308,-0.790377,-3.45845e-06,-0.00513989,9.41836e-05,1.114,0.49092241666671366,-3.458444019610596e-06,-0.0051267033676808405,0.4907927120586959,9.418803541461074e-05,-0.5463262719572648
992,0.9826,749.84,801.403,13.227,77.2218,-408.669,6.29518,0.39973,0.399643,-0.791045,-3.44871e-06,-0.00518122,9.49972e-05,1.11496,0.49142195934502375,-3.4487040532216184e-06,-0.005167820631336473,0.4912922112786835,9.500171237686317e-05,-0.5466292248100791
993,0.9836,750.023,801.599,13.2314,77.2404,-408.77,6.29697,0.400065,0.399978,-0.791713,-3.43896e-06,-0.00522255,9.58108e-05,1.11592,0.49192166939816495,-3.4389540868318136e-06,-0.005208936195650771,0.4917918778589412,9.581539000125261e-05,-0.5469319753579651
994,0.9846,750.206,801.795,13.2357,77.259,-408.871,6.29876,0.400399,0.400314,-0.792381,-3.4292e-06,-0.00526388,9.66243e-05,1.11688,0.49242005446141635,-3.429194120330159e-06,-0.0052500500606940115,0.49229320414800193,9.662896827800083e-05,-0.5472345237360174
995,0.9856,750.388,801.991,13.2401,77.2776,-408.972,6.30056,0.400734,0.400649,-0.793049,-3.41944e-06,-0.00530522,9.74377e-05,1.11784,0.4929200989324334,-3.419434153717482e-06,-0.005291172173624514,0.492793206117045,9.744244720688577e-05,-0.5475368700792402
996,0.9866,750.572,802.189,13.2463,77.2969,-409.073,6.30194,0.401069,0.400983,-0.793716,-3.40967e-06,-0.00534656,9.8251e-05,1.11881,0.49342031094641015,-3.409664187103978e-06,-0.005332292586602061,0.4932918823221786,9.825582678768541e-05,-0.5478385623613363
997,0.9876,750.751,802.383,13.2489,77.3163,-409.174,6.30349,0.401403,0.401318,-0.794383,-3.39977e-06,-0.0053879,9.90744e-05,1.11977,0.4939191966395391,-3.3997642208127843e-06,-0.0053734112996969285,0.493792218904455,9.907930803043641e-05,-0.5481400534817751
998,0.9886,750.933,802.578,13.2535,77.3355,-409.275,6.30498,0.401738,0.401653,-0.79505,-3.3899e-06,-0.00542925,9.9894e-05,1.12073,0.49441974340731587,-3.3898942543020283e-06,-0.0054145382588338675,0.49429272312756445,9.989898957174503e-05,-0.5484413435746868
999,0.9896,751.113,802.773,13.2576,77.3547,-409.376,6.30645,0.402072,0.401987,-0.795717,-3.38004e-06,-0.00547059,0.000100713,1.12169,0.4949189629666393,-3.3800342876810774e-06,-0.005455653571962871,0.49479190025502895,0.00010071807172451486,-0.5487424327741118
