,Time,S11,S22,S33,S12,S13,S23,LE11,LE22,LE33,LE12,LE13,LE23,SDV_EPBAR,E11,E12,E13,E22,E23,E33
0,1e-05,2.96779,2.96779,-3.9968e-15,0.0,0.0,-2.22312e-38,9.99995e-06,9.99995e-06,-8.57139e-06,0.0,0.0,0.0,0.0,9.999999999621423e-06,0.0,0.0,9.999999999621423e-06,0.0,-8.571353265707238e-06
1,2e-05,5.93554,5.93554,-3.10862e-15,0.0,0.0,-4.44622e-38,1.99998e-05,1.99998e-05,-1.71427e-05,0.0,0.0,0.0,0.0,1.9999999997244444e-05,0.0,0.0,1.9999999997244444e-05,0.0,-1.714255306473067e-05
2,3.5e-05,10.3871,10.3871,-1.73195e-14,0.0,0.0,-8.33656e-38,3.49994e-05,3.49994e-05,-2.99995e-05,0.0,0.0,0.0,0.0,3.5000012486241516e-05,0.0,0.0,3.5000012486241516e-05,0.0,-2.9999050019546836e-05
3,5.75e-05,17.0644,17.0644,-7.9492e-14,0.0,0.0,-1.8757e-37,5.74983e-05,5.74983e-05,-4.92843e-05,0.0,0.0,0.0,0.0,5.749995305892597e-05,0.0,0.0,5.749995305892597e-05,0.0,-4.928308554885685e-05
4,9.125e-05,27.0799,27.0799,-4.11671e-13,0.0,0.0,-4.22022e-37,9.12458e-05,9.12458e-05,-7.82107e-05,0.0,0.0,0.0,0.0,9.124996302456445e-05,0.0,0.0,9.124996302456445e-05,0.0,-7.820764162291827e-05
5,0.00014188,42.1027,42.1027,-2.06191e-12,0.0,0.0,-9.49518e-37,0.000141865,0.000141865,-0.000121599,0.0,0.0,0.0,0.0,0.00014187506331508892,0.0,0.0,0.00014187506331508892,0.0,-0.00012159160714120265
6,0.00021781,64.6354,64.6354,-1.04285e-11,0.0,0.0,-2.1363e-36,0.000217789,0.000217789,-0.000186676,0.0,0.0,0.0,0.0,0.0002178127177461242,0.0,0.0,0.0002178127177461242,0.0,-0.00018665857711963607
7,0.00033172,98.4312,98.4312,-5.28479e-11,0.0,0.0,-4.8063e-36,0.000331664,0.000331664,-0.000284283,0.0,0.0,0.0,0.0,0.0003317190065854625,0.0,0.0,0.0003317190065854625,0.0,-0.00028424259541681707
8,0.00050258,149.118,149.118,-2.67432e-10,0.0,0.0,-1.08129e-35,0.000502452,0.000502452,-0.000430673,0.0,0.0,0.0,0.0,0.0005025782501502096,0.0,0.0,0.0005025782501502096,0.0,-0.00043058027369557994
9,0.00075887,225.131,225.131,-1.35321e-09,0.0,0.0,-2.43248e-35,0.000758579,0.000758579,-0.000650211,0.0,0.0,0.0,0.0,0.0007588667938165372,0.0,0.0,0.0007588667938165372,0.0,-0.0006499996586357693
10,0.0011433,339.115,339.115,-6.84461e-09,0.0,0.0,-5.47162e-35,0.00114265,0.00114265,-0.000979412,0.0,0.0,0.0,0.0,0.0011433030732321825,0.0,0.0,0.0011433030732321825,0.0,-0.0009789325326119425
11,0.00172,441.57,444.265,0.359664,0.00161897,0.010729,0.0283473,0.00171847,0.00171847,-0.00173062,-8.99152e-12,1.52218e-07,4.07476e-07,0.000417945,0.001719947415747436,-8.991474231834218e-12,1.522180115287597e-07,0.001719947415747436,4.0747608309743555e-07,-0.0017291233407151774
12,0.0021524,457.205,463.486,0.470902,0.00463803,0.011934,0.042467,0.00215013,0.00215013,-0.00252655,-1.50883e-11,1.99004e-07,7.09164e-07,0.00110617,0.0021524431870956207,-1.5088263971563265e-11,1.9900401970751602e-07,0.0021524431870956207,7.091642515444363e-07,-0.002523360958871401
13,0.0025849,470.54,479.811,0.522258,0.00748245,0.0153912,0.0461222,0.00258159,0.00258159,-0.00333223,1.82994e-11,2.83607e-07,8.89522e-07,0.00181007,0.0025849251728629064,1.8299362025686605e-11,2.8360704029672945e-07,0.0025849251728629064,8.895223955196485e-07,-0.0033266842831916055
14,0.0030174,482.097,493.868,0.415707,0.00834592,0.0108691,0.0284435,0.00301287,0.00301287,-0.00414565,1.27107e-11,2.54015e-07,7.49804e-07,0.0025258,0.0030174132544176224,1.2710721364328492e-11,2.540150323415702e-07,0.0030174132544176224,7.498042811082684e-07,-0.00413706865555119
15,0.0036661,496.461,511.145,-0.574454,-0.0055423,-0.0343318,-0.10558,0.00365944,0.00365944,-0.00537998,2.8667e-11,-4.55926e-07,-1.38219e-06,0.00361762,0.0036661439256002737,2.8667068718846167e-11,-4.55925896036824e-07,0.0036661439256002737,-1.3821890447740515e-06,-0.005365533825919644
16,0.0046392,516.395,534.21,-0.0549696,-0.00918207,-0.0128076,-0.0371232,0.00462852,0.00462852,-0.00723445,-8.61294e-12,-2.69479e-07,-7.58315e-07,0.00527329,0.004639248144118868,-8.61288818043704e-12,-2.694789636992212e-07,0.004639248144118868,-7.583147124679002e-07,-0.007208344357854113
17,0.0050042,522.625,541.474,-0.239093,-0.0118414,-0.0245969,-0.0555614,0.00499168,0.00499168,-0.00793521,-2.05202e-11,-4.73957e-07,-1.11935e-06,0.0059009,0.00500415919001207,-2.0520252164146768e-11,-4.7395688773654854e-07,0.00500415919001207,-1.1193493735239812e-06,-0.007903809332984069
18,0.0055515,531.982,552.125,0.153646,-0.0100618,-0.000117153,-0.00474695,0.00553617,0.00553617,-0.00898499,-3.26343e-12,-1.87711e-07,-5.04914e-07,0.00684445,0.0055515229081619655,-3.263389558583185e-12,-1.8771098242442719e-07,0.0055515229081619655,-5.049138724899649e-07,-0.008944745599389625
19,0.0063726,544.867,566.523,0.790199,0.00242941,0.0252355,0.076304,0.00635235,0.00635236,-0.0105634,6.7511e-12,2.51191e-07,8.98062e-07,0.00826738,0.006372568965236081,6.751044168140652e-12,2.511910315305954e-07,0.006372579028961933,8.980624033316786e-07,-0.010507803226079915
20,0.0066805,547.965,570.138,-0.403526,-0.00292986,-0.0379112,-0.07725,0.00665825,0.00665825,-0.0111647,-2.00851e-11,-6.10404e-07,-1.17291e-06,0.00880778,0.0066804654244452255,-2.0085044738493707e-11,-6.104038137166867e-07,0.0066804654244452255,-1.1729093121193301e-06,-0.011102606038613017
21,0.0071423,553.916,576.763,-0.570711,-0.010947,-0.0437868,-0.098254,0.00711692,0.00711692,-0.0120583,-3.59604e-11,-8.04554e-07,-1.71411e-06,0.00961458,0.007142305461509624,-3.5960345812213745e-11,-8.045536763479078e-07,0.007142305461509624,-1.7141085308924886e-06,-0.01198589003978845
22,0.0078351,563.643,587.338,0.571958,-0.00258215,0.0204636,0.0484323,0.00780454,0.00780454,-0.0133921,-6.12116e-13,7.98532e-08,3.24966e-07,0.0108233,0.007835074807323483,-6.120659534758488e-13,7.985320316095113e-08,0.007835074807323483,3.249660527337994e-07,-0.01330282480062328
23,0.0080949,565.848,589.843,-0.306834,-0.00581004,-0.0322648,-0.0635235,0.00806227,0.00806227,-0.0139003,-1.68909e-11,-6.30325e-07,-1.17707e-06,0.0112819,0.008094857616627316,-1.689093309664713e-11,-6.303248013539431e-07,0.008094857616627316,-1.1770693072454819e-06,-0.013804136910863019
24,0.0084845,570.291,594.692,-0.31817,-0.00977535,-0.0300715,-0.0650204,0.00844874,0.00844874,-0.0146554,-1.95901e-11,-6.71744e-07,-1.34757e-06,0.0119662,0.008484531330000156,-1.9590107314115812e-11,-6.717437743830601e-07,0.008484531330000156,-1.3475690919806382e-06,-0.01454853232522324
25,0.0090691,577.231,602.17,0.250252,-0.00680021,0.00602737,0.00752098,0.00902818,0.00902818,-0.0157854,-1.71878e-12,-2.05738e-07,-4.14597e-07,0.0129921,0.009069056939239095,-1.7187362644222048e-12,-2.0573797887557532e-07,0.009069056939239095,-4.145969140223471e-07,-0.015661463559123456
26,0.0099458,585.225,610.842,-0.756698,-0.0199545,-0.0431212,-0.117067,0.0098967,0.0098967,-0.0174926,-4.88121e-11,-1.03724e-06,-2.57784e-06,0.0145403,0.009945834290789879,-4.881206550066963e-11,-1.0372394620983272e-06,0.009945834290789879,-2.577836677342127e-06,-0.01734049268147786
27,0.010275,589.606,615.463,0.454996,-0.0146415,0.0255998,0.0350683,0.0102222,0.0102222,-0.0181239,-1.39729e-12,-1.30696e-07,-6.06103e-07,0.0151161,0.010274625167663753,-1.397326698793222e-12,-1.3069599147375044e-07,0.010274625167663753,-6.061028162696047e-07,-0.017960649855239708
28,0.010768,594.391,620.582,0.607136,-0.00674649,0.0305761,0.0543247,0.0107102,0.0107102,-0.0190806,4.88166e-14,1.38022e-08,-2.10733e-07,0.0159864,0.010767759499736185,4.884981308350689e-14,1.3802200049539692e-08,0.010767759499736185,-2.1073297784557354e-07,-0.018899717626829182
29,0.011508,599.989,626.626,-0.451211,-0.0141179,-0.0317164,-0.0784895,0.0114419,0.0114419,-0.0205236,3.04169e-11,-8.98931e-07,-2.20889e-06,0.0172974,0.01150760891026037,3.041700225026034e-11,-8.989305959605787e-07,0.01150760891026037,-2.208887560417594e-06,-0.020314424377891882
30,0.011785,603.116,629.913,0.293876,-0.011423,0.0150885,0.0146684,0.0117161,0.0117161,-0.0210583,4.73872e-12,-2.90798e-07,-1.01927e-06,0.0177855,0.011785002325522598,4.738653913705093e-12,-2.9079795771380645e-07,0.011785002325522598,-1.0192694805954972e-06,-0.02083812223207837
31,0.012201,605.753,632.779,-0.589593,-0.0170547,-0.0483894,-0.0958796,0.0121273,0.0121273,-0.0218719,4.51356e-11,-1.19753e-06,-2.6314e-06,0.0185248,0.012201133869260916,4.513567297692589e-11,-1.197529282959131e-06,0.012201133869260916,-2.631396537888797e-06,-0.021634444348066828
32,0.012825,611.948,639.292,0.547948,-0.0081571,0.0246456,0.0471194,0.0127438,0.0127438,-0.0230781,-1.90052e-12,-2.01642e-07,-6.75256e-07,0.019626,0.012825348262607505,-1.900479773553343e-12,-2.0164197966909825e-07,0.012825348262607505,-6.752557719647001e-07,-0.02281383744632315
33,0.013762,617.645,645.414,-1.02153,-0.0249754,-0.056311,-0.144922,0.0136678,0.0136678,-0.0249067,-7.47923e-11,-1.50222e-06,-3.84108e-06,0.0212901,0.013761631380587946,-7.479228347762046e-11,-1.5022188716296014e-06,0.013761631380587946,-3.841072623078645e-06,-0.024599087311760304
34,0.014698,624.483,652.643,-1.0163,-0.0362863,-0.0560596,-0.14224,0.0145909,0.0145909,-0.0267263,8.21459e-11,-1.77951e-06,-4.54128e-06,0.0229499,0.014697866795489567,8.214584568122518e-11,-1.7795084166216668e-06,0.014697866795489567,-4.54126968840729e-06,-0.02637231304246379
35,0.015634,630.952,659.474,-1.01768,-0.0439616,-0.0560136,-0.140471,0.0155132,0.0155132,-0.0285456,-1.22211e-10,-2.05642e-06,-5.23674e-06,0.0246105,0.015634154340666395,-1.2221101908238552e-10,-2.0564178855320137e-06,0.015634154340666395,-5.236726288271321e-06,-0.028142023588024534
36,0.01657,637.103,665.963,-1.01424,-0.0490677,-0.0557188,-0.13825,0.0164347,0.0164347,-0.0303645,-1.46846e-10,-2.3262e-06,-5.9086e-06,0.0262715,0.01657049256546972,-1.4684597982039804e-10,-2.3261972943444675e-06,0.01657049256546972,-5.908582544233987e-06,-0.029908129389484173
37,0.016922,640.774,669.759,0.447868,-0.0394882,0.0288655,0.0409995,0.01678,0.01678,-0.0310379,-4.55757e-11,-1.21551e-06,-3.58587e-06,0.0268895,0.016921574967440955,-4.557565436158484e-11,-1.2155092612431417e-06,0.016921574967440955,-3.5858635707430864e-06,-0.030561169351920214
38,0.017448,644.283,673.449,0.691785,-0.0252985,0.0403179,0.0714495,0.0172978,0.0172978,-0.032059,-2.93188e-11,-9.6371e-07,-3.00314e-06,0.0278232,0.017448273309391915,-2.9318769634301134e-11,-9.637095356174186e-07,0.017448273309391915,-3.0031354906201457e-06,-0.0315505581234925
39,0.018238,647.874,677.296,-0.480766,-0.0273624,-0.0313446,-0.0735471,0.0180739,0.0180739,-0.0335993,-9.89322e-11,-1.99225e-06,-5.13202e-06,0.0292292,0.01823822141401843,-9.893219576895262e-11,-1.9922480154477284e-06,0.01823822141401843,-5.1320068311655476e-06,-0.03304111255362252
40,0.018534,650.415,679.932,0.335329,-0.0224745,0.0216253,0.0268484,0.0183648,0.0183648,-0.0341696,-4.72988e-11,-1.29684e-06,-3.8321e-06,0.0297521,0.018534469999895498,-4.7298831518105544e-11,-1.2968391590595374e-06,0.018534469999895498,-3.8320926575297065e-06,-0.03359241198915697
41,0.018979,652.012,681.668,-0.636851,-0.0262238,-0.049985,-0.0935999,0.018801,0.018801,-0.0350375,-1.19294e-10,-2.30915e-06,-5.56272e-06,0.0305441,0.01897885164830071,-1.1929401910748538e-10,-2.309147333900974e-06,0.01897885164830071,-5.562704528117024e-06,-0.03443079326661036
42,0.019645,657.019,686.874,0.641158,-0.0133416,0.0338761,0.0650409,0.0194549,0.0194549,-0.0363231,-3.4371e-11,-1.1456e-06,-3.34696e-06,0.0317225,0.01964537981702863,-3.437095053016037e-11,-1.1455993438325152e-06,0.01964537981702863,-3.3469543989639305e-06,-0.03567133144998247
43,0.020645,662.831,692.973,1.04231,0.00557317,0.0463793,0.110047,0.020435,0.020435,-0.0382593,-1.42632e-11,-7.57709e-07,-2.20974e-06,0.0334952,0.02064522414746417,-1.4263146219661849e-11,-7.577087128840532e-07,0.02064522414746417,-2.209737558489522e-06,-0.037536658212451224
44,0.021645,666.462,696.87,-0.539801,-0.00666954,-0.0315583,-0.0786288,0.0214141,0.0214141,-0.0402063,-7.67322e-11,-1.89661e-06,-4.98602e-06,0.0352744,0.021645027260170036,-7.6732176168548e-11,-1.8966082014904018e-06,0.021645027260170036,-4.986007569818263e-06,-0.03940875126492949
45,0.022645,670.96,701.62,-1.04132,-0.0232308,-0.0573718,-0.138741,0.0223923,0.0223923,-0.0421462,-1.2531e-10,-2.50643e-06,-6.45327e-06,0.0370494,0.022644889378669486,-1.2530998461102172e-10,-2.506426858950306e-06,0.022644889378669486,-6.453249177695852e-06,-0.04127039594228221
46,0.023645,675.812,706.716,-0.995075,-0.0338731,-0.0548943,-0.131883,0.0233695,0.0233695,-0.0440817,-1.4332e-10,-2.74669e-06,-7.03909e-06,0.0388218,0.0236447063956029,-1.43320022516491e-10,-2.746686227905748e-06,0.0236447063956029,-7.039065225700192e-06,-0.04312422247158465
47,0.024645,682.447,713.592,1.02827,-0.00910173,0.0481678,0.110597,0.0243458,0.0243458,-0.046004,-2.98313e-11,-1.22071e-06,-3.43836e-06,0.0405868,0.024644578730717237,-2.9831248582468106e-11,-1.2207092549010312e-06,0.024644578730717237,-3.438354088891593e-06,-0.04496185796949381
48,0.025644,686.941,718.317,1.05061,0.00853524,0.0491256,0.112252,0.0253211,0.0253211,-0.0479366,-1.89457e-11,-9.72552e-07,-2.85417e-06,0.0423581,0.02564440207295271,-1.894573387062337e-11,-9.72551527089749e-07,0.02564440207295271,-2.8541659268244146e-06,-0.046805782324764844
49,0.026644,690.059,721.654,-0.167273,0.00165573,-0.0124085,-0.0327782,0.0262954,0.0262954,-0.0498753,5.92723e-11,-1.81194e-06,-4.84133e-06,0.0441328,0.02664417437388167,5.927236479408293e-11,-1.8119383584647153e-06,0.02664417437388167,-4.841318280823792e-06,-0.04865194979389176
50,0.027644,693.384,725.186,-1.03821,-0.016905,-0.058422,-0.137187,0.0272688,0.0272688,-0.0518109,-1.15428e-10,-2.67131e-06,-6.83412e-06,0.0459055,0.02764399634762693,-1.1542800049113566e-10,-2.671306432056042e-06,0.02764399634762693,-6.8340966474789155e-06,-0.05049159809388515
51,0.028644,699.549,731.558,1.08791,0.00345673,0.0523014,0.117296,0.0282413,0.0282413,-0.0537274,-1.93287e-11,-1.03472e-06,-3.06237e-06,0.0476668,0.02864386624200832,-1.9328649791816588e-11,-1.034719464665379e-06,0.02864386624200832,-3.0623653110017912e-06,-0.05230958830057042
52,0.029644,703.397,735.606,0.999346,0.0163759,0.0474405,0.105738,0.0292128,0.0292128,-0.0556551,1.62766e-11,-8.736e-07,-2.69002e-06,0.0494348,0.029643679338637874,1.627653567481957e-11,-8.735996184228156e-07,0.029643679338637874,-2.6900163818677214e-06,-0.05413469141638749
53,0.030644,706.221,738.625,-0.00604405,0.00955681,-0.0039336,-0.0141885,0.0301834,0.0301834,-0.057587,4.31273e-11,-1.55441e-06,-4.27141e-06,0.0512051,0.03064353664606112,4.312727952537898e-11,-1.5544087919039384e-06,0.03064353664606112,-4.271400877553511e-06,-0.05596024464511573
54,0.031643,708.901,741.484,-1.05384,-0.0113471,-0.0604567,-0.139365,0.031153,0.031153,-0.059518,-9.16656e-11,-2.54921e-06,-6.52077e-06,0.0529744,0.03164333324225521,-9.166556402817605e-11,-2.5492067508015026e-06,0.03164333324225521,-6.520748739857751e-06,-0.05778142649573337
55,0.032018,711.094,743.746,-0.222237,-0.0124687,-0.0218577,-0.0404293,0.0315164,0.0315164,-0.0602346,-6.1365e-11,-2.10419e-06,-5.35152e-06,0.0536334,0.032018300556990065,-6.136502417319889e-11,-2.10418778623378e-06,0.032018300556990065,-5.351505680595281e-06,-0.058456378461334
56,0.032581,712.945,745.698,-0.397594,-0.015639,-0.0319072,-0.0616576,0.0320612,0.0320612,-0.0613173,-7.17341e-11,-2.31561e-06,-5.78545e-06,0.0546265,0.03258069731009883,-7.1734063133988e-11,-2.3156073190033766e-06,0.03258069731009883,-5.785433264349216e-06,-0.05947523608227212
57,0.033424,717.199,750.1,0.883216,-0.000497671,0.0472038,0.0950836,0.0328779,0.0328779,-0.0629313,-2.04112e-11,-1.13949e-06,-3.43237e-06,0.05611,0.033424350424448246,-2.0411228263128578e-11,-1.1394893507654658e-06,0.033424350424448246,-3.4323641093791935e-06,-0.06099201867841253
58,0.033741,717.056,750.013,-0.369343,-0.00375985,-0.0347069,-0.0582049,0.0331839,0.0331839,-0.0635464,-6.25057e-11,-2.22023e-06,-5.44647e-06,0.0566722,0.03374062666347477,-6.250566730869878e-11,-2.2202275352656287e-06,0.03374062666347477,-5.446455167978925e-06,-0.06156942488823858
59,0.034215,718.586,751.625,-0.474996,-0.00871863,-0.0390938,-0.0714879,0.0336429,0.0336429,-0.0644585,-6.95284e-11,-2.36203e-06,-5.77538e-06,0.0575091,0.03421522252253051,-6.95283830509652e-11,-2.362027210378592e-06,0.03421522252253051,-5.775363322579885e-06,-0.06242497718186146
60,0.034927,722.115,755.272,0.64472,0.000227466,0.0363296,0.0664063,0.0343309,0.0343309,-0.0658184,-2.47376e-11,-1.29766e-06,-3.81835e-06,0.0587594,0.034927007421554634,-2.4737545345487888e-11,-1.2976591580171615e-06,0.034927007421554634,-3.818342710126821e-06,-0.06369911890636737
61,0.035995,726.14,759.473,1.12684,0.0163324,0.0538382,0.120339,0.035362,0.035362,-0.0678636,-1.00229e-11,-8.16998e-07,-2.53275e-06,0.060638,0.035994670998271916,-1.0022871421710988e-11,-8.169976662975031e-07,0.035994670998271916,-2.5327467926272718e-06,-0.06561208460285595
62,0.037596,730.335,763.925,0.165591,0.0112432,0.0053949,0.0083353,0.0369067,0.0369067,-0.0709383,-2.5364e-11,-1.40728e-06,-3.88749e-06,0.0634592,0.03759620859567425,-2.5364044198283864e-11,-1.4072790097685584e-06,0.03759620859567425,-3.887482443731827e-06,-0.06848063490064071
63,0.038197,732.479,766.16,0.42814,0.0128183,0.0243389,0.0391313,0.0374853,0.0374853,-0.0720866,-1.71048e-11,-1.10547e-06,-3.39079e-06,0.0645141,0.03819673547764113,-1.7104762051189937e-11,-1.105469388917868e-06,0.03819673547764113,-3.3907842512670427e-06,-0.06954968467518607
64,0.039098,734.688,768.505,-0.143204,0.0057649,-0.012392,-0.0310151,0.0383527,0.0383527,-0.0738137,-3.19109e-11,-1.62486e-06,-4.40569e-06,0.066099,0.03909765799960563,-3.191091835219595e-11,-1.6248586799383347e-06,0.03909765799960563,-4.405680294916614e-06,-0.07115527850512471
65,0.039435,736.033,769.901,0.177268,0.00562271,0.0094818,0.00766951,0.0386778,0.0386778,-0.0744579,-2.31195e-11,-1.33867e-06,-3.90782e-06,0.0666912,0.03943552356529323,-2.3119506309399185e-11,-1.3386691040118137e-06,0.03943552356529323,-3.90781236447868e-06,-0.07175344758376512
66,0.039942,737.176,771.12,-0.207238,0.00156921,-0.019819,-0.0393948,0.0391651,0.0391651,-0.0754289,4.2777e-11,-1.755e-06,-4.59307e-06,0.0675823,0.03994216392882555,4.277689313880728e-11,-1.754998460001822e-06,0.03994216392882555,-4.59305945188504e-06,-0.07265433753330774
67,0.040702,740.431,774.484,0.795692,0.0102925,0.044816,0.0837678,0.0398958,0.0398958,-0.0768754,-9.32125e-12,-7.91722e-07,-2.74959e-06,0.0689127,0.04070232735989543,-9.32121047014789e-12,-7.917216865438448e-07,0.04070232735989543,-2.7495862199300447e-06,-0.0739947733301527
68,0.041842,741.807,776.015,-1.16171,-0.0132321,-0.0628291,-0.149287,0.0409908,0.0409908,-0.0790639,-6.65278e-11,-2.46839e-06,-6.47138e-06,0.070919,0.04184252055019955,-6.652778328231079e-11,-2.4683869535024883e-06,0.04184252055019955,-6.471359060622461e-06,-0.07601911981960086
69,0.04227,743.85,778.119,-0.337417,-0.015154,-0.0304094,-0.0544158,0.0414011,0.0414011,-0.0798749,-4.70445e-11,-2.11935e-06,-5.38407e-06,0.0716655,0.042270076243433596,-4.704447942316392e-11,-2.119347754181433e-06,0.042270076243433596,-5.384055505874841e-06,-0.07676816453474
70,0.042911,745.685,780.044,-0.317294,-0.0170274,-0.0260532,-0.0513792,0.0420162,0.0420162,-0.081098,-4.77958e-11,-2.14089e-06,-5.4971e-06,0.0727891,0.04291137377816834,-4.7795767343927764e-11,-2.140887708335093e-06,0.04291137377816834,-5.497084890948578e-06,-0.07789667910892406
71,0.043873,749.468,783.958,0.792088,-0.00213793,0.0406753,0.0832182,0.0429382,0.0429382,-0.0829249,-1.5439e-11,-1.13065e-06,-3.43731e-06,0.0744696,0.04387338148219433,-1.5438983425042352e-11,-1.1306493608032042e-06,0.04387338148219433,-3.4373040924684517e-06,-0.07957973181325928
72,0.045316,751.716,786.391,-0.897705,-0.0186524,-0.0424705,-0.112254,0.0443196,0.0443196,-0.0856823,-6.25855e-11,-2.45083e-06,-6.63959e-06,0.0769997,0.045316384624174644,-6.258549234416932e-11,-2.450826996680533e-06,0.045316384624174644,-6.639567957988923e-06,-0.08211420277978365
73,0.045858,753.595,788.342,-0.459477,-0.0211398,-0.0370945,-0.0683841,0.0448371,0.0448371,-0.0867092,-5.87637e-11,-2.47203e-06,-6.25409e-06,0.077944,0.0458574758484962,-5.876366060419969e-11,-2.472026944588812e-06,0.0458574758484962,-6.254070443190152e-06,-0.08305629590444596
74,0.046669,756.401,791.256,0.213665,-0.0147054,0.00892088,0.0144189,0.0456129,0.0456129,-0.0882485,-3.60034e-11,-1.86817e-06,-5.15955e-06,0.0793597,0.046669166892504776,-3.60034224655692e-11,-1.8681682549814838e-06,0.046669166892504776,-5.159536689558486e-06,-0.08446666158173477
75,0.047887,759.293,794.306,-0.0405286,-0.0125231,-0.0042887,-0.0157704,0.0467755,0.0467755,-0.0905628,-4.25485e-11,-2.0751e-06,-5.63207e-06,0.081486,0.047886732099446494,-4.254852026264189e-11,-2.0750978469985526e-06,0.047886732099446494,-5.6320541399479396e-06,-0.0865830304859555
76,0.048343,760.692,795.763,0.198222,-0.00975885,0.0110298,0.0127188,0.0472111,0.0472111,-0.0914281,4.49362e-11,-1.86497e-06,-5.2479e-06,0.0822816,0.04834329099125645,4.493627692170321e-11,-1.8649682609339635e-06,0.04834329099125645,-5.247886229797771e-06,-0.08737306833050784
77,0.049028,762.112,797.268,-0.107712,-0.0102275,-0.0108995,-0.0248137,0.0478642,0.0478642,-0.0927293,-4.49514e-11,-2.17986e-06,-5.79842e-06,0.0834769,0.04902818762325323,-4.495137595483811e-11,-2.179857624073911e-06,0.04902818762325323,-5.7984031891500365e-06,-0.0885598062348747
78,0.050055,765.884,801.164,1.12157,0.00827478,0.0586981,0.12339,0.048843,0.048843,-0.0946695,1.66579e-11,-1.04481e-06,-3.36521e-06,0.0852627,0.05005547908772523,1.6658008306080774e-11,-1.0448094541759545e-06,0.05005547908772523,-3.365204337635319e-06,-0.09032646810593836
79,0.051596,767.256,802.704,-1.26388,-0.0184974,-0.0570805,-0.150775,0.0503094,0.0503094,-0.0976018,-7.67042e-11,-2.88649e-06,-7.86104e-06,0.0879533,0.051596409976661706,-7.670419854832744e-11,-2.8864858341304256e-06,0.051596409976661706,-7.861009102105854e-06,-0.09298999676246855
80,0.052174,769.229,804.746,-0.663025,-0.0231173,-0.0506955,-0.0919364,0.0508588,0.0508588,-0.0986917,-7.20603e-11,-2.93145e-06,-7.35243e-06,0.0889562,0.05217431578049081,-7.206024665862287e-11,-2.931445703291402e-06,0.05217431578049081,-7.3524029710059224e-06,-0.09397800845022442
81,0.053041,772.169,807.788,0.242427,-0.0154737,0.0107079,0.0191543,0.0516822,0.0516822,-0.100325,-4.10466e-11,-2.12295e-06,-5.87804e-06,0.0904596,0.05304103289057016,-4.1046610554928975e-11,-2.122947746596715e-06,0.05304103289057016,-5.878022724337129e-06,-0.0954566063433524
82,0.054341,774.678,810.442,-0.25787,-0.0160982,-0.0145545,-0.0390325,0.0529162,0.0529162,-0.102784,-5.55378e-11,-2.52931e-06,-6.83763e-06,0.0927193,0.05434128761732593,-5.553779658384883e-11,-2.5293068013354514e-06,0.05434128761732593,-6.83760662345545e-06,-0.09767814604587821
83,0.054829,776.401,812.219,0.35653,-0.0110766,0.0233247,0.0335337,0.0533785,0.0533785,-0.103701,-3.73473e-11,-2.00554e-06,-5.85027e-06,0.0935633,0.054828822279545664,-3.7347347436877953e-11,-2.0055379889027947e-06,0.054828822279545664,-5.8502528872406145e-06,-0.09850519592562945
84,0.05556,777.187,813.085,-0.511729,-0.0159968,-0.0366912,-0.0723975,0.0540716,0.0540716,-0.105086,-6.71053e-11,-2.87879e-06,-7.41999e-06,0.0948349,0.05556017755816156,-6.71053212997208e-11,-2.8787858562528967e-06,0.05556017755816156,-7.419962471888475e-06,-0.09975290199337217
85,0.056657,779.091,815.105,-1.05164,-0.0288519,-0.060491,-0.133996,0.0551103,0.0551103,-0.107157,-9.42245e-11,-3.45986e-06,-8.83827e-06,0.0967381,0.056657157532513436,-9.422451707763457e-11,-3.459854014731256e-06,0.056657157532513436,-8.83823094255387e-06,-0.10161538446705376
86,0.057754,781.521,817.648,-1.02232,-0.0374864,-0.0587067,-0.129727,0.056148,0.056148,-0.109223,-1.05386e-10,-3.70792e-06,-9.40031e-06,0.0986376,0.057754219777185645,-1.0538603323340112e-10,-3.7079131256501086e-06,0.057754219777185645,-9.400265817194331e-06,-0.10346953108977053
87,0.058851,783.818,820.058,-1.08509,-0.0445271,-0.0619007,-0.136324,0.0571846,0.0571846,-0.111288,-1.21221e-10,-4.03252e-06,-1.01288e-05,0.100536,0.05885125629720078,-1.2122103321132727e-10,-4.032511869422883e-06,0.05885125629720078,-1.0128748703874813e-05,-0.10531895631932353
88,0.059948,786.077,822.428,-1.14867,-0.0504398,-0.0651424,-0.142984,0.0582201,0.0582201,-0.11335,-1.38693e-10,-4.37134e-06,-1.08871e-05,0.102432,0.059948264651148664,-1.3869294601676074e-10,-4.371330445729349e-06,0.059948264651148664,-1.0887040735707565e-05,-0.10716188791592896
89,0.06036,788.6,824.992,0.520687,-0.0402358,0.0394746,0.0571786,0.0586081,0.0586081,-0.114113,-7.12807e-11,-2.9827e-06,-8.2554e-06,0.103137,0.06035960437257892,-7.128064805073109e-11,-2.9826955517675557e-06,0.06035960437257892,-8.255365924303426e-06,-0.10784286357020001
90,0.060977,790.062,826.516,0.701884,-0.0259127,0.0470601,0.0793725,0.0591899,0.0591899,-0.115271,-6.1593e-11,-2.76791e-06,-7.76437e-06,0.104202,0.06097670108642994,-6.159295296015443e-11,-2.7679061693763884e-06,0.06097670108642994,-7.764339857385671e-06,-0.10887538358971338
91,0.061902,791.031,827.58,-0.232653,-0.0235013,-0.015322,-0.03428,0.060062,0.060062,-0.117013,1.16714e-10,-3.62143e-06,-9.33968e-06,0.105802,0.06190238245213742,1.1671397182055898e-10,-3.621423442679017e-06,0.06190238245213742,-9.339636385274908e-06,-0.11042637136893019
92,0.062249,792.206,828.789,0.238061,-0.0195973,0.0176243,0.0223436,0.0603888,0.0603888,-0.117661,-7.67119e-11,-3.18013e-06,-8.58992e-06,0.106399,0.06224946886155314,-7.671185908719735e-11,-3.1801249433804912e-06,0.06224946886155314,-8.589883106702167e-06,-0.1110026283528559
93,0.06277,792.706,829.342,-0.316894,-0.0200708,-0.0255165,-0.0453666,0.0608788,0.0608788,-0.11864,-1.00597e-10,-3.78294e-06,-9.54765e-06,0.107299,0.06277009864517535,-1.0059697519437805e-10,-3.7829328446425947e-06,0.06277009864517535,-9.547604421289435e-06,-0.11187253089292593
94,0.063551,793.972,830.684,-0.617353,-0.0241198,-0.0416411,-0.0812571,0.0616134,0.0616134,-0.120105,-1.16505e-10,-4.12221e-06,-1.02717e-05,0.108645,0.06355109638498857,-1.1650502784732453e-10,-4.122201503697909e-06,0.06355109638498857,-1.0271647246318238e-05,-0.11317268503972
95,0.064723,798.031,834.857,1.1337,-0.00014549,0.0587811,0.127373,0.0627143,0.0627143,-0.122287,-4.85782e-11,-2.56956e-06,-6.99499e-06,0.110656,0.06472260452533418,-4.8578252531683574e-11,-2.5695566986394525e-06,0.06472260452533418,-6.994965535134234e-06,-0.11510563262822737
96,0.065894,798.087,835.019,-1.10189,-0.0181871,-0.0609737,-0.135969,0.0638139,0.0638139,-0.124491,-1.28096e-10,-4.38192e-06,-1.10094e-05,0.112679,0.06589401742605161,-1.2809597826901609e-10,-4.3819103994202635e-06,0.06589401742605161,-1.1009339396794715e-05,-0.11705379215350042
97,0.067066,802.516,839.559,1.09281,0.00334398,0.0569542,0.122797,0.0649124,0.0649124,-0.126666,-4.86422e-11,-2.61701e-06,-7.12168e-06,0.114684,0.06706554534809817,-4.8642201377901984e-11,-2.6170065756669914e-06,0.06706554534809817,-7.121654640895869e-06,-0.1189721132251631
98,0.067944,803.973,841.096,0.888574,0.0137824,0.0526449,0.1008,0.0657354,0.0657354,-0.128306,-4.50111e-11,-2.48551e-06,-7.02797e-06,0.116193,0.06794410176829713,-4.5011105953562947e-11,-2.4855069111762162e-06,0.06794410176829713,-7.027945303827998e-06,-0.12041581480060026
99,0.068823,804.738,841.95,0.0124075,0.00954685,-0.000197979,-0.00566677,0.0665578,0.0665578,-0.12995,-6.79776e-11,-3.1785e-06,-8.40528e-06,0.117703,0.0688227402442112,-6.797762353016878e-11,-3.178494948574695e-06,0.0688227402442112,-8.405244675713242e-06,-0.12186066321025502
