,Time,S11,S22,S33,S12,S13,S23,LE11,LE22,LE33,LE12,LE13,LE23,SDV_EPBAR,E11,E12,E13,E22,E23,E33
0,1e-05,1.03873,5.55112e-17,0.0,-8.45993e-18,4.22997e-18,-3.13508e-39,4.99999e-06,-1.5e-06,-1.5e-06,0.0,0.0,0.0,0.0,5.000002500032963e-06,0.0,0.0,-1.4999988749986315e-06,0.0,-1.4999988749986315e-06
1,2e-05,2.07745,-5.55112e-17,5.55112e-17,5.49898e-23,-2.74949e-23,-3.13508e-39,9.99995e-06,-2.99999e-06,-2.99999e-06,0.0,0.0,0.0,0.0,9.999999999621423e-06,0.0,0.0,-2.999985500018454e-06,0.0,-2.999985500018454e-06
2,3.5e-05,3.63552,1.11022e-16,1.66533e-16,-1.69198e-17,-8.45993e-18,-8.45999e-18,1.74998e-05,-5.24995e-06,-5.24995e-06,0.0,0.0,0.0,0.0,1.749995312239072e-05,0.0,0.0,-5.2499362190872034e-06,0.0,-5.2499362190872034e-06
3,5.75e-05,5.97261,7.21645e-16,8.32667e-16,-8.45964e-18,-8.45981e-18,-2.538e-17,2.87496e-05,-8.62488e-06,-8.62488e-06,0.0,0.0,0.0,0.0,2.875001327362625e-05,0.0,0.0,-8.624842805837751e-06,0.0,-8.624842805837751e-06
4,9.125e-05,9.4782,-1.4988e-15,-1.38778e-15,-8.45946e-18,8.45998e-18,8.45999e-18,4.5624e-05,-1.36872e-05,-1.36872e-05,0.0,0.0,0.0,0.0,4.56250407905312e-05,0.0,0.0,-1.3687106330650955e-05,0.0,-1.3687106330650955e-05
5,0.00014188,14.7365,-8.04912e-15,-8.04912e-15,8.46024e-18,-4.22985e-17,8.45999e-18,7.0935e-05,-2.12805e-05,-2.12805e-05,0.0,0.0,0.0,0.0,7.093751594666742e-05,0.0,0.0,-2.1280273571733233e-05,0.0,-2.1280273571733233e-05
6,0.00021781,22.6236,-4.93494e-14,-4.93494e-14,-2.53785e-17,-4.22965e-17,-5.92199e-17,0.0001089,-3.26701e-05,-3.26701e-05,0.0,0.0,0.0,0.0,0.00010890592982026881,0.0,0.0,-3.266956633807272e-05,0.0,-3.266956633807272e-05
7,0.00033172,34.4538,-2.48745e-13,-2.48301e-13,-2.53766e-17,-4.22933e-17,-5.92199e-17,0.000165846,-4.97537e-05,-4.97537e-05,0.0,0.0,0.0,0.0,0.00016585975320815294,0.0,0.0,-4.9752462305208134e-05,0.0,-4.9752462305208134e-05
8,0.00050258,52.1977,-1.27326e-12,-1.27237e-12,-2.53738e-17,-4.22886e-17,2.115e-16,0.000251258,-7.53772e-05,-7.53772e-05,0.0,0.0,0.0,0.0,0.00025128956793518675,0.0,0.0,-7.537435921023405e-05,0.0,-7.537435921023405e-05
9,0.00075887,78.8109,-6.47266e-12,-6.47177e-12,-2.53695e-17,-4.22816e-17,-5.92199e-17,0.000379362,-0.000113808,-0.000113808,0.0,0.0,0.0,0.0,0.0003794339668636848,0.0,0.0,-0.00011380152411522015,0.0,-0.00011380152411522015
10,0.0011433,118.724,-3.2753e-11,-3.27547e-11,-2.53632e-17,2.28381e-16,-1.9458e-16,0.000571487,-0.000171446,-0.000171446,0.0,0.0,0.0,0.0,0.0005716503298076603,0.0,0.0,-0.00017143130397445638,0.0,-0.00017143130397445638
11,0.00172,178.58,-1.65601e-10,-1.65601e-10,-2.53537e-17,2.28295e-16,-1.9458e-16,0.000859606,-0.000257882,-0.000257882,0.0,0.0,0.0,0.0,0.0008599755671241383,0.0,0.0,-0.0002578487512951977,0.0,-0.0002578487512951977
12,0.0025849,268.331,-8.37562e-10,-8.37555e-10,-2.53394e-17,2.28167e-16,3.46859e-16,0.00129163,-0.000387489,-0.000387489,0.0,0.0,0.0,0.0,0.0012924645132839085,0.0,0.0,-0.00038741393583330286,0.0,-0.00038741393583330286
13,0.0035849,372.044,-1.84633e-09,-1.84633e-09,-2.5323e-17,7.69107e-16,-1.9458e-16,0.00179086,-0.000537258,-0.000537258,0.0,0.0,0.0,0.0,0.0017924645474667322,0.0,0.0,-0.0005371137027634365,0.0,-0.0005371137027634365
14,0.0045849,474.824,-0.000543545,-0.000429863,4.75788e-05,-4.3333e-05,-0.000148258,0.00228984,-0.000687576,-0.000688026,5.96737e-10,-5.43583e-10,-1.8593e-09,4.21926e-06,0.0022924636858374647,5.967371041748493e-10,-5.435829564248706e-10,-0.0006873396737893112,-1.8593000472577614e-09,-0.0006877893643852939
15,0.0055849,486.754,-0.402874,-0.167027,0.0265565,-0.100214,-0.0210475,0.00278857,-0.000903609,-0.000948905,4.82029e-07,-1.4245e-06,-3.58768e-07,0.000442678,0.002792461677887159,4.820291161777845e-07,-1.4244989854361734e-06,-0.0009032008683272919,-3.5876793569311616e-07,-0.000948454932019005
16,0.0065849,498.022,0.135293,0.0107737,-0.00631067,0.0487026,-0.0238629,0.00328706,-0.00111626,-0.0012116,2.34762e-08,6.38934e-07,-4.94846e-07,0.000885906,0.0032924683059070148,2.347620031706299e-08,6.389342042112389e-07,-0.0011156372135583403,-4.948458776077302e-07,-0.0012108663090631966
17,0.0075849,507.769,-0.172359,-0.0947356,0.0135159,-0.0360784,-0.0245757,0.00378529,-0.00133312,-0.00147502,3.4074e-07,-4.34998e-07,-6.0678e-07,0.00133455,0.003792463258290635,3.407400579469311e-07,-4.349979053630548e-07,-0.0013322317902733083,-6.067798159481441e-07,-0.0014739326926654917
18,0.0085849,517.036,0.0751178,0.00662825,-0.00483567,0.0274666,-0.0111748,0.00428328,-0.00154811,-0.00173944,7.58178e-08,5.01371e-07,-5.06743e-07,0.00178635,0.0042924663550065745,7.581780292476026e-08,5.013711257273457e-07,-0.0015469122958529091,-5.067428715532785e-07,-0.001737928051018467
19,0.0095849,525.333,-0.115725,-0.0518835,0.00731352,-0.0277641,-0.00707022,0.00478102,-0.00176537,-0.00200441,2.61535e-07,-1.85009e-07,-5.12674e-07,0.00224169,0.00479246731212557,2.615350342960454e-07,-1.8500898291140544e-07,-0.0017638126509488261,-5.126738685801158e-07,-0.0020024025117764133
20,0.010585,533.251,0.0488302,0.00214917,-0.00347736,0.0182024,-0.00755975,0.00527851,-0.00198139,-0.00227018,1.00061e-07,5.04165e-07,-5.76216e-07,0.00269926,0.005292465878519614,1.0006100503723303e-07,5.04165127201972e-07,-0.0019794283426506354,-5.762158339361889e-07,-0.0022676050902552536
21,0.011585,540.488,-0.0738427,-0.0313123,0.00417499,-0.0187776,-0.00208446,0.00577575,-0.00219892,-0.00253623,2.11488e-07,6.52063e-08,-5.51311e-07,0.00315932,0.005792461802937909,2.114880224279858e-07,6.520630213557865e-08,-0.0021965041464974133,-5.513108479737738e-07,-0.002533016486004458
22,0.012585,547.415,0.0315475,0.000707169,-0.00257421,0.0114553,-0.00408537,0.00627275,-0.00241564,-0.00280286,1.06044e-07,5.37525e-07,-6.23956e-07,0.00362103,0.006292464896930694,1.0604400557667759e-07,5.375251443950901e-07,-0.0024127246896145094,-6.239558053566796e-07,-0.002798935655229373
23,0.013585,553.844,-0.0460419,-0.0191867,0.00234189,-0.012549,0.000195281,0.0067695,-0.00263335,-0.00306969,1.72825e-07,2.73165e-07,-6.07208e-07,0.00408455,0.00679246485607643,1.7282501496573843e-07,2.7316503725671737e-07,-0.0026298857753945803,-6.07207815694899e-07,-0.003064983318900927
24,0.014585,560.012,0.0202419,0.000312945,-0.00189618,0.00666638,-0.00139887,0.007266,-0.00285055,-0.00333691,1.02579e-07,5.93148e-07,-6.67062e-07,0.00454935,0.007292461428755503,1.025790052899822e-07,5.931481759091639e-07,-0.002846491040020882,-6.6706177748177e-07,-0.0033313487033944655
25,0.015585,565.803,-0.0278588,-0.0115175,0.00124167,-0.00854377,0.0015645,0.00776226,-0.00306837,-0.00360429,1.40925e-07,4.45783e-07,-6.62366e-07,0.00501548,0.007792464441150004,1.4092500988382994e-07,4.457830993231937e-07,-0.003063667363810474,-6.623657806681393e-07,-0.003597802343603518
26,0.016585,571.369,0.0132177,0.000408867,-0.00138167,0.00338044,0.000543472,0.00825827,-0.00328588,-0.00387193,9.35501e-08,6.64182e-07,-7.09311e-07,0.00548262,0.008292463573471132,9.355010432976485e-08,6.641822205555314e-07,-0.003280487404403787,-7.093107484701378e-07,-0.0038644437442404422
27,0.017585,576.644,-0.0160246,-0.00650483,0.000595954,-0.00608434,0.00252325,0.00875403,-0.00350377,-0.00413969,1.13753e-07,5.92135e-07,-7.13599e-07,0.00595078,0.008792458573732453,1.1375300656979448e-07,5.921351753368498e-07,-0.0034976389605678726,-7.13598745427646e-07,-0.004131133294793088
28,0.018585,581.723,0.00910368,0.000776502,-0.000993519,0.00115943,0.00194038,0.00924955,-0.00372148,-0.00440764,8.12034e-08,7.44514e-07,-7.50761e-07,0.00641973,0.009292459282749688,8.120340333483966e-08,7.445142771178581e-07,-0.0037145638753712795,-7.507607181489462e-07,-0.0043979406105202346
29,0.019585,586.569,-0.00833523,-0.00315806,0.000239992,-0.00464955,0.0032516,0.00974483,-0.00393941,-0.00467566,9.00631e-08,7.19409e-07,-7.60743e-07,0.00688947,0.009792465463292821,9.00631040856581e-08,7.194092588314049e-07,-0.003931660703650808,-7.60742710603779e-07,-0.00466474611827461
30,0.020585,591.244,0.00686897,0.00128122,-0.000697745,-0.000342369,0.00295836,0.0102399,-0.00415721,-0.00494381,6.70266e-08,8.2955e-07,-7.90988e-07,0.00735985,0.010292507186784539,6.702660226842738e-08,8.295503439725849e-07,-0.004148580764497423,-7.909876871270427e-07,-0.004931609485297916
31,0.021585,595.73,-0.00332779,-0.000879634,6.84095e-05,-0.00387379,0.00382961,0.0107346,-0.00437515,-0.00521201,6.89965e-08,8.32789e-07,-8.04249e-07,0.00783084,0.010792422533955737,6.899650228930909e-08,8.327893468162983e-07,-0.004365592974126198,-8.042486765447165e-07,-0.005198451042581653
32,0.022585,600.065,0.00579258,0.00183246,-0.00046582,-0.00137325,0.00371413,0.0112292,-0.00459301,-0.00548029,5.20219e-08,9.1614e-07,-8.29679e-07,0.00830235,0.011292484121177448,5.202190145325858e-08,9.161404197488565e-07,-0.004582478259868794,-8.296786557782099e-07,-0.005465300605335122
33,0.023585,604.243,-4.34812e-05,0.000704546,1.25384e-05,-0.00351102,0.00429962,0.0117235,-0.00481094,-0.0057486,4.99593e-08,9.35881e-07,-8.44621e-07,0.00877434,0.011792489562242547,4.995930114048974e-08,9.358814379023528e-07,-0.0047993859641751735,-8.446206433143644e-07,-0.005732108415327342
34,0.024585,608.287,0.00539643,0.00237366,-0.000276348,-0.00210224,0.00428656,0.0122175,-0.0050288,-0.00601696,3.68489e-08,1.00226e-06,-8.66682e-07,0.00924675,0.012292438529314165,3.684890059751922e-08,1.002260502369623e-06,-0.005016176754070845,-8.66681624467347e-07,-0.005998894347775452
35,0.025585,612.198,0.00213839,0.00183196,2.78112e-05,-0.00340044,0.00468727,0.0127113,-0.00524668,-0.00628533,3.25453e-08,1.03114e-06,-8.82301e-07,0.00971954,0.012792431973681628,3.254530045460058e-08,1.031140531626562e-06,-0.005232940214410786,-8.823006107938625e-07,-0.006265618632500303
36,0.026585,615.992,0.005377,0.0028737,-0.000114556,-0.00264027,0.00472886,0.0132049,-0.00546452,-0.00655372,2.19268e-08,1.08667e-06,-9.01955e-07,0.0101927,0.013292469717266275,2.1926800153337922e-08,1.0866705904000185e-06,-0.0054496166694580905,-9.019545932353878e-07,-0.0065322912153875645
37,0.027585,619.669,0.00361503,0.00265432,8.56313e-05,-0.00343944,0.00500986,0.0136982,-0.00568234,-0.00682211,1.64804e-08,1.12024e-06,-9.17647e-07,0.0106661,0.01379245020262565,1.648040015567176e-08,1.1202406273724819e-06,-0.005666226042171929,-9.176465789462185e-07,-0.006798892235624021
38,0.028585,623.243,0.00554908,0.00331869,2.91474e-05,-0.00305817,0.00507715,0.0141913,-0.00590012,-0.00709049,7.51084e-09,1.1687e-06,-9.35526e-07,0.0111398,0.014292474530686938,7.510839949986803e-09,1.1687006828964286e-06,-0.005882748473481136,-9.355255623511027e-07,-0.007065411783067965
39,0.029585,626.715,0.00463832,0.00326913,0.000167888,-0.00356395,0.00527996,0.0146841,-0.00611787,-0.00735886,1.57985e-09,1.2043e-06,-9.50943e-07,0.0116137,0.014792441043766313,1.5798500285768569e-09,1.2043007251438809e-06,-0.006099193938645886,-9.509425478171352e-07,-0.007331849884911978
40,0.030585,630.095,0.00580426,0.00370532,0.000160692,-0.00340013,0.00535622,0.0151767,-0.00633558,-0.00762721,-6.25265e-09,1.24799e-06,-9.67463e-07,0.0120878,0.015292450942551827,-6.252649953353284e-09,1.2479907787188438e-06,-0.006315552530564372,-9.674625319755492e-07,-0.007598196644320487
41,0.031585,633.385,0.00536703,0.00373955,0.00026326,-0.00373475,0.00550723,0.0156691,-0.00655324,-0.00789553,-1.22832e-08,1.2841e-06,-9.82419e-07,0.0125621,0.015792504048367073,-1.228320001267491e-08,1.2841008245612073e-06,-0.00653181435077288,-9.824185174256428e-07,-0.007864442175099184
42,0.032585,636.592,0.00608209,0.00403614,0.000283598,-0.00369323,0.00558334,0.0161612,-0.00677086,-0.00816382,-1.92872e-08,1.32441e-06,-9.97855e-07,0.0130366,0.016292498553167167,-1.9287199837236813e-08,1.3244108769683294e-06,-0.006747989374476404,-9.978545021382956e-07,-0.008130586520378347
43,0.033585,639.719,0.00590104,0.004107,0.000364762,-0.00392832,0.00569928,0.016653,-0.00698842,-0.00843208,-2.51985e-08,1.36019e-06,-1.01226e-06,0.0135112,0.016792434128036993,-2.5198499731260426e-08,1.3601909250038346e-06,-0.0069640577771349355,-1.012259487676026e-06,-0.008396629723268156
44,0.034585,642.772,0.00635101,0.00431653,0.000399882,-0.00395384,0.00577068,0.0171447,-0.00720593,-0.00870029,-3.15606e-08,1.39797e-06,-1.0268e-06,0.013986,0.017292513902434914,-3.156059946718415e-08,1.3979709772016236e-06,-0.007180029536067778,-1.0267994728918595e-06,-0.008662552000109014
45,0.035585,645.752,0.00630333,0.00439908,0.000468142,-0.00413084,0.00586225,0.017636,-0.00742338,-0.00896845,-3.72334e-08,1.43295e-06,-1.04062e-06,0.0144608,0.017792432509465383,-3.723339925265634e-08,1.4329510267252488e-06,-0.007395894767847189,-1.0406194586032314e-06,-0.008928353409918821
46,0.036585,648.665,0.00659627,0.0045528,0.00051067,-0.00419178,0.00592699,0.0181272,-0.00764077,-0.00923656,-4.30674e-08,1.46873e-06,-1.05438e-06,0.0149357,0.018292494957596883,-4.306739909143431e-08,1.4687310785355123e-06,-0.007611653521536144,-1.0543794440875942e-06,-0.009194034011681507
47,0.037585,651.513,0.006614,0.00463456,0.000570853,-0.0043344,0.00600107,0.0186181,-0.00785811,-0.00950462,-4.84408e-08,1.50269e-06,-1.06762e-06,0.0154107,0.0187924974589444,-4.84407988166069e-08,1.5026911290849654e-06,-0.007827315767894527,-1.0676194300840436e-06,-0.009459593864347138
48,0.038585,654.299,0.00681247,0.00475124,0.000616583,-0.00441292,0.00605866,0.0191087,-0.00807538,-0.00977262,-5.38185e-08,1.53679e-06,-1.0807e-06,0.0158858,0.019292439683998186,-5.3818498546576166e-08,1.5367911807562251e-06,-0.008042861710316318,-1.0806994160672545e-06,-0.009725023124081966
49,0.039585,657.026,0.0068589,0.00482651,0.000671406,-0.00453463,0.00611979,0.0195991,-0.00829258,-0.0100406,-5.88654e-08,1.56963e-06,-1.09337e-06,0.0163609,0.01979242328237718,-5.8865398222529564e-08,1.5696312318791428e-06,-0.00825829140424117,-1.0933694022385865e-06,-0.009990361458113939
50,0.040585,659.697,0.00699915,0.00491762,0.000717977,-0.00462082,0.00617045,0.0200893,-0.00850972,-0.0103084,-6.38339e-08,1.60228e-06,-1.10584e-06,0.016836,0.020292448074334057,-6.383389794528682e-08,1.6022812836524736e-06,-0.008473614820336262,-1.1058393885043927e-06,-0.010255450542302813
51,0.041585,662.314,0.00705507,0.00498427,0.000768959,-0.00472921,0.00622168,0.0205793,-0.00872678,-0.0105762,-6.85461e-08,1.63398e-06,-1.11798e-06,0.0173111,0.020792513880007357,-6.854609768680575e-08,1.6339813349031118e-06,-0.008688812181288919,-1.1179793750759615e-06,-0.01052046864513978
52,0.042585,664.879,0.00715819,0.00505697,0.000815072,-0.00481769,0.00626597,0.0210689,-0.00894378,-0.010844,-7.31386e-08,1.66532e-06,-1.12989e-06,0.0177863,0.021292416260919822,-7.313859728963479e-08,1.6653213865680527e-06,-0.008903903370807487,-1.1298893616285e-06,-0.01078541578563108
53,0.043585,667.395,0.00721404,0.00511468,0.000863069,-0.00491704,0.00630941,0.0215584,-0.00916071,-0.0111116,-7.75185e-08,1.69589e-06,-1.14151e-06,0.0182614,0.021792461274712016,-7.751849695480928e-08,1.695891437947239e-06,-0.009118878528925678,-1.1415093484901107e-06,-0.01105009419281644
54,0.044585,669.864,0.00729247,0.00517359,0.00090803,-0.00500495,0.00634803,0.0220476,-0.00937756,-0.0113792,-8.176e-08,1.72603e-06,-1.1529e-06,0.0187366,0.02229244443267686,-8.175999666182321e-08,1.7260314895128914e-06,-0.00933372780424202,-1.1528993354437134e-06,-0.01131470178153604
55,0.045585,672.286,0.00734385,0.00522287,0.000953533,-0.0050977,0.00638517,0.0225366,-0.00959434,-0.0116467,-8.58156e-08,1.75551e-06,-1.16404e-06,0.0192117,0.02279246768372567,-8.58155962957241e-08,1.7555115408018906e-06,-0.009548461162938948,-1.1640393224876533e-06,-0.011579139728657206
56,0.046585,674.665,0.00740505,0.00527109,0.000996994,-0.00518358,0.0064188,0.0230253,-0.00981105,-0.0119142,-8.97261e-08,1.78452e-06,-1.17496e-06,0.0196868,0.023292428518162156,-8.972609599755543e-08,1.7845215922740465e-06,-0.00976307866020154,-1.174959309735435e-06,-0.011843506948087779
57,0.047585,677.002,0.00745028,0.00531277,0.0010403,-0.00527114,0.00645077,0.0235138,-0.0100277,-0.0121815,-9.34683e-08,1.81296e-06,-1.18564e-06,0.0201618,0.02379242898466427,-9.34682956588162e-08,1.8129616434769957e-06,-0.009977590251402657,-1.1856392970743812e-06,-0.01210760588028581
58,0.048585,679.299,0.00749888,0.00535247,0.0010821,-0.0053543,0.00648005,0.0240021,-0.0102442,-0.0124488,-9.7065e-08,1.84092e-06,-1.19611e-06,0.0206368,0.02429246890254766,-9.706499526362933e-08,1.840921694418185e-06,-0.010191906902498604,-1.1961092846179966e-06,-0.012371634228273254
59,0.049585,681.556,0.00753761,0.00538748,0.00112339,-0.00543753,0.00650768,0.0244901,-0.0104607,-0.012716,-1.00506e-07,1.86836e-06,-1.20637e-06,0.0211118,0.024792445611766967,-1.0050599497102297e-07,1.8683617453163492e-06,-0.010406177159062002,-1.2063692723662811e-06,-0.012635493274469
60,0.050585,683.775,0.00757661,0.00542023,0.00116349,-0.0055177,0.00653317,0.0249779,-0.0106771,-0.0129831,-1.03804e-07,1.89533e-06,-1.21642e-06,0.0215867,0.025292461310650438,-1.0380399462217582e-07,1.8953317961756255e-06,-0.01062030209317133,-1.2164192602082124e-06,-0.012899183116869217
61,0.051585,685.958,0.00760914,0.00544943,0.00120291,-0.00559713,0.00655713,0.0254654,-0.0108934,-0.0132501,-1.06956e-07,1.9218e-06,-1.22627e-06,0.0220615,0.025792413238920453,-1.0695599428345304e-07,1.9218018465494424e-06,-0.010834281779091293,-1.226269248144618e-06,-0.013162703853393243
62,0.052585,688.106,0.00764053,0.00547642,0.00124131,-0.00567424,0.00657933,0.0259528,-0.0111096,-0.013517,-1.0997e-07,1.94783e-06,-1.23592e-06,0.0225363,0.026292506323917886,-1.0996999399992546e-07,1.947831897108898e-06,-0.011048116291026977,-1.2359192362865201e-06,-0.013426055581883256
63,0.053585,690.22,0.00766742,0.00550062,0.00127896,-0.00575024,0.00660014,0.0264398,-0.0113258,-0.0137838,-1.12845e-07,1.97339e-06,-1.24539e-06,0.023011,0.026792432496640206,-1.1284499368269252e-07,1.9733919471853767e-06,-0.01126190457693832,-1.2453892245245513e-06,-0.01368923840010483
64,0.054585,692.304,0.0144961,0.00541988,0.00128272,-0.00371224,0.00515562,0.0269267,-0.0115417,-0.0140507,-1.25737e-07,2.18915e-06,-1.40801e-06,0.0234856,0.027292499463446473,-1.257369920404372e-07,2.189152396248062e-06,-0.011475350089467984,-1.4080090087187358e-06,-0.013952449615276752
65,0.055585,694.349,0.00460406,0.00528371,0.00192684,-0.00784123,0.00742469,0.0274133,-0.0117575,-0.0143174,-1.28255e-07,2.31856e-06,-1.51877e-06,0.0239602,0.027792501634347655,-1.2825499173807486e-07,2.3185626878419185e-06,-0.011688650692955771,-1.5187688466866689e-06,-0.014215393431847745
66,0.056585,696.37,0.0104235,0.00590749,0.00184222,-0.00629606,0.00672176,0.0278996,-0.0119732,-0.0145841,-1.4046e-07,2.52052e-06,-1.66698e-06,0.0244346,0.028292438677732124,-1.4045999008338583e-07,2.520523176618994e-06,-0.011901806461325326,-1.6669786105927287e-06,-0.014478267130653588
67,0.057585,698.357,0.0058946,0.00528964,0.0023421,-0.00831422,0.00741946,0.0283857,-0.0121889,-0.0148506,-1.43566e-07,2.67274e-06,-1.79532e-06,0.024909,0.028792413141121687,-1.4356598965203915e-07,2.6727435717965875e-06,-0.012114916256953823,-1.7953183883978596e-06,-0.014740873678586563
68,0.058585,700.319,0.00906981,0.00582698,0.00235862,-0.00770779,0.00724239,0.0288716,-0.0124045,-0.0151171,-1.52869e-07,2.85763e-06,-1.93392e-06,0.0253833,0.02929242484267225,-1.52868988356758e-07,2.8576340829200575e-06,-0.012327881322549805,-1.9339181299704578e-06,-0.015003410251199112
69,0.059585,702.249,0.00679552,0.00542763,0.0027272,-0.00891902,0.00758847,0.0293573,-0.01262,-0.0153835,-1.56503e-07,3.0162e-06,-2.06434e-06,0.0258574,0.029792473600428693,-1.5650298779146254e-07,3.0162045487891476e-06,-0.012540701731902137,-2.064337869200905e-06,-0.015265778393719898
70,0.060585,704.155,0.00843543,0.00574611,0.00282561,-0.00881763,0.00758837,0.0298427,-0.0128354,-0.0156497,-1.63329e-07,3.19013e-06,-2.1981e-06,0.0263315,0.030292456203075302,-1.6332898666870932e-07,3.1901350885377155e-06,-0.012753377558740175,-2.1980975841717765e-06,-0.015527879756272345
71,0.061585,706.033,0.00728508,0.00553116,0.0031114,-0.00963291,0.00781343,0.0303279,-0.0130507,-0.0159159,-1.66873e-07,3.34982e-06,-2.32766e-06,0.0268054,0.030792475397672048,-1.6687298609596724e-07,3.34982561067676e-06,-0.012965908876734433,-2.327657291023577e-06,-0.015789911356727915
72,0.062585,707.887,0.00812104,0.00570235,0.00325369,-0.00978229,0.00787891,0.0308128,-0.0132659,-0.0161819,-1.71841e-07,3.51635e-06,-2.45816e-06,0.0272793,0.031292427872673834,-1.718409852191627e-07,3.516356182453606e-06,-0.013178295759495917,-2.4581569787462954e-06,-0.01605167642400962
73,0.063585,709.715,0.00754252,0.00559394,0.00349064,-0.0103911,0.00804984,0.0312975,-0.0134811,-0.0164479,-1.74876e-07,3.6748e-06,-2.58609e-06,0.027753,0.03179241647491282,-1.748759846931236e-07,3.6748067520075978e-06,-0.013390636941517764,-2.586086656042319e-06,-0.016313371871043314
74,0.064585,711.519,0.00796587,0.00568318,0.0036523,-0.0106608,0.00814178,0.031782,-0.0136962,-0.0167138,-1.78397e-07,3.83582e-06,-2.71392e-06,0.0282266,0.03229244102186013,-1.7839698407406956e-07,3.83582735685728e-06,-0.013602833792922153,-2.713916317342857e-06,-0.01657489937384038
75,0.065585,713.299,0.00767695,0.00563031,0.00385995,-0.0111583,0.0082844,0.0322663,-0.0139111,-0.0169795,-1.80704e-07,3.99193e-06,-2.83997e-06,0.0287001,0.032792501330876966,-1.8070398366543117e-07,3.99193796774e-06,-0.013814787768669623,-2.8399659672828648e-06,-0.016836160712970893
76,0.066585,715.057,0.00789002,0.00567631,0.00402772,-0.0114824,0.00838649,0.0327503,-0.014126,-0.0172452,-1.83025e-07,4.14847e-06,-2.96544e-06,0.0291735,0.033292493889959696,-1.830249832801556e-07,4.148478604859562e-06,-0.014026696200401645,-2.9654356030750506e-06,-0.01709735264418477
77,0.067585,716.793,0.00774646,0.00565101,0.00421668,-0.0119173,0.00851265,0.033234,-0.0143408,-0.0175107,-1.8451e-07,4.30172e-06,-3.08952e-06,0.0296467,0.033792418366241916,-1.8450998295893584e-07,4.30172925236505e-06,-0.01423846052175548,-3.0895152274279525e-06,-0.01735827865759676
78,0.068585,718.507,0.00785271,0.00567445,0.00438388,-0.0122626,0.00861739,0.0337176,-0.0145556,-0.0177762,-1.85778e-07,4.45437e-06,-3.21282e-06,0.0301198,0.03429248128523188,-1.8577798277519264e-07,4.454379920693086e-06,-0.014450179361018,-3.212814838948752e-06,-0.017619135404347674
79,0.069585,720.199,0.00778128,0.00566229,0.00455982,-0.0126599,0.00873301,0.0342009,-0.0147702,-0.0180415,-1.86412e-07,4.60457e-06,-3.33494e-06,0.0305928,0.03479247565534416,-1.864119826278099e-07,4.604580601030861e-06,-0.014661655660308637,-3.334934439047643e-06,-0.017879726478790436
80,0.070585,721.872,0.00783328,0.00567384,0.00472323,-0.0130099,0.00883685,0.034684,-0.0149847,-0.0183068,-1.86724e-07,4.75367e-06,-3.45618e-06,0.0310656,0.03529250467261735,-1.8672398260921597e-07,4.753681298597101e-06,-0.014872988068958426,-3.456174027416381e-06,-0.0181402484275911
81,0.071585,723.524,0.00779709,0.0056676,0.00488927,-0.0133827,0.00894504,0.0351668,-0.0151992,-0.0185719,-1.86511e-07,4.90077e-06,-3.57636e-06,0.0315383,0.03579246457448204,-1.8651098265820565e-07,4.9007820088764475e-06,-0.01508427515166788,-3.5763536048172284e-06,-0.018400504949206753
82,0.072585,725.157,0.00782138,0.00567268,0.00504747,-0.0137294,0.00904636,0.0356494,-0.0154135,-0.0188369,-1.85933e-07,5.04655e-06,-3.69564e-06,0.0320109,0.03629245865675368,-1.859329826769951e-07,5.046562733923565e-06,-0.015295319977242094,-3.6956331711524015e-06,-0.01866059435202727
83,0.073585,726.771,0.00780202,0.00566883,0.00520536,-0.0140846,0.00914882,0.0361318,-0.0156278,-0.0191019,-1.84894e-07,5.19058e-06,-3.81393e-06,0.0324833,0.03679248673588553,-1.848939829018903e-07,5.1905934710383406e-06,-0.01550631958075599,-3.8139227269695652e-06,-0.01892061484028762
84,0.074585,728.366,0.00781198,0.00567023,0.00535782,-0.0144243,0.00924691,0.0366139,-0.015842,-0.0193667,-1.83477e-07,5.33321e-06,-3.93132e-06,0.0329556,0.037292444898972876,-1.8347698316212302e-07,5.333224221582e-06,-0.015717175543621953,-3.9313122723871885e-06,-0.019180370268341407
85,0.075585,729.944,0.00780032,0.00566706,0.0055086,-0.0147655,0.00934462,0.0370958,-0.0160561,-0.0196314,-1.81639e-07,5.47423e-06,-4.04778e-06,0.0334277,0.037792436591491896,-1.816389835207488e-07,5.4742449835387674e-06,-0.015927887938771312,-4.047771807735856e-06,-0.019439958866264817
86,0.076585,731.503,0.00780268,0.00566621,0.00565524,-0.0150967,0.00943927,0.0375775,-0.0162701,-0.019896,-1.79426e-07,5.61384e-06,-4.16335e-06,0.0338997,0.038292461629559904,-1.7942598384834696e-07,5.613855757591324e-06,-0.016138456839076443,-4.163341333240922e-06,-0.019699380730122562
87,0.077585,733.046,0.00779427,0.00566295,0.00579961,-0.0154262,0.00953284,0.0380589,-0.016484,-0.0201605,-1.7682e-07,5.75193e-06,-4.27802e-06,0.0343715,0.038792415949937986,-1.7681998432106383e-07,5.751946542398301e-06,-0.01634888231735132,-4.278010849234626e-06,-0.019958635955904414
88,0.078585,734.571,0.00779242,0.0056606,0.00594054,-0.0157483,0.00962404,0.0385402,-0.0166978,-0.0204249,-1.73846e-07,5.88862e-06,-4.39183e-06,0.0348432,0.03929250707701071,-1.7384598494096792e-07,5.888637337969627e-06,-0.016559164446351304,-4.391820355942322e-06,-0.020217724639524315
89,0.079585,736.08,0.00778513,0.00565691,0.00607898,-0.0160672,0.00971387,0.0390211,-0.0169116,-0.0206891,-1.70502e-07,6.02387e-06,-4.50477e-06,0.0353148,0.03979242303882269,-1.7050198541923578e-07,6.023888143635858e-06,-0.01676940162183782,-4.504759853585227e-06,-0.02047654892448103
90,0.080585,737.573,0.00778078,0.00565349,0.00621442,-0.0163803,0.00980172,0.0395019,-0.0171252,-0.0209533,-1.66802e-07,6.15774e-06,-4.61687e-06,0.0357861,0.04029247543878367,-1.6680198611229713e-07,6.157758958957871e-06,-0.01697939724931996,-4.616859342276847e-06,-0.02073530483709396
91,0.081585,739.051,0.00777362,0.00564926,0.00634733,-0.0166896,0.00988811,0.0399824,-0.0173388,-0.0212174,-1.62748e-07,6.29022e-06,-4.72813e-06,0.0362574,0.040792456083962314,-1.6274798675386393e-07,6.2902397834907475e-06,-0.017189348026526163,-4.728118822461269e-06,-0.020993894494819143
92,0.082585,740.512,0.00776768,0.005645,0.0064775,-0.0169938,0.00997276,0.0404627,-0.0175522,-0.0214813,-1.58353e-07,6.42137e-06,-4.83857e-06,0.0367284,0.04129246876905346,-1.5835298750044302e-07,6.4213906170174084e-06,-0.01739905744286685,-4.8385582941401495e-06,-0.0212522201184967
93,0.083585,741.959,0.0077602,0.0056402,0.00660521,-0.0172941,0.0100559,0.0409428,-0.0177656,-0.0217451,-1.53619e-07,6.55117e-06,-4.9482e-06,0.0371994,0.041792513309396595,-1.5361898819676867e-07,6.551191458870065e-06,-0.017608722111992603,-4.948187757647382e-06,-0.02151037973007952
94,0.084585,743.391,0.00775314,0.00563526,0.00673037,-0.0175898,0.0101375,0.0414226,-0.0179789,-0.0220089,-1.48556e-07,6.67967e-06,-5.05704e-06,0.0376701,0.042292485290969406,-1.4855598895469058e-07,6.679692309052854e-06,-0.017818243825281077,-5.057027213206666e-06,-0.021768471248138854
95,0.085585,744.809,0.00774519,0.00562993,0.00685315,-0.0178816,0.0102177,0.0419022,-0.0181921,-0.0222725,-1.43169e-07,6.80687e-06,-5.16508e-06,0.0381407,0.04279248865813834,-1.4316898977462245e-07,6.806893166899641e-06,-0.018027622655121145,-5.165066661039219e-06,-0.02202629909591458
96,0.086585,746.213,0.00773729,0.0056244,0.00697354,-0.0181692,0.0102964,0.0423815,-0.0184052,-0.022536,-1.37466e-07,6.93279e-06,-5.27235e-06,0.0386112,0.04329241889666302,-1.3746599059061282e-07,6.9328140317459486e-06,-0.018236858673843725,-5.272336101147523e-06,-0.022283961217627435
97,0.087585,747.603,0.00772881,0.00561858,0.00709164,-0.0184529,0.0103738,0.0428607,-0.0186182,-0.0227994,-1.31451e-07,7.05747e-06,-5.37885e-06,0.0390814,0.04379248442993089,-1.3145099131417481e-07,7.057494904039174e-06,-0.01844595195372134,-5.378835533975668e-06,-0.02254145770846605
98,0.088585,748.979,0.00772023,0.00561256,0.00720749,-0.0187327,0.0104498,0.0433396,-0.0188311,-0.0230627,-1.25133e-07,7.1809e-06,-5.4846e-06,0.0395515,0.044292476364237165,-1.2513299219030216e-07,7.180925782668268e-06,-0.018654902566968334,-5.484584959636329e-06,-0.022798788663544567
99,0.089585,750.342,0.00771124,0.00560629,0.00732116,-0.0190088,0.0105244,0.0438183,-0.0190439,-0.0233258,-1.18516e-07,7.30312e-06,-5.5896e-06,0.0400215,0.04479249884350467,-1.1851599301948568e-07,7.303146667858584e-06,-0.01886371058574099,-5.589584378240531e-06,-0.02305585648349251
100,0.090585,751.692,0.00770209,0.00559983,0.00743268,-0.0192811,0.0105978,0.0442967,-0.0192567,-0.0235889,-1.11607e-07,7.42413e-06,-5.69387e-06,0.0404913,0.04529244715305181,-1.1160699375789562e-07,7.424157558943989e-06,-0.01907247417489466,-5.693853789900949e-06,-0.023312856677793703
101,0.091585,753.029,0.00769263,0.00559316,0.00754212,-0.0195499,0.01067,0.0447749,-0.0194693,-0.0238518,-1.0441e-07,7.54396e-06,-5.79742e-06,0.0409609,0.04579242553658425,-1.0440999453908972e-07,7.54398845570492e-06,-0.019280997200102012,-5.797403194951478e-06,-0.023569593978176262
102,0.092585,754.354,0.00768298,0.00558631,0.00764952,-0.0198152,0.0107409,0.0452529,-0.0196818,-0.0241147,-9.69328e-08,7.66262e-06,-5.90025e-06,0.0414303,0.046292433808447386,-9.693279534594978e-08,7.66264935792016e-06,-0.019489377846969136,-5.900232593614163e-06,-0.023826263791194124
103,0.093585,755.667,0.0076731,0.00557929,0.00775494,-0.020077,0.0108106,0.0457307,-0.0198943,-0.0243774,-8.91792e-08,7.78012e-06,-6.00238e-06,0.0418996,0.04679247178288026,-8.917919602779989e-08,7.780150265146446e-06,-0.019697714217653317,-6.002361985779636e-06,-0.02408267095114114
104,0.094585,756.968,0.00766303,0.0055721,0.00785841,-0.0203354,0.0108792,0.0462082,-0.0201067,-0.02464,-8.11551e-08,7.89648e-06,-6.10381e-06,0.0423687,0.04729243454476628,-8.11550967538821e-08,7.896511177385435e-06,-0.019905908312157994,-6.1037913717809644e-06,-0.024338913195670164
105,0.095585,758.257,0.00765275,0.00556476,0.00795998,-0.0205906,0.0109466,0.0466855,-0.0203189,-0.0249025,-7.28654e-08,8.01173e-06,-6.20455e-06,0.0428376,0.04779242653737148,-7.286539738249331e-08,8.011762093973473e-06,-0.020113862213724798,-6.20453075184102e-06,-0.02459499061932402
106,0.096585,759.534,0.00764231,0.00555728,0.0080597,-0.0208425,0.011013,0.0471626,-0.0205311,-0.0251649,-6.43153e-08,8.12586e-06,-6.30462e-06,0.0433064,0.048292447574606046,-6.431529797623625e-08,8.125893014909735e-06,-0.020321771992155457,-6.304600125961457e-06,-0.02485090331657125
107,0.097585,760.8,0.00763169,0.00554965,0.00815761,-0.0210913,0.0110783,0.0476395,-0.0207432,-0.0254272,-5.55096e-08,8.23891e-06,-6.40401e-06,0.043775,0.0487924974702747,-5.5509598473335586e-08,8.238943939975485e-06,-0.02052953970977056,-6.403989494363493e-06,-0.025106651381806233
108,0.098585,762.055,0.00762092,0.00554191,0.00825374,-0.0213369,0.0111425,0.0481161,-0.0209552,-0.0256893,-4.64531e-08,8.35087e-06,-6.50275e-06,0.0442434,0.04929247110882318,-4.645309892303828e-08,8.350904868503761e-06,-0.020737165438247218,-6.5027288571606334e-06,-0.02536213744556781
109,0.099585,763.299,0.00761,0.00553404,0.00834814,-0.0215796,0.0112057,0.0485925,-0.0211671,-0.0259514,-3.71505e-08,8.46177e-06,-6.60083e-06,0.0447117,0.04979247313308499,-3.715049934349679e-08,8.461805800941136e-06,-0.020944649249204694,-6.600808214574094e-06,-0.02561755655520681
110,0.1006,764.533,0.00759894,0.00552605,0.00844085,-0.0218193,0.0112679,0.0490687,-0.0213789,-0.0262133,-2.76063e-08,8.57162e-06,-6.69826e-06,0.0451797,0.05029250335653801,-2.7606299579652216e-08,8.571656736400257e-06,-0.021151991214204524,-6.698237566715726e-06,-0.025872713902831856
111,0.1016,765.756,0.00758775,0.00551796,0.0085319,-0.0220561,0.0113292,0.0495446,-0.0215906,-0.0264751,-1.7825e-08,8.68042e-06,-6.79506e-06,0.0456476,0.05079245651330311,-1.7824999809512576e-08,8.680457674881126e-06,-0.02135919140475051,-6.7950369135871824e-06,-0.026127707046273208
112,0.1026,766.968,0.00757644,0.00550978,0.00862132,-0.0222901,0.0113895,0.0500203,-0.0218022,-0.0267368,-7.81084e-09,8.78821e-06,-6.89123e-06,0.0461154,0.05129243739589118,-7.810839974808914e-09,8.788248616387051e-06,-0.021566249892288725,-6.8912062555215314e-06,-0.026382536079505803
113,0.1036,768.17,0.00756502,0.00550149,0.00870916,-0.0225212,0.0114488,0.0504958,-0.0220137,-0.0269984,2.43181e-09,8.89498e-06,-6.98678e-06,0.0465829,0.051792445817454125,2.4318100866338455e-09,8.895019560473116e-06,-0.021773166748207617,-6.9867555925196e-06,-0.026637201096430863
114,0.1046,769.363,0.00755349,0.00549312,0.00879544,-0.0227497,0.0115073,0.0509711,-0.0222252,-0.0272599,1.28988e-08,9.00076e-06,-7.08172e-06,0.0470503,0.05229248159103905,1.2898800028082746e-08,9.00080050691976e-06,-0.021980039845839183,-7.081694924693238e-06,-0.026891702190875777
115,0.1056,770.546,0.00754185,0.00548467,0.0088802,-0.0229754,0.0115648,0.0514461,-0.0224365,-0.0275213,2.35862e-08,9.10554e-06,-7.17604e-06,0.0475175,0.05279243925033872,2.358620032616443e-08,9.105581455504108e-06,-0.022186673631791387,-7.176014252263663e-06,-0.027146039456594218
116,0.1066,771.719,0.00753013,0.00547614,0.00896346,-0.0231986,0.0116215,0.0519209,-0.0226478,-0.0277825,3.44899e-08,9.20936e-06,-7.26977e-06,0.0479845,0.05329242378743104,3.4489900491152525e-08,9.209402406229472e-06,-0.022393263760637216,-7.269743575233356e-06,-0.027400115727282626
117,0.1076,772.882,0.00751831,0.00546754,0.00904527,-0.0234192,0.0116774,0.0523955,-0.0228589,-0.0280437,4.56061e-08,9.3122e-06,-7.36291e-06,0.0484513,0.053792435015039386,4.560610111781216e-08,9.312243358650107e-06,-0.02259961476154293,-7.362882893824363e-06,-0.027654125641915717
118,0.1086,774.036,0.00750642,0.00545887,0.00912564,-0.0236372,0.0117324,0.0528699,-0.02307,-0.0283047,5.6931e-08,9.4141e-06,-7.45546e-06,0.048918,0.054292472745782305,5.6931001690685434e-08,9.414144312769324e-06,-0.022805922206349805,-7.455432208147705e-06,-0.027907874799417587
119,0.1096,775.182,0.00749444,0.00545014,0.00920461,-0.0238528,0.0117866,0.053344,-0.0232809,-0.0285656,6.84608e-08,9.51506e-06,-7.54743e-06,0.0493844,0.05479243131292466,6.846080236044827e-08,9.515105268365076e-06,-0.023011990706669372,-7.547401518204211e-06,-0.02816146055318247
120,0.1106,776.318,0.0074824,0.00544135,0.00928221,-0.024066,0.01184,0.0538179,-0.0234918,-0.0288264,8.0192e-08,9.61509e-06,-7.63882e-06,0.0498507,0.05529241590811651,8.019200326003784e-08,9.615136225216148e-06,-0.023218015751724663,-7.638790824326946e-06,-0.028414882996547153
121,0.1116,777.445,0.00747029,0.00543251,0.00935846,-0.0242767,0.0118927,0.0542916,-0.0237026,-0.0290871,9.2121e-08,9.7142e-06,-7.72965e-06,0.0503168,0.055792426343654,9.212100415822988e-08,9.714247183101321e-06,-0.023423899693074346,-7.729620126295522e-06,-0.02866814222277536
122,0.1126,778.564,0.00745812,0.00542361,0.00943339,-0.0244851,0.0119445,0.0547651,-0.0239133,-0.0293477,1.04244e-07,9.8124e-06,-7.81993e-06,0.0507828,0.05629246243172914,1.0424400542774492e-07,9.81244814179938e-06,-0.023629642601632472,-7.819899424443832e-06,-0.028921238325057663
123,0.1136,779.674,0.0074459,0.00541467,0.00950703,-0.0246913,0.0119956,0.0552383,-0.0241239,-0.0296081,1.16558e-07,9.90971e-06,-7.90964e-06,0.0512485,0.056792418305182224,1.1655800680188122e-07,9.909759101311977e-06,-0.023835244548255696,-7.909608718881245e-06,-0.02917407431392338
124,0.1146,780.775,0.00743362,0.00540568,0.00957939,-0.0248951,0.012046,0.0557114,-0.0243344,-0.0298685,1.2906e-07,1.00061e-05,-7.99881e-06,0.0517141,0.05729250508448258,1.2906000823598163e-07,1.0006150061192542e-05,-0.024040705603743495,-7.998778009610241e-06,-0.02942684447286903
125,0.1156,781.868,0.00742129,0.00539665,0.00965051,-0.0250968,0.0120957,0.0561842,-0.0245448,-0.0301287,1.41746e-07,1.01017e-05,-8.08744e-06,0.0521794,0.05779251117301154,1.4174601004057763e-07,1.0101751022340011e-05,-0.02424602583883828,-8.087407296741844e-06,-0.02967935475492478
126,0.1166,782.954,0.00740892,0.00538759,0.00972041,-0.0252963,0.0121447,0.0566567,-0.0247551,-0.0303888,1.54613e-07,1.01963e-05,-8.17554e-06,0.0526446,0.058292436232535216,1.5461301194896748e-07,1.019635198251656e-05,-0.0244512053242254,-8.175506580387903e-06,-0.029931702335527555
127,0.1176,784.031,0.0073965,0.00537849,0.0097891,-0.0254936,0.012193,0.0571291,-0.0249653,-0.0306488,1.67658e-07,1.02902e-05,-8.2631e-06,0.0531097,0.058792491683209436,1.6765801413853865e-07,1.0290252944189504e-05,-0.02465624413053269,-8.263065860658614e-06,-0.03018388730745336
128,0.1186,785.1,0.00738405,0.00536936,0.00985662,-0.0256888,0.0122406,0.0576012,-0.0251755,-0.0309087,1.80879e-07,1.03831e-05,-8.35014e-06,0.0535745,0.05929246562809665,1.8087901643148996e-07,1.0383153904669484e-05,-0.024861239842212335,-8.350105137666652e-06,-0.030435909763405267
129,0.1196,786.161,0.00737157,0.0053602,0.00992298,-0.025882,0.0122876,0.0580731,-0.0253855,-0.0311685,1.9427e-07,1.04753e-05,-8.43666e-06,0.0540391,0.059792463707894816,1.9427001896055174e-07,1.047535486620177e-05,-0.025065997481540925,-8.436624411523042e-06,-0.030687769796013953
130,0.1206,787.215,0.00735906,0.00535101,0.00998821,-0.0260732,0.0123339,0.0585448,-0.0255955,-0.0314281,2.07831e-07,1.05666e-05,-8.52267e-06,0.0545036,0.0602924857339493,2.0783102150367938e-07,1.056665582677141e-05,-0.025270712126279737,-8.522633682117586e-06,-0.030939370591778537
131,0.1216,788.261,0.00734651,0.0053418,0.0100523,-0.0262623,0.0123795,0.0590162,-0.0258053,-0.0316877,2.21558e-07,1.06571e-05,-8.60817e-06,0.0549679,0.06079242543825458,2.2155802459344898e-07,1.0657156787052813e-05,-0.025475188880514144,-8.608132949783354e-06,-0.03119090608045394
132,0.1226,789.3,0.00733395,0.00533257,0.0101153,-0.0264495,0.0124246,0.0594875,-0.0260151,-0.0319471,2.35448e-07,1.07468e-05,-8.69317e-06,0.055432,0.0612924947404383,2.3544802774111417e-07,1.074685774704598e-05,-0.02567962274002522,-8.693132214521171e-06,-0.03144218256744724
133,0.1236,790.331,0.00732136,0.00532332,0.0101773,-0.0266347,0.012469,0.0599585,-0.0262247,-0.0322064,2.49499e-07,1.08356e-05,-8.77767e-06,0.0558959,0.061792481243039266,2.49499031212963e-07,1.0835658705410367e-05,-0.025883818890594767,-8.777631476331038e-06,-0.03169329705110768
134,0.1246,791.356,0.00730875,0.00531405,0.0102382,-0.0268181,0.0125129,0.0604293,-0.0264343,-0.0324656,2.63707e-07,1.09237e-05,-8.86167e-06,0.0563596,0.06229249083623101,2.637070348754378e-07,1.0923759663938881e-05,-0.026087972246136237,-8.861630735546022e-06,-0.03194424962365361
135,0.1256,792.373,0.00729612,0.00530476,0.010298,-0.0269996,0.0125561,0.0608998,-0.0266438,-0.0327247,2.78071e-07,1.1011e-05,-8.9452e-06,0.0568231,0.06279241705158922,2.780710386396379e-07,1.101106062129098e-05,-0.02629198544482192,-8.945159991835538e-06,-0.03219504037723098
136,0.1266,793.383,0.00728348,0.00529546,0.0103569,-0.0271792,0.0125988,0.0613702,-0.0268532,-0.0329837,2.92586e-07,1.10975e-05,-9.02823e-06,0.0572865,0.06329247220832235,2.9258604272719424e-07,1.1097561577466664e-05,-0.026495858556810026,-9.028189245641194e-06,-0.03244566940391336
137,0.1276,794.386,0.00727083,0.00528615,0.0104147,-0.0273571,0.0126409,0.0618403,-0.0270624,-0.0332425,3.07252e-07,1.11833e-05,-9.11079e-06,0.0577496,0.06379244350855418,3.0725204713810683e-07,1.1183362533362384e-05,-0.026699494322156236,-9.110748496854448e-06,-0.03269604006531057
138,0.1286,795.382,0.00725816,0.00527683,0.0104715,-0.0275332,0.0126824,0.0623102,-0.0272716,-0.0335013,3.22065e-07,1.12683e-05,-9.19288e-06,0.0582126,0.06429243704203924,3.2206505196086255e-07,1.12683634876376e-05,-0.026903087491355948,-9.192837745586324e-06,-0.03294634593916457
139,0.1296,796.372,0.00724549,0.0052675,0.0105274,-0.0277075,0.0127234,0.0627799,-0.0274807,-0.0337599,3.37023e-07,1.13525e-05,-9.2745e-06,0.0586754,0.06479245261918343,3.370230567956156e-07,1.1352564439848223e-05,-0.02710654078397856,-9.274456991947844e-06,-0.03319639368153815
140,0.1306,797.355,0.00723281,0.00525816,0.0105824,-0.0278801,0.0127639,0.0632494,-0.0276898,-0.0340184,3.52123e-07,1.1436e-05,-9.35566e-06,0.059138,0.06529249005028981,3.521230620417981e-07,1.1436065391334793e-05,-0.027309951538964983,-9.355616235939834e-06,-0.03344628011455841
141,0.1316,798.331,0.00722013,0.00524882,0.0106363,-0.028051,0.0128038,0.0637186,-0.0278987,-0.0342768,3.67364e-07,1.15188e-05,-9.43636e-06,0.0596004,0.06579244256630967,3.6736406738846483e-07,1.1518866341653222e-05,-0.027513125267853655,-9.436315477673318e-06,-0.03369600532988948
142,0.1326,799.301,0.00720744,0.00523948,0.0106894,-0.0282202,0.0128432,0.0641876,-0.0281075,-0.0345351,3.82742e-07,1.16008e-05,-9.51661e-06,0.0600626,0.06629241645658612,3.827420731461473e-07,1.1600867289462968e-05,-0.02771615932980409,-9.516564717260145e-06,-0.03394556941912308
143,0.1336,800.265,0.00719475,0.00523013,0.0107416,-0.0283878,0.0128822,0.0646565,-0.0283162,-0.0347933,3.98255e-07,1.16821e-05,-9.5964e-06,0.0605246,0.0667925182103557,3.982550793590889e-07,1.1682168236104573e-05,-0.02791905379457804,-9.596353954699488e-06,-0.03419497247377912
144,0.1346,801.222,0.00718206,0.00522077,0.0107929,-0.0285537,0.0129206,0.065125,-0.0285249,-0.0350513,4.13902e-07,1.17627e-05,-9.67575e-06,0.0609865,0.06729242759976795,4.1390208571634446e-07,1.1762769180911903e-05,-0.028121905919695656,-9.675703190104024e-06,-0.03444411802972225
145,0.1356,802.174,0.00716938,0.00521142,0.0108433,-0.0287181,0.0129585,0.0655934,-0.0287334,-0.0353093,4.2968e-07,1.18426e-05,-9.75466e-06,0.0614481,0.06779246447234888,4.2968009239530147e-07,1.1842670123884957e-05,-0.028324521378915724,-9.754612423473752e-06,-0.03469319931440318
146,0.1366,803.119,0.0071567,0.00520207,0.0108928,-0.0288809,0.0129959,0.0660615,-0.0289419,-0.0355671,4.45586e-07,1.19218e-05,-9.83313e-06,0.0619096,0.06829241512929074,4.455860993513028e-07,1.1921871065023737e-05,-0.028527094597216363,-9.833081654919695e-06,-0.03494202333282581
147,0.1376,804.058,0.00714402,0.00519272,0.0109415,-0.0290422,0.0130329,0.0665295,-0.0291502,-0.0358248,4.61619e-07,1.20003e-05,-9.91116e-06,0.0623709,0.06879249298866297,4.616191064954478e-07,1.2000372003884152e-05,-0.028729431329309496,-9.911110884663898e-06,-0.03519068673175785
148,0.1386,804.991,0.00713135,0.00518337,0.0109894,-0.0292019,0.0130694,0.0669972,-0.0293585,-0.0360824,4.77776e-07,1.20781e-05,-9.98877e-06,0.062832,0.06929248415145306,4.777761142271686e-07,1.2078172940466203e-05,-0.028931725919050688,-9.98872011237495e-06,-0.03543918960231185
149,0.1396,805.918,0.00711868,0.00517403,0.0110364,-0.0293601,0.0131054,0.0674647,-0.0295667,-0.0363399,4.94056e-07,1.21552e-05,-1.0066e-05,0.0632928,0.06979249525628273,4.940561220134754e-07,1.215527387476989e-05,-0.029133881288610053,-1.0065949337945135e-05,-0.03568753203552877
150,0.1406,806.84,0.00710602,0.00516469,0.0110826,-0.0295168,0.013141,0.0679319,-0.0297748,-0.0365973,5.10457e-07,1.22317e-05,-1.01427e-05,0.0637536,0.07029241908317907,5.104571303427008e-07,1.223177480746962e-05,-0.02933589750739729,-1.0142648563027379e-05,-0.03593571412237795
151,0.1416,807.755,0.00709337,0.00515536,0.0111281,-0.0296721,0.0131761,0.068399,-0.0299827,-0.0368545,5.26976e-07,1.23075e-05,-1.02191e-05,0.0642141,0.07079246944980411,5.269761389481431e-07,1.2307575737668941e-05,-0.029537677598538314,-1.0219047785198221e-05,-0.036183639572126114
152,0.1426,808.666,0.00708074,0.00514604,0.0111727,-0.029826,0.0132108,0.0688658,-0.0301906,-0.0371117,5.43611e-07,1.23826e-05,-1.0295e-05,0.0646744,0.07129243205673719,5.436111476520011e-07,1.238267666470172e-05,-0.029739415743958664,-1.0294947006661559e-05,-0.03643150126364825
153,0.1436,809.57,0.00706811,0.00513672,0.0112166,-0.0299784,0.0132451,0.0693324,-0.0303984,-0.0373687,5.60361e-07,1.24571e-05,-1.03705e-05,0.0651345,0.07179241374219081,5.603611570315081e-07,1.2457177589908497e-05,-0.02994101494648449,-1.0370446226537489e-05,-0.036679106549181495
154,0.1446,810.469,0.0070555,0.00512741,0.0112597,-0.0301294,0.013279,0.0697988,-0.0306062,-0.0376256,5.77223e-07,1.25309e-05,-1.04456e-05,0.0655945,0.07229241431503008,5.772231665979177e-07,1.2530978511948732e-05,-0.030142572261048328,-1.0445545444937032e-05,-0.0369265519009927
155,0.1456,811.363,0.0070429,0.00511811,0.0113021,-0.030279,0.0133124,0.070265,-0.0308138,-0.0378824,5.94197e-07,1.26041e-05,-1.05203e-05,0.0660542,0.0727924335840191,5.941971765732745e-07,1.260417943194092e-05,-0.030343893765151786,-1.052024466186019e-05,-0.03717383740964619
156,0.1466,812.251,0.00703031,0.00510882,0.0113437,-0.0304273,0.0133454,0.070731,-0.0310213,-0.0381391,6.11279e-07,1.26766e-05,-1.05947e-05,0.0665138,0.07329247135782158,6.112791868240208e-07,1.2676680348322478e-05,-0.030545076533761484,-1.0594643876316034e-05,-0.03742096316563537
157,0.1476,813.134,0.00701774,0.00509953,0.0113846,-0.0305743,0.0133781,0.0711967,-0.0312287,-0.0383957,6.28468e-07,1.27486e-05,-1.06686e-05,0.0669732,0.07379242006575404,6.284681974833006e-07,1.2748681263774486e-05,-0.030746120635894325,-1.0668543090730509e-05,-0.037667929259382116
158,0.1486,814.012,0.00700519,0.00509027,0.0114248,-0.0307199,0.0134103,0.0716623,-0.0314361,-0.0386522,6.45763e-07,1.28199e-05,-1.07421e-05,0.0674324,0.07429249422476691,6.457632084622134e-07,1.2819982175171774e-05,-0.030947123045804048,-1.0742042303890642e-05,-0.037914735781237496
159,0.1496,814.885,0.00699265,0.00508101,0.0114643,-0.0308642,0.0134421,0.0721276,-0.0316433,-0.0389085,6.63162e-07,1.28905e-05,-1.08152e-05,0.0678914,0.0747924788347285,6.631622198050025e-07,1.2890583082958429e-05,-0.031147890001734013,-1.0815141515907456e-05,-0.038161286637614866
160,0.1506,815.753,0.00698013,0.00507176,0.0115031,-0.0310072,0.0134736,0.0725927,-0.0318505,-0.0391647,6.80662e-07,1.29606e-05,-1.0888e-05,0.0683502,0.07529248108314412,6.806622316890554e-07,1.2960683988927357e-05,-0.031348615363060106,-1.0887940725901046e-05,-0.03840767815187762
161,0.1516,816.615,0.00696763,0.00506253,0.0115412,-0.031149,0.0135047,0.0730576,-0.0320575,-0.0394209,6.98263e-07,1.30301e-05,-1.09604e-05,0.0688088,0.0757925007781719,6.982632438923275e-07,1.3030184892182106e-05,-0.03154910544824019,-1.0960339935084384e-05,-0.03865400654872009
162,0.1526,817.473,0.00695514,0.00505331,0.0115787,-0.0312895,0.0135354,0.0735222,-0.0322645,-0.0396769,7.15962e-07,1.30989e-05,-1.10324e-05,0.0692672,0.07629243009862186,7.159622563701618e-07,1.3098985790938045e-05,-0.03174955403626778,-1.1032339143346448e-05,-0.03890007962434605
163,0.1536,818.325,0.00694268,0.0050441,0.0116154,-0.0314287,0.0135657,0.0739867,-0.0324714,-0.0399328,7.33758e-07,1.31672e-05,-1.1104e-05,0.0697254,0.07679248406094463,7.337582692557021e-07,1.3167286687876256e-05,-0.03194986433072322,-1.110393835079826e-05,-0.039145993627931475
164,0.1546,819.173,0.00693023,0.0050349,0.0116515,-0.0315668,0.0135957,0.0744509,-0.0326782,-0.0401885,7.5165e-07,1.32349e-05,-1.11752e-05,0.0701834,0.07729244716450423,7.51650282460048e-07,1.3234987581656199e-05,-0.03215003640027425,-1.1175137557661863e-05,-0.03939165258852417
165,0.1556,820.016,0.00691781,0.00502573,0.011687,-0.0317036,0.0136253,0.0749149,-0.0328849,-0.0404442,7.69635e-07,1.33019e-05,-1.12461e-05,0.0706413,0.07779242684630439,7.696352961605868e-07,1.3301988470715287e-05,-0.0323500703135331,-1.124603676283531e-05,-0.03963724874215091
166,0.1566,820.854,0.00690541,0.00501656,0.0117218,-0.0318392,0.0136546,0.0753787,-0.0330915,-0.0406997,7.87713e-07,1.33685e-05,-1.13166e-05,0.0710989,0.07829242291400096,7.87713310135274e-07,1.33685893588531e-05,-0.032549966139056585,-1.1316535967531571e-05,-0.0398825900814066
167,0.1576,821.688,0.00689303,0.00500742,0.011756,-0.0319737,0.0136835,0.0758423,-0.033298,-0.0409552,8.05881e-07,1.34344e-05,-1.13868e-05,0.0715564,0.07879243517515055,8.058813247835417e-07,1.3434490242048014e-05,-0.03274972394534548,-1.1386735170648699e-05,-0.04012786874395735
168,0.1586,822.517,0.00688067,0.00499828,0.0117896,-0.032107,0.0137121,0.0763057,-0.0335044,-0.0412105,8.24138e-07,1.34998e-05,-1.14566e-05,0.0720137,0.07929246343721119,8.241383395724e-07,1.3499891122759067e-05,-0.032949343800845465,-1.1456534373399663e-05,-0.04037289282041279
169,0.1596,823.341,0.00686833,0.00498917,0.0118226,-0.0322392,0.0137403,0.0767689,-0.0337107,-0.0414657,8.42483e-07,1.35646e-05,-1.1526e-05,0.0724708,0.07979250750754141,8.424833548570376e-07,1.3564691999645717e-05,-0.03314882577394629,-1.1525933575895486e-05,-0.04061775841198656
170,0.1606,824.161,0.00685601,0.00498007,0.0118549,-0.0323702,0.0137683,0.0772318,-0.0339169,-0.0417208,8.60915e-07,1.36288e-05,-1.15951e-05,0.0729276,0.08029245916415029,8.609153705485539e-07,1.362889287248592e-05,-0.03334816993298262,-1.159503277703422e-05,-0.04086246560808571
171,0.1616,824.976,0.00684372,0.00497099,0.0118867,-0.0325001,0.0137959,0.0776945,-0.0341231,-0.0419758,8.79431e-07,1.36925e-05,-1.16638e-05,0.0733843,0.08079242614344628,8.794313866022918e-07,1.3692593742620218e-05,-0.03354747299149097,-1.1663731978139857e-05,-0.0411070144980471
172,0.1626,825.787,0.00683146,0.00496192,0.0119179,-0.0326289,0.0138231,0.0781571,-0.0343291,-0.0422307,8.9803e-07,1.37556e-05,-1.17322e-05,0.0738408,0.08129251638173418,8.980304031513953e-07,1.3755694608708069e-05,-0.03374654170727298,-1.1732131177999428e-05,-0.041351405171137
173,0.1636,826.594,0.00681921,0.00495287,0.0119485,-0.0327566,0.0138501,0.0786194,-0.0345351,-0.0424854,9.16712e-07,1.38182e-05,-1.18002e-05,0.0742972,0.08179251347748107,9.167124201958643e-07,1.381829547186797e-05,-0.03394556941912308,-1.1800130377936924e-05,-0.0415955418761107
174,0.1646,827.396,0.00680699,0.00494384,0.0119785,-0.0328832,0.0138767,0.0790814,-0.0347409,-0.0427401,9.35474e-07,1.38803e-05,-1.18679e-05,0.0747533,0.08229241708754986,9.354744374689972e-07,1.3880396331877876e-05,-0.03414436296437917,-1.1867829576739375e-05,-0.04183961640738387
175,0.1656,828.194,0.0067948,0.00493483,0.012008,-0.0330088,0.0139031,0.0795433,-0.0349467,-0.0429946,9.54315e-07,1.39418e-05,-1.19353e-05,0.0752092,0.0827924434271956,9.543154553259825e-07,1.3941897187397245e-05,-0.03434311560213321,-1.1935228774628825e-05,-0.04208343719749663
176,0.1666,828.988,0.00678263,0.00492584,0.0120369,-0.0331333,0.0139291,0.080005,-0.0351524,-0.043249,9.73235e-07,1.40028e-05,-1.20023e-05,0.0756649,0.08329248412383805,9.732354735447757e-07,1.400289803976662e-05,-0.03454173079498102,-1.2002227972707225e-05,-0.042327100175828525
177,0.1676,829.777,0.00677049,0.00491687,0.0120653,-0.0332568,0.0139549,0.0804664,-0.035358,-0.0435033,9.92231e-07,1.40632e-05,-1.2069e-05,0.0761205,0.08379243060479658,9.922314923027642e-07,1.406329888720137e-05,-0.03474020861091087,-1.2068927169872623e-05,-0.042570605431248354
178,0.1686,830.563,0.00675837,0.00490791,0.0120931,-0.0333793,0.0139803,0.0809277,-0.0355635,-0.0437575,1.0113e-06,1.41231e-05,-1.21353e-05,0.0765758,0.08429249938503092,1.0113005113332463e-06,1.4123199731486125e-05,-0.03493854911785621,-1.2135226367560037e-05,-0.04281395305255464
179,0.1696,831.344,0.00674628,0.00489897,0.0121204,-0.0335007,0.0140055,0.0813887,-0.0357689,-0.0440116,1.03045e-06,1.41826e-05,-1.22013e-05,0.077031,0.08479247346241747,1.0304505309033374e-06,1.4182700573517337e-05,-0.03513675238369518,-1.2201225564445473e-05,-0.043057143128476416
180,0.1706,832.121,0.00673421,0.00489005,0.0121472,-0.0336211,0.0140303,0.0818495,-0.0359742,-0.0442655,1.04966e-06,1.42415e-05,-1.2267e-05,0.077486,0.08529246102247567,1.0496605509224821e-06,1.4241601410613924e-05,-0.03533481847625075,-1.2266924760639952e-05,-0.043300080077685266
181,0.1716,832.894,0.00672217,0.00488116,0.0121734,-0.0337406,0.0140549,0.0823101,-0.0361794,-0.0445194,1.06895e-06,1.42999e-05,-1.23324e-05,0.0779407,0.08579246187137857,1.0689505713923353e-06,1.4300002244116428e-05,-0.035532747463290826,-1.2332323956254498e-05,-0.04354295535303265
182,0.1726,833.664,0.00671016,0.00487228,0.0121991,-0.033859,0.0140792,0.0827705,-0.0363846,-0.0447731,1.08831e-06,1.43577e-05,-1.23975e-05,0.0783953,0.08629247581520172,1.0883105923120695e-06,1.4357803072240216e-05,-0.03573063583946956,-1.2397423151289111e-05,-0.043785577727310065
183,0.1736,834.429,0.00669817,0.00486342,0.0122243,-0.0339765,0.0141033,0.0832307,-0.0365896,-0.0450268,1.10774e-06,1.44151e-05,-1.24622e-05,0.0788497,0.08679250265992411,1.1077406134596401e-06,1.4415203898110462e-05,-0.035928290798797,-1.2462122347067783e-05,-0.04402813855609844
184,0.1746,835.19,0.00668621,0.00485458,0.012249,-0.0340931,0.014127,0.0836906,-0.0367945,-0.0452803,1.12724e-06,1.4472e-05,-1.25266e-05,0.0793039,0.0872924334821783,1.1272406352791364e-06,1.4472104719942536e-05,-0.03612580885559635,-1.2526521542488567e-05,-0.044270446709118505
185,0.1756,835.948,0.00667428,0.00484576,0.0122733,-0.0342087,0.0141505,0.0841504,-0.0369994,-0.0455337,1.1468e-06,1.45284e-05,-1.25907e-05,0.0797579,0.08779248549624152,1.1468006575476863e-06,1.4528505537736436e-05,-0.03632328644509186,-1.2590620737440439e-05,-0.044512597896071315
186,0.1766,836.702,0.00666237,0.00483696,0.012297,-0.0343233,0.0141737,0.0846099,-0.0372042,-0.045787,1.16643e-06,1.45843e-05,-1.26545e-05,0.0802117,0.08829244099930711,1.1664306802661173e-06,1.4584406351492163e-05,-0.036520627227642044,-1.2654419932145444e-05,-0.0447545922051511
187,0.1776,837.452,0.0066505,0.00482818,0.0123202,-0.0344371,0.0141967,0.0850693,-0.0374088,-0.0460401,1.18613e-06,1.46398e-05,-1.2718e-05,0.0806654,0.0887925174054578,1.1861307034344293e-06,1.4639907162328214e-05,-0.03671773494250441,-1.2717919126603583e-05,-0.04499633422412097
188,0.1786,838.198,0.00663865,0.00481942,0.012343,-0.0345499,0.0142194,0.0855284,-0.0376134,-0.0462932,1.20588e-06,1.46947e-05,-1.27812e-05,0.0811188,0.08929249681168949,1.2058807270509675e-06,1.4694807967563506e-05,-0.036914802333253616,-1.2781118320814855e-05,-0.04523801506592817
189,0.1796,838.941,0.00662682,0.00481069,0.0123653,-0.0346618,0.0142419,0.0859873,-0.0378179,-0.0465462,1.2257e-06,1.47492e-05,-1.2844e-05,0.081572,0.08979248785264615,1.2257007511173867e-06,1.4749308769879121e-05,-0.03711173311931737,-1.2843917516214276e-05,-0.04547953929401327
190,0.1806,839.68,0.00661503,0.00480197,0.0123871,-0.0347728,0.0142641,0.086446,-0.0380223,-0.046799,1.24558e-06,1.48032e-05,-1.29066e-05,0.0820251,0.09029249033362641,1.2455807756328596e-06,1.480330956793452e-05,-0.03730852736801038,-1.2906516710153859e-05,-0.04572081156837937
191,0.1816,840.415,0.00660326,0.00479327,0.0124085,-0.0348829,0.014286,0.0869045,-0.0382266,-0.0470517,1.26552e-06,1.48567e-05,-1.29689e-05,0.0824779,0.09079250405983141,1.2655208008194307e-06,1.485681036128561e-05,-0.037505185146592956,-1.2968815904179642e-05,-0.04596192745302097
192,0.1826,841.147,0.00659152,0.0047846,0.0124294,-0.0349922,0.0143077,0.0873627,-0.0384308,-0.0473043,1.28552e-06,1.49098e-05,-1.30308e-05,0.0829306,0.0912924197071201,1.2855208262330109e-06,1.4909911151717026e-05,-0.03770170652227067,-1.3030715099504597e-05,-0.04620288703566977
193,0.1836,841.875,0.00657981,0.00477594,0.0124499,-0.0351006,0.0143292,0.0878208,-0.038635,-0.0475568,1.30558e-06,1.49624e-05,-1.30925e-05,0.0833831,0.09179245528899349,1.3055808523176893e-06,1.496251193722209e-05,-0.03789818777238052,-1.3092414293591759e-05,-0.04644369040398866
194,0.1846,842.6,0.00656813,0.00476731,0.0124699,-0.0352081,0.0143505,0.0882787,-0.038839,-0.0478092,1.32569e-06,1.50145e-05,-1.31539e-05,0.0838353,0.09229250153112023,1.3256908786285493e-06,1.501461271824489e-05,-0.03809443652402167,-1.3153813487876143e-05,-0.04668433764557123
195,0.1856,843.321,0.00655648,0.0047587,0.0124895,-0.0353148,0.0143715,0.0887363,-0.039043,-0.0480615,1.34586e-06,1.50662e-05,-1.3215e-05,0.0842874,0.09279244895906835,1.3458609056105075e-06,1.5066313495681882e-05,-0.03829064524500081,-1.3214912682246727e-05,-0.04692482884794236
196,0.1866,844.039,0.00654485,0.00475011,0.0125086,-0.0354206,0.0143922,0.0891938,-0.0392468,-0.0483137,1.36609e-06,1.51174e-05,-1.32758e-05,0.0847393,0.09329251588605447,1.3660909330415194e-06,1.5117514268414567e-05,-0.038486621640826835,-1.3275711876925556e-05,-0.047165164098557866
197,0.1876,844.754,0.00653325,0.00474154,0.0125273,-0.0355256,0.0144128,0.089651,-0.0394506,-0.0485657,1.38637e-06,1.51682e-05,-1.33363e-05,0.085191,0.0937924835082069,1.3863709609207575e-06,1.5168315037783486e-05,-0.038682558100732956,-1.333621107191263e-05,-0.04740524822533454
198,0.1886,845.465,0.00652169,0.00473299,0.0125456,-0.0356298,0.0144331,0.090108,-0.0396543,-0.0488177,1.4067e-06,1.52186e-05,-1.33965e-05,0.0856425,0.09429246090930476,1.4067009894702664e-06,1.5218715803566596e-05,-0.038878358520697986,-1.339641026731897e-05,-0.047645271858533844
199,0.1896,846.173,0.00651015,0.00472446,0.0125635,-0.0357332,0.0144532,0.0905648,-0.0398578,-0.0490695,1.42708e-06,1.52685e-05,-1.34565e-05,0.0860939,0.09479244789378116,1.427081018245957e-06,1.526861656420131e-05,-0.03907392687498412,-1.3456409461709562e-05,-0.047885044590425974
200,0.1906,846.877,0.00649863,0.00471595,0.0125809,-0.0358358,0.014473,0.0910214,-0.0400613,-0.0493212,1.44752e-06,1.53179e-05,-1.35161e-05,0.086545,0.09529244426597439,1.4475210476927458e-06,1.5318017319687627e-05,-0.03926945543515925,-1.3516008657954437e-05,-0.04812466176761587
201,0.1916,847.578,0.00648715,0.00470747,0.012598,-0.0359375,0.0144927,0.0914778,-0.0402647,-0.0495728,1.468e-06,1.5367e-05,-1.35755e-05,0.0869959,0.09579244983012791,1.4680010775869334e-06,1.5367118072928676e-05,-0.03946484815581042,-1.3575407853294585e-05,-0.048364123477168786
202,0.1926,848.276,0.0064757,0.00469901,0.0126146,-0.0360385,0.0145121,0.091934,-0.0404681,-0.0498243,1.48854e-06,1.54156e-05,-1.36346e-05,0.0874467,0.09629246439038974,1.4885411079301747e-06,1.541571882102133e-05,-0.03966020113762381,-1.3634507049276046e-05,-0.04860342980608201
203,0.1936,848.971,0.00646427,0.00469056,0.0126309,-0.0361387,0.0145313,0.09239,-0.0406713,-0.0500757,1.50912e-06,1.54637e-05,-1.36935e-05,0.0878972,0.0967924877508135,1.5091211387208148e-06,1.5463819563521497e-05,-0.03985532235976508,-1.3693406244463802e-05,-0.04884258084128412
204,0.1946,849.663,0.00645288,0.00468214,0.0126467,-0.0362381,0.0145504,0.0928457,-0.0408744,-0.050327,1.52975e-06,1.55115e-05,-1.3752e-05,0.0883476,0.09729240998611166,1.529751169959681e-06,1.551162030399844e-05,-0.04005030794233766,-1.3751905441727885e-05,-0.049081576669635085
205,0.1956,850.351,0.00644151,0.00467374,0.0126622,-0.0363368,0.0145692,0.0933013,-0.0410774,-0.0505782,1.55043e-06,1.55588e-05,-1.38103e-05,0.0887977,0.09779245030863715,1.5504312018688182e-06,1.5558921038660856e-05,-0.04024515795188022,-1.3810204638198265e-05,-0.049320417377926806
206,0.1966,851.036,0.00643017,0.00466537,0.0126773,-0.0364347,0.0145878,0.0937567,-0.0412804,-0.0508292,1.57115e-06,1.56057e-05,-1.38683e-05,0.0892477,0.09829249884291702,1.5711512342253542e-06,1.5605821769515416e-05,-0.040439968410885374,-1.3868203835532e-05,-0.04955900800878821
207,0.1976,851.719,0.00641886,0.00465701,0.0126919,-0.0365319,0.0146062,0.0942118,-0.0414833,-0.0510802,1.59191e-06,1.56522e-05,-1.39261e-05,0.0896975,0.0987924455133764,1.591911267029289e-06,1.5652322496340076e-05,-0.04063464339085021,-1.3926003032294076e-05,-0.049797538760916304
208,0.1986,852.398,0.00640758,0.00464868,0.0127062,-0.0366283,0.0146244,0.0946668,-0.041686,-0.051331,1.61272e-06,1.56983e-05,-1.39836e-05,0.0901471,0.09929250983209026,1.6127213005034946e-06,1.5698423218912794e-05,-0.040829087041105216,-1.3983502229919509e-05,-0.05003581965652171
209,0.1996,853.074,0.00639633,0.00464036,0.0127202,-0.036724,0.0146424,0.0951215,-0.0418887,-0.0515817,1.63358e-06,1.5744e-05,-1.40408e-05,0.0905965,0.09979247179404904,1.6335813342038819e-06,1.5744123937455612e-05,-0.041023491281626634,-1.4040701428408298e-05,-0.050273945826171285
210,0.2006,853.747,0.0063851,0.00463207,0.0127337,-0.0368189,0.0146602,0.095576,-0.0420913,-0.0518323,1.65447e-06,1.57893e-05,-1.40978e-05,0.0910457,0.1002924410818935,1.6544713685728851e-06,1.5789424651746486e-05,-0.04121776024218271,-1.4097700626436449e-05,-0.05051191735626914
211,0.2016,854.417,0.00637391,0.0046238,0.0127469,-0.0369131,0.0146778,0.0960303,-0.0422938,-0.0520828,1.67541e-06,1.58342e-05,-1.41545e-05,0.0914947,0.10079241749892098,1.6754114033901146e-06,1.5834325361563373e-05,-0.04141189398902845,-1.4154399825550001e-05,-0.05074973433315144
212,0.2026,855.084,0.00636274,0.00461555,0.0127598,-0.0370066,0.0146952,0.0964845,-0.0424962,-0.0523332,1.69639e-06,1.58786e-05,-1.42109e-05,0.0919436,0.10129251097758063,1.6963914388767876e-06,1.587872606556573e-05,-0.041605892588364446,-1.4210799025637932e-05,-0.0509873968430864
213,0.2036,855.749,0.00635161,0.00460733,0.0127723,-0.0370995,0.0147124,0.0969384,-0.0426986,-0.0525835,1.7174e-06,1.59227e-05,-1.42671e-05,0.0923922,0.10179250111249027,1.717401474810032e-06,1.5922826766878728e-05,-0.04179985192635749,-1.4266998225376248e-05,-0.051224904972274166
214,0.2046,856.41,0.0063405,0.00459912,0.0127844,-0.0371916,0.0147295,0.0973921,-0.0429008,-0.0528336,1.73846e-06,1.59664e-05,-1.4323e-05,0.0928406,0.10229249778591365,1.7384615111915025e-06,1.596652746371774e-05,-0.04199358040968826,-1.4322897426310988e-05,-0.05146216395306835
215,0.2056,857.068,0.00632942,0.00459094,0.0127961,-0.037283,0.0147463,0.0978456,-0.0431029,-0.0530837,1.75955e-06,1.60097e-05,-1.43787e-05,0.0932889,0.10279250080077373,1.7595515480195445e-06,1.6009828155860717e-05,-0.04218717394380189,-1.4378596627007134e-05,-0.05169936360281113
216,0.2066,857.724,0.00631837,0.00458277,0.0128076,-0.0373737,0.014763,0.0982989,-0.043305,-0.0533336,1.78068e-06,1.60526e-05,-1.44341e-05,0.093737,0.10329250995990091,1.78068158551703e-06,1.605272884375175e-05,-0.04238072835661566,-1.4433995828899704e-05,-0.051936314323621
217,0.2076,858.377,0.00630735,0.00457463,0.0128187,-0.0374637,0.0147795,0.0987519,-0.043507,-0.0535835,1.80185e-06,1.60951e-05,-1.44893e-05,0.0941848,0.10379241468678457,1.8018516232398696e-06,1.6095229526724708e-05,-0.04257414791345471,-1.4489195030553681e-05,-0.05217320583784402
218,0.2086,859.027,0.00629635,0.00456651,0.0128294,-0.0375531,0.0147958,0.0992048,-0.0437088,-0.0538332,1.82306e-06,1.61373e-05,-1.45442e-05,0.0946325,0.10429243549256073,1.8230616618541973e-06,1.6137430207008308e-05,-0.042767336956975655,-1.4544094233626126e-05,-0.05240984864226261
219,0.2096,859.674,0.00628539,0.00455841,0.0128398,-0.0376418,0.014812,0.0996575,-0.0439106,-0.0540828,1.84429e-06,1.6179e-05,-1.45989e-05,0.09508,0.10479246185053492,1.8442917006922244e-06,1.6179130880811243e-05,-0.042960487018881,-1.4598793436571e-05,-0.05264633762898818
220,0.2106,860.319,0.00627445,0.00455034,0.0128499,-0.0377298,0.0148279,0.10011,-0.0441123,-0.0543323,1.86557e-06,1.62204e-05,-1.46534e-05,0.0955273,0.10529249356316517,1.8655717402005223e-06,1.6220531551480732e-05,-0.043153502422391465,-1.4653292639499327e-05,-0.05288267288370074
221,0.2116,860.96,0.00626354,0.00454228,0.0128596,-0.0378172,0.0148437,0.100562,-0.0443139,-0.0545817,1.88687e-06,1.62614e-05,-1.47076e-05,0.0959744,0.10579219869510781,1.8868717801545642e-06,1.6261532217232144e-05,-0.04334638323326412,-1.4707491843735099e-05,-0.05311885449201281
222,0.2126,861.599,0.00625266,0.00453425,0.012869,-0.037904,0.0148594,0.101014,-0.0445154,-0.054831,1.90821e-06,1.63021e-05,-1.47615e-05,0.0964213,0.10629212974482383,1.908211820556005e-06,1.630223287985011e-05,-0.0435391295172024,-1.4761391049611383e-05,-0.053354882539469406
223,0.2136,862.236,0.00624181,0.00452623,0.0128781,-0.03799,0.0148748,0.101466,-0.0447169,-0.0550802,1.92958e-06,1.63424e-05,-1.48152e-05,0.0968681,0.10679228681445085,1.929581861626062e-06,1.634253353777204e-05,-0.04373183696667704,-1.481509025547112e-05,-0.05359075711154826
224,0.2146,862.87,0.00623099,0.00451824,0.0128869,-0.0380755,0.0148901,0.101918,-0.0449182,-0.0553292,1.95099e-06,1.63823e-05,-1.48687e-05,0.0973146,0.10729267000617315,1.9509919031435174e-06,1.6382434190553852e-05,-0.04392431437439459,-1.486858946142533e-05,-0.05382638367630266
225,0.2156,863.501,0.0062202,0.00451027,0.0128953,-0.0381603,0.0149052,0.102369,-0.0451195,-0.0555782,1.97242e-06,1.64218e-05,-1.49219e-05,0.097761,0.10779217162949539,1.9724219453287617e-06,1.6421934838417585e-05,-0.044116753040309487,-1.4921788669020053e-05,-0.0540619515773465
226,0.2166,864.129,0.00620943,0.00450232,0.0129035,-0.0382445,0.0149202,0.102821,-0.0453206,-0.055827,1.99389e-06,1.6461e-05,-1.49749e-05,0.0982071,0.10829300687130972,1.99389198773936e-06,1.6461135482925826e-05,-0.0443089618340311,-1.497478787670925e-05,-0.05429727168875831
227,0.2176,864.755,0.00619869,0.00449439,0.0129113,-0.0383281,0.014935,0.103272,-0.0455217,-0.0560758,2.01538e-06,1.64998e-05,-1.50277e-05,0.0986531,0.10879295974830816,2.0153820308177472e-06,1.649993612251599e-05,-0.044501131978450625,-1.5027587084714966e-05,-0.05453253325980911
228,0.2186,865.379,0.00618798,0.00448649,0.0129189,-0.038411,0.0149496,0.103722,-0.0457227,-0.0563244,2.0369e-06,1.65383e-05,-1.50802e-05,0.0990989,0.10929202886232381,2.0369020745647504e-06,1.653843675852862e-05,-0.04469316795066125,-1.5080086294361195e-05,-0.05476754725859034
229,0.2196,865.999,0.0061773,0.0044786,0.0129261,-0.0384934,0.0149641,0.104173,-0.0459236,-0.0565729,2.05845e-06,1.65764e-05,-1.51325e-05,0.0995445,0.10979243239985648,2.0584521185362803e-06,1.657653738917908e-05,-0.04488506981603213,-1.5132385504323942e-05,-0.0550024083403986
230,0.2206,866.618,0.00616665,0.00447074,0.012933,-0.0385751,0.0149785,0.104623,-0.0461244,-0.0568213,2.08003e-06,1.66142e-05,-1.51846e-05,0.0999899,0.11029195137777714,2.0800321631764263e-06,1.6614338016696095e-05,-0.04507683763987924,-1.5184484714492186e-05,-0.05523711659019537
231,0.2216,867.233,0.00615602,0.00446289,0.0129396,-0.0386562,0.0149926,0.105074,-0.0463251,-0.0570696,2.10163e-06,1.66516e-05,-1.52365e-05,0.100435,0.1107928059820722,2.101632208484361e-06,1.66517386386289e-05,-0.045268471487465045,-1.523638392508797e-05,-0.05547167209287518
232,0.2226,867.847,0.00614543,0.00445507,0.0129459,-0.0387368,0.0150067,0.105524,-0.0465257,-0.0573178,2.12326e-06,1.66887e-05,-1.52881e-05,0.10088,0.11129277522940773,2.1232622540168222e-06,1.668883925720621e-05,-0.045459971423998824,-1.5287983137546313e-05,-0.05570607493326596
233,0.2236,868.458,0.00613486,0.00444727,0.012952,-0.0388167,0.0150205,0.105974,-0.0467263,-0.0575659,2.14492e-06,1.67254e-05,-1.53395e-05,0.101325,0.11179296951353423,2.1449223004399443e-06,1.6725539870199313e-05,-0.04565143294949814,-1.5339382350432196e-05,-0.05594032519612835
234,0.2246,869.066,0.00612431,0.00443948,0.0129577,-0.0388961,0.0150342,0.106423,-0.0469267,-0.0578138,2.1666e-06,1.67618e-05,-1.53907e-05,0.10177,0.11229227664290797,2.1666023470867657e-06,1.6761940479836923e-05,-0.045842665240219516,-1.539058156374562e-05,-0.05617432858359395
235,0.2256,869.672,0.0061138,0.00443172,0.0129632,-0.0389749,0.0150478,0.106873,-0.0471271,-0.0580617,2.18831e-06,1.67979e-05,-1.54416e-05,0.102214,0.11279292080388514,2.188312394402203e-06,1.6798041085452908e-05,-0.046033859211829564,-1.5441480779143646e-05,-0.05640827396880954
236,0.2266,870.276,0.00610331,0.00442398,0.0129684,-0.0390531,0.0150612,0.107322,-0.0473274,-0.0583094,2.21003e-06,1.68336e-05,-1.54923e-05,0.102658,0.11329267701219892,2.2100324421625572e-06,1.683374168592877e-05,-0.04622491949450336,-1.5492179994969213e-05,-0.05664197269456539
237,0.2276,870.877,0.00609286,0.00441626,0.0129733,-0.0391307,0.0150745,0.107771,-0.0475276,-0.0585571,2.23179e-06,1.6869e-05,-1.55428e-05,0.103102,0.11379265766143343,2.23179249037031e-06,1.686914228238301e-05,-0.04641584615322436,-1.5542679211333343e-05,-0.05687561354031556
238,0.2286,871.476,0.00608242,0.00440857,0.0129779,-0.0392078,0.0150877,0.10822,-0.0477277,-0.0588046,2.25356e-06,1.6904e-05,-1.55931e-05,0.103546,0.11429286285238516,2.2535625392450243e-06,1.690414287347508e-05,-0.046606639252922855,-1.5592978428236037e-05,-0.05710900794221574
239,0.2296,872.072,0.00607202,0.00440089,0.0129822,-0.0392843,0.0151007,0.108668,-0.0479277,-0.0590521,2.27536e-06,1.69387e-05,-1.56432e-05,0.10399,0.1147921778931611,2.27536258856631e-06,1.6938843460545527e-05,-0.046797298858476166,-1.5643077645788317e-05,-0.057342344586149174
240,0.2306,872.666,0.00606164,0.00439323,0.0129863,-0.0393603,0.0151135,0.109117,-0.0481276,-0.0592994,2.29717e-06,1.69731e-05,-1.56931e-05,0.104433,0.11529283196946416,2.2971726385545566e-06,1.6973244043816393e-05,-0.04698782503470855,-1.5692976863990182e-05,-0.057575435001515296
241,0.2316,873.258,0.0060513,0.00438559,0.0129901,-0.0394357,0.0151262,0.109565,-0.0483275,-0.0595466,2.31901e-06,1.70072e-05,-1.57427e-05,0.104877,0.1157925950967682,2.3190126889893747e-06,1.700734462328768e-05,-0.0471783131285648,-1.574257608438767e-05,-0.05780837356159063
242,0.2326,873.848,0.00604097,0.00437798,0.0129936,-0.0395105,0.0151388,0.110013,-0.0485272,-0.0597937,2.34087e-06,1.70409e-05,-1.57921e-05,0.10532,0.11629258216811311,2.340872739869937e-06,1.704104519695271e-05,-0.04736857262139038,-1.5791975305434747e-05,-0.05804116035049134
243,0.2336,874.435,0.00603068,0.00437038,0.0129969,-0.0395848,0.0151513,0.110461,-0.0487269,-0.0600407,2.36275e-06,1.70744e-05,-1.58413e-05,0.105763,0.11679279328384817,2.362752791196243e-06,1.7074545768380744e-05,-0.04755879412318875,-1.584117452724243e-05,-0.05827379545226696
244,0.2346,875.02,0.00602041,0.0043628,0.0129999,-0.0396586,0.0151636,0.110908,-0.0489265,-0.0602875,2.38464e-06,1.71075e-05,-1.58904e-05,0.106206,0.1172921112516978,2.3846428431895106e-06,1.7107646334002524e-05,-0.04774888241643904,-1.5890273748264683e-05,-0.05850618480152414
245,0.2356,875.603,0.00601017,0.00435525,0.0130027,-0.0397319,0.0151758,0.111356,-0.0491259,-0.0605343,2.40656e-06,1.71403e-05,-1.59392e-05,0.106648,0.11779277025678203,2.406562895851394e-06,1.7140446895824724e-05,-0.04793874235961981,-1.5939072971593582e-05,-0.05873851680416664
246,0.2366,876.183,0.00599996,0.00434771,0.0130051,-0.0398046,0.0151878,0.111803,-0.0493253,-0.060781,2.42849e-06,1.71728e-05,-1.59877e-05,0.10709,0.11829253531425565,2.4284929487361495e-06,1.7172947453403253e-05,-0.04812856444850211,-1.5987572197451172e-05,-0.05897069737142058
247,0.2376,876.762,0.00598977,0.0043402,0.0130074,-0.0398768,0.0151997,0.11225,-0.0495247,-0.0610275,2.45044e-06,1.72049e-05,-1.60361e-05,0.107533,0.11879252381664629,2.4504430022886936e-06,1.7205048005175527e-05,-0.04831834869063323,-1.603597142241231e-05,-0.05920263250733859
248,0.2386,877.338,0.00597961,0.0043327,0.0130094,-0.0399485,0.0152115,0.112697,-0.0497239,-0.061274,2.47241e-06,1.72368e-05,-1.60843e-05,0.107975,0.11929273586385603,2.4724130565090263e-06,1.7236948554488762e-05,-0.04850790479515932,-1.60841706483561e-05,-0.05943451047829151
249,0.2396,877.912,0.00596948,0.00432523,0.0130111,-0.0400196,0.0152232,0.113143,-0.049923,-0.0615203,2.49439e-06,1.72683e-05,-1.61323e-05,0.108416,0.11979205176322005,2.494393110952231e-06,1.726844909799574e-05,-0.04869732801360738,-1.613216987517152e-05,-0.05966614323161612
250,0.2406,878.484,0.00595937,0.00431777,0.0130126,-0.0400903,0.0152347,0.11359,-0.0501221,-0.0617666,2.51639e-06,1.72996e-05,-1.61801e-05,0.108858,0.12029271069929415,2.5163931660632244e-06,1.7299749639043682e-05,-0.048886713521646974,-1.617996910285857e-05,-0.05989771894081897
251,0.2416,879.054,0.00594929,0.00431034,0.0130138,-0.0401604,0.0152461,0.114036,-0.050321,-0.0620127,2.53841e-06,1.73305e-05,-1.62276e-05,0.109299,0.12079247268690496,2.5384132218420064e-06,1.7330650174063322e-05,-0.04907587114197853,-1.6227468333185335e-05,-0.06012904964577681
252,0.2426,879.622,0.00593924,0.00430292,0.0130148,-0.04023,0.0152574,0.114482,-0.0505199,-0.0622587,2.56044e-06,1.73612e-05,-1.6275e-05,0.109741,0.12129245761807494,2.5604432778436603e-06,1.736135070640188e-05,-0.049264991142600856,-1.6274867562948714e-05,-0.06036022946328057
253,0.2436,880.187,0.00592921,0.00429553,0.0130155,-0.0402992,0.0152685,0.114928,-0.0507187,-0.0625046,2.58248e-06,1.73915e-05,-1.63222e-05,0.110182,0.12179266559225943,2.5824833345122755e-06,1.739165123293418e-05,-0.04945397847639832,-1.6322066793583723e-05,-0.060591258476674126
254,0.2446,880.751,0.00591921,0.00428815,0.013016,-0.0403678,0.0152796,0.115373,-0.0509174,-0.0627504,2.60454e-06,1.74215e-05,-1.63691e-05,0.110623,0.1222919744164217,2.6045433918486793e-06,1.742165175522281e-05,-0.04964283320753615,-1.6368966026969467e-05,-0.06082213676923598
255,0.2456,881.312,0.00590924,0.00428079,0.0130163,-0.040436,0.0152905,0.115819,-0.051116,-0.0629961,2.62661e-06,1.74513e-05,-1.64159e-05,0.111063,0.12279262827452264,2.6266134496299998e-06,1.745145227483036e-05,-0.04983155540012718,-1.6415765259902848e-05,-0.06105286442417868
256,0.2466,881.871,0.00589929,0.00427346,0.0130163,-0.0405036,0.0153013,0.116264,-0.0513145,-0.0632417,2.64869e-06,1.74807e-05,-1.64625e-05,0.111504,0.12329238218110206,2.648693507856237e-06,1.7480852788409607e-05,-0.050020145118231496,-1.6462364493818882e-05,-0.06128344152464915
257,0.2476,882.429,0.00588936,0.00426614,0.0130161,-0.0405708,0.015312,0.116709,-0.051513,-0.0634872,2.67079e-06,1.75099e-05,-1.65089e-05,0.111944,0.12379235852765924,2.670793566528218e-06,1.7510053299085726e-05,-0.0502086974049919,-1.650876372882859e-05,-0.061513868153728835
258,0.2486,882.984,0.00587947,0.00425884,0.0130157,-0.0406375,0.0153225,0.117154,-0.0517113,-0.0637326,2.69289e-06,1.75388e-05,-1.65551e-05,0.112384,0.12429255741320167,2.6928936258663327e-06,1.753895380574022e-05,-0.0503970223472614,-1.6554962965042996e-05,-0.06174414439443354
259,0.2496,883.537,0.0058696,0.00425156,0.013015,-0.0407037,0.015333,0.117599,-0.0519096,-0.0639778,2.71501e-06,1.75674e-05,-1.66011e-05,0.112824,0.12479297893678143,2.7150136856501916e-06,1.7567554307706956e-05,-0.05058530994839727,-1.66009622024621e-05,-0.06197417652713599
260,0.2506,884.088,0.00585975,0.0042443,0.0130142,-0.0407694,0.0153433,0.118043,-0.0521078,-0.064223,2.73714e-06,1.75957e-05,-1.66469e-05,0.113264,0.12529249790443409,2.737143745878967e-06,1.7595854805207978e-05,-0.05077346529315485,-1.66467614410859e-05,-0.062204152262874124
261,0.2516,884.638,0.00584993,0.00423706,0.013013,-0.0408347,0.0153535,0.118487,-0.0523059,-0.0644681,2.75928e-06,1.76237e-05,-1.66925e-05,0.113703,0.12579223870775236,2.759283806774704e-06,1.7623855298243285e-05,-0.05096148844537218,-1.669236068102542e-05,-0.062433977858877165
262,0.2526,885.185,0.00584014,0.00422984,0.0130117,-0.0408995,0.0153636,0.118931,-0.0525039,-0.064713,2.78143e-06,1.76514e-05,-1.67379e-05,0.114143,0.126292201445253,2.781433868115357e-06,1.7651555786812878e-05,-0.0511493794688348,-1.6737759922169637e-05,-0.06266355966425996
263,0.2536,885.73,0.00583037,0.00422264,0.0130102,-0.0409638,0.0153736,0.119375,-0.0527018,-0.0649578,2.80359e-06,1.76788e-05,-1.67831e-05,0.114582,0.1267923862154965,2.8035939301229718e-06,1.7678956270916757e-05,-0.05133713842727616,-1.678295916451855e-05,-0.06289299154124672
264,0.2546,886.274,0.00582063,0.00421546,0.0130084,-0.0410277,0.0153835,0.119819,-0.0528997,-0.0652026,2.82576e-06,1.7706e-05,-1.68282e-05,0.115021,0.12729279311708774,2.8257639923534583e-06,1.7706156752117508e-05,-0.051524860231896175,-1.6828058406637147e-05,-0.06312236726018394
265,0.2556,886.815,0.00581091,0.0042083,0.0130064,-0.0410911,0.0153933,0.120262,-0.0530974,-0.0654472,2.84794e-06,1.77329e-05,-1.68731e-05,0.11546,0.1277922944558163,2.8479440554729507e-06,1.7733057228852545e-05,-0.05171235523253681,-1.6872957650071463e-05,-0.06335149950513608
266,0.2566,887.355,0.00580122,0.00420115,0.0130042,-0.0411541,0.0154029,0.120705,-0.0532951,-0.0656917,2.87012e-06,1.77595e-05,-1.69177e-05,0.115898,0.12829201712265847,2.8701241188144877e-06,1.7759657700899822e-05,-0.05189981316907977,-1.691755689647856e-05,-0.06358048206924793
267,0.2576,887.893,0.00579155,0.00419402,0.0130017,-0.0412166,0.0154125,0.121148,-0.0534926,-0.0659361,2.89231e-06,1.77859e-05,-1.69622e-05,0.116337,0.12879196121568426,2.892314182822986e-06,1.7786058170043972e-05,-0.05208704446627965,-1.6962056142655335e-05,-0.06380931503490272
268,0.2586,888.429,0.00578191,0.00418692,0.0129991,-0.0412787,0.0154219,0.121591,-0.0536901,-0.0661804,2.91451e-06,1.78119e-05,-1.70066e-05,0.116775,0.12929212683300717,2.9145142472764007e-06,1.7812058632937777e-05,-0.05227423878894977,-1.7006455388601793e-05,-0.06403799848441905
269,0.2596,888.963,0.0057723,0.00417983,0.0129963,-0.0413403,0.0154313,0.122034,-0.0538875,-0.0664246,2.93672e-06,1.78377e-05,-1.70507e-05,0.117213,0.12979251407278447,2.936724312174732e-06,1.783785909270641e-05,-0.05246130139052663,-1.7050554637632054e-05,-0.0642665325000501
270,0.2606,889.495,0.00576271,0.00417276,0.0129932,-0.0414015,0.0154405,0.122476,-0.0540849,-0.0666687,2.95893e-06,1.78633e-05,-1.70946e-05,0.117651,0.1302919927406585,2.9589343777391974e-06,1.786345954979396e-05,-0.05264832706959033,-1.709445388820008e-05,-0.06449491716398459
271,0.2616,890.025,0.00575314,0.00416571,0.01299,-0.0414623,0.0154497,0.122919,-0.0542821,-0.0669127,2.98115e-06,1.78885e-05,-1.71384e-05,0.118089,0.13079282301915884,2.9811544435265347e-06,1.7888660000187073e-05,-0.05283512640047283,-1.7138253138426762e-05,-0.06472315255834615
272,0.2626,890.553,0.0057436,0.00415868,0.0129865,-0.0415226,0.0154587,0.123361,-0.0544792,-0.0671566,3.00338e-06,1.79135e-05,-1.7182e-05,0.118526,0.13129274392131363,3.0033845102028778e-06,1.791366044767706e-05,-0.05302179420034325,-1.7181852390302232e-05,-0.06495123876519349
273,0.2636,891.08,0.00573408,0.00415167,0.0129828,-0.0415825,0.0154676,0.123803,-0.0546763,-0.0674004,3.02561e-06,1.79383e-05,-1.72254e-05,0.118964,0.13179288583734783,3.0256145771012655e-06,1.793846089226392e-05,-0.05320842521161606,-1.7225251643604444e-05,-0.06517917586652089
274,0.2646,891.605,0.00572459,0.00414467,0.012979,-0.041642,0.0154765,0.124244,-0.0548733,-0.0676441,3.04784e-06,1.79628e-05,-1.72687e-05,0.119401,0.13229211657228834,3.047844644665787e-06,1.796296133216302e-05,-0.05339492478103858,-1.7268550896898383e-05,-0.0654069639442576
275,0.2656,892.128,0.00571512,0.00413769,0.0129749,-0.041701,0.0154852,0.124686,-0.0550702,-0.0678876,3.07008e-06,1.7987e-05,-1.73117e-05,0.119838,0.1327927003086693,3.070084712675225e-06,1.7987161767152315e-05,-0.0535812929717987,-1.7311550153387145e-05,-0.06563450964372397
276,0.2666,892.649,0.00570568,0.00413074,0.0129706,-0.0417596,0.0154938,0.125127,-0.055267,-0.0681311,3.09233e-06,1.80109e-05,-1.73546e-05,0.120274,0.13329237205902844,3.0923347813516244e-06,1.801106219723181e-05,-0.05376752984703226,-1.735444940975661e-05,-0.06586199994255781
277,0.2676,893.169,0.00569626,0.00412379,0.0129662,-0.0418178,0.0155024,0.125568,-0.0554637,-0.0683744,3.11457e-06,1.80346e-05,-1.73973e-05,0.120711,0.13379226421322477,3.114574850249241e-06,1.8034762624408174e-05,-0.053953635469823236,-1.7397148667885887e-05,-0.0660892480721158
278,0.2686,893.686,0.00568686,0.00411687,0.0129615,-0.0418756,0.0155108,0.126009,-0.0556603,-0.0686177,3.13682e-06,1.80581e-05,-1.74399e-05,0.121147,0.13429237686847806,3.1368249198138187e-06,1.8058263048459366e-05,-0.0541396099032041,-1.7439747925784843e-05,-0.0663164409189293
279,0.2696,894.202,0.00567749,0.00410997,0.0129566,-0.041933,0.0155191,0.12645,-0.0558569,-0.0688608,3.15908e-06,1.80813e-05,-1.74822e-05,0.121584,0.13479271012205074,3.159084989823313e-06,1.8081463467600756e-05,-0.05432554777760523,-1.748204718721169e-05,-0.06654339180514401
280,0.2706,894.717,0.00566814,0.00410308,0.0129516,-0.0419899,0.0155274,0.12689,-0.0560533,-0.0691039,3.18133e-06,1.81042e-05,-1.75244e-05,0.12202,0.13529212877855157,3.181335060498114e-06,1.8104363882054386e-05,-0.054511260002484185,-1.7524246448630265e-05,-0.06677028752630387
281,0.2716,895.229,0.00565882,0.00409622,0.0129464,-0.0420465,0.0155355,0.127331,-0.0562497,-0.0693468,3.20359e-06,1.81269e-05,-1.75664e-05,0.122455,0.13579290301994718,3.2035951313957867e-06,1.81270642931608e-05,-0.0546969357570638,-1.7566245711697626e-05,-0.06699694149522484
282,0.2726,895.74,0.00564952,0.00408937,0.0129409,-0.0421026,0.0155436,0.127771,-0.056446,-0.0695896,3.22585e-06,1.81493e-05,-1.76083e-05,0.122891,0.13629276185815598,3.2258552029595933e-06,1.8149464699579454e-05,-0.054882480536758704,-1.7608144974756712e-05,-0.06722344713893191
283,0.2736,896.249,0.00564025,0.00408253,0.0129353,-0.0421584,0.0155516,0.128211,-0.0566422,-0.0698323,3.24811e-06,1.81715e-05,-1.765e-05,0.123327,0.13679284068264708,3.2481152751895337e-06,1.817166510265089e-05,-0.0550678944043822,-1.764984423968663e-05,-0.06744980453872973
284,0.2746,896.757,0.005631,0.00407572,0.0129295,-0.0422138,0.0155594,0.12865,-0.0568383,-0.070075,3.27037e-06,1.81935e-05,-1.76915e-05,0.123762,0.1372920022976647,3.2703753476415187e-06,1.81936655028192e-05,-0.055253177422695865,-1.7691343506376356e-05,-0.06767610700825266
285,0.2756,897.262,0.00562177,0.00406892,0.0129236,-0.0422687,0.0155672,0.12909,-0.0570344,-0.0703175,3.29263e-06,1.82152e-05,-1.77329e-05,0.124197,0.13779252088468974,3.2926354207596376e-06,1.8215365897855662e-05,-0.05543842411057187,-1.7732742773057808e-05,-0.06790216814128291
286,0.2766,897.767,0.00561257,0.00406214,0.0129174,-0.0423233,0.0155749,0.129529,-0.0572303,-0.0705599,3.31489e-06,1.82366e-05,-1.77741e-05,0.124632,0.13829212145565983,3.3148954943218456e-06,1.8236766287760275e-05,-0.055623445599842,-1.777394204161009e-05,-0.06812808127394765
287,0.2776,898.269,0.00560339,0.00405538,0.0129111,-0.0423775,0.0155825,0.129968,-0.0574262,-0.0708022,3.33716e-06,1.82579e-05,-1.78151e-05,0.125067,0.1387919413994294,3.3371655683289703e-06,1.8258066676546392e-05,-0.05580843084695242,-1.7814941312033206e-05,-0.06835384648729481
288,0.2786,898.77,0.00559423,0.00404864,0.0129046,-0.0424312,0.01559,0.130407,-0.057622,-0.0710444,3.35942e-06,1.82788e-05,-1.78559e-05,0.125501,0.13929198081232408,3.3594256427793567e-06,1.8278967058193984e-05,-0.055993285458335595,-1.785574058432715e-05,-0.06857946386230862
289,0.2796,899.269,0.00558509,0.00404191,0.0128979,-0.0424846,0.0155975,0.130846,-0.0578177,-0.0712865,3.38168e-06,1.82996e-05,-1.78966e-05,0.125935,0.1397922397907123,3.381685717895877e-06,1.829976743872308e-05,-0.05617800949653473,-1.7896439856834867e-05,-0.06880493347990901
290,0.2806,899.767,0.00557598,0.0040352,0.012891,-0.0425377,0.0156048,0.131285,-0.0580133,-0.0715284,3.40394e-06,1.83201e-05,-1.79372e-05,0.12637,0.14029271843100433,3.4039457934564865e-06,1.8320267814120328e-05,-0.05636260302404161,-1.793703912944533e-05,-0.0690301623239733
291,0.2816,900.263,0.0055669,0.00402851,0.0128839,-0.0425903,0.0156121,0.131723,-0.0582088,-0.0717703,3.4262e-06,1.83403e-05,-1.79775e-05,0.126804,0.14079227603680633,3.4262058694611852e-06,1.8340468184385728e-05,-0.05654706610329696,-1.797733840569471e-05,-0.06925533669176931
292,0.2826,900.757,0.00555783,0.00402184,0.0128767,-0.0426426,0.0156192,0.132161,-0.0584043,-0.0720121,3.44845e-06,1.83604e-05,-1.80178e-05,0.127237,0.14129205249676513,3.4484559459091457e-06,1.836056855308854e-05,-0.056731493123545085,-1.8017637680389775e-05,-0.06948036354451437
293,0.2836,901.25,0.00554879,0.00401518,0.0128693,-0.0426945,0.0156263,0.132599,-0.0585996,-0.0722538,3.47071e-06,1.83802e-05,-1.80578e-05,0.127671,0.14179204790676025,3.4707160230240675e-06,1.838036891688155e-05,-0.05691569547499298,-1.80576369589458e-05,-0.06970524296287317
294,0.2846,901.741,0.00553977,0.00400854,0.0128617,-0.042746,0.0156333,0.133037,-0.0587949,-0.0724954,3.49296e-06,1.83997e-05,-1.80977e-05,0.128105,0.1422922623627123,3.4929661003602064e-06,1.8399869275542713e-05,-0.0570998618552343,-1.8097536237604572e-05,-0.0699299750274468
295,0.2856,902.231,0.00553078,0.00400192,0.012854,-0.0427971,0.0156402,0.133475,-0.0589901,-0.0727368,3.51521e-06,1.84191e-05,-1.81374e-05,0.128538,0.14279269596058453,3.515216178362479e-06,1.841926963264129e-05,-0.05728389799968814,-1.813723551835622e-05,-0.07015446683422388
296,0.2866,902.719,0.00552181,0.00399532,0.0128461,-0.0428479,0.0156471,0.133912,-0.0591852,-0.0729782,3.53745e-06,1.84382e-05,-1.8177e-05,0.128971,0.14329220550360522,3.5374562568080137e-06,1.8438369984608016e-05,-0.05746780397057749,-1.817683479932164e-05,-0.07037890445521933
297,0.2876,903.205,0.00551286,0.00398873,0.012838,-0.0428983,0.0156538,0.134349,-0.0593802,-0.0732194,3.5597e-06,1.84571e-05,-1.82165e-05,0.129404,0.14379193337999863,3.559706335698465e-06,1.8457270333227527e-05,-0.05765157983007463,-1.821633408061185e-05,-0.07060310202415099
298,0.2886,903.69,0.00550393,0.00398216,0.0128298,-0.0429484,0.0156605,0.134787,-0.0595752,-0.0734606,3.58193e-06,1.84757e-05,-1.82557e-05,0.129836,0.14429302397764898,3.5819364150313504e-06,1.847587067671519e-05,-0.057835319856772927,-1.825553336576302e-05,-0.07082724552315012
299,0.2896,904.174,0.00549502,0.0039756,0.0128214,-0.0429981,0.0156671,0.135223,-0.05977,-0.0737016,3.60417e-06,1.84942e-05,-1.82948e-05,0.130269,0.1447920445146753,3.604176495031197e-06,1.849437101886231e-05,-0.05801883566144517,-1.8294632651127962e-05,-0.07105114917550526
300,0.2906,904.656,0.00548614,0.00396906,0.0128128,-0.0430474,0.0156736,0.13566,-0.0599648,-0.0739426,3.6264e-06,1.85124e-05,-1.83338e-05,0.130701,0.1452924279639487,3.6264065754743058e-06,1.8512571355433494e-05,-0.05820231572072032,-1.8333631936928718e-05,-0.07127499887358191
301,0.2916,905.136,0.00547728,0.00396254,0.0128041,-0.0430964,0.01568,0.136097,-0.0601595,-0.0741834,3.64862e-06,1.85304e-05,-1.83726e-05,0.131134,0.14579303012857525,3.6486266561386316e-06,1.8530571688879505e-05,-0.058385665880132276,-1.837243122482235e-05,-0.07149860893012183
302,0.2926,905.615,0.00546844,0.00395604,0.0127952,-0.043145,0.0156864,0.136533,-0.0603541,-0.0744242,3.67084e-06,1.85481e-05,-1.84113e-05,0.131566,0.14629270481087642,3.670846737469091e-06,1.8548272016971623e-05,-0.05856888620163647,-1.8411130513040774e-05,-0.07172216514784258
303,0.2936,906.093,0.00545963,0.00394955,0.0127862,-0.0431933,0.0156927,0.136969,-0.0605486,-0.0746648,3.69306e-06,1.85657e-05,-1.84498e-05,0.131997,0.14679259739883932,3.69306681924364e-06,1.85658723437232e-05,-0.0587519767471375,-1.8449629803463097e-05,-0.071945481928822
304,0.2946,906.569,0.00545083,0.00394308,0.012777,-0.0432413,0.0156988,0.137405,-0.060743,-0.0749053,3.71527e-06,1.8583e-05,-1.84881e-05,0.132429,0.14729270798749106,3.7152769016834952e-06,1.8583172665120884e-05,-0.05893493757848889,-1.8487929096089317e-05,-0.07216865220311697
305,0.2956,907.043,0.00544206,0.00393662,0.0127676,-0.0432888,0.015705,0.13784,-0.0609374,-0.0751458,3.73747e-06,1.86001e-05,-1.85263e-05,0.13286,0.14779188887943828,3.7374769843445677e-06,1.8600272982949306e-05,-0.05911786284571163,-1.8526128389151353e-05,-0.07239176881141451
306,0.2966,907.516,0.00543331,0.00393018,0.0127581,-0.0433361,0.015711,0.138276,-0.0611317,-0.0753861,3.75967e-06,1.8617e-05,-1.85644e-05,0.133292,0.1482924352541699,3.759677067671774e-06,1.861717329743051e-05,-0.05930065848578914,-1.856422768253818e-05,-0.0726146462895676
307,0.2976,907.988,0.00542459,0.00392376,0.0127484,-0.043383,0.015717,0.138711,-0.0613259,-0.0756263,3.78186e-06,1.86337e-05,-1.86023e-05,0.133723,0.1487920511220786,3.7818671512201973e-06,1.86338736085645e-05,-0.05948332456046124,-1.860212697823993e-05,-0.0728373775004395
308,0.2986,908.458,0.00541588,0.00391736,0.0127386,-0.0434295,0.0157229,0.139147,-0.06152,-0.0758664,3.80404e-06,1.86502e-05,-1.864e-05,0.134154,0.14929303366262525,3.804047235433927e-06,1.8650373916129226e-05,-0.05966586113141681,-1.86398262762566e-05,-0.0730599625237004
309,0.2996,908.927,0.0054072,0.00391097,0.0127286,-0.0434758,0.0157287,0.139581,-0.061714,-0.0761064,3.82622e-06,1.86665e-05,-1.86776e-05,0.134584,0.14979193509301436,3.826227320091746e-06,1.866667422012469e-05,-0.05984826826029366,-1.8677425574709083e-05,-0.07328240143895715
310,0.3006,909.394,0.00539853,0.00390459,0.0127185,-0.0435217,0.0157345,0.140016,-0.0619079,-0.0763464,3.84839e-06,1.86825e-05,-1.87151e-05,0.135015,0.15029220338524474,3.8483974049707825e-06,1.8682674518988307e-05,-0.060030546008679186,-1.8714924873597383e-05,-0.07350478697527996
311,0.3016,909.86,0.00538989,0.00389824,0.0127082,-0.0435672,0.0157401,0.140451,-0.0621018,-0.0765862,3.87055e-06,1.86983e-05,-1.87524e-05,0.135445,0.1507926893415208,3.870557490515125e-06,1.8698474814282662e-05,-0.06021278841683575,-1.8752224174800602e-05,-0.07372693389088358
312,0.3026,910.324,0.00538127,0.0038919,0.0126978,-0.0436124,0.0157457,0.140885,-0.0622955,-0.0768259,3.8927e-06,1.8714e-05,-1.87896e-05,0.135875,0.15129224176372946,3.89270757650273e-06,1.871417510801443e-05,-0.06039480757059523,-1.878942347655066e-05,-0.07394893493694166
313,0.3036,910.788,0.00537268,0.00388557,0.0126872,-0.0436573,0.0157513,0.141319,-0.0624892,-0.0770655,3.91485e-06,1.87294e-05,-1.88266e-05,0.136305,0.15179201103874318,3.914857662934423e-06,1.8729575396392306e-05,-0.060576791470659086,-1.882642278072666e-05,-0.0741707901928097
314,0.3046,911.249,0.0053641,0.00387926,0.0126765,-0.0437019,0.0157567,0.141753,-0.0626828,-0.077305,3.93699e-06,1.87446e-05,-1.88635e-05,0.136735,0.1522919972606962,3.9369977500314235e-06,1.874477568120092e-05,-0.0607586461997246,-1.8863322085338474e-05,-0.07439249973778073
315,0.3056,911.71,0.00535554,0.00387297,0.0126656,-0.0437461,0.0157621,0.142187,-0.0628763,-0.0775444,3.95911e-06,1.87596e-05,-1.89002e-05,0.137165,0.15279220052376408,3.959117837348813e-06,1.8759775962440273e-05,-0.06094037181916423,-1.890002139237623e-05,-0.07461406365108492
316,0.3066,912.169,0.00534701,0.00386669,0.0126546,-0.0437901,0.0157674,0.142621,-0.0630698,-0.0777837,3.98123e-06,1.87745e-05,-1.89368e-05,0.137594,0.153292620922163,3.9812379251102925e-06,1.877467624211704e-05,-0.061122062278098355,-1.8936620699960827e-05,-0.07483548201188972
317,0.3076,912.626,0.0053385,0.00386043,0.0126434,-0.0438337,0.0157727,0.143054,-0.0632631,-0.0780229,4.00334e-06,1.87891e-05,-1.89733e-05,0.138023,0.15379210475746863,4.0033480133150334e-06,1.8789276516217868e-05,-0.06130352984405474,-1.897312000809226e-05,-0.07505675489930008
318,0.3086,913.082,0.00533,0.00385418,0.0126322,-0.0438769,0.0157779,0.143488,-0.0634564,-0.078262,4.02544e-06,1.88035e-05,-1.90096e-05,0.138453,0.15429295920848785,4.025448102185081e-06,1.880367678697148e-05,-0.06148496233572065,-1.9009419318649634e-05,-0.07527788239235844
319,0.3096,913.537,0.00532153,0.00384795,0.0126207,-0.0439199,0.015783,0.143921,-0.0636496,-0.0785009,4.04753e-06,1.88177e-05,-1.90458e-05,0.138881,0.15479287628406113,4.047538191276345e-06,1.8817877053933785e-05,-0.06166626592650659,-1.904561862986487e-05,-0.0754987721199264
320,0.3106,913.991,0.00531308,0.00384174,0.0126091,-0.0439625,0.015788,0.144354,-0.0638427,-0.0787398,4.06961e-06,1.88317e-05,-1.90818e-05,0.13931,0.15529300987059957,4.069618280810872e-06,1.8831877317548873e-05,-0.061847440677570975,-1.908161794361707e-05,-0.07571960908324138
321,0.3116,914.443,0.00530465,0.00383554,0.0125974,-0.0440049,0.015793,0.144786,-0.0640357,-0.0789786,4.09168e-06,1.88455e-05,-1.91177e-05,0.139739,0.15579220426909024,4.091688371010704e-06,1.88456775775947e-05,-0.06202848665002192,-1.9117517257916106e-05,-0.07594030088894188
322,0.3126,914.894,0.00529624,0.00382936,0.0125856,-0.0440469,0.0157979,0.145219,-0.0642287,-0.0792173,4.11374e-06,1.88592e-05,-1.91535e-05,0.140167,0.15629277065834102,4.113748461431754e-06,1.8859377835855895e-05,-0.06220949768397177,-1.9153316572873003e-05,-0.07616084761582065
323,0.3136,915.343,0.00528786,0.00382319,0.0125736,-0.0440886,0.0158028,0.145651,-0.0644215,-0.0794559,4.13579e-06,1.88726e-05,-1.91891e-05,0.140595,0.15679239704679526,4.135798552296066e-06,1.8872778088541153e-05,-0.06239028626423915,-1.9188915890366864e-05,-0.07638124934260793
324,0.3146,915.792,0.00527949,0.00381704,0.0125615,-0.04413,0.0158076,0.146083,-0.0646143,-0.0796944,4.15783e-06,1.88858e-05,-1.92246e-05,0.141023,0.15729223932047698,4.157838643825684e-06,1.8885978337879195e-05,-0.06257103999182811,-1.9224415208518586e-05,-0.07660150614797157
325,0.3156,916.238,0.00527114,0.0038109,0.0125492,-0.0441711,0.0158123,0.146515,-0.064807,-0.0799327,4.17986e-06,1.88989e-05,-1.926e-05,0.141451,0.1577922975726691,4.17986873557652e-06,1.8899078585432605e-05,-0.06275166514862895,-1.925981452743919e-05,-0.07682152579267465
326,0.3166,916.684,0.00526281,0.00380478,0.0125368,-0.0442119,0.0158169,0.146947,-0.0649996,-0.080171,4.20187e-06,1.89117e-05,-1.92952e-05,0.141879,0.1582925718966941,4.201878827769789e-06,1.8911878827410078e-05,-0.06293216179553629,-1.9295013848785736e-05,-0.07704149301294305
327,0.3176,917.128,0.00525451,0.00379867,0.0125243,-0.0442524,0.0158215,0.147378,-0.0651921,-0.0804092,4.22387e-06,1.89244e-05,-1.93303e-05,0.142306,0.15879190359343265,4.2238789206283656e-06,1.892457906760292e-05,-0.06311252999339456,-1.9330113170901164e-05,-0.07726131554740412
328,0.3186,917.572,0.00524622,0.00379258,0.0125116,-0.0442926,0.015826,0.14781,-0.0653846,-0.0806473,4.24586e-06,1.89368e-05,-1.93652e-05,0.142733,0.15929260984054738,4.245869013708159e-06,1.8936979302219825e-05,-0.06329286347371654,-1.9365012495775602e-05,-0.07748099347447723
329,0.3196,918.013,0.00523796,0.0037865,0.0124988,-0.0443325,0.0158305,0.148241,-0.065577,-0.0808852,4.26784e-06,1.89491e-05,-1.94e-05,0.143161,0.1597923726465369,4.267849107231214e-06,1.8949279535274144e-05,-0.06347306859049606,-1.9399811821196877e-05,-0.07770043464256782
330,0.3206,918.454,0.00522971,0.00378044,0.0124859,-0.0443721,0.0158349,0.148672,-0.0657692,-0.0811231,4.28981e-06,1.89612e-05,-1.94347e-05,0.143587,0.16029235089672067,4.289819201197531e-06,1.89613797647592e-05,-0.06365305176977532,-1.9434511147387035e-05,-0.07791982361181371
331,0.3216,918.893,0.00522148,0.00377439,0.0124728,-0.0444114,0.0158392,0.149103,-0.0659614,-0.0813609,4.31176e-06,1.89731e-05,-1.94693e-05,0.144014,0.1607925446839753,4.3117692956062825e-06,1.897327999045295e-05,-0.06383300035961181,-1.9469110474457096e-05,-0.0781390682085431
332,0.3226,919.331,0.00521328,0.00376836,0.0124597,-0.0444504,0.0158435,0.149534,-0.0661536,-0.0815985,4.3337e-06,1.89848e-05,-1.95037e-05,0.144441,0.16129295410121713,4.333709390458296e-06,1.8984980212355396e-05,-0.06401291436665268,-1.9503509804064123e-05,-0.07835807634673964
333,0.3236,919.768,0.00520509,0.00376234,0.0124463,-0.0444891,0.0158477,0.149964,-0.0663456,-0.0818361,4.35563e-06,1.89964e-05,-1.9538e-05,0.144867,0.16179241744840445,4.355639485753571e-06,1.8996580432695254e-05,-0.06419260663608439,-1.9537809134551054e-05,-0.07857703245478387
334,0.3246,920.203,0.00519693,0.00375634,0.0124329,-0.0445275,0.0158519,0.150394,-0.0665376,-0.0820736,4.37754e-06,1.90077e-05,-1.95721e-05,0.145293,0.162292095611013,4.37754958149128e-06,1.9007880647459174e-05,-0.06437226440791233,-1.9571908467685972e-05,-0.07879584442462595
335,0.3256,920.638,0.00518878,0.00375036,0.0124194,-0.0445657,0.015856,0.150824,-0.0667294,-0.0823109,4.39944e-06,1.90189e-05,-1.96062e-05,0.145719,0.1627919886814333,4.399449677450207e-06,1.9019080860438464e-05,-0.06455170059911808,-1.9606007799710667e-05,-0.07901442023569827
336,0.3266,921.071,0.00518065,0.00374438,0.0124057,-0.0446035,0.01586,0.151254,-0.0669212,-0.0825482,4.42133e-06,1.90299e-05,-1.96401e-05,0.146145,0.16329209675209566,4.42133977407444e-06,1.9030081069626448e-05,-0.06473110237776258,-1.9639907134494372e-05,-0.07923294418488436
337,0.3276,921.503,0.00517255,0.00373843,0.0123919,-0.0446411,0.015864,0.151684,-0.0671129,-0.0827854,4.4432e-06,1.90407e-05,-1.96739e-05,0.146571,0.1637924199154701,4.443209870919063e-06,1.904088127524517e-05,-0.06491037624148788,-1.967370647004696e-05,-0.07945132422962653
338,0.3286,921.933,0.00516446,0.00373248,0.0123779,-0.0446784,0.0158679,0.152114,-0.0673046,-0.0830224,4.46506e-06,1.90514e-05,-1.97075e-05,0.146996,0.1642929582640662,4.465069968428992e-06,1.905158147907926e-05,-0.06508961574170746,-1.9707305808469577e-05,-0.07966946841467704
339,0.3296,922.363,0.00515639,0.00372655,0.0123639,-0.0447154,0.0158718,0.152543,-0.0674961,-0.0832594,4.4869e-06,1.90618e-05,-1.9741e-05,0.147422,0.16479254709730418,4.486910066159311e-06,1.9061981677337414e-05,-0.06526863393875348,-1.97408051477721e-05,-0.07988756090568172
340,0.3306,922.791,0.00514834,0.00372064,0.0123497,-0.0447521,0.0158756,0.152972,-0.0676876,-0.0834962,4.50873e-06,1.90721e-05,-1.97744e-05,0.147847,0.16529235030013067,4.508740164332892e-06,1.9072281873588892e-05,-0.06544761785709696,-1.9774204487843505e-05,-0.08010541773599256
341,0.3316,923.218,0.00514031,0.00371474,0.0123354,-0.0447886,0.0158793,0.153401,-0.067879,-0.083733,4.53054e-06,1.90822e-05,-1.98077e-05,0.148272,0.16579236796452967,4.530550262948907e-06,1.908238206627111e-05,-0.06562647406595401,-1.9807503828794815e-05,-0.08032322298391359
342,0.3326,923.644,0.0051323,0.00370885,0.012321,-0.0448247,0.015883,0.15383,-0.0680703,-0.0839697,4.55234e-06,1.90921e-05,-1.98408e-05,0.148697,0.16629260018252534,4.552350362008184e-06,1.9092282255384063e-05,-0.06580520262553335,-1.9840603172616156e-05,-0.08054088471575105
343,0.3336,924.069,0.00512431,0.00370298,0.0123065,-0.0448606,0.0158867,0.154259,-0.0682615,-0.0842062,4.57413e-06,1.91019e-05,-1.98738e-05,0.149121,0.1667930470461807,4.574140461288678e-06,1.9102082442490342e-05,-0.06598380359599454,-1.98736025173174e-05,-0.08075831108483422
344,0.3346,924.492,0.00511634,0.00369713,0.0122918,-0.0448962,0.0158902,0.154687,-0.0684526,-0.0844427,4.59589e-06,1.91115e-05,-1.99067e-05,0.149546,0.16729254135447347,4.5959005610107795e-06,1.9111682625805315e-05,-0.06616227703744681,-1.9906501863009574e-05,-0.08097568603866112
345,0.3356,924.915,0.00510839,0.00369128,0.0122771,-0.0449316,0.0158938,0.155115,-0.0686437,-0.084679,4.61764e-06,1.91209e-05,-1.99395e-05,0.14997,0.1677922494920865,4.617650661398187e-06,1.9121082805551026e-05,-0.06634071637588312,-1.9939301209470628e-05,-0.08119282582797371
346,0.3366,925.336,0.00510045,0.00368546,0.0122622,-0.0449667,0.0158972,0.155543,-0.0688347,-0.0849153,4.63938e-06,1.91301e-05,-1.99722e-05,0.150394,0.1682921715505581,4.639390762006812e-06,1.913028298150543e-05,-0.06651902826972744,-1.997200055692261e-05,-0.08140991431321587
347,0.3376,925.756,0.00509254,0.00367964,0.0122472,-0.0450015,0.0159006,0.155971,-0.0690256,-0.0851515,4.6611e-06,1.91392e-05,-2.00047e-05,0.150818,0.16879230762146613,4.661110862835827e-06,1.9139383155675205e-05,-0.06669721277897822,-2.0004499907355644e-05,-0.08162685966920002
348,0.3386,926.175,0.00508464,0.00367384,0.0122321,-0.045036,0.015904,0.156399,-0.0692164,-0.0853875,4.6828e-06,1.91481e-05,-2.00371e-05,0.151242,0.16929265779642755,4.68281096432932e-06,1.9148283326053672e-05,-0.0668752699635844,-2.0036899258668583e-05,-0.08184357015747457
349,0.3396,926.593,0.00507677,0.00366806,0.0122169,-0.0450703,0.0159073,0.156826,-0.0694071,-0.0856235,4.70449e-06,1.91568e-05,-2.00694e-05,0.151665,0.16979205237446116,4.704501066044031e-06,1.9156983492640833e-05,-0.06705319988344516,-2.006919861097245e-05,-0.08206022950810843
350,0.3406,927.01,0.00506891,0.00366229,0.0122015,-0.0451043,0.0159105,0.157254,-0.0695978,-0.0858593,4.72616e-06,1.91654e-05,-2.01015e-05,0.152089,0.1702928305317586,4.7261711682011764e-06,1.9165583657443364e-05,-0.06723109587530551,-2.010129796625737e-05,-0.08227665418851782
351,0.3416,927.425,0.00506107,0.00365653,0.0121861,-0.045138,0.0159137,0.157681,-0.0697884,-0.0860951,4.74781e-06,1.91738e-05,-2.01336e-05,0.152512,0.17079265227474338,4.747821270800756e-06,1.9173983818454587e-05,-0.06740886468652574,-2.0133397320432067e-05,-0.08249302784200385
352,0.3426,927.84,0.00505325,0.00365078,0.0121705,-0.0451715,0.0159169,0.158108,-0.0699789,-0.0863307,4.76945e-06,1.91821e-05,-2.01655e-05,0.152935,0.17129268748718496,4.769461373843598e-06,1.918228397768118e-05,-0.06758650637689478,-2.016529667769884e-05,-0.08270916702244913
353,0.3436,928.253,0.00504544,0.00364505,0.0121548,-0.0452047,0.01592,0.158535,-0.0701693,-0.0865663,4.79106e-06,1.91901e-05,-2.01973e-05,0.153358,0.17179293626025438,4.7910714771060015e-06,1.919028413110979e-05,-0.06776402100615164,-2.019709603595654e-05,-0.08292525528650152
354,0.3446,928.665,0.00503766,0.00363934,0.0121391,-0.0452377,0.015923,0.158961,-0.0703596,-0.0868018,4.81266e-06,1.9198e-05,-2.0229e-05,0.15378,0.17229222639234854,4.812671580811667e-06,1.9198184282753772e-05,-0.06794140863398601,-2.0228795395205168e-05,-0.08314120096028044
355,0.3456,929.076,0.00502989,0.00363363,0.0121232,-0.0452704,0.015926,0.159388,-0.0705499,-0.0870371,4.83425e-06,1.92058e-05,-2.02605e-05,0.154203,0.1727929020596657,4.834261684960595e-06,1.920598443261312e-05,-0.06811876250816662,-2.026029475743485e-05,-0.08335691245624177
356,0.3466,929.486,0.00502215,0.00362794,0.0121072,-0.0453029,0.0159289,0.159814,-0.0707401,-0.0872724,4.85581e-06,1.92134e-05,-2.0292e-05,0.154625,0.1732926182679384,4.855821789551129e-06,1.921358457845912e-05,-0.06829598946471971,-2.0291794118776352e-05,-0.0835725732012591
357,0.3476,929.895,0.00501442,0.00362227,0.0120911,-0.0453351,0.0159318,0.16024,-0.0709302,-0.0875076,4.87736e-06,1.92208e-05,-2.03233e-05,0.155047,0.1737925474006652,4.877371894362881e-06,1.9220984720735856e-05,-0.06847308956322484,-2.032309348309891e-05,-0.08378809158608658
358,0.3486,930.303,0.00500671,0.00361661,0.0120749,-0.045367,0.0159347,0.160666,-0.0711202,-0.0877426,4.89889e-06,1.92281e-05,-2.03545e-05,0.155469,0.1742926895485719,4.898901999617067e-06,1.9228284861005918e-05,-0.06865006286321185,-2.0354292848523414e-05,-0.08400337608764419
359,0.3496,930.71,0.00499901,0.00361096,0.0120586,-0.0453987,0.0159375,0.161092,-0.0713101,-0.0879776,4.9204e-06,1.92352e-05,-2.03856e-05,0.155891,0.17479304480242175,4.920412105091643e-06,1.9235384997706717e-05,-0.0688269094241617,-2.038539221504987e-05,-0.08421861000328801
360,0.3506,931.116,0.00499134,0.00360533,0.0120421,-0.0454301,0.0159402,0.161517,-0.0715,-0.0882125,4.94189e-06,1.92421e-05,-2.04166e-05,0.156313,0.17529243795999183,4.941902211230698e-06,1.9242285130394166e-05,-0.06900372240513819,-2.0416391582678273e-05,-0.08443370178827903
361,0.3516,931.52,0.00498368,0.0035997,0.0120256,-0.0454613,0.0159429,0.161942,-0.0716897,-0.0884472,4.96336e-06,1.92489e-05,-2.04475e-05,0.156734,0.17579204340476173,4.963372317590142e-06,1.9249085261296983e-05,-0.06918031564859928,-2.0447290951297603e-05,-0.08464855998387377
362,0.3526,931.924,0.00497604,0.0035941,0.012009,-0.0454923,0.0159455,0.162368,-0.0718794,-0.0886819,4.98481e-06,1.92555e-05,-2.04783e-05,0.157155,0.17629303751942205,4.984822424169977e-06,1.9255685388408494e-05,-0.06935687539549917,-2.0478090321018882e-05,-0.08486336775816716
363,0.3536,932.326,0.00496842,0.0035885,0.0119923,-0.045523,0.0159481,0.162792,-0.072069,-0.0889165,5.00625e-06,1.9262e-05,-2.05089e-05,0.157576,0.17679189151690422,5.006262531193073e-06,1.926218551351333e-05,-0.06953330860552742,-2.050868969394326e-05,-0.08507803363079969
364,0.3546,932.728,0.00496082,0.00358292,0.0119754,-0.0455534,0.0159507,0.163217,-0.0722586,-0.0891509,5.02766e-06,1.92683e-05,-2.05394e-05,0.157997,0.17729213436487434,5.027672638657776e-06,1.926848563482686e-05,-0.06970970836698998,-2.0539189067969588e-05,-0.08529246620723696
365,0.3556,933.128,0.00495324,0.00357735,0.0119585,-0.0455837,0.0159532,0.163642,-0.072448,-0.0893853,5.04906e-06,1.92745e-05,-2.05699e-05,0.158418,0.17779258986123958,5.0490727465657415e-06,1.9274685754355758e-05,-0.06988588866342449,-2.0569688441107736e-05,-0.08550684852656854
366,0.3566,933.527,0.00494567,0.0035718,0.0119415,-0.0456136,0.0159556,0.164066,-0.0726374,-0.0896196,5.07043e-06,1.92805e-05,-2.06002e-05,0.158839,0.17829207980372552,5.070442854693269e-06,1.928068587009335e-05,-0.07006203559447077,-2.059998781733796e-05,-0.08572108917268695
367,0.3576,933.926,0.00493812,0.00356626,0.0119243,-0.0456434,0.015958,0.164491,-0.0728267,-0.0898537,5.09179e-06,1.92864e-05,-2.06304e-05,0.159259,0.17879296036722248,5.091802963264058e-06,1.9286585983824267e-05,-0.07023805619025769,-2.0630187194781158e-05,-0.08593509681513978
368,0.3586,934.323,0.00493059,0.00356073,0.0119071,-0.0456728,0.0159604,0.164915,-0.0730159,-0.0900878,5.11313e-06,1.92921e-05,-2.06604e-05,0.159679,0.17929287455673704,5.113143072055237e-06,1.9292286093763877e-05,-0.07041395050989907,-2.0660186575427453e-05,-0.08614905436426712
369,0.3596,934.719,0.00492307,0.00355521,0.0118897,-0.0457021,0.0159627,0.165339,-0.0732051,-0.0903218,5.13444e-06,1.92977e-05,-2.06904e-05,0.160099,0.17979300075481053,5.134453181288023e-06,1.9297886201918857e-05,-0.07058981155348332,-2.069018595518557e-05,-0.086362870468086
370,0.3606,935.115,0.00491557,0.00354971,0.0118723,-0.0457311,0.0159649,0.165762,-0.0733941,-0.0905557,5.15574e-06,1.93031e-05,-2.07203e-05,0.160519,0.18029215875860483,5.155753290742027e-06,1.9303286306060485e-05,-0.07076545348041474,-2.0720085336045635e-05,-0.08657654520244917
371,0.3616,935.509,0.00490809,0.00354422,0.0118548,-0.0457599,0.0159672,0.166186,-0.0735831,-0.0907895,5.17701e-06,1.93083e-05,-2.075e-05,0.160939,0.18079270874301634,5.177023400637637e-06,1.9308486406410807e-05,-0.07094106221415886,-2.074978472021982e-05,-0.08679007864314903
372,0.3626,935.902,0.00490063,0.00353874,0.0118372,-0.0457884,0.0159693,0.166609,-0.073772,-0.0910232,5.19827e-06,1.93135e-05,-2.07797e-05,0.161358,0.18129228971274047,5.198283510976509e-06,1.931368650676113e-05,-0.07111654487264774,-2.077948410350583e-05,-0.08700347086591764
373,0.3636,936.294,0.00489319,0.00353328,0.0118194,-0.0458167,0.0159715,0.167032,-0.0739608,-0.0912567,5.2195e-06,1.93184e-05,-2.08092e-05,0.161778,0.18179208204991615,5.219513621534944e-06,1.9318586601535515e-05,-0.07129190151478781,-2.080898349010596e-05,-0.08721663066809504
374,0.3646,936.686,0.00488576,0.00352783,0.0118016,-0.0458448,0.0159735,0.167455,-0.0741496,-0.0914902,5.24071e-06,1.93233e-05,-2.08386e-05,0.162197,0.18229208584397005,5.2407237325358125e-06,1.9323486696087855e-05,-0.07146722505271907,-2.083838287791906e-05,-0.08742974070326914
375,0.3656,937.076,0.00487835,0.00352239,0.0117837,-0.0458727,0.0159756,0.167878,-0.0743382,-0.0917236,5.2619e-06,1.93279e-05,-2.08679e-05,0.162616,0.18279230118436818,5.261913843757071e-06,1.9328086785064258e-05,-0.07164232982117547,-2.086768226683411e-05,-0.08764270974733479
376,0.3666,937.465,0.00487095,0.00351697,0.0117657,-0.0459003,0.0159776,0.168301,-0.0745268,-0.0919569,5.28307e-06,1.93325e-05,-2.08972e-05,0.163035,0.1832927281606127,5.283083955420764e-06,1.933268687404066e-05,-0.07181740156798655,-2.0896981655083025e-05,-0.08785553787578415
377,0.3676,937.854,0.00486358,0.00351156,0.0117476,-0.0459277,0.0159795,0.168723,-0.0747153,-0.0921901,5.30422e-06,1.93369e-05,-2.09263e-05,0.163453,0.1837921830694702,5.304234067304847e-06,1.9337086959003713e-05,-0.07199234749861894,-2.092608104653504e-05,-0.08806822516404988
378,0.3686,938.241,0.00485622,0.00350616,0.0117294,-0.0459548,0.0159814,0.169146,-0.0749037,-0.0924232,5.32535e-06,1.93411e-05,-2.09553e-05,0.163872,0.18429303308521883,5.3253641796313644e-06,1.934128704017546e-05,-0.07216716767177278,-2.0955080439200025e-05,-0.08828077168750448
379,0.3696,938.627,0.00484887,0.00350077,0.0117111,-0.0459818,0.0159833,0.169568,-0.0750921,-0.0926562,5.34645e-06,1.93452e-05,-2.09841e-05,0.16429,0.1847929102118362,5.346464292399489e-06,1.9345387119562574e-05,-0.07234195491190842,-2.0983879835290153e-05,-0.08849317752146069
380,0.3706,939.013,0.00484155,0.00349539,0.0116928,-0.0460085,0.0159851,0.16999,-0.0752803,-0.0928891,5.36754e-06,1.93492e-05,-2.10129e-05,0.164708,0.18529299833111734,5.367554405166786e-06,1.9349387196943013e-05,-0.0725165237285531,-2.1012679230603126e-05,-0.08870544274117165
381,0.3716,939.397,0.00483424,0.00349003,0.0116743,-0.0460349,0.0159869,0.170411,-0.0754685,-0.0931219,5.3886e-06,1.9353e-05,-2.10416e-05,0.165126,0.18579211173941523,5.388614518597734e-06,1.9353187270532146e-05,-0.0726910596944379,-2.104137862712907e-05,-0.08891756742183055
382,0.3726,939.781,0.00482694,0.00348468,0.0116557,-0.0460612,0.0159886,0.170833,-0.0756566,-0.0933546,5.40964e-06,1.93567e-05,-2.10702e-05,0.165544,0.18629262161072435,5.409654632027028e-06,1.9356887342114604e-05,-0.07286547010229627,-2.1069978024867986e-05,-0.08912955163857139
383,0.3736,940.163,0.00481967,0.00347935,0.0116371,-0.0460873,0.0159903,0.171254,-0.0758447,-0.0935872,5.43065e-06,1.93602e-05,-2.10987e-05,0.165962,0.18679215594902265,5.4306647458979285e-06,1.9360387409905755e-05,-0.07303984770664218,-2.1098477424041917e-05,-0.08934139546646791
384,0.3746,940.545,0.00481241,0.00347402,0.0116184,-0.0461131,0.015992,0.171675,-0.0760326,-0.0938197,5.45165e-06,1.93636e-05,-2.1127e-05,0.166379,0.18729190063555223,5.451664860212091e-06,1.936378747569023e-05,-0.07321400715646531,-2.112677682652997e-05,-0.08955309898053476
385,0.3756,940.925,0.00480517,0.00346871,0.0115995,-0.0461387,0.0159936,0.172097,-0.0762205,-0.0940522,5.47262e-06,1.93669e-05,-2.11553e-05,0.166796,0.18779304355133863,5.472634974745816e-06,1.9367087539690075e-05,-0.07338813388480225,-2.1155076228240866e-05,-0.08976475327925615
386,0.3766,941.305,0.00479794,0.00346341,0.0115806,-0.0461641,0.0159952,0.172517,-0.0764083,-0.0942845,5.49357e-06,1.937e-05,-2.11835e-05,0.167213,0.18829202140764512,5.493585089721975e-06,1.937018759967657e-05,-0.07356213525401867,-2.1183275631275755e-05,-0.08997617636932675
387,0.3776,941.684,0.00479073,0.00345812,0.0115616,-0.0461892,0.0159967,0.172938,-0.076596,-0.0945167,5.5145e-06,1.9373e-05,-2.12115e-05,0.16763,0.1887923976704704,5.514515204918524e-06,1.9373187657878432e-05,-0.073736011322452,-2.121127503773579e-05,-0.09018745937026806
388,0.3786,942.061,0.00478354,0.00345285,0.0115425,-0.0462142,0.0159982,0.173359,-0.0767836,-0.0947488,5.5354e-06,1.93759e-05,-2.12395e-05,0.168047,0.18929298463605226,5.535415320334636e-06,1.937608771407362e-05,-0.07390976214839085,-2.1239274443418665e-05,-0.0903986023568567
389,0.3796,942.438,0.00477636,0.00344758,0.0115234,-0.0462389,0.0159996,0.173779,-0.0769712,-0.0949809,5.55628e-06,1.93786e-05,-2.12673e-05,0.168464,0.18979259259992753,5.5562954361931816e-06,1.9378787766255456e-05,-0.07408348038173207,-2.1267073852526686e-05,-0.09060969634284499
390,0.3806,942.814,0.0047692,0.00344233,0.0115041,-0.0462634,0.016001,0.174199,-0.0771587,-0.0952128,5.57713e-06,1.93812e-05,-2.12951e-05,0.16888,0.19029241044321932,5.57714555227129e-06,1.9381387816652662e-05,-0.07425707345430133,-2.1294873260968572e-05,-0.09082055950373458
391,0.3816,943.189,0.00476206,0.00343709,0.0114848,-0.0462877,0.0160024,0.174619,-0.0773461,-0.0954446,5.59797e-06,1.93837e-05,-2.13228e-05,0.169296,0.1907924382540953,5.597985668570615e-06,1.9383887865043192e-05,-0.07443054142427952,-2.1322572670734452e-05,-0.09103128287425943
392,0.3826,943.563,0.00475493,0.00343187,0.0114653,-0.0463118,0.0160038,0.175039,-0.0775334,-0.0956764,5.61878e-06,1.9386e-05,-2.13503e-05,0.169713,0.1912926761207605,5.618795785311548e-06,1.9386187909642416e-05,-0.07460388434979903,-2.1350072083925475e-05,-0.09124195740476782
393,0.3836,943.937,0.00474781,0.00342665,0.0114458,-0.0463357,0.016005,0.175458,-0.0777207,-0.095908,5.63956e-06,1.93882e-05,-2.13778e-05,0.170128,0.19179193233892877,5.639575902272043e-06,1.938838795245701e-05,-0.07477719481122891,-2.1377571496450365e-05,-0.09145240139707789
394,0.3846,944.309,0.00474072,0.00342145,0.0114262,-0.0463594,0.0160063,0.175878,-0.0779079,-0.0961396,5.66032e-06,1.93902e-05,-2.14051e-05,0.170544,0.1922925900812773,5.660336019674972e-06,1.9390387991036206e-05,-0.07495038030969192,-2.140487091251142e-05,-0.09166279665620292
395,0.3856,944.68,0.00473364,0.00341626,0.0114066,-0.0463829,0.0160075,0.176297,-0.0780949,-0.096371,5.68106e-06,1.93922e-05,-2.14324e-05,0.17096,0.19279226535118,5.681076137298291e-06,1.939238802983745e-05,-0.07512334841555202,-2.143217032779532e-05,-0.09187296156803859
396,0.3866,945.051,0.00472657,0.00341108,0.0113868,-0.0464061,0.0160087,0.176716,-0.078282,-0.0966024,5.70178e-06,1.9394e-05,-2.14596e-05,0.171375,0.1932921500288889,5.701796255142e-06,1.9394188064847384e-05,-0.0752963766497674,-2.145936974440321e-05,-0.09208307785333991
397,0.3876,945.421,0.00471953,0.00340591,0.011367,-0.0464292,0.0160098,0.177135,-0.0784689,-0.0968336,5.72247e-06,1.93957e-05,-2.14866e-05,0.17179,0.1937922442021638,5.722486373427316e-06,1.9395888097850644e-05,-0.0754691876072845,-2.1486369164658292e-05,-0.09229296398196885
398,0.3886,945.789,0.00471249,0.00340076,0.0113471,-0.046452,0.0160109,0.177554,-0.0786558,-0.0970648,5.74313e-06,1.93972e-05,-2.15136e-05,0.172205,0.19429254795880202,5.743146491710149e-06,1.9397388126840553e-05,-0.07564196626945174,-2.1513368584136217e-05,-0.09250280159053392
399,0.3896,946.157,0.00470548,0.00339561,0.0113271,-0.0464747,0.016012,0.177972,-0.0788425,-0.0972959,5.76377e-06,1.93986e-05,-2.15405e-05,0.17262,0.19479186659417347,5.763786610657462e-06,1.9398788154045832e-05,-0.07581452780522868,-2.1540268005049157e-05,-0.09271249996150632
400,0.3906,946.524,0.00469848,0.00339048,0.011307,-0.0464971,0.016013,0.178391,-0.0790292,-0.0975268,5.78439e-06,1.93999e-05,-2.15672e-05,0.173035,0.19529258928035342,5.78440672960312e-06,1.9400088179244435e-05,-0.07598705712677412,-2.1566967429609285e-05,-0.09292196846119627
401,0.3916,946.89,0.00469149,0.00338536,0.0112868,-0.0465194,0.016014,0.178809,-0.0792159,-0.0977577,5.80498e-06,1.94011e-05,-2.15939e-05,0.17345,0.19579232602037488,5.804996848990385e-06,1.9401288202658407e-05,-0.07615955424010201,-2.1593666853392257e-05,-0.0931313886001931
402,0.3926,947.255,0.00468452,0.00338025,0.0112666,-0.0465414,0.016015,0.179227,-0.0794024,-0.0979885,5.82555e-06,1.94021e-05,-2.16205e-05,0.173864,0.19629227169401786,5.825566968598039e-06,1.9402288222059028e-05,-0.07633183441761027,-2.1620266278721267e-05,-0.09334066972373356
403,0.3936,947.62,0.00467757,0.00337515,0.0112463,-0.0465632,0.0160159,0.179645,-0.0795889,-0.0982192,5.84609e-06,1.9403e-05,-2.1647e-05,0.174278,0.1967924263886347,5.846107088425256e-06,1.9403188239452973e-05,-0.07650408246786145,-2.164676570537427e-05,-0.09354981190574996
404,0.3946,947.983,0.00467063,0.00337007,0.0112259,-0.0465849,0.0160168,0.180063,-0.0797753,-0.0984498,5.8666e-06,1.94038e-05,-2.16734e-05,0.174692,0.1972927901916146,5.866617208472036e-06,1.9403988254840243e-05,-0.0766762060644719,-2.1673165133573313e-05,-0.0937588152201162
405,0.3956,948.346,0.00466371,0.003365,0.0112054,-0.0466063,0.0160176,0.18048,-0.0799616,-0.0986803,5.8871e-06,1.94045e-05,-2.16997e-05,0.175106,0.19779216539761868,5.887117328962077e-06,1.9404688268442882e-05,-0.07684820526505898,-2.169946456320737e-05,-0.09396767974064724
406,0.3966,948.708,0.0046568,0.00335993,0.0111848,-0.0466276,0.0160184,0.180898,-0.0801479,-0.0989107,5.90756e-06,1.9405e-05,-2.17259e-05,0.17552,0.19829294717885548,5.907577449670853e-06,1.9405188278254215e-05,-0.07702017242517978,-2.1725663994387467e-05,-0.0941764055410994
407,0.3976,949.069,0.00464991,0.00335488,0.0111642,-0.0466486,0.0160192,0.181315,-0.080334,-0.0991409,5.928e-06,1.94054e-05,-2.1752e-05,0.175933,0.19879273953729348,5.928017570600019e-06,1.9405588286058872e-05,-0.07719192298920585,-2.175176342700258e-05,-0.09438490213366535
408,0.3986,949.429,0.00464303,0.00334984,0.0111435,-0.0466695,0.0160199,0.181732,-0.0805201,-0.0993712,5.94842e-06,1.94057e-05,-2.1778e-05,0.176347,0.19929274035260525,5.94843769197162e-06,1.9405888291856854e-05,-0.07736364159342579,-2.1777762861052707e-05,-0.09459344127649993
409,0.3996,949.788,0.00463617,0.00334482,0.0111228,-0.0466901,0.0160206,0.182149,-0.0807061,-0.0996013,5.96881e-06,1.94059e-05,-2.18039e-05,0.17676,0.19979294971173522,5.968827813340738e-06,1.940608829564816e-05,-0.07753523599731516,-2.1803662296648874e-05,-0.0948017513586682
410,0.4006,950.147,0.00462933,0.0033398,0.0111019,-0.0467106,0.0160213,0.182565,-0.080892,-0.0998313,5.98917e-06,1.9406e-05,-2.18297e-05,0.177173,0.20029216740889688,5.989187935151463e-06,1.9406188297654836e-05,-0.07770670625828868,-2.1829461733791078e-05,-0.0950099230151975
411,0.4016,950.504,0.00462249,0.00333479,0.011081,-0.0467309,0.0160219,0.182982,-0.0810779,-0.100061,6.00951e-06,1.94059e-05,-2.18555e-05,0.177586,0.2007927936160161,6.009528057182578e-06,1.940608829564816e-05,-0.07787814464590337,-2.185526117026715e-05,-0.09521777536312481
412,0.4026,950.861,0.00461568,0.0033298,0.01106,-0.0467509,0.0160225,0.183398,-0.0812637,-0.100291,6.02982e-06,1.94057e-05,-2.18811e-05,0.177998,0.2012924273347685,6.029838179433256e-06,1.9405888291856854e-05,-0.07804945897103455,-2.188086061050143e-05,-0.09542585134513615
413,0.4036,951.217,0.00460888,0.00332482,0.0110389,-0.0467708,0.0160231,0.183814,-0.0814494,-0.100521,6.05011e-06,1.94054e-05,-2.19066e-05,0.178411,0.2017922689443863,6.050128301904323e-06,1.9405588286058872e-05,-0.07822064929099048,-2.1906360052170726e-05,-0.09563387947517477
414,0.4046,951.572,0.00460209,0.00331985,0.0110178,-0.0467905,0.0160236,0.18423,-0.081635,-0.10075,6.07036e-06,1.9405e-05,-2.19321e-05,0.178823,0.20229231853136986,6.070378424594125e-06,1.9405188278254215e-05,-0.07839171566303171,-2.193185949328491e-05,-0.09584095560565309
415,0.4056,951.926,0.00459532,0.00331488,0.0109966,-0.04681,0.0160241,0.184646,-0.0818206,-0.10098,6.0906e-06,1.94045e-05,-2.19575e-05,0.179235,0.20279257618225577,6.090618547727189e-06,1.9404688268442882e-05,-0.07856275028810045,-2.1957258935834112e-05,-0.09604888827269042
416,0.4066,952.28,0.00458857,0.00330994,0.0109753,-0.0468294,0.0160246,0.185062,-0.082006,-0.101209,6.1108e-06,1.94038e-05,-2.19828e-05,0.179647,0.20329304198361697,6.110818671078988e-06,1.9403988254840243e-05,-0.07873356891882066,-2.1982558380040373e-05,-0.09625586937703501
417,0.4076,952.633,0.00458183,0.003305,0.0109539,-0.0468485,0.016025,0.185477,-0.0821914,-0.101439,6.13098e-06,1.9403e-05,-2.20079e-05,0.180059,0.20379251222894768,6.130998794429132e-06,1.9403188239452973e-05,-0.07890435588270239,-2.2007657827893823e-05,-0.09646370662487858
418,0.4086,952.984,0.0045751,0.00330007,0.0109325,-0.0468675,0.0160255,0.185892,-0.0823768,-0.101668,6.15114e-06,1.94022e-05,-2.2033e-05,0.180471,0.20429218979744657,6.151158918221711e-06,1.940238822384366e-05,-0.07907511118561605,-2.203275727519216e-05,-0.09667059274669632
419,0.4096,953.336,0.00456839,0.00329515,0.010911,-0.0468862,0.0160258,0.186307,-0.082562,-0.101897,6.17126e-06,1.94012e-05,-2.2058e-05,0.180882,0.20479207477517103,6.171279042233024e-06,1.9401388204443037e-05,-0.0792456506825796,-2.205775672414756e-05,-0.09687743149701655
420,0.4106,953.686,0.00456169,0.00329025,0.0108894,-0.0469048,0.0160262,0.186722,-0.0827472,-0.102126,6.19136e-06,1.94e-05,-2.2083e-05,0.181294,0.20529216724821353,6.191379166464728e-06,1.940018818125111e-05,-0.07941615859855278,-2.20827561723258e-05,-0.09708422288668594
421,0.4116,954.035,0.00455501,0.00328535,0.0108678,-0.0469232,0.0160265,0.187137,-0.0829323,-0.102355,6.21144e-06,1.93988e-05,-2.21078e-05,0.181705,0.2057924673027025,6.2114592911388655e-06,1.9398988157837138e-05,-0.07958654289804279,-2.2107555624373276e-05,-0.09729096692654882
422,0.4126,954.384,0.00454834,0.00328047,0.0108461,-0.0469414,0.0160267,0.187552,-0.0831173,-0.102584,6.23148e-06,1.93975e-05,-2.21325e-05,0.182116,0.20629297502480215,6.231499415809694e-06,1.9397688132638535e-05,-0.07975680363800264,-2.213225507807781e-05,-0.09749766362744716
423,0.4136,954.732,0.00454169,0.0032756,0.0108243,-0.0469595,0.016027,0.187966,-0.0833022,-0.102813,6.2515e-06,1.9396e-05,-2.21572e-05,0.182527,0.20679248370762537,6.251519540700912e-06,1.9396188103648626e-05,-0.07992694087533758,-2.215695453100519e-05,-0.0977043130002202
424,0.4146,955.079,0.00453505,0.00327074,0.0108024,-0.0469773,0.0160272,0.18838,-0.0834871,-0.103042,6.27149e-06,1.93945e-05,-2.21818e-05,0.182937,0.20729219922985598,6.271509665811692e-06,1.9394688074436672e-05,-0.08009704665720563,-2.2181553985700653e-05,-0.09791091505570493
425,0.4156,955.425,0.00452843,0.00326589,0.0107805,-0.046995,0.0160274,0.188794,-0.0836719,-0.10327,6.29146e-06,1.93928e-05,-2.22062e-05,0.183348,0.20779212167714323,6.291479791364907e-06,1.9392988041655457e-05,-0.08026702901612959,-2.2205953444154325e-05,-0.0981165679217546
426,0.4166,955.771,0.00452182,0.00326105,0.0107586,-0.0470125,0.0160275,0.189208,-0.0838566,-0.103499,6.31139e-06,1.9391e-05,-2.22306e-05,0.183758,0.20829225113517214,6.311409916914812e-06,1.939118800664552e-05,-0.08043688800890947,-2.2230352902052886e-05,-0.09832307558167097
427,0.4176,956.116,0.00451523,0.00325622,0.0107365,-0.0470298,0.0160276,0.189622,-0.0840412,-0.103727,6.3313e-06,1.93891e-05,-2.2255e-05,0.184168,0.20879258768966258,6.331320042685107e-06,1.9389287969850955e-05,-0.08060662369229743,-2.2254752359285312e-05,-0.09852863448583282
428,0.4186,956.46,0.00450865,0.0032514,0.0107144,-0.0470469,0.0160277,0.190035,-0.0842258,-0.103955,6.35118e-06,1.93871e-05,-2.22792e-05,0.184578,0.2092919221338434,6.351200168897009e-06,1.9387287931049713e-05,-0.08077632804537016,-2.2278951820497994e-05,-0.09873414652790702
429,0.4196,956.803,0.00450208,0.00324659,0.0106922,-0.0470639,0.0160278,0.190449,-0.0844103,-0.104184,6.37104e-06,1.9385e-05,-2.23033e-05,0.184988,0.20979267263780899,6.371060295107256e-06,1.9385187890241795e-05,-0.08094590916850608,-2.2303051283256714e-05,-0.09894051277851457
430,0.4206,957.145,0.00449553,0.00324179,0.01067,-0.0470807,0.0160278,0.190862,-0.0845947,-0.104412,6.39086e-06,1.93828e-05,-2.23274e-05,0.185398,0.21029242020237704,6.390880421536238e-06,1.9382987847649247e-05,-0.08111536711835232,-2.2327150745460322e-05,-0.09914593092304269
431,0.4216,957.487,0.00448899,0.00323701,0.0106477,-0.0470973,0.0160278,0.191275,-0.084779,-0.10464,6.41066e-06,1.93804e-05,-2.23513e-05,0.185807,0.21079237420531594,6.4106805484076546e-06,1.9380587801265392e-05,-0.08128470195150816,-2.2351050211533163e-05,-0.09935130223757271
432,0.4226,957.828,0.00448247,0.00323223,0.0106253,-0.0471137,0.0160278,0.191688,-0.0849633,-0.104868,6.43043e-06,1.9378e-05,-2.23752e-05,0.186217,0.21129253473190213,6.430450675276589e-06,1.9378187754659493e-05,-0.08145400557913007,-2.2374949677050893e-05,-0.09955662673278065
433,0.4236,958.168,0.00447596,0.00322747,0.0106029,-0.04713,0.0160277,0.192101,-0.0851474,-0.105096,6.45017e-06,1.93755e-05,-2.2399e-05,0.186626,0.2117929018674476,6.4501908023650856e-06,1.9375687706268963e-05,-0.08162309433160564,-2.2398749144225683e-05,-0.09976190441933996
434,0.4246,958.508,0.00446946,0.00322271,0.0105804,-0.0471461,0.0160276,0.192513,-0.0853315,-0.105323,6.46988e-06,1.93728e-05,-2.24227e-05,0.187035,0.21229226340442997,6.469900929673145e-06,1.937298765386508e-05,-0.08179215195770728,-2.2422448613168555e-05,-0.09996623527460735
435,0.4256,958.846,0.00446298,0.00321797,0.0105578,-0.047162,0.0160275,0.192926,-0.0855156,-0.105551,6.48957e-06,1.93701e-05,-2.24463e-05,0.187444,0.21279304351319017,6.4895910572015936e-06,1.9370287601683245e-05,-0.08196117846316464,-2.2446048083657466e-05,-0.1001714195810649
436,0.4266,959.184,0.00445652,0.00321323,0.0105352,-0.0471778,0.0160273,0.193338,-0.0856995,-0.105779,6.50922e-06,1.93672e-05,-2.24699e-05,0.187852,0.2132928171934263,6.5092411849487775e-06,1.9367387545488057e-05,-0.08212999027972301,-2.2469647553702288e-05,-0.10037655711083338
437,0.4276,959.521,0.00445006,0.00320851,0.0105125,-0.0471933,0.0160271,0.19375,-0.0858834,-0.106006,6.52885e-06,1.93642e-05,-2.24933e-05,0.188261,0.21379279682284147,6.528871312916351e-06,1.9364387487286194e-05,-0.08229877105464256,-2.2493047027616342e-05,-0.1005807484557748
438,0.4286,959.858,0.00444363,0.00320379,0.0104898,-0.0472087,0.0160269,0.194162,-0.0860672,-0.106233,6.54845e-06,1.93612e-05,-2.25167e-05,0.188669,0.2142929824863038,6.548471441103487e-06,1.9361387429306376e-05,-0.08246742904037907,-2.2516446500975285e-05,-0.10078489345454134
439,0.4296,960.194,0.0044372,0.00319909,0.010467,-0.047224,0.0160267,0.194573,-0.0862509,-0.106461,6.56802e-06,1.9358e-05,-2.254e-05,0.189077,0.2147921594759501,6.568041569510186e-06,1.9358187367313207e-05,-0.08263596429322739,-2.253974597610231e-05,-0.10098989112821088
440,0.4306,960.529,0.00443079,0.0031944,0.0104441,-0.0472391,0.0160264,0.194985,-0.0864346,-0.106688,6.58756e-06,1.93547e-05,-2.25632e-05,0.189485,0.21529275696165517,6.587581697914402e-06,1.9354887303313362e-05,-0.08280446858899337,-2.2562945452886396e-05,-0.10119394326213138
441,0.4316,960.863,0.00442439,0.00318971,0.0104212,-0.047254,0.0160261,0.195396,-0.0866182,-0.106915,6.60708e-06,1.93514e-05,-2.25864e-05,0.189893,0.2157923449430641,6.607101826761053e-06,1.935158723953556e-05,-0.0829728502306527,-2.2586144929226393e-05,-0.10139794908147437
442,0.4326,961.196,0.00441801,0.00318504,0.0103982,-0.0472687,0.0160258,0.195807,-0.0868017,-0.107142,6.62656e-06,1.93479e-05,-2.26094e-05,0.190301,0.21629213829733462,6.626581955604394e-06,1.934808717174441e-05,-0.083141109274396,-2.2609144409435622e-05,-0.101601908596752
443,0.4336,961.529,0.00441164,0.00318038,0.0103751,-0.0472833,0.0160255,0.196218,-0.0869851,-0.107369,6.64602e-06,1.93443e-05,-2.26324e-05,0.190708,0.2167921371088921,6.646042084890169e-06,1.9344487102168628e-05,-0.08330924577636656,-2.2632143889200762e-05,-0.1018058218184743
444,0.4346,961.861,0.00440528,0.00317573,0.010352,-0.0472977,0.0160251,0.196629,-0.0871685,-0.107596,6.66544e-06,1.93406e-05,-2.26553e-05,0.191116,0.21729234146219722,6.665462214172635e-06,1.934078703058617e-05,-0.08347735144493018,-2.2655043370622963e-05,-0.10200968875714855
445,0.4356,962.193,0.00439894,0.00317109,0.0103288,-0.047312,0.0160247,0.19704,-0.0873517,-0.107823,6.68484e-06,1.93369e-05,-2.26781e-05,0.191523,0.21779275144174481,6.684862343675491e-06,1.9337086959003713e-05,-0.08364524301480802,-2.2677842853813246e-05,-0.10221350942327978
446,0.4366,962.523,0.00439261,0.00316645,0.0103056,-0.047326,0.0160242,0.19745,-0.087535,-0.108049,6.70421e-06,1.9333e-05,-2.27008e-05,0.19193,0.2182921488393068,6.704232473175864e-06,1.933318688362995e-05,-0.08381319544845267,-2.2700542338771612e-05,-0.1024163862442059
447,0.4376,962.853,0.00438629,0.00316183,0.0102823,-0.04734,0.0160238,0.197861,-0.0877181,-0.108276,6.72355e-06,1.9329e-05,-2.27235e-05,0.192337,0.2187929698241422,6.7235726031178444e-06,1.932918680624951e-05,-0.08398093389544259,-2.2723241823174867e-05,-0.10262011460048515
448,0.4386,963.183,0.00437999,0.00315722,0.010259,-0.0473537,0.0160233,0.198271,-0.0879011,-0.108502,6.74286e-06,1.93249e-05,-2.2746e-05,0.192744,0.2192927773953206,6.742882733057343e-06,1.932508672708444e-05,-0.08414855004719402,-2.27457413116694e-05,-0.10282289953902435
449,0.4396,963.511,0.0043737,0.00315262,0.0102356,-0.0473673,0.0160228,0.198681,-0.0880841,-0.108729,6.76214e-06,1.93208e-05,-2.27685e-05,0.19315,0.21979278992961793,6.762162863216403e-06,1.932098664791937e-05,-0.08431613552799622,-2.276824079971984e-05,-0.1030265356272585
450,0.4406,963.839,0.00436743,0.00314803,0.0102121,-0.0473808,0.0160222,0.199091,-0.088267,-0.108955,6.78139e-06,1.93165e-05,-2.27909e-05,0.193556,0.22029300751108605,6.781412993595026e-06,1.9316686564740948e-05,-0.08448359879182588,-2.2790640289427344e-05,-0.10322922872502394
451,0.4416,964.166,0.00436117,0.00314344,0.0101886,-0.047394,0.0160217,0.1995,-0.0884499,-0.109181,6.80061e-06,1.93121e-05,-2.28133e-05,0.193963,0.22079220943099176,6.800633124193212e-06,1.9312286479777896e-05,-0.08465103142942532,-2.2813039778690758e-05,-0.10343187601932535
452,0.4426,964.493,0.00435492,0.00313887,0.010165,-0.0474072,0.0160211,0.19991,-0.0886326,-0.109407,6.8198e-06,1.93077e-05,-2.28355e-05,0.194369,0.22129283685846812,6.819823254788915e-06,1.9307886394814844e-05,-0.08481825041006419,-2.2835239271934427e-05,-0.10363447752051302
453,0.4436,964.818,0.00434868,0.00313431,0.0101414,-0.0474201,0.0160205,0.200319,-0.0888153,-0.109633,6.83896e-06,1.93031e-05,-2.28577e-05,0.194775,0.22179244779221463,6.838983385826225e-06,1.9303286306060485e-05,-0.08498543884258591,-2.2857438764734006e-05,-0.103837033238935
454,0.4446,965.143,0.00434246,0.00312976,0.0101177,-0.0474329,0.0160198,0.200728,-0.0889979,-0.109859,6.85809e-06,1.92985e-05,-2.28798e-05,0.19518,0.22229226310862638,6.858113516861053e-06,1.9298686217306127e-05,-0.08515250524782625,-2.287953825941269e-05,-0.10403954318493713
455,0.4456,965.468,0.00433625,0.00312521,0.010094,-0.0474456,0.0160192,0.201137,-0.0891805,-0.110085,6.87719e-06,1.92937e-05,-2.29018e-05,0.195586,0.22279228289131314,6.877213647893399e-06,1.9293886124538417e-05,-0.085319541149526,-2.2901537755748436e-05,-0.1042420073688628
456,0.4466,965.791,0.00433005,0.00312068,0.0100702,-0.0474581,0.0160185,0.201546,-0.0893629,-0.110311,6.89626e-06,1.92889e-05,-2.29238e-05,0.195991,0.22329250722391847,6.896283779145307e-06,1.9289086031992753e-05,-0.08548636365054574,-2.2923537251751114e-05,-0.10444442580105306
457,0.4476,966.114,0.00432387,0.00311616,0.0100464,-0.0474704,0.0160177,0.201955,-0.0895453,-0.110536,6.9153e-06,1.92839e-05,-2.29456e-05,0.196396,0.22379293619012053,6.915323910838822e-06,1.928408593565578e-05,-0.08565315572591625,-2.2945336751734047e-05,-0.10464590313819744
458,0.4486,966.437,0.0043177,0.00311165,0.0100225,-0.0474826,0.016017,0.202363,-0.0897276,-0.110762,6.93432e-06,1.92789e-05,-2.29674e-05,0.196801,0.224292345580674,6.934344042530682e-06,1.9279085839096766e-05,-0.08581982596317372,-2.296713625127289e-05,-0.1048482303002577
459,0.4496,966.758,0.00431155,0.00310714,0.00999852,-0.0474947,0.0160162,0.202771,-0.0899099,-0.110987,6.9533e-06,1.92738e-05,-2.29891e-05,0.197206,0.22479195877183122,6.953324174219233e-06,1.9273985740975164e-05,-0.0859864658192162,-2.298883575269084e-05,-0.10504961679161029
460,0.4506,967.079,0.0043054,0.00310265,0.00997451,-0.0475065,0.0160154,0.20318,-0.090092,-0.111213,6.97225e-06,1.92686e-05,-2.30108e-05,0.197611,0.22529300113914852,6.972274306127346e-06,1.926878564062484e-05,-0.08615289253017855,-2.3010535253553677e-05,-0.10525185272469417
461,0.4516,967.4,0.00429927,0.00309816,0.00995046,-0.0475183,0.0160146,0.203588,-0.0902741,-0.111438,6.99117e-06,1.92633e-05,-2.30323e-05,0.198016,0.2257930226810716,6.991194438255022e-06,1.926348553848989e-05,-0.0863192889375961,-2.3032034758618813e-05,-0.10545314841121711
462,0.4526,967.719,0.00429315,0.00309369,0.00992635,-0.0475298,0.0160138,0.203995,-0.0904561,-0.111663,7.01006e-06,1.92579e-05,-2.30538e-05,0.19842,0.22629202198077203,7.01008457060226e-06,1.9258085434570305e-05,-0.0864855636955475,-2.305353426323986e-05,-0.10565439881130556
463,0.4536,968.038,0.00428705,0.00308922,0.00990218,-0.0475413,0.0160129,0.204403,-0.0906381,-0.111888,7.02892e-06,1.92524e-05,-2.30752e-05,0.198824,0.22679245120636016,7.028944702947015e-06,1.9252585328644045e-05,-0.08665180819424667,-2.307493376962899e-05,-0.10585560393514781
464,0.4546,968.357,0.00428096,0.00308477,0.00987797,-0.0475525,0.016012,0.204811,-0.0908199,-0.112113,7.04774e-06,1.92468e-05,-2.30966e-05,0.199228,0.22729308464873,7.0477648352884614e-06,1.9246985220933155e-05,-0.08681783980278646,-2.3096333275574032e-05,-0.10605676379292972
465,0.4556,968.674,0.00427488,0.00308032,0.00985371,-0.0475637,0.0160111,0.205218,-0.0910017,-0.112338,7.06654e-06,1.92411e-05,-2.31178e-05,0.199632,0.22779269459790985,7.066564968072342e-06,1.924128511121559e-05,-0.0869838412295234,-2.3117532785721373e-05,-0.10625787839483514
466,0.4566,968.991,0.00426881,0.00307588,0.00982939,-0.0475747,0.0160101,0.205625,-0.0911835,-0.112563,7.08531e-06,1.92354e-05,-2.3139e-05,0.200036,0.22829250792972489,7.08533510085374e-06,1.9235585001498023e-05,-0.08714981247994413,-2.3138732295424624e-05,-0.10645894775104547
467,0.4576,969.308,0.00426276,0.00307146,0.00980502,-0.0475855,0.0160092,0.206032,-0.0913651,-0.112787,7.10405e-06,1.92295e-05,-2.31602e-05,0.20044,0.2287925247269682,7.104075233854701e-06,1.922968488798915e-05,-0.08731557102266652,-2.3159931804683787e-05,-0.106659078531265
468,0.4586,969.623,0.00425672,0.00306704,0.00978061,-0.0475962,0.0160082,0.206439,-0.0915467,-0.113012,7.12275e-06,1.92236e-05,-2.31812e-05,0.200843,0.22929274507246733,7.122775366852352e-06,1.922378477448028e-05,-0.08748129946637062,-2.3180931318034226e-05,-0.10686005762759931
469,0.4596,969.938,0.00425069,0.00306263,0.00975614,-0.0476067,0.0160072,0.206845,-0.0917282,-0.113237,7.14143e-06,1.92176e-05,-2.32022e-05,0.201246,0.22979193925652908,7.141455500070393e-06,1.9217784659186776e-05,-0.08764690658121721,-2.3201930831051598e-05,-0.10706099150872372
470,0.4606,970.253,0.00424467,0.00305823,0.00973162,-0.0476171,0.0160061,0.207252,-0.0919096,-0.113461,7.16007e-06,1.92115e-05,-2.32231e-05,0.201649,0.23029256644652896,7.160095633285124e-06,1.9211684542108642e-05,-0.08781239242234384,-2.3222830345948076e-05,-0.10726098744624457
471,0.4616,970.566,0.00423867,0.00305384,0.00970706,-0.0476273,0.0160051,0.207658,-0.092091,-0.113685,7.17868e-06,1.92053e-05,-2.32439e-05,0.202052,0.23079216664048285,7.178705766719418e-06,1.9205484423023833e-05,-0.08797784824706134,-2.3243629862612636e-05,-0.10746093858969241
472,0.4626,970.88,0.00423268,0.00304946,0.00968244,-0.0476374,0.016004,0.208064,-0.0922723,-0.11391,7.19726e-06,1.9199e-05,-2.32646e-05,0.202455,0.23129196971329713,7.197285900373274e-06,1.9199184301932348e-05,-0.08814318287513723,-2.3264329381267324e-05,-0.10766173728780914
473,0.4636,971.192,0.0042267,0.00304509,0.00965778,-0.0476474,0.0160029,0.20847,-0.0924535,-0.114134,7.21581e-06,1.91926e-05,-2.32853e-05,0.202858,0.23179197574735744,7.2158360340246475e-06,1.9192784179056233e-05,-0.08830839636160637,-2.3285028899477922e-05,-0.10786159867334577
474,0.4646,971.504,0.00422073,0.00304073,0.00963307,-0.0476572,0.0160018,0.208876,-0.0926346,-0.114358,7.23433e-06,1.91862e-05,-2.33059e-05,0.20326,0.23229218482508274,7.234356167895584e-06,1.918638405640216e-05,-0.08847348876145733,-2.3305628419567626e-05,-0.10806141529494584
475,0.4656,971.815,0.00421478,0.00303638,0.00960831,-0.0476669,0.0160006,0.209282,-0.0928157,-0.114582,7.25282e-06,1.91796e-05,-2.33265e-05,0.203663,0.23279259702892507,7.252846301764038e-06,1.917978392973474e-05,-0.08863855126578168,-2.3326227939324262e-05,-0.10826118716263533
476,0.4666,972.126,0.00420884,0.00303203,0.0095835,-0.0476764,0.0159995,0.209687,-0.0929967,-0.114806,7.27128e-06,1.9173e-05,-2.33469e-05,0.204065,0.2332919791487753,7.271306435852054e-06,1.9173183803067317e-05,-0.08880349276034705,-2.3346627463283198e-05,-0.10846091428643789
477,0.4676,972.436,0.00420291,0.0030277,0.00955865,-0.0476858,0.0159983,0.210093,-0.0931776,-0.11503,7.2897e-06,1.91663e-05,-2.33673e-05,0.204467,0.23379279735152547,7.289726569936761e-06,1.9166483674615264e-05,-0.0889683133000394,-2.3367026986798045e-05,-0.10866059667637507
478,0.4686,972.745,0.00419699,0.00302337,0.00953375,-0.047695,0.015997,0.210498,-0.0933584,-0.115253,7.3081e-06,1.91595e-05,-2.33876e-05,0.204869,0.23429258463454605,7.308126704241857e-06,1.915968354437858e-05,-0.08913301293969866,-2.3387326512191997e-05,-0.10885934320225499
479,0.4696,973.054,0.00419109,0.00301906,0.0095088,-0.0477041,0.0159958,0.210903,-0.0935392,-0.115477,7.32646e-06,1.91526e-05,-2.34079e-05,0.20527,0.23479257437241086,7.326486838543644e-06,1.915278341213522e-05,-0.0892976828043548,-2.3407626037252882e-05,-0.10905893635411013
480,0.4706,973.362,0.00418519,0.00301475,0.0094838,-0.0477131,0.0159946,0.211308,-0.0937199,-0.115701,7.34479e-06,1.91456e-05,-2.34281e-05,0.205672,0.23529276664713028,7.344816973064994e-06,1.914578327810723e-05,-0.08946223184561841,-2.3427825564192872e-05,-0.1092584848021062
481,0.4716,973.669,0.00417931,0.00301045,0.00945877,-0.0477219,0.0159933,0.211712,-0.0939005,-0.115924,7.36309e-06,1.91386e-05,-2.34482e-05,0.206073,0.23579192574820484,7.363117107583861e-06,1.913878314407924e-05,-0.08962666011822717,-2.344792509312299e-05,-0.10945709801379921
482,0.4726,973.976,0.00417345,0.00300616,0.00943368,-0.0477306,0.015992,0.212117,-0.0940811,-0.116147,7.38136e-06,1.91315e-05,-2.34682e-05,0.206474,0.23629252284220192,7.38138724232229e-06,1.913168300826662e-05,-0.08979105869777126,-2.3467924623932213e-05,-0.10965566693968398
483,0.4736,974.282,0.00416759,0.00300188,0.00940855,-0.0477392,0.0159906,0.212521,-0.0942616,-0.116371,7.39959e-06,1.91243e-05,-2.34882e-05,0.206875,0.23679208592637835,7.39961737705741e-06,1.9124482870669368e-05,-0.08995533658515098,-2.348792415440837e-05,-0.10985508173499858
484,0.4746,974.588,0.00416175,0.00299761,0.00938337,-0.0477476,0.0159893,0.212925,-0.094442,-0.116594,7.4178e-06,1.9117e-05,-2.35081e-05,0.207276,0.23729185087481475,7.41782751201292e-06,1.911718273106544e-05,-0.09011949383500184,-2.350782368676363e-05,-0.1100535619204085
485,0.4756,974.893,0.00415592,0.00299335,0.00935815,-0.0477558,0.0159879,0.21333,-0.0946223,-0.116817,7.43597e-06,1.91096e-05,-2.35279e-05,0.207677,0.2377930555615173,7.43599764696512e-06,1.9109782589676882e-05,-0.09028353050191351,-2.3527623221109017e-05,-0.11025199784967177
486,0.4766,975.197,0.0041501,0.00298909,0.00933289,-0.047764,0.0159865,0.213733,-0.0948026,-0.11704,7.45411e-06,1.91022e-05,-2.35477e-05,0.208077,0.23829198669077867,7.454137781914838e-06,1.9102382448288324e-05,-0.09044753759568025,-2.354742275512134e-05,-0.11045038953265651
487,0.4776,975.501,0.00414429,0.00298485,0.00930758,-0.047772,0.0159851,0.214137,-0.0949828,-0.117263,7.47222e-06,1.90946e-05,-2.35674e-05,0.208478,0.23879235772154406,7.472247917084118e-06,1.909478230310846e-05,-0.09061142418278056,-2.3567122291012765e-05,-0.1106487369792285
488,0.4786,975.804,0.00413849,0.00298061,0.00928223,-0.0477799,0.0159837,0.214541,-0.0951629,-0.117486,7.49029e-06,1.9087e-05,-2.3587e-05,0.208878,0.23929293094304582,7.490318052250089e-06,1.9087182157928595e-05,-0.09077519031770209,-2.358672182889432e-05,-0.11084704019925129
489,0.4796,976.107,0.00413271,0.00297639,0.00925684,-0.0477876,0.0159823,0.214944,-0.0953429,-0.117708,7.50834e-06,1.90793e-05,-2.36066e-05,0.209278,0.23979246664389886,7.508368187636449e-06,1.90794820109641e-05,-0.09093883605488673,-2.3606321366442806e-05,-0.11104441024744116
490,0.4806,976.409,0.00412694,0.00297217,0.0092314,-0.0477952,0.0159808,0.215347,-0.0955229,-0.117931,7.52635e-06,1.90716e-05,-2.36261e-05,0.209678,0.24029220369820936,7.5263783230195e-06,1.907178186422165e-05,-0.09110245233848957,-2.3625820905870398e-05,-0.11124262524216266
491,0.4816,976.71,0.00412118,0.00296796,0.00920592,-0.0478027,0.0159793,0.21575,-0.0957028,-0.118154,7.54433e-06,1.90637e-05,-2.36455e-05,0.210078,0.24079214218713907,7.5443584586221135e-06,1.9063881713465847e-05,-0.09126594830041113,-2.364522044739914e-05,-0.11144079603986845
492,0.4826,977.011,0.00411543,0.00296376,0.00918039,-0.04781,0.0159778,0.216153,-0.0958826,-0.118376,7.56228e-06,1.90558e-05,-2.36648e-05,0.210477,0.2412922821918826,7.5623085942222446e-06,1.905598156293209e-05,-0.0914293239949916,-2.3664519990806987e-05,-0.11163803428889185
493,0.4836,977.311,0.00410969,0.00295957,0.00915483,-0.0478172,0.0159763,0.216556,-0.0960624,-0.118598,7.58019e-06,1.90478e-05,-2.36841e-05,0.210877,0.24179262379366695,7.580218729819066e-06,1.9047981410391657e-05,-0.09159267031726293,-2.3683819533881767e-05,-0.11183522875588403
494,0.4846,977.611,0.00410397,0.00295538,0.00912922,-0.0478243,0.0159747,0.216958,-0.0962421,-0.118821,7.59807e-06,1.90397e-05,-2.37034e-05,0.211276,0.2422919247812063,7.598098865413405e-06,1.9039881256288638e-05,-0.09175589644809978,-2.370311907662348e-05,-0.11203326741774
495,0.4856,977.91,0.00409825,0.00295121,0.00910357,-0.0478312,0.0159731,0.217361,-0.0964217,-0.119043,7.61592e-06,1.90315e-05,-2.37225e-05,0.211675,0.24279266932014076,7.615949001227307e-06,1.9031681100178943e-05,-0.091919002441741,-2.3722218623678515e-05,-0.1122303741527162
496,0.4866,978.208,0.00409255,0.00294704,0.00907788,-0.047838,0.0159715,0.217763,-0.0966012,-0.119265,7.63374e-06,1.90233e-05,-2.37416e-05,0.212074,0.24329237240679835,7.633769137038726e-06,1.902348094406925e-05,-0.09208198835237968,-2.3741318170400483e-05,-0.11242743713485392
497,0.4876,978.506,0.00408686,0.00294289,0.00905215,-0.0478447,0.0159699,0.218165,-0.0967807,-0.119487,7.65153e-06,1.9015e-05,-2.37606e-05,0.212473,0.2437922764144791,7.651559273069708e-06,1.9015180786174923e-05,-0.09224494500967284,-2.37603177192236e-05,-0.11262445637386531
498,0.4886,978.804,0.00408118,0.00293874,0.00902638,-0.0478513,0.0159683,0.218567,-0.0969601,-0.119709,7.66928e-06,1.90066e-05,-2.37796e-05,0.212872,0.2442923814239697,7.66930940909738e-06,1.9006780626495967e-05,-0.09240778165965391,-2.377931726760263e-05,-0.11282143187946014
499,0.4896,979.1,0.00407552,0.0029346,0.00900057,-0.0478577,0.0159667,0.218969,-0.0971394,-0.119931,7.687e-06,1.89982e-05,-2.37985e-05,0.21327,0.24479268751608907,7.68702954512257e-06,1.8998380467039055e-05,-0.09257049835641451,-2.3798216817971785e-05,-0.11301836366134632
500,0.4906,979.396,0.00406986,0.00293047,0.00897472,-0.047864,0.015965,0.21937,-0.0973187,-0.120153,7.70469e-06,1.89896e-05,-2.38173e-05,0.213668,0.2452919494791166,7.704719681145278e-06,1.8989780303568793e-05,-0.0927331858806868,-2.3817016370331068e-05,-0.11321525172922942
501,0.4916,979.692,0.00406422,0.00292634,0.00894883,-0.0478702,0.0159633,0.219772,-0.0974979,-0.120374,7.72235e-06,1.8981e-05,-2.38361e-05,0.214067,0.24579265747837198,7.722379817387548e-06,1.8981180140320575e-05,-0.09289575352728086,-2.3835815922468306e-05,-0.11341120950446548
502,0.4926,979.987,0.00405859,0.00292223,0.0089229,-0.0478762,0.0159616,0.220173,-0.097677,-0.120596,7.73997e-06,1.89723e-05,-2.38548e-05,0.214465,0.24629232050976313,7.739999953626508e-06,1.8972479975287726e-05,-0.09305820135018728,-2.385451547648465e-05,-0.11360801037025114
503,0.4936,980.281,0.00405296,0.00291812,0.00889693,-0.0478821,0.0159599,0.220574,-0.097856,-0.120817,7.75756e-06,1.89636e-05,-2.38734e-05,0.214862,0.24679218394620817,7.757590089862987e-06,1.8963779810254877e-05,-0.09322052940335146,-2.3873115032602144e-05,-0.11380388135541819
504,0.4946,980.575,0.00404735,0.00291403,0.00887092,-0.0478879,0.0159581,0.220975,-0.098035,-0.121039,7.77512e-06,1.89548e-05,-2.3892e-05,0.21526,0.24729224786808612,7.775150226319028e-06,1.8954979643437397e-05,-0.09338282840239454,-2.389171458838657e-05,-0.11400059505772842
505,0.4956,980.869,0.00404176,0.00290994,0.00884487,-0.0478936,0.0159564,0.221376,-0.0982139,-0.12126,7.79264e-06,1.89459e-05,-2.39105e-05,0.215658,0.24779251235580735,7.792670362771759e-06,1.8946079474613242e-05,-0.09354500770702201,-2.3910214146272146e-05,-0.11419637929126603
506,0.4966,981.161,0.00403617,0.00290586,0.00881878,-0.0478991,0.0159546,0.221777,-0.0983927,-0.121481,7.81013e-06,1.89369e-05,-2.39289e-05,0.216055,0.24829297748981527,7.810160499222008e-06,1.89370793042265e-05,-0.09370706737107826,-2.392861370614785e-05,-0.11439212026126877
507,0.4976,981.453,0.00403059,0.00290178,0.00879266,-0.0479045,0.0159528,0.222177,-0.0985715,-0.121702,7.82759e-06,1.89278e-05,-2.39473e-05,0.216452,0.24879239455756585,7.827620635669774e-06,1.8927979131833084e-05,-0.09386909806145693,-2.3947013265690487e-05,-0.11458781797729689
508,0.4986,981.745,0.00402503,0.00289772,0.0087665,-0.0479098,0.015951,0.222577,-0.0987502,-0.121924,7.84502e-06,1.89187e-05,-2.39656e-05,0.216849,0.24929201143210222,7.845050772337103e-06,1.891887895966171e-05,-0.09403100918644347,-2.3965312827334273e-05,-0.11478435766499351
509,0.4996,982.036,0.00401948,0.00289366,0.0087403,-0.047915,0.0159491,0.222978,-0.0989288,-0.122144,7.86241e-06,1.89095e-05,-2.39839e-05,0.217246,0.24979307798581618,7.862440908779078e-06,1.8909678785705708e-05,-0.09419280079978154,-2.398361238853397e-05,-0.11497908368565946
510,0.5006,982.327,0.00401393,0.00288962,0.00871406,-0.04792,0.0159473,0.223377,-0.0991073,-0.122365,7.87977e-06,1.89003e-05,-2.40021e-05,0.217643,0.25029184492131895,7.879801045440615e-06,1.8900478611749705e-05,-0.09435447295516963,-2.400181195194584e-05,-0.11517465169710372
511,0.5016,982.617,0.0040084,0.00288558,0.00868779,-0.047925,0.0159454,0.223777,-0.0992858,-0.122586,7.89709e-06,1.88909e-05,-2.40202e-05,0.21804,0.2507920616959729,7.897121182098843e-06,1.889107843422444e-05,-0.0945161162546535,-2.4019911517347836e-05,-0.11537017649279291
512,0.5026,982.906,0.00400288,0.00288155,0.00866148,-0.0479298,0.0159435,0.224177,-0.0994642,-0.122807,7.91439e-06,1.88815e-05,-2.40383e-05,0.218436,0.25129247859735937,7.91442131897746e-06,1.8881678256699175e-05,-0.09467764017115199,-2.4038011082416766e-05,-0.11556565808227681
513,0.5036,983.195,0.00399737,0.00287752,0.00863514,-0.0479344,0.0159416,0.224576,-0.0996426,-0.123027,7.93165e-06,1.88721e-05,-2.40563e-05,0.218832,0.2517918439130753,7.931681455630724e-06,1.887227807917391e-05,-0.09483913527435384,-2.4056010649586845e-05,-0.11576021223575705
514,0.5046,983.483,0.00399188,0.00287351,0.00860876,-0.047939,0.0159397,0.224976,-0.0998208,-0.123248,7.94887e-06,1.88625e-05,-2.40742e-05,0.219228,0.2522926608073419,7.948901592280677e-06,1.8862677898079383e-05,-0.09500042056950142,-2.4073910218747052e-05,-0.11595560763686585
515,0.5056,983.771,0.00398639,0.0028695,0.00858234,-0.0479435,0.0159377,0.225375,-0.099999,-0.123468,7.96607e-06,1.88529e-05,-2.40921e-05,0.219624,0.25279242527538504,7.96610172915102e-06,1.8853077716984856e-05,-0.09516167712616996,-2.4091809787685214e-05,-0.11615007601088023
516,0.5066,984.058,0.00398091,0.0028655,0.00855589,-0.0479478,0.0159358,0.225774,-0.100177,-0.123689,7.98323e-06,1.88432e-05,-2.41099e-05,0.22002,0.2532923891892378,7.983261866018054e-06,1.88433775341057e-05,-0.09532272401404329,-2.4109609358724526e-05,-0.11634538526161475
517,0.5076,984.345,0.00397545,0.00286151,0.0085294,-0.047952,0.0159338,0.226173,-0.100355,-0.123909,8.00036e-06,1.88335e-05,-2.41277e-05,0.220416,0.253792552628495,8.000392002882606e-06,1.8833677351448586e-05,-0.09548374223812173,-2.412740892943077e-05,-0.11653976789398357
518,0.5086,984.631,0.00397,0.00285753,0.00850287,-0.0479561,0.0159318,0.226572,-0.100533,-0.124129,8.01745e-06,1.88237e-05,-2.41454e-05,0.220811,0.2542929156727829,8.017482139743848e-06,1.882387716700684e-05,-0.09564473180350697,-2.4145108502127144e-05,-0.1167341077668771
519,0.5096,984.917,0.00396455,0.00285356,0.00847632,-0.04796,0.0159298,0.22697,-0.100711,-0.124349,8.03451e-06,1.88138e-05,-2.4163e-05,0.221207,0.25479222360890885,8.034542276824652e-06,1.8813976980558422e-05,-0.0958056927152997,-2.416270807703569e-05,-0.11692840488970113
520,0.5106,985.202,0.00395912,0.00284959,0.00844972,-0.0479639,0.0159278,0.227369,-0.100889,-0.124569,8.05154e-06,1.88038e-05,-2.41806e-05,0.221602,0.25529298560150293,8.05157241368093e-06,1.8803976792547417e-05,-0.09596662497860009,-2.4180307651611166e-05,-0.11712265927185994
521,0.5116,985.486,0.0039537,0.00284563,0.0084231,-0.0479676,0.0159257,0.227767,-0.101067,-0.124789,8.06853e-06,1.87938e-05,-2.41981e-05,0.221997,0.25579269164467866,8.068562550755942e-06,1.879397660453641e-05,-0.09612752859850693,-2.4197807228287793e-05,-0.11731687092275522
522,0.5126,985.771,0.00394829,0.00284168,0.00839644,-0.0479712,0.0159237,0.228165,-0.101244,-0.125009,8.08549e-06,1.87837e-05,-2.42155e-05,0.222392,0.25629259661044235,8.085522687606428e-06,1.8783876414740774e-05,-0.09628749986806995,-2.4215206807176592e-05,-0.1175110398517869
523,0.5136,986.054,0.00394289,0.00283774,0.00836974,-0.0479747,0.0159216,0.228563,-0.101422,-0.125229,8.10242e-06,1.87736e-05,-2.42329e-05,0.222787,0.2567927005779813,8.102452824676476e-06,1.8773776225167182e-05,-0.09644834637732946,-2.4232606385621303e-05,-0.11770516606835268
524,0.5146,986.337,0.0039375,0.00283381,0.00834302,-0.0479781,0.0159195,0.228961,-0.1016,-0.125448,8.11931e-06,1.87634e-05,-2.42503e-05,0.223181,0.25729300362651397,8.119342961743214e-06,1.8763576033586915e-05,-0.09660916425845822,-2.4250005963843968e-05,-0.11789836748065685
525,0.5156,986.619,0.00393212,0.00282988,0.00831626,-0.0479814,0.0159174,0.229358,-0.101777,-0.125668,8.13617e-06,1.87531e-05,-2.42675e-05,0.223576,0.2577922480424131,8.13620309880747e-06,1.875327584044406e-05,-0.09676905028605365,-2.4267205546602e-05,-0.11809240849451696
526,0.5166,986.901,0.00392675,0.00282596,0.00828946,-0.0479846,0.0159153,0.229756,-0.101954,-0.125887,8.15299e-06,1.87428e-05,-2.42847e-05,0.22397,0.2582929489900132,8.153023235646373e-06,1.8742975647301208e-05,-0.09692890801632648,-2.4284405129026965e-05,-0.11828552511001544
527,0.5176,987.183,0.0039214,0.00282205,0.00826264,-0.0479876,0.0159131,0.230153,-0.102132,-0.126107,8.16979e-06,1.87323e-05,-2.43019e-05,0.224364,0.25879259046303216,8.16982337292771e-06,1.8732475450589092e-05,-0.09708964036509615,-2.4301604711229885e-05,-0.11847948095856553
528,0.5186,987.464,0.00391605,0.00281815,0.00823578,-0.0479905,0.0159109,0.23055,-0.102309,-0.126326,8.18654e-06,1.87219e-05,-2.4319e-05,0.224758,0.25929243033309524,8.18657350976082e-06,1.8722075255883652e-05,-0.0972494413559466,-2.4318704295533955e-05,-0.11867251281447588
529,0.5196,987.744,0.00391072,0.00281426,0.00820889,-0.0479934,0.0159088,0.230947,-0.102486,-0.126545,8.20327e-06,1.87113e-05,-2.4336e-05,0.225152,0.25979246867898165,8.20330364681432e-06,1.8711475057386906e-05,-0.09740921406452485,-2.4335703881939175e-05,-0.11886550240103855
530,0.5206,988.024,0.00390539,0.00281037,0.00818197,-0.0479961,0.0159066,0.231344,-0.102663,-0.126765,8.21996e-06,1.87007e-05,-2.4353e-05,0.225545,0.2602927055795019,8.21999378386451e-06,1.8700874859112204e-05,-0.09756895849583613,-2.435270346812235e-05,-0.11905933066861907
531,0.5216,988.303,0.00390008,0.00280649,0.00815501,-0.0479987,0.0159044,0.23174,-0.10284,-0.126984,8.23662e-06,1.86901e-05,-2.43699e-05,0.225939,0.260791880320987,8.236653921134263e-06,1.8690274661059547e-05,-0.09772867465488533,-2.4369603056406675e-05,-0.11925223555134701
532,0.5226,988.582,0.00389477,0.00280262,0.00812803,-0.0480011,0.0159021,0.232137,-0.103017,-0.127203,8.25324e-06,1.86793e-05,-2.43868e-05,0.226332,0.2612925140666975,8.253274058178661e-06,1.8679474459215584e-05,-0.0978883625466761,-2.4386502644357932e-05,-0.11944509819253124
533,0.5236,988.86,0.00388948,0.00279876,0.00810101,-0.0480035,0.0158999,0.232533,-0.103194,-0.127421,8.26983e-06,1.86686e-05,-2.44036e-05,0.226725,0.2617920848107469,8.269864195220578e-06,1.8668774259378296e-05,-0.09804802217621134,-2.4403302234521362e-05,-0.11963703823890004
534,0.5246,989.138,0.00388419,0.0027949,0.00807397,-0.0480058,0.0158977,0.232929,-0.103371,-0.12764,8.28638e-06,1.86577e-05,-2.44203e-05,0.227118,0.2622918534239864,8.28641433203714e-06,1.8657874055971746e-05,-0.09820765354849292,-2.4420001826896964e-05,-0.11982981661752279
535,0.5256,989.416,0.00387892,0.00279105,0.00804689,-0.0480079,0.0158954,0.233326,-0.103548,-0.127859,8.30291e-06,1.86468e-05,-2.4437e-05,0.227511,0.2627930827772391,8.302944469296136e-06,1.8646973852565196e-05,-0.09836725666852197,-2.44367014189395e-05,-0.12002255278230323
536,0.5266,989.692,0.00387366,0.00278721,0.00801978,-0.04801,0.0158931,0.233721,-0.103725,-0.128077,8.31939e-06,1.86358e-05,-2.44537e-05,0.227904,0.2632919845715538,8.319424606328951e-06,1.863597364759606e-05,-0.09852683154129882,-2.445340101075999e-05,-0.12021436695729193
537,0.5276,989.969,0.00386841,0.00278338,0.00799264,-0.0480119,0.0158908,0.234117,-0.103901,-0.128296,8.33585e-06,1.86248e-05,-2.44702e-05,0.228297,0.26379234726271816,8.335884743360111e-06,1.8624973442626924e-05,-0.0986854768577502,-2.4469900607115846e-05,-0.1204070189147689
538,0.5286,990.245,0.00386317,0.00277956,0.00796548,-0.0480137,0.0158885,0.234513,-0.104078,-0.128514,8.35227e-06,1.86137e-05,-2.44868e-05,0.228689,0.264292908136746,8.352304880387962e-06,1.8613873236095202e-05,-0.09884499541053804,-2.448650020070442e-05,-0.12059874928527581
539,0.5296,990.52,0.00385793,0.00277574,0.00793828,-0.0480154,0.0158861,0.234908,-0.104254,-0.128733,8.36865e-06,1.86025e-05,-2.45032e-05,0.229081,0.2647924024790982,8.368685017190458e-06,1.8602673027556804e-05,-0.09900358473507587,-2.4502899799050404e-05,-0.12079131707224
540,0.5306,990.795,0.00385271,0.00277193,0.00791105,-0.0480171,0.0158838,0.235303,-0.104431,-0.128951,8.385e-06,1.85913e-05,-2.45196e-05,0.229473,0.26529209416068733,8.385035154212517e-06,1.859147281924045e-05,-0.09916304698775202,-2.451929939706332e-05,-0.1209829636748796
541,0.5316,991.069,0.0038475,0.00276813,0.0078838,-0.0480186,0.0158814,0.235698,-0.104607,-0.129169,8.40132e-06,1.858e-05,-2.4536e-05,0.229865,0.26579198325947817,8.401355291232093e-06,1.858017260936151e-05,-0.09932158034013794,-2.4535698994854194e-05,-0.12117456850311337
542,0.5326,991.343,0.0038423,0.00276433,0.00785651,-0.0480199,0.0158791,0.236093,-0.104784,-0.129387,8.4176e-06,1.85687e-05,-2.45523e-05,0.230257,0.2662920698534659,8.417635428026315e-06,1.8568872399482572e-05,-0.09948098631257296,-2.4551998594746216e-05,-0.12136613156604714
543,0.5336,991.616,0.00383711,0.00276055,0.0078292,-0.0480212,0.0158767,0.236488,-0.10496,-0.129605,8.43385e-06,1.85573e-05,-2.45685e-05,0.230649,0.26679235402067625,8.4338855650401e-06,1.8557472187819002e-05,-0.09963946371256172,-2.456819819685041e-05,-0.12155765287278486
544,0.5346,991.889,0.00383193,0.00275677,0.00780186,-0.0480224,0.0158743,0.236883,-0.105136,-0.129823,8.45007e-06,1.85458e-05,-2.45847e-05,0.23104,0.2672928358391664,8.450105702051403e-06,1.85459719743708e-05,-0.09979791322298237,-2.458439779873256e-05,-0.12174913243242824
545,0.5356,992.161,0.00382676,0.00275299,0.00777449,-0.0480235,0.0158718,0.237277,-0.105312,-0.130041,8.46625e-06,1.85343e-05,-2.46008e-05,0.231432,0.2677922475941421,8.46628583883735e-06,1.8534471761144644e-05,-0.09995633484874311,-2.4600497402826882e-05,-0.12194057025407734
546,0.5366,992.433,0.0038216,0.00274923,0.00774709,-0.0480245,0.0158694,0.237671,-0.105488,-0.130259,8.48239e-06,1.85227e-05,-2.46169e-05,0.231823,0.26829185615611784,8.48242597561999e-06,1.85228715463559e-05,-0.10011472859475123,-2.4616597006588137e-05,-0.12213196634682977
547,0.5376,992.705,0.00381645,0.00274547,0.00771967,-0.0480253,0.015867,0.238066,-0.105664,-0.130477,8.49851e-06,1.85111e-05,-2.46329e-05,0.232214,0.2687929303949468,8.498546112400973e-06,1.851127133156716e-05,-0.10027309446591304,-2.4632596612561564e-05,-0.12232332071978169
548,0.5386,992.975,0.00381131,0.00274172,0.00769221,-0.0480261,0.0158645,0.23846,-0.10584,-0.130694,8.51458e-06,1.84994e-05,-2.46489e-05,0.232605,0.26929293330362714,8.51461624917782e-06,1.8499571114993785e-05,-0.10043143246713426,-2.4648596218312946e-05,-0.1225137558962216
549,0.5396,993.246,0.00380618,0.00273798,0.00766473,-0.0480268,0.015862,0.238853,-0.106016,-0.130912,8.53063e-06,1.84876e-05,-2.46648e-05,0.232995,0.2697918634597696,8.530666385953012e-06,1.848777089663578e-05,-0.10058974260331943,-2.46644958262765e-05,-0.12270502704812314
550,0.5406,993.516,0.00380106,0.00273424,0.00763723,-0.0480273,0.0158595,0.239247,-0.106191,-0.131129,8.54664e-06,1.84758e-05,-2.46806e-05,0.233386,0.2702922600256228,8.546676522724894e-06,1.8475970678721865e-05,-0.10074712562694765,-2.4680295436452226e-05,-0.12289537940327622
551,0.5416,993.785,0.00379595,0.00273052,0.00760969,-0.0480278,0.015857,0.239641,-0.106367,-0.131346,8.56261e-06,1.8464e-05,-2.46964e-05,0.233776,0.27079285378656803,8.562646659271422e-06,1.846417046080795e-05,-0.1009053802060258,-2.4696095046405908e-05,-0.12308569045644968
552,0.5426,994.054,0.00379085,0.0027268,0.00758213,-0.0480281,0.0158545,0.240034,-0.106543,-0.131564,8.57855e-06,1.8452e-05,-2.47121e-05,0.234167,0.27129237352730584,8.578586795815468e-06,1.8452170239102728e-05,-0.10106360693474903,-2.4711794658571762e-05,-0.12327683694020641
553,0.5436,994.323,0.00378576,0.00272308,0.00755454,-0.0480284,0.015852,0.240427,-0.106718,-0.131781,8.59446e-06,1.84401e-05,-2.47278e-05,0.234557,0.27179208961788226,8.594496932579077e-06,1.8440270019626226e-05,-0.10122090703937481,-2.472749427051557e-05,-0.12346706522607487
554,0.5446,994.591,0.00378068,0.00271938,0.00752693,-0.0480285,0.0158494,0.24082,-0.106894,-0.131998,8.61033e-06,1.8428e-05,-2.47435e-05,0.234947,0.27229200213547755,8.610367068895286e-06,1.8428169796580463e-05,-0.10137907824026193,-2.4743193882126313e-05,-0.12365725223688384
555,0.5456,994.858,0.00377561,0.00271568,0.00749929,-0.0480286,0.0158469,0.241213,-0.107069,-0.132215,8.62617e-06,1.84159e-05,-2.47591e-05,0.235337,0.27279211115730284,8.626207205431058e-06,1.8416069573756744e-05,-0.10153632314223959,-2.475879349606025e-05,-0.12384739798158906
556,0.5466,995.126,0.00377055,0.00271199,0.00747163,-0.0480285,0.0158443,0.241606,-0.107244,-0.132432,8.64197e-06,1.84038e-05,-2.47746e-05,0.235726,0.27329241676059945,8.64200734196352e-06,1.8403969350933025e-05,-0.10169354052876722,-2.4774293112095336e-05,-0.12403750246914413
557,0.5476,995.392,0.0037655,0.00270831,0.00744394,-0.0480284,0.0158417,0.241999,-0.10742,-0.132649,8.65774e-06,1.83916e-05,-2.47901e-05,0.236116,0.2737929190226389,8.657777478271456e-06,1.839176912654672e-05,-0.10185162855347984,-2.47897927280194e-05,-0.12422756570850102
558,0.5486,995.658,0.00376045,0.00270463,0.00741622,-0.0480281,0.0158391,0.242391,-0.107595,-0.132865,8.67347e-06,1.83793e-05,-2.48055e-05,0.236505,0.2742923437277427,8.673507614576081e-06,1.8379468900375784e-05,-0.10200879076638825,-2.4805192346155636e-05,-0.12441671212575955
559,0.5496,995.924,0.00375542,0.00270096,0.00738848,-0.0480278,0.0158365,0.242783,-0.10777,-0.133082,8.68917e-06,1.8367e-05,-2.48208e-05,0.236894,0.27479196424570773,8.689207750878225e-06,1.8367168674426892e-05,-0.10216592547831582,-2.4820491966504044e-05,-0.12460669308554861
560,0.5506,996.189,0.0037504,0.0026973,0.00736072,-0.0480273,0.0158339,0.243176,-0.107945,-0.133299,8.70483e-06,1.83547e-05,-2.48362e-05,0.237283,0.27529305594572584,8.704867887177059e-06,1.8354868448478e-05,-0.10232303269407483,-2.4835891584085168e-05,-0.12479663282394204
561,0.5516,996.454,0.00374539,0.00269364,0.00733293,-0.0480268,0.0158312,0.243568,-0.10812,-0.133515,8.72046e-06,1.83422e-05,-2.48514e-05,0.237672,0.27579306881977717,8.720498023251366e-06,1.8342368219181893e-05,-0.10248011241847654,-2.4851091206534726e-05,-0.12498565633597791
562,0.5526,996.718,0.00374039,0.00268999,0.00730512,-0.0480261,0.0158286,0.243959,-0.108295,-0.133731,8.73606e-06,1.83298e-05,-2.48666e-05,0.238061,0.27629200144465726,8.736098159545236e-06,1.832996799189246e-05,-0.10263716465633177,-2.4866290828651216e-05,-0.12517463902334425
563,0.5536,996.982,0.00373539,0.00268635,0.00727728,-0.0480254,0.0158259,0.244351,-0.10847,-0.133948,8.75162e-06,1.83172e-05,-2.48818e-05,0.23845,0.2767924059821052,8.751658295613751e-06,1.8317367761033765e-05,-0.10279418941245,-2.4881490450545662e-05,-0.1253644555308403
564,0.5546,997.246,0.00373041,0.00268272,0.00724942,-0.0480245,0.0158232,0.244743,-0.108645,-0.134164,8.76715e-06,1.83047e-05,-2.48969e-05,0.238838,0.27729300671658375,8.767188431679784e-06,1.83048675319597e-05,-0.10295118669164016,-2.4896590074763303e-05,-0.12555335640641663
565,0.5556,997.509,0.00372544,0.00267909,0.00722153,-0.0480236,0.0158205,0.245134,-0.108819,-0.13438,8.78264e-06,1.8292e-05,-2.4912e-05,0.239227,0.27779252593185255,8.782678567520463e-06,1.8292167299760465e-05,-0.10310725960641853,-2.49116896987589e-05,-0.12574221648381023
566,0.5566,997.771,0.00372047,0.00267547,0.00719362,-0.0480225,0.0158178,0.245525,-0.108994,-0.134596,8.7981e-06,1.82794e-05,-2.4927e-05,0.239615,0.27829224049732315,8.79813870335866e-06,1.827956706934586e-05,-0.10326420210311837,-2.4926689324966667e-05,-0.1259310357718325
567,0.5576,998.033,0.00371552,0.00267186,0.00716569,-0.0480214,0.0158151,0.245916,-0.109169,-0.134812,8.81352e-06,1.82666e-05,-2.49419e-05,0.240003,0.278792150489392,8.813558839193547e-06,1.826676683536199e-05,-0.10342111713728441,-2.4941588953386606e-05,-0.12611981427929297
568,0.5586,998.295,0.00371057,0.00266826,0.00713773,-0.0480202,0.0158124,0.246307,-0.109343,-0.135028,8.8289e-06,1.82538e-05,-2.49568e-05,0.240391,0.27929225598448637,8.82893897480308e-06,1.825396660160017e-05,-0.10357710829127853,-2.4956488581695524e-05,-0.12630855201499935
569,0.5596,998.556,0.00370564,0.00266466,0.00710976,-0.0480189,0.0158096,0.246698,-0.109518,-0.135244,8.84426e-06,1.8241e-05,-2.49717e-05,0.240778,0.2797925570590625,8.844299110633003e-06,1.824116636806039e-05,-0.10373396857165273,-2.4971388209671375e-05,-0.1264972489877575
570,0.5606,998.817,0.00370071,0.00266107,0.00708176,-0.0480175,0.0158069,0.247089,-0.109692,-0.13546,8.85958e-06,1.82281e-05,-2.49865e-05,0.241166,0.2802930537896071,8.859619246237571e-06,1.8228266132735982e-05,-0.10388990529423292,-2.498618783997042e-05,-0.12668590520637102
571,0.5616,999.077,0.00369579,0.00265748,0.00705373,-0.0480159,0.0158041,0.247479,-0.109866,-0.135675,8.87486e-06,1.82152e-05,-2.50012e-05,0.241553,0.2807924654595306,8.874899381616785e-06,1.8215365897855662e-05,-0.10404581488618392,-2.500088747259266e-05,-0.1268736475537261
572,0.5626,999.337,0.00369089,0.0026539,0.00702569,-0.0480143,0.0158013,0.247869,-0.110041,-0.135891,8.89011e-06,1.82022e-05,-2.50159e-05,0.241941,0.28129207193799055,8.890149517215562e-06,1.8202365660968667e-05,-0.10420259315008062,-2.5015587104992854e-05,-0.12706222247902932
573,0.5636,999.596,0.00368599,0.00265033,0.00699762,-0.0480126,0.0157985,0.248259,-0.110215,-0.136106,8.90532e-06,1.81891e-05,-2.50306e-05,0.242328,0.2817918733009772,8.905359652588984e-06,1.818926542274113e-05,-0.10435844833907781,-2.5030286737171004e-05,-0.12724988392686787
574,0.5646,999.855,0.0036811,0.00264677,0.00696953,-0.0480108,0.0157957,0.248649,-0.110389,-0.136322,8.9205e-06,1.8176e-05,-2.50452e-05,0.242715,0.28229186962451025,8.92053978773788e-06,1.8176165184513593e-05,-0.10451427641163136,-2.5044886371561326e-05,-0.12743837759389076
575,0.5656,1000.11,0.00367622,0.00264321,0.00694142,-0.048009,0.0157929,0.249039,-0.110563,-0.136537,8.93564e-06,1.81629e-05,-2.50597e-05,0.243101,0.28279206098463905,8.935679922883466e-06,1.81630649465081e-05,-0.10467007737245904,-2.5059386008385864e-05,-0.12762595817707278
576,0.5666,1000.37,0.00367135,0.00263966,0.00691329,-0.048007,0.0157901,0.249429,-0.110737,-0.136752,8.95075e-06,1.81497e-05,-2.50742e-05,0.243488,0.283292447457443,8.95079005802657e-06,1.8149864706717977e-05,-0.10482585122627797,-2.5073885644877336e-05,-0.12781349843476464
577,0.5676,1000.63,0.00366649,0.00263612,0.00688514,-0.0480049,0.0157872,0.249819,-0.110911,-0.136967,8.96583e-06,1.81364e-05,-2.50887e-05,0.243875,0.2837930291190305,8.965870193167191e-06,1.8136564465587313e-05,-0.10498159797780426,-2.5088385281146763e-05,-0.12800099837563517
578,0.5686,1000.89,0.00366164,0.00263258,0.00685696,-0.0480028,0.0157844,0.250208,-0.111085,-0.137182,8.98087e-06,1.81232e-05,-2.51031e-05,0.244261,0.2842925217523762,8.980910328082459e-06,1.812336422624128e-05,-0.10513731763175338,-2.5102784919850407e-05,-0.12818845800835177
579,0.5696,1001.14,0.00365679,0.00262905,0.00682877,-0.0480005,0.0157815,0.250597,-0.111258,-0.137397,8.99587e-06,1.81098e-05,-2.51174e-05,0.244647,0.2847922087261532,8.995910462994416e-06,1.8109963983325983e-05,-0.10529211548540263,-2.5117084560766223e-05,-0.12837587734157974
580,0.5706,1001.4,0.00365196,0.00262553,0.00680055,-0.0479982,0.0157786,0.250986,-0.111432,-0.137612,9.01084e-06,1.80964e-05,-2.51317e-05,0.245033,0.28529209011597456,9.010880597681847e-06,1.8096563740854776e-05,-0.10544778111400577,-2.5131384201459994e-05,-0.12856325638398247
581,0.5716,1001.65,0.00364714,0.00262202,0.00677232,-0.0479957,0.0157757,0.251375,-0.111606,-0.137827,9.02578e-06,1.8083e-05,-2.5146e-05,0.245419,0.2857921659974825,9.025820732366796e-06,1.808316349838357e-05,-0.10560341965914577,-2.5145683842042743e-05,-0.1287505951442215
582,0.5726,1001.91,0.00364232,0.00261851,0.00674406,-0.0479932,0.0157728,0.251764,-0.111779,-0.138042,9.04068e-06,1.80695e-05,-2.51602e-05,0.245805,0.2862924364463495,9.040720867048435e-06,1.8069663254349777e-05,-0.10575813688411895,-2.5159883484837664e-05,-0.12893789363095665
583,0.5736,1002.17,0.00363752,0.00261501,0.00671579,-0.0479906,0.0157699,0.252153,-0.111953,-0.138256,9.05554e-06,1.8056e-05,-2.51743e-05,0.246191,0.28679290153827663,9.05558100150472e-06,1.805616301053803e-05,-0.10591372143205291,-2.517398312995578e-05,-0.12912428097756223
584,0.5746,1002.42,0.00363272,0.00261151,0.00668749,-0.0479879,0.015767,0.252541,-0.112126,-0.138471,9.07037e-06,1.80424e-05,-2.51884e-05,0.246576,0.28729227405607705,9.070411135958523e-06,1.8042562765163694e-05,-0.10606838497946258,-2.5188082774962872e-05,-0.12931149913047946
585,0.5756,1002.67,0.00362793,0.00260802,0.00665918,-0.0479851,0.0157641,0.252929,-0.1123,-0.138685,9.08517e-06,1.80288e-05,-2.52025e-05,0.246961,0.2877918403680082,9.085211270187799e-06,1.802896251978936e-05,-0.10622391554892419,-2.5202182419636898e-05,-0.1294978065340624
586,0.5766,1002.93,0.00362315,0.00260454,0.00663084,-0.0479822,0.0157611,0.253318,-0.112473,-0.1389,9.09993e-06,1.80151e-05,-2.52165e-05,0.247347,0.28829288884152104,9.099971404413765e-06,1.801526227285244e-05,-0.10637852543739323,-2.521618206674514e-05,-0.12968494438761735
587,0.5776,1003.18,0.00361839,0.00260106,0.00660249,-0.0479793,0.0157582,0.253706,-0.112646,-0.139114,9.11465e-06,1.80014e-05,-2.52304e-05,0.247732,0.2887928434673168,9.114691538636421e-06,1.8001562026137563e-05,-0.10653310858066511,-2.5230081716176578e-05,-0.12987117188246577
588,0.5786,1003.43,0.00361362,0.00259759,0.00657411,-0.0479762,0.0157552,0.254094,-0.112819,-0.139328,9.12934e-06,1.79876e-05,-2.52444e-05,0.248117,0.28929299211314485,9.129381672634551e-06,1.79877617778601e-05,-0.10668766498336635,-2.524408136284073e-05,-0.1300573595288942
589,0.5796,1003.69,0.00360887,0.00259413,0.00654572,-0.0479731,0.0157522,0.254481,-0.112992,-0.139543,9.144e-06,1.79738e-05,-2.52582e-05,0.248501,0.2897920450616098,9.144041806408154e-06,1.7973961529804683e-05,-0.10684219465012268,-2.5257881014373318e-05,-0.13024437709148717
590,0.5806,1003.94,0.00360413,0.00259068,0.00651731,-0.0479698,0.0157492,0.254869,-0.113165,-0.139757,9.15862e-06,1.79599e-05,-2.5272e-05,0.248886,0.29029258147287806,9.158661940178447e-06,1.7960061279964634e-05,-0.10699669758555896,-2.527168066568386e-05,-0.13043048488054587
591,0.5816,1004.19,0.0035994,0.00258723,0.00648889,-0.0479665,0.0157462,0.255256,-0.113338,-0.139971,9.1732e-06,1.7946e-05,-2.52858e-05,0.24927,0.2907920213372883,9.173242073945431e-06,1.794616103034663e-05,-0.10715117379429928,-2.528548031688338e-05,-0.13061655284679896
592,0.5826,1004.44,0.00359467,0.00258378,0.00646044,-0.0479631,0.0157432,0.255644,-0.113511,-0.140184,9.18775e-06,1.79321e-05,-2.52995e-05,0.249655,0.2912929458146316,9.187792207487888e-06,1.7932260781172715e-05,-0.10730562328096704,-2.529917997029507e-05,-0.13080171180091393
593,0.5836,1004.69,0.00358996,0.00258035,0.00643197,-0.0479596,0.0157402,0.256031,-0.113684,-0.140398,9.20227e-06,1.79181e-05,-2.53132e-05,0.250039,0.29179277289496364,9.202312341027863e-06,1.791826053021417e-05,-0.10746004605018478,-2.5312879623706763e-05,-0.1309877003331058
594,0.5846,1004.94,0.00358525,0.00257692,0.00640349,-0.047956,0.0157372,0.256418,-0.113857,-0.140612,9.21675e-06,1.7904e-05,-2.53268e-05,0.250423,0.29229279344580994,9.216792474342483e-06,1.7904160277470993e-05,-0.10761444210657412,-2.5326479279330627e-05,-0.1311736490680102
595,0.5856,1005.19,0.00358055,0.0025735,0.00637499,-0.0479524,0.0157341,0.256805,-0.11403,-0.140826,9.23119e-06,1.78899e-05,-2.53404e-05,0.250807,0.29279300754205817,9.231232607653794e-06,1.7890060025171906e-05,-0.10776881145475614,-2.5340078934732446e-05,-0.1313595580141429
596,0.5866,1005.44,0.00357586,0.00257008,0.00634647,-0.0479486,0.0157311,0.257191,-0.114202,-0.141039,9.2456e-06,1.78758e-05,-2.5354e-05,0.25119,0.29329212196585597,9.245642740740578e-06,1.7875959773094863e-05,-0.10792226202205879,-2.5353678590023243e-05,-0.1315445587250108
597,0.5876,1005.69,0.00357118,0.00256667,0.00631794,-0.0479448,0.015728,0.257578,-0.114375,-0.141253,9.25997e-06,1.78616e-05,-2.53675e-05,0.251574,0.29379272287708513,9.260012873602008e-06,1.786175951923319e-05,-0.10807657812200144,-2.5367178247637234e-05,-0.13173038830496941
598,0.5886,1005.94,0.00356651,0.00256327,0.00628939,-0.0479409,0.0157249,0.257964,-0.114547,-0.141466,9.27431e-06,1.78474e-05,-2.53809e-05,0.251957,0.29429222326548876,9.274353006460956e-06,1.7847559265815605e-05,-0.10822997575798954,-2.5380577907685442e-05,-0.13191531003739676
599,0.5896,1006.19,0.00356185,0.00255987,0.00626082,-0.0479369,0.0157218,0.25835,-0.11472,-0.141679,9.28862e-06,1.78331e-05,-2.53943e-05,0.252341,0.29479191649825887,9.288663139317421e-06,1.783325901061339e-05,-0.10838423862806046,-2.5393977567511605e-05,-0.1321001923856897
600,0.5906,1006.44,0.00355719,0.00255648,0.00623223,-0.0479328,0.0157187,0.258737,-0.114892,-0.141893,9.30289e-06,1.78188e-05,-2.54076e-05,0.252724,0.29529309794229786,9.302933271948532e-06,1.7818958755855263e-05,-0.10853758335099217,-2.5407277229660963e-05,-0.13228590307276689
601,0.5916,1006.68,0.00355255,0.0025531,0.00620363,-0.0479287,0.0157156,0.259122,-0.115064,-0.142106,9.31712e-06,1.78045e-05,-2.54209e-05,0.253107,0.29579188179473626,9.317163404576334e-06,1.7804658501097137e-05,-0.10869090170089979,-2.5420576891699298e-05,-0.13247070649314951
602,0.5926,1006.93,0.00354791,0.00254972,0.00617501,-0.0479244,0.0157125,0.259508,-0.115237,-0.142319,9.33132e-06,1.77901e-05,-2.54342e-05,0.25349,0.2962921540074346,9.331363536979609e-06,1.7790258244776425e-05,-0.10884508483767963,-2.543387655351559e-05,-0.13265547055459537
603,0.5936,1007.18,0.00354328,0.00254635,0.00614638,-0.0479201,0.0157094,0.259894,-0.115409,-0.142532,9.34549e-06,1.77756e-05,-2.54474e-05,0.253872,0.296792619362481,9.345533669158357e-06,1.7775757986893126e-05,-0.10899835030187977,-2.5447076217655074e-05,-0.13284019526548707
604,0.5946,1007.42,0.00353866,0.00254298,0.00611773,-0.0479157,0.0157062,0.260279,-0.115581,-0.142745,9.35961e-06,1.77612e-05,-2.54606e-05,0.254255,0.2972919806418137,9.359653801332968e-06,1.7761357731016503e-05,-0.10915158940668701,-2.5460275881683536e-05,-0.1330248806342056
605,0.5956,1007.67,0.00353405,0.00253962,0.00608906,-0.0479112,0.0157031,0.260665,-0.115753,-0.142958,9.37371e-06,1.77466e-05,-2.54737e-05,0.254637,0.2977928320044356,9.37375393328388e-06,1.7746757471792662e-05,-0.10930480215663485,-2.5473375548035193e-05,-0.13320952666912966
606,0.5966,1007.91,0.00352945,0.00253627,0.00606038,-0.0479066,0.0156999,0.26105,-0.115925,-0.14317,9.38777e-06,1.77321e-05,-2.54868e-05,0.255019,0.2982925784397732,9.387814065231481e-06,1.7732257214575498e-05,-0.10945798855625588,-2.5486475214275828e-05,-0.13339326677233665
607,0.5976,1008.16,0.00352486,0.00253293,0.00603168,-0.0479019,0.0156968,0.261435,-0.116097,-0.143383,9.40179e-06,1.77175e-05,-2.54998e-05,0.255402,0.2987925173145307,9.401834196953729e-06,1.7717656955795746e-05,-0.10961114861008203,-2.5499474882839657e-05,-0.13357783434936943
608,0.5986,1008.4,0.00352027,0.00252959,0.00600297,-0.0478972,0.0156936,0.26182,-0.116269,-0.143596,9.41578e-06,1.77028e-05,-2.55128e-05,0.255783,0.29929264870281136,9.415824328673494e-06,1.770295669545341e-05,-0.10976428232264424,-2.5512474551292463e-05,-0.1337623626176948
609,0.5996,1008.65,0.00351569,0.00252625,0.00597424,-0.0478924,0.0156904,0.262205,-0.11644,-0.143808,9.42973e-06,1.76881e-05,-2.55258e-05,0.256165,0.2997929726787474,9.429774459945861e-06,1.7688256435333116e-05,-0.1099164996154176,-2.5525474219523225e-05,-0.13394598553210313
610,0.6006,1008.89,0.00351112,0.00252293,0.0059455,-0.0478875,0.0156872,0.262589,-0.116612,-0.144021,9.44365e-06,1.76734e-05,-2.55387e-05,0.256547,0.30029218902365984,9.44369459143779e-06,1.7673556175434868e-05,-0.11006958081212348,-2.5538373890188204e-05,-0.1341304353925773
611,0.6016,1009.14,0.00350657,0.00251961,0.00591674,-0.0478825,0.015684,0.262974,-0.116784,-0.144233,9.45753e-06,1.76586e-05,-2.55515e-05,0.256928,0.30079289789670716,9.45757472248232e-06,1.7658755913974034e-05,-0.11022263568112778,-2.5551173563176377e-05,-0.13431398028382813
612,0.6026,1009.38,0.00350201,0.00251629,0.00588797,-0.0478775,0.0156808,0.263358,-0.116955,-0.144445,9.47138e-06,1.76438e-05,-2.55643e-05,0.25731,0.3012924982866352,9.471424853746413e-06,1.7643955652735244e-05,-0.11037477460217782,-2.5563973236053528e-05,-0.13449748626768643
613,0.6036,1009.62,0.00349747,0.00251298,0.00585918,-0.0478723,0.0156776,0.263742,-0.117127,-0.144657,9.48519e-06,1.7629e-05,-2.55771e-05,0.257691,0.3017922905599524,9.485234984563107e-06,1.76291553917185e-05,-0.11052777698236427,-2.5576772908819656e-05,-0.1346809533523996
614,0.6046,1009.86,0.00349294,0.00250968,0.00583038,-0.0478671,0.0156743,0.264126,-0.117298,-0.144869,9.49897e-06,1.76141e-05,-2.55898e-05,0.258072,0.3022922747903558,9.499015115377318e-06,1.7614255129139167e-05,-0.11067986372871297,-2.558947258390898e-05,-0.13486438154621327
615,0.6056,1010.11,0.00348841,0.00250639,0.00580157,-0.0478618,0.0156711,0.26451,-0.11747,-0.145081,9.51271e-06,1.75991e-05,-2.56025e-05,0.258453,0.3027924510515714,9.512755245966176e-06,1.759925486499725e-05,-0.11083281363808228,-2.5602172258776257e-05,-0.13504777085737163
616,0.6066,1010.35,0.00348389,0.0025031,0.00577274,-0.0478565,0.0156678,0.264894,-0.117641,-0.145293,9.52642e-06,1.75842e-05,-2.56151e-05,0.258834,0.30329281941735275,9.526465376552551e-06,1.7584354602862007e-05,-0.11098484822762233,-2.561477193607775e-05,-0.13523112129411685
617,0.6076,1010.59,0.00347938,0.00249981,0.0057439,-0.047851,0.0156646,0.265277,-0.117812,-0.145505,9.54009e-06,1.75692e-05,-2.56277e-05,0.259215,0.3037920761687545,9.540135506913572e-06,1.7569354339386223e-05,-0.11113685682147023,-2.5627371613268224e-05,-0.13541443286468946
618,0.6086,1010.83,0.00347488,0.00249654,0.00571504,-0.0478455,0.0156613,0.265661,-0.117983,-0.145717,9.55373e-06,1.75541e-05,-2.56403e-05,0.259595,0.30429282846429095,9.553775637050066e-06,1.7554254074125808e-05,-0.11128883942407086,-2.5639971290347674e-05,-0.1355977055773282
619,0.6096,1011.07,0.00347039,0.00249326,0.00568617,-0.0478399,0.015658,0.266044,-0.118155,-0.145929,9.56733e-06,1.7539e-05,-2.56528e-05,0.259975,0.3047924682925123,9.567375766961206e-06,1.7539153809087438e-05,-0.11144168459862813,-2.565247096975032e-05,-0.13578093944027014
620,0.6106,1011.31,0.0034659,0.00249,0.00565729,-0.0478342,0.0156547,0.266427,-0.118326,-0.14614,9.58089e-06,1.75239e-05,-2.56653e-05,0.260356,0.30529229951943826,9.580935896869036e-06,1.7524053544493157e-05,-0.11159361508013532,-2.566497064904194e-05,-0.13596327042545275
621,0.6116,1011.55,0.00346143,0.00248674,0.00562839,-0.0478285,0.0156514,0.26681,-0.118497,-0.146352,9.59442e-06,1.75087e-05,-2.56777e-05,0.260736,0.3057923222183887,9.59446602655234e-06,1.7508853278114245e-05,-0.11174551958375145,-2.5677370330656757e-05,-0.1361464267968613
622,0.6126,1011.79,0.00345696,0.00248349,0.00559948,-0.0478226,0.0156481,0.267193,-0.118667,-0.146563,9.60792e-06,1.74935e-05,-2.56901e-05,0.261116,0.3062925364627114,9.607966156233161e-06,1.7493653012179422e-05,-0.11189651001087231,-2.568977001216055e-05,-0.13632868067234705
623,0.6136,1012.03,0.0034525,0.00248024,0.00557056,-0.0478167,0.0156448,0.267576,-0.118838,-0.146775,9.62138e-06,1.74783e-05,-2.57024e-05,0.261495,0.30679294232578247,9.621426285688628e-06,1.7478452746466644e-05,-0.11204836272388341,-2.5702069696098562e-05,-0.13651175958499406
624,0.6146,1012.27,0.00344805,0.002477,0.00554163,-0.0478107,0.0156414,0.267958,-0.119009,-0.146986,9.6348e-06,1.7463e-05,-2.57147e-05,0.261875,0.30729223258811933,9.63484641491874e-06,1.7463152478969235e-05,-0.1122001894723007,-2.571436937992555e-05,-0.13669393638339356
625,0.6156,1012.5,0.00344361,0.00247377,0.00551269,-0.0478047,0.0156381,0.268341,-0.11918,-0.147197,9.64819e-06,1.74477e-05,-2.57269e-05,0.262255,0.30779302140813813,9.648236543924327e-06,1.7447852211915915e-05,-0.11235199026056364,-2.5726569066186755e-05,-0.13687607474654362
626,0.6166,1012.74,0.00343917,0.00247054,0.00548373,-0.0477985,0.0156348,0.268723,-0.119351,-0.147408,9.66155e-06,1.74323e-05,-2.57392e-05,0.262634,0.30829269377366164,9.66159667292743e-06,1.7432451943522054e-05,-0.112503765093111,-2.5738868749680677e-05,-0.1370581746825532
627,0.6176,1012.98,0.00343474,0.00246731,0.00545476,-0.0477923,0.0156314,0.269105,-0.119521,-0.147619,9.67487e-06,1.74169e-05,-2.57513e-05,0.263013,0.30879255705049036,9.67491680170518e-06,1.7417051675128192e-05,-0.11265462662945136,-2.5750968438154054e-05,-0.13724023619952974
628,0.6186,1013.22,0.00343032,0.0024641,0.00542578,-0.0477861,0.015628,0.269487,-0.119692,-0.14783,9.68815e-06,1.74015e-05,-2.57634e-05,0.263392,0.3092926113115668,9.688196930257575e-06,1.7401651406956375e-05,-0.1128063497156041,-2.5763068126405386e-05,-0.1374222593055786
629,0.6196,1013.45,0.00342591,0.00246089,0.00539678,-0.0477797,0.0156247,0.269869,-0.119862,-0.148041,9.7014e-06,1.7386e-05,-2.57755e-05,0.263771,0.30979285662986045,9.701447058807489e-06,1.7386151137444017e-05,-0.11295715981693066,-2.577516781465672e-05,-0.13760424400880378
630,0.6206,1013.69,0.00342151,0.00245768,0.00536778,-0.0477733,0.0156213,0.27025,-0.120033,-0.148252,9.71461e-06,1.73705e-05,-2.57876e-05,0.26415,0.31029198278573134,9.714657186910003e-06,1.737065086793166e-05,-0.11310883117433124,-2.5787267502686007e-05,-0.13778619031730732
631,0.6216,1013.93,0.00341712,0.00245448,0.00533876,-0.0477668,0.0156179,0.270632,-0.120203,-0.148463,9.72779e-06,1.7355e-05,-2.57996e-05,0.264528,0.3107926099368534,9.727837315010035e-06,1.735515059886339e-05,-0.11325958985818041,-2.579926719314951e-05,-0.13796809823918965
632,0.6226,1014.16,0.00341273,0.00245129,0.00530973,-0.0477602,0.0156145,0.271013,-0.120373,-0.148673,9.74094e-06,1.73394e-05,-2.58115e-05,0.264907,0.3112921170713061,9.740987443107585e-06,1.7339550328232534e-05,-0.11341032291523168,-2.5811166886047232e-05,-0.1381491059320865
633,0.6236,1014.4,0.00340835,0.0024481,0.0052807,-0.0477536,0.0156111,0.271394,-0.120543,-0.148884,9.75404e-06,1.73238e-05,-2.58234e-05,0.265285,0.3117918145542362,9.754087570756909e-06,1.7323950057823723e-05,-0.11356103034984122,-2.582306657883393e-05,-0.1383309372868523
634,0.6246,1014.63,0.00340398,0.00244492,0.00525165,-0.0477468,0.0156077,0.271776,-0.120713,-0.149094,9.76712e-06,1.73081e-05,-2.58353e-05,0.265664,0.3122930147505387,9.767167698404577e-06,1.730824978607437e-05,-0.11371171216636444,-2.5834966271509607e-05,-0.1385118687915492
635,0.6256,1014.87,0.00339962,0.00244175,0.00522259,-0.0477401,0.0156043,0.272157,-0.120884,-0.149305,9.78015e-06,1.72924e-05,-2.58472e-05,0.266042,0.3127930936481391,9.780197825826065e-06,1.7292549514325017e-05,-0.1138632545063446,-2.584686596396324e-05,-0.13869362361142634
636,0.6266,1015.1,0.00339526,0.00243858,0.00519352,-0.0477332,0.0156008,0.272537,-0.121054,-0.149515,9.79316e-06,1.72767e-05,-2.5859e-05,0.26642,0.31329204981939385,9.793207953245897e-06,1.7276849243019754e-05,-0.11401388494912812,-2.585866565896211e-05,-0.1388744789599916
637,0.6276,1015.33,0.00339091,0.00243541,0.00516443,-0.0477263,0.0155974,0.272918,-0.121224,-0.149725,9.80612e-06,1.7261e-05,-2.58707e-05,0.266797,0.3137925094218754,9.806168080217503e-06,1.7261148971936535e-05,-0.11416448978691285,-2.5870365356284175e-05,-0.13905529633292135
638,0.6286,1015.57,0.00338658,0.00243226,0.00513534,-0.0477193,0.0155939,0.273298,-0.121393,-0.149936,9.81906e-06,1.72452e-05,-2.58824e-05,0.267175,0.31429184544329125,9.819108207187455e-06,1.724534869929073e-05,-0.11431418333867749,-2.588206505360624e-05,-0.13923693650168345
639,0.6296,1015.8,0.00338224,0.0024291,0.00510624,-0.0477122,0.0155905,0.273679,-0.121563,-0.150146,9.83195e-06,1.72293e-05,-2.58941e-05,0.267552,0.3147926860404804,9.83199833370918e-06,1.7229448425304383e-05,-0.1144647371300751,-2.589376475070626e-05,-0.13941767776652103
640,0.6306,1016.03,0.00337792,0.00242596,0.00507713,-0.047705,0.015587,0.274059,-0.121733,-0.150356,9.84481e-06,1.72135e-05,-2.59057e-05,0.26793,0.3152924022012329,9.844858460228423e-06,1.7213648153102667e-05,-0.1146152653295035,-2.5905364450240498e-05,-0.13959838107967815
641,0.6316,1016.26,0.00337361,0.00242282,0.00504801,-0.0476978,0.0155836,0.274439,-0.121903,-0.150566,9.85764e-06,1.71976e-05,-2.59173e-05,0.268307,0.31579230829021077,9.857688586745184e-06,1.719774787956041e-05,-0.11476576794131299,-2.5916964149663713e-05,-0.13977904644912365
642,0.6326,1016.5,0.0033693,0.00241968,0.00501888,-0.0476905,0.0155801,0.274819,-0.122072,-0.150775,9.87043e-06,1.71817e-05,-2.59289e-05,0.268684,0.31629240437960027,9.870478712814545e-06,1.7181847606240197e-05,-0.1149153598856556,-2.5928563848975905e-05,-0.13995881384206887
643,0.6336,1016.73,0.003365,0.00241655,0.00498974,-0.0476832,0.0155766,0.275199,-0.122242,-0.150985,9.88319e-06,1.71657e-05,-2.59404e-05,0.269061,0.3167926905416152,9.883238838881425e-06,1.7165847331579442e-05,-0.1150658114857267,-2.5940063550722314e-05,-0.14013940352858123
644,0.6346,1016.96,0.00336071,0.00241343,0.00496059,-0.0476758,0.0155731,0.275578,-0.122411,-0.151195,9.89591e-06,1.71497e-05,-2.59519e-05,0.269438,0.31729184955598866,9.89595896472295e-06,1.7149847056918688e-05,-0.11521535272699479,-2.59515632523577e-05,-0.14031995529524122
645,0.6356,1017.19,0.00335642,0.00241031,0.00493143,-0.0476683,0.0155696,0.275958,-0.122581,-0.151405,9.90859e-06,1.71337e-05,-2.59633e-05,0.269814,0.31779251557933974,9.908639090339122e-06,1.7133846782702022e-05,-0.11536575333261745,-2.5962962956427305e-05,-0.14050046915001113
646,0.6366,1017.42,0.00335215,0.0024072,0.00490226,-0.0476607,0.0155661,0.276337,-0.12275,-0.151614,9.92124e-06,1.71176e-05,-2.59747e-05,0.270191,0.3182920535992195,9.921289215730766e-06,1.711774650692277e-05,-0.11551524388799661,-2.5974362660385886e-05,-0.14068008578136693
647,0.6376,1017.65,0.00334788,0.0024041,0.00487309,-0.0476531,0.0155626,0.276717,-0.122919,-0.151823,9.93386e-06,1.71015e-05,-2.5986e-05,0.270567,0.31879309977233095,9.933909340897884e-06,1.710164623158761e-05,-0.11566470918160643,-2.5985662366778683e-05,-0.14085966487676949
648,0.6386,1017.88,0.00334362,0.002401,0.0048439,-0.0476454,0.015559,0.277096,-0.123089,-0.152033,9.94644e-06,1.70854e-05,-2.59974e-05,0.270943,0.3192930170854913,9.946489466061692e-06,1.7085545956252446e-05,-0.11581503340312471,-2.599706207051522e-05,-0.14104006540442704
649,0.6396,1018.11,0.00333936,0.0023979,0.00481471,-0.0476376,0.0155555,0.277474,-0.123258,-0.152242,9.95898e-06,1.70692e-05,-2.60086e-05,0.27132,0.31979180411075836,9.959029590778101e-06,1.7069345679576742e-05,-0.11596444803658745,-2.6008261779342234e-05,-0.1412195692719499
650,0.6406,1018.34,0.00333512,0.00239481,0.00478551,-0.0476298,0.0155519,0.277853,-0.123427,-0.152451,9.97149e-06,1.7053e-05,-2.60199e-05,0.271695,0.32029210000459973,9.971539715492028e-06,1.7053145403123082e-05,-0.1161138374211107,-2.6019561485290943e-05,-0.14139903562708467
651,0.6416,1018.57,0.00333088,0.00239173,0.0047563,-0.0476219,0.0155484,0.278232,-0.123596,-0.152661,9.98396e-06,1.70368e-05,-2.60311e-05,0.272071,0.3207925855465208,9.984009839980601e-06,1.7036945127113512e-05,-0.11626320156096126,-2.6030761193895913e-05,-0.14157932289877695
652,0.6426,1018.8,0.00332665,0.00238865,0.00472708,-0.0476139,0.0155448,0.27861,-0.123765,-0.15287,9.9964e-06,1.70205e-05,-2.60422e-05,0.272447,0.3212919395158118,9.996449964244647e-06,1.7020644849541355e-05,-0.11641254046040495,-2.6041860904824077e-05,-0.14175871407326035
653,0.6436,1019.02,0.00332243,0.00238558,0.00469785,-0.0476059,0.0155413,0.278989,-0.123934,-0.153079,1.00088e-05,1.70042e-05,-2.60534e-05,0.272822,0.3217928040687257,1.0008850088283339e-05,1.7004344572191243e-05,-0.11656185412370723,-2.605306061309598e-05,-0.14193806775890605
654,0.6446,1019.25,0.00331821,0.00238251,0.00466862,-0.0475978,0.0155377,0.279367,-0.124103,-0.153287,1.00212e-05,1.69879e-05,-2.60644e-05,0.273198,0.32229253619208453,1.002125021232203e-05,1.698804429528522e-05,-0.1167111425551326,-2.606406032645836e-05,-0.1421165260805033
655,0.6456,1019.48,0.003314,0.00237945,0.00463938,-0.0475896,0.0155341,0.279745,-0.124272,-0.153496,1.00335e-05,1.69716e-05,-2.60755e-05,0.273573,0.3227924572498926,1.0033550335686314e-05,1.6971744018379198e-05,-0.11686040575894474,-2.6075160037053458e-05,-0.14229580499125372
656,0.6466,1019.71,0.0033098,0.0023764,0.00461013,-0.0475814,0.0155305,0.280123,-0.12444,-0.153705,1.00458e-05,1.69552e-05,-2.60865e-05,0.273948,0.32329256731358025,1.0045850459272643e-05,1.6955343740132633e-05,-0.11700876074860922,-2.6086159750193794e-05,-0.14247504643662712
657,0.6476,1019.93,0.00330561,0.00237335,0.00458087,-0.0475731,0.0155269,0.280501,-0.124609,-0.153914,1.00581e-05,1.69387e-05,-2.60975e-05,0.274323,0.3237928664546055,1.0058150582858971e-05,1.6938843460545527e-05,-0.11715797365919656,-2.6097159463223107e-05,-0.1426542504244528
658,0.6486,1020.16,0.00330143,0.0023703,0.00455161,-0.0475647,0.0155233,0.280878,-0.124778,-0.154122,1.00703e-05,1.69223e-05,-2.61084e-05,0.274698,0.32429203045176,1.0070350705548847e-05,1.6922443182965097e-05,-0.1173071613549328,-2.6108059178686638e-05,-0.142832559795547
659,0.6496,1020.39,0.00329725,0.00236727,0.00452234,-0.0475563,0.0155197,0.281256,-0.124946,-0.154331,1.00825e-05,1.69058e-05,-2.61193e-05,0.275073,0.3247927074612642,1.0082550828682812e-05,1.690594290382208e-05,-0.11745544129596142,-2.6118958894039146e-05,-0.14301168907088846
660,0.6506,1020.61,0.00329308,0.00236423,0.00449306,-0.0475478,0.0155161,0.281633,-0.125115,-0.154539,1.00946e-05,1.68893e-05,-2.61301e-05,0.275447,0.3252922484695404,1.009465095069828e-05,1.6889442625123152e-05,-0.11760457872391472,-2.6129758611936893e-05,-0.14318992410247577
661,0.6516,1020.84,0.00328892,0.0023612,0.00446378,-0.0475393,0.0155125,0.28201,-0.125283,-0.154748,1.01068e-05,1.68728e-05,-2.61409e-05,0.275821,0.3257919778402809,1.0106851073832246e-05,1.6872942346424225e-05,-0.1177528087030223,-2.6140558329612595e-05,-0.14336897869648157
662,0.6526,1021.06,0.00328476,0.00235818,0.00443448,-0.0475307,0.0155089,0.282387,-0.125451,-0.154956,1.01189e-05,1.68562e-05,-2.61517e-05,0.276196,0.3262918956445118,1.0118951196291803e-05,1.68563420666068e-05,-0.11790101378158502,-2.6151358047288298e-05,-0.1435471394195551
663,0.6536,1021.29,0.00328061,0.00235517,0.00440519,-0.047522,0.0155052,0.282764,-0.12562,-0.155164,1.01309e-05,1.68396e-05,-2.61625e-05,0.27657,0.3267920019532857,1.0130951317632864e-05,1.6839741786789375e-05,-0.11805007591415095,-2.6162157764741956e-05,-0.1437252630890521
664,0.6546,1021.51,0.00327647,0.00235216,0.00437588,-0.0475132,0.0155016,0.283141,-0.125788,-0.155372,1.01429e-05,1.68229e-05,-2.61732e-05,0.276944,0.32729229683768235,1.0142951439418013e-05,1.6823041505853453e-05,-0.1181982310560169,-2.6172857484740852e-05,-0.1439033497126786
665,0.6556,1021.73,0.00327234,0.00234915,0.00434657,-0.0475044,0.0154979,0.283518,-0.125956,-0.15558,1.01549e-05,1.68063e-05,-2.61838e-05,0.277318,0.3277927803688079,1.0154951561203163e-05,1.6806441226702162e-05,-0.11834636130990983,-2.6183457207284988e-05,-0.14408139929813957
666,0.6566,1021.96,0.00326821,0.00234615,0.00431726,-0.0474955,0.0154943,0.283894,-0.126124,-0.155788,1.01669e-05,1.67896e-05,-2.61945e-05,0.277691,0.32829212432500743,1.0166951683210357e-05,1.678974094621033e-05,-0.11849446668001029,-2.619415692706184e-05,-0.14425941185313806
667,0.6576,1022.18,0.0032641,0.00234315,0.00428793,-0.0474866,0.0154906,0.284271,-0.126292,-0.155996,1.01788e-05,1.67729e-05,-2.62051e-05,0.278065,0.3287929848621569,1.0178851804099054e-05,1.6773040665940542e-05,-0.1186425471704986,-2.620475664938393e-05,-0.1444373873853756
668,0.6586,1022.4,0.00325999,0.00234016,0.00425861,-0.0474776,0.0154869,0.284647,-0.12646,-0.156204,1.01906e-05,1.67561e-05,-2.62156e-05,0.278438,0.3292927049659573,1.0190651924313343e-05,1.6756240384330212e-05,-0.11879060278555398,-2.621525637414024e-05,-0.1446153259025521
669,0.6596,1022.63,0.00325588,0.00233718,0.00422927,-0.0474686,0.0154832,0.285023,-0.126628,-0.156412,1.02025e-05,1.67393e-05,-2.62261e-05,0.278812,0.3297926129998454,1.020255204564613e-05,1.6739440102941927e-05,-0.11893863352935541,-2.6225756098896547e-05,-0.1447932274123659
670,0.6606,1022.85,0.00325179,0.0023342,0.00419994,-0.0474594,0.0154796,0.285399,-0.126796,-0.156619,1.02143e-05,1.67225e-05,-2.62366e-05,0.279185,0.33029270903449603,1.0214352166082463e-05,1.6722639821775687e-05,-0.11908663940608077,-2.623625582343081e-05,-0.14497023689317823
671,0.6616,1023.07,0.0032477,0.00233123,0.00417059,-0.0474503,0.0154759,0.285775,-0.126964,-0.156827,1.02261e-05,1.67057e-05,-2.62471e-05,0.279558,0.33079299314061084,1.0226152286740842e-05,1.6705839541053535e-05,-0.11923462041990729,-2.624675554785405e-05,-0.14514806458918295
672,0.6626,1023.29,0.00324362,0.00232826,0.00414124,-0.047441,0.0154722,0.28615,-0.127132,-0.157034,1.02378e-05,1.66888e-05,-2.62575e-05,0.279931,0.3312921340961186,1.0237852406502768e-05,1.6688939258768798e-05,-0.11938257657501172,-2.625715527482253e-05,-0.14532500062630138
673,0.6636,1023.51,0.00323954,0.0023253,0.00411189,-0.0474317,0.0154685,0.286526,-0.127299,-0.157242,1.02495e-05,1.66719e-05,-2.62679e-05,0.280303,0.3317927940567127,1.0249552526264694e-05,1.667203897692815e-05,-0.11952962740563755,-2.626755500179101e-05,-0.1455027545391233
674,0.6646,1023.74,0.00323547,0.00232234,0.00408253,-0.0474223,0.0154648,0.286901,-0.127467,-0.157449,1.02612e-05,1.6655e-05,-2.62782e-05,0.280676,0.3322923100078712,1.0261252646248664e-05,1.6655138695309546e-05,-0.11967753400373127,-2.6277854731082684e-05,-0.14567961716302058
675,0.6656,1023.96,0.00323141,0.00231939,0.00405316,-0.0474129,0.015461,0.287276,-0.127634,-0.157656,1.02728e-05,1.6638e-05,-2.62885e-05,0.281048,0.33279201331263786,1.0272852765336182e-05,1.66381384123504e-05,-0.11982453558057937,-2.6288154460374358e-05,-0.14585644318014368
676,0.6666,1024.18,0.00322736,0.00231644,0.00402379,-0.0474034,0.0154573,0.287651,-0.127802,-0.157863,1.02844e-05,1.66211e-05,-2.62988e-05,0.281421,0.3332919040412836,1.0284452884645745e-05,1.6621238131175886e-05,-0.1199723926382612,-2.629845418955501e-05,-0.14603323259806933
677,0.6676,1024.4,0.00322332,0.0023135,0.00399442,-0.0473939,0.0154536,0.288026,-0.127969,-0.158071,1.0296e-05,1.66041e-05,-2.6309e-05,0.281793,0.33379198226410556,1.0296053003955308e-05,1.6604237848882875e-05,-0.12011934497782872,-2.63086539212809e-05,-0.1462108392139606
678,0.6686,1024.62,0.00321928,0.00231057,0.00396504,-0.0473843,0.0154498,0.288401,-0.128137,-0.158278,1.03075e-05,1.6587e-05,-2.63192e-05,0.282165,0.3342922480514272,1.0307553122368418e-05,1.6587137565027277e-05,-0.12026715251169195,-2.631885365289577e-05,-0.14638755527949954
679,0.6696,1024.84,0.00321525,0.00230763,0.00393566,-0.0473746,0.0154461,0.288776,-0.128304,-0.158485,1.0319e-05,1.657e-05,-2.63293e-05,0.282537,0.3347927014735985,1.0319053241003573e-05,1.6570137283178354e-05,-0.1204140556304707,-2.6328953387055876e-05,-0.1465642347685986
680,0.6706,1025.05,0.00321122,0.00230471,0.00390627,-0.0473649,0.0154423,0.28915,-0.128471,-0.158691,1.03304e-05,1.65529e-05,-2.63395e-05,0.282908,0.33529200730832076,1.0330453358742275e-05,1.655303699998889e-05,-0.12056093421847702,-2.63391531184487e-05,-0.14674002442927958
681,0.6716,1025.27,0.00320721,0.00230179,0.00387688,-0.0473551,0.0154386,0.289525,-0.128638,-0.158898,1.03419e-05,1.65358e-05,-2.63496e-05,0.28328,0.33579283571051755,1.0341953477599475e-05,1.653593671702147e-05,-0.1207077882798071,-2.6349252852386762e-05,-0.14691663096481566
682,0.6726,1025.49,0.0032032,0.00229887,0.00384749,-0.0473453,0.0154348,0.289899,-0.128805,-0.159105,1.03532e-05,1.65186e-05,-2.63596e-05,0.283651,0.3362925156654004,1.035325359466377e-05,1.651873643271351e-05,-0.12085461781855666,-2.635925258875904e-05,-0.1470932009465824
683,0.6736,1025.71,0.00319919,0.00229596,0.00381809,-0.0473354,0.0154311,0.290273,-0.128972,-0.159312,1.03646e-05,1.65014e-05,-2.63696e-05,0.284023,0.33679238253553745,1.0364653712624516e-05,1.6501536148849638e-05,-0.12100142283882054,-2.636925232513132e-05,-0.14726973438214552
684,0.6746,1025.93,0.0031952,0.00229306,0.00378869,-0.0473254,0.0154273,0.290647,-0.129139,-0.159518,1.03759e-05,1.64843e-05,-2.63796e-05,0.284394,0.3372924363908478,1.0375953829910856e-05,1.6484435866770397e-05,-0.12114820334469312,-2.6379252061392577e-05,-0.1474453787248744
685,0.6756,1026.15,0.00319121,0.00229016,0.00375929,-0.0473154,0.0154235,0.291021,-0.129306,-0.159725,1.03872e-05,1.6467e-05,-2.63896e-05,0.284765,0.3377926773012774,1.0387253947197195e-05,1.6467135581788028e-05,-0.1212949593402678,-2.6389251797542812e-05,-0.1476218392671821
686,0.6766,1026.36,0.00318723,0.00228727,0.00372988,-0.0473053,0.0154197,0.291395,-0.129473,-0.159931,1.03984e-05,1.64498e-05,-2.63995e-05,0.285136,0.33829310533679746,1.0398454063587081e-05,1.6449935298812335e-05,-0.12144169082963763,-2.6399151536238286e-05,-0.1477974110837751
687,0.6776,1026.58,0.00318325,0.00228438,0.00370047,-0.0472952,0.0154159,0.291768,-0.12964,-0.160137,1.04096e-05,1.64325e-05,-2.64094e-05,0.285507,0.338792381774355,1.0409654179976968e-05,1.6432635014274055e-05,-0.12158839781689468,-2.6409051274822737e-05,-0.1479729467362988
688,0.6786,1026.8,0.00317928,0.00228149,0.00367105,-0.047285,0.0154121,0.292141,-0.129807,-0.160344,1.04208e-05,1.64152e-05,-2.64192e-05,0.285877,0.3392918444767601,1.0420854296810944e-05,1.6415334730179865e-05,-0.12173508030613045,-2.641885101606345e-05,-0.14814929808333033
689,0.6796,1027.01,0.00317532,0.00227861,0.00364164,-0.0472747,0.0154083,0.292515,-0.129973,-0.16055,1.0432e-05,1.63979e-05,-2.6429e-05,0.286248,0.3397928333056657,1.0432054413422875e-05,1.639803444630772e-05,-0.12188086018273514,-2.6428650757082117e-05,-0.14832476125459804
690,0.6806,1027.23,0.00317137,0.00227574,0.00361221,-0.0472644,0.0154045,0.292888,-0.13014,-0.160756,1.04431e-05,1.63805e-05,-2.64388e-05,0.286618,0.34029266924609636,1.0443154529360399e-05,1.638063416109503e-05,-0.12202749383483391,-2.6438450497989763e-05,-0.1485001882841751
691,0.6816,1027.44,0.00316742,0.00227287,0.00358279,-0.0472541,0.0154007,0.293261,-0.130306,-0.160962,1.04541e-05,1.63631e-05,-2.64485e-05,0.286988,0.34079269166010806,1.045415464440147e-05,1.6363233876326433e-05,-0.12217322517482143,-2.644815024155367e-05,-0.14867557917950613
692,0.6826,1027.66,0.00316348,0.00227001,0.00355337,-0.0472437,0.0153969,0.293634,-0.130473,-0.161168,1.04652e-05,1.63457e-05,-2.64582e-05,0.287359,0.34129290061726847,1.0465254760338993e-05,1.634583359177988e-05,-0.1223198100060432,-2.6457849984895532e-05,-0.14885093394803384
693,0.6836,1027.87,0.00315955,0.00226715,0.00352394,-0.0472332,0.015393,0.294006,-0.130639,-0.161374,1.04762e-05,1.63283e-05,-2.64679e-05,0.287729,0.34179195439454557,1.0476254875602109e-05,1.632843330745537e-05,-0.12246549282557362,-2.6467549728237394e-05,-0.1490262525971997
694,0.6846,1028.09,0.00315562,0.0022643,0.00349451,-0.0472227,0.0153892,0.294379,-0.130806,-0.16158,1.04871e-05,1.63109e-05,-2.64775e-05,0.288098,0.3422925361462277,1.0487154989746728e-05,1.6311033023352906e-05,-0.12261202885217293,-2.6477149474124495e-05,-0.14920153513444356
695,0.6856,1028.3,0.0031517,0.00226145,0.00346508,-0.0472121,0.0153854,0.294751,-0.130972,-0.161785,1.04981e-05,1.62934e-05,-2.64872e-05,0.288468,0.3427919618570969,1.0498155105231888e-05,1.6293532738131944e-05,-0.12275766316740089,-2.6486849217244313e-05,-0.14937593094355983
696,0.6866,1028.52,0.00314779,0.0022586,0.00343564,-0.0472015,0.0153815,0.295124,-0.131138,-0.161991,1.0509e-05,1.62759e-05,-2.64967e-05,0.288838,0.34329291668113604,1.0509055219820596e-05,1.6276032453133027e-05,-0.12290327330933892,-2.649634896556563e-05,-0.14955114145448312
697,0.6876,1028.73,0.00314389,0.00225577,0.00340621,-0.0471908,0.0153777,0.295496,-0.131304,-0.162196,1.05198e-05,1.62584e-05,-2.65063e-05,0.289207,0.34379271460279126,1.0519855333290806e-05,1.62585321685782e-05,-0.1230488592819996,-2.6505948711119665e-05,-0.14972546560164945
698,0.6886,1028.94,0.00313999,0.00225293,0.00337677,-0.04718,0.0153738,0.295868,-0.13147,-0.162402,1.05307e-05,1.62408e-05,-2.65158e-05,0.289576,0.3442926984838597,1.0530755448101559e-05,1.6240931882460785e-05,-0.12319442108939449,-2.651544845932996e-05,-0.14990060411584916
699,0.6896,1029.16,0.0031361,0.0022501,0.00334733,-0.0471692,0.0153699,0.29624,-0.131636,-0.162607,1.05415e-05,1.62232e-05,-2.65252e-05,0.289945,0.34479286839353085,1.0541555561793814e-05,1.622333159678746e-05,-0.12333995873553483,-2.6524848209974472e-05,-0.15007485663051245
700,0.6906,1029.37,0.00313221,0.00224728,0.00331789,-0.0471584,0.0153661,0.296611,-0.131802,-0.162813,1.05522e-05,1.62056e-05,-2.65347e-05,0.290314,0.3452918791084687,1.0552255674589617e-05,1.620573131133618e-05,-0.12348547222443096,-2.6534347957962723e-05,-0.15024992317757313
701,0.6916,1029.58,0.00312833,0.00224446,0.00328844,-0.0471474,0.0153622,0.296983,-0.131968,-0.163018,1.05629e-05,1.6188e-05,-2.65441e-05,0.290683,0.3457924207824761,1.0562955787607464e-05,1.618813102632899e-05,-0.12363096156009279,-2.6543747708496213e-05,-0.1504241040891683
702,0.6926,1029.8,0.00312446,0.00224165,0.003259,-0.0471365,0.0153583,0.297354,-0.132134,-0.163223,1.05736e-05,1.61704e-05,-2.65535e-05,0.291052,0.3462918024001487,1.0573655900625312e-05,1.6170530741543843e-05,-0.12377642674652933,-2.655314745891868e-05,-0.15059824929733623
703,0.6936,1030.01,0.0031206,0.00223884,0.00322955,-0.0471255,0.0153544,0.297726,-0.1323,-0.163428,1.05843e-05,1.61527e-05,-2.65628e-05,0.291421,0.3467927161148159,1.0584356013865204e-05,1.61528304556402e-05,-0.12392186778774894,-2.656244721199741e-05,-0.15077235880939555
704,0.6946,1030.22,0.00311674,0.00223604,0.00320011,-0.0471144,0.0153506,0.298097,-0.132466,-0.163633,1.05949e-05,1.6135e-05,-2.65721e-05,0.291789,0.3472924689109058,1.0594956126208643e-05,1.6135130169736556e-05,-0.12406728468775963,-2.6571746964854093e-05,-0.15094643263266316
705,0.6956,1030.43,0.00311289,0.00223324,0.00317066,-0.0471033,0.0153467,0.298468,-0.132631,-0.163838,1.06055e-05,1.61173e-05,-2.65814e-05,0.292157,0.34779240714968074,1.0605556238552083e-05,1.6117429884277e-05,-0.12421180166280776,-2.6581046717710777e-05,-0.15112047077445445
706,0.6966,1030.64,0.00310904,0.00223045,0.00314121,-0.0470921,0.0153428,0.298839,-0.132797,-0.164043,1.0616e-05,1.60996e-05,-2.65906e-05,0.292526,0.3482925308999527,1.061605634999907e-05,1.6099729599261536e-05,-0.1243571704377896,-2.65902464731127e-05,-0.15129447324208334
707,0.6976,1030.85,0.0031052,0.00222766,0.00311176,-0.0470809,0.0153388,0.29921,-0.132963,-0.164248,1.06266e-05,1.60818e-05,-2.65998e-05,0.292894,0.3487928402305587,1.0626656462564554e-05,1.608192931290553e-05,-0.12450251508355759,-2.65994462284036e-05,-0.15146844004286242
708,0.6986,1031.06,0.00310137,0.00222487,0.00308232,-0.0470696,0.0153349,0.29958,-0.133128,-0.164453,1.0637e-05,1.6064e-05,-2.6609e-05,0.293262,0.3492919859177017,1.0637056573115089e-05,1.6064129026771568e-05,-0.12464696025151478,-2.66086459836945e-05,-0.1516423711841025
709,0.6996,1031.27,0.00309755,0.0022221,0.00305287,-0.0470583,0.015331,0.299951,-0.133294,-0.164657,1.06475e-05,1.60462e-05,-2.66181e-05,0.293629,0.3497926661149109,1.064755668478412e-05,1.604632874085965e-05,-0.12479225679616612,-2.661774574153064e-05,-0.15181541848895574
710,0.7006,1031.48,0.00309373,0.00221932,0.00302342,-0.0470469,0.0153271,0.300321,-0.133459,-0.164862,1.06579e-05,1.60284e-05,-2.66272e-05,0.293997,0.3502921818060776,1.06579567955567e-05,1.6028528455391822e-05,-0.12493665416068456,-2.6626845499255758e-05,-0.1519892785069048
711,0.7016,1031.69,0.00308992,0.00221655,0.00299397,-0.0470354,0.0153232,0.300691,-0.133624,-0.165066,1.06683e-05,1.60105e-05,-2.66363e-05,0.294365,0.35079188235224623,1.0668356906551324e-05,1.6010628168805496e-05,-0.12508102770160334,-2.6635945256869853e-05,-0.15216225504988212
712,0.7026,1031.9,0.00308611,0.00221379,0.00296452,-0.047024,0.0153192,0.301062,-0.133789,-0.165271,1.06786e-05,1.59926e-05,-2.66454e-05,0.294732,0.35129311911426897,1.067865701642745e-05,1.599272788221917e-05,-0.1252253774228531,-2.6645045014483948e-05,-0.15233604397362355
713,0.7036,1032.11,0.00308232,0.00221103,0.00293506,-0.0470124,0.0153153,0.301431,-0.133955,-0.165475,1.06889e-05,1.59747e-05,-2.66544e-05,0.295099,0.3517918382832501,1.0688957126525622e-05,1.597482759629898e-05,-0.12537057795822304,-2.6654044774643282e-05,-0.1525089497836607
714,0.7046,1032.32,0.00307852,0.00220828,0.00290561,-0.0470008,0.0153114,0.301801,-0.13412,-0.16568,1.06992e-05,1.59568e-05,-2.66634e-05,0.295466,0.35229209380497917,1.0699257236623794e-05,1.5956927310378788e-05,-0.12551487990762178,-2.6663044534691593e-05,-0.15268266764226612
715,0.7056,1032.53,0.00307474,0.00220553,0.00287617,-0.0469892,0.0153074,0.302171,-0.134285,-0.165884,1.07094e-05,1.59389e-05,-2.66723e-05,0.295833,0.3527925344554983,1.0709457345825513e-05,1.5939027024902686e-05,-0.12565915804916294,-2.6671944297396166e-05,-0.15285550274828696
716,0.7066,1032.74,0.00307096,0.00220278,0.00284672,-0.0469775,0.0153035,0.30254,-0.13445,-0.166088,1.07196e-05,1.59209e-05,-2.66812e-05,0.2962,0.3532918070108335,1.0719657455027232e-05,1.5921026738308086e-05,-0.12580341238677473,-2.6680844059989717e-05,-0.15302830259954225
717,0.7076,1032.94,0.00306719,0.00220004,0.00281727,-0.0469658,0.0152995,0.30291,-0.134615,-0.166292,1.07298e-05,1.59029e-05,-2.66901e-05,0.296567,0.35379261762367764,1.0729857564450995e-05,1.5903026451713487e-05,-0.12594764292438443,-2.6689743822472245e-05,-0.15320106720322313
718,0.7086,1033.15,0.00306342,0.00219731,0.00278782,-0.046954,0.0152955,0.303279,-0.13478,-0.166496,1.074e-05,1.58849e-05,-2.6699e-05,0.296933,0.3542922592777966,1.0740057674096803e-05,1.588502616578502e-05,-0.12609184966591847,-2.669864358484375e-05,-0.15337379656651962
719,0.7096,1033.36,0.00305966,0.00219458,0.00275837,-0.0469421,0.0152916,0.303648,-0.134944,-0.1667,1.07501e-05,1.58669e-05,-2.67078e-05,0.2973,0.3547920853337061,1.0750157782624115e-05,1.5867025879856556e-05,-0.12623515885089898,-2.6707443349871518e-05,-0.15354649069661985
720,0.7106,1033.56,0.00305591,0.00219185,0.00272892,-0.0469303,0.0152876,0.304017,-0.135109,-0.166904,1.07601e-05,1.58489e-05,-2.67166e-05,0.297666,0.35529209585946275,1.0760157890032929e-05,1.584902559437218e-05,-0.12637931815621872,-2.6716243114788263e-05,-0.15371914960071076
721,0.7116,1033.77,0.00305216,0.00218913,0.00269948,-0.0469183,0.0152836,0.304386,-0.135274,-0.167107,1.07702e-05,1.58308e-05,-2.67254e-05,0.298032,0.35579229092314857,1.0770257998782284e-05,1.5830925307769306e-05,-0.1265234536772155,-2.6725042879705008e-05,-0.15389092717732789
722,0.7126,1033.98,0.00304843,0.00218641,0.00267003,-0.0469063,0.0152796,0.304755,-0.135439,-0.167311,1.07801e-05,1.58127e-05,-2.67341e-05,0.298398,0.3562926705928706,1.078015810551669e-05,1.5812825021388477e-05,-0.1266675654178132,-2.673374264716699e-05,-0.15406351582354327
723,0.7136,1034.18,0.00304469,0.0021837,0.00264059,-0.0468943,0.0152757,0.305123,-0.135603,-0.167515,1.07901e-05,1.57946e-05,-2.67428e-05,0.298764,0.3567918781442043,1.0790158213369594e-05,1.5794724735451737e-05,-0.12681078019315206,-2.6742442414517953e-05,-0.15423606926526578
724,0.7146,1034.39,0.00304096,0.00218099,0.00261115,-0.0468822,0.0152717,0.305492,-0.135768,-0.167718,1.08e-05,1.57765e-05,-2.67515e-05,0.29913,0.3572926267296719,1.0800058320104e-05,1.5776624449737042e-05,-0.1269548445287857,-2.6751142181868914e-05,-0.15440774191784123
725,0.7156,1034.6,0.00303724,0.00217829,0.00258171,-0.0468701,0.0152677,0.30586,-0.135932,-0.167922,1.08099e-05,1.57583e-05,-2.67601e-05,0.299496,0.35779220233258147,1.0809958427282496e-05,1.5758424162681806e-05,-0.12709801219421357,-2.6759741951765115e-05,-0.15458022514460268
726,0.7166,1034.8,0.00303353,0.0021756,0.00255227,-0.0468579,0.0152637,0.306228,-0.136097,-0.168125,1.08198e-05,1.57402e-05,-2.67687e-05,0.299861,0.35829196181314416,1.0819858534238946e-05,1.5740323877633244e-05,-0.12724202914047666,-2.6768341721550293e-05,-0.15475182794062514
727,0.7176,1035.01,0.00302982,0.0021729,0.00252283,-0.0468457,0.0152597,0.306596,-0.136261,-0.168328,1.08296e-05,1.5722e-05,-2.67773e-05,0.300226,0.3587919052390398,1.0829658640298945e-05,1.572212359124414e-05,-0.12738514971149006,-2.677694149133547e-05,-0.15492339590481574
728,0.7186,1035.21,0.00302612,0.00217021,0.00249339,-0.0468334,0.0152557,0.306964,-0.136425,-0.168532,1.08394e-05,1.57038e-05,-2.67858e-05,0.300592,0.3592920326779725,1.0839458746580988e-05,1.5703923305299128e-05,-0.1275282468126543,-2.6785441263665888e-05,-0.15509577394889285
729,0.7196,1035.41,0.00302243,0.00216753,0.00246396,-0.0468211,0.0152516,0.307332,-0.136589,-0.168735,1.08492e-05,1.56855e-05,-2.67944e-05,0.300957,0.35979234419767137,1.084925885286303e-05,1.5685623018013573e-05,-0.12767132044781826,-2.679404103322902e-05,-0.15526727209913005
730,0.7206,1035.62,0.00301874,0.00216485,0.00243453,-0.0468087,0.0152476,0.3077,-0.136754,-0.168938,1.08589e-05,1.56673e-05,-2.68028e-05,0.301322,0.36029283986589067,1.0858958958026577e-05,1.5667422732734693e-05,-0.1278152428060233,-2.68024408082157e-05,-0.15543873543877607
731,0.7216,1035.82,0.00301506,0.00216218,0.0024051,-0.0467963,0.0152436,0.308067,-0.136918,-0.169141,1.08686e-05,1.5649e-05,-2.68113e-05,0.301687,0.36079215895757044,1.0868659063412167e-05,1.5649122446337316e-05,-0.12795826937770372,-2.6810940580324072e-05,-0.1556101639748969
732,0.7226,1036.03,0.00301138,0.00215951,0.00237567,-0.0467838,0.0152396,0.308435,-0.137082,-0.169344,1.08782e-05,1.56307e-05,-2.68197e-05,0.302051,0.3612930226253295,1.0878259167901305e-05,1.563082215993994e-05,-0.12810127249494963,-2.6819340355088706e-05,-0.15578155771455682
733,0.7236,1036.23,0.00300771,0.00215684,0.00234625,-0.0467713,0.0152355,0.308802,-0.137246,-0.169547,1.08879e-05,1.56124e-05,-2.68281e-05,0.302416,0.36179270885144676,1.088795927350894e-05,1.5612521874208696e-05,-0.1282442521616073,-2.6827740129742317e-05,-0.15595291666481892
734,0.7246,1036.43,0.00300405,0.00215418,0.00231682,-0.0467588,0.0152315,0.309169,-0.13741,-0.169749,1.08974e-05,1.55941e-05,-2.68365e-05,0.30278,0.36229257849606444,1.0897459376879581e-05,1.5594221588699497e-05,-0.1283872083815224,-2.6836139904395928e-05,-0.1561233969565634
735,0.7256,1036.64,0.00300039,0.00215153,0.0022874,-0.0467461,0.0152275,0.309536,-0.137573,-0.169952,1.0907e-05,1.55758e-05,-2.68448e-05,0.303145,0.3627926316265093,1.0907059481590764e-05,1.5575921303412343e-05,-0.12852926968824518,-2.684443968159478e-05,-0.15629468652050227
736,0.7266,1036.84,0.00299674,0.00214888,0.00225798,-0.0467335,0.0152234,0.309903,-0.137737,-0.170155,1.09165e-05,1.55574e-05,-2.68531e-05,0.303509,0.3632928683101331,1.091655958518345e-05,1.5557521017006692e-05,-0.12867217916911855,-2.6852739458682606e-05,-0.15646594131618874
737,0.7276,1037.04,0.00299309,0.00214623,0.00222857,-0.0467208,0.0152194,0.310269,-0.137901,-0.170357,1.0926e-05,1.5539e-05,-2.68614e-05,0.303873,0.3637919248217052,1.092605968899818e-05,1.5539120730823086e-05,-0.12881506521475883,-2.6861039235770434e-05,-0.15663631798741973
738,0.7286,1037.24,0.00298945,0.00214359,0.00219916,-0.0467081,0.0152153,0.310636,-0.138065,-0.17056,1.09354e-05,1.55206e-05,-2.68696e-05,0.304237,0.3642925283132368,1.0935459791694413e-05,1.552072044508357e-05,-0.12895792782900906,-2.6869239015514523e-05,-0.1568075034389571
739,0.7296,1037.44,0.00298582,0.00214095,0.00216975,-0.0466953,0.0152113,0.311002,-0.138228,-0.170762,1.09449e-05,1.55022e-05,-2.68779e-05,0.3046,0.3647919507673334,1.0944959895731188e-05,1.550232015978814e-05,-0.1290998961160431,-2.687753879249133e-05,-0.15697781112160736
740,0.7306,1037.64,0.0029822,0.00213832,0.00214034,-0.0466824,0.0152072,0.311369,-0.138392,-0.170965,1.09542e-05,1.54838e-05,-2.6886e-05,0.304964,0.3652929213357414,1.0954259997530968e-05,1.5483919874714758e-05,-0.12924271202185578,-2.6885638574780657e-05,-0.1571489272570743
741,0.7316,1037.85,0.00297858,0.00213569,0.00211094,-0.0466696,0.0152031,0.311735,-0.138555,-0.171167,1.09636e-05,1.54653e-05,-2.68942e-05,0.305328,0.3657927100006968,1.0963660100449246e-05,1.5465419588300833e-05,-0.1293846338928495,-2.689383835419168e-05,-0.15731916597907858
742,0.7326,1038.05,0.00297496,0.00213307,0.00208154,-0.0466566,0.0151991,0.312101,-0.138719,-0.171369,1.09729e-05,1.54469e-05,-2.69023e-05,0.305691,0.3662926816217824,1.0972960202471072e-05,1.5447019303893583e-05,-0.1295274031054956,-2.6901938136369985e-05,-0.15748937031633403
743,0.7336,1038.25,0.00297135,0.00213045,0.00205214,-0.0466437,0.015195,0.312467,-0.138882,-0.171571,1.09822e-05,1.54284e-05,-2.69104e-05,0.306054,0.3667928362659727,1.0982260304492897e-05,1.5428519018367837e-05,-0.1296692785756245,-2.691003791843727e-05,-0.15765954027578555
744,0.7346,1038.45,0.00296775,0.00212783,0.00202275,-0.0466307,0.0151909,0.312832,-0.139045,-0.171773,1.09914e-05,1.54099e-05,-2.69185e-05,0.306417,0.3672918067077757,1.099146040561827e-05,1.5410018733064135e-05,-0.1298111309219364,-2.691813770039353e-05,-0.1578296758643769
745,0.7356,1038.65,0.00296416,0.00212522,0.00199336,-0.0466176,0.0151868,0.313198,-0.139209,-0.171975,1.10006e-05,1.53913e-05,-2.69265e-05,0.30678,0.36779232709867493,1.1000660506743642e-05,1.5391418446641936e-05,-0.129953830194805,-2.6926137485006052e-05,-0.15799977708905022
746,0.7366,1038.85,0.00296057,0.00212262,0.00196398,-0.0466045,0.0151827,0.313564,-0.139372,-0.172177,1.10098e-05,1.53728e-05,-2.69346e-05,0.307143,0.36829303071356545,1.100986060809106e-05,1.5372918162004368e-05,-0.1300956361629828,-2.6934237266962313e-05,-0.15816984395674627
747,0.7376,1039.05,0.00295699,0.00212002,0.00193459,-0.0465914,0.0151786,0.313929,-0.139535,-0.172379,1.10189e-05,1.53542e-05,-2.69425e-05,0.307506,0.36879254882628576,1.101896070831998e-05,1.5354317876248302e-05,-0.13023741901867159,-2.6942137054120074e-05,-0.15833987647440462
748,0.7386,1039.25,0.00295341,0.00211742,0.00190522,-0.0465782,0.0151746,0.314294,-0.139698,-0.172581,1.1028e-05,1.53357e-05,-2.69505e-05,0.307868,0.3692922492963955,1.10280608085489e-05,1.5335817592498913e-05,-0.13037917876563831,-2.6950136838510552e-05,-0.15850987464896305
749,0.7396,1039.44,0.00294984,0.00211483,0.00187584,-0.046565,0.0151705,0.314659,-0.139861,-0.172782,1.10371e-05,1.53171e-05,-2.69584e-05,0.308231,0.3697921321904669,1.1037160908999866e-05,1.531721730740898e-05,-0.13052091540764943,-2.695803662555729e-05,-0.15867899716677614
750,0.7406,1039.64,0.00294627,0.00211224,0.00184647,-0.0465517,0.0151663,0.315024,-0.140024,-0.172984,1.10462e-05,1.52984e-05,-2.69663e-05,0.308593,0.37029219757509746,1.104626100945083e-05,1.5298517021200553e-05,-0.13066262894847058,-2.696593641260403e-05,-0.15884892684587304
751,0.7416,1039.84,0.00294271,0.00210966,0.00181711,-0.0465384,0.0151622,0.315389,-0.140187,-0.173185,1.10552e-05,1.52798e-05,-2.69742e-05,0.308955,0.3707924455169078,1.1055261109005343e-05,1.5279916736776755e-05,-0.1308043193918671,-2.6973836199539747e-05,-0.15901798122104316
752,0.7426,1040.04,0.00293916,0.00210708,0.00178775,-0.046525,0.0151581,0.315754,-0.14035,-0.173387,1.10641e-05,1.52612e-05,-2.6982e-05,0.309317,0.371292876082544,1.1064161207441359e-05,1.5261316452797047e-05,-0.13094598674160363,-2.6981635989131725e-05,-0.15918784243227668
753,0.7436,1040.24,0.00293561,0.0021045,0.00175839,-0.0465116,0.015154,0.316118,-0.140513,-0.173588,1.10731e-05,1.52425e-05,-2.69898e-05,0.309679,0.37179211754587205,1.1073161306995871e-05,1.5242616167476797e-05,-0.13108763100144394,-2.698943577861268e-05,-0.15935682869225964
754,0.7446,1040.44,0.00293207,0.00210193,0.00172904,-0.0464982,0.0151499,0.316483,-0.140675,-0.17379,1.1082e-05,1.52238e-05,-2.69976e-05,0.310041,0.3722929130583974,1.1082061405653931e-05,1.5223915882600636e-05,-0.13122838340396925,-2.6997235568093636e-05,-0.1595266214632166
755,0.7456,1040.63,0.00292854,0.00209937,0.00169969,-0.0464847,0.0151458,0.316847,-0.140838,-0.173991,1.10909e-05,1.52051e-05,-2.70054e-05,0.310403,0.37279251860144313,1.1090961504311991e-05,1.5205215598168564e-05,-0.13136998163690494,-2.700503535746357e-05,-0.15969553963545746
756,0.7466,1040.83,0.00292501,0.00209681,0.00167035,-0.0464712,0.0151416,0.317211,-0.141001,-0.174192,1.10997e-05,1.51864e-05,-2.70131e-05,0.310764,0.37329230603400854,1.1099761601851554e-05,1.5186515313958537e-05,-0.13151155679120952,-2.7012735149489764e-05,-0.1598644238585578
757,0.7476,1041.03,0.00292148,0.00209425,0.00164101,-0.0464576,0.0151375,0.317575,-0.141163,-0.174393,1.11085e-05,1.51677e-05,-2.70208e-05,0.311126,0.3737922754223133,1.1108561699613162e-05,1.51678150301926e-05,-0.13165224052331947,-2.702043494151596e-05,-0.16003327413934054
758,0.7486,1041.22,0.00291797,0.0020917,0.00161168,-0.046444,0.0151334,0.317939,-0.141326,-0.174594,1.11173e-05,1.5149e-05,-2.70285e-05,0.311487,0.37429242683260133,1.111736179737477e-05,1.5149114746648706e-05,-0.13179376967317502,-2.702813473343113e-05,-0.1602020904846274
759,0.7496,1041.42,0.00291446,0.00208915,0.00158235,-0.0464304,0.0151292,0.318303,-0.141488,-0.174795,1.1126e-05,1.51302e-05,-2.70361e-05,0.311848,0.37479276033114073,1.1126061894239925e-05,1.5130314461986316e-05,-0.13193440769050102,-2.7035734527891542e-05,-0.16037087290123886
760,0.7506,1041.62,0.00291095,0.0020866,0.00155303,-0.0464167,0.0151251,0.318666,-0.14165,-0.174996,1.11347e-05,1.51114e-05,-2.70437e-05,0.312209,0.37529190069163554,1.113476199110508e-05,1.5111514177768015e-05,-0.13207502292631357,-2.7043334322462975e-05,-0.16053962139599387
761,0.7516,1041.81,0.00290745,0.00208407,0.00152371,-0.0464029,0.015121,0.31903,-0.141813,-0.175197,1.11434e-05,1.50926e-05,-2.70513e-05,0.31257,0.37579259806488086,1.1143462087970235e-05,1.5092713893771759e-05,-0.13221648316825363,-2.7050934116923386e-05,-0.16070833597571
762,0.7526,1042.01,0.00290396,0.00208153,0.0014944,-0.0463892,0.0151168,0.319393,-0.141975,-0.175397,1.1152e-05,1.50738e-05,-2.70589e-05,0.312931,0.3762921014323546,1.1152062183716893e-05,1.5073913610219591e-05,-0.13235705271153986,-2.7058533911272775e-05,-0.16087617752380057
763,0.7536,1042.2,0.00290047,0.002079,0.00146509,-0.0463754,0.0151127,0.319756,-0.142137,-0.175598,1.11606e-05,1.5055e-05,-2.70664e-05,0.313291,0.37679178615246434,1.1160662279685596e-05,1.5055113327111513e-05,-0.13249759948440465,-2.7066033708278425e-05,-0.1610448244625332
764,0.7546,1042.4,0.00289699,0.00207647,0.00143579,-0.0463615,0.0151085,0.32012,-0.142299,-0.175799,1.11692e-05,1.50362e-05,-2.70739e-05,0.313652,0.37729302958339406,1.1169262375654299e-05,1.503631304422548e-05,-0.13263812349053639,-2.7073533505284075e-05,-0.16121343750663764
765,0.7556,1042.59,0.00289351,0.00207395,0.00140649,-0.0463476,0.0151043,0.320483,-0.142461,-0.175999,1.11777e-05,1.50173e-05,-2.70814e-05,0.314012,0.37779307770637605,1.1177762470726549e-05,1.501741276022095e-05,-0.1327786247336229,-2.7081033302178703e-05,-0.16138117804452334
766,0.7566,1042.79,0.00289004,0.00207143,0.0013772,-0.0463337,0.0151002,0.320845,-0.142623,-0.1762,1.11862e-05,1.49985e-05,-2.70889e-05,0.314373,0.37829192908715803,1.1186262565798799e-05,1.499861247800105e-05,-0.13291910321735168,-2.708853309907333e-05,-0.16154972348835184
767,0.7576,1042.98,0.00288658,0.00206892,0.00134792,-0.0463197,0.015096,0.321208,-0.142785,-0.1764,1.11947e-05,1.49796e-05,-2.70963e-05,0.314733,0.3787923398764801,1.119476266087105e-05,1.4979712194662653e-05,-0.13305955894540933,-2.709593289862422e-05,-0.16171739677576658
768,0.7586,1043.17,0.00288312,0.00206641,0.00131864,-0.0463057,0.0150919,0.321571,-0.142947,-0.1766,1.12031e-05,1.49607e-05,-2.71037e-05,0.315093,0.37929293234789196,1.1203162755046847e-05,1.4960811911768346e-05,-0.13319999192148202,-2.7103332698064087e-05,-0.1618850365318769
769,0.7596,1043.37,0.00287966,0.0020639,0.00128937,-0.0462917,0.0150877,0.321933,-0.143109,-0.176801,1.12115e-05,1.49418e-05,-2.71111e-05,0.315452,0.3797923267743395,1.12115628490006e-05,1.4941911629318128e-05,-0.13334040214925513,-2.7110732497503953e-05,-0.162053480710327
770,0.7606,1043.56,0.00287622,0.0020614,0.0012601,-0.0462776,0.0150835,0.322295,-0.143271,-0.177001,1.12199e-05,1.49229e-05,-2.71184e-05,0.315812,0.38029190201429475,1.1219962943398443e-05,1.4923011347089954e-05,-0.13348078963241383,-2.711803229948906e-05,-0.1622210532563717
771,0.7616,1043.76,0.00287278,0.00205891,0.00123084,-0.0462634,0.0150793,0.322658,-0.143433,-0.177201,1.12282e-05,1.49039e-05,-2.71257e-05,0.316172,0.3807930389255725,1.1228263036455743e-05,1.4904011063743283e-05,-0.13362115437464228,-2.7125332101474164e-05,-0.16238859229125857
772,0.7626,1043.95,0.00286934,0.00205641,0.00120159,-0.0462493,0.0150751,0.32302,-0.143594,-0.177401,1.12365e-05,1.4885e-05,-2.7133e-05,0.316531,0.38129297648890303,1.1236563129735089e-05,1.4885110782181243e-05,-0.1337606301406875,-2.713263190345927e-05,-0.1625560978216889
773,0.7636,1044.14,0.00286591,0.00205392,0.00117234,-0.0462351,0.015071,0.323382,-0.143756,-0.177601,1.12448e-05,1.4866e-05,-2.71403e-05,0.316891,0.38179309506239245,1.1244863223014434e-05,1.4866110499500707e-05,-0.13390094955242549,-2.7139931705444376e-05,-0.1627235698543631
774,0.7646,1044.33,0.00286249,0.00205144,0.0011431,-0.0462208,0.0150668,0.323743,-0.143918,-0.177801,1.1253e-05,1.4847e-05,-2.71475e-05,0.31725,0.38229201241887445,1.1253063315175282e-05,1.4847110217264259e-05,-0.13404124623425995,-2.714713150997472e-05,-0.16289100839597992
775,0.7656,1044.53,0.00285907,0.00204896,0.00111387,-0.0462065,0.0150626,0.324105,-0.144079,-0.178,1.12612e-05,1.4828e-05,-2.71547e-05,0.317609,0.3827924927088371,1.1261263407558175e-05,1.4828109935249856e-05,-0.13418065437096005,-2.7154331314505065e-05,-0.16305757651123187
776,0.7666,1044.72,0.00285565,0.00204648,0.00108464,-0.0461922,0.0150584,0.324466,-0.14424,-0.1782,1.12694e-05,1.4809e-05,-2.71619e-05,0.317968,0.3832917709129986,1.1269463499941068e-05,1.4809109653679542e-05,-0.13432004006475695,-2.7161531118924387e-05,-0.1632249482581971
777,0.7676,1044.91,0.00285225,0.00204401,0.00105542,-0.0461779,0.0150542,0.324828,-0.144402,-0.1784,1.12775e-05,1.479e-05,-2.71691e-05,0.318327,0.3837926131810503,1.1277563591205464e-05,1.4790109372553317e-05,-0.1344602688594274,-2.716873092334371e-05,-0.16339228653416005
778,0.7686,1045.1,0.00284885,0.00204154,0.00102621,-0.0461635,0.01505,0.325189,-0.144563,-0.178599,1.12856e-05,1.47709e-05,-2.71762e-05,0.318685,0.38429225249387855,1.1285663682691904e-05,1.4771009090308596e-05,-0.13459960953891537,-2.7175830730419293e-05,-0.1635587549049875
779,0.7696,1045.29,0.00284545,0.00203908,0.000997002,-0.046149,0.0150458,0.32555,-0.144724,-0.178799,1.12936e-05,1.47519e-05,-2.71833e-05,0.319044,0.3847920722090594,1.1293663772837803e-05,1.4752008809848505e-05,-0.13473892778635976,-2.7182930537494876e-05,-0.16372602642629686
780,0.7706,1045.48,0.00284206,0.00203662,0.000967803,-0.0461346,0.0150416,0.325911,-0.144886,-0.178998,1.13017e-05,1.47328e-05,-2.71904e-05,0.319402,0.3852920723917297,1.1301763864546288e-05,1.4732908528269917e-05,-0.1348790887267156,-2.7190030344459437e-05,-0.16389242838949347
781,0.7716,1045.67,0.00283868,0.00203417,0.00093861,-0.0461201,0.0150373,0.326272,-0.145047,-0.179198,1.13097e-05,1.47138e-05,-2.71974e-05,0.319761,0.38579225310705034,1.1309763954914231e-05,1.471390824847596e-05,-0.13501836198163275,-2.719703015408026e-05,-0.16405963318277894
782,0.7726,1045.86,0.0028353,0.00203172,0.000909425,-0.0461055,0.0150331,0.326633,-0.145208,-0.179397,1.13176e-05,1.46947e-05,-2.72045e-05,0.320119,0.386292614420205,1.1317664044385722e-05,1.4694807967563506e-05,-0.13515761281536076,-2.72041299609338e-05,-0.1642259687648362
783,0.7736,1046.05,0.00283192,0.00202927,0.000880247,-0.046091,0.0150289,0.326993,-0.145369,-0.179596,1.13256e-05,1.46756e-05,-2.72115e-05,0.320477,0.38679176960393846,1.1325664134753666e-05,1.467570768709514e-05,-0.1352968412315093,-2.72111297704436e-05,-0.16439227124940592
784,0.7746,1046.24,0.00282856,0.00202683,0.000851077,-0.0460763,0.0150247,0.327354,-0.14553,-0.179795,1.13335e-05,1.46564e-05,-2.72184e-05,0.320835,0.3872924918076852,1.1333564224447201e-05,1.4656507405508279e-05,-0.13543604723368718,-2.7218029582720682e-05,-0.16455854064307396
785,0.7756,1046.43,0.00282519,0.00202439,0.000821914,-0.0460617,0.0150205,0.327714,-0.145691,-0.179994,1.13413e-05,1.46373e-05,-2.72254e-05,0.321192,0.38779200701207817,1.1341364312800195e-05,1.4637407125706048e-05,-0.1355752308255027,-2.722502939211946e-05,-0.1647247769524246
786,0.7766,1046.62,0.00282184,0.00202195,0.000792759,-0.046047,0.0150162,0.328075,-0.145852,-0.180193,1.13492e-05,1.46182e-05,-2.72323e-05,0.32155,0.3882930903667132,1.134926440249373e-05,1.4618306846347906e-05,-0.1357143920105638,-2.723192920428552e-05,-0.16489098018404102
787,0.7776,1046.81,0.00281849,0.00201952,0.000763611,-0.0460323,0.015012,0.328435,-0.146012,-0.180392,1.1357e-05,1.4599e-05,-2.72392e-05,0.321908,0.38879296585143375,1.1357064491068769e-05,1.4599106565871267e-05,-0.13585266664557638,-2.723882901634056e-05,-0.16505715034450508
788,0.7786,1047.0,0.00281514,0.0020171,0.000734472,-0.0460175,0.0150078,0.328795,-0.146173,-0.180591,1.13647e-05,1.45799e-05,-2.72461e-05,0.322265,0.3892930213237247,1.136476457852531e-05,1.4580006287179259e-05,-0.13599178316706595,-2.72457288283956e-05,-0.16522328744039727
789,0.7796,1047.19,0.0028118,0.00201467,0.00070534,-0.0460027,0.0150035,0.329154,-0.146334,-0.18079,1.13725e-05,1.45607e-05,-2.72529e-05,0.322622,0.38979186705583113,1.1372564667100349e-05,1.4560806007590799e-05,-0.13613087729259843,-2.72525286431069e-05,-0.16538939147829668
790,0.7806,1047.38,0.00280847,0.00201226,0.000676216,-0.0459879,0.0149993,0.329514,-0.146494,-0.180989,1.13802e-05,1.45415e-05,-2.72598e-05,0.322979,0.3902922821972923,1.1380264754778935e-05,1.4541605728224383e-05,-0.13626908529529658,-2.7259428455050916e-05,-0.16555546246478126
791,0.7816,1047.57,0.00280514,0.00200984,0.0006471,-0.045973,0.0149951,0.329874,-0.146655,-0.181187,1.13878e-05,1.45223e-05,-2.72666e-05,0.323336,0.3907928775206351,1.1387864841339024e-05,1.4522405449080011e-05,-0.13640813477878033,-2.7266228269651194e-05,-0.1657206661275109
792,0.7826,1047.76,0.00280181,0.00200743,0.000617992,-0.0459581,0.0149908,0.330233,-0.146816,-0.181386,1.13955e-05,1.45031e-05,-2.72733e-05,0.323693,0.39129226179777943,1.139556492901761e-05,1.450320517037973e-05,-0.13654716187709914,-2.7272928086907733e-05,-0.16588667119689926
793,0.7836,1047.94,0.0027985,0.00200503,0.000588893,-0.0459432,0.0149866,0.330592,-0.146976,-0.181584,1.14031e-05,1.44838e-05,-2.72801e-05,0.32405,0.3917918253860635,1.1403165015577699e-05,1.4483904890782995e-05,-0.13668530327959194,-2.727972790150801e-05,-0.16605180928679186
794,0.7846,1048.13,0.00279518,0.00200262,0.000559802,-0.0459282,0.0149823,0.330952,-0.147136,-0.181783,1.14106e-05,1.44646e-05,-2.72868e-05,0.324407,0.39229296064213637,1.1410665101241335e-05,1.4464704612748847e-05,-0.13682342258122837,-2.7286427718653528e-05,-0.16621774846524795
795,0.7856,1048.32,0.00279188,0.00200023,0.000530719,-0.0459132,0.0149781,0.331311,-0.147297,-0.181981,1.14182e-05,1.44453e-05,-2.72935e-05,0.324763,0.3927928835457988,1.1418265187801424e-05,1.4445404333818246e-05,-0.1369623828235932,-2.7293127535799044e-05,-0.1663828210083308
796,0.7866,1048.51,0.00278858,0.00199783,0.000501645,-0.0458982,0.0149738,0.33167,-0.147457,-0.182179,1.14257e-05,1.44261e-05,-2.73002e-05,0.32512,0.39329298595400286,1.142576527346506e-05,1.4426204056672276e-05,-0.13710045779604907,-2.729982735294456e-05,-0.1665478608702856
797,0.7876,1048.69,0.00278528,0.00199544,0.000472579,-0.0458831,0.0149695,0.332028,-0.147617,-0.182378,1.14331e-05,1.44068e-05,-2.73068e-05,0.325476,0.39379187413863126,1.1433165358232245e-05,1.4406903778407809e-05,-0.13723851067827653,-2.730642717274634e-05,-0.16671370134429797
798,0.7886,1048.88,0.00278199,0.00199305,0.000443522,-0.045868,0.0149653,0.332387,-0.147777,-0.182576,1.14406e-05,1.43875e-05,-2.73134e-05,0.325832,0.3942923352488412,1.1440665443895881e-05,1.4387603500587431e-05,-0.13737654147380995,-2.7313026992437095e-05,-0.16687867569843173
799,0.7896,1049.07,0.0027787,0.00199067,0.000414474,-0.0458529,0.014961,0.332746,-0.147937,-0.182774,1.1448e-05,1.43682e-05,-2.732e-05,0.326188,0.3947929760568436,1.1448065528663065e-05,1.4368303222989098e-05,-0.13751455018618275,-2.7319626812238873e-05,-0.16704361739087703
800,0.7906,1049.25,0.00277542,0.00198829,0.000385434,-0.0458377,0.0149567,0.333104,-0.148098,-0.182972,1.14553e-05,1.43489e-05,-2.73266e-05,0.326544,0.3952924013340626,1.1455365612089707e-05,1.4349002946056899e-05,-0.13765339916595998,-2.7326226631818606e-05,-0.16720852642810025
801,0.7916,1049.44,0.00277215,0.00198592,0.000356404,-0.0458225,0.0149525,0.333462,-0.148258,-0.18317,1.14627e-05,1.43296e-05,-2.73332e-05,0.3269,0.3957920054375388,1.1462765697078936e-05,1.43297026691247e-05,-0.1377913635846456,-2.7332826451509362e-05,-0.16737340281656632
802,0.7926,1049.62,0.00276888,0.00198355,0.000327382,-0.0458072,0.0149482,0.33382,-0.148417,-0.183368,1.147e-05,1.43102e-05,-2.73397e-05,0.327255,0.3962917884313035,1.1470065780727623e-05,1.4310302391296048e-05,-0.13792844385966496,-2.733932627385638e-05,-0.1675382465627393
803,0.7936,1049.81,0.00276562,0.00198118,0.00029837,-0.045792,0.0149439,0.334179,-0.148577,-0.183565,1.14773e-05,1.42909e-05,-2.73462e-05,0.327611,0.39679314717185954,1.147736586437631e-05,1.4291002115474072e-05,-0.13806636427471997,-2.7345826096092374e-05,-0.167702225375723
804,0.7946,1049.99,0.00276236,0.00197882,0.000269367,-0.0457767,0.0149396,0.334536,-0.148737,-0.183763,1.14845e-05,1.42715e-05,-2.73527e-05,0.327966,0.397291891345938,1.1484565947128544e-05,1.4271601838311554e-05,-0.13820426262427388,-2.735232591832837e-05,-0.16786700402147436
805,0.7956,1050.18,0.00275911,0.00197646,0.000240373,-0.0457613,0.0149354,0.334894,-0.148897,-0.183961,1.14917e-05,1.42522e-05,-2.73591e-05,0.328321,0.397792211394985,1.1491766029880779e-05,1.4252301563155712e-05,-0.13834213891185687,-2.7358725743220624e-05,-0.1680317500442836
806,0.7966,1050.36,0.00275586,0.00197411,0.000211388,-0.0457459,0.0149311,0.335252,-0.149057,-0.184158,1.14989e-05,1.42328e-05,-2.73655e-05,0.328676,0.39829271059067506,1.1498966112633013e-05,1.4232901286881372e-05,-0.13847999314099857,-2.736512556811288e-05,-0.16819563164665707
807,0.7976,1050.55,0.00275262,0.00197176,0.000182413,-0.0457305,0.0149268,0.335609,-0.149216,-0.184356,1.1506e-05,1.42134e-05,-2.73719e-05,0.329031,0.3987919902044641,1.150606619426675e-05,1.4213501010829077e-05,-0.13861696393262257,-2.7371525393005136e-05,-0.16836031260763784
808,0.7986,1050.73,0.00274938,0.00196941,0.000153448,-0.0457151,0.0149225,0.335967,-0.149376,-0.184553,1.15131e-05,1.4194e-05,-2.73783e-05,0.329386,0.39929284738504345,1.1513166275900488e-05,1.4194100735220871e-05,-0.13875477419327853,-2.737792521778637e-05,-0.16852412948956152
809,0.7996,1050.92,0.00274615,0.00196707,0.000124492,-0.0456996,0.0149182,0.336324,-0.149535,-0.184751,1.15202e-05,1.41746e-05,-2.73847e-05,0.329741,0.3997924841114091,1.152026635775627e-05,1.4174700460056755e-05,-0.1388917012981885,-2.7384325042567603e-05,-0.16868874541440826
810,0.8006,1051.1,0.00274292,0.00196473,9.55454e-05,-0.0456841,0.0149139,0.336681,-0.149695,-0.184948,1.15272e-05,1.41552e-05,-2.7391e-05,0.330096,0.4002922992399287,1.1527266438493555e-05,1.4155300185336728e-05,-0.1390294676043824,-2.7390624870005098e-05,-0.1688524976014416
811,0.8016,1051.29,0.0027397,0.00196239,6.66088e-05,-0.0456686,0.0149096,0.337038,-0.149854,-0.185145,1.15343e-05,1.41358e-05,-2.73973e-05,0.33045,0.40079229283430373,1.1534366520349337e-05,1.4135899910838745e-05,-0.1391663510365121,-2.7396924697442593e-05,-0.16901621753247142
812,0.8026,1051.47,0.00273648,0.00196006,3.76821e-05,-0.045653,0.0149053,0.337395,-0.150014,-0.185342,1.15412e-05,1.41163e-05,-2.74036e-05,0.330804,0.40129246495825743,1.1541266599968125e-05,1.411639963544431e-05,-0.13930407340226314,-2.7403224524769065e-05,-0.1691799052138515
813,0.8036,1051.65,0.00273327,0.00195773,8.76536e-06,-0.0456374,0.014901,0.337752,-0.150173,-0.185539,1.15482e-05,1.40969e-05,-2.74099e-05,0.331159,0.4017928156755366,1.154826668070541e-05,1.4096999361834506e-05,-0.13944091317554197,-2.7409524352095538e-05,-0.16934356065193445
814,0.8046,1051.83,0.00273007,0.00195541,-2.01414e-05,-0.0456218,0.0148967,0.338108,-0.150332,-0.185736,1.15551e-05,1.40774e-05,-2.74161e-05,0.331513,0.4022919427572662,1.1555166760324198e-05,1.4077499087106204e-05,-0.1395777311930264,-2.7415724182189294e-05,-0.1695071838530715
815,0.8056,1052.02,0.00272687,0.00195309,-4.9038e-05,-0.0456062,0.0148924,0.338465,-0.150491,-0.185933,1.1562e-05,1.40579e-05,-2.74223e-05,0.331867,0.4027926503518182,1.156206684016503e-05,1.4057998812821992e-05,-0.13971452745817547,-2.7421924012172028e-05,-0.1696707748236128
816,0.8066,1052.2,0.00272367,0.00195077,-7.79245e-05,-0.0455905,0.0148881,0.338821,-0.150651,-0.18613,1.15688e-05,1.40385e-05,-2.74285e-05,0.332221,0.4032921334380575,1.1568866918887366e-05,1.4038598540100367e-05,-0.13985216212271534,-2.742812384215476e-05,-0.16983433356990707
817,0.8076,1052.38,0.00272048,0.00194846,-0.000106801,-0.0455748,0.0148838,0.339177,-0.15081,-0.186327,1.15756e-05,1.4019e-05,-2.74347e-05,0.332574,0.4037917943719307,1.1575666997609702e-05,1.4019098266704333e-05,-0.1399889147568153,-2.7434323672026473e-05,-0.16999786009830187
818,0.8086,1052.56,0.0027173,0.00194615,-0.000135667,-0.045559,0.0148795,0.339534,-0.150969,-0.186524,1.15824e-05,1.39995e-05,-2.74408e-05,0.332928,0.40429303750909784,1.1582467076332037e-05,1.3999597993530344e-05,-0.140125645648975,-2.7440423504665468e-05,-0.17016135441514357
819,0.8096,1052.75,0.00271412,0.00194385,-0.000164522,-0.0455432,0.0148752,0.33989,-0.151128,-0.18672,1.15892e-05,1.398e-05,-2.74469e-05,0.333281,0.404793054828253,1.1589267155054372e-05,1.39800977205784e-05,-0.14026235480265103,-2.7446523337304463e-05,-0.1703239868511789
820,0.8106,1052.93,0.00271094,0.00194155,-0.000193367,-0.0455274,0.0148708,0.340245,-0.151287,-0.186917,1.15959e-05,1.39605e-05,-2.7453e-05,0.333635,0.4052918448927152,1.159596723265821e-05,1.3960597448292589e-05,-0.14039904222129973,-2.7452623169832435e-05,-0.17048741692737812
821,0.8116,1053.11,0.00270777,0.00193925,-0.000222201,-0.0455116,0.0148665,0.340601,-0.151445,-0.187114,1.16026e-05,1.39409e-05,-2.74591e-05,0.333988,0.4057922178505988,1.1602667310484094e-05,1.3940997174888281e-05,-0.1405348484436546,-2.7458723002360408e-05,-0.1706508148110234
822,0.8126,1053.29,0.00270461,0.00193696,-0.000251025,-0.0454957,0.0148622,0.340957,-0.151604,-0.18731,1.16092e-05,1.39214e-05,-2.74651e-05,0.334341,0.40629276897296696,1.1609267386969435e-05,1.392149690304656e-05,-0.1406714925392586,-2.7464722837544642e-05,-0.17081335132222208
823,0.8136,1053.47,0.00270145,0.00193467,-0.000279838,-0.0454798,0.0148579,0.341312,-0.151763,-0.187506,1.16158e-05,1.39019e-05,-2.74712e-05,0.334694,0.40679209153046236,1.1615867463676821e-05,1.3901996631870972e-05,-0.14080811491017853,-2.7470822670072614e-05,-0.17097585597938625
824,0.8146,1053.65,0.0026983,0.00193238,-0.00030864,-0.0454639,0.0148536,0.341668,-0.151922,-0.187703,1.16224e-05,1.38823e-05,-2.74772e-05,0.335047,0.40729299867122815,1.1622467540384207e-05,1.3882396359576887e-05,-0.14094471555986843,-2.7476822505145826e-05,-0.17113915765001564
825,0.8156,1053.83,0.00269515,0.0019301,-0.000337432,-0.0454479,0.0148492,0.342023,-0.15208,-0.187899,1.1629e-05,1.38627e-05,-2.74832e-05,0.3354,0.40779267637330086,1.1629067617091593e-05,1.3862796087726892e-05,-0.1410804355726466,-2.748282234033006e-05,-0.17130159845539727
826,0.8166,1054.01,0.00269201,0.00192782,-0.000366212,-0.0454319,0.0148449,0.342378,-0.152239,-0.188095,1.16355e-05,1.38432e-05,-2.74891e-05,0.335752,0.4082925314924475,1.1635567692680482e-05,1.3843295817439483e-05,-0.14121699292679324,-2.7488722178170555e-05,-0.17146400742550105
827,0.8176,1054.19,0.00268887,0.00192555,-0.000394981,-0.0454159,0.0148406,0.342733,-0.152397,-0.188291,1.1642e-05,1.38236e-05,-2.7495e-05,0.336105,0.4087925640916623,1.164206776826937e-05,1.3823695546477666e-05,-0.14135266992314577,-2.7494622015900028e-05,-0.17162638456656598
828,0.8186,1054.37,0.00268573,0.00192328,-0.000423739,-0.0453999,0.0148362,0.343088,-0.152556,-0.188487,1.16485e-05,1.3804e-05,-2.7501e-05,0.336457,0.4092927742339618,1.1648567844080304e-05,1.3804095275737893e-05,-0.14148918399547172,-2.750062185097324e-05,-0.17178872988482996
829,0.8196,1054.55,0.00268261,0.00192101,-0.000452486,-0.0453838,0.0148319,0.343442,-0.152714,-0.188683,1.16549e-05,1.37844e-05,-2.75069e-05,0.336809,0.40979175218992814,1.1654967918550696e-05,1.3784495005220165e-05,-0.1416248179890327,-2.7506521688702712e-05,-0.17195104338652978
830,0.8206,1054.73,0.00267948,0.00191875,-0.000481222,-0.0453677,0.0148275,0.343797,-0.152873,-0.188879,1.16613e-05,1.37648e-05,-2.75127e-05,0.337161,0.4102923171069712,1.1661367993243132e-05,1.3764894735368571e-05,-0.141761288793256,-2.7512321529088446e-05,-0.17211332507790078
831,0.8216,1054.91,0.00267636,0.00191649,-0.000509946,-0.0453516,0.0148232,0.344152,-0.153031,-0.189075,1.16677e-05,1.37452e-05,-2.75186e-05,0.337513,0.4107930597561056,1.1667768067935569e-05,1.3745294465739022e-05,-0.1418968797976553,-2.751822136681792e-05,-0.1722755749651771
832,0.8226,1055.09,0.00267325,0.00191423,-0.000538659,-0.0453354,0.0148189,0.344506,-0.153189,-0.189271,1.1674e-05,1.37256e-05,-2.75244e-05,0.337865,0.4112925689071627,1.1674068141509508e-05,1.3725694196553562e-05,-0.1420324493803682,-2.7524021207203653e-05,-0.17243779305459184
833,0.8236,1055.27,0.00267014,0.00191198,-0.00056736,-0.0453192,0.0148145,0.34486,-0.153347,-0.189466,1.16803e-05,1.37059e-05,-2.75302e-05,0.338217,0.4117922549157611,1.1680368214861403e-05,1.3705993926249604e-05,-0.14216799754477916,-2.7529821047478364e-05,-0.17259915195194242
834,0.8246,1055.45,0.00266704,0.00190973,-0.00059605,-0.045303,0.0148102,0.345214,-0.153505,-0.189662,1.16866e-05,1.36863e-05,-2.7536e-05,0.338569,0.4122921178445196,1.1686668288657387e-05,1.3686393657730278e-05,-0.14230352429427184,-2.75356208878641e-05,-0.1727613066264826
835,0.8256,1055.63,0.00266394,0.00190749,-0.000624728,-0.0452867,0.0148058,0.345568,-0.153664,-0.189858,1.16928e-05,1.36666e-05,-2.75417e-05,0.33892,0.4127921577560789,1.169286836111283e-05,1.36666933883145e-05,-0.14243988719277134,-2.7541320730906094e-05,-0.17292342952182105
836,0.8266,1055.8,0.00266085,0.00190524,-0.000653394,-0.0452705,0.0148015,0.345922,-0.153822,-0.190053,1.1699e-05,1.3647e-05,-2.75475e-05,0.339271,0.4132923747131023,1.1699068433568272e-05,1.3647093120683351e-05,-0.14257537098709328,-2.7547120571069783e-05,-0.17308469372929314
837,0.8276,1055.98,0.00265776,0.00190301,-0.000682049,-0.0452542,0.0147971,0.346276,-0.153979,-0.190249,1.17052e-05,1.36273e-05,-2.75532e-05,0.339623,0.41379276877827453,1.1705268506023714e-05,1.362739285215575e-05,-0.14270997608707148,-2.7552820414111778e-05,-0.1732467532469706
838,0.8286,1056.16,0.00265468,0.00190077,-0.000710692,-0.0452379,0.0147928,0.346629,-0.154137,-0.190444,1.17113e-05,1.36076e-05,-2.75589e-05,0.339974,0.4142919257216706,1.1711368577582704e-05,1.3607692583850195e-05,-0.1428454172107192,-2.755852025704275e-05,-0.17340795441246304
839,0.8296,1056.34,0.0026516,0.00189854,-0.000739322,-0.0452215,0.0147884,0.346983,-0.154295,-0.190639,1.17174e-05,1.3588e-05,-2.75645e-05,0.340325,0.4147926736905372,1.1717468648919649e-05,1.358809231732927e-05,-0.14298083693635988,-2.7564120102629985e-05,-0.17356912414679282
840,0.8306,1056.51,0.00264853,0.00189632,-0.000767941,-0.0452051,0.014784,0.347336,-0.154453,-0.190834,1.17235e-05,1.35683e-05,-2.75702e-05,0.340676,0.41529218366267306,1.1723568720478639e-05,1.3568392049689848e-05,-0.14311623526737416,-2.7569819945560958e-05,-0.17373026245608836
841,0.8316,1056.69,0.00264546,0.00189409,-0.000796548,-0.0451887,0.0147797,0.347689,-0.154611,-0.19103,1.17296e-05,1.35486e-05,-2.75758e-05,0.341026,0.4157918699929546,1.1729668792037629e-05,1.354869178271656e-05,-0.143251612207142,-2.7575419791148192e-05,-0.1738921954546947
842,0.8326,1056.87,0.00264239,0.00189187,-0.000825142,-0.0451723,0.0147753,0.348043,-0.154768,-0.191225,1.17356e-05,1.35289e-05,-2.75814e-05,0.341377,0.4162931490360877,1.1735668862478121e-05,1.3528991515965316e-05,-0.14338611114558253,-2.7581019636735427e-05,-0.17405327077122734
843,0.8336,1057.04,0.00263934,0.00188966,-0.000853724,-0.0451558,0.0147709,0.348395,-0.154926,-0.19142,1.17415e-05,1.35092e-05,-2.7587e-05,0.341728,0.41679177197703776,1.1741568931578072e-05,1.3509291249658162e-05,-0.14352144544833012,-2.758661948221164e-05,-0.17421431468113535
844,0.8346,1057.22,0.00263628,0.00188744,-0.000882294,-0.0451393,0.0147666,0.348748,-0.155084,-0.191615,1.17475e-05,1.34895e-05,-2.75925e-05,0.342078,0.4172919877554362,1.174756900224061e-05,1.3489590983795097e-05,-0.14365675836994696,-2.7592119330455134e-05,-0.17437532719054272
845,0.8356,1057.4,0.00263323,0.00188524,-0.000910851,-0.0451228,0.0147622,0.349101,-0.155241,-0.191809,1.17534e-05,1.34697e-05,-2.75981e-05,0.342428,0.4177923801411738,1.1753469071562606e-05,1.3469790716813534e-05,-0.14379119370543292,-2.7597719175931346e-05,-0.17453548284146725
846,0.8366,1057.57,0.00263019,0.00188303,-0.000939396,-0.0451063,0.0147578,0.349454,-0.155399,-0.192004,1.17593e-05,1.345e-05,-2.76036e-05,0.342778,0.41829294919660387,1.1759369140884601e-05,1.3450090451616603e-05,-0.14392646401019193,-2.760321902417484e-05,-0.1746964327291891
847,0.8376,1057.75,0.00262715,0.00188083,-0.000967928,-0.0450897,0.0147535,0.349806,-0.155556,-0.192199,1.17652e-05,1.34303e-05,-2.76091e-05,0.343128,0.4187922761911165,1.1765269210206597e-05,1.3430390186863761e-05,-0.1440608570052162,-2.7608718872307314e-05,-0.17485735123474277
848,0.8386,1057.92,0.00262412,0.00187863,-0.000996448,-0.0450731,0.0147491,0.350158,-0.155713,-0.192394,1.1771e-05,1.34105e-05,-2.76146e-05,0.343478,0.41929177897966907,1.1771069278410096e-05,1.3410589921214466e-05,-0.14419522890219638,-2.7614218720439787e-05,-0.17501823836424701
849,0.8396,1058.1,0.00262109,0.00187644,-0.00102496,-0.0450565,0.0147447,0.350511,-0.155871,-0.192588,1.17768e-05,1.33908e-05,-2.762e-05,0.343828,0.41979287741631954,1.1776869346835639e-05,1.3390889657127758e-05,-0.14433043537443735,-2.7619618571339544e-05,-0.17517826930250147
850,0.8406,1058.27,0.00261806,0.00187425,-0.00105345,-0.0450399,0.0147403,0.350863,-0.156028,-0.192783,1.17825e-05,1.3371e-05,-2.76254e-05,0.344178,0.42029273247849974,1.178256941392064e-05,1.3371089392144597e-05,-0.14446476495093585,-2.7625018422128278e-05,-0.17533909385908353
851,0.8416,1058.45,0.00261504,0.00187206,-0.00108193,-0.0450232,0.014736,0.351215,-0.156185,-0.192977,1.17883e-05,1.33513e-05,-2.76309e-05,0.344527,0.42079276352063255,1.1788369482346184e-05,1.3351389128946067e-05,-0.1445990734393463,-2.763051827014973e-05,-0.17549906255740944
852,0.8426,1058.62,0.00261203,0.00186988,-0.0011104,-0.0450065,0.0147316,0.351567,-0.156342,-0.193172,1.1794e-05,1.33315e-05,-2.76362e-05,0.344877,0.42129297060467397,1.1794069549431185e-05,1.3331588864851085e-05,-0.14473336084297939,-2.7635818123705747e-05,-0.17565982456540563
853,0.8436,1058.8,0.00260902,0.0018677,-0.00113886,-0.0449898,0.0147272,0.351918,-0.156499,-0.193366,1.17996e-05,1.33117e-05,-2.76416e-05,0.345226,0.42179193199995835,1.1799669615619734e-05,1.3311788600978147e-05,-0.1448676271651449,-2.764121797449448e-05,-0.17581973104800952
854,0.8446,1058.97,0.00260601,0.00186552,-0.0011673,-0.044973,0.0147228,0.35227,-0.156656,-0.19356,1.18053e-05,1.32919e-05,-2.7647e-05,0.345575,0.42229249085321197,1.180536968292678e-05,1.3291988337771343e-05,-0.14500187240915252,-2.7646617825172193e-05,-0.1759796065117648
855,0.8456,1059.15,0.00260301,0.00186335,-0.00119573,-0.0449563,0.0147184,0.352621,-0.156813,-0.193754,1.18109e-05,1.32721e-05,-2.76523e-05,0.345924,0.42279180314168174,1.1810969748893285e-05,1.3272188074786584e-05,-0.1451360965783114,-2.765191767872821e-05,-0.17613945096268846
856,0.8466,1059.32,0.00260002,0.00186118,-0.00122414,-0.0449395,0.014714,0.352973,-0.15697,-0.193948,1.18164e-05,1.32523e-05,-2.76576e-05,0.346273,0.4232927140115288,1.1816469813963337e-05,1.325238781202387e-05,-0.14527029967592975,-2.7657217532062184e-05,-0.17629926440679644
857,0.8476,1059.49,0.00259703,0.00185901,-0.00125255,-0.0449227,0.0147096,0.353324,-0.157127,-0.194142,1.1822e-05,1.32325e-05,-2.76629e-05,0.346622,0.4237923774399486,1.1822069880151886e-05,1.3232587549927288e-05,-0.1454044817053156,-2.766251738550718e-05,-0.17645904685010338
858,0.8486,1059.67,0.00259404,0.00185685,-0.00128094,-0.0449058,0.0147052,0.353675,-0.157284,-0.194336,1.18275e-05,1.32127e-05,-2.76681e-05,0.34697,0.42429221628101477,1.1827569945221938e-05,1.3212787288052752e-05,-0.14553864266977667,-2.7667717241608436e-05,-0.17661879829862293
859,0.8496,1059.84,0.00259106,0.00185469,-0.00130931,-0.0448889,0.0147009,0.354026,-0.157441,-0.19453,1.1833e-05,1.31929e-05,-2.76734e-05,0.347319,0.42479223059630833,1.183307001029199e-05,1.3192987026622305e-05,-0.14567278257261962,-2.767301709505343e-05,-0.17677851875836748
860,0.8506,1060.01,0.00258808,0.00185253,-0.00133767,-0.0448721,0.0146965,0.354377,-0.157597,-0.194724,1.18384e-05,1.31731e-05,-2.76786e-05,0.347667,0.4252924204474311,1.1838470074243546e-05,1.3173186765635947e-05,-0.14580604722362522,-2.7678216951043666e-05,-0.17693820823534823
861,0.8516,1060.19,0.00258511,0.00185038,-0.00136602,-0.0448551,0.0146921,0.354728,-0.157754,-0.194918,1.18438e-05,1.31532e-05,-2.76838e-05,0.348016,0.42579278589600733,1.1843870137973056e-05,1.3153286503753137e-05,-0.14594014514724862,-2.7683416807144923e-05,-0.17709786673557526
862,0.8526,1060.36,0.00258215,0.00184823,-0.00139436,-0.0448382,0.0146877,0.355078,-0.15791,-0.195112,1.18492e-05,1.31334e-05,-2.7689e-05,0.348364,0.42629190071106837,1.1849270202146656e-05,1.3133486243432912e-05,-0.1460733680929457,-2.7688616663135157e-05,-0.17725749426505755
863,0.8536,1060.53,0.00257918,0.00184609,-0.00142268,-0.0448212,0.0146833,0.355429,-0.158067,-0.195305,1.18546e-05,1.31136e-05,-2.76941e-05,0.348712,0.4267926170387928,1.185467026609821e-05,1.3113685983556778e-05,-0.14620742405048714,-2.7693716522003697e-05,-0.17741626824648238
864,0.8546,1060.7,0.00257623,0.00184394,-0.00145099,-0.0448043,0.0146789,0.355779,-0.158223,-0.195499,1.18599e-05,1.30937e-05,-2.76993e-05,0.34906,0.42729208185600065,1.1859970328931269e-05,1.309378572278419e-05,-0.14634060530392734,-2.769891637788291e-05,-0.1775758340120629
865,0.8556,1060.88,0.00257327,0.0018418,-0.00147928,-0.0447873,0.0146745,0.35613,-0.15838,-0.195692,1.18652e-05,1.30739e-05,-2.77044e-05,0.349408,0.42779314930892576,1.1865270391764327e-05,1.3073985463796234e-05,-0.14647461930852002,-2.7704016236640427e-05,-0.177734546559845
866,0.8566,1061.05,0.00257033,0.00183967,-0.00150757,-0.0447702,0.0146701,0.35648,-0.158536,-0.195886,1.18704e-05,1.3054e-05,-2.77095e-05,0.349755,0.4282929643737179,1.1870470453478887e-05,1.3054085203911825e-05,-0.14660775888275113,-2.7709116095397945e-05,-0.17789405058542163
867,0.8576,1061.22,0.00256738,0.00183754,-0.00153583,-0.0447532,0.0146657,0.35683,-0.158693,-0.196079,1.18757e-05,1.30342e-05,-2.77146e-05,0.350103,0.4287929544044,1.1875770516311945e-05,1.3034284945590002e-05,-0.14674173094752418,-2.771421595404444e-05,-0.17805270172333143
868,0.8586,1061.39,0.00256444,0.00183541,-0.00156408,-0.0447361,0.0146612,0.35718,-0.158849,-0.196273,1.18809e-05,1.30143e-05,-2.77196e-05,0.35045,0.42929311946222093,1.1880970578248551e-05,1.3014384686371727e-05,-0.14687482885558967,-2.771921581545822e-05,-0.17821214403279295
869,0.8596,1061.56,0.00256151,0.00183328,-0.00159232,-0.044719,0.0146568,0.357529,-0.159005,-0.196466,1.1886e-05,1.29944e-05,-2.77247e-05,0.350798,0.42979202981570586,1.1886070638844615e-05,1.2994484427597541e-05,-0.14700790600200087,-2.7724315674104716e-05,-0.17837073378459134
870,0.8606,1061.73,0.00255858,0.00183116,-0.00162055,-0.0447019,0.0146524,0.357879,-0.159161,-0.196659,1.18912e-05,1.29745e-05,-2.77297e-05,0.351145,0.4302925446111212,1.1891270700559176e-05,1.2974584169267445e-05,-0.14714096238999652,-2.7729315535407473e-05,-0.1785292929315211
871,0.8616,1061.9,0.00255565,0.00182905,-0.00164876,-0.0446847,0.014648,0.358228,-0.159317,-0.196852,1.18963e-05,1.29546e-05,-2.77347e-05,0.351492,0.4307918038248557,1.189637076115524e-05,1.2954683911159393e-05,-0.1472739980228145,-2.773431539671023e-05,-0.17868782147948825
872,0.8626,1062.08,0.00255273,0.00182693,-0.00167695,-0.0446675,0.0146436,0.358578,-0.159473,-0.197045,1.19014e-05,1.29348e-05,-2.77397e-05,0.351839,0.43129266860241744,1.1901470821973348e-05,1.2934883654835971e-05,-0.1474070129036925,-2.773931525812401e-05,-0.1788463194343981
873,0.8636,1062.25,0.00254982,0.00182482,-0.00170514,-0.0446504,0.0146392,0.358927,-0.159629,-0.197238,1.19064e-05,1.29149e-05,-2.77446e-05,0.352186,0.43179227692034017,1.1906470881450915e-05,1.2914983397616098e-05,-0.14754000703586745,-2.774421512219405e-05,-0.17900478680215437
874,0.8646,1062.42,0.00254691,0.00182271,-0.0017333,-0.0446331,0.0146348,0.359276,-0.159785,-0.197431,1.19114e-05,1.2895e-05,-2.77496e-05,0.352533,0.4322920596319957,1.1911470940928481e-05,1.2895083140840313e-05,-0.14767298042257604,-2.7749214983385784e-05,-0.17916322358865988
875,0.8656,1062.59,0.002544,0.00182061,-0.00176146,-0.0446159,0.0146304,0.359625,-0.159941,-0.197624,1.19164e-05,1.28751e-05,-2.77545e-05,0.352879,0.4327920167982582,1.1916471000628093e-05,1.2875182884508618e-05,-0.14780593306705425,-2.7754114847455824e-05,-0.17932162979981614
876,0.8666,1062.76,0.0025411,0.00181851,-0.00178959,-0.0445987,0.0146259,0.359974,-0.160097,-0.197817,1.19213e-05,1.28552e-05,-2.77594e-05,0.353226,0.43329214848002295,1.1921371058987162e-05,1.2855282628398967e-05,-0.1479388649725375,-2.7759014711414842e-05,-0.17948000544152376
877,0.8676,1062.93,0.0025382,0.00181641,-0.00181772,-0.0445814,0.0146215,0.360323,-0.160253,-0.198009,1.19263e-05,1.28352e-05,-2.77642e-05,0.353572,0.4337924547382064,1.1926371118686774e-05,1.2835282371614909e-05,-0.14807177614226108,-2.7763814578141144e-05,-0.1796375301576223
878,0.8686,1063.09,0.00253531,0.00181431,-0.00184583,-0.0445641,0.0146171,0.360672,-0.160408,-0.198202,1.19312e-05,1.28153e-05,-2.77691e-05,0.353918,0.43429293563374616,1.1931271177045844e-05,1.2815382116393437e-05,-0.14820381478369993,-2.7768714442100162e-05,-0.17979584483644395
879,0.8696,1063.26,0.00253242,0.00181222,-0.00187392,-0.0445468,0.0146127,0.36102,-0.160564,-0.198394,1.1936e-05,1.27954e-05,-2.77739e-05,0.354264,0.4347921564347281,1.1936071234286416e-05,1.2795481861394009e-05,-0.1483366846244767,-2.7773514308826464e-05,-0.17995330891719985
880,0.8706,1063.43,0.00252954,0.00181014,-0.001902,-0.0445294,0.0146082,0.361369,-0.16072,-0.198587,1.19408e-05,1.27755e-05,-2.77788e-05,0.35461,0.4352929862870496,1.1940871291526989e-05,1.2775581607060715e-05,-0.14846953373917482,-2.777841417267446e-05,-0.18011156265660178
881,0.8716,1063.6,0.00252666,0.00180805,-0.00193006,-0.044512,0.0146038,0.361717,-0.160875,-0.198779,1.19456e-05,1.27555e-05,-2.77836e-05,0.354956,0.43579255516622073,1.1945671348989606e-05,1.2755581351830969e-05,-0.14860151073296402,-2.778321403940076e-05,-0.18026896612535526
882,0.8726,1063.77,0.00252378,0.00180597,-0.00195811,-0.0444947,0.0145994,0.362065,-0.161031,-0.198972,1.19504e-05,1.27356e-05,-2.77883e-05,0.355302,0.4362922979256154,1.1950471406230179e-05,1.2735681098163809e-05,-0.14873431853801156,-2.7787913908783324e-05,-0.18042715894879446
883,0.8736,1063.94,0.00252091,0.00180389,-0.00198615,-0.0444773,0.014595,0.362413,-0.161186,-0.199164,1.19552e-05,1.27157e-05,-2.77931e-05,0.355648,0.4367922146257541,1.1955271463692796e-05,1.2715780844940738e-05,-0.14886625449333746,-2.7792713775398603e-05,-0.18058450182887653
884,0.8746,1064.11,0.00251805,0.00180182,-0.00201417,-0.0444598,0.0145905,0.362761,-0.161341,-0.199356,1.19599e-05,1.26957e-05,-2.77979e-05,0.355993,0.4372923053271789,1.1959971519814871e-05,1.2695780590821215e-05,-0.14899817000017512,-2.779751364190286e-05,-0.18074181450202542
885,0.8756,1064.28,0.00251519,0.00179975,-0.00204217,-0.0444424,0.0145861,0.363109,-0.161497,-0.199548,1.19645e-05,1.26758e-05,-2.78026e-05,0.356339,0.437792570090453,1.196457157481845e-05,1.2675880338264278e-05,-0.1491309159312033,-2.7802213511285423e-05,-0.1808990969740406
886,0.8766,1064.44,0.00251233,0.00179768,-0.00207016,-0.0444249,0.0145817,0.363457,-0.161652,-0.199741,1.19692e-05,1.26558e-05,-2.78073e-05,0.356684,0.4382930089761601,1.196927163116257e-05,1.2655880085032933e-05,-0.14926279041869717,-2.7806913380667986e-05,-0.18105716819396123
887,0.8776,1064.61,0.00250948,0.00179561,-0.00209814,-0.0444074,0.0145772,0.363804,-0.161807,-0.199933,1.19738e-05,1.26359e-05,-2.7812e-05,0.357029,0.438792183252003,1.1973871686166149e-05,1.2635979833364175e-05,-0.1493946444672295,-2.7811613249939526e-05,-0.18121439012387974
888,0.8786,1064.78,0.00250663,0.00179355,-0.0021261,-0.0443899,0.0145728,0.364152,-0.161962,-0.200125,1.19784e-05,1.26159e-05,-2.78166e-05,0.357374,0.4392929700636259,1.1978471741391772e-05,1.2615979580798964e-05,-0.1495264780799681,-2.781621312197835e-05,-0.1813715818700854
889,0.8796,1064.95,0.00250379,0.00179149,-0.00215404,-0.0443724,0.0145684,0.364499,-0.162118,-0.200316,1.19829e-05,1.25959e-05,-2.78213e-05,0.357719,0.43979249138617527,1.1982971795276853e-05,1.2595979328677842e-05,-0.14965914160136395,-2.782091299124989e-05,-0.18152792496670722
890,0.8806,1065.11,0.00250095,0.00178944,-0.00218197,-0.0443548,0.0145639,0.364846,-0.162273,-0.200508,1.19875e-05,1.2576e-05,-2.78259e-05,0.358064,0.4402921860727005,1.1987571850280432e-05,1.2576079078119307e-05,-0.14979093422022394,-2.7825512863288715e-05,-0.18168505652000178
891,0.8816,1065.28,0.00249811,0.00178739,-0.00220988,-0.0443373,0.0145595,0.365193,-0.162428,-0.2007,1.19919e-05,1.2556e-05,-2.78305e-05,0.358409,0.440792054183369,1.1991971903047016e-05,1.2556078826886363e-05,-0.14992270641281102,-2.7830112735216517e-05,-0.18184215790693414
892,0.8826,1065.45,0.00249528,0.00178534,-0.00223778,-0.0443197,0.0145551,0.36554,-0.162583,-0.200892,1.19964e-05,1.2536e-05,-2.78351e-05,0.358753,0.4412920957783699,1.1996471957154142e-05,1.2536078575875464e-05,-0.15005445818229113,-2.783471260714432e-05,-0.1819992291332957
893,0.8836,1065.61,0.00249246,0.00178329,-0.00226566,-0.0443021,0.0145506,0.365887,-0.162737,-0.201083,1.20008e-05,1.2516e-05,-2.78397e-05,0.359098,0.4417923109179127,1.2000872009920727e-05,1.25160783255307e-05,-0.15018533971759418,-2.7839312479183143e-05,-0.18215545236073816
894,0.8846,1065.78,0.00248964,0.00178125,-0.00229353,-0.0442845,0.0145462,0.366234,-0.162892,-0.201275,1.20052e-05,1.2496e-05,-2.78442e-05,0.359442,0.4422926996622274,1.2005272062687311e-05,1.249607807540798e-05,-0.1503170507820668,-2.7843812353878228e-05,-0.1823124634403389
895,0.8856,1065.95,0.00248682,0.00177921,-0.00232138,-0.0442668,0.0145418,0.36658,-0.163047,-0.201466,1.20096e-05,1.24761e-05,-2.78488e-05,0.359786,0.4427918192790248,1.2009672115453895e-05,1.2476177826847845e-05,-0.15044874143290643,-2.784841222580603e-05,-0.18246862684574183
896,0.8866,1066.11,0.00248401,0.00177718,-0.00234921,-0.0442491,0.0145373,0.366927,-0.163202,-0.201658,1.2014e-05,1.24561e-05,-2.78533e-05,0.36013,0.44329255491292274,1.2014072168442524e-05,1.2456177577613303e-05,-0.15058041167327707,-2.7852912100390093e-05,-0.1826255778016136
897,0.8876,1066.28,0.0024812,0.00177515,-0.00237703,-0.0442315,0.0145329,0.367273,-0.163356,-0.201849,1.20183e-05,1.24361e-05,-2.78578e-05,0.360474,0.4437920205394932,1.2018372220090612e-05,1.2436177328600806e-05,-0.150711212217979,-2.7857411975085178e-05,-0.18278168140788442
898,0.8886,1066.44,0.0024784,0.00177312,-0.00240483,-0.0442138,0.0145284,0.36762,-0.163511,-0.202041,1.20226e-05,1.24161e-05,-2.78623e-05,0.360818,0.44429310330345184,1.2022672271738699e-05,1.2416177080032398e-05,-0.1508428417785307,-2.786191184966924e-05,-0.1829385722630501
899,0.8896,1066.61,0.0024756,0.00177109,-0.00243262,-0.044196,0.014524,0.367966,-0.163666,-0.202232,1.20268e-05,1.23961e-05,-2.78667e-05,0.361162,0.44479291517966324,1.202687232226829e-05,1.2396176831908079e-05,-0.1509744509380817,-2.786631172713161e-05,-0.18309461609308764
900,0.8906,1066.77,0.0024728,0.00176907,-0.00246039,-0.0441783,0.0145195,0.368312,-0.16382,-0.202423,1.2031e-05,1.23761e-05,-2.78712e-05,0.361505,0.4452929000207049,1.203107237279788e-05,1.237617658422785e-05,-0.15110519080540907,-2.7870811601715673e-05,-0.18325063012159992
901,0.8916,1066.94,0.00247001,0.00176705,-0.00248815,-0.0441605,0.0145151,0.368658,-0.163975,-0.202614,1.20352e-05,1.23561e-05,-2.78756e-05,0.361849,0.4457930578864331,1.203527242332747e-05,1.2356176336991709e-05,-0.15123675930401215,-2.787521147906702e-05,-0.18340661435427819
902,0.8926,1067.1,0.00246723,0.00176503,-0.00251588,-0.0441428,0.0145106,0.369003,-0.164129,-0.202805,1.20394e-05,1.2336e-05,-2.788e-05,0.362192,0.446291942544059,1.203947247385706e-05,1.2336076088859116e-05,-0.15136745877896152,-2.7879611356418366e-05,-0.1835625687968132
903,0.8936,1067.27,0.00246445,0.00176302,-0.00254361,-0.044125,0.0145062,0.369349,-0.164283,-0.202996,1.20435e-05,1.2316e-05,-2.78844e-05,0.362536,0.44679244613830793,1.2043572523268153e-05,1.231607584228911e-05,-0.15149813812774138,-2.7884011233769712e-05,-0.1837184934548941
904,0.8946,1067.43,0.00246167,0.00176101,-0.00257131,-0.0441072,0.0145017,0.369695,-0.164438,-0.203187,1.20476e-05,1.2296e-05,-2.78887e-05,0.362879,0.44729312293676293,1.2047672572679247e-05,1.2296075596163192e-05,-0.15162964572422954,-2.788831111377732e-05,-0.18387438833420933
905,0.8956,1067.6,0.0024589,0.001759,-0.002599,-0.0440893,0.0144973,0.37004,-0.164592,-0.203378,1.20517e-05,1.2276e-05,-2.78931e-05,0.363222,0.4477925252061141,1.205177262209034e-05,1.2276075350481364e-05,-0.15176028469932878,-2.7892710991128666e-05,-0.184030253440446
906,0.8966,1067.76,0.00245613,0.001757,-0.00262668,-0.0440715,0.0144928,0.370385,-0.164746,-0.203569,1.20557e-05,1.2256e-05,-2.78974e-05,0.363565,0.44829209979897233,1.2055772670160891e-05,1.225607510502158e-05,-0.15189090355757484,-2.7897010871136274e-05,-0.18418608877929032
907,0.8976,1067.93,0.00245336,0.001755,-0.00265433,-0.0440536,0.0144884,0.37073,-0.1649,-0.203759,1.20597e-05,1.22359e-05,-2.79017e-05,0.363908,0.44879184677479955,1.2059772718453488e-05,1.2235974858887388e-05,-0.15202150230206557,-2.7901310751143882e-05,-0.18434107869791372
908,0.8986,1068.09,0.0024506,0.001753,-0.00268198,-0.0440357,0.0144839,0.371075,-0.165054,-0.20395,1.20637e-05,1.22159e-05,-2.7906e-05,0.36425,0.44929176619307776,1.2063772766746084e-05,1.2215974614315783e-05,-0.15215208093589816,-2.790561063115149e-05,-0.18449685467480303
909,0.8996,1068.25,0.00244785,0.00175101,-0.0027096,-0.0440178,0.0144795,0.37142,-0.165209,-0.20414,1.20677e-05,1.21959e-05,-2.79103e-05,0.364593,0.44979185811331046,1.206777281503868e-05,1.2195974370188267e-05,-0.15228348717910611,-2.7909910511159097e-05,-0.18465178555351525
910,0.9006,1068.42,0.00244509,0.00174902,-0.00273721,-0.0439999,0.014475,0.371765,-0.165363,-0.204331,1.20716e-05,1.21758e-05,-2.79146e-05,0.364935,0.4502921225950207,1.2071672861990734e-05,1.2175874125386343e-05,-0.1524140254703742,-2.7914210391166705e-05,-0.18480750219106223
911,0.9016,1068.58,0.00244235,0.00174703,-0.0027648,-0.043982,0.0144706,0.37211,-0.165516,-0.204521,1.20755e-05,1.21558e-05,-2.79188e-05,0.365278,0.45079255969775245,1.2075572909164833e-05,1.2155873882147006e-05,-0.1525436962044131,-2.7918410273941596e-05,-0.18496237405235316
912,0.9026,1068.74,0.0024396,0.00174504,-0.00279237,-0.043964,0.0144661,0.372455,-0.16567,-0.204712,1.20794e-05,1.21358e-05,-2.7923e-05,0.36562,0.45129316948107023,1.2079472956338932e-05,1.2135873639129713e-05,-0.1526741944265766,-2.7922610156716487e-05,-0.18511803137316185
913,0.9036,1068.9,0.00243687,0.00174306,-0.00281993,-0.043946,0.0144616,0.372799,-0.165824,-0.204902,1.20832e-05,1.21157e-05,-2.79272e-05,0.365962,0.45179250021133344,1.208327300217249e-05,1.2115773395438012e-05,-0.15280467255356123,-2.7926810039380356e-05,-0.18527284423951296
914,0.9046,1069.07,0.00243413,0.00174108,-0.00284747,-0.043928,0.0144572,0.373143,-0.165978,-0.205092,1.2087e-05,1.20957e-05,-2.79314e-05,0.366304,0.4522920027409154,1.2087073048006047e-05,1.2095773153308897e-05,-0.15293513058846142,-2.7931009922044225e-05,-0.18542762769421361
915,0.9056,1069.23,0.0024314,0.00173911,-0.002875,-0.04391,0.0144527,0.373488,-0.166132,-0.205283,1.20908e-05,1.20756e-05,-2.79356e-05,0.366646,0.45279312992132903,1.209087309406165e-05,1.207567291028333e-05,-0.15306556853437125,-2.7935209804708094e-05,-0.18558319616006258
916,0.9066,1069.39,0.00242867,0.00173714,-0.0029025,-0.043892,0.0144483,0.373832,-0.166285,-0.205473,1.20945e-05,1.20556e-05,-2.79397e-05,0.366987,0.4532929767267433,1.209457313877671e-05,1.2055672669042394e-05,-0.1531951395899469,-2.793930969025027e-05,-0.1857379206534998
917,0.9076,1069.55,0.00242595,0.00173517,-0.00292999,-0.043874,0.0144438,0.374176,-0.166439,-0.205663,1.20982e-05,1.20355e-05,-2.79439e-05,0.367329,0.4537929955090372,1.209827318349177e-05,1.2035572426905006e-05,-0.1533255374975535,-2.7943509572914138e-05,-0.18589261575207594
918,0.9086,1069.72,0.00242323,0.0017332,-0.00295747,-0.0438559,0.0144393,0.374519,-0.166593,-0.205853,1.21019e-05,1.20155e-05,-2.7948e-05,0.367671,0.4542917320349211,1.210197322820683e-05,1.2015572186330203e-05,-0.15345591532542846,-2.7947609458234268e-05,-0.1860472814613754
919,0.9096,1069.88,0.00242052,0.00173124,-0.00298492,-0.0438378,0.0144349,0.374863,-0.166746,-0.206043,1.21056e-05,1.19954e-05,-2.79521e-05,0.368012,0.45479209444814206,1.2105673273143935e-05,1.1995471945080993e-05,-0.15358542666251374,-2.795170934366542e-05,-0.18620191778698159
920,0.9106,1070.04,0.00241781,0.00172928,-0.00301236,-0.0438198,0.0144304,0.375207,-0.1669,-0.206232,1.21092e-05,1.19754e-05,-2.79562e-05,0.368353,0.4552926290156418,1.2109273316740499e-05,1.197547170539437e-05,-0.15371576447053892,-2.7955809229096573e-05,-0.1863557110905948
921,0.9116,1070.2,0.00241511,0.00172732,-0.00303978,-0.0438017,0.0144259,0.37555,-0.167053,-0.206422,1.21128e-05,1.19553e-05,-2.79602e-05,0.368694,0.45579188000404414,1.2112873360337062e-05,1.1955371464811293e-05,-0.15384523605374623,-2.795980911729501e-05,-0.18651028882013831
922,0.9126,1070.36,0.00241241,0.00172537,-0.00306719,-0.0437835,0.0144215,0.375894,-0.167206,-0.206612,1.21164e-05,1.19353e-05,-2.79643e-05,0.369035,0.4562927585569372,1.2116473403933625e-05,1.1935371226012848e-05,-0.15397468782931667,-2.796390900261514e-05,-0.1866648371827031
923,0.9136,1070.52,0.00240971,0.00172341,-0.00309457,-0.0437654,0.014417,0.376237,-0.16736,-0.206802,1.21199e-05,1.19152e-05,-2.79683e-05,0.369376,0.45679235264861084,1.2119973446189647e-05,1.191527098631795e-05,-0.15410496569573773,-2.7967908890702553e-05,-0.18681935618386847
924,0.9146,1070.68,0.00240702,0.00172147,-0.00312194,-0.0437472,0.0144125,0.37658,-0.167513,-0.206991,1.21234e-05,1.18951e-05,-2.79723e-05,0.369717,0.4572921181304499,1.2123473488667713e-05,1.189517074706714e-05,-0.1542343777357128,-2.797190877890099e-05,-0.18697303280265176
925,0.9156,1070.84,0.00240433,0.00171952,-0.0031493,-0.0437291,0.0144081,0.376923,-0.167666,-0.207181,1.21269e-05,1.18751e-05,-2.79763e-05,0.370058,0.45779205506125065,1.212697353114578e-05,1.1875170509378918e-05,-0.1543637699771604,-2.7975908666988403e-05,-0.1871274932522119
926,0.9166,1071.01,0.00240164,0.00171758,-0.00317663,-0.0437109,0.0144036,0.377266,-0.167819,-0.20737,1.21304e-05,1.1855e-05,-2.79803e-05,0.370398,0.45829216349983093,1.2130473573623846e-05,1.1855070270794243e-05,-0.1544931424231094,-2.7979908555075816e-05,-0.1872811116385924
927,0.9176,1071.17,0.00239896,0.00171564,-0.00320395,-0.0436927,0.0143991,0.377609,-0.167972,-0.20756,1.21338e-05,1.18349e-05,-2.79843e-05,0.370739,0.45879244350502746,1.213387361476137e-05,1.1834970032653658e-05,-0.15462249507658832,-2.798390844316323e-05,-0.1874355135587341
928,0.9186,1071.33,0.00239629,0.00171371,-0.00323125,-0.0436745,0.0143947,0.377952,-0.168125,-0.207749,1.21372e-05,1.18149e-05,-2.79882e-05,0.371079,0.4592928951356978,1.213727365612094e-05,1.1814969796297703e-05,-0.15475182794062514,-2.7987808334017927e-05,-0.18758907373477773
929,0.9196,1071.49,0.00239362,0.00171177,-0.00325853,-0.0436563,0.0143902,0.378294,-0.168278,-0.207938,1.21405e-05,1.17948e-05,-2.79921e-05,0.371419,0.45979205865793116,1.2140573696139967e-05,1.1794869558823251e-05,-0.15488114101824757,-2.7991708224872625e-05,-0.18774260489069072
930,0.9206,1071.65,0.00239095,0.00170984,-0.0032858,-0.043638,0.0143857,0.378637,-0.168431,-0.208127,1.21439e-05,1.17747e-05,-2.79961e-05,0.37176,0.4602928532154076,1.2143973737499536e-05,1.1774769322014933e-05,-0.15501043431248251,-2.7995708112849016e-05,-0.18789610703195703
931,0.9216,1071.81,0.00238828,0.00170792,-0.00331304,-0.0436197,0.0143813,0.378979,-0.168584,-0.208317,1.21472e-05,1.17546e-05,-2.8e-05,0.3721,0.46079235878179037,1.2147273777518564e-05,1.1754669085650704e-05,-0.15513970782635678,-2.7999608003703713e-05,-0.18805039211407404
932,0.9226,1071.96,0.00238562,0.00170599,-0.00334027,-0.0436015,0.0143768,0.379321,-0.168737,-0.208506,1.21505e-05,1.17346e-05,-2.80038e-05,0.372439,0.46129203520829254,1.2150573817537591e-05,1.1734668850627017e-05,-0.15526896156289638,-2.800340789721467e-05,-0.188203836089052
933,0.9236,1072.12,0.00238297,0.00170407,-0.00336748,-0.0435832,0.0143723,0.379663,-0.16889,-0.208695,1.21537e-05,1.17145e-05,-2.80077e-05,0.372779,0.46179188255335757,1.2153773856438121e-05,1.1714568614928922e-05,-0.15539819552512701,-2.800730778806937e-05,-0.1883572510658592
934,0.9246,1072.28,0.00238032,0.00170215,-0.00339468,-0.0435649,0.0143678,0.380005,-0.169043,-0.208884,1.21569e-05,1.16944e-05,-2.80115e-05,0.373119,0.46229190087545025,1.2156973895338652e-05,1.1694468379674916e-05,-0.15552740971607393,-2.8011107681580327e-05,-0.18851063704997573
935,0.9256,1072.44,0.00237767,0.00170024,-0.00342185,-0.0435466,0.0143634,0.380347,-0.169195,-0.209073,1.21601e-05,1.16743e-05,-2.80154e-05,0.373458,0.46279209023305445,1.2160173934239182e-05,1.1674368144865e-05,-0.15565575979494406,-2.8015007572324002e-05,-0.1886639940468805
936,0.9266,1072.6,0.00237503,0.00169833,-0.00344901,-0.0435282,0.0143589,0.380689,-0.169348,-0.209261,1.21633e-05,1.16543e-05,-2.80192e-05,0.373798,0.4632924506846745,1.2163373973139713e-05,1.1654367911617669e-05,-0.15578493458157228,-2.801880746583496e-05,-0.18881651087896834
937,0.9276,1072.76,0.00237239,0.00169642,-0.00347615,-0.0435099,0.0143544,0.381031,-0.1695,-0.20945,1.21664e-05,1.16342e-05,-2.8023e-05,0.374137,0.46379298228883425,1.2166474010921746e-05,1.1634267677473886e-05,-0.15591324551963748,-2.802260735945694e-05,-0.1889698100711822
938,0.9286,1072.92,0.00236975,0.00169451,-0.00350327,-0.0434915,0.0143499,0.381372,-0.169653,-0.209639,1.21695e-05,1.16141e-05,-2.80267e-05,0.374476,0.4642922208111251,1.216957404870378e-05,1.1614167443996237e-05,-0.15604238091396339,-2.8026307255735183e-05,-0.1891230802925865
939,0.9296,1073.08,0.00236712,0.00169261,-0.00353038,-0.0434732,0.0143455,0.381714,-0.169805,-0.209827,1.21726e-05,1.1594e-05,-2.80305e-05,0.374815,0.46479309439514327,1.2172674086485813e-05,1.1594067210740633e-05,-0.15617065272316,-2.8030107149246142e-05,-0.1892755108245726
940,0.9306,1073.23,0.00236449,0.00169071,-0.00355746,-0.0434548,0.014341,0.382055,-0.169958,-0.210016,1.21756e-05,1.15739e-05,-2.80342e-05,0.375154,0.46529267401381613,1.2175674122927305e-05,1.1573966977929118e-05,-0.15629974873719643,-2.8033807045524384e-05,-0.18942872327399418
941,0.9316,1073.39,0.00236187,0.00168881,-0.00358453,-0.0434364,0.0143365,0.382396,-0.17011,-0.210205,1.21787e-05,1.15538e-05,-2.8038e-05,0.375493,0.4657924240181879,1.2178774160709338e-05,1.1553866745339647e-05,-0.1564279814294569,-2.803760693892432e-05,-0.1895819067689991
942,0.9326,1073.55,0.00235925,0.00168692,-0.00361158,-0.0434179,0.014332,0.382737,-0.170263,-0.210393,1.21816e-05,1.15338e-05,-2.80417e-05,0.375832,0.46629234446637025,1.2181674196032333e-05,1.1533866514534807e-05,-0.15655703807521304,-2.8041306835202562e-05,-0.18973425104971553
943,0.9336,1073.71,0.00235663,0.00168503,-0.00363861,-0.0433995,0.0143276,0.383078,-0.170415,-0.210581,1.21846e-05,1.15137e-05,-2.80454e-05,0.376171,0.4667924354164943,1.2184674232473824e-05,1.1513766282833515e-05,-0.15668523166246617,-2.8045006731480804e-05,-0.18988656669239912
944,0.9346,1073.86,0.00235402,0.00168314,-0.00366562,-0.0433811,0.0143231,0.383419,-0.170567,-0.21077,1.21875e-05,1.14936e-05,-2.80491e-05,0.376509,0.46729269692671127,1.2187574267796819e-05,1.1493666051576312e-05,-0.15681340576577485,-2.8048706627648023e-05,-0.19003966366317482
945,0.9356,1074.02,0.00235142,0.00168125,-0.00369261,-0.0433626,0.0143186,0.38376,-0.170719,-0.210958,1.21904e-05,1.14735e-05,-2.80527e-05,0.376847,0.467793129055192,1.2190474303119814e-05,1.1473565820763199e-05,-0.15694156038810048,-2.805230652669355e-05,-0.19019192189368395
946,0.9366,1074.18,0.00234881,0.00167937,-0.00371959,-0.0433442,0.0143141,0.3841,-0.170871,-0.211146,1.21933e-05,1.14534e-05,-2.80564e-05,0.377186,0.4682922635671294,1.2193374338664853e-05,1.1453465590394174e-05,-0.1570696955324038,-2.805600642286077e-05,-0.1903441515023364
947,0.9376,1074.34,0.00234621,0.00167749,-0.00374655,-0.0433257,0.0143096,0.384441,-0.171023,-0.211334,1.21962e-05,1.14333e-05,-2.806e-05,0.377524,0.4687930366059565,1.2196274373987848e-05,1.1433365360469239e-05,-0.15719781120164533,-2.8059606321906294e-05,-0.19049635249451236
948,0.9386,1074.49,0.00234362,0.00167561,-0.00377348,-0.0433072,0.0143052,0.384781,-0.171175,-0.211522,1.2199e-05,1.14132e-05,-2.80636e-05,0.377862,0.4692925111442623,1.2199074408192345e-05,1.1413265130766348e-05,-0.15732590739878505,-2.8063206220840797e-05,-0.19064852487559136
949,0.9396,1074.65,0.00234103,0.00167374,-0.0038004,-0.0432887,0.0143007,0.385121,-0.171327,-0.21171,1.22018e-05,1.13931e-05,-2.80672e-05,0.3782,0.4697921555327842,1.2201874442174798e-05,1.1393164901507546e-05,-0.15745398412678258,-2.80668061197753e-05,-0.1908006686509518
950,0.9406,1074.8,0.00233844,0.00167187,-0.0038273,-0.0432701,0.0142962,0.385461,-0.171479,-0.211898,1.22045e-05,1.13731e-05,-2.80708e-05,0.378538,0.4702919698292809,1.2204574475260799e-05,1.1373164674033376e-05,-0.15758204138859677,-2.8070406018820826e-05,-0.19095278382597092
951,0.9416,1074.96,0.00233585,0.00167,-0.00385419,-0.0432516,0.0142917,0.385801,-0.171631,-0.212086,1.22072e-05,1.1353e-05,-2.80744e-05,0.378875,0.47079195409153085,1.2207274508124755e-05,1.1353064445440708e-05,-0.1577100791871865,-2.807400591775533e-05,-0.1911048704060252
952,0.9426,1075.12,0.00233328,0.00166813,-0.00388105,-0.0432331,0.0142872,0.386141,-0.171783,-0.212274,1.221e-05,1.13329e-05,-2.80779e-05,0.379213,0.4712921083773325,1.2210074542329252e-05,1.1332964217514174e-05,-0.1578380975255098,-2.8077505819457116e-05,-0.1912569283964899
953,0.9436,1075.27,0.0023307,0.00166627,-0.0039079,-0.0432145,0.0142828,0.386481,-0.171935,-0.212462,1.22126e-05,1.13128e-05,-2.80814e-05,0.37955,0.47179243274450355,1.2212674574074711e-05,1.131286399003173e-05,-0.1579660964065246,-2.8081005721158903e-05,-0.19140895780273937
954,0.9446,1075.43,0.00232813,0.00166441,-0.00393472,-0.0431959,0.0142783,0.386821,-0.172086,-0.212649,1.22153e-05,1.12927e-05,-2.8085e-05,0.379888,0.47229292725088134,1.2215374607160712e-05,1.129276376277133e-05,-0.15809323392684282,-2.8084605620093406e-05,-0.19156015019070138
955,0.9456,1075.58,0.00232556,0.00166255,-0.00396153,-0.0431773,0.0142738,0.38716,-0.172238,-0.212837,1.22179e-05,1.12726e-05,-2.80885e-05,0.380225,0.47279211916146746,1.221797463890617e-05,1.1272663535955019e-05,-0.15822119403007173,-2.8088105521795192e-05,-0.19171212259661174
956,0.9466,1075.74,0.002323,0.0016607,-0.00398832,-0.0431588,0.0142693,0.3875,-0.172389,-0.213024,1.22205e-05,1.12525e-05,-2.80919e-05,0.380562,0.47329295361901536,1.222057467065163e-05,1.1252563309582797e-05,-0.1583482930335569,-2.8091505426264263e-05,-0.19186325829805773
957,0.9476,1075.89,0.00232044,0.00165885,-0.00401509,-0.0431401,0.0142648,0.387839,-0.172541,-0.213212,1.2223e-05,1.12324e-05,-2.80954e-05,0.380899,0.4737924845960091,1.2223074701278591e-05,1.1232463083654665e-05,-0.158476214370748,-2.809500532796605e-05,-0.1920151737250001
958,0.9486,1076.05,0.00231788,0.001657,-0.00404184,-0.0431215,0.0142603,0.388178,-0.172693,-0.213399,1.22256e-05,1.12123e-05,-2.80989e-05,0.381236,0.4742921849427104,1.222567473302405e-05,1.1212362858170621e-05,-0.1586041162653734,-2.8098505229556814e-05,-0.19216625276118338
959,0.9496,1076.2,0.00231533,0.00165516,-0.00406857,-0.0431029,0.0142559,0.388517,-0.172844,-0.213587,1.22281e-05,1.11922e-05,-2.81023e-05,0.381573,0.4747920547165454,1.2228174763428967e-05,1.1192262632908623e-05,-0.1587311574519663,-2.8101905134025884e-05,-0.1923181112305209
960,0.9506,1076.36,0.00231278,0.00165331,-0.00409528,-0.0430842,0.0142514,0.388856,-0.172995,-0.213774,1.22306e-05,1.11721e-05,-2.81057e-05,0.381909,0.47529209397495986,1.2230674794055929e-05,1.1172162408090713e-05,-0.15885817945678837,-2.8105305038494954e-05,-0.19246913362268703
961,0.9516,1076.51,0.00231023,0.00165147,-0.00412197,-0.0430656,0.0142469,0.389195,-0.173147,-0.213961,1.2233e-05,1.11521e-05,-2.81091e-05,0.382246,0.47579230277541873,1.223307482334235e-05,1.115216218483539e-05,-0.15898602329713285,-2.8108704942964025e-05,-0.19262012777630622
962,0.9526,1076.67,0.00230769,0.00164964,-0.00414864,-0.0430469,0.0142424,0.389534,-0.173298,-0.214148,1.22354e-05,1.1132e-05,-2.81125e-05,0.382582,0.47629268117540646,1.2235474852850814e-05,1.113206196090566e-05,-0.15911300682011775,-2.8112104847322072e-05,-0.19277109369665857
963,0.9536,1076.82,0.00230515,0.0016478,-0.0041753,-0.0430282,0.0142379,0.389872,-0.173449,-0.214335,1.22378e-05,1.11119e-05,-2.81159e-05,0.382919,0.4767917524399361,1.2237874882137234e-05,1.1111961737420017e-05,-0.1592399711700383,-2.8115504751791143e-05,-0.1929220313890232
964,0.9546,1076.98,0.00230262,0.00164597,-0.00420193,-0.0430096,0.0142334,0.390211,-0.1736,-0.214522,1.22402e-05,1.10918e-05,-2.81193e-05,0.383255,0.4772924697107952,1.2240274911645699e-05,1.109186151415642e-05,-0.15936691634978928,-2.811890465614919e-05,-0.19307294085867832
965,0.9556,1077.13,0.00230009,0.00164414,-0.00422855,-0.0429909,0.0142289,0.390549,-0.173751,-0.214709,1.22425e-05,1.10717e-05,-2.81226e-05,0.383591,0.4777918789609663,1.2242574939813622e-05,1.1071761291558957e-05,-0.15949384236226538,-2.8122204563385544e-05,-0.19322382211090094
966,0.9566,1077.28,0.00229757,0.00164232,-0.00425515,-0.0429721,0.0142245,0.390888,-0.173903,-0.214896,1.22448e-05,1.10516e-05,-2.8126e-05,0.383927,0.4782929353321905,1.22448749677595e-05,1.1051661069183538e-05,-0.15962158958919115,-2.8125604467743592e-05,-0.1933746751509674
967,0.9576,1077.44,0.00229504,0.00164049,-0.00428172,-0.0429534,0.01422,0.391226,-0.174054,-0.215083,1.22471e-05,1.10315e-05,-2.81293e-05,0.384263,0.4787926827968967,1.2247174995927423e-05,1.1031560847252209e-05,-0.15974847714891127,-2.8128904374979946e-05,-0.1935254999841527
968,0.9586,1077.59,0.00229253,0.00163867,-0.00430828,-0.0429347,0.0142155,0.391564,-0.174205,-0.21527,1.22494e-05,1.10114e-05,-2.81326e-05,0.384599,0.4792925992047956,1.2249475024317391e-05,1.1011460625764968e-05,-0.15987534555005645,-2.8132204282105278e-05,-0.19367629661573116
969,0.9596,1077.74,0.00229001,0.00163686,-0.00433482,-0.0429159,0.014211,0.391902,-0.174356,-0.215457,1.22516e-05,1.09913e-05,-2.81359e-05,0.384934,0.4797926846129996,1.2251675051144773e-05,1.0991360404499773e-05,-0.16000219479551936,-2.813550418923061e-05,-0.19382706505097602
970,0.9606,1077.9,0.0022875,0.00163504,-0.00436134,-0.0428972,0.0142065,0.39224,-0.174506,-0.215643,1.22538e-05,1.09713e-05,-2.81391e-05,0.38527,0.480292939078641,1.2253875078194199e-05,1.0971360185019208e-05,-0.16012818501679715,-2.8138704099234246e-05,-0.19397699927256162
971,0.9616,1078.05,0.002285,0.00163323,-0.00438784,-0.0428784,0.014202,0.392577,-0.174657,-0.21583,1.2256e-05,1.09512e-05,-2.81424e-05,0.385605,0.4807918818662482,1.225607510502158e-05,1.095125996464219e-05,-0.16025499608638294,-2.8142004006359578e-05,-0.19412771148166696
972,0.9626,1078.2,0.00228249,0.00163142,-0.00441431,-0.0428596,0.0141975,0.392915,-0.174808,-0.216016,1.22581e-05,1.09311e-05,-2.81456e-05,0.385941,0.48129247411764364,1.2258175130730464e-05,1.0931159744709262e-05,-0.16038178800894287,-2.8145203916363215e-05,-0.19427758978821674
973,0.9636,1078.35,0.00227999,0.00162961,-0.00444077,-0.0428409,0.014193,0.393252,-0.174959,-0.216203,1.22602e-05,1.0911e-05,-2.81488e-05,0.386276,0.48179175380532335,1.2260275156661393e-05,1.0911059525220423e-05,-0.16050856078736786,-2.814840382625583e-05,-0.194428245792151
974,0.9646,1078.51,0.0022775,0.00162781,-0.00446721,-0.0428221,0.0141886,0.39359,-0.175109,-0.216389,1.22623e-05,1.08909e-05,-2.81521e-05,0.386611,0.4822926840705555,1.2262375182370278e-05,1.0890959306175674e-05,-0.16063447505944317,-2.815170373338116e-05,-0.19457806820451728
975,0.9656,1078.66,0.00227501,0.00162601,-0.00449363,-0.0428033,0.0141841,0.393927,-0.17526,-0.216576,1.22644e-05,1.08708e-05,-2.81553e-05,0.386946,0.48279230088579217,1.2264475208079162e-05,1.0870859087352969e-05,-0.16076120968500418,-2.8154903643273776e-05,-0.19472866802424105
976,0.9666,1078.81,0.00227252,0.00162421,-0.00452003,-0.0427844,0.0141796,0.394264,-0.175411,-0.216762,1.22664e-05,1.08508e-05,-2.81584e-05,0.387281,0.4832920861002694,1.226647523266955e-05,1.085085887009285e-05,-0.16088792517508155,-2.8158003555933675e-05,-0.1948784345632687
977,0.9676,1078.96,0.00227004,0.00162242,-0.00454641,-0.0427656,0.0141751,0.394601,-0.175561,-0.216948,1.22684e-05,1.08307e-05,-2.81616e-05,0.387616,0.4837920397707469,1.2268475257037892e-05,1.0830758652158323e-05,-0.16101378254676635,-2.816120346582629e-05,-0.19502817324831045
978,0.9686,1079.11,0.00226755,0.00162062,-0.00457277,-0.0427468,0.0141706,0.394938,-0.175712,-0.217134,1.22704e-05,1.08106e-05,-2.81647e-05,0.38795,0.4842921619540044,1.227047528162828e-05,1.0810658434667886e-05,-0.16114045990122083,-2.816430337859721e-05,-0.19517788408454695
979,0.9696,1079.27,0.00226508,0.00161883,-0.00459911,-0.0427279,0.0141661,0.395275,-0.175862,-0.21732,1.22723e-05,1.07905e-05,-2.81679e-05,0.388285,0.4847924527068399,1.2272375304878125e-05,1.0790558217621538e-05,-0.16126627939553773,-2.8167503288378803e-05,-0.19532756707715737
980,0.9706,1079.42,0.00226261,0.00161705,-0.00462543,-0.0427091,0.0141616,0.395612,-0.176012,-0.217506,1.22742e-05,1.07704e-05,-2.8171e-05,0.388619,0.48529291208607117,1.2274275328350015e-05,1.0770458001019279e-05,-0.16139208001834582,-2.8170603201149724e-05,-0.19547722223132025
981,0.9716,1079.57,0.00226014,0.00161526,-0.00465174,-0.0426902,0.0141571,0.395948,-0.176163,-0.217692,1.22761e-05,1.07504e-05,-2.81741e-05,0.388953,0.48579205435573747,1.227617535159986e-05,1.0750457785757561e-05,-0.16151870025419457,-2.8173703113809623e-05,-0.195626849552213
982,0.9726,1079.72,0.00225767,0.00161348,-0.00467802,-0.0426713,0.0141526,0.396285,-0.176313,-0.217878,1.2278e-05,1.07303e-05,-2.81772e-05,0.389288,0.4862928506574926,1.2278075374849706e-05,1.0730357569821436e-05,-0.16164446301671354,-2.817680302646952e-05,-0.19577644904501212
983,0.9736,1079.87,0.00225521,0.0016117,-0.00470428,-0.0426524,0.0141482,0.396621,-0.176463,-0.218064,1.22798e-05,1.07102e-05,-2.81803e-05,0.389622,0.48679232896296987,1.2279875396981055e-05,1.07102573543294e-05,-0.16177020691623278,-2.817990293912942e-05,-0.1959260207148933
984,0.9746,1080.02,0.00225275,0.00160992,-0.00473052,-0.0426335,0.0141437,0.396957,-0.176613,-0.21825,1.22817e-05,1.06901e-05,-2.81833e-05,0.389956,0.48729197512135536,1.2281775420452945e-05,1.0690157139281453e-05,-0.1618959319555816,-2.8182902854556602e-05,-0.1960755645670309
985,0.9756,1080.17,0.0022503,0.00160815,-0.00475674,-0.0426146,0.0141392,0.397293,-0.176763,-0.218436,1.22834e-05,1.06701e-05,-2.81864e-05,0.39029,0.4877917891890573,1.2283475441243752e-05,1.0670156925796093e-05,-0.16202163813758896,-2.8186002767105478e-05,-0.1962250806065987
986,0.9766,1080.32,0.00224785,0.00160638,-0.00478293,-0.0425957,0.0141347,0.397629,-0.176914,-0.218621,1.22852e-05,1.065e-05,-2.81894e-05,0.390623,0.48829177122250256,1.22852754633751e-05,1.065005671141428e-05,-0.16214816331733872,-2.8189002682643682e-05,-0.19637376521293637
987,0.9776,1080.47,0.0022454,0.00160461,-0.00480911,-0.0425768,0.0141302,0.397965,-0.177064,-0.218807,1.22869e-05,1.06299e-05,-2.81924e-05,0.390957,0.4887919212781373,1.2286975484165907e-05,1.0629956497476556e-05,-0.16227383166747922,-2.8192002598070864e-05,-0.19652322579234194
988,0.9786,1080.62,0.00224295,0.00160285,-0.00483527,-0.0425579,0.0141257,0.398301,-0.177213,-0.218992,1.22886e-05,1.06099e-05,-2.81954e-05,0.39129,0.48929223941242617,1.2288675505178759e-05,1.0609956285101418e-05,-0.16239864356784328,-2.8195002513498046e-05,-0.19667185524692188
989,0.9796,1080.77,0.00224051,0.00160108,-0.00486141,-0.0425389,0.0141212,0.398637,-0.177363,-0.219178,1.22903e-05,1.05898e-05,-2.81984e-05,0.391624,0.4897927256818535,1.2290375525969566e-05,1.0589856072051873e-05,-0.16252427434876393,-2.8198002428814206e-05,-0.1968212603867372
990,0.9806,1080.92,0.00223808,0.00159932,-0.00488753,-0.04252,0.0141167,0.398972,-0.177513,-0.219363,1.2292e-05,1.05697e-05,-2.82014e-05,0.391957,0.4902918898502868,1.2292075546982417e-05,1.0569755859446417e-05,-0.1626498862864808,-2.8201002344241388e-05,-0.19696983471001706
991,0.9816,1081.07,0.00223565,0.00159756,-0.00491363,-0.042501,0.0141122,0.399308,-0.177663,-0.219549,1.22936e-05,1.05497e-05,-2.82044e-05,0.39229,0.4907927120586959,1.2293675566654727e-05,1.0549755648181502e-05,-0.16277547938381998,-2.820400225966857e-05,-0.19711918443080634
992,0.9826,1081.22,0.00223322,0.00159581,-0.00493971,-0.0424821,0.0141077,0.399643,-0.177813,-0.219734,1.22952e-05,1.05296e-05,-2.82073e-05,0.392623,0.4912922112786835,1.2295275586327037e-05,1.0529655436464225e-05,-0.16290105364360752,-2.8206902177863036e-05,-0.19726770364323598
993,0.9836,1081.37,0.00223079,0.00159406,-0.00496576,-0.0424631,0.0141033,0.399978,-0.177963,-0.219919,1.22967e-05,1.05096e-05,-2.82103e-05,0.392956,0.4917918778589412,1.2296775604658805e-05,1.0509655226087489e-05,-0.16302660906866873,-2.8209902093179196e-05,-0.1974161953821526
994,0.9846,1081.52,0.00222837,0.00159231,-0.0049918,-0.0424441,0.0140988,0.400313,-0.178112,-0.220104,1.22983e-05,1.04895e-05,-2.82132e-05,0.393289,0.4922917118555439,1.2298375624331115e-05,1.0489555015036345e-05,-0.16315130881355577,-2.821280201137366e-05,-0.19756465965263836
995,0.9856,1081.67,0.00222595,0.00159056,-0.00501781,-0.0424251,0.0140943,0.400649,-0.178262,-0.220289,1.22998e-05,1.04694e-05,-2.82161e-05,0.393622,0.492793206117045,1.2299875642884928e-05,1.046945480442929e-05,-0.16327682670315669,-2.8215701929568127e-05,-0.19771309645977464
996,0.9866,1081.82,0.00222354,0.00158881,-0.00504381,-0.0424061,0.0140898,0.400983,-0.178411,-0.220474,1.23013e-05,1.04494e-05,-2.8219e-05,0.393955,0.4932918823221786,1.2301375661216696e-05,1.0449454595162777e-05,-0.1634014891683936,-2.8218601847762592e-05,-0.1978615058086416
997,0.9876,1081.97,0.00222113,0.00158707,-0.00506978,-0.0423871,0.0140853,0.401318,-0.178561,-0.220659,1.23027e-05,1.04293e-05,-2.82218e-05,0.394287,0.493792218904455,1.2302775678429967e-05,1.04293543854439e-05,-0.16352696953375567,-2.822140176872434e-05,-0.19800988770431838
998,0.9886,1082.12,0.00221872,0.00158533,-0.00509574,-0.0423681,0.0140808,0.401653,-0.17871,-0.220844,1.23042e-05,1.04093e-05,-2.82247e-05,0.39462,0.49429272312756445,1.230427569698378e-05,1.0409354176843522e-05,-0.1636515947304874,-2.8224301686918807e-05,-0.1981582421518836
999,0.9896,1082.27,0.00221632,0.0015836,-0.00512167,-0.0423491,0.0140763,0.401987,-0.17886,-0.221029,1.23056e-05,1.03892e-05,-2.82276e-05,0.394952,0.49479190025502895,1.230567571419705e-05,1.0389253968012824e-05,-0.1637770375828287,-2.822720160500225e-05,-0.19830656915641454
