,Time,S11,S22,S33,S12,S13,S23,LE11,LE22,LE33,LE12,LE13,LE23,SDV_EPBAR,E11,E12,E13,E22,E23,E33
0,1e-05,2.07745,-3.33067e-16,-3.33067e-16,-1.69198e-17,8.45988e-18,1.692e-17,9.99995e-06,-2.99999e-06,-2.99999e-06,0.0,0.0,0.0,0.0,9.999999999621423e-06,0.0,0.0,-2.999985500018454e-06,0.0,-2.999985500018454e-06
1,2e-05,4.15488,2.77556e-16,2.22045e-16,-2.53794e-17,1.69196e-17,1.692e-17,1.99998e-05,-5.99994e-06,-5.99994e-06,0.0,0.0,0.0,0.0,1.9999999997244444e-05,0.0,0.0,-5.999922000343716e-06,0.0,-5.999922000343716e-06
2,3.5e-05,7.27098,-3.88578e-16,0.0,-8.45927e-18,-3.29936e-22,1.692e-17,3.49994e-05,-1.04998e-05,-1.04998e-05,0.0,0.0,0.0,0.0,3.5000012486241516e-05,0.0,0.0,-1.0499744877323636e-05,0.0,-1.0499744877323636e-05
3,5.75e-05,11.9451,-3.83027e-15,-4.21885e-15,-4.2298e-17,-3.29936e-22,-3.38399e-17,5.74983e-05,-1.72495e-05,-1.72495e-05,0.0,0.0,0.0,0.0,5.749995305892597e-05,0.0,0.0,-1.7249351228265652e-05,0.0,-1.7249351228265652e-05
4,9.125e-05,18.956,-2.82552e-14,-2.81997e-14,-4.22961e-17,-3.29936e-22,-3.38399e-17,9.12458e-05,-2.73738e-05,-2.73738e-05,0.0,0.0,0.0,0.0,9.124996302456445e-05,0.0,0.0,-2.737342534098186e-05,0.0,-2.737342534098186e-05
5,0.00014188,29.4719,-1.57929e-13,-1.58762e-13,-8.45562e-18,3.38374e-17,3.38399e-17,0.000141865,-4.25595e-05,-4.25595e-05,0.0,0.0,0.0,0.0,0.00014187506331508892,0.0,0.0,-4.255859435731146e-05,0.0,-4.255859435731146e-05
6,0.00021781,45.2448,-7.97418e-13,-7.97362e-13,-8.45479e-18,3.3834e-17,3.38399e-17,0.000217789,-6.53366e-05,-6.53366e-05,0.0,0.0,0.0,0.0,0.0002178127177461242,0.0,0.0,-6.533446561085565e-05,0.0,-6.533446561085565e-05
7,0.00033172,68.9018,-4.04016e-12,-4.03744e-12,-1.43793e-16,-2.3685e-16,1.692e-16,0.000331664,-9.94991e-05,-9.94991e-05,0.0,0.0,0.0,0.0,0.0003317190065854625,0.0,0.0,-9.949415012866503e-05,0.0,-9.949415012866503e-05
8,0.00050258,104.382,-2.04484e-11,-2.04492e-11,-8.43162e-18,-2.36798e-16,1.692e-16,0.000502452,-0.000150736,-0.000150736,0.0,0.0,0.0,0.0,0.0005025782501502096,0.0,0.0,-0.00015072463989995732,0.0,-0.00015072463989995732
9,0.00075887,157.592,-1.03424e-10,-1.03423e-10,-8.4288e-18,-2.36719e-16,1.692e-16,0.000758579,-0.000227574,-0.000227574,0.0,0.0,0.0,0.0,0.0007588667938165372,0.0,0.0,-0.0002275481070015406,0.0,-0.0002275481070015406
10,0.0011433,237.381,-5.23067e-10,-5.23062e-10,-8.42458e-18,-2.36601e-16,1.692e-16,0.00114265,-0.000342794,-0.000342794,0.0,0.0,0.0,0.0,0.0011433030732321825,0.0,0.0,-0.00034273525284966855,0.0,-0.00034273525284966855
11,0.00172,357.006,-2.6442e-09,-2.6442e-09,-8.41824e-18,3.0461e-16,-9.13679e-16,0.00171847,-0.000515542,-0.000515542,0.0,0.0,0.0,0.0,0.001719947415747436,0.0,0.0,-0.0005154091310572984,0.0,-0.0005154091310572984
12,0.0025849,474.257,-0.158379,-0.0634248,0.00956474,-0.0203406,-0.0093564,0.00258159,-0.000815959,-0.000852801,8.38075e-08,-2.37383e-07,-1.46832e-08,0.000297104,0.0025849251728629064,8.380750360359457e-08,-2.3738297183495405e-07,-0.0008156261959794131,-1.4683199989207196e-08,-0.0008524374685745517
13,0.0035849,498.653,0.438118,0.0762281,-0.0202287,0.0979083,-0.0429542,0.00357852,-0.00121511,-0.00140069,-9.71449e-07,2.45209e-06,1.19387e-06,0.00117648,0.00358493054717135,-9.714485281753227e-07,2.452093006422018e-06,-0.0012143720527698632,1.1938707127345793e-06,-0.0013997094916115005
14,0.0045849,518.258,0.396625,0.110703,-0.0179845,0.0738352,-0.0272635,0.00457445,-0.00161964,-0.00195337,-1.41368e-06,2.99625e-06,2.47749e-06,0.00207583,0.004584928768509355,-1.4136790007501787e-06,2.996254488740746e-06,-0.0016183290909642656,2.477493068919756e-06,-0.0019514634144459642
15,0.0055849,534.906,0.413467,0.20267,-0.0279718,0.062282,-0.00198677,0.00556939,-0.00202596,-0.00250901,-1.93798e-06,3.50482e-06,3.66545e-06,0.00298801,0.0055849278846065165,-1.9379781220907333e-06,3.50482614197567e-06,-0.0020239091282676647,3.66545671770524e-06,-0.002505865065184132
16,0.0065849,549.276,0.344588,0.169595,-0.0174477,0.0437211,-0.00439252,0.00656334,-0.0024338,-0.0030671,-2.09605e-06,3.75072e-06,4.28931e-06,0.00390949,0.006584925915370743,-2.0960478033238417e-06,3.750727034068646e-06,-0.002430840710040183,4.2893191991577595e-06,-0.0030624012538640333
17,0.0075849,561.558,-0.345056,-0.176399,0.0626231,-0.0916076,-0.049453,0.00755631,-0.00284541,-0.00362636,-1.02787e-06,1.81739e-06,4.02814e-06,0.00483842,0.0075849309545927834,-1.0278694717591463e-06,1.8173916513930521e-06,-0.0028413656578125668,4.028148113066621e-06,-0.003619792697441393
18,0.0085849,573.621,0.513222,0.204983,-0.0328069,0.0797481,-0.0108581,0.00854829,-0.0032514,-0.00418637,-2.4967e-06,4.52278e-06,4.90835e-06,0.00577056,0.00858493096240287,-2.4966968832362824e-06,4.522790227889928e-06,-0.0032461199231175186,4.908362045918935e-06,-0.004177619368497476
19,0.0095849,583.507,-0.383935,-0.0906583,0.0592957,-0.115269,-0.00475108,0.00953928,-0.00366553,-0.00474618,-1.24621e-06,1.68069e-06,5.34474e-06,0.00670853,0.009584923952826285,-1.2462092234821753e-06,1.6806914122646788e-06,-0.003658820145803876,5.344754283154174e-06,-0.004734934685500347
20,0.010585,593.038,-0.476673,-0.108238,0.0655517,-0.135512,0.00192334,0.0105293,-0.00407714,-0.00530618,-1.03439e-06,9.20659e-07,5.76911e-06,0.00764868,0.010584928149636852,-1.0343894649711416e-06,9.206594238087007e-07,-0.004068839748970321,5.769126641297362e-06,-0.005292127093640908
21,0.011585,602.365,0.358431,0.0708616,-0.00658206,0.0577625,-0.0375161,0.0115183,-0.00448428,-0.00586791,-2.0613e-06,3.72634e-06,5.40093e-06,0.00859042,0.011584891043720846,-2.0612978754996902e-06,3.7263469427895046e-06,-0.004474240628497883,5.400944585121081e-06,-0.00585072744111359
22,0.012585,610.656,0.45158,0.0716172,-0.0107279,0.0818818,-0.0539792,0.0125064,-0.00489453,-0.00642936,-2.24224e-06,4.51013e-06,5.21937e-06,0.00953478,0.012584932063461896,-2.2422374861275074e-06,4.510140170665977e-06,-0.0048825713067226495,5.2193836208580535e-06,-0.006408735888612127
23,0.013585,617.983,-0.330885,-0.0167475,0.0475216,-0.111876,0.0179903,0.0134935,-0.00530976,-0.00698858,-1.423e-06,1.67021e-06,6.44269e-06,0.0104813,0.013584948126631247,-1.4229989875325089e-06,1.6702113947442143e-06,-0.005295688141451649,6.442710754228642e-06,-0.006964216662873057
24,0.014585,625.169,-0.436035,-0.0644455,0.0588898,-0.131611,0.0116935,0.0144796,-0.00572227,-0.00754845,-1.14567e-06,9.19082e-07,6.63809e-06,0.0114286,0.014584937207563264,-1.1456693437272847e-06,9.190824223903604e-07,-0.005705928997091325,6.6381120322756004e-06,-0.0075200320002049015
25,0.015585,632.467,0.378263,0.0914272,-0.0105126,0.0609975,-0.0290029,0.0154647,-0.00613016,-0.00810961,-2.12287e-06,3.68633e-06,6.21006e-06,0.0123759,0.015584897278674292,-2.122867746701118e-06,3.6863367944839354e-06,-0.0061114089044912445,6.210079282364944e-06,-0.008076815822032013
26,0.016585,638.951,0.406739,0.050928,-0.00689052,0.0737721,-0.0551881,0.0164489,-0.00654114,-0.00867018,-2.16815e-06,4.24989e-06,5.83854e-06,0.0133248,0.016584927968955387,-2.168147649528329e-06,4.249899030694948e-06,-0.006519793312999345,5.838557044279824e-06,-0.008632702380166002
27,0.017585,644.83,-0.230539,0.03348,0.0358268,-0.0917076,0.0252182,0.0174321,-0.00695604,-0.00922827,-1.57084e-06,1.84814e-06,7.13557e-06,0.0142746,0.0175849257885059,-1.5708387662849432e-06,1.8481417078941575e-06,-0.0069319027527388055,7.135595458285238e-06,-0.009185820196177308
28,0.018585,651.072,0.543802,0.0656216,-0.0144917,0.103109,-0.0533441,0.0184143,-0.00736365,-0.00978917,-2.31071e-06,4.8056e-06,6.0993e-06,0.0152238,0.01858488870401298,-2.310707330366313e-06,4.805611546920829e-06,-0.0073366047539630275,6.099318600849557e-06,-0.009741412039330655
29,0.019585,656.623,0.447221,0.0195427,-0.00362316,0.085464,-0.0714411,0.0193956,-0.00777504,-0.0103485,-2.2438e-06,5.01881e-06,5.73674e-06,0.016174,0.0195849166387565,-2.2437974827038687e-06,5.018822594182737e-06,-0.007744892559614858,5.736756455210212e-06,-0.010295138502987133
30,0.020585,661.751,-0.179622,0.0636236,0.0305127,-0.0844326,0.030907,0.0203759,-0.00818983,-0.0109051,-1.76654e-06,2.59237e-06,7.30386e-06,0.0171246,0.020584905797141895,-1.7665384396403638e-06,2.5923733601995735e-06,-0.008156384708316033,7.303886673248883e-06,-0.010845854950291223
31,0.021585,667.204,0.510672,0.0330687,-0.00646561,0.0959335,-0.0607463,0.0213553,-0.00859753,-0.0114649,-2.30382e-06,5.31956e-06,6.05564e-06,0.0180745,0.021584956298670743,-2.3038173462275324e-06,5.319574148954231e-06,-0.008560676929701083,6.055658335446523e-06,-0.011399428481002394
32,0.022585,671.657,-0.612234,0.00905866,0.064673,-0.191674,0.0644116,0.0223337,-0.00901473,-0.0120196,-1.24554e-06,9.66243e-07,8.0318e-06,0.0190256,0.022584964143978592,-1.2455392243149177e-06,9.66243466793415e-07,-0.00897421914438179,8.031832255062099e-06,-0.011947653153853932
33,0.023585,676.387,-0.643626,-0.0576317,0.0745242,-0.189627,0.0377137,0.0233111,-0.00942683,-0.0125759,-9.22041e-07,2.5486e-07,7.99048e-06,0.0199758,0.023584927290316138,-9.22040574891092e-07,2.548600324114858e-07,-0.009382536729055424,7.99051192390543e-06,-0.012497153816623974
34,0.024585,681.588,0.485629,0.106285,-0.0200072,0.0878576,-0.0351293,0.0242876,-0.0098327,-0.0131339,-2.21948e-06,4.1509e-06,7.07093e-06,0.0209249,0.024584946151559928,-2.2194775369799302e-06,4.150908615052629e-06,-0.009784517057477071,7.070954999077728e-06,-0.013048026696967252
35,0.025585,686.011,0.494748,0.0429012,-0.0126911,0.0978357,-0.0684934,0.0252631,-0.0102429,-0.0136907,-2.21524e-06,4.73257e-06,6.50764e-06,0.0218749,0.025584916422732862,-2.2152375463990737e-06,4.732581198707564e-06,-0.010190620151141139,6.5076611748260405e-06,-0.013597408593588711
36,0.026585,690.0,-0.242573,0.0602926,0.0348887,-0.0991605,0.0366011,0.0262377,-0.0106575,-0.0142443,-1.54921e-06,1.90847e-06,8.09613e-06,0.0228249,0.026584938713985595,-1.5492088000224058e-06,1.9084718210216067e-06,-0.010600910061051017,8.096162773751914e-06,-0.014143329943219207
37,0.027585,694.54,0.603438,0.049324,-0.0169143,0.120805,-0.0644456,0.0272113,-0.0110636,-0.0148014,-2.29645e-06,5.20694e-06,6.69801e-06,0.0237737,0.027584908516628426,-2.2964473631592597e-06,5.206953556102789e-06,-0.011002623458049143,6.698032431806666e-06,-0.014692397737073204
38,0.028585,698.488,0.448843,-0.000237894,-0.00210704,0.0882865,-0.0783386,0.028184,-0.011474,-0.0153563,-2.15991e-06,5.20576e-06,6.33367e-06,0.0247228,0.028584926637108543,-2.159907667387273e-06,5.205773550009951e-06,-0.01140842470527037,6.33369005775819e-06,-0.015238993258615996
39,0.029585,702.2,-0.130043,0.0828157,0.0256134,-0.0740419,0.0317362,0.0291557,-0.0118873,-0.0159085,-1.77127e-06,2.92058e-06,7.95285e-06,0.0256717,0.029584888363045847,-1.7712684312609639e-06,2.9205842648760694e-06,-0.011816925180901494,7.952881623918273e-06,-0.015782628175124214
40,0.030585,706.231,0.453354,0.0113547,-0.000651051,0.0840411,-0.0613471,0.0301265,-0.0122941,-0.0164637,-2.14274e-06,5.28469e-06,6.66175e-06,0.0266196,0.030584894697205156,-2.1427377043803375e-06,5.284703963992499e-06,-0.012218836301473468,6.6617721894424164e-06,-0.016328913996984662
41,0.031585,709.536,-0.491997,0.047972,0.053602,-0.165615,0.0633628,0.0310964,-0.0127089,-0.017014,-1.33154e-06,1.54097e-06,8.58038e-06,0.0275679,0.03158494388202815,-1.3315391135249044e-06,1.5409711873193288e-06,-0.012628482961584697,8.580416811510005e-06,-0.016870079280327577
42,0.032585,713.092,-0.509794,-0.0295914,0.0642537,-0.159661,0.0294625,0.0320653,-0.0131191,-0.0175659,-1.0332e-06,1.02763e-06,8.37846e-06,0.0285152,0.03258493089963643,-1.0331994662049482e-06,1.0276305280054743e-06,-0.013033419699670756,8.378495099492511e-06,-0.017412518983568104
43,0.033585,717.073,0.389147,0.0964852,-0.0125319,0.0631536,-0.02627,0.0330333,-0.0135244,-0.0181189,-2.07272e-06,4.11287e-06,7.68635e-06,0.0294612,0.033584957047315456,-2.0727178519086564e-06,4.1128784578070565e-06,-0.013433356202059543,7.686379539961763e-06,-0.017955739646213442
44,0.034585,719.975,-0.593094,-0.0585294,0.0760606,-0.177922,0.0296809,0.0340003,-0.0139384,-0.0186684,-7.61009e-07,4.35591e-07,8.60449e-06,0.0304084,0.034584917103546386,-7.610087103815388e-07,4.355910949715991e-07,-0.013841710257469941,8.60452701867409e-06,-0.018495224730176285
45,0.035585,723.335,-0.529599,-0.0711813,0.0713653,-0.15832,0.0147125,0.0349664,-0.0143476,-0.0192186,-6.33795e-07,1.05986e-07,8.57503e-06,0.0313541,0.03558491256198759,-6.337947991985615e-07,1.0598600552746973e-07,-0.014245163677433226,8.575066765770245e-06,-0.01903510012418952
46,0.036585,727.074,0.354874,0.0867501,-0.0108791,0.0577333,-0.0260096,0.0359316,-0.0147524,-0.0197698,-1.73422e-06,3.07983e-06,8.06726e-06,0.0322984,0.03658494165599668,-1.7342184962521046e-06,3.0798347427918316e-06,-0.01464411648168118,8.06729254043681e-06,-0.0195756589852929
47,0.037585,729.769,-0.558608,-0.0621674,0.0732602,-0.166385,0.0233807,0.0368958,-0.0151653,-0.0203179,-4.88384e-07,-3.32557e-07,8.87215e-06,0.0332438,0.03758489885863869,-4.883838807812069e-07,-3.32556944648843e-07,-0.015050885942651582,8.872189357633786e-06,-0.02011288232709707
48,0.038585,732.909,-0.48675,-0.0668923,0.0667255,-0.14538,0.0104027,0.0378591,-0.0155737,-0.0208665,-3.99856e-07,-5.87877e-07,8.84531e-06,0.0341878,0.03858488595816789,-3.998559200413254e-07,-5.87876827218281e-07,-0.015453057031906359,8.845349119823709e-06,-0.020650300972439473
49,0.039585,736.392,0.322645,0.0812797,-0.00953283,0.0522133,-0.0243966,0.0388215,-0.0159781,-0.0214159,-1.41917e-06,2.12877e-06,8.41403e-06,0.0351305,0.0395849011825542,-1.419168992988773e-06,2.1287722657969965e-06,-0.01585112732040528,8.414065397976955e-06,-0.021188207920516455
50,0.040585,738.93,-0.497319,-0.0521839,0.0666344,-0.149409,0.0196947,0.039783,-0.0163898,-0.0219625,-2.94808e-07,-9.30142e-07,9.13287e-06,0.0360741,0.04058494275798519,-2.948079564912831e-07,-9.301415674345392e-07,-0.01625621801764565,9.132911704679003e-06,-0.021723080252141758
51,0.041585,742.508,0.758526,0.142155,-0.0485374,0.160119,-0.0469197,0.0407435,-0.0167913,-0.0225118,-1.91904e-06,3.596e-06,8.21823e-06,0.0370152,0.04158490475037402,-1.9190381586042804e-06,3.5960064657114543e-06,-0.016651111865866763,8.218263769732559e-06,-0.022260300203191696
52,0.042585,745.213,0.553331,0.0370837,-0.0208376,0.118466,-0.0759102,0.0417031,-0.0171986,-0.0230594,-1.66758e-06,3.55847e-06,7.66675e-06,0.037957,0.042584889340844256,-1.6675786096431722e-06,3.5584763313778467e-06,-0.017051548313585352,7.666779389570166e-06,-0.022795563894226323
53,0.043585,747.723,-0.150535,0.0872011,0.0233609,-0.0743393,0.0346766,0.0426618,-0.017609,-0.023604,-1.07543e-06,8.97944e-07,9.26801e-06,0.0388984,0.04358489475025573,-1.0754294217374394e-06,8.979444030554617e-07,-0.017454867591380818,9.268052948208094e-06,-0.023327604542311198
54,0.044585,750.721,0.511126,0.020526,-0.0110367,0.104701,-0.0638259,0.0436196,-0.0180121,-0.0241518,-1.57183e-06,3.57199e-06,7.89059e-06,0.0398383,0.04458491919770524,-1.5718287647015217e-06,3.5719963795699528e-06,-0.017850851718292038,7.890621130712816e-06,-0.023862479165008166
55,0.045585,752.957,-0.535497,0.0454259,0.0552494,-0.171818,0.0644607,0.0445765,-0.0184239,-0.0246944,-6.07075e-07,-5.01254e-07,9.81826e-06,0.0407786,0.0455849609005301,-6.070748157505079e-07,-5.012538744075812e-07,-0.01825521747293124,9.818308199349701e-06,-0.024391987715152275
56,0.046585,755.568,-0.507238,-0.0231846,0.0615622,-0.155359,0.028917,0.0455324,-0.0188304,-0.0252388,-3.75978e-07,-8.356e-07,9.56406e-06,0.0417176,0.04658491341581783,-3.7597792934551677e-07,-8.355996509168406e-07,-0.018654215625159787,9.564105735826445e-06,-0.024922964172134687
57,0.047585,758.597,0.350466,0.0839136,-0.0124083,0.0600426,-0.0265866,0.0464874,-0.0192323,-0.0257842,-1.3712e-06,2.12395e-06,8.85849e-06,0.0426551,0.04758487941589551,-1.3711990598519463e-06,2.1239522556282253e-06,-0.0190485392512596,8.858529236599466e-06,-0.02545462619006389
58,0.048585,760.683,-0.523499,-0.0367021,0.06671,-0.15779,0.0274791,0.0474416,-0.0196422,-0.0263263,-2.12363e-07,-1.1556e-06,9.71785e-06,0.0435934,0.048584961971340324,-2.1236297742532884e-07,-1.1555993323364433e-06,-0.019450548857522953,9.717897218486371e-06,-0.025982784067079434
59,0.049585,763.851,0.783155,0.126415,-0.0490312,0.169113,-0.0551765,0.0483948,-0.0200412,-0.0268715,-1.83815e-06,3.6002e-06,8.56905e-06,0.0445292,0.0495849496755163,-1.838148310562282e-06,3.600206480713908e-06,-0.019841710046682115,8.569086714427243e-06,-0.026513673519590997
60,0.050585,766.144,0.550124,0.025518,-0.0196996,0.119383,-0.079383,0.0493471,-0.0204464,-0.0274147,-1.55781e-06,3.44651e-06,8.06491e-06,0.0454657,0.05058494549552939,-1.5578087866341406e-06,3.446515939309336e-06,-0.020238789731994,8.064942521368579e-06,-0.027042327696661705
61,0.051585,768.287,-0.131732,0.0893275,0.0216191,-0.0692056,0.0328014,0.0502985,-0.0208546,-0.0279549,-1.00586e-06,8.61618e-07,9.66666e-06,0.0464015,0.051584947638262824,-1.0058594941408927e-06,8.616183710952185e-07,-0.020638646641677916,9.666706722200047e-06,-0.0275677774944717
62,0.052585,770.887,0.480189,0.0119491,-0.0084696,0.0981894,-0.0635529,0.051249,-0.0212557,-0.0284982,-1.4372e-06,3.3518e-06,8.31591e-06,0.047336,0.05258495430887522,-1.4371989672801178e-06,3.3518056172798794e-06,-0.021031389710622017,8.315944577175216e-06,-0.02809595642815954
63,0.053585,772.813,-0.483484,0.0550172,0.0506186,-0.158882,0.0610623,0.0521986,-0.0216648,-0.0290366,-5.77965e-07,-4.16164e-07,1.01702e-05,0.0482707,0.05358496371080523,-5.779648329928833e-07,-4.1616391344145853e-07,-0.02143180385879284,1.0170251716568046e-05,-0.028619088725367225
64,0.054585,775.67,0.802926,0.0377778,-0.035401,0.181326,-0.0914587,0.0531473,-0.0220621,-0.0295801,-1.788e-06,4.53901e-06,8.0186e-06,0.0492031,0.05458497404577667,-1.7879984015589656e-06,4.539020301397301e-06,-0.021820511781177943,8.018632149164873e-06,-0.02914689080743682
65,0.055585,777.788,0.550477,-0.0121135,-0.0128566,0.121699,-0.0935779,0.054095,-0.0224661,-0.0301203,-1.57055e-06,4.25939e-06,7.74187e-06,0.050136,0.055584877955309864,-1.5705487667050377e-06,4.259399071226966e-06,-0.022215616477895717,7.741899968438659e-06,-0.029671204027271747
66,0.056585,779.764,-0.123457,0.0866174,0.0223594,-0.0683454,0.0307279,0.0550419,-0.0228728,-0.0306577,-1.09255e-06,1.66114e-06,9.4816e-06,0.0510682,0.0565848846546988,-1.09254940316994e-06,1.6611413797829044e-06,-0.022613200532476396,9.481644950515289e-06,-0.030192518632446874
67,0.057585,782.167,0.466322,0.000132138,-0.00506907,0.0942541,-0.0663505,0.0559879,-0.0232725,-0.0311983,-1.47912e-06,4.07001e-06,8.11186e-06,0.0519991,0.057584886882059205,-1.479118906133614e-06,4.07001828239828e-06,-0.02300378397292302,8.111892901174755e-06,-0.030716654870084237
68,0.058585,783.944,-0.460676,0.0633173,0.0488701,-0.155306,0.0613721,0.056933,-0.0236801,-0.031734,-6.90357e-07,4.16148e-07,9.99827e-06,0.0529301,0.05858488283230345,-6.903567617566608e-07,4.16148086657131e-07,-0.023401926483619828,9.998319982829074e-06,-0.031235760903105203
69,0.059585,786.591,0.764271,0.0249111,-0.0303051,0.171102,-0.0916158,0.0578773,-0.0240761,-0.0322747,-1.79743e-06,5.15096e-06,7.84185e-06,0.053859,0.059584976657145905,-1.797428384575639e-06,5.150973266143666e-06,-0.02378858275773721,7.841880747427865e-06,-0.031759430140448464
70,0.060585,788.547,0.510678,-0.0182036,-0.00856867,0.11039,-0.0906576,0.0588206,-0.0244787,-0.0328122,-1.57601e-06,4.80856e-06,7.61547e-06,0.0547881,0.060584954731135676,-1.5760087580529714e-06,4.808571561154551e-06,-0.02418152636946236,7.6154989978594045e-06,-0.032279719606427726
71,0.061585,790.394,-0.0993764,0.0850622,0.021642,-0.0631606,0.0273267,0.059763,-0.0248837,-0.033347,-1.16252e-06,2.43729e-06,9.25885e-06,0.0557166,0.06158492110262115,-1.162519324249267e-06,2.437292970114413e-06,-0.024576652832772994,9.258892863295287e-06,-0.03279711804770724
72,0.062585,792.608,0.418084,-0.00328489,-0.000723879,0.0807345,-0.0621545,0.0607045,-0.0252823,-0.0338848,-1.47201e-06,4.55779e-06,7.99876e-06,0.0566438,0.06258487395978163,-1.4720089166475603e-06,4.557800386661981e-06,-0.024965379100661877,7.998791990093679e-06,-0.033317139911208216
73,0.063585,794.289,-0.396145,0.0668445,0.0447661,-0.140017,0.0551708,0.0616452,-0.0256878,-0.0344181,-8.01633e-07,1.32549e-06,9.72681e-06,0.057571,0.063584917847612,-8.016326786819405e-07,1.3254908783899566e-06,-0.02536067548767751,9.726857305603076e-06,-0.03383253443832768
74,0.064585,796.713,0.668567,0.0171745,-0.0220544,0.145502,-0.0835436,0.062585,-0.0260832,-0.0349558,-1.72846e-06,5.4484e-06,7.77811e-06,0.0584963,0.06458494479246268,-1.7284585062116165e-06,5.4484148426237056e-06,-0.025745971698509007,7.77814024965906e-06,-0.034351903039798404
75,0.065585,798.536,0.430992,-0.0220084,-0.00188737,0.0885053,-0.082277,0.0635239,-0.0264843,-0.0354905,-1.50653e-06,5.06886e-06,7.58566e-06,0.0594217,0.06558495297750899,-1.506528865213852e-06,5.068872846791805e-06,-0.026136666630154237,7.585688771127863e-06,-0.034868097060473
76,0.066585,800.298,-0.0618845,0.082678,0.0198354,-0.0540088,0.022048,0.0644619,-0.0268872,-0.0360229,-1.20435e-06,3.12044e-06,9.03547e-06,0.0603464,0.06658494058427,-1.2043492747526585e-06,3.1204448684984953e-06,-0.02652895713494008,9.03551081998799e-06,-0.035381796526666176
77,0.067585,802.327,0.339349,-0.00601921,0.00554834,0.0594272,-0.054537,0.065399,-0.0272849,-0.0365578,-1.39403e-06,4.77992e-06,7.96255e-06,0.0612699,0.06758490579261278,-1.394029028323196e-06,4.779931423781747e-06,-0.02691602959422723,7.962581701104199e-06,-0.03589763283098524
78,0.068585,803.96,-0.296925,0.0699928,0.0379511,-0.115178,0.0450396,0.0663353,-0.0276881,-0.0370888,-9.07499e-07,2.21806e-06,9.42838e-06,0.0621932,0.06858495363924755,-9.074985882762121e-07,2.218062459924397e-06,-0.02730829796447709,9.428424447399664e-06,-0.03640943529237284
79,0.069585,806.144,0.526994,0.00950637,-0.0105873,0.108035,-0.0705737,0.0672707,-0.0280831,-0.0376234,-1.57156e-06,5.42241e-06,7.81344e-06,0.0631149,0.06958497564225641,-1.571558765123271e-06,5.422424701251316e-06,-0.027692435314659924,7.813470525031008e-06,-0.036924433137076274
80,0.070585,807.497,-0.586077,0.0494525,0.0616857,-0.188848,0.0678868,0.0682052,-0.028488,-0.0381524,-5.19001e-07,1.07268e-06,9.84012e-06,0.064037,0.07058496997657304,-5.190008652844469e-07,1.0726805752536706e-06,-0.028086042956356416,9.840168414099182e-06,-0.0374337653816903
81,0.071585,809.318,-0.476346,-0.00893955,0.0608219,-0.15291,0.0289476,0.0691388,-0.0288868,-0.0386836,-3.87997e-07,1.03163e-06,9.51547e-06,0.0649576,0.07158493481549844,-3.879969247000403e-07,1.031630532111194e-06,-0.028473564965400877,9.515515272173758e-06,-0.037944944784250145
82,0.072585,811.476,0.274074,0.0644324,-0.00322447,0.038758,-0.0243968,0.0700716,-0.0292819,-0.0392155,-1.22612e-06,3.60115e-06,8.83318e-06,0.0658769,0.07258497558919874,-1.2261192483542516e-06,3.6011564841231802e-06,-0.028857339240282665,8.833219012682747e-06,-0.038456525801086716
83,0.073585,812.892,-0.406185,-0.0102327,0.0577838,-0.133802,0.0229176,0.0710034,-0.0296834,-0.0397445,-3.26472e-07,1.00537e-06,9.56668e-06,0.0667966,0.07358487605073072,-3.264719466988808e-07,1.0053705052914808e-06,-0.029247174753861405,9.56672576091222e-06,-0.038965047783014906
84,0.074585,815.127,0.588506,0.0826932,-0.0287787,0.119644,-0.0486349,0.0719345,-0.0300765,-0.040276,-1.51665e-06,4.62412e-06,8.57627e-06,0.0677142,0.0745849564439971,-1.5166488498419284e-06,4.624130691244233e-06,-0.029628702695235765,8.57630677630894e-06,-0.03947570214170115
85,0.075585,816.221,-0.679019,-0.0265602,0.0799881,-0.204475,0.0474901,0.0728646,-0.0304803,-0.0408028,4.31603e-08,-1.14837e-07,1.00001e-05,0.0686328,0.07558489286033021,4.316030088880041e-08,-1.148369933590132e-07,-0.030020459524060517,1.0000150001188146e-05,-0.039981573083707755
86,0.076585,817.989,-0.516444,-0.0330152,0.0668714,-0.159435,0.0236779,0.0737939,-0.0308774,-0.0413313,3.50731e-08,-5.6663e-08,9.8434e-06,0.0695495,0.07658489848191041,3.507310064598812e-08,-5.666299840445532e-08,-0.030405561932439817,9.843448446344993e-06,-0.04048880877349559
87,0.077585,820.066,0.267086,0.0543061,-0.00261388,0.0399042,-0.027818,0.0747224,-0.0312708,-0.0418605,-8.69183e-07,2.61172e-06,9.17166e-06,0.0704649,0.07758497177232804,-8.691826222095855e-07,2.611723410650413e-06,-0.030786925365269946,9.171702059829201e-06,-0.040996447762768895
88,0.078585,821.388,-0.413992,-0.0107339,0.0573113,-0.133914,0.0229164,0.0756499,-0.0316709,-0.0423869,1.46477e-08,3.89051e-09,9.94438e-06,0.0713807,0.0785848954765822,1.4647699941860992e-08,3.890509914228346e-09,-0.03117462995095699,9.944429445463143e-06,-0.04150113438749303
89,0.079585,823.524,0.586377,0.0776021,-0.0294116,0.121681,-0.0503902,0.0765766,-0.0320624,-0.0429158,-1.17791e-06,3.65178e-06,8.92611e-06,0.0722945,0.07958488337204805,-1.177909306315783e-06,3.651786667724366e-06,-0.03155385084599727,8.926149837940045e-06,-0.04200795039820693
90,0.080585,824.531,-0.674236,-0.0221776,0.0779737,-0.201792,0.0480332,0.0775025,-0.0324646,-0.04344,3.57722e-07,-1.06395e-06,1.03758e-05,0.0732092,0.08058493391751775,3.5772206397055584e-07,-1.063949433999234e-06,-0.03194328156741921,1.0375853828792359e-05,-0.04250999823237456
91,0.081585,826.21,-0.502859,-0.029114,0.0642632,-0.154423,0.02318,0.0784275,-0.0328602,-0.0439659,3.33564e-07,-9.53188e-07,1.02011e-05,0.0741221,0.08158493741170525,3.335640557100561e-07,-9.531875456714189e-07,-0.03232616906509067,1.0201152031319438e-05,-0.0430134098406193
92,0.082585,828.181,0.252739,0.0517631,-0.00250984,0.0382721,-0.0272708,0.0793516,-0.0332522,-0.0444926,-5.35876e-07,1.62497e-06,9.54316e-06,0.0750337,0.08258489201022945,-5.358758564666388e-07,1.624971320168811e-06,-0.03270542286821532,9.543205536033383e-06,-0.0435173219607502
93,0.083585,829.433,-0.390871,-0.00697427,0.0540035,-0.126391,0.0214628,0.0802749,-0.0336505,-0.0450164,2.95403e-07,-8.38982e-07,1.02829e-05,0.0759456,0.0835849042256207,2.9540304358199876e-07,-8.389816480436352e-07,-0.03309061958126902,1.0282952869200557e-05,-0.0440181963970403
94,0.084585,831.452,0.551784,0.0717727,-0.0274284,0.115046,-0.0488558,0.0811974,-0.0340408,-0.0455427,-8.24176e-07,2.60468e-06,9.30686e-06,0.0768556,0.08458497251034314,-8.241756603855066e-07,2.6046833920823076e-06,-0.03346793067539666,9.306903308914372e-06,-0.04452119724399306
95,0.085585,832.418,-0.625315,-0.0153512,0.0724254,-0.187801,0.0447841,0.0821189,-0.0344411,-0.0460645,6.00806e-07,-1.79987e-06,1.0682e-05,0.0777664,0.08558487819830018,6.008061805840015e-07,-1.799868380225611e-06,-0.03385475603448629,1.0682057052679994e-05,-0.04501963602928272
96,0.086585,834.68,0.903487,0.0881532,-0.0561284,0.206749,-0.0800519,0.0830397,-0.0348278,-0.046591,-1.18662e-06,3.8699e-06,8.92452e-06,0.0786744,0.0865849451142926,-1.1866192959342214e-06,3.869907488018853e-06,-0.034228292172460706,8.924559823597633e-06,-0.04552230085278686
97,0.087585,835.98,0.548627,-0.000872429,-0.0182493,0.122627,-0.08649,0.0839596,-0.0352226,-0.0471144,-7.80379e-07,3.23595e-06,8.62826e-06,0.0795831,0.08758495448909653,-7.803786955529191e-07,3.235955235769694e-06,-0.03460950358662629,8.628297223589598e-06,-0.04602174376490864
98,0.088585,837.246,-0.0691808,0.0879193,0.0164876,-0.0517647,0.024424,0.0848786,-0.0356193,-0.0476352,-3.22224e-07,8.95706e-07,1.01528e-05,0.080491,0.0885849044689111,-3.222239480793476e-07,8.95706401049523e-07,-0.03499239804441645,1.015285153993517e-05,-0.04651844628819202
99,0.089585,838.873,0.381604,-0.00583018,-0.00139985,0.0753967,-0.058795,0.0857968,-0.03601,-0.0481588,-5.73106e-07,2.76749e-06,8.98373e-06,0.0813977,0.08958490215687553,-5.731058357882901e-07,2.767493829436418e-06,-0.03536935287157994,8.983770353854226e-06,-0.047017558550722205
100,0.090585,840.06,-0.329551,0.0688799,0.0379678,-0.119181,0.0465588,0.0867142,-0.0364067,-0.0486784,-4.21719e-10,-4.56754e-08,1.05073e-05,0.0823041,0.09058494599608502,-4.2171899305998295e-10,-4.567539890754091e-08,-0.03575194595693987,1.0507355201916369e-05,-0.04751259960449572
101,0.091585,841.865,0.551302,0.00485406,-0.0158319,0.119884,-0.0746086,0.0876307,-0.0367948,-0.0492017,-7.40649e-07,3.37877e-06,8.81378e-06,0.0832089,0.09158492526959638,-7.406487256833572e-07,3.3787757081071845e-06,-0.036126098017810304,8.813818841435506e-06,-0.04801090586791745
102,0.092585,842.813,-0.600353,0.0526574,0.0602839,-0.188698,0.0684315,0.0885464,-0.0371931,-0.0497194,3.52616e-07,-1.09479e-06,1.08762e-05,0.0841141,0.09258494737590994,3.5261606212699803e-07,-1.0947894006907433e-06,-0.03650993254724888,1.0876259145975453e-05,-0.04850362307109701
103,0.093585,844.874,0.87606,0.0209311,-0.0427215,0.204678,-0.10313,0.0894612,-0.0375777,-0.0502428,-1.07637e-06,4.54551e-06,8.46339e-06,0.0850169,0.09358490139500275,-1.0763694207049923e-06,4.545520330800912e-06,-0.03688041957796839,8.463425814619896e-06,-0.049001505967461445
104,0.094585,846.1,0.52555,-0.0241829,-0.0122159,0.117577,-0.0924418,0.0903752,-0.0379703,-0.0507625,-7.45335e-07,3.84895e-06,8.36501e-06,0.0859202,0.09458489492230382,-7.453347222741158e-07,3.848957407237563e-06,-0.03725846610985206,8.365044986691217e-06,-0.049495611480371626
105,0.095585,847.291,-0.0595688,0.0807793,0.0174209,-0.0496227,0.0205416,0.0912884,-0.0383647,-0.0512799,-3.4848e-07,1.60598e-06,9.8993e-06,0.0868227,0.0955849263932198,-3.484799392383664e-07,1.605981289509728e-06,-0.037638096502783824,9.899348998310131e-06,-0.049987275246607066
106,0.096585,848.808,0.357014,-0.00978719,0.00136076,0.0682718,-0.0575715,0.0922007,-0.0387535,-0.0517999,-5.68479e-07,3.3345e-06,8.79856e-06,0.087724,0.09658488458314207,-5.684788384474615e-07,3.3345055594491413e-06,-0.03801219008235923,8.798598707393523e-06,-0.05048115344401871
107,0.097585,849.927,-0.299219,0.0690179,0.036381,-0.112226,0.0430924,0.0931122,-0.0391478,-0.052316,-5.49698e-08,7.24125e-07,1.02475e-05,0.088625,0.09758487738292243,-5.4969798490844823e-08,7.241252621970062e-07,-0.03839142710431742,1.0247552505893154e-05,-0.050971073685933344
108,0.098585,851.604,0.504793,0.00139224,-0.0116087,0.106947,-0.0706245,0.0940229,-0.0395341,-0.0528357,-7.10218e-07,3.85203e-06,8.66105e-06,0.0895245,0.0985849032234054,-7.102177478346405e-07,3.852037419038723e-06,-0.03876282475595205,8.661087506967036e-06,-0.051464155880432516
109,0.099585,852.512,-0.537513,0.0557821,0.0559718,-0.173505,0.0625384,0.0949328,-0.0399297,-0.05335,2.63594e-07,-2.13219e-07,1.05755e-05,0.0904243,0.09958496053392452,2.635940348216792e-07,-2.1321897725190553e-07,-0.039143014975894785,1.0575555920766533e-05,-0.05195186244057126
110,0.1006,854.411,0.786243,0.0146039,-0.0349476,0.180561,-0.095465,0.0958418,-0.0403128,-0.0538697,-9.91792e-07,4.8481e-06,8.35885e-06,0.0913218,0.10058493768380927,-9.917915081425477e-07,4.848111752053796e-06,-0.03951104878548006,8.358884935333322e-06,-0.05244443505158136
111,0.1016,855.562,0.457418,-0.0258689,-0.00657361,0.0986564,-0.0848717,0.09675,-0.0407033,-0.0543859,-6.71642e-07,4.14931e-06,8.2849e-06,0.0922197,0.10158494295787279,-6.716417744190295e-07,4.149318608481778e-06,-0.03988604649786076,8.284934319924275e-06,-0.05293343701194342
112,0.1026,856.708,-0.0338932,0.0769811,0.0164579,-0.0432587,0.0161884,0.0976574,-0.0410951,-0.0548999,-3.60067e-07,2.24499e-06,9.65315e-06,0.0931167,0.1025849747809342,-3.6006693515666655e-07,2.2449925198841925e-06,-0.0402621454622446,9.653196591852264e-06,-0.05342010414115239
113,0.1036,858.105,0.298872,-0.00981323,0.0058561,0.0521786,-0.0513602,0.0985639,-0.0414822,-0.0554162,-4.99295e-07,3.63653e-06,8.70418e-06,0.0940127,0.10358492121782081,-4.992948753335114e-07,3.6365366122836917e-06,-0.04063358808837758,8.704217881572163e-06,-0.053908697200232614
114,0.1046,859.197,-0.231587,0.0678258,0.0320713,-0.0950261,0.0351322,0.0994696,-0.0418736,-0.0559292,-1.07965e-07,1.50282e-06,9.94696e-06,0.0949083,0.10458489084885958,-1.0796499416709793e-07,1.5028211293177662e-06,-0.04100901062701623,9.947009471211743e-06,-0.054393917568903105
115,0.1056,860.72,0.410694,-0.000182532,-0.00423113,0.0814277,-0.0609144,0.100375,-0.0422586,-0.0564451,-5.96538e-07,4.00811e-06,8.61238e-06,0.0958025,0.10558543488697048,-5.965378220285089e-07,4.008118032583496e-06,-0.041378151093825366,8.612417086606428e-06,-0.05488162993060841
116,0.1066,861.647,-0.416585,0.057529,0.0473628,-0.142577,0.0499982,0.101279,-0.0426509,-0.0569565,1.53308e-07,7.56398e-07,1.02048e-05,0.0966968,0.10658533600732012,1.533080118409913e-07,7.563982860059326e-07,-0.04175414468918537,1.0204852069151116e-05,-0.05536483989774221
117,0.1076,863.338,0.625125,0.00980423,-0.0221113,0.137572,-0.0797766,0.102182,-0.0430334,-0.0574721,-7.98326e-07,4.74536e-06,8.39135e-06,0.0975891,0.10758503386138552,-7.983256813393069e-07,4.745371259273767e-06,-0.04212060363909975,8.391385207584534e-06,-0.05585176824537563
118,0.1086,864.014,-0.688704,0.0452679,0.069456,-0.213262,0.0741529,0.103084,-0.0434275,-0.0579816,5.11083e-07,-3.27836e-07,1.0594e-05,0.0984823,0.10858452626523674,5.110831307053587e-07,-3.278359462788316e-07,-0.04249802953254822,1.0594056116586259e-05,-0.05633268924442658
119,0.1096,865.318,-0.474415,0.00190453,0.0584186,-0.1514,0.0310496,0.103986,-0.043814,-0.0584938,4.98317e-07,6.13429e-09,1.01995e-05,0.0993737,0.109584920617954,4.983171242312068e-07,6.134289964876416e-09,-0.04286803253644744,1.0199552014977797e-05,-0.05681591187711499
120,0.1106,866.868,0.204737,0.0453562,0.00190023,0.0251736,-0.0238668,0.104887,-0.0441978,-0.0590064,-2.29622e-07,2.33723e-06,9.49159e-06,0.100264,0.1105851071477999,-2.2962197365750114e-07,2.3372327313531116e-06,-0.043235309300640457,9.491635045266733e-06,-0.05729926414691622
121,0.1116,867.826,-0.320178,0.00819426,0.0473899,-0.110576,0.018894,0.105787,-0.0445869,-0.0595165,4.42912e-07,3.01863e-07,1.01344e-05,0.101154,0.1115850836661676,4.4291209810864984e-07,3.018630456708138e-07,-0.04360751402466656,1.0134451353227547e-05,-0.05778001316681303
122,0.1126,869.389,0.438136,0.049867,-0.0161947,0.086223,-0.0442243,0.106686,-0.0449694,-0.0600286,-4.19189e-07,3.07685e-06,9.26275e-06,0.102043,0.11258484798310975,-4.191889121374359e-07,3.0768547334414365e-06,-0.043973264196372486,9.262792899367156e-06,-0.05826240049625264
123,0.1136,870.156,-0.466821,0.00785649,0.0583966,-0.149629,0.0352788,0.107584,-0.0453598,-0.060537,6.47871e-07,-3.43655e-07,1.04137e-05,0.102932,0.11358439790734454,6.47871209791262e-07,-3.4365494094856786e-07,-0.044346424188460354,1.0413754222726723e-05,-0.05874105820674036
124,0.1146,871.87,0.667251,0.0529499,-0.0340957,0.146802,-0.0669736,0.108482,-0.0457398,-0.0610489,-6.23243e-07,3.8762e-06,8.98449e-06,0.103819,0.1145848458305525,-6.232428058083883e-07,3.876207512520935e-06,-0.04470950355781944,8.984530360578447e-06,-0.05922276535558069
125,0.1156,872.392,-0.734122,0.00433557,0.0788121,-0.219828,0.0621719,0.109379,-0.046132,-0.0615553,9.77996e-07,-1.41293e-06,1.08359e-05,0.104707,0.115585076973864,9.77996478246368e-07,-1.4129290017983465e-06,-0.04508409502833499,1.0835958708543814e-05,-0.059699054340655255
126,0.1166,873.662,-0.485274,-0.00841437,0.060068,-0.151595,0.0278411,0.110275,-0.0465163,-0.062064,8.70489e-07,-9.9212e-07,1.05381e-05,0.105593,0.11658508914138155,8.70489378801409e-07,-9.921195078810285e-07,-0.045450998705558465,1.053815552598536e-05,-0.060177263788826596
127,0.1176,875.146,0.19213,0.038202,0.00268007,0.0243363,-0.025426,0.11117,-0.0468979,-0.0625733,1.33426e-07,1.32892e-06,9.84535e-06,0.106478,0.11758488013589496,1.3342600890808853e-07,1.3289208831146482e-06,-0.04581518511326654,9.845398465602173e-06,-0.06065579364040863
128,0.1186,876.053,-0.310968,0.00965898,0.0453597,-0.106489,0.0180937,0.112064,-0.0472848,-0.06308,7.6502e-07,-6.29424e-07,1.04925e-05,0.107363,0.11858444775888977,7.650202926701155e-07,-6.294238019677323e-07,-0.04618428781062511,1.049255504637081e-05,-0.0611316387842229
129,0.1196,877.537,0.419108,0.0449755,-0.0153656,0.0835203,-0.0441207,0.112958,-0.0476653,-0.0635887,-5.8493e-08,2.04977e-06,9.63248e-06,0.108246,0.11958490939490374,-5.8492998333825597e-08,2.0497721007206593e-06,-0.04654714565103113,9.632526392522323e-06,-0.06160911966201543
130,0.1206,878.264,-0.441877,0.0116988,0.0548689,-0.141609,0.0337084,0.113851,-0.0480533,-0.0640938,9.4441e-07,-1.20825e-06,1.07543e-05,0.10913,0.12058514525783637,9.444104458466995e-07,-1.2082492700793424e-06,-0.046917013599496404,1.075435782760259e-05,-0.062082981211865174
131,0.1216,879.883,0.629157,0.0467892,-0.0316814,0.139159,-0.0652398,0.114743,-0.0484315,-0.0646023,-2.45081e-07,2.78756e-06,9.37264e-06,0.110012,0.12158515314461793,-2.450809699627854e-07,2.787563885275901e-06,-0.04727740143131842,9.372683923425384e-06,-0.06255979077681284
132,0.1226,880.391,-0.682885,0.0103198,0.0730868,-0.205103,0.0585308,0.115634,-0.0488211,-0.0651055,1.23864e-06,-2.1704e-06,1.11415e-05,0.110894,0.12258493085089595,1.2386407670650357e-06,-2.1703976447184914e-06,-0.04764850985910485,1.1141562066718791e-05,-0.06303139202526875
133,0.1236,882.236,0.929369,0.048108,-0.0548983,0.218952,-0.0960708,0.116524,-0.049196,-0.0656142,-5.30699e-07,3.87914e-06,8.97352e-06,0.111774,0.12358447617104251,-5.306988591913253e-07,3.879147523866422e-06,-0.048005479514615756,8.973560262193203e-06,-0.0635079067443508
134,0.1246,883.109,0.508631,-0.0186725,-0.0143464,0.114559,-0.0867116,0.117414,-0.0495798,-0.0661192,-7.15259e-08,2.92286e-06,8.88501e-06,0.112655,0.12458491148251127,-7.152589742709381e-08,2.922864271504011e-06,-0.04837078490498947,8.885049471718531e-06,-0.06398071585709575
135,0.1256,884.015,-0.0211813,0.0787318,0.0131204,-0.0371293,0.0153859,0.118303,-0.0499647,-0.0666222,2.89177e-07,9.10542e-07,1.0255e-05,0.113534,0.12558511199207234,2.8917704186781634e-07,9.105424145783303e-07,-0.04873699650793539,1.0255052582675006e-05,-0.0644514151662191
136,0.1266,885.188,0.295801,-0.0116932,0.00392009,0.0544899,-0.0515828,0.119191,-0.0503448,-0.0671275,1.64068e-07,2.25504e-06,9.31378e-06,0.114413,0.12658507548960451,1.640680133974115e-07,2.255042542698149e-06,-0.04909850286692685,9.313823373435781e-06,-0.0649240284503334
137,0.1276,886.076,-0.217991,0.0669611,0.029393,-0.0884828,0.0325224,0.120078,-0.0507291,-0.0676294,5.39064e-07,1.98911e-07,1.05075e-05,0.115291,0.12758479976373338,5.390641453217881e-07,1.9891101987745685e-07,-0.049463864103616806,1.0507555203931318e-05,-0.06539322532564895
138,0.1286,887.369,0.380047,-0.0042269,-0.00387391,0.0766691,-0.0589755,0.120965,-0.0511073,-0.0681342,9.09152e-08,2.54102e-06,9.23809e-06,0.116168,0.12858541118668576,9.091520403181619e-08,2.5410232284972523e-06,-0.04982328889869991,9.23813267128537e-06,-0.0658648957658694
139,0.1296,888.127,-0.371619,0.0587112,0.0422553,-0.128042,0.044613,0.12185,-0.0514922,-0.0686348,7.58179e-07,-4.15548e-07,1.07098e-05,0.117045,0.12958465137414987,7.581792873523341e-07,-4.1554791363473953e-07,-0.050188941540437626,1.0709857350077456e-05,-0.06633240677128116
140,0.1306,889.557,0.547959,0.00226015,-0.0178945,0.120832,-0.0739798,0.122735,-0.0518682,-0.0691392,-6.36251e-08,3.11887e-06,9.05825e-06,0.11792,0.13058477628061005,-6.362509796797866e-08,3.1188748637056563e-06,-0.05054600336658843,9.058291026153853e-06,-0.0668032299537169
141,0.1316,890.124,-0.580511,0.0514288,0.0591529,-0.182597,0.0636277,0.123619,-0.0522543,-0.0696381,1.03539e-06,-1.25142e-06,1.10096e-05,0.118795,0.13158465510416884,1.0353905359750115e-06,-1.2514192169188476e-06,-0.0509125167947182,1.1009660605854066e-05,-0.06726868570470157
142,0.1326,891.752,0.798006,0.00778063,-0.038103,0.18691,-0.0977533,0.124503,-0.0526275,-0.0701425,-3.04159e-07,4.00798e-06,8.75476e-06,0.119669,0.13258541821140324,-3.041589536900702e-07,4.007988031906606e-06,-0.05126665015805454,8.754798322962998e-06,-0.067739036747127
143,0.1336,892.595,0.425435,-0.0289966,-0.00601859,0.0925622,-0.0810652,0.125385,-0.0530085,-0.0706432,6.97398e-08,3.10525e-06,8.77655e-06,0.120542,0.13358479921250033,6.973980237745536e-08,3.105254821278436e-06,-0.05162804871354776,8.776588513947914e-06,-0.06820570297178896
144,0.1346,893.482,-0.00117064,0.0699091,0.0131842,-0.0315901,0.00969873,0.126267,-0.0533902,-0.0711422,3.26655e-07,1.45658e-06,9.98543e-06,0.121415,0.1345850620564759,3.266550534508639e-07,1.4565810608768714e-06,-0.05198997320966947,9.985479854535129e-06,-0.06867055233644392
145,0.1356,894.56,0.239015,-0.0107521,0.00813353,0.0388386,-0.0453296,0.127148,-0.0537679,-0.071643,2.64531e-07,2.4843e-06,9.21207e-06,0.122287,0.1355850719358187,2.645310350768426e-07,2.4843030859145188e-06,-0.052347968985030136,9.212112431322694e-06,-0.06913684535431652
146,0.1366,895.432,-0.157755,0.0629191,0.0257841,-0.0727131,0.0244376,0.128028,-0.0541489,-0.0721411,5.31894e-07,8.73984e-07,1.01996e-05,0.123159,0.1365848266266687,5.318941413978706e-07,8.739843819771664e-07,-0.052708955636523,1.0199652016096294e-05,-0.06960039283556141
147,0.1376,896.601,0.297857,-0.00295363,0.00220268,0.0541991,-0.0496556,0.128908,-0.0545251,-0.0726413,2.2111e-07,2.66347e-06,9.17535e-06,0.124029,0.1375854614888652,2.2111002451197237e-07,2.663473547048767e-06,-0.05306525950245311,9.175392093663248e-06,-0.07006566234545974
148,0.1386,897.375,-0.271179,0.0563223,0.0353997,-0.101833,0.0330012,0.129786,-0.0549064,-0.0731382,7.08183e-07,4.03037e-07,1.03478e-05,0.124899,0.13858470012562263,7.081832507083163e-07,4.0303708126465665e-07,-0.053426256890479085,1.034785353870582e-05,-0.07052763193199107
149,0.1396,898.642,0.418536,0.00241547,-0.00806965,0.0859216,-0.0601041,0.130664,-0.0552809,-0.0736379,1.21232e-07,3.05773e-06,9.05617e-06,0.125768,0.13958481647916443,1.2123200732183648e-07,3.057734674793977e-06,-0.05378068238695699,9.056211007330006e-06,-0.07099197324897444
150,0.1406,899.277,-0.420456,0.0508337,0.047581,-0.140801,0.046378,0.131541,-0.0556628,-0.0741333,9.21565e-07,-2.14395e-07,1.05639e-05,0.126636,0.14058467073522318,9.215654246386151e-07,-2.1439497699393684e-07,-0.05414197455122349,1.0563955798126301e-05,-0.07145208984513585
151,0.1416,900.681,0.594895,0.00633207,-0.0224128,0.132554,-0.0767732,0.132418,-0.0560351,-0.0746328,-3.52062e-08,3.66335e-06,8.84947e-06,0.127503,0.14158540224808536,-3.52061994002284e-08,3.6633567099819686e-06,-0.05449405195082346,8.849509156583224e-06,-0.0719157837090747
152,0.1426,901.126,-0.631805,0.0467681,0.0642342,-0.196286,0.0667242,0.133293,-0.0564184,-0.0751265,1.1972e-06,-1.06789e-06,1.0877e-05,0.128371,0.14258472661570432,1.1972007165628185e-06,-1.0678894297733166e-06,-0.0548563949332419,1.0877059154701385e-05,-0.0723738657997891
153,0.1436,902.728,0.846739,0.00852682,-0.0423534,0.199476,-0.10187,0.134168,-0.0567878,-0.075626,-2.70102e-07,4.55926e-06,8.5238e-06,0.129236,0.1435849257748103,-2.7010196357313276e-07,4.5592703934449474e-06,-0.05520546650346514,8.523836327656298e-06,-0.07283709935161109
154,0.1446,903.484,0.440796,-0.0297423,-0.0071335,0.0962396,-0.0824684,0.135042,-0.0571656,-0.0761216,1.42687e-07,3.54561e-06,8.57809e-06,0.130102,0.14458485590575276,1.4268701020725416e-07,3.54561628568284e-06,-0.05556234246010705,8.57812679200265e-06,-0.07329648743940143
155,0.1456,904.295,0.00418726,0.0689212,0.0130168,-0.0305363,0.00889284,0.135915,-0.057544,-0.0766156,4.11847e-07,1.86426e-06,9.78926e-06,0.130966,0.14558451477256473,4.118470848801792e-07,1.8642617376496418e-06,-0.05591965006285826,9.789307914953582e-06,-0.07375416591871442
156,0.1466,905.299,0.235789,-0.011463,0.00847839,0.0375949,-0.0450643,0.136788,-0.0579185,-0.0771113,3.57357e-07,2.85784e-06,9.03038e-06,0.13183,0.14658504672261286,3.573570639403556e-07,2.8578440836035668e-06,-0.056273141958420814,9.030420774047698e-06,-0.07421319219960554
157,0.1476,906.107,-0.151557,0.0617981,0.0256594,-0.0714202,0.0232625,0.13766,-0.0582962,-0.0776044,6.18512e-07,1.28369e-06,9.99281e-06,0.132694,0.14758530493255284,6.185121912416491e-07,1.28369082386115e-06,-0.05662952028641921,9.992859928198428e-06,-0.07466958514160449
158,0.1486,907.199,0.285402,-0.00385674,0.00324854,0.0505445,-0.0484801,0.138531,-0.0586692,-0.0780996,3.25187e-07,2.99908e-06,9.00188e-06,0.133556,0.1485852871621911,3.251870528409029e-07,2.9990844971905517e-06,-0.05698133185841525,9.001920517004436e-06,-0.07512769532559926
159,0.1496,907.919,-0.254957,0.0556108,0.034498,-0.0979415,0.030888,0.139401,-0.059047,-0.0785915,7.85416e-07,8.46376e-07,1.01231e-05,0.134418,0.1495849911702094,7.854163084353161e-07,8.463763581101347e-07,-0.05733753701984734,1.0123151238827788e-05,-0.07558252813696742
160,0.1506,909.099,0.391972,0.000883972,-0.00589537,0.0785916,-0.0576327,0.14027,-0.0594184,-0.0790862,2.42705e-07,3.33658e-06,8.89689e-06,0.135278,0.1505844147141724,2.4270502940737515e-07,3.3365855662825794e-06,-0.057687576852177624,8.89692957750654e-06,-0.07603972436348738
161,0.1516,909.697,-0.385937,0.0510367,0.0452021,-0.132162,0.0426307,0.141139,-0.0597968,-0.0795768,9.79684e-07,2.93163e-07,1.03115e-05,0.136139,0.1515847071346672,9.796844799847548e-07,2.931630429525711e-07,-0.05804408041836817,1.0311553163777631e-05,-0.07649290809965448
162,0.1526,910.997,0.544498,0.00374866,-0.0183038,0.119004,-0.0721507,0.142007,-0.0601662,-0.0800711,1.14915e-07,3.84896e-06,8.71672e-06,0.136998,0.15258471660178285,1.1491500662152987e-07,3.848967407238391e-06,-0.05839197467503643,8.71675799074545e-06,-0.07694928485237407
163,0.1536,911.432,-0.566634,0.0483826,0.0593852,-0.179684,0.0602187,0.142874,-0.0605456,-0.0805601,1.22234e-06,-4.50097e-07,1.0581e-05,0.137857,0.1535844408689231,1.2223407470646208e-06,-4.500968987519727e-07,-0.05874915299883221,1.0581055978953202e-05,-0.07740054630966287
164,0.1546,912.898,0.757147,0.0044904,-0.0350668,0.175645,-0.0936445,0.143741,-0.0609125,-0.0810544,-7.39811e-08,4.59352e-06,8.43831e-06,0.138715,0.15458503227285214,-7.398109724832125e-08,4.593530550156544e-06,-0.0590944345888158,8.438345602712616e-06,-0.07785647452767974
165,0.1556,913.607,0.380669,-0.0292811,-0.00259832,0.0797259,-0.0752136,0.144607,-0.061287,-0.081545,3.16151e-07,3.61721e-06,8.50286e-06,0.139572,0.1555853359797903,3.161510500060416e-07,3.617216542073365e-06,-0.059446737750177836,8.502896149398254e-06,-0.07830876718481583
166,0.1566,914.387,0.0197931,0.0642071,0.0125226,-0.0262352,0.00540233,0.145472,-0.0616618,-0.0820342,5.2094e-07,2.2105e-06,9.56732e-06,0.140429,0.15658534973901062,5.209401356953691e-07,2.2105024430896236e-06,-0.05979919105899312,9.567365766960378e-06,-0.07875954826586662
167,0.1576,915.309,0.193825,-0.00975237,0.0112952,0.0260723,-0.040051,0.146336,-0.0620334,-0.0825249,5.15254e-07,2.96876e-06,8.92897e-06,0.141285,0.15758507129870836,5.152541326935989e-07,2.9687644067522e-06,-0.06014850477308786,8.929009863267723e-06,-0.07921149006254435
168,0.1586,916.091,-0.10827,0.0580589,0.0230015,-0.0598666,0.017197,0.147199,-0.0624073,-0.0830133,7.00808e-07,1.72128e-06,9.73275e-06,0.14214,0.1585844984060074,7.00808245657214e-07,1.7212814813483135e-06,-0.06049984955915222,9.732797363382062e-06,-0.07966109336873317
169,0.1596,917.081,0.226422,-0.0022915,0.00738817,0.0344752,-0.0415766,0.148062,-0.0627776,-0.0835033,5.03406e-07,3.039e-06,8.92354e-06,0.142995,0.1595847883911783,5.034061267839007e-07,3.0390046177330987e-06,-0.06084768205969837,8.923579814856808e-06,-0.0801119489643407
170,0.1606,917.797,-0.185026,0.0524724,0.0297425,-0.0794194,0.0223308,0.148924,-0.0631515,-0.0839907,8.39729e-07,1.37972e-06,9.82414e-06,0.143849,0.16058478141384436,8.397293524975424e-07,1.3797209517107945e-06,-0.06119876547224212,9.824188257123723e-06,-0.08056019315443275
171,0.1616,918.851,0.302382,0.0020095,0.000649246,0.0544314,-0.0476953,0.149785,-0.0635205,-0.0844801,4.55592e-07,3.2576e-06,8.85749e-06,0.144701,0.1615844752170661,4.5559210382073445e-07,3.2576053059507615e-06,-0.06154511922158612,8.857529227634942e-06,-0.08101005690526408
172,0.1626,919.477,-0.278057,0.0485669,0.0374781,-0.103656,0.0303521,0.150646,-0.0638946,-0.0849662,9.93608e-07,9.66229e-07,9.95633e-06,0.145554,0.16258503012730574,9.936084937045564e-07,9.662294668810745e-07,-0.06189612953191315,9.956379564357576e-06,-0.08145666935865137
173,0.1636,920.613,0.408949,0.00437185,-0.00815535,0.0826727,-0.05763,0.151506,-0.064262,-0.0854551,3.791e-07,3.59309e-06,8.73812e-06,0.146405,0.16358528330043076,3.7910007177899274e-07,3.593096455256628e-06,-0.0622407255877514,8.73815817747925e-06,-0.08190563543430196
174,0.1646,921.124,-0.402989,0.0466252,0.0473446,-0.136497,0.0423776,0.152365,-0.0646367,-0.08594,1.17706e-06,4.29844e-07,1.01438e-05,0.147257,0.16458523247546952,1.1770606926919669e-06,4.2984409232005305e-07,-0.06259203816535186,1.0143851448596308e-05,-0.0823507114742732
175,0.1656,922.373,0.554008,0.00472896,-0.0196439,0.121355,-0.0722722,0.153223,-0.0650022,-0.0864286,2.64836e-07,4.07804e-06,8.55247e-06,0.148106,0.165584875390419,2.648360351020784e-07,4.078048315259153e-06,-0.06293459816874825,8.552506572501173e-06,-0.08279896539929532
176,0.1666,922.734,-0.572182,0.04663,0.0602845,-0.181219,0.0597051,0.154081,-0.0653779,-0.0869118,1.40303e-06,-2.75539e-07,1.04044e-05,0.148956,0.1665853763670453,1.403030984281628e-06,-2.755389620912041e-07,-0.06328658751487737,1.0404454126033968e-05,-0.08324204988138251
177,0.1676,924.135,0.750759,0.00281153,-0.0348318,0.174028,-0.0930358,0.154937,-0.065741,-0.0874004,9.85172e-08,4.76346e-06,8.28082e-06,0.149804,0.16758440097074412,9.851720483844417e-08,4.7634713453703625e-06,-0.06362664641352145,8.28085428605796e-06,-0.08368986840483617
178,0.1686,924.299,-0.801091,0.0487643,0.0774376,-0.241907,0.0839918,0.155794,-0.0661181,-0.0878819,1.68726e-06,-1.20795e-06,1.07612e-05,0.150653,0.16858544969048417,1.687261423466424e-06,-1.2079492703875871e-06,-0.06397968623531691,1.0761257901892307e-05,-0.08413096553054411
179,0.1696,925.261,-0.456523,0.0151021,0.0544965,-0.146526,0.0329332,0.156649,-0.0664861,-0.0883668,1.50287e-06,-3.81561e-07,1.02485e-05,0.1515,0.16958501750431743,1.5028711293219033e-06,-3.815609271873299e-07,-0.06432407833874865,1.0248552515967901e-05,-0.08457496276952814
180,0.1706,926.349,0.121498,0.0289944,0.00837439,0.00648117,-0.0207454,0.157504,-0.0668523,-0.0888519,9.19246e-07,1.60808e-06,9.55909e-06,0.152347,0.1705854403140903,9.192464225371566e-07,1.608081293014152e-06,-0.06466666013070654,9.559135688341769e-06,-0.08501892776267328
181,0.1716,927.006,-0.22519,0.0203149,0.0368733,-0.0849304,0.0126378,0.158357,-0.0672226,-0.0893349,1.3499e-06,2.20505e-07,1.00486e-05,0.153193,0.17158437568004237,1.3499009110518045e-06,2.2050502423986984e-07,-0.06501294994694362,1.0048650487259891e-05,-0.08546075691023525
182,0.1726,928.051,0.285223,0.0261063,-0.00372107,0.0499242,-0.0364769,0.159211,-0.0675884,-0.0898193,8.09357e-07,2.09943e-06,9.37422e-06,0.154038,0.1725853360861318,8.093573276024557e-07,2.09943220386144e-06,-0.06535490566233959,9.374263938211058e-06,-0.08590365244163012
183,0.1736,928.61,-0.272242,0.0252475,0.0396872,-0.0980714,0.020217,0.160063,-0.0679592,-0.090301,1.43626e-06,-4.79142e-08,1.01754e-05,0.154883,0.1735848045055639,1.4362610314400115e-06,-4.791419883076742e-08,-0.06570140781785028,1.0175451769622867e-05,-0.08634386661815241
184,0.1746,929.707,0.3871,0.0222835,-0.0111118,0.0773979,-0.0481896,0.160915,-0.0683236,-0.0907848,7.49103e-07,2.42656e-06,9.22833e-06,0.155726,0.1745851248349517,7.491032805173603e-07,2.4265629441355685e-06,-0.0660418042008537,9.228372581215893e-06,-0.08678578654643221
185,0.1756,930.171,-0.374931,0.0297719,0.0468078,-0.125584,0.0324537,0.161766,-0.0686948,-0.0912652,1.57694e-06,-5.0034e-07,1.03613e-05,0.15657,0.17558512221472133,1.5769412433641605e-06,-5.003398748648635e-07,-0.06638842514630683,1.0361353678378649e-05,-0.0872243892937602
186,0.1766,931.356,0.510805,0.0173592,-0.0200682,0.110858,-0.0626709,0.162616,-0.0690575,-0.0917488,6.64831e-07,2.8466e-06,9.04157e-06,0.157411,0.1765847943690808,6.648312209645013e-07,2.8466040515873203e-06,-0.0667269846630264,9.04161087511568e-06,-0.08766570086135994
187,0.1776,931.698,-0.516421,0.0347201,0.056846,-0.163425,0.0488198,0.163466,-0.0694294,-0.0922276,1.75731e-06,-1.09734e-06,1.06034e-05,0.158254,0.17758531660600552,1.7573115440594478e-06,-1.097339397904129e-06,-0.06707400436511701,1.0603456216173868e-05,-0.0881024219644122
188,0.1786,933.005,0.674504,0.011237,-0.0320012,0.155086,-0.0816401,0.164315,-0.06979,-0.0927111,5.38465e-07,3.42176e-06,8.79161e-06,0.159094,0.17858551106227227,5.384651449169553e-07,3.4217658542168294e-06,-0.0674103568311486,8.791648646422345e-06,-0.0885432178723945
189,0.1796,933.189,-0.705053,0.0407776,0.0703311,-0.213826,0.0704137,0.165163,-0.0701631,-0.0931883,1.98527e-06,-1.87271e-06,1.09176e-05,0.159935,0.17958537545823972,1.9852719705948374e-06,-1.8727082464753408e-06,-0.06775824112516426,1.0917659597264873e-05,-0.0889780612869352
190,0.1806,934.66,0.891817,0.00337951,-0.0479186,0.213796,-0.106674,0.16601,-0.0705211,-0.0936718,3.56024e-07,4.20461e-06,8.4567e-06,0.160774,0.18058490751332212,3.5602406334156456e-07,4.204618839320773e-06,-0.06809192394205343,8.456735757889078e-06,-0.08941843392563864
191,0.1816,935.209,0.427353,-0.0322031,-0.00759969,0.0943295,-0.0804349,0.166857,-0.0708885,-0.094151,8.388e-07,2.94963e-06,8.60986e-06,0.161613,0.18158528653069306,8.388003518433607e-07,2.9496343501023148e-06,-0.06843424408113685,8.609897064859595e-06,-0.08985468007917508
192,0.1826,935.856,0.0300587,0.062425,0.0103977,-0.0214255,0.00384655,0.167703,-0.0712558,-0.0946289,1.07684e-06,1.42439e-06,9.71115e-06,0.162452,0.18258533064211147,1.076840579816718e-06,1.4243910144706717e-06,-0.0687763453525414,9.71119715331703e-06,-0.09028953461079858
193,0.1836,936.656,0.194708,-0.0115518,0.00978545,0.0283637,-0.040604,0.168548,-0.0716199,-0.0951084,1.07606e-06,2.15584e-06,9.0843e-06,0.163289,0.18358503756319355,1.076060578864002e-06,2.155842323769974e-06,-0.06911534216708337,9.084341262344253e-06,-0.09072563621523733
194,0.1846,937.324,-0.104062,0.0557927,0.0215672,-0.0566196,0.0156357,0.169392,-0.0719863,-0.0955856,1.25955e-06,9.28199e-07,9.86507e-06,0.164126,0.18458440500863516,1.2595507932200434e-06,9.281994308718566e-07,-0.06945635582819554,9.86511865996853e-06,-0.0911594384281953
195,0.1856,938.192,0.21336,-0.00393458,0.0069039,0.0330759,-0.0406582,0.170236,-0.0723491,-0.0960644,1.07307e-06,2.18394e-06,9.08987e-06,0.164962,0.18558461627624334,1.0730705757300285e-06,2.1839423847147543e-06,-0.06979389582884266,9.089911312987198e-06,-0.09159448713010543
196,0.1866,938.808,-0.169124,0.0503834,0.027453,-0.0731247,0.0195664,0.171079,-0.0727154,-0.0965407,1.38151e-06,6.39141e-07,9.93036e-06,0.165798,0.18658448549342643,1.3815109543013904e-06,6.391412041839573e-07,-0.07013456792689665,9.930409306191379e-06,-0.09202705765103802
197,0.1876,939.729,0.271958,-7.16038e-05,0.00153204,0.0484585,-0.045077,0.171922,-0.0730771,-0.0970188,1.03943e-06,2.34573e-06,9.03919e-06,0.166632,0.18758519795573725,1.0394305403060855e-06,2.3457327511522408e-06,-0.07047083943530907,9.039230853602476e-06,-0.09246105575926034
198,0.1886,940.275,-0.240536,0.0471841,0.0334825,-0.0917188,0.0255513,0.172763,-0.0734434,-0.097494,1.5068e-06,3.14442e-07,1.0025e-05,0.167467,0.18858437720319987,1.506801135198188e-06,3.1444204950936694e-07,-0.0708112636143291,1.0025050250384027e-05,-0.09289221581382101
199,0.1896,941.259,0.350966,0.00150913,-0.00506412,0.0694485,-0.0523946,0.173604,-0.0738038,-0.0979717,9.88911e-07,2.58596e-06,8.94846e-06,0.1683,0.18958439711385888,9.889114889194417e-07,2.585963343681996e-06,-0.07114608289686375,8.948500037631035e-06,-0.09332543771903634
200,0.1906,941.72,-0.330956,0.0462495,0.0406159,-0.115528,0.0343131,0.174445,-0.0741703,-0.0984457,1.64743e-06,-8.49915e-08,1.01578e-05,0.169133,0.19058525839500962,1.6474313571102073e-06,-8.499149639629167e-08,-0.07148644548222838,1.0157851590530953e-05,-0.09375509962364159
201,0.1916,942.783,0.453072,0.000939258,-0.0131279,0.0967888,-0.0628846,0.175284,-0.0745292,-0.0989229,9.17612e-07,2.9172e-06,8.81328e-06,0.169964,0.1915845785830017,9.176124209364644e-07,2.917204255048489e-06,-0.07181962920354956,8.813318837175288e-06,-0.0941874565215407
202,0.1926,943.141,-0.447095,0.0473993,0.0493997,-0.146331,0.0464947,0.176123,-0.0748963,-0.0993956,1.81081e-06,-5.83835e-07,1.03374e-05,0.170796,0.19258473755245098,1.8108116395243457e-06,-5.838348295927887e-07,-0.07216030168340948,1.0337453431041865e-05,-0.09461553292701352
203,0.1936,944.304,0.584578,-0.00182212,-0.0231649,0.132164,-0.0771748,0.176961,-0.0752534,-0.0998725,8.18383e-07,3.36382e-06,8.62492e-06,0.171626,0.19358454242225154,8.183833348773817e-07,3.3638256575763137e-06,-0.0724915740874702,8.624957194669491e-06,-0.09504720783829668
204,0.1946,944.533,-0.596355,0.0506667,0.0603983,-0.186079,0.0628531,0.177799,-0.0756213,-0.100344,2.00475e-06,-1.20982e-06,1.05742e-05,0.172457,0.1945851854796845,2.0047520095101135e-06,-1.2098192682108433e-06,-0.0728327416757375,1.057425590711425e-05,-0.0954737925045629
205,0.1956,945.827,0.753666,-0.00696638,-0.0358096,0.177787,-0.096151,0.178636,-0.0759762,-0.100821,6.82288e-07,3.95765e-06,8.3711e-06,0.173286,0.19558547184137587,6.822882328005875e-07,3.957657831454853e-06,-0.07316173495240663,8.371135037821276e-06,-0.09590514861892607
206,0.1966,945.894,-0.78784,0.0562351,0.0742771,-0.23718,0.0843797,0.179472,-0.0763453,-0.10129,2.2384e-06,-1.99717e-06,1.08821e-05,0.174115,0.19658539920723705,2.2384025051280787e-06,-1.9971680056407592e-06,-0.07350376782998513,1.0882159210190423e-05,-0.09632906968696286
207,0.1976,946.755,-0.419886,0.0195685,0.0498052,-0.135353,0.030391,0.180307,-0.0767052,-0.101763,2.0194e-06,-1.03601e-06,1.0318e-05,0.174943,0.19758496527633218,2.0194020389219247e-06,-1.0360094633288242e-06,-0.07383715382753431,1.031805323070678e-05,-0.09675640496424054
208,0.1986,947.699,0.0893778,0.0263068,0.00966814,6.2233e-05,-0.0181915,0.181142,-0.0770637,-0.102237,1.51274e-06,7.20354e-07,9.69715e-06,0.17577,0.19858536633165302,1.5127411441273608e-06,7.203542593536838e-07,-0.07416912369873219,9.697197017599635e-06,-0.09718444097573864
209,0.1996,948.286,-0.18093,0.0215282,0.0318373,-0.0714677,0.00843169,0.181976,-0.0774257,-0.102708,1.85162e-06,-3.75426e-07,1.00857e-05,0.176597,0.19958540348470133,1.8516217141772984e-06,-3.754259295662976e-07,-0.07450421382098182,1.0085750860922005e-05,-0.09760956697900613
210,0.2006,949.174,0.225422,0.0216242,-0.000118382,0.0363544,-0.0318246,0.182809,-0.077784,-0.10318,1.4284e-06,1.12368e-06,9.53413e-06,0.177422,0.20058507443094808,1.4284010201315311e-06,1.123680631431867e-06,-0.07483575956120347,9.53417545002111e-06,-0.09803539476013001
211,0.2016,949.689,-0.201277,0.0262757,0.0326214,-0.077469,0.0130687,0.183641,-0.0781461,-0.103651,1.90438e-06,-5.32296e-07,1.01629e-05,0.178248,0.20158437686504227,1.9043818133557266e-06,-5.32295858279852e-07,-0.07517070088787947,1.0162951642467277e-05,-0.09846012005853844
212,0.2026,950.605,0.292381,0.0175183,-0.00478224,0.0545711,-0.0400364,0.184473,-0.0785034,-0.104123,1.40125e-06,1.32727e-06,9.42959e-06,0.179072,0.20258451106472797,1.4012509816918595e-06,1.3272708807576805e-06,-0.07550108337010697,9.429634458824054e-06,-0.0988855464733388
213,0.2036,951.061,-0.262774,0.0307564,0.0366192,-0.0940731,0.0210094,0.185305,-0.0788656,-0.104592,1.9969e-06,-8.21388e-07,1.02803e-05,0.179896,0.20358547772232227,1.9969019937615684e-06,-8.213876626639305e-07,-0.07583587624306098,1.0280352842562124e-05,-0.09930807006251618
214,0.2046,952.026,0.366203,0.0128477,-0.00992191,0.0747241,-0.0492589,0.186135,-0.0792217,-0.105063,1.36555e-06,1.56526e-06,9.3089e-06,0.180719,0.20458486835857248,1.3655509323307058e-06,1.5652612250782738e-06,-0.07616491249914836,9.308943327956953e-06,-0.09973219607200079
215,0.2056,952.411,-0.344658,0.0354085,0.0421778,-0.116113,0.0310724,0.186965,-0.0795841,-0.105531,2.11038e-06,-1.18568e-06,1.04262e-05,0.181542,0.2055850888333861,2.110382226749863e-06,-1.1856792970776908e-06,-0.07649964967681855,1.0426254352990938e-05,-0.10015342282948969
216,0.2066,953.441,0.458574,0.00750708,-0.0164375,0.0998763,-0.0605843,0.187794,-0.0799388,-0.106002,1.31018e-06,1.87587e-06,9.15849e-06,0.182363,0.2065849332502785,1.3101808582494101e-06,1.8758717594824503e-06,-0.07682715716419164,9.158531939057468e-06,-0.10057715077157325
217,0.2076,953.739,-0.448497,0.0407432,0.0493407,-0.144025,0.0435963,0.188622,-0.0803016,-0.106469,2.2459e-06,-1.63326e-06,1.06055e-05,0.183185,0.20758439929685157,2.2459025219578876e-06,-1.6332586662004545e-06,-0.07716202352314194,1.0605556238552083e-05,-0.10099708318031364
218,0.2086,954.855,0.574977,0.00118305,-0.0247167,0.131532,-0.0746842,0.18945,-0.0806546,-0.106939,1.22984e-06,2.28011e-06,8.96923e-06,0.184005,0.20858469324401474,1.2298407563449132e-06,2.280112599395423e-06,-0.07748772783864444,8.969270223646575e-06,-0.10141951527190107
219,0.2096,955.043,-0.579103,0.04714,0.0584165,-0.179111,0.0592163,0.190277,-0.0810182,-0.107405,2.40779e-06,-2.18282e-06,1.08271e-05,0.184826,0.20958460619234254,2.4077928986177e-06,-2.1828176176574843e-06,-0.07782309232784346,1.0827158613224697e-05,-0.10183815622686598
220,0.2106,956.269,0.721177,-0.0065426,-0.0351615,0.171276,-0.0922861,0.191104,-0.0813692,-0.107875,1.11885e-06,2.80072e-06,8.73109e-06,0.185644,0.2105853464107077,1.1188506259252051e-06,2.8007239221139457e-06,-0.07814671962252351,8.731128116057363e-06,-0.10226019310700352
221,0.2116,956.321,-0.742647,0.0549922,0.069812,-0.223023,0.0787065,0.191929,-0.0817338,-0.108339,2.60165e-06,-2.85789e-06,1.11016e-05,0.186464,0.2115844914121392,2.6016533842820877e-06,-2.857885916252023e-06,-0.0784827660635603,1.1101661622880954e-05,-0.10267664775245233
222,0.2126,957.686,0.904084,-0.016164,-0.0482611,0.221012,-0.11426,0.192754,-0.0820825,-0.108809,9.70262e-07,3.46521e-06,8.43206e-06,0.18728,0.2125844610483123,9.70262470811889e-07,3.4652160039172486e-06,-0.07880404310512634,8.432095550015006e-06,-0.10309829063416975
223,0.2136,958.119,0.407065,-0.0370443,-0.00714219,0.091356,-0.0790648,0.193579,-0.082441,-0.109275,1.46971e-06,2.04686e-06,8.70669e-06,0.188098,0.2135852559998308,1.4697110799488655e-06,2.0468620949287697e-06,-0.07913423266565811,8.706727903318168e-06,-0.10351614946206567
224,0.2146,958.673,0.0479917,0.0548594,0.00834686,-0.0137972,-0.000793586,0.194402,-0.0827992,-0.10974,1.67314e-06,6.67956e-07,9.71635e-06,0.188915,0.21458444777653618,1.6731413996495803e-06,6.679562229994218e-07,-0.07946402771369787,9.716397203929361e-06,-0.10393291754647649
225,0.2156,959.348,0.162936,-0.0106755,0.0101583,0.0220373,-0.0369003,0.195225,-0.0831546,-0.110206,1.70479e-06,1.2027e-06,9.20397e-06,0.189731,0.2155844622265577,1.7047914531165276e-06,1.2027007232351394e-06,-0.07979112806907229,9.204012356711644e-06,-0.1043503875288393
226,0.2166,959.934,-0.0708365,0.0497915,0.0182375,-0.0450616,0.00972854,0.196048,-0.0835118,-0.110671,1.8341e-06,2.32656e-07,9.84348e-06,0.190546,0.21658530002723375,1.834101681863487e-06,2.3265602711042277e-07,-0.08011976797954368,9.843528447239791e-06,-0.10476676778272676
227,0.2176,960.665,0.164376,-0.00250317,0.00853368,0.0221029,-0.0348748,0.196869,-0.0838661,-0.111136,1.71439e-06,1.17222e-06,9.2298e-06,0.19136,0.2175845266849723,1.714391469676002e-06,1.172220686962433e-06,-0.08044562381697828,9.229842594660198e-06,-0.10518295446480497
228,0.2186,961.218,-0.114401,0.0447054,0.0224504,-0.055941,0.0116182,0.19769,-0.0842229,-0.1116,1.92767e-06,3.21163e-08,9.87199e-06,0.192174,0.21858457404464926,1.927671857915314e-06,3.21163005079228e-08,-0.08077366229285621,9.872038728264698e-06,-0.10559805326356453
229,0.2196,961.982,0.197671,0.00128627,0.00513645,0.0307559,-0.0367044,0.198511,-0.0845763,-0.112065,1.70294e-06,1.24685e-06,9.20723e-06,0.192988,0.21958544278033698,1.702941450076878e-06,1.2468507772922521e-06,-0.0810984594855575,9.207272386735355e-06,-0.10601385348775272
230,0.2206,962.493,-0.155578,0.0417333,0.0261323,-0.0665494,0.0145724,0.19933,-0.0849329,-0.112527,2.01504e-06,-1.70116e-07,9.91631e-06,0.1938,0.22058469239483647,2.0150420301234817e-06,-1.7011598552052476e-07,-0.08142608135645357,9.916359166695088e-06,-0.10642677969414294
231,0.2216,963.291,0.240977,0.00286387,0.00132034,0.0422437,-0.0403607,0.200149,-0.0852854,-0.112992,1.68582e-06,1.36046e-06,9.1598e-06,0.194612,0.22158476072999034,1.6858214209047873e-06,1.3604609254702638e-06,-0.08174982160020527,9.159841951156267e-06,-0.10684219465012268
232,0.2226,963.754,-0.203892,0.0407772,0.0300394,-0.0792069,0.0190016,0.200967,-0.0856419,-0.113453,2.10555e-06,-4.01992e-07,9.98071e-06,0.195424,0.2225844258715688,2.1055522165802643e-06,-4.0199191919665367e-07,-0.08207711944449758,9.980759807515227e-06,-0.10725384550557637
233,0.2236,964.593,0.293605,0.00266728,-0.00293858,0.0563726,-0.0456467,0.201785,-0.0859934,-0.113917,1.66226e-06,1.51209e-06,9.08961e-06,0.196234,0.22358490907377426,1.6622613816519305e-06,1.5120911431854012e-06,-0.08239971263793766,9.089651310523195e-06,-0.10766798363378582
234,0.2246,965.002,-0.262107,0.0414579,0.0344506,-0.09463,0.0250619,0.202602,-0.0863499,-0.114377,2.2029e-06,-6.73149e-07,1.00671e-05,0.197044,0.2245849864204552,2.2029024264735853e-06,-6.731487733890873e-07,-0.08272677883736823,1.00671506735317e-05,-0.10807836196706133
235,0.2256,965.888,0.357359,0.000922031,-0.00782813,0.0735999,-0.0526399,0.203418,-0.0867002,-0.114841,1.62957e-06,1.70853e-06,8.99554e-06,0.197853,0.22558465557892138,1.629571327654844e-06,1.7085314596432255e-06,-0.08304804337397276,8.995580460080532e-06,-0.10849211760837651
236,0.2266,966.233,-0.332514,0.04359,0.0395778,-0.113408,0.032904,0.204234,-0.0870568,-0.1153,2.31003e-06,-9.91946e-07,1.01776e-05,0.198662,0.226585140800329,2.310032668040307e-06,-9.919455080664719e-07,-0.08337497014719752,1.0177651792009357e-05,-0.10890122582887507
237,0.2276,967.178,0.434577,-0.00226604,-0.0135578,0.0945443,-0.0615285,0.205049,-0.0874058,-0.115763,1.58482e-06,1.95872e-06,8.87498e-06,0.19947,0.22758521516502883,1.5848212557845187e-06,1.958721918216e-06,-0.08369481646618704,8.875019382736937e-06,-0.10931370906407867
238,0.2286,967.449,-0.417646,0.0471084,0.0456306,-0.136203,0.0427517,0.205863,-0.0877627,-0.116221,2.42984e-06,-1.36782e-06,1.03153e-05,0.200278,0.22858487633707258,2.4298429519564735e-06,-1.3678190645682875e-06,-0.0840217874347502,1.031535320294985e-05,-0.10972154998262784
239,0.2296,968.463,0.52798,-0.00690111,-0.020351,0.119937,-0.0725794,0.206677,-0.0881103,-0.116683,1.52482e-06,2.27323e-06,8.72428e-06,0.201084,0.22958535156458582,1.5248211624463437e-06,2.273232583727136e-06,-0.08434012613096709,8.72431805665208e-06,-0.11013276362886926
240,0.2306,968.647,-0.520407,0.0520424,0.0528306,-0.163782,0.0549036,0.20749,-0.0884676,-0.117141,2.56536e-06,-1.8117e-06,1.04843e-05,0.201891,0.23058541092445362,2.5653632904631962e-06,-1.8116983588889468e-06,-0.08466723296278511,1.0484354960427211e-05,-0.1105402295063187
241,0.2316,969.746,0.640712,-0.01308,-0.028452,0.150631,-0.0861361,0.208302,-0.0888136,-0.117603,1.44613e-06,2.66442e-06,8.53869e-06,0.202695,0.2315850520775069,1.4461310455793353e-06,2.664423549569861e-06,-0.08498388331650975,8.538726454787593e-06,-0.11095106500997787
242,0.2326,969.827,-0.644143,0.0584992,0.0614183,-0.197031,0.0697324,0.209114,-0.0891716,-0.118058,2.71993e-06,-2.33619e-06,1.06896e-05,0.203501,0.23258550526881927,2.7199336989358613e-06,-2.336187271079204e-06,-0.0853114004572163,1.0689657133911012e-05,-0.11135549026167646
243,0.2336,971.029,0.776401,-0.0209831,-0.0381337,0.187624,-0.102622,0.209925,-0.0895158,-0.11852,1.34482e-06,3.14675e-06,8.3124e-06,0.204304,0.2335855375718794,1.34482090419219e-06,3.1467549510555415e-06,-0.08562618209615103,8.312434548018999e-06,-0.11176594920185956
244,0.2346,970.986,-0.792705,0.0666535,0.0716595,-0.236973,0.0876879,0.210735,-0.0898746,-0.118975,2.89715e-06,-2.95578e-06,1.09375e-05,0.205109,0.23458514664433316,2.89715419676817e-06,-2.9557756316966888e-06,-0.08595420057198133,1.0937559814738762e-05,-0.11217000376558861
245,0.2356,972.312,0.939235,-0.0308706,-0.0497056,0.23207,-0.122543,0.211544,-0.0902167,-0.119437,1.21645e-06,3.73707e-06,8.03841e-06,0.205911,0.23558433014319835,1.2164507399159419e-06,3.7370769827571593e-06,-0.08626684215957303,8.03844230801154e-06,-0.112580086487446
246,0.2366,972.673,0.406229,-0.0408458,-0.00710937,0.0917614,-0.0796412,0.212353,-0.0905692,-0.119893,1.73897e-06,2.16395e-06,8.41196e-06,0.206713,0.2365843223085753,1.738971511899834e-06,2.1639523413163886e-06,-0.08658887633585366,8.411995380708248e-06,-0.11298465771875665
247,0.2376,973.171,0.0590164,0.0501142,0.00761838,-0.0100508,-0.00350235,0.213162,-0.0909211,-0.120349,1.93247e-06,8.29802e-07,9.38587e-06,0.207515,0.23758512379494046,1.932471867194252e-06,8.298023443931157e-07,-0.086910249161406,9.385914047310706e-06,-0.11338904450764176
248,0.2386,973.777,0.148208,-0.0103119,0.0105876,0.0184866,-0.035057,0.21397,-0.0912705,-0.120806,1.98036e-06,1.26087e-06,8.93528e-06,0.208316,0.23858549667118312,1.9803619608627088e-06,1.260870794883573e-06,-0.08722922699167701,8.935319919745055e-06,-0.11379413314449804
249,0.2396,974.314,-0.0553094,0.0460943,0.0170685,-0.0401946,0.00676495,0.214777,-0.0916212,-0.121262,2.08699e-06,4.09478e-07,9.50412e-06,0.209116,0.23958543858929304,2.0869921777411093e-06,4.0947808388480667e-07,-0.08754927957726988,9.504165164209155e-06,-0.1141981508967358
250,0.2406,974.97,0.140989,-0.00170212,0.00957528,0.0162111,-0.0319545,0.215583,-0.0919696,-0.121718,1.99773e-06,1.19687e-06,8.97133e-06,0.209916,0.2405849472006567,1.997731995384555e-06,1.1968707163134695e-06,-0.08786712203689362,8.971370242472076e-06,-0.11460198445887715
251,0.2416,975.484,-0.0895589,0.0411341,0.020548,-0.0486304,0.00777827,0.216389,-0.0923199,-0.122173,2.16956e-06,2.43712e-07,9.5162e-06,0.210715,0.24158526174070682,2.169562353548926e-06,2.437120296683304e-07,-0.08818658622662445,9.516245279117541e-06,-0.11500474892008494
252,0.2426,976.165,0.163243,0.00212865,0.00703396,0.0219245,-0.0326407,0.217194,-0.0926675,-0.122629,1.99727e-06,1.22977e-06,8.9605e-06,0.211513,0.24258514027352196,1.997271994458316e-06,1.2297707561170768e-06,-0.0885034774903597,8.960540145430684e-06,-0.11540821475737517
253,0.2436,976.647,-0.117981,0.0381821,0.0232355,-0.0558558,0.00944242,0.217998,-0.0930175,-0.123083,2.24224e-06,8.9771e-08,9.53852e-06,0.212311,0.24358458044741393,2.2422425138834967e-06,8.977100396379001e-08,-0.08882244545058893,9.538565491906681e-06,-0.11580972827740976
254,0.2446,977.352,0.191857,0.0038153,0.00435263,0.0294961,-0.0347667,0.218802,-0.0933643,-0.123538,1.99501e-06,1.28777e-06,8.93029e-06,0.213108,0.2445848244943194,1.9950119900524754e-06,1.287770829083712e-06,-0.08913838703906873,8.930329875145304e-06,-0.1162119433401777
255,0.2456,977.802,-0.149414,0.0370683,0.0258522,-0.0640196,0.0121016,0.219605,-0.0937141,-0.123991,2.31389e-06,-7.79451e-08,9.57432e-06,0.213905,0.24558462747556176,2.3138926770194246e-06,-7.794509693237472e-08,-0.08945695071124793,9.574365833930898e-06,-0.11661220866290423
256,0.2466,978.532,0.225173,0.00395149,0.00155939,0.0384558,-0.0379723,0.220408,-0.0940601,-0.124445,1.99093e-06,1.36591e-06,8.88505e-06,0.214701,0.24658523362102547,1.9909319819433335e-06,1.3659109328045815e-06,-0.08977194410930145,8.88508947216593e-06,-0.11701317569376812
257,0.2476,978.946,-0.185585,0.0373215,0.0286129,-0.0735562,0.0157684,0.22121,-0.0944097,-0.124898,2.38737e-06,-2.65073e-07,9.62358e-06,0.215496,0.24758539598989038,2.3873728498546853e-06,-2.650729649111838e-07,-0.09009010422001307,9.62362630674285e-06,-0.117413078140436
258,0.2486,979.704,0.263826,0.0028698,-0.00145704,0.0489404,-0.0421791,0.222011,-0.0947548,-0.125352,1.98342e-06,1.46635e-06,8.82578e-06,0.216291,0.2485851122249787,1.983421966889054e-06,1.4663510750079212e-06,-0.0904040599488698,8.825818947233444e-06,-0.11781368165908057
259,0.2496,980.079,-0.227499,0.0386677,0.0316446,-0.0847078,0.0204301,0.222811,-0.0951043,-0.125803,2.46442e-06,-4.75027e-07,9.68612e-06,0.217085,0.24958437996856198,2.4644230367520947e-06,-4.750268871589469e-07,-0.09072190818270343,9.686166910549687e-06,-0.11821145798334887
260,0.2506,980.869,0.308725,0.000774375,-0.00480659,0.0611773,-0.0473958,0.223611,-0.0954483,-0.126256,1.97095e-06,1.59242e-06,8.75235e-06,0.217878,0.2505844474461909,1.9709519423205535e-06,1.592421267959665e-06,-0.09103464605229095,8.7523883018914e-06,-0.11861081773107018
261,0.2516,981.2,-0.276124,0.0409516,0.0350508,-0.0977171,0.0261191,0.224411,-0.0957978,-0.126706,2.54647e-06,-7.11275e-07,9.76241e-06,0.218671,0.25158531529790884,2.5464732422708636e-06,-7.112747469895098e-07,-0.09135227393479006,9.762457652495726e-06,-0.11900735363582116
262,0.2526,982.029,0.360863,-0.00222984,-0.00858933,0.0754235,-0.0536766,0.225209,-0.0961409,-0.127159,1.9521e-06,1.74786e-06,8.66402e-06,0.219463,0.2525844789928082,1.9521019054558053e-06,1.7478615275123843e-06,-0.09166397749379973,8.664057532747904e-06,-0.119406352924462
263,0.2536,982.31,-0.332485,0.0441007,0.038925,-0.112848,0.0329065,0.226007,-0.0964903,-0.127608,2.63482e-06,-9.77588e-07,9.85339e-06,0.220255,0.25358444033855654,2.634823471181491e-06,-9.775875221551544e-07,-0.09198129466152594,9.853438544871196e-06,-0.11980165072100257
264,0.2546,983.183,0.421306,-0.00610835,-0.0129001,0.0919633,-0.0611107,0.226805,-0.0968323,-0.128061,1.92551e-06,1.9368e-06,8.55958e-06,0.221045,0.2545851999719331,1.925511853739792e-06,1.9368018755461236e-06,-0.09229178396205495,8.559616633263545e-06,-0.12020029027455004
265,0.2556,983.408,-0.397684,0.0481012,0.0433563,-0.130388,0.0408938,0.227602,-0.0971819,-0.128509,2.7307e-06,-1.27809e-06,9.96048e-06,0.221836,0.255585502944095,2.730703728470729e-06,-1.2780891832653296e-06,-0.09260906329072371,9.9605296057792e-06,-0.12059435226802973
266,0.2566,984.332,0.491211,-0.0108784,-0.0178326,0.111109,-0.069816,0.228398,-0.0975226,-0.128961,1.88985e-06,2.16381e-06,8.4374e-06,0.222625,0.2565853468895358,1.889851785730201e-06,2.1638123410827603e-06,-0.09291815872546338,8.437435594865761e-06,-0.12099175380129212
267,0.2576,984.494,-0.472912,0.0529818,0.0484329,-0.150654,0.050208,0.229193,-0.0978724,-0.129408,2.83531e-06,-1.61725e-06,1.00854e-05,0.223414,0.2575847294422413,2.835314019566937e-06,-1.6172486922982898e-06,-0.09323540046472623,1.0085450857788558e-05,-0.1213845826835469
268,0.2586,985.477,0.571829,-0.0165963,-0.0234831,0.133205,-0.0799349,0.229988,-0.0982119,-0.12986,1.84373e-06,2.43393e-06,8.29554e-06,0.224202,0.2585849068199775,1.8437316997577113e-06,2.4339329620648442e-06,-0.09354319479522444,8.295574408068163e-06,-0.12178162711337293
269,0.2596,985.567,-0.559458,0.0588035,0.0542445,-0.173986,0.0609985,0.230782,-0.098562,-0.130306,2.94986e-06,-1.99993e-06,1.02302e-05,0.224991,0.25958462006963146,2.949864350787479e-06,-1.999928000095963e-06,-0.09386048977699923,1.0230252328602418e-05,-0.12217322517482143
270,0.2606,986.619,0.664519,-0.0233496,-0.0299521,0.158626,-0.0916321,0.231576,-0.0989,-0.130757,1.78567e-06,2.7527e-06,8.13173e-06,0.225777,0.2605851274068167,1.7856715943675994e-06,2.7527037886887484e-06,-0.0941667131767846,8.131763062690922e-06,-0.12256903578826528
271,0.2616,986.627,-0.658717,0.0656518,0.0608833,-0.200754,0.0734342,0.232369,-0.0992506,-0.131202,3.07561e-06,-2.43135e-06,1.03971e-05,0.226564,0.2615851678764902,3.0756147297861247e-06,-2.4313470442516305e-06,-0.09448424266097366,1.0397154049934798e-05,-0.12295940570359143
272,0.2626,987.758,0.770749,-0.0312518,-0.0373468,0.187782,-0.105093,0.233161,-0.0995871,-0.131653,1.71409e-06,3.12618e-06,7.94343e-06,0.227349,0.2625847391074063,1.7140914689850462e-06,3.126184886514949e-06,-0.09478889745227492,7.943461549198005e-06,-0.12335486182955968
273,0.2636,987.672,-0.772187,0.0736326,0.0684454,-0.231356,0.0877025,0.233953,-0.0999382,-0.132096,3.21383e-06,-2.91711e-06,1.05887e-05,0.228136,0.26358510231231747,3.2138351644395158e-06,-2.917105745292581e-06,-0.09510666128367462,1.058875606041454e-05,-0.12374312961810419
274,0.2646,988.895,0.892102,-0.0404396,-0.0457816,0.221118,-0.120521,0.234744,-0.100273,-0.132547,1.6273e-06,3.56099e-06,7.72784e-06,0.228919,0.26458499353308995,1.6273013241363543e-06,3.560996340246092e-06,-0.09540956886391849,7.727869859808223e-06,-0.12413823236428023
275,0.2656,989.202,0.365429,-0.0409561,-0.00481469,0.0815776,-0.0745196,0.235534,-0.100618,-0.132993,2.13838e-06,1.94961e-06,8.15673e-06,0.229704,0.2655844103956637,2.1383822863541013e-06,1.949611900586845e-06,-0.09572159873441277,8.156763266153888e-06,-0.12452877961413511
276,0.2666,989.656,0.0704217,0.0435262,0.00675785,-0.00555193,-0.0069763,0.236324,-0.100962,-0.133438,2.29091e-06,8.07769e-07,9.01248e-06,0.230487,0.2665846171095092,2.2909126240477917e-06,8.077693263164321e-07,-0.09603261700623833,9.012520612472485e-06,-0.1249182776374691
277,0.2676,990.186,0.118673,-0.00809944,0.0115181,0.0113458,-0.0310862,0.237113,-0.101304,-0.133884,2.36447e-06,1.0692e-06,8.66471e-06,0.23127,0.26758434671387477,2.3644727953353595e-06,1.069200571635065e-06,-0.0963417209914279,8.6647475388002e-06,-0.1253084770647025
278,0.2686,990.682,-0.0292153,0.0403978,0.0149983,-0.0318571,0.00201754,0.237902,-0.101647,-0.134329,2.42838e-06,4.36952e-07,9.10999e-06,0.232053,0.26858486541615645,2.4283829485050035e-06,4.369520953950712e-07,-0.09665162262995852,9.110031496062376e-06,-0.1256976281998593
279,0.2696,991.253,0.104547,0.000672826,0.0110409,0.00718923,-0.0271216,0.23869,-0.101988,-0.134775,2.38768e-06,9.78253e-07,8.70845e-06,0.232834,0.2695849042536591,2.3876828505464687e-06,9.782534784452679e-07,-0.09695961191148472,8.708487918562824e-06,-0.12608748011424298
280,0.2706,991.734,-0.0522949,0.0356272,0.0175775,-0.0373721,0.0020403,0.239477,-0.102331,-0.135219,2.4965e-06,3.14387e-07,9.10423e-06,0.233615,0.270584460847235,2.496503116233839e-06,3.143870495048162e-07,-0.09726930164977277,9.104271443627354e-06,-0.12647541114601024
281,0.2716,992.322,0.115515,0.00453366,0.0093928,0.00989468,-0.026664,0.240264,-0.102671,-0.135664,2.39751e-06,9.70278e-07,8.70918e-06,0.234396,0.2715848044014786,2.3975128740083562e-06,9.70278470679986e-07,-0.0975761779152905,8.709217925062518e-06,-0.12686404311102484
282,0.2726,992.783,-0.0677185,0.0326534,0.019245,-0.0411447,0.00239597,0.24105,-0.103013,-0.136107,2.55282e-06,2.11989e-07,9.10432e-06,0.235175,0.2725846629506723,2.5528232583393873e-06,2.1198902255825658e-07,-0.09788475409290942,9.10436144452298e-06,-0.1272507566765475
283,0.2736,993.383,0.129845,0.00642504,0.00781537,0.0136465,-0.0272877,0.241836,-0.103353,-0.136551,2.40843e-06,9.76013e-07,8.69555e-06,0.235955,0.2735853076976209,2.408432900224966e-06,9.76013476261528e-07,-0.09819142114016555,8.69558780647317e-06,-0.12763817132816602
284,0.2746,993.825,-0.08325,0.0312433,0.0206552,-0.0450627,0.00335756,0.242621,-0.103695,-0.136994,2.60548e-06,1.07248e-07,9.11257e-06,0.236733,0.2745854646744168,2.605483394368946e-06,1.0724800580952376e-07,-0.09849978694057804,9.11261151959053e-06,-0.12802454203083824
285,0.2756,994.436,0.145596,0.00705509,0.00634136,0.0178851,-0.0285531,0.243405,-0.104034,-0.137438,2.42057e-06,9.88971e-07,8.673e-06,0.237511,0.2755851314969118,2.4205729296511436e-06,9.889714889244061e-07,-0.0988053437180052,8.67303761054039e-06,-0.12841161319801864
286,0.2766,994.86,-0.1,0.0308795,0.0219836,-0.0493916,0.00485323,0.244188,-0.104375,-0.13788,2.6568e-06,-3.14127e-09,9.12783e-06,0.238289,0.27658430578055726,2.656803529399454e-06,-3.1412700218780287e-09,-0.09911259870584466,9.127871658742848e-06,-0.12879677013903068
287,0.2776,995.483,0.162837,0.00681652,0.00489569,0.022592,-0.0303045,0.244972,-0.104714,-0.138322,2.43282e-06,1.00906e-06,8.64359e-06,0.239065,0.2775855403089398,2.432822959308467e-06,1.0090605091495064e-06,-0.09941794777529178,8.643627355864325e-06,-0.12918175687829214
288,0.2786,995.888,-0.118329,0.0312452,0.0233138,-0.0542003,0.0067902,0.245754,-0.105055,-0.138763,2.70793e-06,-1.20119e-07,9.14883e-06,0.239842,0.2785850029404173,2.707933666412643e-06,-1.201189927524382e-07,-0.09972499390076073,9.148871850772622e-06,-0.12956570305715387
289,0.2796,996.523,0.181795,0.00595818,0.00341659,0.0278083,-0.0324664,0.246536,-0.105393,-0.139206,2.44434e-06,1.03689e-06,8.60834e-06,0.240617,0.27958524745735014,2.444342987351078e-06,1.0368905376534343e-06,-0.10002923543310682,8.608377051855243e-06,-0.12995122005238036
290,0.2806,996.907,-0.138479,0.0321446,0.024699,-0.0595359,0.00911374,0.247317,-0.105733,-0.139646,2.75961e-06,-2.44361e-07,9.17484e-06,0.241392,0.2805849938857774,2.7596138076901866e-06,-2.4436097012525693e-07,-0.10033517348064436,9.174882088958114e-06,-0.13033395730718633
291,0.2816,997.556,0.202684,0.0046318,0.00186015,0.0335783,-0.0349991,0.248098,-0.10607,-0.140088,2.45451e-06,1.07311e-06,8.5678e-06,0.242166,0.2815855214211478,2.4545130123954095e-06,1.0731105757333381e-06,-0.10063830944590224,8.567836703665677e-06,-0.13071826475985293
292,0.2826,997.919,-0.160649,0.0334596,0.0261759,-0.0654419,0.0117963,0.248878,-0.106411,-0.140527,2.81235e-06,-3.76494e-07,9.20549e-06,0.24294,0.28258554808755476,2.81235395460655e-06,-3.7649392914396174e-07,-0.10094493949898586,9.205532370604175e-06,-0.13109979568945684
293,0.2836,998.583,0.225692,0.00292738,0.000194936,0.0399455,-0.0378849,0.249657,-0.106747,-0.140968,2.46287e-06,1.11838e-06,8.52221e-06,0.243713,0.28358507149333567,2.462873032849089e-06,1.118380625442228e-06,-0.10124697125513771,8.522246314202064e-06,-0.13148289619968656
294,0.2846,998.923,-0.185021,0.0351213,0.0277707,-0.07196,0.0148276,0.250436,-0.107087,-0.141407,2.86651e-06,-5.17115e-07,9.24064e-06,0.244486,0.2845853738312041,2.8665141085237877e-06,-5.17114866260826e-07,-0.1015524953428728,9.240682694811042e-06,-0.13186409152975787
295,0.2856,999.604,0.250992,0.000895464,-0.00160236,0.0469522,-0.0411199,0.251214,-0.107423,-0.141847,2.46911e-06,1.17331e-06,8.47162e-06,0.245258,0.28558517012237195,2.4691130482423773e-06,1.1733106883848876e-06,-0.10185432299455255,8.471655884356721e-06,-0.1322459873062527
296,0.2866,999.92,-0.211757,0.0370925,0.029503,-0.0791302,0.0182085,0.251991,-0.107763,-0.142285,2.92236e-06,-6.66802e-07,9.2803e-06,0.24603,0.286584457972612,2.922364270130373e-06,-6.668017776823021e-07,-0.10215964061779725,9.280343062023633e-06,-0.13262598033926343
297,0.2876,1000.62,0.278745,-0.00143846,-0.00354973,0.0546394,-0.0447093,0.252768,-0.108098,-0.142725,2.47296e-06,1.23852e-06,8.41597e-06,0.2468,0.28758452257123923,2.4729630576647565e-06,1.2385207670551068e-06,-0.10246036676374837,8.416005414346728e-06,-0.13300754095842204
298,0.2886,1000.91,-0.241012,0.0393556,0.0313879,-0.0869908,0.0219464,0.253545,-0.108437,-0.143162,2.98011e-06,-8.26101e-07,9.32458e-06,0.247571,0.288585364522022,2.980114440553905e-06,-8.26100658768425e-07,-0.10276458113216669,9.324623474027405e-06,-0.1333863338907394
299,0.2896,1001.63,0.309097,-0.00406465,-0.00566167,0.0630464,-0.0486629,0.25432,-0.108772,-0.143601,2.4742e-06,1.31461e-06,8.35512e-06,0.24834,0.2895844052578076,2.474203060875979e-06,1.314610864167065e-06,-0.10306510465698648,8.3551549041605e-06,-0.13376669379505368
300,0.2906,1001.89,-0.272926,0.0419054,0.0334373,-0.0955782,0.0260525,0.255096,-0.109111,-0.144037,3.03992e-06,-9.95529e-07,9.37363e-06,0.249109,0.2905855111351312,3.039924620473755e-06,-9.955285044105366e-07,-0.10336911405400351,9.373673932611126e-06,-0.13414428919478028
301,0.2916,1002.63,0.342188,-0.0069831,-0.0079502,0.0722107,-0.0529937,0.25587,-0.109444,-0.144476,2.47266e-06,1.40214e-06,8.28891e-06,0.249877,0.2915848109999093,2.4726630569738006e-06,1.402140983097766e-06,-0.10366764243129012,8.288944353118666e-06,-0.1345243164297425
302,0.2926,1002.86,-0.30763,0.0447441,0.035661,-0.104926,0.0305397,0.256644,-0.109784,-0.144911,3.10191e-06,-1.17556e-06,9.42761e-06,0.250646,0.29258488462218835,3.101914811010076e-06,-1.175559309007923e-06,-0.10397234363072427,9.427654440008482e-06,-0.13490071647914947
303,0.2936,1003.63,0.378141,-0.0101997,-0.0104255,0.0821675,-0.0577155,0.257417,-0.110116,-0.145349,2.46817e-06,1.50167e-06,8.21713e-06,0.251413,0.29358443901600273,2.4681730459441553e-06,1.501671127446258e-06,-0.10426977543622717,8.21716376075976e-06,-0.13527954699539213
304,0.2946,1003.83,-0.34524,0.0478783,0.0380669,-0.115065,0.0354216,0.25819,-0.110455,-0.145784,3.16619e-06,-1.36662e-06,9.48672e-06,0.25218,0.2945847663640717,3.166195012394013e-06,-1.3666190661343336e-06,-0.10457337651906318,9.486764999122599e-06,-0.13565561859094688
305,0.2956,1004.62,0.417071,-0.0137236,-0.0130963,0.0929487,-0.0628426,0.258962,-0.110787,-0.146221,2.46061e-06,1.61369e-06,8.13961e-06,0.252945,0.29558457167890073,2.460613027333025e-06,1.6136913019160204e-06,-0.10487060881476762,8.139643126625629e-06,-0.13603325456615234
306,0.2966,1004.79,-0.385861,0.0513169,0.040661,-0.126022,0.0407111,0.259734,-0.111126,-0.146655,3.23283e-06,-1.56909e-06,9.55112e-06,0.253711,0.2965851491414433,3.232835225519537e-06,-1.5690887690267274e-06,-0.1051740062496086,9.551165612187162e-06,-0.13640813477878033
307,0.2976,1005.61,0.459076,-0.0175658,-0.0159701,0.104583,-0.0683882,0.260505,-0.111457,-0.147092,2.44984e-06,1.73867e-06,8.05617e-06,0.254476,0.2975852017621772,2.4498430009067818e-06,1.7386715114309226e-06,-0.10547014463993265,8.056202450923422e-06,-0.13678544197625475
308,0.2986,1005.74,-0.429581,0.0550698,0.0434481,-0.13782,0.0464201,0.261275,-0.111796,-0.147525,3.30188e-06,-1.78325e-06,9.62098e-06,0.255241,0.29858472713541806,3.301885451278963e-06,-1.783248410047733e-06,-0.1057733388665747,9.621026281880773e-06,-0.1371591329699403
309,0.2996,1006.59,0.504238,-0.0217373,-0.0190529,0.117095,-0.0743642,0.262045,-0.112125,-0.147962,2.43575e-06,1.87702e-06,7.96664e-06,0.256004,0.2995850224395813,2.435752966434279e-06,1.8770217615760032e-06,-0.10606749104740054,7.96667173386112e-06,-0.13753611205290361
310,0.3006,1006.68,-0.476469,0.0591464,0.0464311,-0.150475,0.0525586,0.262814,-0.112465,-0.148393,3.37335e-06,-2.00932e-06,9.69641e-06,0.256768,0.3005847876823047,3.3733556896731187e-06,-2.00931798133297e-06,-0.10637137643700079,9.69645701043298e-06,-0.13790775389403898
311,0.3016,1007.57,0.55262,-0.0262492,-0.0223496,0.130504,-0.0807803,0.263583,-0.112793,-0.148829,2.41825e-06,2.0291e-06,7.87088e-06,0.25753,0.30158532204018673,2.4182529239080708e-06,2.0291020585982977e-06,-0.10666443856071373,7.870910975427137e-06,-0.1382835441851047
312,0.3026,1007.62,-0.526575,0.0635557,0.0496115,-0.164,0.0591341,0.264351,-0.113132,-0.14926,3.44725e-06,-2.24743e-06,9.77752e-06,0.258292,0.3025853235189293,3.4472559418130544e-06,-2.2474274745665213e-06,-0.10696722799033365,9.777567800073328e-06,-0.138654863952403
313,0.3036,1008.54,0.604263,-0.0311113,-0.0258636,0.144824,-0.0876441,0.265118,-0.11346,-0.149696,2.39725e-06,2.19518e-06,7.76881e-06,0.259053,0.3035847897083541,2.39725287332071e-06,2.195182409403529e-06,-0.10726009470678566,7.768840177391212e-06,-0.13903032857448427
314,0.3046,1008.54,-0.579926,0.0683051,0.0529888,-0.1784,0.0661516,0.265885,-0.113799,-0.150126,3.52354e-06,-2.49761e-06,9.86437e-06,0.259815,0.30458502278240873,3.5235462076954605e-06,-2.4976068809801077e-06,-0.10756268224319476,9.86441865302723e-06,-0.13940046594795874
315,0.3056,1009.51,0.659186,-0.0363318,-0.0295969,0.160063,-0.0949601,0.266651,-0.114126,-0.150561,2.37269e-06,2.37547e-06,7.66034e-06,0.260574,0.3055847177441491,2.3726928148892767e-06,2.375472821336544e-06,-0.10785446153758671,7.660369340412032e-06,-0.13977474533360312
316,0.3066,1009.46,-0.636524,0.0734002,0.0565608,-0.193674,0.0736128,0.267417,-0.114465,-0.15099,3.60215e-06,-2.75976e-06,9.95695e-06,0.261335,0.3065851787655933,3.6021564877586343e-06,-2.7597561919057156e-06,-0.10815684761778899,9.956999570626124e-06,-0.14014370282081545
317,0.3076,1010.47,0.71738,-0.0419171,-0.03355,0.176223,-0.102729,0.268182,-0.114791,-0.151425,2.34452e-06,2.57009e-06,7.54547e-06,0.262093,0.30758509884801577,2.3445227483875897e-06,2.5700933026229222e-06,-0.10844754109985355,7.5454984671541325e-06,-0.14051765896872936
318,0.3086,1010.38,-0.696343,0.0788445,0.060323,-0.209811,0.0815158,0.268946,-0.11513,-0.151853,3.68298e-06,-3.03366e-06,1.00552e-05,0.262852,0.308584475576835,3.6829867822163465e-06,-3.033655398443358e-06,-0.10874972616015899,1.0055250553753226e-05,-0.14088543870021386
319,0.3096,1011.43,0.77881,-0.0478712,-0.0377215,0.193296,-0.11095,0.26971,-0.115455,-0.152288,2.3127e-06,2.77907e-06,7.42421e-06,0.263609,0.30958461612121546,2.3127026742564283e-06,2.779073861702841e-06,-0.10903933543510058,7.424237559616742e-06,-0.14125907226318768
320,0.3106,1011.28,-0.75933,0.0846389,0.0642692,-0.226794,0.0898552,0.270474,-0.115794,-0.152715,3.76588e-06,-3.31898e-06,1.01592e-05,0.264368,0.3105855210649353,3.7658870908341413e-06,-3.3189744922390574e-06,-0.10934131991112739,1.0159251604857644e-05,-0.14162567636378554
321,0.3116,1012.39,0.843411,-0.0541952,-0.0421083,0.21127,-0.119616,0.271236,-0.116117,-0.153149,2.27722e-06,3.00234e-06,7.29665e-06,0.265124,0.3115845678204596,2.2772225929390544e-06,3.0023445070082033e-06,-0.10962895620903323,7.296676620693887e-06,-0.14199812999196026
322,0.3126,1012.62,0.318732,-0.0408782,-0.00302129,0.0709908,-0.0684304,0.271998,-0.116451,-0.153578,2.77506e-06,1.31986e-06,7.80999e-06,0.26588,0.3125843761397309,2.7750638504908665e-06,1.3198608710407456e-06,-0.10992629048007208,7.8100204981002e-06,-0.1423661338517217
323,0.3136,1013.02,0.0829777,0.0345569,0.00516969,0.000697666,-0.0113065,0.27276,-0.116783,-0.154007,2.88253e-06,3.99269e-07,8.52303e-06,0.266636,0.3135849466032814,2.882534154480254e-06,3.99269079798259e-07,-0.11022174590331857,8.523066321153294e-06,-0.14273397987168657
324,0.3146,1013.46,0.0855402,-0.00517409,0.0116347,0.00443772,-0.0264185,0.273521,-0.117113,-0.154437,2.97969e-06,4.7013e-07,8.29846e-06,0.267391,0.31458496520646384,2.9796944391868863e-06,4.70130110619138e-07,-0.1105153242840734,8.298494432290582e-06,-0.14310252501745668
325,0.3156,1013.9,-0.00236868,0.032751,0.0121676,-0.0219031,-0.00341328,0.274281,-0.117444,-0.154865,2.99987e-06,7.92924e-08,8.60146e-06,0.268146,0.31558442952835564,2.9998744996984072e-06,7.929240308790497e-08,-0.11080969499069582,8.601496992666213e-06,-0.14346919866299168
326,0.3166,1014.37,0.0662779,0.00359232,0.0115936,-0.00112206,-0.0218303,0.275041,-0.117774,-0.155294,3.00438e-06,3.63397e-07,8.34553e-06,0.2689,0.3165846537318504,3.004384513172198e-06,3.633970659944197e-07,-0.1111030793802621,8.345564824097096e-06,-0.14383657156964247
327,0.3176,1014.8,-0.0161471,0.0283981,0.0139519,-0.0250218,-0.00408105,0.2758,-0.118105,-0.155722,3.05198e-06,-2.52498e-09,8.58113e-06,0.269653,0.317584320809698,3.0519846572207854e-06,-2.5249800028603886e-09,-0.11139725557214164,8.581166818011354e-06,-0.14420293111047633
328,0.3186,1015.28,0.0685554,0.00729706,0.0106775,-0.000723824,-0.0205753,0.276559,-0.118434,-0.156151,3.0192e-06,3.29396e-07,8.35198e-06,0.270406,0.3185847469228753,3.0192045576971083e-06,3.293960542105623e-07,-0.11168955778870715,8.352014877921476e-06,-0.14456998931341591
329,0.3196,1015.7,-0.0217512,0.0255856,0.014814,-0.0262058,-0.00462886,0.277317,-0.118764,-0.156578,3.09188e-06,-6.04994e-08,8.5637e-06,0.271158,0.3195846130624358,3.091884779760079e-06,-6.049939815788719e-08,-0.1119826518714534,8.563736668687483e-06,-0.14493517995422855
330,0.3206,1016.19,0.0725538,0.00922417,0.00993206,0.000269374,-0.020173,0.278075,-0.119093,-0.157006,3.03649e-06,3.02873e-07,8.34729e-06,0.27191,0.3205852373878464,3.0364946101979484e-06,3.0287304597642617e-07,-0.11227476152431493,8.347324838675618e-06,-0.14530106939128318
331,0.3216,1016.6,-0.026142,0.0240491,0.0153586,-0.027161,-0.00480531,0.278832,-0.119423,-0.157432,3.12722e-06,-1.15346e-07,8.55127e-06,0.272661,0.32158529888806986,3.1272248897096233e-06,-1.1534599331231021e-07,-0.11256766252168926,8.551306562187833e-06,-0.14566509359306234
332,0.3226,1017.09,0.0764569,0.0101643,0.00936683,0.00131991,-0.0201559,0.279588,-0.119751,-0.157859,3.05611e-06,2.77358e-07,8.33728e-06,0.273412,0.3225847951360068,3.056114669997001e-06,2.773580385362351e-07,-0.11285869259684067,8.337314755246794e-06,-0.14602981672416804
333,0.3236,1017.49,-0.0302101,0.0232706,0.0157456,-0.0280928,-0.00471048,0.280344,-0.12008,-0.158285,3.16016e-06,-1.69608e-07,8.54233e-06,0.274162,0.32358504728880333,3.1601649932433418e-06,-1.6960798565612833e-07,-0.11315051407971011,8.542366485730923e-06,-0.14639353054569915
334,0.3246,1017.98,0.0802133,0.010521,0.00891495,0.00237814,-0.0203548,0.281099,-0.120408,-0.158712,3.0771e-06,2.52265e-07,8.3242e-06,0.274911,0.3245847313327459,3.0771047343503e-06,2.5226503175268533e-07,-0.11344135301089986,8.324234646250872e-06,-0.14675794270062403
335,0.3256,1018.38,-0.034149,0.0229416,0.0160442,-0.0290268,-0.00444997,0.281854,-0.120737,-0.159137,3.19166e-06,-2.23613e-07,8.53545e-06,0.27566,0.32558517042313584,3.191665093327245e-06,-2.2361297502548894e-07,-0.11373298283002342,8.535486426985983e-06,-0.14712049352746848
336,0.3266,1018.87,0.083891,0.0105332,0.00852937,0.00344327,-0.0206825,0.282608,-0.121064,-0.159563,3.09881e-06,2.27591e-07,8.30922e-06,0.276408,0.32658503854454657,3.0988148012056627e-06,2.2759102580316437e-07,-0.11402274476597951,8.309254521554621e-06,-0.14748374281963317
337,0.3276,1019.26,-0.0380314,0.022879,0.0162923,-0.0299675,-0.00408959,0.283361,-0.121392,-0.159987,3.22223e-06,-2.77422e-07,8.52975e-06,0.277156,0.3275843332658157,3.2222351913357983e-06,-2.77421961514257e-07,-0.11431329765241804,8.529786378330684e-06,-0.14784513309252567
338,0.3286,1019.75,0.0875338,0.0103414,0.00818204,0.00451551,-0.0210873,0.284114,-0.121719,-0.160412,3.12083e-06,2.03342e-07,8.29303e-06,0.277903,0.3285843807393858,3.1208348698630317e-06,2.033420207769865e-07,-0.11460286985644996,8.293064387210336e-06,-0.1482072219616264
339,0.3296,1020.14,-0.0418892,0.0229745,0.0165111,-0.0309145,-0.0036692,0.284867,-0.122047,-0.160836,3.25219e-06,-3.31029e-07,8.52469e-06,0.27865,0.32958518153229255,3.2521952884057015e-06,-3.310289452551629e-07,-0.11489323249306149,8.524726335279453e-06,-0.1485683055443856
340,0.3306,1020.63,0.0911607,0.0100288,0.00785694,0.00559322,-0.021538,0.285619,-0.122373,-0.161261,3.14295e-06,1.79491e-07,8.27607e-06,0.279396,0.3305854056259281,3.142954938972764e-06,1.794910160501928e-07,-0.11518173027157574,8.276104246807137e-06,-0.1489300871304967
341,0.3316,1021.01,-0.0457327,0.0231641,0.0167127,-0.0318654,-0.00321322,0.28637,-0.122701,-0.161684,3.28169e-06,-3.84398e-07,8.51995e-06,0.280142,0.331585050585252,3.2816953847714103e-06,-3.843979261564101e-07,-0.11547190307310573,8.519986294919235e-06,-0.14929001357383087
342,0.3326,1021.5,0.094775,0.00964465,0.00754523,0.00667321,-0.0220155,0.287121,-0.123026,-0.162108,3.16503e-06,1.55993e-07,8.25859e-06,0.280887,0.3325854465599114,3.1650350087453205e-06,1.559930120631492e-07,-0.11575932799552724,8.258624102142065e-06,-0.1496506381502628
343,0.3336,1021.88,-0.0495594,0.0234096,0.0169034,-0.0328163,-0.00273703,0.287871,-0.123353,-0.16253,3.31083e-06,-4.37475e-07,8.51532e-06,0.281631,0.33358526052820303,3.310835480885288e-06,-4.374749043023485e-07,-0.11604842742493982,8.515356255456297e-06,-0.15000940987480527
344,0.3346,1022.37,0.0983696,0.00921866,0.00724231,0.00775128,-0.0225072,0.28862,-0.123679,-0.162953,3.18703e-06,1.32786e-07,8.24077e-06,0.282375,0.33458449005308166,3.1870350785112578e-06,1.327860088551347e-07,-0.11633654867128451,8.240803955228415e-06,-0.1503688798611661
345,0.3356,1022.74,-0.0533592,0.023688,0.0170865,-0.0337628,-0.00225075,0.289369,-0.124005,-0.163375,3.33966e-06,-4.90194e-07,8.51066e-06,0.283119,0.3355844682812288,3.3396655767514716e-06,-4.901938798207439e-07,-0.11662457600541132,8.510696215768832e-06,-0.15072734855165115
346,0.3366,1023.23,0.101932,0.00876887,0.00694609,0.00882254,-0.0230049,0.290118,-0.12433,-0.163798,3.2089e-06,1.09799e-07,8.22271e-06,0.283861,0.3365851957736332,3.2089051484884834e-06,1.0979900610941229e-07,-0.11691162636999863,8.222743806518551e-06,-0.1510865149141727
347,0.3376,1023.6,-0.0571171,0.0239849,0.0172632,-0.0346996,-0.00176148,0.290866,-0.124656,-0.164219,3.36818e-06,-5.42481e-07,8.50589e-06,0.284604,0.3375853355056999,3.368185672369961e-06,-5.424808529053138e-07,-0.11719946625935085,8.505926175184086e-06,-0.1514438322708127
348,0.3386,1024.09,0.105445,0.00830668,0.00665595,0.00988165,-0.0235024,0.291613,-0.12498,-0.164641,3.23065e-06,8.69527e-08,8.20451e-06,0.285345,0.3385848850365927,3.23065521845578e-06,8.695270370395747e-08,-0.11748544730085231,8.20454365713097e-06,-0.15180184742708336
349,0.3396,1024.45,-0.0608152,0.0242912,0.0174337,-0.0356212,-0.00127457,0.29236,-0.125306,-0.165062,3.3964e-06,-5.94255e-07,8.50094e-06,0.286086,0.33958518150993333,3.3964057677415838e-06,-5.942548234605383e-07,-0.11777310015506948,8.500976133030136e-06,-0.15215886369211962
350,0.3406,1024.94,0.108891,0.00783967,0.00637211,0.010923,-0.0239949,0.293106,-0.12563,-0.165483,3.25227e-06,6.41653e-08,8.18623e-06,0.286827,0.3405848848983408,3.2522752886343653e-06,6.416530196062808e-08,-0.11805889536929437,8.18626350729268e-06,-0.15251572968494276
351,0.3416,1025.3,-0.0644339,0.0246005,0.0175974,-0.0365219,-0.000794407,0.293852,-0.125955,-0.165903,3.42432e-06,-6.45432e-07,8.49574e-06,0.287567,0.34158533434372096,3.4243258630883844e-06,-6.454317916793073e-07,-0.11834547965583031,8.495776088857099e-06,-0.1528715983408261
352,0.3426,1025.79,0.112248,0.0073732,0.00609532,0.0119407,-0.0244784,0.294597,-0.126278,-0.166323,3.27378e-06,4.13514e-08,8.16793e-06,0.288306,0.34258518781698055,3.273785358803849e-06,4.1351400748013134e-08,-0.11863020807978553,8.167963357674779e-06,-0.15322731756325714
353,0.3436,1026.14,-0.0679525,0.0249081,0.0177534,-0.0373958,-0.00032478,0.295341,-0.126603,-0.166743,3.45192e-06,-6.95928e-07,8.49024e-06,0.289045,0.34358444287350376,3.451925957964619e-06,-6.959277578655332e-07,-0.11891660671985971,8.490276042216749e-06,-0.15358288741498483
354,0.3446,1026.63,0.115496,0.00691138,0.00582658,0.0129289,-0.0249492,0.296085,-0.126926,-0.167163,3.29518e-06,1.84243e-08,8.14966e-06,0.289784,0.3445844416524195,3.295185429186276e-06,1.8424300085584377e-08,-0.11920115069956261,8.14969320850345e-06,-0.15393830795873176
355,0.3456,1026.97,-0.07135,0.0252104,0.0179007,-0.038237,0.000130845,0.296829,-0.12725,-0.167581,3.47919e-06,-7.45655e-07,8.48441e-06,0.290522,0.34558518470726307,3.47919605236946e-06,-7.456547219675258e-07,-0.11948648330035849,8.484445992662515e-06,-0.154291887842661
356,0.3466,1027.47,0.118613,0.00645761,0.00556704,0.0138816,-0.025404,0.297572,-0.127573,-0.168001,3.3165e-06,-4.70278e-09,8.13146e-06,0.291259,0.34658532600598235,3.3165054995620835e-06,-4.702780054266498e-09,-0.11977084323965004,8.131493060448136e-06,-0.1546470106687533
357,0.3476,1027.81,-0.0746052,0.0255041,0.018038,-0.0390397,0.000569226,0.298314,-0.127897,-0.168419,3.50611e-06,-7.94529e-07,8.47821e-06,0.291996,0.3475848631002818,3.5061161463012525e-06,-7.945286844002197e-07,-0.1200559912899618,8.478245940191087e-06,-0.1550002943768548
358,0.3486,1028.3,0.12158,0.00601487,0.00531794,0.0147931,-0.0258397,0.299056,-0.128218,-0.168837,3.33776e-06,-2.81159e-08,8.11339e-06,0.292732,0.34858514212632774,3.337765570377016e-06,-2.8115899608494033e-08,-0.1203384079864529,8.113422913735846e-06,-0.15535343044322558
359,0.3496,1028.64,-0.0776973,0.0257866,0.0181642,-0.039798,0.000987286,0.299797,-0.128542,-0.169255,3.53266e-06,-8.42465e-07,8.47158e-06,0.293468,0.34958481404934894,3.532666239758342e-06,-8.42464645156582e-07,-0.12062337217557373,8.471615883909323e-06,-0.15570641892956705
360,0.3506,1029.13,0.124374,0.00558586,0.00508049,0.0156576,-0.0262533,0.300538,-0.128863,-0.169673,3.35897e-06,-5.1899e-08,8.09548e-06,0.294203,0.3505852270037837,3.358975641409856e-06,-5.189899865420955e-08,-0.12090560677202922,8.095512768591107e-06,-0.15605925989755476
361,0.3516,1029.46,-0.0806061,0.026055,0.0182779,-0.0405064,0.00138209,0.301278,-0.129186,-0.170089,3.55882e-06,-8.8938e-07,8.4645e-06,0.294937,0.35158502995323326,3.558826332517029e-06,-8.893796045184033e-07,-0.12118950840845932,8.464535824037611e-06,-0.15641026623105803
362,0.3526,1029.95,0.126977,0.00517314,0.0048559,0.0164697,-0.0266418,0.302018,-0.129507,-0.170507,3.38015e-06,-7.61331e-08,8.07778e-06,0.295671,0.3525855730306793,3.3801557126622583e-06,-7.61330970489027e-08,-0.12147156130434844,8.077812625462144e-06,-0.15676281305235462
363,0.3536,1030.28,-0.0833125,0.0263071,0.0183782,-0.0411596,0.00175087,0.302757,-0.12983,-0.170923,3.58459e-06,-9.35199e-07,8.45693e-06,0.296405,0.35358550319783877,3.584596424577313e-06,-9.351985627015225e-07,-0.12175528016698411,8.45696575990651e-06,-0.157113526768614
364,0.3546,1030.77,0.129369,0.00477911,0.00464531,0.0172242,-0.0270027,0.303495,-0.13015,-0.17134,3.40131e-06,-1.00895e-07,8.06033e-06,0.297138,0.3545848180010054,3.401315784357095e-06,-1.0089499491439113e-07,-0.1220362735159971,8.060362484574313e-06,-0.15746493715379406
365,0.3556,1031.09,-0.0857982,0.0265404,0.0184637,-0.0417526,0.00209099,0.304233,-0.130473,-0.171755,3.60993e-06,-9.79845e-07,8.44884e-06,0.29787,0.35558487057069876,3.6099365157138408e-06,-9.798445199660222e-07,-0.1223198100060432,8.448875691513535e-06,-0.15781451666211
366,0.3566,1031.58,0.131533,0.00440603,0.00444979,0.0179161,-0.0273333,0.30497,-0.130792,-0.172171,3.42248e-06,-1.26258e-07,8.04315e-06,0.298602,0.3565843048666091,3.422485856718893e-06,-1.2625799206134047e-07,-0.1225997453345925,8.043182346151312e-06,-0.158164792960657
367,0.3576,1031.9,-0.0880465,0.0267527,0.0185337,-0.0422807,0.00240004,0.305707,-0.131114,-0.172586,3.63485e-06,-1.02325e-06,8.4402e-06,0.299334,0.35758447601709276,3.6348566061494836e-06,-1.0232494764839117e-06,-0.12288222273529248,8.440235618634162e-06,-0.15851408208907125
368,0.3586,1032.39,0.133453,0.00405604,0.00427032,0.0185412,-0.0276314,0.306444,-0.131434,-0.173002,3.44367e-06,-1.52288e-07,8.02629e-06,0.300064,0.35858538456541234,3.443675929526435e-06,-1.522879884419126e-07,-0.12316285552037687,8.026322210641368e-06,-0.15886406742892423
369,0.3596,1032.71,-0.0900422,0.026942,0.0185871,-0.0427398,0.00267579,0.307179,-0.131755,-0.173416,3.65932e-06,-1.06536e-06,8.43097e-06,0.300795,0.35958431188388684,3.6593266952156256e-06,-1.0653594324505633e-06,-0.12344427507350009,8.43100554082099e-06,-0.159212225631288
370,0.3606,1033.2,0.135115,0.00373111,0.00410776,0.0190952,-0.0278948,0.307915,-0.132074,-0.173831,3.46488e-06,-1.79045e-07,8.00978e-06,0.301525,0.3605853342684835,3.4648860027797213e-06,-1.7904498395004964e-07,-0.12372385175490008,8.009812078269007e-06,-0.15956108016532844
371,0.3616,1033.51,-0.0917717,0.0271064,0.0186232,-0.0431261,0.00291626,0.308649,-0.132395,-0.174244,3.68334e-06,-1.10611e-06,8.42114e-06,0.302254,0.36158437050528236,3.6833467835784006e-06,-1.106109388304688e-06,-0.12400509125713177,8.421175457851149e-06,-0.15990810977267356
372,0.3626,1034.0,0.136506,0.00343305,0.00396286,0.0195749,-0.0281216,0.309384,-0.132714,-0.174659,3.48614e-06,-2.06583e-07,7.99363e-06,0.302983,0.3625855028886851,3.486146076703278e-06,-2.0658297861242403e-07,-0.12428448906670075,7.993661949035058e-06,-0.16025667557471124
373,0.3636,1034.31,-0.0932236,0.0272442,0.0186413,-0.0434364,0.0031197,0.310117,-0.133034,-0.175072,3.70689e-06,-1.14545e-06,8.41068e-06,0.303711,0.3635846442028583,3.70689687057002e-06,-1.1454493439311264e-06,-0.12456467319834752,8.4107153699442e-06,-0.16060341796046762
374,0.3646,1034.79,0.137615,0.00316349,0.00383624,0.0199771,-0.0283104,0.31085,-0.133352,-0.175485,3.50744e-06,-2.34947e-07,7.97788e-06,0.304438,0.3645845181560945,3.507446151074234e-06,-2.3494697243275908e-07,-0.12484301737320103,7.977911823386918e-06,-0.1609500171711864
375,0.3656,1035.1,-0.0943882,0.0273538,0.018641,-0.0436682,0.00328467,0.311583,-0.133672,-0.175898,3.72998e-06,-1.18335e-06,8.39957e-06,0.305166,0.3655851252856146,3.729986956413356e-06,-1.183349299882508e-06,-0.12512302280438325,8.399605276432354e-06,-0.1612964732659865
376,0.3666,1035.58,0.138434,0.00292384,0.00372839,0.0202995,-0.0284596,0.312315,-0.13399,-0.176311,3.52881e-06,-2.64175e-07,7.96255e-06,0.305892,0.36658509954325114,3.52881622633916e-06,-2.6417496512554095e-07,-0.12540118945229028,7.962581701104199e-06,-0.16164278630396278
377,0.3676,1035.89,-0.0952584,0.027434,0.0186217,-0.0438193,0.00340998,0.313046,-0.134309,-0.176722,3.75258e-06,-1.21978e-06,8.38781e-06,0.306618,0.3675844384648925,3.7525870408838813e-06,-1.219779256045328e-06,-0.12568014197756172,8.3878451777597e-06,-0.1619872803204222
378,0.3686,1036.37,0.138957,0.00271531,0.00363964,0.0205404,-0.0285684,0.313777,-0.134626,-0.177135,3.55024e-06,-2.94294e-07,7.94765e-06,0.307344,0.3685845081703545,3.5502463020531394e-06,-2.942939566485947e-07,-0.12595725744743225,7.947681582631816e-06,-0.16233330811399194
379,0.3696,1036.67,-0.0958289,0.0274835,0.0185833,-0.0438884,0.00349478,0.314508,-0.134946,-0.177546,3.77471e-06,-1.25471e-06,8.37538e-06,0.308069,0.36958530919403554,3.7747171242052957e-06,-1.2547092128611936e-06,-0.12623690637883367,8.375415073702541e-06,-0.16267751838430122
380,0.3706,1037.15,0.13918,0.00253885,0.00357018,0.0206986,-0.028636,0.315238,-0.135262,-0.177958,3.57173e-06,-3.25324e-07,7.93319e-06,0.308793,0.37058547148456755,3.571736378660262e-06,-3.2532394711459744e-07,-0.12651297189576904,7.933221467748552e-06,-0.1630224241912519
381,0.3716,1037.45,-0.096097,0.0275017,0.0185257,-0.0438747,0.0035385,0.315967,-0.135581,-0.178368,3.79636e-06,-1.28814e-06,8.36228e-06,0.309517,0.37158499257445143,3.796367206154727e-06,-1.2881391703301048e-06,-0.12679156981900308,8.36231496403883e-06,-0.16336551465898141
382,0.3726,1037.93,0.1391,0.00239518,0.00352006,0.0207735,-0.028662,0.316696,-0.135897,-0.178779,3.5933e-06,-3.57275e-07,7.91918e-06,0.310241,0.3725852425808678,3.5933064559401373e-06,-3.572749361913097e-07,-0.1270674600899816,7.919211356899325e-06,-0.16370930077956936
383,0.3736,1038.23,-0.0960622,0.0274879,0.0184489,-0.043778,0.00354092,0.317424,-0.136216,-0.179189,3.81753e-06,-1.32006e-06,8.34851e-06,0.310964,0.3735848484498552,3.8175372867321755e-06,-1.3200591286732788e-06,-0.12734588115969125,8.348544848990613e-06,-0.1640521096856219
384,0.3746,1038.71,0.138719,0.00228478,0.00348918,0.0207653,-0.0286464,0.318152,-0.136531,-0.1796,3.61494e-06,-3.90149e-07,7.90561e-06,0.311686,0.3745851822968669,3.6149465338919384e-06,-3.9014892394551026e-07,-0.1276207239171191,7.905641249417172e-06,-0.1643956136736361
385,0.3756,1039.0,-0.0957264,0.0274416,0.0183532,-0.0435989,0.00350212,0.318879,-0.136849,-0.180009,3.83822e-06,-1.35047e-06,8.33406e-06,0.312408,0.3755848690665071,3.838227365937641e-06,-1.3504690881127601e-06,-0.12789809642234762,8.334094728335018e-06,-0.16473730598680236
386,0.3766,1039.48,0.13804,0.00220784,0.00347729,0.0206748,-0.0285893,0.319606,-0.137165,-0.180419,3.63664e-06,-4.23937e-07,7.8925e-06,0.313129,0.3765852828726748,3.6366466125148378e-06,-4.2393691013220547e-07,-0.12817363708616047,7.892531145969883e-06,-0.16507969349711182
387,0.3776,1039.77,-0.0950936,0.027363,0.0182389,-0.0433384,0.0034225,0.320332,-0.137482,-0.180828,3.85844e-06,-1.3794e-06,8.31896e-06,0.31385,0.3775850466583819,3.858447443771951e-06,-1.379399048651031e-06,-0.1284499622433528,8.31899460274066e-06,-0.1654211060788392
388,0.3786,1040.24,0.137068,0.00216433,0.00348399,0.0205033,-0.0284914,0.321058,-0.137797,-0.181237,3.6584e-06,-4.58623e-07,7.87984e-06,0.31457,0.378585536536137,3.65840669203088e-06,-4.586228948832982e-07,-0.1287244572700097,7.879871046112541e-06,-0.1657623790513728
389,0.3796,1040.53,-0.0941703,0.027252,0.0181065,-0.0429983,0.00330277,0.321783,-0.138114,-0.181645,3.8782e-06,-1.40686e-06,8.3032e-06,0.31529,0.379585373447211,3.878207520235932e-06,-1.4068590103999412e-06,-0.12900060784487644,8.303234471762622e-06,-0.16610267857489636
390,0.3806,1041.0,0.135811,0.00215392,0.00350877,0.0202529,-0.0283535,0.322507,-0.138428,-0.182054,3.68022e-06,-4.94179e-07,7.8676e-06,0.316009,0.38058455491763343,3.680226771995976e-06,-4.941788779300182e-07,-0.129274058719979,7.867630949620619e-06,-0.16644367284127826
391,0.3816,1041.29,-0.0929649,0.0271092,0.0179566,-0.0425808,0.00314395,0.323231,-0.138745,-0.182461,3.89751e-06,-1.4329e-06,8.28681e-06,0.316728,0.38158446005737723,3.897517595330413e-06,-1.4328989733636277e-06,-0.1295500350987977,8.286844335625432e-06,-0.16678286123691122
392,0.3826,1041.76,0.134277,0.00217606,0.00355095,0.0199261,-0.0281767,0.323955,-0.139059,-0.182869,3.70209e-06,-5.30571e-07,7.85579e-06,0.317446,0.38258508939056846,3.702096852853387e-06,-5.305708592473479e-07,-0.12982331348082532,7.855820856716988e-06,-0.1671227444886283
393,0.3836,1042.05,-0.091488,0.0269352,0.0177899,-0.042089,0.00294733,0.324678,-0.139375,-0.183276,3.91637e-06,-1.45755e-06,8.26981e-06,0.318164,0.3835850598559618,3.916377669055393e-06,-1.4575489377666173e-06,-0.1300982458721598,8.269844194996878e-06,-0.1674616565583369
394,0.3846,1042.51,0.132478,0.00222995,0.00360977,0.019526,-0.0279626,0.3254,-0.139689,-0.183684,3.72399e-06,-5.67758e-07,7.84438e-06,0.318881,0.38458436897635995,3.7239969341573698e-06,-5.677578388540994e-07,-0.13037135214302742,7.844410767177123e-06,-0.16780126291805264
395,0.3856,1042.8,-0.0897519,0.0267308,0.0176074,-0.0415262,0.00271449,0.326122,-0.140004,-0.18409,3.93481e-06,-1.48087e-06,8.25221e-06,0.319598,0.3855843998584676,3.9348177414133545e-06,-1.4808689035028522e-06,-0.13064524202718086,8.252244049655744e-06,-0.16813906702643377
396,0.3866,1043.26,0.130429,0.00231456,0.00368432,0.0190562,-0.0277127,0.326844,-0.140318,-0.184497,3.74593e-06,-6.05689e-07,7.83335e-06,0.320314,0.38658515302358487,3.7459370159087513e-06,-6.056888165462126e-07,-0.1309181765682189,7.833380680777324e-06,-0.1684775655370344
397,0.3876,1043.55,-0.0877708,0.0264973,0.01741,-0.0408962,0.00244723,0.327565,-0.140633,-0.184902,3.95283e-06,-1.50291e-06,8.23405e-06,0.32103,0.38758524140745343,3.952837812404297e-06,-1.5029088705764693e-06,-0.13119189422980493,8.234083899827382e-06,-0.16881426393696375
398,0.3886,1044.01,0.128143,0.00242862,0.00377363,0.0185208,-0.0274291,0.328285,-0.140946,-0.185309,3.76787e-06,-6.44309e-07,7.82267e-06,0.321745,0.3885846625296958,3.7678770983262666e-06,-6.443087924301594e-07,-0.13146378861322017,7.82270059707102e-06,-0.16915248769833702
399,0.3896,1044.3,-0.0855603,0.026236,0.0171986,-0.0402033,0.00214761,0.329005,-0.14126,-0.185714,3.97045e-06,-1.52374e-06,8.21536e-06,0.32246,0.3895848034942584,3.970457882251921e-06,-1.5237388391042828e-06,-0.13173646617097867,8.21539374618041e-06,-0.16948891281013556
400,0.3906,1044.75,0.125637,0.00257069,0.00387661,0.0179243,-0.0271139,0.329724,-0.141573,-0.186119,3.78982e-06,-6.83554e-07,7.81233e-06,0.323174,0.3905842742346446,3.789827181410743e-06,-6.835537663674174e-07,-0.13200819013004916,7.812360516279426e-06,-0.16982520169735116
401,0.3916,1045.04,-0.0831374,0.0259483,0.0169746,-0.0394523,0.00181785,0.330443,-0.141887,-0.186524,3.98769e-06,-1.54342e-06,8.19617e-06,0.323887,0.3915844638528987,3.987697950735836e-06,-1.5434188089802348e-06,-0.1322806967725665,8.19620358871731e-06,-0.17016135441514357
402,0.3926,1045.49,0.122928,0.00273914,0.00399212,0.0172714,-0.0267695,0.331162,-0.142199,-0.186929,3.81174e-06,-7.23357e-07,7.80228e-06,0.3246,0.39258537286608,3.811747264714782e-06,-7.23356738396852e-07,-0.1325513829659315,7.802310437954318e-06,-0.17049737101865037
403,0.3936,1045.78,-0.0805203,0.025636,0.016739,-0.0386481,0.00146037,0.331879,-0.142513,-0.187333,4.00456e-06,-1.56203e-06,8.1765e-06,0.325313,0.3935842146204027,4.004568018300958e-06,-1.5620287799888999e-06,-0.13282371907267376,8.17653342766178e-06,-0.1708324223958234
404,0.3946,1046.22,0.120036,0.00293216,0.00411894,0.0165672,-0.0263982,0.332597,-0.142824,-0.187737,3.83364e-06,-7.63646e-07,7.79249e-06,0.326025,0.3945851673855416,3.8336473484612554e-06,-7.636457084458925e-07,-0.1330933689633108,7.79252036142708e-06,-0.17116733843957932
405,0.3956,1046.51,-0.077728,0.025301,0.0164931,-0.0377959,0.00107772,0.333314,-0.143138,-0.18814,4.02109e-06,-1.57965e-06,8.15641e-06,0.326737,0.3955854435066939,4.021098084505681e-06,-1.579648752358942e-06,-0.13336553491316605,8.15644326368492e-06,-0.17150129070628672
406,0.3966,1046.95,0.116979,0.00314783,0.00425582,0.0158172,-0.0260028,0.33403,-0.143449,-0.188544,3.85549e-06,-8.04346e-07,7.78294e-06,0.327448,0.3965850404972633,3.855497432425636e-06,-8.043456765083334e-07,-0.1336350163252764,7.782970287140145e-06,-0.17183593658182295
407,0.3976,1047.24,-0.0747803,0.0249452,0.0162381,-0.0369011,0.000672564,0.334746,-0.143762,-0.188947,4.0373e-06,-1.59635e-06,8.13592e-06,0.328158,0.39758535345556356,4.037308149795749e-06,-1.5963487258741083e-06,-0.13390614613113838,8.135953096788384e-06,-0.17216961945776488
408,0.3986,1047.68,0.113778,0.00338408,0.00440146,0.0150268,-0.025586,0.335461,-0.144072,-0.18935,3.87727e-06,-8.45378e-07,7.77359e-06,0.328868,0.39858498430872813,3.87727751660627e-06,-8.453776426664561e-07,-0.13417459361432804,7.77362021442407e-06,-0.1725031678866007
409,0.3996,1047.97,-0.0716975,0.0245707,0.0159755,-0.0359694,0.000247659,0.336176,-0.144385,-0.189752,4.0532e-06,-1.61222e-06,8.11508e-06,0.329578,0.3995853301535315,4.053208214171988e-06,-1.6122187003198007e-06,-0.13444555455892682,8.115112927420398e-06,-0.17283575475867008
410,0.4006,1048.4,0.110453,0.0036388,0.00455456,0.0142016,-0.0251505,0.33689,-0.144695,-0.190155,3.89897e-06,-8.86663e-07,7.76439e-06,0.330287,0.40058499091568467,3.898977601002329e-06,-8.866626068915195e-07,-0.13471383485141974,7.764420143052675e-06,-0.17316903478906553
411,0.4016,1048.69,-0.0685002,0.0241796,0.0157064,-0.0350063,-0.000194199,0.337604,-0.145007,-0.190557,4.06881e-06,-1.62735e-06,8.09392e-06,0.330996,0.4015853656904942,4.068818277636055e-06,-1.6273486758144884e-06,-0.13498376202411744,8.093952755805489e-06,-0.1735013540364363
412,0.4026,1049.12,0.107025,0.00390976,0.0047138,0.0133473,-0.0246991,0.338317,-0.145317,-0.190959,3.92057e-06,-9.2812e-07,7.75532e-06,0.331704,0.4025850524021932,3.920577685390114e-06,-9.281195693100486e-07,-0.13525187549815443,7.755350072580214e-06,-0.17383353971831805
413,0.4036,1049.41,-0.0652088,0.0237742,0.0154323,-0.0340176,-0.000650183,0.33903,-0.145629,-0.19136,4.08415e-06,-1.64182e-06,8.07249e-06,0.332411,0.40358545214468333,4.084158340189603e-06,-1.6418186522537681e-06,-0.13552163482835522,8.072522582613928e-06,-0.17416476605357234
414,0.4046,1049.84,0.103515,0.00419472,0.00487788,0.0124695,-0.0242348,0.339742,-0.145938,-0.191761,3.94205e-06,-9.69668e-07,7.74634e-06,0.333118,0.404585160840673,3.942057769990015e-06,-9.696675298265234e-07,-0.13578871737681442,7.746370003003378e-06,-0.1744958595936933
415,0.4056,1050.13,-0.061844,0.0233568,0.0151544,-0.0330088,-0.00111748,0.340454,-0.146249,-0.192161,4.09925e-06,-1.65572e-06,8.05082e-06,0.333825,0.40558558158271274,4.099258401835115e-06,-1.6557186293120196e-06,-0.13605744529635266,8.050852407848197e-06,-0.1748259952183291
416,0.4066,1050.55,0.0999421,0.00449142,0.00504551,0.0115738,-0.0237603,0.341165,-0.146559,-0.192562,3.96339e-06,-1.01123e-06,7.73741e-06,0.334531,0.40658530829194794,3.963397854134243e-06,-1.0112294887010265e-06,-0.1363252259801604,7.737439933874768e-06,-0.1751568236587111
417,0.4076,1050.84,-0.0584257,0.0229295,0.0148739,-0.0319855,-0.0015933,0.341875,-0.146869,-0.192962,4.11412e-06,-1.66912e-06,8.02896e-06,0.335236,0.4075843384745823,4.114128463017508e-06,-1.6691186069950348e-06,-0.13659292366482156,8.028992232178567e-06,-0.175486694950591
418,0.4086,1051.26,0.0963269,0.00479759,0.00521544,0.0106658,-0.0232784,0.342586,-0.147178,-0.193362,3.98458e-06,-1.05272e-06,7.72849e-06,0.335941,0.4085854868052943,3.9845879384881044e-06,-1.0527194458376243e-06,-0.13685967523616893,7.728519864746985e-06,-0.17581643432034033
419,0.4096,1051.55,-0.0549736,0.0224945,0.0145921,-0.0309531,-0.00207491,0.343295,-0.147488,-0.193762,4.12879e-06,-1.68211e-06,8.00694e-06,0.336646,0.4095845280337047,4.128798523517219e-06,-1.6821085851992379e-06,-0.13712720726723837,8.00697205560752e-06,-0.17614604182071725
420,0.4106,1051.96,0.0926885,0.00511101,0.00538647,0.00975064,-0.0227918,0.344004,-0.147797,-0.194161,4.00561e-06,-1.09407e-06,7.71955e-06,0.33735,0.41058427783350515,4.005618022384638e-06,-1.0940694015193486e-06,-0.1373937937704569,7.719579795839593e-06,-0.17647469397956506
421,0.4116,1052.26,-0.0515066,0.0220543,0.0143102,-0.0299167,-0.00255968,0.344713,-0.148106,-0.19456,4.14326e-06,-1.69477e-06,7.9848e-06,0.338054,0.4115847367072505,4.1432685833342475e-06,-1.6947685639312482e-06,-0.13766029791117163,7.984831878582455e-06,-0.17680321503235874
422,0.4126,1052.66,0.0890455,0.00542949,0.00555743,0.00883354,-0.022303,0.345421,-0.148414,-0.194959,4.02645e-06,-1.1352e-06,7.71056e-06,0.338757,0.41258449257265384,4.026458106265451e-06,-1.1351993556285578e-06,-0.1379258576411172,7.710589726483974e-06,-0.17713160503139935
423,0.4136,1052.96,-0.0480427,0.0216107,0.0140293,-0.0288814,-0.00304507,0.346129,-0.148724,-0.195357,4.15755e-06,-1.70717e-06,7.96258e-06,0.339459,0.4135849565158398,4.157558642692294e-06,-1.7071685427527683e-06,-0.13819305920686598,7.962611701328726e-06,-0.17745904148841962
424,0.4146,1053.36,0.0854154,0.00575092,0.00572724,0.00791933,-0.0218146,0.346836,-0.149031,-0.195756,4.04709e-06,-1.17604e-06,7.70149e-06,0.340161,0.41458471445288314,4.047098189463583e-06,-1.176039308492527e-06,-0.13845759332962393,7.701519656455602e-06,-0.1777871698649014
425,0.4156,1053.66,-0.0445991,0.021166,0.0137504,-0.0278518,-0.00352867,0.347543,-0.14934,-0.196153,4.17169e-06,-1.71938e-06,7.9403e-06,0.340863,0.4155851794687109,4.17169870159384e-06,-1.7193785218916346e-06,-0.13872376880705595,7.940331524292077e-06,-0.1781135235729676
426,0.4166,1054.06,0.0818148,0.00607326,0.00589486,0.00701259,-0.021329,0.348249,-0.149647,-0.196551,4.06751e-06,-1.21653e-06,7.6923e-06,0.341564,0.4165849354777609,4.0675182724214665e-06,-1.2165292599952693e-06,-0.13898814002697346,7.692329585751168e-06,-0.17844056930416796
427,0.4176,1054.36,-0.0411917,0.020722,0.0134745,-0.0268323,-0.00400819,0.348955,-0.149956,-0.196948,4.18569e-06,-1.73147e-06,7.91801e-06,0.342265,0.4175853975637691,4.185698760039713e-06,-1.7314685010205721e-06,-0.1392541515908019,7.918041347476645e-06,-0.17876666366414085
428,0.4186,1054.75,0.0782592,0.0063946,0.00605935,0.00611759,-0.0208482,0.34966,-0.150262,-0.197345,4.08771e-06,-1.25661e-06,7.68296e-06,0.342965,0.4185851476395448,4.0877183546950135e-06,-1.2566092104648874e-06,-0.13951749952612613,7.682989513924099e-06,-0.17909262859034702
429,0.4196,1055.05,-0.0378354,0.0202807,0.0132025,-0.0258271,-0.00448154,0.350365,-0.15057,-0.197742,4.19956e-06,-1.74351e-06,7.89572e-06,0.343664,0.4195856027876328,4.199568818252786e-06,-1.7435084800343503e-06,-0.13978248732605614,7.895751171327348e-06,-0.17941846413416174
430,0.4206,1055.43,0.0747627,0.00671311,0.00621984,0.00523825,-0.0203744,0.351069,-0.150877,-0.198138,4.10768e-06,-1.29621e-06,7.67346e-06,0.344363,0.420585342919231,4.107688436505441e-06,-1.2962091598955894e-06,-0.14004653356927488,7.673489440973569e-06,-0.17974335009069964
431,0.4216,1055.74,-0.0345437,0.0198438,0.0129352,-0.0248398,-0.00494675,0.351772,-0.151184,-0.198534,4.21331e-06,-1.75555e-06,7.87348e-06,0.345062,0.4215843655306073,4.21331887601184e-06,-1.7555484590481285e-06,-0.1403104987627387,7.87351099584832e-06,-0.18006810741786894
432,0.4226,1056.12,0.0713384,0.00702711,0.00637553,0.00437816,-0.0199094,0.352476,-0.15149,-0.19893,4.1274e-06,-1.33529e-06,7.66376e-06,0.34576,0.4225855132866023,4.12740851762905e-06,-1.3352891085061103e-06,-0.1405735235052793,7.663789366674223e-06,-0.180392736166597
433,0.4236,1056.42,-0.031329,0.0194129,0.0126734,-0.0238739,-0.00540206,0.353178,-0.151797,-0.199326,4.22695e-06,-1.76764e-06,7.8513e-06,0.346458,0.423584518926883,4.226958933539748e-06,-1.7676384377329768e-06,-0.14083732693766438,7.851330821484481e-06,-0.1807172363877907
434,0.4246,1056.8,0.0679977,0.00733505,0.00652574,0.00354054,-0.019455,0.35388,-0.152103,-0.199721,4.14686e-06,-1.3738e-06,7.65384e-06,0.347155,0.42458422611533786,4.146868598287057e-06,-1.373799056292313e-06,-0.14110019049544598,7.653869290802362e-06,-0.1810407891735354
435,0.4256,1057.1,-0.0282021,0.0189894,0.0124177,-0.0229324,-0.00584587,0.354582,-0.15241,-0.200116,4.2405e-06,-1.77982e-06,7.82921e-06,0.347852,0.4255846353446264,4.2405089908381655e-06,-1.7798184160922048e-06,-0.14136383226588145,7.829240648238311e-06,-0.18136421418116766
436,0.4266,1057.48,0.064751,0.00763552,0.00666983,0.00272824,-0.0190125,0.355283,-0.152715,-0.200511,4.16605e-06,-1.4117e-06,7.64369e-06,0.348548,0.4265843205227209,4.1660586780345454e-06,-1.411699003583955e-06,-0.14162567636378554,7.643719213135114e-06,-0.1816875114611498
437,0.4276,1057.78,-0.0251727,0.0185748,0.0121687,-0.0220178,-0.00627677,0.355984,-0.153021,-0.200905,4.25397e-06,-1.79215e-06,7.80722e-06,0.349244,0.4275847067258056,4.253979048129963e-06,-1.792148394130777e-06,-0.1418882987235479,7.807250476332683e-06,-0.1820098630741963
438,0.4286,1058.15,0.061607,0.00792725,0.00680729,0.00194374,-0.0185834,0.356684,-0.153326,-0.2013,4.18498e-06,-1.44895e-06,7.63329e-06,0.349939,0.42858436586039117,4.184988757094388e-06,-1.4489489502667041e-06,-0.14214998288357428,7.633319133670824e-06,-0.18233290537322766
439,0.4296,1058.46,-0.022249,0.0181702,0.0119268,-0.0211326,-0.00669355,0.357384,-0.153632,-0.201693,4.26736e-06,-1.80466e-06,7.78536e-06,0.350634,0.4295847250013449,4.267369105193097e-06,-1.804658371629131e-06,-0.14241244483008608,7.785390305992124e-06,-0.1826541854057545
440,0.4306,1058.83,0.0585735,0.00820914,0.00693767,0.00118912,-0.0181687,0.358083,-0.153936,-0.202087,4.20362e-06,-1.48553e-06,7.62263e-06,0.351328,0.43058435405377304,4.203628835242057e-06,-1.4855288965609503e-06,-0.1426731118234673,7.622659052408665e-06,-0.1829761562242882
441,0.4316,1059.13,-0.0194378,0.0177766,0.0116925,-0.0202785,-0.00709518,0.358782,-0.154241,-0.20248,4.28068e-06,-1.81737e-06,7.76364e-06,0.352022,0.4315846820911755,4.280689162028395e-06,-1.8173683485889214e-06,-0.14293455665199806,7.76367013721746e-06,-0.1832971835088988
442,0.4326,1059.5,0.0556566,0.00848021,0.00706061,0.000466138,-0.0177695,0.35948,-0.154546,-0.202873,4.22199e-06,-1.5214e-06,7.61169e-06,0.352715,0.4325842770173205,4.2219989127012525e-06,-1.5213988426854286e-06,-0.14319592175201523,7.611718968902892e-06,-0.1836180846545744
443,0.4336,1059.8,-0.0167448,0.017395,0.0114659,-0.0194571,-0.00748079,0.360178,-0.15485,-0.203266,4.29394e-06,-1.83031e-06,7.74208e-06,0.353408,0.43358456990428396,4.293949219080773e-06,-1.8303083250126306e-06,-0.14345635060461137,7.742109970010347e-06,-0.18393885971087798
444,0.4346,1060.16,0.0528612,0.00873964,0.00717584,-0.000223833,-0.0173864,0.360876,-0.155154,-0.203659,4.24007e-06,-1.55655e-06,7.60047e-06,0.3541,0.4345855612394125,4.24007898902623e-06,-1.5565487885282892e-06,-0.14371670029886907,7.600498883597595e-06,-0.18425950872735297
445,0.4356,1060.47,-0.0141743,0.017026,0.0112475,-0.0186697,-0.00784971,0.361572,-0.155459,-0.204051,4.30713e-06,-1.84351e-06,7.72067e-06,0.354792,0.43558438033876135,4.307139275683269e-06,-1.8435083007917186e-06,-0.14397782688144978,7.720699804369957e-06,-0.1845792163331471
446,0.4366,1060.82,0.050191,0.00898678,0.00728315,-0.00087975,-0.0170201,0.362269,-0.155762,-0.204443,4.25786e-06,-1.59096e-06,7.58896e-06,0.355483,0.43658533144279454,4.2578690646610795e-06,-1.5909587344209442e-06,-0.1442371623086034,7.588988796269902e-06,-0.18489879863812042
447,0.4376,1061.13,-0.0117294,0.0166703,0.0110373,-0.017917,-0.00820144,0.362965,-0.156066,-0.204834,4.32026e-06,-1.85697e-06,7.69944e-06,0.356174,0.4375855428666777,4.320269332280802e-06,-1.8569682758151629e-06,-0.1444972746721791,7.699469640742862e-06,-0.18521744090922931
448,0.4386,1061.48,0.0476486,0.00922108,0.00738241,-0.0015009,-0.016671,0.36366,-0.156369,-0.205226,4.27536e-06,-1.62463e-06,7.57715e-06,0.356865,0.438585012094296,4.275369139383756e-06,-1.6246286802523713e-06,-0.14475645273049464,7.577178706696941e-06,-0.18553677307919847
449,0.4396,1061.79,-0.00941197,0.0163283,0.0108354,-0.0171996,-0.00853562,0.364355,-0.156672,-0.205617,4.33334e-06,-1.8707e-06,7.67838e-06,0.357554,0.4395851761944676,4.333349388874197e-06,-1.8706982501948133e-06,-0.14501555226975482,7.67840947890619e-06,-0.18585516595106166
450,0.4406,1062.14,0.0452353,0.00944216,0.00747356,-0.00208686,-0.0163394,0.365049,-0.156975,-0.206007,4.29258e-06,-1.65754e-06,7.56504e-06,0.358244,0.4405845950649818,4.292589213195086e-06,-1.6575386262429603e-06,-0.14527457331374727,7.565068614878712e-06,-0.18617262052867434
451,0.4416,1062.45,-0.00722306,0.0160004,0.0106418,-0.0165179,-0.00885208,0.365743,-0.157278,-0.206398,4.34637e-06,-1.88472e-06,7.6575e-06,0.358933,0.4415847077729256,4.346379445463455e-06,-1.8847182239323246e-06,-0.1455335158862523,7.657529318638723e-06,-0.18649076483278304
452,0.4426,1062.8,0.0429516,0.00964975,0.00755661,-0.00263752,-0.0160253,0.366437,-0.157581,-0.206788,4.3095e-06,-1.6897e-06,7.55263e-06,0.359621,0.44258551479998975,4.309509285871371e-06,-1.689698572504561e-06,-0.14579238001104333,7.552658521259303e-06,-0.18680797157516293
453,0.4436,1063.1,-0.00516253,0.0156867,0.0104565,-0.0158717,-0.00915074,0.36713,-0.157883,-0.207178,4.35934e-06,-1.89902e-06,7.6368e-06,0.36031,0.4435855730419038,4.3593495018257045e-06,-1.899018196915847e-06,-0.14605031176262517,7.63682916038455e-06,-0.18712505463103368
454,0.4446,1063.45,0.0407969,0.0098437,0.00763162,-0.00315299,-0.0157289,0.367822,-0.158185,-0.207568,4.32614e-06,-1.72111e-06,7.53993e-06,0.360997,0.4445848799787713,4.326149357858355e-06,-1.721108518926151e-06,-0.14630816563057902,7.539958425395454e-06,-0.1874420140486237
455,0.4456,1063.75,-0.00322941,0.0153874,0.0102795,-0.0152608,-0.00943169,0.368514,-0.158487,-0.207957,4.37226e-06,-1.91361e-06,7.61629e-06,0.361684,0.44558487867536045,4.372269558405861e-06,-1.913608169035186e-06,-0.14656594163842218,7.616319003922456e-06,-0.1877580376345862
456,0.4466,1064.09,0.0387698,0.010024,0.0076987,-0.00363367,-0.0154499,0.369206,-0.158789,-0.208346,4.34249e-06,-1.75177e-06,7.52694e-06,0.362371,0.4465855696105343,4.342499428711122e-06,-1.7517684656187527e-06,-0.14682363980966495,7.526968327509209e-06,-0.18807393831128116
457,0.4476,1064.4,-0.00142192,0.0151023,0.0101105,-0.0146847,-0.00969513,0.369897,-0.159091,-0.208735,4.38512e-06,-1.92847e-06,7.59595e-06,0.363057,0.44758550567725863,4.385129614759009e-06,-1.9284681405107307e-06,-0.14708126016781042,7.595978849250784e-06,-0.18838971612651112
458,0.4486,1064.74,0.0368681,0.0101907,0.00775801,-0.00408011,-0.0151881,0.370587,-0.159392,-0.209124,4.35857e-06,-1.78169e-06,7.51365e-06,0.363743,0.4485846843531769,4.35857949865337e-06,-1.781688412805238e-06,-0.14733795007473083,7.5136782275997405e-06,-0.18870537112805963
459,0.4496,1065.05,0.000262454,0.0148315,0.00994938,-0.0141428,-0.00994135,0.371277,-0.159693,-0.209512,4.39792e-06,-1.9436e-06,7.57579e-06,0.364428,0.44958455270029063,4.397929670885148e-06,-1.9435981112314593e-06,-0.14759456272961635,7.575818696370362e-06,-0.18902009238418993
460,0.4506,1065.38,0.035089,0.0103439,0.00780974,-0.00449311,-0.0149431,0.371967,-0.159994,-0.2099,4.37436e-06,-1.81089e-06,7.50009e-06,0.365113,0.45058511119463707,4.3743695674614e-06,-1.8108883603762393e-06,-0.1478510981557163,7.50011812566953e-06,-0.18933469155215954
461,0.4516,1065.69,0.00182686,0.0145746,0.00979592,-0.0136342,-0.0101707,0.372656,-0.160295,-0.210288,4.41067e-06,-1.95898e-06,7.55581e-06,0.365797,0.4515849087269479,4.41067972700715e-06,-1.958978081195717e-06,-0.14810755637627293,7.5558385452811905e-06,-0.18964916867932946
462,0.4526,1066.02,0.033429,0.010484,0.00785415,-0.00487359,-0.0147146,0.373345,-0.160595,-0.210675,4.38988e-06,-1.83937e-06,7.48624e-06,0.366481,0.4525853953571257,4.389889635580957e-06,-1.839368308331757e-06,-0.14836308577803325,7.486268021938969e-06,-0.18996271377616103
463,0.4536,1066.33,0.003275,0.0143314,0.00964988,-0.0131578,-0.0103838,0.374033,-0.160896,-0.211062,4.42335e-06,-1.97461e-06,7.53599e-06,0.367164,0.45358511797427736,4.4233597831233595e-06,-1.9746080504035035e-06,-0.14861938991350665,7.536018395537525e-06,-0.19027613755451678
464,0.4546,1066.66,0.0318842,0.0106111,0.00789148,-0.00522262,-0.014502,0.374721,-0.161196,-0.211449,4.40513e-06,-1.86716e-06,7.47213e-06,0.367847,0.4545855286372502,4.405139702567951e-06,-1.8671582568963174e-06,-0.148874765788236,7.472157916410538e-06,-0.19058944006133782
465,0.4556,1066.97,0.00461099,0.0141016,0.00951097,-0.0127126,-0.010581,0.375408,-0.161496,-0.211836,4.43596e-06,-1.99047e-06,7.51633e-06,0.368529,0.45558517223368256,4.4359698387896884e-06,-1.9904680189641866e-06,-0.1491300650616938,7.5163582475834545e-06,-0.1909026213435473
466,0.4566,1067.29,0.0304503,0.0107258,0.00792203,-0.0055414,-0.0143047,0.376095,-0.161795,-0.212223,4.42011e-06,-1.89428e-06,7.45776e-06,0.369211,0.45658550282122023,4.420119768644426e-06,-1.894278205849531e-06,-0.14938443714171923,7.4577878090842376e-06,-0.1912156814480499
467,0.4576,1067.6,0.00583938,0.0138847,0.00937889,-0.0122972,-0.010763,0.376781,-0.162095,-0.212609,4.44851e-06,-2.00654e-06,7.49683e-06,0.369893,0.45758506328619575,4.4485198946730975e-06,-2.0065379868761113e-06,-0.14963958353670392,7.496858101196935e-06,-0.1915278119499485
468,0.4586,1067.92,0.0291225,0.0108285,0.0079461,-0.0058312,-0.0141222,0.377467,-0.162394,-0.212994,4.43483e-06,-1.92074e-06,7.44314e-06,0.370574,0.45858530968489886,4.4348398338112105e-06,-1.92073815541427e-06,-0.1498938032934789,7.44316770018294e-06,-0.19183901383214153
469,0.4596,1068.23,0.00696497,0.0136802,0.00925333,-0.0119104,-0.0109304,0.378152,-0.162694,-0.21338,4.46098e-06,-2.0228e-06,7.47747e-06,0.371254,0.4595847829025286,4.460989950105798e-06,-2.022797954137623e-06,-0.15014879690153715,7.477497956376311e-06,-0.19215090377417088
470,0.4606,1068.55,0.0278959,0.0109195,0.00796402,-0.00609339,-0.0139538,0.378837,-0.162992,-0.213765,4.4493e-06,-1.94656e-06,7.42828e-06,0.371934,0.46058494099385494,4.4493098980691315e-06,-1.9465581054811665e-06,-0.1504020148287154,7.428307589707472e-06,-0.1924618658121845
471,0.4616,1068.86,0.00799279,0.0134878,0.00913395,-0.0115508,-0.011084,0.379521,-0.163291,-0.21415,4.47338e-06,-2.03924e-06,7.45825e-06,0.372614,0.46158432284312334,4.473390005532707e-06,-2.039237920747894e-06,-0.1506560066526117,7.458277812899539e-06,-0.19277270815285674
472,0.4626,1069.18,0.0267654,0.0109995,0.00797612,-0.00632935,-0.0137987,0.380205,-0.16359,-0.214535,4.46352e-06,-1.97177e-06,7.41319e-06,0.373293,0.4625843885034133,4.463529961418189e-06,-1.971768056052703e-06,-0.15090992254430513,7.413217477658662e-06,-0.1930834308422621
473,0.4636,1069.48,0.00892803,0.0133067,0.00902043,-0.011217,-0.0112244,0.380889,-0.163888,-0.21492,4.48569e-06,-2.05583e-06,7.43916e-06,0.373972,0.4635851384426115,4.4857000607301245e-06,-2.0558278868154645e-06,-0.15116291368983392,7.439187670543745e-06,-0.1933940339264575
474,0.4646,1069.8,0.0257257,0.0110689,0.00798273,-0.00654055,-0.0136563,0.381572,-0.164186,-0.215304,4.47749e-06,-1.99638e-06,7.39788e-06,0.37465,0.4645851085430843,4.4775000240804275e-06,-1.996378007240729e-06,-0.15141582945523369,7.397907364481426e-06,-0.19370371115559648
475,0.4656,1070.1,0.00977597,0.0131366,0.00891243,-0.0109075,-0.0113522,0.382254,-0.164484,-0.215688,4.49792e-06,-2.07256e-06,7.42019e-06,0.375328,0.46558429627139697,4.497930115698878e-06,-2.072557852228485e-06,-0.15166866986296412,7.420217529752193e-06,-0.19401326949150832
476,0.4666,1070.42,0.0247715,0.0111284,0.00798418,-0.00672842,-0.0135258,0.382937,-0.164782,-0.216072,4.49123e-06,-2.02042e-06,7.38236e-06,0.376005,0.4665856322630657,4.491240085613413e-06,-2.0204179589367044e-06,-0.15192143493547872,7.382387249732503e-06,-0.1943227089798394
477,0.4676,1070.72,0.0105419,0.0129767,0.00880961,-0.0106208,-0.0114684,0.383618,-0.16508,-0.216455,4.51006e-06,-2.0894e-06,7.40134e-06,0.376682,0.4675847172284562,4.510070170438141e-06,-2.0893978172065175e-06,-0.15217412469522373,7.401367390080793e-06,-0.1946312242978454
478,0.4686,1071.04,0.0238975,0.0111785,0.00798083,-0.00689443,-0.0134065,0.384299,-0.165377,-0.216838,4.50473e-06,-2.04392e-06,7.36664e-06,0.377358,0.4685844828024288,4.504740146238362e-06,-2.0439179111431116e-06,-0.15242589159095454,7.366667133856808e-06,-0.19493962147710964
479,0.4696,1071.34,0.0112311,0.0128266,0.00871163,-0.0103555,-0.0115735,0.38498,-0.165674,-0.217221,4.52211e-06,-2.10634e-06,7.38258e-06,0.378034,0.4695849294486363,4.522120224725867e-06,-2.1063377816377127e-06,-0.15267758372302032,7.382607251305018e-06,-0.19524790056287056
480,0.4706,1071.65,0.0230985,0.0112198,0.007973,-0.00704003,-0.0132978,0.38566,-0.165971,-0.217604,4.518e-06,-2.06688e-06,7.35074e-06,0.378709,0.47058458704572437,4.518010206178147e-06,-2.066877863970973e-06,-0.15292920111362251,7.350767016855997e-06,-0.19555606160034933
481,0.4716,1071.95,0.0118488,0.0126856,0.00861817,-0.0101102,-0.0116684,0.38634,-0.166268,-0.217986,4.53405e-06,-2.12335e-06,7.36392e-06,0.379384,0.47158492464115165,4.534060278782448e-06,-2.1233477457416328e-06,-0.15318074378495594,7.36394711364774e-06,-0.19586330049845235
482,0.4726,1072.26,0.0223693,0.0112529,0.00796102,-0.00716663,-0.0131988,0.387019,-0.166565,-0.218368,4.53105e-06,-2.08935e-06,7.33467e-06,0.380059,0.4725844701122677,4.531060265211551e-06,-2.089347817313403e-06,-0.15343221175920918,7.334696898730897e-06,-0.19617042205371016
483,0.4736,1072.57,0.0124001,0.0125532,0.0085289,-0.00988344,-0.0117537,0.387698,-0.166861,-0.21875,4.5459e-06,-2.14041e-06,7.34534e-06,0.380733,0.47358469450522667,4.545910332609537e-06,-2.1404077092945784e-06,-0.15368275874174575,7.345366977107304e-06,-0.19647742631093923
484,0.4746,1072.87,0.0217049,0.0112782,0.0079452,-0.00727562,-0.0131089,0.388377,-0.167157,-0.219131,4.54389e-06,-2.11133e-06,7.31842e-06,0.381407,0.47458559828117286,4.543900323561445e-06,-2.1113277711704015e-06,-0.15393323157335037,7.318446779702725e-06,-0.19678351009885053
485,0.4756,1073.18,0.01289,0.0124288,0.00844352,-0.00967387,-0.0118301,0.389054,-0.167453,-0.219513,4.55764e-06,-2.15751e-06,7.32684e-06,0.38208,0.4755842307301512,4.557650385983436e-06,-2.157507672628789e-06,-0.15418363027596838,7.3268668414616656e-06,-0.1970902802011728
486,0.4766,1073.48,0.0211003,0.0112965,0.00792585,-0.00736835,-0.0130274,0.389732,-0.167749,-0.219894,4.55651e-06,-2.13285e-06,7.30203e-06,0.382753,0.4765850160664782,4.556520381004958e-06,-2.132847725433429e-06,-0.15443395487153888,7.302056659996836e-06,-0.19739613053622762
487,0.4776,1073.78,0.0133232,0.0123118,0.00836173,-0.00948018,-0.0118983,0.390409,-0.168045,-0.220275,4.56927e-06,-2.17463e-06,7.30841e-06,0.383425,0.47758500257959646,4.569280439126189e-06,-2.174627635520565e-06,-0.15468420538199412,7.308436706487953e-06,-0.19770186436450066
488,0.4786,1074.09,0.0205508,0.0113082,0.00790327,-0.00744611,-0.0129536,0.391086,-0.16834,-0.220655,4.56892e-06,-2.15393e-06,7.28548e-06,0.384097,0.478585666312797,4.568930437542917e-06,-2.153927680326184e-06,-0.15493353676321953,7.285506539167486e-06,-0.19800667973745323
489,0.4796,1074.38,0.0137043,0.0122018,0.00828323,-0.00930109,-0.0119589,0.391762,-0.168636,-0.221035,4.58079e-06,-2.19175e-06,7.29005e-06,0.384768,0.47958552813844557,4.580800491815751e-06,-2.1917475980792744e-06,-0.15518363941931845,7.290076572408211e-06,-0.19831137930256915
490,0.4806,1074.69,0.020052,0.0113138,0.00787773,-0.00751015,-0.0128869,0.392437,-0.168931,-0.221415,4.58113e-06,-2.17458e-06,7.2688e-06,0.385439,0.4805845855138702,4.581140493398195e-06,-2.1745776356274504e-06,-0.15543282348923237,7.2688264178832895e-06,-0.19861596310384677
491,0.4816,1074.99,0.0140378,0.0120981,0.00820776,-0.0091354,-0.0120125,0.393112,-0.169226,-0.221795,4.59219e-06,-2.20885e-06,7.27173e-06,0.386109,0.4815843174806722,4.592200544051295e-06,-2.2088475605253066e-06,-0.1556819340606872,7.271756438997912e-06,-0.19892043118526803
492,0.4826,1075.29,0.0195996,0.0113139,0.00784951,-0.00756165,-0.0128268,0.393787,-0.16952,-0.222174,4.59314e-06,-2.19483e-06,7.252e-06,0.386779,0.48258472449435463,4.59315054857079e-06,-2.1948275913397097e-06,-0.15593012708591092,7.252026295923031e-06,-0.1992239828151815
493,0.4836,1075.58,0.0143278,0.0120003,0.00813506,-0.00898195,-0.0120598,0.394461,-0.169815,-0.222554,4.60348e-06,-2.22591e-06,7.25346e-06,0.387449,0.4835843234256625,4.603490596055693e-06,-2.2259075226349623e-06,-0.1561790909744415,7.253486306479928e-06,-0.19952821989300584
494,0.4846,1075.88,0.0191894,0.011309,0.00781885,-0.00760172,-0.0127725,0.395135,-0.170109,-0.222933,4.60496e-06,-2.21469e-06,7.23507e-06,0.388118,0.48458459631374806,4.6049706028394866e-06,-2.2146875475748118e-06,-0.15642713785701656,7.235096173285882e-06,-0.1998315412146452
495,0.4856,1076.18,0.0145783,0.0119079,0.00806489,-0.00883967,-0.0121013,0.395809,-0.170403,-0.223311,4.61464e-06,-2.24293e-06,7.23523e-06,0.388787,0.4855855436130112,4.6146506473832005e-06,-2.242927484630286e-06,-0.1566751118245272,7.2352561744093435e-06,-0.20013394773363324
496,0.4866,1076.48,0.0188177,0.0112995,0.00778599,-0.00763142,-0.0127237,0.396481,-0.170697,-0.22369,4.61659e-06,-2.23419e-06,7.21803e-06,0.389455,0.48658419260679975,4.6166006564263284e-06,-2.2341875042242165e-06,-0.15692301289840727,7.218056049973498e-06,-0.20043703952791914
497,0.4876,1076.77,0.0147929,0.0118205,0.00799702,-0.00870753,-0.0121375,0.397154,-0.170991,-0.224068,4.62568e-06,-2.25988e-06,7.21704e-06,0.390123,0.48758500050250664,4.625690698478735e-06,-2.2598774465087956e-06,-0.1571708411000844,7.217066042786158e-06,-0.20073921721179733
498,0.4886,1077.07,0.0184809,0.0112858,0.00775114,-0.00765173,-0.0126798,0.397826,-0.171284,-0.224446,4.62803e-06,-2.25333e-06,7.2009e-06,0.39079,0.48858499358288743,4.628040709331316e-06,-2.253327461287924e-06,-0.15741775386915502,7.200925926431623e-06,-0.20104128069409644
499,0.4896,1077.36,0.0149751,0.0117376,0.00793124,-0.00858457,-0.0121689,0.398498,-0.171578,-0.224823,4.63659e-06,-2.27676e-06,7.19887e-06,0.391457,0.4895856588844596,4.636600748897379e-06,-2.276757408159469e-06,-0.1576654366383664,7.1988959118307605e-06,-0.2013424313608072
500,0.4906,1077.66,0.0181756,0.0112683,0.00771453,-0.00766358,-0.0126403,0.399169,-0.171871,-0.225201,4.63929e-06,-2.27213e-06,7.18366e-06,0.392123,0.49058550627285546,4.639300761555276e-06,-2.272127418767589e-06,-0.15791220451217236,7.183685802436557e-06,-0.20164426687124737
501,0.4916,1077.95,0.0151282,0.0116588,0.00786735,-0.00846992,-0.012196,0.399839,-0.172164,-0.225578,4.64737e-06,-2.29355e-06,7.18072e-06,0.392789,0.49158453319870654,4.647380799083223e-06,-2.2935473698026954e-06,-0.1581589000935828,7.180745781321107e-06,-0.2019451902550149
502,0.4926,1078.25,0.0178988,0.0112475,0.00767633,-0.00766783,-0.0126047,0.400509,-0.172457,-0.225955,4.65037e-06,-2.2906e-06,7.16634e-06,0.393455,0.4925842296968794,4.650380813098209e-06,-2.2905973765530163e-06,-0.158405523403776,7.166365678212827e-06,-0.20224600021204908
503,0.4936,1078.54,0.015255,0.0115837,0.00780517,-0.00836274,-0.0122192,0.401179,-0.172749,-0.226331,4.65802e-06,-2.31024e-06,7.16259e-06,0.39412,0.49358459621613826,4.658030848592176e-06,-2.310237331437648e-06,-0.15865123311557838,7.162615651479243e-06,-0.20254589933140166
504,0.4946,1078.83,0.0176475,0.0112237,0.00763673,-0.00766526,-0.0125727,0.401849,-0.173042,-0.226708,4.66127e-06,-2.30876e-06,7.14893e-06,0.394785,0.4945856332055474,4.661280863738071e-06,-2.308757334867906e-06,-0.15889771219332727,7.148955553759606e-06,-0.2028464828637978
505,0.4956,1079.12,0.0153584,0.0115121,0.00774453,-0.00826229,-0.0122389,0.402517,-0.173334,-0.227084,4.66854e-06,-2.32682e-06,7.14448e-06,0.395449,0.49558434994278144,4.668550897646284e-06,-2.3268172929524766e-06,-0.15914327820698404,7.1445055218610776e-06,-0.20314615624411492
506,0.4966,1079.41,0.0174192,0.0111972,0.00759589,-0.00765661,-0.012544,0.403186,-0.173626,-0.227459,4.672e-06,-2.32662e-06,7.13145e-06,0.396113,0.4965852306301535,4.672010913919777e-06,-2.3266172933800178e-06,-0.15938877252583272,7.131475428856504e-06,-0.2034449204137404
507,0.4976,1079.7,0.0154409,0.0114436,0.00768528,-0.00816785,-0.0122554,0.403854,-0.173918,-0.227835,4.67892e-06,-2.34328e-06,7.12637e-06,0.396776,0.49758528354470055,4.678930946244719e-06,-2.343277254568399e-06,-0.15963419517080513,7.126395392687002e-06,-0.20374436882383584
508,0.4986,1079.99,0.0172113,0.0111684,0.00755394,-0.00764255,-0.012518,0.404521,-0.174209,-0.22821,4.68256e-06,-2.34419e-06,7.1139e-06,0.397439,0.4985845061325127,4.68257096319924e-06,-2.3441872524232465e-06,-0.1598787060419533,7.11392530394761e-06,-0.20404290870580055
509,0.4996,1080.28,0.0155048,0.0113778,0.00762727,-0.00807879,-0.0122692,0.405188,-0.174501,-0.228585,4.68917e-06,-2.35961e-06,7.10827e-06,0.398101,0.4995843954241117,4.689180994166264e-06,-2.359607216173565e-06,-0.16012398564722385,7.108295263735798e-06,-0.20434133665629794
510,0.5006,1080.57,0.0170217,0.0111374,0.00751104,-0.00762369,-0.0124946,0.405855,-0.174792,-0.22896,4.69295e-06,-2.36148e-06,7.09628e-06,0.398763,0.5005849518643377,4.692961011798502e-06,-2.3614772116653526e-06,-0.16036835401007932,7.096305178588835e-06,-0.20463965271729456
511,0.5016,1080.86,0.0155522,0.0113146,0.00757039,-0.00799454,-0.0122804,0.406521,-0.175083,-0.229335,4.69928e-06,-2.37581e-06,7.09017e-06,0.399425,0.501584674312902,4.6992910416321365e-06,-2.3758071777679746e-06,-0.1606126512720868,7.090195135228683e-06,-0.20493785693074096
512,0.5026,1081.15,0.0168483,0.0111046,0.0074673,-0.00760058,-0.0124735,0.407187,-0.175374,-0.229709,4.70318e-06,-2.37849e-06,7.0786e-06,0.400086,0.5025850627983828,4.703191059940437e-06,-2.378487171439403e-06,-0.16085687745393373,7.078625053447141e-06,-0.2052351545741241
513,0.5036,1081.43,0.0155851,0.0112537,0.00751452,-0.00791455,-0.0122893,0.407852,-0.175665,-0.230083,4.70925e-06,-2.39186e-06,7.07207e-06,0.400747,0.5035846141791422,4.709261088642336e-06,-2.3918571394609955e-06,-0.16110103257630137,7.072095007165657e-06,-0.20553234104897855
514,0.5046,1081.72,0.0166894,0.0110702,0.00742284,-0.00757374,-0.0124543,0.408517,-0.175955,-0.230457,4.71324e-06,-2.39525e-06,7.06086e-06,0.401407,0.5045848304826321,4.713251107402172e-06,-2.3952471314148127e-06,-0.1613442780045624,7.060884927856392e-06,-0.20582941639687335
515,0.5056,1082.0,0.0156051,0.0111947,0.00745954,-0.00783835,-0.0122963,0.409181,-0.176246,-0.23083,4.71909e-06,-2.40777e-06,7.05396e-06,0.402067,0.505584206566214,4.719101134975645e-06,-2.4077671013644775e-06,-0.16158829131400465,7.053984879323849e-06,-0.20612558678534598
516,0.5066,1082.29,0.0165432,0.0110343,0.00737775,-0.00754361,-0.0124368,0.409845,-0.176536,-0.231204,4.72315e-06,-2.41175e-06,7.04307e-06,0.402726,0.5065842464558745,4.723161154185362e-06,-2.411747091701777e-06,-0.16183139545771896,7.0430948024835516e-06,-0.2064224403008207
517,0.5076,1082.57,0.0156139,0.0111377,0.00740537,-0.00776551,-0.0123016,0.410509,-0.176826,-0.231577,4.72878e-06,-2.42352e-06,7.03585e-06,0.403385,0.5075849505925274,4.7287911806304095e-06,-2.423517063254721e-06,-0.1620744291114532,7.035874751704085e-06,-0.20671838953262545
518,0.5086,1082.86,0.0164083,0.0109973,0.00733212,-0.00751062,-0.0124209,0.411172,-0.177115,-0.231949,4.73289e-06,-2.428e-06,7.02522e-06,0.404044,0.5085848108318138,4.7329012000663084e-06,-2.4279970524121453e-06,-0.16231655461261985,7.025244676883702e-06,-0.20701343540978367
519,0.5096,1083.14,0.0156128,0.0110822,0.00735193,-0.00769563,-0.0123053,0.411835,-0.177405,-0.232322,4.73833e-06,-2.43911e-06,7.01773e-06,0.404702,0.5095853341982415,4.738341225829501e-06,-2.4391070253537706e-06,-0.16255944759059804,7.017754624305539e-06,-0.20730916424152002
520,0.5106,1083.42,0.0162833,0.0109593,0.00728605,-0.00747513,-0.0124063,0.412497,-0.177694,-0.232694,4.74248e-06,-2.44401e-06,7.00734e-06,0.405359,0.5105850105458434,4.742491245490754e-06,-2.444007013435723e-06,-0.16280143294167693,7.007364551503414e-06,-0.20760399039135835
521,0.5116,1083.7,0.0156032,0.0110283,0.00729913,-0.00762837,-0.0123076,0.413159,-0.177984,-0.233066,4.74775e-06,-2.45454e-06,6.9996e-06,0.406017,0.5115853488982867,4.747761270573747e-06,-2.4545369876616263e-06,-0.16304418532532694,6.999624497350254e-06,-0.2078987068862661
522,0.5126,1083.99,0.0161671,0.0109204,0.00723959,-0.00743748,-0.0123929,0.41382,-0.178273,-0.233438,4.75191e-06,-2.45979e-06,6.9894e-06,0.406673,0.5125848371083703,4.751921290235828e-06,-2.459786974773337e-06,-0.1632860306074413,6.989424425896118e-06,-0.2081933137670272
523,0.5136,1084.27,0.0155861,0.0109757,0.00724691,-0.00756341,-0.0123087,0.414481,-0.178562,-0.233809,4.75702e-06,-2.4698e-06,6.98146e-06,0.40733,0.5135849861985577,4.757031314639448e-06,-2.4697969500664385e-06,-0.16352780600636785,6.981484370394142e-06,-0.2084870195618258
524,0.5146,1084.55,0.0160585,0.0108807,0.00719282,-0.00739795,-0.0123805,0.415141,-0.17885,-0.234181,4.76119e-06,-2.47533e-06,6.97143e-06,0.407986,0.5145842820207958,4.761201334524401e-06,-2.4753269364241604e-06,-0.16376867531139327,6.971454300508384e-06,-0.20878140763097308
525,0.5156,1084.83,0.0155625,0.0109243,0.00719521,-0.00750049,-0.0123088,0.415801,-0.179139,-0.234552,4.76615e-06,-2.48489e-06,6.96331e-06,0.408641,0.5155842375959709,4.766161358027432e-06,-2.4848869126792295e-06,-0.16401031124615384,6.963334243881292e-06,-0.20907489528341616
526,0.5166,1085.11,0.0159566,0.0108405,0.00714578,-0.00735681,-0.012369,0.416461,-0.179427,-0.234922,4.77031e-06,-2.49066e-06,6.95342e-06,0.409296,0.516584853359664,4.770321377911557e-06,-2.490656898279653e-06,-0.16425104160967874,6.95344417511734e-06,-0.20936748344001432
527,0.5176,1085.39,0.0155334,0.0108739,0.00714398,-0.00743935,-0.0123079,0.41712,-0.179715,-0.235293,4.77514e-06,-2.49981e-06,6.94515e-06,0.409951,0.517584612162372,4.775151400959743e-06,-2.499806875499999e-06,-0.1644917026528414,6.945174117589659e-06,-0.20966075369866133
528,0.5186,1085.66,0.0158606,0.0107997,0.00709854,-0.0073143,-0.0123582,0.417779,-0.180003,-0.235663,4.77929e-06,-2.50576e-06,6.93538e-06,0.410605,0.5185850300232671,4.779301420843041e-06,-2.5057568605602043e-06,-0.16473229439560355,6.9354040497238145e-06,-0.209953125127743
529,0.5196,1085.94,0.0154995,0.0108245,0.00709317,-0.00737977,-0.0123062,0.418437,-0.180291,-0.236033,4.78399e-06,-2.51456e-06,6.92696e-06,0.411259,0.5195845877914638,4.784001443214336e-06,-2.5145568385287476e-06,-0.16497281685792053,6.926983991517588e-06,-0.2102453883994062
530,0.5206,1086.22,0.0157697,0.0107585,0.00705114,-0.00727061,-0.012348,0.419095,-0.180578,-0.236403,4.78812e-06,-2.52064e-06,6.9173e-06,0.411912,0.5205848034851055,4.788131463095979e-06,-2.5206368231556198e-06,-0.165212435272595,6.917323924549024e-06,-0.21053754355366183
531,0.5216,1086.49,0.0154615,0.010776,0.00704274,-0.00732157,-0.0123039,0.419753,-0.180866,-0.236772,4.7927e-06,-2.52912e-06,6.90877e-06,0.412565,0.52158567753725,4.792711485013257e-06,-2.52911680176382e-06,-0.16545281947424995,6.908793865667562e-06,-0.21082880145970206
532,0.5226,1086.77,0.0156832,0.010717,0.00700361,-0.00722594,-0.0123384,0.42041,-0.181153,-0.237142,4.79679e-06,-2.53532e-06,6.89918e-06,0.413218,0.5225856877947905,4.796801504669546e-06,-2.535316786067554e-06,-0.16569230014794034,6.899203799370923e-06,-0.21112074079105514
533,0.5236,1087.05,0.01542,0.0107283,0.00699265,-0.00726458,-0.0123009,0.421066,-0.18144,-0.237511,4.80127e-06,-2.54351e-06,6.89056e-06,0.41387,0.5235848316893505,4.80128152613446e-06,-2.5435067653178933e-06,-0.16593171210053936,6.8905837400379255e-06,-0.21141178353701418
534,0.5246,1087.32,0.0156007,0.0106753,0.006956,-0.00718043,-0.0123293,0.421722,-0.181727,-0.237879,4.80532e-06,-2.54978e-06,6.88104e-06,0.414521,0.5245846312373363,4.8053315455653944e-06,-2.5497767492943524e-06,-0.16617105535176702,6.8810636744132125e-06,-0.2117019306103367
535,0.5256,1087.6,0.0153756,0.0106813,0.00694288,-0.00720865,-0.0122973,0.422378,-0.182013,-0.238248,4.80969e-06,-2.55772e-06,6.87233e-06,0.415172,0.5255850868689977,4.809701566577118e-06,-2.557716729079118e-06,-0.16640949633125113,6.872353614406634e-06,-0.21199275893681524
536,0.5266,1087.87,0.0155216,0.0106334,0.00690832,-0.00713424,-0.0123206,0.423033,-0.1823,-0.238616,4.81371e-06,-2.56404e-06,6.86287e-06,0.415823,0.5265846724294307,4.8137215860055704e-06,-2.5640367128376695e-06,-0.16664870247808006,6.86289354945302e-06,-0.21228269225052487
537,0.5276,1088.14,0.0153287,0.0106349,0.0068934,-0.00715364,-0.0122933,0.423688,-0.182586,-0.238984,4.81798e-06,-2.57174e-06,6.85408e-06,0.416474,0.5275849129328762,4.817991606564931e-06,-2.5717366930466667e-06,-0.1668870068700189,6.854103489217778e-06,-0.21257251888840445
538,0.5286,1088.42,0.0154454,0.0105914,0.00686062,-0.00708747,-0.0123122,0.424342,-0.182872,-0.239352,4.82195e-06,-2.57809e-06,6.84468e-06,0.417123,0.5285842802234177,4.821961625545157e-06,-2.578086676696678e-06,-0.1671252431166469,6.844703424935261e-06,-0.21286223888970368
539,0.5296,1088.69,0.0152798,0.0105891,0.00684418,-0.00709946,-0.0122889,0.424996,-0.183158,-0.23972,4.82612e-06,-2.58559e-06,6.83582e-06,0.417773,0.5295843013139367,4.826131645652154e-06,-2.5855866573332165e-06,-0.1673634112374508,6.835843364250138e-06,-0.21315185229365763
540,0.5306,1088.96,0.0153717,0.0105493,0.0068129,-0.00704023,-0.0123041,0.42565,-0.183444,-0.240087,4.83004e-06,-2.59195e-06,6.82645e-06,0.418422,0.530584976632158,4.830051664628243e-06,-2.591946640873033e-06,-0.16760151125191192,6.8264733001921485e-06,-0.21344057258045257
541,0.5316,1089.23,0.0152291,0.0105439,0.00679521,-0.007046,-0.0122841,0.426303,-0.183729,-0.240454,4.83413e-06,-2.59925e-06,6.81755e-06,0.419071,0.5315847750205458,4.8341416845065766e-06,-2.5992466219371124e-06,-0.1678387110186328,6.817573239503716e-06,-0.21372918692634368
542,0.5326,1089.5,0.0153004,0.0105072,0.0067652,-0.00699262,-0.0122962,0.426956,-0.184015,-0.240821,4.83799e-06,-2.6056e-06,6.80821e-06,0.419719,0.5325852264904889,4.838001703033612e-06,-2.6055966054761015e-06,-0.16807667511679336,6.808233175892298e-06,-0.214017695370204
543,0.5336,1089.77,0.015177,0.0104992,0.00674645,-0.00699317,-0.0122791,0.427608,-0.1843,-0.241187,4.84199e-06,-2.61273e-06,6.79925e-06,0.420367,0.5335847978830246,4.8420017224604095e-06,-2.612726586859182e-06,-0.1683137394811085,6.799273114976856e-06,-0.21430531225659766
544,0.5346,1090.04,0.0152309,0.0104651,0.00671753,-0.00694472,-0.0122885,0.42826,-0.184585,-0.241554,4.8458e-06,-2.61906e-06,6.78994e-06,0.421014,0.5345850212086152,4.845811740983308e-06,-2.619056570285494e-06,-0.1685507362917067,6.7899630515899645e-06,-0.21459360930125582
545,0.5356,1090.31,0.0151238,0.0104549,0.00669791,-0.00694091,-0.0122737,0.428911,-0.18487,-0.24192,4.84972e-06,-2.62603e-06,6.78094e-06,0.421661,0.5355843613073308,4.849731759959397e-06,-2.626026551988403e-06,-0.16878766556783809,6.780962990671213e-06,-0.21488101544171956
546,0.5366,1090.58,0.0151632,0.0104231,0.0066699,-0.00689659,-0.0122809,0.429562,-0.185154,-0.242285,4.85347e-06,-2.63233e-06,6.77165e-06,0.422308,0.5365843521882572,4.853481778033242e-06,-2.6323265354122327e-06,-0.16902369635285885,6.771672927730066e-06,-0.2151675315787075
547,0.5376,1090.85,0.0150696,0.010411,0.00664957,-0.00688915,-0.0122681,0.430213,-0.185439,-0.242651,4.8573e-06,-2.63914e-06,6.76261e-06,0.422954,0.5375849942751916,4.85731179677984e-06,-2.63913651743497e-06,-0.16926049085457895,6.76263286658596e-06,-0.2154547277020531
548,0.5386,1091.11,0.0150969,0.0103811,0.00662233,-0.00684829,-0.0122735,0.430863,-0.185723,-0.243016,4.861e-06,-2.6454e-06,6.75333e-06,0.4236,0.5385847494066884,4.861011814627503e-06,-2.6453965009665126e-06,-0.1694963873762847,6.753352803867685e-06,-0.21574103447227766
549,0.5396,1091.38,0.0150147,0.0103675,0.00660142,-0.00683785,-0.0122623,0.431513,-0.186007,-0.243381,4.86475e-06,-2.65208e-06,6.74427e-06,0.424245,0.5395851545902648,4.864761832923392e-06,-2.6520764832005383e-06,-0.16973221691289053,6.744292742721925e-06,-0.21602723675960045
550,0.5406,1091.65,0.015032,0.0103393,0.00657482,-0.00679988,-0.0122661,0.432162,-0.186291,-0.243746,4.86839e-06,-2.65828e-06,6.735e-06,0.42489,0.540584669663152,4.868401850544046e-06,-2.6582764667271164e-06,-0.16996797948341758,6.735022680226521e-06,-0.21631333460215063
551,0.5416,1091.91,0.0149592,0.0103244,0.00655344,-0.00678694,-0.0122564,0.432811,-0.186575,-0.244111,4.87206e-06,-2.66483e-06,6.72591e-06,0.425534,0.5415848336318654,4.872071868611272e-06,-2.664826449394475e-06,-0.1702036751068816,6.725932619078279e-06,-0.2165993280380436
552,0.5426,1092.18,0.0149682,0.0102975,0.0065274,-0.0067514,-0.0122589,0.43346,-0.186859,-0.244475,4.87564e-06,-2.67097e-06,6.71665e-06,0.426178,0.5425856469176751,4.875651886004917e-06,-2.6709664329160887e-06,-0.17043930380229277,6.716672556805747e-06,-0.21688443399020652
553,0.5436,1092.44,0.0149033,0.0102817,0.00650563,-0.0067364,-0.0122502,0.434108,-0.187142,-0.244839,4.87924e-06,-2.67739e-06,6.70753e-06,0.426822,0.5435855663557865,4.879251903400217e-06,-2.677386415794736e-06,-0.17067403626310684,6.707552495432978e-06,-0.21716943618268825
554,0.5446,1092.71,0.0149054,0.0102559,0.00648006,-0.00670288,-0.0122517,0.434755,-0.187425,-0.245203,4.88275e-06,-2.68348e-06,6.69828e-06,0.427465,0.5445845893663126,4.8827619205660255e-06,-2.6834763994232347e-06,-0.17090870230403343,6.698302433605363e-06,-0.21745433465325048
555,0.5456,1092.97,0.014847,0.0102392,0.00645799,-0.00668619,-0.012244,0.435402,-0.187708,-0.245567,4.88628e-06,-2.68978e-06,6.68914e-06,0.428108,0.5455842589538717,4.886291937955534e-06,-2.6897763825139975e-06,-0.17114330194386662,6.689162372452984e-06,-0.21773912943964113
556,0.5466,1093.24,0.0148436,0.0102144,0.00643281,-0.00665435,-0.0122445,0.436049,-0.187991,-0.24593,4.88972e-06,-2.6958e-06,6.67989e-06,0.42875,0.5465845755369343,4.889731954671461e-06,-2.695796366358749e-06,-0.17137783520139527,6.679912310625369e-06,-0.21802303860302386
557,0.5476,1093.5,0.0147906,0.0101971,0.0064105,-0.00663628,-0.0122376,0.436696,-0.188274,-0.246293,4.89318e-06,-2.70199e-06,6.67074e-06,0.429392,0.5475855395342422,4.893191971611088e-06,-2.701986349662455e-06,-0.1716123020954029,6.670762249472162e-06,-0.2183068447260832
558,0.5486,1093.76,0.0147825,0.0101731,0.00638567,-0.00660585,-0.0122373,0.437342,-0.188556,-0.246656,4.89656e-06,-2.70793e-06,6.66149e-06,0.430034,0.5485856027784306,4.896571988100007e-06,-2.70792633361161e-06,-0.17184587449095634,6.661512187866592e-06,-0.218590547846216
559,0.5496,1094.02,0.014734,0.0101553,0.00636317,-0.00658665,-0.012231,0.437987,-0.188839,-0.247019,4.89994e-06,-2.71401e-06,6.65231e-06,0.430675,0.5495847626866535,4.89995200481097e-06,-2.714006317128259e-06,-0.17208020894858567,6.6523321267109026e-06,-0.21887414800080562
560,0.5506,1094.28,0.0147221,0.010132,0.00633862,-0.00655739,-0.0122302,0.438632,-0.189121,-0.247381,4.90326e-06,-2.71989e-06,6.64307e-06,0.431316,0.5505845672608995,4.90327202107288e-06,-2.7198863010724494e-06,-0.17231364941300975,6.643092065328204e-06,-0.21915686438447657
561,0.5516,1094.55,0.0146774,0.0101137,0.00631599,-0.00653728,-0.0122244,0.439277,-0.189403,-0.247744,4.90657e-06,-2.72586e-06,6.63388e-06,0.431956,0.5515850169171126,4.906582037333962e-06,-2.7258562848020418e-06,-0.1725470240565039,6.633902004171688e-06,-0.21944025900346975
562,0.5526,1094.81,0.0146624,0.0100911,0.00629169,-0.006509,-0.0122231,0.439921,-0.189685,-0.248106,4.90983e-06,-2.73166e-06,6.62463e-06,0.432596,0.5525845594861689,4.909842053146818e-06,-2.7316562690726798e-06,-0.1727803328976273,6.624651943010207e-06,-0.21972277049204592
563,0.5536,1095.07,0.0146208,0.0100725,0.00626895,-0.00648816,-0.0122177,0.440565,-0.189966,-0.248467,4.91307e-06,-2.73752e-06,6.61543e-06,0.433235,0.5535847459679573,4.913082069180064e-06,-2.7375162530152153e-06,-0.17301274896809582,6.6154518820749075e-06,-0.2200043997347615
564,0.5546,1095.33,0.0146033,0.0100503,0.00624487,-0.00646069,-0.012216,0.441209,-0.190248,-0.248829,4.91626e-06,-2.74324e-06,6.60618e-06,0.433875,0.5545855767772914,4.916272084765083e-06,-2.743236237279234e-06,-0.1732459264933105,6.6062018209134266e-06,-0.22028670704135211
565,0.5556,1095.58,0.0145643,0.0100315,0.00622206,-0.00643926,-0.0122109,0.441852,-0.190529,-0.24919,4.91943e-06,-2.74901e-06,6.59697e-06,0.434513,0.5555854967429767,4.919442100348448e-06,-2.7490062214363675e-06,-0.17347821175035882,6.5969917599773e-06,-0.22056813273971532
566,0.5566,1095.84,0.0145448,0.0100097,0.00619817,-0.00641248,-0.0122088,0.442494,-0.19081,-0.249551,4.92256e-06,-2.75465e-06,6.58771e-06,0.435152,0.5565845032786707,4.922572115928503e-06,-2.7546462059158117e-06,-0.1737104317444198,6.587731699037036e-06,-0.22084945686173707
567,0.5576,1096.1,0.0145078,0.0099907,0.00617531,-0.00639058,-0.0122041,0.443136,-0.191091,-0.249912,4.92566e-06,-2.76032e-06,6.57849e-06,0.435789,0.5575841513824822,4.925672131061987e-06,-2.7603161902867157e-06,-0.17394258649382965,6.5785116383221265e-06,-0.22113067944407971
568,0.5586,1096.36,0.0144867,0.00996935,0.00615159,-0.00636437,-0.0122017,0.443778,-0.191372,-0.250272,4.92872e-06,-2.76588e-06,6.56924e-06,0.436427,0.5585844414664296,4.928732146192161e-06,-2.7658761749815852e-06,-0.17417467601691972,6.569261577604735e-06,-0.2214110219348039
569,0.5596,1096.62,0.0144515,0.0099502,0.0061287,-0.00634211,-0.0121971,0.44442,-0.191653,-0.250633,4.93176e-06,-2.77146e-06,6.56e-06,0.437064,0.559585373942797,4.931772161098635e-06,-2.771456159456065e-06,-0.174406700332016,6.56002151688817e-06,-0.2216920418287427
570,0.5606,1096.87,0.0144291,0.00992917,0.00610513,-0.00631637,-0.0121945,0.445061,-0.191933,-0.250993,4.93476e-06,-2.77693e-06,6.55074e-06,0.437701,0.5605853886379635,4.9347721760018e-06,-2.7769261443655324e-06,-0.174637834095686,6.550761456169951e-06,-0.22197218226538018
571,0.5616,1097.13,0.0143953,0.00990994,0.00608223,-0.00629383,-0.0121902,0.445701,-0.192213,-0.251353,4.93773e-06,-2.78242e-06,6.5415e-06,0.438337,0.5615844829627734,4.937742190680439e-06,-2.78241612905461e-06,-0.17486890315096182,6.5415213956754314e-06,-0.22225222186961147
572,0.5626,1097.38,0.0143719,0.0098892,0.00605879,-0.00626851,-0.0121873,0.446341,-0.192493,-0.251712,4.94066e-06,-2.78781e-06,6.53224e-06,0.438973,0.5625842169126092,4.940672205133723e-06,-2.7878061140684807e-06,-0.17509990751595927,6.532261335179257e-06,-0.2225313832095015
573,0.5636,1097.64,0.0143394,0.00986992,0.0060359,-0.00624575,-0.0121831,0.446981,-0.192773,-0.252072,4.94356e-06,-2.7932e-06,6.52299e-06,0.439608,0.5635845908969623,4.94357221936248e-06,-2.793196098971329e-06,-0.175330847208789,6.52301127468391e-06,-0.22281122153762478
574,0.5646,1097.89,0.0143151,0.00984943,0.00601258,-0.00622077,-0.0121801,0.447621,-0.193053,-0.252431,4.94643e-06,-2.79851e-06,6.51372e-06,0.440243,0.5645856053255855,4.946442233588755e-06,-2.798506084200625e-06,-0.17556172224755673,6.513741214408952e-06,-0.22309018223265198
575,0.5656,1098.15,0.0142836,0.00983012,0.0059897,-0.00619786,-0.012176,0.44826,-0.193332,-0.25279,4.94927e-06,-2.80381e-06,6.50447e-06,0.440878,0.5655856950220166,4.949282247590503e-06,-2.803806069318071e-06,-0.1757917084424836,6.50449115413565e-06,-0.2233690427987639
576,0.5666,1098.4,0.0142587,0.00980987,0.00596649,-0.00617317,-0.0121729,0.448898,-0.193612,-0.253148,4.95207e-06,-2.80904e-06,6.4952e-06,0.441512,0.5665848573943457,4.9520822615889415e-06,-2.80903605465177e-06,-0.17602245445817,6.4952210938606925e-06,-0.22364702691931537
577,0.5676,1098.66,0.0142281,0.00979056,0.00594365,-0.00615015,-0.0121688,0.449536,-0.193891,-0.253507,4.95484e-06,-2.81424e-06,6.48593e-06,0.442146,0.5675846574356629,4.954852275140809e-06,-2.814236039982987e-06,-0.1762523121267403,6.485951033585735e-06,-0.22392568761406373
578,0.5686,1098.91,0.0142027,0.00977051,0.00592054,-0.00612571,-0.0121656,0.450174,-0.19417,-0.253865,4.95758e-06,-2.81939e-06,6.47666e-06,0.442779,0.568585095552931,4.957592288912238e-06,-2.8193860255321113e-06,-0.1764821056739665,6.476680973532822e-06,-0.22420347249143802
579,0.5696,1099.16,0.0141728,0.00975123,0.00589773,-0.00610262,-0.0121616,0.450811,-0.194449,-0.254223,4.96028e-06,-2.82451e-06,6.46739e-06,0.443412,0.5695846025679852,4.960292302236269e-06,-2.8245060110787534e-06,-0.17671183511773592,6.467410913701954e-06,-0.2244811579396251
580,0.5706,1099.41,0.014147,0.00973135,0.00587471,-0.0060784,-0.0121583,0.451448,-0.194728,-0.254581,4.96296e-06,-2.82957e-06,6.45811e-06,0.444045,0.5705847464718354,4.962972315558645e-06,-2.8295659967314535e-06,-0.17694150047593082,6.458130853648214e-06,-0.22475874399421425
581,0.5716,1099.66,0.0141177,0.00971211,0.00585194,-0.00605526,-0.0121544,0.452085,-0.195006,-0.254938,4.9656e-06,-2.8346e-06,6.44883e-06,0.444677,0.5715855276703092,4.965612328655666e-06,-2.8345959824926936e-06,-0.177170278937119,6.4488507938165185e-06,-0.2250354557266252
582,0.5726,1099.92,0.0140917,0.00969241,0.00582902,-0.00603124,-0.0121509,0.452721,-0.195284,-0.255295,4.96821e-06,-2.83958e-06,6.43955e-06,0.445309,0.5725853739833322,4.968222341528161e-06,-2.839575968360819e-06,-0.17739899380673463,6.439570733984823e-06,-0.22531206869057885
583,0.5736,1100.17,0.0140629,0.00967321,0.00580629,-0.00600808,-0.0121471,0.453356,-0.195563,-0.255652,4.97079e-06,-2.84452e-06,6.43027e-06,0.44594,0.5735842828158004,4.970802354398174e-06,-2.844515954336657e-06,-0.1776284674743973,6.430290674153127e-06,-0.22558858292132933
584,0.5746,1100.42,0.0140367,0.00965366,0.00578345,-0.00598423,-0.0121436,0.453992,-0.195841,-0.256009,4.97333e-06,-2.84941e-06,6.42098e-06,0.446571,0.574585400741426,4.973342367042832e-06,-2.8494059404193806e-06,-0.17785705498530324,6.421000614542649e-06,-0.22586499845411812
585,0.5756,1100.67,0.0140083,0.00963453,0.00576078,-0.00596107,-0.0121397,0.454627,-0.196118,-0.256366,4.97585e-06,-2.85427e-06,6.4117e-06,0.447202,0.5755855799942013,4.975862379463791e-06,-2.854265926610644e-06,-0.1780847570428814,6.411720554932998e-06,-0.22614131532417403
586,0.5766,1100.91,0.013982,0.00961513,0.00573803,-0.00593738,-0.0121362,0.455261,-0.196396,-0.256722,4.97833e-06,-2.85908e-06,6.4024e-06,0.447832,0.5765848179768875,4.978342391881441e-06,-2.8590759127977705e-06,-0.17831321772291753,6.402420495321692e-06,-0.22641675998386013
587,0.5776,1101.16,0.013954,0.00959607,0.00571541,-0.00591424,-0.0121323,0.455895,-0.196674,-0.257078,4.98078e-06,-2.86386e-06,6.39311e-06,0.448462,0.5775846896773218,4.980792404074563e-06,-2.8638558992044594e-06,-0.1785416148997121,6.393130435933259e-06,-0.22669210660269967
588,0.5786,1101.41,0.0139277,0.0095768,0.00569273,-0.00589068,-0.0121287,0.456529,-0.196951,-0.257434,4.9832e-06,-2.86858e-06,6.38382e-06,0.449091,0.578585195497409,4.983212416265204e-06,-2.868575885606184e-06,-0.17876912736045425,6.383840376544825e-06,-0.22696735521558897
589,0.5796,1101.66,0.0139,0.00955781,0.00567017,-0.00586757,-0.0121249,0.457162,-0.197228,-0.25779,4.98559e-06,-2.87327e-06,6.37453e-06,0.44972,0.5795847562537622,4.9856024280092726e-06,-2.8732658721164483e-06,-0.17899657680897252,6.374550317378436e-06,-0.22724250585741212
590,0.5806,1101.91,0.0138736,0.00953867,0.00564757,-0.00584414,-0.0121213,0.457795,-0.197505,-0.258145,4.98794e-06,-2.87792e-06,6.36523e-06,0.450349,0.5805849499323728,4.987952439750032e-06,-2.877915858845448e-06,-0.1792239632627186,6.365250258211219e-06,-0.22751678608021264
591,0.5816,1102.15,0.0138462,0.00951977,0.00562507,-0.00582107,-0.0121174,0.458427,-0.197782,-0.2585,4.99027e-06,-2.88252e-06,6.35593e-06,0.450977,0.5815841953490215,4.990282451489136e-06,-2.8825158455703104e-06,-0.1794512867391399,6.355950199044003e-06,-0.2277909689508152
592,0.5826,1102.4,0.0138199,0.00950075,0.00560254,-0.00579776,-0.0121138,0.45906,-0.198058,-0.258855,4.99256e-06,-2.88708e-06,6.34662e-06,0.451605,0.5825856550732407,4.992572462780842e-06,-2.8870758324028856e-06,-0.17967772693381556,6.346640139875959e-06,-0.22806505450377346
593,0.5836,1102.65,0.0137927,0.00948193,0.0055801,-0.00577474,-0.0121099,0.459691,-0.198335,-0.25921,4.99483e-06,-2.8916e-06,6.33732e-06,0.452232,0.5835845817498138,4.994842474292938e-06,-2.8915958193431734e-06,-0.17990492473510666,6.337340080930787e-06,-0.22833904277362926
594,0.5846,1102.89,0.0137664,0.00946303,0.00555765,-0.00575154,-0.0121062,0.460322,-0.198611,-0.259565,4.99706e-06,-2.89608e-06,6.32802e-06,0.452859,0.5845841389480286,4.997072485357634e-06,-2.896075806391174e-06,-0.18013123974297207,6.328040021985615e-06,-0.22861293379491188
595,0.5856,1103.14,0.0137395,0.00944429,0.00553527,-0.00572858,-0.0121024,0.460953,-0.198887,-0.259919,4.99926e-06,-2.90052e-06,6.31871e-06,0.453486,0.5855843270658696,4.999272496419849e-06,-2.9005157935468873e-06,-0.18035749229651432,6.3187299630396154e-06,-0.22888595648848065
596,0.5866,1103.38,0.0137132,0.00942551,0.0055129,-0.00570549,-0.0120986,0.461584,-0.199163,-0.260273,5.00143e-06,-2.90492e-06,6.3094e-06,0.454112,0.586585146501573,5.001442507257536e-06,-2.904915780699291e-06,-0.18058368241296863,6.309419904315661e-06,-0.22915888254912076
597,0.5876,1103.63,0.0136865,0.00940687,0.00549058,-0.00568259,-0.0120948,0.462214,-0.199439,-0.260627,5.00357e-06,-2.90927e-06,6.30009e-06,0.454738,0.5875850100678219,5.003582517870697e-06,-2.909265768069602e-06,-0.18080981010956498,6.300109845591706e-06,-0.22943171201103452
598,0.5886,1103.87,0.0136603,0.00938819,0.00546828,-0.00565959,-0.012091,0.462844,-0.199715,-0.26098,5.00568e-06,-2.91359e-06,6.29078e-06,0.455363,0.5885855037465819,5.005692528481376e-06,-2.9135857555484534e-06,-0.18103587540352917,6.290799787089796e-06,-0.22970367461247132
599,0.5896,1104.11,0.0136338,0.00936964,0.00544603,-0.00563676,-0.0120872,0.463473,-0.19999,-0.261334,5.00776e-06,-2.91786e-06,6.28147e-06,0.455988,0.5895850383491164,5.007772538867528e-06,-2.9178557430231677e-06,-0.18126105957355065,6.281489728365841e-06,-0.22997631125212614
600,0.5906,1104.36,0.0136077,0.00935107,0.00542379,-0.00561386,-0.0120834,0.464102,-0.200265,-0.261687,5.0098e-06,-2.9221e-06,6.27215e-06,0.456613,0.5905852018566857,5.009812549028325e-06,-2.9220957307174444e-06,-0.1814861818264395,6.2721696698631035e-06,-0.23024808164395794
601,0.5916,1104.6,0.0135814,0.00933261,0.00540161,-0.0055911,-0.0120795,0.46473,-0.200541,-0.26204,5.01182e-06,-2.92629e-06,6.26284e-06,0.457237,0.5915844030797965,5.011832559187468e-06,-2.926285718407584e-06,-0.18171206046756905,6.262859611583238e-06,-0.23051975611777187
602,0.5926,1104.84,0.0135554,0.00931415,0.00537945,-0.0055683,-0.0120757,0.465358,-0.200815,-0.262392,5.01381e-06,-2.93044e-06,6.25352e-06,0.457861,0.5925842319983514,5.013822569122084e-06,-2.9304357063164588e-06,-0.18193624064891345,6.253539553302545e-06,-0.2307905654983713
603,0.5936,1105.08,0.0135292,0.00929578,0.00535734,-0.00554561,-0.0120719,0.465986,-0.20109,-0.262745,5.01576e-06,-2.93456e-06,6.2442e-06,0.458485,0.5935846890066667,5.01577257905339e-06,-2.9345556942228512e-06,-0.18216117725253445,6.244219495021852e-06,-0.23106204850917977
604,0.5946,1105.33,0.0135033,0.00927743,0.00533525,-0.0055229,-0.012068,0.466613,-0.201365,-0.263097,5.01769e-06,-2.93863e-06,6.23488e-06,0.459108,0.5945841799143292,5.0177025885389526e-06,-2.938625682236129e-06,-0.18238605200709412,6.234899436963204e-06,-0.2313326670364496
605,0.5956,1105.57,0.0134773,0.00925915,0.0053132,-0.00550029,-0.0120641,0.46724,-0.201639,-0.263449,5.01958e-06,-2.94266e-06,6.22556e-06,0.459731,0.5955842976992967,5.019592598021205e-06,-2.9426556703571194e-06,-0.18261004754005472,6.2255793789045555e-06,-0.2316031903227611
606,0.5966,1105.81,0.0134516,0.0092409,0.00529118,-0.00547767,-0.0120603,0.467867,-0.201914,-0.263801,5.02145e-06,-2.94666e-06,6.21624e-06,0.460353,0.5965850427547437,5.021462607501803e-06,-2.94665565858665e-06,-0.18283479887225662,6.216259320845907e-06,-0.23187361840163334
607,0.5976,1106.05,0.0134257,0.00922272,0.0052692,-0.00545513,-0.0120564,0.468493,-0.202188,-0.264152,5.02328e-06,-2.95061e-06,6.20692e-06,0.460975,0.5975848178884762,5.023292616757047e-06,-2.9506056469230657e-06,-0.18305867146541976,6.2069392630093034e-06,-0.23214318345014084
608,0.5986,1106.29,0.0134,0.00920456,0.00524725,-0.0054326,-0.0120525,0.469119,-0.202462,-0.264504,5.02509e-06,-2.95452e-06,6.19759e-06,0.461596,0.598585219077377,5.025102625788591e-06,-2.954515635367194e-06,-0.1832824827258953,6.197609205171872e-06,-0.23241342148488198
609,0.5996,1106.53,0.0133743,0.00918648,0.00522534,-0.00541015,-0.0120486,0.469744,-0.202735,-0.264855,5.02687e-06,-2.9584e-06,6.18827e-06,0.462218,0.5995846471280326,5.026882634817653e-06,-2.9583956239198628e-06,-0.18350541617631055,6.188289147335269e-06,-0.23268279709575546
610,0.6006,1106.76,0.0133488,0.00916842,0.00520346,-0.0053877,-0.0120447,0.470369,-0.203009,-0.265206,5.02861e-06,-2.96223e-06,6.17894e-06,0.462838,0.6005847000164615,5.028622643399316e-06,-2.9622256125794166e-06,-0.18372910504550377,6.178959089719882e-06,-0.23295207817238117
611,0.6016,1107.0,0.0133232,0.00915043,0.00518162,-0.00536533,-0.0120408,0.470994,-0.203282,-0.265556,5.03033e-06,-2.96603e-06,6.16962e-06,0.463459,0.6015853781333091,5.0303426522013694e-06,-2.9660256013475106e-06,-0.18395191658466736,6.169639032105323e-06,-0.2332204979688164
612,0.6026,1107.24,0.0132978,0.00913247,0.00515981,-0.00534297,-0.0120369,0.471618,-0.203556,-0.265907,5.03201e-06,-2.96978e-06,6.16029e-06,0.464079,0.602585079283585,5.032022660556024e-06,-2.96977559022249e-06,-0.18417548312950782,6.160308974711981e-06,-0.2334895903455545
613,0.6036,1107.48,0.0132724,0.00911458,0.00513804,-0.00532067,-0.0120329,0.472242,-0.203829,-0.266257,5.03367e-06,-2.9735e-06,6.15096e-06,0.464698,0.6035854044420488,5.033682668909023e-06,-2.973495579206009e-06,-0.1843981728240871,6.1509789170965945e-06,-0.23375782204564788
614,0.6046,1107.72,0.0132471,0.00909672,0.0051163,-0.0052984,-0.012029,0.472865,-0.204102,-0.266607,5.0353e-06,-2.97718e-06,6.14163e-06,0.465318,0.6045847494126517,5.035312677037496e-06,-2.977175568186219e-06,-0.18462080173267736,6.141648859925297e-06,-0.23402595988107344
615,0.6056,1107.95,0.0132218,0.00907891,0.0050946,-0.00527619,-0.0120251,0.473488,-0.204375,-0.266957,5.0369e-06,-2.98082e-06,6.1323e-06,0.465937,0.6055847171691489,5.036912685163486e-06,-2.9808155573851636e-06,-0.1848433698718711,6.132318802531955e-06,-0.23429400388467814
616,0.6066,1108.19,0.0131967,0.00906115,0.00507293,-0.00525401,-0.0120211,0.474111,-0.204647,-0.267306,5.03847e-06,-2.98442e-06,6.12297e-06,0.466555,0.6065853080996568,5.0384826930649496e-06,-2.9844155465807987e-06,-0.18506506232372566,6.122988745360658e-06,-0.23456118865086872
617,0.6076,1108.42,0.0131715,0.00904344,0.0050513,-0.00523188,-0.0120172,0.474733,-0.20492,-0.267656,5.04001e-06,-2.98798e-06,6.11364e-06,0.467173,0.6075849150068153,5.040022700963931e-06,-2.9879755359951687e-06,-0.18528750919633163,6.113658688411405e-06,-0.23482904535718296
618,0.6086,1108.66,0.0131465,0.00902577,0.0050297,-0.00520978,-0.0120132,0.475355,-0.205192,-0.268005,5.04152e-06,-2.9915e-06,6.10431e-06,0.467791,0.6085851438628762,5.041532708416341e-06,-2.9914955255172515e-06,-0.1855090808587181,6.104328631240108e-06,-0.23509604342648016
619,0.6096,1108.9,0.0131215,0.00900815,0.00500814,-0.00518773,-0.0120092,0.475976,-0.205464,-0.268354,5.043e-06,-2.99499e-06,6.09498e-06,0.468408,0.6095843854696215,5.0430127158662685e-06,-2.994985515036852e-06,-0.185730592261808,6.0949985745129e-06,-0.2353629483297096
620,0.6106,1109.13,0.0130966,0.00899057,0.00498661,-0.00516572,-0.0120052,0.476597,-0.205736,-0.268702,5.04445e-06,-2.99843e-06,6.08565e-06,0.469025,0.6105842477981187,5.044462723313714e-06,-2.998425504663338e-06,-0.18595204342198968,6.085668517563647e-06,-0.2356289957287585
621,0.6116,1109.36,0.0130717,0.00897305,0.00496512,-0.00514375,-0.0120012,0.477218,-0.206008,-0.269051,5.04587e-06,-3.00184e-06,6.07631e-06,0.469642,0.611584731233956,5.045882730314588e-06,-3.001835494509386e-06,-0.18617343435564693,6.076328460835612e-06,-0.23589571466408765
622,0.6126,1109.6,0.0130469,0.00895556,0.00494366,-0.00512182,-0.0119973,0.477838,-0.206279,-0.269399,5.04727e-06,-3.00521e-06,6.06698e-06,0.470258,0.6125842235779306,5.047282737535852e-06,-3.0052054843521248e-06,-0.18639395147351756,6.0669984041084035e-06,-0.23616157669270854
623,0.6136,1109.83,0.0130222,0.00893813,0.00492224,-0.00509994,-0.0119933,0.478458,-0.206551,-0.269747,5.04864e-06,-3.00854e-06,6.05765e-06,0.470874,0.6135843357993005,5.0486527443105444e-06,-3.008535474302576e-06,-0.18661522222453042,6.05766834760324e-06,-0.23642734621744
624,0.6146,1110.07,0.0129975,0.00892074,0.00490085,-0.0050781,-0.0119892,0.479078,-0.206822,-0.270095,5.04997e-06,-3.01184e-06,6.04831e-06,0.471489,0.6145850682825091,5.049982751081927e-06,-3.0118354643615675e-06,-0.18683561963410966,6.048328291097249e-06,-0.23669302327046793
625,0.6156,1110.3,0.0129729,0.0089034,0.0048795,-0.0050563,-0.0119852,0.479697,-0.207093,-0.270442,5.05128e-06,-3.01509e-06,6.03898e-06,0.472104,0.6155848058266242,5.051292757629611e-06,-3.0150854546384664e-06,-0.1870559573240833,6.038998234592086e-06,-0.23695784484219318
626,0.6166,1110.53,0.0129483,0.0088861,0.00485819,-0.00503455,-0.0119812,0.480316,-0.207364,-0.27079,5.05256e-06,-3.01831e-06,6.02964e-06,0.472719,0.6165851623998488,5.052572764174812e-06,-3.0183054449128832e-06,-0.1872762353106332,6.029658178308139e-06,-0.23722333731381862
627,0.6176,1110.76,0.0129238,0.00886885,0.00483691,-0.00501283,-0.0119772,0.480934,-0.207635,-0.271137,5.05381e-06,-3.02149e-06,6.02031e-06,0.473333,0.6175845208001509,5.053822770495486e-06,-3.0214854352950127e-06,-0.18749645360993672,6.0203281220250204e-06,-0.23748797489849438
628,0.6186,1110.99,0.0128994,0.00885164,0.00481566,-0.00499116,-0.0119731,0.481552,-0.207906,-0.271484,5.05504e-06,-3.02464e-06,6.01098e-06,0.473947,0.6185844969948233,5.055052776814506e-06,-3.0246354257856822e-06,-0.18771661223816694,6.010998065963946e-06,-0.23775252066985886
629,0.6196,1111.22,0.0128751,0.00883448,0.00479445,-0.00496953,-0.0119691,0.48217,-0.208176,-0.27183,5.05623e-06,-3.02775e-06,6.00164e-06,0.47456,0.619585091365781,5.056242782686127e-06,-3.0277454163840645e-06,-0.18793589914779762,6.0016580099020445e-06,-0.2380162126763593
630,0.6206,1111.46,0.0128508,0.00881736,0.00477328,-0.00494795,-0.011965,0.482787,-0.208447,-0.272177,5.0574e-06,-3.03082e-06,5.99231e-06,0.475174,0.6205846837096807,5.057412788778137e-06,-3.0308154070901594e-06,-0.1881559387024223,5.99232795384097e-06,-0.23828057518101342
631,0.6216,1111.69,0.0128265,0.00880029,0.00475214,-0.0049264,-0.011961,0.483404,-0.208717,-0.272523,5.05854e-06,-3.03385e-06,5.98297e-06,0.475786,0.6215848929923624,5.058552794423576e-06,-3.033845397903967e-06,-0.18837510700991966,5.982987898001113e-06,-0.23854408451225761
632,0.6226,1111.92,0.0128023,0.00878326,0.00473104,-0.0049049,-0.0119569,0.484021,-0.208987,-0.272869,5.05965e-06,-3.03684e-06,5.97364e-06,0.476399,0.6225857195945952,5.059662800066533e-06,-3.0368353888254873e-06,-0.18859421614996197,5.973657842162083e-06,-0.23880750268504447
633,0.6236,1112.15,0.0127782,0.00876628,0.00470997,-0.00488344,-0.0119529,0.484637,-0.209257,-0.273215,5.06073e-06,-3.0398e-06,5.9643e-06,0.477011,0.6235855403110304,5.0607428054849635e-06,-3.0397953798555477e-06,-0.18881326613852234,5.964317786544271e-06,-0.23907082973090943
634,0.6246,1112.37,0.0127542,0.00874934,0.00468894,-0.00486203,-0.0119488,0.485252,-0.209526,-0.273561,5.06179e-06,-3.04272e-06,5.95497e-06,0.477622,0.6245843525215953,5.061802810901739e-06,-3.0427153708822985e-06,-0.18903144602342092,5.954987730927286e-06,-0.23933406568137705
635,0.6256,1112.6,0.0127302,0.00873245,0.00466795,-0.00484065,-0.0119447,0.485868,-0.209796,-0.273906,5.06281e-06,-3.04561e-06,5.94563e-06,0.478234,0.6255854047751881,5.06282281609316e-06,-3.0456053621286117e-06,-0.18925037797585098,5.945647675309473e-06,-0.23959645016479103
636,0.6266,1112.83,0.0127063,0.0087156,0.00464699,-0.00481932,-0.0119406,0.486483,-0.210065,-0.274251,5.06381e-06,-3.04846e-06,5.9363e-06,0.478844,0.6265854472806751,5.0638228210608816e-06,-3.0484553534826375e-06,-0.18946844029347887,5.936317619914533e-06,-0.2398587441411717
637,0.6276,1113.06,0.0126824,0.00869879,0.00462607,-0.00479803,-0.0119365,0.487097,-0.210334,-0.274596,5.06478e-06,-3.05127e-06,5.92697e-06,0.479455,0.6275844774161712,5.064792826026121e-06,-3.0512653448333538e-06,-0.18968644396023215,5.926987564519592e-06,-0.2401209476417384
638,0.6286,1113.29,0.0126586,0.00868203,0.00460518,-0.00477679,-0.0119324,0.487711,-0.210603,-0.274941,5.06573e-06,-3.05405e-06,5.91763e-06,0.480065,0.6285841211445242,5.065742830767661e-06,-3.0540453364036324e-06,-0.1899043889918859,5.9176475091238245e-06,-0.2403830606977
639,0.6296,1113.52,0.0126348,0.00866531,0.00458433,-0.00475558,-0.0119283,0.488325,-0.210872,-0.275285,5.06664e-06,-3.05679e-06,5.9083e-06,0.480675,0.6295843788425959,5.0666528355058915e-06,-3.0567853279706014e-06,-0.19012227540421067,5.908317453950929e-06,-0.24064432398495816
640,0.6306,1113.74,0.0126111,0.00864863,0.00456351,-0.00473442,-0.0119242,0.488939,-0.211141,-0.27563,5.06753e-06,-3.05949e-06,5.89897e-06,0.481284,0.6305852508874792,5.0675428400204225e-06,-3.0594853197563054e-06,-0.19034010321297312,5.898987399000077e-06,-0.2409062565072252
641,0.6316,1113.97,0.0125875,0.008632,0.00454273,-0.00471331,-0.0119201,0.489552,-0.21141,-0.275974,5.06839e-06,-3.06216e-06,5.88964e-06,0.481893,0.6315851060705773,5.068402844310427e-06,-3.0621553115395272e-06,-0.19055787243393552,5.889657344049226e-06,-0.24116733984607786
642,0.6326,1114.19,0.012564,0.00861541,0.00452198,-0.00469223,-0.0119159,0.490165,-0.211678,-0.276318,5.06923e-06,-3.06479e-06,5.8803e-06,0.482502,0.6325855743527984,5.069242848598776e-06,-3.064785303541484e-06,-0.1907747738580341,5.8803172890975475e-06,-0.24142833338770786
643,0.6336,1114.42,0.0125404,0.00859887,0.00450128,-0.0046712,-0.0119118,0.490777,-0.211946,-0.276661,5.07004e-06,-3.06739e-06,5.87097e-06,0.48311,0.6335850225242479,5.070052852662599e-06,-3.0673852955409586e-06,-0.19099161716033985,5.870987234146696e-06,-0.2416884788518583
644,0.6346,1114.65,0.012517,0.00858237,0.0044806,-0.00465021,-0.0119077,0.491389,-0.212214,-0.277005,5.07081e-06,-3.06995e-06,5.86164e-06,0.483718,0.6345850825451853,5.070822856501067e-06,-3.069945287759168e-06,-0.191208402356427,5.8616571794178896e-06,-0.24194929315250158
645,0.6356,1114.87,0.0124936,0.00856591,0.00445997,-0.00462926,-0.0119035,0.492,-0.212482,-0.277348,5.07157e-06,-3.07247e-06,5.85231e-06,0.484326,0.6355841192052398,5.071582860338708e-06,-3.072465279974068e-06,-0.19142512946186618,5.852327124689083e-06,-0.24220925995809428
646,0.6366,1115.1,0.0124703,0.00854949,0.00443937,-0.00460836,-0.0118994,0.492612,-0.21275,-0.277691,5.07229e-06,-3.07496e-06,5.84298e-06,0.484933,0.6365854030477973,5.0723028641730394e-06,-3.074955272297508e-06,-0.19164179849222351,5.842997070182321e-06,-0.24246913761036348
647,0.6376,1115.32,0.012447,0.00853312,0.0044188,-0.0045875,-0.0118952,0.493223,-0.213018,-0.278034,5.07299e-06,-3.07742e-06,5.83365e-06,0.48554,0.6375856622771359,5.073002867561627e-06,-3.0774152647294883e-06,-0.19185840946306099,5.833667015675559e-06,-0.2427289261398834
648,0.6386,1115.54,0.0124238,0.00851678,0.00439827,-0.00456668,-0.011891,0.493833,-0.213285,-0.278376,5.07366e-06,-3.07984e-06,5.82432e-06,0.486146,0.6385848942658969,5.073672870947732e-06,-3.079835257269181e-06,-0.19207415446449505,5.824336961390841e-06,-0.24298786856546484
649,0.6396,1115.77,0.0124006,0.0085005,0.00437778,-0.0045459,-0.0118869,0.494443,-0.213552,-0.278719,5.07431e-06,-3.08222e-06,5.815e-06,0.486752,0.6395847359721163,5.074322874332182e-06,-3.0822152499165867e-06,-0.192289841869703,5.815016907106951e-06,-0.2432474792007776
650,0.6406,1115.99,0.0123775,0.00848425,0.00435732,-0.00452517,-0.0118827,0.495053,-0.213819,-0.279061,5.07493e-06,-3.08457e-06,5.80567e-06,0.487358,0.6405851877678346,5.074942877492106e-06,-3.0845652426725323e-06,-0.1925054716940613,5.8056868530442785e-06,-0.2435062443115349
651,0.6416,1116.21,0.0123545,0.00846804,0.0043369,-0.00450448,-0.0118785,0.495662,-0.214086,-0.279403,5.07552e-06,-3.08689e-06,5.79634e-06,0.487963,0.6415846084398908,5.075532880427502e-06,-3.086885235537018e-06,-0.19272104395294176,5.796356798759561e-06,-0.24376492093975555
652,0.6426,1116.44,0.0123315,0.00845188,0.00431652,-0.00448383,-0.0118743,0.496271,-0.214353,-0.279745,5.07609e-06,-3.08917e-06,5.78702e-06,0.488568,0.6425846379445073,5.076102883361244e-06,-3.0891652285092164e-06,-0.19293655866171233,5.78703674491976e-06,-0.2440235091156957
653,0.6436,1116.66,0.0123086,0.00843576,0.00429617,-0.00446323,-0.0118701,0.49688,-0.21462,-0.280086,5.07663e-06,-3.09141e-06,5.77769e-06,0.489173,0.6435852766525756,5.076642886070459e-06,-3.0914052215891274e-06,-0.19315201583573693,5.777706690857087e-06,-0.24428125315123161
654,0.6446,1116.88,0.0122857,0.00841968,0.00427586,-0.00444266,-0.0118659,0.497488,-0.214886,-0.280427,5.07714e-06,-3.09362e-06,5.76837e-06,0.489777,0.6445848803495111,5.077152888777192e-06,-3.0936152147775786e-06,-0.19336660885738743,5.7683866370172865e-06,-0.24453890931103506
655,0.6456,1117.1,0.0122629,0.00840364,0.00425558,-0.00442214,-0.0118617,0.498096,-0.215153,-0.280769,5.07763e-06,-3.0958e-06,5.75905e-06,0.490381,0.6455850919902906,5.077642891260226e-06,-3.0957952079635476e-06,-0.19358195122333743,5.75906658339953e-06,-0.2447972328282113
656,0.6466,1117.32,0.0122402,0.00838764,0.00423534,-0.00440167,-0.0118575,0.498703,-0.215419,-0.281109,5.07809e-06,-3.09794e-06,5.74973e-06,0.490984,0.6465842653595675,5.078102893518732e-06,-3.0979352013682515e-06,-0.19379642989738366,5.749746529781774e-06,-0.24505395812327646
657,0.6476,1117.54,0.0122175,0.00837168,0.00421514,-0.00438124,-0.0118533,0.499311,-0.215685,-0.28145,5.07852e-06,-3.10005e-06,5.74041e-06,0.491587,0.6475856929960584,5.078532895774757e-06,-3.1000451948814955e-06,-0.19401085152768982,5.740426476164018e-06,-0.24531135083560485
658,0.6486,1117.76,0.0121949,0.00835577,0.00419497,-0.00436085,-0.0118491,0.499917,-0.215951,-0.281791,5.07893e-06,-3.10212e-06,5.73109e-06,0.49219,0.6485844325135233,5.078942897807082e-06,-3.10211518839143e-06,-0.19422521612942756,5.731106422768306e-06,-0.2455686557919815
659,0.6496,1117.98,0.0121723,0.00833989,0.00417484,-0.0043405,-0.0118449,0.500524,-0.216216,-0.282131,5.07931e-06,-3.10416e-06,5.72177e-06,0.492792,0.6495854270351618,5.07932289961488e-06,-3.1041551821209268e-06,-0.19443871815688518,5.7217863693725945e-06,-0.2458251188478222
660,0.6506,1118.2,0.0121498,0.00832406,0.00415474,-0.00432019,-0.0118406,0.50113,-0.216482,-0.282471,5.07967e-06,-3.10617e-06,5.71245e-06,0.493394,0.6505853787587157,5.079682901643068e-06,-3.1061651758479414e-06,-0.19465296896123518,5.712466315976883e-06,-0.24608149472104568
661,0.6516,1118.42,0.0121273,0.00830827,0.00413468,-0.00429993,-0.0118364,0.501735,-0.216747,-0.282811,5.08e-06,-3.10814e-06,5.70314e-06,0.493996,0.6515842850515496,5.080012903224684e-06,-3.1081351696826687e-06,-0.19486635764921045,5.703156263026088e-06,-0.2463377834412892
662,0.6526,1118.64,0.0121049,0.00829251,0.00411466,-0.00427971,-0.0118321,0.502341,-0.217013,-0.28315,5.0803e-06,-3.11008e-06,5.69382e-06,0.494597,0.6525854484501621,5.080312904803819e-06,-3.1100751637369584e-06,-0.19508049471658317,5.693836209852421e-06,-0.24659323163178792
663,0.6536,1118.86,0.0120825,0.0082768,0.00409467,-0.00425954,-0.0118279,0.502946,-0.217278,-0.28349,5.08058e-06,-3.11198e-06,5.68451e-06,0.495198,0.6535855651512708,5.080592906159254e-06,-3.1119751577879384e-06,-0.19529377012524352,5.684526156901626e-06,-0.24684934639105682
664,0.6546,1119.08,0.0120602,0.00826113,0.00407472,-0.00423941,-0.0118236,0.50355,-0.217543,-0.283829,5.08083e-06,-3.11385e-06,5.67519e-06,0.495799,0.6545846325205948,5.080842907512206e-06,-3.1138451519474586e-06,-0.19550698902340857,5.6752061039500035e-06,-0.24710462119110688
665,0.6556,1119.29,0.012038,0.0082455,0.00405481,-0.00421932,-0.0118194,0.504154,-0.217807,-0.284168,5.08106e-06,-3.11569e-06,5.66588e-06,0.496399,0.6555843035088844,5.08107290864146e-06,-3.115685146215519e-06,-0.19571934714580086,5.665896051221253e-06,-0.24735980946766634
666,0.6566,1119.51,0.0120158,0.0082299,0.00403493,-0.00419927,-0.0118151,0.504758,-0.218072,-0.284507,5.08126e-06,-3.1175e-06,5.65657e-06,0.496999,0.6565845784808355,5.081272909546186e-06,-3.117495140592119e-06,-0.19593245328099718,5.656585998492503e-06,-0.24761491125006174
667,0.6576,1119.73,0.0119937,0.00821435,0.00401509,-0.00417926,-0.0118109,0.505362,-0.218336,-0.284845,5.08144e-06,-3.11927e-06,5.64726e-06,0.497598,0.6575854578013647,5.081452910449258e-06,-3.1192651350764322e-06,-0.1961446990956508,5.647275945763752e-06,-0.24786917443715994
668,0.6586,1119.95,0.0119716,0.00819884,0.00399528,-0.0041593,-0.0118066,0.505965,-0.218601,-0.285184,5.08159e-06,-3.12101e-06,5.63796e-06,0.498198,0.6585852832494961,5.081602911349847e-06,-3.1210051296692853e-06,-0.19635769252751423,5.637975893257874e-06,-0.24812410357409553
669,0.6596,1120.16,0.0119496,0.00818337,0.00397551,-0.00413939,-0.0118023,0.506568,-0.218865,-0.285522,5.08172e-06,-3.12271e-06,5.62865e-06,0.498796,0.6595857117741821,5.081732912026737e-06,-3.122705124369851e-06,-0.19656982609382412,5.628665840973213e-06,-0.24837819468327105
670,0.6606,1120.38,0.0119276,0.00816793,0.00395578,-0.00411951,-0.011798,0.50717,-0.219129,-0.28586,5.08182e-06,-3.12439e-06,5.61935e-06,0.499395,0.6605850831532738,5.081832912479101e-06,-3.124385119068762e-06,-0.1967819036642643,5.619365788467334e-06,-0.2486321999241642
671,0.6616,1120.59,0.0119057,0.00815254,0.00393609,-0.00409968,-0.0117937,0.507772,-0.219393,-0.286198,5.08189e-06,-3.12603e-06,5.61004e-06,0.499993,0.6615850563350603,5.081902912928982e-06,-3.126025113986408e-06,-0.1969939252536158,5.610055736404718e-06,-0.24888611932579352
672,0.6626,1120.81,0.0118838,0.00813718,0.00391643,-0.00407989,-0.0117894,0.508374,-0.219656,-0.286535,5.08194e-06,-3.12763e-06,5.60074e-06,0.50059,0.6625856316819356,5.081952913155163e-06,-3.127625109011767e-06,-0.19720508808214499,5.600755684120884e-06,-0.24913920205674533
673,0.6636,1121.02,0.011862,0.00812186,0.0038968,-0.00406014,-0.0117851,0.508975,-0.21992,-0.286873,5.08197e-06,-3.12921e-06,5.59144e-06,0.501188,0.6635851459705346,5.0819829131576455e-06,-3.1292051040354707e-06,-0.1974169979655559,5.591455632059095e-06,-0.2493929501206117
674,0.6646,1121.24,0.0118403,0.00810659,0.00387722,-0.00404044,-0.0117808,0.509576,-0.220183,-0.28721,5.08197e-06,-3.13075e-06,5.58214e-06,0.501785,0.6645852611477703,5.0819829131576455e-06,-3.1307450991668873e-06,-0.19762804954059232,5.58215558021935e-06,-0.2496458620783626
675,0.6656,1121.45,0.0118186,0.00809135,0.00385767,-0.00402078,-0.0117765,0.510176,-0.220447,-0.287547,5.08195e-06,-3.13226e-06,5.57285e-06,0.502381,0.66558431198974,5.081962913155991e-06,-3.1322550945178662e-06,-0.19783984777691632,5.572865528380433e-06,-0.24989868881914357
676,0.6666,1121.67,0.0117969,0.00807615,0.00383815,-0.00400116,-0.0117722,0.510777,-0.22071,-0.287883,5.0819e-06,-3.13374e-06,5.56355e-06,0.502978,0.6665856290268759,5.081912912929809e-06,-3.133735089866363e-06,-0.1980507881570751,5.563565476540688e-06,-0.2501506805227234
677,0.6676,1121.88,0.0117753,0.00806099,0.00381867,-0.00398159,-0.0117679,0.511376,-0.220972,-0.28822,5.08183e-06,-3.13519e-06,5.55426e-06,0.503574,0.6675842128646647,5.081842912479928e-06,-3.1351850853234e-06,-0.1982608713284807,5.554275424923816e-06,-0.2504033371683513
678,0.6686,1122.09,0.0117538,0.00804587,0.00379923,-0.00396206,-0.0117636,0.511976,-0.221235,-0.288556,5.08173e-06,-3.1366e-06,5.54497e-06,0.504169,0.6685850636175836,5.081742912027565e-06,-3.1365950808881493e-06,-0.19847170099400502,5.544985373306943e-06,-0.25065515933856897
679,0.6696,1122.31,0.0117323,0.00803078,0.00377983,-0.00394257,-0.0117593,0.512575,-0.221498,-0.288892,5.08161e-06,-3.13798e-06,5.53568e-06,0.504764,0.6695848454754636,5.081622911351502e-06,-3.137975076561439e-06,-0.19868247521861815,5.535695321912115e-06,-0.25090689691075074
680,0.6706,1122.52,0.0117109,0.00801573,0.00376046,-0.00392312,-0.0117549,0.513174,-0.22176,-0.289228,5.08146e-06,-3.13934e-06,5.52639e-06,0.505359,0.6705852263820733,5.081472910672957e-06,-3.1393350722330737e-06,-0.19889239290969263,5.526405270517287e-06,-0.25115854991331676
681,0.6716,1122.73,0.0116895,0.00800072,0.00374113,-0.00390372,-0.0117506,0.513772,-0.222023,-0.289564,5.08129e-06,-3.14065e-06,5.5171e-06,0.505954,0.6715845351109802,5.081302909770713e-06,-3.140645068122616e-06,-0.19910305650687998,5.517115219122459e-06,-0.2514101183746775
682,0.6726,1122.94,0.0116682,0.00798575,0.00372183,-0.00388436,-0.0117463,0.51437,-0.222285,-0.289899,5.08109e-06,-3.14194e-06,5.50782e-06,0.506548,0.6725844416052207,5.0811029088659865e-06,-3.141935064121526e-06,-0.19931286402009085,5.507835168172548e-06,-0.2516608539844626
683,0.6736,1123.16,0.0116469,0.00797082,0.00370257,-0.00386504,-0.0117419,0.514968,-0.222547,-0.290235,5.08087e-06,-3.1432e-06,5.49853e-06,0.507141,0.6735849462223658,5.0808829077375606e-06,-3.1431950601179537e-06,-0.1995226165709335,5.4985451169997646e-06,-0.25191225370000636
684,0.6746,1123.37,0.0116257,0.00795593,0.00368335,-0.00384577,-0.0117376,0.515565,-0.222809,-0.29057,5.08063e-06,-3.14442e-06,5.48925e-06,0.507735,0.6745843747349878,5.080642906385435e-06,-3.1444150563331164e-06,-0.19973231417380644,5.489265066049853e-06,-0.2521628211226302
685,0.6756,1123.58,0.0116045,0.00794107,0.00366416,-0.00382654,-0.0117332,0.516162,-0.22307,-0.290905,5.08036e-06,-3.14562e-06,5.47997e-06,0.508328,0.6755844000845699,5.080372905030828e-06,-3.1456150525466242e-06,-0.19994115678466085,5.479985015099942e-06,-0.25241330461922595
686,0.6766,1123.79,0.0115834,0.00792625,0.00364501,-0.00380735,-0.0117289,0.516759,-0.223332,-0.291239,5.08007e-06,-3.14678e-06,5.47069e-06,0.508921,0.6765850226275301,5.080082903674565e-06,-3.1467750488678448e-06,-0.20015074474436156,5.4707049641500305e-06,-0.2526629568812345
687,0.6776,1124.0,0.0115623,0.00791147,0.0036259,-0.00378821,-0.0117245,0.517355,-0.223593,-0.291574,5.07975e-06,-3.14791e-06,5.46142e-06,0.509513,0.6775845651350956,5.079762901871732e-06,-3.1479050452976054e-06,-0.20035947815908772,5.461434913645036e-06,-0.25291327286041176
688,0.6786,1124.21,0.0115413,0.00789672,0.00360682,-0.00376911,-0.0117201,0.517951,-0.223854,-0.291908,5.07941e-06,-3.14901e-06,5.45215e-06,0.510105,0.6785847035475578,5.079422900289288e-06,-3.149005041835906e-06,-0.20056815710150167,5.452164862917996e-06,-0.25316275816091194
689,0.6796,1124.42,0.0115204,0.00788201,0.00358778,-0.00375005,-0.0117158,0.518547,-0.224116,-0.292242,5.07905e-06,-3.15008e-06,5.44287e-06,0.510697,0.6795854382201814,5.079062898483144e-06,-3.150075038482747e-06,-0.2007775808086375,5.442884812412174e-06,-0.253412160147236
690,0.6806,1124.63,0.0114995,0.00786734,0.00356878,-0.00373103,-0.0117114,0.519142,-0.224376,-0.292576,5.07866e-06,-3.15112e-06,5.4336e-06,0.511288,0.6805850889225145,5.078672896452474e-06,-3.151115035238128e-06,-0.20098535162625042,5.433614762129224e-06,-0.25366147884720613
691,0.6816,1124.84,0.0114786,0.00785271,0.00354981,-0.00371206,-0.011707,0.519737,-0.224637,-0.29291,5.07825e-06,-3.15213e-06,5.42434e-06,0.511879,0.6815853345940013,5.078262894420149e-06,-3.1521250319910266e-06,-0.20119386723700516,5.424354711847101e-06,-0.25391071428863554
692,0.6826,1125.05,0.0114578,0.00783811,0.00353088,-0.00369313,-0.0117027,0.520331,-0.224898,-0.293243,5.07782e-06,-3.15311e-06,5.41507e-06,0.51247,0.6825844930034195,5.077832892164125e-06,-3.1531050289634877e-06,-0.2014023284322869,5.415084661564151e-06,-0.2541591206588213
693,0.6836,1125.25,0.011437,0.00782355,0.00351198,-0.00367424,-0.0116983,0.520925,-0.225158,-0.293576,5.07736e-06,-3.15405e-06,5.40581e-06,0.51306,0.6835842450892373,5.077372889905618e-06,-3.1540450260436614e-06,-0.20160993683663242,5.405824611504073e-06,-0.2544074443234571
694,0.6846,1125.46,0.0114163,0.00780902,0.00349313,-0.0036554,-0.0116939,0.521519,-0.225419,-0.293909,5.07688e-06,-3.15497e-06,5.39655e-06,0.51365,0.6845845912042032,5.076892887423412e-06,-3.1549650231221804e-06,-0.20181828945191904,5.396564561443995e-06,-0.2546556853100791
695,0.6856,1125.67,0.0113957,0.00779453,0.0034743,-0.00363659,-0.0116895,0.522113,-0.225679,-0.294242,5.07637e-06,-3.15586e-06,5.38729e-06,0.514239,0.6855855317012758,5.076382884716679e-06,-3.1558550203092395e-06,-0.2020257897204577,5.387304511383917e-06,-0.25490384364621477
696,0.6866,1125.88,0.0113751,0.00778008,0.00345552,-0.00361784,-0.0116851,0.522706,-0.225939,-0.294575,5.07585e-06,-3.15671e-06,5.37803e-06,0.514828,0.6865853803473985,5.0758628822311636e-06,-3.1567050176040112e-06,-0.20223323604593946,5.378044461545883e-06,-0.25515191935938186
697,0.6876,1126.08,0.0113545,0.00776566,0.00343677,-0.00359912,-0.0116807,0.523298,-0.226199,-0.294907,5.0753e-06,-3.15754e-06,5.36878e-06,0.515417,0.6875841344946227,5.0753128792990765e-06,-3.1575350150081505e-06,-0.20244062844238764,5.368794411930722e-06,-0.25539916787662964
698,0.6886,1126.29,0.011334,0.00775128,0.00341806,-0.00358045,-0.0116763,0.523891,-0.226459,-0.29524,5.07472e-06,-3.15834e-06,5.35952e-06,0.516006,0.6885851686636748,5.074732876364507e-06,-3.1583350124098075e-06,-0.20264796692382203,5.359534362314733e-06,-0.25564707867428804
699,0.6896,1126.5,0.0113136,0.00773694,0.00339938,-0.00356182,-0.0116719,0.524483,-0.226718,-0.295572,5.07412e-06,-3.1591e-06,5.35027e-06,0.516594,0.6895851070360783,5.074132873428283e-06,-3.1590950100301995e-06,-0.20285445435911154,5.350284312699571e-06,-0.25589416282592947
700,0.6906,1126.7,0.0112932,0.00772263,0.00338074,-0.00354323,-0.0116675,0.525075,-0.226978,-0.295904,5.0735e-06,-3.15984e-06,5.34103e-06,0.517182,0.6905856375472541,5.07351287026836e-06,-3.159835007759959e-06,-0.20306168525979373,5.341044263307282e-06,-0.2561411649592483
701,0.6916,1126.91,0.0112728,0.00770836,0.00336214,-0.00352468,-0.0116631,0.525666,-0.227237,-0.296235,5.07286e-06,-3.16055e-06,5.33178e-06,0.517769,0.6915850689619374,5.072872866884737e-06,-3.1605450054872364e-06,-0.20326806555590937,5.331794213914165e-06,-0.2563873414891835
702,0.6926,1127.12,0.0112525,0.00769412,0.00334357,-0.00350618,-0.0116586,0.526257,-0.227496,-0.296567,5.07219e-06,-3.16123e-06,5.32254e-06,0.518356,0.6925850912151623,5.072202863498632e-06,-3.1612250033230538e-06,-0.20347439240644993,5.32255416474392e-06,-0.2566341799143632
703,0.6936,1127.32,0.0112322,0.00767992,0.00332504,-0.00348772,-0.0116542,0.526848,-0.227755,-0.296898,5.0715e-06,-3.16188e-06,5.3133e-06,0.518943,0.6935857046562177,5.071512860110872e-06,-3.1618750012674113e-06,-0.2036806658252558,5.313314115573675e-06,-0.2568801932833529
704,0.6946,1127.53,0.011212,0.00766575,0.00330655,-0.00346931,-0.0116498,0.527438,-0.228014,-0.297229,5.07079e-06,-3.1625e-06,5.30406e-06,0.51953,0.6945852150485365,5.070802856499412e-06,-3.162494999320309e-06,-0.2038868858261642,5.304074066625475e-06,-0.2571261252353927
705,0.6956,1127.73,0.0111919,0.00765162,0.00328809,-0.00345093,-0.0116454,0.528028,-0.228272,-0.29756,5.07006e-06,-3.16309e-06,5.29482e-06,0.520116,0.6955853153259859,5.070072852886298e-06,-3.1630849974817465e-06,-0.20409225651566287,5.2948340176772746e-06,-0.2573719757974271
706,0.6966,1127.93,0.0111718,0.00763752,0.00326967,-0.0034326,-0.0116409,0.528617,-0.228531,-0.29789,5.0693e-06,-3.16365e-06,5.28559e-06,0.520701,0.6965843092515429,5.069312848826613e-06,-3.163644995640702e-06,-0.20429836992838624,5.285603968729902e-06,-0.25761700261376563
707,0.6976,1128.14,0.0111517,0.00762346,0.00325129,-0.00341432,-0.0116365,0.529207,-0.228789,-0.298221,5.06852e-06,-3.16418e-06,5.27636e-06,0.521287,0.6975855893425826,5.068532844987317e-06,-3.16417499401922e-06,-0.20450363446868036,5.276373920004573e-06,-0.2578626907222753
708,0.6986,1128.34,0.0111317,0.00760944,0.00323294,-0.00339607,-0.0116321,0.529796,-0.229048,-0.298551,5.06772e-06,-3.16468e-06,5.26713e-06,0.521872,0.6985857617765723,5.067732840924322e-06,-3.1646749923952555e-06,-0.2047096413483105,5.267143871279245e-06,-0.2581075556294051
709,0.6996,1128.54,0.0111117,0.00759544,0.00321463,-0.00337787,-0.0116276,0.530384,-0.229306,-0.298881,5.0669e-06,-3.16516e-06,5.2579e-06,0.522457,0.699584823899976,5.066912836859672e-06,-3.1651549908806587e-06,-0.20491479979426508,5.257913822775961e-06,-0.25835233974444705
710,0.7006,1128.75,0.0110918,0.00758149,0.00319635,-0.00335971,-0.0116232,0.530972,-0.229564,-0.299211,5.06605e-06,-3.1656e-06,5.24868e-06,0.523041,0.7005844736446523,5.06606283234845e-06,-3.1655949894737745e-06,-0.20511990531616808,5.248693774273505e-06,-0.25859704309405807
711,0.7016,1128.95,0.0110719,0.00756756,0.00317811,-0.00334159,-0.0116187,0.53156,-0.229821,-0.299541,5.06518e-06,-3.16602e-06,5.23946e-06,0.523625,0.7015847113562237,5.065192828057619e-06,-3.166014988176258e-06,-0.2053241632522328,5.2394737259930935e-06,-0.2588416657048862
712,0.7026,1129.15,0.0110521,0.00755368,0.00315991,-0.00332352,-0.0116143,0.532148,-0.230079,-0.29987,5.06429e-06,-3.16641e-06,5.23024e-06,0.524209,0.7025855373805165,5.064302823543088e-06,-3.166404986876259e-06,-0.205529163171987,5.230253677712682e-06,-0.25908546668940824
713,0.7036,1129.36,0.0110323,0.00753982,0.00314175,-0.00330548,-0.0116098,0.532735,-0.230337,-0.300199,5.06338e-06,-3.16677e-06,5.22102e-06,0.524792,0.7035852484774601,5.063392819026902e-06,-3.1667649857958224e-06,-0.205734110208584,5.221033629654315e-06,-0.2593291874765996
714,0.7046,1129.56,0.0110126,0.007526,0.00312362,-0.00328749,-0.0116053,0.533322,-0.230594,-0.300529,5.06244e-06,-3.1671e-06,5.21181e-06,0.525375,0.7045855465770858,5.0624528140641445e-06,-3.1670949847129037e-06,-0.2059382103142734,5.211823581596775e-06,-0.2595735685196424
715,0.7056,1129.76,0.0109929,0.00751222,0.00310552,-0.00326955,-0.0116009,0.533908,-0.230851,-0.300857,5.06149e-06,-3.16741e-06,5.2026e-06,0.525958,0.7055847264384867,5.0615028093226044e-06,-3.1674049837393525e-06,-0.20614225797297547,5.202613533539235e-06,-0.2598163885645036
716,0.7066,1129.96,0.0109733,0.00749847,0.00308747,-0.00325164,-0.0115964,0.534494,-0.231108,-0.301186,5.06051e-06,-3.16768e-06,5.19339e-06,0.52654,0.7065844919908768,5.0605228043565376e-06,-3.167674982873514e-06,-0.20634625319816713,5.19340348570374e-06,-0.26005986891795163
717,0.7076,1130.16,0.0109537,0.00748475,0.00306945,-0.00323378,-0.0115919,0.53508,-0.231365,-0.301515,5.05951e-06,-3.16793e-06,5.18419e-06,0.527122,0.707584843577572,5.059522799388816e-06,-3.167924982117043e-06,-0.20655019600332225,5.184203437869073e-06,-0.26030326917953905
718,0.7086,1130.36,0.0109342,0.00747107,0.00305146,-0.00321596,-0.0115875,0.535666,-0.231622,-0.301843,5.05848e-06,-3.16815e-06,5.17498e-06,0.527704,0.7085857815420888,5.058492794196567e-06,-3.168144981469112e-06,-0.20675408640191095,5.174993390255622e-06,-0.2605458499218316
719,0.7096,1130.56,0.0109147,0.00745742,0.00303351,-0.00319819,-0.011583,0.536251,-0.231878,-0.302171,5.05744e-06,-3.16834e-06,5.16579e-06,0.528285,0.7095855966416942,5.057452788781447e-06,-3.168334980818699e-06,-0.20695713136492788,5.1658033426438266e-06,-0.2607883511106882
720,0.7106,1130.76,0.0108953,0.0074438,0.0030156,-0.00318045,-0.0115785,0.536835,-0.232135,-0.302499,5.05637e-06,-3.16851e-06,5.15659e-06,0.528866,0.7105842862191054,5.056382783363844e-06,-3.1685049802776533e-06,-0.2071609171945663,5.156603295253248e-06,-0.261030772772198
721,0.7116,1130.96,0.0108759,0.00743022,0.00299773,-0.00316276,-0.011574,0.53742,-0.232391,-0.302827,5.05529e-06,-3.16865e-06,5.14739e-06,0.529446,0.7115852707859827,5.055302777945414e-06,-3.1686449798451477e-06,-0.20736385802223023,5.14740324786267e-06,-0.26127311493244176
722,0.7126,1131.16,0.0108565,0.00741667,0.00297989,-0.00314511,-0.0115695,0.538004,-0.232647,-0.303154,5.05418e-06,-3.16876e-06,5.1382e-06,0.530027,0.7125851285141609,5.054192772302457e-06,-3.1687549795211822e-06,-0.2075667469036917,5.138213200472919e-06,-0.26151463913249995
723,0.7136,1131.36,0.0108372,0.00740315,0.00296208,-0.0031275,-0.0115651,0.538588,-0.232903,-0.303481,5.05305e-06,-3.16884e-06,5.12901e-06,0.530607,0.7135855703297893,5.053062766657845e-06,-3.1688349791947346e-06,-0.2077695838522472,5.129023153305212e-06,-0.26175608436705633
724,0.7146,1131.56,0.010818,0.00738967,0.00294432,-0.00310994,-0.0115606,0.539171,-0.233159,-0.303809,5.0519e-06,-3.16889e-06,5.11983e-06,0.531186,0.7145848819883356,5.051912760789534e-06,-3.1688849790878493e-06,-0.20797236888118975,5.119843106360378e-06,-0.26199818866410873
725,0.7156,1131.76,0.0107988,0.00737622,0.00292659,-0.00309242,-0.0115561,0.539754,-0.233415,-0.304136,5.05072e-06,-3.16892e-06,5.11065e-06,0.531765,0.715584776415439,5.050732754918741e-06,-3.168914978979309e-06,-0.2081751020038093,5.110663059415543e-06,-0.2622394758038181
726,0.7166,1131.95,0.0107796,0.0073628,0.00290889,-0.00307494,-0.0115516,0.540337,-0.233671,-0.304462,5.04953e-06,-3.16892e-06,5.10147e-06,0.532344,0.7165852539509534,5.0495427488250755e-06,-3.168914978979309e-06,-0.20837778323339207,5.101483012470709e-06,-0.26247994653584705
727,0.7176,1132.15,0.0107605,0.00734942,0.00289124,-0.0030575,-0.0115471,0.540919,-0.233926,-0.304789,5.04832e-06,-3.16889e-06,5.09229e-06,0.532923,0.7175845973494734,5.048332742729755e-06,-3.1688849790878493e-06,-0.2085796211632378,5.092302965747919e-06,-0.26272107616648654
728,0.7186,1132.35,0.0107414,0.00733607,0.00287362,-0.0030401,-0.0115426,0.541501,-0.234181,-0.305115,5.04708e-06,-3.16884e-06,5.08312e-06,0.533501,0.7185845225351348,5.047092736631953e-06,-3.1688349791947346e-06,-0.20878140763097308,5.083132919025957e-06,-0.2629613899223858
729,0.7196,1132.55,0.0107224,0.00732275,0.00285603,-0.00302275,-0.0115381,0.542083,-0.234437,-0.305441,5.04582e-06,-3.16876e-06,5.07394e-06,0.534079,0.7195850298466366,5.0458327300884065e-06,-3.1687549795211822e-06,-0.20898393366618095,5.0739528725252114e-06,-0.263201625348769
730,0.7206,1132.74,0.0107034,0.00730946,0.00283848,-0.00300544,-0.0115336,0.542664,-0.234692,-0.305767,5.04454e-06,-3.16865e-06,5.06478e-06,0.534657,0.7205843990376153,5.04455272376525e-06,-3.1686449798451477e-06,-0.20918561704737215,5.064792826026121e-06,-0.26344178247116745
731,0.7216,1132.94,0.0106845,0.00729621,0.00282097,-0.00298817,-0.011529,0.543245,-0.234947,-0.306093,5.04325e-06,-3.16852e-06,5.05561e-06,0.535234,0.7215843490308003,5.043262717219221e-06,-3.1685149802784807e-06,-0.2093872490058577,5.055622779526203e-06,-0.26368186131510407
732,0.7226,1133.14,0.0106656,0.00728299,0.00280349,-0.00297095,-0.0115245,0.543826,-0.235201,-0.306419,5.04193e-06,-3.16836e-06,5.04645e-06,0.535811,0.7225848801637365,5.041942710448666e-06,-3.1683549807093314e-06,-0.20958803914318336,5.046462733249157e-06,-0.26392186190609346
733,0.7236,1133.33,0.0106467,0.0072698,0.00278605,-0.00295376,-0.01152,0.544406,-0.235456,-0.306744,5.04059e-06,-3.16817e-06,5.03729e-06,0.536388,0.7235842691890324,5.0406027038985e-06,-3.1681649813597446e-06,-0.20978956849711716,5.037302687194156e-06,-0.26416104843105837
734,0.7246,1133.53,0.0106279,0.00725664,0.00276865,-0.00293662,-0.0115155,0.544986,-0.23571,-0.307069,5.03923e-06,-3.16796e-06,5.02814e-06,0.536964,0.7245842380280929,5.0392426969025905e-06,-3.167954982008503e-06,-0.20999025645826885,5.028152641139982e-06,-0.26440015723303334
735,0.7256,1133.72,0.0106092,0.00724352,0.00275128,-0.00291952,-0.011511,0.545566,-0.235965,-0.307394,5.03784e-06,-3.16772e-06,5.01898e-06,0.53754,0.7255847870173073,5.037852689904199e-06,-3.1677149827658013e-06,-0.21019168325986326,5.018992595084981e-06,-0.2646391883372742
736,0.7266,1133.92,0.0105905,0.00723043,0.00273395,-0.00290246,-0.0115065,0.546145,-0.236219,-0.307719,5.03644e-06,-3.16745e-06,5.00983e-06,0.538115,0.7265841899082073,5.036452682904979e-06,-3.16744498363164e-06,-0.21039226909683562,5.009842549252852e-06,-0.2648781417690286
737,0.7276,1134.11,0.0105718,0.00721736,0.00271665,-0.00288545,-0.0115019,0.546724,-0.236473,-0.308044,5.03502e-06,-3.16716e-06,5.00069e-06,0.538691,0.7275841716209337,5.035032675682061e-06,-3.167154984606846e-06,-0.21059280399147517,5.00070250342155e-06,-0.2651170175535361
738,0.7286,1134.31,0.0105532,0.00720434,0.00269939,-0.00286848,-0.0114974,0.547303,-0.236727,-0.308368,5.03358e-06,-3.16685e-06,4.99154e-06,0.539265,0.7285847324907215,5.033592668457487e-06,-3.166844985580397e-06,-0.21079328795671992,4.991552457811466e-06,-0.2653550810714762
739,0.7296,1134.5,0.0105346,0.00719134,0.00268217,-0.00285154,-0.0114929,0.547881,-0.23698,-0.308692,5.03211e-06,-3.1665e-06,4.9824e-06,0.53984,0.7295841432679919,5.032122661008387e-06,-3.166494986661661e-06,-0.21099293199883062,4.9824124122022084e-06,-0.26559306746933076
740,0.7306,1134.7,0.0105161,0.00717837,0.00266498,-0.00283466,-0.0114883,0.548459,-0.237234,-0.309016,5.03063e-06,-3.16613e-06,4.97327e-06,0.540414,0.7305841318716675,5.030642653558459e-06,-3.1661249878522923e-06,-0.21119331434446775,4.973282366815823e-06,-0.26583097677208245
741,0.7316,1134.89,0.0104976,0.00716544,0.00264783,-0.00281781,-0.0114838,0.549037,-0.237487,-0.30934,5.02913e-06,-3.16574e-06,4.96413e-06,0.540988,0.7315846986358279,5.029142646106877e-06,-3.165734989041269e-06,-0.21139285719270384,4.964142321206566e-06,-0.266068809004706
742,0.7326,1135.09,0.0104791,0.00715253,0.00263071,-0.002801,-0.0114793,0.549614,-0.237741,-0.309664,5.0276e-06,-3.16532e-06,4.955e-06,0.541562,0.7325841113097695,5.027612638430767e-06,-3.1653149903387856e-06,-0.21159313797024137,4.9550122760422255e-06,-0.26630656419216825
743,0.7336,1135.28,0.0104607,0.00713966,0.00261363,-0.00278424,-0.0114747,0.550191,-0.237994,-0.309987,5.02606e-06,-3.16487e-06,4.94587e-06,0.542135,0.7335841008112225,5.026072630753831e-06,-3.1648649918558647e-06,-0.21179257967589538,4.945882230877885e-06,-0.26654350890330325
744,0.7346,1135.47,0.0104424,0.00712682,0.00259658,-0.00276752,-0.0114702,0.550768,-0.238247,-0.310311,5.02449e-06,-3.1644e-06,4.93675e-06,0.542708,0.7345846674731129,5.024502622852367e-06,-3.1643949932602666e-06,-0.2119919709291802,4.936762185714372e-06,-0.26678111031291174
745,0.7356,1135.66,0.010424,0.00711401,0.00257958,-0.00275084,-0.0114656,0.551345,-0.2385,-0.310634,5.02291e-06,-3.1639e-06,4.92763e-06,0.543281,0.7355858116285576,5.0229226147280315e-06,-3.163894994884231e-06,-0.21219131174285888,4.927642140772903e-06,-0.26701790177040163
746,0.7366,1135.86,0.0104058,0.00710123,0.0025626,-0.0027342,-0.0114611,0.55192,-0.238752,-0.310957,5.02131e-06,-3.16338e-06,4.91851e-06,0.543853,0.7365840604392733,5.021322606824086e-06,-3.1633749965065405e-06,-0.21238981451989936,4.918522095831435e-06,-0.26725461675660145
747,0.7376,1136.05,0.0103875,0.00708849,0.00254567,-0.0027176,-0.0114565,0.552496,-0.239005,-0.311279,5.01968e-06,-3.16284e-06,4.9094e-06,0.544425,0.7375846209918622,5.019692598695613e-06,-3.1628349982382176e-06,-0.21258905469188127,4.909412051112838e-06,-0.2674905227870966
748,0.7386,1136.24,0.0103694,0.00707577,0.00252877,-0.00270105,-0.011452,0.553071,-0.239257,-0.311602,5.01804e-06,-3.16226e-06,4.90029e-06,0.544996,0.7385840194484532,5.0180525903442685e-06,-3.1622550000776073e-06,-0.21278745725032655,4.9003020063942415e-06,-0.26772708514135946
749,0.7396,1136.43,0.0103512,0.00706308,0.0025119,-0.00268454,-0.0114474,0.553647,-0.23951,-0.311924,5.01638e-06,-3.16167e-06,4.89118e-06,0.545568,0.739585732309264,5.016392581991269e-06,-3.1616650019161696e-06,-0.21298659683142307,4.8911919618976896e-06,-0.26796283906152585
750,0.7406,1136.62,0.0103331,0.00705043,0.00249507,-0.00266807,-0.0114429,0.554221,-0.239762,-0.312246,5.0147e-06,-3.16105e-06,4.88207e-06,0.546139,0.7405845411503233,5.014712573636615e-06,-3.161045003863272e-06,-0.2131848992218709,4.882081917401138e-06,-0.2681985170811505
751,0.7416,1136.81,0.010315,0.0070378,0.00247828,-0.00265164,-0.0114383,0.554796,-0.240014,-0.312568,5.01299e-06,-3.1604e-06,4.87297e-06,0.546709,0.7415856650570247,5.013002565057434e-06,-3.1603950059189145e-06,-0.2133831516464123,4.872981872905413e-06,-0.26843411922466964
752,0.7426,1137.01,0.010297,0.00702521,0.00246152,-0.00263525,-0.0114337,0.55537,-0.240266,-0.31289,5.01127e-06,-3.15973e-06,4.86388e-06,0.54728,0.7425856221890095,5.0112825564774255e-06,-3.1597250080839245e-06,-0.21358135411763723,4.8638918286325605e-06,-0.2686696455165112
753,0.7436,1137.2,0.0102791,0.00701264,0.0024448,-0.0026189,-0.0114292,0.555943,-0.240518,-0.313212,5.00953e-06,-3.15903e-06,4.85478e-06,0.54785,0.7435844098758684,5.009542547673718e-06,-3.1590250102464523e-06,-0.21377950664813206,4.854791784358881e-06,-0.2689050959810957
754,0.7446,1137.39,0.0102611,0.00700011,0.00242812,-0.0026026,-0.0114246,0.556517,-0.240769,-0.313533,5.00777e-06,-3.15831e-06,4.84569e-06,0.548419,0.7445855146167111,5.007782538868355e-06,-3.1583050125183476e-06,-0.21397682322769673,4.845701740308073e-06,-0.2691397397829408
755,0.7456,1137.58,0.0102432,0.0069876,0.00241147,-0.00258634,-0.01142,0.55709,-0.241021,-0.313854,5.00599e-06,-3.15757e-06,4.8366e-06,0.548989,0.7455854485703051,5.0060025300613376e-06,-3.1575650148996104e-06,-0.21417487611253183,4.836611696479309e-06,-0.2693743082762131
756,0.7466,1137.77,0.0102254,0.00697513,0.00239485,-0.00257012,-0.0114155,0.557662,-0.241272,-0.314175,5.00419e-06,-3.1568e-06,4.82752e-06,0.549558,0.7465842090651573,5.004202521030621e-06,-3.156795017278391e-06,-0.21437209346681418,4.827531652429329e-06,-0.2696088014850829
757,0.7476,1137.95,0.0102076,0.00696269,0.00237827,-0.00255394,-0.0114109,0.558235,-0.241523,-0.314496,5.00238e-06,-3.15601e-06,4.81844e-06,0.550126,0.7475852885988479,5.002392511999076e-06,-3.156005019766539e-06,-0.2145692613257525,4.818451608601393e-06,-0.2698432194337126
758,0.7486,1138.14,0.0101898,0.00695027,0.00236173,-0.0025378,-0.0114063,0.558807,-0.241774,-0.314817,5.00054e-06,-3.15519e-06,4.80936e-06,0.550695,0.7485851933294168,5.000552502743005e-06,-3.155185022363227e-06,-0.2147663797017687,4.8093715649955016e-06,-0.27007756214625667
759,0.7496,1138.33,0.0101721,0.00693789,0.00234522,-0.0025217,-0.0114017,0.559379,-0.242025,-0.315137,4.99868e-06,-3.15435e-06,4.80029e-06,0.551263,0.7495856701690988,4.9986924934852794e-06,-3.154345025069283e-06,-0.21496344860728123,4.800301521390438e-06,-0.27031109995832714
760,0.7506,1138.52,0.0101544,0.00692553,0.00232875,-0.00250564,-0.0113972,0.55995,-0.242276,-0.315457,4.99681e-06,-3.15348e-06,4.79122e-06,0.55183,0.7505849688593904,4.9968224840046815e-06,-3.1534750277728563e-06,-0.2151604680547058,4.791231478007418e-06,-0.27054456305025354
761,0.7516,1138.71,0.0101368,0.00691321,0.00231231,-0.00248963,-0.0113926,0.560521,-0.242526,-0.315778,4.99492e-06,-3.15259e-06,4.78216e-06,0.552398,0.7515848383121715,4.9949324747444734e-06,-3.152585030585797e-06,-0.21535665341350052,4.7821714346252264e-06,-0.27077868066762645
762,0.7526,1138.9,0.0101192,0.00690091,0.00229591,-0.00247366,-0.011388,0.561092,-0.242777,-0.316097,4.993e-06,-3.15168e-06,4.77309e-06,0.552965,0.7525852788534402,4.993012465037694e-06,-3.1516750335081056e-06,-0.21555357417890386,4.773101391242207e-06,-0.2710112651692932
763,0.7536,1139.09,0.0101016,0.00688864,0.00227955,-0.00245772,-0.0113834,0.561662,-0.243027,-0.316417,4.99107e-06,-3.15075e-06,4.76403e-06,0.553532,0.7535845372239671,4.991082455330087e-06,-3.1507450364287592e-06,-0.21574966127345097,4.76404134808206e-06,-0.27124450424419666
764,0.7546,1139.27,0.0100841,0.00687641,0.00226322,-0.00244183,-0.0113788,0.562232,-0.243277,-0.316737,4.98912e-06,-3.14979e-06,4.75498e-06,0.554098,0.7545843653341258,4.989132445620825e-06,-3.149785039457953e-06,-0.21594569935235175,4.75499130492274e-06,-0.2714776686945368
765,0.7556,1139.46,0.0100666,0.0068642,0.00224692,-0.00242598,-0.0113742,0.562802,-0.243527,-0.317056,4.98715e-06,-3.1488e-06,4.74593e-06,0.554664,0.7555847635087605,4.987162435909909e-06,-3.1487950424846645e-06,-0.2161416884278584,4.745941261985465e-06,-0.27171003025458407
766,0.7566,1139.65,0.0100492,0.00685202,0.00223066,-0.00241018,-0.0113697,0.563372,-0.243777,-0.317375,4.98517e-06,-3.1478e-06,4.73688e-06,0.55523,0.7565857320728999,4.98518242597612e-06,-3.147795045732593e-06,-0.21633762851222038,4.736891219048189e-06,-0.27194231770311494
767,0.7576,1139.83,0.0100318,0.00683987,0.00221444,-0.00239441,-0.0113651,0.563941,-0.244027,-0.317694,4.98316e-06,-3.14677e-06,4.72784e-06,0.555795,0.7575855137653669,4.983172416039849e-06,-3.1467650489780397e-06,-0.21653351961768386,4.727851176333786e-06,-0.27217453106376743
768,0.7586,1140.02,0.0100144,0.00682775,0.00219825,-0.00237868,-0.0113605,0.564509,-0.244277,-0.318013,4.98114e-06,-3.14571e-06,4.7188e-06,0.55636,0.7585841059105072,4.981152405880707e-06,-3.145705052221004e-06,-0.21672936175649216,4.718811133619383e-06,-0.27240667036017174
769,0.7596,1140.21,0.00999713,0.00681566,0.0021821,-0.002363,-0.0113559,0.565078,-0.244526,-0.318332,4.9791e-06,-3.14464e-06,4.70976e-06,0.556925,0.7595850250012466,4.979112395719909e-06,-3.144635055574163e-06,-0.2169243718656486,4.7097710909049795e-06,-0.27263873561595064
770,0.7606,1140.39,0.00997986,0.0068036,0.00216598,-0.00234735,-0.0113513,0.565646,-0.244776,-0.31865,4.97704e-06,-3.14354e-06,4.70073e-06,0.55749,0.7605847531913754,4.977052385557457e-06,-3.1435350590358624e-06,-0.21712011630360795,4.700741048413448e-06,-0.2728699997250825
771,0.7616,1140.58,0.00996263,0.00679156,0.0021499,-0.00233175,-0.0113467,0.566214,-0.245025,-0.318968,4.97496e-06,-3.14242e-06,4.6917e-06,0.558054,0.7615850493884146,4.974972375171305e-06,-3.142415062606929e-06,-0.21731502912699474,4.6917110061439615e-06,-0.27310119030391966
772,0.7626,1140.76,0.00994543,0.00677956,0.00213385,-0.00231619,-0.0113421,0.566781,-0.245274,-0.319286,4.97286e-06,-3.14127e-06,4.68267e-06,0.558618,0.7625841513300518,4.972872364783498e-06,-3.1412650661755137e-06,-0.21750989342313043,4.68268096365243e-06,-0.273332307375841
773,0.7636,1140.95,0.00992828,0.00676758,0.00211784,-0.00230067,-0.0113375,0.567349,-0.245523,-0.319604,4.97074e-06,-3.1401e-06,4.67365e-06,0.559181,0.7635855835078218,4.970752354171992e-06,-3.1400950698534658e-06,-0.2177047092040968,4.673660921605816e-06,-0.2735633509642179
774,0.7646,1141.13,0.00991117,0.00675563,0.00210186,-0.00228519,-0.0113329,0.567915,-0.245772,-0.319922,4.96861e-06,-3.13891e-06,4.66463e-06,0.559744,0.7645840554890024,4.968622343559659e-06,-3.1389050736407853e-06,-0.2178994764819725,4.664640879337156e-06,-0.2737943210924145
775,0.7656,1141.32,0.0098941,0.00674371,0.00208592,-0.00226975,-0.0113283,0.568482,-0.24602,-0.320239,4.96646e-06,-3.1377e-06,4.65562e-06,0.560307,0.7655848583492635,4.966472332945671e-06,-3.13769507742645e-06,-0.21809341336263788,4.655630837513414e-06,-0.2740244918086422
776,0.7666,1141.5,0.00987706,0.00673182,0.00207002,-0.00225435,-0.0113237,0.569048,-0.246269,-0.320557,4.96429e-06,-3.13646e-06,4.6466e-06,0.56087,0.7665844622403044,4.964302322107983e-06,-3.136455081320655e-06,-0.21828808386522713,4.646610795466799e-06,-0.274255315317364
777,0.7676,1141.69,0.00986007,0.00671995,0.00205415,-0.00223899,-0.0113191,0.569614,-0.246517,-0.320874,4.9621e-06,-3.13521e-06,4.6376e-06,0.561432,0.7675846320672925,4.9621123112686405e-06,-3.1352050852140323e-06,-0.2184819243832108,4.637610753643884e-06,-0.2744853399215824
778,0.7686,1141.87,0.00984311,0.00670812,0.00203831,-0.00222367,-0.0113144,0.57018,-0.246766,-0.321191,4.9599e-06,-3.13392e-06,4.62859e-06,0.561994,0.7685853681506383,4.959912300428471e-06,-3.1339150893261447e-06,-0.21867649815859913,4.628600712042186e-06,-0.27471529161955754
779,0.7696,1142.05,0.0098262,0.00669631,0.00202251,-0.00220839,-0.0113098,0.570745,-0.247014,-0.321508,4.95768e-06,-3.13262e-06,4.6196e-06,0.562556,0.7695849012251472,4.957692289364601e-06,-3.1326150933264074e-06,-0.21887024236178154,4.6196106704421425e-06,-0.2749451704343969
780,0.7706,1142.24,0.00980932,0.00668453,0.00200674,-0.00219316,-0.0113052,0.57131,-0.247262,-0.321824,4.95544e-06,-3.1313e-06,4.6106e-06,0.563117,0.7705849991954115,4.955452278299077e-06,-3.1312950974360376e-06,-0.21906393852235917,4.610610628841272e-06,-0.2751742515638149
781,0.7716,1142.42,0.00979248,0.00667278,0.00199101,-0.00217796,-0.0113006,0.571875,-0.24751,-0.322141,4.95318e-06,-3.12995e-06,4.60161e-06,0.563678,0.7715856623806869,4.953192267009854e-06,-3.1299451017652302e-06,-0.21925758665224504,4.601620587463273e-06,-0.2754039849114098
782,0.7726,1142.6,0.00977568,0.00666105,0.00197532,-0.00216281,-0.011296,0.572439,-0.247757,-0.322457,4.9509e-06,-3.12858e-06,4.59262e-06,0.564239,0.7725851185144059,4.9509122557189755e-06,-3.1285751059817457e-06,-0.2194504062141457,4.5926305460852745e-06,-0.27563292107835835
783,0.7736,1142.79,0.00975892,0.00664936,0.00195966,-0.00214769,-0.0112914,0.573003,-0.248005,-0.322773,4.94861e-06,-3.12719e-06,4.58364e-06,0.564799,0.7735851385003754,4.94862224442727e-06,-3.1271851103076287e-06,-0.21964395851192764,4.583650504930148e-06,-0.27586178491290736
784,0.7746,1142.97,0.0097422,0.00663769,0.00194403,-0.00213262,-0.0112868,0.573567,-0.248252,-0.323089,4.9463e-06,-3.12578e-06,4.57466e-06,0.565359,0.7745857226566983,4.946312232911865e-06,-3.125775114742879e-06,-0.21983668265176404,4.574670463775021e-06,-0.27609057643791
785,0.7756,1143.15,0.00972552,0.00662605,0.00192844,-0.00211758,-0.0112821,0.57413,-0.2485,-0.323404,4.94397e-06,-3.12435e-06,4.56568e-06,0.565919,0.7755850957156725,4.943982221394805e-06,-3.124345119176475e-06,-0.22003013916486724,4.565690422841939e-06,-0.27631857199514664
786,0.7766,1143.33,0.00970887,0.00661443,0.00191288,-0.00210259,-0.0112775,0.574693,-0.248747,-0.32372,4.94163e-06,-3.12289e-06,4.55671e-06,0.566478,0.776585031580094,4.9416422098769175e-06,-3.122885123829633e-06,-0.22022276792986173,4.556720381909685e-06,-0.27654721919823544
787,0.7776,1143.51,0.00969226,0.00660285,0.00189736,-0.00208763,-0.0112729,0.575256,-0.248994,-0.324035,4.93926e-06,-3.12141e-06,4.54774e-06,0.567037,0.777585530566911,4.939272198134503e-06,-3.121405128370114e-06,-0.2204153491214268,4.54775034097743e-06,-0.27677507093565523
788,0.7786,1143.69,0.0096757,0.00659129,0.00188187,-0.00207272,-0.0112683,0.575818,-0.249241,-0.32435,4.93688e-06,-3.11991e-06,4.53878e-06,0.567596,0.7785848144075473,4.936892186391262e-06,-3.1199051331309846e-06,-0.2206078827513117,4.538790300268047e-06,-0.277002850911081
789,0.7796,1143.88,0.00965917,0.00657976,0.00186642,-0.00205785,-0.0112637,0.57638,-0.249487,-0.324665,4.93449e-06,-3.11839e-06,4.52982e-06,0.568155,0.7795846600035405,4.934502174647193e-06,-3.1183851377791783e-06,-0.2207995896312418,4.529830259558665e-06,-0.2772305591471139
790,0.7806,1144.06,0.00964267,0.00656825,0.001851,-0.00204301,-0.011259,0.576942,-0.249734,-0.32498,4.93207e-06,-3.11685e-06,4.52086e-06,0.568713,0.7805850676706858,4.932082162678597e-06,-3.1168451426477617e-06,-0.22099202836544085,4.520870219071327e-06,-0.27745819566634855
791,0.7816,1144.24,0.00962622,0.00655677,0.00183562,-0.00202822,-0.0112544,0.577503,-0.249981,-0.325295,4.92964e-06,-3.11529e-06,4.51191e-06,0.569271,0.7815842561398094,4.929652150709174e-06,-3.1152851475146903e-06,-0.2211844195731424,4.511920178584816e-06,-0.27768576049137206
792,0.7826,1144.42,0.0096098,0.00654532,0.00182027,-0.00201347,-0.0112498,0.578065,-0.250227,-0.325609,4.92719e-06,-3.11371e-06,4.50296e-06,0.569828,0.7825857878958229,4.927202138516051e-06,-3.113705152379964e-06,-0.22137598464245778,4.50297013832035e-06,-0.27791253155765705
793,0.7836,1144.6,0.00959342,0.0065339,0.00180496,-0.00199876,-0.0112451,0.578625,-0.250473,-0.325923,4.92473e-06,-3.1121e-06,4.49402e-06,0.570385,0.7835843154986781,4.924742126544146e-06,-3.1120951574648004e-06,-0.22156750259256208,4.494030098056712e-06,-0.27813923142900554
794,0.7846,1144.78,0.00957708,0.0065225,0.00178968,-0.00198408,-0.0112405,0.579186,-0.250719,-0.326238,4.92225e-06,-3.11048e-06,4.48508e-06,0.570942,0.7845851870178846,4.922262114348541e-06,-3.110475162437787e-06,-0.22175897343504503,4.485090058015118e-06,-0.27836658176154816
795,0.7856,1144.96,0.00956078,0.00651113,0.00177444,-0.00196945,-0.0112359,0.579746,-0.250965,-0.326551,4.91975e-06,-3.10883e-06,4.47614e-06,0.571499,0.7855848345978129,4.919762101929237e-06,-3.1088251676303358e-06,-0.2219503971814939,4.476150017973524e-06,-0.2785924176762924
796,0.7866,1145.14,0.00954451,0.00649978,0.00175923,-0.00195486,-0.0112312,0.580306,-0.251211,-0.326865,4.91723e-06,-3.10716e-06,4.46721e-06,0.572055,0.7865850421371599,4.917242089508278e-06,-3.10715517282123e-06,-0.22214177384349265,4.467219977932757e-06,-0.2788189040969131
797,0.7876,1145.31,0.00952828,0.00648847,0.00174405,-0.0019403,-0.0112266,0.580866,-0.251457,-0.327179,4.9147e-06,-3.10547e-06,4.45828e-06,0.572611,0.7875858099495907,4.914712077086492e-06,-3.105465178010469e-06,-0.2223331034326228,4.458289938114035e-06,-0.27904531941196187
798,0.7886,1145.49,0.00951209,0.00647718,0.00172891,-0.00192579,-0.011222,0.581425,-0.251702,-0.327492,4.91215e-06,-3.10377e-06,4.44936e-06,0.573167,0.7885853497627022,4.91216206466305e-06,-3.1037651833099034e-06,-0.22252360848446007,4.449369898518185e-06,-0.2792709429150657
799,0.7896,1145.67,0.00949593,0.00646591,0.0017138,-0.00191131,-0.0112173,0.581984,-0.251948,-0.327805,4.90959e-06,-3.10204e-06,4.44044e-06,0.573722,0.7895854484747669,4.909602052016737e-06,-3.1020351887178776e-06,-0.22271484415382115,4.4404498587002905e-06,-0.279496495809064
800,0.7906,1145.85,0.00947982,0.00645467,0.00169873,-0.00189688,-0.0112127,0.582542,-0.252193,-0.328118,4.90701e-06,-3.10029e-06,4.43152e-06,0.574277,0.7905843158130856,4.907022039368769e-06,-3.100285194124197e-06,-0.2229052556906378,4.4315298191044405e-06,-0.2797219781160538
801,0.7916,1146.03,0.00946373,0.00644346,0.00168369,-0.00188249,-0.0112081,0.583101,-0.252438,-0.328431,4.90441e-06,-3.09852e-06,4.42261e-06,0.574832,0.7915855322595502,4.904422026719146e-06,-3.098515199639884e-06,-0.2230956205823421,4.422619779731463e-06,-0.2799473898581255
802,0.7926,1146.21,0.00944769,0.00643228,0.00166869,-0.00186813,-0.0112034,0.583659,-0.252683,-0.328744,4.9018e-06,-3.09673e-06,4.41371e-06,0.575386,0.792585515956056,4.9018120138466514e-06,-3.0967252051539162e-06,-0.22328593884036085,4.413719740359312e-06,-0.2801727310573626
803,0.7936,1146.38,0.00943168,0.00642112,0.00165372,-0.00185382,-0.0111988,0.584216,-0.252928,-0.329056,4.89917e-06,-3.09492e-06,4.4048e-06,0.575941,0.7935842642140114,4.899182000972502e-06,-3.094915210777316e-06,-0.22347621047611776,4.404809701208379e-06,-0.28039728213348325
804,0.7946,1146.56,0.00941571,0.00640998,0.00163878,-0.00183954,-0.0111941,0.584774,-0.253173,-0.329368,4.89652e-06,-3.09309e-06,4.3959e-06,0.576494,0.7945853635141722,4.896531987874653e-06,-3.0930852163990608e-06,-0.22366643550103404,4.395909662058273e-06,-0.2806217631605964
805,0.7956,1146.74,0.00939977,0.00639887,0.00162388,-0.0018253,-0.0111895,0.585331,-0.253417,-0.329681,4.89386e-06,-3.09124e-06,4.38701e-06,0.577048,0.7955852259975007,4.893871974998021e-06,-3.091235222130173e-06,-0.22385583778275375,4.387019622908994e-06,-0.28084689331402013
806,0.7966,1146.92,0.00938387,0.00638779,0.00160902,-0.00181111,-0.0111849,0.585888,-0.253662,-0.329992,4.89118e-06,-3.08936e-06,4.37812e-06,0.577601,0.7965856455593643,4.8911919618976896e-06,-3.0893552279698255e-06,-0.2240459698103726,4.37812958398176e-06,-0.28107051515520076
807,0.7976,1147.09,0.00936801,0.00637673,0.00159418,-0.00179695,-0.0111802,0.586444,-0.253906,-0.330304,4.88848e-06,-3.08747e-06,4.36923e-06,0.578154,0.7975848249244184,4.888491948573659e-06,-3.0874652338086506e-06,-0.22423527949701783,4.369239545054526e-06,-0.28129478616637527
808,0.7986,1147.27,0.00935218,0.0063657,0.00157939,-0.00178283,-0.0111756,0.587,-0.25415,-0.330616,4.88577e-06,-3.08556e-06,4.36035e-06,0.578707,0.7985845599876695,4.885781935470845e-06,-3.085555239645821e-06,-0.2244245429977345,4.360359506350164e-06,-0.28151898721590896
809,0.7996,1147.44,0.00933639,0.0063547,0.00156462,-0.00176875,-0.0111709,0.587556,-0.254395,-0.330927,4.88304e-06,-3.08363e-06,4.35147e-06,0.579259,0.7995848510581713,4.8830519221443325e-06,-3.0836252455923585e-06,-0.2246145357096424,4.351479467645802e-06,-0.2817424000683856
810,0.8006,1147.62,0.00932063,0.00634372,0.00154989,-0.00175471,-0.0111663,0.588112,-0.254638,-0.331238,4.8803e-06,-3.08169e-06,4.3426e-06,0.579811,0.8005856984451503,4.8803119085949476e-06,-3.081685251649091e-06,-0.22480293148645103,4.3426094291643125e-06,-0.28196574345026815
811,0.8016,1147.8,0.00930491,0.00633277,0.00153519,-0.00174071,-0.0111616,0.588667,-0.254882,-0.33155,4.87754e-06,-3.07972e-06,4.33373e-06,0.580362,0.8015853008718024,4.8775518952659525e-06,-3.0797152577033415e-06,-0.22499205649697884,4.3337393906828225e-06,-0.28218973519378276
812,0.8026,1147.97,0.00928923,0.00632184,0.00152053,-0.00172675,-0.011157,0.589222,-0.255126,-0.33186,4.87477e-06,-3.07773e-06,4.32487e-06,0.580914,0.8025854582317806,4.874781881714085e-06,-3.077725263755937e-06,-0.2251811353666333,4.32487935220216e-06,-0.2824122218886531
813,0.8036,1148.15,0.00927358,0.00631093,0.0015059,-0.00171282,-0.0111523,0.589776,-0.25537,-0.332171,4.87198e-06,-3.07572e-06,4.316e-06,0.581465,0.80358436724789,4.871991868160563e-06,-3.0757152700289225e-06,-0.22537016810667176,4.316009313942715e-06,-0.2826353569883393
814,0.8046,1148.32,0.00925797,0.00630006,0.0014913,-0.00169894,-0.0111477,0.590331,-0.255613,-0.332482,4.86917e-06,-3.07369e-06,4.30715e-06,0.582016,0.8045856343976456,4.869181854383342e-06,-3.073685276189231e-06,-0.22555838028711572,4.307159275684924e-06,-0.28285842270379924
815,0.8056,1148.5,0.00924239,0.0062892,0.00147674,-0.00168509,-0.011143,0.590885,-0.255856,-0.332792,4.86635e-06,-3.07165e-06,4.2983e-06,0.582566,0.8055856518183504,4.866361840605293e-06,-3.071645282459734e-06,-0.22574654673755634,4.298309237649178e-06,-0.2830807021376688
816,0.8066,1148.67,0.00922684,0.00627837,0.00146222,-0.00167129,-0.0111384,0.591438,-0.256099,-0.333102,4.86351e-06,-3.06958e-06,4.28945e-06,0.583116,0.8065844168168756,4.86352182682559e-06,-3.0695752888387773e-06,-0.2259346674691045,4.289459199613432e-06,-0.28330291267559315
817,0.8076,1148.84,0.00921134,0.00626757,0.00144772,-0.00165752,-0.0111337,0.591992,-0.256342,-0.333412,4.86066e-06,-3.0675e-06,4.2806e-06,0.583666,0.8075855418698266,4.860671813045059e-06,-3.067495295216993e-06,-0.22612274249286868,4.280609161799731e-06,-0.28352505433892694
818,0.8086,1149.02,0.00919586,0.00625679,0.00143326,-0.00164379,-0.0111291,0.592545,-0.256585,-0.333722,4.85779e-06,-3.06539e-06,4.27177e-06,0.584216,0.8085854131133987,4.8578017990408284e-06,-3.065385301703749e-06,-0.2263107718199544,4.2717791239876846e-06,-0.28374712714901784
819,0.8096,1149.19,0.00918043,0.00624604,0.00141883,-0.0016301,-0.0111244,0.593098,-0.256828,-0.334032,4.85491e-06,-3.06327e-06,4.26293e-06,0.584765,0.8095858374386815,4.854921785035771e-06,-3.0632653081896777e-06,-0.2264987554614647,4.262939086396855e-06,-0.2839691311272071
820,0.8106,1149.37,0.00916502,0.00623531,0.00140444,-0.00161645,-0.0111198,0.59365,-0.257071,-0.334341,4.85201e-06,-3.06113e-06,4.2541e-06,0.585314,0.8105850045657039,4.852021771029058e-06,-3.0611253147849737e-06,-0.22668669342849979,4.254109048806853e-06,-0.28419035048553776
821,0.8116,1149.54,0.00914965,0.00622461,0.00139008,-0.00160284,-0.0111151,0.594202,-0.257313,-0.33465,4.8491e-06,-3.05897e-06,4.24527e-06,0.585862,0.8115847233852334,4.8491117567994735e-06,-3.058965321378615e-06,-0.22687381260635642,4.2452790112168515e-06,-0.2844115014976467
822,0.8126,1149.71,0.00913432,0.00621393,0.00137575,-0.00158926,-0.0111105,0.594754,-0.257556,-0.33496,4.84617e-06,-3.05679e-06,4.23645e-06,0.586411,0.8125849942018886,4.846181742790279e-06,-3.0567853279706014e-06,-0.22706165944557777,4.236458973849722e-06,-0.2846332995517079
823,0.8136,1149.89,0.00911902,0.00620328,0.00136146,-0.00157573,-0.0111058,0.595306,-0.257798,-0.335269,4.84322e-06,-3.05459e-06,4.22763e-06,0.586959,0.8135858173204558,4.84323172833534e-06,-3.0545853347829777e-06,-0.22724868789263708,4.227638936482592e-06,-0.28485431371369985
824,0.8146,1150.06,0.00910376,0.00619265,0.0013472,-0.00156223,-0.0111012,0.595857,-0.25804,-0.335577,4.84026e-06,-3.05238e-06,4.21882e-06,0.587506,0.8145853784596042,4.840271714101618e-06,-3.052375341483504e-06,-0.2274356710842883,4.218828899338334e-06,-0.28507454466776805
825,0.8156,1150.23,0.00908853,0.00618204,0.00133298,-0.00154877,-0.0110965,0.596408,-0.258282,-0.335886,4.83729e-06,-3.05014e-06,4.21001e-06,0.588054,0.8155854905087021,4.837301699645025e-06,-3.050135348292571e-06,-0.22762260903148201,4.210018862194076e-06,-0.2852954225060823
826,0.8166,1150.4,0.00907333,0.00617146,0.00131878,-0.00153535,-0.0110918,0.596958,-0.258524,-0.336194,4.8343e-06,-3.04789e-06,4.20121e-06,0.588601,0.816584337186139,4.834311685186776e-06,-3.0478853552118323e-06,-0.2278095017451659,4.2012188250506455e-06,-0.28551551761956295
827,0.8176,1150.57,0.00905817,0.0061609,0.00130462,-0.00152197,-0.0110872,0.597509,-0.258766,-0.336503,4.83129e-06,-3.04562e-06,4.19241e-06,0.589148,0.8175855509649936,4.831301670726873e-06,-3.045615362129439e-06,-0.2279963492362852,4.19241878812926e-06,-0.28573625921828516
828,0.8186,1150.75,0.00904304,0.00615037,0.0012905,-0.00150863,-0.0110825,0.598059,-0.259007,-0.336811,4.82827e-06,-3.04333e-06,4.18361e-06,0.589694,0.8185854979782461,4.828281656044098e-06,-3.043325369045391e-06,-0.22818237969854815,4.183618751207874e-06,-0.2859562185749661
829,0.8196,1150.92,0.00902794,0.00613986,0.0012764,-0.00149532,-0.0110779,0.598608,-0.259249,-0.337119,4.82524e-06,-3.04103e-06,4.17482e-06,0.590241,0.8195841755285402,4.82525164158254e-06,-3.0410253760715378e-06,-0.22836913696412053,4.17482871450936e-06,-0.2861761101945973
830,0.8206,1151.09,0.00901288,0.00612938,0.00126234,-0.00148205,-0.0110732,0.599158,-0.25949,-0.337426,4.82219e-06,-3.0387e-06,4.16603e-06,0.590787,0.82058522208765,4.822201626675238e-06,-3.0386953832062247e-06,-0.2285550775953662,4.166038677810846e-06,-0.28639522049361577
831,0.8216,1151.26,0.00899786,0.00611892,0.00124832,-0.00146882,-0.0110685,0.599707,-0.259731,-0.337734,4.81913e-06,-3.03636e-06,4.15725e-06,0.591332,0.8215849977878946,4.819141611989153e-06,-3.036355390229062e-06,-0.22874097342031907,4.157258641335204e-06,-0.2866149769214765
832,0.8226,1151.43,0.00898287,0.00610848,0.00123432,-0.00145563,-0.0110639,0.600256,-0.259972,-0.338041,4.81605e-06,-3.034e-06,4.14847e-06,0.591877,0.8225853225156932,4.8160615970793685e-06,-3.033995397472289e-06,-0.2289268244497762,4.148478604859562e-06,-0.28683395250908916
833,0.8236,1151.6,0.00896791,0.00609807,0.00122036,-0.00144248,-0.0110592,0.600804,-0.260213,-0.338349,4.81296e-06,-3.03162e-06,4.1397e-06,0.592422,0.8235843729872594,4.8129715823908015e-06,-3.0316154046028387e-06,-0.22911263069453203,4.1397085686067925e-06,-0.287053573828297
834,0.8246,1151.77,0.00895298,0.00608768,0.00120643,-0.00142936,-0.0110546,0.601353,-0.260454,-0.338656,4.80985e-06,-3.02922e-06,4.13093e-06,0.592967,0.8245857956734044,4.80986156725649e-06,-3.0292154119537784e-06,-0.22929839216537828,4.130938532354023e-06,-0.2872724147873257
835,0.8256,1151.94,0.00893809,0.00607732,0.00119254,-0.00141628,-0.0110499,0.6019,-0.260695,-0.338963,4.80673e-06,-3.02681e-06,4.12217e-06,0.593512,0.825584117119661,4.8067415523433965e-06,-3.0268054191928684e-06,-0.22948410887310422,4.12217849610208e-06,-0.2874911885724917
836,0.8266,1152.11,0.00892323,0.00606698,0.00117868,-0.00140324,-0.0110452,0.602448,-0.260935,-0.339269,4.80359e-06,-3.02438e-06,4.11341e-06,0.594056,0.8265848113810275,4.803601537206603e-06,-3.024375426541326e-06,-0.22966901049789212,4.113418460072182e-06,-0.2877091829139532
837,0.8276,1152.28,0.0089084,0.00605666,0.00116485,-0.00139024,-0.0110406,0.602995,-0.261176,-0.339576,4.80044e-06,-3.02193e-06,4.10465e-06,0.5946,0.8275842265879922,4.8004515220689825e-06,-3.021925433999151e-06,-0.22985463789736216,4.1046584240422845e-06,-0.28792782263188477
838,0.8286,1152.45,0.00889361,0.00604637,0.00115105,-0.00137728,-0.0110359,0.603542,-0.261416,-0.339882,4.79727e-06,-3.01946e-06,4.0959e-06,0.595143,0.8285841886246199,4.797281506929707e-06,-3.019455441455321e-06,-0.23003945060585462,4.095908388235259e-06,-0.28814568338376445
839,0.8296,1152.62,0.00887885,0.0060361,0.00113729,-0.00136435,-0.0110313,0.604089,-0.261656,-0.340189,4.79409e-06,-3.01698e-06,4.08716e-06,0.595686,0.8295846977901076,4.7941014915675595e-06,-3.0169754489106637e-06,-0.2302242189646193,4.08716835242906e-06,-0.28836418911661943
840,0.8306,1152.79,0.00886412,0.00602585,0.00112356,-0.00135146,-0.0110266,0.604636,-0.261896,-0.340495,4.7909e-06,-3.01448e-06,4.07841e-06,0.596229,0.8305857543838167,4.790911476426629e-06,-3.014475456475374e-06,-0.2304089429842987,4.0784183166220345e-06,-0.28858191636078245
841,0.8316,1152.96,0.00884943,0.00601563,0.00110986,-0.00133861,-0.0110219,0.605182,-0.262136,-0.3408,4.78769e-06,-3.01196e-06,4.06968e-06,0.596772,0.8315855271188295,4.7877014610619995e-06,-3.0119554640384294e-06,-0.23059362267553307,4.069688281260753e-06,-0.2887988657898227
842,0.8326,1153.13,0.00883476,0.00600543,0.00109619,-0.00132579,-0.0110173,0.605727,-0.262376,-0.341106,4.78447e-06,-3.00942e-06,4.06094e-06,0.597314,0.8325840132938775,4.784481445696542e-06,-3.0094154717108523e-06,-0.2307782580489599,4.060948245676599e-06,-0.2890164600432723
843,0.8336,1153.3,0.00882013,0.00599525,0.00108256,-0.00131302,-0.0110126,0.606273,-0.262616,-0.341412,4.78123e-06,-3.00687e-06,4.05222e-06,0.597856,0.8335848773761658,4.781241430107386e-06,-3.006865479382448e-06,-0.23096284911521414,4.0522282103161444e-06,-0.28923398772306674
844,0.8346,1153.46,0.00880554,0.00598509,0.00106896,-0.00130028,-0.0110079,0.606818,-0.262855,-0.341717,4.77798e-06,-3.0043e-06,4.04349e-06,0.598398,0.8345844534940865,4.777991414517402e-06,-3.0042954870523886e-06,-0.23114662703193978,4.043498174954863e-06,-0.2894507383006678
845,0.8356,1153.63,0.00879097,0.00597496,0.00105539,-0.00128758,-0.0110033,0.607363,-0.263094,-0.342022,4.77472e-06,-3.00172e-06,4.03477e-06,0.59894,0.8355845745294677,4.7747313989265905e-06,-3.001715494832524e-06,-0.2313303610309917,4.034778139594408e-06,-0.28966742277942337
846,0.8366,1153.8,0.00877644,0.00596485,0.00104185,-0.00127491,-0.0109986,0.607908,-0.263334,-0.342327,4.77144e-06,-2.99911e-06,4.02606e-06,0.599481,0.8365852407793708,4.771451383334124e-06,-2.9991055027212e-06,-0.23151481960842957,4.0260681046788704e-06,-0.2898840411794904
847,0.8376,1153.97,0.00876194,0.00595477,0.00102835,-0.00126228,-0.0109939,0.608452,-0.263573,-0.342632,4.76815e-06,-2.99649e-06,4.01735e-06,0.600022,0.8375846149554849,4.768161367740831e-06,-2.996485510498026e-06,-0.23169846561997054,4.017358069541288e-06,-0.2901005935210198
848,0.8386,1154.13,0.00874747,0.00594471,0.00101488,-0.00124969,-0.0109893,0.608996,-0.263812,-0.342937,4.76484e-06,-2.99386e-06,4.00865e-06,0.600562,0.8385845329390529,4.764851351923838e-06,-2.993855518385047e-06,-0.23188206774535947,4.008658034626578e-06,-0.29031707982415644
849,0.8396,1154.3,0.00873304,0.00593467,0.00100144,-0.00123714,-0.0109846,0.60954,-0.264051,-0.343241,4.76152e-06,-2.9912e-06,3.99994e-06,0.601102,0.8395849950259866,4.761531336106017e-06,-2.991195526380608e-06,-0.23206562599508374,3.99994799971104e-06,-0.2905327906421843
850,0.8406,1154.47,0.00871863,0.00592465,0.000988035,-0.00122462,-0.0109799,0.610083,-0.26429,-0.343546,4.75819e-06,-2.98853e-06,3.99125e-06,0.601642,0.8405841609272777,4.75820132028737e-06,-2.9885255343753414e-06,-0.2322491403796284,3.9912579650192015e-06,-0.2907491451452995
851,0.8416,1154.63,0.00870426,0.00591466,0.00097466,-0.00121214,-0.0109753,0.610627,-0.264528,-0.34385,4.75484e-06,-2.98585e-06,3.98256e-06,0.602182,0.8415857111077718,4.7548513042450224e-06,-2.9858455423692476e-06,-0.23243184334170308,3.982567930327363e-06,-0.29096472463543255
852,0.8426,1154.8,0.00868992,0.00590469,0.000961318,-0.0011997,-0.0109706,0.611169,-0.264767,-0.344154,4.75148e-06,-2.98315e-06,3.97387e-06,0.602722,0.8425841211078606,4.751491288201848e-06,-2.983145550361499e-06,-0.23261527021076045,3.973877895857569e-06,-0.29118023859936115
853,0.8436,1154.97,0.00867561,0.00589474,0.000948008,-0.00118729,-0.0109659,0.611712,-0.265005,-0.344458,4.74811e-06,-2.98043e-06,3.96519e-06,0.603261,0.8435849159768389,4.7481212723798905e-06,-2.98042555857414e-06,-0.23279788604430407,3.965197861388603e-06,-0.29139568705700214
854,0.8446,1155.13,0.00866134,0.00588481,0.00093473,-0.00117492,-0.0109613,0.612254,-0.265243,-0.344762,4.74472e-06,-2.97769e-06,3.95651e-06,0.6038,0.8445844098396671,4.744731256112189e-06,-2.9776855666741042e-06,-0.232980458420451,3.956517826919637e-06,-0.2916110700282665
855,0.8456,1155.3,0.00864709,0.00587491,0.000921484,-0.00116259,-0.0109566,0.612796,-0.265482,-0.345065,4.74132e-06,-2.97494e-06,3.94784e-06,0.604338,0.8455844455750035,4.741331240065705e-06,-2.974935574884263e-06,-0.23316375418617197,3.947847792673542e-06,-0.2918256793590923
856,0.8466,1155.46,0.00863288,0.00586503,0.00090827,-0.00115029,-0.0109519,0.613338,-0.26572,-0.345368,4.73791e-06,-2.97217e-06,3.93917e-06,0.604876,0.8465850234766219,4.737921224018393e-06,-2.9721655830927673e-06,-0.23334623949606248,3.9391777586494925e-06,-0.29204022367314153
857,0.8476,1155.63,0.0086187,0.00585517,0.000895087,-0.00113803,-0.0109473,0.613879,-0.265957,-0.345672,4.73448e-06,-2.96939e-06,3.93051e-06,0.605414,0.8475842962532365,4.734491207747382e-06,-2.9693855914114664e-06,-0.23352791490791525,3.9305177244042255e-06,-0.29225541073505423
858,0.8486,1155.8,0.00860455,0.00584533,0.000881937,-0.00112581,-0.0109426,0.61442,-0.266195,-0.345975,4.73104e-06,-2.96659e-06,3.92185e-06,0.605952,0.8485841097826836,4.731051191475544e-06,-2.9665855997285107e-06,-0.23371031355786676,3.921857690381003e-06,-0.2924698248602211
859,0.8496,1155.96,0.00859043,0.00583551,0.000868819,-0.00111362,-0.0109379,0.614961,-0.266433,-0.346277,4.72758e-06,-2.96378e-06,3.91319e-06,0.606489,0.8495844643575898,4.727591174980006e-06,-2.9637756080447275e-06,-0.23389266880210513,3.9131976565798254e-06,-0.2926834667115701
860,0.8506,1156.13,0.00857634,0.00582572,0.000855732,-0.00110147,-0.0109333,0.615502,-0.26667,-0.34658,4.72412e-06,-2.96095e-06,3.90455e-06,0.607026,0.8505853602707398,4.724131158706513e-06,-2.9609456163592895e-06,-0.23407421472555734,3.9045576227803025e-06,-0.2928977511554238
861,0.8516,1156.29,0.00856228,0.00581595,0.000842677,-0.00108935,-0.0109286,0.616042,-0.266908,-0.346883,4.72064e-06,-2.9581e-06,3.8959e-06,0.607563,0.8515849462292049,4.72065114220932e-06,-2.958095624783219e-06,-0.23425648337162341,3.895907588979952e-06,-0.29311197068092665
862,0.8526,1156.45,0.00854825,0.0058062,0.000829653,-0.00107728,-0.0109239,0.616582,-0.267145,-0.347185,4.71714e-06,-2.95524e-06,3.88726e-06,0.6081,0.8525850721098533,4.7171511257104726e-06,-2.9552356333173435e-06,-0.23443794308123944,3.887267555402474e-06,-0.2933254186335179
863,0.8536,1156.62,0.00853426,0.00579648,0.000816661,-0.00106523,-0.0109193,0.617122,-0.267382,-0.347487,4.71364e-06,-2.95236e-06,3.87863e-06,0.608636,0.8535857382043219,4.713651109211625e-06,-2.952355641738791e-06,-0.23461935979000004,3.878637521825823e-06,-0.2935388021345601
864,0.8546,1156.78,0.00852029,0.00578677,0.000803701,-0.00105323,-0.0109146,0.617661,-0.267619,-0.347789,4.71012e-06,-2.94947e-06,3.86999e-06,0.609172,0.8545850902183876,4.710131092711123e-06,-2.949465650270433e-06,-0.23480073350809516,3.869997488470389e-06,-0.2937521212035148
865,0.8556,1156.95,0.00850636,0.00577709,0.000790772,-0.00104126,-0.01091,0.6182,-0.267856,-0.348091,4.70659e-06,-2.94656e-06,3.86137e-06,0.609707,0.8555849810283811,4.7066010759877486e-06,-2.9465556589114428e-06,-0.23498206424571255,3.86137745511661e-06,-0.2939653758598374
866,0.8566,1157.11,0.00849245,0.00576743,0.000777875,-0.00102932,-0.0109053,0.618739,-0.268093,-0.348393,4.70304e-06,-2.94363e-06,3.85275e-06,0.610243,0.8565854109247921,4.7030510592627195e-06,-2.9436256675507977e-06,-0.2351633520130374,3.852757421762831e-06,-0.29417856612297766
867,0.8576,1157.27,0.00847858,0.00575779,0.000765009,-0.00101743,-0.0109006,0.619277,-0.268329,-0.348694,4.69948e-06,-2.9407e-06,3.84413e-06,0.610778,0.8575845226128147,4.699491042536863e-06,-2.9406956761901526e-06,-0.23534383216446675,3.844137388631097e-06,-0.29439098640371864
868,0.8586,1157.44,0.00846474,0.00574817,0.000752174,-0.00100556,-0.010896,0.619815,-0.268566,-0.348996,4.69591e-06,-2.93774e-06,3.83552e-06,0.611313,0.8585841719675451,4.695921025810179e-06,-2.9377356848270253e-06,-0.23552503420295412,3.835527355722235e-06,-0.29460404815188135
869,0.8596,1157.6,0.00845092,0.00573857,0.000739371,-0.000993738,-0.0108913,0.620353,-0.268802,-0.349297,4.69233e-06,-2.93477e-06,3.82691e-06,0.611847,0.8595843592783254,4.692341009082668e-06,-2.934765693574093e-06,-0.23570542900745795,3.826917322591328e-06,-0.29481634038180426
870,0.8606,1157.76,0.00843714,0.005729,0.000726599,-0.000981948,-0.0108866,0.620891,-0.269038,-0.349598,4.68873e-06,-2.93179e-06,3.81831e-06,0.612381,0.8605850848346539,4.688740992131457e-06,-2.931785702320333e-06,-0.2358857812438112,3.818317289683293e-06,-0.29502856872138183
871,0.8616,1157.92,0.00842339,0.00571944,0.000713858,-0.000970193,-0.010882,0.621428,-0.269275,-0.349899,4.68512e-06,-2.92879e-06,3.80971e-06,0.612915,0.8615844873407665,4.685130975179419e-06,-2.9287857110649185e-06,-0.23606685485558587,3.8097172569973026e-06,-0.29524073318984234
872,0.8626,1158.09,0.00840967,0.00570991,0.000701149,-0.000958474,-0.0108773,0.621965,-0.269511,-0.350199,4.6815e-06,-2.92577e-06,3.80112e-06,0.613449,0.8625844266701492,4.6815109582265535e-06,-2.9257657199188714e-06,-0.23624712180550322,3.8011272243121397e-06,-0.29545212925888953
873,0.8636,1158.25,0.00839597,0.0057004,0.00068847,-0.000946791,-0.0108726,0.622502,-0.269747,-0.3505,4.67787e-06,-2.92274e-06,3.79253e-06,0.613982,0.8635849031111533,4.677880941272861e-06,-2.922735728771997e-06,-0.23642734621744,3.7925371916269768e-06,-0.29566416625481384
874,0.8646,1158.41,0.00838231,0.00569091,0.000675823,-0.000935143,-0.010868,0.623038,-0.269982,-0.3508,4.67422e-06,-2.9197e-06,3.78395e-06,0.614515,0.8645840523673005,4.674230924095468e-06,-2.919695737735317e-06,-0.23660676470858055,3.783957159164686e-06,-0.2958754353129942
875,0.8656,1158.57,0.00836868,0.00568144,0.000663206,-0.00092353,-0.0108633,0.623575,-0.270218,-0.351101,4.67056e-06,-2.91664e-06,3.77537e-06,0.615048,0.8655856028956705,4.670570907139293e-06,-2.9166357465859605e-06,-0.23678690425480675,3.775377126702395e-06,-0.2960873449129703
876,0.8666,1158.73,0.00835508,0.00567199,0.000650621,-0.000911953,-0.0108586,0.624111,-0.270453,-0.351401,4.66689e-06,-2.91357e-06,3.7668e-06,0.615581,0.8665858248143503,4.666900889960246e-06,-2.9135657555467986e-06,-0.23696623825973595,3.766807094462976e-06,-0.2962984870365942
877,0.8676,1158.89,0.0083415,0.00566257,0.000638066,-0.000900411,-0.010854,0.624646,-0.270689,-0.351701,4.66321e-06,-2.91048e-06,3.75823e-06,0.616113,0.8675847154100347,4.6632208727803715e-06,-2.910475764505982e-06,-0.23714629298021395,3.7582370622235572e-06,-0.29650956582708154
878,0.8686,1159.05,0.00832796,0.00565316,0.000625542,-0.000888904,-0.0108493,0.625181,-0.270924,-0.352,4.65951e-06,-2.90738e-06,3.74967e-06,0.616645,0.8685841405551669,4.659520855598842e-06,-2.9073757735753603e-06,-0.23732554253871563,3.7496770299849658e-06,-0.29671987802365907
879,0.8696,1159.22,0.00831445,0.00564377,0.000613049,-0.000877433,-0.0108446,0.625716,-0.271159,-0.3523,4.6558e-06,-2.90426e-06,3.74111e-06,0.617176,0.8695841005358078,4.655810838194441e-06,-2.9042557826430837e-06,-0.2375047499785201,3.741116997968419e-06,-0.29693083041581103
880,0.8706,1159.38,0.00830096,0.00563441,0.000600587,-0.000865996,-0.01084,0.626251,-0.271394,-0.352599,4.65208e-06,-2.90113e-06,3.73256e-06,0.617708,0.8705845956381704,4.652090821011257e-06,-2.9011257917099798e-06,-0.23768391530952426,3.7325669659526994e-06,-0.29714101667310533
881,0.8716,1159.54,0.00828751,0.00562507,0.000588156,-0.000854595,-0.0108353,0.626786,-0.271629,-0.352898,4.64835e-06,-2.89798e-06,3.72401e-06,0.618239,0.8715856261486217,4.6483608036052004e-06,-2.8979758008862433e-06,-0.23786303854162238,3.7240169341590246e-06,-0.29735114009410313
882,0.8726,1159.7,0.00827408,0.00561575,0.000575755,-0.000843229,-0.0108307,0.62732,-0.271864,-0.353198,4.64461e-06,-2.89482e-06,3.71546e-06,0.61877,0.8725853197674256,4.644620786198317e-06,-2.8948158100616794e-06,-0.23804211968470657,3.7154669023653497e-06,-0.2975619031360379
883,0.8736,1159.86,0.00826068,0.00560644,0.000563385,-0.000831897,-0.010826,0.627854,-0.272099,-0.353496,4.64085e-06,-2.89165e-06,3.70692e-06,0.6193,0.8735855473651815,4.6408607687897785e-06,-2.891645819236288e-06,-0.23822115874866678,3.7069268705725023e-06,-0.2977711985023449
884,0.8746,1160.02,0.00824731,0.00559716,0.000551045,-0.000820601,-0.0108213,0.628387,-0.272333,-0.353795,4.63708e-06,-2.88846e-06,3.69839e-06,0.61983,0.8745844346417386,4.637090751380413e-06,-2.888455828409242e-06,-0.23839939414316513,3.698396839002527e-06,-0.2979811335271425
885,0.8756,1160.18,0.00823397,0.0055879,0.000538736,-0.000809339,-0.0108167,0.628921,-0.272568,-0.354094,4.6333e-06,-2.88526e-06,3.68986e-06,0.62036,0.8755857300519179,4.633310733748175e-06,-2.885255837692391e-06,-0.238578349257492,3.6898668074325514e-06,-0.298191005790751
886,0.8766,1160.34,0.00822067,0.00557866,0.000526457,-0.000798112,-0.010812,0.629454,-0.272802,-0.354392,4.62951e-06,-2.88204e-06,3.68133e-06,0.62089,0.8765856837100126,4.62952071611511e-06,-2.882035846973885e-06,-0.23875650107918966,3.6813367760846205e-06,-0.2984001137123975
887,0.8776,1160.49,0.00820738,0.00556944,0.000514208,-0.000786919,-0.0108073,0.629986,-0.273036,-0.35469,4.62571e-06,-2.87881e-06,3.67281e-06,0.621419,0.8775842929002384,4.625720698703262e-06,-2.8788058562545515e-06,-0.2389346112182381,3.672816744737517e-06,-0.2986091593291673
888,0.8786,1160.65,0.00819413,0.00556025,0.00050199,-0.000775762,-0.0108027,0.630519,-0.27327,-0.354989,4.62189e-06,-2.87556e-06,3.6643e-06,0.621948,0.8785853120762666,4.62190068084567e-06,-2.8755558655335633e-06,-0.23911267968438998,3.6643067136132856e-06,-0.2988188438411311
889,0.8796,1160.81,0.00818091,0.00555107,0.000489802,-0.000764638,-0.010798,0.631051,-0.273504,-0.355287,4.61806e-06,-2.87231e-06,3.65579e-06,0.622477,0.8795849853518047,4.618070663209295e-06,-2.8723058749235975e-06,-0.2392907064873956,3.655796682489054e-06,-0.2990277646949132
890,0.8806,1160.97,0.00816771,0.00554191,0.000477645,-0.00075355,-0.0107934,0.631583,-0.273738,-0.355584,4.61422e-06,-2.86903e-06,3.64728e-06,0.623006,0.8805851905950164,4.614230645572093e-06,-2.8690258843111494e-06,-0.2394686916370029,3.6472866513648228e-06,-0.2992359225358293
891,0.8816,1161.13,0.00815455,0.00553277,0.000465517,-0.000742495,-0.0107887,0.632114,-0.273971,-0.355882,4.61037e-06,-2.86575e-06,3.63878e-06,0.623534,0.8815840465039961,4.6103806277120185e-06,-2.8657458936987013e-06,-0.23964587478921262,3.6387866204634634e-06,-0.29944471911867765
892,0.8826,1161.29,0.00814141,0.00552365,0.00045342,-0.000731475,-0.010784,0.632646,-0.274205,-0.356179,4.60651e-06,-2.86245e-06,3.63029e-06,0.624062,0.8825853155306824,4.6065206100731615e-06,-2.8624459031956206e-06,-0.23982377683916034,3.6302965895629313e-06,-0.2996527531425177
893,0.8836,1161.45,0.0081283,0.00551456,0.000441353,-0.000720489,-0.0107794,0.633177,-0.274438,-0.356477,4.60263e-06,-2.85914e-06,3.62179e-06,0.62459,0.8835852337880314,4.602640592210605e-06,-2.8591359126917126e-06,-0.24000087726615593,3.621796558661572e-06,-0.2998614255283514
894,0.8846,1161.6,0.00811522,0.00550548,0.000429315,-0.000709538,-0.0107747,0.633708,-0.274672,-0.356774,4.59875e-06,-2.85581e-06,3.61331e-06,0.625117,0.8845856831429695,4.598760574348049e-06,-2.85580592218615e-06,-0.24017869625524246,3.613316527983912e-06,-0.3000693358087646
895,0.8856,1161.76,0.00810216,0.00549642,0.000417308,-0.00069862,-0.0107701,0.634238,-0.274905,-0.357071,4.59485e-06,-2.85247e-06,3.60483e-06,0.625644,0.8855847782918624,4.594860556261793e-06,-2.8524659316797596e-06,-0.24035571399564737,3.604836497306252e-06,-0.3002771843489933
896,0.8866,1161.92,0.00808914,0.00548738,0.000405331,-0.000687737,-0.0107654,0.634768,-0.275138,-0.357368,4.59094e-06,-2.84912e-06,3.59635e-06,0.626171,0.8865844031015322,4.590950538396754e-06,-2.8491159412835643e-06,-0.24053269049572346,3.5963564668506365e-06,-0.3004849711673717
897,0.8876,1162.08,0.00807614,0.00547837,0.000393383,-0.000676888,-0.0107608,0.635298,-0.275371,-0.357664,4.58702e-06,-2.84575e-06,3.58788e-06,0.626698,0.8875845578527732,4.5870305203088435e-06,-2.845745950885714e-06,-0.2407096257650786,3.5878864363958485e-06,-0.30069199697457516
898,0.8886,1162.23,0.00806317,0.00546937,0.000381465,-0.000666072,-0.0107561,0.635828,-0.275604,-0.357961,4.58309e-06,-2.84237e-06,3.57941e-06,0.627224,0.8885852428265286,4.58310050244215e-06,-2.8423659604870366e-06,-0.24088651981331854,3.579416406163105e-06,-0.3008996606118971
899,0.8896,1162.39,0.00805023,0.00546039,0.000369577,-0.000655291,-0.0107514,0.636357,-0.275836,-0.358257,4.57915e-06,-2.83898e-06,3.57095e-06,0.62775,0.8895845687183779,4.579160484352585e-06,-2.8389759700875317e-06,-0.2410626137130396,3.570956375931189e-06,-0.30110656368918987
900,0.8906,1162.55,0.00803732,0.00545143,0.000357719,-0.000644543,-0.0107468,0.636886,-0.276069,-0.358553,4.5752e-06,-2.83558e-06,3.5625e-06,0.628276,0.8905844233934748,4.575210466262192e-06,-2.8355759797982216e-06,-0.24123942552466848,3.5625063457001005e-06,-0.30131340553223485
901,0.8916,1162.7,0.00802443,0.00544249,0.00034589,-0.000633829,-0.0107421,0.637415,-0.276302,-0.358849,4.57123e-06,-2.83216e-06,3.55405e-06,0.628801,0.8915848071316197,4.571240448170144e-06,-2.8321559893962345e-06,-0.24141619614394438,3.5540563156910565e-06,-0.30152018615915477
902,0.8926,1162.86,0.00801158,0.00543357,0.000334091,-0.000623149,-0.0107375,0.637944,-0.276534,-0.359145,4.56725e-06,-2.82873e-06,3.5456e-06,0.629326,0.892585720212761,4.567260429855224e-06,-2.8287259991044422e-06,-0.24159216717301035,3.5456062856820125e-06,-0.3017269055880668
903,0.8936,1163.02,0.00799875,0.00542467,0.000322321,-0.000612502,-0.0107328,0.638472,-0.276766,-0.359441,4.56327e-06,-2.82528e-06,3.53716e-06,0.629851,0.8935852693307791,4.563280411762349e-06,-2.8252760089220175e-06,-0.24176809738153293,3.537166255673796e-06,-0.30193356383708303
904,0.8946,1163.17,0.00798594,0.00541579,0.000310581,-0.000601889,-0.0107282,0.639,-0.276998,-0.359736,4.55927e-06,-2.82183e-06,3.52872e-06,0.630376,0.894585346350085,4.559280393445775e-06,-2.8218260186285704e-06,-0.24194398677898132,3.528726225887624e-06,-0.302139463064122
905,0.8956,1163.33,0.00797317,0.00540693,0.000298871,-0.000591309,-0.0107235,0.639527,-0.27723,-0.360032,4.55526e-06,-2.81836e-06,3.52029e-06,0.6309,0.8955840559644805,4.555270375128373e-06,-2.818356028444491e-06,-0.24211983537482273,3.520296196324324e-06,-0.3023459992141968
906,0.8966,1163.48,0.00796042,0.00539809,0.000287189,-0.000580763,-0.0107189,0.640055,-0.277462,-0.360327,4.55124e-06,-2.81487e-06,3.51186e-06,0.631424,0.896585188621793,4.551250356810144e-06,-2.8148660382587565e-06,-0.24229564317852204,3.5118661665389794e-06,-0.30255177679074374
907,0.8976,1163.64,0.0079477,0.00538927,0.000275537,-0.00057025,-0.0107142,0.640582,-0.277694,-0.360622,4.54721e-06,-2.81138e-06,3.50344e-06,0.631948,0.8975849524308217,4.547220338491087e-06,-2.811376048073022e-06,-0.24247141019954177,3.503446136976507e-06,-0.30275749367185856
908,0.8986,1163.79,0.00793501,0.00538047,0.000263914,-0.00055977,-0.0107096,0.641109,-0.277925,-0.360917,4.54317e-06,-2.80787e-06,3.49502e-06,0.632472,0.8985852432542341,4.543180320171203e-06,-2.807866057885633e-06,-0.24264637909410025,3.495026107636079e-06,-0.3029631498754439
909,0.8996,1163.95,0.00792234,0.00537169,0.000252321,-0.000549324,-0.0107049,0.641635,-0.278157,-0.361212,4.53911e-06,-2.80435e-06,3.48661e-06,0.632995,0.8995841617847278,4.539120301849664e-06,-2.8043460678084386e-06,-0.24282206475382595,3.4866160782964783e-06,-0.303168745419397
910,0.9006,1164.1,0.0079097,0.00536292,0.000240756,-0.000538911,-0.0107003,0.642162,-0.278388,-0.361506,4.53505e-06,-2.80082e-06,3.47821e-06,0.633518,0.9005855064691375,4.5350602833060805e-06,-2.800816077730417e-06,-0.24299695265653742,3.478216048957705e-06,-0.30337358369554157
911,0.9016,1164.26,0.00789709,0.00535418,0.000229221,-0.000528531,-0.0106956,0.642688,-0.27862,-0.361801,4.53098e-06,-2.79727e-06,3.4698e-06,0.63404,0.9015854774148435,4.530990264983714e-06,-2.7972660876507405e-06,-0.2431725569926304,3.4698060198401492e-06,-0.3035790581793749
912,0.9026,1164.41,0.00788451,0.00534545,0.000217714,-0.000518183,-0.010691,0.643213,-0.278851,-0.362095,4.52689e-06,-2.79372e-06,3.46141e-06,0.634563,0.9025840718986018,4.5269002464376484e-06,-2.793716097571064e-06,-0.24334736394098533,3.461415990724248e-06,-0.30378377584129934
913,0.9036,1164.57,0.00787195,0.00533675,0.000206237,-0.000507869,-0.0106863,0.643739,-0.279082,-0.362389,4.52279e-06,-2.79015e-06,3.45302e-06,0.635085,0.9035850943662493,4.522800227890755e-06,-2.7901461074897327e-06,-0.2435221305135986,3.453025961608347e-06,-0.30398843332507774
914,0.9046,1164.72,0.00785942,0.00532806,0.000194789,-0.000497588,-0.0106817,0.644264,-0.279313,-0.362683,4.51869e-06,-2.78657e-06,3.44463e-06,0.635607,0.9045847389245276,4.518700209343862e-06,-2.7865661175185963e-06,-0.24369685671979613,3.4446359327144904e-06,-0.30419303064839986
915,0.9056,1164.87,0.00784691,0.00531939,0.000183369,-0.000487339,-0.010677,0.644789,-0.279543,-0.362977,4.51457e-06,-2.78297e-06,3.43625e-06,0.636128,0.9055849084339864,4.514580190795314e-06,-2.782966127545805e-06,-0.2438707864400661,3.4362559038214613e-06,-0.30439756782895044
916,0.9066,1165.03,0.00783444,0.00531074,0.000171978,-0.000477123,-0.0106724,0.645314,-0.279774,-0.363271,4.51044e-06,-2.77937e-06,3.42787e-06,0.63665,0.9065856031702981,4.510450172023894e-06,-2.779366137573014e-06,-0.24404543211604623,3.4278758751504768e-06,-0.3046020448844088
917,0.9076,1165.18,0.00782198,0.00530211,0.000160616,-0.00046694,-0.0106677,0.645838,-0.280005,-0.363564,4.50631e-06,-2.77575e-06,3.4195e-06,0.637171,0.9075849158234088,4.506320153474519e-06,-2.775746147598568e-06,-0.2442200374535345,3.4195058464803196e-06,-0.3048057666385632
918,0.9086,1165.33,0.00780956,0.0052935,0.000149283,-0.000456789,-0.0106631,0.646362,-0.280235,-0.363858,4.50216e-06,-2.77212e-06,3.41113e-06,0.637692,0.9085847522535673,4.502170134701444e-06,-2.7721161577343167e-06,-0.24439384685607268,3.4111358178101625e-06,-0.3050101237012113
919,0.9096,1165.49,0.00779716,0.0052849,0.000137978,-0.000446671,-0.0106584,0.646886,-0.280465,-0.364151,4.498e-06,-2.76848e-06,3.40277e-06,0.638212,0.9095851127353047,4.498010115927542e-06,-2.768476167758216e-06,-0.24456761628704526,3.4027757893628774e-06,-0.3052137259057872
920,0.9106,1165.64,0.00778479,0.00527633,0.000126702,-0.000436586,-0.0106538,0.647409,-0.280696,-0.364444,4.49383e-06,-2.76482e-06,3.39441e-06,0.638732,0.910584086958254,4.493840097374857e-06,-2.7648161778914826e-06,-0.24474210101392102,3.3944157609155923e-06,-0.3054172684636559
921,0.9116,1165.79,0.00777244,0.00526777,0.000115454,-0.000426532,-0.0106492,0.647933,-0.280926,-0.364737,4.48965e-06,-2.76116e-06,3.38606e-06,0.639252,0.9115854953659093,4.4896600785993e-06,-2.7611561880247493e-06,-0.24491579035564792,3.386065732691179e-06,-0.3056207513922913
922,0.9126,1165.95,0.00776012,0.00525923,0.000104235,-0.000416511,-0.0106445,0.648456,-0.281156,-0.365029,4.48546e-06,-2.75748e-06,3.37772e-06,0.639772,0.9125855160626035,4.485470059600871e-06,-2.757476198156361e-06,-0.2450894397534199,3.3777257044675935e-06,-0.3058234805329898
923,0.9136,1166.1,0.00774783,0.00525072,9.30446e-05,-0.000406523,-0.0106399,0.648978,-0.281386,-0.365322,4.48126e-06,-2.75379e-06,3.36937e-06,0.640292,0.91358414632181,4.4812700408236594e-06,-2.7537862082871456e-06,-0.24526304921642295,3.3693756762431804e-06,-0.3060268444589236
924,0.9146,1166.25,0.00773556,0.00524222,8.18822e-05,-0.000396566,-0.0106352,0.649501,-0.281615,-0.365614,4.47705e-06,-2.75009e-06,3.36104e-06,0.640811,0.9145852125863458,4.47706002204562e-06,-2.750086218528125e-06,-0.24543586419008268,3.3610456482424667e-06,-0.30622945503775745
925,0.9156,1166.4,0.00772332,0.00523373,7.07482e-05,-0.000386642,-0.0106306,0.650023,-0.281845,-0.365907,4.47283e-06,-2.74638e-06,3.35271e-06,0.64133,0.9155848869596279,4.472840003044709e-06,-2.7463762286572546e-06,-0.24560939398462767,3.352715620241753e-06,-0.30643270003058587
926,0.9166,1166.55,0.00771111,0.00522527,5.96424e-05,-0.00037675,-0.010626,0.650545,-0.282074,-0.366199,4.4686e-06,-2.74266e-06,3.34438e-06,0.641848,0.916585083299154,4.468609984265015e-06,-2.742656238896579e-06,-0.24578212965441615,3.344385592463084e-06,-0.3066351921168936
927,0.9176,1166.71,0.00769892,0.00521682,4.85648e-05,-0.000366889,-0.0106213,0.651067,-0.282304,-0.366491,4.46436e-06,-2.73892e-06,3.33606e-06,0.642367,0.9175858018774616,4.464369965262449e-06,-2.738916249134249e-06,-0.2459555798170623,3.336065564685242e-06,-0.3068376250841439
928,0.9186,1166.86,0.00768676,0.0052084,3.75154e-05,-0.000357061,-0.0106167,0.651588,-0.282533,-0.366782,4.46011e-06,-2.73518e-06,3.32774e-06,0.642885,0.9185851243811471,4.460119946259056e-06,-2.7351762593719187e-06,-0.24612823621937152,3.3277455369074005e-06,-0.30703930598924944
929,0.9196,1167.01,0.00767462,0.00519999,2.6494e-05,-0.000347264,-0.0106121,0.652109,-0.282762,-0.367074,4.45585e-06,-2.73142e-06,3.31943e-06,0.643402,0.9195849676675096,4.455859927254835e-06,-2.731416269718956e-06,-0.2463008530878915,3.319435509352431e-06,-0.30724162097247554
930,0.9206,1167.16,0.00766251,0.0051916,1.55007e-05,-0.0003375,-0.0106074,0.65263,-0.282991,-0.367366,4.45158e-06,-2.72765e-06,3.31112e-06,0.64392,0.9205853320079467,4.451589908249787e-06,-2.7276462799541434e-06,-0.24647343043167436,3.311125481797461e-06,-0.30744387688835084
931,0.9216,1167.31,0.00765042,0.00518322,4.53529e-06,-0.000327767,-0.0106028,0.65315,-0.28322,-0.367657,4.4473e-06,-2.72387e-06,3.30282e-06,0.644437,0.9215842960887417,4.447309889243911e-06,-2.723866290299526e-06,-0.24664596825977025,3.302825454243319e-06,-0.3076453813998479
932,0.9226,1167.46,0.00763836,0.00517487,-6.40218e-06,-0.000318065,-0.0105982,0.653671,-0.283449,-0.367948,4.44301e-06,-2.72008e-06,3.29453e-06,0.644954,0.9225857023506834,4.443019870237208e-06,-2.7200763005330586e-06,-0.24681846658122708,3.2945354269120486e-06,-0.30784682728206314
933,0.9236,1167.61,0.00762632,0.00516653,-1.73118e-05,-0.000308395,-0.0105935,0.654191,-0.283678,-0.368239,4.43871e-06,-2.71628e-06,3.28623e-06,0.645471,0.9235857068945537,4.438719851007633e-06,-2.7162763108767862e-06,-0.24699092540509093,3.286235399579951e-06,-0.3080482145520551
934,0.9246,1167.76,0.00761431,0.00515821,-2.81936e-05,-0.000298757,-0.0105889,0.65471,-0.283906,-0.36853,4.43441e-06,-2.71247e-06,3.27795e-06,0.645987,0.9245843069907416,4.434419832000103e-06,-2.7124663212196864e-06,-0.2471625919033742,3.2779553724715527e-06,-0.3082495432268776
935,0.9256,1167.91,0.00760233,0.00514991,-3.90477e-05,-0.00028915,-0.0105843,0.65523,-0.284135,-0.368821,4.43009e-06,-2.70865e-06,3.26967e-06,0.646504,0.9255853510792829,4.430099812768873e-06,-2.7086463315617593e-06,-0.24733497193156173,3.2696753453631544e-06,-0.30845081332357915
936,0.9266,1168.06,0.00759037,0.00514163,-4.98741e-05,-0.000279574,-0.0105796,0.655749,-0.284363,-0.369111,4.42576e-06,-2.70481e-06,3.26139e-06,0.64702,0.9265849892601623,4.42576979375886e-06,-2.7048063420131996e-06,-0.24750655999617865,3.261395318254756e-06,-0.3086513335108828
937,0.9276,1168.21,0.00757844,0.00513337,-6.06729e-05,-0.00027003,-0.010575,0.656268,-0.284591,-0.369402,4.42142e-06,-2.70097e-06,3.25312e-06,0.647535,0.9275851463879126,4.421429774525976e-06,-2.7009663523536176e-06,-0.24767810894317643,3.25312529136923e-06,-0.3088524867036221
938,0.9286,1168.36,0.00756653,0.00512512,-7.14441e-05,-0.000260517,-0.0105704,0.656787,-0.284819,-0.369692,4.41707e-06,-2.69711e-06,3.24485e-06,0.648051,0.9285858227319375,4.417079755292264e-06,-2.697106362803403e-06,-0.24784961878147282,3.2448552644837036e-06,-0.30905289042253437
939,0.9296,1168.51,0.00755464,0.00511689,-8.21878e-05,-0.000251035,-0.0105657,0.657305,-0.285047,-0.369982,4.41272e-06,-2.69324e-06,3.23659e-06,0.648566,0.9295850889757258,4.4127297360585516e-06,-2.693236373252361e-06,-0.2480210895199837,3.2365952378210494e-06,-0.3092532360327942
940,0.9306,1168.66,0.00754279,0.00510868,-9.2904e-05,-0.000241584,-0.0105611,0.657823,-0.285275,-0.370272,4.40835e-06,-2.68937e-06,3.22834e-06,0.649081,0.9305848729735151,4.408359716823185e-06,-2.6893663837013193e-06,-0.24819252116762258,3.2283452111592226e-06,-0.3094535235512509
941,0.9316,1168.81,0.00753095,0.00510048,-0.000103593,-0.000232165,-0.0105565,0.658341,-0.285503,-0.370562,4.40397e-06,-2.68548e-06,3.22009e-06,0.649595,0.9315851749935713,4.4039796975869905e-06,-2.6854763941486226e-06,-0.24836391373330147,3.2200951844973957e-06,-0.3096537529947484
942,0.9326,1168.96,0.00751914,0.00509231,-0.000114254,-0.000222776,-0.0105519,0.658858,-0.285731,-0.370851,4.39959e-06,-2.68158e-06,3.21184e-06,0.65011,0.932584062719271,4.399599678128752e-06,-2.6815764045950985e-06,-0.24853526722592978,3.2118451580576135e-06,-0.3098532342337055
943,0.9336,1169.11,0.00750736,0.00508415,-0.000124889,-0.000213418,-0.0105472,0.659376,-0.285958,-0.371141,4.39519e-06,-2.67767e-06,3.2036e-06,0.650624,0.9335854005878772,4.395199658890903e-06,-2.677666415040747e-06,-0.24870583036062133,3.2036051316186587e-06,-0.3100533477779114
944,0.9346,1169.26,0.0074956,0.00507601,-0.000135496,-0.000204091,-0.0105426,0.659893,-0.286185,-0.37143,4.39079e-06,-2.67375e-06,3.19537e-06,0.651137,0.934585322697574,4.390799639431009e-06,-2.673746425485568e-06,-0.24887635478187542,3.1953751051805312e-06,-0.31025271355066175
945,0.9356,1169.4,0.00748386,0.00506788,-0.000146075,-0.000194794,-0.010538,0.66041,-0.286413,-0.371719,4.38637e-06,-2.66982e-06,3.18714e-06,0.651651,0.9355857619006591,4.386379620191505e-06,-2.669816436040584e-06,-0.24904759145126298,3.1871450789644484e-06,-0.3104520217150287
946,0.9366,1169.55,0.00747215,0.00505978,-0.000156628,-0.000185529,-0.0105334,0.660926,-0.28664,-0.372009,4.38195e-06,-2.66588e-06,3.17891e-06,0.652164,0.9365847818787878,4.381959600729957e-06,-2.6658764465947726e-06,-0.2492180383015542,3.1789150527483656e-06,-0.3106519616360415
947,0.9376,1169.7,0.00746047,0.00505169,-0.000167154,-0.000176293,-0.0105288,0.661442,-0.286867,-0.372297,4.37752e-06,-2.66193e-06,3.17069e-06,0.652677,0.9375843174842458,4.377529581267581e-06,-2.6619264570371115e-06,-0.2493884464648014,3.17069502653311e-06,-0.3108504652851928
948,0.9386,1169.85,0.00744881,0.00504362,-0.000177652,-0.000167089,-0.0105241,0.661958,-0.287094,-0.372586,4.37308e-06,-2.65797e-06,3.16248e-06,0.65319,0.9385843689831652,4.373089562026422e-06,-2.6579664675896453e-06,-0.2495588159497858,3.1624850005407268e-06,-0.31104960072426846
949,0.9396,1170.0,0.00743717,0.00503556,-0.000188124,-0.000157915,-0.0105195,0.662474,-0.287321,-0.372875,4.36863e-06,-2.654e-06,3.15427e-06,0.653702,0.9395849366418159,4.368639542562391e-06,-2.6539964781413516e-06,-0.24972914676528624,3.154274974770388e-06,-0.3112486786215174
950,0.9406,1170.14,0.00742556,0.00502752,-0.000198569,-0.000148771,-0.0105149,0.662989,-0.287547,-0.373163,4.36417e-06,-2.65002e-06,3.14606e-06,0.654215,0.9405840801415546,4.364179523097533e-06,-2.6500164886922306e-06,-0.24989868881914357,3.1460649487780046e-06,-0.3114470104409215
951,0.9416,1170.29,0.00741397,0.0050195,-0.000208987,-0.000139657,-0.0105103,0.663505,-0.287774,-0.373451,4.3597e-06,-2.64603e-06,3.13786e-06,0.654727,0.9415856799174263,4.359709503409803e-06,-2.646026499242282e-06,-0.25006894249225864,3.137864923008493e-06,-0.31164528514898604
952,0.9426,1170.44,0.00740241,0.0050115,-0.000219378,-0.000130574,-0.0105057,0.66402,-0.288001,-0.37374,4.35522e-06,-2.64203e-06,3.12967e-06,0.655238,0.9425858540653209,4.35522948394329e-06,-2.6420265097915063e-06,-0.25023915752217607,3.129674897461854e-06,-0.31184419091830995
953,0.9436,1170.59,0.00739087,0.00500351,-0.000229743,-0.000121521,-0.0105011,0.664534,-0.288227,-0.374028,4.35074e-06,-2.63802e-06,3.12148e-06,0.65575,0.9435845998499883,4.3507494644767775e-06,-2.6380165204509254e-06,-0.25040858432662605,3.1214848719152144e-06,-0.31204235125486735
954,0.9446,1170.73,0.00737935,0.00499555,-0.000240081,-0.000112498,-0.0104965,0.665049,-0.288453,-0.374315,4.34624e-06,-2.634e-06,3.1133e-06,0.656261,0.9445858037067756,4.34624944500861e-06,-2.6339965309984947e-06,-0.25057797284494465,3.1133048463694024e-06,-0.31223976676957577
955,0.9456,1170.88,0.00736786,0.00498759,-0.000250392,-0.000103505,-0.0104919,0.665563,-0.288679,-0.374603,4.34174e-06,-2.62997e-06,3.10512e-06,0.656772,0.9455855777297935,4.3417494253183975e-06,-2.629966541656259e-06,-0.2507473230857836,3.1051248208235904e-06,-0.3124378131966917
956,0.9466,1171.03,0.00735639,0.00497966,-0.000260677,-9.45425e-05,-0.0104872,0.666077,-0.288905,-0.374891,4.33722e-06,-2.62593e-06,3.09694e-06,0.657282,0.9465858657687498,4.337229405848575e-06,-2.6259265522021735e-06,-0.2509166350577928,3.096944795499823e-06,-0.3126358025946493
957,0.9476,1171.17,0.00734495,0.00497174,-0.000270935,-8.56095e-05,-0.0104826,0.66659,-0.289131,-0.375178,4.3327e-06,-2.62188e-06,3.08877e-06,0.657793,0.9475847205022228,4.332709386156708e-06,-2.621876562858283e-06,-0.2510859087696198,3.088774770176883e-06,-0.3128330478132618
958,0.9486,1171.32,0.00733353,0.00496384,-0.000281167,-7.67063e-05,-0.010478,0.667103,-0.289357,-0.375465,4.32817e-06,-2.61782e-06,3.08061e-06,0.658303,0.9485840877796301,4.328179366464013e-06,-2.617816573513565e-06,-0.25125514422991047,3.080614745076815e-06,-0.31303023643061934
959,0.9496,1171.46,0.00732213,0.00495595,-0.000291372,-6.78329e-05,-0.0104734,0.667616,-0.289583,-0.375752,4.32363e-06,-2.61375e-06,3.07245e-06,0.658813,0.9495839678639746,4.323639346992536e-06,-2.6137465841680196e-06,-0.25142434144730885,3.072454719976747e-06,-0.31322736846296395
960,0.9506,1171.61,0.00731076,0.00494809,-0.000301552,-5.89892e-05,-0.0104688,0.668129,-0.289808,-0.376039,4.31908e-06,-2.60967e-06,3.0643e-06,0.659322,0.9505843610183935,4.319089327298187e-06,-2.609666594821647e-06,-0.2515927520235829,3.0643046948775066e-06,-0.31342444392653335
961,0.9516,1171.76,0.00729941,0.00494023,-0.000311704,-5.01751e-05,-0.0104642,0.668642,-0.290034,-0.376326,4.31453e-06,-2.60558e-06,3.05615e-06,0.659832,0.9515852675061593,4.314539307603837e-06,-2.6055766054744467e-06,-0.251761872950241,3.0561546700003106e-06,-0.3136214628375603
962,0.9526,1171.9,0.00728808,0.0049324,-0.000321831,-4.13906e-05,-0.0104596,0.669154,-0.290259,-0.376613,4.30996e-06,-2.60149e-06,3.04801e-06,0.660341,0.9525847350049685,4.309969287907833e-06,-2.6014866161272465e-06,-0.25193020759047,3.048014645123942e-06,-0.3138184252122732
963,0.9536,1172.05,0.00727678,0.00492458,-0.000331932,-3.26355e-05,-0.010455,0.669666,-0.290484,-0.376899,4.30539e-06,-2.59738e-06,3.03987e-06,0.66085,0.9535847143621616,4.305399268211829e-06,-2.5973766267783915e-06,-0.25209850435966563,3.039874620469618e-06,-0.3140146450818836
964,0.9546,1172.19,0.0072655,0.00491678,-0.000342006,-2.39098e-05,-0.0104504,0.670178,-0.29071,-0.377185,4.30081e-06,-2.59326e-06,3.03174e-06,0.661358,0.9545852058398774,4.300819248514998e-06,-2.5932566375397315e-06,-0.25226751099921074,3.0317445958161215e-06,-0.31421080884063557
965,0.9556,1172.34,0.00725425,0.004909,-0.000352055,-1.52135e-05,-0.0104458,0.670689,-0.290935,-0.377472,4.29622e-06,-2.58914e-06,3.02361e-06,0.661866,0.9555842541151565,4.296229228817339e-06,-2.589136648190049e-06,-0.25243573188367674,3.023614571162625e-06,-0.3144076020973152
966,0.9566,1172.48,0.00724302,0.00490123,-0.000362078,-6.54649e-06,-0.0104412,0.671201,-0.291159,-0.377758,4.29162e-06,-2.585e-06,3.01549e-06,0.662374,0.956585769619354,4.291629209118852e-06,-2.584996658838712e-06,-0.2526031675262427,3.015494546509956e-06,-0.3146036534864304
967,0.9576,1172.63,0.00723181,0.00489348,-0.000372074,2.09136e-06,-0.0104366,0.671712,-0.291384,-0.378044,4.28701e-06,-2.58086e-06,3.00737e-06,0.662882,0.9575858404439634,4.287019189197494e-06,-2.580856669598397e-06,-0.2527713128964858,3.0073745220793313e-06,-0.3147996488128656
968,0.9586,1172.77,0.00722062,0.00488574,-0.000382045,1.07001e-05,-0.010432,0.672222,-0.291609,-0.378329,4.28239e-06,-2.57671e-06,2.99926e-06,0.66339,0.9585844638499132,4.282399169497353e-06,-2.5767066802462324e-06,-0.25293942043827644,2.9992644978715788e-06,-0.3149949030878981
969,0.9596,1172.92,0.00720946,0.00487802,-0.00039199,1.92797e-05,-0.0104274,0.672733,-0.291833,-0.378615,4.27777e-06,-2.57255e-06,2.99115e-06,0.663897,0.9595855562682698,4.277779149575167e-06,-2.5725466910042627e-06,-0.2531067432672418,2.9911544734417816e-06,-0.3151907865329471
970,0.9606,1173.06,0.00719832,0.00487032,-0.000401909,2.78304e-05,-0.0104228,0.673243,-0.292058,-0.3789,4.27313e-06,-2.56838e-06,2.98305e-06,0.664404,0.9605851997893973,4.273139129873371e-06,-2.5683767017614656e-06,-0.2532747753456889,2.9830544492348565e-06,-0.31538592934961296
971,0.9616,1173.2,0.00718721,0.00486263,-0.000411803,3.63521e-05,-0.0104182,0.673753,-0.292282,-0.379186,4.26849e-06,-2.5642e-06,2.97495e-06,0.664911,0.9615853532587462,4.268499109949531e-06,-2.564196712406819e-06,-0.2534420230635678,2.974954425249976e-06,-0.3155817009771419
972,0.9626,1173.35,0.00717612,0.00485496,-0.000421671,4.4845e-05,-0.0104136,0.674262,-0.292506,-0.379471,4.26384e-06,-2.56001e-06,2.96686e-06,0.665417,0.9625840543514208,4.263849090246907e-06,-2.560006723162367e-06,-0.25360923332215346,2.9668644010438783e-06,-0.31577673239906556
973,0.9636,1173.49,0.00716505,0.00484731,-0.000431514,5.33091e-05,-0.0104091,0.674772,-0.292731,-0.379756,4.25919e-06,-2.55581e-06,2.95877e-06,0.665923,0.9635852274965917,4.259199070322239e-06,-2.5558067339170876e-06,-0.25377715235305653,2.958774377059825e-06,-0.315971708244954
974,0.9646,1173.63,0.007154,0.00483967,-0.000441331,6.17445e-05,-0.0104045,0.675281,-0.292955,-0.380041,4.25452e-06,-2.5516e-06,2.95069e-06,0.666429,0.9645849467843621,4.2545290503959166e-06,-2.551596744670981e-06,-0.25394428755108844,2.950694353298644e-06,-0.31616662853064426
975,0.9656,1173.78,0.00714298,0.00483205,-0.000451122,7.01513e-05,-0.0103999,0.67579,-0.293178,-0.380325,4.24985e-06,-2.54739e-06,2.94262e-06,0.666935,0.9655851750587763,4.249859030691638e-06,-2.547386755424874e-06,-0.25411063942604106,2.9426243295382903e-06,-0.31636080963311974
976,0.9666,1173.92,0.00713197,0.00482444,-0.000460889,7.85295e-05,-0.0103953,0.676298,-0.293402,-0.38061,4.24517e-06,-2.54316e-06,2.93455e-06,0.66744,0.9665839459940446,4.245179010764488e-06,-2.5431567661771126e-06,-0.25427769993133453,2.9345543057779366e-06,-0.31655561904071516
977,0.9676,1174.06,0.007121,0.00481685,-0.000470629,8.68792e-05,-0.0103907,0.676807,-0.293626,-0.380894,4.24048e-06,-2.53893e-06,2.92648e-06,0.667946,0.9675851920180518,4.240488990836511e-06,-2.538926776929351e-06,-0.2544447230192657,2.9264842822396275e-06,-0.3167496896855716
978,0.9686,1174.21,0.00711004,0.00480928,-0.000480345,9.52004e-05,-0.0103861,0.677315,-0.293849,-0.381179,4.23578e-06,-2.53469e-06,2.91842e-06,0.668451,0.9685849792200456,4.235788970907706e-06,-2.534686787680762e-06,-0.25461096330955113,2.918424258702146e-06,-0.31694438827814386
979,0.9696,1174.35,0.00709911,0.00480172,-0.000490035,0.000103493,-0.0103815,0.677823,-0.294073,-0.381463,4.23107e-06,-2.53044e-06,2.91037e-06,0.668955,0.9695852744429643,4.231078950978073e-06,-2.530436798431346e-06,-0.2547779117548459,2.9103742351654915e-06,-0.31713834852821376
980,0.9706,1174.49,0.0070882,0.00479418,-0.000499701,0.000111758,-0.010377,0.67833,-0.294296,-0.381747,4.22636e-06,-2.52618e-06,2.90232e-06,0.66946,0.9705841073598556,4.226368931048441e-06,-2.526176809181102e-06,-0.2549440777523272,2.9023242116288372e-06,-0.31733225370139384
981,0.9716,1174.64,0.00707731,0.00478665,-0.000509341,0.000119994,-0.0103724,0.678838,-0.294519,-0.382031,4.22164e-06,-2.52192e-06,2.89427e-06,0.669964,0.9715854183978645,4.221648911117981e-06,-2.5219168199308584e-06,-0.25511020669892237,2.8942741883142276e-06,-0.3175261038133238
982,0.9726,1174.78,0.00706644,0.00477914,-0.000518956,0.000128203,-0.0103678,0.679345,-0.294743,-0.382314,4.21691e-06,-2.51764e-06,2.88623e-06,0.670468,0.9725852656448517,4.216918891186694e-06,-2.517636830789982e-06,-0.25527704332622203,2.88623416522249e-06,-0.31771921659919655
983,0.9736,1174.92,0.0070556,0.00477165,-0.000528546,0.000136383,-0.0103632,0.679852,-0.294966,-0.382598,4.21217e-06,-2.51336e-06,2.8782e-06,0.670971,0.97358561994292,4.212178871254579e-06,-2.5133568415380836e-06,-0.2554430980297727,2.8782041421315796e-06,-0.31791295682926757
984,0.9746,1175.06,0.00704477,0.00476417,-0.000538112,0.000144535,-0.0103586,0.680358,-0.295188,-0.382881,4.20742e-06,-2.50907e-06,2.87017e-06,0.671475,0.9745845069637147,4.207428851099593e-06,-2.5090668522853576e-06,-0.25560837131599656,2.8701741190406693e-06,-0.3181059601512267
985,0.9756,1175.2,0.00703398,0.00475671,-0.000547652,0.000152659,-0.0103541,0.680865,-0.295411,-0.383165,4.20267e-06,-2.50477e-06,2.86214e-06,0.671978,0.9755858751341266,4.202678831166651e-06,-2.5047668630318043e-06,-0.2557743521416431,2.862144095949759e-06,-0.31829959056172397
986,0.9766,1175.34,0.0070232,0.00474926,-0.000557168,0.000160755,-0.0103495,0.681371,-0.295634,-0.383448,4.19791e-06,-2.50046e-06,2.85412e-06,0.672481,0.9765857745401598,4.197918811232881e-06,-2.500456873888446e-06,-0.2559402959576924,2.8541240730817208e-06,-0.318492484481818
987,0.9776,1175.49,0.00701244,0.00474183,-0.000566659,0.000168824,-0.0103449,0.681876,-0.295857,-0.383731,4.19314e-06,-2.49614e-06,2.84611e-06,0.672984,0.9775842024381283,4.1931487912982846e-06,-2.4961368846332377e-06,-0.2561062027723965,2.84611405021451e-06,-0.31868532382065606
988,0.9786,1175.63,0.00700171,0.00473441,-0.000576125,0.000176865,-0.0103403,0.682382,-0.296079,-0.384013,4.18836e-06,-2.49182e-06,2.8381e-06,0.673486,0.9785851132536425,4.188368771140816e-06,-2.4918168953780295e-06,-0.25627132886570647,2.838104027347299e-06,-0.31887742747145087
989,0.9796,1175.77,0.006991,0.00472701,-0.000585567,0.000184878,-0.0103358,0.682887,-0.296301,-0.384296,4.18358e-06,-2.48749e-06,2.8301e-06,0.673988,0.9795845510726449,4.1835887512053915e-06,-2.4874869062330163e-06,-0.25643641830509245,2.83010400470296e-06,-0.31907015788683635
990,0.9806,1175.91,0.00698031,0.00471963,-0.000594984,0.000192864,-0.0103312,0.683392,-0.296524,-0.384579,4.17879e-06,-2.48314e-06,2.8221e-06,0.67449,0.980584493735208,4.178798731047095e-06,-2.483136916975326e-06,-0.25660221449684795,2.8221039820586213e-06,-0.3192628337672314
991,0.9816,1176.05,0.00696964,0.00471226,-0.000604376,0.000200822,-0.0103266,0.683897,-0.296746,-0.384861,4.17399e-06,-2.4788e-06,2.81411e-06,0.674992,0.9815849414963422,4.173998711110016e-06,-2.4787969278294852e-06,-0.25676723048777694,2.8141139596371545e-06,-0.31945477458318194
992,0.9826,1176.19,0.006959,0.0047049,-0.000613744,0.000208752,-0.0103221,0.684402,-0.296968,-0.385143,4.16918e-06,-2.47444e-06,2.80612e-06,0.675493,0.982585894611187,4.169188690950065e-06,-2.4744369385709675e-06,-0.25693220984922194,2.8061239372156876e-06,-0.31964666127945374
993,0.9836,1176.33,0.00694837,0.00469756,-0.000623088,0.000216656,-0.0103175,0.684906,-0.29719,-0.385425,4.16437e-06,-2.47008e-06,2.79813e-06,0.675994,0.983585369748649,4.164378671012159e-06,-2.4700769493124497e-06,-0.25709715258931387,2.798133914794221e-06,-0.31983849387130614
994,0.9846,1176.47,0.00693777,0.00469024,-0.000632407,0.000224531,-0.010313,0.68541,-0.297411,-0.385707,4.15955e-06,-2.4657e-06,2.79016e-06,0.676495,0.9845853487485425,4.1595586508513804e-06,-2.4656969601632994e-06,-0.25726131597786905,2.7901638925964534e-06,-0.32003027237399473
995,0.9856,1176.61,0.00692719,0.00468293,-0.000641702,0.00023238,-0.0103084,0.685914,-0.297633,-0.385989,4.15472e-06,-2.46132e-06,2.78218e-06,0.676996,0.9855858318648789,4.154728630911819e-06,-2.461316970903127e-06,-0.2574261856645096,2.782183870175814e-06,-0.3202219968027702
996,0.9866,1176.75,0.00691663,0.00467564,-0.000650973,0.000240202,-0.0103038,0.686417,-0.297855,-0.386271,4.14988e-06,-2.45694e-06,2.77422e-06,0.677496,0.9865848327659708,4.149888610749386e-06,-2.4569369817539766e-06,-0.25759101875414214,2.7742238482009185e-06,-0.32041366717287945
997,0.9876,1176.89,0.0069061,0.00466836,-0.00066022,0.000247996,-0.0102993,0.68692,-0.298076,-0.386552,4.14504e-06,-2.45254e-06,2.76626e-06,0.677996,0.9875843362909147,4.145048590586953e-06,-2.452536992492149e-06,-0.2577550730103345,2.7662638260039785e-06,-0.32060460410450853
998,0.9886,1177.03,0.00689558,0.00466109,-0.000669443,0.000255764,-0.0102947,0.687423,-0.298297,-0.386834,4.14019e-06,-2.44814e-06,2.7583e-06,0.678496,0.9885843426925949,4.140198570645737e-06,-2.448137003341344e-06,-0.25791909101454213,2.758303804029083e-06,-0.32079616659457055
999,0.9896,1177.17,0.00688509,0.00465385,-0.000678641,0.000263504,-0.0102902,0.687926,-0.298519,-0.387115,4.13533e-06,-2.44373e-06,2.75035e-06,0.678995,0.9895848522240216,4.135338550481649e-06,-2.4437270140786893e-06,-0.25808381469133235,2.7503537822770596e-06,-0.32098699605896197
