,Time,S11,S22,S33,S12,S13,S23,LE11,LE22,LE33,LE12,LE13,LE23,SDV_EPBAR,E11,E12,E13,E22,E23,E33
0,1e-05,0.519364,0.519364,-1.66533e-16,0.519364,-2.99106e-18,2.99106e-18,1.75e-06,1.75e-06,-1.5e-06,6.49998e-06,-7.48944e-23,7.48944e-23,0.0,1.7500015312421624e-06,6.500001124898347e-06,0.0,1.7500015312421624e-06,0.0,-1.4999988749986315e-06
1,2e-05,1.03872,1.03872,-1.11022e-16,1.03872,-5.98204e-18,-1.79463e-17,3.49998e-06,3.49998e-06,-2.99999e-06,1.29999e-05,-3.74207e-22,2.24474e-22,0.0,3.499986124921861e-06,1.2999984499106887e-05,0.0,3.499986124921861e-06,0.0,-2.999985500018454e-06
2,3.5e-05,1.81776,1.81776,0.0,1.81776,-1.79459e-17,-5.38386e-17,6.12495e-06,6.12495e-06,-5.24995e-06,2.27498e-05,-2.99463e-22,-2.99463e-22,0.0,6.1249687575148926e-06,2.2750058778608917e-05,0.0,6.1249687575148926e-06,0.0,-5.2499362190872034e-06
3,5.75e-05,2.98631,2.98631,3.33067e-16,2.98631,-4.78559e-17,-3.58916e-17,1.00624e-05,1.00624e-05,-8.6249e-06,3.73744e-05,-1.79683e-21,-5.98927e-22,0.0,1.0062450626069364e-05,3.737509843149134e-05,0.0,1.0062450626069364e-05,0.0,-8.624862805617362e-06
4,9.125e-05,4.7391,4.7391,-2.33147e-15,4.7391,-2.3926e-17,-1.07676e-16,1.59684e-05,1.59684e-05,-1.36872e-05,5.93111e-05,2.75041e-25,-2.39598e-21,0.0,1.5968527495635598e-05,5.931285893812088e-05,0.0,1.5968527495635598e-05,0.0,-1.3687106330650955e-05
5,0.00014188,7.36823,7.36823,-6.77236e-15,7.36823,-1.43563e-16,-1.55528e-16,2.48273e-05,2.48273e-05,-2.12805e-05,9.22155e-05,-3.59356e-21,-1.19774e-21,0.0,2.482760819999541e-05,9.221975197992727e-05,0.0,2.482760819999541e-05,0.0,-2.1280273571733233e-05
6,0.00021781,11.3118,11.3118,-4.76286e-14,11.3118,-1.9141e-16,-2.03375e-16,3.81151e-05,3.81151e-05,-3.26701e-05,0.00014157,-2.3955e-21,-2.3955e-21,0.0,3.8115826389573115e-05,0.00014158002150543858,0.0,3.8115826389573115e-05,0.0,-3.266956633807272e-05
7,0.00033172,17.2269,17.2269,-2.50133e-13,17.2269,-9.56785e-17,-3.94784e-16,5.8046e-05,5.8046e-05,-4.97538e-05,0.000215599,6.55807e-25,-9.58289e-21,0.0,5.804768470163424e-05,0.000215622243134872,0.0,5.804768470163424e-05,0.0,-4.9752562300220404e-05
8,0.00050258,26.0989,26.0989,-1.27687e-12,26.0989,-2.39211e-16,-4.42603e-16,8.79401e-05,8.79401e-05,-7.53773e-05,0.000326635,-4.79051e-21,-1.43743e-20,0.0,8.794396684397299e-05,0.0003266883510202323,0.0,8.794396684397299e-05,0.0,-7.537445920269281e-05
9,0.00075887,39.4054,39.4054,-6.47271e-12,39.4054,-5.26264e-16,-5.38228e-16,0.000132777,0.000132777,-0.000113809,0.00049317,-7.18485e-21,-1.6769e-20,0.0,0.00013278581525599797,0.0004932916283180155,0.0,0.00013278581525599797,0.0,-0.00011380252400139401
10,0.0011433,59.3621,59.3621,-3.27557e-11,59.3621,-9.08891e-16,-9.20855e-16,0.000200021,0.000200021,-0.000171446,0.000742933,-2.39533e-20,-4.78386e-21,0.0,0.00020004100553405735,0.000743209043077453,0.0,0.00020004100553405735,0.0,-0.00017143130397445638
11,0.00172,89.2899,89.2899,-1.65602e-10,89.2899,-9.08476e-16,-1.3033e-15,0.000300862,0.000300862,-0.000257882,0.00111749,1.54771e-23,-3.83267e-20,0.0,0.00030090726351073016,0.001118114624598876,0.0,0.00030090726351073016,0.0,-0.0002578487512951977
12,0.0025849,134.165,134.165,-8.37534e-10,134.165,-2.05599e-15,-1.6851e-15,0.00045207,0.00045207,-0.000387489,0.00167912,-8.62418e-20,2.87997e-20,0.0,0.0004521721990422556,0.0016805305113494207,0.0,0.0004521721990422556,0.0,-0.00038741393583330286
13,0.0035849,186.022,186.022,-1.84631e-09,186.022,-2.05453e-15,-2.44935e-15,0.000626801,0.000626801,-0.000537258,0.00232812,-3.82872e-20,-3.82872e-20,0.0,0.0006269974807961987,0.0023308321757156136,0.0,0.0006269974807961987,0.0,-0.0005371137027634365
14,0.0045849,237.853,237.853,-2.10353e-09,237.853,-2.43517e-15,-4.36141e-15,0.000801444,0.000801444,-0.000686952,0.00297679,-1.53308e-19,1.26907e-22,0.0,0.0008017652420559962,0.002981225038986679,0.0,0.0008017652420559962,0.0,-0.000686716102494711
15,0.0055849,249.672,249.137,0.107116,249.233,0.0563312,0.0373643,0.000942737,0.000947265,-0.000929195,0.00368714,9.75083e-07,5.47015e-07,0.00039701,0.0009431815162019852,0.0036939458628419963,9.75083475296401e-07,0.0009477137971889427,5.470151496211884e-07,-0.0009287634320066518
16,0.0065849,255.646,255.111,0.265086,254.997,0.124651,0.0854872,0.00107746,0.00109107,-0.00118407,0.00440558,2.37139e-06,1.36311e-06,0.000848925,0.0010780406685562127,0.004415298834694825,2.37139281167309e-06,0.0010916654334058862,1.3631109290201948e-06,-0.0011833692657176043
17,0.0075849,260.56,259.437,-0.214751,260.305,-0.0285611,0.0286011,0.00121227,0.00123048,-0.00144128,0.00512783,5.7829e-07,6.75017e-07,0.00130723,0.0012130050962915195,0.005140999821500403,5.782901673079266e-07,0.0012312373511185193,6.750172278913169e-07,-0.0014402418547933005
18,0.0085849,265.712,264.866,0.163399,265.039,0.137726,0.092339,0.0013459,0.00137475,-0.00169773,0.00584591,3.24225e-06,1.68308e-06,0.0017679,0.0013468061298793632,0.0058630306775853125,3.2422552560529283e-06,0.0013756954019621404,1.6830814164592311e-06,-0.0016962896716350429
19,0.0095849,269.874,268.486,-0.230177,269.52,-0.0119679,0.0676004,0.00148002,0.00151359,-0.00195627,0.00656842,1.5487e-06,1.49562e-06,0.00223364,0.0014811157701206668,0.006590039379782642,1.5487011992831867e-06,0.001514736055490573,1.4956211185079837e-06,-0.0019543577510052756
20,0.010585,274.341,273.29,0.168598,273.559,0.167895,0.124644,0.00161292,0.00165743,-0.00221399,0.00728667,4.46189e-06,2.49945e-06,0.00270054,0.0016142214550833867,0.007313282379116881,4.461899954177895e-06,0.0016588042962641936,2.4994531235833506e-06,-0.002211540931877476
21,0.011585,277.912,276.323,-0.222176,277.451,0.0131256,0.10053,0.00174649,0.00179567,-0.00247359,0.00800935,2.77498e-06,2.40463e-06,0.00317159,0.0017480160019129887,0.00804151064833536,2.7749838502622026e-06,0.001797283180810183,2.4046328910287684e-06,-0.0024705331972010303
22,0.012585,281.862,280.637,0.177608,280.981,0.194962,0.153061,0.00187884,0.00193904,-0.0027322,0.00872762,5.77767e-06,3.42254e-06,0.003643,0.0018806061257887752,0.00876581671670884,5.7776866908554325e-06,0.0019409211537417814,3.422545856945902e-06,-0.002728470938533678
23,0.013585,284.984,283.226,-0.213707,284.429,0.0363095,0.127934,0.00201196,0.00207678,-0.00299253,0.00945026,4.10203e-06,3.38505e-06,0.00411793,0.0020139853496004,0.009495054703035688,4.102038413389408e-06,0.002078938001223607,3.3850557292769423e-06,-0.002988056845228626
24,0.014585,288.533,287.153,0.182154,287.569,0.217447,0.176818,0.00214388,0.00221973,-0.00325177,0.0101684,7.14515e-06,4.41523e-06,0.00459269,0.00214617975389908,0.010220273854893103,7.14517552657945e-06,0.0022221954244912023,4.4152397471464155e-06,-0.0032464887219849636
25,0.015585,291.307,289.402,-0.205311,290.669,0.0574629,0.151344,0.00227663,0.00235706,-0.00351262,0.0108908,5.50412e-06,4.43224e-06,0.00507055,0.0022792234898438846,0.010950320641876843,5.5041351476603495e-06,0.002359840049740658,4.432249822494683e-06,-0.0035064579674388696
26,0.016585,294.535,293.014,0.182466,293.5,0.23587,0.196936,0.00240819,0.00249961,-0.00377231,0.0116087,8.54973e-06,5.46898e-06,0.00554787,0.0024110920186077855,0.01167634245141258,8.54976654895978e-06,0.002502736629651503,5.468994954904716e-06,-0.0037652037770655733
27,0.017585,297.034,295.0,-0.196189,296.32,0.0772257,0.171769,0.00254061,0.00263663,-0.00403351,0.0123308,6.97099e-06,5.54008e-06,0.00602797,0.002543840084468396,0.012407137760188203,6.971014297363354e-06,0.002640108965788368,5.54009534625699e-06,-0.004025386324518987
28,0.018585,299.995,298.343,0.179241,298.9,0.250808,0.214241,0.00267186,0.00277878,-0.00429352,0.0130485,9.98291e-06,6.57763e-06,0.0065073,0.0026754325990494543,0.013134003167409869,9.982959829457627e-06,0.002782644387743005,6.577651632699855e-06,-0.0042843160202069575
29,0.019585,302.273,300.126,-0.185883,301.488,0.0960759,0.189871,0.00280399,0.00291557,-0.00455495,0.0137701,8.49479e-06,6.70225e-06,0.00698913,0.0028079248568668724,0.013865344500313848,8.49482608078489e-06,0.002919824407882299,6.702272460135106e-06,-0.004544591948019483
30,0.020585,305.008,303.234,0.173055,303.861,0.26275,0.229319,0.00293498,0.00305731,-0.00481521,0.0144874,1.14389e-05,7.73556e-06,0.00747007,0.0029392912705994423,0.014592851000937213,1.1438965424437342e-05,0.003061988338713739,7.735589919510844e-06,-0.004803635461724465
31,0.021585,307.106,304.859,-0.174247,306.255,0.114309,0.206109,0.00306683,0.00319392,-0.00507677,0.0152085,1.00685e-05,7.91285e-06,0.00795327,0.0030715375342966755,0.015324737755849416,1.0068550687414302e-05,0.003199025997084659,7.912881306637587e-06,-0.005063904983301226
32,0.022585,309.646,307.756,0.164408,308.454,0.272127,0.242597,0.00319759,0.00333525,-0.0053372,0.0159255,1.2914e-05,8.9377e-06,0.00843549,0.003202707744266231,0.016052986638846134,1.2914083385995312e-05,0.0033408181349343646,8.937739941261569e-06,-0.005322982453289327
33,0.023585,311.595,309.259,-0.16134,310.681,0.132088,0.22081,0.00332917,0.00347173,-0.00559884,0.0166461,1.16856e-05,9.16651e-06,0.00891975,0.0033347178413050127,0.01678541828444624,1.1685668276806283e-05,0.003477763434728054,9.166552012551676e-06,-0.005583195705578192
34,0.024585,313.975,311.996,0.163278,312.727,0.291835,0.249066,0.00345971,0.0036128,-0.00585942,0.0173625,1.4592e-05,1.00997e-05,0.00940298,0.003465701704502777,0.017514104342285952,1.45921064638177e-05,0.003619334028262866,1.0099751002190516e-05,-0.005842287077960195
35,0.025585,315.781,313.352,-0.157206,314.816,0.143336,0.234664,0.00359108,0.00374899,-0.00612106,0.0180826,1.32783e-05,1.04518e-05,0.00988815,0.00359753565305887,0.01824708012508003,1.3278388157011989e-05,0.003756026253209921,1.045185462023035e-05,-0.0061023644771601715
36,0.026585,318.024,315.955,0.162487,316.731,0.303309,0.259976,0.0037214,0.00388981,-0.0063817,0.0187986,1.62045e-05,1.13706e-05,0.0103722,0.0037283330064756814,0.018976406101991472,1.6204631293703642e-05,0.0038973851296717488,1.137066464562686e-05,-0.0063613802004874875
37,0.027585,319.709,317.196,-0.15355,318.698,0.154702,0.246458,0.00385255,0.00402577,-0.00664334,0.0195181,1.49099e-05,1.17591e-05,0.010858,0.003859980609952407,0.01970982344143013,1.4910011153057567e-05,0.004033884297157231,1.1759169138425563e-05,-0.006621321801928648
38,0.028585,321.831,319.676,0.159883,320.499,0.312394,0.270218,0.00398268,0.00416632,-0.00690398,0.0202336,1.78187e-05,1.2679e-05,0.0113427,0.003990621409188488,0.02043968689761666,1.7818858754070632e-05,0.004175011177054211,1.2679080378941165e-05,-0.006880202281844494
39,0.029585,323.413,320.823,-0.148659,322.357,0.166101,0.257216,0.00411363,0.0043021,-0.0071656,0.0209525,1.65733e-05,1.30965e-05,0.0118291,0.004122102589604326,0.02117354474212374,1.6573437337852326e-05,0.004311367317080705,1.3096585759431179e-05,-0.007139988299232791
40,0.030585,325.425,323.187,0.155559,324.058,0.319775,0.279547,0.00424358,0.00444237,-0.00742622,0.0216675,1.94392e-05,1.40166e-05,0.0123144,0.004252596735509373,0.02190394491355918,1.9439388942554814e-05,0.004452251953287245,1.401669823297702e-05,-0.007398713759503073
41,0.031585,326.919,324.259,-0.142463,325.818,0.177511,0.267177,0.00437433,0.004578,-0.00768778,0.0223858,1.82643e-05,1.44622e-05,0.0128012,0.004383911347038305,0.022638242208491866,1.8264466793427303e-05,0.004588495051336627,1.4462304578133356e-05,-0.007658304601161903
42,0.032585,328.83,326.511,0.14975,327.431,0.325703,0.288051,0.0045041,0.00471798,-0.00794836,0.0231003,2.10656e-05,1.538e-05,0.0132868,0.0045142587046191895,0.023369178328382922,2.106582188132755e-05,0.00472912719148777,1.5380118272734222e-05,-0.007916855312113835
43,0.033585,330.247,327.524,-0.13513,329.104,0.188909,0.276446,0.00463466,0.0048535,-0.00820982,0.0238179,1.99791e-05,1.58537e-05,0.013774,0.004645416648039857,0.02410381160564623,1.9979299583638976e-05,0.004865297309483596,1.5853825670486543e-05,-0.008176211464016703
44,0.034585,332.065,329.669,0.142718,330.638,0.33038,0.295836,0.00476427,0.00499317,-0.00847035,0.0245319,2.26978e-05,1.67669e-05,0.01426,0.004775637179250669,0.02483528283128522,2.2698057597025922e-05,0.005005656647324885,1.6767040565301983e-05,-0.008434577658110287
45,0.035585,333.417,330.636,-0.126879,332.232,0.200256,0.285094,0.00489463,0.00512859,-0.0087317,0.0252489,2.17144e-05,1.72682e-05,0.0147474,0.0049066282691272445,0.025570353220318642,2.1714635759284562e-05,0.005141763728950588,1.726834909621111e-05,-0.008693689420334993
46,0.036585,335.148,332.677,0.134732,333.696,0.334,0.302994,0.00502409,0.00526795,-0.00899216,0.0259623,2.43356e-05,1.81751e-05,0.0152336,0.005036731902649416,0.026302256149039582,2.4335896113170108e-05,0.005281850046131797,1.817526516822987e-05,-0.008951851440089253
47,0.037585,336.443,333.61,-0.117939,335.218,0.211492,0.29318,0.00515426,0.00540329,-0.00925338,0.0266786,2.34666e-05,1.87034e-05,0.0157211,0.00516756604919677,0.02703765980849604,2.3466875342714744e-05,0.005417914098963639,1.870357490973973e-05,-0.009210699227874652
48,0.038585,338.093,335.55,0.126054,336.619,0.336746,0.309602,0.00528358,0.00554233,-0.00951376,0.0273916,2.59792e-05,1.96028e-05,0.0162076,0.0052975627242422,0.02777019877904907,2.5979537462417213e-05,0.005557717124621053,1.960299213621397e-05,-0.009468647362284699
49,0.039585,339.339,336.457,-0.108544,338.075,0.222551,0.300751,0.00541356,0.00567762,-0.00977483,0.0281071,2.52329e-05,2.01571e-05,0.0166952,0.005428239793963785,0.028505831497497303,2.5233218352349596e-05,0.005693768231140428,2.0157303155743378e-05,-0.009727211629362631
50,0.040585,340.914,338.3,0.116938,339.419,0.338791,0.315727,0.00554275,0.00581634,-0.0100351,0.0288196,2.76289e-05,2.10483e-05,0.0171818,0.005558139458951006,0.02923890302815968,2.7629281681651463e-05,0.005833287747519567,2.1048521517075258e-05,-0.009984916390127996
51,0.041585,342.116,339.189,-0.0989131,340.814,0.233362,0.307849,0.00567254,0.00595158,-0.010296,0.0295344,2.70103e-05,2.16276e-05,0.0176695,0.0056886593197744695,0.02997486599787358,2.7010664781501603e-05,0.005969325840042838,2.1627833878268277e-05,-0.010243177633797673
52,0.042585,343.62,340.939,0.107615,342.107,0.340291,0.321428,0.00580159,0.00608997,-0.0105562,0.0302464,2.92851e-05,2.25101e-05,0.0181561,0.00581845181594054,0.030708469234224767,2.928552881265034e-05,0.0061085515685479486,2.2510353354210366e-05,-0.01050067885661543
53,0.043585,344.783,341.815,-0.0892502,343.446,0.243857,0.314506,0.0059312,0.00622517,-0.0108169,0.0309605,2.87963e-05,2.3113e-05,0.0186438,0.005948824394092833,0.03144476101379623,2.8796714617529418e-05,0.0062445866404836625,2.3113267107355284e-05,-0.01075860770715098
54,0.044585,346.222,343.476,0.0982911,344.691,0.341388,0.326754,0.00606013,0.00636324,-0.011077,0.0316719,3.09481e-05,2.39868e-05,0.0191305,0.006078529737297167,0.032178791880603574,3.09485788974051e-05,0.006383528422186258,2.398708768569513e-05,-0.011015875934103025
55,0.045585,347.351,344.343,-0.0797346,345.978,0.253975,0.320754,0.00618955,0.00649841,-0.0113376,0.0323853,3.05884e-05,2.46119e-05,0.0196181,0.00620874484665368,0.032915410951512625,3.058886782980608e-05,0.006519570477918402,2.4612202875307077e-05,-0.011273571617628653
56,0.046585,348.727,345.92,0.0891447,347.18,0.342205,0.331746,0.00631835,0.00663616,-0.0115975,0.0330962,3.26181e-05,2.54771e-05,0.0201049,0.006338352879568188,0.03364997158579963,3.2618631975900314e-05,0.00665822809857608,2.5477424544062544e-05,-0.011530508226006653
57,0.047585,349.825,346.78,-0.0705186,348.42,0.263663,0.326621,0.0064476,0.00677129,-0.0118579,0.0338088,3.23847e-05,2.61229e-05,0.0205924,0.006468430517764023,0.034386813060988564,3.238522438997471e-05,0.006794267016201561,2.6123241205988634e-05,-0.01178787217142463
58,0.048585,351.144,348.277,0.0803227,349.582,0.342848,0.336439,0.00657627,0.00690874,-0.0121177,0.0345192,3.42954e-05,2.69798e-05,0.0210791,0.006597941142606256,0.03512190252585046,3.4295988093902e-05,0.006932660399070256,2.6980163958079117e-05,-0.012044576334919843
59,0.049585,352.214,349.133,-0.061726,350.776,0.272878,0.332131,0.00670535,0.00704383,-0.0123779,0.0352311,3.41834e-05,2.76447e-05,0.0215665,0.0067278811909992076,0.03585906817123696,3.418398425902858e-05,0.007068696120489548,2.7645082118166187e-05,-0.012301608894771277
60,0.050585,353.479,350.555,0.0719419,351.901,0.343402,0.340866,0.0068339,0.00718098,-0.0126376,0.035941,3.598e-05,2.84939e-05,0.0220532,0.00685730437862353,0.036594685600244814,3.598064728804751e-05,0.007206825064138167,2.8494305954973598e-05,-0.012558080862614784
61,0.051585,354.522,351.408,-0.0534519,353.054,0.281589,0.337307,0.0069628,0.00731603,-0.0128976,0.0366521,3.5983e-05,2.91762e-05,0.0225404,0.006987096650090008,0.03733207022720686,3.598364739598736e-05,0.007342857531248637,2.9176625629512287e-05,-0.012814782388946067
62,0.052585,355.737,352.759,0.0640889,354.145,0.343937,0.34505,0.00709123,0.00745288,-0.0131571,0.0373615,3.76717e-05,3.00184e-05,0.023027,0.00711643230802439,0.03806821467739052,3.767240958740814e-05,0.007480721834451698,3.001885055664566e-05,-0.013070923717141358
63,0.053585,356.756,353.609,-0.0457638,355.259,0.289778,0.342171,0.00721996,0.00758789,-0.0134169,0.0380719,3.77824e-05,3.07165e-05,0.0235141,0.007246086751384606,0.03880592033912378,3.7783113763900644e-05,0.007616750989148047,3.0716971756605815e-05,-0.013327294587141658
64,0.054585,357.924,354.894,0.056823,356.318,0.344506,0.349014,0.00734827,0.00772447,-0.0136762,0.0387807,3.93704e-05,3.15522e-05,0.0240006,0.00737533478850616,0.03954248698384166,3.9371175024394134e-05,0.00775438068351586,3.1552697775882876e-05,-0.01358310565231724
65,0.055585,358.921,355.741,-0.0387043,357.396,0.297436,0.346743,0.00747683,0.00785942,-0.0139358,0.0394903,3.95804e-05,3.22646e-05,0.0244875,0.007504851286688652,0.04028040811605904,3.958118331426341e-05,0.007890386313962772,3.2265120507801726e-05,-0.013839146242583422
66,0.056585,360.044,356.966,0.0501786,358.425,0.345146,0.352775,0.00760502,0.00799573,-0.014195,0.0401986,4.10757e-05,3.30946e-05,0.0249739,0.007634011611929115,0.04101749973931024,4.107654361806823e-05,0.008027781216457974,3.30951476323893e-05,-0.014094726011308345
67,0.057585,361.02,357.809,-0.0322935,359.469,0.304564,0.351041,0.00773342,0.00813062,-0.0144544,0.0409075,4.13765e-05,3.38197e-05,0.0254606,0.007763400125585074,0.04175573868275273,4.137735601927872e-05,0.008163763254968703,3.3820271892581744e-05,-0.014350436672274425
68,0.058585,362.103,358.978,0.0441686,360.47,0.345884,0.35635,0.00786149,0.00826668,-0.0147135,0.0416152,4.27872e-05,3.46447e-05,0.0259468,0.007892472649221771,0.04249325015667238,4.278811538527272e-05,0.008300943348747314,3.4645300134528156e-05,-0.014605785392277415
69,0.059585,363.057,359.816,-0.0265323,361.483,0.311173,0.355084,0.00798973,0.0084015,-0.0149727,0.0423234,4.31699e-05,3.5381e-05,0.0264332,0.008021733067915093,0.043231805367965226,4.317083183358328e-05,0.008436891645998479,3.538162591487648e-05,-0.0148611664738858
70,0.060585,364.103,360.933,0.0387881,362.456,0.346733,0.359751,0.00811768,0.00853731,-0.0152315,0.0430305,4.45044e-05,3.62017e-05,0.0269193,0.008150717700277088,0.043969735441972135,4.450539033551415e-05,0.00857385676065836,3.6202355289338684e-05,-0.01511608741580961
71,0.061585,365.037,361.767,-0.0214062,363.439,0.317278,0.358888,0.00824576,0.00867206,-0.0154905,0.043738,4.49602e-05,3.6948e-05,0.0274055,0.008279849913650494,0.04470860537421539,4.496121072494752e-05,0.008709771244889586,3.6948682585746795e-05,-0.015371139318521743
72,0.062585,366.048,362.836,0.0340176,364.388,0.347699,0.36299,0.00837358,0.00880764,-0.0157492,0.0444445,4.62267e-05,3.77649e-05,0.0278914,0.008408736481031465,0.04544695279442679,4.622776847029719e-05,0.008846541387113493,3.7765613102758167e-05,-0.015625829859138185
73,0.063585,366.963,363.664,-0.0168879,365.343,0.322902,0.362469,0.00850151,0.0089423,-0.016008,0.0451514,4.67472e-05,3.85199e-05,0.0283774,0.008537750462892957,0.04618624051581666,4.674829266737568e-05,0.008982401809653595,3.852064190090765e-05,-0.015880552931783365
74,0.064585,367.941,364.689,0.0298268,366.268,0.34878,0.366076,0.00862921,0.00907766,-0.0162665,0.0458573,4.79534e-05,3.93337e-05,0.028863,0.008666548957235953,0.046925004098926415,4.7954549782680544e-05,0.009118986911433646,3.933447358006603e-05,-0.016134914931145605
75,0.065585,368.837,365.509,-0.0129414,367.197,0.328072,0.365841,0.00875699,0.00921223,-0.016525,0.0465634,4.85306e-05,4.00961e-05,0.0293488,0.008795444603829194,0.04766449889223301,4.8531777628646466e-05,0.009254793191022959,4.009690385942122e-05,-0.016389211186428887
76,0.066585,369.785,366.495,0.0261772,368.099,0.349968,0.369016,0.00888457,0.00934737,-0.0167834,0.0472687,4.9684e-05,4.09073e-05,0.0298342,0.008924154936909234,0.04840367730392647,4.968523427040239e-05,0.009391193100108941,4.090813671497884e-05,-0.016643343378965003
77,0.067585,370.663,367.308,-0.00952423,369.003,0.332818,0.369019,0.0090122,0.00948185,-0.0170417,0.0479741,5.03104e-05,4.16762e-05,0.0303197,0.0090529321445465,0.04914348215639164,5.0311665589442e-05,0.00952694515552066,4.167706846480712e-05,-0.016897311601962173
78,0.068585,371.583,368.256,0.0230254,369.884,0.351252,0.371819,0.00913965,0.00961679,-0.0172999,0.0486788,5.14177e-05,4.24853e-05,0.0308048,0.009181544136373399,0.04988307413289328,5.141902191252434e-05,0.009663179913052433,4.248620251323665e-05,-0.01715111594855534
79,0.069585,372.443,369.06,-0.00659008,370.765,0.337169,0.372014,0.00926713,0.00975116,-0.017558,0.0493836,5.20864e-05,4.32597e-05,0.03129,0.009310202800149048,0.05062329254586939,5.208775651999176e-05,0.00979885746982978,4.326063571435945e-05,-0.017404756511806285
80,0.070585,373.337,369.976,0.020325,371.625,0.35262,0.37449,0.00939446,0.00988591,-0.0178159,0.0500877,5.31539e-05,4.40669e-05,0.031775,0.00943872645055599,0.05136329689410979,5.315531269367568e-05,0.009934937034028701,4.406787096011833e-05,-0.01765813515052206
81,0.071585,374.18,370.77,-0.00409113,372.484,0.341156,0.374839,0.0095218,0.0100202,-0.0180739,0.0507917,5.38586e-05,4.4846e-05,0.0322599,0.009567276562594262,0.052103717252509174,5.3860050400533765e-05,0.010070570303615023,4.484700559692634e-05,-0.017911546660162814
82,0.072585,375.049,371.655,0.0180289,373.324,0.354054,0.377036,0.009649,0.0101547,-0.0183316,0.0514952,5.4892e-05,4.56518e-05,0.0327446,0.009695701687837843,0.052844132628167895,5.489350659337866e-05,0.01020643393194498,4.565284205937381e-05,-0.01816459824749106
83,0.073585,375.875,372.439,-0.00197964,374.162,0.344811,0.377504,0.0097762,0.0102889,-0.0185893,0.0521986,5.5627e-05,4.64348e-05,0.0332292,0.009824143149796294,0.05358496371080523,5.562854721019583e-05,0.010342012732512673,4.6435878112038864e-05,-0.018417584631826966
84,0.074585,376.722,373.296,0.0160907,374.984,0.355539,0.37946,0.00990327,0.0104233,-0.0188469,0.0529014,5.66314e-05,4.72394e-05,0.0337136,0.009952469656718366,0.05432568348174005,5.6633003588046904e-05,0.010477811824518568,4.724051579807487e-05,-0.018670407697017
85,0.075585,377.532,374.069,-0.000209322,375.803,0.348163,0.38002,0.0100303,0.0105573,-0.0191044,0.0536042,5.73916e-05,4.80257e-05,0.0341979,0.010080772067893928,0.05506692401350399,5.7393246929438035e-05,0.01061322492377803,4.8026853252336466e-05,-0.018923067535684623
86,0.076585,378.356,374.901,0.0144659,376.606,0.357061,0.381768,0.0101573,0.0106915,-0.0193617,0.0543064,5.83713e-05,4.88293e-05,0.034682,0.010209060472087694,0.05580805218719487,5.837300363742415e-05,0.01074885831936001,4.883049216974911e-05,-0.01917546615793253
87,0.077585,379.15,375.663,0.00126367,377.406,0.35124,0.382394,0.0102842,0.0108254,-0.019619,0.0550084,5.91526e-05,4.96182e-05,0.0351661,0.010337264136212054,0.05654948965393247,5.915434954961718e-05,0.01088420665285783,4.961943100334487e-05,-0.019427799846368998
88,0.078585,379.955,376.47,0.0131128,378.193,0.358603,0.383965,0.010411,0.0109595,-0.0198761,0.05571,6.01113e-05,5.0421e-05,0.0356499,0.010465383023870345,0.057291024876011676,6.011310672038306e-05,0.011019775314645486,5.042227115992226e-05,-0.01967987255369341
89,0.079585,380.733,377.221,0.00248005,378.975,0.354068,0.384636,0.0105378,0.0110932,-0.0201332,0.0564114,6.09097e-05,5.1212e-05,0.0361336,0.010593518158033666,0.05803286893515791,6.091155503340495e-05,0.011154957695345802,5.121331135682361e-05,-0.01993188046145522
90,0.080585,381.519,378.007,0.0119928,379.745,0.360152,0.386053,0.0106645,0.0112271,-0.0203901,0.0571123,6.1851e-05,5.2014e-05,0.0366171,0.010721568468600173,0.058774704118765175,6.185291281246563e-05,0.011290360409190736,5.2015352751455524e-05,-0.020183627623057143
91,0.081585,382.283,378.746,0.00347697,380.51,0.356672,0.386754,0.0107912,0.0113608,-0.020647,0.057813,6.26632e-05,5.28068e-05,0.0371006,0.01084963500416869,0.05951684753352171,6.266516337927186e-05,0.011425578969536776,5.280819430364403e-05,-0.02043531011911992
92,0.082585,383.05,379.512,0.0110713,381.265,0.361695,0.388038,0.0109177,0.0114945,-0.0209037,0.0585133,6.35896e-05,5.36082e-05,0.0375838,0.010977515571272134,0.060259087046680815,6.35916218614252e-05,0.011560815609812813,5.36096369452288e-05,-0.020686732103620042
93,0.083585,383.799,380.239,0.00428782,382.014,0.359074,0.388753,0.0110442,0.011628,-0.0211603,0.0592134,6.44129e-05,5.44022e-05,0.0380669,0.011105412316290586,0.06100163433187,6.441497455544898e-05,0.011695867993242848,5.4403679826453555e-05,-0.02093799165018384
94,0.084585,384.55,380.986,0.010317,382.753,0.363222,0.389922,0.0111707,0.0117616,-0.0214169,0.0599131,6.5327e-05,5.5203e-05,0.0385498,0.011233325241270409,0.06174427695863649,6.532913385504102e-05,0.011831039590468384,5.5204523713658915e-05,-0.021189186731819132
95,0.085585,385.285,381.702,0.00494222,383.487,0.361292,0.390641,0.0112971,0.011895,-0.0216733,0.0606125,6.61589e-05,5.59979e-05,0.0390325,0.011361153212138486,0.062487120648098804,6.616108854817782e-05,0.01196602685460002,5.599946791168264e-05,-0.02144012165310938
96,0.086585,386.02,382.432,0.00970273,384.211,0.364723,0.391709,0.0114234,0.0120284,-0.0219296,0.0613115,6.70625e-05,5.67981e-05,0.0395151,0.011488896192588527,0.06323005877205601,6.706474873974244e-05,0.012101032127233902,5.679971304251019e-05,-0.021690894412027872
97,0.087585,386.741,383.135,0.0054661,384.931,0.363345,0.392422,0.0115496,0.0121617,-0.0221858,0.0620103,6.79011e-05,5.75937e-05,0.0399976,0.011616554146335556,0.06397330359662234,6.790340533191497e-05,0.012235954187171938,5.759535854887865e-05,-0.02194150510027959
98,0.088585,387.461,383.849,0.00920452,385.641,0.366189,0.393403,0.0116758,0.0122949,-0.0224419,0.0627086,6.8796e-05,5.83933e-05,0.0404798,0.011744228211532981,0.06471653562378488,6.879836649908988e-05,0.012370792996335034,5.839500492199612e-05,-0.022191953809497345
99,0.089585,388.168,384.541,0.00588193,386.346,0.365248,0.394103,0.0118019,0.0124281,-0.0226979,0.0634067,6.96395e-05,5.91892e-05,0.0409619,0.011871817203027213,0.06546007373908647,6.964192488623233e-05,0.012505649767223792,5.919095171535993e-05,-0.022442240631242005
100,0.090585,388.874,385.239,0.00880189,387.044,0.367614,0.395006,0.011928,0.0125612,-0.0229537,0.0641045,7.05269e-05,5.99882e-05,0.0414438,0.011999422284507899,0.06620381123837626,7.052938708018708e-05,0.012640423238183374,5.998999932810278e-05,-0.022692267926234133
101,0.091585,389.568,385.919,0.00620894,387.735,0.367015,0.395689,0.012054,0.0126942,-0.0232095,0.0648019,7.1374e-05,6.07842e-05,0.0419256,0.012126942245304528,0.06694764111966567,7.137654718447628e-05,0.012775113371169322,6.078604739689908e-05,-0.022942231272423674
102,0.092585,390.26,386.604,0.00847738,388.419,0.368992,0.396522,0.0121799,0.0128271,-0.0234652,0.065499,7.22551e-05,6.15825e-05,0.0424072,0.012254377049185639,0.06769166962129458,7.225771046259766e-05,0.012909720128157165,6.158439624104339e-05,-0.023192033005374646
103,0.093585,390.942,387.273,0.00646345,389.098,0.368658,0.397182,0.0123058,0.01296,-0.0237207,0.0661958,7.31046e-05,6.23784e-05,0.0428886,0.012381827898118924,0.06843589643519654,7.310727220644075e-05,0.013044344775571926,6.238034557282113e-05,-0.023441575560522843
104,0.094585,391.621,387.943,0.00821625,389.77,0.370319,0.397954,0.0124316,0.0130928,-0.0239762,0.0668923,7.39802e-05,6.31759e-05,0.0433698,0.01250919354319957,0.06918032125291229,7.398293660254573e-05,0.013178885997897405,6.31778956392548e-05,-0.023691054365692632
105,0.095585,392.291,388.601,0.00665918,390.436,0.370187,0.398588,0.0125573,0.0132256,-0.0242315,0.0675884,7.48311e-05,6.39716e-05,0.0438509,0.012636473948233862,0.06992483677310002,7.483389991658207e-05,0.013313445088483755,6.397364622645618e-05,-0.023940274225244362
106,0.096585,392.957,389.259,0.00800618,391.096,0.371591,0.399304,0.012683,0.0133583,-0.0244867,0.0682842,7.5702e-05,6.47683e-05,0.0443318,0.012763770353420467,0.07066954953004956,7.570486546870647e-05,0.013447920704906968,6.47703975116265e-05,-0.024189332886025205
107,0.097585,393.615,389.906,0.00680755,391.751,0.371611,0.399911,0.0128086,0.0134909,-0.0247419,0.0689797,7.65536e-05,6.55635e-05,0.0448125,0.012890981471667784,0.07141445921406309,7.655653030158582e-05,0.013582312809192087,6.556564933313247e-05,-0.024438327995145448
108,0.098585,394.269,390.552,0.00783696,392.399,0.372807,0.400575,0.0129341,0.0136234,-0.0249969,0.0696749,7.74203e-05,6.63594e-05,0.0452931,0.013018107266819401,0.07215956551504954,7.742329702886686e-05,0.013716621363384363,6.636160183370876e-05,-0.024687064506253686
109,0.099585,394.916,391.188,0.00691802,393.042,0.372937,0.401152,0.0130596,0.0137559,-0.0252518,0.0703697,7.82719e-05,6.71539e-05,0.0457735,0.01314524901725922,0.07290476083204411,7.827496332502015e-05,0.01385094771463935,6.715615487351556e-05,-0.024935640091206857
110,0.1006,395.558,391.822,0.0077002,393.679,0.373964,0.401769,0.0131851,0.0138883,-0.0255066,0.0710642,7.91348e-05,6.79489e-05,0.0462537,0.013272406724990304,0.07365015199556324,7.913793124081359e-05,0.01398519046679092,6.795120857883141e-05,-0.025184054840728498
111,0.1016,396.194,392.448,0.00699832,394.311,0.374174,0.402317,0.0133104,0.0140206,-0.0257612,0.0717585,7.9986e-05,6.87427e-05,0.0467337,0.013399377712119076,0.07439584613385852,7.998919896534673e-05,0.014119349581919405,6.874506283360837e-05,-0.025432211388697
112,0.1026,396.826,393.071,0.00758908,394.937,0.375062,0.402889,0.0134357,0.0141529,-0.0260158,0.0724523,8.08454e-05,6.95366e-05,0.0472135,0.013526364609709463,0.07514152061647272,8.084866807744895e-05,0.01425352644747302,6.953901772543958e-05,-0.025680304764050588
113,0.1036,397.451,393.687,0.00705475,395.559,0.375325,0.403406,0.0135609,0.0142851,-0.0262703,0.0731459,8.16957e-05,7.03295e-05,0.0476932,0.013653266054423296,0.07588749745003187,8.169903718457938e-05,0.014387619627033166,7.033197317718454e-05,-0.02592823757569962
114,0.1046,398.072,394.299,0.00749807,396.175,0.376099,0.403938,0.0136861,0.0144172,-0.0265246,0.0738391,8.25519e-05,7.11223e-05,0.0481727,0.013780183388192535,0.07663356121909137,8.255530750189699e-05,0.014521629082715704,7.112482925064612e-05,-0.026175912531678835
115,0.1056,398.687,394.905,0.0070924,396.786,0.376397,0.404424,0.0138112,0.0145493,-0.0267789,0.074532,8.34009e-05,7.19142e-05,0.048652,0.0139070152223002,0.07737981912485448,8.340437795184563e-05,0.01465565624221643,7.191678588802652e-05,-0.026423524511924312
116,0.1066,399.297,395.508,0.00742272,397.392,0.377076,0.404917,0.0139363,0.0146813,-0.027033,0.0752246,8.42541e-05,7.27058e-05,0.0491311,0.014033862924062834,0.07812627085397494,8.425764947639358e-05,0.014789599628909356,7.27084431306757e-05,-0.0266708788666441
117,0.1076,399.902,396.104,0.00711534,397.993,0.377394,0.405373,0.0140612,0.0148132,-0.027287,0.0759169,8.51015e-05,7.34965e-05,0.04961,0.01416052366334064,0.07887291609271552,8.510512123538483e-05,0.014923459204945422,7.349920093391304e-05,-0.026918073068419424
118,0.1086,400.503,396.697,0.00735951,398.589,0.377994,0.405829,0.0141862,0.014945,-0.0275409,0.0766089,8.59518e-05,7.42869e-05,0.0500888,0.014287301652257778,0.07961975452694725,8.595549396184232e-05,0.015057234932495556,7.428965933997667e-05,-0.02716510720735632
119,0.1096,401.098,397.284,0.00712685,399.181,0.378319,0.406254,0.014311,0.0150768,-0.0277947,0.0773005,8.67975e-05,7.50764e-05,0.0505674,0.014413892606615297,0.0803666778054759,8.680126701188229e-05,0.015191028292848241,7.507921830351982e-05,-0.027411981373490213
120,0.1106,401.689,397.867,0.00730564,399.767,0.378852,0.406676,0.0144358,0.0152086,-0.0280484,0.0779918,8.7645e-05,7.58655e-05,0.0510457,0.014540499360509607,0.0811137935006292,8.764884093515057e-05,0.015324839288328285,7.586837785988898e-05,-0.02765869565678558
121,0.1116,402.276,398.445,0.00712949,400.35,0.379176,0.40707,0.0145605,0.0153402,-0.028302,0.0786828,8.84887e-05,7.66536e-05,0.0515239,0.01466702044920587,0.08186110129704649,8.849261524046526e-05,0.015458464829546381,7.665653796218308e-05,-0.027905250147136296
122,0.1126,402.857,399.019,0.00725893,400.928,0.379651,0.407459,0.0146852,0.0154718,-0.0285555,0.0793735,8.93335e-05,7.74413e-05,0.052002,0.014793557316065575,0.0826086008789757,8.933749035588967e-05,0.015592107957042911,7.744429865486069e-05,-0.028151644934365172
123,0.1136,403.434,399.589,0.00712535,401.501,0.379969,0.407824,0.0148098,0.0156034,-0.0288088,0.0800638,9.01751e-05,7.8228e-05,0.0524798,0.01492000847105035,0.08335618359465058,9.017916589648678e-05,0.015725768673132245,7.823105988968848e-05,-0.028397782948007877
124,0.1146,404.007,400.154,0.00722482,402.07,0.380408,0.408177,0.0149344,0.0157348,-0.0290621,0.0807538,9.10172e-05,7.90143e-05,0.0529575,0.015046475382830993,0.08410395731359599,9.102134219096669e-05,0.015859243808260093,7.90174217120132e-05,-0.028643858622787288
125,0.1156,404.576,400.715,0.00710478,402.635,0.38072,0.408547,0.0150589,0.0158662,-0.0293152,0.0814435,9.18565e-05,7.98002e-05,0.0534349,0.015172856536079582,0.0848519217188306,9.186071893751979e-05,0.015992736483173342,7.980338412072463e-05,-0.028889677752446663
126,0.1166,405.14,401.272,0.00717831,403.195,0.381142,0.408914,0.0151833,0.0159976,-0.0295683,0.0821329,9.26964e-05,8.05855e-05,0.0539122,0.015299151894841101,0.08560007649298274,9.270069644395917e-05,0.016126246700176372,8.058874709870878e-05,-0.029135434673157268
127,0.1176,405.7,401.824,0.00709182,403.751,0.381481,0.409275,0.0153076,0.0161288,-0.0298212,0.082822,9.35341e-05,8.13702e-05,0.0543893,0.015425361423181405,0.08634842131829057,9.353847445026098e-05,0.016259571209639834,8.137351064441134e-05,-0.02938093527686869
128,0.1186,406.256,402.373,0.00714168,404.304,0.381895,0.409644,0.015432,0.01626,-0.030074,0.0835108,9.43719e-05,8.21546e-05,0.0548662,0.015551688195504676,0.08709695587660149,9.437635316777993e-05,0.016392913212426752,8.21579747816159e-05,-0.029626276763960124
129,0.1196,406.808,402.917,0.00707559,404.852,0.382248,0.41001,0.0155562,0.0163912,-0.0303267,0.0841992,9.52079e-05,8.29384e-05,0.0553429,0.015677827548270296,0.08784557106481117,9.521243241605859e-05,0.016526272710831957,8.294183948409639e-05,-0.02987145922371337
130,0.1206,407.356,403.458,0.00710834,405.396,0.382656,0.410381,0.0156804,0.0165222,-0.0305793,0.0848873,9.60437e-05,8.37218e-05,0.0558194,0.01580398256851634,0.08859437519877766,9.60483123437772e-05,0.016659446375241638,8.372530476763451e-05,-0.030116482745339734
131,0.1216,407.9,403.994,0.00705677,405.936,0.38302,0.410751,0.0158045,0.0166532,-0.0308318,0.0855751,9.6878e-05,8.45047e-05,0.0562958,0.0159300516651788,0.08934336795912245,9.68826928249289e-05,0.016792637486544137,8.450827062267408e-05,-0.03036134741798069
132,0.1226,408.44,404.527,0.00707697,406.473,0.383425,0.411125,0.0159286,0.0167842,-0.0310841,0.0862626,9.77119e-05,8.52872e-05,0.0567719,0.016056136407986976,0.09009254902607755,9.771667396329953e-05,0.016925846047025184,8.529083705655083e-05,-0.030605956391307587
133,0.1236,408.977,405.056,0.00703601,407.006,0.383798,0.411499,0.0160526,0.016915,-0.0313364,0.0869497,9.85444e-05,8.60692e-05,0.0572479,0.016182135180663915,0.09084180899529826,9.854925565888628e-05,0.01705886864717643,8.607290405993062e-05,-0.030850503657575246
134,0.1246,409.509,405.581,0.00704699,407.535,0.384201,0.411876,0.0161765,0.0170458,-0.0315885,0.0876366,9.93765e-05,8.68508e-05,0.0577236,0.016308047947347637,0.09159136563965453,9.938143800791721e-05,0.01719190864782183,8.685457163992716e-05,-0.03109479545132865
135,0.1256,410.038,406.103,0.0070138,408.06,0.384582,0.412253,0.0163004,0.0171766,-0.0318406,0.0883231,0.000100207,8.7632e-05,0.0581992,0.016433976315589627,0.09234100039485504,0.00010021202088905667,0.017324966051237567,8.76358397958743e-05,-0.03133902566688329
136,0.1266,410.564,406.62,0.00701803,408.581,0.384984,0.412633,0.0164242,0.0173073,-0.0320925,0.0890093,0.000101038,8.84128e-05,0.0586746,0.016559818631336043,0.09309082202370456,0.00010104310451053422,0.0174579391139007,8.841670852688388e-05,-0.03158300063638031
137,0.1276,411.086,407.135,0.0069905,409.099,0.385371,0.413014,0.016548,0.0174379,-0.0323443,0.0896952,0.000101867,8.91932e-05,0.0591498,0.016685676527325777,0.09384083020443201,0.00010187218861901215,0.017590827798191322,8.919717783162362e-05,-0.03182681733900894
138,0.1286,411.604,407.645,0.00698981,409.614,0.385775,0.413397,0.0166717,0.0175684,-0.032596,0.0903808,0.000102696,8.99732e-05,0.0596248,0.01681144832433734,0.09459102461487867,0.00010270127341471813,0.017723632066508843,8.997724770964943e-05,-0.03207047586337308
139,0.1296,412.119,408.153,0.00696638,410.125,0.386167,0.413781,0.0167953,0.0176989,-0.0328476,0.091066,0.000103523,9.07528e-05,0.0600996,0.016937133986564268,0.09534129539836078,0.00010352835869076316,0.017856453666914573,9.07569181598511e-05,-0.032313976298006586
140,0.1306,412.63,408.656,0.00696213,410.633,0.386572,0.414168,0.0169189,0.0178293,-0.0330991,0.091751,0.00010435,9.15321e-05,0.0605742,0.017062835184499026,0.09609186122515578,0.00010435544465070556,0.017989190802745858,9.153628919045254e-05,-0.03255731873137402
141,0.1316,413.138,409.157,0.00694166,411.137,0.386969,0.414555,0.0170424,0.0179597,-0.0333504,0.0924356,0.000105177,9.2311e-05,0.0610487,0.017188450201211847,0.09684250262858551,0.00010518253129454536,0.018121945248628313,9.231526079145347e-05,-0.032800406531915405
142,0.1326,413.643,409.654,0.00693484,411.638,0.387376,0.414945,0.0171659,0.01809,-0.0336017,0.0931199,0.000106002,9.30895e-05,0.0615229,0.01731408073233731,0.09759332881901628,0.00010600761841050854,0.018254615181352518,9.309383296196572e-05,-0.03304343325216752
143,0.1336,414.144,410.148,0.00691649,412.135,0.387777,0.415336,0.0172893,0.0182202,-0.0338529,0.0938039,0.000106827,9.38677e-05,0.061997,0.01743962503582397,0.0983443394722916,0.00010683270620726049,0.018387200563370287,9.387210571043525e-05,-0.033286302236113174
144,0.1346,414.642,410.638,0.00690783,412.63,0.388186,0.415729,0.0174126,0.0183503,-0.0341039,0.0944876,0.000107651,9.46456e-05,0.0624708,0.017565083075919974,0.09909553426386641,0.00010765679457680477,0.018519701357153417,9.465007903619593e-05,-0.03352891692483473
145,0.1356,415.137,411.126,0.006891,413.121,0.388592,0.416123,0.0175359,0.0184804,-0.0343548,0.0951709,0.000108474,9.54231e-05,0.0629445,0.017690556585946204,0.0998468028841224,0.000108479883517143,0.018652219390411062,9.54276529288034e-05,-0.03377137410205344
146,0.1366,415.629,411.61,0.00688102,413.609,0.389003,0.416519,0.0176591,0.0186105,-0.0346056,0.095854,0.000109296,9.62003e-05,0.063418,0.017815943786210653,0.10059836490195506,0.00010930197302538858,0.018784754665386316,9.62049273971477e-05,-0.03401367385576948
147,0.1376,416.118,412.091,0.00686528,414.094,0.389413,0.416916,0.0177823,0.0187404,-0.0348563,0.0965367,0.000110118,9.69773e-05,0.0638912,0.01794134643512968,0.10134999994710281,0.00011012406320953794,0.018917103400881707,9.698200245034094e-05,-0.0342558162739135
148,0.1386,416.604,412.569,0.00685436,414.576,0.389827,0.417315,0.0179054,0.0188703,-0.0351069,0.0972191,0.000110939,9.77538e-05,0.0643643,0.018066662727935334,0.10210181767810145,0.00011094515395848603,0.019049469329594393,9.775857805838228e-05,-0.034497801444347
149,0.1396,417.086,413.044,0.0068394,415.054,0.39024,0.417716,0.0180284,0.0190001,-0.0353574,0.0979012,0.00011176,9.85301e-05,0.0648372,0.01819189262893195,0.10285381776841418,0.00011176624538156155,0.019181750535578024,9.853495424971825e-05,-0.03473962945486231
150,0.1406,417.566,413.516,0.00682781,415.53,0.390657,0.418118,0.0181514,0.0191299,-0.0356078,0.098583,0.000112579,9.93062e-05,0.0653099,0.01831713793415357,0.10360599989111674,0.00011258533725344577,0.019314048912776327,9.931113102390476e-05,-0.03498130039318259
151,0.1416,418.043,413.985,0.0068134,416.003,0.391073,0.418522,0.0182744,0.0192596,-0.0358581,0.0992645,0.000113398,0.000100082,0.0657824,0.01844239864549535,0.10435836371889762,0.0001134044297963488,0.01944626251878745,0.00010008700837049744,-0.03522281434696195
152,0.1426,418.516,414.451,0.00680134,416.473,0.391493,0.418928,0.0183972,0.0193893,-0.0361082,0.0999457,0.000114217,0.000100857,0.0662547,0.018567471051337492,0.10511090892405939,0.00011422352300982652,0.019578493274015285,0.00010086208623816262,-0.035464074950197766
153,0.1436,418.987,414.914,0.00678733,416.94,0.391913,0.419335,0.01852,0.0195188,-0.0363582,0.100626,0.000115034,0.000101633,0.0667268,0.01869255881701437,0.10586297166053504,0.0001150406166643414,0.019710537238556425,0.00010163816480823762,-0.035705178792224235
154,0.1446,419.455,415.375,0.00677495,417.404,0.392336,0.419743,0.0186428,0.0196484,-0.0366082,0.101307,0.000115852,0.000102407,0.0671988,0.018817661944411812,0.10661632083051376,0.00011585871110209034,0.01984270028816315,0.00010241224377582903,-0.03594622236582401
155,0.1456,419.921,415.832,0.00676122,417.866,0.392759,0.420154,0.0187655,0.0197778,-0.036858,0.101987,0.000116668,0.000103182,0.0676705,0.01894267854114373,0.10736907583637434,0.0001166748059757694,0.01997467647225526,0.00010318732344560821,-0.03618701292348425
156,0.1466,420.383,416.287,0.00674862,418.324,0.393185,0.420566,0.0188881,0.0199072,-0.0371077,0.102667,0.000117484,0.000103957,0.068142,0.01906760857158729,0.10812234288971534,0.00011749090151536024,0.020106669735170835,0.0001039624037162401,-0.03642764698194478
157,0.1476,420.843,416.739,0.00673509,418.78,0.393612,0.420979,0.0190107,0.0200365,-0.0373573,0.103347,0.000118299,0.000104731,0.0686134,0.019192553919391564,0.10887612233884747,0.00011830599760265237,0.02023857805525675,0.00010473648448261486,-0.0366681246283993
158,0.1486,421.3,417.188,0.00672234,419.233,0.39404,0.421394,0.0191333,0.0201658,-0.0376068,0.104026,0.000119114,0.000105505,0.0690845,0.01931751458643438,0.10962930490245859,0.00011912109435407991,0.020370503432191045,0.000105510565848288,-0.036908445949973
159,0.1496,421.754,417.635,0.00670896,419.684,0.39447,0.42181,0.0192557,0.020295,-0.0378562,0.104705,0.000119928,0.000106279,0.0695555,0.01944228668611636,0.11038299905069371,0.00011993519165010014,0.020502343817939916,0.00010628464781303748,-0.037148611033722245
160,0.1506,422.206,418.079,0.00669612,420.132,0.394902,0.422229,0.0193781,0.0204241,-0.0381054,0.105384,0.000120742,0.000107052,0.0700262,0.019567074058838285,0.11113720513103664,0.00012074928960870146,0.020634099175152132,0.00010705773026975507,-0.03738852370549217
161,0.1516,422.655,418.521,0.00668284,420.577,0.395335,0.422648,0.0195005,0.0205532,-0.0383546,0.106062,0.000121554,0.000107825,0.0704968,0.019691876706469325,0.11189081159984005,0.0001215613879868016,0.020765871543078962,0.00010783081332421673,-0.03762837659847307
162,0.1526,423.102,418.959,0.00666995,421.02,0.39577,0.42307,0.0196228,0.0206822,-0.0386037,0.10674,0.000122367,0.000108598,0.0709671,0.01981659264921487,0.1126449291870788,0.00012237448714680355,0.020897558834155783,0.00010860389697620043,-0.03786807351437205
163,0.1536,423.546,419.396,0.00665676,421.46,0.396206,0.423492,0.019745,0.0208111,-0.0388526,0.107418,0.000123179,0.000109371,0.0714373,0.019941221851525803,0.11339955823940895,0.00012318658684451478,0.021029161011067554,0.0001093769812259282,-0.03810751835072834
164,0.1546,423.987,419.829,0.00664383,421.898,0.396644,0.423917,0.0198672,0.02094,-0.0391014,0.108095,0.00012399,0.000110144,0.0719073,0.020065866284455947,0.11415358494957895,0.00012399768707771486,0.02116078015259326,0.00011015006607317801,-0.03834680743136665
165,0.1556,424.427,420.261,0.00663071,422.333,0.397083,0.424343,0.0199893,0.0210688,-0.0393501,0.108772,0.000124801,0.000110917,0.072377,0.020190423930818824,0.11490812230866698,0.0001248087879688331,0.02129231413168342,0.00011092315151794985,-0.038585940842886246
166,0.1566,424.863,420.69,0.00661777,422.766,0.397524,0.42477,0.0201114,0.0211976,-0.0395987,0.109449,0.000125611,0.000111689,0.0728466,0.02031499678659876,0.11566317066249932,0.00012561888939188748,0.02142386505344107,0.00011169523744847254,-0.0388249186718177
167,0.1576,425.297,421.116,0.0066047,423.196,0.397966,0.425199,0.0202334,0.0213263,-0.0398472,0.110126,0.000126421,0.000112461,0.073316,0.02043948280969965,0.11641873035713668,0.0001264289914713057,0.02155533076451044,0.00011246732397540704,-0.03906374100462395
168,0.1586,425.729,421.54,0.00659177,423.624,0.39841,0.42563,0.0203554,0.0214549,-0.0400956,0.110802,0.00012723,0.000113233,0.0737852,0.020563984021021886,0.11717368456463051,0.0001272380940797735,0.02168671122762955,0.00011323941109808722,-0.039302407927699345
169,0.1596,426.159,421.962,0.00657875,424.049,0.398855,0.426062,0.0204773,0.0215835,-0.0403439,0.111478,0.000128039,0.000114005,0.0742542,0.020688398353573723,0.11792914929370557,0.00012804719734260672,0.02181810858736255,0.00011401149881695716,-0.03954091952737038
170,0.1606,426.586,422.381,0.00656582,424.473,0.399303,0.426496,0.0205991,0.021712,-0.0405921,0.112153,0.000128847,0.000114777,0.074723,0.020812725771879093,0.1186840062050254,0.00012885530113115884,0.021949420650935414,0.00011478358713179482,-0.03977927588989549
171,0.1616,427.01,422.798,0.00655285,424.894,0.399751,0.426931,0.0207209,0.0218404,-0.0408401,0.112828,0.000129655,0.000115548,0.0751916,0.020937068334186515,0.11943937281676487,0.00012966340557274414,0.02208064738112281,0.00011555467592727631,-0.04001738110320796
172,0.1626,427.433,423.213,0.00653995,425.312,0.400201,0.427368,0.0208426,0.0219688,-0.0410881,0.113503,0.000130462,0.00011632,0.07566,0.021061323936202747,0.12019524947308802,0.00013047051053671765,0.022211890961904013,0.00011632676543360532,-0.0402554272737492
173,0.1636,427.853,423.625,0.00652701,425.729,0.400653,0.427806,0.0209643,0.0220971,-0.0413359,0.114178,0.000131269,0.000117091,0.0761282,0.021185594661046192,0.12095163651839114,0.00013127761615217004,0.022343049161133166,0.0001170978554188018,-0.04049322251482357
174,0.1646,428.271,424.036,0.00651413,426.143,0.401106,0.428246,0.0210859,0.0222254,-0.0415836,0.114852,0.000132076,0.000117862,0.0765962,0.02130977837957393,0.12170741258932938,0.00013208472241887925,0.02247422418903855,0.00011786894599841169,-0.04073086291062855
175,0.1656,428.687,424.444,0.00650124,426.555,0.40156,0.428688,0.0212074,0.0223536,-0.0418312,0.115526,0.000132882,0.000118633,0.077064,0.021433875056367624,0.12246369822504377,0.00013289082920397988,0.022605313787243286,0.00011864003717265703,-0.040968348547036904
176,0.1666,429.101,424.849,0.00648839,426.964,0.402016,0.429131,0.0213289,0.0224817,-0.0420788,0.1162,0.000133687,0.000119404,0.0775317,0.021557986811823415,0.12322049376909616,0.00013369593650525147,0.02273631791857489,0.00011941112894131578,-0.04120577538928061
177,0.1676,429.512,425.253,0.00647554,427.372,0.402474,0.429575,0.0214504,0.0226098,-0.0423262,0.116873,0.000134492,0.000120175,0.0779991,0.021682113647773615,0.1239766755880436,0.00013450104445444921,0.022867338832610606,0.00012018222130460998,-0.041442951740524925
178,0.1686,429.921,425.655,0.00646272,427.777,0.402933,0.430021,0.0215718,0.0227378,-0.0425734,0.117546,0.000135297,0.000120946,0.0784663,0.021806153385430127,0.12473336648864164,0.00013530615305179516,0.022998274231667892,0.00012095331426231759,-0.04167987775759241
179,0.1696,430.329,426.054,0.00644991,428.18,0.403394,0.430469,0.0216931,0.0228657,-0.0428206,0.118219,0.000136101,0.000121716,0.0789333,0.021930105989409254,0.12549056681361814,0.00013611026216131528,0.023129124078611563,0.00012172340769289747,-0.041916745213786966
180,0.1706,430.734,426.451,0.00643712,428.582,0.403856,0.430918,0.0218144,0.0229936,-0.0430677,0.118892,0.000136905,0.000122487,0.0794002,0.022054073629751203,0.12624827690593055,0.00013691437191720723,0.023259990662320762,0.00012249450183876576,-0.04215345833893358
181,0.1716,431.137,426.846,0.00642435,428.981,0.40432,0.431368,0.0219356,0.0231214,-0.0433146,0.119564,0.000137709,0.000123257,0.0798668,0.0221779540904794,0.12700537010283464,0.00013771848231969308,0.023390771645854347,0.00012326459645617405,-0.04238992145749643
182,0.1726,431.538,427.24,0.0064116,429.378,0.404785,0.43182,0.0220568,0.0232492,-0.0435615,0.120236,0.000138512,0.000124028,0.0803332,0.022301849566429333,0.12776297223735078,0.0001385215932299122,0.023521569344265636,0.00012403569179042506,-0.0426263262005222
183,0.1736,431.937,427.631,0.00639887,429.773,0.405251,0.432274,0.0221779,0.0233769,-0.0438082,0.120907,0.000139315,0.000124798,0.0807995,0.02242565781685002,0.12851995513108094,0.0001393247047851709,0.02365228139445752,0.00012480578759443972,-0.04286248115493718
184,0.1746,432.334,428.02,0.00638616,430.166,0.405719,0.432729,0.0222989,0.0235045,-0.0440549,0.121579,0.000140117,0.000125568,0.0812655,0.022549378806414833,0.12927857540879395,0.00014012681684527628,0.023782907759348326,0.00012557588399131348,-0.043098577857110576
185,0.1756,432.729,428.407,0.00637347,430.557,0.406189,0.433186,0.0224199,0.0236321,-0.0443014,0.122249,0.000140919,0.000126338,0.0817314,0.02267311476712508,0.130035445577511,0.0001409289295486449,0.02391355079322688,0.00012634598098126837,-0.043334424988315634
186,0.1766,433.122,428.792,0.0063608,430.946,0.40666,0.433644,0.0225409,0.0237596,-0.0445478,0.12292,0.00014172,0.000127108,0.0821971,0.022796865700792424,0.1307939538125471,0.00014173004275352952,0.024044108093803862,0.00012711607856408236,-0.043570118347384224
187,0.1776,433.513,429.175,0.00634815,431.333,0.407133,0.434103,0.0226618,0.023887,-0.0447941,0.12359,0.000142522,0.000127878,0.0826625,0.02292052931717059,0.1315518396249975,0.00014253215674275843,0.02417457962403513,0.00012788617673997749,-0.043805658019334004
188,0.1786,433.902,429.557,0.00633552,431.718,0.407607,0.434564,0.0227826,0.0240144,-0.0450403,0.12426,0.000143323,0.000128648,0.0831278,0.023044105580968033,0.13231023339108772,0.00014333327123194906,0.02430506777739816,0.0001286562755087317,-0.044041044089115466
189,0.1796,434.289,429.936,0.00632291,432.102,0.408083,0.435027,0.0229034,0.0241417,-0.0452864,0.12493,0.000144123,0.000129418,0.0835928,0.023167696773680024,0.13306913545126053,0.00014413338621843685,0.024435470112458724,0.00012942637487056707,-0.04427627664161227
190,0.1806,434.674,430.313,0.00631032,432.483,0.40856,0.435491,0.0230241,0.024269,-0.0455324,0.1256,0.000144923,0.000130188,0.0840577,0.023291200567984616,0.13382854614618744,0.0001449335018453013,0.0245658890487932,0.00013019647482548358,-0.044511355761641114
191,0.1816,435.058,430.689,0.00629775,432.863,0.409038,0.435957,0.0231448,0.0243962,-0.0457782,0.126269,0.000145723,0.000130958,0.0845224,0.023414719270096862,0.13458733122886923,0.00014573361811209828,0.02469622211888778,0.00013096657537325918,-0.04474618600857527
192,0.1826,435.439,431.063,0.0062852,433.24,0.409518,0.436424,0.0232654,0.0245234,-0.046024,0.126938,0.000146523,0.000131728,0.0849869,0.023538150527996127,0.13534662410861031,0.00014653373501904987,0.024826571768403083,0.00013173667651389387,-0.04498095854132811
193,0.1836,435.819,431.435,0.00627268,433.616,0.41,0.436893,0.0233859,0.0246504,-0.0462696,0.127606,0.000147322,0.000132498,0.0854512,0.02366149430644815,0.1361052890193839,0.00014733285241885774,0.024956733008081544,0.0001325067782476097,-0.045215482417199526
194,0.1846,436.197,431.805,0.00626018,433.99,0.410483,0.437363,0.0235064,0.0247775,-0.0465152,0.128274,0.000148121,0.000133267,0.0859152,0.023784852948721014,0.13686446088762283,0.00014813197045704385,0.02508701328798324,0.00013327588044109717,-0.045449948701079546
195,0.1856,436.574,432.173,0.00624769,434.363,0.410967,0.437834,0.0236269,0.0249044,-0.0467606,0.128942,0.00014892,0.000134037,0.0863791,0.023908226456605952,0.13762414005208767,0.0001489310891336082,0.02521710508411945,0.0001340459833600871,-0.04568416654396357
196,0.1866,436.948,432.54,0.00623523,434.733,0.411453,0.438307,0.0237473,0.0250313,-0.0470059,0.12961,0.000149718,0.000134807,0.0868428,0.0240315124287378,0.13838432685176594,0.00014972920829903202,0.02534721338995194,0.00013481608687193614,-0.045918231508668805
197,0.1876,437.321,432.905,0.00622279,435.102,0.41194,0.438782,0.0238676,0.0251582,-0.0472511,0.130277,0.000150516,0.000135577,0.0873063,0.02415471082991827,0.13914388248141862,0.00015052732810150182,0.02547733820757614,0.0001355861909768663,-0.046152143679498714
198,0.1886,437.692,433.268,0.00621038,435.469,0.412429,0.439258,0.0239879,0.0252849,-0.0474963,0.130944,0.000151314,0.000136346,0.0877696,0.02427792405275797,0.13990394490367297,0.00015132544854079555,0.025607274417612125,0.00013635529553823744,-0.04638599850209557
199,0.1896,438.061,433.629,0.00619798,435.834,0.41292,0.439736,0.0241081,0.0254117,-0.0477412,0.131611,0.000152112,0.000137116,0.0882327,0.024401049658929752,0.14066451445667227,0.0001521235696169132,0.025737329665336706,0.0001371254008284417,-0.046619509976415285
200,0.1906,438.428,433.989,0.00618561,436.198,0.413411,0.440215,0.0242283,0.0255383,-0.0479861,0.132277,0.000152909,0.000137886,0.0886956,0.024524190065688956,0.1414244500537647,0.00015292069117700535,0.025867196231652567,0.00013789550671150508,-0.04685296427077701
201,0.1916,438.794,434.347,0.00617325,436.56,0.413905,0.440695,0.0243484,0.0256649,-0.0482309,0.132943,0.000153706,0.000138656,0.0891584,0.024647242810085235,0.14218489193653916,0.00015371781337236712,0.025997079240116516,0.00013866561318742754,-0.047086266107813524
202,0.1926,439.158,434.703,0.00616092,436.92,0.414399,0.441177,0.0244685,0.0257914,-0.0484756,0.133609,0.000154503,0.000139425,0.0896209,0.024770310334003565,0.14294584044229453,0.00015451493620322054,0.026126876080117434,0.00013943472011712643,-0.04731941557149666
203,0.1936,439.521,435.058,0.00614862,437.278,0.414895,0.441661,0.0245885,0.0259179,-0.0487202,0.134274,0.000155299,0.000140195,0.0900832,0.02489329014988506,0.14370615220182947,0.00015531105951405166,0.026256689340457218,0.000140204827778323,-0.047552412745731854
204,0.1946,439.882,435.411,0.00613633,437.635,0.415393,0.442146,0.0247084,0.0260443,-0.0489646,0.13494,0.000156096,0.000140965,0.0905453,0.025016182222606487,0.14446811420437844,0.00015610818361455614,0.02638641638456618,0.00014097493603237865,-0.04778516249287912
205,0.1956,440.241,435.762,0.00612407,437.991,0.415892,0.442632,0.0248283,0.0261707,-0.049209,0.135605,0.000156892,0.000141735,0.0910072,0.025139089030971062,0.1452294386126336,0.000156904308193484,0.026516159827210117,0.0001417450448797375,-0.0480178553629389
206,0.1966,440.599,436.112,0.00611183,438.344,0.416393,0.44312,0.0249482,0.026297,-0.0494532,0.136269,0.000157688,0.000142505,0.091469,0.025262010576745153,0.14599012347929974,0.00015770043340612716,0.02664581700587476,0.00014251515431995543,-0.04825030101988936
207,0.1976,440.955,436.46,0.00609961,438.696,0.416895,0.443609,0.025068,0.0264232,-0.0496973,0.136933,0.000158483,0.000143274,0.0919305,0.025384844323206757,0.1467513136084455,0.00015849555909408508,0.02677538788373135,0.00014328426420973095,-0.04848259476880501
208,0.1986,441.309,436.806,0.00608741,439.047,0.417398,0.4441,0.0251877,0.0265494,-0.0499414,0.137597,0.000159279,0.000144044,0.0923919,0.025507590235268607,0.14751300933567735,0.00015929168557349271,0.026904975114464547,0.00014405437483500094,-0.048714831821736415
209,0.1996,441.662,437.151,0.00607524,439.396,0.417903,0.444592,0.0253074,0.0266755,-0.0501853,0.138261,0.000160074,0.000144814,0.092853,0.02563035084089549,0.1482752109968235,0.00016008681252643875,0.027034475996685403,0.00014482448605357412,-0.04894682198190503
210,0.2006,442.013,437.495,0.00606309,439.743,0.418409,0.445086,0.025427,0.0268016,-0.0504291,0.138924,0.000160869,0.000145584,0.093314,0.025753023566538635,0.14903676989059123,0.00016088194011154577,0.027163993209997406,0.00014559459786478435,-0.04917866048444408
211,0.2016,442.363,437.837,0.00605096,440.089,0.418917,0.445581,0.0255466,0.0269276,-0.0506728,0.139587,0.000161663,0.000146354,0.0937747,0.025875710964717413,0.14979883386532133,0.00016167606816708258,0.0272934240271121,0.00014636471026907572,-0.04941034741268513
212,0.2026,442.711,438.177,0.00603885,440.433,0.419426,0.446078,0.0256661,0.0270535,-0.0509164,0.14025,0.000162458,0.000147125,0.0942353,0.025998310437350236,0.15056140325599343,0.0001624711970156234,0.027422768411255127,0.0001471358234135245,-0.04964188284989424
213,0.2036,443.058,438.516,0.00602676,440.776,0.419937,0.446576,0.0257856,0.0271794,-0.0511599,0.140913,0.000163252,0.000147895,0.0946956,0.026120924561495507,0.15132447839780983,0.00016326532633281765,0.02755212908088156,0.00014790593700464427,-0.049873266879271405
214,0.2046,443.403,438.853,0.0060147,441.117,0.420449,0.447076,0.025905,0.0273052,-0.0514033,0.141575,0.000164047,0.000148665,0.0951558,0.026243450714553918,0.15208690753871057,0.00016406045644501432,0.027681403269895766,0.0001486760511888452,-0.050104499583951245
215,0.2056,443.747,439.189,0.00600266,441.457,0.420962,0.447577,0.0260244,0.0274309,-0.0516465,0.142237,0.000164841,0.000149436,0.0956158,0.026365991498108476,0.15284984157480452,0.00016485458702408806,0.02781059094156202,0.00014944716611520192,-0.050335486080555936
216,0.2066,444.09,439.523,0.00599064,441.796,0.421477,0.448079,0.0261437,0.0275566,-0.0518897,0.142898,0.000165634,0.000150206,0.0960755,0.026488444265056588,0.15361212722773887,0.0001656477180682625,0.02793979485313902,0.0001502172814860092,-0.05056641640807513
217,0.2076,444.43,439.856,0.00597864,442.132,0.421994,0.448583,0.026263,0.0276823,-0.0521327,0.14356,0.000166428,0.000150976,0.0965351,0.02661091164149121,0.1543760712935498,0.00016644184990788347,0.028069015006668474,0.00015098739744989764,-0.05079710073960653
218,0.2086,444.77,440.188,0.00596667,442.468,0.422511,0.449088,0.0263822,0.0278078,-0.0523757,0.144221,0.000167222,0.000151747,0.0969945,0.02673329095582111,0.15513936611782264,0.0001672359823781111,0.02819804576456253,0.00015175851415838437,-0.05102772902165564
219,0.2096,445.108,440.518,0.00595472,442.802,0.423031,0.449595,0.0265013,0.0279334,-0.0526185,0.144881,0.000168015,0.000152518,0.0974537,0.02685558217307138,0.15590200974417323,0.00016802911531055287,0.028327195549547435,0.00015252963146150655,-0.05125811151948223
220,0.2106,445.444,440.846,0.00594279,443.134,0.423551,0.450104,0.0266204,0.0280588,-0.0528613,0.145542,0.000168808,0.000153289,0.0979127,0.02697788795607292,0.15666631354719263,0.00016882224887226904,0.02845615586551209,0.00015330074935904214,-0.05148843808722836
221,0.2116,445.779,441.174,0.00593088,443.466,0.424074,0.450613,0.0267395,0.0281842,-0.0531039,0.146202,0.000169601,0.000154059,0.0983715,0.02710020830656079,0.15742996529148878,0.00016961538306281554,0.028585132354114418,0.00015407086769725353,-0.05171851908219527
222,0.2126,446.113,441.499,0.005919,443.795,0.424597,0.451125,0.0268584,0.0283095,-0.0533464,0.146862,0.000170394,0.00015483,0.0988301,0.027222337781781736,0.15819412121229615,0.00017040851788219236,0.028714022145975182,0.00015484198678317185,-0.05194844946113264
223,0.2136,446.446,441.824,0.00590713,444.124,0.425122,0.451637,0.0269774,0.0284348,-0.0535888,0.147521,0.000171187,0.000155601,0.0992885,0.02734458451351407,0.15895762268427904,0.00017120165333062154,0.028842928088738784,0.00015561310646350357,-0.052178229306540924
224,0.2146,446.777,442.147,0.00589529,444.451,0.425648,0.452151,0.0270963,0.02856,-0.0538312,0.14818,0.000171979,0.000156373,0.0997467,0.02746674304679364,0.1597216274695552,0.00017199378923593578,0.02897174728724905,0.00015638522689487289,-0.05240795346006477
225,0.2156,447.106,442.469,0.00588347,444.776,0.426176,0.452667,0.0272151,0.0286852,-0.0540734,0.148839,0.000172772,0.000157144,0.100205,0.027588813346699936,0.1604861358999179,0.00017278692594158152,0.029100582614932646,0.00015715634776514165,-0.05263743246270769
226,0.2166,447.435,442.789,0.00587167,445.101,0.426706,0.453184,0.0273339,0.0288103,-0.0543155,0.149498,0.000173564,0.000157915,0.100663,0.027710898149419183,0.1612511483073784,0.000173579063102558,0.029229331150870674,0.00015792746923004586,-0.052866761178947286
227,0.2176,447.762,443.108,0.0058599,445.424,0.427236,0.453702,0.0274526,0.0289354,-0.0545574,0.150156,0.000174357,0.000158687,0.10112,0.027832894673379904,0.16201550300808298,0.00017437220106519824,0.0293580957942583,0.00015869959144798607,-0.05309584500061282
228,0.2186,448.087,443.426,0.00584815,445.745,0.427768,0.454222,0.0275713,0.0290603,-0.0547993,0.150814,0.000175149,0.000159458,0.101578,0.02795490567918768,0.16278036081968605,0.00017516433948161492,0.02948667064975563,0.00015947071410260527,-0.05332487341360381
229,0.2196,448.412,443.742,0.00583641,446.066,0.428302,0.454743,0.0276899,0.0291853,-0.0550411,0.151472,0.000175941,0.00016023,0.102035,0.02807682836087322,0.1635457220733434,0.00017595647852552965,0.02961536452678648,0.00016024283751203683,-0.05355375178670185
230,0.2206,448.735,444.057,0.0058247,446.385,0.428837,0.455266,0.0278085,0.0293101,-0.0552828,0.15213,0.000176733,0.000161002,0.102492,0.028198765503446577,0.1643115871004288,0.00017674861819672039,0.02974386854276334,0.00016101496151765815,-0.05378248020195253
231,0.2216,449.056,444.371,0.00581301,446.703,0.429373,0.45579,0.027927,0.0294349,-0.0555243,0.152787,0.000177525,0.000161774,0.102949,0.028320614276555967,0.16507679115516072,0.00017754075849540918,0.029872388597042,0.0001617870861192472,-0.054010964142437445
232,0.2226,449.377,444.683,0.00580135,447.019,0.429911,0.456316,0.0280454,0.0295597,-0.0557658,0.153444,0.000178316,0.000162546,0.103405,0.028442374645357926,0.16584249811414264,0.00017833189924298942,0.03000092469162441,0.00016255921131680395,-0.05423939291071311
233,0.2236,449.696,444.994,0.0057897,447.334,0.43045,0.456843,0.0281639,0.0296844,-0.0560071,0.1541,0.000179108,0.000163319,0.103862,0.02856425228786108,0.1666075416997661,0.0001791240407955641,0.030129373815569904,0.00016333233727405805,-0.05446757741363628
234,0.2246,450.014,445.304,0.00577808,447.648,0.43099,0.457371,0.0282822,0.029809,-0.0562484,0.154756,0.0001799,0.000164091,0.104318,0.028685938636512365,0.16737308731863076,0.00017991618297541478,0.030257735932341046,0.00016410446366466047,-0.054695706862281535
235,0.2256,450.331,445.613,0.00576648,447.961,0.431532,0.457901,0.0284005,0.0299336,-0.0564895,0.155412,0.000180691,0.000164864,0.104774,0.02880763938151021,0.1681391353001782,0.00018070732560193647,0.030386114044028467,0.00016487759081607045,-0.05492359225466903
236,0.2266,450.646,445.921,0.0057549,448.272,0.432076,0.458432,0.0285188,0.0300581,-0.0567306,0.156068,0.000181483,0.000165637,0.10523,0.028929354524557693,0.16890568597406674,0.0001814994690358951,0.030514405101179642,0.0001656507185652245,-0.05515142271051132
237,0.2276,450.96,446.227,0.00574334,448.583,0.432621,0.458965,0.028637,0.0301826,-0.0569715,0.156723,0.000182274,0.000166409,0.105686,0.02905098116225524,0.16967156999801558,0.0001822906129149704,0.030642712131561556,0.0001664228467457285,-0.05537900931887274
238,0.2286,451.273,446.532,0.0057318,448.892,0.433167,0.459499,0.0287551,0.030307,-0.0572123,0.157378,0.000183065,0.000167183,0.106141,0.02917251925981379,0.17043795584032773,0.0001830817574197674,0.03077093206006487,0.0001671969758565428,-0.05560644666887293
239,0.2296,451.585,446.836,0.00572028,449.199,0.433715,0.460035,0.0288732,0.0304313,-0.057453,0.158033,0.000183857,0.000167956,0.106597,0.029294071711869485,0.17120484382980172,0.00018387390273399973,0.03089906485020788,0.00016797010539870705,-0.05583373484193066
240,0.2306,451.896,447.138,0.00570878,449.506,0.434264,0.460572,0.0289913,0.0305556,-0.0576936,0.158688,0.000184648,0.000168729,0.107052,0.029415638520117415,0.17197223429545194,0.00018466504849135035,0.03102721356824656,0.00016874323553839332,-0.056060873919400955
241,0.2316,452.205,447.44,0.00569731,449.811,0.434814,0.46111,0.0291093,0.0306798,-0.0579341,0.159342,0.000185439,0.000169503,0.107507,0.02953711673253623,0.17273895482696688,0.00018545619487420062,0.03115527510062832,0.0001695173664451044,-0.05628786398257413
242,0.2326,452.513,447.74,0.00568585,450.116,0.435366,0.46165,0.0292272,0.030804,-0.0581745,0.159996,0.00018623,0.000170276,0.107961,0.02965850631437439,0.17350617695771442,0.00018624734188299463,0.031283352539240195,0.00017029049778094496,-0.05651470511267642
243,0.2336,452.82,448.039,0.00567442,450.419,0.435919,0.462191,0.0293451,0.0309281,-0.0584148,0.16065,0.000187021,0.00017105,0.108416,0.029779910208887816,0.1742739010158476,0.00018703848951751034,0.0314113427449183,0.00017106462988536464,-0.05674139739086981
244,0.2346,453.126,448.337,0.00566301,450.72,0.436474,0.462734,0.0294629,0.0310521,-0.058655,0.161303,0.000187812,0.000171824,0.10887,0.029901225427636513,0.17504095228819505,0.00018782963777774775,0.031539245681236894,0.0001718387625890827,-0.05696794089825208
245,0.2356,453.431,448.634,0.00565162,451.021,0.43703,0.463278,0.0295807,0.0311761,-0.0588951,0.161956,0.000188603,0.000172599,0.109324,0.03002255493815964,0.17580850460859754,0.0001886207866639289,0.03166716447850271,0.00017261389606448851,-0.05719433571585697
246,0.2366,453.734,448.929,0.00564024,451.321,0.437587,0.463824,0.0296985,0.0313,-0.0591351,0.162609,0.000189394,0.000173373,0.109778,0.030143898742141184,0.1765765583043466,0.00018941193617583174,0.03179499595917834,0.00017338802996724745,-0.057420581924654046
247,0.2376,454.037,449.224,0.00562889,451.619,0.438146,0.464371,0.0298161,0.0314239,-0.059375,0.163261,0.000190185,0.000174148,0.110232,0.030265050788233827,0.17734393635842194,0.00019020308631367833,0.03192284327915562,0.00017416316464324844,-0.057646679605549145
248,0.2386,454.338,449.517,0.00561756,451.917,0.438706,0.464919,0.0299338,0.0315477,-0.0596147,0.163913,0.000190976,0.000174923,0.110686,0.03038632012127196,0.17811181490613182,0.0001909942370772466,0.03205060323533182,0.00017493829992010212,-0.0578725346266421
249,0.2396,454.638,449.809,0.00560625,452.213,0.439268,0.465469,0.0300513,0.0316715,-0.0598544,0.164565,0.000191767,0.000175698,0.111139,0.030507397627050237,0.17888019427390445,0.0001917853884665366,0.03217837900916942,0.00017571343579758647,-0.058098335516774235
250,0.2406,454.938,450.1,0.00559496,452.508,0.439831,0.46602,0.0301689,0.0317952,-0.060094,0.165217,0.000192558,0.000176473,0.111592,0.030628592423125545,0.179649074788381,0.0001925765404817703,0.032306067372015246,0.00017648857227592352,-0.05832398812132289
251,0.2416,455.235,450.39,0.0055837,452.802,0.440395,0.466572,0.0302863,0.0319188,-0.0603334,0.165868,0.000193349,0.000177248,0.112045,0.030749595322607348,0.18041727635854876,0.00019336769312272573,0.03243366828751659,0.00017726370935489122,-0.05854939837588258
252,0.2426,455.532,450.679,0.00557245,453.095,0.440961,0.467126,0.0304038,0.0320424,-0.0605728,0.166519,0.00019414,0.000178024,0.112498,0.03087071551572973,0.18118597819075655,0.00019415884638940284,0.03256128497546573,0.0001780398472126521,-0.0587747546736862
253,0.2436,455.828,450.967,0.00556122,453.386,0.441528,0.467682,0.0305211,0.032166,-0.060812,0.16717,0.00019493,0.0001788,0.112951,0.030991643742961594,0.18195518061078086,0.0001949490000869858,0.03268891743781244,0.00017881598567281998,-0.05899986882764208
254,0.2446,456.123,451.254,0.00555001,453.677,0.442097,0.468239,0.0306385,0.0322894,-0.0610511,0.16782,0.000195721,0.000179576,0.113403,0.031112689267170257,0.18272370122031756,0.0001957401546046622,0.03281635911321401,0.00017959212473517283,-0.05922483506322018
255,0.2456,456.417,451.539,0.00553882,453.967,0.442667,0.468797,0.0307557,0.0324128,-0.0612902,0.168471,0.000196512,0.000180352,0.113855,0.031233542756228472,0.18349390502394902,0.00019653130974783828,0.032943816515888624,0.00018036826439971065,-0.059449747515801454
256,0.2466,456.709,451.824,0.00552765,454.255,0.443238,0.469356,0.030873,0.0325362,-0.0615291,0.16912,0.000197303,0.000181129,0.114307,0.03135451354559193,0.1842622418666462,0.00019732246551718013,0.03307128964777717,0.00018114540484770458,-0.05967441813314611
257,0.2476,457.001,452.107,0.0055165,454.543,0.443811,0.469917,0.0309901,0.0326595,-0.0617679,0.16977,0.000198094,0.000181906,0.114759,0.0314752922305821,0.18503226255347172,0.00019811362191202164,0.03319867519094788,0.00018192254589965984,-0.059898941072989875
258,0.2486,457.291,452.39,0.00550537,454.829,0.444385,0.47048,0.0311073,0.0327827,-0.0620067,0.170419,0.000198885,0.000182682,0.115211,0.03159618821919796,0.18580159811425467,0.0001989047789328069,0.03332597310912222,0.00018269868737275097,-0.06012341040315694
259,0.2496,457.581,452.671,0.00549426,455.115,0.444961,0.471044,0.0312243,0.0329059,-0.0622453,0.171068,0.000199676,0.00018346,0.115662,0.031716892034255206,0.1865714331358741,0.00019969593657931384,0.03345328671136616,0.00018347682981501023,-0.06034763820599409
260,0.2506,457.869,452.952,0.00548317,455.399,0.445538,0.471609,0.0313413,0.0330291,-0.0624838,0.171717,0.000200467,0.000184237,0.116113,0.03183760997248486,0.18734176794258506,0.00020048709485176452,0.03358061599961215,0.00018425397267840538,-0.060571718571636235
261,0.2516,458.157,453.231,0.0054721,455.683,0.446116,0.472176,0.0314583,0.0331521,-0.0627222,0.172365,0.000201258,0.000185015,0.116564,0.0319583420355396,0.188111414746845,0.0002012782537499369,0.03370775423422123,0.0001850321163305857,-0.06079565158005351
262,0.2526,458.443,453.51,0.00546104,455.965,0.446696,0.472744,0.0315752,0.0332751,-0.0629605,0.173014,0.000202049,0.000185793,0.117015,0.03207898501716833,0.1888827493260128,0.00020206941327405303,0.03383490810779488,0.00018581026058828165,-0.06101943731115311
263,0.2536,458.728,453.787,0.00545001,456.247,0.447277,0.473313,0.0316921,0.0333981,-0.0631987,0.173661,0.00020284,0.000186571,0.117466,0.03219964210278614,0.18965220535701088,0.00020286057342389086,0.03396207762225689,0.00018658840545149324,-0.06124307584477884
264,0.2546,459.013,454.063,0.005439,456.527,0.447859,0.473884,0.0318089,0.033521,-0.0634368,0.174309,0.000203632,0.000187349,0.117917,0.032320210062015464,0.19042334980990105,0.00020365273440314802,0.0340891593706103,0.00018736655091999843,-0.06146656726071131
265,0.2556,459.296,454.339,0.005428,456.806,0.448443,0.474456,0.0319257,0.0336439,-0.0636748,0.174956,0.000204423,0.000188128,0.118367,0.03244079210440498,0.19119380293193666,0.0002044438958053174,0.03421625673827022,0.00018814569718195173,-0.061689911638667994
266,0.2566,459.579,454.613,0.00541703,457.085,0.449028,0.47503,0.0320424,0.0337666,-0.0639127,0.175603,0.000205214,0.000188906,0.118817,0.03256128497546573,0.191964754698436,0.00020523505783343055,0.03434316285850314,0.00018892384386193228,-0.061913109058303384
267,0.2576,459.86,454.887,0.00540607,457.362,0.449615,0.475605,0.032159,0.0338894,-0.0641505,0.17625,0.000206005,0.000189686,0.119267,0.03268168864069132,0.19273620543212688,0.00020602622048726538,0.03447018799808621,0.00018970399152684614,-0.06213615959920893
268,0.2586,460.141,455.159,0.00539513,457.639,0.450203,0.476181,0.0322756,0.034012,-0.0643882,0.176896,0.000206797,0.000190465,0.119717,0.032802106345802606,0.19350696194838668,0.00020681838397362817,0.03459702181788904,0.00019048313960978724,-0.06235906334091301
269,0.2596,460.42,455.431,0.00538421,457.914,0.450792,0.476759,0.0323922,0.0341347,-0.0646258,0.177543,0.000207588,0.000191245,0.120166,0.032922538092436726,0.19427941081302902,0.00020760954787979458,0.03472397466086363,0.0001912632884908394,-0.06258182036288096
270,0.2606,460.699,455.701,0.00537331,458.189,0.451383,0.477338,0.0325087,0.0342572,-0.0648632,0.178189,0.00020838,0.000192024,0.120615,0.03304288057793814,0.1950511645620363,0.0002084017126202653,0.034850736111740055,0.0001920424377883645,-0.06280433702495403
271,0.2616,460.976,455.971,0.00536243,458.462,0.451975,0.477919,0.0326252,0.0343797,-0.0651006,0.178834,0.000209172,0.000192805,0.121065,0.03316323708415592,0.19582222120221382,0.00020919387798823408,0.03497751309184527,0.00019282358807859445,-0.06302680086784129
272,0.2626,461.253,456.239,0.00535156,458.735,0.452569,0.478501,0.0327416,0.0345022,-0.0653379,0.179479,0.000209963,0.000193585,0.121514,0.03328350428436777,0.19659377533434785,0.00020998504377334193,0.035104305603081754,0.00019360373878529735,-0.06324911822899726
273,0.2636,461.529,456.507,0.00534072,459.007,0.453163,0.479084,0.0328579,0.0346246,-0.0655751,0.180124,0.000210755,0.000194366,0.121962,0.03340368214412326,0.19736582727942475,0.0002107772103951966,0.03523101012424612,0.00019438489029477424,-0.0634712891876359
274,0.2646,461.803,456.774,0.00532989,459.277,0.45376,0.479669,0.0329742,0.0347469,-0.0658121,0.180769,0.000211547,0.000195147,0.122411,0.03352387398137635,0.19813837735863715,0.0002115693776445493,0.035357626619225035,0.0001951660424144297,-0.06369322019223556
275,0.2656,462.077,457.04,0.00531908,459.547,0.454357,0.480255,0.0330905,0.0348692,-0.0660491,0.181414,0.000212339,0.000195928,0.122859,0.03364407979775308,0.19891142589338529,0.00021236154552117803,0.03548425860034832,0.00019594719514426373,-0.06391509860541955
276,0.2666,462.35,457.304,0.00530829,459.816,0.454956,0.480843,0.0332067,0.0349914,-0.0662859,0.182058,0.000213131,0.000196709,0.123308,0.0337641962184545,0.19968377352090338,0.0002131537140253048,0.035610802508424744,0.0001967283484840543,-0.06413673726701652
277,0.2676,462.622,457.568,0.00529751,460.084,0.455557,0.481432,0.0333229,0.0351136,-0.0665227,0.182702,0.000213923,0.000197491,0.123756,0.033884326597495074,0.20045661870048814,0.0002139458831567076,0.03573736188111143,0.00019751050263128178,-0.06435832345079207
278,0.2686,462.893,457.832,0.00528676,460.351,0.456158,0.482022,0.033439,0.0352357,-0.0667594,0.183345,0.000214715,0.000198273,0.124203,0.034004367536054625,0.20122876052330518,0.00021473805291560844,0.03586383313390984,0.0001982926573904642,-0.06457976362715256
279,0.2696,463.164,458.094,0.00527602,460.617,0.456762,0.482614,0.033555,0.0353577,-0.0669959,0.183989,0.000215508,0.000199055,0.124651,0.03412431899973911,0.20200260099496914,0.0002155312235172513,0.03599021623076437,0.00019907481276115746,-0.06480096435503768
280,0.2706,463.433,458.355,0.0052653,460.883,0.457366,0.483207,0.0336711,0.0354797,-0.0672324,0.184632,0.0002163,0.000199838,0.125098,0.03424438780303429,0.2027757372040624,0.00021632339453181437,0.036116614747297326,0.00019985796894328445,-0.06502211277513625
281,0.2716,463.701,458.616,0.00525459,461.147,0.457972,0.483802,0.033787,0.0356017,-0.0674687,0.185274,0.000217092,0.000200621,0.125546,0.03436426367425316,0.20354816715082968,0.00021711556617365346,0.036243028685389866,0.00020064112573869863,-0.06524302194844067
282,0.2726,463.969,458.875,0.00524391,461.411,0.458579,0.484398,0.0339029,0.0357236,-0.067705,0.185917,0.000217885,0.000201404,0.125993,0.03448415343989075,0.20432229747853614,0.00021790873866067706,0.036369354409983234,0.00020142428314717797,-0.06546387892707461
283,0.2736,464.236,459.134,0.00523324,461.673,0.459188,0.484995,0.0340188,0.0358454,-0.0679411,0.186559,0.000218678,0.000202188,0.12644,0.03460405710155734,0.20509572063578596,0.00021870191177675302,0.036495591885056466,0.0002022084413713099,-0.0656844968602881
284,0.2746,464.501,459.391,0.00522259,461.935,0.459798,0.485594,0.0341346,0.0359672,-0.0681771,0.187201,0.000219471,0.000202971,0.126886,0.03472387118847142,0.20586964049012568,0.00021949508552188135,0.03662184473679053,0.00020299160000702976,-0.06590496930225764
285,0.2756,464.766,459.648,0.00521196,462.196,0.460409,0.486194,0.0342503,0.0360889,-0.0684131,0.187842,0.000220264,0.000203755,0.127333,0.03484359566629536,0.20664285071708277,0.00022028825989606204,0.036748009292252526,0.00020377575945995652,-0.06612538971887005
286,0.2766,465.031,459.904,0.00520134,462.456,0.461022,0.486795,0.0343661,0.0362105,-0.0686489,0.188484,0.000221057,0.00020454,0.127779,0.03496343749338138,0.2074177641478383,0.00022108143489907306,0.03687408551546145,0.00020456091973208856,-0.06634557139153496
287,0.2776,465.294,460.16,0.00519074,462.715,0.461636,0.487398,0.0344817,0.0363322,-0.0688846,0.189125,0.00022185,0.000205325,0.128225,0.03508308618231659,0.20819196704017529,0.00022187461053113644,0.03700028077049433,0.00020534608062061643,-0.06656560780804754
288,0.2786,465.556,460.414,0.00518016,462.974,0.462251,0.488002,0.0345973,0.0364537,-0.0691203,0.189766,0.000222644,0.00020611,0.128671,0.03520274870343987,0.20896666635565286,0.00022266878701482362,0.03712628395914663,0.00020613124212554013,-0.06678559236808845
289,0.2796,465.818,460.668,0.00516959,463.231,0.462868,0.488608,0.0347129,0.0365752,-0.0693558,0.190406,0.000223437,0.000206895,0.129117,0.03532242505834993,0.2097406526713228,0.00022346196390565787,0.03725230245811639,0.0002069164042466376,-0.06700533848496482
290,0.2806,466.078,460.92,0.00515904,463.488,0.463486,0.489215,0.0348284,0.0366966,-0.0695912,0.191046,0.000224231,0.000207681,0.129563,0.03544201170444006,0.21051513449678105,0.00022425614164989227,0.03737823253143557,0.00020770256719182534,-0.06722493958022258
291,0.2816,466.338,461.172,0.00514851,463.744,0.464106,0.489823,0.0349439,0.036818,-0.0698266,0.191686,0.000225025,0.000208467,0.130008,0.035561612163585554,0.2112901121492552,0.0002250503200245113,0.03750417789359384,0.00020848873075496321,-0.06744448898746624
292,0.2826,466.597,461.423,0.00513799,463.999,0.464727,0.490433,0.0350593,0.0369394,-0.0700618,0.192326,0.000225819,0.000209253,0.130453,0.03568112286926417,0.2120655859461762,0.00022584449902973702,0.037630138546447034,0.00020927489493627327,-0.06766380025164076
293,0.2836,466.856,461.673,0.00512749,464.253,0.465349,0.491044,0.0351746,0.0370606,-0.0702969,0.192965,0.000226613,0.000210039,0.130898,0.035800543787214645,0.2128403433642283,0.00022663867866556942,0.03775590694064945,0.00021006105973531142,-0.06788296672817273
294,0.2846,467.113,461.923,0.00511701,464.507,0.465973,0.491656,0.03529,0.0371819,-0.0705319,0.193604,0.000227407,0.000210826,0.131343,0.03592008206719388,0.2136155960104793,0.00022743285893200849,0.0378817943670795,0.00021084822536310277,-0.0681019884949261
295,0.2856,467.37,462.171,0.00510654,464.759,0.466598,0.49227,0.0354052,0.037303,-0.0707669,0.194243,0.000228201,0.000211614,0.131788,0.03603942693478035,0.21439134420148087,0.0002282270398288322,0.03800748946306176,0.00021163639182186778,-0.06832095879761158
296,0.2866,467.626,462.419,0.00509609,465.011,0.467224,0.492886,0.0355204,0.0374241,-0.0710017,0.194882,0.000228996,0.000212401,0.132232,0.03615878555168761,0.21516758825398719,0.00022902222158549534,0.03813319978164187,0.0002124235586895562,-0.06853969135627858
297,0.2876,467.881,462.666,0.00508566,465.262,0.467852,0.493502,0.0356356,0.0375452,-0.0712364,0.19552,0.000229791,0.000213189,0.132676,0.03627815791949951,0.215943112541235,0.0002298174039743195,0.03825892532466346,0.0002132117263897726,-0.0687582794384024
298,0.2886,468.135,462.912,0.00507524,465.512,0.468481,0.49412,0.0357507,0.0376662,-0.071471,0.196158,0.000230586,0.000213977,0.13312,0.036397440400051106,0.21671913177084767,0.00023061258699508258,0.03838456225550879,0.0002139998947112698,-0.06897672312160019
299,0.2896,468.388,463.158,0.00506483,465.762,0.469111,0.49474,0.0358658,0.0377871,-0.0717055,0.196796,0.000231381,0.000214766,0.133564,0.036516736610806344,0.21749564625869944,0.0002314077706482287,0.038510110538326314,0.00021478906386840357,-0.06919502248342768
300,0.2906,468.641,463.402,0.00505445,466.01,0.469743,0.49536,0.0359808,0.037908,-0.0719399,0.197433,0.000232176,0.000215555,0.134008,0.036635942889746254,0.21827143804881866,0.00023220295493353582,0.03863567400084866,0.00021557823364837247,-0.06941317760137888
301,0.2916,468.893,463.646,0.00504407,466.258,0.470376,0.495983,0.0360958,0.0380288,-0.0721743,0.19807,0.000232971,0.000216344,0.134451,0.03675516287819658,0.2190477241757378,0.00023299813985100393,0.03876114876879133,0.00021636740405095445,-0.06963128158976306
302,0.2926,469.144,463.889,0.00503372,466.505,0.471011,0.496606,0.0362107,0.0381496,-0.0724085,0.198707,0.000233767,0.000217134,0.134895,0.03687429289029942,0.2198245049544496,0.0002337943256343067,0.03888663869500153,0.0002171575752931698,-0.0698491484304119
303,0.2936,469.394,464.132,0.00502338,466.751,0.471646,0.497231,0.0363256,0.0382703,-0.0726426,0.199344,0.000234563,0.000217924,0.135338,0.036993436591227,0.2206017807001477,0.0002345905120515468,0.03901203988010127,0.0002179477471597746,-0.07006687125931288
304,0.2946,469.644,464.373,0.00501305,466.997,0.472284,0.497857,0.0364404,0.038391,-0.0728766,0.19998,0.000235359,0.000218714,0.135781,0.03711249027129826,0.22137833034928556,0.0002353866991025022,0.03913745620203768,0.00021873791965076883,-0.07028445015371476
305,0.2956,469.893,464.614,0.00500274,467.242,0.472922,0.498485,0.0365552,0.0385116,-0.0731105,0.200616,0.000236155,0.000219505,0.136223,0.03723155761951635,0.2221553740410891,0.00023618288678717292,0.039262783736353946,0.00021952909298539325,-0.07050188519080491
306,0.2966,470.141,464.854,0.00499245,467.486,0.473562,0.499114,0.0366699,0.0386322,-0.0733443,0.201252,0.000236951,0.000220296,0.136666,0.03735053490239193,0.22293291208986954,0.00023697907510555893,0.03938812638608247,0.00022032026694573936,-0.07071917644770953
307,0.2976,470.388,465.093,0.00498217,467.729,0.474204,0.499744,0.0367846,0.0387527,-0.073578,0.201887,0.000237748,0.000221087,0.137108,0.037469525832744655,0.22370972109980491,0.00023777626429555276,0.03951338020170292,0.00022111144153202922,-0.07093632400149374
308,0.2986,470.635,465.332,0.0049719,467.972,0.474846,0.500376,0.0368993,0.0388731,-0.0738116,0.202523,0.000238544,0.000221879,0.137551,0.03758853041213994,0.2244882480277448,0.0002385724538824796,0.03963854514745768,0.00022190361696594607,-0.07115332792916151
309,0.2996,470.881,465.57,0.00496165,468.214,0.47549,0.501009,0.0370138,0.0389935,-0.0740452,0.203158,0.000239341,0.000222671,0.137993,0.037707341100654324,0.2252660449896422,0.00023936964434234653,0.0397637251639793,0.00022269579302736098,-0.07137028117063204
310,0.3006,471.126,465.807,0.00495142,468.455,0.476136,0.501644,0.0371284,0.0391139,-0.0742786,0.203792,0.000240138,0.000223463,0.138434,0.03782626917639287,0.2260431099657343,0.00024016683543770512,0.039888920253082105,0.0002234879697160519,-0.07158699805516255
311,0.3016,471.37,466.043,0.0049412,468.695,0.476782,0.50228,0.0372429,0.0392342,-0.0745119,0.204427,0.000240936,0.000224256,0.138876,0.037945107087554275,0.22682189457850832,0.00024096502740933445,0.040014026415173376,0.00022428114725658865,-0.07180357154423644
312,0.3026,471.614,466.279,0.00493099,468.935,0.47743,0.502917,0.0373573,0.0393544,-0.0747451,0.205061,0.000241733,0.00022505,0.139318,0.038063854800044705,0.22759994627599722,0.00024176221977612045,0.04013904361453147,0.00022507532565096966,-0.07202000171461365
313,0.3036,471.857,466.513,0.0049208,469.173,0.47808,0.503555,0.0374717,0.0394746,-0.0749782,0.205695,0.000242531,0.000225843,0.139759,0.038182616098050515,0.2283784914146667,0.0002425604130207315,0.040264075841860425,0.00022586850445027729,-0.07223628864299314
314,0.3046,472.099,466.748,0.00491063,469.412,0.478731,0.504195,0.037586,0.0395947,-0.0752112,0.206328,0.000243329,0.000226637,0.1402,0.03830128715299219,0.22915630115054197,0.00024335860690238853,0.040389019060059095,0.00022666268410520551,-0.07245243240601307
315,0.3056,472.34,466.981,0.00490047,469.649,0.479383,0.504837,0.0377003,0.0397148,-0.0754441,0.206962,0.000244127,0.000227431,0.140641,0.038419971772810424,0.22993583333106127,0.00024415680142109153,0.0405139772848393,0.00022745686439074042,-0.07266843308025084
316,0.3066,472.581,467.214,0.00489032,469.886,0.480036,0.505479,0.0378146,0.0398348,-0.0756769,0.207595,0.000244926,0.000228226,0.141081,0.03853866995905619,0.23071462917644037,0.0002449559968216164,0.040638846454113864,0.00022825204553500456,-0.07288429074222302
317,0.3076,472.821,467.446,0.00488019,470.122,0.480691,0.506124,0.0379288,0.0399548,-0.0759096,0.208227,0.000245724,0.000229021,0.141522,0.038657277847547133,0.23149268666234746,0.00024575419261507747,0.040763730608587734,0.00022904722731142968,-0.07310000546838546
318,0.3086,473.06,467.677,0.00487007,470.357,0.481347,0.506769,0.0380429,0.0400747,-0.0761422,0.20886,0.000246523,0.000229817,0.141962,0.03877579540424758,0.23227246830785808,0.0002465533892919147,0.04088852566120149,0.0002298434099499147,-0.0733155773351335
319,0.3096,473.299,467.908,0.00485996,470.592,0.482005,0.507416,0.038157,0.0401945,-0.0763748,0.209492,0.000247322,0.000230612,0.142403,0.038894326484572694,0.23305151065928098,0.00024735258660735226,0.04101323157631098,0.00023063859299154998,-0.07353109906569644
320,0.3106,473.537,468.138,0.00484987,470.826,0.482664,0.508064,0.0382711,0.0403143,-0.0766072,0.210124,0.000248121,0.000231409,0.142843,0.03901287109006568,0.2338310455210868,0.0002481517845613901,0.041137952432083846,0.00023143577712803065,-0.07374638542103007
321,0.3116,473.774,468.367,0.00483979,471.059,0.483324,0.508714,0.0383851,0.0404341,-0.0768395,0.210756,0.000248921,0.000232205,0.143282,0.039131325309132325,0.2346110732046407,0.0002489519834028009,0.04126268823031043,0.00023223196166788362,-0.07396152914578569
322,0.3126,474.011,468.596,0.00482973,471.292,0.483986,0.509365,0.038499,0.0405538,-0.0770717,0.211387,0.000249721,0.000233002,0.143722,0.039249689107775376,0.23539035863052793,0.00024975218288458834,0.04138733483404189,0.00023302914707445943,-0.07417653031611615
323,0.3136,474.247,468.823,0.00481968,471.523,0.484649,0.510017,0.0386129,0.0406734,-0.0773038,0.212018,0.000250521,0.0002338,0.144161,0.03936806638882295,0.23617013594069203,0.00025055238300630833,0.04151189220767071,0.00023382733335020056,-0.07439138900811404
324,0.3146,474.482,469.051,0.00480965,471.755,0.485313,0.510671,0.0387268,0.040793,-0.0775358,0.212649,0.000251321,0.000234598,0.144601,0.03948645715381072,0.23695040544560997,0.00025135258376840497,0.041636464479251956,0.00023462552026276562,-0.07460610529781142
325,0.3156,474.717,469.277,0.00479962,471.985,0.485979,0.511326,0.0388406,0.0409125,-0.0777677,0.213279,0.000252122,0.000235396,0.14504,0.03960475744379366,0.23772992972540608,0.00025215378542275957,0.04176094747446801,0.00023542370781237665,-0.07482067926118019
326,0.3166,474.951,469.503,0.00478961,472.215,0.486646,0.511982,0.0389544,0.041032,-0.0779996,0.21391,0.000252922,0.000236194,0.145478,0.03972307119711549,0.23851118377079206,0.00025295398746583153,0.041885445346290906,0.00023622189599903365,-0.0750352034706161
327,0.3176,475.184,469.728,0.00477962,472.444,0.487314,0.51264,0.0390681,0.0411514,-0.0782313,0.21454,0.000253723,0.000236993,0.145917,0.039841294431174124,0.2392916916507346,0.00025375519040271577,0.04200985389550782,0.00023702108505974095,-0.07524949298757277
328,0.3186,475.416,469.953,0.00476964,472.673,0.487984,0.513299,0.0391818,0.0412708,-0.0784629,0.21517,0.000254525,0.000237793,0.146356,0.03995953110797856,0.24007269140556575,0.0002545573942360768,0.04213427729999242,0.00023782127499649697,-0.07546364040576858
329,0.3196,475.648,470.177,0.00475967,472.901,0.488655,0.513959,0.0392954,0.0413901,-0.0786944,0.215799,0.000255326,0.000238593,0.146794,0.040077677221284747,0.24085294249170142,0.0002553585984574891,0.04225861133565201,0.00023862146557362962,-0.07567764580093439
330,0.3206,475.88,470.4,0.00474971,473.128,0.489327,0.514621,0.039409,0.0415094,-0.0789258,0.216428,0.000256128,0.000239393,0.147232,0.040195836756751646,0.24163368451015255,0.00025616080357671045,0.04238296020524701,0.00023942165679091687,-0.07589150924874088
331,0.3216,476.11,470.623,0.00473977,473.355,0.490001,0.515284,0.0395225,0.0416286,-0.0791572,0.217057,0.00025693,0.000240194,0.14767,0.04031390568450832,0.24241491776981228,0.00025696300933941707,0.04250721965981996,0.00024022284888847167,-0.07610532321427077
332,0.3226,476.34,470.845,0.00472984,473.581,0.490676,0.515949,0.039636,0.0417477,-0.0793884,0.217686,0.000257732,0.000240995,0.148108,0.04043198801384906,0.2431966425797687,0.0002577652157453869,0.04263138966385838,0.00024102404162795743,-0.07631890297277222
333,0.3236,476.57,471.066,0.00471992,473.806,0.491353,0.516615,0.0397494,0.0418668,-0.0796195,0.218314,0.000258535,0.000241796,0.148545,0.04054997969129137,0.24397761527106687,0.0002585684230533847,0.04275557445742484,0.0002418252350091521,-0.07653234101058004
334,0.3246,476.798,471.286,0.00471002,474.031,0.492031,0.517282,0.0398628,0.0419859,-0.0798505,0.218942,0.000259338,0.000242598,0.148983,0.040667984749748864,0.2447590785672491,0.000259371631006422,0.04287977404228127,0.00024262742927461112,-0.07674563740312479
335,0.3256,477.026,471.507,0.00470012,474.255,0.49271,0.517951,0.0399761,0.0421049,-0.0800815,0.21957,0.000260141,0.0002434,0.14942,0.040785899112143476,0.24554103277651174,0.0002601748396042769,0.0430038841197955,0.0002434296241835554,-0.07695888452989319
336,0.3266,477.254,471.726,0.00469024,474.478,0.49339,0.518621,0.0400894,0.0422238,-0.0803123,0.220198,0.000260944,0.000244203,0.149857,0.04090382683499216,0.24632347820724543,0.00026097804884717135,0.0431279046544919,0.00024423281997987267,-0.07717189783666256
337,0.3276,477.481,471.945,0.00468038,474.701,0.494072,0.519293,0.0402027,0.0423427,-0.080543,0.220825,0.000261748,0.000245006,0.150294,0.04102176791980883,0.24710516806224203,0.00026178225899675667,0.043251939936106876,0.00024503601642145156,-0.07738476972411534
338,0.3286,477.707,472.163,0.00467052,474.923,0.494755,0.519965,0.0403159,0.0424615,-0.0807737,0.221452,0.000262552,0.00024581,0.150731,0.041139618254140364,0.24788734819046243,0.00026258646979293587,0.04337588562879957,0.00024584021375351206,-0.07759759250768794
339,0.3296,477.932,472.38,0.00466068,475.145,0.49544,0.520639,0.040429,0.0425803,-0.0810042,0.222079,0.000263356,0.000246614,0.151167,0.04125737780414207,0.2486700188994042,0.00026339068123570897,0.04349984604711521,0.0002466444117323885,-0.07781018176076226
340,0.3306,478.157,472.597,0.00465085,475.365,0.496126,0.521315,0.0405421,0.042699,-0.0812347,0.222706,0.000264161,0.000247418,0.151603,0.04137515067350184,0.24945318049675813,0.00026419589358939177,0.04362371683042676,0.0002474486103578588,-0.0780227220176608
341,0.3316,478.382,472.814,0.00464103,475.586,0.496813,0.521992,0.0406552,0.0428177,-0.081465,0.223332,0.000264966,0.000248223,0.152039,0.04149293686372668,0.25023558305419913,0.0002650011065912228,0.04374760231807273,0.0002482538098780296,-0.07823502893669998
342,0.3326,478.605,473.029,0.00463123,475.805,0.497502,0.52267,0.0407682,0.0429363,-0.0816953,0.223958,0.000265771,0.000249029,0.152475,0.041610632215254295,0.2510184755489755,0.000265806320241202,0.043871398124653904,0.00024906001029556535,-0.07844728696708558
343,0.3336,478.828,473.244,0.00462143,476.025,0.498192,0.52335,0.0408812,0.0430549,-0.0819254,0.224583,0.000266576,0.000249834,0.152911,0.041728340867108304,0.2518006064866516,0.0002666115345393294,0.043995208614288295,0.0002498652111129207,-0.07865931185195596
344,0.3346,479.051,473.459,0.00461165,476.243,0.498883,0.524031,0.0409941,0.0431734,-0.0821554,0.225209,0.000267382,0.000250641,0.153347,0.04184595863619012,0.2525844789928082,0.0002674177497532515,0.044118929376819604,0.0002506724130797444,-0.07887119584263702
345,0.3356,479.273,473.673,0.00460188,476.461,0.499576,0.524713,0.0411069,0.0432919,-0.0823854,0.225834,0.000268188,0.000251447,0.153782,0.041963485488714314,0.2533675889885607,0.0002682239656168761,0.044242664801129816,0.00025147861544660977,-0.0790830311056041
346,0.3366,479.494,473.886,0.00459213,476.678,0.50027,0.525397,0.0412198,0.0434103,-0.0826152,0.226459,0.000268994,0.000252254,0.154217,0.04208112980712264,0.25415118858104324,0.00026903018213020324,0.0443663104523202,0.0002522858187157251,-0.07929463351100852
347,0.3376,479.715,474.099,0.00458238,476.895,0.500965,0.526082,0.0413325,0.0435287,-0.082845,0.227084,0.000269801,0.000253062,0.154652,0.04219857896858792,0.2549352780763501,0.00026983739956332187,0.04448997074402272,0.0002530940228890888,-0.07950618729576675
348,0.3386,479.935,474.311,0.00457264,477.111,0.501662,0.526768,0.0414453,0.043647,-0.0830747,0.227708,0.000270608,0.00025387,0.155087,0.042316145598928934,0.2557186020615356,0.0002706446176476973,0.0446135412166111,0.0002539022277157077,-0.0797176004428155
349,0.3396,480.155,474.522,0.00456292,477.326,0.50236,0.527456,0.0415579,0.0437652,-0.0833042,0.228332,0.000271415,0.000254678,0.155522,0.04243351700480957,0.25650241499342363,0.0002714518363837737,0.044737021834743596,0.00025471043319513775,-0.07992878101961576
350,0.3406,480.374,474.733,0.00455321,477.541,0.503059,0.528145,0.0416706,0.0438834,-0.0835337,0.228956,0.000272222,0.000255487,0.155956,0.042551005882549786,0.25728671717721197,0.00027225905577110687,0.04486051704914784,0.0002555196395832571,-0.08013991313603464
351,0.3416,480.592,474.944,0.00454351,477.756,0.50376,0.528835,0.0417832,0.0440016,-0.0837631,0.22958,0.00027303,0.000256297,0.156391,0.04266840373518721,0.2580715089182888,0.0002730672760828945,0.04498402686154912,0.0002563298468822861,-0.08035090483828777
352,0.3426,480.81,475.153,0.00453382,477.97,0.504462,0.529527,0.0418957,0.0441197,-0.0839923,0.230203,0.000273838,0.000257107,0.156825,0.04278571052899083,0.25885553166607234,0.0002738754970477153,0.04510744676292333,0.00025714005483745694,-0.08056166425694677
353,0.3436,481.027,475.363,0.00452414,478.183,0.505165,0.53022,0.0420082,0.0442377,-0.0842215,0.230826,0.000274647,0.000257917,0.157259,0.04290303052055111,0.25964004301221033,0.0002746847189403212,0.045230776717965604,0.0002579502634492137,-0.08077237537508253
354,0.3446,481.244,475.571,0.00451447,478.395,0.50587,0.530915,0.0421207,0.0443557,-0.0844506,0.231449,0.000275456,0.000258728,0.157693,0.04302036371135309,0.2604250432611943,0.0002754939414875146,0.04535412122680116,0.0002587614729756549,-0.08098294630206337
355,0.3456,481.46,475.779,0.00450482,478.607,0.506576,0.531611,0.0422331,0.0444737,-0.0846796,0.232071,0.000276265,0.000259539,0.158126,0.04313760578911552,0.2612092715078038,0.00027630316468951754,0.04547748029114751,0.0002595726831602363,-0.08119337711211283
356,0.3466,481.675,475.987,0.00449517,478.819,0.507284,0.532308,0.0423454,0.0445916,-0.0849085,0.232694,0.000277074,0.00026035,0.15856,0.043254756720147336,0.2619952496907354,0.000277112388546108,0.045600749352642245,0.0002603838940025138,-0.08140366787939535
357,0.3476,481.89,476.194,0.00448554,479.03,0.507993,0.533007,0.0424577,0.0447094,-0.0851372,0.233315,0.000277884,0.000261163,0.158993,0.04337192080796726,0.26277919212972733,0.0002779226133353685,0.04572392837601802,0.00026119710602534596,-0.08161372683939372
358,0.3486,482.104,476.4,0.00447591,479.24,0.508703,0.533707,0.04257,0.0448272,-0.0853659,0.233937,0.000278694,0.000261975,0.159426,0.04348909805405321,0.2635648851124186,0.0002787328387807708,0.045847121910737476,0.0002620093184471095,-0.08182373776440088
359,0.3496,482.318,476.606,0.0044663,479.45,0.509414,0.534408,0.0426822,0.0449449,-0.0855945,0.234559,0.000279505,0.000262788,0.159859,0.043606184099259204,0.26435106694816257,0.0002795440651621739,0.04597022536148243,0.0002628225317913291,-0.08203360886876676
360,0.3506,482.532,476.811,0.0044567,479.659,0.510127,0.535111,0.0427944,0.0450626,-0.085823,0.23518,0.000280315,0.000263602,0.160291,0.0437232832822565,0.2651364728040153,0.00028035429192097006,0.04609334330235604,0.00026363674606022514,-0.0822433402264201
361,0.3516,482.744,477.016,0.00444711,479.868,0.510841,0.535815,0.0429065,0.0451802,-0.0860514,0.235801,0.000281127,0.000264416,0.160724,0.04384029122048494,0.2659223665483781,0.00028116651989829045,0.04621637111342203,0.00026445096099192433,-0.08245293191123082
362,0.3526,482.956,477.22,0.00443752,480.076,0.511557,0.53652,0.0430186,0.0452978,-0.0862797,0.236421,0.000281938,0.00026523,0.161156,0.043957312276038385,0.26670748177620895,0.000281977748253448,0.04633941339340919,0.0002652651765864267,-0.0826623839970102
363,0.3536,483.168,477.424,0.00442795,480.284,0.512274,0.537227,0.0431306,0.0454153,-0.0865079,0.237042,0.00028275,0.000266045,0.161588,0.044074242042957845,0.2674943514201289,0.0002827899775490472,0.0464623654977776,0.0002660803931096023,-0.08287169655751059
364,0.3546,483.379,477.627,0.00441839,480.491,0.512992,0.537935,0.0432426,0.0455328,-0.0867361,0.237662,0.000283562,0.000266861,0.16202,0.044191184906744896,0.268280441580778,0.00028360220750434095,0.046585332049867034,0.0002668966105643378,-0.08308096135833432
365,0.3556,483.59,477.829,0.00440884,480.697,0.513711,0.538645,0.0433545,0.0456502,-0.0869641,0.238282,0.000284375,0.000267677,0.162452,0.04430803643805725,0.26906701926844456,0.000284415438403407,0.04670820838054901,0.000267712828684985,-0.08328999506839607
366,0.3566,483.8,478.031,0.0043993,480.903,0.514432,0.539356,0.0434664,0.0457676,-0.087192,0.238902,0.000285187,0.000268493,0.162884,0.04442490104578756,0.2698540847854891,0.00028522766967853386,0.04683109913775918,0.00026852904747154405,-0.08349888947409834
367,0.3576,484.009,478.233,0.00438977,481.109,0.515155,0.540068,0.0435783,0.0458849,-0.0874198,0.239521,0.000286001,0.00026931,0.163315,0.044541778731399084,0.2706403677934561,0.0002860419021852856,0.04695389962779606,0.00026934626719365973,-0.08370764464895897
368,0.3586,484.218,478.434,0.00438025,481.314,0.515878,0.540781,0.0436901,0.0460022,-0.0876476,0.24014,0.000286814,0.000270127,0.163747,0.04465856503049359,0.2714271376612727,0.0002868551350678761,0.04707671452317519,0.00027016348758346354,-0.08391635227480687
369,0.3596,484.427,478.634,0.00437074,481.518,0.516603,0.541496,0.0438018,0.0461194,-0.0878752,0.240759,0.000287628,0.000270945,0.164178,0.04477525990949527,0.2722143946903983,0.0002876693688993459,0.0471994391056374,0.0002709817089117106,-0.08412482918745645
370,0.3606,484.635,478.834,0.00436124,481.722,0.517329,0.542213,0.0439136,0.0462365,-0.0881027,0.241377,0.000288443,0.000271764,0.164609,0.04489207231324488,0.27300086618097663,0.0002884846036821376,0.04732207334005101,0.00027180093118128745,-0.08433316708948146
371,0.3616,484.842,479.033,0.00435175,481.925,0.518057,0.54293,0.0440252,0.0463536,-0.0883302,0.241996,0.000289257,0.000272583,0.165039,0.0450086887755925,0.273789097649614,0.00028929883883987983,0.04744472193577409,0.0002726201541216611,-0.08454145760002463
372,0.3626,485.049,479.232,0.00434227,482.128,0.518786,0.543649,0.0441368,0.0464707,-0.0885575,0.242614,0.000290072,0.000273402,0.16547,0.04512531825306376,0.2745765426073914,0.0002901140749507203,0.04756738489448886,0.0002734393777330535,-0.08474951767978822
373,0.3636,485.255,479.431,0.00433279,482.331,0.519516,0.54437,0.0442484,0.0465877,-0.0887848,0.243232,0.000290888,0.000274222,0.1659,0.04524196074711084,0.27536447435655576,0.00029093031201687936,0.047689957448876275,0.00027425960228977253,-0.08495753047287014
374,0.3646,485.461,479.628,0.00432333,482.532,0.520248,0.545092,0.0443599,0.0467047,-0.0890119,0.243849,0.000291703,0.000275042,0.16633,0.045358511723330386,0.27615161704578184,0.0002917455494573229,0.04781254434509141,0.00027507982751884263,-0.08516531302309815
375,0.3656,485.666,479.826,0.00431388,482.734,0.520981,0.545815,0.0444714,0.0468216,-0.089239,0.244466,0.00029252,0.000275863,0.16676,0.04547507569570808,0.2769392455519064,0.00029256278814715486,0.04793504079130306,0.00027590105369657003,-0.08537304839126669
376,0.3666,485.871,480.023,0.00430444,482.934,0.521715,0.546539,0.0445829,0.0469384,-0.089466,0.245083,0.000293336,0.000276684,0.16719,0.04559165266569365,0.27772736017477095,0.00029337902721149334,0.048057446752436395,0.00027672228054842485,-0.08558064514615882
377,0.3676,486.075,480.219,0.004295,483.135,0.522451,0.547265,0.0446943,0.0470552,-0.0896928,0.2457,0.000294153,0.000277506,0.16762,0.045708138063916826,0.2785159612144019,0.0002941962672360354,0.048179867011421074,0.0002775445083520456,-0.08578801193955643
378,0.3686,486.279,480.415,0.00428558,483.335,0.523188,0.547992,0.0448056,0.047172,-0.0899196,0.246317,0.00029497,0.000278329,0.168049,0.04582453185687774,0.27930504897101094,0.00029501350792826564,0.0483023015699271,0.0002783677371098747,-0.08599533170749818
379,0.3696,486.482,480.61,0.00427616,483.534,0.523927,0.548721,0.0449169,0.0472887,-0.0901463,0.246933,0.000295788,0.000279152,0.168479,0.045940938605188775,0.2800933436510118,0.0002958317495838081,0.04842464558715487,0.000279190966545384,-0.0862025130809041
380,0.3706,486.685,480.805,0.00426675,483.733,0.524666,0.54945,0.0450282,0.0474053,-0.0903729,0.247549,0.000296606,0.000279975,0.168908,0.046057358310291896,0.2808821240701276,0.00029664999190903707,0.0485468990280673,0.00028001419665835137,-0.08640955613257628
381,0.3716,486.887,480.999,0.00425736,483.931,0.525407,0.550182,0.0451394,0.0475219,-0.0905994,0.248164,0.000297424,0.000280799,0.169337,0.046173686356255406,0.28167010885691623,0.00029746823490328644,0.04866916672456223,0.00028083842772952394,-0.08661646093525877
382,0.3726,487.089,481.193,0.00424797,484.129,0.52615,0.550914,0.0452505,0.0476385,-0.0908258,0.24878,0.000298243,0.000281623,0.169766,0.0462899227096194,0.28245986086261676,0.00029828747886528895,0.04879144867830165,0.00028166265947993097,-0.08682322756163774
383,0.3736,487.291,481.386,0.00423859,484.326,0.526894,0.551648,0.0453616,0.047755,-0.0910521,0.249395,0.000299062,0.000282448,0.170194,0.04640617197755992,0.2832488162559639,0.0002991067234980882,0.04891363999957887,0.0002824878921920959,-0.08702985608434133
384,0.3746,487.491,481.579,0.00422921,484.523,0.527639,0.552384,0.0454727,0.0478714,-0.0912783,0.25001,0.000299882,0.000283274,0.170623,0.04652243416151114,0.28403825700610996,0.00029992696910197125,0.049035740653395,0.00028331412586823923,-0.08723634657594004
385,0.3756,487.692,481.771,0.00421985,484.719,0.528385,0.55312,0.0455838,0.0479878,-0.0915044,0.250625,0.000300702,0.0002841,0.171051,0.046638709262908806,0.28482818341164085,0.0003007472153784274,0.049157855520554516,0.00028414036022694766,-0.08744269910894631
386,0.3766,487.892,481.963,0.0042105,484.915,0.529133,0.553858,0.0456947,0.0481042,-0.0917304,0.251239,0.000301522,0.000284926,0.171479,0.04675478793220944,0.2856173101533739,0.0003015674623274567,0.04927998460271188,0.0002849665952682212,-0.08764891375581485
387,0.3776,488.091,482.154,0.00420115,485.11,0.529882,0.554598,0.0458057,0.0482204,-0.0919563,0.251853,0.000302343,0.000285753,0.171907,0.04687098416244129,0.2864069215677054,0.0003023887102513445,0.04940191802111693,0.000285793831277692,-0.08785499058894275
388,0.3786,488.29,482.345,0.00419181,485.305,0.530633,0.555339,0.0459166,0.0483367,-0.0921822,0.252467,0.000303164,0.000286581,0.172335,0.046987088592456594,0.2871970179523162,0.0003032099588495818,0.049523970561400565,0.00028662206825780245,-0.0880610208745718
389,0.3796,488.488,482.536,0.00418248,485.499,0.531384,0.556081,0.0460274,0.0484529,-0.0924079,0.253081,0.000303986,0.000287409,0.172762,0.04710310118885186,0.28798759960506914,0.00030403220842623035,0.04964593233262149,0.0002874503059238087,-0.08826682227659854
390,0.3806,488.686,482.726,0.00417316,485.693,0.532138,0.556824,0.0461382,0.048569,-0.0926336,0.253694,0.000304808,0.000288238,0.173189,0.04721912664015471,0.2887773780459879,0.00030485445867856065,0.0497678032998381,0.00028827954456378535,-0.08847257723449031
391,0.3816,488.883,482.915,0.00416385,485.887,0.532892,0.557569,0.046249,0.0486851,-0.0928591,0.254307,0.00030563,0.000289067,0.173617,0.04733516494779,0.2895676407695087,0.00030567670960701676,0.04988968841709518,0.0002891087838912121,-0.08867810349436722
392,0.3826,489.08,483.104,0.00415455,486.08,0.533648,0.558315,0.0463597,0.0488011,-0.0930846,0.25492,0.000306453,0.000289897,0.174044,0.04745111136806579,0.29035838807258707,0.0003064999615176589,0.050011482684882536,0.0002899390241961619,-0.0888835834132976
393,0.3836,489.277,483.293,0.00414525,486.272,0.534405,0.559063,0.0464704,0.0489171,-0.0933099,0.255533,0.000307276,0.000290727,0.174471,0.04756707062432053,0.291149620252362,0.0003073232141059812,0.050133291081624565,0.00029076926519011614,-0.08908883481951546
394,0.3846,489.473,483.481,0.00413596,486.464,0.535164,0.559812,0.046581,0.0490331,-0.0935352,0.256145,0.0003081,0.000291558,0.174897,0.047682937949676596,0.29194004566546217,0.00030814746767982015,0.050255113608959956,0.0002916005071647021,-0.08929403998780039
395,0.3856,489.669,483.668,0.00412668,486.656,0.535924,0.560562,0.0466916,0.049149,-0.0937604,0.256757,0.000308924,0.000292389,0.175324,0.04779881809066744,0.2927309549669699,0.00030897172193289357,0.05037684523083841,0.0002924317498300688,-0.08949910787848403
396,0.3866,489.864,483.855,0.00411741,486.847,0.536685,0.561313,0.0468021,0.0492648,-0.0939854,0.257369,0.000309748,0.000293221,0.17575,0.04791460625724486,0.2935223484531153,0.00030979597686520144,0.0504984859123756,0.00029326399347961996,-0.08970394753388589
397,0.3876,490.058,484.042,0.00410814,487.038,0.537448,0.562066,0.0469126,0.0493806,-0.0942104,0.257981,0.000310573,0.000294053,0.176176,0.04803040721912177,0.2943142264203107,0.00031062123278724485,0.050620140680719405,0.00029409623782128413,-0.08990874110555003
398,0.3886,490.253,484.228,0.00409889,487.228,0.538212,0.562821,0.047023,0.0494963,-0.0944353,0.258592,0.000311399,0.000294886,0.176602,0.04814611616309494,0.29510529405920694,0.00031144748970168834,0.05074170446332538,0.00029492948315068546,-0.09011339761518822
399,0.3896,490.446,484.414,0.00408964,487.418,0.538977,0.563577,0.0471334,0.049612,-0.0946601,0.259203,0.000312224,0.00029572,0.177028,0.048261837882040526,0.29589684518812165,0.00031227274698619745,0.05086328231167481,0.0002957637294696003,-0.09031791713454906
400,0.3906,490.64,484.599,0.0040804,487.607,0.539743,0.564334,0.0472438,0.0497276,-0.0948848,0.259814,0.000313051,0.000296554,0.177454,0.04837757237736939,0.2966888801025578,0.0003131000055778266,0.0509847691289127,0.0002965979764844029,-0.09052229973532389
401,0.3916,490.832,484.784,0.00407116,487.796,0.540511,0.565092,0.0473541,0.0498432,-0.0951094,0.260424,0.000313877,0.000297388,0.177879,0.048493214801164974,0.297480101617448,0.00031392626453974337,0.05110626999083867,0.0002974322241950933,-0.09072654548914649
402,0.3926,491.025,484.969,0.00406193,487.984,0.541281,0.565852,0.0474644,0.0499588,-0.095334,0.261035,0.000314704,0.000298223,0.178304,0.04860886998102343,0.2982731041971538,0.0003147535244989452,0.05122778489907587,0.0002982674728997381,-0.09093074537452417
403,0.3936,491.217,485.153,0.00405271,488.172,0.542051,0.566613,0.0475746,0.0500742,-0.0955584,0.261645,0.000315532,0.000299059,0.178729,0.04872443304590335,0.2990652923835466,0.0003155817854576526,0.051349103585406786,0.0002991037226007798,-0.09113471762871928
404,0.3946,491.408,485.336,0.0040435,488.36,0.542824,0.567375,0.0476848,0.0501897,-0.0957827,0.262255,0.00031636,0.000299895,0.179154,0.04884000884653461,0.2998579639521495,0.00031641004710225573,0.05147054141977092,0.0002999399730010399,-0.09133855325053553
405,0.3956,491.599,485.519,0.0040343,488.547,0.543597,0.568139,0.0477949,0.0503051,-0.096007,0.262864,0.000317188,0.000300732,0.179579,0.04895549248876652,0.3006498185474469,0.00031723830943275466,0.051591888121820695,0.00030077722440124965,-0.09154234315714904
406,0.3966,491.79,485.702,0.0040251,488.733,0.544372,0.568905,0.047905,0.0504204,-0.0962311,0.263473,0.000318017,0.000301569,0.180004,0.04907098884644734,0.3014421555290647,0.00031806757276697795,0.05171314365676838,0.00030161447650223216,-0.09174590570801178
407,0.3976,491.98,485.884,0.00401591,488.919,0.545148,0.569671,0.048015,0.0505357,-0.0964552,0.264082,0.000318846,0.000302407,0.180428,0.04918639300233263,0.3022349751908655,0.00031889683678865133,0.0518344131732853,0.0003024527296062729,-0.091949422645618
408,0.3986,492.17,486.066,0.00400672,489.105,0.545925,0.570439,0.048125,0.0506509,-0.0966791,0.264691,0.000319676,0.000303246,0.180852,0.04930180985337329,0.3030282778268909,0.0003197271018176018,0.05195559147741924,0.00030329198371625843,-0.09215271241074918
409,0.3996,492.359,486.247,0.00399755,489.29,0.546704,0.571208,0.048235,0.0507661,-0.096903,0.2653,0.000320506,0.000304085,0.181276,0.049417239400965984,0.303822063731362,0.0003205573675357787,0.0520767837420979,0.0003041312385303474,-0.09235595666439711
410,0.4006,492.548,486.428,0.00398838,489.475,0.547484,0.571979,0.0483449,0.0508812,-0.0971268,0.265908,0.000321336,0.000304925,0.1817,0.04953257669324418,0.30461502858299805,0.00032138763394296,0.05219788474913578,0.0003049714943534898,-0.09255906467266173
411,0.4016,492.736,486.609,0.00397921,489.66,0.548265,0.572751,0.0484548,0.0509963,-0.0973505,0.266516,0.000322167,0.000305765,0.182124,0.04964792666178752,0.3054084757038589,0.0003222189013614152,0.05231899969570186,0.000305811750882512,-0.0927620365066485
412,0.4026,492.924,486.789,0.00397005,489.844,0.549048,0.573524,0.0485646,0.0511114,-0.097574,0.267124,0.000322999,0.000306606,0.182547,0.04976318433166527,0.3062024053872534,0.00032305116979380877,0.052440128583400636,0.0003066530084239183,-0.09296478153388843
413,0.4036,493.112,486.968,0.0039609,490.027,0.549832,0.574299,0.0486744,0.0512263,-0.0977976,0.267731,0.000323831,0.000307447,0.182971,0.049878454657529936,0.30699551093050426,0.00032388343891853744,0.05256106090160362,0.0003074942666727587,-0.09316757193592562
414,0.4046,493.299,487.148,0.00395176,490.211,0.550618,0.575075,0.0487841,0.0513413,-0.098021,0.268339,0.000324663,0.000308289,0.183394,0.049993632641402774,0.30779040582471073,0.00032471570873582323,0.052682112383934054,0.0003083365259375359,-0.09337013567314323
415,0.4056,493.486,487.326,0.00394262,490.393,0.551405,0.575853,0.0488938,0.0514562,-0.0982443,0.268946,0.000325496,0.000309131,0.183817,0.05010882326099342,0.308584475576835,0.00032554897957104423,0.05280307250767291,0.0003091787859115236,-0.09357256351993715
416,0.4066,493.672,487.505,0.00393349,490.576,0.552193,0.576632,0.0490034,0.051571,-0.0984675,0.269552,0.000326329,0.000309974,0.18424,0.05022392149529087,0.30937771809724257,0.00032638225110037666,0.05292394123812927,0.0003100220469045567,-0.0937748555471295
417,0.4076,493.858,487.683,0.00392437,490.757,0.552983,0.577412,0.049113,0.0516858,-0.0986906,0.270159,0.000327163,0.000310818,0.184663,0.05033903234504611,0.31017275164039715,0.000327216523651197,0.05304482384511222,0.00031086630891952183,-0.09397701182548557
418,0.4086,494.043,487.86,0.00391525,490.939,0.553773,0.578193,0.0492226,0.0518005,-0.0989137,0.270765,0.000327997,0.000311662,0.185085,0.05045415581164181,0.3109669569477944,0.00032805079689768313,0.05316561501364836,0.0003117105716470281,-0.09417912300780662
419,0.4096,494.228,488.037,0.00390614,491.12,0.554566,0.578976,0.0493321,0.0519152,-0.0991366,0.271371,0.000328832,0.000312507,0.185507,0.05056918683953704,0.3117616436894677,0.0003288860711687658,0.0532864200377261,0.000312555835399575,-0.09438100798037208
420,0.4106,494.413,488.214,0.00389703,491.301,0.555359,0.57976,0.0494416,0.0520299,-0.0993595,0.271977,0.000329667,0.000313352,0.18593,0.0506842304640196,0.31255681215725484,0.00032972134613729054,0.05340723891893484,0.0003134010998664394,-0.09458284795779204
421,0.4116,494.597,488.39,0.00388793,491.481,0.556154,0.580546,0.049551,0.0521444,-0.0995822,0.272582,0.000330503,0.000314198,0.186352,0.050799181606545174,0.3133511492913639,0.00033055762213396456,0.05352786095327078,0.0003142473653616751,-0.0947844619070054
422,0.4126,494.781,488.566,0.00387884,491.661,0.556951,0.581333,0.0496604,0.052259,-0.0998049,0.273188,0.000331339,0.000315045,0.186773,0.05091414532541361,0.3141472812914665,0.000331393898829635,0.05364860216447531,0.0003150946318879466,-0.09498603096179137
423,0.4136,494.965,488.742,0.00386975,491.84,0.557748,0.582121,0.0497697,0.0523735,-0.100027,0.273793,0.000332176,0.000315892,0.187195,0.051029016519094084,0.3149425809505364,0.00033223117655678536,0.053769251836484955,0.0003159418991318663,-0.09518701224451709
424,0.4146,495.148,488.917,0.00386067,492.019,0.558547,0.582911,0.049879,0.0524879,-0.10025,0.274397,0.000333013,0.00031674,0.187617,0.05114390026888227,0.3157370461737752,0.0003330684549847085,0.05388980993468673,0.0003167901674103746,-0.09538876304473631
425,0.4156,495.33,489.091,0.00385159,492.198,0.559348,0.583702,0.0499883,0.0526023,-0.100472,0.275002,0.00033385,0.000317588,0.188038,0.0512587965761504,0.3165333079316044,0.0003339057341134044,0.05401038182552398,0.0003176384364080853,-0.0955895644495598
426,0.4166,495.512,489.266,0.00384252,492.376,0.560149,0.584495,0.0500975,0.0527167,-0.100695,0.275606,0.000334688,0.000318437,0.188459,0.05137360030490612,0.3173287342441595,0.00033474401427757705,0.05413096751057456,0.00031848770644371527,-0.09579122549064567
427,0.4176,495.694,489.44,0.00383346,492.554,0.560952,0.585289,0.0502067,0.0528309,-0.100917,0.27621,0.000335527,0.000319286,0.18888,0.0514884165709133,0.3181246411393286,0.00033558329547989096,0.054251356141124196,0.000319336977200102,-0.09599193755872293
428,0.4186,495.876,489.613,0.0038244,492.731,0.561757,0.586084,0.0503158,0.0529452,-0.101139,0.276814,0.000336366,0.000320136,0.189301,0.051603140215222165,0.31892102890747154,0.0003364225773863083,0.05437186395802174,0.0003201872489979607,-0.09619260507366656
429,0.4196,496.057,489.786,0.00381535,492.908,0.562562,0.58688,0.0504249,0.0530594,-0.101361,0.277417,0.000337205,0.000320987,0.189721,0.051717876376563554,0.31971657812188514,0.00033726185999705116,0.054492280100516544,0.00032103852183951176,-0.09639322804536643
430,0.4206,496.237,489.959,0.0038063,493.085,0.56337,0.587678,0.0505339,0.0531735,-0.101583,0.278021,0.000338045,0.000321838,0.190142,0.0518325198730456,0.3205139277104061,0.0003381021436499321,0.054612604534054476,0.00032188979540559437,-0.09659380648370985
431,0.4216,496.417,490.131,0.00379726,493.261,0.564178,0.588477,0.0506429,0.0532876,-0.101805,0.278624,0.000338886,0.00032269,0.190562,0.05194717586634989,0.32131043773245227,0.0003389434283476156,0.05473294269739348,0.00032274207001870003,-0.09679434039858237
432,0.4226,496.597,490.303,0.00378822,493.437,0.564988,0.589278,0.0507518,0.0534017,-0.102027,0.279226,0.000339727,0.000323543,0.190982,0.05206173915165935,0.32210610608811274,0.0003397847137527332,0.05485329459210009,0.00032359534568171533,-0.09699482979986696
433,0.4236,496.777,490.475,0.00377919,493.612,0.565799,0.59008,0.0508608,0.0535157,-0.102248,0.279829,0.000340568,0.000324396,0.191402,0.0521764201312267,0.32290357648324397,0.000340625999865507,0.05497355472238086,0.0003244486220723708,-0.09719437189226776
434,0.4246,496.956,490.646,0.00377016,493.788,0.566611,0.590883,0.0509696,0.0536296,-0.10247,0.280431,0.00034141,0.00032525,0.191822,0.0522909031535006,0.3237002041971704,0.0003414682870270802,0.05509372305372029,0.00032530289951626656,-0.09739477249641759
435,0.4256,497.134,490.816,0.00376114,493.962,0.567425,0.591688,0.0510784,0.0537435,-0.102691,0.281033,0.000342252,0.000326104,0.192242,0.052405398632204836,0.32449731162536,0.0003423105748980859,0.05521390507301227,0.0003261571776898009,-0.09759422621124858
436,0.4266,497.312,490.987,0.00375212,494.137,0.56824,0.592494,0.0511872,0.0538574,-0.102913,0.281635,0.000343095,0.000326959,0.192661,0.05251990656869476,0.32529489905668796,0.0003431538638212217,0.055334100781815776,0.00032701245691968417,-0.09779453805759208
437,0.4276,497.49,491.157,0.00374311,494.31,0.569057,0.593302,0.0512959,0.0539712,-0.103134,0.282236,0.000343939,0.000327814,0.19308,0.05263432170088844,0.3260916406878993,0.00034399815379937415,0.05545420463626427,0.00032786773688098236,-0.09799390343399583
438,0.4286,497.668,491.326,0.0037341,494.484,0.569875,0.594111,0.0514046,0.054085,-0.103355,0.282838,0.000344783,0.000328671,0.193499,0.05274874927068307,0.3268901881942763,0.00034484244449006773,0.055574322159309464,0.000328725018231113,-0.09819322475551961
439,0.4296,497.845,491.496,0.0037251,494.657,0.570694,0.594921,0.0515133,0.0541987,-0.103576,0.283439,0.000345627,0.000329527,0.193918,0.05286318927943068,0.32768788888242706,0.0003456867358935245,0.055694347783066256,0.00032958129998617025,-0.09839250203189853
440,0.4306,498.022,491.664,0.00371611,494.83,0.571515,0.595732,0.0516219,0.0543123,-0.103797,0.284039,0.000346472,0.000330385,0.194337,0.05297753643072434,0.32848474064738054,0.0003465320283559947,0.0558142814730791,0.00033043958313516697,-0.09859173527286547
441,0.4316,498.198,491.833,0.00370711,495.002,0.572337,0.596545,0.0517304,0.0544259,-0.104018,0.28464,0.000347318,0.000331243,0.194756,0.05309179069160863,0.3292833999495901,0.0003473783218799209,0.055934228788332874,0.0003312978670204636,-0.09879092448815119
442,0.4326,498.374,492.001,0.00369813,495.174,0.57316,0.59736,0.051839,0.0545395,-0.104239,0.28524,0.000348164,0.000332101,0.195174,0.05320616267036371,0.3300812093084333,0.00034822461611994093,0.05605418973037568,0.0003321561516422822,-0.09899006968748425
443,0.4336,498.55,492.169,0.00368914,495.346,0.573985,0.598175,0.0519474,0.054653,-0.10446,0.28584,0.00034901,0.000332961,0.195592,0.05332033640650202,0.3308794974965261,0.0003490709110760548,0.056174058683344574,0.0003330164376664779,-0.0991891708805911
444,0.4346,498.725,492.336,0.00368017,495.517,0.574811,0.598992,0.0520559,0.0547665,-0.104681,0.28644,0.000349857,0.000333821,0.19601,0.05343462786320141,0.3316782648012524,0.0003499182070978435,0.056293941242211654,0.0003338767244305263,-0.09938822807719605
445,0.4356,498.9,492.503,0.00367119,495.688,0.575638,0.599811,0.0521642,0.0548799,-0.104901,0.28704,0.000350705,0.000334681,0.196428,0.0535487210114316,0.3324775115101686,0.00035076650418819355,0.05641373176714293,0.0003347370119344273,-0.09958634087381246
446,0.4366,499.074,492.67,0.00366222,495.859,0.576467,0.60063,0.0522726,0.0549933,-0.105122,0.287639,0.000351553,0.000335542,0.196846,0.053662931882906495,0.3332759046344318,0.00035161480199796813,0.05653353587708998,0.00033559830051377304,-0.09978531030554727
447,0.4376,499.248,492.836,0.00365326,496.029,0.577297,0.601451,0.0523809,0.0551066,-0.105342,0.288238,0.000352401,0.000336404,0.197264,0.05377704975780073,0.33407477613943715,0.0003524631005269452,0.056653247908263316,0.0003364605901712281,-0.09998333575368212
448,0.4386,499.422,493.002,0.0036443,496.199,0.578129,0.602274,0.0524892,0.0552199,-0.105562,0.288837,0.00035325,0.000337266,0.197681,0.053891179992330285,0.3348741263118207,0.00035331240012870246,0.05677297350357824,0.00033732288057186643,-0.10018131764101013
449,0.4396,499.596,493.167,0.00363534,496.368,0.578961,0.603098,0.0525974,0.0553331,-0.105783,0.289435,0.0003541,0.000338129,0.198098,0.05400521718730644,0.3356726197651023,0.0003541627008054604,0.056892606975305515,0.00033818617205394474,-0.10038015559740798
450,0.4406,499.769,493.332,0.00362639,496.537,0.579796,0.603923,0.0527055,0.0554463,-0.106003,0.290034,0.00035495,0.000338993,0.198515,0.05411916130985328,0.33647292733252887,0.0003550130022051956,0.057012253990308404,0.00033905046462012756,-0.10057805019397281
451,0.4416,499.941,493.497,0.00361744,496.706,0.580631,0.60475,0.0528137,0.0555594,-0.106223,0.290632,0.000355801,0.000339857,0.198932,0.05423322317374257,0.33727237715474656,0.0003558643046834842,0.05713180883693392,0.0003399147579332684,-0.10077590125851499
452,0.4426,500.114,493.662,0.00360849,496.874,0.581468,0.605578,0.0529218,0.0556725,-0.106443,0.291229,0.000356652,0.000340722,0.199349,0.05434719194506865,0.33807096711929363,0.0003567156078863043,0.05725137720597728,0.0003407800523336224,-0.10097370880061063
453,0.4436,500.286,493.826,0.00359955,497.042,0.582306,0.606407,0.0530298,0.0557855,-0.106663,0.291827,0.000357504,0.000341588,0.199765,0.05446106759097291,0.3388713728550936,0.0003575679121710085,0.05737085336187708,0.00034164634782429815,-0.10117147282983363
454,0.4446,500.457,493.989,0.00359062,497.21,0.583146,0.607238,0.0531378,0.0558985,-0.106882,0.292424,0.000358356,0.000342454,0.200182,0.054574955536111025,0.33967091770507896,0.00035842021718202055,0.057490343019345636,0.0003425126440652626,-0.10136829472449982
455,0.4456,500.628,494.153,0.00358169,497.377,0.583987,0.60807,0.0532458,0.0560115,-0.107102,0.293021,0.000359209,0.000343321,0.200598,0.054688855781811485,0.3404709400258503,0.0003592735232784694,0.057609846179908164,0.00034337994139965744,-0.1015659719543679
456,0.4466,500.799,494.316,0.00357276,497.544,0.584829,0.608903,0.0533537,0.0561243,-0.107322,0.293618,0.000360062,0.000344188,0.201014,0.05480266284913138,0.3412714401025432,0.0003601268301025584,0.0577291512992395,0.0003442472394858953,-0.10176360570002874
457,0.4476,500.97,494.479,0.00356383,497.711,0.585673,0.609738,0.0534616,0.0562372,-0.107541,0.294215,0.000360916,0.000345056,0.20143,0.054916482196896155,0.34207241822046286,0.0003609811380156369,0.05784857566179946,0.0003451155386693383,-0.10196029793179495
458,0.4486,501.14,494.641,0.00355491,497.877,0.586518,0.610574,0.0535694,0.05635,-0.107761,0.294811,0.00036177,0.000345925,0.201846,0.055030208323405105,0.34287253179188215,0.000361835446658354,0.05796790771133531,0.000345984838952651,-0.1021578449352828
459,0.4496,501.31,494.803,0.00354599,498.043,0.587364,0.611412,0.0536772,0.0564627,-0.10798,0.295407,0.000362625,0.000346795,0.202261,0.055143946710251246,0.34367312237312464,0.0003626907563933912,0.058087147413565354,0.0003468551403378317,-0.10235445083810979
460,0.4506,501.479,494.964,0.00353708,498.208,0.588212,0.612251,0.0537849,0.0565754,-0.108199,0.296003,0.000363481,0.000347665,0.202677,0.05525759183299184,0.3444741902485733,0.0003635470672231911,0.058206400554867255,0.0003477254424804066,-0.10255101368895847
461,0.4516,501.648,495.126,0.00352817,498.374,0.589061,0.613091,0.0538926,0.0566881,-0.108418,0.296599,0.000364337,0.000348535,0.203092,0.05537124919597147,0.34527573570278003,0.0003644033787859602,0.058325667136755355,0.0003485957453801536,-0.10274753349725618
462,0.4526,501.817,495.287,0.00351926,498.538,0.589912,0.613933,0.0540003,0.0568007,-0.108637,0.297194,0.000365194,0.000349407,0.203507,0.05548491880050821,0.34607641294338065,0.00036526069144704465,0.05844484131625527,0.00034946804973601253,-0.10294401027242805
463,0.4536,501.986,495.447,0.00351036,498.703,0.590763,0.614776,0.0541079,0.0569132,-0.108856,0.297789,0.000366051,0.000350279,0.203922,0.05559849508806591,0.3468775667286974,0.0003661180048428747,0.058563923059125944,0.00035034035485237425,-0.10314044402389755
464,0.4546,502.154,495.608,0.00350145,498.867,0.591617,0.61562,0.0542155,0.0570257,-0.109075,0.298384,0.000366908,0.000351151,0.204337,0.05571208359708946,0.34767919734235875,0.0003669753189732283,0.05868301819944599,0.0003512126607296828,-0.10333683476108568
465,0.4556,502.322,495.767,0.00349256,499.031,0.592471,0.616466,0.054323,0.0571382,-0.109294,0.298979,0.000367767,0.000352025,0.204751,0.055825578746331095,0.3484813050681621,0.0003678346345741268,0.05880212673872309,0.00035208696807154105,-0.10353318249341159
466,0.4566,502.489,495.927,0.00348366,499.194,0.593327,0.617313,0.0544305,0.0572506,-0.109513,0.299573,0.000368626,0.000352899,0.205166,0.05593908609695708,0.34928254090685784,0.00036869395091310153,0.05892114278634519,0.0003529612761776768,-0.10372948723029218
467,0.4576,502.656,496.086,0.00347477,499.358,0.594184,0.618162,0.054538,0.057363,-0.109731,0.300167,0.000369485,0.000353773,0.20558,0.05605260565027925,0.3500842528210224,0.0003695532679903746,0.059040172212122766,0.00035383558504786805,-0.1039248529064436
468,0.4586,502.823,496.245,0.00346588,499.52,0.595043,0.619011,0.0546454,0.0574753,-0.10995,0.300761,0.000370345,0.000354649,0.205994,0.05616603179100088,0.3508864410935282,0.00037041358617617703,0.05915910910164346,0.00035471189539171277,-0.10412107187689557
469,0.4596,502.989,496.404,0.003457,499.683,0.595903,0.619863,0.0547528,0.0575876,-0.110168,0.301355,0.000371205,0.000355525,0.206408,0.05627947011434409,0.3516891060074163,0.0003712739051018321,0.059278059348526924,0.0003555882065031657,-0.10431635219689817
470,0.4606,503.155,496.562,0.00344811,499.845,0.596764,0.620715,0.0548601,0.0576998,-0.110387,0.301948,0.000372066,0.000356401,0.206822,0.05639281498233073,0.35249089535432443,0.00037213522513934727,0.05939691701457628,0.0003564645183822268,-0.1045124854383932
471,0.4616,503.321,496.72,0.00343923,500.007,0.597627,0.621569,0.0549674,0.057812,-0.110605,0.302542,0.000372928,0.000357278,0.207235,0.056506172012874334,0.35329451359715414,0.0003729975462916091,0.05951578801720392,0.00035734183138624864,-0.10470768043953949
472,0.4626,503.486,496.878,0.00343036,500.168,0.598491,0.622425,0.0550746,0.0579241,-0.110823,0.303135,0.00037379,0.000358156,0.207649,0.05661943554533089,0.35409725523308877,0.0003738598681870542,0.0596345663944442,0.0003582201455178957,-0.10490283289281344
473,0.4636,503.651,497.035,0.00342148,500.329,0.599357,0.623282,0.0551818,0.0580362,-0.111041,0.303727,0.000374653,0.000359035,0.208062,0.05673271122028911,0.3548991181361876,0.00037472319120079867,0.05975335808748716,0.00035909946077983257,-0.1050979428074893
474,0.4646,503.816,497.192,0.00341261,500.49,0.600224,0.62414,0.055289,0.0581482,-0.111259,0.30432,0.000375516,0.000359914,0.208475,0.05684599903905063,0.3557028115847982,0.00037558651495928075,0.05987205711061416,0.00035997877681492874,-0.10529301019283976
475,0.4656,503.981,497.348,0.00340374,500.651,0.601092,0.624999,0.0553961,0.0582602,-0.111477,0.304912,0.00037638,0.000360794,0.208888,0.056959193306992395,0.35650562525865737,0.00037645083983939287,0.059990769428776236,0.0003608590939834233,-0.10548803505813509
476,0.4666,504.145,497.505,0.00339488,500.811,0.601961,0.62586,0.0555032,0.0583722,-0.111695,0.305504,0.000377245,0.000361675,0.209301,0.05707239969868971,0.3573089143389181,0.00037731616584379957,0.060109495043462635,0.00036174041228864695,-0.10568301741264352
477,0.4676,504.309,497.661,0.00338601,500.971,0.602832,0.626723,0.0556102,0.0584841,-0.111913,0.306096,0.00037811,0.000362556,0.209713,0.057185512496884305,0.35811267910710387,0.0003781814925964966,0.06022812793334431,0.00036262173137013853,-0.10587795726563154
478,0.4686,504.472,497.816,0.00337715,501.13,0.603705,0.627586,0.0557172,0.0585959,-0.11213,0.306687,0.000378975,0.000363438,0.210126,0.057298637398795815,0.35891556092866517,0.00037904682009770596,0.06034666806431721,0.0003635040515914678,-0.10607196069877112
479,0.4696,504.635,497.972,0.00336829,501.289,0.604578,0.628451,0.0558242,0.0587077,-0.112348,0.307279,0.000379842,0.000364321,0.210538,0.05741177440571943,0.3597202771132235,0.0003799141491072078,0.0604652214488175,0.00036438737295552137,-0.10626681577136421
480,0.4706,504.798,498.127,0.00335943,501.448,0.605453,0.629318,0.0559311,0.0588195,-0.112565,0.30787,0.000380708,0.000365204,0.21095,0.05752481776646334,0.3605241093060134,0.0003807804784881075,0.060583788088327095,0.0003652706950996176,-0.10646073483136287
481,0.4716,504.96,498.281,0.00335058,501.607,0.60633,0.630185,0.0560379,0.0589312,-0.112783,0.308461,0.000381576,0.000366088,0.211362,0.05763776744840632,0.3613284167040387,0.00038164880938240664,0.060702261914096445,0.0003661550183897688,-0.10665550516043243
482,0.4726,505.123,498.436,0.00334173,501.765,0.607207,0.631055,0.0561448,0.0590428,-0.113,0.309051,0.000382444,0.000366973,0.211774,0.05775083496909805,0.36213183745570987,0.0003825171410303252,0.060820642892061905,0.00036704034282886155,-0.10684933988398448
483,0.4736,505.284,498.59,0.00333287,501.923,0.608086,0.631925,0.0562515,0.0591544,-0.113217,0.309641,0.000383312,0.000367859,0.212185,0.05786370300459187,0.3629357323654874,0.0003833854734320852,0.06093903708208148,0.00036792666841911625,-0.10704313254996489
484,0.4746,505.446,498.743,0.00332403,502.081,0.608967,0.632797,0.0563583,0.059266,-0.113434,0.310232,0.000384182,0.000368745,0.212597,0.057976688881411054,0.3637414654539908,0.0003842558073561264,0.06105744448563,0.0003688129947947427,-0.10723688316749924
485,0.4756,505.607,498.897,0.00331518,502.238,0.609849,0.633671,0.056465,0.0593775,-0.113651,0.310821,0.000385051,0.000369631,0.213008,0.05808958101680295,0.3645449457788703,0.0003851251416520096,0.0611757589866011,0.00036969932195574096,-0.10743059174571112
486,0.4766,505.768,499.05,0.00330633,502.395,0.610732,0.634545,0.0565716,0.059489,-0.113868,0.311411,0.000385922,0.000370519,0.213419,0.058202379378185176,0.36535026484264255,0.00038599647747550314,0.06129408668037439,0.0003705876506432393,-0.1076242582937218
487,0.4776,505.929,499.203,0.00329749,502.552,0.611617,0.635421,0.0566783,0.0596004,-0.114085,0.312,0.000386792,0.000371407,0.21383,0.058315295596037986,0.3661546930294799,0.0003868668136710607,0.06141232142718378,0.00037147598011944005,-0.10781788282065119
488,0.4786,506.089,499.355,0.00328865,502.708,0.612503,0.636299,0.0567848,0.0597118,-0.114302,0.312589,0.000387664,0.000372296,0.214241,0.05842801217707039,0.36695959516408316,0.00038773915139933557,0.06153056934607748,0.00037236531075701684,-0.10801146533561656
489,0.4796,506.249,499.507,0.00327981,502.864,0.61339,0.637178,0.0568914,0.0598231,-0.114519,0.313178,0.000388536,0.000373185,0.214651,0.05854084661713732,0.36776497152568965,0.0003886114898881132,0.06164872427364543,0.00037325464218507243,-0.10820500584773374
490,0.4806,506.409,499.659,0.00327097,503.02,0.614279,0.638058,0.0569979,0.0599344,-0.114735,0.313767,0.000389409,0.000374076,0.215062,0.05865358722063263,0.36857082239370187,0.0003894848295271647,0.0617668923525887,0.0003741459751520626,-0.1083976127641747
491,0.4816,506.568,499.811,0.00326214,503.175,0.615169,0.638939,0.0571043,0.0600457,-0.114952,0.314355,0.000390282,0.000374967,0.215472,0.05876623395501279,0.3693757786712224,0.0003903581699287173,0.06188507358437123,0.0003750373089130843,-0.10859106949139086
492,0.4826,506.727,499.962,0.0032533,503.33,0.61606,0.639822,0.0572107,0.0601569,-0.115168,0.314944,0.000391156,0.000375858,0.215882,0.05887889267564339,0.3701825785841095,0.0003912325114838744,0.062003161770135096,0.0003759286434683595,-0.1087835930270904
493,0.4836,506.886,500.113,0.00324447,503.485,0.616953,0.640707,0.0573171,0.060268,-0.115384,0.315532,0.00039203,0.000376751,0.216292,0.058991563383799406,0.37098848285295216,0.00039210685380308696,0.062121156875914574,0.0003768219795716732,-0.10897607498219697
494,0.4846,507.044,500.264,0.00323564,503.64,0.617847,0.641593,0.0574234,0.0603791,-0.115601,0.316119,0.000392906,0.000377644,0.216702,0.05910414017033738,0.3717934893386754,0.0003929831976725584,0.06223916509167848,0.00037771531647257106,-0.10916940619673043
495,0.4856,507.202,500.414,0.00322681,503.794,0.618743,0.64248,0.0575297,0.0604902,-0.115817,0.316707,0.000393781,0.000378537,0.217112,0.059216728924423645,0.3726003411015779,0.0003938585419158702,0.06235718641888344,0.00037860865417105316,-0.10936180482519198
496,0.4866,507.36,500.564,0.00321798,503.948,0.61964,0.643368,0.057636,0.0606012,-0.116033,0.317294,0.000394658,0.000379432,0.217521,0.05932932964733073,0.3734062940258456,0.00039473588771454793,0.062475114611469706,0.00037950399342645547,-0.10955416190003775
497,0.4876,507.518,500.714,0.00320915,504.102,0.620538,0.644258,0.0577422,0.0607121,-0.116249,0.317881,0.000395535,0.000380327,0.217931,0.05944183639614198,0.37421272018336027,0.0003956132342826102,0.06259294963551132,0.00038039933348321675,-0.10974647743024235
498,0.4886,507.675,500.863,0.00320032,504.255,0.621438,0.645149,0.0578483,0.060823,-0.116465,0.318468,0.000396412,0.000381223,0.21834,0.05955424913837404,0.3750196198519913,0.000396490581620057,0.06271079772818178,0.00038129567472267034,-0.10993875142477849
499,0.4896,507.832,501.012,0.0031915,504.408,0.622339,0.646042,0.0579544,0.0609339,-0.116681,0.319054,0.00039729,0.000382119,0.218749,0.059666673808230986,0.37582561748346577,0.000397368930124431,0.06282865889093059,0.00038219201676525927,-0.11013098389261677
500,0.4906,507.988,501.161,0.00318267,504.561,0.623241,0.646936,0.0580605,0.0610447,-0.116896,0.319641,0.000398169,0.000383017,0.219158,0.05977911040697803,0.3766334642007436,0.00039824827979817456,0.06294642683055907,0.00038309036037698085,-0.11032228516545617
501,0.4916,508.145,501.31,0.00317385,504.713,0.624145,0.647832,0.0581666,0.0611555,-0.117112,0.320227,0.000399048,0.000383915,0.219566,0.05989155893588127,0.3774404078221545,0.0003991276302448554,0.0630642078195982,0.0003839887047953905,-0.11051443479895295
502,0.4926,508.301,501.458,0.00316503,504.865,0.62505,0.648728,0.0582726,0.0612662,-0.117328,0.320813,0.000399928,0.000384813,0.219975,0.06000391339580946,0.3782478244511054,0.00040000798186445863,0.06318189554129905,0.0003848870500207102,-0.11070654293261106
503,0.4936,508.456,501.606,0.00315621,505.017,0.625957,0.649627,0.0583785,0.0613769,-0.117543,0.321398,0.000400809,0.000385713,0.220383,0.06011617375431921,0.3790543353098348,0.00040088933465987076,0.06329959629175175,0.0003857873968240444,-0.11089772047355839
504,0.4946,508.612,501.754,0.00314739,505.169,0.626865,0.650526,0.0584844,0.0614876,-0.117758,0.321983,0.00040169,0.000386613,0.220791,0.060228446001830305,0.37986131811544754,0.0004017706882315508,0.06341731007239892,0.0003866877444380634,-0.11108885691575276
505,0.4956,508.767,501.901,0.00313857,505.32,0.627774,0.651427,0.0585903,0.0615982,-0.117974,0.322569,0.000402572,0.000387514,0.221199,0.06034073013960217,0.3806701538135766,0.0004026530429823705,0.06353493053118431,0.00038758909324965174,-0.1112808409876328
506,0.4966,508.922,502.048,0.00312975,505.471,0.628685,0.65233,0.0586962,0.0617087,-0.118189,0.323153,0.000403455,0.000388415,0.221607,0.06045302616889381,0.38147670067216355,0.00040353639891499427,0.06365245763426097,0.0003884904428734792,-0.11147189506777089
507,0.4976,509.076,502.195,0.00312093,505.621,0.629597,0.653234,0.058802,0.0618192,-0.118404,0.323738,0.000404338,0.000389317,0.222015,0.060565228034436425,0.38228510097609103,0.00040441975562766075,0.06376999772479985,0.0003893927936988728,-0.11166290807569712
508,0.4986,509.231,502.342,0.00311211,505.772,0.63051,0.654139,0.0589077,0.0619297,-0.118619,0.324323,0.000405222,0.00039022,0.222422,0.06067733570382572,0.38309397433255055,0.0004053041135256841,0.06388755080423647,0.000390296145728497,-0.11185388002024121
509,0.4996,509.385,502.488,0.00310329,505.922,0.631425,0.655045,0.0590134,0.0620401,-0.118834,0.324907,0.000406106,0.000391124,0.22283,0.06078945522362167,0.3839019371157302,0.0004061884722053044,0.06400501047349971,0.00039120049896479436,-0.11204481091023066
510,0.5006,509.538,502.634,0.00309448,506.072,0.632341,0.655953,0.0591191,0.0621504,-0.119049,0.325491,0.000406991,0.000392029,0.223237,0.060901586595077495,0.3847103718869822,0.00040707383207405634,0.06412237669878329,0.0003921058534110955,-0.11223570075449141
511,0.5016,509.692,502.78,0.00308566,506.221,0.633259,0.656863,0.0592247,0.0622608,-0.119264,0.326074,0.000407877,0.000392934,0.223644,0.061013623718077836,0.385517893403442,0.0004079601931339383,0.06423986229425638,0.0003930112086765192,-0.11242654956184728
512,0.5026,509.845,502.925,0.00307684,506.371,0.634178,0.657773,0.0593303,0.062371,-0.119478,0.326658,0.000408763,0.00039384,0.224051,0.06112567267282332,0.3863272721687856,0.000408846554979414,0.06435714798940428,0.0003939175651552773,-0.11261646995803376
513,0.5036,509.998,503.07,0.00306803,506.52,0.635098,0.658685,0.0594359,0.0624813,-0.119693,0.327241,0.00040965,0.000394746,0.224458,0.06123773346056294,0.3871357366129464,0.00040973391801979453,0.06447455305759808,0.0003948239224551564,-0.11280723690881078
514,0.5046,510.15,503.215,0.00305921,506.668,0.63602,0.659599,0.0595414,0.0625914,-0.119907,0.327824,0.000410537,0.000395654,0.224864,0.061349699947571334,0.387944672529299,0.00041062128184732316,0.06459175815791207,0.0003957322813676889,-0.11299707584662144
515,0.5056,510.303,503.36,0.0030504,506.817,0.636943,0.660514,0.0596469,0.0627016,-0.120122,0.328407,0.000411426,0.000396562,0.225271,0.06146167824766735,0.3887540801927918,0.0004115106472850627,0.064709082634121,0.00039664064110489505,-0.11318776097592853
516,0.5066,510.455,503.504,0.00304158,506.965,0.637868,0.66143,0.0597523,0.0628117,-0.120336,0.32899,0.000412314,0.000397471,0.225677,0.06157356220473553,0.38956395987853343,0.00041239901310086147,0.06482631355756285,0.0003975500020645395,-0.11337751849030142
517,0.5076,510.606,503.648,0.00303277,507.113,0.638794,0.662348,0.0598577,0.0629217,-0.120551,0.329572,0.000413204,0.00039838,0.226083,0.06168545795499436,0.3903729214881766,0.0004132893805322002,0.06494345089448972,0.000398459363850856,-0.1135681218332324
518,0.5086,510.758,503.792,0.00302395,507.26,0.639721,0.663267,0.059963,0.0630317,-0.120765,0.330154,0.000414094,0.00039929,0.226489,0.06179725931995561,0.3911823540505104,0.00041417974875601615,0.06506060111723211,0.0003993697268631635,-0.1137577979590908
519,0.5096,510.909,503.935,0.00301514,507.408,0.640649,0.664187,0.0600683,0.0631417,-0.120979,0.330736,0.000414985,0.000400202,0.226895,0.061909072458220304,0.39199225783970926,0.0004150711181873934,0.065177764227208,0.0004002820915043337,-0.11394743349860115
520,0.5106,511.06,504.078,0.00300632,507.555,0.641579,0.665109,0.0601736,0.0632516,-0.121193,0.331317,0.000415876,0.000401113,0.2273,0.06202089737102856,0.39280124032817043,0.00041596248841280214,0.06529483369634614,0.0004011934565764097,-0.11413702846044793
521,0.5116,511.211,504.221,0.00299751,507.701,0.642511,0.666033,0.0602788,0.0633615,-0.121407,0.331899,0.000416768,0.000402026,0.227706,0.06213262784635187,0.39361208658341384,0.0004168548598493249,0.06541191603212582,0.0004021068232828995,-0.11432658285331398
522,0.5126,511.361,504.364,0.00298869,507.848,0.643444,0.666957,0.060384,0.0634713,-0.121621,0.33248,0.000417661,0.000402939,0.228111,0.06224437007633976,0.3944220104658236,0.0004177482324996262,0.06552890468306538,0.0004030201908233888,-0.11451609668588003
523,0.5136,511.511,504.506,0.00297987,507.994,0.644378,0.667883,0.0604892,0.063581,-0.121834,0.333061,0.000418554,0.000403853,0.228516,0.062356124062228346,0.39523240505073454,0.0004186416059477338,0.06564579961547912,0.00040393455960185953,-0.11470468467195238
524,0.5146,511.661,504.648,0.00297106,508.14,0.645314,0.668811,0.0605943,0.0636908,-0.122048,0.333642,0.000419449,0.000404768,0.228921,0.062467783558471046,0.39604327061170475,0.0004195369810324756,0.06576281394824623,0.00040484992962075417,-0.11489411759938639
525,0.5156,511.81,504.79,0.00296224,508.286,0.64625,0.66974,0.0606993,0.0638005,-0.122262,0.334222,0.000420343,0.000405683,0.229326,0.06257934853280323,0.39685321056854184,0.00042043135649838526,0.06587973454191354,0.00040576530047720105,-0.11508350999251127
526,0.5166,511.96,504.932,0.00295342,508.431,0.647189,0.67067,0.0608044,0.0639101,-0.122475,0.334802,0.000421239,0.0004066,0.229731,0.06269103149117061,0.397663620426812,0.00042132773360648024,0.06599656136281218,0.000406682672984493,-0.11527197713241999
527,0.5176,512.109,505.073,0.00294461,508.576,0.648129,0.671602,0.0609094,0.0640197,-0.122689,0.335382,0.000422135,0.000407516,0.230135,0.0628026199077667,0.39847450045913724,0.00042222411151771055,0.06611340098863216,0.0004075990459255774,-0.11546128867225636
528,0.5186,512.257,505.214,0.00293579,508.721,0.64907,0.672535,0.0610143,0.0641292,-0.122902,0.335962,0.000423031,0.000408434,0.23054,0.06291411375034484,0.3992858509382975,0.0004231204902320762,0.06623014679775685,0.00040851742052305795,-0.11564967535387538
529,0.5196,512.406,505.355,0.00292697,508.866,0.650012,0.673469,0.0611192,0.0642387,-0.123115,0.336542,0.000423929,0.000409353,0.230944,0.06302561928924044,0.40009767213723135,0.000424018870597731,0.06634690539124755,0.0004094367963729528,-0.11583802191340431
530,0.5206,512.554,505.495,0.00291815,509.01,0.650956,0.674405,0.0612241,0.0643482,-0.123328,0.337121,0.000424827,0.000410272,0.231348,0.06313713652568076,0.40090856341977155,0.0004249172517700739,0.06646367677050402,0.00041035617306794947,-0.11602632835938831
531,0.5216,512.702,505.636,0.00290933,509.154,0.651901,0.675342,0.0613289,0.0644576,-0.123541,0.3377,0.000425725,0.000411192,0.231752,0.06324855913603145,0.40171992434431236,0.0004258156337491048,0.06658035427888609,0.00041127655101891314,-0.11621459470037065
532,0.5226,512.849,505.776,0.00290051,509.298,0.652848,0.676281,0.0614337,0.064567,-0.123754,0.338279,0.000426625,0.000412113,0.232156,0.0633599934240836,0.40253175518285556,0.00042671601738830667,0.06669704455248593,0.00041219793022895246,-0.11640282094489285
533,0.5236,512.997,505.915,0.00289169,509.441,0.653796,0.677221,0.0615384,0.0646763,-0.123967,0.338858,0.000427525,0.000413034,0.232559,0.0634713330439225,0.4033440562075601,0.00042761640183797134,0.06681364091133046,0.0004131193102874242,-0.11659100710149439
534,0.5246,513.144,506.055,0.00288286,509.585,0.654746,0.678162,0.0616432,0.0647856,-0.12418,0.339436,0.000428425,0.000413956,0.232963,0.06358279067990358,0.404155423534617,0.00042851678709787677,0.06693025001485342,0.0004140416916087464,-0.11677915317871324
535,0.5256,513.291,506.194,0.00287404,509.728,0.655697,0.679105,0.0617478,0.0648948,-0.124393,0.340014,0.000429327,0.00041488,0.233366,0.0636940472584262,0.4049672599675471,0.00042941917402683494,0.06704676515976615,0.0004149660746102235,-0.11696725918508522
536,0.5266,513.437,506.333,0.00286522,509.87,0.656649,0.68005,0.0618524,0.065004,-0.124606,0.340592,0.000430229,0.000415803,0.233769,0.0638053154749958,0.4057795657775727,0.00043032156177003067,0.06716329302882751,0.000415889458050156,-0.11715532512914473
537,0.5276,513.584,506.472,0.00285639,510.013,0.657602,0.680995,0.061957,0.0651132,-0.124818,0.34117,0.000431131,0.000416728,0.234172,0.06391659533082938,0.4065923412360717,0.0004312239503270199,0.06727983362342682,0.00041681484317579454,-0.11734246836233375
538,0.5286,513.73,506.61,0.00284756,510.155,0.658557,0.681942,0.0620616,0.0652223,-0.125031,0.341747,0.000432035,0.000417653,0.234575,0.06402788682714489,0.4074041792096965,0.00043212834056216565,0.06739628020532074,0.0004177402291576371,-0.11753045439534937
539,0.5296,513.876,506.748,0.00283873,510.297,0.659514,0.682891,0.0621661,0.0653313,-0.125243,0.342324,0.000432939,0.000418579,0.234977,0.06413908355124587,0.4082164857490005,0.0004330327316151017,0.06751263274096098,0.0004186666164140984,-0.11771751810956321
540,0.5306,514.021,506.886,0.0028299,510.439,0.660472,0.683841,0.0622706,0.0654403,-0.125455,0.342901,0.000433843,0.000419506,0.23538,0.06425029189601195,0.4090292611244237,0.00043393712348538394,0.0676289979597191,0.00041959400494784305,-0.11790454217047308
541,0.5316,514.167,507.024,0.00282107,510.58,0.661431,0.684792,0.062375,0.0655493,-0.125668,0.343478,0.000434749,0.000420434,0.235782,0.06436140542651114,0.4098425056065629,0.0004348435170431486,0.06774537586297713,0.00042052239476175757,-0.11809240849451696
542,0.5326,514.312,507.161,0.00281224,510.721,0.662392,0.685745,0.0624794,0.0656582,-0.12588,0.344055,0.000435655,0.000421362,0.236184,0.06447253055786861,0.4106562194661707,0.0004357499114218122,0.0678616596659467,0.0004214507854374272,-0.11827935308708915
543,0.5336,514.456,507.298,0.00280341,510.862,0.663354,0.686699,0.0625837,0.0657671,-0.126092,0.344631,0.000436562,0.000422291,0.236586,0.06458356083293393,0.4114689915044587,0.00043665730705866324,0.06797795613291213,0.00042238017739681943,-0.11846625805160838
544,0.5346,514.601,507.435,0.00279457,511.003,0.664317,0.687654,0.062688,0.0658759,-0.126304,0.345207,0.000437469,0.000423221,0.236988,0.06469460268906091,0.4122822318342958,0.00043756470351818955,0.06809415845583122,0.0004233105706430429,-0.11865312339647505
545,0.5356,514.745,507.572,0.00278574,511.144,0.665282,0.688611,0.0627923,0.0659847,-0.126516,0.345783,0.000438377,0.000424152,0.23739,0.0648056561274577,0.4130959407254955,0.00043847310123945604,0.06821037342225056,0.0004242419651787621,-0.11883994913008744
546,0.5366,514.889,507.708,0.0027769,511.284,0.666248,0.68957,0.0628965,0.0660935,-0.126728,0.346359,0.000439286,0.000425083,0.237791,0.06491661465766518,0.41391011844802716,0.00043938250022468317,0.06832660103354637,0.0004251733605815655,-0.11902673526084251
547,0.5376,515.033,507.845,0.00276806,511.424,0.667216,0.690529,0.0630007,0.0662021,-0.126939,0.346934,0.000440196,0.000426016,0.238193,0.06502758475035386,0.4147233505479573,0.00044029290047697955,0.06844262760254738,0.0004261067577038258,-0.11921260101017628
548,0.5386,515.177,507.98,0.00275922,511.563,0.668185,0.69149,0.0631049,0.0663108,-0.127151,0.34751,0.000441106,0.000426949,0.238594,0.06513856640672877,0.41553846592856614,0.0004412033015579464,0.06855877362858975,0.00042704015569672293,-0.11939930814710631
549,0.5396,515.32,508.116,0.00275037,511.703,0.669155,0.692453,0.063209,0.0664194,-0.127363,0.348085,0.000442017,0.000427883,0.238995,0.06524945310304409,0.41635263459753546,0.0004421147039093132,0.0686748254129037,0.00042797455498866377,-0.11958597570631879
550,0.5406,515.463,508.252,0.00274153,511.842,0.670127,0.693417,0.0633131,0.066528,-0.127574,0.348659,0.000442929,0.000428817,0.239396,0.06536035134326545,0.4171658543815444,0.00044302710753396646,0.0687908898011258,0.0004289089551532399,-0.11977172346836673
551,0.5416,515.606,508.387,0.00273268,511.981,0.6711,0.694382,0.0634171,0.0666365,-0.127786,0.349234,0.000443841,0.000429753,0.239796,0.06547115458147368,0.4179809590679533,0.00044393951199062087,0.06890685990393353,0.0004298453570503735,-0.11995831208389929
552,0.5426,515.748,508.522,0.00272383,512.12,0.672075,0.695349,0.0635211,0.066745,-0.127997,0.349808,0.000444754,0.000430689,0.240197,0.06558196934381777,0.4187951137785064,0.00044485291772433655,0.06902284259017999,0.00043078175982369515,-0.12014398129125936
553,0.5436,515.891,508.656,0.00271498,512.258,0.673051,0.696317,0.0636251,0.0668534,-0.128208,0.350382,0.000445668,0.000431626,0.240597,0.06569279563149655,0.41960973594801154,0.000445767324737778,0.06913873094735234,0.00043171916390538634,-0.12032961132654951
554,0.5446,516.033,508.791,0.00270613,512.397,0.674028,0.697287,0.063729,0.0669618,-0.128419,0.350956,0.000446582,0.000432564,0.240998,0.06580352686535074,0.4204248258448666,0.0004466817325869954,0.06925463186750336,0.0004326575692981116,-0.12051520219803413
555,0.5456,516.174,508.925,0.00269727,512.534,0.675007,0.698258,0.0638328,0.0670702,-0.12863,0.35153,0.000447497,0.000433502,0.241398,0.06591416301335618,0.4212403837376246,0.0004475971417197133,0.06937054535199505,0.0004335959755710217,-0.12070075391397583
556,0.5466,516.316,509.059,0.00268842,512.672,0.675987,0.699231,0.0639367,0.0671785,-0.128841,0.352103,0.000448413,0.000434441,0.241798,0.06602491724847614,0.4220549878392932,0.0004485135521383743,0.06948636445354794,0.00043453538315874063,-0.12088626648263578
557,0.5476,516.457,509.193,0.00267956,512.81,0.676969,0.700204,0.0640405,0.0672867,-0.129052,0.352676,0.000449329,0.000435381,0.242198,0.06613557637799583,0.42287005884286666,0.0004494299633965859,0.0696020891387743,0.00043547579206393294,-0.12107173991227294
558,0.5486,516.598,509.326,0.00267069,512.947,0.677952,0.70118,0.0641442,0.0673949,-0.129263,0.353249,0.000450247,0.000436322,0.242597,0.06624614036991017,0.42368559701595654,0.0004503483763946825,0.06971782634608914,0.00043641720228970726,-0.12125717421114501
559,0.5496,516.739,509.459,0.00266183,513.084,0.678936,0.702156,0.064248,0.0675031,-0.129474,0.353822,0.000451165,0.000437264,0.242997,0.06635682246358199,0.4245016026263275,0.0004512667902361045,0.06983357607684737,0.0004373596138385061,-0.12144256938750753
560,0.5506,516.88,509.592,0.00265296,513.221,0.679922,0.703134,0.0643516,0.0676112,-0.129685,0.354394,0.000452083,0.000438207,0.243396,0.06646730275316926,0.4253166506245347,0.00045218520492062986,0.06994923133747544,0.000438303026713438,-0.12162792544961454
561,0.5516,517.02,509.725,0.0026441,513.357,0.68091,0.704114,0.0644553,0.0677193,-0.129895,0.354967,0.000453003,0.00043915,0.243795,0.06657790114689233,0.42613359109643567,0.00045310562135436605,0.07006489910111302,0.0004392464404781027,-0.12181236421852148
562,0.5526,517.16,509.858,0.00263522,513.494,0.681898,0.705095,0.0645589,0.0678274,-0.130106,0.355539,0.000453923,0.000440094,0.244194,0.06668840434141776,0.42694957285907886,0.00045402603863498037,0.0701805793691117,0.0004401908555724532,-0.12199764226215037
563,0.5536,517.3,509.99,0.00262635,513.63,0.682888,0.706077,0.0646625,0.0679353,-0.130316,0.356111,0.000454844,0.000441039,0.244593,0.06679891898466739,0.427766021496804,0.0004549474572173029,0.0702960580835903,0.0004411362719993761,-0.12218200339867846
564,0.5546,517.44,510.122,0.00261747,513.766,0.68388,0.707061,0.064766,0.0680433,-0.130526,0.356682,0.000455765,0.000441985,0.244992,0.06690933838688773,0.4285815086945166,0.00045586887664805786,0.07041165630005453,0.00044208268976198006,-0.12236632582343276
565,0.5556,517.579,510.254,0.00260859,513.901,0.684873,0.708046,0.0648695,0.0681512,-0.130737,0.357253,0.000456687,0.000442931,0.245391,0.0670197692181076,0.42939746166838577,0.00045679129738451785,0.0705271599490791,0.00044302910841986787,-0.12255148699349361
566,0.5566,517.718,510.386,0.00259971,514.036,0.685867,0.709033,0.0649729,0.0682591,-0.130947,0.357825,0.00045761,0.000443878,0.245789,0.0671301047664945,0.4302153108990412,0.0004577147194289033,0.07064267606161989,0.00044397652841721147,-0.12273573183483955
567,0.5576,517.857,510.517,0.00259083,514.172,0.686863,0.710021,0.0650763,0.0683669,-0.131157,0.358396,0.000458534,0.000444827,0.246187,0.0672404517241667,0.431032197040363,0.0004586391427845449,0.0707580975632065,0.00044492595020129144,-0.12291993798883116
568,0.5586,517.996,510.648,0.00258194,514.307,0.68786,0.71101,0.0651797,0.0684747,-0.131367,0.358966,0.000459459,0.000445775,0.246585,0.06735081009230415,0.43184811790803224,0.00045956456745366303,0.07087353150790165,0.00044587437244070216,-0.12310410546359185
569,0.5596,518.134,510.779,0.00257305,514.441,0.688858,0.712001,0.065283,0.0685824,-0.131577,0.359537,0.000460384,0.000446725,0.246983,0.06746107312597438,0.4326659366483878,0.0004604899929789852,0.0709888707981543,0.00044682479647284445,-0.12328823426724345
570,0.5606,518.273,510.91,0.00256416,514.576,0.689858,0.712994,0.0653863,0.0686901,-0.131787,0.360107,0.00046131,0.000447676,0.247381,0.06757134755040428,0.433482789013085,0.0004614164198215587,0.07110422251111759,0.0004477762218555448,-0.12347232440790601
571,0.5616,518.411,511.04,0.00255526,514.71,0.69086,0.713987,0.0654896,0.0687977,-0.131997,0.360677,0.000462236,0.000448627,0.247779,0.06768163336677069,0.43430010711635325,0.0004623428475221125,0.07121947952617602,0.00044872764814307686,-0.12365637589369793
572,0.5626,518.548,511.17,0.00254636,514.844,0.691862,0.714983,0.0655928,0.0689053,-0.132206,0.361247,0.000463163,0.000449579,0.248176,0.0677918237970625,0.43511789122373856,0.0004632702765439145,0.07133474894355629,0.0004496800757851638,-0.12383951257268655
573,0.5636,518.686,511.3,0.00253746,514.978,0.692867,0.715979,0.065696,0.0690129,-0.132416,0.361816,0.000464091,0.000450532,0.248574,0.06790202559959346,0.43593470566551584,0.0004641987068894071,0.07145003076459355,0.0004506335047846921,-0.12402348695705978
574,0.5646,518.823,511.43,0.00252855,515.111,0.693872,0.716977,0.0657991,0.0691204,-0.132625,0.362386,0.00046502,0.000451486,0.248971,0.06801213197431899,0.43675342175966514,0.000465128138561699,0.07156521783409464,0.0004515879351443264,-0.12420654691785349
575,0.5656,518.96,511.56,0.00251964,515.244,0.694879,0.717977,0.0659022,0.0692279,-0.132835,0.362955,0.00046595,0.000452441,0.249368,0.06812224970159675,0.43757116708312815,0.0004660585715636767,0.07168041728687147,0.0004525433668669532,-0.12439044423310686
576,0.5666,519.097,511.689,0.00251073,515.377,0.695888,0.718977,0.0660053,0.0693353,-0.133044,0.363524,0.00046688,0.000453396,0.249765,0.06823237878259758,0.43838937783608234,0.0004669890054307402,0.07179552194469752,0.0004534987995021833,-0.12457342750784384
577,0.5676,519.234,511.818,0.00250182,515.51,0.696898,0.71998,0.0661083,0.0694427,-0.133253,0.364093,0.000467811,0.000454352,0.250162,0.06834241238424532,0.43920805428343224,0.0004679204406310422,0.07191063896542782,0.0004544552335041807,-0.12475637254307259
578,0.5686,519.37,511.947,0.0024929,515.643,0.697909,0.720983,0.0662113,0.0695501,-0.133463,0.364661,0.000468743,0.000455309,0.250558,0.06845245731993788,0.4400257566637571,0.0004688528771674694,0.07202576835038998,0.000455412668875832,-0.1249401544070674
579,0.5696,519.506,512.076,0.00248397,515.775,0.698922,0.721988,0.0663142,0.0696573,-0.133672,0.365229,0.000469675,0.000456267,0.250955,0.06856240673459646,0.44084392363096425,0.0004697853145727571,0.0721406956727515,0.0004563711056204678,-0.12512302280438325
580,0.5706,519.642,512.204,0.00247505,515.907,0.699936,0.722995,0.0664171,0.0697646,-0.133881,0.365797,0.000470608,0.000457226,0.251351,0.06867236746363203,0.44166255544901367,0.00047071875331794466,0.07225574254155132,0.00045733054374030857,-0.12530585298619756
581,0.5716,519.778,512.332,0.00246612,516.039,0.700951,0.724003,0.06652,0.0698718,-0.13409,0.366365,0.000471542,0.000458186,0.251747,0.06878233950820856,0.4424816523820161,0.00047165319340569667,0.07237069451846767,0.000458290983238685,-0.12548864496049672
582,0.5726,519.913,512.46,0.00245719,516.171,0.701968,0.725012,0.0666228,0.069979,-0.134299,0.366933,0.000472477,0.000459146,0.252143,0.06889221598026385,0.44330121469423145,0.00047258863483867763,0.07248565881889646,0.00045925142365899063,-0.12567139873526534
583,0.5736,520.049,512.588,0.00244825,516.303,0.702987,0.726023,0.0667256,0.0700861,-0.134507,0.3675,0.000473413,0.000460107,0.252539,0.06900210374820115,0.44411979852954997,0.0004735250776199962,0.07260052818410068,0.00046021286546160667,-0.12585324017216337
584,0.5746,520.184,512.715,0.00243931,516.434,0.704006,0.727036,0.0668284,0.0701932,-0.134716,0.368067,0.000474349,0.000461069,0.252934,0.06911200281318175,0.4449388466335107,0.0004744615212777248,0.07271540985247271,0.00046117530864919765,-0.12603591775449507
585,0.5756,520.319,512.843,0.00243036,516.565,0.705028,0.728049,0.0669311,0.0703002,-0.134925,0.368634,0.000475286,0.000462032,0.25333,0.06922180625418073,0.44575835926942897,0.0004753989662873437,0.07283019654230549,0.00046213875322509423,-0.12621855716120156
586,0.5766,520.453,512.97,0.00242142,516.696,0.70605,0.729064,0.0670337,0.0704072,-0.135133,0.369201,0.000476223,0.000462996,0.253725,0.06933151403941551,0.4465783367007685,0.00047633641217537104,0.07294499551497102,0.0004631031991917389,-0.1264002848009823
587,0.5776,520.588,513.097,0.00241246,516.826,0.707074,0.730081,0.0671364,0.0705142,-0.135342,0.369768,0.000477162,0.00046396,0.254121,0.06944134002537528,0.44739877919114357,0.00047727585989632004,0.07305980677178381,0.0004640676460880844,-0.1265828480629334
588,0.5786,520.722,513.223,0.00240351,516.957,0.7081,0.731099,0.067239,0.0706211,-0.13555,0.370334,0.000478101,0.000464926,0.254516,0.06955107033593055,0.4482182387853544,0.00047821530849945226,0.07317452299660054,0.00046503409484421887,-0.12676449993808647
589,0.5796,520.856,513.35,0.00239455,517.087,0.709127,0.732118,0.0673415,0.070728,-0.135758,0.3709,0.000479041,0.000465892,0.254911,0.06966070493931742,0.44903816232497973,0.00047915575846380065,0.07328925148523746,0.0004660005445338289,-0.12694611403357858
590,0.5806,520.989,513.476,0.00238558,517.217,0.710155,0.733139,0.0674441,0.0708348,-0.135967,0.371466,0.000479982,0.000466859,0.255305,0.0697704577578675,0.44985855007268705,0.0004800972097922518,0.07340388489861138,0.000466967995624179,-0.12712856322914057
591,0.5816,521.123,513.602,0.00237662,517.347,0.711185,0.734162,0.0675465,0.0709416,-0.136175,0.372031,0.000480923,0.000467827,0.2557,0.06988000786161153,0.45067795161261515,0.0004810386620066609,0.07351853055548752,0.0004679364481179338,-0.12731010160734302
592,0.5826,521.256,513.728,0.00236764,517.476,0.712216,0.735185,0.067649,0.0710483,-0.136383,0.372597,0.000481865,0.000468795,0.256094,0.0699896761828227,0.45149926774376703,0.0004819811155889475,0.07363308109386035,0.00046890490154916087,-0.12749160222948963
593,0.5836,521.389,513.854,0.00235867,517.606,0.713249,0.736211,0.0677514,0.071155,-0.136591,0.373162,0.000482808,0.000469765,0.256489,0.07009924873568285,0.45231959655110776,0.0004829245705419982,0.07374764385542787,0.0004698753568574965,-0.1276730651034328
594,0.5846,521.522,513.979,0.00234969,517.735,0.714283,0.737237,0.0678538,0.0712617,-0.136799,0.373727,0.000483752,0.000470735,0.256883,0.07020883250934684,0.45314038897518416,0.0004838690268686996,0.07386221884149391,0.0004708458131073012,-0.12785449023702322
595,0.5856,521.655,514.104,0.0023407,517.864,0.715318,0.738265,0.0679561,0.0713683,-0.137007,0.374292,0.000484697,0.000471707,0.257277,0.07031832047312636,0.4539616452780135,0.00048481448457171616,0.07397669865568823,0.00047181827124198605,-0.1280358776381103
596,0.5866,521.787,514.229,0.00233171,517.992,0.716355,0.739295,0.0680584,0.0714749,-0.137214,0.374856,0.000485642,0.000472679,0.257671,0.07042781963809763,0.45478191093912335,0.0004857599431680182,0.0740911906740811,0.00047279073032191476,-0.12821635553133282
597,0.5876,521.919,514.354,0.00232272,518.121,0.717393,0.740326,0.0681607,0.0715814,-0.137422,0.37542,0.000486588,0.000473652,0.258064,0.0705373300054064,0.4556026393605519,0.0004867064031446322,0.07420558747740946,0.0004737641908210133,-0.1283976676722659
598,0.5886,522.051,514.478,0.00231372,518.249,0.718433,0.741358,0.0682629,0.0716879,-0.13763,0.375984,0.000487535,0.000474625,0.258458,0.07064674451151887,0.4564238308033699,0.00048765386450422277,0.07431999646464615,0.00047473765226713205,-0.12857894210419563
599,0.5896,522.183,514.603,0.00230472,518.377,0.719474,0.742392,0.0683651,0.0717943,-0.137837,0.376548,0.000488483,0.0004756,0.258851,0.0707561702003654,0.4572454855287953,0.0004886023272496764,0.07443431019365265,0.00047571311561189766,-0.12875930759470777
600,0.5906,522.315,514.727,0.00229571,518.505,0.720517,0.743427,0.0684672,0.0719007,-0.138044,0.377112,0.000489431,0.000476575,0.259245,0.07086549998653346,0.4580676037981928,0.0004895507908941887,0.07454863608628681,0.0004766885799076803,-0.12893963575342726
601,0.5916,522.446,514.851,0.0022867,518.633,0.721561,0.744464,0.0685693,0.0720071,-0.138252,0.377675,0.00049038,0.000477552,0.259638,0.07097484093584261,0.4588887269836186,0.0004905002559283389,0.07466297414384315,0.0004776660461098814,-0.1291207974677192
602,0.5926,522.577,514.975,0.00227768,518.76,0.722607,0.745502,0.0686714,0.0721134,-0.138459,0.378239,0.00049133,0.000478529,0.260031,0.07108419304943259,0.4597117723026001,0.0004914507223552356,0.07477721688988903,0.0004786435132670963,-0.12930105080577925
603,0.5936,522.708,515.098,0.00226866,518.887,0.723653,0.746542,0.0687734,0.0722197,-0.138666,0.378802,0.000492281,0.000479507,0.260424,0.0711934492090931,0.4605338214155179,0.0004924021901770992,0.07489147178058442,0.00047962198185902416,-0.12948126683525985
604,0.5946,522.839,515.221,0.00225963,519.014,0.724702,0.747583,0.0688754,0.0723259,-0.138873,0.379364,0.000493232,0.000480486,0.260816,0.0713027165134501,0.46135487211679016,0.0004933536589040166,0.07500563131665161,0.0004806014518883295,-0.12966144556388315
605,0.5956,522.97,515.345,0.0022506,519.141,0.725752,0.748625,0.0689773,0.0724321,-0.13908,0.379927,0.000494184,0.000481466,0.261209,0.07141188782244656,0.4621778465553583,0.0004943061290301198,0.07511980297710519,0.0004815819233581209,-0.12984158699936965
606,0.5966,523.1,515.467,0.00224156,519.268,0.726803,0.749669,0.0690793,0.0725383,-0.139287,0.380489,0.000495137,0.000482446,0.261601,0.07152117740867858,0.46299982145843566,0.0004952596005582954,0.07523398676323301,0.00048256239578892135,-0.13002169114943807
607,0.5976,523.23,515.59,0.00223252,519.394,0.727856,0.750715,0.0691811,0.0726444,-0.139494,0.381051,0.000496091,0.000483428,0.261993,0.07163026381694282,0.4638222584412406,0.0004962140734912079,0.0753480751415101,0.00048354487014767855,-0.1302017580218059
608,0.5986,523.36,515.713,0.00222348,519.52,0.72891,0.751761,0.069283,0.0727504,-0.139701,0.381613,0.000497046,0.00048441,0.262385,0.07173946850471014,0.4646451577635351,0.000497169547831966,0.07546206807899414,0.0004845273454709975,-0.13038178762418873
609,0.5996,523.49,515.835,0.00221443,519.646,0.729965,0.75281,0.0693848,0.0728564,-0.139908,0.382175,0.000498001,0.000485393,0.262777,0.07184857713613901,0.46546851968522707,0.0004981250230851053,0.07557607310036984,0.0004855108222447946,-0.13056177996430063
610,0.6006,523.619,515.957,0.00220537,519.772,0.731022,0.753859,0.0694865,0.0729624,-0.140114,0.382737,0.000498957,0.000486377,0.263169,0.07195758967962762,0.46629234446637025,0.0004990814997496429,0.07569009020691841,0.0004864953004717343,-0.13074086579115451
611,0.6016,523.748,516.079,0.00219631,519.897,0.732081,0.754911,0.0695883,0.0730684,-0.140321,0.383298,0.000499914,0.000487362,0.263561,0.07206672051692231,0.4671151652512662,0.0005000389778289094,0.07580411939992082,0.0004874807801551473,-0.13092078380977834
612,0.6026,523.878,516.201,0.00218724,520.023,0.733141,0.755963,0.06969,0.0731743,-0.140527,0.383859,0.000500872,0.000488348,0.263952,0.07217575524672104,0.4679384477681261,0.0005009974573253473,0.07591805308884747,0.0004884672612974761,-0.13109979568945684
613,0.6036,524.006,516.322,0.00217817,520.148,0.734202,0.757017,0.0697916,0.0732801,-0.140734,0.38442,0.000501831,0.000489335,0.264343,0.07228469383744085,0.4687621922760543,0.0005019569382420652,0.07603189124079646,0.0004894547439020513,-0.13127963941728116
614,0.6046,524.135,516.443,0.00216909,520.273,0.735265,0.758073,0.0698932,0.0733859,-0.14094,0.38498,0.00050279,0.000490322,0.264735,0.07239364349688371,0.4695849294486363,0.000502916420078714,0.07614574143745889,0.0004904422274811804,-0.1314585773803182
615,0.6056,524.264,516.564,0.00216001,520.398,0.736329,0.75913,0.0699948,0.0734917,-0.141146,0.385541,0.00050375,0.00049131,0.265126,0.07250260422617427,0.47040959789192716,0.0005038769033396395,0.07625960368010931,0.0004914307125263306,-0.13163747848593133
616,0.6066,524.392,516.685,0.00215092,520.522,0.737394,0.760188,0.0700964,0.0735974,-0.141352,0.386101,0.000504711,0.0004923,0.265516,0.07261157602643742,0.47123325787001535,0.0005048383880272844,0.0763733703326801,0.0004924211995329664,-0.1318163427417124
617,0.6076,524.52,516.806,0.00214182,520.647,0.738462,0.761248,0.0701979,0.0737031,-0.141558,0.386661,0.000505673,0.00049329,0.265907,0.07272045162674723,0.4720573792268654,0.0005058008741447573,0.0764871490110215,0.0004934116875203731,-0.13199517015525153
618,0.6086,524.648,516.927,0.00213272,520.771,0.73953,0.762309,0.0702993,0.0738087,-0.141764,0.387221,0.000506635,0.000494281,0.266298,0.07282923099556293,0.4728819622209217,0.0005067633611881561,0.07660083205631607,0.0004944031769824608,-0.13217396073413767
619,0.6096,524.776,517.047,0.00212362,520.895,0.7406,0.763372,0.0704007,0.0739143,-0.14197,0.38778,0.000507599,0.000495273,0.266688,0.07293802139516603,0.4737055334045033,0.0005077278501728344,0.0767145271071743,0.0004953956679227822,-0.13235271448595798
620,0.6106,524.903,517.167,0.00211451,521.019,0.741672,0.764437,0.0705021,0.0740199,-0.142176,0.38834,0.000508563,0.000496266,0.267079,0.07304682282667474,0.4745310396233777,0.0005086923400874355,0.07682823416486384,0.0004963891603440018,-0.13253143141829782
621,0.6116,525.03,517.287,0.00210539,521.142,0.742744,0.765502,0.0706035,0.0741254,-0.142382,0.388899,0.000509528,0.000497259,0.267469,0.07315563529120817,0.47535553289892785,0.0005096578314414124,0.07694184553646277,0.0004973826537517656,-0.13271011153874135
622,0.6126,525.157,517.407,0.00209627,521.266,0.743819,0.766569,0.0707048,0.0742309,-0.142588,0.389458,0.000510493,0.000498254,0.267859,0.07326435146344434,0.47618048719506234,0.0005106233237270885,0.07705546889469361,0.0004983781491427752,-0.13288875485487106
623,0.6136,525.284,517.526,0.00208714,521.389,0.744895,0.767638,0.0708061,0.0743363,-0.142793,0.390016,0.00051146,0.000499249,0.268248,0.07337307864918663,0.4770044257643993,0.0005115908179675888,0.07716899652391596,0.0004993736455241038,-0.13306649444119578
624,0.6146,525.411,517.646,0.002078,521.512,0.745972,0.768708,0.0709073,0.0744417,-0.142999,0.390575,0.000512427,0.000500245,0.268638,0.07348170950137423,0.4778303020493173,0.0005125583131435629,0.07728253611958125,0.0005003701433965446,-0.1332450643500087
625,0.6156,525.538,517.765,0.00206886,521.635,0.74705,0.76978,0.0710085,0.0745471,-0.143204,0.391133,0.000513395,0.000501243,0.269028,0.07359035134756042,0.4786551614722372,0.000513526809768905,0.07739608768295048,0.0005013686432642217,-0.13342273090037338
626,0.6166,525.664,517.884,0.00205972,521.757,0.748131,0.770853,0.0711097,0.0746524,-0.14341,0.391691,0.000514364,0.000502241,0.269417,0.07369900418885789,0.47948048129515475,0.0005144963078460574,0.07750954346432559,0.000502367144128435,-0.13360122743203395
627,0.6176,525.79,518.002,0.00205056,521.88,0.749212,0.771927,0.0712108,0.0747577,-0.143615,0.392249,0.000515334,0.00050324,0.269806,0.07380756064561789,0.4803062617750449,0.0005154668073781288,0.07762301119322346,0.0005033666464924202,-0.1337788209764501
628,0.6186,525.916,518.121,0.0020414,522.002,0.750295,0.773003,0.0713119,0.0748629,-0.14382,0.392806,0.000516305,0.00050424,0.270195,0.0739161280779903,0.4811310220372631,0.0005164383083682278,0.07773638309725861,0.0005043671503592861,-0.13395637811792116
629,0.6196,526.042,518.239,0.00203224,522.124,0.75138,0.77408,0.071413,0.0749681,-0.144025,0.393364,0.000517276,0.00050524,0.270584,0.07402470648708515,0.4819577237758945,0.0005174098103013502,0.07784976692864531,0.000505367655226685,-0.1341338988639088
630,0.6206,526.167,518.357,0.00202307,522.246,0.752466,0.775159,0.071514,0.0750732,-0.14423,0.393921,0.000518248,0.000506242,0.270973,0.07413318846068773,0.48278340415867715,0.0005183823136962751,0.0779630548923278,0.0005063701621073058,-0.13431138322187341
631,0.6216,526.293,518.476,0.00201389,522.367,0.753553,0.77624,0.071615,0.0751783,-0.144435,0.394478,0.000519221,0.000507244,0.271362,0.07424168139152298,0.48360954457354,0.0005193558185558889,0.07807635476320085,0.0005073726699924563,-0.1344888311992738
632,0.6226,526.418,518.593,0.0020047,522.489,0.754642,0.777321,0.0717159,0.0752834,-0.14464,0.395035,0.000520195,0.000508248,0.27175,0.0743500778456847,0.48443614527679224,0.0005203303248830782,0.07818966654251613,0.0005083771798990444,-0.1346662428035672
633,0.6236,526.543,518.711,0.00199551,522.61,0.755732,0.778405,0.0718168,0.0753884,-0.144845,0.395591,0.00052117,0.000509252,0.272139,0.07445848523760024,0.4852617212624222,0.0005213058326807296,0.07830288240123173,0.000509381690813937,-0.13484361804220935
634,0.6246,526.667,518.828,0.00198632,522.731,0.756824,0.779489,0.0719177,0.0754934,-0.14505,0.396148,0.000522145,0.000510257,0.272527,0.07456690356837337,0.486089242484431,0.0005222813414293981,0.07841611014823657,0.0005103872032476975,-0.13502095692265437
635,0.6256,526.792,518.946,0.00197711,522.852,0.757917,0.780575,0.0720185,0.0755983,-0.145254,0.396704,0.000523122,0.000511263,0.272915,0.07467522537158033,0.4869157378476716,0.0005232588521759673,0.07852924193184929,0.0005113937172036565,-0.1351973946501821
636,0.6266,526.916,519.063,0.0019679,522.973,0.759012,0.781663,0.0721193,0.0757032,-0.145459,0.39726,0.000524099,0.00051227,0.273303,0.07478355809417536,0.48774269287010763,0.0005242363638773284,0.0786423855836087,0.0005124012326842564,-0.13537466101385576
637,0.6276,527.041,519.18,0.00195869,523.093,0.760108,0.782752,0.0722201,0.0758081,-0.145663,0.397815,0.000525077,0.000513278,0.273691,0.07489190173725913,0.4885686192380172,0.0005252148770589216,0.0787555411047598,0.0005134097496930501,-0.13555102659310814
638,0.6286,527.165,519.296,0.00194946,523.214,0.761206,0.783843,0.0723208,0.0759129,-0.145868,0.398371,0.000526055,0.000514287,0.274078,0.0750001488019123,0.48939649351803616,0.000526193391197527,0.07886860060968215,0.000514419268232924,-0.1357282204696637
639,0.6296,527.288,519.413,0.00194023,523.334,0.762305,0.784935,0.0724215,0.0760176,-0.146072,0.398926,0.000527035,0.000515297,0.274466,0.07510840676759356,0.49022333800005846,0.0005271739073475779,0.07898156406569967,0.0005154297883065428,-0.13590451393014358
640,0.6306,527.412,519.529,0.001931,523.454,0.763405,0.786028,0.0725222,0.0761224,-0.146276,0.399481,0.000528016,0.000516308,0.274853,0.07521667563540113,0.49105064150813615,0.0005281554249865206,0.07909464725906967,0.0005164413099174592,-0.13608077143042552
641,0.6316,527.535,519.645,0.00192175,523.573,0.764507,0.787123,0.0726228,0.0762271,-0.146481,0.400036,0.000528997,0.000517319,0.27524,0.07532484787394256,0.4918784042970994,0.0005291369435884707,0.0792076343834105,0.0005174528325508909,-0.1362578567204199
642,0.6326,527.659,519.761,0.0019125,523.693,0.765611,0.78822,0.0727234,0.0763317,-0.146685,0.400591,0.000529979,0.000518331,0.275627,0.0754330309951583,0.49270662662192,0.0005301194636833095,0.07932052540606449,0.000518465356725617,-0.13643404214612442
643,0.6336,527.782,519.877,0.00190324,523.812,0.766716,0.789318,0.0728239,0.0764363,-0.146889,0.401145,0.000530962,0.000519345,0.276014,0.07554111744602654,0.493533815203149,0.0005311029852741456,0.07943342823773714,0.000519479882963747,-0.13661019163366805
644,0.6346,527.905,519.993,0.00189398,523.932,0.767822,0.790417,0.0729244,0.0765409,-0.147093,0.401699,0.000531946,0.000520359,0.276401,0.07564921476012887,0.4943614621738144,0.0005320875083638654,0.07954634287966367,0.0005204944102308318,-0.13678630519038126
645,0.6356,528.027,520.108,0.00188471,524.051,0.76893,0.791518,0.0730249,0.0766454,-0.147297,0.402253,0.00053293,0.000521374,0.276788,0.0757573229385573,0.4951895677879339,0.0005330720324223659,0.07965916136715778,0.0005215099390478706,-0.1369623828235932
646,0.6366,528.15,520.223,0.00187543,524.17,0.770039,0.79262,0.0731253,0.0767499,-0.1475,0.402807,0.000533916,0.00052239,0.277174,0.07586533439586463,0.4960181322996664,0.000534058558517847,0.07977199164480009,0.0005225264694184162,-0.13713756167862456
647,0.6376,528.272,520.338,0.00186614,524.288,0.77115,0.793724,0.0732257,0.0768544,-0.147704,0.403361,0.000534902,0.000523407,0.277561,0.07597335669806693,0.49684715596331186,0.0005350450855858835,0.07988483371382227,0.0005235440013453552,-0.13731356766282143
648,0.6386,528.394,520.453,0.00185685,524.407,0.772262,0.79483,0.0733261,0.0769588,-0.147908,0.403914,0.000535889,0.000524425,0.277947,0.07608138984625268,0.49767514135742075,0.0005360326141627958,0.07999757957569376,0.0005245625348315741,-0.13748953774545947
649,0.6396,528.516,520.568,0.00184755,524.525,0.773376,0.795936,0.0734264,0.0770631,-0.148111,0.404467,0.000536877,0.000525444,0.278333,0.07618932622257302,0.4985035847540784,0.0005370211442512485,0.08011022919781907,0.0005255820698801816,-0.1376646095989028
650,0.6406,528.638,520.682,0.00183824,524.643,0.774491,0.797045,0.0735267,0.0771674,-0.148315,0.40502,0.000537866,0.000526464,0.278719,0.07629727342545478,0.4993324864066304,0.0005380106758545722,0.08022289056991272,0.0005266026064942864,-0.1378405080762899
651,0.6416,528.76,520.797,0.00182892,524.761,0.775608,0.798154,0.0736269,0.0772717,-0.148518,0.405573,0.000538856,0.000527484,0.279104,0.07640512381546638,0.5001618465685627,0.0005390012089754315,0.0803355636932006,0.0005276231441495582,-0.13801550868998724
652,0.6426,528.881,520.911,0.0018196,524.879,0.776726,0.799266,0.0737271,0.077376,-0.148722,0.406126,0.000539846,0.000528506,0.27949,0.07651298501262849,0.5009916654935007,0.0005399917430768397,0.08044824856890775,0.000528645683902873,-0.13819133559126073
653,0.6436,529.002,521.025,0.00181027,524.997,0.777845,0.800378,0.0738273,0.0774802,-0.148925,0.406678,0.000540837,0.000529528,0.279876,0.07662085701802401,0.501820441614018,0.0005409832787000024,0.08056083714217155,0.0005296682247013518,-0.13836626499420057
654,0.6446,529.123,521.139,0.00180093,525.114,0.778966,0.801492,0.0739274,0.0775843,-0.149128,0.40723,0.00054183,0.000530552,0.280261,0.07672863215986725,0.502649675345243,0.0005419768163896777,0.08067332938043736,0.0005306927676060891,-0.1385411588900758
655,0.6456,529.244,521.253,0.00179158,525.231,0.780089,0.802608,0.0740275,0.0776884,-0.149331,0.407782,0.000542823,0.000531576,0.280646,0.07683641809054231,0.5034793669398461,0.0005429703550661191,0.08078583332975486,0.0005317173115599871,-0.1387160172860934
656,0.6466,529.365,521.366,0.00178223,525.348,0.781213,0.803725,0.0741276,0.0777925,-0.149534,0.408334,0.000543817,0.000532601,0.281031,0.07694421481112901,0.5043095166506377,0.0005439648952727527,0.08089834899134307,0.0005327428570958137,-0.1388908401894593
657,0.6476,529.486,521.479,0.00177287,525.465,0.782339,0.804844,0.0742276,0.0778966,-0.149737,0.408885,0.000544811,0.000533628,0.281416,0.07705191461751082,0.5051386195911962,0.0005449594364681509,0.08101087636642124,0.0005337704047505554,-0.13906562760737762
658,0.6486,529.606,521.592,0.0017635,525.582,0.783466,0.805964,0.0743276,0.0780006,-0.14994,0.409437,0.000545807,0.000534655,0.281801,0.07715962519441155,0.5059696854622884,0.0005459559797440505,0.08112330734387285,0.000534797953460231,-0.13924037954705137
659,0.6496,529.726,521.705,0.00175412,525.698,0.784594,0.807086,0.0744276,0.0781045,-0.150143,0.409988,0.000546804,0.000535683,0.282185,0.07726734654290857,0.5067997034079228,0.0005469535245594681,0.0812356418911846,0.000535826503761383,-0.1394150960156817
660,0.6506,529.846,521.818,0.00174474,525.815,0.785724,0.808209,0.0745275,0.0782084,-0.150346,0.410539,0.000547801,0.000536712,0.28257,0.07737497092657675,0.5076301788194653,0.0005479510703694235,0.08134798811066224,0.0005368560556564539,-0.1395897770204687
661,0.6516,529.966,521.931,0.00173534,525.931,0.786855,0.809333,0.0746274,0.0783123,-0.150548,0.411089,0.000548799,0.000537742,0.282954,0.07748260606245783,0.5084596034886915,0.0005489496177228936,0.08146034600351837,0.0005378866091489964,-0.13976356233260312
662,0.6526,530.086,522.043,0.00172594,526.047,0.787988,0.810459,0.0747272,0.0784161,-0.150751,0.41164,0.000549798,0.000538773,0.283338,0.07759014419260635,0.5092909937571986,0.0005499491666227652,0.08157260741369998,0.0005389181642416752,-0.13993817260590724
663,0.6536,530.205,522.155,0.00171653,526.163,0.789123,0.811587,0.074827,0.0785199,-0.150953,0.41219,0.000550798,0.000539804,0.283722,0.0776976930555957,0.5101213321258848,0.0005509497170723687,0.08168488047722056,0.0005399497203981696,-0.14011188754924087
664,0.6546,530.324,522.267,0.00170712,526.279,0.790259,0.812716,0.0749268,0.0786237,-0.151156,0.41274,0.000551799,0.000540837,0.284106,0.07780525265249727,0.5109521273062858,0.0005519512690741468,0.08179716519529023,0.0005409832787000024,-0.14028642711970263
665,0.6556,530.443,522.379,0.00169769,526.394,0.791396,0.813847,0.0750266,0.0787274,-0.151358,0.41329,0.000552801,0.000541871,0.28449,0.0779128229843824,0.5117833795497166,0.0005529538226316522,0.08190935337817762,0.0005420178386117414,-0.140460071722729
666,0.6566,530.562,522.491,0.00168826,526.509,0.792535,0.814979,0.0751263,0.0788311,-0.15156,0.413839,0.000553803,0.000542905,0.284873,0.07802029625028717,0.5126135764932986,0.0005539563771936873,0.08202155319558302,0.0005430523995930692,-0.14063368125308817
667,0.6576,530.681,522.603,0.00167882,526.625,0.793675,0.816112,0.0752259,0.0789347,-0.151763,0.414389,0.000554806,0.000543941,0.285257,0.07812767241903806,0.5134457427851227,0.0005549599333152244,0.08213365643534165,0.0005440889627321699,-0.14080811491017853
668,0.6586,530.8,522.714,0.00166937,526.74,0.794817,0.817247,0.0753256,0.0790383,-0.151965,0.414938,0.000555811,0.000544977,0.28564,0.07823516710649936,0.5142768526166857,0.0005559654915552326,0.08224577128959742,0.0005451255269453004,-0.14098165414291408
669,0.6596,530.918,522.825,0.00165991,526.854,0.79596,0.818384,0.0754252,0.0791419,-0.152167,0.415487,0.000556816,0.000546015,0.286023,0.07834256467745337,0.5151084188528179,0.0005569710508057657,0.08235789775955404,0.0005461640933246414,-0.14115515832426495
670,0.6606,531.036,522.936,0.00165044,526.969,0.797105,0.819522,0.0755247,0.0792454,-0.152369,0.416036,0.000557822,0.000547053,0.286406,0.07844986510074636,0.515940441744154,0.0005579776116251267,0.08246992759941629,0.0005472026607820091,-0.1413286274613108
671,0.6616,531.155,523.047,0.00164096,527.083,0.798251,0.820661,0.0756242,0.0793488,-0.152571,0.416584,0.000558829,0.000548093,0.286789,0.0785571762009627,0.5167714047693037,0.0005589851740157581,0.08258186077677565,0.000548243230413803,-0.14150206156112977
672,0.6626,531.272,523.158,0.00163148,527.198,0.799399,0.821802,0.0757237,0.0794523,-0.152773,0.417133,0.000559837,0.000549133,0.287172,0.07866449797916464,0.5176043408905666,0.0005599937379812125,0.08269391379800983,0.0005492838011278423,-0.14167546063079872
673,0.6636,531.39,523.269,0.00162199,527.312,0.800548,0.822945,0.0758232,0.0795557,-0.152974,0.417681,0.000560845,0.000550174,0.287555,0.07877183043641467,0.5184362159823319,0.0005610023029631872,0.08280587013673957,0.0005503253734744362,-0.1418479665257888
674,0.6646,531.508,523.379,0.00161248,527.426,0.801699,0.824089,0.0759226,0.079659,-0.153176,0.418229,0.000561855,0.000551216,0.287937,0.07887906568586356,0.5192685470665779,0.0005620128700858373,0.08291772976057477,0.0005513679474566935,-0.14202129572971156
675,0.6656,531.625,523.489,0.00160297,527.54,0.802851,0.825234,0.076022,0.0797623,-0.153378,0.418777,0.000562865,0.000552259,0.288319,0.07898631159502623,0.520101334393257,0.0005630234382292265,0.08302960094010592,0.0005524115230777227,-0.14219458992467116
676,0.6666,531.742,523.599,0.00159346,527.653,0.804005,0.826381,0.0761213,0.0798656,-0.153579,0.419324,0.000563876,0.000553303,0.288702,0.07909346025561059,0.520933057278641,0.0005640350079572087,0.08314148367652696,0.0005534561003406324,-0.14236699148515908
677,0.6676,531.859,523.709,0.00158393,527.767,0.80516,0.82753,0.0762206,0.0799688,-0.15378,0.419872,0.000564889,0.000554348,0.289084,0.07920061955658508,0.5217667570068918,0.0005650485798380789,0.08325326964569912,0.0005545016792485313,-0.14253935839641563
678,0.6686,531.976,523.819,0.00157439,527.88,0.806317,0.82868,0.0763199,0.080072,-0.153982,0.420419,0.000565902,0.000555394,0.289465,0.07930778949900663,0.5225993911276456,0.0005660621527456833,0.08336506715177872,0.000555548259804528,-0.14271254795328547
679,0.6696,532.093,523.929,0.00156484,527.993,0.807475,0.829831,0.0764192,0.0801752,-0.154183,0.420966,0.000566915,0.000556441,0.289847,0.07941497008393195,0.523432480823852,0.0005670757266800219,0.08347687619595612,0.0005565958420119532,-0.14288484541467183
680,0.6706,532.21,524.038,0.00155529,528.106,0.808635,0.830984,0.0765184,0.0802783,-0.154384,0.421513,0.00056793,0.000557489,0.290229,0.07952205336020701,0.5242660263447789,0.0005680913027772405,0.08358858842055805,0.0005576444258739155,-0.14305710824774887
681,0.6716,532.326,524.147,0.00154572,528.219,0.809796,0.832139,0.0766175,0.0803814,-0.154585,0.422059,0.000568946,0.000558538,0.29061,0.07962903929676046,0.5250985028405653,0.0005691078804743732,0.08370031216328422,0.0005586940113935235,-0.1432293364594759
682,0.6726,532.442,524.256,0.00153615,528.332,0.810958,0.833295,0.0767167,0.0804844,-0.154787,0.422605,0.000569963,0.000559588,0.290992,0.0797361438097548,0.5259314339926282,0.0005701254597745287,0.08381193904412276,0.0005597445985736638,-0.14340238665485294
683,0.6736,532.558,524.365,0.00152657,528.444,0.812123,0.834452,0.0768157,0.0805874,-0.154988,0.423152,0.00057098,0.000560639,0.291373,0.07984304297941347,0.5267663468148613,0.000571143040109634,0.08392357742312218,0.0005607961874178891,-0.14357454547259452
684,0.6746,532.674,524.474,0.00151698,528.556,0.813288,0.835611,0.0769148,0.0806904,-0.155188,0.423697,0.000571998,0.00056169,0.291754,0.07995006072761468,0.5275986612589598,0.0005721616220517589,0.08403522730146684,0.0005618477773672303,-0.1437458134361328
685,0.6756,532.79,524.583,0.00150738,528.669,0.814455,0.836772,0.0770138,0.0807933,-0.155389,0.424243,0.000573018,0.000562743,0.292135,0.08005698107609671,0.5284329578702558,0.0005731822061769698,0.0841467802656577,0.0005629013695478413,-0.14391790323202824
686,0.6766,532.905,524.691,0.00149777,528.781,0.815624,0.837934,0.0771128,0.0808962,-0.15559,0.424789,0.000574038,0.000563797,0.292515,0.08016391201021711,0.5292677101318826,0.0005742027913433478,0.0842583447092391,0.0005639559634016411,-0.14408995844135075
687,0.6776,533.021,524.799,0.00148815,528.892,0.816794,0.839097,0.0772118,0.080999,-0.155791,0.425334,0.000575059,0.000564851,0.292896,0.08027085353102392,0.5301013881905401,0.0005752243781258493,0.08436981219640605,0.0005650105583669962,-0.14426197907105165
688,0.6786,533.136,524.908,0.00147852,529.004,0.817966,0.840262,0.0773107,0.0811018,-0.155991,0.425879,0.000576081,0.000565907,0.293277,0.08037769760179048,0.5309355207275739,0.0005762469665278047,0.0844812911430195,0.0005660671555760555,-0.14443310956161792
689,0.6796,533.251,525.016,0.00146888,529.115,0.819139,0.841429,0.0774096,0.0812045,-0.156192,0.426424,0.000577104,0.000566963,0.293657,0.08048455223995798,0.5317701079907418,0.0005772705565521008,0.08459267309098495,0.0005671237539006668,-0.14460506122487493
690,0.6806,533.366,525.123,0.00145923,529.227,0.820314,0.842597,0.0775084,0.0813073,-0.156392,0.426969,0.000578128,0.000568021,0.294037,0.08059130938743553,0.5326051502279374,0.0005782951482016241,0.08470417494887594,0.0005681823544776421,-0.14477612310587173
691,0.6816,533.481,525.231,0.00144957,529.338,0.82149,0.843767,0.0776072,0.0814099,-0.156593,0.427513,0.000579152,0.00056908,0.294417,0.08069807708304033,0.5334391142473078,0.0005793197409005302,0.08481547130663136,0.0005692419567437934,-0.14494800583033496
692,0.6826,533.595,525.339,0.0014399,529.449,0.822668,0.844938,0.077706,0.0815126,-0.156793,0.428057,0.000580178,0.000570139,0.294797,0.08080485532781467,0.5342735320665275,0.0005803463358091676,0.084926887576662,0.0005703015601321582,-0.14511899912926896
693,0.6836,533.71,525.446,0.00143022,529.56,0.823847,0.84611,0.0778048,0.0816152,-0.156993,0.428602,0.000581204,0.000571199,0.295177,0.08091164412280061,0.5351099390417016,0.0005813729317711847,0.08503820678590523,0.0005713621652139178,-0.14528995823296287
694,0.6846,533.824,525.553,0.00142054,529.671,0.825028,0.847284,0.0779035,0.0817177,-0.157193,0.429145,0.000582232,0.000572261,0.295556,0.08101833536720182,0.5359437300923846,0.0005824015299511487,0.08514942890213684,0.0005724247725646947,-0.145460883148255
695,0.6856,533.938,525.66,0.00141084,529.781,0.82621,0.84846,0.0780021,0.0818203,-0.157394,0.429689,0.00058326,0.000573323,0.295936,0.0811249290300502,0.536779510793294,0.0005834301291887112,0.08526077094529128,0.0005734873810441243,-0.1456326282497813
696,0.6866,534.052,525.767,0.00140113,529.891,0.827394,0.849637,0.0781008,0.0819227,-0.157594,0.430233,0.000584289,0.000574387,0.296315,0.08123164132671068,0.5376157462825961,0.0005844597300679322,0.08537190733832234,0.0005745519918010089,-0.14580348463792303
697,0.6876,534.166,525.874,0.00139142,530.002,0.828579,0.850816,0.0781994,0.0820252,-0.157793,0.430776,0.000585319,0.000575451,0.296694,0.08133825602256373,0.5384508983560952,0.0005854903325923644,0.0854831636606137,0.0005756166036907651,-0.14597345283208385
698,0.6886,534.28,525.98,0.00138169,530.112,0.829765,0.851996,0.0782979,0.0821276,-0.157993,0.431319,0.00058635,0.000576516,0.297074,0.0814447730866612,0.5392865040403143,0.0005865219367646723,0.08559432282782464,0.0005766822172899033,-0.1461442410621251
699,0.6896,534.393,526.087,0.00137195,530.222,0.830954,0.853178,0.0783965,0.0822299,-0.158193,0.431862,0.000587382,0.000577583,0.297452,0.08155140879834177,0.5401225635816311,0.0005875545425881867,0.08570538480777334,0.0005777498331793751,-0.1463149951379359
700,0.6906,534.506,526.193,0.0013622,530.331,0.832144,0.854361,0.078495,0.0823323,-0.158393,0.432405,0.000588415,0.00057865,0.297831,0.08165794685902172,0.5409590772265567,0.0005885881500657941,0.0858165667315951,0.0005788174502079357,-0.14648571506634644
701,0.6916,534.619,526.299,0.00135245,530.441,0.833335,0.855546,0.0785934,0.0824346,-0.158592,0.432947,0.000589449,0.000579718,0.29821,0.08176438723777335,0.5417945034264622,0.0005896227592008252,0.08592765144825809,0.0005798860689556484,-0.14665554751015963
702,0.6926,534.732,526.405,0.00134268,530.551,0.834528,0.856732,0.0786918,0.0825368,-0.158792,0.433489,0.000590483,0.000580788,0.298588,0.08187083809077356,0.5426303825500993,0.0005906573694056672,0.0860386389255996,0.0005809566900065732,-0.14682619933490626
703,0.6936,534.845,526.511,0.0013329,530.66,0.835722,0.85792,0.0787902,0.082639,-0.158992,0.434031,0.000591519,0.000581858,0.298967,0.0819772994190533,0.543466714843019,0.0005916939818637612,0.0861496377464408,0.0005820273122030262,-0.14699681703270073
704,0.6946,534.958,526.616,0.00132311,530.769,0.836918,0.859109,0.0788886,0.0827412,-0.159191,0.434573,0.000592555,0.000582929,0.299345,0.08208377122364285,0.544303500550906,0.000592730595395663,0.08626064791194143,0.0005830989361281791,-0.14716654777734206
705,0.6956,535.07,526.722,0.00131331,530.878,0.838115,0.8603,0.0789869,0.0828433,-0.15939,0.435115,0.000593593,0.000584002,0.299723,0.08219014528655366,0.5451407399195776,0.0005937692111890325,0.08637156078609909,0.0005841725623692007,-0.1473362447489257
706,0.6966,535.183,526.827,0.0013035,530.987,0.839314,0.861493,0.0790852,0.0829454,-0.15959,0.435656,0.000594631,0.000585075,0.300101,0.08229652980654878,0.5459768872173245,0.0005948078280604285,0.08648248498503941,0.0005852461897624117,-0.14750676044783761
707,0.6976,535.295,526.932,0.00129368,531.095,0.840514,0.862687,0.0791834,0.0830475,-0.159789,0.436198,0.00059567,0.000586149,0.300479,0.08240281654436932,0.546815033807404,0.0005958474466059016,0.08659342050991858,0.0005863208188938707,-0.14767638972383568
708,0.6986,535.407,527.037,0.00128385,531.204,0.841716,0.863882,0.0792816,0.0831495,-0.159988,0.436739,0.000596711,0.000587224,0.300857,0.08250911372005976,0.5476520871432053,0.0005968890674252769,0.0867042586914617,0.0005873964497669082,-0.14784598524696646
709,0.6996,535.519,527.142,0.00127401,531.312,0.84292,0.865079,0.0793798,0.0832514,-0.160187,0.43728,0.000597752,0.000588301,0.301234,0.08261542133464572,0.5484895934473784,0.000597930689328896,0.08681499949757066,0.0005884740829733559,-0.14801554702394593
710,0.7006,535.631,527.247,0.00126416,531.421,0.844125,0.866277,0.079478,0.0833534,-0.160386,0.43782,0.000598794,0.000589378,0.301612,0.08272173938915173,0.5493260036382666,0.000598973312915918,0.08692586028132321,0.0005895517173402087,-0.14818507506148904
711,0.7016,535.742,527.352,0.00125429,531.529,0.845331,0.867477,0.0795761,0.0834553,-0.160585,0.438361,0.000599837,0.000590456,0.301989,0.082827959601802,0.5501644157762693,0.0006000169381894516,0.0870366236697846,0.000590630353458188,-0.14835456936630909
712,0.7026,535.854,527.456,0.00124442,531.637,0.846539,0.868679,0.0796741,0.0835571,-0.160784,0.438901,0.000600881,0.000591535,0.302366,0.08293408194175278,0.5510017306154484,0.0006010615651523832,0.08714728963087603,0.0005917099913308466,-0.14852402994511837
713,0.7036,535.965,527.56,0.00123453,531.744,0.847749,0.869882,0.0797722,0.0836589,-0.160982,0.439441,0.000601926,0.000592615,0.302743,0.08304032298622932,0.5518394977267431,0.0006021071938080436,0.08725796685833576,0.0005927906309612929,-0.14869260549765873
714,0.7046,536.076,527.665,0.00122464,531.852,0.84896,0.871087,0.0798702,0.0837607,-0.161181,0.439981,0.000602971,0.000593697,0.30312,0.08314646613881149,0.5526777173544462,0.0006031528235563854,0.08736865535331084,0.0005938732729464657,-0.14886199881397078
715,0.7056,536.187,527.768,0.00121473,531.959,0.850172,0.872293,0.0799682,0.0838625,-0.16138,0.44052,0.000604018,0.000594779,0.303497,0.08325261969393227,0.5535148362273699,0.000604200455605719,0.08747935511694815,0.0005949559161029239,-0.14903135842436666
716,0.7066,536.298,527.872,0.00120481,532.067,0.851387,0.873501,0.0800661,0.0839642,-0.161578,0.44106,0.000605066,0.000595862,0.303873,0.08335867531673835,0.5543539607821717,0.0006052490893573292,0.08758995739139386,0.0005960395610271618,-0.14919983353581223
717,0.7076,536.409,527.976,0.00119489,532.174,0.852602,0.87471,0.080164,0.0840658,-0.161777,0.441599,0.000606115,0.000596946,0.30425,0.08346474132289816,0.5551919833938386,0.0006062987248141027,0.08770046214461114,0.0005971242077218442,-0.14936912592378726
718,0.7086,536.519,528.08,0.00118495,532.281,0.853819,0.875921,0.0802619,0.0841675,-0.161975,0.442138,0.000607164,0.000598032,0.304626,0.08357081771342822,0.5560304578214463,0.0006073483613719954,0.08781108690678519,0.0005982108567887945,-0.14953753416388837
719,0.7096,536.63,528.183,0.00117499,532.388,0.855038,0.877133,0.0803597,0.084269,-0.162173,0.442677,0.000608215,0.000599118,0.305002,0.08367679612166024,0.5568693843085899,0.0006084000002477552,0.08792150533574672,0.0005992975070359119,-0.14970590906245895
720,0.7106,536.74,528.286,0.00116503,532.494,0.856258,0.878347,0.0804575,0.0843706,-0.162372,0.443216,0.000609266,0.000600205,0.305378,0.08378278489508761,0.557708763098995,0.000609451640228853,0.08803204377594631,0.0006003851590632436,-0.14987510075142407
721,0.7116,536.85,528.389,0.00115506,532.601,0.85748,0.879562,0.0805553,0.0844721,-0.16257,0.443754,0.000610318,0.000601294,0.305754,0.08388878403472377,0.5585470358887032,0.0006105042819257722,0.08814248463316843,0.000601474813476166,-0.15004340881842682
722,0.7126,536.96,528.492,0.00114507,532.707,0.858703,0.880779,0.080653,0.0845736,-0.162768,0.444292,0.000611372,0.000602383,0.30613,0.08399468514210873,0.5593857597905108,0.000611558925952993,0.08825293670070633,0.0006025644690754728,-0.15021168356373127
723,0.7136,537.07,528.595,0.00113508,532.814,0.859928,0.881998,0.0807507,0.084675,-0.162966,0.444831,0.000612426,0.000603473,0.306505,0.08410059659653757,0.5602264952728959,0.0006126135710919911,0.08836329114336339,0.0006036551264652079,-0.15037992499393438
724,0.7146,537.179,528.698,0.00112507,532.92,0.861155,0.883218,0.0808483,0.0847764,-0.163164,0.445368,0.000613481,0.000604564,0.306881,0.08420640997837436,0.5610645619016079,0.0006136692179561365,0.0884736567765283,0.0006047467856484801,-0.15054813311563198
725,0.7156,537.289,528.8,0.00111505,533.026,0.862383,0.884439,0.0809459,0.0848777,-0.163362,0.445906,0.000614537,0.000605657,0.307256,0.08431223368810126,0.5619046405968171,0.0006147258665487598,0.08858392474293808,0.0006058404472342183,-0.15071630793541846
726,0.7166,537.398,528.903,0.00110502,533.132,0.863612,0.885662,0.0810435,0.0849791,-0.16356,0.446444,0.000615594,0.00060675,0.307631,0.08441806772672633,0.5627451713759639,0.0006157835168729697,0.08869431274948436,0.0006069341100156667,-0.1508844494598871
727,0.7176,537.507,529.005,0.00109497,533.237,0.864843,0.886887,0.0811411,0.0850803,-0.163757,0.446981,0.000616652,0.000607845,0.308006,0.08452391209525767,0.5635845908969623,0.0006168421689318748,0.08880449418902137,0.0006080297752082409,-0.15105170874776264
728,0.7186,537.616,529.107,0.00108492,533.343,0.866076,0.888113,0.0812386,0.0851816,-0.163955,0.447518,0.000617711,0.00060894,0.308381,0.08462965833173208,0.5644244613072964,0.0006179018227288058,0.08891479567095839,0.0006091254416007441,-0.15121978386944446
729,0.7196,537.725,529.209,0.00107485,533.448,0.86731,0.889341,0.0813361,0.0852828,-0.164153,0.448055,0.000618771,0.000610036,0.308756,0.08473541487896741,0.5652647828491588,0.0006189624782668712,0.08902499942449627,0.0006102221098032157,-0.15138782571554654
730,0.7206,537.834,529.311,0.00106477,533.554,0.868545,0.89057,0.0814335,0.0853839,-0.16435,0.448591,0.000619832,0.000611134,0.309131,0.08484107325385581,0.5661039896600997,0.0006200241355494018,0.08913510541770209,0.0006113207804303578,-0.15155498584806693
731,0.7216,537.942,529.413,0.00105468,533.659,0.869782,0.891801,0.081531,0.0854851,-0.164548,0.449128,0.000620894,0.000612232,0.309505,0.08494685041505101,0.5669452133508928,0.0006210867945792842,0.08924533146771463,0.0006124194522636461,-0.15172296133074747
732,0.7226,538.051,529.514,0.00104458,533.764,0.871021,0.893034,0.0816283,0.0855862,-0.164745,0.449664,0.000621957,0.000613332,0.30988,0.08505242087951626,0.567785321114016,0.0006221504553598489,0.08935545973761605,0.0006135201265304868,-0.15189005544805434
733,0.7236,538.159,529.616,0.00103446,533.868,0.872261,0.894268,0.0817257,0.0856872,-0.164942,0.4502,0.000623021,0.000614432,0.310254,0.08515811013229291,0.5686258792956018,0.0006232151178942047,0.08946549019549432,0.0006146208020079147,-0.15205711665106225
734,0.7246,538.267,529.717,0.00102434,533.973,0.873503,0.895503,0.081823,0.0857882,-0.165139,0.450736,0.000624086,0.000615534,0.310628,0.0852637011533286,0.569466888137139,0.0006242807821859042,0.08957553176700972,0.0006157234799277767,-0.1522241449462548
735,0.7256,538.375,529.818,0.0010142,534.078,0.874747,0.89674,0.0819203,0.0858892,-0.165337,0.451272,0.000625151,0.000616637,0.311002,0.08536930244887064,0.5703083478802458,0.0006253464476124737,0.08968558445328534,0.0006168271596793673,-0.1523919879485498
736,0.7266,538.483,529.919,0.00100405,534.182,0.875991,0.897979,0.0820175,0.0859901,-0.165534,0.451807,0.000626218,0.00061774,0.311376,0.08547480547243236,0.5711486876171976,0.0006264141154266323,0.08979553927588424,0.0006179308406484285,-0.1525589502805943
737,0.7276,538.591,530.02,0.000993883,534.286,0.877238,0.899219,0.0821147,0.086091,-0.165731,0.452343,0.000627286,0.000618845,0.31175,0.08558031875138661,0.5719910490464561,0.0006274827850076825,0.0899055051934845,0.0006190365240728024,-0.15272587972429896
738,0.7286,538.698,530.12,0.000983707,534.39,0.878486,0.900461,0.0822119,0.0861919,-0.165928,0.452878,0.000628354,0.000619951,0.312123,0.08568584228673015,0.5728322892693902,0.00062855145572982,0.09001548220720546,0.0006201432093393411,-0.15289277628614217
739,0.7296,538.806,530.221,0.000973519,534.494,0.879735,0.901704,0.0823091,0.0862927,-0.166124,0.453413,0.000629424,0.000621057,0.312497,0.08579137607945952,0.5736739796762571,0.0006296221288526471,0.09012536130562543,0.0006212498958295676,-0.15305879303181757
740,0.7306,538.913,530.321,0.000963318,534.598,0.880986,0.902949,0.0824062,0.0863935,-0.166321,0.453947,0.000630494,0.000622165,0.31287,0.08589681154088558,0.5745145459926364,0.0006306928031212244,0.09023525148041678,0.0006223585847886515,-0.15322562401619877
741,0.7316,539.02,530.422,0.000953105,534.702,0.882239,0.904195,0.0825032,0.0864942,-0.166518,0.454482,0.000631566,0.000623274,0.313243,0.08600214864037192,0.5753571366476451,0.0006317654797989292,0.0903450436981863,0.0006234682755996701,-0.1533924221381131
742,0.7326,539.127,530.522,0.000942879,534.805,0.883493,0.905443,0.0826003,0.0865949,-0.166715,0.455016,0.000632639,0.000624384,0.313616,0.0861076045688074,0.5761986020098708,0.0006328391582592907,0.09045484697258876,0.0006245789682659542,-0.15355918740403385
743,0.7336,539.234,530.622,0.000932641,534.909,0.884749,0.906693,0.0826973,0.0866956,-0.166911,0.45555,0.000633712,0.000625495,0.313989,0.08621296211620888,0.577040516834596,0.0006339128378716197,0.09056466130473773,0.0006256906627908343,-0.1537250735459298
744,0.7346,539.341,530.722,0.00092239,535.012,0.886006,0.907944,0.0827943,0.0867962,-0.167108,0.456084,0.000634786,0.000626607,0.314362,0.0863183298837884,0.5778828813618972,0.0006349875192712684,0.09067437762830366,0.0006268033591774191,-0.1538917732859777
745,0.7356,539.447,530.821,0.000912126,535.115,0.887265,0.909196,0.0828912,0.0868968,-0.167304,0.456618,0.000635862,0.000627719,0.314734,0.08642359923017162,0.5787256958319804,0.0006360642030969199,0.09078410498988676,0.0006279160568014586,-0.1540575942474286
746,0.7366,539.554,530.921,0.000901849,535.218,0.888526,0.910451,0.0829881,0.0869974,-0.1675,0.457152,0.000636938,0.000628833,0.315107,0.08652887877764859,0.5795689604851786,0.0006371408880814222,0.0908938433905977,0.0006290307569207787,-0.15422338271115588
747,0.7376,539.66,531.021,0.00089156,535.321,0.889788,0.911707,0.083085,0.0870979,-0.167697,0.457685,0.000638016,0.000629949,0.315479,0.08663416852720807,0.5804110951500685,0.0006382195755005871,0.09100348373119327,0.0006301474595422629,-0.1543899842939671
748,0.7386,539.766,531.12,0.000881258,535.424,0.891051,0.912964,0.0831818,0.0871984,-0.167893,0.458218,0.000639094,0.000631065,0.315851,0.08673935980589742,0.5812536787923768,0.0006392982640828215,0.0911131350911969,0.0006312641634098615,-0.15455570761562942
749,0.7396,539.872,531.219,0.000870942,535.526,0.892316,0.914223,0.0832786,0.0872988,-0.168089,0.458751,0.000640174,0.000632182,0.316223,0.08684456126759521,0.5820967116514721,0.0006403789551083783,0.09122268834944158,0.0006323818691562622,-0.1547213984587037
750,0.7406,539.978,531.318,0.000860614,535.629,0.893583,0.915483,0.0833754,0.0873992,-0.168285,0.459284,0.000641254,0.0006333,0.316595,0.08694977291328732,0.5829401939668508,0.0006414596473012235,0.09133225260738542,0.0006335005767845736,-0.15488705682955506
751,0.7416,540.084,531.417,0.000850273,535.731,0.894851,0.916745,0.0834721,0.0874996,-0.168481,0.459816,0.000642335,0.000634419,0.316967,0.08705488603846567,0.5837825421948026,0.000642541341303815,0.09144182786613331,0.0006346202862981265,-0.15505268273454753
752,0.7426,540.19,531.516,0.000839918,535.833,0.896121,0.918009,0.0835688,0.0875999,-0.168677,0.460349,0.000643417,0.00063554,0.317339,0.08716000932857493,0.5846269232973664,0.0006436240371192614,0.0915513049716532,0.00063574199833627,-0.1552182761800438
753,0.7436,540.295,531.614,0.00082955,535.935,0.897392,0.919274,0.0836655,0.0877002,-0.168873,0.460881,0.000644501,0.000636661,0.31771,0.08726514278459763,0.5854701691040569,0.0006447087353955716,0.09166079305827779,0.00063686371163163,-0.15538383717240523
754,0.7446,540.4,531.713,0.000819169,536.037,0.898665,0.920541,0.0837621,0.0878005,-0.169069,0.461413,0.000645585,0.000637783,0.318082,0.08737017767049382,0.5863138636368672,0.00064579343484783,0.09177029212710797,0.0006379864268226676,-0.15554936571799205
755,0.7456,540.505,531.811,0.000808775,536.139,0.89994,0.921809,0.0838587,0.0879007,-0.169264,0.461945,0.00064667,0.000638907,0.318453,0.08747522270325025,0.587158007134583,0.0006468791361227133,0.09187969299127086,0.0006391111445513964,-0.15571401753760294
756,0.7466,540.611,531.91,0.000798367,536.241,0.901216,0.923079,0.0839553,0.0880009,-0.16946,0.462476,0.000647757,0.000640031,0.318824,0.08758027788384681,0.5880010118343113,0.000647966839871561,0.09198910481794953,0.0006402358635444472,-0.15587948137417984
757,0.7476,540.715,532.008,0.000787946,536.342,0.902493,0.924351,0.0840518,0.088101,-0.169656,0.463008,0.000648844,0.000641157,0.319195,0.08768523444473542,0.5888460531336621,0.0006490545448025742,0.09209841839839528,0.000641362585084515,-0.1560449127830229
758,0.7486,540.82,532.106,0.000777511,536.444,0.903773,0.925624,0.0841483,0.0882011,-0.169851,0.463539,0.000649932,0.000642284,0.319566,0.08779020113442049,0.5896899544238399,0.0006501432515662042,0.0922077429216781,0.0006424903085355815,-0.15620946798037705
759,0.7496,540.925,532.204,0.000767063,536.545,0.905053,0.926899,0.0842448,0.0883012,-0.170047,0.46407,0.000651021,0.000643411,0.319937,0.08789517795388013,0.5905343039445972,0.0006512329601655598,0.09231707838889336,0.0006436180332576313,-0.15637483471818314
760,0.7506,541.029,532.301,0.000756601,536.646,0.906336,0.928175,0.0843412,0.0884012,-0.170242,0.464601,0.000652112,0.00064454,0.320307,0.08800005610408057,0.5913791019340078,0.0006523246712561992,0.09242631555849967,0.0006447477605400209,-0.1565393255870322
761,0.7516,541.134,532.399,0.000746125,536.747,0.90762,0.929453,0.0844376,0.0885012,-0.170437,0.465131,0.000653203,0.00064567,0.320678,0.08810494436502192,0.5922227564067197,0.0006534163835381079,0.09253556365236926,0.0006458784897438452,-0.1567037843832889
762,0.7526,541.238,532.496,0.000735636,536.848,0.908905,0.930732,0.084534,0.0886011,-0.170632,0.465662,0.000654295,0.000646801,0.321048,0.08820984273767896,0.5930684512024689,0.0006545090976652901,0.09264471340711755,0.0006470102208724349,-0.15686821111320703
763,0.7536,541.342,532.594,0.000725132,536.948,0.910192,0.932013,0.0846303,0.0887011,-0.170828,0.466192,0.000655388,0.000647933,0.321418,0.08831464239155706,0.5939130012676039,0.0006556028136415204,0.0927539833418638,0.0006481429539291206,-0.15703344875001146
764,0.7546,541.446,532.691,0.000714615,537.049,0.911481,0.933296,0.0847266,0.0888009,-0.171023,0.466722,0.000656483,0.000649066,0.321789,0.08841945213812763,0.5947579990629115,0.0006566985321263541,0.09286304563151915,0.000649276688917455,-0.15719781120164533
765,0.7556,541.55,532.788,0.000704084,537.149,0.912771,0.93458,0.0848228,0.0889008,-0.171218,0.467252,0.000657578,0.0006502,0.322158,0.08852416312594102,0.5956034448257514,0.0006577942518113389,0.09297222810335137,0.0006504114258405469,-0.15736214160572592
766,0.7566,541.654,532.885,0.00069354,537.25,0.914063,0.935865,0.0849191,0.0890006,-0.171413,0.467781,0.000658674,0.000651335,0.322528,0.0886289930503299,0.5964477423450691,0.0006588909733546977,0.09308131217492077,0.0006515471647019488,-0.1575264399685018
767,0.7576,541.757,532.982,0.000682981,537.35,0.915356,0.937153,0.0850153,0.0891004,-0.171607,0.468311,0.000659772,0.000652471,0.322898,0.0887337241969488,0.5972940839092149,0.0006599896974202046,0.09319040713362359,0.0006526839055052136,-0.15768986398650553
768,0.7586,541.861,533.078,0.000672407,537.45,0.916651,0.938442,0.0851114,0.0892001,-0.171802,0.46884,0.00066087,0.000653609,0.323268,0.08883835653534744,0.5981392760132045,0.0006610884226920799,0.09329940365060096,0.0006538226489074539,-0.1578540984496476
769,0.7596,541.964,533.175,0.00066182,537.55,0.917948,0.939732,0.0852076,0.0892998,-0.171997,0.469369,0.000661969,0.000654747,0.323637,0.08894310782370218,0.5989849153420976,0.0006621881498325433,0.0934084110350728,0.0006549613936055465,-0.15801830089019164
770,0.7606,542.067,533.272,0.000651219,537.65,0.919246,0.941024,0.0853036,0.0893994,-0.172192,0.469898,0.000663069,0.000655887,0.324006,0.08904765138006376,0.5998310021325388,0.0006632888788449254,0.09351731993638523,0.0006561021409119405,-0.15818247131438157
771,0.7616,542.17,533.368,0.000640603,537.749,0.920546,0.942318,0.0853997,0.0894991,-0.172386,0.470427,0.000664171,0.000657027,0.324375,0.08915231388831435,0.600677536621298,0.0006643916103969971,0.09362634904819367,0.0006572428895186277,-0.15834576807464862
772,0.7626,542.273,533.464,0.000629973,537.849,0.921847,0.943613,0.0854957,0.0895986,-0.172581,0.470955,0.000665273,0.000658169,0.324744,0.08925687752942202,0.601522917521552,0.000665494343164097,0.0937351702836906,0.0006583856407424982,-0.15850987464896305
773,0.7636,542.376,533.56,0.000619329,537.948,0.92315,0.94491,0.0855917,0.0896982,-0.172775,0.471484,0.000666376,0.000659312,0.325113,0.0893614512091212,0.6023703472703272,0.0006665980778131075,0.09384411173184493,0.00065952939393088,-0.1586731078991439
774,0.7646,542.478,533.656,0.00060867,538.047,0.924454,0.946209,0.0856877,0.0897977,-0.172969,0.472012,0.000667481,0.000660455,0.325482,0.08946603492837557,0.6032166222106095,0.0006677038150149084,0.09395295463580688,0.0006606731484266604,-0.15883630948514582
775,0.7656,542.581,533.752,0.000597996,538.146,0.925761,0.947509,0.0857836,0.0898972,-0.173164,0.47254,0.000668586,0.0006616,0.325851,0.08957051973109142,0.6040633441020451,0.0006688095534383987,0.09406180837017675,0.0006618189055533907,-0.159000320413211
776,0.7666,542.683,533.847,0.000587308,538.245,0.927068,0.94881,0.0858795,0.0899966,-0.173358,0.473067,0.000669693,0.000662746,0.326219,0.08967501455438032,0.6049089082709755,0.000669917294423783,0.09417056351897002,0.0006629656646548465,-0.15916345852614222
777,0.7676,542.785,533.943,0.000576605,538.344,0.928377,0.950113,0.0859754,0.090096,-0.173552,0.473595,0.0006708,0.000663893,0.326587,0.08977951939920326,0.6057565239253835,0.0006710250366352977,0.09427932947856243,0.0006641134257348025,-0.1593265649933493
778,0.7686,542.888,534.038,0.000565888,538.443,0.929688,0.951418,0.0860712,0.0901954,-0.173746,0.474122,0.000671909,0.000665041,0.326956,0.08988392527812339,0.6066029806352446,0.0006721347814175882,0.09438810625002869,0.0006652621887963672,-0.15948963982097086
779,0.7696,542.99,534.134,0.000555156,538.542,0.931001,0.952725,0.086167,0.0902947,-0.17394,0.474649,0.000673018,0.000666191,0.327324,0.08998834115960586,0.6074498835453555,0.0006732445274302279,0.09449678438475928,0.0006664129545095321,-0.15965268301514435
780,0.7706,543.091,534.229,0.000544409,538.64,0.932315,0.954033,0.0862627,0.090394,-0.174134,0.475176,0.000674129,0.000667341,0.327692,0.09009265803533784,0.6082972328909253,0.0006743562760225252,0.09460547331176472,0.0006675637215460828,-0.15981569458200617
781,0.7716,543.193,534.324,0.000533647,538.739,0.93363,0.955342,0.0863585,0.0904932,-0.174328,0.475703,0.00067524,0.000668492,0.32806,0.09019709391437636,0.6091450289072877,0.0006754680258500567,0.09471406356070444,0.0006687154905749004,-0.15997867452769143
782,0.7726,543.295,534.419,0.00052287,538.837,0.934948,0.956654,0.0864542,0.0905924,-0.174522,0.47623,0.000676353,0.000669645,0.328427,0.09030143076870267,0.6099932718299002,0.0006765817782656836,0.09482266458233135,0.0006698692622688629,-0.1601416228583339
783,0.7736,543.396,534.514,0.000512079,538.935,0.936266,0.957967,0.0865498,0.0906916,-0.174716,0.476756,0.000677466,0.000670799,0.328795,0.09040566856797172,0.6108403510531879,0.0006776955319209854,0.09493127637771392,0.0006710240359644182,-0.1603045395800664
784,0.7746,543.497,534.608,0.000501272,539.033,0.937587,0.959281,0.0866455,0.0907908,-0.174909,0.477282,0.000678581,0.000671953,0.329162,0.09051002538384756,0.6116878759573507,0.0006788112881734865,0.09503989894792109,0.0006721788109924631,-0.1604665851660254
785,0.7756,543.599,534.703,0.00049045,539.131,0.938909,0.960597,0.0867411,0.0908899,-0.175103,0.477808,0.000679697,0.000673109,0.329529,0.09061428312571507,0.6125358467768789,0.0006799280463500867,0.09514842277917368,0.0006733355886996417,-0.16062943885118497
786,0.7766,543.7,534.797,0.000479613,539.228,0.940232,0.961915,0.0868366,0.0909889,-0.175296,0.478334,0.000680813,0.000674266,0.329897,0.09071844176324917,0.6133842637463851,0.0006810448057730234,0.0952568478399809,0.0006744933684188492,-0.1607914217376354
787,0.7776,543.801,534.892,0.00046876,539.326,0.941558,0.963234,0.0869321,0.091088,-0.17549,0.47886,0.000681931,0.000675424,0.330264,0.09082261034840844,0.6142331271006063,0.0006821635678064819,0.09536539317193404,0.0006756521501529722,-0.16095421241061236
788,0.7786,543.901,534.986,0.000457893,539.424,0.942884,0.964555,0.0870276,0.0911869,-0.175683,0.479385,0.00068305,0.000676583,0.330631,0.09092678888214256,0.6150808219927728,0.0006832833317740317,0.09547373016649496,0.0006768119339060075,-0.16111613262181412
789,0.7796,544.002,535.08,0.00044701,539.521,0.944213,0.965877,0.0871231,0.0912859,-0.175877,0.479911,0.000684169,0.000677743,0.330997,0.09103097736540167,0.6159305779713711,0.0006844030969945791,0.09558218743432767,0.0006779727196810637,-0.16127886030698968
790,0.7806,544.103,535.174,0.000436111,539.618,0.945543,0.967202,0.0872185,0.0913848,-0.17607,0.480436,0.00068529,0.000678904,0.331364,0.09113506668562388,0.6167791642592155,0.0006855248648391932,0.0956905458709012,0.0006791345074819155,-0.1614407178671935
791,0.7816,544.203,535.268,0.000425197,539.715,0.946874,0.968527,0.0873139,0.0914837,-0.176263,0.48096,0.000686412,0.000680067,0.331731,0.0912391659364411,0.6176265785444401,0.0006866476346278905,0.0957989150246541,0.000680298297991877,-0.16160254419190245
792,0.7826,544.303,535.361,0.000414268,539.812,0.948208,0.969855,0.0874093,0.0915826,-0.176456,0.481485,0.000687535,0.00068123,0.332097,0.09134327511880036,0.6184760554663566,0.0006877714063642237,0.0959072948966464,0.0006814620898556445,-0.1617643392871445
793,0.7836,544.404,535.455,0.000403322,539.909,0.949543,0.971184,0.0875046,0.0916814,-0.176649,0.48201,0.000688659,0.000682395,0.332463,0.09144728508891564,0.6193259784807461,0.0006888961800513016,0.096015575886375,0.0006826278844380695,-0.1619261031589463
794,0.7846,544.504,535.549,0.000392362,540.006,0.950879,0.972514,0.0875999,0.0917801,-0.176842,0.482534,0.000689784,0.000683561,0.332829,0.0915513049716532,0.6201747276463307,0.0006900219556928988,0.09612375796241257,0.0006837946810624995,-0.16208783581333341
795,0.7856,544.604,535.642,0.000381385,540.102,0.952217,0.973846,0.0876952,0.0918789,-0.177035,0.483058,0.00069091,0.000684728,0.333195,0.09165533476795806,0.6210239216730218,0.000691148733291902,0.09623206033974863,0.0006849624797322651,-0.1622495372563303
796,0.7866,544.703,535.735,0.000370393,540.199,0.953557,0.97518,0.0877904,0.0919776,-0.177228,0.483582,0.000692037,0.000685895,0.333561,0.09175926530284295,0.6218735607939874,0.0006922765128520858,0.0963402637838564,0.0006861302797649405,-0.1624112074939601
797,0.7876,544.803,535.828,0.000359385,540.295,0.954898,0.976516,0.0878856,0.0920762,-0.177421,0.484106,0.000693165,0.000687064,0.333927,0.09186320573238582,0.6227236452425178,0.000693405294376559,0.09644836826332859,0.0006873000825349251,-0.1625728465322448
798,0.7886,544.903,535.921,0.00034836,540.392,0.956241,0.977853,0.0879808,0.0921749,-0.177613,0.484629,0.000694294,0.000688235,0.334292,0.09196715605752859,0.6235725516786625,0.0006945350778688741,0.09655659305808206,0.0006884718880493246,-0.16273361711124112
799,0.7896,545.002,536.014,0.00033732,540.488,0.957586,0.979191,0.0880759,0.0922735,-0.177806,0.485153,0.000695425,0.000689406,0.334658,0.09207100707210714,0.6244235266317084,0.0006956668640281105,0.09666471886867245,0.0006896436949359597,-0.16289519393047402
800,0.7906,545.102,536.107,0.000326264,540.584,0.958932,0.980532,0.088171,0.092372,-0.177998,0.485676,0.000696556,0.000690578,0.335023,0.0921748679633867,0.6252733223383438,0.000696798651467434,0.0967727456637133,0.0006908165038856939,-0.16305590262471104
801,0.7916,545.201,536.199,0.000315192,540.68,0.96028,0.981874,0.0882661,0.0924706,-0.178191,0.486199,0.000697688,0.000691752,0.335388,0.09227873873230674,0.626123562604376,0.0006979314408845916,0.09688089278800138,0.0006919913155938318,-0.16321741724884187
802,0.7926,545.3,536.292,0.000304104,540.775,0.961629,0.983217,0.0883611,0.092569,-0.178383,0.486722,0.000698822,0.000692926,0.335754,0.0923825101415503,0.6269742476623701,0.000699066232982215,0.09698883117833335,0.0006931661286813107,-0.16337806408214062
803,0.7936,545.399,536.384,0.000292999,540.871,0.96298,0.984562,0.0884561,0.0926675,-0.178576,0.487244,0.000699956,0.000694102,0.336119,0.0924862914095459,0.6278237499204495,0.000700201026366809,0.09709688990000909,0.0006943429445367411,-0.1635395165351099
804,0.7946,545.497,536.477,0.000281878,540.967,0.964333,0.985909,0.0885511,0.0927659,-0.178768,0.487767,0.000701092,0.000695279,0.336483,0.09259008253723033,0.6286753244089758,0.0007013378224409728,0.09720484954550268,0.0006955207624714799,-0.16370010153128223
805,0.7956,545.596,536.569,0.000270741,541.062,0.965687,0.987257,0.088646,0.0928643,-0.17896,0.488289,0.000702228,0.000696457,0.336848,0.09269377425615732,0.6295257148609155,0.0007024746198063259,0.09731281981474815,0.0006966995824893019,-0.16386065569809494
806,0.7966,545.695,536.661,0.000259587,541.157,0.967043,0.988607,0.0887409,0.0929626,-0.179152,0.488811,0.000703366,0.000697636,0.337213,0.09279747581589537,0.6303765493325499,0.0007036134198705746,0.09742069096671613,0.0006978794045935377,-0.16402117904146685
807,0.7976,545.793,536.753,0.000248417,541.252,0.9684,0.989959,0.0888358,0.0930609,-0.179344,0.489333,0.000704505,0.000698816,0.337577,0.09290118721737861,0.6312278280557184,0.0007047532219353059,0.09752857272293958,0.0006990602287879621,-0.16418167156731533
808,0.7986,545.892,536.845,0.00023723,541.347,0.969759,0.991312,0.0889307,0.0931592,-0.179536,0.489855,0.000705644,0.000699998,0.337941,0.09300490846154053,0.6320795512623802,0.000705893025298332,0.097636465084461,0.0007002430557760952,-0.1643421332815569
809,0.7996,545.99,536.936,0.000226027,541.442,0.97112,0.992667,0.0890255,0.0932574,-0.179728,0.490376,0.000706785,0.00070118,0.338306,0.09310853023845733,0.6329300862537142,0.0007070348313735764,0.09774425827789157,0.0007014258841624432,-0.16450256419010678
810,0.8006,546.088,537.028,0.000214807,541.537,0.972482,0.994024,0.0891202,0.0933556,-0.17992,0.490897,0.000707927,0.000702364,0.33867,0.0932120525179736,0.6337810644892334,0.0007081776394599615,0.09785206205713326,0.0007026107153522698,-0.16466296429887917
811,0.8016,546.186,537.119,0.00020357,541.632,0.973846,0.995382,0.089215,0.0934538,-0.180112,0.491419,0.00070907,0.000703549,0.339033,0.0933156939330777,0.6346341208332322,0.000709321449560818,0.09795987642322612,0.0007037965486484943,-0.16482333361378687
812,0.8026,546.284,537.211,0.000192317,541.727,0.975212,0.996742,0.0893097,0.0935519,-0.180304,0.49194,0.000710214,0.000704735,0.339397,0.0934192358319248,0.6354859871020802,0.0007104662616792545,0.09806759157044476,0.0007049833840548914,-0.16498367214074183
813,0.8036,546.381,537.302,0.000181046,541.821,0.976579,0.998103,0.0894044,0.09365,-0.180495,0.49246,0.000711359,0.000705922,0.339761,0.09352278753665377,0.6363366609714107,0.0007116120758190458,0.0981753172850377,0.0007061712215752358,-0.16514314502921734
814,0.8046,546.479,537.393,0.000169759,541.915,0.977948,0.999467,0.089499,0.093748,-0.180687,0.492981,0.000712506,0.00070711,0.340124,0.09362623968556427,0.6371894144947803,0.0007127598926963685,0.09828294373974189,0.0007073600612128583,-0.16530342215827498
815,0.8056,546.577,537.484,0.000158455,542.01,0.979319,1.00083,0.0895936,0.0938461,-0.180878,0.493501,0.000713653,0.000708299,0.340488,0.09372970162151084,0.6380409743766984,0.0007139077108904157,0.09839069058141892,0.0007085499029713116,-0.16546283398032913
816,0.8066,546.674,537.575,0.000147133,542.104,0.980691,1.0022,0.0896882,0.093944,-0.18107,0.494021,0.000714801,0.00070949,0.340851,0.09383317334541963,0.6388929771849059,0.0007150565311158097,0.09849822829391197,0.0007097417475638856,-0.1656230497350002
817,0.8076,546.771,537.666,0.000135795,542.198,0.982065,1.00357,0.0897828,0.094042,-0.181261,0.494541,0.000715951,0.000710681,0.341214,0.09393665485821656,0.6397454231497846,0.0007162073540925018,0.09860588639544554,0.0007109335935762129,-0.16578240051401705
818,0.8086,546.868,537.756,0.00012444,542.292,0.98344,1.00494,0.0898773,0.0941399,-0.181453,0.495061,0.000717101,0.000711874,0.341577,0.09404003675681838,0.6405983125018355,0.0007173581783928018,0.09871344517664005,0.0007121274424319868,-0.16594255491780352
819,0.8096,546.965,537.847,0.000113067,542.385,0.984817,1.00631,0.0899718,0.0942378,-0.181644,0.495581,0.000718253,0.000713068,0.34194,0.09414342842547141,0.6414516454716801,0.0007185110054532817,0.09882101448835479,0.0007133222934254668,-0.16610184467715794
820,0.8106,547.062,537.937,0.000101677,542.479,0.986196,1.00768,0.0900662,0.0943356,-0.181835,0.4961,0.000719405,0.000714263,0.342303,0.09424672044042115,0.6423037799854587,0.0007196638338420325,0.09892848443876656,0.0007145181465602057,-0.16626110401507366
821,0.8116,547.159,538.028,9.02693e-05,542.572,0.987576,1.00905,0.0901606,0.0944334,-0.182026,0.49662,0.000720559,0.000715459,0.342666,0.09435002220659738,0.643158000029014,0.0007208186650005111,0.09903596490025368,0.0007157150018395342,-0.1664203329373607
822,0.8126,547.256,538.118,7.88444e-05,542.666,0.988958,1.01043,0.090255,0.0945312,-0.182217,0.497139,0.000721714,0.000716656,0.343028,0.09445333372492071,0.6440110203706602,0.0007219744982134291,0.09914345587384377,0.000716912859267449,-0.16657953144982773
823,0.8136,547.352,538.208,6.74021e-05,542.759,0.990342,1.01181,0.0903494,0.0946289,-0.182408,0.497658,0.00072287,0.000717855,0.34339,0.0945566549963115,0.6448644835447688,0.0007231313334847833,0.09925084743547496,0.0007181127195652337,-0.16673869955828258
824,0.8146,547.449,538.298,5.59422e-05,542.852,0.991727,1.01319,0.0904437,0.0947266,-0.182599,0.498176,0.000724027,0.000719054,0.343753,0.09465987655569763,0.6457167440636626,0.0007242891708174604,0.09935824948977445,0.0007193125813016454,-0.1668978372685318
825,0.8156,547.545,538.388,4.44647e-05,542.945,0.993114,1.01457,0.090538,0.0948243,-0.18279,0.498695,0.000725185,0.000720255,0.344115,0.09476310784933584,0.6465710927381352,0.000725448010215235,0.09946566203776719,0.0007205144459179191,-0.16705694458638098
826,0.8166,547.641,538.478,3.29695e-05,543.038,0.994503,1.01595,0.0906322,0.0949219,-0.182981,0.499213,0.000726344,0.000721457,0.344477,0.09486623939151473,0.6474242375095929,0.0007266078516816599,0.09957297512317531,0.0007217173126992105,-0.16721602151763448
827,0.8176,547.737,538.567,2.14566e-05,543.131,0.995893,1.01734,0.0907265,0.0950195,-0.183171,0.499731,0.000727504,0.00072266,0.344839,0.0949694901460858,0.6482778243245213,0.0007277686952200657,0.099680298682852,0.0007229211816492942,-0.1673742354427472
828,0.8186,547.833,538.657,9.92594e-06,543.224,0.997285,1.01872,0.0908206,0.095117,-0.183362,0.500249,0.000728665,0.000723864,0.3452,0.095072531623134,0.6491318534119588,0.0007289305408340052,0.09978752273906122,0.000724126052771723,-0.16753325177723433
829,0.8196,547.929,538.746,-1.62263e-06,543.317,0.998679,1.02011,0.0909148,0.0952146,-0.183553,0.500767,0.000729828,0.000725069,0.345562,0.09517569231440515,0.6499863250010613,0.0007300943892569745,0.09989486723960694,0.0007253319260700497,-0.16769223774250186
830,0.8206,548.025,538.836,-1.31891e-05,543.409,1.00007,1.0215,0.0910089,0.095312,-0.183743,0.501285,0.000730991,0.000726276,0.345924,0.09527875319599044,0.6508412393211047,0.0007312582390335276,0.1000020022170649,0.0007265398022746616,-0.16785036119512708
831,0.8216,548.12,538.925,-2.47736e-05,543.501,1.00147,1.02289,0.091103,0.0954095,-0.183934,0.501802,0.000732156,0.000727483,0.346285,0.09538182377606086,0.6516949449057117,0.0007324240916284364,0.10010925764089795,0.0007277476799372185,-0.16800928659827963
832,0.8226,548.216,539.014,-3.63762e-05,543.594,1.00287,1.02428,0.0911971,0.0955069,-0.184124,0.502319,0.000733322,0.000728692,0.346646,0.09548490405552945,0.6525490919702188,0.0007335909463153101,0.10021641350099797,0.0007289575605153864,-0.1681673498173447
833,0.8236,548.311,539.103,-4.79968e-05,543.686,1.00427,1.02568,0.0912911,0.0956043,-0.184314,0.502836,0.000734489,0.000729902,0.347007,0.09558788447651456,0.65340368074293,0.0007347588030972574,0.10032357979858686,0.0007301684432867717,-0.16832538300725097
834,0.8246,548.406,539.192,-5.96357e-05,543.778,1.00567,1.02708,0.0913851,0.0957016,-0.184504,0.503353,0.000735656,0.000731113,0.347368,0.0956908745781142,0.6542587114522675,0.0007359266612423365,0.10043064649161138,0.0007313803282544828,-0.1684833861737034
835,0.8256,548.502,539.281,-7.12928e-05,543.87,1.00707,1.02847,0.0914791,0.0957989,-0.184695,0.50387,0.000736825,0.000732326,0.347729,0.09579387436123854,0.6551141843267716,0.000737096522224423,0.10053772360273205,0.0007325942161551247,-0.16864219068063102
836,0.8266,548.597,539.369,-8.29682e-05,543.962,1.00848,1.02987,0.091573,0.0958962,-0.184885,0.504387,0.000737996,0.000733539,0.34809,0.09589677423711462,0.6559700995951006,0.0007382683860504002,0.10064481113296231,0.0007338081055281442,-0.16880013365934354
837,0.8276,548.692,539.458,-9.4662e-05,544.053,1.00989,1.03127,0.0916669,0.0959934,-0.185075,0.504903,0.000739167,0.000734754,0.34845,0.09599968377574264,0.6568248006604025,0.0007394402512488352,0.10075179900813103,0.0007350239978436424,-0.16895804663174085
838,0.8286,548.786,539.546,-0.000106374,544.145,1.01129,1.03268,0.0917608,0.0960906,-0.185265,0.505419,0.000740339,0.00073597,0.348811,0.0961026029780303,0.657679942865258,0.0007406131185601073,0.1008587972830266,0.0007362408923725638,-0.16911592960352362
839,0.8296,548.881,539.635,-0.000118105,544.237,1.01271,1.03408,0.0918546,0.0961878,-0.185455,0.505935,0.000741513,0.000737187,0.349171,0.0962054222243367,0.6585355264373545,0.000741787988729703,0.10096580595865978,0.0007374587891189055,-0.16927378258039127
840,0.8306,548.976,539.723,-0.000129854,544.328,1.01412,1.03549,0.0919485,0.0962849,-0.185644,0.506451,0.000742687,0.000738405,0.349531,0.09630836074637172,0.6593915516044957,0.0007429628602784177,0.1010727149287649,0.000738677688085998,-0.16943077499923265
841,0.8316,549.07,539.811,-0.000141622,544.419,1.01553,1.03689,0.0920422,0.096382,-0.185834,0.506966,0.000743863,0.000739624,0.349891,0.09641108965254763,0.6602463583474154,0.000744139734694782,0.10117963428023491,0.0007398975892776161,-0.16958856816115764
842,0.8326,549.164,539.899,-0.000153409,544.51,1.01695,1.0383,0.092136,0.0964791,-0.186024,0.507482,0.000745039,0.000740845,0.350251,0.09651393783626139,0.6611032665316212,0.0007453166104949283,0.1012865640140781,0.0007411194934385801,-0.16974633134522998
843,0.8336,549.259,539.987,-0.000165214,544.601,1.01836,1.03972,0.0922297,0.0965761,-0.186213,0.507997,0.000746217,0.000742066,0.350611,0.09661668600591322,0.661958955034762,0.0007464954891722719,0.10139339399195779,0.0007423413990914618,-0.16990323446079425
844,0.8346,549.353,540.075,-0.000177039,544.692,1.01978,1.04113,0.0923234,0.0966731,-0.186403,0.508512,0.000747396,0.000743289,0.350971,0.09671944380351971,0.6628150843309764,0.0007476753699859895,0.10150023433284772,0.0007435653077234594,-0.17006093786394894
845,0.8356,549.447,540.162,-0.000188882,544.783,1.0212,1.04254,0.092417,0.09677,-0.186593,0.509027,0.000748576,0.000744513,0.351331,0.09682210154776727,0.6636716546473314,0.0007488562529396336,0.10160697487705028,0.000744790218596858,-0.17021861130630345
846,0.8366,549.541,540.25,-0.000200744,544.874,1.02262,1.04396,0.0925106,0.096867,-0.186782,0.509542,0.000749758,0.000745738,0.35169,0.09692476890122936,0.6645286662110108,0.0007500391387869065,0.10171383593629102,0.0007460161317158764,-0.17037542516938975
847,0.8376,549.635,540.338,-0.000212625,544.965,1.02405,1.04538,0.0926042,0.0969638,-0.186971,0.510056,0.00075094,0.000746965,0.352049,0.09702744586480527,0.6653844538640286,0.0007512220260321723,0.10182048699743773,0.0007472440478308862,-0.1705322093974564
848,0.8386,549.728,540.425,-0.000224526,545.055,1.02547,1.0468,0.0926978,0.0970607,-0.187161,0.51057,0.000752124,0.000748192,0.352409,0.09713013243939495,0.6662406815049673,0.0007524069161806146,0.10192725857562723,0.0007484719654526906,-0.1706897933067255
849,0.8396,549.822,540.512,-0.000236445,545.146,1.0269,1.04822,0.0927913,0.0971575,-0.18735,0.511084,0.000753308,0.000749421,0.352768,0.09723271890262053,0.667097349360039,0.0007535918077319348,0.1020339302970854,0.0007497018860804783,-0.17084651812482865
850,0.8406,549.915,540.599,-0.000248384,545.236,1.02833,1.04964,0.0928848,0.0972543,-0.187539,0.511598,0.000754494,0.000750651,0.353127,0.09733531495812886,0.6679544576555716,0.0007547787021955354,0.10214061234486604,0.0007509328089709832,-0.17100321332474022
851,0.8416,550.009,540.686,-0.000260342,545.326,1.02976,1.05107,0.0929782,0.097351,-0.187728,0.512112,0.000755681,0.000751882,0.353485,0.09743781086303005,0.6688120066180099,0.0007559665988228215,0.10224719449524367,0.0007521647341273141,-0.17115987891205753
852,0.8426,550.102,540.773,-0.000272319,545.416,1.03119,1.05249,0.0930717,0.0974477,-0.187917,0.512626,0.000756869,0.000753114,0.353844,0.09754042609553326,0.6696699964739148,0.0007571554976173456,0.10235378695261366,0.0007533976615539117,-0.17131651489237676
853,0.8436,550.195,540.86,-0.000284316,545.506,1.03262,1.05392,0.0931651,0.0975444,-0.188106,0.513139,0.000758058,0.000754348,0.354203,0.09764294115870942,0.6705267569223716,0.0007583453985826605,0.10246038971797256,0.0007546325920084751,-0.1714731212712931
854,0.8446,550.288,540.947,-0.000296332,545.596,1.03406,1.05535,0.0932584,0.0976411,-0.188295,0.513652,0.000759248,0.000755582,0.354561,0.09774535602269863,0.671383957001694,0.0007595363017223189,0.10256700279231734,0.0007558675239871526,-0.17162969805440076
855,0.8456,550.381,541.034,-0.000308368,545.686,1.03549,1.05678,0.0933518,0.0977377,-0.188484,0.514166,0.000760439,0.000756818,0.35492,0.09784789022722395,0.6722432691799038,0.0007607282070398735,0.10267351590928775,0.0007571044590037879,-0.1717862452472927
856,0.8466,550.474,541.12,-0.000320423,545.775,1.03693,1.05821,0.0934451,0.0978342,-0.188672,0.514678,0.000761632,0.000758055,0.355278,0.0979503242138533,0.6730996769554058,0.0007619221153007949,0.10277992903792388,0.0007583423963075653,-0.17194193479790987
857,0.8476,550.567,541.207,-0.000332498,545.865,1.03837,1.05965,0.0935383,0.0979308,-0.188861,0.515191,0.000762825,0.000759294,0.355636,0.09805265795274831,0.6739581972813196,0.0007631160249859104,0.10288646272456314,0.000759582336661957,-0.17209842298363376
858,0.8486,550.659,541.293,-0.000344593,545.954,1.03982,1.06108,0.0936316,0.0980273,-0.18905,0.515704,0.00076402,0.000760533,0.355994,0.09815511104509755,0.674817158141148,0.0007643119376241625,0.10299289640355846,0.0007608222785526753,-0.1722548815958852
859,0.8496,550.752,541.379,-0.000356708,546.044,1.04126,1.06252,0.0937248,0.0981238,-0.189238,0.516216,0.000765216,0.000761774,0.356352,0.09825746387101475,0.6756748840852205,0.0007655088524569642,0.10309934035389956,0.0007620642235037778,-0.17241048305115003
860,0.8506,550.844,541.465,-0.000368842,546.133,1.0427,1.06396,0.093818,0.0982202,-0.189427,0.516728,0.000766413,0.000763015,0.356709,0.09835982623665962,0.6765330492974195,0.0007667067694880902,0.10320568425600318,0.0007633061699960919,-0.17256688268962206
861,0.8516,550.936,541.551,-0.000380997,546.222,1.04415,1.0654,0.0939111,0.0983166,-0.189615,0.51724,0.000767611,0.000764258,0.357067,0.09846208829670733,0.6773916540027078,0.0007679056887208713,0.10331203841015335,0.0007645501195587823,-0.1727224254941946
862,0.8526,551.028,541.637,-0.000393171,546.311,1.0456,1.06685,0.0940042,0.0984129,-0.189804,0.517752,0.00076881,0.000765503,0.357424,0.09856435987779588,0.6782506984261636,0.0007691056101593041,0.10341829247550338,0.0007657960721991763,-0.17287876618111597
863,0.8536,551.12,541.723,-0.000405366,546.4,1.04705,1.06829,0.0940973,0.0985093,-0.189992,0.518263,0.000770011,0.000766748,0.357782,0.0986666409808119,0.6791085036836366,0.0007703075345768529,0.10352466712607389,0.0007670420263909961,-0.1730342503571034
864,0.8546,551.212,541.809,-0.000417581,546.489,1.0485,1.06974,0.0941904,0.0986056,-0.19018,0.518775,0.000771212,0.000767995,0.358139,0.09876893160664202,0.6799684273591984,0.0007715094604379136,0.10363094166855524,0.0007682899836705115,-0.17318970530481326
865,0.8556,551.304,541.895,-0.000429816,546.578,1.04996,1.07119,0.0942834,0.0987018,-0.190368,0.519286,0.000772415,0.000769243,0.358496,0.098871121869055,0.680827110600462,0.0007727133892878602,0.1037371160720506,0.0007695389432758049,-0.17334513102974003
866,0.8566,551.396,541.98,-0.000442071,546.666,1.05141,1.07264,0.0943764,0.0987981,-0.190556,0.519797,0.000773619,0.000770492,0.358853,0.09897332163560435,0.6816862327409912,0.0007739183203603339,0.10384341107435069,0.0007707889052104289,-0.1735005275373771
867,0.8576,551.488,542.066,-0.000454347,546.755,1.05287,1.07409,0.0944693,0.0988942,-0.190744,0.520308,0.000774824,0.000771742,0.35921,0.0990754209996263,0.6825457940051207,0.0007751242536584435,0.10394949552343102,0.0007720398694783803,-0.17365589483321664
868,0.8586,551.579,542.151,-0.000466643,546.843,1.05433,1.07554,0.0945622,0.0989904,-0.190932,0.520819,0.00077603,0.000772993,0.359567,0.09917752984911976,0.6834057946173,0.0007763311891859637,0.1040557005732814,0.000773291836083434,-0.17381123292275003
869,0.8596,551.67,542.236,-0.000478959,546.931,1.05579,1.077,0.0946551,0.0990865,-0.19112,0.521329,0.000777237,0.000774246,0.359923,0.09927964818496604,0.6842645505367009,0.0007775391269466692,0.10416180542436293,0.0007745458058037169,-0.17396654181146753
870,0.8606,551.762,542.321,-0.000491297,547.019,1.05725,1.07845,0.094748,0.0991826,-0.191308,0.52184,0.000778446,0.0007755,0.36028,0.09938177600804643,0.6851254296579077,0.0007787490677229059,0.10426792047261046,0.000775800777871094,-0.17412182150485844
871,0.8616,551.853,542.406,-0.000503654,547.108,1.05871,1.07991,0.0948408,0.0992787,-0.191496,0.52235,0.000779655,0.000776755,0.360636,0.09948380337085627,0.6859850628148556,0.0007799590099619724,0.10437404571900433,0.0007770567522891181,-0.17427707200841103
872,0.8626,551.944,542.491,-0.000516033,547.196,1.06018,1.08137,0.0949336,0.0993747,-0.191684,0.52286,0.000780866,0.000778011,0.360992,0.09958584020224492,0.6868451344965281,0.0007811709552261181,0.10448007071651189,0.0007783137290617859,-0.17443229332761223
873,0.8636,552.035,542.576,-0.000528432,547.283,1.06165,1.08284,0.0950264,0.0994707,-0.191871,0.52337,0.000782078,0.000779269,0.361348,0.0996878865030908,0.6877056449266294,0.0007823839027405466,0.10458610589290762,0.0007795727089723314,-0.1745866600550211
874,0.8646,552.126,542.661,-0.000540852,547.371,1.06312,1.0843,0.0951191,0.0995666,-0.192059,0.523879,0.000783291,0.000780527,0.361704,0.09978983229528415,0.6885649057632284,0.0007835978525083664,0.10469204077995942,0.0007808316904667212,-0.17474182317714027
875,0.8656,552.217,542.745,-0.000553293,547.459,1.06459,1.08576,0.0952118,0.0996625,-0.192246,0.524389,0.000784505,0.000781787,0.36206,0.09989178753829031,0.6894262935003701,0.0007848128045335745,0.10479798582665412,0.0007820926751092028,-0.1748961320278789
876,0.8666,552.307,542.83,-0.000565755,547.546,1.06606,1.08723,0.0953045,0.0997584,-0.192434,0.524898,0.00078572,0.000783049,0.362416,0.09999375223298568,0.6902864303700247,0.0007860287588199455,0.10490394103396583,0.0007833556629071037,-0.1750512369747358
877,0.8676,552.398,542.914,-0.000578238,547.634,1.06753,1.0887,0.0953971,0.0998543,-0.192621,0.525407,0.000786937,0.000784311,0.362772,0.10009561637067921,0.6911470051607873,0.000787246716158041,0.10500990640286911,0.0007846186522988408,-0.17520548797050395
878,0.8686,552.488,542.999,-0.000590742,547.721,1.06901,1.09017,0.0954898,0.0999501,-0.192808,0.525916,0.000788155,0.000785575,0.363127,0.10019759996118327,0.692008018095617,0.0007884656757668473,0.10511577142275619,0.0007858836448562112,-0.17535971012403273
879,0.8696,552.579,543.083,-0.000603267,547.809,1.07049,1.09164,0.0955823,0.100046,-0.192996,0.526425,0.000789373,0.000786839,0.363482,0.10029937294610769,0.692869469397585,0.000789684636860466,0.10522175710716786,0.0007871486390127469,-0.17551472792639944
880,0.8706,552.669,543.167,-0.000615814,547.896,1.07197,1.09312,0.0956749,0.100142,-0.193183,0.526933,0.000790593,0.000788105,0.363838,0.10040126538558947,0.6937296655593652,0.000790905601020464,0.10532786348887502,0.000788415636344908,-0.17566889225746296
881,0.8716,552.759,543.251,-0.000628382,547.983,1.07345,1.09459,0.0957674,0.100237,-0.19337,0.527442,0.000791815,0.000789373,0.364193,0.10050305721043706,0.6945919934029534,0.000792128568254391,0.10543287462385642,0.000789684636860466,-0.17582302776249192
882,0.8726,552.849,543.335,-0.000640971,548.07,1.07493,1.09607,0.0958599,0.100333,-0.193557,0.52795,0.000793037,0.000790641,0.364548,0.10060485845146383,0.6954530648292268,0.0007933515369826782,0.10553900127381799,0.0007909536389851812,-0.17597713444687624
883,0.8736,552.939,543.419,-0.000653581,548.157,1.07642,1.09755,0.0959524,0.100429,-0.193744,0.528458,0.00079426,0.000791911,0.364903,0.10070666910954085,0.6963145737909091,0.000794575508000106,0.10564513811242704,0.0007922246443032854,-0.17613121231600493
884,0.8746,553.029,543.503,-0.000666213,548.243,1.0779,1.09903,0.0960448,0.100524,-0.193931,0.528966,0.000795485,0.000793182,0.365257,0.10080837910469609,0.6971765205103253,0.0007958014821058956,0.10575017938992937,0.000793496652029102,-0.1762852613752659
885,0.8756,553.119,543.586,-0.000678867,548.33,1.07939,1.10051,0.0961372,0.10062,-0.194118,0.529473,0.000796711,0.000794454,0.365612,0.10091009849828891,0.6980372071718561,0.0007970284585108178,0.10585633650261062,0.0007947696621666278,-0.17643928163004607
886,0.8766,553.208,543.67,-0.000691543,548.417,1.08088,1.102,0.0962295,0.100715,-0.194304,0.529981,0.000797938,0.000795728,0.365966,0.1010117171900109,0.6989000292113423,0.0007982564372179812,0.10596139784491321,0.0007960446755153061,-0.17659244967859278
887,0.8776,553.298,543.753,-0.00070424,548.503,1.08237,1.10348,0.0963219,0.100811,-0.194491,0.530488,0.000799166,0.000797002,0.366321,0.10111345537291094,0.6997615899133349,0.0007994854182316047,0.10606757523553956,0.0007973196904884627,-0.17674641249453094
888,0.8786,553.387,543.837,-0.000716959,548.589,1.08387,1.10497,0.0964142,0.100906,-0.194678,0.530995,0.000800396,0.000798278,0.366675,0.10121509283533858,0.7006235875373541,0.0008007164023555724,0.1061726566464749,0.0007985967086829859,-0.17690034652211428
889,0.8796,553.477,543.92,-0.000729699,548.676,1.08536,1.10646,0.0965065,0.101002,-0.194864,0.531502,0.000801626,0.000799555,0.367029,0.10131673967933685,0.7014860223049753,0.0008019473879938843,0.1062788543189197,0.0007998747293069819,-0.17705342882056607
890,0.8806,553.566,544.003,-0.000742462,548.762,1.08686,1.10795,0.0965987,0.101097,-0.195051,0.532009,0.000802858,0.000800834,0.367383,0.10141828576393785,0.7023488944378862,0.0008031803767525325,0.1063839558023214,0.000801154753165445,-0.17720730544146424
891,0.8816,553.655,544.086,-0.000755247,548.848,1.08836,1.10944,0.0966909,0.101193,-0.195237,0.532516,0.000804091,0.000802113,0.367737,0.10151984121151947,0.7032122041578874,0.0008044143678347382,0.10649017376045866,0.000802434778660821,-0.17736033065086643
892,0.8826,553.744,544.169,-0.000768053,548.934,1.08986,1.11094,0.0967831,0.101288,-0.195424,0.533022,0.000805325,0.000803394,0.368091,0.101621406022945,0.7040742476117923,0.0008056493612440541,0.10659529532016099,0.0008037168074011003,-0.17751414988648795
893,0.8836,553.833,544.252,-0.000780882,549.02,1.09136,1.11244,0.0968752,0.101383,-0.19561,0.533529,0.00080656,0.000804676,0.368445,0.10172287002678537,0.7049384323076404,0.0008068853569842549,0.10670042686688586,0.0008049998385883939,-0.17766711802813084
894,0.8846,553.922,544.335,-0.000793734,549.106,1.09286,1.11393,0.0969673,0.101478,-0.195796,0.534035,0.000807797,0.00080596,0.368798,0.10182434337589097,0.7058013494540147,0.0008081233558672185,0.10680556840158206,0.0008062848730332473,-0.17782005772034537
895,0.8856,554.01,544.418,-0.000806607,549.191,1.09437,1.11543,0.0970594,0.101574,-0.195983,0.534541,0.000809034,0.000807244,0.369151,0.10192582607112222,0.7066647033469526,0.0008093613562814017,0.10691182683647193,0.0008075699091278921,-0.1779737909950425
896,0.8866,554.099,544.5,-0.000819503,549.277,1.09587,1.11694,0.0971515,0.101669,-0.196169,0.535046,0.000810273,0.00080853,0.369505,0.1020273181133402,0.7075267866798631,0.0008106013598483397,0.10701698845511909,0.0008088569484903108,-0.17812667365138957
897,0.8876,554.187,544.583,-0.000832421,549.362,1.09738,1.11844,0.0972435,0.101764,-0.196355,0.535552,0.000811513,0.000809817,0.369858,0.1021287092905292,0.7083910138649616,0.0008118423657634821,0.10712216006459463,0.0008101449903181734,-0.17827952787420698
898,0.8886,554.276,544.665,-0.000845361,549.448,1.09889,1.11994,0.0973355,0.101859,-0.196541,0.536057,0.000812754,0.000811105,0.370211,0.10223010979613578,0.7092539692048472,0.0008130843740303817,0.1072273416658478,0.0008114340346150328,-0.17843235366878296
899,0.8896,554.364,544.747,-0.000858325,549.533,1.1004,1.12145,0.0974275,0.101954,-0.196727,0.536562,0.000813997,0.000812395,0.370564,0.10233151963101772,0.7101173604472353,0.0008143283854675776,0.10733253325982761,0.0008127250821976517,-0.1785851510404045
900,0.8906,554.452,544.83,-0.000871311,549.618,1.10192,1.12296,0.0975194,0.102049,-0.196913,0.537067,0.00081524,0.000813686,0.370917,0.1024328285527456,0.7109811878123127,0.00081557239845087,0.10743773484748353,0.0008140171322597034,-0.17873791999435784
901,0.8916,554.541,544.912,-0.000884319,549.703,1.10343,1.12447,0.0976113,0.102144,-0.197098,0.537572,0.000816485,0.000814978,0.371269,0.10253414678519102,0.7118454515203769,0.0008168184146140067,0.10754294642976525,0.0008153101848051847,-0.1788898394261781
902,0.8926,554.629,544.994,-0.00089735,549.788,1.10495,1.12598,0.0977032,0.102239,-0.197284,0.538077,0.000817731,0.000816271,0.371622,0.10263547432920994,0.7127101517918366,0.0008180654331466641,0.10764816800762178,0.0008166042398378703,-0.1790425517133618
903,0.8936,554.716,545.076,-0.000910405,549.873,1.10647,1.1275,0.097795,0.102334,-0.19747,0.538582,0.000818978,0.000817566,0.371974,0.10273670091198239,0.713575288847212,0.000819313454052395,0.10775339958200325,0.0008179002981796302,-0.17919523559870165
904,0.8946,554.804,545.158,-0.000923482,549.958,1.10799,1.12901,0.0978868,0.102429,-0.197655,0.539086,0.000820227,0.000818862,0.372327,0.10283793678778164,0.7144391484671289,0.0008205634781557336,0.1078586411538589,0.0008191973590188084,-0.17934707043496045
905,0.8956,554.892,545.239,-0.000936582,550.043,1.10952,1.13053,0.0979786,0.102524,-0.197841,0.53959,0.000821476,0.000820159,0.372679,0.10293918195746099,0.71530344358203,0.0008218135038200458,0.10796389272413909,0.0008204954223596239,-0.17949969768508534
906,0.8966,554.98,545.321,-0.000949705,550.127,1.11104,1.13205,0.0980704,0.102619,-0.198027,0.540094,0.000822727,0.000821457,0.373031,0.10304043642187355,0.7161681744114596,0.0008230655326919578,0.10806915429379327,0.0008217944882058514,-0.17965229654918158
907,0.8976,555.067,545.403,-0.000962851,550.212,1.11257,1.13357,0.0981621,0.102714,-0.198212,0.540598,0.000823979,0.000822757,0.373383,0.10314158986770794,0.7170333411750738,0.0008243185639542627,0.10817442586377157,0.0008230955573842458,-0.1798040468369856
908,0.8986,555.155,545.484,-0.000976021,550.296,1.11409,1.13509,0.0982538,0.102809,-0.198397,0.541101,0.000825232,0.000824058,0.373735,0.1032427525897388,0.7178972261945531,0.0008255725976111794,0.10827970743502391,0.0008243976290787103,-0.1799557690535829
909,0.8996,555.242,545.565,-0.000989213,550.381,1.11562,1.13662,0.0983454,0.102904,-0.198583,0.541605,0.000826486,0.00082536,0.374086,0.10334381425442962,0.7187632646199058,0.0008268276336660385,0.10838499900850085,0.0008257007032925756,-0.18010828309629334
910,0.9006,555.329,545.647,-0.00100243,550.465,1.11716,1.13814,0.0984371,0.102998,-0.198768,0.542108,0.000827742,0.000826663,0.374438,0.10344499552128683,0.7196280200097578,0.0008280846729509239,0.10848919209540608,0.0008270047800302827,-0.1802599490343887
911,0.9016,555.416,545.728,-0.00101567,550.549,1.11869,1.13967,0.0985287,0.103093,-0.198953,0.542611,0.000828999,0.000827968,0.374789,0.1035460757122788,0.7204932104809842,0.0008293427146441879,0.10859450357087108,0.0008283108601236933,-0.18041158691688064
912,0.9026,555.503,545.809,-0.00102893,550.633,1.12022,1.1412,0.0986202,0.103188,-0.199138,0.543114,0.000830257,0.000829274,0.375141,0.10364705479792913,0.7213588362524868,0.000830601758749161,0.1086998250514013,0.0008296179427511596,-0.18056319674895915
913,0.9036,555.59,545.89,-0.00104222,550.717,1.12176,1.14273,0.0987118,0.103282,-0.199323,0.543617,0.000831516,0.000830581,0.375492,0.10374815349839839,0.7222248975432763,0.0008318618052700621,0.1088040477333454,0.0008309260279166786,-0.18071477853581308
914,0.9046,555.677,545.971,-0.00105553,550.801,1.1233,1.14427,0.0988033,0.103377,-0.199508,0.54412,0.000832776,0.00083189,0.375843,0.10384915107501214,0.7230913945724742,0.0008331228542104441,0.10890938912151693,0.0008322361164563308,-0.18086633228263005
915,0.9056,555.764,546.052,-0.00106886,550.885,1.12484,1.1458,0.0988948,0.103471,-0.199693,0.544622,0.000834038,0.0008332,0.376194,0.10395015789332707,0.7239566036018463,0.0008343859064083858,0.10901363150340959,0.0008335472075444716,-0.18101785799459724
916,0.9066,555.85,546.133,-0.00108222,550.968,1.12638,1.14734,0.0989862,0.103566,-0.199878,0.545124,0.000835301,0.000834511,0.376545,0.10405106354907678,0.7248222470751875,0.0008356499610360224,0.10911899280298476,0.000834859301184876,-0.18116935567690062
917,0.9076,555.937,546.213,-0.0010956,551.052,1.12793,1.14888,0.0990776,0.10366,-0.200063,0.545626,0.000836565,0.000835823,0.376896,0.1041519784280247,0.7256883252106434,0.0008369150180971285,0.10922325488854945,0.0008361723973817625,-0.18132082533472493
918,0.9086,556.023,546.294,-0.00110901,551.135,1.12947,1.15042,0.099169,0.103755,-0.200247,0.546128,0.00083783,0.000837137,0.377246,0.10425290253101438,0.7265548382264688,0.000838181077595479,0.10932863610329235,0.0008374874969763191,-0.18147144844511232
919,0.9096,556.11,546.374,-0.00112244,551.219,1.13102,1.15196,0.0992604,0.103849,-0.200432,0.54663,0.000839097,0.000838451,0.377597,0.10435383585888847,0.727421786341029,0.0008394491403740378,0.10943291789625365,0.0008388025982988268,-0.18162286222094381
920,0.9106,556.196,546.455,-0.00113589,551.302,1.13257,1.1535,0.0993517,0.103944,-0.200617,0.547132,0.000840364,0.000839768,0.377947,0.10445466796701819,0.7282891697727982,0.0008407172047595335,0.10953831902992839,0.00084012070386974,-0.18177424798781772
921,0.9116,556.282,546.535,-0.00114937,551.385,1.13412,1.15505,0.099443,0.104038,-0.200801,0.547633,0.000841633,0.000841085,0.378298,0.10455550928153956,0.7291552595842365,0.0008419872724354516,0.10964262053401108,0.0008414388111768201,-0.18192478767611198
922,0.9126,556.368,546.615,-0.00116287,551.469,1.13567,1.1566,0.0995342,0.104132,-0.200986,0.548134,0.000842904,0.000842404,0.378648,0.1046562493376626,0.730021783415383,0.0008432593434097857,0.10974693184289586,0.0008427589219051068,-0.1820761175919431
923,0.9136,556.454,546.695,-0.0011764,551.552,1.13723,1.15815,0.0996255,0.104227,-0.20117,0.548635,0.000844175,0.000843724,0.378998,0.10475710905740332,0.7308887414837364,0.0008445314160008266,0.10985236280931265,0.0008440800352189637,-0.18222660174133987
924,0.9146,556.54,546.776,-0.00118995,551.635,1.13878,1.1597,0.0997167,0.104321,-0.201354,0.549136,0.000845448,0.000845045,0.379348,0.10485786750026449,0.7317561340069036,0.0008458054919002755,0.10995669383489814,0.0008454021511219434,-0.18237705820420036
925,0.9156,556.626,546.855,-0.00120352,551.717,1.14034,1.16125,0.0998079,0.104415,-0.201539,0.549637,0.000846721,0.000846368,0.379698,0.10495863513271475,0.7326239612026015,0.0008470795694215383,0.11006103466806083,0.0008467262704647815,-0.18252830445772272
926,0.9166,556.712,546.935,-0.00121712,551.8,1.1419,1.1628,0.099899,0.10451,-0.201723,0.550137,0.000847997,0.000847691,0.380047,0.10505930144965658,0.7334904897972989,0.0008483566511099383,0.11016649547566337,0.0008480503915595516,-0.1826787054123904
927,0.9176,556.797,547.015,-0.00123074,551.883,1.14346,1.16436,0.0999901,0.104604,-0.201907,0.550638,0.000849273,0.000849017,0.380397,0.10515997693771739,0.7343591861229466,0.0008496337344277016,0.11027085603110742,0.0008493775169542417,-0.1828290786958282
928,0.9186,556.883,547.095,-0.00124439,551.965,1.14503,1.16592,0.100081,0.104698,-0.202091,0.551138,0.00085055,0.000850343,0.380746,0.10526044054562278,0.7352265825470434,0.000850911820226008,0.11037522639690467,0.0008507046441086352,-0.1829794243131272
929,0.9196,556.968,547.174,-0.00125807,552.048,1.14659,1.16748,0.100172,0.104792,-0.202275,0.551638,0.000851829,0.000851671,0.381095,0.10536102382218226,0.7360944127777946,0.000852191909360922,0.11047960657397748,0.0008520337747270901,-0.1831297422693775
930,0.9206,557.053,547.254,-0.00127176,552.13,1.14816,1.16904,0.100263,0.104886,-0.202459,0.552138,0.000853109,0.000853,0.381445,0.10546161625223616,0.7369626770321585,0.0008534730009863711,0.11058399656324802,0.0008533639079637556,-0.1832800325696683
931,0.9216,557.139,547.333,-0.00128549,552.213,1.14973,1.1706,0.100354,0.10498,-0.202643,0.552637,0.00085439,0.00085433,0.381794,0.10556221783661779,0.7378296376966937,0.0008547550951065741,0.11068839636563865,0.0008546950438230727,-0.1834302952190877
932,0.9226,557.224,547.413,-0.00129924,552.295,1.1513,1.17217,0.100445,0.105074,-0.202827,0.553137,0.000855673,0.000855662,0.382143,0.10566282857616005,0.7386987697804561,0.0008560391925811484,0.1107928059820722,0.0008560281831646588,-0.18358053022272325
933,0.9236,557.309,547.492,-0.00131301,552.377,1.15287,1.17374,0.100536,0.105168,-0.203011,0.553636,0.000856957,0.000856995,0.382492,0.10576344847169628,0.7395665969714533,0.0008573242925604685,0.11089722541347102,0.0008573623251395546,-0.18373073758566105
934,0.9246,557.394,547.571,-0.00132681,552.459,1.15444,1.17531,0.100627,0.105262,-0.203194,0.554135,0.000858242,0.000858329,0.38284,0.1058640775240598,0.7404348573162816,0.0008586103950485313,0.11100165466075751,0.0008586974697513128,-0.18388010119349596
935,0.9256,557.478,547.65,-0.00134063,552.541,1.15602,1.17688,0.100718,0.105356,-0.203378,0.554634,0.000859528,0.000859665,0.383189,0.1059647157340835,0.7413035510311385,0.0008598975000491116,0.1111060937248547,0.0008600346178644358,-0.184030253440446
936,0.9266,557.563,547.729,-0.00135448,552.623,1.1576,1.17845,0.100809,0.10545,-0.203561,0.555133,0.000860815,0.000861001,0.383537,0.10606536310260117,0.7421726783323304,0.0008611856075659841,0.11121054260668539,0.0008613717677639077,-0.18417956224189436
937,0.9276,557.648,547.808,-0.00136835,552.704,1.15918,1.18002,0.1009,0.105544,-0.203745,0.555632,0.000862104,0.00086234,0.383886,0.10616601963044592,0.7430422394362703,0.0008624757184656495,0.11131500130717242,0.0008627119220379065,-0.18432965939308055
938,0.9286,557.732,547.887,-0.00138225,552.786,1.16076,1.1816,0.10099,0.105637,-0.203928,0.55613,0.000863394,0.000863679,0.384234,0.10626557905231948,0.7439104906481171,0.0008637668318922653,0.11141835840832481,0.0008640520781064698,-0.18447891340825262
939,0.9296,557.817,547.966,-0.00139618,552.868,1.16234,1.18318,0.101081,0.105731,-0.204112,0.556628,0.000864685,0.00086502,0.384582,0.1063662538006449,0.7447791743567502,0.0008650589478491622,0.1115228366444152,0.0008653942377001567,-0.18462895548389124
940,0.9306,557.901,548.044,-0.00141013,552.949,1.16393,1.18476,0.101172,0.105825,-0.204295,0.557127,0.000865977,0.000866362,0.38493,0.10646693771078919,0.7456500364267704,0.0008663520663407809,0.11162732470192172,0.00086673739996046,-0.18477815473289005
941,0.9316,557.986,548.123,-0.0014241,553.031,1.16551,1.18634,0.101263,0.105919,-0.204478,0.557625,0.000867271,0.000867705,0.385278,0.10656763078358611,0.7465195866449441,0.0008676471882382852,0.11173182258176695,0.0008680815648913764,-0.18492732668092438
942,0.9326,558.07,548.201,-0.0014381,553.112,1.1671,1.18792,0.101353,0.106012,-0.204662,0.558122,0.000868566,0.00086905,0.385626,0.10666722635209003,0.7473878226182742,0.0008689433126805035,0.11183521844910049,0.0008694277333662903,-0.18507728625611108
943,0.9336,558.154,548.28,-0.00145213,553.193,1.16869,1.18951,0.101444,0.106106,-0.204845,0.55862,0.000869862,0.000870396,0.385974,0.10676793765198278,0.7482582384694962,0.0008702404396716545,0.11193973587187656,0.0008707749045226976,-0.18522640346808517
944,0.9346,558.238,548.358,-0.00146618,553.274,1.17028,1.19109,0.101534,0.1062,-0.205028,0.559117,0.00087116,0.000871743,0.386321,0.10686755124891612,0.7491273387675499,0.0008715395700868989,0.11204426311975224,0.000872123078364595,-0.1853754933941062
945,0.9356,558.322,548.436,-0.00148026,553.355,1.17188,1.19268,0.101625,0.106293,-0.205211,0.559615,0.000872458,0.000873092,0.386669,0.10696828077920384,0.7499986211135534,0.0008728387021883499,0.11214768804540687,0.0008734732557693636,-0.18552455603916707
946,0.9366,558.406,548.514,-0.00149437,553.436,1.17347,1.19427,0.101716,0.106387,-0.205394,0.560112,0.000873758,0.000874442,0.387016,0.10706901947629599,0.7508685865967621,0.0008741398377243303,0.11225223484170543,0.0008748244358702806,-0.18567359140825968
947,0.9376,558.489,548.593,-0.0015085,553.517,1.17507,1.19587,0.101806,0.10648,-0.205577,0.560609,0.000875059,0.000875793,0.387363,0.1071686601718127,0.7517389845602784,0.0008754419758274512,0.11235567910962962,0.0008761766186713427,-0.18582259950637514
948,0.9386,558.573,548.67,-0.00152266,553.598,1.17667,1.19746,0.101897,0.106574,-0.20576,0.561105,0.000876362,0.000877146,0.38771,0.10726941710425941,0.7526080626101592,0.00087674611737798,0.11246024545800748,0.0008775308050545938,-0.18597158033850358
949,0.9396,558.657,548.748,-0.00153684,553.679,1.17827,1.19906,0.101987,0.106667,-0.205942,0.561602,0.000877666,0.0008785,0.388057,0.10736907583637434,0.7534793253081229,0.0008780512615058633,0.11256370907181834,0.0008788859941486482,-0.18611972002976118
950,0.9406,558.74,548.826,-0.00155105,553.759,1.17988,1.20065,0.102077,0.106761,-0.206125,0.562098,0.000878971,0.000879855,0.388404,0.10746874353817892,0.754349266781126,0.0008793574082150979,0.11266829497593167,0.0008802421859579468,-0.1862686464938087
951,0.9416,558.823,548.904,-0.00156529,553.84,1.18148,1.20225,0.102168,0.106854,-0.206308,0.562595,0.000880277,0.000881211,0.388751,0.10756952777945439,0.7552213950726447,0.0008806645575092364,0.11277177793924764,0.0008815993804867084,-0.1864175457068068
952,0.9426,558.907,548.982,-0.00157955,553.92,1.18309,1.20386,0.102258,0.106947,-0.20649,0.563091,0.000881584,0.000882569,0.389097,0.10766921352274572,0.7560922008265751,0.0008819727093927199,0.1128752705269267,0.0008829585786214178,-0.18656560423975288
953,0.9436,558.99,549.059,-0.00159384,554.001,1.1847,1.20546,0.102349,0.107041,-0.206673,0.563587,0.000882893,0.000883928,0.389444,0.10777001600761982,0.756963438607293,0.0008832828647524771,0.11297988571919326,0.0008843187794864704,-0.18671444911445567
954,0.9446,559.073,549.137,-0.00160815,554.081,1.18631,1.20706,0.102439,0.107134,-0.206855,0.564082,0.000884203,0.000885289,0.38979,0.10786971979566351,0.7578333507949075,0.0008845940227120153,0.11308339766179598,0.0008856809839712376,-0.1868624536158986
955,0.9456,559.156,549.214,-0.0016225,554.161,1.18792,1.20867,0.102529,0.107227,-0.207038,0.564578,0.000885515,0.000886651,0.390136,0.10796943255745228,0.7587054524002208,0.0008859071841607058,0.11318691923145674,0.0008870441911970062,-0.18701124417213577
956,0.9466,559.239,549.291,-0.00163687,554.241,1.18953,1.21028,0.102619,0.10732,-0.20722,0.565073,0.000886827,0.000888014,0.390483,0.10806915429379327,0.7595762270981166,0.0008872203473324625,0.11329045042907149,0.0008884084011679949,-0.18715919466179354
957,0.9476,559.322,549.368,-0.00165126,554.321,1.19115,1.21189,0.10271,0.107414,-0.207402,0.565569,0.000888141,0.000889378,0.390829,0.10816999317493337,0.7604491933844992,0.0008885355140040296,0.11339510465008296,0.0008897736138882006,-0.18730711822691226
958,0.9486,559.404,549.446,-0.00166569,554.401,1.19277,1.2135,0.1028,0.107507,-0.207584,0.566064,0.000889456,0.000890744,0.391174,0.10826973296254239,0.7613208314478475,0.0008898516832935854,0.11349865520984181,0.0008911408302527679,-0.18745501487239202
959,0.9496,559.487,549.523,-0.00168014,554.481,1.19439,1.21512,0.10289,0.1076,-0.207767,0.566559,0.000890773,0.000892112,0.39152,0.1083694817271359,0.7621929010788413,0.0008911698560962744,0.11360221540025073,0.0008925100502699124,-0.1876036969998408
960,0.9506,559.57,549.6,-0.00169461,554.561,1.19601,1.21673,0.10298,0.107693,-0.207949,0.567053,0.00089209,0.00089348,0.391866,0.10846923946952258,0.7630636394266386,0.0008924880306349081,0.11370578522220498,0.0008938792721602251,-0.18775153967289548
961,0.9516,559.652,549.677,-0.00170912,554.64,1.19763,1.21835,0.10307,0.107786,-0.208131,0.567548,0.00089341,0.00089485,0.392211,0.1085690061905098,0.7639365719611328,0.0008938092095911454,0.11380936467660052,0.0008952504977142173,-0.1878993554410321
962,0.9526,559.735,549.753,-0.00172365,554.72,1.19925,1.21997,0.10316,0.107879,-0.208313,0.568042,0.00089473,0.000896221,0.392557,0.10866878189090623,0.7648081718951403,0.000895130390291321,0.11391295376433352,0.0008966227260431836,-0.18804714430914682
963,0.9536,559.817,549.83,-0.00173821,554.799,1.20088,1.22159,0.10325,0.107972,-0.208495,0.568537,0.000896051,0.000897594,0.392902,0.10876856657151968,0.7656819681869684,0.0008964525736319118,0.1140165524862995,0.0008979969580495961,-0.1881949062821352
964,0.9546,559.899,549.907,-0.00175279,554.879,1.20251,1.22322,0.10334,0.108065,-0.208676,0.569031,0.000897374,0.000898968,0.393247,0.1088683602331586,0.7665544305597163,0.0008977767605145015,0.1141201608433946,0.0008993721928423071,-0.1883418297071271
965,0.9556,559.981,549.983,-0.00176741,554.958,1.20414,1.22484,0.10343,0.108158,-0.208858,0.569525,0.000898698,0.000900343,0.393593,0.10896816287663103,0.7674273240353497,0.0008991019500481645,0.11422377883651502,0.0009007484304250912,-0.1884895380522532
966,0.9566,560.063,550.06,-0.00178205,555.037,1.20577,1.22647,0.10352,0.108251,-0.20904,0.570018,0.000900024,0.000901719,0.393938,0.10906797450274586,0.768298880527122,0.0009004291431373712,0.11432740646655692,0.0009021256708026115,-0.18863721951690682
967,0.9576,560.145,550.136,-0.00179672,555.116,1.20741,1.2281,0.10361,0.108344,-0.209221,0.570512,0.00090135,0.000903097,0.394282,0.10916779511231112,0.7691726359739288,0.0009017563379862814,0.11443104373441648,0.0009035049148820029,-0.18878406289044802
968,0.9586,560.227,550.213,-0.00181141,555.195,1.20904,1.22973,0.1037,0.108437,-0.209403,0.571005,0.000902678,0.000904477,0.394627,0.10926762470613549,0.7700450531166194,0.0009030855364013934,0.11453469064099031,0.0009048861626719251,-0.18893169075645866
969,0.9596,560.309,550.289,-0.00182614,555.275,1.21068,1.23136,0.10379,0.10853,-0.209585,0.571498,0.000904008,0.000905857,0.394972,0.10936746328502767,0.770917900466999,0.0009044167383902568,0.11463834718717458,0.0009062674123678782,-0.1890792917566425
970,0.9606,560.391,550.365,-0.00184089,555.353,1.21232,1.233,0.10388,0.108622,-0.209766,0.571992,0.000905338,0.000907239,0.395316,0.10946731084979633,0.7717929500292764,0.0009057479421499259,0.11474089863240988,0.0009076506657852423,-0.18922605512234936
971,0.9616,560.472,550.441,-0.00185567,555.432,1.21396,1.23463,0.10397,0.108715,-0.209947,0.572484,0.00090667,0.000908622,0.395661,0.10956716740125039,0.7726648866395083,0.0009070811494940045,0.11484457435682915,0.0009090349220233218,-0.18937279192629075
972,0.9626,560.554,550.517,-0.00187048,555.511,1.21561,1.23627,0.104059,0.108808,-0.210129,0.572977,0.000908003,0.000910007,0.396005,0.10966592327372005,0.7735390258862409,0.0009084153595224631,0.11494825972353917,0.0009104211819965791,-0.18952031265336688
973,0.9636,560.635,550.593,-0.00188531,555.59,1.21725,1.23791,0.104149,0.1089,-0.21031,0.57347,0.000909338,0.000911393,0.396349,0.10976579770109662,0.7744135961898693,0.0009097515731488759,0.11505083968203955,0.000911808444801876,-0.18966699620151506
974,0.9646,560.716,550.669,-0.00190018,555.668,1.2189,1.23955,0.104239,0.108993,-0.210491,0.573962,0.000910674,0.000912781,0.396693,0.109865681117576,0.775286822475246,0.0009110887894703268,0.11515454423231675,0.0009131977113561174,-0.18981365320234356
975,0.9656,560.798,550.745,-0.00191507,555.747,1.22055,1.2412,0.104329,0.109086,-0.210672,0.574454,0.000912011,0.000914169,0.397037,0.10996557352396752,0.7761604784936611,0.0009124270084905906,0.11525825842756587,0.0009145869798385942,-0.1899602836606572
976,0.9666,560.879,550.82,-0.00192999,555.825,1.2222,1.24284,0.104418,0.109178,-0.210854,0.574946,0.000913349,0.000915559,0.397381,0.11006436485616011,0.7770345644565946,0.000913766230213886,0.11536086690725877,0.0009159782520815618,-0.19010769747396705
977,0.9676,560.96,550.896,-0.00194494,555.903,1.22385,1.24449,0.104508,0.109271,-0.211035,0.575438,0.000914689,0.000916951,0.397725,0.1101642751448928,0.7779090805756319,0.0009151074555591165,0.11546460029140881,0.0009173715280930139,-0.19025427471508372
978,0.9686,561.041,550.971,-0.00195992,555.982,1.22551,1.24614,0.104597,0.109363,-0.211216,0.57593,0.00091603,0.000918344,0.398068,0.11026308416231667,0.7787840270624615,0.000916449683618259,0.1155672277554265,0.0009187658069624849,-0.19040082542812065
979,0.9696,561.122,551.047,-0.00197493,556.06,1.22716,1.24779,0.104687,0.109456,-0.211396,0.576421,0.000917372,0.000919738,0.398412,0.11036301233659174,0.7796576244703619,0.000917792914395088,0.11567098033202772,0.0009201610886946376,-0.19054654016482386
980,0.9706,561.203,551.122,-0.00198996,556.138,1.22882,1.24945,0.104777,0.109548,-0.211577,0.576913,0.000918715,0.000921133,0.398755,0.11046294950480706,0.7805334314524524,0.0009191371478936006,0.1157736267838827,0.0009215573732932469,-0.19069303798260162
981,0.9716,561.283,551.198,-0.00200502,556.216,1.23048,1.2511,0.104866,0.109641,-0.211758,0.577404,0.00092006,0.00092253,0.399098,0.11056178510543213,0.7814078880288171,0.000920483385038473,0.11587739855648627,0.0009229556616856538,-0.19083950928667381
982,0.9726,561.364,551.273,-0.00202012,556.294,1.23214,1.25276,0.104956,0.109733,-0.211939,0.577895,0.000921407,0.000923929,0.399442,0.11066174016400177,0.7822827740687857,0.000921831625837477,0.11598006399969152,0.0009243559538800739,-0.19098595408183916
983,0.9736,561.445,551.348,-0.00203524,556.372,1.23381,1.25442,0.105045,0.109826,-0.21212,0.578386,0.000922754,0.000925328,0.399785,0.11076059345778266,0.783158089783276,0.0009231798684528059,0.11608385497184881,0.0009257562480335935,-0.19113237237289527
984,0.9746,561.525,551.423,-0.00205039,556.449,1.23547,1.25608,0.105134,0.109918,-0.2123,0.578877,0.000924103,0.000926729,0.400127,0.11085945554989829,0.7840338353833105,0.0009245301147331464,0.11618653940991797,0.0009271585460004506,-0.19127795544299875
985,0.9756,561.605,551.498,-0.00206557,556.527,1.23714,1.25774,0.105224,0.11001,-0.212481,0.579367,0.000925453,0.000928132,0.40047,0.11095943740001335,0.7849082261708962,0.0009258813637609276,0.11628923329538998,0.0009285628477888608,-0.19142432088659134
986,0.9766,561.686,551.573,-0.00208078,556.605,1.23881,1.25941,0.105313,0.110102,-0.212661,0.579858,0.000926804,0.000929536,0.400813,0.11105831719002746,0.785784831298894,0.0009272336155401462,0.11639193662913416,0.0009299681524777004,-0.19156985141069172
987,0.9776,561.766,551.648,-0.00209601,556.682,1.24048,1.26107,0.105403,0.110195,-0.212842,0.580348,0.000928157,0.000930941,0.401156,0.11115831693849576,0.7866600802847197,0.0009285878710032502,0.11649576590722721,0.0009313744600709661,-0.1917161640258952
988,0.9786,561.846,551.722,-0.00211128,556.76,1.24215,1.26274,0.105492,0.110287,-0.213022,0.580838,0.000929511,0.000932347,0.401498,0.11125721442957626,0.7875357582476392,0.000929943129228894,0.11659848824284569,0.0009327817705726549,-0.19186164202295808
989,0.9796,561.926,551.797,-0.00212658,556.837,1.24383,1.26441,0.105581,0.110379,-0.213202,0.581328,0.000930867,0.000933755,0.40184,0.11135612072292522,0.7884118653979029,0.0009313003911519679,0.11670122002935357,0.0009341910849216539,-0.19200709383633796
990,0.9806,562.006,551.872,-0.0021419,556.914,1.24551,1.26608,0.10567,0.110471,-0.213382,0.581818,0.000932223,0.000935165,0.402182,0.11145503581932625,0.7892884019458641,0.0009326576549155696,0.11680396126762083,0.0009356024031259569,-0.19215251947074763
991,0.9816,562.086,551.946,-0.00215726,556.991,1.24718,1.26776,0.10576,0.110563,-0.213563,0.582307,0.000933582,0.000936575,0.402525,0.11155507127407782,0.7901635779375062,0.000934017923321484,0.11690671195851676,0.0009370137233204456,-0.1922987266325762
992,0.9826,562.166,552.021,-0.00217264,557.068,1.24887,1.26943,0.105849,0.110655,-0.213743,0.582797,0.000934941,0.000937987,0.402867,0.11165400407786574,0.7910409730349393,0.0009353781935761418,0.11700947210291113,0.0009384270473815626,-0.19244409977780674
993,0.9836,562.246,552.095,-0.00218806,557.146,1.25055,1.27111,0.105938,0.110748,-0.213923,0.583286,0.000936302,0.000939401,0.403208,0.11175294568706495,0.7919170062434164,0.0009367404675528768,0.11711335881447393,0.0009398423753179674,-0.1925894467582261
994,0.9846,562.325,552.169,-0.0022035,557.222,1.25223,1.27279,0.106027,0.11084,-0.214103,0.583775,0.000937664,0.000940816,0.40355,0.11185189610245927,0.7927934679368884,0.0009381037443219054,0.11721613797125352,0.0009412587061969901,-0.19273476757854335
995,0.9856,562.405,552.244,-0.00221898,557.299,1.25392,1.27447,0.106116,0.110932,-0.214283,0.584264,0.000939027,0.000942232,0.403892,0.11195085532483251,0.7936703583249358,0.0009394680238870023,0.11731892658415055,0.0009426760400228495,-0.1928800622434671
996,0.9866,562.484,552.318,-0.00223448,557.376,1.25561,1.27615,0.106205,0.111023,-0.214463,0.584753,0.000940392,0.000943649,0.404233,0.11204982335496827,0.7945476776172415,0.0009408343071932723,0.11742060723286918,0.0009440943767997645,-0.19302533075770478
997,0.9876,562.564,552.392,-0.00225002,557.453,1.2573,1.27784,0.106294,0.111115,-0.214642,0.585241,0.000941758,0.000945068,0.404575,0.11214880019365103,0.7954236305990627,0.000942201593306935,0.1175234146578037,0.0009455147174772804,-0.1931697662961328
998,0.9886,562.643,552.466,-0.00226558,557.529,1.25899,1.27953,0.106383,0.111207,-0.214822,0.58573,0.000943125,0.000946489,0.404916,0.11224778584166417,0.7963018074511667,0.0009435698822317651,0.11762623154145624,0.0009469370620642792,-0.1933149826683339
999,0.9896,562.722,552.54,-0.00228118,557.606,1.26068,1.28121,0.106472,0.111299,-0.215002,0.586218,0.000944494,0.000947911,0.405257,0.11234678029979217,0.7971786166572488,0.000944940174916864,0.11772905788469723,0.0009483604096207632,-0.19346017290394035
