,Time,S11,S22,S33,S12,S13,S23,LE11,LE22,LE33,LE12,LE13,LE23,SDV_EPBAR,E11,E12,E13,E22,E23,E33
0,1e-05,0.259682,0.779046,-5.55112e-17,0.449782,5.66684e-19,9.44151e-18,1.25011e-07,3.375e-06,-1.50001e-06,5.62914e-06,3.01553e-22,-1.12973e-22,0.0,1.250110077677391e-07,5.629155843678291e-06,0.0,3.3750056953607555e-06,0.0,-1.500008874999459e-06
1,2e-05,0.519362,1.55809,0.0,0.899562,1.09898e-17,-6.34504e-18,2.50015e-07,6.74997e-06,-3.00001e-06,1.12583e-05,4.44288e-22,-5.01028e-22,0.0,2.500150313444749e-07,1.1258363374899716e-05,0.0,6.749992781163172e-06,0.0,-3.0000055000201087e-06
2,3.5e-05,0.908881,2.72664,-2.22045e-16,1.57423,-3.29696e-17,1.90349e-17,4.37505e-07,1.18124e-05,-5.24997e-06,1.97019e-05,-1.0588e-22,-1.83389e-22,0.0,4.3750509570728013e-07,1.970209408375112e-05,0.0,1.1812469766780964e-05,0.0,-5.249956218977836e-06
3,5.75e-05,1.49315,4.47946,3.33067e-16,2.58622,4.79655e-18,1.67679e-17,7.18768e-07,1.9406e-05,-8.62491e-06,3.23672e-05,7.33555e-22,-4.23527e-22,0.0,7.187682582454613e-07,3.2367723823423233e-05,0.0,1.9406188297654836e-05,0.0,-8.624872805618189e-06
4,9.125e-05,2.36955,7.10865,-2.10942e-15,4.10418,-6.06156e-17,-6.26893e-17,1.14063e-06,3.07962e-05,-1.36872e-05,5.13649e-05,1.14192e-21,-3.10442e-21,0.0,1.1406306505978847e-06,5.136621919898943e-05,0.0,3.079667420791132e-05,0.0,-1.3687106330650955e-05
5,0.00014188,3.68411,11.0523,-7.43849e-15,6.38107,-5.38153e-17,5.06089e-17,1.77341e-06,4.78811e-05,-2.12805e-05,7.98609e-05,2.93427e-21,-1.69412e-21,0.0,1.7734115724810096e-06,7.98640889665414e-05,0.0,4.788224631813165e-05,0.0,-2.1280273571733233e-05
6,0.00021781,5.6559,16.9677,-4.91829e-14,9.79631,-2.90415e-17,-4.18413e-17,2.72256e-06,7.35077e-05,-3.26702e-05,0.000122604,4.49681e-26,7.7887e-26,0.0,2.722563706258896e-06,0.00012261151617765087,0.0,7.351040175707091e-05,0.0,-3.266966633486135e-05
7,0.00033172,8.61344,25.8403,-2.50799e-13,14.9189,-1.55327e-16,-1.25214e-16,4.14618e-06,0.000111946,-4.97537e-05,0.000186714,5.86898e-21,-3.38787e-21,0.0,4.1461885953442135e-06,0.00018673143214376076,0.0,0.00011195226618720966,0.0,-4.9752462305208134e-05
8,0.00050258,13.0494,39.1483,-1.27576e-12,22.6023,-9.67042e-17,-1.59037e-16,6.2815e-06,0.000169599,-7.53773e-05,0.000282874,5.86924e-21,-3.38773e-21,0.0,6.281519728590368e-06,0.00028291401262259264,0.0,0.00016961338272358795,0.0,-7.537445920269281e-05
9,0.00075887,19.7027,59.1081,-6.47871e-12,34.1261,1.55874e-16,7.7214e-18,9.48412e-06,0.000256069,-0.000113809,0.000427098,5.86883e-21,-3.38897e-21,0.0,9.484164974482567e-06,0.00042718921933682097,0.0,0.00025610178846502407,0.0,-0.00011380252400139401
10,0.0011433,29.681,89.0431,-3.2751e-11,51.4091,-6.82813e-16,1.79391e-16,1.42873e-05,0.000385754,-0.000171446,0.000643399,-1.85154e-20,-4.95992e-21,0.0,1.4287402063883903e-05,0.0006436060255341491,0.0,0.0003858284126423417,0.0,-0.00017143130397445638
11,0.00172,44.6449,133.935,-1.65608e-10,77.3273,-5.83637e-16,-1.90271e-16,2.14903e-05,0.000580234,-0.000257882,0.000967773,-1.35528e-20,-2.34742e-20,0.0,2.149053091815567e-05,0.0009682414433931363,0.0,0.000580402368310251,0.0,-0.0002578487512951977
12,0.0025849,67.0827,201.248,-8.37561e-10,116.191,-1.05241e-15,8.06711e-17,3.22909e-05,0.00087185,-0.000387489,0.00145416,-9.75591e-20,-6.28385e-21,0.0,3.2291421356633876e-05,0.001455217803329134,0.0,0.0008722301716874714,0.0,-0.00038741393583330286
13,0.0035849,93.0109,279.033,-1.8463e-09,161.1,8.95527e-16,2.05961e-16,4.47716e-05,0.00120883,-0.000537258,0.00201621,-9.12046e-24,-1.57971e-23,0.0,4.477260226298796e-05,0.002018243918087581,0.0,0.001209560929477993,0.0,-0.0005371137027634365
14,0.0045849,118.926,356.779,-2.10351e-09,205.986,4.26424e-16,4.76329e-16,5.7246e-05,0.00154564,-0.000686952,0.00257798,-1.35735e-20,-2.351e-20,0.0,5.7247638583612925e-05,0.0025813058478159068,0.0,0.0015468351171656902,0.0,-0.000686716102494711
15,0.0055849,124.245,373.784,0.0918645,215.376,-0.00477314,-0.0314167,2.18888e-05,0.00186382,-0.000926694,0.00319906,-1.20109e-07,-4.90621e-07,0.000399851,2.1889039561573398e-05,0.0032041824533304286,-1.201089927516108e-07,0.0018655579920965337,-4.906208797006428e-07,-0.0009262647517193079
16,0.0065849,127.201,382.811,0.307762,220.268,0.051066,-0.0233905,-1.83199e-05,0.00217852,-0.00117773,0.00382839,6.75051e-07,-4.84543e-07,0.000851166,-1.8319732191685034e-05,0.0038357276457978706,6.750512278053122e-07,0.0021808946988250977,-4.845428825950293e-07,-0.001177036748204685
17,0.0075849,129.345,389.931,-0.244978,224.893,-0.144812,-0.160896,-5.90431e-05,0.00248993,-0.00143199,0.00446316,-2.22078e-06,-2.73007e-06,0.00130901,-5.904135699053015e-05,0.004473134732681183,-2.2207775340898905e-06,0.002493032450129329,-2.7300662733820147e-06,-0.0014309651915501709
18,0.0085849,131.982,397.79,0.191053,228.876,-0.00716309,-0.105058,-0.000100309,0.00280455,-0.00168444,0.0050921,-5.41449e-07,-2.38102e-06,0.00176902,-0.00010030396922044993,0.005105086775167189,-5.414488534194462e-07,0.002808486429462187,-2.381017165320465e-06,-0.0016830221271622037
19,0.0095849,133.814,403.82,-0.244423,232.777,-0.177819,-0.204768,-0.000141916,0.00311556,-0.00193995,0.00572691,-3.18638e-06,-4.28432e-06,0.00223415,-0.0001419059304008652,0.005743340098665284,-3.186374923469515e-06,0.003120418401293401,-4.2843108223333815e-06,-0.0019380695132120707
20,0.010585,136.107,410.63,0.179026,236.17,-0.0375603,-0.150145,-0.000183985,0.00342955,-0.00219374,0.00635626,-1.54393e-06,-4.08312e-06,0.00270038,-0.00018396807579779129,0.006376503889673701,-1.543928808134254e-06,0.0034354376353238347,-4.0831116641104614e-06,-0.002191335511002146
21,0.011585,137.681,415.822,-0.218408,239.558,-0.195613,-0.238462,-0.000226261,0.00374013,-0.00245021,0.00699107,-4.06116e-06,-5.9351e-06,0.00317068,-0.00022623540491040206,0.0070155645777045805,-4.0611517535538155e-06,0.0037471330142144765,-5.935082387331647e-06,-0.002447210685628032
22,0.012585,139.701,421.82,0.171001,242.525,-0.0634356,-0.188451,-0.000268922,0.00405349,-0.00270499,0.00762071,-2.58073e-06,-5.8971e-06,0.00364141,-0.0002688858437200903,0.00764982151359983,-2.5807266699207076e-06,0.004061716502182566,-5.8970826121163e-06,-0.0027013348110426216
23,0.013585,141.085,426.388,-0.193186,245.525,-0.20936,-0.267912,-0.000311704,0.00436369,-0.00296211,0.00825531,-4.9691e-06,-7.71223e-06,0.00411547,-0.0003116554253552728,0.008289479032196123,-4.969087654016491e-06,0.004373224759074201,-7.712200260856505e-06,-0.002957727280607614
24,0.014585,142.889,431.747,0.159843,248.166,-0.0875327,-0.222959,-0.000354817,0.00467647,-0.00321761,0.00888509,-3.67566e-06,-7.82762e-06,0.00458957,-0.00035475405989260356,0.008924679577606343,-3.67565324477237e-06,0.0046874217510204375,-7.827589364239884e-06,-0.003212439040474413
25,0.015585,144.129,435.84,-0.169948,250.86,-0.220653,-0.294118,-0.000397995,0.00498636,-0.00347518,0.00951933,-5.9223e-06,-9.60063e-06,0.00506644,-0.0003979158104959746,0.009564782934500693,-5.922282463211026e-06,0.004998812582107215,-9.60058391408225e-06,-0.003469148550797274
26,0.016585,145.756,440.679,0.146421,253.245,-0.110186,-0.254364,-0.000441459,0.00529857,-0.00373122,0.0101491,-4.82497e-06,-9.85946e-06,0.00554313,-0.0004413615713131369,0.010200776791754906,-4.8249583598503065e-06,0.005312632247653326,-9.859411395640727e-06,-0.0037242676482617254
27,0.017585,146.886,444.402,-0.148315,255.691,-0.230089,-0.317638,-0.000484954,0.00560818,-0.00398906,0.0107829,-6.92114e-06,-1.15862e-05,0.00602214,-0.0004848364288152496,0.010841244987016774,-6.9211160489413e-06,0.0056239352805027565,-1.1586132880214706e-05,-0.00398111426900194
28,0.018585,148.364,448.808,0.131875,257.87,-0.131458,-0.283084,-0.000528699,0.00591987,-0.00424552,0.0114127,-6.02204e-06,-1.1979e-05,0.00650087,-0.0005285592633109681,0.01147807331930184,-6.022021867502225e-06,0.0059374270584784394,-1.1978928252109888e-05,-0.004236520520293108
29,0.019585,149.408,452.236,-0.128139,260.11,-0.238126,-0.338934,-0.000572454,0.00622922,-0.00450354,0.0120459,-7.96477e-06,-1.36579e-05,0.00698154,-0.0005722901794703583,0.012118744050275021,-7.964738281351913e-06,0.006248661939312061,-1.3657806731348643e-05,-0.004493414269980511
30,0.020585,150.759,456.275,0.117067,262.12,-0.151368,-0.30945,-0.000616426,0.00654039,-0.00476031,0.0126756,-7.26049e-06,-1.4175e-05,0.00746187,-0.0006162360485255647,0.012756275929249217,-7.2604636427442415e-06,0.006561825056404347,-1.4174899535146501e-05,-0.00474899768151793
31,0.021585,151.734,459.461,-0.109448,264.186,-0.245142,-0.358396,-0.000660396,0.0068495,-0.00501841,0.0133082,-9.05202e-06,-1.58069e-05,0.00794385,-0.0006601779865559321,0.013397148235940515,-9.051979030560986e-06,0.006873011475086788,-1.580677507162509e-05,-0.0050058388184418545
32,0.022585,152.976,463.185,0.10262,266.053,-0.169932,-0.333729,-0.000704556,0.00716018,-0.00527542,0.0139377,-8.53463e-06,-1.64384e-05,0.00842547,-0.0007043078587013474,0.01403528257246478,-8.534593580189487e-06,0.0071858753800542186,-1.6438264890283882e-05,-0.005261529408880361
33,0.023585,153.893,466.172,-0.0923264,267.971,-0.251446,-0.376342,-0.000748705,0.00746905,-0.00553355,0.0145697,-1.01816e-05,-1.80259e-05,0.00890847,-0.0007484247903473129,0.0146763554287348,-1.0181548167675913e-05,0.007497012929436941,-1.802573753439951e-05,-0.005518268112887581
34,0.024585,155.04,469.621,0.0889686,269.717,-0.187172,-0.356146,-0.00079302,0.00777926,-0.00579073,0.015199,-9.8396e-06,-1.87617e-05,0.00939113,-0.000792705642742475,0.015315092216657167,-9.839551591284135e-06,0.007809597058672457,-1.8761524000376895e-05,-0.005773996039230789
35,0.025585,155.91,472.439,-0.0768481,271.506,-0.257282,-0.393029,-0.000837322,0.0080879,-0.00604885,0.0158304,-1.13518e-05,-2.03086e-05,0.00987494,-0.0008369715437558378,0.015956364594267747,-1.1351735568543297e-05,0.008120695418937895,-2.0308393781753864e-05,-0.006030592537604407
36,0.026585,156.973,475.648,0.0764003,273.148,-0.203123,-0.376895,-0.000881767,0.00839765,-0.00630614,0.0164593,-1.11714e-05,-2.11386e-05,0.0103584,-0.0008813783577178436,0.01659550050718339,-1.1171337600091036e-05,0.008433009171439299,-2.1138376581353313e-05,-0.006286298029806736
37,0.027585,157.802,478.321,-0.0630487,274.824,-0.262831,-0.408661,-0.0009262,0.00870606,-0.00656422,0.0170901,-1.2561e-05,-2.26497e-05,0.0108429,-0.0009257712091722547,0.01723697124750423,-1.2560921111015588e-05,0.008744067960152702,-2.2649443497502197e-05,-0.006542722571565074
38,0.028585,158.791,481.32,0.065081,276.375,-0.217834,-0.396144,-0.000970754,0.00901537,-0.00682158,0.0177188,-1.25268e-05,-2.35639e-05,0.0113271,-0.0009702829707659566,0.017876709211884556,-1.2526721539951602e-05,0.009056130847411303,-2.356362237343479e-05,-0.006798365838897369
39,0.029585,159.585,483.866,-0.050916,277.952,-0.268224,-0.423399,-0.0010153,0.00932354,-0.00707958,0.0183489,-1.38072e-05,-2.50443e-05,0.011812,-0.0010147847573450663,0.018518275430569497,-1.3807104681018423e-05,0.009367139594576024,-2.504398639413541e-05,-0.007054578807616729
40,0.030585,160.509,486.677,0.0550814,279.423,-0.231371,-0.414042,-0.00105995,0.00963243,-0.00733698,0.0189772,-1.39033e-05,-2.6033e-05,0.0122967,-0.0010593884514207286,0.019158411540723286,-1.3903203349596716e-05,0.009678971168673556,-2.603266114442615e-05,-0.007310130068173493
41,0.031585,161.271,489.111,-0.0403926,280.913,-0.273548,-0.437368,-0.00110458,0.00994035,-0.00759489,0.0196067,-1.50883e-05,-2.74881e-05,0.0127821,-0.0011039701760655607,0.01980017373424592,-1.5088186172129703e-05,0.009989919388606827,-2.7487722205621345e-05,-0.007566121699707717
42,0.032585,162.138,491.757,0.0463996,282.311,-0.243807,-0.430724,-0.00114931,0.0102488,-0.0078523,0.0202347,-1.52988e-05,-2.85424e-05,0.0132672,-0.001148649796212431,0.020440809381889746,-1.5298682974007605e-05,0.010301498830111333,-2.854199266955071e-05,-0.007821551227853218
43,0.033585,162.871,494.088,-0.0313834,283.723,-0.278856,-0.450668,-0.00119403,0.0105565,-0.0081101,0.0208635,-1.64021e-05,-2.99772e-05,0.0137529,-0.001193317429817875,0.021082664340879465,-1.640196548624573e-05,0.01061241643352151,-2.9976750688276432e-05,-0.008077301864273245
44,0.034585,163.687,496.588,0.0389803,285.057,-0.255229,-0.446311,-0.00123883,0.0108646,-0.00836747,0.0214911,-1.67119e-05,-3.10888e-05,0.0142383,-0.0012380629668894416,0.021723696956013505,-1.671176035700217e-05,0.010923834090451168,-3.108831674825119e-05,-0.008332560159769575
45,0.035585,164.393,498.827,-0.0237666,286.399,-0.284174,-0.463373,-0.00128362,0.011172,-0.00862516,0.0221193,-1.77464e-05,-3.25081e-05,0.0147242,-0.0012827965122339524,0.022365745428752026,-1.7746242533589474e-05,0.011234639845447703,-3.2507571617435005e-05,-0.008588070019760252
46,0.036585,165.164,501.195,0.0327319,287.675,-0.265722,-0.460914,-0.00132847,0.0114798,-0.00888248,0.0227464,-1.81415e-05,-3.36695e-05,0.0152099,-0.0013275879743542829,0.023007072054656907,-1.8141335443977447e-05,0.011545945775117028,-3.366893318879072e-05,-0.008843147317930122
47,0.037585,165.845,503.349,-0.0174034,288.954,-0.28951,-0.475544,-0.00137332,0.0117869,-0.00914004,0.023374,-1.91191e-05,-3.50777e-05,0.0156959,-0.0013723774276226397,0.023649312807145995,-1.9118917231164545e-05,0.011856639239604227,-3.507708478467375e-05,-0.009098396804467002
48,0.038585,166.577,505.6,0.0275412,290.177,-0.275378,-0.474632,-0.00141823,0.0120943,-0.00939729,0.0240007,-1.95865e-05,-3.62821e-05,0.0161818,-0.001417224787097382,0.02429103489409501,-1.9586308185770562e-05,0.012167731782980695,-3.628144181255788e-05,-0.00935327345697401
49,0.039585,167.234,507.675,-0.0121477,291.398,-0.29486,-0.487227,-0.00146313,0.0124011,-0.00965471,0.0246277,-2.0518e-05,-3.7683e-05,0.0166679,-0.0014620601471431183,0.024933466754315292,-2.051778950729055e-05,0.012478312483735099,-3.768229000467027e-05,-0.009608252917506332
50,0.040585,167.93,509.821,0.0232844,292.573,-0.284284,-0.487554,-0.00150808,0.0127082,-0.00991187,0.0252538,-2.10463e-05,-3.89246e-05,0.0171539,-0.0015069434187804376,0.02557537852736158,-2.104607852815299e-05,0.01278929232200876,-3.892384244763569e-05,-0.009862909314063195
51,0.041585,168.565,511.822,-0.00785355,293.743,-0.30021,-0.49846,-0.00155302,0.0130148,-0.0101691,0.0258802,-2.19412e-05,-4.03213e-05,0.0176401,-0.0015518146884782036,0.02621800019256404,-2.1940959293642592e-05,0.013099861126799617,-4.0320487107337044e-05,-0.010117569523373282
52,0.042585,169.229,513.873,0.0198359,294.872,-0.292522,-0.499762,-0.001598,0.0133214,-0.0104262,0.0265059,-2.25204e-05,-4.15949e-05,0.0181262,-0.0015967238778382686,0.02686030571961351,-2.252014641768163e-05,0.013410525166584808,-4.159403494419234e-05,-0.010372035583235184
53,0.043585,169.844,515.805,-0.00438099,295.995,-0.305542,-0.509274,-0.00164299,0.0136278,-0.0106833,0.0271317,-2.33867e-05,-4.29904e-05,0.0186123,-0.0016416410308121021,0.027503116013295248,-2.3386426533211768e-05,0.01372108172633113,-4.298947592595859e-05,-0.010626436228282521
54,0.044585,170.478,517.77,0.0170747,297.083,-0.30017,-0.511327,-0.001688,0.0139341,-0.0109402,0.0277569,-2.40083e-05,-4.42916e-05,0.0190984,-0.0016865761292772508,0.028145711815943386,-2.400801180302281e-05,0.014031632052018406,-4.429061914157373e-05,-0.010880573651465775
55,0.045585,171.073,519.638,-0.00160036,298.162,-0.310838,-0.519695,-0.00173302,0.0142401,-0.0111972,0.028382,-2.48529e-05,-4.56879e-05,0.0195846,-0.0017315191879441194,0.02878860661623528,-2.485259116924432e-05,0.014341973211202008,-4.568685632377889e-05,-0.01113474468166098
56,0.046585,171.682,521.525,0.0148884,299.212,-0.3073,-0.522312,-0.00177806,0.0145462,-0.011454,0.0290067,-2.55095e-05,-4.70131e-05,0.0200706,-0.00177648018779053,0.029431491643019392,-2.5509174635507392e-05,0.014652510814557429,-4.7011994901535736e-05,-0.01138865267604483
57,0.047585,172.258,523.332,0.000605421,300.252,-0.316079,-0.529744,-0.0018231,0.0148519,-0.0117108,0.0296313,-2.63382e-05,-4.84121e-05,0.0205567,-0.0018214391626392157,0.030074675398076067,-2.633785315264703e-05,0.014962737502846934,-4.841092815321968e-05,-0.011642495475227221
58,0.048585,172.843,525.148,0.013176,301.266,-0.313974,-0.532775,-0.00186816,0.0151576,-0.0119675,0.0302554,-2.70237e-05,-4.9758e-05,0.0210427,-0.0018664160752530634,0.030717745652191653,-2.7023334863152115e-05,0.015273059041932102,-4.9756762091290874e-05,-0.011896174285570438
59,0.049585,173.402,526.898,0.00233958,302.269,-0.321248,-0.539442,-0.00191323,0.0154631,-0.0122241,0.0308794,-2.78411e-05,-5.1161e-05,0.0215287,-0.00191140094213893,0.03136111423560073,-2.784071244021913e-05,0.015583272344138477,-5.115969129831921e-05,-0.012149689199894231
60,0.050585,173.965,528.649,0.0118487,303.249,-0.320248,-0.542764,-0.00195831,0.0157684,-0.0124806,0.031503,-2.85505e-05,-5.2525e-05,0.0220146,-0.0019563937620387106,0.03200447160441677,-2.8550092438406338e-05,0.015893377252290675,-5.25236205863866e-05,-0.012403040310945412
61,0.051585,174.506,530.344,0.00369129,304.219,-0.326332,-0.548808,-0.00200339,0.0160736,-0.0127371,0.0321264,-2.93603e-05,-5.39331e-05,0.0225005,-0.002001384553707908,0.032648023766381984,-2.9359868990663784e-05,0.01620347522957255,-5.393164563649577e-05,-0.012656326445770194
62,0.052585,175.05,532.036,0.0108302,305.168,-0.326171,-0.552324,-0.00204848,0.0163787,-0.0129934,0.0327494,-3.00895e-05,-5.5313e-05,0.0229863,-0.0020463832967740903,0.03329156392713384,-3.0089047315495776e-05,0.01651356621183897,-5.53114702642743e-05,-0.012909350202922498
63,0.053585,175.576,533.68,0.00473623,306.106,-0.331318,-0.557858,-0.00209358,0.0166836,-0.0132497,0.0333722,-3.08946e-05,-5.67269e-05,0.023472,-0.00209138998997882,0.03393529835123954,-3.089412276680026e-05,0.01682354845256806,-5.67252910598226e-05,-0.013162309118395776
64,0.054585,176.101,535.317,0.0100563,307.026,-0.331786,-0.561492,-0.00213868,0.0169883,-0.0135059,0.0339947,-3.16403e-05,-5.81209e-05,0.0239577,-0.002136394653427409,0.03457912344423297,-3.163979945097761e-05,0.017133421794587766,-5.811921101317452e-05,-0.013415104550322021
65,0.055585,176.611,536.913,0.00553757,307.935,-0.336198,-0.566609,-0.00218379,0.0172929,-0.013762,0.034617,-3.24431e-05,-5.95411e-05,0.0244433,-0.002181407265397506,0.03522314239846658,-3.244257372836401e-05,0.01744328782506699,-5.953932746383117e-05,-0.013667736591133073
66,0.056585,177.12,538.498,0.00947366,308.828,-0.337128,-0.570303,-0.0022289,0.0175974,-0.014018,0.0352389,-3.32024e-05,-6.09476e-05,0.0249287,-0.0022264178468944795,0.03586714790347956,-3.320184880639676e-05,0.017753146479795756,-6.094574273274311e-05,-0.01392020533318794
67,0.057585,177.616,540.048,0.00614728,309.71,-0.340966,-0.575075,-0.00227401,0.0179017,-0.014274,0.0358605,-3.40047e-05,-6.23745e-05,0.0254142,-0.0022714263980099236,0.036511243086660095,-3.4004121846731294e-05,0.01806289588825183,-6.237255475127768e-05,-0.014172609451517104
68,0.058585,178.109,541.586,0.00903899,310.576,-0.342229,-0.578786,-0.00231913,0.0182058,-0.0145298,0.0364819,-3.47756e-05,-6.37923e-05,0.0258994,-0.0023164428956710115,0.0371555313327403,-3.477499533588446e-05,0.018372535893268038,-6.37902653144451e-05,-0.014424751847632034
69,0.059585,178.591,543.093,0.00660756,311.432,-0.345619,-0.583271,-0.00236425,0.0185098,-0.0147855,0.0371029,-3.55787e-05,-6.52259e-05,0.0263847,-0.0023614573622335877,0.03779980494394941,-3.55780670855399e-05,0.018682168205906624,-6.522377283724179e-05,-0.014676731221648698
70,0.060585,179.069,544.586,0.00871733,312.275,-0.347115,-0.586967,-0.00240937,0.0188137,-0.0150412,0.0377237,-3.63594e-05,-6.66539e-05,0.0268698,-0.0024064697977892457,0.03844427108445081,-3.635873900498243e-05,0.018991792761892556,-6.665167867814237e-05,-0.014928646172776228
71,0.061585,179.539,546.053,0.0069522,313.107,-0.350154,-0.591211,-0.0024545,0.0191174,-0.0152968,0.0383442,-3.71642e-05,-6.80944e-05,0.0273548,-0.0024514901779146836,0.03908882570704986,-3.716350941962432e-05,0.019301307566798487,-6.809208162894542e-05,-0.015180398235530301
72,0.062585,180.004,547.504,0.008481,313.927,-0.351808,-0.594868,-0.00249962,0.019421,-0.0155522,0.0389644,-3.79534e-05,-6.95317e-05,0.0278396,-0.002496498551281312,0.03973346847981385,-3.795267977879657e-05,0.01961081442453949,-6.952928272740966e-05,-0.01543188904507753
73,0.063585,180.46,548.932,0.00720803,314.736,-0.354571,-0.598907,-0.00254474,0.0197244,-0.0158076,0.0395843,-3.87607e-05,-7.09789e-05,0.0283244,-0.0025415048939160245,0.040378199070524756,-3.875994881374911e-05,0.01992021127876531,-7.097638105746373e-05,-0.01568331563207348
74,0.064585,180.913,550.345,0.00830832,315.534,-0.356327,-0.60251,-0.00258986,0.0200276,-0.0160629,0.0402039,-3.95572e-05,-7.24248e-05,0.0288091,-0.0025865092059103034,0.041023017146679885,-3.955641762432016e-05,0.020229497972318322,-7.242217738745449e-05,-0.01593457960638156
75,0.065585,181.358,551.736,0.00739605,316.322,-0.358872,-0.606373,-0.00263498,0.0203308,-0.0163181,0.0408233,-4.03674e-05,-7.38788e-05,0.0292936,-0.002631511487355742,0.04166802654228863,-4.0366585247419984e-05,0.020538878455814702,-7.387607102871119e-05,-0.016185681059757817
76,0.066585,181.798,553.112,0.00818253,317.1,-0.360688,-0.609911,-0.0026801,0.0206337,-0.0165731,0.0414423,-4.11705e-05,-7.53326e-05,0.029778,-0.002676511738344156,0.042313018655182555,-4.1169652506556353e-05,0.02084804650323613,-7.532976257096369e-05,-0.016436521727543174
77,0.067585,182.232,554.468,0.0075326,317.868,-0.363059,-0.613621,-0.00272522,0.0209366,-0.0168281,0.0420611,-4.19839e-05,-7.67931e-05,0.0302623,-0.0027215099589670277,0.04295820155012664,-4.198301868840737e-05,0.02115730821184303,-7.679015148531754e-05,-0.016687298439112985
78,0.068585,182.661,555.809,0.0080908,318.626,-0.364903,-0.617086,-0.00277034,0.0212393,-0.017083,0.0426796,-4.27928e-05,-7.82543e-05,0.0307464,-0.0027665061493160614,0.043603470726707894,-4.279188440114989e-05,0.021466459316697994,-7.825123821214586e-05,-0.016937912904570362
79,0.069585,183.084,557.132,0.00763023,319.375,-0.367135,-0.62066,-0.00281545,0.0215418,-0.0173378,0.0432978,-4.36096e-05,-7.97211e-05,0.0312305,-0.002811490337597644,0.044248825851027185,-4.360864911523432e-05,0.021775499660636743,-7.971792235750286e-05,-0.017188365215382806
80,0.070585,183.503,558.44,0.00802346,320.114,-0.368986,-0.62405,-0.00286056,0.0218442,-0.0175925,0.0439156,-4.44238e-05,-8.11893e-05,0.0317143,-0.0028564724966883004,0.04489416209947916,-4.442281327765585e-05,0.02208453129496224,-8.11860042380097e-05,-0.01743865546294643
81,0.071585,183.916,559.732,0.00769855,320.845,-0.371103,-0.627504,-0.00290566,0.0221464,-0.0178471,0.0445332,-4.52441e-05,-8.26622e-05,0.0321981,-0.00290144265569392,0.04553968805188746,-4.524307650111137e-05,0.022393451915874385,-8.26587835744963e-05,-0.017688783738584846
82,0.072585,184.324,561.009,0.00797328,321.567,-0.372945,-0.630815,-0.00295076,0.0224485,-0.0181016,0.0451506,-4.60632e-05,-8.41369e-05,0.0326817,-0.0029464107865911915,0.046185403567158945,-4.6062139107072575e-05,0.022702363636464273,-8.413336059032162e-05,-0.017938750133550507
83,0.073585,184.728,562.271,0.0077448,322.281,-0.374967,-0.63416,-0.00299586,0.0227505,-0.018356,0.0457676,-4.6887e-05,-8.56157e-05,0.0331652,-0.0029913768894714865,0.04683109913775918,-4.688590082180255e-05,0.023011266392250818,-8.561203508050674e-05,-0.018188554739023366
84,0.074585,185.127,563.518,0.00793491,322.987,-0.37679,-0.637394,-0.00304095,0.0230523,-0.0186102,0.0463843,-4.77105e-05,-8.70966e-05,0.0336485,-0.0030363309947896155,0.04747687898234587,-4.7709361872150247e-05,0.023320057786725634,-8.70928072012056e-05,-0.01843809948992714
85,0.075585,185.521,564.752,0.00777447,323.684,-0.378732,-0.640639,-0.00308604,0.023354,-0.0188644,0.0470008,-4.85379e-05,-8.85811e-05,0.0341317,-0.0030812830731729024,0.04812284757759833,-4.8536722055181336e-05,0.02362884002561838,-8.857717681021171e-05,-0.018687580814617077
86,0.076585,185.911,565.971,0.00790447,324.374,-0.380528,-0.643796,-0.00313112,0.0236555,-0.0191185,0.0476169,-4.93655e-05,-9.00677e-05,0.0346147,-0.003126223155974883,0.04876879502767051,-4.936428154378447e-05,0.023937510650644533,-9.006364402652789e-05,-0.01893690062290887
87,0.077585,186.296,567.177,0.00779165,325.056,-0.3824,-0.64695,-0.0031762,0.0239569,-0.0193725,0.0482328,-5.01964e-05,-9.15577e-05,0.0350976,-0.003171161212923601,0.049414930685578895,-5.0195140181785725e-05,0.02424617192927281,-9.155350872169787e-05,-0.019186059005696476
88,0.078585,186.677,568.37,0.00787915,325.73,-0.384166,-0.650032,-0.00322127,0.0242581,-0.0196264,0.0488484,-5.10279e-05,-9.30499e-05,0.0355803,-0.0032160872762712067,0.050061149402622185,-5.102659809885779e-05,0.024554721341466745,-9.30455709923228e-05,-0.019435056053802136
89,0.079585,187.054,569.55,0.00779939,326.397,-0.385977,-0.6531,-0.00326633,0.0245592,-0.0198802,0.0494637,-5.18621e-05,-9.45451e-05,0.0360629,-0.003261001347456993,0.050707450842097046,-5.1860755184485186e-05,0.024863261216409693,-9.454063075287067e-05,-0.019683891857976366
90,0.080585,187.427,570.717,0.00785697,327.057,-0.387709,-0.656109,-0.00331139,0.0248602,-0.0201338,0.0500787,-5.26973e-05,-9.60425e-05,0.0365453,-0.0033059133948601938,0.05135383466701793,-5.269591152168296e-05,0.02517179148951243,-9.603788806678004e-05,-0.01993246850215047
91,0.081585,187.796,571.872,0.00779996,327.71,-0.389466,-0.659098,-0.00335644,0.025161,-0.0203874,0.0506934,-5.35348e-05,-9.75427e-05,0.0370276,-0.0033508134520804367,0.05200030054011795,-5.353336703817213e-05,0.025480209548143007,-9.753794286548878e-05,-0.0201809821152803
92,0.082585,188.162,573.015,0.00783655,328.356,-0.391162,-0.662037,-0.00340149,0.0254617,-0.0206409,0.0513078,-5.43735e-05,-9.90452e-05,0.0375097,-0.0033957114865985627,0.0526468481238489,-5.437202178804057e-05,0.025788617814013204,-9.904029518614799e-05,-0.020429334756286832
93,0.083585,188.523,574.146,0.00779503,328.996,-0.39287,-0.664952,-0.00344653,0.0257622,-0.0208942,0.0519219,-5.52142e-05,-0.00010055,0.0379917,-0.0034405975329118155,0.05329347708038146,-5.521267572405897e-05,0.026096913612789985,-0.00010054494501821054,-0.020677428583383395
94,0.084585,188.88,575.266,0.00781692,329.628,-0.394532,-0.667822,-0.00349156,0.0260626,-0.0211475,0.0525358,-5.60562e-05,-0.000102057,0.0384734,-0.003485471592457934,0.05394029246562959,-5.605462888058632e-05,0.026405199427850468,-0.00010205179236155715,-0.020925459576271788
95,0.085585,189.234,576.374,0.00778584,330.255,-0.396195,-0.670667,-0.00353658,0.0263628,-0.0214006,0.0531493,-5.69e-05,-0.000103567,0.0389551,-0.0035303336666739904,0.0545870832178339,-5.6898381225689576e-05,0.02671337252318584,-0.00010356163712343935,-0.021173231985532004
96,0.086585,189.585,577.472,0.00779746,330.875,-0.397821,-0.673472,-0.00358159,0.0266629,-0.0216537,0.0537626,-5.77451e-05,-0.000105079,0.0394365,-0.003575183756996725,0.055234059851076545,-5.774343278375227e-05,0.027021535443813693,-0.0001050734793952568,-0.021420941691530748
97,0.087585,189.932,578.559,0.00777332,331.489,-0.399443,-0.67625,-0.0036266,0.0269629,-0.0219066,0.0543756,-5.8592e-05,-0.000106593,0.0399178,-0.00362003182866244,0.05588111663240669,-5.8590283522286235e-05,0.027329688125037777,-0.00010658731916801667,-0.02166839304383461
98,0.088585,190.275,579.635,0.00777776,332.097,-0.401034,-0.678992,-0.0036716,0.0272627,-0.0221595,0.0549882,-5.94401e-05,-0.000108109,0.040399,-0.003664867918410586,0.05652814756979718,-5.943833347221705e-05,0.02763772773836859,-0.00010810315643261514,-0.021915781823604097
99,0.089585,190.615,580.7,0.00775816,332.7,-0.402617,-0.681707,-0.00371659,0.0275623,-0.0224122,0.0556006,-6.02898e-05,-0.000109627,0.0408799,-0.003709692027677014,0.05717536356467923,-6.028798260648838e-05,0.027945654126668495,-0.00010962099118005941,-0.02216291247926383
100,0.090585,190.952,581.756,0.00775756,333.296,-0.404174,-0.684389,-0.00376157,0.0278619,-0.0226648,0.0562128,-6.11408e-05,-0.000111148,0.0413607,-0.0037545041578972427,0.05782276447145129,-6.113893093939726e-05,0.028253672783535633,-0.000111141823289862,-0.022409882933890013
101,0.091585,191.286,582.802,0.00774086,333.887,-0.405721,-0.687045,-0.00380655,0.0281613,-0.0229174,0.0568246,-6.19933e-05,-0.00011267,0.0418414,-0.0037993142725132323,0.05847013845026239,-6.199137845508407e-05,0.02856157802428161,-0.00011266365297391001,-0.02265679101165774
102,0.092585,191.617,583.837,0.00773672,334.472,-0.407245,-0.689669,-0.00385151,0.0284605,-0.0231698,0.0574361,-6.2847e-05,-0.000114194,0.0423218,-0.003844102448497755,0.05911759087832924,-6.2845025168623e-05,0.02886936969176368,-0.00011418748011338131,-0.022903441309029438
103,0.093585,191.944,584.864,0.00772183,335.052,-0.408758,-0.692267,-0.00389646,0.0287596,-0.0234221,0.0580474,-6.37022e-05,-0.000115721,0.0428021,-0.0038888786497399686,0.059765227391565645,-6.370017105794545e-05,0.029177150546570996,-0.00011571430458334753,-0.023149931674720015
104,0.094585,192.269,585.881,0.00771516,335.627,-0.410251,-0.694836,-0.00394141,0.0290586,-0.0236743,0.0586583,-6.45586e-05,-0.000117249,0.0432822,-0.003933652838337243,0.06041283576081491,-6.45565161384587e-05,0.029484920523902947,-0.00011724212660468858,-0.02339626219836699
105,0.095585,192.59,586.888,0.00770135,336.196,-0.411731,-0.69738,-0.00398635,0.0293574,-0.0239264,0.059269,-6.54164e-05,-0.000118779,0.0437622,-0.003978415054164186,0.06106062766273834,-6.541426039397003e-05,0.029792576579681374,-0.00011877194605391939,-0.023642432969537275
106,0.096585,192.909,587.887,0.00769288,336.76,-0.413193,-0.699896,-0.00403127,0.0296561,-0.0241784,0.0598794,-6.62753e-05,-0.000120311,0.044242,-0.004023155338885642,0.06170849677940238,-6.62731038407749e-05,0.030100221566797147,-0.0001203037629218251,-0.0238884440777275
107,0.097585,193.224,588.877,0.00767965,337.319,-0.414642,-0.702387,-0.00407619,0.0299546,-0.0244302,0.0604895,-6.71356e-05,-0.000121844,0.0447216,-0.004067893613918683,0.06235644276911323,-6.713334645602753e-05,0.03040775237962512,-0.00012183657732134368,-0.0241341980257882
108,0.098585,193.537,589.858,0.00766987,337.873,-0.416074,-0.704853,-0.0041211,0.030253,-0.024682,0.0610993,-6.7997e-05,-0.00012338,0.045201,-0.004112619920479732,0.06300446528989956,-6.799468825635646e-05,0.03071527193257073,-0.00012337238900084202,-0.024379890100794888
109,0.099585,193.847,590.831,0.00765692,338.423,-0.417494,-0.707294,-0.00416599,0.0305513,-0.0249337,0.0617088,-6.88596e-05,-0.000124917,0.0456802,-0.004157324301574117,0.06365256399951202,-6.885722923211102e-05,0.0310227801607601,-0.0001249091981964101,-0.02462542278087243
110,0.1006,194.155,591.795,0.00764616,338.967,-0.418898,-0.709711,-0.00421088,0.0308494,-0.0251852,0.062318,-6.97234e-05,-0.000126455,0.0461593,-0.004202026675933945,0.06430073855542418,-6.972096938018257e-05,0.03133017386628145,-0.00012644700490349603,-0.024870698642310618
111,0.1016,194.46,592.752,0.0076333,339.507,-0.420289,-0.712104,-0.00425576,0.0311474,-0.0254367,0.062927,-7.05883e-05,-0.000127996,0.0466382,-0.004246717086116458,0.06494909510973645,-7.058580870455966e-05,0.031637556055765126,-0.00012798780886147387,-0.025115912824626108
112,0.1026,194.762,593.7,0.0076218,340.043,-0.421666,-0.714474,-0.00430062,0.0314452,-0.025688,0.0635356,-7.14544e-05,-0.000129538,0.0471169,-0.0042913855764662445,0.0655974203943932,-7.145184719514752e-05,0.03194482346980565,-0.00012952961031553745,-0.02536087041552293
113,0.1036,195.061,594.64,0.0076089,340.574,-0.42303,-0.716821,-0.00434548,0.0317429,-0.0259393,0.064144,-7.23216e-05,-0.000131081,0.0475954,-0.004336052063032447,0.06624592712070343,-7.231898485615673e-05,0.03225207917649531,-0.00013107240926113484,-0.025605766456311185
114,0.1046,195.358,595.572,0.00759684,341.1,-0.424381,-0.719146,-0.00439032,0.0320405,-0.0261904,0.0647521,-7.31898e-05,-0.000132626,0.0480738,-0.004380696633519254,0.06689450845015243,-7.318712169190889e-05,0.03255932311088805,-0.00013261720556090317,-0.02585040613255718
115,0.1056,195.653,596.497,0.00758383,341.622,-0.425719,-0.72145,-0.00443516,0.0323379,-0.0264414,0.0653599,-7.40591e-05,-0.000134173,0.0485519,-0.00442533920218835,0.06754316403885285,-7.405635769253127e-05,0.03286645192137172,-0.0001341639992056276,-0.026094886996985922
116,0.1066,195.945,597.414,0.00757132,342.14,-0.427044,-0.723732,-0.00447998,0.0326352,-0.0266923,0.0659674,-7.49295e-05,-0.000135721,0.0490299,-0.004469959858528938,0.06819189354264177,-7.492669285513731e-05,0.03317356876818511,-0.0001357117903216798,-0.02633920913834409
117,0.1076,196.235,598.324,0.00755817,342.654,-0.428358,-0.725993,-0.00452479,0.0329323,-0.0269431,0.0665746,-7.58008e-05,-0.000137271,0.0495077,-0.004514568560162191,0.06884069661708025,-7.579792719192291e-05,0.03348057023827633,-0.000137261578767367,-0.026583372645308523
118,0.1086,196.523,599.226,0.00754529,343.163,-0.429659,-0.728233,-0.00456959,0.0332293,-0.0271938,0.0671816,-7.66732e-05,-0.000138821,0.0499853,-0.004559165308516078,0.06948967986641663,-7.667026068536309e-05,0.03378755955329371,-0.00013881136481086465,-0.026827377606486458
119,0.1096,196.808,600.122,0.00753198,343.668,-0.430948,-0.730453,-0.00461438,0.0335262,-0.0274444,0.0677882,-7.75466e-05,-0.000140374,0.0504628,-0.004603750105017901,0.07013862911263091,-7.754359334011252e-05,0.03409453664821993,-0.00014036414803109132,-0.027071224110415182
120,0.1106,197.091,601.01,0.00751881,344.17,-0.432226,-0.732654,-0.00465916,0.0338229,-0.0276949,0.0683946,-7.8421e-05,-0.000141927,0.05094,-0.004648322951094741,0.07078775797330383,-7.84179251537287e-05,0.03440139801787656,-0.00014191692883980256,-0.027314912245562373
121,0.1116,197.371,601.892,0.00750532,344.667,-0.433493,-0.734835,-0.00470393,0.0341195,-0.0279453,0.0690007,-7.92963e-05,-0.000143483,0.0514171,-0.004692883848173124,0.0714369591539552,-7.929315613153243e-05,0.03470824697597963,-0.0001434727068067021,-0.027558442100325764
122,0.1126,197.65,602.766,0.00749191,345.161,-0.434748,-0.736996,-0.00474868,0.034416,-0.0281955,0.0696065,-8.01725e-05,-0.000145039,0.051894,-0.004737422845053407,0.07208623230879252,-8.01692862709702e-05,0.03501508345746851,-0.00014502848235276034,-0.027801716543210397
123,0.1136,197.926,603.634,0.00747826,345.651,-0.435992,-0.73914,-0.00479343,0.0347123,-0.0284457,0.070212,-8.10497e-05,-0.000146597,0.0523707,-0.004781959848858208,0.07273557709174949,-8.104641556183623e-05,0.035321803865081325,-0.00014658625518482182,-0.028044930126443268
124,0.1146,198.2,604.496,0.00746463,346.137,-0.437226,-0.741265,-0.00483816,0.0350085,-0.0286957,0.0708172,-8.19278e-05,-0.000148155,0.0528472,-0.004826474956206361,0.07338499315648495,-8.192444400945131e-05,0.03562851160455982,-0.00014814402558993578,-0.028287888522846694
125,0.1156,198.472,605.351,0.00745083,346.619,-0.438449,-0.743371,-0.00488288,0.0353045,-0.0289457,0.0714222,-8.28067e-05,-0.000149716,0.0533235,-0.004870978121148117,0.0740345875598376,-8.280327161980239e-05,0.03593510301728542,-0.00014970479311893214,-0.028530786187242807
126,0.1166,198.742,606.199,0.00743702,347.098,-0.439662,-0.745461,-0.00492759,0.0356004,-0.0291955,0.0720268,-8.36866e-05,-0.000151277,0.0537997,-0.00491546934510767,0.07468414521296829,-8.368309837414323e-05,0.036241681570328144,-0.0001512655582116551,-0.02877342888951806
127,0.1176,199.01,607.042,0.00742308,347.573,-0.440864,-0.747532,-0.00497228,0.0358962,-0.0294452,0.0726312,-8.45673e-05,-0.00015284,0.0542756,-0.004959938679107934,0.07533388064060209,-8.456372428666814e-05,0.03654824719855787,-0.00015282832056218165,-0.029015913888812195
128,0.1186,199.276,607.878,0.00740911,348.045,-0.442057,-0.749587,-0.00501697,0.0361918,-0.0296948,0.0732353,-8.54488e-05,-0.000154403,0.0547514,-0.005004406025818087,0.07598368609187212,-8.54451493552677e-05,0.036854696151353616,-0.00015439108047032857,-0.029258241272989927
129,0.1196,199.541,608.708,0.00739505,348.513,-0.443239,-0.751625,-0.00506164,0.0364873,-0.0299443,0.0738391,-8.63312e-05,-0.000155968,0.055227,-0.0050488514863041845,0.07663356121909137,-8.632747356918102e-05,0.03716113198773119,-0.00015595583762384457,-0.02950041112984647
130,0.1206,199.803,609.532,0.00738094,348.978,-0.444412,-0.753647,-0.0051063,0.0367826,-0.0301937,0.0744426,-8.72144e-05,-0.000157534,0.0557024,-0.005093285012388815,0.07728350567429998,-8.72105969347281e-05,0.03746745089576797,-0.00015752159217097272,-0.029742423547107766
131,0.1216,200.063,610.35,0.00736676,349.44,-0.445576,-0.755652,-0.00515095,0.0370778,-0.030443,0.0750459,-8.80984e-05,-0.000159101,0.0561776,-0.005137706605493508,0.07793362690262295,-8.809451944991054e-05,0.03777375649575454,-0.00015908834410705008,-0.029984278612431026
132,0.1226,200.321,611.162,0.00735253,349.898,-0.44673,-0.757642,-0.00519558,0.0373729,-0.0306922,0.0756488,-8.89832e-05,-0.00016067,0.0566526,-0.005182106318860735,0.0785837090338497,-8.897924111250788e-05,0.03808004872249193,-0.00016065709326684718,-0.030225976413403965
133,0.1236,200.578,611.969,0.00733824,350.353,-0.447875,-0.759616,-0.0052402,0.0376679,-0.0309412,0.0762515,-8.98687e-05,-0.000162239,0.0571274,-0.00522649410297793,0.07923396737095056,-8.986466192939524e-05,0.038386327510764984,-0.00016222583996516882,-0.030467420084292485
134,0.1246,200.832,612.77,0.00732391,350.805,-0.449011,-0.761574,-0.00528481,0.0379627,-0.0311902,0.0768539,-9.07551e-05,-0.000163809,0.0576021,-0.005270869959265179,0.0798842937715405,-9.075098188049413e-05,0.038692488926090673,-0.00016379558403833983,-0.030708803643191285
135,0.1256,201.085,613.565,0.00730953,351.253,-0.450139,-0.763518,-0.00532941,0.0382573,-0.031439,0.077456,-9.16421e-05,-0.000165381,0.0580765,-0.0053152338891420126,0.08053468788632001,-9.163790099098179e-05,0.038998532811379105,-0.00016536732531624576,-0.03094993329507234
136,0.1266,201.336,614.355,0.00729511,351.699,-0.451257,-0.765446,-0.00537399,0.0385519,-0.0316878,0.0780578,-9.253e-05,-0.000166953,0.0585508,-0.005359575947623485,0.08118514936571786,-9.252571923157316e-05,0.03930466687047818,-0.00016693906412346138,-0.03119100296135846
137,0.1276,201.586,615.14,0.00728065,352.141,-0.452368,-0.76736,-0.00541857,0.0388463,-0.0319364,0.0786594,-9.34185e-05,-0.000168526,0.0590248,-0.0054039160293799515,0.08183578604346575,-9.341413662777853e-05,0.03961068320779937,-0.00016851180029131552,-0.03143181894335545
138,0.1286,201.833,615.919,0.00726615,352.581,-0.453469,-0.76926,-0.00546312,0.0391405,-0.0321849,0.0792607,-9.43078e-05,-0.000170101,0.0594987,-0.00544822429794678,0.0824864895160069,-9.430335315918636e-05,0.03991658166625589,-0.0001700865336451418,-0.03167247823319286
139,0.1296,202.079,616.693,0.00725162,353.017,-0.454563,-0.771146,-0.00550767,0.0394346,-0.0324333,0.0798616,-9.51977e-05,-0.000171676,0.0599724,-0.005492530592624334,0.08313715111925735,-9.519316884276652e-05,0.04022246611102687,-0.00017166126451872987,-0.0319129809179296
140,0.1306,202.324,617.462,0.00723705,353.45,-0.455648,-0.773017,-0.0055522,0.0397286,-0.0326816,0.0804624,-9.60884e-05,-0.000173252,0.0604459,-0.005536815024236752,0.08378809544374444,-9.608378365755232e-05,0.040528336476804094,-0.00017323699273896764,-0.032153327084556316
141,0.1316,202.566,618.226,0.00722246,353.881,-0.456726,-0.774875,-0.00559672,0.0400225,-0.0329298,0.0810628,-9.69797e-05,-0.000174829,0.0609192,-0.005581087539718421,0.08443899719740222,-9.697499762095774e-05,0.040834192698264715,-0.00017481371830097014,-0.032393516819994694
142,0.1326,202.807,618.984,0.00720784,354.309,-0.457795,-0.77672,-0.00564123,0.0403162,-0.0331779,0.0816629,-9.78717e-05,-0.000176407,0.0613923,-0.005625348140485098,0.08508996434277671,-9.786691072144471e-05,0.041139930596072904,-0.00017639144120007444,-0.03263355021109826
143,0.1336,203.047,619.738,0.00719319,354.734,-0.458857,-0.778552,-0.00568572,0.0406098,-0.0334259,0.0822628,-9.87644e-05,-0.000177986,0.0618652,-0.005669586884648137,0.08574110510252919,-9.875952295723689e-05,0.041445654157718614,-0.0001779701614316176,-0.03287342734465193
144,0.1346,203.284,620.487,0.00717852,355.156,-0.459911,-0.78037,-0.0057302,0.0409032,-0.0336737,0.0828623,-9.96577e-05,-0.000179566,0.0623379,-0.0057138137178114334,0.08639220204184528,-9.96527343363196e-05,0.041751259142707386,-0.00017954987899071462,-0.033113051618682166
145,0.1356,203.521,621.231,0.00716382,355.575,-0.460958,-0.782176,-0.00577467,0.0411965,-0.0339215,0.0834616,-0.000100552,-0.000181147,0.0628105,-0.005758028641389301,0.08704347202208607,-0.00010054694481709259,0.042056849599663826,-0.0001811305938728136,-0.03335261652117372
146,0.1366,203.755,621.97,0.00714911,355.992,-0.461997,-0.783969,-0.00581912,0.0414897,-0.0341691,0.0840607,-0.000101446,-0.000182728,0.0632828,-0.005802221714817812,0.08769491488639969,-0.00010144085452856721,0.042362425463198905,-0.00018271130625580057,-0.0335919287852422
147,0.1376,203.989,622.705,0.00713438,356.406,-0.463029,-0.78575,-0.00586356,0.0417827,-0.0344167,0.0846594,-0.000102341,-0.00018431,0.0637549,-0.005846402882372037,0.08834631280845295,-0.00010233576333851246,0.04266788240111574,-0.00018429301595546121,-0.0338311818029291
148,0.1386,204.22,623.435,0.00711963,356.817,-0.464054,-0.787519,-0.00590799,0.0420756,-0.0346641,0.0852579,-0.000103237,-0.000185893,0.0642269,-0.005890572145464512,0.08899788303961098,-0.0001032316712442638,0.04297332455369052,-0.00018587572296679955,-0.03407018240295778
149,0.1396,204.45,624.16,0.00710487,357.226,-0.465073,-0.789275,-0.00595241,0.0423684,-0.0349114,0.0858561,-0.000104134,-0.000187477,0.0646986,-0.005934729505507552,0.08964951645736852,-0.00010412857824326771,0.0432787518554949,-0.00018745942728537468,-0.03430902731245922
150,0.1406,204.679,624.881,0.00709009,357.632,-0.466084,-0.79102,-0.00599681,0.042661,-0.0351586,0.0864539,-0.000105031,-0.000189062,0.0651702,-0.005978865023701818,0.09030110367832256,-0.00010502548443758197,0.043584059882673776,-0.00018904412890630162,-0.03454771661769396
151,0.1416,204.907,625.597,0.00707531,358.036,-0.467088,-0.792753,-0.00604119,0.0429535,-0.0354057,0.0870516,-0.000105928,-0.000190647,0.0656416,-0.0060229787027822335,0.09095297143926517,-0.00010592238982753965,0.04388935286711182,-0.00019062882801557102,-0.03478625040485461
152,0.1426,205.133,626.31,0.00706051,358.437,-0.468086,-0.794475,-0.00608556,0.0432459,-0.0356527,0.0876489,-0.000106826,-0.000192234,0.0661127,-0.006067080484811971,0.0916047922960257,-0.00010682029430608697,0.044194630743340735,-0.00019221552422854504,-0.035024628760065846
153,0.1436,205.357,627.017,0.00704571,358.836,-0.469077,-0.796186,-0.00612992,0.0435381,-0.0358996,0.088246,-0.000107725,-0.000193821,0.0665837,-0.00611117037120068,0.09225678415030258,-0.00010771919787055939,0.04449978899589335,-0.00019380221792342223,-0.03526285176938426
154,0.1446,205.58,627.721,0.00703089,359.232,-0.470061,-0.797885,-0.00617427,0.0438302,-0.0361464,0.0888428,-0.000108624,-0.000195408,0.0670545,-0.006155248363358012,0.09290883755246515,-0.00010861810062690047,0.04480493194821755,-0.0001953889091003136,-0.03550091951879897
155,0.1456,205.802,628.42,0.00701607,359.626,-0.471039,-0.799573,-0.0062186,0.0441222,-0.036393,0.0894393,-0.000109524,-0.000196996,0.0675251,-0.006199304524686089,0.0935609521479075,-0.00010951800246572496,0.04511005953480618,-0.00019697659756212627,-0.035738735668109256
156,0.1466,206.022,629.115,0.00700125,360.017,-0.472011,-0.801251,-0.00626292,0.044414,-0.0366396,0.0900355,-0.000110424,-0.000198586,0.0679955,-0.006243348795481274,0.0942131275817566,-0.00011041790349453073,0.04541506714862509,-0.0001985662831054391,-0.035976493179187496
157,0.1476,206.241,629.806,0.00698642,360.406,-0.472977,-0.802918,-0.00630722,0.0447057,-0.0368861,0.0906315,-0.000111325,-0.000200175,0.0684657,-0.006287371240025319,0.09486547298541526,-0.00011131880360215618,0.04572005920464095,-0.00020015496632141971,-0.03621409568790657
158,0.1486,206.459,630.492,0.00697159,360.793,-0.473936,-0.804575,-0.00635151,0.0449973,-0.0371324,0.0912271,-0.000112226,-0.000201766,0.0689357,-0.006331381797732072,0.09551776909562415,-0.00011221970289798655,0.046025035637307976,-0.0002017456466094636,-0.0364514469251338
159,0.1496,206.676,631.175,0.00695676,361.178,-0.47489,-0.806221,-0.00639579,0.0452887,-0.0373786,0.0918225,-0.000113128,-0.000203357,0.0694055,-0.006375380470008296,0.09617023459504792,-0.00011312160126908388,0.046329891748070784,-0.0002033363243668651,-0.036688643378819275
160,0.1506,206.891,631.854,0.00694193,361.56,-0.475837,-0.807858,-0.00644005,0.04558,-0.0376247,0.0924176,-0.000114031,-0.000204948,0.0698752,-0.0064193573224538,0.09682275964122566,-0.00011402449871267262,0.04663473204337043,-0.0002049269995932912,-0.03692568513449934
161,0.1516,207.105,632.529,0.00692709,361.94,-0.476779,-0.809484,-0.0064843,0.0458712,-0.0378708,0.0930125,-0.000114934,-0.000206541,0.0703446,-0.006463322293160156,0.09747545362551246,-0.00011492739534080254,0.046939556457622045,-0.0002065196718760154,-0.03716266856138095
162,0.1526,207.317,633.2,0.00691226,362.318,-0.477715,-0.8111,-0.00652854,0.0461622,-0.0381167,0.0936071,-0.000115837,-0.000208134,0.0708138,-0.006507275383532352,0.0981282065744582,-0.00011583029115380672,0.04724426020079564,-0.00020811234162165793,-0.03739940115371665
163,0.1536,207.529,633.867,0.00689743,362.693,-0.478646,-0.812707,-0.00657276,0.0464531,-0.0383625,0.0942013,-0.000116741,-0.000209727,0.0712829,-0.006551206660487141,0.09878090825326913,-0.00011673418603463936,0.04754894787076114,-0.00020970500883010779,-0.03763597930426721
164,0.1546,207.739,634.53,0.0068826,363.067,-0.47957,-0.814304,-0.00661697,0.0467439,-0.0386081,0.0947954,-0.000117645,-0.000211322,0.0717517,-0.006595126060795264,0.09943388793927221,-0.00011763808009834786,0.047853619401895475,-0.00021129967307886854,-0.03787230688553522
165,0.1556,207.948,635.19,0.00686778,363.438,-0.48049,-0.815892,-0.00666116,0.0470345,-0.0388537,0.0953891,-0.00011855,-0.000212916,0.0722203,-0.00663902365225022,0.10008681564095134,-0.00011854297322644314,0.04815816991273958,-0.0002128933349970774,-0.03810857643187615
166,0.1566,208.156,635.846,0.00685296,363.808,-0.481403,-0.81747,-0.00670534,0.047325,-0.0390992,0.0959826,-0.000119455,-0.000214512,0.0726888,-0.006682909370742562,0.10073991095289725,-0.00011944786553552689,0.04846270409254738,-0.00021448899394593823,-0.03834469179201583
167,0.1576,208.362,636.498,0.00683814,364.175,-0.482312,-0.819039,-0.0067495,0.0476154,-0.0393446,0.0965758,-0.000120361,-0.000216108,0.073157,-0.006726773284942422,0.10139306357398903,-0.0001203537569054447,0.04876722187565785,-0.00021608465034816948,-0.03858065305101943
168,0.1586,208.568,637.147,0.00682333,364.54,-0.483215,-0.8206,-0.00679365,0.0479056,-0.0395898,0.0971687,-0.000121267,-0.000217704,0.0736251,-0.006770625329860835,0.10204627314622461,-0.00012125964745457463,0.04907161828922946,-0.00021768030420377116,-0.038816364175526474
169,0.1596,208.772,637.792,0.00680853,364.903,-0.484113,-0.822151,-0.00683779,0.0481957,-0.039835,0.0977613,-0.000122173,-0.000219301,0.074093,-0.0068144655068989035,0.10269953931133813,-0.00012216553718291667,0.04937599811385418,-0.00021927695529344593,-0.03905201751075105
170,0.1606,208.975,638.433,0.00679374,365.264,-0.485006,-0.823694,-0.00688191,0.0484857,-0.04008,0.0983537,-0.00012308,-0.000220899,0.0745606,-0.006858283886040262,0.10335297204609262,-0.00012307242596754087,0.049680361283833685,-0.00022087460361230882,-0.03928742092836479
171,0.1616,209.177,639.071,0.00677895,365.623,-0.485894,-0.825227,-0.00692602,0.0487755,-0.0403249,0.0989458,-0.000123988,-0.000222497,0.0750281,-0.0069020904009782225,0.10400646078709119,-0.00012398031380556063,0.04998460273499061,-0.00022247224937821386,-0.03952267063147752
172,0.1626,209.378,639.706,0.00676417,365.98,-0.486776,-0.826753,-0.00697011,0.0490653,-0.0405697,0.0995376,-0.000124896,-0.000224095,0.0754954,-0.006945875122571166,0.10466000517529528,-0.0001248882008192398,0.05028893236809728,-0.00022406989259105003,-0.03975776670477349
173,0.1636,209.578,640.337,0.0067494,366.336,-0.487654,-0.82827,-0.00701419,0.0493548,-0.0408145,0.100129,-0.000125804,-0.000225695,0.0759625,-0.0069896479836347725,0.10531349432004933,-0.00012579608700857836,0.05059303503075441,-0.00022566953279945512,-0.0399928052335945
174,0.1646,209.776,640.965,0.00673464,366.689,-0.488527,-0.829778,-0.00705825,0.0496443,-0.0410591,0.10072,-0.000126713,-0.000227294,0.0764293,-0.007033399055901501,0.1059669276657269,-0.0001267049722468716,0.050897225743876895,-0.000227268170675754,-0.040227594277563616
175,0.1656,209.974,641.59,0.00671988,367.04,-0.489396,-0.831279,-0.0071023,0.0499336,-0.0413036,0.101311,-0.000127622,-0.000228894,0.076896,-0.007077138271309735,0.1066207473046501,-0.00012761385665893688,0.05120129429267939,-0.00022886780576703014,-0.04046222994538351
176,0.1666,210.171,642.211,0.00670514,367.39,-0.490259,-0.832771,-0.00714634,0.0502228,-0.0415479,0.101902,-0.000128531,-0.000230495,0.0773625,-0.007120865631256801,0.10727495346518579,-0.0001285227402448852,0.05150534567069909,-0.00023046843806828754,-0.04069661639113775
177,0.1676,210.366,642.829,0.00669041,367.737,-0.491118,-0.834256,-0.00719036,0.0505118,-0.0417922,0.102493,-0.000129441,-0.000232096,0.0778288,-0.007164571208784887,0.10792954637583563,-0.00012943262287523627,0.05180927463121732,-0.00023206906780703918,-0.040930945583277145
178,0.1686,210.561,643.443,0.00667569,368.083,-0.491972,-0.835732,-0.00723437,0.0508007,-0.0420364,0.103083,-0.000130351,-0.000233698,0.0782949,-0.007208264934518427,0.10858341768126478,-0.00013034250467758302,0.05211318622857464,-0.00023367069474955482,-0.041165121652303904
179,0.1696,210.754,644.055,0.00666098,368.427,-0.492822,-0.837201,-0.00727836,0.0510895,-0.0422805,0.103673,-0.000131262,-0.0002353,0.0787608,-0.007251936882372467,0.1092376748845929,-0.00013125338552055776,0.052417080396963245,-0.000235272319126123,-0.04139914468243577
180,0.1706,210.946,644.663,0.00664628,368.77,-0.493667,-0.838662,-0.00732234,0.0513782,-0.0425244,0.104262,-0.000132173,-0.000236902,0.0792265,-0.007295596982095698,0.10989120832180332,-0.00013216426553386285,0.052720957070561125,-0.0002368739409369658,-0.04163291892112042
181,0.1716,211.138,645.268,0.0066316,369.11,-0.494508,-0.840116,-0.0073663,0.0516667,-0.0427683,0.104852,-0.000133084,-0.000238505,0.079692,-0.007339235308475023,0.11054623734927516,-0.00013307514471727622,0.0530247108810562,-0.00023847655994357897,-0.04186663614922104
182,0.1726,211.328,645.871,0.00661693,369.449,-0.495345,-0.841562,-0.00741025,0.0519551,-0.043012,0.105441,-0.000133996,-0.000240108,0.0801573,-0.007382861790384165,0.11120054175680583,-0.00013398702293698772,0.05332844700431805,-0.00024007917638113607,-0.042100104800680827
183,0.1736,211.518,646.47,0.00660227,369.786,-0.496177,-0.843001,-0.00745418,0.0522434,-0.0432556,0.106029,-0.000134908,-0.000241712,0.0806225,-0.007426466503481222,0.11185411980847504,-0.00013489890032503116,0.05363216537448867,-0.00024168279000802428,-0.042333420796109356
184,0.1746,211.706,647.066,0.00658762,370.121,-0.497005,-0.844432,-0.0074981,0.0525315,-0.0434992,0.106618,-0.00013582,-0.000243316,0.0810874,-0.007470059375765947,0.11250919478568489,-0.00013581077688140653,0.053935760532115795,-0.0002432864010627478,-0.042566679962683485
185,0.1756,211.893,647.659,0.00657299,370.454,-0.497829,-0.845857,-0.00754201,0.0528195,-0.0437426,0.107206,-0.000136733,-0.000244921,0.0815521,-0.007513640408630118,0.11316354255160888,-0.0001367236524694171,0.054239337744169225,-0.0002448910093003631,-0.04279969087420221
186,0.1766,212.08,648.249,0.00655837,370.786,-0.498649,-0.847274,-0.0075859,0.0531074,-0.0439859,0.107794,-0.000137646,-0.000246526,0.0820166,-0.007557199679037452,0.11381827518715992,-0.00013763652722398323,0.05454289694475589,-0.0002464956149625941,-0.04303254938102652
187,0.1776,212.265,648.836,0.00654376,371.116,-0.499464,-0.848684,-0.00762977,0.0533951,-0.0442291,0.108382,-0.000138559,-0.000248131,0.082481,-0.007600737189685236,0.11447339291870784,-0.00013854940114510494,0.054846332583330604,-0.0002481002180494407,-0.04326525556679783
188,0.1786,212.45,649.42,0.00652917,371.445,-0.500276,-0.850088,-0.00767363,0.0536828,-0.0444722,0.108969,-0.000139473,-0.000249737,0.0829451,-0.007644262866826956,0.1151277808444171,-0.00013946327409330994,0.05514985553289753,-0.00024970581831118555,-0.043497809515091856
189,0.1796,212.634,650.002,0.0065146,371.772,-0.501084,-0.851484,-0.00771748,0.0539703,-0.0447152,0.109557,-0.000140387,-0.000251344,0.083409,-0.007687776711852279,0.11578366879171287,-0.00014037714620618313,0.05545325472790763,-0.00025131241574305463,-0.04373021130941812
190,0.1806,212.817,650.58,0.00650004,372.097,-0.501887,-0.852875,-0.00776131,0.0542576,-0.044958,0.110144,-0.000141301,-0.00025295,0.0838728,-0.007731268803462865,0.11643882607514389,-0.00014129101748383555,0.05575653001139935,-0.00025291801084603716,-0.043962365429461525
191,0.1816,212.998,651.156,0.00648549,372.421,-0.502687,-0.854258,-0.00780513,0.0545448,-0.0452008,0.11073,-0.000142216,-0.000254557,0.0843363,-0.007774749066604358,0.11709325095498646,-0.00014220588778401932,0.05605978683241375,-0.0002545246031159243,-0.04419446318932696
192,0.1826,213.179,651.729,0.00647096,372.743,-0.503483,-0.855635,-0.00784893,0.0548319,-0.0454435,0.111317,-0.000143131,-0.000256164,0.0847997,-0.007818207580846837,0.11774917718881239,-0.00014312075724709494,0.05636302512498714,-0.00025613119280398777,-0.044426409045342785
193,0.1836,213.359,652.299,0.00645645,373.063,-0.504276,-0.857005,-0.00789272,0.0551189,-0.045686,0.111903,-0.000144046,-0.000257772,0.0852628,-0.00786165427026464,0.11840437015943617,-0.0001440356258730624,0.05666624482314342,-0.00025773877965251657,-0.044658107546570514
194,0.1846,213.539,652.866,0.00644195,373.382,-0.505064,-0.858369,-0.00793649,0.0554057,-0.0459285,0.112489,-0.000144962,-0.00025938,0.0857258,-0.007905079215295374,0.11905994718565815,-0.0001449514935170093,0.05696934016395305,-0.0002593463639160021,-0.04488974986772387
195,0.1856,213.717,653.431,0.00642747,373.7,-0.505849,-0.859727,-0.00798025,0.0556925,-0.0461708,0.113074,-0.000145878,-0.000260988,0.0861886,-0.007948492339142854,0.11971478877725206,-0.00014586736032196068,0.05727252244497305,-0.0002609539455945553,-0.04512114504667297
196,0.1866,213.894,653.993,0.006413,374.015,-0.506631,-0.861079,-0.00802399,0.055979,-0.0464131,0.113659,-0.000146794,-0.000262597,0.0866511,-0.007991883723111437,0.12037001356325039,-0.0001467832262879165,0.057575474418451345,-0.00026256252442558026,-0.045352484165362084
197,0.1876,214.071,654.553,0.00639855,374.33,-0.507408,-0.862424,-0.00806772,0.0562655,-0.0466552,0.114244,-0.000147711,-0.000264206,0.0871135,-0.008035263289535077,0.12102562176788756,-0.0001477000912674109,0.05787851320010495,-0.00026417110066834226,-0.04558357635410748
198,0.1886,214.247,655.109,0.00638411,374.643,-0.508183,-0.863764,-0.00811143,0.0565518,-0.0468972,0.114829,-0.000148627,-0.000265815,0.0875757,-0.00807862112058444,0.1216816136155292,-0.0001486159555545985,0.058181427178501055,-0.00026577967432295235,-0.04581451718366236
199,0.1896,214.422,655.664,0.0063697,374.954,-0.508953,-0.865097,-0.00815513,0.056838,-0.0471391,0.115414,-0.000149545,-0.000267425,0.0880377,-0.008121967137724062,0.12233798933067197,-0.00014953381870386195,0.05848432204514742,-0.00026738924512204054,-0.04604530673683371
200,0.1906,214.596,656.215,0.00635529,375.264,-0.509721,-0.866425,-0.00819881,0.0571241,-0.047381,0.115998,-0.000150462,-0.000269035,0.0884994,-0.00816529142399014,0.12299362614375653,-0.00015045068116092963,0.058787197733985996,-0.00026899881332964615,-0.0462760404687641
201,0.1916,214.769,656.764,0.00634091,375.573,-0.510485,-0.867746,-0.00824248,0.05741,-0.0476227,0.116582,-0.000151379,-0.000270645,0.088961,-0.008208603899978906,0.12364964596056605,-0.00015136754277733644,0.05908994826994496,-0.0002706083789458802,-0.04650652769427954
202,0.1926,214.941,657.311,0.00632654,375.88,-0.511245,-0.869062,-0.00828614,0.0576958,-0.0478643,0.117166,-0.000152297,-0.000272256,0.0894224,-0.008251904567072144,0.12430604900483999,-0.00015228540340062047,0.0593926794353834,-0.0002722189416983767,-0.04673686389145559
203,0.1936,215.113,657.855,0.00631219,376.185,-0.512002,-0.870373,-0.00832978,0.0579815,-0.0481057,0.117749,-0.000153215,-0.000273867,0.0898836,-0.008295183509603454,0.12496171053817573,-0.00015320326318135624,0.05969539116420952,-0.000273829501856393,-0.046966953839538084
204,0.1946,215.284,658.396,0.00629786,376.49,-0.512756,-0.871677,-0.0083734,0.0582671,-0.0483471,0.118332,-0.000154134,-0.000275478,0.0903446,-0.008338440730251917,0.1256177544336332,-0.0001541221219653055,0.059998083390318424,-0.0002754400594198181,-0.047196988250610694
205,0.1956,215.454,658.936,0.00628354,376.792,-0.513507,-0.872976,-0.00841701,0.0585525,-0.0485884,0.118915,-0.000155053,-0.000277089,0.0908054,-0.008381686147878487,0.1262741809141945,-0.00015504097990481913,0.06030065001752205,-0.00027705061438854095,-0.04742687188077044
206,0.1966,215.623,659.472,0.00626924,377.094,-0.514255,-0.87427,-0.0084606,0.0588378,-0.0488296,0.119498,-0.000155971,-0.000278701,0.091266,-0.00842490984811195,0.1269309902029716,-0.00015595883715591174,0.060603196949239546,-0.00027866216648397835,-0.04765660481236744
207,0.1976,215.791,660.007,0.00625496,377.394,-0.514999,-0.875558,-0.00850418,0.059123,-0.0490706,0.12008,-0.000156891,-0.000280313,0.0917264,-0.008468121748946622,0.1275870549355882,-0.00015687869325065051,0.06090572411933337,-0.0002802737159817159,-0.04788609191630089
208,0.1986,215.959,660.538,0.00624069,377.693,-0.515741,-0.876841,-0.00854775,0.059408,-0.0493116,0.120662,-0.00015781,-0.000281925,0.0921867,-0.008511321851760956,0.1282435016090131,-0.00015779754865696827,0.06120812534083453,-0.0002818852628815316,-0.048115523720506204
209,0.1996,216.126,661.068,0.00622645,377.99,-0.516479,-0.878119,-0.0085913,0.0596929,-0.0495524,0.121244,-0.00015873,-0.000283538,0.0926467,-0.008554500243478036,0.12890033044560067,-0.00015871740306006021,0.06151050660791024,-0.00028349780690017923,-0.04834470990727002
210,0.2006,216.292,661.595,0.00621222,378.286,-0.517214,-0.879392,-0.00863483,0.0599777,-0.0497932,0.121826,-0.00015965,-0.000285151,0.0931065,-0.008597656926770392,0.1295575416678345,-0.00015963725661694017,0.06181286785439011,-0.00028511034831768534,-0.04857384091264416
211,0.2016,216.458,662.12,0.00619801,378.581,-0.517946,-0.880659,-0.00867835,0.0602624,-0.0500338,0.122407,-0.00016057,-0.000286764,0.0935661,-0.008640801817901278,0.1302140052837577,-0.00016055710932749712,0.06211520901409018,-0.00028672288713416094,-0.04880272651047901
212,0.2026,216.622,662.643,0.00618381,378.874,-0.518675,-0.881921,-0.00872185,0.0605469,-0.0502744,0.122988,-0.00016149,-0.000288377,0.0940256,-0.00868392500508608,0.13087085041586133,-0.00016147696119184207,0.06241742377906645,-0.00028833542334960605,-0.049031557045063345
213,0.2036,216.786,663.163,0.00616964,379.166,-0.519402,-0.883178,-0.00876534,0.0608313,-0.0505148,0.123569,-0.000162411,-0.000289991,0.0944848,-0.00872703640372341,0.1315280772858709,-0.00016239781204752113,0.06271961826440808,-0.00028994895667411313,-0.04926014238169141
214,0.2046,216.949,663.681,0.00615548,379.457,-0.520125,-0.884431,-0.00880882,0.0611156,-0.0507551,0.124149,-0.000163332,-0.000291605,0.0949439,-0.008770136015188279,0.13218455393052042,-0.00016331866205510082,0.06302179240389938,-0.0002915624873943701,-0.04948857772187165
215,0.2056,217.112,664.197,0.00614134,379.747,-0.520846,-0.885678,-0.00885228,0.0613998,-0.0509953,0.124729,-0.000164253,-0.000293219,0.0954027,-0.008813213928987151,0.1328414114420644,-0.00016423951121458114,0.06332394613131154,-0.00029317601551037686,-0.04971686314732571
216,0.2066,217.274,664.71,0.00612721,380.035,-0.521563,-0.886921,-0.00889572,0.0616838,-0.0512354,0.125309,-0.000165174,-0.000294833,0.0958614,-0.008856270147786227,0.1334986500414701,-0.00016516035952585106,0.0636259730178006,-0.00029478954102224453,-0.049944998739710256
217,0.2076,217.435,665.221,0.00611311,380.322,-0.522278,-0.888158,-0.00893915,0.0619677,-0.0514754,0.125889,-0.000166095,-0.000296447,0.0963198,-0.008899314585257057,0.1341562699498322,-0.00016608120698913265,0.06392797929930372,-0.000296403063929751,-0.050172984580617475
218,0.2086,217.595,665.731,0.00609902,380.608,-0.522991,-0.889391,-0.00898257,0.0622515,-0.0517153,0.126468,-0.000167017,-0.000298062,0.0967781,-0.008942347242771986,0.13481313657467053,-0.00016700305343730903,0.0642299649095599,-0.00029801758393510625,-0.05040082075157515
219,0.2096,217.755,666.238,0.00608495,380.893,-0.5237,-0.89062,-0.00902596,0.0625351,-0.0519551,0.127048,-0.000167939,-0.000299677,0.0972361,-0.0089853483014104,0.13547151910636135,-0.00016792489903549868,0.064531823329109,-0.0002996321013329917,-0.05062850733404656
220,0.2106,217.914,666.743,0.0060709,381.176,-0.524407,-0.891843,-0.00906935,0.0628187,-0.0521948,0.127627,-0.000168861,-0.000301292,0.097694,-0.009028347494273392,0.13612914748096627,-0.0001688467437838126,0.06483376736784607,-0.0003012466161234073,-0.0508560444094307
221,0.2116,218.072,667.245,0.00605686,381.458,-0.525111,-0.893063,-0.00911272,0.0631021,-0.0524344,0.128205,-0.000169783,-0.000302908,0.0981517,-0.009071325002868558,0.1367860199460651,-0.00016976858768213976,0.06513558402291819,-0.00030286212800356704,-0.05108343205906196
222,0.2126,218.229,667.746,0.00604285,381.739,-0.525812,-0.894277,-0.00915607,0.0633853,-0.0526739,0.128784,-0.000170706,-0.000304523,0.0986092,-0.009114280829855437,0.1374444096370362,-0.00017069143055981062,0.06543727313747572,-0.0003044766375774888,-0.05131067036421055
223,0.2136,218.386,668.245,0.00602885,382.019,-0.526511,-0.895487,-0.00919941,0.0636685,-0.0529133,0.129362,-0.000171629,-0.000306139,0.0990665,-0.00915722488631976,0.13810204254340763,-0.00017161427258571837,0.06573904770248973,-0.00030609214423793496,-0.05153775940608252
224,0.2146,218.543,668.741,0.00601487,382.298,-0.527208,-0.896693,-0.00924273,0.0639515,-0.0531525,0.12994,-0.000172552,-0.000307755,0.0995236,-0.00920014726563223,0.13876005567147254,-0.00017253711375986303,0.06604069453400285,-0.0003077076482876917,-0.05176460444228459
225,0.2156,218.698,669.236,0.0060009,382.575,-0.527901,-0.897895,-0.00928604,0.0642344,-0.0533917,0.130517,-0.000173475,-0.000309371,0.0999805,-0.009243057878018157,0.1394173098231828,-0.00017345995408224457,0.06634232010941266,-0.000309323149726759,-0.051991395223643155
226,0.2166,218.853,669.728,0.00598696,382.851,-0.528593,-0.899092,-0.00932934,0.0645172,-0.0536307,0.131095,-0.000174398,-0.000310987,0.100437,-0.009285956724845335,0.1400760833954824,-0.000174382793552752,0.06664392436237088,-0.0003109386485552479,-0.05221794220674192
227,0.2176,219.007,670.218,0.00597303,383.127,-0.529282,-0.900285,-0.00937262,0.0647998,-0.0538697,0.131672,-0.000175322,-0.000312604,0.100894,-0.009328833900769551,0.14073409711430362,-0.00017530663199627483,0.06694540053197207,-0.00031255514446049126,-0.05244443505158136
228,0.2186,219.161,670.707,0.00595912,383.401,-0.529968,-0.901474,-0.00941588,0.0650823,-0.0541085,0.132249,-0.000176245,-0.000314221,0.10135,-0.009371689408443684,0.1413924906165973,-0.00017622946976236786,0.06724685518608742,-0.00031417163775193657,-0.05267068430525501
229,0.2196,219.314,671.193,0.00594523,383.673,-0.530652,-0.902658,-0.00945913,0.0653647,-0.0543473,0.132825,-0.000177169,-0.000315838,0.101806,-0.009414533156373972,0.1420501220708692,-0.00017715330649958894,0.06754828825833847,-0.0003157881284294728,-0.05289687953705735
230,0.2206,219.466,671.678,0.00593136,383.945,-0.531334,-0.903839,-0.00950236,0.065647,-0.0545859,0.133401,-0.000178093,-0.000317455,0.102262,-0.00945735524049962,0.14270813242997282,-0.0001780771423830485,0.06784969968233456,-0.0003174046164930999,-0.05312283138447249
231,0.2216,219.618,672.16,0.0059175,384.216,-0.532013,-0.905015,-0.00954558,0.0659291,-0.0548245,0.133977,-0.000179017,-0.000319072,0.102718,-0.009500165568468333,0.1433665219122202,-0.0001790009774129686,0.06815098257656915,-0.000319021101942929,-0.05334872932620793
232,0.2226,219.769,672.641,0.00590366,384.485,-0.53269,-0.906187,-0.00958878,0.0662112,-0.0550629,0.134553,-0.000179942,-0.00032069,0.103173,-0.009542954237073853,0.1440252907360493,-0.00017992581140935382,0.06845235047469744,-0.0003206385844582993,-0.05357438409002002
233,0.2236,219.92,673.119,0.00588984,384.754,-0.533364,-0.907356,-0.00963197,0.066493,-0.0553012,0.135129,-0.000180867,-0.000322307,0.103629,-0.009585731153106125,0.1446844391200237,-0.00018085064455020117,0.06875348277460946,-0.00032225506467875586,-0.05379989044414213
234,0.2246,220.07,673.596,0.00587604,385.021,-0.534037,-0.90852,-0.00967514,0.0667748,-0.0555394,0.135704,-0.000181791,-0.000323925,0.104084,-0.009628486414213322,0.14534282193943837,-0.00018177447701739347,0.06905469994556146,-0.00032387254196153403,-0.054025248469032006
235,0.2256,220.219,674.071,0.00586226,385.288,-0.534707,-0.909681,-0.0097183,0.0670565,-0.0557775,0.136279,-0.000182716,-0.000325543,0.104539,-0.009671229926328073,0.1460015834378341,-0.0001826993084482753,0.06935589507587836,-0.00032549001662718346,-0.05425045824508368
236,0.2266,220.368,674.544,0.00584849,385.553,-0.535375,-0.910838,-0.00976144,0.067338,-0.0560156,0.136854,-0.000183641,-0.000327161,0.104994,-0.009713951787951869,0.14666072383301376,-0.00018362413902373032,0.06965696113340192,-0.0003271074886758152,-0.05447561440507098
237,0.2276,220.516,675.015,0.00583474,385.817,-0.53604,-0.911991,-0.00980457,0.0676194,-0.0562535,0.137428,-0.000184567,-0.000328779,0.105448,-0.009756661904161024,0.147319096023236,-0.0001845499685591001,0.06995800495714422,-0.00032872495810731817,-0.054700527901882845
238,0.2286,220.663,675.484,0.00582101,386.08,-0.536704,-0.91314,-0.00984768,0.0679007,-0.0564913,0.138002,-0.000185492,-0.000330398,0.105902,-0.009799350374309679,0.14797784622757515,-0.0001854747974225912,0.07025902648063087,-0.0003303434245914838,-0.05492529339067198
239,0.2296,220.81,675.952,0.00580729,386.342,-0.537365,-0.914286,-0.00989078,0.0681818,-0.056729,0.138576,-0.000186418,-0.000332016,0.106357,-0.0098420271026185,0.14863697466307357,-0.00018640062524433176,0.07055991858137811,-0.000331960888787286,-0.055149910951578285
240,0.2306,220.956,676.418,0.0057936,386.603,-0.538024,-0.915428,-0.00993386,0.0684628,-0.0569666,0.13915,-0.000187343,-0.000333635,0.106811,-0.009884682189293725,0.14929648154689823,-0.00018732545239596998,0.07086078818869956,-0.00033357935003253125,-0.05537438066467826
241,0.2316,221.102,676.881,0.00577992,386.863,-0.538681,-0.916567,-0.00997693,0.0687437,-0.057204,0.139723,-0.000188269,-0.000335254,0.107264,-0.009927325537700704,0.1499552171405487,-0.00018825127850397028,0.07116163523609131,-0.0003351978086574281,-0.055598608169850516
242,0.2326,221.247,677.344,0.00576625,387.122,-0.539336,-0.917701,-0.01002,0.0690245,-0.0574414,0.140297,-0.000189195,-0.000336873,0.107718,-0.009969967049498263,0.15061548091276156,-0.00018917710375465635,0.07146245965703768,-0.00033681626466197656,-0.055822782449731156
243,0.2336,221.392,677.804,0.00575261,387.381,-0.539989,-0.918833,-0.010063,0.0693052,-0.0576787,0.14087,-0.000190122,-0.000338492,0.108171,-0.010012537425645451,0.15127497250962274,-0.00019010392795781872,0.07176326138501099,-0.00033843471804628766,-0.05604680912163995
244,0.2346,221.536,678.262,0.00573898,387.638,-0.54064,-0.919961,-0.010106,0.0695857,-0.0579159,0.141442,-0.000191048,-0.000340111,0.108625,-0.010055105971305878,0.15193369016918878,-0.00019102975149298818,0.07206393314707271,-0.0003400531688103614,-0.05627068826540016
245,0.2356,221.679,678.719,0.00572537,387.894,-0.541289,-0.921085,-0.010149,0.0698661,-0.058153,0.142015,-0.000191975,-0.000341731,0.109078,-0.010097672686558257,0.15259393731639848,-0.00019195657397885757,0.07236458202292972,-0.00034167261661244286,-0.05649441996077176
246,0.2366,221.822,679.174,0.00571177,388.149,-0.541936,-0.922206,-0.010192,0.0701464,-0.0583899,0.142587,-0.000192901,-0.00034335,0.109531,-0.010140237571481081,0.15325340963964718,-0.00019288239579839939,0.07266520794602549,-0.00034329106213437655,-0.056717909959247526
247,0.2376,221.964,679.628,0.0056982,388.403,-0.542581,-0.923324,-0.010235,0.0704266,-0.0586268,0.143159,-0.000193828,-0.00034497,0.109983,-0.010182800626153288,0.15391325928896982,-0.00019380921656686478,0.07296581084979192,-0.0003449105046910983,-0.056941347019213495
248,0.2386,222.106,680.079,0.00568464,388.656,-0.543224,-0.924438,-0.010278,0.0707066,-0.0588636,0.14373,-0.000194755,-0.00034659,0.110436,-0.01022536185065348,0.15457233190734931,-0.00019473603647612858,0.07326628334101559,-0.00034652994462436304,-0.057164636869677654
249,0.2396,222.247,680.529,0.0056711,388.908,-0.543865,-0.925549,-0.0103209,0.0709865,-0.0591002,0.144302,-0.000195682,-0.00034821,0.110888,-0.010267822271847526,0.1552329361960152,-0.00019566285552619078,0.07356673261963786,-0.00034814938193405975,-0.05738768532892102
250,0.2406,222.388,680.978,0.00565757,389.159,-0.544505,-0.926657,-0.0103638,0.0712663,-0.0593368,0.144873,-0.00019661,-0.00034983,0.11134,-0.010310280871528632,0.1558927625650841,-0.00019659067352051363,0.07386715861906223,-0.00034976881662029946,-0.05761068102114153
251,0.2416,222.528,681.424,0.00564406,389.41,-0.545142,-0.927761,-0.0104068,0.071546,-0.0595733,0.145444,-0.000197537,-0.00035145,0.111792,-0.010352836614496153,0.15655296580259526,-0.00019751749085139547,0.07416756127268065,-0.00035138824868308216,-0.057833529742180034
252,0.2426,222.668,681.869,0.00563057,389.659,-0.545778,-0.928863,-0.0104497,0.0718255,-0.0598096,0.146014,-0.000198464,-0.00035307,0.112243,-0.010395291567140141,0.15721238891083478,-0.00019844430732318674,0.07446783306708471,-0.00035300767812240785,-0.058056137376974126
253,0.2436,222.807,682.313,0.00561709,389.907,-0.546411,-0.929961,-0.0104925,0.0721049,-0.0600459,0.146585,-0.000199392,-0.00035469,0.112695,-0.010437645742275237,0.15787334587015645,-0.00019937212273635208,0.07476808132237167,-0.00035462710493827654,-0.05827869241579853
254,0.2446,222.945,682.754,0.00560364,390.155,-0.547043,-0.931056,-0.0105354,0.0723842,-0.060282,0.147155,-0.00020032,-0.000356311,0.113146,-0.010480097056685622,0.15853352180957092,-0.00020029993728842843,0.07506830597190572,-0.00035624752877438937,-0.05850100657130042
255,0.2456,223.083,683.194,0.00559019,390.401,-0.547673,-0.932148,-0.0105783,0.0726634,-0.060518,0.147725,-0.000201248,-0.000357932,0.113597,-0.010522546549973755,0.15919407415653675,-0.00020122775097963785,0.0753685069490393,-0.0003578679499837145,-0.05872317411694805
256,0.2466,223.221,683.633,0.00557677,390.647,-0.548302,-0.933237,-0.0106211,0.0729425,-0.060754,0.148294,-0.000202176,-0.000359552,0.114048,-0.010564895278712183,0.1598538432712444,-0.0002021555638097583,0.07566868418711392,-0.00035948736892599253,-0.058945289237241294
257,0.2476,223.358,684.07,0.00556336,390.892,-0.548928,-0.934323,-0.0106639,0.0732214,-0.0609898,0.148864,-0.000203104,-0.000361173,0.114499,-0.010607242194963784,0.16051514841597037,-0.0002030833757789008,0.07596873002258042,-0.0003611077848836297,-0.059167163778002796
258,0.2486,223.494,684.505,0.00554997,391.136,-0.549553,-0.935406,-0.0107067,0.0735002,-0.0612256,0.149433,-0.000204032,-0.000362794,0.11495,-0.010649587298806162,0.16117566943582817,-0.00020401118688706532,0.07626875192562066,-0.0003627281982144792,-0.059388986006915334
259,0.2496,223.63,684.939,0.00553659,391.379,-0.550176,-0.936486,-0.0107495,0.0737789,-0.0614612,0.150002,-0.000204961,-0.000364415,0.1154,-0.010691930590316812,0.16183656639909216,-0.00020493999692916542,0.07656874982954842,-0.0003643486089187631,-0.059610567858444985
260,0.2506,223.766,685.371,0.00552323,391.621,-0.550798,-0.937564,-0.0107923,0.0740575,-0.0616967,0.15057,-0.000205889,-0.000366036,0.11585,-0.010734272069573447,0.16249667702247672,-0.00020586780631437485,0.0768687236676664,-0.0003659690169963703,-0.05983200349464479
261,0.2516,223.901,685.802,0.00550989,391.862,-0.551418,-0.938638,-0.0108351,0.0743359,-0.0619321,0.151138,-0.000206818,-0.000367657,0.1163,-0.010776611736653563,0.1631571626951991,-0.00020679661463174348,0.07716856565640362,-0.00036758942244718984,-0.06005329299422624
262,0.2526,224.035,686.231,0.00549656,392.102,-0.552036,-0.93971,-0.0108778,0.0746143,-0.0621675,0.151707,-0.000207747,-0.000369279,0.11675,-0.010818850673524727,0.16381918744895363,-0.00020772542208624678,0.07746849113277143,-0.0003692108249022663,-0.06027453040839004
263,0.2536,224.169,686.659,0.00548325,392.342,-0.552653,-0.940778,-0.0109206,0.0748925,-0.0624027,0.152274,-0.000208676,-0.0003709,0.117199,-0.010861186720718008,0.16447926004113333,-0.00020865422867788475,0.07776828456633766,-0.00037083122509817823,-0.0604955278485203
264,0.2546,224.303,687.085,0.00546995,392.58,-0.553268,-0.941844,-0.0109633,0.0751706,-0.0626378,0.152842,-0.000209605,-0.000372522,0.117649,-0.010903422046314448,0.16514087214088535,-0.0002095830344067684,0.07806805360722868,-0.0003724526222949054,-0.060716379387807384
265,0.2556,224.436,687.51,0.00545668,392.818,-0.553881,-0.942908,-0.011006,0.0754485,-0.0628728,0.153409,-0.000210534,-0.000374143,0.118098,-0.010945655568500912,0.16580169434077896,-0.0002105118392726757,0.07836769035192348,-0.0003740730172359097,-0.06093708510471385
266,0.2566,224.568,687.933,0.00544341,393.055,-0.554493,-0.943968,-0.0110487,0.0757264,-0.0631078,0.153976,-0.000211463,-0.000375765,0.118547,-0.010987887287354559,0.16646289133310344,-0.00021144064327571765,0.0786674103772409,-0.0003756944091745096,-0.0611577389618706
267,0.2576,224.701,688.354,0.00543016,393.291,-0.555103,-0.945026,-0.0110913,0.0760041,-0.0633426,0.154543,-0.000212393,-0.000377387,0.118996,-0.011030018305958955,0.16712446333042652,-0.00021237044620359136,0.07896699791290662,-0.00037731579848321317,-0.0613781532471126
268,0.2586,224.832,688.775,0.00541693,393.526,-0.555712,-0.946081,-0.011134,0.0762817,-0.0635773,0.15511,-0.000213322,-0.000379008,0.119444,-0.011072246422600629,0.1677864105454363,-0.00021329924848001447,0.07926656072892246,-0.00037893618554096786,-0.061598421945002646
269,0.2596,224.963,689.193,0.00540372,393.761,-0.556319,-0.947134,-0.0111766,0.0765592,-0.0638119,0.155676,-0.000214252,-0.00038063,0.119893,-0.011114373847582515,0.16844756474279254,-0.00021422904967938194,0.07956609875850407,-0.0003805575695915442,-0.06181854513375473
270,0.2606,225.094,689.611,0.00539052,393.994,-0.556925,-0.948184,-0.0112193,0.0768365,-0.0640464,0.156242,-0.000215182,-0.000382252,0.120341,-0.011156598362319414,0.16910909325934664,-0.0002151588500139967,0.07986550394830072,-0.0003821789510122242,-0.062038522891520786
271,0.2616,225.224,690.027,0.00537733,394.227,-0.557529,-0.949231,-0.0112619,0.0771138,-0.0642808,0.156808,-0.000216112,-0.000383874,0.120789,-0.011198722193985211,0.16977099630702375,-0.00021608864948385875,0.08016499217466921,-0.00038380032980300793,-0.062258355296390566
272,0.2626,225.354,690.441,0.00536416,394.459,-0.558132,-0.950276,-0.0113045,0.0773909,-0.0645151,0.157373,-0.000217042,-0.000385497,0.121237,-0.011240844231213964,0.17043210366517902,-0.0002170184480890791,0.08046434736774732,-0.00038542270557850866,-0.06247804242639232
273,0.2636,225.483,690.854,0.00535101,394.69,-0.558733,-0.951319,-0.011347,0.0776679,-0.0647493,0.157939,-0.000217972,-0.000387119,0.121684,-0.011282865602373682,0.1710947557487026,-0.00021794824582954675,0.0807636774472702,-0.00038704407910794547,-0.06269758435949224
274,0.2646,225.612,691.266,0.00533787,394.921,-0.559333,-0.952359,-0.0113896,0.0779448,-0.0649834,0.158504,-0.000218902,-0.000388741,0.122132,-0.011324984055169574,0.17175661124227082,-0.0002188780427053727,0.08106298234640619,-0.000388665450007597,-0.06291698117359468
275,0.2656,225.74,691.676,0.00532474,395.15,-0.559931,-0.953396,-0.0114322,0.0782215,-0.0652174,0.159068,-0.000219832,-0.000390364,0.122579,-0.011367100713757683,0.17241766837159878,-0.00021980783871644594,0.08136215386209189,-0.00039028781788696953,-0.06313623294654214
276,0.2666,225.868,692.085,0.00531164,395.379,-0.560528,-0.954431,-0.0114747,0.0784982,-0.0654513,0.159633,-0.000220763,-0.000391986,0.123026,-0.011409116719130918,0.17308027152199212,-0.00022073863364202584,0.08166140816998979,-0.00039190918352527415,-0.06335533975611563
277,0.2676,225.996,692.492,0.00529854,395.607,-0.561124,-0.955464,-0.0115172,0.0787747,-0.0656851,0.160197,-0.000221693,-0.000393609,0.123473,-0.011451130938861853,0.17374207540628261,-0.00022166842792270547,0.08196052890088401,-0.0003935315461400801,-0.0635743016800343
278,0.2686,226.123,692.898,0.00528546,395.834,-0.561718,-0.956494,-0.0115597,0.0790511,-0.0659188,0.160761,-0.000222624,-0.000395231,0.12392,-0.011493143373026427,0.17440425265324255,-0.0002225992211161154,0.08225962412412802,-0.0003951529065169268,-0.06379311879595584
279,0.2696,226.25,693.303,0.0052724,396.061,-0.562311,-0.957522,-0.0116022,0.0793273,-0.0661524,0.161325,-0.000223554,-0.000396854,0.124366,-0.011535154021700467,0.17506680347350745,-0.00022352901366651245,0.08255858551697881,-0.00039677526386727724,-0.06401179118147604
280,0.2706,226.376,693.706,0.00525935,396.287,-0.562903,-0.958548,-0.0116447,0.0796035,-0.0663859,0.161889,-0.000224485,-0.000398477,0.124813,-0.011577162884959802,0.17572972807783205,-0.00022445980512775243,0.08285762949437081,-0.0003983976185845117,-0.06423031891412945
281,0.2716,226.502,694.109,0.00524632,396.511,-0.563493,-0.959572,-0.0116871,0.0798795,-0.0666193,0.162452,-0.000225416,-0.000400099,0.125259,-0.011619071124792546,0.17639185028465176,-0.00022539059572235232,0.08315653944778734,-0.0004000189710686719,-0.06444870207138909
282,0.2726,226.627,694.509,0.0052333,396.736,-0.564082,-0.960593,-0.0117296,0.0801555,-0.0668526,0.163015,-0.000226347,-0.000401722,0.125705,-0.011661076421650818,0.17705434537122966,-0.00022632138545042313,0.08345553191173694,-0.00040164132052133983,-0.06466694073066637
283,0.2736,226.752,694.909,0.00522029,396.959,-0.56467,-0.961612,-0.011772,0.0804313,-0.0670858,0.163578,-0.000227278,-0.000403345,0.126151,-0.011702981103624999,0.1777172135475562,-0.00022725217431196487,0.08375439015809594,-0.0004032636673408918,-0.06488503496931142
284,0.2746,226.876,695.307,0.0052073,397.182,-0.565256,-0.962629,-0.0118144,0.0807069,-0.0673189,0.16414,-0.000228209,-0.000404968,0.126596,-0.011744884008878409,0.17837927664387432,-0.00022818296230686652,0.08405311403028226,-0.00040488601152743886,-0.06510298486461286
285,0.2756,227.0,695.703,0.00519433,397.404,-0.565841,-0.963643,-0.0118568,0.0809825,-0.0675519,0.164703,-0.00022914,-0.000406591,0.127042,-0.011786785137486211,0.1790428909665278,-0.0002291137494352391,0.08435192024211369,-0.00040650835308086997,-0.06532079049379824
286,0.2766,227.124,696.099,0.00518136,397.625,-0.566425,-0.964656,-0.0118992,0.0812579,-0.0677848,0.165265,-0.000230072,-0.000408214,0.127487,-0.011828684489523789,0.17970569930294822,-0.00023004553546701612,0.08465059188614599,-0.00040813069200129615,-0.06553845193403363
287,0.2776,227.247,696.493,0.00516842,397.845,-0.567008,-0.965666,-0.0119416,0.0815333,-0.0680176,0.165826,-0.000231003,-0.000409837,0.127932,-0.011870582065066637,0.18036769987405532,-0.00023097632086133135,0.0849493457956767,-0.0004097530282887174,-0.065755969262424
288,0.2786,227.37,696.886,0.00515548,398.065,-0.567589,-0.966674,-0.0119839,0.0818085,-0.0682503,0.166388,-0.000231935,-0.000411461,0.128377,-0.011912379055432631,0.18103125296233746,-0.00023190810515716365,0.08524796494374964,-0.0004113763615316568,-0.06597334255601306
289,0.2796,227.492,697.278,0.00514257,398.284,-0.568169,-0.96768,-0.0120263,0.0820836,-0.0684829,0.166949,-0.000232866,-0.000413084,0.128821,-0.011954273082401046,0.1816939973776761,-0.00023283888881753256,0.0855465577284602,-0.00041299869255129185,-0.06619057189178335
290,0.2806,227.614,697.668,0.00512966,398.503,-0.568748,-0.968684,-0.0120686,0.0823585,-0.0687153,0.16751,-0.000233798,-0.000414707,0.129266,-0.011996066532712013,0.18235711369694108,-0.00023377067137742014,0.08584501549832058,-0.00041462102093781095,-0.06640756398741754
291,0.2816,227.736,698.057,0.00511677,398.72,-0.569326,-0.969687,-0.0121109,0.0826334,-0.0689477,0.168071,-0.00023473,-0.000416331,0.12971,-0.012037858215197317,0.1830206021288292,-0.00023470245306900228,0.08614355532550033,-0.00041624434627518525,-0.06662450565994815
292,0.2826,227.857,698.445,0.00510389,398.937,-0.569903,-0.970687,-0.0121532,0.0829081,-0.06918,0.168632,-0.000235662,-0.000417954,0.130154,-0.012079648129931897,0.1836844628821539,-0.00023563423389205695,0.08644195994414616,-0.0004178666693941402,-0.06684130360522711
293,0.2836,227.978,698.832,0.00509103,399.153,-0.570478,-0.971685,-0.0121955,0.0831827,-0.0694122,0.169192,-0.000236594,-0.000419577,0.130598,-0.012121436276990472,0.184347511817742,-0.00023656601384669518,0.08674033787176127,-0.0004194889898799792,-0.0670579578999928
294,0.2846,228.098,699.217,0.00507818,399.369,-0.571053,-0.972681,-0.0122377,0.0834572,-0.0696443,0.169752,-0.000237526,-0.000421201,0.131042,-0.01216312387276508,0.18501093216471975,-0.00023749779293302797,0.08703868904133172,-0.00042111230731167737,-0.06727446862092312
295,0.2856,228.218,699.602,0.00506534,399.583,-0.571626,-0.973675,-0.01228,0.0837316,-0.0698763,0.170312,-0.000238458,-0.000422825,0.131485,-0.012204908488874455,0.18567472413113562,-0.0002384295711508333,0.08733701338583288,-0.000422735622107151,-0.06749083584463467
296,0.2866,228.338,699.985,0.00505252,399.798,-0.572198,-0.974667,-0.0123222,0.0840058,-0.0701082,0.170871,-0.00023939,-0.000424448,0.131929,-0.012246592562196068,0.1863377015868597,-0.0002393613485003332,0.08763520207470421,-0.00042435793469075556,-0.06770705964768331
297,0.2876,228.457,700.366,0.00503971,400.011,-0.572769,-0.975658,-0.0123644,0.08428,-0.07034,0.171431,-0.000240323,-0.000426072,0.132372,-0.012288274876486871,0.18700223675222816,-0.00024029412474102507,0.08793347253812489,-0.00042598124421533434,-0.0679231401065643
298,0.2886,228.576,700.747,0.00502692,400.224,-0.573339,-0.976646,-0.0124066,0.084554,-0.0705717,0.17199,-0.000241255,-0.000427696,0.132815,-0.012329955431821249,0.18766595649495743,-0.00024122590035269287,0.08823160715217715,-0.00042760455110368856,-0.06813907729771196
299,0.2896,228.694,701.126,0.00501413,400.436,-0.573908,-0.977633,-0.0124488,0.0848279,-0.0708033,0.172549,-0.000242188,-0.000429319,0.133257,-0.012371634228273254,0.1883300473607421,-0.0002421586748537763,0.08852971461332926,-0.0004292268557850587,-0.06835487129750006
300,0.2906,228.812,701.505,0.00500137,400.647,-0.574476,-0.978618,-0.012491,0.0851017,-0.0710348,0.173107,-0.00024312,-0.000430943,0.1337,-0.01241331126591716,0.18899332056318285,-0.000243090448727723,0.08882779485451331,-0.0004308501574025181,-0.06857052218224169
301,0.2916,228.93,701.882,0.00498861,400.858,-0.575043,-0.979601,-0.0125332,0.0853754,-0.0712662,0.173666,-0.000244053,-0.000432567,0.134142,-0.012454986544827129,0.1896581536329085,-0.00024402322148919797,0.08912584780865096,-0.0004324734563837529,-0.06878603002818928
302,0.2926,229.047,702.258,0.00497587,401.068,-0.575609,-0.980582,-0.0125753,0.0856489,-0.0714974,0.174224,-0.000244986,-0.000434191,0.134585,-0.01249656131473853,0.1903221681254499,-0.0002449559933803691,0.08942376446627254,-0.0004340967527286521,-0.06900130181166964
303,0.2936,229.164,702.632,0.00496314,401.277,-0.576174,-0.981562,-0.0126174,0.0859224,-0.0717286,0.174781,-0.000245918,-0.000435815,0.135027,-0.012538134334388995,0.19098536225551466,-0.0002458877646471791,0.08972176261524334,-0.0004357200464374378,-0.06921652383006682
304,0.2946,229.281,703.006,0.00495042,401.486,-0.576737,-0.982539,-0.0126595,0.0861957,-0.0719597,0.175339,-0.000246851,-0.000437439,0.135468,-0.012579705603852132,0.19165011753712835,-0.0002468205347987418,0.09001962427390775,-0.0004373433375099989,-0.06943160303804996
305,0.2956,229.397,703.378,0.00493772,401.694,-0.5773,-0.983516,-0.0127016,0.0864689,-0.0721907,0.175896,-0.000247784,-0.000439063,0.13591,-0.012621275123201658,0.1923140515410513,-0.0002477533040800006,0.09031745831753724,-0.0004389666259463354,-0.06964653951162969
306,0.2966,229.513,703.75,0.00492503,401.902,-0.577862,-0.98449,-0.0127437,0.086742,-0.0724216,0.176454,-0.000248717,-0.000440687,0.136352,-0.012662842892511295,0.19297954843817777,-0.00024868607249106667,0.09061526467901149,-0.0004405899117463363,-0.06986133332675626
307,0.2976,229.628,704.12,0.00491235,402.109,-0.578423,-0.985463,-0.0127858,0.0870149,-0.0726524,0.17701,-0.000249651,-0.000442311,0.136793,-0.012704408911854648,0.1936430294977518,-0.00024961983978222246,0.0909129341999011,-0.0004422131949102237,-0.0700759845593193
308,0.2986,229.744,704.489,0.00489968,402.315,-0.578983,-0.986434,-0.0128278,0.0872878,-0.0728831,0.177567,-0.000250584,-0.000443935,0.137234,-0.012745874455897921,0.19430807386284377,-0.00025055260645179267,0.09121068496588847,-0.0004438364754378865,-0.07029049328514858
309,0.2996,229.858,704.857,0.00488703,402.52,-0.579542,-0.987403,-0.0128699,0.0875605,-0.0731137,0.178123,-0.000251517,-0.00044556,0.137675,-0.012787436979685984,0.19497229378793945,-0.00025148537225105905,0.09150829869746646,-0.000445460752883875,-0.07050485958001329
310,0.3006,229.973,705.224,0.00487439,402.725,-0.5801,-0.988371,-0.0129119,0.0878331,-0.0733442,0.17868,-0.00025245,-0.000447184,0.138116,-0.012828899036623542,0.1956380787594807,-0.0002524181371800216,0.09180588441878257,-0.00044708402813753434,-0.07071908351962253
311,0.3016,230.087,705.589,0.00486176,402.93,-0.580657,-0.989337,-0.0129539,0.0881056,-0.0735746,0.179235,-0.000253384,-0.000448808,0.138556,-0.012870359352191274,0.19630184207047296,-0.00025335190098541016,0.09210344206267429,-0.0004487073007549691,-0.07093316517962533
312,0.3026,230.2,705.954,0.00484914,403.133,-0.581213,-0.990302,-0.0129959,0.088378,-0.073805,0.179791,-0.000254317,-0.000450432,0.138996,-0.012911817926462343,0.196967170838922,-0.0002542846641729879,0.09240097156197025,-0.00045033057073629035,-0.07114719752089549
313,0.3036,230.314,706.317,0.00483654,403.336,-0.581768,-0.991265,-0.0130379,0.0886503,-0.0740352,0.180347,-0.000255251,-0.000452057,0.139437,-0.012953274759509914,0.19763286963302384,-0.00025521842623510427,0.09269847284948862,-0.00045195483762938693,-0.07136099482701208
314,0.3046,230.427,706.68,0.00482394,403.539,-0.582323,-0.992226,-0.0130798,0.0889224,-0.0742653,0.180902,-0.000256185,-0.000453681,0.139877,-0.012994631150874958,0.19829774036023062,-0.00025615218742502943,0.0929958365584489,-0.0004535781023365937,-0.07157465008012287
315,0.3056,230.539,707.041,0.00481137,403.74,-0.582876,-0.993186,-0.0131218,0.0891945,-0.0744953,0.181457,-0.000257118,-0.000455306,0.140316,-0.013036084505840151,0.19896298019310832,-0.0002570849479998083,0.09329328119108338,-0.00045520236395246716,-0.07178816335563654
316,0.3066,230.652,707.401,0.0047988,403.942,-0.583429,-0.994145,-0.0131637,0.0894664,-0.0747252,0.182011,-0.000258052,-0.00045693,0.140756,-0.013077437427549521,0.19962738970857785,-0.00025801870744646127,0.09359058805127529,-0.0004568256233857815,-0.07200153472890192
317,0.3076,230.764,707.761,0.00478624,404.142,-0.58398,-0.995102,-0.0132056,0.0897382,-0.074955,0.182566,-0.000258986,-0.000458555,0.141195,-0.013118788616607868,0.2002933677016645,-0.00025895246602092303,0.09388786637140134,-0.00045844987972443185,-0.0722147642752079
318,0.3086,230.875,708.119,0.0047737,404.342,-0.584531,-0.996057,-0.0132475,0.0900099,-0.0751847,0.18312,-0.00025992,-0.000460179,0.141635,-0.01316013807308769,0.2009585144560102,-0.0002598862237231936,0.0941851160842393,-0.0004600731338837427,-0.07242785206978386
319,0.3096,230.986,708.476,0.00476116,404.542,-0.585081,-0.997011,-0.0132894,0.0902814,-0.0754143,0.183674,-0.000260854,-0.000461804,0.142074,-0.013201485797061596,0.2016240298037486,-0.000260819980553495,0.09448222767432934,-0.00046169738494517,-0.07264079818779878
320,0.3106,231.097,708.832,0.00474864,404.741,-0.585631,-0.997964,-0.0133313,0.0905529,-0.0756439,0.184228,-0.000261788,-0.000463428,0.142513,-0.013242831788602083,0.2022899139491372,-0.00026175373651149414,0.09477941994116756,-0.0004633206338305884,-0.07285369541899744
321,0.3116,231.208,709.187,0.00473613,404.939,-0.586179,-0.998915,-0.0133731,0.0908242,-0.0758733,0.184781,-0.000262722,-0.000465053,0.142951,-0.013284077376194525,0.2029549641409809,-0.0002626874915974131,0.09507647389134388,-0.0004649448796147926,-0.07306635838789322
322,0.3126,231.318,709.541,0.00472364,405.136,-0.586727,-0.999865,-0.013415,0.0910955,-0.0761026,0.185334,-0.000263656,-0.000466678,0.14339,-0.01332541990722036,0.20362038220728862,-0.0002636212458112519,0.0953736084431902,-0.00046656912275966356,-0.07327887990539173
323,0.3136,231.428,709.894,0.00471115,405.333,-0.587273,-1.00081,-0.0134568,0.0913666,-0.0763318,0.185887,-0.000264591,-0.000468302,0.143828,-0.01336666204270165,0.20428616835155133,-0.0002645559988884161,0.09567060448443354,-0.00046819236373341067,-0.07349126004642348
324,0.3146,231.538,710.246,0.00469867,405.53,-0.58782,-1.00176,-0.0134986,0.0916376,-0.076561,0.18644,-0.000265525,-0.000469927,0.144266,-0.013407902454297682,0.2049523227773722,-0.0002654897513570953,0.09596757145545598,-0.00046981660160105854,-0.07370359151550498
325,0.3156,231.647,710.597,0.00468621,405.726,-0.588365,-1.00271,-0.0135404,0.0919084,-0.07679,0.186993,-0.000266459,-0.000471552,0.144704,-0.013449141142080512,0.2056188456884671,-0.0002664235029535833,0.09626439966253142,-0.0004714408368293732,-0.07391568910694679
326,0.3166,231.756,710.947,0.00467376,405.921,-0.588909,-1.00365,-0.0135822,0.0921792,-0.0770189,0.187545,-0.000267394,-0.000473177,0.145142,-0.013490378106122192,0.20628453100353106,-0.00026735825341062114,0.09656130826156994,-0.0004730650694183547,-0.0741276455463703
327,0.3176,231.865,711.296,0.00466131,406.116,-0.589453,-1.00459,-0.013624,0.0924499,-0.0772478,0.188097,-0.000268329,-0.000474801,0.145579,-0.013531613346494886,0.2069505838783261,-0.0002682930029935804,0.09685818758852016,-0.0004746882998426516,-0.07433955347451704
328,0.3186,231.973,711.644,0.00464888,406.31,-0.589996,-1.00554,-0.0136657,0.0927204,-0.0774765,0.188649,-0.000269263,-0.000476426,0.146017,-0.013572748220550213,0.20761700451580123,-0.00026922675197194046,0.09715492786057545,-0.00047631252715440997,-0.07455122781275425
329,0.3196,232.081,711.99,0.00463646,406.504,-0.590538,-1.00648,-0.0137075,0.0929908,-0.0777052,0.1892,-0.000270198,-0.000478051,0.146454,-0.013613980017924021,0.2082825848358283,-0.00027016149980785276,0.09745163866656203,-0.00047793675182694617,-0.07476285374660552
330,0.3206,232.188,712.336,0.00462406,406.697,-0.59108,-1.00742,-0.0137492,0.0932611,-0.0779337,0.189752,-0.000271133,-0.000479676,0.146891,-0.013655111457360758,0.2089497409408021,-0.0002710962467699085,0.09774831993916111,-0.00047956097386003815,-0.07497424628200755
331,0.3216,232.296,712.681,0.00461166,406.889,-0.591621,-1.00835,-0.0137909,0.0935313,-0.0781622,0.190303,-0.000272067,-0.000481301,0.147328,-0.013696241181652358,0.20961605580094678,-0.0002720299931299186,0.09804497161104475,-0.00048118519325379694,-0.07518559051973339
332,0.3226,232.403,713.025,0.00459927,407.081,-0.592161,-1.00929,-0.0138326,0.0938014,-0.0783905,0.190854,-0.000273002,-0.000482926,0.147765,-0.013737369190870097,0.21028273790174468,-0.0002729647383449274,0.09834159361487527,-0.0004828094100081115,-0.07539670155017664
333,0.3236,232.51,713.368,0.00458689,407.273,-0.5927,-1.01023,-0.0138742,0.0940714,-0.0786188,0.191404,-0.000273937,-0.000484551,0.148201,-0.013778396862930253,0.2109485764964194,-0.0002738994826858576,0.09863818588330564,-0.0004844336241232039,-0.07560776438947292
334,0.3246,232.616,713.71,0.00457453,407.464,-0.593239,-1.01116,-0.0139159,0.0943412,-0.0788469,0.191954,-0.000274872,-0.000486176,0.148637,-0.013819521446327587,0.211614781403048,-0.0002748342261529313,0.09893463845551076,-0.00048605783559885207,-0.07581859421236026
335,0.3256,232.722,714.052,0.00456217,407.654,-0.593777,-1.01209,-0.0139576,0.0946109,-0.079075,0.192505,-0.000275807,-0.000487801,0.149074,-0.013860644314865445,0.2122825651051159,-0.0002757689687459264,0.09923106109829871,-0.00048768204443516705,-0.07602937595044923
336,0.3266,232.828,714.392,0.00454982,407.844,-0.594315,-1.01303,-0.0139992,0.0948806,-0.079303,0.193054,-0.000276743,-0.000489426,0.149509,-0.013901666858787132,0.2129482909583844,-0.00027670471018825804,0.09952756369705518,-0.0004893062506322599,-0.07624001723871321
337,0.3276,232.933,714.731,0.00453749,408.033,-0.594851,-1.01396,-0.0140408,0.0951501,-0.0795308,0.193604,-0.000277678,-0.000491051,0.149945,-0.013942687696206435,0.2136155960104793,-0.0002776394510323188,0.09982392630853965,-0.0004909304541899084,-0.07645042579634165
338,0.3286,233.039,715.069,0.00452516,408.222,-0.595387,-1.01489,-0.0140824,0.0954195,-0.0797586,0.194154,-0.000278613,-0.000492677,0.150381,-0.01398370682719452,0.21428326818130117,-0.000278574191002412,0.10012025878847997,-0.0004925556546157006,-0.0766607864283595
339,0.3296,233.143,715.406,0.00451285,408.41,-0.595923,-1.01582,-0.014124,0.0956887,-0.0799863,0.194703,-0.000279549,-0.000494302,0.150816,-0.014024724251822107,0.21495009272212062,-0.0002795099298190662,0.10041645102783248,-0.0004941798528931285,-0.07687100683278847
340,0.3306,233.248,715.743,0.00450055,408.597,-0.596458,-1.01674,-0.0141656,0.0959579,-0.0802138,0.195252,-0.000280484,-0.000495927,0.151251,-0.014065739970160362,0.2156172834501222,-0.0002804446680403361,0.10071272301286927,-0.0004958040485311122,-0.07708099479169805
341,0.3316,233.352,716.078,0.00448825,408.785,-0.596992,-1.01767,-0.0142071,0.0962269,-0.0804413,0.1958,-0.000281419,-0.000497552,0.151686,-0.014106655392950751,0.21628362428216552,-0.00028137940538752737,0.10100885456326747,-0.0004974282415298736,-0.07729093498378059
342,0.3326,233.456,716.413,0.00447597,408.971,-0.597525,-1.0186,-0.0142487,0.0964959,-0.0806687,0.196349,-0.000282355,-0.000499177,0.152121,-0.014147667703024447,0.21695154731999433,-0.0002823151415785041,0.10130506578376797,-0.000499052431889413,-0.07750073516998002
343,0.3336,233.56,716.746,0.00446369,409.157,-0.598058,-1.01952,-0.0142902,0.0967647,-0.080896,0.196897,-0.000283291,-0.000500803,0.152556,-0.014188579725884387,0.21761861952901707,-0.00028325087689362594,0.10160113637555557,-0.0005006776191088802,-0.07771039542408531
344,0.3346,233.663,717.079,0.00445142,409.343,-0.598591,-1.02044,-0.0143317,0.0970334,-0.0811232,0.197445,-0.000284226,-0.000502428,0.15299,-0.01422949005093066,0.21828605739379126,-0.00028418561161702716,0.10189717637209217,-0.0005023018041880878,-0.07791991581982671
345,0.3356,233.766,717.411,0.00443917,409.528,-0.599123,-1.02137,-0.0143732,0.097302,-0.0813503,0.197993,-0.000285162,-0.000504054,0.153425,-0.014270398678233653,0.21895386111475057,-0.00028512134518132726,0.1021931857059395,-0.0005039269861240037,-0.07812929643087574
346,0.3366,233.869,717.742,0.00442692,409.712,-0.599654,-1.02229,-0.0144147,0.0975705,-0.0815773,0.19854,-0.000286098,-0.000505679,0.153859,-0.014311305607863867,0.2196208112710183,-0.00028605707786988344,0.10248916430965105,-0.0005055511659231016,-0.07833853733084528
347,0.3376,233.972,718.072,0.00441469,409.896,-0.600184,-1.02321,-0.0144562,0.0978389,-0.0818042,0.199088,-0.000287034,-0.000507304,0.154293,-0.014352210839891688,0.22028934663755484,-0.00028699280968247365,0.10278511211577057,-0.0005071753430827552,-0.07854763859328961
348,0.3386,234.074,718.401,0.00440246,410.08,-0.600714,-1.02413,-0.0144976,0.0981071,-0.082031,0.199635,-0.00028797,-0.00050893,0.154727,-0.014393015813694121,0.22095702750423474,-0.00028792854061931994,0.10308091874873648,-0.0005088005170943433,-0.07875660029170428
349,0.3396,234.176,718.729,0.00439024,410.263,-0.601244,-1.02505,-0.014539,0.0983753,-0.0822577,0.200181,-0.000288906,-0.000510555,0.15516,-0.014433819098205625,0.22162385206779178,-0.0002888642706803113,0.10337680472768085,-0.0005104246889738873,-0.07896542249952665
350,0.3406,234.278,719.057,0.00437803,410.445,-0.601773,-1.02596,-0.0145805,0.0986433,-0.0824844,0.200728,-0.000289842,-0.000512181,0.155594,-0.014474719246029055,0.22229226310862638,-0.0002897999998654477,0.10367254933935577,-0.000512049857702146,-0.07917419737271991
351,0.3416,234.379,719.383,0.00436584,410.627,-0.602301,-1.02688,-0.0146219,0.0989112,-0.0827109,0.201274,-0.000290778,-0.000513806,0.156027,-0.014515519148088574,0.22295981690988742,-0.00029073572817472915,0.10396826282437654,-0.0005136740243014692,-0.07938274079858054
352,0.3426,234.48,719.709,0.00435365,410.809,-0.602829,-1.0278,-0.0146633,0.099179,-0.0829373,0.20182,-0.000291714,-0.000515432,0.15646,-0.014556317361066995,0.2236277352950462,-0.00029167145560815566,0.1042639451152525,-0.0005152991877461766,-0.07959114495382313
353,0.3436,234.581,720.033,0.00434146,410.99,-0.603357,-1.02871,-0.0147047,0.0994467,-0.0831636,0.202366,-0.00029265,-0.000517058,0.156893,-0.014597113885034374,0.22429601846322011,-0.00029260718216572723,0.10455959614448451,-0.000516924348548442,-0.07979940991165135
354,0.3446,234.682,720.357,0.00432929,411.171,-0.603883,-1.02963,-0.014746,0.0997143,-0.0833899,0.202912,-0.000293586,-0.000518683,0.157325,-0.014637810183846578,0.2249646666136349,-0.00029354290784744386,0.10485521584456459,-0.0005185485072267682,-0.08000762774445191
355,0.3456,234.782,720.68,0.00431713,411.351,-0.60441,-1.03054,-0.0147874,0.0999818,-0.083616,0.203457,-0.000294523,-0.000520309,0.157758,-0.014678603334080886,0.22563245431255807,-0.00029447963235895713,0.10515080414797584,-0.0005201736627457043,-0.08021561450602943
356,0.3466,234.882,721.002,0.00430498,411.53,-0.604936,-1.03145,-0.0148287,0.100249,-0.0838421,0.204002,-0.000295459,-0.000521935,0.15819,-0.014719296267448279,0.22630060605497015,-0.0002954153562880757,0.10544613989794338,-0.0005217988156220876,-0.08042355424711611
357,0.3476,234.982,721.324,0.00429283,411.709,-0.605461,-1.03236,-0.01487,0.100516,-0.084068,0.204547,-0.000296396,-0.000523561,0.158622,-0.014759987520232332,0.22696912203932862,-0.0002963520790449925,0.10574133342387815,-0.0005234239658559181,-0.08063126310461288
358,0.3486,235.081,721.644,0.00428069,411.888,-0.605986,-1.03327,-0.0149113,0.100784,-0.0842939,0.205092,-0.000297332,-0.000525186,0.159054,-0.014800677092502323,0.22763800246419974,-0.000297287801221513,0.10603771181416599,-0.0005250481139723595,-0.08083892504597823
359,0.3496,235.18,721.964,0.00426857,412.066,-0.60651,-1.03418,-0.0149526,0.101051,-0.0845196,0.205637,-0.000298269,-0.000526812,0.159486,-0.014841364984327643,0.22830724752825748,-0.0002982245222240554,0.10633306331089076,-0.0005266732589228607,-0.0810463562910988
360,0.3506,235.279,722.283,0.00425645,412.244,-0.607034,-1.03509,-0.0149939,0.101317,-0.0847453,0.206181,-0.000299206,-0.000528438,0.159918,-0.014882051195777679,0.2289756284540414,-0.00029916124234885544,0.10662738704905306,-0.00052829840123092,-0.08125374072427027
361,0.3516,235.378,722.601,0.00424434,412.421,-0.607558,-1.036,-0.0150352,0.101584,-0.0849709,0.206725,-0.000300142,-0.000530064,0.160349,-0.014922735726921932,0.22964437307796604,-0.0003000969618959237,0.10692289601008587,-0.0005299235408965375,-0.08146098650216005
362,0.3526,235.476,722.918,0.00423223,412.598,-0.608081,-1.03691,-0.0150764,0.101851,-0.0851964,0.207269,-0.000301079,-0.00053169,0.16078,-0.014963320074166786,0.23031348159793685,-0.00030103368026623833,0.10721848388254562,-0.0005315486779196021,-0.08166809369748995
363,0.3536,235.574,723.234,0.00422014,412.774,-0.608603,-1.03781,-0.0151176,0.102118,-0.0854217,0.207812,-0.000302016,-0.000533316,0.161211,-0.015003902749370801,0.2309817232296283,-0.0003019703977588106,0.10751415068750436,-0.000533173812300225,-0.08187497057042514
364,0.3546,235.672,723.549,0.00420805,412.95,-0.609125,-1.03872,-0.0151588,0.102384,-0.085647,0.208355,-0.000302953,-0.000534942,0.161642,-0.015044483752603144,0.2316503278150588,-0.0003029071143737516,0.10780878863669718,-0.000534798944038295,-0.08208180083925087
365,0.3556,235.77,723.864,0.00419598,413.125,-0.609647,-1.03962,-0.0152,0.10265,-0.0858722,0.208898,-0.00030389,-0.000536568,0.162073,-0.015085063083932537,0.23231929555136577,-0.0003038438301109503,0.10810350497000898,-0.0005364240731340342,-0.08228849274331995
366,0.3566,235.867,724.178,0.00418391,413.3,-0.610168,-1.04053,-0.0152412,0.102917,-0.0860973,0.209441,-0.000304827,-0.000538194,0.162503,-0.015125640743428037,0.23298862663579345,-0.00030478054497040663,0.10839940810714688,-0.0005380491995872205,-0.08249504635512228
367,0.3576,235.964,724.491,0.00417185,413.474,-0.610689,-1.04143,-0.0152824,0.103183,-0.0863223,0.209984,-0.000305764,-0.00053982,0.162934,-0.015166216731158255,0.23365832126569397,-0.0003057172589522317,0.10869428156613492,-0.0005396743233980761,-0.08270146174708992
368,0.3586,236.061,724.803,0.00415979,413.648,-0.61121,-1.04233,-0.0153236,0.103449,-0.0865473,0.210526,-0.000306701,-0.000541446,0.163364,-0.015206791047192247,0.23432714531076315,-0.0003066539720563144,0.10898923347189582,-0.0005412994445663788,-0.08290783070081897
369,0.3596,236.158,725.115,0.00414775,413.822,-0.61173,-1.04324,-0.0153647,0.103715,-0.0867721,0.211068,-0.000307638,-0.000543072,0.163794,-0.015247265216330352,0.23499633195672076,-0.0003075906842826548,0.10928426384529932,-0.0005429245630922397,-0.08311396984956898
370,0.3606,236.254,725.425,0.00413571,413.995,-0.612249,-1.04414,-0.0154058,0.10398,-0.0869968,0.21161,-0.000308576,-0.000544698,0.164224,-0.015287737722014305,0.23566588140014955,-0.00030852839532280463,0.1095782631284028,-0.0005445496789756588,-0.0833199709954483
371,0.3616,236.35,725.735,0.00412368,414.167,-0.612769,-1.04504,-0.0154469,0.104246,-0.0872214,0.212152,-0.000309513,-0.000546324,0.164653,-0.015328208564312384,0.23633579383773928,-0.0003094651057928832,0.10987345020453554,-0.000546174792216636,-0.08352583421065829
372,0.3626,236.446,726.044,0.00411166,414.339,-0.613287,-1.04594,-0.015488,0.104512,-0.087446,0.212693,-0.00031045,-0.000547951,0.165083,-0.015368677743293091,0.23700483246083515,-0.0003104018153852195,0.11016871581087462,-0.0005478009022674701,-0.08373165119418202
373,0.3636,236.541,726.353,0.00409964,414.511,-0.613806,-1.04684,-0.0155291,0.104777,-0.0876704,0.213235,-0.000311388,-0.000549577,0.165512,-0.015409145259024704,0.23767547080660334,-0.0003113395237884786,0.11046294950480706,-0.0005494260102220094,-0.08393723874386827
374,0.3646,236.637,726.66,0.00408764,414.682,-0.614324,-1.04774,-0.0155702,0.105043,-0.0878948,0.213776,-0.000312325,-0.000551203,0.165941,-0.015449611111575612,0.2383452343910235,-0.0003122762316245531,0.11075837193881721,-0.0005510511155341069,-0.08414278016488419
375,0.3656,236.732,726.967,0.00407564,414.853,-0.614842,-1.04863,-0.0156113,0.105308,-0.088119,0.214316,-0.000313263,-0.00055283,0.16637,-0.015490075301014095,0.23901412140083345,-0.00031321393826966304,0.1110527619123296,-0.0005526772176510653,-0.08434809233721674
376,0.3666,236.827,727.273,0.00406364,415.024,-0.615359,-1.04953,-0.0156523,0.105573,-0.0883432,0.214857,-0.000314201,-0.000554456,0.166799,-0.015530439380457506,0.23968460939115932,-0.0003141516440351433,0.11134722990952284,-0.0005543023176767248,-0.08455335848371992
377,0.3676,236.921,727.578,0.00405166,415.194,-0.615876,-1.05043,-0.0156933,0.105838,-0.0885672,0.215397,-0.000315138,-0.000556082,0.167227,-0.015570801805007584,0.24035421985878536,-0.0003150883492362144,0.11164177595107572,-0.0005559274150599425,-0.08475839556640896
378,0.3686,237.015,727.883,0.00403968,415.363,-0.616393,-1.05132,-0.0157343,0.106103,-0.0887912,0.215937,-0.000316076,-0.000557709,0.167656,-0.015611162574732163,0.24102419201371061,-0.0003160260532435455,0.11193640005767258,-0.0005575535092432471,-0.08496338672593506
379,0.3696,237.11,728.186,0.00402771,415.532,-0.61691,-1.05222,-0.0157753,0.106368,-0.0890151,0.216477,-0.000317014,-0.000559335,0.168084,-0.015651521689699077,0.24169452605129904,-0.0003169637563713579,0.11223110225000377,-0.0005591786013400268,-0.08516824048941252
380,0.3706,237.203,728.489,0.00401575,415.701,-0.617426,-1.05312,-0.0158163,0.106632,-0.0892389,0.217017,-0.000317952,-0.000560962,0.168512,-0.015691879149976162,0.24236522216702006,-0.00031790145861954056,0.11252477002343819,-0.0005608046902335628,-0.08537295692856695
381,0.3716,237.297,728.792,0.00400379,415.869,-0.617941,-1.05401,-0.0158573,0.106897,-0.0894626,0.217556,-0.00031889,-0.000562589,0.16894,-0.015732234955631363,0.2430350375207897,-0.00031883915998820456,0.11281962815447133,-0.0005624307764815484,-0.08557753611506691
382,0.3726,237.39,729.093,0.00399184,416.037,-0.618457,-1.0549,-0.0158982,0.107161,-0.0896862,0.218095,-0.000319828,-0.000564215,0.169368,-0.01577249068398645,0.24370521400235012,-0.0003197768604773499,0.11311345131925532,-0.000564055860647894,-0.08578197812052357
383,0.3736,237.483,729.394,0.0039799,416.204,-0.618972,-1.0558,-0.0159392,0.107426,-0.0899097,0.218634,-0.000320766,-0.000565842,0.169795,-0.015812843184636494,0.2443757518064018,-0.0003207145600868655,0.11340846547150374,-0.000565681941606222,-0.08598628301649114
384,0.3746,237.576,729.694,0.00396797,416.371,-0.619487,-1.05669,-0.0159801,0.10769,-0.0901331,0.219173,-0.000321704,-0.000567469,0.170222,-0.01585309561618231,0.24504665112775004,-0.0003216522588167514,0.11370244410986086,-0.0005673080199188885,-0.0861904508744663
385,0.3756,237.669,729.993,0.00395604,416.538,-0.620001,-1.05758,-0.016021,0.107954,-0.0903564,0.219711,-0.000322642,-0.000569095,0.17065,-0.01589334640143747,0.2457166664440158,-0.00032258995666722967,0.11399650036882414,-0.0005689330961548,-0.08639448176588926
386,0.3766,237.761,730.291,0.00394411,416.704,-0.620515,-1.05848,-0.0160619,0.108218,-0.0905796,0.22025,-0.000323581,-0.000570722,0.171077,-0.015933595540469137,0.24638828871317076,-0.00032352865331453096,0.11429063426888808,-0.0005705591691779199,-0.08659837576214269
387,0.3776,237.854,730.589,0.0039322,416.87,-0.621029,-1.05937,-0.0161028,0.108482,-0.0908028,0.220788,-0.000324519,-0.000572349,0.171503,-0.015973843033344703,0.2470590260246568,-0.00032446634940486163,0.1145848458305525,-0.0005721852395552673,-0.08680222425433459
388,0.3786,237.945,730.886,0.00392029,417.035,-0.621543,-1.06026,-0.0161436,0.108746,-0.0910258,0.221325,-0.000325457,-0.000573976,0.17193,-0.0160139904815354,0.24772887656040377,-0.0003254040446156736,0.11487913507432257,-0.0005738113072870643,-0.08700584465380745
389,0.3796,238.037,731.182,0.00390839,417.2,-0.622056,-1.06115,-0.0161845,0.10901,-0.0912488,0.221863,-0.000326396,-0.000575603,0.172357,-0.016054234686325164,0.24840033530219907,-0.0003263427386205331,0.11517350202070942,-0.0005754373723733108,-0.08720941965099382
390,0.3806,238.129,731.478,0.00389649,417.365,-0.62257,-1.06204,-0.0162253,0.109273,-0.0914716,0.2224,-0.000327334,-0.00057723,0.172783,-0.01609437885460341,0.24907090631445872,-0.0003272804320711975,0.11546683122284018,-0.0005770634348138959,-0.08741276673858889
391,0.3816,238.22,731.773,0.0038846,417.529,-0.623082,-1.06293,-0.0162661,0.109537,-0.0916944,0.222937,-0.000328273,-0.000578857,0.173209,-0.016134521385032907,0.2497418375200553,-0.00032821912431424405,0.11576135334149229,-0.0005786894946089305,-0.08761606852549941
392,0.3826,238.311,732.067,0.00387272,417.692,-0.623595,-1.06382,-0.0163069,0.1098,-0.0919171,0.223474,-0.000329212,-0.000580484,0.173635,-0.016174662277680607,0.2504131291124645,-0.0003291578156757735,0.11605483716885256,-0.0005803155517583036,-0.08781923380374546
393,0.3836,238.402,732.361,0.00386084,417.856,-0.624107,-1.06471,-0.0163477,0.110063,-0.0921396,0.224011,-0.00033015,-0.000582111,0.174061,-0.016214801532613343,0.2510847812852661,-0.0003300955064858835,0.11634839819261056,-0.0005819416062621263,-0.0880221714465741
394,0.3846,238.492,732.653,0.00384897,418.019,-0.62462,-1.06559,-0.0163885,0.110327,-0.0923621,0.224547,-0.000331089,-0.000583738,0.174486,-0.01625493914989784,0.2517555424759752,-0.000331034196085489,0.11664315307566597,-0.0005835676581202875,-0.08822506394080021
395,0.3856,238.583,732.945,0.00383711,418.181,-0.625131,-1.06648,-0.0164293,0.11059,-0.0925845,0.225084,-0.000332028,-0.000585365,0.174912,-0.016295075129600933,0.25242791571834267,-0.00033197288480368847,0.11693686884685572,-0.0005851937073328983,-0.08842782013925476
396,0.3866,238.673,733.237,0.00382525,418.343,-0.625643,-1.06737,-0.01647,0.110853,-0.0928068,0.225619,-0.000332967,-0.000586992,0.175337,-0.0163351111053055,0.2530981439233104,-0.0003329115726404819,0.11723066187545239,-0.0005868197538999587,-0.08863044011279342
397,0.3876,238.763,733.527,0.0038134,418.505,-0.626155,-1.06826,-0.0165108,0.111115,-0.0930291,0.226155,-0.000333906,-0.00058862,0.175762,-0.016375243814059637,0.2537699845656607,-0.0003338502595957582,0.1175234146578037,-0.0005884467972330221,-0.08883301504891794
398,0.3886,238.852,733.817,0.00380155,418.666,-0.626666,-1.06914,-0.0165515,0.111378,-0.0932512,0.226691,-0.000334845,-0.000590247,0.176187,-0.016415276526965172,0.2544421854111212,-0.00033478894566962847,0.11781736196823567,-0.0005900728385073162,-0.0890353627647299
399,0.3896,238.942,734.107,0.00378971,418.827,-0.627177,-1.07003,-0.0165922,0.111641,-0.0934732,0.227226,-0.000335784,-0.000591874,0.176611,-0.016455307610572456,0.2551134915386932,-0.0003357276308620927,0.11811138659697717,-0.0005916988771359488,-0.08923757446786662
400,0.3906,239.031,734.395,0.00377787,418.988,-0.627688,-1.07091,-0.0166329,0.111903,-0.0936951,0.227761,-0.000336723,-0.000593502,0.177036,-0.016495337064947768,0.2557851569111329,-0.0003366663151731508,0.11840437015943617,-0.0005933259125258106,-0.08943965022895728
401,0.3916,239.12,734.683,0.00376604,419.148,-0.628198,-1.0718,-0.0166735,0.112166,-0.093917,0.228296,-0.000337662,-0.000595129,0.17746,-0.016535266543688976,0.25645718172068777,-0.0003376049986028029,0.11869854919163525,-0.000594951945861788,-0.0896416811544114
402,0.3926,239.209,734.971,0.00375422,419.308,-0.628709,-1.07269,-0.0167142,0.112428,-0.0941387,0.228831,-0.000338602,-0.000596757,0.177885,-0.016575292743801984,0.25712956615970795,-0.00033854468081240263,0.11899168661084847,-0.0005965789759555529,-0.08984348522289187
403,0.3936,239.297,735.257,0.0037424,419.467,-0.629219,-1.07357,-0.0167549,0.11269,-0.0943604,0.229365,-0.000339541,-0.000598384,0.178309,-0.01661531731488175,0.25780105261896535,-0.0003394833624782434,0.1192849008421275,-0.0005982050039988751,-0.09004524455636942
404,0.3946,239.386,735.543,0.00373059,419.626,-0.629729,-1.07445,-0.0167955,0.112952,-0.094582,0.229899,-0.000340481,-0.000600012,0.178732,-0.016655241922523767,0.2584728977477482,-0.00034042304292225545,0.11957819190559982,-0.0005998320287966541,-0.09024686818945216
405,0.3956,239.474,735.828,0.00371878,419.785,-0.630239,-1.07534,-0.0168361,0.113214,-0.0948034,0.230433,-0.00034142,-0.00060164,0.179156,-0.016695164909259597,0.25914510173763716,-0.0003413617228242849,0.11987155982139797,-0.000601459050945774,-0.09044826523735905
406,0.3966,239.562,736.113,0.00370698,419.943,-0.630749,-1.07622,-0.0168767,0.113476,-0.0950248,0.230967,-0.00034236,-0.000603268,0.17958,-0.016735086275155076,0.2598176647803154,-0.00034230140150259825,0.12016500460965984,-0.0006030860704460128,-0.0906496177008953
407,0.3976,239.649,736.397,0.00369518,420.101,-0.631258,-1.07711,-0.0169173,0.113738,-0.0952461,0.2315,-0.000343299,-0.000604895,0.180003,-0.01677500602027604,0.26048932657761137,-0.0003432400796409274,0.12045852629052867,-0.0006047120879022483,-0.09085083467501875
408,0.3986,239.737,736.68,0.00368339,420.258,-0.631768,-1.07799,-0.0169579,0.114,-0.0954673,0.232033,-0.000344239,-0.000606523,0.180426,-0.016814924144688215,0.26116134646606803,-0.00034417975655365307,0.12075212488415299,-0.0006063391021065012,-0.09105191622994879
409,0.3996,239.824,736.963,0.0036716,420.416,-0.632277,-1.07887,-0.0169984,0.114261,-0.0956884,0.232567,-0.000345179,-0.000608151,0.180849,-0.01685474233393658,0.2618349864709544,-0.0003451194325829743,0.12104467936544694,-0.0006079661136620951,-0.09125286243584863
410,0.4006,239.911,737.245,0.00365982,420.572,-0.632786,-1.07976,-0.017039,0.114523,-0.0959095,0.233099,-0.000346119,-0.000609779,0.181272,-0.016894657221120046,0.26250646128021926,-0.0003460591077291131,0.12133843155129664,-0.0006095931225689188,-0.09145376421745366
411,0.4016,239.998,737.526,0.00364804,420.729,-0.633295,-1.08064,-0.0170795,0.114784,-0.0961304,0.233632,-0.000347058,-0.000611407,0.181694,-0.01693447218124422,0.26317955658804637,-0.0003469977823388204,0.12163113907860224,-0.0006112201288268615,-0.09165443991549116
412,0.4026,240.085,737.806,0.00363627,420.885,-0.633804,-1.08152,-0.01712,0.115045,-0.0963512,0.234164,-0.000347998,-0.000613035,0.182117,-0.016974285528895128,0.2638517468989201,-0.0003479374557192605,0.12192392301254307,-0.0006128471324361451,-0.09185498047466534
413,0.4036,240.171,738.086,0.0036245,421.041,-0.634312,-1.0824,-0.0171605,0.115306,-0.096572,0.234696,-0.000348939,-0.000614663,0.182539,-0.01701409726413816,0.2645242949101789,-0.0003488781278675468,0.12221678337306385,-0.0006144741333966586,-0.0920554767593722
414,0.4046,240.258,738.366,0.00361274,421.196,-0.634821,-1.08328,-0.017201,0.115567,-0.0967926,0.235228,-0.000349879,-0.000616291,0.182961,-0.01705390738703849,0.26519720081217035,-0.00034981779948051184,0.12250972018011463,-0.000616101131708402,-0.09225574723055396
415,0.4056,240.344,738.644,0.00360098,421.351,-0.635329,-1.08417,-0.0172415,0.115828,-0.0970132,0.23576,-0.000350819,-0.00061792,0.183383,-0.01709371589766162,0.26587046479534293,-0.0003507574702100724,0.12280273345365034,-0.0006177291267536189,-0.09245597352694235
416,0.4066,240.43,738.923,0.00358923,421.505,-0.635837,-1.08505,-0.0172819,0.116089,-0.0972337,0.236292,-0.000351759,-0.000619548,0.183805,-0.017133424509419903,0.26654408705024624,-0.0003516971400564506,0.12309582321363166,-0.0006193561197662678,-0.09265606492389244
417,0.4076,240.515,739.2,0.00357748,421.66,-0.636346,-1.08593,-0.0173224,0.11635,-0.0974541,0.236823,-0.000352699,-0.000621176,0.184227,-0.017173229799664735,0.26721680055009744,-0.0003526368090195353,0.12338898948002397,-0.0006209831101301466,-0.09285602149116012
418,0.4086,240.601,739.477,0.00356574,421.813,-0.636854,-1.08681,-0.0173628,0.11661,-0.0976744,0.237354,-0.00035364,-0.000622805,0.184648,-0.017212935199126367,0.26788987135567344,-0.0003535774767456923,0.12368110859112758,-0.000622611097222614,-0.0930558432984454
419,0.4096,240.686,739.753,0.003554,421.967,-0.637362,-1.08769,-0.0174032,0.116871,-0.0978946,0.237885,-0.00035458,-0.000624433,0.185069,-0.01725263899452223,0.26856329965675396,-0.00035451714394119094,0.12397442763694033,-0.0006242380822873983,-0.09325553041539258
420,0.4106,240.771,740.029,0.00354226,422.12,-0.637869,-1.08857,-0.0174436,0.117131,-0.0981147,0.238415,-0.000355521,-0.000626062,0.18549,-0.01729234118591727,0.2692358164067683,-0.0003554578098979855,0.12426669898175424,-0.0006258660640775515,-0.09345508291159033
421,0.4116,240.856,740.304,0.00353053,422.273,-0.638377,-1.08945,-0.017484,0.117391,-0.0983347,0.238946,-0.000356461,-0.000627691,0.185911,-0.017332041773375995,0.2699099595944563,-0.00035639747532600907,0.12455904632699744,-0.000627494043215715,-0.09365450085657157
422,0.4126,240.94,740.578,0.00351881,422.425,-0.638885,-1.09033,-0.0175244,0.117651,-0.0985546,0.239476,-0.000357402,-0.000629319,0.186332,-0.017371740756963572,0.2705831902634095,-0.00035733813951333016,0.12485146969243277,-0.0006291210203310804,-0.0938537843198134
423,0.4136,241.025,740.852,0.00350709,422.578,-0.639392,-1.09121,-0.0175648,0.117912,-0.0987745,0.240006,-0.000358343,-0.000630948,0.186752,-0.017411438136744506,0.2712567778391892,-0.00035827880281558144,0.1251450942423593,-0.0006307489941669298,-0.09405302396543957
424,0.4146,241.109,741.125,0.00349537,422.729,-0.6399,-1.09209,-0.0176051,0.118171,-0.0989942,0.240535,-0.000359284,-0.000632577,0.187173,-0.01745103565789219,0.27192945058091955,-0.0003592194652326519,0.1254365445629555,-0.0006323769653509004,-0.0942520386535104
425,0.4156,241.193,741.397,0.00348366,422.881,-0.640407,-1.09297,-0.0176454,0.118431,-0.0992139,0.241065,-0.000360225,-0.000634206,0.187593,-0.017490631583291893,0.27260375186378316,-0.00036016012676454157,0.12572919610759392,-0.0006340049338827702,-0.0944510096228568
426,0.4166,241.277,741.669,0.00347195,423.032,-0.640915,-1.09385,-0.0176857,0.118691,-0.0994335,0.241594,-0.000361166,-0.000635835,0.188013,-0.017530225913008013,0.27327713734327497,-0.0003611007874113614,0.12602192375152677,-0.0006356328997627614,-0.09464984634807216
427,0.4176,241.361,741.94,0.00346024,423.183,-0.641422,-1.09473,-0.017726,0.118951,-0.0996529,0.242123,-0.000362107,-0.000637464,0.188433,-0.017569818647104718,0.2739508791379226,-0.00036204144717288944,0.12631472751454176,-0.0006372608629908738,-0.09484845838324651
428,0.4186,241.444,742.211,0.00344854,423.333,-0.641929,-1.09561,-0.0177663,0.11921,-0.0998723,0.242652,-0.000363048,-0.000639093,0.188853,-0.0176094097856464,0.27462497743626635,-0.00036298210604934766,0.12660648080938874,-0.0006388888235668855,-0.09504702684772004
429,0.4196,241.528,742.481,0.00343684,423.483,-0.642437,-1.09649,-0.0178066,0.11947,-0.100092,0.243181,-0.000363989,-0.000640722,0.189272,-0.017648999328697457,0.2752994324269469,-0.00036392276404062507,0.12689943657699865,-0.0006405167814910184,-0.0952458231773452
430,0.4206,241.611,742.751,0.00342515,423.633,-0.642944,-1.09737,-0.0178469,0.119729,-0.100311,0.243709,-0.00036493,-0.000642351,0.189692,-0.017688587276321943,0.27597296832509777,-0.00036486342114672166,0.1271913413311061,-0.0006421447367632727,-0.09544394264719558
431,0.4216,241.694,743.019,0.00341346,423.782,-0.643451,-1.09825,-0.0178871,0.119988,-0.10053,0.244237,-0.000365872,-0.00064398,0.190111,-0.01772807540139687,0.276646859944105,-0.00036580507700179066,0.1274833216983362,-0.0006437726893835372,-0.09564201873363276
432,0.4226,241.776,743.288,0.00340177,423.931,-0.643958,-1.09913,-0.0179273,0.120247,-0.100749,0.244765,-0.000366813,-0.00064561,0.19053,-0.017767561939081022,0.2773211074718387,-0.00036674573233663743,0.12777537769827552,-0.000645401638706411,-0.0958400514461566
433,0.4236,241.859,743.555,0.00339009,424.08,-0.644465,-1.10001,-0.0179676,0.120506,-0.100968,0.245293,-0.000367755,-0.000647239,0.190949,-0.017807145108728606,0.2779957110962683,-0.00036768738641868026,0.12806750935051525,-0.0006470295860211417,-0.09603804079426492
434,0.4246,241.941,743.823,0.00337841,424.228,-0.644972,-1.10089,-0.0180078,0.120765,-0.101187,0.24582,-0.000368696,-0.000648869,0.191367,-0.017846628467874437,0.27866939233543087,-0.0003686280399822772,0.12835971667465196,-0.0006486585300353731,-0.0962359867874536
435,0.4256,242.023,744.089,0.00336673,424.376,-0.645479,-1.10177,-0.0180479,0.121024,-0.101406,0.246348,-0.000369638,-0.000650498,0.191786,-0.01788601202842721,0.27934470804224154,-0.00036956969229107184,0.1286519996902873,-0.000650286472044681,-0.09643388943521625
436,0.4266,242.105,744.355,0.00335506,424.524,-0.645986,-1.10264,-0.0180881,0.121283,-0.101624,0.246875,-0.00037058,-0.000652128,0.192204,-0.017925492217186534,0.2800191003901553,-0.0003705113437129093,0.128944358417028,-0.000651915410750159,-0.09663084537834155
437,0.4276,242.187,744.62,0.00334339,424.671,-0.646493,-1.10352,-0.0181283,0.121541,-0.101843,0.247402,-0.000371521,-0.000653758,0.192622,-0.01796497081887416,0.280693848236502,-0.00037145199461918743,0.12923566363825723,-0.0006535443468004276,-0.09682866156154102
438,0.4286,242.269,744.885,0.00333172,424.818,-0.647,-1.1044,-0.0181684,0.1218,-0.102061,0.247928,-0.000372463,-0.000655388,0.19304,-0.018004349633993888,0.2813676704003676,-0.0003723936442678877,0.1295281735535383,-0.0006551732801955978,-0.09702553145372261
439,0.4296,242.35,745.149,0.00332006,424.965,-0.647507,-1.10528,-0.0182086,0.122058,-0.10228,0.248455,-0.000373405,-0.000657018,0.193458,-0.018043825065677033,0.2820431291304111,-0.00037333529302951973,0.129819629418505,-0.0006568022109355587,-0.09722326121013569
440,0.4306,242.431,745.413,0.0033084,425.112,-0.648014,-1.10616,-0.0182487,0.122316,-0.102498,0.248981,-0.000374347,-0.000658648,0.193876,-0.01808320071880476,0.28271766120271646,-0.0003742769409041946,0.1301111604887859,-0.0006584311390203101,-0.09742004508896973
441,0.4316,242.512,745.676,0.00329674,425.258,-0.648521,-1.10704,-0.0182888,0.122574,-0.102716,0.249507,-0.000375289,-0.000660278,0.194293,-0.0181225747930005,0.2833925481722217,-0.0003752185878918013,0.1304027667837866,-0.0006600600644499632,-0.09761678607359392
442,0.4326,242.593,745.939,0.00328509,425.403,-0.649028,-1.10792,-0.0183289,0.122832,-0.102934,0.250033,-0.000376232,-0.000661908,0.194711,-0.01816194728832754,0.28406779022565165,-0.00037616123361627896,0.13069444832291732,-0.000661688987224518,-0.097813484173358
443,0.4336,242.674,746.201,0.00327344,425.549,-0.649534,-1.1088,-0.0183689,0.12309,-0.103153,0.250558,-0.000377174,-0.000663538,0.195128,-0.01820122002497604,0.2847421028070847,-0.00037710287882886107,0.1309862051255939,-0.0006633179073438633,-0.09801104138701955
444,0.4346,242.754,746.462,0.00326179,425.694,-0.650041,-1.10968,-0.018409,0.123348,-0.10337,0.251083,-0.000378116,-0.000665169,0.195545,-0.018240589366692372,0.2854167694955678,-0.000378044523154375,0.13127803721123654,-0.0006649478241431694,-0.0982067517556956
445,0.4356,242.835,746.723,0.00325015,425.839,-0.650548,-1.11055,-0.018449,0.123606,-0.103588,0.251608,-0.000379059,-0.000666799,0.195962,-0.018279858957720663,0.28609179047705635,-0.0003789871662139843,0.13156994459927085,-0.0006665767389506527,-0.09840332125695872
446,0.4366,242.915,746.983,0.0032385,425.983,-0.651055,-1.11143,-0.0184891,0.123864,-0.103806,0.252133,-0.000380001,-0.000668429,0.196378,-0.0183192251460792,0.28676716593760254,-0.0003799288087645847,0.1318619273091275,-0.0006682056511030376,-0.09859984791074106
447,0.4376,242.995,747.243,0.00322686,426.128,-0.651562,-1.11231,-0.0185291,0.124121,-0.104024,0.252658,-0.000380944,-0.00067006,0.196795,-0.01835849159173919,0.28744289606335727,-0.00038087145004717105,0.13215285320682257,-0.0006698355599303873,-0.09879633172638247
448,0.4386,243.075,747.502,0.00321523,426.271,-0.65207,-1.11319,-0.0185691,0.124379,-0.104241,0.253183,-0.000381886,-0.000671691,0.197211,-0.018397756466772774,0.2881189810405682,-0.00038181309082274684,0.1324449863265018,-0.000671465466099419,-0.0989918717055428
449,0.4396,243.154,747.761,0.00320359,426.415,-0.652577,-1.11407,-0.0186091,0.124636,-0.104459,0.253707,-0.000382829,-0.000673321,0.197627,-0.01843701977124279,0.28879413226080475,-0.0003827557303286433,0.1327360620896212,-0.0006730943702831782,-0.09918827006931152
450,0.4406,243.234,748.019,0.00319196,426.558,-0.653084,-1.11495,-0.0186491,0.124893,-0.104676,0.254231,-0.000383772,-0.000674952,0.198043,-0.018476281505211967,0.28946963735298703,-0.00038369836894547316,0.13302721266882522,-0.0006747242711371282,-0.09938372500707882
451,0.4416,243.313,748.276,0.00318033,426.701,-0.653591,-1.11583,-0.018689,0.12515,-0.104894,0.254755,-0.000384715,-0.000676583,0.198459,-0.01851544352029255,0.2901454965025927,-0.00038464100667345846,0.13331843808334387,-0.0006763541693326491,-0.09958003795613835
452,0.4426,243.392,748.533,0.0031687,426.844,-0.654098,-1.11671,-0.018729,0.125407,-0.105111,0.255278,-0.000385658,-0.000678214,0.198875,-0.018554702117374533,0.2908204190741317,-0.0003855836435125992,0.1336097383524124,-0.0006779840648697411,-0.09977540788949746
453,0.4436,243.471,748.79,0.00315708,426.986,-0.654606,-1.11759,-0.0187689,0.125664,-0.105328,0.255802,-0.000386601,-0.000679845,0.19929,-0.018593861003535106,0.2914969862188377,-0.00038652627946267337,0.13390111349527123,-0.000679613957748626,-0.0999707354321806
454,0.4446,243.55,749.045,0.00314546,427.128,-0.655113,-1.11847,-0.0188088,0.125921,-0.105545,0.256325,-0.000387544,-0.000681477,0.199706,-0.018633018327287254,0.2921726158043665,-0.000387468914524014,0.13419256353116493,-0.0006812448472878208,-0.10016602059338553
455,0.4456,243.628,749.301,0.00313384,427.27,-0.65562,-1.11935,-0.0188487,0.126178,-0.105762,0.256848,-0.000388488,-0.000683108,0.200121,-0.018672174088693372,0.29284859883658676,-0.0003884125483079037,0.13448408847934368,-0.0006828747348482933,-0.100361263382308
456,0.4466,243.707,749.556,0.00312222,427.411,-0.656128,-1.12023,-0.0188886,0.126434,-0.105979,0.25737,-0.000389431,-0.000684739,0.200536,-0.018711328287815743,0.2935236419761107,-0.000389355181590445,0.13477455358394153,-0.0006845046197504479,-0.10055646380814187
457,0.4476,243.785,749.81,0.0031106,427.553,-0.656635,-1.12111,-0.0189285,0.126691,-0.106196,0.257893,-0.000390374,-0.000686371,0.200951,-0.01875048092471676,0.2942003317798232,-0.00039029781398403074,0.13506622812278546,-0.0006861355013081383,-0.1007516218800788
458,0.4486,243.863,750.064,0.00309899,427.693,-0.657143,-1.12199,-0.0189683,0.126947,-0.106413,0.258415,-0.000391318,-0.000688003,0.201365,-0.018789533878416975,0.2948760807081383,-0.00039124144509750103,0.13535684227420908,-0.00068776638020418,-0.10094673760730877
459,0.4496,243.941,750.317,0.00308738,427.834,-0.657651,-1.12287,-0.0190082,0.127203,-0.106629,0.258937,-0.000392262,-0.000689634,0.20178,-0.01882868339497723,0.29555218246947557,-0.0003921850753202394,0.13564753083237924,-0.0006893962571280499,-0.10114091214038112
460,0.4506,244.019,750.57,0.00307577,427.974,-0.658159,-1.12375,-0.019048,0.12746,-0.106846,0.259459,-0.000393205,-0.000691266,0.202194,-0.018867733236281103,0.2962286372480616,-0.00039312770504529304,0.1359394297552079,-0.0006910271307025706,-0.10133594340078955
461,0.4516,244.096,750.822,0.00306416,428.114,-0.658666,-1.12463,-0.0190878,0.127716,-0.107062,0.259981,-0.000394149,-0.000692898,0.202608,-0.01890678152343228,0.2969054452282196,-0.0003940713334873447,0.136230267474865,-0.0006926580016154427,-0.10153003387448922
462,0.4526,244.174,751.073,0.00305255,428.254,-0.659174,-1.12551,-0.0191277,0.127972,-0.107279,0.260502,-0.000395093,-0.00069453,0.203022,-0.01894592636190473,0.2975813090124111,-0.0003950149610385534,0.13652117965850952,-0.0006942888698667771,-0.10172498070464242
463,0.4536,244.251,751.325,0.00304095,428.393,-0.659683,-1.12639,-0.0191674,0.128228,-0.107495,0.261023,-0.000396037,-0.000696162,0.203436,-0.018984873435523686,0.29825752501337877,-0.00039595858769903014,0.1368121663252062,-0.0006959197354565738,-0.10191898715535919
464,0.4546,244.328,751.575,0.00302934,428.532,-0.660191,-1.12727,-0.0192072,0.128483,-0.107711,0.261544,-0.000396981,-0.000697794,0.20385,-0.019023917060587592,0.29893409341467536,-0.00039690221346877497,0.13710209039136645,-0.0006975505983848329,-0.10211295170520818
465,0.4556,244.405,751.825,0.00301774,428.671,-0.660699,-1.12815,-0.019247,0.128739,-0.107927,0.262065,-0.000397925,-0.000699427,0.204263,-0.01906295913174627,0.29961101439994886,-0.00039784583834767684,0.1373932257902477,-0.0006991824579523076,-0.10230687436323882
466,0.4566,244.482,752.075,0.00300614,428.809,-0.661207,-1.12903,-0.0192867,0.128995,-0.108143,0.262586,-0.000398869,-0.000701059,0.204677,-0.019101901559256396,0.30028828815294406,-0.0003987894623358468,0.13768443572933187,-0.000700813315555715,-0.10250075513849877
467,0.4576,244.558,752.324,0.00299455,428.948,-0.661716,-1.12991,-0.0193265,0.12925,-0.108359,0.263106,-0.000399814,-0.000702692,0.20509,-0.019140940526693684,0.30096461389223594,-0.0003997340850334652,0.1379745822525522,-0.0007024451697951184,-0.10269459404003389
468,0.4586,244.635,752.573,0.00298295,429.085,-0.662224,-1.13079,-0.0193662,0.129505,-0.108575,0.263626,-0.000400758,-0.000704324,0.205503,-0.01917987985840397,0.3016412914123674,-0.00040067770723906104,0.13826480277257036,-0.0007040760220738962,-0.10288839107688774
469,0.4596,244.711,752.821,0.00297135,429.223,-0.662733,-1.13168,-0.0194059,0.129761,-0.108791,0.264146,-0.000401703,-0.000705957,0.205916,-0.019218817644253483,0.30231832089631183,-0.000401622328152329,0.1385562358639243,-0.0007057078709853393,-0.10308214625810219
470,0.4606,244.787,753.068,0.00295976,429.36,-0.663242,-1.13256,-0.0194456,0.130016,-0.109007,0.264666,-0.000402647,-0.00070759,0.206328,-0.019257753884303508,0.30299570252713814,-0.0004025659485754618,0.1388466047245258,-0.000707339717231914,-0.10327585959271723
471,0.4616,244.863,753.315,0.00294817,429.497,-0.663751,-1.13344,-0.0194853,0.130271,-0.109222,0.265186,-0.000403592,-0.000709223,0.206741,-0.01929668857861544,0.3036734364880105,-0.0004035105677042683,0.13913704763862822,-0.0007089715608138425,-0.10346863455885336
472,0.4626,244.939,753.562,0.00293657,429.634,-0.66426,-1.13432,-0.0195249,0.130526,-0.109438,0.265705,-0.000404537,-0.000710856,0.207153,-0.01933552366080804,0.3043502186113174,-0.0004044551859404555,0.13942756462511774,-0.0007106034017307916,-0.10366226442101067
473,0.4636,245.014,753.808,0.00292498,429.771,-0.664769,-1.13521,-0.0195646,0.130781,-0.109653,0.266224,-0.000405482,-0.000712489,0.207565,-0.01937445526772119,0.3050273520757112,-0.00040539980328402336,0.13971815570288482,-0.0007122352399830945,-0.10385495631903885
474,0.4646,245.09,754.054,0.00291339,429.907,-0.665279,-1.13609,-0.0196042,0.131035,-0.109869,0.266743,-0.000406427,-0.000714122,0.207977,-0.019413287270413915,0.30570483706358553,-0.0004063444197348609,0.14000768088257476,-0.000713867075570529,-0.10404850274470745
475,0.4656,245.165,754.299,0.00290181,430.043,-0.665788,-1.13697,-0.0196439,0.13129,-0.110084,0.267262,-0.000407372,-0.000715756,0.208389,-0.019452215790172978,0.3063826737574282,-0.0004072890352929681,0.14029841990885017,-0.0007154999077777502,-0.10424111161042238
476,0.4666,245.24,754.543,0.00289022,430.178,-0.666298,-1.13785,-0.0196835,0.131545,-0.110299,0.26778,-0.000408317,-0.000717389,0.208801,-0.019491044713609962,0.3070595552796136,-0.00040823364995856704,0.14058923308303073,-0.0007171317380340048,-0.10443367906968237
477,0.4676,245.315,754.787,0.00287863,430.314,-0.666808,-1.13874,-0.0197231,0.131799,-0.110514,0.268298,-0.000409262,-0.000719023,0.209212,-0.019529872099452006,0.30773678751725475,-0.0004091782637314356,0.1408789795444767,-0.0007187645649067154,-0.1046262051313892
478,0.4686,245.39,755.031,0.00286705,430.449,-0.667318,-1.13962,-0.0197627,0.132053,-0.110729,0.268816,-0.000410208,-0.000720657,0.209624,-0.01956869794775995,0.30841437065206967,-0.00041012387620154023,0.14116879961087125,-0.000720397389111338,-0.10481868980444209
479,0.4696,245.465,755.274,0.00285546,430.584,-0.667828,-1.14051,-0.0198022,0.132308,-0.110944,0.269334,-0.000411153,-0.000722291,0.210035,-0.01960742421934214,0.30909230486587,-0.000411068488188171,0.14145983476017654,-0.0007220302106480947,-0.1050111330977388
480,0.4706,245.539,755.517,0.00284388,430.718,-0.668338,-1.14139,-0.0198418,0.132562,-0.111159,0.269852,-0.000412099,-0.000723925,0.210446,-0.019646246996646965,0.30977059034056165,-0.00041201409887003937,0.14174980238253454,-0.0007236630295166524,-0.10520353502017499
481,0.4716,245.614,755.759,0.00283229,430.852,-0.668849,-1.14227,-0.0198813,0.132816,-0.111373,0.270369,-0.000413045,-0.000725559,0.210857,-0.01968497020510218,0.3104479168095733,-0.00041295970865740106,0.1420398436660235,-0.0007252958457172332,-0.10539500097609267
482,0.4726,245.688,756.0,0.00282071,430.986,-0.669359,-1.14316,-0.0199208,0.13307,-0.111588,0.270886,-0.00041399,-0.000727193,0.211267,-0.0197236918840209,0.3111255935469057,-0.0004139043179641755,0.14232995862935516,-0.000726928659249837,-0.10558732037580654
483,0.4736,245.762,756.242,0.00280913,431.12,-0.66987,-1.14405,-0.0199604,0.133324,-0.111803,0.271403,-0.000414936,-0.000728827,0.211678,-0.01976251005721741,0.31180362073369494,-0.00041484992596341197,0.14262014729124695,-0.0007285614701143528,-0.10577959843129414
484,0.4746,245.836,756.482,0.00279748,431.254,-0.670379,-1.14493,-0.0199999,0.133577,-0.112017,0.27192,-0.000415882,-0.000730462,0.212088,-0.019801228673372417,0.31248199855116976,-0.00041579553306814176,0.14290926676058224,-0.0007301952775807807,-0.10597094112283156
485,0.4756,245.91,756.723,0.00278597,431.387,-0.670893,-1.14582,-0.0200393,0.133831,-0.112232,0.272437,-0.000416828,-0.000732097,0.212498,-0.01983984774416203,0.31316072718065335,-0.00041674113927825385,0.1431996025854283,-0.000731829082375901,-0.10616313670872435
486,0.4766,245.983,756.962,0.00277435,431.52,-0.671404,-1.1467,-0.0200788,0.134085,-0.112446,0.272953,-0.000417774,-0.000733731,0.212908,-0.019878563305538832,0.31383849296441246,-0.00041768674459385924,0.14349001216494028,-0.0007334618852331554,-0.10635439733185204
487,0.4776,246.057,757.202,0.00276282,431.652,-0.671916,-1.14759,-0.0201183,0.134338,-0.11266,0.273469,-0.000418721,-0.000735366,0.213318,-0.019917277337681005,0.3145166085655613,-0.0004186333485963756,0.14377935173793066,-0.0007350956846873258,-0.10654561702958565
488,0.4786,246.13,757.44,0.00275121,431.785,-0.672428,-1.14848,-0.0201577,0.134591,-0.112874,0.273985,-0.000419667,-0.000737001,0.213728,-0.019955891836243356,0.31519507416465187,-0.0004195789521219684,0.1440687645230938,-0.0007367294814701886,-0.10673679581068218
489,0.4796,246.203,757.679,0.00273965,431.917,-0.67294,-1.14936,-0.0201971,0.134845,-0.113088,0.274501,-0.000420614,-0.000738636,0.214137,-0.019994504813424352,0.3158738899423299,-0.00042052555433247374,0.14435939489777772,-0.0007383632755818548,-0.10692793368389675
490,0.4806,246.276,757.917,0.00272805,432.049,-0.673452,-1.15025,-0.0202366,0.135098,-0.113302,0.275016,-0.00042156,-0.000740272,0.214547,-0.02003321426596749,0.3165517395269364,-0.00042147115606794294,0.1446489544524261,-0.0007399980662823324,-0.1071190306579829
491,0.4816,246.349,758.154,0.00271648,432.18,-0.673964,-1.15114,-0.020276,0.135351,-0.113516,0.275532,-0.000422507,-0.000741907,0.214956,-0.020071824196704724,0.3172312555245824,-0.00042241775648654833,0.1449385872749096,-0.0007416318550498291,-0.10731008674169196
492,0.4826,246.422,758.391,0.0027049,432.312,-0.674477,-1.15203,-0.0203154,0.135604,-0.11373,0.276047,-0.000423454,-0.000743543,0.215365,-0.02011043260624079,0.3179098043324984,-0.00042336435600875966,0.14522829338376764,-0.0007432666404029176,-0.10750110194377371
493,0.4836,246.494,758.628,0.00269332,432.443,-0.674989,-1.15291,-0.0203547,0.135857,-0.113944,0.276562,-0.000424401,-0.000745178,0.215774,-0.02014894150953439,0.31858870268304984,-0.0004243109546344659,0.14551807279754403,-0.0007449004238263557,-0.10769207627297572
494,0.4846,246.567,758.864,0.00268174,432.574,-0.675502,-1.1538,-0.0203941,0.136109,-0.114157,0.277076,-0.000425348,-0.000746814,0.216183,-0.020187546880708118,0.31926663148900647,-0.00042525755236377805,0.14580677972743428,-0.0007465352038319439,-0.10788211762060751
495,0.4856,246.639,759.099,0.00267016,432.704,-0.676016,-1.15469,-0.0204334,0.136362,-0.114371,0.277591,-0.000426295,-0.00074845,0.216591,-0.020226052753470336,0.3199462287855066,-0.00042620414919669614,0.14609670551677123,-0.000748169981163116,-0.10807301042117856
496,0.4866,246.711,759.334,0.00265858,432.834,-0.676529,-1.15558,-0.0204728,0.136614,-0.114584,0.278105,-0.000427242,-0.000750086,0.217,-0.020264655086520977,0.32062485553923725,-0.00042715074513310913,0.14638555828048094,-0.0007498047558197607,-0.10826297063847745
497,0.4876,246.783,759.569,0.002647,432.964,-0.677043,-1.15647,-0.0205121,0.136867,-0.114798,0.278619,-0.000428189,-0.000751722,0.217408,-0.02030315792899018,0.32130383119677997,-0.00042809734017312806,0.14667563051931687,-0.0007514395278019892,-0.10845378194522282
498,0.4886,246.855,759.803,0.00263542,433.094,-0.677557,-1.15736,-0.0205514,0.137119,-0.115011,0.279133,-0.000429137,-0.000753359,0.217816,-0.020341659258327538,0.32198315593751725,-0.00042904493388773446,0.1469646291905109,-0.0007530752963565979,-0.1086436610668241
499,0.4896,246.927,760.037,0.00262384,433.224,-0.678071,-1.15825,-0.0205907,0.137371,-0.115224,0.279647,-0.000430084,-0.000754995,0.218224,-0.02038015907459234,0.322662829940924,-0.00042999152713396604,0.14725370069854726,-0.0007547100629882175,-0.10883349974847956
500,0.4906,246.998,760.27,0.00261225,433.353,-0.678585,-1.15914,-0.02063,0.137624,-0.115437,0.28016,-0.000431032,-0.000756632,0.218632,-0.020418657377844096,0.3233415300443758,-0.0004309391190528977,0.14754399260520157,-0.0007563458261888867,-0.10902329799880195
501,0.4916,247.07,760.503,0.00260067,433.482,-0.6791,-1.16004,-0.0206692,0.137876,-0.11565,0.280673,-0.00043198,-0.000758269,0.219039,-0.020457056213852742,0.3240205784103025,-0.00043188671007343693,0.14783321013121586,-0.00075798158671192,-0.10921305582640206
502,0.4926,247.141,760.736,0.00258909,433.611,-0.679614,-1.16093,-0.0207085,0.138128,-0.115863,0.281186,-0.000432928,-0.000759906,0.219447,-0.02049555149510629,0.32469997521740823,-0.0004328343001956947,0.14812250054923082,-0.0007596173445572063,-0.10940277323988923
503,0.4936,247.212,760.968,0.0025775,433.739,-0.680129,-1.16182,-0.0207477,0.138379,-0.116076,0.281699,-0.000433876,-0.000761543,0.219854,-0.020533947316924706,0.3253797206444895,-0.00043378188941956,0.14841071546632745,-0.0007612530997247458,-0.10959245024787068
504,0.4946,247.283,761.199,0.00256592,433.868,-0.680645,-1.16271,-0.020787,0.138631,-0.116289,0.282212,-0.000434824,-0.00076318,0.220261,-0.0205724395764173,0.3260598148704341,-0.0004347294777451438,0.14870015143402537,-0.0007628888522145383,-0.10978208685895186
505,0.4956,247.354,761.43,0.00255433,433.996,-0.68116,-1.16361,-0.0208262,0.138883,-0.116501,0.282724,-0.000435772,-0.000764818,0.220668,-0.020610832384281963,0.32673893133462695,-0.0004356770651724462,0.14898966034877792,-0.0007645256012621671,-0.10997079305297441
506,0.4966,247.424,761.661,0.00254275,434.123,-0.681676,-1.1645,-0.0208654,0.139134,-0.116714,0.283236,-0.00043672,-0.000766455,0.221075,-0.02064922368717803,0.3274183955954779,-0.00043662465170146714,0.1492780929503026,-0.0007661613483949115,-0.11016034908562
507,0.4976,247.495,761.891,0.00253116,434.251,-0.682192,-1.16539,-0.0209045,0.139386,-0.116927,0.283748,-0.000437669,-0.000768093,0.221482,-0.02068751555392101,0.32809820783110455,-0.00043757323689452843,0.1495677475246695,-0.0007677980920820504,-0.11034986474713027
508,0.4986,247.565,762.121,0.00251957,434.378,-0.682708,-1.16629,-0.0209437,0.139637,-0.117139,0.28426,-0.000438617,-0.000769731,0.221888,-0.020725903850895788,0.3287783682197152,-0.00043852082162598727,0.14985632524428705,-0.0007694348330883338,-0.11053845058499878
509,0.4996,247.636,762.35,0.00250799,434.505,-0.683225,-1.16718,-0.0209829,0.139888,-0.117351,0.284772,-0.000439566,-0.000771369,0.222294,-0.02076429064307872,0.32945887693961007,-0.0004394694050195991,0.15014497540600313,-0.0007710715714135397,-0.1107269964469072
510,0.5006,247.706,762.579,0.0024964,434.632,-0.683742,-1.16808,-0.021022,0.140139,-0.117564,0.285283,-0.000440515,-0.000773007,0.2227,-0.02080257801079166,0.3301384040301112,-0.00044041798751304206,0.15043369802800344,-0.00077270830705789,-0.11091639142538279
511,0.5016,247.776,762.808,0.00248481,434.759,-0.684259,-1.16897,-0.0210611,0.14039,-0.117776,0.285794,-0.000441464,-0.000774645,0.223106,-0.020840863881497862,0.3308182784476901,-0.0004413665691063162,0.1507224931284772,-0.0007743450400211627,-0.11110485717232554
512,0.5026,247.846,763.036,0.00247321,434.885,-0.684776,-1.16987,-0.0211003,0.140641,-0.117988,0.286305,-0.000442413,-0.000776284,0.223512,-0.02087924616733594,0.33149850036987627,-0.0004423151497993105,0.15101136072561938,-0.0007759827695275057,-0.11129328296876484
513,0.5036,247.916,763.263,0.00246162,435.011,-0.685294,-1.17077,-0.0211394,0.140892,-0.1182,0.286816,-0.000443362,-0.000777922,0.223918,-0.020917529040375804,0.33217906997429014,-0.000443263729592136,0.15130030083762858,-0.000777619497127291,-0.11148166882316934
514,0.5046,247.985,763.491,0.00245003,435.137,-0.685812,-1.17166,-0.0211784,0.141143,-0.118412,0.287326,-0.000444311,-0.000779561,0.224323,-0.020955712512160662,0.3328586545793213,-0.00044421230848479265,0.15158931348270843,-0.0007792572212668158,-0.11167001474400584
515,0.5056,248.055,763.717,0.00243843,435.262,-0.68633,-1.17256,-0.0212175,0.141394,-0.118624,0.287837,-0.000445261,-0.0007812,0.224729,-0.020993992395424765,0.3335399194001487,-0.00044516188603205276,0.15187839867906705,-0.0007808949427220435,-0.11185832073973934
516,0.5066,248.124,763.944,0.00242684,435.388,-0.686849,-1.17346,-0.0212566,0.141644,-0.118835,0.288347,-0.00044621,-0.000782839,0.225134,-0.021032270781974782,0.3342201982153956,-0.0004461104631232615,0.1521664042779367,-0.000782532661493196,-0.11204569886497584
517,0.5076,248.193,764.17,0.00241524,435.513,-0.687367,-1.17436,-0.0212956,0.141895,-0.119047,0.288857,-0.00044716,-0.000784479,0.225539,-0.02107044977891903,0.3349008240613236,-0.0004470600388672974,0.15245563434226495,-0.0007841713767958725,-0.11223392522411735
518,0.5086,248.262,764.395,0.00240364,435.638,-0.687887,-1.17526,-0.0213347,0.142145,-0.119259,0.289366,-0.00044811,-0.000786118,0.225944,-0.021108725176043786,0.33558046153383403,-0.00044800961370916603,0.15274378426809054,-0.0007858090901968762,-0.11242211168350036
519,0.5096,248.331,764.62,0.00239204,435.762,-0.688406,-1.17616,-0.0213737,0.142395,-0.11947,0.289876,-0.000449059,-0.000787758,0.226349,-0.021146901191324785,0.33626178129098694,-0.00044895818809798094,0.15303200624040292,-0.0007874478001261842,-0.1126093708613971
520,0.5106,248.4,764.845,0.00238043,435.887,-0.688926,-1.17706,-0.0214127,0.142645,-0.119682,0.290385,-0.000450009,-0.000789398,0.226753,-0.021185075717770285,0.33694211166705634,-0.00044990776113662534,0.1533203002772161,-0.0007890865073680864,-0.11279747773474136
521,0.5116,248.469,765.069,0.00236883,436.011,-0.689446,-1.17796,-0.0214517,0.142895,-0.119893,0.290894,-0.00045096,-0.000791038,0.227158,-0.02122324875543813,0.3376227884194323,-0.0004508583328224347,0.15360866639654835,-0.0007907252119224717,-0.11298465771875665
522,0.5126,248.537,765.293,0.00235722,436.135,-0.689966,-1.17886,-0.0214907,0.143145,-0.120104,0.291403,-0.00045191,-0.000792678,0.227562,-0.021261420304386713,0.33830381172446566,-0.0004518079040559675,0.1538971046164228,-0.0007923639137893401,-0.11317179821196166
523,0.5136,248.606,765.517,0.00234562,436.259,-0.690487,-1.17976,-0.0215296,0.143395,-0.120315,0.291912,-0.00045286,-0.000794318,0.227966,-0.021299492494627925,0.33898518175859627,-0.00045275747438733305,0.1541856149548666,-0.0007940026129688027,-0.11335889922268816
524,0.5146,248.674,765.74,0.00233401,436.382,-0.691007,-1.18066,-0.0215686,0.143645,-0.120526,0.29242,-0.000453811,-0.000795958,0.22837,-0.021337661070128577,0.33966555903212536,-0.000453708043362977,0.15447419742991153,-0.0007956413094608594,-0.11354596075926604
525,0.5156,248.742,765.962,0.0023224,436.505,-0.691529,-1.18157,-0.0216075,0.143895,-0.120737,0.292929,-0.000454761,-0.000797599,0.228774,-0.021375730294661777,0.34034762237206695,-0.00045465761188934195,0.15476285205959428,-0.0007972810024680088,-0.11373298283002342
526,0.5166,248.81,766.184,0.00231078,436.628,-0.69205,-1.18247,-0.0216464,0.144144,-0.120948,0.293437,-0.000455712,-0.00079924,0.229177,-0.021413798038330878,0.34102869194125596,-0.0004556081790579869,0.15505042381095446,-0.0007989206927845327,-0.11391996544328686
527,0.5176,248.878,766.406,0.00229917,436.751,-0.692572,-1.18337,-0.0216854,0.144394,-0.121159,0.293945,-0.000456663,-0.000800881,0.229581,-0.021451962156002202,0.34171010758168063,-0.00045655874532257723,0.15533922251524102,-0.0008005603804103201,-0.11410690860738093
528,0.5186,248.946,766.628,0.00228755,436.874,-0.693094,-1.18428,-0.0217243,0.144643,-0.12137,0.294452,-0.000457614,-0.000802522,0.229984,-0.02149002693430957,0.34239052707799167,-0.000457509310683224,0.1556269378007138,-0.0008022000653453709,-0.11429381233062863
529,0.5196,249.013,766.849,0.00227593,436.996,-0.693617,-1.18518,-0.0217631,0.144892,-0.121581,0.29496,-0.000458565,-0.000804164,0.230387,-0.02152799238473002,0.34307263470641614,-0.0004584598751398161,0.1559147247362127,-0.0008038407467858555,-0.11448067662135086
530,0.5206,249.081,767.069,0.00226431,437.118,-0.69414,-1.18609,-0.021802,0.145142,-0.121791,0.295467,-0.000459516,-0.000805805,0.23079,-0.021566054205519047,0.34375374517912705,-0.0004594104386925757,0.15620373954274225,-0.000805480426337879,-0.11466661615492602
531,0.5216,249.148,767.289,0.00225269,437.24,-0.694663,-1.18699,-0.0218409,0.145391,-0.122002,0.295974,-0.000460468,-0.000807447,0.231193,-0.021604114545732078,0.3444352010624021,-0.0004603620008808429,0.15649167011975762,-0.0008071211023920055,-0.1148534017923396
532,0.5226,249.215,767.509,0.00224106,437.362,-0.695186,-1.1879,-0.0218797,0.14564,-0.122212,0.296481,-0.000461419,-0.000809089,0.231595,-0.02164207556963904,0.3451170025314083,-0.00046131256262460507,0.15677967240041335,-0.0008087617757521759,-0.11503926306184686
533,0.5236,249.283,767.729,0.00222943,437.483,-0.69571,-1.18881,-0.0219185,0.145888,-0.122423,0.296988,-0.000462371,-0.000810731,0.231998,-0.021680035120686947,0.3457991497614026,-0.0004622641230020985,0.15706658933539797,-0.0008104024464183901,-0.11522597007905777
534,0.5246,249.35,767.948,0.0022178,437.604,-0.696235,-1.18972,-0.0219574,0.146137,-0.122633,0.297494,-0.000463323,-0.000812373,0.2324,-0.021718091027128517,0.34648029644675993,-0.00046321568247364997,0.15735473478876272,-0.0008120431143905371,-0.11541175311743945
535,0.5256,249.416,768.166,0.00220617,437.725,-0.696759,-1.19062,-0.0219962,0.146386,-0.122843,0.298,-0.000464275,-0.000814016,0.232802,-0.021756047628833874,0.3471617878795541,-0.0004641672410394815,0.1576429519992788,-0.0008136847788550172,-0.11559749714547918
536,0.5266,249.483,768.384,0.00219454,437.846,-0.697284,-1.19153,-0.022035,0.146635,-0.123053,0.298507,-0.000465227,-0.000815658,0.233204,-0.021794002757851594,0.34784497207856924,-0.00046511879869926,0.1579312409848157,-0.0008153254414376976,-0.1157832021713685
537,0.5276,249.55,768.602,0.0021829,437.966,-0.697809,-1.19244,-0.0220737,0.146883,-0.123263,0.299012,-0.000466179,-0.000817301,0.233606,-0.021831858597429643,0.3485258056854854,-0.0004660703554532075,0.15821844354422532,-0.0008169671005093804,-0.11596886820329677
538,0.5286,249.616,768.82,0.00217126,438.087,-0.698335,-1.19335,-0.0221125,0.147131,-0.123473,0.299518,-0.000467131,-0.000818944,0.234008,-0.021869810785038912,0.3492083324078603,-0.0004670219113013241,0.15850571733870233,-0.0008186087568837763,-0.1161544952494521
539,0.5296,249.683,769.037,0.00215961,438.207,-0.698861,-1.19426,-0.0221512,0.14738,-0.123683,0.300024,-0.000468084,-0.000820588,0.23441,-0.021907663690903023,0.3498912045761473,-0.0004679744657755114,0.15879422117955722,-0.0008202514097407354,-0.11634008331802048
540,0.5306,249.749,769.253,0.00214797,438.327,-0.699387,-1.19518,-0.02219,0.147628,-0.123893,0.300529,-0.000469037,-0.000822231,0.234811,-0.02194561293733166,0.35057307179143904,-0.00046892701934198033,0.15908163778459583,-0.0008218930607190034,-0.11652563241718639
541,0.5316,249.815,769.47,0.00213632,438.446,-0.699914,-1.19609,-0.0222287,0.147876,-0.124102,0.301034,-0.000469989,-0.000823875,0.235212,-0.021983462909709317,0.3512552834366358,-0.0004698785724704946,0.1593691256777916,-0.0008235357081766148,-0.11671025926583345
542,0.5326,249.881,769.685,0.00212467,438.566,-0.700441,-1.197,-0.0222674,0.148124,-0.124312,0.301539,-0.000470942,-0.000825519,0.235613,-0.022021311417321332,0.35193783968571846,-0.000470831124222304,0.1596566848768266,-0.0008251783529336087,-0.11689573063621217
543,0.5336,249.947,769.901,0.00211302,438.685,-0.700969,-1.19791,-0.0223061,0.148372,-0.124521,0.302043,-0.000471895,-0.000827163,0.236014,-0.02205915846022455,0.35261938809269155,-0.00047178367506639507,0.1599443153993867,-0.0008268209949902072,-0.117080280142414
544,0.5346,250.013,770.116,0.00210136,438.804,-0.701496,-1.19883,-0.0223448,0.14862,-0.124731,0.302548,-0.000472848,-0.000828807,0.236415,-0.022097004038475476,0.35330263338859513,-0.0004727362250026568,0.16023201726316216,-0.0008284636343461882,-0.11726567381656694
545,0.5356,250.078,770.331,0.0020897,438.923,-0.702025,-1.19974,-0.0223835,0.148868,-0.12494,0.303052,-0.000473802,-0.000830451,0.236816,-0.022134848152130848,0.35398486982496347,-0.0004736897735574397,0.1605197904858482,-0.0008301062710017737,-0.1174501460127233
546,0.5366,250.144,770.545,0.00207804,439.041,-0.702553,-1.20066,-0.0224221,0.149115,-0.12515,0.303556,-0.000474755,-0.000832096,0.237216,-0.0221725930185116,0.35466745019515966,-0.0004746423216772655,0.16080647427808903,-0.0008317499041250453,-0.11763546202319852
547,0.5376,250.209,770.759,0.00206637,439.16,-0.703082,-1.20157,-0.0224608,0.149363,-0.125359,0.30406,-0.000475709,-0.000833741,0.237616,-0.02221043420693003,0.35535037467257014,-0.0004755958684136141,0.16109438998378178,-0.0008333935345445909,-0.1178198569416955
548,0.5386,250.275,770.973,0.0020547,439.278,-0.703611,-1.20249,-0.0224994,0.14961,-0.125568,0.304564,-0.000476662,-0.000835386,0.238016,-0.02224817615574537,0.3560336434306688,-0.000476548414716893,0.16138121571962794,-0.0008350371622602992,-0.11800421332568145
549,0.5396,250.34,771.186,0.00204303,439.396,-0.704141,-1.20341,-0.022538,0.149857,-0.125777,0.305067,-0.000477616,-0.000837031,0.238416,-0.022285916647749482,0.3567158999264384,-0.00047750195963480735,0.16166811231018086,-0.0008366807872722815,-0.11818853118320938
550,0.5406,250.405,771.399,0.00203135,439.514,-0.704671,-1.20432,-0.0225766,0.150105,-0.125986,0.30557,-0.00047857,-0.000838677,0.238816,-0.022323655682998877,0.3573984996835482,-0.00047845550364311595,0.1619562417286049,-0.0008383254087421799,-0.11837281052233029
551,0.5416,250.47,771.611,0.00201968,439.631,-0.705202,-1.20524,-0.0226152,0.150352,-0.126195,0.306073,-0.000479525,-0.000840322,0.239216,-0.02236139326154951,0.35808144287470234,-0.00047941004626228523,0.16224328036812463,-0.0008399690283450445,-0.11855705135109396
552,0.5426,250.535,771.823,0.00200799,439.748,-0.705733,-1.20616,-0.0226538,0.150599,-0.126403,0.306576,-0.000480479,-0.000841968,0.239615,-0.022399129383457783,0.3587647296726917,-0.00048036358845027216,0.16253038991494484,-0.0008416136444024946,-0.11874037241836088
553,0.5436,250.599,772.035,0.00199631,439.866,-0.706264,-1.20708,-0.0226923,0.150846,-0.126612,0.307079,-0.000481433,-0.000843614,0.240015,-0.022436766292461385,0.3594483602503935,-0.00048131712972854235,0.16281757038658218,-0.000843258257752888,-0.11892453643471546
554,0.5446,250.664,772.246,0.00198462,439.982,-0.706796,-1.208,-0.0227309,0.151093,-0.126821,0.307581,-0.000482388,-0.000845261,0.240414,-0.02247449950502678,0.36013097464911814,-0.00048227166961489765,0.16310482180055685,-0.0008449038675514275,-0.1191086619648124
555,0.5456,250.728,772.457,0.00197293,440.099,-0.707328,-1.20892,-0.0227694,0.151339,-0.127029,0.308084,-0.000483343,-0.000846907,0.240813,-0.022512133512336607,0.3608152926209085,-0.0004832262085896488,0.16339098078283154,-0.000846548475486153,-0.1192918683090034
556,0.5466,250.793,772.668,0.00196123,440.216,-0.70786,-1.20985,-0.022808,0.151586,-0.127238,0.308586,-0.000484298,-0.000848554,0.241212,-0.0225498638157835,0.3614985933919481,-0.0004841807466529069,0.16367837384666717,-0.0008481940798655829,-0.1194759170747609
557,0.5476,250.857,772.878,0.00194953,440.332,-0.708393,-1.21077,-0.0228465,0.151833,-0.127446,0.309088,-0.000485253,-0.000850201,0.241611,-0.022587494921623152,0.36218223726608634,-0.0004851352838044498,0.16396583790535701,-0.0008498396815348475,-0.11965904703783292
558,0.5486,250.921,773.088,0.00193783,440.448,-0.708926,-1.21169,-0.022885,0.152079,-0.127655,0.309589,-0.000486208,-0.000851848,0.242009,-0.022625124578693145,0.3628648615500616,-0.00048608982004449963,0.1642522087236482,-0.0008514852804937245,-0.11984301907125483
559,0.5496,250.985,773.298,0.00192612,440.564,-0.70946,-1.21262,-0.0229234,0.152326,-0.127863,0.310091,-0.000487163,-0.000853495,0.242408,-0.022662655053319547,0.3635491914629967,-0.0004870443553729453,0.16453981453705868,-0.0008531308767423251,-0.12002607268505228
560,0.5506,251.049,773.507,0.00191441,440.68,-0.709994,-1.21354,-0.0229619,0.152572,-0.128071,0.310592,-0.000488119,-0.000855143,0.242806,-0.022700281816780188,0.3642325007626066,-0.0004879998893018156,0.16482632657096996,-0.0008547774694258603,-0.12020908822765752
561,0.5516,251.113,773.716,0.0019027,440.795,-0.710529,-1.21447,-0.0230004,0.152818,-0.128279,0.311093,-0.000489074,-0.000856791,0.243204,-0.022737907131638257,0.36491615248594567,-0.0004889544228060538,0.1651129090955119,-0.0008564240593957884,-0.12039206570698857
562,0.5526,251.176,773.924,0.00189098,440.91,-0.711064,-1.21539,-0.0230388,0.153064,-0.128487,0.311594,-0.00049003,-0.000858439,0.243602,-0.022775433275497803,0.36560014680461106,-0.0004899099549089403,0.16539956212802664,-0.0008580706466521093,-0.12057500513096187
563,0.5536,251.24,774.132,0.00187926,441.025,-0.711599,-1.21632,-0.0230772,0.15331,-0.128695,0.312095,-0.000490986,-0.000860087,0.244,-0.02281295797838112,0.3662844838902859,-0.0004908654860982242,0.16568628568586186,-0.0008597172311949342,-0.12075790650749207
564,0.5546,251.303,774.34,0.00186753,441.14,-0.712135,-1.21725,-0.0231157,0.153556,-0.128903,0.312595,-0.000491942,-0.000861736,0.244398,-0.022850578955290524,0.3669677969462595,-0.0004918210163741277,0.16597307978636855,-0.0008613648121628126,-0.1209407698444922
565,0.5556,251.367,774.547,0.0018558,441.255,-0.712672,-1.21818,-0.0231541,0.153802,-0.12911,0.313095,-0.000492899,-0.000863385,0.244795,-0.022888100772635145,0.3676514517441891,-0.0004927775452436833,0.16625994444690262,-0.0008630123904137532,-0.12112271627302929
566,0.5566,251.43,774.754,0.00184407,441.369,-0.713208,-1.21911,-0.0231925,0.154048,-0.129318,0.313595,-0.000493855,-0.000865034,0.245192,-0.022925621149169628,0.368335448454989,-0.0004937330736916046,0.16654687968482396,-0.0008646599659478671,-0.12130550373748916
567,0.5576,251.493,774.961,0.00183233,441.483,-0.713745,-1.22004,-0.0232308,0.154293,-0.129526,0.314095,-0.000494812,-0.000866683,0.24559,-0.02296304238125846,0.3690197872496581,-0.0004946896007314017,0.16683271868419425,-0.0008663075387652652,-0.12148825318611034
568,0.5586,251.556,775.167,0.00182058,441.598,-0.714283,-1.22097,-0.0232692,0.154539,-0.129733,0.314595,-0.000495768,-0.000868332,0.245987,-0.02300055988009042,0.36970446829928116,-0.0004956451273513407,0.1671197948419103,-0.0008679551088656146,-0.12167008629732445
569,0.5596,251.619,775.373,0.00180884,441.711,-0.714821,-1.2219,-0.0233076,0.154784,-0.12994,0.315095,-0.000496725,-0.000869982,0.246384,-0.023038075938278113,0.37038949177502856,-0.0004966016525612682,0.1674057742226902,-0.0008696036753796932,-0.12185188177298001
570,0.5606,251.681,775.579,0.00179709,441.825,-0.71536,-1.22283,-0.0233459,0.155029,-0.130148,0.315594,-0.000497682,-0.000871632,0.24678,-0.023075492863430913,0.37107348677398355,-0.0004975581768558168,0.16769182367700197,-0.0008712522391735034,-0.12203451758678818
571,0.5616,251.744,775.784,0.00178533,441.938,-0.715899,-1.22376,-0.0233842,0.155275,-0.130355,0.316093,-0.000498639,-0.000873282,0.247177,-0.023112908355543027,0.371757823171615,-0.0004985147002349866,0.1679791112005431,-0.0008729008002472671,-0.12221623763297407
572,0.5626,251.807,775.989,0.00177357,442.052,-0.716438,-1.2247,-0.0234225,0.15552,-0.130562,0.316592,-0.000499597,-0.000874933,0.247573,-0.02315032241466919,0.372442501138323,-0.0004994722221991488,0.16826530113962335,-0.0008745503577263225,-0.12239792006700334
573,0.5636,251.869,776.193,0.00176181,442.165,-0.716978,-1.22563,-0.0234608,0.155765,-0.130769,0.317091,-0.000500554,-0.000876583,0.24797,-0.023187735040864355,0.37312752084459366,-0.0005004287437465615,0.16855156120382842,-0.0008761989133582171,-0.122579564896661
574,0.5646,251.931,776.398,0.00175004,442.278,-0.717518,-1.22657,-0.0234991,0.15601,-0.130976,0.317589,-0.000501512,-0.000878234,0.248366,-0.02322514623418337,0.3738115086488014,-0.0005013862638771904,0.16883789141034145,-0.0008778484653920726,-0.12276117212973037
575,0.5656,251.994,776.602,0.00173826,442.39,-0.718059,-1.2275,-0.0235374,0.156255,-0.131183,0.318087,-0.00050247,-0.000879885,0.248762,-0.023262555994681078,0.3744958371637659,-0.000502343783090553,0.16912429177634936,-0.0008794980147025511,-0.12294274177399289
576,0.5666,252.056,776.805,0.00172648,442.503,-0.7186,-1.22844,-0.0235757,0.156499,-0.13139,0.318585,-0.000503428,-0.000881537,0.249158,-0.023299964322412436,0.3751805065592029,-0.0005033013013865384,0.16940959290886548,-0.0008811485604084401,-0.12312427383722901
577,0.5676,252.118,777.008,0.0017147,442.615,-0.719142,-1.22938,-0.0236139,0.156744,-0.131597,0.319083,-0.000504386,-0.000883188,0.249553,-0.02333727355116455,0.3758655170049132,-0.0005042588187652575,0.16969613335889977,-0.0008827981042704991,-0.12330576832721685
578,0.5686,252.18,777.211,0.00170291,442.727,-0.719684,-1.23032,-0.0236521,0.156989,-0.131804,0.319581,-0.000505345,-0.00088484,0.249949,-0.02337458135473136,0.37655086867078214,-0.0005052173347214195,0.16998274401994506,-0.000884448644524749,-0.1234872252517335
579,0.5696,252.241,777.414,0.00169112,442.839,-0.720227,-1.23125,-0.0236904,0.157233,-0.13201,0.320079,-0.000506303,-0.000886492,0.250344,-0.023411985391973533,0.3772365617267799,-0.0005061748502644958,0.1702682546403651,-0.0008860991820521802,-0.12366776828676063
580,0.5706,252.303,777.616,0.00167932,442.951,-0.72077,-1.23219,-0.0237286,0.157478,-0.132217,0.320576,-0.000507262,-0.000888145,0.250739,-0.02344929034160248,0.37792121842105364,-0.0005071333643832387,0.1705550054882965,-0.000887750715965252,-0.12384915028504073
581,0.5716,252.365,777.818,0.00166752,443.062,-0.721313,-1.23314,-0.0237668,0.157722,-0.132423,0.321073,-0.000508221,-0.000889797,0.251134,-0.02348659386620955,0.37860621547427664,-0.000508091877582717,0.17084065575755147,-0.0008894012480377134,-0.12402961877118979
582,0.5726,252.426,778.019,0.00165571,443.174,-0.721858,-1.23408,-0.0238049,0.157966,-0.13263,0.32157,-0.00050918,-0.00089145,0.251529,-0.023523798318234035,0.3792915530556493,-0.0005090503898630416,0.17112637573397582,-0.0008910527764924847,-0.1242109258741716
583,0.5736,252.487,778.22,0.0016439,443.285,-0.722402,-1.23502,-0.0238431,0.15821,-0.132836,0.322067,-0.000510139,-0.000893103,0.251924,-0.023561098996690788,0.37997723133445604,-0.0005100089012241016,0.17141216543458038,-0.0008927043022172176,-0.12439131984222485
584,0.5746,252.549,778.421,0.00163208,443.396,-0.722947,-1.23596,-0.0238813,0.158454,-0.133042,0.322563,-0.000511098,-0.000894757,0.252319,-0.023598398250288755,0.38066186981750594,-0.0005109674116660079,0.1716980248763802,-0.0008943568243177102,-0.124571676652948
585,0.5756,252.61,778.621,0.00162026,443.507,-0.723493,-1.23691,-0.0239194,0.158698,-0.133248,0.32306,-0.000512058,-0.00089641,0.252713,-0.023635598442647288,0.3813482293130117,-0.0005119269206766974,0.17198395407639389,-0.000896008344580923,-0.1247519963139948
586,0.5766,252.671,778.822,0.00160843,443.617,-0.724039,-1.23785,-0.0239575,0.158942,-0.133454,0.323556,-0.000513018,-0.000898064,0.253107,-0.023672797217705432,0.3820335479797303,-0.0005128864287662349,0.1722699530516445,-0.0008976608612164538,-0.12493227883301705
587,0.5776,252.732,779.021,0.0015966,443.728,-0.724585,-1.2388,-0.0239956,0.159186,-0.13366,0.324052,-0.000513978,-0.000899719,0.253502,-0.023709994575517257,0.3827192066488214,-0.0005138459359347314,0.17255602181915952,-0.0008993143742194176,-0.1251125242176655
588,0.5786,252.792,779.221,0.00158476,443.838,-0.725132,-1.23974,-0.0240337,0.159429,-0.133866,0.324548,-0.000514938,-0.000901373,0.253896,-0.02374719051613683,0.3834052054889676,-0.0005148054421820758,0.17284098755439614,-0.000900966885386878,-0.1252927324755888
589,0.5796,252.853,779.42,0.00157292,443.948,-0.72568,-1.24069,-0.0240718,0.159673,-0.134072,0.325043,-0.000515898,-0.000903028,0.254289,-0.023784385039617995,0.3840901605780833,-0.0005157649475082682,0.17312719567132961,-0.0009026203929183296,-0.1254729036144343
590,0.5806,252.914,779.619,0.00156107,444.058,-0.726228,-1.24164,-0.0241099,0.159916,-0.134278,0.325539,-0.000516858,-0.000904683,0.254683,-0.02382157814601482,0.3847768395800446,-0.0005167244519134195,0.17341230021867737,-0.0009042738977133036,-0.125653037641848
591,0.5816,252.974,779.817,0.00154922,444.167,-0.726776,-1.24259,-0.024148,0.16016,-0.134483,0.326034,-0.000517819,-0.000906338,0.255077,-0.023858769835381266,0.38546247379610543,-0.0005176849548796936,0.17369864775290922,-0.0009059273997717998,-0.1258322603981712
592,0.5826,253.035,780.015,0.00153736,444.277,-0.727325,-1.24354,-0.024186,0.160403,-0.134689,0.326529,-0.00051878,-0.000907993,0.25547,-0.02389586249736242,0.3861484474851158,-0.0005186454569229282,0.17398389117998603,-0.0009075808990937073,-0.12601232040571164
593,0.5836,253.095,780.213,0.00152549,444.386,-0.727875,-1.24449,-0.0242241,0.160646,-0.134894,0.327024,-0.000519741,-0.000909649,0.255863,-0.023933051356548996,0.38683476081515655,-0.0005196059580431234,0.17426920392963785,-0.0009092353947697251,-0.1261914695166172
594,0.5846,253.155,780.411,0.00151362,444.495,-0.728425,-1.24544,-0.0242621,0.160889,-0.1351,0.327518,-0.000520702,-0.000911305,0.256256,-0.02397014119588603,0.3875200264336711,-0.0005205664582402791,0.17455458601871232,-0.0009108898877060456,-0.12637145553470042
595,0.5856,253.215,780.608,0.00150174,444.604,-0.728975,-1.2464,-0.0243001,0.161132,-0.135305,0.328013,-0.000521663,-0.000912962,0.256649,-0.024007229625836013,0.3882070188633546,-0.0005215269575143955,0.17484003746406085,-0.0009125453769899261,-0.12655053103045033
596,0.5866,253.275,780.805,0.00148986,444.713,-0.729526,-1.24735,-0.0243381,0.161375,-0.13551,0.328507,-0.000522625,-0.000914618,0.257042,-0.024044316646452346,0.388892962544813,-0.0005224884553429732,0.17512555828253906,-0.0009141998644448535,-0.12672956981948624
597,0.5876,253.335,781.001,0.00147797,444.821,-0.730078,-1.2483,-0.0243761,0.161618,-0.135716,0.329001,-0.000523586,-0.000916275,0.257435,-0.024081402257788764,0.38957924516616105,-0.0005234489527700115,0.17541114849100659,-0.0009158553482441212,-0.12690944500032375
598,0.5886,253.395,781.198,0.00146608,444.93,-0.73063,-1.24926,-0.0244141,0.161861,-0.135921,0.329495,-0.000524548,-0.000917932,0.257827,-0.02411848645989867,0.39026586689487663,-0.0005244104487496237,0.1756968081063277,-0.0009175108293002499,-0.12708841021953687
599,0.5896,253.455,781.394,0.00145418,445.038,-0.731183,-1.25022,-0.024452,0.162103,-0.136126,0.329989,-0.00052551,-0.00091959,0.25822,-0.024155471668387607,0.39095282789852037,-0.0005253719438043092,0.17598136116342045,-0.0009191673066940576,-0.12726733875464047
600,0.5906,253.514,781.589,0.00144227,445.146,-0.731736,-1.25117,-0.02449,0.162346,-0.136331,0.330482,-0.000526472,-0.000921247,0.258612,-0.02419255305591339,0.3916387367053029,-0.0005263334379340678,0.17626715935725734,-0.0009208227822622428,-0.12744623061315374
601,0.5916,253.574,781.784,0.00143036,445.254,-0.732289,-1.25213,-0.0245279,0.162588,-0.136536,0.330975,-0.000527435,-0.000922905,0.259004,-0.02422953545733164,0.39232498374849545,-0.0005272959306115155,0.17655185045605548,-0.0009224792541648874,-0.1276250858025948
602,0.5926,253.633,781.979,0.00141844,445.362,-0.732843,-1.25309,-0.0245658,0.162831,-0.13674,0.331469,-0.000528397,-0.000924564,0.259396,-0.024266516457143505,0.3930129622071554,-0.0005282574228903103,0.17683778729563526,-0.0009241367223968844,-0.12780303213394817
603,0.5936,253.693,782.174,0.00140652,445.469,-0.733398,-1.25405,-0.0246037,0.163073,-0.136945,0.331961,-0.00052936,-0.000926222,0.259787,-0.02430349605540194,0.39369849321135986,-0.0005292199137150178,0.1771226165031048,-0.0009257931888050352,-0.12798181418657417
604,0.5946,253.752,782.368,0.00139459,445.576,-0.733953,-1.25501,-0.0246416,0.163315,-0.13715,0.332454,-0.000530323,-0.000927881,0.260179,-0.024340474252160127,0.39438575596486203,-0.0005301824036128,0.17740751464758375,-0.0009274506515393188,-0.12816055959263584
605,0.5956,253.811,782.562,0.00138265,445.684,-0.734509,-1.25597,-0.0246795,0.163557,-0.137354,0.332947,-0.000531286,-0.00092954,0.26057,-0.024377451047471355,0.39507335762243456,-0.000531144892583657,0.17769248174575658,-0.000929108111523802,-0.12833839669847735
606,0.5966,253.87,782.756,0.00137071,445.791,-0.735066,-1.25693,-0.0247174,0.163799,-0.137559,0.333439,-0.00053225,-0.0009312,0.260962,-0.02441442644138847,0.3957599025905978,-0.0005321083800955417,0.17797751781431215,-0.0009307665678277566,-0.12851706901261628
607,0.5976,253.929,782.949,0.00135876,445.897,-0.735622,-1.2579,-0.0247552,0.164041,-0.137763,0.333931,-0.000533213,-0.000932859,0.261353,-0.024451302879099912,0.3964467854219931,-0.0005330708672117712,0.17826262286994354,-0.0009324240223111957,-0.12869483339795385
608,0.5986,253.988,783.143,0.0013468,446.004,-0.73618,-1.25886,-0.0247931,0.164283,-0.137967,0.334423,-0.000534177,-0.000934519,0.261744,-0.02448827547408572,0.3971340062828901,-0.0005340343528670299,0.17854779692934764,-0.0009340824731107755,-0.1288725615230556
609,0.5996,254.046,783.335,0.00133484,446.11,-0.736738,-1.25983,-0.0248309,0.164525,-0.138172,0.334915,-0.000535141,-0.00093618,0.262135,-0.024525149120356526,0.39782156533963975,-0.0005349978375935871,0.17883304000922506,-0.0009357419202216111,-0.12905112434462884
610,0.6006,254.105,783.528,0.00132287,446.217,-0.737296,-1.26079,-0.0248687,0.164766,-0.138376,0.335406,-0.000536105,-0.00093784,0.262525,-0.024562021372829812,0.39850806424991214,-0.0005359613213912207,0.1791171730085186,-0.0009374003655135965,-0.12922877979379055
611,0.6016,254.163,783.72,0.0013109,446.323,-0.737855,-1.26176,-0.0249065,0.165008,-0.13858,0.335898,-0.000537069,-0.000939501,0.262916,-0.02459889223155831,0.39919629950951374,-0.0005369248042601527,0.17940255389408089,-0.000939059807113396,-0.1294063990049371
612,0.6026,254.222,783.912,0.00129892,446.429,-0.738415,-1.26273,-0.0249443,0.165249,-0.138784,0.336389,-0.000538034,-0.000941163,0.263306,-0.02463576169659465,0.39988347358000187,-0.0005378892856623407,0.17968682416276094,-0.0009407202450161245,-0.12958398198546028
613,0.6036,254.28,784.103,0.00128693,446.534,-0.738975,-1.2637,-0.0249821,0.165491,-0.138988,0.33688,-0.000538998,-0.000942824,0.263697,-0.02467262976799156,0.4005709851358046,-0.0005388527666726484,0.17997234292058462,-0.0009423796811016683,-0.12976152874275027
614,0.6046,254.338,784.295,0.00127493,446.64,-0.739536,-1.26467,-0.0250199,0.165732,-0.139192,0.337371,-0.000539963,-0.000944486,0.264087,-0.024709496445801782,0.4012588343426675,-0.0005398172462143247,0.18025675052496815,-0.0009440401134868104,-0.12993903928419592
615,0.6056,254.396,784.485,0.00126293,446.745,-0.740097,-1.26564,-0.0250576,0.165973,-0.139395,0.337861,-0.000540928,-0.000946148,0.264477,-0.024746264204709156,0.4019456194200979,-0.0005407817248254121,0.1805412266798445,-0.0009457005431122711,-0.13011564373326312
616,0.6066,254.455,784.676,0.00125092,446.851,-0.740659,-1.26661,-0.0250954,0.166214,-0.139599,0.338352,-0.000541894,-0.00094781,0.264866,-0.024783128099190144,0.4026341437381207,-0.0005417472019638714,0.18082577140173606,-0.0009473609699781615,-0.1302930820426187
617,0.6076,254.512,784.866,0.00123891,446.956,-0.741222,-1.26759,-0.0251331,0.166455,-0.139803,0.338842,-0.000542859,-0.000949473,0.265256,-0.024819893082236533,0.4033216028822879,-0.0005427116787124486,0.18111038470716978,-0.0009490223931354347,-0.1304704841582509
618,0.6086,254.57,785.056,0.00122689,447.061,-0.741785,-1.26856,-0.0251708,0.166696,-0.140006,0.339332,-0.000543825,-0.000951136,0.265646,-0.024856656679269173,0.4040093989639786,-0.0005436771539867324,0.1813950666126758,-0.0009506838135296958,-0.13064698073495817
619,0.6096,254.628,785.246,0.00121486,447.165,-0.742348,-1.26954,-0.0252085,0.166937,-0.14021,0.339822,-0.000544791,-0.0009528,0.266035,-0.024893418890340357,0.4046975321483326,-0.0005446426283282069,0.1816798171347891,-0.0009523462302086783,-0.13082431066262057
620,0.6106,254.686,785.436,0.00120282,447.27,-0.742912,-1.27051,-0.0252462,0.167177,-0.140413,0.340312,-0.000545757,-0.000954463,0.266424,-0.024930179715502265,0.4053860026005711,-0.000545608101737094,0.18196345432600292,-0.000954007645075472,-0.13100073541983737
621,0.6116,254.743,785.625,0.00119078,447.374,-0.743477,-1.27149,-0.0252839,0.167418,-0.140617,0.340801,-0.000546723,-0.000956127,0.266813,-0.02496693915480719,0.4060734044118879,-0.0005465735742133937,0.18224834184606298,-0.0009556700562236564,-0.13117799318890455
622,0.6126,254.801,785.814,0.00117873,447.479,-0.744042,-1.27247,-0.0253215,0.167658,-0.14082,0.34129,-0.000547689,-0.000957791,0.267202,-0.025003599708672275,0.40676114244489003,-0.0005475390457569951,0.18253211549958226,-0.0009573324646054981,-0.1313543461558555
623,0.6136,254.858,786.002,0.00116667,447.583,-0.744608,-1.27345,-0.0253592,0.167899,-0.141023,0.34178,-0.000548656,-0.000959456,0.267591,-0.025040356380095607,0.4074506243139504,-0.0005485055158194196,0.18281714008350036,-0.0009589958692621803,-0.13153066332678753
624,0.6146,254.915,786.19,0.00115461,447.687,-0.745175,-1.27443,-0.0253968,0.168139,-0.141226,0.342268,-0.000549623,-0.000961121,0.26798,-0.025077014173524925,0.40813762783384067,-0.0005494719849473695,0.18310105026497947,-0.0009606592711493,-0.1317069447089665
625,0.6156,254.973,786.378,0.00114254,447.79,-0.745742,-1.27541,-0.0254345,0.16838,-0.141429,0.342757,-0.00055059,-0.000962786,0.268368,-0.025113768077275167,0.4088263755189361,-0.0005504384531406226,0.18338621197869975,-0.0009623226702668575,-0.1318831903096569
626,0.6166,255.03,786.566,0.00113046,447.894,-0.74631,-1.27639,-0.0254721,0.16862,-0.141632,0.343246,-0.000551557,-0.000964452,0.268756,-0.02515042311047655,0.40951546008400963,-0.0005514049203994009,0.18367025875382414,-0.0009639870656508176,-0.1320594001361215
627,0.6176,255.087,786.753,0.00111837,447.997,-0.746878,-1.27737,-0.0255097,0.16886,-0.141835,0.343734,-0.000552525,-0.000966118,0.269145,-0.025187076765474492,0.41020347148965985,-0.0005523723861711183,0.18395437370835577,-0.0009656514582618847,-0.13223557419562182
628,0.6186,255.144,786.94,0.00110628,448.101,-0.747447,-1.27836,-0.0255473,0.1691,-0.142038,0.344222,-0.000553493,-0.000967784,0.269533,-0.025223729042320953,0.41089181872681224,-0.0005533398510063625,0.18423855685865975,-0.0009673158481001698,-0.13241171249541783
629,0.6196,255.2,787.127,0.00109417,448.204,-0.748016,-1.27934,-0.0255848,0.16934,-0.14224,0.34471,-0.00055446,-0.000969451,0.26992,-0.02526028246710088,0.41158050195939255,-0.0005543063154594963,0.184522808221105,-0.0009689812341965309,-0.13258694763014933
630,0.6206,255.257,787.314,0.00108206,448.307,-0.748586,-1.28033,-0.0256224,0.169579,-0.142443,0.345198,-0.000555429,-0.000971117,0.270308,-0.025296931991464766,0.4122695213514065,-0.0005552747778674316,0.18480594300552888,-0.0009706456184873646,-0.13276301460837747
631,0.6216,255.314,787.5,0.00106995,448.409,-0.749157,-1.28131,-0.0256599,0.169819,-0.142645,0.345686,-0.000556397,-0.000972785,0.270696,-0.025333482671185625,0.4129588770669401,-0.0005562422398932565,0.1850903305569913,-0.0009723119980606931,-0.1329381787872489
632,0.6226,255.37,787.686,0.00105782,448.512,-0.749728,-1.2823,-0.0256975,0.170059,-0.142848,0.346173,-0.000557365,-0.000974452,0.271083,-0.025370129443273548,0.4136471556222967,-0.0005572097009824972,0.1853747863696571,-0.0009739773758284942,-0.13311417447278862
633,0.6236,255.427,787.871,0.00104569,448.614,-0.7503,-1.28329,-0.025735,0.170298,-0.14305,0.34666,-0.000558334,-0.00097612,0.271471,-0.025406677378141285,0.4143357694509422,-0.0005581781605770164,0.18565812480119326,-0.0009756437498444903,-0.1332892677245313
634,0.6246,255.483,788.057,0.00103355,448.717,-0.750872,-1.28428,-0.0257725,0.170538,-0.143253,0.347147,-0.000559303,-0.000977788,0.271858,-0.025443223942487325,0.4150247187161944,-0.0005591466192331751,0.18594271690083142,-0.000977310121080932,-0.1334651921462503
635,0.6256,255.54,788.242,0.0010214,448.819,-0.751445,-1.28527,-0.02581,0.170777,-0.143455,0.347634,-0.000560272,-0.000979457,0.272245,-0.02547976913636274,0.41571400358145083,-0.0005601150769508623,0.18622619108398641,-0.0009789774885590186,-0.13364021449958385
636,0.6266,255.596,788.426,0.00100925,448.921,-0.752019,-1.28627,-0.0258475,0.171016,-0.143657,0.348121,-0.000561242,-0.000981126,0.272632,-0.025516312959819154,0.4164036242101885,-0.0005610845331690539,0.18650973302556761,-0.000980644853254109,-0.13381520150197268
637,0.6276,255.652,788.611,0.000997085,449.022,-0.752593,-1.28726,-0.025885,0.171255,-0.143859,0.348607,-0.000562211,-0.000982795,0.273018,-0.02555285541290786,0.41709216367309154,-0.0005620529890090209,0.18679334274177184,-0.0009823122151664254,-0.13399015316055696
638,0.6286,255.708,788.795,0.000984913,449.124,-0.753168,-1.28825,-0.0259224,0.171494,-0.144061,0.349094,-0.000563181,-0.000984464,0.273405,-0.025589299054615156,0.41778245562924865,-0.0005630224433473829,0.18707702024879902,-0.0009839795742959678,-0.1341650694824752
639,0.6296,255.764,788.979,0.000972734,449.226,-0.753744,-1.28925,-0.0259599,0.171733,-0.144263,0.34958,-0.000564151,-0.000986134,0.273791,-0.02562583877077662,0.418471665367085,-0.0005639918967453861,0.18736076556285286,-0.000985647929656941,-0.1343399504748648
640,0.6306,255.82,789.163,0.000960546,449.327,-0.75432,-1.29025,-0.0259973,0.171972,-0.144465,0.350066,-0.000565122,-0.000987804,0.274178,-0.025662279682957312,0.4191612101422615,-0.0005649623486381206,0.18764457870014128,-0.0009873162822318093,-0.13451479614486173
641,0.6316,255.875,789.346,0.00094835,449.428,-0.754897,-1.29124,-0.0260347,0.172211,-0.144667,0.350551,-0.000566092,-0.000989475,0.274564,-0.025698719232273293,0.4198496702672656,-0.0005659318001545177,0.187928459676876,-0.0009889856310316691,-0.13468960649960016
642,0.6326,255.931,789.529,0.000936146,449.529,-0.755474,-1.29224,-0.0260722,0.17245,-0.144868,0.351037,-0.000567063,-0.000991146,0.27495,-0.025735254845255073,0.42053988491558947,-0.0005669022501635368,0.18821240850927268,-0.0009906549770418716,-0.13486351641016225
643,0.6336,255.987,789.712,0.000923934,449.63,-0.756052,-1.29324,-0.0261096,0.172689,-0.14507,0.351522,-0.000568034,-0.000992817,0.275336,-0.025771691665351093,0.4212290138600343,-0.0005678726992303096,0.1884964252135506,-0.0009923243202626386,-0.13503825633052124
644,0.6346,256.042,789.894,0.000911713,449.731,-0.756631,-1.29424,-0.0261469,0.172927,-0.145272,0.352008,-0.000569005,-0.000994489,0.275721,-0.025808029703543345,0.42191989903226834,-0.0005688431473547251,0.1887793210260178,-0.0009939946597000704,-0.1352129609569812
645,0.6356,256.097,790.077,0.000899484,449.831,-0.75721,-1.29525,-0.0261843,0.173166,-0.145473,0.352493,-0.000569976,-0.000996161,0.276107,-0.025844463801910522,0.42260969744589283,-0.0005698135945368943,0.18906347323857964,-0.000995664996344514,-0.13538676568386865
646,0.6366,256.153,790.259,0.000887247,449.932,-0.75779,-1.29625,-0.0262217,0.173404,-0.145674,0.352977,-0.000570948,-0.000997833,0.276492,-0.025880896537667897,0.4232984071937711,-0.0005707850402060233,0.18934650402453812,-0.0009973353301963028,-0.13556053547951663
647,0.6376,256.208,790.44,0.000875001,450.032,-0.758371,-1.29725,-0.026259,0.173642,-0.145876,0.353462,-0.00057192,-0.000999506,0.276877,-0.025917230502594424,0.42398887434600985,-0.0005717564849307966,0.18962960217984004,-0.0009990066602562075,-0.1357351346162433
648,0.6386,256.263,790.622,0.000862747,450.132,-0.758952,-1.29826,-0.0262964,0.17388,-0.146077,0.353946,-0.000572892,-0.00100118,0.277263,-0.025953660516928156,0.4246782517770742,-0.0005727279287113252,0.18991276772052168,-0.0010006789865193433,-0.1359088343967727
649,0.6396,256.318,790.803,0.000850484,450.232,-0.759534,-1.29926,-0.0263337,0.174118,-0.146278,0.354431,-0.000573864,-0.00100285,0.277648,-0.025989991767808807,0.42536938831624904,-0.0005736993715477201,0.1901960006626222,-0.0010023473139922912,-0.13608249926715477
650,0.6406,256.373,790.984,0.000838212,450.332,-0.760116,-1.30027,-0.026371,0.174356,-0.146479,0.354915,-0.000574836,-0.00100453,0.278032,-0.026026321663559115,0.42605943407779767,-0.0005746708134397593,0.19047930102218547,-0.0010040256286391047,-0.13625612923440578
651,0.6416,256.428,791.164,0.000825932,450.431,-0.7607,-1.30128,-0.0264083,0.174594,-0.14668,0.355399,-0.000575809,-0.0010062,0.278417,-0.026062650204229487,0.4267498139023318,-0.000575643253811986,0.19076266881525838,-0.0010056939505231899,-0.13642972430554057
652,0.6426,256.483,791.344,0.000813643,450.531,-0.761283,-1.30229,-0.0264456,0.174832,-0.146881,0.355882,-0.000576782,-0.00100787,0.278802,-0.02609897738987066,0.4274391005117626,-0.0005766156932379696,0.19104610405789257,-0.0010073622696212814,-0.13660328448757253
653,0.6436,256.538,791.524,0.000801345,450.63,-0.761868,-1.3033,-0.0264828,0.17507,-0.147082,0.356366,-0.000577755,-0.00100955,0.279186,-0.026135205834058595,0.42813014825647433,-0.0005775881317178211,0.1913296067661423,-0.0010090405758429455,-0.13677680978751372
654,0.6446,256.592,791.704,0.000789038,450.729,-0.762453,-1.30431,-0.0265201,0.175308,-0.147283,0.356849,-0.000578729,-0.00101122,0.27957,-0.02617153031342523,0.42882010172843255,-0.000578561568672975,0.19161317695606672,-0.0010107088893520633,-0.13695030021237464
655,0.6456,256.647,791.884,0.000776722,450.828,-0.763039,-1.30533,-0.0265574,0.175545,-0.147484,0.357332,-0.000579702,-0.0010129,0.279954,-0.026207853437913986,0.4295103885284097,-0.0005795340052594522,0.1918956227475095,-0.001012387189951336,-0.13712375576916447
656,0.6466,256.701,792.063,0.000764398,450.927,-0.763625,-1.30634,-0.0265946,0.175783,-0.147684,0.357815,-0.000580676,-0.00101458,0.280338,-0.026244077831988233,0.4302010088174426,-0.0005805074403192334,0.19217932766526946,-0.0010140654877310862,-0.1372963137616362
657,0.6476,256.756,792.242,0.000752064,451.026,-0.764212,-1.30736,-0.0266318,0.17602,-0.147885,0.358298,-0.00058165,-0.00101625,0.280722,-0.026280300878540053,0.4308919627566452,-0.0005814808744309952,0.19246190765033178,-0.0010157337928486943,-0.13746969977669188
658,0.6486,256.81,792.421,0.000739721,451.124,-0.7648,-1.30837,-0.026669,0.176257,-0.148085,0.358781,-0.000582625,-0.00101793,0.281106,-0.026316522577619517,0.43158325050720925,-0.0005824553070120642,0.192744554614787,-0.001017412085006164,-0.1376421885872805
659,0.6496,256.864,792.599,0.00072737,451.223,-0.765388,-1.30939,-0.0267062,0.176494,-0.148286,0.359263,-0.000583599,-0.00101961,0.281489,-0.026352742929276918,0.4322734399562487,-0.0005834287392265658,0.1930272685745118,-0.0010190903743441115,-0.13781550508848261
660,0.6506,256.918,792.777,0.000715009,451.321,-0.765978,-1.31041,-0.0267434,0.176732,-0.148486,0.359745,-0.000584574,-0.00102128,0.281873,-0.026388961933562327,0.4329639621567891,-0.0005844031699084873,0.19331124285603152,-0.00102075867107021,-0.1379879247449245
661,0.6516,256.972,792.955,0.000702638,451.419,-0.766567,-1.31143,-0.0267806,0.176969,-0.148686,0.360227,-0.000585549,-0.00102296,0.282256,-0.026425179590525816,0.4336548172692556,-0.0005853775996403909,0.19359409113678572,-0.001022436954785877,-0.13816030992088335
662,0.6526,257.026,793.133,0.000690259,451.517,-0.767158,-1.31245,-0.0268177,0.177206,-0.148887,0.360709,-0.000586525,-0.00102464,0.282639,-0.026461298546352263,0.43434600545415036,-0.0005863530278358287,0.19387700646052664,-0.0010241152356820216,-0.13833352229016294
663,0.6536,257.08,793.31,0.00067787,451.615,-0.767749,-1.31347,-0.0268549,0.177442,-0.149087,0.361191,-0.0005875,-0.00102632,0.283022,-0.026497513512443782,0.43503752687205277,-0.0005873274556665864,0.19415879468375397,-0.0010257935137586438,-0.13850583835352415
664,0.6546,257.134,793.487,0.000665471,451.712,-0.768341,-1.3145,-0.026892,0.177679,-0.149287,0.361673,-0.000588476,-0.001028,0.283405,-0.026533629784731505,0.4357293816836203,-0.0005883028819589908,0.19444184385809615,-0.0010274717890158547,-0.13867811995711887
665,0.6556,257.188,793.664,0.000653064,451.81,-0.768933,-1.31552,-0.0269291,0.177916,-0.149487,0.362154,-0.000589452,-0.00102968,0.283787,-0.02656974471713025,0.436420133628735,-0.000589278307299379,0.19472496012304275,-0.0010291500614534321,-0.13885036710783816
666,0.6566,257.241,793.841,0.000640646,451.907,-0.769526,-1.31655,-0.0269662,0.178152,-0.149687,0.362635,-0.000590428,-0.00103136,0.28417,-0.026605858309689978,0.4371112179054548,-0.000590253731687751,0.19500694848694988,-0.0010308283310715982,-0.13902257981257204
667,0.6576,257.295,794.017,0.00062822,452.005,-0.77012,-1.31757,-0.0270033,0.178389,-0.149886,0.363116,-0.000591405,-0.00103304,0.284552,-0.026641970562460315,0.43780263467366964,-0.0005912301545328846,0.19529019869756548,-0.001032506597870242,-0.13919389727253673
668,0.6586,257.348,794.193,0.000615783,452.102,-0.770715,-1.3186,-0.0270404,0.178625,-0.150086,0.363597,-0.000592381,-0.00103472,0.284935,-0.02667808147549089,0.4384943840933462,-0.0005922055770162249,0.19557232047351825,-0.0010341848618494742,-0.13936604127810792
669,0.6596,257.402,794.369,0.000603337,452.199,-0.77131,-1.31963,-0.0270775,0.178862,-0.150286,0.364077,-0.000593358,-0.0010364,0.285317,-0.026714191048831326,0.4391850271387814,-0.0005931819979543285,0.19585570469317415,-0.0010358631230090731,-0.13953815085832055
670,0.6606,257.455,794.544,0.000590881,452.295,-0.771906,-1.32066,-0.0271146,0.179098,-0.150485,0.364558,-0.000594336,-0.00103808,0.285699,-0.026750299282531587,0.4398774416491751,-0.0005941594173444198,0.19613795994429117,-0.0010375413813493717,-0.13970936572985504
671,0.6616,257.508,794.72,0.000578415,452.392,-0.772503,-1.32169,-0.0271516,0.179334,-0.150685,0.365038,-0.000595313,-0.00103976,0.286081,-0.026786308855276886,0.440568748721591,-0.0005951358363737169,0.19642028181550852,-0.0010392196368700368,-0.1398814066520434
672,0.6626,257.561,794.895,0.00056594,452.488,-0.7731,-1.32273,-0.0271886,0.17957,-0.150884,0.365518,-0.000596291,-0.00104144,0.286462,-0.026822317095692716,0.441260387701053,-0.0005961132538528924,0.1967026703225503,-0.0010408978895714016,-0.140052553222471
673,0.6636,257.614,795.069,0.000553454,452.585,-0.773698,-1.32376,-0.0272257,0.179806,-0.151084,0.365998,-0.000597269,-0.00104313,0.286844,-0.026858421317990988,0.44195235874691474,-0.0005970906703761658,0.1969851254811441,-0.0010425861290274119,-0.1402245255140241
674,0.6646,257.667,795.244,0.000540959,452.681,-0.774297,-1.3248,-0.0272627,0.180042,-0.151283,0.366478,-0.000598247,-0.00104481,0.287225,-0.026894426890295087,0.4426446620186062,-0.0005980680859435372,0.19726764730702184,-0.0010442643760729675,-0.1403956038105918
675,0.6656,257.72,795.418,0.000528454,452.777,-0.774896,-1.32583,-0.0272997,0.180278,-0.151482,0.366957,-0.000599226,-0.00104649,0.287606,-0.026930431130417598,0.4433358543390582,-0.000599046499955902,0.19755023581591868,-0.0010459426202991118,-0.14056664806596564
676,0.6666,257.773,795.592,0.000515938,452.873,-0.775496,-1.32687,-0.0273367,0.180513,-0.151681,0.367436,-0.000600204,-0.00104818,0.287987,-0.026966434038407816,0.4440273778199382,-0.0006000239136104701,0.1978316931912818,-0.0010476308512294974,-0.1407376582869191
677,0.6676,257.826,795.766,0.000503413,452.969,-0.776097,-1.32791,-0.0273736,0.180749,-0.151881,0.367916,-0.000601183,-0.00104986,0.288368,-0.027002338314553898,0.4447206773398653,-0.0006010023257081443,0.19811441483071612,-0.0010493090897999435,-0.14090949357116056
678,0.6686,257.879,795.939,0.000490877,453.065,-0.776699,-1.32895,-0.0274106,0.180985,-0.15208,0.368394,-0.000602163,-0.00105154,0.288749,-0.02703833856202753,0.4454114188977141,-0.0006019817362460378,0.19839720320033138,-0.0010509873255509783,-0.1410804355726466
679,0.6696,257.931,796.113,0.000478331,453.16,-0.777301,-1.32999,-0.0274475,0.18122,-0.152278,0.368873,-0.000603142,-0.00105323,0.28913,-0.02707424018494553,0.44610393681216554,-0.0006029601464269119,0.1986788596364184,-0.0010526755479558503,-0.14125048481097302
680,0.6706,257.984,796.286,0.000465775,453.255,-0.777904,-1.33103,-0.0274845,0.181455,-0.152477,0.369352,-0.000604122,-0.00105492,0.28951,-0.02711023777209931,0.44679678652215693,-0.000603939555046118,0.19896058226954594,-0.0010543637675075601,-0.14142135896195374
681,0.6716,258.036,796.458,0.000453208,453.351,-0.778508,-1.33208,-0.0275214,0.181691,-0.152676,0.36983,-0.000605102,-0.0010566,0.289891,-0.027146136741985405,0.4474885206974115,-0.0006049189627054252,0.19924357035824247,-0.001056041994766721,-0.14159219911236165
682,0.6726,258.088,796.631,0.000440631,453.446,-0.779112,-1.33312,-0.0275583,0.181926,-0.152875,0.370309,-0.000606082,-0.00105829,0.290271,-0.027182034387223997,0.4481820337819493,-0.0006058983694049447,0.1995254257139838,-0.001057730208629204,-0.14176300526896202
683,0.6736,258.141,796.803,0.000428044,453.541,-0.779717,-1.33417,-0.0275952,0.182161,-0.153073,0.370787,-0.000607063,-0.00105997,0.290651,-0.027217930707863935,0.4488744302636727,-0.0006068787745376891,0.19980734731351713,-0.0010594084302327778,-0.14193291937186736
684,0.6746,258.193,796.975,0.000415446,453.635,-0.780323,-1.33522,-0.0276321,0.182396,-0.153272,0.371264,-0.000608044,-0.00106166,0.291031,-0.02725382570395407,0.44956570822359465,-0.0006078591787087584,0.20008933517241156,-0.0010610966384060339,-0.14210365773188216
685,0.6756,258.245,797.147,0.000402837,453.73,-0.78093,-1.33626,-0.027669,0.182631,-0.15347,0.371742,-0.000609025,-0.00106335,0.291411,-0.027289719375543253,0.4502587662598003,-0.0006088395819180414,0.20037138930623977,-0.0010627848437261278,-0.14227350439227693
686,0.6766,258.297,797.318,0.000390218,453.825,-0.781537,-1.33731,-0.0277058,0.182866,-0.153669,0.37222,-0.000610006,-0.00106504,0.291791,-0.027325514455236677,0.450952155656936,-0.0006098199841655383,0.20065350973057816,-0.0010644730461931706,-0.14244417498261597
687,0.6776,258.349,797.49,0.000377588,453.919,-0.782145,-1.33837,-0.0277427,0.183101,-0.153867,0.372697,-0.000610987,-0.00106672,0.29217,-0.027361405481559853,0.4516444249282796,-0.0006108003854512489,0.20093569646100717,-0.0010661512564688058,-0.14261395422726952
688,0.6786,258.401,797.66,0.000364948,454.013,-0.782754,-1.33942,-0.0277795,0.183335,-0.154066,0.373174,-0.000611969,-0.00106841,0.29255,-0.027397197923253125,0.4523370244908338,-0.0006117817851634122,0.2012167482957612,-0.0010678394532466218,-0.14278455707483195
689,0.6796,258.453,797.831,0.000352296,454.107,-0.783363,-1.34047,-0.0278164,0.18357,-0.154264,0.373651,-0.000612951,-0.0010701,0.292929,-0.027433086304505028,0.4530299545021852,-0.0006127631839117909,0.20149906740280654,-0.0010695276471714976,-0.142954268930503
690,0.6806,258.504,798.002,0.000339634,454.201,-0.783974,-1.34153,-0.0278532,0.183804,-0.154462,0.374128,-0.000613934,-0.00107179,0.293308,-0.02746887610839266,0.45372321511999547,-0.0006137455810827364,0.2017802510817861,-0.0010712158382432113,-0.14312394718655297
691,0.6816,258.556,798.172,0.000326961,454.295,-0.784585,-1.34258,-0.02789,0.184039,-0.15466,0.374605,-0.000614916,-0.00107348,0.293687,-0.027504664595239592,0.45441680650200134,-0.0006147269779026576,0.20206270262754722,-0.0010729040264618739,-0.1432935918496342
692,0.6826,258.608,798.342,0.000314277,454.389,-0.785196,-1.34364,-0.0279268,0.184273,-0.154858,0.375081,-0.000615899,-0.00107517,0.294066,-0.027540451765094565,0.4551092736960136,-0.0006157093731432584,0.20234401821260173,-0.0010745922118275963,-0.14346320292639725
693,0.6836,258.659,798.512,0.000301582,454.483,-0.785809,-1.3447,-0.0279635,0.184507,-0.155056,0.375557,-0.000616883,-0.00107686,0.294445,-0.027576140375624725,0.4558020705828709,-0.0006166927668014299,0.20262539963320592,-0.0010762803943402677,-0.1436327804234916
694,0.6846,258.711,798.681,0.000288876,454.576,-0.786422,-1.34576,-0.0280003,0.184741,-0.155254,0.376033,-0.000617866,-0.00107855,0.294823,-0.027611924915219355,0.4564951973195448,-0.0006176751601095765,0.20290684690476657,-0.0010779685739998879,-0.14380232434756535
695,0.6856,258.762,798.851,0.000276159,454.669,-0.787036,-1.34682,-0.0280371,0.184975,-0.155451,0.376509,-0.00061885,-0.00108025,0.295202,-0.02764770813796713,0.4571886540630803,-0.0006186585518334065,0.20318836004269492,-0.0010796667400098103,-0.14397097867667208
696,0.6866,258.813,799.02,0.000263431,454.763,-0.787651,-1.34789,-0.0280738,0.185209,-0.155649,0.376985,-0.000619834,-0.00108194,0.29558,-0.027683392812260732,0.4578824409705988,-0.000619641942589455,0.2034699390624053,-0.001081354913946564,-0.1441404556441206
697,0.6876,258.865,799.189,0.000250691,454.856,-0.788266,-1.34895,-0.0281105,0.185443,-0.155847,0.377461,-0.000620818,-0.00108363,0.295958,-0.027719076176950797,0.4585765581992953,-0.0006206253323780553,0.20375158397931603,-0.0010830430850302664,-0.14430989905845149
698,0.6886,258.916,799.357,0.00023794,454.948,-0.788882,-1.35001,-0.0281472,0.185677,-0.156044,0.377936,-0.000621802,-0.00108532,0.296336,-0.027754758232085397,0.45926954663616404,-0.0006216087211988741,0.2040332948088488,-0.0010847312532609177,-0.14447845340518872
699,0.6896,258.967,799.525,0.000225178,455.041,-0.789499,-1.35108,-0.0281839,0.185911,-0.156242,0.378411,-0.000622787,-0.00108702,0.296714,-0.027790438977712606,0.4599628643207305,-0.0006225931084294922,0.20431507156642903,-0.0010864294077743697,-0.14464782990258784
700,0.6906,259.018,799.694,0.000212405,455.134,-0.790117,-1.35215,-0.0282206,0.186144,-0.156439,0.378886,-0.000623772,-0.00108871,0.297092,-0.027826118413880385,0.46065651140942454,-0.0006235774946904415,0.20459570967117346,-0.0010881175702821544,-0.14481631768350578
701,0.6916,259.069,799.861,0.00019962,455.226,-0.790736,-1.35322,-0.0282573,0.186378,-0.156636,0.379361,-0.000624758,-0.00109041,0.297469,-0.02786179654063703,0.46135048805875,-0.0006245628793571933,0.20487761804923044,-0.001089815719038878,-0.14498477227560003
702,0.6926,259.12,800.029,0.000186823,455.319,-0.791355,-1.35429,-0.028294,0.186611,-0.156834,0.379836,-0.000625743,-0.0010921,0.297847,-0.02789747335803039,0.46204479442528545,-0.0006255472636780279,0.20515838724257662,-0.001091503875823796,-0.14515404853178704
703,0.6936,259.17,800.196,0.000174015,455.411,-0.791975,-1.35536,-0.0283306,0.186845,-0.157031,0.38031,-0.000626729,-0.0010938,0.298224,-0.027933051659418617,0.46273796792698474,-0.0006265326464025556,0.2054404273025916,-0.0010932020188237912,-0.14532243659745725
704,0.6946,259.221,800.364,0.000161195,455.503,-0.792596,-1.35643,-0.0283673,0.187078,-0.157228,0.380785,-0.000627715,-0.00109549,0.298601,-0.027968725861796995,0.4634329335030074,-0.0006275180281556381,0.2057213276457721,-0.0010948901698859537,-0.14549079149394573
705,0.6956,259.272,800.53,0.000148364,455.595,-0.793217,-1.35751,-0.0284039,0.187311,-0.157425,0.381259,-0.000628702,-0.00109719,0.298978,-0.028004301555391353,0.46412676513859497,-0.0006285044083085278,0.20600229344635834,-0.0010965883071292204,-0.14565911322778624
706,0.6966,259.322,800.697,0.000135521,455.687,-0.79384,-1.35858,-0.0284405,0.187544,-0.157622,0.381733,-0.000629689,-0.00109888,0.299355,-0.02803987594693913,0.46482092572833356,-0.000629490787487863,0.2062833247196032,-0.0010982764524685162,-0.14582740180551124
707,0.6976,259.373,800.864,0.000122666,455.779,-0.794463,-1.35966,-0.0284771,0.187778,-0.157819,0.382206,-0.000630676,-0.00110058,0.299732,-0.028075449036487954,0.46551394991350215,-0.0006304771656937547,0.2065656280457886,-0.0010999745839550545,-0.1459956572336517
708,0.6986,259.423,801.03,0.000109799,455.87,-0.795087,-1.36074,-0.0285137,0.18801,-0.158015,0.38268,-0.000631663,-0.00110228,0.300108,-0.028111020824085453,0.4662087681846825,-0.0006314635429259807,0.20684558374510065,-0.001101672712554902,-0.1461630256821902
709,0.6996,259.473,801.196,9.69202e-05,455.962,-0.795711,-1.36182,-0.0285503,0.188243,-0.158212,0.383153,-0.000632651,-0.00110398,0.300485,-0.02814659130977948,0.4669024489746074,-0.0006324509185522409,0.2071268115278777,-0.0011033708382678364,-0.14633121499893909
710,0.7006,259.524,801.362,8.40296e-05,456.053,-0.796337,-1.3629,-0.0285869,0.188476,-0.158409,0.383627,-0.000633638,-0.00110568,0.300861,-0.028182160493617547,0.4675979255503484,-0.0006334372938363586,0.20740810484436256,-0.00110506896109408,-0.14649937118565615
711,0.7016,259.574,801.527,7.11269e-05,456.144,-0.796963,-1.36398,-0.0286234,0.188709,-0.158605,0.3841,-0.000634627,-0.00110737,0.301237,-0.02821763119741516,0.4682922635671294,-0.0006344256668782133,0.2076894637098261,-0.0011067570921010628,-0.14666664091593473
712,0.7026,259.624,801.692,5.82122e-05,456.235,-0.79759,-1.36507,-0.02866,0.188941,-0.158802,0.384573,-0.000635615,-0.00110907,0.301614,-0.028253197781240913,0.46898693008347636,-0.0006354130395778146,0.2079696801692592,-0.001108455209170578,-0.14683473103025435
713,0.7036,259.674,801.857,4.52854e-05,456.326,-0.798218,-1.36615,-0.0286965,0.189174,-0.158998,0.385045,-0.000636604,-0.00111077,0.301989,-0.028288665892224896,0.46968045557361604,-0.0006364014106655658,0.20825116989701842,-0.0011101533233532912,-0.14700193503644454
714,0.7046,259.724,802.022,3.23464e-05,456.417,-0.798847,-1.36724,-0.028733,0.189406,-0.159195,0.385518,-0.000637593,-0.00111247,0.302365,-0.028324132708646532,0.47037577886009596,-0.0006373897807758766,0.20853151668740488,-0.0011118514346493136,-0.14716995910432829
715,0.7056,259.774,802.187,1.93951e-05,456.508,-0.799476,-1.36833,-0.0287695,0.189639,-0.159391,0.38599,-0.000638582,-0.00111418,0.302741,-0.028359598230553007,0.4710699600415891,-0.0006383781499086361,0.20881313733832485,-0.0011135595319229363,-0.14733709741225465
716,0.7066,259.824,802.351,6.4315e-06,456.598,-0.800106,-1.36942,-0.028806,0.189871,-0.159587,0.386463,-0.000639572,-0.00111588,0.303116,-0.028395062457991505,0.471765940719143,-0.0006393675174245494,0.2090936145202824,-0.0011152576374282575,-0.1475042029642828
717,0.7076,259.874,802.515,-6.54442e-06,456.689,-0.800737,-1.37051,-0.0288425,0.190103,-0.159784,0.386935,-0.000640562,-0.00111758,0.303492,-0.02843052539100932,0.4724607782119108,-0.0006403568839609131,0.20937415678049498,-0.0011169557400468877,-0.1476721280951303
718,0.7086,259.923,802.679,-1.95328e-05,456.779,-0.801369,-1.3716,-0.028879,0.190335,-0.15998,0.387406,-0.000641552,-0.00111928,0.303867,-0.02846598702965364,0.47315447059017957,-0.0006413462495178379,0.20965476413406225,-0.001118653839778827,-0.14783916798757946
719,0.7096,259.973,802.843,-3.25336e-05,456.869,-0.802002,-1.37269,-0.0289155,0.190567,-0.160176,0.387878,-0.000642542,-0.00112098,0.304242,-0.028501447373971867,0.4738499636237421,-0.000642335614095324,0.20993543659608815,-0.0011203519366238535,-0.14800617514341796
720,0.7106,260.022,803.006,-4.55469e-05,456.959,-0.802635,-1.37379,-0.0289519,0.190799,-0.160372,0.38835,-0.000643533,-0.00112269,0.304617,-0.028536809277696862,0.4745457850075008,-0.0006433259770500799,0.21021617418167926,-0.0011220600193616592,-0.14817314956906158
721,0.7116,260.072,803.17,-5.85728e-05,457.049,-0.803269,-1.37489,-0.0289883,0.191031,-0.160567,0.388821,-0.000644524,-0.00112439,0.304992,-0.028572169894272026,0.4752404596552766,-0.0006443163390232876,0.21049697690594593,-0.0011237581104162064,-0.14833923961059026
722,0.7126,260.121,803.333,-7.16114e-05,457.139,-0.803904,-1.37598,-0.0290248,0.191263,-0.160763,0.389292,-0.000645516,-0.00112609,0.305367,-0.028607626362986416,0.4759354615718774,-0.0006453076993697682,0.21077784478400208,-0.0011254561985840628,-0.14850614876199542
723,0.7136,260.171,803.495,-8.46626e-05,457.229,-0.80454,-1.37708,-0.0290612,0.191495,-0.160959,0.389763,-0.000646507,-0.0011278,0.305741,-0.028642984401866634,0.47663079091148286,-0.0006462980593791023,0.21105877783096538,-0.0011271642725936282,-0.14867302520241266
724,0.7146,260.22,803.658,-9.77266e-05,457.318,-0.805177,-1.37818,-0.0290976,0.191726,-0.161155,0.390234,-0.000647499,-0.0011295,0.306116,-0.028678341153737574,0.47732644782834566,-0.000647289417759711,0.21133856472278612,-0.0011288623549708943,-0.14883986893825274
725,0.7156,260.269,803.82,-0.000110803,457.408,-0.805814,-1.37928,-0.029134,0.191958,-0.16135,0.390705,-0.000648492,-0.00113121,0.30649,-0.0287136966186462,0.478022432476791,-0.0006482817745085967,0.2116196278718665,-0.0011305704231558966,-0.14900582898217962
726,0.7166,260.318,803.983,-0.000123893,457.497,-0.806453,-1.38039,-0.0291704,0.192189,-0.161546,0.391175,-0.000649484,-0.00113292,0.306864,-0.028749050796639364,0.4787172662932111,-0.0006492731309213351,0.21189954433501157,-0.0011322784884201242,-0.14917260749487093
727,0.7176,260.367,804.144,-0.000136996,457.586,-0.807092,-1.38149,-0.0292067,0.19242,-0.161741,0.391645,-0.000650477,-0.00113462,0.307238,-0.028784306566199347,0.47941242675828155,-0.000650265485700463,0.2121795254663288,-0.0011339765621033449,-0.14933850266110515
728,0.7186,260.416,804.306,-0.000150111,457.675,-0.807732,-1.3826,-0.0292431,0.192652,-0.161937,0.392115,-0.00065147,-0.00113633,0.307612,-0.0288196581740372,0.48010791402556285,-0.000651257839494157,0.21246078374093513,-0.0011356846215430094,-0.14950521597614497
729,0.7196,260.465,804.468,-0.00016324,457.764,-0.808372,-1.38371,-0.0292794,0.192883,-0.162132,0.392585,-0.000652464,-0.00113804,0.307985,-0.028854911380595927,0.48080372824868856,-0.0006522511916501328,0.2127408945335303,-0.0011373926780618993,-0.14967104629004857
730,0.7206,260.514,804.629,-0.000176382,457.853,-0.809014,-1.38482,-0.0293157,0.193114,-0.162327,0.393055,-0.000653458,-0.00113975,0.308359,-0.028890163307486394,0.4814998695813639,-0.0006532445428187872,0.21302107003919257,-0.0011391007316600144,-0.1498368442701935
731,0.7216,260.563,804.79,-0.000189537,457.942,-0.809656,-1.38593,-0.0293521,0.193345,-0.162522,0.393525,-0.000654452,-0.00114145,0.308733,-0.028925511062208975,0.4821963381773664,-0.0006542378930000092,0.21330131027287247,-0.0011407987937454012,-0.1500026099228844
732,0.7226,260.612,804.951,-0.000202705,458.03,-0.810299,-1.38704,-0.0293884,0.193576,-0.162717,0.393994,-0.000655446,-0.00114316,0.309106,-0.02896076042637763,0.48289165129815315,-0.0006552312421937989,0.2135816152495238,-0.0011425068415191753,-0.15016834325442452
733,0.7236,260.66,805.111,-0.000215886,458.119,-0.810944,-1.38815,-0.0294247,0.193807,-0.162912,0.394463,-0.000656441,-0.00114487,0.309479,-0.02899600851101758,0.48358729059727645,-0.0006562255897440972,0.21386198498410414,-0.0011442148863720636,-0.15033404427111563
734,0.7246,260.709,805.272,-0.000229081,458.207,-0.811588,-1.38927,-0.0294609,0.194037,-0.163107,0.394932,-0.000657436,-0.00114658,0.309852,-0.029031158219295916,0.4842832562277499,-0.0006572199363048536,0.21414120534976155,-0.0011459229283041772,-0.1504997129792588
735,0.7256,260.757,805.432,-0.000242289,458.295,-0.812234,-1.39038,-0.0294972,0.194268,-0.163302,0.395401,-0.000658431,-0.00114829,0.310225,-0.029066403748542302,0.48497954834265866,-0.0006582142818764014,0.2144217043645864,-0.001147630967315627,-0.1506653493851534
736,0.7266,260.806,805.592,-0.00025551,458.383,-0.812881,-1.3915,-0.0295335,0.194499,-0.163497,0.39587,-0.000659427,-0.00115001,0.310598,-0.029101647998399205,0.4856761670951597,-0.0006592096257992397,0.21470226818216798,-0.0011493489919128796,-0.15083095349509779
737,0.7276,260.854,805.751,-0.000268745,458.471,-0.813528,-1.39262,-0.0295697,0.194729,-0.163692,0.396338,-0.000660423,-0.00115172,0.31097,-0.029136793882597378,0.48637162626611263,-0.0006602049687307598,0.21498168183518818,-0.0011510570250656826,-0.1509965253153892
738,0.7286,260.903,805.911,-0.000281994,458.559,-0.814176,-1.39374,-0.0296059,0.19496,-0.163886,0.396807,-0.000661419,-0.00115343,0.311343,-0.029171938494537475,0.48706889805628517,-0.0006612003106709619,0.2152623750225071,-0.001152765055297822,-0.1511612160139637
739,0.7296,260.951,806.07,-0.000295256,458.647,-0.814825,-1.39486,-0.0296422,0.19519,-0.164081,0.397275,-0.000662416,-0.00115514,0.311715,-0.029207178913552623,0.4877650091778727,-0.0006621966509575694,0.21554191751491647,-0.0011544730826091865,-0.1513267234393425
740,0.7306,260.999,806.229,-0.000308532,458.735,-0.815475,-1.39598,-0.0296784,0.19542,-0.164275,0.397743,-0.000663413,-0.00115686,0.312087,-0.02924232097760071,0.4884614461557093,-0.0006631929902508604,0.21582152430949364,-0.001156191095438075,-0.15149135008569425
741,0.7316,261.047,806.388,-0.000321822,458.822,-0.816126,-1.39711,-0.0297146,0.19565,-0.16447,0.398211,-0.00066441,-0.00115857,0.31246,-0.029277461769529167,0.48915820914233166,-0.0006641893285507239,0.2161011954210299,-0.0011578991168909036,-0.1516567931412054
742,0.7326,261.095,806.547,-0.000335125,458.909,-0.816778,-1.39823,-0.0297507,0.19588,-0.164664,0.398679,-0.000665408,-0.00116028,0.312832,-0.029312504220639246,0.4898552982903477,-0.0006651866651921079,0.21638093086431942,-0.0011596071354230686,-0.1518213557602458
743,0.7336,261.143,806.705,-0.000348442,458.997,-0.81743,-1.39936,-0.0297869,0.19611,-0.164859,0.399146,-0.000666405,-0.001162,0.313203,-0.029347642471980295,0.49055122320046807,-0.0006661830015043391,0.21666073065416058,-0.0011613251394213542,-0.15198673447092426
744,0.7346,261.191,806.863,-0.000361773,459.084,-0.818084,-1.40049,-0.0298231,0.19634,-0.165053,0.399613,-0.000667404,-0.00116371,0.313575,-0.029382779451339602,0.49124747318342,-0.0006671813354888201,0.21694059480535466,-0.0011630331520949833,-0.15215123308755518
745,0.7356,261.239,807.021,-0.000375119,459.171,-0.818738,-1.40162,-0.0298592,0.19657,-0.165247,0.400081,-0.000668402,-0.00116543,0.313947,-0.029417818100549997,0.49194554033584237,-0.0006681786691442593,0.2172205233327067,-0.001164751150200427,-0.15231569979454973
746,0.7366,261.287,807.179,-0.000388478,459.258,-0.819393,-1.40275,-0.0298954,0.1968,-0.165441,0.400548,-0.000669401,-0.00116715,0.314318,-0.029452952539597566,0.4926424416169628,-0.0006691770011351128,0.2175005162510244,-0.0011664691453510123,-0.15248013459809795
747,0.7376,261.335,807.337,-0.000401851,459.345,-0.820049,-1.40389,-0.0299315,0.19703,-0.165635,0.401014,-0.0006704,-0.00116886,0.314689,-0.029487988655605202,0.49333817508806477,-0.000670175332128542,0.21778057357511993,-0.0011681771492284554,-0.15264453750438844
748,0.7386,261.382,807.494,-0.000415238,459.431,-0.820706,-1.40502,-0.0299676,0.197259,-0.165829,0.401481,-0.0006714,-0.00117058,0.31506,-0.02952302350683189,0.4940357268814972,-0.0006711746614536107,0.21805947725972152,-0.0011698951384863099,-0.1528089085196086
749,0.7396,261.43,807.651,-0.00042864,459.518,-0.821363,-1.40616,-0.0300037,0.197489,-0.166023,0.401948,-0.000672399,-0.0011723,0.315431,-0.029558057093323264,0.49473360450769355,-0.000672172990451414,0.2183396631596346,-0.0011716131247891948,-0.1529732476499447
750,0.7406,261.477,807.808,-0.000442056,459.604,-0.822022,-1.4073,-0.0300398,0.197718,-0.166217,0.402414,-0.0006734,-0.00117402,0.315802,-0.02959308941512495,0.49543031268779214,-0.0006731733171055909,0.21861869489041208,-0.00117333110813711,-0.15313755490158187
751,0.7416,261.525,807.965,-0.000455486,459.691,-0.822681,-1.40844,-0.0300759,0.197947,-0.166411,0.40288,-0.0006744,-0.00117574,0.316173,-0.029628120472282693,0.4961273456095616,-0.0006741726434326134,0.2188977905267726,-0.0011750490885301668,-0.153301830280704
752,0.7426,261.572,808.121,-0.00046893,459.777,-0.823342,-1.40958,-0.0301119,0.198177,-0.166604,0.403346,-0.000675401,-0.00117746,0.316544,-0.02966305323115226,0.4968247034243669,-0.0006751729680851692,0.21917816926091227,-0.0011767670659682539,-0.15346522725914413
753,0.7436,261.62,808.278,-0.000482389,459.863,-0.824003,-1.41072,-0.030148,0.198406,-0.166798,0.403812,-0.000676402,-0.00117918,0.316914,-0.029698081762661865,0.4975223862836433,-0.0006761732917363039,0.2194573930315744,-0.0011784850404514824,-0.1536294390759947
754,0.7446,261.667,808.434,-0.000495863,459.949,-0.824665,-1.41187,-0.030184,0.198635,-0.166991,0.404277,-0.000677403,-0.0011809,0.317284,-0.029733012002970294,0.49821889611925174,-0.0006771736143862395,0.2197366807518022,-0.0011802030119797413,-0.15379277283203852
755,0.7456,261.714,808.59,-0.000509351,460.035,-0.825328,-1.41301,-0.0302201,0.198864,-0.167185,0.404743,-0.000678405,-0.00118262,0.317655,-0.02976803800901373,0.49891722882372624,-0.0006781749353566013,0.22001603243624146,-0.0011819209805530306,-0.15395692111121118
756,0.7466,261.761,808.745,-0.000522853,460.12,-0.825992,-1.41416,-0.0302561,0.199093,-0.167378,0.405208,-0.000679407,-0.00118434,0.318025,-0.029802965730942654,0.4996143874119392,-0.0006791762553236547,0.2202954480995416,-0.0011836389461715724,-0.15412019166932112
757,0.7476,261.808,808.901,-0.000536371,460.206,-0.826656,-1.41531,-0.0302921,0.199322,-0.167572,0.405673,-0.00068041,-0.00118606,0.318395,-0.029837892195496263,0.5003118702542788,-0.0006801785736072485,0.2205749277563558,-0.0011853569088351446,-0.15428427643540032
758,0.7486,261.855,809.056,-0.000549903,460.292,-0.827322,-1.41646,-0.0303281,0.199551,-0.167765,0.406138,-0.000681413,-0.00118778,0.318765,-0.02987281740271963,0.5010096775015584,-0.0006811808908854244,0.22085447142134007,-0.001187074868543747,-0.15444748382002904
759,0.7496,261.902,809.211,-0.00056345,460.377,-0.827988,-1.41761,-0.0303641,0.199779,-0.167958,0.406603,-0.000682416,-0.00118951,0.319134,-0.02990774135265828,0.5017078093046614,-0.0006821832071582934,0.22113285797568527,-0.0011888028134096063,-0.15461065970867194
760,0.7506,261.949,809.366,-0.000577011,460.462,-0.828656,-1.41876,-0.0304001,0.200008,-0.168151,0.407068,-0.000683419,-0.00119123,0.319504,-0.029942664045357392,0.5024062658145412,-0.0006831855224259664,0.22141252942132006,-0.0011905207671912832,-0.15477380410740738
761,0.7516,261.996,809.521,-0.000590588,460.547,-0.829324,-1.41992,-0.030436,0.200236,-0.168344,0.407532,-0.000684423,-0.00119296,0.319873,-0.02997748847861581,0.5031035440779263,-0.0006841888360039627,0.22169104322739552,-0.0011922487060956888,-0.15493691702231194
762,0.7526,262.043,809.675,-0.000604179,460.632,-0.829993,-1.42107,-0.030472,0.200465,-0.168537,0.407996,-0.000685427,-0.00119468,0.320242,-0.030012408660463508,0.5038011459534977,-0.0006851921485747647,0.22197084251208987,-0.0011939666539505511,-0.15509999845946176
763,0.7536,262.09,809.83,-0.000617786,460.717,-0.830663,-1.42223,-0.0305079,0.200693,-0.16873,0.40846,-0.000686432,-0.00119641,0.320612,-0.030047230589935303,0.5044990715914464,-0.0006861964594520042,0.22224948362806285,-0.0011956945868935032,-0.15526304842493133
764,0.7546,262.136,809.984,-0.000631408,460.802,-0.831334,-1.42339,-0.0305438,0.200921,-0.168923,0.408924,-0.000687436,-0.00119813,0.320981,-0.030082051269322174,0.5051973211420331,-0.0006871997700070853,0.22252818828145315,-0.00119741252882144,-0.155426066924794
765,0.7556,262.183,810.138,-0.000645044,460.887,-0.832006,-1.42455,-0.0305797,0.20115,-0.169116,0.409388,-0.000688442,-0.00119986,0.321349,-0.030116870698669085,0.5058958947555878,-0.000688205078178461,0.22280817929431707,-0.0011991404558030494,-0.15558905396512224
766,0.7566,262.23,810.291,-0.000658696,460.972,-0.832678,-1.42571,-0.0306156,0.201378,-0.169308,0.409852,-0.000689447,-0.00120159,0.321718,-0.030151688878021,0.5065947925825112,-0.0006892093860276782,0.223087011344842,-0.0012008683797953834,-0.15575116530357447
767,0.7576,262.276,810.445,-0.000672364,461.056,-0.833352,-1.42688,-0.0306515,0.201606,-0.169501,0.410315,-0.000690453,-0.00120332,0.322087,-0.03018650580742266,0.5072925074800116,-0.0006902146921773378,0.22336590697632253,-0.001202596300798442,-0.15591408960596997
768,0.7586,262.322,810.598,-0.000686046,461.14,-0.834027,-1.42804,-0.0306874,0.201834,-0.169694,0.410778,-0.000691459,-0.00120504,0.322455,-0.030221321486918917,0.5079905454943052,-0.0006912199973156952,0.2236448662032564,-0.00120431423085543,-0.1560769824670093
769,0.7596,262.369,810.751,-0.000699744,461.225,-0.834702,-1.42921,-0.0307233,0.202062,-0.169886,0.411241,-0.000692466,-0.00120677,0.322824,-0.03025613591655485,0.5086889067750302,-0.0006922263007504981,0.22392388904014537,-0.001206042145897146,-0.15623900013218206
770,0.7606,262.415,810.904,-0.000713458,461.309,-0.835379,-1.43038,-0.0307591,0.202289,-0.170078,0.411704,-0.000693473,-0.0012085,0.323192,-0.030290852125465118,0.5093875914718928,-0.0006932326031718894,0.22420175129913078,-0.0012077700579495865,-0.15640098669294922
771,0.7616,262.461,811.057,-0.000727187,461.393,-0.836056,-1.43155,-0.030795,0.202517,-0.170271,0.412167,-0.00069448,-0.00121023,0.32356,-0.030325664058995838,0.5100865997346702,-0.0006942389045799802,0.22448090112029728,-0.0012094979670127515,-0.15656378559191841
772,0.7626,262.507,811.209,-0.000740931,461.477,-0.836734,-1.43272,-0.0308308,0.202745,-0.170463,0.41263,-0.000695487,-0.00121196,0.323928,-0.03036037777884326,0.5107859317132073,-0.0006952452049747704,0.22476011459487943,-0.001211225873086641,-0.15672570979986333
773,0.7636,262.554,811.361,-0.000754691,461.561,-0.837413,-1.4339,-0.0308666,0.202972,-0.170655,0.413092,-0.000696495,-0.0012137,0.324296,-0.030395090255961765,0.5114840760725881,-0.0006962525036598999,0.2250381666986121,-0.0012129637640416746,-0.15688760292134474
774,0.7646,262.6,811.513,-0.000768467,461.645,-0.838093,-1.43507,-0.0309024,0.2032,-0.170847,0.413554,-0.000697504,-0.00121543,0.324663,-0.030429801490395758,0.5121825430491815,-0.0006972608006324821,0.2253175072442315,-0.0012146916641196936,-0.15704946496233063
775,0.7656,262.646,811.665,-0.000782259,461.728,-0.838774,-1.43625,-0.0309382,0.203427,-0.17104,0.414016,-0.000698512,-0.00121716,0.325031,-0.03046451148218987,0.5128813327920714,-0.0006982680972859034,0.22559568589045775,-0.0012164195612085482,-0.15721213871707063
776,0.7666,262.692,811.817,-0.000796066,461.812,-0.839456,-1.43743,-0.030974,0.203654,-0.171232,0.414478,-0.000699521,-0.00121889,0.325398,-0.030499220231388513,0.5135804454504103,-0.0006992763922246681,0.22587392769040449,-0.0012181474553080163,-0.15737393845316527
777,0.7676,262.737,811.969,-0.000809889,461.895,-0.840139,-1.43861,-0.0310098,0.203881,-0.171423,0.41494,-0.000700531,-0.00122063,0.325766,-0.030533927738036093,0.5142798811734195,-0.0007002856854458894,0.2261522326584089,-0.0012198853342194615,-0.15753486466197852
778,0.7686,262.783,812.12,-0.000823729,461.978,-0.840823,-1.43979,-0.0310456,0.204109,-0.171615,0.415401,-0.00070154,-0.00122236,0.326133,-0.030568634002177242,0.5149781251315069,-0.0007012939783489491,0.2264318272400263,-0.0012216132223232812,-0.15769660244063977
779,0.7696,262.829,812.271,-0.000837584,462.062,-0.841507,-1.44097,-0.0310813,0.204336,-0.171807,0.415863,-0.000702551,-0.0012241,0.3265,-0.03060324208418541,0.5156782067317149,-0.0007023042688300007,0.2267102588656036,-0.001223351095204328,-0.15785830916862853
780,0.7706,262.875,812.422,-0.000851455,462.145,-0.842193,-1.44216,-0.031117,0.204563,-0.171999,0.416324,-0.000703561,-0.00122583,0.326867,-0.0306378489307072,0.5163770954664944,-0.0007033135589930017,0.22698875370233407,-0.0012250789773122772,-0.15801998485190594
781,0.7716,262.92,812.573,-0.000865342,462.228,-0.842879,-1.44334,-0.0311528,0.204789,-0.172191,0.416785,-0.000704572,-0.00122757,0.327233,-0.03067255147453618,0.517076306463256,-0.0007043238474322422,0.22726608449787045,-0.0012268168441629257,-0.15818162949643189
782,0.7726,262.966,812.723,-0.000879246,462.31,-0.843567,-1.44453,-0.0311885,0.205016,-0.172382,0.417246,-0.000705583,-0.0012293,0.3276,-0.030707155846756873,0.5177758398705972,-0.0007053341348501885,0.2275447055213411,-0.0012285447202751154,-0.15834240145098766
783,0.7736,263.011,812.873,-0.000893165,462.393,-0.844255,-1.44572,-0.0312242,0.205243,-0.172574,0.417707,-0.000706594,-0.00123104,0.327966,-0.030741758983623413,0.5184756958371832,-0.0007063444212466186,0.22782338979896322,-0.0012302825810953655,-0.15850398419746903
784,0.7746,263.057,813.023,-0.000907101,462.476,-0.844945,-1.44691,-0.0312599,0.20547,-0.172765,0.418167,-0.000707606,-0.00123278,0.328333,-0.0307763608851801,0.5191743553366335,-0.0007073557059144031,0.2281021373450971,-0.0012320204388918121,-0.15866469458815646
785,0.7756,263.102,813.173,-0.000921054,462.558,-0.845635,-1.4481,-0.0312956,0.205696,-0.172957,0.418628,-0.000708619,-0.00123452,0.328699,-0.030810961551470895,0.5198748561674793,-0.0007083679888503225,0.22837971979377247,-0.0012337582936642333,-0.15882621546029563
786,0.7766,263.148,813.323,-0.000935023,462.641,-0.846326,-1.4493,-0.0313312,0.205923,-0.173148,0.419088,-0.000709631,-0.00123626,0.329065,-0.03084546406709132,0.5205741594287354,-0.0007093792714701896,0.22865859364114982,-0.001235496145412962,-0.1589868643106891
787,0.7776,263.193,813.473,-0.000949008,462.723,-0.847019,-1.45049,-0.0313669,0.206149,-0.173339,0.419548,-0.000710644,-0.001238,0.329431,-0.030880062266442576,0.5212737844434892,-0.0007103915523563042,0.2289363018631596,-0.0012372339941376653,-0.15914748248008226
788,0.7786,263.238,813.622,-0.00096301,462.805,-0.847712,-1.45169,-0.0314025,0.206375,-0.17353,0.420008,-0.000711658,-0.00123974,0.329797,-0.030914562322121197,0.5219737313597816,-0.0007114048315055577,0.2292140728543206,-0.0012389718398385652,-0.15930806997433467
789,0.7796,263.283,813.771,-0.000977028,462.888,-0.848406,-1.45289,-0.0314382,0.206602,-0.173721,0.420468,-0.000712671,-0.00124148,0.330163,-0.03094915805470888,0.5226740003257213,-0.0007124171103397581,0.22949313612134103,-0.0012407096825156616,-0.15946862679930474
790,0.7806,263.328,813.92,-0.000991063,462.97,-0.849101,-1.45409,-0.0314738,0.206828,-0.173912,0.420927,-0.000713685,-0.00124322,0.330528,-0.030983655650621222,0.5233730681156552,-0.0007134303874350989,0.22977103297126567,-0.0012424475221689546,-0.15962915296084956
791,0.7816,263.373,814.069,-0.00100512,463.052,-0.849797,-1.4553,-0.0315094,0.207054,-0.174103,0.421387,-0.0007147,-0.00124496,0.330894,-0.031018152018441048,0.5240739809245749,-0.0007144446627884715,0.23004899263297585,-0.0012441853587983331,-0.15978964846482557
792,0.7826,263.418,814.218,-0.00101918,463.133,-0.850494,-1.4565,-0.031545,0.20728,-0.174294,0.421846,-0.000715715,-0.00124671,0.331259,-0.0310526471582121,0.5247736914531009,-0.0007154589371123343,0.23032701512066844,-0.0012459331799445916,-0.15995011331708753
793,0.7836,263.463,814.366,-0.00103327,463.215,-0.851192,-1.45771,-0.0315806,0.207506,-0.174485,0.422305,-0.00071673,-0.00124845,0.331624,-0.031087141069978008,0.5254737232224789,-0.0007164732104067983,0.23060510044854432,-0.0012476710105089328,-0.16011054752348952
794,0.7846,263.508,814.514,-0.00104737,463.297,-0.851891,-1.45891,-0.0316162,0.207732,-0.174676,0.422764,-0.000717746,-0.00125019,0.331989,-0.03112163375378252,0.5261740763801916,-0.0007174884819542982,0.23088324863080634,-0.0012494088380494706,-0.16027095108988432
795,0.7856,263.553,814.662,-0.00106149,463.378,-0.852591,-1.46012,-0.0316517,0.207957,-0.174867,0.423223,-0.000718761,-0.00125194,0.332354,-0.031156028325276974,0.5268747510737908,-0.0007185027531887433,0.2311602285208174,-0.0012511566500547078,-0.16043132402212357
796,0.7866,263.598,814.81,-0.00107563,463.46,-0.853292,-1.46133,-0.0316873,0.208183,-0.175057,0.423681,-0.000719778,-0.00125368,0.332719,-0.031190518556738822,0.5275742198759112,-0.0007195190219546621,0.23143850217620177,-0.0012528944715302082,-0.16059082691730442
797,0.7876,263.642,814.958,-0.00108978,463.541,-0.853994,-1.46255,-0.0317228,0.208409,-0.175248,0.42414,-0.000720795,-0.00125543,0.333084,-0.031224910682866258,0.5282755373828893,-0.0007205352896870743,0.23171683872853932,-0.001254642277435547,-0.16075113875909497
798,0.7886,263.687,815.105,-0.00110395,463.622,-0.854696,-1.46376,-0.0317583,0.208634,-0.175438,0.424598,-0.000721812,-0.00125718,0.333448,-0.03125930158809476,0.5289756478920791,-0.0007215515563858688,0.23199400619742416,-0.0012563900802822214,-0.16091058089524823
799,0.7896,263.732,815.253,-0.00111814,463.703,-0.8554,-1.46498,-0.0317939,0.20886,-0.175629,0.425056,-0.000722829,-0.00125892,0.333812,-0.031293788143093915,0.5296760791253223,-0.0007225678220511567,0.23227246830785808,-0.0012581278926515616,-0.16107083166986103
800,0.7906,263.776,815.4,-0.00113234,463.784,-0.856105,-1.46619,-0.0318294,0.209085,-0.175819,0.425514,-0.000723847,-0.00126067,0.334177,-0.031328176603216074,0.5303768312295443,-0.0007235850859593773,0.2325497608074636,-0.0012598756893984486,-0.1612302130701313
801,0.7916,263.821,815.547,-0.00114657,463.865,-0.856811,-1.46741,-0.0318649,0.20931,-0.17601,0.425972,-0.000724865,-0.00126242,0.334541,-0.031362563842569524,0.5310779043517375,-0.0007246023488319819,0.2328271157049011,-0.0012616234830866713,-0.16139040280082861
802,0.7926,263.865,815.693,-0.00116081,463.946,-0.857517,-1.46864,-0.0319003,0.209535,-0.1762,0.426429,-0.000725884,-0.00126417,0.334905,-0.0313968530008879,0.5317777668604289,-0.0007256206099433005,0.23310453301421163,-0.0012633712737162295,-0.16154972348835184
803,0.7936,263.909,815.84,-0.00117506,464.026,-0.858225,-1.46986,-0.0319358,0.209761,-0.17639,0.426886,-0.000726903,-0.00126592,0.335269,-0.03143123780227253,0.5324779492793807,-0.0007266388700171156,0.23338324613206907,-0.0012651190612872343,-0.16170901390782
804,0.7946,263.954,815.986,-0.00118934,464.107,-0.858934,-1.47108,-0.0319713,0.209986,-0.17658,0.427344,-0.000727922,-0.00126767,0.335633,-0.03146562138301834,0.533179984934044,-0.0007276571290533163,0.23366078858480366,-0.0012668668457995746,-0.1618682740649835
805,0.7956,263.998,816.133,-0.00120363,464.188,-0.859643,-1.47231,-0.0320067,0.210211,-0.17677,0.427801,-0.000728942,-0.00126942,0.335996,-0.03149990689316429,0.5338808083131037,-0.0007286763863232348,0.23393839349161616,-0.0012686146272532506,-0.16202750396559162
806,0.7966,264.042,816.279,-0.00121794,464.268,-0.860354,-1.47354,-0.0320422,0.210435,-0.17696,0.428258,-0.000729962,-0.00127117,0.33636,-0.03153428803620062,0.5345819520416419,-0.0007296956425535406,0.23421482665111637,-0.001270362405648373,-0.16218670361539245
807,0.7976,264.086,816.424,-0.00123227,464.348,-0.861066,-1.47477,-0.0320776,0.21066,-0.17715,0.428715,-0.000730983,-0.00127292,0.336723,-0.03156857111559008,0.535283416266092,-0.0007307158970133454,0.2344925562305189,-0.0012721101809848312,-0.16234587302013326
808,0.7986,264.13,816.57,-0.00124661,464.428,-0.861778,-1.476,-0.032113,0.210885,-0.17734,0.429171,-0.000732004,-0.00127468,0.337086,-0.03160285298137999,0.5359836651485206,-0.00073173615043165,0.2347703483061072,-0.0012738679405240871,-0.1625050121855599
809,0.7996,264.174,816.716,-0.00126098,464.508,-0.862492,-1.47723,-0.0321484,0.21111,-0.17753,0.429628,-0.000733025,-0.00127643,0.337449,-0.03163713363361331,0.5366857701022558,-0.0007327564028082323,0.23504820289194495,-0.0012756157097258969,-0.16266412111741746
810,0.8006,264.218,816.861,-0.00127536,464.588,-0.863207,-1.47847,-0.0321838,0.211334,-0.177719,0.430084,-0.000734047,-0.00127818,0.337812,-0.03167141307233301,0.5373866586038558,-0.0007337776534093177,0.23532488467659562,-0.0012773634758691532,-0.162822362644231
811,0.8016,264.262,817.006,-0.00128976,464.668,-0.863922,-1.4797,-0.0322192,0.211559,-0.177909,0.43054,-0.000735069,-0.00127994,0.338175,-0.03170569129758216,0.5380878667834936,-0.0007347989029666824,0.23560286404715436,-0.0012791212261625828,-0.16298141128522925
812,0.8026,264.306,817.151,-0.00130418,464.748,-0.864639,-1.48094,-0.0322546,0.211783,-0.178098,0.430996,-0.000736092,-0.00128169,0.338538,-0.03173996830940351,0.5387893947869755,-0.0007358211507445533,0.23587967008982025,-0.0012808689861711908,-0.16313959284986757
813,0.8036,264.35,817.296,-0.00131861,464.828,-0.865357,-1.48218,-0.0322899,0.212007,-0.178288,0.431452,-0.000737114,-0.00128345,0.3389,-0.031774147285259735,0.5394912427601748,-0.0007368423982134775,0.23615653814398474,-0.001282626730294889,-0.16329858122285235
814,0.8046,264.394,817.44,-0.00133307,464.907,-0.866075,-1.48342,-0.0323253,0.212232,-0.178477,0.431907,-0.000738138,-0.00128521,0.339263,-0.03180842187378197,0.5401918706563897,-0.000737865643162916,0.2364347046576265,-0.0012843844713250618,-0.16345670284803704
815,0.8056,264.437,817.585,-0.00134754,464.987,-0.866795,-1.48466,-0.0323606,0.212456,-0.178667,0.432363,-0.000739161,-0.00128697,0.339625,-0.031842598433270086,0.5408943583044201,-0.0007388878878035188,0.23671169705345996,-0.0012861422092615982,-0.16361563097584564
816,0.8066,264.481,817.729,-0.00136203,465.066,-0.867516,-1.48591,-0.0323959,0.21268,-0.178856,0.432818,-0.000740186,-0.00128872,0.339987,-0.03187677378634679,0.5415956247634697,-0.0007399121299184186,0.23698875150253973,-0.001287889956983479,-0.1637736926842892
817,0.8076,264.525,817.873,-0.00137654,465.145,-0.868237,-1.48716,-0.0324312,0.212904,-0.179045,0.433273,-0.00074121,-0.00129048,0.34035,-0.031910947933054934,0.542297210371359,-0.0007409353717245937,0.23726586801876737,-0.001289647688750284,-0.16393172452189286
818,0.8086,264.568,818.017,-0.00139106,465.225,-0.86896,-1.48841,-0.0324665,0.213128,-0.179234,0.433728,-0.000742235,-0.00129224,0.340711,-0.03194512087343693,0.542999115273334,-0.0007419596117408389,0.23754304661604753,-0.0012914054174235634,-0.16408972649430142
819,0.8096,264.612,818.16,-0.00140561,465.304,-0.869684,-1.48966,-0.0325018,0.213352,-0.179423,0.434183,-0.00074326,-0.001294,0.341073,-0.0319792926075354,0.5437013396147061,-0.0007429838507073683,0.23782028730828775,-0.0012931631430032065,-0.16424769860715915
820,0.8106,264.655,818.304,-0.00142017,465.383,-0.870409,-1.49091,-0.0325371,0.213575,-0.179613,0.434637,-0.000744286,-0.00129576,0.341435,-0.032013463135392994,0.5444023391377424,-0.000744009087879971,0.23809635201242796,-0.001294920865489324,-0.16440647646005013
821,0.8116,264.698,818.447,-0.00143476,465.462,-0.871135,-1.49216,-0.0325724,0.213799,-0.179801,0.435092,-0.000745312,-0.00129752,0.341797,-0.03204763245705233,0.5451052020912461,-0.0007450343240007484,0.23837371665895946,-0.0012966785848818052,-0.16456355327679217
822,0.8126,264.742,818.59,-0.00144936,465.54,-0.871861,-1.49342,-0.0326076,0.214023,-0.17999,0.435546,-0.000746339,-0.00129929,0.342158,-0.03208170378073094,0.5458068391125477,-0.0007460605583234914,0.2386511434421308,-0.0012984462881963088,-0.16472143584485022
823,0.8136,264.785,818.733,-0.00146398,465.619,-0.872589,-1.49468,-0.0326429,0.214246,-0.180179,0.436,-0.000747366,-0.00130105,0.342519,-0.03211587069353794,0.5465087947493774,-0.0007470867915922996,0.23892739344784908,-0.0013002040013839755,-0.1648792885759226
824,0.8146,264.828,818.876,-0.00147862,465.698,-0.873318,-1.49593,-0.0326781,0.21447,-0.180368,0.436454,-0.000748393,-0.00130281,0.34288,-0.032149939615273015,0.5472110691464194,-0.0007481130238071731,0.2392049442685129,-0.0013019617114782278,-0.16503711147564792
825,0.8156,264.871,819.019,-0.00149327,465.776,-0.874048,-1.4972,-0.0327133,0.214693,-0.180557,0.436908,-0.000749421,-0.00130458,0.343241,-0.03218400733780313,0.5479136624484233,-0.0007491402542190162,0.23948131778558657,-0.001303729405441545,-0.1651949045496638
826,0.8166,264.915,819.161,-0.00150795,465.855,-0.874779,-1.49846,-0.0327485,0.214916,-0.180745,0.437362,-0.000750449,-0.00130634,0.343602,-0.03221807386117048,0.5486165748002052,-0.0007501674835748151,0.23975775294082702,-0.0013054871093309828,-0.16535183315585722
827,0.8176,264.958,819.303,-0.00152265,465.933,-0.875511,-1.49972,-0.0327837,0.21514,-0.180934,0.437815,-0.000751478,-0.00130811,0.343963,-0.03225213918541736,0.5493182570276149,-0.0007511957111234757,0.24003548978285072,-0.0013072547970544024,-0.16550956675309636
828,0.8186,265.001,819.445,-0.00153736,466.011,-0.876244,-1.50099,-0.0328189,0.215363,-0.181122,0.438269,-0.000752507,-0.00130988,0.344324,-0.03228620331058596,0.5500218072101126,-0.0007522239376140938,0.24031204853222676,-0.0013090224816489915,-0.16566643620835597
829,0.8196,265.044,819.587,-0.00155209,466.089,-0.876978,-1.50226,-0.0328541,0.215586,-0.181311,0.438722,-0.000753536,-0.00131164,0.344684,-0.032320266236718354,0.5507241261520088,-0.0007532521630466693,0.240588668961081,-0.001310780176222659,-0.16582411035123668
830,0.8206,265.086,819.729,-0.00156685,466.167,-0.877713,-1.50353,-0.0328892,0.215809,-0.181499,0.439175,-0.000754566,-0.00131341,0.345045,-0.03235423119928493,0.5514267633164578,-0.0007542813866668885,0.2408653510831693,-0.0013125478545773506,-0.16598092067785808
831,0.8216,265.129,819.871,-0.00158162,466.245,-0.878449,-1.5048,-0.0329244,0.216032,-0.181687,0.439628,-0.000755596,-0.00131518,0.345405,-0.03238829173087776,0.552129718847647,-0.0007553106092269557,0.24114209491225091,-0.0013143155298033227,-0.1661377015269091
832,0.8226,265.172,820.012,-0.00159641,466.323,-0.879186,-1.50607,-0.0329595,0.216254,-0.181876,0.44008,-0.000756627,-0.00131695,0.345765,-0.032422254305791376,0.5528314400576126,-0.0007563408299706698,0.2414176590438084,-0.0013160832019004642,-0.16629528660906112
833,0.8236,265.215,820.153,-0.00161122,466.401,-0.879925,-1.50735,-0.0329947,0.216477,-0.182064,0.440533,-0.000757658,-0.00131872,0.346125,-0.03245631244301306,0.5535350320515133,-0.0007573710496521224,0.24169452605129904,-0.0013178508708687753,-0.16645200836287222
834,0.8246,265.257,820.294,-0.00162605,466.478,-0.880664,-1.50863,-0.0330298,0.2167,-0.182252,0.440985,-0.00075869,-0.00132049,0.346485,-0.032490272630441575,0.5542373886066243,-0.0007584022675131141,0.2419714548070171,-0.0013196185367083668,-0.16660870065576294
835,0.8256,265.3,820.435,-0.0016409,466.556,-0.881404,-1.50991,-0.0330649,0.216922,-0.18244,0.441438,-0.000759722,-0.00132226,0.346845,-0.032524231625888356,0.5549416176394961,-0.000759433484309846,0.24224720307690983,-0.0013213861994191278,-0.16676536349327142
836,0.8266,265.343,820.576,-0.00165577,466.633,-0.882146,-1.51119,-0.0331,0.217145,-0.182628,0.44189,-0.000760754,-0.00132403,0.347205,-0.03255818942939537,0.5556446101149999,-0.0007604647000424292,0.24252425509334774,-0.0013231538590011693,-0.166921996880935
837,0.8276,265.385,820.716,-0.00167066,466.711,-0.882888,-1.51247,-0.0331351,0.217367,-0.182816,0.442341,-0.000761787,-0.0013258,0.347564,-0.032592146041004355,0.5563463640677833,-0.0007614969139492223,0.24280012609852686,-0.0013249215154544913,-0.16707860082428938
838,0.8286,265.428,820.857,-0.00168557,466.788,-0.883632,-1.51375,-0.0331701,0.21759,-0.183004,0.442793,-0.00076282,-0.00132758,0.347924,-0.03262600472336252,0.557049991632192,-0.0007625291267897572,0.24307730143054784,-0.00132669915551209,-0.1672351753288699
839,0.8296,265.47,820.997,-0.0017005,466.865,-0.884376,-1.51504,-0.0332052,0.217812,-0.183191,0.443245,-0.000763854,-0.00132935,0.348283,-0.03265995895469653,0.5577539373081477,-0.0007635623378005052,0.2433532952256432,-0.0013284668056902094,-0.16739088779151434
840,0.8306,265.513,821.137,-0.00171545,466.942,-0.885122,-1.51633,-0.0332403,0.218034,-0.183379,0.443696,-0.000764888,-0.00133113,0.348642,-0.03269391199425786,0.558456642782047,-0.0007645955477428856,0.24362935029816257,-0.0013302444394371893,-0.1675474035916633
841,0.8316,265.555,821.277,-0.00173042,467.019,-0.885869,-1.51762,-0.0332753,0.218256,-0.183567,0.444147,-0.000765922,-0.0013329,0.349001,-0.03272776711487002,0.5591596652475914,-0.0007656287566168984,0.2439054666617111,-0.0013320120833402171,-0.16770388996960772
842,0.8326,265.597,821.417,-0.00174541,467.096,-0.886617,-1.51891,-0.0333103,0.218478,-0.183754,0.444598,-0.000766957,-0.00133468,0.34936,-0.032761621050573675,0.5598630048477764,-0.0007666629636559064,0.24418164432989675,-0.0013337897107765784,-0.16785951479080907
843,0.8336,265.639,821.556,-0.00176041,467.173,-0.887365,-1.5202,-0.0333453,0.2187,-0.183942,0.445049,-0.000767992,-0.00133646,0.349719,-0.032795473801410235,0.5605666617256615,-0.0007676971696245483,0.24445788331633111,-0.001335567335048804,-0.1680159424973633
844,0.8346,265.682,821.695,-0.00177544,467.25,-0.888115,-1.5215,-0.0333803,0.218922,-0.184129,0.4455,-0.000769028,-0.00133823,0.350077,-0.032829325367421336,0.5612706360243718,-0.0007687323737540774,0.24473418363462796,-0.0013373349695302572,-0.16817150897019773
845,0.8356,265.724,821.835,-0.00179049,467.326,-0.888866,-1.5228,-0.0334153,0.219144,-0.184317,0.445951,-0.000770065,-0.00134001,0.350436,-0.03286317574864839,0.561974927887096,-0.0007697685760413853,0.24501054529840438,-0.0013391125874919751,-0.16832787802735938
846,0.8366,265.766,821.974,-0.00180556,467.403,-0.889618,-1.5241,-0.0334503,0.219366,-0.184504,0.446401,-0.000771101,-0.00134179,0.350794,-0.0328970249451328,0.5626779747783319,-0.0007708037780248533,0.24528696832128083,-0.0013408902022894464,-0.1684833861737034
847,0.8376,265.808,822.113,-0.00182065,467.479,-0.890372,-1.5254,-0.0334853,0.219588,-0.184691,0.446852,-0.000772138,-0.00134357,0.351152,-0.03293087295691599,0.5633829014939826,-0.0007718399781641017,0.24556345271688063,-0.0013426678139227821,-0.16863886524274285
848,0.8386,265.85,822.251,-0.00183576,467.556,-0.891126,-1.5267,-0.0335203,0.219809,-0.184878,0.447302,-0.000773176,-0.00134535,0.351511,-0.03296471978403959,0.5640865821159202,-0.0007728771764559106,0.24583875265945432,-0.0013444454223920932,-0.16879431523991473
849,0.8396,265.892,822.39,-0.00185089,467.632,-0.891881,-1.528,-0.0335552,0.220031,-0.185066,0.447752,-0.000774214,-0.00134713,0.351869,-0.03299846872639667,0.564790579465396,-0.0007739143736710252,0.24611535956477515,-0.0013462230276971576,-0.16895056722050328
850,0.8406,265.934,822.528,-0.00186604,467.708,-0.892638,-1.52931,-0.0335901,0.220252,-0.185253,0.448201,-0.000775252,-0.00134891,0.352226,-0.03303221649093624,0.5654933281908587,-0.0007749515698096676,0.2463907814922408,-0.0013480006298380864,-0.16910595893485492
851,0.8416,265.975,822.666,-0.00188121,467.784,-0.893395,-1.53062,-0.0336251,0.220473,-0.18544,0.448651,-0.000776291,-0.0013507,0.352584,-0.03306605977109811,0.5661979587185226,-0.0007759897640956526,0.24666626429467908,-0.0013497882153170604,-0.1692613215936728
852,0.8426,266.017,822.804,-0.0018964,467.86,-0.894154,-1.53193,-0.03366,0.220695,-0.185626,0.449101,-0.00077733,-0.00135248,0.352942,-0.03309980517675137,0.5669029064012787,-0.0007770279573029448,0.24694305492797608,-0.0013515658111119544,-0.16941582461862958
853,0.8436,266.059,822.942,-0.00191162,467.936,-0.894914,-1.53324,-0.0336949,0.220916,-0.185813,0.44955,-0.00077837,-0.00135427,0.353299,-0.03313354940471058,0.5676066037744909,-0.0007780671486534718,0.24721865979633129,-0.0013533533902092554,-0.16957112933798213
854,0.8446,266.101,823.08,-0.00192685,468.012,-0.895674,-1.53456,-0.0337298,0.221137,-0.186,0.449999,-0.00077941,-0.00135605,0.353657,-0.033167292455016706,0.5683106171787675,-0.0007791063389231967,0.24749432558009343,-0.0013551309796582256,-0.16972640501806735
855,0.8456,266.142,823.217,-0.00194211,468.087,-0.896436,-1.53587,-0.0337647,0.221358,-0.186187,0.450448,-0.000780451,-0.00135784,0.354014,-0.03320103432771082,0.5690149467560381,-0.0007801465273321595,0.2477700522927262,-0.0013569185523738536,-0.16988165166431513
856,0.8466,266.184,823.355,-0.00195738,468.163,-0.897199,-1.53719,-0.0337995,0.221579,-0.186374,0.450897,-0.000781492,-0.00135962,0.354371,-0.033234678346307,0.5697195926482963,-0.0007811867146582108,0.24804583994769636,-0.001358696135476789,-0.17003686928215433
857,0.8476,266.225,823.492,-0.00197268,468.239,-0.897963,-1.53851,-0.0338344,0.2218,-0.18656,0.451346,-0.000782534,-0.00136141,0.354728,-0.033268417867274636,0.5704245549975993,-0.0007822279001191701,0.24832168855847336,-0.001360483701810855,-0.1701912280686556
858,0.8486,266.267,823.629,-0.00198799,468.314,-0.898729,-1.53983,-0.0338693,0.222021,-0.186747,0.451794,-0.000783576,-0.0013632,0.355085,-0.0333021562107535,0.57112826281702,-0.0007832690844952195,0.24859759813853044,-0.0013622712649451474,-0.17034638780111966
859,0.8496,266.308,823.766,-0.00200333,468.389,-0.899495,-1.54116,-0.0339041,0.222241,-0.186933,0.452243,-0.000784618,-0.00136499,0.355442,-0.033335796710369237,0.5718338578012447,-0.0007843102677863589,0.24887231982839886,-0.001364058824879666,-0.17050068902253024
860,0.8506,266.35,823.903,-0.00201869,468.465,-0.900262,-1.54248,-0.0339389,0.222462,-0.187119,0.452691,-0.000785661,-0.00136678,0.355798,-0.03336943603931608,0.5725381971297689,-0.0007853524492072994,0.2491483511114143,-0.0013658463816145217,-0.17065496154658255
861,0.8516,266.391,824.039,-0.00203407,468.54,-0.901031,-1.54381,-0.0339737,0.222683,-0.187306,0.453139,-0.000786704,-0.00136857,0.356155,-0.03340307419763455,0.5732428520730048,-0.0007863946295412205,0.24942444340408443,-0.0013676339351497147,-0.1708100345689938
862,0.8526,266.432,824.176,-0.00204948,468.615,-0.901801,-1.54514,-0.0340085,0.222903,-0.187492,0.453587,-0.000787748,-0.00137036,0.356511,-0.03343671118536551,0.5739478227723793,-0.0007874378080006128,0.24969934701992225,-0.0013694214854850228,-0.17096424956012524
863,0.8536,266.473,824.312,-0.0020649,468.69,-0.902571,-1.54647,-0.0340433,0.223124,-0.187678,0.454035,-0.000788793,-0.00137215,0.356868,-0.03347034700254958,0.574653109369383,-0.0007884819845825897,0.24997556109614494,-0.0013712090326207793,-0.1711184358699357
864,0.8546,266.515,824.448,-0.00208034,468.765,-0.903343,-1.54781,-0.0340781,0.223344,-0.187864,0.454482,-0.000789837,-0.00137394,0.357224,-0.03350398164922763,0.5753571366476451,-0.0007895251608628362,0.25025058597121297,-0.001372996576556762,-0.17127259350375956
865,0.8556,266.556,824.584,-0.00209581,468.84,-0.904116,-1.54914,-0.0341129,0.223564,-0.188051,0.45493,-0.000790882,-0.00137574,0.35758,-0.0335376151254404,0.5760630547587136,-0.0007905693352634469,0.25052567135840986,-0.0013747941035451294,-0.17142755103979312
866,0.8566,266.597,824.72,-0.0021113,468.914,-0.90489,-1.55048,-0.0341477,0.223784,-0.188237,0.455377,-0.000791928,-0.00137753,0.357936,-0.033571247431228524,0.5767677124234456,-0.000791614507781313,0.2508008172710494,-0.001376581641063801,-0.17158165118354207
867,0.8576,266.638,824.855,-0.00212681,468.989,-0.905666,-1.55182,-0.0341824,0.224005,-0.188422,0.455824,-0.000792974,-0.00137933,0.358291,-0.0336047819271158,0.5774726851405629,-0.0007926596792059426,0.2510772747990979,-0.0013783791615991081,-0.17173489440263834
868,0.8586,266.679,824.991,-0.00214234,469.063,-0.906442,-1.55316,-0.0342171,0.224225,-0.188608,0.456271,-0.000794021,-0.00138112,0.358647,-0.03363831525937622,0.5781779730509251,-0.0007937058487434978,0.2513525420778442,-0.0013801666927005796,-0.17188893738583788
869,0.8596,266.72,825.126,-0.0021579,469.138,-0.90722,-1.5545,-0.0342519,0.224445,-0.188794,0.456718,-0.000795068,-0.00138292,0.359003,-0.033671944060860715,0.5788835762954552,-0.000794752017185818,0.25162786992205355,-0.0013819642067827154,-0.17204295171970707
870,0.8606,266.761,825.261,-0.00217347,469.212,-0.907998,-1.55585,-0.0342866,0.224665,-0.18898,0.457164,-0.000796115,-0.00138472,0.359358,-0.03370547506263555,0.5795879154264338,-0.0007957981845327922,0.25190325834505223,-0.0013837617176294392,-0.1721969374095741
871,0.8616,266.802,825.396,-0.00218907,469.287,-0.908778,-1.55719,-0.0343213,0.224884,-0.189166,0.457611,-0.000797163,-0.00138651,0.359713,-0.03373900490090476,0.5802941490560862,-0.0007968453499875849,0.25217745518208745,-0.0013855492390960622,-0.17235089446076624
872,0.8626,266.842,825.531,-0.00220469,469.361,-0.909559,-1.55854,-0.034356,0.225104,-0.189351,0.458057,-0.000798212,-0.00138831,0.360068,-0.03377253357570886,0.5809991174428297,-0.0007978935135470877,0.2524529645271443,-0.0013873467434897258,-0.17250399538301908
873,0.8636,266.883,825.666,-0.00222033,469.435,-0.910341,-1.55989,-0.0343907,0.225324,-0.189537,0.458503,-0.000799261,-0.00139011,0.360423,-0.03380606108708806,0.5817044003155989,-0.0007989416760070256,0.2527285344909249,-0.0013891442446478663,-0.17265789532673936
874,0.8646,266.924,825.8,-0.00223599,469.509,-0.911124,-1.56125,-0.0344253,0.225543,-0.189722,0.458949,-0.00080031,-0.00139191,0.360778,-0.03383949081903681,0.5824099978146857,-0.0007999898373673986,0.253002912083228,-0.001390941742570484,-0.1728109394590852
875,0.8656,266.965,825.934,-0.00225168,469.583,-0.911909,-1.5626,-0.03446,0.225763,-0.189908,0.459395,-0.00080136,-0.00139371,0.361133,-0.03387301600703996,0.5831159100804448,-0.0008010389968272635,0.2532786030487806,-0.0013927392372575786,-0.17296478231651646
876,0.8666,267.005,826.069,-0.00226739,469.657,-0.912694,-1.56396,-0.0344946,0.225982,-0.190093,0.459841,-0.00080241,-0.00139552,0.361488,-0.033906443422388466,0.5838221372532937,-0.0008020881551855652,0.25355310111928997,-0.0013945467147638002,-0.17311776968002046
877,0.8676,267.046,826.203,-0.00228312,469.731,-0.913481,-1.56532,-0.0345293,0.226202,-0.190278,0.460287,-0.000803461,-0.00139732,0.361842,-0.03393996628717666,0.5845286794737119,-0.0008031383116390289,0.253828913139746,-0.0013963442029619744,-0.17327072874348004
878,0.8686,267.086,826.336,-0.00229887,469.804,-0.914269,-1.56668,-0.0345639,0.226421,-0.190464,0.460732,-0.000804512,-0.00139912,0.362197,-0.03397339138608557,0.5852339516474978,-0.00080418846698882,0.2541035317413629,-0.0013981416879246256,-0.1734244860880575
879,0.8696,267.127,826.47,-0.00231465,469.878,-0.915058,-1.56804,-0.0345985,0.22664,-0.190649,0.461177,-0.000805564,-0.00140093,0.362551,-0.034006815328506135,0.5859395377372423,-0.0008052396204296652,0.2543782104910395,-0.0013999491556524468,-0.17357738841422987
880,0.8706,267.167,826.604,-0.00233045,469.951,-0.915848,-1.56941,-0.0346331,0.226859,-0.190834,0.461622,-0.000806616,-0.00140273,0.362905,-0.034040238114478205,0.5866454378826689,-0.0008062907727646174,0.2546529494019498,-0.0014017466341261775,-0.17373026245608836
881,0.8716,267.208,826.737,-0.00234627,470.025,-0.916639,-1.57077,-0.0346677,0.227078,-0.191019,0.462067,-0.000807669,-0.00140454,0.363259,-0.03407365974404197,0.5873516522235636,-0.0008073429231865159,0.2549277484872703,-0.001403554095329107,-0.173883108218865
882,0.8726,267.248,826.87,-0.00236211,470.098,-0.917431,-1.57214,-0.0347023,0.227297,-0.191204,0.462512,-0.000808722,-0.00140634,0.363613,-0.034107080217237296,0.5880581808997742,-0.0008083950725004119,0.255202607760181,-0.0014053515673140282,-0.17403592570779103
883,0.8736,267.288,827.003,-0.00237798,470.172,-0.918225,-1.57351,-0.0347369,0.227516,-0.191389,0.462957,-0.000809776,-0.00140815,0.363967,-0.03414049953410425,0.5887650240512117,-0.0008094482198970354,0.25547752723386385,-0.001407159021991844,-0.1741887149280964
884,0.8746,267.329,827.136,-0.00239387,470.245,-0.91902,-1.57489,-0.0347714,0.227735,-0.191574,0.463401,-0.00081083,-0.00140996,0.36432,-0.03417382111206979,0.5894705923464607,-0.000810501366183658,0.255752506921505,-0.0014089664733982765,-0.17434147588501048
885,0.8756,267.369,827.269,-0.00240978,470.318,-0.919816,-1.57626,-0.034806,0.227954,-0.191759,0.463845,-0.000811884,-0.00141177,0.364674,-0.03420723811974169,0.5901764739835897,-0.0008115545113601685,0.25602754683629225,-0.001410773921533215,-0.17449420858376152
886,0.8766,267.409,827.402,-0.00242571,470.391,-0.920613,-1.57764,-0.0348405,0.228173,-0.191943,0.46429,-0.000812939,-0.00141358,0.365027,-0.03424055739526577,0.590884259985218,-0.0008126086546140776,0.2563026469914167,-0.0014125813663967701,-0.17464608767607714
887,0.8776,267.449,827.534,-0.00244167,470.464,-0.921411,-1.57902,-0.0348751,0.228391,-0.192128,0.464734,-0.000813995,-0.00141539,0.365381,-0.03427397209390226,0.5915907694301417,-0.0008136637959422766,0.2565765508228939,-0.0014143888079887201,-0.17479876402685912
888,0.8786,267.489,827.667,-0.00245765,470.537,-0.922211,-1.5804,-0.0349096,0.22861,-0.192313,0.465177,-0.000815051,-0.0014172,0.365734,-0.034307289067143976,0.5922960003381119,-0.0008147189361561447,0.2568517712230578,-0.001416196246309287,-0.17495141213512877
889,0.8796,267.529,827.799,-0.00247366,470.609,-0.923011,-1.58178,-0.0349441,0.228828,-0.192497,0.465621,-0.000816108,-0.00141901,0.366087,-0.034340604890969906,0.5930031367349253,-0.0008157750744400838,0.2571257947766665,-0.0014180036813582486,-0.17510320710973004
890,0.8806,267.569,827.931,-0.00248969,470.682,-0.923813,-1.58317,-0.0349786,0.229047,-0.192682,0.466065,-0.000817165,-0.00142083,0.36644,-0.034373919565419686,0.5937105871700101,-0.0008168312116076937,0.25740113547442856,-0.0014198210989377902,-0.17525579890123877
891,0.8816,267.609,828.063,-0.00250574,470.755,-0.924616,-1.58455,-0.0350131,0.229265,-0.192866,0.466508,-0.000818222,-0.00142264,0.366793,-0.03440723309053306,0.5944167573652759,-0.0008178873476588633,0.2576752788024992,-0.0014216285274258889,-0.17540753787382735
892,0.8826,267.649,828.194,-0.00252181,470.827,-0.92542,-1.58594,-0.0350475,0.229483,-0.19305,0.466951,-0.00081928,-0.00142446,0.367145,-0.034440448910399435,0.5951232404632412,-0.0008189444817748859,0.25794948190032985,-0.0014234459384080411,-0.17555924892901342
893,0.8836,267.689,828.326,-0.00253791,470.9,-0.926225,-1.58733,-0.035082,0.229701,-0.193235,0.467394,-0.000820339,-0.00142627,0.367498,-0.03447376014029002,0.5958300366025522,-0.0008200026139523198,0.2582237447809519,-0.0014252533603351658,-0.17571175636058922
894,0.8846,267.729,828.457,-0.00255403,470.972,-0.927032,-1.58873,-0.0351165,0.229919,-0.193419,0.467837,-0.000821398,-0.00142809,0.36785,-0.03450707022096289,0.5965371459219173,-0.0008210607450093166,0.25849806745739934,-0.0014270707647202618,-0.17586341144472328
895,0.8856,267.768,828.589,-0.00257018,471.044,-0.92784,-1.59012,-0.0351509,0.230137,-0.193603,0.46828,-0.000822457,-0.00142991,0.368203,-0.034540282606491,0.5972445685601058,-0.0008221188749456543,0.2587724499427093,-0.0014288881657976704,-0.17601503862688883
896,0.8866,267.808,828.72,-0.00258635,471.116,-0.928649,-1.59152,-0.0351853,0.230355,-0.193787,0.468723,-0.000823517,-0.00143173,0.368555,-0.03457349384953268,0.5979523046559487,-0.0008231780029384073,0.2590468922499216,-0.0014307055635672805,-0.17616663791221954
897,0.8876,267.848,828.851,-0.00260254,471.189,-0.929459,-1.59292,-0.0352197,0.230573,-0.193971,0.469165,-0.000824578,-0.00143355,0.368907,-0.03460670395012733,0.5986587556887837,-0.0008242381289841338,0.25932139439207846,-0.0014325229580294252,-0.17631820930584785
898,0.8886,267.887,828.982,-0.00261876,471.261,-0.93027,-1.59432,-0.0352542,0.230791,-0.194155,0.469607,-0.000825639,-0.00143537,0.369259,-0.03464000944431789,0.5993655190419929,-0.0008252982539050935,0.25959595638222543,-0.0014343403491837714,-0.17646975281290544
899,0.8896,267.927,829.112,-0.002635,471.333,-0.931082,-1.59572,-0.0352885,0.231009,-0.194339,0.47005,-0.0008267,-0.00143719,0.369611,-0.03467312072413231,0.6000741949270472,-0.0008263583777011752,0.259870578233411,-0.0014361577370305412,-0.17662126843852277
900,0.8906,267.966,829.243,-0.00265126,471.404,-0.931896,-1.59713,-0.0353229,0.231226,-0.194523,0.470491,-0.000827762,-0.00143901,0.369963,-0.03470632739762136,0.6007799832618994,-0.0008274194995451234,0.2601439998140562,-0.0014379751215696235,-0.17677275618782973
901,0.8916,268.006,829.373,-0.00266755,471.476,-0.932711,-1.59854,-0.0353573,0.231444,-0.194707,0.470933,-0.000828825,-0.00144083,0.370314,-0.03473953292882037,0.6014876844049322,-0.0008284816194337186,0.26041874115173336,-0.0014397925028010183,-0.1769242160659551
902,0.8926,268.045,829.503,-0.00268387,471.548,-0.933527,-1.59995,-0.0353917,0.231661,-0.19489,0.471375,-0.000829888,-0.00144265,0.370666,-0.034772737317768865,0.60219569842101,-0.0008295437381932169,0.26069228169663905,-0.0014416098807249478,-0.17707482515326323
903,0.8936,268.085,829.633,-0.0027002,471.62,-0.934345,-1.60136,-0.035426,0.231879,-0.195074,0.471817,-0.000830952,-0.00144448,0.371017,-0.034805844045095236,0.6029040254484532,-0.0008306068549931434,0.26096714257279574,-0.0014434372409067864,-0.177226229455812
904,0.8946,268.124,829.763,-0.00271657,471.691,-0.935163,-1.60277,-0.0354604,0.232096,-0.195258,0.472258,-0.000832016,-0.0014463,0.371368,-0.03483904615298061,0.60361106201378,-0.0008316699706618635,0.2612408021337227,-0.0014452546121972443,-0.17737760590253193
905,0.8956,268.163,829.893,-0.00273295,471.763,-0.935983,-1.60419,-0.0354947,0.232313,-0.195441,0.472699,-0.00083308,-0.00144813,0.371719,-0.034872150605952945,0.6043184104509944,-0.0008327330851993775,0.26151452108521767,-0.001447081965709196,-0.1775281320270914
906,0.8966,268.203,830.023,-0.00274936,471.834,-0.936804,-1.60561,-0.035529,0.23253,-0.195625,0.47314,-0.000834145,-0.00144996,0.37207,-0.034905253923462,0.6050260708976631,-0.0008337971977719905,0.26178829944017035,-0.001448909315877156,-0.17767945292884846
907,0.8976,268.242,830.152,-0.0027658,471.905,-0.937626,-1.60703,-0.0355633,0.232748,-0.195808,0.473581,-0.000835211,-0.00145178,0.372421,-0.03493835610554674,0.6057340434914118,-0.0008348623083764828,0.26206339927424094,-0.0014507266772084693,-0.17782992382045604
908,0.8986,268.281,830.282,-0.00278226,471.976,-0.938449,-1.60845,-0.0355976,0.232965,-0.195991,0.474022,-0.000836277,-0.00145361,0.372772,-0.034971457152246144,0.6064423283699283,-0.00083592741784555,0.26233729674868456,-0.0014525540207066534,-0.1779803671784097
909,0.8996,268.32,830.411,-0.00279874,472.048,-0.939274,-1.60987,-0.0356319,0.233182,-0.196175,0.474463,-0.000837344,-0.00145544,0.373123,-0.03500455706359906,0.6071509256709604,-0.0008369935253422778,0.26261125366532934,-0.0014543813608607348,-0.178131604876554
910,0.9006,268.359,830.54,-0.00281525,472.119,-0.9401,-1.6113,-0.0356662,0.233398,-0.196358,0.474903,-0.000838411,-0.00145727,0.373473,-0.03503765583964458,0.6078582276732849,-0.00083805963170136,0.2628840071524372,-0.0014562086976708244,-0.1782819930319257
911,0.9016,268.398,830.669,-0.00283179,472.19,-0.940927,-1.61273,-0.0357005,0.233615,-0.196541,0.475343,-0.000839478,-0.0014591,0.373823,-0.035070753480421546,0.6085658409569674,-0.0008391257369230187,0.2631580827181128,-0.0014580360311369223,-0.17843235366878296
912,0.9026,268.437,830.798,-0.00284835,472.26,-0.941755,-1.61416,-0.0357347,0.233832,-0.196724,0.475784,-0.000840547,-0.00146093,0.374174,-0.03510375349634898,0.609275374933572,-0.0008401938393266528,0.2634322177646393,-0.0014598633612589174,-0.17858268679216127
913,0.9036,268.476,830.926,-0.00286493,472.331,-0.942585,-1.61559,-0.035769,0.234049,-0.196907,0.476224,-0.000841615,-0.00146277,0.374524,-0.035136848870015114,0.609983611899249,-0.0008412609414298888,0.263706412304926,-0.0014617006734199967,-0.17873299240709506
914,0.9046,268.515,831.055,-0.00288154,472.402,-0.943415,-1.61703,-0.0358032,0.234265,-0.19709,0.476663,-0.000842684,-0.0014646,0.374874,-0.03516984662551892,0.610690549866403,-0.0008423290415510154,0.2639794023718496,-0.0014635279968358006,-0.17888327051861797
915,0.9056,268.554,831.183,-0.00289818,472.473,-0.944247,-1.61846,-0.0358374,0.234482,-0.197273,0.477103,-0.000843754,-0.00146644,0.375224,-0.03520284325251888,0.6113994096460595,-0.0008433981396869239,0.26425371566408007,-0.0014653653022539403,-0.17903352113176263
916,0.9066,268.593,831.311,-0.00291484,472.543,-0.945081,-1.6199,-0.0358716,0.234698,-0.197456,0.477543,-0.000844824,-0.00146827,0.375574,-0.035235838751053294,0.6121085813926468,-0.0008444672366789696,0.2645268239612979,-0.001467192618963442,-0.1791837442515608
917,0.9076,268.632,831.439,-0.00293152,472.614,-0.945915,-1.62135,-0.0359058,0.234915,-0.197639,0.477982,-0.000845895,-0.00147011,0.375923,-0.035268833121161136,0.6128164524262016,-0.0008455373316815784,0.26480125605690286,-0.0014690299176387533,-0.17933393988304336
918,0.9086,268.67,831.567,-0.00294823,472.684,-0.946751,-1.62279,-0.03594,0.235131,-0.197821,0.478421,-0.000846966,-0.00147195,0.376273,-0.035301826362880706,0.6135246342833609,-0.000846607425537993,0.2650744826356195,-0.0014708672129334355,-0.1794832875149378
919,0.9096,268.709,831.695,-0.00296497,472.755,-0.947588,-1.62423,-0.0359742,0.235347,-0.198004,0.47886,-0.000848038,-0.00147378,0.376622,-0.03533481847625075,0.6142331271006063,-0.0008476785174007517,0.26534776823765127,-0.0014726945195744356,-0.1796334283350186
920,0.9106,268.748,831.822,-0.00298173,472.825,-0.948426,-1.62568,-0.0360084,0.235563,-0.198187,0.479299,-0.000849111,-0.00147562,0.376972,-0.035367809461309796,0.614941931014479,-0.0008487506072665241,0.26562111287574863,-0.0014745318081261782,-0.17978354168184307
921,0.9116,268.786,831.95,-0.00299851,472.895,-0.949266,-1.62713,-0.0360425,0.235779,-0.198369,0.479738,-0.000850184,-0.00147746,0.377321,-0.03540070285817154,0.6156510461615807,-0.0008498226959819943,0.26589451656266494,-0.0014763690932972917,-0.17993280749365614
922,0.9126,268.825,832.077,-0.00301533,472.965,-0.950106,-1.62859,-0.0360767,0.235995,-0.198551,0.480177,-0.000851257,-0.0014793,0.37767,-0.0354336915900233,0.6163604726785727,-0.0008508947835470515,0.2661679793111562,-0.001478206375087887,-0.1800820461415633
923,0.9136,268.864,832.204,-0.00303217,473.035,-0.950948,-1.63004,-0.0361108,0.236211,-0.198734,0.480615,-0.000852331,-0.00148115,0.378019,-0.035466582740342756,0.6170685936327742,-0.0008519678691097932,0.2664415011339809,-0.0014800536386974095,-0.18023207739884073
924,0.9146,268.902,832.331,-0.00304903,473.105,-0.951792,-1.6315,-0.0361449,0.236427,-0.198916,0.481054,-0.000853405,-0.00148299,0.378368,-0.035499472769093154,0.6177786425897214,-0.0008530409535200123,0.2667150820439004,-0.001481890913708428,-0.18038126158458145
925,0.9156,268.94,832.458,-0.00306592,473.175,-0.952636,-1.63295,-0.0361791,0.236643,-0.199099,0.481492,-0.00085448,-0.00148483,0.378716,-0.03553245812307171,0.6184873848383976,-0.0008541150359236971,0.26698872205367885,-0.0014837281853388173,-0.18053123809044258
926,0.9166,268.979,832.585,-0.00308284,473.245,-0.953482,-1.63442,-0.0362132,0.236859,-0.199281,0.48193,-0.000855556,-0.00148668,0.379065,-0.03556534590550986,0.6191964375841725,-0.0008551901163175168,0.2672624211760837,-0.0014855754387329556,-0.18068036783389185
927,0.9176,269.017,832.712,-0.00309978,473.315,-0.954329,-1.63588,-0.0362473,0.237074,-0.199463,0.482368,-0.000856632,-0.00148852,0.379413,-0.03559823256649364,0.6199058009630738,-0.0008562651955545952,0.26753491188833833,-0.0014874127035838791,-0.18082947043819753
928,0.9186,269.056,832.838,-0.00311675,473.384,-0.955177,-1.63734,-0.0362813,0.23729,-0.199645,0.482805,-0.000857709,-0.00149037,0.379762,-0.03563102166916854,0.6206138544965236,-0.0008573412727774787,0.2678087290004898,-0.001489259950161692,-0.18097854590829843
929,0.9196,269.094,832.965,-0.00313374,473.454,-0.956027,-1.63881,-0.0363154,0.237505,-0.199827,0.483243,-0.000858786,-0.00149222,0.38011,-0.03566390609064707,0.6213238388400137,-0.0008584173488415114,0.26808133718155425,-0.0014911071933221276,-0.18112759424913272
930,0.9206,269.132,833.091,-0.00315076,473.523,-0.956878,-1.64028,-0.0363495,0.237721,-0.200009,0.48368,-0.000859864,-0.00149406,0.380458,-0.03569678939078591,0.6220325121914363,-0.0008594944228870194,0.2683552723343168,-0.0014929444479945264,-0.18127661546563734
931,0.9216,269.17,833.217,-0.00316781,473.593,-0.95773,-1.64175,-0.0363835,0.237936,-0.200191,0.484118,-0.000860942,-0.00149591,0.380806,-0.03572957514258568,0.6227431180430971,-0.0008605714957714561,0.26862799803483095,-0.0014947916843386366,-0.18142560956274845
932,0.9226,269.208,833.343,-0.00318488,473.662,-0.958583,-1.64323,-0.0364176,0.238151,-0.200373,0.484555,-0.000862021,-0.00149776,0.381154,-0.03576245620344798,0.6234524117550704,-0.0008616495666332602,0.26890078237767456,-0.0014966389172653694,-0.18157457654540143
933,0.9236,269.247,833.469,-0.00320198,473.731,-0.959438,-1.6447,-0.0364516,0.238367,-0.200555,0.484992,-0.0008631,-0.00149961,0.381502,-0.035795239722614114,0.624162015496132,-0.0008627276363317726,0.269174894549717,-0.0014984861467746136,-0.18172351641853057
934,0.9246,269.285,833.594,-0.00321911,473.801,-0.960294,-1.64618,-0.0364856,0.238582,-0.200736,0.485429,-0.00086418,-0.00150147,0.381849,-0.03582802212715952,0.6248719294017946,-0.0008638067040032116,0.26944779648795225,-0.0015003433578631986,-0.18187161105908956
935,0.9256,269.323,833.72,-0.00323626,473.87,-0.961151,-1.64766,-0.0365196,0.238797,-0.200918,0.485865,-0.00086526,-0.00150332,0.382197,-0.035860803417122056,0.6255805280262887,-0.0008648857705092494,0.2697207571064122,-0.0015021905805193692,-0.1820204968768564
936,0.9266,269.361,833.845,-0.00325344,473.939,-0.962009,-1.64915,-0.0365536,0.239012,-0.2011,0.486302,-0.000866341,-0.00150517,0.382544,-0.0358935835925398,0.6262910619573927,-0.0008659658349839949,0.26999377641771427,-0.0015040377997580512,-0.18216935559987013
937,0.9276,269.399,833.97,-0.00327065,474.008,-0.962869,-1.65063,-0.0365876,0.239227,-0.201281,0.486738,-0.000867423,-0.00150703,0.382892,-0.035926362653450394,0.6270002794585865,-0.0008670468974241174,0.27026685443447906,-0.001505895000520563,-0.18231736955083988
938,0.9286,269.437,834.095,-0.00328789,474.077,-0.96373,-1.65212,-0.0366216,0.239441,-0.201463,0.487175,-0.000868505,-0.00150888,0.383239,-0.035959140599891914,0.6277114339566503,-0.000868127958694509,0.2705387206299734,-0.0015077422129061713,-0.18246617424794342
939,0.9296,269.475,834.22,-0.00330515,474.146,-0.964593,-1.65361,-0.0366555,0.239656,-0.201644,0.487611,-0.000869588,-0.00151074,0.383586,-0.03599182103108922,0.628421270875059,-0.0008692100179259477,0.27081191582233965,-0.0015095994067784169,-0.18261413447959973
940,0.9306,269.512,834.345,-0.00332243,474.214,-0.965456,-1.6551,-0.0366895,0.239871,-0.201825,0.488047,-0.000870671,-0.0015126,0.383933,-0.03602459675198377,0.6291314173498423,-0.0008702920759855459,0.271085169757987,-0.0015114565971963145,-0.18276206793287753
941,0.9316,269.55,834.47,-0.00333975,474.283,-0.966321,-1.65659,-0.0367234,0.240086,-0.202007,0.488482,-0.000871755,-0.00151445,0.38428,-0.03605727496425504,0.629840243674938,-0.0008713751320019725,0.2713584824495465,-0.001513303799293042,-0.18291079170224012
942,0.9326,269.588,834.594,-0.00335709,474.352,-0.967188,-1.65809,-0.0367574,0.2403,-0.202188,0.488918,-0.000872839,-0.00151631,0.384626,-0.03609004845975361,0.6305510089567521,-0.0008724581868443382,0.27163058227843395,-0.0015151609828207846,-0.18305867146541976
943,0.9336,269.626,834.719,-0.00337446,474.42,-0.968055,-1.65959,-0.0367913,0.240515,-0.202369,0.489354,-0.000873924,-0.00151817,0.384973,-0.0361227244532496,0.6312620841997958,-0.0008735422396390913,0.2719040122462921,-0.0015170181628941792,-0.18320652446478447
944,0.9346,269.663,834.843,-0.00339186,474.489,-0.968924,-1.66109,-0.0368252,0.240729,-0.20255,0.489789,-0.00087501,-0.00152003,0.385319,-0.03615539933904821,0.6319718375665881,-0.0008746272903830121,0.27217622883104853,-0.001518875339513226,-0.18335435070517803
945,0.9356,269.701,834.967,-0.00340928,474.557,-0.969794,-1.66259,-0.0368591,0.240943,-0.202731,0.490224,-0.000876095,-0.0015219,0.385666,-0.03618807311718697,0.6326818997432562,-0.0008757113408243145,0.27244850367638773,-0.001520742497470473,-0.18350215019144334
946,0.9366,269.739,835.091,-0.00342674,474.625,-0.970666,-1.6641,-0.036893,0.241158,-0.202912,0.490659,-0.000877182,-0.00152376,0.386012,-0.0362207457877034,0.6333922708641617,-0.0008767973883357927,0.272722109516252,-0.0015225996671622832,-0.18364992292842253
947,0.9376,269.776,835.215,-0.00344422,474.694,-0.971539,-1.66561,-0.0369269,0.241372,-0.203093,0.491094,-0.000878269,-0.00152562,0.386358,-0.03625341735063503,0.6341029510637244,-0.0008778834346667708,0.2729945011925583,-0.0015244568333997455,-0.18379766892095684
948,0.9386,269.814,835.339,-0.00346172,474.762,-0.972413,-1.66712,-0.0369608,0.241586,-0.203274,0.491529,-0.000879357,-0.00152749,0.386704,-0.036286087806019496,0.634813940476423,-0.0008789704789382569,0.273266951166921,-0.001526323980919675,-0.1839453881738865
949,0.9396,269.851,835.462,-0.00347926,474.83,-0.973288,-1.66863,-0.0369946,0.2418,-0.203455,0.491963,-0.000880445,-0.00152935,0.38705,-0.03631866078576529,0.6355236037123728,-0.0008800575220270224,0.27353945945181724,-0.0015281811402299006,-0.18409308069205088
950,0.9406,269.889,835.586,-0.00349682,474.898,-0.974165,-1.67014,-0.0370285,0.242014,-0.203636,0.492398,-0.000881534,-0.00153122,0.387396,-0.03635132902943472,0.6362352112434047,-0.000881145563051966,0.27381202605972677,-0.001530048280785401,-0.18424074648028865
951,0.9416,269.926,835.709,-0.00351441,474.966,-0.975043,-1.67166,-0.0370623,0.242228,-0.203816,0.492832,-0.000882624,-0.00153309,0.387741,-0.03638389980406431,0.636945491444739,-0.0008822346020097571,0.27408465100313206,-0.001531915417849361,-0.18438756993141514
952,0.9426,269.963,835.832,-0.00353203,475.034,-0.975923,-1.67318,-0.0370961,0.242442,-0.203997,0.493266,-0.000883714,-0.00153496,0.388087,-0.0364164694778204,0.6376560799745834,-0.0008833236397804978,0.27435733429451825,-0.0015337825514217807,-0.18453518242192424
953,0.9436,270.001,835.955,-0.00354968,475.101,-0.976804,-1.6747,-0.0371299,0.242655,-0.204177,0.4937,-0.000884804,-0.00153683,0.388432,-0.03644903805074007,0.6383669769667812,-0.000884412676364188,0.27462880131693446,-0.00153564968150266,-0.18468195287935074
954,0.9446,270.038,836.078,-0.00356736,475.169,-0.977686,-1.67622,-0.0371637,0.242869,-0.204358,0.494134,-0.000885895,-0.0015387,0.388777,-0.036481605522860616,0.6390781825552343,-0.0008855027108753966,0.2749016010689487,-0.0015375168080918877,-0.1848295120913681
955,0.9456,270.075,836.201,-0.00358506,475.237,-0.978569,-1.67775,-0.0371975,0.243083,-0.204538,0.494568,-0.000886987,-0.00154057,0.389123,-0.03651417189421913,0.6397896968739021,-0.0008865937433106819,0.27517445920635675,-0.0015393839311897972,-0.184976229574222
956,0.9466,270.112,836.324,-0.00360279,475.304,-0.979454,-1.67928,-0.0372313,0.243296,-0.204719,0.495001,-0.000888079,-0.00154244,0.389468,-0.036546737164852905,0.6404998795561034,-0.0008876847745545868,0.2754461002949167,-0.0015412510507960553,-0.1851237355269777
957,0.9476,270.15,836.446,-0.00362055,475.372,-0.98034,-1.68081,-0.0372651,0.24351,-0.204899,0.495435,-0.000889172,-0.00154432,0.389813,-0.03657930133479914,0.6412120110251815,-0.0008887768037183497,0.27571907496762793,-0.0015431281514796114,-0.18527040005437934
958,0.9486,270.187,836.568,-0.00363834,475.439,-0.981227,-1.68234,-0.0372989,0.243723,-0.205079,0.495868,-0.000890266,-0.00154619,0.390157,-0.03661186440409514,0.6419228097027636,-0.0008898698307986397,0.27599083207170017,-0.001544995264084137,-0.18541703818454192
959,0.9496,270.224,836.691,-0.00365616,475.507,-0.982116,-1.68388,-0.0373326,0.243936,-0.20526,0.496301,-0.00089136,-0.00154807,0.390502,-0.03664433003721568,0.6426339162228161,-0.0008909628566832195,0.27626264706620085,-0.001546872357728657,-0.18556446435815932
960,0.9506,270.261,836.813,-0.00367401,475.574,-0.983006,-1.68542,-0.0373664,0.244149,-0.20544,0.496734,-0.000892454,-0.00154994,0.390847,-0.03667689090857862,0.6433453307186638,-0.0008920558813719781,0.27653451996346146,-0.001548739463331561,-0.18571104956151085
961,0.9516,270.298,836.935,-0.00369188,475.641,-0.983898,-1.68696,-0.0374001,0.244363,-0.20562,0.497167,-0.00089355,-0.00155182,0.391191,-0.03670935435034295,0.6440570533236889,-0.0008931509030786211,0.2768077275829064,-0.001550616549936934,-0.18585760838190013
962,0.9526,270.335,837.057,-0.00370979,475.708,-0.984791,-1.6885,-0.0374338,0.244576,-0.2058,0.4976,-0.000894645,-0.0015537,0.391535,-0.03674181669810772,0.6447690841713318,-0.0008942449244794259,0.277079716594683,-0.001552493633013352,-0.18600414082407601
963,0.9536,270.372,837.178,-0.00372772,475.775,-0.985685,-1.69004,-0.0374675,0.244789,-0.20598,0.498032,-0.000895742,-0.00155558,0.39188,-0.036774277951909795,0.6454797779144896,-0.0008953409428915649,0.27735176354628943,-0.0015543707125608153,-0.18615064689278593
964,0.9546,270.409,837.3,-0.00374568,475.842,-0.98658,-1.69159,-0.0375012,0.245002,-0.20616,0.498465,-0.000896839,-0.00155746,0.392224,-0.03680673811178603,0.6461924249352722,-0.0008964369601013322,0.27762386845006826,-0.0015562477885794346,-0.18629712659277675
965,0.9556,270.445,837.421,-0.00376367,475.909,-0.987477,-1.69314,-0.0375349,0.245215,-0.206339,0.498897,-0.000897936,-0.00155934,0.392568,-0.036839197177773286,0.6469037336944738,-0.0008975329761088391,0.2778960313183647,-0.00155812486106921,-0.18644276637196755
966,0.9566,270.482,837.543,-0.00378169,475.976,-0.988376,-1.69469,-0.0375686,0.245427,-0.206519,0.499329,-0.000899034,-0.00156123,0.392912,-0.03687165514990853,0.6476153498054429,-0.0008986299900154426,0.27816697399591317,-0.001560011914429893,-0.1865891934951841
967,0.9576,270.519,837.664,-0.00379974,476.043,-0.989275,-1.69624,-0.0376023,0.24564,-0.206699,0.499761,-0.000900133,-0.00156311,0.393256,-0.03690411202822852,0.6483272734009835,-0.0008997280018177012,0.2784392525580117,-0.0015618889798431068,-0.18673559426389053
968,0.9586,270.556,837.785,-0.00381782,476.11,-0.990176,-1.6978,-0.0376359,0.245853,-0.206879,0.500193,-0.000901233,-0.00156499,0.393599,-0.0369364715064221,0.6490395046139581,-0.0009008270115123951,0.278711589121621,-0.0015637660417273658,-0.18688196868283014
969,0.9596,270.593,837.906,-0.00383593,476.176,-0.991078,-1.69936,-0.0376696,0.246065,-0.207058,0.500624,-0.000902332,-0.00156688,0.393943,-0.036968926200467656,0.6497503938260674,-0.0009019250209001406,0.27898270471575226,-0.001565653084426244,-0.1870275037846557
970,0.9606,270.629,838.027,-0.00385407,476.243,-0.991982,-1.70092,-0.0377032,0.246278,-0.207238,0.501056,-0.000903433,-0.00156877,0.394286,-0.03700128350094156,0.6504632399598789,-0.0009030250272751283,0.2792551570469999,-0.0015675401235587527,-0.18717382566461016
971,0.9616,270.666,838.147,-0.00387224,476.31,-0.992887,-1.70248,-0.0377368,0.24649,-0.207417,0.501487,-0.000904534,-0.00157065,0.394629,-0.03703363971422857,0.6511747429341785,-0.0009041250324390848,0.2795263878897474,-0.0015694171748188435,-0.18731930852871137
972,0.9626,270.702,838.268,-0.00389044,476.376,-0.993794,-1.70405,-0.0377704,0.246703,-0.207597,0.501918,-0.000905636,-0.00157254,0.394973,-0.03706599484036499,0.6518865526323541,-0.0009052260354865949,0.2797989560378453,-0.001571304206837154,-0.1874655778885389
973,0.9636,270.739,838.388,-0.00390866,476.442,-0.994702,-1.70562,-0.0378041,0.246915,-0.207776,0.50235,-0.000906738,-0.00157443,0.395316,-0.037098445169547745,0.652600321786128,-0.0009063270373208532,0.28007030217819984,-0.0015731912352889843,-0.18761100853366586
974,0.9646,270.776,838.509,-0.00392692,476.509,-0.995611,-1.70719,-0.0378376,0.247127,-0.207955,0.50278,-0.000907841,-0.00157632,0.395659,-0.03713070183133249,0.6533110927292971,-0.0009074290370344462,0.2803417058500344,-0.001575078260174223,-0.18775641314903702
975,0.9656,270.812,838.629,-0.00394521,476.575,-0.996522,-1.70876,-0.0378712,0.24734,-0.208135,0.503211,-0.000908945,-0.00157821,0.396002,-0.037163053696236514,0.654023823392688,-0.0009085320346239323,0.28061444767935395,-0.0015769652814930923,-0.18790260383711355
976,0.9666,270.848,838.749,-0.00396352,476.641,-0.997434,-1.71034,-0.0379048,0.247552,-0.208314,0.503642,-0.000910049,-0.00158011,0.396344,-0.03719540447413627,0.6547368613092037,-0.0009096350309957257,0.2808859667222636,-0.0015788622834569388,-0.18804795626159654
977,0.9676,270.885,838.869,-0.00398187,476.707,-0.998347,-1.71192,-0.0379384,0.247764,-0.208493,0.504072,-0.000911154,-0.001582,0.396687,-0.03722775416506807,0.6554485511619188,-0.0009107390252389713,0.28115754333331244,-0.0015807492976239734,-0.1881932826703242
978,0.9686,270.921,838.989,-0.00400025,476.773,-0.999262,-1.7135,-0.0379719,0.247976,-0.208672,0.504503,-0.000912259,-0.0015839,0.397029,-0.037260006495073994,0.6561622032684513,-0.0009118430182624149,0.281429177524706,-0.0015826462923981266,-0.1883385830679526
979,0.9696,270.958,839.108,-0.00401866,476.839,-1.00018,-1.71508,-0.0380055,0.248188,-0.208851,0.504933,-0.000913365,-0.00158579,0.397372,-0.03729235401541431,0.6568745061500008,-0.0009129480091529807,0.2817008693086527,-0.0015845332994134376,-0.18848385745913754
980,0.9706,270.994,839.228,-0.0040371,476.905,-1.0011,-1.71666,-0.038039,0.248399,-0.20903,0.505363,-0.000914472,-0.00158769,0.397714,-0.03732460418136152,0.6575871153876514,-0.0009140539979073381,0.281971336725386,-0.0015864302869980085,-0.18862910584853365
981,0.9716,271.03,839.347,-0.00405556,476.971,-1.00201,-1.71825,-0.0380725,0.248611,-0.209209,0.505793,-0.000915579,-0.00158959,0.398056,-0.037356853266946266,0.6583000311131642,-0.0009151599854374526,0.2822431434592674,-0.0015883272709783514,-0.18877432824079488
982,0.9726,271.066,839.466,-0.00407406,477.037,-1.00293,-1.71984,-0.038106,0.248823,-0.209388,0.506223,-0.000916687,-0.00159149,0.398398,-0.03738910127220474,0.6590132534583575,-0.0009162669708269178,0.2825150078222851,-0.0015902242513544662,-0.18891952464057438
983,0.9736,271.103,839.586,-0.00409259,477.102,-1.00386,-1.72143,-0.0381395,0.249034,-0.209566,0.506652,-0.000917795,-0.00159339,0.39874,-0.03742134819717313,0.6597251228291534,-0.0009173739549898086,0.2827856470403689,-0.001592121228126242,-0.18906388411681374
984,0.9746,271.139,839.705,-0.00411115,477.168,-1.00478,-1.72303,-0.038173,0.249246,-0.209745,0.507082,-0.000918904,-0.00159529,0.399082,-0.03745359404188764,0.6604389580955532,-0.0009184819370077202,0.2830576264263378,-0.0015940182012937898,-0.18920902869072997
985,0.9756,271.175,839.824,-0.00412975,477.234,-1.0057,-1.72462,-0.0382065,0.249457,-0.209924,0.507511,-0.000920014,-0.00159719,0.399424,-0.03748583880638434,0.6611514392248514,-0.000919590916877322,0.28332838014902695,-0.0015959151708571095,-0.18935414728609257
986,0.9766,271.211,839.942,-0.00414837,477.299,-1.00663,-1.72622,-0.03824,0.249669,-0.210102,0.50794,-0.000921124,-0.00159909,0.399765,-0.037518082490699656,0.6618642260741259,-0.0009206998955159085,0.2836004746066121,-0.0015978121368160902,-0.18949842940638595
987,0.9776,271.247,840.061,-0.00416702,477.364,-1.00756,-1.72783,-0.0382734,0.24988,-0.210281,0.508369,-0.000922235,-0.001601,0.400107,-0.03755022884989723,0.6625773187745594,-0.0009218098720017442,0.28387134288235205,-0.0015997190831738006,-0.1896434962036565
988,0.9786,271.283,840.18,-0.00418571,477.43,-1.00849,-1.72943,-0.0383069,0.250091,-0.210459,0.508798,-0.000923346,-0.0016029,0.400448,-0.03758247037718221,0.6632907174573901,-0.0009229198472543443,0.2841422683173287,-0.0016016160419054515,-0.18978772682442624
989,0.9796,271.319,840.298,-0.00420442,477.495,-1.00942,-1.73104,-0.0383403,0.250303,-0.210638,0.509227,-0.000924459,-0.00160481,0.400789,-0.03761461458586035,0.6640044222539123,-0.0009240318194257968,0.2844145353374963,-0.0016035229809976403,-0.1899327418420934
990,0.9806,271.355,840.416,-0.00422317,477.56,-1.01035,-1.73265,-0.0383737,0.250514,-0.210816,0.509656,-0.000925571,-0.00160671,0.40113,-0.03764675772093984,0.664718433295477,-0.0009251427912846388,0.2846855753981734,-0.0016054199325018503,-0.19007692098172135
991,0.9816,271.391,840.534,-0.00424195,477.625,-1.01128,-1.73426,-0.0384072,0.250725,-0.210994,0.510084,-0.000926685,-0.00160862,0.401471,-0.037678996014561705,0.6654310852815737,-0.000926255760055672,0.2849566726543371,-0.0016073268643287397,-0.19022107445974645
992,0.9826,271.427,840.652,-0.00426076,477.691,-1.01222,-1.73587,-0.0384406,0.250936,-0.211172,0.510512,-0.000927799,-0.00161053,0.401812,-0.03771113699933737,0.6661440423480027,-0.0009273687275868081,0.28522782711805705,-0.0016092337925133204,-0.19036520228073606
993,0.9836,271.462,840.77,-0.0042796,477.756,-1.01315,-1.73749,-0.038474,0.251147,-0.211351,0.51094,-0.000928914,-0.00161244,0.402153,-0.03774327691062207,0.6668573046253667,-0.0009284826929496504,0.28549903880140537,-0.0016111407170555925,-0.19051011393954742
994,0.9846,271.498,840.888,-0.00429847,477.82,-1.01409,-1.73911,-0.0385073,0.251357,-0.211529,0.511369,-0.000930029,-0.00161435,0.402494,-0.03777531952598845,0.6675725398160302,-0.0009295966570704861,0.28576902194679166,-0.0016130476379557779,-0.1906541903160882
995,0.9856,271.534,841.006,-0.00431738,477.885,-1.01503,-1.74073,-0.0385407,0.251568,-0.211707,0.511796,-0.000931145,-0.00161627,0.402834,-0.03780745729361257,0.6682847453355889,-0.0009307116190184761,0.286040347834297,-0.0016149645390640677,-0.1907982410493163
996,0.9866,271.57,841.123,-0.00433631,477.95,-1.01597,-1.74236,-0.0385741,0.251779,-0.211885,0.512224,-0.000932261,-0.00161818,0.403175,-0.03783959398785319,0.6689989240299308,-0.0009318265797221281,0.28631173097760465,-0.001616871452660651,-0.19094226614379584
997,0.9876,271.605,841.241,-0.00435528,478.015,-1.01691,-1.74398,-0.0386074,0.251989,-0.212063,0.512652,-0.000933379,-0.0016201,0.403515,-0.03787163339591426,0.6697134084581764,-0.0009329435373156558,0.28658188480626934,-0.0016187883464272579,-0.19108626560409014
998,0.9886,271.641,841.358,-0.00437428,478.08,-1.01785,-1.74561,-0.0386408,0.2522,-0.212241,0.513079,-0.000934496,-0.00162201,0.403855,-0.03790376794670891,0.6704265283238442,-0.0009340594945944636,0.2868533822259338,-0.001620695252720461,-0.19123023943476158
999,0.9896,271.677,841.475,-0.00439332,478.144,-1.0188,-1.74724,-0.0386741,0.252411,-0.212418,0.513507,-0.000935615,-0.00162393,0.404195,-0.0379358052178127,0.6711416238975034,-0.0009351774487563747,0.2871249369375981,-0.0016226121391453852,-0.19137337901415508
