,Time,S11,S22,S33,S12,S13,S23,LE11,LE22,LE33,LE12,LE13,LE23,SDV_EPBAR,E11,E12,E13,E22,E23,E33
0,1e-05,0.0695815,0.969146,3.33067e-16,0.259682,4.88733e-18,-1.44471e-17,-1.06457e-06,4.56457e-06,-1.5e-06,3.24999e-06,3.81679e-22,-2.11884e-22,0.0,-1.0645694333843991e-06,3.2499952811182453e-06,0.0,4.5645804176430715e-06,0.0,-1.4999988749986315e-06
1,2e-05,0.139163,1.93829,0.0,0.519362,-1.52486e-17,8.46512e-18,-2.12914e-06,9.12912e-06,-3e-06,6.49996e-06,-1.78122e-28,-6.64761e-28,0.0,-2.1291377333421124e-06,6.499981124896692e-06,0.0,9.129161670617947e-06,0.0,-2.9999955000192813e-06
2,3.5e-05,0.243534,3.39199,3.33067e-16,0.908881,2.69777e-18,-2.26187e-17,-3.72599e-06,1.59759e-05,-5.24997e-06,1.13749e-05,7.08557e-22,-6.2831e-22,0.0,-3.725983058533444e-06,1.1374964694388368e-05,0.0,1.597602761527206e-05,0.0,-5.249956218977836e-06
3,5.75e-05,0.400089,5.57252,4.44089e-16,1.49315,1.09485e-18,4.08605e-18,-6.12124e-06,2.6246e-05,-8.6249e-06,1.86872e-05,7.08561e-22,-6.28321e-22,0.0,-6.121221265198429e-06,1.868737460686276e-05,0.0,2.6246344429381452e-05,0.0,-8.624862805617362e-06
4,9.125e-05,0.634919,8.84328,-1.77636e-15,2.36955,4.5746e-17,-2.53948e-17,-9.71407e-06,4.16509e-05,-1.36872e-05,2.96556e-05,-1.03741e-21,-5.98943e-22,0.0,-9.714022818574364e-06,2.965603973170694e-05,0.0,4.1651767410888496e-05,0.0,-1.3687106330650955e-05
5,0.00014188,0.987156,13.7493,-7.54952e-15,3.68411,4.37127e-17,9.77644e-17,-1.51032e-05,6.47577e-05,-2.12805e-05,4.61077e-05,-3.15879e-26,-1.17888e-25,0.0,-1.5103085947210104e-05,4.6108762976393436e-05,0.0,6.475979682507571e-05,0.0,-2.1280273571733233e-05
6,0.00021781,1.51549,21.1081,-4.79616e-14,5.6559,-1.52495e-17,8.46197e-18,-2.31866e-05,9.94169e-05,-3.26701e-05,7.07852e-05,-3.27279e-21,8.76933e-22,0.0,-2.31863311929148e-05,7.078770533142098e-05,0.0,9.942184202382798e-05,0.0,-3.266956633807272e-05
7,0.00033172,2.30796,32.1458,-2.50466e-13,8.61344,-9.81389e-17,-3.93904e-17,-3.53112e-05,0.000151403,-4.97538e-05,0.0001078,-3.71127e-21,-7.59304e-22,0.0,-3.531057656691594e-05,0.00010780581062874717,0.0,0.00015141446201272224,0.0,-4.9752562300220404e-05
8,0.00050258,3.49659,48.7012,-1.2772e-12,13.0494,3.26105e-17,-7.44173e-17,-5.34968e-05,0.000229377,-7.53773e-05,0.000163317,5.66893e-21,-5.02663e-21,0.0,-5.3495369071732135e-05,0.00016333033694726495,0.0,0.0002294033089156322,0.0,-7.537445920269281e-05
9,0.00075887,5.27933,73.5315,-6.47837e-12,19.7027,-9.81343e-17,-3.93734e-17,-8.07724e-05,0.000346325,-0.000113808,0.000246585,-1.75392e-21,-6.54573e-21,0.0,-8.076913799748286e-05,0.00024661540458015274,0.0,0.0003463849774265615,0.0,-0.00011380152411522015
10,0.0011433,7.95301,110.771,-3.27542e-11,29.681,3.26173e-17,-7.43918e-17,-0.000121679,0.00052172,-0.000171446,0.000371467,2.26779e-20,-2.01089e-20,0.0,-0.00012167159741072187,0.00037153600240991125,0.0,0.0005218561195503568,0.0,-0.00017143130397445638
11,0.00172,11.9626,166.617,-1.65601e-10,44.6449,1.02665e-16,1.87028e-16,-0.000183024,0.000784749,-0.000257882,0.000558744,-2.6189e-20,7.01431e-21,0.0,-0.00018300725212949676,0.0005589001265056126,0.0,0.000785056996057687,0.0,-0.0002578487512951977
12,0.0025849,17.9748,250.356,-8.37561e-10,67.0827,1.00856e-15,-6.1605e-16,-0.000275009,0.00117915,-0.000387489,0.000839559,5.2385e-20,-1.40293e-20,0.0,-0.00027497118849117985,0.0008399115283064251,0.0,0.001179845470689056,0.0,-0.00038741393583330286
13,0.0035849,24.9222,347.122,-1.84632e-09,93.0109,6.54932e-17,-2.04366e-15,-0.000381303,0.0016349,-0.000537258,0.00116406,9.07587e-20,-8.04122e-20,0.0,-0.0003812303132499917,0.0011647377808088333,0.0,0.0016362371776228457,0.0,-0.0005371137027634365
14,0.0045849,31.8662,443.839,-2.10354e-09,118.926,1.53193e-15,-7.54748e-16,-0.000487544,0.00209043,-0.000686952,0.0014884,4.5382e-20,-4.02276e-20,0.0,-0.0004874251697364329,0.0014895082170351959,0.0,0.002092616472082698,0.0,-0.000686716102494711
15,0.0055849,32.9579,471.104,-0.321975,125.21,-0.0768025,-0.231113,-0.000645845,0.00253753,-0.000921913,0.00185714,-1.73107e-06,-2.75012e-06,0.000373001,-0.0006456364870094378,0.0018588655525220155,-1.7310685016536098e-06,0.0025407522541962546,-2.750116218419585e-06,-0.0009214881687726884
16,0.0065849,33.6641,482.549,-0.206173,127.855,-0.0876597,-0.341629,-0.000811122,0.00297963,-0.00117531,0.00224544,-2.9454e-06,-4.14118e-06,0.000829936,-0.0008107931294746296,0.0022479628883749214,-2.9453956623681776e-06,0.0029840735097106386,-4.141171425331436e-06,-0.0011746195937089032
17,0.0075849,34.351,492.973,-0.0496942,130.218,-0.0782171,-0.444637,-0.000977098,0.00342158,-0.00142975,0.00263347,-3.72228e-06,-5.96431e-06,0.00129205,-0.000976620795187122,0.0026369406280499774,-3.7222730723263098e-06,0.0034274402867553455,-5.964292213556099e-06,-0.0014287283944069973
18,0.0085849,34.81,502.259,-0.105524,132.445,-0.124154,-0.570889,-0.00114401,0.00386295,-0.00168569,0.00302292,-5.23228e-06,-8.61649e-06,0.00175887,-0.0011433558700274515,0.003027493630074707,-5.232266311661071e-06,0.0038704208080397873,-8.616452878196235e-06,-0.001684270022604628
19,0.0095849,35.3743,511.01,0.0091779,134.441,-0.121122,-0.65447,-0.00131119,0.00430436,-0.00194186,0.00341135,-6.03046e-06,-1.10958e-05,0.00222888,-0.0013103307659726449,0.0034171752765468355,-6.030441816795573e-06,0.004313637063335651,-1.109573844182421e-05,-0.0019399758096787512
20,0.010585,35.7296,518.892,-0.0861213,136.352,-0.170511,-0.769316,-0.00147913,0.00474524,-0.00219923,0.00380091,-7.57673e-06,-1.43947e-05,0.00270227,-0.001478036626368584,0.003808142619022181,-7.57670129669652e-06,0.004756516480809214,-1.439459639684948e-05,-0.0021968134655332427
21,0.011585,36.2318,526.489,0.0335307,138.072,-0.163599,-0.83607,-0.00164718,0.00518623,-0.00245644,0.00418915,-8.3382e-06,-1.73461e-05,0.00317775,-0.0016458241435725052,0.00419793675425395,-8.338165237264938e-06,0.005199701769970311,-1.7345949557268092e-05,-0.0024534254201465933
22,0.012585,36.5176,533.35,-0.0807567,139.751,-0.214313,-0.94112,-0.00181587,0.00562668,-0.00271473,0.00457856,-9.93698e-06,-2.11336e-05,0.00365582,-0.0018142223055553908,0.00458905762105144,-9.936930628340335e-06,0.005642539495393839,-2.1133376687076932e-05,-0.0027110484527360645
23,0.013585,36.9799,540.088,0.04962,141.26,-0.201697,-0.993911,-0.00198456,0.00606728,-0.0029726,0.00496642,-1.06622e-05,-2.44476e-05,0.00413528,-0.001982592062848232,0.004978773105578593,-1.0662143158923776e-05,0.006085723224501516,-2.4447301159913337e-05,-0.0029681861991912584
24,0.014585,37.2112,546.164,-0.0799694,142.761,-0.253954,-1.09136,-0.00215385,0.00650733,-0.00323152,0.00535554,-1.23305e-05,-2.86294e-05,0.00461685,-0.002151532129502476,0.005369906539754998,-1.2330423979745042e-05,0.0065285486725297215,-2.8628990182633096e-05,-0.0032263042590144897
25,0.015585,37.6453,552.237,0.0620595,144.105,-0.235696,-1.13275,-0.00232302,0.00694757,-0.00348984,0.00574292,-1.30282e-05,-3.22368e-05,0.00509929,-0.0023203238771596357,0.005759442178437046,-1.302811513337332e-05,0.006971760353394307,-3.2236280399944306e-05,-0.003483757585994951
26,0.016585,37.8318,557.689,-0.0813069,145.467,-0.289815,-1.22446,-0.00249278,0.00738722,-0.0037492,0.00613169,-1.4774e-05,-3.67499e-05,0.00558353,-0.0024896756039969326,0.006150527292926977,-1.4773890865016348e-05,0.007414572821951904,-3.674922473073661e-05,-0.003742180524892169
27,0.017585,38.2453,563.23,0.0722405,146.677,-0.266281,-1.25638,-0.00266235,0.0078271,-0.0040078,0.00651853,-1.54508e-05,-4.06015e-05,0.00606828,-0.002658809089317038,0.006539821855404471,-1.5450680637019154e-05,0.007857811823083649,-4.060067577027482e-05,-0.003999779488026878
28,0.018585,38.3942,568.174,-0.0836552,147.926,-0.322384,-1.3437,-0.00283249,0.00826636,-0.00426746,0.00690689,-1.72753e-05,-4.53988e-05,0.0065546,-0.0028284822850305202,0.006930797575371628,-1.7275150782869453e-05,0.008300620692497152,-4.539776949008534e-05,-0.004258367331372415
29,0.019585,38.792,573.281,0.0807161,149.026,-0.29405,-1.36766,-0.00300236,0.00870589,-0.00452625,0.00729316,-1.79364e-05,-4.94583e-05,0.00704115,-0.0029978574244599043,0.007319819863533583,-1.7936239143701016e-05,0.008743896473675905,-4.9457076958470125e-05,-0.004516021967831074
30,0.020585,38.9089,577.803,-0.0863402,150.182,-0.352082,-1.45152,-0.00317281,0.00914477,-0.0047861,0.00768108,-1.98366e-05,-5.45022e-05,0.00752912,-0.0031677819574322807,0.007710655169570035,-1.9836403255979462e-05,0.009186711159107075,-5.450071478207974e-05,-0.0047746648738878905
31,0.021585,39.294,582.547,0.0877288,151.189,-0.319494,-1.46874,-0.00334293,0.00958395,-0.00504499,0.00806676,-2.04871e-05,-5.87425e-05,0.00801709,-0.003337348630615411,0.008099383972699492,-2.0486890140780645e-05,0.00963002311866168,-5.874077469314454e-05,-0.005032285411769255
32,0.022585,39.3839,586.711,-0.0889091,152.267,-0.379258,-1.54974,-0.00351363,0.0100224,-0.00530496,0.00845421,-2.2457e-05,-6.40018e-05,0.00850637,-0.003507464425408058,0.008490047755473906,-2.245674784351337e-05,0.010072792461313984,-6.399975192850071e-05,-0.005290913549295673
33,0.023585,39.7582,591.147,0.0933837,153.196,-0.343012,-1.56129,-0.00368396,0.0104613,-0.00556389,0.00883931,-2.31023e-05,-6.84024e-05,0.00899548,-0.0036771825445385264,0.008878492063015386,-2.3102033143929113e-05,0.010516210710941998,-6.840006060915282e-05,-0.005548440230919716
34,0.024585,39.8252,595.008,-0.0910479,154.206,-0.404194,-1.63979,-0.00385486,0.0108994,-0.00582393,0.00922627,-2.51344e-05,-7.38506e-05,0.00948581,-0.0038474395651648674,0.009268963227792693,-2.5134084133626722e-05,0.010959014852019333,-7.38478731115988e-05,-0.005807003794630505
35,0.025585,40.1897,599.178,0.0977278,155.067,-0.364926,-1.6466,-0.00402535,0.0113379,-0.00608285,0.00961078,-2.57803e-05,-7.83958e-05,0.00997583,-0.0040172591385124745,0.009657111855575717,-2.577996769093094e-05,0.011402417588977087,-7.839272712961698e-05,-0.0060643869229503045
36,0.026585,40.2377,602.776,-0.0925407,156.019,-0.427126,-1.72281,-0.00419642,0.0117756,-0.0063429,0.00999723,-2.78659e-05,-8.40095e-05,0.010467,-0.004187627333132715,0.01004736924908034,-2.78655117493809e-05,0.011845205324182428,-8.400597130076015e-05,-0.006322826274097859
37,0.027585,40.5928,606.713,0.10079,156.822,-0.3855,-1.72572,-0.00436704,0.0122137,-0.00660178,0.0103812,-2.85185e-05,-8.86878e-05,0.0109578,-0.004357518346342681,0.010435271604118723,-2.8518093351470597e-05,0.012288591825356354,-8.86838673532786e-05,-0.006580036126152322
38,0.028585,40.6251,610.083,-0.0932476,157.721,-0.448253,-1.79969,-0.00453824,0.0126511,-0.0068618,0.0107671,-3.06482e-05,-9.44463e-05,0.0114496,-0.004527957749172584,0.010825273821518655,-3.064773034866519e-05,0.012731463704440005,-9.444184008866596e-05,-0.006838311605308567
39,0.029585,40.9708,613.815,0.102603,158.474,-0.404942,-1.79948,-0.00470898,0.0130889,-0.00712063,0.0111505,-3.13142e-05,-9.92485e-05,0.0119409,-0.004697910136418293,0.011212898534411098,-3.131370971554137e-05,0.013174934607947275,-9.924357503054981e-05,-0.007095338380560756
40,0.030585,40.9907,616.985,-0.0930904,159.327,-0.467745,-1.87118,-0.00488028,0.0135259,-0.00738058,0.0115359,-3.34782e-05,-0.000105133,0.0124333,-0.004868390782327703,0.011602695094478532,-3.347763961136785e-05,0.013617788810966758,-0.00010512747371982378,-0.007353410402984317
41,0.031585,41.3265,620.532,0.103213,160.035,-0.42342,-1.86855,-0.00505111,0.0139633,-0.00763932,0.0119187,-3.41643e-05,-0.000110053,0.0129251,-0.005038374595549566,0.011990010733644363,-3.416371640696525e-05,0.01406124220798044,-0.00011004694439076257,-0.007610214557390527
42,0.032585,41.3369,623.528,-0.0920421,160.847,-0.485755,-1.9379,-0.00522249,0.0143999,-0.00789918,0.0123035,-3.63529e-05,-0.000116047,0.0134179,-0.005208876508185245,0.01237949942259231,-3.635223924136621e-05,0.014504078010349808,-0.00011604026680733792,-0.007868063463276287
43,0.033585,41.6622,626.908,0.102687,161.516,-0.441065,-1.93349,-0.00539339,0.0148369,-0.00815783,0.0126858,-3.70657e-05,-0.000121078,0.0139101,-0.005378871784679773,0.012766606095947486,-3.706501307543242e-05,0.014947513175967098,-0.0001210706703548281,-0.008124645204797387
44,0.034585,41.6659,629.749,-0.0901188,162.29,-0.502422,-2.00036,-0.00556483,0.0152732,-0.00841757,0.0130701,-3.92695e-05,-0.000127167,0.0144032,-0.005549375014946567,0.013155887098223795,-3.926872896331535e-05,0.015390431391548498,-0.0001271589146197849,-0.008382241453978811
45,0.035585,41.9801,632.976,0.101113,162.924,-0.457979,-1.99476,-0.00573579,0.0157099,-0.00867611,0.0134518,-4.00153e-05,-0.000132306,0.0148957,-0.005719371762057945,0.013542682515538473,-4.001449939861068e-05,0.01583394922800818,-0.00013229724794716624,-0.008638581170810178
46,0.036585,41.9794,635.681,-0.0873718,163.663,-0.517871,-2.05902,-0.00590727,0.0161458,-0.00893571,0.0138355,-4.22256e-05,-0.000138476,0.015389,-0.0058898563864188125,0.013931653462123439,-4.2224708511895415e-05,0.016276847769200797,-0.00013846641264125825,-0.00889590519303507
47,0.037585,42.2818,638.768,0.0985953,164.266,-0.474239,-2.05274,-0.00607827,0.0165821,-0.00919413,0.0142167,-4.301e-05,-0.000143718,0.0158817,-0.0060598346874177755,0.014318237886733254,-4.300907508325569e-05,0.016720346100008054,-0.00014370767306293164,-0.009151993222655586
48,0.038585,42.2788,641.352,-0.0838798,164.973,-0.532221,-2.11425,-0.00624978,0.0170176,-0.00945357,0.0145999,-4.52187e-05,-0.000149958,0.0163752,-0.00623029074729331,0.014706999117386044,-4.521767764997797e-05,0.017163224240450026,-0.00014994675686108572,-0.009409025485867084
49,0.039585,42.5688,644.309,0.0952551,165.55,-0.489902,-2.10774,-0.00642081,0.0174535,-0.00971186,0.0149806,-4.60469e-05,-0.000155301,0.016868,-0.0064002406469868545,0.015093371613288165,-4.6045839857788984e-05,0.017606702338925917,-0.00015528894142391447,-0.00966485218851254
50,0.040585,42.5654,646.784,-0.0797425,166.227,-0.545583,-2.16639,-0.00659233,0.0178887,-0.00997113,0.0153632,-4.82468e-05,-0.0001616,0.0173616,-0.006570648263136136,0.015481820642828215,-4.824563614180821e-05,0.018049661156631203,-0.0001615869434232753,-0.009921583099535836
51,0.041585,42.8425,649.62,0.0912227,166.779,-0.505009,-2.16003,-0.00676339,0.0183242,-0.0102293,0.0157434,-4.9123e-05,-0.00016704,0.0178546,-0.006740569754244752,0.01586798023532343,-4.912179348515178e-05,0.018493118339857784,-0.00016702604959595302,-0.010177158652037277
52,0.042585,42.8402,652.0,-0.0750728,167.428,-0.558058,-2.21574,-0.00693491,0.0187591,-0.0104884,0.0161254,-5.13082e-05,-0.000173389,0.0183482,-0.00691091900215135,0.016256115932971715,-5.130688375676318e-05,0.018936157328868886,-0.00017337396899608226,-0.010433588528305449
53,0.043585,43.104,654.723,0.0866345,167.959,-0.51959,-2.20985,-0.00710598,0.0191942,-0.0107464,0.0165051,-5.22357e-05,-0.000178924,0.0188412,-0.007080792220717669,0.016642061647348605,-5.223433573953162e-05,0.01937959291333846,-0.00017890799405573254,-0.010688863730548115
54,0.044585,43.1042,657.016,-0.0699913,168.581,-0.569743,-2.26254,-0.00727748,0.0196287,-0.0110053,0.0168865,-5.4401e-05,-0.000185315,0.0193349,-0.007251063263692514,0.017029882882469094,-5.4399520292403025e-05,0.019822609584861484,-0.00018529783023601976,-0.01094496323021743
55,0.045585,43.3545,659.633,0.0816271,169.093,-0.533664,-2.25738,-0.00744856,0.0200635,-0.0112631,0.0172658,-5.53824e-05,-0.000190941,0.0198279,-0.007420888224548006,0.017415715485573857,-5.538086642320472e-05,0.020266124868744573,-0.00019092277192744866,-0.011199908754806587
56,0.046585,43.3581,661.848,-0.0646199,169.69,-0.580728,-2.30703,-0.00762004,0.0204976,-0.0115218,0.0176465,-5.75239e-05,-0.000197367,0.0203215,-0.007591081097881314,0.017803119386112787,-5.7522245532237726e-05,0.02070911853836943,-0.00019734752441491477,-0.011455678253200707
57,0.047585,43.5948,664.366,0.0763332,170.184,-0.547245,-2.3028,-0.00779112,0.020932,-0.0117795,0.0180253,-5.85605e-05,-0.000203082,0.0208145,-0.00776084789346132,0.018188736238957226,-5.855878536742409e-05,0.0211526108990292,-0.00020306138024650533,-0.011710393303471012
58,0.048585,43.6026,666.511,-0.0590773,170.759,-0.591093,-2.34941,-0.00796257,0.0213657,-0.012038,0.0184055,-6.06753e-05,-0.000209538,0.0213081,-0.007930952713437578,0.01857592519643192,-6.067345929117174e-05,0.021595580837463935,-0.00020951604844654526,-0.011965833149779503
59,0.049585,43.8258,668.935,0.070878,171.237,-0.560342,-2.34624,-0.00813364,0.0217997,-0.0122956,0.0187839,-6.17678e-05,-0.000215337,0.021801,-0.008100651449761576,0.018961427258916697,-6.17658924086939e-05,0.022039049545296008,-0.0002153138166522961,-0.012220317972107764
60,0.050585,43.8383,671.015,-0.0534749,171.789,-0.600913,-2.38985,-0.00830505,0.0222331,-0.0125538,0.0191635,-6.3854e-05,-0.000221818,0.0222944,-0.008270658346239301,0.01934829844020869,-6.385196137670412e-05,0.022482097270876134,-0.0002217934002063382,-0.012475329762568377
61,0.051585,44.0482,673.352,0.0653756,172.254,-0.572963,-2.38785,-0.00847611,0.0226667,-0.0128112,0.0195414,-6.50021e-05,-0.000227698,0.0227873,-0.008440289058494144,0.019733582957113693,-6.499998740927548e-05,0.022925541640044456,-0.0002276720787778297,-0.012729485901389226
62,0.052585,44.0658,675.373,-0.0479134,172.785,-0.610255,-2.42853,-0.00864747,0.0230998,-0.0130692,0.0199204,-6.70587e-05,-0.000234201,0.0232806,-0.008610188173189148,0.020120135232083447,-6.705645161564355e-05,0.023368666643921676,-0.00023417357708666042,-0.012984168838515053
63,0.053585,44.2627,677.627,0.0599269,173.236,-0.585114,-2.42772,-0.00881852,0.023533,-0.0133265,0.0202978,-6.82615e-05,-0.000240158,0.0237734,-0.008779750898236682,0.020505201228502967,-6.825917023678407e-05,0.023812085988007325,-0.0002401291643758796,-0.013238095342827272
64,0.054585,44.2854,679.594,-0.0424809,173.748,-0.619178,-2.46557,-0.00898983,0.0239657,-0.0135843,0.0206763,-7.02883e-05,-0.000246679,0.0242665,-0.008949542295212942,0.02089153555632728,-7.028582983537035e-05,0.024255185335244622,-0.0002466485772371074,-0.01349244977415287
65,0.055585,44.4699,681.77,0.0546184,174.187,-0.596801,-2.46598,-0.00916084,0.0243985,-0.0138413,0.0210533,-7.1544e-05,-0.000252709,0.0247592,-0.009119007343463048,0.021276484223496483,-7.154144078902469e-05,0.02469857892290883,-0.00025267707177023535,-0.01374594963843312
66,0.056585,44.4977,683.687,-0.0372518,174.681,-0.627735,-2.50111,-0.0093321,0.0248309,-0.0140989,0.0214311,-7.35416e-05,-0.000259247,0.0252521,-0.009288691091831391,0.0216623953732622,-7.35388958827965e-05,0.025141754396067473,-0.0002592133984002931,-0.013999975961811129
67,0.057585,44.6703,685.79,0.0495212,175.109,-0.608031,-2.5027,-0.00950309,0.0252633,-0.0143558,0.0218076,-7.48481e-05,-0.000265346,0.0257446,-0.00945807833636636,0.022047123685680292,-7.484529895085412e-05,0.025585121539736688,-0.000265310798863716,-0.014253246833950017
68,0.058585,44.703,687.66,-0.0322856,175.585,-0.635969,-2.53525,-0.00967428,0.0256953,-0.0146131,0.0221849,-7.68174e-05,-0.000271899,0.0262374,-0.009627634694345466,0.022432814821504277,-7.681444961904482e-05,0.02602827002542285,-0.00027186203881690574,-0.014506846846498944
69,0.059585,44.8644,689.694,0.044691,176.002,-0.618815,-2.53798,-0.00984523,0.0261273,-0.0148698,0.022561,-7.81722e-05,-0.000278063,0.0267297,-0.00979692437974633,0.02281742412440435,-7.816914463321112e-05,0.02647160999261211,-0.00027802434406698495,-0.0147597904722101
70,0.060585,44.9018,691.52,-0.0276278,176.462,-0.64392,-2.5681,-0.0100164,0.026559,-0.0151269,0.0229377,-8.01148e-05,-0.000284629,0.0272223,-0.009966402934964202,0.023202792027559482,-8.011159089515996e-05,0.026914833449545483,-0.00028458849700907507,-0.015013063170479235
71,0.061585,45.0526,693.489,0.0401691,176.87,-0.629162,-2.57189,-0.0101873,0.0269906,-0.0153834,0.0233134,-8.15149e-05,-0.000290853,0.0277144,-0.010135585219664622,0.02358728153835643,-8.151157775082574e-05,0.027358145551532376,-0.0002908107063667176,-0.015265679920292818
72,0.062585,45.0943,695.274,-0.0233099,177.314,-0.651618,-2.59975,-0.0103583,0.0274219,-0.0156403,0.0236895,-8.34326e-05,-0.000297432,0.0282067,-0.010304837563104297,0.02397232511784919,-8.34291195974668e-05,0.027801340687869658,-0.0002973877714878004,-0.015518625674847963
73,0.063585,45.2353,697.182,0.0359829,177.712,-0.639085,-2.60451,-0.0105292,0.0278532,-0.0158966,0.0240647,-8.48749e-05,-0.000303713,0.0286987,-0.010473962014268756,0.024356591618120982,-8.487129822754014e-05,0.02824472701549663,-0.0003036668838756196,-0.015770915918711714
74,0.064585,45.2809,698.927,-0.0193513,178.143,-0.659091,-2.63027,-0.0107002,0.0282841,-0.0161532,0.0244403,-8.67698e-05,-0.000310305,0.0291907,-0.010643156500223516,0.024741412218717507,-8.676603560975327e-05,0.028687893141652543,-0.0003102568603828848,-0.016023436701884886
75,0.065585,45.4128,700.778,0.0321479,178.532,-0.648598,-2.6359,-0.010871,0.028715,-0.0164094,0.024815,-8.8251e-05,-0.000316638,0.0296825,-0.01081212421883937,0.025125454771754985,-8.824710599508734e-05,0.02913125026924024,-0.0003165878754790574,-0.016275499206816257
76,0.066585,45.4619,702.486,-0.0157599,178.948,-0.666359,-2.65973,-0.0110419,0.0291455,-0.0166657,0.0251901,-9.01255e-05,-0.000323241,0.0301743,-0.010981161982122067,0.025510051456438587,-9.012143881914625e-05,0.02957438665074341,-0.0003231887632564323,-0.016527595488850966
77,0.067585,45.5855,704.283,0.0286686,179.329,-0.657716,-2.66613,-0.0112127,0.029576,-0.0169217,0.0255644,-9.16423e-05,-0.000329623,0.0306658,-0.011150071974331599,0.025893971714892716,-9.163810097267966e-05,0.030017713843528027,-0.0003295686803074238,-0.01677933220073191
78,0.068585,45.6376,705.955,-0.0125345,179.733,-0.67344,-2.68819,-0.0113835,0.0300062,-0.0171778,0.0259389,-9.34985e-05,-0.000336238,0.0311573,-0.011318953119177966,0.02627824095722442,-9.349412915149458e-05,0.030460922791432754,-0.00033618147833880396,-0.017031102773157447
79,0.069585,45.7536,707.701,0.0255409,180.106,-0.666456,-2.69527,-0.0115542,0.0304363,-0.0174336,0.0263127,-9.50478e-05,-0.000342664,0.0316486,-0.011487706570363687,0.026661935471731457,-9.504328310094845e-05,0.03090421935841836,-0.0003426052973968252,-0.017282514060193543
80,0.070585,45.8083,709.339,-0.00966575,180.498,-0.680347,-2.71571,-0.011725,0.0308662,-0.0176895,0.0266867,-9.6888e-05,-0.000349291,0.0321399,-0.01165653005214573,0.027045978847232588,-9.68833065093655e-05,0.03134750035874467,-0.0003492300050005337,-0.017533959291056056
81,0.071585,45.9173,711.038,0.0227533,180.862,-0.674836,-2.72335,-0.0118956,0.0312959,-0.017945,0.02706,-9.84665e-05,-0.000355758,0.0326309,-0.01182512706638461,0.02742944668095415,-9.846165233329263e-05,0.03179076560836713,-0.0003556947256263543,-0.017784947299373743
82,0.072585,45.9741,712.643,-0.0071382,181.243,-0.68709,-2.74234,-0.0120663,0.0317254,-0.0182007,0.0274335,-0.000100293,-0.000362397,0.0331219,-0.011993794121051726,0.027813263252572273,-0.00010028797082517471,0.03223401492317235,-0.0003623313421388108,-0.01803606758125309
83,0.073585,46.0769,714.297,0.0202889,181.6,-0.682872,-2.75045,-0.0122369,0.0321547,-0.018456,0.0278064,-0.000101898,-0.000368901,0.0336126,-0.01216233360294805,0.028196606288306114,-0.00010189280857508809,0.03267724811897721,-0.0003688329643924959,-0.01828673097465594
84,0.074585,46.1354,715.869,-0.00493179,181.97,-0.693677,-2.76811,-0.0124075,0.0325838,-0.0187114,0.0281794,-0.000103712,-0.000375552,0.0341033,-0.0123308443344613,0.028580195157328347,-0.00010370662209646664,0.033120465011528655,-0.0003754814891747671,-0.018537428528124678
85,0.075585,46.2325,717.482,0.0181266,182.32,-0.690583,-2.7766,-0.012578,0.0330128,-0.0189666,0.0285518,-0.000105341,-0.000382091,0.0345937,-0.012499227570423543,0.028963309753515132,-0.00010533545183166737,0.03356376877287648,-0.00038201801253012757,-0.018787865819206773
86,0.076585,46.2924,719.023,-0.00302321,182.68,-0.700113,-2.79308,-0.0127485,0.0334415,-0.0192218,0.0289242,-0.000107146,-0.000388753,0.0350841,-0.01266758209949137,0.029346567048146532,-0.0001071402600723026,0.034006952550204694,-0.00038867744534354376,-0.019038239206846552
87,0.077585,46.3844,720.596,0.0162427,183.023,-0.697987,-2.80186,-0.012919,0.0338701,-0.0194767,0.0292962,-0.000108795,-0.000395323,0.0355743,-0.012835907926558865,0.02972955520246834,-0.00010878908203859616,0.03445022291612143,-0.00039524487015862864,-0.019288254493870727
88,0.078585,46.4452,722.108,-0.00138724,183.374,-0.706402,-2.81728,-0.0130894,0.0342985,-0.0197316,0.0296681,-0.000110592,-0.000401997,0.0360644,-0.013004106356934941,0.030112582843623503,-0.00011058588493018107,0.03489347632972084,-0.0004019162100321605,-0.0195382060601198
89,0.079585,46.5327,723.643,0.014612,183.71,-0.705102,-2.82626,-0.0132598,0.0347267,-0.0199864,0.0300397,-0.000112259,-0.000408595,0.0365543,-0.013172276128740168,0.03049544381057001,-0.00011225269919423742,0.0353367126063997,-0.0004085115364309555,-0.01978799590063851
90,0.080585,46.5942,725.126,2.2532e-06,184.052,-0.712548,-2.84074,-0.0134301,0.0351547,-0.0202411,0.0304111,-0.00011405,-0.000415281,0.0370441,-0.013340318580894572,0.030878240899420595,-0.00011404349654597912,0.035779931561485734,-0.00041519478278073674,-0.020037624106581164
91,0.081585,46.6775,726.626,0.0132091,184.381,-0.711943,-2.84986,-0.0136004,0.0355826,-0.0204956,0.0307821,-0.000115733,-0.000421905,0.0375336,-0.013508332417855984,0.031260767681124735,-0.00011572630319467425,0.03622323663255678,-0.00042181601060098384,-0.02028699279773405
92,0.082585,46.7394,728.081,0.00117136,184.715,-0.718553,-2.86349,-0.0137707,0.0360102,-0.02075,0.0311531,-0.000117519,-0.000428602,0.0380231,-0.013676317644497171,0.03164343640659362,-0.00011751209491284165,0.03666642043448487,-0.00042851016328371294,-0.02053620008625523
93,0.083585,46.8191,729.548,0.0120084,185.038,-0.718528,-2.87268,-0.0139409,0.0364376,-0.0210043,0.0315237,-0.000119217,-0.000435249,0.0385124,-0.013844175650112533,0.03202583431808237,-0.00011920989393587877,0.03710958636039097,-0.0004351542928948682,-0.020785246063035223
94,0.084585,46.881,730.975,0.00214548,185.364,-0.724418,-2.88555,-0.014111,0.0368649,-0.0212586,0.0318941,-0.000120998,-0.000441958,0.0390015,-0.014011906489922121,0.032408167490846074,-0.00012099068003723623,0.03755283798060716,-0.0004418603509492858,-0.021034228715475334
95,0.085585,46.9575,732.411,0.0109857,185.68,-0.724872,-2.89477,-0.0142812,0.037292,-0.0215126,0.0322642,-0.000122709,-0.000448626,0.0394905,-0.014179707383176421,0.032790332468901395,-0.0001227014715585728,0.03799607144347683,-0.0004485253824031421,-0.021282854444577337
96,0.086585,47.0193,733.812,0.00294878,185.998,-0.730146,-2.90696,-0.0144512,0.0377189,-0.0217666,0.0326342,-0.000124488,-0.000455346,0.0399793,-0.014347282588625276,0.03317253559513289,-0.00012448025169042864,0.03843928656391249,-0.00045524234574356726,-0.021531417030763556
97,0.087585,47.0928,735.217,0.010118,186.309,-0.730988,-2.91616,-0.0146213,0.0381456,-0.0220205,0.0330039,-0.000126209,-0.000462033,0.0404679,-0.014514927857222637,0.03355457009626872,-0.00012620103597915655,0.0388824831567578,-0.0004619262791902834,-0.021779818668057227
98,0.088585,47.1543,736.593,0.00360378,186.62,-0.735736,-2.92774,-0.0147913,0.0385721,-0.0222742,0.0333734,-0.000127986,-0.000468763,0.0409564,-0.01468244608003455,0.03393653907434202,-0.00012797781014128873,0.03932566103678914,-0.0004686531477904321,-0.022027961649792926
99,0.089585,47.2252,737.97,0.00938401,186.924,-0.736891,-2.93687,-0.0149612,0.0389985,-0.0225279,0.0337425,-0.000129717,-0.000475468,0.0414447,-0.014849837312157721,0.034318235488654425,-0.00012970858711369715,0.03976892399560206,-0.00047535498300321777,-0.022276041685639236
100,0.090585,47.2863,739.32,0.00413119,187.229,-0.741191,-2.9479,-0.0151311,0.0394246,-0.0227814,0.0341116,-0.000131493,-0.000482208,0.0419328,-0.01501720010692631,0.03470007281311638,-0.00013148435517440493,0.04021206393837673,-0.00048209175640767654,-0.022523863296355584
101,0.091585,47.3547,740.67,0.00876438,187.528,-0.742592,-2.95694,-0.015301,0.0398506,-0.0230348,0.0344803,-0.000133232,-0.000488929,0.0424208,-0.015184534469171562,0.035081637067010396,-0.00013322312501118372,0.04065528867778112,-0.0004888094936940091,-0.0227715243694131
102,0.092585,47.4153,741.997,0.00454972,187.826,-0.746512,-2.96748,-0.0154708,0.0402764,-0.0232881,0.0348488,-0.000135008,-0.000495679,0.0429086,-0.015351741938902763,0.03546313493693498,-0.00013499888683010663,0.04109849405142785,-0.0004955561714597989,-0.02301902499501285
103,0.093585,47.4816,743.321,0.00824169,188.119,-0.748104,-2.9764,-0.0156406,0.040702,-0.0235413,0.0352171,-0.000136754,-0.000502414,0.0433962,-0.015518921019215925,0.03584456624579624,-0.00013674464959800847,0.04154167987374935,-0.0005022878112201923,-0.023266365263284627
104,0.094585,47.5414,744.625,0.00487608,188.411,-0.7517,-2.98649,-0.0158103,0.0411274,-0.0237943,0.0355852,-0.00013853,-0.000509173,0.0438836,-0.015685973283533494,0.036225930816474516,-0.000138520405162601,0.041984845959110784,-0.0005090433934263894,-0.02351344761563756
105,0.095585,47.6058,745.924,0.00780051,188.699,-0.753436,-2.99527,-0.01598,0.0415526,-0.0240473,0.035953,-0.000140282,-0.00051592,0.0443709,-0.01585299720148703,0.03660712481110706,-0.00014027216094036898,0.042427992121810254,-0.0005157869361611667,-0.02376046746406235
106,0.096585,47.6649,747.205,0.005125,188.985,-0.756757,-3.00495,-0.0161496,0.0419777,-0.0243001,0.0363206,-0.000142059,-0.000522688,0.044858,-0.016019894379880828,0.036988251637006364,-0.0001420489100980582,0.042871222463195746,-0.000522551422424189,-0.024007229625836013
107,0.097585,47.7275,748.481,0.00742732,189.267,-0.758598,-3.01357,-0.0163192,0.0424025,-0.0245528,0.0366879,-0.000143817,-0.000529447,0.0453449,-0.016186763254913417,0.03736920738007199,-0.00014380665883095833,0.043314328267507474,-0.0005293068676690549,-0.024253831839407547
108,0.098585,47.7858,749.74,0.00530932,189.548,-0.761685,-3.02287,-0.0164887,0.0428272,-0.0248054,0.0370551,-0.000145593,-0.000536223,0.0458317,-0.01635350546674008,0.03775019929885737,-0.00014558240185347238,0.04375751796739391,-0.0005360792581408091,-0.024500274194505067
109,0.099585,47.8467,750.993,0.00711041,189.825,-0.763599,-3.03132,-0.0166582,0.0432517,-0.0250579,0.037422,-0.000147356,-0.000542992,0.0463183,-0.016520219418156956,0.03813101970421151,-0.0001473451436379003,0.044200687089762436,-0.0005428446065229853,-0.024746556780785967
110,0.1006,47.9042,752.232,0.00544013,190.101,-0.766486,-3.04029,-0.0168276,0.043676,-0.0253103,0.0377886,-0.000149134,-0.000549775,0.0468047,-0.01668680678263934,0.03851166830466046,-0.00014912288007784547,0.044643835448570535,-0.0005496239014159965,-0.024992679687837027
111,0.1016,47.9636,753.463,0.00683971,190.373,-0.768447,-3.04855,-0.016997,0.0441001,-0.0255625,0.0381551,-0.000150901,-0.000556554,0.0472909,-0.016853365929612285,0.03889235258722756,-0.00015088961501674714,0.04508696285770952,-0.0005563991525509016,-0.02523854552903393
112,0.1026,48.0202,754.681,0.00552691,190.644,-0.771162,-3.0572,-0.0171664,0.044524,-0.0258147,0.0385213,-0.000152679,-0.000563344,0.0477769,-0.01701989686385541,0.039272864634248617,-0.00015266734515462232,0.04553006913100455,-0.0005631853515614127,-0.025484349370684223
113,0.1036,48.0781,755.891,0.00660669,190.911,-0.773149,-3.06528,-0.0173357,0.0449478,-0.0260667,0.0388873,-0.00015445,-0.000570131,0.0482628,-0.017186301308782737,0.03965330811961554,-0.00015443807321280367,0.04597325867953428,-0.0005699685062038329,-0.025729896374420913
114,0.1046,48.1338,757.089,0.00557767,191.177,-0.775716,-3.07363,-0.0175049,0.0453714,-0.0263186,0.039253,-0.00015623,-0.000576928,0.0487485,-0.01735257931908485,0.040033578862662234,-0.00015621779672903013,0.04641642680829383,-0.0005767616090415206,-0.02597528410564187
115,0.1056,48.1905,758.28,0.00640416,191.44,-0.777711,-3.08152,-0.0176741,0.0457947,-0.0265704,0.0396186,-0.000158003,-0.000583722,0.049234,-0.017518829197527785,0.04041388465475726,-0.00015799051818343735,0.04685946864495105,-0.0005835516674572716,-0.0262205126535342
116,0.1066,48.2453,759.459,0.00559916,191.701,-0.780149,-3.0896,-0.0178432,0.0462179,-0.0268221,0.0399839,-0.000159784,-0.000590524,0.0497193,-0.017684952717371027,0.04079401727381726,-0.0001597712352165992,0.047302593330651455,-0.0005903496750188086,-0.026465582107214836
117,0.1076,48.3007,760.63,0.00622612,191.959,-0.78214,-3.09729,-0.0180123,0.0466409,-0.0270737,0.0403489,-0.00016156,-0.000597325,0.0502044,-0.01785104814810201,0.041173976428449555,-0.0001615469498860156,0.047745696037245766,-0.0005971466369375511,-0.026710492555730214
118,0.1086,48.3546,761.79,0.00559698,192.215,-0.784465,-3.10511,-0.0181814,0.0470638,-0.0273251,0.0407138,-0.000163342,-0.000604132,0.0506894,-0.01801711549447027,0.04155397013808426,-0.00016332866042179095,0.04818888139703925,-0.000603949549006666,-0.02695514678357669
119,0.1096,48.4089,762.943,0.00606762,192.469,-0.78644,-3.11261,-0.0183504,0.0474864,-0.0275764,0.0410784,-0.000165121,-0.000610938,0.0511741,-0.018183056579535117,0.041933789952541156,-0.00016510736827801686,0.0486319396299284,-0.0006107514153792515,-0.027199642233050048
120,0.1106,48.4619,764.085,0.00557578,192.721,-0.788666,-3.12018,-0.0185193,0.0479089,-0.0278277,0.0414428,-0.000166904,-0.00061775,0.0516587,-0.01834887145781816,0.042313539811822176,-0.0001668900723023059,0.04907508023128204,-0.0006175592317531065,-0.02744407624853651
121,0.1116,48.5151,765.22,0.00592457,192.971,-0.790618,-3.12749,-0.0186882,0.0483311,-0.0280788,0.041807,-0.000168685,-0.000624561,0.0521431,-0.018514658332333234,0.042693219538503024,-0.00016867077348536874,0.049518093243621886,-0.0006243660023766973,-0.027688254383142707
122,0.1126,48.5672,766.345,0.00553935,193.219,-0.792755,-3.13482,-0.018857,0.0487532,-0.0283298,0.0421709,-0.000170469,-0.000631377,0.0526273,-0.018680319075846663,0.04307272464785972,-0.00017045447098562594,0.049961188339421314,-0.0006311777234836446,-0.027932274005548874
123,0.1136,48.6193,767.462,0.00579366,193.465,-0.794677,-3.14194,-0.0190258,0.0491751,-0.0285806,0.0425347,-0.000172252,-0.000638192,0.0531114,-0.018845951858186494,0.04345226353902509,-0.00017223716547598578,0.0504042604242656,-0.0006379883988001378,-0.028176038021942795
124,0.1146,48.6705,768.57,0.00549081,193.708,-0.796733,-3.14905,-0.0191946,0.0495968,-0.0288314,0.0428982,-0.000174037,-0.000645011,0.0535952,-0.019011556684072395,0.04383162738202273,-0.00017402185643988766,0.05084730931117876,-0.0006448030251227088,-0.028419740909987334
125,0.1156,48.7216,769.67,0.00567221,193.95,-0.798621,-3.15598,-0.0193633,0.0500184,-0.029082,0.0432615,-0.000175821,-0.00065183,0.0540788,-0.019177035475931192,0.044210920306638535,-0.00017580554439378115,0.05129043994215765,-0.0006516176049765621,-0.028663188417668573
126,0.1166,48.772,770.762,0.00543264,194.19,-0.800605,-3.16288,-0.0195319,0.0504397,-0.0293326,0.0436245,-0.000177607,-0.000658652,0.0545623,-0.019342388288116186,0.0445900376763495,-0.00017759122881044753,0.05173344191631868,-0.000658435136386637,-0.028906574925048
127,0.1176,48.8222,771.846,0.00555808,194.428,-0.802456,-3.16961,-0.0197005,0.0508609,-0.029583,0.0439874,-0.000179393,-0.000665474,0.0550456,-0.01950771322416711,0.04496918819372264,-0.00017937691003788725,0.05217652534887396,-0.000665252621287693,-0.029149706277371124
128,0.1186,48.8717,772.922,0.00536688,194.664,-0.804372,-3.17631,-0.019869,0.0512819,-0.0298333,0.04435,-0.00018118,-0.000672297,0.0555287,-0.019672912256079478,0.04534816272529185,-0.00018116358789499465,0.05261958492354246,-0.000672071059007906,-0.029392679696497948
129,0.1196,48.921,773.99,0.00544955,194.898,-0.806183,-3.18286,-0.0200375,0.0517027,-0.0300834,0.0447124,-0.000182966,-0.000679121,0.0560116,-0.01983808345430016,0.04572706555250883,-0.0001829492627422047,0.05306262045301624,-0.0006788904495271808,-0.029635398234087562
130,0.1206,48.9696,775.051,0.00529513,195.13,-0.808037,-3.18937,-0.0202059,0.0521233,-0.0303335,0.0450746,-0.000184754,-0.000685947,0.0564943,-0.020003128823836258,0.04610589649779473,-0.0001847369340307603,0.05350563174992362,-0.0006857117921397204,-0.029878056075361314
131,0.1216,49.018,776.104,0.00534527,195.361,-0.809807,-3.19574,-0.0203743,0.0525438,-0.0305835,0.0454365,-0.000186541,-0.000692772,0.0569768,-0.020168146402072318,0.046484550735088837,-0.00018652360230941856,0.05394872402169559,-0.0006925320888824249,-0.03012055624755794
132,0.1226,49.0659,777.149,0.00521868,195.589,-0.811603,-3.20205,-0.0205426,0.052964,-0.0308333,0.0457983,-0.000188329,-0.000699599,0.0574591,-0.020333038226996503,0.04686323734582176,-0.00018831126720708635,0.05439168633539371,-0.0006993543376780931,-0.030362801874868728
133,0.1236,49.1134,778.188,0.00524419,195.816,-0.81333,-3.20824,-0.0207109,0.0533841,-0.031083,0.0461598,-0.000190117,-0.000706426,0.0579413,-0.02049790230296178,0.047241746817587194,-0.00019009892890842206,0.05483472933749001,-0.0007061765398984621,-0.030604890057273182
134,0.1246,49.1605,779.219,0.00513853,196.042,-0.815072,-3.21437,-0.0208791,0.053804,-0.0313326,0.0465211,-0.000191905,-0.000713253,0.0584232,-0.02066264070090673,0.04762018362120446,-0.00019188658741331466,0.05527774744548131,-0.000712998695543754,-0.0308468208824918
135,0.1256,49.2073,780.243,0.00514547,196.265,-0.816756,-3.22039,-0.0210472,0.0542237,-0.0315821,0.0468822,-0.000193694,-0.00072008,0.058905,-0.020827253474913654,0.04799854757901123,-0.000193675242528224,0.055720740471668195,-0.0007198208046143018,-0.031088594438176353
136,0.1266,49.2535,781.259,0.00505549,196.487,-0.818446,-3.22634,-0.0212154,0.0546432,-0.0318315,0.0472431,-0.000195483,-0.000726908,0.0593866,-0.02099193648065012,0.04837683851332564,-0.00019546389444335954,0.05616370822828687,-0.0007266438663838803,-0.03133021081190934
137,0.1276,49.2995,782.269,0.00504849,196.707,-0.820087,-3.23219,-0.0213834,0.0550626,-0.0320808,0.0476037,-0.000197272,-0.000733735,0.0598679,-0.021156396020333257,0.04875495137094443,-0.00019725254315849927,0.056606756188180674,-0.0007334658822992779,-0.03157167009120421
138,0.1286,49.345,783.273,0.00497017,196.926,-0.821727,-3.23797,-0.0215514,0.0554817,-0.0323299,0.0479642,-0.000199061,-0.000740562,0.0603491,-0.02132082793313439,0.049133095687331485,-0.0001990411886737542,0.057049672886410274,-0.0007402878516408196,-0.03181287554479795
139,0.1296,49.3902,784.269,0.00495275,197.143,-0.823327,-3.24366,-0.0217194,0.0559007,-0.0325789,0.0483244,-0.00020085,-0.000747388,0.0608301,-0.021485232223694584,0.04951106149595352,-0.00020082983098912432,0.05749266950065923,-0.0007471087751561578,-0.03205392412699337
140,0.1306,49.435,785.259,0.00488307,197.359,-0.824919,-3.24927,-0.0218873,0.0563195,-0.0328278,0.0486844,-0.000202639,-0.000754215,0.0613109,-0.02164951106160984,0.049888953494570565,-0.00020261847010460965,0.057935640182232406,-0.0007539306513580923,-0.032294815925050235
141,0.1316,49.4795,786.242,0.00485789,197.572,-0.826476,-3.25479,-0.0220551,0.0567381,-0.0330766,0.0490442,-0.000204428,-0.00076104,0.0617915,-0.021813664500795027,0.050266771505422136,-0.00020440710602021017,0.05837858474304136,-0.0007607504825086764,-0.03253555102615968
142,0.1326,49.5236,787.219,0.00479457,197.785,-0.828023,-3.26024,-0.0222229,0.0571565,-0.0333253,0.0494037,-0.000206218,-0.000767865,0.0622719,-0.021977790397343933,0.05064441028628219,-0.0002061967385297292,0.058821502994934605,-0.0007675702671140483,-0.03277612951744413
143,0.1336,49.5673,788.19,0.00476363,197.996,-0.829538,-3.2656,-0.0223906,0.0575748,-0.0335739,0.0497631,-0.000208007,-0.000774689,0.0627521,-0.02214179097006186,0.051022079750476346,-0.00020798536804389478,0.05926450067614297,-0.00077438900594895,-0.03301655148595717
144,0.1346,49.6107,789.154,0.00470496,198.205,-0.831041,-3.2709,-0.0225583,0.0579928,-0.0338224,0.0501222,-0.000209796,-0.000781513,0.0632322,-0.02230576404218987,0.051399569553552515,-0.00020977399435806454,0.05970736578978619,-0.0007812076982530725,-0.033256817018684104
145,0.1356,49.6538,790.112,0.00466975,198.413,-0.832515,-3.2761,-0.0227259,0.0584107,-0.0340707,0.0504811,-0.000211585,-0.000788335,0.063712,-0.022469611865305272,0.05177698458214097,-0.00021156261747257155,0.06015031004470539,-0.0007880243456025449,-0.0334968295522291
146,0.1366,49.6965,791.064,0.00461447,198.62,-0.833975,-3.28124,-0.0228935,0.0588284,-0.0343189,0.0508399,-0.000213374,-0.000795156,0.0641916,-0.02263343222982661,0.052154429873845,-0.00021335123738708273,0.06059322732604566,-0.0007948399472438306,-0.03373668587173373
147,0.1376,49.7389,792.01,0.00457611,198.825,-0.835409,-3.2863,-0.023061,0.059246,-0.034567,0.0511984,-0.000215162,-0.000801976,0.0646711,-0.022797127420073227,0.052531694857662625,-0.0002151388543168986,0.06103622354895033,-0.0008016545031976907,-0.03397638606393061
148,0.1386,49.7809,792.95,0.00452328,199.028,-0.836827,-3.29129,-0.0232285,0.0596633,-0.034815,0.0515566,-0.000216951,-0.000808795,0.0651503,-0.022960795193671668,0.052908779242542,-0.0002169274678336386,0.061479086361936774,-0.0008084680134849975,-0.03421593021548419
149,0.1396,49.8227,793.884,0.0044826,199.23,-0.838222,-3.2962,-0.0233959,0.0600805,-0.0350629,0.0519147,-0.000218739,-0.000815612,0.0656294,-0.023124337867652556,0.05328589339464784,-0.00021871507836912496,0.06192202782793199,-0.0008152794789415552,-0.034455318412990765
150,0.1406,49.8641,794.812,0.00443153,199.431,-0.8396,-3.30103,-0.0235632,0.0604974,-0.0353107,0.0522726,-0.000220527,-0.000822427,0.0661082,-0.023287755495661533,0.053662931882906495,-0.0002205026857085013,0.06236483541816207,-0.000822088899608775,-0.034694550742978114
151,0.1416,49.9052,795.735,0.00438914,199.631,-0.840955,-3.3058,-0.0237305,0.0609142,-0.0355583,0.0526302,-0.000222315,-0.000829241,0.0665869,-0.023451145786188232,0.054039789125406745,-0.00022229028985154553,0.06280772137258572,-0.0008288972746989254,-0.034933530785264066
152,0.1426,49.946,796.652,0.00433932,199.829,-0.842294,-3.3105,-0.0238977,0.0613308,-0.0358059,0.0529877,-0.000224102,-0.000836054,0.0670654,-0.023614411105251754,0.05441667571448283,-0.00022407689102244,0.06325057931021294,-0.0008357046042325456,-0.035172451663416315
153,0.1436,49.9864,797.564,0.00429568,200.026,-0.843612,-3.31512,-0.0240649,0.0617473,-0.0360533,0.0533449,-0.000225889,-0.000842864,0.0675436,-0.02377764912863589,0.054793380626540156,-0.00022586348900077713,0.06369351541153567,-0.0008425088899155497,-0.035411120474325486
154,0.1446,50.0266,798.47,0.00424673,200.221,-0.844912,-3.31968,-0.0242321,0.0621635,-0.0363006,0.0537019,-0.000227676,-0.000849673,0.0680217,-0.023940859860904107,0.055170009087603944,-0.0002276500837863349,0.0641363167932254,-0.0008493121301108575,-0.03564963381084252
155,0.1456,50.0665,799.37,0.00420217,200.416,-0.846192,-3.32416,-0.0243991,0.0625796,-0.0365478,0.0540587,-0.000229463,-0.000856479,0.0684996,-0.02410384812740829,0.05554656091969856,-0.00022943667537933532,0.0645791960492823,-0.0008561123265514725,-0.035887991759108284
156,0.1466,50.1061,800.265,0.00415384,200.609,-0.847456,-3.32858,-0.0245662,0.0629955,-0.0367949,0.0544153,-0.000231249,-0.000863284,0.0689773,-0.02426690675045884,0.055923035944829946,-0.00023122226401095514,0.06502204662131228,-0.0008629114775728919,-0.03612619440519571
157,0.1476,50.1454,801.155,0.00410861,200.801,-0.848699,-3.33293,-0.0247331,0.0634112,-0.0370419,0.0547717,-0.000233034,-0.000870086,0.0694548,-0.024429743014657945,0.05629943398498716,-0.0002330068496864124,0.06546486832020593,-0.0008697075849354308,-0.03636424183510978
158,0.1486,50.1844,802.04,0.0040607,200.991,-0.849926,-3.33722,-0.0249,0.0638268,-0.0372887,0.0551278,-0.000234819,-0.000876886,0.0699321,-0.02459255210375233,0.05667564919457169,-0.00023479143217652876,0.06590776754756433,-0.0008765016478240462,-0.03660203779499638
159,0.1496,50.2231,802.92,0.00401497,201.18,-0.851134,-3.34143,-0.0250669,0.0642421,-0.0375355,0.0554838,-0.000236604,-0.000883683,0.0704092,-0.024755334022277253,0.05705189269305411,-0.0002365760114810822,0.06635053097688925,-0.000883292667163027,-0.03683977507408165
160,0.1506,50.2615,803.794,0.00396735,201.368,-0.852325,-3.34559,-0.0252337,0.0646573,-0.0377821,0.0558396,-0.000238388,-0.000890478,0.0708861,-0.024917991266571127,0.057428058672433835,-0.0002383595878384659,0.06679337164471177,-0.0008900816421237856,-0.03707726110231757
161,0.1516,50.2997,804.664,0.00392125,201.555,-0.853498,-3.34968,-0.0254004,0.0650723,-0.0380286,0.0561951,-0.000240172,-0.000897271,0.0713628,-0.025080523889956408,0.057804041174221776,-0.0002401431610140614,0.0672361827708976,-0.0008968685727474002,-0.037314592305183414
162,0.1526,50.3376,805.528,0.00387382,201.741,-0.854654,-3.3537,-0.0255671,0.0654871,-0.038275,0.0565505,-0.000241955,-0.000904061,0.0718393,-0.025243029421411545,0.05818005154353978,-0.0002419257312495926,0.06767896416602359,-0.0009036524599784768,-0.03755176876829913
163,0.1536,50.3752,806.388,0.00382744,201.926,-0.855792,-3.35766,-0.0257337,0.0659017,-0.0385213,0.0569056,-0.000243737,-0.000910848,0.0723156,-0.02540541040599842,0.058555878003881956,-0.00024370729855061057,0.06812171564060532,-0.0009104333038784107,-0.03778879057721751
164,0.1546,50.4125,807.242,0.00378014,202.109,-0.856914,-3.36156,-0.0259003,0.0663162,-0.0387675,0.0572605,-0.000245519,-0.000917633,0.0727917,-0.0255677643401665,0.05893162615755143,-0.0002454888626768348,0.06856454386154698,-0.0009172121035913028,-0.03802565781742373
165,0.1556,50.4496,808.092,0.00373357,202.291,-0.858019,-3.3654,-0.0260668,0.0667305,-0.0390135,0.0576152,-0.0002473,-0.000924414,0.0732676,-0.025729993801426487,0.05930729582642669,-0.0002472694238755402,0.06900734187134305,-0.000923986861006143,-0.03826227440056762
166,0.1566,50.4865,808.938,0.00368634,202.473,-0.859108,-3.36918,-0.0262333,0.0671446,-0.0392595,0.0579697,-0.000249081,-0.000931193,0.0737433,-0.025892196253729627,0.05968288683236955,-0.00024904998190311556,0.06945010948031816,-0.0009307595743430763,-0.038498832783190995
167,0.1576,50.523,809.778,0.00363962,202.653,-0.86018,-3.37289,-0.0263997,0.0675585,-0.0395053,0.058324,-0.000250861,-0.000937969,0.0742188,-0.02605427430700502,0.06005839899722609,-0.00025082953701038857,0.06989284649873762,-0.0009375292445805705,-0.03873514072665696
168,0.1586,50.5593,810.614,0.00359244,202.832,-0.861235,-3.37655,-0.026566,0.0679722,-0.039751,0.0586781,-0.00025264,-0.000944741,0.0746942,-0.02621622801436374,0.060433832142826605,-0.00025260808920257727,0.07033555273680547,-0.0009442948727240719,-0.03897129448990255
169,0.1596,50.5954,811.445,0.00354561,203.009,-0.862275,-3.38015,-0.0267323,0.0683858,-0.0399966,0.059032,-0.000254419,-0.000951511,0.0751693,-0.026378154791060315,0.0608091860909854,-0.00025438663823074137,0.07077833508249443,-0.0009510584569530911,-0.03920729415803026
170,0.1606,50.6312,812.272,0.00349846,203.186,-0.863299,-3.38369,-0.0268985,0.0687992,-0.0402421,0.0593857,-0.000256196,-0.000958277,0.0756442,-0.026539957295573458,0.061184460663501694,-0.00025616318460719434,0.0712210863566003,-0.0009578179992240088,-0.03944313981607539
171,0.1616,50.6668,813.094,0.00345154,203.362,-0.864307,-3.38717,-0.0270647,0.0692124,-0.0404875,0.0597392,-0.000257974,-0.000965039,0.076119,-0.026701732910744846,0.06155965568215849,-0.00025794072756890607,0.0716638063691386,-0.0009645734996183153,-0.0396788315490062
172,0.1626,50.7021,813.912,0.00340441,203.537,-0.865299,-3.39059,-0.0272308,0.0696254,-0.0407328,0.0600925,-0.00025975,-0.000971799,0.0765935,-0.026863384327386663,0.06193477096872457,-0.0002597162678894538,0.07210649493006449,-0.0009713269562747762,-0.03991436944172355
173,0.1636,50.7372,814.726,0.00335743,203.71,-0.866276,-3.39395,-0.0273969,0.0700382,-0.0409779,0.0604456,-0.000261525,-0.000978555,0.0770678,-0.027025008895957825,0.062309806344952756,-0.00026149080531812086,0.0725491518492738,-0.0009780763711902951,-0.04014965759403244
174,0.1646,50.7721,815.535,0.00331031,203.883,-0.867237,-3.39726,-0.0275629,0.0704509,-0.041223,0.0607984,-0.0002633,-0.000985307,0.077542,-0.02718650933957345,0.06268465536411005,-0.0002632653395970852,0.07299188423578595,-0.0009848217444461405,-0.04038488808428198
175,0.1656,50.8067,816.34,0.00326329,204.055,-0.868184,-3.40052,-0.0277289,0.0708634,-0.0414679,0.0611511,-0.000265074,-0.000992056,0.0780159,-0.027347982976340446,0.06305953034737422,-0.0002650388709912743,0.07343458468872432,-0.000991564075132234,-0.040619869050596336
176,0.1666,50.8411,817.141,0.00321617,204.225,-0.869115,-3.40371,-0.0278948,0.0712757,-0.0417127,0.0615035,-0.000266847,-0.000998801,0.0784896,-0.02750933256164645,0.06343421854205111,-0.0002668113995060173,0.07387725301779668,-0.000998302364307646,-0.04085469656259255
177,0.1676,50.8753,817.937,0.00316912,204.395,-0.870031,-3.40686,-0.0280606,0.0716878,-0.0419574,0.0618558,-0.000268619,-0.00100554,0.0789632,-0.0276705581483373,0.06380893241921726,-0.00026858292514664317,0.07431988903265196,-0.001005034614063649,-0.04108937070479146
178,0.1686,50.9092,818.729,0.003122,204.564,-0.870933,-3.40994,-0.0282264,0.0720998,-0.042202,0.0622079,-0.000270391,-0.00101228,0.0794365,-0.02783175700604168,0.06418356549460458,-0.00027035444764811345,0.07476260001913437,-0.0010117678174393907,-0.04132389156164695
179,0.1696,50.9429,819.518,0.00307493,204.731,-0.87182,-3.41298,-0.0283921,0.0725116,-0.0424465,0.0625597,-0.000272161,-0.00101901,0.0799097,-0.027992831938479124,0.06455801113407156,-0.000272123967554716,0.0752052783990449,-0.0010184909856185698,-0.041558259217546634
180,0.1706,50.9764,820.302,0.00302782,204.898,-0.872692,-3.41596,-0.0285578,0.0729232,-0.0426908,0.0629114,-0.000273931,-0.00102574,0.0803826,-0.02815388018301135,0.06493248203343516,-0.0002738934843292684,0.07564792398184572,-0.0010252141085508315,-0.04179237793605395
181,0.1716,51.0097,821.082,0.00298074,205.064,-0.87355,-3.41889,-0.0287234,0.0733346,-0.0429351,0.0632628,-0.000275699,-0.00103247,0.0808554,-0.028314804575545582,0.06530676506529898,-0.0002756609985230529,0.07609053657693998,-0.001031937186236731,-0.0420264394663441
182,0.1726,51.0428,821.859,0.00293363,205.229,-0.874394,-3.42176,-0.0288889,0.0737458,-0.0431792,0.0636141,-0.000277467,-0.00103919,0.0813279,-0.028475605168772233,0.06568107307521887,-0.0002774285095920037,0.07653311599367218,-0.0010386502290630206,-0.04226025227445618
183,0.1736,51.0756,822.631,0.00288655,205.393,-0.875224,-3.42459,-0.0290544,0.0741569,-0.0434233,0.0639651,-0.000279234,-0.00104591,0.0818003,-0.028636379151702696,0.06605519278603644,-0.0002791950178150371,0.07697576973890041,-0.001045363226777729,-0.042494008015827145
184,0.1746,51.1082,823.399,0.00283946,205.556,-0.87604,-3.42736,-0.0292199,0.0745678,-0.0436672,0.0643159,-0.000280999,-0.00105262,0.0822725,-0.02879712652874078,0.06642923055005379,-0.0002809595234787299,0.07741839001279383,-0.0010520661899020567,-0.042727515249907255
185,0.1756,51.1407,824.164,0.00279238,205.718,-0.876842,-3.43008,-0.0293852,0.0749785,-0.043911,0.0646666,-0.000282764,-0.00105933,0.0827444,-0.028957653095839198,0.06680329286920172,-0.00028272402602802504,0.07786097662451175,-0.0010587691080495842,-0.04296086983460967
186,0.1766,51.1729,824.925,0.00274529,205.879,-0.87763,-3.43275,-0.0295506,0.075389,-0.0441547,0.065017,-0.000284528,-0.00106603,0.0832162,-0.02911825021826908,0.06717716624181258,-0.00028448752574739,0.07830352938315532,-0.001065461991875405,-0.043194071853810745
187,0.1776,51.2049,825.682,0.00269823,206.04,-0.878405,-3.43537,-0.0297158,0.0757994,-0.0443983,0.0653673,-0.00028629,-0.00107273,0.0836878,-0.029278626635876215,0.06755106388749632,-0.0002862490229285086,0.07874615597237766,-0.0010721548308589846,-0.0434271213913211
188,0.1786,51.2367,826.435,0.00265116,206.199,-0.879166,-3.43794,-0.029881,0.0762096,-0.0446417,0.0657173,-0.000288052,-0.00107943,0.0841591,-0.029438976561487418,0.06792477215498871,-0.00028801051700577673,0.07918874841506152,-0.0010788476250007673,-0.04365992289688181
189,0.1796,51.2684,827.185,0.00260411,206.358,-0.879914,-3.44046,-0.0300462,0.0766196,-0.0448851,0.0660672,-0.000289812,-0.00108612,0.0846303,-0.029599299999478856,0.06829850441341145,-0.00028977000855900936,0.07963130652012373,-0.0010855303851562415,-0.04389266774545164
190,0.1806,51.2998,827.931,0.00255706,206.516,-0.880649,-3.44294,-0.0302113,0.0770294,-0.0451283,0.0664168,-0.000291572,-0.00109281,0.0851013,-0.02975949993018079,0.0686720468619697,-0.0002915294970153859,0.08007383009642344,-0.0010922131006042557,-0.04412516477587103
191,0.1816,51.331,828.673,0.00251002,206.673,-0.88137,-3.44536,-0.0303763,0.0774391,-0.0453715,0.0667663,-0.00029333,-0.00109949,0.085572,-0.029919576406019832,0.0690456130192314,-0.00029328698296171574,0.08051642700439965,-0.0010988857823339693,-0.044357605269887856
192,0.1826,51.362,829.412,0.002463,206.829,-0.882079,-3.44774,-0.0305413,0.0778486,-0.0456145,0.0671155,-0.000295087,-0.00110617,0.0860426,-0.030079626471419374,0.06941898893493836,-0.00029504346611342047,0.08095898908966026,-0.0011055584194903378,-0.0445897981592287
193,0.1836,51.3929,830.147,0.00241599,206.984,-0.882775,-3.45007,-0.0307062,0.0782579,-0.0458574,0.0674646,-0.000296843,-0.00111284,0.086513,-0.03023955315469673,0.0697923882770386,-0.00029679894647582916,0.08140151616088187,-0.0011122210231958585,-0.0448218391147408
194,0.1846,51.4235,830.879,0.00236899,207.138,-0.883457,-3.45235,-0.0308711,0.078667,-0.0461002,0.0678134,-0.000298598,-0.00111951,0.0869832,-0.030399453468238358,0.07016559694587765,-0.00029855342405404883,0.08184400802668312,-0.001118883582462038,-0.045053728219727196
195,0.1856,51.454,831.608,0.00232201,207.292,-0.884127,-3.45458,-0.0310359,0.0790759,-0.0463429,0.0681621,-0.000300352,-0.00112617,0.0874531,-0.03055923047232001,0.07053882875871742,-0.0003003068988535196,0.08228646449562538,-0.0011255361085443782,-0.04528546555742485
196,0.1866,51.4843,832.333,0.00227505,207.445,-0.884785,-3.45677,-0.0312006,0.0794847,-0.0465855,0.0685105,-0.000302104,-0.00113283,0.0879229,-0.030718884219214315,0.0709118694665749,-0.0003020583711815794,0.08272899364910735,-0.0011321885903211593,-0.04551705121100502
197,0.1876,51.5144,833.054,0.0022281,207.597,-0.88543,-3.45891,-0.0313653,0.0798933,-0.046828,0.0688588,-0.000303856,-0.00113948,0.0883925,-0.03087851167330169,0.07128493303595929,-0.0003038098404409828,0.0831714871111704,-0.0011388310391807765,-0.045748485263573335
198,0.1886,51.5443,833.772,0.00218117,207.748,-0.886063,-3.46101,-0.03153,0.0803017,-0.0470703,0.0692068,-0.000305606,-0.00114613,0.0888619,-0.031038112838912335,0.07165780506862651,-0.0003055593072430751,0.08361394469019445,-0.0011454734438683944,-0.04597967239614187
199,0.1896,51.5741,834.487,0.00213426,207.898,-0.886683,-3.46306,-0.0316945,0.08071,-0.0473126,0.0695547,-0.000307355,-0.00115277,0.0893311,-0.031197493959893796,0.07203069968026643,-0.0003073077712907324,0.08405647460014465,-0.0011521058159051911,-0.04621080351885387
200,0.1906,51.6036,835.198,0.00208737,208.048,-0.887291,-3.46507,-0.031859,0.0811181,-0.0475547,0.0699024,-0.000309102,-0.00115941,0.0898001,-0.03135684886483703,0.0724035095637876,-0.0003090542328985091,0.08449896833213377,-0.0011587381439032152,-0.0464416879336359
201,0.1916,51.633,835.907,0.0020405,208.197,-0.887887,-3.46703,-0.0320235,0.081526,-0.0477967,0.0702499,-0.000310849,-0.00116605,0.0902689,-0.03151617755805447,0.07277623454057514,-0.0003108006914552819,0.0849414256943608,-0.0011653704278627997,-0.04667242112531367
202,0.1926,51.6622,836.612,0.00199365,208.345,-0.888472,-3.46895,-0.0321879,0.0819337,-0.0480386,0.0705971,-0.000312594,-0.00117267,0.0907375,-0.03167538321140062,0.07314876711712048,-0.0003125451475860519,0.08538384649496833,-0.0011719826912239828,-0.046903003176619995
203,0.1936,51.6913,837.313,0.00194683,208.493,-0.889044,-3.47082,-0.0323523,0.0823412,-0.0482804,0.0709442,-0.000314338,-0.0011793,0.0912059,-0.03183456269348872,0.07352132170729564,-0.0003142886009870338,0.08582623054204275,-0.0011786048990259923,-0.04713343417022198
204,0.1946,51.7201,838.012,0.00190002,208.639,-0.889604,-3.47265,-0.0325165,0.0827486,-0.0485221,0.0712911,-0.00031608,-0.00118591,0.0916741,-0.031993522407344877,0.07389379085483427,-0.00031603005197944345,0.08626868627047779,-0.0011852070866273934,-0.04736371418872176
205,0.1956,51.7488,838.708,0.00185324,208.785,-0.890153,-3.47444,-0.0326808,0.0831558,-0.0487637,0.0716378,-0.000317822,-0.00119252,0.0921421,-0.03215255280690821,0.07426617438107774,-0.0003177714999382797,0.08671110494985701,-0.0011918092305884809,-0.04759384331465599
206,0.1966,51.7774,839.4,0.00180649,208.93,-0.89069,-3.47618,-0.0328449,0.0835629,-0.0490052,0.0719843,-0.000319562,-0.00119913,0.0926099,-0.03231136354221542,0.07463847210735697,-0.00031951094550253245,0.08715359510344167,-0.0011984113309094768,-0.047823821630496144
207,0.1976,51.8057,840.089,0.00175976,209.075,-0.891216,-3.47789,-0.0330091,0.0839697,-0.0492466,0.0723306,-0.0003213,-0.00120573,0.0930775,-0.0324702449717994,0.07501068385499221,-0.00032124838868274885,0.08759593915260933,-0.0012050033996408027,-0.04805364921864852
208,0.1986,51.8339,840.775,0.00171306,209.219,-0.89173,-3.47955,-0.0331731,0.0843764,-0.0494878,0.0726767,-0.000323038,-0.00121233,0.0935449,-0.032628906840995175,0.07538280944529308,-0.00032298582884315863,0.0880383543801011,-0.0012115954248647087,-0.04828323098978238
209,0.1996,51.862,841.459,0.00166639,209.362,-0.892233,-3.48116,-0.0333371,0.0847829,-0.0497289,0.0730226,-0.000324773,-0.00121892,0.0940121,-0.03278754269177797,0.07575484869955984,-0.00032472026695817835,0.08848073187829142,-0.0012181774187631778,-0.04851266224374162
210,0.2006,51.8899,842.139,0.00161974,209.504,-0.892725,-3.48274,-0.033501,0.0851892,-0.04997,0.0733684,-0.000326508,-0.0012255,0.0944791,-0.03294605582302479,0.07612690905176756,-0.00032645470206382754,0.08892307145485345,-0.0012247493815339405,-0.04874203818849343
211,0.2016,51.9176,842.816,0.00157313,209.646,-0.893205,-3.48428,-0.0336649,0.0855954,-0.0502109,0.0737139,-0.000328241,-0.00123208,0.0949459,-0.03310454297609844,0.07649877513501169,-0.00032818713481674866,0.08936548185394733,-0.0012313213010614055,-0.048971168631623874
212,0.2026,51.9452,843.49,0.00152654,209.787,-0.893675,-3.48577,-0.0338288,0.0860014,-0.0504517,0.0740592,-0.000329973,-0.00123865,0.0954126,-0.03326300415525629,0.07687055434605261,-0.0003299185648971692,0.0898078540350562,-0.00123788318972462,-0.049200148803898225
213,0.2036,51.9726,844.161,0.00147999,209.927,-0.894133,-3.48722,-0.0339925,0.0864072,-0.0506924,0.0744044,-0.000331703,-0.00124522,0.095879,-0.033421246049023634,0.07724235423038084,-0.0003316479926420701,0.09025018780567562,-0.0012444450352763203,-0.0494289787872878
214,0.2046,51.9998,844.83,0.00143346,210.066,-0.89458,-3.48864,-0.0341562,0.0868128,-0.050933,0.0747493,-0.000333432,-0.00125178,0.0963452,-0.03357946204071316,0.07761395919794789,-0.0003333764177284593,0.09069248297324606,-0.0012509968502270041,-0.04965765866369931
215,0.2056,52.0269,845.495,0.00138697,210.205,-0.895017,-3.49001,-0.0343199,0.0872183,-0.0511735,0.0750941,-0.00033516,-0.00125834,0.0968112,-0.0337376521345647,0.07798558455560922,-0.0003351038401615547,0.09113484845863251,-0.001257548622197735,-0.049886188514974505
216,0.2066,52.0539,846.158,0.00134051,210.344,-0.895443,-3.49135,-0.0344835,0.0876236,-0.0514139,0.0754387,-0.000336886,-0.00126489,0.0972771,-0.03389571972439409,0.07835712240034098,-0.0003368292602833334,0.09157717504414031,-0.0012640903638301282,-0.05011456842289075
217,0.2076,52.0807,846.818,0.00129409,210.481,-0.895858,-3.49264,-0.034647,0.0880287,-0.0516541,0.075783,-0.00033861,-0.00127143,0.0977427,-0.03405366486185235,0.07872846468048866,-0.00033855267810400935,0.09201946253703386,-0.00127062207532036,-0.050342703503435504
218,0.2086,52.1073,847.475,0.0012477,210.618,-0.896263,-3.4939,-0.0348105,0.0884336,-0.0518943,0.0761272,-0.000340333,-0.00127797,0.0982081,-0.03421158417739156,0.07909982692580764,-0.00034027509329392913,0.0924617107445227,-0.0012771537440934289,-0.05057078379251467
219,0.2096,52.1338,848.129,0.00120134,210.754,-0.896657,-3.49511,-0.0349739,0.0888384,-0.0521343,0.0764712,-0.000342055,-0.0012845,0.0986734,-0.034369381112176356,0.07947110112177058,-0.0003419965058580887,0.09290402876415937,-0.001283675382986349,-0.050798619463030326
220,0.2106,52.1602,848.781,0.00115502,210.89,-0.897041,-3.49629,-0.0351373,0.089243,-0.0523743,0.076815,-0.000343775,-0.00129103,0.0991384,-0.03452715226504832,0.0798422870895481,-0.00034371591614534847,0.0933463072010916,-0.0012901969792930013,-0.05102640045954632
221,0.2116,52.1864,849.43,0.00110874,211.025,-0.897414,-3.49743,-0.0353006,0.0896474,-0.0526141,0.0771586,-0.000345494,-0.00129755,0.0996033,-0.03468480110870509,0.08021338465030192,-0.0003454343238207258,0.09378854586235397,-0.0012967085459809624,-0.05125393704598902
222,0.2126,52.2125,850.076,0.00106249,211.16,-0.897777,-3.49853,-0.0354638,0.0900517,-0.0528538,0.0775021,-0.000347211,-0.00130406,0.100068,-0.034842327694645014,0.08058450168363063,-0.0003471507292365228,0.09423085397800679,-0.0013032100832458537,-0.05148132422383711
223,0.2136,52.2384,850.719,0.00101629,211.293,-0.89813,-3.4996,-0.035627,0.0904558,-0.0530935,0.0778453,-0.000348926,-0.00131057,0.100532,-0.034999828574343916,0.08095542193088212,-0.00034886513240284245,0.09467312202033895,-0.0013097115781858237,-0.051708656903510564
224,0.2146,52.2642,851.36,0.000970117,211.426,-0.898473,-3.50062,-0.0357901,0.0908597,-0.053333,0.0781884,-0.00035064,-0.00131707,0.100997,-0.03515720726772209,0.0813263613671682,-0.0003505785329797062,0.09511534979621028,-0.0013162030439632932,-0.05193574548523894
225,0.2156,52.2899,851.998,0.000923987,211.559,-0.898805,-3.50161,-0.0359532,0.0912634,-0.0535724,0.0785312,-0.000352353,-0.00132357,0.101461,-0.03531456029472857,0.08169710358543036,-0.00035229093097199904,0.09555753711242754,-0.0013226944675462926,-0.05216268490203779
226,0.2166,52.3154,852.634,0.000877897,211.691,-0.899128,-3.50257,-0.0361162,0.091667,-0.0538116,0.0788739,-0.000354064,-0.00133006,0.101925,-0.03547179120673316,0.08206786470911909,-0.0003540013267389064,0.09599979337571662,-0.0013291758622270278,-0.05238938047393793
227,0.2176,52.3408,853.267,0.000831847,211.822,-0.89944,-3.50348,-0.0362792,0.0920704,-0.0540508,0.0792164,-0.000355773,-0.00133654,0.102388,-0.03562899649218754,0.08243853642669019,-0.00035570972029086434,0.096442008881235,-0.0013356472282002319,-0.052616021826742077
228,0.2186,52.366,853.897,0.000785839,211.953,-0.899743,-3.50436,-0.0364421,0.0924736,-0.0542899,0.0795586,-0.000357481,-0.00134302,0.102852,-0.03578607973388159,0.08280901027831611,-0.00035741711128056686,0.09688418343561578,-0.001342118552239091,-0.05284251425767417
229,0.2196,52.3911,854.525,0.000739872,212.083,-0.900036,-3.50521,-0.0366049,0.0928766,-0.0545289,0.0799007,-0.000359187,-0.00134949,0.103315,-0.03594304098310852,0.08317950260983231,-0.0003591225000723064,0.09732631684543835,-0.0013485798478297673,-0.05306885784763016
230,0.2206,52.4161,855.151,0.000693948,212.213,-0.90032,-3.50601,-0.0367677,0.0932795,-0.0547677,0.0802427,-0.000360892,-0.00135595,0.103778,-0.03609997668112408,0.08355001335345058,-0.00036082688631544624,0.09776851869407599,-0.0013550311151663275,-0.05329495800694273
231,0.2216,52.4409,855.773,0.000648067,212.342,-0.900593,-3.50679,-0.0369304,0.0936822,-0.0550064,0.0805844,-0.000362595,-0.00136241,0.104241,-0.036256790457771415,0.08392032565726759,-0.0003625292703776095,0.09821067909957648,-0.0013614823408277799,-0.05352090953207911
232,0.2226,52.4657,856.394,0.00060223,212.47,-0.900857,-3.50752,-0.0370931,0.0940848,-0.0552451,0.0809259,-0.000364296,-0.00136886,0.104704,-0.03641357872289275,0.08429054766028843,-0.0003642296522691213,0.09865290773363267,-0.0013679235384937982,-0.05374680712902291
233,0.2236,52.4902,857.012,0.000556437,212.598,-0.901112,-3.50823,-0.0372557,0.0944871,-0.0554836,0.0812673,-0.000365996,-0.0013753,0.105166,-0.03657024513766771,0.08466078764962992,-0.00036592903163423784,0.09909498471623657,-0.0013743547083578944,-0.053972461605156785
234,0.2246,52.5147,857.627,0.000510689,212.725,-0.901357,-3.50889,-0.0374182,0.0948893,-0.055722,0.0816084,-0.000367694,-0.00138174,0.105628,-0.03672678975323829,0.08503082855118493,-0.0003676264088456893,0.09953712962847105,-0.0013807858368052317,-0.054197967688916826
235,0.2256,52.539,858.24,0.000464986,212.852,-0.901593,-3.50952,-0.0375807,0.0952914,-0.0559604,0.0819494,-0.00036939,-0.00138817,0.10609,-0.03688330893237568,0.08540088715512706,-0.00036932178391368975,0.09997934240921591,-0.0013872069377084406,-0.054423420018434365
236,0.2266,52.5632,858.851,0.00041933,212.978,-0.901819,-3.51012,-0.0377431,0.0956932,-0.0561986,0.0822902,-0.000371085,-0.0013946,0.106552,-0.03703970638318832,0.08577085481637825,-0.00037101615647727737,0.10042140291300394,-0.0013936279973241206,-0.05464862953626759
237,0.2276,52.5873,859.459,0.00037372,213.104,-0.902036,-3.51069,-0.0379055,0.0960949,-0.0564367,0.0826308,-0.000372778,-0.00140102,0.107014,-0.03719607843711725,0.0861407313559277,-0.00037270852691428935,0.1008635309860324,-0.0014000390296530218,-0.05487369090295602
238,0.2286,52.6113,860.065,0.000328158,213.229,-0.902244,-3.51121,-0.0380678,0.0964964,-0.0566747,0.0829712,-0.00037447,-0.00140743,0.107476,-0.03735232883352424,0.08651051659475817,-0.00037439989486054426,0.10130561643643854,-0.001406440034887546,-0.05509860419877721
239,0.2296,52.6351,860.669,0.000282644,213.353,-0.902443,-3.51171,-0.0382301,0.0968978,-0.0569125,0.0833115,-0.000376159,-0.00141383,0.107937,-0.0375085538725497,0.08688031904187299,-0.0003760882610733818,0.10174776924500817,-0.001412831013220206,-0.05532327503627743
240,0.2306,52.6588,861.27,0.000237178,213.477,-0.902633,-3.51217,-0.0383923,0.0972989,-0.0571503,0.0836515,-0.000377847,-0.00142023,0.108398,-0.037664657324779305,0.0872499211791502,-0.0003777756248122266,0.10218976891235987,-0.0014192219506506953,-0.05554789245340441
241,0.2316,52.6824,861.869,0.000191761,213.601,-0.902813,-3.5126,-0.0385544,0.0976999,-0.057388,0.0839914,-0.000379534,-0.00142662,0.108859,-0.03782063924115109,0.08761954024055973,-0.00037946198608229675,0.1026318356381486,-0.0014256028614353378,-0.05577236204010094
242,0.2326,52.7059,862.465,0.000146393,213.724,-0.902985,-3.513,-0.0387165,0.0981008,-0.0576255,0.0843311,-0.000381218,-0.00143301,0.10932,-0.03797659587490343,0.08798906735900713,-0.00038114534565092395,0.1030739693608389,-0.0014319837314461514,-0.05599658947605446
243,0.2336,52.7292,863.06,0.000101076,213.846,-0.903148,-3.51336,-0.0388785,0.0985014,-0.057863,0.0846705,-0.000382901,-0.00143938,0.10978,-0.038132431043382264,0.08835839351957286,-0.00038282770276754086,0.10351594931563901,-0.0014383445894504687,-0.056220763664315276
244,0.2346,52.7525,863.652,5.5809e-05,213.968,-0.903302,-3.51369,-0.0390405,0.0989019,-0.0581004,0.0850099,-0.000384582,-0.00144576,0.110241,-0.0382882409686085,0.08872784505071185,-0.00038450805782186404,0.10395799596727318,-0.0014447153924891376,-0.0564447902620121
245,0.2356,52.7756,864.242,1.05935e-05,214.089,-0.903447,-3.51399,-0.0392024,0.0993023,-0.0583376,0.085349,-0.000386262,-0.00145212,0.110701,-0.03844392949906916,0.08909709526580412,-0.00038618741043772165,0.10440010925403187,-0.001451066183903671,-0.05666857501584088
246,0.2366,52.7986,864.829,-3.45702e-05,214.21,-0.903584,-3.51425,-0.0393642,0.0997024,-0.0585747,0.0856879,-0.00038794,-0.00145848,0.111161,-0.038599496685551404,0.08946625282160436,-0.0003878647610079389,0.10484206814572494,-0.0014574169349272914,-0.056892212383446994
247,0.2376,52.8215,865.415,-7.96817e-05,214.33,-0.903711,-3.51449,-0.039526,0.100102,-0.0588118,0.0860267,-0.000389615,-0.00146483,0.11162,-0.038755038703299105,0.08983542652255383,-0.0003895391099322243,0.10528365125858596,-0.0014637576601980173,-0.05711579673291889
248,0.2386,52.8443,865.998,-0.00012474,214.45,-0.903831,-3.51469,-0.0396878,0.100502,-0.0590487,0.0863652,-0.00039129,-0.00147117,0.11208,-0.03891055555638423,0.09020439825937498,-0.0003912134560518643,0.1057258531535723,-0.00147008835990603,-0.05733913954467229
249,0.2396,52.8669,866.579,-0.000169746,214.569,-0.903941,-3.51486,-0.0398494,0.100902,-0.0592855,0.0867036,-0.000392962,-0.00147751,0.112539,-0.03906585506206828,0.09057338585692642,-0.00039288480054577857,0.10616823196469771,-0.0014764190194775928,-0.057562335209018434
250,0.2406,52.8895,867.158,-0.000214697,214.688,-0.904043,-3.515,-0.0400111,0.101301,-0.0595222,0.0870418,-0.000394632,-0.00148383,0.112998,-0.03922122555126217,0.09094228015253236,-0.0003945541430342425,0.1066096811525079,-0.0014827296685677727,-0.057785383805431634
251,0.2416,52.9119,867.735,-0.000259595,214.807,-0.904137,-3.51511,-0.0401726,0.101701,-0.0597588,0.0873799,-0.000396301,-0.00149016,0.113457,-0.039376378794374056,0.09131119009816402,-0.0003962224831310923,0.1070524135655484,-0.0014890502628842617,-0.05800828541332326
252,0.2426,52.9343,868.31,-0.000304437,214.924,-0.904222,-3.51518,-0.0403341,0.1021,-0.0599953,0.0877177,-0.000397968,-0.00149647,0.113916,-0.03953150698226038,0.0916798972893178,-0.0003978888212393672,0.10749421561220807,-0.001495350847098731,-0.05823104011204161
253,0.2436,52.9565,868.882,-0.000349224,215.042,-0.904299,-3.51523,-0.0404956,0.102499,-0.0602317,0.0880554,-0.000399633,-0.00150278,0.114375,-0.03968661011896735,0.09204861984593182,-0.00039955315736894814,0.10793619397305676,-0.0015016513915566687,-0.05845364798087238
254,0.2446,52.9786,869.453,-0.000393955,215.159,-0.904368,-3.51524,-0.040657,0.102898,-0.060468,0.0883928,-0.000401297,-0.00150908,0.114833,-0.039841592192704334,0.0924171392159896,-0.0004012164911285643,0.10837834871845775,-0.0015079419113377401,-0.0586761090990382
255,0.2456,53.0006,870.021,-0.00043863,215.275,-0.904428,-3.51523,-0.0408183,0.103296,-0.0607042,0.0887301,-0.000402958,-0.00151537,0.115291,-0.03999645325400336,0.09278567366688839,-0.00040287682332906805,0.10881957109867701,-0.0015142224066309051,-0.0588984235456993
256,0.2466,53.0225,870.588,-0.000483248,215.391,-0.90448,-3.51518,-0.0409795,0.103695,-0.0609402,0.0890672,-0.000404618,-0.00152166,0.115749,-0.04015119335335171,0.09315411381457928,-0.00040453615317626035,0.10926207838187785,-0.0015205028624198924,-0.059120497312007414
257,0.2476,53.0443,871.152,-0.000527809,215.506,-0.904524,-3.51511,-0.0411408,0.104093,-0.0611762,0.0894042,-0.000406276,-0.00152794,0.116207,-0.04030600448001076,0.09352256883211818,-0.0004061934810813961,0.1097036525565056,-0.0015267732939727718,-0.05934251867509044
258,0.2486,53.066,871.714,-0.000572311,215.621,-0.90456,-3.515,-0.0413019,0.104491,-0.0614121,0.0897409,-0.000407932,-0.00153421,0.116665,-0.04046059872978791,0.0938908198726276,-0.00040784880705446724,0.11014540251263316,-0.0015330337014778372,-0.0595643936037582
259,0.2496,53.0876,872.274,-0.000616756,215.736,-0.904588,-3.51486,-0.041463,0.104889,-0.0616478,0.0900775,-0.000409586,-0.00154047,0.117122,-0.04061516807643728,0.09425908549822459,-0.0004095021311052438,0.11058732832023521,-0.0015392840851231604,-0.059786028155527804
260,0.2506,53.1091,872.833,-0.000661142,215.85,-0.904608,-3.5147,-0.041624,0.105287,-0.0618835,0.0904139,-0.000411238,-0.00154673,0.117579,-0.04076961660093714,0.0946272561774224,-0.00041115345324371777,0.11102943004931487,-0.0015455344296412266,-0.060007610474189454
261,0.2516,53.1305,873.389,-0.000705468,215.964,-0.90462,-3.51451,-0.041785,0.105685,-0.062119,0.0907501,-0.000412889,-0.00155298,0.118036,-0.0409240402612262,0.09499533173098285,-0.0004128037730669609,0.11147170776990278,-0.0015517747505500168,-0.06022895261786243
262,0.2526,53.1518,873.943,-0.000749735,216.077,-0.904624,-3.51428,-0.0419459,0.106082,-0.0623545,0.0910861,-0.000414537,-0.00155922,0.118493,-0.04107834316914638,0.09536331197966419,-0.00041445109140902936,0.11191304963845172,-0.0015580050480369367,-0.06045024264159782
263,0.2536,53.173,874.496,-0.000793942,216.19,-0.904621,-3.51403,-0.0421068,0.106479,-0.0625898,0.091422,-0.000416184,-0.00156546,0.11895,-0.04123262125172589,0.09573130631734728,-0.0004160974074522983,0.11235456675450672,-0.001564235306647066,-0.06067129269194593
264,0.2546,53.1941,875.046,-0.000838088,216.302,-0.904609,-3.51375,-0.0422676,0.106876,-0.062825,0.0917576,-0.000417828,-0.00157168,0.119406,-0.04138677865164142,0.0960990954553127,-0.0004177407220373741,0.11279625918765501,-0.0015704455577895127,-0.060892196824560485
265,0.2556,53.215,875.595,-0.000882173,216.414,-0.90459,-3.51344,-0.0424284,0.107273,-0.0630602,0.0920931,-0.000419471,-0.0015779,0.119863,-0.041540911265040004,0.09646689839733158,-0.00041938303434019275,0.11323812700751135,-0.0015766557703044137,-0.061113049006632614
266,0.2566,53.2359,876.142,-0.000926197,216.525,-0.904563,-3.5131,-0.042589,0.10767,-0.0632952,0.0924284,-0.000421112,-0.00158412,0.120319,-0.04169482743489161,0.09683460539099653,-0.00042102334478677506,0.1136801702837178,-0.0015828659441918802,-0.06133366151713082
267,0.2576,53.2567,876.686,-0.000970159,216.636,-0.904528,-3.51273,-0.0427497,0.108067,-0.0635301,0.0927636,-0.000422751,-0.00159032,0.120775,-0.04184881470291446,0.09720232597725098,-0.000422661653386891,0.11412238908594441,-0.001589056111233389,-0.06155412834519769
268,0.2586,53.2774,877.229,-0.00101406,216.746,-0.904486,-3.51234,-0.0429102,0.108463,-0.0637649,0.0930985,-0.000424388,-0.00159652,0.12123,-0.042002585627707756,0.0975698405731047,-0.00042429796015042154,0.11456366891966296,-0.001595246239896153,-0.06177444956913836
269,0.2596,53.298,877.77,-0.00105789,216.857,-0.904436,-3.51192,-0.0430708,0.10886,-0.0639996,0.0934333,-0.000426023,-0.00160271,0.121686,-0.042156427658610274,0.09793736847646661,-0.0004259322650872477,0.11500623854048109,-0.0016014263461944234,-0.06199462526719568
270,0.2606,53.3185,878.309,-0.00110167,216.966,-0.904379,-3.51147,-0.0432312,0.109256,-0.0642342,0.0937679,-0.000427657,-0.00160889,0.122141,-0.0423100534464963,0.09830479978778928,-0.0004275655677795642,0.11544786844789345,-0.001607596430314051,-0.062214655517550455
271,0.2616,53.339,878.846,-0.00114538,217.075,-0.904314,-3.51099,-0.0433916,0.109652,-0.0644687,0.0941023,-0.000429288,-0.00161507,0.122596,-0.042463654594782074,0.09867213432775035,-0.0004291958690905151,0.11588967327538113,-0.001613766476302625,-0.06243454039832175
272,0.2626,53.3593,879.382,-0.00118902,217.184,-0.904242,-3.51048,-0.043552,0.110047,-0.0647031,0.0944365,-0.000430917,-0.00162123,0.123051,-0.04261723110741944,0.09903937191702572,-0.0004308241686042935,0.11633053676113136,-0.0016199165165590168,-0.06265427998756634
273,0.2636,53.3795,879.916,-0.0012326,217.293,-0.904162,-3.50995,-0.0437122,0.110443,-0.0649374,0.0947706,-0.000432545,-0.00162739,0.123506,-0.04277059154249718,0.0994066223169463,-0.0004324514658978762,0.11677269119448841,-0.0016260665189312684,-0.06287387436327962
274,0.2646,53.3996,880.447,-0.00127612,217.401,-0.904075,-3.50939,-0.0438725,0.110839,-0.0651716,0.0951045,-0.00043417,-0.00163354,0.12396,-0.0429240231188035,0.09977377548094757,-0.00043407576184451013,0.11721502075567414,-0.0016322064997417174,-0.06309332360339459
275,0.2656,53.4197,880.977,-0.00131957,217.508,-0.903981,-3.5088,-0.0440326,0.111234,-0.0654056,0.0954382,-0.000435793,-0.00163969,0.124415,-0.04307723871746627,0.10014083122967099,-0.00043569805602305944,0.11765640785708631,-0.0016383464427913719,-0.06331253411704107
276,0.2666,53.4396,881.506,-0.00136296,217.615,-0.903879,-3.50819,-0.0441927,0.111629,-0.0656396,0.0957717,-0.000437415,-0.00164582,0.124869,-0.04323042978827518,0.10050778938375715,-0.00043731934800594896,0.11809796934084171,-0.0016444663809700444,-0.06353169334142839
277,0.2676,53.4595,882.032,-0.00140628,217.722,-0.90377,-3.50755,-0.0443528,0.112024,-0.0658735,0.0961051,-0.000439034,-0.00165195,0.125323,-0.04338359633515687,0.10087475985131555,-0.00043893763867586255,0.11853970527583502,-0.0016505862816336148,-0.06375070766363233
278,0.2686,53.4793,882.557,-0.00144953,217.829,-0.903654,-3.50688,-0.0445128,0.112419,-0.0661073,0.0964382,-0.000440652,-0.00165807,0.125777,-0.04353664271570623,0.10124152231471895,-0.00044055492716643663,0.11898161573098798,-0.0016566961613493358,-0.06396957716133933
279,0.2696,53.499,883.08,-0.00149271,217.935,-0.903531,-3.50619,-0.0446727,0.112813,-0.0663409,0.0967712,-0.000442267,-0.00166419,0.12623,-0.0436895689797554,0.1016082968062133,-0.00044216921436668333,0.11942258135210904,-0.0016628060036727454,-0.06418820833099959
280,0.2706,53.5186,883.601,-0.00153583,218.04,-0.903401,-3.50547,-0.0448326,0.113208,-0.0665745,0.0971041,-0.000443881,-0.00167029,0.126684,-0.04384247079284975,0.10197508325643745,-0.00044378249940368875,0.11986484061219671,-0.0016688958419820432,-0.06440678843438341
281,0.2716,53.5381,884.121,-0.00157888,218.145,-0.903264,-3.50472,-0.0449924,0.113602,-0.0668079,0.0974367,-0.000445492,-0.00167639,0.127137,-0.04399525255842884,0.10234166112764931,-0.0004453927831729043,0.12030615429248392,-0.0016749856431435006,-0.0646251304084633
282,0.2726,53.5575,884.638,-0.00162186,218.25,-0.90312,-3.50395,-0.0451522,0.113996,-0.0670413,0.0977692,-0.000447102,-0.00168248,0.12759,-0.04414800991143253,0.10270825067210865,-0.00044700206479508786,0.1207476418846194,-0.0016810654239679534,-0.06484342142747312
283,0.2736,53.5769,885.154,-0.00166478,218.355,-0.902969,-3.50315,-0.0453119,0.11439,-0.0672745,0.0981015,-0.000448709,-0.00168856,0.128043,-0.04430064728583083,0.10307474151288765,-0.0004486083451721301,0.1211893034571383,-0.0016871351846381444,-0.06506147451561795
284,0.2746,53.5961,885.669,-0.00170762,218.459,-0.90281,-3.50233,-0.0454715,0.114784,-0.0675077,0.0984336,-0.000450315,-0.00169464,0.128495,-0.044453164731308115,0.10344113347056116,-0.00045021362341812754,0.12163113907860224,-0.001693204908404189,-0.06527947675971124
285,0.2756,53.6153,886.182,-0.0017504,218.562,-0.902645,-3.50148,-0.0456311,0.115178,-0.0677407,0.0987656,-0.000451918,-0.0017007,0.128948,-0.04460565783694348,0.10380753674645171,-0.0004518159004414102,0.12207314881759967,-0.0016992546292518007,-0.06549724127107548
286,0.2766,53.6344,886.693,-0.0017931,218.665,-0.902474,-3.50061,-0.0457906,0.115571,-0.0679737,0.0990973,-0.00045352,-0.00170676,0.1294,-0.04475803108242915,0.10417373043625644,-0.00045341717534974624,0.12251421022797526,-0.001705304313438183,-0.0657149550492192
287,0.2776,53.6534,887.202,-0.00183574,218.768,-0.902295,-3.49971,-0.0459501,0.115965,-0.0682065,0.0994289,-0.000455119,-0.00171281,0.129852,-0.04491038002632031,0.10453993515865645,-0.000455015449057794,0.1229565679655571,-0.00171134397807704,-0.06593243129246684
288,0.2786,53.6723,887.71,-0.0018783,218.871,-0.90211,-3.49878,-0.0461095,0.116358,-0.0684392,0.0997603,-0.000456716,-0.00171885,0.130304,-0.04506260917875826,0.10490604035344808,-0.0004566117211235454,0.12339797662788832,-0.0017173736233498937,-0.06614976352811874
289,0.2796,53.6912,888.216,-0.0019208,218.973,-0.901917,-3.49783,-0.0462689,0.116751,-0.0686719,0.100092,-0.000458311,-0.00172489,0.130755,-0.045214814067803255,0.10527259847733728,-0.0004582059915564374,0.12383955879791597,-0.0017234032322037685,-0.06636704519644321
290,0.2806,53.7099,888.721,-0.00196322,219.075,-0.901718,-3.49686,-0.0464282,0.117144,-0.0689044,0.100423,-0.000459905,-0.00173091,0.131207,-0.045366899234017155,0.10563850426149979,-0.00045979925990624615,0.12428131454384195,-0.00172941283922734,-0.06658408962604234
291,0.2816,53.7286,889.224,-0.00200557,219.176,-0.901513,-3.49586,-0.0465874,0.117536,-0.0691368,0.100754,-0.000461496,-0.00173693,0.131658,-0.04551886472688493,0.10600453118052355,-0.0004613895271005086,0.12472211921121334,-0.0017354224100732951,-0.06680099027878117
292,0.2826,53.7472,889.725,-0.00204785,219.277,-0.901301,-3.49484,-0.0467466,0.117929,-0.0693691,0.101084,-0.000463085,-0.00174294,0.132109,-0.045670806028771826,0.10636957290438498,-0.00046297779269077743,0.12516422187154586,-0.0017414219621558757,-0.06701774723144471
293,0.2836,53.7657,890.225,-0.00209006,219.378,-0.901082,-3.49379,-0.0469058,0.118321,-0.0696014,0.101415,-0.000464672,-0.00174894,0.13256,-0.045822723143528865,0.10673584184718221,-0.00046456405668626743,0.12560537270643413,-0.0017474114956554931,-0.06723445383731597
294,0.2846,53.7842,890.723,-0.0021322,219.478,-0.900857,-3.49272,-0.0470648,0.118713,-0.0698335,0.101745,-0.000466257,-0.00175494,0.133011,-0.04597442526991036,0.10710112494338775,-0.0004661483190967486,0.12604669650634848,-0.0017534009932180794,-0.06745092359829286
295,0.2856,53.8025,891.219,-0.00217426,219.578,-0.900625,-3.49162,-0.0472238,0.119105,-0.0700655,0.102075,-0.000467839,-0.00176092,0.133461,-0.046126103277571384,0.10746652860290684,-0.000467729580399312,0.12648819333910466,-0.0017593704900312757,-0.06766724988919803
296,0.2866,53.8208,891.714,-0.00221625,219.678,-0.900387,-3.4905,-0.0473828,0.119497,-0.0702974,0.102405,-0.00046942,-0.0017669,0.133912,-0.04627775717034621,0.1078320528655321,-0.00046930983966964046,0.12692986327254485,-0.001765339951147027,-0.06788343278657294
297,0.2876,53.839,892.208,-0.00225816,219.777,-0.900142,-3.48936,-0.0475417,0.119889,-0.0705292,0.102735,-0.000470999,-0.00177287,0.134362,-0.046429291595002975,0.1081976977710688,-0.0004708880973833818,0.12737170637453765,-0.0017712993942785582,-0.06809947236689828
298,0.2886,53.8572,892.7,-0.00230001,219.876,-0.899891,-3.48819,-0.0477005,0.12028,-0.0707609,0.103065,-0.000472575,-0.00177883,0.134812,-0.046580706600828026,0.10856346335933598,-0.00047246335402240103,0.1278125948998199,-0.0017772488196048375,-0.06831536870659405
299,0.2896,53.8752,893.19,-0.00234177,219.975,-0.899633,-3.487,-0.0478593,0.120672,-0.0709925,0.103395,-0.00047415,-0.00178478,0.135262,-0.04673209756385921,0.10892934967016554,-0.0004740376086529441,0.12825478410044155,-0.0017831882273046107,-0.06853112188201949
300,0.2906,53.8932,893.679,-0.00238347,220.073,-0.899369,-3.48579,-0.048018,0.121063,-0.071224,0.103724,-0.000475722,-0.00179073,0.135711,-0.04688336917625591,0.10929424744860006,-0.0004756088622307475,0.12869601797662633,-0.0017891275996650968,-0.06874673196947323
301,0.2916,53.9111,894.166,-0.00242508,220.171,-0.899099,-3.48455,-0.0481767,0.121454,-0.0714554,0.104053,-0.000477292,-0.00179666,0.136161,-0.047034616783752536,0.1096592652981545,-0.000477178114293042,0.12913742440898912,-0.0017950469725874774,-0.0689621990451934
302,0.2926,53.9289,894.652,-0.00246663,220.268,-0.898823,-3.48329,-0.0483353,0.121845,-0.0716867,0.104382,-0.00047886,-0.00180259,0.13661,-0.04718574510873763,0.1100244032583384,-0.0004787453648490425,0.12957900346501283,-0.0018009663104080476,-0.06917752318535753
303,0.2936,53.9467,895.137,-0.00250809,220.365,-0.89854,-3.482,-0.0484939,0.122236,-0.0719179,0.104711,-0.000480426,-0.00180851,0.137059,-0.04733684946667105,0.11038966136867479,-0.00048031061390818586,0.13002075521220613,-0.001806875631195859,-0.06939270446608248
304,0.2946,53.9644,895.619,-0.00254948,220.462,-0.898251,-3.4807,-0.0486523,0.122626,-0.072149,0.10504,-0.00048199,-0.00181443,0.137508,-0.04748773935892059,0.11075503966869982,-0.00048187386147990896,0.1304615492559904,-0.0018127849170006538,-0.06960774296342498
305,0.2956,53.982,896.101,-0.0025908,220.559,-0.897956,-3.47937,-0.0488108,0.123016,-0.07238,0.105368,-0.000483551,-0.00182033,0.137956,-0.047638700588238825,0.1111194270779794,-0.0004834341080570681,0.13090251524297836,-0.0018186742041962356,-0.06982263875338102
306,0.2966,53.9995,896.581,-0.00263204,220.655,-0.897655,-3.47802,-0.0489692,0.123407,-0.0726109,0.105696,-0.000485111,-0.00182622,0.138405,-0.047789542671057283,0.1114839340259326,-0.00048499335268359367,0.1313447845844602,-0.0018245534748906334,-0.07003739191188663
307,0.2976,54.017,897.059,-0.0026732,220.751,-0.897348,-3.47664,-0.0491275,0.123797,-0.0728417,0.106025,-0.000486668,-0.00183211,0.138853,-0.047940265656413406,0.11184967240089083,-0.00048654959633742667,0.13178609510040507,-0.0018304327109562868,-0.07025200251481711
308,0.2986,54.0344,897.536,-0.00271428,220.846,-0.897035,-3.47524,-0.0492858,0.124187,-0.0730724,0.106353,-0.000488224,-0.00183799,0.139301,-0.04809096478420927,0.1122144189085954,-0.00048810483805628024,0.13222757776101735,-0.0018363019307564565,-0.07046647063798772
309,0.2996,54.0517,898.012,-0.00275529,220.942,-0.896716,-3.47382,-0.049444,0.124576,-0.073303,0.10668,-0.000489777,-0.00184386,0.139749,-0.04824154488238064,0.11257817249404845,-0.0004896570788240906,0.13266809996478002,-0.001842161134467335,-0.07068079635715341
310,0.3006,54.069,898.486,-0.00279622,221.037,-0.89639,-3.47238,-0.0496021,0.124966,-0.0735335,0.107008,-0.000491328,-0.00184972,0.140197,-0.048392005999870036,0.11294315798897547,-0.0004912073181637666,0.1331099266743745,-0.0018480103222650035,-0.07089497974800896
311,0.3016,54.0862,898.959,-0.00283707,221.131,-0.896059,-3.47092,-0.0497602,0.125355,-0.0737639,0.107335,-0.000492876,-0.00185558,0.140644,-0.04854244333133695,0.1133071499110736,-0.0004927545565772684,0.13355079217863208,-0.0018538594757864235,-0.07110902088618909
312,0.3026,54.1033,899.43,-0.00287784,221.225,-0.895722,-3.46943,-0.0499182,0.125745,-0.0739942,0.107663,-0.000494423,-0.00186142,0.141091,-0.048692761749822844,0.11367237454981094,-0.0004943007930899856,0.1339929632053274,-0.0018596886322259643,-0.07132291984726824
313,0.3036,54.1203,899.9,-0.00291853,221.319,-0.895379,-3.46792,-0.0500762,0.126134,-0.0742244,0.10799,-0.000495967,-0.00186726,0.141539,-0.04884305641987485,0.1140366049647159,-0.000495844028698178,0.134434172277615,-0.0018655177546232915,-0.0715366767067609
314,0.3046,54.1373,900.369,-0.00295915,221.413,-0.89503,-3.46639,-0.0502341,0.126523,-0.0744544,0.108317,-0.000497509,-0.00187309,0.141985,-0.04899323224457275,0.11440095450244225,-0.0004973852629184261,0.1348755530136183,-0.0018713368616920523,-0.0717501987151461
315,0.3056,54.1542,900.836,-0.00299968,221.506,-0.894675,-3.46484,-0.050392,0.126911,-0.0746844,0.108644,-0.000499049,-0.00187891,0.142432,-0.04914338435837995,0.11476542320194927,-0.0004989244957599448,0.13531597016358954,-0.0018771459536071067,-0.07196367161911665
316,0.3066,54.1711,901.302,-0.00304014,221.599,-0.894314,-3.46327,-0.0505498,0.1273,-0.0749143,0.10897,-0.000500587,-0.00188472,0.142879,-0.049293417694386665,0.11512889597275566,-0.0005004617272319489,0.13575769398569637,-0.0018829450305427597,-0.07217700264767002
317,0.3076,54.1878,901.766,-0.00308051,221.692,-0.893948,-3.46168,-0.0507075,0.127689,-0.0751441,0.109297,-0.000502123,-0.00189052,0.143325,-0.049443332301338794,0.11549360274804665,-0.0005019969573436533,0.13619958967179557,-0.0018887340926732055,-0.07239019187608109
318,0.3086,54.2046,902.229,-0.00312081,221.784,-0.893575,-3.46006,-0.0508652,0.128077,-0.0753738,0.109623,-0.000503657,-0.00189632,0.143771,-0.04959322326862148,0.11585731294408341,-0.0005035301861042729,0.13664052064766574,-0.0018945231212272873,-0.0726032393795647
319,0.3096,54.2212,902.691,-0.00316103,221.877,-0.893198,-3.45842,-0.0510229,0.128465,-0.0756034,0.109949,-0.000505188,-0.0019021,0.144217,-0.04974309059996229,0.11622114172897291,-0.0005050604140282022,0.13708162273794877,-0.0019002921542111695,-0.07281614523327584
320,0.3106,54.2378,903.151,-0.00320116,221.968,-0.892814,-3.45677,-0.0511805,0.128853,-0.0758328,0.110275,-0.000506717,-0.00190788,0.144663,-0.04989283928837718,0.11658508914138155,-0.000506588640622474,0.13752289600904977,-0.0019060611538500583,-0.07302881681519624
321,0.3116,54.2543,903.61,-0.00324121,222.06,-0.892425,-3.45509,-0.051338,0.129241,-0.0760622,0.110601,-0.000508244,-0.00191365,0.145109,-0.05004246938251,0.11694915521998817,-0.0005081148658964141,0.1379643405273998,-0.001911820139262499,-0.07324143961585117
322,0.3126,54.2707,904.068,-0.00328119,222.151,-0.89203,-3.45339,-0.0514954,0.129628,-0.0762915,0.110926,-0.000509768,-0.00191941,0.145554,-0.050191980930961666,0.11731222269070285,-0.0005096380903686359,0.13840481795406845,-0.0019175691106214643,-0.07345392099182646
323,0.3136,54.2871,904.524,-0.00332108,222.242,-0.891629,-3.45167,-0.0516528,0.130016,-0.0765207,0.111252,-0.000511291,-0.00192516,0.146,-0.050341468948147616,0.11767652585348909,-0.0005111603130306674,0.1388466047245258,-0.001923308068099594,-0.07366626101803853
324,0.3146,54.3035,904.979,-0.00336088,222.332,-0.891223,-3.44993,-0.0518102,0.130403,-0.0767498,0.111577,-0.000512811,-0.00193091,0.146445,-0.050490933437771224,0.11803982975807825,-0.000512679534912297,0.13928742365351532,-0.0019290469925787868,-0.07387845976934426
325,0.3156,54.3197,905.433,-0.00340061,222.423,-0.890812,-3.44817,-0.0519675,0.13079,-0.0769788,0.111902,-0.000514329,-0.00193664,0.14689,-0.05064027946756833,0.11840325175562527,-0.0005141967555132299,0.139728413212445,-0.0019347659227547664,-0.07409051732054073
326,0.3166,54.3359,905.885,-0.00344026,222.513,-0.890395,-3.44638,-0.0521247,0.131177,-0.0772076,0.112227,-0.000515845,-0.00194237,0.147334,-0.05078950708603791,0.118766791884517,-0.0005157119748424588,0.14016957346736136,-0.0019404848201612923,-0.07430234117660461
327,0.3176,54.352,906.337,-0.00347982,222.603,-0.889972,-3.44458,-0.0522819,0.131564,-0.0774364,0.112552,-0.000517358,-0.00194809,0.147779,-0.05093871124776961,0.11913045018315205,-0.0005172241934262578,0.14061090448433688,-0.0019461937042607458,-0.07451411657291418
328,0.3186,54.3681,906.786,-0.0035193,222.692,-0.889544,-3.44276,-0.052439,0.131951,-0.0776651,0.112877,-0.00051887,-0.0019538,0.148223,-0.05108779706523492,0.11949422668994192,-0.0005187354102407227,0.14105240632946914,-0.0019518925752244343,-0.07472575099313561
329,0.3196,54.3841,907.235,-0.00355869,222.781,-0.889111,-3.44092,-0.0525961,0.132338,-0.0778937,0.113201,-0.000520379,-0.0019595,0.148667,-0.051236859463158035,0.11985700158574897,-0.0005202436263310739,0.14149407906888145,-0.001957581433223443,-0.07493724451182837
330,0.3206,54.4001,907.682,-0.003598,222.87,-0.888672,-3.43906,-0.0527531,0.132724,-0.0781222,0.113525,-0.000521886,-0.00196519,0.149111,-0.05138580358380296,0.12021989403966571,-0.0005217498411890231,0.14193478083337063,-0.0019632602784287467,-0.07514859720349276
331,0.3216,54.416,908.128,-0.00363723,222.959,-0.888228,-3.43717,-0.05291,0.13311,-0.0783506,0.11385,-0.00052339,-0.00197087,0.149555,-0.05153462947552412,0.12058402467325147,-0.0005232530553468395,0.14237565274157649,-0.0019689291110108753,-0.0753598091425699
332,0.3226,54.4318,908.573,-0.00367638,223.047,-0.887778,-3.43527,-0.0530669,0.133496,-0.0785788,0.114173,-0.000524893,-0.00197655,0.149999,-0.05168343201829473,0.12094603177422036,-0.0005247552677685174,0.14281669485918735,-0.0019745979113940937,-0.07557078796052485
333,0.3236,54.4476,909.017,-0.00371544,223.135,-0.887323,-3.43335,-0.0532238,0.133882,-0.078807,0.114497,-0.000526393,-0.00198221,0.150442,-0.051832211215777746,0.1213092771310853,-0.0005262544795112678,0.14325790725191645,-0.0019802467191838424,-0.0757817186386065
334,0.3246,54.4633,909.459,-0.00375441,223.223,-0.886863,-3.43141,-0.0533805,0.134268,-0.0790351,0.114821,-0.00052789,-0.00198787,0.150885,-0.05198077746781038,0.12167264019851398,-0.0005277506905884133,0.14369928998550296,-0.0019858954950013885,-0.07599250878705466
335,0.3256,54.4789,909.9,-0.0037933,223.31,-0.886397,-3.42945,-0.0535373,0.134653,-0.0792631,0.115144,-0.000529386,-0.00199352,0.151328,-0.052129415228398424,0.12203499897909076,-0.0005292458999549554,0.14413969898544,-0.0019915342587623064,-0.07620315848007364
336,0.3266,54.4945,910.34,-0.00383211,223.397,-0.885927,-3.42747,-0.0536939,0.135039,-0.079491,0.115468,-0.000530879,-0.00199916,0.151771,-0.05227784013999981,0.122398597218494,-0.0005307381086768759,0.14458142215633574,-0.001997163010635905,-0.07641366779180891
337,0.3276,54.51,910.779,-0.00387083,223.484,-0.885451,-3.42547,-0.0538505,0.135424,-0.0797188,0.115791,-0.00053237,-0.00200479,0.152214,-0.05242624181007982,0.12276119052106171,-0.0005322283162353392,0.14502217084254387,-0.0020027817507914936,-0.07662403679634655
338,0.3286,54.5255,911.216,-0.00390947,223.571,-0.88497,-3.42345,-0.0540071,0.135809,-0.0799465,0.116114,-0.000533859,-0.00201041,0.152656,-0.05257462024227788,0.12312390096018233,-0.0005337165226394491,0.14546308924966533,-0.0020083904793974927,-0.07683426556771411
339,0.3296,54.5409,911.652,-0.00394802,223.657,-0.884484,-3.42141,-0.0541636,0.136194,-0.0801741,0.116437,-0.000535346,-0.00201602,0.153099,-0.05272288071252562,0.12348672857369758,-0.0005352027278979765,0.1459041774430554,-0.0020139891966224344,-0.07704435417987987
340,0.3306,54.5563,912.087,-0.00398648,223.743,-0.883992,-3.41935,-0.05432,0.136579,-0.0804016,0.116759,-0.00053683,-0.00202163,0.153541,-0.05287102326893223,0.12384854955034941,-0.0005366859325566242,0.1463454354880942,-0.0020195878824387226,-0.07725430270675349
341,0.3316,54.5716,912.521,-0.00402486,223.829,-0.883496,-3.41728,-0.0544764,0.136964,-0.080629,0.117082,-0.000538312,-0.00202722,0.153983,-0.05301914265765484,0.12421161126316438,-0.0005381671360904505,0.1467868634501872,-0.0020251665773499683,-0.07746411122218566
342,0.3326,54.5868,912.954,-0.00406315,223.915,-0.882994,-3.41518,-0.0546327,0.137348,-0.0808563,0.117404,-0.000539791,-0.00203281,0.154424,-0.053167144199035676,0.12457366568962547,-0.0005396453390481559,0.1472273141668774,-0.0020307452410764926,-0.07767377979996837
343,0.3336,54.602,913.385,-0.00410136,224.0,-0.882488,-3.41307,-0.054789,0.137732,-0.0810835,0.117726,-0.000541269,-0.00203839,0.154866,-0.053315122609583376,0.12493583671638353,-0.0005411225403606501,0.1476679340491205,-0.0020363138939814007,-0.07788330851383451
344,0.3346,54.6171,913.815,-0.00413948,224.085,-0.881976,-3.41094,-0.0549452,0.138117,-0.0813106,0.118048,-0.000542744,-0.00204396,0.155307,-0.053462983239215944,0.12529812438098986,-0.0005425967411176735,0.1481098712711859,-0.0020418725362322254,-0.07809269743745884
345,0.3356,54.6322,914.245,-0.00417751,224.17,-0.88146,-3.40879,-0.0551014,0.138501,-0.0815376,0.11837,-0.000544217,-0.00204952,0.155749,-0.05361082077482182,0.12566052872100797,-0.0005440689407884003,0.14855083012043457,-0.002047421167995722,-0.078301946644457
346,0.3366,54.6472,914.672,-0.00421545,224.255,-0.880938,-3.40662,-0.0552575,0.138884,-0.0817645,0.118692,-0.000545687,-0.00205507,0.15619,-0.05375854059586693,0.12602304977401335,-0.000545538139927304,0.14899080933901265,-0.0020529597894385354,-0.07851105620838628
347,0.3376,54.6622,915.099,-0.00425331,224.339,-0.880412,-3.40443,-0.0554135,0.139268,-0.0819913,0.119013,-0.000547155,-0.00206062,0.15663,-0.05390614275026662,0.1263845611924692,-0.0005470053380003392,0.14943210653343764,-0.0020584983801421597,-0.0787200262027451
348,0.3386,54.6771,915.525,-0.00429108,224.423,-0.87988,-3.40222,-0.0555695,0.139652,-0.082218,0.119334,-0.000548621,-0.00206615,0.157071,-0.05405372188052604,0.12674618867471787,-0.0005484705350164987,0.14987357321852524,-0.00206401698138714,-0.0789288567009735
349,0.3396,54.692,915.949,-0.00432876,224.507,-0.879344,-3.4,-0.0557254,0.140035,-0.0824446,0.119656,-0.000550085,-0.00207168,0.157512,-0.054201183410359954,0.12710905936651717,-0.0005499337309845531,0.15031405914473828,-0.00206953555211431,-0.07913754777645332
350,0.3406,54.7068,916.373,-0.00436635,224.59,-0.878803,-3.39776,-0.0558813,0.140418,-0.0826711,0.119977,-0.000551546,-0.00207719,0.157952,-0.05434862195273338,0.12747091945000988,-0.0005513939264647494,0.15075471380937233,-0.0020750341338248157,-0.07934609950250737
351,0.3416,54.7215,916.795,-0.00440386,224.673,-0.878257,-3.3955,-0.0560371,0.140801,-0.0828975,0.120297,-0.000553005,-0.0020827,0.158392,-0.0544959429608286,0.12783176787690298,-0.0005528521209172688,0.1511955372770668,-0.0020805326852382233,-0.07955451195240038
352,0.3426,54.7362,917.216,-0.00444127,224.756,-0.877706,-3.39322,-0.0561929,0.141184,-0.0831239,0.120618,-0.000554462,-0.0020882,0.158832,-0.05464324101809859,0.128193859987066,-0.000554308314350882,0.1516365296124853,-0.002086021227215018,-0.07976287722305575
353,0.3436,54.7509,917.636,-0.0044786,224.839,-0.87715,-3.39093,-0.0563486,0.141567,-0.0833501,0.120939,-0.000555916,-0.00209369,0.159272,-0.05479042160716596,0.1285560683474536,-0.0005557615073301658,0.15207769088031697,-0.002091499759919846,-0.07997101131937412
354,0.3446,54.7655,918.055,-0.00451105,224.922,-0.876588,-3.38861,-0.0565042,0.14195,-0.0835762,0.121259,-0.000557368,-0.00209917,0.159711,-0.054937484775752665,0.12891726407755932,-0.0005572126993108606,0.15251902114527494,-0.002096968283517353,-0.08017900635898956
355,0.3456,54.78,918.473,-0.00456029,225.004,-0.876027,-3.38628,-0.0566598,0.142332,-0.0838022,0.121579,-0.000558818,-0.00210464,0.16015,-0.05508452506309047,0.12927857540879395,-0.0005586618903017371,0.15295936751215367,-0.0021024267981718525,-0.08038686241493331
356,0.3466,54.7945,918.89,-0.00458575,225.086,-0.875454,-3.38393,-0.0568153,0.142714,-0.0840282,0.121899,-0.000560265,-0.0021101,0.16059,-0.05523144799588908,0.12964000237815565,-0.0005601080808717018,0.15339988212347744,-0.002107875304047102,-0.08059467150071642
357,0.3476,54.809,919.305,-0.00463035,225.168,-0.874881,-3.38157,-0.0569708,0.143097,-0.084254,0.122219,-0.00056171,-0.00211556,0.161029,-0.055378348083947926,0.1300015450226546,-0.0005615522704720544,0.15384171888466946,-0.0021133237801735927,-0.08080224978742101
358,0.3486,54.8234,919.72,-0.00466155,225.25,-0.8743,-3.37918,-0.0571262,0.143479,-0.0844797,0.122539,-0.000563153,-0.002121,0.161468,-0.05552513088333677,0.13036320337931273,-0.0005629944591115654,0.1542825706186035,-0.0021187522689266602,-0.08100968930921337
359,0.3496,54.8377,920.133,-0.00470238,225.331,-0.873717,-3.37678,-0.0572816,0.14386,-0.0847054,0.122859,-0.000564593,-0.00212644,0.161906,-0.05567189087445079,0.13072497748516398,-0.0005644336473633604,0.15472243606705627,-0.0021241807281489056,-0.0812170820171888
360,0.3506,54.852,920.545,-0.00473614,225.412,-0.873128,-3.37437,-0.0574369,0.144242,-0.0849309,0.123178,-0.000566031,-0.00213187,0.162345,-0.05581853364269229,0.1310857362909521,-0.000565870834674409,0.15516362429922115,-0.0021295991791364655,-0.08142424420677918
361,0.3516,54.8662,920.957,-0.00477487,225.493,-0.872535,-3.37193,-0.0575922,0.144624,-0.0851564,0.123497,-0.000567467,-0.00213729,0.162783,-0.05596515363908017,0.13144661019715653,-0.0005673060210534819,0.15560498109748488,-0.0021350076220519876,-0.08163135968656254
362,0.3526,54.8804,921.367,-0.00480985,225.573,-0.871937,-3.36948,-0.0577474,0.145005,-0.0853817,0.123816,-0.0005689,-0.0021427,0.163221,-0.05611165647832106,0.13180759924050078,-0.0005687382070778124,0.15604535048032342,-0.0021404060570580086,-0.08183824483473812
363,0.3536,54.8945,921.776,-0.0048474,225.654,-0.871335,-3.36701,-0.0579025,0.145386,-0.085607,0.124135,-0.000570331,-0.0021481,0.163659,-0.05625804220789443,0.1321687034577188,-0.0005701683921901513,0.15648588767586324,-0.00214579448431651,-0.08204508337694016
364,0.3546,54.9086,922.184,-0.00488293,225.734,-0.870728,-3.36453,-0.0580576,0.145767,-0.0858321,0.124454,-0.00057176,-0.00215349,0.164097,-0.056404405234801835,0.13252992288555743,-0.0005715965763990472,0.15692659274805276,-0.0021511729039894734,-0.08225169177402447
365,0.3556,54.9227,922.591,-0.00491976,225.814,-0.870117,-3.36202,-0.0582126,0.146148,-0.0860572,0.124773,-0.000573186,-0.00215887,0.164534,-0.05655065121763403,0.13289125756077458,-0.0005730217602861742,0.1573674657608657,-0.002156541316238214,-0.08245825366879267
366,0.3566,54.9367,922.997,-0.00495549,225.894,-0.869501,-3.3595,-0.0583676,0.146529,-0.0862821,0.125091,-0.00057461,-0.00216424,0.164972,-0.056696874534095554,0.13325157426799894,-0.0005744449432898424,0.15780850677829927,-0.0021618997212239366,-0.08266458560464673
367,0.3576,54.9506,923.402,-0.00499186,225.973,-0.868881,-3.35697,-0.0585225,0.146909,-0.086507,0.125409,-0.000576032,-0.00216961,0.165409,-0.056842980872002125,0.13361200557415653,-0.0005758661254187114,0.1582485576152386,-0.002167258097435232,-0.08287087114166602
368,0.3586,54.9645,923.806,-0.00502762,226.052,-0.868256,-3.35442,-0.0586774,0.14729,-0.0867318,0.125727,-0.000577451,-0.00217496,0.165846,-0.056989064579789805,0.13397255151569532,-0.0005772843072584521,0.1586899343926269,-0.00217259648832413,-0.08307701859799121
369,0.3596,54.9783,924.209,-0.00506366,226.131,-0.867627,-3.35185,-0.0588322,0.14767,-0.0869564,0.126045,-0.000578868,-0.00218031,0.166283,-0.05713503137447151,0.13433321212907567,-0.0005787004882432667,0.15913032023570706,-0.002177934850652874,-0.08328293637418216
370,0.3606,54.9921,924.611,-0.00509933,226.21,-0.866993,-3.34926,-0.0589869,0.14805,-0.087181,0.126363,-0.000580282,-0.00218565,0.166719,-0.057280881303334974,0.13469398745076866,-0.0005801136689616015,0.15957087345720744,-0.0021832632062540602,-0.08348880790643409
371,0.3616,55.0059,925.011,-0.00513511,226.289,-0.866355,-3.34666,-0.0591416,0.14843,-0.0874055,0.126681,-0.000581694,-0.00219097,0.167156,-0.05742670867095967,0.1350548775172573,-0.0005815248488448832,0.16001159412074384,-0.002188571577173448,-0.08369454157459066
372,0.3626,55.0196,925.411,-0.00517066,226.367,-0.865713,-3.34404,-0.0592962,0.14881,-0.0876299,0.126998,-0.000583104,-0.00219629,0.167592,-0.057572419238082095,0.13541474694972178,-0.0005829340279013273,0.16045248228995646,-0.002193879919852426,-0.08390013745074132
373,0.3636,55.0333,925.81,-0.00520621,226.445,-0.865066,-3.34141,-0.0594508,0.14919,-0.0878542,0.127316,-0.000584511,-0.0022016,0.168028,-0.05771810728009197,0.13577586625417792,-0.0005843402067239323,0.1608935380285097,-0.0021991782562830187,-0.08410559560691755
374,0.3646,55.0469,926.208,-0.0052416,226.523,-0.864415,-3.33876,-0.0596053,0.149569,-0.0880784,0.127633,-0.000585916,-0.0022069,0.168464,-0.05786367858684427,0.1361359642763016,-0.0005857443847394617,0.1613336000659109,-0.0022044665866242097,-0.08431091611509345
375,0.3656,55.0604,926.605,-0.00527695,226.601,-0.86376,-3.3361,-0.0597598,0.149948,-0.0883025,0.12795,-0.000587319,-0.0022122,0.1689,-0.05800922740456682,0.13649617646759293,-0.0005871465619564642,0.16177382891843384,-0.0022097548889372653,-0.08451609904718582
376,0.3666,55.074,927.0,-0.00531217,226.678,-0.8631,-3.33341,-0.0599142,0.150328,-0.0885265,0.128267,-0.000588719,-0.00221748,0.169335,-0.05815465955220489,0.13685650286424966,-0.000588545738971824,0.16221538686411918,-0.0022150232075230925,-0.08472114447505397
377,0.3676,55.0874,927.395,-0.00534732,226.755,-0.862436,-3.33072,-0.0600686,0.150707,-0.0887504,0.128583,-0.000590117,-0.00222275,0.169771,-0.058300069246852715,0.13721580628610552,-0.000589942915208308,0.16265594997717714,-0.0022202815204950266,-0.08492605247049989
378,0.3686,55.1009,927.789,-0.00538236,226.832,-0.861768,-3.328,-0.0602229,0.151086,-0.0889742,0.1289,-0.000591513,-0.00222802,0.170206,-0.05844536233651776,0.1375763608415761,-0.0005913380906741317,0.1630966800953002,-0.002225539805755905,-0.0851308231052682
379,0.3696,55.1143,928.182,-0.00541732,226.909,-0.861096,-3.32528,-0.0603771,0.151464,-0.0891979,0.129216,-0.000592906,-0.00223327,0.170641,-0.05859053886824728,0.1379358917744975,-0.0005927302659705092,0.1635364137448001,-0.002230778107921383,-0.08533545645104657
380,0.3706,55.1276,928.574,-0.00545218,226.986,-0.860419,-3.32253,-0.0605313,0.151843,-0.0894215,0.129533,-0.000594297,-0.00223852,0.171076,-0.05873569301548143,0.1382966746332519,-0.0005941204405158773,0.1639774776219345,-0.002236016382585748,-0.0855399525794649
381,0.3716,55.1409,928.965,-0.00548695,227.062,-0.859739,-3.31977,-0.0606855,0.152221,-0.0896451,0.129849,-0.000595685,-0.00224375,0.171511,-0.05888082478167167,0.1386564332212994,-0.0005955076149140037,0.16441754427583333,-0.002241234674574266,-0.08574440298766073
382,0.3726,55.1541,929.355,-0.00552162,227.138,-0.859054,-3.317,-0.0608395,0.1526,-0.0898685,0.130165,-0.000597071,-0.00224898,0.171945,-0.05902574597543697,0.1390163055110245,-0.0005968927885805497,0.16485894216473018,-0.0022464529392711707,-0.08594862487559896
383,0.3736,55.1674,929.744,-0.0055562,227.214,-0.858365,-3.31421,-0.0609936,0.152978,-0.0900918,0.13048,-0.000598455,-0.0022542,0.17238,-0.059170738935987566,0.13937515216264074,-0.000598275961523731,0.1652993420752078,-0.002251661199193178,-0.08615270976073885
384,0.3746,55.1805,930.132,-0.00559068,227.29,-0.857672,-3.3114,-0.0611475,0.153356,-0.0903151,0.130796,-0.000599836,-0.00225941,0.172814,-0.05931552141796759,0.13973525160343936,-0.0005996561343516449,0.16573990848831843,-0.00225685945449694,-0.08635674907881152
385,0.3756,55.1936,930.519,-0.00562508,227.365,-0.856975,-3.30858,-0.0613014,0.153734,-0.0905382,0.131111,-0.000601215,-0.00226461,0.173248,-0.05946028161963812,0.1400943247587474,-0.000601034306475623,0.16618064146701217,-0.0022620477053383325,-0.08656056015212144
386,0.3766,55.2067,930.905,-0.00565937,227.441,-0.856273,-3.30574,-0.0614553,0.154111,-0.0907613,0.131427,-0.000602591,-0.0022698,0.173681,-0.05960501954442787,0.14045465149399683,-0.0006024094785063161,0.1666203744533048,-0.0022672259518731197,-0.08676432576025273
387,0.3776,55.2198,931.29,-0.00569357,227.516,-0.855568,-3.30289,-0.0616091,0.154489,-0.0909842,0.131742,-0.000603965,-0.00227498,0.174115,-0.05974964117073378,0.1408139512959652,-0.0006037826498522803,0.16706144031104353,-0.0022723941942569548,-0.08696786330693851
388,0.3786,55.2327,931.675,-0.00572768,227.591,-0.854859,-3.30003,-0.0617628,0.154866,-0.0912071,0.132057,-0.000605337,-0.00228016,0.174549,-0.05989414654536329,0.1411733642951991,-0.0006051538205218421,0.16750150542110198,-0.002277562409869316,-0.08717135549016108
389,0.3796,55.2457,932.058,-0.00576169,227.666,-0.854146,-3.29715,-0.0619165,0.155243,-0.0914298,0.132372,-0.000606706,-0.00228532,0.174982,-0.060038629711223535,0.14153289052736073,-0.0006065219911297604,0.16794173646698374,-0.002282710644364805,-0.08737461979497296
390,0.3806,55.2586,932.44,-0.00579561,227.74,-0.853428,-3.29425,-0.0620702,0.15562,-0.0916525,0.132686,-0.000608073,-0.00229048,0.175415,-0.06018309067172778,0.14189138813616542,-0.0006078881610803721,0.16838213351125852,-0.0022878588522955434,-0.0875778388378643
391,0.3816,55.2715,932.822,-0.00582943,227.814,-0.852707,-3.29134,-0.0622237,0.155997,-0.0918751,0.133001,-0.000609438,-0.00229562,0.175848,-0.06032734149577568,0.1422511405814637,-0.0006092523303820041,0.1688226966165196,-0.0022929870795214136,-0.08778092140701044
392,0.3826,55.2843,933.202,-0.00586316,227.888,-0.851982,-3.28842,-0.0623773,0.156374,-0.0920976,0.133315,-0.0006108,-0.00230076,0.17628,-0.06047166413185967,0.14260986375619722,-0.0006106134996534118,0.16926342584538356,-0.0022981152803883687,-0.08798386757339915
393,0.3836,55.2971,933.582,-0.00589679,227.962,-0.851253,-3.28548,-0.0625307,0.156751,-0.09232,0.13363,-0.000612159,-0.00230588,0.176713,-0.0606157767248634,0.142969842556965,-0.0006119716689068078,0.16970432126049095,-0.002303223500961127,-0.08818667740796127
394,0.3846,55.3098,933.961,-0.00593033,228.036,-0.85052,-3.28252,-0.0626841,0.157127,-0.0925423,0.133944,-0.000613517,-0.002311,0.177145,-0.06075986721269089,0.14332879143955335,-0.0006133288369277734,0.17014421277970815,-0.002308331695379806,-0.08838935098157119
395,0.3856,55.3225,934.339,-0.00596377,228.11,-0.849783,-3.27955,-0.0628375,0.157503,-0.0927645,0.134258,-0.000614871,-0.00231611,0.177578,-0.06090393559873275,0.14368785304978782,-0.0006146820055643598,0.17058426972923524,-0.0023134298867789616,-0.08859188836504639
396,0.3866,55.3352,934.716,-0.00599711,228.183,-0.849042,-3.27657,-0.0629908,0.15788,-0.0929866,0.134571,-0.000616224,-0.00232121,0.17801,-0.061047887991172556,0.1440458833766156,-0.0006160341729849472,0.1710256631963638,-0.002318518075311582,-0.08879428962914815
397,0.3876,55.3478,935.092,-0.00603036,228.256,-0.848297,-3.27357,-0.063144,0.158256,-0.0932086,0.134885,-0.000617574,-0.0023263,0.178441,-0.061191724436579276,0.1444051701890734,-0.000617383340428046,0.17146605163356354,-0.002323596261130656,-0.08899655484458091
398,0.3886,55.3604,935.467,-0.00606351,228.329,-0.847549,-3.27056,-0.0632972,0.158631,-0.0934305,0.135198,-0.000618921,-0.00233138,0.178873,-0.061335538847930415,0.1447634250713068,-0.0006187295079060906,0.1719054337819299,-0.0023286644443883953,-0.08919868408199261
399,0.3896,55.3729,935.841,-0.00609657,228.402,-0.846796,-3.26754,-0.0634504,0.159007,-0.0936523,0.135512,-0.000620266,-0.00233645,0.179305,-0.061479331228601386,0.1451229372272338,-0.0006200736748109836,0.17234615307506673,-0.0023337226252372334,-0.08940067741197477
400,0.3906,55.3854,936.215,-0.00612953,228.474,-0.84604,-3.2645,-0.0636034,0.159383,-0.0938741,0.135825,-0.000621609,-0.00234151,0.179736,-0.06162291390656838,0.14548141680571347,-0.0006214158411507187,0.17278703810981533,-0.002338770803828827,-0.08960262594480461
401,0.3916,55.3979,936.587,-0.00616239,228.547,-0.84528,-3.26144,-0.0637565,0.159758,-0.0940957,0.136138,-0.00062295,-0.00234657,0.180167,-0.06176656844141404,0.14584000860586266,-0.0006227560069335114,0.1732269157210038,-0.002343818956876742,-0.08980434765130474
402,0.3926,55.4103,936.959,-0.00619516,228.619,-0.844517,-3.25838,-0.0639094,0.160133,-0.0943172,0.136451,-0.000624287,-0.00235161,0.180598,-0.06191001336645541,0.1461987126628128,-0.0006240921734155247,0.17366695831722923,-0.0023488471313581893,-0.09000593366182508
403,0.3936,55.4227,937.33,-0.00622783,228.691,-0.843749,-3.25529,-0.0640623,0.160508,-0.0945387,0.136763,-0.000625623,-0.00235665,0.181029,-0.06205343636044436,0.14655638245474978,-0.000625427338736495,0.17410716596037257,-0.002353875280497686,-0.09020747502598891
404,0.3946,55.4351,937.699,-0.0062604,228.763,-0.842978,-3.2522,-0.0642152,0.160883,-0.09476,0.137076,-0.000626956,-0.00236167,0.181459,-0.062196837426733986,0.1469153107718093,-0.0006267595041539176,0.17454753871233808,-0.0023588834514731705,-0.09040878983546041
405,0.3956,55.4474,938.068,-0.00629288,228.834,-0.842203,-3.24909,-0.064368,0.161258,-0.0949813,0.137388,-0.000628287,-0.00236669,0.18189,-0.06234012280269363,0.14727320417723821,-0.0006280896690518123,0.1749880766350531,-0.0023638915973078767,-0.09061006009889372
406,0.3966,55.4596,938.437,-0.00632526,228.906,-0.841425,-3.24597,-0.0645208,0.161633,-0.0952025,0.1377,-0.000629615,-0.00237169,0.18232,-0.06248338628632055,0.1476312092628307,-0.0006294168340674755,0.17542877979046856,-0.0023688797653794724,-0.09081119490726997
407,0.3976,55.4719,938.804,-0.00635754,228.977,-0.840643,-3.24283,-0.0646735,0.162007,-0.0954236,0.138013,-0.000630941,-0.00237669,0.18275,-0.06262653414361752,0.14799047405333665,-0.0006307419985821516,0.1758684723714976,-0.002373867908510241,-0.09101219433077079
408,0.3986,55.4841,939.17,-0.00638973,229.048,-0.839857,-3.23968,-0.0648261,0.162382,-0.0956445,0.138324,-0.000632264,-0.00238168,0.18318,-0.06276956642086684,0.14834755461391635,-0.0006320641632359125,0.1763095057372246,-0.002378846050488881,-0.09121296756082342
409,0.3996,55.4962,939.536,-0.00642181,229.119,-0.839068,-3.23652,-0.0649787,0.162756,-0.0958654,0.138636,-0.000633585,-0.00238666,0.18361,-0.06291257687305607,0.14870589494914133,-0.0006333843274072271,0.17674952777136155,-0.002383814191464828,-0.09141369644496777
410,0.4006,55.5083,939.901,-0.0064538,229.19,-0.838274,-3.23334,-0.0651312,0.16313,-0.0960862,0.138948,-0.000634903,-0.00239163,0.184039,-0.06305547180906712,0.14906434710399363,-0.0006347014917386096,0.17718971440451758,-0.0023887723315874076,-0.09161429015443223
411,0.4016,55.5204,940.265,-0.0064857,229.26,-0.837478,-3.23015,-0.0652837,0.163504,-0.0963069,0.139259,-0.000636219,-0.00239659,0.184469,-0.06319834495526189,0.1494217616910305,-0.0006360166556060864,0.1776300656982639,-0.0023937204710051674,-0.0918147487591745
412,0.4026,55.5325,940.628,-0.00651749,229.33,-0.836678,-3.22694,-0.0654361,0.163878,-0.0965276,0.139571,-0.000637533,-0.00240154,0.184898,-0.06334110264907822,0.14978043723115286,-0.0006373298190174292,0.1780705817141952,-0.002398658609866988,-0.09201516312758429
413,0.4036,55.5445,940.99,-0.00654919,229.401,-0.835874,-3.22373,-0.0655885,0.164251,-0.0967481,0.139882,-0.000638844,-0.00240648,0.185327,-0.06348383858827966,0.15013807455685324,-0.0006386399826192601,0.17851008400325585,-0.002403586748320863,-0.09221535171251205
414,0.4046,55.5564,941.352,-0.00658079,229.47,-0.835066,-3.2205,-0.0657408,0.164625,-0.0969685,0.140193,-0.000640153,-0.00241141,0.185756,-0.06362645913883203,0.1504958231250595,-0.0006399481457832756,0.1789509292075877,-0.002408504886515006,-0.09241540540226822
415,0.4056,55.5684,941.712,-0.00661229,229.54,-0.834256,-3.21725,-0.065893,0.164998,-0.0971888,0.140504,-0.000641459,-0.00241633,0.186185,-0.06376896434682966,0.15085368297037283,-0.0006412533091587624,0.17939075992751197,-0.0024134130245969665,-0.09261532426658659
416,0.4066,55.5803,942.072,-0.0066437,229.61,-0.833441,-3.214,-0.0660452,0.165371,-0.0974091,0.140814,-0.000642763,-0.00242125,0.186613,-0.06391144786718517,0.15121050291632776,-0.0006425564721147525,0.17983075473489518,-0.00241832113853091,-0.09281519909363012
417,0.4076,55.5921,942.431,-0.006675,229.679,-0.832623,-3.21073,-0.0661974,0.165744,-0.0976292,0.141125,-0.000644064,-0.00242615,0.187041,-0.06405390970319902,0.15156858506162219,-0.0006438566353030861,0.18027091369095327,-0.002423209276781413,-0.09301484849608688
418,0.4086,55.604,942.789,-0.00670621,229.749,-0.831802,-3.20745,-0.0663495,0.166117,-0.0978493,0.141435,-0.000645363,-0.00243105,0.18747,-0.06419625627780179,0.15192562666157983,-0.0006451547980901307,0.18071123685692525,-0.002428097391080075,-0.09321445396054573
419,0.4096,55.6158,943.147,-0.00673732,229.818,-0.830977,-3.20415,-0.0665015,0.16649,-0.0980693,0.141746,-0.00064666,-0.00243593,0.187898,-0.06433848763699035,0.15228393124494644,-0.0006464509604837687,0.181151724294073,-0.0024329655300865394,-0.09341392483807331
420,0.4106,55.6275,943.503,-0.00676833,229.887,-0.830149,-3.20084,-0.0666535,0.166862,-0.0982891,0.142056,-0.000647954,-0.00244081,0.188325,-0.06448069737865536,0.15264119463659687,-0.0006477441231396153,0.18159119447189553,-0.0024378336453364513,-0.09361317055948704
421,0.4116,55.6392,943.859,-0.00679925,229.955,-0.829317,-3.19752,-0.0668054,0.167235,-0.0985089,0.142366,-0.000649246,-0.00244568,0.188753,-0.06462279196836629,0.1529985687970672,-0.000649035285420041,0.1820320101944548,-0.0024426917612571097,-0.09381237249150376
422,0.4126,55.6509,944.214,-0.00683006,230.024,-0.828482,-3.19419,-0.0669573,0.167607,-0.0987286,0.142676,-0.000650535,-0.00245053,0.18918,-0.06476486497554823,0.15335605376070083,-0.0006503234479833253,0.18247180789954864,-0.0024475299024695474,-0.09401144004489592
423,0.4136,55.6626,944.568,-0.00686078,230.092,-0.827644,-3.19084,-0.0671091,0.167979,-0.0989482,0.142985,-0.000651822,-0.00245538,0.189608,-0.06490682289416627,0.15371249584877944,-0.0006516096101893964,0.182911769239823,-0.0024523680202170883,-0.0942103732889924
424,0.4146,55.6742,944.921,-0.00689139,230.161,-0.826802,-3.18749,-0.0672609,0.168351,-0.0991677,0.143295,-0.000653106,-0.00246022,0.190035,-0.06504875926520781,0.15407020216410672,-0.0006528927726988654,0.1833518942761614,-0.0024571961390718045,-0.09440917229306656
425,0.4156,55.6858,945.274,-0.00692191,230.229,-0.825957,-3.18411,-0.0674126,0.168723,-0.0993871,0.143604,-0.000654388,-0.00246505,0.190462,-0.06519058061100624,0.1544268649581393,-0.0006541739348691067,0.1837921830694702,-0.002462014259178691,-0.09460783712633636
426,0.4166,55.6973,945.626,-0.00695233,230.296,-0.825109,-3.18073,-0.0675642,0.169095,-0.0996064,0.143913,-0.000655667,-0.00246987,0.190889,-0.0653322869773717,0.1547836379780041,-0.0006554520973632849,0.1842326356806785,-0.0024668223806824097,-0.09480636785796415
427,0.4176,55.7088,945.977,-0.00698265,230.364,-0.824257,-3.17734,-0.0677158,0.169466,-0.0998257,0.144222,-0.000656944,-0.00247468,0.191315,-0.06547397186268022,0.15514052125776634,-0.0006567282595361101,0.18467206749807774,-0.00247162050372729,-0.09500485505657608
428,0.4186,55.7203,946.327,-0.00701288,230.432,-0.823402,-3.17393,-0.0678674,0.169837,-0.100045,0.144531,-0.000658219,-0.00247948,0.191742,-0.06561563527018821,0.15549751483150165,-0.0006580024213953539,0.18511166237492716,-0.0024764086284573272,-0.09520329873171784
429,0.4196,55.7318,946.676,-0.007043,230.499,-0.822543,-3.17051,-0.0680189,0.170209,-0.100264,0.14484,-0.000659491,-0.00248428,0.192168,-0.06575718377887452,0.1558546187332961,-0.0006592735836078445,0.18555260592374578,-0.0024811967302044158,-0.09540142751340219
430,0.4206,55.7432,947.025,-0.00707302,230.566,-0.821682,-3.16708,-0.0681703,0.17058,-0.100483,0.145149,-0.00066076,-0.00248906,0.192594,-0.06589861743445247,0.15621183299724617,-0.0006605417461850172,0.18599252754095752,-0.002485964858688239,-0.0955995129096342
431,0.4216,55.7545,947.373,-0.00710295,230.633,-0.820817,-3.16363,-0.0683217,0.170951,-0.100702,0.145457,-0.000662027,-0.00249383,0.19302,-0.0660400296785959,0.15656800108887992,-0.000661807908476475,0.18643261239936848,-0.0024907229892877636,-0.09579755492991426
432,0.4226,55.7659,947.72,-0.00713277,230.7,-0.819948,-3.16018,-0.068473,0.171321,-0.10092,0.145766,-0.000663292,-0.00249859,0.193446,-0.06618132713268365,0.15692543582203844,-0.0006630720704898785,0.18687167368728574,-0.002495471122145765,-0.09599464957884218
433,0.4236,55.7772,948.067,-0.0071625,230.767,-0.819077,-3.15671,-0.0686243,0.171692,-0.101139,0.146074,-0.000664554,-0.00250335,0.193871,-0.06632260321008365,0.15728182373719335,-0.000664333232897163,0.18731208476942784,-0.002500219232402623,-0.09619260507366656
434,0.4246,55.7885,948.412,-0.00719213,230.834,-0.818202,-3.15323,-0.0687755,0.172063,-0.101358,0.146382,-0.000665814,-0.00250809,0.194297,-0.06646376456041136,0.15763832143673184,-0.0006655923950440457,0.18775265927439455,-0.0025049473701578284,-0.09639051722098435
435,0.4256,55.7997,948.757,-0.00722165,230.9,-0.817325,-3.14973,-0.0689267,0.172433,-0.101576,0.14669,-0.000667071,-0.00251283,0.194722,-0.06660490456875623,0.15799492895447287,-0.0006668485576049044,0.18819220907002365,-0.002509675485501628,-0.09658748261822181
436,0.4266,55.8109,949.101,-0.00725108,230.966,-0.816444,-3.14623,-0.0690778,0.172803,-0.101795,0.146997,-0.000668326,-0.00251756,0.195147,-0.06674592991294281,0.15835048797317874,-0.0006681027199229028,0.18863192152916808,-0.002514393603578191,-0.09678530829682597
437,0.4276,55.8221,949.445,-0.00728041,231.032,-0.81556,-3.14271,-0.0692288,0.173173,-0.102013,0.147305,-0.000669578,-0.00252227,0.195572,-0.06688684063849848,0.15870731487199619,-0.0006693538826750833,0.18907179671202456,-0.0025190917497202037,-0.09698218763898925
438,0.4286,55.8333,949.787,-0.00730964,231.098,-0.814672,-3.13919,-0.0693798,0.173543,-0.102231,0.147612,-0.000670828,-0.00252698,0.195996,-0.06702773008814089,0.1590630926267529,-0.0006706030452020562,0.18951183467881183,-0.002523789873734028,-0.09717902406613377
439,0.4296,55.8444,950.129,-0.00733876,231.164,-0.813782,-3.13565,-0.0695308,0.173913,-0.102449,0.14792,-0.000672076,-0.00253168,0.196421,-0.06716859826508259,0.15942013904160723,-0.0006718502075111488,0.18995203548977102,-0.0025284780009044994,-0.09737581758761416
440,0.4306,55.8555,950.47,-0.00736779,231.23,-0.812888,-3.1321,-0.0696817,0.174282,-0.102667,0.148227,-0.000673321,-0.00253637,0.196845,-0.06730935190347531,0.1597761356669789,-0.0006730943702831782,0.1903912088133617,-0.002533156131372394,-0.0975725682127827
441,0.4316,55.8665,950.811,-0.00739672,231.295,-0.811992,-3.12854,-0.0698325,0.174652,-0.102885,0.148534,-0.000674563,-0.00254105,0.19727,-0.06744999104875016,0.16013224160009254,-0.0006743355335292467,0.19083173505295137,-0.0025378242652782657,-0.09776927595098983
442,0.4326,55.8776,951.15,-0.00742555,231.36,-0.811092,-3.12496,-0.0699833,0.175021,-0.103103,0.148841,-0.000675803,-0.00254572,0.197694,-0.06759060898724101,0.16048845687451063,-0.0006755746965848575,0.19127123304557858,-0.002542482402762225,-0.09796594081158394
443,0.4336,55.8886,951.489,-0.00745428,231.426,-0.810189,-3.12138,-0.070134,0.17539,-0.103321,0.149147,-0.000677041,-0.00255038,0.198117,-0.06773111249526131,0.16084362067960511,-0.0006768118594575601,0.19171089324289015,-0.002547130543964049,-0.09816256280391111
444,0.4346,55.8995,951.828,-0.00748291,231.491,-0.809284,-3.11778,-0.0702847,0.175759,-0.103539,0.149454,-0.000678276,-0.00255503,0.198541,-0.06787159483099847,0.16120005438092755,-0.0006780460228328344,0.1921507157047504,-0.0025517686890232927,-0.09835914193731576
445,0.4356,55.9105,952.165,-0.00751144,231.555,-0.808375,-3.11417,-0.0704353,0.176128,-0.103756,0.14976,-0.000679508,-0.00255967,0.198965,-0.06801196279884358,0.1615554359681779,-0.0006792771867217828,0.1925907004910461,-0.002556396838079289,-0.0985547767763677
446,0.4366,55.9214,952.502,-0.00753987,231.62,-0.807463,-3.11055,-0.0705859,0.176497,-0.103974,0.150067,-0.000680739,-0.0025643,0.199388,-0.06815230962886454,0.1619120882303411,-0.0006805073497743175,0.193030847661686,-0.002561014991270927,-0.09875127041644549
447,0.4376,55.9322,952.838,-0.0075682,231.685,-0.806548,-3.10692,-0.0707364,0.176866,-0.104191,0.150373,-0.000681966,-0.00256893,0.199811,-0.06829254215350322,0.16226768773328892,-0.0006817335140395508,0.19347115727660102,-0.0025656331230804463,-0.09894682017284917
448,0.4386,55.9431,953.173,-0.00759643,231.749,-0.80563,-3.10328,-0.0708869,0.177234,-0.104409,0.150679,-0.000683192,-0.00257354,0.200234,-0.068432753574735,0.16262339606633458,-0.0006829586774832475,0.19391043548471187,-0.0025702312849130715,-0.09914322835678158
449,0.4396,55.9539,953.508,-0.00762456,231.813,-0.804709,-3.09963,-0.0710373,0.177602,-0.104626,0.150985,-0.000684414,-0.00257814,0.200657,-0.06857285075302555,0.16297921326278542,-0.0006841798421616252,0.19434987537695103,-0.0025748194512963396,-0.09933869306754006
450,0.4406,55.9647,953.842,-0.00765258,231.877,-0.803786,-3.09597,-0.0711876,0.177971,-0.104843,0.15129,-0.000685635,-0.00258274,0.20108,-0.06871283373357284,0.1633339760214012,-0.0006854000060331211,0.19479067180290421,-0.002579407596574157,-0.09953411536705803
451,0.4416,55.9754,954.175,-0.00768051,231.941,-0.802859,-3.09229,-0.0713379,0.178339,-0.10506,0.151596,-0.000686852,-0.00258732,0.201502,-0.06885279567625924,0.16369001068858968,-0.0006866161711612806,0.1952304356817185,-0.0025839757724261947,-0.09972949526453778
452,0.4426,55.9861,954.508,-0.00770834,232.005,-0.801929,-3.08861,-0.0714882,0.178707,-0.105277,0.151901,-0.000688068,-0.0025919,0.201925,-0.06899273658424632,0.16404499027348463,-0.0006878313354972132,0.1956703614234212,-0.0025885439273560795,-0.09992483276917963
453,0.4436,55.9968,954.839,-0.00773607,232.069,-0.800997,-3.08491,-0.0716384,0.179074,-0.105494,0.152207,-0.000689281,-0.00259647,0.202347,-0.06913256337395668,0.16440124254432575,-0.0006890435004226481,0.1961092529777375,-0.0025931020872949073,-0.10012012789018176
454,0.4446,56.0075,955.171,-0.00776369,232.132,-0.800061,-3.0812,-0.0717885,0.179442,-0.105711,0.152512,-0.000690491,-0.00260102,0.202769,-0.06927227609049247,0.16475643908802118,-0.0006902526659484653,0.19654950218371892,-0.0025976402783560726,-0.10031538063674039
455,0.4456,56.0181,955.501,-0.00779122,232.195,-0.799123,-3.07749,-0.0719386,0.179809,-0.105927,0.152817,-0.000691699,-0.00260557,0.20319,-0.06941196783772341,0.1651117439831853,-0.0006914598313940701,0.19698871644190685,-0.002602178448768422,-0.10050969152819111
456,0.4466,56.0287,955.831,-0.00781865,232.259,-0.798182,-3.07376,-0.0720886,0.180177,-0.106144,0.153122,-0.000692905,-0.00261011,0.203612,-0.06955154557395582,0.1654671572628701,-0.0006926649967667897,0.1974292893500007,-0.0026067066245992754,-0.10070485974861176
457,0.4476,56.0393,956.16,-0.00784597,232.322,-0.797238,-3.07002,-0.0722386,0.180544,-0.10636,0.153426,-0.000694107,-0.00261464,0.204034,-0.06969110237509801,0.16582151313804205,-0.000693866163461565,0.1978688265493347,-0.0026112248059846355,-0.10089908652165935
458,0.4486,56.0498,956.488,-0.0078732,232.384,-0.796291,-3.06627,-0.0723885,0.180911,-0.106577,0.153731,-0.000695308,-0.00261916,0.204455,-0.0698305452273491,0.1661771429303356,-0.0006950663294076342,0.1983085250884251,-0.0026157329930599493,-0.10109417025253387
459,0.4496,56.0603,956.816,-0.00790032,232.447,-0.795341,-3.06251,-0.0725384,0.181278,-0.106793,0.154035,-0.000696506,-0.00262367,0.204876,-0.0699699671786832,0.16653171467396066,-0.0006962634960010483,0.19874838502649417,-0.002620231185960775,-0.10128831294359386
460,0.4506,56.0708,957.143,-0.00792735,232.51,-0.794388,-3.05874,-0.0726882,0.181644,-0.107009,0.154339,-0.000697702,-0.00262817,0.205297,-0.07010927524316524,0.1668863942237817,-0.000697458662555217,0.1991872072349794,-0.002624719384821894,-0.10148241370436117
461,0.4516,56.0813,957.469,-0.00795427,232.572,-0.793433,-3.05496,-0.072838,0.182011,-0.107226,0.154644,-0.000698895,-0.00263266,0.205718,-0.0702485624408623,0.16724234885434175,-0.0006986508297759375,0.19962738970857785,-0.0026291975897783093,-0.10167737086697015
462,0.4526,56.0917,957.795,-0.00798109,232.635,-0.792475,-3.05117,-0.0729877,0.182377,-0.107442,0.154947,-0.000700085,-0.00263714,0.206138,-0.07038773581367808,0.16759607687313305,-0.0006998399976738678,0.20006653369165806,-0.0026336658009643577,-0.10187138760030134
463,0.4536,56.1021,958.12,-0.00800781,232.697,-0.791514,-3.04737,-0.0731374,0.182744,-0.107658,0.155251,-0.000701273,-0.00264161,0.206559,-0.07052688835379928,0.16795108003824977,-0.0007010271655587541,0.20050703893729116,-0.002638124018514043,-0.10206536243054387
464,0.4546,56.1125,958.444,-0.00803443,232.759,-0.79055,-3.04355,-0.073287,0.18311,-0.107874,0.155555,-0.000702459,-0.00264607,0.206979,-0.07066592713094166,0.16830619114073397,-0.0007022123334377017,0.20094650493091315,-0.0026425722425613696,-0.10225929536674772
465,0.4556,56.1228,958.768,-0.00806095,232.821,-0.789584,-3.03973,-0.0734365,0.183476,-0.108089,0.155859,-0.000703642,-0.00265053,0.207399,-0.07080485218992871,0.1686614102134043,-0.0007033945020212817,0.20138613179852727,-0.0026470204467696767,-0.1024522888706988
466,0.4566,56.1332,959.091,-0.00808737,232.883,-0.788615,-3.0359,-0.073586,0.183842,-0.108305,0.156162,-0.000704823,-0.00265497,0.207819,-0.0709437564811718,0.1690155682729353,-0.0007045746706154654,0.20182591959902352,-0.0026514486841682228,-0.10264613823981716
467,0.4576,56.1434,959.413,-0.00811369,232.944,-0.787643,-3.03206,-0.0737355,0.184207,-0.108521,0.156465,-0.000706001,-0.00265941,0.208239,-0.07108264000777553,0.16936983365861757,-0.0007057518399331553,0.20226466612604743,-0.002655876901905385,-0.10283994574199362
468,0.4586,56.1537,959.735,-0.00813991,233.006,-0.786669,-3.02821,-0.0738849,0.184573,-0.108736,0.156768,-0.000707177,-0.00266383,0.208659,-0.0712214098949897,0.16972420640297559,-0.0007069270092779911,0.20270477552895727,-0.0026602851531872806,-0.10303281441953327
469,0.4596,56.1639,960.056,-0.00816603,233.067,-0.785691,-3.02434,-0.0740342,0.184938,-0.108952,0.157071,-0.00070835,-0.00266825,0.209078,-0.07136006618754254,0.1700786865385442,-0.0007080991793652069,0.20314384289694543,-0.002664693384984651,-0.10322653840867468
470,0.4606,56.1742,960.376,-0.00819204,233.128,-0.784711,-3.02047,-0.0741835,0.185304,-0.109167,0.157374,-0.000709521,-0.00267265,0.209497,-0.0714987017802563,0.1704332740978678,-0.000709269349495889,0.20358427413744629,-0.0026690816506795834,-0.10341932397772546
471,0.4616,56.1843,960.696,-0.00821796,233.189,-0.783729,-3.01659,-0.0743327,0.185669,-0.109382,0.157677,-0.000710689,-0.00267705,0.209917,-0.07163722383994808,0.17078796911350058,-0.0007104365203877139,0.20402366258101923,-0.002673469897066183,-0.10361206810233448
472,0.4626,56.1945,961.015,-0.00824377,233.25,-0.782744,-3.0127,-0.0744819,0.186034,-0.109597,0.157979,-0.000711855,-0.00268144,0.210336,-0.07177572523369025,0.17114160047582105,-0.0007116016913394363,0.20446321143064639,-0.00267784815092309,-0.10380477079141104
473,0.4636,56.2046,961.333,-0.00826949,233.311,-0.781756,-3.00879,-0.074631,0.186399,-0.109813,0.158282,-0.000713019,-0.00268581,0.210754,-0.07191411315598195,0.17149651014686507,-0.0007127648623580507,0.20490292074488692,-0.0026822064392038047,-0.10399832805598297
474,0.4646,56.2147,961.651,-0.0082951,233.372,-0.780765,-3.00488,-0.0747801,0.186763,-0.110028,0.158584,-0.000714179,-0.00269018,0.211173,-0.07205248044617252,0.17185035552089145,-0.0007139240348784659,0.20534158524013257,-0.0026865647084387545,-0.10419094770809634
475,0.4656,56.2248,961.968,-0.00832061,233.432,-0.779772,-3.00096,-0.0749291,0.187128,-0.110242,0.158886,-0.000715338,-0.00269454,0.211591,-0.0721907343264162,0.1722043077723585,-0.0007150822067694129,0.20578161521933125,-0.0026909129855374747,-0.10438263033451423
476,0.4666,56.2349,962.285,-0.00834602,233.493,-0.778777,-2.99703,-0.0750781,0.187492,-0.110457,0.159188,-0.000716494,-0.00269889,0.21201,-0.07232896760836627,0.1725583669335482,-0.0007162373794666888,0.20622059961758454,-0.0026952512706301945,-0.1045751673705193
477,0.4676,56.2449,962.601,-0.00837133,233.553,-0.777778,-2.99309,-0.075227,0.187856,-0.110672,0.15949,-0.000717647,-0.00270323,0.212428,-0.0724670875418052,0.17291253303675203,-0.0007173895529807295,0.20665974383524421,-0.002699579563847254,-0.10476766301551133
478,0.4686,56.2549,962.916,-0.00839654,233.613,-0.776778,-2.98914,-0.0753758,0.188221,-0.110887,0.159792,-0.000718798,-0.00270756,0.212846,-0.07260509417123107,0.17326680611427103,-0.0007185397266034066,0.20710025503014662,-0.0027038978653185497,-0.10496011727838839
479,0.4696,56.2648,963.231,-0.00842165,233.673,-0.775774,-2.98518,-0.0755246,0.188585,-0.111101,0.160093,-0.000719947,-0.00271188,0.213264,-0.07274308026679832,0.17362001257781756,-0.0007196879003417145,0.20753971950065897,-0.002708206175173866,-0.10515163532012939
480,0.4706,56.2748,963.544,-0.00844665,233.733,-0.774768,-2.98121,-0.0756734,0.188948,-0.111316,0.160395,-0.000721093,-0.00271619,0.213681,-0.07288104583156207,0.17397449934642384,-0.0007208330749230996,0.20797813598661574,-0.0027125044935423226,-0.10534400703783486
481,0.4716,56.2847,963.858,-0.00847156,233.792,-0.77376,-2.97723,-0.0758221,0.189312,-0.11153,0.160696,-0.000722236,-0.0027205,0.214099,-0.07301889817047147,0.17432791885769539,-0.00072197525035822,0.2084179200639611,-0.0027168027933851535,-0.10553544293595718
482,0.4726,56.2946,964.171,-0.00849637,233.852,-0.772749,-2.97324,-0.0759707,0.189676,-0.111744,0.160997,-0.000723377,-0.00272479,0.214516,-0.07315663732793043,0.1746814447642513,-0.0007231154259339512,0.20885786425184905,-0.00272108112912417,-0.10572683787118031
483,0.4736,56.3045,964.483,-0.00852107,233.912,-0.771736,-2.96925,-0.0761193,0.190039,-0.111959,0.161298,-0.000724516,-0.00272907,0.214933,-0.07329435601887135,0.1750350770981215,-0.0007242536016572876,0.20929675931120628,-0.0027253494737626838,-0.10591908593363075
484,0.4746,56.3143,964.794,-0.00854567,233.971,-0.77072,-2.96524,-0.0762679,0.190402,-0.112173,0.161599,-0.000725652,-0.00273335,0.21535,-0.07343205424633525,0.1753888158913457,-0.0007253887782604496,0.20973581371839,-0.0027296178001327,-0.10611039877803652
485,0.4756,56.3241,965.105,-0.00857017,234.03,-0.769702,-2.96122,-0.0764164,0.190766,-0.112387,0.161899,-0.000726785,-0.00273761,0.215767,-0.07356963937033145,0.17574148543389945,-0.0007265209557535401,0.21017623770688654,-0.0027338661629118244,-0.10630167068587393
486,0.4766,56.3339,965.415,-0.00859458,234.089,-0.768681,-2.9572,-0.0765648,0.191129,-0.112601,0.1622,-0.000727916,-0.00274186,0.216183,-0.07370711143516939,0.17609543688803653,-0.0007276511334192159,0.21061561142267893,-0.0027381045349740285,-0.10649290166590242
487,0.4776,56.3437,965.725,-0.00861888,234.148,-0.767658,-2.95317,-0.0767132,0.191492,-0.112815,0.1625,-0.000729045,-0.00274611,0.2166,-0.07384456310066656,0.17644831844869047,-0.0007287793112642493,0.21105514466008168,-0.002742342889023308,-0.10668409172687976
488,0.4786,56.3535,966.034,-0.00864307,234.207,-0.766632,-2.94912,-0.0768615,0.191854,-0.113028,0.162801,-0.000730171,-0.00275035,0.217016,-0.07398190176804487,0.17680248269158816,-0.0007299044900253016,0.21149362598277954,-0.0027465712525253094,-0.10687434775235594
489,0.4796,56.3632,966.342,-0.00866717,234.266,-0.765604,-2.94507,-0.0770098,0.192217,-0.113242,0.163101,-0.000731295,-0.00275457,0.217432,-0.07411922006960892,0.17715557639780322,-0.0007310276689813655,0.2119334779973221,-0.0027507796531148765,-0.10706545619260444
490,0.4806,56.3729,966.65,-0.00869117,234.324,-0.764573,-2.94101,-0.077158,0.192579,-0.113456,0.163401,-0.000732416,-0.00275879,0.217848,-0.074256425434026,0.17750877604802118,-0.0007321478488715449,0.21237227733424535,-0.002754988035945094,-0.10725652374002248
491,0.4816,56.3825,966.957,-0.00871507,234.383,-0.76354,-2.93694,-0.0773062,0.192942,-0.113669,0.163701,-0.000733535,-0.002763,0.218264,-0.0743936104661147,0.17786208167402973,-0.0007332660289725013,0.21281244835712476,-0.0027591864286078405,-0.10744665785046426
492,0.4826,56.3922,967.264,-0.00873886,234.441,-0.762505,-2.93286,-0.0774543,0.193304,-0.113883,0.164001,-0.000734651,-0.0027672,0.21868,-0.07453068262196094,0.17821549330762632,-0.0007343812100253366,0.21325156593891714,-0.002763374831229126,-0.10763764382945562
493,0.4836,56.4018,967.57,-0.00876256,234.499,-0.761467,-2.92877,-0.0776024,0.193666,-0.114096,0.1643,-0.000735765,-0.00277139,0.219095,-0.07466773447892416,0.17856783241219643,-0.000735494391304603,0.21369084251004922,-0.0027675532439348505,-0.10782769676996329
494,0.4846,56.4114,967.876,-0.00878615,234.557,-0.760427,-2.92468,-0.0777504,0.194028,-0.114309,0.1646,-0.000736876,-0.00277556,0.219511,-0.07480467352048215,0.17892145580277652,-0.0007366045735536231,0.21413027812808605,-0.002771711694567469,-0.10801770923350551
495,0.4856,56.421,968.18,-0.00880964,234.615,-0.759385,-2.92057,-0.0778984,0.194389,-0.114523,0.164899,-0.000737985,-0.00277973,0.219926,-0.07494159229656183,0.17927400602169286,-0.0007377127560446173,0.21456865828134708,-0.0027758701278592923,-0.10820857302057596
496,0.4866,56.4305,968.485,-0.00883304,234.673,-0.75834,-2.91646,-0.0780463,0.194751,-0.114736,0.165198,-0.000739091,-0.0027839,0.220341,-0.07507839831800645,0.1796266616688853,-0.0007388179395231287,0.21500841172621632,-0.002780028543810542,-0.1083985043661162
497,0.4876,56.4401,968.788,-0.00885633,234.731,-0.757293,-2.91234,-0.0781941,0.195112,-0.114949,0.165497,-0.000740195,-0.00278805,0.220755,-0.07521509162885054,0.17997942277588175,-0.0007399211232592684,0.21544710894293262,-0.002784166998104798,-0.10858839526058806
498,0.4886,56.4496,969.091,-0.00887952,234.788,-0.756244,-2.9082,-0.0783419,0.195474,-0.115162,0.165796,-0.000741296,-0.00279219,0.22117,-0.07535176473791627,0.1803322893742192,-0.0007410213080004668,0.21588718044450617,-0.0027882954631075485,-0.10877824571260664
499,0.4896,56.459,969.394,-0.00890261,234.846,-0.755192,-2.90406,-0.0784897,0.195835,-0.115374,0.166095,-0.000742395,-0.00279632,0.221585,-0.07548841764818914,0.18068526149544462,-0.0007421194930145036,0.21632619495399785,-0.002792413938942584,-0.1089671646983954
500,0.4906,56.4685,969.696,-0.00892559,234.903,-0.754138,-2.89992,-0.0786374,0.196196,-0.115587,0.166393,-0.000743492,-0.00280044,0.221999,-0.07562495792515489,0.18103715813336518,-0.0007432156783081512,0.21676536797633728,-0.002796522425733694,-0.10915693448111541
501,0.4916,56.4779,969.997,-0.00894848,234.96,-0.753082,-2.89576,-0.078785,0.196557,-0.1158,0.166692,-0.000744585,-0.00280456,0.222413,-0.07576138561275403,0.18139034104186047,-0.0007443078653766033,0.217204699568758,-0.0028006308955979,-0.10934666384717606
502,0.4926,56.4873,970.298,-0.00897127,235.018,-0.752024,-2.89159,-0.0789326,0.196918,-0.116012,0.16699,-0.000745677,-0.00280866,0.222827,-0.07589779316511269,0.18174244782479598,-0.0007453990519965537,0.2176441897885142,-0.002804719404629674,-0.10953546234109302
503,0.4936,56.4967,970.598,-0.00899396,235.074,-0.750963,-2.88742,-0.0790802,0.197278,-0.116225,0.167288,-0.000746766,-0.00281275,0.223241,-0.07603418058520228,0.18209465955118853,-0.0007464872396645283,0.21808262060965067,-0.0028087979249867834,-0.1097251110893056
504,0.4946,56.5061,970.898,-0.00901654,235.131,-0.7499,-2.88324,-0.0792277,0.197639,-0.116437,0.167587,-0.000747852,-0.00281684,0.223655,-0.07617045549304446,0.1824481586998834,-0.0007475724283900753,0.2185224278161153,-0.0028128764286626806,-0.1099138293609111
505,0.4956,56.5154,971.197,-0.00903903,235.188,-0.748835,-2.87905,-0.0793751,0.197999,-0.11665,0.167884,-0.000748936,-0.00282092,0.224068,-0.07630661793248639,0.18279939795946554,-0.0007486556174345349,0.21896117485985833,-0.0028169449438271155,-0.110103397525531
506,0.4966,56.5248,971.495,-0.00906141,235.245,-0.747768,-2.87485,-0.0795225,0.198359,-0.116862,0.168182,-0.000750018,-0.00282498,0.224481,-0.07644276030306396,0.1831519247039335,-0.0007497368068042354,0.21940007988097165,-0.002820993498812041,-0.11029203560891221
507,0.4976,56.5341,971.793,-0.00908369,235.301,-0.746698,-2.87064,-0.0796698,0.198719,-0.117074,0.16848,-0.000751097,-0.00282904,0.224895,-0.07657879026561865,0.1835045565170259,-0.0007508149972564881,0.21983914293633688,-0.002825042037359893,-0.11048063370525862
508,0.4986,56.5433,972.091,-0.00910588,235.358,-0.745627,-2.86643,-0.0798171,0.199079,-0.117286,0.168777,-0.000752173,-0.00283309,0.225308,-0.07671480019243548,0.18385610957335619,-0.0007518901888011742,0.22027836408285673,-0.0028290805877616565,-0.11066919182304635
509,0.4996,56.5526,972.387,-0.00912796,235.414,-0.744553,-2.86221,-0.0799644,0.199439,-0.117498,0.169075,-0.000753247,-0.00283712,0.225721,-0.07685079008646556,0.18420895126480974,-0.0007529633806947489,0.2207177433774543,-0.0028330991784694115,-0.11085770997075017
510,0.5006,56.5618,972.684,-0.00914994,235.47,-0.743477,-2.85798,-0.0801115,0.199799,-0.11771,0.169372,-0.000754319,-0.00284115,0.226133,-0.07698657534799302,0.1845607135574503,-0.0007540345729438735,0.22115728087707298,-0.0028371177529822322,-0.11104618815684275
511,0.5016,56.571,972.979,-0.00917182,235.526,-0.742398,-2.85374,-0.0802587,0.200158,-0.117922,0.169669,-0.000755388,-0.00284517,0.226546,-0.07712243292473886,0.18491258033900726,-0.0007551027663099674,0.22159575504231133,-0.002841126339711675,-0.11123462638979498
512,0.5026,56.5802,973.274,-0.0091936,235.582,-0.741318,-2.84949,-0.0804057,0.200518,-0.118133,0.169966,-0.000756455,-0.00284918,0.226958,-0.07725808595635675,0.18526455164051914,-0.0007561689600464883,0.22203560868303152,-0.0028451249387777544,-0.11142213610065654
513,0.5036,56.5894,973.569,-0.00921528,235.638,-0.740236,-2.84524,-0.0805528,0.200877,-0.118345,0.170263,-0.000757519,-0.00285318,0.22737,-0.0773938113090682,0.18561662749303243,-0.0007572321549170757,0.22247439822455872,-0.002849113550300819,-0.11161049464109252
514,0.5046,56.5985,973.863,-0.00923686,235.694,-0.739151,-2.84097,-0.0806997,0.201236,-0.118556,0.17056,-0.000758581,-0.00285717,0.227782,-0.07752933220393343,0.18596880792760362,-0.0007582933501730782,0.22291334531981066,-0.00285309217440044,-0.1117979250521195
515,0.5056,56.6076,974.156,-0.00925834,235.749,-0.738064,-2.8367,-0.0808466,0.201595,-0.118768,0.170856,-0.00075964,-0.00286115,0.228194,-0.07766483319224138,0.18631990665479825,-0.0007593515465800227,0.22335245002535897,-0.002857060811195966,-0.11198620393374181
516,0.5066,56.6167,974.449,-0.00927972,235.805,-0.736976,-2.83242,-0.0809935,0.201954,-0.118979,0.171153,-0.000760697,-0.00286513,0.228606,-0.07780031427691614,0.18667229599430124,-0.0007604077433872591,0.22379171239779638,-0.002861029432196349,-0.11217355507847093
517,0.5076,56.6258,974.742,-0.009301,235.86,-0.735885,-2.82814,-0.0811403,0.202312,-0.119191,0.171449,-0.000761751,-0.00286909,0.229018,-0.07793568325445421,0.18702360298478515,-0.0007614609413625351,0.22422990826321465,-0.0028649780947014314,-0.1123617543349682
518,0.5086,56.6349,975.033,-0.00932217,235.915,-0.734792,-2.82384,-0.0812871,0.202671,-0.119402,0.171745,-0.000762803,-0.00287304,0.229429,-0.07807103236128499,0.18737501397752987,-0.0007625121397526469,0.2246694856997098,-0.0028689167702591334,-0.11254902624692209
519,0.5096,56.6439,975.325,-0.00934325,235.97,-0.733697,-2.81954,-0.0814338,0.203029,-0.119613,0.172041,-0.000763852,-0.00287699,0.22984,-0.07820626942095676,0.18772652900332454,-0.0007635603393276735,0.22510799586422636,-0.002872855430258947,-0.11273625864867098
520,0.5106,56.6529,975.615,-0.00936423,236.025,-0.7326,-2.81523,-0.0815805,0.203388,-0.119824,0.172337,-0.000764899,-0.00288092,0.230251,-0.07834148664280693,0.1880781480929674,-0.000764606539332302,0.22554788859076158,-0.002876774132236859,-0.11292345154855066
521,0.5116,56.6619,975.906,-0.00938511,236.08,-0.731501,-2.81092,-0.0817271,0.203746,-0.120035,0.172633,-0.000765943,-0.00288484,0.230662,-0.07847659187740941,0.1884298712772663,-0.0007656497405384988,0.22598671327980946,-0.0028806828476212187,-0.11311060495489511
522,0.5126,56.6709,976.195,-0.00940588,236.135,-0.7304,-2.80659,-0.0818736,0.204104,-0.120246,0.172929,-0.000766985,-0.00288876,0.231073,-0.07861158516819944,0.18878169858703742,-0.0007666909421889523,0.22642569509622046,-0.0028845915476833905,-0.11329771887603679
523,0.5136,56.6798,976.484,-0.00942656,236.19,-0.729297,-2.80226,-0.0820201,0.204462,-0.120457,0.173224,-0.000768024,-0.00289267,0.231484,-0.07874655868392089,0.18913244092007098,-0.0007677291450577384,0.22686483409625557,-0.0028884902613084407,-0.11348479332030603
524,0.5146,56.6888,976.773,-0.00944714,236.244,-0.728192,-2.79792,-0.0821666,0.204819,-0.120667,0.173519,-0.000769061,-0.00289656,0.231894,-0.07888151242747055,0.18948328673735615,-0.0007687653483853252,0.22730290303268053,-0.0028923690175370886,-0.11367094196741667
525,0.5156,56.6977,977.061,-0.00946761,236.299,-0.727085,-2.79358,-0.082313,0.205177,-0.120878,0.173815,-0.000770096,-0.00290045,0.232304,-0.07901635430338505,0.18983542590425606,-0.000769799552178041,0.227742356129377,-0.0028962477586774726,-0.11385793766992114
526,0.5166,56.7066,977.349,-0.00948799,236.353,-0.725975,-2.78922,-0.0824593,0.205534,-0.121088,0.17411,-0.000771128,-0.00290433,0.232714,-0.07915108435500684,0.19018647913270303,-0.0007708307572128481,0.22818073839709418,-0.0029001165137307883,-0.11404400796494574
527,0.5176,56.7154,977.636,-0.00950827,236.408,-0.724864,-2.78486,-0.0826056,0.205892,-0.121299,0.174405,-0.000772157,-0.0029082,0.233124,-0.07928579469706398,0.19053763593712936,-0.0007718589634989614,0.22862050581511117,-0.002903975282813165,-0.1142309249588288
528,0.5186,56.7243,977.922,-0.00952845,236.462,-0.723751,-2.78049,-0.0827519,0.206249,-0.121509,0.1747,-0.000773185,-0.00291206,0.233534,-0.0794204853324395,0.19088889634809392,-0.0007728861694998868,0.22905920163823246,-0.0029078240660403987,-0.11441691693474643
529,0.5196,56.7331,978.208,-0.00954852,236.516,-0.722637,-2.77612,-0.0828981,0.206606,-0.121719,0.174994,-0.000774209,-0.00291591,0.233944,-0.07955506421952752,0.1912390691565009,-0.0007739093775406269,0.22949805410372148,-0.002911662863528064,-0.11460286985644996
530,0.5206,56.7419,978.493,-0.0095685,236.57,-0.72152,-2.77173,-0.0830442,0.206963,-0.12193,0.175289,-0.000775231,-0.00291975,0.234353,-0.0796895314015783,0.19159053652078928,-0.0007749305860833555,0.2299370632675095,-0.0029154916753914017,-0.11478966894291365
531,0.5216,56.7507,978.778,-0.00958838,236.624,-0.720401,-2.76734,-0.0831903,0.207319,-0.12214,0.175583,-0.000776251,-0.00292358,0.234763,-0.07982397893940874,0.19194091564173354,-0.0007759497951344008,0.23037499880993417,-0.0029193105017452092,-0.11497554359491402
532,0.5226,56.7595,979.063,-0.00960816,236.677,-0.71928,-2.76294,-0.0833364,0.207676,-0.12235,0.175878,-0.000777268,-0.0029274,0.235172,-0.07995840683588873,0.1922925900812773,-0.0007769660054767202,0.230814321098872,-0.0029231193427041724,-0.11516137921733582
533,0.5236,56.7682,979.347,-0.00962783,236.731,-0.718158,-2.75854,-0.0834823,0.208033,-0.12256,0.176172,-0.000778283,-0.00293121,0.235581,-0.08009263111243226,0.1926431756363125,-0.0007779802163414562,0.23125380025386577,-0.0029269181983826442,-0.11534717581837428
534,0.5246,56.7769,979.63,-0.00964741,236.784,-0.717033,-2.75413,-0.0836283,0.208389,-0.12277,0.176466,-0.000779295,-0.00293501,0.23599,-0.08022692778439422,0.19299386427865395,-0.0007789914285138977,0.23169220463810647,-0.0029307070688946446,-0.11553293340622306
535,0.5256,56.7856,979.913,-0.00966689,236.838,-0.715907,-2.74971,-0.0837742,0.208745,-0.122979,0.17676,-0.000780305,-0.00293881,0.236398,-0.08036111288658931,0.19334465603861384,-0.0007800006412228555,0.23213076512209208,-0.0029344959250089397,-0.11571776770728381
536,0.5266,56.7943,980.195,-0.00968627,236.891,-0.714779,-2.74528,-0.08392,0.209101,-0.123189,0.177053,-0.000781312,-0.00294259,0.236807,-0.08049518646212928,0.19369435725155904,-0.0007810068552556171,0.23256948176140368,-0.002938264825491088,-0.11590344747900694
537,0.5276,56.803,980.477,-0.00970555,236.944,-0.713649,-2.74085,-0.0840658,0.209457,-0.123399,0.177347,-0.000782317,-0.00294637,0.237215,-0.08062924049116682,0.1940453549867298,-0.0007820110698391058,0.23300835461164304,-0.0029420337117268547,-0.11608908826207187
538,0.5286,56.8117,980.758,-0.00972473,236.997,-0.712517,-2.73641,-0.0842115,0.209813,-0.123608,0.17764,-0.000783319,-0.00295013,0.237623,-0.08076318305287478,0.194395261534547,-0.0007830122857623856,0.233447383728431,-0.002945782642632122,-0.11627380633891371
539,0.5296,56.8203,981.039,-0.00974381,237.05,-0.711383,-2.73197,-0.0843572,0.210169,-0.123818,0.177934,-0.000784319,-0.00295389,0.238031,-0.08089710610057299,0.1947464653658717,-0.0007840115022504923,0.2338865691674079,-0.002949531559441443,-0.11645936935478385
540,0.5306,56.8289,981.32,-0.0097628,237.103,-0.710247,-2.72751,-0.0845028,0.210524,-0.124027,0.178227,-0.000785317,-0.00295764,0.238439,-0.08103091774020099,0.19509657736912756,-0.0007850087193094213,0.23432467665894108,-0.0029532704916875874,-0.11664401005096392
541,0.5316,56.8375,981.599,-0.00978168,237.156,-0.70911,-2.72305,-0.0846484,0.21088,-0.124236,0.17852,-0.000786312,-0.00296137,0.238847,-0.08116470989827251,0.1954467919702303,-0.0007860029377311228,0.23476417446980036,-0.002956989469052762,-0.11682861216127072
542,0.5326,56.8461,981.879,-0.00980046,237.209,-0.707971,-2.71859,-0.0847939,0.211235,-0.124445,0.178813,-0.000787304,-0.0029651,0.239254,-0.0812983907074677,0.19579710919924542,-0.0007869941575244788,0.2352025935665225,-0.002960708432546144,-0.11701317569376812
543,0.5336,56.8546,982.158,-0.00981915,237.261,-0.70683,-2.71411,-0.0849394,0.21159,-0.124654,0.179106,-0.000788294,-0.00296882,0.239662,-0.08143205206751991,0.19614752908624733,-0.0007879833779106393,0.2356411683296531,-0.0029644174118120814,-0.1171977006565178
544,0.5346,56.8631,982.436,-0.00983773,237.314,-0.705687,-2.70963,-0.0850849,0.211945,-0.124863,0.179399,-0.000789282,-0.00297253,0.240069,-0.08156569398125912,0.19649805166131906,-0.0007889705988953777,0.23607989881446367,-0.0029681164069618182,-0.11738218705758008
545,0.5356,56.8717,982.714,-0.00985622,237.366,-0.704542,-2.70515,-0.0852302,0.2123,-0.125072,0.179691,-0.000790267,-0.00297623,0.240476,-0.08169913279135932,0.19684748010647435,-0.000789954821274641,0.2365187850762449,-0.002971805418106488,-0.11756663490501362
546,0.5366,56.8802,982.991,-0.00987461,237.419,-0.703396,-2.70065,-0.0853756,0.212654,-0.125281,0.179984,-0.00079125,-0.00297992,0.240883,-0.08183264403094914,0.19719820779724317,-0.0007909370442662489,0.23695659021309923,-0.0029754844453566687,-0.11775104420687521
547,0.5376,56.8886,983.268,-0.0098929,237.471,-0.702248,-2.69615,-0.0855208,0.213009,-0.12549,0.180276,-0.00079223,-0.0029836,0.24129,-0.08196595225262471,0.19754784071784215,-0.0007919162686681469,0.23739578775557613,-0.0029791534888228277,-0.11793541497121995
548,0.5386,56.8971,983.544,-0.00991109,237.523,-0.701098,-2.69165,-0.085666,0.213363,-0.125699,0.180568,-0.000793208,-0.00298727,0.241696,-0.08209924111935174,0.19789757574616096,-0.0007928934936961562,0.2378339034063366,-0.00298281254861521,-0.11811974720610141
549,0.5396,56.9055,983.82,-0.00992918,237.575,-0.699947,-2.68713,-0.0858112,0.213718,-0.125907,0.18086,-0.000794183,-0.00299094,0.242103,-0.08223251063394033,0.1982474129120193,-0.0007938677201501099,0.23827341245028544,-0.002986471594978779,-0.11830315922317147
550,0.5406,56.914,984.096,-0.00994717,237.627,-0.698793,-2.68262,-0.0859563,0.214072,-0.126116,0.181152,-0.000795156,-0.00299459,0.242509,-0.0823656690357717,0.19859735224524577,-0.0007948399472438306,0.23871183883518432,-0.002990110687716152,-0.11848741460753554
551,0.5416,56.9224,984.37,-0.00996507,237.679,-0.697638,-2.67809,-0.0861014,0.214426,-0.126324,0.181444,-0.000796127,-0.00299823,0.242915,-0.08249880811772059,0.19894739377567783,-0.0007958101749832025,0.23915042045049795,-0.0029937397971082635,-0.11867075015773887
552,0.5426,56.9308,984.645,-0.00998286,237.73,-0.696482,-2.67356,-0.0862464,0.21478,-0.126533,0.181736,-0.000797094,-0.00300187,0.243321,-0.0826318361457784,0.19929753753316093,-0.0007967764049675585,0.23958915735118702,-0.0029973688932903864,-0.11885492872362535
553,0.5436,56.9391,984.919,-0.0100006,237.782,-0.695323,-2.66902,-0.0863914,0.215134,-0.126741,0.182027,-0.00079806,-0.00300549,0.243727,-0.08276484488617053,0.19964658390036627,-0.0007977416348153854,0.24002804959223267,-0.003000978036282409,-0.11903818783884212
554,0.5446,56.9475,985.192,-0.0100182,237.833,-0.694163,-2.66448,-0.0865363,0.215487,-0.126949,0.182318,-0.000799023,-0.00300911,0.244133,-0.08289774263147232,0.19999573185484487,-0.0007987038661267931,0.24046585676215804,-0.003004587166209438,-0.119221408840127
555,0.5456,56.9558,985.465,-0.0100357,237.885,-0.693002,-2.65992,-0.0866812,0.215841,-0.127157,0.18261,-0.000799984,-0.00301271,0.244538,-0.08303062112128601,0.20034618177174424,-0.0007996640981110525,0.24090505940973372,-0.003008176343235136,-0.11940459173540674
556,0.5466,56.9641,985.738,-0.0100531,237.936,-0.691838,-2.65537,-0.086826,0.216194,-0.127365,0.182901,-0.000800942,-0.00301631,0.244944,-0.08316338867474482,0.20069553333882761,-0.0008006213315743249,0.24134317621877277,-0.0030117655073398364,-0.11958773653260657
557,0.5476,56.9724,986.01,-0.0100704,237.987,-0.690673,-2.6508,-0.0869708,0.216547,-0.127573,0.183192,-0.000801897,-0.0030199,0.245349,-0.08329613700485361,0.2010449865820101,-0.00080157556652527,0.24178144771034527,-0.003015344688676924,-0.11977084323965004
558,0.5486,56.9807,986.281,-0.0100876,238.038,-0.689507,-2.64624,-0.0871155,0.216901,-0.127781,0.183483,-0.000802851,-0.00302348,0.245754,-0.08342877445727792,0.20139454153088376,-0.0008025288013675524,0.24222111615955866,-0.003018913887354091,-0.11995391186445925
559,0.5496,56.989,986.552,-0.0101047,238.089,-0.688338,-2.64166,-0.0872601,0.217254,-0.127989,0.183773,-0.000803801,-0.00302705,0.246159,-0.08356130107458604,0.2017429964714521,-0.000803478038514216,0.24265969761863637,-0.0030224731034783625,-0.1201369424149542
560,0.5506,56.9972,986.823,-0.0101217,238.14,-0.687168,-2.63708,-0.0874048,0.217606,-0.128196,0.184064,-0.00080475,-0.00303061,0.246564,-0.08369390016054534,0.20209275457076048,-0.0008044262755636522,0.2430971908264854,-0.003026022337156431,-0.12031905521854891
561,0.5516,57.0054,987.093,-0.0101386,238.191,-0.685997,-2.63249,-0.0875493,0.217959,-0.128404,0.184354,-0.000805696,-0.00303416,0.246968,-0.08382629682608267,0.20244141202247312,-0.0008053715141292939,0.24353608159451023,-0.003029561588494989,-0.12050200982712456
562,0.5526,57.0136,987.363,-0.0101554,238.242,-0.684824,-2.6279,-0.0876938,0.218312,-0.128612,0.184645,-0.000806639,-0.0030377,0.247373,-0.08395867436168403,0.20279137339028108,-0.0008063137542196896,0.24397512731832438,-0.0030330908576001736,-0.12068492638509898
563,0.5536,57.0218,987.632,-0.0101721,238.292,-0.683649,-2.6233,-0.0878383,0.218664,-0.128819,0.184935,-0.00080758,-0.00304123,0.247777,-0.08409103277011343,0.203140233470831,-0.0008072539950361168,0.24441308363893066,-0.0030366101445779003,-0.12086692576775127
564,0.5546,57.03,987.901,-0.0101888,238.343,-0.682473,-2.61869,-0.0879827,0.219016,-0.129026,0.185225,-0.000808519,-0.00304476,0.248181,-0.08422328047646721,0.20348919473547533,-0.0008081922365840155,0.2448511941472975,-0.0030401294191325645,-0.12104888748043041
565,0.5556,57.0382,988.169,-0.0102053,238.393,-0.681295,-2.61408,-0.0881271,0.219369,-0.129234,0.185515,-0.000809455,-0.00304827,0.248585,-0.0843555090876309,0.20383825721356152,-0.0008091274796784287,0.24529070418778964,-0.003043628742136928,-0.12123169029968217
566,0.5566,57.0463,988.437,-0.0102217,238.444,-0.680115,-2.60947,-0.0882714,0.219721,-0.129441,0.185805,-0.000810388,-0.00305177,0.248989,-0.08448762705512902,0.20418742093444586,-0.000810059724327572,0.2457291236729664,-0.003047118083330025,-0.12141357651391749
567,0.5576,57.0544,988.704,-0.010238,238.494,-0.678934,-2.60484,-0.0884156,0.220073,-0.129648,0.186095,-0.00081132,-0.00305527,0.249392,-0.08461963442134779,0.20453668592749308,-0.0008109909689180128,0.24616769750896594,-0.0030506074123104465,-0.12159542508160304
568,0.5586,57.0625,988.971,-0.0102543,238.544,-0.677752,-2.60021,-0.0885598,0.220424,-0.129855,0.186384,-0.000812248,-0.00305875,0.249796,-0.08475162275347681,0.20488484733662649,-0.0008119182158881078,0.2466051791443271,-0.0030540767901598986,-0.12177723601053081
569,0.5596,57.0706,989.238,-0.0102704,238.594,-0.676568,-2.59558,-0.088704,0.220776,-0.130062,0.186674,-0.000813175,-0.00306223,0.250199,-0.08488359205426044,0.20523431461266006,-0.0008128444628106024,0.24704406140613244,-0.0030575461559358974,-0.12195900930849124
570,0.5606,57.0787,989.504,-0.0102864,238.644,-0.675382,-2.59094,-0.0888481,0.221127,-0.130269,0.186963,-0.000814099,-0.0030657,0.250602,-0.08501545082799267,0.20558267766561955,-0.0008137677113158048,0.24748185069921225,-0.0030610055402487957,-0.1221407449832731
571,0.5616,57.0867,989.769,-0.0103024,238.694,-0.674195,-2.58629,-0.0889922,0.221479,-0.130476,0.187252,-0.00081502,-0.00306916,0.251005,-0.08514729060224446,0.20593114141005064,-0.0008146879614119307,0.24792104160372275,-0.0030644549432020662,-0.1223224430426636
572,0.5626,57.0948,990.034,-0.0103182,238.744,-0.673007,-2.58164,-0.0891362,0.22183,-0.130682,0.187541,-0.000815939,-0.0030726,0.251408,-0.08527901990766007,0.2062797058750574,-0.0008156062122918195,0.24835913877088056,-0.0030678843955784796,-0.12250322599811303
573,0.5636,57.1028,990.299,-0.010334,238.794,-0.671816,-2.57699,-0.0892801,0.222181,-0.130889,0.18783,-0.000816856,-0.00307604,0.251811,-0.08541063878648991,0.20662837108975207,-0.0008165224639608004,0.24879738973713428,-0.003071313836157441,-0.12268484903169896
574,0.5646,57.1108,990.563,-0.0103496,238.843,-0.670625,-2.57232,-0.089424,0.222532,-0.131095,0.188119,-0.00081777,-0.00307947,0.252213,-0.08554223872672573,0.2069771370832556,-0.00081743571724191,0.24923579455647693,-0.003074733295686638,-0.12286555733920368
575,0.5656,57.1188,990.827,-0.0103651,238.893,-0.669432,-2.56766,-0.0895679,0.222883,-0.131302,0.188408,-0.000818681,-0.00308289,0.252616,-0.08567381973109267,0.20732600388469735,-0.0008183459721433639,0.2496743532829202,-0.003078142774268544,-0.12304710537796426
576,0.5666,57.1268,991.09,-0.0103806,238.942,-0.668237,-2.56298,-0.0897117,0.223234,-0.131508,0.188696,-0.000819591,-0.00308631,0.253018,-0.0858052903828489,0.20767376384884728,-0.0008192552270347431,0.2501130659704949,-0.003081552241190111,-0.1232277390683475
577,0.5676,57.1347,991.353,-0.010396,238.992,-0.667041,-2.5583,-0.0898555,0.223584,-0.131715,0.188984,-0.000820498,-0.00308971,0.25342,-0.08593674213048474,0.20802162398229052,-0.0008201614835593452,0.25055068212194387,-0.003084941758150328,-0.12340921214324907
578,0.5686,57.1427,991.615,-0.0104112,239.041,-0.665844,-2.55362,-0.0899992,0.223935,-0.131921,0.189273,-0.000821402,-0.0030931,0.253822,-0.08606808358353113,0.20837079268406855,-0.0008210647417250527,0.2509897024549297,-0.003088321294469454,-0.1235897712473214
579,0.5696,57.1506,991.877,-0.0104264,239.09,-0.664645,-2.54893,-0.0901428,0.224285,-0.132127,0.189561,-0.000822304,-0.00309649,0.254224,-0.08619931478410281,0.20871885359072628,-0.0008219660007181551,0.25142762548284847,-0.003091700819331966,-0.12377029316004895
580,0.5706,57.1585,992.139,-0.0104415,239.139,-0.663445,-2.54424,-0.0902864,0.224635,-0.132333,0.189849,-0.000823203,-0.00309986,0.254625,-0.08633052714122713,0.2090670147533613,-0.0008228642613670178,0.2518657018106527,-0.0030950603946392485,-0.1239507778890927
581,0.5716,57.1664,992.4,-0.0104564,239.188,-0.662243,-2.53954,-0.09043,0.224985,-0.132539,0.190137,-0.000824101,-0.00310323,0.255027,-0.08646172065760971,0.20941527620085165,-0.0008237615220320071,0.252303931492007,-0.0030984199586249206,-0.12413122544211141
582,0.5726,57.1743,992.661,-0.0104713,239.237,-0.66104,-2.53483,-0.0905735,0.225335,-0.132745,0.190425,-0.000824995,-0.00310658,0.255428,-0.08659280399524094,0.2097636379620833,-0.0008246547851898933,0.2527423145805947,-0.0031017595733241476,-0.12431163582676275
583,0.5736,57.1821,992.921,-0.0104861,239.286,-0.659836,-2.53012,-0.090717,0.225685,-0.132951,0.190712,-0.000825887,-0.00310993,0.255829,-0.08672386852376279,0.2101108899544557,-0.0008255460492003763,0.25318085113011723,-0.0031050991768357683,-0.12449200905070257
584,0.5746,57.19,993.181,-0.0105008,239.335,-0.65863,-2.5254,-0.0908604,0.226035,-0.133156,0.191,-0.000826777,-0.00311327,0.25623,-0.08685482293136104,0.21045945208129946,-0.0008264353140686742,0.25361954119429586,-0.0031084288002439786,-0.12467146979349253
585,0.5756,57.1978,993.44,-0.0105154,239.383,-0.657422,-2.52068,-0.0910037,0.226384,-0.133362,0.191287,-0.000827665,-0.0031166,0.256631,-0.08698566726001489,0.21080690380098366,-0.000827322579800116,0.25405713076911174,-0.0031117484436489207,-0.12485176889926952
586,0.5766,57.2056,993.699,-0.0105299,239.432,-0.656214,-2.51596,-0.091147,0.226734,-0.133568,0.191574,-0.00082855,-0.00311992,0.257032,-0.08711649284001988,0.21115445525362242,-0.0008282068472283965,0.2544961275848423,-0.0031150581071500705,-0.12503203086725612
587,0.5776,57.2134,993.958,-0.0105442,239.48,-0.655004,-2.51122,-0.0912903,0.227083,-0.133773,0.191862,-0.000829432,-0.00312323,0.257432,-0.08724729967406242,0.21150331797055544,-0.0008290881163612873,0.25493402314169944,-0.003118357790846682,-0.1252113809169202
588,0.5786,57.2212,994.216,-0.0105585,239.529,-0.653792,-2.50649,-0.0914335,0.227432,-0.133979,0.192149,-0.000830312,-0.00312653,0.257833,-0.08737799650263278,0.2118510693227449,-0.000829967386376862,0.255372071550777,-0.003121647494838009,-0.12539156881246083
589,0.5796,57.2289,994.473,-0.0105728,239.577,-0.65258,-2.50175,-0.0915767,0.227781,-0.134184,0.192436,-0.00083119,-0.00312982,0.258233,-0.08750867461675738,0.21219892049389588,-0.0008308446572803385,0.2558102728654299,-0.0031249272192225286,-0.1255708451644003
590,0.5806,57.2367,994.73,-0.0105869,239.625,-0.651365,-2.497,-0.0917198,0.22813,-0.134389,0.192722,-0.000832065,-0.0031331,0.258633,-0.08763924278304458,0.2125456589663952,-0.0008317189299088534,0.2562486271390314,-0.0031281969640989393,-0.1257500847684545
591,0.5816,57.2444,994.987,-0.0106009,239.673,-0.65015,-2.49225,-0.0918628,0.228479,-0.134594,0.193009,-0.000832938,-0.00313637,0.259033,-0.0877697010433387,0.21289370951338316,-0.0008325912034374827,0.25668713442497326,-0.003131456729565163,-0.12592928763215583
592,0.5826,57.2522,995.244,-0.0106148,239.722,-0.648933,-2.48749,-0.0920058,0.228827,-0.134799,0.193295,-0.000833808,-0.00313964,0.259433,-0.08790014064943541,0.21324064672396026,-0.0008334604787049171,0.25712453765150034,-0.0031347164843719133,-0.12610845376303548
593,0.5836,57.2599,995.5,-0.0106286,239.769,-0.647715,-2.48273,-0.0921488,0.229176,-0.135004,0.193582,-0.000834676,-0.00314289,0.259832,-0.08803056160400202,0.21358889676105997,-0.0008343277548849004,0.25756335068356084,-0.003137956291278665,-0.12628758316862265
594,0.5846,57.2675,995.755,-0.0106424,239.817,-0.646496,-2.47796,-0.0922917,0.229524,-0.135209,0.193868,-0.000835542,-0.00314614,0.260232,-0.08816087272579742,0.2139360328236244,-0.0008351930319823175,0.2580010588864088,-0.003141196087656062,-0.12646667585644533
595,0.5856,57.2752,996.01,-0.010656,239.865,-0.645275,-2.47319,-0.0924346,0.229872,-0.135414,0.194154,-0.000836405,-0.00314938,0.260631,-0.08829116522746394,0.21428326818130117,-0.0008360553108387458,0.2584389194382182,-0.0031444259049484558,-0.12664573183403005
596,0.5866,57.2829,996.265,-0.0106695,239.913,-0.644054,-2.46842,-0.0925774,0.23022,-0.135619,0.19444,-0.000837266,-0.0031526,0.26103,-0.08842134795380152,0.21463060286249291,-0.0008369155906247094,0.25887693239201637,-0.003147635774729096,-0.12682475110890135
597,0.5876,57.2905,996.519,-0.010683,239.961,-0.64283,-2.46364,-0.0927202,0.230568,-0.135824,0.194726,-0.000838124,-0.00315582,0.261429,-0.08855151209137313,0.21497803689561001,-0.00083777287218334,0.2593150978008478,-0.0031508456341740043,-0.12700373368858286
598,0.5886,57.2982,996.773,-0.0106963,240.008,-0.641606,-2.45885,-0.0928629,0.230916,-0.136028,0.195012,-0.00083898,-0.00315903,0.261828,-0.08868156651099413,0.2153255703090713,-0.0008386281546837182,0.25975341571777655,-0.003154045514823678,-0.1271818067628393
599,0.5896,57.3058,997.026,-0.0107096,240.056,-0.64038,-2.45406,-0.0930055,0.231264,-0.136233,0.195298,-0.000839834,-0.00316223,0.262227,-0.08881151125432929,0.21567320313130378,-0.0008394814381309512,0.2601918861958845,-0.0031572354167742622,-0.12736071615361377
600,0.5906,57.3134,997.279,-0.0107228,240.103,-0.639153,-2.44927,-0.0931481,0.231611,-0.136437,0.195583,-0.000840685,-0.00316542,0.262625,-0.08894143746886518,0.21601971937041475,-0.0008403317233703911,0.2606292486583932,-0.0031604153401212365,-0.12753871641087489
601,0.5916,57.321,997.532,-0.0107358,240.15,-0.637925,-2.44447,-0.0932907,0.231959,-0.136642,0.195868,-0.000841534,-0.0031686,0.263024,-0.0890713451572438,0.21636633438072828,-0.0008411800095686761,0.2610680239794041,-0.003163585284960302,-0.1277175526426706
602,0.5926,57.3285,997.784,-0.0107488,240.197,-0.636696,-2.43966,-0.0934332,0.232306,-0.136846,0.196154,-0.00084238,-0.00317178,0.263422,-0.08920114324222572,0.21671426490405432,-0.0008420252975728237,0.26150569051447725,-0.0031667552197188753,-0.12789548011271246
603,0.5936,57.3361,998.036,-0.0107617,240.245,-0.635465,-2.43486,-0.0935757,0.232653,-0.13705,0.196439,-0.000843224,-0.00317494,0.26382,-0.08933092283229827,0.21706107788805462,-0.0008428685865476959,0.26194350894619056,-0.003169905207795365,-0.12807337128925256
604,0.5946,57.3436,998.287,-0.0107745,240.292,-0.634233,-2.43004,-0.0937181,0.233,-0.137254,0.196724,-0.000844065,-0.00317809,0.264218,-0.0894605928761607,0.2174079897278418,-0.0008437088773418644,0.2623814793272614,-0.003173045217648496,-0.12825122617969387
605,0.5956,57.3512,998.538,-0.0107872,240.339,-0.633,-2.42522,-0.0938605,0.233347,-0.137458,0.197009,-0.000844904,-0.00318124,0.264616,-0.08959024445632358,0.21775500045159357,-0.0008445471691184148,0.2628196017104252,-0.0031761852176105387,-0.12842904479143824
606,0.5966,57.3587,998.789,-0.0107998,240.386,-0.631766,-2.4204,-0.0940028,0.233694,-0.137662,0.197293,-0.000845741,-0.00318438,0.265014,-0.08971978654739898,0.2181008919859948,-0.0008453834618824541,0.2632578761484361,-0.0031793152394747892,-0.12860682713188543
607,0.5976,57.3662,999.039,-0.0108123,240.432,-0.63053,-2.41558,-0.0941451,0.234041,-0.137866,0.197578,-0.000846575,-0.0031875,0.265411,-0.08984931020594644,0.21844810021503336,-0.0008462167564851075,0.26369630269406596,-0.003182425315159554,-0.12878457320843428
608,0.5986,57.3737,999.289,-0.0108247,240.479,-0.629294,-2.41075,-0.0942873,0.234387,-0.13807,0.197863,-0.000847407,-0.00319062,0.265808,-0.08997872443246557,0.21879540741251935,-0.0008470480520870183,0.2641336172658564,-0.003185535381140858,-0.1289622830284819
609,0.5996,57.3811,999.538,-0.010837,240.526,-0.628056,-2.40591,-0.0944294,0.234734,-0.138274,0.198147,-0.000848237,-0.00319373,0.266206,-0.09010802926839756,0.21914159446445902,-0.0008478773486929603,0.2645723477463837,-0.0031886354693051455,-0.12913995659942368
610,0.6006,57.3886,999.787,-0.0108492,240.572,-0.626817,-2.40107,-0.0945716,0.23508,-0.138477,0.198431,-0.000849064,-0.00319683,0.266603,-0.09023740670768166,0.21948787984748397,-0.0008487036471567233,0.26500996548220646,-0.0031917255797455635,-0.12931672324581234
611,0.6016,57.396,1000.04,-0.0108613,240.619,-0.625577,-2.39623,-0.0947136,0.235426,-0.138681,0.198715,-0.000849888,-0.00319992,0.267,-0.09036658382413687,0.21983426358952385,-0.0008495269474857459,0.26544773465996374,-0.0031948057125547047,-0.12949432451832443
612,0.6026,57.4035,1000.28,-0.0108734,240.665,-0.624336,-2.39138,-0.0948557,0.235772,-0.138885,0.198999,-0.000850711,-0.003203,0.267396,-0.09049583354916502,0.22018074571851676,-0.0008503492479866592,0.26588565533206343,-0.0031978758678250507,-0.12967188956387232
613,0.6036,57.4109,1000.53,-0.0108853,240.712,-0.623093,-2.38653,-0.0949976,0.236118,-0.139088,0.199283,-0.000851531,-0.00320607,0.267793,-0.09062488303410687,0.22052732626240856,-0.0008511685503643784,0.2663237275509318,-0.00320093604564875,-0.12984854823882863
614,0.6046,57.4183,1000.78,-0.0108972,240.758,-0.62185,-2.38167,-0.0951396,0.236464,-0.139291,0.199567,-0.000852348,-0.00320914,0.268189,-0.09075400513283005,0.2208740052491529,-0.000851984854626231,0.26676195136901315,-0.0032039962140777423,-0.13002517105571365
615,0.6056,57.4257,1001.03,-0.0109089,240.804,-0.620605,-2.37681,-0.0952814,0.236809,-0.139495,0.199851,-0.000853163,-0.00321219,0.268586,-0.09088292707412049,0.22122078270671186,-0.0008527991599267537,0.26719905963907653,-0.0032070364372529525,-0.130202627819613
616,0.6066,57.433,1001.27,-0.0109206,240.85,-0.619359,-2.37194,-0.0954233,0.237155,-0.139698,0.200134,-0.000853976,-0.00321524,0.268982,-0.0910119216343882,0.2215664370960071,-0.0008536114662708316,0.267637586374462,-0.003210076651155469,-0.13037917876563831
617,0.6076,57.4404,1001.52,-0.0109322,240.896,-0.618112,-2.36707,-0.095565,0.2375,-0.139901,0.200418,-0.000854786,-0.00321827,0.269378,-0.0911407161197878,0.22191341123213748,-0.0008544207745176946,0.2680749967907192,-0.0032130969200475645,-0.13055569387545907
618,0.6086,57.4477,1001.76,-0.0109437,240.942,-0.616864,-2.3622,-0.0957068,0.237845,-0.140104,0.200701,-0.000855594,-0.0032213,0.269774,-0.09126958322934808,0.22225926166304388,-0.0008552280838195481,0.26851255813960484,-0.0032161171797882027,-0.13073217315634933
619,0.6096,57.4551,1002.01,-0.0109551,240.988,-0.615615,-2.35732,-0.0958485,0.238191,-0.140307,0.200984,-0.0008564,-0.00322432,0.270169,-0.09139834120668633,0.222605209983473,-0.000856033394181166,0.26895153942410377,-0.003219127462568805,-0.1309086166155815
620,0.6106,57.4624,1002.26,-0.0109664,241.034,-0.614365,-2.35244,-0.0959901,0.238536,-0.14051,0.201267,-0.000857203,-0.00322733,0.270565,-0.09152699009301535,0.22295125622113154,-0.0008568357064642207,0.26938940323236893,-0.0032221277684796323,-0.13108502426042679
621,0.6116,57.4697,1002.5,-0.0109776,241.08,-0.613114,-2.34755,-0.0961317,0.23888,-0.140712,0.20155,-0.000858004,-0.00323033,0.27096,-0.09165562076395173,0.2232974004037338,-0.0008576360198183641,0.2698261483029263,-0.003225118097610835,-0.13126052735911642
622,0.6126,57.477,1002.74,-0.0109887,241.125,-0.611862,-2.34266,-0.0962732,0.239225,-0.140915,0.201833,-0.000858802,-0.00323332,0.271355,-0.09178414240049337,0.22364364255900204,-0.0008584333351067119,0.27026431390331074,-0.0032280984500521193,-0.1314368635733313
623,0.6136,57.4843,1002.99,-0.0109997,241.171,-0.610608,-2.33777,-0.0964147,0.23957,-0.141118,0.202116,-0.000859598,-0.0032363,0.271751,-0.09191264585251013,0.22398998271466675,-0.0008592286514772507,0.2707026306969067,-0.0032310688258928577,-0.13161316399492762
624,0.6146,57.4915,1003.23,-0.0110106,241.216,-0.609354,-2.33287,-0.0965561,0.239914,-0.14132,0.202398,-0.000860392,-0.00323927,0.272146,-0.09204104032668337,0.2243351965626572,-0.0008600219689347544,0.27113982759542155,-0.0032340292252222014,-0.1317885604201653
625,0.6156,57.4988,1003.47,-0.0110215,241.262,-0.608098,-2.32797,-0.0966975,0.240259,-0.141523,0.20268,-0.000861183,-0.00324224,0.27254,-0.09216941664716138,0.2246805077746803,-0.0008608122883447811,0.2715784464933515,-0.003236989615759245,-0.13196478945454793
626,0.6166,57.506,1003.72,-0.0110322,241.307,-0.606842,-2.32307,-0.0968388,0.240603,-0.141725,0.202963,-0.000861972,-0.00324519,0.272935,-0.09229768404628391,0.2250271414047258,-0.0008616006088528749,0.27201594472432644,-0.0032399300623027205,-0.1321401148586161
627,0.6176,57.5132,1003.96,-0.0110429,241.352,-0.605584,-2.31816,-0.0969801,0.240947,-0.141928,0.203245,-0.000862758,-0.00324814,0.273329,-0.09242593332250348,0.22537264777271004,-0.0008623859313261484,0.27245359348058207,-0.0032428705001719127,-0.1323162725346907
628,0.6186,57.5204,1004.2,-0.0110534,241.398,-0.604326,-2.31325,-0.0971214,0.241291,-0.14213,0.203527,-0.000863542,-0.00325107,0.273724,-0.0925541644783805,0.22571825158722958,-0.0008631692549084802,0.2728913928139074,-0.0032457909942827934,-0.13249152694634725
629,0.6196,57.5276,1004.44,-0.0110639,241.443,-0.603066,-2.30833,-0.0972626,0.241635,-0.142332,0.203809,-0.000864324,-0.003254,0.274118,-0.09268228678470847,0.22606395287576797,-0.0008639505796046443,0.2733293427761101,-0.003248711479836741,-0.1326667459601878
630,0.6206,57.5348,1004.68,-0.0110743,241.488,-0.601806,-2.30341,-0.0974037,0.241978,-0.142534,0.204091,-0.000865104,-0.00325692,0.274512,-0.0928103002824785,0.22640975166581656,-0.0008647299054193036,0.2737661696522089,-0.0032516219893498066,-0.13284192958336227
631,0.6216,57.542,1004.92,-0.0110846,241.533,-0.600544,-2.29848,-0.0975448,0.242322,-0.142736,0.204372,-0.00086588,-0.00325983,0.274906,-0.09293829571881818,0.22675442122984046,-0.0008655052340880154,0.27420442058940875,-0.0032545225229095864,-0.13301707782301864
632,0.6226,57.5492,1005.17,-0.0110948,241.578,-0.599282,-2.29356,-0.0976859,0.242665,-0.142938,0.204654,-0.000866655,-0.00326273,0.2753,-0.09306627309627602,0.22710041475942222,-0.0008662795630214326,0.2746415476686792,-0.0032574130806029,-0.13319219068630372
633,0.6236,57.5563,1005.41,-0.0111049,241.622,-0.598018,-2.28862,-0.0978269,0.243009,-0.14314,0.204936,-0.000867427,-0.00326562,0.275693,-0.09319414173681839,0.2274465058729378,-0.0008670508939558896,0.27508009978771697,-0.003260293662516678,-0.13336726818036293
634,0.6246,57.5634,1005.65,-0.0111149,241.667,-0.596754,-2.28369,-0.0979678,0.243352,-0.143342,0.205217,-0.000868197,-0.0032685,0.276087,-0.09332190168134824,0.22779146680582918,-0.0008678202260304912,0.27551752727647005,-0.0032631642687372953,-0.13354231031233998
635,0.6256,57.5706,1005.88,-0.0111249,241.712,-0.595488,-2.27875,-0.0981087,0.243695,-0.143543,0.205498,-0.000868965,-0.00327138,0.27648,-0.09344964362577002,0.22813652468636336,-0.0008685875592499004,0.275955104828586,-0.003266034866690526,-0.13371645080626127
636,0.6266,57.5777,1006.12,-0.0111347,241.756,-0.594222,-2.27381,-0.0982496,0.244038,-0.143745,0.205779,-0.00086973,-0.00327424,0.276873,-0.09357736757261981,0.22848167954178633,-0.0008693518944881129,0.2763928324955456,-0.0032688855217543056,-0.13389142241047136
637,0.6276,57.5848,1006.36,-0.0111445,241.801,-0.592955,-2.26886,-0.0983904,0.244381,-0.143947,0.20606,-0.000870493,-0.0032771,0.277266,-0.093704982894936,0.22882693139935162,-0.0008701142308817911,0.276830710328847,-0.0032717361686652735,-0.13406635867398697
638,0.6286,57.5919,1006.6,-0.0111541,241.845,-0.591686,-2.26391,-0.0985311,0.244723,-0.144148,0.206341,-0.000871253,-0.00327994,0.277659,-0.0938324896335333,0.2291722802863212,-0.000870873569306374,0.27726746111190637,-0.0032745668729150523,-0.13424039384477293
639,0.6296,57.5989,1006.84,-0.0111637,241.89,-0.590417,-2.25896,-0.0986718,0.245066,-0.144349,0.206622,-0.000872011,-0.00328278,0.278052,-0.09395997843319448,0.2295177262299637,-0.0008716309088971919,0.2777056389942787,-0.003277397569125484,-0.13441439403800493
640,0.6306,57.606,1007.08,-0.0111732,241.934,-0.589147,-2.254,-0.0988125,0.245409,-0.144551,0.206902,-0.000872767,-0.00328561,0.278444,-0.09408744929644342,0.22986203939490157,-0.0008723862496586854,0.27814396719744305,-0.0032802182900990573,-0.1345892246719207
641,0.6316,57.613,1007.31,-0.0111826,241.978,-0.587876,-2.24904,-0.0989531,0.245751,-0.144752,0.207183,-0.00087352,-0.00328843,0.278837,-0.09421481164728929,0.23020767918808827,-0.0008731385924686252,0.2785811671911622,-0.0032830290359203707,-0.13476315475720246
642,0.6326,57.6201,1007.55,-0.0111919,242.023,-0.586604,-2.24408,-0.0990937,0.246093,-0.144953,0.207463,-0.000874271,-0.00329124,0.279229,-0.09434215609224739,0.23055218556690305,-0.0008738889364597879,0.2790185167328503,-0.00328582980667369,-0.13493704988605038
643,0.6336,57.6271,1007.79,-0.0112011,242.067,-0.585331,-2.23911,-0.0992342,0.246435,-0.145154,0.207743,-0.00087502,-0.00329404,0.279621,-0.09446939208077898,0.23089678842101002,-0.0008746372816367254,0.27945601587366165,-0.0032886206024430598,-0.13511091006548992
644,0.6346,57.6341,1008.02,-0.0112102,242.111,-0.584058,-2.23414,-0.0993747,0.246777,-0.145355,0.208023,-0.000875766,-0.00329684,0.280013,-0.09459661019390986,0.2312414877774258,-0.0008753826288792066,0.27989366466476806,-0.0032914113903982356,-0.13528473530254526
645,0.6356,57.6411,1008.26,-0.0112192,242.155,-0.582783,-2.22917,-0.0995151,0.247119,-0.145556,0.208303,-0.00087651,-0.00329962,0.280405,-0.09472371990652806,0.2315862836631748,-0.0008761259773180097,0.28033146315735835,-0.003294182236423082,-0.135458525604239
646,0.6366,57.6481,1008.49,-0.0112282,242.199,-0.581507,-2.22419,-0.0996554,0.247461,-0.145757,0.208583,-0.000877252,-0.0033024,0.280797,-0.09485072125927185,0.23193117610528913,-0.0008768673269575755,0.28076941140263934,-0.0032969530747450904,-0.1356322809775925
647,0.6376,57.6551,1008.73,-0.011237,242.242,-0.580231,-2.21921,-0.0997958,0.247802,-0.145958,0.208863,-0.000877991,-0.00330516,0.281188,-0.09497779529720085,0.23227616513080807,-0.0008776056786797826,0.28120622824496655,-0.00329970397135837,-0.13580600142962573
648,0.6386,57.662,1008.96,-0.0112458,242.286,-0.578954,-2.21423,-0.0999361,0.248144,-0.146158,0.209143,-0.000878728,-0.00330792,0.28158,-0.095104761005668,0.2326212507667793,-0.0008783420316130774,0.28164447571107143,-0.003302454860379167,-0.135978822946612
649,0.6396,57.669,1009.2,-0.0112545,242.33,-0.577676,-2.20924,-0.100076,0.248485,-0.146359,0.209422,-0.000879462,-0.00331067,0.281971,-0.09523134699470692,0.23296520007444044,-0.0008790753866407819,0.2820815910012102,-0.0033051957748595484,-0.13615247375070927
650,0.6406,57.6759,1009.43,-0.0112631,242.374,-0.576397,-2.20426,-0.100216,0.248826,-0.14656,0.209702,-0.000880195,-0.00331341,0.282362,-0.09535800573980857,0.23331047866720844,-0.0008798077420101302,0.28251885537307997,-0.0033079267148816704,-0.13632608965450255
651,0.6416,57.6828,1009.66,-0.0112716,242.417,-0.575117,-2.19926,-0.100357,0.249167,-0.14676,0.209981,-0.000880924,-0.00331614,0.282753,-0.09548555126882818,0.23365462029628148,-0.0008805361003648704,0.282956268877526,-0.0033106476805276897,-0.136498807164245
652,0.6426,57.6897,1009.9,-0.01128,242.461,-0.573836,-2.19427,-0.100497,0.249508,-0.146961,0.21026,-0.000881652,-0.00331886,0.283144,-0.09561217442782255,0.23399885795426445,-0.0008812634590698032,0.28339383156541165,-0.0033133586718789854,-0.13667235346201778
653,0.6436,57.6966,1010.13,-0.0112883,242.504,-0.572555,-2.18927,-0.100637,0.249849,-0.147161,0.210539,-0.000882377,-0.00332157,0.283534,-0.09573877986081558,0.23434319166795325,-0.000881987819891239,0.28383154348761663,-0.003316059689017159,-0.1368450017259234
654,0.6446,57.7035,1010.36,-0.0112966,242.547,-0.571273,-2.18427,-0.100777,0.25019,-0.147361,0.210818,-0.0008831,-0.00332428,0.283925,-0.09586536757028863,0.2346876214641509,-0.0008827101819528504,0.2842694046950389,-0.003318760698835521,-0.13701761546362912
655,0.6456,57.7104,1010.59,-0.0113047,242.591,-0.56999,-2.17926,-0.100917,0.25053,-0.147561,0.211097,-0.00088382,-0.00332697,0.284315,-0.09599193755872293,0.23503214736966838,-0.0008834295461426223,0.28470613053182037,-0.003321441767763167,-0.1371901946820393
656,0.6466,57.7173,1010.83,-0.0113128,242.634,-0.568706,-2.17425,-0.101057,0.250871,-0.147761,0.211376,-0.000884539,-0.00332966,0.284705,-0.09611848982859905,0.2353767694113238,-0.0008841479106984629,0.2851442900242793,-0.003324122829478804,-0.1373627393880571
657,0.6476,57.7241,1011.06,-0.0113207,242.677,-0.567421,-2.16924,-0.101196,0.251211,-0.147961,0.211654,-0.000885254,-0.00333234,0.285096,-0.09624412062697019,0.2357202518950734,-0.0008848622782773319,0.2855813133726468,-0.003326793917250326,-0.13753524958858443
658,0.6486,57.731,1011.29,-0.0113286,242.72,-0.566135,-2.16423,-0.101336,0.251551,-0.148161,0.211933,-0.000885968,-0.00333501,0.285485,-0.09637063759368802,0.23606506594467525,-0.0008855756462310405,0.2860184853342156,-0.003329455031158002,-0.13770772529052155
659,0.6496,57.7378,1011.52,-0.0113364,242.763,-0.564849,-2.15921,-0.101476,0.251891,-0.148361,0.212211,-0.000886679,-0.00333767,0.285875,-0.09649713684927042,0.2364087398014605,-0.0008862860163342257,0.2864558059595226,-0.003332106171281657,-0.13788016650076762
660,0.6506,57.7446,1011.75,-0.0113441,242.806,-0.563562,-2.15419,-0.101616,0.252231,-0.148561,0.212489,-0.000887388,-0.00334032,0.286265,-0.09662361839619671,0.2367525092128595,-0.0008869943877062303,0.28689327529912223,-0.003334747337700672,-0.13805257322622033
661,0.6516,57.7514,1011.98,-0.0113518,242.849,-0.562274,-2.14917,-0.101755,0.252571,-0.148761,0.212767,-0.000888094,-0.00334296,0.286654,-0.09674917898657642,0.23709637420544016,-0.0008876997612392579,0.2873308934035861,-0.003337378530494539,-0.13822494547377573
662,0.6526,57.7582,1012.21,-0.0113593,242.892,-0.560986,-2.14414,-0.101895,0.252911,-0.14896,0.213045,-0.000888798,-0.00334559,0.287044,-0.09687562525007332,0.23744033480577742,-0.0008884031360509859,0.28776866032350257,-0.003339999749742084,-0.13839642164718124
663,0.6536,57.765,1012.44,-0.0113668,242.934,-0.559696,-2.13911,-0.102034,0.25325,-0.14916,0.213323,-0.0008895,-0.00334822,0.287433,-0.09700115081393479,0.23778439104045423,-0.0008891045121458552,0.2882052879035455,-0.0033426209620959213,-0.13856872513192897
664,0.6546,57.7718,1012.67,-0.0113741,242.977,-0.558406,-2.13408,-0.102174,0.25359,-0.149359,0.213601,-0.0008902,-0.00335083,0.287822,-0.09712756180384507,0.23812854293606045,-0.0008898038895278626,0.28864335216813775,-0.003345222234460543,-0.1387401328999892
665,0.6556,57.7786,1012.9,-0.0113814,243.02,-0.557115,-2.12905,-0.102313,0.253929,-0.149559,0.213879,-0.000890897,-0.00335344,0.288211,-0.09725305235095927,0.23847279051919368,-0.0008905002690918762,0.2890802763189819,-0.003347823500035818,-0.1389123676493601
666,0.6566,57.7853,1013.13,-0.0113886,243.062,-0.555824,-2.12401,-0.102453,0.254268,-0.149758,0.214156,-0.000891592,-0.00335604,0.2886,-0.09737942807712285,0.23881589499994438,-0.0008911946499529089,0.289517348612222,-0.0033504147923260064,-0.13908370703936312
667,0.6576,57.792,1013.35,-0.0113957,243.105,-0.554532,-2.11897,-0.102592,0.254607,-0.149957,0.214433,-0.000892284,-0.00335863,0.288988,-0.09750488361725806,0.23915909453380024,-0.0008918860330070499,0.2899545690980867,-0.0033529961114089346,-0.13925501233621995
668,0.6586,57.7988,1013.58,-0.0114027,243.147,-0.553239,-2.11393,-0.102732,0.254946,-0.150156,0.214711,-0.000892975,-0.00336121,0.289377,-0.0976312240895123,0.239503628650104,-0.0008925764164752215,0.29039193782682204,-0.0033555674573618743,-0.13942628354671438
669,0.6596,57.8055,1013.81,-0.0114097,243.189,-0.551945,-2.10889,-0.102871,0.255285,-0.150356,0.214988,-0.000893663,-0.00336378,0.289765,-0.09775664463243416,0.23984701871256808,-0.0008932638021461603,0.2908294548486905,-0.003358128830262208,-0.13959838107967815
670,0.6606,57.8122,1014.04,-0.0114165,243.232,-0.55065,-2.10384,-0.10301,0.255624,-0.150555,0.215265,-0.000894348,-0.00336634,0.290153,-0.09788204774311215,0.2401905039072545,-0.0008939481900260837,0.2912671202139723,-0.0033606802301865413,-0.139769583966591
671,0.6616,57.8189,1014.26,-0.0114233,243.274,-0.549355,-2.09879,-0.103149,0.255962,-0.150753,0.215542,-0.000895031,-0.00336889,0.290541,-0.09800743342396911,0.2405340842605188,-0.000894630579226452,0.29170364226867584,-0.0033632216572117013,-0.1399398927278419
672,0.6626,57.8256,1014.49,-0.01143,243.316,-0.548059,-2.09373,-0.103288,0.256301,-0.150952,0.215819,-0.000895712,-0.00337144,0.290929,-0.09813280167742777,0.24087775979872372,-0.0008953109697513728,0.2921416040337299,-0.0033657630777561565,-0.1401110276606985
673,0.6636,57.8323,1014.71,-0.0114365,243.358,-0.546763,-2.08868,-0.103427,0.256639,-0.151151,0.216095,-0.000896391,-0.00337398,0.291317,-0.09825815250591019,0.24122028932732853,-0.0008959893616048431,0.2925784217139227,-0.003368294525503024,-0.1402821285410918
674,0.6646,57.8389,1014.94,-0.0114431,243.4,-0.545466,-2.08362,-0.103566,0.256977,-0.15135,0.216372,-0.000897067,-0.0033765,0.291705,-0.09838348591183832,0.2415641549706653,-0.0008966647556877261,0.293015387063446,-0.003370806034236229,-0.14045319537579748
675,0.6656,57.8456,1015.17,-0.0114495,243.442,-0.544168,-2.07856,-0.103705,0.257315,-0.151549,0.216648,-0.000897741,-0.00337902,0.292092,-0.09850880189763378,0.2419068739704835,-0.0008973381511088174,0.2934525001322206,-0.0033733175366406076,-0.14062422817159004
676,0.6666,57.8522,1015.39,-0.0114558,243.484,-0.542869,-2.0735,-0.103844,0.257653,-0.151747,0.216925,-0.000898413,-0.00338153,0.292479,-0.09863410046571786,0.24225092982410912,-0.0008980095478720029,0.29388976097018404,-0.003375819066474106,-0.14079436773003995
677,0.6676,57.8588,1015.62,-0.0114621,243.526,-0.54157,-2.06843,-0.103983,0.257991,-0.151946,0.217201,-0.000899083,-0.00338404,0.292867,-0.09875938161851128,0.2425938383999473,-0.0008986789459812794,0.29432716962729066,-0.0033783205900288493,-0.140965332639289
678,0.6686,57.8655,1015.84,-0.0114682,243.568,-0.54027,-2.06337,-0.104122,0.258329,-0.152144,0.217477,-0.00089975,-0.00338653,0.293254,-0.09888464535843466,0.24293684163161422,-0.0008993453463401746,0.294764726153512,-0.0033808021749209827,-0.14113540466574026
679,0.6696,57.8721,1016.06,-0.0114743,243.609,-0.53897,-2.05829,-0.104261,0.258666,-0.152342,0.217753,-0.000900415,-0.00338901,0.29364,-0.0990098916879083,0.24327993954523874,-0.0009000097480547087,0.29520113539705295,-0.003383273787466834,-0.1413054430212637
680,0.6706,57.8787,1016.29,-0.0114803,243.651,-0.537669,-2.05322,-0.1044,0.259004,-0.152541,0.218029,-0.000901077,-0.00339149,0.294027,-0.09913512060935203,0.2436231321669564,-0.0009006711520292976,0.2956389873736327,-0.003385745393883033,-0.14147630623664864
681,0.6716,57.8853,1016.51,-0.0114862,243.693,-0.536367,-2.04815,-0.104538,0.259341,-0.152739,0.218305,-0.000901737,-0.00339395,0.294414,-0.0992594313850671,0.24396641952291032,-0.0009013305573687402,0.29607569129285505,-0.0033881970619338286,-0.14164627710034305
682,0.6726,57.8918,1016.73,-0.0114921,243.734,-0.535065,-2.04307,-0.104677,0.259678,-0.152937,0.21858,-0.000902395,-0.00339641,0.2948,-0.09938462562290351,0.2443085573300714,-0.0009019879640769224,0.29651254240609903,-0.003390648723953449,-0.14181621431313784
683,0.6736,57.8984,1016.96,-0.0114978,243.776,-0.533762,-2.03799,-0.104816,0.260015,-0.153135,0.218856,-0.000903051,-0.00339886,0.295187,-0.09950980245995023,0.24465203388947931,-0.0009026433721578409,0.2969495407629772,-0.0033930904138730344,-0.14198611788169557
684,0.6746,57.905,1017.18,-0.0115035,243.817,-0.532458,-2.03291,-0.104954,0.260352,-0.153333,0.219131,-0.000903704,-0.0034013,0.295573,-0.09963406153313747,0.24499436026651855,-0.0009032957825186871,0.29738668641311916,-0.003395522131765749,-0.1421559878126768
685,0.6756,57.9115,1017.4,-0.0115091,243.858,-0.531154,-2.02782,-0.105093,0.260689,-0.153531,0.219407,-0.000904355,-0.00340373,0.295959,-0.09975920370100222,0.24533802613366018,-0.0009039461942614846,0.2978239794061712,-0.0033979438777045345,-0.1423258241127413
686,0.6766,57.9181,1017.62,-0.0115146,243.9,-0.529849,-2.02274,-0.105231,0.261026,-0.153729,0.219682,-0.000905004,-0.00340616,0.296345,-0.09988342835919295,0.24568054118450777,-0.000904594607390008,0.2982614197917959,-0.003400365617758472,-0.14249562678854732
687,0.6776,57.9246,1017.84,-0.01152,243.941,-0.528543,-2.01765,-0.10537,0.261363,-0.153926,0.219957,-0.00090565,-0.00340857,0.29673,-0.10000853586747771,0.24602315043994705,-0.0009052400228133362,0.2986990076196734,-0.0034027674199832436,-0.142664538511719
688,0.6786,57.9311,1018.07,-0.0115253,243.982,-0.527237,-2.01256,-0.105508,0.261699,-0.154124,0.220232,-0.000906295,-0.00341098,0.297116,-0.10013272612020352,0.2463658539258875,-0.0009058844387257459,0.2991354438034066,-0.0034051692164195346,-0.14283427412871308
689,0.6796,57.9376,1018.29,-0.0115306,244.023,-0.525931,-2.00746,-0.105646,0.262035,-0.154322,0.220507,-0.000906937,-0.00341337,0.297502,-0.1002568992358569,0.2467086516682464,-0.0009065258569420642,0.299572026654336,-0.00340755107521884,-0.14300397614138194
690,0.6806,57.9441,1018.51,-0.0115357,244.064,-0.524624,-2.00237,-0.105785,0.262372,-0.154519,0.220781,-0.000907576,-0.00341576,0.297887,-0.10038195483529755,0.24705029664202738,-0.0009071642774680644,0.30001005623115673,-0.0034099329283253654,-0.14317278772959463
691,0.6816,57.9506,1018.73,-0.0115408,244.105,-0.523316,-1.99727,-0.105923,0.262708,-0.154717,0.221056,-0.000908214,-0.00341814,0.298272,-0.10050609355976126,0.2473932826320162,-0.0009078016984939152,0.3004469330012376,-0.003412304809862543,-0.14334242272320563
692,0.6826,57.9571,1018.95,-0.0115458,244.146,-0.522008,-1.99217,-0.106061,0.263044,-0.154914,0.221331,-0.000908849,-0.00342051,0.298657,-0.10063021515426307,0.24773636295612245,-0.0009084361218383297,0.30088395658657685,-0.003414666719901205,-0.14351116764400873
693,0.6836,57.9635,1019.17,-0.0115507,244.187,-0.520699,-1.98707,-0.106199,0.26338,-0.155111,0.221605,-0.000909481,-0.00342288,0.299042,-0.10075431962116654,0.248078289561378,-0.0009090675475071919,0.3013211270365126,-0.003417028624342233,-0.14367987932533666
694,0.6846,57.97,1019.39,-0.0115556,244.227,-0.51939,-1.98197,-0.106337,0.263715,-0.155309,0.221879,-0.000910112,-0.00342523,0.299427,-0.10087840696283534,0.24842030986736008,-0.0009096979736866739,0.3017571426426062,-0.0034193705915731565,-0.14384941392475104
695,0.6856,57.9764,1019.6,-0.0115603,244.268,-0.51808,-1.97686,-0.106475,0.264051,-0.155506,0.222153,-0.00091074,-0.00342757,0.299811,-0.10100247718163247,0.24876242389974568,-0.0009103254021993745,0.302194606532352,-0.0034217025875175056,-0.1440180589781247
696,0.6866,57.9829,1019.82,-0.011565,244.309,-0.516769,-1.97175,-0.106613,0.264387,-0.155703,0.222427,-0.000911366,-0.00342991,0.300196,-0.1011265302799208,0.2491046316842198,-0.0009109508321398785,0.3026322174346614,-0.0034240345780051085,-0.14418667081169512
697,0.6876,57.9893,1020.04,-0.0115696,244.349,-0.515458,-1.96664,-0.106751,0.264722,-0.1559,0.222701,-0.00091199,-0.00343224,0.30058,-0.10125056626006268,0.2494469332464737,-0.0009115742635120716,0.3030686723296152,-0.003426356597299396,-0.14435524943200584
698,0.6886,57.9957,1020.26,-0.0115741,244.39,-0.514147,-1.96153,-0.106889,0.265057,-0.156097,0.222975,-0.000912611,-0.00343456,0.300964,-0.10137458512442032,0.24978932861220615,-0.0009121946972318051,0.30350527346145206,-0.00342866864547009,-0.1445237948455994
699,0.6896,58.0021,1020.48,-0.0115785,244.43,-0.512835,-1.95642,-0.107027,0.265392,-0.156294,0.223249,-0.00091323,-0.00343687,0.301348,-0.10149858687535551,0.250131817807123,-0.0009128131323918875,0.30394202087916966,-0.0034309707225865793,-0.1446923070590168
700,0.6906,58.0085,1020.69,-0.0115828,244.471,-0.511522,-1.9513,-0.107165,0.265727,-0.15649,0.223522,-0.000913847,-0.00343917,0.301732,-0.1016225715152298,0.250473150383161,-0.0009134295689959826,0.3043789146317817,-0.003433262828718031,-0.1448599309391564
701,0.6916,58.0149,1020.91,-0.0115871,244.511,-0.510209,-1.94619,-0.107303,0.266062,-0.156687,0.223796,-0.000914462,-0.00344147,0.302116,-0.1017465390464043,0.25081582697091465,-0.000914044007047865,0.30481595476831913,-0.003435554929577589,-0.14502837694028547
702,0.6926,58.0213,1021.13,-0.0115913,244.552,-0.508895,-1.94107,-0.10744,0.266397,-0.156884,0.224069,-0.000915074,-0.00344375,0.3025,-0.10186959134128026,0.25115734630694586,-0.0009146554474658286,0.3052531413378283,-0.0034378270939220412,-0.14519678976082084
703,0.6936,58.0276,1021.34,-0.0115954,244.592,-0.507581,-1.93595,-0.107578,0.266732,-0.15708,0.224342,-0.000915684,-0.00344603,0.302883,-0.10199352478607082,0.2514989588904837,-0.0009152648893401283,0.3056904743893727,-0.003440099253086082,-0.14536431477204026
704,0.6946,58.034,1021.56,-0.0115994,244.632,-0.506267,-1.93082,-0.107716,0.267066,-0.157277,0.224615,-0.000916292,-0.00344829,0.303266,-0.10211744112922605,0.25184066474698796,-0.0009158723326744278,0.30612664784473087,-0.0034423514759167606,-0.14553266141934096
705,0.6956,58.0403,1021.78,-0.0116033,244.672,-0.504952,-1.9257,-0.107853,0.267401,-0.157473,0.224889,-0.000916898,-0.00345055,0.30365,-0.10224044261399723,0.2521837160850158,-0.0009164777774723909,0.3065642735699752,-0.0034446036936574,-0.14570012060616644
706,0.6966,58.0467,1021.99,-0.0116072,244.712,-0.503636,-1.92057,-0.107991,0.267735,-0.15767,0.225161,-0.000917501,-0.0034528,0.304033,-0.10236432488484326,0.25252435638077086,-0.0009170802246546428,0.30700073892300384,-0.0034468459407764884,-0.14586840110623345
707,0.6976,58.053,1022.21,-0.011611,244.752,-0.50232,-1.91544,-0.108128,0.268069,-0.157866,0.225434,-0.000918102,-0.00345505,0.304416,-0.10248729254885669,0.2528663422090043,-0.0009176806733089959,0.30743735007980844,-0.0034490881828506126,-0.14603579449452875
708,0.6986,58.0593,1022.42,-0.0116147,244.792,-0.501004,-1.91031,-0.108266,0.268403,-0.158062,0.225707,-0.000918701,-0.00345728,0.304798,-0.10261114075676203,0.2532084214121142,-0.0009182791234390031,0.30787410708909557,-0.003451310488906123,-0.14620315507693493
709,0.6996,58.0656,1022.64,-0.0116183,244.832,-0.499687,-1.90518,-0.108403,0.268737,-0.158258,0.225979,-0.000919297,-0.00345951,0.305181,-0.10273407460931716,0.2535493404656277,-0.0009188745759671768,0.3083110099995876,-0.00345353279000582,-0.14637048285988152
710,0.7006,58.0719,1022.85,-0.0116218,244.872,-0.49837,-1.90005,-0.10854,0.269071,-0.158454,0.226252,-0.000919892,-0.00346172,0.305564,-0.10285699162108819,0.2538916061527152,-0.0009194690290599272,0.3087480588600242,-0.003455735155264761,-0.14653777784979638
711,0.7016,58.0782,1023.06,-0.0116253,244.912,-0.497052,-1.89491,-0.108678,0.269405,-0.15865,0.226524,-0.000920484,-0.00346393,0.305946,-0.10298078881404171,0.2542327110577529,-0.0009200604845592819,0.3091852537191606,-0.003457937515656484,-0.14670504005310636
712,0.7026,58.0845,1023.28,-0.0116287,244.951,-0.495734,-1.88978,-0.108815,0.269738,-0.158846,0.226796,-0.000921074,-0.00346613,0.306328,-0.10310367202828175,0.254573908755944,-0.0009206499415496117,0.3096212850038289,-0.003460129905782372,-0.1468722694762371
713,0.7036,58.0908,1023.49,-0.011632,244.991,-0.494415,-1.88464,-0.108952,0.270072,-0.159042,0.227069,-0.000921661,-0.00346832,0.30671,-0.10322653840867468,0.2549164541883584,-0.0009212364009559826,0.3100587715692096,-0.003462312325708039,-0.14703946612561292
714,0.7046,58.097,1023.7,-0.0116352,245.031,-0.493096,-1.8795,-0.109089,0.270405,-0.159238,0.227341,-0.000922246,-0.0034705,0.307092,-0.10334938795752646,0.25525783788997636,-0.0009218208618617663,0.31049509378375895,-0.0034644847754992103,-0.14720663000765677
715,0.7056,58.1033,1023.92,-0.0116383,245.07,-0.491777,-1.87436,-0.109227,0.270738,-0.159433,0.227612,-0.000922829,-0.00347268,0.307474,-0.10347311720447394,0.255598058861904,-0.0009224033242704044,0.31093156131779986,-0.003466657220554503,-0.14737290850212514
716,0.7066,58.1095,1024.13,-0.0116414,245.11,-0.490457,-1.86921,-0.109364,0.271072,-0.159629,0.227884,-0.00092341,-0.00347484,0.307856,-0.10359593297434455,0.2559396279852093,-0.0009229837881854497,0.31136948558856226,-0.0034688097302500998,-0.14754000703586745
717,0.7076,58.1158,1024.34,-0.0116444,245.149,-0.489137,-1.86407,-0.109501,0.271405,-0.159825,0.228156,-0.000923989,-0.003477,0.308237,-0.10371873191960723,0.2562812900279525,-0.0009235622536103438,0.31180624434355986,-0.0034709622352964153,-0.14770707282150664
718,0.7086,58.122,1024.55,-0.0116473,245.189,-0.487816,-1.85892,-0.109638,0.271737,-0.16002,0.228427,-0.000924565,-0.00347915,0.308618,-0.10384151404256681,0.2566217883929949,-0.0009241377214728175,0.31224183632094915,-0.0034731047704243956,-0.1478732537391404
719,0.7096,58.1282,1024.77,-0.0116501,245.228,-0.486495,-1.85378,-0.109775,0.27207,-0.160215,0.228699,-0.000925139,-0.00348129,0.309,-0.10396427934552765,0.25696363600860583,-0.0009247111908531336,0.3126788856171132,-0.0034752373356983224,-0.1480394022546545
720,0.7106,58.1344,1024.98,-0.0116528,245.267,-0.485174,-1.84863,-0.109911,0.272403,-0.160411,0.22897,-0.000925711,-0.00348342,0.309381,-0.10408613191737404,0.25730431931446707,-0.0009252826617549559,0.31311608047492756,-0.0034773599311822556,-0.14820637016842253
721,0.7116,58.1406,1025.19,-0.0116555,245.306,-0.483852,-1.84348,-0.110048,0.272735,-0.160606,0.229241,-0.000926281,-0.00348554,0.309762,-0.10420886370998161,0.25764509495801535,-0.000925852134181504,0.3135521073901082,-0.003479472556939811,-0.1483724537325659
722,0.7126,58.1468,1025.4,-0.0116581,245.346,-0.48253,-1.83832,-0.110185,0.273068,-0.160801,0.229512,-0.000926849,-0.00348766,0.310143,-0.10433157868948528,0.2579859629642778,-0.0009264196081363307,0.3139895930791934,-0.003481585178218616,-0.14853850491357168
723,0.7136,58.153,1025.61,-0.0116606,245.385,-0.481207,-1.83317,-0.110322,0.2734,-0.160996,0.229783,-0.000927414,-0.00348976,0.310523,-0.10445427685818831,0.25832692335828766,-0.0009269840845497201,0.314425910048705,-0.0034836778646923916,-0.1487045237177541
724,0.7146,58.1591,1025.82,-0.011663,245.424,-0.479884,-1.82802,-0.110459,0.273732,-0.161191,0.230054,-0.000927977,-0.00349186,0.310904,-0.10457695821839375,0.25866797616508586,-0.0009275465624993817,0.3148623718994994,-0.0034857705467715716,-0.14887051015142583
725,0.7156,58.1653,1026.03,-0.0116654,245.463,-0.478561,-1.82286,-0.110595,0.274064,-0.161386,0.230325,-0.000928537,-0.00349395,0.311284,-0.10469872747157916,0.25900912140971943,-0.0009281060429167098,0.31529897867968515,-0.00348785325933465,-0.14903646422089867
726,0.7166,58.1715,1026.24,-0.0116677,245.502,-0.477237,-1.8177,-0.110732,0.274396,-0.161581,0.230596,-0.000929096,-0.00349603,0.311664,-0.10482137534434444,0.25935035911724236,-0.0009286645239492408,0.3157357304373869,-0.0034899260024442436,-0.14920238593248303
727,0.7176,58.1776,1026.45,-0.0116699,245.541,-0.475913,-1.81254,-0.110868,0.274728,-0.161776,0.230866,-0.000929652,-0.0034981,0.312045,-0.10494311135906087,0.2596904296216562,-0.0009292200074574319,0.316172627220745,-0.0034919887761625246,-0.14936827529248786
728,0.7186,58.1837,1026.66,-0.011672,245.579,-0.474589,-1.80738,-0.111005,0.27506,-0.161971,0.231137,-0.000930206,-0.00350017,0.312425,-0.1050657257535269,0.260031851988725,-0.0009297734925162171,0.3166096690779163,-0.003494051545610777,-0.14953413230722135
729,0.7196,58.1899,1026.87,-0.0116741,245.618,-0.473264,-1.80222,-0.111141,0.275391,-0.162165,0.231407,-0.000930758,-0.00350222,0.312804,-0.10518742853884744,0.2603721065210567,-0.000930324979129038,0.3170455390108755,-0.00349609438071119,-0.14969910668252195
730,0.7206,58.196,1027.07,-0.011676,245.657,-0.471939,-1.79706,-0.111278,0.275723,-0.16236,0.231677,-0.000931308,-0.00350427,0.313184,-0.10531000946415259,0.2607124529345155,-0.0009308744672992253,0.3174828707228743,-0.003498137211623731,-0.14986489919142387
731,0.7216,58.2021,1027.28,-0.0116779,245.696,-0.470614,-1.7919,-0.111414,0.276054,-0.162554,0.231947,-0.000931855,-0.00350631,0.313564,-0.10543167902914741,0.26105289125391296,-0.000931420957961393,0.31791902973341757,-0.0035001700733503505,-0.15002980940417288
732,0.7226,58.2082,1027.49,-0.0116797,245.734,-0.469288,-1.78673,-0.111551,0.276385,-0.162749,0.232217,-0.000932401,-0.00350834,0.313943,-0.10555422649442736,0.2613934215040665,-0.0009319664492566382,0.318355333136489,-0.003502192965951889,-0.15019553743233116
733,0.7236,58.2143,1027.7,-0.0116815,245.773,-0.467962,-1.78157,-0.111687,0.276716,-0.162943,0.232487,-0.000932944,-0.00351036,0.314322,-0.10567586284816466,0.261734043709801,-0.0009325089430515243,0.3187917809798906,-0.003504205889488965,-0.15036038350748304
734,0.7246,58.2204,1027.91,-0.0116832,245.811,-0.466636,-1.7764,-0.111823,0.277047,-0.163138,0.232757,-0.000933485,-0.00351238,0.314702,-0.10579748266048261,0.2620747578959479,-0.0009330494384179877,0.3192283733114396,-0.003506218808960071,-0.15052604707997574
735,0.7256,58.2264,1028.11,-0.0116847,245.85,-0.465309,-1.77123,-0.111959,0.277378,-0.163332,0.233027,-0.000934023,-0.00351438,0.315081,-0.10591908593363075,0.26241556408734534,-0.0009335869362928628,0.3196651101789698,-0.0035082117945294256,-0.1506908290424751
736,0.7266,58.2325,1028.32,-0.0116863,245.888,-0.463982,-1.76606,-0.112095,0.277709,-0.163526,0.233296,-0.00093456,-0.00351638,0.31546,-0.10604067266985828,0.2627551995530071,-0.0009341234348125838,0.3201019916303305,-0.0035102047761128574,-0.1508555790403744
737,0.7276,58.2386,1028.53,-0.0116877,245.927,-0.462655,-1.76089,-0.112232,0.278039,-0.16372,0.233565,-0.000935094,-0.00351837,0.315838,-0.10616313670872435,0.2630949263928981,-0.0009346569358482659,0.32053769717502933,-0.0035121877888323327,-0.15102029707987408
738,0.7286,58.2446,1028.73,-0.0116891,245.965,-0.461327,-1.75572,-0.112368,0.27837,-0.163914,0.233835,-0.000935626,-0.00352035,0.316217,-0.10628469025630338,0.2634360080669782,-0.0009351884384694031,0.32097486750049176,-0.0035141608327471374,-0.15118498316717355
739,0.7296,58.2506,1028.94,-0.0116903,246.003,-0.46,-1.75055,-0.112504,0.2787,-0.164108,0.234104,-0.000936156,-0.00352232,0.316595,-0.10640622727372395,0.2637759180689938,-0.000935717942679104,0.321410861141761,-0.0035161239079166684,-0.15134963730847106
740,0.7306,58.2567,1029.14,-0.0116916,246.041,-0.458672,-1.74537,-0.11264,0.27903,-0.164302,0.234373,-0.000936683,-0.00352428,0.316974,-0.10652774776323415,0.2641159195190992,-0.0009362444494170896,0.3218469986846746,-0.0035180770143997675,-0.15151425950996333
741,0.7316,58.2627,1029.35,-0.0116927,246.079,-0.457343,-1.7402,-0.112776,0.279361,-0.164496,0.234642,-0.000937209,-0.00352624,0.317352,-0.1066492517270815,0.2644560124418971,-0.0009367699568142429,0.3222846024606687,-0.0035200301170548176,-0.15167884977784618
742,0.7326,58.2687,1029.55,-0.0116938,246.118,-0.456015,-1.73502,-0.112911,0.279691,-0.164689,0.234911,-0.000937732,-0.00352819,0.31773,-0.10676984593780603,0.2647961968619972,-0.0009372924667470084,0.32272102838579775,-0.0035219732511014845,-0.15184255996129825
743,0.7336,58.2747,1029.76,-0.0116947,246.156,-0.454686,-1.72985,-0.113047,0.28002,-0.164883,0.23518,-0.000938253,-0.00353012,0.318108,-0.10689131697854048,0.2651364728040153,-0.0009378129782819933,0.32315627519831147,-0.0035238964518372606,-0.1520070865450711
744,0.7346,58.2807,1029.96,-0.0116957,246.194,-0.453357,-1.72467,-0.113183,0.28035,-0.165077,0.235448,-0.000938772,-0.00353205,0.318486,-0.10701277150033672,0.26547557481636685,-0.0009383314914225283,0.32359298882291165,-0.003525819648861228,-0.1521715812137826
745,0.7356,58.2867,1030.17,-0.0116965,246.232,-0.452028,-1.71949,-0.113319,0.28068,-0.16527,0.235717,-0.000939289,-0.00353398,0.318863,-0.10713420950544117,0.2658160335356372,-0.0009388480061716109,0.3240298465867899,-0.003527742842173387,-0.15233519630924375
746,0.7366,58.2927,1030.37,-0.0116973,246.269,-0.450698,-1.71431,-0.113455,0.281009,-0.165464,0.235985,-0.000939803,-0.00353589,0.319241,-0.10725563099609992,0.26615531769467116,-0.0009393615234717378,0.3244655240713332,-0.0035296461023669456,-0.15249962733083489
747,0.7376,58.2987,1030.57,-0.0116979,246.307,-0.449368,-1.70913,-0.11359,0.281339,-0.165657,0.236254,-0.000940315,-0.0035378,0.319618,-0.10737614335114842,0.2664959592893714,-0.0009398730423877399,0.3249026698193582,-0.003531549358925301,-0.15266317911950478
748,0.7386,58.3046,1030.78,-0.0116986,246.345,-0.448038,-1.70395,-0.113726,0.281668,-0.16585,0.236522,-0.000940826,-0.00353969,0.319995,-0.1074975319410415,0.2668354256929273,-0.0009403835619821166,0.3253386345099878,-0.003533432682517268,-0.15282669934572535
749,0.7396,58.3106,1030.98,-0.0116991,246.383,-0.446708,-1.69877,-0.113861,0.281997,-0.166044,0.23679,-0.000941334,-0.00354158,0.320373,-0.10761801164166662,0.26717498308567134,-0.0009408910841384177,0.325774742656598,-0.0035353160025497488,-0.1529910350249759
750,0.7406,58.3165,1031.18,-0.0116996,246.42,-0.445377,-1.69358,-0.113997,0.282327,-0.166237,0.237058,-0.000941839,-0.00354346,0.320749,-0.1077393673397089,0.26751463149199184,-0.0009413956088609732,0.32621232051805094,-0.003537189354394732,-0.15315449198111242
751,0.7416,58.3225,1031.39,-0.0117,246.458,-0.444047,-1.6884,-0.114132,0.282655,-0.16643,0.237326,-0.000942343,-0.00354533,0.321126,-0.10785981439475889,0.2678543709362837,-0.000941899134270674,0.32664738950659444,-0.0035390527381083947,-0.15331791739310052
752,0.7426,58.3284,1031.59,-0.0117003,246.496,-0.442716,-1.68322,-0.114268,0.282984,-0.166623,0.237594,-0.000942844,-0.0035472,0.321503,-0.10798113720986269,0.2681942014429486,-0.0009423996622538455,0.32708392830443667,-0.0035409161183375115,-0.1534813112670277
753,0.7436,58.3343,1031.79,-0.0117005,246.533,-0.441385,-1.67803,-0.114403,0.283313,-0.166816,0.237861,-0.000943344,-0.00354905,0.32188,-0.10810155162818336,0.26853285450290554,-0.0009428991909291584,0.32752061074717176,-0.0035427595659375255,-0.15364467360898004
754,0.7446,58.3402,1031.99,-0.0117007,246.571,-0.440053,-1.67284,-0.114539,0.283642,-0.167009,0.238129,-0.000943841,-0.0035509,0.322256,-0.10822284156925888,0.268872866867534,-0.0009433957221848255,0.3279574368820666,-0.0035446030101270454,-0.15380800442504272
755,0.7456,58.3462,1032.19,-0.0117008,246.608,-0.438722,-1.66766,-0.114674,0.28397,-0.167202,0.238396,-0.000944336,-0.00355274,0.322632,-0.10834322335969337,0.2692117011553521,-0.0009438902550815698,0.32839307836266096,-0.003546436486370763,-0.15397130372129975
756,0.7466,58.3521,1032.4,-0.0117008,246.645,-0.43739,-1.66247,-0.114809,0.284299,-0.167394,0.238664,-0.000944828,-0.00355457,0.323008,-0.1084635888996831,0.2695518954752645,-0.0009443817905666618,0.32883019158662496,-0.003548259994723524,-0.15413372563798233
757,0.7476,58.3579,1032.6,-0.0117008,246.683,-0.436058,-1.65728,-0.114944,0.284627,-0.167587,0.238931,-0.000945319,-0.0035564,0.323384,-0.10858393819142165,0.2698909110879266,-0.0009448723267547754,0.3292661193777149,-0.003550083499739176,-0.1542969620761112
758,0.7486,58.3638,1032.8,-0.0117007,246.72,-0.434726,-1.65209,-0.115079,0.284955,-0.16778,0.239198,-0.000945807,-0.00355821,0.32376,-0.10870427123710247,0.2702300172298424,-0.0009453598655381201,0.3297021901765722,-0.003551887072455795,-0.15446016701264753
759,0.7496,58.3697,1033.0,-0.0117005,246.757,-0.433394,-1.6469,-0.115215,0.285283,-0.167972,0.239465,-0.000946294,-0.00356002,0.324136,-0.10882547921388497,0.27056921392518674,-0.0009458464050293713,0.3301384040301112,-0.003553690641908025,-0.15462249507658832
760,0.7506,58.3756,1033.2,-0.0117002,246.794,-0.432062,-1.64171,-0.11535,0.285611,-0.168165,0.239732,-0.000946778,-0.00356182,0.324512,-0.10894577965372865,0.27090850119814003,-0.0009463299471227371,0.3305747609852616,-0.0035554842436505973,-0.1547856371913181
761,0.7516,58.3814,1033.4,-0.0116999,246.832,-0.430729,-1.63652,-0.115485,0.285939,-0.168357,0.239999,-0.00094726,-0.00356361,0.324887,-0.10906606385410922,0.27124787907289005,-0.0009468114908756098,0.3310112610889684,-0.003557267877737469,-0.15494790277098314
762,0.7526,58.3873,1033.6,-0.0116995,246.869,-0.429396,-1.63133,-0.11562,0.286266,-0.168549,0.240266,-0.000947739,-0.00356539,0.325262,-0.10918633181721882,0.27158734757363057,-0.0009472900372383686,0.3314465729409535,-0.0035590415442220413,-0.15511013719864775
763,0.7536,58.3931,1033.8,-0.011699,246.906,-0.428063,-1.62614,-0.115755,0.286594,-0.168741,0.240532,-0.000948217,-0.00356716,0.325638,-0.10930658354524914,0.27192563479829146,-0.000947767584319581,0.3318833590458834,-0.0035608052431576054,-0.15527234048029226
764,0.7546,58.399,1034.0,-0.0116985,246.943,-0.42673,-1.62095,-0.115889,0.286922,-0.168934,0.240799,-0.000948692,-0.00356893,0.326013,-0.1094259284667658,0.27226528428397123,-0.0009482421340172298,0.33232028844015393,-0.0035625689389714443,-0.15543535718696133
765,0.7556,58.4048,1034.2,-0.0116978,246.98,-0.425397,-1.61575,-0.116024,0.287249,-0.169126,0.241065,-0.000949166,-0.00357069,0.326388,-0.10954614785143169,0.27260375186378316,-0.0009487156844382172,0.3327560284140767,-0.003564322667306885,-0.15559749803236222
766,0.7566,58.4106,1034.39,-0.0116972,247.017,-0.424064,-1.61056,-0.116159,0.287576,-0.169318,0.241331,-0.000949637,-0.00357244,0.326762,-0.10966635100757616,0.2729423094879466,-0.0009491862374823024,0.33319191089827016,-0.003566066428216441,-0.1557596077497091
767,0.7576,58.4164,1034.59,-0.0116964,247.053,-0.422731,-1.60537,-0.116294,0.287903,-0.16951,0.241598,-0.000950106,-0.00357418,0.327137,-0.1097865379373899,0.2732822304620106,-0.0009496547922041021,0.3336279359393428,-0.003567800221752404,-0.15592168634497816
768,0.7586,58.4223,1034.79,-0.0116956,247.09,-0.421397,-1.60017,-0.116429,0.28823,-0.169702,0.241864,-0.000950573,-0.00357591,0.327512,-0.10990670864306318,0.27362096858548646,-0.000950121348606392,0.33406410358391825,-0.0035695240479669543,-0.1560837338241441
769,0.7596,58.4281,1034.99,-0.0116947,247.127,-0.420063,-1.59498,-0.116563,0.288557,-0.169893,0.24213,-0.000951038,-0.00357763,0.327886,-0.11002597315320439,0.27395979682528826,-0.0009505859066919475,0.3345004138786356,-0.0035712379069116063,-0.15624490643850897
770,0.7606,58.4338,1035.19,-0.0116937,247.164,-0.418729,-1.58978,-0.116698,0.288884,-0.170085,0.242395,-0.0009515,-0.00357935,0.32826,-0.11014611153730525,0.274297440907312,-0.0009510474674145897,0.3349368668701489,-0.003572951762908505,-0.15640689186537415
771,0.7616,58.4396,1035.38,-0.0116926,247.2,-0.417395,-1.58459,-0.116832,0.28921,-0.170277,0.242661,-0.000951961,-0.00358106,0.328634,-0.11026534396960797,0.2746364491126858,-0.0009515080288755584,0.3353721272323329,-0.0035746556517042283,-0.156568846194023
772,0.7626,58.4454,1035.58,-0.0116915,247.237,-0.416061,-1.57939,-0.116967,0.289537,-0.170468,0.242927,-0.000952419,-0.00358276,0.329008,-0.11038545004082978,0.27497554750623654,-0.000951965592980164,0.3358088653207236,-0.0035763495733497352,-0.15672992616077341
773,0.7636,58.4512,1035.78,-0.0116903,247.273,-0.414727,-1.57419,-0.117101,0.289863,-0.17066,0.243192,-0.000952875,-0.00358445,0.329382,-0.11050465040392166,0.27531346079785934,-0.0009524211587799147,0.33624441000074357,-0.003578033527895985,-0.1568918184727912
774,0.7646,58.4569,1035.97,-0.0116891,247.31,-0.413393,-1.56899,-0.117236,0.29019,-0.170851,0.243458,-0.000953329,-0.00358614,0.329756,-0.11062472417095548,0.27565273930047196,-0.0009528747262778081,0.336681433372241,-0.0035797174795964004,-0.1570528367577272
775,0.7656,58.4627,1036.17,-0.0116878,247.346,-0.412059,-1.5638,-0.11737,0.290516,-0.171043,0.243723,-0.000953781,-0.00358781,0.33013,-0.11074389247346195,0.27599083207170017,-0.0009533262954763977,0.3371172625558174,-0.0035813815000788063,-0.15721466707686194
776,0.7666,58.4684,1036.37,-0.0116864,247.383,-0.410724,-1.5586,-0.117505,0.290842,-0.171234,0.243988,-0.000954231,-0.00358948,0.330503,-0.11086393394499638,0.2763290144493853,-0.000953775866378348,0.3375532338428693,-0.003583045517782213,-0.15737562370360314
777,0.7676,58.4742,1036.56,-0.0116849,247.419,-0.40939,-1.5534,-0.117639,0.291168,-0.171425,0.244253,-0.000954679,-0.00359114,0.330876,-0.11098307019554077,0.2766672864572757,-0.0009542234389865456,0.33798934727972973,-0.003584699568553784,-0.1575365495905643
778,0.7686,58.4799,1036.76,-0.0116834,247.455,-0.408055,-1.5482,-0.117773,0.291494,-0.171617,0.244518,-0.000955124,-0.0035928,0.33125,-0.11110219048289705,0.277005648119127,-0.0009546680142581421,0.3384256029127475,-0.003586353616579663,-0.15769828704575028
779,0.7696,58.4856,1036.95,-0.0116818,247.492,-0.406721,-1.543,-0.117908,0.29182,-0.171808,0.244783,-0.000955568,-0.00359444,0.331623,-0.11122218358746505,0.2773440994587004,-0.00095511159028705,0.3388620007882861,-0.0035879877336197907,-0.15785915130989836
780,0.7706,58.4913,1037.15,-0.0116801,247.528,-0.405386,-1.53781,-0.118042,0.292145,-0.171999,0.245048,-0.000956009,-0.00359608,0.331996,-0.11134127183577347,0.27768264049976366,-0.000955552168985796,0.33929720165485233,-0.0035896218479798403,-0.15801998485190594
781,0.7716,58.4971,1037.34,-0.0116784,247.564,-0.404051,-1.53261,-0.118176,0.292471,-0.17219,0.245313,-0.000956448,-0.0035977,0.332368,-0.11146034412732586,0.278021271266091,-0.0009559907494021136,0.3397338837179007,-0.0035912360314850345,-0.15818078767764054
782,0.7726,58.5028,1037.54,-0.0116766,247.6,-0.402716,-1.52741,-0.11831,0.292796,-0.172381,0.245577,-0.000956885,-0.00359932,0.332741,-0.11157940046426007,0.27835871342210994,-0.0009564273315386673,0.34016936799247044,-0.0035928502123750983,-0.15834155979296827
783,0.7736,58.5085,1037.73,-0.0116747,247.636,-0.401381,-1.52221,-0.118444,0.293121,-0.172572,0.245842,-0.00095732,-0.00360094,0.333113,-0.11169844084871394,0.27869752337150233,-0.0009568619153983438,0.3406049938224309,-0.003594464390650365,-0.15850230120375441
784,0.7746,58.5141,1037.92,-0.0116728,247.672,-0.400046,-1.51701,-0.118578,0.293446,-0.172762,0.246106,-0.000957753,-0.00360254,0.333486,-0.11181746528282499,0.2790351440816454,-0.0009572945009834744,0.3410407612537951,-0.0035960586382318693,-0.15866217057845422
785,0.7756,58.5198,1038.12,-0.0116708,247.708,-0.398711,-1.51181,-0.118712,0.293772,-0.172953,0.24637,-0.000958184,-0.00360414,0.333858,-0.1119364737687305,0.2793728539354221,-0.0009577250882967236,0.3414780118099321,-0.0035976528832626364,-0.15882285075842806
786,0.7766,58.5255,1038.31,-0.0116687,247.744,-0.397376,-1.50661,-0.118846,0.294096,-0.173144,0.246634,-0.000958612,-0.00360572,0.33423,-0.11205546630856722,0.27971065295637,-0.0009581526782989069,0.3419127211048616,-0.003599227197727428,-0.15898350025141816
787,0.7776,58.5312,1038.51,-0.0116665,247.78,-0.396041,-1.50141,-0.11898,0.294421,-0.173334,0.246898,-0.000959039,-0.0036073,0.334602,-0.11217444290447198,0.280048541168032,-0.0009585792690766093,0.3423489136166644,-0.003600801509704765,-0.15914327820698404
788,0.7786,58.5368,1038.7,-0.0116643,247.816,-0.394706,-1.49621,-0.119114,0.294746,-0.173525,0.247162,-0.000959463,-0.00360888,0.334974,-0.11229340355858086,0.2803865185939576,-0.0009590028625492408,0.3427852479140725,-0.0036023758191946476,-0.15930386650417594
789,0.7796,58.5425,1038.89,-0.011662,247.852,-0.393371,-1.49101,-0.119247,0.295071,-0.173715,0.247426,-0.000959885,-0.00361044,0.335346,-0.11241146068493468,0.2807245852577025,-0.0009594244577609823,0.34322172404317364,-0.003603930198275984,-0.15946358359593593
790,0.7806,58.5481,1039.08,-0.0116597,247.888,-0.392036,-1.48581,-0.119381,0.295395,-0.173906,0.24769,-0.000960306,-0.003612,0.335717,-0.11253038958078898,0.2810627411828286,-0.0009598450537547931,0.3436569983924005,-0.0036054845749324826,-0.15962411072064064
791,0.7816,58.5538,1039.28,-0.0116573,247.923,-0.3907,-1.48061,-0.119515,0.295719,-0.174096,0.247953,-0.000960724,-0.00361354,0.336089,-0.11264930254123884,0.2813997049925583,-0.0009602626524523039,0.3440924137933654,-0.0036070190213046693,-0.15978376697177954
792,0.7826,58.5594,1039.47,-0.0116548,247.959,-0.389365,-1.47541,-0.119648,0.296044,-0.174286,0.248217,-0.00096114,-0.00361508,0.33646,-0.11276731233617554,0.28173803917282303,-0.0009606782528965851,0.3445293148204196,-0.0036085534653138573,-0.15994339289111237
793,0.7836,58.565,1039.66,-0.0116522,247.995,-0.38803,-1.4702,-0.119782,0.296368,-0.174476,0.24848,-0.000961554,-0.00361662,0.336831,-0.11288619355110319,0.28207518060928116,-0.0009610918550901904,0.34496501289769843,-0.0036100879069599356,-0.16010298848440163
794,0.7846,58.5706,1039.85,-0.0116496,248.03,-0.386695,-1.465,-0.119916,0.296692,-0.174666,0.248744,-0.000961965,-0.00361814,0.337202,-0.11300505883701528,0.28241369313864984,-0.0009615024599970434,0.3454008521640257,-0.003611602418475357,-0.1602625537574086
795,0.7856,58.5762,1040.04,-0.0116469,248.066,-0.38536,-1.4598,-0.120049,0.297016,-0.174856,0.249007,-0.000962375,-0.00361966,0.337573,-0.11312302131951102,0.28275101229547017,-0.0009619120656970681,0.34583683266515397,-0.00361311692768862,-0.1604220887158937
796,0.7866,58.5819,1040.23,-0.0116442,248.101,-0.384024,-1.4546,-0.120183,0.297339,-0.175046,0.24927,-0.000962783,-0.00362116,0.337944,-0.11324185487262839,0.2830884201788957,-0.0009623196731537442,0.3462716081745698,-0.0036146115068923512,-0.16058159336561617
797,0.7876,58.5875,1040.42,-0.0116414,248.137,-0.382689,-1.4494,-0.120316,0.297663,-0.175236,0.249533,-0.000963188,-0.00362267,0.338315,-0.11335978586334561,0.2834259168122646,-0.000962724283332439,0.3467078708463547,-0.0036161160476929632,-0.16074106771233398
798,0.7886,58.593,1040.62,-0.0116385,248.172,-0.381354,-1.4442,-0.120449,0.297987,-0.175426,0.249796,-0.000963592,-0.00362416,0.338685,-0.113477701170284,0.2837635022189213,-0.0009631278943103005,0.3471442748901463,-0.0036176006585740828,-0.1609005117618042
799,0.7896,58.5986,1040.81,-0.0116356,248.207,-0.380019,-1.439,-0.120583,0.29831,-0.175616,0.250059,-0.000963993,-0.00362564,0.339056,-0.11359648719948545,0.28410117642221633,-0.0009635285080156208,0.34757947277160994,-0.0036190753034338607,-0.16105992551978288
800,0.7906,58.6042,1041.0,-0.0116325,248.243,-0.378684,-1.4338,-0.120716,0.298634,-0.175805,0.250321,-0.000964393,-0.00362712,0.339426,-0.11371437102723969,0.28443765500720875,-0.0009639281225243268,0.34801615926017915,-0.0036205499461111623,-0.1612184702109144
801,0.7916,58.6098,1041.19,-0.0116295,248.278,-0.377349,-1.4286,-0.120849,0.298957,-0.175995,0.250584,-0.00096479,-0.00362859,0.339796,-0.1138322391774873,0.28477550653600425,-0.0009643247397661536,0.34845163880578056,-0.0036220146228261862,-0.1613778235625266
802,0.7926,58.6153,1041.38,-0.0116263,248.313,-0.376013,-1.4234,-0.120982,0.29928,-0.176185,0.250846,-0.000965185,-0.00363005,0.340166,-0.1139500916523134,0.28511216181863297,-0.000964719358779953,0.3488872590339944,-0.0036234693336228974,-0.16153714663987806
803,0.7936,58.6209,1041.56,-0.0116231,248.348,-0.374678,-1.4182,-0.121116,0.299603,-0.176374,0.251109,-0.000965578,-0.0036315,0.340536,-0.11406881438543115,0.2854501907660494,-0.0009651119795680563,0.3493230199902684,-0.0036249140785449274,-0.16169560114474069
804,0.7946,58.6264,1041.75,-0.0116199,248.383,-0.373343,-1.413,-0.121249,0.299926,-0.176563,0.251371,-0.000965969,-0.00363295,0.340906,-0.1141866353978469,0.28578702283910484,-0.0009655026021329061,0.34975892172006473,-0.0036263588213720777,-0.1618540257045319
805,0.7956,58.632,1041.94,-0.0116165,248.419,-0.372008,-1.4078,-0.121382,0.300249,-0.176753,0.251633,-0.000966358,-0.00363438,0.341275,-0.11430444074111001,0.28612394317372525,-0.0009658912264768338,0.3501949642688609,-0.003627783634660209,-0.16201325831207125
806,0.7966,58.6375,1042.13,-0.0116131,248.454,-0.370673,-1.4026,-0.121515,0.300571,-0.176942,0.251895,-0.000966745,-0.00363581,0.341645,-0.11442223041730437,0.2864609517930381,-0.0009662778526020599,0.3506297970516765,-0.0036292084459108587,-0.16217162284033093
807,0.7976,58.643,1042.32,-0.0116097,248.489,-0.369339,-1.3974,-0.121648,0.300894,-0.177131,0.252157,-0.000967129,-0.00363724,0.342014,-0.11454000442851353,0.2867980487201771,-0.0009666614814777263,0.35106612093863854,-0.0036306332551240272,-0.16232995744052314
808,0.7986,58.6486,1042.51,-0.0116061,248.523,-0.368004,-1.3922,-0.121781,0.301216,-0.17732,0.252419,-0.000967512,-0.00363865,0.342383,-0.11465776277682083,0.2871352339782818,-0.0009670441111730987,0.3515012342790689,-0.0036320381349407294,-0.16248826211830358
809,0.7996,58.6541,1042.7,-0.0116025,248.558,-0.366669,-1.387,-0.121914,0.301539,-0.177509,0.252681,-0.000967893,-0.00364005,0.342752,-0.11477550546430915,0.2874725075904978,-0.0009674247426567639,0.35193783968571846,-0.0036334330491109013,-0.16264653687932717
810,0.8006,58.6596,1042.88,-0.0115989,248.593,-0.365334,-1.3818,-0.122047,0.301861,-0.177698,0.252942,-0.000968271,-0.00364145,0.343121,-0.11489323249306149,0.28780858177075186,-0.0009678023768988631,0.352373233764782,-0.003634827961328191,-0.1628047817292475
811,0.8016,58.6651,1043.07,-0.0115951,248.628,-0.364,-1.37661,-0.122179,0.302183,-0.177887,0.253204,-0.000968648,-0.00364284,0.34349,-0.11501005887566151,0.2881460318232023,-0.0009681790119663303,0.3528087680633132,-0.0036362129079547945,-0.1629629966737175
812,0.8026,58.6706,1043.26,-0.0115914,248.663,-0.362665,-1.37141,-0.122312,0.302505,-0.178076,0.253465,-0.000969022,-0.00364423,0.343859,-0.11512775471088454,0.2884822818162234,-0.0009685526497975605,0.3532444426264698,-0.0036375978526563824,-0.16312118171838863
813,0.8036,58.6761,1043.45,-0.0115875,248.698,-0.361331,-1.36621,-0.122445,0.302827,-0.178265,0.253726,-0.000969395,-0.0036456,0.344228,-0.11524543489360228,0.28881861958194643,-0.0009689252884579336,0.35368025749942444,-0.003638962868212192,-0.16327933686891127
814,0.8046,58.6816,1043.63,-0.0115836,248.732,-0.359996,-1.36101,-0.122578,0.303149,-0.178454,0.253988,-0.000969765,-0.00364697,0.344596,-0.11536309942589662,0.28915633429897314,-0.0009692949298871767,0.35411621272736427,-0.0036403278818980533,-0.16343746213093513
815,0.8056,58.687,1043.82,-0.0115796,248.767,-0.358662,-1.35582,-0.12271,0.30347,-0.178642,0.254249,-0.000970133,-0.00364833,0.344964,-0.11547986379015485,0.2894928480153549,-0.0009696625731190345,0.3545509538038596,-0.003641682930130674,-0.16359472110524775
816,0.8066,58.6925,1044.01,-0.0115756,248.802,-0.357328,-1.35062,-0.122843,0.303792,-0.178831,0.25451,-0.0009705,-0.00364968,0.345332,-0.11559749714547918,0.2898294495732794,-0.0009700292171855862,0.3549871894411527,-0.0036430280129507997,-0.1637527867652835
817,0.8076,58.698,1044.19,-0.0115715,248.836,-0.355994,-1.34542,-0.122975,0.304113,-0.179019,0.254771,-0.000970864,-0.00365102,0.345701,-0.11571423057128039,0.2901661389956762,-0.0009703928640287796,0.35542221014605113,-0.003644363130398731,-0.1639099864641369
818,0.8086,58.7034,1044.38,-0.0115673,248.871,-0.35466,-1.34023,-0.123108,0.304435,-0.179208,0.255032,-0.000971226,-0.00365236,0.346068,-0.11583183275789566,0.2905029163054813,-0.0009707545126810269,0.35585872637305904,-0.0036456982460576492,-0.1640679925446502
819,0.8096,58.7089,1044.56,-0.0115631,248.905,-0.353326,-1.33503,-0.12324,0.304756,-0.179396,0.255292,-0.000971586,-0.00365368,0.346436,-0.11594853525343751,0.2908384906864998,-0.0009711141631446596,0.35629402688621936,-0.003647013432867885,-0.1642251329903871
820,0.8106,58.7143,1044.75,-0.0115588,248.94,-0.351992,-1.32984,-0.123373,0.305077,-0.179585,0.255553,-0.000971944,-0.00365501,0.346804,-0.11606610627960223,0.29117544350299873,-0.0009714718154217872,0.35672946715327347,-0.0036483385814588543,-0.16438307951383524
821,0.8116,58.7198,1044.93,-0.0115545,248.974,-0.350659,-1.32464,-0.123505,0.305398,-0.179773,0.255813,-0.0009723,-0.00365632,0.347171,-0.11618277785308007,0.2915111927638221,-0.000971827469514519,0.35716504721909015,-0.003649643801280411,-0.16454016072878974
822,0.8126,58.7252,1045.12,-0.0115501,249.008,-0.349325,-1.31945,-0.123637,0.305719,-0.179961,0.256074,-0.000972654,-0.00365762,0.347539,-0.11629943402692655,0.2918483211784777,-0.0009721811254249646,0.3576007671285515,-0.0036509390559015253,-0.1646972124152517
823,0.8136,58.7306,1045.3,-0.0115456,249.043,-0.347992,-1.31425,-0.12377,0.306039,-0.180149,0.256334,-0.000973006,-0.00365892,0.347906,-0.11641695838665789,0.2921842454102419,-0.0009725327831553443,0.3580352688906068,-0.0036522343088388753,-0.1648542345787718
824,0.8146,58.736,1045.49,-0.011541,249.077,-0.346658,-1.30906,-0.123902,0.30636,-0.180337,0.256594,-0.000973356,-0.00366021,0.348273,-0.11653358365071398,0.2925202569936616,-0.0009728824427076566,0.3584712681860638,-0.003653519596627519,-0.1650112272248998
825,0.8156,58.7415,1045.67,-0.0115364,249.111,-0.345325,-1.30387,-0.124034,0.306681,-0.180525,0.256854,-0.000973704,-0.00366149,0.34864,-0.11665019352125139,0.292856355951451,-0.0009732301040841218,0.35890740745976,-0.0036547949193063145,-0.16516819035918462
826,0.8166,58.7469,1045.86,-0.0115318,249.145,-0.343992,-1.29867,-0.124166,0.307001,-0.180713,0.257114,-0.00097405,-0.00366276,0.349007,-0.1167667880003016,0.29319254230633063,-0.0009735757672867384,0.3593423274136285,-0.003656060276913231,-0.1653251239871738
827,0.8176,58.7523,1046.04,-0.0115271,249.18,-0.342659,-1.29348,-0.124298,0.307321,-0.180901,0.257374,-0.000974393,-0.00366403,0.349374,-0.11688336708989644,0.29352881608102677,-0.0009739184332914208,0.35977738656415226,-0.003657325632913211,-0.16548202811441415
828,0.8186,58.7577,1046.22,-0.0115223,249.214,-0.341327,-1.28829,-0.124431,0.307642,-0.181089,0.257634,-0.000974735,-0.00366529,0.34974,-0.11700081379169469,0.2938651772982712,-0.0009742601001528906,0.36021394516914684,-0.003658581023891938,-0.1656389027464512
829,0.8196,58.7631,1046.41,-0.0115174,249.248,-0.339994,-1.2831,-0.124563,0.307962,-0.181276,0.257894,-0.000975075,-0.00366654,0.350107,-0.11711736199192369,0.29420162598080224,-0.0009745997688467289,0.3606492832819843,-0.0036598264498872712,-0.16579491368416033
830,0.8206,58.7684,1046.59,-0.0115125,249.282,-0.338662,-1.27791,-0.124695,0.308282,-0.181464,0.258153,-0.000975413,-0.00366778,0.350473,-0.11723389480880564,0.2945368676138487,-0.0009749374393749344,0.3610847607253094,-0.003661061910936514,-0.1659517294992392
831,0.8216,58.7738,1046.77,-0.0115076,249.316,-0.337329,-1.27272,-0.124826,0.308602,-0.181652,0.258413,-0.000975749,-0.00366902,0.350839,-0.11734952959434186,0.29487349095856663,-0.0009752731117396163,0.361520377543715,-0.00366229737045376,-0.16610851583571595
832,0.8226,58.7792,1046.96,-0.0115026,249.35,-0.335997,-1.26753,-0.124958,0.308921,-0.181839,0.258672,-0.000976082,-0.00367025,0.351206,-0.11746603176712289,0.295208906627179,-0.0009756057869182433,0.3619547718263558,-0.00366352286507432,-0.1662644389639878
833,0.8236,58.7845,1047.14,-0.0114975,249.384,-0.334665,-1.26234,-0.12509,0.309241,-0.182026,0.258931,-0.000976414,-0.00367147,0.351572,-0.11758251856263202,0.2955444091797006,-0.0009759374629620954,0.3623906670928634,-0.0036647383948349432,-0.1664203329373607
834,0.8246,58.7899,1047.32,-0.0114923,249.418,-0.333333,-1.25715,-0.125222,0.309561,-0.182214,0.25919,-0.000976744,-0.00367268,0.351937,-0.11769898998289885,0.2958799986386371,-0.0009762671408483081,0.36282670186817634,-0.0036659439597721555,-0.1665770311846717
835,0.8256,58.7953,1047.5,-0.0114871,249.451,-0.332002,-1.25197,-0.125354,0.30988,-0.182401,0.25945,-0.000977071,-0.00367388,0.352303,-0.11781544602995286,0.2962169712428233,-0.0009765938215555714,0.36326151293475006,-0.003667139559922039,-0.16673286670876453
836,0.8266,58.8006,1047.68,-0.0114819,249.485,-0.33067,-1.24678,-0.125486,0.310199,-0.182588,0.259708,-0.000977397,-0.00367508,0.352669,-0.11793188670582322,0.29655143836580766,-0.0009769195031328337,0.36369646272818,-0.0036683351586371815,-0.16688867309433886
837,0.8276,58.8059,1047.87,-0.0114766,249.519,-0.329339,-1.2416,-0.125617,0.310519,-0.182776,0.259967,-0.000977721,-0.00367627,0.353034,-0.11804743006040985,0.29688728867908254,-0.000977243186558563,0.36413291542495996,-0.003669520792612846,-0.16704528330197643
838,0.8286,58.8113,1048.05,-0.0114712,249.553,-0.328008,-1.23641,-0.125749,0.310838,-0.182963,0.260226,-0.000978042,-0.00367745,0.3534,-0.11816384011640912,0.2972232259888541,-0.000977563872812004,0.36456814324012643,-0.0036706964618846705,-0.16720103127110997
839,0.8296,58.8166,1048.23,-0.0114657,249.586,-0.326677,-1.23123,-0.125881,0.311157,-0.18315,0.260485,-0.000978362,-0.00367863,0.353765,-0.11828023480729521,0.2975592503176574,-0.00097788355994044,0.36500350991511277,-0.0036718721297692714,-0.16735675011809625
840,0.8306,58.8219,1048.41,-0.0114602,249.62,-0.325346,-1.22604,-0.126012,0.311476,-0.183337,0.260743,-0.00097868,-0.00367979,0.35413,-0.11839573253126934,0.2978940637933205,-0.0009782012489228942,0.3654390154942222,-0.00367302786972723,-0.1675124398483807
841,0.8316,58.8272,1048.59,-0.0114547,249.654,-0.324016,-1.22086,-0.126144,0.311794,-0.183524,0.261002,-0.000978995,-0.00368095,0.354495,-0.11851209661437678,0.2982302618916173,-0.0009785159407399435,0.3658732941477958,-0.0036741836083445945,-0.16766810046740754
842,0.8326,58.8326,1048.77,-0.0114491,249.687,-0.322685,-1.21568,-0.126275,0.312113,-0.18371,0.26126,-0.000979309,-0.0036821,0.35486,-0.11862756396644358,0.29856524851060096,-0.0009788296334366509,0.3663090772323354,-0.0036753293823745814,-0.16782289980393605
843,0.8336,58.8379,1048.95,-0.0114434,249.721,-0.321355,-1.2105,-0.126407,0.312432,-0.183897,0.261518,-0.00097962,-0.00368325,0.355224,-0.11874389744982117,0.2989003215672823,-0.0009791403289723943,0.3667449993538543,-0.0036764751550870667,-0.1679785023723791
844,0.8346,58.8432,1049.13,-0.0114376,249.754,-0.320025,-1.20531,-0.126538,0.31275,-0.184084,0.261777,-0.00097993,-0.00368439,0.355589,-0.11885933443796748,0.29923678032009593,-0.0009794500253909044,0.36717969337633516,-0.0036776109632579157,-0.16813407584586237
845,0.8356,58.8484,1049.31,-0.0114319,249.787,-0.318696,-1.20013,-0.126669,0.313068,-0.184271,0.262035,-0.000980238,-0.00368551,0.355953,-0.11897475630485876,0.299572026654336,-0.0009797577236728694,0.3676145256534966,-0.003678726843708735,-0.16828962022982608
846,0.8366,58.8537,1049.49,-0.011426,249.821,-0.317366,-1.19496,-0.126801,0.313387,-0.184457,0.262293,-0.000980543,-0.00368664,0.356318,-0.11909104396187231,0.29990735949328906,-0.0009800624248003098,0.36805086427949063,-0.0036798526861113734,-0.1684443039744291
847,0.8376,58.859,1049.67,-0.0114201,249.854,-0.316037,-1.18978,-0.126932,0.313705,-0.184644,0.26255,-0.000980847,-0.00368775,0.356682,-0.11920643547680398,0.30024147861714723,-0.0009803661268151798,0.36848597363305213,-0.0036809586008610395,-0.16859979035115658
848,0.8386,58.8643,1049.85,-0.0114141,249.888,-0.314708,-1.1846,-0.127063,0.314023,-0.18483,0.262808,-0.000981149,-0.00368886,0.357046,-0.11932181187643742,0.3005769841969892,-0.0009806678306990557,0.36892122137339034,-0.003682064514383243,-0.16875441640948197
849,0.8396,58.8696,1050.03,-0.0114081,249.921,-0.313379,-1.17942,-0.127194,0.314341,-0.185016,0.263066,-0.000981449,-0.00368995,0.35741,-0.11943717316275237,0.30091257634843793,-0.000980967536453714,0.36935660754451916,-0.0036831505003410703,-0.1689090137100352
850,0.8406,58.8748,1050.21,-0.011402,249.954,-0.31205,-1.17425,-0.127325,0.314658,-0.185203,0.263323,-0.000981746,-0.00369105,0.357774,-0.11955251933772859,0.30124695384622746,-0.0009812642450622855,0.36979076239901976,-0.003684246448272699,-0.16906441319416676
851,0.8416,58.8801,1050.39,-0.0113959,249.987,-0.310722,-1.16907,-0.127456,0.314976,-0.185389,0.263581,-0.000982042,-0.00369213,0.358137,-0.11966785040334571,0.3015827188721458,-0.0009815599545642817,0.37022642512816506,-0.003685322468705454,-0.16921895284068
852,0.8426,58.8853,1050.56,-0.0113897,250.02,-0.309394,-1.1639,-0.127587,0.315294,-0.185575,0.263838,-0.000982336,-0.00369321,0.358501,-0.1197831663615826,0.30191726861869705,-0.0009818536659425003,0.37066222642008895,-0.003686398487976139,-0.169373463745492
853,0.8436,58.8906,1050.74,-0.0113834,250.054,-0.308066,-1.15873,-0.127718,0.315611,-0.185761,0.264095,-0.000982628,-0.00369427,0.358864,-0.11989846721441855,0.30225190435558225,-0.0009821453791986068,0.37109679522137995,-0.003687454579834104,-0.16952794591394837
854,0.8446,58.8958,1050.92,-0.0113771,250.087,-0.306738,-1.15355,-0.127849,0.315928,-0.185947,0.264353,-0.000982917,-0.00369534,0.359227,-0.12001375296383199,0.30258792869218154,-0.000982434095316953,0.371531501802818,-0.0036885206336872978,-0.1696823993513934
855,0.8456,58.9011,1051.1,-0.0113708,250.12,-0.305411,-1.14838,-0.12798,0.316246,-0.186133,0.26461,-0.000983205,-0.00369639,0.359591,-0.12012902361180144,0.3029227368108558,-0.0009827218123344972,0.3719677181751184,-0.0036895667601914983,-0.16983682406317058
856,0.8466,58.9063,1051.28,-0.0113644,250.153,-0.304084,-1.14321,-0.128111,0.316563,-0.186319,0.264867,-0.000983491,-0.00369744,0.359954,-0.120244279160305,0.30325763098627445,-0.0009830075312351472,0.3724027008828965,-0.003690612885597133,-0.16999122005462253
857,0.8476,58.9115,1051.45,-0.0113579,250.186,-0.302757,-1.13804,-0.128242,0.31688,-0.186505,0.265123,-0.000983775,-0.00369847,0.360317,-0.12035951961132063,0.30359130764859743,-0.0009832912520207904,0.3728378215020509,-0.0036916390837373747,-0.17014558733109064
858,0.8486,58.9167,1051.63,-0.0113513,250.219,-0.30143,-1.13287,-0.128373,0.317197,-0.186691,0.26538,-0.000984057,-0.00369951,0.360679,-0.12047474496682598,0.3039263736688025,-0.00098357297469287,0.3732730800763062,-0.003692675243893939,-0.17029992589791543
859,0.8496,58.9219,1051.81,-0.0113448,250.251,-0.300104,-1.12771,-0.128504,0.317514,-0.186876,0.265637,-0.000984337,-0.00370053,0.361042,-0.12058995522879845,0.30426152581204113,-0.0009838526992532737,0.3737084766494012,-0.0036936914768468387,-0.1704534062142573
860,0.8506,58.9271,1051.98,-0.0113381,250.284,-0.298778,-1.12254,-0.128634,0.31783,-0.187062,0.265893,-0.000984615,-0.00370155,0.361405,-0.12070427110392579,0.30459545950433786,-0.0009841304257036665,0.3741426371217642,-0.003694707708763345,-0.1706076875320941
861,0.8516,58.9323,1052.16,-0.0113314,250.317,-0.297452,-1.11738,-0.128765,0.318147,-0.187248,0.26615,-0.000984891,-0.00370256,0.361767,-0.12081945129994365,0.30493078362473436,-0.0009844061540456028,0.37457830938813763,-0.003695713976600401,-0.17076194015627433
862,0.8526,58.9375,1052.34,-0.0113247,250.35,-0.296126,-1.11221,-0.128896,0.318463,-0.187433,0.266406,-0.000985165,-0.00370356,0.362129,-0.12093461640834413,0.3052648886689633,-0.000984679884280859,0.3750127447710796,-0.0036967102803882046,-0.17091533500788414
863,0.8536,58.9427,1052.51,-0.0113178,250.383,-0.294801,-1.10705,-0.129026,0.31878,-0.187619,0.266663,-0.000985437,-0.00370455,0.362491,-0.12104888748043041,0.3056003848547644,-0.0009849516164108785,0.3754486929053007,-0.003697696620156843,-0.17106953041495532
864,0.8546,58.9479,1052.69,-0.011311,250.415,-0.293476,-1.10189,-0.129157,0.319096,-0.187804,0.266919,-0.000985708,-0.00370554,0.362853,-0.12116402253465974,0.3059346613388516,-0.0009852223494523082,0.3758834033728953,-0.003698682958948929,-0.17122286836763057
865,0.8556,58.9531,1052.86,-0.0113041,250.448,-0.292151,-1.09672,-0.129287,0.319412,-0.187989,0.267175,-0.000985976,-0.00370652,0.363215,-0.12127826378588802,0.3062690234086731,-0.00098549008537685,0.37631825123070417,-0.0036996593337611516,-0.17137617795540838
866,0.8566,58.9583,1053.04,-0.0112971,250.481,-0.290827,-1.09156,-0.129418,0.319728,-0.188175,0.267431,-0.000986242,-0.00370749,0.363577,-0.12139336879378948,0.30660347108614205,-0.000985755823201151,0.37675323652214954,-0.003700625744622932,-0.17153028765366252
867,0.8576,58.9634,1053.21,-0.0112901,250.513,-0.289503,-1.08641,-0.129548,0.320044,-0.18836,0.267687,-0.000986507,-0.00370845,0.363939,-0.12150758023194186,0.3069380043931764,-0.000986020561940859,0.3771883592906671,-0.0037015821915631353,-0.1716835403741328
868,0.8586,58.9686,1053.39,-0.011283,250.546,-0.288179,-1.08125,-0.129679,0.32036,-0.188545,0.267942,-0.000986769,-0.00370941,0.3643,-0.1216226552013564,0.30727131607973046,-0.0009862823035691193,0.3776236195797067,-0.0037025386375850733,-0.17183676474547227
869,0.8596,58.9738,1053.56,-0.0112758,250.578,-0.286855,-1.07609,-0.129809,0.320676,-0.18873,0.268198,-0.00098703,-0.00371036,0.364662,-0.12173683683421332,0.30760602037696905,-0.0009865430461154512,0.3780590174327316,-0.0037034851197238483,-0.17198996077292483
870,0.8606,58.9789,1053.74,-0.0112686,250.611,-0.285532,-1.07094,-0.129939,0.320991,-0.188915,0.268454,-0.000987288,-0.0037113,0.365023,-0.1218510036244227,0.3079408103694763,-0.00098680079155411,0.37849317439935515,-0.00370442163800766,-0.17214312846173385
871,0.8616,58.9841,1053.91,-0.0112614,250.643,-0.284209,-1.06578,-0.130069,0.321307,-0.1891,0.268709,-0.000987545,-0.00371224,0.365384,-0.12196515557391407,0.3082743778041608,-0.0009870575379132829,0.37892884707512287,-0.003705358155411176,-0.17229626781714125
872,0.8626,58.9892,1054.09,-0.0112541,250.676,-0.282886,-1.06063,-0.1302,0.321622,-0.189285,0.268964,-0.000987799,-0.00371317,0.365745,-0.12208017060488496,0.3086080303093872,-0.0009873112871684464,0.3793632780812426,-0.003706284708997254,-0.17244937884438838
873,0.8636,58.9943,1054.26,-0.0112467,250.708,-0.281564,-1.05548,-0.13033,0.321938,-0.18947,0.26922,-0.000988052,-0.00371409,0.366106,-0.12219429276460514,0.3089430768492738,-0.0009875640373466776,0.3797992257532208,-0.00370720129879365,-0.1726024615487154
874,0.8646,58.9995,1054.43,-0.0112393,250.74,-0.280242,-1.05032,-0.13046,0.322253,-0.189654,0.269475,-0.000988303,-0.003715,0.366467,-0.12230840008940891,0.3092768998944997,-0.0009878147894366585,0.3802339309718106,-0.003708107924828008,-0.17275468869046395
875,0.8656,59.0046,1054.61,-0.0112319,250.773,-0.27892,-1.04518,-0.13059,0.322568,-0.189839,0.26973,-0.000988552,-0.00371591,0.366827,-0.12242249258122473,0.3096108080754565,-0.0009880635434398322,0.3806687731441132,-0.0037090145500372484,-0.17290771491769374
876,0.8666,59.0097,1054.78,-0.0112244,250.805,-0.277599,-1.04003,-0.13072,0.322883,-0.190024,0.269985,-0.000988799,-0.0037168,0.367188,-0.1225365702419805,0.3099448014138566,-0.000988310299357642,0.3811037523132761,-0.003709901248619696,-0.17306071283768998
877,0.8676,59.0148,1054.95,-0.0112168,250.837,-0.276278,-1.03488,-0.13085,0.323198,-0.190208,0.27024,-0.000989044,-0.00371769,0.367548,-0.12265063307360435,0.3102788799314178,-0.0009885550571916424,0.3815388685224599,-0.0037107879464129967,-0.17321285566895817
878,0.8686,59.0199,1055.13,-0.0112092,250.869,-0.274957,-1.02973,-0.13098,0.323513,-0.190393,0.270495,-0.000989287,-0.00371858,0.367909,-0.12276468107802385,0.31061304364986375,-0.0009887978169432765,0.3819741218148389,-0.003711674643417151,-0.17336579714313682
879,0.8696,59.025,1055.3,-0.0112015,250.901,-0.273637,-1.02459,-0.13111,0.323827,-0.190577,0.270749,-0.000989528,-0.00371946,0.368269,-0.12287871425716645,0.3109459816442861,-0.0009890385786139877,0.38240812982478034,-0.0037125513767577445,-0.17351788384405686
880,0.8706,59.0301,1055.47,-0.0111938,250.934,-0.272317,-1.01945,-0.13124,0.324142,-0.190761,0.271004,-0.000989767,-0.00372032,0.368629,-0.1229927326129594,0.31128031549535984,-0.0009892773422052192,0.3828436569776006,-0.0037134081835951127,-0.17366994256359836
881,0.8716,59.0352,1055.65,-0.011186,250.966,-0.270997,-1.0143,-0.13137,0.324456,-0.190946,0.271258,-0.000990005,-0.00372119,0.368989,-0.12310673614732937,0.3116134229983576,-0.0009895151067289554,0.383277938064454,-0.003714274952552943,-0.17382279948452295
882,0.8726,59.0403,1055.82,-0.0111782,250.998,-0.269677,-1.00916,-0.131499,0.324771,-0.19113,0.271513,-0.00099024,-0.00372204,0.369349,-0.12321984808248976,0.31194792706867847,-0.0009897498741653354,0.3837137392500274,-0.003715121795059284,-0.17397480210474792
883,0.8736,59.0454,1055.99,-0.0111703,251.03,-0.268358,-1.00402,-0.131629,0.325085,-0.191314,0.271767,-0.000990473,-0.00372289,0.369708,-0.12333382209376775,0.31228120416655347,-0.0009899826435264547,0.3841482935856122,-0.0037159686368458678,-0.17412677675906374
884,0.8746,59.0505,1056.16,-0.0111624,251.062,-0.26704,-0.998884,-0.131759,0.325399,-0.191498,0.272021,-0.000990705,-0.00372373,0.370068,-0.12344778128938738,0.3126145659275632,-0.0009902144138236313,0.3845829843926831,-0.00371680551508069,-0.17427872345261552
885,0.8756,59.0556,1056.33,-0.0111544,251.094,-0.265721,-0.993747,-0.131888,0.325713,-0.191682,0.272275,-0.000990935,-0.00372456,0.370427,-0.12356084923256194,0.3129480123732147,-0.0009904441860478785,0.3850178117140992,-0.003717632429788953,-0.1744306421905477
886,0.8766,59.0606,1056.5,-0.0111463,251.125,-0.264403,-0.988612,-0.132018,0.326027,-0.191866,0.272529,-0.000991162,-0.00372539,0.370786,-0.12367477891657175,0.3132815435250207,-0.00099067096119132,0.3854527755927326,-0.003718459343810876,-0.17458253297800375
887,0.8776,59.0657,1056.67,-0.0111382,251.157,-0.263086,-0.983478,-0.132148,0.326341,-0.19205,0.272783,-0.000991388,-0.00372621,0.371146,-0.12378869379068536,0.31361515940449913,-0.0009908967372741495,0.385887876071469,-0.0037192762943393243,-0.17473439582012584
888,0.8786,59.0707,1056.85,-0.0111301,251.189,-0.261768,-0.978345,-0.132277,0.326654,-0.192234,0.273037,-0.000991612,-0.00372702,0.371505,-0.12390171775898362,0.31394886003317346,-0.0009911205152881575,0.3863217268707875,-0.003720083281398723,-0.17488623072205556
889,0.8796,59.0758,1057.02,-0.0111219,251.221,-0.260452,-0.973213,-0.132407,0.326968,-0.192418,0.273291,-0.000991834,-0.00372782,0.371864,-0.12401560313296534,0.3142826454325731,-0.0009913422952347872,0.3867571002430672,-0.0037208803050132744,-0.17503803768893345
890,0.8806,59.0808,1057.19,-0.0111137,251.253,-0.259135,-0.968083,-0.132536,0.327281,-0.192601,0.273544,-0.000992055,-0.00372862,0.372222,-0.12412859783184638,0.31461520100837403,-0.0009915630761238026,0.38719122315213417,-0.003721677327990225,-0.17518899191530335
891,0.8816,59.0859,1057.36,-0.0111054,251.284,-0.257819,-0.962954,-0.132665,0.327595,-0.192785,0.273798,-0.000992273,-0.00372941,0.372581,-0.1242415779553514,0.314949155679878,-0.0009917808599393396,0.3876268695891152,-0.003722464387554192,-0.17534074317924653
892,0.8826,59.0909,1057.53,-0.011097,251.316,-0.256503,-0.957827,-0.132795,0.327908,-0.192968,0.274051,-0.000992489,-0.00373019,0.372939,-0.12435541915037918,0.3152818799041046,-0.0009919966456912732,0.38806126477859726,-0.003723241483728934,-0.1754916420155801
893,0.8836,59.096,1057.7,-0.0110886,251.348,-0.255188,-0.952701,-0.132924,0.328221,-0.193152,0.274305,-0.000992704,-0.00373096,0.373298,-0.12446837001582134,0.3156160039335556,-0.000992211432388923,0.38849579595505457,-0.003724008616537655,-0.17564333759702777
894,0.8846,59.101,1057.87,-0.0110802,251.379,-0.253873,-0.947577,-0.133053,0.328534,-0.193335,0.274558,-0.000992916,-0.00373173,0.373656,-0.12458130631154163,0.31594889689173433,-0.0009924232220176465,0.3889304631610577,-0.0037247757487556266,-0.1757941810636493
895,0.8856,59.106,1058.04,-0.0110717,251.411,-0.252558,-0.942454,-0.133183,0.328847,-0.193519,0.274811,-0.000993127,-0.00373249,0.374014,-0.12469510334475375,0.3162818740824864,-0.0009926340125941957,0.3893652664391902,-0.00372553291763833,-0.17594582098303324
896,0.8866,59.111,1058.21,-0.0110632,251.443,-0.251244,-0.937332,-0.133312,0.32916,-0.193702,0.275064,-0.000993336,-0.00373325,0.374372,-0.12480801039376099,0.3166149355271255,-0.0009928428051118043,0.3898002058320498,-0.003726290085945605,-0.17609660910025982
897,0.8876,59.116,1058.38,-0.0110546,251.474,-0.24993,-0.932212,-0.133441,0.329473,-0.193885,0.275317,-0.000993543,-0.00373399,0.37473,-0.12492090287869839,0.31694808124697027,-0.0009930495995719157,0.39023528138224695,-0.0037270273282181687,-0.17624736962578558
898,0.8886,59.1211,1058.54,-0.0110459,251.506,-0.248616,-0.927094,-0.13357,0.329785,-0.194069,0.27557,-0.000993748,-0.00373473,0.375088,-0.12503378080144445,0.31728131126334547,-0.0009932543959757512,0.39066910246260744,-0.003727764569945169,-0.17639892616614516
899,0.8896,59.1261,1058.71,-0.0110372,251.537,-0.247303,-0.921977,-0.133699,0.330098,-0.194252,0.275822,-0.000993951,-0.00373546,0.375446,-0.12514664416387766,0.31761330798361365,-0.0009934571943245318,0.3911044500200169,-0.003728491848411619,-0.17654963137270974
900,0.8906,59.1311,1058.88,-0.0110285,251.568,-0.245991,-0.916861,-0.133828,0.33041,-0.194435,0.276075,-0.000994152,-0.00373619,0.375803,-0.1252594929678762,0.3179467063236452,-0.000993657994619479,0.3915385423233011,-0.0037292191263470498,-0.17670030900274492
901,0.8916,59.136,1059.05,-0.0110197,251.6,-0.244678,-0.911747,-0.133957,0.330723,-0.194618,0.276328,-0.000994352,-0.00373691,0.376161,-0.12537232721531788,0.3182801890241278,-0.000993857795867914,0.3919741620579802,-0.0037299364410510183,-0.17685095906129666
902,0.8926,59.141,1059.22,-0.0110109,251.631,-0.243367,-0.906635,-0.134086,0.331035,-0.194801,0.27658,-0.000994549,-0.00373762,0.376518,-0.12548514690808055,0.3186124374933108,-0.0009940546000585249,0.3924085257537555,-0.003730643792545063,-0.17700158155341006
903,0.8936,59.146,1059.39,-0.011002,251.662,-0.242055,-0.901524,-0.134215,0.331347,-0.194983,0.276832,-0.000994745,-0.00373832,0.376875,-0.12559795204804136,0.31894476969965835,-0.000994250405204622,0.39284302499214707,-0.0037313411808503893,-0.1771513536358944
904,0.8946,59.151,1059.55,-0.0109931,251.694,-0.240744,-0.896415,-0.134344,0.331659,-0.195166,0.277085,-0.000994939,-0.00373902,0.377232,-0.12571074263707782,0.3192785049421205,-0.0009944442123012154,0.39327765981545126,-0.0037320385686674395,-0.17730192116083032
905,0.8956,59.156,1059.72,-0.0109841,251.725,-0.239433,-0.891307,-0.134473,0.331971,-0.195349,0.277337,-0.000995131,-0.00373971,0.377589,-0.12582351867706665,0.31961100501861583,-0.0009946360213495264,0.39371243026597713,-0.003732725993323638,-0.17745246113443014
906,0.8966,59.1609,1059.89,-0.010975,251.756,-0.238123,-0.886201,-0.134602,0.332283,-0.195532,0.277589,-0.000995321,-0.00374039,0.377946,-0.12593628016988467,0.31994358889568897,-0.0009948258323506654,0.3941473363860468,-0.0037334034548396344,-0.17760297356173538
907,0.8976,59.1659,1060.06,-0.010966,251.787,-0.236813,-0.881096,-0.13473,0.332594,-0.195714,0.277841,-0.000995509,-0.00374107,0.378303,-0.12604815316599838,0.32027625659446035,-0.0009950136453057423,0.3945809836363152,-0.0037340809158949995,-0.17775263620083392
908,0.8986,59.1709,1060.22,-0.0109568,251.818,-0.235504,-0.875993,-0.134859,0.332906,-0.195897,0.278093,-0.000995695,-0.00374173,0.378659,-0.12616088568283634,0.3206090081360553,-0.0009951994602159786,0.39501616078731505,-0.0037347384511845494,-0.177903093701128
909,0.8996,59.1758,1060.39,-0.0109476,251.85,-0.234195,-0.870892,-0.134988,0.333218,-0.196079,0.278345,-0.00099588,-0.0037424,0.379016,-0.12627360365811746,0.3209418435416054,-0.0009953842760869192,0.3954514737347692,-0.0037354059486861546,-0.17805270172333143
910,0.9006,59.1808,1060.56,-0.0109384,251.881,-0.232887,-0.865792,-0.135116,0.333529,-0.196262,0.278596,-0.000996063,-0.00374305,0.379372,-0.12638543347958797,0.32127344155814463,-0.0009955670939149064,0.39588552663482823,-0.0037360535204619127,-0.17820310431665898
911,0.9016,59.1857,1060.72,-0.0109292,251.912,-0.231579,-0.860694,-0.135245,0.33384,-0.196444,0.278848,-0.000996243,-0.0037437,0.379728,-0.12649812249007175,0.3216064444220157,-0.0009957469146966158,0.3963197145463324,-0.0037367010918165633,-0.1783526577418989
912,0.9026,59.1907,1060.89,-0.0109198,251.943,-0.230271,-0.855597,-0.135373,0.334151,-0.196626,0.279099,-0.000996422,-0.00374434,0.380084,-0.12660992357497092,0.3219382092743128,-0.000995925736441916,0.3967540375112766,-0.0037373387001238267,-0.178502183950892
913,0.9036,59.1956,1061.06,-0.0109105,251.974,-0.228964,-0.850503,-0.135502,0.334462,-0.196809,0.279351,-0.000996599,-0.00374497,0.38044,-0.12672258362810007,0.32227137968075814,-0.0009961025601474827,0.39718849557166913,-0.003737966345402799,-0.17865250429649793
914,0.9046,59.2005,1061.22,-0.0109011,252.005,-0.227657,-0.845409,-0.13563,0.334773,-0.196991,0.279602,-0.000996775,-0.0037456,0.380796,-0.12683435598381232,0.3226033114527527,-0.0009962783848179724,0.39762308876953134,-0.0037385939902863097,-0.17880197593838398
915,0.9056,59.2054,1061.39,-0.0108916,252.035,-0.226351,-0.840318,-0.135759,0.335084,-0.197173,0.279853,-0.000996948,-0.00374622,0.381152,-0.126946987087028,0.32293532655007895,-0.0009964512124468472,0.39805781714689736,-0.003739211672166509,-0.17895142037890654
916,0.9066,59.2104,1061.55,-0.0108821,252.066,-0.225045,-0.835228,-0.135887,0.335395,-0.197355,0.280104,-0.000997119,-0.00374683,0.381508,-0.12705873072093576,0.32326742499365424,-0.000996622042039097,0.3984926807458147,-0.003739819391062049,-0.17910083762301598
917,0.9076,59.2153,1061.72,-0.0108725,252.097,-0.223739,-0.83014,-0.136016,0.335706,-0.197537,0.280355,-0.000997289,-0.00374743,0.381863,-0.12717133288167726,0.3235996068044009,-0.0009967918725988234,0.39892767960834363,-0.0037404171469911374,-0.17925022767566134
918,0.9086,59.2202,1061.89,-0.0108629,252.128,-0.222435,-0.825054,-0.136144,0.336016,-0.197719,0.280606,-0.000997457,-0.00374803,0.382218,-0.12728304780116095,0.3239318720032467,-0.0009969597051237011,0.3993614144144437,-0.0037410149025615125,-0.17939959054179133
919,0.9096,59.2251,1062.05,-0.0108533,252.159,-0.22113,-0.819969,-0.136272,0.336327,-0.197901,0.280857,-0.000997623,-0.00374862,0.382574,-0.12739474842205023,0.32426422061112503,-0.0009971255396146184,0.3997966834951603,-0.0037416026951893055,-0.1795489262263532
920,0.9106,59.23,1062.21,-0.0108436,252.19,-0.219826,-0.814886,-0.1364,0.336637,-0.198082,0.281108,-0.000997787,-0.00374921,0.382929,-0.12750643474617496,0.32459665264897386,-0.0009972893760726853,0.4002306877342252,-0.003742190487470265,-0.17969741443211817
921,0.9116,59.2349,1062.38,-0.0108339,252.22,-0.218522,-0.809805,-0.136529,0.336947,-0.198264,0.281359,-0.00099795,-0.00374978,0.383284,-0.1276189791568222,0.32492916813773687,-0.0009974522135012265,0.4006648265354604,-0.0037427583542598564,-0.17984669591766433
922,0.9126,59.2398,1062.54,-0.0108241,252.251,-0.217219,-0.804726,-0.136657,0.337257,-0.198446,0.281609,-0.00099811,-0.00375035,0.383639,-0.12773063678124963,0.3252604418372582,-0.0009976120538960354,0.40109909994058635,-0.0037433262207258178,-0.17999595023645232
923,0.9136,59.2447,1062.71,-0.0108142,252.282,-0.215917,-0.799648,-0.136785,0.337567,-0.198627,0.28186,-0.000998269,-0.00375092,0.383993,-0.1278422801144159,0.325593123958019,-0.0009977708952630948,0.4015335079913369,-0.003743894086868038,-0.18014435753819358
924,0.9146,59.2496,1062.87,-0.0108044,252.312,-0.214615,-0.794573,-0.136913,0.337877,-0.198809,0.28211,-0.000998426,-0.00375147,0.384348,-0.12795390915815008,0.32592456366724587,-0.0009979277386007457,0.40196805072945874,-0.003744442027575512,-0.18029355768749622
925,0.9156,59.2545,1063.04,-0.0107944,252.343,-0.213313,-0.789499,-0.137041,0.338187,-0.19899,0.28236,-0.000998581,-0.00375202,0.384703,-0.12806552391428105,0.3262560862467585,-0.0009980825839099872,0.4024027281967113,-0.003744989967981782,-0.18044191112716346
926,0.9166,59.2593,1063.2,-0.0107845,252.373,-0.212012,-0.784427,-0.137169,0.338497,-0.199172,0.28261,-0.000998734,-0.00375256,0.385057,-0.12817712438463758,0.32658769171727675,-0.0009982354311915964,0.40283754043486697,-0.003745527945541949,-0.1805910571266406
927,0.9176,59.2642,1063.36,-0.0107745,252.404,-0.210711,-0.779356,-0.137297,0.338806,-0.199353,0.28286,-0.000998885,-0.0037531,0.385411,-0.12828871057104796,0.3269193800995265,-0.0009983862804466836,0.40327108421392555,-0.00374606592281157,-0.18073935672378227
928,0.9186,59.2691,1063.53,-0.0107644,252.434,-0.209411,-0.774288,-0.137425,0.339116,-0.199535,0.28311,-0.000999035,-0.00375363,0.385765,-0.12840028247534074,0.32725115141423755,-0.0009985361306775742,0.4037061656841754,-0.003746593937256737,-0.18088844859308695
929,0.9196,59.2739,1063.69,-0.0107543,252.465,-0.208111,-0.769221,-0.137552,0.339425,-0.199716,0.28336,-0.000999183,-0.00375415,0.386119,-0.12851096861074796,0.32758300568214627,-0.000998683982883275,0.4041399779099091,-0.0037471119888932147,-0.18103669436724423
930,0.9206,59.2788,1063.85,-0.0107442,252.495,-0.206812,-0.764156,-0.13768,0.339734,-0.199897,0.28361,-0.000999329,-0.00375466,0.386473,-0.12862251206783226,0.32791494292399315,-0.0009988298370646742,0.4045739242043329,-0.0037476200777365465,-0.18118491331134468
931,0.9216,59.2837,1064.02,-0.010734,252.526,-0.205513,-0.759093,-0.137808,0.340044,-0.200078,0.28386,-0.000999473,-0.00375517,0.386827,-0.1287340412482677,0.3282469631605245,-0.000998973693222882,0.4050094096175878,-0.003748128166320641,-0.18133310543024406
932,0.9226,59.2885,1064.18,-0.0107237,252.556,-0.204215,-0.754032,-0.137936,0.340353,-0.200259,0.284109,-0.000999615,-0.00375567,0.387181,-0.1288455561538817,0.3285777378340893,-0.0009991155513585648,0.4054436246079207,-0.003748626292132129,-0.18148127072879716
933,0.9236,59.2934,1064.34,-0.0107135,252.586,-0.202917,-0.748973,-0.138063,0.340662,-0.20044,0.284359,-0.000999756,-0.00375617,0.387534,-0.12895618574312262,0.3289099237900621,-0.0009992564104732704,0.4058779737914173,-0.0037491244176943717,-0.1816294092118581
934,0.9246,59.2982,1064.5,-0.0107031,252.617,-0.201619,-0.743915,-0.138191,0.340971,-0.200621,0.284608,-0.000999894,-0.00375665,0.387888,-0.12906767221606097,0.3292408635613777,-0.0009993942725664562,0.40631245720955,-0.0037496026179999475,-0.18177752088428
935,0.9256,59.303,1064.67,-0.0106928,252.647,-0.200323,-0.73886,-0.138319,0.341279,-0.200802,0.284858,-0.00100003,-0.00375714,0.388241,-0.12917914441964407,0.3295732153195068,-0.0009995301366395593,0.40674566815743174,-0.0037500907805749772,-0.1819256057509152
936,0.9266,59.3079,1064.83,-0.0106824,252.677,-0.199026,-0.733806,-0.138446,0.341588,-0.200983,0.285107,-0.00100017,-0.00375761,0.388594,-0.12928973164586532,0.32990432027097705,-0.0009996699966955402,0.4071804197345519,-0.003750559017922317,-0.18207366381661516
937,0.9276,59.3127,1064.99,-0.0106719,252.707,-0.197731,-0.728755,-0.138574,0.341897,-0.201163,0.285356,-0.0010003,-0.00375808,0.388947,-0.1294011754276604,0.3302355076778454,-0.0009997998667300445,0.40761530567066684,-0.0037510272550494994,-0.18222087730751657
938,0.9286,59.3175,1065.15,-0.0106614,252.737,-0.196435,-0.723705,-0.138701,0.342205,-0.201344,0.285605,-0.00100043,-0.00375854,0.3893,-0.12951173445773412,0.330566777560646,-0.0009999297367475624,0.4080489179576776,-0.0037514855294715765,-0.1823688819339011
939,0.9296,59.3223,1065.31,-0.0106509,252.768,-0.195141,-0.718657,-0.138829,0.342513,-0.201525,0.285854,-0.00100056,-0.00375899,0.389653,-0.1296231498249879,0.33089812993991785,-0.0010000596067483158,0.40848266381784226,-0.003751933841202204,-0.18251685977387255
940,0.9306,59.3271,1065.47,-0.0106403,252.798,-0.193846,-0.713611,-0.138956,0.342822,-0.201705,0.286103,-0.00100069,-0.00375943,0.390006,-0.12973368066610313,0.33122956483620514,-0.001000189476732083,0.40891795220955496,-0.0037523721902549267,-0.18266399349668094
941,0.9316,59.332,1065.64,-0.0106297,252.828,-0.192553,-0.708568,-0.139083,0.34313,-0.201886,0.286352,-0.00100081,-0.00375987,0.390358,-0.12984419747069298,0.331561082270057,-0.0010003093567021448,0.4093519657734932,-0.0037528105391146926,-0.18281191792629337
942,0.9326,59.3368,1065.8,-0.010619,252.858,-0.191259,-0.703526,-0.139211,0.343438,-0.202066,0.2866,-0.00100094,-0.00376031,0.390711,-0.1299555702854045,0.3318913503700116,-0.0010004392266534934,0.40978611303419754,-0.003753248887781613,-0.1829589985434139
943,0.9336,59.3416,1065.96,-0.0106083,252.888,-0.189967,-0.698486,-0.139338,0.343746,-0.202246,0.286849,-0.00100106,-0.00376073,0.391063,-0.1300660589118019,0.3322230326089788,-0.0010005591065935793,0.4102203940328528,-0.0037536673113292007,-0.18310605268840607
944,0.9346,59.3464,1066.12,-0.0105975,252.918,-0.188675,-0.693448,-0.139465,0.344054,-0.202427,0.287098,-0.00100118,-0.00376115,0.391415,-0.13017653350703484,0.3325547974471066,-0.0010006789865193433,0.4106548088106565,-0.0037540857347011514,-0.18325389711254536
945,0.9356,59.3512,1066.28,-0.0105867,252.948,-0.187383,-0.688412,-0.139592,0.344361,-0.202607,0.287346,-0.0010013,-0.00376156,0.391767,-0.13028699407288502,0.3328853120189863,-0.0010007988664306744,0.4110879463201671,-0.0037544941954422706,-0.18340089818057215
946,0.9366,59.3559,1066.44,-0.0105759,252.978,-0.186092,-0.683378,-0.13972,0.344669,-0.202787,0.287594,-0.00100142,-0.00376197,0.392119,-0.13039831021325876,0.3332159085686448,-0.0010009187463275726,0.41152262834522935,-0.003754902656015857,-0.18354787279078788
947,0.9376,59.3607,1066.6,-0.010565,253.007,-0.184801,-0.678346,-0.139847,0.344977,-0.202967,0.287842,-0.00100153,-0.00376237,0.392471,-0.1305087426152557,0.33354658711641494,-0.0010010286362204246,0.4119574442729752,-0.0037553011539751546,-0.18369482094795464
948,0.9386,59.3655,1066.76,-0.0105541,253.037,-0.183511,-0.673316,-0.139974,0.345284,-0.203147,0.288091,-0.00100165,-0.00376276,0.392823,-0.13061916099322812,0.33387868156064937,-0.0010011485160899003,0.4123909817529652,-0.0037556896893319314,-0.1838417426568335
949,0.9396,59.3703,1066.92,-0.0105431,253.067,-0.182222,-0.668289,-0.140101,0.345591,-0.203327,0.288339,-0.00100176,-0.00376315,0.393175,-0.13072956534895708,0.3342095244965049,-0.0010012584059574392,0.4128246523493937,-0.0037560782245371627,-0.18398863792218478
950,0.9406,59.3751,1067.08,-0.0105321,253.097,-0.180933,-0.663263,-0.140228,0.345899,-0.203507,0.288587,-0.00100187,-0.00376352,0.393526,-0.13083995568422302,0.3345404494915831,-0.0010013682958129877,0.41325986936229686,-0.003756446834719984,-0.18413550674876789
951,0.9416,59.3798,1067.24,-0.0105211,253.127,-0.179645,-0.658239,-0.140355,0.346206,-0.203687,0.288834,-0.00100198,-0.0037639,0.393878,-0.13095033200080675,0.3348701216954486,-0.0010014781856564348,0.4136938067481717,-0.0037568254071982388,-0.18428234914134123
952,0.9426,59.3846,1067.4,-0.01051,253.156,-0.178357,-0.653218,-0.140482,0.346513,-0.203867,0.289082,-0.00100208,-0.00376426,0.394229,-0.13106069430048828,0.3352012105389488,-0.0010015780855036072,0.41412787737327506,-0.003757184054676621,-0.18442916510466267
953,0.9436,59.3893,1067.55,-0.0104989,253.186,-0.177069,-0.648198,-0.140609,0.34682,-0.204046,0.28933,-0.00100219,-0.00376462,0.39458,-0.13117104258504775,0.3355323815026645,-0.0010016879753239616,0.4145620812785178,-0.0037575427020257735,-0.184575139219036
954,0.9446,59.3941,1067.71,-0.0104877,253.216,-0.175783,-0.643181,-0.140735,0.347127,-0.204226,0.289577,-0.00100229,-0.00376497,0.394931,-0.13128050813720737,0.33586229874399764,-0.0010017878751501508,0.41499641850482316,-0.0037578913868248076,-0.1847219024848864
955,0.9456,59.3988,1067.87,-0.0104765,253.245,-0.174496,-0.638165,-0.140862,0.347433,-0.204406,0.289825,-0.00100239,-0.00376532,0.395282,-0.1313908285071822,0.3361936336779199,-0.001001887774966459,0.4154294736629458,-0.0037582400715018283,-0.18486863933572628
956,0.9466,59.4036,1068.03,-0.0104653,253.275,-0.173211,-0.633152,-0.140989,0.34774,-0.204585,0.290072,-0.00100249,-0.00376565,0.395633,-0.1315011348673596,0.3365237142687132,-0.0010019876747726641,0.41586407721959273,-0.0037585688312283816,-0.1850145347912524
957,0.9476,59.4083,1068.19,-0.010454,253.305,-0.171926,-0.628141,-0.141116,0.348046,-0.204765,0.290319,-0.00100259,-0.00376599,0.395983,-0.1316114272195189,0.33685387639948217,-0.0010020875745688773,0.41629739792190823,-0.0037589075532573624,-0.18516121897301763
958,0.9486,59.4131,1068.35,-0.0104426,253.334,-0.170641,-0.623132,-0.141242,0.348353,-0.204944,0.290567,-0.00100269,-0.00376631,0.396334,-0.13172083728671025,0.33718545727515825,-0.0010021874743550985,0.41673226797220764,-0.003759226350355971,-0.1853070620614755
959,0.9496,59.4178,1068.5,-0.0104313,253.364,-0.169357,-0.618125,-0.141369,0.348659,-0.205124,0.290814,-0.00100278,-0.00376663,0.396684,-0.13183110173843393,0.3375157828766375,-0.0010022773841542598,0.4171658543815444,-0.003759545147352439,-0.18545369359307073
960,0.9506,59.4225,1068.66,-0.0104199,253.393,-0.168074,-0.61312,-0.141496,0.348965,-0.205303,0.291061,-0.00100287,-0.00376694,0.397035,-0.1319413521874615,0.3378461900786178,-0.0010023672939452055,0.4175995734886242,-0.00375985398184564,-0.18559948433325713
961,0.9516,59.4273,1068.82,-0.0104084,253.423,-0.166791,-0.608118,-0.141622,0.349271,-0.205482,0.291308,-0.00100296,-0.00376725,0.397385,-0.13205072068672574,0.3381766789012566,-0.0010024572037280466,0.41803342533405874,-0.003760162816243029,-0.1857452489792364
962,0.9526,59.432,1068.98,-0.0103969,253.452,-0.165509,-0.603117,-0.141749,0.349577,-0.205661,0.291555,-0.00100305,-0.00376754,0.397735,-0.13216094324591787,0.33850724936471677,-0.001002547113502894,0.4184674099584722,-0.0037604517257538994,-0.18589098753567923
963,0.9536,59.4367,1069.13,-0.0103854,253.482,-0.164227,-0.598119,-0.141875,0.349883,-0.20584,0.291801,-0.00100314,-0.00376784,0.398085,-0.13227028407845176,0.33883656265193407,-0.0010026370232696369,0.418901527402501,-0.0037607505975735256,-0.18603670000725503
964,0.9546,59.4414,1069.29,-0.0103738,253.511,-0.162946,-0.593123,-0.142002,0.350189,-0.20602,0.292048,-0.00100323,-0.00376812,0.398435,-0.1323804787548637,0.33916729612681173,-0.001002726933028275,0.4193357777067941,-0.003761029544524286,-0.18618320021583945
965,0.9556,59.4461,1069.45,-0.0103622,253.54,-0.161666,-0.588129,-0.142128,0.350495,-0.206199,0.292295,-0.00100331,-0.0037684,0.398785,-0.13248979192766608,0.3394981113029474,-0.001002806852806848,0.41977016091201325,-0.0037613084913969974,-0.18632886038602658
966,0.9566,59.4508,1069.61,-0.0103506,253.57,-0.160386,-0.583138,-0.142254,0.3508,-0.206377,0.292541,-0.00100339,-0.00376867,0.399134,-0.1325990913278764,0.3398276683721855,-0.0010028867725790924,0.4202032568548655,-0.0037615774758074094,-0.18647368095946448
967,0.9576,59.4556,1069.76,-0.0103389,253.599,-0.159106,-0.578148,-0.142381,0.351106,-0.206556,0.292787,-0.00100347,-0.00376894,0.399484,-0.13270924424841923,0.34015730652243525,-0.0010029666923450087,0.4206379055493217,-0.003761846460145213,-0.186619289138252
968,0.9586,59.4602,1069.92,-0.0103272,253.628,-0.157828,-0.573161,-0.142507,0.351411,-0.206735,0.293034,-0.00100355,-0.00376919,0.399833,-0.132818515999379,0.34048836626134094,-0.0010030466121044856,0.4210712661946532,-0.003762095519652453,-0.186764871255508
969,0.9596,59.4649,1070.07,-0.0103154,253.657,-0.156549,-0.568176,-0.142633,0.351717,-0.206914,0.29328,-0.00100363,-0.00376945,0.400182,-0.13292777398296562,0.3408181669632644,-0.0010031265318575233,0.42150618054060995,-0.003762354541473889,-0.18691042731589724
970,0.9606,59.4696,1070.23,-0.0103036,253.687,-0.155272,-0.563193,-0.142759,0.352022,-0.207093,0.293526,-0.0010037,-0.00376969,0.400532,-0.13303701820091351,0.34114804880614047,-0.0010031964616362687,0.42193980605020354,-0.003762593638480083,-0.1870559573240833
971,0.9616,59.4743,1070.39,-0.0102918,253.716,-0.153995,-0.558213,-0.142886,0.352327,-0.207271,0.293772,-0.00100378,-0.00376993,0.400881,-0.13314711550827496,0.3414780118099321,-0.001003276381377316,0.42237356383574864,-0.0037628327354289892,-0.18720064848578422
972,0.9626,59.479,1070.54,-0.0102799,253.745,-0.152718,-0.553235,-0.143012,0.352632,-0.20745,0.294018,-0.00100385,-0.00377016,0.40123,-0.1332563320909318,0.34180805599460773,-0.0010033463111455143,0.42280745393759567,-0.003763061869951123,-0.18734612654903016
973,0.9636,59.4837,1070.7,-0.010268,253.774,-0.151443,-0.548259,-0.143138,0.352937,-0.207628,0.294264,-0.00100392,-0.00377039,0.401578,-0.13336553491316605,0.34213818138014007,-0.0010034162409088276,0.423241476396107,-0.0037632910044205214,-0.18749076606520565
974,0.9646,59.4884,1070.85,-0.010256,253.803,-0.150167,-0.543285,-0.143264,0.353242,-0.207807,0.294509,-0.00100399,-0.00377061,0.401927,-0.13347472397671145,0.34246704551879015,-0.001003486170667256,0.42367563125165764,-0.003763510176472362,-0.1876361922020524
975,0.9656,59.493,1071.01,-0.010244,253.832,-0.148893,-0.538314,-0.14339,0.353546,-0.207985,0.294755,-0.00100405,-0.00377082,0.402276,-0.1335838992833016,0.3427973330356866,-0.001003546110456277,0.42410849443542853,-0.0037637193861133067,-0.18778078009113652
976,0.9666,59.4977,1071.16,-0.010232,253.861,-0.147619,-0.533344,-0.143516,0.353851,-0.208164,0.295001,-0.00100412,-0.00377103,0.402624,-0.1336930608346698,0.343127701813307,-0.0010036160402056016,0.4245429137718124,-0.0037639285957102864,-0.1879261543201186
977,0.9676,59.5024,1071.32,-0.0102199,253.89,-0.146345,-0.528377,-0.143642,0.354156,-0.208342,0.295246,-0.00100418,-0.00377123,0.402972,-0.133802208632549,0.3434568084141636,-0.001003675979986851,0.4249774656263019,-0.0037641278429045855,-0.18807069060053905
978,0.9686,59.507,1071.47,-0.0102078,253.919,-0.145073,-0.523413,-0.143768,0.35446,-0.20852,0.295491,-0.00100424,-0.00377142,0.403321,-0.133911342678672,0.34378599565601564,-0.001003735919764548,0.42541072462788376,-0.00376431712770231,-0.18821520115579116
979,0.9696,59.5117,1071.63,-0.0101957,253.948,-0.143801,-0.518451,-0.143893,0.354764,-0.208698,0.295737,-0.0010043,-0.00377161,0.403669,-0.13401959699480148,0.3441166076745581,-0.001003795859538581,0.4258441153602244,-0.0037645064124640637,-0.1883596859904536
980,0.9706,59.5163,1071.78,-0.0101835,253.977,-0.142529,-0.513491,-0.144019,0.355068,-0.208876,0.295982,-0.00100436,-0.00377179,0.404017,-0.13412870365171636,0.3444459565870326,-0.0010038557993089503,0.4262776378633757,-0.0037646857348367924,-0.1885041451091044
981,0.9716,59.521,1071.94,-0.0101713,254.006,-0.141258,-0.508533,-0.144145,0.355372,-0.209054,0.296227,-0.00100441,-0.00377196,0.404365,-0.1342377965620586,0.34477538619987613,-0.0010039057491149084,0.4267112921774021,-0.0037648550948258253,-0.18864857851632033
982,0.9726,59.5256,1072.09,-0.010159,254.035,-0.139988,-0.503578,-0.144271,0.355677,-0.209232,0.296472,-0.00100447,-0.00377213,0.404712,-0.13434687572756,0.3451048965328627,-0.0010039656888788384,0.42714650548817223,-0.0037650244547861034,-0.18879298621667784
983,0.9736,59.5303,1072.24,-0.0101467,254.063,-0.138718,-0.498625,-0.144396,0.35598,-0.20941,0.296717,-0.00100452,-0.00377229,0.40506,-0.13445507560546077,0.3454344876057711,-0.0010040156386792454,0.42757899639839936,-0.003765183852369347,-0.18893736821475227
984,0.9746,59.5349,1072.4,-0.0101344,254.092,-0.137449,-0.493675,-0.144522,0.356284,-0.209588,0.296962,-0.00100457,-0.00377244,0.405407,-0.13456412739552748,0.3457641594383849,-0.0010040655884772098,0.4280130463855596,-0.0037653332875806633,-0.18908172451511807
985,0.9756,59.5395,1072.55,-0.0101221,254.121,-0.136181,-0.488727,-0.144648,0.356588,-0.209766,0.297207,-0.00100462,-0.00377259,0.405755,-0.13467316544593422,0.3460939120504929,-0.0010041155382727318,0.42844722834397486,-0.003765482722769442,-0.18922605512234936
986,0.9766,59.5442,1072.71,-0.0101097,254.15,-0.134913,-0.483781,-0.144773,0.356891,-0.209944,0.297451,-0.00100467,-0.00377273,0.406102,-0.13478132454016922,0.346422399038816,-0.0010041654880657003,0.4288801134329421,-0.0037656221955920666,-0.1893703600410187
987,0.9776,59.5488,1072.86,-0.0100972,254.179,-0.133646,-0.478837,-0.144899,0.357195,-0.210121,0.297696,-0.00100472,-0.00377286,0.406449,-0.1348903352254598,0.346752312939383,-0.0010042154378562262,0.4293145590198091,-0.0037657517060527557,-0.18951382878993261
988,0.9786,59.5534,1073.01,-0.0100848,254.207,-0.132379,-0.473896,-0.145024,0.357498,-0.210299,0.29794,-0.00100476,-0.00377299,0.406796,-0.13499846717516895,0.3470809605971239,-0.0010042553976867818,0.4297477069497895,-0.0037658812164965694,-0.18965808248944793
989,0.9796,59.558,1073.17,-0.0100723,254.236,-0.131113,-0.468958,-0.14515,0.357802,-0.210476,0.298185,-0.0010048,-0.00377312,0.407143,-0.13510745050221107,0.3474110358650395,-0.0010042953575157831,0.4301824163251795,-0.0037660107269236187,-0.1898015003159952
990,0.9806,59.5626,1073.32,-0.0100597,254.264,-0.129848,-0.464022,-0.145275,0.358105,-0.210654,0.298429,-0.00100484,-0.00377323,0.40749,-0.13521555531420681,0.34773984427078486,-0.001004335317343119,0.4306158272557661,-0.00376612031265644,-0.18994570281453582
991,0.9816,59.5673,1073.47,-0.0100471,254.293,-0.128583,-0.459088,-0.1454,0.358408,-0.210831,0.298673,-0.00100488,-0.00377334,0.407837,-0.13532364661394558,0.34806873291556983,-0.0010043752771689007,0.43104936952976214,-0.0037662298983771603,-0.19008906973679074
992,0.9826,59.5719,1073.62,-0.0100345,254.322,-0.127319,-0.454157,-0.145526,0.358711,-0.211009,0.298917,-0.00100492,-0.00377344,0.408183,-0.13543258897095956,0.3483977018189752,-0.001004415236993128,0.43148304318697095,-0.0037663295217491566,-0.19023322105252993
993,0.9836,59.5765,1073.78,-0.0100219,254.35,-0.126056,-0.449228,-0.145651,0.359014,-0.211186,0.299161,-0.00100496,-0.00377354,0.40853,-0.13554065314318675,0.3487267510005867,-0.00100445519681569,0.4319168482672071,-0.003766429145111272,-0.19037653708856028
994,0.9846,59.5811,1073.93,-0.0100092,254.379,-0.124793,-0.444301,-0.145776,0.359317,-0.211363,0.299405,-0.00100499,-0.00377363,0.408876,-0.13564870380823657,0.34905588047999436,-0.0010044851666816124,0.43235078481029854,-0.0037665188061286603,-0.19051982775989706
995,0.9856,59.5857,1074.08,-0.00999649,254.407,-0.123531,-0.439377,-0.145902,0.359619,-0.21154,0.299649,-0.00100502,-0.00377371,0.409223,-0.1357576052106243,0.34938509027679343,-0.0010045151365465355,0.4327834200719476,-0.0037665985048038753,-0.19066309307102947
996,0.9866,59.5902,1074.23,-0.00998374,254.436,-0.12227,-0.434456,-0.146027,0.359922,-0.211717,0.299893,-0.00100505,-0.00377379,0.409569,-0.1358656287583606,0.34971438041058356,-0.0010045451064106814,0.43321761922607926,-0.003766678203472873,-0.1908063330264459
997,0.9876,59.5948,1074.38,-0.00997095,254.464,-0.121009,-0.429537,-0.146152,0.360224,-0.211895,0.300137,-0.00100508,-0.00377386,0.409915,-0.13597363880399727,0.3500437509009695,-0.0010045750762738281,0.4336505163112552,-0.003766747939802917,-0.19095035668068172
998,0.9886,59.5994,1074.54,-0.00995813,254.493,-0.119749,-0.42462,-0.146277,0.360527,-0.212072,0.30038,-0.00100511,-0.00377392,0.410261,-0.13608163534922213,0.350371851395034,-0.0010046050461361977,0.4340849782353551,-0.0037668077137962275,-0.19109354579493876
999,0.9896,59.604,1074.69,-0.00994528,254.521,-0.118489,-0.419706,-0.146402,0.360829,-0.212248,0.300624,-0.00100514,-0.00377398,0.410606,-0.1361896183957224,0.35070138232791326,-0.001004635015997568,0.4345181373025091,-0.0037668674877859853,-0.1912359008032707
