,Time,S11,S22,S33,S12,S13,S23,LE11,LE22,LE33,LE12,LE13,LE23,SDV_EPBAR,E11,E12,E13,E22,E23,E33
0,1e-05,1.4839,1.4839,-2.22045e-16,0.0,0.0,-5.55782e-39,4.99999e-06,4.99999e-06,-4.2857e-06,0.0,0.0,0.0,0.0,5.000002500032963e-06,0.0,0.0,5.000002500032963e-06,0.0,-4.285690816452359e-06
1,2e-05,2.96779,2.96779,1.11022e-15,0.0,0.0,-1.11156e-38,9.99995e-06,9.99995e-06,-8.57139e-06,0.0,0.0,0.0,0.0,9.999999999621423e-06,0.0,0.0,9.999999999621423e-06,0.0,-8.571353265707238e-06
2,3.5e-05,5.1936,5.1936,2.22045e-16,0.0,0.0,-2.08416e-38,1.74998e-05,1.74998e-05,-1.49999e-05,0.0,0.0,0.0,0.0,1.749995312239072e-05,0.0,0.0,1.749995312239072e-05,0.0,-1.4999787502079087e-05
3,5.75e-05,8.5323,8.5323,-5.10703e-15,0.0,0.0,-4.68933e-38,2.87496e-05,2.87496e-05,-2.46425e-05,0.0,0.0,0.0,0.0,2.875001327362625e-05,0.0,0.0,2.875001327362625e-05,0.0,-2.464219637610121e-05
4,9.125e-05,13.5403,13.5403,-2.64233e-14,0.0,0.0,-1.05509e-37,4.5624e-05,4.5624e-05,-3.91062e-05,0.0,0.0,0.0,0.0,4.56250407905312e-05,0.0,0.0,4.56250407905312e-05,0.0,-3.910543536256306e-05
5,0.00014188,21.0521,21.0521,-1.28564e-13,0.0,0.0,-2.37391e-37,7.0935e-05,7.0935e-05,-6.08014e-05,0.0,0.0,0.0,0.0,7.093751594666742e-05,0.0,0.0,7.093751594666742e-05,0.0,-6.079955163229567e-05
6,0.00021781,32.3194,32.3194,-6.4726e-13,0.0,0.0,-5.34115e-37,0.0001089,0.0001089,-9.33431e-05,0.0,0.0,0.0,0.0,0.00010890592982026881,0.0,0.0,0.00010890592982026881,0.0,-9.333874366834749e-05
7,0.00033172,49.2197,49.2197,-3.29226e-12,0.0,0.0,-1.20171e-36,0.000165846,0.000165846,-0.000142153,0.0,0.0,0.0,0.0,0.00016585975320815294,0.0,0.0,0.00016585975320815294,0.0,-0.00014214289674108205
8,0.00050258,74.5682,74.5682,-1.67357e-11,0.0,0.0,-2.70369e-36,0.000251258,0.000251258,-0.000215364,0.0,0.0,0.0,0.0,0.00025128956793518675,0.0,0.0,0.00025128956793518675,0.0,-0.00021534081083851575
9,0.00075887,112.587,112.587,-8.46423e-11,0.0,0.0,-6.08277e-36,0.000379362,0.000379362,-0.000325167,0.0,0.0,0.0,0.0,0.0003794339668636848,0.0,0.0,0.0003794339668636848,0.0,-0.000325114138940763
10,0.0011433,169.606,169.606,-4.28367e-10,0.0,0.0,-1.36844e-35,0.000571487,0.000571487,-0.000489846,0.0,0.0,0.0,0.0,0.0005716503298076603,0.0,0.0,0.0005716503298076603,0.0,-0.000489726045035388
11,0.00172,255.114,255.114,-2.16709e-09,0.0,0.0,-3.07838e-35,0.000859606,0.000859606,-0.000736805,0.0,0.0,0.0,0.0,0.0008599755671241383,0.0,0.0,0.0008599755671241383,0.0,-0.0007365336258500221
12,0.0025849,383.33,383.33,-1.09598e-08,0.0,0.0,-6.9243e-35,0.00129163,0.00129163,-0.00110711,0.0,0.0,0.0,0.0,0.0012924645132839085,0.0,0.0,0.0012924645132839085,0.0,-0.0011064973798241562
13,0.0035849,442.169,445.434,0.23045,0.011476,0.0458882,-0.0403594,0.00179086,0.00179086,-0.00187325,6.44945e-11,-4.57864e-07,1.03225e-06,0.000534328,0.0017924645474667322,6.449440981270982e-11,-4.578638951313607e-07,0.0017924645474667322,1.0322505328286269e-06,-0.0018714965622653734
14,0.0045849,457.079,464.277,0.311397,0.00546965,0.04816,-0.0306551,0.00228984,0.00228984,-0.00280659,4.15488e-11,-4.31486e-07,9.81495e-07,0.0013325,0.0022924636858374647,4.1548764428966933e-11,-4.314859068932364e-07,0.0022924636858374647,9.814954815556831e-07,-0.0028026552082625056
15,0.0055849,469.994,480.452,0.477033,0.00310178,0.054795,-0.00404551,0.00278857,0.00278857,-0.00374822,3.26473e-11,-3.41969e-07,1.24812e-06,0.00214466,0.002792461677887159,3.264721826212735e-11,-3.4196894149740586e-07,0.002792461677887159,1.2481207789516446e-06,-0.0037412041917506134
16,0.0065849,481.195,494.364,0.424308,0.000665932,0.0517357,-0.00970692,0.00328706,0.00328706,-0.00469744,2.69139e-11,-3.90138e-07,1.10163e-06,0.00296792,0.0032924683059070148,2.691380451835812e-11,-3.901379238557823e-07,0.0032924683059070148,1.1016306067368475e-06,-0.00468642428402799
17,0.0075849,490.33,505.85,-0.541562,-0.0161642,0.0157216,-0.154083,0.00378529,0.00378529,-0.0056572,-7.12359e-11,-1.07308e-06,-1.25367e-06,0.00380223,0.003792463258290635,-7.12359060628387e-11,-1.0730794242075348e-06,0.003792463258290635,-1.2536692141074113e-06,-0.005641228176872848
18,0.0085849,500.54,517.942,0.50799,-0.013494,0.0565421,0.00536097,0.00428328,0.00428328,-0.0066087,1.8954e-11,-5.66724e-07,7.28562e-07,0.00463609,0.0042924663550065745,1.8953949521005597e-11,-5.667238394124752e-07,0.0042924663550065745,7.285622654062962e-07,-0.0065869105685166796
19,0.0095849,509.012,528.015,0.522128,-0.0111673,0.0571412,0.00793346,0.00478102,0.00478102,-0.00756893,1.73625e-11,-5.66537e-07,7.56969e-07,0.00547825,0.00479246731212557,1.7362555837507898e-11,-5.665368395524339e-07,0.00479246731212557,7.569692865860844e-07,-0.007540357781812834
20,0.010585,515.932,536.396,-0.381512,-0.0228297,0.0243801,-0.132022,0.00527851,0.00527851,-0.00853728,-6.14137e-11,-1.21975e-06,-1.39123e-06,0.00632759,0.005292465878519614,-6.141365194167747e-11,-1.219749256153868e-06,0.005292465878519614,-1.3912290321993481e-06,-0.008500940910956545
21,0.011585,524.177,545.789,0.56528,-0.0181026,0.0608115,0.0147913,0.00577575,0.00577575,-0.00949644,-1.19113e-11,-7.63023e-07,4.69115e-07,0.00717409,0.005792461802937909,-1.1911249764295917e-11,-7.630227089050479e-07,0.005792461802937909,4.691151100910673e-07,-0.009451491210685115
22,0.012585,530.928,553.643,0.492814,-0.0177265,0.0636895,-0.0076016,0.00627275,0.00627275,-0.0104634,5.27641e-12,-8.77105e-07,2.01359e-07,0.00802691,0.006292464896930694,5.276445946833519e-12,-8.771046153821516e-07,0.006292464896930694,2.013590203464588e-07,-0.010408849058776592
23,0.013585,536.614,560.281,-0.277641,-0.0259143,0.0247804,-0.105068,0.0067695,0.0067695,-0.0114357,-5.74983e-11,-1.61664e-06,-1.29499e-06,0.00888436,0.00679246485607643,-5.7498339423034395e-11,-1.616638693247019e-06,0.00679246485607643,-1.2949891614599807e-06,-0.011370560922849826
24,0.014585,543.547,568.046,0.583386,-0.0228617,0.0704692,0.00439995,0.007266,0.007266,-0.0123996,4.06388e-12,-1.17998e-06,1.35458e-07,0.00973846,0.007292461428755503,4.063860359337923e-12,-1.1799793038225204e-06,0.007292461428755503,1.3545800925385265e-07,-0.012323041717311245
25,0.015585,548.096,573.319,-0.689251,-0.034838,0.0101836,-0.168456,0.00776226,0.00776226,-0.0133767,-1.30571e-10,-2.22544e-06,-2.48053e-06,0.0106013,0.007792464441150004,-1.3057099845781295e-10,-2.2254375237062973e-06,0.007792464441150004,-2.480526923531734e-06,-0.013287629547122037
26,0.016585,553.773,579.634,-0.526253,-0.0425343,0.0193796,-0.146205,0.00825827,0.00825827,-0.0143464,-1.3535e-10,-2.37298e-06,-2.57864e-06,0.0114608,0.008292463573471132,-1.3534995346731193e-10,-2.3729771845282244e-06,0.008292463573471132,-2.5786366752988954e-06,-0.014243980770919817
27,0.017585,559.794,586.23,0.243746,-0.0398709,0.0552208,-0.0361995,0.00875404,0.00875403,-0.015313,5.20521e-11,-2.09807e-06,-1.25148e-06,0.0123197,0.008792468661657171,5.205214037573569e-11,-2.098067799050085e-06,0.008792458573732453,-1.251479216923812e-06,-0.015196352183851514
28,0.018585,564.091,591.043,-0.51633,-0.0458147,0.0143887,-0.13009,0.00924955,0.00924955,-0.016289,-1.55235e-10,-2.8854e-06,-2.74796e-06,0.0131847,0.009292459282749688,-1.5523504703907065e-10,-2.8853958372598854e-06,0.009292459282749688,-2.7479562243470923e-06,-0.016157051646520704
29,0.019585,569.014,596.429,-0.428354,-0.0495764,0.0197877,-0.118185,0.00974483,0.00974483,-0.0172605,1.62227e-10,-3.07647e-06,-2.8805e-06,0.0140479,0.009792465463292821,1.622268985812525e-10,-3.076465267648487e-06,0.009792465463292821,-2.880495851398379e-06,-0.017112390939646116
30,0.020585,574.329,602.167,0.253362,-0.0453092,0.0580001,-0.0329696,0.0102399,0.0102399,-0.0182289,-8.97066e-11,-2.76279e-06,-1.84873e-06,0.0149099,0.010292507186784539,-8.970657550122496e-11,-2.7627861834966794e-06,0.010292507186784539,-1.8487282911205938e-06,-0.01806375857370246
31,0.021585,578.117,606.341,-0.444196,-0.0491565,0.019732,-0.118997,0.0107346,0.0107346,-0.0192054,-1.87306e-10,-3.4999e-06,-3.20463e-06,0.0157773,0.010792422533955737,-1.8730594852911508e-10,-3.499893875380522e-06,0.010792422533955737,-3.2046248651385056e-06,-0.019022151302049095
32,0.022585,583.553,612.135,0.701615,-0.0401285,0.0844139,0.0234103,0.0112292,0.0112292,-0.0201715,-5.75776e-11,-2.78933e-06,-1.29635e-06,0.0166392,0.011292484121177448,-5.757760934699263e-11,-2.7893261098643762e-06,0.011292484121177448,-1.2963491596851284e-06,-0.019969416351616642
33,0.023585,587.47,616.383,0.45326,-0.0353282,0.0707698,-0.00812397,0.0117235,0.0117235,-0.0211456,-7.78565e-11,-3.0941e-06,-1.65416e-06,0.0175063,0.011792489562242547,-7.785649902558589e-11,-3.0940952132629818e-06,0.011792489562242547,-1.65415863184748e-06,-0.020923599332877796
34,0.024585,591.014,620.232,-0.0331629,-0.0364027,0.0437024,-0.0678682,0.0122175,0.0122175,-0.0221213,-1.33752e-10,-3.62891e-06,-2.53127e-06,0.0183746,0.012292438529314165,-1.3375200946796895e-10,-3.6289034155423394e-06,0.012292438529314165,-2.5312667963905966e-06,-0.02187841829283088
35,0.025585,595.301,624.803,0.366204,-0.0330582,0.0668584,-0.0183906,0.0127113,0.0127113,-0.0230919,-9.23844e-11,-3.47722e-06,-1.90248e-06,0.0192404,0.012792431973681628,-9.238443343662084e-11,-3.477213954439229e-06,0.012792431973681628,-1.902478190318746e-06,-0.022827322522319227
36,0.026585,598.394,628.161,-0.323958,-0.0374254,0.0278206,-0.103209,0.0132049,0.0132049,-0.0240689,-1.79467e-10,-4.19543e-06,-3.18891e-06,0.0201102,0.013292469717266275,-1.7946699681914424e-10,-4.195421199226779e-06,0.013292469717266275,-3.1889049154631977e-06,-0.023781554010229633
37,0.027585,602.999,633.019,0.637693,-0.0310208,0.0834904,0.0155031,0.0136982,0.0136982,-0.0250362,-7.42531e-11,-3.59434e-06,-1.60038e-06,0.0209747,0.01379245020262565,-7.425304815456002e-11,-3.5943335403576526e-06,0.01379245020262565,-1.6003787194351915e-06,-0.024725393551447872
38,0.028585,606.328,636.587,0.412672,-0.0280494,0.0707338,-0.0127009,0.0141913,0.0141913,-0.0260103,-9.30957e-11,-3.88105e-06,-1.92865e-06,0.0218435,0.014292474530686938,-9.309575332849818e-11,-3.881042468734108e-06,0.014292474530686938,-1.928648140192557e-06,-0.025674945990990183
39,0.029585,609.366,639.849,-0.00730285,-0.0298406,0.0468426,-0.0640559,0.0146841,0.0146841,-0.0269855,-1.40518e-10,-4.36008e-06,-2.68587e-06,0.0227131,0.014792441043766313,-1.4051804164694204e-10,-4.360070494868751e-06,0.014792441043766313,-2.6858663930706683e-06,-0.02662464463533598
40,0.030585,613.05,643.747,0.323961,-0.0278829,0.0664613,-0.0232168,0.0151767,0.0151767,-0.0279562,9.5375e-11,-4.24635e-06,-2.17773e-06,0.0235804,0.015292450942551827,9.537504119805362e-11,-4.246340984281893e-06,0.015292450942551827,-2.1777276287826552e-06,-0.027569041655539195
41,0.031585,615.754,646.655,-0.247259,-0.0320421,0.0334811,-0.0930789,0.0156691,0.0156691,-0.0289321,-1.76936e-10,-4.86608e-06,-3.2435e-06,0.0244509,0.015792504048367073,-1.7693602138990627e-10,-4.866068160636061e-06,0.015792504048367073,-3.24349473990182e-06,-0.028517574116093125
42,0.032585,619.708,650.804,0.533248,-0.0275183,0.0795484,0.00284507,0.0161612,0.0161612,-0.0298999,-9.41272e-11,-4.38794e-06,-1.97615e-06,0.0253168,0.016292498553167167,-9.412715051837495e-11,-4.387930373050963e-06,0.016292498553167167,-1.9761480474222992e-06,-0.029457319991484376
43,0.033585,621.706,652.988,-0.585906,-0.0350536,0.014158,-0.133907,0.016653,0.016653,-0.0308786,-2.2878e-10,-5.45455e-06,-3.98723e-06,0.0261893,0.016792434128036993,-2.2877999494852475e-10,-5.454535124016502e-06,0.016792434128036993,-3.987222050971795e-06,-0.030406725445067395
44,0.034585,624.795,656.253,-0.525878,-0.040597,0.0179808,-0.125981,0.0171447,0.0171447,-0.0318504,-2.39561e-10,-5.63993e-06,-4.16222e-06,0.0270578,0.017292513902434914,-2.3956103767375225e-10,-5.639914095634246e-06,0.017292513902434914,-4.162211337921384e-06,-0.031348518497916755
45,0.035585,628.616,660.249,0.351009,-0.0363798,0.0701883,-0.0184784,0.017636,0.017636,-0.0328172,-1.41879e-10,-5.10101e-06,-2.80661e-06,0.0279236,0.017792432509465383,-1.4187895303052755e-10,-5.100996989915174e-06,0.017792432509465383,-2.806606061445116e-06,-0.03228455819573317
46,0.036585,630.633,662.432,-0.529744,-0.0416467,0.0183092,-0.125707,0.0181272,0.0181272,-0.0337939,-2.54806e-10,-5.98282e-06,-4.42259e-06,0.0287953,0.018292494957596883,-2.5480595411409013e-10,-5.982802102955098e-06,0.018292494957596883,-4.4225802203756714e-06,-0.033229264445346796
47,0.037585,633.546,665.506,-0.437495,-0.0450265,0.0240624,-0.113967,0.0186181,0.0186181,-0.0347648,-2.59044e-10,-6.12519e-06,-4.51529e-06,0.0296638,0.0187924974589444,-2.5904400846599174e-10,-6.125171241100347e-06,0.0187924974589444,-4.515279806049932e-06,-0.03416744663825333
48,0.038585,637.023,669.141,0.288051,-0.0406054,0.0676626,-0.025118,0.0191087,0.0191087,-0.0357318,-1.77135e-10,-5.69589e-06,-3.41094e-06,0.03053,0.019292439683998186,-1.771349733559191e-10,-5.695873778410743e-06,0.019292439683998186,-3.410934182768166e-06,-0.035100955293176694
49,0.039585,639.03,671.301,-0.412016,-0.043816,0.0261212,-0.110189,0.0195991,0.0195991,-0.0367068,-2.6853e-10,-6.4255e-06,-4.7062e-06,0.031401,0.01979242328237718,-2.68529976032994e-10,-6.4254793564755275e-06,0.01979242328237718,-4.7061889258959155e-06,-0.03604127338220664
50,0.040585,642.753,675.174,0.680412,-0.0356678,0.091909,0.0233273,0.0200893,0.0200893,-0.0376711,-1.43058e-10,-5.66286e-06,-2.91834e-06,0.0322658,0.020292448074334057,-1.4305800988267947e-10,-5.662843966081077e-06,0.020292448074334057,-2.918335741619593e-06,-0.03697037074599496
51,0.041585,645.076,677.644,0.412848,-0.0314936,0.0758993,-0.00977205,0.0205793,0.0205793,-0.0386429,-1.66279e-10,-5.9618e-06,-3.30349e-06,0.0331352,0.020792513880007357,-1.662789905765294e-10,-5.9617822285584765e-06,0.020792513880007357,-3.303484543470958e-06,-0.037905788346674796
52,0.042585,647.235,679.945,0.0314075,-0.0316993,0.0532443,-0.056016,0.0210689,0.0210689,-0.0396152,-2.09149e-10,-6.3913e-06,-3.97166e-06,0.0340048,0.021292416260919822,-2.0914903142710273e-10,-6.391279575690412e-06,0.021292416260919822,-3.97165211296624e-06,-0.038840777929820436
53,0.043585,649.974,682.821,0.28595,-0.0293395,0.0688516,-0.0248855,0.0215584,0.0215584,-0.0405836,-1.82163e-10,-6.30514e-06,-3.5907e-06,0.0348722,0.021792461274712016,-1.821629513898415e-10,-6.305120122673813e-06,0.021792461274712016,-3.5906935534901763e-06,-0.03977111397905253
54,0.044585,651.967,684.948,-0.164983,-0.0317393,0.0418171,-0.0796288,0.0220476,0.0220476,-0.0415557,2.40422e-10,-6.81121e-06,-4.42502e-06,0.0357418,0.02229244443267686,2.404219046070466e-10,-6.811186803790115e-06,0.02229244443267686,-4.425010209585523e-06,-0.04070409892834792
55,0.045585,654.941,688.053,0.420993,-0.0280051,0.0775889,-0.00813343,0.0225366,0.0225366,-0.0425215,-1.7333e-10,-6.45071e-06,-3.49622e-06,0.0366078,0.02279246768372567,-1.7333001700592376e-10,-6.450689194248405e-06,0.02279246768372567,-3.496213888176669e-06,-0.041630139652555354
56,0.046585,656.481,689.72,-0.396674,-0.0327937,0.0281696,-0.107374,0.0230253,0.0230253,-0.0434952,2.68806e-10,-7.26438e-06,-4.95789e-06,0.0374784,0.023292428518162156,2.688060884992183e-10,-7.2643536144223475e-06,0.023292428518162156,-4.9578777097103455e-06,-0.042562850221743775
57,0.047585,659.896,693.261,0.721868,-0.0259383,0.0965237,0.0288933,0.0235138,0.0235138,-0.0444572,-1.48347e-10,-6.45252e-06,-3.12538e-06,0.0383422,0.02379242898466427,-1.4834700134969125e-10,-6.452499182518778e-06,0.02379242898466427,-3.1253751160420506e-06,-0.043483461874627594
58,0.048585,661.854,695.343,0.41107,-0.0231939,0.0775797,-0.00937866,0.0240021,0.0240021,-0.0454273,-1.74567e-10,-6.77704e-06,-3.5768e-06,0.0392107,0.02429246890254766,-1.7456702749996111e-10,-6.777017035886068e-06,0.02429246890254766,-3.576793603299322e-06,-0.04441092862777829
59,0.049585,663.73,697.339,0.0569134,-0.0242553,0.0562178,-0.0521856,0.0244901,0.0244901,-0.0463972,-2.1215e-10,-7.17526e-06,-4.19183e-06,0.0400792,0.024792445611766967,-2.1214996426266453e-10,-7.175234257861263e-06,0.024792445611766967,-4.191821214249991e-06,-0.045337305149187435
60,0.050585,666.118,699.844,0.257251,-0.0231872,0.0686876,-0.0277367,0.0249779,0.0249779,-0.0473637,-1.92084e-10,-7.12088e-06,-3.90279e-06,0.0409455,0.025292461310650438,-1.9208401536019437e-10,-7.120854646602837e-06,0.025292461310650438,-3.902782384157533e-06,-0.04625954090154338
61,0.051585,667.9,701.741,-0.117476,-0.0258582,0.045914,-0.0730975,0.0254654,0.0254654,-0.0483331,-2.35558e-10,-7.55579e-06,-4.60147e-06,0.0418137,0.025792413238920453,-2.355580175361638e-10,-7.5557614550580965e-06,0.025792413238920453,-4.601459413278164e-06,-0.0471836489150711
62,0.052585,670.485,704.439,0.354186,-0.0235617,0.0751014,-0.0156802,0.0259528,0.0259528,-0.0492973,-1.87071e-10,-7.27579e-06,-3.86958e-06,0.0426787,0.026292506323917886,-1.870710253371044e-10,-7.275763531544577e-06,0.026292506323917886,-3.869572513193198e-06,-0.04810191167516953
63,0.053585,671.924,705.987,-0.297246,-0.0278236,0.0352255,-0.0945386,0.0264398,0.0264398,-0.0502677,-2.61074e-10,-7.94552e-06,-5.04092e-06,0.0435474,0.026792432496640206,-2.6107405126651884e-10,-7.945488434413228e-06,0.026792432496640206,-5.040907294584507e-06,-0.049025185535151006
64,0.054585,674.843,709.016,0.578902,-0.0230416,0.0894541,0.0119515,0.0269267,0.0269267,-0.0512289,-1.69814e-10,-7.31926e-06,-3.62657e-06,0.0444106,0.027292499463446473,-1.6981405170923836e-10,-7.319233214286847e-06,0.027292499463446473,-3.6265634240084665e-06,-0.04993882336213207
65,0.055585,675.692,709.97,-0.602529,-0.030216,0.0167459,-0.13105,0.0274133,0.0274133,-0.0522017,-3.01607e-10,-8.43767e-06,-5.69173e-06,0.0452806,0.027792501634347655,-3.0160696162795375e-10,-8.43763440294687e-06,0.027792501634347655,-5.691713802158382e-06,-0.05086259348013
66,0.056585,677.796,712.177,-0.486576,-0.0350851,0.0240579,-0.116682,0.0278996,0.0278996,-0.0531666,-3.02373e-10,-8.53237e-06,-5.7457e-06,0.046146,0.028292438677732124,-3.023730155149451e-10,-8.532333599431396e-06,0.028292438677732124,-5.745683493540987e-06,-0.05177797446710308
67,0.057585,680.53,715.014,0.294404,-0.0318079,0.0726691,-0.0218644,0.0283857,0.0283857,-0.0541273,-2.21293e-10,-8.00789e-06,-4.56038e-06,0.0470088,0.028792413141121687,-2.2129298393736008e-10,-8.007857936975782e-06,0.028792413141121687,-4.560369601502856e-06,-0.05268849392897912
68,0.058585,681.759,716.344,-0.411875,-0.0356753,0.0290816,-0.107126,0.0288716,0.0288716,-0.0550962,-3.03684e-10,-8.73095e-06,-5.84121e-06,0.0478765,0.02929242484267225,-3.036839668624225e-10,-8.730911885357351e-06,0.02929242484267225,-5.841192940114759e-06,-0.053605899538294643
69,0.059585,684.721,719.406,0.655993,-0.0288734,0.0956348,0.0224537,0.0293573,0.0293573,-0.0560544,-1.91033e-10,-7.93278e-06,-4.11368e-06,0.0487378,0.029792473600428693,-1.9103296722278174e-10,-7.932748535610656e-06,0.029792473600428693,-4.113671538852337e-06,-0.05451230003952623
70,0.060585,685.227,720.01,-0.72311,-0.03605,0.0100772,-0.144237,0.0298427,0.0298427,-0.0570266,-3.45273e-10,-9.22043e-06,-6.5059e-06,0.0496073,0.030292456203075302,-3.452730323871833e-10,-9.220387491959414e-06,0.030292456203075302,-6.505878836660095e-06,-0.05543105650154623
71,0.061585,687.249,722.126,-0.550135,-0.0404095,0.0209581,-0.123006,0.0303279,0.0303279,-0.0579894,-3.40421e-10,-9.27034e-06,-6.48628e-06,0.0504712,0.030792475397672048,-3.40421024702664e-10,-9.270297030572472e-06,0.030792475397672048,-6.486258964155667e-06,-0.056340049820744253
72,0.062585,689.911,724.884,0.295246,-0.0362019,0.0739194,-0.0205688,0.0308128,0.0308128,-0.0589478,-2.51667e-10,-8.6839e-06,-5.20268e-06,0.0513325,0.031292427872673834,-2.516670205565674e-10,-8.683862295022493e-06,0.031292427872673834,-5.20266646608647e-06,-0.057244020265165396
73,0.063585,690.983,726.049,-0.437123,-0.0394409,0.0283811,-0.108867,0.0312975,0.0312975,-0.0599151,-3.37163e-10,-9.42744e-06,-6.52426e-06,0.0521989,0.03179241647491282,-3.37162964214599e-10,-9.427395561867336e-06,0.03179241647491282,-6.524238717053876e-06,-0.05815550721262985
74,0.064585,693.859,729.02,0.673788,-0.0318301,0.0980739,0.0257573,0.031782,0.031782,-0.0608712,-2.18905e-10,-8.58088e-06,-4.72732e-06,0.0530588,0.03229244102186013,-2.1890500523369383e-10,-8.58084318433594e-06,0.03229244102186013,-4.72730882628003e-06,-0.05905557438650677
75,0.065585,695.299,730.553,0.361555,-0.0282806,0.0784816,-0.0124088,0.0322663,0.0322663,-0.0618351,-2.45338e-10,-8.89637e-06,-5.19014e-06,0.0539233,0.032792501330876966,-2.453379721600868e-10,-8.896330427443644e-06,0.032792501330876966,-5.190126531218198e-06,-0.05996211374152438
76,0.066585,696.751,732.095,0.082979,-0.0278123,0.0612289,-0.0458756,0.0327503,0.0327503,-0.0627986,-2.73591e-10,-9.21566e-06,-5.67324e-06,0.0547873,0.033292493889959696,-2.7359103871305024e-10,-9.215617535973664e-06,0.033292493889959696,-5.673223907209923e-06,-0.06086740405129354
77,0.067585,698.575,734.008,0.20146,-0.0262933,0.0688169,-0.0314485,0.033234,0.033234,-0.0637593,-2.62012e-10,-9.20629e-06,-5.52088e-06,0.0556498,0.033792418366241916,-2.6201196767772217e-10,-9.206247622239871e-06,0.033792418366241916,-5.520864760022448e-06,-0.06176919549134452
78,0.068585,700.016,735.536,-0.0440059,-0.0272477,0.0535359,-0.0610003,0.0337176,0.0337176,-0.0647218,-2.89488e-10,-9.51413e-06,-5.99045e-06,0.0565131,0.03429248128523188,-2.8948798913575047e-10,-9.514084740813722e-06,0.03429248128523188,-5.990432057290107e-06,-0.06267180818864138
79,0.069585,701.968,737.574,0.246104,-0.0253616,0.0719493,-0.0258022,0.0342009,0.0342009,-0.0656808,-2.60729e-10,-9.36063e-06,-5.56416e-06,0.0573744,0.03479247565534416,-2.6072899395046534e-10,-9.36058618938862e-06,0.03479247565534416,-5.564144520131542e-06,-0.06357027504087431
80,0.070585,703.222,738.914,-0.145739,-0.0273417,0.0474096,-0.0730026,0.034684,0.034684,-0.0666433,-3.03715e-10,-9.79538e-06,-6.28349e-06,0.0582377,0.03529250467261735,-3.03715053107112e-10,-9.795332025386294e-06,0.03529250467261735,-6.283470258883206e-06,-0.06447115503310274
81,0.071585,705.351,741.127,0.362962,-0.0243331,0.0796582,-0.011398,0.0351668,0.0351668,-0.0676003,-2.52544e-10,-9.45099e-06,-5.49216e-06,0.0590976,0.03579246457448204,-2.5254398572371883e-10,-9.45094533955082e-06,0.03579246457448204,-5.492144918073372e-06,-0.0653660278727849
82,0.072585,706.294,742.152,-0.302769,-0.0278539,0.0377668,-0.0916367,0.0356494,0.0356494,-0.0685636,-3.23904e-10,-1.01215e-05,-6.66999e-06,0.0599612,0.03629245865675368,-3.239040147207106e-10,-1.0121448777766773e-05,0.03629245865675368,-6.6699677556680825e-06,-0.0662659272720012
83,0.073585,708.742,744.682,0.565466,-0.0228895,0.0928321,0.0133939,0.0361318,0.0361318,-0.0695177,-2.36277e-10,-9.46265e-06,-5.27602e-06,0.0608193,0.03679248673588553,-2.3627699796691104e-10,-9.462605229271226e-06,0.03679248673588553,-5.276006081800233e-06,-0.06715637809367792
84,0.074585,709.187,745.207,-0.564019,-0.0289555,0.0215101,-0.122745,0.0366139,0.0366139,-0.0704829,2.77841e-10,-1.0534e-05,-7.22864e-06,0.0616839,0.037292444898972876,2.778410834736178e-10,-1.0533944517665539e-05,0.037292444898972876,-7.2286138734778405e-06,-0.06805632437360054
85,0.075585,710.873,746.971,-0.426489,-0.0327989,0.0303122,-0.105942,0.0370958,0.0370958,-0.0714405,-3.51744e-10,-1.05771e-05,-7.21879e-06,0.0625439,0.037792436591491896,-3.5174396728621105e-10,-1.057704406270954e-05,0.037792436591491896,-7.2187639446053e-06,-0.06894832647860882
86,0.076585,713.072,749.249,0.245216,-0.0299646,0.0731137,-0.0247219,0.0375775,0.0375775,-0.0723945,-2.85508e-10,-1.01086e-05,-6.21214e-06,0.0634017,0.038292461629559904,-2.8550795061477174e-10,-1.010854890826085e-05,0.038292461629559904,-6.212120704729429e-06,-0.0698361262273347
87,0.077585,714.026,750.28,-0.319263,-0.0326495,0.0374318,-0.0925862,0.0380589,0.0380589,-0.0733553,-3.47368e-10,-1.06972e-05,-7.2359e-06,0.0642634,0.038792415949937986,-3.47368023234651e-10,-1.0697142785121017e-05,0.038792415949937986,-7.235873820898853e-06,-0.07072939848054738
88,0.078585,716.358,752.69,0.520324,-0.0273192,0.0909593,0.0088829,0.0385402,0.0385402,-0.0743076,-2.62837e-10,-1.00578e-05,-5.89802e-06,0.06512,0.03929250707701071,-2.628369744073211e-10,-1.005774942053339e-05,0.03929250707701071,-5.898002606752328e-06,-0.07161392164182512
89,0.079585,716.801,753.209,-0.523813,-0.0321924,0.0246808,-0.116843,0.0390211,0.0390211,-0.0752704,4.03485e-10,-1.10551e-05,-7.70504e-06,0.0659828,0.03979242303882269,4.0348502317044677e-10,-1.1055038892648916e-05,0.03979242303882269,-7.705010316216843e-06,-0.07250734159668659
90,0.080585,718.4,754.881,-0.39061,-0.0350885,0.0332468,-0.100599,0.0395019,0.0395019,-0.076226,-3.68425e-10,-1.10912e-05,-7.68845e-06,0.0668412,0.04029247543878367,-3.6842495720890156e-10,-1.109113849284693e-05,0.04029247543878367,-7.688420443963118e-06,-0.07339323023605082
91,0.081585,720.465,757.02,0.228011,-0.0319847,0.0728707,-0.0258397,0.0399824,0.0399824,-0.0771783,-3.07776e-10,-1.06594e-05,-6.7657e-06,0.0676976,0.040792456083962314,-3.077760268865859e-10,-1.0659343188779147e-05,0.040792456083962314,-6.765677112663404e-06,-0.07427521783784607
92,0.082585,721.391,758.02,-0.283717,-0.0339136,0.0403636,-0.0873068,0.0404627,0.0404627,-0.0781368,-3.63351e-10,-1.11984e-05,-7.69631e-06,0.0685575,0.04129246876905346,-3.6335101594175967e-10,-1.1198337298123917e-05,0.04129246876905346,-7.696280383440168e-06,-0.07516209993540335
93,0.083585,723.563,760.266,0.474235,-0.0287445,0.0889256,0.00422641,0.0409428,0.0409428,-0.0790874,-2.87377e-10,-1.06222e-05,-6.49471e-06,0.0694128,0.041792513309396595,-2.873770110767282e-10,-1.0622143584604338e-05,0.041792513309396595,-6.494688909453039e-06,-0.07604083311515286
94,0.084585,724.04,760.814,-0.460179,-0.0326789,0.0293259,-0.108196,0.0414226,0.0414226,-0.0800476,-3.84833e-10,-1.15225e-05,-8.11384e-06,0.0702736,0.042292485290969406,-3.848330543121392e-10,-1.1522433616240058e-05,0.042292485290969406,-8.11380708287679e-06,-0.07692759290568874
95,0.085585,725.544,762.389,-0.346091,-0.0349706,0.0367061,-0.094287,0.0419022,0.0419022,-0.0810012,3.97732e-10,-1.15628e-05,-8.11105e-06,0.0711304,0.04279248865813834,3.9773206950144413e-10,-1.1562733151060378e-05,0.04279248865813834,-8.111017105516538e-06,-0.07780741518715772
96,0.086585,727.478,764.393,0.213877,-0.0319241,0.0727502,-0.02664,0.0423815,0.0423815,-0.0819519,-3.27082e-10,-1.11729e-05,-7.27964e-06,0.0719854,0.04329241889666302,-3.2708202812870013e-10,-1.1172837583339756e-05,0.04329241889666302,-7.279613503441418e-06,-0.07868372705668891
97,0.087585,728.382,765.366,-0.247926,-0.0334135,0.0432809,-0.0820649,0.0428607,0.0428607,-0.082908,-3.76632e-10,-1.16644e-05,-8.12193e-06,0.0728436,0.04379248442993089,-3.7663194785153564e-10,-1.1664331971195097e-05,0.04379248442993089,-8.121897017265844e-06,-0.0795641765792855
98,0.088585,730.406,767.46,0.430294,-0.0286393,0.0869358,-0.000215189,0.0433396,0.0433396,-0.0838571,-3.09133e-10,-1.11505e-05,-7.05272e-06,0.0736975,0.044292476364237165,-3.091330524895852e-10,-1.1150437833395976e-05,0.044292476364237165,-7.052695129683428e-06,-0.0804373477903505
99,0.089585,730.917,768.039,-0.399794,-0.0319066,0.0337547,-0.100009,0.0438183,0.0438183,-0.0848146,-3.948e-10,-1.19578e-05,-8.49388e-06,0.0745563,0.04479249884350467,-3.947999704934091e-10,-1.195772850581811e-05,0.04479249884350467,-8.493843927093181e-06,-0.08131740763395412
100,0.090585,733.302,770.492,0.666768,-0.0252326,0.102463,0.0286256,0.0442967,0.0442967,-0.0857606,3.29469e-10,-1.10977e-05,-6.77183e-06,0.0754082,0.04529244715305181,3.2946889660934175e-10,-1.1097638420776157e-05,0.04529244715305181,-6.771807071204172e-06,-0.08218607042405102
101,0.091585,733.273,770.53,-0.680391,-0.0314269,0.0159473,-0.133333,0.0447749,0.0447749,-0.0867203,-4.2623e-10,-1.2358e-05,-9.07058e-06,0.076268,0.04579242553658425,-4.262300512536399e-10,-1.2357923640182733e-05,0.04579242553658425,-9.070538862454569e-06,-0.08306647392307331
102,0.092585,734.784,772.105,-0.468343,-0.034788,0.0296353,-0.107666,0.0452529,0.0452529,-0.0876706,-4.14876e-10,-1.23264e-05,-8.94773e-06,0.0771222,0.046292433808447386,-4.1487602242540333e-10,-1.2326324030254021e-05,0.046292433808447386,-8.947689969174277e-06,-0.0839374219564023
103,0.093585,736.758,774.145,0.222714,-0.0315766,0.0743302,-0.0243819,0.0457307,0.0457307,-0.0886176,-3.48146e-10,-1.18197e-05,-7.91436e-06,0.0779744,0.04679247178288026,-3.4814595650800584e-10,-1.1819630147624771e-05,0.04679247178288026,-7.914328681524196e-06,-0.08480452258086191
104,0.094585,737.506,774.957,-0.307539,-0.0334745,0.0402684,-0.0879611,0.0462082,0.0462082,-0.0895713,-4.04141e-10,-1.23701e-05,-8.87205e-06,0.0788305,0.04729243454476628,-4.0414105395569777e-10,-1.237002349063765e-05,0.04729243454476628,-8.8720106434792e-06,-0.08567692843482078
105,0.095585,739.555,777.072,0.482827,-0.0281392,0.0914134,0.00730755,0.0466855,0.0466855,-0.0905168,-3.26173e-10,-1.17492e-05,-7.61786e-06,0.0796816,0.04779242653737148,-3.2617297751613705e-10,-1.1749130978455646e-05,0.04779242653737148,-7.617830984130158e-06,-0.08654101233894784
106,0.096585,739.861,777.441,-0.468601,-0.0318982,0.0300804,-0.106976,0.0471626,0.0471626,-0.0914722,4.12079e-10,-1.26617e-05,-9.25665e-06,0.0805384,0.048292447574606046,4.120790375594652e-10,-1.2661619841036753e-05,0.048292447574606046,-9.256607157337449e-06,-0.0874133142907646
107,0.097585,741.234,778.876,-0.336216,-0.0339157,0.0386983,-0.0909153,0.0476395,0.0476395,-0.0924208,-4.16996e-10,-1.26738e-05,-9.21661e-06,0.0813912,0.0487924974702747,-4.1699599329092507e-10,-1.2673719687716911e-05,0.0487924974702747,-9.216567527170483e-06,-0.08827858355873075
108,0.098585,742.994,780.698,0.196278,-0.0309812,0.0733077,-0.0266959,0.0481161,0.0481161,-0.0933666,-3.66165e-10,-1.22932e-05,-8.42844e-06,0.0822422,0.04929247110882318,-3.661649872199746e-10,-1.2293124438955694e-05,0.04929247110882318,-8.428404480786966e-06,-0.08914048201836933
109,0.099585,743.796,781.562,-0.222797,-0.0321054,0.0462936,-0.076906,0.0485925,0.0485925,-0.0943176,-4.0977e-10,-1.27402e-05,-9.19297e-06,0.0830962,0.04979247313308499,-4.097699957128498e-10,-1.274011884400128e-05,0.04979247313308499,-9.192927744816615e-06,-0.09000629765937884
110,0.1006,745.615,783.443,0.390319,-0.027708,0.0861377,-0.00302922,0.0490687,0.0490687,-0.0952622,-3.49853e-10,-1.22688e-05,-8.23135e-06,0.0839462,0.05029250335653801,-3.498530354306695e-10,-1.2268724738584424e-05,0.05029250335653801,-8.231316122486732e-06,-0.09086547185875082
111,0.1016,746.081,783.97,-0.345,-0.0303188,0.0385667,-0.0912879,0.0495446,0.0495446,-0.0962141,-4.23601e-10,-1.29888e-05,-9.50723e-06,0.0848006,0.05079245651330311,-4.236010431313275e-10,-1.2988715645922966e-05,0.05079245651330311,-9.507184806412106e-06,-0.09173046525716533
112,0.1026,748.195,786.144,0.585263,-0.0244566,0.0990606,0.0207316,0.0500203,0.0500203,-0.097156,-3.32985e-10,-1.22317e-05,-8.01317e-06,0.0856489,0.05129243739589118,-3.329849729283296e-10,-1.2231625193037665e-05,0.05129243739589118,-8.013137894669065e-06,-0.09258556156111686
113,0.1036,748.223,786.232,-0.570457,-0.0294412,0.0241318,-0.118006,0.0504958,0.0504958,-0.0981096,-4.47563e-10,-1.33229e-05,-9.98433e-06,0.086504,0.051792445817454125,-4.4756298667181227e-10,-1.3322811250549016e-05,0.051792445817454125,-9.98428015674957e-06,-0.09345045952072362
114,0.1046,749.572,787.639,-0.389008,-0.0320971,0.0359597,-0.0960768,0.0509711,0.0509711,-0.0990551,-4.37764e-10,-1.32947e-05,-9.88006e-06,0.0873541,0.05229248159103905,-4.377640472341682e-10,-1.329461162591361e-05,0.05229248159103905,-9.880011192398008e-06,-0.09430719702476686
115,0.1056,751.312,789.438,0.195626,-0.0293187,0.0741291,-0.0256791,0.0514461,0.0514461,-0.0999977,-3.82713e-10,-1.28634e-05,-9.01156e-06,0.0882026,0.05279243925033872,-3.82712972424315e-10,-1.2863317266798013e-05,0.05279243925033872,-9.0115193960294e-06,-0.09516050083558569
116,0.1066,752.025,790.209,-0.243047,-0.0307042,0.0456956,-0.0781939,0.0519209,0.0519209,-0.100946,-4.27475e-10,-1.33255e-05,-9.8078e-06,0.0890542,0.05329242378743104,-4.2747505535345454e-10,-1.3325411215903138e-05,0.05329242378743104,-9.807751903734285e-06,-0.09601815341240194
117,0.1076,753.808,792.049,0.403192,-0.0263047,0.0878921,-0.000400092,0.0523955,0.0523955,-0.101887,-3.6518e-10,-1.28173e-05,-8.79141e-06,0.0899017,0.053792435015039386,-3.6517999735252715e-10,-1.2817217858729357e-05,0.053792435015039386,-8.791371355676425e-06,-0.09686840022617527
118,0.1086,754.177,792.476,-0.361483,-0.0290937,0.0381622,-0.0921131,0.0528699,0.0528699,-0.102837,4.93803e-10,-1.35614e-05,-1.01126e-05,0.0907537,0.054292472745782305,4.938029984913328e-10,-1.3561308044640619e-05,0.054292472745782305,-1.0112548867846627e-05,-0.09772596783684906
119,0.1096,756.254,794.61,0.598556,-0.0232176,0.100891,0.023392,0.053344,0.053344,-0.103775,-3.48212e-10,-1.2769e-05,-8.5693e-06,0.0915995,0.05479243131292466,-3.4821201477797104e-10,-1.2768918476679936e-05,0.05479243131292466,-8.569263283630946e-06,-0.09857190407289906
120,0.1106,756.191,794.603,-0.583034,-0.0283006,0.0238991,-0.118343,0.0538179,0.0538179,-0.104726,-4.63175e-10,-1.3883e-05,-1.0579e-05,0.0924522,0.05529241590811651,-4.631750538663937e-10,-1.3882903631579069e-05,0.05529241590811651,-1.0578944042549665e-05,-0.09942875469507684
121,0.1116,757.49,795.956,-0.387522,-0.0309454,0.036692,-0.0947581,0.0542916,0.0542916,-0.105669,-4.51939e-10,-1.38367e-05,-1.04494e-05,0.0932999,0.055792426343654,-4.519390417456748e-10,-1.3836604273342878e-05,0.055792426343654,-1.0449345405172394e-05,-0.10027759308919415
122,0.1126,759.156,797.678,0.186248,-0.0283074,0.0743261,-0.0257269,0.0547651,0.0547651,-0.106608,-3.98725e-10,-1.34078e-05,-9.59792e-06,0.0941459,0.05629246243172914,-3.9872505297466887e-10,-1.3407710115820315e-05,0.05629246243172914,-9.597873940059287e-06,-0.10112203590133628
123,0.1136,759.827,798.404,-0.231836,-0.0295958,0.047096,-0.0757346,0.0552383,0.0552383,-0.107554,-4.40531e-10,-1.38484e-05,-1.03571e-05,0.094995,0.056792418305182224,-4.40530945056139e-10,-1.38483041113302e-05,0.056792418305182224,-1.0357046365427891e-05,-0.10197197237203781
124,0.1146,761.519,800.151,0.384377,-0.0254281,0.0875177,-0.00161084,0.0557114,0.0557114,-0.108492,-3.81981e-10,-1.33597e-05,-9.38984e-06,0.0958401,0.05729250508448258,-3.8198100238417965e-10,-1.3359610759655638e-05,0.05729250508448258,-9.389795915581978e-06,-0.10281392772316067
125,0.1156,761.872,800.557,-0.336622,-0.027972,0.0404075,-0.0880185,0.0561842,0.0561842,-0.109438,-4.51525e-10,-1.40631e-05,-1.06353e-05,0.0966895,0.05779251117301154,-4.5152503957979206e-10,-1.4063001115061091e-05,0.05779251117301154,-1.0635243445356046e-05,-0.10366226442101067
126,0.1166,763.828,802.568,0.561523,-0.0224989,0.0993594,0.019959,0.0566567,0.0566567,-0.110375,-3.66549e-10,-1.33176e-05,-9.19461e-06,0.097533,0.058292436232535216,-3.6654901336419243e-10,-1.3317511321164766e-05,0.058292436232535216,-9.194567729742253e-06,-0.10450173952374309
127,0.1176,763.792,802.584,-0.5343,-0.0270905,0.0276273,-0.111393,0.0571291,0.0571291,-0.111322,-4.71176e-10,-1.43548e-05,-1.10583e-05,0.098383,0.058792491683209436,-4.711759871156573e-10,-1.4354696970309e-05,0.058792491683209436,-1.1058238857275526e-05,-0.10534937495768892
128,0.1186,765.019,803.863,-0.353366,-0.0294655,0.0395217,-0.0895813,0.0576012,0.0576012,-0.112262,5.38116e-10,-1.43107e-05,-1.09387e-05,0.0992282,0.05929246562809665,5.381159962070114e-10,-1.4310597602373853e-05,0.05929246562809665,-1.0938640172653002e-05,-0.10618995141240051
129,0.1196,766.585,805.481,0.17516,-0.0270287,0.074347,-0.0260191,0.0580731,0.0580731,-0.113199,-4.12544e-10,-1.39136e-05,-1.01566e-05,0.100072,0.059792463707894816,-4.125439989621782e-10,-1.3913503206341993e-05,0.059792463707894816,-1.01565484219579e-05,-0.10702705918169098
130,0.1206,767.237,806.185,-0.205505,-0.0281361,0.0494453,-0.0715138,0.0585448,0.0585448,-0.114141,-4.49767e-10,-1.43171e-05,-1.08497e-05,0.100918,0.0602924857339493,-4.4976700142029813e-10,-1.4316997510865903e-05,0.0602924857339493,-1.0849641142174349e-05,-0.10786784362029778
131,0.1216,768.816,807.816,0.352165,-0.0243603,0.0861877,-0.0044733,0.0590162,0.0590162,-0.115077,-3.97587e-10,-1.38738e-05,-9.97811e-06,0.101761,0.06079242543825458,-3.975869633521256e-10,-1.3873703759270661e-05,0.06079242543825458,-9.978060218851503e-06,-0.10870248864386234
132,0.1226,769.189,808.24,-0.294443,-0.0265496,0.0437565,-0.0819054,0.0594875,0.0594875,-0.11602,-4.58694e-10,-1.45087e-05,-1.10974e-05,0.102608,0.0612924947404383,-4.586939716944016e-10,-1.4508594749274017e-05,0.0612924947404383,-1.1097338424082004e-05,-0.10954258602889944
133,0.1236,770.994,810.097,0.504596,-0.0216833,0.0964292,0.0140945,0.0599585,0.0599585,-0.116953,-3.84257e-10,-1.38445e-05,-9.82046e-06,0.103449,0.061792481243039266,-3.842569595846612e-10,-1.384440416529742e-05,0.061792481243039266,-9.820411779437599e-06,-0.11037299534994771
134,0.1246,771.034,810.186,-0.462382,-0.0256172,0.0328626,-0.101731,0.0604293,0.0604293,-0.117897,-4.7477e-10,-1.47658e-05,-1.14676e-05,0.104296,0.06229249083623101,-4.747700010909739e-10,-1.4765690986129343e-05,0.06229249083623101,-1.1467534247300293e-05,-0.11121240697771329
135,0.1256,773.201,812.404,0.714479,-0.019097,0.110503,0.0396084,0.0608998,0.0608998,-0.118828,4.40675e-10,-1.37595e-05,-9.56373e-06,0.105136,0.06279241705158922,4.4067505200473533e-10,-1.3759405338542585e-05,0.06279241705158922,-9.563684267632766e-06,-0.11203948316311296
136,0.1266,772.77,812.022,-0.711319,-0.0254388,0.0166414,-0.13116,0.0613702,0.0613702,-0.119774,-4.9862e-10,-1.5093e-05,-1.19687e-05,0.105984,0.06329247220832235,-4.986200341505764e-10,-1.5092886101242264e-05,0.06329247220832235,-1.1968628375380597e-05,-0.11287909661226392
137,0.1276,774.025,813.325,-0.437606,-0.0285601,0.0346749,-0.0982914,0.0618403,0.0618403,-0.120709,5.81292e-10,-1.49744e-05,-1.17256e-05,0.106825,0.06379244350855418,5.81291903500869e-10,-1.4974287884217397e-05,0.06379244350855418,-1.1725531255390997e-05,-0.11370816700612274
138,0.1286,775.604,814.953,0.169118,-0.0261797,0.0748341,-0.0254638,0.0623102,0.0623102,-0.121642,5.12076e-10,-1.45042e-05,-1.08244e-05,0.107666,0.06429243704203924,5.120759372090333e-10,-1.4504094814626889e-05,0.06429243704203924,-1.0824341416415528e-05,-0.11453469165260177
139,0.1296,776.172,815.569,-0.23384,-0.0274806,0.0483272,-0.073577,0.0627799,0.0627799,-0.12258,-4.65236e-10,-1.4926e-05,-1.15552e-05,0.108509,0.06479245261918343,-4.6523596086700536e-10,-1.4925888607852933e-05,0.06479245261918343,-1.1555133238916326e-05,-0.1153648686979285
140,0.1306,777.733,817.179,0.368744,-0.023556,0.0882227,-0.00121147,0.0632494,0.0632494,-0.123512,-4.09996e-10,-1.44348e-05,-1.06093e-05,0.109348,0.06529249005028981,-4.0999603712066346e-10,-1.443469581874357e-05,0.06529249005028981,-1.0609243721537709e-05,-0.11618896455198158
141,0.1316,778.006,817.5,-0.3172,-0.0258744,0.0429663,-0.0832909,0.0637186,0.0637186,-0.124452,-4.73184e-10,-1.51032e-05,-1.17908e-05,0.110192,0.06579244256630967,-4.731840475002969e-10,-1.5103085947210104e-05,0.06579244256630967,-1.1790730488736578e-05,-0.11701935657990503
142,0.1326,779.793,819.334,0.524088,-0.0208516,0.0986971,0.0176919,0.0641876,0.0641876,-0.125381,-3.96418e-10,-1.43919e-05,-1.04431e-05,0.11103,0.06629241645658612,-3.964180095294978e-10,-1.4391796437140947e-05,0.06629241645658612,-1.0443045471042467e-05,-0.11783926469135675
143,0.1336,779.732,819.321,-0.483008,-0.0248808,0.0321472,-0.102845,0.0646565,0.0646565,-0.126322,-4.88367e-10,-1.53488e-05,-1.2153e-05,0.111874,0.0667925182103557,-4.883670134958606e-10,-1.5348682207760866e-05,0.0667925182103557,-1.2152926152642074e-05,-0.11866898749747656
144,0.1346,781.878,821.514,0.730759,-0.0182591,0.112616,0.0427996,0.065125,0.065125,-0.127249,-3.78607e-10,-1.42985e-05,-1.01876e-05,0.11271,0.06729242759976795,-3.786070346123438e-10,-1.4298397776890681e-05,0.06729242759976795,-1.0187548106554978e-05,-0.11948560278640152
145,0.1356,782.391,822.075,0.311779,-0.0160099,0.0847159,-0.00780353,0.0655934,0.0655934,-0.128185,-4.09401e-10,-1.46723e-05,-1.0814e-05,0.113551,0.06779246447234888,-4.094009575794644e-10,-1.4672192362286118e-05,0.06779246447234888,-1.08139415289088e-05,-0.12030937867493541
146,0.1366,783.143,822.873,0.138378,-0.0154736,0.0733411,-0.0284104,0.0660615,0.0660615,-0.129119,-4.22527e-10,-1.48555e-05,-1.11028e-05,0.114391,0.06829241512929074,-4.2252701337730514e-10,-1.4855389657619789e-05,0.06829241512929074,-1.110273836413267e-05,-0.12113062613298842
147,0.1376,784.032,823.809,0.108764,-0.0152392,0.0714384,-0.031884,0.0665295,0.0665295,-0.130051,-4.24364e-10,-1.49213e-05,-1.11816e-05,0.11523,0.06879249298866297,-4.243639883938499e-10,-1.4921188677963215e-05,0.06879249298866297,-1.1181537486137927e-05,-0.12194935080447189
148,0.1386,784.897,824.719,0.0607404,-0.0154204,0.0683172,-0.0375441,0.0669972,0.0669972,-0.130984,-4.28279e-10,-1.50076e-05,-1.12998e-05,0.116069,0.06929248415145306,-4.282789678455856e-10,-1.500748738658686e-05,0.06929248415145306,-1.1299736157543983e-05,-0.12276819001228167
149,0.1396,785.832,825.7,0.0887558,-0.0153328,0.0702442,-0.0340861,0.0674647,0.0674647,-0.131916,-4.25624e-10,-1.5026e-05,-1.12952e-05,0.116907,0.06979249525628273,-4.25623980504497e-10,-1.502588711022046e-05,0.06979249525628273,-1.1295136209454881e-05,-0.12358538918522244
150,0.1406,786.69,826.602,0.0448091,-0.0156073,0.0673927,-0.0392458,0.0679319,0.0679319,-0.132847,-4.29355e-10,-1.51096e-05,-1.14107e-05,0.117746,0.07029241908317907,-4.293549960010523e-10,-1.5109485850595128e-05,0.07029241908317907,-1.1410634898179062e-05,-0.1244009514847324
151,0.1416,787.634,827.592,0.0934373,-0.0154315,0.0706912,-0.0333167,0.068399,0.068399,-0.133778,-4.2497e-10,-1.5109e-05,-1.13733e-05,0.118583,0.07079246944980411,-4.2496994812069033e-10,-1.5108885859649313e-05,0.07079246944980411,-1.1373235324296793e-05,-0.12521575484908076
152,0.1426,788.465,828.467,0.0339627,-0.0157568,0.0668036,-0.040334,0.0688658,0.0688658,-0.134709,-4.30041e-10,-1.5206e-05,-1.15146e-05,0.119421,0.07129243205673719,-4.300410028079682e-10,-1.5205884389413171e-05,0.07129243205673719,-1.151453370729083e-05,-0.12602979998450714
153,0.1436,789.42,829.466,0.104125,-0.0154489,0.0715368,-0.0318272,0.0693324,0.0693324,-0.135639,-4.23808e-10,-1.51849e-05,-1.14414e-05,0.120257,0.07179241374219081,-4.2380798870311764e-10,-1.5184784709965093e-05,0.07179241374219081,-1.1441334547446225e-05,-0.12684221443924537
154,0.1446,790.216,830.306,0.0202551,-0.0158592,0.0660207,-0.0417643,0.0697988,0.0697988,-0.136569,-4.30946e-10,-1.53033e-05,-1.16228e-05,0.121094,0.07229241431503008,-4.3094594559534016e-10,-1.530318290510202e-05,0.07229241431503008,-1.1622732455474072e-05,-0.12765387369976033
155,0.1456,791.19,831.323,0.119658,-0.0153865,0.0727046,-0.0297581,0.070265,0.070265,-0.137498,-4.22219e-10,-1.52546e-05,-1.1501e-05,0.12193,0.0727924335840191,-4.222190375102741e-10,-1.5254483649140838e-05,0.0727924335840191,-1.1500933863706209e-05,-0.12846390693239906
156,0.1466,791.941,832.117,0.0013813,-0.0159343,0.0648899,-0.0438126,0.070731,0.070731,-0.138428,-4.32253e-10,-1.54033e-05,-1.17389e-05,0.122766,0.07329247135782158,-4.3225301116223136e-10,-1.5403181369832986e-05,0.07329247135782158,-1.1738831099394886e-05,-0.129274058719979
157,0.1476,792.944,833.163,0.141449,-0.0152501,0.0742897,-0.0269403,0.0711967,0.0711967,-0.139355,-4.20087e-10,-1.53166e-05,-1.15496e-05,0.123601,0.07379242006575404,-4.2008696521378397e-10,-1.531648270147734e-05,0.07379242006575404,-1.1549533303623072e-05,-0.1300808476630957
158,0.1486,793.637,833.899,-0.0247459,-0.0160039,0.0632713,-0.0467279,0.0716623,0.0716623,-0.140284,-4.34133e-10,-1.55082e-05,-1.18664e-05,0.124437,0.07429249422476691,-4.3413295180982914e-10,-1.5508079748483006e-05,0.07429249422476691,-1.1866329594600877e-05,-0.13088862728388728
159,0.1496,794.686,834.991,0.171785,-0.0150402,0.0764462,-0.0230998,0.0721276,0.0721276,-0.141211,-4.17235e-10,-1.53689e-05,-1.15834e-05,0.125271,0.0747924788347285,-4.1723502430812687e-10,-1.5368781899116613e-05,0.0747924788347285,-1.1583332912734612e-05,-0.13169392021545367
160,0.1506,795.303,835.65,-0.060824,-0.0160902,0.0609838,-0.0508315,0.0725927,0.0725927,-0.14214,-4.36809e-10,-1.56203e-05,-1.20096e-05,0.126106,0.07529248108314412,-4.368090333883856e-10,-1.5620178003716845e-05,0.07529248108314412,-1.2009527885048499e-05,-0.1325002019877024
161,0.1516,796.42,836.809,0.213804,-0.0147511,0.079386,-0.0178599,0.0730576,0.0730576,-0.143065,-4.1342e-10,-1.54087e-05,-1.15973e-05,0.126939,0.0757925007781719,-4.1341996492860744e-10,-1.5408581286568968e-05,0.0757925007781719,-1.1597232751570097e-05,-0.13330226828801095
162,0.1526,796.936,837.367,-0.110472,-0.016217,0.0577849,-0.0565538,0.0735222,0.0735222,-0.143993,-4.40578e-10,-1.5743e-05,-1.21746e-05,0.127774,0.07629243009862186,-4.405780185123831e-10,-1.5742876079638535e-05,0.07629243009862186,-1.217452588986312e-05,-0.13410619070534424
163,0.1536,798.151,838.623,0.271746,-0.0143699,0.0833959,-0.0107111,0.0739867,0.0739867,-0.144917,-4.0832e-10,-1.5432e-05,-1.15841e-05,0.128606,0.07679248406094463,-4.083200444426893e-10,-1.5431880927341268e-05,0.07679248406094463,-1.158403290457688e-05,-0.13490590705927874
164,0.1546,798.531,839.044,-0.178541,-0.0164117,0.0533492,-0.0644705,0.0744509,0.0744509,-0.145845,6.12613e-10,-1.58808e-05,-1.23693e-05,0.129441,0.07729244716450423,6.126130713823841e-10,-1.5880673900792175e-05,0.07729244716450423,-1.2369223500563464e-05,-0.13570834199013282
165,0.1556,799.883,840.438,0.35131,-0.0138751,0.0888621,-0.00096733,0.0749149,0.0749149,-0.146767,-4.01513e-10,-1.54336e-05,-1.15344e-05,0.130271,0.07779242684630439,-4.0151304503410756e-10,-1.5433480902604657e-05,0.07779242684630439,-1.1534333479112924e-05,-0.1365048516514391
166,0.1566,800.083,840.678,-0.271504,-0.0167074,0.0472432,-0.0753475,0.0753787,0.0753787,-0.147696,-4.53139e-10,-1.60397e-05,-1.26042e-05,0.131106,0.07829242291400096,-4.5313897079068965e-10,-1.603957136464551e-05,0.07829242291400096,-1.2604120567361043e-05,-0.13730666614375664
167,0.1576,801.627,842.263,0.460127,-0.0132354,0.0963037,0.0122932,0.0758423,0.0758423,-0.148616,-3.92452e-10,-1.54064e-05,-1.14354e-05,0.131935,0.07879243517515055,-3.9245195981862935e-10,-1.5406281322016824e-05,0.07879243517515055,-1.1435334616116677e-05,-0.13809997903102122
168,0.1586,801.582,842.258,-0.397956,-0.0171452,0.0388922,-0.090198,0.0763057,0.0763057,-0.149545,-4.63199e-10,-1.62276e-05,-1.28933e-05,0.13277,0.07929246343721119,-4.631990346837256e-10,-1.6227468333185335e-05,0.07929246343721119,-1.2893216881804115e-05,-0.13890031233812028
169,0.1596,803.391,844.107,0.608392,-0.0124065,0.106417,0.0303063,0.0767689,0.0767689,-0.150463,-3.80431e-10,-1.5341e-05,-1.127e-05,0.133597,0.07979250750754141,-3.8043102001950047e-10,-1.5340882327463667e-05,0.07979250750754141,-1.1269936493807364e-05,-0.13969043912770918
170,0.1606,803.02,843.775,-0.569242,-0.0177768,0.0275396,-0.110352,0.0772318,0.0772318,-0.151393,-4.77005e-10,-1.64548e-05,-1.32551e-05,0.134432,0.08029245916415029,-4.770049910618468e-10,-1.6454664620524362e-05,0.08029245916415029,-1.325501215154734e-05,-0.14049015509375673
171,0.1616,804.053,844.847,-0.332544,-0.0204984,0.0434031,-0.0820111,0.0776945,0.0776945,-0.152314,-4.62592e-10,-1.63321e-05,-1.30296e-05,0.135262,0.08079242614344628,-4.6259196473386055e-10,-1.6331966631977224e-05,0.08079242614344628,-1.3029515115170476e-05,-0.14128139923705685
172,0.1626,805.308,846.141,0.130988,-0.0191398,0.0746111,-0.026474,0.0781571,0.0781571,-0.153234,-4.2582e-10,-1.59608e-05,-1.23466e-05,0.13609,0.08129251638173418,-4.258200458906458e-10,-1.5960672627102213e-05,0.08129251638173418,-1.2346523781014973e-05,-0.14207105705146694
173,0.1636,805.815,846.687,-0.152166,-0.0202229,0.0556735,-0.060168,0.0786194,0.0786194,-0.154157,5.68167e-10,-1.62611e-05,-1.28682e-05,0.136921,0.08179251347748107,5.681670689483553e-10,-1.6260967789061276e-05,0.08179251347748107,-1.2868117205022678e-05,-0.14286256013094523
174,0.1646,807.017,847.929,0.267708,-0.0177842,0.0839366,-0.00986161,0.0790814,0.0790814,-0.155076,-4.1513e-10,-1.59111e-05,-1.22186e-05,0.137749,0.08229241708754986,-4.1513004145343757e-10,-1.5910973419130947e-05,0.08229241708754986,-1.221852535315815e-05,-0.1436499075966109
175,0.1656,807.341,848.291,-0.190416,-0.0193233,0.0532132,-0.0645072,0.0795433,0.0795433,-0.156,5.75983e-10,-1.63655e-05,-1.30162e-05,0.138579,0.0827924434271956,5.759830390417164e-10,-1.636536608595751e-05,0.0827924434271956,-1.3016115289588015e-05,-0.14444080962898154
176,0.1666,808.659,849.648,0.353862,-0.0162918,0.0898626,0.000665687,0.080005,0.080005,-0.156918,-4.0784e-10,-1.58977e-05,-1.2156e-05,0.139406,0.08329248412383805,-4.078399840068414e-10,-1.5897573632184248e-05,0.08329248412383805,-1.2155926116141913e-05,-0.14522585257589826
177,0.1676,808.804,849.831,-0.275438,-0.0186764,0.047602,-0.0744297,0.0804664,0.0804664,-0.157842,-4.58398e-10,-1.65084e-05,-1.32344e-05,0.140237,0.08379243060479658,-4.5839798623603656e-10,-1.6508263737113893e-05,0.08379243060479658,-1.3234312425725037e-05,-0.14601529910765298
178,0.1686,810.302,851.368,0.457428,-0.0148838,0.0969741,0.0132833,0.0809277,0.0809277,-0.158757,-3.99198e-10,-1.58655e-05,-1.20616e-05,0.141062,0.08429249938503092,-3.991980079831592e-10,-1.586537414366429e-05,0.08429249938503092,-1.206152725918841e-05,-0.146796337729308
179,0.1696,810.219,851.322,-0.392765,-0.0183585,0.039815,-0.0881854,0.0813887,0.0813887,-0.159682,-4.67168e-10,-1.66792e-05,-1.35043e-05,0.141892,0.08479247346241747,-4.671679709744581e-10,-1.667906090296878e-05,0.08479247346241747,-1.3504208817405328e-05,-0.1475851862182357
180,0.1706,811.962,853.104,0.594163,-0.0135031,0.106343,0.0298941,0.0818495,0.0818495,-0.160595,-3.88132e-10,-1.58005e-05,-1.1911e-05,0.142716,0.08529246102247567,-3.881319710075104e-10,-1.580037517279198e-05,0.08529246102247567,-1.1910929064273823e-05,-0.14836308577803325
181,0.1716,811.579,852.758,-0.548898,-0.0183709,0.0294175,-0.106528,0.0823101,0.0823101,-0.16152,-4.79069e-10,-1.6884e-05,-1.38369e-05,0.143547,0.08579246187137857,-4.790690066869274e-10,-1.68838574661212e-05,0.08579246187137857,-1.3836804270583869e-05,-0.1491504856950837
182,0.1726,812.565,853.78,-0.314415,-0.020708,0.0452035,-0.0784794,0.0827705,0.0827705,-0.162437,-4.64851e-10,-1.67547e-05,-1.36064e-05,0.144373,0.08629247581520172,-4.648510465443678e-10,-1.675455964078587e-05,0.08629247581520172,-1.3606307433411402e-05,-0.14993035707402536
183,0.1736,813.748,855.0,0.121977,-0.0192786,0.0747202,-0.0262263,0.0832307,0.0832307,-0.163352,-4.31109e-10,-1.64004e-05,-1.29636e-05,0.145197,0.08679250265992411,-4.311090373576576e-10,-1.6400265514193713e-05,0.08679250265992411,-1.2963515972908013e-05,-0.15070781505603348
184,0.1746,814.235,855.524,-0.136429,-0.0200737,0.0573585,-0.0569441,0.0836906,0.0836906,-0.164271,-4.51939e-10,-1.66745e-05,-1.34413e-05,0.146024,0.0872924334821783,-4.519390417456748e-10,-1.667436098129471e-05,0.0872924334821783,-1.3441209666176235e-05,-0.15148795604430654
185,0.1756,815.358,856.684,0.247072,-0.017715,0.0832906,-0.0110257,0.0841504,0.0841504,-0.165186,6.20049e-10,-1.63513e-05,-1.28494e-05,0.146848,0.08779248549624152,6.200489011121135e-10,-1.63511663182625e-05,0.08779248549624152,-1.2849317446828046e-05,-0.15226398947508857
186,0.1766,815.683,857.046,-0.165834,-0.0189177,0.0554743,-0.0602317,0.0846099,0.0846099,-0.166105,-4.5362e-10,-1.67618e-05,-1.35701e-05,0.147674,0.08829244099930711,-4.5362003042725974e-10,-1.6761659521802308e-05,0.08829244099930711,-1.3570007926566596e-05,-0.15304270099601125
187,0.1776,816.901,858.3,0.320332,-0.0161075,0.0883584,-0.00205594,0.0850693,0.0850693,-0.167018,-4.14974e-10,-1.63405e-05,-1.28038e-05,0.148498,0.0887925174054578,-4.1497405511847774e-10,-1.6340366494782543e-05,0.0887925174054578,-1.2803718031695333e-05,-0.1538156201187323
188,0.1786,817.076,858.511,-0.236006,-0.0180436,0.0508309,-0.0683853,0.0855284,0.0855284,-0.167937,-4.58245e-10,-1.68825e-05,-1.37597e-05,0.149324,0.08929249681168949,-4.582449975032432e-10,-1.6882357491421196e-05,0.08929249681168949,-1.3759605335783576e-05,-0.15459290634611622
189,0.1796,818.441,859.913,0.405454,-0.0146552,0.0942377,0.00833506,0.0859873,0.0859873,-0.168849,5.87087e-10,-1.6316e-05,-1.27358e-05,0.150146,0.08979248785264615,5.870870456448074e-10,-1.631586689476716e-05,0.08979248785264615,-1.2735718900036552e-05,-0.15536356614124602
190,0.1806,818.429,859.936,-0.331397,-0.0175022,0.0444801,-0.0795316,0.086446,0.086446,-0.169768,-4.64785e-10,-1.70249e-05,-1.39895e-05,0.150972,0.09029249033362641,-4.647849882744026e-10,-1.7024755077255094e-05,0.09029249033362641,-1.3989402147362995e-05,-0.15613943045970247
191,0.1816,819.992,861.535,0.515398,-0.0133014,0.101812,0.0217087,0.0869045,0.0869045,-0.170678,-3.98662e-10,-1.62668e-05,-1.26255e-05,0.151792,0.09079250405983141,-3.9866199230687016e-10,-1.6266667696274162e-05,0.09079250405983141,-1.2625420298673085e-05,-0.156906994283476
192,0.1826,819.739,861.317,-0.455894,-0.0172737,0.0361608,-0.0941204,0.0873627,0.0873627,-0.171598,-4.73575e-10,-1.71927e-05,-1.42662e-05,0.152618,0.0912924197071201,-4.735749570272674e-10,-1.719255220633542e-05,0.0912924197071201,-1.4266098238291391e-05,-0.15768228316116784
193,0.1836,821.562,863.176,0.658452,-0.0119657,0.111654,0.0390702,0.0878208,0.0878208,-0.172505,5.69873e-10,-1.61849e-05,-1.24593e-05,0.153437,0.09179245528899349,5.698730376479944e-10,-1.6184769025207046e-05,0.09179245528899349,-1.2459222383243151e-05,-0.15844591896915128
194,0.1846,820.998,862.647,-0.617214,-0.0173476,0.0253543,-0.113051,0.0882787,0.0882787,-0.173426,-4.85247e-10,-1.73932e-05,-1.46024e-05,0.154264,0.09229250153112023,-4.852469537297566e-10,-1.7393048739156036e-05,0.09229250153112023,-1.4602293385457266e-05,-0.15922063346699245
195,0.1856,821.983,863.666,-0.336777,-0.0198043,0.0443127,-0.0795734,0.0887363,0.0887363,-0.174337,-4.6808e-10,-1.72195e-05,-1.43023e-05,0.155084,0.09279244895906835,-4.680800191891876e-10,-1.7219351745256795e-05,0.09279244895906835,-1.4302197722582122e-05,-0.15998623468559992
196,0.1866,823.131,864.848,0.110008,-0.0184522,0.0746759,-0.0261445,0.0891938,0.0891938,-0.175247,6.09872e-10,-1.68496e-05,-1.36427e-05,0.155904,0.09329251588605447,6.098719307345846e-10,-1.684945804625304e-05,0.09329251588605447,-1.3642606938812918e-05,-0.16075029950981412
197,0.1876,823.585,865.337,-0.134618,-0.0191771,0.0581566,-0.0551899,0.089651,0.089651,-0.17616,-4.5363e-10,-1.7108e-05,-1.40964e-05,0.156726,0.0937924835082069,-4.5363002243448136e-10,-1.7107853659048544e-05,0.0937924835082069,-1.4096300646193605e-05,-0.1615161848065222
198,0.1886,824.65,866.436,0.236326,-0.0168985,0.0833616,-0.0108139,0.090108,0.090108,-0.17707,-4.24886e-10,-1.67894e-05,-1.35229e-05,0.157546,0.09429246090930476,-4.2488601526002867e-10,-1.6789259058791473e-05,0.09429246090930476,-1.3522808566035494e-05,-0.1622788580094101
199,0.1896,824.951,866.772,-0.155066,-0.0179551,0.0568609,-0.0574112,0.0905648,0.0905648,-0.177984,-4.5434e-10,-1.71776e-05,-1.4206e-05,0.158367,0.09479244789378116,-4.5434001005872915e-10,-1.717745246587743e-05,0.09479244789378116,-1.4205899095287577e-05,-0.16304418532532694
200,0.1906,826.095,867.95,0.301896,-0.0152995,0.0879202,-0.00277554,0.0910214,0.0910214,-0.178892,-4.1907e-10,-1.67757e-05,-1.34853e-05,0.159186,0.09529244426597439,-4.1907000092322733e-10,-1.677555928869534e-05,0.09529244426597439,-1.348520907373807e-05,-0.1638037962894845
201,0.1916,826.265,868.154,-0.214674,-0.0169971,0.0529017,-0.0643055,0.0914778,0.0914778,-0.179805,-4.57762e-10,-1.72793e-05,-1.43736e-05,0.160007,0.09579244983012791,-4.5776205048753127e-10,-1.7279150713700453e-05,0.09579244983012791,-1.4373496700303967e-05,-0.1645668950158956
202,0.1926,827.535,869.458,0.374382,-0.01388,0.0929555,0.00608909,0.091934,0.091934,-0.180712,-4.12717e-10,-1.6753e-05,-1.34334e-05,0.160825,0.09629246439038974,-4.127169717094148e-10,-1.6752859669288966e-05,0.09629246439038974,-1.343330977232604e-05,-0.16532428931188048
203,0.1936,827.547,869.503,-0.294699,-0.0163535,0.047553,-0.0736221,0.09239,0.09239,-0.181625,-4.62666e-10,-1.73985e-05,-1.45734e-05,0.161646,0.0967924877508135,-4.6266601660960305e-10,-1.739834864700196e-05,0.0967924877508135,-1.4573293808495258e-05,-0.1660860004616873
204,0.1946,828.981,870.971,0.465586,-0.0125928,0.0992751,0.0171996,0.0928457,0.0928457,-0.18253,-4.05059e-10,-1.67113e-05,-1.33495e-05,0.162462,0.09729240998611166,-4.0505898635245785e-10,-1.6711160367055555e-05,0.09729240998611166,-1.3349410895813207e-05,-0.166840351236058
205,0.1956,828.793,870.817,-0.396893,-0.0159961,0.0406963,-0.0855605,0.0933013,0.0933013,-0.183444,-4.6921e-10,-1.75369e-05,-1.48089e-05,0.163283,0.09779245030863715,-4.692100041836511e-10,-1.7536746229507294e-05,0.09779245030863715,-1.48087903487637e-05,-0.16760151125191192
206,0.1966,830.439,872.495,0.581522,-0.0113682,0.107295,0.0312832,0.0937567,0.0937567,-0.184347,-3.95721e-10,-1.66447e-05,-1.32236e-05,0.164098,0.09829249884291702,-3.957210115146381e-10,-1.6644561477763276e-05,0.09829249884291702,-1.3223512568605322e-05,-0.16835282781676986
207,0.1976,830.001,872.09,-0.526379,-0.0159029,0.0319855,-0.100718,0.0942118,0.0942118,-0.185261,-4.77792e-10,-1.76996e-05,-1.50885e-05,0.164919,0.0987924455133764,-4.777920281640036e-10,-1.7699443363050626e-05,0.0987924455133764,-1.5088386169148649e-05,-0.16911260606059486
208,0.1986,830.904,873.025,-0.286723,-0.0179803,0.0482719,-0.0721136,0.0946668,0.0946668,-0.186168,-4.6349e-10,-1.75489e-05,-1.48344e-05,0.165735,0.09929250983209026,-4.6349002413847984e-10,-1.7548746019002692e-05,0.09929250983209026,-1.4834289970844239e-05,-0.1698658792658594
209,0.1996,831.954,874.108,0.103648,-0.0167793,0.0749326,-0.02544,0.0951215,0.0951215,-0.187073,-4.35078e-10,-1.72215e-05,-1.42585e-05,0.166551,0.09979247179404904,-4.3507797364839007e-10,-1.7221351710783317e-05,0.09979247179404904,-1.4258398348121482e-05,-0.17061681079735314
210,0.2006,832.399,874.586,-0.109192,-0.0173642,0.0604934,-0.0506818,0.095576,0.095576,-0.187981,-4.50844e-10,-1.74461e-05,-1.46554e-05,0.167368,0.1002924410818935,-4.50844028776487e-10,-1.744594781771802e-05,0.1002924410818935,-1.4655292610132875e-05,-0.17136954893831602
211,0.2016,833.372,875.591,0.20962,-0.0154046,0.0822584,-0.012563,0.0960303,0.0960303,-0.188885,-4.26786e-10,-1.71692e-05,-1.41647e-05,0.168183,0.10079241749892098,-4.2678605094437216e-10,-1.7169052610177538e-05,0.10079241749892098,-1.416459968106576e-05,-0.17211829238304832
212,0.2026,833.692,875.943,-0.12306,-0.0162448,0.0596309,-0.0521253,0.0964845,0.0964845,-0.189793,-4.50795e-10,-1.75002e-05,-1.47487e-05,0.169,0.10129251097758063,-4.5079495691879856e-10,-1.7500046872398478e-05,0.10129251097758063,-1.4748591238511466e-05,-0.1728696677975029
213,0.2036,834.724,877.008,0.261221,-0.0140082,0.0858722,-0.00620621,0.0969384,0.0969384,-0.190697,6.36483e-10,-1.71593e-05,-1.41453e-05,0.169814,0.10179250111249027,6.364830884564299e-10,-1.7159152779999687e-05,0.10179250111249027,-1.4145199955684085e-05,-0.17361705574756237
214,0.2046,834.942,877.258,-0.16851,-0.0153483,0.05661,-0.0573364,0.0973921,0.0973921,-0.191604,-4.52844e-10,-1.75802e-05,-1.48883e-05,0.170631,0.10229249778591365,-4.5284398453304675e-10,-1.758004546914549e-05,0.10229249778591365,-1.488818916983714e-05,-0.1743662452691913
215,0.2056,836.069,878.416,0.316221,-0.0127826,0.0897222,0.000554819,0.0978456,0.0978456,-0.192506,-4.16796e-10,-1.71439e-05,-1.41179e-05,0.171444,0.10279250080077373,-4.167960421241901e-10,-1.714375304417981e-05,0.10279250080077373,-1.4117800342883235e-05,-0.17511063114745784
216,0.2066,836.166,878.545,-0.228548,-0.0147124,0.0525906,-0.0642791,0.0982989,0.0982989,-0.193414,-4.55904e-10,-1.76724e-05,-1.50509e-05,0.17226,0.10329250995990091,-4.559039812335186e-10,-1.767224384408017e-05,0.10329250995990091,-1.5050786735804067e-05,-0.17585929075147877
217,0.2076,837.415,879.825,0.383782,-0.0116912,0.0944371,0.0088195,0.0987519,0.0987519,-0.194315,-4.1081e-10,-1.71153e-05,-1.40687e-05,0.173072,0.10379241468678457,-4.108100526423186e-10,-1.7115153534086325e-05,0.10379241468678457,-1.4068601036254513e-05,-0.1766015071118303
218,0.2086,837.364,879.806,-0.303606,-0.014308,0.0475436,-0.072999,0.0992048,0.0992048,-0.195222,-4.60021e-10,-1.77775e-05,-1.52375e-05,0.173888,0.10429243549256073,-4.600210212757361e-10,-1.777734198116221e-05,0.10429243549256073,-1.5237383909849633e-05,-0.1773479909632788
219,0.2096,838.766,881.239,0.467763,-0.0106795,0.100285,0.0190531,0.0996575,0.0996575,-0.196121,-4.03732e-10,-1.70698e-05,-1.39914e-05,0.174699,0.10479246185053492,-4.0373204779342586e-10,-1.7069654311807625e-05,0.10479246185053492,-1.3991302120874849e-05,-0.17808722278491163
220,0.2106,838.534,881.038,-0.396679,-0.01411,0.041265,-0.0838461,0.10011,0.10011,-0.197029,-4.65414e-10,-1.78984e-05,-1.54531e-05,0.175514,0.10529249356316517,-4.6541404064015524e-10,-1.7898239824565287e-05,0.10529249356316517,-1.5452980601460276e-05,-0.1788331808704008
221,0.2116,840.127,882.662,0.571972,-0.00969752,0.10753,0.0317165,0.100562,0.100562,-0.197926,-3.95337e-10,-1.70038e-05,-1.38797e-05,0.176324,0.10579219869510781,-3.953369853704203e-10,-1.7003655436220733e-05,0.10579219869510781,-1.3879603677380281e-05,-0.17956943724680874
222,0.2126,839.671,882.237,-0.51164,-0.0141032,0.0334915,-0.0972715,0.101014,0.101014,-0.198834,-4.72367e-10,-1.80386e-05,-1.57039e-05,0.17714,0.10629212974482383,-4.723670343764752e-10,-1.8038437305412103e-05,0.10629212974482383,-1.5703776694353522e-05,-0.18031405009239787
223,0.2136,841.501,884.098,0.700894,-0.00869899,0.116488,0.0473549,0.101466,0.101466,-0.199728,-3.85371e-10,-1.69129e-05,-1.37258e-05,0.177947,0.10679228681445085,-3.853709573675701e-10,-1.6912756977682797e-05,0.10679228681445085,-1.3725705801603816e-05,-0.18104652186794679
224,0.2146,840.77,883.398,-0.653131,-0.0142822,0.0239086,-0.113813,0.101918,0.101918,-0.200638,-4.81228e-10,-1.82026e-05,-1.59975e-05,0.178764,0.10729267000617315,-4.812279463806135e-10,-1.8202434333702833e-05,0.10729267000617315,-1.599737204072138e-05,-0.18179143054819247
225,0.2156,841.708,884.365,-0.331954,-0.0166906,0.0458321,-0.0755855,0.102369,0.102369,-0.201537,-4.62083e-10,-1.79771e-05,-1.56232e-05,0.179574,0.10779217162949539,-4.620830384993724e-10,-1.7976938412878063e-05,0.10779217162949539,-1.5623077958437648e-05,-0.1825266695126967
226,0.2166,842.74,885.427,0.0869459,-0.0156215,0.0745895,-0.0255919,0.102821,0.102821,-0.202435,-4.32924e-10,-1.76173e-05,-1.50025e-05,0.180383,0.10829300687130972,-4.329240299583148e-10,-1.7617144816295394e-05,0.10829300687130972,-1.500238746310334e-05,-0.1832604310552327
227,0.2176,843.152,885.869,-0.112838,-0.0161945,0.0609597,-0.0492481,0.103272,0.103272,-0.203336,-4.47038e-10,-1.78269e-05,-1.53773e-05,0.181194,0.10879295974830816,-4.4703796220346703e-10,-1.78267411017341e-05,0.10879295974830816,-1.5377181769915538e-05,-0.1839959819913951
228,0.2186,844.074,886.821,0.201181,-0.0143027,0.0825137,-0.0117432,0.103722,0.103722,-0.204234,-4.24256e-10,-1.75471e-05,-1.48916e-05,0.182003,0.10929202886232381,-4.242559636935539e-10,-1.7546946050495116e-05,0.10929202886232381,-1.4891489120705259e-05,-0.18472842468357764
229,0.2196,844.363,887.141,-0.116957,-0.0150471,0.0607511,-0.049533,0.104173,0.104173,-0.205135,-4.46091e-10,-1.78618e-05,-1.54497e-05,0.182814,0.10979243239985648,-4.4609105298576424e-10,-1.7861640479011065e-05,0.10979243239985648,-1.5449580654025574e-05,-0.18546265355316138
230,0.2206,845.331,888.138,0.247561,-0.0129261,0.0857781,-0.00601944,0.104623,0.104623,-0.206031,-4.19734e-10,-1.75313e-05,-1.48754e-05,0.183622,0.11029195137777714,-4.1973402531425563e-10,-1.7531146327631753e-05,0.11029195137777714,-1.4875289361837574e-05,-0.18619215215140128
231,0.2216,845.532,888.369,-0.153934,-0.0140965,0.0582846,-0.053736,0.105074,0.105074,-0.206932,-4.47221e-10,-1.79238e-05,-1.55699e-05,0.184433,0.1107928059820722,-4.472210379802277e-10,-1.7923639369699096e-05,0.1107928059820722,-1.5569778789692457e-05,-0.1869250627964858
232,0.2226,846.577,889.444,0.293123,-0.01173,0.0889891,-0.000396257,0.105524,0.105524,-0.207828,6.97617e-10,-1.75141e-05,-1.48578e-05,0.18524,0.11129277522940773,6.976170752182043e-10,-1.751394662907746e-05,0.11129277522940773,-1.4857689623393178e-05,-0.18765325166289126
233,0.2236,846.68,889.575,-0.202567,-0.0133917,0.0550157,-0.059322,0.105974,0.105974,-0.208728,-4.49113e-10,-1.79953e-05,-1.57081e-05,0.18605,0.11179296951353423,-4.4911296903649145e-10,-1.7995138085535878e-05,0.11179296951353423,-1.5707976628420717e-05,-0.1883840348346395
234,0.2246,847.822,890.747,0.347188,-0.0106872,0.0927887,0.00624299,0.106423,0.106423,-0.209622,-4.10158e-10,-1.74875e-05,-1.48253e-05,0.186856,0.11229227664290797,-4.1015801865995627e-10,-1.7487347094613526e-05,0.11229227664290797,-1.4825190105760555e-05,-0.1891092952677792
235,0.2256,847.807,890.761,-0.261841,-0.012901,0.051014,-0.0661666,0.106873,0.106873,-0.210523,-4.51712e-10,-1.80759e-05,-1.58633e-05,0.187666,0.11279292080388514,-4.5171200113713894e-10,-1.8075736631928407e-05,0.11279292080388514,-1.586317417856531e-05,-0.18983957875063007
236,0.2266,849.069,892.053,0.412506,-0.00974968,0.0973686,0.0142292,0.107322,0.107322,-0.211415,-4.04375e-10,-1.74489e-05,-1.47733e-05,0.188471,0.11329267701219892,-4.043749779469863e-10,-1.7448747768877837e-05,0.11329267701219892,-1.4773190875394526e-05,-0.19056191963445535
237,0.2276,848.912,891.925,-0.333369,-0.012594,0.0461691,-0.0744578,0.107771,0.107771,-0.212316,-4.55131e-10,-1.81669e-05,-1.6038e-05,0.18928,0.11379265766143343,-4.5513104396377457e-10,-1.8166734982894006e-05,0.11379265766143343,-1.603787139192736e-05,-0.19129089489219586
238,0.2286,850.32,893.361,0.491339,-0.00887434,0.102887,0.023835,0.10822,0.10822,-0.213206,-3.97746e-10,-1.73963e-05,-1.46981e-05,0.190084,0.11429286285238516,-3.9774594728925194e-10,-1.7396148685233648e-05,0.11429286285238516,-1.46979919835033e-05,-0.19201032580149868
239,0.2296,849.994,893.064,-0.419349,-0.0124489,0.0403303,-0.0844517,0.108668,0.108668,-0.214107,-4.59519e-10,-1.82707e-05,-1.6236e-05,0.190893,0.1147921778931611,-4.595189784240006e-10,-1.827053309177984e-05,0.1147921778931611,-1.6235868196878833e-05,-0.19273799663301494
240,0.2306,851.578,894.677,0.586205,-0.00802381,0.109521,0.0353659,0.109117,0.109117,-0.214996,-3.90132e-10,-1.73271e-05,-1.45953e-05,0.191696,0.11529283196946416,-3.901320377863726e-10,-1.732694988665351e-05,0.11529283196946416,-1.4595193489119751e-05,-0.19345533365046008
241,0.2316,851.05,894.177,-0.522354,-0.0124517,0.033322,-0.0964468,0.109565,0.109565,-0.215897,-4.65056e-10,-1.83895e-05,-1.64613e-05,0.192505,0.1157925950967682,-4.650559937147136e-10,-1.838933091413697e-05,0.1157925950967682,-1.6461164513592585e-05,-0.1941817031162577
242,0.2326,851.882,895.037,-0.265941,-0.0143901,0.0509297,-0.0659256,0.110013,0.110013,-0.21679,-4.50295e-10,-1.82062e-05,-1.61657e-05,0.19331,0.11629258216811311,-4.5029502349080985e-10,-1.8206034268164473e-05,0.11629258216811311,-1.6165569335813146e-05,-0.19490097765149617
243,0.2336,852.805,895.988,0.0835361,-0.0134776,0.075055,-0.0242199,0.110461,0.110461,-0.217681,-4.26782e-10,-1.79002e-05,-1.56473e-05,0.194113,0.11679279328384817,-4.267820541414835e-10,-1.790003979240673e-05,0.11679279328384817,-1.5647177581623595e-05,-0.1956180013988933
244,0.2346,853.208,896.419,-0.0847227,-0.0139273,0.0635166,-0.0441137,0.110908,0.110908,-0.218576,-4.37909e-10,-1.80753e-05,-1.59648e-05,0.194918,0.1172921112516978,-4.379090423611842e-10,-1.807513664275895e-05,0.1172921112516978,-1.5964672563262283e-05,-0.19633760121868715
245,0.2356,854.036,897.275,0.174062,-0.0123783,0.0813729,-0.0132225,0.111356,0.111356,-0.219467,-4.19716e-10,-1.78403e-05,-1.55661e-05,0.195722,0.11779277025678203,-4.197160397012567e-10,-1.7840140862812603e-05,0.11779277025678203,-1.5565978848885997e-05,-0.19705334550457054
246,0.2366,854.345,897.612,-0.0851199,-0.0129435,0.063554,-0.0439634,0.111803,0.111803,-0.220361,-4.36505e-10,-1.80965e-05,-1.60243e-05,0.196526,0.11829253531425565,-4.3650505432424325e-10,-1.8096336259376677e-05,0.11829253531425565,-1.6024171611617177e-05,-0.1977708590373518
247,0.2376,855.202,898.497,0.20797,-0.0112428,0.0837823,-0.00899626,0.11225,0.11225,-0.221251,7.55478e-10,-1.78263e-05,-1.55647e-05,0.197329,0.11879252381664629,7.554779024587788e-10,-1.782614111245362e-05,0.11879252381664629,-1.5564578870641554e-05,-0.19848452534419414
248,0.2386,855.447,898.77,-0.110779,-0.0121155,0.0618464,-0.0468238,0.112697,0.112697,-0.222145,-4.36621e-10,-1.81384e-05,-1.61204e-05,0.198133,0.11929273586385603,-4.366209616080141e-10,-1.8138235500231303e-05,0.11929273586385603,-1.612027006703265e-05,-0.19920075997395348
249,0.2396,856.357,899.707,0.239591,-0.0102622,0.0860351,-0.00504566,0.113143,0.113143,-0.223034,-4.12359e-10,-1.78127e-05,-1.55648e-05,0.198935,0.11979205176322005,-4.1235903580627564e-10,-1.781254135480026e-05,0.11979205176322005,-1.5564678869095516e-05,-0.19991235414786068
250,0.2406,856.533,899.911,-0.144034,-0.0114798,0.0596126,-0.0505857,0.11359,0.11359,-0.223928,-4.37204e-10,-1.81864e-05,-1.6228e-05,0.199738,0.12029271069929415,-4.3720405074054725e-10,-1.818623462845892e-05,0.12029271069929415,-1.6227868326668116e-05,-0.20062731286908575
251,0.2416,857.508,900.914,0.275987,-0.00941666,0.0886199,-0.000525863,0.114036,0.114036,-0.224816,-4.08435e-10,-1.77933e-05,-1.55563e-05,0.200539,0.12079247268690496,-4.0843495252573803e-10,-1.7793141700139792e-05,0.12079247268690496,-1.555617900139694e-05,-0.20133684073825953
252,0.2426,857.605,901.037,-0.183547,-0.011009,0.0569448,-0.0550881,0.114482,0.114482,-0.225708,-4.38178e-10,-1.82393e-05,-1.63454e-05,0.201342,0.12129245761807494,-4.381780494000509e-10,-1.8239133664943452e-05,0.12129245761807494,-1.6345266414696802e-05,-0.2020489306370108
253,0.2436,858.658,902.118,0.318782,-0.00867003,0.09165,0.00475764,0.114928,0.114928,-0.226595,-4.04118e-10,-1.77668e-05,-1.55364e-05,0.202142,0.12179266559225943,-4.0411796131678557e-10,-1.776664217134627e-05,0.12179266559225943,-1.5536279310723877e-05,-0.20275639942674306
254,0.2446,858.661,902.148,-0.22999,-0.0106759,0.0537966,-0.0604091,0.115373,0.115373,-0.227488,-4.39584e-10,-1.82979e-05,-1.64737e-05,0.202945,0.1222919744164217,-4.395840358384362e-10,-1.8297732594430016e-05,0.1222919744164217,-1.647356430933833e-05,-0.20346802017610022
255,0.2456,859.807,903.321,0.369067,-0.00799072,0.0952021,0.010936,0.115819,0.115819,-0.228373,-3.99348e-10,-1.77319e-05,-1.55034e-05,0.203744,0.12279262827452264,-3.9934799911378605e-10,-1.7731742790738636e-05,0.12279262827452264,-1.5503279822914884e-05,-0.20417263913836403
256,0.2466,859.702,903.242,-0.284367,-0.01046,0.0500986,-0.0666662,0.116264,0.116264,-0.229266,-4.41488e-10,-1.83631e-05,-1.66146e-05,0.204546,0.12329238218110206,-4.414879573033659e-10,-1.8362931399340532e-05,0.12329238218110206,-1.6614461978314843e-05,-0.2048829957501802
257,0.2476,860.957,904.524,0.427987,-0.00735247,0.099357,0.018147,0.116709,0.116709,-0.23015,-3.94064e-10,-1.76877e-05,-1.54553e-05,0.205344,0.12379235852765924,-3.940640036503851e-10,-1.7687543573563502e-05,0.12379235852765924,-1.5455180567447435e-05,-0.20558556859898536
258,0.2486,860.725,904.319,-0.347834,-0.0103465,0.0457711,-0.0739939,0.117154,0.117154,-0.231042,-4.43961e-10,-1.84361e-05,-1.67699e-05,0.206146,0.12429255741320167,-4.439609790907184e-10,-1.8435930056126537e-05,0.12429255741320167,-1.6769759386026095e-05,-0.20629387032226232
259,0.2496,862.108,905.729,0.496815,-0.00673319,0.104205,0.0265446,0.117599,0.117599,-0.231925,-3.88199e-10,-1.76329e-05,-1.539e-05,0.206942,0.12479297893678143,-3.8819902847819776e-10,-1.7632744541362655e-05,0.12479297893678143,-1.5389881574567887e-05,-0.20699440350385157
260,0.2506,861.73,905.378,-0.421679,-0.0103251,0.0407253,-0.0825417,0.118043,0.118043,-0.232817,-4.47087e-10,-1.85181e-05,-1.69418e-05,0.207745,0.12529249790443409,-4.4708703406115546e-10,-1.8517928541017525e-05,0.12529249790443409,-1.6941656488467238e-05,-0.2077014491067064
261,0.2516,863.263,906.937,0.576978,-0.00611384,0.109847,0.0363017,0.118487,0.118487,-0.233698,-3.81681e-10,-1.75659e-05,-1.53049e-05,0.20854,0.12579223870775236,-3.8168102012292593e-10,-1.7565745720427017e-05,0.12579223870775236,-1.5304782880587453e-05,-0.208399156744701
262,0.2526,862.716,906.416,-0.507328,-0.0103892,0.0348632,-0.0924745,0.118931,0.118931,-0.234591,-4.50956e-10,-1.86105e-05,-1.71325e-05,0.209342,0.126292201445253,-4.5095605027967167e-10,-1.8610326825707624e-05,0.126292201445253,-1.7132353239524e-05,-0.2091057407610094
263,0.2536,864.423,908.149,0.670066,-0.00547751,0.116397,0.0476119,0.119375,0.119375,-0.23547,-3.74434e-10,-1.74854e-05,-1.51973e-05,0.210136,0.1267923862154965,-3.744340393296852e-10,-1.7485247131299175e-05,0.1267923862154965,-1.5197184521587026e-05,-0.20980063136571792
264,0.2546,863.681,907.433,-0.606353,-0.0105352,0.0280771,-0.103973,0.119819,0.119819,-0.236363,-4.5567e-10,-1.87148e-05,-1.73447e-05,0.210938,0.12729279311708774,-4.556699462199276e-10,-1.8714624879234698e-05,0.12729279311708774,-1.7344549581577162e-05,-0.21050596442382563
265,0.2556,864.527,908.304,-0.288843,-0.0126254,0.0500042,-0.066276,0.120262,0.120262,-0.237246,-4.37895e-10,-1.84695e-05,-1.69524e-05,0.211734,0.1277922944558163,-4.3789505355107394e-10,-1.8469329439829707e-05,0.1277922944558163,-1.6952256308933045e-05,-0.2112027799679017
266,0.2566,865.408,909.211,0.0662543,-0.0118657,0.0746672,-0.0239753,0.120705,0.120705,-0.238129,-4.15336e-10,-1.81502e-05,-1.64226e-05,0.21253,0.12829201712265847,-4.1533598782450554e-10,-1.815003528615744e-05,0.12829201712265847,-1.6422465149878995e-05,-0.21189898049542222
267,0.2576,865.787,909.616,-0.0800049,-0.0122623,0.0645745,-0.0412286,0.121148,0.121148,-0.239014,-4.24328e-10,-1.83005e-05,-1.67019e-05,0.213327,0.12879196121568426,-4.2432801716785207e-10,-1.830033254690555e-05,0.12879196121568426,-1.6701760524040488e-05,-0.21259614135849902
268,0.2586,866.549,910.404,0.15897,-0.010852,0.0811671,-0.0127349,0.121591,0.121591,-0.239896,-4.08334e-10,-1.80762e-05,-1.63317e-05,0.214122,0.12929212683300717,-4.083340332527996e-10,-1.8076036626513137e-05,0.12929212683300717,-1.6331566638494444e-05,-0.2132903253816647
269,0.2596,866.84,910.721,-0.0718827,-0.0112904,0.0651932,-0.0400709,0.122034,0.122034,-0.240781,-4.22243e-10,-1.83023e-05,-1.67407e-05,0.214919,0.12979251407278447,-4.22243018327606e-10,-1.8302132513969838e-05,0.12979251407278447,-1.674055987521683e-05,-0.21398625544922456
270,0.2606,867.618,911.524,0.186683,-0.00977581,0.0831504,-0.00925533,0.122476,0.122476,-0.241663,-4.04967e-10,-1.80566e-05,-1.63336e-05,0.215713,0.1302919927406585,-4.049669488637164e-10,-1.8056436980606883e-05,0.1302919927406585,-1.6333466607454383e-05,-0.21467921393230494
271,0.2616,867.861,911.792,-0.0893397,-0.0104496,0.0640337,-0.0419591,0.122919,0.122919,-0.242547,-4.21607e-10,-1.83252e-05,-1.68165e-05,0.216509,0.13079282301915884,-4.2160697155679827e-10,-1.8325032094534954e-05,0.13079282301915884,-1.6816358603510828e-05,-0.21537313075076625
272,0.2626,868.675,912.632,0.209328,-0.00885287,0.0847821,-0.00638241,0.123361,0.123361,-0.243428,-4.01873e-10,-1.804e-05,-1.63418e-05,0.217303,0.13129274392131363,-4.0187297933869104e-10,-1.8039837280214854e-05,0.13129274392131363,-1.63416664734628e-05,-0.21606408261358834
273,0.2636,868.868,912.85,-0.112343,-0.00978425,0.0624875,-0.0445056,0.123803,0.123803,-0.244312,7.87771e-10,-1.83524e-05,-1.69004e-05,0.218099,0.13179288583734783,7.877709595760507e-10,-1.835223159574184e-05,0.13179288583734783,-1.6900257189034207e-05,-0.21675677574908292
274,0.2646,869.726,913.734,0.234137,-0.00806989,0.0865653,-0.00325236,0.124244,0.124244,-0.245192,-3.98648e-10,-1.80202e-05,-1.63455e-05,0.218892,0.13229211657228834,-3.986480034967599e-10,-1.8020037637178632e-05,0.13229211657228834,-1.634536641303974e-05,-0.21744572660358752
275,0.2656,869.865,913.897,-0.138865,-0.00926779,0.0606952,-0.0474682,0.124686,0.124686,-0.246075,-4.21166e-10,-1.8382e-05,-1.69896e-05,0.219687,0.1327927003086693,-4.2116599097141716e-10,-1.838183105207225e-05,0.1327927003086693,-1.6989455677518528e-05,-0.2181364170422908
276,0.2666,870.774,914.832,0.262261,-0.00739514,0.0885804,0.000272081,0.125127,0.125127,-0.246954,-3.95233e-10,-1.79963e-05,-1.63432e-05,0.220479,0.13329237205902844,-3.952329574730129e-10,-1.7996138067521983e-05,0.13329237205902844,-1.634306645059702e-05,-0.21882337317026157
277,0.2676,870.851,914.934,-0.168985,-0.00887267,0.0586511,-0.0508558,0.125568,0.125568,-0.247837,-4.21252e-10,-1.84143e-05,-1.70843e-05,0.221274,0.13379226421322477,-4.212520332558256e-10,-1.8414130457777844e-05,0.13379226421322477,-1.708415406420638e-05,-0.2195128476839565
278,0.2686,871.819,915.926,0.294165,-0.00680103,0.0908604,0.00424689,0.126009,0.126009,-0.248714,-3.91602e-10,-1.79678e-05,-1.63339e-05,0.222065,0.13429237686847806,-3.9160197307097633e-10,-1.796763858008532e-05,0.13429237686847806,-1.6333766602594224e-05,-0.22019703485661002
279,0.2696,871.827,915.959,-0.20305,-0.00857692,0.0563312,-0.0547086,0.12645,0.12645,-0.249597,-4.21564e-10,-1.84495e-05,-1.7185e-05,0.222859,0.13479271012205074,-4.215640059257453e-10,-1.844932980898939e-05,0.13479271012205074,-1.7184852338703038e-05,-0.22088529696239279
280,0.2706,872.861,917.018,0.330263,-0.00626529,0.0934347,0.00872155,0.12689,0.12689,-0.250473,-3.87736e-10,-1.79344e-05,-1.6317e-05,0.223649,0.13529212877855157,-3.877359544546266e-10,-1.7934239179617784e-05,0.13529212877855157,-1.6316866878529623e-05,-0.22156750259256208
281,0.2716,872.791,916.973,-0.241456,-0.00836361,0.0537077,-0.059073,0.127331,0.127331,-0.251355,-4.22124e-10,-1.84882e-05,-1.72924e-05,0.224443,0.13579290301994718,-4.221240024193662e-10,-1.8488029094321234e-05,0.13579290301994718,-1.7292250487299654e-05,-0.22225377736361218
282,0.2726,873.901,918.107,0.370983,-0.00577004,0.0963339,0.0137477,0.127771,0.127771,-0.25223,-3.83615e-10,-1.78954e-05,-1.62918e-05,0.225232,0.13629276185815598,-3.8361502863182295e-10,-1.7895239878273905e-05,0.13629276185815598,-1.629166728933651e-05,-0.2229340076642624
283,0.2736,873.744,917.975,-0.284628,-0.00821988,0.0507511,-0.0639982,0.128211,0.128211,-0.253112,-4.22956e-10,-1.85306e-05,-1.74072e-05,0.226026,0.13679284068264708,-4.229560035540203e-10,-1.8530428309460056e-05,0.13679284068264708,-1.7407048495621247e-05,-0.22361907770920164
284,0.2746,874.94,919.194,0.416781,-0.00530082,0.0995904,0.0193801,0.12865,0.12865,-0.253986,-3.79217e-10,-1.78506e-05,-1.62574e-05,0.226814,0.1372920022976647,-3.7921699114207286e-10,-1.785044067903474e-05,0.1372920022976647,-1.625726784915127e-05,-0.22429733819227715
285,0.2756,874.686,918.964,-0.333011,-0.00813602,0.0474303,-0.0695358,0.12909,0.12909,-0.254868,-4.24086e-10,-1.85773e-05,-1.75301e-05,0.227607,0.13779252088468974,-4.240859885484838e-10,-1.8577127443020203e-05,0.13779252088468974,-1.7529946348737724e-05,-0.22498120630981866
286,0.2766,875.977,920.28,0.468135,-0.00484579,0.103239,0.0256768,0.129529,0.129529,-0.25574,7.46796e-10,-1.77994e-05,-1.6213e-05,0.228395,0.13829212145565983,7.4679595840621e-10,-1.7799241591620607e-05,0.13829212145565983,-1.6212868570009142e-05,-0.2256567281275993
287,0.2776,875.615,919.942,-0.387072,-0.00810477,0.043713,-0.0757395,0.129968,0.129968,-0.256622,-4.25539e-10,-1.86287e-05,-1.76619e-05,0.229187,0.1387919413994294,-4.255390484431132e-10,-1.862852648681912e-05,0.1387919413994294,-1.7661744029617843e-05,-0.22633939779181333
288,0.2786,877.015,921.366,0.525548,-0.00439513,0.107315,0.0326987,0.130407,0.130407,-0.257493,-3.69505e-10,-1.77414e-05,-1.61578e-05,0.229973,0.13929198081232408,-3.695049821672569e-10,-1.774124262232668e-05,0.13929198081232408,-1.615766946350128e-05,-0.22701296279619443
289,0.2796,876.531,920.906,-0.447293,-0.00812076,0.0395658,-0.0826647,0.130846,0.130846,-0.258374,-4.27343e-10,-1.86853e-05,-1.78034e-05,0.230766,0.1397922397907123,-4.273430498358266e-10,-1.868512543090617e-05,0.1397922397907123,-1.7803241520453206e-05,-0.22769366448285022
290,0.2806,878.052,922.451,0.589546,-0.0039406,0.111857,0.0405098,0.131285,0.131285,-0.259244,-3.64147e-10,-1.76759e-05,-1.60908e-05,0.231551,0.14029271843100433,-3.641470458504159e-10,-1.7675743782197273e-05,0.14029271843100433,-1.6090670543755792e-05,-0.22836527880016
291,0.2816,877.435,921.857,-0.514171,-0.0081801,0.0349542,-0.0903683,0.131723,0.131723,-0.260126,-4.29526e-10,-1.87476e-05,-1.79553e-05,0.232343,0.14079227603680633,-4.295259703468446e-10,-1.8747424264886625e-05,0.14079227603680633,-1.7955138804537363e-05,-0.22904556057589454
292,0.2826,879.09,923.536,0.660674,-0.00347511,0.116905,0.0491768,0.132161,0.132161,-0.260994,-3.58426e-10,-1.76025e-05,-1.6011e-05,0.233127,0.14129205249676513,-3.5842595558222e-10,-1.7602345076861425e-05,0.14129205249676513,-1.6010871824678752e-05,-0.22971445868553808
293,0.2836,878.325,922.795,-0.588216,-0.00828,0.0298431,-0.0989078,0.132599,0.132599,-0.261875,-4.32117e-10,-1.88161e-05,-1.81185e-05,0.233919,0.14179204790676025,-4.321170088417148e-10,-1.881592297825474e-05,0.14179204790676025,-1.8118335860961565e-05,-0.23039278140240538
294,0.2846,879.125,923.618,-0.267562,-0.0101975,0.0521486,-0.0609043,0.133037,0.133037,-0.262747,-4.15038e-10,-1.85538e-05,-1.7707e-05,0.234706,0.1422922623627123,-4.1503800396469614e-10,-1.8553627879280832e-05,0.1422922623627123,-1.7706843231990455e-05,-0.23106358638354496
295,0.2856,879.924,924.44,0.0538835,-0.00959368,0.0746375,-0.0226628,0.133475,0.133475,-0.263619,-3.95897e-10,-1.82549e-05,-1.72237e-05,0.235492,0.14279269596058453,-3.958969818640412e-10,-1.8254733380351773e-05,0.14279269596058453,-1.7223551672884696e-05,-0.2317338066777015
296,0.2866,880.284,924.823,-0.06321,-0.00989231,0.0664998,-0.0364347,0.133912,0.133912,-0.264493,-4.02352e-10,-1.8372e-05,-1.74504e-05,0.236279,0.14329220550360522,-4.023520405738168e-10,-1.8371831235874936e-05,0.14329220550360522,-1.7450247742689662e-05,-0.23240497798607906
297,0.2876,880.958,925.521,0.13656,-0.00871926,0.0804703,-0.0126411,0.134349,0.134349,-0.265365,-3.89689e-10,-1.81762e-05,-1.71393e-05,0.237064,0.14379193337999863,-3.896889477772447e-10,-1.817603481391039e-05,0.14379193337999863,-1.713915312306913e-05,-0.23307402909659647
298,0.2886,881.246,925.832,-0.04968,-0.00900526,0.0674898,-0.0346436,0.134787,0.134787,-0.266239,-3.99847e-10,-1.83555e-05,-1.74714e-05,0.237851,0.14429302397764898,-3.9984704436335505e-10,-1.835533153882185e-05,0.14429302397764898,-1.7471247375944188e-05,-0.23374402956231266
299,0.2896,881.924,926.533,0.156109,-0.00777949,0.0818848,-0.0101417,0.135223,0.135223,-0.267109,-3.86787e-10,-1.81515e-05,-1.71464e-05,0.238636,0.1447920445146753,-3.867870468354795e-10,-1.815133526250623e-05,0.1447920445146753,-1.7146253001310008e-05,-0.23441038235110012
300,0.2906,882.18,926.812,-0.0589394,-0.00822239,0.0668845,-0.0355628,0.13566,0.13566,-0.267982,-3.9854e-10,-1.83582e-05,-1.75255e-05,0.239422,0.1452924279639487,-3.9853997879646386e-10,-1.8358031489307258e-05,0.1452924279639487,-1.7525346429292377e-05,-0.23507845043316034
301,0.2916,882.877,927.532,0.169404,-0.00697696,0.0828617,-0.00838859,0.136097,0.136097,-0.268853,-3.84207e-10,-1.81313e-05,-1.71619e-05,0.240206,0.14579303012857525,-3.842069995485531e-10,-1.813113562898483e-05,0.14579303012857525,-1.7161752735472824e-05,-0.23574440703663035
302,0.2926,883.104,927.782,-0.0717995,-0.00758663,0.066026,-0.0369095,0.136533,0.136533,-0.269725,-3.9742e-10,-1.83633e-05,-1.75845e-05,0.240992,0.14629270481087642,-3.97419985809222e-10,-1.8363131395693344e-05,0.14629270481087642,-1.7584345393562018e-05,-0.23641054743427092
303,0.2936,883.824,928.525,0.183011,-0.00630302,0.0838606,-0.00659899,0.136969,0.136969,-0.270594,-3.8161e-10,-1.811e-05,-1.71762e-05,0.241775,0.14679259739883932,-3.816099658493499e-10,-1.810983601491234e-05,0.14679259739883932,-1.7176052489964455e-05,-0.23707381843556075
304,0.2946,884.021,928.744,-0.0861175,-0.00707506,0.0650643,-0.0384287,0.137405,0.137405,-0.271466,-3.96373e-10,-1.83691e-05,-1.76455e-05,0.24256,0.14729270798749106,-3.963730454970005e-10,-1.836893128914774e-05,0.14729270798749106,-1.764534431902831e-05,-0.23773880009174608
305,0.2956,884.767,929.514,0.197737,-0.00573166,0.0849381,-0.00467693,0.137841,0.13784,-0.272334,8.18948e-10,-1.80867e-05,-1.7188e-05,0.243343,0.1477930366719009,8.189480205089694e-10,-1.8086536436645595e-05,0.14779188887943828,-1.7187852287214866e-05,-0.23840015574339013
306,0.2966,884.93,929.7,-0.1017,-0.00666323,0.0640128,-0.0400971,0.138276,0.138276,-0.273205,-3.9539e-10,-1.83754e-05,-1.7708e-05,0.244127,0.1482924352541699,-3.9539005403099736e-10,-1.837523117331763e-05,0.1482924352541699,-1.7707843214309626e-05,-0.23906322040116024
307,0.2976,885.706,930.497,0.213725,-0.00524024,0.0861045,-0.00260522,0.138711,0.138711,-0.274073,-3.76232e-10,-1.80614e-05,-1.71972e-05,0.244909,0.1487920511220786,-3.7623204551806566e-10,-1.806123689385153e-05,0.1487920511220786,-1.719705212899214e-05,-0.23972342695475646
308,0.2986,885.833,930.647,-0.118575,-0.0063312,0.0628696,-0.041918,0.139147,0.139147,-0.274943,-3.94471e-10,-1.83822e-05,-1.77722e-05,0.245693,0.14929303366262525,-3.9447101141121266e-10,-1.8382031048425063e-05,0.14929303366262525,-1.777204207542571e-05,-0.24038457993005935
309,0.2996,886.64,931.476,0.231041,-0.00481066,0.0873646,-0.000376004,0.139581,0.139581,-0.27581,-3.73443e-10,-1.8034e-05,-1.72036e-05,0.246474,0.14979193509301436,-3.734430542579048e-10,-1.8033837388409246e-05,0.14979193509301436,-1.7203452018943466e-05,-0.24104288108447303
310,0.3006,886.729,931.588,-0.136789,-0.00606325,0.0616312,-0.0438967,0.140016,0.140016,-0.27668,-3.93618e-10,-1.83896e-05,-1.78382e-05,0.247258,0.15029220338524474,-3.9361802706139315e-10,-1.8389430912368887e-05,0.15029220338524474,-1.783804090027541e-05,-0.24170288663388573
311,0.3016,887.57,932.451,0.249739,-0.00442865,0.0887222,0.00201708,0.140451,0.140451,-0.277545,-3.70585e-10,-1.80044e-05,-1.72072e-05,0.248038,0.1507926893415208,-3.7058500712561226e-10,-1.8004237921753763e-05,0.1507926893415208,-1.720705195695782e-05,-0.24235853003029773
312,0.3026,887.618,932.521,-0.156391,-0.00584701,0.0602943,-0.0460388,0.140885,0.140885,-0.278415,-3.92833e-10,-1.83977e-05,-1.7906e-05,0.248821,0.15129224176372946,-3.928329883606807e-10,-1.839753076338102e-05,0.15129224176372946,-1.790583968852566e-05,-0.2430173914628906
313,0.3036,888.496,933.421,0.269864,-0.00408295,0.0901808,0.00457969,0.141319,0.141319,-0.279279,-3.67656e-10,-1.79727e-05,-1.72078e-05,0.2496,0.15179201103874318,-3.676560167420462e-10,-1.7972538492005974e-05,0.15179201103874318,-1.720765194668239e-05,-0.24367114197577655
314,0.3046,888.5,933.448,-0.177422,-0.00567274,0.0588559,-0.048349,0.141753,0.141753,-0.280149,-3.92118e-10,-1.84065e-05,-1.79757e-05,0.250383,0.1522919972606962,-3.921180047328221e-10,-1.8406330601461462e-05,0.1522919972606962,-1.797553843807531e-05,-0.24432886193259062
315,0.3056,889.417,934.387,0.291459,-0.00376469,0.0917435,0.00731683,0.142187,0.142187,-0.281012,-3.64655e-10,-1.79388e-05,-1.72054e-05,0.251161,0.15279220052376408,-3.646549728841819e-10,-1.7938639100711917e-05,0.15279220052376408,-1.7205251988006154e-05,-0.24498072480545596
316,0.3066,889.375,934.367,-0.199917,-0.00553277,0.0573135,-0.0508312,0.142621,0.142621,-0.281881,-3.91473e-10,-1.8416e-05,-1.80474e-05,0.251943,0.153292620922163,-3.914729651555149e-10,-1.841583042649919e-05,0.153292620922163,-1.804723714660117e-05,-0.245636551557605
317,0.3076,890.335,935.349,0.314558,-0.00346685,0.0934129,0.0102327,0.143054,0.143054,-0.282743,-3.61583e-10,-1.79026e-05,-1.71999e-05,0.252721,0.15379210475746863,-3.615829857750441e-10,-1.790243974941763e-05,0.15379210475746863,-1.7199752082586173e-05,-0.24628653266805667
318,0.3086,890.244,935.279,-0.223903,-0.00542104,0.0556651,-0.0534885,0.143488,0.143488,-0.283611,-3.909e-10,-1.84263e-05,-1.81211e-05,0.253502,0.15429295920848785,-3.9089997905250584e-10,-1.8426130236726124e-05,0.15429295920848785,-1.812093581388119e-05,-0.2469404721069265
319,0.3096,891.25,936.307,0.339188,-0.00318394,0.0951912,0.0133305,0.143921,0.143921,-0.284473,-3.5844e-10,-1.78641e-05,-1.71913e-05,0.254279,0.15479287628406113,-3.5844005541463275e-10,-1.786394043790107e-05,0.15479287628406113,-1.7191152230422446e-05,-0.24758932972216063
320,0.3106,891.105,936.184,-0.249401,-0.00533275,0.0539093,-0.056323,0.144354,0.144354,-0.28534,-3.90398e-10,-1.84374e-05,-1.81969e-05,0.25506,0.15529300987059957,-3.903980472230728e-10,-1.843723003214226e-05,0.15529300987059957,-1.8196734437370132e-05,-0.24824138706558785
321,0.3116,892.16,937.261,0.365366,-0.00291161,0.0970797,0.0166126,0.144786,0.144786,-0.286201,-3.55225e-10,-1.78233e-05,-1.71795e-05,0.255836,0.15579220426909024,-3.5522496055762076e-10,-1.7823141165940193e-05,0.15579220426909024,-1.7179352433283057e-05,-0.2488883726640555
322,0.3126,891.96,937.082,-0.27642,-0.00526407,0.0520453,-0.0593356,0.145219,0.145219,-0.287068,-3.89968e-10,-1.84494e-05,-1.82747e-05,0.256617,0.15629277065834102,-3.89967946823333e-10,-1.8449229810868495e-05,0.15629277065834102,-1.827453301872506e-05,-0.2495393042253492
323,0.3136,893.067,938.211,0.393102,-0.00264645,0.0990793,0.0200801,0.145651,0.145651,-0.287927,-3.5194e-10,-1.77802e-05,-1.71645e-05,0.257392,0.15679239704679526,-3.5194003267235985e-10,-1.778004193320193e-05,0.15679239704679526,-1.716435269083494e-05,-0.2501836731669369
324,0.3146,892.808,937.973,-0.304959,-0.00521193,0.0500732,-0.062526,0.146083,0.146083,-0.288794,-3.89608e-10,-1.84621e-05,-1.83545e-05,0.258172,0.15729223932047698,-3.8960801251874955e-10,-1.8461929576440994e-05,0.15729223932047698,-1.8354331557168813e-05,-0.2508334821893854
325,0.3156,893.97,939.157,0.422393,-0.00238582,0.10119,0.0237329,0.146515,0.146515,-0.289652,-3.48587e-10,-1.77348e-05,-1.71463e-05,0.258946,0.1577922975726691,-3.485870481156894e-10,-1.7734642739353212e-05,0.1577922975726691,-1.714615300307809e-05,-0.2514759913858057
326,0.3166,893.65,938.857,-0.335007,-0.00517385,0.0479938,-0.0658926,0.146947,0.146947,-0.290519,-3.89318e-10,-1.84758e-05,-1.84364e-05,0.259726,0.1582925718966941,-3.8931802226471746e-10,-1.8475629323444487e-05,0.1582925718966941,-1.8436230050600244e-05,-0.2521246804539288
327,0.3176,894.87,940.099,0.453225,-0.00212763,0.103411,0.0275695,0.147378,0.147378,-0.291376,-3.45168e-10,-1.7687e-05,-1.71249e-05,0.260499,0.15879190359343265,-3.451680052890538e-10,-1.7686843585940082e-05,0.15879190359343265,-1.712475336979047e-05,-0.25276533504307763
328,0.3186,894.485,939.735,-0.366542,-0.00514779,0.0458085,-0.0694324,0.14781,0.14781,-0.292242,8.80524e-10,-1.84902e-05,-1.85203e-05,0.261278,0.15929260984054738,8.805240980791496e-10,-1.8490029057294244e-05,0.15929260984054738,-1.8520128500343347e-05,-0.253412160147236
329,0.3196,895.767,941.038,0.485575,-0.00187032,0.105741,0.0315872,0.148241,0.148241,-0.293098,-3.41686e-10,-1.76371e-05,-1.71003e-05,0.262051,0.1597923726465369,-3.416860128169219e-10,-1.76369444672142e-05,0.1597923726465369,-1.7100153790750028e-05,-0.25405096589028564
330,0.3206,895.313,940.605,-0.399528,-0.00513206,0.0435199,-0.073141,0.148672,0.148672,-0.293964,-3.88935e-10,-1.85054e-05,-1.86061e-05,0.26283,0.16029235089672067,-3.889349953212218e-10,-1.850522877611116e-05,0.16029235089672067,-1.8605926907611092e-05,-0.25469667812007446
331,0.3216,896.659,941.972,0.519403,-0.00161268,0.108178,0.0357815,0.149103,0.149103,-0.294819,-3.38144e-10,-1.75848e-05,-1.70726e-05,0.263602,0.1607925446839753,-3.381439572791578e-10,-1.758464538825777e-05,0.1607925446839753,-1.707245426396664e-05,-0.25533364012022375
332,0.3226,896.136,941.47,-0.433916,-0.00512521,0.0411314,-0.0770123,0.149534,0.149534,-0.295684,-3.88836e-10,-1.85214e-05,-1.86937e-05,0.26438,0.16129295410121713,-3.888359634274252e-10,-1.8521228479895235e-05,0.16129295410121713,-1.8693525273838496e-05,-0.2559774980128354
333,0.3236,897.549,942.904,0.554658,-0.00135386,0.110717,0.0401465,0.149964,0.149964,-0.296538,-3.34546e-10,-1.75304e-05,-1.70419e-05,0.265151,0.16179241744840445,-3.345459465009526e-10,-1.7530246343433475e-05,0.16179241744840445,-1.7041754787672225e-05,-0.2566126219929924
334,0.3246,896.952,942.327,-0.469644,-0.005126,0.0386474,-0.0810388,0.150394,0.150394,-0.297403,-3.88794e-10,-1.85381e-05,-1.87831e-05,0.265928,0.162292095611013,-3.887939969970944e-10,-1.8537928170525575e-05,0.162292095611013,-1.878292359869249e-05,-0.25725537404462917
335,0.3256,898.435,943.831,0.591274,-0.00109324,0.113355,0.0446746,0.150824,0.150824,-0.298256,-3.30898e-10,-1.74739e-05,-1.70082e-05,0.266698,0.1627919886814333,-3.3089797568663926e-10,-1.747374733229723e-05,0.1627919886814333,-1.700805536142269e-05,-0.25788866507354624
336,0.3266,897.762,943.179,-0.506637,-0.00513333,0.0360731,-0.0852112,0.151254,0.151254,-0.29912,9.18351e-10,-1.85554e-05,-1.8874e-05,0.267476,0.16329209675209566,9.183509508403631e-10,-1.855522784965924e-05,0.16329209675209566,-1.887382188714426e-05,-0.25852957235510754
337,0.3276,899.317,944.755,0.629172,-0.000830433,0.116086,0.0493564,0.151684,0.151684,-0.299972,-3.27205e-10,-1.74153e-05,-1.69717e-05,0.268245,0.1637924199154701,-3.272050408398286e-10,-1.7415148354515964e-05,0.1637924199154701,-1.697155598145983e-05,-0.2591610361176996
338,0.3286,898.566,944.024,-0.544804,-0.0051462,0.0334149,-0.0895187,0.152114,0.152114,-0.300836,-3.8886e-10,-1.85733e-05,-1.89664e-05,0.269022,0.1642929582640662,-3.888600552670596e-10,-1.857312751729623e-05,0.1642929582640662,-1.8966220138971757e-05,-0.25980084454545194
339,0.3296,899.297,944.775,-0.232969,-0.00679343,0.0553247,-0.052647,0.152543,0.152543,-0.301692,-3.7358e-10,-1.82989e-05,-1.85468e-05,0.269793,0.16479254709730418,-3.735799447568411e-10,-1.8298732576194077e-05,0.16479254709730418,-1.8546628009152855e-05,-0.2604341839145985
340,0.3306,899.988,945.486,0.0402428,-0.00636888,0.0746296,-0.0202026,0.152972,0.152972,-0.302547,-3.58812e-10,-1.80309e-05,-1.81295e-05,0.270564,0.16529235030013067,-3.588119801278822e-10,-1.8030737444330036e-05,0.16529235030013067,-1.8129335661587476e-05,-0.26106624244382604
341,0.3316,900.323,945.841,-0.0420597,-0.00655586,0.0688547,-0.0298323,0.153401,0.153401,-0.303404,-3.62532e-10,-1.81071e-05,-1.82919e-05,0.271336,0.16579236796452967,-3.625320044164937e-10,-1.8106936067407986e-05,0.16579236796452967,-1.829173270417872e-05,-0.2616992373969723
342,0.3326,900.89,946.429,0.109574,-0.00566713,0.0795624,-0.0117968,0.15383,0.15383,-0.30426,-3.53622e-10,-1.79465e-05,-1.80526e-05,0.272107,0.16629260018252534,-3.5362202055466696e-10,-1.794633896257114e-05,0.16629260018252534,-1.8052437052773485e-05,-0.26233095243715
343,0.3336,901.171,946.73,-0.0243992,-0.00579568,0.0701324,-0.0275642,0.154259,0.154259,-0.305116,-3.59784e-10,-1.80695e-05,-1.82933e-05,0.272879,0.1667930470461807,-3.597839803859415e-10,-1.8069336747528197e-05,0.1667930470461807,-1.8293132678648405e-05,-0.2629621269606274
344,0.3346,901.729,947.309,0.12098,-0.00489906,0.0804011,-0.0102741,0.154687,0.154687,-0.305971,-3.51166e-10,-1.79132e-05,-1.80612e-05,0.273649,0.16729254135447347,-3.511659851795912e-10,-1.7913039559558364e-05,0.16729254135447347,-1.8061036897498717e-05,-0.2635920250222821
345,0.3356,901.995,947.595,-0.0262964,-0.00511096,0.0700276,-0.0276172,0.155115,0.155115,-0.306827,-3.57961e-10,-1.80488e-05,-1.83233e-05,0.27442,0.1677922494920865,-3.57960994179507e-10,-1.804863712140392e-05,0.1677922494920865,-1.8323132129349773e-05,-0.26422212052951144
346,0.3366,902.558,948.178,0.125936,-0.00424274,0.0807835,-0.00951842,0.155543,0.155543,-0.307681,-3.49014e-10,-1.78851e-05,-1.80789e-05,0.27519,0.1682921715505581,-3.4901403989096025e-10,-1.788494006260688e-05,0.1682921715505581,-1.8078736577664678e-05,-0.26485020660765113
347,0.3376,902.812,948.452,-0.0304476,-0.00454124,0.0697629,-0.0279377,0.155971,0.155971,-0.308536,-3.56242e-10,-1.80296e-05,-1.83562e-05,0.275961,0.16879230762146613,-3.5624203587047987e-10,-1.8029437467759202e-05,0.16879230762146613,-1.8356031526001182e-05,-0.26547849105112764
348,0.3386,903.381,949.042,0.130216,-0.00369367,0.0811179,-0.00884335,0.156399,0.156399,-0.309389,-3.46895e-10,-1.78569e-05,-1.80972e-05,0.27673,0.16929265779642755,-3.468949572038582e-10,-1.78567405665353e-05,0.16929265779642755,-1.809703624666703e-05,-0.2661047707519948
349,0.3396,903.625,949.305,-0.0348926,-0.00406905,0.0694767,-0.0282931,0.156826,0.156826,-0.310244,-3.54535e-10,-1.80099e-05,-1.83891e-05,0.277499,0.16979205237446116,-3.5453495694781623e-10,-1.8009737822732852e-05,0.16979205237446116,-1.8388930921542368e-05,-0.2667319830015561
350,0.3406,904.2,949.9,0.134455,-0.00323193,0.0814492,-0.00817352,0.157254,0.157254,-0.311096,-3.4478e-10,-1.78281e-05,-1.8115e-05,0.278268,0.1702928305317586,-3.447799823419473e-10,-1.7827941080406084e-05,0.1702928305317586,-1.8114835924398776e-05,-0.26735646128651347
351,0.3416,904.433,950.152,-0.0393951,-0.00367505,0.0691857,-0.0286554,0.157681,0.157681,-0.31195,-3.52829e-10,-1.79898e-05,-1.84215e-05,0.279037,0.17079265227474338,-3.528289882481772e-10,-1.798963818455679e-05,0.17079265227474338,-1.8421330325257834e-05,-0.26798187178028376
352,0.3426,905.015,950.755,0.138708,-0.00283992,0.081781,-0.00750239,0.158108,0.158108,-0.312802,-3.42666e-10,-1.77987e-05,-1.81322e-05,0.279805,0.17129268748718496,-3.4266600668075853e-10,-1.779854160410821e-05,0.17129268748718496,-1.8132035612627995e-05,-0.2686052856135225
353,0.3436,905.236,950.996,-0.0439122,-0.00334324,0.068893,-0.0290195,0.158535,0.158535,-0.313655,-3.51122e-10,-1.7969e-05,-1.84536e-05,0.280573,0.17179293626025438,-3.5112202034781603e-10,-1.796883855853526e-05,0.17179293626025438,-1.845342973338937e-05,-0.26922889929584637
354,0.3446,905.825,951.604,0.142962,-0.00250348,0.0821129,-0.00683126,0.158961,0.158961,-0.314506,-3.40555e-10,-1.77686e-05,-1.8149e-05,0.28134,0.17229222639234854,-3.4055502862173626e-10,-1.7768442139409757e-05,0.17229222639234854,-1.8148835307929545e-05,-0.2698505209650105
355,0.3456,906.036,951.834,-0.0484214,-0.00306089,0.0686001,-0.0293827,0.159388,0.159388,-0.315359,-3.49412e-10,-1.79476e-05,-1.84851e-05,0.282108,0.1727929020596657,-3.4941205484528837e-10,-1.7947438942789162e-05,0.1727929020596657,-1.8484929151574292e-05,-0.270473072914473
356,0.3466,906.631,952.449,0.147201,-0.00221137,0.0824432,-0.0061624,0.159814,0.159814,-0.316209,-3.38447e-10,-1.7738e-05,-1.81654e-05,0.282874,0.1732926182679384,-3.3844704816488047e-10,-1.773784268266354e-05,0.1732926182679384,-1.8165235010081382e-05,-0.2710929073355476
357,0.3476,906.831,952.668,-0.0529021,-0.00281782,0.0683085,-0.0297427,0.16024,0.16024,-0.317061,-3.47699e-10,-1.79256e-05,-1.85162e-05,0.283642,0.1737925474006652,-3.4769898071829175e-10,-1.7925439337429516e-05,0.1737925474006652,-1.8516028576276433e-05,-0.2717136716953291
358,0.3486,907.433,953.29,0.151401,-0.0019547,0.0827707,-0.00549824,0.160666,0.160666,-0.31791,-3.36344e-10,-1.77067e-05,-1.81813e-05,0.284407,0.1742926895485719,-3.3634395268933304e-10,-1.7706543237294703e-05,0.1742926895485719,-1.8181134721184655e-05,-0.2723317243875676
359,0.3496,907.622,953.498,-0.0573332,-0.00260598,0.0680198,-0.0300969,0.161092,0.161092,-0.318761,-3.45982e-10,-1.7903e-05,-1.85467e-05,0.285174,0.17479304480242175,-3.4598202081070895e-10,-1.7902839742234278e-05,0.17479304480242175,-1.854652801103196e-05,-0.27295070667579446
360,0.3506,908.23,954.126,0.155543,-0.00172641,0.0830938,-0.00484132,0.161517,0.161517,-0.31961,-3.34246e-10,-1.7675e-05,-1.81968e-05,0.285939,0.17529243795999183,-3.342459642396989e-10,-1.7674843798110018e-05,0.17529243795999183,-1.8196634439249237e-05,-0.27356770957103627
361,0.3516,908.408,954.324,-0.0616933,-0.00241892,0.0677354,-0.0304427,0.161942,0.161942,-0.32046,-3.4426e-10,-1.78797e-05,-1.85766e-05,0.286705,0.17579204340476173,-3.4425995387721287e-10,-1.7879540159082552e-05,0.17579204340476173,-1.8576427456062916e-05,-0.27418491466857353
362,0.3526,909.023,954.958,0.159605,-0.0015209,0.083411,-0.00419419,0.162368,0.162368,-0.321308,-3.32154e-10,-1.76427e-05,-1.8212e-05,0.28747,0.17629303751942205,-3.321539709943977e-10,-1.764254436853463e-05,0.17629303751942205,-1.8211834162507046e-05,-0.27480014496642047
363,0.3536,909.191,955.145,-0.0659605,-0.00225151,0.0674568,-0.0307777,0.162792,0.162792,-0.322158,-3.42532e-10,-1.78557e-05,-1.86059e-05,0.288235,0.17679189151690422,-3.4253200276168627e-10,-1.785554058797434e-05,0.17679189151690422,-1.8605726911369302e-05,-0.2754163029389628
364,0.3546,909.812,955.785,0.163565,-0.00133375,0.0837206,-0.00355947,0.163217,0.163217,-0.323005,-3.30071e-10,-1.76099e-05,-1.82269e-05,0.288999,0.17729213436487434,-3.30070970555596e-10,-1.760974494657841e-05,0.17729213436487434,-1.8226733891069102e-05,-0.27602976549230684
365,0.3556,909.97,955.962,-0.0701131,-0.00209967,0.0671858,-0.0310992,0.163642,0.163642,-0.323854,-3.40796e-10,-1.78311e-05,-1.86345e-05,0.289764,0.17779258986123958,-3.407959470180799e-10,-1.783094102691951e-05,0.17779258986123958,-1.8634326378830224e-05,-0.27664415537599385
366,0.3566,910.597,956.608,0.1674,-0.00116146,0.0840212,-0.00293973,0.164066,0.164066,-0.3247,-3.27996e-10,-1.75767e-05,-1.82416e-05,0.290527,0.17829207980372552,-3.2799596372257156e-10,-1.757654553069532e-05,0.17829207980372552,-1.8241433623056302e-05,-0.27725585563485267
367,0.3576,910.745,956.775,-0.0741292,-0.00196012,0.0669237,-0.0314046,0.164491,0.164491,-0.325549,-3.39053e-10,-1.78057e-05,-1.86624e-05,0.291291,0.17879296036722248,-3.390530078917209e-10,-1.7805541479454234e-05,0.17879296036722248,-1.866222585844568e-05,-0.2778692050097671
368,0.3586,911.377,957.426,0.171089,-0.00100125,0.0843111,-0.00233757,0.164915,0.164915,-0.326394,-3.25931e-10,-1.7543e-05,-1.8256e-05,0.292053,0.17929287455673704,-3.2593094889676877e-10,-1.75428461224314e-05,0.17929287455673704,-1.825583336023673e-05,-0.2784791477944145
369,0.3596,911.516,957.584,-0.0779874,-0.00183026,0.0666722,-0.0316915,0.165339,0.165339,-0.327242,-3.373e-10,-1.77797e-05,-1.86896e-05,0.292817,0.17979300075481053,-3.3729996573583776e-10,-1.7779541942042343e-05,0.17979300075481053,-1.868942535054874e-05,-0.2790907381261344
370,0.3606,912.154,958.24,0.17461,-0.000850937,0.0845889,-0.0017555,0.165762,0.165762,-0.328087,-3.23876e-10,-1.7509e-05,-1.82702e-05,0.293578,0.18029215875860483,-3.2387603710049007e-10,-1.7508846718361504e-05,0.18029215875860483,-1.827003310095332e-05,-0.2796996491512782
371,0.3616,912.283,958.388,-0.0816666,-0.00170798,0.0664327,-0.0319574,0.166186,0.166186,-0.328934,-3.35539e-10,-1.77528e-05,-1.87161e-05,0.294341,0.18079270874301634,-3.355390409964798e-10,-1.7752642419988085e-05,0.18079270874301634,-1.8715924854917354e-05,-0.2803094852464023
372,0.3626,912.926,959.05,0.177943,-0.000708783,0.0848531,-0.00119599,0.166609,0.166609,-0.329778,-3.21834e-10,-1.74745e-05,-1.82843e-05,0.295102,0.18129228971274047,-3.21834003891297e-10,-1.7474347321799755e-05,0.18129228971274047,-1.828413284321595e-05,-0.28091664778222225
373,0.3636,913.046,959.189,-0.0851466,-0.00159161,0.0662068,-0.0321999,0.167032,0.167032,-0.330625,-3.33766e-10,-1.77253e-05,-1.87417e-05,0.295865,0.18179208204991615,-3.337660148261534e-10,-1.7725142907765168e-05,0.18179208204991615,-1.874152437542076e-05,-0.2815254535159256
374,0.3646,913.694,959.856,0.181068,-0.000573422,0.0851022,-0.0006614,0.167455,0.167455,-0.331468,-3.19804e-10,-1.74397e-05,-1.82982e-05,0.296625,0.18229208584397005,-3.198039610907699e-10,-1.743954792932101e-05,0.18229208584397005,-1.8298032589014745e-05,-0.28213087233872447
375,0.3656,913.806,959.986,-0.088408,-0.00147981,0.0659957,-0.0324167,0.167878,0.167878,-0.332314,-3.31982e-10,-1.76969e-05,-1.87666e-05,0.297387,0.18279230118436818,-3.3198199744788326e-10,-1.7696743410788862e-05,0.18279230118436818,-1.8766423908411767e-05,-0.2827379327979448
376,0.3666,914.458,960.657,0.183965,-0.000443772,0.0853348,-0.000153986,0.168301,0.168301,-0.333156,-3.17787e-10,-1.74046e-05,-1.83121e-05,0.298147,0.1832927281606127,-3.177870189219334e-10,-1.7404448540814244e-05,0.1832927281606127,-1.8311932334480474e-05,-0.28334161327338314
377,0.3676,914.562,960.779,-0.0914322,-0.00137149,0.0658009,-0.0326056,0.168723,0.168723,-0.334002,-3.30187e-10,-1.76678e-05,-1.87905e-05,0.298908,0.1837921830694702,-3.301869888616693e-10,-1.7667643925300958e-05,0.1837921830694702,-1.8790323459638714e-05,-0.28394764987892385
378,0.3686,915.218,961.453,0.186617,-0.000318981,0.0855497,0.000324144,0.169146,0.169146,-0.334843,-3.15785e-10,-1.73691e-05,-1.83259e-05,0.299667,0.18429303308521883,-3.1578495374162685e-10,-1.7368949158047542e-05,0.18429303308521883,-1.8325732081714285e-05,-0.28454959675123703
379,0.3696,915.315,961.569,-0.0942024,-0.00126579,0.0656236,-0.0327647,0.169568,0.169568,-0.335688,-3.28379e-10,-1.76378e-05,-1.88136e-05,0.300428,0.1847929102118362,-3.2837899066606724e-10,-1.7637644454948642e-05,0.1847929102118362,-1.881342302534339e-05,-0.2851538969891746
380,0.3706,915.974,962.246,0.189007,-0.000198376,0.0857457,0.000771038,0.16999,0.16999,-0.336529,-3.13797e-10,-1.73334e-05,-1.83396e-05,0.301186,0.18529299833111734,-3.1379698839373305e-10,-1.7333249777484738e-05,0.18529299833111734,-1.8339431830605157e-05,-0.28575482983412637
381,0.3716,916.064,962.354,-0.0967027,-0.001162,0.0654648,-0.032892,0.170411,0.170411,-0.337373,-3.26558e-10,-1.76071e-05,-1.88357e-05,0.301946,0.18579211173941523,-3.2655800286107706e-10,-1.7606944995973706e-05,0.18579211173941523,-1.8835522609284006e-05,-0.2863573984380262
382,0.3726,916.725,963.034,0.191121,-8.14268e-05,0.0859216,0.00118492,0.170833,0.170833,-0.338213,-3.11825e-10,-1.72974e-05,-1.83534e-05,0.302704,0.18629262161072435,-3.1182501025739384e-10,-1.7297250400893915e-05,0.18629262161072435,-1.835323157739488e-05,-0.2869566065207102
383,0.3736,916.809,963.137,-0.0989191,-0.00105956,0.0653256,-0.0329861,0.171254,0.171254,-0.339056,-3.24724e-10,-1.75755e-05,-1.88569e-05,0.303463,0.18679215594902265,-3.2472402544669876e-10,-1.757534555180129e-05,0.18679215594902265,-1.88567222098035e-05,-0.2875574488108056
384,0.3746,917.473,963.819,0.192944,3.22881e-05,0.0860766,0.00156422,0.171675,0.171675,-0.339896,-3.09868e-10,-1.72611e-05,-1.83673e-05,0.30422,0.18729190063555223,-3.098680201318871e-10,-1.726095102805303e-05,0.18729190063555223,-1.8367131322194474e-05,-0.2881556492744356
385,0.3756,917.551,963.915,-0.100839,-0.000958027,0.065207,-0.0330453,0.172097,0.172097,-0.340738,-3.22876e-10,-1.75431e-05,-1.88772e-05,0.304979,0.18779304355133863,-3.228759481999077e-10,-1.754294612077434e-05,0.18779304355133863,-1.8877021826790852e-05,-0.2887547699525448
386,0.3766,918.217,964.599,0.194465,0.000143102,0.0862097,0.00190758,0.172517,0.172517,-0.341577,-3.07928e-10,-1.72247e-05,-1.83811e-05,0.305735,0.18829202140764512,-3.079280164186571e-10,-1.722455165575898e-05,0.18829202140764512,-1.838093106865113e-05,-0.28935125444032217
387,0.3776,918.29,964.69,-0.102453,-0.000857038,0.0651097,-0.0330685,0.172938,0.172938,-0.342419,-3.21015e-10,-1.75099e-05,-1.88964e-05,0.306493,0.1887923976704704,-3.2101499236603104e-10,-1.750974670255978e-05,0.1887923976704704,-1.8896221464115293e-05,-0.28994936884258327
388,0.3786,918.957,965.374,0.195674,0.000251282,0.0863203,0.00221384,0.173359,0.173359,-0.343257,-3.06005e-10,-1.7188e-05,-1.83951e-05,0.307249,0.18929298463605226,-3.0600499911770385e-10,-1.7187852287214866e-05,0.18929298463605226,-1.8394930811238552e-05,-0.29054414202672274
389,0.3796,919.026,965.461,-0.10375,-0.000756306,0.0650343,-0.0330547,0.173779,0.173779,-0.344098,-3.19139e-10,-1.74758e-05,-1.89147e-05,0.308007,0.18979259259992753,-3.191390485213219e-10,-1.7475647299147745e-05,0.18979259259992753,-1.8914521118240657e-05,-0.2911405435812726
390,0.3806,919.693,966.146,0.196564,0.000357042,0.0864078,0.00248213,0.174199,0.174199,-0.344936,-3.04098e-10,-1.71511e-05,-1.84091e-05,0.308762,0.19029241044321932,-3.040979690283052e-10,-1.715095292076363e-05,0.19029241044321932,-1.840893055360393e-05,-0.29173431897911184
391,0.3816,919.758,966.229,-0.104726,-0.000655604,0.0649813,-0.0330032,0.174619,0.174619,-0.345776,-3.17249e-10,-1.74409e-05,-1.8932e-05,0.309519,0.1907924382540953,-3.1724900484420004e-10,-1.7440747908437082e-05,0.1907924382540953,-1.8931820790824005e-05,-0.29232901234498776
392,0.3826,920.425,966.914,0.19713,0.000460557,0.0864717,0.00271178,0.175039,0.175039,-0.346613,-3.02209e-10,-1.7114e-05,-1.84232e-05,0.310273,0.1912926761207605,-3.0220903557420797e-10,-1.7113853556294245e-05,0.1912926761207605,-1.842303029386816e-05,-0.2929210851446227
393,0.3836,920.487,966.994,-0.105376,-0.000554755,0.0649511,-0.0329133,0.175458,0.175458,-0.347453,-3.15346e-10,-1.74051e-05,-1.89482e-05,0.31103,0.19179193233892877,-3.1534597155769006e-10,-1.7404948532084852e-05,0.19179193233892877,-1.8948020483966488e-05,-0.2935147820454935
394,0.3846,921.153,967.677,0.197367,0.000561972,0.0865118,0.0029024,0.175878,0.175878,-0.348289,-3.00336e-10,-1.70768e-05,-1.84375e-05,0.311784,0.1922925900812773,-3.0033597830936287e-10,-1.7076654192260676e-05,0.1922925900812773,-1.8437330030374177e-05,-0.29410515687663985
395,0.3856,921.213,967.755,-0.105696,-0.000453624,0.0649439,-0.0327849,0.176297,0.176297,-0.349128,-3.13429e-10,-1.73685e-05,-1.89635e-05,0.312539,0.19279226535118,-3.134289494610698e-10,-1.7368349168433994e-05,0.19279226535118,-1.8963320194020916e-05,-0.2946971542723862
396,0.3866,921.877,968.437,0.197274,0.00066141,0.086528,0.00305383,0.176716,0.176716,-0.349963,-2.9848e-10,-1.70393e-05,-1.84518e-05,0.313292,0.1932921500288889,-2.98480018479097e-10,-1.7039154831977044e-05,0.1932921500288889,-1.845162976654713e-05,-0.29528583633960204
397,0.3876,921.935,968.513,-0.105687,-0.000352108,0.0649597,-0.0326179,0.177135,0.177135,-0.350801,-3.11498e-10,-1.7331e-05,-1.89777e-05,0.314048,0.1937922442021638,-3.1149804957664173e-10,-1.733084981914157e-05,0.1937922442021638,-1.897751992463448e-05,-0.2958761394372068
398,0.3886,922.597,969.193,0.196852,0.000758976,0.0865203,0.00316619,0.177554,0.177554,-0.351636,-2.96641e-10,-1.70018e-05,-1.84662e-05,0.3148,0.19429254795880202,-2.966410450611079e-10,-1.700165547025012e-05,0.19429254795880202,-1.8466029500729952e-05,-0.29646383746270466
399,0.3896,922.655,969.268,-0.105352,-0.000250134,0.0649984,-0.0324125,0.177972,0.177972,-0.352474,-3.09555e-10,-1.72927e-05,-1.89909e-05,0.315555,0.19479186659417347,-3.0955504826124525e-10,-1.7292550482106428e-05,0.19479186659417347,-1.899071967403909e-05,-0.29705315380887487
400,0.3906,923.314,969.944,0.196105,0.000854765,0.0864889,0.00323983,0.178391,0.178391,-0.353307,-2.94818e-10,-1.6964e-05,-1.84808e-05,0.316307,0.19529258928035342,-2.948179478323709e-10,-1.6963856112162112e-05,0.19529258928035342,-1.8480629231043544e-05,-0.29763846471591415
401,0.3916,923.371,970.019,-0.104693,-0.000147655,0.0650597,-0.0321693,0.178809,0.178809,-0.354144,-3.07598e-10,-1.72536e-05,-1.90031e-05,0.31706,0.19579232602037488,-3.07597947113436e-10,-1.7253451157550614e-05,0.19579232602037488,-1.9002919442234756e-05,-0.29822609536321476
402,0.3926,924.027,970.692,0.195036,0.000948863,0.0864342,0.00327537,0.179227,0.179227,-0.354978,8.65108e-10,-1.69261e-05,-1.84954e-05,0.317812,0.19629227169401786,8.651079852484145e-10,-1.6925956754398896e-05,0.19629227169401786,-1.849522896113509e-05,-0.29881113080599175
403,0.3936,924.084,970.767,-0.103716,-4.4641e-05,0.0651433,-0.031889,0.179645,0.179645,-0.355814,-3.0563e-10,-1.72136e-05,-1.90143e-05,0.318565,0.1967924263886347,-3.0562996577998547e-10,-1.7213451846798122e-05,0.1967924263886347,-1.9014119229332493e-05,-0.2993970797398572
404,0.3946,924.736,971.436,0.193654,0.00104135,0.0863566,0.00327365,0.180063,0.180063,-0.356646,-2.91219e-10,-1.6888e-05,-1.85102e-05,0.319316,0.1972927901916146,-2.91219048875746e-10,-1.688785739850651e-05,0.1972927901916146,-1.8510028687357405e-05,-0.29997973894967145
405,0.3956,924.795,971.512,-0.102431,5.89188e-05,0.0652485,-0.0315725,0.18048,0.18048,-0.357482,-3.03651e-10,-1.71729e-05,-1.90245e-05,0.320068,0.19779216539761868,-3.0365099323859113e-10,-1.7172752546645853e-05,0.19779216539761868,-1.9024319035332304e-05,-0.30056471133538276
406,0.3966,925.442,972.176,0.191967,0.00113231,0.0862567,0.00323576,0.180898,0.180898,-0.358314,-2.89442e-10,-1.68497e-05,-1.8525e-05,0.320819,0.19829294717885548,-2.89442025902531e-10,-1.684955804459598e-05,0.19829294717885548,-1.8524828413246652e-05,-0.30114639947972877
407,0.3976,925.502,972.253,-0.100846,0.000163021,0.0653748,-0.0312209,0.181315,0.181315,-0.359149,-3.01661e-10,-1.71313e-05,-1.90338e-05,0.32157,0.19879273953729348,-3.01661029489253e-10,-1.713115326007486e-05,0.19879273953729348,-1.9033618858355084e-05,-0.3017296986748583
408,0.3986,926.144,972.912,0.189986,0.00122182,0.0861353,0.00316299,0.181732,0.181732,-0.35998,-2.8768e-10,-1.68113e-05,-1.85399e-05,0.32232,0.19929274035260525,-2.876799909401484e-10,-1.681115869089922e-05,0.19929274035260525,-1.8539728137145772e-05,-0.30230972026291136
409,0.3996,926.206,972.992,-0.098974,0.000267649,0.0655213,-0.0308357,0.182149,0.182149,-0.360814,-2.99661e-10,-1.7089e-05,-1.90421e-05,0.323071,0.19979294971173522,-2.996609627103908e-10,-1.7088853983882046e-05,0.19979294971173522,-1.904191870039096e-05,-0.30289135138232215
410,0.4006,926.842,973.645,0.187724,0.00130994,0.0859934,0.00305683,0.182565,0.182565,-0.361644,-2.85931e-10,-1.67727e-05,-1.85548e-05,0.32382,0.20029216740889688,-2.8593094558715393e-10,-1.677255933907329e-05,0.20029216740889688,-1.8554627860711825e-05,-0.30346971150802005
411,0.4016,926.907,973.727,-0.0968273,0.000372776,0.0656871,-0.0304185,0.182982,0.182982,-0.362478,-2.97652e-10,-1.70459e-05,-1.90495e-05,0.324571,0.2007927936160161,-2.9765201414733156e-10,-1.7045754719502426e-05,0.2007927936160161,-1.90493185594498e-05,-0.3040503755980397
412,0.4026,927.537,974.374,0.185194,0.00139677,0.0858318,0.00291897,0.183398,0.183398,-0.363308,-2.84196e-10,-1.67339e-05,-1.85697e-05,0.325319,0.2012924273347685,-2.841960000665722e-10,-1.673375998911819e-05,0.2012924273347685,-1.8569527584166856e-05,-0.304627774132754
413,0.4036,927.605,974.459,-0.094421,0.000478366,0.0658712,-0.029971,0.183814,0.183814,-0.36414,-2.95635e-10,-1.7002e-05,-1.9056e-05,0.326069,0.2017922689443863,-2.9563496095619257e-10,-1.7001855466824978e-05,0.2017922689443863,-1.9055818435531613e-05,-0.3052060832147375
414,0.4046,928.228,975.099,0.182413,0.00148238,0.0856517,0.00275125,0.18423,0.18423,-0.36497,-2.82472e-10,-1.66948e-05,-1.85846e-05,0.326817,0.20229231853136986,-2.8247204575393425e-10,-1.669466064257996e-05,0.20229231853136986,-1.8584427307399842e-05,-0.3057825229101032
415,0.4056,928.3,975.188,-0.0917711,0.000584377,0.0660724,-0.029495,0.184646,0.184646,-0.365802,-2.93611e-10,-1.69574e-05,-1.90616e-05,0.327566,0.20279257618225577,-2.936110243823009e-10,-1.6957256224081618e-05,0.20279257618225577,-1.9061418328858437e-05,-0.3063598716406656
416,0.4066,928.916,975.82,0.179397,0.00156684,0.0854543,0.00255568,0.185062,0.185062,-0.36663,-2.8076e-10,-1.66556e-05,-1.85995e-05,0.328314,0.20329304198361697,-2.807599708276598e-10,-1.6655461296255503e-05,0.20329304198361697,-1.8599327030410784e-05,-0.3069339679582723
417,0.4076,928.993,975.914,-0.0888949,0.000690758,0.0662895,-0.0289926,0.185477,0.185477,-0.367461,-2.91581e-10,-1.69121e-05,-1.90664e-05,0.329062,0.20379251222894768,-2.915809815817738e-10,-1.6911956991272348e-05,0.20379251222894768,-1.9066218237329124e-05,-0.3075096665949858
418,0.4086,929.601,976.539,0.176164,0.00165023,0.0852408,0.00233438,0.185892,0.185892,-0.368289,-2.79058e-10,-1.66161e-05,-1.86143e-05,0.329809,0.20429218979744657,-2.7905799893090943e-10,-1.6615961953347913e-05,0.20429218979744657,-1.8614126754967764e-05,-0.30808281127640214
419,0.4096,929.682,976.636,-0.0858106,0.000797455,0.0665212,-0.028466,0.186307,0.186307,-0.36912,-2.89546e-10,-1.68662e-05,-1.90704e-05,0.330557,0.20479207477517103,-2.8954605379993836e-10,-1.686605776640704e-05,0.20479207477517103,-1.9070218161054697e-05,-0.3086575556208817
420,0.4106,930.282,977.253,0.172732,0.00173264,0.0850126,0.00208957,0.186722,0.186722,-0.369947,-2.77366e-10,-1.65764e-05,-1.86291e-05,0.331303,0.20529216724821353,-2.773660190413807e-10,-1.6576262612200132e-05,0.20529216724821353,-1.862892647941372e-05,-0.3092290594729681
421,0.4116,930.368,977.356,-0.0825373,0.000904411,0.0667662,-0.0279175,0.187137,0.187137,-0.370777,-2.87507e-10,-1.68195e-05,-1.90736e-05,0.332051,0.2057924673027025,-2.875070181929118e-10,-1.6819358553021857e-05,0.2057924673027025,-1.9073418100035155e-05,-0.30980216148337036
422,0.4126,930.96,977.964,0.169122,0.00181415,0.0847711,0.00182357,0.187552,0.187552,-0.371604,-2.75683e-10,-1.65364e-05,-1.86437e-05,0.332796,0.20629297502480215,-2.756830319583514e-10,-1.653626327446922e-05,0.20629297502480215,-1.8643526207284822e-05,-0.31037271913771514
423,0.4136,931.052,978.073,-0.0790947,0.00101156,0.0670232,-0.0273492,0.187966,0.187966,-0.372433,9.08827e-10,-1.67723e-05,-1.9076e-05,0.333543,0.20679248370762537,9.088270136459187e-10,-1.6772159345812554e-05,0.20679248370762537,-1.90758180542705e-05,-0.310944183248948
424,0.4146,931.635,978.672,0.165353,0.00189483,0.0845177,0.00153876,0.18838,0.18838,-0.373259,-2.74007e-10,-1.64961e-05,-1.86581e-05,0.334288,0.20729219922985598,-2.740070392803773e-10,-1.6495963940044156e-05,0.20729219922985598,-1.8657925938692088e-05,-0.31151310835516854
425,0.4156,931.732,978.786,-0.0755029,0.00111885,0.0672906,-0.0267637,0.188794,0.188794,-0.374087,-2.8342e-10,-1.67244e-05,-1.90778e-05,0.335034,0.20779212167714323,-2.834199541723592e-10,-1.672426014798223e-05,0.20779212167714323,-1.9077618019891496e-05,-0.31208293955877653
426,0.4166,932.306,979.376,0.161446,0.00197477,0.0842538,0.00123755,0.189208,0.189208,-0.374912,-2.72339e-10,-1.64556e-05,-1.86723e-05,0.335778,0.20829225113517214,-2.7233904020818045e-10,-1.64554646073789e-05,0.20829225113517214,-1.8672125673746542e-05,-0.3126502370912321
427,0.4176,932.41,979.497,-0.0717821,0.0012262,0.067567,-0.0261632,0.189622,0.189622,-0.37574,-2.81375e-10,-1.66759e-05,-1.90789e-05,0.336524,0.20879258768966258,-2.8137503438330214e-10,-1.6675760957984842e-05,0.20879258768966258,-1.9078717998999295e-05,-0.31321912714193767
428,0.4186,932.975,980.078,0.157421,0.00205404,0.0839809,0.000922374,0.190035,0.190035,-0.376565,-2.70676e-10,-1.64147e-05,-1.86863e-05,0.337267,0.2092919221338434,-2.7067603713959443e-10,-1.641456527956553e-05,0.2092919221338434,-1.868612541222614e-05,-0.3137854877061895
429,0.4196,933.085,980.204,-0.067953,0.00133356,0.0678511,-0.0255503,0.190449,0.190449,-0.377392,-2.7933e-10,-1.66269e-05,-1.90793e-05,0.338012,0.20979267263780899,-2.793300035719426e-10,-1.6626761773830268e-05,0.20979267263780899,-1.907911799126083e-05,-0.31435275251152883
430,0.4206,933.64,980.775,0.153299,0.00213272,0.0837005,0.000595659,0.190862,0.190862,-0.378216,-2.69019e-10,-1.63735e-05,-1.87001e-05,0.338755,0.21029242020237704,-2.690190292753414e-10,-1.6373365954946983e-05,0.21029242020237704,-1.8699925154241903e-05,-0.31491749313836725
431,0.4216,933.756,980.908,-0.0640359,0.00144085,0.0681412,-0.0249272,0.191275,0.191275,-0.379042,-2.77285e-10,-1.65773e-05,-1.90792e-05,0.3395,0.21079237420531594,-2.7728497276058306e-10,-1.6577162597286588e-05,0.21079237420531594,-1.9079017993250957e-05,-0.315483137645693
432,0.4226,934.302,981.47,0.1491,0.0022109,0.0834141,0.000259815,0.191688,0.191688,-0.379865,-2.67366e-10,-1.63319e-05,-1.87135e-05,0.340242,0.21129253473190213,-2.67366018213977e-10,-1.6331766635291345e-05,0.21129253473190213,-1.8713324903552042e-05,-0.31604626326543295
433,0.4236,934.425,981.61,-0.0600508,0.00154802,0.0684361,-0.0242965,0.192101,0.192101,-0.380691,-2.75243e-10,-1.65272e-05,-1.90784e-05,0.340986,0.2117929018674476,-2.7524305057369247e-10,-1.652706342658572e-05,0.2117929018674476,-1.9078218008505843e-05,-0.3166109757935941
434,0.4246,934.961,982.162,0.144844,0.00228864,0.083123,-8.27943e-05,0.192513,0.192513,-0.381514,-2.65717e-10,-1.629e-05,-1.87266e-05,0.341728,0.21229226340442997,-2.6571700395550124e-10,-1.628986731871951e-05,0.21229226340442997,-1.8726424658277452e-05,-0.31717317358439234
435,0.4256,935.091,982.308,-0.0560174,0.001655,0.0687343,-0.0236603,0.192926,0.192926,-0.382338,-2.73203e-10,-1.64766e-05,-1.90772e-05,0.342471,0.21279304351319017,-2.7320301576594375e-10,-1.647646426161664e-05,0.21279304351319017,-1.907701803138817e-05,-0.31773559114150296
436,0.4266,935.617,982.85,0.140551,0.00236601,0.0828287,-0.000429864,0.193338,0.193338,-0.383161,-2.6407e-10,-1.62477e-05,-1.87394e-05,0.343212,0.2132928171934263,-2.640699880984698e-10,-1.6247568006888535e-05,0.2132928171934263,-1.8739224418529155e-05,-0.3182968637546326
437,0.4276,935.754,983.003,-0.051955,0.00176174,0.0690344,-0.023021,0.19375,0.19375,-0.383985,-2.71168e-10,-1.64256e-05,-1.90755e-05,0.343955,0.21379279682284147,-2.7116797696180583e-10,-1.642546510061127e-05,0.21379279682284147,-1.9075318063777047e-05,-0.3188583557724175
438,0.4286,936.271,983.535,0.13624,0.00244309,0.0825326,-0.000779163,0.194162,0.194162,-0.384806,-2.62425e-10,-1.6205e-05,-1.87517e-05,0.344695,0.2142929824863038,-2.6242497064288273e-10,-1.6204868699687403e-05,0.2142929824863038,-1.8751524187954338e-05,-0.31941734356644047
439,0.4296,936.415,983.695,-0.047882,0.00186817,0.0693351,-0.0223806,0.194573,0.194573,-0.385629,-2.69137e-10,-1.63741e-05,-1.90733e-05,0.345437,0.2147921594759501,-2.6913704598285904e-10,-1.6373965945115643e-05,0.2147921594759501,-1.9073118105783493e-05,-0.3199772326667182
440,0.4306,936.921,984.218,0.131928,0.00251994,0.0822359,-0.00112856,0.194985,0.194985,-0.38645,-2.60782e-10,-1.61619e-05,-1.87637e-05,0.346177,0.21529275696165517,-2.6078195158873996e-10,-1.6161769397227133e-05,0.21529275696165517,-1.8763523962905815e-05,-0.3205353022397922
441,0.4316,937.072,984.384,-0.0438159,0.00197423,0.0696351,-0.0217414,0.195396,0.195396,-0.387273,-2.67111e-10,-1.63222e-05,-1.90706e-05,0.346918,0.2157923449430641,-2.671109999852206e-10,-1.6322066793583723e-05,0.2157923449430641,-1.9070418157296487e-05,-0.3210942716385907
442,0.4326,937.569,984.897,0.127633,0.00259662,0.0819399,-0.00147601,0.195807,0.195807,-0.388093,-2.5914e-10,-1.61183e-05,-1.87751e-05,0.347658,0.21629213829733462,-2.591400427576218e-10,-1.611817010094274e-05,0.21629213829733462,-1.8774923748909877e-05,-0.32165074615011624
443,0.4336,937.726,985.071,-0.0397736,0.00207989,0.0699333,-0.0211052,0.196218,0.196218,-0.388915,-2.65091e-10,-1.62699e-05,-1.90676e-05,0.348399,0.2167921371088921,-2.650909491919151e-10,-1.6269767645904487e-05,0.2167921371088921,-1.9067418214446796e-05,-0.32220812012469324
444,0.4346,938.214,985.573,0.123371,0.00267319,0.0816457,-0.0018196,0.196629,0.196629,-0.389735,-2.57497e-10,-1.60743e-05,-1.87861e-05,0.349138,0.21729234146219722,-2.5749702370347904e-10,-1.607417080917717e-05,0.21729234146219722,-1.8785923542319338e-05,-0.3227636816548337
445,0.4356,938.378,985.754,-0.0357708,0.00218508,0.0702286,-0.0204739,0.19704,0.19704,-0.390556,-2.63078e-10,-1.62172e-05,-1.90642e-05,0.349877,0.21779275144174481,-2.6307800382596724e-10,-1.6217068501966914e-05,0.21779275144174481,-1.906401827933557e-05,-0.323319464492122
446,0.4366,938.856,986.247,0.119158,0.0027497,0.0813545,-0.00215753,0.19745,0.19745,-0.391375,-2.55854e-10,-1.60299e-05,-1.87966e-05,0.350616,0.2182921488393068,-2.558540046493363e-10,-1.602977152181939e-05,0.2182921488393068,-1.8796423345013302e-05,-0.32387343896719
447,0.4376,939.027,986.434,-0.0318222,0.00228976,0.0705198,-0.0198493,0.197861,0.197861,-0.392195,-2.61072e-10,-1.61641e-05,-1.90604e-05,0.351355,0.2187929698241422,-2.610720528650745e-10,-1.616396936165998e-05,0.2187929698241422,-1.9060218351740765e-05,-0.3244276354956068
448,0.4386,939.495,986.918,0.115007,0.0028262,0.0810673,-0.00248815,0.198271,0.198271,-0.393014,-2.54211e-10,-1.5985e-05,-1.88065e-05,0.352093,0.2192927773953206,-2.542109855951935e-10,-1.598487224052647e-05,0.2192927773953206,-1.8806323158870875e-05,-0.32498070275018043
449,0.4396,939.673,987.111,-0.0279412,0.0023939,0.070806,-0.0192328,0.198681,0.198681,-0.393834,-2.59075e-10,-1.61107e-05,-1.90563e-05,0.352832,0.21979278992961793,-2.590749836883788e-10,-1.6110570223326626e-05,0.21979278992961793,-1.9056118429894298e-05,-0.3255339916944556
450,0.4406,940.132,987.586,0.110932,0.00290274,0.080785,-0.00280992,0.199091,0.199091,-0.394651,-2.52565e-10,-1.59396e-05,-1.88159e-05,0.353569,0.22029300751108605,-2.5256496893888425e-10,-1.5939472965298407e-05,0.22029300751108605,-1.881572298201295e-05,-0.32608480538521
451,0.4416,940.316,987.786,-0.0241403,0.00249746,0.0710862,-0.0186261,0.1995,0.1995,-0.39547,-2.57085e-10,-1.6057e-05,-1.90519e-05,0.354307,0.22079220943099176,-2.5708501993904065e-10,-1.6056871087077873e-05,0.22079220943099176,-1.9051718513685145e-05,-0.3266365159732749
452,0.4426,940.766,988.251,0.106944,0.00297936,0.0805085,-0.00312148,0.19991,0.19991,-0.396288,-2.50919e-10,-1.58937e-05,-1.88247e-05,0.355044,0.22129283685846812,-2.50918952282575e-10,-1.5893573695802132e-05,0.22129283685846812,-1.8824522816429656e-05,-0.3271871020827891
453,0.4436,940.956,988.457,-0.0204306,0.00260039,0.0713598,-0.0180303,0.200319,0.200319,-0.397106,-2.55105e-10,-1.60029e-05,-1.90473e-05,0.355781,0.22179244779221463,-2.5510504819692414e-10,-1.6002771954237716e-05,0.22179244779221463,-1.9047118601345225e-05,-0.3277372379970207
454,0.4446,941.397,988.913,0.103054,0.00305608,0.0802385,-0.00342158,0.200728,0.200728,-0.397922,8.74769e-10,-1.58473e-05,-1.88329e-05,0.356517,0.22229226310862638,8.747689239640977e-10,-1.5847174432259692e-05,0.22229226310862638,-1.883272266200997e-05,-0.32828558065658353
455,0.4456,941.594,989.125,-0.016822,0.00270268,0.071626,-0.0174466,0.201137,0.201137,-0.39874,-2.53133e-10,-1.59486e-05,-1.90423e-05,0.357254,0.22279228289131314,-2.531329590382825e-10,-1.5948472821714077e-05,0.22279228289131314,-1.9042118696521726e-05,-0.32883481838275075
456,0.4466,942.026,989.573,0.0992712,0.00313295,0.0799757,-0.00370914,0.201546,0.201546,-0.399556,-2.47619e-10,-1.58004e-05,-1.88405e-05,0.35799,0.22329250722391847,-2.4761903638648164e-10,-1.580027517433802e-05,0.22329250722391847,-1.8840322518864916e-05,-0.3293822657820349
457,0.4476,942.229,989.791,-0.0133232,0.00280431,0.0718841,-0.0168761,0.201955,0.201955,-0.400373,-2.51172e-10,-1.58939e-05,-1.90372e-05,0.358726,0.22379293619012053,-2.5117197210988707e-10,-1.5893773692599034e-05,0.22379293619012053,-1.9037018793688354e-05,-0.32992993671685034
458,0.4486,942.652,990.23,0.0956034,0.00320999,0.0797207,-0.00398321,0.202363,0.202363,-0.401188,-2.45966e-10,-1.57531e-05,-1.88475e-05,0.359461,0.224292345580674,-2.4596602532511724e-10,-1.5752975920602097e-05,0.224292345580674,-1.8847322386994492e-05,-0.33047582134022624
459,0.4496,942.861,990.453,-0.00994168,0.00290524,0.0721336,-0.0163196,0.202771,0.202771,-0.402004,-2.4922e-10,-1.5839e-05,-1.90318e-05,0.360196,0.22479195877183122,-2.492199779879911e-10,-1.5838874563689487e-05,0.22479195877183122,-1.9031618896492297e-05,-0.3310219302272842
460,0.4506,943.276,990.884,0.0920575,0.00328722,0.0794741,-0.00424299,0.20318,0.20318,-0.402819,-2.4431e-10,-1.57052e-05,-1.88538e-05,0.360931,0.22529300113914852,-2.4431001666158636e-10,-1.570507667403298e-05,0.22529300113914852,-1.8853622268277803e-05,-0.3315669252385153
461,0.4516,943.49,991.113,-0.00668369,0.00300546,0.0723741,-0.0157779,0.203588,0.203588,-0.403634,-2.47278e-10,-1.57838e-05,-1.90261e-05,0.361666,0.2257930226810716,-2.472779758733168e-10,-1.5783675436531475e-05,0.2257930226810716,-1.9025919004933556e-05,-0.3321114762597627
462,0.4526,943.897,991.536,0.0886393,0.00336466,0.0792361,-0.00448783,0.203995,0.203995,-0.404449,-2.42651e-10,-1.56568e-05,-1.88595e-05,0.3624,0.22629202198077203,-2.42651010395889e-10,-1.565667743297361e-05,0.22629202198077203,-1.8859322160724723e-05,-0.33265558365273085
463,0.4536,944.116,991.77,-0.00355434,0.00310497,0.0726051,-0.0152516,0.204403,0.204403,-0.405263,-2.45346e-10,-1.57284e-05,-1.90203e-05,0.363134,0.22679245120636016,-2.453459657658641e-10,-1.5728276309356914e-05,0.22679245120636016,-1.902011911525392e-05,-0.3331985809777439
464,0.4546,944.516,992.185,0.0853533,0.00344233,0.0790073,-0.0047172,0.204811,0.204811,-0.406077,-2.4099e-10,-1.56078e-05,-1.88646e-05,0.363867,0.22729308464873,-2.409900057287473e-10,-1.560767819897002e-05,0.22729308464873,-1.8864422064557296e-05,-0.3337411364827796
465,0.4556,944.74,992.424,-0.000557606,0.00320374,0.0728265,-0.0147411,0.205218,0.205218,-0.406891,-2.43424e-10,-1.56727e-05,-1.90142e-05,0.364601,0.22779269459790985,-2.43423947665633e-10,-1.567257718393389e-05,0.22779269459790985,-1.90140192312116e-05,-0.3342832505273329
466,0.4566,945.132,992.831,0.0822027,0.00352022,0.0787877,-0.0049307,0.205625,0.205625,-0.407704,-2.39326e-10,-1.55584e-05,-1.8869e-05,0.365334,0.22829250792972489,-2.393260034594391e-10,-1.5558278968708095e-05,0.22829250792972489,-1.8868821981543604e-05,-0.33482425829519746
467,0.4576,945.361,993.075,0.00230361,0.00330179,0.0730378,-0.0142467,0.206032,0.206032,-0.408517,-2.41513e-10,-1.56168e-05,-1.9008e-05,0.366067,0.2287925247269682,-2.415130317956482e-10,-1.5616678058383293e-05,0.2287925247269682,-1.9007819349159405e-05,-0.335364826402493
468,0.4586,945.746,993.475,0.07919,0.00359836,0.0785776,-0.00512808,0.206439,0.206439,-0.409329,-2.37659e-10,-1.55084e-05,-1.88727e-05,0.366799,0.22929274507246733,-2.3765900358796443e-10,-1.550827974539093e-05,0.22929274507246733,-1.887252191168365e-05,-0.3359042911111413
469,0.4596,945.98,993.724,0.00502743,0.00339909,0.0732391,-0.0137687,0.206845,0.206845,-0.410142,-2.39612e-10,-1.55606e-05,-1.90016e-05,0.367532,0.22979193925652908,-2.3961199691058255e-10,-1.556047893447321e-05,0.22979193925652908,-1.90014194707544e-05,-0.3364439815085949
470,0.4606,946.358,994.117,0.0763165,0.00367674,0.0783771,-0.00530917,0.207252,0.207252,-0.410954,-2.3599e-10,-1.54579e-05,-1.88758e-05,0.368263,0.23029256644652896,-2.3599000531504544e-10,-1.5457780527250442e-05,0.23029256644652896,-1.8875621853209346e-05,-0.33698257029896805
471,0.4616,946.595,994.369,0.00761294,0.00349566,0.0734303,-0.0133072,0.207658,0.207658,-0.411766,-2.37722e-10,-1.55042e-05,-1.89949e-05,0.368995,0.23079216664048285,-2.377219532334607e-10,-1.5504079810546578e-05,0.23079216664048285,-1.899471959798671e-05,-0.33752072193275306
472,0.4626,946.967,994.756,0.0735827,0.00375536,0.0781863,-0.00547393,0.208064,0.208064,-0.412576,-2.34318e-10,-1.54069e-05,-1.88782e-05,0.369726,0.23129196971329713,-2.3431800943995995e-10,-1.5406781314286633e-05,0.23129196971329713,-1.887802180788878e-05,-0.3380571128803266
473,0.4636,947.208,995.012,0.0100601,0.0035915,0.0736113,-0.0128622,0.20847,0.20847,-0.413388,-2.35842e-10,-1.54476e-05,-1.89881e-05,0.370457,0.23179197574735744,-2.358420125858629e-10,-1.5447480686492376e-05,0.23179197574735744,-1.8987919727209146e-05,-0.33859439233968625
474,0.4646,947.574,995.392,0.0709881,0.00383422,0.0780051,-0.00562243,0.208876,0.208876,-0.414198,-2.32644e-10,-1.53554e-05,-1.88799e-05,0.371188,0.23229218482508274,-2.3264401516343014e-10,-1.53552821064995e-05,0.23229218482508274,-1.887972177583297e-05,-0.3391299139663527
475,0.4656,947.819,995.652,0.0123697,0.00368662,0.0737821,-0.0124336,0.209282,0.209282,-0.415009,-2.33972e-10,-1.53907e-05,-1.89811e-05,0.371918,0.23279259702892507,-2.339719529231843e-10,-1.539058156374562e-05,0.23279259702892507,-1.898091986007877e-05,-0.33966566233079976
476,0.4666,948.178,996.026,0.0685315,0.00391331,0.0778334,-0.0057548,0.209687,0.209687,-0.415818,-2.30968e-10,-1.53034e-05,-1.8881e-05,0.372648,0.2332919791487753,-2.30968022485456e-10,-1.530328290355598e-05,0.2332919791487753,-1.888082175505179e-05,-0.34019965678009534
477,0.4676,948.427,996.289,0.0145433,0.00378101,0.073943,-0.0120212,0.210093,0.210093,-0.416628,-2.32113e-10,-1.53337e-05,-1.89739e-05,0.373378,0.23379279735152547,-2.3211299549075193e-10,-1.5333582439436277e-05,0.23379279735152547,-1.8973719996706606e-05,-0.3407338786690298
478,0.4686,948.78,996.658,0.0662109,0.00399264,0.0776711,-0.00587128,0.210498,0.210498,-0.417438,-2.2929e-10,-1.52509e-05,-1.88814e-05,0.374108,0.23429258463454605,-2.2929003140603754e-10,-1.5250783705567095e-05,0.23429258463454605,-1.888122174753537e-05,-0.34126766801343844
479,0.4696,949.032,996.924,0.0165832,0.0038747,0.074094,-0.0116247,0.210903,0.210903,-0.418247,-2.30263e-10,-1.52764e-05,-1.89666e-05,0.374837,0.23479257437241086,-2.3026303086481903e-10,-1.527628331643438e-05,0.23479257437241086,-1.8966420135213546e-05,-0.34180036696423655
480,0.4706,949.38,997.287,0.0640239,0.00407217,0.0775181,-0.00597218,0.211308,0.211308,-0.419055,-2.2761e-10,-1.51979e-05,-1.88812e-05,0.375566,0.23529276664713028,-2.2761004192517476e-10,-1.5197784512532841e-05,0.23529276664713028,-1.888102175129358e-05,-0.34233197746816346
481,0.4716,949.635,997.556,0.0184921,0.0039677,0.0742353,-0.0112438,0.211712,0.211712,-0.419864,-2.28423e-10,-1.52188e-05,-1.8959e-05,0.376295,0.23579192574820484,-2.284229472238053e-10,-1.5218684194628906e-05,0.23579192574820484,-1.895882027924678e-05,-0.34286381574080393
482,0.4726,949.978,997.914,0.0619672,0.00415191,0.0773741,-0.00605788,0.212117,0.212117,-0.420672,-2.25929e-10,-1.51444e-05,-1.88803e-05,0.377023,0.23629252284220192,-2.259290532435898e-10,-1.5144285324120155e-05,0.23629252284220192,-1.8880121768205527e-05,-0.3433945673251695
483,0.4736,950.235,998.185,0.0202733,0.00406002,0.0743673,-0.0108781,0.212521,0.212521,-0.42148,-2.26593e-10,-1.51611e-05,-1.89512e-05,0.377751,0.23679208592637835,-2.2659296661231565e-10,-1.5160985071149824e-05,0.23679208592637835,-1.8951020427149246e-05,-0.3439248902354627
484,0.4746,950.573,998.538,0.0600373,0.00423185,0.0772389,-0.00612879,0.212925,0.212925,-0.422287,8.76054e-10,-1.50904e-05,-1.88788e-05,0.378479,0.23729185087481475,8.760538960927988e-10,-1.5090286140440057e-05,0.23729185087481475,-1.8878621796614148e-05,-0.34445412927236907
485,0.4756,950.833,998.812,0.0219308,0.00415167,0.07449,-0.0105272,0.21333,0.21333,-0.423094,-2.24773e-10,-1.51031e-05,-1.89432e-05,0.379206,0.2377930555615173,-2.2477297800804763e-10,-1.5102985948756142e-05,0.2377930555615173,-1.89430205786989e-05,-0.34498294138565955
486,0.4766,951.166,999.16,0.0582301,0.00431195,0.0771122,-0.00618541,0.213733,0.213733,-0.423901,-2.22563e-10,-1.50359e-05,-1.88766e-05,0.379934,0.23829198669077867,-2.225629680552288e-10,-1.5035786961381525e-05,0.23829198669077867,-1.8876421838065482e-05,-0.3455113269197224
487,0.4776,951.428,999.436,0.0234687,0.00424268,0.0746039,-0.0101905,0.214137,0.214137,-0.424707,-2.22962e-10,-1.50449e-05,-1.8935e-05,0.380661,0.23879235772154406,-2.2296198221027907e-10,-1.5044786826012846e-05,0.23879235772154406,-1.8934820734006763e-05,-0.34603863225762754
488,0.4786,951.757,999.78,0.0565412,0.00439222,0.0769936,-0.00622825,0.214541,0.214541,-0.425513,-2.20879e-10,-1.4981e-05,-1.88739e-05,0.381387,0.23929293094304582,-2.2087898177147736e-10,-1.4980887785398522e-05,0.23929293094304582,-1.8873721889023365e-05,-0.34656551275866254
489,0.4796,952.02,1000.06,0.0248914,0.00433305,0.0747093,-0.00986756,0.214944,0.214944,-0.426319,-2.2116e-10,-1.49865e-05,-1.89266e-05,0.382113,0.23979246664389886,-2.2115997921900998e-10,-1.4986387702919934e-05,0.23979246664389886,-1.8926420893072837e-05,-0.34709196876510817
490,0.4806,952.345,1000.4,0.054966,0.00447264,0.0768829,-0.00625786,0.215347,0.215347,-0.427124,-2.19195e-10,-1.49256e-05,-1.88705e-05,0.382839,0.24029220369820936,-2.1919499548772592e-10,-1.4925488613815041e-05,0.24029220369820936,-1.8870321953246005e-05,-0.34761734823664336
491,0.4816,952.611,1000.68,0.0262038,0.00442281,0.0748064,-0.00955777,0.21575,0.21575,-0.42793,-2.19367e-10,-1.49279e-05,-1.89179e-05,0.383565,0.24079214218713907,-2.1936696903424036e-10,-1.4927788579477408e-05,0.24079214218713907,-1.8917721057665204e-05,-0.34814295680525686
492,0.4826,952.932,1001.01,0.0534997,0.00455318,0.0767797,-0.00627483,0.216153,0.216153,-0.428734,-2.1751e-10,-1.48697e-05,-1.88665e-05,0.384291,0.2412922821918826,-2.1751001000325232e-10,-1.486958944652006e-05,0.2412922821918826,-1.8866322028743276e-05,-0.34866683923902664
493,0.4836,953.199,1001.29,0.0274108,0.00451198,0.0748957,-0.00926056,0.216556,0.216556,-0.429539,-2.17583e-10,-1.4869e-05,-1.8909e-05,0.385016,0.24179262379366695,-2.175829516559702e-10,-1.486888945700926e-05,0.24179262379366695,-1.8908821226015782e-05,-0.34919095144997114
494,0.4846,953.516,1001.62,0.052137,0.00463383,0.0766837,-0.00627975,0.216958,0.216958,-0.430343,-2.15826e-10,-1.48134e-05,-1.88619e-05,0.385741,0.2422919247812063,-2.1582602371950088e-10,-1.4813290282078562e-05,0.2422919247812063,-1.8861722115515178e-05,-0.349713991634676
495,0.4856,953.784,1001.91,0.0285174,0.00460058,0.0749775,-0.00897532,0.217361,0.217361,-0.431147,-2.15807e-10,-1.48099e-05,-1.88999e-05,0.386465,0.24279266932014076,-2.158070389057798e-10,-1.4809790333969453e-05,0.24279266932014076,-1.8899721398013547e-05,-0.3502366114640778
496,0.4866,954.098,1002.23,0.050873,0.00471458,0.0765945,-0.00627322,0.217763,0.217763,-0.43195,-2.14142e-10,-1.47567e-05,-1.88567e-05,0.38719,0.24329237240679835,-2.1414203743574944e-10,-1.4756591120490548e-05,0.24329237240679835,-1.885652221356171e-05,-0.35075816203449306
497,0.4876,954.367,1002.52,0.0295289,0.00468862,0.0750522,-0.00870144,0.218165,0.218165,-0.432754,-2.1404e-10,-1.47505e-05,-1.88905e-05,0.387914,0.2437922764144791,-2.140400079397864e-10,-1.4750391211904024e-05,0.2437922764144791,-1.8890321575648628e-05,-0.3512799426882873
498,0.4886,954.677,1002.84,0.0497023,0.0047954,0.0765117,-0.00625588,0.218567,0.218567,-0.433556,-2.12459e-10,-1.46995e-05,-1.88509e-05,0.388637,0.2442923814239697,-2.1245905035272017e-10,-1.4699391962857966e-05,0.2442923814239697,-1.8850722322882874e-05,-0.3518000076003459
499,0.4896,954.948,1003.13,0.0304505,0.00477613,0.0751202,-0.00843832,0.218969,0.218969,-0.434359,-2.12281e-10,-1.46909e-05,-1.88809e-05,0.389361,0.24479268751608907,-2.122809705795703e-10,-1.4690792089266935e-05,0.24479268751608907,-1.8880721756930896e-05,-0.3523203032675748
500,0.4906,955.255,1003.45,0.0486199,0.00487627,0.0764349,-0.00622832,0.21937,0.21937,-0.435161,-2.10777e-10,-1.46419e-05,-1.88446e-05,0.390084,0.2452919494791166,-2.107769514481106e-10,-1.4641792807856824e-05,0.2452919494791166,-1.8844422441599562e-05,-0.3528395341449414
501,0.4916,955.526,1003.73,0.0312874,0.00486311,0.0751817,-0.00818534,0.219772,0.219772,-0.435963,-2.1053e-10,-1.46311e-05,-1.8871e-05,0.390807,0.24579265747837198,-2.1053003784743396e-10,-1.4630992965947165e-05,0.24579265747837198,-1.887082194385048e-05,-0.3533583487660854
502,0.4926,955.83,1004.05,0.0476204,0.00495719,0.0763638,-0.00619117,0.220173,0.220173,-0.436765,-2.09096e-10,-1.45838e-05,-1.88377e-05,0.391529,0.24629232050976313,-2.0909596276652564e-10,-1.4583693656922136e-05,0.24629232050976313,-1.883752257159088e-05,-0.35387674746471054
503,0.4936,956.102,1004.34,0.0320446,0.0049496,0.0752373,-0.00794188,0.220574,0.220574,-0.437566,-2.08786e-10,-1.4571e-05,-1.88608e-05,0.392252,0.24679218394620817,-2.087859884980503e-10,-1.4570893843490751e-05,0.24679218394620817,-1.8860622136185334e-05,-0.35439408496866065
504,0.4946,956.404,1004.65,0.0466987,0.00503813,0.0762981,-0.00614502,0.220975,0.220975,-0.438367,-2.07417e-10,-1.45254e-05,-1.88303e-05,0.392974,0.24729224786808612,-2.0741697248638502e-10,-1.4525294506850805e-05,0.24729224786808612,-1.8830122710977726e-05,-0.35491100825118793
505,0.4956,956.676,1004.94,0.0327273,0.00503561,0.0752872,-0.00770736,0.221376,0.221376,-0.439168,-2.0705e-10,-1.45107e-05,-1.88503e-05,0.393695,0.24779251235580735,-2.070500437767464e-10,-1.4510594720351655e-05,0.24779251235580735,-1.8850122334157504e-05,-0.35542751764395086
506,0.4966,956.975,1005.25,0.0458499,0.00511908,0.0762373,-0.00609048,0.221777,0.221777,-0.439968,-2.0574e-10,-1.44666e-05,-1.88223e-05,0.394417,0.24829297748981527,-2.0573998060768872e-10,-1.4466495359299891e-05,0.24829297748981527,-1.88221228616392e-05,-0.35594296942163384
507,0.4976,957.248,1005.54,0.0333404,0.00512116,0.0753318,-0.0074812,0.222177,0.222177,-0.440768,-2.05322e-10,-1.44501e-05,-1.88396e-05,0.395138,0.24879239455756585,-2.0532198163891735e-10,-1.444999559785387e-05,0.24879239455756585,-1.8839422535887884e-05,-0.35645800900279523
508,0.4986,957.544,1005.85,0.045069,0.00520002,0.0761811,-0.00602812,0.222577,0.222577,-0.441567,-2.04064e-10,-1.44073e-05,-1.88138e-05,0.395859,0.24929201143210222,-2.0406398792971459e-10,-1.4407196215371343e-05,0.24929201143210222,-1.881362302158518e-05,-0.3569719936893757
509,0.4996,957.817,1006.14,0.0338888,0.00520626,0.0753715,-0.00726281,0.222978,0.222978,-0.442367,-2.03601e-10,-1.43893e-05,-1.88285e-05,0.396579,0.24979307798581618,-2.036010249284459e-10,-1.4389196474562382e-05,0.24979307798581618,-1.882832274491264e-05,-0.3574862103803229
510,0.5006,958.111,1006.44,0.0443512,0.00528094,0.0761291,-0.00595849,0.223377,0.223377,-0.443166,-2.02392e-10,-1.43477e-05,-1.88048e-05,0.3973,0.25029184492131895,-2.023919920546291e-10,-1.4347597072195128e-05,0.25029184492131895,-1.880462319081566e-05,-0.3579993738621178
511,0.5016,958.384,1006.73,0.0343771,0.00529094,0.0754066,-0.00705165,0.223777,0.223777,-0.443965,-2.01887e-10,-1.43283e-05,-1.88172e-05,0.39802,0.2507920616959729,-2.0188695160072712e-10,-1.4328197350366167e-05,0.2507920616959729,-1.8817022957584584e-05,-0.358512127490049
512,0.5026,958.676,1007.04,0.0436921,0.00536182,0.0760812,-0.00588215,0.224177,0.224177,-0.444763,-2.00721e-10,-1.42877e-05,-1.87952e-05,0.398739,0.25129247859735937,-2.0072099538026578e-10,-1.4287597931317286e-05,0.25129247859735937,-1.8795023371320774e-05,-0.3590238306156104
513,0.5036,958.949,1007.32,0.0348098,0.0053752,0.0754374,-0.0068472,0.224576,0.224576,-0.445561,-2.0018e-10,-1.42669e-05,-1.88055e-05,0.399459,0.2517918439130753,-2.0017998370036594e-10,-1.426679822824628e-05,0.2517918439130753,-1.8805323177661926e-05,-0.35953512556496137
514,0.5046,959.239,1007.63,0.0430871,0.00544264,0.0760368,-0.0057996,0.224976,0.224976,-0.446359,-1.99054e-10,-1.42274e-05,-1.87852e-05,0.400178,0.2522926608073419,-1.990539955087911e-10,-1.4227298790969733e-05,0.2522926608073419,-1.8785023559231284e-05,-0.36004601266369696
515,0.5056,959.512,1007.91,0.0351911,0.00545906,0.0754642,-0.00664895,0.225375,0.225375,-0.447156,-1.9848e-10,-1.42053e-05,-1.87935e-05,0.400897,0.25279242527538504,-1.984800102050599e-10,-1.4205199105221666e-05,0.25279242527538504,-1.879332340326556e-05,-0.36055585279332436
516,0.5066,959.799,1008.21,0.0425322,0.0055234,0.0759958,-0.00571135,0.225774,0.225774,-0.447953,-1.97389e-10,-1.41666e-05,-1.87746e-05,0.401615,0.2532923891892378,-1.9738899403876076e-10,-1.4166499654244546e-05,0.2532923891892378,-1.8774423758305403e-05,-0.361065286742253
517,0.5076,960.072,1008.5,0.0355253,0.00554255,0.0754874,-0.00645642,0.226173,0.226173,-0.44875,-1.96786e-10,-1.41435e-05,-1.87812e-05,0.402334,0.253792552628495,-1.9678603191408683e-10,-1.4143399981181304e-05,0.253792552628495,-1.878102363439549e-05,-0.36157431483407987
518,0.5086,960.358,1008.8,0.0420232,0.00560408,0.0759578,-0.00561786,0.226572,0.226572,-0.449547,-1.95728e-10,-1.41056e-05,-1.87636e-05,0.403052,0.2542929156727829,-1.9572798937161906e-10,-1.410550051650361e-05,0.2542929156727829,-1.876342396478492e-05,-0.36208293739214426
519,0.5096,960.63,1009.09,0.0358161,0.00562566,0.0755072,-0.00626915,0.22697,0.22697,-0.450343,8.82506e-10,-1.40814e-05,-1.87685e-05,0.403769,0.25479222360890885,8.825060682227104e-10,-1.4081300857560208e-05,0.25479222360890885,-1.8768323872819792e-05,-0.36259051733036385
520,0.5106,960.914,1009.38,0.0415564,0.00568467,0.0759226,-0.00551958,0.227369,0.227369,-0.451139,-1.9407e-10,-1.40441e-05,-1.87521e-05,0.404487,0.25529298560150293,-1.9406998230664385e-10,-1.4044001382051974e-05,0.25529298560150293,-1.8751924180437918e-05,-0.3630976933957153
521,0.5116,961.187,1009.67,0.0360672,0.00570842,0.0755238,-0.0060867,0.227767,0.227767,-0.451934,-1.93419e-10,-1.4019e-05,-1.87555e-05,0.405204,0.25579269164467866,-1.9341894752500366e-10,-1.4018901734247358e-05,0.25579269164467866,-1.8755324116659366e-05,-0.3636038295137012
522,0.5126,961.469,1009.97,0.0411283,0.00576516,0.07589,-0.00541693,0.228165,0.228165,-0.45273,-1.92416e-10,-1.39823e-05,-1.87401e-05,0.405921,0.25629259661044235,-1.924159720445573e-10,-1.3982202248130626e-05,0.25629259661044235,-1.873992440537542e-05,-0.364110199303495
523,0.5136,961.741,1010.25,0.0362822,0.00579084,0.0755375,-0.00590867,0.228563,0.228563,-0.453524,-1.91745e-10,-1.39564e-05,-1.87422e-05,0.406638,0.2567927005779813,-1.9174495324847385e-10,-1.3956302609918758e-05,0.2567927005779813,-1.8742024366025234e-05,-0.3646148954143771
524,0.5146,962.021,1010.54,0.0407354,0.00584554,0.0758596,-0.0053103,0.228961,0.228961,-0.454319,-1.90766e-10,-1.39202e-05,-1.87276e-05,0.407354,0.25729300362651397,-1.9076595858535939e-10,-1.3920103114517524e-05,0.25729300362651397,-1.8727424639597423e-05,-0.36511982583608593
525,0.5156,962.293,1010.83,0.0364642,0.00587292,0.0755486,-0.00573468,0.229358,0.229358,-0.455113,-1.90077e-10,-1.38935e-05,-1.87285e-05,0.40807,0.2577922480424131,-1.9007695417627701e-10,-1.3893403485787381e-05,0.2577922480424131,-1.8728324622685477e-05,-0.3656237206216695
526,0.5166,962.572,1011.12,0.0403746,0.00592579,0.0758312,-0.00520007,0.229756,0.229756,-0.455907,-1.89119e-10,-1.38578e-05,-1.87147e-05,0.408786,0.2582929489900132,-1.8911905375063043e-10,-1.3857703981101643e-05,0.2582929489900132,-1.8714524881113803e-05,-0.36612721547358795
527,0.5176,962.843,1011.41,0.0366162,0.00595469,0.0755573,-0.00556438,0.230153,0.230153,-0.456701,-1.88415e-10,-1.38304e-05,-1.87145e-05,0.409501,0.25879259046303216,-1.8841495030841315e-10,-1.383030436041821e-05,0.25879259046303216,-1.8714324884872013e-05,-0.36663031070926255
528,0.5186,963.12,1011.7,0.0400431,0.00600592,0.0758047,-0.00508658,0.23055,0.23055,-0.457494,-1.87477e-10,-1.3795e-05,-1.87013e-05,0.410216,0.25929243033309524,-1.8747703389720982e-10,-1.3794904849429024e-05,0.25929243033309524,-1.8701125131803664e-05,-0.367132373778553
529,0.5196,963.391,1011.98,0.0367412,0.00603614,0.0755637,-0.00539742,0.230947,0.230947,-0.458287,-1.8676e-10,-1.37669e-05,-1.87001e-05,0.410931,0.25979246867898165,-1.867600518679069e-10,-1.3766805236681279e-05,0.25979246867898165,-1.8699925154241903e-05,-0.3676340388696486
530,0.5206,963.667,1012.27,0.039738,0.00608591,0.0757799,-0.00497014,0.231344,0.231344,-0.45908,-1.85838e-10,-1.37319e-05,-1.86875e-05,0.411646,0.2602927055795019,-1.858380116459557e-10,-1.3731805717842605e-05,0.2602927055795019,-1.86873253897879e-05,-0.36813530629802116
531,0.5216,963.937,1012.55,0.0368417,0.0061173,0.0755682,-0.0052335,0.23174,0.23174,-0.459872,-1.8511e-10,-1.37033e-05,-1.86853e-05,0.41236,0.260791880320987,-1.85110038408709e-10,-1.3703206110160515e-05,0.260791880320987,-1.868512543090617e-05,-0.3686355450147528
532,0.5226,964.212,1012.84,0.0394569,0.00616575,0.0757565,-0.00485107,0.232137,0.232137,-0.460665,-1.84204e-10,-1.36685e-05,-1.86732e-05,0.413074,0.2612925140666975,-1.842039853983124e-10,-1.3668406586453408e-05,0.2612925140666975,-1.8673025656834596e-05,-0.36913601856356715
533,0.5236,964.481,1013.12,0.0369201,0.00619816,0.0755707,-0.00507234,0.232533,0.232533,-0.461456,-1.83467e-10,-1.36393e-05,-1.86702e-05,0.413788,0.2617920848107469,-1.8346701935456622e-10,-1.3639206985160968e-05,0.2617920848107469,-1.8670025712874683e-05,-0.36963483466510694
534,0.5246,964.754,1013.41,0.0391973,0.00624544,0.0757345,-0.00472962,0.232929,0.232929,-0.462248,-1.82575e-10,-1.36048e-05,-1.86585e-05,0.414501,0.2622918534239864,-1.825749551542799e-10,-1.3604707455150411e-05,0.2622918534239864,-1.865832593128669e-05,-0.37013388622554777
535,0.5256,965.023,1013.69,0.0369788,0.00627874,0.0755716,-0.00491367,0.233326,0.233326,-0.463039,-1.81829e-10,-1.35751e-05,-1.86547e-05,0.415215,0.2627930827772391,-1.8182899630403426e-10,-1.3575007858701582e-05,0.2627930827772391,-1.8654526002137573e-05,-0.3706319133258581
536,0.5266,965.295,1013.98,0.0389572,0.00632497,0.0757136,-0.00460606,0.233721,0.233721,-0.46383,-1.8095e-10,-1.35407e-05,-1.86433e-05,0.415928,0.2632919845715538,-1.8095003273543853e-10,-1.3540608325146586e-05,0.2632919845715538,-1.8643126214801242e-05,-0.371129546642494
537,0.5276,965.562,1014.26,0.0370197,0.00635904,0.0755709,-0.00475725,0.234117,0.234117,-0.46462,-1.80198e-10,-1.35106e-05,-1.86388e-05,0.41664,0.26379234726271816,-1.8019796765855745e-10,-1.3510508732217374e-05,0.26379234726271816,-1.8638626298694838e-05,-0.3716261581132875
538,0.5286,965.833,1014.54,0.0387346,0.00640434,0.0756936,-0.00448062,0.234513,0.234513,-0.465411,-1.7933e-10,-1.34764e-05,-1.86277e-05,0.417353,0.264292908136746,-1.793299952979055e-10,-1.3476309193682923e-05,0.264292908136746,-1.8627526505499148e-05,-0.3721230052932546
539,0.5296,966.1,1014.82,0.0370447,0.00643907,0.0755689,-0.00460286,0.234908,0.234908,-0.4662,-1.78572e-10,-1.34459e-05,-1.86226e-05,0.418065,0.2647924024790982,-1.785720460389939e-10,-1.3445809604273329e-05,0.2647924024790982,-1.862242660044533e-05,-0.3726182048601596
540,0.5306,966.37,1015.11,0.0385277,0.00648354,0.0756746,-0.0043535,0.235303,0.235303,-0.46699,8.67319e-10,-1.34118e-05,-1.86117e-05,0.418777,0.26529209416068733,8.673191054242579e-10,-1.3411710062194437e-05,0.26529209416068733,-1.8611526803380407e-05,-0.3731136407553748
541,0.5316,966.636,1015.38,0.0370555,0.00651884,0.0755655,-0.0044503,0.235698,0.235698,-0.467779,-1.76952e-10,-1.33808e-05,-1.8606e-05,0.419488,0.26579198325947817,-1.7695200860146088e-10,-1.3380710477517432e-05,0.26579198325947817,-1.8605826909490197e-05,-0.37360805901916483
542,0.5326,966.905,1015.67,0.0383348,0.00656256,0.0756563,-0.00422491,0.236093,0.236093,-0.468568,-1.76104e-10,-1.33468e-05,-1.85953e-05,0.420199,0.2662920698534659,-1.7610402025525218e-10,-1.3346710931894101e-05,0.2662920698534659,-1.859512710844502e-05,-0.3741020873407973
543,0.5336,967.17,1015.94,0.0370538,0.00659835,0.075561,-0.00429939,0.236488,0.236488,-0.469357,-1.75338e-10,-1.33156e-05,-1.8589e-05,0.42091,0.26679235402067625,-1.7533796636826082e-10,-1.331551134775566e-05,0.26679235402067625,-1.8588827225607396e-05,-0.374595726027815
544,0.5346,967.438,1016.22,0.0381544,0.00664141,0.0756387,-0.00409501,0.236883,0.236883,-0.470145,-1.74499e-10,-1.32816e-05,-1.85784e-05,0.421621,0.2672928358391664,-1.744989708285516e-10,-1.3281511799911883e-05,0.2672928358391664,-1.857822742257209e-05,-0.3750883504761814
545,0.5356,967.703,1016.5,0.0370409,0.00667761,0.0755554,-0.00414994,0.237277,0.237277,-0.470933,-1.7373e-10,-1.325e-05,-1.85716e-05,0.422331,0.2677922475941421,-1.737300303616962e-10,-1.3249912219182036e-05,0.2677922475941421,-1.857142754890795e-05,-0.37558058688938845
546,0.5366,967.969,1016.78,0.0379852,0.00672008,0.0756217,-0.00396397,0.237671,0.237671,-0.471721,-1.72898e-10,-1.32161e-05,-1.85611e-05,0.423042,0.26829185615611784,-1.7289802922704212e-10,-1.3216012667682797e-05,0.26829185615611784,-1.8560927743882516e-05,-0.37607243557308734
547,0.5376,968.233,1017.06,0.0370182,0.00675663,0.0755489,-0.00400183,0.238066,0.238066,-0.472509,-1.72127e-10,-1.31842e-05,-1.85539e-05,0.423751,0.2687929303949468,-1.7212697933643994e-10,-1.3184113088815508e-05,0.2687929303949468,-1.855372787751275e-05,-0.37656389683268865
548,0.5386,968.498,1017.34,0.037826,0.00679856,0.0756051,-0.00383193,0.23846,0.23846,-0.473296,-1.71303e-10,-1.31503e-05,-1.85434e-05,0.424461,0.26929293330362714,-1.7130297180756315e-10,-1.3150213535206845e-05,0.26929293330362714,-1.8543228072265272e-05,-0.37705434802802174
549,0.5396,968.761,1017.61,0.0369867,0.0068354,0.0755414,-0.0038549,0.238853,0.238853,-0.474082,-1.70531e-10,-1.31182e-05,-1.85358e-05,0.42517,0.2697918634597696,-1.7053103373854128e-10,-1.3118113956767097e-05,0.2697918634597696,-1.853562821307886e-05,-0.37754379093421164
550,0.5406,969.025,1017.89,0.0376756,0.00687686,0.0755889,-0.00369903,0.239247,0.239247,-0.474869,-1.69713e-10,-1.30842e-05,-1.85253e-05,0.425879,0.2702922600256228,-1.6971302141399747e-10,-1.3084114402261982e-05,0.2702922600256228,-1.852512840772036e-05,-0.3780334712562653
551,0.5416,969.287,1018.16,0.0369476,0.00691393,0.0755332,-0.00370904,0.239641,0.239641,-0.475655,-1.6894e-10,-1.30518e-05,-1.85173e-05,0.426588,0.27079285378656803,-1.6893997312195097e-10,-1.3051714825573768e-05,0.27079285378656803,-1.851712855582832e-05,-0.37852214487396774
552,0.5426,969.551,1018.44,0.037533,0.00695496,0.075573,-0.00356537,0.240034,0.240034,-0.476441,-1.68128e-10,-1.30179e-05,-1.85068e-05,0.427297,0.27129237352730584,-1.6812795600174013e-10,-1.3017815267524213e-05,0.27129237352730584,-1.8506628750247778e-05,-0.3790104345451174
553,0.5436,969.812,1018.71,0.0369018,0.00699223,0.0755243,-0.00356413,0.240427,0.240427,-0.477227,-1.67355e-10,-1.29852e-05,-1.84984e-05,0.428005,0.27179208961788226,-1.673550187319961e-10,-1.2985115692698557e-05,0.27179208961788226,-1.8498228905650116e-05,-0.37949834057137777
554,0.5446,970.074,1018.99,0.0373973,0.00703288,0.0755574,-0.00343106,0.24082,0.24082,-0.478012,-1.66549e-10,-1.29513e-05,-1.84878e-05,0.428713,0.27229200213547755,-1.6654899681611823e-10,-1.2951216132317533e-05,0.27229200213547755,-1.8487629101726633e-05,-0.3799852432397284
555,0.5456,970.335,1019.26,0.0368501,0.0070703,0.0755146,-0.00342007,0.241213,0.241213,-0.478797,-1.65776e-10,-1.29184e-05,-1.84791e-05,0.42942,0.27279211115730284,-1.6577594852407174e-10,-1.2918316557808396e-05,0.27279211115730284,-1.847892926243322e-05,-0.380471763839466
556,0.5466,970.596,1019.54,0.0372678,0.0071106,0.075542,-0.00329621,0.241606,0.241606,-0.479582,-1.64975e-10,-1.28844e-05,-1.84685e-05,0.430128,0.27329241676059945,-1.6497503363410715e-10,-1.2884316996419898e-05,0.27329241676059945,-1.846832945828769e-05,-0.38095790267039664
557,0.5476,970.856,1019.81,0.0367934,0.00714814,0.0755044,-0.00327679,0.241999,0.241999,-0.480366,-1.64202e-10,-1.28513e-05,-1.84594e-05,0.430835,0.2737929190226389,-1.6420198534206065e-10,-1.2851217422449324e-05,0.2737929190226389,-1.8459229626288653e-05,-0.38144304147544195
558,0.5486,971.116,1020.08,0.0371437,0.00718813,0.0755268,-0.00316089,0.242391,0.242391,-0.48115,-1.63406e-10,-1.28172e-05,-1.84487e-05,0.431542,0.2742923437277427,-1.6340595543340442e-10,-1.2817117860053351e-05,0.2742923437277427,-1.8448529823800186e-05,-0.381927800080722
559,0.5496,971.375,1020.35,0.0367321,0.00722575,0.0754936,-0.00313419,0.242783,0.242783,-0.481934,-1.62634e-10,-1.27839e-05,-1.84394e-05,0.432248,0.27479196424570773,-1.6263401736438254e-10,-1.2783818286288273e-05,0.27479196424570773,-1.8439229995337314e-05,-0.3824121787841964
560,0.5506,971.634,1020.63,0.0370244,0.00726546,0.0755116,-0.00302517,0.243176,0.243176,-0.482717,-1.61843e-10,-1.27498e-05,-1.84286e-05,0.432955,0.27529305594572584,-1.6184298345933712e-10,-1.2749718721671854e-05,0.27529305594572584,-1.8428430194394885e-05,-0.38289556077946085
561,0.5516,971.892,1020.9,0.0366671,0.00730315,0.0754822,-0.0029922,0.243568,0.243568,-0.4835,-1.61072e-10,-1.27163e-05,-1.84189e-05,0.433661,0.27579306881977717,-1.610720445910374e-10,-1.2716219148223296e-05,0.27579306881977717,-1.8418730373115366e-05,-0.3833785644347625
562,0.5526,972.15,1021.17,0.0369093,0.0073426,0.0754965,-0.00288913,0.243959,0.243959,-0.484283,-1.60285e-10,-1.26821e-05,-1.8408e-05,0.434366,0.27629200144465726,-1.6028500748888064e-10,-1.268201958248838e-05,0.27629200144465726,-1.8407830573829997e-05,-0.38386119004622554
563,0.5536,972.407,1021.44,0.0365987,0.00738032,0.0754704,-0.00285078,0.244351,0.244351,-0.485065,-1.59516e-10,-1.26485e-05,-1.83981e-05,0.435072,0.2767924059821052,-1.595159559997228e-10,-1.2648420008032346e-05,0.2767924059821052,-1.8397930755975622e-05,-0.3843428222528724
564,0.5546,972.665,1021.71,0.0367979,0.00741953,0.0754815,-0.00275282,0.244743,0.244743,-0.485848,-1.58734e-10,-1.26142e-05,-1.83871e-05,0.435777,0.27729300671658375,-1.587340259234793e-10,-1.2614120441289955e-05,0.27729300671658375,-1.8386930958347314e-05,-0.3848246931459747
565,0.5556,972.921,1021.97,0.0365274,0.00745728,0.0754582,-0.00270985,0.245134,0.245134,-0.48663,-1.57966e-10,-1.25804e-05,-1.83769e-05,0.436482,0.27779252593185255,-1.579659736350436e-10,-1.258032086715044e-05,0.27779252593185255,-1.8376731145797187e-05,-0.38530557218772343
566,0.5566,973.177,1022.24,0.0366898,0.00749627,0.0754664,-0.0026163,0.245525,0.245525,-0.487411,-1.57187e-10,-1.2546e-05,-1.83657e-05,0.437187,0.27829224049732315,-1.571870411609666e-10,-1.2545921299289553e-05,0.27829224049732315,-1.8365531351594022e-05,-0.3857854611148259
567,0.5576,973.433,1022.51,0.0364538,0.00753402,0.0754455,-0.00256938,0.245916,0.245916,-0.488192,-1.56422e-10,-1.2512e-05,-1.83553e-05,0.437891,0.278792150489392,-1.564219864746974e-10,-1.2511921725244513e-05,0.278792150489392,-1.835513154246904e-05,-0.38626497539499516
568,0.5586,973.688,1022.78,0.0365846,0.00757281,0.0754513,-0.0024796,0.246307,0.246307,-0.488973,-1.55647e-10,-1.24776e-05,-1.8344e-05,0.438595,0.27929225598448637,-1.5564705080350905e-10,-1.2477522155052156e-05,0.27929225598448637,-1.8343831749811912e-05,-0.38674411532071595
569,0.5596,973.943,1023.05,0.0363781,0.00761054,0.0754325,-0.00242931,0.246698,0.246698,-0.489754,-1.54883e-10,-1.24434e-05,-1.83333e-05,0.439299,0.2797925570590625,-1.5488299531796201e-10,-1.2443322581212612e-05,0.2797925570590625,-1.83331319461022e-05,-0.3872228811842451
570,0.5606,974.197,1023.31,0.0364819,0.00764916,0.0754362,-0.00234278,0.247089,0.247089,-0.490535,-1.54112e-10,-1.24089e-05,-1.83219e-05,0.440002,0.2802930537896071,-1.5411194542735984e-10,-1.240882300990176e-05,0.2802930537896071,-1.832173215499111e-05,-0.38770127327761095
571,0.5616,974.451,1023.58,0.0363006,0.00768686,0.075419,-0.00228962,0.247479,0.247479,-0.491315,-1.53351e-10,-1.23746e-05,-1.83109e-05,0.440706,0.2807924654595306,-1.5335099856628176e-10,-1.2374523434943718e-05,0.2807924654595306,-1.8310732356474624e-05,-0.3881786800716003
572,0.5626,974.705,1023.85,0.0363814,0.0077253,0.075421,-0.00220586,0.247869,0.247869,-0.492094,-1.52583e-10,-1.23399e-05,-1.82993e-05,0.441409,0.28129207193799055,-1.5258294627784608e-10,-1.233982386372734e-05,0.28129207193799055,-1.829913256878868e-05,-0.3886551032888885
573,0.5636,974.958,1024.11,0.0362217,0.00776296,0.0754053,-0.00215027,0.248259,0.248259,-0.492874,-1.51824e-10,-1.23055e-05,-1.82881e-05,0.442111,0.2817918733009772,-1.5182399781821232e-10,-1.2305424287650801e-05,0.2817918733009772,-1.8287932773697335e-05,-0.3891317663855487
574,0.5646,975.211,1024.38,0.0362829,0.00780124,0.0754057,-0.00206889,0.248649,0.248649,-0.493653,-1.5106e-10,-1.22707e-05,-1.82764e-05,0.442814,0.28229186962451025,-1.5106005335496775e-10,-1.2270624715315925e-05,0.28229186962451025,-1.827623298766845e-05,-0.38960744743770936
575,0.5656,975.463,1024.64,0.0361416,0.00783886,0.0753912,-0.00201123,0.249039,0.249039,-0.494432,-1.50303e-10,-1.22361e-05,-1.8265e-05,0.443516,0.28279206098463905,-1.5030299227447586e-10,-1.223602513922284e-05,0.28279206098463905,-1.8264833195891228e-05,-0.39008275807862425
576,0.5666,975.715,1024.9,0.0361861,0.00787698,0.0753903,-0.00193187,0.249429,0.249429,-0.49521,-1.49543e-10,-1.22013e-05,-1.82531e-05,0.444218,0.283292447457443,-1.4954304461411994e-10,-1.2201225564445473e-05,0.283292447457443,-1.8252933413176464e-05,-0.39055708915412524
577,0.5676,975.966,1025.17,0.0360604,0.00791455,0.0753768,-0.00187247,0.249819,0.249819,-0.495989,-1.48789e-10,-1.21666e-05,-1.82414e-05,0.444919,0.2837930291190305,-1.4878898113579453e-10,-1.216652598723389e-05,0.2837930291190305,-1.824123362670349e-05,-0.39103166031220904
578,0.5686,976.217,1025.43,0.0360909,0.00795253,0.0753747,-0.00179485,0.250208,0.250208,-0.496767,-1.48032e-10,-1.21316e-05,-1.82294e-05,0.445621,0.2842925217523762,-1.480320310776051e-10,-1.2131526412439975e-05,0.2842925217523762,-1.8229233845534765e-05,-0.39150525342887554
579,0.5696,976.467,1025.69,0.0359784,0.00799003,0.0753622,-0.00173398,0.250597,0.250597,-0.497544,-1.4728e-10,-1.20967e-05,-1.82175e-05,0.446322,0.2847922087261532,-1.4727996600072402e-10,-1.2096626835211843e-05,0.2847922087261532,-1.821733406237591e-05,-0.3919778702115635
580,0.5706,976.717,1025.96,0.035997,0.00802787,0.0753591,-0.00165784,0.250986,0.250986,-0.498322,-1.46526e-10,-1.20617e-05,-1.82053e-05,0.447023,0.28529209011597456,-1.4652601354470107e-10,-1.2061627257975438e-05,0.28529209011597456,-1.8205134284521307e-05,-0.39245072746321696
581,0.5716,976.967,1026.22,0.0358958,0.00806531,0.0753472,-0.00159573,0.251375,0.251375,-0.499099,-1.45777e-10,-1.20267e-05,-1.81932e-05,0.447723,0.2857921659974825,-1.4577694606998648e-10,-1.2026627679517787e-05,0.2857921659974825,-1.8193034504787597e-05,-0.3929226098979114
582,0.5726,977.216,1026.48,0.0359043,0.00810302,0.0753433,-0.00152085,0.251764,0.251764,-0.499875,-1.45027e-10,-1.19915e-05,-1.81808e-05,0.448424,0.2862924364463495,-1.4502699041685219e-10,-1.1991428102264834e-05,0.2862924364463495,-1.8180634730247114e-05,-0.39339351921618426
583,0.5736,977.465,1026.74,0.0358127,0.00814038,0.075332,-0.00145771,0.252153,0.252153,-0.500652,-1.4428e-10,-1.19564e-05,-1.81685e-05,0.449124,0.28679290153827663,-1.4428003236588438e-10,-1.1956328522577664e-05,0.28679290153827663,-1.8168334953827525e-05,-0.39386466938620834
584,0.5746,977.714,1027.0,0.0358127,0.00817796,0.0753273,-0.00138391,0.252541,0.252541,-0.501428,-1.43533e-10,-1.19211e-05,-1.81559e-05,0.449823,0.28729227405607705,-1.4353296329261411e-10,-1.1921028943984169e-05,0.28729227405607705,-1.8155735182601163e-05,-0.3943348479498877
585,0.5756,977.961,1027.26,0.0357291,0.00821525,0.0753165,-0.00131991,0.252929,0.252929,-0.502204,-1.4279e-10,-1.18859e-05,-1.81434e-05,0.450523,0.2877918403680082,-1.4279000204453496e-10,-1.1885829362956457e-05,0.2877918403680082,-1.8143235409495695e-05,-0.3948046617965302
586,0.5766,978.209,1027.52,0.035722,0.00825271,0.0753112,-0.00124702,0.253318,0.253318,-0.502979,-1.42046e-10,-1.18505e-05,-1.81307e-05,0.451222,0.28829288884152104,-1.4204604159573364e-10,-1.1850429783133443e-05,0.28829288884152104,-1.813053563981537e-05,-0.3952735064828553
587,0.5776,978.456,1027.78,0.0356453,0.00828992,0.0753008,-0.00118231,0.253706,0.253706,-0.503755,-1.41305e-10,-1.18151e-05,-1.8118e-05,0.451921,0.2887928434673168,-1.4130496772679635e-10,-1.181503020197816e-05,0.2887928434673168,-1.8117835870024024e-05,-0.395742592213022
588,0.5786,978.703,1028.04,0.0356322,0.00832726,0.075295,-0.0011102,0.254094,0.254094,-0.50453,-1.40565e-10,-1.17797e-05,-1.8105e-05,0.45262,0.28929299211314485,-1.4056500408088368e-10,-1.1779630619601633e-05,0.28929299211314485,-1.8104836105425903e-05,-0.39621071028487376
589,0.5796,978.949,1028.3,0.0355612,0.00836438,0.0752848,-0.00104491,0.254481,0.254481,-0.505304,-1.39827e-10,-1.17442e-05,-1.80921e-05,0.453318,0.2897920450616098,-1.3982703883641534e-10,-1.174413103710581e-05,0.2897920450616098,-1.8091936338948678e-05,-0.3966778623839293
590,0.5806,979.195,1028.55,0.0355432,0.00840161,0.0752785,-0.000973466,0.254869,0.254869,-0.506079,-1.39089e-10,-1.17086e-05,-1.8079e-05,0.454016,0.29029258147287806,-1.3908896256964454e-10,-1.1708531454601712e-05,0.29029258147287806,-1.8078836575896595e-05,-0.3971452559021994
591,0.5816,979.441,1028.81,0.0354771,0.00843865,0.0752687,-0.000907688,0.255256,0.255256,-0.506853,-1.38355e-10,-1.1673e-05,-1.80659e-05,0.454714,0.2907920213372883,-1.3835499412806485e-10,-1.1672931870765346e-05,0.2907920213372883,-1.8065736812622468e-05,-0.39761168494280685
592,0.5826,979.686,1029.07,0.0354549,0.00847576,0.0752619,-0.000836814,0.255644,0.255644,-0.507626,-1.3762e-10,-1.16373e-05,-1.80526e-05,0.455412,0.2912929458146316,-1.37620026485763e-10,-1.1637232286920707e-05,0.2912929458146316,-1.8052437052773485e-05,-0.3980771511844662
593,0.5836,979.931,1029.33,0.0353928,0.00851271,0.0752522,-0.000770644,0.256031,0.256031,-0.5084,-1.36888e-10,-1.16015e-05,-1.80393e-05,0.456109,0.29179277289496364,-1.3688794542332516e-10,-1.1601432702845749e-05,0.29179277289496364,-1.803913729281348e-05,-0.39854285921719124
594,0.5846,980.175,1029.58,0.0353672,0.00854972,0.0752452,-0.000700257,0.256418,0.256418,-0.509173,-1.36157e-10,-1.15657e-05,-1.80258e-05,0.456806,0.29229279344580994,-1.3615697458391196e-10,-1.1565633117549545e-05,0.29229279344580994,-1.8025637536278616e-05,-0.39900760593926654
595,0.5856,980.419,1029.84,0.0353086,0.00858658,0.0752356,-0.00063377,0.256805,0.256805,-0.509946,-1.35428e-10,-1.15299e-05,-1.80123e-05,0.457503,0.29279300754205817,-1.3542800214594308e-10,-1.1529833530921074e-05,0.29279300754205817,-1.801213777952171e-05,-0.3994719935509399
596,0.5866,980.662,1030.09,0.0352801,0.00862348,0.0752282,-0.000563802,0.257191,0.257191,-0.510718,-1.347e-10,-1.1494e-05,-1.79986e-05,0.458199,0.29329212196585597,-1.3470002890869637e-10,-1.1493933944284329e-05,0.29329212196585597,-1.7998438026189945e-05,-0.39993542226541845
597,0.5876,980.905,1030.35,0.0352243,0.00866025,0.0752187,-0.000497062,0.257578,0.257578,-0.511491,-1.33975e-10,-1.1458e-05,-1.79849e-05,0.458895,0.29379272287708513,-1.3397505327361614e-10,-1.1457934357417265e-05,0.29379272287708513,-1.7984738272636136e-05,-0.4003990929521988
598,0.5886,981.148,1030.6,0.0351935,0.00869705,0.0752111,-0.000427453,0.257964,0.257964,-0.512263,-1.3325e-10,-1.1422e-05,-1.7971e-05,0.459591,0.29429222326548876,-1.3324996661623345e-10,-1.1421934769217934e-05,0.29429222326548876,-1.797083852250747e-05,-0.40086180622213663
599,0.5896,981.39,1030.86,0.0351402,0.00873373,0.0752017,-0.000360514,0.25835,0.25835,-0.513034,-1.32527e-10,-1.13859e-05,-1.79571e-05,0.460287,0.29479191649825887,-1.3252698938259755e-10,-1.1385835180899306e-05,0.29479191649825887,-1.7956938772267783e-05,-0.4013235637391426
600,0.5906,981.632,1031.11,0.0351074,0.00877041,0.0751937,-0.000291216,0.258737,0.258737,-0.513806,-1.31806e-10,-1.13498e-05,-1.79431e-05,0.460983,0.29529309794229786,-1.3180601055040597e-10,-1.1349735591248411e-05,0.29529309794229786,-1.7942939023574134e-05,-0.40178556359304696
601,0.5916,981.874,1031.36,0.0350561,0.008807,0.0751844,-0.000224123,0.259122,0.259122,-0.514577,-1.31086e-10,-1.13136e-05,-1.7929e-05,0.461678,0.29579188179473626,-1.3108603091893656e-10,-1.131353600147822e-05,0.29579188179473626,-1.7928839276426523e-05,-0.402246609167609
602,0.5926,982.115,1031.62,0.0350218,0.00884359,0.0751762,-0.000155095,0.259508,0.259508,-0.515348,-1.30367e-10,-1.12774e-05,-1.79148e-05,0.462373,0.2962921540074346,-1.303670504881893e-10,-1.127733641037576e-05,0.2962921540074346,-1.7914639530935972e-05,-0.4027072994130302
603,0.5936,982.356,1031.87,0.0349722,0.00888008,0.0751669,-8.7886e-05,0.259894,0.259894,-0.516118,-1.29651e-10,-1.12411e-05,-1.79005e-05,0.463067,0.296792619362481,-1.2965095663730608e-10,-1.1241036819042982e-05,0.296792619362481,-1.790033978699146e-05,-0.40316703777049956
604,0.5946,982.596,1032.12,0.0349366,0.00891657,0.0751585,-1.90936e-05,0.260279,0.260279,-0.516888,-1.28936e-10,-1.12048e-05,-1.78861e-05,0.463762,0.2972919806418137,-1.2893597300944748e-10,-1.1204737226488959e-05,0.2972919806418137,-1.7885940044704007e-05,-0.40362642226568823
605,0.5956,982.836,1032.37,0.0348885,0.00895297,0.0751492,4.82e-05,0.260665,0.260665,-0.517658,-1.28222e-10,-1.11684e-05,-1.78716e-05,0.464456,0.2977928320044356,-1.2822198858231104e-10,-1.1168337633704617e-05,0.2977928320044356,-1.7871440303962594e-05,-0.4040854531709651
606,0.5966,983.075,1032.62,0.0348518,0.00898935,0.0751407,0.000116786,0.26105,0.26105,-0.518428,-1.2751e-10,-1.11319e-05,-1.7857e-05,0.46515,0.2982925784397732,-1.2751000255661893e-10,-1.1131838040578934e-05,0.2982925784397732,-1.7856840564767218e-05,-0.40454413075848983
607,0.5976,983.314,1032.87,0.034805,0.00902566,0.0751313,0.000184137,0.261435,0.261435,-0.519197,-1.268e-10,-1.10954e-05,-1.78423e-05,0.465843,0.2987925173145307,-1.2680001493237114e-10,-1.1095338446232006e-05,0.2987925173145307,-1.784214082711788e-05,-0.40500186030236995
608,0.5986,983.553,1033.12,0.0347675,0.00906194,0.0751226,0.00025254,0.26182,0.26182,-0.519966,-1.26091e-10,-1.10589e-05,-1.78275e-05,0.466537,0.29929264870281136,-1.2609102650884552e-10,-1.105883885055281e-05,0.29929264870281136,-1.782734109101458e-05,-0.4054592379875379
609,0.5996,983.792,1033.37,0.0347216,0.00909816,0.0751132,0.000319927,0.262205,0.262205,-0.520735,-1.25384e-10,-1.10223e-05,-1.78127e-05,0.46723,0.2997929726787474,-1.2538403648676422e-10,-1.1022239254643296e-05,0.2997929726787474,-1.781254135480026e-05,-0.4059162640844689
610,0.6006,984.03,1033.62,0.0346834,0.00913434,0.0751044,0.000388167,0.262589,0.262589,-0.521503,-1.24678e-10,-1.09856e-05,-1.77977e-05,0.467922,0.30029218902365984,-1.2467804566540508e-10,-1.0985539658503463e-05,0.30029218902365984,-1.779754162190006e-05,-0.4063723452360726
611,0.6016,984.267,1033.87,0.0346385,0.00917046,0.0750949,0.000455571,0.262974,0.262974,-0.522271,-1.23974e-10,-1.09489e-05,-1.77826e-05,0.468615,0.30079289789670716,-1.2397405324549027e-10,-1.0948840061031362e-05,0.30079289789670716,-1.7782441890545897e-05,-0.40682807625182116
612,0.6026,984.504,1034.12,0.0345998,0.00920655,0.0750859,0.000523665,0.263358,0.263358,-0.523039,-1.23272e-10,-1.09122e-05,-1.77675e-05,0.469307,0.3012924982866352,-1.2327194820471732e-10,-1.0912140462115971e-05,0.3012924982866352,-1.7767342158858668e-05,-0.40728345740051575
613,0.6036,984.741,1034.37,0.0345555,0.00924257,0.0750765,0.000591071,0.263742,0.263742,-0.523807,-1.22571e-10,-1.08754e-05,-1.77522e-05,0.469999,0.3017922905599524,-1.22570953386969e-10,-1.0875340863081284e-05,0.3017922905599524,-1.7752042430596582e-05,-0.40773848895075115
614,0.6046,984.978,1034.62,0.0345164,0.00927856,0.0750673,0.000659032,0.264126,0.264126,-0.524574,-1.21872e-10,-1.08385e-05,-1.77369e-05,0.470691,0.3022922747903558,-1.21871956970665e-10,-1.0838441263705256e-05,0.3022922747903558,-1.773674270211245e-05,-0.40819257936379116
615,0.6056,985.214,1034.87,0.0344728,0.00931449,0.0750578,0.000726427,0.26451,0.26451,-0.525341,-1.21175e-10,-1.08016e-05,-1.77214e-05,0.471382,0.3027924510515714,-1.2117495895580532e-10,-1.0801541662885938e-05,0.3027924510515714,-1.7721242976942442e-05,-0.4086463216230184
616,0.6066,985.45,1035.11,0.0344334,0.00935038,0.0750485,0.000794267,0.264894,0.264894,-0.526107,-1.20479e-10,-1.07646e-05,-1.77059e-05,0.472074,0.30329281941735275,-1.204789601416678e-10,-1.0764542061947324e-05,0.30329281941735275,-1.7705743251439365e-05,-0.4090991250947851
617,0.6076,985.685,1035.36,0.0343904,0.00938622,0.0750389,0.00086164,0.265277,0.265277,-0.526874,-1.19784e-10,-1.07276e-05,-1.76903e-05,0.472765,0.3037920761687545,-1.1978396052825246e-10,-1.0727542459454398e-05,0.3037920761687545,-1.769014352759335e-05,-0.40955217230002383
618,0.6086,985.92,1035.61,0.0343508,0.00942201,0.0750295,0.000929368,0.265661,0.265661,-0.52764,-1.19091e-10,-1.06905e-05,-1.76746e-05,0.473455,0.30429282846429095,-1.1909095931628144e-10,-1.0690442856842175e-05,0.30429282846429095,-1.767444380518235e-05,-0.4100042821558608
619,0.6096,986.154,1035.85,0.0343082,0.00945775,0.0750199,0.00099671,0.266044,0.266044,-0.528406,-1.184e-10,-1.06534e-05,-1.76588e-05,0.474146,0.3047924682925123,-1.1839995650575474e-10,-1.0653343252786662e-05,0.3047924682925123,-1.7658644084317388e-05,-0.4104560458281533
620,0.6106,986.389,1036.1,0.0342684,0.00949345,0.0750104,0.00106433,0.266427,0.266427,-0.529171,-1.17711e-10,-1.06163e-05,-1.76429e-05,0.474836,0.30529229951943826,-1.1771095209667237e-10,-1.061624364728786e-05,0.30529229951943826,-1.7642744364998464e-05,-0.41090687448914553
621,0.6116,986.623,1036.34,0.0342262,0.0095291,0.0750006,0.00113164,0.26681,0.26681,-0.529936,-1.17023e-10,-1.0579e-05,-1.76269e-05,0.475526,0.3057923222183887,-1.1702294688831216e-10,-1.0578944042549665e-05,0.3057923222183887,-1.7626744647114556e-05,-0.4113573583980966
622,0.6126,986.856,1036.59,0.0341864,0.0095647,0.074991,0.00119916,0.267193,0.267193,-0.530701,-1.16337e-10,-1.05418e-05,-1.76108e-05,0.476215,0.3062925364627114,-1.1633705110369874e-10,-1.0541744435377254e-05,0.3062925364627114,-1.7610644930776687e-05,-0.411807497818641
623,0.6136,987.089,1036.83,0.0341446,0.00960026,0.0749812,0.00126642,0.267576,0.267576,-0.531466,-1.15652e-10,-1.05045e-05,-1.75946e-05,0.476905,0.30679294232578247,-1.1565204349750502e-10,-1.0504444827974524e-05,0.30679294232578247,-1.7594445215984855e-05,-0.41225729301421155
624,0.6146,987.322,1037.08,0.0341046,0.00963577,0.0749714,0.00133386,0.267958,0.267958,-0.53223,-1.14969e-10,-1.04671e-05,-1.75783e-05,0.477594,0.30729223258811933,-1.1496903429275562e-10,-1.046704522011943e-05,0.30729223258811933,-1.757814550262804e-05,-0.4127061569544902
625,0.6156,987.554,1037.32,0.0340631,0.00967122,0.0749616,0.00140107,0.268341,0.268341,-0.532994,-1.14288e-10,-1.04297e-05,-1.75619e-05,0.478283,0.30779302140813813,-1.1428802348945055e-10,-1.0429645610821048e-05,0.30779302140813813,-1.756174579070624e-05,-0.4131546780936851
626,0.6166,987.786,1037.56,0.0340231,0.00970664,0.0749517,0.00146841,0.268723,0.268723,-0.533758,-1.13608e-10,-1.03923e-05,-1.75455e-05,0.478971,0.30829269377366164,-1.1360801188686764e-10,-1.0392246000190397e-05,0.30829269377366164,-1.7545346078562396e-05,-0.4136028566935963
627,0.6176,988.018,1037.81,0.0339819,0.009742,0.0749417,0.00153557,0.269105,0.269105,-0.534521,-1.1293e-10,-1.03547e-05,-1.75289e-05,0.47966,0.30879255705049036,-1.1292999868572906e-10,-1.0354646390320354e-05,0.30879255705049036,-1.7528746369732673e-05,-0.414050107066224
628,0.6186,988.249,1038.05,0.033942,0.00977732,0.0749318,0.00160283,0.269487,0.269487,-0.535284,-1.12254e-10,-1.03172e-05,-1.75123e-05,0.480348,0.3092926113115668,-1.122539838860348e-10,-1.0317146777905073e-05,0.3092926113115668,-1.7512146660569883e-05,-0.4144970163169719
629,0.6196,988.48,1038.29,0.033901,0.00981259,0.0749218,0.00166993,0.269869,0.269869,-0.536047,-1.11579e-10,-1.02796e-05,-1.74955e-05,0.481035,0.30979285662986045,-1.1157896828706271e-10,-1.027954716514845e-05,0.30979285662986045,-1.749534695461019e-05,-0.4149435847060169
630,0.6206,988.711,1038.53,0.0338611,0.00984782,0.0749117,0.00173711,0.27025,0.27025,-0.53681,-1.10906e-10,-1.02419e-05,-1.74787e-05,0.481723,0.31029198278573134,-1.1090595108953494e-10,-1.0241847551939465e-05,0.31029198278573134,-1.7478547248428455e-05,-0.41538981249333695
631,0.6216,988.941,1038.77,0.0338204,0.00988299,0.0749016,0.00180415,0.270632,0.270632,-0.537572,-1.10235e-10,-1.02042e-05,-1.74618e-05,0.48241,0.3107926099368534,-1.1023504331575396e-10,-1.0204147937287189e-05,0.3107926099368534,-1.7461647543681735e-05,-0.41583511577412013
632,0.6226,989.171,1039.02,0.0337805,0.00991813,0.0748914,0.00187125,0.271013,0.271013,-0.538334,-1.09565e-10,-1.01665e-05,-1.74448e-05,0.483097,0.3112921170713061,-1.0956502372039267e-10,-1.0166448321302646e-05,0.3112921170713061,-1.744464784037003e-05,-0.41628007986305193
633,0.6236,989.4,1039.26,0.03374,0.00995321,0.0748812,0.00193823,0.271394,0.271394,-0.539096,-1.08897e-10,-1.01287e-05,-1.74276e-05,0.483784,0.3117918145542362,-1.0889700252647572e-10,-1.012864870486574e-05,0.3117918145542362,-1.7427448140261426e-05,-0.416724705018498
634,0.6246,989.629,1039.5,0.0337002,0.00998825,0.074871,0.00200524,0.271776,0.271776,-0.539857,-1.0823e-10,-1.00909e-05,-1.74104e-05,0.48447,0.3122930147505387,-1.0822998053328092e-10,-1.0090849086985543e-05,0.3122930147505387,-1.7410248439819753e-05,-0.4171684086673273
635,0.6256,989.858,1039.74,0.0336599,0.0100232,0.0748607,0.00207216,0.272157,0.272157,-0.540618,-1.07566e-10,-1.0053e-05,-1.73932e-05,0.485157,0.3127930936481391,-1.0756595614225262e-10,-1.0052949468764005e-05,0.3127930936481391,-1.7393048739156036e-05,-0.41761177478612643
636,0.6266,990.086,1039.98,0.0336201,0.0100582,0.0748504,0.0021391,0.272537,0.272537,-0.541379,-1.06903e-10,-1.00151e-05,-1.73758e-05,0.485843,0.31329204981939385,-1.0690304197424894e-10,-1.0015049849099178e-05,0.31329204981939385,-1.7375649041695418e-05,-0.4180548036316578
637,0.6276,990.314,1040.21,0.03358,0.0100931,0.07484,0.00220596,0.272918,0.272918,-0.54214,-1.06241e-10,-9.97709e-06,-1.73583e-05,0.486528,0.3137925094218754,-1.0624101598466495e-10,-9.97704022898116e-06,0.3137925094218754,-1.7358149345558793e-05,-0.41849749546048887
638,0.6286,990.542,1040.45,0.0335403,0.0101279,0.0748295,0.00227282,0.273298,0.273298,-0.5429,-1.05581e-10,-9.93907e-06,-1.73407e-05,0.487214,0.31429184544329125,-1.055809883965253e-10,-9.93902060764107e-06,0.31429184544329125,-1.7340549650968207e-05,-0.41893926946855187
639,0.6296,990.769,1040.69,0.0335004,0.0101627,0.0748191,0.0023396,0.273679,0.273679,-0.54366,-1.04923e-10,-9.90101e-06,-1.73231e-05,0.487899,0.3147926860404804,-1.0492295920982997e-10,-9.900960985187446e-06,0.3147926860404804,-1.732294995593353e-05,-0.41938070785592063
640,0.6306,990.996,1040.93,0.0334608,0.0101975,0.0748086,0.00240639,0.274059,0.274059,-0.544419,-1.04267e-10,-9.86289e-06,-1.73053e-05,0.488584,0.3152924022012329,-1.0426703944688143e-10,-9.86284136184068e-06,0.3152924022012329,-1.7305150264212976e-05,-0.41982123069909094
641,0.6316,991.223,1041.17,0.0334211,0.0102322,0.074798,0.00247311,0.274439,0.274439,-0.545179,-1.03612e-10,-9.82474e-06,-1.72875e-05,0.489269,0.31579230829021077,-1.0361200786235258e-10,-9.824691737381208e-06,0.31579230829021077,-1.7287350572048332e-05,-0.4202619990505704
642,0.6326,991.449,1041.41,0.0333816,0.0102669,0.0747874,0.00253982,0.274819,0.274819,-0.545938,-1.02959e-10,-9.78654e-06,-1.72695e-05,0.489953,0.31629240437960027,-1.0295897467926807e-10,-9.786492111918399e-06,0.31629240437960027,-1.7269350883086787e-05,-0.4207018532475073
643,0.6336,991.675,1041.64,0.033342,0.0103015,0.0747767,0.00260647,0.275199,0.275199,-0.546697,-1.02308e-10,-9.74829e-06,-1.72515e-05,0.490637,0.3167926905416152,-1.0230805091993034e-10,-9.748242485563274e-06,0.3167926905416152,-1.7251351193681153e-05,-0.4211413737217725
644,0.6346,991.901,1041.88,0.0333026,0.0103361,0.074766,0.00267311,0.275578,0.275578,-0.547455,-1.01658e-10,-9.71e-06,-1.72334e-05,0.491321,0.31729184955598866,-1.0165801533901231e-10,-9.709952858094617e-06,0.31729184955598866,-1.7233251505821556e-05,-0.421579982306837
645,0.6356,992.126,1042.11,0.0332632,0.0103706,0.0747553,0.00273969,0.275958,0.275958,-0.548214,-1.0101e-10,-9.67166e-06,-1.72152e-05,0.492005,0.31779251557933974,-1.010099781595386e-10,-9.671613229622622e-06,0.31779251557933974,-1.7215051819285954e-05,-0.42201883653401884
646,0.6366,992.351,1042.35,0.033224,0.0104051,0.0747445,0.00280626,0.276337,0.276337,-0.548971,-1.00364e-10,-9.63328e-06,-1.71969e-05,0.492688,0.3182920535992195,-1.0036405040381169e-10,-9.633233600148117e-06,0.3182920535992195,-1.7196752134185367e-05,-0.42245620271077866
647,0.6376,992.562,1042.68,0.0727016,0.0105944,0.0859451,-0.00884776,0.276717,0.276717,-0.549729,-9.97193e-11,-9.59486e-06,-1.71785e-05,0.493371,0.31879309977233095,-9.971934389341186e-11,-9.594813969449056e-06,0.31879309977233095,-1.7178352450408774e-05,-0.42289381503310075
648,0.6386,992.74,1042.86,0.021908,0.0105465,0.0741782,0.00130173,0.277096,0.277096,-0.550487,-1.00055e-10,-9.73652e-06,-1.70088e-05,0.494054,0.3192930170854913,-1.0005496431375605e-10,-9.73647260027466e-06,0.3192930170854913,-1.700865535114726e-05,-0.42333109577096883
649,0.6396,992.931,1043.16,0.0396365,0.0108261,0.0757286,0.00322348,0.277474,0.277474,-0.551244,-9.9719e-11,-9.85859e-06,-1.67649e-05,0.494737,0.31979180411075836,-9.971901082650447e-11,-9.858541404228482e-06,0.31979180411075836,-1.676475946987832e-05,-0.4237674689433859
650,0.6406,993.096,1043.43,0.0260155,0.0110054,0.0750058,0.00137957,0.277853,0.277853,-0.552001,-1.00068e-10,-1.00163e-05,-1.65813e-05,0.495419,0.32029210000459973,-1.0006795392314416e-10,-1.0016249836986013e-05,0.32029210000459973,-1.6581162531004168e-05,-0.42420351190631145
651,0.6416,993.29,1043.72,0.038898,0.011239,0.0762319,0.00266462,0.278232,0.278232,-0.552758,-9.97673e-11,-1.01425e-05,-1.63481e-05,0.496101,0.3207925855465208,-9.976730552807567e-11,-1.0142448565009232e-05,0.3207925855465208,-1.634796637051128e-05,-0.4246392249096195
652,0.6426,993.464,1043.98,0.0275423,0.011389,0.075676,0.00108788,0.27861,0.27861,-0.553514,-9.99887e-11,-1.02967e-05,-1.61612e-05,0.496783,0.3212919395158118,-9.998868399918592e-11,-1.0296646989149671e-05,0.3212919395158118,-1.616106940849349e-05,-0.42507403327731574
653,0.6436,993.662,1044.25,0.0377081,0.011581,0.0767027,0.002052,0.278989,0.278989,-0.55427,-9.96779e-11,-1.04251e-05,-1.59341e-05,0.497465,0.3217928040687257,-9.967793257459334e-11,-1.0425045658846166e-05,0.3217928040687257,-1.593397305288402e-05,-0.4255085130541092
654,0.6446,993.844,1044.51,0.0285723,0.0117056,0.0763101,0.00073785,0.279367,0.279367,-0.555026,-9.97756e-11,-1.05757e-05,-1.5744e-05,0.498146,0.32229253619208453,-9.977563220076036e-11,-1.0575644077470692e-05,0.32229253619208453,-1.5743876063845086e-05,-0.4259426644883203
655,0.6456,994.046,1044.78,0.0366759,0.0118632,0.0771853,0.00145863,0.279745,0.279745,-0.555782,-9.9441e-11,-1.07056e-05,-1.55219e-05,0.498827,0.3227924572498926,-9.944101098113833e-11,-1.0705542695221837e-05,0.3227924572498926,-1.5521779535898617e-05,-0.4263764878280826
656,0.6466,994.234,1045.03,0.0293672,0.0119665,0.0769269,0.000360697,0.280123,0.280123,-0.556537,-9.94259e-11,-1.0853e-05,-1.53295e-05,0.499508,0.32329256731358025,-9.942591194800343e-11,-1.0852941106365144e-05,0.32329256731358025,-1.532938250381477e-05,-0.42680941013103835
657,0.6476,994.438,1045.29,0.0358253,0.0120958,0.0776811,0.000887536,0.280501,0.280501,-0.557292,-9.90595e-11,-1.09838e-05,-1.51116e-05,0.500188,0.3237928664546055,-9.905953834987713e-11,-1.0983739678338544e-05,0.3237928664546055,-1.5111485820340498e-05,-0.42724200570101256
658,0.6486,994.631,1045.54,0.0299888,0.0121816,0.0775308,-3.60357e-05,0.280878,0.280878,-0.558047,-9.89416e-11,-1.11285e-05,-1.49174e-05,0.500869,0.32429203045176,-9.894163266466194e-11,-1.1128438078489289e-05,0.32429203045176,-1.4917288736149281e-05,-0.4276742747845955
659,0.6496,994.837,1045.8,0.035127,0.0122877,0.0781878,0.000335451,0.281256,0.281256,-0.558801,-9.85377e-11,-1.12598e-05,-1.47031e-05,0.501549,0.3247927074612642,-9.85377335283033e-11,-1.1259736608648652e-05,0.3247927074612642,-1.4702991909976149e-05,-0.42810564573412324
660,0.6506,995.035,1046.04,0.0304723,0.0123589,0.0781241,-0.000448032,0.281633,0.281633,-0.559556,-9.83254e-11,-1.14021e-05,-1.45079e-05,0.502229,0.3252922484695404,-9.832534786369251e-11,-1.1402034996277344e-05,0.3252922484695404,-1.450779476097619e-05,-0.4285372630155675
661,0.6516,995.243,1046.29,0.0345523,0.012446,0.0787031,-0.000200865,0.28201,0.28201,-0.56031,-9.78796e-11,-1.15335e-05,-1.42968e-05,0.502908,0.3257919778402809,-9.787959331930551e-11,-1.1533433489474554e-05,0.3257919778402809,-1.4296697801285951e-05,-0.42896798351721865
662,0.6526,995.444,1046.53,0.0308443,0.0125052,0.0787087,-0.000871965,0.282387,0.282387,-0.561063,-9.75801e-11,-1.16736e-05,-1.41009e-05,0.503587,0.3262918956445118,-9.758005514726165e-11,-1.1673531863820585e-05,0.3262918956445118,-1.4100800582728112e-05,-0.42939780877611067
663,0.6536,995.653,1046.78,0.0340775,0.0125767,0.079225,-0.000724099,0.282764,0.282764,-0.561817,-9.70894e-11,-1.18049e-05,-1.38925e-05,0.504267,0.3267920019532857,-9.708944759267979e-11,-1.1804830322481585e-05,0.3267920019532857,-1.3892403499693451e-05,-0.4298278806708139
664,0.6546,995.857,1047.02,0.0311267,0.0126258,0.0792859,-0.00130515,0.283141,0.283141,-0.56257,-9.67089e-11,-1.1943e-05,-1.36964e-05,0.504945,0.32729229683768235,-9.670886313983829e-11,-1.1942928682673326e-05,0.32729229683768235,-1.369630620473572e-05,-0.4302570586708728
665,0.6556,996.067,1047.26,0.0336832,0.0126846,0.079752,-0.00123644,0.283518,0.283518,-0.563322,-9.61711e-11,-1.2074e-05,-1.34904e-05,0.505624,0.3277927803688079,-9.617107110670986e-11,-1.2073927109557125e-05,0.3277927803688079,-1.349030900499315e-05,-0.43068534430717
666,0.6566,996.272,1047.5,0.031337,0.0127255,0.079857,-0.00174541,0.283894,0.283894,-0.564075,-9.5715e-11,-1.22102e-05,-1.32943e-05,0.506302,0.32829212432500743,-9.571499148819385e-11,-1.2210125455824894e-05,0.32829212432500743,-1.3294211631209585e-05,-0.43111387688014446
667,0.6576,996.483,1047.74,0.0333535,0.0127739,0.0802829,-0.00173966,0.284271,0.284271,-0.564827,-9.51288e-11,-1.23408e-05,-1.30905e-05,0.50698,0.3287929848621569,-9.512879373119176e-11,-1.2340723852588553e-05,0.3287929848621569,-1.3090414319738564e-05,-0.4315415184313546
668,0.6586,996.691,1047.97,0.0314894,0.0128079,0.0804229,-0.00219099,0.284647,0.284647,-0.565579,-9.46016e-11,-1.24753e-05,-1.28947e-05,0.507658,0.3292927049659573,-9.460154881679728e-11,-1.2475222183727652e-05,0.3292927049659573,-1.2894616863712294e-05,-0.4319688385170044
669,0.6596,996.902,1048.21,0.0330758,0.0128477,0.0808167,-0.00223518,0.285023,0.285023,-0.566331,-9.39663e-11,-1.26052e-05,-1.2693e-05,0.508335,0.3297926129998454,-9.396627920210676e-11,-1.2605120554787241e-05,0.3297926129998454,-1.2692919444168282e-05,-0.4323958373787451
670,0.6606,997.111,1048.44,0.0315954,0.0128761,0.0809844,-0.00264045,0.285399,0.285399,-0.567082,-9.33722e-11,-1.27381e-05,-1.24976e-05,0.509013,0.33029270903449603,-9.337219886162984e-11,-1.2738018870694923e-05,0.33029270903449603,-1.2497521905352471e-05,-0.43282194808027796
671,0.6616,997.322,1048.68,0.0328398,0.0129089,0.0813525,-0.00272417,0.285775,0.285775,-0.567833,-9.26874e-11,-1.28673e-05,-1.22977e-05,0.50969,0.33079299314061084,-9.268741330004104e-11,-1.2867217216605553e-05,0.33079299314061084,-1.229762438359483e-05,-0.43324773889280743
672,0.6626,997.532,1048.91,0.0316643,0.0129327,0.081542,-0.00309264,0.28615,0.28615,-0.568584,-9.20299e-11,-1.29987e-05,-1.21029e-05,0.510366,0.3312921340961186,-9.202993922485803e-11,-1.299861551729009e-05,0.3312921340961186,-1.2102826760229668e-05,-0.43367321005647974
673,0.6636,997.744,1049.14,0.0326372,0.0129598,0.0818896,-0.00320754,0.286526,0.286526,-0.569334,-9.12959e-11,-1.3127e-05,-1.19047e-05,0.511043,0.3317927940567127,-9.129585976097587e-11,-1.3126913841365884e-05,0.3317927940567127,-1.1904629139358747e-05,-0.43409779590934017
674,0.6646,997.954,1049.37,0.0317037,0.0129796,0.0820964,-0.00354664,0.286901,0.286901,-0.570085,-9.05782e-11,-1.3257e-05,-1.17107e-05,0.511719,0.3322923100078712,-9.057821159785817e-11,-1.3256912126391462e-05,0.3322923100078712,-1.1710631430017493e-05,-0.4345226289198496
675,0.6656,998.166,1049.6,0.0324613,0.0130021,0.0824275,-0.00368606,0.287276,0.287276,-0.570834,-8.97954e-11,-1.33844e-05,-1.15141e-05,0.512395,0.33279201331263786,-8.979539334319497e-11,-1.3384310429298552e-05,0.33279201331263786,-1.151403371302262e-05,-0.43494601289369716
676,0.6666,998.377,1049.83,0.0317195,0.0130187,0.0826478,-0.00400169,0.287651,0.287651,-0.571584,-8.90205e-11,-1.3513e-05,-1.13209e-05,0.513071,0.3332919040412836,-8.902045767200661e-11,-1.3512908699775394e-05,0.3332919040412836,-1.1320835918815497e-05,-0.43536964450231597
677,0.6676,998.589,1050.06,0.0323068,0.0130374,0.0829658,-0.00416031,0.288026,0.288026,-0.572334,-8.81895e-11,-1.36394e-05,-1.11258e-05,0.513746,0.33379198226410556,-8.818945573807468e-11,-1.3639306983836974e-05,0.33379198226410556,-1.1125738108463956e-05,-0.4357929585063449
678,0.6686,998.799,1050.28,0.0317165,0.0130515,0.0831966,-0.0044572,0.288401,0.288401,-0.573083,-8.736e-11,-1.37667e-05,-1.09335e-05,0.514422,0.3342922480514272,-8.736000811637723e-11,-1.3766605239440288e-05,0.3342922480514272,-1.093344022951026e-05,-0.4362153913595713
679,0.6696,999.011,1050.51,0.0321693,0.013067,0.0835041,-0.00463079,0.288776,0.288776,-0.573831,-8.64818e-11,-1.38921e-05,-1.07399e-05,0.515097,0.3347927014735985,-8.648182170389873e-11,-1.389200350521147e-05,0.3347927014735985,-1.0739842327467386e-05,-0.43663694456628
680,0.6706,999.222,1050.74,0.0316988,0.0130789,0.0837431,-0.00491267,0.28915,0.28915,-0.57458,-8.56e-11,-1.40181e-05,-1.05486e-05,0.515771,0.33529200730832076,-8.559997155543897e-11,-1.4018001746940456e-05,0.33529200730832076,-1.054854436366437e-05,-0.43705874551062696
681,0.6716,999.434,1050.96,0.0320453,0.0130919,0.0840421,-0.00509787,0.289525,0.289525,-0.575328,-8.46756e-11,-1.41425e-05,-1.03563e-05,0.516446,0.33579283571051755,-8.467559986513606e-11,-1.4142399995309418e-05,0.33579283571051755,-1.0356246373688371e-05,-0.43747966812430183
682,0.6726,999.645,1051.19,0.0316692,0.0131021,0.0842874,-0.00536773,0.289899,0.289899,-0.576076,-8.37438e-11,-1.42672e-05,-1.0166e-05,0.51712,0.3362925156654004,-8.374378968056817e-11,-1.4267098223941233e-05,0.3362925156654004,-1.0165948326368301e-05,-0.43790027600558623
683,0.6736,999.856,1051.41,0.0319322,0.0131131,0.0845796,-0.00556187,0.290273,0.290273,-0.576824,-8.27743e-11,-1.43905e-05,-9.9751e-06,0.517794,0.33679238253553745,-8.277434293546548e-11,-1.439039645723117e-05,0.33679238253553745,-9.975050248800521e-06,-0.4383205693898121
684,0.6746,1000.07,1051.64,0.0316304,0.0131218,0.0848298,-0.00582207,0.290647,0.290647,-0.577571,-8.17947e-11,-1.45139e-05,-9.78586e-06,0.518468,0.3372924363908478,-8.179468213853625e-11,-1.4513794673876035e-05,0.3372924363908478,-9.785812118634496e-06,-0.43873998725240293
685,0.6756,1000.28,1051.86,0.0318278,0.0131311,0.0851164,-0.00602303,0.291021,0.291021,-0.578319,-8.07812e-11,-1.46362e-05,-9.59627e-06,0.519141,0.3377926773012774,-8.078115953935594e-11,-1.4636092891318064e-05,0.3377926773012774,-9.596223955909977e-06,-0.4391596527674685
686,0.6766,1000.49,1052.09,0.0315844,0.0131386,0.0853703,-0.00627543,0.291395,0.291395,-0.579065,-7.97557e-11,-1.47584e-05,-9.40811e-06,0.519815,0.33829310533679746,-7.975564653150968e-11,-1.4758291095318121e-05,0.33829310533679746,-9.408065743898852e-06,-0.4395778836469899
687,0.6776,1000.7,1052.31,0.0317302,0.0131466,0.0856525,-0.00648154,0.291768,0.291768,-0.579812,-7.86996e-11,-1.48795e-05,-9.21979e-06,0.520488,0.338792381774355,-7.869960239048623e-11,-1.4879389300781476e-05,0.338792381774355,-9.219747497901665e-06,-0.43999636264653963
688,0.6786,1000.91,1052.53,0.0315326,0.0131532,0.085909,-0.00672762,0.292141,0.292141,-0.580558,-7.763e-11,-1.50005e-05,-9.03273e-06,0.52116,0.3392918444767601,-7.763001352856236e-11,-1.5000387493024903e-05,0.3392918444767601,-9.032689205046296e-06,-0.4404139695732546
689,0.6796,1001.12,1052.75,0.031638,0.0131601,0.0861875,-0.00693757,0.292515,0.292515,-0.581304,-7.65326e-11,-1.51205e-05,-8.84568e-06,0.521833,0.3397928333056657,-7.653255806872039e-11,-1.5120385685851723e-05,0.3397928333056657,-8.845640877108707e-06,-0.4408312650813758
690,0.6806,1001.33,1052.97,0.0314764,0.0131659,0.086446,-0.00717849,0.292888,0.292888,-0.58205,-7.54206e-11,-1.52403e-05,-8.65973e-06,0.522505,0.34029266924609636,-7.542055868725583e-11,-1.5240183867226698e-05,0.34029266924609636,-8.659692504631167e-06,-0.4412482494031348
691,0.6816,1001.54,1053.2,0.0315503,0.013172,0.0867216,-0.00739123,0.293261,0.293261,-0.582796,-7.42832e-11,-1.53592e-05,-8.47391e-06,0.523177,0.34079269166010806,-7.428324622082982e-11,-1.5359082048083117e-05,0.34079269166010806,-8.473874096526224e-06,-0.4416649227705902
692,0.6826,1001.75,1053.42,0.0314167,0.0131772,0.0869815,-0.00762791,0.293634,0.293634,-0.583541,-7.31307e-11,-1.54778e-05,-8.28909e-06,0.523849,0.34129290061726847,-7.313072369896645e-11,-1.547768021947782e-05,0.34129290061726847,-8.28905564553839e-06,-0.44208072749663385
693,0.6836,1001.96,1053.64,0.031466,0.0131826,0.0872545,-0.00784262,0.294006,0.294006,-0.584286,-7.19546e-11,-1.55956e-05,-8.1045e-06,0.52452,0.34179195439454557,-7.195455342667856e-11,-1.5595478389252015e-05,0.34179195439454557,-8.10446715859836e-06,-0.44249622256351895
694,0.6846,1002.17,1053.86,0.0313544,0.0131873,0.0875153,-0.00807579,0.294379,0.294379,-0.58503,-7.0763e-11,-1.5713e-05,-7.9208e-06,0.525191,0.3422925361462277,-7.076295105434838e-11,-1.57128765514436e-05,0.3422925361462277,-7.920768630542696e-06,-0.44291085111298534
695,0.6856,1002.38,1054.08,0.0313844,0.0131922,0.0877863,-0.00829183,0.294751,0.294751,-0.585775,-6.95496e-11,-1.58296e-05,-7.73742e-06,0.525862,0.3427919618570969,-6.954958831073554e-11,-1.582947471256979e-05,0.3427919618570969,-7.737390066209215e-06,-0.4433257279680888
696,0.6866,1002.59,1054.3,0.03129,0.0131965,0.0880477,-0.00852205,0.295124,0.295124,-0.586519,-6.83206e-11,-1.59459e-05,-7.55486e-06,0.526533,0.34329291668113604,-6.83205714224755e-11,-1.5945772864789376e-05,0.34329291668113604,-7.554831462086575e-06,-0.44373973959505775
697,0.6876,1002.79,1054.51,0.0313051,0.0132009,0.0883168,-0.00873891,0.295496,0.295496,-0.587263,-6.70711e-11,-1.60614e-05,-7.37267e-06,0.527204,0.34379271460279126,-6.707112643056234e-11,-1.6061271016387657e-05,0.34379271460279126,-7.372642821912301e-06,-0.44415344331193296
698,0.6886,1003.0,1054.73,0.031224,0.013205,0.0885785,-0.00896663,0.295868,0.295868,-0.588006,-6.58062e-11,-1.61764e-05,-7.19125e-06,0.527874,0.3442926984838597,-6.58062493386069e-11,-1.617626916272652e-05,0.3442926984838597,-7.191224143054953e-06,-0.4445662839142761
699,0.6896,1003.21,1054.95,0.0312276,0.0132091,0.0888461,-0.00918392,0.29624,0.29624,-0.588749,-6.45221e-11,-1.62908e-05,-7.01025e-06,0.528544,0.34479286839353085,-6.452205436602299e-11,-1.629066730568507e-05,0.34479286839353085,-7.01022542826113e-06,-0.4449788178899775
700,0.6906,1003.42,1055.17,0.031157,0.0132129,0.0891079,-0.00940948,0.296611,0.296611,-0.589492,-6.32227e-11,-1.64047e-05,-6.82997e-06,0.529214,0.3452918791084687,-6.32226493380017e-11,-1.6404565443606245e-05,0.3452918791084687,-6.829946675779297e-06,-0.4453910454667763
701,0.6916,1003.63,1055.39,0.0311516,0.0132168,0.0893741,-0.00962688,0.296983,0.296983,-0.590235,-6.19053e-11,-1.6518e-05,-6.65014e-06,0.529883,0.3457924207824761,-6.190525869698149e-11,-1.6517863578591196e-05,0.3457924207824761,-6.650117887918583e-06,-0.4458029668722423
702,0.6926,1003.83,1055.6,0.031089,0.0132204,0.0896358,-0.00985056,0.297354,0.297354,-0.590978,-6.05728e-11,-1.66307e-05,-6.47101e-06,0.530552,0.3462918024001487,-6.057276902282638e-11,-1.6630561710639924e-05,0.3462918024001487,-6.470989063034338e-06,-0.4462145823337763
703,0.6936,1004.04,1055.82,0.0310767,0.0132241,0.0899009,-0.0100679,0.297726,0.297726,-0.59172,-5.92233e-11,-1.67428e-05,-6.29235e-06,0.531221,0.3467927161148159,-5.92232929363945e-11,-1.6742659840085494e-05,0.3467927161148159,-6.292330203216956e-06,-0.4466253387042256
704,0.6946,1004.25,1056.04,0.0310204,0.0132277,0.0901623,-0.0102899,0.298097,0.298097,-0.592462,-5.78592e-11,-1.68544e-05,-6.11435e-06,0.53189,0.3472924689109058,-5.785916190603757e-11,-1.685425796538187e-05,0.3472924689109058,-6.114331307371934e-06,-0.4470357904064939
705,0.6956,1004.45,1056.25,0.0310028,0.0132313,0.0904263,-0.0105068,0.298468,0.298468,-0.593203,-5.64789e-11,-1.69654e-05,-5.93685e-06,0.532559,0.34779240714968074,-5.6478932641823576e-11,-1.6965256088408154e-05,0.34779240714968074,-5.936832376929324e-06,-0.4474453851122224
706,0.6966,1004.66,1056.47,0.0309514,0.0132348,0.0906874,-0.0107273,0.298839,0.298839,-0.593945,-5.50844e-11,-1.70759e-05,-5.75999e-06,0.533227,0.3482925308999527,-5.508438150059192e-11,-1.707575420761831e-05,0.3482925308999527,-5.759973411234576e-06,-0.4478552285657441
707,0.6976,1004.87,1056.68,0.0309297,0.0132383,0.0909503,-0.0109439,0.29921,0.29921,-0.594686,-5.36747e-11,-1.71857e-05,-5.58364e-06,0.533895,0.3487928402305587,-5.3674731326225356e-11,-1.7185552326659526e-05,0.3487928402305587,-5.583624411498178e-06,-0.4482642162927102
708,0.6986,1005.07,1056.9,0.0308821,0.0132417,0.091211,-0.011163,0.29958,0.29958,-0.595426,-5.22512e-11,-1.72951e-05,-5.40792e-06,0.534563,0.3492919859177017,-5.225120336405098e-11,-1.729495044067164e-05,0.3492919859177017,-5.4079053771749486e-06,-0.44867234974465187
709,0.6996,1005.28,1057.11,0.0308573,0.0132452,0.091473,-0.0113789,0.299951,0.299951,-0.596167,-5.08131e-11,-1.74038e-05,-5.23272e-06,0.53523,0.3497926661149109,-5.0813131480254015e-11,-1.740364855473686e-05,0.3497926661149109,-5.232706309366009e-06,-0.4490807322091017
710,0.7006,1005.48,1057.33,0.0308127,0.0132486,0.0917333,-0.0115968,0.300321,0.300321,-0.596907,-4.93619e-11,-1.7512e-05,-5.05812e-06,0.535897,0.3502921818060776,-4.936184794246401e-11,-1.751184666587413e-05,0.3502921818060776,-5.058107207744911e-06,-0.4494882616627722
711,0.7016,1005.69,1057.54,0.0307855,0.0132521,0.0919944,-0.0118121,0.300691,0.300691,-0.597647,-4.78968e-11,-1.76196e-05,-4.88406e-06,0.536565,0.35079188235224623,-4.7896797639168653e-11,-1.761944477574051e-05,0.35079188235224623,-4.884048072972824e-06,-0.4498954896562011
712,0.7026,1005.89,1057.75,0.0307431,0.0132556,0.0922541,-0.0120287,0.301062,0.301062,-0.598387,-4.6419e-11,-1.77266e-05,-4.7106e-06,0.537231,0.35129311911426897,-4.641897977109011e-11,-1.772644288478009e-05,0.35129311911426897,-4.710588905165736e-06,-0.4503024164123862
713,0.7036,1006.1,1057.97,0.0307141,0.0132591,0.0925144,-0.0122433,0.301431,0.301431,-0.599126,-4.49282e-11,-1.78331e-05,-4.53767e-06,0.537898,0.3517918382832501,-4.492817229362345e-11,-1.7832940991224788e-05,0.3517918382832501,-4.537659704761943e-06,-0.45070849286292847
714,0.7046,1006.3,1058.18,0.0306736,0.0132626,0.0927735,-0.0124588,0.301801,0.301801,-0.599866,-4.34251e-11,-1.79391e-05,-4.36533e-06,0.538564,0.35229209380497917,-4.342515236288591e-11,-1.7938939095296647e-05,0.35229209380497917,-4.365320471988454e-06,-0.451114818219286
715,0.7056,1006.5,1058.39,0.0306432,0.0132661,0.093033,-0.0126727,0.302171,0.302171,-0.600604,-4.19096e-11,-1.80444e-05,-4.19353e-06,0.53923,0.3527925344554983,-4.190958691197011e-11,-1.8044237200753876e-05,0.3527925344554983,-4.1935212071742e-06,-0.4515197460466934
716,0.7066,1006.71,1058.61,0.0306041,0.0132696,0.0932916,-0.0128871,0.30254,0.30254,-0.601343,-4.03823e-11,-1.81492e-05,-4.02231e-06,0.539896,0.3532918070108335,-4.038225309699328e-11,-1.8149035304282357e-05,0.3532918070108335,-4.0223019105445346e-06,-0.45192492322295863
717,0.7076,1006.91,1058.82,0.0305727,0.0132732,0.0935503,-0.0131001,0.30291,0.30291,-0.602081,-3.88433e-11,-1.82535e-05,-3.85164e-06,0.540562,0.35379261762367764,-3.884326194025789e-11,-1.825333340588209e-05,0.35379261762367764,-3.851632582430042e-06,-0.45232925341342844
718,0.7086,1007.11,1059.03,0.0305346,0.0132769,0.0938082,-0.0133134,0.303279,0.303279,-0.602819,-3.72931e-11,-1.83572e-05,-3.68153e-06,0.541227,0.3542922592777966,-3.7293057530973783e-11,-1.835703150765422e-05,0.3542922592777966,-3.6815232231646178e-06,-0.4527332853182987
719,0.7096,1007.32,1059.24,0.0305025,0.0132805,0.0940662,-0.0135256,0.303648,0.303648,-0.603557,-3.57318e-11,-1.84603e-05,-3.51197e-06,0.541892,0.3547920853337061,-3.5731750891443426e-11,-1.8460129609709774e-05,0.3547920853337061,-3.5119638330805003e-06,-0.45313701915762283
720,0.7106,1007.52,1059.45,0.0304653,0.0132842,0.0943235,-0.0137379,0.304017,0.304017,-0.604295,-3.41597e-11,-1.85629e-05,-3.34298e-06,0.542557,0.35529209585946275,-3.4159675088574204e-11,-1.856272771039169e-05,0.35529209585946275,-3.342974412290367e-06,-0.45354045515129204
721,0.7116,1007.72,1059.66,0.0304326,0.013288,0.0945807,-0.0139493,0.304386,0.304386,-0.605032,-3.25771e-11,-1.86649e-05,-3.17454e-06,0.543221,0.35579229092314857,-3.2577052166971043e-11,-1.866472581180112e-05,0.35579229092314857,-3.17453496112563e-06,-0.4539430474623559
722,0.7126,1007.92,1059.87,0.0303961,0.0132917,0.0948373,-0.0141606,0.304755,0.304755,-0.605769,-3.09844e-11,-1.87664e-05,-3.00665e-06,0.543886,0.3562926705928706,-3.0984437238146256e-11,-1.8766223912169977e-05,0.3562926705928706,-3.006645480030379e-06,-0.45434534317219755
723,0.7136,1008.12,1060.08,0.0303631,0.0132956,0.0950938,-0.014371,0.305123,0.305123,-0.606506,-2.93816e-11,-1.88673e-05,-2.83932e-06,0.54455,0.3567918781442043,-2.938160825749492e-11,-1.8867122013599413e-05,0.3567918781442043,-2.8393159691164627e-06,-0.45474734249933146
724,0.7146,1008.33,1060.29,0.0303271,0.0132994,0.0953498,-0.0145813,0.305492,0.305492,-0.607242,-2.77692e-11,-1.89677e-05,-2.67254e-06,0.545214,0.3572926267296719,-2.7769231358831803e-11,-1.8967520114321346e-05,0.3572926267296719,-2.6725364287161213e-06,-0.4551485008108844
725,0.7156,1008.53,1060.5,0.0302938,0.0133034,0.0956056,-0.0147909,0.30586,0.30586,-0.607978,-2.61473e-11,-1.90675e-05,-2.5063e-06,0.545877,0.35779220233258147,-2.6147306542156912e-11,-1.90673182163259e-05,0.35779220233258147,-2.5062968592726165e-06,-0.4555493639785465
726,0.7166,1008.73,1060.71,0.0302582,0.0133073,0.0958609,-0.0150002,0.306228,0.306228,-0.608714,-2.45163e-11,-1.91667e-05,-2.34062e-06,0.546541,0.35829196181314416,-2.4516277896680094e-11,-1.9166516319946147e-05,0.35829196181314416,-2.340617260787603e-06,-0.45594993221946345
727,0.7176,1008.93,1060.92,0.0302247,0.0133114,0.096116,-0.0152089,0.306596,0.306596,-0.60945,-2.28764e-11,-1.92655e-05,-2.17548e-06,0.547204,0.3587919052390398,-2.2876367467006276e-11,-1.9265314421423874e-05,0.3587919052390398,-2.175477633592493e-06,-0.4563502057506216
728,0.7186,1009.13,1061.13,0.0301896,0.0133154,0.0963706,-0.0154173,0.306964,0.306964,-0.610185,-2.12278e-11,-1.93636e-05,-2.01089e-06,0.547867,0.3592920326779725,-2.122779729774038e-11,-1.9363412526729462e-05,0.3592920326779725,-2.010887978132203e-06,-0.45674964153876063
729,0.7196,1009.33,1061.34,0.0301559,0.0133196,0.096625,-0.015625,0.307332,0.307332,-0.61092,-1.95708e-11,-1.94613e-05,-1.84685e-06,0.548529,0.35979234419767137,-1.9570789433487334e-11,-1.9461110630114575e-05,0.35979234419767137,-1.8468482946287779e-06,-0.45714878384946156
730,0.7206,1009.53,1061.55,0.0301211,0.0133238,0.0968789,-0.0158325,0.3077,0.3077,-0.611655,-1.79057e-11,-1.95583e-05,-1.68335e-06,0.549192,0.36029283986589067,-1.7905676941154525e-11,-1.9558108737660618e-05,0.36029283986589067,-1.6833485831924122e-06,-0.457547632898351
731,0.7216,1009.73,1061.76,0.0300874,0.013328,0.0971326,-0.0160393,0.308067,0.308067,-0.61239,-1.62327e-11,-1.96549e-05,-1.52039e-06,0.549854,0.36079215895757044,-1.6232681865346876e-11,-1.9654706843730274e-05,0.36079215895757044,-1.520388844156173e-06,-0.45794618890089733
732,0.7226,1009.93,1061.96,0.0300528,0.0133323,0.0973858,-0.0162458,0.308435,0.308435,-0.613124,-1.45521e-11,-1.97508e-05,-1.35797e-06,0.550516,0.3612930226253295,-1.4552137272971777e-11,-1.9750604954182904e-05,0.3612930226253295,-1.3579690779641496e-06,-0.4583439104165916
733,0.7236,1010.13,1062.17,0.0300191,0.0133367,0.0976388,-0.0164517,0.308802,0.308802,-0.613858,-1.2864e-11,-1.98463e-05,-1.1961e-06,0.551177,0.36179270885144676,-1.2864043164029226e-11,-1.9846103063492215e-05,0.36179270885144676,-1.1960992847281915e-06,-0.45874134011180456
734,0.7246,1010.32,1062.38,0.0299847,0.0133411,0.0978914,-0.0166572,0.309169,0.309169,-0.614592,-1.11687e-11,-1.99412e-05,-1.03476e-06,0.551839,0.36229257849606444,-1.1168732605426612e-11,-1.9941001175638462e-05,0.36229257849606444,-1.0347594646686886e-06,-0.4591384782006538
735,0.7256,1010.52,1062.59,0.029951,0.0133456,0.0981437,-0.0168623,0.309536,0.309536,-0.615325,-9.46651e-12,-2.00355e-05,-8.73967e-07,0.5525,0.3627926316265093,-9.466538664071322e-12,-2.0035299290732667e-05,0.3627926316265093,-8.739666180757055e-07,-0.4595347844321547
736,0.7266,1010.72,1062.79,0.0299168,0.0133501,0.0983956,-0.0170669,0.309903,0.309903,-0.616058,-7.75761e-12,-2.01294e-05,-7.13708e-07,0.553161,0.3632928683101331,-7.757572362265819e-12,-2.012919740501662e-05,0.3632928683101331,-7.137077453478469e-07,-0.4599308002776272
737,0.7276,1010.92,1063.0,0.0298832,0.0133547,0.0986472,-0.0172709,0.310269,0.310269,-0.616791,-6.04222e-12,-2.02226e-05,-5.53984e-07,0.553822,0.3637919248217052,-6.0421667669174894e-12,-2.0222395524571724e-05,0.3637919248217052,-5.539838465740132e-07,-0.4603265259498466
738,0.7286,1011.12,1063.21,0.0298492,0.0133593,0.0988984,-0.0174746,0.310636,0.310636,-0.617524,-4.3206e-12,-2.03154e-05,-3.94795e-07,0.554482,0.3642925283132368,-4.320654944933722e-12,-2.0315193643649643e-05,0.3642925283132368,-3.947949220872715e-07,-0.46072196166143176
739,0.7296,1011.31,1063.41,0.0298156,0.0133641,0.0991492,-0.0176778,0.311002,0.311002,-0.618256,-2.59294e-12,-2.04076e-05,-2.36139e-07,0.555142,0.3647919507673334,-2.592925874012053e-12,-2.0407391766341654e-05,0.3647919507673334,-2.3613897215390978e-07,-0.4611165687416843
740,0.7306,1011.51,1063.62,0.0297817,0.0133688,0.0993998,-0.0178805,0.311369,0.311369,-0.618988,-8.59495e-13,-2.04992e-05,-7.80163e-08,0.555802,0.3652929213357414,-8.595346656647962e-13,-2.04989898928698e-05,0.3652929213357414,-7.801629697823387e-08,-0.4615108870752481
741,0.7316,1011.71,1063.82,0.0297482,0.0133737,0.09965,-0.0180828,0.311735,0.311735,-0.61972,8.79536e-13,-2.05904e-05,7.95759e-08,0.556462,0.3657927100006968,8.79518680108049e-13,-2.0590188019142808e-05,0.3657927100006968,7.957590320017971e-08,-0.46190491687340873
742,0.7326,1011.9,1064.03,0.0297144,0.0133786,0.0998998,-0.0182846,0.312101,0.312101,-0.620452,2.62392e-12,-2.0681e-05,2.36638e-07,0.557121,0.3662926816217824,2.623901096399095e-12,-2.0680786149585018e-05,0.3662926816217824,2.3663802806161982e-07,-0.46229865834729666
743,0.7336,1012.1,1064.23,0.029681,0.0133835,0.100149,-0.0184859,0.312467,0.312467,-0.621183,4.37346e-12,-2.0771e-05,3.93171e-07,0.557781,0.3667928362659727,4.373390538603417e-12,-2.0770784284307453e-05,0.3667928362659727,3.9317107725089784e-07,-0.4626915743997311
744,0.7346,1012.3,1064.44,0.0296474,0.0133885,0.100398,-0.0186868,0.312832,0.312832,-0.621914,6.12792e-12,-2.08605e-05,5.49176e-07,0.55844,0.3672918067077757,6.127987006721014e-12,-2.0860282421319987e-05,0.3672918067077757,5.491761507769866e-07,-0.46308420333548495
745,0.7356,1012.49,1064.64,0.029614,0.0133936,0.100647,-0.0188872,0.313198,0.313198,-0.622645,7.88711e-12,-2.09495e-05,7.04655e-07,0.559098,0.36779232709867493,7.887024366937112e-12,-2.094928056073364e-05,0.36779232709867493,7.046552483735979e-07,-0.4634765453643641
746,0.7366,1012.69,1064.84,0.0295805,0.0133988,0.100896,-0.0190871,0.313564,0.313564,-0.623376,9.65081e-12,-2.1038e-05,8.59609e-07,0.559757,0.36829303071356545,9.650724663856636e-12,-2.1037778702881482e-05,0.36829303071356545,8.596093694634988e-07,-0.46386860069602087
747,0.7376,1012.88,1065.05,0.0295472,0.013404,0.101144,-0.0192866,0.313929,0.313929,-0.624106,1.14188e-11,-2.11259e-05,1.01404e-06,0.560415,0.36879254882628576,1.141886585287466e-11,-2.112567684975364e-05,0.36879254882628576,1.0140405142244902e-06,-0.46425983380005575
748,0.7386,1013.08,1065.25,0.0295139,0.0134092,0.101392,-0.0194857,0.314294,0.314294,-0.624836,1.31909e-11,-2.12133e-05,1.16794e-06,0.561073,0.3692922492963955,1.3191003844781335e-11,-2.1213074999582027e-05,0.3692922492963955,1.1679406819453675e-06,-0.4646507814081434
749,0.7396,1013.27,1065.45,0.0294807,0.0134145,0.101639,-0.0196842,0.314659,0.314659,-0.625566,1.49669e-11,-2.13002e-05,1.32133e-06,0.561731,0.3697921321904669,1.4966916594971735e-11,-2.1299973152366647e-05,0.3697921321904669,1.3213308729387307e-06,-0.4650414437286199
750,0.7406,1013.47,1065.66,0.0294475,0.0134199,0.101886,-0.0198824,0.315024,0.315024,-0.626295,1.67466e-11,-2.13865e-05,1.47419e-06,0.562389,0.37029219757509746,1.674660410344586e-11,-2.1386271310430693e-05,0.37029219757509746,1.4741910865367913e-06,-0.46543128640122267
751,0.7416,1013.66,1065.86,0.0294144,0.0134254,0.102133,-0.02008,0.315389,0.315389,-0.627024,1.85298e-11,-2.14723e-05,1.62654e-06,0.563046,0.3707924455169078,1.8529844325598788e-11,-2.147206947178404e-05,0.3707924455169078,1.626541322741204e-06,-0.4658208449820812
752,0.7426,1013.85,1066.06,0.0293813,0.0134309,0.102379,-0.0202772,0.315754,0.315754,-0.627753,2.03164e-11,-2.15576e-05,1.77836e-06,0.563703,0.371292876082544,2.031641521682559e-11,-2.1557367636648728e-05,0.371292876082544,1.7783615813282694e-06,-0.4662101196782228
753,0.7436,1014.05,1066.26,0.0293482,0.0134365,0.102625,-0.020474,0.316118,0.316118,-0.628482,2.2106e-11,-2.16424e-05,1.92967e-06,0.56436,0.37179211754587205,2.2106094732521342e-11,-2.1642165804913738e-05,0.37179211754587205,1.929671861855553e-06,-0.46659911069652404
754,0.7446,1014.24,1066.46,0.0293152,0.0134421,0.102871,-0.0206702,0.316483,0.316483,-0.62921,2.38986e-11,-2.17266e-05,2.08047e-06,0.565017,0.3722929130583974,2.389866082808112e-11,-2.1726363979124308e-05,0.3722929130583974,2.0804721641010104e-06,-0.46698728523126243
755,0.7456,1014.43,1066.67,0.0292823,0.0134478,0.103116,-0.0208661,0.316847,0.316847,-0.629938,2.56939e-11,-2.18103e-05,2.23074e-06,0.565673,0.37279251860144313,2.5693891458899998e-11,-2.181006215717929e-05,0.37279251860144313,2.2307424880629867e-06,-0.4673751772777778
756,0.7466,1014.63,1066.87,0.0292494,0.0134535,0.103361,-0.0210614,0.317211,0.317211,-0.630666,2.74918e-11,-2.18935e-05,2.38051e-06,0.566329,0.37329230603400854,2.7491786624977976e-11,-2.189326033907868e-05,0.37329230603400854,2.3805128335219194e-06,-0.46776278704164653
757,0.7476,1014.82,1067.07,0.0292166,0.0134594,0.103606,-0.0212564,0.317575,0.317575,-0.631394,2.9292e-11,-2.19762e-05,2.52976e-06,0.566985,0.3737922754223133,2.9291902237105205e-11,-2.1975958525044526e-05,0.3737922754223133,2.52976319981002e-06,-0.46815011472829593
758,0.7486,1015.01,1067.27,0.0291838,0.0134652,0.10385,-0.0214508,0.317939,0.317939,-0.632121,3.10945e-11,-2.20583e-05,2.6785e-06,0.567641,0.37429242683260133,3.109446033988661e-11,-2.2058056717511043e-05,0.37429242683260133,2.6785035871501606e-06,-0.468536629079898
759,0.7496,1015.2,1067.47,0.0291511,0.0134712,0.104094,-0.0216448,0.318303,0.318303,-0.632848,3.28989e-11,-2.214e-05,2.82673e-06,0.568296,0.37479276033114073,3.2898794799507414e-11,-2.213975491205389e-05,0.37479276033114073,2.8267339950982517e-06,-0.46892286253768367
760,0.7506,1015.4,1067.67,0.0291184,0.0134772,0.104338,-0.0218384,0.318666,0.318666,-0.633575,3.47052e-11,-2.22211e-05,2.97445e-06,0.568951,0.37529190069163554,3.4705127660572543e-11,-2.2220853113208427e-05,0.37529190069163554,2.9744544236542936e-06,-0.4693088153057886
761,0.7516,1015.59,1067.87,0.0290858,0.0134832,0.104581,-0.0220315,0.31903,0.31903,-0.634302,3.65131e-11,-2.23017e-05,3.12166e-06,0.569606,0.37579259806488086,3.651301483387215e-11,-2.2301451318984533e-05,0.37579259806488086,3.121664872374197e-06,-0.4696944875882001
762,0.7526,1015.78,1068.07,0.0290533,0.0134894,0.104824,-0.0222241,0.319393,0.319393,-0.635028,3.83226e-11,-2.23817e-05,3.26837e-06,0.570261,0.3762921014323546,3.8322678364011153e-11,-2.2381449531594377e-05,0.3762921014323546,3.2683753410367444e-06,-0.4700793496683716
763,0.7536,1015.97,1068.27,0.0290207,0.0134956,0.105067,-0.0224163,0.319756,0.319756,-0.635754,4.01333e-11,-2.24613e-05,3.41457e-06,0.570915,0.37679178615246434,4.013323007256986e-11,-2.246104774683566e-05,0.37679178615246434,3.414575829641109e-06,-0.47046393244007423
764,0.7546,1016.16,1068.47,0.0289883,0.0135018,0.105309,-0.022608,0.32012,0.32012,-0.63648,4.19452e-11,-2.25403e-05,3.56026e-06,0.57157,0.37729302958339406,4.1945114048758114e-11,-2.254004596935477e-05,0.37729302958339406,3.560266337743201e-06,-0.47084823610601223
765,0.7556,1016.35,1068.66,0.0289559,0.0135081,0.105551,-0.0227993,0.320483,0.320483,-0.637205,4.37581e-11,-2.26189e-05,3.70545e-06,0.572224,0.37779307770637605,4.3758108247970995e-11,-2.2618644194616344e-05,0.37779307770637605,3.7054568651218034e-06,-0.47123173210073943
766,0.7566,1016.54,1068.86,0.0289235,0.0135145,0.105793,-0.0229901,0.320845,0.320845,-0.63793,4.55718e-11,-2.26969e-05,3.85014e-06,0.572877,0.37829192908715803,4.557176858099865e-11,-2.2696642427266767e-05,0.37829192908715803,3.850147411776916e-06,-0.47161495016163346
767,0.7576,1016.73,1069.06,0.0288912,0.0135209,0.106034,-0.0231805,0.321208,0.321208,-0.638655,4.73861e-11,-2.27744e-05,3.99433e-06,0.573531,0.3787923398764801,4.738609504784108e-11,-2.2774140665315912e-05,0.3787923398764801,3.9943379772644505e-06,-0.47199789049012364
768,0.7586,1016.92,1069.26,0.0288589,0.0135274,0.106275,-0.0233704,0.321571,0.321571,-0.63938,4.9201e-11,-2.28514e-05,4.13802e-06,0.574184,0.37929293234789196,4.920108764849829e-11,-2.285113890876378e-05,0.37929293234789196,4.138028561584406e-06,-0.47238055328749284
769,0.7596,1017.11,1069.46,0.0288267,0.0135339,0.106515,-0.0235599,0.321933,0.321933,-0.640105,5.10161e-11,-2.29278e-05,4.28121e-06,0.574837,0.3797923267743395,5.101608024915549e-11,-2.2927537160044587e-05,0.3797923267743395,4.281219164292693e-06,-0.4727629387548782
770,0.7606,1017.3,1069.65,0.0287945,0.0135405,0.106755,-0.0237489,0.322295,0.322295,-0.640829,5.28315e-11,-2.30038e-05,4.4239e-06,0.57549,0.38029190201429475,5.283151693902255e-11,-2.3003535414622966e-05,0.38029190201429475,4.423909785389313e-06,-0.47314452023805476
771,0.7616,1017.49,1069.85,0.0287624,0.0135472,0.106995,-0.0239374,0.322658,0.322658,-0.641553,5.46469e-11,-2.30793e-05,4.56609e-06,0.576143,0.3807930389255725,5.4646953628889605e-11,-2.3079033675044158e-05,0.3807930389255725,4.56610042465222e-06,-0.47352582555622136
772,0.7626,1017.68,1070.05,0.0287303,0.0135539,0.107235,-0.0241256,0.32302,0.32302,-0.642276,5.64621e-11,-2.31542e-05,4.70779e-06,0.576795,0.38129297648890303,5.6462168274151736e-11,-2.3153931943631356e-05,0.38129297648890303,4.707801081638152e-06,-0.4739063288158408
773,0.7636,1017.87,1070.24,0.0286983,0.0135607,0.107474,-0.0243132,0.323382,0.323382,-0.643,5.82771e-11,-2.32287e-05,4.849e-06,0.577447,0.38179309506239245,5.827716087480894e-11,-2.3228430215849194e-05,0.38179309506239245,4.84901175634711e-06,-0.4742870827842097
774,0.7646,1018.05,1070.44,0.0286664,0.0135676,0.107713,-0.0245004,0.323743,0.323743,-0.643723,5.51571e-10,-2.33026e-05,4.98971e-06,0.578099,0.38229201241887445,5.515710110870486e-10,-2.3302328496566105e-05,0.38229201241887445,4.989722448556222e-06,-0.4746670358537711
775,0.7656,1018.24,1070.64,0.0286344,0.0135745,0.107951,-0.0246872,0.324105,0.324105,-0.644446,6.19055e-11,-2.3376e-05,5.12993e-06,0.578751,0.3827924927088371,6.190559176388888e-11,-2.3375726783458894e-05,0.3827924927088371,5.12994315804427e-06,-0.47504671431654544
776,0.7666,1018.43,1070.83,0.0286026,0.0135815,0.108189,-0.0248735,0.324466,0.324466,-0.645168,6.37188e-11,-2.3449e-05,5.26965e-06,0.579402,0.3832917709129986,6.371880800770668e-11,-2.344872507431539e-05,0.3832917709129986,5.2696638845883825e-06,-0.4754255937968578
777,0.7676,1018.62,1071.03,0.0285708,0.0135885,0.108427,-0.0250594,0.324828,0.324828,-0.645891,6.55311e-11,-2.35214e-05,5.40889e-06,0.580053,0.3837926131810503,6.553113607310479e-11,-2.3521123374004027e-05,0.3837926131810503,5.40890462796817e-06,-0.4758047240204517
778,0.7686,1018.81,1071.22,0.028539,0.0135956,0.108664,-0.0252448,0.325189,0.325189,-0.646613,6.73425e-11,-2.35933e-05,5.54764e-06,0.580704,0.38429225249387855,6.73425759600832e-11,-2.359302168031263e-05,0.38429225249387855,5.547655388182804e-06,-0.47618305641527947
779,0.7696,1018.99,1071.42,0.0285073,0.0136027,0.108902,-0.0254297,0.32555,0.32555,-0.647335,6.91527e-11,-2.36647e-05,5.6859e-06,0.581355,0.3847920722090594,6.915268357943205e-11,-2.3664419993241204e-05,0.3847920722090594,5.685916164788196e-06,-0.4765611157527039
780,0.7706,1019.18,1071.61,0.0284756,0.0136099,0.109138,-0.0256143,0.325911,0.325911,-0.648056,7.09616e-11,-2.37356e-05,5.82368e-06,0.582005,0.3852920723917297,7.096168097575628e-11,-2.3735318312900766e-05,0.3852920723917297,5.823696957563129e-06,-0.4769383791684416
781,0.7716,1019.37,1071.81,0.028444,0.0136172,0.109375,-0.0257983,0.326272,0.326272,-0.648777,7.27691e-11,-2.3806e-05,5.96096e-06,0.582656,0.38579225310705034,7.276912405984604e-11,-2.380571663940234e-05,0.38579225310705034,5.960977766505948e-06,-0.47731537067529173
782,0.7726,1019.55,1072.0,0.0284124,0.0136245,0.109611,-0.0259819,0.326633,0.326633,-0.649499,7.4575e-11,-2.38759e-05,6.09777e-06,0.583306,0.386292614420205,7.457501283170132e-11,-2.3875614972967973e-05,0.386292614420205,6.097788591397091e-06,-0.477692612776878
783,0.7736,1019.74,1072.2,0.0283809,0.0136319,0.109847,-0.0261651,0.326993,0.326993,-0.650219,7.63792e-11,-2.39454e-05,6.23409e-06,0.583955,0.38679176960393846,7.63791252467172e-11,-2.3945113311163446e-05,0.38679176960393846,6.234109432012858e-06,-0.4780685387460897
784,0.7746,1019.93,1072.39,0.0283494,0.0136393,0.110082,-0.0263478,0.327354,0.327354,-0.65094,7.81816e-11,-2.40143e-05,6.36993e-06,0.584605,0.3872924918076852,7.81816833494986e-11,-2.4014011658968215e-05,0.3872924918076852,6.369950288132031e-06,-0.4784447157015653
785,0.7756,1020.11,1072.59,0.028318,0.0136468,0.110317,-0.0265301,0.327714,0.327714,-0.65166,7.99821e-11,-2.40827e-05,6.50528e-06,0.585254,0.38779200701207817,7.998202100623075e-11,-2.4082410014059086e-05,0.38779200701207817,6.5053011593096954e-06,-0.4788201003515695
786,0.7766,1020.3,1072.78,0.0282866,0.0136544,0.110552,-0.026712,0.328075,0.328075,-0.65238,8.17804e-11,-2.41506e-05,6.64016e-06,0.585903,0.3882930903667132,8.178036026151858e-11,-2.4150308376658103e-05,0.3882930903667132,6.640182045991594e-06,-0.4791952148219022
787,0.7776,1020.48,1072.97,0.0282553,0.013662,0.110786,-0.0268934,0.328435,0.328435,-0.6531,8.35766e-11,-2.4218e-05,6.77456e-06,0.586552,0.38879296585143375,8.357670111536208e-11,-2.4217706746654244e-05,0.38879296585143375,6.774582947288721e-06,-0.47957005930702246
788,0.7786,1020.67,1073.16,0.028224,0.0136697,0.11102,-0.0270743,0.328795,0.328795,-0.653819,8.53704e-11,-2.4285e-05,6.90848e-06,0.587201,0.3892930213237247,8.537037743394649e-11,-2.4284705121724315e-05,0.3892930213237247,6.908503863645166e-06,-0.47994411394562386
789,0.7796,1020.85,1073.36,0.0281928,0.0136774,0.111254,-0.0272548,0.329154,0.329154,-0.654539,8.71618e-11,-2.43514e-05,7.04192e-06,0.587849,0.38979186705583113,8.716183330648164e-11,-2.4351103507069816e-05,0.38979186705583113,7.041944794394794e-06,-0.48031841941744313
790,0.7806,1021.04,1073.55,0.0281616,0.0136852,0.111487,-0.0274348,0.329514,0.329514,-0.655258,8.89505e-11,-2.44174e-05,7.17489e-06,0.588497,0.3902922821972923,8.895040259915277e-11,-2.441710189771129e-05,0.3902922821972923,7.174915739538434e-06,-0.48069193617851524
791,0.7816,1021.22,1073.74,0.0281304,0.0136931,0.11172,-0.0276145,0.329874,0.329874,-0.655976,9.07366e-11,-2.44828e-05,7.30738e-06,0.589145,0.3907928775206351,9.073652940116972e-11,-2.4482500298739218e-05,0.3907928775206351,7.307406699075258e-06,-0.48106466554248484
792,0.7826,1021.4,1073.93,0.0280994,0.013701,0.111952,-0.0277936,0.330233,0.330233,-0.656695,9.25199e-11,-2.45478e-05,7.4394e-06,0.589793,0.39129226179777943,9.251999166792757e-11,-2.4547498705174142e-05,0.39129226179777943,7.43942767233996e-06,-0.4814376459454369
793,0.7836,1021.59,1074.13,0.0280683,0.013709,0.112185,-0.0279723,0.330592,0.330592,-0.657413,9.43002e-11,-2.46123e-05,7.57095e-06,0.59044,0.3917918253860635,9.430012326561155e-11,-2.4611997119783346e-05,0.3917918253860635,7.570978659776628e-06,-0.4818098400819635
794,0.7846,1021.77,1074.32,0.0280373,0.013717,0.112417,-0.0281506,0.330952,0.330952,-0.658131,9.60774e-11,-2.46762e-05,7.70203e-06,0.591088,0.39229296064213637,9.60773682834315e-11,-2.467589554511207e-05,0.39229296064213637,7.70205966071913e-06,-0.4821817670790146
795,0.7856,1021.95,1074.51,0.0280064,0.0137251,0.112648,-0.0283285,0.331311,0.331311,-0.658849,9.78515e-11,-2.47397e-05,7.83263e-06,0.591735,0.3927928835457988,9.78515046767825e-11,-2.4739393976180857e-05,0.3927928835457988,7.832660675166636e-06,-0.4825534271283275
796,0.7866,1022.14,1074.7,0.0279755,0.0137332,0.11288,-0.0285058,0.33167,0.33167,-0.659566,9.96224e-11,-2.48027e-05,7.96277e-06,0.592381,0.39329298595400286,9.962231040105962e-11,-2.4802392415534946e-05,0.39329298595400286,7.962801702898759e-06,-0.48292430334606384
797,0.7876,1022.32,1074.89,0.0279446,0.0137414,0.11311,-0.0286828,0.332028,0.332028,-0.660283,1.0139e-10,-2.48653e-05,8.09243e-06,0.593028,0.39379187413863126,1.013900075008678e-10,-2.4864990860962166e-05,0.39379187413863126,8.092462743691797e-06,-0.48329491374086087
798,0.7886,1022.5,1075.08,0.0279138,0.0137496,0.113341,-0.0288593,0.332387,0.332387,-0.661,1.03154e-10,-2.49273e-05,8.22164e-06,0.593674,0.3942923352488412,1.0315392984239224e-10,-2.4926989317441972e-05,0.3942923352488412,8.22167379777028e-06,-0.4836652585032456
799,0.7896,1022.69,1075.27,0.0278831,0.0137579,0.113571,-0.0290354,0.332746,0.332746,-0.661717,1.04914e-10,-2.49889e-05,8.35037e-06,0.59432,0.3947929760568436,1.0491407742563297e-10,-2.498858777999491e-05,0.3947929760568436,8.350404864465588e-06,-0.48403533782360797
800,0.7906,1022.87,1075.46,0.0278524,0.0137663,0.113801,-0.029211,0.333104,0.333104,-0.662433,4.64535e-10,-2.50499e-05,8.47864e-06,0.594966,0.3952924013340626,4.645350770715595e-10,-2.5049586253822476e-05,0.3952924013340626,8.478675943779379e-06,-0.48440463629709585
801,0.7916,1023.05,1075.65,0.0278217,0.0137747,0.114031,-0.0293862,0.333462,0.333462,-0.663149,1.08423e-10,-2.51105e-05,8.60645e-06,0.595612,0.3957920054375388,1.0842304831726324e-10,-2.511018473405624e-05,0.3957920054375388,8.606487035489607e-06,-0.4847736704475156
802,0.7926,1023.23,1075.84,0.0277911,0.0137832,0.11426,-0.0295609,0.33382,0.33382,-0.663865,1.10172e-10,-2.51706e-05,8.73379e-06,0.596257,0.3962917884313035,1.1017209367025771e-10,-2.517028322313042e-05,0.3962917884313035,8.733828139595445e-06,-0.48514244046405497
803,0.7936,1023.41,1076.03,0.0277605,0.0137918,0.114489,-0.0297352,0.334179,0.334179,-0.664581,1.11917e-10,-2.52302e-05,8.86067e-06,0.596902,0.39679314717185954,1.119169201757586e-10,-2.5229881721156033e-05,0.39679314717185954,8.860709255875676e-06,-0.4855109465357659
804,0.7946,1023.59,1076.22,0.02773,0.0138003,0.114717,-0.0299091,0.334536,0.334536,-0.665296,1.13658e-10,-2.52894e-05,8.98709e-06,0.597547,0.397291891345938,1.1365797192297578e-10,-2.528908022580989e-05,0.397291891345938,8.987130384108255e-06,-0.4858786747304972
805,0.7956,1023.78,1076.41,0.0276995,0.013809,0.114945,-0.0300825,0.334894,0.334894,-0.666012,1.15394e-10,-2.5348e-05,9.11305e-06,0.598192,0.397792211394985,1.1539391664427967e-10,-2.5347678742182467e-05,0.397792211394985,9.113091524071137e-06,-0.48624665384714594
806,0.7966,1023.96,1076.59,0.0276691,0.0138177,0.115173,-0.0302555,0.335252,0.335252,-0.666726,1.17127e-10,-2.54062e-05,9.23856e-06,0.598836,0.39829271059067506,1.1712697478571954e-10,-2.5405877265183285e-05,0.39829271059067506,9.238602675543106e-06,-0.48661334281276025
807,0.7976,1024.14,1076.78,0.0276387,0.0138265,0.115401,-0.030428,0.335609,0.335609,-0.667441,1.18854e-10,-2.54639e-05,9.3636e-06,0.59948,0.3987919902044641,1.1885403772282643e-10,-2.5463575797690652e-05,0.3987919902044641,9.363643838744551e-06,-0.4869802830758726
808,0.7986,1024.32,1076.97,0.0276084,0.0138353,0.115628,-0.0306001,0.335967,0.335967,-0.668155,1.20578e-10,-2.55211e-05,9.48819e-06,0.600124,0.39929284738504345,1.2057799203546438e-10,-2.552077433948252e-05,0.39929284738504345,9.488235013010993e-06,-0.4873464484171738
809,0.7996,1024.5,1077.16,0.0275781,0.0138441,0.115855,-0.0307718,0.336324,0.336324,-0.668869,1.22296e-10,-2.55779e-05,9.61232e-06,0.600768,0.3997924841114091,1.2229595114376934e-10,-2.5577572888346722e-05,0.3997924841114091,9.612366198563649e-06,-0.4877123524097339
810,0.8006,1024.68,1077.35,0.0275479,0.0138531,0.116081,-0.030943,0.336681,0.336681,-0.669583,1.2401e-10,-2.56341e-05,9.736e-06,0.601412,0.4002922992399287,1.2400991344918566e-10,-2.563377144926271e-05,0.4002922992399287,9.736047394959257e-06,-0.4880779952400893
811,0.8016,1024.86,1077.53,0.0275177,0.013862,0.116307,-0.0311138,0.337038,0.337038,-0.670297,1.25719e-10,-2.56899e-05,9.85923e-06,0.602055,0.40079229283430373,1.2571899077329363e-10,-2.568957001736205e-05,0.40079229283430373,9.859278602419863e-06,-0.48844337709464325
812,0.8026,1025.04,1077.72,0.0274875,0.0138711,0.116533,-0.0312842,0.337395,0.337395,-0.67101,1.27424e-10,-2.57453e-05,9.982e-06,0.602698,0.40129246495825743,1.2742407129451294e-10,-2.5744968592644746e-05,0.40129246495825743,9.982049820278505e-06,-0.4888079869679086
813,0.8036,1025.22,1077.91,0.0274574,0.0138802,0.116758,-0.0314541,0.337752,0.337752,-0.671723,1.29123e-10,-2.58001e-05,1.01043e-05,0.603341,0.4017928156755366,1.2912293456679436e-10,-2.5799767180312294e-05,0.4017928156755366,1.0104351048534355e-05,-0.4891723369669905
814,0.8046,1025.39,1078.09,0.0274273,0.0138893,0.116983,-0.0316236,0.338108,0.338108,-0.672436,1.30817e-10,-2.58545e-05,1.02262e-05,0.603984,0.4022919427572662,1.3081691285776742e-10,-2.5854165775274218e-05,0.4022919427572662,1.0226252287859339e-05,-0.4895364272771131
815,0.8056,1025.57,1078.28,0.0273973,0.0138985,0.117208,-0.0317926,0.338465,0.338465,-0.673149,1.32506e-10,-2.59084e-05,1.03476e-05,0.604626,0.4027926503518182,1.3250600616743213e-10,-2.59080643802978e-05,0.4027926503518182,1.034765353669087e-05,-0.4899002580833687
816,0.8066,1025.75,1078.47,0.0273674,0.0139078,0.117432,-0.0319612,0.338821,0.338821,-0.673861,1.3419e-10,-2.59618e-05,1.04686e-05,0.605268,0.4032921334380575,1.3418999245118357e-10,-2.5961462995383044e-05,0.4032921334380575,1.0468654795925403e-05,-0.4902633198342924
817,0.8076,1025.93,1078.65,0.0273374,0.0139171,0.117656,-0.0321294,0.339177,0.339177,-0.674573,1.35869e-10,-2.60148e-05,1.05891e-05,0.60591,0.4037917943719307,1.3586909375362666e-10,-2.6014461617984708e-05,0.4037917943719307,1.0589156064666483e-05,-0.4906261231772535
818,0.8086,1026.11,1078.84,0.0273076,0.0139264,0.11788,-0.0322971,0.339534,0.339534,-0.675285,1.37542e-10,-2.60673e-05,1.07092e-05,0.606552,0.40429303750909784,1.3754197780713184e-10,-2.6066960250870075e-05,0.40429303750909784,1.0709257343588519e-05,-0.49098866829617316
819,0.8096,1026.29,1079.02,0.0272777,0.0139359,0.118103,-0.0324644,0.33989,0.33989,-0.675997,1.39209e-10,-2.61193e-05,1.08288e-05,0.607193,0.404793054828253,1.3920908870090898e-10,-2.6118958894039146e-05,0.404793054828253,1.0828858631573013e-05,-0.4913509553748413
820,0.8106,1026.46,1079.21,0.027248,0.0139453,0.118326,-0.0326313,0.340245,0.340245,-0.676708,1.40872e-10,-2.61709e-05,1.0948e-05,0.607834,0.4052918448927152,1.4087198074719254e-10,-2.6170557544946682e-05,0.4052918448927152,1.0948059929516418e-05,-0.49171247630964776
821,0.8116,1026.64,1079.39,0.0272182,0.0139549,0.118549,-0.0327977,0.340601,0.340601,-0.677419,1.42528e-10,-2.6222e-05,1.10668e-05,0.608475,0.4057922178505988,1.4252798941072342e-10,-2.6221656206359967e-05,0.4057922178505988,1.106686123719669e-05,-0.4920737402944262
822,0.8126,1026.82,1079.58,0.0271885,0.0139644,0.118771,-0.0329637,0.340957,0.340957,-0.67813,1.44179e-10,-2.62726e-05,1.11851e-05,0.609116,0.40629276897296696,1.4417889104834103e-10,-2.6272254878279e-05,0.40629276897296696,1.1185162553495331e-05,-0.49243474751180294
823,0.8136,1027.0,1079.76,0.0271589,0.0139741,0.118993,-0.0331293,0.341312,0.341312,-0.67884,1.45824e-10,-2.63228e-05,1.1303e-05,0.609757,0.40679209153046236,1.4582401952623059e-10,-2.6322453558158543e-05,0.40679209153046236,1.130306387908675e-05,-0.4927949909395195
824,0.8146,1027.17,1079.95,0.0271293,0.0139838,0.119215,-0.0332944,0.341668,0.341668,-0.679551,1.47463e-10,-2.63724e-05,1.14204e-05,0.610397,0.40729299867122815,1.4746293075518224e-10,-2.6372052251311118e-05,0.40729299867122815,1.1420465213074493e-05,-0.49315548552994815
825,0.8156,1027.35,1080.13,0.0270997,0.0139935,0.119436,-0.0334591,0.342023,0.342023,-0.680261,1.49096e-10,-2.64217e-05,1.15374e-05,0.611037,0.40779267637330086,1.4909606882440585e-10,-2.6421350949989986e-05,0.40779267637330086,1.153746655613297e-05,-0.4935152174152909
826,0.8166,1027.53,1080.32,0.0270702,0.0140033,0.119657,-0.0336234,0.342378,0.342378,-0.680971,1.50723e-10,-2.64705e-05,1.16539e-05,0.611677,0.4082925314924475,1.5072298964469155e-10,-2.6470149659396647e-05,0.4082925314924475,1.1653967906921636e-05,-0.49387469398164396
827,0.8176,1027.7,1080.5,0.0270407,0.0140132,0.119878,-0.0337872,0.342733,0.342733,-0.68168,1.52345e-10,-2.65188e-05,1.17701e-05,0.612317,0.4087925640916623,1.523450254836689e-10,-2.6518448379753146e-05,0.4087925640916623,1.1770169267899533e-05,-0.49423340964388207
828,0.8186,1027.88,1080.68,0.0270113,0.0140231,0.120098,-0.0339506,0.343088,0.343088,-0.682389,1.5396e-10,-2.65666e-05,1.18857e-05,0.612956,0.4092927742339618,1.5395995589528866e-10,-2.6566247111059482e-05,0.4092927742339618,1.1885770635267079e-05,-0.4945918710668542
829,0.8196,1028.05,1080.87,0.0269819,0.014033,0.120318,-0.0341136,0.343442,0.343442,-0.683098,1.55568e-10,-2.6614e-05,1.2001e-05,0.613595,0.40979175218992814,1.5556800292415573e-10,-2.6613645850659395e-05,0.40979175218992814,1.2001072012379765e-05,-0.4949500784307519
830,0.8206,1028.23,1081.05,0.0269526,0.014043,0.120538,-0.0342762,0.343797,0.343797,-0.683807,1.57171e-10,-2.66609e-05,1.21158e-05,0.614234,0.4102923171069712,1.5717094292710954e-10,-2.666054460132017e-05,0.4102923171069712,1.2115873396556509e-05,-0.49530803191563944
831,0.8216,1028.4,1081.23,0.0269233,0.0140531,0.120757,-0.0344383,0.344152,0.344152,-0.684516,1.58767e-10,-2.67074e-05,1.22302e-05,0.614873,0.4107930597561056,1.5876699954731066e-10,-2.6707043360607585e-05,0.4107930597561056,1.2230274789137852e-05,-0.4956657317014531
832,0.8226,1028.58,1081.42,0.026894,0.0140632,0.120976,-0.0345999,0.344506,0.344506,-0.685224,1.60357e-10,-2.67534e-05,1.23441e-05,0.615512,0.4112925689071627,1.603570609631788e-10,-2.6753042130955862e-05,0.4112925689071627,1.2344176188783251e-05,-0.4960226739909278
833,0.8236,1028.75,1081.6,0.0268648,0.0140734,0.121194,-0.0347612,0.34486,0.34486,-0.685932,1.6194e-10,-2.6799e-05,1.24576e-05,0.61615,0.4117922549157611,1.6194001695168936e-10,-2.6798640910041804e-05,0.4117922549157611,1.2457677596167116e-05,-0.4963793636547016
834,0.8246,1028.93,1081.78,0.0268357,0.0140836,0.121412,-0.034922,0.345214,0.345214,-0.68664,1.63516e-10,-2.68441e-05,1.25707e-05,0.616788,0.4122921178445196,1.6351608955744723e-10,-2.684373970041065e-05,0.4122921178445196,1.257077901151149e-05,-0.4967358008715702
835,0.8256,1029.1,1081.96,0.0268065,0.0140938,0.12163,-0.0350824,0.345568,0.345568,-0.687348,1.65086e-10,-2.68887e-05,1.26834e-05,0.617426,0.4127921577560789,1.650859449142672e-10,-2.6888338502173426e-05,0.4127921577560789,1.268348043459433e-05,-0.49709198582020275
836,0.8266,1029.28,1082.14,0.0267775,0.0141042,0.121848,-0.0352424,0.345922,0.345922,-0.688055,1.6665e-10,-2.69329e-05,1.27956e-05,0.618064,0.4132923747131023,1.6665002711135912e-10,-2.6932537312673865e-05,0.4132923747131023,1.2795681864075092e-05,-0.4974474161268093
837,0.8276,1029.45,1082.33,0.0267484,0.0141145,0.122065,-0.0354019,0.346276,0.346276,-0.688762,1.68206e-10,-2.69767e-05,1.29074e-05,0.618701,0.41379276877827453,1.6820589365806882e-10,-2.6976336132134016e-05,0.41379276877827453,1.2907483300850231e-05,-0.49780259523299897
838,0.8286,1029.63,1082.51,0.0267195,0.014125,0.122282,-0.035561,0.346629,0.346629,-0.689469,1.69756e-10,-2.702e-05,1.30188e-05,0.619338,0.4142919257216706,1.6975598704505046e-10,-2.7019634963099115e-05,0.4142919257216706,1.3018884744919745e-05,-0.4981575233163076
839,0.8296,1029.8,1082.69,0.0266905,0.0141354,0.122498,-0.0357197,0.346983,0.346983,-0.690175,1.71299e-10,-2.70628e-05,1.31298e-05,0.619975,0.4147926736905372,1.712989750046745e-10,-2.7062433805680186e-05,0.4147926736905372,1.3129886196283636e-05,-0.4985116990660955
840,0.8306,1029.97,1082.87,0.0266616,0.014146,0.122714,-0.0358779,0.347336,0.347336,-0.690881,1.72835e-10,-2.71052e-05,1.32403e-05,0.620612,0.41529218366267306,1.7283507958154587e-10,-2.710483265733199e-05,0.41529218366267306,1.324038765315727e-05,-0.4988656248560501
841,0.8316,1030.15,1083.05,0.0266328,0.0141565,0.12293,-0.0360357,0.347689,0.347689,-0.691588,1.74364e-10,-2.71471e-05,1.33504e-05,0.621248,0.4157918699929546,1.7436407873105964e-10,-2.714673152082181e-05,0.4157918699929546,1.3350489116881192e-05,-0.4992198016430298
842,0.8326,1030.32,1083.23,0.0266039,0.0141672,0.123146,-0.0361931,0.348043,0.348043,-0.692293,1.75886e-10,-2.71886e-05,1.34601e-05,0.621885,0.4162931490360877,1.758859724532158e-10,-2.7188230393382362e-05,0.4162931490360877,1.34601905874554e-05,-0.4995727272619731
843,0.8336,1030.49,1083.41,0.0265752,0.0141779,0.123361,-0.0363501,0.348395,0.348395,-0.692999,1.77401e-10,-2.72297e-05,1.35694e-05,0.622521,0.41679177197703776,1.774009827926193e-10,-2.722932927512467e-05,0.41679177197703776,1.3569492064657851e-05,-0.49992590423038663
844,0.8346,1030.66,1083.59,0.0265464,0.0141886,0.123575,-0.0365066,0.348748,0.348748,-0.693704,1.78909e-10,-2.72702e-05,1.36782e-05,0.623157,0.4172919877554362,1.789091097492701e-10,-2.7269828171472277e-05,0.4172919877554362,1.3678293546925957e-05,-0.5002783322224398
845,0.8356,1030.84,1083.77,0.0265178,0.0141994,0.12379,-0.0366627,0.349101,0.349101,-0.694409,1.8041e-10,-2.73104e-05,1.37867e-05,0.623792,0.4177923801411738,1.804099092339584e-10,-2.73100270744564e-05,0.4177923801411738,1.3786795036940802e-05,-0.5006305118403209
846,0.8366,1031.01,1083.95,0.0264891,0.0142102,0.124004,-0.0368184,0.349454,0.349454,-0.695114,1.81903e-10,-2.73501e-05,1.38947e-05,0.624428,0.41829294919660387,1.819029371574743e-10,-2.734972598938956e-05,0.41829294919660387,1.3894796531799258e-05,-0.5009824432590718
847,0.8376,1031.18,1084.13,0.0264605,0.0142211,0.124218,-0.0369737,0.349806,0.349806,-0.695819,1.8339e-10,-2.73893e-05,1.40023e-05,0.625063,0.4187922761911165,1.8338996987665723e-10,-2.7388924916493806e-05,0.4187922761911165,1.4002398032619823e-05,-0.5013341266536113
848,0.8386,1031.35,1084.31,0.026432,0.014232,0.124431,-0.0371285,0.350158,0.350158,-0.696523,1.84868e-10,-2.74281e-05,1.41095e-05,0.625698,0.41929177897966907,1.8486789876703824e-10,-2.7427723853112873e-05,0.41929177897966907,1.4109599539402495e-05,-0.5016850638840479
849,0.8396,1031.52,1084.49,0.0264035,0.014243,0.124644,-0.0372829,0.350511,0.350511,-0.697227,1.8634e-10,-2.74665e-05,1.42162e-05,0.626332,0.41979287741631954,1.863400544976912e-10,-2.746612279913574e-05,0.41979287741631954,1.421630105058469e-05,-0.5020357541416189
850,0.8406,1031.7,1084.66,0.026375,0.0142541,0.124857,-0.0374369,0.350863,0.350863,-0.697931,1.87804e-10,-2.75044e-05,1.43226e-05,0.626967,0.42029273247849974,1.8780399457796193e-10,-2.750402175744071e-05,0.42029273247849974,1.432270256884749e-05,-0.502386197600132
851,0.8416,1031.87,1084.84,0.0263466,0.0142651,0.125069,-0.0375905,0.351215,0.351215,-0.698634,1.8926e-10,-2.75419e-05,1.44285e-05,0.627601,0.42079276352063255,1.8925994105245536e-10,-2.7541520725371527e-05,0.42079276352063255,1.4428604091287767e-05,-0.5027358971694185
852,0.8426,1032.04,1085.02,0.0263182,0.0142763,0.125281,-0.0377436,0.351567,0.351567,-0.699338,1.90709e-10,-2.7579e-05,1.45341e-05,0.628235,0.42129297060467397,1.9070900414419611e-10,-2.7578619702928187e-05,0.42129297060467397,1.4534205620586604e-05,-0.5030858479007003
853,0.8436,1032.21,1085.2,0.0262898,0.0142875,0.125493,-0.0378963,0.351918,0.351918,-0.700041,1.92151e-10,-2.76156e-05,1.46392e-05,0.628869,0.42179193199995835,1.9215096180857927e-10,-2.7615218692877974e-05,0.42179193199995835,1.463930715361883e-05,-0.5034350557886718
854,0.8446,1032.38,1085.38,0.0262615,0.0142987,0.125704,-0.0380486,0.35227,0.35227,-0.700744,2.89453e-10,-2.76517e-05,1.47439e-05,0.629503,0.42229249085321197,2.894529060881723e-10,-2.765131769522089e-05,0.42229249085321197,1.4744008691724986e-05,-0.5037840182697685
855,0.8456,1032.55,1085.55,0.0262333,0.01431,0.125915,-0.0382005,0.352621,0.352621,-0.701446,1.95011e-10,-2.76874e-05,1.48482e-05,0.630136,0.42279180314168174,1.9501089632001367e-10,-2.7687016707522716e-05,0.42279180314168174,1.4848310235127116e-05,-0.5041322396489386
856,0.8466,1032.72,1085.73,0.0262051,0.0143213,0.126125,-0.0383519,0.352973,0.352973,-0.702149,1.96429e-10,-2.77227e-05,1.49521e-05,0.630769,0.4232927140115288,1.9642909521166985e-10,-2.7722315729450386e-05,0.4232927140115288,1.4952211783159086e-05,-0.5044807121820185
857,0.8476,1032.89,1085.91,0.0261769,0.0143327,0.126336,-0.0385029,0.353324,0.353324,-0.702851,1.9784e-10,-2.77576e-05,1.50556e-05,0.631402,0.4237923774399486,1.978399666313635e-10,-2.7757214761336968e-05,0.4237923774399486,1.5055713336042942e-05,-0.5048284446536888
858,0.8486,1033.06,1086.09,0.0261488,0.0143442,0.126546,-0.0386535,0.353675,0.353675,-0.703552,1.99243e-10,-2.7792e-05,1.51587e-05,0.632035,0.42429221628101477,1.9924306648988477e-10,-2.7791613805949744e-05,0.42429221628101477,1.5158814893778683e-05,-0.5051754382785116
859,0.8496,1033.23,1086.26,0.0261207,0.0143556,0.126755,-0.0388037,0.354026,0.354026,-0.704254,2.00638e-10,-2.78259e-05,1.52614e-05,0.632667,0.42479223059630833,2.0063795069802381e-10,-2.7825512863288715e-05,0.42479223059630833,1.5261516455700175e-05,-0.5055226832236042
860,0.8506,1033.4,1086.44,0.0260926,0.0143672,0.126965,-0.0389535,0.354377,0.354377,-0.704955,2.02025e-10,-2.78595e-05,1.53637e-05,0.6333,0.4252924204474311,2.0202506334499049e-10,-2.785911192770829e-05,0.4252924204474311,1.5363818022251508e-05,-0.5058691903577244
861,0.8516,1033.57,1086.62,0.0260646,0.0143787,0.127173,-0.0391028,0.354728,0.354728,-0.705657,2.03404e-10,-2.78926e-05,1.54655e-05,0.633932,0.42579278589600733,2.0340396034157493e-10,-2.7892211005076106e-05,0.42579278589600733,1.5465619591426005e-05,-0.506215948459759
862,0.8526,1033.74,1086.79,0.0260366,0.0143904,0.127382,-0.0392517,0.355078,0.355078,-0.706357,2.04776e-10,-2.79253e-05,1.5567e-05,0.634564,0.42629190071106837,2.047759739554067e-10,-2.7924910092402833e-05,0.42629190071106837,1.556712116634884e-05,-0.5065614763469677
863,0.8536,1033.9,1086.97,0.0260087,0.0144021,0.12759,-0.0394002,0.355429,0.355429,-0.707058,2.06139e-10,-2.79575e-05,1.56681e-05,0.635195,0.4267926170387928,2.0613910578504147e-10,-2.795710919278882e-05,0.4267926170387928,1.5668222745235383e-05,-0.5069072555422809
864,0.8546,1034.07,1087.14,0.0259808,0.0144138,0.127798,-0.0395483,0.355779,0.355779,-0.707758,2.07495e-10,-2.79893e-05,1.57688e-05,0.635827,0.42729208185600065,2.074949101427137e-10,-2.798890830324474e-05,0.42729208185600065,1.5768924328085632e-05,-0.5072522996838624
865,0.8556,1034.24,1087.32,0.025953,0.0144256,0.128006,-0.039696,0.35613,0.35613,-0.708458,2.08842e-10,-2.80207e-05,1.5869e-05,0.636458,0.42779314930892576,2.0884205476079387e-10,-2.802030742388162e-05,0.42779314930892576,1.5869125913337e-05,-0.5075971023790609
866,0.8566,1034.41,1087.49,0.0259252,0.0144374,0.128213,-0.0398432,0.35648,0.35648,-0.709158,2.10181e-10,-2.80516e-05,1.59689e-05,0.637089,0.4282929643737179,2.101809837284918e-10,-2.8051206557577757e-05,0.4282929643737179,1.5969027503670574e-05,-0.5079416637968297
867,0.8576,1034.58,1087.67,0.0258974,0.0144493,0.12842,-0.03999,0.35683,0.35683,-0.709858,2.11512e-10,-2.80822e-05,1.60684e-05,0.637719,0.4287929544044,2.1151191909041245e-10,-2.8081805698687567e-05,0.4287929544044,1.6068529097523765e-05,-0.508285984106004
868,0.8586,1034.75,1087.84,0.0258697,0.0144612,0.128626,-0.0401364,0.35718,0.35718,-0.710557,2.12835e-10,-2.81122e-05,1.61675e-05,0.63835,0.42929311946222093,2.128350828911607e-10,-2.8111804855845968e-05,0.42929311946222093,1.616763069467453e-05,-0.5086295721051184
869,0.8596,1034.91,1088.02,0.0258421,0.0144731,0.128832,-0.0402824,0.357529,0.357529,-0.711257,2.1415e-10,-2.81419e-05,1.62662e-05,0.63898,0.42979202981570586,2.1415003104152674e-10,-2.814150402041804e-05,0.42979202981570586,1.626633229534491e-05,-0.5089734110469751
870,0.8606,1035.08,1088.19,0.0258144,0.0144852,0.129038,-0.040428,0.357879,0.357879,-0.711955,2.15457e-10,-2.81711e-05,1.63645e-05,0.63961,0.4302925446111212,2.1545698558611548e-10,-2.817070319827142e-05,0.4302925446111212,1.636463389909082e-05,-0.5093160280188308
871,0.8616,1035.25,1088.37,0.0257868,0.0144972,0.129243,-0.0405731,0.358228,0.358228,-0.712654,2.16755e-10,-2.82e-05,1.64624e-05,0.64024,0.4307918038248557,2.167550583465072e-10,-2.8199602383760514e-05,0.4307918038248557,1.64625355061343e-05,-0.5096588962688318
872,0.8626,1035.41,1088.54,0.0257593,0.0145093,0.129449,-0.0407178,0.358578,0.358578,-0.713353,2.34202e-10,-2.82283e-05,1.65599e-05,0.64087,0.43129266860241744,2.342019911338866e-10,-2.82279015852982e-05,0.43129266860241744,1.6560037115809223e-05,-0.5100015249376694
873,0.8636,1035.58,1088.72,0.0257318,0.0145215,0.129653,-0.0408621,0.358927,0.358927,-0.714051,2.19327e-10,-2.82563e-05,1.6657e-05,0.641499,0.43179227692034017,2.1932700100535385e-10,-2.82559007944716e-05,0.43179227692034017,1.6657138728559673e-05,-0.5103434245364217
874,0.8646,1035.75,1088.89,0.0257043,0.0145337,0.129858,-0.041006,0.359276,0.359276,-0.714749,2.206e-10,-2.82838e-05,1.67538e-05,0.642128,0.4322920596319957,2.2059998272538905e-10,-2.8283400017148352e-05,0.4322920596319957,1.6753940345726193e-05,-0.510685085572522
875,0.8656,1035.91,1089.06,0.0256769,0.0145459,0.130062,-0.0411495,0.359625,0.359625,-0.715446,2.21865e-10,-2.8311e-05,1.68501e-05,0.642757,0.4327920167982582,2.2186497083964696e-10,-2.831059924746082e-05,0.4327920167982582,1.685024196373952e-05,-0.5110260192386931
876,0.8666,1036.08,1089.24,0.0256495,0.0145582,0.130266,-0.0412926,0.359974,0.359974,-0.716144,2.23122e-10,-2.83376e-05,1.69461e-05,0.643386,0.43329214848002295,2.2312196534812756e-10,-2.8337198494043925e-05,0.43329214848002295,1.6946243585946874e-05,-0.511367203989934
877,0.8676,1036.25,1089.41,0.0256221,0.0145706,0.130469,-0.0414352,0.360323,0.360323,-0.716841,2.18984e-10,-2.83639e-05,1.70416e-05,0.644015,0.4337924547382064,2.1898394209074468e-10,-2.8363497748373767e-05,0.4337924547382064,1.7041745209001036e-05,-0.511707662385219
878,0.8686,1036.41,1089.58,0.0255948,0.014583,0.130672,-0.0415775,0.360672,0.360672,-0.717538,2.2561e-10,-2.83898e-05,1.71368e-05,0.644643,0.43429293563374616,2.2560997514631254e-10,-2.8389397013439677e-05,0.43429293563374616,1.7136946835805134e-05,-0.5120478835636824
879,0.8696,1036.58,1089.75,0.0255675,0.0145954,0.130875,-0.0417193,0.36102,0.36102,-0.718235,2.26842e-10,-2.84152e-05,1.72316e-05,0.645271,0.4347921564347281,2.2684210065904153e-10,-2.8414796292008937e-05,0.4347921564347281,1.723174846479658e-05,-0.5123878676906063
880,0.8706,1036.74,1089.93,0.0255403,0.0146079,0.131077,-0.0418607,0.361369,0.361369,-0.718931,2.28064e-10,-2.84402e-05,1.7326e-05,0.645899,0.4352929862870496,2.2806401211994398e-10,-2.8439795581314264e-05,0.4352929862870496,1.732615009597538e-05,-0.5127271276585296
881,0.8716,1036.91,1090.1,0.0255131,0.0146204,0.131279,-0.0420017,0.361717,0.361717,-0.719627,2.07299e-10,-2.84648e-05,1.74201e-05,0.646527,0.43579255516622073,2.0729906680116983e-10,-2.846439488146668e-05,0.43579255516622073,1.7420251730904113e-05,-0.5130661515836676
882,0.8726,1037.07,1090.27,0.025486,0.014633,0.131481,-0.0421422,0.362065,0.362065,-0.720323,2.30485e-10,-2.8489e-05,1.75137e-05,0.647154,0.4362922979256154,2.304849644474416e-10,-2.8488594192244143e-05,0.4362922979256154,1.7513853365791476e-05,-0.5134049396302489
883,0.8736,1037.24,1090.44,0.0254589,0.0146456,0.131682,-0.0422824,0.362413,0.362413,-0.721019,2.31682e-10,-2.85127e-05,1.7607e-05,0.647781,0.4367922146257541,2.3168200691259244e-10,-2.8512293516858023e-05,0.4367922146257541,1.760715500420673e-05,-0.513743491962388
884,0.8746,1037.4,1090.62,0.0254318,0.0146583,0.131883,-0.0424222,0.362761,0.362761,-0.721714,2.32871e-10,-2.85361e-05,1.76999e-05,0.648408,0.4372923053271789,2.32871055771966e-10,-2.8535692849329664e-05,0.4372923053271789,1.7700056644143203e-05,-0.5140813228256508
885,0.8756,1037.57,1090.79,0.0254048,0.014671,0.132084,-0.0425615,0.363109,0.363109,-0.72241,2.34051e-10,-2.8559e-05,1.77924e-05,0.649035,0.437792570090453,2.340510008025376e-10,-2.8558592195637722e-05,0.437792570090453,1.779255828560089e-05,-0.5144194045588733
886,0.8766,1037.73,1090.96,0.0253778,0.0146838,0.132284,-0.0427004,0.363457,0.363457,-0.723105,2.35222e-10,-2.85815e-05,1.78845e-05,0.649662,0.4382930089761601,2.352220640489122e-10,-2.858109155279287e-05,0.4382930089761601,1.7884659928579794e-05,-0.514756765826085
887,0.8776,1037.9,1091.13,0.0253508,0.0146966,0.132484,-0.0428389,0.363804,0.363804,-0.7238,2.36385e-10,-2.86036e-05,1.79763e-05,0.650288,0.438792183252003,2.363849116449046e-10,-2.860319092090613e-05,0.438792183252003,1.79764615746425e-05,-0.5150938927086741
888,0.8786,1038.06,1091.3,0.0253239,0.0147094,0.132683,-0.042977,0.364152,0.364152,-0.724494,2.37539e-10,-2.86253e-05,1.80676e-05,0.650914,0.4392929700636259,2.375390995013049e-10,-2.86248902999775e-05,0.4392929700636259,1.80677632199977e-05,-0.5154303008000244
889,0.8796,1038.22,1091.47,0.025297,0.0147223,0.132883,-0.0431147,0.364499,0.364499,-0.725188,2.38685e-10,-2.86466e-05,1.81586e-05,0.65154,0.43979249138617527,2.38685071707323e-10,-2.8646189690118007e-05,0.43979249138617527,1.8158764868436705e-05,-0.5157664755051536
890,0.8806,1038.39,1091.64,0.0252702,0.0147352,0.133082,-0.043252,0.364846,0.364846,-0.725882,2.39822e-10,-2.86675e-05,1.82493e-05,0.652166,0.4402921860727005,2.3982194008453916e-10,-2.8667089091105602e-05,0.4402921860727005,1.8249466519515423e-05,-0.5161024169859758
891,0.8816,1038.55,1091.81,0.0252434,0.0147482,0.13328,-0.0433889,0.365193,0.365193,-0.726576,2.4095e-10,-2.86879e-05,1.83395e-05,0.652791,0.440792054183369,2.409499266775583e-10,-2.868748850615166e-05,0.440792054183369,1.833966816966459e-05,-0.5164381254042922
892,0.8826,1038.71,1091.98,0.0252166,0.0147612,0.133478,-0.0435253,0.36554,0.36554,-0.72727,2.42069e-10,-2.8708e-05,1.84294e-05,0.653417,0.4412920957783699,2.420690314863805e-10,-2.8707587929277523e-05,0.4412920957783699,1.8429569822453473e-05,-0.5167736009217924
893,0.8836,1038.88,1092.15,0.0251899,0.0147743,0.133676,-0.0436614,0.365887,0.365887,-0.727963,1.72221e-10,-2.87276e-05,1.85189e-05,0.654042,0.4417923109179127,1.7222090420432323e-10,-2.8727187366461848e-05,0.4417923109179127,1.8519071475875393e-05,-0.5171083608086555
894,0.8846,1039.04,1092.32,0.0251633,0.0147874,0.133874,-0.043797,0.366234,0.366234,-0.728656,2.44282e-10,-2.87469e-05,1.86081e-05,0.654666,0.4422926996622274,2.4428192801906334e-10,-2.8746486811837002e-05,0.4422926996622274,1.860827313171498e-05,-0.5174428887872824
895,0.8856,1039.2,1092.49,0.0251366,0.0148006,0.134071,-0.0439322,0.36658,0.36658,-0.729349,2.45375e-10,-2.87657e-05,1.86968e-05,0.655291,0.4427918192790248,2.4537505360910927e-10,-2.8765286271270618e-05,0.4427918192790248,1.869697478618093e-05,-0.5177771850183299
896,0.8866,1039.36,1092.66,0.02511,0.0148138,0.134268,-0.044067,0.366927,0.366927,-0.730042,2.46459e-10,-2.87841e-05,1.87852e-05,0.655915,0.44329255491292274,2.464590753703533e-10,-2.8783685741773368e-05,0.44329255491292274,1.878537644306455e-05,-0.5181112496623436
897,0.8876,1039.53,1092.83,0.0250835,0.0148271,0.134464,-0.0442015,0.367273,0.367273,-0.730734,2.47535e-10,-2.88021e-05,1.88733e-05,0.65654,0.4437920205394932,2.4753510352582e-10,-2.8801685223456275e-05,0.4437920205394932,1.8873478101921748e-05,-0.5184446013245996
898,0.8886,1039.69,1093.0,0.0250569,0.0148403,0.13466,-0.0443355,0.36762,0.36762,-0.731426,2.48601e-10,-2.88197e-05,1.89609e-05,0.657164,0.44429310330345184,2.4860091762946013e-10,-2.881928471643036e-05,0.44429310330345184,1.896107975896122e-05,-0.518777722387302
899,0.8896,1039.85,1093.17,0.0250305,0.0148537,0.134856,-0.044469,0.367966,0.367966,-0.732118,2.49659e-10,-2.88369e-05,1.90482e-05,0.657787,0.44479291517966324,2.496589601719279e-10,-2.8836484220584602e-05,0.44479291517966324,1.9048381418196314e-05,-0.5191106130099704
900,0.8906,1040.01,1093.34,0.025004,0.0148671,0.135052,-0.0446022,0.368312,0.368312,-0.73281,2.50708e-10,-2.88537e-05,1.91352e-05,0.658411,0.4452929000207049,2.5070789888559375e-10,-2.8853283736030022e-05,0.4452929000207049,1.9135383079182944e-05,-0.5194432733520142
901,0.8916,1040.17,1093.5,0.0249776,0.0148805,0.135247,-0.044735,0.368658,0.368658,-0.733501,2.51748e-10,-2.88701e-05,1.92217e-05,0.659034,0.4457930578864331,2.517479558150626e-10,-2.88696832626556e-05,0.4457930578864331,1.9221884738129802e-05,-0.519775223348196
902,0.8926,1040.33,1093.67,0.0249512,0.014894,0.135442,-0.0448674,0.369003,0.369003,-0.734192,1.46527e-10,-2.88861e-05,1.93079e-05,0.659657,0.446291942544059,1.4652701274542324e-10,-2.8885682800683377e-05,0.446291942544059,1.930808639860615e-05,-0.5201069440461621
903,0.8936,1040.5,1093.84,0.0249249,0.0149075,0.135636,-0.0449993,0.369349,0.369349,-0.734883,2.53802e-10,-2.89017e-05,1.93938e-05,0.66028,0.44679244613830793,2.5380209045522406e-10,-2.890128234989131e-05,0.44679244613830793,1.9393988061056078e-05,-0.5204384356043027
904,0.8946,1040.66,1094.01,0.0248986,0.014921,0.13583,-0.0451309,0.369695,0.369695,-0.735574,2.54816e-10,-2.89169e-05,1.94793e-05,0.660903,0.44729312293676293,2.5481594612131175e-10,-2.8916481910501446e-05,0.44729312293676293,1.9479489722806775e-05,-0.5207696981808989
905,0.8956,1040.82,1094.18,0.0248724,0.0149346,0.136024,-0.0452621,0.37004,0.37004,-0.736264,2.55821e-10,-2.89317e-05,1.95644e-05,0.661525,0.4477925252061141,2.5582092000320245e-10,-2.893128148240276e-05,0.4477925252061141,1.9564591384080288e-05,-0.5211002530346149
906,0.8966,1040.98,1094.34,0.0248462,0.0149483,0.136217,-0.0453928,0.370385,0.370385,-0.736955,2.56816e-10,-2.89461e-05,1.96491e-05,0.662148,0.44829209979897233,2.568159018778715e-10,-2.8945681065706275e-05,0.44829209979897233,1.9649293044876615e-05,-0.521431058453333
907,0.8976,1041.14,1094.51,0.02482,0.0149619,0.13641,-0.0455231,0.37073,0.37073,-0.737645,2.57803e-10,-2.89601e-05,1.97335e-05,0.66277,0.44879184677479955,2.578028901467633e-10,-2.8959680660300968e-05,0.44879184677479955,1.9733694706758342e-05,-0.5217611571258616
908,0.8986,1041.3,1094.68,0.0247938,0.0149757,0.136603,-0.0456531,0.371075,0.371075,-0.738334,2.58781e-10,-2.89737e-05,1.98176e-05,0.663392,0.44929176619307776,2.5878099663145804e-10,-2.8973280266408885e-05,0.44929176619307776,1.9817796369947516e-05,-0.5220905501996571
909,0.8996,1041.46,1094.84,0.0247677,0.0149894,0.136795,-0.0457826,0.37142,0.37142,-0.739024,2.5975e-10,-2.89869e-05,1.99013e-05,0.664013,0.44979185811331046,2.597499992873509e-10,-2.8986479883919003e-05,0.44979185811331046,1.9901498032215414e-05,-0.5224201939798365
910,0.9006,1041.62,1095.01,0.0247417,0.0150033,0.136987,-0.0459117,0.371765,0.371765,-0.739713,2.60711e-10,-2.89997e-05,1.99846e-05,0.664635,0.4502921225950207,2.607110083374664e-10,-2.89992795127203e-05,0.4502921225950207,1.9984799693339994e-05,-0.522749133133633
911,0.9016,1041.78,1095.18,0.0247157,0.0150171,0.137179,-0.0460405,0.37211,0.37211,-0.740402,2.61662e-10,-2.90121e-05,2.00676e-05,0.665256,0.45079255969775245,2.616620253803603e-10,-2.9011679153145842e-05,0.45079255969775245,2.0067801355549975e-05,-0.5230778457264118
912,0.9026,1041.94,1095.34,0.0246897,0.015031,0.13737,-0.0461688,0.372455,0.372455,-0.741091,2.62604e-10,-2.90242e-05,2.01502e-05,0.665877,0.45129316948107023,2.626039385944523e-10,-2.9023778801984257e-05,0.45129316948107023,2.0150403016616636e-05,-0.5234063319142197
913,0.9036,1042.1,1095.51,0.0246637,0.0150449,0.137561,-0.0462967,0.372799,0.372799,-0.74178,2.63538e-10,-2.90358e-05,2.02325e-05,0.666498,0.45179250021133344,2.635380802473719e-10,-2.90353784652142e-05,0.45179250021133344,2.023270467832461e-05,-0.5237345918529959
914,0.9046,1042.26,1095.68,0.0246378,0.0150589,0.137752,-0.0464242,0.373143,0.373143,-0.742468,1.09093e-10,-2.9047e-05,2.03144e-05,0.667118,0.4522920027409154,1.0909295689032206e-10,-2.904657813995737e-05,0.4522920027409154,2.0314606338889263e-05,-0.5240621497609601
915,0.9056,1042.41,1095.84,0.0246119,0.0150729,0.137942,-0.0465513,0.373488,0.373488,-0.743156,2.65377e-10,-2.90579e-05,2.0396e-05,0.667738,0.45279312992132903,2.65377053665361e-10,-2.9057477823335454e-05,0.45279312992132903,2.0396207999873184e-05,-0.5243894823865896
916,0.9066,1042.57,1096.01,0.0245861,0.015087,0.138132,-0.046678,0.373832,0.373832,-0.743844,2.66284e-10,-2.90683e-05,2.04772e-05,0.668359,0.4532929767267433,2.6628410587647977e-10,-2.9067877521105068e-05,0.4532929767267433,2.0477409659269696e-05,-0.5247165898848254
917,0.9076,1042.73,1096.17,0.0245603,0.0151011,0.138322,-0.0468044,0.374176,0.374176,-0.744531,2.67181e-10,-2.90784e-05,2.05581e-05,0.668979,0.4537929955090372,2.6718094403577197e-10,-2.9077977227398577e-05,0.4537929955090372,2.0558311319085476e-05,-0.5250429974537367
918,0.9086,1042.89,1096.34,0.0245346,0.0151152,0.138511,-0.0469303,0.374519,0.374519,-0.745219,2.6807e-10,-2.90881e-05,2.06386e-05,0.669598,0.4542917320349211,2.680700106338918e-10,-2.9087676945316332e-05,0.4542917320349211,2.0638812977313847e-05,-0.5253696554882396
919,0.9096,1043.05,1096.5,0.0245088,0.0151294,0.1387,-0.0470558,0.374863,0.374863,-0.745906,2.6895e-10,-2.90974e-05,2.07188e-05,0.670218,0.45479209444814206,2.689499734032097e-10,-2.909697667474731e-05,0.45479209444814206,2.071901463573944e-05,-0.5256956145551595
920,0.9106,1043.21,1096.67,0.0244831,0.0151436,0.138888,-0.0471809,0.375207,0.375207,-0.746593,2.6982e-10,-2.91063e-05,2.07986e-05,0.670837,0.4552926290156418,2.6981994416530597e-10,-2.9105876415802534e-05,0.4552926290156418,2.0798816292355582e-05,-0.5260213497651041
921,0.9116,1043.36,1096.83,0.0244575,0.0151579,0.139076,-0.0473056,0.37555,0.37555,-0.74728,2.70682e-10,-2.91148e-05,2.08781e-05,0.671456,0.45579188000404414,2.7068192132162494e-10,-2.911437616837098e-05,0.45579188000404414,2.08783179489469e-05,-0.5263468612718103
922,0.9126,1043.52,1097.0,0.0244319,0.0151722,0.139264,-0.0474299,0.375894,0.375894,-0.747966,2.71535e-10,-2.91229e-05,2.09572e-05,0.672075,0.4562927585569372,2.715350166937469e-10,-2.912247593245265e-05,0.4562927585569372,2.0957419603728766e-05,-0.526671675900822
923,0.9136,1043.68,1097.16,0.0244063,0.0151866,0.139452,-0.0475538,0.376237,0.376237,-0.748652,2.72379e-10,-2.91306e-05,2.1036e-05,0.672694,0.45679235264861084,2.7237900823706696e-10,-2.9130175708158568e-05,0.45679235264861084,2.1036221258263765e-05,-0.526996267783409
924,0.9146,1043.84,1097.32,0.0243808,0.015201,0.139639,-0.0476773,0.37658,0.37658,-0.749338,2.73213e-10,-2.9138e-05,2.11144e-05,0.673312,0.4572921181304499,2.7321300777316537e-10,-2.9137575492610424e-05,0.4572921181304499,2.1114622910545222e-05,-0.5273206370723229
925,0.9156,1043.99,1097.49,0.0243553,0.0152154,0.139826,-0.0478004,0.376923,0.376923,-0.750024,2.74039e-10,-2.9145e-05,2.11925e-05,0.67393,0.45779205506125065,2.740390137034865e-10,-2.9144575288575503e-05,0.45779205506125065,2.1192724562579812e-05,-0.5276447839202106
926,0.9166,1044.15,1097.65,0.0243298,0.0152299,0.140012,-0.0479231,0.377266,0.377266,-0.750709,2.74856e-10,-2.91516e-05,2.12703e-05,0.674548,0.45829216349983093,2.748559158050057e-10,-2.915117509627585e-05,0.45829216349983093,2.1270526214367536e-05,-0.5279682364480868
927,0.9176,1044.31,1097.82,0.0243044,0.0152444,0.140198,-0.0480454,0.377609,0.377609,-0.751395,2.75664e-10,-2.91578e-05,2.13477e-05,0.675166,0.45879244350502746,2.7566393612232787e-10,-2.915737491548942e-05,0.45879244350502746,2.1347927863679672e-05,-0.5282919391951467
928,0.9186,1044.47,1097.98,0.024279,0.0152589,0.140384,-0.0481674,0.377952,0.377952,-0.75208,2.76463e-10,-2.91636e-05,2.14248e-05,0.675784,0.4592928951356978,2.7646307465545306e-10,-2.9163174746327236e-05,0.4592928951356978,2.1425029512744942e-05,-0.5286149485734557
929,0.9196,1044.62,1098.14,0.0242536,0.0152735,0.14057,-0.0482889,0.378294,0.378294,-0.752764,2.77253e-10,-2.9169e-05,2.15015e-05,0.676401,0.45979205865793116,2.772531093597763e-10,-2.916857458890032e-05,0.45979205865793116,2.1501731158890536e-05,-0.5289372657036064
930,0.9206,1044.78,1098.31,0.0242283,0.0152881,0.140755,-0.04841,0.378637,0.378637,-0.753449,2.78034e-10,-2.91741e-05,2.15779e-05,0.677018,0.4602928532154076,2.7803404023529765e-10,-2.917367444010832e-05,0.4602928532154076,2.1578132804567218e-05,-0.5292598331846241
931,0.9216,1044.93,1098.47,0.024203,0.0153028,0.140939,-0.0485307,0.378979,0.378979,-0.754133,2.78806e-10,-2.91788e-05,2.1654e-05,0.677635,0.46079235878179037,2.78806089326622e-10,-2.917837430294057e-05,0.46079235878179037,2.1654234449552945e-05,-0.529581709364523
932,0.9226,1045.09,1098.63,0.0241778,0.0153175,0.141124,-0.048651,0.379321,0.379321,-0.754817,2.79569e-10,-2.91831e-05,2.17297e-05,0.678252,0.46129203520829254,2.795690345891444e-10,-2.9182674177508083e-05,0.46129203520829254,2.1729936091618995e-05,-0.5299033654563935
933,0.9236,1045.25,1098.79,0.0241526,0.0153322,0.141308,-0.048771,0.379663,0.379663,-0.755501,2.80323e-10,-2.9187e-05,2.18051e-05,0.678868,0.46179188255335757,2.803230980674698e-10,-2.9186574063699844e-05,0.46179188255335757,2.180533773299409e-05,-0.5302248016107244
934,0.9246,1045.4,1098.96,0.0241274,0.015347,0.141492,-0.0488905,0.380005,0.380005,-0.756185,2.81069e-10,-2.91906e-05,2.18802e-05,0.679485,0.46229190087545025,2.81068945895413e-10,-2.9190173958526522e-05,0.46229190087545025,2.188043937323414e-05,-0.5305460179779016
935,0.9256,1045.56,1099.12,0.0241023,0.0153619,0.141675,-0.0490097,0.380347,0.380347,-0.756868,2.81805e-10,-2.91937e-05,2.19549e-05,0.680101,0.46279209023305445,2.8180502376073946e-10,-2.9193273868077796e-05,0.46279209023305445,2.1955141010554513e-05,-0.5308665455749879
936,0.9266,1045.71,1099.28,0.0240771,0.0153767,0.141858,-0.0491284,0.380689,0.380689,-0.757551,2.82532e-10,-2.91965e-05,2.20293e-05,0.680717,0.4632924506846745,2.82531997797264e-10,-2.919607378637501e-05,0.4632924506846745,2.202954264673984e-05,-0.53118685432647
937,0.9276,1045.87,1099.44,0.0240521,0.0153916,0.142041,-0.0492468,0.381031,0.381031,-0.758234,2.83251e-10,-2.91989e-05,2.21034e-05,0.681332,0.46379298228883425,2.8325097822801126e-10,-2.919847371629647e-05,0.46379298228883425,2.210364428201217e-05,-0.5315069443817678
938,0.9286,1046.02,1099.6,0.0240271,0.0154066,0.142223,-0.0493647,0.381372,0.381372,-0.758917,2.8396e-10,-2.9201e-05,2.21771e-05,0.681948,0.4642922208111251,2.839599666515369e-10,-2.920057365496387e-05,0.4642922208111251,2.2177345913698687e-05,-0.5318268158902002
939,0.9296,1046.18,1099.76,0.0240021,0.0154215,0.142405,-0.0494823,0.381714,0.381714,-0.7596,2.84661e-10,-2.92027e-05,2.22505e-05,0.682563,0.46479309439514327,2.846609614692852e-10,-2.9202273605255513e-05,0.46479309439514327,2.225074754425016e-05,-0.5321464690009837
940,0.9306,1046.33,1099.93,0.0239771,0.0154365,0.142587,-0.0495994,0.382055,0.382055,-0.760282,2.85353e-10,-2.9204e-05,2.23236e-05,0.683178,0.46529267401381613,2.8535307450283653e-10,-2.9203573567393448e-05,0.46529267401381613,2.2323849173444543e-05,-0.532465436328903
941,0.9316,1046.49,1100.09,0.0239522,0.0154516,0.142768,-0.0497162,0.382396,0.382396,-0.760964,2.86036e-10,-2.92049e-05,2.23963e-05,0.683793,0.4657924240181879,2.8603608370758593e-10,-2.9204473541044607e-05,0.4657924240181879,2.2396550799053117e-05,-0.5327841861952674
942,0.9326,1046.64,1100.25,0.0239273,0.0154667,0.142949,-0.0498326,0.382737,0.382737,-0.761645,2.86709e-10,-2.92055e-05,2.24688e-05,0.684408,0.46629234446637025,2.867091009051137e-10,-2.9205073523552727e-05,0.46629234446637025,2.2469052425311276e-05,-0.5331022518508204
943,0.9336,1046.8,1100.41,0.0239024,0.0154818,0.143129,-0.0499486,0.383078,0.383078,-0.762327,2.87374e-10,-2.92056e-05,2.25409e-05,0.685022,0.4667924354164943,2.8737390245225924e-10,-2.92051735205634e-05,0.4667924354164943,2.2541154047983625e-05,-0.5334205675570642
944,0.9346,1046.95,1100.57,0.0238776,0.015497,0.14331,-0.0500642,0.383419,0.383419,-0.763008,2.88031e-10,-2.92055e-05,2.26126e-05,0.685636,0.46729269692671127,2.880309324382324e-10,-2.9205073523552727e-05,0.46729269692671127,2.261285566684812e-05,-0.533738199984441
945,0.9356,1047.1,1100.73,0.0238528,0.0155122,0.14349,-0.0501794,0.38376,0.38376,-0.763689,2.88678e-10,-2.92049e-05,2.26841e-05,0.68625,0.467793129055192,2.8867797041698395e-10,-2.9204473541044607e-05,0.467793129055192,2.2684357286140155e-05,-0.5340556161777706
946,0.9366,1047.26,1100.89,0.0238281,0.0155274,0.143669,-0.0502942,0.3841,0.3841,-0.76437,2.89316e-10,-2.9204e-05,2.27552e-05,0.686864,0.4682922635671294,2.8931590456693357e-10,-2.9203573567393448e-05,0.4682922635671294,2.2755458901624337e-05,-0.5343728162842586
947,0.9376,1047.41,1101.05,0.0238034,0.0155427,0.143848,-0.0504086,0.384441,0.384441,-0.765051,2.89946e-10,-2.92027e-05,2.2826e-05,0.687478,0.4687930366059565,2.899460671557108e-10,-2.9202273605255513e-05,0.4687930366059565,2.2826260515085295e-05,-0.5346898004510099
948,0.9386,1047.56,1101.21,0.0237787,0.015558,0.144027,-0.0505227,0.384781,0.384781,-0.765731,2.90567e-10,-2.9201e-05,2.28965e-05,0.688091,0.4692925111442623,2.905669038710812e-10,-2.920057365496387e-05,0.4692925111442623,2.289676212696712e-05,-0.5350061038313656
949,0.9396,1047.72,1101.37,0.0237541,0.0155734,0.144206,-0.0506363,0.385121,0.385121,-0.766411,2.91178e-10,-2.9199e-05,2.29666e-05,0.688704,0.4697921555327842,2.911779706238349e-10,-2.919857371330714e-05,0.4697921555327842,2.2966863734374954e-05,-0.5353221921985354
950,0.9406,1047.87,1101.53,0.0237295,0.0155888,0.144384,-0.0507496,0.385461,0.385461,-0.767091,2.91781e-10,-2.91966e-05,2.30364e-05,0.689317,0.4702919698292809,2.9178104377081127e-10,-2.919617378338568e-05,0.4702919698292809,2.303666533998161e-05,-0.5356380656986788
951,0.9416,1048.02,1101.69,0.0237049,0.0156042,0.144562,-0.0508625,0.385801,0.385801,-0.767771,2.92376e-10,-2.91939e-05,2.3106e-05,0.68993,0.47079195409153085,2.923759012674054e-10,-2.9193473862210162e-05,0.47079195409153085,2.310626694557172e-05,-0.5359537244778554
952,0.9426,1048.17,1101.85,0.0236804,0.0156197,0.144739,-0.0509749,0.386141,0.386141,-0.76845,2.92961e-10,-2.91908e-05,2.31752e-05,0.690543,0.4712921083773325,2.929609888013829e-10,-2.919037395276991e-05,0.4712921083773325,2.3175468547131928e-05,-0.5362687049509627
953,0.9436,1048.33,1102.01,0.0236559,0.0156352,0.144916,-0.051087,0.386481,0.386481,-0.76913,2.93538e-10,-2.91873e-05,2.3244e-05,0.691155,0.47179243274450355,2.9353808272958304e-10,-2.9186874054953904e-05,0.47179243274450355,2.324427014377406e-05,-0.5365839350412185
954,0.9446,1048.48,1102.17,0.0236314,0.0156507,0.145093,-0.0511987,0.386821,0.386821,-0.769809,2.94106e-10,-2.91835e-05,2.33126e-05,0.691767,0.47229292725088134,2.9410607282898127e-10,-2.9183074165772815e-05,0.47229292725088134,2.3312871740843732e-05,-0.5368984877465969
955,0.9456,1048.63,1102.32,0.023607,0.0156663,0.14527,-0.05131,0.38716,0.38716,-0.770487,2.94665e-10,-2.91793e-05,2.33808e-05,0.692379,0.47279211916146746,2.9466495909957757e-10,-2.9178874288326995e-05,0.47279211916146746,2.3381073332995328e-05,-0.5372123641557783
956,0.9466,1048.78,1102.48,0.0235826,0.0156819,0.145446,-0.051421,0.3875,0.3875,-0.771166,2.95215e-10,-2.91747e-05,2.34488e-05,0.692991,0.47329295361901536,2.952149635859769e-10,-2.9174274422616442e-05,0.47329295361901536,2.344907492535242e-05,-0.5375264903026209
957,0.9476,1048.94,1102.64,0.0235582,0.0156975,0.145621,-0.0515315,0.387839,0.387839,-0.771844,2.95757e-10,-2.91698e-05,2.35164e-05,0.693602,0.4737924845960091,2.957569744665989e-10,-2.9169374565540807e-05,0.4737924845960091,2.3516676512791435e-05,-0.5378399410703781
958,0.9486,1049.09,1102.8,0.0235339,0.0157132,0.145797,-0.0516417,0.388178,0.388178,-0.772522,2.96289e-10,-2.91645e-05,2.35837e-05,0.694214,0.4742921849427104,2.9628899333999925e-10,-2.9164074720089417e-05,0.4742921849427104,2.3583978097541092e-05,-0.5381531793905427
959,0.9496,1049.24,1102.96,0.0235096,0.0157289,0.145972,-0.0517514,0.388517,0.388517,-0.7732,2.96814e-10,-2.91589e-05,2.36507e-05,0.694825,0.4747920547165454,2.96813906786042e-10,-2.9158474883383967e-05,0.4747920547165454,2.365097968004548e-05,-0.5384662054071052
960,0.9506,1049.39,1103.11,0.0234853,0.0157447,0.146147,-0.0518608,0.388856,0.388856,-0.773878,2.97329e-10,-2.91529e-05,2.37173e-05,0.695436,0.47529209397495986,2.973290502694681e-10,-2.9152475058302763e-05,0.47529209397495986,2.3717581257409748e-05,-0.5387790192639588
961,0.9516,1049.54,1103.27,0.0234611,0.0157605,0.146321,-0.0519698,0.389195,0.389195,-0.774555,2.97836e-10,-2.91465e-05,2.37837e-05,0.696046,0.47579230277541873,2.9783597810251194e-10,-2.9146075244845804e-05,0.47579230277541873,2.3783982834535422e-05,-0.5390911601962896
962,0.9526,1049.69,1103.43,0.0234369,0.0157763,0.146495,-0.0520784,0.389534,0.389534,-0.775232,2.98334e-10,-2.91398e-05,2.38498e-05,0.696657,0.47629268117540646,2.983340241513588e-10,-2.9139375440134785e-05,0.47629268117540646,2.3850084408749694e-05,-0.5394030898807245
963,0.9536,1049.84,1103.59,0.0234128,0.0157921,0.146669,-0.0521866,0.389872,0.389872,-0.775909,2.98823e-10,-2.91327e-05,2.39155e-05,0.697267,0.4767917524399361,2.988229663714037e-10,-2.913227564704801e-05,0.4767917524399361,2.3915785977823845e-05,-0.5397148084602303
964,0.9546,1049.99,1103.74,0.0233887,0.015808,0.146842,-0.0522945,0.390211,0.390211,-0.776586,2.99304e-10,-2.91253e-05,2.3981e-05,0.697877,0.4772924697107952,2.9930391498567133e-10,-2.9124875862596156e-05,0.4772924697107952,2.3981287546437358e-05,-0.5400263160776765
965,0.9556,1050.14,1103.9,0.0233646,0.015824,0.147015,-0.0524019,0.390549,0.390549,-0.777262,2.99776e-10,-2.91175e-05,2.40461e-05,0.698487,0.4777918789609663,2.9977598181574194e-10,-2.9117076089657523e-05,0.4777918789609663,2.4046389109688704e-05,-0.5403371532132191
966,0.9566,1050.29,1104.06,0.0233405,0.0158399,0.147188,-0.052509,0.390888,0.390888,-0.777938,3.00239e-10,-2.91094e-05,2.41109e-05,0.699097,0.4782929353321905,3.0023894481701063e-10,-2.9108976325575853e-05,0.4782929353321905,2.4111190670028648e-05,-0.5406477802938646
967,0.9576,1050.44,1104.21,0.0233165,0.0158559,0.14736,-0.0526157,0.391226,0.391226,-0.778614,3.00694e-10,-2.91009e-05,2.41754e-05,0.699706,0.4787926827968967,3.00693914212502e-10,-2.9100476572896383e-05,0.4787926827968967,2.4175692227235146e-05,-0.5409581974615622
968,0.9586,1050.59,1104.37,0.0232925,0.015872,0.147532,-0.052722,0.391564,0.391564,-0.77929,3.0114e-10,-2.90921e-05,2.42397e-05,0.700315,0.4792925992047956,3.011400018237964e-10,-2.9091676828962854e-05,0.4792925992047956,2.4239993783981006e-05,-0.5412684048581651
969,0.9596,1050.74,1104.53,0.0232686,0.015888,0.147703,-0.0528279,0.391902,0.391902,-0.779966,3.01578e-10,-2.90829e-05,2.43036e-05,0.700924,0.4797926846129996,3.015780958293135e-10,-2.9082477096542547e-05,0.4797926846129996,2.430389533492061e-05,-0.5415784026254304
970,0.9606,1050.89,1104.68,0.0232447,0.0159041,0.147875,-0.0529334,0.39224,0.39224,-0.780641,3.02007e-10,-2.90734e-05,2.43672e-05,0.701533,0.480292939078641,3.0200708600602866e-10,-2.907297737275716e-05,0.480292939078641,2.436749688272677e-05,-0.5418877327929819
971,0.9616,1051.04,1104.84,0.0232208,0.0159203,0.148046,-0.0530386,0.392577,0.392577,-0.781316,3.02427e-10,-2.90635e-05,2.44305e-05,0.702142,0.4807918818662482,3.024269723539419e-10,-2.9063077660596015e-05,0.4807918818662482,2.4430798427177436e-05,-0.5421968542331235
972,0.9626,1051.19,1104.99,0.0231969,0.0159364,0.148216,-0.0531434,0.392915,0.392915,-0.781991,3.02839e-10,-2.90533e-05,2.44935e-05,0.70275,0.48129247411764364,3.0283908714068275e-10,-2.9052877956958767e-05,0.48129247411764364,2.449379996827261e-05,-0.5425057670866991
973,0.9636,1051.34,1105.15,0.0231731,0.0159526,0.148386,-0.0532478,0.393252,0.393252,-0.782666,3.03243e-10,-2.90427e-05,2.45562e-05,0.703359,0.48179175380532335,3.032429862770414e-10,-2.9042278264834742e-05,0.48179175380532335,2.4556501506012296e-05,-0.5428144714944567
974,0.9646,1051.49,1105.31,0.0231493,0.0159689,0.148556,-0.0533518,0.39359,0.39359,-0.78334,3.03638e-10,-2.90318e-05,2.46186e-05,0.703967,0.4822926840705555,3.03638003629203e-10,-2.9031378581345635e-05,0.4822926840705555,2.4618903040174445e-05,-0.5431225107197895
975,0.9656,1051.64,1105.46,0.0231256,0.0159851,0.148726,-0.0534554,0.393927,0.393927,-0.784014,3.04024e-10,-2.90205e-05,2.46807e-05,0.704574,0.48279230088579217,3.040239171525627e-10,-2.902007890936975e-05,0.48279230088579217,2.4681004570981102e-05,-0.5434303423966358
976,0.9666,1051.79,1105.62,0.0231019,0.0160014,0.148895,-0.0535587,0.394264,0.394264,-0.784688,3.04402e-10,-2.90089e-05,2.47425e-05,0.705182,0.4832920861002694,3.0440205911475005e-10,-2.9008479245917762e-05,0.4832920861002694,2.4742806098210224e-05,-0.5437379666648365
977,0.9676,1051.94,1105.77,0.0230782,0.0160178,0.149064,-0.0536616,0.394601,0.394601,-0.785362,3.04772e-10,-2.89969e-05,2.4804e-05,0.705789,0.4837920397707469,3.0477198542655515e-10,-2.8996479593978997e-05,0.4837920397707469,2.480430762186181e-05,-0.5440453836641379
978,0.9686,1052.09,1105.93,0.0230545,0.0160341,0.149232,-0.0537641,0.394938,0.394938,-0.786035,3.05133e-10,-2.89846e-05,2.48652e-05,0.706397,0.4842921619540044,3.0513302995416325e-10,-2.8984179950564126e-05,0.4842921619540044,2.4865509141713815e-05,-0.544352137886558
979,0.9696,1052.23,1106.08,0.0230309,0.0160505,0.1494,-0.0538662,0.395275,0.395275,-0.786709,3.05486e-10,-2.89719e-05,2.49261e-05,0.707004,0.4847924527068399,3.0548608087599405e-10,-2.8971480318551457e-05,0.4847924527068399,2.492641065776624e-05,-0.5446591410739263
980,0.9706,1052.38,1106.24,0.0230073,0.0160669,0.149568,-0.0539679,0.395612,0.395612,-0.787382,3.0583e-10,-2.89589e-05,2.49867e-05,0.70761,0.48529291208607117,3.058300279690229e-10,-2.8958480695062683e-05,0.48529291208607117,2.498701217024113e-05,-0.5449654823765726
981,0.9716,1052.53,1106.39,0.0229838,0.0160834,0.149736,-0.0540693,0.395948,0.395948,-0.788055,3.06166e-10,-2.89456e-05,2.50471e-05,0.708217,0.48579205435573747,3.061659814562745e-10,-2.8945181080208826e-05,0.48579205435573747,2.504741368114516e-05,-0.5452716175808822
982,0.9726,1052.68,1106.54,0.0229603,0.0160999,0.149903,-0.0541703,0.396285,0.396285,-0.788727,3.06493e-10,-2.89319e-05,2.51071e-05,0.708823,0.4862928506574926,3.0649305315932907e-10,-2.8931481476646148e-05,0.4862928506574926,2.5107415185798843e-05,-0.545577092402832
983,0.9736,1052.83,1106.7,0.0229368,0.0161164,0.15007,-0.0542709,0.396621,0.396621,-0.7894,3.06813e-10,-2.89179e-05,2.51668e-05,0.70943,0.48679232896296987,3.0681301943502604e-10,-2.8917481881607365e-05,0.48679232896296987,2.5167116686652946e-05,-0.5458828161320708
984,0.9746,1052.97,1106.85,0.0229133,0.016133,0.150236,-0.0543711,0.396957,0.396957,-0.790072,3.07123e-10,-2.89035e-05,2.52263e-05,0.710036,0.48729197512135536,3.071229937035014e-10,-2.890308229785976e-05,0.48729197512135536,2.5226618185714145e-05,-0.546187880366567
985,0.9756,1053.12,1107.01,0.0228899,0.0161496,0.150402,-0.054471,0.397293,0.397293,-0.790744,3.07426e-10,-2.88888e-05,2.52855e-05,0.710641,0.4877917891890573,3.0742608458922405e-10,-2.8888382722636052e-05,0.4877917891890573,2.5285819680975763e-05,-0.5464927396667634
986,0.9766,1053.27,1107.16,0.0228665,0.0161662,0.150568,-0.0545704,0.397629,0.397629,-0.791415,3.0772e-10,-2.88738e-05,2.53443e-05,0.711247,0.48829177122250256,3.077200716461448e-10,-2.8873383155825216e-05,0.48829177122250256,2.5344621169542947e-05,-0.5467969409674969
987,0.9776,1053.42,1107.31,0.0228432,0.0161829,0.150733,-0.0546696,0.397965,0.397965,-0.792087,3.08006e-10,-2.88584e-05,2.54029e-05,0.711852,0.4887919212781373,3.0800606509728823e-10,-2.885798360041658e-05,0.4887919212781373,2.5403222656317226e-05,-0.5471013911164596
988,0.9786,1053.56,1107.47,0.0228199,0.0161996,0.150898,-0.0547683,0.398301,0.398301,-0.792758,3.08284e-10,-2.88427e-05,2.54612e-05,0.712457,0.48929223941242617,3.0828406494265437e-10,-2.8842284053309797e-05,0.48929223941242617,2.546152413906988e-05,-0.5474051841490597
989,0.9796,1053.71,1107.62,0.0227966,0.0162163,0.151063,-0.0548666,0.398637,0.398637,-0.793429,3.08554e-10,-2.88266e-05,2.55192e-05,0.713062,0.4897927256818535,3.085540711822432e-10,-2.8826184517605213e-05,0.4897927256818535,2.5519525617578864e-05,-0.5477087734049098
990,0.9806,1053.86,1107.77,0.0227733,0.016233,0.151227,-0.0549646,0.398972,0.398972,-0.7941,3.08815e-10,-2.88102e-05,2.55769e-05,0.713667,0.4902918898502868,3.088149735930301e-10,-2.880978499020248e-05,0.4902918898502868,2.5577227091622134e-05,-0.5480121590206979
991,0.9816,1054.0,1107.92,0.0227501,0.0162498,0.151391,-0.0550622,0.399308,0.399308,-0.79477,3.09068e-10,-2.87935e-05,2.56344e-05,0.714272,0.4907927120586959,3.0906810444264465e-10,-2.879308547121262e-05,0.4907927120586959,2.5634728564094544e-05,-0.5483148894481361
992,0.9826,1054.15,1108.08,0.0227269,0.0162666,0.151555,-0.0551594,0.399643,0.399643,-0.795441,3.09313e-10,-2.87764e-05,2.56915e-05,0.714876,0.4912922112786835,3.0931301964187696e-10,-2.8775985963402917e-05,0.4912922112786835,2.569183002942843e-05,-0.5486178684964779
993,0.9836,1054.29,1108.23,0.0227038,0.0162835,0.151718,-0.0552563,0.399978,0.399978,-0.796111,3.0955e-10,-2.8759e-05,2.57484e-05,0.71548,0.4917918778589412,3.0954994123533197e-10,-2.8758586463895064e-05,0.4917918778589412,2.5748731492969412e-05,-0.5489201932344886
994,0.9846,1054.44,1108.38,0.0226806,0.0163004,0.151881,-0.0553528,0.400313,0.400313,-0.796781,3.09779e-10,-2.87413e-05,2.58049e-05,0.716084,0.4922917118555439,3.097790912676146e-10,-2.8740886972800084e-05,0.4922917118555439,2.580523294937187e-05,-0.5492223154827665
995,0.9856,1054.59,1108.53,0.0226576,0.0163173,0.152044,-0.0554489,0.400649,0.400649,-0.79745,3.09999e-10,-2.87233e-05,2.58612e-05,0.716688,0.492793206117045,3.099989154264904e-10,-2.8722887490006954e-05,0.492793206117045,2.586153440375938e-05,-0.5495237849009442
996,0.9866,1054.73,1108.69,0.0226345,0.0163342,0.152206,-0.0555447,0.400983,0.400983,-0.79812,3.10212e-10,-2.87049e-05,2.59173e-05,0.717292,0.4932918823221786,3.102120782472184e-10,-2.870448801828296e-05,0.4932918823221786,2.5917635856131938e-05,-0.5498255028782515
997,0.9876,1054.88,1108.84,0.0226115,0.0163512,0.152368,-0.05564,0.401318,0.401318,-0.798789,3.10416e-10,-2.86861e-05,2.5973e-05,0.717895,0.493792218904455,3.104159151945396e-10,-2.868568855773912e-05,0.493792218904455,2.5973337301365973e-05,-0.5501265688990131
998,0.9886,1055.02,1108.99,0.0225885,0.0163682,0.152529,-0.055735,0.401653,0.401653,-0.799458,3.10612e-10,-2.86671e-05,2.60284e-05,0.718498,0.49429272312756445,3.106119805806884e-10,-2.8666689102618825e-05,0.49429272312756445,2.6028738741690205e-05,-0.5504274335739647
999,0.9896,1055.17,1109.14,0.0225655,0.0163852,0.152691,-0.0558296,0.401987,0.401987,-0.800127,3.10801e-10,-2.86477e-05,2.60836e-05,0.719101,0.49479190025502895,3.108009405394796e-10,-2.8647289658567665e-05,0.49479190025502895,2.6083940179999487e-05,-0.5507280970377613
