,Time,S11,S22,S33,S12,S13,S23,LE11,LE22,LE33,LE12,LE13,LE23,SDV_EPBAR,E11,E12,E13,E22,E23,E33
0,1e-05,0.0830984,3.46945e-18,6.93889e-18,-5.28749e-19,0.0,1.0575e-18,4e-07,-1.2e-07,-1.2e-07,0.0,0.0,0.0,0.0,4.0000007994756004e-07,0.0,0.0,-1.1999999283140994e-07,0.0,-1.1999999283140994e-07
1,2e-05,0.166197,0.0,0.0,2.7495e-25,-5.28749e-19,5.28749e-19,8e-07,-2.4e-07,-2.4e-07,0.0,0.0,0.0,0.0,8.000003199892802e-07,0.0,0.0,-2.3999997122992056e-07,0.0,-2.3999997122992056e-07
2,3.5e-05,0.290844,1.04083e-17,1.38778e-17,2.7495e-25,-5.28748e-19,5.28749e-19,1.4e-06,-4.2e-07,-4.2e-07,0.0,0.0,0.0,0.0,1.4000009800341218e-06,0.0,0.0,-4.19999911849267e-07,0.0,-4.19999911849267e-07
3,5.75e-05,0.477815,1.04083e-17,2.77556e-17,1.0575e-18,5.28749e-19,2.64375e-18,2.3e-06,-6.89999e-07,-6.89999e-07,0.0,0.0,0.0,0.0,2.3000026450059607e-06,0.0,0.0,-6.899987619046755e-07,0.0,-6.899987619046755e-07
4,9.125e-05,0.758272,2.42861e-17,2.77556e-17,-1.0575e-18,5.28748e-19,-1.58625e-18,3.64999e-06,-1.095e-06,-1.095e-06,0.0,0.0,0.0,0.0,3.649996661136967e-06,0.0,0.0,-1.0949994004860741e-06,0.0,-1.0949994004860741e-06
5,0.00014188,1.17896,-7.28584e-17,-5.55112e-17,1.0575e-18,5.28747e-19,-1.58625e-18,5.67498e-06,-1.7025e-06,-1.7025e-06,0.0,0.0,0.0,0.0,5.674996102822405e-06,0.0,0.0,-1.7024985506930435e-06,0.0,-1.7024985506930435e-06
6,0.00021781,1.80998,1.63064e-16,1.66533e-16,-1.0575e-18,5.28745e-19,-5.81624e-18,8.71246e-06,-2.61374e-06,-2.61374e-06,0.0,0.0,0.0,0.0,8.712497953533571e-06,0.0,0.0,-2.6137365841671922e-06,0.0,-2.6137365841671922e-06
7,0.00033172,2.75651,-1.14492e-16,-1.66533e-16,-1.05749e-18,5.28742e-19,1.11037e-17,1.32687e-05,-3.9806e-06,-3.9806e-06,0.0,0.0,0.0,0.0,1.3268788029652256e-05,0.0,0.0,-3.980592077401646e-06,0.0,-3.980592077401646e-06
8,0.00050258,4.1763,-8.67362e-17,5.55112e-17,-1.05748e-18,5.28737e-19,-5.81624e-18,2.01029e-05,-6.03088e-06,-6.03088e-06,0.0,0.0,0.0,0.0,2.0103102064572553e-05,0.0,0.0,-6.030861814276811e-06,0.0,-6.030861814276811e-06
9,0.00075887,6.30597,-4.75314e-16,-4.996e-16,-1.05747e-18,5.2873e-19,-5.81624e-18,3.03542e-05,-9.10627e-06,-9.10627e-06,0.0,0.0,0.0,0.0,3.0354660693454605e-05,0.0,0.0,-9.106228538002803e-06,0.0,-9.106228538002803e-06
10,0.0011433,9.50043,-4.75314e-16,-7.21645e-16,-1.05745e-18,5.28719e-19,2.80237e-17,4.5731e-05,-1.37193e-05,-1.37193e-05,0.0,0.0,0.0,0.0,4.573204567814848e-05,0.0,0.0,-1.3719205890883046e-05,0.0,-1.3719205890883046e-05
11,0.00172,14.292,-5.13825e-15,-4.94049e-15,-1.05741e-18,5.28704e-19,-3.96562e-17,6.87957e-05,-2.06387e-05,-2.06387e-05,0.0,0.0,0.0,0.0,6.879806647841491e-05,0.0,0.0,-2.0638487023494356e-05,0.0,-2.0638487023494356e-05
12,0.0025849,21.4792,-3.53363e-14,-3.46945e-14,-1.05737e-18,5.2868e-19,-3.96562e-17,0.000103392,-3.10175e-05,-3.10175e-05,0.0,0.0,0.0,0.0,0.00010339734513697962,0.0,0.0,-3.101701896235376e-05,0.0,-3.101701896235376e-05
13,0.0035849,29.788,-7.64146e-14,-7.68829e-14,-1.05731e-18,5.28652e-19,2.80237e-17,0.000143387,-4.3016e-05,-4.3016e-05,0.0,0.0,0.0,0.0,0.00014339728040724253,0.0,0.0,-4.301507482518119e-05,0.0,-4.301507482518119e-05
14,0.0045849,38.0965,-8.72948e-14,-8.75411e-14,-1.05726e-18,5.28625e-19,-1.07336e-16,0.00018338,-5.50141e-05,-5.50141e-05,0.0,0.0,0.0,0.0,0.0001833968151401244,0.0,0.0,-5.501258675211229e-05,0.0,-5.501258675211229e-05
15,0.0055849,46.4047,-8.41861e-14,-8.39884e-14,-3.48954e-17,5.28597e-19,-1.07336e-16,0.000223372,-6.70116e-05,-6.70116e-05,0.0,0.0,0.0,0.0,0.00022339694938278143,0.0,0.0,-6.70093547728845e-05,0.0,-6.70093547728845e-05
16,0.0065849,54.7125,-8.24098e-14,-8.26561e-14,-1.05539e-18,5.2857e-19,-1.75016e-16,0.000263362,-7.90087e-05,-7.90087e-05,0.0,0.0,0.0,0.0,0.0002633966828162748,0.0,0.0,-7.900557889484183e-05,0.0,-7.900557889484183e-05
17,0.0075849,63.02,-8.17436e-14,-8.2212e-14,-1.05533e-18,5.28542e-19,-1.07336e-16,0.000303351,-9.10053e-05,-9.10053e-05,0.0,0.0,0.0,0.0,0.0003033970155674748,0.0,0.0,-9.10011591432891e-05,0.0,-9.10011591432891e-05
18,0.0085849,71.3271,-8.24098e-14,-8.26561e-14,-1.05528e-18,5.28515e-19,-3.96562e-17,0.000343338,-0.000103001,-0.000103001,0.0,0.0,0.0,0.0,0.0003433969472372844,0.0,0.0,-0.00010299569557914445,0.0,-0.00010299569557914445
19,0.0095849,79.6339,-9.06254e-14,-9.15379e-14,-1.05522e-18,5.28487e-19,-1.07336e-16,0.000383324,-0.000114997,-0.000114997,0.0,0.0,0.0,0.0,0.00038339747803273205,0.0,0.0,-0.00011499038809847928,0.0,-0.00011499038809847928
20,0.010585,87.9404,-8.15216e-14,-8.17679e-14,-1.05517e-18,5.2846e-19,-1.07336e-16,0.000423307,-0.000126992,-0.000126992,0.0,0.0,0.0,0.0,0.00042339660705148496,0.0,0.0,-0.00012698393685728337,0.0,-0.00012698393685728337
21,0.011585,96.2466,-8.99593e-14,-9.02056e-14,-1.05511e-18,5.28432e-19,-3.96562e-17,0.00046329,-0.000138987,-0.000138987,0.0,0.0,0.0,0.0,0.000463397335387139,0.0,0.0,-0.00013897734175438714,0.0,-0.00013897734175438714
22,0.012585,104.552,-8.21877e-14,-8.17679e-14,-1.05506e-18,5.28405e-19,-3.96562e-17,0.00050327,-0.000150981,-0.000150981,0.0,0.0,0.0,0.0,0.0005033966615939356,0.0,0.0,-0.0001509696029423635,0.0,-0.0001509696029423635
23,0.013585,112.858,-8.41861e-14,-8.39884e-14,-1.055e-18,5.28377e-19,-1.75016e-16,0.000543249,-0.000162975,-0.000162975,0.0,0.0,0.0,0.0,0.0005433965864622969,0.0,0.0,-0.00016296172029606204,0.0,-0.00016296172029606204
24,0.014585,121.163,-8.61845e-14,-8.57647e-14,-1.05495e-18,5.2835e-19,-1.07336e-16,0.000583227,-0.000174968,-0.000174968,0.0,0.0,0.0,0.0,0.0005833971099360458,0.0,0.0,-0.00017495269399214752,0.0,-0.00017495269399214752
25,0.015585,129.468,-8.30759e-14,-8.26561e-14,-1.05489e-18,5.28322e-19,-1.75016e-16,0.000623203,-0.000186961,-0.000186961,0.0,0.0,0.0,0.0,0.0006233972313360869,0.0,0.0,-0.0001869435238813777,0.0,-0.0001869435238813777
26,0.016585,137.772,-9.50663e-14,-9.50906e-14,-1.05484e-18,5.28295e-19,-1.07336e-16,0.000663177,-0.000198953,-0.000198953,0.0,0.0,0.0,0.0,0.000663396950486117,0.0,0.0,-0.0001989332101642871,0.0,-0.0001989332101642871
27,0.017585,146.077,-7.8413e-14,-7.86593e-14,-1.05478e-18,5.28267e-19,-3.96562e-17,0.00070315,-0.000210945,-0.000210945,0.0,0.0,0.0,0.0,0.0007033972679133527,0.0,0.0,-0.00021092275266787475,0.0,-0.00021092275266787475
28,0.018585,154.38,-8.57404e-14,-8.57647e-14,-1.05473e-18,5.2824e-19,-1.07336e-16,0.000743121,-0.000222936,-0.000222936,0.0,0.0,0.0,0.0,0.0007433971828185726,0.0,0.0,-0.00022291115161654496,0.0,-0.00022291115161654496
29,0.019585,162.684,-7.68587e-14,-7.68829e-14,3.27835e-17,5.28213e-19,-1.75016e-16,0.00078309,-0.000234927,-0.000234927,0.0,0.0,0.0,0.0,0.0007833966950254734,0.0,0.0,-0.00023489940681320487,0.0,-0.00023489940681320487
30,0.020585,170.987,-7.88571e-14,-7.91034e-14,-1.05638e-18,5.28185e-19,-1.41176e-16,0.000823058,-0.000246917,-0.000246917,0.0,0.0,0.0,0.0,0.0008233968051813978,0.0,0.0,-0.0002468865185064617,0.0,-0.0002468865185064617
31,0.021585,179.29,-7.59705e-14,-7.59948e-14,-1.05632e-18,5.28158e-19,-7.34961e-17,0.000863025,-0.000258907,-0.000258907,0.0,0.0,0.0,0.0,0.0008633975132303906,0.0,0.0,-0.00025887348647501973,0.0,-0.00025887348647501973
32,0.022585,187.592,-7.55264e-14,-7.55507e-14,-1.05627e-18,5.2813e-19,-7.34961e-17,0.000902989,-0.000270897,-0.000270897,0.0,0.0,0.0,0.0,0.0009033968173093321,0.0,0.0,-0.00027086031072076633,0.0,-0.00027086031072076633
33,0.023585,195.895,-7.44162e-14,-7.46625e-14,-1.05621e-18,5.28103e-19,-1.41176e-16,0.000942952,-0.000282886,-0.000282886,0.0,0.0,0.0,0.0,0.0009433967190091153,0.0,0.0,-0.0002828459915281689,0.0,-0.0002828459915281689
34,0.024585,204.196,-7.19737e-14,-7.24421e-14,-1.05616e-18,5.28075e-19,-2.08856e-16,0.000982914,-0.000294874,-0.000294874,0.0,0.0,0.0,0.0,0.0009833972182733408,0.0,0.0,-0.0002948305289349751,0.0,-0.0002948305289349751
35,0.025585,212.498,-7.39721e-14,-7.33302e-14,-1.0561e-18,5.28048e-19,-1.41176e-16,0.00102287,-0.000306862,-0.000306862,0.0,0.0,0.0,0.0,0.001023393309929288,0.0,0.0,-0.00030681492267203847,0.0,-0.00030681492267203847
36,0.026585,220.799,-8.46302e-14,-8.44325e-14,-1.05605e-18,5.2802e-19,-1.41176e-16,0.00106283,-0.00031885,-0.00031885,0.0,0.0,0.0,0.0,0.0010633950039544704,0.0,0.0,-0.00031879917274102443,0.0,-0.00031879917274102443
37,0.027585,229.1,-8.59625e-14,-8.57647e-14,-1.05599e-18,5.27993e-19,-7.34961e-17,0.00110279,-0.000330837,-0.000330837,0.0,0.0,0.0,0.0,0.0011033982964792077,0.0,0.0,-0.000330782279474362,0.0,-0.000330782279474362
38,0.028585,237.4,-6.93091e-14,-6.93334e-14,-1.05594e-18,5.27965e-19,-7.34961e-17,0.00114274,-0.000342823,-0.000342823,0.0,0.0,0.0,0.0,0.0011433931761335447,0.0,0.0,-0.0003427642429099098,0.0,-0.0003427642429099098
39,0.029585,245.701,-8.46302e-14,-8.44325e-14,-1.05588e-18,5.27938e-19,-7.34961e-17,0.0011827,-0.000354809,-0.000354809,0.0,0.0,0.0,0.0,0.0011833996654493362,0.0,0.0,-0.00035474606273055986,0.0,-0.00035474606273055986
40,0.030585,254.001,-8.70727e-14,-8.62088e-14,-1.05583e-18,5.2791e-19,-2.08856e-16,0.00122265,-0.000366795,-0.000366795,0.0,0.0,0.0,0.0,0.0012233977412221542,0.0,0.0,-0.0003667277389378665,0.0,-0.0003667277389378665
41,0.031585,262.3,-6.88651e-14,-6.88893e-14,-1.05577e-18,5.27883e-19,-1.41176e-16,0.0012626,-0.00037878,-0.00037878,0.0,0.0,0.0,0.0,0.0012633974149500737,0.0,0.0,-0.0003787082719124424,0.0,-0.0003787082719124424
42,0.032585,270.599,-6.97532e-14,-6.93334e-14,-1.05572e-18,-3.33103e-17,-1.41176e-16,0.00130255,-0.000390765,-0.000390765,0.0,0.0,0.0,0.0,0.0013033986866968217,0.0,0.0,-0.0003906886613012084,0.0,-0.0003906886613012084
43,0.033585,278.898,-6.95312e-14,-6.93334e-14,-1.05566e-18,3.43678e-17,-2.08856e-16,0.0013425,-0.000402749,-0.000402749,0.0,0.0,0.0,0.0,0.0013434015565263469,0.0,0.0,-0.000402667907508536,0.0,-0.000402667907508536
44,0.034585,287.197,-8.61845e-14,-8.57647e-14,-1.05561e-18,-3.33104e-17,-1.41176e-16,0.00138244,-0.000414732,-0.000414732,0.0,0.0,0.0,0.0,0.0013833960106686138,0.0,0.0,-0.00041464601057206174,0.0,-0.00041464601057206174
45,0.035585,295.495,-8.30759e-14,-8.31002e-14,-1.05555e-18,-3.33087e-17,-1.41176e-16,0.00142238,-0.000426716,-0.000426716,0.0,0.0,0.0,0.0,0.001423392062221085,0.0,0.0,-0.00042662496967615926,0.0,-0.00042662496967615926
46,0.036585,303.793,-7.08635e-14,-7.11098e-14,-1.0555e-18,3.43694e-17,-7.34961e-17,0.00146233,-0.000438698,-0.000438698,0.0,0.0,0.0,0.0,0.00146339972588172,0.0,0.0,-0.00043860178610255485,0.0,-0.00043860178610255485
47,0.037585,312.09,-6.93091e-14,-6.93334e-14,-1.05544e-18,-3.33087e-17,-2.08856e-16,0.00150227,-0.00045068,-0.00045068,0.0,0.0,0.0,0.0,0.0015033989728463482,0.0,0.0,-0.00045057845902352067,0.0,-0.00045057845902352067
48,0.038585,320.387,-1.05724e-13,-1.06193e-13,-1.05539e-18,-3.3307e-17,-2.08856e-16,0.00154221,-0.000462662,-0.000462662,0.0,0.0,0.0,0.0,0.001543399817412805,0.0,0.0,-0.0004625549884409441,0.0,-0.0004625549884409441
49,0.039585,328.684,-8.50743e-14,-8.53206e-14,-1.05533e-18,-3.33053e-17,-2.08856e-16,0.00158214,-0.000474643,-0.000474643,0.0,0.0,0.0,0.0,0.0015833922438110992,0.0,0.0,-0.0004745303748309171,0.0,-0.0004745303748309171
50,0.040585,336.981,-6.59785e-14,-6.57807e-14,-1.05528e-18,-3.33035e-17,-2.08856e-16,0.00162208,-0.000486624,-0.000486624,0.0,0.0,0.0,0.0,0.0016233962833727134,0.0,0.0,-0.00048650561774465917,0.0,-0.00048650561774465917
51,0.041585,345.277,-6.57564e-14,-6.53366e-14,-1.05522e-18,5.36394e-19,-2.08856e-16,0.00166202,-0.000498605,-0.000498605,0.0,0.0,0.0,0.0,0.0016634019207275585,0.0,0.0,-0.0004984807171838357,0.0,-0.0004984807171838357
52,0.042585,353.573,-8.59625e-14,-8.57647e-14,-1.05517e-18,-6.714e-17,-7.34961e-17,0.00170195,-0.000510584,-0.000510584,0.0,0.0,0.0,0.0,0.0017033991389052705,0.0,0.0,-0.0005104536741711296,0.0,-0.0005104536741711296
53,0.043585,361.868,-4.3774e-14,-4.31322e-14,-1.05511e-18,-3.32983e-17,-2.08856e-16,0.00174188,-0.000522564,-0.000522564,0.0,0.0,0.0,0.0,0.0017433979542038625,0.0,0.0,-0.0005224274872128731,0.0,-0.0005224274872128731
54,0.044585,370.164,-4.26638e-14,-4.26881e-14,-1.05506e-18,-3.32966e-17,-1.41176e-16,0.00178181,-0.000534543,-0.000534543,0.0,0.0,0.0,0.0,0.0017833983666870612,0.0,0.0,-0.0005344001573435175,0.0,-0.0005344001573435175
55,0.045585,378.459,-4.31079e-14,-4.31322e-14,-1.055e-18,5.43311e-19,-1.75016e-16,0.00182174,-0.000546521,-0.000546521,0.0,0.0,0.0,0.0,0.0018234003764188156,0.0,0.0,-0.0005463716846008104,0.0,-0.0005463716846008104
56,0.046585,386.753,-8.75168e-14,-8.75411e-14,3.27832e-17,-3.32949e-17,-1.75016e-16,0.00186166,-0.000558499,-0.000558499,0.0,0.0,0.0,0.0,0.0018633939648284858,0.0,0.0,-0.0005583430684640289,0.0,-0.0005583430684640289
57,0.047585,395.047,-8.50743e-14,-8.53206e-14,-6.8733e-17,-3.32932e-17,-1.41176e-16,0.00190159,-0.000570476,-0.000570476,0.0,0.0,0.0,0.0,0.0019033991688481855,0.0,0.0,-0.0005703133095051882,0.0,-0.0005703133095051882
58,0.048585,403.341,-8.59625e-14,-8.62088e-14,-1.05308e-18,5.46741e-19,-1.41176e-16,0.00194151,-0.000582453,-0.000582453,0.0,0.0,0.0,0.0,0.00194339595087345,0.0,0.0,-0.0005822834071795846,0.0,-0.0005822834071795846
59,0.049585,411.635,-8.61845e-14,-8.57647e-14,-1.05303e-18,-3.32915e-17,-1.75016e-16,0.00198143,-0.00059443,-0.00059443,0.0,0.0,0.0,0.0,0.0019833943296021506,0.0,0.0,-0.0005942533614889944,0.0,-0.0005942533614889944
60,0.050585,419.928,-6.19817e-14,-6.17839e-14,-3.48912e-17,-1.00966e-16,-1.41176e-16,0.00202135,-0.000606406,-0.000606406,0.0,0.0,0.0,0.0,0.002023394305097792,0.0,0.0,-0.0006062221730414041,0.0,-0.0006062221730414041
61,0.051585,428.221,-1.12386e-13,-1.1241e-13,-3.48893e-17,-6.71227e-17,-2.42696e-16,0.00206127,-0.000618381,-0.000618381,0.0,0.0,0.0,0.0,0.0020633958774245453,0.0,0.0,-0.0006181898418743392,0.0,-0.0006181898418743392
62,0.052585,436.513,-6.04274e-14,-6.04516e-14,-3.48875e-17,-3.3281e-17,-1.41176e-16,0.00210119,-0.000630356,-0.000630356,0.0,0.0,0.0,0.0,0.002103399046645915,0.0,0.0,-0.0006301573673952454,0.0,-0.0006301573673952454
63,0.053585,444.806,-1.13052e-13,-1.1241e-13,-1.04754e-18,5.58897e-19,-1.75016e-16,0.0021411,-0.000642331,-0.000642331,0.0,0.0,0.0,0.0,0.0021433937913917234,0.0,0.0,-0.000642124749605899,0.0,-0.000642124749605899
64,0.054585,453.098,-6.02053e-14,-6.08957e-14,-3.48857e-17,5.58869e-19,-7.34961e-17,0.00218102,-0.000654305,-0.000654305,0.0,0.0,0.0,0.0,0.0021834001541936043,0.0,0.0,-0.0006540909891621371,0.0,-0.0006540909891621371
65,0.055585,461.389,-5.8873e-14,-5.77871e-14,-3.48839e-17,-3.32793e-17,-1.07336e-16,0.00222093,-0.000666279,-0.000666279,0.0,0.0,0.0,0.0,0.0022233980918473506,0.0,0.0,-0.0006660570854354342,0.0,-0.0006660570854354342
66,0.056585,469.68,-3.11175e-14,-3.15858e-14,-3.48821e-17,5.6057e-19,-1.75016e-16,0.00226084,-0.000678252,-0.000678252,0.0,0.0,0.0,0.0,0.002263397625850594,0.0,0.0,-0.000678022039105719,0.0,-0.000678022039105719
67,0.057585,475.104,-0.00477637,-0.00121358,-1.01955e-16,-6.66599e-17,-5.77574e-18,0.00230075,-0.00069227,-0.000693711,0.0,0.0,0.0,1.37381e-05,0.002303398756267061,0.0,0.0,-0.0006920304364076424,0.0,-0.0006934704381542645
68,0.058585,476.122,-0.0192344,-0.00521055,3.29117e-17,-6.55222e-17,-1.38642e-16,0.00234066,-0.000709439,-0.000714524,0.0,0.0,0.0,4.85815e-05,0.002343401483160479,0.0,0.0,-0.0007091874076525784,0.0,-0.0007142687885152155
69,0.059585,477.15,0.000337373,0.000274678,3.24262e-17,6.86478e-17,-2.69182e-16,0.00238056,-0.000726478,-0.000735363,0.0,0.0,0.0,8.34393e-05,0.002383395782760589,0.0,0.0,-0.0007262141787484078,0.0,-0.0007350926868926466
70,0.060585,478.156,-0.000262807,-0.000177473,3.1948e-17,9.51443e-19,-1.97957e-16,0.00242047,-0.000743603,-0.000756207,0.0,0.0,0.0,0.00011836,0.002423401702399186,0.0,0.0,-0.0007433265958051161,0.0,-0.0007559211475456351
71,0.061585,479.154,-2.70554e-05,-5.20088e-06,3.14772e-17,6.74633e-17,4.99801e-18,0.00246037,-0.000760731,-0.000777059,0.0,0.0,0.0,0.000153324,0.0024633991940716804,0.0,0.0,-0.000760441717532867,0.0,-0.0007767571678407581
72,0.062585,480.142,-4.03902e-05,-1.19186e-05,3.10137e-17,-2.12937e-19,-3.27549e-16,0.00250027,-0.000777866,-0.000797922,0.0,0.0,0.0,0.000188331,0.002503398281676006,0.0,0.0,-0.0007775635406723769,0.0,-0.0007976037448941264
73,0.063585,481.121,-3.60805e-05,-9.91907e-06,3.05574e-17,-2.09363e-19,1.43652e-16,0.00254017,-0.000795007,-0.000818796,0.0,0.0,0.0,0.00022338,0.0025433989652758893,0.0,0.0,-0.0007946910656638773,0.0,-0.0008184608780269498
74,0.064585,482.091,-3.55009e-05,-9.83703e-06,-3.6577e-17,-2.05853e-19,-2.57827e-16,0.00258007,-0.000812153,-0.000839679,0.0,0.0,0.0,0.00025847,0.0025834012449348354,0.0,0.0,-0.0008118232930158786,0.0,-0.0008393265682385964
75,0.065585,483.052,-3.46407e-05,-9.57433e-06,3.0646e-17,-2.02405e-19,-2.5331e-16,0.00261996,-0.000829305,-0.000860572,0.0,0.0,0.0,0.0002936,0.0026233950944825057,0.0,0.0,-0.0008289612216474396,0.0,-0.0008602018141146139
76,0.066585,484.005,-3.38567e-05,-9.35014e-06,3.01962e-17,-1.99018e-19,-2.48878e-16,0.00265986,-0.000846461,-0.000881475,0.0,0.0,0.0,0.00032877,0.0026634005660506332,0.0,0.0,-0.0008461028529473946,0.0,-0.0008810866150378294
77,0.067585,484.949,-3.30899e-05,-9.12962e-06,2.97533e-17,-1.95691e-19,-2.44526e-16,0.00269975,-0.000863624,-0.000902387,0.0,0.0,0.0,0.000363979,0.00270339760683469,0.0,0.0,-0.0008632511841253354,0.0,-0.0009019799712928211
78,0.068585,485.885,-3.23456e-05,-8.91585e-06,2.93173e-17,-1.92423e-19,-2.40254e-16,0.00273964,-0.000880791,-0.000923309,0.0,0.0,0.0,0.000399226,0.0027433962431329117,0.0,0.0,-0.000880403217467296,0.0,-0.0009228828814017431
79,0.069585,486.813,-3.16221e-05,-8.70811e-06,2.8888e-17,-1.3326e-16,-2.36059e-16,0.00277953,-0.000897963,-0.000944239,0.0,0.0,0.0,0.00043451,0.0027833964750083595,0.0,0.0,-0.0008975599518751265,0.0,-0.0009437933466341919
80,0.070585,487.733,-3.09187e-05,-8.50622e-06,-1.04915e-16,-6.44726e-17,-1.6544e-16,0.00281942,-0.000915141,-0.000965178,0.0,0.0,0.0,0.00046983,0.00282339830252476,0.0,0.0,-0.0009147223861817322,0.0,-0.0009647123655329715
81,0.071585,488.645,-3.02346e-05,-8.30998e-06,-3.6691e-17,-6.33842e-17,-2.95558e-16,0.00285931,-0.000932323,-0.000986126,0.0,0.0,0.0,0.000505187,0.002863401725746062,0.0,0.0,-0.000931888521946922,0.0,-0.0009856399375420821
82,0.072585,489.549,-2.95693e-05,-8.11917e-06,3.05363e-17,4.22348e-18,-2.23909e-16,0.00289919,-0.00094951,-0.00100708,0.0,0.0,0.0,0.000540579,0.0029033967157017226,0.0,0.0,-0.0009490593580209206,0.0,-0.0010065730651257487
83,0.073585,490.446,-2.8922e-05,-7.93361e-06,-1.03294e-16,4.15253e-18,-1.53508e-16,0.00293907,-0.000966701,-0.00102805,0.0,0.0,0.0,0.000576006,0.0029433933006892676,0.0,0.0,-0.0009662338951172966,0.0,-0.0010275217376409795
84,0.074585,491.336,-2.82921e-05,-7.75311e-06,9.82914e-17,7.06232e-17,-2.1734e-16,0.00297896,-0.000983897,-0.00104902,0.0,0.0,0.0,0.000611467,0.002983401510606498,0.0,0.0,-0.000983413132051747,0.0,-0.0010484699708671608
85,0.075585,492.218,-2.7679e-05,-7.5775e-06,3.01655e-17,2.89394e-18,-8.05522e-17,0.00301884,-0.0010011,-0.00107,0.0,0.0,0.0,0.000646961,0.0030234012862488946,0.0,0.0,-0.0010005990665704623,0.0,-0.0010694277541192232
86,0.076585,493.093,-2.70822e-05,-7.4066e-06,-3.69686e-17,2.84544e-18,-2.78669e-16,0.00305871,-0.0010183,-0.00109099,0.0,0.0,0.0,0.000682488,0.0030633926264802547,0.0,0.0,-0.0010177817084953134,0.0,-0.0010903950867777734
87,0.077585,493.96,-2.6501e-05,-7.24025e-06,-3.64312e-17,-6.37454e-17,-2.73836e-16,0.00309859,-0.00103551,-0.00111199,0.0,0.0,0.0,0.000718047,0.003103395592232161,0.0,0.0,-0.001034974044531678,0.0,-0.0011113719682228629
88,0.078585,494.821,-2.59351e-05,-7.0783e-06,-3.5902e-17,-6.26755e-17,-2.02582e-16,0.00313847,-0.00105273,-0.00113299,0.0,0.0,0.0,0.000753638,0.0031434001533339195,0.0,0.0,-0.0010521760741687425,0.0,-0.0011323484091582126
89,0.079585,495.676,-2.53838e-05,-6.9206e-06,3.13165e-17,7.14658e-17,-3.98601e-16,0.00317834,-0.00106994,-0.001154,0.0,0.0,0.0,0.00078926,0.003183396278015671,0.0,0.0,-0.0010693678182831512,0.0,-0.0011533343980595356
90,0.080585,496.523,-2.48466e-05,-6.76701e-06,-3.58361e-17,7.02688e-17,-3.91708e-16,0.00321821,-0.00108716,-0.00117502,0.0,0.0,0.0,0.000824913,0.0032233939973744796,0.0,0.0,-0.0010865692556644158,0.0,-0.0011743299343065505
91,0.081585,497.364,-2.43231e-05,-6.61738e-06,-3.53168e-17,6.90927e-17,-3.18427e-16,0.00325808,-0.00110439,-0.00119605,0.0,0.0,0.0,0.000860595,0.003263393311474072,0.0,0.0,-0.0011037803858018336,0.0,-0.0011953350172788646
92,0.082585,498.198,-2.38129e-05,-6.47159e-06,-3.48055e-17,-6.51587e-17,-3.7944e-16,0.00329795,-0.00112162,-0.00121708,0.0,0.0,0.0,0.000896307,0.003303394220378175,0.0,0.0,-0.0011209912193940186,0.0,-0.0012163396585188613
93,0.083585,499.026,-2.33156e-05,-6.32951e-06,3.23988e-17,2.47914e-18,-1.73354e-16,0.00333782,-0.00113885,-0.00123812,0.0,0.0,0.0,0.000932049,0.003343396724150516,0.0,0.0,-0.0011382017564461888,0.0,-0.00123735384566237
94,0.084585,499.848,-2.28306e-05,-6.19102e-06,-3.47711e-17,-6.4112e-17,-5.69449e-16,0.00337769,-0.00115609,-0.00125917,0.0,0.0,0.0,0.000967819,0.0033834008228541546,0.0,0.0,-0.0011554219854090775,0.0,-0.0012583775780884432
95,0.085585,500.663,-2.23576e-05,-6.05601e-06,3.24335e-17,1.3661e-16,-2.27068e-16,0.00341755,-0.00117333,-0.00128022,0.0,0.0,0.0,0.00100362,0.003423396482319152,0.0,0.0,-0.0011726419174977742,0.0,-0.0012794008679695157
96,0.086585,501.472,-2.18963e-05,-5.92435e-06,3.19654e-17,-1.31874e-16,-2.89674e-16,0.00345741,-0.00119057,-0.00130128,0.0,0.0,0.0,0.00103944,0.0034633937360430966,0.0,0.0,-0.0011898615527174972,0.0,-0.0013004337023106993
97,0.087585,502.276,-2.14462e-05,-5.79595e-06,-1.01904e-16,3.42805e-18,-1.86221e-17,0.00349727,-0.00120782,-0.00132234,0.0,0.0,0.0,0.00107529,0.003503392584089049,0.0,0.0,-0.0012070908790022816,0.0,-0.0013214660937050926
98,0.088585,503.073,-2.1007e-05,-5.6707e-06,-3.37305e-17,3.37117e-18,-2.1785e-16,0.00353713,-0.00122507,-0.00134342,0.0,0.0,0.0,0.00111117,0.003543393026520958,0.0,0.0,-0.001224319908083804,0.0,-0.0013425180153118221
99,0.089585,503.865,-2.05784e-05,-5.54851e-06,-3.32449e-17,3.31528e-18,-8.10677e-17,0.00357699,-0.00124233,-0.0013645,0.0,0.0,0.0,0.00114708,0.003583395063402328,0.0,0.0,-0.0012415586275517088,0.0,-0.001363569493148642
100,0.090585,504.651,-2.016e-05,-5.42927e-06,-3.27666e-17,6.98158e-17,-1.46192e-16,0.00361685,-0.00125959,-0.00138558,0.0,0.0,0.0,0.00118301,0.0036233986947966645,0.0,0.0,-0.0012587970494817302,0.0,-0.0013846205272251
101,0.091585,505.431,-1.97516e-05,-5.31289e-06,3.44116e-17,6.86568e-17,-1.06388e-17,0.0036567,-0.00127685,-0.00140667,0.0,0.0,0.0,0.00121897,0.0036633938841335034,0.0,0.0,-0.0012760351738791975,0.0,-0.0014056811034935945
102,0.092585,506.206,-1.93528e-05,-5.19929e-06,-3.27904e-17,9.60744e-19,-1.04491e-17,0.00369656,-0.00129411,-0.00142777,0.0,0.0,0.0,0.00125495,0.003703400704344384,0.0,0.0,-0.0012932730007492177,0.0,-0.0014267512213317346
103,0.093585,506.975,-1.89633e-05,-5.08838e-06,-3.23198e-17,9.44847e-19,-1.02634e-17,0.00373641,-0.00131138,-0.00144887,0.0,0.0,0.0,0.00129096,0.00374339908182475,0.0,0.0,-0.0013105205169917644,0.0,-0.0014478208945951643
104,0.094585,507.739,-1.85828e-05,-4.98007e-06,3.48533e-17,9.29224e-19,-1.43129e-16,0.00377626,-0.00132865,-0.00146998,0.0,0.0,0.0,0.00132699,0.003783399053272296,0.0,0.0,-0.0013277677353723538,0.0,-0.001468900108604232
105,0.095585,508.498,-1.82112e-05,-4.8743e-06,-9.90666e-17,9.13872e-19,-2.07204e-16,0.00381611,-0.00134592,-0.00149109,0.0,0.0,0.0,0.00136304,0.0038234006187505276,0.0,0.0,-0.001345014655895982,0.0,-0.0014899788776356893
106,0.096585,509.251,-1.7848e-05,-4.77099e-06,-9.76485e-17,8.98785e-19,-3.36717e-16,0.00385595,-0.0013632,-0.00151221,0.0,0.0,0.0,0.00139912,0.003863393739688803,0.0,0.0,-0.0013622712649451474,0.0,-0.001511067186588444
107,0.097585,509.999,-1.74932e-05,-4.67005e-06,-2.95397e-17,8.83959e-19,1.66066e-18,0.0038958,-0.00138048,-0.00153334,0.0,0.0,0.0,0.00143522,0.003903398493018795,0.0,0.0,-0.0013795275758027303,0.0,-0.0015321650348393279
108,0.098585,510.742,-1.71463e-05,-4.57143e-06,-9.583e-17,8.69389e-19,-2.64471e-16,0.00393564,-0.00139776,-0.00155447,0.0,0.0,0.0,0.00147135,0.003943394801135813,0.0,0.0,-0.0013967835884738378,0.0,-0.0015532624372972537
109,0.099585,511.48,-1.68073e-05,-4.47504e-06,-2.77478e-17,8.5507e-19,-3.26494e-16,0.00397548,-0.00141505,-0.0015756,0.0,0.0,0.0,0.00150749,0.003983392702737731,0.0,0.0,-0.0014140492888231604,0.0,-0.0015743593939718803
110,0.1006,523.042,-0.0255438,-0.00990619,-8.9818e-16,6.71511e-19,-1.09908e-15,0.00463655,-0.00170243,-0.00192707,0.0,0.0,0.0,0.00211048,0.004647315429671561,0.0,0.0,-0.0017009816880473316,0.0,-0.0019252143927606102
111,0.1016,540.035,0.0113371,0.0157695,1.33511e-16,-2.99315e-15,7.30346e-16,0.00573749,-0.00218234,-0.00251522,0.0,0.0,0.0,0.00312571,0.005753980919493307,0.0,0.0,-0.002179960427389105,0.0,-0.002512059484528373
112,0.1026,554.663,-0.147942,-0.0696337,-6.88074e-16,-2.07811e-15,4.23113e-15,0.00683723,-0.0026641,-0.00310547,0.0,0.0,0.0,0.00415062,0.006860657219029509,0.0,0.0,-0.0026605544348738963,0.0,-0.0031006530156630907
113,0.1036,567.847,0.00904374,0.0252243,2.88049e-16,6.38761e-17,2.92897e-15,0.00793575,-0.0031453,-0.00369689,0.0,0.0,0.0,0.00518198,0.007967321523344895,0.0,0.0,-0.0031403587259090093,0.0,-0.003690064915283564
114,0.1046,579.515,-0.084426,-0.0426283,-5.80905e-16,4.74612e-17,4.29643e-15,0.00903306,-0.00362778,-0.00428955,0.0,0.0,0.0,0.0062188,0.009073981208252091,0.0,0.0,-0.0036212075563312185,0.0,-0.004280363021094802
115,0.1056,590.292,0.0380568,0.0295497,-4.25888e-16,3.60821e-17,1.48873e-15,0.0101292,-0.00410966,-0.00488263,0.0,0.0,0.0,0.00725922,0.010180673996320388,0.0,0.0,-0.004101226903683641,0.0,-0.004870729338861568
116,0.1066,600.039,-0.0364807,-0.0212854,-3.12988e-16,1.56024e-15,1.04448e-15,0.0112241,-0.00459234,-0.00547631,0.0,0.0,0.0,0.00830291,0.011287326542660292,0.0,0.0,-0.004581811329905872,0.0,-0.005461342349354581
117,0.1076,609.178,0.0507267,0.0312967,5.70121e-16,-4.28096e-16,2.26003e-15,0.0123178,-0.00507441,-0.00607007,0.0,0.0,0.0,0.0093487,0.012393976552945274,0.0,0.0,-0.005061556931346245,0.0,-0.006051684344645869
118,0.1086,617.579,-0.00581428,-0.0064684,-3.79537e-16,1.24019e-15,-4.52382e-15,0.0134103,-0.0055569,-0.00666409,0.0,0.0,0.0,0.0103965,0.013500621366988819,0.0,0.0,-0.005541488990222332,0.0,-0.006641934195646959
119,0.1096,625.532,0.0551304,0.0304217,-1.89224e-15,-6.60154e-16,1.39868e-15,0.0145017,-0.00603881,-0.00725798,0.0,0.0,0.0,0.0114456,0.014607359782444096,0.0,0.0,-0.006020613034656397,0.0,-0.007231704470678557
120,0.1106,632.934,0.0144252,0.00350083,-6.01977e-16,1.08136e-15,-4.39503e-15,0.0155918,-0.00652089,-0.0078519,0.0,0.0,0.0,0.0124958,0.015713986322553275,0.0,0.0,-0.006499675135118066,0.0,-0.0078211543563943
121,0.1116,639.99,0.0609464,0.030738,1.17118e-15,7.78927e-16,-8.17549e-16,0.0166808,-0.00700238,-0.00844552,0.0,0.0,0.0,0.0135468,0.016820701350618306,0.0,0.0,-0.006977920462126641,0.0,-0.0084099567830066
122,0.1126,646.614,0.0256921,0.00863126,6.76075e-17,-9.9903e-16,2.51355e-15,0.0177685,-0.00748391,-0.009039,0.0,0.0,0.0,0.0145984,0.01792729894147671,0.0,0.0,-0.007455975275981963,0.0,-0.008998271048212048
123,0.1136,652.962,0.058377,0.0287756,5.21927e-17,8.44891e-16,-5.26628e-16,0.0188551,-0.00796489,-0.00963216,0.0,0.0,0.0,0.0156504,0.019033979895380693,0.0,0.0,-0.007933254310957372,0.0,-0.00958591933179942
124,0.1146,658.971,0.0355066,0.0138402,-7.74685e-16,-9.56213e-16,-5.82738e-15,0.0199405,-0.00844576,-0.0102251,0.0,0.0,0.0,0.0167027,0.02014063985287229,0.0,0.0,-0.008410194764588486,0.0,-0.010173001387373315
125,0.1156,664.746,0.0572216,0.0269824,2.34237e-16,2.45338e-15,2.04375e-15,0.0210247,-0.00892613,-0.0108177,0.0,0.0,0.0,0.017755,0.021247276133725235,0.0,0.0,-0.00888641037032667,0.0,-0.010759399099948275
126,0.1166,670.25,0.0424133,0.017306,9.97437e-16,2.09753e-16,1.47574e-15,0.0221078,-0.00940628,-0.0114099,0.0,0.0,0.0,0.0188074,0.022353988290283233,0.0,0.0,-0.009362179331013687,0.0,-0.01134505395428309
127,0.1176,675.554,0.0564322,0.025763,-6.35018e-17,-1.42689e-15,1.06854e-15,0.0231897,-0.00988595,-0.0120018,0.0,0.0,0.0,0.0198596,0.02346067162261467,0.0,0.0,-0.009837244628059683,0.0,-0.011930065665551881
128,0.1186,680.635,0.0470617,0.0196186,-4.69437e-17,5.41107e-16,-3.15244e-15,0.0242704,-0.0103653,-0.0125932,0.0,0.0,0.0,0.0209117,0.024567323442041822,0.0,0.0,-0.0103117654049939,0.0,-0.012514237468088996
129,0.1196,685.543,0.055935,0.0249331,-3.44201e-17,-1.18952e-15,-2.29138e-15,0.0253499,-0.0108443,-0.0131843,0.0,0.0,0.0,0.0219635,0.025673941057091643,0.0,0.0,-0.010785712549961746,0.0,-0.013097767822934814
130,0.1206,690.265,0.0501368,0.0211057,7.99782e-16,-8.71886e-16,-8.79935e-16,0.0264283,-0.0113229,-0.0137749,0.0,0.0,0.0,0.023015,0.026780624451562707,0.0,0.0,-0.011259037232304037,0.0,-0.0136804601952637
131,0.1216,694.835,0.0556471,0.0243752,-2.14968e-16,2.54556e-15,9.38697e-16,0.0275055,-0.011801,-0.0143651,0.0,0.0,0.0,0.0240661,0.027887268471682436,0.0,0.0,-0.011731641301598206,0.0,-0.014262414236125953
132,0.1226,699.249,0.0521291,0.0220302,-1.63175e-16,1.87562e-15,6.86645e-16,0.0285816,-0.0122788,-0.0149548,0.0,0.0,0.0,0.0251167,0.028993973317030797,0.0,0.0,-0.01220372313405338,0.0,-0.014843532330940601
133,0.1236,703.528,0.0554843,0.0239965,-1.23732e-16,1.38367e-15,2.08877e-15,0.0296565,-0.0127561,-0.0155441,0.0,0.0,0.0,0.0261669,0.03010063360696824,0.0,0.0,-0.012675085797353325,0.0,-0.015423914011079898
134,0.1246,707.672,0.0533819,0.022576,7.36249e-16,-5.79029e-16,-8.50501e-16,0.0307303,-0.013233,-0.0161328,0.0,0.0,0.0,0.0272166,0.031207349756894986,0.0,0.0,-0.013145828791347736,0.0,-0.016003363375246327
135,0.1256,711.698,0.0553795,0.0237273,-1.0962e-15,1.17397e-15,-3.01189e-15,0.0318029,-0.0137095,-0.0167211,0.0,0.0,0.0,0.0282657,0.032314016159336933,0.0,0.0,-0.013615952787991215,0.0,-0.016582078350871665
136,0.1266,715.605,0.0541318,0.0228699,1.65557e-15,8.69247e-16,-6.2247e-16,0.0328743,-0.0141855,-0.0173089,0.0,0.0,0.0,0.0293142,0.03342063010348317,0.0,0.0,-0.01408535986671633,0.0,-0.01715996154870658
137,0.1276,719.407,0.055286,0.0235201,4.41468e-16,-9.64386e-16,1.13763e-15,0.0339446,-0.0146611,-0.0178962,0.0,0.0,0.0,0.030362,0.03452729232852869,0.0,0.0,-0.014554149382580372,0.0,-0.017737014035239862
138,0.1286,723.105,0.0545396,0.0229975,-4.93709e-16,-2.32905e-15,-2.35734e-15,0.0350138,-0.0151363,-0.018483,0.0,0.0,0.0,0.0314093,0.03563400045021692,0.0,0.0,-0.015022322004168864,0.0,-0.018313236875088346
139,0.1296,726.708,0.0551758,0.023344,4.55345e-16,-1.73478e-15,-1.74234e-15,0.0360818,-0.015611,-0.0190693,0.0,0.0,0.0,0.0324558,0.036740648407517895,0.0,0.0,-0.015489779947992388,0.0,-0.01888863113099981
140,0.1306,730.22,0.0547141,0.0230158,-4.84221e-16,3.21951e-16,-4.49672e-15,0.0371487,-0.0160853,-0.019655,0.0,0.0,0.0,0.0335017,0.03784733726349754,0.0,0.0,-0.01595662242491791,0.0,-0.019463099810171358
141,0.1316,733.645,0.0550343,0.0231805,4.63815e-16,2.40833e-16,-2.5308e-15,0.0382144,-0.0165592,-0.0202402,0.0,0.0,0.0,0.0345468,0.03895396073039947,0.0,0.0,-0.016422850100177633,0.0,-0.020036742140045916
142,0.1326,736.988,0.0547281,0.0229623,3.59779e-16,-1.43915e-15,1.33735e-15,0.039279,-0.0170326,-0.0208249,0.0,0.0,0.0,0.0355912,0.04006062008724709,0.0,0.0,-0.016888365326792276,0.0,-0.020609559177536485
143,0.1336,740.254,0.0548561,0.0230192,2.79409e-16,5.44949e-16,-6.15834e-16,0.0403425,-0.0175055,-0.0214091,0.0,0.0,0.0,0.0366348,0.0411673129363237,0.0,0.0,-0.017353168907360383,0.0,-0.021181551977700108
144,0.1346,743.445,0.0546305,0.0228616,-6.23261e-16,2.0329e-15,2.76568e-15,0.0414049,-0.017978,-0.0219927,0.0,0.0,0.0,0.0376777,0.04227403687724851,0.0,0.0,-0.01781735986130273,0.0,-0.021752623769008772
145,0.1356,746.565,0.0546414,0.0228551,1.19916e-15,1.52579e-15,4.48183e-15,0.0424661,-0.0184501,-0.0225758,0.0,0.0,0.0,0.0387198,0.04338068516891247,0.0,0.0,-0.018280938849281947,0.0,-0.022322873541610555
146,0.1366,749.618,0.0544542,0.0227297,9.06325e-17,-4.81748e-16,1.117e-16,0.0435262,-0.0189216,-0.0231584,0.0,0.0,0.0,0.0397611,0.044487359522359826,0.0,0.0,-0.018743710279676473,0.0,-0.022892302344768467
147,0.1376,752.607,0.0543931,0.022686,7.07241e-17,2.89602e-15,-6.38872e-15,0.0445851,-0.0193928,-0.0237404,0.0,0.0,0.0,0.0408015,0.045593952969859686,0.0,0.0,-0.01920596932660823,0.0,-0.02346081357198926
148,0.1386,755.534,0.0542216,0.0225771,5.52545e-17,5.4832e-16,1.70137e-15,0.045643,-0.0198634,-0.0243219,0.0,0.0,0.0,0.0418412,0.04670067210857942,0.0,0.0,-0.019667422409016644,0.0,-0.024028506036316455
149,0.1396,758.403,0.0541155,0.0225115,4.32211e-17,-1.22176e-15,-3.47677e-16,0.0466997,-0.0203337,-0.0249028,0.0,0.0,0.0,0.04288,0.047807305295467284,0.0,0.0,-0.020128364421247436,0.0,-0.02459528324078286
150,0.1406,761.214,0.0539481,0.0224106,-8.11922e-16,-9.23893e-16,2.1755e-15,0.0477553,-0.0208034,-0.0254832,0.0,0.0,0.0,0.043918,0.04891395467371806,0.0,0.0,-0.0205885020566956,0.0,-0.025161243880724604
151,0.1416,763.972,0.0538135,0.0223323,2.12198e-16,9.3743e-16,-4.05583e-15,0.0488098,-0.0212727,-0.026063,0.0,0.0,0.0,0.0449552,0.05002061782451972,0.0,0.0,-0.021048032035536846,0.0,-0.025726291568368587
152,0.1426,766.678,0.0536445,0.0222349,1.66347e-16,-9.30848e-16,3.46195e-15,0.0498632,-0.0217416,-0.0266423,0.0,0.0,0.0,0.0459914,0.05112729232646096,0.0,0.0,-0.02150695501041533,0.0,-0.02629052488170469
153,0.1436,769.333,0.0534913,0.0221491,1.30533e-16,9.34127e-16,-2.28234e-15,0.0509155,-0.0222099,-0.027221,0.0,0.0,0.0,0.0470268,0.052233975755539896,0.0,0.0,-0.02196507602597586,0.0,-0.02685384754182285
154,0.1446,771.941,0.0533188,0.0220531,1.02533e-16,2.34862e-15,-1.71781e-15,0.0519667,-0.0226779,-0.0277992,0.0,0.0,0.0,0.0480614,0.053340665685171595,0.0,0.0,-0.022422689280541808,0.0,-0.027416358009726527
155,0.1456,774.502,0.0531532,0.021963,8.06189e-17,1.77991e-15,2.78643e-15,0.0530168,-0.0231453,-0.0283768,0.0,0.0,0.0,0.0490951,0.05444735968619585,0.0,0.0,-0.02287950215008805,0.0,-0.027977960115038614
156,0.1466,777.018,0.0529765,0.0218675,6.34531e-17,1.34895e-15,-1.98206e-15,0.0540657,-0.0236123,-0.0289539,0.0,0.0,0.0,0.0501278,0.05555394977148587,0.0,0.0,-0.023335710889552108,0.0,-0.02853875220213542
157,0.1476,779.492,0.0528025,0.0217749,-8.01196e-16,-6.24777e-16,1.77492e-15,0.0551136,-0.0240789,-0.0295304,0.0,0.0,0.0,0.0511597,0.05666064450688668,0.0,0.0,-0.023791316145878705,0.0,-0.029098638208842842
158,0.1486,781.924,0.052622,0.0216795,2.2198e-16,-2.12734e-15,1.34269e-15,0.0561604,-0.0245449,-0.0301064,0.0,0.0,0.0,0.0521907,0.05776733601083128,0.0,0.0,-0.024246123414230825,0.0,-0.029657716363268638
159,0.1496,784.316,0.0524422,0.0215857,1.75086e-16,1.67654e-15,-6.21625e-16,0.0572061,-0.0250106,-0.0306818,0.0,0.0,0.0,0.0532208,0.05887402184393986,0.0,0.0,-0.024700426201942127,0.0,-0.03021589071111308
160,0.1506,786.67,0.0522585,0.0214904,-7.15101e-16,1.2751e-15,-1.28988e-15,0.0582507,-0.0254757,-0.0312566,0.0,0.0,0.0,0.05425,0.059980699564298634,0.0,0.0,-0.025153932562636316,0.0,-0.030773162441893653
161,0.1516,788.986,0.0520748,0.021396,1.14453e-15,9.69378e-16,-9.7676e-16,0.0592942,-0.0259404,-0.0318309,0.0,0.0,0.0,0.0552783,0.061087366727466286,0.0,0.0,-0.025606838289378597,0.0,-0.03132962960986141
162,0.1526,791.266,0.0518887,0.0213011,9.03465e-16,7.36331e-16,-7.40067e-16,0.0603366,-0.0264047,-0.0324046,0.0,0.0,0.0,0.0563057,0.06219402088648329,0.0,0.0,-0.026059144023459102,0.0,-0.03188519642177634
163,0.1536,793.511,0.0517022,0.0212066,7.13465e-16,5.58516e-16,-5.60978e-16,0.0613779,-0.0268684,-0.0329778,0.0,0.0,0.0,0.0573322,0.0633006595918797,0.0,0.0,-0.026510655707301378,0.0,-0.03243996081652245
164,0.1546,795.722,0.0515144,0.021112,-2.92418e-16,4.22717e-16,-2.07175e-15,0.0624181,-0.0273318,-0.0335504,0.0,0.0,0.0,0.0583577,0.06440728039168353,0.0,0.0,-0.026961666162253373,0.0,-0.03299382710790666
165,0.1556,797.9,0.0513263,0.0210178,6.25023e-16,1.97757e-15,1.72006e-15,0.0634573,-0.0277946,-0.0341225,0.0,0.0,0.0,0.0593824,0.06551398738282121,0.0,0.0,-0.027411884114683427,0.0,-0.03354689311980075
166,0.1566,800.046,0.0511374,0.0209238,4.94318e-16,-1.4983e-16,2.13449e-15,0.0644954,-0.028257,-0.034694,0.0,0.0,0.0,0.0604061,0.0666206717782738,0.0,0.0,-0.027861504899132195,0.0,-0.03409906327273282
167,0.1576,802.162,0.0509483,0.0208301,3.90973e-16,-1.20476e-16,-2.499e-15,0.0655324,-0.028719,-0.0352649,0.0,0.0,0.0,0.0614289,0.06772733111860352,0.0,0.0,-0.02831052915127974,0.0,-0.03465033874095502
168,0.1586,804.248,0.0507588,0.0207367,3.09198e-16,-9.7996e-17,5.71824e-16,0.0665683,-0.0291805,-0.0358353,0.0,0.0,0.0,0.0624507,0.0688339629419028,0.0,0.0,-0.028758860381687845,0.0,-0.035200817176362253
169,0.1596,806.304,0.0505693,0.0206437,2.44442e-16,-8.0768e-17,-3.90481e-16,0.0676032,-0.0296415,-0.0364051,0.0,0.0,0.0,0.0634717,0.069940671777863,0.0,0.0,-0.029206499358340077,0.0,-0.035750403158819166
170,0.1606,808.333,0.0503798,0.0205511,1.93124e-16,-6.7557e-17,-2.98326e-16,0.068637,-0.030102,-0.0369744,0.0,0.0,0.0,0.0644917,0.07104734838692361,0.0,0.0,-0.02965344684782778,0.0,-0.036299194226101505
171,0.1616,810.334,0.0501903,0.020459,1.52425e-16,-5.7421e-17,3.91126e-15,0.0696697,-0.0305622,-0.0375431,0.0,0.0,0.0,0.0655107,0.07215399029980452,0.0,0.0,-0.03009989759539211,0.0,-0.0368470950639751
172,0.1626,812.308,0.0500011,0.0203673,1.20123e-16,-4.96407e-17,-3.2185e-16,0.0707014,-0.0310218,-0.0381113,0.0,0.0,0.0,0.0665289,0.07326070237085291,0.0,0.0,-0.030545561261101972,0.0,-0.03739420309644814
173,0.1636,814.256,0.0498121,0.020276,9.44687e-17,1.62559e-15,-2.46387e-16,0.0717319,-0.031481,-0.0386788,0.0,0.0,0.0,0.0675461,0.07436726758444778,0.0,0.0,-0.030990632543183683,0.0,-0.037940326908902255
174,0.1646,816.18,0.0496234,0.0201852,-7.88034e-16,2.91836e-15,-1.84793e-15,0.0727615,-0.0319398,-0.0392459,0.0,0.0,0.0,0.0685623,0.07547400577420382,0.0,0.0,-0.031435112069572724,0.0,-0.0384857562783969
175,0.1656,818.078,0.0494351,0.020095,2.33996e-16,5.73847e-16,-5.86754e-16,0.07379,-0.032398,-0.0398124,0.0,0.0,0.0,0.0695777,0.07658069980899374,0.0,0.0,-0.03187880684298716,0.0,-0.03903029984093809
176,0.1666,819.953,0.0492473,0.0200052,-6.77671e-16,-1.23699e-15,-4.50351e-16,0.0748174,-0.0328559,-0.0403783,0.0,0.0,0.0,0.0705921,0.07768734720740267,0.0,0.0,-0.03232200805867147,0.0,-0.03957395875146075
177,0.1676,821.804,0.0490599,0.019916,-5.4133e-16,7.1109e-16,-3.67246e-15,0.0758437,-0.0333132,-0.0409437,0.0,0.0,0.0,0.0716055,0.07879394548561702,0.0,0.0,-0.03276442603780538,0.0,-0.04011683015097611
178,0.1686,823.633,0.0488732,0.0198272,4.31659e-16,2.21831e-15,-1.98999e-15,0.076869,-0.0337702,-0.0415085,0.0,0.0,0.0,0.072618,0.07990060014748934,0.0,0.0,-0.03320635170739927,0.0,-0.040658819093221665
179,0.1696,825.439,0.048687,0.0197391,3.44032e-16,-1.6438e-15,1.36164e-16,0.0778933,-0.0342266,-0.0420728,0.0,0.0,0.0,0.0736296,0.0810073090364154,0.0,0.0,-0.033647495651774384,0.0,-0.04120002260667455
180,0.1706,827.224,0.0485015,0.0196514,1.13953e-15,2.07468e-15,-6.56243e-15,0.0789165,-0.0346827,-0.0426365,0.0,0.0,0.0,0.0746402,0.08211396178201635,0.0,0.0,-0.03408814853047959,0.0,-0.04174034584951758
181,0.1716,828.988,0.0483166,0.0195643,9.10084e-16,-1.75757e-15,-2.55093e-15,0.0799387,-0.0351382,-0.0431997,0.0,0.0,0.0,0.0756499,0.0832206642129969,0.0,0.0,-0.03452802119022025,0.0,-0.04227988573804087
182,0.1726,830.732,0.0481324,0.0194778,7.26768e-16,-1.37085e-15,-2.79947e-15,0.0809598,-0.0355933,-0.0437623,0.0,0.0,0.0,0.0766587,0.08432730573289993,0.0,0.0,-0.034967307520590185,0.0,-0.042818547534553275
183,0.1736,832.455,0.047949,0.0193918,-2.86776e-16,-2.75224e-15,-2.15784e-15,0.0819799,-0.036048,-0.0443243,0.0,0.0,0.0,0.0776665,0.08543399238703753,0.0,0.0,-0.03540600813971628,0.0,-0.043356332379142826
184,0.1746,834.159,0.0477663,0.0193064,6.36189e-16,1.22065e-15,-1.66334e-15,0.0829989,-0.0365022,-0.0448858,0.0,0.0,0.0,0.0786733,0.08654061335290608,0.0,0.0,-0.03584402724914937,0.0,-0.04389333702034992
185,0.1756,835.843,0.0475844,0.0192215,-3.59823e-16,9.42268e-16,-2.11936e-15,0.0840169,-0.036956,-0.0454468,0.0,0.0,0.0,0.0796793,0.08764727489245128,0.0,0.0,-0.03628146196813897,0.0,-0.04442956243298979
186,0.1766,837.509,0.0474033,0.0191372,-2.90256e-16,2.41047e-15,-1.63628e-15,0.0850339,-0.0374093,-0.0460072,0.0,0.0,0.0,0.0806843,0.08875397483254921,0.0,0.0,-0.036718216583516594,0.0,-0.04496491408665848
187,0.1776,839.157,0.047223,0.0190535,-1.10352e-15,1.8683e-15,4.11457e-16,0.0860498,-0.0378621,-0.0465671,0.0,0.0,0.0,0.0816883,0.08986060201168233,0.0,0.0,-0.03715429184015884,0.0,-0.04549948856317143
188,0.1786,840.787,0.0470436,0.0189703,-8.87343e-16,1.4466e-15,-1.35554e-15,0.0870648,-0.0383146,-0.0471264,0.0,0.0,0.0,0.0826914,0.09096737211353245,0.0,0.0,-0.037589880963629474,0.0,-0.04603319143529727
189,0.1796,842.399,0.0468649,0.0188876,1.56089e-16,2.74574e-16,-2.08933e-16,0.0880786,-0.0387665,-0.0476851,0.0,0.0,0.0,0.0836936,0.09207395566780674,0.0,0.0,-0.03802469584260049,0.0,-0.04656602383065267
190,0.1806,843.994,0.0466872,0.0188056,1.24421e-16,2.0513e-16,-1.59683e-16,0.0890915,-0.0392181,-0.0482433,0.0,0.0,0.0,0.0846948,0.09318067778229588,0.0,0.0,-0.038459025810869574,0.0,-0.047098082164854116
191,0.1816,845.573,0.0465102,0.018724,9.89829e-17,-6.93876e-16,-2.64013e-15,0.0901033,-0.0396691,-0.048801,0.0,0.0,0.0,0.0856951,0.09428731774682486,0.0,0.0,-0.0388925830157304,0.0,-0.04762936740177204
192,0.1826,847.135,0.0463342,0.0186431,7.85367e-17,-5.50517e-16,3.83545e-15,0.0911141,-0.0401198,-0.0493581,0.0,0.0,0.0,0.0866944,0.095393982581786,0.0,0.0,-0.03932565652811837,0.0,-0.04815978531956311
193,0.1836,848.682,0.046159,0.0185626,-8.09799e-16,1.25312e-15,-4.58545e-15,0.0921239,-0.04057,-0.0499147,0.0,0.0,0.0,0.0876928,0.09650067009788366,0.0,0.0,-0.03975805477740024,0.0,-0.04868943216866228
194,0.1846,850.212,0.0459848,0.0184828,-6.53279e-16,1.8168e-15,-1.03573e-15,0.0931326,-0.0410197,-0.0504708,0.0,0.0,0.0,0.0886902,0.0976072683428082,0.0,0.0,-0.0401897784998122,0.0,-0.04921830890762646
195,0.1856,851.727,0.0458114,0.0184034,-5.2728e-16,-2.82623e-16,-4.16854e-15,0.0941404,-0.041469,-0.0510262,0.0,0.0,0.0,0.0896868,0.09871399453350005,0.0,0.0,-0.040620924368160005,0.0,-0.04974622644258919
196,0.1866,853.228,0.0456389,0.0183247,-4.25797e-16,-2.30791e-16,4.34078e-15,0.0951471,-0.0419179,-0.0515812,0.0,0.0,0.0,0.0906823,0.09982062684170989,0.0,0.0,-0.04105149298685429,0.0,-0.05027347096302548
197,0.1876,854.713,0.0454673,0.0182464,-3.44015e-16,-1.90268e-16,-1.6756e-15,0.0961528,-0.0423663,-0.0521356,0.0,0.0,0.0,0.091677,0.10092727282978498,0.0,0.0,-0.04148138910748578,0.0,-0.050799853424022934
198,0.1886,856.184,0.0452966,0.0181687,-2.78075e-16,6.89816e-16,-1.30141e-15,0.0971576,-0.0428142,-0.0526895,0.0,0.0,0.0,0.0926707,0.10203404050048381,0.0,0.0,-0.041910613461334734,0.0,-0.051325469802317
199,0.1896,857.641,0.0451268,0.0180915,-2.2488e-16,-3.1787e-16,4.05157e-15,0.0981613,-0.0432618,-0.0532428,0.0,0.0,0.0,0.0936635,0.1031407073547892,0.0,0.0,-0.04233935831049407,0.0,-0.05185022623262148
200,0.1906,859.085,0.0449579,0.0180149,-1.81944e-16,5.90378e-16,-2.7469e-15,0.0991639,-0.0437089,-0.0537956,0.0,0.0,0.0,0.0946553,0.10424727085557217,0.0,0.0,-0.042767432680237194,0.0,-0.052374218582730725
201,0.1916,860.514,0.0447899,0.0179387,7.28219e-16,4.53458e-16,3.77338e-15,0.100166,-0.0441555,-0.0543478,0.0,0.0,0.0,0.0956462,0.10535439167593563,0.0,0.0,-0.043194837298247135,0.0,-0.05289735308849919
202,0.1926,861.93,0.0446228,0.0178631,-2.87253e-16,1.19634e-15,4.13203e-16,0.101166,-0.0446017,-0.0548995,0.0,0.0,0.0,0.0966362,0.10646029892907927,0.0,0.0,-0.04362166852871541,0.0,-0.05341972550911833
203,0.1936,863.333,0.0444566,0.017788,-2.32764e-16,7.87047e-17,-5.19426e-16,0.102166,-0.0450475,-0.0554507,0.0,0.0,0.0,0.0976252,0.10756731264261399,0.0,0.0,-0.04404792696881954,0.0,-0.05394133678714308
204,0.1946,864.724,0.0442914,0.0177134,6.88083e-16,5.13965e-17,2.98185e-15,0.103165,-0.0454929,-0.0560013,0.0,0.0,0.0,0.0986133,0.10867432524867393,0.0,0.0,-0.04447361321478338,0.0,-0.054462093309681436
205,0.1956,866.101,0.044127,0.0176393,-3.2023e-16,2.99233e-17,-1.89867e-15,0.104162,-0.0459378,-0.0565514,0.0,0.0,0.0,0.0996004,0.1097802247502424,0.0,0.0,-0.044898632351746515,0.0,-0.054982090673763695
206,0.1966,867.467,0.0439635,0.0175658,-2.59863e-16,8.6517e-16,-2.32855e-15,0.105159,-0.0463822,-0.057101,0.0,0.0,0.0,0.100587,0.11088722738343337,0.0,0.0,-0.045322985101364566,0.0,-0.05550132981674283
207,0.1976,868.82,0.0438009,0.0174927,-2.10968e-16,-1.03483e-15,-6.05612e-15,0.106155,-0.0468263,-0.05765,0.0,0.0,0.0,0.101572,0.1119942222538397,0.0,0.0,-0.04574686303461939,0.0,-0.05601971727629562
208,0.1986,870.161,0.0436392,0.0174201,-1.71345e-16,8.8041e-16,-3.04268e-15,0.10715,-0.0472699,-0.0581985,0.0,0.0,0.0,0.102556,0.11310120713863392,0.0,0.0,-0.046170075850634595,0.0,-0.05653734848803216
209,0.1996,871.491,0.0434783,0.017348,-1.39221e-16,6.83122e-16,1.86214e-15,0.108143,-0.0477131,-0.0587465,0.0,0.0,0.0,0.10354,0.1142070656051819,0.0,0.0,-0.04659271960824274,0.0,-0.057054224384130214
210,0.2006,872.809,0.0433184,0.0172764,1.64535e-15,5.27671e-16,-1.93189e-15,0.109136,-0.0481558,-0.0592939,0.0,0.0,0.0,0.104522,0.11531402273458324,0.0,0.0,-0.04701469959910942,0.0,-0.05757025165215357
211,0.2016,874.116,0.0431593,0.0172052,4.56345e-16,-4.49258e-16,1.88599e-15,0.110128,-0.0485981,-0.0598408,0.0,0.0,0.0,0.105504,0.11642096319683026,0.0,0.0,-0.047436111795299496,0.0,-0.05808552556702984
212,0.2026,875.411,0.0430011,0.0171346,-5.09874e-16,-3.65713e-16,6.34039e-16,0.111118,-0.04904,-0.0603872,0.0,0.0,0.0,0.106485,0.11752676723307642,0.0,0.0,-0.04785695678494839,0.0,-0.05860004705578825
213,0.2036,876.696,0.0428438,0.0170644,4.65337e-16,-2.99802e-16,-1.19865e-15,0.112108,-0.0494814,-0.060933,0.0,0.0,0.0,0.107464,0.1186336665573966,0.0,0.0,-0.04827713998296945,0.0,-0.05911372295520034
214,0.2046,877.97,0.0426874,0.0169947,-5.03005e-16,6.0789e-16,-1.78838e-15,0.113097,-0.0499224,-0.0614784,0.0,0.0,0.0,0.108443,0.1197405425135607,0.0,0.0,-0.04869675723183298,0.0,-0.05962674241757626
215,0.2056,879.234,0.0425318,0.0169254,4.7135e-16,-3.86604e-16,3.00667e-16,0.114085,-0.050363,-0.0620231,0.0,0.0,0.0,0.109421,0.12084739286360002,0.0,0.0,-0.049115809116687226,0.0,-0.06013882425283246
216,0.2066,880.487,0.0423771,0.0168566,-4.98544e-16,5.39752e-16,-4.86847e-15,0.115072,-0.0508032,-0.0625674,0.0,0.0,0.0,0.110398,0.12195421536740936,0.0,0.0,-0.049534296221744545,0.0,-0.06065025149324177
217,0.2076,881.73,0.0422232,0.0167883,4.75401e-16,1.27291e-15,4.69367e-15,0.116058,-0.0512429,-0.0631111,0.0,0.0,0.0,0.111374,0.12306100778275408,0.0,0.0,-0.04995212412549943,0.0,-0.06116083713622
218,0.2086,882.963,0.0420702,0.0167204,3.86717e-16,-7.18479e-16,1.99405e-15,0.117043,-0.0516822,-0.0636543,0.0,0.0,0.0,0.112349,0.12416776786527683,0.0,0.0,-0.05036938849854111,0.0,-0.06167067608469279
219,0.2096,884.186,0.041918,0.016653,3.14484e-16,2.77285e-16,2.42679e-15,0.118027,-0.0521211,-0.064197,0.0,0.0,0.0,0.113323,0.12527449336850438,0.0,0.0,-0.05078608992211253,0.0,-0.062179769253855266
220,0.2106,885.399,0.0417667,0.016586,-6.27515e-16,2.08286e-16,1.06312e-15,0.11901,-0.0525595,-0.0647392,0.0,0.0,0.0,0.114297,0.1263811820438545,0.0,0.0,-0.05120213409674412,0.0,-0.06268811755728698
221,0.2116,886.603,0.0416161,0.0165194,-5.12674e-16,1.53605e-16,8.42284e-16,0.119992,-0.0529976,-0.0652808,0.0,0.0,0.0,0.115269,0.12748783164064292,0.0,0.0,-0.05161771140294047,0.0,-0.06319562822652303
222,0.2126,887.797,0.0414665,0.0164533,-4.19017e-16,-7.48748e-16,-4.45629e-15,0.120973,-0.0534352,-0.065822,0.0,0.0,0.0,0.116241,0.1285944399060901,0.0,0.0,-0.05203263270102931,0.0,-0.06370248958347213
223,0.2136,888.983,0.0413176,0.0163876,-3.42605e-16,2.53797e-16,2.46923e-15,0.121953,-0.0538723,-0.0663626,0.0,0.0,0.0,0.117211,0.12970100458532885,0.0,0.0,-0.052446898692847466,0.0,-0.06420851522654825
224,0.2146,890.159,0.0411696,0.0163223,6.04384e-16,1.04984e-15,2.43706e-16,0.122932,-0.0543091,-0.0669026,0.0,0.0,0.0,0.118181,0.13080752342141033,0.0,0.0,-0.052860699506821485,0.0,-0.06471370621448302
225,0.2156,891.326,0.0410223,0.0162574,-3.91563e-16,8.22144e-16,1.9732e-16,0.12391,-0.0547454,-0.0674422,0.0,0.0,0.0,0.119149,0.13191399415531202,0.0,0.0,-0.05327384624911102,0.0,-0.06521825056030284
226,0.2166,892.484,0.0408759,0.016193,5.64795e-16,6.413e-16,2.72662e-15,0.124887,-0.0551813,-0.0679812,0.0,0.0,0.0,0.120117,0.1330204145259435,0.0,0.0,-0.053686434249443415,0.0,-0.06572196216077963
227,0.2176,893.634,0.0407303,0.016129,4.61395e-16,4.976e-16,-3.83354e-15,0.125863,-0.0556168,-0.0685198,0.0,0.0,0.0,0.121084,0.13412678227015506,0.0,0.0,-0.0540984640813198,0.0,-0.06622502882394632
228,0.2186,894.775,0.0405854,0.0160653,3.76855e-16,3.83358e-16,-3.88514e-15,0.126839,-0.0560519,-0.0690578,0.0,0.0,0.0,0.12205,0.13523423035640625,0.0,0.0,-0.054509936317321595,0.0,-0.0667272646448891
229,0.2196,895.908,0.0404414,0.0160021,3.07706e-16,2.9249e-16,3.56182e-16,0.127813,-0.0564866,-0.0695953,0.0,0.0,0.0,0.123015,0.13634048715637825,0.0,0.0,-0.054920851529112524,0.0,-0.06722876395013033
230,0.2206,897.032,0.0402981,0.0159393,-6.35638e-16,2.20179e-16,-5.7169e-16,0.128787,-0.0569208,-0.0701323,0.0,0.0,0.0,0.123979,0.13744782197538363,0.0,0.0,-0.05533111582055539,0.0,-0.06772952763680551
231,0.2216,898.148,0.0401557,0.0158769,1.2528e-15,1.62605e-16,1.26557e-15,0.129759,-0.0573546,-0.0706687,0.0,0.0,0.0,0.124943,0.13855395875372967,0.0,0.0,-0.055740824310315906,0.0,-0.06822946342341607
232,0.2226,899.256,0.040014,0.0158149,1.38248e-16,-7.46163e-16,1.86362e-15,0.130731,-0.057788,-0.0712047,0.0,0.0,0.0,0.125905,0.13966117121972377,0.0,0.0,-0.05614997756714468,0.0,-0.06872875860795791
233,0.2236,900.356,0.039873,0.0157532,1.12295e-16,-6.07466e-16,2.33862e-15,0.131701,-0.058221,-0.0717401,0.0,0.0,0.0,0.126867,0.1407671788828031,0.0,0.0,-0.05655857615887894,0.0,-0.06922722777849499
234,0.2246,901.449,0.0397328,0.015692,9.10233e-17,-4.96931e-16,-3.29504e-15,0.132671,-0.0586536,-0.072275,0.0,0.0,0.0,0.127827,0.14187425989380542,0.0,0.0,-0.05696662065244518,0.0,-0.069724965002668
235,0.2256,902.533,0.0395934,0.0156311,7.35818e-17,4.55224e-16,-8.92407e-16,0.133639,-0.0590858,-0.0728095,0.0,0.0,0.0,0.128787,0.14298012933183846,0.0,0.0,-0.05737411161385919,0.0,-0.07022206414729293
236,0.2266,903.61,0.0394548,0.0155706,-8.29548e-16,3.50925e-16,3.59308e-15,0.134607,-0.0595175,-0.0733434,0.0,0.0,0.0,0.129746,0.14408706976976782,0.0,0.0,-0.05778095538632877,0.0,-0.07071834009459199
237,0.2276,904.68,0.0393168,0.0155105,2.07097e-16,-5.97098e-16,-3.16278e-15,0.135574,-0.0599489,-0.0738768,0.0,0.0,0.0,0.130704,0.1451939370503137,0.0,0.0,-0.058187341018491656,0.0,-0.07121388675794116
238,0.2286,905.742,0.0391796,0.0154508,-7.20346e-16,1.24083e-15,2.65199e-15,0.13654,-0.0603798,-0.0744097,0.0,0.0,0.0,0.131661,0.14630072888789436,0.0,0.0,-0.05859308067036084,0.0,-0.0717087050216515
239,0.2296,906.797,0.0390432,0.0153914,2.97113e-16,-7.52044e-16,2.97214e-15,0.137505,-0.0608103,-0.0749421,0.0,0.0,0.0,0.132617,0.14740744299494457,0.0,0.0,-0.05899826912605943,0.0,-0.07220279576847044
240,0.2306,907.844,0.0389075,0.0153324,2.43374e-16,-6.13904e-16,-2.79949e-15,0.138469,-0.0612404,-0.075474,0.0,0.0,0.0,0.133572,0.14851407708192244,0.0,0.0,-0.0594029069469072,0.0,-0.072696159879584
241,0.2316,908.885,0.0387725,0.0152738,1.08969e-15,-5.03479e-16,2.08333e-15,0.139432,-0.0616701,-0.0760053,0.0,0.0,0.0,0.134526,0.14962062885731697,0.0,0.0,-0.05980699469332218,0.0,-0.07318870555349544
242,0.2326,909.918,0.0386382,0.0152155,-8.86396e-16,-4.15176e-16,-1.78627e-15,0.140394,-0.0620994,-0.0765362,0.0,0.0,0.0,0.13548,0.15072709602765566,0.0,0.0,-0.06021053292482126,0.0,-0.07368061907971746
243,0.2336,910.945,0.0385046,0.0151575,-7.30418e-16,5.22397e-16,-1.41892e-15,0.141355,-0.0625283,-0.0770666,0.0,0.0,0.0,0.136432,0.15183347629751065,0.0,0.0,-0.06061352220002214,0.0,-0.07417180860438044
244,0.2346,911.965,0.0383718,0.0151,-1.49355e-15,-4.61213e-16,-2.85244e-15,0.142316,-0.0629567,-0.0775965,0.0,0.0,0.0,0.137384,0.1529409203098515,0.0,0.0,-0.06101586917823543,0.0,-0.07466227500245215
245,0.2356,912.978,0.0382396,0.0150427,5.53145e-16,4.85903e-16,1.18124e-15,0.143275,-0.0633848,-0.0781258,0.0,0.0,0.0,0.138335,0.15404712099087603,0.0,0.0,-0.061417762253289654,0.0,-0.07515192666254977
246,0.2366,913.984,0.0381081,0.0149858,-4.3697e-16,3.77128e-16,-7.81934e-16,0.144234,-0.0638124,-0.0786547,0.0,0.0,0.0,0.139285,0.15515438302719198,0.0,0.0,-0.061819014224364865,0.0,-0.0756409494750554
247,0.2376,914.984,0.0379774,0.0149293,5.31841e-16,2.89937e-16,-2.348e-15,0.145191,-0.0642397,-0.0791831,0.0,0.0,0.0,0.140234,0.1562603949140251,0.0,0.0,-0.062219813322761164,0.0,-0.07612925177652341
248,0.2386,915.978,0.0378473,0.0148731,4.37862e-16,2.20016e-16,1.58512e-15,0.146148,-0.0646665,-0.0797109,0.0,0.0,0.0,0.141182,0.1573674657608657,0.0,0.0,-0.06261997250639084,0.0,-0.0766167420974232
249,0.2396,916.965,0.0377179,0.0148172,-5.32637e-16,-7.05103e-16,-2.18961e-15,0.147104,-0.065093,-0.0802383,0.0,0.0,0.0,0.142129,0.15847443810660589,0.0,0.0,-0.06301967984446799,0.0,-0.07710360603033684
250,0.2406,917.946,0.0375892,0.0147616,4.53371e-16,-5.78527e-16,-3.47533e-15,0.148058,-0.065519,-0.0807652,0.0,0.0,0.0,0.143075,0.15958015006130144,0.0,0.0,-0.0634187484532055,0.0,-0.0775897520539024
251,0.2416,918.92,0.0374611,0.0147064,3.73474e-16,3.92772e-16,-3.63849e-15,0.149012,-0.0659446,-0.0812916,0.0,0.0,0.0,0.144021,0.1606869173685248,0.0,0.0,-0.06381727262190517,0.0,-0.07807518103230482
252,0.2426,919.889,0.0373337,0.0146515,3.07553e-16,3.03155e-16,-3.77006e-15,0.149965,-0.0663699,-0.0818174,0.0,0.0,0.0,0.144965,0.1617935792414027,0.0,0.0,-0.06421534647945293,0.0,-0.07855980168418364
253,0.2436,920.851,0.037207,0.014597,-6.41133e-16,-6.39232e-16,4.51505e-16,0.150917,-0.0667947,-0.0823428,0.0,0.0,0.0,0.145909,0.16290013336503062,0.0,0.0,-0.06461278337869447,0.0,-0.0790437992070957
254,0.2446,921.808,0.0370809,0.0145427,3.64243e-16,1.21509e-15,-3.1002e-15,0.151869,-0.0672191,-0.0828677,0.0,0.0,0.0,0.146852,0.16400774142978047,0.0,0.0,-0.06500967748654163,0.0,-0.0795270822681563
255,0.2456,922.758,0.0369555,0.0144888,3.00231e-16,9.3642e-17,1.85452e-15,0.152819,-0.0676432,-0.0833921,0.0,0.0,0.0,0.147794,0.16511407420900337,0.0,0.0,-0.06540612281014668,0.0,-0.0800096517254445
256,0.2466,923.703,0.0368307,0.0144352,2.47343e-16,9.33982e-16,-2.84606e-15,0.153768,-0.0680668,-0.083916,0.0,0.0,0.0,0.148735,0.16622029228288215,0.0,0.0,-0.06580193293802061,0.0,-0.080491508435519
257,0.2476,924.642,0.0367066,0.0143819,-6.91856e-16,7.38819e-16,-6.61109e-15,0.154717,-0.06849,-0.0844395,0.0,0.0,0.0,0.149675,0.16732756065600096,0.0,0.0,-0.0661972019151863,0.0,-0.08097274515615105
258,0.2486,925.575,0.0365831,0.0143289,3.22718e-16,-2.90319e-16,-9.55822e-16,0.155664,-0.0689129,-0.0849624,0.0,0.0,0.0,0.150615,0.16843354345614348,0.0,0.0,-0.066592023627561,0.0,-0.08145317888736303
259,0.2496,926.503,0.0364602,0.0142762,2.66227e-16,6.253e-16,4.44298e-15,0.156611,-0.0693353,-0.0854848,0.0,0.0,0.0,0.151553,0.169540574118082,0.0,0.0,-0.06698621189835696,0.0,-0.08193290243201268
260,0.2506,927.425,0.036338,0.0142238,-6.76889e-16,-3.82129e-16,9.2192e-17,0.157557,-0.0697574,-0.0860068,0.0,0.0,0.0,0.152491,0.1706474829865432,0.0,0.0,-0.06737995391321638,0.0,-0.08241200839940654
261,0.2516,928.341,0.0362164,0.0141717,-5.61222e-16,-3.21342e-16,-1.66005e-15,0.158502,-0.070179,-0.0865282,0.0,0.0,0.0,0.153428,0.1717542677313919,0.0,0.0,-0.06777306365129099,0.0,-0.0828903140731021
262,0.2526,929.252,0.0360954,0.0141199,4.315e-16,-2.72351e-16,1.27724e-15,0.159446,-0.0706003,-0.0870492,0.0,0.0,0.0,0.154364,0.17286092602066105,0.0,0.0,-0.06816572813899235,0.0,-0.08336800377049847
263,0.2536,930.158,0.035975,0.0140684,3.56836e-16,-2.32856e-16,-7.10254e-16,0.160389,-0.0710211,-0.0875697,0.0,0.0,0.0,0.155299,0.17396745552055926,0.0,0.0,-0.06855776151098514,0.0,-0.08384498657899131
264,0.2546,931.058,0.0358552,0.0140172,-1.50011e-15,1.54692e-15,2.0404e-15,0.161331,-0.0714416,-0.0880897,0.0,0.0,0.0,0.156233,0.17507385389547947,0.0,0.0,-0.06894935063488639,0.0,-0.08432126334327938
265,0.2556,931.954,0.035736,0.0139663,-3.46364e-16,3.6113e-16,-9.67543e-16,0.162272,-0.0718617,-0.0886092,0.0,0.0,0.0,0.157166,0.176180118808005,0.0,0.0,-0.0693404028664123,0.0,-0.08479683490656342
266,0.2566,932.844,0.0356175,0.0139157,-1.18574e-15,2.78033e-16,-2.51391e-15,0.163213,-0.0722814,-0.0891283,0.0,0.0,0.0,0.158099,0.17728742520575524,0.0,0.0,-0.06973091874383996,0.0,-0.08527179358337345
267,0.2576,933.729,0.0354995,0.0138653,-8.54143e-17,2.1091e-16,-2.77046e-16,0.164152,-0.0727006,-0.0896468,0.0,0.0,0.0,0.15903,0.17839341728003766,0.0,0.0,-0.07012080581666258,0.0,-0.08574595722085454
268,0.2586,934.609,0.0353821,0.0138153,-7.09429e-17,-7.18552e-16,-1.09065e-15,0.165091,-0.0731195,-0.0901649,0.0,0.0,0.0,0.159961,0.17950044836861867,0.0,0.0,-0.07051025063619365,0.0,-0.08621950955609303
269,0.2596,935.483,0.0352653,0.0137655,-5.89351e-17,2.80957e-16,-3.85182e-18,0.166029,-0.0735381,-0.0906825,0.0,0.0,0.0,0.160891,0.18060733883966185,0.0,0.0,-0.07089925362127225,0.0,-0.08669235995370717
270,0.2606,936.353,0.0351491,0.013716,-4.89684e-17,2.13541e-16,1.74155e-15,0.166966,-0.0739562,-0.0911996,0.0,0.0,0.0,0.16182,0.1817140863463873,0.0,0.0,-0.07128762944770906,0.0,-0.08716450924965391
271,0.2616,937.218,0.0350334,0.0136668,-9.40224e-16,1.59003e-16,-3.38325e-16,0.167902,-0.0743739,-0.0917163,0.0,0.0,0.0,0.162748,0.18282068854024347,0.0,0.0,-0.07167547159841658,0.0,-0.08763604951480608
272,0.2626,938.079,0.0349184,0.0136178,1.18738e-16,1.14866e-16,6.02273e-16,0.168837,-0.0747913,-0.0922324,0.0,0.0,0.0,0.163676,0.18392714307091418,0.0,0.0,-0.07206287340019091,0.0,-0.0881067990622818
273,0.2636,938.934,0.0348039,0.0135691,9.88671e-17,9.55886e-16,2.23236e-15,0.169771,-0.0752082,-0.0927481,0.0,0.0,0.0,0.164602,0.18503344758632667,0.0,0.0,-0.07244964975913637,0.0,-0.0885769411494488
274,0.2646,939.785,0.0346899,0.0135207,-8.18007e-16,-1.17001e-16,-2.56114e-15,0.170705,-0.0756248,-0.0932633,0.0,0.0,0.0,0.165528,0.18614078587285277,0.0,0.0,-0.07283598675546277,0.0,-0.08904638537015352
275,0.2656,940.631,0.0345766,0.0134726,1.12127e-15,-1.08921e-16,3.17546e-15,0.171637,-0.076041,-0.093778,0.0,0.0,0.0,0.166453,0.1872467844005421,0.0,0.0,-0.07322179212610835,0.0,-0.08951513255316779
276,0.2666,941.472,0.0344638,0.0134247,3.20195e-17,7.75271e-16,-9.2933e-16,0.172569,-0.0764568,-0.0942923,0.0,0.0,0.0,0.167377,0.18835381419935682,0.0,0.0,-0.07360706640086978,0.0,-0.08998327452746824
277,0.2676,942.309,0.0343515,0.0133771,-8.74458e-16,6.14227e-16,-7.46454e-16,0.1735,-0.0768722,-0.0948061,0.0,0.0,0.0,0.1683,0.18946068676960848,0.0,0.0,-0.07399181010868616,0.0,-0.09045072102372764
278,0.2686,943.141,0.0342398,0.0133297,1.73774e-16,4.83648e-16,2.89518e-15,0.17443,-0.0772872,-0.0953194,0.0,0.0,0.0,0.169222,0.19056739975007386,0.0,0.0,-0.07437602377764052,0.0,-0.09091747286651752
279,0.2696,943.969,0.0341286,0.0132826,-7.56783e-16,3.77731e-16,3.21345e-15,0.175359,-0.0777019,-0.0958322,0.0,0.0,0.0,0.170144,0.1916739507778107,0.0,0.0,-0.074759800458985,0.0,-0.09138353087894413
280,0.2706,944.792,0.034018,0.0132357,2.72026e-16,-5.87058e-16,3.47125e-15,0.176287,-0.0781161,-0.0963446,0.0,0.0,0.0,0.171064,0.19278033748816603,0.0,0.0,-0.07514295559272877,0.0,-0.0918489866977571
281,0.2716,945.611,0.0339079,0.0131891,2.26996e-16,-4.91231e-16,1.82436e-16,0.177215,-0.07853,-0.0968565,0.0,0.0,0.0,0.171984,0.19388775140193704,0.0,0.0,-0.075525674714223,0.0,-0.09231375023509014
282,0.2726,946.426,0.0337984,0.0131428,-7.13038e-16,-1.29287e-15,1.89926e-15,0.178141,-0.0789435,-0.0973679,0.0,0.0,0.0,0.172903,0.19499380348281425,0.0,0.0,-0.075907865824271,0.0,-0.0927778223098763
283,0.2736,947.236,0.0336893,0.0130967,1.21157e-15,-1.84767e-16,-5.46426e-15,0.179067,-0.0793567,-0.0978788,0.0,0.0,0.0,0.173821,0.19610088024227124,0.0,0.0,-0.07628962181789256,0.0,-0.09324120373959277
284,0.2746,948.042,0.0335809,0.0130508,1.01055e-15,1.59574e-15,-2.66407e-15,0.179992,-0.0797694,-0.0983893,0.0,0.0,0.0,0.174739,0.19720778542121598,0.0,0.0,-0.07667075843801718,0.0,-0.09370398596986895
285,0.2756,948.844,0.0334729,0.0130052,-9.63687e-16,4.02343e-16,-1.2757e-15,0.180916,-0.0801818,-0.0988993,0.0,0.0,0.0,0.175655,0.1983145166460294,0.0,0.0,-0.0770514609109918,0.0,-0.09416607909326191
286,0.2766,949.642,0.0333654,0.0129599,1.0032e-15,3.12489e-16,-1.53188e-16,0.181839,-0.0805938,-0.0994089,0.0,0.0,0.0,0.176571,0.19942107154141908,0.0,0.0,-0.07743163738736458,0.0,-0.0946275744603492
287,0.2776,950.436,0.0332585,0.0129148,-6.65565e-17,2.39407e-16,-1.2151e-16,0.182761,-0.0810054,-0.099918,0.0,0.0,0.0,0.177486,0.2005274477304273,0.0,0.0,-0.0778112883878802,0.0,-0.09508838225361493
288,0.2786,951.225,0.033152,0.0128699,-5.56028e-17,1.79945e-16,-9.72282e-16,0.183682,-0.0814166,-0.100427,0.0,0.0,0.0,0.1784,0.2016336428344392,0.0,0.0,-0.07819041443243824,0.0,-0.09554886506423066
289,0.2796,952.011,0.0330461,0.0128252,-9.50804e-16,-7.4989e-16,-7.84643e-16,0.184603,-0.0818275,-0.100935,0.0,0.0,0.0,0.179313,0.2027408572134457,0.0,0.0,-0.07856910818318874,0.0,-0.09600820955739842
290,0.2806,952.792,0.0329407,0.0127808,-7.94085e-16,2.56394e-16,-4.14173e-15,0.185523,-0.082238,-0.101442,0.0,0.0,0.0,0.180225,0.20384788795814224,0.0,0.0,-0.07894727793962653,0.0,-0.09646641722969274
291,0.2816,953.57,0.0328358,0.0127366,2.41677e-16,-6.87986e-16,-3.35347e-15,0.186441,-0.0826481,-0.10195,0.0,0.0,0.0,0.181137,0.2049535277302974,0.0,0.0,-0.07932492421928106,0.0,-0.09692529572473396
292,0.2826,954.344,0.0327314,0.0126927,-1.60791e-15,3.07093e-16,-9.59875e-16,0.187359,-0.0830578,-0.102456,0.0,0.0,0.0,0.182047,0.20606018294578066,0.0,0.0,-0.07970204753884125,0.0,-0.09738213593477685
293,0.2836,955.113,0.0326274,0.012649,-4.38306e-16,-6.47014e-16,9.80847e-16,0.188277,-0.0834672,-0.102963,0.0,0.0,0.0,0.182957,0.20716785453719688,0.0,0.0,-0.08007874040628749,0.0,-0.09783964720295113
294,0.2846,955.879,0.032524,0.0126055,-3.65803e-16,3.40763e-16,-7.9798e-17,0.189193,-0.0838762,-0.103469,0.0,0.0,0.0,0.183866,0.20827412688733715,0.0,0.0,-0.08045491126927595,0.0,-0.09829602486817979
295,0.2856,956.642,0.0324211,0.0125622,6.00693e-16,2.63215e-16,1.69529e-15,0.190108,-0.0842848,-0.103974,0.0,0.0,0.0,0.184774,0.2093802036663961,0.0,0.0,-0.08083056064213812,0.0,-0.09875127041644549
296,0.2866,957.4,0.0323186,0.0125192,-4.02772e-16,1.08334e-15,-3.79229e-16,0.191023,-0.084693,-0.104479,0.0,0.0,0.0,0.185682,0.21048729296886637,0.0,0.0,-0.08120568903836944,0.0,-0.09920628612374904
297,0.2876,958.155,0.0322166,0.0124764,5.70038e-16,8.68978e-16,-3.05278e-16,0.191937,-0.0851009,-0.104983,0.0,0.0,0.0,0.186588,0.2115941841268414,0.0,0.0,-0.08158038881259644,0.0,-0.09966017176675279
298,0.2886,958.906,0.0321151,0.0124338,4.77919e-16,6.94029e-16,-1.12486e-15,0.19285,-0.0855084,-0.105487,0.0,0.0,0.0,0.187494,0.21270087474434085,0.0,0.0,-0.08195456855985395,0.0,-0.10011382870902985
299,0.2896,959.653,0.0320141,0.0123914,-5.06057e-16,5.51203e-16,4.36694e-15,0.193762,-0.0859156,-0.105991,0.0,0.0,0.0,0.188399,0.2138073624237966,0.0,0.0,-0.08232832055846506,0.0,-0.10056725706581648
300,0.2906,960.397,0.0319135,0.0123493,4.83867e-16,4.34562e-16,-3.48857e-15,0.194673,-0.0863223,-0.106494,0.0,0.0,0.0,0.189303,0.21491364476606112,0.0,0.0,-0.08270146174708992,0.0,-0.101019557972298
301,0.2916,961.137,0.0318134,0.0123073,4.06008e-16,3.39275e-16,-2.83322e-15,0.195584,-0.0867287,-0.106997,0.0,0.0,0.0,0.190207,0.2160209353907423,0.0,0.0,-0.08307417613234303,0.0,-0.10147163142863214
302,0.2926,961.873,0.0317138,0.0122656,-5.66818e-16,-6.23604e-16,3.40414e-16,0.196493,-0.0871347,-0.107499,0.0,0.0,0.0,0.191109,0.21712680096076764,0.0,0.0,-0.08344637245586706,0.0,-0.10192257947222594
303,0.2936,962.606,0.0316146,0.0122241,-4.74586e-16,-5.25538e-16,-4.12373e-15,0.197402,-0.0875404,-0.108001,0.0,0.0,0.0,0.192011,0.21823367221961254,0.0,0.0,-0.08381814284383926,0.0,-0.10237330119671273
304,0.2946,963.336,0.0315159,0.0121828,5.10809e-16,4.40171e-16,1.05311e-15,0.19831,-0.0879457,-0.108502,0.0,0.0,0.0,0.192912,0.21934033074092318,0.0,0.0,-0.08418939611098797,0.0,-0.10282289953902435
305,0.2956,964.062,0.0314176,0.0121417,4.29067e-16,-5.41473e-16,-2.66507e-15,0.199217,-0.0883506,-0.109003,0.0,0.0,0.0,0.193812,0.2204467741171252,0.0,0.0,-0.08456013276380225,0.0,-0.10327227268898176
306,0.2966,964.785,0.0313198,0.0121008,3.60507e-16,4.27405e-16,-1.28481e-15,0.200124,-0.0887552,-0.109503,0.0,0.0,0.0,0.194711,0.2215542214927142,0.0,0.0,-0.08493044481490641,0.0,-0.10372052448035085
307,0.2976,965.504,0.0312225,0.0120601,3.02987e-16,3.34106e-16,-4.57066e-15,0.201029,-0.0891594,-0.110003,0.0,0.0,0.0,0.19561,0.22266022845582878,0.0,0.0,-0.08530024118823043,0.0,-0.1041685522018464
308,0.2986,966.22,0.0311255,0.0120197,2.54717e-16,1.14432e-15,-1.91799e-16,0.201934,-0.0895633,-0.110503,0.0,0.0,0.0,0.196508,0.22376723680830501,0.0,0.0,-0.08566961382098981,0.0,-0.10461635596547536
309,0.2996,966.932,0.0310291,0.0119794,2.14199e-16,3.41926e-17,3.37684e-15,0.202838,-0.0899667,-0.111002,0.0,0.0,0.0,0.197405,0.22487402258217593,0.0,0.0,-0.08603838031357203,0.0,-0.10506304094667696
310,0.3006,967.642,0.030933,0.0119393,1.08968e-15,1.18625e-17,-3.42357e-15,0.203741,-0.0903698,-0.1115,0.0,0.0,0.0,0.198301,0.225980583361568,0.0,0.0,-0.08640672399781046,0.0,-0.10550860859673217
311,0.3016,968.348,0.0308375,0.0118995,5.76361e-18,-8.93821e-16,-2.78846e-15,0.204643,-0.0907726,-0.111998,0.0,0.0,0.0,0.199196,0.22708691672909898,0.0,0.0,-0.0867746452650664,0.0,-0.10595395440933963
312,0.3026,969.051,0.0307423,0.0118598,9.14862e-16,1.39019e-16,-3.15426e-15,0.205545,-0.091175,-0.112496,0.0,0.0,0.0,0.200091,0.22819424845952163,0.0,0.0,-0.08714205322037338,0.0,-0.10639907849494712
313,0.3036,969.75,0.0306476,0.0118203,-1.41371e-16,-7.89904e-16,-8.03323e-16,0.206445,-0.091577,-0.112993,0.0,0.0,0.0,0.200984,0.229300120851065,0.0,0.0,-0.08750894836411394,0.0,-0.10684308780748142
314,0.3046,970.447,0.0305533,0.011781,-1.18975e-16,-6.6367e-16,2.31919e-16,0.207345,-0.0919787,-0.11349,0.0,0.0,0.0,0.201877,0.2304069889757736,0.0,0.0,-0.08787542240831636,0.0,-0.10728687650221547
315,0.3056,971.14,0.0304594,0.0117419,-1.00147e-16,3.28263e-16,1.07703e-15,0.208244,-0.09238,-0.113986,0.0,0.0,0.0,0.202769,0.23151362221597238,0.0,0.0,-0.08824138456608566,0.0,-0.10772955241876758
316,0.3066,971.83,0.0303659,0.0117031,-8.43137e-17,-1.52368e-15,-8.44473e-19,0.209143,-0.0927809,-0.114482,0.0,0.0,0.0,0.203661,0.2326212507667793,0.0,0.0,-0.08860683533551172,0.0,-0.10817200882250888
317,0.3076,972.517,0.0302729,0.0116644,-7.09954e-17,-3.77226e-16,-2.65029e-15,0.21004,-0.0931815,-0.114978,0.0,0.0,0.0,0.204551,0.23372740806609715,0.0,0.0,-0.08897186631668907,0.0,-0.10861424582229051
318,0.3086,973.201,0.0301803,0.0116258,-5.97898e-17,-3.25046e-16,1.37753e-15,0.210937,-0.0935818,-0.115473,0.0,0.0,0.0,0.205441,0.23483455803365771,0.0,0.0,-0.08933647789672605,0.0,-0.10905537258272802
319,0.3096,973.882,0.0300881,0.0115875,-5.03594e-17,-2.82206e-16,2.90082e-15,0.211832,-0.0939817,-0.115967,0.0,0.0,0.0,0.20633,0.2359402296773525,0.0,0.0,-0.08970057943226084,0.0,-0.10949539053528945
320,0.3106,974.56,0.0299963,0.0115494,-4.24209e-17,-2.47027e-16,6.05624e-16,0.212727,-0.0943812,-0.116462,0.0,0.0,0.0,0.207219,0.2370468913401358,0.0,0.0,-0.09006417141844258,0.0,-0.10993608123702747
321,0.3116,975.235,0.0299049,0.0115114,-3.57367e-17,6.71779e-16,-1.27151e-15,0.213622,-0.0947804,-0.116955,0.0,0.0,0.0,0.208106,0.23815454390847135,0.0,0.0,-0.09042734530688123,0.0,-0.11037477460217782
322,0.3126,975.907,0.029814,0.0114737,-3.01072e-17,-3.53239e-16,7.36177e-16,0.214515,-0.0951792,-0.117449,0.0,0.0,0.0,0.208993,0.2392607097457189,0.0,0.0,-0.09079001056131464,0.0,-0.11081414093110598
323,0.3136,976.576,0.0297234,0.0114361,8.87126e-16,-3.05682e-16,2.37951e-15,0.215408,-0.0955776,-0.117941,0.0,0.0,0.0,0.209879,0.24036786383024555,0.0,0.0,-0.09115216767461976,0.0,-0.1112515127714725
324,0.3146,977.242,0.0296332,0.0113987,-1.65167e-16,6.2407e-16,1.80451e-16,0.216299,-0.0959757,-0.118434,0.0,0.0,0.0,0.210764,0.24147352409541956,0.0,0.0,-0.09151390798748171,0.0,-0.11168955778870715
325,0.3156,977.906,0.0295434,0.0113615,7.73549e-16,-3.92797e-16,1.529e-16,0.21719,-0.0963735,-0.118926,0.0,0.0,0.0,0.211648,0.24258016994290155,0.0,0.0,-0.09187523188279678,0.0,-0.11212649902991578
326,0.3166,978.566,0.0294541,0.0113245,-1.17431e-15,5.52651e-16,-1.64309e-15,0.218081,-0.0967709,-0.119417,0.0,0.0,0.0,0.212532,0.24368780225123654,0.0,0.0,-0.09223604896654347,0.0,-0.11256233791169057
327,0.3176,979.223,0.0293651,0.0112876,-7.7178e-17,4.39532e-16,-4.53501e-16,0.21897,-0.0971679,-0.119909,0.0,0.0,0.0,0.213414,0.24479393230939905,0.0,0.0,-0.09259635972868507,0.0,-0.11299884985069575
328,0.3186,979.878,0.0292765,0.0112509,8.48441e-16,3.42284e-14,1.3583e-14,0.219859,-0.0975646,-0.120399,0.0,0.0,0.0,0.214296,0.24590104615441155,0.0,0.0,-0.09295625536276197,0.0,-0.11343337394717123
329,0.3196,980.53,0.0291883,0.0112144,7.15766e-16,-3.72843e-16,-3.94984e-15,0.220747,-0.097961,-0.120889,0.0,0.0,0.0,0.215178,0.24700789765272857,0.0,0.0,-0.09331573624931722,0.0,-0.11386768517899537
330,0.3206,981.179,0.0291005,0.0111781,-1.22427e-15,-3.30956e-16,1.20696e-15,0.221634,-0.098357,-0.121379,0.0,0.0,0.0,0.216058,0.24811448435659722,0.0,0.0,-0.09367471213584588,0.0,-0.11430178365044663
331,0.3216,981.826,0.0290131,0.0111419,7.94765e-16,5.95896e-16,1.88383e-15,0.22252,-0.0987526,-0.121869,0.0,0.0,0.0,0.216938,0.24922080381688683,0.0,0.0,-0.09403318350941214,0.0,-0.11473566946575187
332,0.3226,982.469,0.028926,0.0111059,-2.43581e-16,-4.25305e-16,-1.113e-15,0.223405,-0.0991479,-0.122358,0.0,0.0,0.0,0.217817,0.2503268535830958,0.0,0.0,-0.09439124141716282,0.0,-0.11516845789798735
333,0.3236,983.11,0.0288394,0.0110701,-2.05975e-16,-3.74474e-16,-9.07704e-16,0.22429,-0.0995429,-0.122846,0.0,0.0,0.0,0.218695,0.2514338826366187,0.0,0.0,-0.09474888623730104,0.0,-0.11560015034900795
334,0.3246,983.749,0.0287531,0.0110345,7.40696e-16,-3.32574e-16,-3.40505e-15,0.225174,-0.0999375,-0.123334,0.0,0.0,0.0,0.219572,0.25254063930324255,0.0,0.0,-0.09510602785811573,0.0,-0.1160316321855066
335,0.3256,984.384,0.0286672,0.010999,-2.89504e-16,-2.98029e-16,7.66407e-16,0.226057,-0.100332,-0.123822,0.0,0.0,0.0,0.220449,0.25364712112758014,0.0,0.0,-0.09546293812494677,0.0,-0.11646290351023814
336,0.3266,985.017,0.0285816,0.0109637,-2.44987e-16,-2.69542e-16,-3.8114e-15,0.22694,-0.100726,-0.124309,0.0,0.0,0.0,0.221325,0.2547545804068514,0.0,0.0,-0.09581925552818771,0.0,-0.1168930813194301
337,0.3276,985.648,0.0284964,0.0109286,7.0819e-16,-2.46048e-16,-4.56642e-16,0.227821,-0.101119,-0.124796,0.0,0.0,0.0,0.2222,0.255860506281006,0.0,0.0,-0.09617452874500532,0.0,-0.11732304968303309
338,0.3286,986.276,0.0284116,0.0108936,-3.1723e-16,-2.26669e-16,-3.03905e-15,0.228702,-0.101512,-0.125282,0.0,0.0,0.0,0.223074,0.25696740690517017,0.0,0.0,-0.0965296623668811,0.0,-0.11775192645538979
339,0.3296,986.901,0.0283272,0.0108588,-2.68639e-16,-2.10683e-16,1.77865e-16,0.229582,-0.101905,-0.125768,0.0,0.0,0.0,0.223948,0.2580740250638227,0.0,0.0,-0.09688465644866473,0.0,-0.11818059484427657
340,0.3306,987.524,0.0282431,0.0108241,-2.27538e-16,-1.09198e-15,-3.40937e-15,0.230461,-0.102298,-0.126254,0.0,0.0,0.0,0.224821,0.25918035829407526,0.0,0.0,-0.09723951104518491,0.0,-0.11860905495094287
341,0.3316,988.144,0.0281594,0.0107896,-1.92763e-16,3.57578e-14,1.38695e-14,0.23134,-0.10269,-0.126739,0.0,0.0,0.0,0.225693,0.2602876644187617,0.0,0.0,-0.09759332380502361,0.0,-0.11903642591345587
342,0.3326,988.761,0.028076,0.0107553,3.55842e-14,-9.07793e-16,-7.43314e-15,0.232217,-0.103082,-0.127223,0.0,0.0,0.0,0.226564,0.2613934215040665,0.0,0.0,-0.09794699789744099,0.0,-0.11946270911445755
343,0.3336,989.377,0.027993,0.0107211,3.92882e-14,1.00838e-15,1.3736e-14,0.233094,-0.103473,-0.127708,0.0,0.0,0.0,0.227434,0.2625001487636942,0.0,0.0,-0.09829963167686662,0.0,-0.11988966615508545
344,0.3346,989.989,0.0279104,0.0106871,2.43152e-16,-9.33861e-17,-3.84038e-15,0.233971,-0.103865,-0.128192,0.0,0.0,0.0,0.228304,0.2636078470488612,0.0,0.0,-0.09865302895085826,0.0,-0.1203155364877323
345,0.3356,990.599,0.0278281,0.0106533,1.91137e-16,-1.0903e-16,-4.82256e-16,0.234846,-0.104255,-0.128675,0.0,0.0,0.0,0.229173,0.2647139877810252,0.0,0.0,-0.09900448573104059,0.0,-0.12074032148977265
346,0.3366,991.207,0.0277461,0.0106196,1.4707e-16,-1.21989e-16,-2.17516e-15,0.235721,-0.104646,-0.129158,0.0,0.0,0.0,0.230042,0.26582109680989774,0.0,0.0,-0.09935670611354763,0.0,-0.12116490137019775
347,0.3376,991.813,0.0276645,0.010586,-8.07916e-16,7.6336e-16,1.78099e-15,0.236595,-0.105036,-0.12964,0.0,0.0,0.0,0.230909,0.2669279080545681,0.0,0.0,-0.09970788851314416,0.0,-0.12158839781689468
348,0.3386,992.416,0.0275833,0.0105527,-6.99545e-16,-2.96457e-16,1.47172e-15,0.237468,-0.105426,-0.130123,0.0,0.0,0.0,0.231776,0.2680344190400694,0.0,0.0,-0.1000589339783089,0.0,-0.12201256817536132
349,0.3396,993.016,0.0275024,0.0105194,3.10355e-16,-2.77385e-16,-5.66899e-16,0.23834,-0.105815,-0.130604,0.0,0.0,0.0,0.232642,0.2691406272901742,0.0,0.0,-0.10040894297182845,0.0,-0.12243477858032636
350,0.3406,993.614,0.0274218,0.0104863,-6.69781e-16,-2.61611e-16,-1.35489e-15,0.239212,-0.106204,-0.131086,0.0,0.0,0.0,0.233507,0.27024780057456677,0.0,0.0,-0.10075881583832791,0.0,-0.12285766309369572
351,0.3416,994.21,0.0273416,0.0104534,-5.82664e-16,-2.48565e-16,-2.19095e-16,0.240082,-0.106593,-0.131567,0.0,0.0,0.0,0.234372,0.27135339702578753,0.0,0.0,-0.10110855263075047,0.0,-0.12327946710575033
352,0.3426,994.804,0.0272617,0.0104206,-5.08781e-16,6.59442e-16,-1.96219e-15,0.240953,-0.106982,-0.132047,0.0,0.0,0.0,0.235236,0.27246122822504715,0.0,0.0,-0.10145815340201858,0.0,-0.123700191979492
353,0.3436,995.395,0.0271821,0.010388,-4.46109e-16,-3.82928e-16,-7.20409e-16,0.241822,-0.10737,-0.132527,0.0,0.0,0.0,0.236099,0.27356747762812383,0.0,0.0,-0.10180672001220337,0.0,-0.12412071495375399
354,0.3446,995.984,0.0271029,0.0103555,5.26129e-16,-3.49371e-16,-5.8965e-16,0.24269,-0.107757,-0.133007,0.0,0.0,0.0,0.236961,0.2746734141056997,0.0,0.0,-0.10215425355947971,0.0,-0.12454103612542478
355,0.3456,996.571,0.027024,0.0103232,-1.40632e-15,-3.21567e-16,-3.16271e-15,0.243558,-0.108145,-0.133486,0.0,0.0,0.0,0.237823,0.27578031095287825,0.0,0.0,-0.1025025501351935,0.0,-0.12496028055206454
356,0.3466,997.155,0.0269455,0.010291,6.30673e-16,-1.19663e-15,9.70322e-16,0.244425,-0.108532,-0.133965,0.0,0.0,0.0,0.238684,0.27688689211609163,0.0,0.0,-0.10284981444831243,0.0,-0.12537932420871223
357,0.3476,997.738,0.0268672,0.010259,-3.98339e-16,-1.25946e-16,1.70008e-15,0.245292,-0.108919,-0.134443,0.0,0.0,0.0,0.239544,0.2779944331011961,0.0,0.0,-0.10319694439614369,0.0,-0.12579729298924358
358,0.3486,998.318,0.0267893,0.0102271,-1.27246e-15,-1.36079e-16,5.14403e-16,0.246157,-0.109305,-0.134921,0.0,0.0,0.0,0.240403,0.27910037653740694,0.0,0.0,-0.1035430435741681,0.0,-0.1262150620284399
359,0.3496,998.895,0.0267118,0.0101953,-1.75072e-16,-1.44506e-16,1.32477e-15,0.247022,-0.109691,-0.135399,0.0,0.0,0.0,0.241262,0.28020727702855663,0.0,0.0,-0.10388900918369015,0.0,-0.12663263142175463
360,0.3506,999.471,0.0266345,0.0101637,-1.08301e-15,-1.5152e-16,-1.58493e-15,0.247886,-0.110077,-0.135876,0.0,0.0,0.0,0.24212,0.2813138540883613,0.0,0.0,-0.10423484127625748,0.0,-0.1270491283141606
361,0.3516,1000.04,0.0265576,0.0101322,-1.3885e-17,-1.57361e-16,4.8504e-16,0.248749,-0.110463,-0.136353,0.0,0.0,0.0,0.242977,0.28242010522314565,0.0,0.0,-0.10458053990339744,0.0,-0.12746542658492377
362,0.3526,1000.61,0.00943271,0.0124643,-2.5584e-17,-1.62229e-16,-3.17438e-15,0.249612,-0.110848,-0.136829,0.0,0.0,0.0,0.243833,0.28352731146472876,0.0,0.0,-0.10492521004227551,0.0,-0.12788065420985462
363,0.3536,1001.19,0.0299806,0.0137493,-9.56388e-16,-1.06593e-15,-2.61955e-15,0.250474,-0.111232,-0.137305,0.0,0.0,0.0,0.244689,0.28463418900289206,0.0,0.0,-0.10526885277799136,0.0,-0.1282956842334687
364,0.3546,1001.75,0.0235109,0.00782521,9.39748e-17,8.82633e-16,1.42133e-15,0.251335,-0.111617,-0.137781,0.0,0.0,0.0,0.245544,0.28574073533946254,0.0,0.0,-0.10561325796741872,0.0,-0.12871051674980216
365,0.3556,1002.32,0.0276749,0.0106865,6.63105e-17,7.02107e-16,-3.29859e-15,0.252195,-0.112001,-0.138256,0.0,0.0,0.0,0.246398,0.28684694797510835,0.0,0.0,-0.10595663654345322,0.0,-0.12912428097756223
366,0.3566,1002.88,0.0254095,0.00949928,4.27667e-17,5.52014e-16,-2.72468e-15,0.253055,-0.112384,-0.138731,0.0,0.0,0.0,0.247252,0.2879541123628153,0.0,0.0,-0.10629898958686435,0.0,-0.12953784871398455
367,0.3576,1003.44,0.0265245,0.0101808,2.27248e-17,-4.73299e-16,-4.56951e-16,0.253914,-0.112768,-0.139205,0.0,0.0,0.0,0.248105,0.28906094025985785,0.0,0.0,-0.10664210489250803,0.0,-0.12995035000316535
368,0.3586,1004.0,0.0258291,0.00976999,9.27476e-16,-4.25438e-16,-2.16593e-15,0.254772,-0.113151,-0.139679,0.0,0.0,0.0,0.248957,0.2901674291624603,0.0,0.0,-0.10698419545181037,0.0,-0.13036265581306727
369,0.3596,1004.56,0.0260892,0.00993913,-1.46181e-16,5.15277e-16,-1.78802e-15,0.255629,-0.113533,-0.140153,0.0,0.0,0.0,0.249808,0.2912735765657142,0.0,0.0,-0.10732526234122441,0.0,-0.13077476623632567
370,0.3606,1005.11,0.0258377,0.0098032,-1.38337e-16,3.96965e-16,2.11241e-15,0.256486,-0.113916,-0.140626,0.0,0.0,0.0,0.250659,0.29238067234361287,0.0,0.0,-0.10766709130132335,0.0,-0.13118581255177864
371,0.3616,1005.66,0.0258581,0.00982978,-1.31664e-16,2.98476e-16,-1.83294e-15,0.257342,-0.114298,-0.141099,0.0,0.0,0.0,0.251509,0.29348742382119175,0.0,0.0,-0.10800789737434202,0.0,-0.13159666448829876
372,0.3626,1006.21,0.0257345,0.00976995,-1.25988e-16,-6.85081e-16,-6.16012e-16,0.258197,-0.11468,-0.141571,0.0,0.0,0.0,0.252358,0.2945938284891536,0.0,0.0,-0.10834857328430347,0.0,-0.13200645414469347
373,0.3636,1006.76,0.0256877,0.00975612,-1.21158e-16,2.99364e-16,-1.4026e-15,0.259052,-0.115061,-0.142043,0.0,0.0,0.0,0.253206,0.29570117953762676,0.0,0.0,-0.10868822776959397,0.0,-0.13241605042601046
374,0.3646,1007.31,0.0256006,0.00971809,-1.1705e-16,-6.84604e-16,1.5362e-15,0.259905,-0.115442,-0.142514,0.0,0.0,0.0,0.254054,0.2968068841597502,0.0,0.0,-0.10902775287117472,0.0,-0.13282458624852111
375,0.3656,1007.85,0.0255353,0.00969308,-1.0367e-15,2.99955e-16,-5.16526e-16,0.260758,-0.115823,-0.142986,0.0,0.0,0.0,0.254901,0.2979135323502913,0.0,0.0,-0.10936714863833163,0.0,-0.13323379646260425
376,0.3666,1008.4,0.0254589,0.00966138,2.57817e-17,2.18011e-16,-4.2289e-16,0.261611,-0.116203,-0.143456,0.0,0.0,0.0,0.255747,0.29902112491445676,0.0,0.0,-0.10970552482630147,0.0,-0.13364108085893622
377,0.3676,1008.94,0.0253889,0.00963341,9.31908e-16,1.49697e-16,5.53266e-16,0.262462,-0.116584,-0.143927,0.0,0.0,0.0,0.256593,0.3001270624014163,0.0,0.0,-0.11004466241153021,0.0,-0.13404903982797256
378,0.3686,1009.47,0.0253159,0.00960366,-1.4256e-16,9.27294e-17,-1.33274e-15,0.263313,-0.116963,-0.144397,0.0,0.0,0.0,0.257438,0.3012339414417513,0.0,0.0,-0.11038189157551304,0.0,-0.1344559411499524
379,0.3696,1010.01,0.0252449,0.00957505,-1.05929e-15,4.52104e-17,6.96987e-16,0.264163,-0.117343,-0.144866,0.0,0.0,0.0,0.258282,0.302340460495953,0.0,0.0,-0.11071988223442197,0.0,-0.13486178613546485
380,0.3706,1010.55,0.0251733,0.00954603,-9.17529e-16,5.56094e-18,5.84198e-16,0.265013,-0.117722,-0.145335,0.0,0.0,0.0,0.259126,0.3034479204911944,0.0,0.0,-0.11105685553858047,0.0,-0.13526744082430708
381,0.3716,1011.08,0.0251025,0.00951741,1.27709e-16,-2.75325e-17,2.28899e-15,0.265861,-0.118101,-0.145804,0.0,0.0,0.0,0.259968,0.3045537131175795,0.0,0.0,-0.11139370115405511,0.0,-0.13567290530570741
382,0.3726,1011.61,0.0250317,0.00948877,4.07714e-14,1.75207e-15,1.29538e-14,0.266709,-0.118479,-0.146272,0.0,0.0,0.0,0.26081,0.3056604438538142,0.0,0.0,-0.1117295308592059,0.0,-0.13607731574659987
383,0.3736,1012.14,0.0249613,0.00946033,5.81119e-16,-1.28169e-15,2.37441e-14,0.267556,-0.118858,-0.14674,0.0,0.0,0.0,0.261652,0.3067668067282927,0.0,0.0,-0.11206612157903983,0.0,-0.13648153696768683
384,0.3746,1012.67,0.0248912,0.00943197,4.75401e-16,1.60973e-15,1.31788e-14,0.268403,-0.119235,-0.147208,0.0,0.0,0.0,0.262492,0.30787410708909557,0.0,0.0,-0.11240080955855625,0.0,-0.1368855690575026
385,0.3756,1013.19,0.0248213,0.00940375,1.3101e-15,-4.97e-16,-7.41796e-16,0.269249,-0.119613,-0.147675,0.0,0.0,0.0,0.263332,0.3089810367489183,0.0,0.0,-0.11273625864867098,0.0,-0.13728854939352042
386,0.3766,1013.72,0.0247517,0.00937565,1.72891e-16,4.56706e-16,-2.54009e-15,0.270094,-0.11999,-0.148142,0.0,0.0,0.0,0.264172,0.31008759317922063,0.0,0.0,-0.11307069403412917,0.0,-0.1376913415816574
387,0.3776,1014.24,0.0246824,0.00934767,-7.98903e-16,-5.55844e-16,-2.10746e-15,0.270938,-0.120367,-0.148608,0.0,0.0,0.0,0.26501,0.31119377385044267,0.0,0.0,-0.11340500336121051,0.0,-0.13809308380327256
388,0.3786,1014.76,0.0246134,0.0093198,-1.62953e-15,4.0773e-16,-1.74743e-15,0.271782,-0.120744,-0.149074,0.0,0.0,0.0,0.265848,0.31230088853224847,0.0,0.0,-0.1137391866774301,0.0,-0.13849463885662616
389,0.3796,1015.28,0.0245446,0.00929206,4.37534e-16,-5.9702e-16,3.53513e-16,0.272625,-0.12112,-0.14954,0.0,0.0,0.0,0.266685,0.31340762460499394,0.0,0.0,-0.11407235810308625,0.0,-0.13889600682891823
390,0.3806,1015.79,0.0244761,0.00926443,-5.72761e-16,3.735e-16,3.00374e-15,0.273467,-0.121496,-0.150005,0.0,0.0,0.0,0.267522,0.3145139795349732,0.0,0.0,-0.11440540427983448,0.0,-0.13929632710406548
391,0.3816,1016.31,0.0244079,0.00923692,-5.10705e-16,2.7954e-16,-1.10018e-15,0.274309,-0.121872,-0.15047,0.0,0.0,0.0,0.268357,0.3156212664080964,0.0,0.0,-0.11473832525475969,0.0,-0.13969646127355773
392,0.3826,1016.82,0.02434,0.00920953,3.6593e-14,2.00946e-16,-1.55896e-14,0.275149,-0.122247,-0.150934,0.0,0.0,0.0,0.269192,0.31672685255305155,0.0,0.0,-0.11507023614560763,0.0,-0.14009554951989356
393,0.3836,1017.33,0.0242723,0.00918225,-1.14611e-15,1.35188e-16,-2.598e-14,0.275989,-0.122622,-0.151399,0.0,0.0,0.0,0.270027,0.3178333677805285,0.0,0.0,-0.11540202259320598,0.0,-0.140495312137355
394,0.3846,1017.84,0.0242049,0.00915509,-1.00779e-15,-8.25863e-16,4.52296e-15,0.276829,-0.122997,-0.151862,0.0,0.0,0.0,0.27086,0.3189408128712845,0.0,0.0,-0.1157336846442123,0.0,-0.14089317069647156
395,0.3856,1018.35,0.0241377,0.00912804,-8.89434e-16,1.0885e-15,2.68376e-14,0.277668,-0.123371,-0.152325,0.0,0.0,0.0,0.271693,0.3200478685582042,0.0,0.0,-0.11606433841004693,0.0,-0.141290845089713
396,0.3866,1018.86,0.0240708,0.0091011,-1.71512e-15,-2.83472e-17,-1.43659e-14,0.278506,-0.123745,-0.152788,0.0,0.0,0.0,0.272526,0.32115453229940116,0.0,0.0,-0.11639486853449554,0.0,-0.14168833540232828
397,0.3876,1019.36,0.0240042,0.00907428,3.59355e-16,-5.68027e-17,1.56932e-15,0.279343,-0.124119,-0.153251,0.0,0.0,0.0,0.273357,0.3222608015520332,0.0,0.0,-0.11672527506379127,0.0,-0.1420856417195271
398,0.3886,1019.86,0.0239378,0.00904757,-6.46147e-16,-8.06469e-17,4.10891e-16,0.28018,-0.124492,-0.153713,0.0,0.0,0.0,0.274188,0.3233679971396468,0.0,0.0,-0.11705467509926681,0.0,-0.14248190660881488
399,0.3896,1020.37,0.0238717,0.00902097,-5.79894e-16,8.06362e-16,-5.55247e-16,0.281015,-0.124866,-0.154175,0.0,0.0,0.0,0.275018,0.3244734708883181,0.0,0.0,-0.11738483490704721,0.0,-0.1428779884660074
400,0.3906,1020.87,0.0238059,0.00899449,-5.23154e-16,-2.64932e-16,4.45093e-16,0.281851,-0.125239,-0.154636,0.0,0.0,0.0,0.275848,0.32558119367358973,0.0,0.0,-0.11771398897257734,0.0,-0.14327303064910524
401,0.3916,1021.36,0.0237403,0.00896811,-4.74555e-16,6.52142e-16,-2.33372e-15,0.282685,-0.125611,-0.155097,0.0,0.0,0.0,0.276677,0.32668718952527676,0.0,0.0,-0.11804213832911503,0.0,-0.1436678907597274
402,0.3926,1021.86,0.0236749,0.00894185,-4.32923e-16,5.13165e-16,-1.35214e-16,0.283519,-0.125983,-0.155558,0.0,0.0,0.0,0.277505,0.3277941081622522,0.0,0.0,-0.11837016563679459,0.0,-0.14406256888179025
403,0.3936,1022.35,0.0236099,0.00891569,-3.97253e-16,3.96647e-16,7.95929e-16,0.284352,-0.126355,-0.156018,0.0,0.0,0.0,0.278332,0.3289006214531538,0.0,0.0,-0.1186980709410097,0.0,-0.1444562095558084
404,0.3946,1022.85,0.023545,0.00888964,-3.66688e-16,2.98936e-16,1.57268e-15,0.285184,-0.126727,-0.156478,0.0,0.0,0.0,0.279159,0.33000672684624033,0.0,0.0,-0.1190258542871373,0.0,-0.14484966919675735
405,0.3956,1023.34,0.0234804,0.0088637,-3.40494e-16,2.16976e-16,2.22196e-15,0.286016,-0.127098,-0.156937,0.0,0.0,0.0,0.279985,0.33111375290195655,0.0,0.0,-0.1193526350736126,0.0,-0.14524209313041359
406,0.3966,1023.83,0.0234161,0.00883787,-3.18043e-16,1.48211e-16,2.76476e-15,0.286847,-0.127469,-0.157396,0.0,0.0,0.0,0.280811,0.332220368165578,0.0,0.0,-0.11967929464690263,0.0,-0.14563433698281603
407,0.3976,1024.32,0.023352,0.00881214,3.87146e-14,9.05023e-17,-1.51277e-14,0.287678,-0.12784,-0.157855,0.0,0.0,0.0,0.281635,0.333327903408682,0.0,0.0,-0.1200058330519691,0.0,-0.14602640083660312
408,0.3986,1024.8,0.0232882,0.00878652,6.6562e-16,-1.77538e-15,-2.68272e-15,0.288507,-0.12821,-0.158313,0.0,0.0,0.0,0.282459,0.33443369052603944,0.0,0.0,-0.12033137066556754,0.0,-0.14641743119223316
409,0.3996,1025.29,0.0232246,0.00876101,-3.90799e-16,2.94117e-16,-2.7182e-14,0.289336,-0.12858,-0.158771,0.0,0.0,0.0,0.283283,0.3355403947209932,0.0,0.0,-0.1206567878525292,0.0,-0.1468082824969662
410,0.4006,1025.77,0.0231613,0.0087356,-8.32808e-16,-1.6049e-15,-9.92249e-16,0.290164,-0.12895,-0.159229,0.0,0.0,0.0,0.284106,0.33664668010676757,0.0,0.0,-0.12098208465740379,0.0,-0.14719895483278855
411,0.4016,1026.25,0.0230982,0.00871029,1.82094e-16,-4.71658e-16,1.94705e-14,0.290992,-0.129319,-0.159686,0.0,0.0,0.0,0.284928,0.33775388187617184,0.0,0.0,-0.12130638243154612,0.0,-0.14758859587067152
412,0.4026,1026.73,0.0230353,0.00868509,-8.06019e-16,-1.33884e-15,-2.76899e-14,0.291819,-0.129689,-0.160142,0.0,0.0,0.0,0.285749,0.3388606619269545,0.0,0.0,-0.12163143893088568,0.0,-0.14797720686091487
413,0.4036,1027.21,0.0229727,0.00865999,2.05247e-16,-1.15767e-15,5.05656e-15,0.292645,-0.130058,-0.160599,0.0,0.0,0.0,0.28657,0.33996701769573545,0.0,0.0,-0.12195549713750409,0.0,-0.1483664923188771
414,0.4046,1027.69,0.0229103,0.008635,-7.86348e-16,-1.91531e-15,-4.05293e-15,0.293471,-0.130426,-0.161055,0.0,0.0,0.0,0.28739,0.3410742876919053,0.0,0.0,-0.1222785580677005,0.0,-0.14875474866920413
415,0.4056,1028.17,0.0228482,0.0086101,-7.07952e-16,1.78073e-16,2.37995e-16,0.294296,-0.130794,-0.161511,0.0,0.0,0.0,0.288209,0.34218113048912624,0.0,0.0,-0.12260150013334703,0.0,-0.14914282801499545
416,0.4066,1028.64,0.0227862,0.00858531,-6.40614e-16,1.17221e-16,2.04229e-16,0.29512,-0.131162,-0.161966,0.0,0.0,0.0,0.289028,0.3432875435202156,0.0,0.0,-0.12292432337817771,0.0,-0.1495298799672521
417,0.4076,1029.11,0.0227246,0.00856062,-5.82766e-16,-8.44357e-16,1.98891e-15,0.295943,-0.13153,-0.162421,0.0,0.0,0.0,0.289846,0.3443935242171636,0.0,0.0,-0.12324702784591068,0.0,-0.149916755850929
418,0.4086,1029.58,0.0226631,0.00853603,3.9489e-14,1.68217e-16,1.00863e-14,0.296766,-0.131897,-0.162875,0.0,0.0,0.0,0.290663,0.3455004155108843,0.0,0.0,-0.12356873714942307,0.0,-0.15030260604915013
419,0.4096,1030.05,0.0226019,0.00851154,-1.0007e-15,1.09072e-16,1.19603e-15,0.297588,-0.132264,-0.16333,0.0,0.0,0.0,0.29148,0.3466068715435624,0.0,0.0,-0.12389032840728387,0.0,-0.1506891304224346
420,0.4106,1030.52,0.022541,0.00848714,-8.99063e-16,5.93022e-17,-1.71532e-15,0.29841,-0.132631,-0.163783,0.0,0.0,0.0,0.292296,0.34771423745700925,0.0,0.0,-0.12421180166280776,0.0,-0.15107378111639325
421,0.4116,1030.99,0.0224802,0.00846285,1.96756e-14,-8.93727e-16,-9.72603e-15,0.299231,-0.132998,-0.164237,0.0,0.0,0.0,0.293111,0.3488211651776145,0.0,0.0,-0.12453315695929368,0.0,-0.15145910614436653
422,0.4126,1031.45,0.0224197,0.00843865,-8.15096e-16,1.26858e-16,-1.79436e-15,0.300051,-0.133364,-0.16469,0.0,0.0,0.0,0.293926,0.34992765213071064,0.0,0.0,-0.12485351919398147,0.0,-0.1518434081183142
423,0.4136,1031.92,0.0223594,0.00841456,6.54451e-16,7.44076e-17,3.15671e-16,0.30087,-0.13373,-0.165142,0.0,0.0,0.0,0.29474,0.35103369574084,0.0,0.0,-0.1251737641975459,0.0,-0.15222668827000496
424,0.4146,1032.38,0.0222994,0.00839056,-4.10461e-16,3.02346e-17,2.08391e-15,0.301689,-0.134095,-0.165595,0.0,0.0,0.0,0.295553,0.3521406455717324,0.0,0.0,-0.12549301750634057,0.0,-0.15261064260799517
425,0.4156,1032.84,0.0222395,0.00836665,4.10745e-14,9.04888e-16,-1.57563e-14,0.302507,-0.13446,-0.166047,0.0,0.0,0.0,0.296366,0.35324714911806154,0.0,0.0,-0.12581215430894122,0.0,-0.1529935760480593
426,0.4166,1033.3,0.0221799,0.00834284,-1.13068e-16,-1.82551e-16,2.63537e-14,0.303325,-0.134825,-0.166498,0.0,0.0,0.0,0.297178,0.3543545581545866,0.0,0.0,-0.12613117464786483,0.0,-0.15337548981723326
427,0.4176,1033.76,0.0221206,0.00831913,-6.12047e-16,-4.12366e-14,-1.39577e-14,0.304141,-0.13519,-0.166949,0.0,0.0,0.0,0.297989,0.3554601624992655,0.0,0.0,-0.12645007856561286,0.0,-0.15375723138213226
428,0.4186,1034.22,0.0220614,0.00829551,-5.75511e-16,8.14551e-16,-1.71367e-15,0.304957,-0.135554,-0.1674,0.0,0.0,0.0,0.2988,0.3565666693852767,0.0,0.0,-0.1267679928731008,0.0,-0.15413880082040288
429,0.4196,1034.67,0.0220025,0.00827199,-1.01034e-15,-2.50708e-16,2.19993e-15,0.305773,-0.135918,-0.167851,0.0,0.0,0.0,0.29961,0.357674079549394,0.0,0.0,-0.12708579148083943,0.0,-0.1545201982096569
430,0.4206,1035.13,0.0219437,0.00824856,-9.18547e-16,1.58966e-15,-2.69447e-15,0.306588,-0.136282,-0.168301,0.0,0.0,0.0,0.300419,0.3587810349472791,0.0,0.0,-0.12740347443093591,0.0,-0.15490057852847194
431,0.4216,1035.58,0.0218853,0.00822522,-8.39493e-16,-4.15929e-14,1.02028e-14,0.307402,-0.136646,-0.168751,0.0,0.0,0.0,0.301228,0.3598875329933342,0.0,0.0,-0.1277210417654817,0.0,-0.15528078771465126
432,0.4226,1036.03,0.021827,0.00820198,1.61626e-16,-3.90656e-16,3.87255e-16,0.308215,-0.137009,-0.1692,0.0,0.0,0.0,0.302036,0.3609935711012273,0.0,0.0,-0.12803762156461107,0.0,-0.1556599815055908
433,0.4236,1036.48,0.0217689,0.00817883,-2.70842e-15,-3.87045e-14,1.09762e-14,0.309028,-0.137372,-0.169649,0.0,0.0,0.0,0.302844,0.36210050878372946,0.0,0.0,-0.12835408646612845,0.0,-0.1560390050767354
434,0.4246,1036.93,0.0217111,0.00815577,-9.82119e-16,2.26521e-16,-3.51066e-15,0.30984,-0.137734,-0.170098,0.0,0.0,0.0,0.30365,0.3632069835648273,0.0,0.0,-0.1286695651817351,0.0,-0.15641785850449663
435,0.4256,1037.38,0.0216534,0.0081328,-4.27476e-16,1.82142e-16,-2.94531e-15,0.310652,-0.138097,-0.170546,0.0,0.0,0.0,0.304457,0.36431435716832006,0.0,0.0,-0.12898580072934973,0.0,-0.156795698661372
436,0.4266,1037.82,0.021596,0.00810992,-4.16112e-16,1.05851e-15,-4.29135e-15,0.311463,-0.138459,-0.170994,0.0,0.0,0.0,0.305262,0.3654212649024,0.0,0.0,-0.12930105080577925,0.0,-0.15717336958376837
437,0.4276,1038.27,0.0215388,0.00808713,-4.06334e-16,-2.98002e-17,9.4699e-16,0.312273,-0.13882,-0.171441,0.0,0.0,0.0,0.306067,0.3665277041743815,0.0,0.0,-0.129615316398086,0.0,-0.15755002889793612
438,0.4286,1038.71,0.0214818,0.00806444,-3.9792e-16,-3.43923e-17,1.70941e-15,0.313082,-0.139182,-0.171889,0.0,0.0,0.0,0.306871,0.3676336723908826,0.0,0.0,-0.1299303386310855,0.0,-0.1579273619560737
439,0.4296,1039.15,0.021425,0.00804183,-3.90682e-16,-3.82736e-17,1.43967e-15,0.313891,-0.139543,-0.172336,0.0,0.0,0.0,0.307675,0.36874053569768606,0.0,0.0,-0.13024437709148717,0.0,-0.15830368431096697
440,0.4306,1039.59,0.0213685,0.00801931,-8.51606e-16,8.7297e-16,-2.42953e-15,0.314699,-0.139904,-0.172782,0.0,0.0,0.0,0.308478,0.369846924971603,0.0,0.0,-0.13055830220446496,0.0,-0.15867899716677614
441,0.4316,1040.03,0.0213121,0.00799688,-7.8215e-16,-1.86716e-16,-2.0413e-15,0.315507,-0.140264,-0.173228,0.0,0.0,0.0,0.30928,0.3709542085693114,0.0,0.0,-0.13087124488260948,0.0,-0.159054142670374
442,0.4326,1040.47,0.0212559,0.00797454,2.12385e-16,-1.67126e-16,-8.03364e-16,0.316314,-0.140624,-0.173674,0.0,0.0,0.0,0.310081,0.3720610151520156,0.0,0.0,-0.13118407492166617,0.0,-0.15942912089638284
443,0.4336,1040.91,0.0212,0.00795228,-3.31275e-16,7.6447e-16,1.14918e-15,0.31712,-0.140984,-0.174119,0.0,0.0,0.0,0.310882,0.37316734212010383,0.0,0.0,-0.1314967923621777,0.0,-0.15980309172290375
444,0.4346,1041.34,0.0211442,0.00793011,-1.26813e-15,-1.19383e-15,-8.52939e-16,0.317926,-0.141344,-0.174564,0.0,0.0,0.0,0.311683,0.37427456114717983,0.0,0.0,-0.13180939724467233,0.0,-0.1601768961694291
445,0.4356,1041.78,0.0210887,0.00790803,-2.07715e-15,-1.03074e-16,-7.15512e-16,0.318731,-0.141703,-0.175009,0.0,0.0,0.0,0.312482,0.3753812975705475,0.0,0.0,-0.13212102173111928,0.0,-0.16055053430998167
446,0.4366,1042.21,0.0210334,0.00788604,-4.37803e-16,-9.64147e-17,1.22411e-15,0.319535,-0.142063,-0.175453,0.0,0.0,0.0,0.313282,0.37648754878719193,0.0,0.0,-0.13243340193148634,0.0,-0.16092316714213772
447,0.4376,1042.64,0.0209782,0.00786413,-4.24844e-16,-9.07867e-17,-7.90179e-16,0.320338,-0.142421,-0.175897,0.0,0.0,0.0,0.31408,0.3775933121934585,0.0,0.0,-0.13274393518482597,0.0,-0.16129563456204044
448,0.4386,1043.07,0.0209233,0.00784231,-4.13668e-16,8.29874e-16,2.4861e-16,0.321142,-0.14278,-0.176341,0.0,0.0,0.0,0.314878,0.3787013425849919,0.0,0.0,-0.13305522423236726,0.0,-0.16166793664311674
449,0.4396,1043.5,0.0208686,0.00782057,5.31663e-16,-2.2344e-16,-3.43652e-15,0.321944,-0.143138,-0.176784,0.0,0.0,0.0,0.315675,0.3798075045734117,0.0,0.0,-0.13336553491316605,0.0,-0.16203923549841515
450,0.4406,1043.93,0.020814,0.00779891,-5.23068e-16,-1.11467e-15,7.56649e-16,0.322746,-0.143496,-0.177227,0.0,0.0,0.0,0.316471,0.3809145540595853,0.0,0.0,-0.13367573452262393,0.0,-0.16241036990474877
451,0.4416,1044.35,0.0207597,0.00777734,-4.98758e-16,-9.52483e-16,1.55287e-15,0.323547,-0.143854,-0.17767,0.0,0.0,0.0,0.317267,0.3820211097337707,0.0,0.0,-0.13398582310049756,0.0,-0.16278133993495236
452,0.4426,1044.78,0.0207055,0.00775585,-4.77762e-16,-8.15198e-16,-1.42652e-15,0.324347,-0.144211,-0.178112,0.0,0.0,0.0,0.318063,0.383127168986269,0.0,0.0,-0.13429493498189693,0.0,-0.16315130881355577
453,0.4436,1045.2,0.0206516,0.00773445,-9.27779e-16,2.17778e-16,-2.11296e-15,0.325147,-0.144568,-0.178554,0.0,0.0,0.0,0.318857,0.38423411344020253,0.0,0.0,-0.1346039365300502,0.0,-0.16352111420204873
454,0.4446,1045.63,0.0205979,0.00771313,5.55943e-16,1.09244e-15,-8.65272e-16,0.325946,-0.144925,-0.178995,0.0,0.0,0.0,0.319651,0.3853405584627647,0.0,0.0,-0.13491282778433933,0.0,-0.16388992006301617
455,0.4456,1046.05,0.0205443,0.00769189,-5.02281e-16,9.16088e-16,1.86292e-16,0.326745,-0.145282,-0.179436,0.0,0.0,0.0,0.320444,0.38644788788817186,0.0,0.0,-0.13522160878413247,0.0,-0.1642585633164565
456,0.4466,1046.47,0.0204909,0.00767073,4.55784e-16,-1.06781e-15,1.59446e-16,0.327542,-0.145638,-0.179877,0.0,0.0,0.0,0.321237,0.38755332731391445,0.0,0.0,-0.13552941509863048,0.0,-0.1646270440340638
457,0.4476,1046.89,0.0204378,0.00764965,-5.89127e-16,-4.21977e-14,1.17473e-14,0.32834,-0.145994,-0.180318,0.0,0.0,0.0,0.322029,0.38866103678640784,0.0,0.0,-0.13583711185358327,0.0,-0.16499536228750067
458,0.4486,1047.31,0.0203848,0.00762866,-1.02482e-15,-4.30985e-14,-1.08343e-14,0.329136,-0.146349,-0.180758,0.0,0.0,0.0,0.322821,0.3897668510273691,0.0,0.0,-0.13614383523225426,0.0,-0.16536268351149874
459,0.4496,1047.72,0.020332,0.00760774,3.88684e-18,1.90604e-16,-3.15925e-14,0.329932,-0.146705,-0.181197,0.0,0.0,0.0,0.323612,0.39087354584689016,0.0,0.0,-0.13645131329256954,0.0,-0.16572900887913578
460,0.4506,1048.14,0.0202794,0.0075869,-5.117e-16,-7.49344e-16,-5.6413e-15,0.330728,-0.14706,-0.181637,0.0,0.0,0.0,0.324402,0.3919811219461904,0.0,0.0,-0.1367578186684275,0.0,-0.16609600736964014
461,0.4516,1048.55,0.020227,0.00756615,-4.89337e-16,2.8993e-16,1.63945e-15,0.331522,-0.147415,-0.182076,0.0,0.0,0.0,0.325191,0.3930867938506737,0.0,0.0,-0.13706421525418844,0.0,-0.16646201087875656
462,0.4526,1048.97,0.0201748,0.00754547,-1.40765e-15,-4.01501e-14,-1.20632e-14,0.332316,-0.147769,-0.182515,0.0,0.0,0.0,0.32598,0.39419334400726913,0.0,0.0,-0.13736964045853772,0.0,-0.16682785374759568
463,0.4536,1049.38,0.0201228,0.00752487,-7.96245e-16,8.62132e-16,-1.95514e-15,0.33311,-0.148124,-0.182953,0.0,0.0,0.0,0.326769,0.395300773113586,0.0,0.0,-0.137675819886111,0.0,-0.16719270323978253
464,0.4546,1049.79,0.0200709,0.00750436,-7.35666e-16,-2.03815e-14,-6.0124e-16,0.333903,-0.148478,-0.183391,0.0,0.0,0.0,0.327557,0.3964076854594034,0.0,0.0,-0.13798102862073802,0.0,-0.16755739296288386
465,0.4556,1050.2,0.0200193,0.00748391,-2.14156e-16,1.82171e-16,1.32413e-15,0.334695,-0.148831,-0.183829,0.0,0.0,0.0,0.328344,0.39751407842006636,0.0,0.0,-0.1382852676162929,0.0,-0.16792192298686315
466,0.4566,1050.61,0.0199678,0.00746355,-7.00564e-16,2.01068e-15,1.12123e-15,0.335487,-0.149185,-0.184266,0.0,0.0,0.0,0.32913,0.39862134799104587,0.0,0.0,-0.13859026064460567,0.0,-0.16828546166753078
467,0.4576,1051.02,0.0199165,0.00744326,2.85499e-16,2.64351e-15,-8.80061e-16,0.336277,-0.149538,-0.184703,0.0,0.0,0.0,0.329916,0.3997266954107024,0.0,0.0,-0.1388942846192096,0.0,-0.16864884151650217
468,0.4586,1051.43,0.0198654,0.00742305,-1.20624e-15,4.22995e-16,1.73594e-16,0.337068,-0.149891,-0.18514,0.0,0.0,0.0,0.330701,0.40083431723345164,0.0,0.0,-0.13919820129229032,0.0,-0.1690120626031717
469,0.4596,1051.83,0.0198145,0.00740292,3.16701e-16,1.2959e-15,-7.66487e-16,0.337857,-0.150243,-0.185576,0.0,0.0,0.0,0.331486,0.40194001164883586,0.0,0.0,-0.13950115020329912,0.0,-0.169374294371613
470,0.4606,1052.24,0.0197637,0.00738286,-1.64887e-15,-4.30212e-14,-1.13685e-14,0.338647,-0.150596,-0.186012,0.0,0.0,0.0,0.33227,0.40304798184864365,0.0,0.0,-0.13980485269063458,0.0,-0.16973636824142768
471,0.4616,1052.64,0.0197132,0.00736288,-5.36335e-16,1.19446e-15,-2.57016e-14,0.339435,-0.150948,-0.186447,0.0,0.0,0.0,0.333053,0.40415401937989537,0.0,0.0,-0.14010758809793,0.0,-0.17009745437931378
472,0.4626,1053.04,0.0196628,0.00734298,-9.80192e-16,-1.72008e-15,2.35298e-14,0.340223,-0.1513,-0.186883,0.0,0.0,0.0,0.333836,0.40526092881220577,0.0,0.0,-0.1404102169611149,0.0,-0.17045921302008993
473,0.4636,1053.44,0.0196126,0.00732315,-4.25937e-16,-5.1615e-16,-2.5368e-14,0.34101,-0.151651,-0.187318,0.0,0.0,0.0,0.334618,0.40636730446489566,0.0,0.0,-0.1407118800299958,0.0,-0.1708199847888776
474,0.4646,1053.84,0.0195625,0.00730339,-8.84541e-16,-4.18224e-14,-1.20354e-14,0.341797,-0.152002,-0.187752,0.0,0.0,0.0,0.3354,0.4074745511779416,0.0,0.0,-0.14101343723372006,0.0,-0.17117977083625957
475,0.4656,1054.24,0.0195127,0.00728371,-3.42911e-16,-5.38968e-16,-1.03297e-16,0.342583,-0.152353,-0.188186,0.0,0.0,0.0,0.336181,0.40858126105517245,0.0,0.0,-0.14131488860943964,0.0,-0.1715394007703761
476,0.4666,1054.64,0.019463,0.0072641,-1.28246e-15,-4.55306e-14,-1.63215e-14,0.343368,-0.152704,-0.18862,0.0,0.0,0.0,0.336961,0.4096874314601806,0.0,0.0,-0.1416162341942937,0.0,-0.17189887465896547
477,0.4676,1055.04,0.0194135,0.00724456,4.30145e-14,9.19919e-16,9.22834e-15,0.344153,-0.153054,-0.189054,0.0,0.0,0.0,0.337741,0.4107944705498707,0.0,0.0,-0.14191661594245342,0.0,-0.17225819256973685
478,0.4686,1055.43,0.0193642,0.0072251,4.43369e-14,-4.06142e-14,-2.51902e-14,0.344937,-0.153404,-0.189487,0.0,0.0,0.0,0.33852,0.4119009671047551,0.0,0.0,-0.1422168925753975,0.0,-0.1726165271873108
479,0.4696,1055.83,0.019315,0.00720571,4.17245e-14,-4.3704e-14,-2.40791e-14,0.34572,-0.153754,-0.18992,0.0,0.0,0.0,0.339299,0.4130069184854599,0.0,0.0,-0.14251706412990972,0.0,-0.17297470667958237
480,0.4706,1056.22,0.0192661,0.00718639,-1.44561e-15,6.47129e-16,7.01688e-16,0.346503,-0.154104,-0.190352,0.0,0.0,0.0,0.340077,0.4141137361652074,0.0,0.0,-0.14281713064276136,0.0,-0.1733319044460241
481,0.4716,1056.61,0.0192172,0.00716715,4.09989e-14,-4.08519e-14,2.81141e-14,0.347285,-0.154453,-0.190785,0.0,0.0,0.0,0.340854,0.41522000560186245,0.0,0.0,-0.14311623526737416,0.0,-0.17368977424699572
482,0.4726,1057.01,0.0191686,0.00714798,4.30644e-14,1.23871e-15,1.30731e-14,0.348067,-0.154802,-0.191216,0.0,0.0,0.0,0.341631,0.4163271404795603,0.0,0.0,-0.14341523552268642,0.0,-0.17404583721721334
483,0.4736,1057.4,0.0191201,0.00712887,4.01553e-14,-4.12768e-14,-2.29385e-15,0.348848,-0.155151,-0.191648,0.0,0.0,0.0,0.342407,0.41743372404090784,0.0,0.0,-0.1437141314451167,0.0,-0.17440257235519774
484,0.4746,1057.79,0.0190718,0.00710984,4.2332e-14,3.65013e-15,-1.87284e-14,0.349629,-0.155499,-0.192079,0.0,0.0,0.0,0.343182,0.41854117218159104,0.0,0.0,-0.14401206708356595,0.0,-0.1747583281756262
485,0.4756,1058.17,0.0190237,0.00709088,-2.82536e-15,-4.01529e-14,1.0481e-14,0.350408,-0.155848,-0.19251,0.0,0.0,0.0,0.343957,0.41964664628097825,0.0,0.0,-0.1443107547481246,0.0,-0.17511393069833403
486,0.4766,1058.56,0.0189758,0.00707199,-1.60313e-15,4.61505e-15,-1.21279e-15,0.351188,-0.156195,-0.19294,0.0,0.0,0.0,0.344731,0.42075440263389186,0.0,0.0,-0.144607627405842,0.0,-0.17546855545834628
487,0.4776,1058.95,0.018928,0.00705317,-1.95267e-15,1.24104e-15,2.59933e-14,0.351966,-0.156543,-0.193371,0.0,0.0,0.0,0.345505,0.4218601796506247,0.0,0.0,-0.14490525216179362,0.0,-0.17582385193905203
488,0.4786,1059.33,0.0188803,0.00703442,-1.78587e-15,1.13427e-15,-3.67106e-15,0.352744,-0.156891,-0.193801,0.0,0.0,0.0,0.346278,0.4229668172966181,0.0,0.0,-0.14520277336234988,0.0,-0.17617817149855353
489,0.4796,1059.72,0.0188329,0.00701573,-2.58241e-15,1.96589e-15,-3.11482e-15,0.353522,-0.157238,-0.19423,0.0,0.0,0.0,0.347051,0.424074316241702,0.0,0.0,-0.1454993365433055,0.0,-0.1765315152653235
490,0.4806,1060.1,0.0187856,0.00699712,-1.39177e-15,2.67452e-15,1.95099e-15,0.354299,-0.157585,-0.194659,0.0,0.0,0.0,0.347823,0.42518125197426304,0.0,0.0,-0.14579579683468968,0.0,-0.17688470748012775
491,0.4816,1060.48,0.0187384,0.00697858,-1.76899e-15,3.27845e-15,-1.82922e-16,0.355075,-0.157931,-0.195088,0.0,0.0,0.0,0.348594,0.4262876218417846,0.0,0.0,-0.14609130036392626,0.0,-0.17723774820796823
492,0.4826,1060.87,0.0186915,0.0069601,-1.62617e-15,1.94717e-15,7.63648e-16,0.35585,-0.158277,-0.195517,0.0,0.0,0.0,0.349365,0.4273934231913872,0.0,0.0,-0.14638670166662793,0.0,-0.17759063751381865
493,0.4836,1061.25,0.0186447,0.00694169,-1.50194e-15,1.73541e-15,-3.03039e-15,0.356625,-0.158624,-0.195945,0.0,0.0,0.0,0.350135,0.42850008186920774,0.0,0.0,-0.14668285409573156,0.0,-0.17794255340558984
494,0.4846,1061.63,0.018598,0.00692335,-2.33612e-15,1.55486e-15,2.94375e-15,0.3574,-0.158969,-0.196373,0.0,0.0,0.0,0.350904,0.4296075985399326,0.0,0.0,-0.1469771977338714,0.0,-0.17829431870958734
495,0.4856,1062.0,0.0185515,0.00690507,4.12292e-14,5.09486e-15,1.19562e-14,0.358174,-0.159315,-0.1968,0.0,0.0,0.0,0.351673,0.430714543153506,0.0,0.0,-0.14727229256910512,0.0,-0.17864511213577194
496,0.4866,1062.38,0.0185052,0.00688687,-1.90829e-15,3.49606e-15,2.25007e-14,0.358947,-0.15966,-0.197227,0.0,0.0,0.0,0.352442,0.431820913052239,0.0,0.0,-0.14756643288604654,0.0,-0.17899575580513882
497,0.4876,1062.76,0.018459,0.00686873,-2.22501e-15,2.13214e-15,-2.05077e-16,0.359719,-0.160005,-0.197654,0.0,0.0,0.0,0.353209,0.43292670557811075,0.0,0.0,-0.14786047174208172,0.0,-0.17934624978162061
498,0.4886,1063.13,0.018413,0.00685065,-2.97217e-15,2.81629e-15,1.66549e-15,0.360491,-0.16035,-0.198081,0.0,0.0,0.0,0.353977,0.4340333521054145,0.0,0.0,-0.14815440917220846,0.0,-0.17969659412912253
499,0.4896,1063.51,0.0183672,0.00683264,-2.20842e-15,1.55193e-15,-4.2568e-16,0.361263,-0.160694,-0.198507,0.0,0.0,0.0,0.354743,0.43514085329369423,0.0,0.0,-0.14844739365923232,0.0,-0.18004596895790137
500,0.4906,1063.88,0.0183215,0.0068147,-1.54332e-15,1.39705e-15,-1.28315e-15,0.362034,-0.161038,-0.198933,0.0,0.0,0.0,0.355509,0.43624777355451094,0.0,0.0,-0.14874027737692586,0.0,-0.18039519498470025
501,0.4916,1064.25,0.018276,0.00679682,4.19509e-14,3.57584e-15,1.48188e-14,0.362804,-0.161382,-0.199358,0.0,0.0,0.0,0.356275,0.43735411022510395,0.0,0.0,-0.1490330603599479,0.0,-0.18074345301675798
502,0.4926,1064.63,0.0182306,0.00677901,-2.2292e-15,-1.11234e-16,-2.91043e-16,0.363574,-0.161726,-0.199784,0.0,0.0,0.0,0.35704,0.4384612991029908,0.0,0.0,-0.14932574264294518,0.0,-0.1810923819786271
503,0.4936,1065.0,0.0181854,0.00676126,1.87166e-14,2.75085e-15,8.1701e-15,0.364343,-0.162069,-0.200209,0.0,0.0,0.0,0.357804,0.439567901276003,0.0,0.0,-0.1496174738784516,0.0,-0.18144034376916807
504,0.4946,1065.37,0.0181403,0.00674357,-2.19079e-15,2.4207e-15,3.26536e-15,0.365111,-0.162413,-0.200633,0.0,0.0,0.0,0.358567,0.4406739140787366,0.0,0.0,-0.14990995515777306,0.0,-0.1817873394951176
505,0.4956,1065.74,0.0180954,0.00672595,-2.48082e-15,3.06369e-15,-1.82938e-15,0.365879,-0.162755,-0.201057,0.0,0.0,0.0,0.35933,0.4417807766255626,0.0,0.0,-0.15020063624381008,0.0,-0.18213418812606563
506,0.4966,1066.1,0.0180506,0.0067084,-2.26171e-15,1.76272e-15,3.02885e-14,0.366646,-0.163098,-0.201481,0.0,0.0,0.0,0.360093,0.44288704668156686,0.0,0.0,-0.15049206744227073,0.0,-0.18248088972436727
507,0.4976,1066.47,0.018006,0.0066909,4.2297e-14,-4.145e-14,-3.04329e-14,0.367413,-0.16344,-0.201905,0.0,0.0,0.0,0.360855,0.4439941655721906,0.0,0.0,-0.15078254947994574,0.0,-0.1828274443523512
508,0.4986,1066.84,0.0179616,0.00667347,-1.46492e-15,3.05956e-15,2.89941e-14,0.368179,-0.163783,-0.202328,0.0,0.0,0.0,0.361616,0.44510068884732834,0.0,0.0,-0.15107378111639325,0.0,-0.18317303524576323
509,0.4996,1067.2,0.0179172,0.0066561,-1.85454e-15,3.15487e-15,-5.74041e-15,0.368944,-0.164124,-0.202751,0.0,0.0,0.0,0.362377,0.4462066138366705,0.0,0.0,-0.15136321560564747,0.0,-0.18351847998514104
510,0.5006,1067.57,0.0178731,0.0066388,4.172e-14,4.16208e-15,-1.52899e-14,0.369709,-0.164466,-0.203174,0.0,0.0,0.0,0.363137,0.44731338518231945,0.0,0.0,-0.1516533997615912,0.0,-0.18386377863229475
511,0.5016,1067.93,0.0178291,0.00662156,4.24184e-14,3.17147e-15,-1.32805e-14,0.370474,-0.164807,-0.203596,0.0,0.0,0.0,0.363897,0.44842100353198555,0.0,0.0,-0.15194263663458296,0.0,-0.18420811545753168
512,0.5026,1068.29,0.0177852,0.00660437,4.25552e-14,3.25037e-15,1.29268e-14,0.371238,-0.165148,-0.204018,0.0,0.0,0.0,0.364656,0.4495280200051299,0.0,0.0,-0.15223177489461548,0.0,-0.18455230700328462
513,0.5036,1068.65,0.0177415,0.00658726,4.17298e-14,2.85475e-15,-1.41537e-14,0.372001,-0.165489,-0.20444,0.0,0.0,0.0,0.365414,0.45063443192686536,0.0,0.0,-0.15252081457530997,0.0,-0.1848963533308483
514,0.5046,1069.01,0.017698,0.0065702,-3.87451e-15,3.44265e-15,-2.83384e-15,0.372763,-0.16583,-0.204861,0.0,0.0,0.0,0.366172,0.45174023662207596,0.0,0.0,-0.15280975571027644,0.0,-0.18523943974133916
515,0.5056,1069.37,0.0176545,0.0065532,-3.03717e-15,3.94562e-15,2.10443e-14,0.373525,-0.16617,-0.205282,0.0,0.0,0.0,0.366929,0.45284688426158537,0.0,0.0,-0.153097751431288,0.0,-0.18558238174285147
516,0.5066,1069.73,0.0176113,0.00653626,3.78557e-14,3.91268e-15,-1.27796e-14,0.374287,-0.16651,-0.205703,0.0,0.0,0.0,0.367686,0.4539543754879616,0.0,0.0,-0.15338564925039866,0.0,-0.1859251793961686
517,0.5076,1070.09,0.0175682,0.00651939,-2.54425e-15,2.03093e-15,2.54963e-14,0.375048,-0.16685,-0.206123,0.0,0.0,0.0,0.368442,0.45506125588227997,0.0,0.0,-0.15367344920088954,0.0,-0.18626701902947418
518,0.5086,1070.45,0.0175252,0.00650257,3.78188e-14,3.66441e-15,-1.91439e-14,0.375808,-0.167189,-0.206543,0.0,0.0,0.0,0.369198,0.45616752276491757,0.0,0.0,-0.1539603052767584,0.0,-0.18660871512027977
519,0.5096,1070.8,0.0174824,0.00648581,-3.52779e-15,1.81811e-15,2.14359e-15,0.376568,-0.167528,-0.206963,0.0,0.0,0.0,0.369953,0.4572746307299569,0.0,0.0,-0.15424706412489864,0.0,-0.1869502677288607
520,0.5106,1071.16,0.0174397,0.00646912,-4.17293e-15,3.48246e-15,2.6231e-14,0.377327,-0.167867,-0.207382,0.0,0.0,0.0,0.370707,0.458381122035012,0.0,0.0,-0.15453372577826474,0.0,-0.18729086420673724
521,0.5116,1071.51,0.0173971,0.00645248,-8.51982e-15,-4.19234e-14,8.25215e-15,0.378085,-0.168206,-0.207801,0.0,0.0,0.0,0.371461,0.45948699399803905,0.0,0.0,-0.15482029026980026,0.0,-0.1876313180045831
522,0.5126,1071.87,0.0173547,0.0064359,-3.33047e-15,2.66118e-15,3.3447e-15,0.378843,-0.168545,-0.20822,0.0,0.0,0.0,0.372214,0.4605937045297914,0.0,0.0,-0.15510675763243742,0.0,-0.1879716291821686
523,0.5136,1072.22,0.0173125,0.00641938,-3.52712e-15,2.82098e-15,-1.76693e-15,0.379601,-0.168883,-0.208639,0.0,0.0,0.0,0.372967,0.4617012542661454,0.0,0.0,-0.15539228329180288,0.0,-0.18831179779923934
524,0.5146,1072.57,0.0172703,0.00640292,-3.699e-15,-4.25034e-14,1.20874e-14,0.380357,-0.169221,-0.209057,0.0,0.0,0.0,0.373719,0.46280671822709674,0.0,0.0,-0.15567771245980344,0.0,-0.18865101256693373
525,0.5156,1072.92,0.0172284,0.00638652,-2.90289e-15,3.56364e-15,-8.16993e-15,0.381114,-0.169558,-0.209475,0.0,0.0,0.0,0.374471,0.4639144821485386,0.0,0.0,-0.15596220113167092,0.0,-0.18899008557248553
526,0.5166,1073.27,0.0171865,0.00637017,-3.62683e-15,3.60191e-15,-2.35344e-15,0.381869,-0.169896,-0.209892,0.0,0.0,0.0,0.375222,0.4650201549215107,0.0,0.0,-0.15624743769999283,0.0,-0.18932820620375057
527,0.5176,1073.62,0.0171448,0.00635389,4.1651e-14,3.6347e-15,1.48901e-14,0.382624,-0.170233,-0.210309,0.0,0.0,0.0,0.375972,0.46612666279263637,0.0,0.0,-0.15653173440680224,0.0,-0.18966618586810602
528,0.5186,1073.97,0.0171033,0.00633766,-3.02352e-15,2.73445e-15,-2.08068e-15,0.383379,-0.17057,-0.210726,0.0,0.0,0.0,0.376722,0.4672340063926528,0.0,0.0,-0.1568159353217632,0.0,-0.19000402462432286
529,0.5196,1074.32,0.0170619,0.00632148,-3.2653e-15,1.96254e-15,7.19872e-17,0.384133,-0.170907,-0.211143,0.0,0.0,0.0,0.377472,0.46834071801132104,0.0,0.0,-0.15710004047715231,0.0,-0.19034172253114745
530,0.5206,1074.67,0.0170206,0.00630537,-3.47678e-15,4.08649e-15,3.76076e-15,0.384886,-0.171243,-0.211559,0.0,0.0,0.0,0.37822,0.46944679495769104,0.0,0.0,-0.15738320728886357,0.0,-0.1906784703261768
531,0.5216,1075.01,0.0169794,0.00628931,4.18e-14,4.05061e-15,1.45715e-14,0.385639,-0.171579,-0.211975,0.0,0.0,0.0,0.378969,0.4705537050936579,0.0,0.0,-0.1576662789725085,0.0,-0.19101507806325746
532,0.5226,1075.36,0.0169384,0.0062733,4.2095e-14,4.0198e-15,-1.64915e-14,0.386391,-0.171915,-0.212391,0.0,0.0,0.0,0.379716,0.47165997738613696,0.0,0.0,-0.1579492555600448,0.0,-0.1913515458006414
533,0.5236,1075.7,0.0168975,0.00625736,-4.0685e-15,2.59976e-15,-2.12778e-16,0.387143,-0.172251,-0.212806,0.0,0.0,0.0,0.380463,0.472767081908259,0.0,0.0,-0.15823213708341932,0.0,-0.1916870652840259
534,0.5246,1076.05,0.0168568,0.00624146,4.1288e-14,4.63344e-15,1.58102e-14,0.387894,-0.172586,-0.213221,0.0,0.0,0.0,0.38121,0.4738735454118137,0.0,0.0,-0.15851408208907125,0.0,-0.19202244555571324
535,0.5256,1076.39,0.0168162,0.00622563,-3.83332e-15,3.12605e-15,-1.29584e-15,0.388645,-0.172921,-0.213636,0.0,0.0,0.0,0.381956,0.47498084018156117,0.0,0.0,-0.15879593265896497,0.0,-0.1923576866734643
536,0.5266,1076.73,0.0167757,0.00620985,4.14996e-14,4.15588e-15,-1.34021e-14,0.389395,-0.173256,-0.21405,0.0,0.0,0.0,0.382701,0.47608749075378776,0.0,0.0,-0.1590776888247315,0.0,-0.19269198138740096
537,0.5276,1077.07,0.0167354,0.00619412,6.11125e-16,2.25106e-15,-3.23475e-14,0.390144,-0.173591,-0.214464,0.0,0.0,0.0,0.383446,0.47719349443103365,0.0,0.0,-0.15935935061799067,0.0,-0.19302613773197053
538,0.5286,1077.41,0.0166952,0.00617845,4.16036e-14,4.79951e-15,-1.31051e-14,0.390893,-0.173926,-0.214878,0.0,0.0,0.0,0.38419,0.47830032681534584,0.0,0.0,-0.1596409180703522,0.0,-0.19336015576444598
539,0.5296,1077.75,0.0166551,0.00616284,4.0518e-14,4.1982e-15,1.22027e-14,0.391642,-0.17426,-0.215292,0.0,0.0,0.0,0.384934,0.47940798852765854,0.0,0.0,-0.15992155113538598,0.0,-0.19369403554207676
540,0.5306,1078.09,0.0166152,0.00614727,4.09894e-14,4.14675e-15,-1.29783e-14,0.392389,-0.174594,-0.215705,0.0,0.0,0.0,0.385677,0.4805135191593717,0.0,0.0,-0.1602020904846274,0.0,-0.19402697114946255
541,0.5316,1078.43,0.0165754,0.00613177,4.14022e-14,3.63743e-15,-1.69226e-14,0.393137,-0.174927,-0.216118,0.0,0.0,0.0,0.38642,0.4816213575516082,0.0,0.0,-0.1604816966314888,0.0,-0.19435976928283283
542,0.5326,1078.77,0.0165357,0.00611631,4.0815e-14,-4.14553e-14,2.44295e-14,0.393883,-0.175261,-0.21653,0.0,0.0,0.0,0.387162,0.48272705945987515,0.0,0.0,-0.16076204892337487,0.0,-0.19469162469098
543,0.5336,1079.1,0.0164962,0.00610091,-4.75932e-15,3.54069e-15,-2.58294e-14,0.394629,-0.175594,-0.216942,0.0,0.0,0.0,0.387904,0.48383358652951247,0.0,0.0,-0.16104146863511937,0.0,-0.19502334340286043
544,0.5346,1079.44,0.0164567,0.00608556,-4.84123e-15,5.4504e-15,-7.90443e-16,0.395375,-0.175927,-0.217354,0.0,0.0,0.0,0.388645,0.48494093937632043,0.0,0.0,-0.1613207953155904,0.0,-0.19535492547478128
545,0.5356,1079.77,0.0164174,0.00607027,-4.91305e-15,4.29955e-15,3.41412e-14,0.39612,-0.176259,-0.217766,0.0,0.0,0.0,0.389385,0.48604763256818284,0.0,0.0,-0.16159919059537198,0.0,-0.19568637096302677
546,0.5366,1080.11,0.0163783,0.00605503,-4.50154e-15,4.24109e-15,-4.14689e-15,0.396864,-0.176592,-0.218177,0.0,0.0,0.0,0.390125,0.4871536633992637,0.0,0.0,-0.16187833158534948,0.0,-0.19601687594113548
547,0.5376,1080.44,0.0163393,0.00603984,-5.56459e-15,3.72529e-15,2.01292e-15,0.397608,-0.176924,-0.218588,0.0,0.0,0.0,0.390864,0.4882605174234729,0.0,0.0,-0.1621565417938131,0.0,-0.196347245109609
548,0.5386,1080.77,0.0163004,0.0060247,-5.07262e-15,2.81618e-15,2.53094e-14,0.398351,-0.177256,-0.218999,0.0,0.0,0.0,0.391603,0.48936670588604314,0.0,0.0,-0.16243465965181847,0.0,-0.19667747852425366
549,0.5396,1081.1,0.0162616,0.00600962,-1.31859e-15,3.89688e-15,-4.29348e-15,0.399094,-0.177588,-0.21941,0.0,0.0,0.0,0.392341,0.49047371655205185,0.0,0.0,-0.16271268519002102,0.0,-0.19700757624085274
550,0.5406,1081.44,0.0162229,0.00599459,-6.09768e-15,-4.22099e-14,-1.26918e-14,0.399836,-0.177919,-0.21982,0.0,0.0,0.0,0.393079,0.49158005845181907,0.0,0.0,-0.16298978142926557,0.0,-0.1973367356523037
551,0.5416,1081.77,0.0161844,0.00597961,-5.06581e-15,3.82978e-15,-4.38108e-15,0.400578,-0.17825,-0.220229,0.0,0.0,0.0,0.393816,0.49268722156190714,0.0,0.0,-0.1632667859648328,0.0,-0.1976649578014169
552,0.5426,1082.1,0.016146,0.00596468,1.81578e-14,3.84464e-15,6.58152e-15,0.401319,-0.178581,-0.220639,0.0,0.0,0.0,0.394553,0.4937937126974208,0.0,0.0,-0.16354369882707143,0.0,-0.1979938477416734
553,0.5436,1082.42,0.0161077,0.0059498,4.18528e-14,5.13801e-14,2.79103e-14,0.40206,-0.178912,-0.221048,0.0,0.0,0.0,0.395289,0.4949010240467173,0.0,0.0,-0.16382052004632053,0.0,-0.1983218011868958
554,0.5446,1082.75,0.0160696,0.00593497,-5.28362e-15,4.22004e-15,-2.101e-16,0.4028,-0.179243,-0.221457,0.0,0.0,0.0,0.396024,0.4960076602093928,0.0,0.0,-0.16409724965290873,0.0,-0.19864962052658552
555,0.5456,1083.08,0.0160315,0.0059202,-4.836e-15,4.17278e-15,2.60535e-15,0.403539,-0.179573,-0.221866,0.0,0.0,0.0,0.39676,0.497113618471533,0.0,0.0,-0.1643730520506248,0.0,-0.1989773058155806
556,0.5466,1083.41,0.0159936,0.00590547,-3.96816e-15,4.13207e-15,-2.4096e-15,0.404278,-0.179903,-0.222274,0.0,0.0,0.0,0.397494,0.4982203943388972,0.0,0.0,-0.16464876344856527,0.0,-0.1993040564131533
557,0.5476,1083.73,0.0159559,0.00589079,-5.10726e-15,4.09698e-15,-2.9961e-15,0.405017,-0.180233,-0.222682,0.0,0.0,0.0,0.398228,0.4993279884159183,0.0,0.0,-0.16492438387675534,0.0,-0.1996306737236745
558,0.5486,1084.06,0.0159182,0.00587617,-5.15665e-15,3.60049e-15,-1.64135e-15,0.405754,-0.180562,-0.22309,0.0,0.0,0.0,0.398961,0.5004334004376754,0.0,0.0,-0.16519907856470595,0.0,-0.19995715780151446
559,0.5496,1084.38,0.0158807,0.00586159,4.18534e-14,4.57179e-15,1.74289e-14,0.406492,-0.180891,-0.223497,0.0,0.0,0.0,0.399694,0.5015411289887572,0.0,0.0,-0.16547368289296926,0.0,-0.2002827089841296
560,0.5506,1084.7,0.0158432,0.00584707,4.17695e-14,4.94202e-15,-1.6893e-14,0.407228,-0.18122,-0.223904,0.0,0.0,0.0,0.400426,0.5026466700488974,0.0,0.0,-0.16574819689126863,0.0,-0.20060812769437342
561,0.5516,1085.03,0.015806,0.00583259,4.07449e-14,5.26092e-15,-1.8471e-14,0.407965,-0.181549,-0.224311,0.0,0.0,0.0,0.401158,0.5037545288405421,0.0,0.0,-0.16602262058931772,0.0,-0.20093341398615117
562,0.5526,1085.35,0.0157688,0.00581816,4.12712e-14,5.06912e-15,1.13558e-14,0.4087,-0.181878,-0.224717,0.0,0.0,0.0,0.401889,0.5048601947016682,0.0,0.0,-0.16629695401682054,0.0,-0.20125776917151472
563,0.5536,1085.67,0.0157317,0.00580378,4.12576e-14,5.37036e-15,-1.56067e-14,0.409435,-0.182206,-0.225124,0.0,0.0,0.0,0.40262,0.5059666735259294,0.0,0.0,-0.1665703637742516,0.0,-0.20158279111301014
564,0.5546,1085.99,0.0156948,0.00578945,4.07699e-14,6.09657e-15,-3.54399e-14,0.41017,-0.182534,-0.225529,0.0,0.0,0.0,0.40335,0.5070739659110737,0.0,0.0,-0.16684368386798787,0.0,-0.20190608461125703
565,0.5556,1086.31,0.015658,0.00577517,4.08168e-14,5.32236e-15,-1.48808e-14,0.410904,-0.182862,-0.225935,0.0,0.0,0.0,0.40408,0.5081805642739694,0.0,0.0,-0.16711691432743414,0.0,-0.2022300449725014
566,0.5566,1086.63,0.0156213,0.00576094,-6.23689e-15,5.12162e-15,-2.1551e-14,0.411638,-0.183189,-0.22634,0.0,0.0,0.0,0.404809,0.5092879751782295,0.0,0.0,-0.1673892225716247,0.0,-0.20255307638601094
567,0.5576,1086.95,0.0155847,0.00574675,1.71207e-14,5.41532e-15,1.23115e-14,0.412371,-0.183517,-0.226745,0.0,0.0,0.0,0.405537,0.5103946888250348,0.0,0.0,-0.1676622741237187,0.0,-0.20287597699828697
568,0.5586,1087.27,0.0155482,0.00573261,4.09781e-14,5.20163e-15,1.45524e-14,0.413103,-0.183844,-0.22715,0.0,0.0,0.0,0.406266,0.5115007024888698,0.0,0.0,-0.16793440406441007,0.0,-0.20319874686229333
569,0.5596,1087.58,0.0155119,0.00571852,-7.05609e-15,5.48424e-15,2.22088e-14,0.413835,-0.184171,-0.227554,0.0,0.0,0.0,0.406993,0.5126075260510936,0.0,0.0,-0.1682064450331585,0.0,-0.20352058955196017
570,0.5606,1087.9,0.0154756,0.00570448,4.0673e-14,6.19499e-15,-1.46703e-14,0.414566,-0.184497,-0.227959,0.0,0.0,0.0,0.40772,0.5137136463903653,0.0,0.0,-0.1684775655370344,0.0,-0.20384309840074144
571,0.5616,1088.22,0.0154395,0.00569049,-6.85452e-15,3.07126e-15,-4.23302e-15,0.415297,-0.184824,-0.228362,0.0,0.0,0.0,0.408446,0.514820575599211,0.0,0.0,-0.16874942892101796,0.0,-0.20416388498924676
572,0.5626,1088.53,0.0154035,0.00567654,3.94275e-14,4.5805e-15,1.04708e-14,0.416027,-0.18515,-0.228766,0.0,0.0,0.0,0.409172,0.5159267983415738,0.0,0.0,-0.16902037244099644,0.0,-0.20448533784186274
573,0.5636,1088.85,0.0153676,0.00566264,4.01318e-14,4.94839e-15,1.57734e-14,0.416757,-0.185476,-0.229169,0.0,0.0,0.0,0.409898,0.5170338289213634,0.0,0.0,-0.16929122764778315,0.0,-0.20480586566001902
574,0.5646,1089.16,0.0153318,0.00564878,4.31317e-14,5.26584e-15,1.00927e-14,0.417486,-0.185801,-0.229572,0.0,0.0,0.0,0.410623,0.5181401497876075,0.0,0.0,-0.16956116413174305,0.0,-0.2051262643314895
575,0.5656,1089.47,0.0152962,0.00563497,-7.09152e-15,4.60507e-15,2.11876e-14,0.418215,-0.186127,-0.229975,0.0,0.0,0.0,0.411347,0.5192472774558066,0.0,0.0,-0.16983184306917198,0.0,-0.20544653390830958
576,0.5666,1089.78,0.0152606,0.00562121,-7.92925e-15,5.43685e-15,-4.04163e-16,0.418943,-0.186452,-0.230377,0.0,0.0,0.0,0.412071,0.5203536921598815,0.0,0.0,-0.17010160388166806,0.0,-0.2057658802087714
577,0.5676,1090.1,0.0152252,0.00560749,-6.76091e-15,4.285e-15,-1.27894e-15,0.419671,-0.186777,-0.230779,0.0,0.0,0.0,0.412794,0.5214609126271232,0.0,0.0,-0.1703712770361453,0.0,-0.20608509815782083
578,0.5686,1090.41,0.0151899,0.00559382,4.00018e-14,6.09562e-15,1.31289e-14,0.420398,-0.187102,-0.231181,0.0,0.0,0.0,0.413517,0.5225674168761627,0.0,0.0,-0.1706408625610878,0.0,-0.20640418780704473
579,0.5696,1090.72,0.0151547,0.0055802,4.01765e-14,4.85358e-15,4.92311e-15,0.421125,-0.187426,-0.231582,0.0,0.0,0.0,0.414239,0.523674725846272,0.0,0.0,-0.1709095313949166,0.0,-0.20672235593076183
580,0.5706,1091.03,0.0151196,0.00556662,3.93769e-14,6.11909e-15,1.38095e-14,0.421851,-0.18775,-0.231984,0.0,0.0,0.0,0.414961,0.524781315340618,0.0,0.0,-0.17117811319414356,0.0,-0.20704118945384575
581,0.5716,1091.34,0.0150846,0.00555309,-8.50817e-15,3.4703e-15,2.34732e-14,0.422576,-0.188074,-0.232385,0.0,0.0,0.0,0.415682,0.5258871826226905,0.0,0.0,-0.17144660798696343,0.0,-0.20735910219111087
582,0.5726,1091.64,0.0150497,0.0055396,-1.20546e-14,4.92416e-15,-3.01663e-16,0.423301,-0.188398,-0.232785,0.0,0.0,0.0,0.416403,0.5269938519492483,0.0,0.0,-0.17171501580156168,0.0,-0.20767609514741658
583,0.5736,1091.95,0.0150149,0.00552615,-7.07312e-15,2.43742e-15,2.34515e-14,0.424026,-0.188722,-0.233185,0.0,0.0,0.0,0.417123,0.5281013239019847,0.0,0.0,-0.17198333666611465,0.0,-0.20799296133189582
584,0.5746,1092.26,0.0149803,0.00551275,-7.4544e-15,6.37144e-15,4.34131e-15,0.42475,-0.189045,-0.233585,0.0,0.0,0.0,0.417842,0.5292080698541803,0.0,0.0,-0.17225074285994635,0.0,-0.20830970079524724
585,0.5756,1092.56,0.0149457,0.0054994,3.94134e-14,6.02778e-15,-1.70314e-14,0.425473,-0.189368,-0.233985,0.0,0.0,0.0,0.418561,0.5303140870657279,0.0,0.0,-0.17251806269552505,0.0,-0.2086263135881491
586,0.5766,1092.87,0.0149113,0.00548609,4.01577e-14,6.19868e-15,-3.86453e-14,0.426196,-0.189691,-0.234385,0.0,0.0,0.0,0.41928,0.5314209042168629,0.0,0.0,-0.1727852962007399,0.0,-0.2089427997612594
587,0.5776,1093.18,0.0148769,0.00547282,-7.83258e-15,4.94196e-15,-2.91335e-14,0.426918,-0.190013,-0.234784,0.0,0.0,0.0,0.419998,0.5325269893583948,0.0,0.0,-0.17305161645550116,0.0,-0.20925836862397995
588,0.5786,1093.48,0.0148427,0.0054596,4.0516e-14,7.13254e-15,9.67131e-15,0.42764,-0.190336,-0.235183,0.0,0.0,0.0,0.420716,0.5336338733817607,0.0,0.0,-0.1733186776506812,0.0,-0.20957381159984034
589,0.5796,1093.78,0.0148086,0.00544642,-8.47709e-15,4.34437e-15,-7.53021e-15,0.428361,-0.190658,-0.235581,0.0,0.0,0.0,0.421433,0.5347400221231717,0.0,0.0,-0.17358482618426418,0.0,-0.20988833862779321
590,0.5806,1094.09,0.0147746,0.00543328,3.99535e-14,7.55251e-15,-1.23428e-14,0.429082,-0.19098,-0.23598,0.0,0.0,0.0,0.422149,0.5358469686854053,0.0,0.0,-0.17385088903181556,0.0,-0.21020353029576144
591,0.5816,1094.39,0.0147407,0.00542019,3.92126e-14,6.11222e-15,-1.46258e-14,0.429803,-0.191302,-0.236378,0.0,0.0,0.0,0.422865,0.5369547136438972,0.0,0.0,-0.1741168662209217,0.0,-0.21051780674554166
592,0.5826,1094.69,0.0147069,0.00540714,3.99909e-14,5.33446e-15,-1.28619e-14,0.430522,-0.191623,-0.236775,0.0,0.0,0.0,0.423581,0.5380601814510604,0.0,0.0,-0.17438193216150522,0.0,-0.2108311689697464
593,0.5836,1094.99,0.0146732,0.00539413,-9.43528e-15,5.1299e-15,-1.75472e-15,0.431242,-0.191944,-0.237173,0.0,0.0,0.0,0.424296,0.5391679835426009,0.0,0.0,-0.1746469130295768,0.0,-0.211145195669038
594,0.5846,1095.29,0.0146396,0.00538117,-9.09483e-15,4.9528e-15,-5.81106e-16,0.43196,-0.192265,-0.23757,0.0,0.0,0.0,0.42501,0.5402735029887722,0.0,0.0,-0.17491180885244006,0.0,-0.21145830886927475
595,0.5856,1095.59,0.0146061,0.00536825,1.5551e-14,5.26808e-15,8.96181e-15,0.432679,-0.192586,-0.237967,0.0,0.0,0.0,0.425724,0.541381357863522,0.0,0.0,-0.1751766196573904,0.0,-0.21177129778824244
596,0.5866,1095.89,0.0145727,0.00535537,4.01473e-14,5.54093e-15,6.01406e-15,0.433396,-0.192906,-0.238363,0.0,0.0,0.0,0.426438,0.5424869245954205,0.0,0.0,-0.17544052091264728,0.0,-0.21208337455903936
597,0.5876,1096.19,0.0145395,0.00534253,-1.26491e-14,6.24583e-15,-4.18265e-16,0.434113,-0.193227,-0.23876,0.0,0.0,0.0,0.427151,0.5435932843029132,0.0,0.0,-0.1757051620282628,0.0,-0.21239611537617975
598,0.5886,1096.49,0.0145063,0.00532974,3.96356e-14,6.85608e-15,1.2035e-14,0.43483,-0.193547,-0.239156,0.0,0.0,0.0,0.427863,0.5447004375547679,0.0,0.0,-0.17596889417701944,0.0,-0.2127079447681961
599,0.5896,1096.78,0.0144732,0.00531698,3.99056e-14,5.50894e-15,-1.69666e-14,0.435546,-0.193867,-0.239551,0.0,0.0,0.0,0.428575,0.5458068391125477,0.0,0.0,-0.17623254194499016,0.0,-0.2130188637194772
600,0.5906,1097.08,0.0144403,0.00530427,3.87105e-14,5.27998e-15,8.97038e-15,0.436262,-0.194186,-0.239947,0.0,0.0,0.0,0.429286,0.5469140331375124,0.0,0.0,-0.17649528185486596,0.0,-0.21333044655197175
601,0.5916,1097.38,0.0144074,0.0052916,3.86112e-14,5.08157e-15,8.92705e-15,0.436977,-0.194506,-0.240342,0.0,0.0,0.0,0.429997,0.5480204721760256,0.0,0.0,-0.17675876120572798,0.0,-0.21364111966360477
602,0.5926,1097.67,0.0143746,0.00527897,-9.73015e-15,4.90961e-15,2.30677e-14,0.437692,-0.194825,-0.240737,0.0,0.0,0.0,0.430708,0.5491277026013381,0.0,0.0,-0.17702133327843106,0.0,-0.21395167008359184
603,0.5936,1097.97,0.014342,0.00526639,3.9349e-14,6.63705e-15,-1.39945e-14,0.438406,-0.195144,-0.241132,0.0,0.0,0.0,0.431418,0.5502341747445443,0.0,0.0,-0.17728382160400147,0.0,-0.21426209786038675
604,0.5946,1098.26,0.0143094,0.00525384,-1.05185e-14,4.84956e-15,2.57226e-14,0.439119,-0.195462,-0.241526,0.0,0.0,0.0,0.432127,0.5513398858503038,0.0,0.0,-0.17754540375496497,0.0,-0.2145716176144341
605,0.5956,1098.56,0.014277,0.00524133,3.86585e-14,6.11582e-15,-9.74186e-15,0.439833,-0.195781,-0.24192,0.0,0.0,0.0,0.432836,0.5524479380563652,0.0,0.0,-0.17780772492871544,0.0,-0.21488101544171956
606,0.5966,1098.85,0.0142446,0.00522887,3.95311e-14,5.80536e-15,-3.99391e-14,0.440545,-0.196099,-0.242314,0.0,0.0,0.0,0.433544,0.553553674583753,0.0,0.0,-0.17806914050490852,0.0,-0.2151902913902728
607,0.5976,1099.14,0.0142123,0.00521644,3.88671e-14,6.94426e-15,1.43896e-14,0.441257,-0.196417,-0.242707,0.0,0.0,0.0,0.434252,0.5546601986758879,0.0,0.0,-0.1783304729641647,0.0,-0.21549866100715775
608,0.5986,1099.43,0.0141802,0.00520406,-1.04841e-14,4.64556e-15,2.50006e-14,0.441969,-0.196735,-0.2431,0.0,0.0,0.0,0.43496,0.5557675108937159,0.0,0.0,-0.17859172233291098,0.0,-0.21580690945859382
609,0.5996,1099.72,0.0141481,0.00519172,-1.0555e-14,5.93868e-15,-8.56106e-16,0.44268,-0.197053,-0.243493,0.0,0.0,0.0,0.435666,0.556874054923749,0.0,0.0,-0.17885288863756577,0.0,-0.21611503679218969
610,0.6006,1100.01,0.0141162,0.00517941,3.95925e-14,7.06003e-15,-1.87716e-14,0.443391,-0.19737,-0.243886,0.0,0.0,0.0,0.436373,0.5579813859863441,0.0,0.0,-0.17911315101810088,0.0,-0.2164230430555354
611,0.6016,1100.3,0.0140843,0.00516715,-9.84948e-15,5.21483e-15,-3.1551e-16,0.444101,-0.197687,-0.244278,0.0,0.0,0.0,0.437079,0.5590879455525557,0.0,0.0,-0.1793733309085368,0.0,-0.2167301450267387
612,0.6026,1100.59,0.0140525,0.00515492,3.83077e-14,5.96249e-15,1.12088e-14,0.44481,-0.198004,-0.24467,0.0,0.0,0.0,0.437784,0.5601937308605227,0.0,0.0,-0.1796334283350186,0.0,-0.21703712663756147
613,0.6036,1100.88,0.0140209,0.00514274,-1.09904e-14,5.20184e-15,-1.54505e-15,0.445519,-0.198321,-0.245062,0.0,0.0,0.0,0.438489,0.5613003004482675,0.0,0.0,-0.1798934433236833,0.0,-0.21734398793517584
614,0.6046,1101.17,0.0139893,0.00513059,-1.00576e-14,4.54176e-15,-4.0185e-16,0.446228,-0.198637,-0.245454,0.0,0.0,0.0,0.439193,0.5624076548720414,0.0,0.0,-0.18015255605362557,0.0,-0.2176507289667351
615,0.6056,1101.46,0.0139578,0.00511848,-9.71188e-15,4.90859e-15,-2.22246e-15,0.446936,-0.198953,-0.245845,0.0,0.0,0.0,0.439897,0.5635142311734775,0.0,0.0,-0.18041158691688064,0.0,-0.2179565677363332
616,0.6066,1101.74,0.0139264,0.00510642,3.94023e-14,7.10654e-15,1.23733e-14,0.447643,-0.199269,-0.246236,0.0,0.0,0.0,0.440601,0.5646200265875352,0.0,0.0,-0.1806705359393146,0.0,-0.21826228694634786
617,0.6076,1102.03,0.0138952,0.00509439,-1.09865e-14,4.78449e-15,-2.41286e-15,0.44835,-0.199585,-0.246627,0.0,0.0,0.0,0.441304,0.565726604075381,0.0,0.0,-0.18092940314678485,0.0,-0.21856788664351767
618,0.6086,1102.32,0.013864,0.0050824,3.87593e-14,6.99891e-15,1.22114e-14,0.449057,-0.199901,-0.247017,0.0,0.0,0.0,0.442006,0.5668339641901368,0.0,0.0,-0.18118818856514096,0.0,-0.21887258574753943
619,0.6096,1102.6,0.0138329,0.00507044,-1.01248e-14,4.22048e-15,-2.83494e-14,0.449763,-0.200216,-0.247407,0.0,0.0,0.0,0.442708,0.5679405395439918,0.0,0.0,-0.18144607366670706,0.0,-0.21917716604207982
620,0.6106,1102.89,0.0138019,0.00505853,-1.12191e-14,5.56902e-15,-1.10851e-15,0.450469,-0.200531,-0.247797,0.0,0.0,0.0,0.443409,0.5690478964158903,0.0,0.0,-0.18170387754725914,0.0,-0.2194816275734658
621,0.6116,1103.17,0.013771,0.00504665,1.46251e-14,6.74006e-15,4.1057e-14,0.451174,-0.200846,-0.248187,0.0,0.0,0.0,0.44411,0.5701544652025279,0.0,0.0,-0.18196160023237784,0.0,-0.21978597038800574
622,0.6126,1103.46,0.0137402,0.00503482,3.9875e-14,5.87598e-15,-4.10466e-14,0.451878,-0.201161,-0.248576,0.0,0.0,0.0,0.444811,0.5712602431341924,0.0,0.0,-0.1822192417476356,0.0,-0.22008941462179488
623,0.6136,1103.74,0.0137095,0.00502302,4.25731e-14,6.53628e-15,3.63679e-14,0.452582,-0.201475,-0.248965,0.0,0.0,0.0,0.445511,0.5723667998076056,0.0,0.0,-0.18247598459499026,0.0,-0.22039274083873284
624,0.6146,1104.02,0.0136788,0.00501125,3.82541e-14,5.69865e-15,1.29811e-14,0.453286,-0.201789,-0.249354,0.0,0.0,0.0,0.44621,0.573474135771195,0.0,0.0,-0.18273264683774648,0.0,-0.22069594908471923
625,0.6156,1104.3,0.0136483,0.00499953,-1.15506e-14,5.91165e-15,2.38385e-14,0.453989,-0.202103,-0.249743,0.0,0.0,0.0,0.446909,0.5745806769923094,0.0,0.0,-0.18298922850121013,0.0,-0.22099903940563592
626,0.6166,1104.58,0.0136179,0.00498784,3.92351e-14,6.56715e-15,-1.33677e-14,0.454692,-0.202417,-0.250131,0.0,0.0,0.0,0.447607,0.5756879963853976,0.0,0.0,-0.1832457296106791,0.0,-0.2213012331489691
627,0.6176,1104.86,0.0135875,0.00497619,-1.16468e-14,4.78391e-15,6.10921e-16,0.455394,-0.202731,-0.250519,0.0,0.0,0.0,0.448305,0.576794517702401,0.0,0.0,-0.18350215019144334,0.0,-0.22160330966387376
628,0.6186,1105.14,0.0135573,0.00496458,3.96343e-14,6.52819e-15,-1.37927e-14,0.456095,-0.203044,-0.250906,0.0,0.0,0.0,0.449003,0.5779002381690546,0.0,0.0,-0.18375767402686705,0.0,-0.22190449090070563
629,0.6196,1105.42,0.0135271,0.004953,3.9017e-14,5.69099e-15,1.2687e-14,0.456796,-0.203357,-0.251294,0.0,0.0,0.0,0.4497,0.5790067340174949,0.0,0.0,-0.18401311789584573,0.0,-0.22220633339700513
630,0.6206,1105.7,0.013497,0.00494146,3.84701e-14,5.9045e-15,-1.5529e-14,0.457497,-0.20367,-0.251681,0.0,0.0,0.0,0.450397,0.5801140057914551,0.0,0.0,-0.18426848182340483,0.0,-0.22250728130880348
631,0.6216,1105.98,0.0134671,0.00492996,3.84649e-14,6.56085e-15,1.40013e-14,0.458197,-0.203983,-0.252068,0.0,0.0,0.0,0.451093,0.5812204728137862,0.0,0.0,-0.1845237658345622,0.0,-0.22280811277629342
632,0.6226,1106.26,0.0134372,0.00491849,3.89392e-14,7.13152e-15,8.62556e-15,0.458897,-0.204295,-0.252455,0.0,0.0,0.0,0.451788,0.5823277146341805,0.0,0.0,-0.18477815473289005,0.0,-0.22310882784453012
633,0.6236,1106.54,0.0134074,0.00490706,-1.19384e-14,5.27316e-15,9.03259e-16,0.459596,-0.204607,-0.252841,0.0,0.0,0.0,0.452483,0.5834341483602468,0.0,0.0,-0.185032464274262,0.0,-0.2234086499675897
634,0.6246,1106.81,0.0133777,0.00489567,-1.14433e-14,6.4824e-15,-2.59191e-14,0.460295,-0.204919,-0.253227,0.0,0.0,0.0,0.453178,0.5845413557538528,0.0,0.0,-0.1852866944834335,0.0,-0.2237083563816431
635,0.6256,1107.09,0.013348,0.00488431,-1.24434e-14,5.17912e-15,1.9349e-15,0.460993,-0.205231,-0.253613,0.0,0.0,0.0,0.453872,0.5856477517074368,0.0,0.0,-0.18554084538515225,0.0,-0.2240079471313452
636,0.6266,1107.37,0.0133185,0.00487299,3.89437e-14,6.40054e-15,-1.06989e-14,0.46169,-0.205543,-0.253998,0.0,0.0,0.0,0.454565,0.5867533334408523,0.0,0.0,-0.1857949170041585,0.0,-0.22430664656836852
637,0.6276,1107.64,0.0132891,0.0048617,-9.54231e-15,4.63639e-15,-4.58516e-15,0.462388,-0.205854,-0.254384,0.0,0.0,0.0,0.455259,0.5878612738938296,0.0,0.0,-0.18604809541368694,0.0,-0.2246060064226243
638,0.6286,1107.92,0.0132597,0.00485045,-1.22046e-14,5.92823e-15,1.73462e-15,0.463084,-0.206165,-0.254769,0.0,0.0,0.0,0.455951,0.5889668100224039,0.0,0.0,-0.18630119509697252,0.0,-0.22490447565113836
639,0.6296,1108.19,0.0132305,0.00483923,4.25235e-14,7.05252e-15,3.59804e-14,0.463781,-0.206476,-0.255153,0.0,0.0,0.0,0.456643,0.5900747059458669,0.0,0.0,-0.18655421607849532,0.0,-0.2252020551935595
640,0.6306,1108.46,0.0132013,0.00482805,-1.16536e-14,4.73185e-15,-2.60812e-15,0.464476,-0.206787,-0.255538,0.0,0.0,0.0,0.457335,0.5911801919783974,0.0,0.0,-0.18680715838272788,0.0,-0.22550029498746582
641,0.6316,1108.74,0.0131722,0.00481691,-1.16829e-14,6.01103e-15,-2.2655e-15,0.465172,-0.207098,-0.255922,0.0,0.0,0.0,0.458026,0.5922880388780138,0.0,0.0,-0.18706002203413497,0.0,-0.2257976457791847
642,0.6326,1109.01,0.0131432,0.0048058,3.8678e-14,6.65327e-15,1.2374e-14,0.465866,-0.207408,-0.256306,0.0,0.0,0.0,0.458717,0.5933934703173367,0.0,0.0,-0.18731199436957446,0.0,-0.22609488241012
643,0.6336,1109.28,0.0131143,0.00479472,3.91638e-14,5.79795e-15,-1.77036e-14,0.466561,-0.207718,-0.25669,0.0,0.0,0.0,0.459407,0.5945012636928142,0.0,0.0,-0.18756388860569606,0.0,-0.22639200492410072
644,0.6346,1109.55,0.0130854,0.00478368,-1.27236e-14,5.99602e-15,2.36607e-14,0.467254,-0.208028,-0.257073,0.0,0.0,0.0,0.460097,0.5956066360358323,0.0,0.0,-0.18781570476670673,0.0,-0.22668824005356636
645,0.6356,1109.82,0.0130567,0.00477267,3.67998e-14,-1.8355e-14,1.57791e-16,0.467948,-0.208337,-0.257456,0.0,0.0,0.0,0.460786,0.5967143713809455,0.0,0.0,-0.1880666309438429,0.0,-0.22698436174670178
646,0.6366,1110.09,0.013028,0.0047617,4.23042e-14,6.18372e-15,1.35419e-14,0.468641,-0.208647,-0.257839,0.0,0.0,0.0,0.461475,0.5978212779391356,0.0,0.0,-0.188318291278883,0.0,-0.2272803700469448
647,0.6376,1110.36,0.0129995,0.00475077,3.80623e-14,6.80687e-15,-1.48183e-14,0.469333,-0.208956,-0.258222,0.0,0.0,0.0,0.462164,0.5989273529212751,0.0,0.0,-0.18856906218077818,0.0,-0.22757626499771677
648,0.6386,1110.63,0.012971,0.00473986,-1.27579e-14,4.99084e-15,-6.47334e-16,0.470025,-0.209265,-0.258604,0.0,0.0,0.0,0.462851,0.6000341935721931,0.0,0.0,-0.18881975560643538,0.0,-0.22787127451408262
649,0.6396,1110.9,0.0129426,0.00472899,-1.31716e-14,5.76734e-15,-4.32776e-15,0.470716,-0.209574,-0.258986,0.0,0.0,0.0,0.463539,0.6011401992809158,0.0,0.0,-0.189070371579791,0.0,-0.22816617135833483
650,0.6406,1111.17,0.0129142,0.00471816,3.73714e-14,7.38777e-15,-1.8118e-14,0.471407,-0.209883,-0.259368,0.0,0.0,0.0,0.464226,0.6022469695036923,0.0,0.0,-0.18932091012477414,0.0,-0.2284609555735062
651,0.6416,1111.44,0.012886,0.00470736,3.80191e-14,6.44035e-15,1.2724e-14,0.472098,-0.210191,-0.259749,0.0,0.0,0.0,0.464912,0.6033545047689846,0.0,0.0,-0.18957056083627255,0.0,-0.22875485595785428
652,0.6426,1111.71,0.0128579,0.00469659,-1.37684e-14,5.61432e-15,-2.12088e-15,0.472788,-0.210499,-0.260131,0.0,0.0,0.0,0.465598,0.6044612011436163,0.0,0.0,-0.18982013466719205,0.0,-0.2290494153384547
653,0.6436,1111.97,0.0128298,0.00468585,3.78071e-14,6.78226e-15,-1.43256e-14,0.473477,-0.210807,-0.260512,0.0,0.0,0.0,0.466284,0.6055670558343975,0.0,0.0,-0.19006963164120816,0.0,-0.22934309156233768
654,0.6446,1112.24,0.0128018,0.00467515,3.79298e-14,6.38419e-15,-1.26276e-14,0.474166,-0.211115,-0.260892,0.0,0.0,0.0,0.466969,0.6066736727216071,0.0,0.0,-0.19031905178198927,0.0,-0.2296358855531624
655,0.6456,1112.51,0.0127739,0.00466448,3.70772e-14,6.5091e-15,-1.49897e-14,0.474855,-0.211422,-0.261273,0.0,0.0,0.0,0.467653,0.6077810523305798,0.0,0.0,-0.1905675856811867,0.0,-0.22992933837445428
656,0.6466,1112.77,0.0127461,0.00465385,3.77617e-14,6.14569e-15,-1.04566e-14,0.475543,-0.21173,-0.261653,0.0,0.0,0.0,0.468337,0.6088875862986205,0.0,0.0,-0.19081685247573998,0.0,-0.23022190963381217
657,0.6476,1113.04,0.0127183,0.00464325,-1.40201e-14,5.35631e-15,3.19161e-16,0.47623,-0.212037,-0.262033,0.0,0.0,0.0,0.469021,0.6099932718299002,0.0,0.0,-0.19106523357358063,0.0,-0.2305143697372124
658,0.6486,1113.3,0.0126907,0.00463268,3.8068e-14,7.02925e-15,-1.31533e-14,0.476918,-0.212344,-0.262413,0.0,0.0,0.0,0.469704,0.611101328328647,0.0,0.0,-0.19131353843012788,0.0,-0.2308067187268863
659,0.6496,1113.56,0.0126631,0.00462214,8.81613e-14,7.07153e-15,-1.08361e-15,0.477604,-0.21265,-0.262792,0.0,0.0,0.0,0.470387,0.6122069230155007,0.0,0.0,-0.191560958630147,0.0,-0.23109818774362123
660,0.6506,1113.83,0.0126356,0.00461164,3.79277e-14,5.69096e-15,-3.64576e-14,0.47829,-0.212957,-0.263171,0.0,0.0,0.0,0.471069,0.6133132764005134,0.0,0.0,-0.19180911132246026,0.0,-0.23138954631452957
661,0.6516,1114.09,0.0126082,0.00460116,3.70724e-14,7.32106e-15,1.18571e-14,0.478976,-0.213263,-0.26355,0.0,0.0,0.0,0.471751,0.6144203890043303,0.0,0.0,-0.19205637990037372,0.0,-0.2316807944814625
662,0.6526,1114.35,0.0125809,0.00459073,3.67932e-14,6.85341e-15,-1.72511e-14,0.479661,-0.213569,-0.263929,0.0,0.0,0.0,0.472432,0.6155266458205009,0.0,0.0,-0.19230357282567778,0.0,-0.23197193228625512
663,0.6536,1114.61,0.0125536,0.00458032,3.31782e-14,6.91769e-15,-1.99663e-14,0.480346,-0.213875,-0.264307,0.0,0.0,0.0,0.473113,0.6166336606821914,0.0,0.0,-0.1925506901215186,0.0,-0.23226219203330256
664,0.6546,1114.88,0.0125265,0.00456994,-1.42836e-14,6.02834e-15,2.54445e-14,0.481031,-0.214181,-0.264686,0.0,0.0,0.0,0.473794,0.617741434108841,0.0,0.0,-0.19279773181103532,0.0,-0.23255310953017394
665,0.6556,1115.14,0.0124994,0.0045596,-1.41194e-14,6.19719e-15,-2.35172e-14,0.481714,-0.214486,-0.265064,0.0,0.0,0.0,0.474473,0.6188467289235493,0.0,0.0,-0.1930438909616542,0.0,-0.23284314963373853
666,0.6566,1115.4,0.0124723,0.00454929,3.70207e-14,7.76282e-15,3.01452e-14,0.482398,-0.214791,-0.265441,0.0,0.0,0.0,0.475153,0.6199543988660676,0.0,0.0,-0.19328997504518053,0.0,-0.23313231325555894
667,0.6576,1115.66,0.0124454,0.00453901,3.62755e-14,5.82011e-15,-1.73667e-14,0.483081,-0.215096,-0.265819,0.0,0.0,0.0,0.475832,0.6210612056519844,0.0,0.0,-0.19353598408450612,0.0,-0.23342213446148963
668,0.6586,1115.92,0.0124186,0.00452876,3.75375e-14,6.96057e-15,1.43438e-14,0.483763,-0.215401,-0.266196,0.0,0.0,0.0,0.47651,0.6221671464771938,0.0,0.0,-0.1937819181025161,0.0,-0.2337110798471701
669,0.6596,1116.18,0.0123918,0.00451854,-1.52384e-14,5.11896e-15,-2.59983e-15,0.484445,-0.215706,-0.266573,0.0,0.0,0.0,0.477188,0.6232738418113044,0.0,0.0,-0.1940277771220884,0.0,-0.2339999163209714
670,0.6606,1116.43,0.0123651,0.00450836,3.65112e-14,7.76701e-15,1.11765e-14,0.485127,-0.21601,-0.266949,0.0,0.0,0.0,0.477866,0.6243812921690663,0.0,0.0,-0.1942727554392525,0.0,-0.23428787821220654
671,0.6616,1116.69,0.0123385,0.0044982,3.58262e-14,6.76908e-15,-1.50334e-14,0.485808,-0.216314,-0.267326,0.0,0.0,0.0,0.478543,0.6254878725768966,0.0,0.0,-0.19451765929432685,0.0,-0.23457649727400898
672,0.6626,1116.95,0.0123119,0.00448808,3.56982e-14,7.31628e-15,-1.14555e-14,0.486488,-0.216618,-0.267702,0.0,0.0,0.0,0.47922,0.6265935802282439,0.0,0.0,-0.19476248870994473,0.0,-0.23486424241155812
673,0.6636,1117.21,0.0122855,0.00447799,3.65467e-14,6.848e-15,1.19542e-14,0.487168,-0.216922,-0.268077,0.0,0.0,0.0,0.479896,0.6277000400164914,0.0,0.0,-0.19500724370873213,0.0,-0.23515111452877002
674,0.6646,1117.46,0.0122591,0.00446792,3.58563e-14,6.4386e-15,-2.0021e-14,0.487848,-0.217226,-0.268453,0.0,0.0,0.0,0.480572,0.6288072524532666,0.0,0.0,-0.1952519243133084,0.0,-0.23543864365084477
675,0.6656,1117.72,0.0122328,0.00445789,-1.2428e-14,6.08062e-15,-2.35257e-15,0.488527,-0.217529,-0.268828,0.0,0.0,0.0,0.481247,0.6299135881361413,0.0,0.0,-0.19549572604241428,0.0,-0.23572530040797446
676,0.6666,1117.97,0.0122065,0.00444789,-1.58846e-14,6.24088e-15,-2.9983e-15,0.489206,-0.217832,-0.269204,0.0,0.0,0.0,0.481922,0.6310206752760352,0.0,0.0,-0.19573945391078662,0.0,-0.23601261367674164
677,0.6676,1118.23,0.0121804,0.00443792,9.93737e-15,6.38086e-15,5.99699e-15,0.489884,-0.218135,-0.269578,0.0,0.0,0.0,0.482596,0.6321268822556629,0.0,0.0,-0.19598310794080198,0.0,-0.23629829153413717
678,0.6686,1118.48,0.0121543,0.00442798,3.62797e-14,6.50312e-15,-1.48406e-14,0.490562,-0.218438,-0.269953,0.0,0.0,0.0,0.48327,0.6332338394979333,0.0,0.0,-0.1962266881548299,0.0,-0.23658462598374708
679,0.6696,1118.74,0.0121283,0.00441807,-1.59125e-14,5.66295e-15,-2.94729e-14,0.491239,-0.21874,-0.270327,0.0,0.0,0.0,0.483944,0.6343399131709662,0.0,0.0,-0.19646939104502614,0.0,-0.2368700899485403
680,0.6706,1118.99,0.0121023,0.00440819,-1.56212e-14,6.34864e-15,-2.80126e-14,0.491916,-0.219043,-0.270701,0.0,0.0,0.0,0.484617,0.6354467359094058,0.0,0.0,-0.19671282393759382,0.0,-0.237155447169773
681,0.6716,1119.25,0.0120765,0.00439834,-1.63256e-14,6.47468e-15,-1.76908e-15,0.492593,-0.219345,-0.271075,0.0,0.0,0.0,0.485289,0.6365543082205412,0.0,0.0,-0.19695538003695012,0.0,-0.23744069768735976
682,0.6726,1119.5,0.0120507,0.00438852,3.6051e-14,7.05844e-15,-1.40654e-14,0.493269,-0.219647,-0.271449,0.0,0.0,0.0,0.485961,0.6376609929501929,0.0,0.0,-0.1971978628954244,0.0,-0.23772584154120024
683,0.6736,1119.75,0.012025,0.00437873,-1.56398e-14,5.67424e-15,-2.97537e-14,0.493944,-0.219948,-0.271822,0.0,0.0,0.0,0.486633,0.6387667872840364,0.0,0.0,-0.19743946997500328,0.0,-0.23801011678167716
684,0.6746,1120.0,0.0119994,0.00436897,-1.58659e-14,5.88422e-15,-4.17366e-14,0.494619,-0.22025,-0.272195,0.0,0.0,0.0,0.487304,0.6398733282810254,0.0,0.0,-0.19768180666038948,0.0,-0.23829428600726232
685,0.6756,1120.25,0.0119738,0.00435924,3.64699e-14,7.01545e-15,2.40237e-14,0.495294,-0.220551,-0.272568,0.0,0.0,0.0,0.487975,0.6409806164453282,0.0,0.0,-0.19792326809481575,0.0,-0.238578349257492
686,0.6766,1120.5,0.0119483,0.00434954,3.63059e-14,6.58377e-15,1.36358e-14,0.495968,-0.220852,-0.27294,0.0,0.0,0.0,0.488645,0.6420870101936216,0.0,0.0,-0.1981646568602875,0.0,-0.23886154543381355
687,0.6776,1120.76,0.0119229,0.00433987,-1.5424e-14,5.25798e-15,-1.33524e-15,0.496642,-0.221153,-0.273313,0.0,0.0,0.0,0.489315,0.6431941499026617,0.0,0.0,-0.1984059729786748,0.0,-0.23914539713573335
688,0.6786,1121.01,0.0118976,0.00433023,3.63855e-14,6.94106e-15,1.41888e-14,0.497315,-0.221454,-0.273685,0.0,0.0,0.0,0.489985,0.6443003917741821,0.0,0.0,-0.19864721647184103,0.0,-0.23942838240947462
689,0.6796,1121.25,0.0118723,0.00432061,3.62348e-14,6.99237e-15,-1.90491e-14,0.497988,-0.221754,-0.274057,0.0,0.0,0.0,0.490654,0.6454073783970624,0.0,0.0,-0.1988875862496301,0.0,-0.2397112624322718
690,0.6806,1121.5,0.0118471,0.00431103,-1.69451e-14,5.61495e-15,3.81092e-16,0.49866,-0.222055,-0.274428,0.0,0.0,0.0,0.491322,0.6465134637584025,0.0,0.0,-0.1991286847990169,0.0,-0.23999327723692843
691,0.6816,1121.75,0.011822,0.00430147,-1.60864e-14,6.30515e-15,-6.28872e-15,0.499332,-0.222355,-0.274799,0.0,0.0,0.0,0.49199,0.6476202926589065,0.0,0.0,-0.19936891015797165,0.0,-0.24027518743349852
692,0.6826,1122.0,0.0117969,0.00429194,-1.67684e-14,5.96113e-15,1.8568e-14,0.500004,-0.222655,-0.275171,0.0,0.0,0.0,0.492658,0.6487278655984008,0.0,0.0,-0.19960906346012786,0.0,-0.24055775250341171
693,0.6836,1122.25,0.0117719,0.00428244,-1.68937e-14,6.60812e-15,-1.75714e-14,0.500675,-0.222954,-0.275541,0.0,0.0,0.0,0.493325,0.6498345332416893,0.0,0.0,-0.19984834457584377,0.0,-0.24083869415757442
694,0.6846,1122.5,0.011747,0.00427297,3.22011e-14,6.70045e-15,2.79091e-16,0.501345,-0.223254,-0.275912,0.0,0.0,0.0,0.493992,0.6509402927670378,0.0,0.0,-0.20008835406924697,0.0,-0.24112029076264174
695,0.6856,1122.74,0.0117222,0.00426353,3.68684e-14,6.78119e-15,4.26326e-15,0.502015,-0.223553,-0.276282,0.0,0.0,0.0,0.494658,0.6520467933995111,0.0,0.0,-0.2003274918984932,0.0,-0.24140102431614952
696,0.6866,1122.99,0.0116974,0.00425412,-1.68739e-14,6.37741e-15,-1.01031e-15,0.502685,-0.223852,-0.276652,0.0,0.0,0.0,0.495324,0.6531540356358179,0.0,0.0,-0.20056655823621694,0.0,-0.24168165401745623
697,0.6876,1123.24,0.0116727,0.00424473,3.60825e-14,7.92118e-15,7.86635e-15,0.503354,-0.224151,-0.277022,0.0,0.0,0.0,0.495989,0.654260365711806,0.0,0.0,-0.2008055531037911,0.0,-0.24196217990498026
698,0.6886,1123.48,0.0116481,0.00423537,-1.61322e-14,4.52906e-15,-1.64715e-15,0.504023,-0.22445,-0.277392,0.0,0.0,0.0,0.496654,0.6553674361702455,0.0,0.0,-0.20104447652258195,0.0,-0.24224260201712555
699,0.6896,1123.73,0.0116236,0.00422604,-1.68257e-14,6.30133e-15,-4.98878e-16,0.504691,-0.224748,-0.277761,0.0,0.0,0.0,0.497319,0.6564735910321984,0.0,0.0,-0.20128252979687866,0.0,-0.24252216291482342
700,0.6906,1123.97,0.0115991,0.00421674,3.71005e-14,7.38006e-15,3.52386e-14,0.505359,-0.225047,-0.27813,0.0,0.0,0.0,0.497983,0.6575804850524505,0.0,0.0,-0.20152131062095735,0.0,-0.24280162067358046
701,0.6916,1124.22,0.0115747,0.00420746,3.6906e-14,5.47771e-15,1.58864e-14,0.506027,-0.225345,-0.278499,0.0,0.0,0.0,0.498646,0.6586881187249243,0.0,0.0,-0.20175922181986294,0.0,-0.2430809753314478
702,0.6926,1124.46,0.0115503,0.00419822,3.72148e-14,7.60728e-15,-1.47524e-14,0.506693,-0.225643,-0.278867,0.0,0.0,0.0,0.49931,0.6597931729542073,0.0,0.0,-0.20199706213179414,0.0,-0.24335947028631122
703,0.6936,1124.7,0.011526,0.004189,3.60412e-14,7.10065e-15,-1.78713e-14,0.50736,-0.22594,-0.279236,0.0,0.0,0.0,0.499972,0.6609006242945321,0.0,0.0,-0.20223403381230454,0.0,-0.24363861913564544
704,0.6946,1124.95,0.0115018,0.00417981,-1.7157e-14,5.23185e-15,2.17225e-14,0.508026,-0.226238,-0.279604,0.0,0.0,0.0,0.500635,0.6620071525433184,0.0,0.0,-0.20247173265134233,0.0,-0.24391690891534346
705,0.6956,1125.19,0.0114777,0.00417064,3.2462e-14,6.9167e-15,-1.81753e-14,0.508692,-0.226535,-0.279972,0.0,0.0,0.0,0.501296,0.6631144179853767,0.0,0.0,-0.20270856337564147,0.0,-0.24419509630324376
706,0.6966,1125.43,0.0114536,0.00416151,3.61528e-14,6.49474e-15,1.55868e-14,0.509357,-0.226832,-0.280339,0.0,0.0,0.0,0.501958,0.6642207568902518,0.0,0.0,-0.20294532377165975,0.0,-0.2444724258098233
707,0.6976,1125.67,0.0114296,0.00415239,3.65468e-14,7.07435e-15,1.38634e-14,0.510022,-0.227129,-0.280707,0.0,0.0,0.0,0.502619,0.6653278317551785,0.0,0.0,-0.20318201386028156,0.0,-0.244750408805117
708,0.6986,1125.91,0.0114057,0.00414331,3.59316e-14,7.10769e-15,9.51742e-15,0.510686,-0.227426,-0.281074,0.0,0.0,0.0,0.503279,0.6664339766349228,0.0,0.0,-0.2034186336623851,0.0,-0.24502753454940096
709,0.6996,1126.15,0.0113818,0.00413425,-1.77596e-14,5.71164e-15,7.41613e-16,0.51135,-0.227722,-0.281441,0.0,0.0,0.0,0.50394,0.6675408562387686,0.0,0.0,-0.20365438685362736,0.0,-0.24530455860719735
710,0.7006,1126.39,0.011358,0.00412523,8.84549e-14,8.7624e-15,2.53733e-15,0.512013,-0.228019,-0.281807,0.0,0.0,0.0,0.504599,0.6686468024070982,0.0,0.0,-0.20389086638178366,0.0,-0.2455807265969221
711,0.7016,1126.63,0.0113343,0.00411622,3.53846e-14,6.21282e-15,-4.01413e-14,0.512676,-0.228315,-0.282174,0.0,0.0,0.0,0.505258,0.6697534820608608,0.0,0.0,-0.2041264798128265,0.0,-0.24585754767048695
712,0.7026,1126.87,0.0113106,0.00410725,3.5859e-14,6.82621e-15,-1.35303e-14,0.513339,-0.228611,-0.28254,0.0,0.0,0.0,0.505917,0.6708608956865185,0.0,0.0,-0.20436202351261457,0.0,-0.24613351330324817
713,0.7036,1127.11,0.011287,0.0040983,3.53155e-14,7.83972e-15,1.20835e-14,0.514001,-0.228907,-0.282906,0.0,0.0,0.0,0.506576,0.6719673718026486,0.0,0.0,-0.20459749750178513,0.0,-0.2464093779510692
714,0.7046,1127.35,0.0112635,0.00408937,-1.83371e-14,5.87745e-15,1.45556e-16,0.514663,-0.229202,-0.283271,0.0,0.0,0.0,0.507234,0.6730745806484744,0.0,0.0,-0.20483210663347384,0.0,-0.24668438833566864
715,0.7056,1127.59,0.01124,0.00408048,3.52734e-14,7.48202e-15,1.55251e-14,0.515324,-0.229497,-0.283637,0.0,0.0,0.0,0.507891,0.6741808485275378,0.0,0.0,-0.20506664656567608,0.0,-0.24696005140011978
716,0.7066,1127.83,0.0112166,0.0040716,3.528e-14,6.51372e-15,-1.60355e-14,0.515985,-0.229793,-0.284002,0.0,0.0,0.0,0.508548,0.6752878478913982,0.0,0.0,-0.20530191201728798,0.0,-0.24723486082558765
717,0.7076,1128.07,0.0111933,0.00406276,3.48019e-14,6.61418e-15,-1.5227e-14,0.516645,-0.230088,-0.284367,0.0,0.0,0.0,0.509205,0.6763939028289863,0.0,0.0,-0.20553631337734246,0.0,-0.2475095699639187
718,0.7086,1128.3,0.01117,0.00405394,3.4858e-14,7.65326e-15,3.75865e-14,0.517305,-0.230382,-0.284732,0.0,0.0,0.0,0.509861,0.6775006880037846,0.0,0.0,-0.20576985136944248,0.0,-0.2477841788517111
719,0.7096,1128.54,0.0111468,0.00404515,3.53912e-14,7.13907e-15,1.60773e-14,0.517964,-0.230677,-0.285096,0.0,0.0,0.0,0.510517,0.6786065252905447,0.0,0.0,-0.20600411470774715,0.0,-0.24805793558386124
720,0.7106,1128.78,0.0111237,0.00403638,3.44161e-14,7.16285e-15,-1.65069e-14,0.518624,-0.230971,-0.28546,0.0,0.0,0.0,0.511172,0.679714771278183,0.0,0.0,-0.2062375151864716,0.0,-0.24833159268669447
721,0.7116,1129.01,0.0111006,0.00402764,-1.96568e-14,5.75663e-15,-3.39014e-14,0.519282,-0.231265,-0.285824,0.0,0.0,0.0,0.511827,0.6808203873054661,0.0,0.0,-0.2064708470555413,0.0,-0.24860515019646934
722,0.7126,1129.25,0.0110776,0.00401892,3.45803e-14,7.85092e-15,-1.7604e-14,0.51994,-0.231559,-0.286188,0.0,0.0,0.0,0.512481,0.6819267310674935,0.0,0.0,-0.2067041103351247,0.0,-0.24887860814943097
723,0.7136,1129.48,0.0110547,0.00401023,-1.95155e-14,5.40918e-15,-2.47111e-16,0.520598,-0.231853,-0.286552,0.0,0.0,0.0,0.513135,0.6830338030432725,0.0,0.0,-0.206937305045384,0.0,-0.2491519665818116
724,0.7146,1129.72,0.0110318,0.00400157,3.4711e-14,6.59394e-15,-1.75329e-14,0.521255,-0.232147,-0.286915,0.0,0.0,0.0,0.513789,0.6841399195713636,0.0,0.0,-0.20717043120647582,0.0,-0.24942447495468045
725,0.7156,1129.95,0.011009,0.00399293,3.43005e-14,6.20748e-15,1.52322e-14,0.521912,-0.23244,-0.287278,0.0,0.0,0.0,0.514442,0.6852467630567931,0.0,0.0,-0.20740269624164298,0.0,-0.24969688442496174
726,0.7166,1130.19,0.0109862,0.00398431,3.44171e-14,7.29535e-15,-1.82059e-14,0.522569,-0.232733,-0.287641,0.0,0.0,0.0,0.515095,0.6863543339773284,0.0,0.0,-0.20763489323312379,0.0,-0.24996919502855075
727,0.7176,1130.42,0.0109636,0.00397572,3.45207e-14,6.82363e-15,-3.46664e-14,0.523225,-0.233026,-0.288003,0.0,0.0,0.0,0.515747,0.6874609453492633,0.0,0.0,-0.20786702220085207,0.0,-0.25024065704236154
728,0.7186,1130.65,0.0109409,0.00396716,3.50968e-14,6.88477e-15,-1.0659e-14,0.52388,-0.233319,-0.288366,0.0,0.0,0.0,0.516399,0.6885665943289785,0.0,0.0,-0.20809908316475578,0.0,-0.2505127702923122
729,0.7196,1130.89,0.0109184,0.00395862,3.36753e-14,6.93836e-15,3.68911e-14,0.524536,-0.233612,-0.288728,0.0,0.0,0.0,0.517051,0.6896746574198154,0.0,0.0,-0.2083310761447572,0.0,-0.2507840355674893
730,0.7206,1131.12,0.0108959,0.00395011,6.26534e-15,6.98533e-15,2.90982e-14,0.52519,-0.233904,-0.289089,0.0,0.0,0.0,0.517702,0.6907800660749983,0.0,0.0,-0.20856220972337824,0.0,-0.25105445371723667
731,0.7216,1131.35,0.0108734,0.00394162,-2.0178e-14,7.02648e-15,-1.07509e-15,0.525845,-0.234197,-0.289451,0.0,0.0,0.0,0.518352,0.6918878897909373,0.0,0.0,-0.2087940670271755,0.0,-0.25132552293850186
732,0.7226,1131.58,0.0108511,0.00393315,-2.01e-14,5.63391e-15,-1.75293e-14,0.526499,-0.234489,-0.289812,0.0,0.0,0.0,0.519003,0.6929947463735113,0.0,0.0,-0.20902506543219512,0.0,-0.2515957456465876
733,0.7236,1131.81,0.0108287,0.00392471,3.41978e-14,6.31387e-15,6.00591e-15,0.527152,-0.234781,-0.290174,0.0,0.0,0.0,0.519652,0.6941006329755721,0.0,0.0,-0.2092559963955275,0.0,-0.25186661895563656
734,0.7246,1132.04,0.0108065,0.00391629,-2.03823e-14,5.00669e-15,-5.26307e-14,0.527805,-0.235072,-0.290534,0.0,0.0,0.0,0.520302,0.6952072419574153,0.0,0.0,-0.20948606942332726,0.0,-0.2521358984995864
735,0.7256,1132.27,0.0107843,0.0039079,3.39498e-14,7.6673e-15,1.5806e-14,0.528458,-0.235364,-0.290895,0.0,0.0,0.0,0.520951,0.6963145737909091,0.0,0.0,-0.20971686579314575,0.0,-0.2524058287148927
736,0.7266,1132.5,0.0107622,0.00389954,3.50861e-14,7.14974e-15,-1.77196e-14,0.52911,-0.235655,-0.291256,0.0,0.0,0.0,0.521599,0.6974209315264495,0.0,0.0,-0.2099468047274624,0.0,-0.25267566150297793
737,0.7276,1132.73,0.0107401,0.00389119,-2.10515e-14,6.2177e-15,-2.54904e-14,0.529762,-0.235946,-0.291616,0.0,0.0,0.0,0.522247,0.6985280108424432,0.0,0.0,-0.21017667675928386,0.0,-0.2529446498440304
738,0.7286,1132.96,0.0107181,0.00388287,-2.08976e-14,6.8268e-15,1.7979e-14,0.530413,-0.236237,-0.291976,0.0,0.0,0.0,0.522895,0.6996341125745515,0.0,0.0,-0.2104064819080762,0.0,-0.2532135413667085
739,0.7296,1133.19,0.0106962,0.00387458,-2.12443e-14,6.40964e-15,5.69338e-16,0.531064,-0.236528,-0.292335,0.0,0.0,0.0,0.523542,0.7007409346133218,0.0,0.0,-0.2106362201932992,0.0,-0.2534815895878233
740,0.7306,1133.42,0.0106743,0.00386631,3.46456e-14,7.47207e-15,-2.15945e-14,0.531714,-0.236818,-0.292695,0.0,0.0,0.0,0.524189,0.7018467755802,0.0,0.0,-0.21086510249990464,0.0,-0.25375028784698306
741,0.7316,1133.65,0.0106525,0.00385806,3.42694e-14,6.50061e-15,-1.44393e-14,0.532364,-0.237109,-0.293054,0.0,0.0,0.0,0.524835,0.7029533355773658,0.0,0.0,-0.2110947073459517,0.0,-0.2540181434106955
742,0.7326,1133.87,0.0106307,0.00384984,3.49014e-14,6.59856e-15,1.41709e-14,0.533014,-0.237399,-0.293413,0.0,0.0,0.0,0.525481,0.7040606150723416,0.0,0.0,-0.2113234567105604,0.0,-0.2542859028315193
743,0.7336,1134.1,0.010609,0.00384164,3.35281e-14,7.63811e-15,9.82052e-15,0.533663,-0.237689,-0.293772,0.0,0.0,0.0,0.526127,0.7051669093651907,0.0,0.0,-0.21155213974747133,0.0,-0.2545535661439634
744,0.7346,1134.33,0.0105874,0.00383346,3.42369e-14,7.59978e-15,-1.72842e-14,0.534312,-0.237979,-0.29413,0.0,0.0,0.0,0.526772,0.7062739218760723,0.0,0.0,-0.21178075647591665,0.0,-0.25482038820328556
745,0.7356,1134.56,0.0105658,0.00382531,-2.08695e-14,6.13536e-15,-5.12719e-14,0.53496,-0.238268,-0.294489,0.0,0.0,0.0,0.527417,0.7073799456904617,0.0,0.0,-0.21200851892403616,0.0,-0.25508785966991965
746,0.7366,1134.78,0.0105442,0.00381718,3.40142e-14,8.66043e-15,-1.48322e-14,0.535608,-0.238558,-0.294847,0.0,0.0,0.0,0.528061,0.708486686440545,0.0,0.0,-0.21223700332170925,0.0,-0.2553544904863939
747,0.7376,1135.01,0.0105228,0.00380907,3.37064e-14,7.54596e-15,-1.80178e-14,0.536256,-0.238847,-0.295205,0.0,0.0,0.0,0.528705,0.7095941445910472,0.0,0.0,-0.21246463393354154,0.0,-0.2556210258661201
748,0.7386,1135.23,0.0105014,0.00380099,3.34304e-14,7.04098e-15,1.29392e-14,0.536903,-0.239136,-0.295562,0.0,0.0,0.0,0.529349,0.7107006099055289,0.0,0.0,-0.21269219876963208,0.0,-0.2558867217303523
749,0.7396,1135.46,0.01048,0.00379293,3.46372e-14,6.24074e-14,4.355e-16,0.53755,-0.239425,-0.29592,0.0,0.0,0.0,0.529992,0.711807791334707,0.0,0.0,-0.21291969784898723,0.0,-0.2561530666053956
750,0.7406,1135.68,0.0104587,0.00378489,3.37779e-14,6.25291e-14,-3.09935e-14,0.538196,-0.239714,-0.296277,0.0,0.0,0.0,0.530634,0.712913976427225,0.0,0.0,-0.21314713119060802,0.0,-0.2564185725649838
751,0.7416,1135.91,0.0104375,0.00377688,-2.17922e-14,5.85832e-15,3.56684e-16,0.538842,-0.240002,-0.296634,0.0,0.0,0.0,0.531277,0.7140208763461771,0.0,0.0,-0.2133737121875955,0.0,-0.25668398375586166
752,0.7426,1136.13,0.0104163,0.00376889,3.416e-14,7.44856e-15,-1.03909e-14,0.539487,-0.24029,-0.296991,0.0,0.0,0.0,0.531918,0.7151267764258558,0.0,0.0,-0.21360022793865163,0.0,-0.2569493002118556
753,0.7436,1136.35,0.0103952,0.00376092,3.33543e-14,5.98671e-15,6.32565e-15,0.540132,-0.240578,-0.297347,0.0,0.0,0.0,0.53256,0.7162333900411764,0.0,0.0,-0.21382667846256465,0.0,-0.25721377918093036
754,0.7446,1136.58,0.0103742,0.00375298,3.40871e-14,7.08429e-15,-4.17561e-14,0.540777,-0.240866,-0.297703,0.0,0.0,0.0,0.533201,0.717340717652518,0.0,0.0,-0.21405306377811717,0.0,-0.25747816401224977
755,0.7456,1136.8,0.0103532,0.00374505,3.32878e-14,7.57438e-15,5.38841e-15,0.541421,-0.241154,-0.298059,0.0,0.0,0.0,0.533841,0.718447041272656,0.0,0.0,-0.21427938390408663,0.0,-0.25774245473932067
756,0.7466,1137.02,0.0103322,0.00373715,5.4017e-15,6.57421e-15,-4.41722e-15,0.542065,-0.241442,-0.298415,0.0,0.0,0.0,0.534482,0.7195540775946705,0.0,0.0,-0.21450563885924478,0.0,-0.2580066513956384
757,0.7476,1137.24,0.0103113,0.00372928,3.2814e-14,7.12438e-15,1.44338e-14,0.542708,-0.241729,-0.298771,0.0,0.0,0.0,0.535121,0.7206601064167228,0.0,0.0,-0.21473104339379434,0.0,-0.25827075401468613
758,0.7486,1137.47,0.0102905,0.00372142,3.36038e-14,7.13191e-15,3.52656e-14,0.543351,-0.242016,-0.299126,0.0,0.0,0.0,0.535761,0.7217668466440004,0.0,0.0,-0.21495638324652466,0.0,-0.258534021164327
759,0.7496,1137.69,0.0102697,0.00371359,3.2848e-14,7.61586e-15,-3.72799e-14,0.543994,-0.242303,-0.299481,0.0,0.0,0.0,0.5364,0.722874298734083,0.0,0.0,-0.2151816584359969,0.0,-0.25879719487071684
760,0.7506,1137.91,0.010249,0.00370578,-2.31582e-14,5.17726e-15,-7.07444e-15,0.544636,-0.24259,-0.299836,0.0,0.0,0.0,0.537038,0.7239807391632453,0.0,0.0,-0.21540686898076677,0.0,-0.25906027516702224
761,0.7516,1138.13,0.0102284,0.00369799,-2.24007e-14,5.89163e-15,-1.46336e-15,0.545278,-0.242877,-0.300191,0.0,0.0,0.0,0.537676,0.7250878901552291,0.0,0.0,-0.21563201489938455,0.0,-0.2593232620863979
762,0.7526,1138.35,0.0102078,0.00369022,3.21599e-14,7.47695e-15,1.41812e-14,0.545919,-0.243163,-0.300545,0.0,0.0,0.0,0.538314,0.7261940259714736,0.0,0.0,-0.21585631206709943,0.0,-0.259585415247772
763,0.7536,1138.57,0.0101872,0.00368248,-2.32949e-14,5.53162e-15,2.53037e-14,0.54656,-0.243449,-0.300899,0.0,0.0,0.0,0.538952,0.72730087104807,0.0,0.0,-0.21608054509499686,0.0,-0.2598474756233512
764,0.7546,1138.79,0.0101667,0.00367476,3.28189e-14,8.11461e-15,1.39162e-14,0.5472,-0.243735,-0.301253,0.0,0.0,0.0,0.539588,0.7284066974322381,0.0,0.0,-0.21630471400141804,0.0,-0.2601094432459755
765,0.7556,1139.01,0.0101463,0.00366706,3.21572e-14,6.57149e-15,-1.37001e-14,0.54784,-0.244021,-0.301607,0.0,0.0,0.0,0.540225,0.7295132317718136,0.0,0.0,-0.2165288188046992,0.0,-0.26037131814847403
766,0.7566,1139.23,0.0101259,0.00365938,3.35056e-14,6.25483e-14,4.62323e-15,0.54848,-0.244307,-0.30196,0.0,0.0,0.0,0.540861,0.7306204745200331,0.0,0.0,-0.21675285952317114,0.0,-0.2606323609963942
767,0.7576,1139.45,0.0101056,0.00365172,-2.40464e-14,5.86459e-15,1.20693e-15,0.549119,-0.244593,-0.302314,0.0,0.0,0.0,0.541497,0.7317266944028629,0.0,0.0,-0.21697683617515962,0.0,-0.26089405081877015
768,0.7586,1139.66,0.0100853,0.00364409,3.31195e-14,7.9239e-15,-8.69007e-15,0.549758,-0.244878,-0.302667,0.0,0.0,0.0,0.542132,0.7328336213860922,0.0,0.0,-0.21719996597934232,0.0,-0.2611549091746225
769,0.7596,1139.88,0.0100651,0.00363647,3.19442e-14,6.87382e-15,3.87818e-14,0.550397,-0.245163,-0.30302,0.0,0.0,0.0,0.542767,0.7339412559217031,0.0,0.0,-0.21742303220059178,0.0,-0.261415675463726
770,0.7606,1140.1,0.0100449,0.00362888,3.28323e-14,7.3806e-15,1.72086e-14,0.551035,-0.245448,-0.303372,0.0,0.0,0.0,0.543401,0.7350478634132345,0.0,0.0,-0.2176460348570266,0.0,-0.261675611394555
771,0.7616,1140.32,0.0100248,0.00362131,3.31428e-14,6.87176e-15,1.34723e-14,0.551672,-0.245733,-0.303725,0.0,0.0,0.0,0.544035,0.7361534409913031,0.0,0.0,-0.2178689739667602,0.0,-0.2619361939082132
772,0.7626,1140.53,0.0100048,0.00361376,3.14776e-14,7.85656e-15,-1.79266e-14,0.55231,-0.246018,-0.304077,0.0,0.0,0.0,0.544669,0.7372614603072329,0.0,0.0,-0.21809184954790073,0.0,-0.2621959466487931
773,0.7636,1140.75,0.00998478,0.00360623,3.24121e-14,6.81347e-15,-1.41108e-14,0.552946,-0.246302,-0.304429,0.0,0.0,0.0,0.545302,0.7383667100281439,0.0,0.0,-0.21831387993282214,0.0,-0.2624556079724987
774,0.7646,1140.97,0.00996484,0.00359872,3.22784e-14,6.84843e-15,1.45034e-14,0.553583,-0.246586,-0.30478,0.0,0.0,0.0,0.545935,0.739474402384992,0.0,0.0,-0.21853584727006736,0.0,-0.2627144406263122
775,0.7656,1141.18,0.00994495,0.00359124,3.16719e-14,8.31385e-15,-2.7264e-14,0.554219,-0.24687,-0.305132,0.0,0.0,0.0,0.546568,0.7405810599847222,0.0,0.0,-0.21875775157753952,0.0,-0.2629739194722557
776,0.7666,1141.4,0.00992511,0.00358377,6.02869e-14,7.21671e-15,2.02046e-14,0.554854,-0.247154,-0.305483,0.0,0.0,0.0,0.5472,0.7416866799550019,0.0,0.0,-0.2189795928731365,0.0,-0.26323257023065727
777,0.7676,1141.61,0.00990533,0.00357633,2.71625e-14,5.76894e-15,9.44296e-15,0.55549,-0.247438,-0.305834,0.0,0.0,0.0,0.547831,0.7427947450107903,0.0,0.0,-0.21920137117475103,0.0,-0.26349113021857384
778,0.7686,1141.83,0.0098856,0.00356891,-2.49352e-14,5.44638e-15,-1.22188e-15,0.556124,-0.247722,-0.306185,0.0,0.0,0.0,0.548463,0.7439000272165635,0.0,0.0,-0.21942308650027098,0.0,-0.26374959946786025
779,0.7696,1142.04,0.00986592,0.0035615,-2.55286e-14,5.63964e-15,2.73784e-15,0.556759,-0.248005,-0.306536,0.0,0.0,0.0,0.549094,0.7450077554003225,0.0,0.0,-0.21964395851192764,0.0,-0.26400797801036013
780,0.7706,1142.25,0.00984629,0.00355412,8.86726e-14,1.01165e-14,-4.51083e-16,0.557393,-0.248288,-0.306886,0.0,0.0,0.0,0.549724,0.7461144410995431,0.0,0.0,-0.21986476802564892,0.0,-0.26426553014380394
781,0.7716,1142.47,0.00982672,0.00354676,3.17477e-14,5.93805e-15,3.36863e-14,0.558026,-0.248571,-0.307236,0.0,0.0,0.0,0.550354,0.7472200814390082,0.0,0.0,-0.2200855150591191,0.0,-0.26452299214977437
782,0.7726,1142.68,0.0098072,0.00353942,8.90576e-14,7.50887e-15,2.91927e-14,0.558659,-0.248854,-0.307586,0.0,0.0,0.0,0.550984,0.7483264218703642,0.0,0.0,-0.22030619963001774,0.0,-0.2647803640598103
783,0.7736,1142.89,0.00978773,0.0035321,3.45186e-14,8.4186e-15,1.25977e-14,0.559292,-0.249137,-0.307936,0.0,0.0,0.0,0.551613,0.749433462836909,0.0,0.0,-0.22052682175601912,0.0,-0.26503764590544
784,0.7746,1143.11,0.00976832,0.0035248,3.12452e-14,6.82938e-15,-1.20351e-14,0.559925,-0.249419,-0.308285,0.0,0.0,0.0,0.552242,0.7505412047822222,0.0,0.0,-0.22074660220178455,0.0,-0.2652941030126508
785,0.7756,1143.32,0.00974895,0.00351752,3.02497e-14,7.33892e-15,-1.46544e-14,0.560557,-0.249701,-0.308635,0.0,0.0,0.0,0.55287,0.7516478965013911,0.0,0.0,-0.22096632067820243,0.0,-0.26555120508110974
786,0.7766,1143.53,0.00972964,0.00351026,3.47124e-14,9.22548e-15,1.02233e-14,0.561188,-0.249983,-0.308984,0.0,0.0,0.0,0.553499,0.7527535351163814,0.0,0.0,-0.22118597720274558,0.0,-0.2658074829874405
787,0.7776,1143.74,0.00971038,0.00350302,8.73657e-14,9.45716e-15,-2.44345e-15,0.561819,-0.250265,-0.309332,0.0,0.0,0.0,0.554126,0.7538598716094951,0.0,0.0,-0.2214055717928819,0.0,-0.2660629375316922
788,0.7786,1143.95,0.00969117,0.0034958,2.95931e-14,5.83117e-15,-1.57524e-14,0.56245,-0.250547,-0.309681,0.0,0.0,0.0,0.554754,0.7549669064212323,0.0,0.0,-0.22162510446607464,0.0,-0.2663190368745588
789,0.7796,1144.17,0.00967201,0.0034886,8.71475e-14,9.32826e-15,3.29711e-15,0.563081,-0.250829,-0.310029,0.0,0.0,0.0,0.55538,0.7560746399923712,0.0,0.0,-0.22184457523978163,0.0,-0.2665743134290298
790,0.7806,1144.38,0.0096529,0.00348143,5.76114e-14,9.5478e-15,-2.22676e-14,0.563711,-0.25111,-0.310378,0.0,0.0,0.0,0.556007,0.7571813155817735,0.0,0.0,-0.22206320619505138,0.0,-0.2668302343328477
791,0.7816,1144.59,0.00963385,0.00347427,8.60521e-14,1.06997e-14,4.16858e-16,0.56434,-0.251391,-0.310726,0.0,0.0,0.0,0.556633,0.7582869303086539,0.0,0.0,-0.2222817757236536,0.0,-0.2670853330215536
792,0.7826,1144.8,0.00961484,0.00346713,3.32637e-14,7.88646e-15,1.39705e-14,0.564969,-0.251672,-0.311073,0.0,0.0,0.0,0.557259,0.7593932406859567,0.0,0.0,-0.2225002838428467,0.0,-0.26733961029133735
793,0.7836,1145.01,0.00959588,0.00346001,2.91281e-14,8.27148e-15,1.63754e-14,0.565598,-0.251953,-0.311421,0.0,0.0,0.0,0.557884,0.7605002471513835,0.0,0.0,-0.22271873056988434,0.0,-0.2675945317480498
794,0.7846,1145.22,0.00957698,0.00345291,2.88169e-14,9.57015e-15,-1.34877e-14,0.566227,-0.252234,-0.311768,0.0,0.0,0.0,0.558509,0.7616079501429114,0.0,0.0,-0.22293711592201526,0.0,-0.267848632356528
795,0.7856,1145.42,0.00955812,0.00344583,2.90234e-14,7.84431e-15,-8.31034e-15,0.566855,-0.252515,-0.312115,0.0,0.0,0.0,0.559134,0.7627145873833245,0.0,0.0,-0.22315543991648334,0.0,-0.2681026448073913
796,0.7866,1145.63,0.00953932,0.00343877,2.87218e-14,8.23345e-15,1.00972e-14,0.567482,-0.252795,-0.312462,0.0,0.0,0.0,0.559758,0.7638201559891526,0.0,0.0,-0.22337292594384195,0.0,-0.2683565691312251
797,0.7876,1145.84,0.00952056,0.00343173,8.54106e-14,1.09738e-14,-2.4997e-14,0.56811,-0.253075,-0.312809,0.0,0.0,0.0,0.560382,0.764928182931158,0.0,0.0,-0.22359035108363767,0.0,-0.26861040535860403
798,0.7886,1146.05,0.00950186,0.00342471,8.33091e-14,6.4682e-14,-1.60795e-14,0.568736,-0.253355,-0.313155,0.0,0.0,0.0,0.561005,0.7660333738623428,0.0,0.0,-0.22380771535291644,0.0,-0.2688634223838804
799,0.7896,1146.26,0.0094832,0.0034177,-3.1061e-14,6.297e-15,2.06802e-14,0.569363,-0.253635,-0.313501,0.0,0.0,0.0,0.561628,0.7671410239997851,0.0,0.0,-0.2240250187687196,0.0,-0.2691163518804094
800,0.7906,1146.46,0.00946459,0.00341072,2.96957e-14,6.62976e-14,-2.95219e-14,0.569989,-0.253915,-0.313847,0.0,0.0,0.0,0.56225,0.7682476006031491,0.0,0.0,-0.224242261348084,0.0,-0.2693691938784707
801,0.7916,1146.67,0.00944604,0.00340376,-3.15631e-14,-2.24823e-14,1.37163e-14,0.570615,-0.254194,-0.314193,0.0,0.0,0.0,0.562873,0.7693548701403325,0.0,0.0,-0.22445866756709654,0.0,-0.26962194840833353
802,0.7926,1146.88,0.00942753,0.00339681,2.87614e-14,8.69684e-15,8.52144e-15,0.57124,-0.254473,-0.314539,0.0,0.0,0.0,0.563495,0.7704610625832997,0.0,0.0,-0.22467501341719587,0.0,-0.2698746155002566
803,0.7936,1147.08,0.00940907,0.00338989,2.60406e-14,6.36402e-14,1.30743e-15,0.571865,-0.254752,-0.314884,0.0,0.0,0.0,0.564116,0.7715679466126419,0.0,0.0,-0.22489129891522253,0.0,-0.27012646531131856
804,0.7946,1147.29,0.00939065,0.00338298,-7.63574e-16,3.50949e-14,-8.40519e-15,0.572489,-0.255031,-0.315229,0.0,0.0,0.0,0.564737,0.7726737499860998,0.0,0.0,-0.22510752407801238,0.0,-0.27037822824918223
805,0.7956,1147.5,0.00937229,0.00337609,2.77322e-14,7.89154e-15,-1.81699e-14,0.573113,-0.25531,-0.315574,0.0,0.0,0.0,0.565358,0.773780243596194,0.0,0.0,-0.22532368892239651,0.0,-0.2706299043438136
806,0.7966,1147.7,0.00935397,0.00336922,2.80386e-14,7.29528e-15,1.28751e-14,0.573737,-0.255589,-0.315919,0.0,0.0,0.0,0.565978,0.7748874278737667,0.0,0.0,-0.2255397934652017,0.0,-0.27088149362516856
807,0.7976,1147.91,0.00933571,0.00336237,2.3685e-14,6.76684e-15,-1.56372e-14,0.57436,-0.255867,-0.316263,0.0,0.0,0.0,0.566598,0.7759935272555136,0.0,0.0,-0.2257550634787001,0.0,-0.27113226725582407
808,0.7986,1148.11,0.00931749,0.00335554,2.78064e-14,7.73759e-15,1.32008e-14,0.574983,-0.256145,-0.316608,0.0,0.0,0.0,0.567217,0.7771003159518748,0.0,0.0,-0.2259702736554524,0.0,-0.2713836832518677
809,0.7996,1148.32,0.00929932,0.00334873,2.3224e-14,8.11779e-15,1.38059e-14,0.575606,-0.256424,-0.316952,0.0,0.0,0.0,0.567836,0.7782077943924266,0.0,0.0,-0.22618619782628002,0.0,-0.2716342841590018
810,0.8006,1148.52,0.00928119,0.00334194,2.71402e-14,7.01508e-15,1.62549e-14,0.576228,-0.256701,-0.317295,0.0,0.0,0.0,0.568455,0.7793141836919404,0.0,0.0,-0.22640051456524346,0.0,-0.2718840707586845
811,0.8016,1148.72,0.00926312,0.00333516,8.57402e-14,9.39655e-15,9.68367e-16,0.57685,-0.256979,-0.317639,0.0,0.0,0.0,0.569073,0.780421261379665,0.0,0.0,-0.22661554533153294,0.0,-0.27213449956211977
812,0.8026,1148.93,0.00924509,0.00332841,2.85782e-14,6.42951e-14,2.18935e-14,0.577471,-0.257257,-0.317982,0.0,0.0,0.0,0.569691,0.7815272463557743,0.0,0.0,-0.2268305163275779,0.0,-0.2723841146173407
813,0.8036,1149.13,0.00922711,0.00332167,2.17099e-14,7.37058e-15,-1.72447e-14,0.578092,-0.257534,-0.318326,0.0,0.0,0.0,0.570309,0.7826339183618543,0.0,0.0,-0.2270446546150331,0.0,-0.2726343714352718
814,0.8046,1149.33,0.00920917,0.00331495,-3.12754e-14,5.38535e-15,2.35117e-14,0.578713,-0.257811,-0.318669,0.0,0.0,0.0,0.570926,0.7837412778246833,0.0,0.0,-0.2272587335943972,0.0,-0.27288381506384163
815,0.8056,1149.54,0.00919129,0.00330825,-3.12072e-14,6.9853e-15,6.82413e-16,0.579333,-0.258088,-0.319011,0.0,0.0,0.0,0.571543,0.7848475403228716,0.0,0.0,-0.22747275328209637,0.0,-0.2731324462807283
816,0.8066,1149.74,0.00917345,0.00330156,2.71207e-14,7.92363e-15,-1.877e-14,0.579953,-0.258365,-0.319354,0.0,0.0,0.0,0.572159,0.7859544889164767,0.0,0.0,-0.22768671369455207,0.0,-0.27338171909892184
817,0.8076,1149.94,0.00915565,0.0032949,-3.17712e-14,5.8748e-15,-1.27574e-15,0.580572,-0.258642,-0.319696,0.0,0.0,0.0,0.572775,0.7870603369697786,0.0,0.0,-0.22790061484818114,0.0,-0.27363018006174356
818,0.8086,1150.14,0.0091379,0.00328825,2.71046e-14,8.37907e-15,1.25056e-14,0.581191,-0.258918,-0.320039,0.0,0.0,0.0,0.573391,0.7881668697549282,0.0,0.0,-0.22811368487346695,0.0,-0.2738792821865258
819,0.8096,1150.35,0.0091202,0.00328162,2.67332e-14,6.75829e-15,8.41494e-15,0.58181,-0.259195,-0.32038,0.0,0.0,0.0,0.574006,0.7892740876959059,0.0,0.0,-0.2283274677724586,0.0,-0.27412684713907687
820,0.8106,1150.55,0.00910254,0.00327501,2.63981e-14,7.72171e-15,-5.24876e-15,0.582428,-0.259471,-0.320722,0.0,0.0,0.0,0.574621,0.7903802008358576,0.0,0.0,-0.22854042000259378,0.0,-0.27437505331168055
821,0.8116,1150.75,0.00908494,0.00326842,-2.68311e-15,7.13524e-15,1.96446e-14,0.583046,-0.259747,-0.321064,0.0,0.0,0.0,0.575236,0.7914869977649994,0.0,0.0,-0.22875331346602368,0.0,-0.274623174612287
822,0.8126,1150.95,0.00906737,0.00326184,3.088e-14,7.57542e-15,1.56897e-14,0.583664,-0.260023,-0.321405,0.0,0.0,0.0,0.57585,0.7925944789060428,0.0,0.0,-0.22896614817896566,0.0,-0.27487048594076635
823,0.8136,1151.15,0.00904985,0.00325528,3.11178e-14,6.46489e-14,2.85729e-15,0.584281,-0.260299,-0.321746,0.0,0.0,0.0,0.576464,0.7937008509802144,0.0,0.0,-0.2291789241576324,0.0,-0.2751177129504597
824,0.8146,1151.35,0.00903238,0.00324874,2.88921e-14,7.19583e-15,6.60637e-15,0.584898,-0.260574,-0.322087,0.0,0.0,0.0,0.577077,0.7948079058965904,0.0,0.0,-0.22939087080948872,0.0,-0.27536485567011504
825,0.8156,1151.55,0.00901495,0.00324222,-2.63388e-15,5.22016e-15,5.00256e-15,0.585514,-0.260849,-0.322428,0.0,0.0,0.0,0.57769,0.795913848161869,0.0,0.0,-0.22960275918402928,0.0,-0.2756119141284704
826,0.8166,1151.75,0.00899757,0.00323572,8.50895e-14,8.75213e-15,2.51189e-15,0.58613,-0.261125,-0.322768,0.0,0.0,0.0,0.578303,0.7970204718974545,0.0,0.0,-0.2298153594823038,0.0,-0.2758581642127802
827,0.8176,1151.95,0.00898023,0.00322923,2.72691e-14,3.49523e-14,-4.8495e-15,0.586746,-0.2614,-0.323108,0.0,0.0,0.0,0.578915,0.7981277775232616,0.0,0.0,-0.2300271311385088,0.0,-0.2761043305862929
828,0.8186,1152.14,0.00896294,0.00322276,2.59068e-14,7.26537e-15,3.28269e-14,0.587361,-0.261674,-0.323448,0.0,0.0,0.0,0.579527,0.7992339662245984,0.0,0.0,-0.23023807480397496,0.0,-0.27635041327746546
829,0.8196,1152.34,0.00894569,0.00321631,2.58985e-14,6.71927e-15,1.49066e-14,0.587976,-0.261949,-0.323788,0.0,0.0,0.0,0.580139,0.8003408354412236,0.0,0.0,-0.23044973022944903,0.0,-0.2765964123147451
830,0.8206,1152.54,0.00892849,0.00320988,9.12982e-14,9.61183e-14,4.44894e-15,0.58859,-0.262224,-0.324128,0.0,0.0,0.0,0.58075,0.8014465841442975,0.0,0.0,-0.23066132745768353,0.0,-0.276842327726569
831,0.8216,1152.74,0.00891133,0.00320346,2.40725e-14,5.79838e-15,8.0218e-15,0.589205,-0.262498,-0.324467,0.0,0.0,0.0,0.581361,0.8025548145394628,0.0,0.0,-0.23087209737716252,0.0,-0.27708743662916335
832,0.8226,1152.94,0.00889422,0.00319706,2.64343e-14,6.36813e-15,3.92894e-16,0.589818,-0.262772,-0.324806,0.0,0.0,0.0,0.581971,0.803660119382098,0.0,0.0,-0.23108280955359473,0.0,-0.2773324624539222
833,0.8236,1153.13,0.00887715,0.00319068,-3.34417e-14,4.46991e-15,-6.0925e-16,0.590432,-0.263046,-0.325145,0.0,0.0,0.0,0.582581,0.8047679067513185,0.0,0.0,-0.2312934640027996,0.0,-0.2775774052290042
834,0.8246,1153.33,0.00886012,0.00318431,2.65729e-14,3.69231e-14,-2.07786e-14,0.591045,-0.26332,-0.325484,0.0,0.0,0.0,0.583191,0.8058745686353705,0.0,0.0,-0.23150406074059215,0.0,-0.27782226498255835
835,0.8256,1153.53,0.00884314,0.00317796,2.5519e-14,5.63601e-15,-9.99474e-15,0.591657,-0.263594,-0.325823,0.0,0.0,0.0,0.5838,0.8069801021301188,0.0,0.0,-0.2317145997827832,0.0,-0.27806704174272423
836,0.8266,1153.72,0.0088262,0.00317163,-3.74585e-14,4.77739e-15,-2.1371e-15,0.59227,-0.263867,-0.326161,0.0,0.0,0.0,0.584409,0.80808812050566,0.0,0.0,-0.23192431306987638,0.0,-0.2783110138490066
837,0.8276,1153.92,0.00880931,0.00316532,2.97912e-14,7.38121e-15,1.368e-14,0.592881,-0.26414,-0.326499,0.0,0.0,0.0,0.585017,0.8091931999146693,0.0,0.0,-0.23213396911305628,0.0,-0.2785549035066516
838,0.8286,1154.12,0.00879245,0.00315902,2.57394e-14,5.84617e-15,-5.14635e-15,0.593493,-0.264414,-0.326837,0.0,0.0,0.0,0.585625,0.8103007650333742,0.0,0.0,-0.2323443355839967,0.0,-0.27879871074352214
839,0.8296,1154.31,0.00877565,0.00315274,2.59913e-14,5.44425e-15,-1.72532e-14,0.594104,-0.264686,-0.327175,0.0,0.0,0.0,0.586233,0.8114071967812873,0.0,0.0,-0.23255310953017394,0.0,-0.2790424355874719
840,0.8306,1154.51,0.00875888,0.00314647,2.57295e-14,6.04911e-15,-1.455e-14,0.594715,-0.264959,-0.327513,0.0,0.0,0.0,0.586841,0.8125143047655676,0.0,0.0,-0.23276259393534993,0.0,-0.27928607806634487
841,0.8316,1154.7,0.00874216,0.00314023,2.54928e-14,6.58641e-15,-1.21564e-14,0.595325,-0.265232,-0.32785,0.0,0.0,0.0,0.587448,0.8136202757783393,0.0,0.0,-0.23297202115908877,0.0,-0.27952891773725363
842,0.8326,1154.9,0.00872548,0.003134,2.16144e-14,6.10135e-15,-1.19556e-14,0.595935,-0.265504,-0.328187,0.0,0.0,0.0,0.588054,0.8147269216392363,0.0,0.0,-0.2331806243980069,0.0,-0.2797716755849814
843,0.8336,1155.09,0.00870884,0.00312778,2.51988e-14,6.15127e-15,-4.38958e-14,0.596545,-0.265777,-0.328524,0.0,0.0,0.0,0.588661,0.815834242760042,0.0,0.0,-0.2333899375150058,0.0,-0.28001435163709776
844,0.8346,1155.29,0.00869225,0.00312158,2.55013e-14,6.19544e-15,-1.70542e-14,0.597154,-0.266049,-0.328861,0.0,0.0,0.0,0.589267,0.8169404226114592,0.0,0.0,-0.2335984270961332,0.0,-0.28025694592116324
845,0.8356,1155.48,0.0086757,0.0031154,2.47965e-14,5.75322e-15,1.39033e-14,0.597763,-0.266321,-0.329197,0.0,0.0,0.0,0.589872,0.818047276331578,0.0,0.0,-0.2338068599758064,0.0,-0.2804987389638278
846,0.8366,1155.67,0.00865919,0.00310924,2.09762e-14,6.32256e-15,2.7257e-15,0.598372,-0.266593,-0.329534,0.0,0.0,0.0,0.590477,0.8191548043309098,0.0,0.0,-0.23401523616944597,0.0,-0.2807411700368668
847,0.8376,1155.87,0.00864272,0.00310309,2.46141e-14,6.34717e-15,-1.4127e-14,0.59898,-0.266864,-0.32987,0.0,0.0,0.0,0.591082,0.8202611867581182,0.0,0.0,-0.23422278991564116,0.0,-0.28098280040755885
848,0.8386,1156.06,0.0086263,0.00309696,2.44763e-14,6.85027e-15,9.78145e-15,0.599588,-0.267136,-0.330206,0.0,0.0,0.0,0.591687,0.821368242070379,0.0,0.0,-0.23443105299172173,0.0,-0.2812243496040844
849,0.8396,1156.25,0.00860992,0.00309084,2.45957e-14,6.81596e-15,1.27383e-14,0.600195,-0.267407,-0.330541,0.0,0.0,0.0,0.592291,0.8224741482018707,0.0,0.0,-0.2346384940668258,0.0,-0.2814650991191717
850,0.8406,1156.44,0.00859358,0.00308475,-9.62117e-16,3.51936e-14,1.27135e-14,0.600802,-0.267678,-0.330877,0.0,0.0,0.0,0.592895,0.8235807258221606,0.0,0.0,-0.23484587893301512,0.0,-0.28170648629055195
851,0.8416,1156.64,0.00857728,0.00307866,2.43677e-14,6.01713e-15,-2.06374e-14,0.601409,-0.267949,-0.331212,0.0,0.0,0.0,0.593498,0.8246879753389658,0.0,0.0,-0.2350532076055203,0.0,-0.28194707431690025
852,0.8426,1156.83,0.00856102,0.0030726,2.47496e-14,4.62669e-15,-1.85253e-14,0.602015,-0.26822,-0.331547,0.0,0.0,0.0,0.594101,0.8257940713652674,0.0,0.0,-0.23526048009956768,0.0,-0.2821875817597581
853,0.8436,1157.02,0.0085448,0.00306654,1.65303e-14,5.31617e-15,1.74101e-14,0.602621,-0.268491,-0.331882,0.0,0.0,0.0,0.594704,0.8269008378889009,0.0,0.0,-0.23546769643037968,0.0,-0.2824280086461166
854,0.8446,1157.21,0.00852863,0.00306051,2.62217e-14,6.56554e-14,-9.03187e-15,0.603226,-0.268761,-0.332217,0.0,0.0,0.0,0.595306,0.8280064473089501,0.0,0.0,-0.2356740922876489,0.0,-0.2826683550029577
855,0.8456,1157.4,0.00851249,0.00305449,-3.66701e-14,4.20917e-15,-4.16759e-15,0.603832,-0.269032,-0.332551,0.0,0.0,0.0,0.595908,0.8291145549387198,0.0,0.0,-0.2358811965447446,0.0,-0.28290790376551644
856,0.8466,1157.59,0.0084964,0.00304849,8.57677e-14,7.34669e-15,-2.24307e-14,0.604437,-0.269302,-0.332886,0.0,0.0,0.0,0.596509,0.8302215040628034,0.0,0.0,-0.23608748077205366,0.0,-0.2831480893844176
857,0.8476,1157.78,0.00848035,0.0030425,-1.9641e-15,3.39333e-15,2.75131e-14,0.605041,-0.269572,-0.33322,0.0,0.0,0.0,0.597111,0.8313272917655261,0.0,0.0,-0.2362937093101397,0.0,-0.28338747794244856
858,0.8486,1157.97,0.00846433,0.00303653,-5.89442e-15,5.657e-15,-8.36593e-15,0.605645,-0.269842,-0.333554,0.0,0.0,0.0,0.597711,0.8324337475657664,0.0,0.0,-0.23649988217403695,0.0,-0.2836267865580523
859,0.8496,1158.16,0.00844836,0.00303058,-3.56172e-14,4.29835e-15,2.18756e-15,0.606249,-0.270112,-0.333887,0.0,0.0,0.0,0.598312,0.8335408718671771,0.0,0.0,-0.23670599937877512,0.0,-0.28386529912358227
860,0.8506,1158.35,0.00843243,0.00302464,-3.16523e-14,5.49845e-15,1.94332e-15,0.606852,-0.270381,-0.334221,0.0,0.0,0.0,0.598912,0.8346468304259069,0.0,0.0,-0.2369112978510597,0.0,-0.2841044481735604
861,0.8516,1158.54,0.00841654,0.00301871,2.79508e-14,6.56649e-15,8.67838e-15,0.607455,-0.27065,-0.334554,0.0,0.0,0.0,0.599512,0.8357534560787565,0.0,0.0,-0.23711654110548241,0.0,-0.2843428017042532
862,0.8526,1158.73,0.00840069,0.0030128,8.64616e-14,6.68014e-14,8.42773e-15,0.608058,-0.27092,-0.334887,0.0,0.0,0.0,0.600111,0.8368607492281048,0.0,0.0,-0.23732249183478438,0.0,-0.2845810758764342
863,0.8536,1158.92,0.00838488,0.00300691,-3.38832e-14,3.29282e-15,1.7156e-15,0.60866,-0.271189,-0.33522,0.0,0.0,0.0,0.60071,0.8379668723087821,0.0,0.0,-0.23752762449290132,0.0,-0.28481927071652535
864,0.8546,1159.11,0.00836911,0.00300103,2.47097e-14,7.00657e-15,-1.69631e-14,0.609262,-0.271458,-0.335553,0.0,0.0,0.0,0.601309,0.8390736614760259,0.0,0.0,-0.2377327019777543,0.0,-0.2850573862509399
865,0.8556,1159.3,0.00835338,0.00299517,2.38365e-14,4.52785e-15,1.3046e-14,0.609864,-0.271726,-0.335885,0.0,0.0,0.0,0.601907,0.840181117130941,0.0,0.0,-0.23793696224152638,0.0,-0.2852947078011474
866,0.8566,1159.49,0.00833769,0.00298932,2.57386e-14,6.54818e-14,2.40706e-14,0.610465,-0.271995,-0.336217,0.0,0.0,0.0,0.602505,0.841287398386555,0.0,0.0,-0.23814192962933378,0.0,-0.285531950573678
867,0.8576,1159.67,0.00832204,0.00298349,2.64856e-14,4.52107e-15,-1.15797e-14,0.611066,-0.272263,-0.336549,0.0,0.0,0.0,0.603103,0.8423943447170386,0.0,0.0,-0.2383460802347901,0.0,-0.2857691145946817
868,0.8586,1159.86,0.00830643,0.00297768,9.07967e-14,6.64437e-14,-3.64525e-14,0.611666,-0.272531,-0.336881,0.0,0.0,0.0,0.6037,0.843500113021187,0.0,0.0,-0.238550176135215,0.0,-0.2860061998902994
869,0.8596,1160.05,0.00829086,0.00297188,7.86863e-14,3.92444e-15,1.28916e-15,0.612266,-0.2728,-0.337213,0.0,0.0,0.0,0.604297,0.8446065449853959,0.0,0.0,-0.2387549785906693,0.0,-0.2862432064866639
870,0.8606,1160.23,0.00827532,0.00296609,8.43804e-14,6.59204e-15,-4.62304e-15,0.612866,-0.273067,-0.337545,0.0,0.0,0.0,0.604893,0.8457136410079811,0.0,0.0,-0.2389582038796022,0.0,-0.2864801344098987
871,0.8616,1160.42,0.00825983,0.00296032,8.53667e-14,6.82971e-14,-1.54091e-14,0.613466,-0.273335,-0.337876,0.0,0.0,0.0,0.605489,0.8468214014874968,0.0,0.0,-0.23916213575287093,0.0,-0.2867162704027464
872,0.8626,1160.61,0.00824438,0.00295456,2.08887e-14,5.08597e-15,1.05865e-14,0.614065,-0.273603,-0.338207,0.0,0.0,0.0,0.606085,0.8479279788938343,0.0,0.0,-0.2393660129797205,0.0,-0.2869523282475145
873,0.8636,1160.79,0.00822896,0.00294882,2.42738e-14,3.5601e-14,-2.34045e-14,0.614663,-0.27387,-0.338538,0.0,0.0,0.0,0.606681,0.8490333703043034,0.0,0.0,-0.23956907514424952,0.0,-0.287188307970066
874,0.8646,1160.98,0.00821358,0.0029431,2.19481e-14,4.8956e-15,3.37983e-14,0.615262,-0.274138,-0.338868,0.0,0.0,0.0,0.607276,0.8501412730768698,0.0,0.0,-0.23977284332595494,0.0,-0.2874234970201083
875,0.8656,1161.17,0.00819824,0.00293739,2.30273e-14,5.51748e-15,1.58247e-14,0.61586,-0.274405,-0.339199,0.0,0.0,0.0,0.60787,0.8512479884330808,0.0,0.0,-0.23997579688128157,0.0,-0.28765932081160395
876,0.8666,1161.35,0.00818294,0.00293169,-7.83366e-15,3.65878e-15,-9.13995e-15,0.616457,-0.274672,-0.339529,0.0,0.0,0.0,0.608465,0.8523535134485576,0.0,0.0,-0.24017869625524246,0.0,-0.28789435445305245
877,0.8676,1161.54,0.00816768,0.00292601,2.27816e-14,5.38005e-15,1.32751e-14,0.617055,-0.274938,-0.339859,0.0,0.0,0.0,0.609059,0.8534615521201427,0.0,0.0,-0.2403807818434638,0.0,-0.2881293105461953
878,0.8686,1161.72,0.00815246,0.00292035,2.96676e-14,4.0184e-15,1.87607e-14,0.617651,-0.275205,-0.340189,0.0,0.0,0.0,0.609652,0.8545665444602142,0.0,0.0,-0.24058357310087397,0.0,-0.28836418911661943
879,0.8696,1161.91,0.00813727,0.0029147,2.19354e-14,-2.61556e-14,-2.19256e-14,0.618248,-0.275472,-0.340519,0.0,0.0,0.0,0.610246,0.8556740512451386,0.0,0.0,-0.2407863102202462,0.0,-0.2885989901899031
880,0.8706,1162.09,0.00812212,0.00290906,1.90959e-14,5.3514e-15,3.22426e-14,0.618844,-0.275738,-0.340848,0.0,0.0,0.0,0.610839,0.8567803626277244,0.0,0.0,-0.2409882342046471,0.0,-0.28883300262497413
881,0.8716,1162.27,0.00810701,0.00290344,8.26719e-14,7.8572e-15,-3.10187e-15,0.61944,-0.276004,-0.341178,0.0,0.0,0.0,0.611431,0.8578873335684232,0.0,0.0,-0.24119010448441114,0.0,-0.2890676490153241
882,0.8726,1162.46,0.00809194,0.00289783,8.26318e-14,6.22902e-15,-2.75493e-15,0.620035,-0.27627,-0.341507,0.0,0.0,0.0,0.612024,0.8589931054664133,0.0,0.0,-0.2413919210738219,0.0,-0.289301507287003
883,0.8736,1162.64,0.0080769,0.00289224,2.52663e-14,4.29407e-15,-1.13818e-14,0.620631,-0.276536,-0.341836,0.0,0.0,0.0,0.612615,0.8601013955949228,0.0,0.0,-0.2415936839871592,0.0,-0.28953528863196554
884,0.8746,1162.82,0.00806191,0.00288666,1.76941e-14,5.46545e-15,1.0325e-14,0.621225,-0.276802,-0.342165,0.0,0.0,0.0,0.613207,0.8612066240442586,0.0,0.0,-0.2417953932386988,0.0,-0.2897689930755166
885,0.8756,1163.01,0.00804695,0.0028811,2.23569e-14,3.5967e-14,6.63562e-15,0.62182,-0.277067,-0.342493,0.0,0.0,0.0,0.613798,0.8623143715077546,0.0,0.0,-0.2419962908393828,0.0,-0.2900019106452183
886,0.8766,1163.19,0.00803202,0.00287555,1.23565e-14,-2.56888e-14,2.14177e-14,0.622414,-0.277332,-0.342821,0.0,0.0,0.0,0.614389,0.8634209148552687,0.0,0.0,-0.242197135209256,0.0,-0.29023475183048475
887,0.8776,1163.37,0.00801714,0.00287001,8.32018e-14,7.21511e-15,2.24357e-14,0.623008,-0.277598,-0.34315,0.0,0.0,0.0,0.61498,0.8645281156847839,0.0,0.0,-0.24239868396411746,0.0,-0.29046822618849466
888,0.8786,1163.56,0.00800229,0.00286449,2.0623e-14,3.72323e-15,-1.3974e-14,0.623601,-0.277863,-0.343477,0.0,0.0,0.0,0.61557,0.8656341087519193,0.0,0.0,-0.24259942171394044,0.0,-0.29070020514790407
889,0.8796,1163.74,0.00798748,0.00285898,2.05838e-14,5.43828e-15,-1.45747e-14,0.624194,-0.278128,-0.343805,0.0,0.0,0.0,0.61616,0.8667407578674426,0.0,0.0,-0.24280010627530735,0.0,-0.2909328173301322
890,0.8806,1163.92,0.0079727,0.00285349,2.05479e-14,5.51903e-15,1.51959e-14,0.624787,-0.278392,-0.344133,0.0,0.0,0.0,0.616749,0.8678480634205059,0.0,0.0,-0.2429999806626707,0.0,-0.2911653532280759
891,0.8816,1164.1,0.00795796,0.00284801,2.10052e-14,5.10776e-15,2.64902e-14,0.625379,-0.278657,-0.34446,0.0,0.0,0.0,0.617338,0.8689541568454009,0.0,0.0,-0.24320055908997973,0.0,-0.29139710426421084
892,0.8826,1164.28,0.00794326,0.00284255,1.99411e-14,4.74054e-15,1.80143e-14,0.625971,-0.278921,-0.344787,0.0,0.0,0.0,0.617927,0.8700609052714645,0.0,0.0,-0.2434003277717537,0.0,-0.2916287795301461
893,0.8836,1164.46,0.0079286,0.0028371,8.56696e-14,6.8287e-15,-3.23855e-15,0.626562,-0.279186,-0.345114,0.0,0.0,0.0,0.618515,0.8711664379191988,0.0,0.0,-0.24360080012113472,0.0,-0.2918603790506543
894,0.8846,1164.64,0.00791397,0.00283166,2.0146e-14,4.34295e-15,1.08336e-14,0.627154,-0.27945,-0.345441,0.0,0.0,0.0,0.619103,0.872274496403397,0.0,0.0,-0.2438004631532228,0.0,-0.29209190285050046
895,0.8856,1164.82,0.00789937,0.00282624,1.9156e-14,-2.39737e-14,-2.2262e-14,0.627745,-0.279714,-0.345768,0.0,0.0,0.0,0.619691,0.8733813376701494,0.0,0.0,-0.24400007348122776,0.0,-0.29232335095444106
896,0.8866,1165.0,0.00788482,0.00282083,2.04659e-14,5.8486e-15,1.12523e-14,0.628335,-0.279978,-0.346094,0.0,0.0,0.0,0.620278,0.8744869587855315,0.0,0.0,-0.2441996311190615,0.0,-0.29255401594159414
897,0.8876,1165.18,0.0078703,0.00281544,1.94447e-14,4.92017e-15,-1.42978e-14,0.628925,-0.280241,-0.34642,0.0,0.0,0.0,0.620865,0.8755932324098428,0.0,0.0,-0.24439838047939066,0.0,-0.29278460574421716
898,0.8886,1165.36,0.00785581,0.00281006,1.99907e-14,5.05788e-15,-1.00513e-14,0.629515,-0.280505,-0.346746,0.0,0.0,0.0,0.621452,0.8767001589281778,0.0,0.0,-0.24459783297805593,0.0,-0.2930151203868162
899,0.8896,1165.54,0.00784136,0.00280469,2.17115e-14,6.70615e-14,-3.61343e-15,0.630105,-0.280768,-0.347072,0.0,0.0,0.0,0.622038,0.8778077387258565,0.0,0.0,-0.24479647762506662,0.0,-0.2932455598938897
900,0.8906,1165.72,0.00782695,0.00279934,1.7628e-14,5.42406e-15,-3.8582e-14,0.630694,-0.281031,-0.347398,0.0,0.0,0.0,0.622624,0.8789140932733954,0.0,0.0,-0.24499507003540455,0.0,-0.2934759242899275
901,0.8916,1165.9,0.00781257,0.002794,2.39922e-14,5.01765e-15,-2.10718e-14,0.631283,-0.281294,-0.347723,0.0,0.0,0.0,0.62321,0.8800210996557094,0.0,0.0,-0.24519361022280617,0.0,-0.29370550730527245
902,0.8926,1166.08,0.00779823,0.00278868,1.99456e-14,5.13805e-15,-1.13248e-14,0.631871,-0.281557,-0.348048,0.0,0.0,0.0,0.623795,0.8811268771290244,0.0,0.0,-0.24539209820100438,0.0,-0.293935015718261
903,0.8936,1166.26,0.00778392,0.00278337,2.70802e-14,5.00359e-15,-2.64631e-14,0.632459,-0.28182,-0.348373,0.0,0.0,0.0,0.62438,0.8822333049906892,0.0,0.0,-0.2455905339837282,0.0,-0.2941644495531349
904,0.8946,1166.44,0.00776965,0.00277807,1.61177e-14,4.64147e-15,1.52325e-14,0.633047,-0.282082,-0.348698,0.0,0.0,0.0,0.624965,0.8833403836232447,0.0,0.0,-0.24578816337324394,0.0,-0.29439380883412813
905,0.8956,1166.62,0.00775541,0.00277278,-3.92187e-14,3.59229e-15,1.47556e-14,0.633635,-0.282345,-0.349023,0.0,0.0,0.0,0.625549,0.8844481134094562,0.0,0.0,-0.24598649500452408,0.0,-0.2946230935854668
906,0.8966,1166.79,0.00774121,0.00276751,1.34398e-14,-5.53906e-14,-2.25287e-14,0.634222,-0.282607,-0.349347,0.0,0.0,0.0,0.626133,0.8855546091767632,0.0,0.0,-0.24618402066584133,0.0,-0.2948515986833202
907,0.8976,1166.97,0.00772704,0.00276225,1.97011e-14,5.35123e-15,-1.73909e-14,0.634808,-0.282869,-0.349672,0.0,0.0,0.0,0.626717,0.886659867986944,0.0,0.0,-0.24638149458221426,0.0,-0.29508073467713225
908,0.8986,1167.15,0.00771291,0.00275701,1.82595e-14,5.44101e-15,-1.47448e-14,0.635395,-0.283131,-0.349996,0.0,0.0,0.0,0.6273,0.8877676624353137,0.0,0.0,-0.24657891676719812,0.0,-0.2953090915232902
909,0.8996,1167.33,0.00769881,0.00275178,4.73896e-14,-5.49572e-14,4.85649e-15,0.635981,-0.283393,-0.35032,0.0,0.0,0.0,0.627883,0.8888742184747547,0.0,0.0,-0.24677628723434497,0.0,-0.29553737439381456
910,0.9006,1167.5,0.00768475,0.00274656,2.05337e-14,5.25994e-15,-1.13262e-14,0.636567,-0.283655,-0.350643,0.0,0.0,0.0,0.628465,0.8899814231460654,0.0,0.0,-0.24697360599720286,0.0,-0.29576487907790094
911,0.9016,1167.68,0.00767072,0.00274136,-1.5114e-14,-5.68167e-14,4.94525e-15,0.637152,-0.283916,-0.350967,0.0,0.0,0.0,0.629048,0.8910873857411243,0.0,0.0,-0.24717012023981333,0.0,-0.2959930142971785
912,0.9026,1167.86,0.00765672,0.00273617,1.98285e-14,6.74917e-15,1.04196e-14,0.637737,-0.284177,-0.35129,0.0,0.0,0.0,0.62963,0.892193995513582,0.0,0.0,-0.24736658319889937,0.0,-0.2962203718333417
913,0.9036,1168.03,0.00764276,0.00273099,1.37008e-14,5.73339e-15,-1.60221e-14,0.638322,-0.284439,-0.351614,0.0,0.0,0.0,0.630211,0.8933012528421485,0.0,0.0,-0.24756374732447295,0.0,-0.29644835949687176
914,0.9046,1168.21,0.00762884,0.00272582,1.74733e-14,6.27718e-15,-1.44965e-14,0.638906,-0.2847,-0.351936,0.0,0.0,0.0,0.630792,0.8944072636975438,0.0,0.0,-0.24776010756029576,0.0,-0.29667486665550413
915,0.9056,1168.38,0.00761495,0.00272067,1.79481e-14,6.5211e-15,-1.21719e-14,0.63949,-0.284961,-0.352259,0.0,0.0,0.0,0.631373,0.8955139206519211,0.0,0.0,-0.24795641655278466,0.0,-0.2969020039889203
916,0.9066,1168.56,0.00760109,0.00271553,1.78871e-14,6.49692e-15,-1.78238e-14,0.640074,-0.285221,-0.352582,0.0,0.0,0.0,0.631954,0.8966212240827127,0.0,0.0,-0.24815192246761064,0.0,-0.2971290679688251
917,0.9076,1168.73,0.00758726,0.00271041,-1.75352e-14,5.50682e-15,2.20926e-14,0.640657,-0.285482,-0.352904,0.0,0.0,0.0,0.632534,0.8977272766393454,0.0,0.0,-0.2483481292097529,0.0,-0.29735535597461493
918,0.9086,1168.91,0.00757347,0.0027053,1.68892e-14,-2.41865e-14,6.51806e-15,0.64124,-0.285742,-0.353226,0.0,0.0,0.0,0.633114,0.8988339742126223,0.0,0.0,-0.24854353329252687,0.0,-0.2975815711273969
919,0.9096,1169.08,0.00755972,0.0027002,1.8156e-14,5.91106e-15,1.56898e-14,0.641823,-0.286003,-0.353548,0.0,0.0,0.0,0.633693,0.8999413171786985,0.0,0.0,-0.24873963783758113,0.0,-0.29780771345062595
920,0.9106,1169.26,0.00754599,0.00269511,1.3655e-14,6.43778e-15,-3.88729e-14,0.642405,-0.286263,-0.35387,0.0,0.0,0.0,0.634272,0.9010474048655919,0.0,0.0,-0.24893494014134365,0.0,-0.2980337829677493
921,0.9116,1169.43,0.0075323,0.00269004,1.74314e-14,6.66654e-15,-1.26704e-14,0.642987,-0.286523,-0.354192,0.0,0.0,0.0,0.634851,0.9021541364828845,0.0,0.0,-0.2491301916731079,0.0,-0.29825977970220674
922,0.9126,1169.61,0.00751864,0.00268498,8.05592e-14,8.8082e-15,4.15597e-15,0.643569,-0.286782,-0.354513,0.0,0.0,0.0,0.63543,0.903261512405453,0.0,0.0,-0.24932464177108982,0.0,-0.2984850021627835
923,0.9136,1169.78,0.00750502,0.00267993,1.69673e-14,5.15375e-15,-3.5648e-14,0.64415,-0.287042,-0.354835,0.0,0.0,0.0,0.636008,0.9043676286398117,0.0,0.0,-0.24951979199360108,0.0,-0.2987108536280497
924,0.9146,1169.95,0.00749143,0.00267489,-1.44602e-14,6.24367e-15,-7.75529e-15,0.644731,-0.287302,-0.355156,0.0,0.0,0.0,0.636586,0.9054743877144293,0.0,0.0,-0.24971489148365,0.0,-0.29893593131713336
925,0.9156,1170.13,0.00747787,0.00266987,-1.42365e-14,5.76533e-15,2.04599e-14,0.645311,-0.287561,-0.355477,0.0,0.0,0.0,0.637163,0.9065798834220682,0.0,0.0,-0.2499091901639905,0.0,-0.2991609367678736
926,0.9166,1170.3,0.00746435,0.00266486,1.39754e-14,3.80384e-14,5.06379e-15,0.645892,-0.28782,-0.355797,0.0,0.0,0.0,0.63774,0.9076879281901722,0.0,0.0,-0.25010343852748906,0.0,-0.2993851693889751
927,0.9176,1170.47,0.00745086,0.00265986,1.59928e-14,6.35418e-15,-1.59853e-14,0.646472,-0.288079,-0.356118,0.0,0.0,0.0,0.638317,0.9087947081236765,0.0,0.0,-0.2502976365871761,0.0,-0.29961003065743674
928,0.9186,1170.65,0.0074374,0.00265488,1.38914e-14,6.82957e-15,1.39785e-14,0.647051,-0.288338,-0.356438,0.0,0.0,0.0,0.638894,0.9099002202745634,0.0,0.0,-0.25049178435607866,0.0,-0.29983411959148476
929,0.9196,1170.82,0.00742397,0.00264991,-4.57797e-14,4.10507e-15,-2.98421e-15,0.647631,-0.288597,-0.356758,0.0,0.0,0.0,0.63947,0.9110082837096558,0.0,0.0,-0.2506858818472203,0.0,-0.300058136828546
930,0.9206,1170.99,0.00741057,0.00264495,-1.49092e-14,6.75477e-15,-8.56673e-15,0.648209,-0.288856,-0.357078,0.0,0.0,0.0,0.640046,0.9121131657777977,0.0,0.0,-0.25087992907362133,0.0,-0.30028208239155973
931,0.9216,1171.16,0.00739721,0.00264,1.50898e-14,-5.63011e-14,-5.18914e-15,0.648788,-0.289114,-0.357398,0.0,0.0,0.0,0.640621,0.9132205998720151,0.0,0.0,-0.2510731771218502,0.0,-0.3005059563034581
932,0.9226,1171.33,0.00738388,0.00263506,1.8485e-14,6.0013e-15,1.10532e-14,0.649366,-0.289372,-0.357718,0.0,0.0,0.0,0.641196,0.9143267610285195,0.0,0.0,-0.2512663753185137,0.0,-0.3007297585871658
933,0.9236,1171.51,0.00737059,0.00263014,1.6159e-14,6.51882e-15,1.2987e-14,0.649944,-0.289631,-0.358037,0.0,0.0,0.0,0.641771,0.9154335617309832,0.0,0.0,-0.2514602722165741,0.0,-0.30095279021874
934,0.9246,1171.68,0.00735732,0.00262523,1.08495e-14,-5.57941e-14,1.40927e-15,0.650522,-0.289889,-0.358357,0.0,0.0,0.0,0.642346,0.9165410023491709,0.0,0.0,-0.25165337055558534,0.0,-0.3011764495384702
935,0.9256,1171.85,0.00734409,0.00262033,1.41345e-14,7.4299e-15,1.79142e-14,0.651099,-0.290146,-0.358676,0.0,0.0,0.0,0.64292,0.9176471656049361,0.0,0.0,-0.2518456709276963,0.0,-0.30139933869835633
936,0.9266,1172.02,0.00733089,0.00261545,1.14554e-14,7.31834e-15,-1.70913e-14,0.651676,-0.290404,-0.358994,0.0,0.0,0.0,0.643494,0.9187539673010725,0.0,0.0,-0.2520386698466658,0.0,-0.3016214583897475
937,0.9276,1172.19,0.00731772,0.00261057,1.59073e-14,6.73334e-15,-1.35398e-14,0.652253,-0.290662,-0.359313,0.0,0.0,0.0,0.644067,0.9198614078060658,0.0,0.0,-0.252231618978337,0.0,-0.3018442056144499
938,0.9286,1172.36,0.00730458,0.00260571,1.60162e-14,6.6941e-15,1.13369e-14,0.652829,-0.290919,-0.359632,0.0,0.0,0.0,0.644641,0.9209675665200887,0.0,0.0,-0.25242377075969813,0.0,-0.30206688179412
939,0.9296,1172.53,0.00729147,0.00260086,-4.70975e-14,4.96145e-15,-3.1888e-14,0.653405,-0.291176,-0.35995,0.0,0.0,0.0,0.645213,0.9220743625650645,0.0,0.0,-0.2526158731643965,0.0,-0.30228878924055547
940,0.9306,1172.7,0.0072784,0.00259603,8.00405e-14,1.06839e-14,-1.39617e-15,0.65398,-0.291434,-0.360268,0.0,0.0,0.0,0.645786,0.923179873127367,0.0,0.0,-0.25280867339682067,0.0,-0.3025106261316418
941,0.9316,1172.87,0.00726535,0.0025912,1.57439e-14,5.13949e-15,4.85498e-15,0.654556,-0.291691,-0.360586,0.0,0.0,0.0,0.646358,0.9242879438280143,0.0,0.0,-0.25300067689425143,0.0,-0.3027323924898122
942,0.9326,1173.04,0.00725234,0.00258639,7.71223e-14,-5.29406e-14,-1.18754e-14,0.655131,-0.291947,-0.360904,0.0,0.0,0.0,0.64693,0.9253947275655456,0.0,0.0,-0.2531918842453813,0.0,-0.3029540883374925
943,0.9336,1173.21,0.00723936,0.00258159,-4.6698e-14,4.16947e-15,-2.85289e-14,0.655705,-0.292204,-0.361221,0.0,0.0,0.0,0.647501,0.9265002213855418,0.0,0.0,-0.2533837892702784,0.0,-0.3031750168724666
944,0.9346,1173.38,0.00722641,0.0025768,-4.87584e-14,7.79716e-15,-2.01902e-14,0.65628,-0.292461,-0.361539,0.0,0.0,0.0,0.648073,0.927608277548456,0.0,0.0,-0.253575644981921,0.0,-0.30339657198797076
945,0.9356,1173.55,0.00721349,0.00257202,1.53127e-14,8.13657e-15,2.21451e-14,0.656853,-0.292717,-0.361856,0.0,0.0,0.0,0.648644,0.9287131135967901,0.0,0.0,-0.2537667051600593,0.0,-0.3036173602778577
946,0.9366,1173.72,0.0072006,0.00256725,-5.04709e-14,-5.85162e-14,-1.28791e-14,0.657427,-0.292973,-0.362173,0.0,0.0,0.0,0.649214,0.9298205127171371,0.0,0.0,-0.2539577164330522,0.0,-0.30383807858894907
947,0.9376,1173.88,0.00718775,0.0025625,8.09428e-14,1.10652e-14,2.04366e-15,0.658,-0.293229,-0.36249,0.0,0.0,0.0,0.649784,0.9309266167394625,0.0,0.0,-0.25414867881341774,0.0,-0.3040587269434244
948,0.9386,1174.05,0.00717492,0.00255776,1.26283e-14,-5.83223e-14,2.60125e-14,0.658573,-0.293485,-0.362807,0.0,0.0,0.0,0.650354,0.9320333547410105,0.0,0.0,-0.25433959231367087,0.0,-0.3042793053634566
949,0.9396,1174.22,0.00716212,0.00255303,1.67273e-14,9.30362e-15,-3.65113e-14,0.659146,-0.293741,-0.363123,0.0,0.0,0.0,0.650924,0.933140727085155,0.0,0.0,-0.25453045694632315,0.0,-0.30449911837067745
950,0.9406,1174.39,0.00714936,0.00254831,1.13465e-14,8.52697e-15,-1.54218e-14,0.659718,-0.293997,-0.363439,0.0,0.0,0.0,0.651493,0.934246799887712,0.0,0.0,-0.25472127272388334,0.0,-0.3047188619279617
951,0.9416,1174.56,0.00713662,0.00254361,1.48228e-14,8.55855e-15,-1.48784e-14,0.66029,-0.294252,-0.363756,0.0,0.0,0.0,0.652062,0.9353535055448909,0.0,0.0,-0.25491129457052364,0.0,-0.3049392311183685
952,0.9426,1174.72,0.00712392,0.00253891,1.50293e-14,7.6158e-15,-1.35109e-14,0.660862,-0.294508,-0.364072,0.0,0.0,0.0,0.652631,0.9364608444187885,0.0,0.0,-0.2551020128661301,0.0,-0.3051588356219961
953,0.9436,1174.89,0.00711125,0.00253423,1.84171e-14,8.46936e-15,9.43772e-15,0.661433,-0.294763,-0.364387,0.0,0.0,0.0,0.653199,0.9375668793038605,0.0,0.0,-0.2552919376364119,0.0,-0.3053776761195873
954,0.9446,1175.06,0.0070986,0.00252956,1.4604e-14,8.02076e-15,1.4466e-14,0.662004,-0.295018,-0.364703,0.0,0.0,0.0,0.653767,0.9386735459151923,0.0,0.0,-0.2554818139820516,0.0,-0.3055971420964829
955,0.9456,1175.22,0.00708599,0.0025249,1.45825e-14,8.58929e-15,2.06727e-14,0.662575,-0.295273,-0.365018,0.0,0.0,0.0,0.654334,0.9397808446136029,0.0,0.0,-0.25567164191539604,0.0,-0.3058158445492778
956,0.9466,1175.39,0.0070734,0.00252025,1.5055e-14,8.12777e-15,6.20332e-15,0.663145,-0.295528,-0.365334,0.0,0.0,0.0,0.654902,0.9408868348723116,0.0,0.0,-0.25586142144878876,0.0,-0.3060351720868242
957,0.9476,1175.56,0.00706085,0.00251561,1.49919e-14,8.19921e-15,1.73869e-14,0.663715,-0.295782,-0.365649,0.0,0.0,0.0,0.655469,0.9419934557251701,0.0,0.0,-0.2560504086453508,0.0,-0.3062537365819016
958,0.9486,1175.72,0.00704833,0.00251098,1.54265e-14,3.98285e-14,-7.13597e-15,0.664285,-0.296037,-0.365963,0.0,0.0,0.0,0.656035,0.9431007075317195,0.0,0.0,-0.25624009160554095,0.0,-0.3064715387118909
959,0.9496,1175.89,0.00703583,0.00250637,1.43438e-14,8.21967e-15,-1.62774e-14,0.664854,-0.296291,-0.366278,0.0,0.0,0.0,0.656602,0.944206646444087,0.0,0.0,-0.25642898263209724,0.0,-0.30668996577312846
960,0.9506,1176.05,0.00702337,0.00250177,1.7299e-14,7.19039e-14,2.32083e-14,0.665423,-0.296545,-0.366593,0.0,0.0,0.0,0.657168,0.94531321481476,0.0,0.0,-0.25661782568642544,0.0,-0.30690832404067725
961,0.9516,1176.22,0.00701093,0.00249718,1.80168e-14,3.94171e-14,8.39319e-16,0.665992,-0.296799,-0.366907,0.0,0.0,0.0,0.657734,0.9464204130020017,0.0,0.0,-0.25680662078070915,0.0,-0.3071259206624709
962,0.9526,1176.38,0.00699853,0.0024926,7.87736e-14,1.00271e-14,2.45227e-14,0.666561,-0.297053,-0.367221,0.0,0.0,0.0,0.658299,0.9475282413642794,0.0,0.0,-0.2569953679271285,0.0,-0.3073434489696515
963,0.9536,1176.55,0.00698615,0.00248803,7.88776e-14,8.18992e-15,-2.60464e-14,0.667129,-0.297307,-0.367535,0.0,0.0,0.0,0.658864,0.9486347516245395,0.0,0.0,-0.2571840671378607,0.0,-0.30756090898366606
964,0.9546,1176.71,0.0069738,0.00248347,9.73763e-15,6.78405e-15,1.89084e-15,0.667696,-0.297561,-0.367849,0.0,0.0,0.0,0.659429,0.9497399408202387,0.0,0.0,-0.2573727184250799,0.0,-0.30777830072595547
965,0.9556,1176.88,0.00696149,0.00247892,1.55533e-14,7.23294e-14,-1.64943e-15,0.668264,-0.297814,-0.368163,0.0,0.0,0.0,0.659993,0.9508477076826307,0.0,0.0,-0.2575605793619079,0.0,-0.3079956242179537
966,0.9566,1177.04,0.0069492,0.00247439,7.62838e-14,1.01601e-14,-2.44216e-15,0.668831,-0.298068,-0.368476,0.0,0.0,0.0,0.660557,0.9519541519802026,0.0,0.0,-0.2577491350271667,0.0,-0.30821218769362146
967,0.9576,1177.21,0.00693694,0.00246986,1.37768e-14,5.87274e-15,-1.30553e-14,0.669398,-0.298321,-0.368789,0.0,0.0,0.0,0.661121,0.9530612238095799,0.0,0.0,-0.2579369007426402,0.0,-0.30842868339552854
968,0.9586,1177.37,0.00692471,0.00246535,1.33101e-14,8.09901e-15,-1.57705e-14,0.669964,-0.298574,-0.369102,0.0,0.0,0.0,0.661684,0.9541669693587271,0.0,0.0,-0.25812461895939665,0.0,-0.3086451113448847
969,0.9596,1177.53,0.00691251,0.00246085,1.33777e-14,7.18106e-15,-1.33556e-14,0.67053,-0.298827,-0.369415,0.0,0.0,0.0,0.662248,0.9552733409370047,0.0,0.0,-0.2583122896894515,0.0,-0.30886147156289323
970,0.9606,1177.7,0.00690033,0.00245636,1.56569e-14,7.14869e-14,-5.60449e-15,0.671096,-0.29908,-0.369728,0.0,0.0,0.0,0.66281,0.9563803388988457,0.0,0.0,-0.25849991294481744,0.0,-0.3090777640707508
971,0.9616,1177.86,0.00688819,0.00245188,7.49057e-14,7.30743e-14,-1.73913e-14,0.671662,-0.299332,-0.370041,0.0,0.0,0.0,0.663373,0.9574879635988829,0.0,0.0,-0.25868674742462217,0.0,-0.3092939888896472
972,0.9626,1178.02,0.00687608,0.00244741,7.82561e-15,4.74037e-15,3.75179e-14,0.672227,-0.299585,-0.370353,0.0,0.0,0.0,0.663935,0.958594256796715,0.0,0.0,-0.25887427595416446,0.0,-0.30950945555056664
973,0.9636,1178.19,0.00686399,0.00244295,8.05957e-14,7.41586e-14,-1.36883e-14,0.672792,-0.299837,-0.370665,0.0,0.0,0.0,0.664497,0.9597011752268152,0.0,0.0,-0.25906101610637666,0.0,-0.30972485499637403
974,0.9646,1178.35,0.00685193,0.0024385,1.6452e-14,6.89116e-14,4.66765e-15,0.673356,-0.300089,-0.370977,0.0,0.0,0.0,0.665058,0.960806758434801,0.0,0.0,-0.25924770920599927,0.0,-0.30994018724803707
975,0.9656,1178.51,0.0068399,0.00243406,1.17828e-14,5.36565e-15,-1.83318e-14,0.673921,-0.300341,-0.371289,0.0,0.0,0.0,0.66562,0.9619149272815364,0.0,0.0,-0.25943435526488823,0.0,-0.3101554523265172
976,0.9666,1178.67,0.0068279,0.00242964,7.9768e-14,7.10756e-14,-1.32802e-14,0.674484,-0.300593,-0.371601,0.0,0.0,0.0,0.666181,0.9630197963770621,0.0,0.0,-0.2596209542948962,0.0,-0.3103706502527692
977,0.9676,1178.84,0.00681592,0.00242522,1.02681e-14,4.14205e-15,9.65704e-15,0.675048,-0.300845,-0.371912,0.0,0.0,0.0,0.666741,0.9641272518152959,0.0,0.0,-0.25980750630787297,0.0,-0.3105850916331775
978,0.9686,1179.0,0.00680398,0.00242082,7.81445e-14,1.01618e-14,-1.44011e-14,0.675611,-0.301097,-0.372224,0.0,0.0,0.0,0.667302,0.9652333668002191,0.0,0.0,-0.25999401131566546,0.0,-0.310800155532875
979,0.9696,1179.16,0.00679206,0.00241643,1.14961e-14,3.16679e-15,1.35044e-14,0.676174,-0.301348,-0.372535,0.0,0.0,0.0,0.667861,0.9663401047032141,0.0,0.0,-0.26017972951021684,0.0,-0.31101446335791016
980,0.9706,1179.32,0.00678017,0.00241204,1.14488e-14,7.09698e-15,1.23121e-14,0.676737,-0.301599,-0.372846,0.0,0.0,0.0,0.668421,0.9674474658750818,0.0,0.0,-0.260365401095351,0.0,-0.31122870454357465
981,0.9716,1179.48,0.00676831,0.00240767,1.18985e-14,6.00656e-15,1.64277e-15,0.677299,-0.301851,-0.373157,0.0,0.0,0.0,0.66898,0.9685534821123556,0.0,0.0,-0.2605517655313698,0.0,-0.3114428791105902
982,0.9726,1179.64,0.00675648,0.00240331,7.66802e-14,9.64802e-15,2.14015e-14,0.677861,-0.302102,-0.373467,0.0,0.0,0.0,0.66954,0.9696601201054518,0.0,0.0,-0.26073734374718105,0.0,-0.31165629873631473
983,0.9736,1179.8,0.00674467,0.00239896,1.08954e-14,4.64923e-15,-1.20801e-14,0.678423,-0.302353,-0.373778,0.0,0.0,0.0,0.670098,0.9707673802038952,0.0,0.0,-0.2609228753887054,0.0,-0.31187034034221284
984,0.9746,1179.96,0.00673289,0.00239462,1.06484e-14,6.72535e-15,-1.58846e-14,0.678984,-0.302603,-0.374088,0.0,0.0,0.0,0.670657,0.9718732908831307,0.0,0.0,-0.2611076215756226,0.0,-0.312083627475493
985,0.9756,1180.12,0.00672114,0.00239029,1.06695e-14,5.91471e-15,4.51828e-15,0.679545,-0.302854,-0.374398,0.0,0.0,0.0,0.671215,0.9729798221523163,0.0,0.0,-0.26129306028907506,0.0,-0.31229684850000927
986,0.9766,1180.29,0.00670942,0.00238597,7.63102e-14,8.83546e-15,1.9133e-14,0.680106,-0.303104,-0.374708,0.0,0.0,0.0,0.671773,0.9740869743597009,0.0,0.0,-0.26147771394133457,0.0,-0.3125100034362521
987,0.9776,1180.45,0.00669772,0.00238166,1.05518e-14,4.4041e-15,9.5967e-15,0.680667,-0.303355,-0.375018,0.0,0.0,0.0,0.67233,0.9751947478537286,0.0,0.0,-0.2616630597732602,0.0,-0.31272309230470585
988,0.9786,1180.6,0.00668605,0.00237736,1.1069e-14,6.74749e-15,2.84373e-14,0.681227,-0.303605,-0.375327,0.0,0.0,0.0,0.672887,0.9763011666808838,0.0,0.0,-0.26184762093721026,0.0,-0.3129354280616198
989,0.9796,1180.76,0.00667441,0.00237307,1.03062e-14,6.90694e-15,1.21144e-14,0.681787,-0.303855,-0.375637,0.0,0.0,0.0,0.673444,0.9774082052761013,0.0,0.0,-0.2620321359666362,0.0,-0.3131483850688791
990,0.9806,1180.92,0.00666279,0.00236879,1.0104e-14,7.2934e-15,3.39248e-14,0.682346,-0.304105,-0.375946,0.0,0.0,0.0,0.674001,0.9785138854716731,0.0,0.0,-0.2622166048730705,0.0,-0.3133605894306305
991,0.9816,1181.08,0.00665121,0.00236453,1.09064e-14,7.15383e-15,1.2181e-14,0.682905,-0.304355,-0.376255,0.0,0.0,0.0,0.674557,0.9796201839152587,0.0,0.0,-0.2624010276680423,0.0,-0.31357272823136373
992,0.9826,1181.24,0.00663965,0.00236027,8.00045e-14,8.73191e-15,2.43988e-16,0.683464,-0.304605,-0.376564,0.0,0.0,0.0,0.675113,0.9807271009525549,0.0,0.0,-0.2625854043630781,0.0,-0.31378480149133414
993,0.9836,1181.4,0.00662811,0.00235602,1.76271e-14,4.0651e-15,1.12183e-14,0.684023,-0.304854,-0.376873,0.0,0.0,0.0,0.675668,0.9818346369294528,0.0,0.0,-0.2627689977390678,0.0,-0.31399680923079076
994,0.9846,1181.56,0.0066166,0.00235179,7.60209e-14,9.119e-15,2.60174e-14,0.684581,-0.305103,-0.377181,0.0,0.0,0.0,0.676224,0.982940809250235,0.0,0.0,-0.2629525454059979,0.0,-0.31420806567838466
995,0.9856,1181.72,0.00660512,0.00234756,9.54675e-15,3.68202e-15,3.3781e-14,0.685139,-0.305353,-0.37749,0.0,0.0,0.0,0.676779,0.9840475989874156,0.0,0.0,-0.2631367842388327,0.0,-0.3144199426494121
996,0.9866,1181.88,0.00659367,0.00234334,9.90521e-15,7.31358e-15,-1.08076e-14,0.685696,-0.305602,-0.377798,0.0,0.0,0.0,0.677333,0.9851530213315944,0.0,0.0,-0.263320240338325,0.0,-0.3146310687919812
997,0.9876,1182.03,0.00658224,0.00233914,9.73795e-15,5.95332e-15,-5.26613e-15,0.686254,-0.305851,-0.378106,0.0,0.0,0.0,0.677888,0.9862610458275822,0.0,0.0,-0.26350365076293525,0.0,-0.3148421299177113
998,0.9886,1182.19,0.00657084,0.00233494,7.12986e-14,8.38215e-15,-4.72133e-15,0.686811,-0.3061,-0.378414,0.0,0.0,0.0,0.678442,0.9873677014050748,0.0,0.0,-0.26368701552403506,0.0,-0.31505312604662483
999,0.9896,1182.35,0.00655947,0.00233076,9.17792e-15,4.72219e-15,-2.55901e-14,0.687367,-0.306348,-0.378721,0.0,0.0,0.0,0.678995,0.9884729850874461,0.0,0.0,-0.26386959850296,0.0,-0.3152633724624524
