,Time,S11,S22,S33,S12,S13,S23,LE11,LE22,LE33,LE12,LE13,LE23,SDV_EPBAR,E11,E12,E13,E22,E23,E33
0,1e-05,2.07745,-3.33067e-16,-3.33067e-16,-1.69198e-17,8.45988e-18,1.692e-17,9.99995e-06,-2.99999e-06,-2.99999e-06,0.0,0.0,0.0,0.0,9.999999999621423e-06,0.0,0.0,-2.999985500018454e-06,0.0,-2.999985500018454e-06
1,2e-05,4.15488,2.77556e-16,2.22045e-16,-2.53794e-17,1.69196e-17,1.692e-17,1.99998e-05,-5.99994e-06,-5.99994e-06,0.0,0.0,0.0,0.0,1.9999999997244444e-05,0.0,0.0,-5.999922000343716e-06,0.0,-5.999922000343716e-06
2,3.5e-05,7.27098,-3.88578e-16,0.0,-8.45927e-18,-3.29936e-22,1.692e-17,3.49994e-05,-1.04998e-05,-1.04998e-05,0.0,0.0,0.0,0.0,3.5000012486241516e-05,0.0,0.0,-1.0499744877323636e-05,0.0,-1.0499744877323636e-05
3,5.75e-05,11.9451,-3.83027e-15,-4.21885e-15,-4.2298e-17,-3.29936e-22,-3.38399e-17,5.74983e-05,-1.72495e-05,-1.72495e-05,0.0,0.0,0.0,0.0,5.749995305892597e-05,0.0,0.0,-1.7249351228265652e-05,0.0,-1.7249351228265652e-05
4,9.125e-05,18.956,-2.82552e-14,-2.81997e-14,-4.22961e-17,-3.29936e-22,-3.38399e-17,9.12458e-05,-2.73738e-05,-2.73738e-05,0.0,0.0,0.0,0.0,9.124996302456445e-05,0.0,0.0,-2.737342534098186e-05,0.0,-2.737342534098186e-05
5,0.00014188,29.4719,-1.57929e-13,-1.58762e-13,-8.45562e-18,3.38374e-17,3.38399e-17,0.000141865,-4.25595e-05,-4.25595e-05,0.0,0.0,0.0,0.0,0.00014187506331508892,0.0,0.0,-4.255859435731146e-05,0.0,-4.255859435731146e-05
6,0.00021781,45.2448,-7.97418e-13,-7.97362e-13,-8.45479e-18,3.3834e-17,3.38399e-17,0.000217789,-6.53366e-05,-6.53366e-05,0.0,0.0,0.0,0.0,0.0002178127177461242,0.0,0.0,-6.533446561085565e-05,0.0,-6.533446561085565e-05
7,0.00033172,68.9018,-4.04016e-12,-4.03744e-12,-1.43793e-16,-2.3685e-16,1.692e-16,0.000331664,-9.94991e-05,-9.94991e-05,0.0,0.0,0.0,0.0,0.0003317190065854625,0.0,0.0,-9.949415012866503e-05,0.0,-9.949415012866503e-05
8,0.00050258,104.382,-2.04484e-11,-2.04492e-11,-8.43162e-18,-2.36798e-16,1.692e-16,0.000502452,-0.000150736,-0.000150736,0.0,0.0,0.0,0.0,0.0005025782501502096,0.0,0.0,-0.00015072463989995732,0.0,-0.00015072463989995732
9,0.00075887,157.592,-1.03424e-10,-1.03423e-10,-8.4288e-18,-2.36719e-16,1.692e-16,0.000758579,-0.000227574,-0.000227574,0.0,0.0,0.0,0.0,0.0007588667938165372,0.0,0.0,-0.0002275481070015406,0.0,-0.0002275481070015406
10,0.0011433,237.381,-5.23067e-10,-5.23062e-10,-8.42458e-18,-2.36601e-16,1.692e-16,0.00114265,-0.000342794,-0.000342794,0.0,0.0,0.0,0.0,0.0011433030732321825,0.0,0.0,-0.00034273525284966855,0.0,-0.00034273525284966855
11,0.00172,357.006,-2.6442e-09,-2.6442e-09,-8.41824e-18,3.0461e-16,-9.13679e-16,0.00171847,-0.000515542,-0.000515542,0.0,0.0,0.0,0.0,0.001719947415747436,0.0,0.0,-0.0005154091310572984,0.0,-0.0005154091310572984
12,0.0025849,478.085,-0.1138,-0.0470354,0.00584101,-0.0130933,-0.00562265,0.00258159,-0.000813502,-0.000847873,7.80438e-08,-1.82743e-07,-7.21515e-08,0.000278652,0.0025849251728629064,7.804380297571356e-08,-1.8274298330123173e-07,-0.0008131711969570077,-7.215149744332905e-08,-0.0008475136572541064
13,0.0035849,489.314,-0.540878,-0.0969339,0.0285128,-0.111965,0.0429566,0.00357852,-0.00122291,-0.00141447,4.03913e-07,-1.94195e-06,1.0571e-06,0.00121694,0.00358493054717135,4.0391308164799966e-07,-1.9419481144256068e-06,-0.0012221625502849554,1.0571005586434978e-06,-0.0014134701088037716
14,0.0043349,498.132,0.109096,0.20342,-0.0541824,-0.0296227,0.147486,0.00432556,-0.00153214,-0.00183338,-8.50933e-07,-9.87927e-07,3.10602e-06,0.00191966,0.00433492873813246,-8.509326379080306e-07,-9.879265120416036e-07,-0.0015309668727184755,3.1060248237846366e-06,-0.0018317003855018443
15,0.0050849,505.898,-0.31327,-0.252289,0.0438716,-0.0554868,-0.0279635,0.00507204,-0.00184491,-0.00225374,4.82822e-07,-1.49335e-06,9.03925e-07,0.00262424,0.005084924569354055,4.828221165098512e-07,-1.4933488849955268e-06,-0.0018432091996479771,9.039254085241311e-07,-0.002251202234851868
16,0.0060849,516.589,-0.467884,-0.0832224,0.0236442,-0.0906666,0.0313808,0.00606649,-0.0022545,-0.00281779,2.51623e-07,-2.31991e-06,2.06492e-06,0.00356324,0.006084928417094071,2.5162303174397493e-07,-2.319907309034086e-06,-0.002251960523649954,2.0649221319501976e-06,-0.0028138237559801604
17,0.0070849,527.451,0.455309,0.0719445,-0.0390479,0.122038,-0.0286977,0.00705995,-0.00265826,-0.00338431,-7.69955e-07,1.06223e-06,1.39972e-06,0.00450199,0.007084930198717254,-7.699547035500132e-07,1.0622305641749819e-06,-0.002654729955504309,1.3997209795668653e-06,-0.003378589677845989
18,0.0080849,537.078,-0.428931,-0.0529105,0.0195999,-0.0875043,0.0372168,0.00805242,-0.00307123,-0.00394704,-2.86077e-08,-1.92099e-06,2.64991e-06,0.0054426,0.008084927931183428,-2.8607699542604337e-08,-1.9209881548798435e-06,-0.0030665185976445075,2.6499135110658045e-06,-0.003939260676085743
19,0.0090849,547.325,0.422592,0.0761643,-0.0401341,0.114934,-0.0309458,0.00904391,-0.00347597,-0.00451199,-1.00782e-06,1.26997e-06,1.85996e-06,0.00638212,0.009084929720343693,-1.00781949219364e-06,1.269970806516696e-06,-0.0034699358098588817,1.8599617297443416e-06,-0.004501826265089215
20,0.010085,556.886,0.519443,0.0554541,-0.0395387,0.138548,-0.0517433,0.0100344,-0.00388385,-0.00507589,-1.22488e-06,2.32542e-06,1.55283e-06,0.00732264,0.010084913407549134,-1.2248792498059657e-06,2.3254227037305952e-06,-0.0038763176093026264,1.5528312056201088e-06,-0.005063029439152378
21,0.011085,565.743,-0.369688,0.0289308,0.0114628,-0.0917389,0.0686985,0.0110239,-0.00429777,-0.00563604,-6.0847e-07,-9.24257e-07,3.6102e-06,0.00826405,0.011084887084752193,-6.0846981486673e-07,-9.242565728317942e-07,-0.004288547802871245,3.6102065168464037e-06,-0.0056201873226495724
22,0.012085,575.084,0.380759,0.0413803,-0.0296511,0.102913,-0.0383783,0.0120125,-0.00470344,-0.0061993,-1.3018e-06,2.07864e-06,2.28241e-06,0.0092046,0.012084939848757026,-1.3017991526975692e-06,2.078642160396882e-06,-0.004692396147566669,2.2824126046927518e-06,-0.006180123986171848
23,0.013085,583.841,0.431891,0.0104554,-0.0257506,0.116957,-0.0571853,0.0130001,-0.00511217,-0.00676108,-1.41355e-06,2.87615e-06,1.96494e-06,0.0101459,0.013084968668301,-1.413549000961467e-06,2.876154136188802e-06,-0.00509912509766508,1.964941930499009e-06,-0.0067382753223108605
24,0.014085,592.064,-0.270709,0.0603858,0.00574127,-0.0737296,0.0650554,0.0139867,-0.00552573,-0.00731939,-1.05945e-06,2.18241e-07,3.99358e-06,0.0110877,0.014084971518679934,-1.0594494387339282e-06,2.1824102391931888e-07,-0.005510491235336645,3.993587974315815e-06,-0.00729266849978738
25,0.015085,600.214,-0.417418,-0.0366361,0.0256833,-0.0974359,0.0402374,0.0149723,-0.00593673,-0.00787864,-7.75412e-07,-4.53511e-07,4.05444e-06,0.0120295,0.015084946373268515,-7.75411699405204e-07,-4.535108971692736e-07,-0.005919142439863911,4.054448219159568e-06,-0.007847684864012328
26,0.016085,608.703,0.413656,0.123862,-0.0403638,0.0964205,-0.00107515,0.0159569,-0.00634288,-0.00843875,-1.80778e-06,2.4765e-06,3.70988e-06,0.0129705,0.01608489120352563,-1.8077783660030988e-06,2.476503066617397e-06,-0.006322806400554271,3.7098868816975994e-06,-0.008403243695690232
27,0.017085,616.477,0.424186,0.0517101,-0.0310193,0.10813,-0.0399603,0.0169406,-0.00675221,-0.00899812,-1.85944e-06,3.17016e-06,3.21249e-06,0.0139125,0.01708490568748644,-1.8594382712455726e-06,3.1701650249349456e-06,-0.006729465051739436,3.212495160109796e-06,-0.00895775806945287
28,0.018085,623.784,-0.224967,0.0619483,0.00643368,-0.0634819,0.0551095,0.0179233,-0.00716564,-0.00955443,-1.42344e-06,8.05733e-07,4.81983e-06,0.0148548,0.018084886284298385,-1.4234389869027808e-06,8.057333245048426e-07,-0.007140028013632449,4.81984161537774e-06,-0.009508931453213854
29,0.019085,631.497,0.555641,0.0510826,-0.0340422,0.134814,-0.0413092,0.0189051,-0.00757153,-0.0101138,-2.10462e-06,3.93817e-06,3.59142e-06,0.0157963,0.01908493286818902,-2.1046177852701575e-06,3.938177754569949e-06,-0.007542938173528135,3.5914264491232473e-06,-0.010062827511365335
30,0.020085,638.593,0.455731,0.00245547,-0.0224992,0.11716,-0.0623827,0.0198859,-0.00798135,-0.0106713,-2.09178e-06,4.28183e-06,3.21016e-06,0.0167384,0.020084941694509917,-2.0917778121853914e-06,4.281839167008528e-06,-0.007949583595201037,3.210165152589539e-06,-0.01061456367428204
31,0.021085,645.317,-0.184277,0.0820743,0.00458381,-0.0593605,0.0563274,0.0208657,-0.00839483,-0.0112256,-1.78904e-06,1.87782e-06,5.09768e-06,0.0176807,0.021084910725212014,-1.7890383996466142e-06,1.8778217631965077e-06,-0.008359691809761038,5.0976929932833315e-06,-0.011162828056126228
32,0.022085,652.357,0.518297,0.0132737,-0.0238727,0.125539,-0.0516492,0.0218446,-0.00880094,-0.0117835,-2.27805e-06,4.7811e-06,3.67329e-06,0.0186223,0.022084940128856534,-2.2780474052686017e-06,4.781111429430496e-06,-0.008762325093085055,3.6732967465535893e-06,-0.011714346453991498
33,0.023085,658.862,0.399965,-0.0196887,-0.0137783,0.101348,-0.0634213,0.0228225,-0.00921085,-0.0123392,-2.24831e-06,4.95764e-06,3.40068e-06,0.0195644,0.02308492585513977,-2.248307472529909e-06,4.957652289139247e-06,-0.009168560062829734,3.4006857823065673e-06,-0.012263384227392926
34,0.024085,665.072,-0.13424,0.0858704,0.00385301,-0.0504777,0.0507999,0.0237995,-0.00962369,-0.012892,-2.06361e-06,2.90297e-06,5.19015e-06,0.0205065,0.024084968268871965,-2.063607870805839e-06,2.90297421368102e-06,-0.009577530489009445,5.190163468782316e-06,-0.012809254136248338
35,0.025085,671.48,0.427325,-0.00374879,-0.0142985,0.101011,-0.0476456,0.0247755,-0.0100303,-0.013448,-2.38658e-06,5.26905e-06,3.89765e-06,0.021448,0.02508496311600683,-2.386577152124758e-06,5.269063881430114e-06,-0.00998016430632176,3.897657595786086e-06,-0.013357979631125061
36,0.026085,677.143,-0.483082,0.0606803,0.0280643,-0.139169,0.0853869,0.0257505,-0.0104451,-0.013999,-1.81065e-06,1.74854e-06,6.05671e-06,0.0223901,0.026084908349131686,-1.8106483608004709e-06,1.7485415286788708e-06,-0.010390739375011226,6.056728341974349e-06,-0.013901469639100772
37,0.027085,682.951,-0.502387,-0.0203516,0.0395918,-0.13264,0.0499491,0.0267246,-0.0108554,-0.0145516,-1.58335e-06,1.34978e-06,5.95376e-06,0.0233317,0.027084904627469708,-1.5833487464478324e-06,1.3497809110418757e-06,-0.010796692767612193,5.953777723721743e-06,-0.014446237153851071
38,0.028085,689.097,0.379565,0.0920054,-0.0286655,0.0837294,-0.0117806,0.0276978,-0.0112609,-0.0151054,-2.57652e-06,4.44645e-06,5.26396e-06,0.0242724,0.02808495019989854,-2.5765166807856232e-06,4.4464598853988235e-06,-0.011197733392212972,5.263973854585657e-06,-0.014991885723680709
39,0.029085,694.116,-0.594623,-0.0564948,0.0529817,-0.15282,0.0480275,0.02867,-0.0116752,-0.0156558,-1.42784e-06,9.27548e-07,6.33651e-06,0.0252144,0.029084940404958015,-1.4278389806055003e-06,9.27548430063041e-07,-0.011607309321756354,6.336530075756741e-06,-0.01553388501788977
40,0.030085,699.513,-0.528444,-0.0695822,0.0488768,-0.132378,0.0323248,0.0296413,-0.0120848,-0.0162068,-1.36727e-06,7.13869e-07,6.3958e-06,0.0261553,0.03008497619633399,-1.3672690652999364e-06,7.138692548203096e-07,-0.012012072066789004,6.395820453253265e-06,-0.01607617643224024
41,0.031085,705.205,0.344587,0.0828764,-0.0271481,0.0782197,-0.0117078,0.0306116,-0.0124901,-0.0167588,-2.4486e-06,3.70658e-06,5.92084e-06,0.0270953,0.031084952708887226,-2.4485970021581593e-06,3.7065868694341475e-06,-0.012412422437497295,5.9208575282632125e-06,-0.016619152507665658
42,0.032085,709.798,-0.558776,-0.0627889,0.0513736,-0.140999,0.0394629,0.031581,-0.0129036,-0.0173077,-1.34532e-06,4.60949e-07,6.83907e-06,0.0280366,0.03208497109264119,-1.3453190950141192e-06,4.6094910621796714e-07,-0.012820705482482375,6.83909338650146e-06,-0.01715878213995281
43,0.033085,714.761,-0.47939,-0.0647412,0.0446527,-0.118368,0.0265705,0.0325494,-0.0133127,-0.0178573,-1.33167e-06,3.37072e-07,6.90063e-06,0.0289768,0.033084926278801996,-1.331669113313616e-06,3.3707205671085205e-07,-0.013224477934583034,6.900653809482904e-06,-0.017698803261891105
44,0.034085,719.974,0.305448,0.0753287,-0.0249872,0.0711285,-0.010518,0.0335169,-0.0137179,-0.0184076,-2.32254e-06,3.02977e-06,6.51118e-06,0.0299162,0.034084919613748266,-2.322537302923422e-06,3.0297745896579187e-06,-0.013624238379188247,6.511201197767491e-06,-0.018239214902555423
45,0.035085,724.207,-0.484305,-0.0498137,0.0444194,-0.121436,0.0345277,0.0344835,-0.0141304,-0.0189553,-1.35585e-06,2.00666e-07,7.32352e-06,0.0308566,0.035084949333548554,-1.3558490807863421e-06,2.006660200226662e-07,-0.014031034473394155,7.323546816984106e-06,-0.018776778059444776
46,0.036085,729.363,0.725246,0.133118,-0.0602167,0.173451,-0.0333211,0.0354491,-0.014533,-0.0195056,-2.89079e-06,4.59445e-06,6.45734e-06,0.031795,0.03608491006397019,-2.8907858217186444e-06,4.59446055445234e-06,-0.014427905683380038,6.457360848699523e-06,-0.019316596653769724
47,0.037085,733.612,0.529942,0.031707,-0.033731,0.134011,-0.0612227,0.0364138,-0.0149413,-0.0200543,-2.70031e-06,4.64534e-06,5.98231e-06,0.0327344,0.03708490344596327,-2.700306354186388e-06,4.645350789589386e-06,-0.0148302326288543,5.9823278939497015e-06,-0.01985455003617842
48,0.038085,737.606,-0.149132,0.0871969,0.00494853,-0.0514379,0.048654,0.0373776,-0.0153528,-0.0206,-2.23867e-06,2.17192e-06,7.65192e-06,0.0336736,0.038084927710186456,-2.238667494158797e-06,2.1719223586291747e-06,-0.015235546589060789,7.651949275988557e-06,-0.020389269496749463
49,0.039085,741.991,0.486515,0.011097,-0.0234099,0.119626,-0.0508326,0.0383404,-0.0157571,-0.0211489,-2.70221e-06,4.80148e-06,6.31953e-06,0.0346117,0.039084877177014477,-2.7022063490145243e-06,4.801491527040014e-06,-0.01563360638436495,6.3195499682144884e-06,-0.020926830279668907
50,0.040085,745.596,-0.51297,0.0537199,0.0332995,-0.143914,0.0794411,0.0393024,-0.01617,-0.0216928,-1.92858e-06,1.00898e-06,8.3552e-06,0.0355504,0.040084957790507136,-1.9285781402977875e-06,1.0089805089208426e-06,-0.016039967369290364,8.355234904833253e-06,-0.02145920338468965
51,0.041085,749.487,-0.475544,-0.0125014,0.0390889,-0.125432,0.0438929,0.0402634,-0.0165777,-0.0222385,-1.77608e-06,8.23175e-07,8.17782e-06,0.0364882,0.04108495985897753,-1.7760784227771609e-06,8.231753387821783e-07,-0.016441046109137103,8.177853438429139e-06,-0.021993047424808565
52,0.042085,753.686,0.318564,0.0742564,-0.0244589,0.073392,-0.0132933,0.0412234,-0.0169813,-0.0227852,-2.68113e-06,3.62402e-06,7.51325e-06,0.0374248,0.04208488130594268,-2.6811264057791107e-06,3.6240265668396887e-06,-0.016837930406288892,7.51327822445802e-06,-0.022527577698617685
53,0.043085,756.968,-0.478344,-0.0257478,0.0435786,-0.124807,0.0407167,0.0421826,-0.0173922,-0.0233287,-1.73502e-06,7.26153e-07,8.44019e-06,0.0383624,0.043084928670131584,-1.735018494875007e-06,7.261532637414803e-07,-0.017241828714094742,8.44022561841129e-06,-0.023058689617400763
54,0.044085,761.153,0.707551,0.107192,-0.0550175,0.170719,-0.0412853,0.0431408,-0.0177933,-0.0238752,-3.16737e-06,5.08625e-06,7.359e-06,0.039298,0.04408489165453977,-3.1673649838470652e-06,5.086262935050101e-06,-0.017635933973504048,7.359027077491476e-06,-0.023592442182352125
55,0.045085,764.487,0.487647,0.0140157,-0.027813,0.123613,-0.0628939,0.0440981,-0.0182001,-0.0244198,-2.94197e-06,4.97716e-06,6.95312e-06,0.0402343,0.04508487268587413,-2.9419656724094523e-06,4.977172386011475e-06,-0.018035478402716798,6.953144173094117e-06,-0.024124048968672596
56,0.046085,767.648,-0.107397,0.0897362,0.00341686,-0.042191,0.0433398,0.0450546,-0.0186094,-0.0249617,-2.57442e-06,2.78498e-06,8.53676e-06,0.0411703,0.04608497458908456,-2.5744166861629836e-06,2.7849838779570035e-06,-0.01843731424009265,8.536796438196603e-06,-0.024652732886691342
57,0.047085,771.118,0.414156,-0.000621423,-0.0165277,0.101378,-0.047935,0.04601,-0.0190126,-0.0255065,-2.90595e-06,4.9836e-06,7.31297e-06,0.0421052,0.04708488175340064,-2.905945777675889e-06,4.983612418074657e-06,-0.018833000539272615,7.312996739727851e-06,-0.02518395735912915
58,0.048085,773.984,-0.405023,0.0675232,0.0264418,-0.118765,0.0702725,0.0469646,-0.0194227,-0.0260467,-2.32395e-06,1.83889e-06,9.14021e-06,0.0430404,0.048084906217258805,-2.3239472995983945e-06,1.8388916906975084e-06,-0.019235294629709965,9.140251771899699e-06,-0.025710410777493142
59,0.049085,777.538,0.677446,0.013528,-0.0363902,0.169175,-0.073883,0.0479183,-0.0198227,-0.0265916,-3.24903e-06,6.08319e-06,7.15979e-06,0.043974,0.0490849415833845,-3.249024721929672e-06,6.083208502705162e-06,-0.019627522061142044,7.159815631263555e-06,-0.02624115655983983
60,0.050085,780.429,0.450534,-0.0268389,-0.0171546,0.115311,-0.0739893,0.048871,-0.0202284,-0.0271334,-3.08913e-06,5.84754e-06,6.98151e-06,0.044908,0.05008488105276543,-3.089125228616929e-06,5.847557096982925e-06,-0.020025178505377883,6.981534370842368e-06,-0.026768596204913453
61,0.051085,783.182,-0.0833363,0.086916,0.00400738,-0.0382254,0.0390887,0.0498229,-0.0206363,-0.0276728,-2.84417e-06,3.82317e-06,8.62555e-06,0.0458415,0.051084932750131484,-2.8441659553068988e-06,3.823177308293069e-06,-0.02042482872086282,8.625587200272733e-06,-0.027293415667586696
62,0.052085,786.172,0.368491,-0.013771,-0.0100915,0.0884644,-0.048075,0.0507738,-0.0210386,-0.028215,-3.08121e-06,5.7558e-06,7.45019e-06,0.0467741,0.052084884764521444,-3.0812052530526657e-06,5.755816564700922e-06,-0.02081883255308359,7.450217752724697e-06,-0.027820674224899866
63,0.053085,788.669,-0.342801,0.0776262,0.022749,-0.106109,0.0665369,0.0517239,-0.021447,-0.028753,-2.63608e-06,2.98112e-06,9.20772e-06,0.0477067,0.05308494561721555,-2.6360765255084573e-06,2.9811244435240525e-06,-0.021218648493896763,9.20776239121679e-06,-0.02834356603165844
64,0.054085,791.723,0.587126,-0.00117957,-0.026968,0.144906,-0.0692293,0.052673,-0.0218464,-0.0292951,-3.36648e-06,6.66566e-06,7.34832e-06,0.0486379,0.0540849029938113,-3.3664743334105296e-06,6.6656822155231055e-06,-0.02160949570830384,7.348346998892197e-06,-0.028870158238799015
65,0.055085,794.22,0.375022,-0.0327676,-0.00997673,0.0939423,-0.0670558,0.0536213,-0.0222509,-0.0298344,-3.21176e-06,6.3827e-06,7.22268e-06,0.0495693,0.05508496581216149,-3.2117548423027387e-06,6.382720369568773e-06,-0.022005174635831626,7.2227060836649315e-06,-0.029393747363963052
66,0.056085,796.63,-0.0467784,0.0837686,0.00334355,-0.0302973,0.0333804,0.0545686,-0.0226569,-0.0303716,-3.06536e-06,4.75291e-06,8.6802e-06,0.0505001,0.056084921354439876,-3.0653553018122892e-06,4.752921295203549e-06,-0.022402159941459332,8.680237673086566e-06,-0.02991501701731436
67,0.057085,799.188,0.293985,-0.015639,-0.00377367,0.067478,-0.0407447,0.0555151,-0.0230584,-0.0309111,-3.195e-06,6.24388e-06,7.69164e-06,0.0514301,0.057084978935092456,-3.194994895983072e-06,6.243899492996974e-06,-0.022794586689301566,7.691669580811578e-06,-0.03043823671442958
68,0.058085,801.39,-0.247711,0.0795721,0.0175554,-0.0833789,0.0561104,0.0564606,-0.0234646,-0.031447,-2.90804e-06,4.09906e-06,9.18095e-06,0.0523599,0.05808492543288879,-2.9080357716315675e-06,4.099068401153261e-06,-0.023191446920418635,9.180992144974809e-06,-0.030957685664596446
69,0.059085,803.978,0.453328,-0.00638876,-0.0162161,0.108714,-0.0562259,0.0574053,-0.0238639,-0.0319862,-3.40589e-06,6.91187e-06,7.65943e-06,0.0532885,0.05908497055888562,-3.4058842000028733e-06,6.9118938870182944e-06,-0.023581408714609786,7.659459333453356e-06,-0.031480052437748096
70,0.060085,805.855,-0.492957,0.0681455,0.0364929,-0.14648,0.0778308,0.058349,-0.0242715,-0.0325203,-2.67245e-06,3.24425e-06,9.68664e-06,0.0542175,0.06008490078847206,-2.6724464290417416e-06,3.2442552626577026e-06,-0.02397931583343793,9.686686915699738e-06,-0.031997200824970706
71,0.061085,808.574,0.762606,0.0081321,-0.0402066,0.188796,-0.0848405,0.0592919,-0.0246674,-0.0330596,-3.77416e-06,8.12179e-06,7.43593e-06,0.0551446,0.06108492622932937,-3.774152877888959e-06,8.121822981932425e-06,-0.024365645943208225,7.435957646517721e-06,-0.03251910399072777
72,0.062085,810.56,0.487963,-0.031115,-0.0173111,0.121772,-0.0793735,0.0602339,-0.0250702,-0.0335956,-3.56249e-06,7.72e-06,7.30823e-06,0.0560721,0.06208493916198066,-3.5624836542957894e-06,7.720029799207495e-06,-0.024758552324364858,7.308256705140792e-06,-0.033037534799120194
73,0.063085,812.443,-0.0775407,0.0868972,0.00656643,-0.0409279,0.0380193,0.061175,-0.025475,-0.0341291,-3.27275e-06,5.5704e-06,8.98484e-06,0.056999,0.063084937773767,-3.2727446445113273e-06,5.570415514632998e-06,-0.025153250170150243,8.98488036371603e-06,-0.033553271689256814
74,0.064085,814.597,0.37117,-0.0162375,-0.00795146,0.0858011,-0.0491981,0.0621152,-0.025874,-0.0346654,-3.50443e-06,7.4794e-06,7.8006e-06,0.0579248,0.06408492025036083,-3.5044238595460797e-06,7.479427970746855e-06,-0.025542136435363183,7.800630424714683e-06,-0.034071438110904406
75,0.065085,816.29,-0.332435,0.079392,0.0252289,-0.107928,0.0649896,0.0630545,-0.026279,-0.0351975,-3.04667e-06,4.71682e-06,9.52684e-06,0.0588507,0.06508488477577035,-3.0466653588856474e-06,4.716831124129683e-06,-0.025936711963169157,9.526885380584105e-06,-0.03458527198106098
76,0.066085,818.541,0.563796,-0.00614423,-0.0231838,0.136025,-0.0681206,0.063993,-0.0266753,-0.0357338,-3.74458e-06,8.26314e-06,7.70336e-06,0.059775,0.0660849361408331,-3.744572989017314e-06,8.263174139822027e-06,-0.026322656764204644,7.703389671043226e-06,-0.035102885089336344
77,0.067085,819.893,-0.629918,0.0662565,0.0483527,-0.184698,0.0915255,0.0649306,-0.0270822,-0.0362639,-2.74237e-06,3.65138e-06,1.0086e-05,0.0606999,0.06708496611775194,-2.742366239760763e-06,3.6513866663590022e-06,-0.026718765481383522,1.0086050863833407e-05,-0.035614241502958555
78,0.068085,821.714,-0.490174,0.00501617,0.0462803,-0.141081,0.0486384,0.0658673,-0.0274824,-0.0367967,-2.67036e-06,3.76398e-06,9.78653e-06,0.0616235,0.06808497288556636,-2.670356434641974e-06,3.763987083793552e-06,-0.027108194701453314,9.786577888304393e-06,-0.036127929376484236
79,0.069085,823.818,0.261676,0.0559762,-0.0136009,0.0530643,-0.0140138,0.0668031,-0.0278791,-0.0373302,-3.48548e-06,6.40805e-06,9.02718e-06,0.0625459,0.06908495462167163,-3.485473925701754e-06,6.408070531538357e-06,-0.027494064338312474,9.027220745139175e-06,-0.03664201798083333
80,0.070085,825.187,-0.395944,0.00141126,0.0421751,-0.115494,0.0385902,0.067738,-0.0282822,-0.0378607,-2.69797e-06,3.93929e-06,9.88695e-06,0.0634687,0.070084909501823,-2.697966360432069e-06,3.9392977591035105e-06,-0.027886002480537964,9.886998876051933e-06,-0.03715294385522383
81,0.071085,827.293,0.561744,0.0664429,-0.0364446,0.130647,-0.0398616,0.0686721,-0.0286771,-0.0383938,-3.809e-06,7.48968e-06,8.84215e-06,0.0643896,0.0710849428086302,-3.8089927457685135e-06,7.489708047758725e-06,-0.028269814509485403,8.842189092028718e-06,-0.037666100826710736
82,0.072085,828.314,-0.639979,-0.00781169,0.0612568,-0.179577,0.0627869,0.0696053,-0.0290822,-0.0389223,-2.44373e-06,3.03112e-06,1.04075e-05,0.0653116,0.07208494580608571,-2.4437270140786893e-06,3.031124593766421e-06,-0.02866338268501145,1.0407554158264887e-05,-0.03817455992027341
83,0.073085,829.933,-0.474155,-0.020114,0.0491782,-0.133499,0.0363419,0.0705376,-0.0294809,-0.0394525,-2.4902e-06,3.20432e-06,1.02672e-05,0.0662319,0.0730849166650469,-2.4901968994628376e-06,3.204325133898678e-06,-0.02905057740193906,1.0267252707807373e-05,-0.03868438460213741
84,0.074085,831.797,0.238005,0.0489958,-0.0116614,0.0487386,-0.0144023,0.0714691,-0.0298763,-0.0399834,-3.31101e-06,5.68248e-06,9.65297e-06,0.067151,0.07408496096324124,-3.311004518558036e-06,5.682496145409388e-06,-0.029434414913957374,9.653016590061014e-06,-0.039194611610608554
85,0.075085,832.967,-0.362907,-0.000682974,0.0398003,-0.105613,0.0335604,0.0723997,-0.0302776,-0.0405116,-2.584e-06,3.42674e-06,1.04331e-05,0.0680705,0.0750849696597915,-2.5839966614205068e-06,3.426745871282222e-06,-0.029823824742944316,1.043315442506021e-05,-0.03970197501028594
86,0.076085,834.818,0.514831,0.0637653,-0.0337082,0.119926,-0.0358996,0.0733294,-0.0306714,-0.0410421,-3.62186e-06,6.67881e-06,9.51261e-06,0.0689883,0.07608494092069851,-3.621853441049261e-06,6.678832303208537e-06,-0.030205804903930433,9.512655245069723e-06,-0.04021127800797841
87,0.077085,835.678,-0.575506,-0.00492311,0.0559801,-0.161914,0.0561584,0.0742583,-0.0310745,-0.0415684,-2.37156e-06,2.63802e-06,1.09179e-05,0.0699068,0.07708498061885005,-2.3715571878524244e-06,2.6380234796619106e-06,-0.030596650163819072,1.091795960039832e-05,-0.04071628190892951
88,0.078085,837.695,0.835044,0.074036,-0.058663,0.203697,-0.0663553,0.0751863,-0.0314649,-0.0420991,-3.99142e-06,7.9199e-06,9.23251e-06,0.0708228,0.07808497940853742,-3.991412034332065e-06,7.919931362510013e-06,-0.030975031366778483,9.23255261975342e-06,-0.04122523871448669
89,0.079085,838.806,0.499877,-0.00998638,-0.0231413,0.124155,-0.0723136,0.0761134,-0.0318629,-0.0426269,-3.63011e-06,7.34498e-06,8.98593e-06,0.0717396,0.07908493545094752,-3.6301034112007358e-06,7.345006974412982e-06,-0.03136062656576,8.98597037357618e-06,-0.04173114651268095
90,0.080085,839.885,-0.0527473,0.0907581,0.0040937,-0.0339378,0.0358129,0.0770397,-0.0322625,-0.0431523,-3.30119e-06,5.27359e-06,1.05226e-05,0.0726555,0.08008495491416623,-3.3011845510522164e-06,5.273603905342483e-06,-0.031747617533439354,1.0522655362832367e-05,-0.04223448872872426
91,0.081085,841.238,0.342735,-0.0142369,-0.00728002,0.0794701,-0.0458208,0.0779651,-0.0326567,-0.0436803,-3.48735e-06,6.98166e-06,9.41577e-06,0.0735704,0.08108492814769708,-3.4873439191951405e-06,6.981684371742958e-06,-0.032129227402360905,9.415814328450622e-06,-0.04274005543731907
92,0.082085,842.208,-0.284885,0.0788998,0.0223953,-0.0947917,0.0579495,0.0788897,-0.0330562,-0.0442045,-3.07957e-06,4.512e-06,1.09688e-05,0.0744851,0.08208496151644584,-3.0795652581350197e-06,4.512010179036352e-06,-0.03251581455008923,1.096886015750087e-05,-0.0432417196025936
93,0.083085,843.671,0.490664,-0.00868256,-0.0189809,0.118507,-0.0613508,0.0798134,-0.033448,-0.0447322,-3.67312e-06,7.60065e-06,9.33958e-06,0.0753983,0.08308494516674703,-3.6731132541101275e-06,7.600678884944756e-06,-0.03289480060573213,9.339623614046388e-06,-0.04374646775764568
94,0.084085,844.395,-0.522863,0.0698201,0.0411863,-0.156625,0.0792201,0.0807362,-0.0338489,-0.0452546,-2.83271e-06,3.66448e-06,1.14209e-05,0.0763119,0.08408487725185232,-2.8327059878874294e-06,3.6644867142943127e-06,-0.033282435373588326,1.1420965218666979e-05,-0.04424588414397135
95,0.085085,846.037,0.77559,-0.000142109,-0.0413269,0.193354,-0.0888366,0.0816583,-0.0342374,-0.0457824,-4.00121e-06,8.71001e-06,9.09213e-06,0.0772233,0.08508497294042106,-4.001201995174064e-06,8.71004793223662e-06,-0.033657932202463825,9.092171333602295e-06,-0.044750198066168756
96,0.086085,846.946,0.460194,-0.0359233,-0.0150975,0.114582,-0.0776141,0.0825794,-0.0346332,-0.0463067,-3.73367e-06,8.10666e-06,9.04346e-06,0.0781352,0.08608490515708156,-3.7336630298590023e-06,8.10669285900012e-06,-0.03404033471044954,9.043500892147449e-06,-0.045250904265722425
97,0.087085,847.828,-0.0413752,0.083004,0.0053832,-0.031653,0.031322,0.0834997,-0.0350305,-0.0468287,-3.48516e-06,6.19031e-06,1.05707e-05,0.0790462,0.08708488916736168,-3.4851539267855003e-06,6.190329159938557e-06,-0.03442403425850671,1.0570755869965254e-05,-0.045749153239399876
98,0.088085,848.94,0.311346,-0.0180824,-0.00371492,0.0702529,-0.0440721,0.0844192,-0.0354227,-0.0473533,-3.63221e-06,7.72089e-06,9.54649e-06,0.0799563,0.08808492341823881,-3.632203403491907e-06,7.720919806164517e-06,-0.03480265889912515,9.546535567839243e-06,-0.046249621949190245
99,0.089085,849.726,-0.248364,0.0787969,0.0208026,-0.0865665,0.0536142,0.0853378,-0.0358197,-0.0478742,-3.29285e-06,5.49771e-06,1.10036e-05,0.080866,0.08908489744664516,-3.2928445785618266e-06,5.497725112491025e-06,-0.035185766191712875,1.1003660539854465e-05,-0.046746301149788505
100,0.090085,850.938,0.438256,-0.0110739,-0.0142093,0.103641,-0.0565217,0.0862556,-0.0362098,-0.0483984,-3.79272e-06,8.2449e-06,9.50424e-06,0.0817744,0.09008491840494148,-3.7927128075931904e-06,8.244933989320913e-06,-0.03556206682211149,9.504285165329307e-06,-0.04724586579139378
101,0.091085,851.513,-0.453929,0.071802,0.0370412,-0.140116,0.0721637,0.0871725,-0.0366078,-0.0489177,-3.07494e-06,4.75804e-06,1.14076e-05,0.0826829,0.09108487562695955,-3.0749352724068757e-06,4.75805131938678e-06,-0.035945836744235904,1.140766506702029e-05,-0.047740502569733057
102,0.092085,852.88,0.681682,-0.00403284,-0.0334121,0.167697,-0.0800002,0.0880886,-0.036995,-0.0494418,-4.06982e-06,9.18696e-06,9.3069e-06,0.0835895,0.09208487646196728,-4.069811718299121e-06,9.187002200317096e-06,-0.0363190462582238,9.30694330936177e-06,-0.04823945101147609
103,0.093085,853.611,0.393027,-0.0358709,-0.00957981,0.0955071,-0.0697167,0.0890039,-0.0373886,-0.0499627,-3.81661e-06,8.6004e-06,9.27217e-06,0.0844964,0.09308491934920271,-3.816602716755213e-06,8.60043698347468e-06,-0.03669827644422008,9.272212986743966e-06,-0.048735093980025845
104,0.094085,854.343,-0.0182569,0.0789879,0.00499396,-0.0262403,0.0270204,0.0899183,-0.0377832,-0.0504816,-3.64247e-06,7.00803e-06,1.06288e-05,0.0854024,0.09408489331787862,-3.6424633662601735e-06,7.008054556223442e-06,-0.03707832031674785,1.0628856485839222e-05,-0.049228577294440856
105,0.095085,855.241,0.257869,-0.0166031,0.00046991,0.0549935,-0.0379352,0.0908319,-0.0381737,-0.0510026,-3.72027e-06,8.22784e-06,9.75391e-06,0.0863075,0.09508490601265662,-3.7202630798205405e-06,8.227873848687395e-06,-0.03745426782413597,9.75395756963593e-06,-0.04972380018890454
106,0.096085,855.899,-0.186952,0.0762776,0.0175241,-0.0711841,0.045701,0.0917447,-0.0385679,-0.0515205,-3.48269e-06,6.43919e-06,1.10051e-05,0.0872122,0.09608495586818178,-3.4826839354629158e-06,6.43921073173459e-06,-0.03783362857484318,1.1005160556409876e-05,-0.05021582081304854
107,0.097085,856.876,0.35429,-0.010197,-0.00773181,0.0803195,-0.0470949,0.0926566,-0.0389565,-0.052041,-3.84223e-06,8.62327e-06,9.7523e-06,0.0881157,0.09708493160908205,-3.842222618621882e-06,8.62330718054416e-06,-0.038207453787835854,9.75234755373755e-06,-0.05071005484275093
108,0.098085,857.369,-0.346649,0.0707929,0.0302521,-0.112813,0.0599135,0.0935677,-0.0393514,-0.0525574,-3.3085e-06,5.86078e-06,1.134e-05,0.0890191,0.09808494117545319,-3.308494526899075e-06,5.8607971744617515e-06,-0.03858719068035066,1.1340064298037689e-05,-0.051200141619133555
109,0.099085,858.463,0.540753,-0.00470382,-0.0225463,0.129424,-0.0649917,0.094478,-0.0397376,-0.0530777,-4.05233e-06,9.34088e-06,9.62849e-06,0.0899208,0.09908498299738366,-4.0523217893495556e-06,9.34092362614436e-06,-0.03895841661896715,9.628536354000516e-06,-0.051693673781923244
110,0.1001,858.717,-0.584449,0.0639412,0.0490025,-0.175314,0.0827316,0.0953874,-0.040134,-0.0535923,-3.04801e-06,4.97675e-06,1.17968e-05,0.0908231,0.10008494549495439,-3.048005354777672e-06,4.97676238397915e-06,-0.039339298006940915,1.179686958252546e-05,-0.05218154667693298
111,0.1011,860.016,0.836381,0.00132803,-0.0457252,0.207556,-0.0941215,0.096296,-0.040517,-0.0541128,-4.37845e-06,1.04717e-05,9.34334e-06,0.091723,0.10108493690373255,-4.3784404145652545e-06,1.0471754828378366e-05,-0.03970716060561985,9.343383649218495e-06,-0.052674757812554485
112,0.1021,860.517,0.481911,-0.0366681,-0.0157007,0.118311,-0.0798453,0.0972038,-0.0409079,-0.0546294,-4.06095e-06,9.73375e-06,9.32689e-06,0.0926234,0.10208495564928599,-4.060941754313596e-06,9.73379737301272e-06,-0.040082465718375815,9.326933495534817e-06,-0.05316401964545603
113,0.1031,861.012,-0.0353005,0.0820315,0.00653938,-0.0322625,0.0301383,0.0981107,-0.0413001,-0.0551438,-3.7852e-06,7.75691e-06,1.08549e-05,0.093523,0.10308488984719189,-3.7851928361698484e-06,7.756940084924224e-06,-0.040458871557311094,1.0854958914618962e-05,-0.05365094682534277
114,0.1041,861.752,0.308356,-0.0190086,-0.00230983,0.0674618,-0.0440618,0.0990169,-0.0416874,-0.0556608,-3.92355e-06,9.24621e-06,9.84375e-06,0.0944215,0.1040849584370116,-3.923542302941563e-06,9.246252746342165e-06,-0.04083042987944341,9.843798449926666e-06,-0.05414008283328087
115,0.1051,862.186,-0.239416,0.0777876,0.0219937,-0.0864809,0.0517379,0.0999222,-0.0420793,-0.0561742,-3.58266e-06,7.05966e-06,1.12611e-05,0.0953197,0.10508493912284589,-3.582653582245854e-06,7.0596849195414535e-06,-0.041206254786273044,1.1261163406439678e-05,-0.05462556268141372
116,0.1061,863.037,0.419653,-0.0126766,-0.0117167,0.0968842,-0.0549942,0.100827,-0.0424645,-0.0566907,-4.05788e-06,9.69482e-06,9.80842e-06,0.0962165,0.10608527245832056,-4.057871766827148e-06,9.694866994980345e-06,-0.04157551101361412,9.808468102612267e-06,-0.05511372250016333
117,0.1071,863.297,-0.425876,0.0720226,0.0368384,-0.135199,0.0685605,0.10173,-0.0428572,-0.0572026,-3.37376e-06,6.3719e-06,1.16249e-05,0.0971134,0.10708451855106182,-3.373754308921839e-06,6.371920300507483e-06,-0.04195181041921492,1.1624967569456857e-05,-0.05559728600697644
118,0.1081,864.3,0.634812,-0.00755662,-0.0287799,0.153759,-0.0759718,0.102633,-0.0432397,-0.057719,-4.29391e-06,1.05142e-05,9.63351e-06,0.0980085,0.10808466737054467,-4.293900781160431e-06,1.0514255274429729e-05,-0.04231819377644552,9.633556402377508e-06,-0.05608484966871008
119,0.1091,864.303,-0.698569,0.0655722,0.0582288,-0.207041,0.0951704,0.103535,-0.0436343,-0.0582289,-3.07103e-06,5.34525e-06,1.21276e-05,0.0989043,0.10908461064713415,-3.0710252844068364e-06,5.345264285860907e-06,-0.04269602046707266,1.2127673539641393e-05,-0.056566029316687305
120,0.1101,864.916,-0.478616,0.0135823,0.0484473,-0.143218,0.0481951,0.104437,-0.0440211,-0.0587418,-3.09369e-06,5.73673e-06,1.17441e-05,0.0997985,0.1100854562794602,-3.093685214561326e-06,5.73674645498734e-06,-0.043066234042434814,1.1744168962213308e-05,-0.0570497925285699
121,0.1111,865.765,0.204673,0.0429965,-0.00612692,0.0365212,-0.0130949,0.105337,-0.044405,-0.0592552,-3.81775e-06,8.14141e-06,1.09903e-05,0.100691,0.11108498290962743,-3.817742712408645e-06,8.141443141429505e-06,-0.043433530408137466,1.0990360393536847e-05,-0.05753377891514966
122,0.1121,866.028,-0.320614,0.0146884,0.0382086,-0.100855,0.0334117,0.106237,-0.0447944,-0.059766,-3.18323e-06,6.12005e-06,1.17301e-05,0.101585,0.11208540951869139,-3.183224933533957e-06,6.120068727577532e-06,-0.04380594487759348,1.1730168797852158e-05,-0.05801506772925191
123,0.1131,866.881,0.438029,0.0434238,-0.0234581,0.0980124,-0.0351793,0.107135,-0.0451772,-0.0602788,-4.03987e-06,8.95358e-06,1.08161e-05,0.102476,0.1130845107457501,-4.0398618397219366e-06,8.953620083351765e-06,-0.04417190591248343,1.0816158494186823e-05,-0.058497993769700884
124,0.1141,866.948,-0.465771,0.0162533,0.0489486,-0.140053,0.0504963,0.108033,-0.0455678,-0.0607879,-3.02421e-06,5.54005e-06,1.20984e-05,0.103368,0.11408450956867111,-3.0242054270823715e-06,5.540065346032463e-06,-0.044545179460964146,1.2098473185950809e-05,-0.05897719045120753
125,0.1151,867.94,0.666108,0.0431171,-0.04065,0.158733,-0.0592921,0.108931,-0.045948,-0.0613007,-4.27595e-06,9.82071e-06,1.0594e-05,0.104258,0.11508540679385715,-4.275940858167182e-06,9.820758223311188e-06,-0.04490837433601236,1.0594056116586259e-05,-0.05945962324160481
126,0.1161,867.76,-0.73194,0.0167305,0.0687997,-0.210782,0.0789891,0.109827,-0.0463404,-0.0618077,-2.74313e-06,4.52995e-06,1.26221e-05,0.105149,0.11608497105626192,-2.7431262376031995e-06,4.529960260235555e-06,-0.045283078768105334,1.2622179659027566e-05,-0.05993635635056627
127,0.1171,868.307,-0.485368,-0.00078355,0.0511769,-0.142924,0.0430085,0.110723,-0.0467249,-0.0623172,-2.85855e-06,4.97731e-06,1.23569e-05,0.106037,0.11708543132959859,-2.8585459143082304e-06,4.977322386912064e-06,-0.04565009686056898,1.2356976346827864e-05,-0.06041519678204721
128,0.1181,869.065,0.194367,0.0365665,-0.00492501,0.035296,-0.0146817,0.111617,-0.0471067,-0.0628274,-3.59883e-06,7.35997e-06,1.16419e-05,0.106925,0.11808455224571235,-3.598823524186834e-06,7.359997084677161e-06,-0.04601439810405483,1.1641967767150874e-05,-0.06089445068058352
129,0.1191,869.248,-0.312832,0.0144106,0.0372538,-0.09792,0.032105,0.112511,-0.0474937,-0.0633349,-2.99358e-06,5.40012e-06,1.23784e-05,0.107813,0.11908456677531065,-2.993575519250058e-06,5.4001345806131695e-06,-0.04638351910246852,1.2378476612617817e-05,-0.06137092583106707
130,0.1201,870.002,0.423247,0.0405192,-0.0225671,0.0953474,-0.0348397,0.113405,-0.0478744,-0.0638445,-3.82439e-06,8.15448e-06,1.14854e-05,0.1087,0.1200854757176415,-3.824382686978822e-06,8.154513247760065e-06,-0.04674649180050927,1.1485465957417063e-05,-0.061849129350657894
131,0.1211,870.0,-0.446927,0.0180695,0.0468691,-0.134372,0.0488265,0.114297,-0.0482626,-0.0643503,-2.85094e-06,4.86318e-06,1.27343e-05,0.109586,0.12108503770034962,-2.8509359361050812e-06,4.863191825243973e-06,-0.04711647299439625,1.2734381081624946e-05,-0.06232352607598668
132,0.1221,870.885,0.638194,0.0397107,-0.0387464,0.152643,-0.057677,0.115188,-0.0486408,-0.0648598,-4.04738e-06,8.97638e-06,1.1276e-05,0.110471,0.12208436960519164,-4.047371809368094e-06,8.976420287742926e-06,-0.04747678540493816,1.1276063574428008e-05,-0.06280115055428293
133,0.1231,870.656,-0.695136,0.0198144,0.0652561,-0.200493,0.0758253,0.116079,-0.0490307,-0.0653637,-2.59161e-06,3.92314e-06,1.32307e-05,0.111357,0.12308459231155422,-2.5916066417330796e-06,3.923147695594764e-06,-0.04784810181347088,1.3230787526019583e-05,-0.06327328608998017
134,0.1241,871.119,-0.457194,0.000458496,0.0485184,-0.13474,0.0400398,0.116969,-0.049413,-0.0658701,-2.70303e-06,4.37219e-06,1.29561e-05,0.11224,0.1240845825283503,-2.7030263468619253e-06,4.37219955795598e-06,-0.04821203991294731,1.2956183930601384e-05,-0.06374752441062692
135,0.1251,871.782,0.182131,0.0365197,-0.0045193,0.0328836,-0.0134375,0.117859,-0.0497927,-0.0663769,-3.40364e-06,6.61462e-06,1.22964e-05,0.113123,0.12508546313260283,-3.4036342075882686e-06,6.614641876678817e-06,-0.04857336519944566,1.229647560108127e-05,-0.06422189694910097
136,0.1261,871.907,-0.28886,0.014776,0.0350229,-0.0908311,0.0294973,0.118747,-0.0501774,-0.0668813,-2.83686e-06,4.79612e-06,1.29744e-05,0.114006,0.126084982744892,-2.836855976129371e-06,4.796131501505485e-06,-0.04893930863212104,1.2974484167926903e-05,-0.06469378440425888
137,0.1271,872.563,0.393381,0.0392475,-0.0207112,0.0883902,-0.0322214,0.119635,-0.0505561,-0.0673876,-3.61125e-06,7.35186e-06,1.21541e-05,0.114887,0.12708539032479615,-3.6112434794732806e-06,7.351887024942272e-06,-0.04929940712698844,1.2154173861356199e-05,-0.0651672100833911
138,0.1281,872.522,-0.408208,0.0189843,0.0434696,-0.123403,0.0447463,0.120521,-0.0509418,-0.0678904,-2.71208e-06,4.31964e-06,1.33039e-05,0.115768,0.12808443049006368,-2.7120763222976407e-06,4.319649329564967e-06,-0.04966602163950584,1.3303988497304076e-05,-0.06563712586343429
139,0.1291,873.297,0.586689,0.03759,-0.0351537,0.140019,-0.0530826,0.121408,-0.0513182,-0.0683965,-3.81118e-06,8.09655e-06,1.19682e-05,0.116648,0.1290854852820753,-3.8111727375111926e-06,8.096582777117334e-06,-0.05002366003719194,1.1968271619089421e-05,-0.06610988727166944
140,0.1301,873.056,-0.629691,0.0216771,0.059766,-0.182547,0.0692073,0.122293,-0.0517054,-0.0688975,-2.48312e-06,3.48305e-06,1.3759e-05,0.117528,0.1300851682310069,-2.4831169170846934e-06,3.4830560657894694e-06,-0.050391419673165294,1.3759094655396709e-05,-0.06657764903404084
141,0.1311,874.032,0.863157,0.0341119,-0.0557595,0.214173,-0.0835088,0.123177,-0.0520787,-0.0694038,-4.09922e-06,9.1706e-06,1.16441e-05,0.118406,0.13108460520578125,-4.099211598163066e-06,9.170642049971534e-06,-0.05074584239908375,1.1644167792868032e-05,-0.06705012115392495
142,0.1321,874.117,0.469553,-0.0267696,-0.0180529,0.116008,-0.0741914,0.124061,-0.0524603,-0.0699066,-3.68487e-06,8.29181e-06,1.15853e-05,0.119284,0.13208492607346445,-3.6848632108954504e-06,8.291844377117386e-06,-0.05110800867990306,1.1585367109878675e-05,-0.0675190904442492
143,0.1331,874.247,-0.0134955,0.0807795,0.00408127,-0.0245232,0.0266755,0.124944,-0.0528429,-0.0704074,-3.4134e-06,6.45683e-06,1.29777e-05,0.120162,0.13308499853019828,-3.4133941743119678e-06,6.456850845326656e-06,-0.051470985313924245,1.2977784210610466e-05,-0.06798595996986789
144,0.1341,874.599,0.272871,-0.0179522,-0.00125207,0.0599537,-0.0403518,0.125826,-0.053221,-0.0709104,-3.50248e-06,7.72671e-06,1.20658e-05,0.121038,0.1340848203555114,-3.502473866379141e-06,7.726739851054987e-06,-0.05182955634225228,1.2065872792010879e-05,-0.06845464514779909
145,0.1351,874.712,-0.194658,0.0740208,0.0185562,-0.0725121,0.0443603,0.126707,-0.053603,-0.0714102,-3.22504e-06,5.85086e-06,1.33089e-05,0.121914,0.13508438932772449,-3.2250347995477213e-06,5.850877116353459e-06,-0.05219168828012577,1.330898856388707e-05,-0.06892011518550223
146,0.1361,875.172,0.350949,-0.0131234,-0.00805182,0.0807051,-0.0481448,0.127588,-0.0539793,-0.0719127,-3.59985e-06,8.05437e-06,1.20545e-05,0.122789,0.13608483930822945,-3.5998435204964707e-06,8.054402436563635e-06,-0.05254828145061308,1.2054572655850748e-05,-0.06938786529556384
147,0.1371,875.166,-0.337359,0.0694069,0.0301671,-0.109856,0.0568436,0.128468,-0.0543618,-0.0724112,-3.06096e-06,5.33008e-06,1.35884e-05,0.123663,0.13708503398793392,-3.060955315214997e-06,5.330094204891722e-06,-0.05291061243274031,1.3588492322691437e-05,-0.06985165983432073
148,0.1381,875.75,0.508064,-0.0100041,-0.0206296,0.122394,-0.0635107,0.129347,-0.0547359,-0.0729134,-3.77249e-06,8.66019e-06,1.19392e-05,0.124537,0.13808497114080542,-3.772482884190076e-06,8.660227499568407e-06,-0.05326485230792921,1.1939271272520813e-05,-0.07031866305642787
149,0.1391,875.569,-0.533834,0.0659884,0.0456765,-0.161894,0.0762292,0.130225,-0.0551196,-0.0734103,-2.84009e-06,4.59138e-06,1.39657e-05,0.12541,0.13908464853962554,-2.8400859669597267e-06,4.591390540431561e-06,-0.0536280449011437,1.3965797520887335e-05,-0.07078050695813487
150,0.1401,876.335,0.744894,-0.00850373,-0.0391142,0.185518,-0.0877279,0.131103,-0.055491,-0.0739125,-4.02689e-06,9.5703e-06,1.16982e-05,0.126281,0.14008520404063218,-4.026881892049694e-06,9.57034579540661e-06,-0.05397946218303873,1.1698268424176206e-05,-0.07124704383032665
151,0.1411,876.395,0.399885,-0.0377269,-0.0103461,0.0974808,-0.0705463,0.131979,-0.0558697,-0.0744111,-3.70554e-06,8.7597e-06,1.17494e-05,0.127153,0.14108435624414306,-3.705533134445993e-06,8.759738366226344e-06,-0.054337652333124264,1.1749469024380232e-05,-0.07171000462855481
152,0.1421,876.501,-0.000350399,0.07222,0.00486436,-0.0209712,0.021706,0.132855,-0.0562491,-0.074908,-3.51904e-06,7.21267e-06,1.30167e-05,0.128024,0.14208438408845891,-3.5190338082413675e-06,7.212696011338338e-06,-0.05469636857505511,1.3016784717656549e-05,-0.07217115734437407
153,0.1431,876.772,0.229482,-0.0166894,0.00216675,0.0476214,-0.035512,0.133731,-0.0566247,-0.0754068,-3.56597e-06,8.24396e-06,1.22416e-05,0.128893,0.14308528834097722,-3.5659636419271834e-06,8.243993981471576e-06,-0.05505135794784077,1.2241674928636925e-05,-0.07263384296770314
154,0.1441,876.862,-0.150068,0.0697324,0.0163541,-0.060967,0.037746,0.134605,-0.0570034,-0.0759028,-3.36456e-06,6.70386e-06,1.33187e-05,0.129763,0.1440847815979165,-3.3645543399130062e-06,6.703882470926459e-06,-0.05540914224785276,1.3318788694371975e-05,-0.07309370252699277
155,0.1451,877.22,0.290132,-0.010773,-0.00349202,0.0635897,-0.0408094,0.135479,-0.0573775,-0.0764011,-3.64241e-06,8.49333e-06,1.22606e-05,0.130631,0.14508514879381806,-3.6424033664772537e-06,8.493366068451635e-06,-0.05576244759785165,1.2260675161357426e-05,-0.07355546487737918
156,0.1461,877.216,-0.263694,0.0658471,0.0256796,-0.0906816,0.0474972,0.136352,-0.0577565,-0.0768959,-3.22843e-06,6.28473e-06,1.35546e-05,0.131499,0.14608524460702066,-3.2284247886149586e-06,6.284749749063678e-06,-0.05612024582316555,1.3554691864037238e-05,-0.07401375624272388
157,0.1471,877.673,0.413548,-0.00772697,-0.0135041,0.096296,-0.0526213,0.137224,-0.0581287,-0.0773937,-3.77554e-06,8.96399e-06,1.21913e-05,0.132365,0.14708506679943967,-3.77553287267407e-06,8.964030176583648e-06,-0.05647149249660921,1.219137431429651e-05,-0.07447459748196528
158,0.1481,877.531,-0.417516,0.0629105,0.0379291,-0.131436,0.0625117,0.138095,-0.0585085,-0.077887,-3.0496e-06,5.70099e-06,1.38652e-05,0.133232,0.1480846131318585,-3.049595350024248e-06,5.701006250635743e-06,-0.0568297765813045,1.3865296122350657e-05,-0.07493104657060345
159,0.1491,878.131,0.597669,-0.00640975,-0.0279358,0.145356,-0.0713448,0.138966,-0.0588784,-0.0783847,-3.96977e-06,9.6666e-06,1.20242e-05,0.134097,0.14908503044839128,-3.969762120470399e-06,9.666646721750993e-06,-0.057178590729793144,1.202427229096692e-05,-0.07539133883549376
160,0.1501,877.795,-0.640628,0.061699,0.055146,-0.190735,0.0854528,0.139836,-0.0592596,-0.0788763,-2.80072e-06,4.85041e-06,1.42872e-05,0.134963,0.15008516942225114,-2.8007160779441875e-06,4.850421763347157e-06,-0.057537925757399355,1.4287302062543361e-05,-0.07584576474628157
161,0.1511,878.605,0.866954,-0.00739169,-0.0486299,0.21746,-0.0998282,0.140705,-0.0596265,-0.0793741,-4.25152e-06,1.06992e-05,1.17182e-05,0.135826,0.1510850278100273,-4.251510962283156e-06,1.0699257236623794e-05,-0.057883651665142755,1.1718268658311715e-05,-0.07630569423864253
162,0.1521,878.578,0.464005,-0.0398059,-0.0146595,0.114162,-0.0782336,0.141573,-0.060002,-0.0798678,-3.87298e-06,9.73728e-06,1.18025e-05,0.136689,0.15208460336719964,-3.872972500040817e-06,9.737327407499663e-06,-0.058237349942934946,1.1802569649832506e-05,-0.0767616095654381
163,0.1531,878.596,-0.0084898,0.0740693,0.00564412,-0.0240967,0.0233757,0.142441,-0.0603783,-0.0803598,-3.61911e-06,7.92561e-06,1.31894e-05,0.137552,0.1530850469326166,-3.6191034510357767e-06,7.925641407835471e-06,-0.05859166855892284,1.3189486980591525e-05,-0.07721573113046631
164,0.1541,878.826,0.260005,-0.0191524,0.000612523,0.05519,-0.0395437,0.143308,-0.0607503,-0.0808538,-3.69888e-06,9.11489e-06,1.23305e-05,0.138414,0.15408520517425428,-3.6988731590970048e-06,9.11493154065468e-06,-0.058941807328369955,1.2330576020902484e-05,-0.07767147398153551
165,0.1551,878.836,-0.180142,0.0709665,0.0189236,-0.0698676,0.0412655,0.144174,-0.061126,-0.0813448,-3.4384e-06,7.33703e-06,1.35094e-05,0.139275,0.15508507584344655,-3.438394088672858e-06,7.337056916023599e-06,-0.059295296484260795,1.3509491252339245e-05,-0.0781242261280628
166,0.1561,879.168,0.325528,-0.0133704,-0.00544045,0.0725408,-0.0455233,0.145039,-0.0614963,-0.0818384,-3.77805e-06,9.38085e-06,1.2334e-05,0.140135,0.1560846566904417,-3.778042863222808e-06,9.380894000265982e-06,-0.059643574948235356,1.2334076064046684e-05,-0.07857915172517205
167,0.1571,879.079,-0.305855,0.0671544,0.0291903,-0.102799,0.0522297,0.145904,-0.0618723,-0.0823282,-3.28564e-06,6.86597e-06,1.37569e-05,0.140995,0.15708510254893282,-3.2856346022791527e-06,6.865993570803752e-06,-0.0599970825004702,1.37569946265792e-05,-0.07903035314840812
168,0.1581,879.523,0.460384,-0.0107689,-0.0163162,0.10837,-0.0586495,0.146768,-0.0622407,-0.0828214,-3.91977e-06,9.89038e-06,1.22414e-05,0.141854,0.1580852560816437,-3.919762317727837e-06,9.890428909864468e-06,-0.06034331579518837,1.2241474926177887e-05,-0.07948446338544579
169,0.1591,879.289,-0.473173,0.0647717,0.0424166,-0.147203,0.0688252,0.147631,-0.0626176,-0.0833097,-3.08943e-06,6.22309e-06,1.40846e-05,0.142712,0.159085115034725,-3.0894252277535728e-06,6.223109363379109e-06,-0.060697405667037074,1.4084699188510186e-05,-0.07993384139740412
170,0.1601,879.891,0.659364,-0.010346,-0.0318249,0.16152,-0.0791936,0.148493,-0.0629836,-0.0838029,-4.12563e-06,1.06457e-05,1.20439e-05,0.143569,0.1600846771532649,-4.1256214895479815e-06,1.0645756665761397e-05,-0.06104112751162849,1.2043972527964186e-05,-0.08038750614390433
171,0.1611,879.453,-0.712765,0.0646168,0.060763,-0.210979,0.0938344,0.149355,-0.0633621,-0.0842893,-2.82103e-06,5.30126e-06,1.45304e-05,0.144427,0.16108510126581677,-2.8210260208938465e-06,5.301274051738858e-06,-0.061396456194669935,1.4530505566767715e-05,-0.08083469689530864
172,0.1621,880.281,0.94685,-0.0128258,-0.0537934,0.238686,-0.110043,0.150216,-0.0637249,-0.0847828,-4.42194e-06,1.17454e-05,1.17003e-05,0.145282,0.16208522602993325,-4.42193022320847e-06,1.1745468977419904e-05,-0.06173691979653073,1.1700368448774867e-05,-0.08128819306300772
173,0.1631,880.193,0.503318,-0.0430903,-0.0168498,0.124292,-0.0836163,0.151076,-0.0640972,-0.0852717,-4.00913e-06,1.06648e-05,1.18302e-05,0.146138,0.16308504918665379,-4.0091219634108555e-06,1.0664856869180284e-05,-0.06208617012430784,1.1830269977197716e-05,-0.08173724148658756
174,0.1641,880.151,-0.0116508,0.0741625,0.00629548,-0.0257013,0.0237772,0.151935,-0.0644703,-0.0857587,-3.71666e-06,8.69472e-06,1.32884e-05,0.146992,0.16408456847597952,-3.716653093177591e-06,8.694757799077024e-06,-0.062436040501856915,1.328848829107443e-05,-0.08218432657592811
175,0.1651,880.347,0.275665,-0.0209331,4.9117e-05,0.0587775,-0.0418,0.152794,-0.0648389,-0.086248,-3.81279e-06,9.96077e-06,1.23893e-05,0.147846,0.1650849467212434,-3.8127827313161333e-06,9.960819608689775e-06,-0.06278156289363912,1.2389376747634628e-05,-0.0826333039336663
176,0.1661,880.305,-0.194762,0.0712437,0.020453,-0.0745295,0.0427615,0.153652,-0.0652114,-0.0867343,-3.52146e-06,8.06158e-06,1.36168e-05,0.1487,0.16608501857500402,-3.5214537996708373e-06,8.061612494669745e-06,-0.06313061174707624,1.3616892708956385e-05,-0.08307931090257936
177,0.1671,880.61,0.340959,-0.0151138,-0.00602551,0.0761098,-0.0477942,0.154509,-0.0655782,-0.0872232,-3.88932e-06,1.02224e-05,1.23875e-05,0.149552,0.1670847817732637,-3.88931243655577e-06,1.0222452248909164e-05,-0.06347419242213947,1.238757672550328e-05,-0.08352748386267195
178,0.1681,880.47,-0.323823,0.0676238,0.0309747,-0.108368,0.0540907,0.155366,-0.065951,-0.0877081,-3.36176e-06,7.57145e-06,1.38644e-05,0.150404,0.16808540213582668,-3.3617543493402735e-06,7.571478663592757e-06,-0.06382326417218742,1.3864496111182234e-05,-0.08397177365898045
179,0.1691,880.891,0.47753,-0.0128843,-0.0170191,0.11245,-0.0611917,0.156221,-0.0663159,-0.0881967,-4.02944e-06,1.07336e-05,1.22865e-05,0.151254,0.16908454222617508,-4.0294318818245856e-06,1.0733657605399571e-05,-0.06416481274376429,1.228657547924783e-05,-0.08441923572648569
180,0.1701,880.606,-0.49261,0.0657586,0.0442658,-0.153214,0.0709875,0.157076,-0.0666897,-0.0886802,-3.16112e-06,6.91548e-06,1.41914e-05,0.152105,0.17008453694660286,-3.1611150036470193e-06,6.915503911963938e-06,-0.06451456256444676,1.4191500698368387e-05,-0.08486181202457
181,0.1711,881.187,0.676925,-0.0131729,-0.0325043,0.165801,-0.0819855,0.157931,-0.0670522,-0.0891687,-4.23177e-06,1.14864e-05,1.20815e-05,0.152954,0.1710853870281317,-4.231761046025184e-06,1.1486465969046122e-05,-0.0648536145786267,1.2081572981603728e-05,-0.08530874785643128
182,0.1721,880.701,-0.731268,0.0664914,0.0624453,-0.216825,0.0961672,0.158784,-0.0674275,-0.0896504,-2.89152e-06,5.98904e-06,1.46345e-05,0.153804,0.17208474903056525,-2.891515819558599e-06,5.9890579342525285e-06,-0.06520450916758713,1.4634607084840212e-05,-0.08574924852948418
183,0.1731,880.899,-0.447961,0.0207438,0.0465739,-0.136747,0.0460689,0.159637,-0.0677945,-0.0901354,-3.00031e-06,6.6367e-06,1.41841e-05,0.154652,0.17308496385246275,-3.00030549904573e-06,6.636722022834718e-06,-0.06554751616708832,1.4184200594735685e-05,-0.08619255263401226
184,0.1741,881.267,0.148102,0.0321873,-0.0001314,0.0219888,-0.0115375,0.160489,-0.0681593,-0.0906207,-3.61199e-06,8.74684e-06,1.34724e-05,0.155499,0.17408485813614427,-3.611983476758951e-06,8.746878253695911e-06,-0.06588834226273099,1.3472490753230204e-05,-0.08663591579744578
185,0.1751,881.174,-0.250543,0.0212955,0.0327418,-0.0836646,0.0271073,0.16134,-0.0685286,-0.0911037,-3.13237e-06,7.17275e-06,1.40774e-05,0.156346,0.17508442960775517,-3.1323650940828784e-06,7.172775724262337e-06,-0.066233246007537,1.4077499087106204e-05,-0.0870769641283694
186,0.1761,881.526,0.328137,0.0277846,-0.013054,0.0699508,-0.0297925,0.162191,-0.0688928,-0.0915884,-3.76298e-06,9.35575e-06,1.33215e-05,0.157192,0.1760848520767364,-3.762972920040575e-06,9.355793765264409e-06,-0.06657326193868163,1.3321588731685097e-05,-0.08751935070280914
187,0.1771,881.319,-0.327193,0.026281,0.0379049,-0.104934,0.0379257,0.163041,-0.0692627,-0.09207,-3.04054e-06,6.8345e-06,1.43215e-05,0.158037,0.1770849491820572,-3.0405353775853072e-06,6.834523355259137e-06,-0.06691847263843542,1.4321602553213353e-05,-0.0879586955807723
188,0.1781,881.757,0.46565,0.0230503,-0.0229179,0.107036,-0.0457707,0.16389,-0.0696251,-0.0925543,-3.88596e-06,9.87091e-06,1.3184e-05,0.158881,0.1780847186459973,-3.885952449711461e-06,9.870958717517198e-06,-0.06725656011879955,1.3184086909312498e-05,-0.08840029024372364
189,0.1791,881.423,-0.476119,0.0318839,0.0484394,-0.145104,0.0556015,0.164739,-0.0699959,-0.0930344,-2.87844e-06,6.24492e-06,1.46559e-05,0.159726,0.17908533727463172,-2.8784358573341606e-06,6.244939499522317e-06,-0.06760235727155339,1.4656007398139437e-05,-0.08883784422114083
190,0.1801,881.997,0.648072,0.0164639,-0.036023,0.156411,-0.0672564,0.165586,-0.0703561,-0.0935187,-4.05615e-06,1.05695e-05,1.29662e-05,0.160568,0.18008444561795578,-4.0561417737894345e-06,1.0569555857431467e-05,-0.06793814642320739,1.29662840615552e-05,-0.0892790132154897
191,0.1811,881.489,-0.691787,0.0387291,0.063853,-0.203139,0.0807445,0.166433,-0.0707283,-0.0939971,-2.64836e-06,5.40079e-06,1.50939e-05,0.161412,0.18108440056453268,-2.648356493106796e-06,5.400804584221319e-06,-0.06828499529252996,1.5094013913419246e-05,-0.08971459793539482
192,0.1821,882.262,0.905393,0.00746299,-0.0546447,0.226094,-0.0973784,0.16728,-0.0710855,-0.0944816,-4.30402e-06,1.15609e-05,1.2626e-05,0.162252,0.182085202831739,-4.304010737699038e-06,1.1560966827417474e-05,-0.06861774445967217,1.2626079708200066e-05,-0.09015552438963637
193,0.1831,882.116,0.465903,-0.0358025,-0.0154179,0.113703,-0.0763374,0.168125,-0.0714518,-0.0949621,-3.85557e-06,1.04631e-05,1.27115e-05,0.163094,0.18308448696621915,-3.855562567323112e-06,1.0463154738404867e-05,-0.06895884730307689,1.2711580791524568e-05,-0.09059259964442778
194,0.1841,882.042,0.00317408,0.0720754,0.005322,-0.0213406,0.02118,0.16897,-0.0718188,-0.0954408,-3.59436e-06,8.68878e-06,1.40348e-05,0.163934,0.18408461585265035,-3.594353540248285e-06,8.688817747515287e-06,-0.06930047671328543,1.4034898488279879e-05,-0.09102782878657167
195,0.1851,882.168,0.242289,-0.0190268,0.00205477,0.0499394,-0.0377835,0.169814,-0.0721816,-0.0959216,-3.64719e-06,9.76171e-06,1.32297e-05,0.164774,0.18508440512015212,-3.647183348998162e-06,9.761757645554425e-06,-0.06963807325661786,1.322978751283621e-05,-0.09146475756039685
196,0.1861,882.106,-0.159228,0.0675098,0.018278,-0.0645164,0.0371857,0.170658,-0.0725478,-0.0963996,-3.41321e-06,8.12733e-06,1.43163e-05,0.165613,0.18608503856598868,-3.413204174962381e-06,8.127363026799728e-06,-0.06997870941990314,1.4316402478620205e-05,-0.09189893362993551
197,0.1871,882.328,0.290474,-0.013638,-0.00264589,0.0627058,-0.0420238,0.171501,-0.0729091,-0.0968798,-3.70244e-06,9.95401e-06,1.32456e-05,0.166451,0.18708532981702408,-3.702433145957862e-06,9.954059541295024e-06,-0.07031466541808407,1.32456877233178e-05,-0.0923348990783247
198,0.1881,882.189,-0.263771,0.0638589,0.0269726,-0.0918577,0.0459399,0.172343,-0.0732754,-0.0973567,-3.27696e-06,7.72682e-06,1.45195e-05,0.167289,0.18808527658324148,-3.276954630759832e-06,7.726849851952267e-06,-0.07065514679317053,1.451960540843622e-05,-0.09276766136458503
199,0.1891,882.506,0.39751,-0.0115038,-0.0113739,0.0911633,-0.0523189,0.173184,-0.0736351,-0.0978365,-3.80911e-06,1.03506e-05,1.31809e-05,0.168126,0.1890848765737274,-3.8091027453335258e-06,1.0350653567581247e-05,-0.07098937202285782,1.318098686842184e-05,-0.09320284703127224
200,0.1901,882.254,-0.395486,0.0622298,0.0374424,-0.126867,0.0589744,0.174025,-0.0740021,-0.0983121,-3.11377e-06,7.20874e-06,1.47838e-05,0.168962,0.19008531758140368,-3.1137651522739063e-06,7.208765983035548e-06,-0.07133025636722212,1.4783909281002039e-05,-0.09363401721682663
201,0.1911,882.696,0.551001,-0.0118408,-0.0233294,0.132242,-0.068289,0.174865,-0.0743598,-0.0987917,-3.96039e-06,1.09262e-05,1.30366e-05,0.169797,0.19108540922785822,-3.960382157663922e-06,1.0926259691235174e-05,-0.07166238213028564,1.3036684976874824e-05,-0.09406860611942047
202,0.1921,882.292,-0.577382,0.0632525,0.051319,-0.175427,0.0782214,0.175704,-0.0747278,-0.0992657,-2.9023e-06,6.49462e-06,1.51348e-05,0.170633,0.19208514921848163,-2.9022957883650946e-06,6.494641090037945e-06,-0.07200394752177497,1.5134914531644839e-05,-0.09449791584567668
203,0.1931,882.906,0.765485,-0.015233,-0.0395834,0.189961,-0.0917345,0.176542,-0.075083,-0.0997454,-4.172e-06,1.17412e-05,1.27866e-05,0.171466,0.1930845352577928,-4.171991297208244e-06,1.1741268928222581e-05,-0.07233351318528836,1.2786681748977458e-05,-0.094932181028614
204,0.1941,882.779,0.387001,-0.0389527,-0.00832158,0.0921289,-0.0687669,0.17738,-0.0754459,-0.100221,-3.80715e-06,1.07626e-05,1.29186e-05,0.1723,0.19408475913360923,-3.8071427528318935e-06,1.0762657916885132e-05,-0.07267010227556903,1.2918683445439783e-05,-0.09536252893847186
205,0.1951,882.725,0.0150932,0.0643321,0.00592446,-0.017984,0.0166864,0.178217,-0.0758092,-0.100696,-3.62669e-06,9.31346e-06,1.40763e-05,0.173133,0.19508462646310853,-3.626683423574306e-06,9.31350337030068e-06,-0.07300694003712804,1.4076399071472068e-05,-0.09579212969896811
206,0.1961,882.815,0.19771,-0.0159616,0.00522167,0.0372967,-0.0321886,0.179054,-0.0761692,-0.101172,-3.63906e-06,1.01457e-05,1.34132e-05,0.173965,0.19608533103189818,-3.6390533786345713e-06,1.0145751467849351e-05,-0.07334059747677202,1.3413289957409091e-05,-0.09622243022558141
207,0.1971,882.769,-0.115982,0.0621188,0.0161553,-0.0530103,0.0303808,0.179889,-0.0765317,-0.101645,-3.47712e-06,8.85129e-06,1.43229e-05,0.174796,0.19708447936968843,-3.477113954875044e-06,8.851329172721023e-06,-0.07367645063312434,1.4323002573313204e-05,-0.0966498159313971
208,0.1981,882.935,0.232568,-0.00991565,0.00145061,0.0463883,-0.0345634,0.180724,-0.0768903,-0.102121,-3.67736e-06,1.02765e-05,1.34519e-05,0.175627,0.19808446234475308,-3.677353238473735e-06,1.0276552803389905e-05,-0.07400857070523936,1.345199047730894e-05,-0.09707970829651391
209,0.1991,882.83,-0.196253,0.05872,0.0229546,-0.0739365,0.0367754,0.181559,-0.0772528,-0.102594,-3.36428e-06,8.53645e-06,1.44892e-05,0.176457,0.19908528065430553,-3.3642743407780173e-06,8.536486435506419e-06,-0.07434418176517898,1.4489304968945405e-05,-0.0975066886056859
210,0.2001,883.069,0.313097,-0.0075094,-0.00526714,0.0677321,-0.0419817,0.182392,-0.0776101,-0.103069,-3.75312e-06,1.05659e-05,1.34242e-05,0.177286,0.2000845348246716,-3.75311295708336e-06,1.056595581938602e-05,-0.07467485950993724,1.3424290104868675e-05,-0.09793527113218992
211,0.2011,882.879,-0.295177,0.0569338,0.0309436,-0.100197,0.0463088,0.183225,-0.0779729,-0.10354,-3.23312e-06,8.13868e-06,1.47004e-05,0.178115,0.20108462172054353,-3.2331147734598886e-06,8.138713119221208e-06,-0.07501050658084674,1.4700508051301853e-05,-0.09836004357772299
212,0.2021,883.211,0.427405,-0.0073368,-0.0142577,0.0982783,-0.0536803,0.184057,-0.0783286,-0.104015,-3.86024e-06,1.09857e-05,1.33365e-05,0.178942,0.20208433995092978,-3.860232549279807e-06,1.098576034297416e-05,-0.07533946683460646,1.3336588931434079e-05,-0.09878822085686922
213,0.2031,882.908,-0.429954,0.0574542,0.041311,-0.136181,0.0604207,0.184889,-0.0786921,-0.104485,-3.0681e-06,7.59986e-06,1.49753e-05,0.17977,0.20308489029299426,-3.0680952933792582e-06,7.599888879106231e-06,-0.07567551985707488,1.4975412130358023e-05,-0.09921169086981807
214,0.2041,883.367,0.585226,-0.00971289,-0.0262475,0.140717,-0.0708545,0.18572,-0.0790457,-0.104959,-4.00945e-06,1.15767e-05,1.31714e-05,0.180596,0.2040850693536702,-4.009441962216087e-06,1.1576767010357258e-05,-0.07600230321455093,1.3171486743290828e-05,-0.09963856335157528
215,0.2051,882.911,-0.615311,0.0605722,0.0551268,-0.185835,0.0807932,0.18655,-0.0794103,-0.105428,-2.85441e-06,6.8638e-06,1.53373e-05,0.181423,0.20508487482310644,-2.8544059261781385e-06,6.863823555969262e-06,-0.07633913136729542,1.5337417617056204e-05,-0.100060733858641
216,0.2061,883.544,0.802733,-0.0152689,-0.0424338,0.199455,-0.0953773,0.18738,-0.0797614,-0.105902,-4.21777e-06,1.24028e-05,1.29026e-05,0.182247,0.20608551047556056,-4.2177611052629516e-06,1.2402876915063032e-05,-0.07666337177453808,1.2902683238946722e-05,-0.10048720398938626
217,0.2071,883.391,0.401316,-0.0395672,-0.009102,0.0954796,-0.070356,0.188208,-0.0801207,-0.106373,-3.82649e-06,1.13478e-05,1.30567e-05,0.183072,0.2070845628288307,-3.826482679047949e-06,1.1347864386612727e-05,-0.07699506703243797,1.3056785238996227e-05,-0.10091077475756094
218,0.2081,883.315,0.0164186,0.0636219,0.00621003,-0.0180882,0.0162695,0.189036,-0.0804803,-0.106842,-3.63086e-06,9.84922e-06,1.42259e-05,0.183896,0.20808444274001103,-3.6308534084872335e-06,9.849268503669961e-06,-0.07732691993560503,1.4226001188610837e-05,-0.10133234873737385
219,0.2091,883.39,0.19944,-0.0165323,0.00541861,0.0372805,-0.0325887,0.189864,-0.0808365,-0.107313,-3.64356e-06,1.06833e-05,1.35615e-05,0.184719,0.20908515089460344,-3.6435533622425353e-06,1.0683357066554322e-05,-0.07765551756001277,1.3561591957644836e-05,-0.10175552153610135
220,0.2101,883.328,-0.117097,0.061227,0.0166875,-0.0537356,0.0300163,0.190691,-0.0811953,-0.107781,-3.47556e-06,9.37462e-06,1.44684e-05,0.185541,0.21008547789259424,-3.475553960297084e-06,9.374663941796868e-06,-0.07798639539727859,1.4468504667908277e-05,-0.10217580159881678
221,0.2111,883.48,0.231044,-0.0104743,0.00188419,0.0455172,-0.0346301,0.191517,-0.0815503,-0.108252,-3.67612e-06,1.07978e-05,1.36006e-05,0.186363,0.21108542141715603,-3.6761132430340737e-06,1.0797858296385243e-05,-0.07831365213540464,1.360069248868001e-05,-0.10259857722478816
222,0.2121,883.362,-0.194883,0.0578587,0.0233043,-0.0740028,0.0361426,0.192342,-0.081909,-0.108719,-3.36255e-06,9.06413e-06,1.46266e-05,0.187184,0.21208497915069668,-3.362544346630081e-06,9.064171079264938e-06,-0.0786442017407677,1.4626706969167458e-05,-0.10301756584776589
223,0.2131,883.584,0.307527,-0.00818167,-0.00451946,0.0657945,-0.0416452,0.193167,-0.0822627,-0.109189,-3.74496e-06,1.10676e-05,1.35746e-05,0.188005,0.2130853618596229,-3.7449529876054655e-06,1.1067661246144667e-05,-0.07897002766090122,1.3574692135254196e-05,-0.10343904853562702
224,0.2141,883.386,-0.288602,0.0562519,0.0308773,-0.0988897,0.045176,0.193991,-0.0826217,-0.109655,-3.23444e-06,8.68071e-06,1.48264e-05,0.188825,0.21408535613885715,-3.234434769239236e-06,8.680747677569656e-06,-0.07930061807644073,1.4826509911580743e-05,-0.10385674860733396
225,0.2151,883.697,0.414946,-0.00821574,-0.012962,0.0945229,-0.0526783,0.194814,-0.0829738,-0.110125,-3.84193e-06,1.14572e-05,1.34924e-05,0.189643,0.21508495966738983,-3.841922619818305e-06,1.1457265634007285e-05,-0.07962473926393243,1.349249102289285e-05,-0.10427783697197124
226,0.2161,883.394,-0.414467,0.0570448,0.040533,-0.13252,0.0584298,0.195637,-0.0833334,-0.11059,-3.0766e-06,8.17013e-06,1.5085e-05,0.190462,0.21608538620824946,-3.0765952673261765e-06,8.170163375620376e-06,-0.07995564670696897,1.508511377923405e-05,-0.10469425095402518
227,0.2171,883.823,0.561337,-0.0108459,-0.0240442,0.13393,-0.0687271,0.196459,-0.0836836,-0.111059,-3.976e-06,1.20008e-05,1.33394e-05,0.19128,0.21708541935302628,-3.975992095672787e-06,1.2000872009920727e-05,-0.0802777898289393,1.3339488970087743e-05,-0.10511405089954551
228,0.2181,883.38,-0.585293,0.0604876,0.0532051,-0.178331,0.0773662,0.19728,-0.0840442,-0.111522,-2.87612e-06,7.48347e-06,1.54224e-05,0.192097,0.21808505677732803,-2.8761158640255857e-06,7.483498001281674e-06,-0.08060938186828914,1.5422518925722883e-05,-0.1055282871908777
229,0.2191,883.968,0.760479,-0.0166332,-0.038785,0.187771,-0.0913913,0.198101,-0.084392,-0.111992,-4.16172e-06,1.2753e-05,1.30932e-05,0.192913,0.21908551524094566,-4.16171134010046e-06,1.275308131987174e-05,-0.08092909032475193,1.3093285716303527e-05,-0.10594859011697322
230,0.2201,883.811,0.373666,-0.0385883,-0.00683704,0.0874303,-0.0667737,0.19892,-0.0847476,-0.112457,-3.78127e-06,1.17155e-05,1.32531e-05,0.193729,0.2200843552470786,-3.781262851054734e-06,1.1715568626780026e-05,-0.08125585383823652,1.3253187822748203e-05,-0.10636422737941609
231,0.2211,883.737,0.0224248,0.0605917,0.00646033,-0.0166655,0.0143728,0.19974,-0.0851034,-0.112921,-3.6101e-06,1.03384e-05,1.43466e-05,0.194544,0.22108523472288377,-3.6100934835969767e-06,1.0338453441338658e-05,-0.08158268485875442,1.4346702913003995e-05,-0.10677877819468529
232,0.2221,883.793,0.180733,-0.0152035,0.00684935,0.0317288,-0.0302381,0.200558,-0.0854561,-0.113387,-3.60403e-06,1.10677e-05,1.37417e-05,0.195359,0.22208449108502037,-3.6040235055212477e-06,1.1067761247263164e-05,-0.08190655352820753,1.3741794417487796e-05,-0.10719492231493588
233,0.2231,883.734,-0.0990621,0.0583416,0.0160281,-0.0491104,0.0268728,0.201376,-0.0858111,-0.11385,-3.4639e-06,9.90028e-06,1.45688e-05,0.196173,0.22308456517326558,-3.4638940007436503e-06,9.900329007939135e-06,-0.0822324188571868,1.4568906125500547e-05,-0.10760819538580535
234,0.2241,883.859,0.205483,-0.00903456,0.00382681,0.038105,-0.0314407,0.202194,-0.0861626,-0.114315,-3.62666e-06,1.11498e-05,1.37889e-05,0.196986,0.224085457656793,-3.6266534236828463e-06,1.1149862159332002e-05,-0.08255495747247599,1.3788995067320897e-05,-0.10802306111119453
235,0.2251,883.753,-0.165869,0.0549629,0.0218075,-0.0664626,0.0318789,0.20301,-0.0865175,-0.114778,-3.36e-06,9.62648e-06,1.47074e-05,0.197798,0.22508471903343552,-3.3599943551898548e-06,9.626526334738372e-06,-0.08288050094696253,1.4707508154243598e-05,-0.10843595084255131
236,0.2261,883.938,0.269558,-0.0066319,-0.00163664,0.0550561,-0.0371116,0.203826,-0.0868678,-0.115242,-3.67994e-06,1.13675e-05,1.37781e-05,0.19861,0.226084796140134,-3.679933229028265e-06,1.1367564610287317e-05,-0.08320171164414258,1.3778194918545594e-05,-0.10884954060111596
237,0.2271,883.765,-0.244289,0.0532735,0.028221,-0.0872619,0.0392748,0.204641,-0.0872228,-0.115704,-3.24564e-06,9.29699e-06,1.48803e-05,0.199421,0.22708446255771975,-3.2456347328624346e-06,9.297033217059436e-06,-0.08352711727359219,1.4880410712292402e-05,-0.1092611570226435
238,0.2281,884.025,0.358609,-0.00645221,-0.00868939,0.0788534,-0.0461479,0.205456,-0.0875718,-0.116168,-3.7551e-06,1.16822e-05,1.37203e-05,0.200231,0.2280849440355277,-3.755092949586647e-06,1.168226823722307e-05,-0.08384691050249937,1.3720394123728497e-05,-0.1096743639743587
239,0.2291,883.765,-0.348014,0.0538413,0.0362181,-0.114975,0.0501226,0.20627,-0.0879272,-0.116628,-3.10858e-06,8.86662e-06,1.51011e-05,0.201042,0.22908501215247634,-3.108575168386807e-06,8.866659308548464e-06,-0.08417245345809699,1.51012140221507e-05,-0.11008381958491997
240,0.2301,884.122,0.478354,-0.00864478,-0.0177667,0.111087,-0.0592579,0.207083,-0.0882745,-0.117092,-3.85875e-06,1.21188e-05,1.3605e-05,0.20185,0.23008466457100263,-3.858742555040706e-06,1.2118873432998e-05,-0.08449046513908609,1.3605092548329978e-05,-0.11049664490975064
241,0.2311,883.748,-0.486892,0.0568339,0.0465243,-0.152246,0.065538,0.207896,-0.0886306,-0.117551,-2.93878e-06,8.29772e-06,1.53852e-05,0.202659,0.2310851300374046,-2.938775681804451e-06,8.29775442623415e-06,-0.08481642004473466,1.5385318352878485e-05,-0.11090483326334344
242,0.2321,884.233,0.639113,-0.0136166,-0.0296331,0.154561,-0.0776299,0.208708,-0.0889759,-0.118014,-4.00181e-06,1.27181e-05,1.34156e-05,0.203466,0.23208517712716548,-4.001801992781218e-06,1.2718180875337382e-05,-0.08513237838154697,1.3415689989582091e-05,-0.11131638904302743
243,0.2331,883.709,-0.673106,0.0626333,0.060004,-0.202329,0.0869254,0.209519,-0.0893332,-0.118472,-2.72412e-06,7.54337e-06,1.57521e-05,0.204274,0.2330848034995201,-2.724116289543055e-06,7.543398451215211e-06,-0.08545920219220049,1.575222406491328e-05,-0.11172331294415916
244,0.2341,884.365,0.854885,-0.0220061,-0.045318,0.213114,-0.102927,0.21033,-0.0896759,-0.118936,-4.199e-06,1.35363e-05,1.31287e-05,0.20508,0.234085240897689,-4.198991184201084e-06,1.3536391616053578e-05,-0.08577256162640334,1.3128786181759722e-05,-0.11213537772053195
245,0.2351,884.177,0.416965,-0.0421694,-0.00947025,0.0989136,-0.072625,0.21114,-0.0900275,-0.119395,-3.77226e-06,1.23429e-05,1.33446e-05,0.205886,0.23508525489380894,-3.772252885059224e-06,1.2342976173806974e-05,-0.08609394749078969,1.3344689039573865e-05,-0.1125428140683632
246,0.2361,884.076,0.0212537,0.0607593,0.0067541,-0.0174564,0.0146213,0.211949,-0.0903794,-0.119853,-3.56175e-06,1.07987e-05,1.45133e-05,0.206692,0.2360848431439475,-3.561743657010119e-06,1.0798758306229672e-05,-0.08641549445116181,1.4513405318439254e-05,-0.11294917639544366
247,0.2371,884.13,0.195658,-0.0172077,0.0062124,0.0354037,-0.0324891,0.212758,-0.0907279,-0.120313,-3.56877e-06,1.15973e-05,1.38705e-05,0.207496,0.23708524038817447,-3.5687636319448046e-06,1.1597367248983304e-05,-0.08673382317934286,1.3870596195841856e-05,-0.11335712593871328
248,0.2381,884.052,-0.112309,0.058639,0.0172501,-0.0531091,0.0282418,0.213566,-0.0910789,-0.120771,-3.40132e-06,1.03155e-05,1.47445e-05,0.2083,0.23808520919540266,-3.401314215500939e-06,1.03155532049648e-05,-0.08705432335633545,1.4744608700656414e-05,-0.11376311539635076
249,0.2391,884.179,0.219113,-0.0109118,0.00325274,0.0414618,-0.0335822,0.214373,-0.0914262,-0.12123,-3.5887e-06,1.16727e-05,1.39144e-05,0.209103,0.23908474721856998,-3.5886935606521675e-06,1.1672768126302913e-05,-0.0873713343376904,1.391449680565593e-05,-0.11416980478402916
250,0.2401,884.053,-0.181991,0.0553402,0.0232515,-0.0712251,0.0335308,0.21518,-0.0917771,-0.121687,-3.2919e-06,1.00263e-05,1.48825e-05,0.209906,0.2400850921944837,-3.29189458170287e-06,1.002635026359222e-05,-0.0876915195566893,1.4882610744892943e-05,-0.11457453669495721
251,0.2411,884.243,0.284429,-0.00870499,-0.00229554,0.0587672,-0.0394293,0.215986,-0.0921231,-0.122146,-3.64099e-06,1.1892e-05,1.3897e-05,0.210708,0.2410850036889931,-3.6409833715778106e-06,1.1892070710173286e-05,-0.08800712368825936,1.389709656374194e-05,-0.11498085372572209
252,0.2421,884.05,-0.261756,0.0539337,0.0297345,-0.0924031,0.041148,0.216791,-0.0924742,-0.122601,-3.17401e-06,9.68631e-06,1.50541e-05,0.21151,0.24208447935194344,-3.1740049628581346e-06,9.686356912341765e-06,-0.08832726818247771,1.5054213313492326e-05,-0.11538344584062521
253,0.2431,884.315,0.374227,-0.00890198,-0.00936775,0.0828037,-0.048655,0.217596,-0.0928189,-0.12306,-3.71427e-06,1.22067e-05,1.38326e-05,0.21231,0.24308475991673184,-3.7142631020836703e-06,1.220677450208818e-05,-0.08864146761775149,1.3832695670901174e-05,-0.11578939166729008
254,0.2441,884.035,-0.365619,0.0549573,0.037681,-0.120184,0.0521515,0.2184,-0.0931704,-0.123514,-3.03507e-06,9.24962e-06,1.52727e-05,0.213111,0.24408460194634118,-3.035065394230152e-06,9.249662777932599e-06,-0.08896175384828109,1.527281662827562e-05,-0.11619073217228493
255,0.2451,884.397,0.493277,-0.011621,-0.018332,0.114904,-0.0618549,0.219204,-0.0935134,-0.123972,-3.81427e-06,1.26383e-05,1.37122e-05,0.21391,0.24508524817218613,-3.8142627256654293e-06,1.2638379863760818e-05,-0.08927418638146867,1.3712294012702131e-05,-0.11659542413541624
256,0.2461,884.005,-0.502681,0.0585421,0.0477657,-0.157011,0.0675637,0.220007,-0.0938657,-0.124425,-2.86577e-06,8.68153e-06,1.55523e-05,0.214709,0.24608545315502384,-2.865765893700356e-06,8.681567684520886e-06,-0.08959497857474363,1.5552420937536837e-05,-0.11699551578068335
257,0.2471,884.493,0.650828,-0.0172341,-0.0298759,0.157584,-0.0800919,0.220809,-0.0942067,-0.124883,-3.95085e-06,1.32235e-05,1.3521e-05,0.215506,0.24708521453918175,-3.950842195399318e-06,1.322358743083285e-05,-0.08990537376166252,1.3521091409174346e-05,-0.11739983923731656
258,0.2481,883.956,-0.683848,0.0650401,0.0607614,-0.205795,0.0886409,0.22161,-0.0945601,-0.125335,-2.65528e-06,7.93997e-06,1.59103e-05,0.216305,0.2480845299684269,-2.6552764746945456e-06,7.940001521600237e-06,-0.09022694437770051,1.5910426569565317e-05,-0.11779868436419216
259,0.2491,884.609,0.859297,-0.0263342,-0.0449124,0.214252,-0.104848,0.222411,-0.0948987,-0.125793,-4.13711e-06,1.40123e-05,1.32383e-05,0.217101,0.24908464616999737,-4.137101442203139e-06,1.4012398172669194e-05,-0.09053494138749785,1.3238387626790526e-05,-0.11820264005383918
260,0.2501,884.414,0.413078,-0.0431422,-0.00880937,0.0974948,-0.0723585,0.223211,-0.0952463,-0.126247,-3.70336e-06,1.27729e-05,1.34833e-05,0.217897,0.2500843137006299,-3.7033531425922916e-06,1.2772981573760944e-05,-0.09085101650483363,1.348339090001538e-05,-0.11860288519273343
261,0.2511,884.31,0.0250682,0.0585616,0.0069968,-0.0166398,0.0133322,0.224011,-0.0955941,-0.1267,-3.49668e-06,1.12537e-05,1.46273e-05,0.218693,0.2510847812852661,-3.4966738866604175e-06,1.1253763323226806e-05,-0.09116716354013688,1.4627406979439428e-05,-0.11900206766408505
262,0.2521,884.353,0.18801,-0.0169821,0.00692564,0.0329422,-0.0316575,0.22481,-0.0959386,-0.127154,-3.4957e-06,1.20042e-05,1.40131e-05,0.219488,0.25208479747878143,-3.4956938900210233e-06,1.2004272050614162e-05,-0.09148020252823563,1.4013198183837616e-05,-0.11940194994521924
263,0.2531,884.276,-0.104623,0.0567072,0.0171815,-0.0512679,0.0265586,0.225608,-0.0962855,-0.127606,-3.33793e-06,1.07794e-05,1.48488e-05,0.220282,0.2530843599195396,-3.337924429080985e-06,1.0779458097909256e-05,-0.09179531338684022,1.4848910244058544e-05,-0.11979989032254368
264,0.2541,884.389,0.206578,-0.0105145,0.00431353,0.0376792,-0.0321488,0.226406,-0.0966289,-0.12806,-3.50853e-06,1.20564e-05,1.40614e-05,0.221076,0.2540847203294727,-3.508523845119349e-06,1.2056472678656505e-05,-0.09210713733298737,1.4061498861961397e-05,-0.12019941047440041
265,0.2551,884.269,-0.168196,0.0534154,0.0227163,-0.0677604,0.0312218,0.227203,-0.0969756,-0.128511,-3.23271e-06,1.0509e-05,1.49739e-05,0.221869,0.2550846242603628,-3.2327047747582327e-06,1.0509055219820596e-05,-0.09242184923001417,1.4974012109369994e-05,-0.1205961110775664
266,0.2561,884.44,0.264443,-0.00825844,-0.000670021,0.0529896,-0.0371912,0.228,-0.0973178,-0.128964,-3.55083e-06,1.22434e-05,1.40514e-05,0.222661,0.2560853254323441,-3.5508236958525785e-06,1.2243474950768274e-05,-0.0927323693401867,1.4051498721467937e-05,-0.12099439082207519
267,0.2571,884.259,-0.238834,0.0519949,0.0285007,-0.0865003,0.0378734,0.228795,-0.0976647,-0.129414,-3.12235e-06,1.01996e-05,1.51281e-05,0.223454,0.2570843103099365,-3.1223451254502876e-06,1.0199652016096294e-05,-0.09304704589745805,1.5128214430282227e-05,-0.12138985436023575
268,0.2581,884.497,0.343158,-0.00837035,-0.0068984,0.0740556,-0.045226,0.229591,-0.0980057,-0.129867,-3.61023e-06,1.25119e-05,1.4e-05,0.224244,0.25808534778100056,-3.6102234831636437e-06,1.2511978274121205e-05,-0.093356264130102,1.4000098000455097e-05,-0.12178777462046686
269,0.2591,884.241,-0.329275,0.0529275,0.0354311,-0.110693,0.0474351,0.230385,-0.0983528,-0.130316,-2.99542e-06,9.80997e-06,1.53225e-05,0.225035,0.2590846642232658,-2.995415513740163e-06,9.810018117839547e-06,-0.09367090556164304,1.5322617390012283e-05,-0.12218200339867846
270,0.2601,884.562,0.445999,-0.010871,-0.0146369,0.101797,-0.0566539,0.231179,-0.0986923,-0.130768,-3.69101e-06,1.28773e-05,1.39008e-05,0.225825,0.26008477443787203,-3.691003188199815e-06,1.2877382912890312e-05,-0.09397855206325623,1.390089661645888e-05,-0.12257868747578715
271,0.2611,884.21,-0.446848,0.05627,0.044061,-0.142306,0.0607139,0.231972,-0.09904,-0.131216,-2.84427e-06,9.31224e-06,1.55681e-05,0.226615,0.2610844179702765,-2.844265955093128e-06,9.312283359097506e-06,-0.09429352096018795,1.556822118353729e-05,-0.12297168418596194
272,0.2621,884.639,0.580124,-0.0160203,-0.0244233,0.138157,-0.0722825,0.232765,-0.0993777,-0.131668,-3.80091e-06,1.33683e-05,1.37426e-05,0.227403,0.26208485453439767,-3.8009027765184555e-06,1.3368389356172017e-05,-0.09459932640000501,1.374269442999676e-05,-0.12336801140801013
273,0.2631,884.164,-0.600017,0.0622812,0.0549956,-0.183598,0.0786742,0.233557,-0.0997264,-0.132115,-2.66041e-06,8.67366e-06,1.58784e-05,0.228192,0.2630848216739059,-2.6604064611301936e-06,8.673697616368159e-06,-0.09491498457668779,1.5878526062440557e-05,-0.12375977834047813
274,0.2641,884.732,0.755059,-0.024262,-0.0369597,0.185747,-0.0932426,0.234348,-0.100062,-0.132567,-3.95002e-06,1.40233e-05,1.35096e-05,0.228978,0.264084317016144,-3.950012198661312e-06,1.402339832701216e-05,-0.0952186801448971,1.3509691255020329e-05,-0.12415574942446173
275,0.2651,884.554,0.354576,-0.0394366,-0.00459914,0.0810121,-0.0644222,0.235139,-0.100405,-0.133015,-3.55326e-06,1.28871e-05,1.37312e-05,0.229765,0.2650846032719629,-3.5532536871718534e-06,1.2887183038934324e-05,-0.09552896692038326,1.3731294273400252e-05,-0.12454803976912121
276,0.2661,884.47,0.0327327,0.0541437,0.00724428,-0.0145164,0.010673,0.235929,-0.100749,-0.133462,-3.39649e-06,1.16107e-05,1.47338e-05,0.230552,0.26608441498217483,-3.396484231976693e-06,1.1610767404413025e-05,-0.0958400514461566,1.4733908543007601e-05,-0.12493927934678428
277,0.2671,884.497,0.156455,-0.0140275,0.00901462,0.0239666,-0.0274438,0.236719,-0.10109,-0.133911,-3.36664e-06,1.21929e-05,1.42166e-05,0.231337,0.26708501685571107,-3.3666343328686565e-06,1.2192974333746776e-05,-0.09614831742627672,1.4216701056390946e-05,-0.12533209341699958
278,0.2681,884.438,-0.0758896,0.0522494,0.015847,-0.0435193,0.0217169,0.237508,-0.101432,-0.134358,-3.25575e-06,1.12041e-05,1.49238e-05,0.232122,0.26808514143127216,-3.255744700059182e-06,1.1204162766231818e-05,-0.09645738184868824,1.4923911360487097e-05,-0.1257229826010009
279,0.2691,884.522,0.16796,-0.00749483,0.0069505,0.0267663,-0.0270366,0.238296,-0.101772,-0.134806,-3.36912e-06,1.22106e-05,1.42746e-05,0.232906,0.2690847863310837,-3.3691143245251354e-06,1.2210674549706368e-05,-0.09676453412001462,1.4274701882532881e-05,-0.12611457098244883
280,0.2701,884.43,-0.125291,0.0488439,0.0203015,-0.0562438,0.0249332,0.239084,-0.102115,-0.135251,-3.1635e-06,1.09834e-05,1.50253e-05,0.23369,0.2700852192615193,-3.1634949961834025e-06,1.0983460317692817e-05,-0.09707429075851104,1.502541288034287e-05,-0.12650336348561375
281,0.2711,884.559,0.211204,-0.00494939,0.00306555,0.0381407,-0.0304582,0.239871,-0.102453,-0.135699,-3.39399e-06,1.23369e-05,1.42838e-05,0.234473,0.271085169757987,-3.3939842404295817e-06,1.2336976099813768e-05,-0.09737942807712285,1.428390201385632e-05,-0.12689460233472638
282,0.2721,884.421,-0.178192,0.0470915,0.0247622,-0.0702226,0.029625,0.240657,-0.102796,-0.136144,-3.0698e-06,1.07388e-05,1.51484e-05,0.235256,0.2720846354399742,-3.0697952881908463e-06,1.0738857661118928e-05,-0.09768897384315867,1.5148514737495233e-05,-0.12728304780116095
283,0.2731,884.6,0.269405,-0.00451341,-0.00164204,0.0536712,-0.0361753,0.241443,-0.103133,-0.136591,-3.4301e-06,1.2522e-05,1.42612e-05,0.236038,0.2730848870108016,-3.4300941171849786e-06,1.2522078400634129e-05,-0.09799300142744827,1.4261301691353978e-05,-0.1276730651034328
284,0.2741,884.407,-0.244645,0.047374,0.0299383,-0.0879662,0.0364629,0.242228,-0.103476,-0.137035,-2.96563e-06,1.04387e-05,1.5301e-05,0.236819,0.27408465100313206,-2.9656256025356598e-06,1.0438754483477197e-05,-0.09830233677391398,1.5301117060939617e-05,-0.12806029229172966
285,0.2751,884.647,0.344266,-0.00607852,-0.00733123,0.0738388,-0.0443722,0.243013,-0.103812,-0.137481,-3.48011e-06,1.27746e-05,1.42038e-05,0.237599,0.27508520011831683,-3.4801039444642967e-06,1.277468159543993e-05,-0.09860525629542849,1.4203900874365516e-05,-0.12844909069287924
286,0.2761,884.384,-0.329664,0.0496522,0.0362241,-0.11082,0.0459732,0.243797,-0.104155,-0.137924,-2.84557e-06,1.00637e-05,1.54904e-05,0.23838,0.2760852588870226,-2.84556595131491e-06,1.0063750639277558e-05,-0.09891438167448596,1.5490519976957273e-05,-0.12883510223783223
287,0.2771,884.702,0.440426,-0.00975076,-0.0143606,0.0998926,-0.0555434,0.24458,-0.10449,-0.13837,-3.54921e-06,1.31132e-05,1.41045e-05,0.239159,0.27708482492376607,-3.549203701602721e-06,1.3113285978416656e-05,-0.09921619480010391,1.4104599468822698e-05,-0.12922355515079542
288,0.2781,884.351,-0.438774,0.0540508,0.044026,-0.140256,0.0587639,0.245363,-0.104834,-0.138812,-2.70388e-06,9.5926e-06,1.57248e-05,0.239938,0.27808517392720744,-2.703876344489764e-06,9.592646009082273e-06,-0.09952601113762738,1.5724923635218602e-05,-0.12960835329276477
289,0.2791,884.767,0.564011,-0.0157716,-0.0231871,0.133505,-0.0703995,0.246145,-0.105167,-0.139258,-3.64397e-06,1.35623e-05,1.39535e-05,0.240716,0.2790850274249834,-3.6439633607221467e-06,1.356239196836917e-05,-0.09982581905512977,1.395359735045787e-05,-0.1299964614126521
290,0.2801,884.305,-0.578863,0.0608331,0.0538285,-0.178118,0.0756389,0.246926,-0.105511,-0.139698,-2.53375e-06,8.99851e-06,1.60155e-05,0.241494,0.2800843830289683,-2.533746790045477e-06,8.998550486749579e-06,-0.10013542571797573,1.6015628248711167e-05,-0.13037917876563831
291,0.2811,884.845,0.722812,-0.0245522,-0.0343784,0.176817,-0.0898797,0.247707,-0.105842,-0.140144,-3.77258e-06,1.41536e-05,1.37376e-05,0.24227,0.28108451943454327,-3.7725728838644557e-06,1.4153700162777838e-05,-0.1004332316024702,1.373769436119332e-05,-0.13076694317401805
292,0.2821,884.242,-0.75863,0.0704075,0.0662247,-0.226731,0.0976454,0.248488,-0.106188,-0.140583,-2.32684e-06,8.24762e-06,1.63771e-05,0.243048,0.2820854372517525,-2.3268372929541314e-06,8.247654011750427e-06,-0.10074442786427784,1.6377234105524607e-05,-0.13114845273848819
293,0.2831,884.385,-0.400287,0.0285369,0.0436781,-0.1271,0.0429215,0.249267,-0.106524,-0.141026,-2.53736e-06,9.22773e-06,1.58379e-05,0.243823,0.283084570919409,-2.537356780907274e-06,9.227772575615134e-06,-0.10104652698102168,1.5838025420267243e-05,-0.13153326873088944
294,0.2841,884.601,0.0796178,0.0214138,0.0079095,0.00228789,-0.00864223,0.250046,-0.106859,-0.141469,-2.99943e-06,1.09488e-05,1.52017e-05,0.244598,0.2840844832154288,-2.999425501748476e-06,1.094885993824235e-05,-0.10134762595758862,1.5201815546372899e-05,-0.13191791428756028
295,0.2851,884.496,-0.170959,0.0241626,0.0274155,-0.0650117,0.0189307,0.250825,-0.107197,-0.141909,-2.69714e-06,9.90068e-06,1.56293e-05,0.245373,0.2850851747466001,-2.697136362694863e-06,9.900729011969034e-06,-0.10165131913297698,1.562942213806373e-05,-0.13229978638725093
296,0.2861,884.666,0.208248,0.0146629,-0.000896713,0.0368412,-0.0225914,0.251603,-0.107532,-0.142351,-3.08148e-06,1.13534e-05,1.50819e-05,0.246146,0.28608536003418017,-3.0814752522978495e-06,1.1353464450136741e-05,-0.10195221553810563,1.5082013732348187e-05,-0.13268322513546194
297,0.2871,884.501,-0.189039,0.0285649,0.0281433,-0.0704991,0.0232038,0.25238,-0.107871,-0.142791,-2.65296e-06,9.76281e-06,1.57486e-05,0.24692,0.2870850366830102,-2.6529564809418815e-06,9.76285765630358e-06,-0.10225660214059407,1.574872400977867e-05,-0.13306476057245076
298,0.2881,884.702,0.27078,0.00984749,-0.00502104,0.0539089,-0.0306823,0.253157,-0.108204,-0.143233,-3.1099e-06,1.15592e-05,1.50251e-05,0.247693,0.28808549038244147,-3.1098951642771766e-06,1.155926680773689e-05,-0.10255550092267196,1.5025212877439742e-05,-0.1334478612767851
299,0.2891,884.489,-0.246281,0.0337312,0.0317681,-0.0861826,0.0310131,0.253933,-0.108543,-0.143671,-2.57197e-06,9.49413e-06,1.59112e-05,0.248465,0.28908543265039977,-2.5719666925105855e-06,9.494175069457711e-06,-0.10285968304607618,1.5911326583850638e-05,-0.133827328004266
300,0.2901,884.74,0.339906,0.0042858,-0.00956566,0.0728759,-0.0398538,0.254708,-0.108876,-0.144112,-3.14581e-06,1.17989e-05,1.49509e-05,0.249236,0.2900848610892004,-3.145805051896211e-06,1.1798969607346166e-05,-0.10315838103564634,1.495101176529623e-05,-0.13420922593793239
301,0.2911,884.468,-0.323145,0.0395362,0.0368139,-0.107155,0.041069,0.255483,-0.109215,-0.14455,-2.47119e-06,9.14995e-06,1.6104e-05,0.250008,0.2910850643852596,-2.471186946628734e-06,9.149991860857298e-06,-0.10346235881733012,1.6104129670013734e-05,-0.13458835926071266
302,0.2921,884.784,0.427097,-0.00233861,-0.0153811,0.0967693,-0.051252,0.256257,-0.109546,-0.144991,-3.20001e-06,1.21116e-05,1.48451e-05,0.250778,0.2920847510539273,-3.2000048799663006e-06,1.2111673345804874e-05,-0.10375906366919974,1.4845210189129432e-05,-0.13496992165358723
303,0.2931,884.437,-0.421557,0.0464634,0.0433532,-0.13395,0.0537405,0.257031,-0.109885,-0.145428,-2.34914e-06,8.72066e-06,1.63327e-05,0.251548,0.2930852117795977,-2.3491372407313804e-06,8.720698025044271e-06,-0.10406283785398229,1.633283337931779e-05,-0.13534785721289033
304,0.2941,884.839,0.538111,-0.0104115,-0.0228644,0.12718,-0.0656131,0.257804,-0.110215,-0.145868,-3.27808e-06,1.25199e-05,1.46977e-05,0.252317,0.2940851530758233,-3.2780746270777428e-06,1.2519978374259111e-05,-0.10435844833907781,1.4697808011776559e-05,-0.1357282204696637
305,0.2951,884.394,-0.546764,0.0549582,0.0517139,-0.167989,0.0697382,0.258576,-0.110555,-0.146303,-2.20115e-06,8.18529e-06,1.66071e-05,0.253086,0.2950845725402744,-2.2011475774297296e-06,8.185323499665387e-06,-0.10466291470442746,1.6607237898647043e-05,-0.13610409693470116
306,0.2961,884.905,0.67926,-0.0204496,-0.0324445,0.165856,-0.0837657,0.259348,-0.110883,-0.146744,-3.38622e-06,1.30499e-05,1.44972e-05,0.253853,0.29608476385444815,-3.3862142667651085e-06,1.3049985150281884e-05,-0.10495653711169717,1.4497305084848477e-05,-0.13648499103463085
307,0.2971,884.337,-0.705649,0.0655258,0.0623347,-0.211127,0.0899602,0.260119,-0.111224,-0.147178,-2.02104e-06,7.51677e-06,1.69397e-05,0.254621,0.29708443052936273,-2.021037957655736e-06,7.516798250950529e-06,-0.10526169490018211,1.6939843477503658e-05,-0.13685967523616893
308,0.2981,884.986,0.858356,-0.0330936,-0.0446588,0.214969,-0.106737,0.26089,-0.11155,-0.147619,-3.53228e-06,1.37336e-05,1.42291e-05,0.255387,0.29808486824448166,-3.5322737614862376e-06,1.3733694306239386e-05,-0.10555333204820672,1.4229201234172706e-05,-0.13724023619952974
309,0.2991,884.776,0.392782,-0.0437729,-0.00754534,0.0923708,-0.0698103,0.26166,-0.111885,-0.148055,-3.07513e-06,1.23733e-05,1.45401e-05,0.256154,0.2990847785090778,-3.0751252717564626e-06,1.2373376549579262e-05,-0.1058529214979359,1.4540205707680443e-05,-0.13761631746487324
310,0.3001,884.675,0.0377256,0.0521195,0.00655995,-0.0122091,0.00934819,0.26243,-0.11222,-0.14849,-2.88836e-06,1.09705e-05,1.55868e-05,0.25692,0.3000854590010773,-2.888355828734035e-06,1.0970560176071231e-05,-0.1061524106020083,1.5586921474852744e-05,-0.13799137278632945
311,0.3011,884.696,0.1613,-0.0156882,0.00824848,0.0261677,-0.0286378,0.263198,-0.112552,-0.148926,-2.86058e-06,1.15602e-05,1.50675e-05,0.257685,0.30108430814256515,-2.8605759085920113e-06,1.156026681936595e-05,-0.1064491187454113,1.506761351532937e-05,-0.13836712662750472
312,0.3021,884.629,-0.0787593,0.0504963,0.0157752,-0.0432964,0.021039,0.263967,-0.112886,-0.149361,-2.73976e-06,1.05378e-05,1.57754e-05,0.258449,0.3020852267794172,-2.7397562468722825e-06,1.0537855522851913e-05,-0.10674751490481771,1.577552443232655e-05,-0.13874185541800088
313,0.3031,884.709,0.166261,-0.00876598,0.00662237,0.0272154,-0.0274577,0.264734,-0.113218,-0.149797,-2.85764e-06,1.15557e-05,1.51275e-05,0.259213,0.3030843092475044,-2.857635916897472e-06,1.1555766767257225e-05,-0.10704402550638592,1.5127614421128754e-05,-0.13911728212007035
314,0.3041,884.614,-0.124822,0.0470468,0.0199925,-0.0551262,0.023867,0.265502,-0.113551,-0.150231,-2.65091e-06,1.03307e-05,1.58632e-05,0.259976,0.30408546239060485,-2.650906486323379e-06,1.0330753361875722e-05,-0.10734133034188986,1.5863325821152685e-05,-0.13949082415514535
315,0.3051,884.734,0.203534,-0.00619784,0.00318791,0.0369911,-0.0302301,0.266268,-0.113882,-0.150666,-2.8767e-06,1.16612e-05,1.51379e-05,0.260739,0.3050847745424874,-2.8766958622972183e-06,1.1661267992124635e-05,-0.1076367514666533,1.51380145785307e-05,-0.1398650642435173
316,0.3061,884.599,-0.170659,0.0453481,0.0239048,-0.0672223,0.0278286,0.267034,-0.114215,-0.1511,-2.56491e-06,1.01136e-05,1.5968e-05,0.261501,0.3060848524607296,-2.5649067105781853e-06,1.0113651142562574e-05,-0.10793385895727226,1.596812748916321e-05,-0.14023828181156528
317,0.3071,884.763,0.252772,-0.00579319,-0.000824525,0.0501279,-0.0350136,0.267799,-0.114545,-0.151535,-2.90355e-06,1.1814e-05,1.51208e-05,0.262263,0.3070843896470896,-2.903545784693762e-06,1.1814069785565096e-05,-0.10822819221615754,1.5120914319766143e-05,-0.14061219682656523
318,0.3081,884.581,-0.226077,0.0456734,0.0282253,-0.0820215,0.0335223,0.268564,-0.114878,-0.151967,-2.4728e-06,9.85604e-06,1.60966e-05,0.263024,0.30808469177194886,-2.4727969426541208e-06,9.856088570847632e-06,-0.10852510278979532,1.609672955105168e-05,-0.1409833721778878
319,0.3091,884.796,0.314128,-0.00730681,-0.00547445,0.066676,-0.0417759,0.269328,-0.115207,-0.152401,-2.93948e-06,1.20168e-05,1.50759e-05,0.263784,0.3090844503356045,-2.9394756797529453e-06,1.2016872201980888e-05,-0.10881834978920102,1.507601364192368e-05,-0.141356104505597
320,0.3101,884.558,-0.294677,0.0478623,0.0332604,-0.100483,0.0412797,0.270092,-0.115541,-0.152832,-2.37034e-06,9.54442e-06,1.62534e-05,0.264544,0.3100849730066544,-2.3703371907490833e-06,9.544465548128045e-06,-0.10911595475757507,1.6253532087118217e-05,-0.1417261002847371
321,0.3111,884.834,0.390452,-0.010709,-0.0110008,0.0873932,-0.0507783,0.270855,-0.115868,-0.153267,-2.988e-06,1.2281e-05,1.49995e-05,0.265303,0.31108494928349506,-2.9879955358858012e-06,1.2281075411735287e-05,-0.10940722621489063,1.4999612492960779e-05,-0.14209936823944702
322,0.3121,884.528,-0.379949,0.0519142,0.039282,-0.123531,0.0514496,0.271617,-0.116202,-0.153697,-2.25372e-06,9.16528e-06,1.64432e-05,0.266062,0.3120843767483539,-2.253717460320992e-06,9.165322001347675e-06,-0.10970463453138124,1.6443335190130526e-05,-0.1424681862095577
323,0.3131,884.88,0.485489,-0.0160864,-0.0176946,0.113297,-0.0624292,0.272379,-0.116528,-0.154131,-3.05331e-06,1.26217e-05,1.4886e-05,0.266819,0.3130845660671706,-3.053305338673873e-06,1.2621779653887444e-05,-0.10999482351714929,1.4886110797140972e-05,-0.14284027426779367
324,0.3141,884.489,-0.486044,0.0579478,0.0465911,-0.152271,0.0644962,0.273141,-0.116862,-0.15456,-2.11866e-06,8.70242e-06,1.66724e-05,0.267577,0.3140855178206987,-2.1186577556786546e-06,8.702457866105462e-06,-0.11029203560891221,1.667253898518517e-05,-0.14320791692514434
325,0.3151,884.934,0.60384,-0.0236537,-0.0258975,0.145649,-0.0772697,0.273901,-0.117186,-0.154994,-3.1404e-06,1.30577e-05,1.47279e-05,0.268334,0.3150846024183003,-3.1403950689901095e-06,1.3057785252179599e-05,-0.1105802542954264,1.4728008456144082e-05,-0.14357968400990606
326,0.3161,884.44,-0.618014,0.0661947,0.0555354,-0.188053,0.0810199,0.274661,-0.117522,-0.155421,-1.96027e-06,8.13607e-06,1.69494e-05,0.269091,0.31608444660880486,-1.9602680786379167e-06,8.136103097911018e-06,-0.11087904912963997,1.6949543641953113e-05,-0.1439452974208154
327,0.3171,884.999,0.751134,-0.0337583,-0.0360166,0.186004,-0.0959937,0.275421,-0.117844,-0.155855,-3.25522e-06,1.36122e-05,1.45155e-05,0.269846,0.3170850509697223,-3.2552147017916866e-06,1.361229264640329e-05,-0.1111652999869589,1.4515605350373662e-05,-0.14431674455187704
328,0.3181,884.812,0.335189,-0.0404681,-0.00338726,0.0762932,-0.0621726,0.27618,-0.118174,-0.156285,-2.84507e-06,1.23682e-05,1.48085e-05,0.270601,0.3180850979932446,-2.845065952827852e-06,1.2368276486540708e-05,-0.11145856704623702,1.48086096463107e-05,-0.14468460925514037
329,0.3191,884.733,0.0429991,0.0471993,0.0069888,-0.0105611,0.00675468,0.276938,-0.118504,-0.156714,-2.70525e-06,1.1197e-05,1.57188e-05,0.271356,0.3190845852553401,-2.70524634082836e-06,1.1197062686596482e-05,-0.1117517373433522,1.5718923541019336e-05,-0.14505146086247378
330,0.3201,884.742,0.132619,-0.0126319,0.0100204,0.0180798,-0.0247011,0.277696,-0.118832,-0.157144,-2.65555e-06,1.16376e-05,1.52911e-05,0.27211,0.32008483041598734,-2.6555464740507517e-06,1.1637667717057099e-05,-0.11204303499807655,1.5291216909574246e-05,-0.14541900970563837
331,0.3211,884.693,-0.0542045,0.0457741,0.0147059,-0.0365166,0.0165583,0.278453,-0.119161,-0.157572,-2.57387e-06,1.08259e-05,1.588e-05,0.272864,0.3210845129647182,-2.5738666875607663e-06,1.0825958600246821e-05,-0.1123351247881571,1.5880126087886026e-05,-0.14578469210786793
332,0.3221,884.751,0.132992,-0.00567305,0.00875616,0.0178577,-0.0228987,0.27921,-0.119488,-0.158002,-2.64522e-06,1.16086e-05,1.53567e-05,0.273616,0.3220849525596441,-2.6452165013957085e-06,1.1608667380036408e-05,-0.11262534374896516,1.5356817914646825e-05,-0.14615192572937452
333,0.3231,884.68,-0.0891783,0.0422815,0.0180628,-0.0454051,0.0182953,0.279966,-0.119817,-0.158429,-2.49531e-06,1.06575e-05,1.59491e-05,0.274369,0.32308482668857774,-2.495306886673987e-06,1.0657556791304756e-05,-0.11291724199097808,1.5949227187617154e-05,-0.14651644102753336
334,0.3241,884.769,0.159524,-0.00287904,0.00613244,0.0247424,-0.024486,0.280722,-0.120143,-0.158858,-2.65121e-06,1.16689e-05,1.538e-05,0.27512,0.3240854570081573,-2.651206485571045e-06,1.1668968081801623e-05,-0.11320638383740722,1.5380118272734222e-05,-0.14688250694757854
335,0.3251,884.669,-0.122105,0.0403059,0.0210077,-0.0540307,0.0208315,0.281477,-0.120472,-0.159285,-2.42142e-06,1.04879e-05,1.60303e-05,0.275872,0.32508551900409666,-2.4214170684100367e-06,1.0487954998250615e-05,-0.11349809094867369,1.603042848596914e-05,-0.14724671035415082
336,0.3261,884.789,0.194231,-0.00201077,0.00319141,0.0339546,-0.0276134,0.282231,-0.120797,-0.159713,-2.66137e-06,1.17617e-05,1.53823e-05,0.276622,0.326085010246272,-2.661366458545089e-06,1.1761769169060798e-05,-0.11378615725580488,1.5382418308229617e-05,-0.14761161066788175
337,0.3271,884.655,-0.160884,0.0400563,0.0241191,-0.0643442,0.0246085,0.282985,-0.121125,-0.16014,-2.34488e-06,1.02926e-05,1.61285e-05,0.277373,0.32708525538902844,-2.344877250815003e-06,1.0292652969035032e-05,-0.11407678773022167,1.6128630065059824e-05,-0.14797550281362448
338,0.3281,884.811,0.236632,-0.0027322,-8.95383e-05,0.0453628,-0.0321434,0.283738,-0.12145,-0.160567,-2.67638e-06,1.18869e-05,1.53648e-05,0.278122,0.3280849269154309,-2.6763764184867256e-06,1.1886970649577222e-05,-0.11436466599145789,1.5364918039217912e-05,-0.14833923961059026
339,0.3291,884.639,-0.207906,0.0413127,0.0276208,-0.0769769,0.029807,0.284491,-0.121778,-0.160993,-2.26263e-06,1.00629e-05,1.6246e-05,0.278871,0.32908535147797524,-2.262627440297038e-06,1.006295063121776e-05,-0.114655106746125,1.624613196704594e-05,-0.1487019698274944
340,0.3301,884.837,0.288369,-0.00492198,-0.00386653,0.0593926,-0.0381818,0.285243,-0.122102,-0.16142,-2.69854e-06,1.20508e-05,1.53262e-05,0.279619,0.3300851995580465,-2.698536358924919e-06,1.2050872611135688e-05,-0.11494191202657489,1.5326317446717752e-05,-0.14906539648926387
341,0.3311,884.619,-0.265259,0.0439903,0.0316912,-0.0924748,0.0366004,0.285994,-0.12243,-0.161844,-2.17214e-06,9.79071e-06,1.63851e-05,0.280367,0.33108446872151975,-2.1721376408656567e-06,9.790757929062366e-06,-0.1152321634755904,1.6385234236526713e-05,-0.14942611628315206
342,0.3321,884.867,0.351617,-0.00855699,-0.00832075,0.0766279,-0.0459369,0.286745,-0.122753,-0.162271,-2.73047e-06,1.22621e-05,1.52634e-05,0.281114,0.3320844886179999,-2.730466272304888e-06,1.2262175179911239e-05,-0.11551789733828477,1.5263516486285766e-05,-0.149789233800392
343,0.3331,884.593,-0.335333,0.0481018,0.0365152,-0.111472,0.0452325,0.287496,-0.123081,-0.162695,-2.07079e-06,9.4668e-06,1.65493e-05,0.281861,0.3330852598114986,-2.070787855967815e-06,9.466844810290809e-06,-0.11580795989509796,1.6549436940405116e-05,-0.15014964675231535
344,0.3341,884.902,0.428989,-0.0137098,-0.0136536,0.0977785,-0.0556958,0.288246,-0.123403,-0.163122,-2.7751e-06,1.25315e-05,1.51725e-05,0.282607,0.33408544878033686,-2.7750961494321658e-06,1.2531578519547892e-05,-0.1160926238986475,1.5172615102976295e-05,-0.15051245538799585
345,0.3351,884.561,-0.420972,0.0537453,0.0422967,-0.134727,0.0560266,0.288995,-0.123732,-0.163544,-1.95569e-06,9.07995e-06,1.67429e-05,0.283353,0.33508505308655434,-1.9556880875848393e-06,9.079991222904482e-06,-0.11638338159312145,1.6743040163191836e-05,-0.15087086350239098
346,0.3361,884.944,0.523608,-0.0205416,-0.0200947,0.123702,-0.0678312,0.289744,-0.124051,-0.163971,-2.83581e-06,1.28719e-05,1.50483e-05,0.284097,0.3360854063768568,-2.835805979040096e-06,1.2871982843165597e-05,-0.11666521034031818,1.5048413226192991e-05,-0.15123336424425926
347,0.3371,884.522,-0.525567,0.0610979,0.0492667,-0.163148,0.0693924,0.290492,-0.124381,-0.164392,-1.82356e-06,8.61677e-06,1.69718e-05,0.284842,0.3370851721266026,-1.8235583373327202e-06,8.616807124495196e-06,-0.11695666272861693,1.6971944021726415e-05,-0.15159061979034327
348,0.3381,884.994,0.639217,-0.0293025,-0.0279113,0.155432,-0.0828108,0.291239,-0.124699,-0.164818,-2.91653e-06,1.32987e-05,1.48843e-05,0.285586,0.3380843478958686,-2.916525746909926e-06,1.3298788428039998e-05,-0.11723742586616437,1.4884410771687229e-05,-0.15195196521427268
349,0.3391,884.473,-0.653178,0.0704142,0.0576916,-0.197822,0.085837,0.291986,-0.12503,-0.165238,-1.67065e-06,8.06134e-06,1.72428e-05,0.28633,0.33908427032827837,-1.6706486044570923e-06,8.061372492651486e-06,-0.11752957192536251,1.72429486580139e-05,-0.15230807060151663
350,0.3401,885.054,0.780301,-0.0403371,-0.0374198,0.194217,-0.101212,0.292733,-0.125346,-0.165665,-3.02195e-06,1.38308e-05,1.46726e-05,0.287072,0.3400849399817971,-3.0219454338897833e-06,1.3830895645883245e-05,-0.11780838852529119,1.4672707643104133e-05,-0.15266995778695713
351,0.3411,884.858,0.3416,-0.0423606,-0.00358551,0.078,-0.0633177,0.293479,-0.125671,-0.166087,-2.59302e-06,1.24908e-05,1.5015e-05,0.287814,0.34108501632912125,-2.5930166380749853e-06,1.249087801036275e-05,-0.11809505421332289,1.5015112725613733e-05,-0.15302745562742137
352,0.3421,884.777,0.0469072,0.0448764,0.00703129,-0.00942332,0.00546036,0.294224,-0.125996,-0.166508,-2.44873e-06,1.1306e-05,1.59184e-05,0.288556,0.34208449692658105,-2.4487270018358487e-06,1.1306063913085751e-05,-0.11838162675014385,1.591852669835525e-05,-0.153383956020004
353,0.3431,884.783,0.128745,-0.0127312,0.0102955,0.0169389,-0.0243717,0.294969,-0.126318,-0.16693,-2.39486e-06,1.17148e-05,1.55114e-05,0.289297,0.34308472241452304,-2.3948571322707224e-06,1.1714868618506458e-05,-0.11866546216637586,1.5511520302435855e-05,-0.15374115261678067
354,0.3441,884.735,-0.0503689,0.0438047,0.0147198,-0.0354058,0.0152888,0.295713,-0.126642,-0.167351,-2.31608e-06,1.09312e-05,1.60749e-05,0.290038,0.3440843492630763,-2.3160773179320415e-06,1.093125974582776e-05,-0.11895096830214236,1.6075029201978452e-05,-0.1540973526061702
355,0.3451,884.788,0.125357,-0.00552846,0.00928412,0.0156994,-0.0220891,0.296457,-0.126963,-0.167773,-2.37969e-06,1.16686e-05,1.55792e-05,0.290778,0.3450847201107383,-2.379687168541089e-06,1.1668668078446132e-05,-0.11923373965408735,1.5579321356318232e-05,-0.15445424821310083
356,0.3461,884.722,-0.0819873,0.0402912,0.0178202,-0.0433995,0.0166794,0.2972,-0.127286,-0.168193,-2.23968e-06,1.07729e-05,1.61348e-05,0.291517,0.3460844894260877,-2.2396774919108964e-06,1.0772958027871482e-05,-0.11951818121639379,1.6134930166611383e-05,-0.15480930286215577
357,0.3471,884.802,0.14758,-0.00265585,0.00698234,0.0214274,-0.0231992,0.297943,-0.127607,-0.168615,-2.37992e-06,1.17098e-05,1.56049e-05,0.292256,0.3470850018460676,-2.379917168005008e-06,1.170986855991707e-05,-0.11980077052221316,1.5605021757014725e-05,-0.1551658980894629
358,0.3481,884.711,-0.109935,0.0382577,0.0203841,-0.0506884,0.0186799,0.298685,-0.12793,-0.169034,-2.16977e-06,1.06199e-05,1.62044e-05,0.292995,0.3480849098374261,-2.1697676459986326e-06,1.061995639140001e-05,-0.120085028963125,1.620453129191901e-05,-0.15551980942856014
359,0.3491,884.818,0.176441,-0.00167404,0.00447969,0.0290696,-0.0256826,0.299427,-0.12825,-0.169455,-2.38268e-06,1.17777e-05,1.5612e-05,0.293732,0.3490855600358389,-2.382677161461011e-06,1.1777769357346202e-05,-0.12036655670701535,1.561212186795835e-05,-0.1558752607610352
360,0.3501,884.699,-0.141903,0.0378666,0.0229843,-0.0591693,0.0217039,0.300168,-0.128573,-0.169874,-2.09911e-06,1.04484e-05,1.62879e-05,0.29447,0.35008560290595025,-2.099107796915689e-06,1.044845458464394e-05,-0.12065063242850016,1.6288032648636985e-05,-0.1562288749394326
361,0.3511,884.835,0.21094,-0.00217029,0.0017819,0.0383468,-0.0293163,0.300908,-0.128893,-0.170294,-2.38824e-06,1.18698e-05,1.5603e-05,0.295206,0.3510850359967368,-2.388237148154282e-06,1.1869870446323816e-05,-0.1209319792082375,1.560312172754763e-05,-0.15658318440176255
362,0.3521,884.685,-0.179776,0.0388426,0.025815,-0.0693346,0.0258576,0.301648,-0.129215,-0.170712,-2.02503e-06,1.02518e-05,1.63866e-05,0.295943,0.3520852089417228,-2.025027949659197e-06,1.0251852549991725e-05,-0.12121499354317922,1.638673426107573e-05,-0.15693565895836814
363,0.3531,884.855,0.25212,-0.00396042,-0.00122949,0.0495187,-0.0341218,0.302387,-0.129534,-0.171132,-2.39836e-06,1.199e-05,1.55775e-05,0.296678,0.3530847692031571,-2.398357123900574e-06,1.199007188024126e-05,-0.12149528125197251,1.557762132997631e-05,-0.15728967163373986
364,0.3541,884.668,-0.224972,0.0410434,0.0290125,-0.081548,0.0312239,0.303126,-0.129857,-0.171549,-1.9456e-06,1.00247e-05,1.65017e-05,0.297413,0.35408506841263243,-1.945598107289115e-06,1.0024750247472625e-05,-0.12177899245430235,1.650183615375944e-05,-0.15764100858182373
365,0.3551,884.878,0.301394,-0.00695768,-0.00468513,0.0629594,-0.0402064,0.303864,-0.130174,-0.171968,-2.41493e-06,1.2144e-05,1.55339e-05,0.298148,0.35508475203100365,-2.414927084082308e-06,1.2144073738618033e-05,-0.1220573443925812,1.5534020651575275e-05,-0.1579938830668608
366,0.3561,884.648,-0.279036,0.0444201,0.0327067,-0.0962141,0.0379366,0.304602,-0.130497,-0.172385,-1.85897e-06,9.76112e-06,1.66351e-05,0.298882,0.3560851736881878,-1.858968272094863e-06,9.761167639954493e-06,-0.12234087407783312,1.663523836414882e-05,-0.15834492641999587
367,0.3571,884.904,0.36042,-0.0111608,-0.00872111,0.0791148,-0.0477327,0.305339,-0.130813,-0.172804,-2.43996e-06,1.23386e-05,1.54702e-05,0.299615,0.35708497684340346,-2.439957023314676e-06,1.233867612082662e-05,-0.12261817054647506,1.5470319664201426e-05,-0.15869750602524035
368,0.3581,884.623,-0.343744,0.048998,0.037032,-0.113805,0.0461825,0.306076,-0.131136,-0.173219,-1.76323e-06,9.45401e-06,1.67892e-05,0.300348,0.35808551712514247,-1.7632284454727198e-06,9.454054689328473e-06,-0.12290151911413139,1.6789340939515895e-05,-0.15904657412359957
369,0.3591,884.934,0.431122,-0.0166398,-0.0134841,0.0985103,-0.0569181,0.306812,-0.131452,-0.173638,-2.4756e-06,1.25816e-05,1.53831e-05,0.30108,0.3590854359907514,-2.475596935669344e-06,1.2581679148748748e-05,-0.12317863844693078,1.5383218320508263e-05,-0.15939885980003865
370,0.3601,884.594,-0.421162,0.054866,0.0421333,-0.134871,0.056202,0.307547,-0.131775,-0.174052,-1.65631e-06,9.09523e-06,1.69675e-05,0.301813,0.3600847309821269,-1.6563086283616357e-06,9.09527136183641e-06,-0.12346180601268864,1.6967643948762046e-05,-0.15974679664418512
371,0.3611,884.97,0.515747,-0.0235292,-0.0191371,0.121765,-0.0680366,0.308282,-0.132089,-0.174471,-2.52427e-06,1.28825e-05,1.5269e-05,0.302544,0.3610847607253094,-2.5242668140190716e-06,1.2882582979711898e-05,-0.12373699579854325,1.5269116571792196e-05,-0.16009878898884533
372,0.3621,884.558,-0.513699,0.0621692,0.048171,-0.160057,0.068292,0.309017,-0.132413,-0.174884,-1.53595e-06,8.67527e-06,1.71739e-05,0.303275,0.36208552576053954,-1.5359488204635952e-06,8.675307630268136e-06,-0.12402085902357884,1.717404747236806e-05,-0.16044559656829815
373,0.3631,885.012,0.616921,-0.0320249,-0.0258658,0.149608,-0.0814233,0.30975,-0.132725,-0.175302,-2.58873e-06,1.32522e-05,1.51232e-05,0.304005,0.36308430045712914,-2.5887266492663485e-06,1.3252287810683328e-05,-0.12429412188434041,1.512331435615799e-05,-0.16079645697399925
374,0.3641,884.515,-0.624163,0.0711062,0.0553252,-0.190115,0.0828107,0.310484,-0.13305,-0.175714,-1.39963e-06,8.18305e-06,1.74135e-05,0.304735,0.3640851716084419,-1.3996290205708917e-06,8.18308348127239e-06,-0.12457868005152117,1.741365161578301e-05,-0.1611421376186234
375,0.3651,885.062,0.737715,-0.0423858,-0.0338845,0.182896,-0.0974812,0.311217,-0.133361,-0.176133,-2.67223e-06,1.37039e-05,1.49402e-05,0.305463,0.36508541258276295,-2.67222642957865e-06,1.3703993898772637e-05,-0.12485089375060088,1.494031160542697e-05,-0.16149354543788186
376,0.3661,884.464,-0.755836,0.0819292,0.0637999,-0.225921,0.100184,0.311949,-0.133686,-0.176544,-1.2445e-06,7.6057e-06,1.7692e-05,0.306193,0.3660850209167894,-1.2444992255611353e-06,7.605728923332222e-06,-0.12513527099632638,1.7692156504267587e-05,-0.16183810077973393
377,0.3671,885.121,0.881718,-0.0549386,-0.0434431,0.222639,-0.11669,0.312681,-0.133995,-0.176962,-2.77853e-06,1.42531e-05,1.47132e-05,0.30692,0.36708536123198865,-2.7785261398349803e-06,1.425320157588672e-05,-0.12540556243541057,1.4713308239766576e-05,-0.1621883792403096
378,0.3681,884.901,0.379011,-0.0481576,-0.00576845,0.08857,-0.0691986,0.313412,-0.134314,-0.177376,-2.29896e-06,1.26825e-05,1.51627e-05,0.307648,0.36808506597861723,-2.2989573573717337e-06,1.2682580423195589e-05,-0.1256845135659228,1.5162814954283732e-05,-0.16253516146243108
379,0.3691,884.807,0.0523289,0.0430711,0.00673325,-0.00773998,0.00428155,0.314143,-0.134633,-0.177788,-2.12873e-06,1.1371e-05,1.61202e-05,0.308375,0.36908550177658217,-2.1287277343073896e-06,1.1371064650100848e-05,-0.1259633757252161,1.6120329931146316e-05,-0.162880125908353
380,0.3701,884.812,0.134625,-0.0143043,0.00990756,0.0187005,-0.0255385,0.314873,-0.134949,-0.178202,-2.07629e-06,1.17874e-05,1.571e-05,0.309102,0.3700852990744936,-2.0762878445435007e-06,1.1787469471613576e-05,-0.12623952766418267,1.5710123402623566e-05,-0.16322662180662706
381,0.3711,884.76,-0.0537099,0.0428393,0.0149902,-0.0360971,0.0151376,0.315602,-0.135267,-0.178615,-1.98754e-06,1.09628e-05,1.62835e-05,0.309828,0.3710844554057522,-1.987538024827984e-06,1.0962860091723314e-05,-0.12651733931999098,1.628363257699661e-05,-0.16357213785784508
382,0.3721,884.814,0.126576,-0.00658907,0.00917333,0.0162034,-0.0226442,0.316331,-0.135582,-0.179028,-2.05676e-06,1.17227e-05,1.57808e-05,0.310553,0.3720843403875371,-2.0567578848940116e-06,1.1722768711086573e-05,-0.12679244302699666,1.578092451737234e-05,-0.1639175112403971
383,0.3731,884.746,-0.0843723,0.0393172,0.0180217,-0.04383,0.0164082,0.31706,-0.135899,-0.17944,-1.91121e-06,1.08067e-05,1.63369e-05,0.311278,0.3730849545512285,-1.911208173610568e-06,1.0806758392600813e-05,-0.1270692059533156,1.6337033447832994e-05,-0.1642619062755173
384,0.3741,884.826,0.146046,-0.00363847,0.00706961,0.0211907,-0.0234351,0.317788,-0.136214,-0.179853,-2.05355e-06,1.17521e-05,1.58063e-05,0.312002,0.3740849243429818,-2.0535478915117977e-06,1.1752169056133965e-05,-0.12734413584970827,1.5806424920272732e-05,-0.16460699484253127
385,0.3751,884.735,-0.10943,0.0372662,0.0203625,-0.0503433,0.0181005,0.318515,-0.136531,-0.180264,-1.84354e-06,1.06629e-05,1.63976e-05,0.312726,0.3750842472928573,-1.8435383006831785e-06,1.0662956848817018e-05,-0.1276207239171191,1.6397734441397915e-05,-0.16495027081960556
386,0.3761,884.839,0.171288,-0.0026166,0.0048411,0.0278642,-0.025528,0.319242,-0.136845,-0.180676,-2.05178e-06,1.18049e-05,1.58144e-05,0.31345,0.3760842970146667,-2.0517778951401056e-06,1.1804969678008703e-05,-0.12789460800775654,1.5814525048174488e-05,-0.1652942404454194
387,0.3771,884.724,-0.137124,0.0368324,0.0226343,-0.0576763,0.0206671,0.319969,-0.137161,-0.181086,-1.77664e-06,1.05062e-05,1.64702e-05,0.314173,0.3770850740369658,-1.7766384218242948e-06,1.0506255190279035e-05,-0.1281701497737342,1.6470335634455324e-05,-0.1656363996594048
388,0.3781,884.854,0.200741,-0.00301844,0.0025222,0.0357852,-0.028605,0.320695,-0.137475,-0.181498,-2.05133e-06,1.18761e-05,1.58088e-05,0.314895,0.37808520080280394,-2.051327895991051e-06,1.1876170521230023e-05,-0.12844386137173547,1.580892495978148e-05,-0.16598008665836173
389,0.3791,884.711,-0.169073,0.0376809,0.0250205,-0.0662459,0.0241634,0.32142,-0.137791,-0.181908,-1.70801e-06,1.03309e-05,1.65553e-05,0.315617,0.37908467483894515,-1.7080085413789803e-06,1.0330953363890671e-05,-0.1287192296010703,1.6555437039711407e-05,-0.1663219647330374
390,0.3801,884.869,0.235022,-0.00459899,1.79546e-05,0.0450949,-0.0326222,0.322145,-0.138104,-0.182319,-2.0536e-06,1.19682e-05,1.57898e-05,0.316338,0.38008487375650013,-2.0535978914049124e-06,1.1968271619089421e-05,-0.12899189780740483,1.5789924659559418e-05,-0.166664536002314
391,0.3811,884.697,-0.206256,0.0396172,0.0276326,-0.0762952,0.0286073,0.322869,-0.13842,-0.182728,-1.63606e-06,1.01334e-05,1.66531e-05,0.317059,0.3810844169960912,-1.6360586616581685e-06,1.01334513431528e-05,-0.1292670928845855,1.6653238663622005e-05,-0.1670053005159957
392,0.3821,884.887,0.275041,-0.0072182,-0.00277067,0.0560275,-0.0376154,0.323593,-0.138732,-0.183139,-2.06007e-06,1.20846e-05,1.57572e-05,0.317779,0.38208468416701935,-2.060067878062455e-06,1.2084673019163716e-05,-0.1295387191757006,1.5757324145271312e-05,-0.1673475909919725
393,0.3831,884.68,-0.24966,0.0425418,0.0305655,-0.0880767,0.0340564,0.324316,-0.139048,-0.183547,-1.55944e-06,9.90986e-06,1.67644e-05,0.318498,0.383084292708616,-1.5594387841044721e-06,9.9099091028787e-06,-0.12981374148462776,1.6764540523350746e-05,-0.1676872438809467
394,0.3841,884.907,0.321828,-0.0108192,-0.00593849,0.0688559,-0.043663,0.325039,-0.139359,-0.183958,-2.07212e-06,1.22296e-05,1.57097e-05,0.319217,0.38408462422851364,-2.07211785319128e-06,1.2229674781760735e-05,-0.13008432733274566,1.5709823397935807e-05,-0.16802925413578995
395,0.3851,884.661,-0.30037,0.0464255,0.0339095,-0.101875,0.0406065,0.325761,-0.139676,-0.184365,-1.47685e-06,9.65615e-06,1.68905e-05,0.319936,0.3850842941646275,-1.4768489094985071e-06,9.65619662074424e-06,-0.13036004689712133,1.6890642645206455e-05,-0.16836779733114315
396,0.3861,884.93,0.376539,-0.0154082,-0.00958005,0.0838924,-0.0508807,0.326483,-0.139986,-0.184775,-2.09116e-06,1.2408e-05,1.56458e-05,0.320654,0.386084686123054,-2.0911578135773823e-06,1.2408076979442129e-05,-0.13062959350070114,1.564592239611251e-05,-0.16870869664510257
397,0.3871,884.638,-0.359604,0.0512937,0.0377548,-0.118012,0.0483878,0.327204,-0.140302,-0.185181,-1.38701e-06,9.36742e-06,1.70333e-05,0.321372,0.3870844135401743,-1.3870090380674327e-06,9.367463874365711e-06,-0.1309042711478009,1.703344506753801e-05,-0.1690461324101692
398,0.3881,884.956,0.440476,-0.0210419,-0.013794,0.101494,-0.0594184,0.327925,-0.140611,-0.185591,-2.11866e-06,1.26251e-05,1.55634e-05,0.322089,0.3880848620206747,-2.1186577556786546e-06,1.2625179696801325e-05,-0.13117278024122492,1.556352111031778e-05,-0.16938675366375255
399,0.3891,884.611,-0.428738,0.0572153,0.0421959,-0.136854,0.0575632,0.328645,-0.140928,-0.185997,-1.28859e-06,9.03824e-06,1.71949e-05,0.322806,0.38908464299929135,-1.2885891698122265e-06,9.038280845086177e-06,-0.1314481548207116,1.7195047833151733e-05,-0.16972391419354615
400,0.3901,884.987,0.515114,-0.0278198,-0.0186868,0.12207,-0.0694596,0.329365,-0.141236,-0.186406,-2.15623e-06,1.28873e-05,1.54599e-05,0.323521,0.39008514407941797,-2.156227675298439e-06,1.2887383041615408e-05,-0.1317156275961049,1.5460019504809352e-05,-0.17006342767740068
401,0.3911,884.58,-0.509328,0.0642964,0.0473336,-0.158818,0.0683283,0.330084,-0.141553,-0.186811,-1.18017e-06,8.66244e-06,1.73781e-05,0.324237,0.39108497469404413,-1.1801693036161964e-06,8.662477519072453e-06,-0.13199083012025226,1.737825100001089e-05,-0.17039948393320603
402,0.3921,885.022,0.602128,-0.0358803,-0.0243759,0.146088,-0.0812225,0.330803,-0.141859,-0.18722,-2.20567e-06,1.32018e-05,1.53324e-05,0.324952,0.39208552444538114,-2.205667567478642e-06,1.3201887144154156e-05,-0.13225640029192698,1.5332517541821744e-05,-0.17073872116553435
403,0.3931,884.544,-0.603137,0.0726762,0.0532775,-0.184373,0.0809122,0.331521,-0.142177,-0.187623,-1.06022e-06,8.23307e-06,1.7586e-05,0.325667,0.3930854007645763,-1.0602194380204821e-06,8.233103891752691e-06,-0.1325322988864326,1.7586154634541273e-05,-0.17107284613020224
404,0.3941,885.063,0.70342,-0.0453993,-0.0309933,0.174081,-0.0949617,0.332238,-0.142482,-0.188033,-2.26899e-06,1.35768e-05,1.51773e-05,0.32638,0.3940846011674626,-2.268987425835256e-06,1.3576892165190202e-05,-0.13279683619128257,1.517741517575999e-05,-0.17141263660148232
405,0.3951,884.501,-0.712165,0.0825255,0.0601481,-0.214051,0.09558,0.332955,-0.1428,-0.188435,-9.27082e-07,7.7423e-06,1.78221e-05,0.327095,0.395084518253938,-9.270815702899782e-07,7.742329971582862e-06,-0.13307256295449488,1.7822258814526037e-05,-0.17174566177902295
406,0.3961,885.11,0.821148,-0.0565908,-0.0386881,0.206662,-0.110972,0.333672,-0.143103,-0.188844,-2.34853e-06,1.4022e-05,1.49905e-05,0.327807,0.3960851525380489,-2.348527242235221e-06,1.402209830869694e-05,-0.1333352021760682,1.4990612358101174e-05,-0.172084348537192
407,0.3971,884.903,0.342512,-0.0459799,-0.00340864,0.0786878,-0.0642138,0.334388,-0.143416,-0.189249,-1.89135e-06,1.24879e-05,1.54449e-05,0.328519,0.39708510744840475,-1.8913482113802615e-06,1.2487977974151576e-05,-0.13360642580907423,1.5445019273085947e-05,-0.1724195864857675
408,0.3981,884.822,0.0569521,0.0386919,0.00681294,-0.00589484,0.00203278,0.335103,-0.143728,-0.189653,-1.74991e-06,1.13279e-05,1.63046e-05,0.329232,0.3980843804977743,-1.749908468906547e-06,1.1327964160923187e-05,-0.133876698439499,1.6304732920691123e-05,-0.17275386144473903
409,0.3991,884.82,0.114392,-0.0121158,0.0108602,0.0133611,-0.0227776,0.335818,-0.144038,-0.190058,-1.6831e-06,1.16348e-05,1.59636e-05,0.329943,0.39908436828286176,-1.6830985836158163e-06,1.1634867684628958e-05,-0.1341451550500582,1.59637274188551e-05,-0.173088828295488
410,0.4001,884.781,-0.0371822,0.0386177,0.0141442,-0.0310763,0.0116953,0.336533,-0.144349,-0.190462,-1.61966e-06,1.09575e-05,1.64487e-05,0.330654,0.400085071314886,-1.619658688389869e-06,1.0957560033553193e-05,-0.13441439403800493,1.6448835280513663e-05,-0.17342283293537653
411,0.4011,884.82,0.103209,-0.00437671,0.0103761,0.0100008,-0.0194676,0.337247,-0.144658,-0.190866,-1.65913e-06,1.15541e-05,1.6036e-05,0.331364,0.4010850890196418,-1.65912862359896e-06,1.1554166748917183e-05,-0.1346818186710136,1.6036128577257003e-05,-0.17375670266464416
412,0.4021,884.769,-0.0608861,0.0350838,0.0166298,-0.0369682,0.0123008,0.33796,-0.144969,-0.19127,-1.55042e-06,1.08267e-05,1.64886e-05,0.332074,0.40208441890688174,-1.5504187981241202e-06,1.0826758608972753e-05,-0.13495089078252476,1.6488735937736365e-05,-0.17409043753778408
413,0.4031,884.828,0.116085,-0.0012954,0.00877513,0.0132154,-0.0195414,0.338673,-0.145277,-0.191674,-1.64836e-06,1.15564e-05,1.60672e-05,0.332784,0.4030844615704061,-1.6483586414706153e-06,1.1556466775530794e-05,-0.13521728488136664,1.6067329078106596e-05,-0.17442403760926695
414,0.4041,884.761,-0.0782104,0.0328682,0.0183854,-0.0414033,0.0131497,0.339386,-0.145588,-0.192076,-1.49065e-06,1.07125e-05,1.65332e-05,0.333493,0.40408521751860516,-1.4906488889909753e-06,1.071255737894461e-05,-0.1354861904887792,1.6533336674173782e-05,-0.17475585244689718
415,0.4051,884.837,0.132869,1.72835e-05,0.00717109,0.0176049,-0.0206721,0.340098,-0.145896,-0.19248,-1.63732e-06,1.15746e-05,1.60843e-05,0.334201,0.40508528217424766,-1.6373186595419753e-06,1.1574666985980642e-05,-0.13575241974069918,1.608442935308041e-05,-0.17508918374505256
416,0.4061,884.753,-0.096466,0.0320645,0.0199714,-0.0461882,0.0146255,0.340809,-0.146206,-0.192881,-1.43316e-06,1.05925e-05,1.65864e-05,0.334909,0.40608465304411756,-1.4331589730520733e-06,1.0592556100696982e-05,-0.13602029496777412,1.6586537554985625e-05,-0.17541990666799312
417,0.4071,884.847,0.151875,0.00012175,0.0055996,0.0226904,-0.0225035,0.34152,-0.146513,-0.193284,-1.62581e-06,1.16032e-05,1.60916e-05,0.335616,0.40708473471933737,-1.6258086783516035e-06,1.160326731741712e-05,-0.13628549602677353,1.6091729470479876e-05,-0.17575214549498575
418,0.4081,884.745,-0.116835,0.0323084,0.0215427,-0.0516203,0.0167249,0.342231,-0.146823,-0.193686,-1.37583e-06,1.04625e-05,1.66478e-05,0.336323,0.40808552770546913,-1.3758290535736961e-06,1.0462554732137974e-05,-0.13655320602581145,1.6647938575475862e-05,-0.1760834265405452
419,0.4091,884.856,0.17334,-0.00069647,0.00398986,0.0285084,-0.0249393,0.342941,-0.14713,-0.194088,-1.61489e-06,1.16429e-05,1.60903e-05,0.33703,0.4090856234221072,-1.6148886960998254e-06,1.1642967778779933e-05,-0.13681824350622673,1.609042944950012e-05,-0.176414574437889
420,0.4101,884.736,-0.139849,0.0333717,0.0231816,-0.0578219,0.0194082,0.34365,-0.147439,-0.194489,-1.31747e-06,1.03209e-05,1.6717e-05,0.337736,0.41008501937311337,-1.3174691321227172e-06,1.0320953260700705e-05,-0.1370849254644988,1.6717139729838237e-05,-0.17674476598570943
421,0.4111,884.867,0.197697,-0.00225901,0.00227518,0.0351614,-0.0279528,0.344359,-0.147746,-0.194891,-1.60556e-06,1.16953e-05,1.60809e-05,0.338441,0.41108512414709675,-1.6055587110930247e-06,1.1695368390185479e-05,-0.1373497997321007,1.6081029298398164e-05,-0.17707564807802667
422,0.4121,884.725,-0.165977,0.0351167,0.0249494,-0.0649053,0.0226664,0.345067,-0.148055,-0.19529,-1.25722e-06,1.01659e-05,1.67938e-05,0.339146,0.4120845261615589,-1.2572192097382029e-06,1.0165951672913565e-05,-0.13761631746487324,1.6793941016723934e-05,-0.1774039293979649
423,0.4131,884.879,0.225412,-0.00446457,0.000399548,0.0427663,-0.0315492,0.345775,-0.14836,-0.195692,-1.59863e-06,1.17621e-05,1.60631e-05,0.33985,0.4130846360031888,-1.5986287221769757e-06,1.1762169173756831e-05,-0.1378793043805031,1.6063229012264202e-05,-0.177734546559845
424,0.4141,884.714,-0.195696,0.0374692,0.0268967,-0.0729908,0.026517,0.346483,-0.14867,-0.196091,-1.19434e-06,9.99581e-06,1.68784e-05,0.340554,0.414085454173305,-1.1943392868030145e-06,9.995859958200626e-06,-0.138146520375526,1.6878542441034483e-05,-0.17806256503173068
425,0.4151,884.892,0.256976,-0.00726502,-0.00168608,0.0514517,-0.0357575,0.34719,-0.148974,-0.196492,-1.59483e-06,1.18454e-05,1.60367e-05,0.341257,0.4150855660873083,-1.5948287283018558e-06,1.1845470156979232e-05,-0.13840848401284145,1.6036828588639196e-05,-0.1783920958678047
426,0.4161,884.701,-0.229511,0.0403997,0.0290684,-0.0822093,0.0309979,0.347896,-0.149284,-0.19689,-1.12818e-06,9.80855e-06,1.69714e-05,0.34196,0.416084969244769,-1.1281793635964377e-06,9.80859810395529e-06,-0.13867553598760274,1.697154401503198e-05,-0.17871903074929218
427,0.4171,884.907,0.292917,-0.0106503,-0.00402727,0.0613592,-0.0406251,0.348602,-0.149588,-0.197291,-1.59485e-06,1.19473e-05,1.60009e-05,0.342663,0.41708507822998686,-1.5948487281924884e-06,1.1947371369336324e-05,-0.13893733882861448,1.6001028015022456e-05,-0.1790482983953865
428,0.4181,884.686,-0.26797,0.0439104,0.0315069,-0.0927046,0.0361634,0.349307,-0.149897,-0.197689,-1.05815e-06,9.60201e-06,1.70735e-05,0.343365,0.41808447545626737,-1.058149440180678e-06,9.602056099344836e-06,-0.1392033660875882,1.70736457529852e-05,-0.17937497216023368
429,0.4191,884.923,0.333808,-0.0146383,-0.00666865,0.0726451,-0.0462149,0.350012,-0.1502,-0.198089,-1.59936e-06,1.20703e-05,1.5955e-05,0.344066,0.4190845775060137,-1.5993587210161309e-06,1.207037284634005e-05,-0.13946414795721518,1.59551272815861e-05,-0.1797031565301198
430,0.4201,884.67,-0.311663,0.0480275,0.0342537,-0.104634,0.0420818,0.350717,-0.150509,-0.198486,-9.83657e-07,9.37381e-06,1.71856e-05,0.344767,0.4200853848763013,-9.836565162402167e-07,9.373853934402376e-06,-0.13973001245731576,1.7185747673176266e-05,-0.1800287497424483
431,0.4211,884.942,0.380272,-0.0192686,-0.00965579,0.0854819,-0.0526031,0.351421,-0.150811,-0.198886,-1.60907e-06,1.2217e-05,1.58978e-05,0.345467,0.42108547697836896,-1.6090687054992614e-06,1.2217074627951519e-05,-0.13998977476747054,1.589792637068932e-05,-0.1803566726535969
432,0.4221,884.65,-0.361241,0.0527951,0.0373511,-0.118171,0.0488338,0.352124,-0.151121,-0.199282,-9.041e-07,9.12138e-06,1.7309e-05,0.346168,0.4220848513076032,-9.040995913034422e-07,9.121421599811441e-06,-0.14025633661807102,1.730914980169196e-05,-0.18068118715311432
433,0.4231,884.963,0.432994,-0.0245977,-0.0130366,0.10006,-0.0598786,0.352827,-0.151422,-0.199681,-1.62471e-06,1.23905e-05,1.58281e-05,0.346867,0.4230849284439986,-1.6247086801479682e-06,1.2390576762610905e-05,-0.14051508051783856,1.5828225265135387e-05,-0.18100803014992628
434,0.4241,884.629,-0.41741,0.0582723,0.0408429,-0.133505,0.0565121,0.353529,-0.151731,-0.200077,-8.18871e-07,8.8419e-06,1.74447e-05,0.347566,0.4240842847968054,-8.188706647205279e-07,8.841939089787587e-06,-0.14078062032994476,1.7444852159709257e-05,-0.1813322867629401
435,0.4251,884.987,0.492721,-0.0306974,-0.0168623,0.116591,-0.0681424,0.354231,-0.152032,-0.200476,-1.64709e-06,1.2594e-05,1.57446e-05,0.348264,0.42508434294407316,-1.647088643585981e-06,1.2594079304761863e-05,-0.14103920644406287,1.574472394683113e-05,-0.18165887002282866
436,0.4261,884.604,-0.480947,0.0645311,0.0447755,-0.150842,0.0652208,0.354933,-0.152341,-0.20087,-7.27335e-07,8.5323e-06,1.75943e-05,0.348962,0.42608510337863414,-7.27334735439733e-07,8.532336400079998e-06,-0.14130458432627735,1.7594454780667235e-05,-0.1819812329183791
437,0.4271,885.013,0.560275,-0.0376529,-0.0211888,0.135305,-0.0775077,0.355634,-0.15264,-0.201269,-1.67709e-06,1.28313e-05,1.56456e-05,0.349659,0.42708513950781435,-1.6770885936656654e-06,1.283138232155423e-05,-0.14156129587527466,1.5645722392987338e-05,-0.18230755730040116
438,0.4281,884.576,-0.552698,0.0716547,0.0491979,-0.170408,0.0750756,0.356334,-0.15295,-0.201663,-6.28827e-07,8.18926e-06,1.77592e-05,0.350357,0.42808444882292496,-6.288268022958121e-07,8.189293532190334e-06,-0.14182737062983564,1.775935769554593e-05,-0.18262966466350739
439,0.4291,885.043,0.636554,-0.0455623,-0.0260769,0.156458,-0.0881004,0.357034,-0.153248,-0.202062,-1.7157e-06,1.31064e-05,1.55295e-05,0.351053,0.42908445789944416,-1.715698528137466e-06,1.3106485889258224e-05,-0.14208306797259163,1.552962058326557e-05,-0.18295573037287172
440,0.4301,884.545,-0.633591,0.0797373,0.0541623,-0.192449,0.0862041,0.357734,-0.153559,-0.202454,-5.22656e-07,7.80919e-06,1.79413e-05,0.35175,0.4300851672273762,-5.226558633664169e-07,7.80922049181676e-06,-0.14234983865346107,1.794146094602489e-05,-0.18327594895962207
441,0.4311,885.077,0.722541,-0.0545371,-0.0315936,0.180332,-0.10006,0.358433,-0.153855,-0.202853,-1.76399e-06,1.34238e-05,1.53942e-05,0.352444,0.4310851462112071,-1.7639884442033349e-06,1.3423890099506508e-05,-0.1426036655329882,1.5394318491290804e-05,-0.18360175685299007
442,0.4321,884.51,-0.724633,0.0888839,0.059724,-0.217229,0.0987463,0.359131,-0.154166,-0.203244,-4.08105e-07,7.38822e-06,1.81425e-05,0.35314,0.4320843923395916,-4.081049167492523e-07,7.38824729307197e-06,-0.1428702743331901,1.8142664576226153e-05,-0.18392090616830348
443,0.4331,885.115,0.819308,-0.0647024,-0.0378127,0.207236,-0.113538,0.359829,-0.154462,-0.203643,-1.82319e-06,1.37886e-05,1.52378e-05,0.353834,0.4330843361852488,-1.82318833796824e-06,1.3788695063077228e-05,-0.14312394718655297,1.5237916095811599e-05,-0.18424645677507723
444,0.4341,884.907,0.330538,-0.0467614,-0.00274864,0.0759529,-0.062901,0.360527,-0.154767,-0.204037,-1.3616e-06,1.21756e-05,1.57461e-05,0.354528,0.4340849782353551,-1.3615990730464489e-06,1.2175674122927305e-05,-0.14338525453126538,1.5746223970491968e-05,-0.18456780036226417
445,0.4351,884.833,0.0629094,0.0344623,0.00653633,-0.00340655,-0.00022559,0.361224,-0.155071,-0.20443,-1.23158e-06,1.10784e-05,1.65538e-05,0.355222,0.4350848838918262,-1.2315792415895643e-06,1.1078461365610082e-05,-0.14364562583544438,1.6553937014940345e-05,-0.18488820225362634
446,0.4361,884.825,0.101692,-0.0110183,0.0111742,0.0104208,-0.0211573,0.361921,-0.155373,-0.204825,-1.15523e-06,1.13051e-05,1.62646e-05,0.355915,0.43608548672547776,-1.1552293327499186e-06,1.1305163902797233e-05,-0.14390420580890084,1.6264732269233306e-05,-0.1852101078331987
447,0.4371,884.793,-0.0265214,0.0349427,0.0134374,-0.0273554,0.00906764,0.362617,-0.155676,-0.205218,-1.10651e-06,1.07218e-05,1.66878e-05,0.356608,0.4370853501363432,-1.1065093877826726e-06,1.0721857478745989e-05,-0.14416356353986026,1.6687939242032712e-05,-0.1855302573473202
448,0.4381,884.823,0.0869361,-0.0030791,0.0109443,0.00608394,-0.0173704,0.363312,-0.155978,-0.205612,-1.12775e-06,1.1209e-05,1.63386e-05,0.3573,0.4380844716091832,-1.1277493641159708e-06,1.1209062821038174e-05,-0.14442198711974652,1.6338733475729228e-05,-0.1858510952167146
449,0.4391,884.783,-0.0455417,0.031438,0.0155497,-0.0320119,0.00923958,0.364007,-0.156281,-0.206004,-1.04272e-06,1.0609e-05,1.67167e-05,0.357992,0.4390842877128027,-1.0427194563344955e-06,1.0609056275701079e-05,-0.1446811879867348,1.671683972470639e-05,-0.1861701790428737
450,0.4401,884.829,0.0949065,9.52095e-05,0.00971881,0.00798002,-0.0169137,0.364702,-0.156582,-0.206397,-1.112e-06,1.11921e-05,1.63721e-05,0.358683,0.44008479893013863,-1.1119993816866014e-06,1.1192162631790126e-05,-0.14493860020666827,1.6372234023620535e-05,-0.18648995132314117
451,0.4411,884.777,-0.0573351,0.0291298,0.0168815,-0.0349635,0.00949762,0.365396,-0.156884,-0.206789,-9.89305e-07,1.05172e-05,1.67483e-05,0.359373,0.441084564659177,-9.893045106457166e-07,1.051725530598624e-05,-0.14519678976082084,1.67484402535667e-05,-0.18680878476678475
452,0.4421,884.835,0.105649,0.00159518,0.00856538,0.0107407,-0.0173676,0.36609,-0.157185,-0.207182,-1.09491e-06,1.11868e-05,1.63936e-05,0.360064,0.44208502446644893,-1.0949094005896498e-06,1.1186862572509781e-05,-0.1454540468079749,1.639373437578584e-05,-0.1871283061243122
453,0.4431,884.771,-0.0689239,0.0280855,0.0179777,-0.0379508,0.0102147,0.366783,-0.157487,-0.207574,-9.39191e-07,1.04242e-05,1.6786e-05,0.360753,0.4430847357483543,-9.391905589906102e-07,1.0424254332175309e-05,-0.14571208072075692,1.6786140885738376e-05,-0.18744688938191334
454,0.4441,884.84,0.117354,0.00204187,0.00751931,0.0138467,-0.018336,0.367476,-0.157787,-0.207966,-1.07625e-06,1.11866e-05,1.6408e-05,0.361443,0.4440851400702883,-1.0762494208060858e-06,1.1186662570272787e-05,-0.14596832865742837,1.6408134611900493e-05,-0.18776534777935183
455,0.4451,884.766,-0.0812789,0.0279162,0.0189818,-0.0412123,0.0113542,0.368168,-0.158088,-0.208357,-8.90388e-07,1.03269e-05,1.68293e-05,0.362131,0.4450847928271795,-8.903876036470137e-07,1.0326953322703503e-05,-0.14622535350632215,1.682944161340849e-05,-0.18808286944883845
456,0.4461,884.846,0.130055,0.00175179,0.00652118,0.017278,-0.0196912,0.36886,-0.158388,-0.208749,-1.05693e-06,1.11914e-05,1.64168e-05,0.36282,0.44608513758318225,-1.0569294414120023e-06,1.1191462623960646e-05,-0.14648144748425285,1.6416934756291468e-05,-0.1884010785909479
457,0.4471,884.761,-0.0947021,0.0283715,0.0199617,-0.0448075,0.0128446,0.369551,-0.15869,-0.209139,-8.41922e-07,1.02245e-05,1.68771e-05,0.363508,0.447084727731875,-8.419216456223566e-07,1.0224552270399201e-05,-0.14673917116887736,1.6877242418944505e-05,-0.18871754045622247
458,0.4481,884.852,0.143939,0.000924927,0.00552063,0.0210692,-0.0213738,0.370242,-0.158989,-0.20953,-1.03768e-06,1.12017e-05,1.64209e-05,0.364195,0.44808500883605795,-1.0376794615796214e-06,1.1201762739165844e-05,-0.14699425801931332,1.6421034823688174e-05,-0.18903468989114902
459,0.4491,884.755,-0.109396,0.0292938,0.0209613,-0.0487771,0.0146433,0.370932,-0.15929,-0.20992,-7.93156e-07,1.01163e-05,1.69289e-05,0.364882,0.44908453228808964,-7.931556854634536e-07,1.0116351169875415e-05,-0.1472509741099397,1.6929043294533486e-05,-0.18935090469619653
460,0.4501,884.859,0.159188,-0.000315701,0.00448113,0.0252591,-0.0233524,0.371622,-0.159588,-0.21031,-1.01904e-06,1.12181e-05,1.64207e-05,0.365568,0.45008474564929446,-1.0190394807985115e-06,1.1218162923043451e-05,-0.14750505545965353,1.6420834820340957e-05,-0.18966699620151506
461,0.4511,884.749,-0.125536,0.030587,0.0220114,-0.0531601,0.0167294,0.372312,-0.159889,-0.210699,-7.43646e-07,1.00018e-05,1.69844e-05,0.366254,0.45108564939587414,-7.436457234444305e-07,1.0001850018204195e-05,-0.14776161782338737,1.698454423570972e-05,-0.18998215443774147
462,0.4521,884.865,0.17597,-0.00189697,0.00337582,0.0298874,-0.0256147,0.373,-0.160187,-0.21109,-1.00142e-06,1.12414e-05,1.64164e-05,0.366939,0.4520843398327752,-1.0014194985474845e-06,1.124146318476349e-05,-0.14801554702394593,1.641653474981908e-05,-0.19029880950525646
463,0.4531,884.742,-0.143289,0.0321956,0.0231347,-0.0579955,0.0190968,0.373689,-0.160488,-0.211478,-6.93062e-07,9.88039e-06,1.70435e-05,0.367625,0.4530851706895571,-6.930617598710498e-07,9.880438811116221e-06,-0.14827195575284213,1.704364524135471e-05,-0.19061291262722224
464,0.4541,884.873,0.194449,-0.00377808,0.00218404,0.0349948,-0.0281603,0.374377,-0.160785,-0.211868,-9.85119e-07,1.1272e-05,1.6408e-05,0.368309,0.4540852372704476,-9.85118514762462e-07,1.1272063529244036e-05,-0.14852488142066267,1.6408134611900493e-05,-0.19092851204541084
465,0.4551,884.734,-0.162814,0.0340902,0.0243493,-0.0633234,0.0217496,0.375064,-0.161086,-0.212256,-6.41146e-07,9.75141e-06,1.71063e-05,0.368993,0.45508453704862295,-6.41145794455511e-07,9.751457545226216e-06,-0.14878113686297623,1.7106446313475132e-05,-0.1912423708901838
466,0.4561,884.881,0.214788,-0.00594024,0.000888887,0.0406237,-0.0309974,0.375751,-0.161383,-0.212645,-9.70403e-07,1.13107e-05,1.63954e-05,0.369677,0.4560845235816191,-9.704025291101814e-07,1.1310763966099202e-05,-0.14903391132646204,1.639553440524466e-05,-0.19155691642483463
467,0.4571,884.726,-0.184275,0.0362594,0.0256697,-0.0691853,0.0246989,0.376438,-0.161683,-0.213032,-5.8769e-07,9.61426e-06,1.71729e-05,0.37036,0.45708519734139896,-5.876898273582398e-07,9.614306217153867e-06,-0.1492891628634192,1.7173047455187884e-05,-0.19186972336613106
468,0.4581,884.89,0.237149,-0.00837859,-0.000524211,0.0468179,-0.03414,0.377124,-0.161979,-0.213421,-9.57496e-07,1.13582e-05,1.63783e-05,0.371042,0.45808510071441955,-9.574955416313813e-07,1.1358264504490734e-05,-0.14954093600694807,1.637843412516382e-05,-0.19218402490812836
469,0.4591,884.717,-0.207835,0.0387027,0.0271089,-0.0756241,0.0279604,0.377809,-0.162279,-0.213807,-5.32512e-07,9.4683e-06,1.72435e-05,0.371725,0.4590842311715224,-5.325118581644972e-07,9.46834482440373e-06,-0.14979603545931486,1.7243648670062228e-05,-0.19249578170158177
470,0.4601,884.9,0.261701,-0.0110981,-0.00206859,0.0536234,-0.0376061,0.378495,-0.162575,-0.214196,-9.46609e-07,1.14153e-05,1.63566e-05,0.372406,0.46008550635222667,-9.466085519882483e-07,1.1415365154698875e-05,-0.1500476585907583,1.6356733769873344e-05,-0.19280983975424826
471,0.4611,884.707,-0.233664,0.041428,0.0286784,-0.0826844,0.0315536,0.379179,-0.162875,-0.214582,-4.7545e-07,9.31285e-06,1.73184e-05,0.373088,0.4610845464713418,-4.754498870163104e-07,9.312893364699093e-06,-0.15030260604915013,1.7318549964340235e-05,-0.1931213550297871
472,0.4621,884.91,0.288616,-0.0141101,-0.00375696,0.0610884,-0.0414169,0.379863,-0.16317,-0.21497,-9.37946e-07,1.14826e-05,1.633e-05,0.373768,0.4620842701676551,-9.379455601088438e-07,1.1482665925210966e-05,-0.15055322981154318,1.633013333512956e-05,-0.19343436321652052
473,0.4631,884.697,-0.261935,0.0444482,0.0303895,-0.0904125,0.0355002,0.380547,-0.16347,-0.215355,-4.16352e-07,9.14722e-06,1.73979e-05,0.374449,0.4630846779088935,-4.1635191327937804e-07,9.147261835984466e-06,-0.15080802562131734,1.7398051344263976e-05,-0.19374483121775699
474,0.4641,884.922,0.318073,-0.0174309,-0.00560183,0.0692628,-0.045596,0.38123,-0.163764,-0.215743,-9.31711e-07,1.15611e-05,1.62981e-05,0.375128,0.4640843060780653,-9.317105659212288e-07,1.1561166829876512e-05,-0.15105765136500227,1.6298232814682123e-05,-0.19405759754265373
475,0.4651,884.685,-0.292829,0.04778,0.0322527,-0.098856,0.0398242,0.381913,-0.164063,-0.216127,-3.55074e-07,8.9707e-06,1.74824e-05,0.375808,0.46508461722648775,-3.55073936919581e-07,8.970740236868835e-06,-0.15131144718287848,1.7482552818082198e-05,-0.194367020012281
476,0.4661,884.934,0.350256,-0.0210799,-0.00761577,0.078199,-0.0501689,0.382596,-0.164357,-0.216514,-9.28113e-07,1.16515e-05,1.62605e-05,0.376487,0.46608561182079455,-9.281125693538783e-07,1.1651567878967484e-05,-0.15156092494237916,1.626063220272478e-05,-0.19467873965389515
477,0.4671,884.672,-0.32653,0.0514433,0.0342786,-0.108064,0.0445513,0.383277,-0.164657,-0.216898,-2.9148e-07,8.78257e-06,1.75721e-05,0.377165,0.4670843561562925,-2.9147995750378186e-07,8.782608566848538e-06,-0.15181541848895574,1.757225439025234e-05,-0.19498792365074136
478,0.4681,884.948,0.385356,-0.0250793,-0.00981158,0.0879513,-0.0551627,0.383959,-0.164949,-0.217285,-9.27371e-07,1.17548e-05,1.62169e-05,0.377843,0.46808524895283976,-9.273705700030277e-07,1.1754869087887698e-05,-0.15206305223047123,1.6217031494569767e-05,-0.1952994030491374
479,0.4691,884.658,-0.36323,0.0554593,0.0364776,-0.118088,0.0497082,0.38464,-0.165249,-0.217668,-2.25438e-07,8.58208e-06,1.76674e-05,0.378521,0.46908535550500674,-2.254379746213786e-07,8.582116826083563e-06,-0.15231739516145482,1.766755606946724e-05,-0.19560754436494088
480,0.4701,884.963,0.42357,-0.0294529,-0.0122024,0.0985762,-0.0606056,0.38532,-0.165541,-0.218055,-9.2971e-07,1.1872e-05,1.6167e-05,0.379198,0.47008467327628534,-9.297095677762712e-07,1.1872070472485063e-05,-0.15256488234718002,1.6167130686639553e-05,-0.19591878401651452
481,0.4711,884.643,-0.403126,0.0598514,0.03886,-0.128978,0.055323,0.386,-0.165841,-0.218437,-1.56823e-07,8.3685e-06,1.77688e-05,0.379875,0.47108467081474314,-1.5682298770691716e-07,8.368535016067824e-06,-0.15281907475170875,1.7768957865982316e-05,-0.1962258843811162
482,0.4721,884.979,0.465098,-0.0342265,-0.0148018,0.110132,-0.0665272,0.38668,-0.166132,-0.218823,-9.35371e-07,1.2004e-05,1.61103e-05,0.38055,0.47208534858277895,-9.353705625603226e-07,1.2004072048377168e-05,-0.15306556853437125,1.6110429771565293e-05,-0.1965360813178848
483,0.4731,884.626,-0.446417,0.064644,0.041436,-0.140788,0.0614245,0.387359,-0.166432,-0.219205,-8.55157e-08,8.14106e-06,1.78765e-05,0.381227,0.4730852339571354,-8.551569630199651e-08,8.141093138513966e-06,-0.15331961075557243,1.787665978558728e-05,-0.19684294591995077
484,0.4741,884.996,0.510148,-0.0394272,-0.0176238,0.122679,-0.072958,0.388037,-0.166722,-0.219591,-9.44607e-07,1.21518e-05,1.60463e-05,0.381901,0.47408432439914616,-9.446065538654125e-07,1.215187383341032e-05,-0.1535651124689843,1.604642874264428e-05,-0.19715290471692926
485,0.4751,884.608,-0.49331,0.0698624,0.0442156,-0.15357,0.0680424,0.388716,-0.167022,-0.219971,-1.14088e-08,7.89903e-06,1.7991e-05,0.382577,0.47508556753899134,-1.1408800015821896e-08,7.899061197358392e-06,-0.1538190048494823,1.799116183898164e-05,-0.19745792865491818
486,0.4761,885.015,0.558929,-0.0450831,-0.0206829,0.136279,-0.0799294,0.389393,-0.167311,-0.220357,-9.57688e-07,1.23165e-05,1.59747e-05,0.38325,0.47608453858175825,-9.57687541380814e-07,1.2316575848325684e-05,-0.15406351582354327,1.597482759629898e-05,-0.19776765011437014
487,0.4771,884.589,-0.544011,0.0755327,0.0472086,-0.167378,0.0752068,0.39007,-0.167611,-0.220737,6.55948e-08,7.64168e-06,1.81127e-05,0.383925,0.47708418615690174,6.559480225654113e-08,7.641709197647728e-06,-0.15431725870546087,1.8112864035968457e-05,-0.19807244049348693
488,0.4781,885.035,0.611655,-0.0512239,-0.0239941,0.150995,-0.0874734,0.390747,-0.1679,-0.221122,-9.749e-07,1.24993e-05,1.58949e-05,0.384597,0.47808451072258906,-9.748995247749193e-07,1.249937811653723e-05,-0.15456162570496268,1.589502632448614e-05,-0.19838112317866718
489,0.4791,884.568,-0.598732,0.0816819,0.0504245,-0.182265,0.0829482,0.391424,-0.1682,-0.221502,1.45577e-07,7.36829e-06,1.8242e-05,0.385271,0.4790855127372977,1.4557701066841844e-07,7.368317145983738e-06,-0.15481521917632857,1.824216638635079e-05,-0.19868568048230684
490,0.4801,885.057,0.668543,-0.0578793,-0.0275729,0.166893,-0.0956229,0.392099,-0.168487,-0.221887,-9.96546e-07,1.27014e-05,1.58067e-05,0.385943,0.4800842324883914,-9.96545503451074e-07,1.2701480663013243e-05,-0.15505775240324216,1.5806824926523078e-05,-0.19899412711553421
491,0.4811,884.545,-0.657683,0.0883371,0.0538721,-0.198284,0.0912976,0.392775,-0.168788,-0.222265,2.286e-07,7.07817e-06,1.83793e-05,0.386616,0.481085107687256,2.2860002601987617e-07,7.078195050302938e-06,-0.15531204174730262,1.8379468900375784e-05,-0.19929685011723275
492,0.4821,885.08,0.729811,-0.0650807,-0.0314352,0.184039,-0.104411,0.39345,-0.169074,-0.22265,-1.02295e-06,1.29239e-05,1.57094e-05,0.387286,0.4820851776205761,-1.0229494767921565e-06,1.2923983514046e-05,-0.15555358796060792,1.5709523393248048e-05,-0.19960506149544022
493,0.4831,884.521,-0.721076,0.0955259,0.05756,-0.215488,0.100286,0.394124,-0.169375,-0.223027,3.14708e-07,6.77069e-06,1.8525e-05,0.387958,0.48308443974379944,3.147080496201937e-07,6.7707129212113415e-06,-0.15580772808062493,1.8525171588956724e-05,-0.19990675351473752
494,0.4841,885.106,0.795675,-0.0728593,-0.0355975,0.202501,-0.11387,0.394798,-0.16966,-0.223412,-1.05447e-06,1.31681e-05,1.56025e-05,0.388628,0.48408437559671524,-1.0544694440950408e-06,1.3168186699719087e-05,-0.15604828859662012,1.56026217197347e-05,-0.20021473012533264
495,0.4851,884.902,0.306488,-0.0463975,-0.00170722,0.0704435,-0.059816,0.395472,-0.169955,-0.223792,-5.98595e-07,1.14926e-05,1.61636e-05,0.389299,0.4850849856335704,-5.985948208220293e-07,1.1492666040169297e-05,-0.15629721763264603,1.6163730631735262e-05,-0.20051859079070222
496,0.4861,884.838,0.0693147,0.0288996,0.00601038,-8.90678e-05,-0.00305352,0.396145,-0.170249,-0.224172,-4.88877e-07,1.05069e-05,1.68886e-05,0.389969,0.48608478422339085,-4.888768805333399e-07,1.0506955197664425e-05,-0.15654522979108831,1.688874261329687e-05,-0.20082233601095478
497,0.4871,884.823,0.0839391,-0.00912649,0.0113282,0.00667878,-0.0187708,0.396818,-0.170541,-0.224552,-4.01538e-07,1.0627e-05,1.66696e-05,0.390638,0.4870852559041319,-4.015379193589297e-07,1.0627056466816498e-05,-0.15679148262932519,1.6669738938546175e-05,-0.20112596582995135
498,0.4881,884.802,-0.0126997,0.0300246,0.0122568,-0.0220869,0.00563332,0.39749,-0.170834,-0.224932,-3.73024e-07,1.01743e-05,1.7009e-05,0.391307,0.48808491304327917,-3.730239304111649e-07,1.0174351758429623e-05,-0.15703850653414553,1.7009144653856723e-05,-0.20142948029153596
499,0.4891,884.82,0.0663021,-0.00112521,0.0113259,0.0015526,-0.0146072,0.398162,-0.171126,-0.225312,-3.72146e-07,1.05196e-05,1.67429e-05,0.391975,0.4890852421777889,-3.7214593073819913e-07,1.0519655331275857e-05,-0.15728461535660077,1.6743040163191836e-05,-0.20173287943953622
500,0.4901,884.794,-0.0267297,0.0266484,0.0139544,-0.0254417,0.0053959,0.398833,-0.171419,-0.225691,-3.16632e-07,1.00833e-05,1.70265e-05,0.392643,0.4900847536738955,-3.1663194988151844e-07,1.008335083674261e-05,-0.1575314947946974,1.7026644951734227e-05,-0.20203536535352706
501,0.4911,884.823,0.0695676,0.0020618,0.010478,0.0021891,-0.0136764,0.399504,-0.17171,-0.22607,-3.52736e-07,1.04866e-05,1.6777e-05,0.393311,0.49108493606727666,-3.527359377919481e-07,1.0486654984598331e-05,-0.15777661746263427,1.6777140734669516e-05,-0.20233773664707855
502,0.4921,884.79,-0.0332223,0.0243182,0.0148681,-0.0269804,0.00511921,0.400174,-0.172002,-0.226449,-2.70933e-07,1.00155e-05,1.70448e-05,0.393978,0.49208429772321205,-2.7093296328661864e-07,1.0015550155229036e-05,-0.15802251078816243,1.704494526344469e-05,-0.20263999336362348
503,0.4931,884.827,0.0747198,0.00369413,0.0097528,0.00344498,-0.0135261,0.400844,-0.172293,-0.226827,-3.31244e-07,1.04618e-05,1.6801e-05,0.394644,0.4930843291758138,-3.312439451619298e-07,1.0461854724752584e-05,-0.15826749059123302,1.680114113766784e-05,-0.20294133848831541
504,0.4941,884.787,-0.0387797,0.0230822,0.015516,-0.0283474,0.00516705,0.401514,-0.172585,-0.227205,-2.29047e-07,9.94988e-06,1.70675e-05,0.395311,0.4940850308739957,-2.2904697372094773e-07,9.949929500319143e-06,-0.15851324060273253,1.7067645650570284e-05,-0.20324256972607613
505,0.4951,884.83,0.0799967,0.004438,0.00917445,0.00480743,-0.0137424,0.402183,-0.172875,-0.227584,-3.07574e-07,1.04384e-05,1.68199e-05,0.395976,0.49508490818131756,-3.075739527513832e-07,1.043845448034375e-05,-0.1587572363818598,1.6820041455201107e-05,-0.2035444835758614
506,0.4961,884.784,-0.0442419,0.022547,0.0160329,-0.029745,0.00548443,0.402852,-0.173166,-0.227961,-1.89081e-07,9.88367e-06,1.70937e-05,0.396642,0.496085454630361,-1.8908098209369228e-07,9.883718843584077e-06,-0.15900200241088813,1.709384609815956e-05,-0.2038446907129523
507,0.4971,884.832,0.0853485,0.00462034,0.00868844,0.00623436,-0.0141867,0.40352,-0.173456,-0.228339,-2.82557e-07,1.0416e-05,1.68355e-05,0.397307,0.4970851735830093,-2.825569600517497e-07,1.0416054246675799e-05,-0.1592458564696415,1.6835641717838357e-05,-0.20414558054810128
508,0.4981,884.782,-0.049802,0.0224608,0.0164784,-0.0312039,0.00598878,0.404188,-0.173748,-0.228716,-1.50168e-07,9.81648e-06,1.71222e-05,0.397971,0.49808556057101705,-1.5016798871059223e-07,9.816528181882944e-06,-0.15949132084001016,1.7122346585685122e-05,-0.20444556111434498
509,0.4991,884.835,0.0908536,0.00444186,0.00825309,0.00773123,-0.0147884,0.404855,-0.174037,-0.229093,-2.56812e-07,1.03947e-05,1.68487e-05,0.398635,0.4990851169549144,-2.5681196702542763e-07,1.039475402508927e-05,-0.15973419275160583,1.6848841940086956e-05,-0.2047454286092304
510,0.5001,884.779,-0.0555462,0.0226672,0.0168871,-0.0327345,0.00662635,0.405522,-0.174328,-0.22947,-1.118e-07,9.74814e-06,1.71524e-05,0.399298,0.5000853402653149,-1.1179999370725113e-07,9.748187513203277e-06,-0.15997867452769143,1.7152547103327365e-05,-0.20504518307537756
511,0.5011,884.837,0.0965739,0.00402573,0.00784175,0.00930473,-0.0155046,0.406188,-0.174617,-0.229847,-2.30733e-07,1.03746e-05,1.68602e-05,0.399961,0.5010847298617269,-2.3073297339415433e-07,1.0374653816258572e-05,-0.16022140561442144,1.6860342133995232e-05,-0.20534482455539016
512,0.5021,884.777,-0.0615274,0.0230691,0.0172802,-0.034343,0.00736398,0.406854,-0.174908,-0.230223,-7.36677e-08,9.67856e-06,1.71836e-05,0.400624,0.5020847852733017,-7.366769727568112e-08,9.678606837315584e-06,-0.16046574563219085,1.7183747638815916e-05,-0.20564355873581186
513,0.5031,884.839,0.10255,0.00344716,0.00743774,0.0109598,-0.0163096,0.40752,-0.175196,-0.230599,-2.04569e-07,1.03558e-05,1.68703e-05,0.401286,0.5030855069436204,-2.0456897908971428e-07,1.0355853621524247e-05,-0.16070749668362638,1.6870442304250943e-05,-0.20594218061329606
514,0.5041,884.774,-0.0677778,0.0236079,0.0176706,-0.0360335,0.00818148,0.408185,-0.175487,-0.230974,-3.55798e-08,9.60769e-06,1.72158e-05,0.401948,0.5040853912304155,-3.5579799328999684e-08,9.607736153993685e-06,-0.16095169526947395,1.721594819281691e-05,-0.20623989647035412
515,0.5051,884.842,0.108808,0.00275246,0.00703075,0.0127,-0.0171874,0.408849,-0.175775,-0.23135,-1.78475e-07,1.03384e-05,1.68793e-05,0.402609,0.505084435576209,-1.7847498412493223e-07,1.0338453441338658e-05,-0.16119330638756524,1.6879442456207983e-05,-0.20653829416699876
516,0.5061,884.772,-0.0743191,0.0242473,0.0180666,-0.0378085,0.00906661,0.409514,-0.176065,-0.231725,2.58005e-09,9.53547e-06,1.72488e-05,0.40327,0.5060856495926307,2.5800499514616604e-09,9.535515462788524e-06,-0.16143652506030082,1.7248948761316996e-05,-0.20683578652338297
517,0.5071,884.844,0.115367,0.0019699,0.00661439,0.0145276,-0.0181287,0.410177,-0.176352,-0.2321,-1.52547e-07,1.03223e-05,1.68872e-05,0.403931,0.5070845154657584,-1.5254698837452452e-07,1.0322353275027396e-05,-0.16167715824509477,1.6887342589644305e-05,-0.20713316734104847
518,0.5081,884.769,-0.081165,0.0249651,0.0184729,-0.03967,0.0100119,0.410841,-0.176642,-0.232475,4.0883e-08,9.46189e-06,1.72823e-05,0.404591,0.5080855518913416,4.088300076254825e-08,9.46193476392132e-06,-0.16192023662113553,1.728244933985046e-05,-0.20743043666181438
519,0.5091,884.847,0.122236,0.00111638,0.00618472,0.0164442,-0.0191277,0.411503,-0.176929,-0.23285,-1.26847e-07,1.03077e-05,1.68941e-05,0.40525,0.5090842350543483,-1.268469919102344e-07,1.0307753124605412e-05,-0.1621607310006311,1.6894242706122498e-05,-0.20772759452748402
520,0.5101,884.767,-0.0883235,0.0257483,0.0188926,-0.041619,0.011013,0.412166,-0.177219,-0.233223,7.93708e-08,9.38693e-06,1.73164e-05,0.405909,0.5100850896488254,7.937080304110111e-08,9.386974057390418e-06,-0.1624036691609051,1.731654992975784e-05,-0.20802305702754342
521,0.5111,884.85,0.129421,0.000202255,0.00573936,0.0184508,-0.0201809,0.412828,-0.177506,-0.233598,-1.01413e-07,1.02945e-05,1.69001e-05,0.406568,0.511085096944067,-1.0141299489063726e-07,1.029455298851012e-05,-0.1626440248151697,1.690024280742719e-05,-0.20831999270223933
522,0.5121,884.764,-0.0957992,0.0265885,0.0193274,-0.0436559,0.0120669,0.413489,-0.177795,-0.233971,1.18067e-07,9.31059e-06,1.73511e-05,0.407226,0.5120842543782997,1.180670070599632e-07,9.310633343639907e-06,-0.16288598572696222,1.7351250531261186e-05,-0.20861523427898432
523,0.5131,884.853,0.136925,-0.000766122,0.00527691,0.0205476,-0.021286,0.414151,-0.178081,-0.234345,-7.62682e-08,1.02827e-05,1.69051e-05,0.407884,0.51308558555875,-7.626819709116717e-08,1.0282752867185607e-05,-0.163125366102019,1.6905242891995798e-05,-0.20891115684039563
524,0.5141,884.761,-0.103594,0.0274807,0.0197782,-0.0457805,0.0131718,0.414811,-0.17837,-0.234717,1.56982e-07,9.23287e-06,1.73862e-05,0.408542,0.5140845516677721,1.5698201227820618e-07,9.232912623113876e-06,-0.1633671879262788,1.7386351140791234e-05,-0.2092053871598185
525,0.5151,884.856,0.14475,-0.00178484,0.0047966,0.0227345,-0.0224415,0.415471,-0.178656,-0.235091,-5.14286e-08,1.02724e-05,1.69094e-05,0.409198,0.5150841773120491,-5.1428598712988105e-08,1.0272452761306283e-05,-0.16360643069718495,1.6909542964738122e-05,-0.2095010890453214
526,0.5161,884.758,-0.111705,0.0284226,0.0202454,-0.0479923,0.0143264,0.416131,-0.178944,-0.235463,1.9612e-07,9.15379e-06,1.74219e-05,0.409855,0.5160844629270176,1.9612001933566603e-07,9.153831896036024e-06,-0.16384727736155968,1.742205176213929e-05,-0.2097950999507775
527,0.5171,884.859,0.152892,-0.00285131,0.00429814,0.0250108,-0.0236462,0.416791,-0.17923,-0.235836,-2.69016e-08,1.02636e-05,1.69127e-05,0.410511,0.5170854089484023,-2.690159961460381e-08,1.0263652670872148e-05,-0.1640863828465201,1.6912843020522317e-05,-0.21008979141512107
528,0.5181,884.755,-0.120131,0.0294113,0.0207291,-0.05029,0.0155295,0.41745,-0.179518,-0.236208,2.35477e-07,9.07337e-06,1.7458e-05,0.411167,0.5180854977259581,2.354770276546958e-07,9.073411163074141e-06,-0.16432709130457868,1.7458152391736093e-05,-0.21038358336402418
529,0.5191,884.862,0.161346,-0.00396407,0.0037815,0.0273752,-0.0248989,0.418108,-0.179803,-0.23658,-2.69186e-09,1.02562e-05,1.69153e-05,0.411822,0.5190847266937397,-2.6918599571601476e-09,1.0256252594986748e-05,-0.16456522414801478,1.691544306448023e-05,-0.2106772660426478
530,0.5201,884.752,-0.128864,0.0304455,0.021229,-0.0526718,0.0167799,0.418766,-0.180091,-0.236951,2.75048e-07,8.99163e-06,1.74946e-05,0.412477,0.5200846133705446,2.750480379010156e-07,8.991670424896014e-06,-0.16480579471963497,1.7494753031366272e-05,-0.21097005046207795
531,0.5211,884.865,0.170108,-0.00512162,0.00324687,0.0298262,-0.0261985,0.419424,-0.180376,-0.237323,2.11995e-08,1.02503e-05,1.6917e-05,0.413131,0.5210851581892877,2.119950015533334e-08,1.0250352534546536e-05,-0.16504379115203738,1.691714309326464e-05,-0.21126351501551488
532,0.5221,884.748,-0.1379,0.0315236,0.0217447,-0.0551357,0.0180763,0.420081,-0.180663,-0.237694,3.14822e-07,8.90863e-06,1.75316e-05,0.413785,0.5220848394975686,3.148220495408083e-07,8.908669681950698e-06,-0.16528338920001218,1.7531753679467244e-05,-0.211556081976917
533,0.5231,884.869,0.179167,-0.00632285,0.00269463,0.0323614,-0.0275437,0.420738,-0.180947,-0.238066,4.47736e-08,1.02458e-05,1.69179e-05,0.414438,0.523085177812272,4.47736010489308e-08,1.0245852488433016e-05,-0.16552041505821435,1.691804310843814e-05,-0.2118493285671741
534,0.5241,884.745,-0.147226,0.0326448,0.0222755,-0.0576787,0.0194174,0.421394,-0.181235,-0.238435,3.54785e-07,8.82441e-06,1.7569e-05,0.415092,0.5240846494797813,3.5478506288377787e-07,8.82444893512968e-06,-0.1657607105744624,1.756915433581696e-05,-0.2121401025138403
535,0.5251,884.872,0.188514,-0.0075664,0.00212535,0.034978,-0.0289329,0.42205,-0.181518,-0.238807,6.80343e-08,1.02426e-05,1.69181e-05,0.415744,0.525084777015806,6.803430241397734e-08,1.024265245552769e-05,-0.1659967668898258,1.6918243111785358e-05,-0.21243313188886215
536,0.5261,884.741,-0.156833,0.0338076,0.0228207,-0.0602977,0.0208013,0.422706,-0.181805,-0.239176,3.94923e-07,8.73902e-06,1.76069e-05,0.416396,0.5260855608507369,3.9492307801758386e-07,8.739058185325277e-06,-0.16623609147300789,1.76070550024221e-05,-0.21272369045184336
537,0.5271,884.876,0.198137,-0.00885105,0.00153968,0.037673,-0.0303644,0.423361,-0.182089,-0.239547,9.09865e-08,1.02408e-05,1.69174e-05,0.417048,0.5270854743290092,9.098650410876985e-08,1.02408524371711e-05,-0.16647284680218155,1.6917543099959076e-05,-0.2130157157886362
538,0.5281,884.737,-0.166706,0.0350111,0.0233793,-0.0629886,0.0222263,0.424015,-0.182376,-0.239916,4.35216e-07,8.65254e-06,1.76451e-05,0.4177,0.5280845148798716,4.3521609471852685e-07,8.652577433432285e-06,-0.16671203477003416,1.76452556757134e-05,-0.21330605941781622
539,0.5291,884.88,0.20802,-0.0101748,0.000938486,0.0404422,-0.0318362,0.424669,-0.182658,-0.240286,1.13637e-07,1.02403e-05,1.69161e-05,0.41835,0.5290842090169539,1.1363700647137875e-07,1.0240352432022704e-05,-0.16694698884614723,1.6916243078091142e-05,-0.21359708233327213
540,0.5301,884.734,-0.176831,0.0362524,0.0239503,-0.0657471,0.0236902,0.425323,-0.182945,-0.240654,4.75644e-07,8.56504e-06,1.76837e-05,0.419001,0.530084557167841,4.756441132069966e-07,8.56507668012263e-06,-0.16718604075475862,1.768385635747549e-05,-0.21388642536459046
541,0.5311,884.884,0.218148,-0.0115363,0.000322601,0.0432815,-0.0333459,0.425977,-0.183227,-0.241024,1.35994e-07,1.0241e-05,1.69141e-05,0.419651,0.5310855597603976,1.3599400916497473e-07,1.0241052439186049e-05,-0.16742086118002963,1.691424304417488e-05,-0.21417723358436724
542,0.5321,884.73,-0.187189,0.0375305,0.0245326,-0.0685683,0.0251903,0.42663,-0.183513,-0.241392,5.16185e-07,8.4766e-06,1.77225e-05,0.420301,0.5320856851363178,5.161851333035372e-07,8.476635926513154e-06,-0.1676589447661565,1.7722657044361156e-05,-0.21446636315930345
543,0.5331,884.888,0.228502,-0.0129339,-0.000306874,0.046186,-0.034891,0.427282,-0.183795,-0.241761,1.58067e-07,1.02429e-05,1.69114e-05,0.42095,0.5330849307216889,1.580670125900241e-07,1.0242952458661136e-05,-0.16789363185129813,1.691154299843234e-05,-0.21475617159835225
544,0.5341,884.726,-0.197762,0.038843,0.0251249,-0.0714466,0.0267242,0.427934,-0.184081,-0.242129,5.56813e-07,8.38734e-06,1.77617e-05,0.421599,0.5340848280276196,5.568131549171795e-07,8.38737517372401e-06,-0.1681315802443465,1.7761857739939657e-05,-0.2150450881632956
545,0.5351,884.891,0.239062,-0.0143647,-0.000948761,0.0491501,-0.0364687,0.428586,-0.184363,-0.242498,1.79868e-07,1.02459e-05,1.69081e-05,0.422247,0.53508537747917,1.798680162590216e-07,1.0245952489329468e-05,-0.1683661340650745,1.6908242942648144e-05,-0.21533468309221304
546,0.5361,884.722,-0.208527,0.0401878,0.0257256,-0.0743758,0.0282885,0.429237,-0.184649,-0.242864,5.97502e-07,8.29734e-06,1.78011e-05,0.422895,0.5360850434158664,5.975021784010437e-07,8.297374423094084e-06,-0.16860394734181228,1.7801258440419687e-05,-0.2156218180492988
547,0.5371,884.896,0.249805,-0.0158261,-0.0016018,0.0521678,-0.0380757,0.429888,-0.184929,-0.243233,2.01408e-07,1.02499e-05,1.69042e-05,0.423542,0.5370853603469632,2.0140802026169524e-07,1.0249952530294593e-05,-0.16883670564887288,1.6904342876822298e-05,-0.21591120020414756
548,0.5381,884.718,-0.219462,0.0415616,0.0263334,-0.0773496,0.0298801,0.430538,-0.185215,-0.243599,6.38222e-07,8.20672e-06,1.78406e-05,0.42419,0.5380847906108361,6.382222037526475e-07,8.206753675299439e-06,-0.16907438436138134,1.7840759144460705e-05,-0.21619812419457962
549,0.5391,884.9,0.260707,-0.0173155,-0.00226466,0.0552327,-0.0397086,0.431188,-0.185495,-0.243967,2.22702e-07,1.02548e-05,1.68998e-05,0.424836,0.5390848707155562,2.2270202482133072e-07,1.0254852580660057e-05,-0.16930701096451595,1.6899942802517387e-05,-0.2164865102185931
550,0.5401,884.713,-0.230541,0.0429617,0.0269466,-0.0803605,0.0314953,0.431838,-0.185781,-0.244333,6.78942e-07,8.11562e-06,1.78804e-05,0.425483,0.5400856010836568,6.789422304365189e-07,8.115652931683925e-06,-0.16954455518893674,1.7880559855409928e-05,-0.21677322368408836
551,0.5411,884.904,0.271742,-0.0188299,-0.00293582,0.0583377,-0.0413637,0.432487,-0.186061,-0.2447,2.43764e-07,1.02606e-05,1.68949e-05,0.426128,0.5410854410517354,2.4376402962822397e-07,1.0260652640203816e-05,-0.16977705016266853,1.689504271973341e-05,-0.2170606151714326
552,0.5421,884.709,-0.241737,0.0443854,0.0275635,-0.0834012,0.0331302,0.433135,-0.186346,-0.245065,7.19628e-07,8.02416e-06,1.79202e-05,0.426774,0.5420843880414064,7.196282589827518e-07,8.024192193589741e-06,-0.1700136299891456,1.7920360567691418e-05,-0.21734633589969
553,0.5431,884.908,0.282882,-0.020366,-0.00361368,0.0614752,-0.043037,0.433784,-0.186625,-0.245433,2.64611e-07,1.02672e-05,1.68896e-05,0.427419,0.543085525643257,2.6461103508346184e-07,1.0267252707807373e-05,-0.17024516388589817,1.6889742630032956e-05,-0.21763429945953416
554,0.5441,884.705,-0.253022,0.0458287,0.0281822,-0.0864634,0.0347807,0.434431,-0.18691,-0.245797,7.60246e-07,7.93249e-06,1.796e-05,0.428064,0.5440842250227589,7.602462890332617e-07,7.932521462361564e-06,-0.17048161031897346,1.7960161281749265e-05,-0.21791902875065616
555,0.5451,884.912,0.294097,-0.0219201,-0.00429656,0.0646373,-0.0447241,0.435079,-0.187189,-0.246164,2.8526e-07,1.02744e-05,1.6884e-05,0.428708,0.5450851158541796,2.852600406999528e-07,1.0274452781899868e-05,-0.1707130136674263,1.6884142535422697e-05,-0.21820599980469524
556,0.5461,884.701,-0.264365,0.0472882,0.0288008,-0.0895385,0.0364423,0.435726,-0.187474,-0.246528,8.00759e-07,7.84074e-06,1.79998e-05,0.429352,0.5460851093871615,8.007593206293961e-07,7.840770738676284e-06,-0.17094932678231267,1.7999961997361424e-05,-0.21849052103476096
557,0.5471,884.916,0.305357,-0.0234891,-0.00498269,0.0678154,-0.0464207,0.436372,-0.187752,-0.246895,3.0573e-07,1.02821e-05,1.6878e-05,0.429995,0.5470842030403307,3.057300468345403e-07,1.0282152860918714e-05,-0.17117977083625957,1.687814243434005e-05,-0.21877728238961391
558,0.5481,884.697,-0.275734,0.0487605,0.0294174,-0.0926177,0.0381106,0.437019,-0.188037,-0.247258,8.41128e-07,7.7491e-06,1.80395e-05,0.430638,0.54808549040123,8.41128353856746e-07,7.749130024325979e-06,-0.17141595094430717,1.8039662712743265e-05,-0.21906081477186579
559,0.5491,884.92,0.316627,-0.0250681,-0.00567015,0.0710007,-0.0481221,0.437664,-0.188315,-0.247624,3.26041e-07,1.02902e-05,1.68718e-05,0.43128,0.5490843276329176,3.260410530447899e-07,1.0290252944189504e-05,-0.17164626529476668,1.687194232968814e-05,-0.21934658621429526
560,0.5501,884.692,-0.287096,0.0502405,0.0300299,-0.0956915,0.0397805,0.43831,-0.188599,-0.247987,8.81314e-07,7.65771e-06,1.8079e-05,0.431923,0.5500853594070192,8.813143883568131e-07,7.657739320432455e-06,-0.17188148435273576,1.8079163426110156e-05,-0.2196299119767624
561,0.5511,884.925,0.327875,-0.0266528,-0.0063571,0.0741841,-0.0498231,0.438955,-0.188876,-0.248352,3.46212e-07,1.02985e-05,1.68654e-05,0.432564,0.5510854869703028,3.462120599095897e-07,1.0298553029697288e-05,-0.17211084141415045,1.686554222168901e-05,-0.21991469508281236
562,0.5521,884.688,-0.298417,0.0517238,0.0306362,-0.0987504,0.0414471,0.439599,-0.18916,-0.248715,9.21276e-07,7.56674e-06,1.81183e-05,0.433205,0.5520847077384647,9.212764244814764e-07,7.566768627897957e-06,-0.17234592855123532,1.8118464137462098e-05,-0.2201978146591853
563,0.5531,884.929,0.339067,-0.0282388,-0.00704155,0.0773559,-0.0515187,0.440243,-0.189438,-0.24908,3.66265e-07,1.03071e-05,1.6859e-05,0.433846,0.5530845722120521,3.662650671643064e-07,1.0307153118338519e-05,-0.1725759844038529,1.6859142113689884e-05,-0.22048239051858098
564,0.5541,884.684,-0.309661,0.0532062,0.0312341,-0.101784,0.043105,0.440887,-0.189721,-0.249442,9.60973e-07,7.47638e-06,1.81574e-05,0.434487,0.5540850808057449,9.609734616944365e-07,7.476407948292518e-06,-0.17281011226961107,1.8157564846577046e-05,-0.22076452482382303
565,0.5551,884.933,0.350165,-0.0298214,-0.00772146,0.0805063,-0.0532036,0.44153,-0.189998,-0.249806,3.8622e-07,1.03156e-05,1.68525e-05,0.435126,0.5550846788490336,3.8622007458855023e-07,1.0315653206083297e-05,-0.17303921213671591,1.685264200412817e-05,-0.22104811492025833
566,0.5561,884.68,-0.320791,0.0546839,0.0318216,-0.104783,0.0447491,0.442173,-0.190281,-0.250168,1.00036e-06,7.3868e-06,1.8196e-05,0.435766,0.55608491984055,1.0003605004360594e-06,7.386827282518382e-06,-0.17327320892757359,1.8196165548101106e-05,-0.2213300444703299
567,0.5571,884.937,0.361132,-0.0313966,-0.00839465,0.0836252,-0.0548724,0.442815,-0.190557,-0.250532,4.06101e-07,1.0324e-05,1.6846e-05,0.436405,0.5570842471088169,4.0610108253957833e-07,1.0324053292709578e-05,-0.1735013540364363,1.6846141894566458e-05,-0.22161342875507395
568,0.5581,884.676,-0.331771,0.056151,0.0323963,-0.107737,0.0463738,0.443457,-0.190841,-0.250893,1.0394e-06,7.29819e-06,1.82342e-05,0.437045,0.5580842161511774,1.0394005400815587e-06,7.2982166319235375e-06,-0.17373604632400763,1.8234366244040956e-05,-0.2218943755933379
569,0.5591,884.941,0.371931,-0.0329579,-0.00905901,0.0867023,-0.0565196,0.444099,-0.191116,-0.251257,4.25932e-07,1.03322e-05,1.68397e-05,0.437683,0.5590848273797828,4.25932090708514e-07,1.033225337732091e-05,-0.1739632376710265,1.6839841788574006e-05,-0.2221775544989345
570,0.5601,884.672,-0.342563,0.0576026,0.0329561,-0.110635,0.0479735,0.44474,-0.191399,-0.251617,1.07804e-06,7.21073e-06,1.82719e-05,0.438321,0.560084521121748,1.0780405810262295e-06,7.210755997411056e-06,-0.17419697299965664,1.8272066932167874e-05,-0.22245752018246823
571,0.5611,884.945,0.382525,-0.0345016,-0.0097124,0.0897272,-0.0581394,0.445381,-0.191675,-0.25198,4.45734e-07,1.03399e-05,1.68336e-05,0.438958,0.5610848558728232,4.457340994079573e-07,1.033995345700589e-05,-0.17442486318481654,1.683374168592877e-05,-0.2227397168808425
572,0.5621,884.668,-0.353129,0.0590345,0.0334987,-0.113466,0.0495427,0.446021,-0.191957,-0.25234,1.11624e-06,7.12461e-06,1.83089e-05,0.439596,0.5620842699589761,1.1162406230447175e-06,7.124635380106881e-06,-0.1746576425499653,1.83090676089126e-05,-0.22301948022234253
573,0.5631,884.949,0.392875,-0.0360219,-0.0103526,0.0926895,-0.0597264,0.446661,-0.192232,-0.252703,4.65532e-07,1.03471e-05,1.68278e-05,0.440232,0.5630843238748675,4.65532108417932e-07,1.034715353132043e-05,-0.1748845804928667,1.682794158819334e-05,-0.22330147296624225
574,0.5641,884.664,-0.363432,0.0604406,0.034022,-0.116221,0.0510757,0.447301,-0.192515,-0.253062,1.15396e-06,7.04002e-06,1.83453e-05,0.440869,0.5640850180301202,1.1539606659116686e-06,7.040044780914911e-06,-0.17511805511836953,1.8345468276059762e-05,-0.22358025769259482
575,0.5651,884.952,0.402944,-0.0375141,-0.0109775,0.0955786,-0.0612748,0.44794,-0.192789,-0.253425,4.85349e-07,1.03535e-05,1.68223e-05,0.441504,0.5650847877490477,4.853491177847502e-07,1.0353553597575171e-05,-0.17534404180967655,1.6822441495589757e-05,-0.22386204691121503
576,0.5661,884.66,-0.373433,0.0618171,0.0345238,-0.118888,0.0525669,0.448579,-0.193071,-0.253783,1.19116e-06,6.95715e-06,1.8381e-05,0.44214,0.5660851965249827,1.1911607094017285e-06,6.9571742009610915e-06,-0.1755765620029981,1.8381168931602687e-05,-0.2241398545678831
577,0.5671,884.956,0.412693,-0.0389729,-0.0115848,0.098384,-0.062779,0.449217,-0.193345,-0.254146,5.05209e-07,1.03591e-05,1.68172e-05,0.442775,0.5670846776809515,5.052091276436244e-07,1.0359153655770115e-05,-0.17580242308062854,1.6817341409902653e-05,-0.22442144068970182
578,0.5681,884.657,-0.383097,0.0631564,0.0350021,-0.121457,0.0540107,0.449855,-0.193627,-0.254504,1.22779e-06,6.87618e-06,1.84158e-05,0.44341,0.5680847967093579,1.2277907537328048e-06,6.876203640926448e-06,-0.17603481402865606,1.8415969571972113e-05,-0.22469904811924013
579,0.5691,884.959,0.422085,-0.0403928,-0.0121725,0.101095,-0.0642333,0.450493,-0.193901,-0.254866,5.25135e-07,1.03638e-05,1.68126e-05,0.444044,0.5690855540172934,5.251351378188218e-07,1.0363853704342674e-05,-0.17626054956243176,1.681274133247257e-05,-0.22497965627068117
580,0.5701,884.653,-0.392385,0.0644555,0.0354547,-0.12392,0.0554016,0.45113,-0.194182,-0.255223,1.26381e-06,6.79729e-06,1.84497e-05,0.444678,0.5700853799259462,1.2638107986795433e-06,6.797313101714053e-06,-0.17649198782940534,1.844987019672395e-05,-0.22525628915148532
581,0.5711,884.963,0.431086,-0.0417673,-0.0127384,0.103703,-0.0656322,0.451766,-0.194455,-0.255585,5.4515e-07,1.03673e-05,1.68087e-05,0.445311,0.5710842718415376,5.451501485786991e-07,1.0367353740603491e-05,-0.17671677483190595,1.6808841267090813e-05,-0.2255366956181799
582,0.5721,884.65,-0.401261,0.0657099,0.0358799,-0.126264,0.056734,0.452403,-0.194737,-0.255942,1.29918e-06,6.72067e-06,1.84826e-05,0.445945,0.5720853713390395,1.2991808440165897e-06,6.720692583783716e-06,-0.17694890796909268,1.8482770804295612e-05,-0.22581312967142975
583,0.5731,884.966,0.439657,-0.0430937,-0.0132805,0.106196,-0.0669703,0.453039,-0.195009,-0.256303,5.65276e-07,1.03695e-05,1.68054e-05,0.446577,0.5730855356537496,5.652761596586231e-07,1.036955376343407e-05,-0.17717274742257938,1.6805541211528663e-05,-0.22609256069128458
584,0.5741,884.647,-0.409692,0.0669124,0.0362756,-0.128482,0.058003,0.453674,-0.195291,-0.256659,1.33387e-06,6.64649e-06,1.85145e-05,0.44721,0.5740847621897389,1.3338708895194173e-06,6.6465120880376816e-06,-0.17740475199362427,1.8514671394465054e-05,-0.22636802270453094
585,0.5751,884.969,0.447766,-0.0443661,-0.0137967,0.108566,-0.0682425,0.454309,-0.195563,-0.25702,5.85538e-07,1.03703e-05,1.68028e-05,0.447841,0.5750846234360776,5.855381715047514e-07,1.0370353771715912e-05,-0.1776284674743973,1.6802941167792795e-05,-0.2266472534441536
586,0.5761,884.644,-0.417645,0.0680587,0.0366401,-0.130563,0.0592033,0.454944,-0.195844,-0.257376,1.36783e-06,6.57491e-06,1.85453e-05,0.448473,0.5760851197959349,1.3678309354059337e-06,6.5749316147112324e-06,-0.1778595214104386,1.8545471965225602e-05,-0.22692251802192542
587,0.5771,884.971,0.455379,-0.0455785,-0.0142852,0.110802,-0.0694435,0.455578,-0.196116,-0.257736,6.05954e-07,1.03695e-05,1.68009e-05,0.449104,0.5770846745872731,6.059541834968485e-07,1.036955376343407e-05,-0.17808311321075165,1.680104113588321e-05,-0.2272007758260277
588,0.5781,884.641,-0.425086,0.0691465,0.0369719,-0.1325,0.06033,0.456212,-0.196396,-0.258091,1.40104e-06,6.50609e-06,1.85749e-05,0.449735,0.5780848632972797,1.4010409814524394e-06,6.506111164705786e-06,-0.17831321772291753,1.857507251457058e-05,-0.22747507086036012
589,0.5791,884.974,0.462465,-0.0467276,-0.0147441,0.112897,-0.0705689,0.456846,-0.196668,-0.258451,6.26547e-07,1.03671e-05,1.68e-05,0.450365,0.579085686327987,6.265471963473601e-07,1.0367153738588542e-05,-0.17853668613461515,1.680014112070971e-05,-0.22775312978124163
590,0.5801,884.639,-0.431988,0.070167,0.0372692,-0.134284,0.0613787,0.457479,-0.196948,-0.258806,1.43346e-06,6.44019e-06,1.86032e-05,0.450995,0.5800855639953277,1.4334610274335802e-06,6.44021073803458e-06,-0.17876666366414085,1.860337304049331e-05,-0.22802722876472115
591,0.5811,884.976,0.468997,-0.0478072,-0.0151716,0.114842,-0.0716137,0.458111,-0.197219,-0.259166,6.47335e-07,1.0363e-05,1.68e-05,0.451624,0.5810844937003099,6.473352094360507e-07,1.0363053696060831e-05,-0.17898918774491301,1.680014112070971e-05,-0.2283050889445326
592,0.5821,884.637,-0.43832,0.0711191,0.037531,-0.135908,0.0623448,0.458744,-0.197499,-0.25952,1.46507e-06,6.37734e-06,1.86302e-05,0.452254,0.5820856370132517,1.4650710731256567e-06,6.3773603353745045e-06,-0.17921903859172428,1.863037354321584e-05,-0.2285782205958916
593,0.5831,884.978,0.474945,-0.0488155,-0.0155663,0.116629,-0.0725739,0.459375,-0.19777,-0.259879,6.68338e-07,1.03569e-05,1.68009e-05,0.452882,0.5830842480788643,6.683382234307089e-07,1.0356953632939536e-05,-0.179441440095501,1.680104113588321e-05,-0.2288551113098407
594,0.5841,884.635,-0.444057,0.0719984,0.0377559,-0.137364,0.0632245,0.460007,-0.19805,-0.260233,1.49583e-06,6.31767e-06,1.86559e-05,0.453511,0.5840850735511867,1.4958311187474038e-06,6.317689956514272e-06,-0.17967116432938068,1.8656074022294078e-05,-0.22912804828774158
595,0.5851,884.98,0.480284,-0.0497474,-0.0159263,0.118251,-0.0734456,0.460638,-0.19832,-0.260592,6.89575e-07,1.03488e-05,1.68029e-05,0.454139,0.5850849466593873,6.895752377999997e-07,1.0348853549002612e-05,-0.1798926232167165,1.6803041169577426e-05,-0.22940474164897628
596,0.5861,884.633,-0.449176,0.0728009,0.0379427,-0.138647,0.064014,0.461269,-0.198599,-0.260945,1.52573e-06,6.2613e-06,1.86802e-05,0.454767,0.5860854508866162,1.525731163853905e-06,6.2613196019079e-06,-0.18012140125881815,1.8680374475943395e-05,-0.2296767137692708
597,0.5871,884.982,0.484993,-0.0505996,-0.0162505,0.119701,-0.0742251,0.461899,-0.198869,-0.261303,7.11061e-07,1.03386e-05,1.6806e-05,0.455393,0.5870849995454421,7.110612527672089e-07,1.0338653443575652e-05,-0.18034273859859284,1.6806141221570314e-05,-0.22995244014777483
598,0.5881,884.631,-0.453654,0.0735231,0.0380905,-0.139751,0.0647102,0.462529,-0.199148,-0.261656,1.55474e-06,6.20834e-06,1.8703e-05,0.45602,0.5880851781183254,1.5547412086647228e-06,6.208359271786534e-06,-0.18057139107602005,1.8703174902157116e-05,-0.2302242189646193
599,0.5891,884.983,0.489051,-0.0513663,-0.0165374,0.120973,-0.0749093,0.463158,-0.199418,-0.262014,7.32813e-07,1.03262e-05,1.68102e-05,0.456646,0.5890843979170441,7.328132685113786e-07,1.0326253315318112e-05,-0.1807926069349446,1.6810341292305964e-05,-0.23049974937134443
600,0.5901,884.63,-0.457475,0.0741611,0.0381987,-0.140671,0.0653096,0.463787,-0.199697,-0.262366,1.58285e-06,6.15887e-06,1.87243e-05,0.457273,0.5900842464227238,1.5828512527349403e-06,6.15888896593475e-06,-0.18102113391661345,1.8724475300713195e-05,-0.2307705657930792
601,0.5911,884.984,0.492442,-0.052047,-0.0167863,0.122062,-0.0754951,0.464416,-0.199966,-0.262724,7.54842e-07,1.03116e-05,1.68155e-05,0.457898,0.5910847240309458,7.548422849001923e-07,1.0311653164674084e-05,-0.1812414096031818,1.6815641381340285e-05,-0.23104590064264652
602,0.5921,884.629,-0.460624,0.0747114,0.0382668,-0.141403,0.0658101,0.465044,-0.200244,-0.263076,1.61004e-06,6.11297e-06,1.87442e-05,0.458523,0.5920842390525045,1.610041296062903e-06,6.112988684137122e-06,-0.18146899285577422,1.8744375673618308e-05,-0.23131652485296494
603,0.5931,884.985,0.49515,-0.0526385,-0.0169961,0.122964,-0.0759803,0.465672,-0.200513,-0.263432,7.77161e-07,1.02946e-05,1.68221e-05,0.459148,0.5930843819666345,7.771613019791346e-07,1.0294652989628617e-05,-0.18168914808449022,1.682224149224254e-05,-0.23159012746596264
604,0.5941,884.628,-0.463083,0.0751755,0.0382943,-0.141944,0.0662096,0.4663,-0.200791,-0.263784,1.63631e-06,6.07072e-06,1.87624e-05,0.459772,0.594085153167776,1.6363113386486106e-06,6.070738426844358e-06,-0.18191660688308486,1.8762576014852428e-05,-0.23186056014215128
605,0.5951,884.986,0.497163,-0.0531383,-0.0171659,0.123676,-0.076363,0.466927,-0.20106,-0.26414,7.99783e-07,1.02752e-05,1.68298e-05,0.460396,0.5950849579648618,7.997833197936899e-07,1.0275252789959666e-05,-0.1821366417198209,1.6829941621887556e-05,-0.23213396911305628
606,0.5961,884.627,-0.464849,0.0755453,0.038281,-0.142292,0.0665062,0.467554,-0.201338,-0.264491,1.66165e-06,6.03214e-06,1.87791e-05,0.46102,0.5960853898361225,1.6616513804912358e-06,6.032158193391979e-06,-0.18236397613247535,1.8779276328428907e-05,-0.23240344279449987
607,0.5971,884.986,0.498476,-0.0535435,-0.0172952,0.124193,-0.0766414,0.46818,-0.201606,-0.264847,8.22715e-07,1.02534e-05,1.68389e-05,0.461643,0.5970848520892063,8.227153385220731e-07,1.0253452566333365e-05,-0.18258307322654987,1.6839041774963093e-05,-0.232676658533578
608,0.5981,884.627,-0.465912,0.0758229,0.0382271,-0.142445,0.0666986,0.468806,-0.201884,-0.265198,1.68605e-06,5.99729e-06,1.87942e-05,0.462266,0.5980849402015342,1.6860514213679068e-06,5.99730798378495e-06,-0.18281028354849482,1.8794376612119024e-05,-0.23294594176446104
609,0.5991,884.987,0.49908,-0.0538544,-0.0173837,0.124516,-0.0768146,0.469432,-0.202151,-0.265553,8.45963e-07,1.02291e-05,1.68492e-05,0.462888,0.5990856545650165,8.459633578095094e-07,1.0229152317409174e-05,-0.18302844407706076,1.684934194856602e-05,-0.2332181976268598
610,0.6001,884.627,-0.466266,0.0760079,0.0381325,-0.142402,0.0667863,0.470057,-0.202429,-0.265904,1.70953e-06,5.96616e-06,1.88077e-05,0.463511,0.6000853954856136,1.7095314612802781e-06,5.966177797578354e-06,-0.18325553060311772,1.880787686592278e-05,-0.23348729081087627
611,0.6011,884.986,0.498975,-0.0540684,-0.0174309,0.124641,-0.0768821,0.470681,-0.202696,-0.266259,8.69537e-07,1.02024e-05,1.68607e-05,0.464132,0.6010841603546278,8.695373781009152e-07,1.0202452044749677e-05,-0.18347357226658922,1.6860842142474297e-05,-0.2337593545284713
612,0.6021,884.627,-0.465915,0.0760963,0.0379976,-0.142164,0.0667689,0.471306,-0.202973,-0.266608,1.73208e-06,5.93877e-06,1.88197e-05,0.464753,0.602085150731758,1.7320815000054779e-06,5.938787634551801e-06,-0.18369971876433544,1.8819877091624804e-05,-0.2340267258547306
613,0.6031,884.986,0.498162,-0.0541853,-0.0174369,0.12457,-0.0768434,0.47193,-0.20324,-0.266963,8.93437e-07,1.01731e-05,1.68735e-05,0.465374,0.6030851638374553,8.934373991742461e-07,1.0173151746117881e-05,-0.1839176418453995,1.6873642358250507e-05,-0.23429859810687215
614,0.6041,884.628,-0.464857,0.076091,0.0378231,-0.141732,0.0666463,0.472553,-0.203517,-0.267312,1.75372e-06,5.9151e-06,1.883e-05,0.465995,0.6040841970610622,1.7537215377672055e-06,5.9151174942595475e-06,-0.18414366535290727,1.8830177285655836e-05,-0.23456578126995897
615,0.6051,884.985,0.496643,-0.054206,-0.0174018,0.124303,-0.0766993,0.473177,-0.203783,-0.267666,9.17668e-07,1.01413e-05,1.68876e-05,0.466614,0.6050854579609402,9.176684210299157e-07,1.0141351423076372e-05,-0.184360654277117,1.688774259633874e-05,-0.234836697028471
616,0.6061,884.628,-0.463102,0.0759875,0.0376095,-0.141108,0.0664194,0.473799,-0.20406,-0.268015,1.77446e-06,5.89511e-06,1.88387e-05,0.467235,0.6060841316711183,1.7744615743442438e-06,5.8951273762541945e-06,-0.1845865550871757,1.8838877449356417e-05,-0.23510369242780083
617,0.6071,884.984,0.494426,-0.0541284,-0.0173259,0.123841,-0.0764501,0.474422,-0.204326,-0.268369,9.42229e-07,1.0107e-05,1.6903e-05,0.467853,0.6070850338337996,9.422294438010681e-07,1.0107051075847195e-05,-0.1848034262183833,1.690314285651695e-05,-0.23537441779946344
618,0.6081,884.629,-0.460656,0.075789,0.0373579,-0.140294,0.0660889,0.475044,-0.204602,-0.268717,1.79432e-06,5.87877e-06,1.88459e-05,0.468473,0.6080849516670528,1.7943216097382475e-06,5.8787872800891705e-06,-0.1850283894263962,1.8846077585177312e-05,-0.23564046120783122
619,0.6091,884.983,0.491522,-0.0539549,-0.0172096,0.123187,-0.0760972,0.475666,-0.204868,-0.26907,9.67117e-07,1.00702e-05,1.69196e-05,0.469091,0.6090854916426642,9.671174676650907e-07,1.0070250704652395e-05,-0.1852451430452995,1.6919743137222554e-05,-0.23591023250758913
620,0.6101,884.631,-0.45753,0.0754969,0.0370692,-0.139295,0.0656566,0.476287,-0.205144,-0.269418,1.81331e-06,5.86601e-06,1.88515e-05,0.469709,0.6100850440618784,1.813311643950044e-06,5.86602720509255e-06,-0.1854699843562907,1.8851677690667756e-05,-0.23617608948487945
621,0.6111,884.982,0.487944,-0.0536876,-0.0170537,0.122344,-0.0756425,0.476908,-0.20541,-0.269771,9.92333e-07,1.0031e-05,1.69375e-05,0.470327,0.6110852173959185,9.923334922667948e-07,1.0031050310610468e-05,-0.18568662052656393,1.693764344024018e-05,-0.23644567174122366
622,0.6121,884.632,-0.453739,0.0751131,0.0367445,-0.138114,0.0651246,0.477528,-0.205685,-0.270119,1.83146e-06,5.85675e-06,1.88557e-05,0.470945,0.6120843999452872,1.8314616772041603e-06,5.856767150813624e-06,-0.18591052591751678,1.88558777698411e-05,-0.23671134241807879
623,0.6131,884.98,0.483707,-0.0533245,-0.0168587,0.121316,-0.0750882,0.478148,-0.20595,-0.270471,1.01787e-06,9.98945e-06,1.69565e-05,0.471561,0.613084202179919,1.0178705180940995e-06,9.98949989461373e-06,-0.18612623104595682,1.6956643762222612e-05,-0.23697997274383664
624,0.6141,884.634,-0.449299,0.0746385,0.0363852,-0.136756,0.0644949,0.478768,-0.206225,-0.270818,1.84879e-06,5.8509e-06,1.88583e-05,0.472178,0.614084624484138,1.8487917090581618e-06,5.850917116578813e-06,-0.18635001556063813,1.885847781890604e-05,-0.23724469476136822
625,0.6151,884.978,0.478831,-0.0528698,-0.0166258,0.120108,-0.0744365,0.479388,-0.20649,-0.27117,1.04372e-06,9.94552e-06,1.69767e-05,0.472794,0.6150856672425065,1.0437205446578446e-06,9.945569456881742e-06,-0.18656560423975288,1.697684410495448e-05,-0.23751313738013957
626,0.6161,884.636,-0.444234,0.074072,0.0359927,-0.135228,0.0637704,0.480007,-0.206765,-0.271517,1.86534e-06,5.84837e-06,1.88595e-05,0.47341,0.6160857147533028,1.8653417397374028e-06,5.848387101714536e-06,-0.1867892679434182,1.8859677841431832e-05,-0.23777767442163755
627,0.6171,884.976,0.473338,-0.0523238,-0.0163562,0.118724,-0.0736903,0.480625,-0.20703,-0.271868,1.06988e-06,9.89932e-06,1.6998e-05,0.474025,0.6170847643995643,1.0698805723574623e-06,9.89936899853383e-06,-0.18700474023607339,1.69981444668732e-05,-0.23804516751013227
628,0.6181,884.638,-0.438564,0.0734176,0.0355689,-0.133536,0.0629541,0.481243,-0.207304,-0.272214,1.88114e-06,5.84903e-06,1.88593e-05,0.474641,0.6180844316493268,1.8811417692443655e-06,5.849047105543903e-06,-0.18722747042181986,1.8859477837640526e-05,-0.2383087582783412
629,0.6191,884.974,0.467247,-0.051693,-0.0160513,0.117173,-0.0728531,0.481861,-0.207569,-0.272565,1.09633e-06,9.85092e-06,1.70204e-05,0.475255,0.6190847168843876,1.096330600969253e-06,9.850968520463965e-06,-0.18744282660620337,1.7020544847756724e-05,-0.23857606498911332
630,0.6201,884.64,-0.432313,0.0726798,0.0351151,-0.131687,0.0620495,0.482479,-0.207842,-0.272911,1.89622e-06,5.85276e-06,1.88578e-05,0.47587,0.6200856204867795,1.8962217978035767e-06,5.852777127390851e-06,-0.18766462443775833,1.8857977809538795e-05,-0.23883947209856937
631,0.6211,884.971,0.460587,-0.05098,-0.0157121,0.115459,-0.0719287,0.483096,-0.208107,-0.273262,1.12307e-06,9.80041e-06,1.70438e-05,0.476484,0.6210855217524396,1.1230706307152616e-06,9.800458024233905e-06,-0.18787986479167584,1.7043945246486558e-05,-0.23910659256147904
632,0.6221,884.643,-0.425511,0.0718585,0.0346333,-0.129689,0.0610609,0.483712,-0.20838,-0.273607,1.91062e-06,5.85942e-06,1.8855e-05,0.477098,0.622084418062316,1.9106218251963014e-06,5.859437166355619e-06,-0.1881015433280907,1.885517775668255e-05,-0.23936905550958343
633,0.6231,884.968,0.453389,-0.050181,-0.0153404,0.113592,-0.0709211,0.484329,-0.208644,-0.273957,1.15008e-06,9.74789e-06,1.70683e-05,0.47771,0.6230855529666184,1.1500806613717884e-06,9.747937510740101e-06,-0.18831585623010427,1.7068445664181198e-05,-0.23963522975694462
634,0.6241,884.646,-0.418182,0.0709611,0.0341254,-0.12755,0.0599917,0.484945,-0.208917,-0.274302,1.92438e-06,5.86886e-06,1.88509e-05,0.478324,0.6240856816752627,1.924381851647894e-06,5.868877221759661e-06,-0.18853741575710192,1.8851077679293837e-05,-0.2398975103566735
635,0.6251,884.965,0.445679,-0.0493091,-0.014938,0.111578,-0.0698342,0.48556,-0.209181,-0.274652,1.17735e-06,9.69345e-06,1.70936e-05,0.478936,0.6250848015673687,1.1773506931600508e-06,9.693496981544314e-06,-0.18875161360398218,1.709374609637493e-05,-0.2401634996772023
636,0.6261,884.649,-0.410359,0.069989,0.0335933,-0.125279,0.0588472,0.486175,-0.209454,-0.274996,1.93754e-06,5.88092e-06,1.88457e-05,0.479548,0.6260845361071932,1.937541876939619e-06,5.88093729270156e-06,-0.18897305418545363,1.8845877581386006e-05,-0.24042483848046203
637,0.6271,884.962,0.437489,-0.0483628,-0.0145063,0.109427,-0.0686732,0.48679,-0.209718,-0.275345,1.20487e-06,9.63721e-06,1.71198e-05,0.480159,0.6270848856728608,1.2048707258571767e-06,9.63725643798874e-06,-0.1891871370389686,1.7119946544630338e-05,-0.24068988395870616
638,0.6281,884.652,-0.402074,0.0689473,0.033039,-0.122884,0.0576314,0.487404,-0.20999,-0.275689,1.95014e-06,5.89544e-06,1.88394e-05,0.480771,0.6280842225576921,1.950141901518876e-06,5.895457378057856e-06,-0.18940764814682387,1.8839577462514967e-05,-0.24095104171691462
639,0.6291,884.959,0.428855,-0.047347,-0.0140474,0.107146,-0.0674427,0.488018,-0.210253,-0.276038,1.23261e-06,9.57928e-06,1.71468e-05,0.481382,0.6290841732237822,1.2326107596827285e-06,9.579325881414746e-06,-0.18962080590388752,1.7146947007162794e-05,-0.24121590358227152
640,0.6301,884.655,-0.39336,0.0678398,0.0324645,-0.120376,0.0563495,0.488632,-0.210525,-0.276382,1.96222e-06,5.91224e-06,1.8832e-05,0.481993,0.6300847380481087,1.9622219251669293e-06,5.912257477369565e-06,-0.1898411990698523,1.883217732312481e-05,-0.24147688042084947
641,0.6311,884.955,0.419809,-0.0462661,-0.0135633,0.104747,-0.0661475,0.489245,-0.210788,-0.27673,1.26056e-06,9.51979e-06,1.71746e-05,0.482602,0.6310842863227784,1.2605607944138342e-06,9.519835313387404e-06,-0.19005424281801608,1.717474748419434e-05,-0.24174080054169844
642,0.6321,884.659,-0.384256,0.066667,0.031872,-0.117764,0.0550064,0.489858,-0.21106,-0.277073,1.97383e-06,5.93116e-06,1.88237e-05,0.483213,0.6320844475083784,1.973831948109961e-06,5.931177589291181e-06,-0.19027451810517237,1.882387716700684e-05,-0.24200083884799373
643,0.6331,884.952,0.410387,-0.0451244,-0.0130562,0.102238,-0.0647927,0.490471,-0.211323,-0.277421,1.28869e-06,9.45885e-06,1.7203e-05,0.483822,0.6330852219807386,1.2886908302700562e-06,9.458894735026036e-06,-0.19048744790541472,1.7203147972377764e-05,-0.24226457666303314
644,0.6341,884.662,-0.37479,0.0654404,0.0312638,-0.115057,0.0536073,0.491083,-0.211593,-0.277764,1.98502e-06,5.952e-06,1.88145e-05,0.484431,0.6340849760301255,1.985021970130063e-06,5.952017713140023e-06,-0.19070598679040307,1.8814676993716972e-05,-0.24252443534492607
645,0.6351,884.948,0.400622,-0.0439317,-0.0125277,0.0996293,-0.0633842,0.491695,-0.211856,-0.278111,1.317e-06,9.39661e-06,1.7232e-05,0.48504,0.635085342116255,1.3170008672513944e-06,9.396654148341455e-06,-0.19091880312930198,1.723214847171306e-05,-0.24278723376769806
646,0.6361,884.666,-0.365003,0.0641599,0.0306416,-0.112266,0.0521581,0.492306,-0.212127,-0.278454,1.99581e-06,5.97458e-06,1.88045e-05,0.485648,0.6360846845283052,1.99581199167298e-06,5.9745978477909745e-06,-0.19113803442647148,1.8804676805705967e-05,-0.24304691320894567
647,0.6371,884.944,0.390555,-0.0426856,-0.01198,0.0969308,-0.061927,0.492917,-0.212389,-0.278801,1.34547e-06,9.33319e-06,1.72615e-05,0.486256,0.6370846377251451,1.3454709051341496e-06,9.333233554453813e-06,-0.19134992850211574,1.7261648980637645e-05,-0.2433095303633508
648,0.6381,884.67,-0.354933,0.0628302,0.0300078,-0.109402,0.0506635,0.493528,-0.212659,-0.279143,2.00628e-06,5.99873e-06,1.87937e-05,0.486864,0.638085202080078,2.006282012523286e-06,5.998747992341791e-06,-0.19156823454877758,1.879387660275178e-05,-0.24356827425623884
649,0.6391,884.94,0.380222,-0.0413923,-0.0114157,0.0941531,-0.0604265,0.494138,-0.212922,-0.279489,1.37406e-06,9.26873e-06,1.72915e-05,0.487471,0.6390847388810772,1.374060943915012e-06,9.26877295470696e-06,-0.1917808241463338,1.7291649498929473e-05,-0.2438299543600776
650,0.6401,884.673,-0.344612,0.0614617,0.0293647,-0.106473,0.049129,0.494748,-0.213191,-0.279831,2.01645e-06,6.02424e-06,1.87823e-05,0.488078,0.6400848855855266,2.0164520331267255e-06,6.024258145664874e-06,-0.19199820586548644,1.8782476388423675e-05,-0.2440885202983908
651,0.6411,884.937,0.369662,-0.0400571,-0.0108365,0.091306,-0.0588885,0.495358,-0.213454,-0.280177,1.40276e-06,9.20337e-06,1.73219e-05,0.488684,0.6410856425655809,1.4027609838151989e-06,9.203412351110885e-06,-0.19221068239545536,1.732205002502596e-05,-0.24435002042823628
652,0.6421,884.677,-0.33408,0.0600515,0.028714,-0.103492,0.0475606,0.495967,-0.213723,-0.280518,2.02637e-06,6.05093e-06,1.87703e-05,0.48929,0.6420853681074323,2.026372053043346e-06,6.050948306857151e-06,-0.19242794849829004,1.877047616316574e-05,-0.24460765314239596
653,0.6431,884.932,0.358904,-0.0386934,-0.0102447,0.0884001,-0.0573183,0.496576,-0.213985,-0.280863,1.43156e-06,9.13724e-06,1.73526e-05,0.489896,0.6430857026675665,1.4315610246118382e-06,9.137281744786563e-06,-0.192639504660716,1.735275055714247e-05,-0.24486821855194418
654,0.6441,884.681,-0.323375,0.0586085,0.0280579,-0.100466,0.0459636,0.497184,-0.214254,-0.281205,2.03609e-06,6.07862e-06,1.87578e-05,0.490502,0.6440850025311631,2.0360920729434184e-06,6.078638474793507e-06,-0.19285665542587493,1.875797592854056e-05,-0.2451264294646166
655,0.6451,884.928,0.347993,-0.0372945,-0.00964251,0.0854457,-0.0557218,0.497792,-0.214515,-0.281549,1.46042e-06,9.0705e-06,1.73835e-05,0.491106,0.6450849101538167,1.460421066523665e-06,9.070541137079502e-06,-0.1930672923494945,1.7383651093938468e-05,-0.24538606131364238
656,0.6461,884.685,-0.312529,0.0571398,0.0273985,-0.0974074,0.0443432,0.4984,-0.214784,-0.28189,2.04565e-06,6.10712e-06,1.87449e-05,0.491711,0.6460854259051574,2.045652092386163e-06,6.107138648570043e-06,-0.19328432805524132,1.8745075686776858e-05,-0.24564334079808925
657,0.6471,884.924,0.336962,-0.035872,-0.00903193,0.0824526,-0.0541041,0.499007,-0.215045,-0.282234,1.48933e-06,9.00326e-06,1.74145e-05,0.492315,0.6470849030693131,1.4893311091057626e-06,9.003300529553115e-06,-0.19349485337087013,1.741465163318523e-05,-0.2459027948601975
658,0.6481,884.69,-0.301581,0.0556488,0.0267376,-0.0943247,0.0427052,0.499614,-0.215313,-0.282575,2.05508e-06,6.13625e-06,1.87316e-05,0.492919,0.648084987100273,2.055082111596107e-06,6.136268826839597e-06,-0.1937109677895411,1.8731775437430542e-05,-0.24615989816854478
659,0.6491,884.92,0.325847,-0.034427,-0.00841496,0.0794308,-0.0524709,0.500221,-0.215575,-0.282919,1.51828e-06,8.93566e-06,1.74457e-05,0.493523,0.6490856783665169,1.5182811525793483e-06,8.935699923107165e-06,-0.19392218784494475,1.7445852177111476e-05,-0.24641917456547768
660,0.6501,884.694,-0.290566,0.0541384,0.0260772,-0.0912279,0.0410542,0.500827,-0.215842,-0.283259,2.06444e-06,6.16584e-06,1.8718e-05,0.494126,0.6500853271505964,2.0644421310223038e-06,6.16585900892197e-06,-0.19413738189110663,1.871817518295238e-05,-0.24667534849408979
661,0.6511,884.916,0.314683,-0.0329684,-0.00779402,0.0763904,-0.0508268,0.501433,-0.216103,-0.283602,1.54722e-06,8.86786e-06,1.74769e-05,0.494729,0.6510855819054295,1.547221196940285e-06,8.867899319531247e-06,-0.19434768458873708,1.74770527219259e-05,-0.24693369454067648
662,0.6521,884.698,-0.279514,0.0526163,0.025419,-0.0881262,0.0393961,0.502038,-0.21637,-0.283942,2.07376e-06,6.1957e-06,1.87042e-05,0.495331,0.652084790912729,2.0737621502231463e-06,6.1957191934691735e-06,-0.19456276504243364,1.870437492468291e-05,-0.24718969356223286
663,0.6531,884.912,0.3035,-0.0315011,-0.00717071,0.0733403,-0.0491775,0.502643,-0.216631,-0.284285,1.57615e-06,8.79995e-06,1.7508e-05,0.495933,0.6530846046243826,1.5761512421885726e-06,8.799988719720986e-06,-0.1947729567295492,1.7508153265843873e-05,-0.24744786321871381
664,0.6541,884.702,-0.268461,0.051086,0.0247648,-0.0850281,0.0377354,0.503248,-0.216898,-0.284624,2.08307e-06,6.22568e-06,1.86903e-05,0.496535,0.6540850234063471,2.083072169645206e-06,6.225699379580618e-06,-0.19498792365074136,1.8690474664850854e-05,-0.24770293515594655
665,0.6551,884.908,0.292334,-0.0300263,-0.00654691,0.0702896,-0.0475278,0.503852,-0.217159,-0.284966,1.60506e-06,8.73208e-06,1.7539e-05,0.497136,0.6550843925395804,1.6050612881013393e-06,8.732118124799015e-06,-0.19519800438593993,1.7539153809087438e-05,-0.24796017676130133
666,0.6561,884.706,-0.257441,0.0495503,0.0241161,-0.0819424,0.0360769,0.504456,-0.217425,-0.285305,2.09241e-06,6.25562e-06,1.86763e-05,0.497737,0.6560843654741002,2.092412189069748e-06,6.255639566354887e-06,-0.19541205324701272,1.8676474403234167e-05,-0.24821507505367757
667,0.6571,884.903,0.281215,-0.0285492,-0.00592479,0.0672476,-0.0458822,0.50506,-0.217686,-0.285647,1.63391e-06,8.66437e-06,1.75699e-05,0.498338,0.6570849425747118,1.63391133489732e-06,8.664407535663443e-06,-0.1956220232988315,1.7570054351656594e-05,-0.24847214153713493
668,0.6581,884.71,-0.246479,0.0480159,0.0234749,-0.0788777,0.0344248,0.505663,-0.217951,-0.285986,2.10183e-06,6.28536e-06,1.86623e-05,0.498938,0.6580844661211473,2.101832208944998e-06,6.285379752890563e-06,-0.19583515522143036,1.8662474141839525e-05,-0.24872686630286667
669,0.6591,884.899,0.270175,-0.0270743,-0.00530605,0.0642222,-0.0442451,0.506266,-0.218212,-0.286327,1.66269e-06,8.59693e-06,1.76005e-05,0.499538,0.6590845925620359,1.6626913823536427e-06,8.596966953655638e-06,-0.1960450148580436,1.7600654889760037e-05,-0.24898300676702623
670,0.6601,884.714,-0.235608,0.0464867,0.0228422,-0.0758413,0.0327844,0.506869,-0.218477,-0.286666,2.11134e-06,6.31475e-06,1.86483e-05,0.500138,0.6600853222610321,2.111342228827695e-06,6.314769938065012e-06,-0.19625803470273018,1.8648473880666927e-05,-0.24923755837879624
671,0.6611,884.895,0.259235,-0.0256122,-0.00469212,0.0612218,-0.0426215,0.507471,-0.218737,-0.287006,1.69138e-06,8.52987e-06,1.76308e-05,0.500737,0.6610849944961856,1.6913814304686525e-06,8.529906379450836e-06,-0.19646698044958333,1.7630955423397765e-05,-0.24949277421979588
672,0.6621,884.718,-0.224853,0.0449661,0.0222194,-0.0728407,0.0311596,0.508073,-0.219002,-0.287344,2.12098e-06,6.34367e-06,1.86345e-05,0.501336,0.6620852687152037,2.120982249387282e-06,6.343690121202172e-06,-0.19667988848820317,1.8634673623285636e-05,-0.24974640279646543
673,0.6631,884.891,0.248427,-0.0241563,-0.00408468,0.0582535,-0.041015,0.508674,-0.219262,-0.287685,1.71997e-06,8.4633e-06,1.76608e-05,0.501934,0.6630844821952757,1.7199714792415222e-06,8.463335813724271e-06,-0.19688872456732953,1.7660955952791824e-05,-0.25000219565795034
674,0.6641,884.722,-0.21424,0.0434554,0.021608,-0.0698826,0.0295534,0.509275,-0.219527,-0.288022,2.13078e-06,6.37197e-06,1.86208e-05,0.502532,0.6640842963831444,2.130782270182152e-06,6.371990300957364e-06,-0.19710152085856525,1.8620973368133065e-05,-0.25025490233454695
675,0.6651,884.887,0.237778,-0.0227151,-0.00348555,0.0553245,-0.0394287,0.509876,-0.219787,-0.288362,1.74844e-06,8.39732e-06,1.76904e-05,0.50313,0.6650847116399425,1.7484415284485522e-06,8.397355257594441e-06,-0.19731024732752522,1.7690556476157582e-05,-0.25050977233739746
676,0.6661,884.726,-0.203787,0.0419689,0.0210093,-0.0669736,0.0279704,0.510477,-0.220051,-0.2887,2.14076e-06,6.39954e-06,1.86073e-05,0.503727,0.6660857283270218,2.1407622914360047e-06,6.399560477099442e-06,-0.19752212945255965,1.86074731167718e-05,-0.2507630572267898
677,0.6671,884.883,0.227303,-0.0212943,-0.00289542,0.0524413,-0.0378679,0.511077,-0.22031,-0.289039,1.77678e-06,8.33202e-06,1.77195e-05,0.504324,0.6670856797194373,1.7767815785330043e-06,8.332054711290837e-06,-0.19772994430784596,1.771965699126632e-05,-0.25101700550372497
678,0.6681,884.729,-0.193526,0.0404989,0.0204235,-0.0641188,0.0264144,0.511676,-0.220574,-0.289376,2.15094e-06,6.42627e-06,1.8594e-05,0.504921,0.6680845631773182,2.150942313372539e-06,6.426290648509081e-06,-0.19794171564750185,1.8594172869423886e-05,-0.25126937024702256
679,0.6691,884.88,0.217028,-0.0198956,-0.00231583,0.0496098,-0.0363346,0.512276,-0.220833,-0.289715,1.80498e-06,8.26747e-06,1.77482e-05,0.505517,0.669085714230506,1.804981629049962e-06,8.26750417570743e-06,-0.1981494218440356,1.7748357500124712e-05,-0.25152314691293365
680,0.6701,884.733,-0.183473,0.0390482,0.0198523,-0.0613245,0.0248873,0.512874,-0.221097,-0.290051,2.16136e-06,6.45206e-06,1.85811e-05,0.506113,0.6700841259829771,2.1613623357730205e-06,6.4520808145118735e-06,-0.19836108245623874,1.8581272629658585e-05,-0.25177459289028103
681,0.6711,884.876,0.206971,-0.0185203,-0.00174819,0.0468357,-0.0348318,0.513473,-0.221356,-0.29039,1.83301e-06,8.20377e-06,1.77763e-05,0.506709,0.6710848060481998,1.8330116799969431e-06,8.203803651074537e-06,-0.1985686800508335,1.7776457999385542e-05,-0.2520281983147431
682,0.6721,884.737,-0.173639,0.0376315,0.0192964,-0.0585949,0.0233926,0.514071,-0.221619,-0.290726,2.17202e-06,6.47681e-06,1.85685e-05,0.507304,0.6720844136150903,2.1720223588594934e-06,6.4768309746554564e-06,-0.19877942877330845,1.8568672395691266e-05,-0.25227947462332545
683,0.6731,884.872,0.197144,-0.0171787,-0.00119297,0.0441234,-0.0333631,0.514669,-0.221878,-0.291064,1.86088e-06,8.14097e-06,1.78039e-05,0.507899,0.6730846191260738,1.860881731374775e-06,8.141003137840386e-06,-0.1989869180302375,1.7804058490389352e-05,-0.2525321614544227
684,0.6741,884.74,-0.164054,0.0362342,0.0187561,-0.0559341,0.0219333,0.515267,-0.22214,-0.2914,2.18293e-06,6.50044e-06,1.85563e-05,0.508493,0.6740854229388269,2.182932382632785e-06,6.500461127822987e-06,-0.19919675596774333,1.855647216930656e-05,-0.2527832684598347
685,0.6751,884.869,0.187575,-0.0158598,-0.000651709,0.0414782,-0.0319297,0.515864,-0.222399,-0.291737,1.88857e-06,8.07915e-06,1.78309e-05,0.509087,0.6750851503252533,1.8885717834038473e-06,8.079182636455684e-06,-0.1994041371509252,1.783105897135151e-05,-0.25303503807280114
686,0.6761,884.744,-0.154723,0.0348714,0.0182329,-0.053347,0.0205101,0.516461,-0.222661,-0.292073,2.19414e-06,6.52286e-06,1.85445e-05,0.509681,0.676085474727121,2.1941424070970328e-06,6.52288127400702e-06,-0.1996138657913401,1.854467195028242e-05,-0.25328597614005255
687,0.6771,884.865,0.178268,-0.0145751,-0.000125181,0.038904,-0.0305345,0.517057,-0.22292,-0.29241,1.91607e-06,8.01836e-06,1.78572e-05,0.510275,0.6770847194153966,1.9160718356392437e-06,8.018392147146614e-06,-0.19982113895706644,1.785735944070943e-05,-0.2535375763690736
688,0.6781,884.747,-0.145655,0.0335456,0.0177268,-0.050836,0.0191266,0.517653,-0.223182,-0.292745,2.20564e-06,6.54402e-06,1.85331e-05,0.510868,0.6780845598310155,2.2056424324734536e-06,6.544041412093193e-06,-0.2000307583573192,1.853327173906294e-05,-0.2537875993997941
689,0.6791,884.862,0.169233,-0.0133263,0.000386358,0.0364033,-0.0291793,0.518249,-0.22344,-0.293082,1.94338e-06,7.95865e-06,1.78829e-05,0.511461,0.679084996329137,1.9433818883030085e-06,7.958681670139356e-06,-0.2002371237993763,1.78830599000257e-05,-0.2540390306102579
690,0.6801,884.75,-0.13687,0.0322501,0.0172379,-0.0484035,0.017784,0.518844,-0.223701,-0.293417,2.21743e-06,6.56387e-06,1.85222e-05,0.512053,0.6800843491799429,2.217432458540003e-06,6.563891542299416e-06,-0.20044583467211097,1.8522371536988658e-05,-0.2542888856819422
691,0.6811,884.859,0.160488,-0.0121125,0.000882081,0.0339797,-0.0278655,0.519439,-0.223959,-0.293753,1.97049e-06,7.90005e-06,1.7908e-05,0.512645,0.681084296822628,1.9704919413943145e-06,7.900081205436393e-06,-0.20065209303829223,1.7908160349078273e-05,-0.2545394025271662
692,0.6821,884.753,-0.128375,0.0309925,0.0167671,-0.046053,0.0164835,0.520034,-0.22422,-0.294087,2.22955e-06,6.58234e-06,1.85118e-05,0.513237,0.6820848396111991,2.229552485522035e-06,6.582361663731717e-06,-0.2008606956181883,1.8511971344503664e-05,-0.25478834479104984
693,0.6831,884.856,0.152035,-0.0109375,0.00136128,0.031636,-0.0265948,0.520628,-0.224478,-0.294423,1.99739e-06,7.84261e-06,1.79324e-05,0.513828,0.6830842948147366,1.9973919946902896e-06,7.842640753263908e-06,-0.20106684696405175,1.7932560786526608e-05,-0.2550386938462035
694,0.6841,884.756,-0.12017,0.0297749,0.0163145,-0.0437859,0.0152269,0.521222,-0.224739,-0.294757,2.24198e-06,6.5994e-06,1.85018e-05,0.514419,0.6840843438710218,2.2419825131958504e-06,6.5994217761655705e-06,-0.20127534130729874,1.8501971159379238e-05,-0.25528746937463287
695,0.6851,884.853,0.143881,-0.00979862,0.00182395,0.0293732,-0.0253683,0.521816,-0.224996,-0.295092,2.02409e-06,7.78635e-06,1.79561e-05,0.51501,0.6850849871329081,2.024092048413806e-06,7.786380313623553e-06,-0.2014805871693598,1.795626121170457e-05,-0.2555369062893764
696,0.6861,884.759,-0.112271,0.0285947,0.01588,-0.0416026,0.0140145,0.522409,-0.225257,-0.295426,2.25474e-06,6.61503e-06,1.84924e-05,0.5156,0.6860845388680765,2.254742542007193e-06,6.615051879377276e-06,-0.2016889735405042,1.8492570985406687e-05,-0.25578551544263606
697,0.6871,884.85,0.136032,-0.0086987,0.00226964,0.0271931,-0.0241863,0.523002,-0.225514,-0.295761,2.05058e-06,7.73128e-06,1.7979e-05,0.51619,0.6870846835132041,2.0505821023419912e-06,7.731309886516158e-06,-0.20189411311274008,1.7979161623271622e-05,-0.25603478553989023
698,0.6881,884.762,-0.104671,0.0274597,0.0154638,-0.0395052,0.0128476,0.523595,-0.225774,-0.296094,2.26783e-06,6.62919e-06,1.84835e-05,0.51678,0.6880854214199912,2.267832571511974e-06,6.62921197314148e-06,-0.2021015936696896,1.8483670821023424e-05,-0.25628248471210446
699,0.6891,884.847,0.128488,-0.00764477,0.00269821,0.0250969,-0.0230502,0.524187,-0.226031,-0.296428,2.07685e-06,7.67743e-06,1.80013e-05,0.517369,0.6890850638544375,2.076852156696063e-06,7.677459471500114e-06,-0.20230662721217774,1.8001462024352932e-05,-0.2565308448837531
700,0.6901,884.765,-0.0973762,0.026367,0.0150656,-0.0374936,0.0117268,0.524779,-0.226291,-0.296761,2.28124e-06,6.64188e-06,1.84752e-05,0.517958,0.690085298252409,2.2812426019314103e-06,6.641902057236138e-06,-0.20251400052940316,1.847537066756999e-05,-0.2567783788957064
701,0.6911,884.844,0.12125,-0.0066362,0.00310983,0.0230846,-0.0219602,0.52537,-0.226548,-0.297095,2.10292e-06,7.6248e-06,1.80229e-05,0.518546,0.6910844338791722,2.1029222110335866e-06,7.624829068797467e-06,-0.2027189280969467,1.8023062413385915e-05,-0.2570265734663546
702,0.6921,884.767,-0.0903979,0.0253055,0.0146855,-0.0355683,0.0106521,0.525961,-0.226807,-0.297428,2.29499e-06,6.65307e-06,1.84673e-05,0.519134,0.6920841601696148,2.2949926334892012e-06,6.6530921316587666e-06,-0.20292539715567237,1.846747052169917e-05,-0.25727394242817236
703,0.6931,884.842,0.114327,-0.00566091,0.00350365,0.0211576,-0.0209154,0.526552,-0.227063,-0.297761,2.12877e-06,7.5734e-06,1.80437e-05,0.519722,0.6930844774729223,2.1287722657969965e-06,7.573428678187e-06,-0.2031294221376886,1.804386278858594e-05,-0.2575212290298394
704,0.6941,884.77,-0.0837167,0.0243026,0.014324,-0.0337294,0.00962268,0.527143,-0.227322,-0.298094,2.30907e-06,6.66276e-06,1.846e-05,0.52031,0.6940853861384864,2.309072665962475e-06,6.662782196187322e-06,-0.2033357848922246,1.846017038675818e-05,-0.2577684332987774
705,0.6951,884.839,0.107712,-0.00472906,0.00388049,0.0193148,-0.0199176,0.527733,-0.227579,-0.298427,2.15442e-06,7.52321e-06,1.80638e-05,0.520897,0.6950851914298661,2.154422320765903e-06,7.523238299445012e-06,-0.20354050128832357,1.8063963151515594e-05,-0.2580155552623983
706,0.6961,884.772,-0.077355,0.0233237,0.0139801,-0.0319759,0.00863951,0.528323,-0.227837,-0.298759,2.32349e-06,6.67097e-06,1.84532e-05,0.521484,0.6960855867804183,2.323492699352059e-06,6.670992251045504e-06,-0.20374596133350575,1.8453370261406477e-05,-0.2582618532103296
707,0.6971,884.837,0.101406,-0.00383619,0.00423944,0.0175567,-0.0189638,0.528912,-0.228093,-0.299091,2.17985e-06,7.47425e-06,1.80832e-05,0.52207,0.6970848754526566,2.1798523759386512e-06,7.474277932351114e-06,-0.20394977627797828,1.808336350195283e-05,-0.25850806940091453
708,0.6981,884.774,-0.0712905,0.0223982,0.0136544,-0.0303076,0.00770126,0.529501,-0.228351,-0.299423,2.33824e-06,6.67768e-06,1.8447e-05,0.522656,0.6980847528792937,2.3382427336571254e-06,6.677702295787569e-06,-0.2041551307438334,1.8447170146984604e-05,-0.2587542038612921
709,0.6991,884.835,0.0953913,-0.00299924,0.00458174,0.0158816,-0.0180569,0.53009,-0.228608,-0.299755,2.20507e-06,7.42649e-06,1.81019e-05,0.523242,0.6990852194072086,2.205072431094024e-06,7.4265175764587354e-06,-0.2043596365951048,1.8102063840341742e-05,-0.2590002566185924
710,0.7001,884.776,-0.0655282,0.0215081,0.0133451,-0.0287222,0.00680974,0.530678,-0.228865,-0.300086,2.3533e-06,6.68293e-06,1.84413e-05,0.523827,0.7000845752980585,2.3533027690980646e-06,6.682952330860914e-06,-0.20456408989512542,1.844147004170793e-05,-0.2592454869457935
711,0.7011,884.833,0.0896798,-0.00219722,0.00490758,0.0142882,-0.0171944,0.531266,-0.229121,-0.300418,2.23011e-06,7.3799e-06,1.81199e-05,0.524412,0.7010845189829669,2.2301124866785926e-06,7.379927231543348e-06,-0.20476769542549245,1.812006416646028e-05,-0.2594913766241823
712,0.7021,884.778,-0.0600516,0.0206684,0.0130528,-0.0272187,0.00596199,0.531854,-0.229378,-0.300749,2.36869e-06,6.68674e-06,1.84361e-05,0.524997,0.7020850508076579,2.3686928054544865e-06,6.686762356267195e-06,-0.2049720438678685,1.8436269946020545e-05,-0.2597364444175624
713,0.7031,884.831,0.0842678,-0.00142638,0.00521725,0.012775,-0.0163764,0.532441,-0.229634,-0.30108,2.25495e-06,7.33446e-06,1.81372e-05,0.525582,0.7030844680327402,2.254952542468658e-06,7.334486897159209e-06,-0.20517554497538515,1.8137364480086404e-05,-0.2599814311069264
714,0.7041,884.78,-0.0548735,0.0198606,0.012777,-0.0257957,0.00515746,0.533028,-0.229891,-0.30141,2.38438e-06,6.68912e-06,1.84314e-05,0.526166,0.7040844720879513,2.384382842723909e-06,6.689142372229284e-06,-0.20537978861389483,1.8431569859256314e-05,-0.26022559694508196
715,0.7051,884.829,0.0791419,-0.000699,0.00550996,0.0113418,-0.0156,0.533615,-0.230146,-0.301741,2.27958e-06,7.29017e-06,1.81539e-05,0.526749,0.7050850633178618,2.2795825982413476e-06,7.290196573306318e-06,-0.2055823909349045,1.8154064783004742e-05,-0.2604704217517524
716,0.7061,884.782,-0.0499837,0.0190871,0.012518,-0.0244522,0.00439499,0.534201,-0.230403,-0.302071,2.4004e-06,6.69008e-06,1.84272e-05,0.527333,0.7060845359818555,2.400402880908814e-06,6.690102378525964e-06,-0.2057865300274372,1.8427369781859326e-05,-0.2607144262496178
717,0.7071,884.827,0.0742931,-1.75597e-05,0.00578654,0.00998651,-0.0148661,0.534787,-0.230658,-0.302402,2.30403e-06,7.247e-06,1.81699e-05,0.527916,0.7070845945084712,2.3040326542211886e-06,7.247026259538103e-06,-0.20598902864260948,1.8170065073652708e-05,-0.26095908928056377
718,0.7081,884.784,-0.0453603,0.0183637,0.0122745,-0.0231853,0.00367502,0.535373,-0.230914,-0.302732,2.41671e-06,6.68968e-06,1.84235e-05,0.528498,0.708085239241125,2.416712920227937e-06,6.689702376050377e-06,-0.20619226943534552,1.8423669713607538e-05,-0.2612029325447497
719,0.7091,884.825,0.0697227,0.000637452,0.00604825,0.00870581,-0.0141738,0.535958,-0.231169,-0.303062,2.32831e-06,7.2049e-06,1.81852e-05,0.529081,0.7090847614378186,2.3283127104090084e-06,7.204925955406338e-06,-0.20639466460015932,1.8185365351808258e-05,-0.2614466953539343
720,0.7101,884.785,-0.0410126,0.0176681,0.0120459,-0.0219921,0.00299512,0.536543,-0.231425,-0.303391,2.43332e-06,6.68795e-06,1.84202e-05,0.529663,0.710084868526061,2.4333229604600604e-06,6.687972364360917e-06,-0.20659780156338092,1.8420369652938362e-05,-0.2616896394246718
721,0.7111,884.824,0.0654157,0.00124814,0.00629464,0.00749852,-0.0135204,0.537128,-0.23168,-0.303721,2.3524e-06,7.16384e-06,1.82e-05,0.530244,0.7110855608481146,2.352402766803152e-06,7.163865660464452e-06,-0.20680009333068572,1.8200165621040654e-05,-0.2619332416470843
722,0.7121,884.787,-0.0369155,0.0170206,0.0118322,-0.0208719,0.00235464,0.537712,-0.231935,-0.304049,2.45021e-06,6.6849e-06,1.84174e-05,0.530826,0.712085126660458,2.450213001825574e-06,6.6849223439025e-06,-0.2070023335201664,1.8417569601414385e-05,-0.26217528784607746
723,0.7131,884.822,0.061359,0.00181824,0.00652718,0.00636176,-0.0129075,0.538296,-0.23219,-0.304379,2.37634e-06,7.12378e-06,1.8214e-05,0.531407,0.7130852763897231,2.3763428234069295e-06,7.1238053742650465e-06,-0.20720452214497354,1.8214165875996002e-05,-0.2624187298309515
724,0.7141,884.788,-0.0330772,0.0163996,0.0116317,-0.0198204,0.00175338,0.538879,-0.232445,-0.304707,2.46737e-06,6.68061e-06,1.8415e-05,0.531987,0.7140842962918634,2.4673730438795616e-06,6.680632315347879e-06,-0.2074066592182543,1.8415169557250977e-05,-0.2626606168159328
725,0.7151,884.821,0.0575511,0.00235406,0.00674559,0.00529365,-0.0123309,0.539463,-0.232699,-0.305036,2.40011e-06,7.0847e-06,1.82276e-05,0.532568,0.7150856138771742,2.4001128802186855e-06,7.084725096584421e-06,-0.20760795236150154,1.8227766123812827e-05,-0.2629031615722002
726,0.7161,884.789,-0.0294837,0.015814,0.0114452,-0.0188361,0.00118791,0.540045,-0.232954,-0.305364,2.4848e-06,6.67509e-06,1.8413e-05,0.533148,0.7160840842311398,2.484803087066112e-06,6.6751122784758365e-06,-0.2078099865731925,1.841316952022609e-05,-0.263144889689626
727,0.7171,884.819,0.0539819,0.00285507,0.00695041,0.00429151,-0.0117903,0.540628,-0.233208,-0.305693,2.42374e-06,7.04655e-06,1.82405e-05,0.533727,0.7170848529479816,2.4237429372409025e-06,7.04657482697435e-06,-0.20801117728430096,1.8240666358915192e-05,-0.2633872751463242
728,0.7181,884.79,-0.0261107,0.0152783,0.0112714,-0.0179168,0.000658867,0.54121,-0.233462,-0.306021,2.50249e-06,6.66838e-06,1.84115e-05,0.534307,0.7180844871977474,2.5024931311623533e-06,6.668402233733772e-06,-0.2082123168994583,1.8411669492790494e-05,-0.26362884450053636
729,0.7191,884.818,0.0506455,0.00333047,0.007143,0.00335254,-0.0112861,0.541792,-0.233716,-0.306349,2.44722e-06,7.00928e-06,1.82529e-05,0.534885,0.7190847034039796,2.447222994472753e-06,7.009304564986607e-06,-0.2084134054316411,1.8253066585094402e-05,-0.26387033463299336
730,0.7201,884.792,-0.0229714,0.0147595,0.0111099,-0.0170591,0.000163274,0.542374,-0.23397,-0.306676,2.52043e-06,6.66054e-06,1.84103e-05,0.535464,0.7200855019054748,2.5204331763895027e-06,6.660562181348695e-06,-0.20861444289382292,1.841046947070879e-05,-0.2641110096810535
731,0.7211,884.817,0.0475177,0.00375911,0.0073228,0.00247423,-0.0108137,0.542955,-0.234224,-0.307004,2.47057e-06,6.97287e-06,1.82647e-05,0.536042,0.7210851619552059,2.470573051915892e-06,6.972894310619537e-06,-0.2088154292989738,1.8264866800565827e-05,-0.26435234168926514
732,0.7221,884.793,-0.0200394,0.0142793,0.0109598,-0.01626,-0.000298711,0.543536,-0.234478,-0.307331,2.5386e-06,6.65161e-06,1.84094e-05,0.53662,0.7220854029761816,2.5386032223018162e-06,6.651632121990048e-06,-0.2090163646600608,1.840956945398098e-05,-0.2645928591467852
733,0.7231,884.816,0.0446154,0.00417768,0.0074912,0.00165391,-0.0103739,0.544116,-0.234731,-0.307658,2.49379e-06,6.93726e-06,1.82761e-05,0.537198,0.7230845022206807,2.493793109570319e-06,6.9372840627579535e-06,-0.2092164582069007,1.8276267008898728e-05,-0.2648332979679545
734,0.7241,884.794,-0.0173163,0.0138224,0.0108213,-0.015518,-0.000730629,0.544696,-0.234984,-0.307985,2.557e-06,6.64162e-06,1.8409e-05,0.537775,0.7240841811108223,2.5570032691213385e-06,6.641642055660313e-06,-0.2094165011364768,1.840916944662041e-05,-0.2650736581784827
735,0.7251,884.815,0.0419058,0.00455782,0.00764761,0.0008896,-0.00996324,0.545276,-0.235237,-0.308311,2.51687e-06,6.90243e-06,1.82869e-05,0.538352,0.7250844399828991,2.5168731672131628e-06,6.90245382184429e-06,-0.2096164934615934,1.82870672063018e-05,-0.265313205117644
736,0.7261,884.794,-0.014783,0.0134021,0.0106937,-0.0148297,-0.00113293,0.545856,-0.235491,-0.308638,2.57563e-06,6.63062e-06,1.84088e-05,0.538929,0.7260852791733974,2.5756333168480694e-06,6.630641982585672e-06,-0.20981722537822145,1.840896944305115e-05,-0.2655534084241895
737,0.7271,884.814,0.0393805,0.00490587,0.00779391,0.000177176,-0.00958269,0.546435,-0.235743,-0.308964,2.53986e-06,6.86831e-06,1.82973e-05,0.539505,0.7270849719331647,2.5398632255146936e-06,6.868333586984576e-06,-0.21001632634965017,1.8297467396566347e-05,-0.26579279899026087
738,0.7281,884.795,-0.0124335,0.0130046,0.0105753,-0.0141915,-0.00150597,0.547014,-0.235996,-0.30929,2.59446e-06,6.61867e-06,1.84089e-05,0.540081,0.728085243682641,2.5944633657015714e-06,6.618691903437224e-06,-0.21021616693818324,1.840906944483578e-05,-0.266032111527727
739,0.7291,884.813,0.0370346,0.00522692,0.00793024,-0.000485326,-0.00922936,0.547592,-0.236249,-0.309616,2.56273e-06,6.83488e-06,1.83072e-05,0.540656,0.7290843656719286,2.5627332838062955e-06,6.834903357955113e-06,-0.21041595697344273,1.830736757790774e-05,-0.2662713460620211
740,0.7301,884.796,-0.0102551,0.012638,0.0104666,-0.0136018,-0.00185246,0.548171,-0.236501,-0.309942,2.61348e-06,6.60581e-06,1.84093e-05,0.541232,0.7300857954055839,2.613483415236928e-06,6.605831818440322e-06,-0.2106149070835187,1.8409469452196348e-05,-0.2665105026185681
741,0.7311,884.812,0.034863,0.00552946,0.00805713,-0.00110081,-0.00890235,0.548748,-0.236753,-0.310267,2.58552e-06,6.80208e-06,1.83167e-05,0.541807,0.7310843429627993,2.5855233425353674e-06,6.802103134306847e-06,-0.2108138070644835,1.831686775166652e-05,-0.26674884797199916
742,0.7321,884.797,-0.00825224,0.0122891,0.0103667,-0.0130574,-0.00217406,0.549326,-0.237006,-0.310593,2.63271e-06,6.59207e-06,1.841e-05,0.542381,0.732085198932543,2.6327134656778384e-06,6.5920917278194935e-06,-0.21101344591591653,1.8410169465132853e-05,-0.2669878488882943
743,0.7331,884.812,0.0328426,0.0057961,0.0081747,-0.00167129,-0.0085994,0.549903,-0.237258,-0.310918,2.6082e-06,6.76989e-06,1.83258e-05,0.542956,0.7330849004784874,2.608203401255338e-06,6.769912915816079e-06,-0.21121224547774897,1.8325967918508823e-05,-0.2672260391293949
744,0.7341,884.797,-0.00640215,0.0119578,0.0102749,-0.0125554,-0.00247098,0.55048,-0.23751,-0.311243,2.6521e-06,6.57751e-06,1.8411e-05,0.54353,0.7340851790186704,2.652103516798121e-06,6.577531631801747e-06,-0.21141099494840343,1.841116948342325e-05,-0.26746415197124507
745,0.7351,884.811,0.0309864,0.00605549,0.00828362,-0.00220007,-0.0083186,0.551056,-0.237761,-0.311568,2.6308e-06,6.73825e-06,1.83345e-05,0.544103,0.7350842998009468,2.630803460634823e-06,6.738272702033754e-06,-0.21160890594980164,1.8334668077990557e-05,-0.26770218743899576
746,0.7361,884.798,-0.00469013,0.0116668,0.0101919,-0.0120952,-0.002747,0.551633,-0.238013,-0.311892,2.67169e-06,6.56214e-06,1.84121e-05,0.544676,0.7360857323274321,2.671693569045175e-06,6.562161530832e-06,-0.21180755547461094,1.8412269503720324e-05,-0.2679394134975688
747,0.7371,884.81,0.0292647,0.0062831,0.0083847,-0.00268845,-0.00806185,0.552208,-0.238264,-0.312216,2.65333e-06,6.70715e-06,1.83428e-05,0.545249,0.7370842686752086,2.653333520008516e-06,6.707172492959046e-06,-0.21200536695180794,1.8342968230111723e-05,-0.268176562707349
748,0.7381,884.799,-0.00311537,0.0113951,0.0101153,-0.0116723,-0.00299951,0.552784,-0.238516,-0.312541,2.69142e-06,6.54604e-06,1.84135e-05,0.545822,0.7380851174307357,2.691423621969946e-06,6.546061425360961e-06,-0.2122039165810321,1.8413669529593335e-05,-0.26841436667923046
749,0.7391,884.81,0.0276768,0.00648689,0.00847865,-0.00313998,-0.00782545,0.553359,-0.238767,-0.312865,2.67579e-06,6.67652e-06,1.83507e-05,0.546394,0.7390848037555333,2.675793579820507e-06,6.676542287920029e-06,-0.21240162858407585,1.8350868375094365e-05,-0.26865136202910656
750,0.7401,884.799,-0.0016771,0.0111308,0.010045,-0.0112845,-0.00323145,0.553934,-0.239018,-0.313188,2.7113e-06,6.52924e-06,1.84151e-05,0.546966,0.74008506506526,2.7113036755732622e-06,6.529261315613155e-06,-0.2125992909676343,1.8415269559035607e-05,-0.2688875494928423
751,0.7411,884.809,0.026217,0.0066794,0.00856558,-0.00355706,-0.00760771,0.554508,-0.239269,-0.313512,2.69819e-06,6.64634e-06,1.83583e-05,0.547538,0.7410841606055958,2.6981936400716222e-06,6.6463620869150475e-06,-0.2127969037441605,1.8358468514723114e-05,-0.2691243915563204
752,0.7421,884.8,-0.000351418,0.0109013,0.00998179,-0.0109305,-0.00344621,0.555083,-0.23952,-0.313835,2.73133e-06,6.51175e-06,1.84168e-05,0.548109,0.7420855718760933,2.731333730077168e-06,6.511771201589411e-06,-0.21299446692610424,1.841696959026251e-05,-0.2693604262561916
753,0.7431,884.809,0.0248705,0.0068539,0.00864597,-0.00394095,-0.00740922,0.555656,-0.23977,-0.314159,2.72053e-06,6.61658e-06,1.83656e-05,0.54868,0.743084072952017,2.720533700539818e-06,6.6166018897195755e-06,-0.21319119371749917,1.8365768648553882e-05,-0.26959711513241613
754,0.7441,884.8,0.000864838,0.0106898,0.00992386,-0.0106069,-0.00364218,0.55623,-0.240021,-0.314482,2.7515e-06,6.49365e-06,1.84187e-05,0.549251,0.744084890417025,2.7515037854808355e-06,6.493671083740438e-06,-0.21338865794507877,1.841886962528072e-05,-0.26983299716722886
755,0.7451,884.808,0.0236401,0.00701348,0.00872024,-0.00429494,-0.00722659,0.556803,-0.240271,-0.314805,2.74282e-06,6.58719e-06,1.83726e-05,0.549821,0.7450845374307524,2.7428237614479656e-06,6.587211695663342e-06,-0.21358528620103645,1.83727687772528e-05,-0.2700688030244478
756,0.7461,884.8,0.00195068,0.0104673,0.00987214,-0.0103133,-0.0038231,0.557376,-0.240521,-0.315127,2.77181e-06,6.47494e-06,1.84207e-05,0.550391,0.7460847574063563,2.7718138415622207e-06,6.474960962510323e-06,-0.21378186530607413,1.842086966208356e-05,-0.2703038030328422
757,0.7471,884.808,0.0225133,0.00715563,0.00878763,-0.00461866,-0.0070587,0.557949,-0.240771,-0.31545,2.76504e-06,6.55818e-06,1.83793e-05,0.550961,0.7470855506722385,2.7650438227944107e-06,6.558201504969219e-06,-0.2139783952724782,1.8379468900375784e-05,-0.27053945684432323
758,0.7481,884.801,0.00295935,0.0102801,0.00982623,-0.0100475,-0.00398909,0.558521,-0.241021,-0.315772,2.79225e-06,6.45565e-06,1.84229e-05,0.55153,0.7480851694709445,2.792253898320496e-06,6.455670837679506e-06,-0.21417487611253183,1.8423069702677708e-05,-0.27077430532658453
759,0.7491,884.807,0.0214762,0.00728343,0.0088499,-0.00491656,-0.00690614,0.559093,-0.241271,-0.316094,2.78723e-06,6.52948e-06,1.83857e-05,0.552099,0.7490853602151641,2.7872338843604183e-06,6.529501317187325e-06,-0.21437130783851477,1.838586901792283e-05,-0.27100907819980824
760,0.7501,884.801,0.00386719,0.0101013,0.00978439,-0.00980538,-0.00414047,0.559664,-0.241521,-0.316416,2.8128e-06,6.43585e-06,1.84252e-05,0.552668,0.7500843731468958,2.812803955976051e-06,6.4358707101419554e-06,-0.2145676904627043,1.8425369745056486e-05,-0.27124377548833656
761,0.7511,884.807,0.0205259,0.00739841,0.00890757,-0.00519051,-0.00676706,0.560236,-0.24177,-0.316738,2.80938e-06,6.50105e-06,1.83919e-05,0.553236,0.7510857077627342,2.8093839463672055e-06,6.501071131870262e-06,-0.21476323876100567,1.8392069132122657e-05,-0.2714783972165039
762,0.7521,884.801,0.00470488,0.00994186,0.00974667,-0.0095864,-0.00427841,0.560806,-0.24202,-0.317059,2.83346e-06,6.41556e-06,1.84276e-05,0.553804,0.7520841111340881,2.8334640143068412e-06,6.4155805796772825e-06,-0.21495952341471136,1.8427769789219894e-05,-0.2717122151212159
763,0.7531,884.807,0.0196706,0.00751437,0.00896064,-0.00544186,-0.00664036,0.561377,-0.242269,-0.317381,2.8315e-06,6.47288e-06,1.83979e-05,0.554372,0.7530848368415453,2.831504008593555e-06,6.472900949239246e-06,-0.21515497415875362,1.8398069242309134e-05,-0.2719466860361037
764,0.7541,884.802,0.00544864,0.00978387,0.00971379,-0.0093896,-0.004406,0.561947,-0.242518,-0.317702,2.85423e-06,6.39479e-06,1.84301e-05,0.554939,0.7540843800412942,2.854234073312867e-06,6.3948104467304034e-06,-0.21535037624161912,1.843026983538998e-05,-0.27218035364422855
765,0.7551,884.806,0.0188654,0.00759338,0.00900845,-0.00567122,-0.0065239,0.562517,-0.242767,-0.318023,2.85358e-06,6.44497e-06,1.84036e-05,0.555506,0.7550844931430738,2.8535840714827287e-06,6.4449907688501895e-06,-0.21554572967542318,1.8403769347363763e-05,-0.2724139462570886
766,0.7561,884.802,0.00612025,0.00963147,0.00968388,-0.00921126,-0.00452062,0.563087,-0.243016,-0.318343,2.87509e-06,6.3736e-06,1.84326e-05,0.556073,0.7560851764718204,2.875094132992473e-06,6.373620311528327e-06,-0.21574103447227766,1.8432769881338018e-05,-0.2726467365458537
767,0.7571,884.806,0.0181491,0.0076782,0.00905331,-0.00588184,-0.00642003,0.563656,-0.243264,-0.318664,2.87565e-06,6.41725e-06,1.84091e-05,0.556639,0.7570846732671048,2.8756541345931197e-06,6.417270590697299e-06,-0.21593550658019045,1.8409269448627086e-05,-0.27288017947382803
768,0.7581,884.802,0.00672797,0.00950227,0.00965788,-0.00905277,-0.00462592,0.564225,-0.243513,-0.318985,2.89605e-06,6.35197e-06,1.84353e-05,0.557206,0.7580847389378951,2.8960541935685313e-06,6.351990173847355e-06,-0.2161307143346779,1.8435469931077364e-05,-0.27311354747864824
769,0.7591,884.806,0.0175014,0.00775427,0.00909348,-0.00607288,-0.00632497,0.564794,-0.243761,-0.319305,2.89769e-06,6.38974e-06,1.84143e-05,0.557771,0.7590853738079741,2.8976941983671622e-06,6.3897604143381415e-06,-0.21632508981396725,1.841446954431447e-05,-0.2733461139308382
770,0.7601,884.802,0.0072589,0.00936704,0.00963559,-0.00891201,-0.00472158,0.565362,-0.244009,-0.319625,2.9171e-06,6.32993e-06,1.84379e-05,0.558337,0.7600848181156101,2.9171042548181703e-06,6.3299500341340575e-06,-0.2165194170941147,1.843806997903208e-05,-0.27357860597366945
771,0.7611,884.806,0.0169081,0.00780704,0.00912994,-0.00624637,-0.0062396,0.56593,-0.244257,-0.319945,2.9197e-06,6.36242e-06,1.84194e-05,0.558902,0.7610848302688658,2.919704262360767e-06,6.36244024021515e-06,-0.21671369618707204,1.8419569638217226e-05,-0.27381102363094945
772,0.7621,884.802,0.00776794,0.00927654,0.0096152,-0.00878679,-0.00480537,0.566498,-0.244506,-0.320264,2.93822e-06,6.30753e-06,1.84407e-05,0.559467,0.7620854105903685,2.9382243165176902e-06,6.307549892614617e-06,-0.21690871019646973,1.84408700307781e-05,-0.2740426409694816
773,0.7631,884.805,0.01637,0.00788007,0.00916493,-0.00640645,-0.00616508,0.567065,-0.244753,-0.320584,2.94172e-06,6.3352e-06,1.84243e-05,0.560031,0.7630847963172527,2.9417243267992887e-06,6.335220067432701e-06,-0.21710210985920964,1.842446972855072e-05,-0.27427491015931893
774,0.7641,884.802,0.00819098,0.00915697,0.009597,-0.00867312,-0.00488388,0.567632,-0.245001,-0.320903,2.95941e-06,6.28484e-06,1.84435e-05,0.560595,0.7640847488565201,2.9594143791111804e-06,6.284859749738914e-06,-0.2172962444622787,1.8443670082302077e-05,-0.2745063795416487
775,0.7651,884.805,0.0158636,0.00790962,0.0091961,-0.00655285,-0.00609476,0.568199,-0.245249,-0.321222,2.96372e-06,6.30811e-06,1.8429e-05,0.561159,0.7650852685296443,2.9637243919022893e-06,6.30812989621532e-06,-0.21749033092593584,1.8429169815092905e-05,-0.2747377750970216
776,0.7661,884.803,0.00859415,0.00906383,0.00958155,-0.0085734,-0.00495436,0.568765,-0.245496,-0.321541,2.98068e-06,6.26181e-06,1.84463e-05,0.561723,0.766084589572809,2.980684442155379e-06,6.2618296052807665e-06,-0.21768358694609613,1.84464701340481e-05,-0.27496909684898463
777,0.7671,884.805,0.0154092,0.00793771,0.00922531,-0.00668729,-0.00603318,0.569331,-0.245743,-0.32186,2.98572e-06,6.28112e-06,1.84336e-05,0.562286,0.7670844763917837,2.9857244572273345e-06,6.2811397263384805e-06,-0.21787679523791403,1.843376989985046e-05,-0.27520034482107725
778,0.7681,884.803,0.00896563,0.00899337,0.00956713,-0.00848367,-0.00501718,0.569897,-0.245991,-0.322179,3.002e-06,6.2385e-06,1.84491e-05,0.562849,0.7680849293068881,3.002004506091893e-06,6.2385194594671844e-06,-0.21807073774283048,1.844927018579412e-05,-0.2754315190368315
779,0.7691,884.805,0.0150059,0.00798359,0.00925283,-0.00681061,-0.00597875,0.570462,-0.246238,-0.322497,3.00773e-06,6.2542e-06,1.8438e-05,0.563412,0.769084179553559,3.007734523219341e-06,6.254219557577656e-06,-0.21826385042021057,1.8438169981038754e-05,-0.2756618951820293
780,0.7701,884.803,0.00924862,0.00886885,0.00955514,-0.00840527,-0.00507543,0.571028,-0.246484,-0.322815,3.02339e-06,6.21491e-06,1.8452e-05,0.563974,0.7700857646210217,3.0233945704782883e-06,6.214929312520212e-06,-0.21845613386117424,1.8452170239102728e-05,-0.27589219807926
781,0.7711,884.805,0.0146413,0.00800745,0.00927572,-0.00692106,-0.00592553,0.571592,-0.246731,-0.323133,3.02969e-06,6.2274e-06,1.84423e-05,0.564536,0.7710843745738034,3.029694589429255e-06,6.227419390381073e-06,-0.21864915135746843,1.8442470060220373e-05,-0.2761224277518127
782,0.7721,884.803,0.00954683,0.00882373,0.00954629,-0.00833823,-0.00512878,0.572157,-0.246978,-0.323451,3.04486e-06,6.19103e-06,1.84548e-05,0.565097,0.7720853199858895,3.0448646355374365e-06,6.191049164439022e-06,-0.21884212118432844,1.845497029084875e-05,-0.27635258422296927
783,0.7731,884.805,0.0142997,0.00802509,0.00929858,-0.00702337,-0.00588352,0.572721,-0.247224,-0.323769,3.05169e-06,6.20063e-06,1.84464e-05,0.565659,0.773085058005982,3.0516946563086123e-06,6.200649223853105e-06,-0.21903426238818002,1.844657013583273e-05,-0.2765826675160038
784,0.7741,884.803,0.00980172,0.00875914,0.00953624,-0.0082774,-0.00517296,0.573285,-0.247471,-0.324086,3.06634e-06,6.16694e-06,1.84577e-05,0.56622,0.7740853600373543,3.066344701263546e-06,6.166959015674323e-06,-0.21922713710436215,1.84578703443794e-05,-0.27681195446649953
785,0.7751,884.804,0.0139965,0.00804606,0.00931968,-0.00711668,-0.00584429,0.573848,-0.247717,-0.324403,3.07368e-06,6.17391e-06,1.84503e-05,0.56678,0.7750844513128592,3.073684723853276e-06,6.1739290586615425e-06,-0.21941918360594626,1.8450470207875824e-05,-0.2770411687445511
786,0.7761,884.803,0.0100111,0.00868133,0.00952938,-0.00822656,-0.00521622,0.574411,-0.247963,-0.324721,3.08791e-06,6.14259e-06,1.84605e-05,0.567341,0.7760841052351226,3.0879147676632357e-06,6.142608865777888e-06,-0.21961118286990144,1.8460670396125423e-05,-0.2772710331025203
787,0.7771,884.804,0.0137241,0.00806434,0.00933778,-0.00720132,-0.00580788,0.574974,-0.248209,-0.325037,3.09566e-06,6.14724e-06,1.84542e-05,0.567901,0.7770843221210035,3.095664791619157e-06,6.147258894362295e-06,-0.21980313490784675,1.8454370279696874e-05,-0.27749937937544866
788,0.7781,884.803,0.010201,0.00861659,0.00952329,-0.00818174,-0.00525383,0.575537,-0.248455,-0.325354,3.10951e-06,6.11805e-06,1.84633e-05,0.56846,0.7780851022875397,3.109514834509497e-06,6.118068715199598e-06,-0.21999503973139845,1.8463470447871444e-05,-0.27772837577433984
789,0.7791,884.804,0.0134647,0.00806995,0.00935474,-0.00727882,-0.00577621,0.576099,-0.2487,-0.325671,3.11765e-06,6.1206e-06,1.84579e-05,0.56902,0.7790846669663913,3.1176548598299547e-06,6.1206187309537086e-06,-0.220186117538677,1.8458070348170708e-05,-0.27795729959287707
790,0.7801,884.803,0.0103574,0.00855298,0.00951899,-0.00814401,-0.00528972,0.576661,-0.248946,-0.325987,3.13117e-06,6.09329e-06,1.84661e-05,0.569579,0.7800847935584752,3.1311749020268564e-06,6.093308564159017e-06,-0.22037792816008872,1.846627049939542e-05,-0.27818542903985477
791,0.7811,884.804,0.0132157,0.00804455,0.00936978,-0.00735001,-0.00574691,0.577223,-0.249191,-0.326303,3.13963e-06,6.09396e-06,1.84616e-05,0.570138,0.7810854823796753,3.1396349287060588e-06,6.093978568211256e-06,-0.2205689121711929,1.8461770416422496e-05,-0.27841348640931607
792,0.7821,884.803,0.0105154,0.00851465,0.00951406,-0.00811135,-0.00531762,0.577784,-0.249437,-0.326619,3.15284e-06,6.06835e-06,1.8469e-05,0.570696,0.7820849516602106,3.152844970211177e-06,6.068368412437408e-06,-0.22076062863670665,1.8469170552926073e-05,-0.27864147172403386
793,0.7831,884.804,0.0130266,0.00806655,0.00938633,-0.00741615,-0.00572716,0.578345,-0.249682,-0.326935,3.16167e-06,6.06731e-06,1.8465e-05,0.571254,0.7830849818003187,3.1616749980312164e-06,6.067328406134109e-06,-0.22095151889767883,1.8465170479098347e-05,-0.27886938500677383
794,0.7841,884.803,0.0106376,0.00845852,0.00950942,-0.00808359,-0.00534354,0.578906,-0.249927,-0.327251,3.17455e-06,6.04323e-06,1.84718e-05,0.571812,0.7840855731147303,3.1745550388428967e-06,6.043248260256817e-06,-0.22114236239626572,1.8471970604672094e-05,-0.27909722628029454
795,0.7851,884.804,0.0128243,0.00804915,0.00939928,-0.0074757,-0.00570363,0.579466,-0.250171,-0.327566,3.18367e-06,6.04068e-06,1.84685e-05,0.57237,0.7850849408325187,3.1836750677971537e-06,6.040698244946796e-06,-0.22133238047669246,1.8468670543780874e-05,-0.2793242748919825
796,0.7861,884.803,0.0107281,0.00838371,0.00950729,-0.00806116,-0.00536925,0.580026,-0.250416,-0.327882,3.19632e-06,6.01794e-06,1.84745e-05,0.572927,0.7860848683529591,3.1963251081457145e-06,6.017958107840116e-06,-0.22152313067562224,1.8474670654633485e-05,-0.2795519724430088
797,0.7871,884.804,0.012643,0.00803537,0.00941078,-0.00753066,-0.00568312,0.580586,-0.250661,-0.328197,3.20567e-06,6.01404e-06,1.84718e-05,0.573484,0.7870853559896291,3.2056751382292248e-06,6.014058084424789e-06,-0.2217138341464776,1.8471970604672094e-05,-0.2797788778322142
798,0.7881,884.803,0.0108169,0.00833791,0.00950607,-0.00804342,-0.00539256,0.581145,-0.250905,-0.328512,3.21813e-06,5.99247e-06,1.84772e-05,0.57404,0.7880846159707711,3.2181351781179757e-06,5.992487954964432e-06,-0.22190371280480747,1.8477370704594875e-05,-0.28000571175747824
799,0.7891,884.804,0.0125067,0.00805769,0.00942162,-0.00758073,-0.00566652,0.581704,-0.25115,-0.328826,3.22769e-06,5.98739e-06,1.8475e-05,0.574597,0.7890844346943966,3.22769520910704e-06,5.987407924346044e-06,-0.22209432304446242,1.8475170663778684e-05,-0.28023175447342275
800,0.7901,884.803,0.0109116,0.00831894,0.00950552,-0.00802965,-0.00541396,0.582263,-0.251394,-0.329141,3.23997e-06,5.96686e-06,1.84799e-05,0.575153,0.7900848124729298,3.239975248758853e-06,5.966877801855119e-06,-0.22228410887482675,1.848007075433422e-05,-0.2804584457650108
801,0.7911,884.804,0.0123884,0.00806442,0.0094312,-0.00762615,-0.00565166,0.582822,-0.251638,-0.329455,3.2497e-06,5.96073e-06,1.84781e-05,0.575708,0.79108574961897,3.249705280206072e-06,5.96074776515465e-06,-0.22247384840309747,1.8478270721100643e-05,-0.28068434634479345
802,0.7921,884.803,0.0109697,0.00826845,0.00950543,-0.00802056,-0.00543164,0.58338,-0.251882,-0.32977,3.26185e-06,5.94107e-06,1.84825e-05,0.576264,0.7920854543589406,3.261855319847129e-06,5.941087648286825e-06,-0.222663541640571,1.848267080251098e-05,-0.28091089509239375
803,0.7931,884.804,0.0122427,0.00803734,0.00943905,-0.00766693,-0.00563713,0.583938,-0.252126,-0.330084,3.27172e-06,5.93406e-06,1.84812e-05,0.576819,0.7930857170898209,3.2717253519720657e-06,5.934077606628563e-06,-0.22285318859854097,1.84813707784226e-05,-0.2811366536253902
804,0.7941,884.803,0.0110051,0.00821141,0.00950519,-0.00801273,-0.00544686,0.584495,-0.252369,-0.330398,3.28374e-06,5.91518e-06,1.84851e-05,0.577374,0.7940847440374161,3.2837453913803216e-06,5.915197494710256e-06,-0.22304201233069887,1.8485270850465696e-05,-0.2813623412813355
805,0.7951,884.804,0.0121441,0.00803715,0.00944693,-0.00770569,-0.0056252,0.585052,-0.252613,-0.330711,3.29375e-06,5.90734e-06,1.84841e-05,0.577928,0.7950843275980233,3.2937554244050204e-06,5.907357448320383e-06,-0.22323156695308577,1.8484270831953253e-05,-0.2815872396700805
806,0.7961,884.803,0.0110585,0.0082029,0.00950623,-0.00800969,-0.00546193,0.585609,-0.252856,-0.331025,3.30567e-06,5.88912e-06,1.84877e-05,0.578482,0.7960844680817625,3.3056754638050023e-06,5.889137340897577e-06,-0.2234202987504741,1.8487870898642456e-05,-0.28181278586421854
807,0.7971,884.804,0.0120208,0.00801131,0.00945541,-0.00774101,-0.00561985,0.586166,-0.253099,-0.331338,3.31581e-06,5.88059e-06,1.84869e-05,0.579036,0.797085165798926,3.3158154972845466e-06,5.880607290675854e-06,-0.2236089846916074,1.8487070883699275e-05,-0.2820375432858716
808,0.7981,884.803,0.0110637,0.00813434,0.0095056,-0.00800682,-0.00547253,0.586722,-0.253343,-0.331651,3.3276e-06,5.86298e-06,1.84902e-05,0.579589,0.7980846229744576,3.3276055364517276e-06,5.862997187300323e-06,-0.22379840098961457,1.849037094481254e-05,-0.2822622303694601
809,0.7991,884.803,0.0119429,0.00799287,0.00946092,-0.0077721,-0.00560867,0.587278,-0.253586,-0.331964,3.33784e-06,5.85384e-06,1.84897e-05,0.580143,0.7990846360026915,3.3378455706056798e-06,5.85385713369746e-06,-0.22398699506306607,1.848987093566734e-05,-0.28248684713699657
810,0.8001,884.803,0.0110851,0.00811089,0.00950766,-0.00801004,-0.00548366,0.587834,-0.253828,-0.332277,3.34958e-06,5.83665e-06,1.84927e-05,0.580695,0.8000852051927678,3.3495856097687238e-06,5.836667033243259e-06,-0.224174767488881,1.8492870990982624e-05,-0.28271139361048636
811,0.8011,884.803,0.0118701,0.00800098,0.00946634,-0.00780037,-0.00560317,0.588389,-0.254071,-0.33259,3.35989e-06,5.82704e-06,1.84924e-05,0.581248,0.8010845297685685,3.359895644372557e-06,5.8270569771590175e-06,-0.22436327011638435,1.8492570985406687e-05,-0.2829358698119281
812,0.8021,884.803,0.0110936,0.00808138,0.00950961,-0.00801327,-0.00549478,0.588944,-0.254314,-0.332902,3.37158e-06,5.81024e-06,1.84952e-05,0.5818,0.8020844091234451,3.3715856837535085e-06,5.810256879401621e-06,-0.22455172694331427,1.8495371037374753e-05,-0.28315955892323086
813,0.8031,884.803,0.0117606,0.00795262,0.00947232,-0.00782885,-0.00559916,0.589499,-0.254556,-0.333214,3.38197e-06,5.80017e-06,1.8495e-05,0.582352,0.8030848435653863,3.38197571880805e-06,5.8001868210588725e-06,-0.22473936272054917,1.8495171033583446e-05,-0.28338317825441717
814,0.8041,884.803,0.0110652,0.00800391,0.0095099,-0.00801579,-0.00550246,0.590053,-0.254799,-0.333527,3.39358e-06,5.78376e-06,1.84976e-05,0.582904,0.8040840293176197,3.3935857581823825e-06,5.78377672599828e-06,-0.22492772816807938,1.8497771081760206e-05,-0.28360744422016904
815,0.8051,884.803,0.0117378,0.007981,0.00947518,-0.0078524,-0.00558975,0.590608,-0.255041,-0.333838,3.40401e-06,5.7733e-06,1.84976e-05,0.583455,0.8050855738567921,3.404015793684323e-06,5.773316665624861e-06,-0.2251152729640271,1.8497771081760206e-05,-0.28383020766350553
816,0.8061,884.803,0.0110954,0.0080072,0.00951475,-0.00802564,-0.00551495,0.591161,-0.255283,-0.33415,3.41566e-06,5.75708e-06,1.84998e-05,0.584006,0.8060840622357262,3.4156658332840095e-06,5.757096571912257e-06,-0.22530277237962537,1.8499971122354353e-05,-0.28405361778492333
817,0.8071,884.803,0.0116499,0.00794102,0.00947912,-0.00787696,-0.00558719,0.591715,-0.255525,-0.334462,3.42609e-06,5.74632e-06,1.85001e-05,0.584557,0.8070849100154416,3.4260958690079946e-06,5.746336510181749e-06,-0.22549022642585514,1.850027112793029e-05,-0.2842769582132558
818,0.8081,884.803,0.0111165,0.0080132,0.0095128,-0.00802809,-0.00551521,0.592268,-0.255767,-0.334773,3.43765e-06,5.73044e-06,1.85022e-05,0.585108,0.8080845043330351,3.437655908822279e-06,5.730456418939767e-06,-0.2256776351136942,1.8502371166739806e-05,-0.28449951347011526
819,0.8091,884.803,0.0115929,0.00792759,0.00948729,-0.0079027,-0.00559069,0.592821,-0.256008,-0.335084,3.44825e-06,5.71926e-06,1.85024e-05,0.585658,0.8090846515791572,3.448255945226464e-06,5.7192763549540615e-06,-0.22586422431872955,1.8502571170531112e-05,-0.28472199952305155
820,0.8101,884.803,0.0110944,0.00795871,0.00951261,-0.0080348,-0.00552106,0.593374,-0.25625,-0.335395,3.45968e-06,5.70366e-06,1.85045e-05,0.586207,0.8100853520596611,3.4596859848079475e-06,5.703676265955693e-06,-0.226051542510029,1.850467120934063e-05,-0.2849444163935838
821,0.8111,884.803,0.011494,0.00787077,0.0094898,-0.00792317,-0.00558436,0.593926,-0.256491,-0.335706,3.47033e-06,5.69221e-06,1.85048e-05,0.586757,0.8110847949948703,3.4703360216603585e-06,5.69222620061538e-06,-0.22623804161423944,1.8504971214916566e-05,-0.2851667641032245
822,0.8121,884.803,0.0110966,0.00794198,0.00951332,-0.00804092,-0.00552568,0.594478,-0.256733,-0.336017,3.48174e-06,5.67682e-06,1.85067e-05,0.587306,0.8120847897748751,3.4817460612401874e-06,5.676836113188699e-06,-0.2264252693526987,1.8506871249934775e-05,-0.2853890426734791
823,0.8131,884.803,0.0114256,0.00786452,0.00949616,-0.00794843,-0.00558655,0.59503,-0.256974,-0.336328,3.49249e-06,5.665e-06,1.8507e-05,0.587855,0.8130853367043773,3.492496098767006e-06,5.665016046041416e-06,-0.2266116783995923,1.8507171255510713e-05,-0.2856112521258468
824,0.8141,884.803,0.0110989,0.00793598,0.00951283,-0.00804674,-0.00553084,0.595581,-0.257215,-0.336638,3.50379e-06,5.6499e-06,1.85088e-05,0.588404,0.8140846220027194,3.5037961383377336e-06,5.649915960637131e-06,-0.2267980425273186,1.8508971288966336e-05,-0.28583267831485515
825,0.8151,884.803,0.0113767,0.00782308,0.00949963,-0.00796731,-0.00558518,0.596132,-0.257456,-0.336948,3.51461e-06,5.63782e-06,1.85092e-05,0.588952,0.8150844580589802,3.5146161763144335e-06,5.637835892580156e-06,-0.22698436174670178,1.8509371296326904e-05,-0.28605403587238354
826,0.8161,884.803,0.0110461,0.00787117,0.00951288,-0.00805746,-0.00553079,0.596683,-0.257697,-0.337258,3.52586e-06,5.62283e-06,1.8511e-05,0.5895,0.8160848451767118,3.525866215881024e-06,5.622845808073151e-06,-0.22717063606856347,1.8511171329560483e-05,-0.2862753248197041
827,0.8171,884.803,0.0112938,0.00776127,0.00950224,-0.00798437,-0.00558442,0.597234,-0.257937,-0.337568,3.53673e-06,5.61061e-06,1.85113e-05,0.590048,0.8170857836596326,3.53673625430595e-06,5.610625739560504e-06,-0.22735609286020175,1.851147133513642e-05,-0.28649654517808276
828,0.8181,884.803,0.0110567,0.00786189,0.00951369,-0.00806596,-0.00553525,0.597784,-0.258178,-0.337878,3.54796e-06,5.59573e-06,1.8513e-05,0.590595,0.8180854557252633,3.54796629409293e-06,5.595745656172824e-06,-0.22754227760565948,1.8513171366585368e-05,-0.286717696968779
829,0.8191,884.803,0.011262,0.00776829,0.00950666,-0.00800577,-0.00558593,0.598334,-0.258418,-0.338187,3.55889e-06,5.58325e-06,1.85134e-05,0.591142,0.8190856777617583,3.55889633296691e-06,5.583265586306396e-06,-0.22772764521403133,1.8513571373945936e-05,-0.28693806715146897
830,0.8201,884.803,0.0110346,0.00782447,0.00951385,-0.00807358,-0.00554033,0.598883,-0.258658,-0.338496,3.57005e-06,5.56857e-06,1.8515e-05,0.591689,0.8200846299861446,3.5700563725260537e-06,5.568585504489576e-06,-0.22791296833951535,1.8515171403610253e-05,-0.28715836925029203
831,0.8211,884.803,0.0112056,0.00774814,0.00950807,-0.00802327,-0.0055818,0.599432,-0.258898,-0.338805,3.58101e-06,5.55589e-06,1.85154e-05,0.592236,0.8210841307858723,3.581016411846605e-06,5.555905433940467e-06,-0.22809824699278614,1.851557141097082e-05,-0.28737860328628273
832,0.8221,884.803,0.0110398,0.0078373,0.00951455,-0.00808239,-0.00554392,0.599981,-0.259138,-0.339114,3.59217e-06,5.54132e-06,1.85169e-05,0.592782,0.8220841804621919,3.592176451849838e-06,5.541335353242971e-06,-0.2282834811845158,1.8517071438850508e-05,-0.28759876928046935
833,0.8231,884.803,0.0111738,0.00773533,0.00951191,-0.00804212,-0.00558498,0.60053,-0.259378,-0.339423,3.60318e-06,5.52844e-06,1.85173e-05,0.593328,0.8230847793165195,3.6031864913965705e-06,5.528455281789135e-06,-0.2284686709253737,1.8517471446211076e-05,-0.2878188672538735
834,0.8241,884.803,0.011007,0.00778799,0.00951418,-0.00809216,-0.00554591,0.601078,-0.259618,-0.339732,3.61427e-06,5.51399e-06,1.85188e-05,0.593873,0.8240841035654207,3.6142765313940117e-06,5.514005201989747e-06,-0.22865381622602687,1.8518971474090762e-05,-0.2880388972275104
835,0.8251,884.803,0.0111392,0.00775336,0.0095128,-0.0080582,-0.00558122,0.601627,-0.259858,-0.34004,3.62531e-06,5.50096e-06,1.85193e-05,0.594419,0.8250858006789763,3.625316571387316e-06,5.500975130301455e-06,-0.22883891709713955,1.851947148323596e-05,-0.2882581474808922
836,0.8261,884.803,0.0109965,0.00778027,0.00951667,-0.00810181,-0.00555459,0.602174,-0.260097,-0.340349,3.63644e-06,5.48659e-06,1.85206e-05,0.594964,0.8260843957027877,3.636446611832156e-06,5.4866050513968645e-06,-0.22902320257296183,1.852077150732434e-05,-0.28847804173790814
837,0.8271,884.803,0.0110428,0.0076577,0.0095133,-0.00807451,-0.00557915,0.602722,-0.260337,-0.340657,3.64744e-06,5.47341e-06,1.85211e-05,0.595508,0.8270853641919493,3.6474466518221504e-06,5.473424979030028e-06,-0.22920821480198872,1.8521271516691584e-05,-0.28869715675560803
838,0.8281,884.803,0.0109705,0.00775268,0.00951477,-0.00810958,-0.00555202,0.603269,-0.260576,-0.340965,3.65853e-06,5.45916e-06,1.85224e-05,0.596053,0.8280850532762005,3.6585366924857254e-06,5.459174901245589e-06,-0.22939241202620597,1.8522571540779964e-05,-0.2889162042962744
839,0.8291,884.803,0.0110279,0.00766266,0.00951663,-0.00809055,-0.00558269,0.603816,-0.260815,-0.341272,3.66963e-06,5.44581e-06,1.85229e-05,0.596597,0.8290852893399661,3.669636733150128e-06,5.445824828420598e-06,-0.229576565232547,1.8523071549925163e-05,-0.2891344735155159
840,0.8301,884.803,0.0109492,0.00770016,0.0095159,-0.00812121,-0.00555796,0.604362,-0.261054,-0.34158,3.68068e-06,5.4316e-06,1.85241e-05,0.597141,0.8300842425973678,3.6806867738103932e-06,5.431614751083558e-06,-0.2297606744315307,1.8524271572228912e-05,-0.28935338638336094
841,0.8311,884.803,0.0109623,0.00762609,0.00951729,-0.00810744,-0.00558021,0.604909,-0.261293,-0.341887,3.69178e-06,5.41812e-06,1.85246e-05,0.597684,0.8310855725168345,3.6917868146968402e-06,5.4181346780257655e-06,-0.2299447396336738,1.852477158137411e-05,-0.28957152140830167
842,0.8321,884.803,0.0109377,0.00767546,0.00951504,-0.00812679,-0.00556142,0.605455,-0.261531,-0.342195,3.70281e-06,5.40407e-06,1.85257e-05,0.598227,0.8320856182270633,3.702816855355451e-06,5.4040846020342315e-06,-0.23012799097786596,1.852587160189323e-05,-0.2897902996861237
843,0.8331,884.803,0.0109396,0.00764191,0.00951738,-0.00812367,-0.00557555,0.606,-0.26177,-0.342502,3.71392e-06,5.39039e-06,1.85264e-05,0.59877,0.8330843770260485,3.7139268966868144e-06,5.390404528071713e-06,-0.2303119684018443,1.8526571614829734e-05,-0.29000830059926763
844,0.8341,884.803,0.0109042,0.00764881,0.00951755,-0.00813891,-0.00556929,0.606546,-0.262008,-0.342809,3.725e-06,5.37637e-06,1.85273e-05,0.599313,0.8340855143815316,3.7250069377936512e-06,5.376384452748795e-06,-0.23049513235598962,1.8527471631557546e-05,-0.2902262345964034
845,0.8351,884.803,0.0108766,0.00758724,0.00951669,-0.00813576,-0.00557585,0.607091,-0.262247,-0.343115,3.73606e-06,5.36266e-06,1.8528e-05,0.599855,0.8350853634209845,3.736066979120878e-06,5.3626743790058384e-06,-0.23067902204366353,1.852817164449405e-05,-0.290443392141818
846,0.8361,884.803,0.0108688,0.00763414,0.00951609,-0.00814797,-0.00556751,0.607636,-0.262485,-0.343422,3.74712e-06,5.34867e-06,1.85289e-05,0.600397,0.8360857575266807,3.7471270204481044e-06,5.348684304129492e-06,-0.23086209864943685,1.8529071661221863e-05,-0.2906611925863516
847,0.8371,884.803,0.0108676,0.00759629,0.00951899,-0.00815115,-0.00557903,0.60818,-0.262723,-0.343728,3.75824e-06,5.33482e-06,1.85295e-05,0.600939,0.8370848599099845,3.7582470622243846e-06,5.334834230152907e-06,-0.23104513168816265,1.8529671672151693e-05,-0.29087821705498296
848,0.8381,884.803,0.0108257,0.00760609,0.00951668,-0.00816037,-0.00557199,0.608724,-0.262961,-0.344034,3.76928e-06,5.32084e-06,1.85303e-05,0.601481,0.8380845059528466,3.769287103772001e-06,5.320854155721477e-06,-0.23122812117020874,1.8530471687094874e-05,-0.2910951751242866
849,0.8391,884.803,0.0108218,0.00757536,0.00951728,-0.00816049,-0.00557804,0.609268,-0.263199,-0.34434,3.78037e-06,5.30702e-06,1.8531e-05,0.602022,0.8390846959510982,3.780377145545799e-06,5.307034082191464e-06,-0.23141106710594028,1.853117170003138e-05,-0.29131206681457755
850,0.8401,884.803,0.0108232,0.00762447,0.00951621,-0.00817219,-0.00557056,0.609812,-0.263437,-0.344646,3.79143e-06,5.29297e-06,1.85318e-05,0.602563,0.8400854302007321,3.7914371875391595e-06,5.292984007754242e-06,-0.2315939695057202,1.853197171497456e-05,-0.29152889214616473
851,0.8411,884.803,0.0107745,0.00753186,0.00951825,-0.00817331,-0.00558162,0.610355,-0.263674,-0.344952,3.80254e-06,5.2791e-06,1.85324e-05,0.603103,0.8410848679121128,3.8025472297587015e-06,5.279113934442137e-06,-0.23177606015635288,1.853257172590439e-05,-0.2917456511393507
852,0.8421,884.803,0.010751,0.00754296,0.00951447,-0.00818182,-0.00557051,0.610898,-0.263912,-0.345258,3.81356e-06,5.26508e-06,1.85333e-05,0.603643,0.8420848484655392,3.8135672715267077e-06,5.265093860451486e-06,-0.23195887569812323,1.85334717426322e-05,-0.29196234381443187
853,0.8431,884.803,0.0107652,0.00752502,0.00951702,-0.00818436,-0.00557952,0.611441,-0.264149,-0.345563,3.82468e-06,5.25115e-06,1.85338e-05,0.604183,0.8430853721558542,3.824687314191166e-06,5.251163787356461e-06,-0.23214087987623577,1.8533971751999445e-05,-0.29217826237031486
854,0.8441,884.803,0.0107418,0.00755523,0.00951685,-0.0081962,-0.00557678,0.611983,-0.264386,-0.345868,3.83576e-06,5.23705e-06,1.85346e-05,0.604723,0.8440845951925444,3.835767356630271e-06,5.237063713359191e-06,-0.2323228409244692,1.853477176672058e-05,-0.29239411508108026
855,0.8451,884.803,0.0107466,0.00753065,0.00951577,-0.00819512,-0.00558154,0.612525,-0.264623,-0.346173,3.84682e-06,5.22315e-06,1.85352e-05,0.605263,0.8450843599549147,3.84682739906772e-06,5.223163640710737e-06,-0.232504758853044,1.8535371777872456e-05,-0.2926099019668077
856,0.8461,884.803,0.0106979,0.00748603,0.00951525,-0.00820541,-0.00557614,0.613067,-0.26486,-0.346478,3.85789e-06,5.20905e-06,1.85359e-05,0.605802,0.8460846667366604,3.857897441728042e-06,5.209063567157557e-06,-0.23268663367217846,1.853607179080896e-05,-0.29282562304757065
857,0.8471,884.803,0.0106719,0.00744215,0.00951479,-0.00820759,-0.00557966,0.613609,-0.265097,-0.346783,3.86897e-06,5.19507e-06,1.85365e-05,0.60634,0.847085515831635,3.868977484389191e-06,5.195083494502484e-06,-0.23286846539208828,1.8536671801960836e-05,-0.29304127834343674
858,0.8481,884.803,0.0106725,0.00748882,0.00951357,-0.00821425,-0.00557678,0.61415,-0.265334,-0.347087,3.88002e-06,5.181e-06,1.85371e-05,0.606879,0.8480850594478693,3.8800275272699025e-06,5.181013421395875e-06,-0.23305025402298674,1.853727181311271e-05,-0.29325616113098174
859,0.8491,884.803,0.0107173,0.00750905,0.00951531,-0.00821827,-0.00558475,0.614691,-0.26557,-0.347392,3.89113e-06,5.16696e-06,1.85377e-05,0.607417,0.8490851439634999,3.891137570377623e-06,5.166973348735837e-06,-0.23323123280670077,1.8537871824264585e-05,-0.2934716851327558
860,0.8501,884.803,0.0105968,0.00739634,0.00951406,-0.00822803,-0.00558062,0.615232,-0.265807,-0.347696,3.90219e-06,5.15281e-06,1.85383e-05,0.607955,0.8500857696712327,3.902197613481206e-06,5.1528232758446535e-06,-0.23341293547190933,1.853847183541646e-05,-0.2936864370965231
861,0.8511,884.803,0.0106405,0.00740137,0.00950953,-0.00822438,-0.00557715,0.615772,-0.266043,-0.348,3.9132e-06,5.13888e-06,1.85389e-05,0.608493,0.8510850857779206,3.913207656580653e-06,5.138893204081896e-06,-0.23359382867290057,1.8539071846568334e-05,-0.2939011237856156
862,0.8521,884.803,0.0106134,0.00745576,0.00951565,-0.00824263,-0.00558219,0.616312,-0.266279,-0.348304,3.92438e-06,5.12456e-06,1.85395e-05,0.60903,0.8520849416610325,3.924387700360299e-06,5.1245731305105124e-06,-0.23377467918813355,1.8539671857498163e-05,-0.29411574521987394
863,0.8531,884.803,0.0106579,0.00745356,0.00950918,-0.00823432,-0.00558399,0.616852,-0.266515,-0.348608,3.93535e-06,5.11068e-06,1.854e-05,0.609567,0.8530853376121268,3.935357743456436e-06,5.11069305964007e-06,-0.233955487027681,1.8540171866865407e-05,-0.2943303014191324
864,0.8541,884.803,0.0105641,0.00739403,0.00951484,-0.00825368,-0.00558489,0.617391,-0.266751,-0.348911,3.94652e-06,5.09631e-06,1.85405e-05,0.610104,0.8540844198375717,3.946527787457299e-06,5.096322986286594e-06,-0.23413625220161294,1.854067187623265e-05,-0.2945440869476592
865,0.8551,884.802,0.0105377,0.00735729,0.00950658,-0.00824417,-0.00558185,0.61793,-0.266987,-0.349214,3.95746e-06,5.08242e-06,1.85411e-05,0.61064,0.8550840407134892,3.957467830772998e-06,5.082432915415325e-06,-0.23431697471999735,1.854127188716248e-05,-0.29475780770898363
866,0.8561,884.802,0.0105254,0.00737886,0.00951065,-0.00825842,-0.00558195,0.618469,-0.267223,-0.349518,3.96861e-06,5.06812e-06,1.85416e-05,0.611177,0.8560842005302907,3.968617874994251e-06,5.068132842955819e-06,-0.23449765459289984,1.8541771896529724e-05,-0.2949721687509108
867,0.8571,884.802,0.0105228,0.00733694,0.00950913,-0.00825903,-0.00558874,0.619008,-0.267458,-0.349821,3.97966e-06,5.05404e-06,1.8542e-05,0.611713,0.8570848995785427,3.979667918763141e-06,5.05405277162474e-06,-0.23467752650829266,1.8542171903890292e-05,-0.2951857598230977
868,0.8581,884.803,0.0105742,0.00743769,0.00950567,-0.00826719,-0.00557782,0.619546,-0.267694,-0.350123,3.99067e-06,5.03982e-06,1.85427e-05,0.612248,0.8580842800637614,3.990677962750766e-06,5.039832699837987e-06,-0.2348581213010129,1.8542871916826797e-05,-0.29539858158592747
869,0.8591,884.802,0.0104434,0.00725568,0.00951142,-0.00827217,-0.00559586,0.620084,-0.267929,-0.350426,4.00185e-06,5.02563e-06,1.85429e-05,0.612783,0.8590841983603388,4.0018580074185905e-06,5.025642628497806e-06,-0.23503790851668194,1.8543071920618104e-05,-0.2956120434745977
870,0.8601,884.802,0.0104538,0.00729262,0.00950028,-0.00827257,-0.00557538,0.620622,-0.268164,-0.350729,4.01273e-06,5.01152e-06,1.85437e-05,0.613319,0.8600846547576964,4.01273805095137e-06,5.011532557608334e-06,-0.23521765348731938,1.8543871935561285e-05,-0.29582544069411343
871,0.8611,884.802,0.0104405,0.00730196,0.00950787,-0.00828304,-0.00558779,0.62116,-0.2684,-0.351031,4.02393e-06,4.99721e-06,1.8544e-05,0.613853,0.8610856495454096,4.0239380960649385e-06,4.997222486036179e-06,-0.2353981208251129,1.8544171941137222e-05,-0.2960380693024879
872,0.8621,884.802,0.0105294,0.00738686,0.00950121,-0.00828215,-0.00558402,0.621697,-0.268635,-0.351333,4.03489e-06,4.9831e-06,1.85445e-05,0.614388,0.8620853209269586,4.034898140270471e-06,4.983112415590796e-06,-0.2355777811558033,1.854467195028242e-05,-0.296250633706718
873,0.8631,884.802,0.0103649,0.00724188,0.00950913,-0.00829822,-0.005596,0.622234,-0.268869,-0.351635,4.04609e-06,4.96867e-06,1.85447e-05,0.614922,0.8630855292762023,4.0460981853840394e-06,4.968682343786668e-06,-0.2357566350282937,1.8544871954073727e-05,-0.2964631339261903
874,0.8641,884.802,0.0104995,0.00735447,0.00949504,-0.00828624,-0.00558028,0.62277,-0.269104,-0.351937,4.05693e-06,4.95472e-06,1.85454e-05,0.615456,0.8640844107962273,4.056938229357598e-06,4.9547322746867906e-06,-0.23593621111804497,1.8545571967010233e-05,-0.2966755699802859
875,0.8651,884.802,0.0103902,0.00727426,0.00950712,-0.0083077,-0.00559355,0.623307,-0.269339,-0.352239,4.06819e-06,4.94018e-06,1.85456e-05,0.615989,0.8650856929450201,4.068198275142265e-06,4.940192202651517e-06,-0.23611574501237342,1.854577197080154e-05,-0.29688794188837964
876,0.8661,884.803,0.010549,0.00744571,0.00949248,-0.00829599,-0.00558025,0.623843,-0.269573,-0.35254,4.07902e-06,4.92621e-06,1.85462e-05,0.616523,0.8660856468401423,4.079028319114997e-06,4.926222133772029e-06,-0.23629447301604856,1.854637198173137e-05,-0.29709954676973893
877,0.8671,884.802,0.0103573,0.00727303,0.00950793,-0.00832052,-0.00560067,0.624378,-0.269807,-0.352842,4.09034e-06,4.91158e-06,1.85463e-05,0.617056,0.867084269769016,4.090348365348717e-06,4.9115920617293085e-06,-0.23647315920226375,1.8546471983738044e-05,-0.2973117906561744
878,0.8681,884.802,0.0104207,0.00727027,0.00948775,-0.00830023,-0.00558138,0.624914,-0.270042,-0.353143,4.10106e-06,4.89774e-06,1.85469e-05,0.617589,0.8680852951884588,4.101068409312347e-06,4.8977519939708e-06,-0.2366525669286177,1.854707199488992e-05,-0.29752326797825335
879,0.8691,884.802,0.010211,0.00714657,0.00950223,-0.00833049,-0.0055889,0.625449,-0.270276,-0.353444,4.11236e-06,4.883e-06,1.85472e-05,0.618121,0.8690849882154246,4.1123684557664575e-06,4.883011921918978e-06,-0.2368311693306604,1.8547372000465856e-05,-0.2977346816552373
880,0.8701,884.802,0.0103616,0.00719489,0.00948828,-0.00830649,-0.0055918,0.625984,-0.27051,-0.353745,4.12319e-06,4.8692e-06,1.85475e-05,0.618653,0.8700852162212538,4.123198500405323e-06,4.869211854607869e-06,-0.23700972994463032,1.8547672006041793e-05,-0.29794603170628065
881,0.8711,884.802,0.0103227,0.00727113,0.00949827,-0.00834027,-0.00558801,0.626518,-0.270744,-0.354046,4.13441e-06,4.85437e-06,1.85479e-05,0.619185,0.871084108407193,4.134418546630769e-06,4.8543817825486e-06,-0.23718824878030498,1.854807201340236e-05,-0.29815731815053204
882,0.8721,884.802,0.0103222,0.00721867,0.00948908,-0.0083242,-0.00559362,0.627053,-0.270977,-0.354346,4.14532e-06,4.8404e-06,1.85482e-05,0.619717,0.8720854062284749,4.145328591942388e-06,4.840411714779336e-06,-0.23736596321380365,1.85483720189783e-05,-0.2983678393753242
883,0.8731,884.802,0.0102646,0.00721462,0.00949037,-0.00833911,-0.00558557,0.627587,-0.271211,-0.354647,4.15639e-06,4.82589e-06,1.85486e-05,0.620248,0.8730853668011118,4.156398637711334e-06,4.825901644522901e-06,-0.23754439870064548,1.8548772026338867e-05,-0.2985789988745733
884,0.8741,884.802,0.0103113,0.0072183,0.00948887,-0.00833673,-0.00559443,0.62812,-0.271444,-0.354947,4.16741e-06,4.81166e-06,1.85488e-05,0.620779,0.8740839874103676,4.1674186836981875e-06,4.81167157606599e-06,-0.23772203016087956,1.8548972030130173e-05,-0.29878939361412205
885,0.8751,884.802,0.0102441,0.0071682,0.00948919,-0.00834769,-0.00559405,0.628654,-0.271678,-0.355247,4.17847e-06,4.79719e-06,1.85491e-05,0.62131,0.8750850155103602,4.178478729910395e-06,4.7972015064789986e-06,-0.2379003823378033,1.854927203570611e-05,-0.29899972524471574
886,0.8761,884.802,0.0101557,0.00709735,0.00948381,-0.00834637,-0.00558945,0.629187,-0.271911,-0.355547,4.18942e-06,4.78293e-06,1.85494e-05,0.62184,0.8760847022164677,4.189428775669413e-06,4.78294143824165e-06,-0.23807793086351214,1.8549572041282048e-05,-0.29920999378528423
887,0.8771,884.802,0.01028,0.00721059,0.00948201,-0.00834727,-0.00558909,0.62972,-0.272144,-0.355847,4.20043e-06,4.76862e-06,1.85497e-05,0.62237,0.8770849218976147,4.2004388218774835e-06,4.76863136977812e-06,-0.23825543802523352,1.8549872046857985e-05,-0.2994201992547517
888,0.8781,884.802,0.01015,0.00707779,0.00948843,-0.00836562,-0.00560005,0.630253,-0.272377,-0.356146,4.21159e-06,4.75399e-06,1.85498e-05,0.6229,0.8780856748379529,4.211598868764099e-06,4.75400130017789e-06,-0.23843290383260418,1.8549972048642616e-05,-0.29962964130202807
889,0.8791,884.802,0.0102531,0.00716037,0.00947308,-0.00835099,-0.00558379,0.630785,-0.27261,-0.356446,4.22237e-06,4.73993e-06,1.85502e-05,0.62343,0.8790850822357632,4.222378914287006e-06,4.739941233511402e-06,-0.23861032829525863,1.8550372056003184e-05,-0.29983972089612276
890,0.8801,884.802,0.0100813,0.00706298,0.00948605,-0.00837596,-0.00559663,0.631317,-0.272843,-0.356745,4.23362e-06,4.72516e-06,1.85503e-05,0.623959,0.8800850214597622,4.233628961847202e-06,4.725171163677544e-06,-0.23878771142282906,1.8550472057787815e-05,-0.3000490375251793
891,0.8811,884.802,0.0102447,0.00712066,0.00947103,-0.00835489,-0.00559326,0.631849,-0.273076,-0.357044,4.2444e-06,4.71119e-06,1.85506e-05,0.624488,0.881085492792957,4.244409007370109e-06,4.711201097684636e-06,-0.2389650532249452,1.8550772063363752e-05,-0.3002582915779195
892,0.8821,884.802,0.0101957,0.00719537,0.00948001,-0.0083853,-0.00558969,0.63238,-0.273308,-0.357343,4.25558e-06,4.69631e-06,1.85508e-05,0.625017,0.8820846144329495,4.2555890549245134e-06,4.696321027619632e-06,-0.23914159285320835,1.8550972067155058e-05,-0.3004674830730507
893,0.8831,884.802,0.010241,0.00715438,0.00947383,-0.00837023,-0.00560372,0.632911,-0.27354,-0.357642,4.26651e-06,4.68221e-06,1.85508e-05,0.625546,0.8830842667474141,4.266519101570054e-06,4.682220961615968e-06,-0.2393180915290284,1.8550972067155058e-05,-0.30067661202927487
894,0.8841,884.802,0.010125,0.00708876,0.00947257,-0.00838752,-0.00558916,0.633442,-0.273773,-0.35794,4.27751e-06,4.66754e-06,1.85512e-05,0.626074,0.8840844500182143,4.277519148665476e-06,4.667550892900607e-06,-0.23949530976697564,1.8551372074515626e-05,-0.3008849793506172
895,0.8851,884.802,0.0100749,0.00701848,0.00946827,-0.00837815,-0.00559504,0.633973,-0.274005,-0.358239,4.28846e-06,4.65333e-06,1.85513e-05,0.626602,0.8850851645273627,4.2884691955347165e-06,4.653340826665797e-06,-0.23967172638999013,1.8551472076522302e-05,-0.30109398349411487
896,0.8861,884.802,0.0100788,0.00707672,0.00946755,-0.00838997,-0.00558961,0.634503,-0.274237,-0.358537,4.29947e-06,4.63874e-06,1.85515e-05,0.62713,0.8860845244715541,4.299479242630966e-06,4.638750759067278e-06,-0.23984810208909546,1.8551672080091564e-05,-0.301302226457291
897,0.8871,884.802,0.00996668,0.00691007,0.00946997,-0.00839064,-0.00560725,0.635033,-0.274469,-0.358835,4.31053e-06,4.62434e-06,1.85515e-05,0.627657,0.8870844142169008,4.310539290397486e-06,4.6243506923726585e-06,-0.24002443687378483,1.8551672080091564e-05,-0.3015104073733097
898,0.8881,884.802,0.00999708,0.00697622,0.00945932,-0.00839493,-0.00558424,0.635563,-0.274701,-0.359133,4.32136e-06,4.60986e-06,1.85519e-05,0.628184,0.8880848340442717,4.321369337034753e-06,4.609870625449375e-06,-0.2402007307535493,1.855207208745213e-05,-0.301718526260658
899,0.8891,884.802,0.0100594,0.00702977,0.00946357,-0.0083969,-0.0055978,0.636093,-0.274932,-0.359431,4.33244e-06,4.59542e-06,1.85519e-05,0.628711,0.8890857842346851,4.332449385024972e-06,4.59543055897349e-06,-0.24037622411448167,1.855207208745213e-05,-0.30192658313781795
900,0.8901,884.802,0.0100577,0.00711561,0.00946113,-0.00841097,-0.00559226,0.636622,-0.275164,-0.359729,4.34341e-06,4.58074e-06,1.85521e-05,0.629237,0.8900853749829878,4.343419432562001e-06,4.580750491589569e-06,-0.24055243638907287,1.8552272091243438e-05,-0.3021345780232658
901,0.8911,884.802,0.0101144,0.00705033,0.00945747,-0.00839641,-0.00560497,0.637151,-0.275395,-0.360026,4.35435e-06,4.56657e-06,1.8552e-05,0.629764,0.891085494654684,4.354359480096548e-06,4.5665804266903365e-06,-0.24072784851538642,1.8552172089458807e-05,-0.3023418132776342
902,0.8921,884.802,0.00998584,0.00701724,0.00945989,-0.00842317,-0.00559479,0.637679,-0.275627,-0.360323,4.36539e-06,4.55166e-06,1.85522e-05,0.63029,0.8920842514444511,4.3653995283055025e-06,4.551670358843296e-06,-0.24090397922257878,1.855237209302807e-05,-0.3025489869922713
903,0.8931,884.802,0.010031,0.0070229,0.0094493,-0.0084031,-0.00559597,0.638208,-0.275858,-0.360621,4.37621e-06,4.53756e-06,1.85523e-05,0.630815,0.8930854288015286,4.376219575608076e-06,4.537570294838034e-06,-0.24107931015187645,1.8552472095034744e-05,-0.30275679642900366
904,0.8941,884.802,0.00996121,0.00695778,0.00945327,-0.00842227,-0.00559287,0.638736,-0.276089,-0.360918,4.38727e-06,4.52278e-06,1.85524e-05,0.631341,0.8940852418353489,4.38727962404073e-06,4.522790227889928e-06,-0.24125460058440684,1.8552572096819375e-05,-0.30296384691194556
905,0.8951,884.802,0.00997256,0.00697926,0.00944556,-0.00841644,-0.00559096,0.639264,-0.27632,-0.361215,4.39812e-06,4.50841e-06,1.85525e-05,0.631866,0.8950855829098419,4.398129671789874e-06,4.508420162974147e-06,-0.24142985052952393,1.8552672098604006e-05,-0.3031708359100249
906,0.8961,884.802,0.0100201,0.00705841,0.00944982,-0.00842637,-0.00560036,0.639791,-0.276551,-0.361511,4.40918e-06,4.49377e-06,1.85524e-05,0.632391,0.8960845562183819,4.409189720444573e-06,4.4937800969258035e-06,-0.241605059996579,1.8552572096819375e-05,-0.3033770668189153
907,0.8971,884.802,0.00985945,0.00689733,0.00944849,-0.0084338,-0.00560458,0.640318,-0.276781,-0.361808,4.42014e-06,4.47915e-06,1.85524e-05,0.632915,0.8970840561246018,4.420149768868953e-06,4.479160031323204e-06,-0.24177947077477147,1.8552572096819375e-05,-0.3035839331089054
908,0.8981,884.802,0.00989732,0.00691444,0.00943687,-0.00842142,-0.00559218,0.640845,-0.277012,-0.362104,4.43092e-06,4.46488e-06,1.85526e-05,0.63344,0.8980840829060917,4.430929816612306e-06,4.46488996752592e-06,-0.24195459948887732,1.855277210061068e-05,-0.30379004175912006
909,0.8991,884.802,0.00968235,0.00670926,0.00944667,-0.00844277,-0.00560386,0.641372,-0.277243,-0.3624,4.44206e-06,4.45001e-06,1.85525e-05,0.633964,0.899084636840588,4.442069865939757e-06,4.450019901236502e-06,-0.24212968775292232,1.8552672098604006e-05,-0.3039960894102026
910,0.9001,884.802,0.0100064,0.0070387,0.00942461,-0.00842279,-0.0055776,0.641899,-0.277473,-0.362696,4.45266e-06,4.43587e-06,1.85528e-05,0.634488,0.9000857182059736,4.452669913002083e-06,4.435879838560197e-06,-0.2423039778806061,1.8552972104179943e-05,-0.304202076080206
911,0.9011,884.802,0.00981048,0.00685907,0.00945377,-0.00846226,-0.00562249,0.642425,-0.277703,-0.362992,4.46412e-06,4.42065e-06,1.85522e-05,0.635011,0.9010854261939012,4.464129964132368e-06,4.4206597711315965e-06,-0.24247822792617013,1.855237209302807e-05,-0.3044080017871781
912,0.9021,884.802,0.00992899,0.00700495,0.00941916,-0.00843131,-0.00558397,0.642951,-0.277933,-0.363288,4.4745e-06,4.40667e-06,1.85527e-05,0.635534,0.9020856601665523,4.4745100105103575e-06,4.406679709356709e-06,-0.24265243789883228,1.8552872102395312e-05,-0.3046138665491612
913,0.9031,884.802,0.0097686,0.00680547,0.00944018,-0.00845489,-0.00560857,0.643476,-0.278163,-0.363584,4.48581e-06,4.39173e-06,1.85524e-05,0.636057,0.9030845173151987,4.4858200611841426e-06,4.391739643727632e-06,-0.2428266078078083,1.8552572096819375e-05,-0.30481967038419244
914,0.9041,884.802,0.0098132,0.00684335,0.00942122,-0.00844291,-0.00559284,0.644002,-0.278393,-0.363879,4.49645e-06,4.37741e-06,1.85525e-05,0.63658,0.9040858030863783,4.496460109137956e-06,4.37741958081439e-06,-0.24300073766231156,1.8552672098604006e-05,-0.30502471833536937
915,0.9051,884.802,0.00977264,0.00683666,0.00942791,-0.00846078,-0.00559405,0.644527,-0.278623,-0.364174,4.5075e-06,4.36255e-06,1.85525e-05,0.637102,0.9050857105857506,4.5075101589020505e-06,4.3625595158580666e-06,-0.24317482747155372,1.8552672098604006e-05,-0.3052297058063218
916,0.9061,884.802,0.0098644,0.00685618,0.00942211,-0.00844922,-0.00560584,0.645051,-0.278853,-0.364469,4.51835e-06,4.34821e-06,1.85523e-05,0.637625,0.906084237089194,4.518360207761418e-06,4.348219453387259e-06,-0.24334887724474408,1.8552472095034744e-05,-0.30543463281488903
917,0.9071,884.802,0.00974156,0.00683435,0.00942435,-0.00847329,-0.00559792,0.645576,-0.279082,-0.364764,4.52933e-06,4.33322e-06,1.85523e-05,0.638146,0.9070851940418752,4.529340257519721e-06,4.333229388420179e-06,-0.2435221305135986,1.8552472095034744e-05,-0.3056394993789048
918,0.9081,884.802,0.00965628,0.00667474,0.00941521,-0.00845389,-0.00560343,0.6461,-0.279312,-0.365059,4.54012e-06,4.31899e-06,1.85521e-05,0.638668,0.9080847685492024,4.540130306374124e-06,4.318999326846651e-06,-0.24369610041627476,1.8552272091243438e-05,-0.30584430551619746
919,0.9091,884.802,0.00973134,0.00687584,0.00941095,-0.00846817,-0.00558258,0.646624,-0.279541,-0.365354,4.55097e-06,4.30418e-06,1.85523e-05,0.639189,0.9090848669708249,4.550980355677581e-06,4.304189263004687e-06,-0.24386927418012672,1.8552472095034744e-05,-0.30604905124459036
920,0.9101,884.802,0.00973819,0.00672565,0.00941525,-0.00846237,-0.00561157,0.647148,-0.27977,-0.365648,4.56197e-06,4.2897e-06,1.85519e-05,0.63971,0.9100854895813459,4.561980405881627e-06,4.2897092007443405e-06,-0.24404240829172708,1.855207208745213e-05,-0.3062530428352913
921,0.9111,884.802,0.00962213,0.00673131,0.00941153,-0.00848502,-0.00559576,0.647671,-0.279999,-0.365943,4.57284e-06,4.27471e-06,1.8552e-05,0.640231,0.9110847255698313,4.5728504554087834e-06,4.274719136665439e-06,-0.24421550276015513,1.8552172089458807e-05,-0.30645766800395857
922,0.9121,884.802,0.00956967,0.0065688,0.00940442,-0.00846448,-0.00560384,0.648194,-0.280228,-0.366237,4.58363e-06,4.26048e-06,1.85517e-05,0.640752,0.9120844842954225,4.5836405049293205e-06,4.260489075758045e-06,-0.2443885575944883,1.855187208388287e-05,-0.3066615394789901
923,0.9131,884.802,0.00969692,0.00688956,0.00939986,-0.00847874,-0.00558378,0.648717,-0.280457,-0.366531,4.59446e-06,4.24564e-06,1.85519e-05,0.641272,0.9130847660315826,4.594470554453167e-06,4.245649012801778e-06,-0.24456157280380164,1.855207208745213e-05,-0.306865351024618
924,0.9141,884.802,0.00954701,0.006581,0.00941089,-0.0084798,-0.00562662,0.64924,-0.280686,-0.366825,4.60556e-06,4.23101e-06,1.85511e-05,0.641792,0.9140855710519176,4.605570605553666e-06,4.231018950751064e-06,-0.24473454839716813,1.8551272072730995e-05,-0.307069102658459
925,0.9151,884.802,0.00949267,0.00657128,0.00939011,-0.0084866,-0.00557991,0.649762,-0.280914,-0.367118,4.61612e-06,4.21628e-06,1.85516e-05,0.642311,0.9150849845442344,4.616130654389039e-06,4.216288888470032e-06,-0.24490672929076585,1.855177208209824e-05,-0.3072721016705725
926,0.9161,884.802,0.00960129,0.00665886,0.00939624,-0.00848108,-0.00560017,0.650284,-0.281143,-0.367412,4.62711e-06,4.20176e-06,1.85512e-05,0.642831,0.9160849198665801,4.627120705036347e-06,4.201768827316599e-06,-0.24507962585234644,1.8551372074515626e-05,-0.30747573373730075
927,0.9171,884.802,0.00954081,0.00669964,0.00939388,-0.00849494,-0.00559894,0.650806,-0.281371,-0.367705,4.63797e-06,4.18689e-06,1.85511e-05,0.64335,0.9170853772914209,4.6379807554508545e-06,4.186898765023983e-06,-0.24525172807725293,1.8551272072730995e-05,-0.307678613623961
928,0.9181,884.802,0.00963533,0.00669157,0.00938647,-0.00848028,-0.00560314,0.651327,-0.281599,-0.367998,4.64873e-06,4.17252e-06,1.85508e-05,0.643869,0.9180844390059675,4.648740805412999e-06,4.172528704993184e-06,-0.24542379106732504,1.8550972067155058e-05,-0.30788143407552193
929,0.9191,884.802,0.00963463,0.00678483,0.00939139,-0.00850554,-0.00560109,0.651848,-0.281827,-0.368292,4.6597e-06,4.15744e-06,1.85506e-05,0.644387,0.9190840213672842,4.659710856502741e-06,4.157448642239103e-06,-0.2455958148315074,1.8550772063363752e-05,-0.3080848870248547
930,0.9201,884.802,0.00965074,0.00674405,0.00938283,-0.00849153,-0.00560669,0.652369,-0.282055,-0.368584,4.67044e-06,4.14304e-06,1.85504e-05,0.644906,0.9200841246466984,4.6704509064632305e-06,4.143048582427866e-06,-0.24576779937874238,1.855057205979449e-05,-0.30828689674298926
931,0.9211,884.802,0.00955104,0.00675302,0.00938249,-0.00850913,-0.00559564,0.65289,-0.282283,-0.368877,4.6813e-06,4.12807e-06,1.85503e-05,0.645424,0.9210847491156793,4.681310957321827e-06,4.128078520571066e-06,-0.24593974471797042,1.8550472057787815e-05,-0.3084895389937041
932,0.9221,884.802,0.00966519,0.00668068,0.00937729,-0.0084895,-0.00561266,0.65341,-0.282511,-0.36917,4.69209e-06,4.11377e-06,1.85498e-05,0.645941,0.9220839729609034,4.692101007952587e-06,4.113778461656281e-06,-0.24611165085813014,1.8549972048642616e-05,-0.308692121878937
933,0.9231,884.802,0.00947161,0.00666648,0.00937461,-0.00851932,-0.00558627,0.653931,-0.282739,-0.369462,4.7029e-06,4.09857e-06,1.855e-05,0.646459,0.9230856396223235,4.702911058585002e-06,4.0985783991143165e-06,-0.2462835178081576,1.8550172052211877e-05,-0.30889395431037925
934,0.9241,884.802,0.00969347,0.00673749,0.00936861,-0.0084912,-0.0056076,0.65445,-0.282966,-0.369755,4.71366e-06,4.08441e-06,1.85494e-05,0.646976,0.9240839801162362,4.71367110921328e-06,4.084418341321339e-06,-0.2464545920319562,1.8549572041282048e-05,-0.30909641871928195
935,0.9251,884.802,0.00954449,0.00671026,0.00937163,-0.00852486,-0.00559418,0.65497,-0.283194,-0.370047,4.72456e-06,4.06914e-06,1.85494e-05,0.647493,0.9250847639671469,4.72457116074132e-06,4.069148278995627e-06,-0.24662638080030908,1.8549572041282048e-05,-0.30929813311328114
936,0.9261,884.802,0.00963311,0.00667363,0.00935808,-0.00849274,-0.00560124,0.655489,-0.283421,-0.370339,4.73517e-06,4.05504e-06,1.8549e-05,0.64801,0.9260841422758841,4.7351812109130975e-06,4.0550482216517025e-06,-0.2467973772030414,1.8549172033699435e-05,-0.30949978861527594
937,0.9271,884.802,0.00938926,0.00663078,0.00936908,-0.00853657,-0.0055959,0.656008,-0.283648,-0.370631,4.7462e-06,4.03957e-06,1.85488e-05,0.648526,0.9270840393965838,4.7462112631180275e-06,4.039578159087398e-06,-0.24696833479399571,1.8548972030130173e-05,-0.3097013852424604
938,0.9281,884.802,0.00981983,0.00696128,0.00934516,-0.00848723,-0.0055948,0.656527,-0.283875,-0.370922,4.75663e-06,4.02577e-06,1.85486e-05,0.649042,0.9280844555985788,4.756641312830823e-06,4.025778103322608e-06,-0.24713925358198108,1.8548772026338867e-05,-0.3099022329146012
939,0.9291,884.802,0.00944153,0.00665499,0.00937575,-0.00855177,-0.00562053,0.657046,-0.284102,-0.371214,4.76798e-06,4.00992e-06,1.85479e-05,0.649558,0.9290853911513426,4.7679913668385865e-06,4.009928039838684e-06,-0.2473101335758049,1.854807201340236e-05,-0.3101037120452055
940,0.9301,884.802,0.0096121,0.00674144,0.00933338,-0.00849567,-0.00558565,0.657564,-0.284329,-0.371505,4.77809e-06,3.99621e-06,1.85481e-05,0.650074,0.9300849162386071,4.778101415192637e-06,3.996217984747474e-06,-0.24748097478427233,1.8548272016971623e-05,-0.31030444265727974
941,0.9311,884.802,0.00932599,0.00652809,0.0093626,-0.00854084,-0.00561065,0.658082,-0.284556,-0.371796,4.7894e-06,3.98072e-06,1.85474e-05,0.650589,0.9310849592139878,4.789411469197091e-06,3.9807279230696935e-06,-0.24765177721618692,1.8547572004035118e-05,-0.3105051148652441
942,0.9321,884.802,0.00958094,0.00675968,0.00933313,-0.00850916,-0.00559101,0.6586,-0.284783,-0.372087,4.79971e-06,3.96657e-06,1.85474e-05,0.651104,0.9320855203458209,4.799721518677913e-06,3.966577866831855e-06,-0.24782254088034972,1.8547572004035118e-05,-0.3107057286860917
943,0.9331,884.801,0.00923368,0.00645027,0.00935355,-0.00854595,-0.00560921,0.659117,-0.285009,-0.372378,4.81086e-06,3.9512e-06,1.85468e-05,0.651619,0.9330846668169475,4.8108715722250395e-06,3.951207806052182e-06,-0.24799251377844977,1.8546971992883243e-05,-0.31090628413681065
944,0.9341,884.802,0.00936211,0.00659228,0.00932929,-0.00851852,-0.0055933,0.659634,-0.285236,-0.372669,4.82125e-06,3.93696e-06,1.85467e-05,0.652134,0.9340843299803532,4.82126162215657e-06,3.936967749806897e-06,-0.24816320010419113,1.8546871991098612e-05,-0.3111067812343843
945,0.9351,884.802,0.00933632,0.00651767,0.00934169,-0.00853704,-0.00560864,0.660151,-0.285462,-0.37296,4.83226e-06,3.92192e-06,1.85461e-05,0.652648,0.9350845101032366,4.832271675470068e-06,3.921927690830884e-06,-0.2483330960220057,1.8546271979946738e-05,-0.3113072199957909
946,0.9361,884.802,0.00940278,0.00655382,0.00932636,-0.00852898,-0.00559522,0.660668,-0.285688,-0.37325,4.84279e-06,3.90733e-06,1.85459e-05,0.653162,0.9360852074529353,4.84280172630136e-06,3.907337633668462e-06,-0.24850295354768137,1.8546071976377476e-05,-0.3115069119452599
947,0.9371,884.802,0.00933375,0.00650387,0.00933143,-0.00854541,-0.0055981,0.661184,-0.285914,-0.37354,4.85365e-06,3.8923e-06,1.85455e-05,0.653676,0.9370844852114706,4.8536617789363135e-06,3.892307574915321e-06,-0.24867277268989374,1.8545671968794863e-05,-0.31170654599245984
948,0.9381,884.802,0.00946991,0.00670391,0.00931859,-0.00853097,-0.00559252,0.6617,-0.28614,-0.373831,4.86421e-06,3.87782e-06,1.85453e-05,0.654189,0.938084278730384,4.864221830214177e-06,3.877827518650179e-06,-0.24884255345731643,1.8545471965225602e-05,-0.3119068102477137
949,0.9391,884.801,0.00915468,0.00636671,0.00933009,-0.00855192,-0.00561249,0.662216,-0.286366,-0.374121,4.87518e-06,3.8627e-06,1.85446e-05,0.654703,0.9390845882758769,4.87519188374641e-06,3.862707460333681e-06,-0.24901229585862128,1.8544771952067052e-05,-0.31210632834122
950,0.9401,884.802,0.00946341,0.00664616,0.00930299,-0.00852463,-0.00558139,0.662732,-0.286592,-0.374411,4.88547e-06,3.84845e-06,1.85446e-05,0.655216,0.9400854141142871,4.885481933891711e-06,3.8484574051977916e-06,-0.24918199990247802,1.8544771952067052e-05,-0.31230578858286817
951,0.9411,884.801,0.00908395,0.00616684,0.00933827,-0.00856996,-0.00563814,0.663247,-0.286817,-0.3747,4.89684e-06,3.83288e-06,1.85434e-05,0.655728,0.9410848154263052,4.896851989455442e-06,3.832887345511793e-06,-0.24935091494884454,1.8543571929985347e-05,-0.31250450349427994
952,0.9421,884.802,0.00945189,0.00662182,0.00928289,-0.00852942,-0.00555352,0.663762,-0.287043,-0.37499,4.90665e-06,3.81884e-06,1.85442e-05,0.656241,0.9420847315625545,4.906662037562626e-06,3.818847291725547e-06,-0.24952054247343392,1.8544371944706484e-05,-0.31270384828187525
953,0.9431,884.801,0.00928336,0.00652727,0.00932467,-0.00855793,-0.00562354,0.664277,-0.287268,-0.375279,4.91809e-06,3.80358e-06,1.85428e-05,0.656753,0.9430851627882382,4.918102093798282e-06,3.80358723361951e-06,-0.2496893813562907,1.8542971918833473e-05,-0.3129024481706556
954,0.9441,884.802,0.00935399,0.00647969,0.00929695,-0.00854249,-0.0056046,0.664791,-0.287493,-0.375568,4.92837e-06,3.78909e-06,1.85426e-05,0.657265,0.9440841652835583,4.928382144386845e-06,3.7890971786858074e-06,-0.24985818225467238,1.8542771915042167e-05,-0.31310099067236097
955,0.9451,884.801,0.00912832,0.00641257,0.00930216,-0.0085633,-0.00559394,0.665306,-0.287718,-0.375857,4.93919e-06,3.77395e-06,1.85423e-05,0.657777,0.9450856264828036,4.939202197906667e-06,3.773957121255833e-06,-0.2500269451771243,1.854247190946623e-05,-0.31329947580357376
956,0.9461,884.802,0.00945995,0.00664756,0.00928783,-0.00853776,-0.00559418,0.66582,-0.287943,-0.376146,4.94966e-06,3.75964e-06,1.85419e-05,0.658288,0.9460856574807655,4.949672249621173e-06,3.759647067447247e-06,-0.25019567013219024,1.854207190210566e-05,-0.3134979035808716
957,0.9471,884.801,0.00903176,0.00619133,0.00930625,-0.00857889,-0.00561585,0.666333,-0.288168,-0.376435,4.9607e-06,3.74412e-06,1.85411e-05,0.658799,0.9470842555415555,4.960712304269421e-06,3.7441270093196977e-06,-0.25036435712841176,1.854127188716248e-05,-0.31369627402082745
958,0.9481,884.802,0.00934847,0.00656277,0.00926755,-0.00853498,-0.00557179,0.666847,-0.288393,-0.376724,4.97075e-06,3.73013e-06,1.85412e-05,0.65931,0.9480853140989136,4.97076235417282e-06,3.730136956869856e-06,-0.2505330061743287,1.8541371889169156e-05,-0.3138945871400095
959,0.9491,884.801,0.00892766,0.00624122,0.00930486,-0.00858134,-0.00562489,0.66736,-0.288618,-0.377012,4.98209e-06,3.71452e-06,1.85401e-05,0.659821,0.9490849382467177,4.982102410622247e-06,3.71452689873486e-06,-0.25070161727847895,1.8540271868650038e-05,-0.31409215704748084
960,0.9501,884.801,0.00926433,0.00653617,0.00925883,-0.0085378,-0.00557402,0.667873,-0.288842,-0.377301,4.992e-06,3.70052e-06,1.85402e-05,0.660331,0.9500850753332672,4.992012460069972e-06,3.700526846950325e-06,-0.2508694413192143,1.8540371870656713e-05,-0.3142903557729988
961,0.9511,884.801,0.00901058,0.00626437,0.00929576,-0.00858074,-0.00562375,0.668386,-0.289067,-0.377589,5.00332e-06,3.68496e-06,1.85391e-05,0.660841,0.9510857256217673,5.0033325165177445e-06,3.6849667894855997e-06,-0.2510379767339723,1.8539271850137595e-05,-0.31448781171551565
962,0.9521,884.801,0.00914043,0.00631857,0.00926009,-0.00855312,-0.00558802,0.668898,-0.289291,-0.377877,5.0134e-06,3.67066e-06,1.8539e-05,0.661351,0.9520849372896445,5.013412567089759e-06,3.670666736788064e-06,-0.2512057254386275,1.8539171848352964e-05,-0.3146852107989092
963,0.9531,884.801,0.00914492,0.006465,0.0092768,-0.00858062,-0.00559995,0.66941,-0.289516,-0.378165,5.02436e-06,3.65537e-06,1.85384e-05,0.66186,0.9530846606848864,5.024372622175477e-06,3.655376680899991e-06,-0.2513741851979703,1.853857183720109e-05,-0.31488255303955237
964,0.9541,884.802,0.00947442,0.00673797,0.00925996,-0.00855692,-0.00560125,0.669922,-0.28974,-0.378453,5.03475e-06,3.64099e-06,1.85378e-05,0.66237,0.9540848960695654,5.034762674327453e-06,3.6409966284178807e-06,-0.2515418586003637,1.8537971826049215e-05,-0.3150798384538137
965,0.9551,884.802,0.0093301,0.00662297,0.00927037,-0.0085892,-0.00560523,0.670434,-0.289964,-0.37874,5.0456e-06,3.62559e-06,1.85372e-05,0.662879,0.9550856437058861,5.045612728959981e-06,3.6255965725207062e-06,-0.2517094944481213,1.853737181489734e-05,-0.3152763823347815
966,0.9561,884.801,0.00902966,0.00626882,0.00925143,-0.00855706,-0.00560306,0.670945,-0.290188,-0.379028,5.05593e-06,3.61136e-06,1.85367e-05,0.663387,0.9560849477702633,5.055942781329037e-06,3.6113665209391854e-06,-0.2518770927496544,1.8536871805752142e-05,-0.315473554342537
967,0.9571,884.801,0.00880747,0.00616904,0.00925309,-0.00858168,-0.00558587,0.671456,-0.290411,-0.379315,5.06661e-06,3.59611e-06,1.85364e-05,0.663896,0.9570847626095094,5.066622835281365e-06,3.5961164659426004e-06,-0.2520439055576519,1.8536571800176205e-05,-0.3156699852432582
968,0.9581,884.801,0.00891809,0.0062057,0.00924329,-0.00855553,-0.00559999,0.671967,-0.290635,-0.379602,5.07708e-06,3.58178e-06,1.85357e-05,0.664404,0.9580850884846968,5.0770928883281385e-06,3.58178641457485e-06,-0.25221142895948545,1.85358717872397e-05,-0.3158663597763999
969,0.9591,884.801,0.00895844,0.00610084,0.0092501,-0.00858615,-0.00560093,0.672477,-0.290859,-0.379889,5.08783e-06,3.56642e-06,1.85351e-05,0.664912,0.9590839665720854,5.087842942952392e-06,3.5664263597912083e-06,-0.2523789148402795,1.8535271776087825e-05,-0.3160626779581375
970,0.9601,884.801,0.00896149,0.00613243,0.00923259,-0.00857875,-0.00557725,0.672988,-0.291082,-0.380176,5.09816e-06,3.55172e-06,1.85348e-05,0.66542,0.9600853143015593,5.098172995543493e-06,3.551726307282621e-06,-0.25254561575442747,1.8534971770511888e-05,-0.31625893980464137
971,0.9611,884.801,0.00892548,0.00608281,0.00924774,-0.00858728,-0.00561735,0.673498,-0.291306,-0.380462,5.10904e-06,3.53674e-06,1.85337e-05,0.665927,0.9610852127642884,5.109053051066681e-06,3.5367462543067774e-06,-0.2527130267857629,1.853387174999277e-05,-0.3164544617868811
972,0.9621,884.802,0.00928295,0.00654596,0.0092172,-0.00856587,-0.00557424,0.674008,-0.291529,-0.380749,5.11913e-06,3.5223e-06,1.85337e-05,0.666435,0.9620856213052922,5.119143102749746e-06,3.522306203374015e-06,-0.25287965320125383,1.853387174999277e-05,-0.31665061120756
973,0.9631,884.801,0.00897898,0.00632167,0.00925139,-0.00860847,-0.00562935,0.674517,-0.291752,-0.381035,5.13032e-06,3.5067e-06,1.85324e-05,0.666942,0.9630845770992187,5.13033316007494e-06,3.5067061485705153e-06,-0.25304624246319696,1.853257172590439e-05,-0.3168460211877955
974,0.9641,884.801,0.00891801,0.00612804,0.00920951,-0.00855761,-0.00559543,0.675026,-0.291975,-0.381322,5.14021e-06,3.49278e-06,1.85322e-05,0.667448,0.9640840414910714,5.140223210853279e-06,3.4927860996791793e-06,-0.25321279457987644,1.8532371722335128e-05,-0.3170420582470509
975,0.9651,884.801,0.00860247,0.0059945,0.00922575,-0.00859587,-0.00559092,0.675535,-0.292198,-0.381608,5.15107e-06,3.47727e-06,1.85316e-05,0.667955,0.9650840147397926,5.151083266818901e-06,3.4772760457713048e-06,-0.2533793095595749,1.8531771711183254e-05,-0.31723735628944094
976,0.9661,884.801,0.00916724,0.00651276,0.00921009,-0.00857117,-0.00559802,0.676044,-0.292421,-0.381894,5.16139e-06,3.46289e-06,1.85309e-05,0.668461,0.9660844971044564,5.1614033200753084e-06,3.462895995731685e-06,-0.25354578741057276,1.8531071698246748e-05,-0.3174325984845775
977,0.9671,884.801,0.00904231,0.00648244,0.00921542,-0.00860254,-0.00559,0.676553,-0.292643,-0.38218,5.17206e-06,3.44748e-06,1.85304e-05,0.668967,0.9670854888442688,5.172073375137032e-06,3.4474859424982185e-06,-0.25371148185300396,1.8530571688879505e-05,-0.31762778484843035
978,0.9681,884.801,0.00891205,0.00598699,0.00921517,-0.00858941,-0.00562272,0.677061,-0.292866,-0.382465,5.18263e-06,3.43286e-06,1.85293e-05,0.669473,0.9680850221325616,5.182643429746392e-06,3.4328658922166966e-06,-0.2538778856378392,1.852947166858243e-05,-0.3178222332195395
979,0.9691,884.801,0.00926823,0.00653608,0.00918754,-0.00858753,-0.00555742,0.677569,-0.293088,-0.382751,5.19271e-06,3.41805e-06,1.85295e-05,0.669978,0.9690850633127586,5.192723482094763e-06,3.4180558414753648e-06,-0.25404350636264694,1.8529671672151693e-05,-0.31801730816379203
980,0.9701,884.801,0.00892865,0.00616338,0.00921668,-0.00860593,-0.00562334,0.678077,-0.293311,-0.383036,5.20377e-06,3.40286e-06,1.8528e-05,0.670483,0.9700856126429342,5.203783539631246e-06,3.4028657898144132e-06,-0.2542098361142714,1.852817164449405e-05,-0.31821164553657433
981,0.9711,884.801,0.00911604,0.00650414,0.00917282,-0.00857778,-0.00555919,0.678584,-0.293533,-0.383321,5.21356e-06,3.38852e-06,1.85282e-05,0.670988,0.9710846992956093,5.213573590623355e-06,3.388525741110371e-06,-0.2543753831542528,1.8528371648063313e-05,-0.3184059275310971
982,0.9721,884.801,0.00883247,0.00623661,0.00921058,-0.0086044,-0.00563043,0.679091,-0.293755,-0.383606,5.22474e-06,3.37319e-06,1.85265e-05,0.671493,0.9720842926136464,5.224753649057945e-06,3.373195689215791e-06,-0.25454089344687025,1.8526671616614365e-05,-0.318600154163141
983,0.9731,884.801,0.00878281,0.00608098,0.00917166,-0.0085724,-0.00559072,0.679598,-0.293977,-0.383891,5.23461e-06,3.35893e-06,1.85264e-05,0.671997,0.9730843928539896,5.234623700500762e-06,3.3589356411845017e-06,-0.25470636700028104,1.8526571614829734e-05,-0.3187943254484821
984,0.9741,884.801,0.00881759,0.00621215,0.00918028,-0.00861118,-0.00556621,0.680105,-0.294199,-0.384176,5.24527e-06,3.34338e-06,1.8526e-05,0.672501,0.9740850002737136,5.245283756449837e-06,3.3433855890496744e-06,-0.2548718038226402,1.8526171607469166e-05,-0.31898844140289184
985,0.9751,884.801,0.00868897,0.00590295,0.00919058,-0.00859735,-0.00563539,0.680611,-0.294421,-0.384461,5.25597e-06,3.32876e-06,1.85244e-05,0.673005,0.9750841400448962,5.255983812624265e-06,3.3287655403224647e-06,-0.2550372039221013,1.852457157780485e-05,-0.3191825020421374
986,0.9761,884.801,0.00863567,0.00605143,0.00915972,-0.00860373,-0.00556197,0.681118,-0.294642,-0.384745,5.26595e-06,3.31378e-06,1.85246e-05,0.673509,0.9760857615935061,5.265963865186407e-06,3.31378549067729e-06,-0.2552018225090107,1.852477158137411e-05,-0.31937582675814835
987,0.9771,884.801,0.00916487,0.00625802,0.00916835,-0.00857311,-0.00560953,0.681624,-0.294864,-0.385029,5.27659e-06,3.29949e-06,1.85233e-05,0.674012,0.9770859140060932,5.276603921133827e-06,3.2994954433096524e-06,-0.25536714935245497,1.852347155728573e-05,-0.3195690965777356
988,0.9781,884.801,0.0086772,0.00624608,0.00917684,-0.00864885,-0.00558833,0.682129,-0.295086,-0.385314,5.28724e-06,3.28323e-06,1.85229e-05,0.674515,0.9780845945382766,5.287253977526163e-06,3.283235389783812e-06,-0.2555324394974139,1.8523071549925163e-05,-0.31976299175383593
989,0.9791,884.801,0.00904116,0.00600651,0.00914524,-0.00854809,-0.00561401,0.682635,-0.295307,-0.385598,5.29718e-06,3.2702e-06,1.85218e-05,0.675018,0.9790857586162636,5.297194030084995e-06,3.2702053471833636e-06,-0.255696948649354,1.852197152962809e-05,-0.31995615163417646
990,0.9801,884.801,0.00811055,0.00584033,0.0091705,-0.00866842,-0.0055666,0.68314,-0.295528,-0.385882,5.30809e-06,3.25314e-06,1.85217e-05,0.675521,0.9800854493250231,5.3081040878311114e-06,3.2531452913708847e-06,-0.25586142144878876,1.852187152784346e-05,-0.32014925666490013
991,0.9811,884.801,0.00867361,0.00561816,0.00913292,-0.00851968,-0.0056342,0.683645,-0.295749,-0.386165,5.31791e-06,3.24098e-06,1.852e-05,0.676023,0.9810856450050853,5.31792414015797e-06,3.240985251951045e-06,-0.2560258579037511,1.8520171496172466e-05,-0.32034162720354886
992,0.9821,884.801,0.00821624,0.00587974,0.00914968,-0.00867061,-0.00552886,0.684149,-0.29597,-0.386449,5.32864e-06,3.2234e-06,1.85207e-05,0.676525,0.98208436382617,5.3286541972230594e-06,3.223405195207363e-06,-0.25619025802227213,1.8520871509331016e-05,-0.32053462277475475
993,0.9831,884.801,0.00883575,0.00579545,0.00913547,-0.0085461,-0.00563769,0.684654,-0.296191,-0.386732,5.33885e-06,3.21078e-06,1.85184e-05,0.677027,0.9830855692129845,5.338864251580588e-06,3.2107851546392396e-06,-0.25635462181238133,1.8518571466730194e-05,-0.32072688427022467
994,0.9841,884.801,0.00853608,0.00627733,0.00914944,-0.00867562,-0.0055627,0.685158,-0.296412,-0.387016,5.34954e-06,3.19355e-06,1.85187e-05,0.677529,0.9840852962499191,5.349554308864413e-06,3.1935550994788287e-06,-0.2565189492821066,1.8518871472084086e-05,-0.3209197704439588
995,0.9851,884.801,0.00887231,0.0061278,0.00912698,-0.00855352,-0.00563962,0.685662,-0.296633,-0.387299,5.35959e-06,3.18087e-06,1.85168e-05,0.67803,0.9850855272762749,5.359604362542569e-06,3.180875058905741e-06,-0.25668324043947366,1.8516971437065877e-05,-0.32111192295806
996,0.9861,884.801,0.00845898,0.00615717,0.00912535,-0.00864822,-0.00554325,0.686165,-0.296853,-0.387582,5.36999e-06,3.16429e-06,1.85173e-05,0.678531,0.9860842764608571,5.370004418470131e-06,3.1642950064636466e-06,-0.2568467521396305,1.8517471446211076e-05,-0.32130402110069356
997,0.9871,884.801,0.00887119,0.00610427,0.00912387,-0.00857442,-0.00562754,0.686669,-0.297074,-0.387865,5.38038e-06,3.15075e-06,1.85154e-05,0.679032,0.987085515227168,5.380394474174821e-06,3.1507549635989562e-06,-0.2570109708605707,1.851557141097082e-05,-0.3214960648872446
998,0.9881,884.801,0.00841135,0.00615493,0.0091228,-0.00865321,-0.00556682,0.687172,-0.297294,-0.388148,5.39077e-06,3.13443e-06,1.85154e-05,0.679532,0.9880852706587395,5.3907845303236e-06,3.1344349122885973e-06,-0.2571744104679653,1.851557141097082e-05,-0.32168805433309355
999,0.9891,884.801,0.0089151,0.00602571,0.00911369,-0.00856312,-0.00564243,0.687675,-0.297514,-0.38843,5.40102e-06,3.12119e-06,1.85136e-05,0.680033,0.9890855290937879,5.401034585572617e-06,3.1211948710030413e-06,-0.25733781412260126,1.8513771377737243e-05,-0.3218793113332672
