,Time,S11,S22,S33,S12,S13,S23,LE11,LE22,LE33,LE12,LE13,LE23,SDV_EPBAR,E11,E12,E13,E22,E23,E33
0,0.0001,20.7736,-2.45759e-12,-2.45848e-12,-2.29301e-37,1.35342e-16,-1.3536e-16,9.9995e-05,-2.99985e-05,-2.99985e-05,0.0,0.0,0.0,0.0,9.999999966670003e-05,0.0,0.0,-2.999805004955114e-05,0.0,-2.999805004955114e-05
1,0.0002,41.545,-3.38973e-12,-3.38929e-12,-1.71972e-37,6.76535e-17,-6.76799e-17,0.00019998,-5.9994e-05,-5.9994e-05,0.0,0.0,0.0,0.0,0.00019999999733322227,0.0,0.0,-5.9992200395986295e-05,0.0,-5.9992200395986295e-05
2,0.0003,62.3145,-3.38396e-12,-3.38218e-12,-6.76711e-17,6.76447e-17,0.0,0.000299955,-8.99865e-05,-8.99865e-05,0.0,0.0,0.0,0.0,0.0002999999909993889,0.0,0.0,-8.998245133640115e-05,0.0,-8.998245133640115e-05
3,0.0004,83.0818,-3.38485e-12,-3.38396e-12,8.79619e-21,6.76359e-17,-1.3536e-16,0.00039992,-0.000119976,-0.000119976,0.0,0.0,0.0,0.0,0.00039999997866457804,0.0,0.0,-0.00011996880316755831,0.0,-0.00011996880316755831
4,0.0005,103.847,-3.37907e-12,-3.37863e-12,6.76799e-17,-6.77151e-17,0.0,0.000499875,-0.000149963,-0.000149963,0.0,0.0,0.0,0.0,0.0004999999583281678,0.0,0.0,-0.00014995175611143274,0.0,-0.00014995175611143274
5,0.0006,124.61,-3.3813e-12,-3.38041e-12,1.75845e-24,6.76359e-17,1.3536e-16,0.00059982,-0.000179946,-0.000179946,0.0,0.0,0.0,0.0,0.0005999999279893142,0.0,0.0,-0.00017992981068959413,0.0,-0.00017992981068959413
6,0.0007,145.371,-3.37286e-12,-3.3733e-12,1.75845e-24,-4.39836e-20,4.06079e-16,0.000699755,-0.000209927,-0.000209927,0.0,0.0,0.0,0.0,0.0006999998856467293,0.0,0.0,-0.0002099049668691233,0.0,-0.0002099049668691233
7,0.0008,166.13,-3.37375e-12,-3.37508e-12,1.75845e-24,6.76271e-17,2.7072e-16,0.00079968,-0.000239904,-0.000239904,0.0,0.0,0.0,0.0,0.000799999829299125,0.0,0.0,-0.00023987522533652772,0.0,-0.00023987522533652772
8,0.0009,186.887,-3.36486e-12,-3.36442e-12,1.75845e-24,6.76183e-17,2.7072e-16,0.000899595,-0.000269879,-0.000269879,0.0,0.0,0.0,0.0,0.0008999997569454354,0.0,0.0,-0.00026984258593854005,0.0,-0.00026984258593854005
9,0.001,207.642,-3.37108e-12,-3.36975e-12,1.75845e-24,-6.15663e-20,2.0304e-16,0.0009995,-0.00029985,-0.00029985,0.0,0.0,0.0,0.0,0.0009999996665834843,0.0,0.0,-0.00029980504948168285,0.0,-0.00029980504948168285
10,0.0011,228.395,-3.37375e-12,-3.3733e-12,1.75845e-24,-6.15663e-20,1.3536e-16,0.0010994,-0.000329819,-0.000329819,0.0,0.0,0.0,0.0,0.0011000045617113319,0.0,0.0,-0.0003297646156927847,0.0,-0.0003297646156927847
11,0.0012,249.146,-3.36042e-12,-3.36087e-12,-6.76711e-17,6.76095e-17,2.7072e-16,0.00119928,-0.000359784,-0.000359784,0.0,0.0,0.0,0.0,0.0011999994238274247,0.0,0.0,-0.0003597192854979392,0.0,-0.0003597192854979392
12,0.0013,269.894,-3.36975e-12,-3.36975e-12,8.79004e-21,-7.03546e-20,4.06079e-16,0.00129916,-0.000389747,-0.000389747,0.0,0.0,0.0,0.0,0.0013000042739288453,0.0,0.0,-0.00038967105850429284,0.0,-0.00038967105850429284
13,0.0014,290.641,-3.36975e-12,-3.36797e-12,8.79004e-21,1.35272e-16,3.38399e-16,0.00139902,-0.000419706,-0.000419706,0.0,0.0,0.0,0.0,0.0013999990850135369,0.0,0.0,-0.0004196179357576213,0.0,-0.0004196179357576213
14,0.0015,311.386,-3.36708e-12,-3.36975e-12,8.79004e-21,-6.7759e-17,3.38399e-16,0.00149888,-0.000449663,-0.000449663,0.0,0.0,0.0,0.0,0.0015000038820784933,0.0,0.0,-0.00044956191674494494,0.0,-0.00044956191674494494
15,0.0016,332.128,-3.36797e-12,-3.3662e-12,8.79004e-21,6.7592e-17,3.38399e-16,0.00159872,-0.000479616,-0.000479616,0.0,0.0,0.0,0.0,0.0015999986341210803,0.0,0.0,-0.0004795010026318325,0.0,-0.0004795010026318325
16,0.0017,352.868,-3.36842e-12,-3.36797e-12,8.79004e-21,-8.79267e-20,2.0304e-16,0.00169856,-0.000509567,-0.000509567,0.0,0.0,0.0,0.0,0.0017000033701379813,0.0,0.0,-0.0005094371927857333,0.0,-0.0005094371927857333
17,0.0018,373.607,-3.38973e-12,-3.38929e-12,8.79004e-21,1.35254e-16,2.7072e-16,0.00179838,-0.000539515,-0.000539515,0.0,0.0,0.0,0.0,0.0017999980551262063,0.0,0.0,-0.0005393694879521904,0.0,-0.0005393694879521904
18,0.0019,394.343,-3.3693e-12,-3.36797e-12,8.79004e-21,6.75656e-17,3.38399e-16,0.0018982,-0.000569459,-0.000569459,0.0,0.0,0.0,0.0,0.001900002722081906,0.0,0.0,-0.000569296888996984,0.0,-0.000569296888996984
19,0.002,415.077,-3.39151e-12,-3.39107e-12,8.79004e-21,6.75568e-17,4.73759e-16,0.001998,-0.000599401,-0.000599401,0.0,0.0,0.0,0.0,0.001999997332001513,0.0,0.0,-0.0005992213951074854,0.0,-0.0005992213951074854
20,0.0021,435.809,-3.33555e-12,-3.336e-12,8.79004e-21,-1.23056e-19,4.06079e-16,0.0020978,-0.000629339,-0.000629339,0.0,0.0,0.0,0.0,0.0021000019218813115,0.0,0.0,-0.0006291410077484683,0.0,-0.0006291410077484683
21,0.0022,456.539,-3.3693e-12,-3.36797e-12,8.79004e-21,1.35219e-16,4.06079e-16,0.00219758,-0.000659275,-0.000659275,0.0,0.0,0.0,0.0,0.0021999964487171564,0.0,0.0,-0.0006590577259876218,0.0,-0.0006590577259876218
22,0.0023,466.3,-0.0913422,-0.075259,0.00788999,-0.0087402,-0.0246995,0.00229736,-0.00069719,-0.000702665,1.04237e-07,-1.07744e-07,-3.20454e-07,5.23613e-05,0.0023000009535045773,1.0423700547157466e-07,-1.0774399417101677e-07,-0.0006969470195230532,-3.204539487100533e-07,-0.0007024181887608227
23,0.0024,469.178,-0.0860253,-0.0694305,0.00571725,-0.00711433,-0.0227793,0.00239712,-0.000739724,-0.00075433,8.317e-08,-7.24683e-08,-3.21917e-07,0.00013798,0.0023999953892392956,8.317000355084758e-08,-7.246829736295979e-08,-0.0007394504716512484,-3.2191694820937755e-07,-0.0007540455646494193
24,0.0025,472.05,0.00723381,0.000514633,-0.00724569,0.00902911,0.00907846,0.00249688,-0.000782041,-0.000805922,-8.59076e-08,1.3584e-07,8.08308e-08,0.000223834,0.0024999998009163082,-8.59075962589273e-08,1.3584000924105055e-07,-0.000781735285636076,8.083080316190205e-08,-0.0008055973320898469
25,0.0026,474.764,-0.00752398,-0.0036474,-0.00585112,0.00486005,0.0084635,0.00259663,-0.000824762,-0.000857753,-7.37626e-08,8.76648e-08,7.68228e-08,0.000310171,0.002600004163531233,-7.376259725244694e-08,8.766480386057651e-08,-0.0008244219773073658,7.682280300791433e-08,-0.0008573852350535205
26,0.0027,477.423,0.000569523,-0.000570435,-0.00663984,0.00696215,0.00921742,0.00269636,-0.000867437,-0.000909669,-8.98124e-08,1.19096e-07,9.03457e-08,0.000396807,0.0026999984480784445,-8.98123959647279e-08,1.190960070562852e-07,-0.0008670608852853201,9.034570402910447e-08,-0.0009092553765848166
27,0.0028,480.01,-0.00147518,-0.000838509,-0.00641958,0.00627112,0.00928805,0.00279609,-0.000910193,-0.000961658,-9.3005e-08,1.15183e-07,9.53419e-08,0.000483757,0.0028000027055530285,-9.300499570485954e-08,1.1518300668811321e-07,-0.0009097788999978818,9.534190459348224e-08,-0.0009611957551312056
28,0.0029,482.537,-0.000587334,-0.000685282,-0.00640699,0.00646064,0.0092452,0.0028958,-0.000952977,-0.00101372,-9.88023e-08,1.22378e-07,9.88834e-08,0.000570994,0.0028999968789495956,-9.880229512315708e-08,1.2237800750547478e-07,-0.0009525230616277414,9.888340479768942e-08,-0.0010132063594580076
29,0.003,485.004,-0.000807133,-0.000654839,-0.00632416,0.00631503,0.00926906,0.00299551,-0.000995803,-0.00106585,-1.03646e-07,1.25285e-07,1.03261e-07,0.000658505,0.0030000010232620333,-1.0364599467571622e-07,1.2528500792363673e-07,-0.0009953073527285694,1.0326100530200222e-07,-0.0010652821836423243
30,0.0031,487.415,-0.000667543,-0.000617138,-0.00626191,0.00628512,0.00925225,0.0030952,-0.00103866,-0.00111804,-1.08695e-07,1.2961e-07,1.0711e-07,0.000746277,0.0030999950774850404,-1.086949941164761e-07,1.2961000850353344e-07,-0.0010381207794073477,1.0711000575369667e-07,-0.001117415226141616
31,0.0032,489.771,-0.00066099,-0.000581814,-0.00619483,0.00621489,0.0092515,0.00319489,-0.00108156,-0.00117029,-1.13625e-07,1.33378e-07,1.11148e-07,0.000834296,0.003199999100611972,-1.136249935251854e-07,1.3337800885970807e-07,-0.001080975324789346,1.1114800613221121e-07,-0.001169605477713831
32,0.0033,492.077,-0.00061253,-0.00055051,-0.00613109,0.00616041,0.00924347,0.00329457,-0.00112448,-0.0012226,-1.18543e-07,1.37299e-07,1.15081e-07,0.000922552,0.0033000030606369357,-1.1854299297731075e-07,1.3729900949499552e-07,-0.0011238480092740089,1.1508100672408261e-07,-0.0012218529291072588
33,0.0034,494.333,-0.000582377,-0.000520541,-0.00606807,0.00610195,0.00923745,0.00339423,-0.00116744,-0.00127496,-1.23416e-07,1.41126e-07,1.19026e-07,0.00101103,0.003399996921553239,-1.2341599242571277e-07,1.411260099892786e-07,-0.001166758807032986,1.1902600705049338e-07,-0.0012741475838019545
34,0.0035,496.543,-0.000549017,-0.000492944,-0.0060066,0.00604648,0.00923005,0.00349389,-0.00121042,-0.00132737,-1.28255e-07,1.44946e-07,1.22941e-07,0.00109973,0.003500000748354326,-1.2825499173807486e-07,1.4494601052739142e-07,-0.0012096877371901016,1.2294100759646653e-07,-0.0013264894340968558
35,0.0036,498.708,-0.000519699,-0.000467021,-0.00594634,0.00599151,0.00922259,0.00359354,-0.00125344,-0.00137983,-1.33057e-07,1.4873e-07,1.26841e-07,0.00118863,0.003600004506033372,-1.3305699120280678e-07,1.4873001097370775e-07,-0.00125265477219616,1.2684100814119859e-07,-0.0013788784722846836
36,0.0037,500.829,-0.00049163,-0.000442825,-0.00588735,0.00593787,0.00921465,0.00369317,-0.00129647,-0.00143234,-1.37823e-07,1.52488e-07,1.30722e-07,0.00127773,0.003699998155583195,-1.378229904647199e-07,1.524880115510996e-07,-0.001295629945843757,1.307220085511318e-07,-0.0014313146906511642
37,0.0038,502.909,-0.000465569,-0.000420144,-0.00582957,0.00588523,0.00920646,0.0037928,-0.00133954,-0.0014849,-1.42555e-07,1.56217e-07,1.34586e-07,0.00136702,0.0038000017679966636,-1.425549898126377e-07,1.562170122149098e-07,-0.001338643216764579,1.3458600900406736e-07,-0.0014837980814754737
38,0.0039,504.95,-0.000441053,-0.00039888,-0.00577297,0.00583366,0.00919798,0.00389241,-0.00138263,-0.00153749,-1.47252e-07,1.59919e-07,1.38434e-07,0.00145648,0.0038999952662663873,-1.4725198915765958e-07,1.5991901269885034e-07,-0.0013816746075103747,1.3843400958890584e-07,-0.0015363086677563365
39,0.004,506.953,-0.000418064,-0.000378913,-0.00571751,0.0057831,0.00918928,0.00399202,-0.00142573,-0.00159013,-1.51916e-07,1.63594e-07,1.42267e-07,0.00154612,0.003999998725384479,-1.519159884555421e-07,1.635940134470104e-07,-0.0014247141298264765,1.422670101725032e-07,-0.0015888664131360475
40,0.0041,508.918,-0.000396447,-0.000360145,-0.00566316,0.00573353,0.00918038,0.00409162,-0.00146887,-0.00164281,-1.56546e-07,1.67243e-07,1.46084e-07,0.00163593,0.004100002105343004,-1.56545987728407e-07,1.672430138821568e-07,-0.001467791738468227,1.4608401066595889e-07,-0.0016414613262912825
41,0.0042,510.849,-0.00037611,-0.000342483,-0.00560987,0.00568491,0.0091713,0.0041912,-0.00151202,-0.00169552,-1.61143e-07,1.70865e-07,1.49886e-07,0.00172589,0.0041999953621343344,-1.6114298706515484e-07,1.708650145815227e-07,-0.0015108774736732888,1.4988601115817346e-07,-0.0016940834179973718
42,0.0043,512.746,-0.000356953,-0.000325845,-0.00555763,0.00563723,0.00916207,0.00429078,-0.00155519,-0.00174827,-1.65707e-07,1.74461e-07,1.53674e-07,0.00181601,0.004299998576750008,-1.6570698624374103e-07,1.7446101518991952e-07,-0.0015539813186895568,1.536740117380475e-07,-0.0017467426661971208
43,0.0044,514.61,-0.000338889,-0.000310155,-0.0055064,0.00559045,0.00915272,0.00439035,-0.00159838,-0.00180106,-1.70239e-07,1.78031e-07,1.57448e-07,0.00190628,0.004400001706181378,-1.7023898546408844e-07,1.7803101592939186e-07,-0.0015971032710110356,1.5744801240558104e-07,-0.0017994390647181335
44,0.0045,516.442,-0.000321839,-0.000295343,-0.00545614,0.00554454,0.00914326,0.00448991,-0.00164159,-0.00185388,-1.7474e-07,1.81576e-07,1.61209e-07,0.00199668,0.00450000474842005,-1.7473998470407537e-07,1.8157601644475108e-07,-0.0016402433281310635,1.6120901302763002e-07,-0.0018521626259052626
45,0.0046,518.244,-0.000305731,-0.000281348,-0.00540683,0.00549949,0.00913372,0.00458945,-0.00168481,-0.00190673,-1.7921e-07,1.85096e-07,1.64956e-07,0.00208723,0.004599997655457155,-1.792099839637018e-07,1.850960171800864e-07,-0.0016833915043756864,1.6495601351529388e-07,-0.0019049133451604083
46,0.0047,520.017,-0.000290498,-0.000268111,-0.00535844,0.00545527,0.0091241,0.00468899,-0.00172805,-0.00195961,-1.83649e-07,1.88592e-07,1.68691e-07,0.0021779,0.004700000516283609,-1.8364898313194544e-07,1.8859201778020918e-07,-0.0017265577812654032,1.6869101426841837e-07,-0.0019576912178834727
47,0.0048,521.761,-0.000276079,-0.000255581,-0.00531095,0.00541185,0.00911442,0.00478852,-0.00177131,-0.00201251,-1.88058e-07,1.92064e-07,1.72413e-07,0.0022687,0.004800003283890186,-1.8805798229770687e-07,1.9206401846716403e-07,-0.0017697421562909987,1.7241301475401372e-07,-0.0020104862595768935
48,0.0049,523.478,-0.000262419,-0.000243709,-0.00526432,0.00536922,0.00910469,0.00488803,-0.00181458,-0.00206545,-1.92437e-07,1.95511e-07,1.76122e-07,0.00235962,0.004899995907267529,-1.924369814609861e-07,1.9551101915205038e-07,-0.0018129346450717065,1.7612201541616912e-07,-0.00206331842595453
49,0.005,525.168,-0.000249467,-0.00023245,-0.00521854,0.00532734,0.00909493,0.00498754,-0.00185787,-0.00211841,-1.96787e-07,1.98935e-07,1.7982e-07,0.00245066,0.004999998481405754,-1.9678698059966138e-07,1.9893501979062478e-07,-0.001856145227831063,1.7982001621064114e-07,-0.002116167753148157
50,0.0051,526.832,-0.000237177,-0.000221765,-0.00517357,0.00528621,0.00908515,0.00508704,-0.00190117,-0.0021714,-2.01107e-07,2.02336e-07,1.83506e-07,0.00254181,0.005100000956295148,-2.0110697973585445e-07,2.0233602038288723e-07,-0.001899363921051278,1.835060168264846e-07,-0.0021690442164445933
51,0.0052,528.472,-0.000225505,-0.000211616,-0.00512939,0.00524578,0.00907535,0.00518653,-0.00194448,-0.00222442,-2.054e-07,2.05714e-07,1.87181e-07,0.00263308,0.005200003329925984,-2.0539997891422246e-07,2.0571402115088233e-07,-0.0019425907235166573,1.8718101757464467e-07,-0.0022219478112336377
52,0.0053,530.087,-0.000214411,-0.000201969,-0.00508599,0.00520606,0.00906554,0.005286,-0.00198781,-0.00227746,-2.09664e-07,2.09069e-07,1.90844e-07,0.00272444,0.005299995547287661,-2.0966397806798653e-07,2.0906902187256549e-07,-0.0019858356141532196,1.9084401814417618e-07,-0.002274868555651177
53,0.0054,531.679,-0.00020386,-0.000192792,-0.00504333,0.00516702,0.00905573,0.00538547,-0.00203115,-0.00233052,-2.139e-07,2.12402e-07,1.94497e-07,0.00281591,0.005399997711369897,-2.1389997717502496e-07,2.1240202263683727e-07,-0.002029088610738583,1.9449701893492488e-07,-0.002327806446670855
54,0.0055,533.248,-0.000193816,-0.000184055,-0.0050014,0.00512863,0.00904593,0.00548493,-0.0020745,-0.0023836,-2.18109e-07,2.15713e-07,1.98138e-07,0.00290748,0.005499999768162178,-2.18108976213216e-07,2.157130232216531e-07,-0.002072349712056165,1.9813801954704502e-07,-0.0023807614812656475
55,0.0056,534.796,-0.00018425,-0.000175732,-0.00496018,0.00509089,0.00903614,0.00558438,-0.00211786,-0.00243671,-2.22291e-07,2.19003e-07,2.01769e-07,0.00299915,0.0056000017156534465,-2.22290975293582e-07,2.1900302393795812e-07,-0.0021156189168894945,2.0176902038038236e-07,-0.00243374363206994
56,0.0057,536.322,-0.000175132,-0.000167798,-0.00491965,0.00505377,0.00902637,0.00568382,-0.00216123,-0.00248983,-2.26446e-07,2.2227e-07,2.0539e-07,0.00309091,0.005700003551833088,-2.264459744161229e-07,2.222700246079512e-07,-0.002158896224021878,2.053900209908477e-07,-0.0024867329441995434
57,0.0058,537.827,-0.000166434,-0.000160229,-0.00487978,0.00501725,0.00901662,0.00578324,-0.00220461,-0.00254298,-2.30576e-07,2.25517e-07,2.09e-07,0.00318275,0.005799995216689391,-2.30575973425573e-07,2.2551702549833408e-07,-0.0022021816322363996,2.0900002173362964e-07,-0.0025397493654197856
58,0.0059,539.312,-0.000158134,-0.000153003,-0.00484057,0.00498133,0.0090069,0.00588266,-0.002248,-0.00259614,-2.34679e-07,2.28743e-07,2.12601e-07,0.00327469,0.005899996823211406,-2.3467897247719804e-07,2.2874302607611696e-07,-0.0022454751403159223,2.1260102256448477e-07,-0.0025927729429643387
59,0.006,540.777,-0.000150206,-0.000146102,-0.00480198,0.00494599,0.00899721,0.00598207,-0.00229141,-0.00264932,-2.38757e-07,2.31948e-07,2.16191e-07,0.00336671,0.005999998312387289,-2.3875697152675457e-07,2.3194802700743367e-07,-0.002288786724155334,2.161910233056119e-07,-0.0026458136489343476
60,0.0061,542.224,-0.000142631,-0.000139506,-0.00476402,0.0049112,0.00898755,0.00608147,-0.00233482,-0.00270252,-2.42809e-07,2.35133e-07,2.19772e-07,0.0034588,0.006099999682205315,-2.42808970485342e-07,2.3513302771505096e-07,-0.002332096427879682,2.1977202413481223e-07,-0.002698871480297349
61,0.0062,543.652,-0.000135388,-0.000133198,-0.00472665,0.00487696,0.00897793,0.00618086,-0.00237824,-0.00275574,-2.46837e-07,2.38297e-07,2.23343e-07,0.00355098,0.0062000009306533155,-2.468369695307615e-07,2.3829702833211286e-07,-0.002375414227816619,2.2334302496318514e-07,-0.0027519464340201027
62,0.0063,545.062,-0.000128458,-0.000127162,-0.00468986,0.00484325,0.00896835,0.00628024,-0.00242166,-0.00280897,-2.5084e-07,2.41442e-07,2.26905e-07,0.00364324,0.006300002055719567,-2.508399685741125e-07,2.4144202903642054e-07,-0.0024187301469353883,2.2690502565758663e-07,-0.00280502853511877
63,0.0064,546.454,-0.000121825,-0.000121383,-0.00465364,0.00481006,0.00895881,0.00637961,-0.0024651,-0.00286222,-2.54819e-07,2.44568e-07,2.30458e-07,0.00373557,0.006400003055391235,-2.5481896748225097e-07,2.44568029827974e-07,-0.002462064136076747,2.304580266621059e-07,-0.0028581277535700833
64,0.0065,547.829,-0.000115471,-0.000115846,-0.00461798,0.00477737,0.00894931,0.00647897,-0.00250854,-0.00291549,-2.58774e-07,2.47673e-07,2.34001e-07,0.00382797,0.0065000039276557064,-2.587739664772215e-07,2.4767303075101665e-07,-0.0025053962428305265,2.3400102744375317e-07,-0.0029112440863385824
65,0.0066,549.188,-0.000109383,-0.00011054,-0.00458285,0.00474517,0.00893986,0.00657832,-0.00255199,-0.00296877,-2.62705e-07,2.5076e-07,2.37536e-07,0.00392044,0.006600004670500592,-2.627049654480018e-07,2.5076003140611647e-07,-0.0025487364417910996,2.375360281803296e-07,-0.002964367560031711
66,0.0067,550.53,-0.000103545,-0.000105452,-0.00454825,0.00471346,0.00893046,0.00667765,-0.00259545,-0.00302206,-2.66614e-07,2.53828e-07,2.41062e-07,0.00401298,0.006699995214912713,-2.6661396446137076e-07,2.5382803214846206e-07,-0.0025920847317402185,2.410620290049792e-07,-0.003017498173206734
67,0.0068,551.856,-9.79453e-05,-0.000100569,-0.00451416,0.00468221,0.0089211,0.00677698,-0.00263892,-0.00307537,-2.70499e-07,2.56878e-07,2.44579e-07,0.00410559,0.006799995691878946,-2.7049896345054947e-07,2.56878033066954e-07,-0.0026354411114591914,2.4457902991770197e-07,-0.0030706458937139747
68,0.0069,553.167,-9.25709e-05,-9.58827e-05,-0.00448057,0.00465141,0.0089118,0.0068763,-0.00268239,-0.00312869,-2.74361e-07,2.59909e-07,2.48087e-07,0.00419826,0.006899996033385758,-2.7436096239341623e-07,2.599090338506471e-07,-0.0026787956065172924,2.480870306964533e-07,-0.0031238007497539355
69,0.007,554.463,-8.74103e-05,-9.13816e-05,-0.00444747,0.00462106,0.00890255,0.00697561,-0.00272587,-0.00318203,-2.78202e-07,2.62921e-07,2.51587e-07,0.00429099,0.00699999623741987,-2.782019613567499e-07,2.629210344995414e-07,-0.002722158189774948,2.5158703165217844e-07,-0.003176972708113124
70,0.0071,555.745,-8.24528e-05,-8.70568e-05,-0.00441484,0.00459115,0.00889335,0.00707491,-0.00276935,-0.00323537,-2.8202e-07,2.65916e-07,2.55078e-07,0.00438379,0.007099996301967115,-2.8201996027377163e-07,2.6591603541348263e-07,-0.0027655188876684056,2.550780324739321e-07,-0.0032301418303558593
71,0.0072,557.012,-7.76882e-05,-8.28994e-05,-0.00438268,0.00456165,0.0088842,0.0071742,-0.00281284,-0.00328873,-2.85816e-07,2.68893e-07,2.58561e-07,0.00447664,0.007199996225013994,-2.858159591223597e-07,2.68893036059481e-07,-0.002808887672190896,2.585610334726596e-07,-0.0032833280509667606
72,0.0073,558.264,-7.3107e-05,-7.89011e-05,-0.00435096,0.00453258,0.0088751,0.00727348,-0.00285633,-0.0033421,-2.89591e-07,2.71853e-07,2.62036e-07,0.00456955,0.0072999960045461165,-2.8959095810243696e-07,2.718530369705263e-07,-0.0028522545706459734,2.620360344263162e-07,-0.0033365214002715193
73,0.0074,559.504,-6.87001e-05,-7.50541e-05,-0.00431969,0.0045039,0.00886606,0.00737275,-0.00289983,-0.00339548,-2.93344e-07,2.74795e-07,2.65503e-07,0.00466251,0.007399995638549317,-2.9334395701408056e-07,2.747950378356734e-07,-0.0028956295541594512,2.6550303533490194e-07,-0.0033897218768258464
74,0.0075,560.729,-6.44591e-05,-7.13512e-05,-0.00428884,0.00447562,0.00885707,0.00747201,-0.00294334,-0.00344888,-2.97077e-07,2.7772e-07,2.68962e-07,0.00475553,0.007499995125008763,-2.9707695592406935e-07,2.777200385217782e-07,-0.0029390126215120826,2.6896203619841685e-07,-0.0034429394447559325
75,0.0076,561.942,-6.03762e-05,-6.77855e-05,-0.00425842,0.00444772,0.00884814,0.00757127,-0.00298685,-0.00350228,-3.00789e-07,2.80629e-07,2.72413e-07,0.00484861,0.007600004537909877,-3.0078895474350276e-07,2.806290393397859e-07,-0.0029823938013084916,2.724130370168609e-07,-0.0034961541709437327
76,0.0077,563.142,-5.64438e-05,-6.43505e-05,-0.00422841,0.0044202,0.00883926,0.00767051,-0.00303036,-0.00355569,-3.0448e-07,2.8352e-07,2.75857e-07,0.00494173,0.007700003724237847,-3.044799536944254e-07,2.8352004011189536e-07,-0.0030257730936308347,2.7585703810117934e-07,-0.0035493760200473456
77,0.0078,564.33,-5.26549e-05,-6.104e-05,-0.00419879,0.00439305,0.00883044,0.00776974,-0.00307388,-0.00360911,-3.08151e-07,2.86395e-07,2.79292e-07,0.00503491,0.007800002756977342,-3.081509525326709e-07,2.8639504101590774e-07,-0.003069160467869758,2.7929203905152633e-07,-0.003602604990621816
78,0.0079,565.505,-4.90028e-05,-5.78484e-05,-0.00416957,0.00436625,0.00882167,0.00786896,-0.00311741,-0.00366255,-3.11802e-07,2.89254e-07,2.8272e-07,0.00512813,0.007900001634113085,-3.118019513692616e-07,2.8925404182977843e-07,-0.003112555922805682,2.8272004004570306e-07,-0.003655851044663927
79,0.008,566.668,-4.54814e-05,-5.47702e-05,-0.00414074,0.00433981,0.00881295,0.00796817,-0.00316093,-0.00371599,-3.15433e-07,2.92097e-07,2.86141e-07,0.0052214,0.0080000003536298,-3.154329502041975e-07,2.9209704255350744e-07,-0.0031559395203379914,2.861410408616649e-07,-0.0037090942533128946
80,0.0081,567.82,-4.20846e-05,-5.18003e-05,-0.00411227,0.00431371,0.0088043,0.00806737,-0.00320446,-0.00376944,-3.19045e-07,2.94923e-07,2.89554e-07,0.00531472,0.00809999891351132,-3.1904494912637915e-07,2.949230435422834e-07,-0.003199331197863864,2.8955404185460054e-07,-0.0037623445790974097
81,0.0082,568.96,-3.88069e-05,-4.89338e-05,-0.00408417,0.00428794,0.00879569,0.00816656,-0.003248,-0.0038229,-3.22637e-07,2.97734e-07,2.92959e-07,0.00540808,0.008199997311742147,-3.226369479358837e-07,2.977340443077736e-07,-0.0032427309541640525,2.929590428024653e-07,-0.003815602020572073
82,0.0083,570.089,-3.5643e-05,-4.61661e-05,-0.00405643,0.0042625,0.00878714,0.00826574,-0.00329154,-0.00387636,-3.2621e-07,3.0053e-07,2.96358e-07,0.00550148,0.008299995546306116,-3.2620994683263405e-07,3.0053004507202274e-07,-0.0032861288208798634,2.963580438830604e-07,-0.003868856614980154
83,0.0084,571.207,-3.2588e-05,-4.3493e-05,-0.00402904,0.00423738,0.00877865,0.00836492,-0.00333508,-0.00392984,-3.29765e-07,3.03309e-07,2.99749e-07,0.00559493,0.008400003699186698,-3.2976494557246383e-07,3.033090461013188e-07,-0.003329524798093675,2.9974904491858467e-07,-0.003922128284031157
84,0.0085,572.315,-2.9637e-05,-4.09103e-05,-0.00400199,0.00421258,0.00877021,0.00846408,-0.00337863,-0.00398332,-3.333e-07,3.06074e-07,3.03133e-07,0.00568842,0.008500001601367435,-3.332999444216611e-07,3.0607404677418515e-07,-0.003372928852158563,3.0313304599793867e-07,-0.003975397104189593
85,0.0086,573.411,-2.67856e-05,-3.8414e-05,-0.00397527,0.00418808,0.00876182,0.00856323,-0.00342217,-0.00403681,-3.36818e-07,3.08824e-07,3.0651e-07,0.00578196,0.008599999333831931,-3.368179433138607e-07,3.08824047667855e-07,-0.0034163210501814145,3.065100468990778e-07,-0.004028673035321062
86,0.0087,574.498,-2.40296e-05,-3.60007e-05,-0.00394888,0.00416389,0.00875349,0.00866237,-0.00346573,-0.00409031,-3.40317e-07,3.11558e-07,3.0988e-07,0.00587553,0.008699996894563133,-3.403169420712615e-07,3.1155804847138313e-07,-0.0034597312897545196,3.0988004806609126e-07,-0.004081956075979609
87,0.0088,575.574,-2.13649e-05,-3.36667e-05,-0.00392282,0.00413998,0.00874521,0.00876151,-0.00350928,-0.00414381,-3.43798e-07,3.14278e-07,3.13243e-07,0.00596914,0.008800004369543757,-3.4379794089378635e-07,3.1427804936257075e-07,-0.0035031296734502337,3.1324304905488987e-07,-0.004135236266071707
88,0.0089,576.64,-1.87877e-05,-3.14088e-05,-0.00389706,0.00411637,0.00873698,0.00886063,-0.00355284,-0.00419732,-3.47261e-07,3.16984e-07,3.166e-07,0.00606278,0.008900001581756856,-3.4726093967041294e-07,3.1698405034141786e-07,-0.0035465361317221777,3.166000501764188e-07,-0.004188523563864788
89,0.009,577.697,-1.62945e-05,-2.92237e-05,-0.00387161,0.00409304,0.00872881,0.00895974,-0.00359639,-0.00425084,-3.50707e-07,3.19675e-07,3.19949e-07,0.00615647,0.008999998616184834,-3.5070693849004186e-07,3.1967505109697925e-07,-0.003589930735149238,3.1994905125287687e-07,-0.0042418179679126755
90,0.0091,578.744,-1.38817e-05,-2.71086e-05,-0.00384647,0.00406998,0.00872069,0.00905884,-0.00363996,-0.00430436,-3.54135e-07,3.22351e-07,3.23292e-07,0.00625019,0.009099995470809974,-3.5413493726377254e-07,3.2235105185129953e-07,-0.0036333433761158718,3.2329205224002067e-07,-0.0042951095197203415
91,0.0092,579.782,-1.15461e-05,-2.50606e-05,-0.00382161,0.0040472,0.00871262,0.00915794,-0.00368352,-0.00435789,-3.57546e-07,3.25014e-07,3.26628e-07,0.00634394,0.009200002235614457,-3.5754593608050556e-07,3.250140527821799e-07,-0.003676744162402379,3.266280532709942e-07,-0.004348408175956497
92,0.0093,580.811,-9.2846e-06,-2.3077e-05,-0.00379705,0.00402468,0.00870461,0.00925702,-0.00372709,-0.00441142,-3.6094e-07,3.27663e-07,3.29958e-07,0.00643773,0.009299998725580405,-3.609399348292186e-07,3.276630535786751e-07,-0.00372015302099038,3.2995805443469806e-07,-0.004401703979191929
93,0.0094,581.83,-7.09425e-06,-2.11553e-05,-0.00377277,0.00400242,0.00869664,0.00935609,-0.00377065,-0.00446496,-3.64317e-07,3.30298e-07,3.33281e-07,0.00653156,0.009399995029689245,-3.64316933620934e-07,3.302980544628298e-07,-0.003763550025931206,3.3328105564223165e-07,-0.004455006885029422
94,0.0095,582.841,-4.97224e-06,-1.92929e-05,-0.00374876,0.00398041,0.00868873,0.00945516,-0.00381422,-0.00451851,-3.67678e-07,3.32919e-07,3.36597e-07,0.00662541,0.009500001240922762,-3.6767793243353e-07,3.3291905543464395e-07,-0.0038069551024700887,3.365970566715504e-07,-0.004508316892022579
95,0.0096,583.843,-2.91589e-06,-1.74876e-05,-0.00372502,0.00395865,0.00868086,0.00955421,-0.0038578,-0.00457206,-3.71022e-07,3.35526e-07,3.39908e-07,0.0067193,0.009599997168262098,-3.71021931178106e-07,3.35526056272073e-07,-0.003850368249387337,3.399080577004554e-07,-0.004561624044341239
96,0.0097,584.837,-9.2265e-07,-1.57372e-05,-0.00370156,0.00393714,0.00867305,0.00965326,-0.00390137,-0.00462562,-3.7435e-07,3.38121e-07,3.43212e-07,0.00681322,0.00970000300068885,-3.7434992994356264e-07,3.3812105715291807e-07,-0.0038937695433386432,3.4321205899523477e-07,-0.004614938295989024
97,0.0098,585.822,1.00989e-06,-1.40396e-05,-0.00367835,0.00391587,0.00866528,0.00975229,-0.00394494,-0.00467918,-3.77661e-07,3.40702e-07,3.46509e-07,0.00690717,0.009799998543183586,-3.776609286409993e-07,3.407020581214226e-07,-0.003937168946336889,3.4650906011179927e-07,-0.00466824969220192
98,0.0099,586.799,2.88405e-06,-1.23928e-05,-0.0036554,0.00389483,0.00865757,0.00985132,-0.00398852,-0.00473274,-3.80957e-07,3.43269e-07,3.49801e-07,0.00700115,0.009900003988727146,-3.809569274482172e-07,3.4326905895554205e-07,-0.003980576418658455,3.4980106122795007e-07,-0.0047215582331329164
99,0.01,587.768,4.70204e-06,-1.07948e-05,-0.00363269,0.00387403,0.0086499,0.00995033,-0.0040321,-0.00478631,-3.84237e-07,3.45824e-07,3.53086e-07,0.00709515,0.009999999138300186,-3.8423692616529337e-07,3.458240598330775e-07,-0.004023981999323634,3.530860623879306e-07,-0.004774873871186247
100,0.0101,588.729,6.46595e-06,-9.24388e-06,-0.00361024,0.00385345,0.00864229,0.0100493,-0.00407568,-0.00483988,-3.87501e-07,3.48366e-07,3.56365e-07,0.00718919,0.01009996378488398,-3.8750092490325017e-07,3.4836606066512843e-07,-0.004067385688414915,3.5636506345859686e-07,-0.004828186653197397
101,0.0102,589.682,8.17778e-06,-7.73823e-06,-0.00358802,0.00383309,0.00863472,0.0101483,-0.00411926,-0.00489346,-3.90749e-07,3.50896e-07,3.59638e-07,0.00728325,0.01019996863145689,-3.907489236620876e-07,3.508960615405954e-07,-0.0041107874860145666,3.5963806466199344e-07,-0.0048815065305042316
102,0.0103,590.627,9.83947e-06,-6.27621e-06,-0.00356604,0.00381295,0.00862719,0.0102473,-0.00416284,-0.00494704,-3.93983e-07,3.53413e-07,3.62905e-07,0.00737734,0.010299983378999622,-3.9398292239756216e-07,3.534130623705778e-07,-0.004154187392205078,3.6290506577607573e-07,-0.004934823551008605
103,0.0104,591.565,1.14528e-05,-4.85624e-06,-0.00354429,0.00379302,0.00861972,0.0103463,-0.00420642,-0.00500063,-3.97201e-07,3.55917e-07,3.66166e-07,0.00747146,0.010400008028492724,-3.9720092115391736e-07,3.5591706337712026e-07,-0.004197585407068938,3.6616606702288834e-07,-0.004988147664982123
104,0.0105,592.496,1.30196e-05,-3.47679e-06,-0.00352277,0.0037733,0.00861229,0.0104453,-0.00425,-0.00505422,-4.00404e-07,3.58409e-07,3.69422e-07,0.0075656,0.01050004258091608,-4.0040391979800916e-07,3.5840906420503416e-07,-0.004240981530688415,3.6942206826928725e-07,-0.0050414689213929
105,0.0106,593.419,1.45415e-05,-2.13642e-06,-0.00350148,0.00375379,0.0086049,0.0105442,-0.00429358,-0.00510781,-4.03593e-07,3.60889e-07,3.72671e-07,0.00765977,0.010599985977246762,-4.035929185297604e-07,3.608890650763641e-07,-0.00428437576314622,3.726710693374713e-07,-0.005094787320394145
106,0.0107,594.335,1.602e-05,-8.33741e-07,-0.0034804,0.00373448,0.00859757,0.0106432,-0.00433717,-0.0051614,-4.06766e-07,3.63356e-07,3.75914e-07,0.00775396,0.010700040328467164,-4.067659172823923e-07,3.633560661242541e-07,-0.004327778061246734,3.7591407076043026e-07,-0.005148102862138959
107,0.0108,595.244,1.74568e-05,4.32573e-07,-0.00345954,0.00371537,0.00859027,0.0107421,-0.00438075,-0.005215,-4.09925e-07,3.65812e-07,3.79152e-07,0.00784818,0.010800003505553324,-4.0992491601166137e-07,3.658120668603715e-07,-0.004371168511194012,3.791520719609309e-07,-0.00520142549476621
108,0.0109,596.147,1.88533e-05,1.66379e-06,-0.00343889,0.00369645,0.00858302,0.010841,-0.00442434,-0.00526861,-4.1307e-07,3.68256e-07,3.82384e-07,0.00794242,0.010899976569486602,-4.130699147175676e-07,3.6825606786194953e-07,-0.004414567026081118,3.823840730721173e-07,-0.005254755216829499
109,0.011,597.042,2.02108e-05,2.86113e-06,-0.00341845,0.00367773,0.00857582,0.0109399,-0.00446792,-0.00532221,-4.162e-07,3.70688e-07,3.85611e-07,0.00803668,0.010999959521244662,-4.161999134222327e-07,3.70688068684899e-07,-0.004457953693847716,3.856110744049346e-07,-0.00530807213304374
110,0.0111,597.931,2.15308e-05,4.02575e-06,-0.00339821,0.00365919,0.00856866,0.0110388,-0.00451151,-0.00537582,-4.19316e-07,3.73108e-07,3.88832e-07,0.00813097,0.011099952361805832,-4.1931591210353503e-07,3.731080695512645e-07,-0.004501348425851148,3.888320756484376e-07,-0.00536139613793396
111,0.0112,598.813,2.28145e-05,5.15877e-06,-0.00337817,0.00364084,0.00856154,0.0111377,-0.0045551,-0.00542943,-4.22419e-07,3.75517e-07,3.92047e-07,0.00822527,0.011199955092147995,-4.224189107393528e-07,3.7551707054994665e-07,-0.00454474126631943,3.920470768026263e-07,-0.005414717284200954
112,0.0113,599.688,2.40631e-05,6.26126e-06,-0.00335833,0.00362266,0.00855447,0.0112366,-0.00459868,-0.00548304,-4.25507e-07,3.77915e-07,3.95256e-07,0.0083196,0.01129996771324926,-4.2550690948495173e-07,3.779150714589008e-07,-0.004588122261216299,3.952560780895453e-07,-0.00546803557199782
113,0.0114,600.557,2.52778e-05,7.33424e-06,-0.00333868,0.00360467,0.00854743,0.0113355,-0.00464227,-0.00553666,-4.28582e-07,3.80301e-07,3.98461e-07,0.00841395,0.01139999022608773,-4.2858190818506614e-07,3.80301072411271e-07,-0.0046315113192956225,3.9846107946495124e-07,-0.005521360946264431
114,0.0115,601.42,2.64598e-05,8.3787e-06,-0.00331922,0.00358685,0.00854044,0.0114344,-0.00468586,-0.00559027,-4.31643e-07,3.82676e-07,4.01659e-07,0.00850832,0.01150002263164196,-4.316429068618177e-07,3.826760732739132e-07,-0.004674898486087042,4.016590806621423e-07,-0.005574673517047879
115,0.0116,602.277,2.76101e-05,9.39557e-06,-0.00329995,0.00356921,0.00853349,0.0115332,-0.00472945,-0.00564389,-4.3469e-07,3.8504e-07,4.04853e-07,0.00860271,0.01159996377088901,-4.346899055152065e-07,3.850400740468274e-07,-0.004718283761673048,4.048530819478202e-07,-0.005627993173541124
116,0.0117,603.128,2.87298e-05,1.03858e-05,-0.00328086,0.00355173,0.00852658,0.0116321,-0.00477303,-0.00569751,-4.37724e-07,3.87392e-07,4.08041e-07,0.00869712,0.011700015954804854,-4.37723904234133e-07,3.8739207508520224e-07,-0.004761657193752766,4.0804108314418386e-07,-0.005681309971111048
117,0.0118,603.972,2.98198e-05,1.13501e-05,-0.00326196,0.00353442,0.00851972,0.0117309,-0.00481662,-0.00575114,-4.40745e-07,3.89734e-07,4.11223e-07,0.00879155,0.0117999768543684,-4.4074490290757495e-07,3.897340759007051e-07,-0.0048050386876091755,4.112230844732778e-07,-0.0057346338525645635
118,0.0119,604.811,3.08812e-05,1.22895e-05,-0.00324323,0.00351727,0.00851289,0.0118298,-0.00486021,-0.00580476,-4.43753e-07,3.92066e-07,4.144e-07,0.00888599,0.011900048820556508,-4.437529015355324e-07,3.920660769374251e-07,-0.004848418290507417,4.144000858019581e-07,-0.005787944932214573
119,0.012,605.644,3.19149e-05,1.32048e-05,-0.00322467,0.00350029,0.0085061,0.0119286,-0.00490379,-0.00585839,-4.46748e-07,3.94386e-07,4.17573e-07,0.00898046,0.012000029484343422,-4.4674790022902755e-07,3.943860777955166e-07,-0.004891786051448022,4.1757308721912523e-07,-0.005841263094988558
120,0.0121,606.471,3.29216e-05,1.40966e-05,-0.00320629,0.00348346,0.00849935,0.0120274,-0.00494738,-0.00591202,-4.4973e-07,3.96696e-07,4.20739e-07,0.00907494,0.012100020026707847,-4.497298988770382e-07,3.9669607865278067e-07,-0.004935161873111049,4.207390884580775e-07,-0.005894578398386141
121,0.0122,607.292,3.39024e-05,1.49657e-05,-0.00318807,0.00346679,0.00849264,0.0121262,-0.00499096,-0.00596565,-4.52699e-07,3.98995e-07,4.23901e-07,0.00916944,0.012200020448625892,-4.5269889747956427e-07,3.9899507964236136e-07,-0.004978525853848614,4.2390108978551666e-07,-0.005947890842560644
122,0.0123,608.108,3.4858e-05,1.58129e-05,-0.00317002,0.00345027,0.00848597,0.012225,-0.00503455,-0.00601928,-4.55656e-07,4.01284e-07,4.27058e-07,0.00926396,0.012300030751073887,-4.556558962365287e-07,4.0128408040907004e-07,-0.005021897894606164,4.270580911125421e-07,-0.0060012004276654984
123,0.0124,608.918,3.57892e-05,1.66388e-05,-0.00315213,0.0034339,0.00847933,0.0123237,-0.00507813,-0.00607291,-4.586e-07,4.03563e-07,4.30209e-07,0.00935849,0.012399949695027779,-4.5859989483698627e-07,4.035630813969959e-07,-0.005065258095470315,4.302090925722979e-07,-0.006054507153853916
124,0.0125,609.723,3.66967e-05,1.74441e-05,-0.00313441,0.00341768,0.00847273,0.0124225,-0.00512172,-0.00612654,-4.61532e-07,4.05831e-07,4.33355e-07,0.00945304,0.01249997975146111,-4.615318934808599e-07,4.058310822951938e-07,-0.005108626355651791,4.3335509380959536e-07,-0.00610781102127933
125,0.0126,610.523,3.75813e-05,1.82294e-05,-0.00311684,0.0034016,0.00846617,0.0125213,-0.0051653,-0.00618018,-4.64451e-07,4.0809e-07,4.36497e-07,0.00954761,0.012600019691352271,-4.6445089219027125e-07,4.080900832814649e-07,-0.005151982776971931,4.364970953574243e-07,-0.006161121968483729
126,0.0127,611.317,3.84437e-05,1.89954e-05,-0.00309943,0.00338567,0.00845965,0.01262,-0.00520889,-0.00623382,-4.67359e-07,4.10338e-07,4.39633e-07,0.00964219,0.012699968245675652,-4.6735889080995463e-07,4.10338084178008e-07,-0.005195347256906957,4.396330965938944e-07,-0.006214430056165621
127,0.0128,612.106,3.92846e-05,1.97425e-05,-0.00308217,0.00336988,0.00845316,0.0127188,-0.00525247,-0.00628745,-4.70254e-07,4.12576e-07,4.42765e-07,0.00973679,0.012800027945406134,-4.7025388938415347e-07,4.125760850737237e-07,-0.0052386998990126,4.427650979188513e-07,-0.006267725347155695
128,0.0129,612.89,4.01046e-05,2.04715e-05,-0.00306506,0.00335423,0.00844671,0.0128175,-0.00529605,-0.00634109,-4.73137e-07,4.14805e-07,4.45891e-07,0.0098314,0.012899996241518608,-4.7313688811279064e-07,4.1480508605751254e-07,-0.005282050651851278,4.458910993765386e-07,-0.0063210277167857765
129,0.013,613.669,4.09043e-05,2.11827e-05,-0.0030481,0.00333872,0.0084403,0.0129162,-0.00533963,-0.00639473,-4.76009e-07,4.17023e-07,4.49013e-07,0.00992603,0.012999974404988901,-4.7600888675169983e-07,4.170230869515734e-07,-0.005325399515505258,4.4901310070066813e-07,-0.006374327227353427
130,0.0131,614.443,4.16843e-05,2.18768e-05,-0.00303128,0.00332334,0.00843392,0.0130149,-0.00538321,-0.00644837,-4.78868e-07,4.19232e-07,4.52129e-07,0.0100207,0.013099962436790902,-4.788678853451245e-07,4.192320879337075e-07,-0.005368746490056919,4.52129102157528e-07,-0.006427623879011968
131,0.0132,615.212,4.24453e-05,2.25543e-05,-0.00301461,0.00330809,0.00842757,0.0131136,-0.00542679,-0.00650201,-4.81716e-07,4.21431e-07,4.55241e-07,0.0101153,0.01319996033789872,-4.817158839598434e-07,4.214310886929695e-07,-0.00541209157558864,4.5524110370287474e-07,-0.006480917671914721
132,0.0133,615.977,4.31877e-05,2.32155e-05,-0.00299808,0.00329297,0.00842126,0.0132123,-0.00547037,-0.00655565,-4.84552e-07,4.23621e-07,4.58349e-07,0.01021,0.013299968109286242,-4.845518826179784e-07,4.2362108976234936e-07,-0.005455434772182688,4.5834910511466376e-07,-0.0065342086062152305
133,0.0134,616.736,4.39122e-05,2.38611e-05,-0.00298169,0.00327799,0.00841498,0.013311,-0.00551395,-0.00660929,-4.87377e-07,4.25801e-07,4.61451e-07,0.0103047,0.013399985751928245,-4.873768811863854e-07,4.258010906088572e-07,-0.00549877607992133,4.614511064371385e-07,-0.006587496682066596
134,0.0135,617.491,4.46192e-05,2.44915e-05,-0.00296544,0.00326313,0.00840874,0.0134097,-0.00555752,-0.00666293,-4.90191e-07,4.27972e-07,4.64549e-07,0.0103994,0.013500013266798616,-4.901908798871091e-07,4.279720915434382e-07,-0.005542105554308008,4.645491078481001e-07,-0.00664078189962225
135,0.0136,618.241,4.53093e-05,2.5107e-05,-0.00294932,0.00324839,0.00840253,0.0135083,-0.0056011,-0.00671657,-4.92993e-07,4.30134e-07,4.67641e-07,0.0104941,0.01359994929487196,-4.929928785202264e-07,4.3013409256609236e-07,-0.005585443085016295,4.6764110939179204e-07,-0.006694064259035515
136,0.0137,618.986,4.59828e-05,2.57082e-05,-0.00293333,0.00323378,0.00839635,0.013607,-0.00564467,-0.00677021,-4.95784e-07,4.32286e-07,4.7073e-07,0.0105888,0.013699996547117843,-4.957838770636158e-07,4.3228609336587454e-07,-0.0056287687834039035,4.7073011089082684e-07,-0.006747343760459601
137,0.0138,619.727,4.66404e-05,2.62954e-05,-0.00291748,0.00321928,0.00839021,0.0137056,-0.00568825,-0.00682385,-4.98564e-07,4.34429e-07,4.73813e-07,0.0106835,0.013799952294514917,-4.985638757393218e-07,4.344290942537299e-07,-0.005672102537411017,4.7381311230054735e-07,-0.006800620404047941
138,0.0139,620.463,4.72824e-05,2.6869e-05,-0.00290176,0.00320491,0.00838409,0.0138043,-0.00573182,-0.0068775,-5.01333e-07,4.36564e-07,4.76892e-07,0.0107783,0.013900019288031196,-5.013328743252998e-07,4.36564095318559e-07,-0.005715424460128515,4.768921137987547e-07,-0.006853904121414844
139,0.014,621.195,4.79094e-05,2.74294e-05,-0.00288616,0.00319065,0.00837801,0.0139029,-0.00577539,-0.00693114,-5.04091e-07,4.38689e-07,4.79967e-07,0.010873,0.013999994758642664,-5.040908729325722e-07,4.386890961605161e-07,-0.005758744495350965,4.799671151634044e-07,-0.00690717504925864
140,0.0141,621.923,4.85216e-05,2.7977e-05,-0.00287069,0.00317651,0.00837196,0.0140015,-0.00581896,-0.00698478,-5.06839e-07,4.40805e-07,4.83037e-07,0.0109678,0.014099980087321606,-5.068388715390171e-07,4.408050970905464e-07,-0.005802062643160633,4.83037116749685e-07,-0.006960443119726656
141,0.0142,622.646,4.91195e-05,2.85121e-05,-0.00285534,0.00316249,0.00836595,0.0141001,-0.00586253,-0.00703842,-5.09575e-07,4.42912e-07,4.86102e-07,0.0110626,0.014199975275039911,-5.09574870188878e-07,4.4291209810864984e-07,-0.005845378903639675,4.861021181135072e-07,-0.00701370833297188
142,0.0143,623.366,4.97036e-05,2.9035e-05,-0.00284011,0.00314857,0.00835996,0.0141987,-0.00590609,-0.00709206,-5.12301e-07,4.45011e-07,4.89163e-07,0.0111573,0.014299980322769912,-5.123008687268893e-07,4.4501109908168246e-07,-0.0058886833357572055,4.891631195658164e-07,-0.007066970689147745
143,0.0144,624.08,5.02741e-05,2.95462e-05,-0.002825,0.00313477,0.008354,0.0142973,-0.00594966,-0.0071457,-5.15016e-07,4.47101e-07,4.9222e-07,0.0112521,0.01439999523148372,-5.150158673972172e-07,4.4710109992074365e-07,-0.0059319958222548985,4.922201211066124e-07,-0.0071202301884074615
144,0.0145,624.791,5.08315e-05,3.00459e-05,-0.00281001,0.00312108,0.00834808,0.0143959,-0.00599322,-0.00719935,-5.17721e-07,4.49182e-07,4.95272e-07,0.011347,0.014500020002153668,-5.177208659556953e-07,4.49182100847878e-07,-0.005975296481421699,4.952721226469947e-07,-0.007173496759169229
145,0.0146,625.498,5.13761e-05,3.05343e-05,-0.00279514,0.00310749,0.00834218,0.0144944,-0.00603679,-0.00725299,-5.20416e-07,4.51254e-07,4.98319e-07,0.0114418,0.014599953175751912,-5.204158646243684e-07,4.5125410186308557e-07,-0.0060186051942667795,4.983191241869633e-07,-0.007226750544523819
146,0.0147,626.2,5.19083e-05,3.10119e-05,-0.00278039,0.00309401,0.00833631,0.014593,-0.00608035,-0.00730663,-5.231e-07,4.53318e-07,5.01362e-07,0.0115366,0.014699997663247144,-5.230998632033135e-07,4.5331810283322227e-07,-0.0060619020808115875,5.013621255933742e-07,-0.007280001473421893
147,0.0148,626.899,5.24283e-05,3.1479e-05,-0.00276574,0.00308064,0.00833048,0.0146915,-0.00612391,-0.00736027,-5.25774e-07,4.55374e-07,5.04401e-07,0.0116314,0.014799950535615114,-5.257738617814312e-07,4.5537410375828813e-07,-0.0061051970813849055,5.044011273103166e-07,-0.0073332495460167735
148,0.0149,627.594,5.29366e-05,3.19357e-05,-0.00275121,0.00306737,0.00832467,0.0147901,-0.00616747,-0.0074139,-5.28438e-07,4.57421e-07,5.07436e-07,0.0117263,0.014900014743822299,-5.284378603587214e-07,4.5742110454938256e-07,-0.006148490196069223,5.074361286716567e-07,-0.0073864848363266455
149,0.015,628.284,5.34333e-05,3.23823e-05,-0.00273679,0.0030542,0.00831889,0.0148886,-0.00621102,-0.00746754,-5.31092e-07,4.5946e-07,5.10466e-07,0.0118211,0.014999987318843111,-5.310918589351843e-07,4.5946010551745076e-07,-0.006191771486864228,5.104661302546276e-07,-0.007439727197307122
150,0.0151,628.971,5.39189e-05,3.28192e-05,-0.00272248,0.00304113,0.00831314,0.0149871,-0.00625458,-0.00752118,-5.33735e-07,4.61491e-07,5.13492e-07,0.011916,0.015099969741647623,-5.337348575329415e-07,4.614911064404481e-07,-0.006235060830449446,5.134921319260854e-07,-0.007492966702443926
151,0.0152,629.654,5.43937e-05,3.32466e-05,-0.00270827,0.00302816,0.00830741,0.0150856,-0.00629813,-0.00757482,-5.36369e-07,4.63514e-07,5.16514e-07,0.0120109,0.015199962013205726,-5.363688561077495e-07,4.635141073183746e-07,-0.0062783383511754165,5.165141334639856e-07,-0.007546203351890268
152,0.0153,630.334,5.48578e-05,3.36647e-05,-0.00269417,0.00301529,0.00830172,0.0151841,-0.00634168,-0.00762845,-5.38993e-07,4.65528e-07,5.19531e-07,0.0121058,0.015299964134487531,-5.389928547927525e-07,4.655281082843743e-07,-0.006321613987206431,5.19531135001472e-07,-0.007599427221793742
153,0.0154,631.009,5.53116e-05,3.40738e-05,-0.00268018,0.00300251,0.00829605,0.0152826,-0.00638523,-0.00768209,-5.41608e-07,4.67534e-07,5.22544e-07,0.0122006,0.015399976106463598,-5.41607853343784e-07,4.6753410920530314e-07,-0.006364887738624536,5.225441366274453e-07,-0.0076526581608510336
154,0.0155,631.681,5.57553e-05,3.4474e-05,-0.00266628,0.00298983,0.00829041,0.0153811,-0.00642878,-0.00773572,-5.44212e-07,4.69533e-07,5.25554e-07,0.0122955,0.015499997930104037,-5.442118519161099e-07,4.695331101700617e-07,-0.006408159605511776,5.255541382087614e-07,-0.007705876321736138
155,0.0156,632.35,5.61892e-05,3.48657e-05,-0.00265249,0.00297724,0.0082848,0.0154796,-0.00647233,-0.00778936,-5.46807e-07,4.71523e-07,5.28558e-07,0.0123905,0.015600029606379184,-5.468068504654866e-07,4.715231112228935e-07,-0.006451429587950308,5.285581397007633e-07,-0.007759101551016778
156,0.0157,633.014,5.66136e-05,3.5249e-05,-0.0026388,0.00296475,0.00827921,0.015578,-0.00651587,-0.00784299,-5.49393e-07,4.73505e-07,5.31559e-07,0.0124854,0.015699969566257854,-5.493928491029365e-07,4.735051120086098e-07,-0.006494687750968953,5.315591413701526e-07,-0.007812314003495913
157,0.0158,633.675,5.70287e-05,3.56241e-05,-0.00262521,0.00295234,0.00827365,0.0156765,-0.00655942,-0.00789662,-5.51969e-07,4.7548e-07,5.34556e-07,0.0125803,0.015800020940709425,-5.519688476285367e-07,4.7548011306020044e-07,-0.0065379539651887475,5.345561429059842e-07,-0.007865523602267777
158,0.0159,634.333,5.74346e-05,3.59913e-05,-0.00261172,0.00294003,0.00826811,0.0157749,-0.00660296,-0.00795025,-5.54535e-07,4.77447e-07,5.37549e-07,0.0126752,0.015899980580703632,-5.545348462643318e-07,4.774471140667202e-07,-0.006581208361018054,5.375491445303027e-07,-0.007918730347485359
159,0.016,634.987,5.78318e-05,3.63507e-05,-0.00259832,0.00292781,0.0082626,0.0158733,-0.0066465,-0.00800388,-5.57093e-07,4.79406e-07,5.40537e-07,0.0127701,0.015999950057210333,-5.570928448550561e-07,4.794061148061246e-07,-0.006624460873592031,5.405371461542074e-07,-0.007971934239301759
160,0.0161,635.638,5.82202e-05,3.67026e-05,-0.00258502,0.00291567,0.00825712,0.0159718,-0.00669003,-0.00805751,-5.59641e-07,4.81358e-07,5.43522e-07,0.0128651,0.016100030981195612,-5.596408434449529e-07,4.813581158114033e-07,-0.00666770156966956,5.435221477334551e-07,-0.008025135277869855
161,0.0162,636.285,5.86003e-05,3.70471e-05,-0.00257181,0.00290362,0.00825166,0.0160702,-0.00673357,-0.00811114,-5.6218e-07,4.83302e-07,5.46502e-07,0.01296,0.01620002014363031,-5.621798420119006e-07,4.833021167716112e-07,-0.006710950316411224,5.46502149312289e-07,-0.008078333463342857
162,0.0163,636.929,5.89721e-05,3.73844e-05,-0.0025587,0.00289166,0.00824623,0.0161686,-0.0067771,-0.00816476,-5.64709e-07,4.85238e-07,5.49479e-07,0.013055,0.016300019145482736,-5.64708840578021e-07,4.852381176867482e-07,-0.006754187247685284,5.494791510685104e-07,-0.008131518877188881
163,0.0164,637.57,5.9336e-05,3.77147e-05,-0.00254567,0.00287978,0.00824082,0.016267,-0.00682063,-0.00821838,-5.6723e-07,4.87167e-07,5.52451e-07,0.01315,0.016400027987721,-5.672298390990704e-07,4.871671186457149e-07,-0.006797422296896727,5.524511526022735e-07,-0.008184701439309383
164,0.0165,638.207,5.9692e-05,3.80381e-05,-0.00253274,0.00286799,0.00823544,0.0163654,-0.00686416,-0.00827201,-5.69741e-07,4.89089e-07,5.5542e-07,0.0132449,0.01650004667131344,-5.697408377303148e-07,4.890891196485114e-07,-0.0068406554641274875,5.554201543134241e-07,-0.008237891067478631
165,0.0166,638.841,6.00404e-05,3.83548e-05,-0.00251989,0.00285627,0.00823008,0.0164637,-0.00690769,-0.00832563,-5.72244e-07,4.91003e-07,5.58384e-07,0.0133399,0.016599973537226198,-5.722438363164883e-07,4.910031206062371e-07,-0.006883886749459278,5.583841558021163e-07,-0.008291067926075257
166,0.0167,639.472,6.03813e-05,3.8665e-05,-0.00250714,0.00284464,0.00822475,0.0165621,-0.00695122,-0.00837925,-5.74738e-07,4.9291e-07,5.61345e-07,0.0134349,0.01670001189642889,-5.747378348797128e-07,4.929101213857479e-07,-0.006927116152974366,5.61345157468196e-07,-0.008344241933405105
167,0.0168,640.1,6.0715e-05,3.89688e-05,-0.00249447,0.00283309,0.00821944,0.0166604,-0.00699474,-0.00843287,-5.77223e-07,4.94809e-07,5.64302e-07,0.0135299,0.01679995841988946,-5.77222833419988e-07,4.948091223422324e-07,-0.006970333744457768,5.643021592227626e-07,-0.008397413089621275
168,0.0169,640.725,6.10416e-05,3.92664e-05,-0.00248188,0.00282162,0.00821415,0.0167588,-0.00703826,-0.00848649,-5.79699e-07,4.96701e-07,5.67255e-07,0.0136248,0.016900016458572642,-5.796988319373142e-07,4.967011233425467e-07,-0.007013549455152535,5.672551608437715e-07,-0.008450581394876422
169,0.017,641.346,6.13612e-05,3.9558e-05,-0.00246939,0.00281023,0.00820889,0.0168571,-0.00708178,-0.0085401,-5.82167e-07,4.98587e-07,5.70204e-07,0.0137198,0.016999982643448153,-5.821668305205918e-07,4.985871242535467e-07,-0.007056763285140488,5.702041625532672e-07,-0.008503736934360795
170,0.0171,641.965,6.16741e-05,3.98436e-05,-0.00245697,0.00279891,0.00820365,0.0169554,-0.0071253,-0.00859371,-5.84626e-07,5.00465e-07,5.7315e-07,0.0138148,0.017099958655482306,-5.846258290809203e-07,5.004651253415204e-07,-0.007099975234503453,5.731501642181058e-07,-0.008556889624253161
171,0.0172,642.58,6.19804e-05,4.01234e-05,-0.00244464,0.00278767,0.00819843,0.0170538,-0.00716881,-0.00864733,-5.87076e-07,5.02335e-07,5.76091e-07,0.0139098,0.017200046215641196,-5.870758276182997e-07,5.023351261623787e-07,-0.007143175374755173,5.760911658825307e-07,-0.008610049378605766
172,0.0173,643.192,6.22802e-05,4.03975e-05,-0.00243239,0.00277651,0.00819324,0.0171521,-0.00721232,-0.00870094,-5.89518e-07,5.04199e-07,5.79029e-07,0.0140048,0.017300041894891427,-5.895178262216305e-07,5.041991271159674e-07,-0.0071863736354096375,5.790291677243431e-07,-0.008663196369240844
173,0.0174,643.802,6.25737e-05,4.06661e-05,-0.00242022,0.00276542,0.00818807,0.0172504,-0.00725583,-0.00875455,-5.91952e-07,5.06056e-07,5.81963e-07,0.0140999,0.01740004740419998,-5.919518247798905e-07,5.060561281133857e-07,-0.00722957001654867,5.819631694325977e-07,-0.008716340510741993
174,0.0175,644.408,6.28611e-05,4.09293e-05,-0.00240813,0.0027544,0.00818292,0.0173486,-0.00729934,-0.00880815,-5.94377e-07,5.07906e-07,5.84893e-07,0.0141949,0.017499960994532104,-5.943768233152014e-07,5.079061289325892e-07,-0.007272764518253982,5.848931710072947e-07,-0.008769471890956893
175,0.0176,645.012,6.31425e-05,4.11872e-05,-0.00239612,0.00274346,0.00817779,0.0174469,-0.00734285,-0.00886176,-5.96794e-07,5.09749e-07,5.8782e-07,0.0142899,0.017599986156853875,-5.967938219164637e-07,5.097491300176671e-07,-0.00731595714060751,5.87820172759379e-07,-0.00882261033518017
176,0.0177,645.612,6.34179e-05,4.144e-05,-0.00238418,0.00273259,0.00817269,0.0175452,-0.00738635,-0.00891536,-5.99202e-07,5.11586e-07,5.90742e-07,0.0143849,0.01770002115213254,-5.992018204947769e-07,5.11586130791386e-07,-0.007359137957282269,5.907421745110497e-07,-0.008875736019485103
177,0.0178,646.21,6.36877e-05,4.16877e-05,-0.00237233,0.00272179,0.0081676,0.0176434,-0.00742985,-0.00896896,-6.01603e-07,5.13415e-07,5.93662e-07,0.01448,0.01779996420133312,-6.016028190058975e-07,5.134151317420788e-07,-0.0074023168956324215,5.936621763069638e-07,-0.008928858856329658
178,0.0179,646.805,6.39518e-05,4.19305e-05,-0.00236055,0.00271106,0.00816254,0.0177417,-0.00747335,-0.00902256,-6.03995e-07,5.15238e-07,5.96577e-07,0.014575,0.01790001885541992,-6.039948176050913e-07,5.152381328255018e-07,-0.007445493955739679,5.965771778804196e-07,-0.0089819788458666
179,0.018,647.397,6.42105e-05,4.21685e-05,-0.00234884,0.0027004,0.0081575,0.0178399,-0.00751685,-0.00907616,-6.06379e-07,5.17054e-07,5.99489e-07,0.01467,0.01799998154535931,-6.063788161592143e-07,5.1705413373071e-07,-0.007488669137685533,5.994891796312629e-07,-0.009035095988248254
180,0.0181,647.986,6.44637e-05,4.24017e-05,-0.00233721,0.00268981,0.00815248,0.0179381,-0.00756034,-0.00912976,-6.08755e-07,5.18864e-07,6.02397e-07,0.0147651,0.01809995405211673,-6.087548146682664e-07,5.188641345466039e-07,-0.007531832516870285,6.023971814705931e-07,-0.009088210283627496
181,0.0182,648.573,6.47118e-05,4.26304e-05,-0.00232565,0.00267928,0.00814749,0.0180364,-0.00760384,-0.00918335,-6.11123e-07,5.20667e-07,6.05302e-07,0.0148601,0.018200038196655166,-6.1112281324327e-07,5.206671356283721e-07,-0.007575003943170455,6.053021832652661e-07,-0.00914131182356992
182,0.0183,649.157,6.49547e-05,4.28545e-05,-0.00231417,0.00266883,0.00814251,0.0181346,-0.00764733,-0.00923694,-6.13483e-07,5.22463e-07,6.08202e-07,0.0149552,0.01830003034994032,-6.134828117732027e-07,5.224631365319254e-07,-0.007618163567736147,6.082021850595254e-07,-0.00919441051787706
183,0.0184,649.738,6.51926e-05,4.30742e-05,-0.00230276,0.00265844,0.00813755,0.0182328,-0.00769081,-0.00929053,-6.15835e-07,5.24253e-07,6.111e-07,0.0150502,0.01840003232293741,-6.158348103690869e-07,5.242531373461645e-07,-0.007661311391943704,6.111001866759835e-07,-0.009247506366701463
184,0.0185,650.317,6.54256e-05,4.32896e-05,-0.00229141,0.00264811,0.00813262,0.018331,-0.0077343,-0.00934412,-6.1818e-07,5.26036e-07,6.13994e-07,0.0151453,0.018500044116610104,-6.181798088977786e-07,5.260361384262779e-07,-0.00770446726308005,6.139941886029732e-07,-0.009300599370195561
185,0.0186,650.892,6.56538e-05,4.35008e-05,-0.00228014,0.00263785,0.0081277,0.0184291,-0.00777778,-0.00939771,-6.20516e-07,5.27813e-07,6.16884e-07,0.0152403,0.018599963871921865,-6.205158075145434e-07,5.278131391950325e-07,-0.007747611334884552,6.168841901743605e-07,-0.009353689528511788
186,0.0187,651.466,6.58773e-05,4.37079e-05,-0.00226894,0.00262766,0.0081228,0.0185273,-0.00782126,-0.00945129,-6.22845e-07,5.29583e-07,6.19771e-07,0.0153354,0.01869999529983679,-6.228448060641156e-07,5.295831402296614e-07,-0.007790753530825589,6.197711921451798e-07,-0.009406766935870392
187,0.0188,652.036,6.60962e-05,4.3911e-05,-0.00225781,0.00261753,0.00811793,0.0186255,-0.00786474,-0.00950487,-6.25166e-07,5.31347e-07,6.22654e-07,0.0154305,0.018800036551320343,-6.25165804568617e-07,5.313471411749759e-07,-0.007833893850984652,6.226541937603969e-07,-0.009459841499417698
188,0.0189,652.605,6.63107e-05,4.411e-05,-0.00224674,0.00260746,0.00811307,0.0187236,-0.00790821,-0.00955845,-6.2748e-07,5.33105e-07,6.25534e-07,0.0155255,0.018899985737333314,-6.274798031169482e-07,5.331051420309763e-07,-0.007877022374213727,6.255341955530014e-07,-0.00951291321930614
189,0.019,653.17,6.65207e-05,4.43053e-05,-0.00223574,0.00259745,0.00810823,0.0188218,-0.00795169,-0.00961203,-6.29786e-07,5.34857e-07,6.2841e-07,0.0156206,0.01900004662884225,-6.297858017312308e-07,5.348571430197069e-07,-0.007920158943485078,6.284101974340928e-07,-0.00956598209568793
190,0.0191,653.733,6.67265e-05,4.44967e-05,-0.00222481,0.0025875,0.00810342,0.0189199,-0.00799516,-0.0096656,-6.32084e-07,5.36602e-07,6.31283e-07,0.0157157,0.019100015436806395,-6.320838001894202e-07,5.366021440522672e-07,-0.007963283716852065,6.31283199270527e-07,-0.009619038224905951
191,0.0192,654.294,6.6928e-05,4.46844e-05,-0.00221394,0.00257762,0.00809862,0.019018,-0.00803862,-0.00971917,-6.34375e-07,5.38341e-07,6.34152e-07,0.0158108,0.019199994052191638,-6.343747988024617e-07,5.383411449955133e-07,-0.008006396695689921,6.341522009734035e-07,-0.009672091511983227
192,0.0193,654.852,6.71254e-05,4.48686e-05,-0.00220314,0.00256779,0.00809384,0.0191161,-0.00808209,-0.00977274,-6.36659e-07,5.40074e-07,6.37018e-07,0.0159058,0.019299982475960098,-6.366587973483107e-07,5.400741458494451e-07,-0.008049517720383315,6.370182028536675e-07,-0.009725141957072081
193,0.0194,655.408,6.73188e-05,4.50491e-05,-0.0021924,0.00255802,0.00808908,0.0192142,-0.00812555,-0.00982631,-6.38935e-07,5.41801e-07,6.39881e-07,0.0160009,0.019399980709074116,-6.389347958490887e-07,5.418011468361073e-07,-0.008092626951572757,6.398812046892743e-07,-0.009778189560324724
194,0.0195,655.961,6.75083e-05,4.52262e-05,-0.00218172,0.00254831,0.00808433,0.0193123,-0.00816901,-0.00987988,-6.41203e-07,5.43522e-07,6.4274e-07,0.016096,0.019499988752496034,-6.412027944158183e-07,5.435221477334551e-07,-0.008135734309275833,6.427402066133681e-07,-0.009831234321893367
195,0.0196,656.512,6.76939e-05,4.53999e-05,-0.00217111,0.00253866,0.00807961,0.0194104,-0.00821247,-0.00993344,-6.43465e-07,5.45237e-07,6.45596e-07,0.0161911,0.019600006607188192,-6.434647930042559e-07,5.452371485414886e-07,-0.008178839793573811,6.455962084928046e-07,-0.009884266340772885
196,0.0197,657.06,6.78757e-05,4.55702e-05,-0.00216056,0.00252907,0.0080749,0.0195085,-0.00825592,-0.009987,-6.45719e-07,5.46945e-07,6.48448e-07,0.0162862,0.019700034274113154,-6.457187915476226e-07,5.469451496153965e-07,-0.008221933486767474,6.484482102386835e-07,-0.009937295519333644
197,0.0198,657.606,6.80538e-05,4.57373e-05,-0.00215007,0.00251953,0.00807022,0.0196065,-0.00829937,-0.0100406,-6.47966e-07,5.48648e-07,6.51297e-07,0.0163813,0.019799969774231485,-6.479657900237967e-07,5.486481504668461e-07,-0.008265025307580887,6.512972121619498e-07,-0.009990361458113939
198,0.0199,658.15,6.82282e-05,4.59012e-05,-0.00213964,0.00251005,0.00806555,0.0197046,-0.00834282,-0.0100941,-6.50206e-07,5.50345e-07,6.54143e-07,0.0164763,0.019900017058505526,-6.502057886548229e-07,5.50345151451026e-07,-0.008308115256095316,6.54143214040559e-07,-0.010043325556973626
199,0.02,658.691,6.83992e-05,4.6062e-05,-0.00212927,0.00250063,0.0080609,0.0198026,-0.00838627,-0.0101477,-6.52438e-07,5.52036e-07,6.56985e-07,0.0165714,0.019999972157897172,-6.52437787129756e-07,5.520361523458917e-07,-0.008351203332392254,6.569852157856104e-07,-0.01009638581269623
200,0.0201,659.231,6.85666e-05,4.62196e-05,-0.00211897,0.00249126,0.00805626,0.0199007,-0.00842971,-0.0102012,-6.54664e-07,5.53721e-07,6.59824e-07,0.0166665,0.020100039063367214,-6.546637857374193e-07,5.537211533734876e-07,-0.00839427962049577,6.598242177080493e-07,-0.010149344239404723
201,0.0202,659.767,6.87307e-05,4.63743e-05,-0.00210872,0.00248194,0.00805165,0.0199987,-0.00847316,-0.0102548,-6.56882e-07,5.55401e-07,6.6266e-07,0.0167616,0.02020001376587577,-6.568817843000119e-07,5.554011541786252e-07,-0.008437363953032295,6.626602195858311e-07,-0.01020239881267826
202,0.0203,660.302,6.88914e-05,4.65261e-05,-0.00209852,0.00247268,0.00804705,0.0200967,-0.00851659,-0.0103083,-6.59094e-07,5.57074e-07,6.65493e-07,0.0168567,0.0202999982663854,-6.590937827732901e-07,5.570741552496372e-07,-0.008480426583204026,6.654932214189557e-07,-0.010255351567842852
203,0.0204,660.834,6.90488e-05,4.66749e-05,-0.00208839,0.00246347,0.00804246,0.0201947,-0.00856003,-0.0103619,-6.61299e-07,5.58742e-07,6.68322e-07,0.0169518,0.02039999256585623,-6.612987812903981e-07,5.587421560981909e-07,-0.008523497257971413,6.683222233405672e-07,-0.010308400459275835
204,0.0205,661.365,6.9203e-05,4.68209e-05,-0.00207831,0.00245432,0.0080379,0.0202927,-0.00860346,-0.0104154,-6.63496e-07,5.60404e-07,6.71148e-07,0.0170469,0.020499996665248377,-6.634957798734575e-07,5.604041570794749e-07,-0.00856655614745494,6.711482252175216e-07,-0.010361347543504151
205,0.0206,661.893,6.93541e-05,4.69642e-05,-0.00206829,0.00244521,0.00803335,0.0203907,-0.00864689,-0.0104689,-6.65687e-07,5.62061e-07,6.73971e-07,0.017142,0.02060001056552263,-6.65686778478225e-07,5.620611580603452e-07,-0.00860961316693154,6.739712270498188e-07,-0.010414291795139197
206,0.0207,662.419,6.95022e-05,4.71047e-05,-0.00205833,0.00243616,0.00802882,0.0204887,-0.00869032,-0.0105225,-6.67871e-07,5.63712e-07,6.76791e-07,0.0172371,0.020700034267639555,-6.678707770157999e-07,5.637121589519012e-07,-0.00865266831648237,6.767912290595035e-07,-0.010467332167604315
207,0.0208,662.942,6.96472e-05,4.72426e-05,-0.00204842,0.00242716,0.00802431,0.0205866,-0.00873375,-0.010576,-6.70048e-07,5.65357e-07,6.79607e-07,0.0173322,0.02079996569255771,-6.700477754861822e-07,5.653571597541429e-07,-0.008695721596188699,6.796072309356305e-07,-0.01052027074921369
208,0.0209,663.464,6.97892e-05,4.73779e-05,-0.00203856,0.00241821,0.00801981,0.0206846,-0.00877717,-0.0106295,-6.72219e-07,5.66997e-07,6.8242e-07,0.0174273,0.02090000899123723,-6.722187740892949e-07,5.669971607780155e-07,-0.008738763093519286,6.824202327671003e-07,-0.01057320649868465
209,0.021,663.983,6.99284e-05,4.75106e-05,-0.00202876,0.00240931,0.00801533,0.0207825,-0.00882059,-0.0106831,-6.74382e-07,5.68631e-07,6.8523e-07,0.0175224,0.020999959994639106,-6.743817726473367e-07,5.686311617125739e-07,-0.008781802722028664,6.852302347759576e-07,-0.010626238353549922
210,0.0211,664.501,7.00647e-05,4.76408e-05,-0.00201901,0.00240046,0.00801086,0.0208805,-0.008864,-0.0107366,-6.76539e-07,5.70259e-07,6.88037e-07,0.0176175,0.021100022893720594,-6.765387711160642e-07,5.702591625578179e-07,-0.00882483057004635,6.880372367401577e-07,-0.010679168433905706
211,0.0212,665.016,7.01982e-05,4.77685e-05,-0.00200932,0.00239166,0.00800641,0.0209784,-0.00890742,-0.0107901,-6.7869e-07,5.71882e-07,6.90841e-07,0.0177126,0.021199993479442236,-6.78689769717522e-07,5.718821636246929e-07,-0.008867866461586993,6.908412386597007e-07,-0.010732095682578047
212,0.0213,665.529,7.0329e-05,4.78938e-05,-0.00199968,0.0023829,0.00800198,0.0210763,-0.00895083,-0.0108436,-6.80834e-07,5.735e-07,6.93642e-07,0.0178077,0.021299973852763276,-6.808337682517873e-07,5.735001644691096e-07,-0.008910890573658792,6.936422405345866e-07,-0.010785020099718157
213,0.0214,666.04,7.04571e-05,4.80168e-05,-0.00199009,0.0023742,0.00799756,0.0211742,-0.00899424,-0.0108971,-6.82971e-07,5.75112e-07,6.96439e-07,0.0179028,0.02139996401464206,-6.829707668298823e-07,5.751121654462565e-07,-0.008953912818094434,6.964392424979593e-07,-0.010837941685477803
214,0.0215,666.549,7.05826e-05,4.81374e-05,-0.00198055,0.00236554,0.00799316,0.0212721,-0.00903764,-0.0109506,-6.85102e-07,5.76719e-07,6.99234e-07,0.0179979,0.021499963966036928,-6.851017653186631e-07,5.767191662009452e-07,-0.00899692328494417,6.992342445055755e-07,-0.01089086044000831
215,0.0216,667.056,7.07056e-05,4.82557e-05,-0.00197106,0.00235693,0.00798878,0.02137,-0.00908104,-0.0110042,-6.87226e-07,5.78321e-07,7.02025e-07,0.018093,0.021599973707906006,-6.872257638512735e-07,5.783211671772648e-07,-0.009039931885180263,7.020252463796339e-07,-0.010943875269078696
216,0.0217,667.561,7.0826e-05,4.83719e-05,-0.00196162,0.00234836,0.00798441,0.0214679,-0.00912444,-0.0110577,-6.89344e-07,5.79917e-07,7.04813e-07,0.0181881,0.021699993241208304,-6.89343762405592e-07,5.799171680642701e-07,-0.00908293861888354,7.048132484310798e-07,-0.010996788356314013
217,0.0218,668.065,7.09439e-05,4.84858e-05,-0.00195223,0.00233984,0.00798005,0.0215658,-0.00916784,-0.0111112,-6.91455e-07,5.81508e-07,7.07598e-07,0.0182832,0.02180002256690239,-6.91454760892718e-07,5.815081691729063e-07,-0.009125943486135157,7.075982504378686e-07,-0.01104969861277505
218,0.0219,668.566,7.10594e-05,4.85976e-05,-0.0019429,0.00233137,0.00797571,0.0216636,-0.00921123,-0.0111647,-6.9356e-07,5.83094e-07,7.10381e-07,0.0183783,0.021899959495945476,-6.935597595125742e-07,5.830941700590841e-07,-0.009168936578705433,7.103812522668562e-07,-0.011102606038613017
219,0.022,669.065,7.11725e-05,4.87073e-05,-0.00193361,0.00232294,0.00797139,0.0217615,-0.00925462,-0.0112182,-6.95659e-07,5.84675e-07,7.1316e-07,0.0184734,0.02200000839929417,-6.956587580431162e-07,5.846751709448483e-07,-0.009211927805845788,7.131602544063753e-07,-0.011155510633979349
220,0.0221,669.562,7.12833e-05,4.88149e-05,-0.00192437,0.00231456,0.00796708,0.0218593,-0.00929801,-0.0112717,-6.97751e-07,5.8625e-07,7.15936e-07,0.0185685,0.022099964887908108,-6.977507566174879e-07,5.862501717412982e-07,-0.009254917167637378,7.159362562791927e-07,-0.011208412399025591
221,0.0222,670.058,7.13918e-05,4.89204e-05,-0.00191517,0.00230622,0.00796278,0.0219572,-0.0093414,-0.0113252,-6.99838e-07,5.8782e-07,7.18709e-07,0.0186636,0.02220003337274301,-6.998377550804236e-07,5.87820172759379e-07,-0.009297904664161027,7.187092583293975e-07,-0.011261311333903179
222,0.0223,670.551,7.14981e-05,4.9024e-05,-0.00190603,0.00229793,0.0079585,0.022055,-0.00938478,-0.0113786,-7.01917e-07,5.89385e-07,7.21479e-07,0.0187587,0.022300009424756073,-7.019167536093107e-07,5.893851737770461e-07,-0.009340880388906458,7.214792603349451e-07,-0.011314108570179116
223,0.0224,671.043,7.16021e-05,4.91256e-05,-0.00189693,0.00228968,0.00795424,0.0221528,-0.00942816,-0.0114321,-7.03991e-07,5.90945e-07,7.24246e-07,0.0188538,0.022399995254905214,-7.039907522488065e-07,5.909451745722549e-07,-0.009383854249405466,7.242462622958357e-07,-0.011367001850462799
224,0.0225,671.533,7.1704e-05,4.92253e-05,-0.00188788,0.00228147,0.00794998,0.0222506,-0.00947153,-0.0114856,-7.06059e-07,5.925e-07,7.2701e-07,0.0189489,0.02249999086414678,-7.060587506879656e-07,5.925001755890946e-07,-0.009426816340006972,7.27010264212069e-07,-0.011419892301031576
225,0.0226,672.021,7.18038e-05,4.93232e-05,-0.00187888,0.00227331,0.00794575,0.0223484,-0.00951491,-0.0115391,-7.0812e-07,5.9405e-07,7.29771e-07,0.019044,0.022599996253437116,-7.081197492819769e-07,5.94050176383476e-07,-0.00946978647268526,7.297712663056899e-07,-0.01147277992203699
226,0.0227,672.507,7.19014e-05,4.94191e-05,-0.00186992,0.00226518,0.00794153,0.0224462,-0.00955828,-0.0115926,-7.10176e-07,5.95594e-07,7.32529e-07,0.0191391,0.02270001142373279,-7.101757478755744e-07,5.955941773105877e-07,-0.009512744836487008,7.325292683546536e-07,-0.011525664713630368
227,0.0228,672.991,7.19971e-05,4.95133e-05,-0.001861,0.0022571,0.00793732,0.022544,-0.00960164,-0.011646,-7.12225e-07,5.97134e-07,7.35284e-07,0.0192342,0.022800036375990596,-7.122247464019793e-07,5.971341783261863e-07,-0.00955569143278201,7.352842703589602e-07,-0.0115784478338129
228,0.0229,673.473,7.20907e-05,4.96057e-05,-0.00185213,0.00224906,0.00793312,0.0226417,-0.00964501,-0.0116995,-7.14268e-07,5.98669e-07,7.38037e-07,0.0193293,0.02289996882116485,-7.142677449500923e-07,5.986691791193266e-07,-0.009598646070966499,7.380372724075102e-07,-0.011631326972324163
229,0.023,673.954,7.21823e-05,4.96963e-05,-0.00184331,0.00224106,0.00792894,0.0227395,-0.00968837,-0.011753,-7.16306e-07,6.00199e-07,7.40786e-07,0.0194244,0.0230000133302124,-7.163057434977915e-07,6.001991801340978e-07,-0.009641588942664647,7.407862743225024e-07,-0.011684203281877248
230,0.0231,674.433,7.22721e-05,4.97852e-05,-0.00183453,0.00223311,0.00792478,0.0228372,-0.00973173,-0.0118065,-7.18337e-07,6.01724e-07,7.43533e-07,0.0195195,0.023099965314089754,-7.183367419782982e-07,6.017241809264107e-07,-0.009684529952400323,7.435332765037828e-07,-0.011737076762623477
231,0.0232,674.91,7.23599e-05,4.98724e-05,-0.00182579,0.00222519,0.00792062,0.022935,-0.00977508,-0.0118599,-7.20362e-07,6.03244e-07,7.46276e-07,0.0196146,0.023200029383750653,-7.203617405915352e-07,6.032441819403545e-07,-0.00972745919752871,7.462762785515054e-07,-0.011789848593703911
232,0.0233,675.385,7.24458e-05,4.9958e-05,-0.0018171,0.00221731,0.00791648,0.0230327,-0.00981843,-0.0119134,-7.22382e-07,6.04759e-07,7.49017e-07,0.0197097,0.023300000910150942,-7.223817390933363e-07,6.047591829538845e-07,-0.009770386581714807,7.490172804214268e-07,-0.01184271642257706
233,0.0234,675.859,7.25299e-05,5.00419e-05,-0.00180845,0.00220947,0.00791236,0.0231304,-0.00986178,-0.0119668,-7.24395e-07,6.0627e-07,7.51755e-07,0.0198048,0.02339998220424655,-7.24394737638967e-07,6.062701838338569e-07,-0.009813312105038996,7.517552824687357e-07,-0.011895482612650388
234,0.0235,676.331,7.26123e-05,5.01243e-05,-0.00179984,0.00220168,0.00790825,0.0232281,-0.00990513,-0.0120203,-7.26403e-07,6.07775e-07,7.5449e-07,0.0198999,0.023499973266991825,-7.26402736184184e-07,6.07775184624515e-07,-0.0098562357675821,7.54490284693432e-07,-0.01194834479025475
235,0.0236,676.801,7.26928e-05,5.0205e-05,-0.00179128,0.00219392,0.00790415,0.0233258,-0.00994847,-0.0120737,-7.28405e-07,6.09276e-07,7.57222e-07,0.019995,0.023599974099341114,-7.284047347511091e-07,6.092761855036599e-07,-0.009899147668416375,7.572222866514267e-07,-0.012001105339923712
236,0.0237,677.27,7.27716e-05,5.02843e-05,-0.00178275,0.0021862,0.00790006,0.0234235,-0.00999181,-0.0121272,-7.30401e-07,6.10772e-07,7.59951e-07,0.02009,0.02369998470224899,-7.304007332287199e-07,6.107721866044358e-07,-0.009942057709489083,7.599512887868087e-07,-0.01205396186686325
237,0.0238,677.736,7.28488e-05,5.0362e-05,-0.00177427,0.00217851,0.00789599,0.0235212,-0.0100351,-0.0121806,-7.32392e-07,6.12263e-07,7.62677e-07,0.0201851,0.02380000507667024,-7.323917318169393e-07,6.122631874827533e-07,-0.009984916390127996,7.626772908775337e-07,-0.01210671677673103
238,0.0239,678.202,7.29242e-05,5.04382e-05,-0.00176583,0.00217087,0.00789193,0.0236189,-0.0100785,-0.0122341,-7.34377e-07,6.1375e-07,7.65401e-07,0.0202802,0.023900035223559213,-7.343767303158444e-07,6.137501884495578e-07,-0.010027882112393804,7.65401293012502e-07,-0.012159567653609815
239,0.024,678.665,7.2998e-05,5.0513e-05,-0.00175743,0.00216326,0.00788788,0.0237165,-0.0101218,-0.0122875,-7.36356e-07,6.15232e-07,7.68122e-07,0.0203753,0.02399997274386867,-7.363557288364575e-07,6.152321891939039e-07,-0.010070746977067335,7.681222951028133e-07,-0.012212316924279043
240,0.0241,679.127,7.30702e-05,5.05863e-05,-0.00174907,0.00215569,0.00788385,0.0238142,-0.0101651,-0.0123409,-7.38329e-07,6.16709e-07,7.7084e-07,0.0204704,0.024100022428553247,-7.383287274898009e-07,6.167091901598809e-07,-0.010113609985732408,7.708402971484674e-07,-0.012265063378212537
241,0.0242,679.587,7.31408e-05,5.06582e-05,-0.00174075,0.00214816,0.00787983,0.0239118,-0.0102085,-0.0123944,-7.40297e-07,6.18182e-07,7.73555e-07,0.0205655,0.024199979468566557,-7.402967260317084e-07,6.181821909923002e-07,-0.010156570122817232,7.735552991494643e-07,-0.012317905783774785
242,0.0243,680.046,7.32099e-05,5.07288e-05,-0.00173246,0.00214066,0.00787582,0.0240095,-0.0102518,-0.0124478,-7.42259e-07,6.1965e-07,7.76268e-07,0.0206605,0.024300048694862797,-7.422587244843015e-07,6.196501920463504e-07,-0.010199429415420513,7.762683011947047e-07,-0.01237064659941367
243,0.0244,680.503,7.32774e-05,5.07979e-05,-0.00172422,0.0021332,0.00787183,0.0241071,-0.0102951,-0.0125012,-7.44216e-07,6.21113e-07,7.78977e-07,0.0207556,0.024400025258392244,-7.442157230475033e-07,6.211131928779423e-07,-0.010242286852256699,7.78977303328432e-07,-0.012423384598768128
244,0.0245,680.958,7.33434e-05,5.08658e-05,-0.00171602,0.00212578,0.00786784,0.0242047,-0.0103384,-0.0125546,-7.46167e-07,6.22572e-07,7.81684e-07,0.0208507,0.024500011580110614,-7.46166721632413e-07,6.225721937980211e-07,-0.010285142433405947,7.816843055064027e-07,-0.012476119781988593
245,0.0246,681.412,7.3408e-05,5.09323e-05,-0.00170785,0.00211839,0.00786387,0.0243023,-0.0103817,-0.012608,-7.48113e-07,6.24027e-07,7.84389e-07,0.0209458,0.024600007660970258,-7.481127202169091e-07,6.240271948065867e-07,-0.010327996158948749,7.843893077286168e-07,-0.0125288521492255
246,0.0247,681.864,7.34711e-05,5.09975e-05,-0.00169973,0.00211103,0.00785991,0.0243999,-0.010425,-0.0126615,-7.50053e-07,6.25477e-07,7.8709e-07,0.0210408,0.024700013501923523,-7.500527187120909e-07,6.254771955926941e-07,-0.010370848028965374,7.870903098172732e-07,-0.012581680442466103
247,0.0248,682.315,7.35327e-05,5.10614e-05,-0.00169164,0.00210371,0.00785597,0.0244975,-0.0104683,-0.0127149,-7.51988e-07,6.26922e-07,7.89789e-07,0.0211359,0.024800029103923427,-7.51987717206859e-07,6.269221966004324e-07,-0.010413698043536201,7.897893119501731e-07,-0.012634407172914197
248,0.0249,682.764,7.3593e-05,5.11241e-05,-0.00168359,0.00209643,0.00785203,0.024595,-0.0105117,-0.0127683,-7.53917e-07,6.28363e-07,7.92485e-07,0.021231,0.024899951977922052,-7.539167158343574e-07,6.283631974746129e-07,-0.010456645157082,7.924853140384158e-07,-0.01268713108783015
249,0.025,683.212,7.36519e-05,5.11856e-05,-0.00167557,0.00208918,0.00784811,0.0246926,-0.0105549,-0.0128217,-7.55841e-07,6.298e-07,7.95178e-07,0.021326,0.02499998709486939,-7.558407143504198e-07,6.298001982152357e-07,-0.010499392506661764,7.951783160820014e-07,-0.012739852187364176
250,0.0251,683.658,7.37094e-05,5.12459e-05,-0.0016676,0.00208196,0.0078442,0.0247902,-0.0105982,-0.0128751,-7.57759e-07,6.31232e-07,7.97869e-07,0.0214211,0.025100031975720416,-7.577587128881902e-07,6.312321991774894e-07,-0.01054223695537726,7.97869318391875e-07,-0.012792570471666598
251,0.0252,684.102,7.37656e-05,5.13049e-05,-0.00165966,0.00207478,0.0078403,0.0248877,-0.0106415,-0.0129285,-7.59673e-07,6.32659e-07,8.00557e-07,0.0215161,0.025199984101424988,-7.596727114034252e-07,6.326592001393294e-07,-0.010585079548968257,8.005573204350469e-07,-0.012845285940887852
252,0.0253,684.545,7.38205e-05,5.13629e-05,-0.00165175,0.00206763,0.00783642,0.0249853,-0.0106848,-0.0129819,-7.6158e-07,6.34083e-07,8.03242e-07,0.0216112,0.025300048502936656,-7.615797099624899e-07,6.340832010565123e-07,-0.010627920287515136,8.032423226556062e-07,-0.012897998595178262
253,0.0254,684.987,7.38742e-05,5.14196e-05,-0.00164388,0.00206052,0.00783254,0.0250828,-0.0107281,-0.0130353,-7.63483e-07,6.35502e-07,8.05925e-07,0.0217063,0.02540002013120346,-7.634827084990192e-07,6.355022019732814e-07,-0.010670759171098165,8.059253246983644e-07,-0.01295070843468804
254,0.0255,685.427,7.39265e-05,5.14752e-05,-0.00163605,0.00205343,0.00782868,0.0251803,-0.0107714,-0.0130886,-7.6538e-07,6.36916e-07,8.08605e-07,0.0218013,0.025500001507179126,-7.653797070572566e-07,6.369162028896369e-07,-0.010713596199797615,8.086053269185101e-07,-0.013003316759904182
255,0.0256,685.865,7.39776e-05,5.15298e-05,-0.00162825,0.00204638,0.00782483,0.0252778,-0.0108147,-0.013142,-7.67272e-07,6.38327e-07,8.11282e-07,0.0218964,0.025599992631814228,-7.672717056150802e-07,6.383272037613352e-07,-0.010756431373693975,8.112823290939986e-07,-0.013056020975574123
256,0.0257,686.303,7.40275e-05,5.15832e-05,-0.00162049,0.00203937,0.00782099,0.0253753,-0.010858,-0.0131954,-7.69159e-07,6.39733e-07,8.13957e-07,0.0219914,0.025699993506059116,-7.691587041724901e-07,6.397332046326198e-07,-0.010799264692867405,8.139573313137305e-07,-0.013108722376914073
257,0.0258,686.738,7.40762e-05,5.16356e-05,-0.00161276,0.00203238,0.00781716,0.0254728,-0.0109012,-0.0132488,-7.71041e-07,6.41134e-07,8.16629e-07,0.0220865,0.025800004130864806,-7.710407027294863e-07,6.411342055034908e-07,-0.010841997241603063,8.166293334888053e-07,-0.013161420964074355
258,0.0259,687.172,7.41238e-05,5.16869e-05,-0.00160507,0.00202543,0.00781334,0.0255703,-0.0109445,-0.0133021,-7.72917e-07,6.42532e-07,8.19299e-07,0.0221815,0.02590002450718165,-7.729167013081906e-07,6.425322063297045e-07,-0.010884826855854679,8.192993357081235e-07,-0.013214018058611887
259,0.026,687.605,7.41701e-05,5.17371e-05,-0.00159741,0.00201851,0.00780953,0.0256677,-0.0109878,-0.0133555,-7.74789e-07,6.43925e-07,8.21965e-07,0.0222765,0.025999952035960394,-7.747886998643594e-07,6.439252073775492e-07,-0.01092765461562406,8.21965337793884e-07,-0.013266711023132927
260,0.0261,688.037,7.42153e-05,5.17864e-05,-0.00158978,0.00201161,0.00780574,0.0257652,-0.011031,-0.0134089,-7.76655e-07,6.45314e-07,8.2463e-07,0.0223716,0.02609999190814838,-7.766546984422362e-07,6.453142082918362e-07,-0.010970381618034764,8.246303400127886e-07,-0.013319401173924716
261,0.0262,688.467,7.42594e-05,5.18346e-05,-0.00158219,0.00200475,0.00780195,0.0258627,-0.0110743,-0.0134622,-7.78516e-07,6.46699e-07,8.27291e-07,0.0224666,0.02620004153469946,-7.785156969086771e-07,6.466992090725654e-07,-0.01101320567336328,8.272913420981354e-07,-0.013371989848341537
262,0.0263,688.895,7.43024e-05,5.18819e-05,-0.00157463,0.00199793,0.00779818,0.0259601,-0.0111176,-0.0135156,-7.80372e-07,6.4808e-07,8.29951e-07,0.0225616,0.02629999828655971,-7.803716954857265e-07,6.480802099417815e-07,-0.011056027874450258,8.299513443166262e-07,-0.013424674377394141
263,0.0264,689.322,7.43443e-05,5.19282e-05,-0.00156711,0.00199113,0.00779442,0.0260575,-0.0111608,-0.013569,-7.82224e-07,6.49457e-07,8.32607e-07,0.0226567,0.02639996477468176,-7.822236940402405e-07,6.494572108994845e-07,-0.011098749331255986,8.326073466236039e-07,-0.013477356093168136
264,0.0265,689.748,7.43852e-05,5.19735e-05,-0.00155962,0.00198436,0.00779067,0.026155,-0.0112041,-0.0136223,-7.8407e-07,6.50829e-07,8.35261e-07,0.0227517,0.026500043650013128,-7.840696926164625e-07,6.508292118567738e-07,-0.011141567828382715,8.352613487527805e-07,-0.013529936348812055
265,0.0266,690.173,7.4425e-05,5.20179e-05,-0.00155216,0.00197762,0.00778692,0.0262524,-0.0112473,-0.0136757,-7.85911e-07,6.52198e-07,8.37913e-07,0.0228467,0.026600029623502497,-7.859106911922709e-07,6.521982127694059e-07,-0.011184285589942222,8.379133511482451e-07,-0.013582612443746811
266,0.0267,690.596,7.44637e-05,5.20613e-05,-0.00154473,0.00197091,0.00778319,0.0263498,-0.0112905,-0.013729,-7.87747e-07,6.53562e-07,8.40561e-07,0.0229417,0.026700025336100053,-7.877466897676655e-07,6.535622136816244e-07,-0.011227001506134315,8.405613531881073e-07,-0.013635187089376832
267,0.0268,691.017,7.45015e-05,5.21039e-05,-0.00153733,0.00196423,0.00777947,0.0264472,-0.0113338,-0.0137823,-7.89578e-07,6.54922e-07,8.43208e-07,0.0230368,0.026800030788754148,-7.895776882316241e-07,6.549222144602851e-07,-0.011269814450062254,8.432083555831582e-07,-0.0136877589328529
268,0.0269,691.438,7.45382e-05,5.21455e-05,-0.00152997,0.00195758,0.00777577,0.0265446,-0.011377,-0.0138357,-7.91404e-07,6.56279e-07,8.45852e-07,0.0231318,0.026900045982414023,-7.914036868061913e-07,6.562792154163333e-07,-0.0113125266714873,8.458523577115074e-07,-0.013740426600286626
269,0.027,691.857,7.4574e-05,5.21863e-05,-0.00152264,0.00195096,0.00777207,0.0266419,-0.0114203,-0.013889,-7.93226e-07,6.57631e-07,8.48493e-07,0.0232268,0.02699996821802597,-7.932256853582231e-07,6.576312161499231e-07,-0.011355335912255682,8.48493360017244e-07,-0.01379299283464619
270,0.0271,692.275,7.46088e-05,5.22262e-05,-0.00151533,0.00194437,0.00776838,0.0267393,-0.0114635,-0.0139423,-7.95042e-07,6.58979e-07,8.51132e-07,0.0233218,0.027100002886539576,-7.95041683931963e-07,6.589792171940445e-07,-0.011398044439233534,8.511323621451794e-07,-0.013845556267300219
271,0.0272,692.691,7.46427e-05,5.22653e-05,-0.00150806,0.00193781,0.0077647,0.0268367,-0.0115067,-0.0139957,-7.96854e-07,6.60323e-07,8.53768e-07,0.0234168,0.027200047298904684,-7.968536824831673e-07,6.603232181046081e-07,-0.011440751121242765,8.537683644505023e-07,-0.01389821550858128
272,0.0273,693.106,7.46756e-05,5.23035e-05,-0.00150082,0.00193127,0.00776103,0.026934,-0.0115499,-0.014049,-7.98661e-07,6.61664e-07,8.56402e-07,0.0235118,0.027299998726064922,-7.98660681033958e-07,6.616642189705146e-07,-0.011483455958363198,8.564023668000686e-07,-0.013950773333016198
273,0.0274,693.52,7.47076e-05,5.23409e-05,-0.00149362,0.00192477,0.00775738,0.0270313,-0.0115932,-0.0141023,-8.00463e-07,6.63e-07,8.59033e-07,0.0236068,0.027399959878972036,-8.00462679584335e-07,6.630002198360074e-07,-0.011526257798053607,8.590333688829332e-07,-0.014003328356193778
274,0.0275,693.932,7.47387e-05,5.23775e-05,-0.00148644,0.00191829,0.00775373,0.0271287,-0.0116364,-0.0141556,-8.0226e-07,6.64332e-07,8.61662e-07,0.0237018,0.027500033508570887,-8.022596781342983e-07,6.643322205679425e-07,-0.011568958941365448,8.616623712320859e-07,-0.014055880578263236
275,0.0276,694.343,7.47689e-05,5.24132e-05,-0.00147929,0.00191184,0.00775009,0.027226,-0.0116796,-0.0142089,-8.04052e-07,6.65661e-07,8.64288e-07,0.0237968,0.02760001412580948,-8.040516767948702e-07,6.65661221477265e-07,-0.011611658240027745,8.642883735365814e-07,-0.014108429999373895
276,0.0277,694.753,7.47983e-05,5.24482e-05,-0.00147217,0.00190541,0.00774646,0.0273233,-0.0117228,-0.0142622,-8.0584e-07,6.66985e-07,8.66912e-07,0.0238918,0.027700004471635342,-8.058396753218844e-07,6.669852223861739e-07,-0.0116543556941201,8.669123756632757e-07,-0.01416097661967508
277,0.0278,695.162,7.48267e-05,5.24824e-05,-0.00146508,0.00189902,0.00774285,0.0274206,-0.011766,-0.0143155,-8.07623e-07,6.68306e-07,8.69534e-07,0.0239868,0.02780000454699527,-8.076226738484849e-07,6.683062232504255e-07,-0.011697051303722228,8.695343780562581e-07,-0.014213520439316008
278,0.0279,695.569,7.48544e-05,5.25159e-05,-0.00145802,0.00189265,0.00773924,0.0275179,-0.0118092,-0.0143688,-8.09401e-07,6.69623e-07,8.72153e-07,0.0240817,0.027900014352835845,-8.094006724856939e-07,6.696232242031641e-07,-0.011739745068913954,8.721533804045833e-07,-0.014266061458446
279,0.028,695.976,7.48812e-05,5.25486e-05,-0.00145099,0.0018863,0.00773564,0.0276152,-0.0118524,-0.0144221,-8.11175e-07,6.70936e-07,8.7477e-07,0.0241767,0.02800003389010386,-8.111746709893453e-07,6.70936225022345e-07,-0.01178243698977488,8.747703825751074e-07,-0.014318599677214272
280,0.0281,696.38,7.49071e-05,5.25805e-05,-0.00144399,0.00187999,0.00773205,0.0277124,-0.0118956,-0.0144754,-8.12944e-07,6.72245e-07,8.77384e-07,0.0242717,0.02809996034974538,-8.129436696036052e-07,6.722452259300127e-07,-0.01182512706638461,8.77384384923019e-07,-0.014371135095770149
281,0.0282,696.784,7.49323e-05,5.26117e-05,-0.00143701,0.0018737,0.00772847,0.0278097,-0.0119388,-0.0145287,-8.14708e-07,6.73551e-07,8.79996e-07,0.0243667,0.02819999934270534,-8.147076681064291e-07,6.735512267930233e-07,-0.011867815298822859,8.799963870931293e-07,-0.014423667714262844
282,0.0283,697.187,7.49566e-05,5.26423e-05,-0.00143007,0.00186744,0.0077249,0.027907,-0.011982,-0.014582,-8.16468e-07,6.74853e-07,8.82605e-07,0.0244616,0.028300048069933137,-8.1646766669774e-07,6.748532277445207e-07,-0.01191050168716934,8.826053894406272e-07,-0.014476197532841573
283,0.0284,697.588,7.49802e-05,5.26721e-05,-0.00142315,0.0018612,0.00772135,0.0280042,-0.0120252,-0.0146353,-8.18223e-07,6.7615e-07,8.85212e-07,0.0245566,0.028400003692370168,-8.182226652886371e-07,6.761502286956045e-07,-0.011953186231503654,8.852123918323684e-07,-0.014528724551655547
284,0.0285,697.988,7.5003e-05,5.27012e-05,-0.00141626,0.00185499,0.0077178,0.0281014,-0.0120684,-0.0146886,-8.19974e-07,6.77445e-07,8.87817e-07,0.0246516,0.028499969030965744,-8.199736638569988e-07,6.774452294688871e-07,-0.011995868931905518,8.878173940463086e-07,-0.014581248770854094
285,0.0286,698.387,7.50251e-05,5.27296e-05,-0.0014094,0.0018488,0.00771426,0.0281987,-0.0121116,-0.0147418,-8.2172e-07,6.78735e-07,8.90419e-07,0.0247465,0.02860004694666407,-8.217196624249468e-07,6.78735230241756e-07,-0.012038549788454533,8.904193964376361e-07,-0.014633671653958347
286,0.0287,698.784,7.50464e-05,5.27573e-05,-0.00140257,0.00184264,0.00771072,0.0282959,-0.0121547,-0.0147951,-8.23462e-07,6.80022e-07,8.93019e-07,0.0248415,0.028700031730409137,-8.234616609703593e-07,6.800222311920123e-07,-0.012081130009348295,8.930193986511625e-07,-0.014686190279625477
287,0.0288,699.181,7.5067e-05,5.27844e-05,-0.00139576,0.00183651,0.0077072,0.0283931,-0.0121979,-0.0148484,-8.25199e-07,6.81305e-07,8.95616e-07,0.0249364,0.02880002623314737,-8.251986595153582e-07,6.81305232008711e-07,-0.012123807182698343,8.956164010420764e-07,-0.014738706106124266
288,0.0289,699.576,7.50868e-05,5.28109e-05,-0.00138898,0.0018304,0.00770369,0.0284903,-0.0122411,-0.0149016,-8.26931e-07,6.82584e-07,8.98211e-07,0.0250314,0.02890003045582379,-8.269306580599434e-07,6.825842329138965e-07,-0.01216648251243424,8.982114034772337e-07,-0.014791120612721254
289,0.029,699.97,7.5106e-05,5.28366e-05,-0.00138223,0.00182431,0.00770019,0.0285875,-0.0122843,-0.0149549,-8.28659e-07,6.8386e-07,9.00804e-07,0.0251263,0.029000044399382974,-8.286586566930154e-07,6.838602337744248e-07,-0.012209155998635812,9.008044057345899e-07,-0.014843630846582467
290,0.0291,700.363,7.51244e-05,5.28618e-05,-0.00137551,0.00181825,0.00769669,0.0286846,-0.0123274,-0.0150081,-8.30383e-07,6.85132e-07,9.03394e-07,0.0252213,0.029099965154768315,-8.303826551925297e-07,6.851322347234401e-07,-0.01225172886656034,9.033944081693335e-07,-0.014896039771331582
291,0.0292,700.755,7.51422e-05,5.28863e-05,-0.00136881,0.00181222,0.00769321,0.0287818,-0.0123706,-0.0150614,-8.32102e-07,6.864e-07,9.05982e-07,0.0253162,0.029199998532924765,-8.321016538026527e-07,6.864002355388976e-07,-0.01229439867019888,9.059824104262759e-07,-0.014948544413150633
292,0.0293,701.146,7.51592e-05,5.29102e-05,-0.00136214,0.00180621,0.00768973,0.028879,-0.0124137,-0.0151146,-8.33817e-07,6.87665e-07,9.08568e-07,0.0254111,0.029300041634798157,-8.338166523902402e-07,6.876652365317426e-07,-0.012336967864243542,9.085684127274618e-07,-0.015000947756646621
293,0.0294,701.535,7.51756e-05,5.29336e-05,-0.00135549,0.00180022,0.00768626,0.0289761,-0.0124569,-0.0151679,-8.35527e-07,6.88926e-07,9.11151e-07,0.025506,0.02939999152132944,-8.35526650977414e-07,6.889262373910299e-07,-0.012379633985636906,9.111514152060352e-07,-0.015053446807019033
294,0.0295,701.923,7.51914e-05,5.29563e-05,-0.00134887,0.00179426,0.00768281,0.0290732,-0.0125,-0.0152211,-8.37233e-07,6.90184e-07,9.13732e-07,0.025601,0.029499951113465706,-8.372326495420523e-07,6.9018423820566e-07,-0.012422199506118559,9.137324175068073e-07,-0.015105844569856086
295,0.0296,702.311,7.52065e-05,5.29784e-05,-0.00134228,0.00178832,0.00767936,0.0291704,-0.0125432,-0.0152744,-8.38935e-07,6.91438e-07,9.16311e-07,0.0256959,0.029600023372146955,-8.389346480841553e-07,6.91438239108777e-07,-0.012464861945584604,9.16311419851823e-07,-0.015158338029377383
296,0.0297,702.697,7.52209e-05,5.29999e-05,-0.00133571,0.0017824,0.00767592,0.0292675,-0.0125863,-0.0153276,-8.40632e-07,6.92688e-07,9.18888e-07,0.0257908,0.029700002388318936,-8.406316466258446e-07,6.926882398783363e-07,-0.012507423792820327,9.18888422241082e-07,-0.015210730212149803
297,0.0298,703.082,7.52347e-05,5.30209e-05,-0.00132917,0.00177651,0.00767248,0.0293646,-0.0126295,-0.0153808,-8.42325e-07,6.93935e-07,9.21462e-07,0.0258857,0.029799991112924973,-8.423246452560207e-07,6.93935240825283e-07,-0.012550082550676689,9.21462424585684e-07,-0.01526311960773219
298,0.0299,703.466,7.5248e-05,5.30413e-05,-0.00132265,0.00177064,0.00766906,0.0294617,-0.0126726,-0.015434,-8.44014e-07,6.95179e-07,9.24034e-07,0.0259806,0.029899989546907424,-8.440136438636614e-07,6.951792417275726e-07,-0.01259264072498345,9.240344269745293e-07,-0.015315506216272978
299,0.03,703.848,7.52606e-05,5.30612e-05,-0.00131616,0.0017648,0.00766565,0.0295588,-0.0127157,-0.0154873,-8.45698e-07,6.96419e-07,9.26603e-07,0.0260755,0.029999997691209312,-8.456976423598661e-07,6.964192424963045e-07,-0.012635197065072545,9.266034293187175e-07,-0.015367988501126306
300,0.0301,704.23,7.52726e-05,5.30805e-05,-0.00130969,0.00175897,0.00766224,0.0296559,-0.0127589,-0.0155405,-8.47379e-07,6.97655e-07,9.29171e-07,0.0261704,0.03010001554677344,-8.47378640922436e-07,6.976552433535232e-07,-0.012677850303242755,9.291714315740052e-07,-0.01542036953079029
301,0.0302,704.611,7.5284e-05,5.30993e-05,-0.00130325,0.00175317,0.00765884,0.029753,-0.012802,-0.0155937,-8.49055e-07,6.98888e-07,9.31736e-07,0.0262653,0.03020004311454283,-8.490546395956144e-07,6.988882441660849e-07,-0.012720402970878064,9.317364340066803e-07,-0.015472747773857654
302,0.0303,704.99,7.52948e-05,5.31175e-05,-0.00129683,0.0017474,0.00765545,0.02985,-0.0128451,-0.0156469,-8.50726e-07,7.00118e-07,9.34298e-07,0.0263602,0.030299977365457753,-8.507256381573569e-07,7.001182451560339e-07,-0.012762953804532962,9.342984363946982e-07,-0.015525123230476612
303,0.0304,705.369,7.5305e-05,5.31353e-05,-0.00129043,0.00174164,0.00765207,0.0299471,-0.0128882,-0.0157001,-8.52394e-07,7.01344e-07,9.36859e-07,0.0264551,0.030400024350462518,-8.523936366744422e-07,7.013442460124253e-07,-0.012805502804286495,9.368594389158602e-07,-0.01557749590079538
304,0.0305,705.746,7.53147e-05,5.31525e-05,-0.00128406,0.00173591,0.0076487,0.0300441,-0.0129314,-0.0157533,-8.54057e-07,7.02566e-07,9.39417e-07,0.02655,0.030499978000497974,-8.540566353021362e-07,7.025662467352589e-07,-0.012848148685407734,9.394174411703204e-07,-0.01562986578496217
305,0.0306,706.122,7.53238e-05,5.31692e-05,-0.00127772,0.0017302,0.00764534,0.0301412,-0.0129745,-0.0158065,-8.55716e-07,7.03786e-07,9.41973e-07,0.0266449,0.03060004440650732,-8.557156339072947e-07,7.037862477243806e-07,-0.012890694013340975,9.419734436910687e-07,-0.015682232883125202
306,0.0307,706.498,7.53324e-05,5.31854e-05,-0.00127139,0.00172451,0.00764198,0.0302382,-0.0130176,-0.0158597,-8.57371e-07,7.05001e-07,9.44527e-07,0.0267397,0.030700017459429407,-8.573706324899177e-07,7.05001248491044e-07,-0.012933237507610107,9.445274460340158e-07,-0.015734597195432798
307,0.0308,706.872,7.53405e-05,5.32011e-05,-0.0012651,0.00171884,0.00763864,0.0303352,-0.0130607,-0.0159129,-8.59022e-07,7.06214e-07,9.47079e-07,0.0268346,0.03080000021020801,-8.590216310500054e-07,7.062142493019508e-07,-0.012975779168294177,9.470794484212064e-07,-0.015786958722033062
308,0.0309,707.245,7.5348e-05,5.32163e-05,-0.00125882,0.0017132,0.0076353,0.0304322,-0.0131038,-0.0159661,-8.60669e-07,7.07423e-07,9.49628e-07,0.0269295,0.030899992659783715,-8.606686295875576e-07,7.074232502013444e-07,-0.013018318995472122,9.496284509857844e-07,-0.0158393174630741
309,0.031,707.617,7.5355e-05,5.32311e-05,-0.00125257,0.00170757,0.00763196,0.0305292,-0.0131469,-0.0160192,-8.62312e-07,7.08629e-07,9.52175e-07,0.0270243,0.030999994809097542,-8.623116282135967e-07,7.08629251056081e-07,-0.013060856989223102,9.521754533725613e-07,-0.015891575007866754
310,0.0311,707.988,7.53614e-05,5.32454e-05,-0.00124634,0.00170197,0.00762864,0.0306262,-0.01319,-0.0160724,-8.6395e-07,7.09831e-07,9.5472e-07,0.0271192,0.031100006659090518,-8.639496268392222e-07,7.098312519993044e-07,-0.013103393149625941,9.547204558035816e-07,-0.01594392818346957
311,0.0312,708.358,7.53674e-05,5.32592e-05,-0.00124014,0.00169639,0.00762533,0.0307232,-0.0132331,-0.0161256,-8.65585e-07,7.1103e-07,9.57263e-07,0.027214,0.031200028210703223,-8.655846254201904e-07,7.110302526758261e-07,-0.013145927476759911,9.572634582788453e-07,-0.015996278573957468
312,0.0313,708.727,7.53729e-05,5.32726e-05,-0.00123395,0.00169083,0.00762202,0.0308201,-0.0132762,-0.0161788,-8.67215e-07,7.12226e-07,9.59803e-07,0.0273089,0.031299956334876144,-8.67214624000745e-07,7.122262535297352e-07,-0.013188459970703836,9.598034607094519e-07,-0.016048626179478664
313,0.0314,709.095,7.53778e-05,5.32855e-05,-0.00122779,0.00168529,0.00761872,0.0309171,-0.0133193,-0.0162319,-8.68841e-07,7.13418e-07,9.62342e-07,0.0274037,0.031399997282548275,-8.688406225587642e-07,7.134182544721313e-07,-0.013230990631536765,9.623424630511579e-07,-0.016100872610273487
314,0.0315,709.462,7.53823e-05,5.3298e-05,-0.00122166,0.00167977,0.00761543,0.0310141,-0.0133623,-0.0162851,-8.70464e-07,7.14607e-07,9.64878e-07,0.0274986,0.03150004793466277,-8.704636211831485e-07,7.146072553698701e-07,-0.013273420786684698,9.648784655702514e-07,-0.01615321465153996
315,0.0316,709.828,7.53863e-05,5.331e-05,-0.00121554,0.00167428,0.00761215,0.031111,-0.0134054,-0.0163382,-8.72082e-07,7.15793e-07,9.67412e-07,0.0275934,0.03160000513215566,-8.720816196960968e-07,7.157932562229519e-07,-0.013315947785785376,9.674124679115437e-07,-0.016205455528834456
316,0.0317,710.193,7.53899e-05,5.33216e-05,-0.00120945,0.0016688,0.00760887,0.0312079,-0.0134485,-0.0163914,-8.73697e-07,7.16976e-07,9.69944e-07,0.0276882,0.0316999720159703,-8.736966182754102e-07,7.169762570313765e-07,-0.01335847295201198,9.699444702970794e-07,-0.01625779200643762
317,0.0318,710.558,7.53929e-05,5.33328e-05,-0.00120338,0.00166334,0.0076056,0.0313049,-0.0134916,-0.0164445,-8.75307e-07,7.18155e-07,9.72473e-07,0.027783,0.03180005176704537,-8.753066169653323e-07,7.181552579282879e-07,-0.013400996285443223,9.724734728600026e-07,-0.016310027330821986
318,0.0319,710.921,7.53955e-05,5.33435e-05,-0.00119733,0.00165791,0.00760234,0.0314018,-0.0135346,-0.0164977,-8.76914e-07,7.19332e-07,9.75001e-07,0.0278779,0.031900038036318135,-8.769136154995749e-07,7.193322586473982e-07,-0.013443419130505285,9.750014753340253e-07,-0.01636235824535326
319,0.032,711.283,7.53977e-05,5.33539e-05,-0.0011913,0.00165249,0.00759909,0.0314987,-0.0135777,-0.0165508,-8.78516e-07,7.20505e-07,9.77526e-07,0.0279727,0.032000033994729726,-8.785156141444261e-07,7.205052594549954e-07,-0.013485938802835218,9.775264777633907e-07,-0.016414588017417797
320,0.0321,711.644,7.53994e-05,5.33638e-05,-0.0011853,0.0016471,0.00759585,0.0315956,-0.0136208,-0.016604,-8.80115e-07,7.21674e-07,9.80049e-07,0.0280675,0.03210003964321917,-8.801146127446202e-07,7.216742603510795e-07,-0.013528456642606823,9.800494802369997e-07,-0.016466913369468483
321,0.0322,712.004,7.54007e-05,5.33733e-05,-0.00117932,0.00164172,0.00759261,0.0316924,-0.0136638,-0.0166571,-8.8171e-07,7.22841e-07,9.82571e-07,0.0281623,0.032199951762725165,-8.817096113222789e-07,7.22841261291407e-07,-0.013570874006991307,9.82571482621708e-07,-0.01651913758980328
322,0.0323,712.363,7.54015e-05,5.33825e-05,-0.00117335,0.00163636,0.00758938,0.0317893,-0.0137069,-0.0167102,-8.833e-07,7.24004e-07,9.8509e-07,0.0282571,0.03229997678418517,-8.832996098995238e-07,7.240042620981768e-07,-0.013613388186134445,9.850904851838038e-07,-0.016571359037105604
323,0.0324,712.721,7.5402e-05,5.33912e-05,-0.00116741,0.00163103,0.00758616,0.0318862,-0.0137499,-0.0167634,-8.84887e-07,7.25165e-07,9.87606e-07,0.0283519,0.032400011498538994,-8.848866084321116e-07,7.2516526294919e-07,-0.013655801898541098,9.876064877012425e-07,-0.01662367604915993
324,0.0325,713.079,7.5402e-05,5.33996e-05,-0.00116149,0.00162571,0.00758294,0.031983,-0.013793,-0.0168165,-8.8647e-07,7.26322e-07,9.90121e-07,0.0284467,0.03249995265672623,-8.864696070531863e-07,7.263222636666455e-07,-0.013698312417371072,9.901214901297806e-07,-0.01667589194561736
325,0.0326,713.435,7.54015e-05,5.34076e-05,-0.00115559,0.00162041,0.00757974,0.0320799,-0.013836,-0.0168696,-8.8805e-07,7.27475e-07,9.92634e-07,0.0285415,0.03260000674968122,-8.880496056296039e-07,7.274752646946325e-07,-0.013740722478114198,9.92634492602562e-07,-0.01672810506948441
326,0.0327,713.79,7.54007e-05,5.34152e-05,-0.00114972,0.00161513,0.00757654,0.0321767,-0.013879,-0.0169227,-8.89625e-07,7.28626e-07,9.95144e-07,0.0286362,0.03269996726834545,-8.8962460431663e-07,7.286262655448184e-07,-0.013783130715264047,9.95144495252731e-07,-0.016780315420908076
327,0.0328,714.145,7.53995e-05,5.34224e-05,-0.00114386,0.00160987,0.00757335,0.0322736,-0.0139221,-0.0169758,-8.91197e-07,7.29774e-07,9.97653e-07,0.028731,0.0328000407436555,-8.911966028479767e-07,7.29774266350347e-07,-0.013825635746340215,9.976534975919549e-07,-0.016832523000035793
328,0.0329,714.499,7.53979e-05,5.34293e-05,-0.00113802,0.00160463,0.00757016,0.0323704,-0.0139651,-0.0170289,-8.92765e-07,7.30919e-07,1.00016e-06,0.0288258,0.03290002062654773,-8.927646014678103e-07,7.309192671112186e-07,-0.013868040332298048,1.0001605001974667e-06,-0.016884727807014555
329,0.033,714.851,7.53959e-05,5.34358e-05,-0.0011322,0.00159941,0.00756698,0.0324672,-0.0140081,-0.017082,-8.94329e-07,7.3206e-07,1.00266e-06,0.0289206,0.03300001018796106,-8.943286000651085e-07,7.32060267960577e-07,-0.013910443094897751,1.0026605026247637e-06,-0.016936929841991688
330,0.0331,715.203,7.53935e-05,5.3442e-05,-0.00112641,0.0015942,0.00756381,0.032564,-0.0140512,-0.0171351,-8.95889e-07,7.33198e-07,1.00517e-06,0.0290153,0.03310000942883229,-8.958885986398712e-07,7.331982687652783e-07,-0.013952942638928656,1.0051705052749327e-06,-0.01698912910511441
331,0.0332,715.554,7.53907e-05,5.34478e-05,-0.00112063,0.00158902,0.00756065,0.0326608,-0.0140942,-0.0171882,-8.97445e-07,7.34334e-07,1.00767e-06,0.0291101,0.03320001835009867,-8.974445973031209e-07,7.34334269614223e-07,-0.013995341750807744,1.0076705077022297e-06,-0.01704132559652982
332,0.0333,715.904,7.53876e-05,5.34533e-05,-0.00111488,0.00158385,0.00755749,0.0327576,-0.0141372,-0.0172413,-8.98998e-07,7.35466e-07,1.01016e-06,0.0292048,0.03330003695269723,-8.989975959217134e-07,7.354662705516546e-07,-0.014037739039564179,1.0101605101286992e-06,-0.017093519316385142
333,0.0334,716.253,7.53841e-05,5.34584e-05,-0.00110914,0.0015787,0.00755434,0.0328543,-0.0141802,-0.0172944,-9.00547e-07,7.36595e-07,1.01266e-06,0.0292996,0.03339996189756378,-9.005465945177704e-07,7.365952712223844e-07,-0.014080134505276454,1.0126605127780408e-06,-0.017145710264827474
334,0.0335,716.601,7.53802e-05,5.34632e-05,-0.00110342,0.00157357,0.0075512,0.0329511,-0.0142232,-0.0173475,-9.02093e-07,7.37722e-07,1.01515e-06,0.0293943,0.03349999985563468,-9.020925930691703e-07,7.377222721594023e-07,-0.01412252814802284,1.0151505152045104e-06,-0.017197898442004034
335,0.0336,716.948,7.5376e-05,5.34677e-05,-0.00109773,0.00156846,0.00754806,0.0330479,-0.0142662,-0.0174005,-9.03634e-07,7.38845e-07,1.01764e-06,0.0294891,0.033600047497848395,-9.036335917311789e-07,7.388452729628625e-07,-0.014164919967881828,1.0176405178530246e-06,-0.01724998557306545
336,0.0337,717.294,7.53714e-05,5.34719e-05,-0.00109205,0.00156337,0.00754494,0.0331446,-0.0143092,-0.0174536,-9.05172e-07,7.39965e-07,1.02013e-06,0.0295838,0.03370000145513741,-9.051715903485302e-07,7.399652737216655e-07,-0.014207309964931802,1.0201305202794941e-06,-0.01730216821337016
337,0.0338,717.639,7.53665e-05,5.34757e-05,-0.00108639,0.00155829,0.00754182,0.0332413,-0.0143522,-0.0175067,-9.06707e-07,7.41082e-07,1.02262e-06,0.0296785,0.033799965078441296,-9.067065889212245e-07,7.41082274657856e-07,-0.014249698139251032,1.0226205229280083e-06,-0.01735434808285019
338,0.0339,717.984,7.53612e-05,5.34792e-05,-0.00108075,0.00155323,0.0075387,0.0333381,-0.0143952,-0.0175597,-9.08237e-07,7.42197e-07,1.02511e-06,0.0297732,0.0339000417586941,-9.082365876045273e-07,7.421972754162454e-07,-0.0142920844909179,1.0251105253544779e-06,-0.017406426922300433
339,0.034,718.328,7.53556e-05,5.34824e-05,-0.00107513,0.00154819,0.00753559,0.0334348,-0.0144382,-0.0176128,-9.09764e-07,7.43308e-07,1.02759e-06,0.029868,0.034000024726830835,-9.097635861321507e-07,7.433082762631216e-07,-0.014334469020010898,1.0275905280021647e-06,-0.01745860125579002
340,0.0341,718.67,7.53497e-05,5.34853e-05,-0.00106953,0.00154317,0.00753249,0.0335315,-0.0144812,-0.0176659,-9.11288e-07,7.44416e-07,1.03007e-06,0.0299627,0.03410001736378798,-9.112875847261392e-07,7.444162770653406e-07,-0.014376851726608297,1.0300705304278068e-06,-0.017510772818896014
341,0.0342,719.012,7.53435e-05,5.34879e-05,-0.00106395,0.00153816,0.0075294,0.0336282,-0.0145242,-0.0177189,-9.12807e-07,7.45522e-07,1.03255e-06,0.0300574,0.03420001967050057,-9.128065834307364e-07,7.455222779118031e-07,-0.01441923261078848,1.0325505330754936e-06,-0.017562843368054915
342,0.0343,719.353,7.53369e-05,5.34902e-05,-0.00105839,0.00153317,0.00752631,0.0337249,-0.0145672,-0.017772,-9.14324e-07,7.46624e-07,1.03503e-06,0.0301521,0.03430003164790407,-9.143235819575324e-07,7.466242786247079e-07,-0.014461611672629937,1.0350305357231804e-06,-0.017615009396051762
343,0.0344,719.694,7.533e-05,5.34922e-05,-0.00105284,0.0015282,0.00752323,0.0338215,-0.0146102,-0.017825,-9.15836e-07,7.47724e-07,1.03751e-06,0.0302468,0.034399949856932954,-9.15835580594937e-07,7.477242796039008e-07,-0.01450398891221083,1.0375105381488225e-06,-0.017667074420818385
344,0.0345,720.033,7.53228e-05,5.34939e-05,-0.00104732,0.00152325,0.00752016,0.0339182,-0.0146531,-0.017878,-9.17345e-07,7.4882e-07,1.03998e-06,0.0303415,0.034499981168520044,-9.173445791876844e-07,7.488202804495359e-07,-0.01454626578424112,1.039980540795682e-06,-0.017719136686211945
345,0.0346,720.372,7.53152e-05,5.34953e-05,-0.00104181,0.00151831,0.00751709,0.0340149,-0.0146961,-0.0179311,-9.18851e-07,7.49914e-07,1.04245e-06,0.0304361,0.034600022153602694,-9.18850577846797e-07,7.499142811173698e-07,-0.014588639383773416,1.0424505434425413e-06,-0.017771294415253935
346,0.0347,720.709,7.53074e-05,5.34964e-05,-0.00103632,0.00151339,0.00751403,0.0341115,-0.0147391,-0.0179841,-9.20353e-07,7.51005e-07,1.04492e-06,0.0305308,0.034699969343114256,-9.203525764833742e-07,7.510052819625912e-07,-0.014631011161280183,1.044920545867356e-06,-0.01782335115713407
347,0.0348,721.046,7.52993e-05,5.34973e-05,-0.00103085,0.00150848,0.00751098,0.0342082,-0.0147821,-0.0180371,-9.21851e-07,7.52093e-07,1.04739e-06,0.0306255,0.034800029667988674,-9.21850575097416e-07,7.520932827631555e-07,-0.01467338111683969,1.0473905485142154e-06,-0.017875405140080014
348,0.0349,721.382,7.52908e-05,5.34979e-05,-0.0010254,0.0015036,0.00750793,0.0343048,-0.014825,-0.0180902,-9.23346e-07,7.53178e-07,1.04985e-06,0.0307202,0.034899996179159176,-9.233455736668006e-07,7.531782837411072e-07,-0.014715650722100238,1.0498505511602474e-06,-0.017927554571487425
349,0.035,721.717,7.52821e-05,5.34982e-05,-0.00101996,0.00149873,0.00750489,0.0344014,-0.014868,-0.0181432,-9.24837e-07,7.5426e-07,1.05232e-06,0.0308148,0.03499997234756136,-9.248365723246721e-07,7.542602844523572e-07,-0.01475801703823687,1.0523205535850622e-06,-0.017979603031798685
350,0.0351,722.052,7.52731e-05,5.34982e-05,-0.00101454,0.00149387,0.00750185,0.034498,-0.0149109,-0.0181962,-9.26325e-07,7.5534e-07,1.05478e-06,0.0309095,0.03509995817412781,-9.263245709378864e-07,7.553402852078506e-07,-0.014800283012694315,1.0547805562310941e-06,-0.018031648733614736
351,0.0352,722.385,7.52638e-05,5.3498e-05,-0.00100914,0.00148903,0.00749882,0.0345946,-0.0149539,-0.0182492,-9.2781e-07,7.56416e-07,1.05724e-06,0.0310041,0.03519995365979156,-9.27809569617466e-07,7.564162860518309e-07,-0.014842645689720713,1.057240558877126e-06,-0.01808369167708168
352,0.0353,722.718,7.52543e-05,5.34975e-05,-0.00100376,0.00148421,0.0074958,0.0346912,-0.0149968,-0.0183022,-9.29291e-07,7.5749e-07,1.0597e-06,0.0310988,0.035299958805485865,-9.292905681634878e-07,7.574902869400546e-07,-0.014884908033686806,1.059700561523158e-06,-0.01813573186234574
353,0.0354,723.05,7.52444e-05,5.34968e-05,-0.000998398,0.00147941,0.00749279,0.0347878,-0.0150398,-0.0183552,-9.30768e-07,7.58561e-07,1.06215e-06,0.0311934,0.035399973612143976,-9.307675667979964e-07,7.585612877836212e-07,-0.014927267071915495,1.0621505641683626e-06,-0.018187769289553013
354,0.0355,723.381,7.52343e-05,5.34958e-05,-0.000993051,0.00147462,0.00748978,0.0348844,-0.0150827,-0.0184082,-9.32242e-07,7.59629e-07,1.06461e-06,0.0312881,0.035499998080698925,-9.322415654988703e-07,7.596292885825306e-07,-0.014969525785702209,1.06461056659235e-06,-0.01823980395884972
355,0.0356,723.711,7.52239e-05,5.34945e-05,-0.000987721,0.00146984,0.00748678,0.034981,-0.0151256,-0.0184612,-9.33713e-07,7.60694e-07,1.06706e-06,0.0313827,0.03560003221208419,-9.337125640440647e-07,7.60694289336783e-07,-0.01501178268662906,1.0670605692375545e-06,-0.018291835870382078
356,0.0357,724.04,7.52133e-05,5.34931e-05,-0.000982409,0.00146508,0.00748378,0.0350775,-0.0151686,-0.0185142,-9.3518e-07,7.61757e-07,1.06951e-06,0.0314773,0.03569997243723111,-9.351795626777459e-07,7.617572901352787e-07,-0.015054136269364915,1.0695105718827591e-06,-0.01834386502429619
357,0.0358,724.369,7.52023e-05,5.34913e-05,-0.000977113,0.00146034,0.00748079,0.0351741,-0.0152115,-0.0185672,-9.36644e-07,7.62817e-07,1.07196e-06,0.0315719,0.03580002588707232,-9.366435613777924e-07,7.628172908891173e-07,-0.015096389540579902,1.0719605745279637e-06,-0.018395891420738275
358,0.0359,724.697,7.51912e-05,5.34893e-05,-0.000971835,0.00145562,0.00747781,0.0352706,-0.0152544,-0.0186202,-9.38104e-07,7.63874e-07,1.0744e-06,0.0316666,0.035899985412539914,-9.381035599442811e-07,7.638742918203434e-07,-0.015138640999168285,1.0744005771723408e-06,-0.018447915059854325
359,0.036,725.024,7.51798e-05,5.34871e-05,-0.000966574,0.0014509,0.00747483,0.0353671,-0.0152974,-0.0186731,-9.39561e-07,7.64928e-07,1.07685e-06,0.0317612,0.035999954584567284,-9.395605585771349e-07,7.649282924848677e-07,-0.015180989127114075,1.0768505798175454e-06,-0.018499837791779328
360,0.0361,725.351,7.51681e-05,5.34847e-05,-0.000961329,0.00144621,0.00747186,0.0354637,-0.0153403,-0.0187261,-9.41015e-07,7.6598e-07,1.07929e-06,0.0318558,0.0361000370140836,-9.41014557276354e-07,7.659802934156801e-07,-0.015223236956458108,1.0792905824619226e-06,-0.018551855921883686
361,0.0362,725.676,7.51562e-05,5.3482e-05,-0.000956101,0.00144153,0.00746889,0.0355602,-0.0153832,-0.0187791,-9.42465e-07,7.67028e-07,1.08173e-06,0.0319504,0.03620002549202184,-9.424645558420153e-07,7.670282942129347e-07,-0.015265482973409128,1.0817305851062997e-06,-0.018603871295100327
362,0.0363,726.001,7.5144e-05,5.34791e-05,-0.00095089,0.00143686,0.00746593,0.0356567,-0.0154261,-0.018832,-9.43912e-07,7.68075e-07,1.08417e-06,0.032045,0.03630002361931384,-9.439115544740417e-07,7.680752949212888e-07,-0.01530772717804485,1.0841705877506769e-06,-0.01865578577715865
363,0.0364,726.325,7.51316e-05,5.3476e-05,-0.000945695,0.00143221,0.00746298,0.0357532,-0.015469,-0.018885,-9.45356e-07,7.69118e-07,1.0866e-06,0.0321396,0.03640003139689085,-9.453555531724334e-07,7.691182957181297e-07,-0.0153499695704431,1.0866005903942266e-06,-0.01870779564223879
364,0.0365,726.648,7.5119e-05,5.34726e-05,-0.000940517,0.00142758,0.00746003,0.0358497,-0.0155119,-0.018938,-9.46796e-07,7.70159e-07,1.08904e-06,0.0322341,0.03650004882568392,-9.467955517372673e-07,7.701592965592141e-07,-0.015392210150681707,1.0890405930386038e-06,-0.018759802750869192
365,0.0366,726.971,7.51061e-05,5.3469e-05,-0.000935355,0.00142296,0.00745709,0.0359461,-0.0155548,-0.0189909,-9.48233e-07,7.71197e-07,1.09147e-06,0.0323287,0.03659997224662237,-9.482325504794886e-07,7.711972973556414e-07,-0.015434448918838162,1.0914705956821535e-06,-0.018811708984371678
366,0.0367,727.292,7.5093e-05,5.34652e-05,-0.000930209,0.00141836,0.00745416,0.0360426,-0.0155977,-0.0190439,-9.49667e-07,7.72232e-07,1.0939e-06,0.0324233,0.03670000897063841,-9.496665490660305e-07,7.722322981074115e-07,-0.015476685874990292,1.0939005983257033e-06,-0.01886371058574099
367,0.0368,727.613,7.50797e-05,5.34612e-05,-0.000925079,0.00141377,0.00745123,0.036139,-0.0156406,-0.0190968,-9.51097e-07,7.73265e-07,1.09633e-06,0.0325178,0.0367999516686639,-9.510965477410593e-07,7.73265298903425e-07,-0.015518921019215925,1.096330600969253e-06,-0.018915611322664394
368,0.0369,727.933,7.50661e-05,5.3457e-05,-0.000919965,0.00140919,0.0074483,0.0362355,-0.0156835,-0.0191497,-9.52524e-07,7.74295e-07,1.09876e-06,0.0326124,0.03690000769162527,-9.52523546371431e-07,7.74295299876826e-07,-0.015561154351592776,1.0987606036128028e-06,-0.018967509314111397
369,0.037,728.253,7.50524e-05,5.34526e-05,-0.000914867,0.00140463,0.00744539,0.0363319,-0.0157264,-0.0192027,-9.53948e-07,7.75322e-07,1.10118e-06,0.032707,0.03699996967045682,-9.539475449571455e-07,7.753223005835252e-07,-0.01560338587219856,1.1011806062555252e-06,-0.019019502658282006
370,0.0371,728.572,7.50384e-05,5.3448e-05,-0.000909785,0.00140008,0.00744247,0.0364284,-0.0157693,-0.0192556,-9.55369e-07,7.76347e-07,1.10361e-06,0.0328015,0.03710004499608677,-9.553685436092252e-07,7.763473013344679e-07,-0.015645615581110883,1.103610608899075e-06,-0.019071395154022786
371,0.0372,728.89,7.50242e-05,5.34431e-05,-0.000904719,0.00139555,0.00743957,0.0365248,-0.0158121,-0.0193085,-9.56786e-07,7.77369e-07,1.10603e-06,0.032896,0.03720002625944385,-9.567855422387694e-07,7.773693020407535e-07,-0.01568774504718695,1.1060306115417973e-06,-0.019123284904723037
372,0.0373,729.207,7.50098e-05,5.34381e-05,-0.000899668,0.00139104,0.00743667,0.0366212,-0.015855,-0.0193614,-9.58201e-07,7.78388e-07,1.10845e-06,0.0329906,0.037300017161459254,-9.582005409125571e-07,7.783883029244265e-07,-0.01572997113716834,1.1084506144065642e-06,-0.0191751719105282
373,0.0374,729.523,7.49951e-05,5.34329e-05,-0.000894633,0.00138653,0.00743377,0.0367176,-0.0158979,-0.0194144,-9.59612e-07,7.79405e-07,1.11086e-06,0.0330851,0.03740001770306223,-9.596115395638094e-07,7.794053036302984e-07,-0.015772195415689305,1.1108606170484592e-06,-0.01922715424887278
374,0.0375,729.839,7.49803e-05,5.34275e-05,-0.000889614,0.00138204,0.00743088,0.036814,-0.0159407,-0.0194673,-9.61019e-07,7.80419e-07,1.11328e-06,0.0331796,0.03750002788518225,-9.610185381925263e-07,7.804193045135577e-07,-0.01581431946426448,1.1132806196911815e-06,-0.01927903576013501
375,0.0376,730.154,7.49653e-05,5.34219e-05,-0.000884609,0.00137757,0.007428,0.0369104,-0.0159836,-0.0195202,-9.62424e-07,7.81431e-07,1.11569e-06,0.0332742,0.03760004770874836,-9.624235368654865e-07,7.814313052190158e-07,-0.015856540124319807,1.1156906223330765e-06,-0.019330914526937804
376,0.0377,730.468,7.49501e-05,5.34161e-05,-0.00087962,0.00137311,0.00742513,0.0370067,-0.0160265,-0.0195731,-9.63825e-07,7.8244e-07,1.11811e-06,0.0333687,0.03769997340468767,-9.638245355159114e-07,7.824403061018614e-07,-0.015898758973147742,1.1181106249757988e-06,-0.019382790549426487
377,0.0378,730.782,7.49346e-05,5.34101e-05,-0.000874647,0.00136866,0.00742225,0.0371031,-0.0160693,-0.019626,-9.65224e-07,7.83447e-07,1.12052e-06,0.0334632,0.03780001250393106,-9.652235342105797e-07,7.834473068069059e-07,-0.01594087760491847,1.1205206278397384e-06,-0.019434663827746057
378,0.0379,731.095,7.4919e-05,5.34039e-05,-0.000869688,0.00136423,0.00741939,0.0371994,-0.0161122,-0.0196789,-9.66619e-07,7.84451e-07,1.12293e-06,0.0335577,0.037899957457407485,-9.666185327716903e-07,7.844513076893378e-07,-0.01598309283574606,1.1229306304816333e-06,-0.01948653436204184
379,0.038,731.407,7.49032e-05,5.33976e-05,-0.000864744,0.00135981,0.00741653,0.0372958,-0.016155,-0.0197318,-9.68011e-07,7.85452e-07,1.12533e-06,0.0336522,0.03800001583604273,-9.680105315101883e-07,7.854523085271126e-07,-0.016025207858104795,1.1253306331227009e-06,-0.019538402152458945
380,0.0381,731.719,7.48872e-05,5.3391e-05,-0.000859816,0.00135541,0.00741367,0.0373921,-0.0161979,-0.0197847,-9.69399e-07,7.86451e-07,1.12774e-06,0.0337467,0.038099980050767535,-9.693985301151287e-07,7.864513091870862e-07,-0.016067419471242128,1.1277406359866404e-06,-0.019590267199142475
381,0.0382,732.029,7.4871e-05,5.33843e-05,-0.000854902,0.00135102,0.00741082,0.0374884,-0.0162407,-0.0198376,-9.70785e-07,7.87447e-07,1.13014e-06,0.0338412,0.03819995389250952,-9.707845287643124e-07,7.874473100244472e-07,-0.01610953088449807,1.130140638627708e-06,-0.01964212950223765
382,0.0383,732.339,7.48547e-05,5.33774e-05,-0.000850003,0.00134664,0.00740798,0.0375848,-0.0162836,-0.0198904,-9.72168e-07,7.88441e-07,1.13254e-06,0.0339356,0.03830004119219521,-9.721675274798613e-07,7.884413109060517e-07,-0.016151738880255118,1.1325406412687755e-06,-0.019693891031283495
383,0.0384,732.649,7.48381e-05,5.33704e-05,-0.000845118,0.00134228,0.00740514,0.0376811,-0.0163264,-0.0199433,-9.73547e-07,7.89432e-07,1.13494e-06,0.0340301,0.038400034300752894,-9.735465260618525e-07,7.894323115209545e-07,-0.016193846684717572,1.1349406441318877e-06,-0.019745747852823015
384,0.0385,732.957,7.48214e-05,5.33631e-05,-0.000840249,0.00133793,0.00740231,0.0377774,-0.0163692,-0.0199962,-9.74924e-07,7.90421e-07,1.13734e-06,0.0341246,0.038500037039110646,-9.749235247991095e-07,7.904213124021453e-07,-0.016235952687004618,1.1373406467729552e-06,-0.019797601931209052
385,0.0386,733.265,7.48045e-05,5.33557e-05,-0.000835393,0.00133359,0.00739948,0.0378737,-0.016412,-0.020049,-9.76297e-07,7.91407e-07,1.13973e-06,0.034219,0.038600049408195725,-9.762965234028087e-07,7.91407313238679e-07,-0.016278056887193304,1.1397306494131954e-06,-0.019849355251527423
386,0.0387,733.573,7.47874e-05,5.33482e-05,-0.000830553,0.00132926,0.00739666,0.0379699,-0.0164549,-0.0201019,-9.77667e-07,7.92391e-07,1.14213e-06,0.0343135,0.0386999675389339,-9.77666522072873e-07,7.923913138974115e-07,-0.016320257653339998,1.1421306522763075e-06,-0.01990120384922711
387,0.0388,733.879,7.47701e-05,5.33405e-05,-0.000825726,0.00132495,0.00739384,0.0380662,-0.0164977,-0.0201548,-9.79034e-07,7.93372e-07,1.14452e-06,0.0344079,0.038799999162253185,-9.790335206982803e-07,7.933723147335314e-07,-0.01636235824535326,1.1445206549165476e-06,-0.019953049704208525
388,0.0389,734.185,7.47527e-05,5.33326e-05,-0.000820914,0.00132066,0.00739103,0.0381625,-0.0165405,-0.0202076,-9.80398e-07,7.94351e-07,1.14691e-06,0.0345024,0.038900040419081794,-9.803975193900527e-07,7.943513153918502e-07,-0.016404457035499864,1.1469106577788324e-06,-0.020004794817101157
389,0.039,734.49,7.47351e-05,5.33245e-05,-0.000816116,0.00131637,0.00738823,0.0382587,-0.0165833,-0.0202605,-9.81759e-07,7.95328e-07,1.1493e-06,0.0345968,0.03899998741034327,-9.81758518037168e-07,7.953283163164571e-07,-0.016446554023856752,1.1493006604190725e-06,-0.020056635192265304
390,0.0391,734.795,7.47174e-05,5.33163e-05,-0.000811333,0.0013121,0.00738542,0.038355,-0.0166261,-0.0203133,-9.83117e-07,7.96301e-07,1.15168e-06,0.0346912,0.03910004792696742,-9.831165167506484e-07,7.963013171075062e-07,-0.016488649210501083,1.1516806632805299e-06,-0.020108374835988596
391,0.0392,735.099,7.46995e-05,5.3308e-05,-0.000806563,0.00130784,0.00738263,0.0384512,-0.0166689,-0.0203662,-9.84472e-07,7.97273e-07,1.15407e-06,0.0347857,0.03920001415987673,-9.844715154194716e-07,7.972733178096547e-07,-0.016530742595510017,1.15407066592077e-06,-0.02016020973191468
392,0.0393,735.402,7.46814e-05,5.32994e-05,-0.000801807,0.0013036,0.00737984,0.0385474,-0.0167117,-0.020419,-9.85824e-07,7.98242e-07,1.15645e-06,0.0348801,0.039299990010000174,-9.858235140436378e-07,7.982423186891907e-07,-0.016572834178960605,1.1564506687822274e-06,-0.020211943907046614
393,0.0394,735.704,7.46632e-05,5.32908e-05,-0.000797065,0.00129936,0.00737706,0.0386436,-0.0167545,-0.0204718,-9.87173e-07,7.99208e-07,1.15883e-06,0.0349745,0.039399975478263016,-9.87172512734169e-07,7.99208319302025e-07,-0.016614923960930006,1.15883067142164e-06,-0.020263675350686183
394,0.0395,736.006,7.46448e-05,5.3282e-05,-0.000792337,0.00129514,0.00737428,0.0387398,-0.0167973,-0.0205246,-9.88519e-07,8.00173e-07,1.16121e-06,0.0350689,0.039499970565590514,-9.885185113800432e-07,8.001733200480032e-07,-0.01665701194149527,1.1612106742830974e-06,-0.020315404062977604
395,0.0396,736.308,7.46262e-05,5.3273e-05,-0.000787623,0.00129094,0.0073715,0.038836,-0.0168401,-0.0205775,-9.89862e-07,8.01134e-07,1.16359e-06,0.0351633,0.03959997527290837,-9.898615100922825e-07,8.011343208824684e-07,-0.016699098120733558,1.1635906769225102e-06,-0.02036722800734725
396,0.0397,736.608,7.46076e-05,5.32639e-05,-0.000782922,0.00128674,0.00736873,0.0389322,-0.0168829,-0.0206303,-9.91202e-07,8.02094e-07,1.16597e-06,0.0352577,0.03969998960114163,-9.912015087598647e-07,8.02094321628033e-07,-0.016741182498721807,1.1659706797839675e-06,-0.020418951252202833
397,0.0398,736.908,7.45887e-05,5.32547e-05,-0.000778235,0.00128256,0.00736597,0.0390284,-0.0169257,-0.0206831,-9.92539e-07,8.03051e-07,1.16834e-06,0.0353521,0.03980001355121621,-9.925385073827897e-07,8.03051322550985e-07,-0.01678326507553729,1.1683406824225528e-06,-0.020470671766143145
398,0.0399,737.207,7.45697e-05,5.32453e-05,-0.000773562,0.00127839,0.00736321,0.0391246,-0.0169685,-0.0207359,-9.93874e-07,8.04005e-07,1.17072e-06,0.0354465,0.03990004712405737,-9.938735061609805e-07,8.040053232072353e-07,-0.016825345851257056,1.1707206852840102e-06,-0.020522389549312403
399,0.04,737.506,7.45506e-05,5.32357e-05,-0.000768902,0.00127423,0.00736045,0.0392207,-0.0170112,-0.0207887,-9.95205e-07,8.04957e-07,1.17309e-06,0.0355408,0.039999986320587544,-9.952045048056135e-07,8.04957323907729e-07,-0.016867326512695735,1.1730906881446401e-06,-0.020574104601854715
400,0.0401,737.804,7.45313e-05,5.32261e-05,-0.000764255,0.00127009,0.00735771,0.0393169,-0.017054,-0.0208415,-9.96533e-07,8.05907e-07,1.17546e-06,0.0356352,0.040100039131734544,-9.965325035166117e-07,8.059073246524662e-07,-0.01690940369066296,1.1754606907832255e-06,-0.02062581692391441
401,0.0402,738.101,7.45119e-05,5.32162e-05,-0.000759622,0.00126595,0.00735496,0.039413,-0.0170968,-0.0208943,-9.97858e-07,8.06854e-07,1.17782e-06,0.0357296,0.040199997548420185,-9.978575021829528e-07,8.068543255745908e-07,-0.016951479067765507,1.177820693643028e-06,-0.02067752651563559
402,0.0403,738.398,7.44924e-05,5.32063e-05,-0.000755002,0.00126183,0.00735222,0.0395091,-0.0171395,-0.0209471,-9.99181e-07,8.07799e-07,1.18019e-06,0.0358239,0.04029996557157123,-9.99180500782515e-07,8.077993263189143e-07,-0.016993454343430803,1.180190696503658e-06,-0.02072923337716248
403,0.0404,738.694,7.44727e-05,5.31962e-05,-0.000750395,0.00125772,0.00734949,0.0396053,-0.0171823,-0.0209999,-1.0005e-06,8.08742e-07,1.18255e-06,0.0359183,0.04040004724211044,-1.000499499470564e-06,8.087423271074812e-07,-0.01703552612324244,1.1825506991414159e-06,-0.020780937508639075
404,0.0405,738.989,7.44528e-05,5.3186e-05,-0.000745801,0.00125363,0.00734676,0.0397014,-0.0172251,-0.0210527,-1.00182e-06,8.09682e-07,1.18491e-06,0.0360126,0.040500034490960735,-1.0018194981364914e-06,8.096823278513909e-07,-0.017077596102420323,1.1849107020012184e-06,-0.02083263891020959
405,0.0406,739.284,7.44329e-05,5.31757e-05,-0.000741221,0.00124954,0.00734404,0.0397975,-0.0172678,-0.0211055,-1.00313e-06,8.1062e-07,1.18728e-06,0.036107,0.04060003134904733,-1.0031294969126137e-06,8.106203286395441e-07,-0.01711956599300324,1.1872807048618483e-06,-0.02088433758201813
406,0.0407,739.578,7.44128e-05,5.31652e-05,-0.000736653,0.00124547,0.00734132,0.0398936,-0.0173106,-0.0211582,-1.00444e-06,8.11556e-07,1.18963e-06,0.0362013,0.0407000378172937,-1.0044394955777136e-06,8.115563292498962e-07,-0.017161632375351732,1.1896307077208235e-06,-0.020935935617807377
407,0.0408,739.872,7.43926e-05,5.31546e-05,-0.000732098,0.00124141,0.0073386,0.0399896,-0.0173533,-0.021211,-1.00575e-06,8.1249e-07,1.19199e-06,0.0362956,0.04079994981662338,-1.0057494942428136e-06,8.124903301265363e-07,-0.017203598677662413,1.1919907103585814e-06,-0.020987628835693828
408,0.0409,740.165,7.43722e-05,5.31439e-05,-0.000727556,0.00123736,0.0073359,0.0400857,-0.0173961,-0.0212638,-1.00705e-06,8.13421e-07,1.19435e-06,0.03639,0.04089997549795776,-1.0070494929070861e-06,8.134213307364746e-07,-0.017245661463488937,1.194350713218384e-06,-0.021039319324250405
409,0.041,740.457,7.43517e-05,5.31331e-05,-0.000723026,0.00123332,0.00733319,0.0401818,-0.0174388,-0.0213165,-1.00836e-06,8.14349e-07,1.1967e-06,0.0364843,0.04100001079222215,-1.008359491572186e-06,8.143493315238004e-07,-0.017287624177834138,1.196700716077359e-06,-0.021090909192717056
410,0.0411,740.749,7.43311e-05,5.31221e-05,-0.00071851,0.0012293,0.00733049,0.0402778,-0.0174815,-0.0213693,-1.00966e-06,8.15276e-07,1.19905e-06,0.0365786,0.041099951590339634,-1.009659490347481e-06,8.152763324442702e-07,-0.017329585100409606,1.1990507189363342e-06,-0.02114259422821474
411,0.0412,741.04,7.43104e-05,5.3111e-05,-0.000714006,0.00122528,0.0073278,0.0403739,-0.0175243,-0.0214221,-1.01095e-06,8.162e-07,1.2014e-06,0.0366729,0.041200006103229825,-1.010949489010926e-06,8.162003330980383e-07,-0.0173716424941327,1.2014007215732647e-06,-0.021194276534814538
412,0.0413,741.33,7.42896e-05,5.30998e-05,-0.000709514,0.00122128,0.00732511,0.0404699,-0.017567,-0.0214748,-1.01225e-06,8.17122e-07,1.20375e-06,0.0367672,0.04129996610181896,-1.0122494876751986e-06,8.171223337960498e-07,-0.017413599829202764,1.2037507244322398e-06,-0.021245858237251447
413,0.0414,741.62,7.42686e-05,5.30885e-05,-0.000705035,0.00121729,0.00732242,0.040566,-0.0176097,-0.0215276,-1.01354e-06,8.18041e-07,1.2061e-06,0.0368615,0.041400039837027336,-1.0135394863386438e-06,8.180413346714488e-07,-0.0174555553727328,1.206100727291215e-06,-0.02129753509165555
414,0.0415,741.909,7.42475e-05,5.30771e-05,-0.000700569,0.00121331,0.00731974,0.040662,-0.0176524,-0.0215803,-1.01483e-06,8.18959e-07,1.20844e-06,0.0369558,0.041500019039776515,-1.0148294851131112e-06,8.189593354579472e-07,-0.017497509124799415,1.2084407301493627e-06,-0.02134911135250972
415,0.0416,742.198,7.42263e-05,5.30655e-05,-0.000696115,0.00120934,0.00731707,0.040758,-0.0176952,-0.021633,-1.01611e-06,8.19874e-07,1.21079e-06,0.03705,0.04160000784099016,-1.016109483775729e-06,8.198743361997884e-07,-0.017539559331527954,1.2107907330083378e-06,-0.02140068489536673
416,0.0417,742.486,7.4205e-05,5.30539e-05,-0.000691673,0.00120538,0.0073144,0.040854,-0.0177379,-0.0216858,-1.01739e-06,8.20787e-07,1.21313e-06,0.0371443,0.041700006241589316,-1.0173894824383467e-06,8.207873367638285e-07,-0.01758150949670212,1.2131307358664856e-06,-0.021452353575139083
417,0.0418,742.773,7.41836e-05,5.30421e-05,-0.000687243,0.00120144,0.00731173,0.04095,-0.0177806,-0.0217385,-1.01867e-06,8.21697e-07,1.21547e-06,0.0372386,0.04180001424249569,-1.0186694811009644e-06,8.216973375052561e-07,-0.017623457870642456,1.2154707387246333e-06,-0.021503921677274218
418,0.0419,743.06,7.41621e-05,5.30302e-05,-0.000682826,0.0011975,0.00730907,0.041046,-0.0178233,-0.0217912,-1.01995e-06,8.22606e-07,1.21781e-06,0.0373328,0.04190003184463098,-1.0199494798746045e-06,8.226063383798277e-07,-0.01766540445342546,1.217810741582781e-06,-0.02155548706184207
419,0.042,743.346,7.41404e-05,5.30183e-05,-0.00067842,0.00119358,0.00730641,0.0411419,-0.017866,-0.0218439,-1.02122e-06,8.23512e-07,1.22014e-06,0.0374271,0.0419999548489165,-1.0212194785363948e-06,8.235123389876975e-07,-0.017707349245127624,1.2201407444401013e-06,-0.02160704972898564
420,0.0421,743.632,7.41187e-05,5.30062e-05,-0.000674027,0.00118967,0.00730376,0.0412379,-0.0179087,-0.0218967,-1.0225e-06,8.24416e-07,1.22248e-06,0.0375213,0.04209999164627143,-1.0224994771990126e-06,8.244163398618554e-07,-0.017749292245825443,1.222480747298249e-06,-0.02165870751298249
421,0.0422,743.917,7.40968e-05,5.2994e-05,-0.000669646,0.00118577,0.00730111,0.0413339,-0.0179514,-0.0219494,-1.02377e-06,8.25317e-07,1.22481e-06,0.0376156,0.04220003804761996,-1.0237694759718252e-06,8.253173404693115e-07,-0.0177912334555953,1.2248107501555694e-06,-0.02171026474055171
422,0.0423,744.201,7.40748e-05,5.29817e-05,-0.000665276,0.00118188,0.00729847,0.0414298,-0.0179941,-0.0220021,-1.02503e-06,8.26217e-07,1.22714e-06,0.0377098,0.042299989823879613,-1.0250294746327882e-06,8.262173412099116e-07,-0.017833172874513803,1.2271407530128897e-06,-0.021761819251126524
423,0.0424,744.485,7.40528e-05,5.29693e-05,-0.000660919,0.001178,0.00729583,0.0415257,-0.0180368,-0.0220548,-1.02629e-06,8.27114e-07,1.22947e-06,0.037804,0.042399951185974505,-1.0262894734047734e-06,8.271143421278992e-07,-0.017875110502657332,1.22947075587021e-06,-0.02181337104485026
424,0.0425,744.769,7.40306e-05,5.29567e-05,-0.000656573,0.00117413,0.0072932,0.0416217,-0.0180794,-0.0221075,-1.02756e-06,8.28009e-07,1.2318e-06,0.0378982,0.04250002638482098,-1.0275594720665637e-06,8.280093428680857e-07,-0.017916948131802113,1.2318007587275304e-06,-0.021864920121866138
425,0.0426,745.051,7.40083e-05,5.29441e-05,-0.000652239,0.00117027,0.00729057,0.0417176,-0.0181221,-0.0221602,-1.02881e-06,8.28902e-07,1.23413e-06,0.0379925,0.042600006931341916,-1.0288094707266993e-06,8.28902343430471e-07,-0.017958882182818492,1.2341307615848507e-06,-0.021916466482317154
426,0.0427,745.334,7.3986e-05,5.29314e-05,-0.000647917,0.00116642,0.00728794,0.0418135,-0.0181648,-0.0222128,-1.03007e-06,8.29793e-07,1.23645e-06,0.0380867,0.042699997066456996,-1.0300694694986845e-06,8.297933442591443e-07,-0.01800081444328916,1.2364507644413436e-06,-0.02196791232314277
427,0.0428,745.615,7.39635e-05,5.29186e-05,-0.000643606,0.00116259,0.00728532,0.0419094,-0.0182075,-0.0222655,-1.03132e-06,8.30681e-07,1.23878e-06,0.0381809,0.042799996791085926,-1.03131946815882e-06,8.306813450431605e-07,-0.018042744913290498,1.238780767298664e-06,-0.022019453256047816
428,0.0429,745.896,7.39409e-05,5.29057e-05,-0.000639307,0.00115876,0.00728271,0.0420053,-0.0182501,-0.0223182,-1.03257e-06,8.31568e-07,1.2411e-06,0.0382751,0.04290000610614819,-1.0325694669299779e-06,8.315683457382761e-07,-0.018084575401361547,1.2411007701551569e-06,-0.022070991472817325
429,0.043,746.177,7.39183e-05,5.28927e-05,-0.000635019,0.00115495,0.0072801,0.0421012,-0.0182928,-0.0223709,-1.03382e-06,8.32452e-07,1.24342e-06,0.0383692,0.0430000250125635,-1.0338194655901134e-06,8.324523463887346e-07,-0.01812650229484636,1.2434207730116498e-06,-0.022122526973594292
430,0.0431,746.456,7.38955e-05,5.28796e-05,-0.000630743,0.00115114,0.00727749,0.042197,-0.0183355,-0.0224236,-1.03506e-06,8.33334e-07,1.24574e-06,0.0384634,0.04309994920125204,-1.0350594643604438e-06,8.333343473054811e-07,-0.01816842739809099,1.2457407758681427e-06,-0.022174059758521936
431,0.0432,746.736,7.38727e-05,5.28665e-05,-0.000626478,0.00114735,0.00727489,0.0422929,-0.0183781,-0.0224762,-1.0363e-06,8.34214e-07,1.24806e-06,0.0385576,0.04319998728312968,-1.036299463019752e-06,8.342143480444264e-07,-0.01821025253220221,1.2480607787246356e-06,-0.022225492050297557
432,0.0433,747.015,7.38497e-05,5.28532e-05,-0.000622225,0.00114356,0.00727229,0.0423888,-0.0184208,-0.0225289,-1.03754e-06,8.35092e-07,1.25037e-06,0.0386518,0.04330003495911949,-1.0375394617900824e-06,8.350923486055706e-07,-0.01825217405938806,1.2503707818023457e-06,-0.022277019409108645
433,0.0434,747.293,7.38267e-05,5.28398e-05,-0.000617983,0.00113979,0.00726969,0.0424846,-0.0184634,-0.0225815,-1.03878e-06,8.35968e-07,1.25269e-06,0.0387459,0.04339998789013766,-1.0387794604493905e-06,8.359683494330028e-07,-0.018293995625967452,1.2526907846588387e-06,-0.022328446285349024
434,0.0435,747.57,7.38036e-05,5.28264e-05,-0.000613752,0.00113603,0.00726711,0.0425804,-0.0185061,-0.0226342,-1.04001e-06,8.36841e-07,1.255e-06,0.0388401,0.04349995039710519,-1.0400094592188935e-06,8.368413502157779e-07,-0.01833591357739961,1.2550007875145042e-06,-0.022379968218614876
435,0.0436,747.848,7.37804e-05,5.28128e-05,-0.000609532,0.00113227,0.00726452,0.0426763,-0.0185487,-0.0226868,-1.04125e-06,8.37712e-07,1.25731e-06,0.0389342,0.04360002684093711,-1.0412494578782017e-06,8.377123508207518e-07,-0.018377731576751488,1.2573107903701697e-06,-0.022431389679890334
436,0.0437,748.124,7.37571e-05,5.27992e-05,-0.000605324,0.00112853,0.00726194,0.0427721,-0.0185914,-0.0227395,-1.04247e-06,8.38582e-07,1.25962e-06,0.0390284,0.04370000851255407,-1.0424694566468773e-06,8.385823515588697e-07,-0.01841964595273482,1.2596207932258352e-06,-0.022482906188182272
437,0.0438,748.4,7.37337e-05,5.27855e-05,-0.000601126,0.0011248,0.00725936,0.0428679,-0.018634,-0.0227921,-1.0437e-06,8.39449e-07,1.26192e-06,0.0391225,0.043799999762873965,-1.043699455305358e-06,8.394493522523305e-07,-0.018461460385163497,1.261920796302718e-06,-0.02253432223506291
438,0.0439,748.676,7.37103e-05,5.27717e-05,-0.00059694,0.00112108,0.00725679,0.0429637,-0.0186766,-0.0228448,-1.04492e-06,8.40314e-07,1.26423e-06,0.0392166,0.043900000592814514,-1.0449194540740336e-06,8.403143529900348e-07,-0.018503273036335366,1.2642307991583834e-06,-0.022585833318952142
439,0.044,748.95,7.36867e-05,5.27578e-05,-0.000592764,0.00111736,0.00725422,0.0430595,-0.0187193,-0.0228974,-1.04614e-06,8.41177e-07,1.26653e-06,0.0393108,0.04400001100329343,-1.0461394528427093e-06,8.411773537719824e-07,-0.01854518205181288,1.2665308020132215e-06,-0.022637243952008057
440,0.0441,749.225,7.36631e-05,5.27438e-05,-0.0005886,0.00111366,0.00725166,0.0431553,-0.0187619,-0.02295,-1.04736e-06,8.42038e-07,1.26884e-06,0.0394049,0.044100030995228634,-1.0473594515003626e-06,8.420383545981736e-07,-0.018586991136517628,1.268840804868887e-06,-0.02268865188093583
441,0.0442,749.499,7.36394e-05,5.27298e-05,-0.000584446,0.00110997,0.0072491,0.043251,-0.0188045,-0.0230027,-1.04858e-06,8.42897e-07,1.27114e-06,0.039499,0.0441999561495372,-1.0485794502690382e-06,8.428973552465635e-07,-0.018628798440193273,1.2711408079457698e-06,-0.022740154831866977
442,0.0443,749.772,7.36156e-05,5.27157e-05,-0.000580303,0.00110629,0.00724655,0.0433468,-0.0188471,-0.0230553,-1.04979e-06,8.43754e-07,1.27344e-06,0.0395931,0.04429999529713502,-1.0497894489258641e-06,8.437543559391969e-07,-0.018670603962915755,1.2734408108006079e-06,-0.022791557347824787
443,0.0444,750.045,7.35917e-05,5.27015e-05,-0.000576171,0.00110261,0.007244,0.0434426,-0.0188897,-0.0231079,-1.051e-06,8.44609e-07,1.27574e-06,0.0396872,0.044400044028942265,-1.0509994476937123e-06,8.446093566760737e-07,-0.018712407704760903,1.275740813655446e-06,-0.022842957160081445
444,0.0445,750.317,7.35678e-05,5.26872e-05,-0.000572049,0.00109895,0.00724145,0.0435383,-0.0189323,-0.0231605,-1.05221e-06,8.45461e-07,1.27803e-06,0.0397813,0.044499997895872,-1.0522094464615606e-06,8.454613573682934e-07,-0.018754209665804655,1.2780308167315013e-06,-0.02289435426877895
445,0.0446,750.589,7.35438e-05,5.26728e-05,-0.000567938,0.0010953,0.00723891,0.043634,-0.0189749,-0.0232131,-1.05342e-06,8.46312e-07,1.28033e-06,0.0398754,0.044599961328844584,-1.0534194451183865e-06,8.463123581936571e-07,-0.01879600984612273,1.2803308195863394e-06,-0.02294574867405974
446,0.0447,750.86,7.35197e-05,5.26584e-05,-0.000563838,0.00109166,0.00723637,0.0437298,-0.0190175,-0.0232657,-1.05462e-06,8.4716e-07,1.28262e-06,0.0399694,0.044700038798774155,-1.0546194438854073e-06,8.471603587523191e-07,-0.018837808245791066,1.2826208226623947e-06,-0.022997140376065817
447,0.0448,751.13,7.34956e-05,5.26439e-05,-0.000559748,0.00108802,0.00723383,0.0438255,-0.0190601,-0.0233183,-1.05582e-06,8.48007e-07,1.28491e-06,0.0400635,0.04480002137657735,-1.0558194426524281e-06,8.480073596661697e-07,-0.01887960486488549,1.2849108255164055e-06,-0.02304852937493962
448,0.0449,751.401,7.34713e-05,5.26293e-05,-0.000555669,0.0010844,0.0072313,0.0439212,-0.0191027,-0.0233709,-1.05702e-06,8.48851e-07,1.2872e-06,0.0401576,0.04490001352317097,-1.0570194413084266e-06,8.488513603133185e-07,-0.018921399703481834,1.2872008283704162e-06,-0.023099915670823035
449,0.045,751.67,7.3447e-05,5.26146e-05,-0.0005516,0.00108078,0.00722878,0.0440169,-0.0191453,-0.0234235,-1.05821e-06,8.49694e-07,1.28949e-06,0.0402516,0.04500001523947095,-1.05820944007462e-06,8.496943610936114e-07,-0.018963192761656034,1.2894908314464715e-06,-0.023151299263858394
450,0.0451,751.939,7.34226e-05,5.25999e-05,-0.000547541,0.00107718,0.00722626,0.0441126,-0.0191879,-0.0234761,-1.05941e-06,8.50534e-07,1.29178e-06,0.0403457,0.045100026526393,-1.0594094388416408e-06,8.505343616072025e-07,-0.019004984039483808,1.2917808343004822e-06,-0.023202680154187805
451,0.0452,752.208,7.33982e-05,5.25851e-05,-0.000543493,0.00107358,0.00722374,0.0442083,-0.0192305,-0.0235286,-1.0606e-06,8.51373e-07,1.29406e-06,0.0404397,0.0452000473848535,-1.0605994376078343e-06,8.513733624759823e-07,-0.019046773537041095,1.29406083737571e-06,-0.023253960667354523
452,0.0453,752.476,7.33737e-05,5.25702e-05,-0.000539456,0.00107,0.00722122,0.0443039,-0.0192731,-0.0235812,-1.06178e-06,8.52209e-07,1.29635e-06,0.0405338,0.045299973285765294,-1.061779436262178e-06,8.522093630780603e-07,-0.019088561254403724,1.2963508402297208e-06,-0.023305336157836143
453,0.0454,752.743,7.33491e-05,5.25553e-05,-0.000535428,0.00106642,0.00721871,0.0443996,-0.0193157,-0.0236338,-1.06297e-06,8.53044e-07,1.29863e-06,0.0406278,0.04540001328004628,-1.0629694350283714e-06,8.530443638132823e-07,-0.019130347191647523,1.2986308433049487e-06,-0.02335670894603803
454,0.0455,753.01,7.33245e-05,5.25403e-05,-0.000531411,0.00106285,0.00721621,0.0444952,-0.0193582,-0.0236863,-1.06415e-06,8.53876e-07,1.30091e-06,0.0407218,0.04549995829861153,-1.0641494337937374e-06,8.538763645038472e-07,-0.019172033266056543,1.300910846158132e-06,-0.02340798137290545
455,0.0456,753.277,7.32997e-05,5.25252e-05,-0.000527403,0.0010593,0.00721371,0.0445909,-0.0194008,-0.0237389,-1.06533e-06,8.54706e-07,1.30319e-06,0.0408158,0.04560001743237385,-1.0653294325591034e-06,8.547063652386555e-07,-0.01921381564746838,1.30319084923336e-06,-0.023459348762111087
456,0.0457,753.543,7.3275e-05,5.251e-05,-0.000523406,0.00105575,0.00721121,0.0446865,-0.0194434,-0.0237915,-1.06651e-06,8.55535e-07,1.30546e-06,0.0409098,0.04569998157225008,-1.0665094313244694e-06,8.555353658845632e-07,-0.01925559624898865,1.3054608520857158e-06,-0.023510713449462983
457,0.0458,753.808,7.32501e-05,5.24948e-05,-0.000519419,0.00105221,0.00720872,0.0447821,-0.0194859,-0.023844,-1.06769e-06,8.56361e-07,1.30774e-06,0.0410038,0.045799955269155035,-1.0676894299788131e-06,8.563613667078585e-07,-0.019297277000425828,1.3077408551609437e-06,-0.0235619777913062
458,0.0459,754.073,7.32252e-05,5.24795e-05,-0.000515442,0.00104868,0.00720623,0.0448778,-0.0195285,-0.0238966,-1.06886e-06,8.57186e-07,1.31002e-06,0.0410978,0.04590004311400131,-1.0688594287433517e-06,8.571863674422531e-07,-0.019339054046568216,1.310020858014127e-06,-0.023613337080513164
459,0.046,754.338,7.32003e-05,5.24642e-05,-0.000511475,0.00104516,0.00720374,0.0449734,-0.019571,-0.0239491,-1.07003e-06,8.58008e-07,1.31229e-06,0.0411918,0.04600003593770374,-1.0700294275078903e-06,8.580083681319906e-07,-0.019380731251124383,1.3122908610885275e-06,-0.023664596034757124
460,0.0461,754.602,7.31752e-05,5.24488e-05,-0.000507518,0.00104165,0.00720126,0.045069,-0.0196136,-0.0240016,-1.0712e-06,8.58829e-07,1.31456e-06,0.0412858,0.04610003832117715,-1.071199426272429e-06,8.588293687328274e-07,-0.019422504742191316,1.3145608639408835e-06,-0.02371585229797668
461,0.0462,754.865,7.31502e-05,5.24333e-05,-0.00050357,0.00103814,0.00719878,0.0451646,-0.0196561,-0.0240542,-1.07236e-06,8.59648e-07,1.31683e-06,0.0413798,0.04620005026533547,-1.0723594250361401e-06,8.596483695999524e-07,-0.01946417840016834,1.316830867015284e-06,-0.02376720349359751
462,0.0463,755.128,7.3125e-05,5.24178e-05,-0.000499633,0.00103465,0.00719631,0.0452601,-0.0196987,-0.0241067,-1.07353e-06,8.60464e-07,1.3191e-06,0.0414738,0.04629996714109064,-1.0735294238006787e-06,8.604643702003756e-07,-0.019505948336462464,1.3191008700896845e-06,-0.0238184543700668
463,0.0464,755.391,7.30998e-05,5.24022e-05,-0.000495705,0.00103116,0.00719384,0.0453557,-0.0197412,-0.0241592,-1.07469e-06,8.61279e-07,1.32136e-06,0.0415677,0.04639999819935792,-1.07468942256439e-06,8.612793709339428e-07,-0.019547618448162107,1.321360872941213e-06,-0.02386970255593568
464,0.0465,755.653,7.30746e-05,5.23865e-05,-0.000491787,0.00102769,0.00719137,0.0454513,-0.0197837,-0.0242117,-1.07585e-06,8.62092e-07,1.32363e-06,0.0416617,0.04650003882105125,-1.0758494213281011e-06,8.620923717117535e-07,-0.01958928678891947,1.3236308760156135e-06,-0.02392094805134548
465,0.0466,755.914,7.30492e-05,5.23708e-05,-0.000487879,0.00102422,0.00718891,0.0455468,-0.0198263,-0.0242643,-1.077e-06,8.62903e-07,1.32589e-06,0.0417556,0.04659998434708146,-1.076999420090985e-06,8.62903372311763e-07,-0.019631051395709864,1.3258908790891866e-06,-0.023972288459213398
466,0.0467,756.175,7.30239e-05,5.2355e-05,-0.00048398,0.00102076,0.00718645,0.0456424,-0.0198688,-0.0243168,-1.07816e-06,8.63712e-07,1.32816e-06,0.0418496,0.04670004408836448,-1.0781594187436738e-06,8.637123729560159e-07,-0.01967271619064237,1.3281608819415425e-06,-0.024023528569004693
467,0.0468,756.436,7.29984e-05,5.23392e-05,-0.000480091,0.00101731,0.00718399,0.0457379,-0.0199113,-0.0243693,-1.07931e-06,8.64519e-07,1.33042e-06,0.0419435,0.046800008715810026,-1.0793094175065576e-06,8.645193736445123e-07,-0.019714379214858746,1.3304208850151156e-06,-0.024074765988760793
468,0.0469,756.696,7.2973e-05,5.23233e-05,-0.000476212,0.00101387,0.00718154,0.0458334,-0.0199538,-0.0244218,-1.08046e-06,8.65324e-07,1.33268e-06,0.0420374,0.04689998289033315,-1.0804594162694414e-06,8.653243743772521e-07,-0.019756040468434155,1.3326808880886887e-06,-0.02412600071862292
469,0.047,756.955,7.29474e-05,5.23074e-05,-0.000472342,0.00101044,0.00717909,0.0459289,-0.0199964,-0.0244743,-1.0816e-06,8.66127e-07,1.33493e-06,0.0421314,0.046999966612846,-1.0815994150314978e-06,8.661273751542353e-07,-0.01979779797166914,1.3349308909393898e-06,-0.024177232758732403
470,0.0471,757.215,7.29219e-05,5.22914e-05,-0.000468481,0.00100702,0.00717665,0.0460244,-0.0200389,-0.0245268,-1.08275e-06,8.66928e-07,1.33719e-06,0.0422253,0.04709995988426008,-1.0827494137943816e-06,8.669283757534174e-07,-0.019839455680022766,1.3371908940129629e-06,-0.024228462109230353
471,0.0472,757.473,7.28962e-05,5.22753e-05,-0.00046463,0.0010036,0.00717421,0.0461199,-0.0200814,-0.0245793,-1.08389e-06,8.67728e-07,1.33944e-06,0.0423192,0.047199962705487764,-1.083889412556438e-06,8.677283764857435e-07,-0.019881111617961356,1.3394408970857086e-06,-0.02427968877025799
472,0.0473,757.731,7.28705e-05,5.22592e-05,-0.000460788,0.0010002,0.00717178,0.0462154,-0.0201239,-0.0246318,-1.08503e-06,8.68525e-07,1.3417e-06,0.0424131,0.04729997507744099,-1.0850294113184944e-06,8.685253771734125e-07,-0.019922765785560292,1.3417009001592817e-06,-0.024330912741956534
473,0.0474,757.989,7.28448e-05,5.2243e-05,-0.000456956,0.000996801,0.00716934,0.0463109,-0.0201664,-0.0246842,-1.08616e-06,8.69321e-07,1.34395e-06,0.042507,0.0473999970010317,-1.0861594100797234e-06,8.693213777721809e-07,-0.019964418182894628,1.3439509030099828e-06,-0.02438203646267567
474,0.0475,758.246,7.2819e-05,5.22268e-05,-0.000453133,0.000993412,0.00716691,0.0464064,-0.0202089,-0.0247367,-1.0873e-06,8.70114e-07,1.3462e-06,0.0426009,0.047500028477172274,-1.0872994088417798e-06,8.701143785483367e-07,-0.020006068810039856,1.3462009060827285e-06,-0.024433255061261372
475,0.0476,758.503,7.27932e-05,5.22106e-05,-0.000449319,0.000990032,0.00716449,0.0465018,-0.0202514,-0.0247892,-1.08843e-06,8.70906e-07,1.34845e-06,0.0426948,0.047599964746773304,-1.088429407714031e-06,8.70906379235592e-07,-0.02004771766707092,1.3484509091554742e-06,-0.024484470970941308
476,0.0477,758.759,7.27673e-05,5.21942e-05,-0.000445514,0.00098666,0.00716207,0.0465973,-0.0202939,-0.0248416,-1.08956e-06,8.71696e-07,1.3507e-06,0.0427886,0.047700015320745415,-1.08955940647526e-06,8.716963799670907e-07,-0.0200893647540632,1.3507009122282199e-06,-0.024535586645419993
477,0.0478,759.015,7.27414e-05,5.21779e-05,-0.000441719,0.000983297,0.00715965,0.0466927,-0.0203364,-0.0248941,-1.09069e-06,8.72484e-07,1.35294e-06,0.0428825,0.04779997067000141,-1.090689405236489e-06,8.724843805207882e-07,-0.02013101007109186,1.3529409153001382e-06,-0.024586797182832743
478,0.0479,759.27,7.27154e-05,5.21614e-05,-0.000437932,0.000979942,0.00715724,0.0467882,-0.0203788,-0.0249466,-1.09182e-06,8.73271e-07,1.35519e-06,0.0429764,0.047900040345451256,-1.091819403997718e-06,8.732713812076298e-07,-0.020172555635492695,1.3551909183728839e-06,-0.024638005031762944
479,0.048,759.525,7.26894e-05,5.2145e-05,-0.000434155,0.000976595,0.00715483,0.0468836,-0.0204213,-0.024999,-1.09294e-06,8.74055e-07,1.35743e-06,0.0430702,0.04800001477800486,-1.0929394027581196e-06,8.740553820718588e-07,-0.020214197416984048,1.3574309212227575e-06,-0.02468911266126761
480,0.0481,759.78,7.26633e-05,5.21285e-05,-0.000430387,0.000973257,0.00715242,0.046979,-0.0204638,-0.0250515,-1.09406e-06,8.74838e-07,1.35967e-06,0.0431641,0.04809999874857418,-1.0940594015185212e-06,8.748383826251427e-07,-0.020255837428737267,1.3596709242946758e-06,-0.02474031513877617
481,0.0482,760.034,7.26372e-05,5.21119e-05,-0.000426628,0.000969926,0.00715002,0.0470744,-0.0205063,-0.0251039,-1.09518e-06,8.75618e-07,1.36191e-06,0.0432579,0.04819999225806937,-1.0951794002789228e-06,8.75618383355814e-07,-0.020297475670827625,1.3619109273665941e-06,-0.024791417407371785
482,0.0483,760.287,7.26111e-05,5.20953e-05,-0.000422878,0.000966605,0.00714762,0.0471698,-0.0205487,-0.0251564,-1.09629e-06,8.76397e-07,1.36415e-06,0.0433517,0.04829999530740037,-1.096289399038497e-06,8.763973839975847e-07,-0.020339014177236714,1.3641509304385124e-06,-0.024842614514022032
483,0.0484,760.54,7.25849e-05,5.20786e-05,-0.000419136,0.000963291,0.00714522,0.0472652,-0.0205912,-0.0252088,-1.09741e-06,8.77174e-07,1.36639e-06,0.0434456,0.04840000789747756,-1.0974093977988986e-06,8.771743846835989e-07,-0.020380648884390395,1.3663909335104307e-06,-0.024893711422270814
484,0.0485,760.793,7.25586e-05,5.20619e-05,-0.000415404,0.000959985,0.00714283,0.0473606,-0.0206337,-0.0252612,-1.09852e-06,8.7795e-07,1.36862e-06,0.0435394,0.04850003002921066,-1.098519396669495e-06,8.779503855027571e-07,-0.02042228182210659,1.3686209365815216e-06,-0.024944805653111746
485,0.0486,761.045,7.25324e-05,5.20452e-05,-0.00041168,0.000956688,0.00714044,0.0474559,-0.0206761,-0.0253136,-1.09963e-06,8.78723e-07,1.37086e-06,0.0436332,0.048599956843509595,-1.0996293954290692e-06,8.787233860552135e-07,-0.02046381503684691,1.37086093965344e-06,-0.024995897206685158
486,0.0487,761.296,7.25061e-05,5.20284e-05,-0.000407966,0.000953398,0.00713806,0.0475513,-0.0207186,-0.0253661,-1.10074e-06,8.79495e-07,1.37309e-06,0.043727,0.04869999805128211,-1.1007393941886434e-06,8.79495386740814e-07,-0.020505444440076737,1.3730909427245308e-06,-0.025047083578427776
487,0.0488,761.548,7.24797e-05,5.20115e-05,-0.00040426,0.000950117,0.00713567,0.0476467,-0.020761,-0.0254185,-1.10184e-06,8.80264e-07,1.37532e-06,0.0438208,0.04880004880344124,-1.1018393929473902e-06,8.802643873817573e-07,-0.020546974128796913,1.3753209457956217e-06,-0.025098169772778234
488,0.0489,761.798,7.24533e-05,5.19946e-05,-0.000400563,0.000946844,0.0071333,0.047742,-0.0208035,-0.0254709,-1.10294e-06,8.81032e-07,1.37755e-06,0.0439146,0.0489000042108918,-1.1029393918171593e-06,8.810323881558446e-07,-0.020588599997840462,1.3775509488667126e-06,-0.02514925329028228
489,0.049,762.049,7.24269e-05,5.19777e-05,-0.000396874,0.000943578,0.00713092,0.0478373,-0.0208459,-0.0255233,-1.10404e-06,8.81798e-07,1.37978e-06,0.0440084,0.04899996914454641,-1.104039390575906e-06,8.817983887521308e-07,-0.0206301261608397,1.3797809519378035e-06,-0.02520033413108025
490,0.0491,762.299,7.24004e-05,5.19607e-05,-0.000393194,0.000940321,0.00712855,0.0479327,-0.0208883,-0.0255757,-1.10514e-06,8.82563e-07,1.382e-06,0.0441022,0.04910004851531302,-1.1051393893346528e-06,8.82563389481561e-07,-0.020671650563166888,1.382000955008067e-06,-0.025251412295312137
491,0.0492,762.548,7.23739e-05,5.19437e-05,-0.000389523,0.000937071,0.00712618,0.048028,-0.0209308,-0.0256281,-1.10624e-06,8.83325e-07,1.38423e-06,0.0441959,0.049200032514098435,-1.1062393880933996e-06,8.83325390166334e-07,-0.020713271133574573,1.3842309580791579e-06,-0.025302487783118388
492,0.0493,762.797,7.23474e-05,5.19267e-05,-0.00038586,0.00093383,0.00712382,0.0481233,-0.0209732,-0.0256805,-1.10733e-06,8.84086e-07,1.38645e-06,0.0442897,0.04930002604181283,-1.1073293869623413e-06,8.840863907622065e-07,-0.020754792010629686,1.3864509611494213e-06,-0.025353560594639224
493,0.0494,763.046,7.23208e-05,5.19096e-05,-0.000382206,0.000930596,0.00712146,0.0482186,-0.0210156,-0.0257329,-1.10842e-06,8.84845e-07,1.38868e-06,0.0443835,0.049400029099364584,-1.1084193857202607e-06,8.848453914023224e-07,-0.0207963111272369,1.3886809642205122e-06,-0.025404630730014865
494,0.0495,763.294,7.22942e-05,5.18924e-05,-0.000378561,0.00092737,0.0071191,0.0483139,-0.0210581,-0.0257853,-1.10951e-06,8.85603e-07,1.3909e-06,0.0444772,0.049500041687661867,-1.10950938447818e-06,8.856033921755824e-07,-0.020837926399683182,1.3909009672907757e-06,-0.025455698189385423
495,0.0496,763.541,7.22675e-05,5.18752e-05,-0.000374924,0.000924152,0.00711675,0.0484091,-0.0211005,-0.0258377,-1.1106e-06,8.86358e-07,1.39312e-06,0.044571,0.049599958847611925,-1.1105993832360994e-06,8.863583929041852e-07,-0.020879441991467074,1.3931209703610392e-06,-0.02550676297289134
496,0.0497,763.789,7.22408e-05,5.1858e-05,-0.000371295,0.000920941,0.0071144,0.0485044,-0.0211429,-0.02589,-1.11168e-06,8.87112e-07,1.39534e-06,0.0446647,0.0496999904901223,-1.1116793821042137e-06,8.871123935438874e-07,-0.02092095582302722,1.3953409734313027e-06,-0.025557727636450256
497,0.0498,764.035,7.22141e-05,5.18408e-05,-0.000367675,0.000917739,0.00711205,0.0485997,-0.0211853,-0.0259424,-1.11277e-06,8.87864e-07,1.39755e-06,0.0447584,0.04980003166610225,-1.112769380862133e-06,8.87864394227833e-07,-0.02096246789443823,1.3975509765007388e-06,-0.025608787073753136
498,0.0499,764.282,7.21874e-05,5.18235e-05,-0.000364063,0.000914543,0.00710971,0.0486949,-0.0212277,-0.0259948,-1.11385e-06,8.88614e-07,1.39977e-06,0.0448522,0.04989997738645768,-1.113849379619225e-06,8.886143947339775e-07,-0.02100397820577471,1.3997709795710023e-06,-0.025659843835611706
499,0.05,764.528,7.21606e-05,5.18061e-05,-0.000360459,0.000911356,0.00710737,0.0487902,-0.0212701,-0.0260472,-1.11493e-06,8.89362e-07,1.40198e-06,0.0449459,0.05000003762209704,-1.1149293784873393e-06,8.8936239550641e-07,-0.021045486757111265,1.401980982862483e-06,-0.025710897922165965
500,0.0501,764.773,7.21338e-05,5.17888e-05,-0.000356864,0.000908176,0.00710503,0.0488854,-0.0213125,-0.0260995,-1.116e-06,8.90109e-07,1.40419e-06,0.0450396,0.05010000238392576,-1.1159993772436039e-06,8.90109396189942e-07,-0.021086993548522504,1.404190985931919e-06,-0.025761851909746225
501,0.0502,765.018,7.21069e-05,5.17714e-05,-0.000353277,0.000905004,0.0071027,0.0489806,-0.0213549,-0.0261519,-1.11708e-06,8.90854e-07,1.40641e-06,0.0451333,0.05019997666285292,-1.1170793761117181e-06,8.908543969177174e-07,-0.021128498580083144,1.4064109890021825e-06,-0.02581290065121744
502,0.0503,765.263,7.208e-05,5.17539e-05,-0.000349698,0.000901839,0.00710037,0.0490758,-0.0213973,-0.0262042,-1.11815e-06,8.91597e-07,1.40862e-06,0.045227,0.050299960459784465,-1.1181493748679827e-06,8.915973974676916e-07,-0.021170001851867792,1.4086209920716186e-06,-0.025863849304194497
503,0.0504,765.507,7.20531e-05,5.17365e-05,-0.000346128,0.000898682,0.00709804,0.049171,-0.0214397,-0.0262566,-1.11922e-06,8.92339e-07,1.41082e-06,0.0453207,0.05039995377562656,-1.1192193736242473e-06,8.923393981508099e-07,-0.021211503363951056,1.4108209951402273e-06,-0.025914892701142223
504,0.0505,765.751,7.20262e-05,5.1719e-05,-0.000342565,0.000895532,0.00709572,0.0492662,-0.0214821,-0.0263089,-1.12028e-06,8.93078e-07,1.41303e-06,0.0454143,0.05049995661128559,-1.1202793724907067e-06,8.93078398789271e-07,-0.021253003116407432,1.413030998431708e-06,-0.02596583602007463
505,0.0506,765.995,7.19992e-05,5.17014e-05,-0.000339011,0.00089239,0.0070934,0.0493614,-0.0215245,-0.0263612,-1.12135e-06,8.93816e-07,1.41524e-06,0.045508,0.0505999689676675,-1.1213493712469713e-06,8.938163995608761e-07,-0.021294501109311637,1.415241001501144e-06,-0.026016776674741005
506,0.0507,766.238,7.19722e-05,5.16838e-05,-0.000335465,0.000889255,0.00709108,0.0494566,-0.0215668,-0.0264136,-1.12241e-06,8.94553e-07,1.41744e-06,0.0456017,0.05069999084567911,-1.1224093701134308e-06,8.94553400021536e-07,-0.021335899476333076,1.4174410045697527e-06,-0.026067812058504503
507,0.0508,766.48,7.19452e-05,5.16662e-05,-0.000331927,0.000886127,0.00708877,0.0495518,-0.0216092,-0.0264659,-1.12347e-06,8.95287e-07,1.41964e-06,0.0456953,0.050800022246226595,-1.123469368868868e-06,8.952874006595835e-07,-0.021377393954506108,1.4196410076383614e-06,-0.02611874737996356
508,0.0509,766.722,7.19182e-05,5.16486e-05,-0.000328397,0.000883007,0.00708646,0.0496469,-0.0216516,-0.0265182,-1.12453e-06,8.9602e-07,1.42184e-06,0.045789,0.05089995808021586,-1.1245293677353274e-06,8.960204014307749e-07,-0.021418886673350568,1.4218410107069701e-06,-0.026169680037575027
509,0.051,766.964,7.18911e-05,5.16309e-05,-0.000324874,0.000879894,0.00708415,0.0497421,-0.0216939,-0.0265705,-1.12559e-06,8.96752e-07,1.42404e-06,0.0458826,0.051000008518550466,-1.1255893664907646e-06,8.967524021130657e-07,-0.021460279778973912,1.4240410139976234e-06,-0.02622061003147813
510,0.0511,767.205,7.1864e-05,5.16132e-05,-0.00032136,0.000876789,0.00708185,0.0498372,-0.0217363,-0.0266229,-1.12664e-06,8.97481e-07,1.42624e-06,0.0459763,0.05109996337213851,-1.1266393653563966e-06,8.974814027506994e-07,-0.021501768983533953,1.426241017066232e-06,-0.02627163473465355
511,0.0512,767.446,7.18368e-05,5.15954e-05,-0.000317854,0.00087369,0.00707955,0.0499324,-0.0217787,-0.0266752,-1.1277e-06,8.98209e-07,1.42844e-06,0.0460699,0.051200032851883126,-1.1276993641118338e-06,8.982094032994326e-07,-0.02154325642898902,1.4284410201348408e-06,-0.02632255939646544
512,0.0513,767.687,7.18097e-05,5.15777e-05,-0.000314356,0.000870599,0.00707725,0.0500275,-0.021821,-0.0267275,-1.12875e-06,8.98935e-07,1.43064e-06,0.0461635,0.05130000672868995,-1.1287493629774659e-06,8.989354041144537e-07,-0.021584644273882958,1.430641023425494e-06,-0.026373481394987075
513,0.0514,767.927,7.17825e-05,5.15599e-05,-0.000310865,0.000867515,0.00707495,0.0501226,-0.0218634,-0.0267798,-1.12979e-06,8.99659e-07,1.43283e-06,0.0462572,0.0513999901134643,-1.1297893618422705e-06,8.996594047516737e-07,-0.02162612820550014,1.4328310264932753e-06,-0.0264244007303579
514,0.0515,768.167,7.17553e-05,5.1542e-05,-0.000307382,0.000864438,0.00707266,0.0502177,-0.0219057,-0.0268321,-1.13084e-06,9.00382e-07,1.43502e-06,0.0463508,0.051499983007111005,-1.1308393605968803e-06,9.003824052999931e-07,-0.021667512544992107,1.4350210295610566e-06,-0.026475317402717136
515,0.0516,768.406,7.17281e-05,5.15242e-05,-0.000303907,0.000861369,0.00707038,0.0503128,-0.0219481,-0.0268844,-1.13188e-06,9.01103e-07,1.43722e-06,0.0464444,0.05159998541053379,-1.131879359461685e-06,9.01103405892556e-07,-0.021708992963069162,1.4372210328517099e-06,-0.026526231412204004
516,0.0517,768.645,7.17008e-05,5.15063e-05,-0.00030044,0.000858306,0.00706809,0.0504079,-0.0219904,-0.0269367,-1.13293e-06,9.01823e-07,1.43941e-06,0.046538,0.05169999732463748,-1.1329293582162947e-06,9.018234066182629e-07,-0.021750373797456035,1.4394110359194912e-06,-0.02657714275895784
517,0.0518,768.883,7.16735e-05,5.14884e-05,-0.000296981,0.000855251,0.00706581,0.050503,-0.0220327,-0.0269889,-1.13397e-06,9.0254e-07,1.44159e-06,0.0466316,0.05180001875032647,-1.1339693570810994e-06,9.025404072993126e-07,-0.021791752881470616,1.441591038986445e-06,-0.026627954105918117
518,0.0519,769.121,7.16462e-05,5.14704e-05,-0.000293529,0.000852203,0.00706353,0.0505981,-0.0220751,-0.0270412,-1.135e-06,9.03257e-07,1.44378e-06,0.0467252,0.05190004968850537,-1.1349993558340543e-06,9.032574079803624e-07,-0.021833228031869045,1.443781042276271e-06,-0.026678860132714255
519,0.052,769.359,7.16189e-05,5.14524e-05,-0.000290085,0.000849161,0.00706126,0.0506931,-0.0221174,-0.0270935,-1.13604e-06,9.03971e-07,1.44597e-06,0.0468187,0.05199998494007496,-1.136039354698859e-06,9.03971408616755e-07,-0.02187460361122362,1.4459710453440522e-06,-0.026729763497194692
520,0.0521,769.596,7.15916e-05,5.14344e-05,-0.000286648,0.000846127,0.00705899,0.0507882,-0.0221597,-0.0271458,-1.13707e-06,9.04684e-07,1.44815e-06,0.0469123,0.05210003489594284,-1.1370693535628362e-06,9.04684409164247e-07,-0.02191597744042817,1.4481510486330507e-06,-0.02678066419949876
521,0.0522,769.833,7.15642e-05,5.14164e-05,-0.00028322,0.000843099,0.00705672,0.0508832,-0.022202,-0.027198,-1.13811e-06,9.05395e-07,1.45034e-06,0.0470059,0.05219998914700974,-1.1381093523166186e-06,9.05395409978027e-07,-0.021957349519556746,1.450341051700832e-06,-0.026831464922917214
522,0.0523,770.07,7.15368e-05,5.13983e-05,-0.000279798,0.000840079,0.00705445,0.0509782,-0.0222444,-0.0272503,-1.13913e-06,9.06104e-07,1.45252e-06,0.0470994,0.052299952894181434,-1.1391293511797684e-06,9.061044106140059e-07,-0.021998817648806623,1.4525210549898304e-06,-0.026882360306375808
523,0.0524,770.306,7.15094e-05,5.13802e-05,-0.000276385,0.000837065,0.00705219,0.0510733,-0.0222867,-0.0273025,-1.14016e-06,9.06812e-07,1.4547e-06,0.047193,0.052400031378358136,-1.1401593500437457e-06,9.068124111610842e-07,-0.022040186223868496,1.4547010580567843e-06,-0.026933155721395985
524,0.0525,770.542,7.1482e-05,5.13621e-05,-0.000272978,0.000834059,0.00704993,0.0511683,-0.022329,-0.0273548,-1.14119e-06,9.07519e-07,1.45688e-06,0.0472865,0.05250001413044458,-1.1411893487967006e-06,9.075194118413066e-07,-0.022081553049076774,1.4568810613457828e-06,-0.026984045786564992
525,0.0526,770.777,7.14545e-05,5.1344e-05,-0.00026958,0.000831059,0.00704767,0.0512633,-0.0223713,-0.027407,-1.14221e-06,9.08223e-07,1.45906e-06,0.04738,0.05260000638134388,-1.1422093476598505e-06,9.082234124768718e-07,-0.022122918124505286,1.4590610644127366e-06,-0.02703483589374156
526,0.0527,771.012,7.14271e-05,5.13258e-05,-0.000266188,0.000828066,0.00704542,0.0513583,-0.0224136,-0.0274593,-1.14323e-06,9.08926e-07,1.46123e-06,0.0474736,0.052700008131957965,-1.1432293465230003e-06,9.089264130235364e-07,-0.022164281450228085,1.4612310677009077e-06,-0.027085720641176536
527,0.0528,771.246,7.13996e-05,5.13076e-05,-0.000262804,0.00082508,0.00704317,0.0514533,-0.0224559,-0.0275115,-1.14425e-06,9.09627e-07,1.46341e-06,0.0475671,0.05280001938318968,-1.1442493453861502e-06,9.096274136144444e-07,-0.02220564302631922,1.4634110707678616e-06,-0.027136505441064274
528,0.0529,771.48,7.13721e-05,5.12894e-05,-0.000259428,0.0008221,0.00704092,0.0515483,-0.0224982,-0.0275638,-1.14527e-06,9.10327e-07,1.46558e-06,0.0476606,0.05290004013594163,-1.1452693441382777e-06,9.103274143384965e-07,-0.02224700285285275,1.4655810740560327e-06,-0.027187384871320996
529,0.053,771.714,7.13446e-05,5.12712e-05,-0.000256059,0.000819127,0.00703868,0.0516432,-0.0225405,-0.027616,-1.14628e-06,9.11025e-07,1.46776e-06,0.0477541,0.0529999650911146,-1.1462793430006002e-06,9.110254148847474e-07,-0.022288360929902606,1.4677610771229865e-06,-0.02723816436447446
530,0.0531,771.948,7.1317e-05,5.12529e-05,-0.000252697,0.000816161,0.00703644,0.0517382,-0.0225828,-0.0276682,-1.1473e-06,9.11722e-07,1.46993e-06,0.0478476,0.05310000483961108,-1.14729934186375e-06,9.117224155641424e-07,-0.022329717257542736,1.4699310804111576e-06,-0.027288941207007533
531,0.0532,772.18,7.12895e-05,5.12346e-05,-0.000249342,0.000813202,0.0070342,0.0518331,-0.0226251,-0.0277204,-1.14831e-06,9.12417e-07,1.4721e-06,0.0479411,0.05319994877233514,-1.1483093407260725e-06,9.124174162877807e-07,-0.02237107183584719,1.472101083477284e-06,-0.02733971539905855
532,0.0533,772.413,7.12619e-05,5.12163e-05,-0.000245995,0.000810249,0.00703196,0.0519281,-0.0226673,-0.0277726,-1.14932e-06,9.1311e-07,1.47427e-06,0.0480346,0.05330000752018371,-1.1493193394773726e-06,9.131104168336179e-07,-0.02241232690612771,1.4742710867654552e-06,-0.027390486940765957
533,0.0534,772.645,7.12343e-05,5.1198e-05,-0.000242655,0.000807303,0.00702973,0.052023,-0.0227096,-0.0278248,-1.15032e-06,9.13802e-07,1.47643e-06,0.048128,0.05339997043406264,-1.1503193383388677e-06,9.138024175125992e-07,-0.022453677990117882,1.4764310898307542e-06,-0.027441255832268086
534,0.0535,772.877,7.12067e-05,5.11796e-05,-0.000239322,0.000804364,0.0070275,0.052118,-0.0227519,-0.0278771,-1.15133e-06,9.14492e-07,1.4786e-06,0.0482215,0.05350004818487175,-1.1513293372011901e-06,9.144924182358238e-07,-0.02249502732499431,1.4786010931189253e-06,-0.027492119324496134
535,0.0536,773.109,7.11791e-05,5.11613e-05,-0.000235997,0.000801431,0.00702528,0.0522129,-0.0227942,-0.0279293,-1.15233e-06,9.1518e-07,1.48076e-06,0.048315,0.05360003008351044,-1.1523293360626852e-06,9.151804187812473e-07,-0.022536374910830936,1.480761096406269e-06,-0.027542882910926214
536,0.0537,773.34,7.11514e-05,5.11429e-05,-0.000232678,0.000798504,0.00702305,0.0523078,-0.0228364,-0.0279815,-1.15333e-06,9.15867e-07,1.48293e-06,0.0484084,0.05370002147088182,-1.1533293349241802e-06,9.158674194598149e-07,-0.022577623005468728,1.4829310994723954e-06,-0.02759364384756635
537,0.0538,773.57,7.11238e-05,5.11244e-05,-0.000229367,0.000795585,0.00702083,0.0524027,-0.0228787,-0.0280336,-1.15433e-06,9.16553e-07,1.48509e-06,0.0485019,0.053800022347885834,-1.1543293337856753e-06,9.165534200494818e-07,-0.022618967097581932,1.485091102759739e-06,-0.027644304898989946
538,0.0539,773.801,7.10961e-05,5.1106e-05,-0.000226063,0.000792671,0.00701862,0.0524976,-0.0229209,-0.0280858,-1.15533e-06,9.17236e-07,1.48725e-06,0.0485953,0.05390003271542354,-1.1553293326471703e-06,9.172364205944916e-07,-0.022660211706903022,1.4872511060470828e-06,-0.027695060541540473
539,0.054,774.031,7.10684e-05,5.10875e-05,-0.000222766,0.000789765,0.0070164,0.0525924,-0.0229632,-0.028138,-1.15633e-06,9.17919e-07,1.48941e-06,0.0486887,0.05399994717439549,-1.156329331397643e-06,9.17919421361546e-07,-0.022701552305588013,1.4894111091123818e-06,-0.027745813534715502
540,0.0541,774.26,7.10407e-05,5.10691e-05,-0.000219475,0.000786864,0.00701419,0.0526873,-0.0230054,-0.0281902,-1.15732e-06,9.18599e-07,1.49157e-06,0.0487822,0.05409997651569953,-1.1573193302583107e-06,9.185994218618987e-07,-0.02274279342988683,1.4915711123997255e-06,-0.02779656387865359
541,0.0542,774.49,7.1013e-05,5.10506e-05,-0.000216192,0.00078397,0.00701198,0.0527822,-0.0230477,-0.0282424,-1.15831e-06,9.19278e-07,1.49372e-06,0.0488756,0.05420001535023844,-1.1583093291189783e-06,9.192784224953954e-07,-0.022784130535438818,1.4937211156862418e-06,-0.02784731157349274
542,0.0543,774.719,7.09853e-05,5.1032e-05,-0.000212916,0.000781083,0.00700978,0.052877,-0.0230899,-0.0282945,-1.1593e-06,9.19956e-07,1.49588e-06,0.048969,0.05429995824891232,-1.159299327979646e-06,9.199564232620361e-07,-0.022825368175009908,1.4958811187515408e-06,-0.02789795940917217
543,0.0544,774.947,7.09576e-05,5.10135e-05,-0.000209647,0.000778201,0.00700758,0.0529719,-0.0231322,-0.0283467,-1.16029e-06,9.20632e-07,1.49803e-06,0.0490624,0.05440001606261835,-1.1602893268403136e-06,9.206324238508756e-07,-0.022866701787723986,1.498031122038057e-06,-0.027948701811302823
544,0.0545,775.175,7.09298e-05,5.09949e-05,-0.000206385,0.000775327,0.00700538,0.0530667,-0.0231744,-0.0283989,-1.16127e-06,9.21306e-07,1.50019e-06,0.0491558,0.05449997792225836,-1.1612693257001538e-06,9.213064244839586e-07,-0.02290793594286178,1.5001911253254008e-06,-0.027999441564749206
545,0.0546,775.403,7.09021e-05,5.09764e-05,-0.00020313,0.000772458,0.00700318,0.0531615,-0.0232166,-0.028451,-1.16226e-06,9.21979e-07,1.50234e-06,0.0492492,0.054599949258731684,-1.1622593245608215e-06,9.21979425028141e-07,-0.022949168357954908,1.502341128611917e-06,-0.02805008147466248
546,0.0547,775.63,7.08743e-05,5.09578e-05,-0.000199881,0.000769596,0.00700098,0.0532564,-0.0232589,-0.0285032,-1.16324e-06,9.22651e-07,1.50449e-06,0.0493426,0.054700035542935455,-1.1632393234206617e-06,9.226514257054674e-07,-0.022990496734032084,1.5044911316763887e-06,-0.028100815936228596
547,0.0548,775.857,7.08465e-05,5.09391e-05,-0.000196639,0.00076674,0.00699879,0.0533512,-0.0233011,-0.0285553,-1.16422e-06,9.2332e-07,1.50664e-06,0.0494359,0.05480002584577037,-1.164219322280502e-06,9.233204263381367e-07,-0.02303172566513334,1.506641134962905e-06,-0.028151450564674718
548,0.0549,776.084,7.08187e-05,5.09205e-05,-0.000193405,0.00076389,0.00699661,0.053446,-0.0233433,-0.0286075,-1.1652e-06,9.23989e-07,1.50878e-06,0.0495293,0.05490002562813534,-1.1651993211403422e-06,9.23989426970806e-07,-0.023072952856410422,1.5087811382485938e-06,-0.028202179734912458
549,0.055,776.31,7.07909e-05,5.09019e-05,-0.000190177,0.000761047,0.00699442,0.0535408,-0.0233855,-0.0286596,-1.16617e-06,9.24655e-07,1.51093e-06,0.0496227,0.055000034890929195,-1.166169319999355e-06,9.246554275588181e-07,-0.023114178307936717,1.51093114153511e-06,-0.02825280908244232
550,0.0551,776.536,7.07631e-05,5.08832e-05,-0.000186956,0.000758209,0.00699224,0.0536355,-0.0234277,-0.0287117,-1.16715e-06,9.25321e-07,1.51308e-06,0.049716,0.05509994812505026,-1.1671493188591953e-06,9.253214281468303e-07,-0.02315540201978572,1.5130811445995818e-06,-0.028303435792251808
551,0.0552,776.762,7.07353e-05,5.08645e-05,-0.000183741,0.000755378,0.00699006,0.0537303,-0.0234699,-0.0287639,-1.16812e-06,9.25984e-07,1.51522e-06,0.0498094,0.05519997634139506,-1.168119317718208e-06,9.259844286901853e-07,-0.023196623992030707,1.5152211478852706e-06,-0.02835415702906774
552,0.0553,776.987,7.07074e-05,5.08458e-05,-0.000180534,0.000752553,0.00698788,0.0538251,-0.0235121,-0.028816,-1.16909e-06,9.26647e-07,1.51736e-06,0.0499027,0.055300014040864154,-1.169089316577221e-06,9.266474292335403e-07,-0.023237844224745174,1.5173611511709595e-06,-0.02840477845878675
553,0.0554,777.212,7.06796e-05,5.08271e-05,-0.000177332,0.000749734,0.00698571,0.0539198,-0.0235543,-0.0288681,-1.17006e-06,9.27307e-07,1.5195e-06,0.049996,0.05539995568435607,-1.1700593154362338e-06,9.273074299542827e-07,-0.02327906271800262,1.5195011544566484e-06,-0.028455397251198056
554,0.0555,777.436,7.06517e-05,5.08084e-05,-0.000174138,0.000746922,0.00698354,0.0540146,-0.0235965,-0.0289202,-1.17102e-06,9.27966e-07,1.52164e-06,0.0500894,0.05550001234276558,-1.1710193144054415e-06,9.279664305861246e-07,-0.023320279471876315,1.5216411577423372e-06,-0.02850601340643899
555,0.0556,777.661,7.06239e-05,5.07896e-05,-0.00017095,0.000744115,0.00698137,0.0541093,-0.0236387,-0.0289723,-1.17199e-06,9.28624e-07,1.52378e-06,0.0501827,0.05559997292699337,-1.1719893132644543e-06,9.286244311290659e-07,-0.02336149448643965,1.523781161028026e-06,-0.02855662692464689
556,0.0557,777.884,7.0596e-05,5.07709e-05,-0.000167769,0.000741314,0.0069792,0.0542041,-0.0236809,-0.0290244,-1.17295e-06,9.2928e-07,1.52592e-06,0.050276,0.05570004854793642,-1.1729493121226398e-06,9.292804317162506e-07,-0.023402707761766117,1.525921164313715e-06,-0.028607237805959307
557,0.0558,778.108,7.05681e-05,5.07521e-05,-0.000164595,0.00073852,0.00697704,0.0542988,-0.0237231,-0.0290766,-1.17391e-06,9.29935e-07,1.52805e-06,0.0503693,0.05580002807648987,-1.1739093109808252e-06,9.299354324365794e-07,-0.023443919297928995,1.5280511673765318e-06,-0.028657943184723922
558,0.0559,778.331,7.05402e-05,5.07333e-05,-0.000161427,0.000735731,0.00697488,0.0543935,-0.0237653,-0.0291286,-1.17487e-06,9.30588e-07,1.53019e-06,0.0504626,0.055900017073552855,-1.1748693098390106e-06,9.30588432979107e-07,-0.023485129095001778,1.5301911706622207e-06,-0.0287084516584466
559,0.056,778.554,7.05123e-05,5.07145e-05,-0.000158266,0.000732948,0.00697272,0.0544882,-0.0238075,-0.0291807,-1.17583e-06,9.3124e-07,1.53232e-06,0.0505559,0.05600001554002243,-1.175829308697196e-06,9.312404336547786e-07,-0.023526337153057852,1.5323211739470821e-06,-0.028759054629896363
560,0.0561,778.776,7.04844e-05,5.06957e-05,-0.000155111,0.000730172,0.00697057,0.0545829,-0.0238496,-0.0292328,-1.17678e-06,9.3189e-07,1.53445e-06,0.0506492,0.05610002347679521,-1.176779307554554e-06,9.31890434152649e-07,-0.02356744582892001,1.5344511772319436e-06,-0.028809654964999987
561,0.0562,778.998,7.04565e-05,5.06768e-05,-0.000151963,0.000727401,0.00696841,0.0546776,-0.0238918,-0.0292849,-1.17773e-06,9.32539e-07,1.53659e-06,0.0507424,0.05620004088476804,-1.1777293065229344e-06,9.325394347836635e-07,-0.023608650413283194,1.5365911805176324e-06,-0.028860252663894803
562,0.0563,779.22,7.04286e-05,5.0658e-05,-0.000148821,0.000724636,0.00696627,0.0547722,-0.023934,-0.029337,-1.17869e-06,9.33186e-07,1.53871e-06,0.0508357,0.056299962134836345,-1.1786893053811198e-06,9.331864354589214e-07,-0.023649853258849607,1.5387111838016665e-06,-0.028910847726718147
563,0.0564,779.441,7.04006e-05,5.06391e-05,-0.000145685,0.000721878,0.00696412,0.0548669,-0.0239761,-0.0293891,-1.17963e-06,9.33831e-07,1.54084e-06,0.050929,0.05639999847789645,-1.1796293042376504e-06,9.338314359563782e-07,-0.023690956734793156,1.540841187086528e-06,-0.028961440153607354
564,0.0565,779.662,7.03727e-05,5.06202e-05,-0.000142556,0.000719125,0.00696198,0.0549616,-0.0240183,-0.0294411,-1.18058e-06,9.34476e-07,1.54297e-06,0.0510222,0.05650004429484712,-1.1805793030950085e-06,9.344764366758795e-07,-0.023732156107106106,1.5429711903713894e-06,-0.029011932845898092
565,0.0566,779.883,7.03448e-05,5.06013e-05,-0.000139434,0.000716377,0.00695983,0.0550562,-0.0240605,-0.0294932,-1.18153e-06,9.35118e-07,1.5451e-06,0.0511155,0.05659999392658044,-1.1815293019523665e-06,9.351184371286791e-07,-0.023773353740842218,1.5451011936562509e-06,-0.029062520006389758
566,0.0567,780.104,7.03168e-05,5.05824e-05,-0.000136317,0.000713636,0.0069577,0.0551508,-0.0241026,-0.0295453,-1.18247e-06,9.3576e-07,1.54722e-06,0.0512087,0.05669995301399622,-1.1824693009199194e-06,9.357604378035234e-07,-0.023814452017524856,1.547221196940285e-06,-0.02911310453135918
567,0.0568,780.324,7.02889e-05,5.05635e-05,-0.000133208,0.000710901,0.00695556,0.0552455,-0.0241448,-0.0295973,-1.18341e-06,9.364e-07,1.54934e-06,0.0513019,0.05680002723798627,-1.18340929977645e-06,9.36400438522611e-07,-0.02385564617844682,1.549341200224319e-06,-0.029163589337307227
568,0.0569,780.543,7.02609e-05,5.05446e-05,-0.000130104,0.000708171,0.00695343,0.0553401,-0.0241869,-0.0296494,-1.18435e-06,9.37038e-07,1.55147e-06,0.0513952,0.05690000524944838,-1.1843492986329807e-06,9.370384390638975e-07,-0.023896740990690835,1.5514712035091804e-06,-0.029214168596701562
569,0.057,780.763,7.02329e-05,5.05257e-05,-0.000127007,0.000705447,0.0069513,0.0554347,-0.024229,-0.0297014,-1.18529e-06,9.37675e-07,1.55359e-06,0.0514884,0.05699999271927769,-1.1852892974895113e-06,9.376754395162834e-07,-0.02393783407287975,1.5535912067932145e-06,-0.029264648147454886
570,0.0571,780.982,7.0205e-05,5.05067e-05,-0.000123916,0.000702729,0.00694917,0.0555293,-0.0242712,-0.0297535,-1.18623e-06,9.38311e-07,1.55571e-06,0.0515816,0.05709998964836904,-1.1862292964570642e-06,9.383114403238579e-07,-0.023979023027188795,1.5557112100772486e-06,-0.02931522214182236
571,0.0572,781.2,7.0177e-05,5.04877e-05,-0.000120831,0.000700016,0.00694704,0.0556239,-0.0243133,-0.0298055,-1.18716e-06,9.38945e-07,1.55782e-06,0.0516748,0.057199996037617495,-1.1871592953127674e-06,9.389454407315867e-07,-0.024020112645376845,1.5578212133604552e-06,-0.02936569643792797
572,0.0573,781.419,7.0149e-05,5.04688e-05,-0.000117753,0.00069731,0.00694492,0.0557185,-0.0243554,-0.0298575,-1.1881e-06,9.39577e-07,1.55994e-06,0.051768,0.05730001188791767,-1.188099294169298e-06,9.395774414056035e-07,-0.02406120053372829,1.5599412166444893e-06,-0.029416168109438368
573,0.0574,781.637,7.0121e-05,5.04498e-05,-0.00011468,0.000694608,0.0069428,0.0558131,-0.0243976,-0.0299096,-1.18903e-06,9.40208e-07,1.56206e-06,0.0518612,0.057400037200165066,-1.1890292931360236e-06,9.402084419907197e-07,-0.024102384282082556,1.5620612199285233e-06,-0.029466734209821488
574,0.0575,781.854,7.0093e-05,5.04308e-05,-0.000111614,0.000691913,0.00694069,0.0559076,-0.0244397,-0.0299616,-1.18996e-06,9.40838e-07,1.56417e-06,0.0519543,0.05749996622525244,-1.1899592919917268e-06,9.408384424869354e-07,-0.02414346870687112,1.56417122321173e-06,-0.029517200627504292
575,0.0576,782.072,7.0065e-05,5.04118e-05,-0.000108555,0.000689223,0.00693857,0.0560022,-0.0244818,-0.0300136,-1.19088e-06,9.41466e-07,1.56629e-06,0.0520475,0.05760001045407481,-1.190879290957625e-06,9.414664432494391e-07,-0.024184551402041787,1.5662912267178086e-06,-0.02956766442100167
576,0.0577,782.289,7.0037e-05,5.03928e-05,-0.000105501,0.000686539,0.00693646,0.0560967,-0.0245239,-0.0300656,-1.19181e-06,9.42093e-07,1.5684e-06,0.0521407,0.05769995837752773,-1.1918092898133281e-06,9.420934437009976e-07,-0.024225632367667282,1.5684012300010153e-06,-0.029618125590450073
577,0.0578,782.505,7.0009e-05,5.03737e-05,-0.000102453,0.00068386,0.00693435,0.0561913,-0.024566,-0.0301176,-1.19273e-06,9.42719e-07,1.57051e-06,0.0522338,0.057800021526502654,-1.192729288668204e-06,9.427194442857001e-07,-0.024266711603820657,1.570511233284222e-06,-0.02966858413598572
578,0.0579,782.722,6.9981e-05,5.03547e-05,-9.94117e-05,0.000681187,0.00693224,0.0562858,-0.0246081,-0.0301696,-1.19366e-06,9.43343e-07,1.57262e-06,0.052327,0.057899988351894915,-1.1936592876349295e-06,9.433434449146461e-07,-0.024307789110574518,1.5726212365674286e-06,-0.029719040057745394
579,0.058,782.938,6.9953e-05,5.03356e-05,-9.63762e-05,0.00067852,0.00693014,0.0563803,-0.0246502,-0.0302216,-1.19458e-06,9.43965e-07,1.57473e-06,0.0524201,0.05799996462459878,-1.1945792864898053e-06,9.439654455878355e-07,-0.02434886488800181,1.5747312398506352e-06,-0.029769493355865206
580,0.0581,783.153,6.9925e-05,5.03166e-05,-9.33468e-05,0.000675858,0.00692804,0.0564748,-0.0246923,-0.0302736,-1.19549e-06,9.44587e-07,1.57683e-06,0.0525133,0.058099950345506635,-1.195489285454876e-06,9.445874460389803e-07,-0.02438993893617525,1.5768312431330145e-06,-0.029819944030481826
581,0.0582,783.369,6.9897e-05,5.02975e-05,-9.03235e-05,0.000673202,0.00692594,0.0565694,-0.0247344,-0.0303256,-1.19641e-06,9.45206e-07,1.57894e-06,0.0526064,0.05820005133551143,-1.1964092843097518e-06,9.452064466675125e-07,-0.024431011255167667,1.5789412464162211e-06,-0.02987039208173159
582,0.0583,783.584,6.9869e-05,5.02784e-05,-8.73062e-05,0.000670551,0.00692384,0.0566638,-0.0247765,-0.0303776,-1.19733e-06,9.45825e-07,1.58104e-06,0.0526995,0.05829995013550682,-1.1973292831646276e-06,9.458254472960448e-07,-0.024472081845051896,1.581041249920645e-06,-0.02992083750975083
583,0.0584,783.799,6.9841e-05,5.02594e-05,-8.42948e-05,0.000667905,0.00692175,0.0567583,-0.0248186,-0.0304296,-1.19824e-06,9.46442e-07,1.58315e-06,0.0527926,0.05839996420638505,-1.1982392821296983e-06,9.464424479688205e-07,-0.024513150705900544,1.5831512532038516e-06,-0.029971280314675997
584,0.0585,784.013,6.9813e-05,5.02403e-05,-8.12894e-05,0.000665265,0.00691966,0.0568528,-0.0248607,-0.0304816,-1.19915e-06,9.47057e-07,1.58525e-06,0.0528857,0.058499987729039526,-1.1991492809837467e-06,9.47057448463795e-07,-0.024554217837786663,1.5852512564862309e-06,-0.030021720496643534
585,0.0586,784.227,6.9785e-05,5.02212e-05,-7.829e-05,0.000662631,0.00691757,0.0569473,-0.0249028,-0.0305336,-1.20006e-06,9.47671e-07,1.58735e-06,0.0529788,0.05860002070436354,-1.2000592799488174e-06,9.476714490919136e-07,-0.02459528324078286,1.5873512597686101e-06,-0.030072158055789777
586,0.0587,784.441,6.97569e-05,5.02021e-05,-7.52965e-05,0.000660002,0.00691548,0.0570417,-0.0249449,-0.0305855,-1.20097e-06,9.48284e-07,1.58945e-06,0.0530719,0.05869995726324939,-1.2009692788028659e-06,9.482844496311316e-07,-0.02463634691496208,1.589451263273034e-06,-0.030122496004505672
587,0.0588,784.654,6.97289e-05,5.01829e-05,-7.23088e-05,0.000657378,0.0069134,0.0571362,-0.0249869,-0.0306375,-1.20187e-06,9.48895e-07,1.59155e-06,0.053165,0.05880000913658723,-1.2018692777671092e-06,9.48895450214593e-07,-0.02467731132813289,1.5915512665554132e-06,-0.030172928323461745
588,0.0589,784.867,6.97009e-05,5.01638e-05,-6.93271e-05,0.000654759,0.00691132,0.0572306,-0.025029,-0.0306895,-1.20278e-06,9.49506e-07,1.59365e-06,0.0532581,0.05889996457527236,-1.2027792766211576e-06,9.495064507980544e-07,-0.02471837154900225,1.5936512698377925e-06,-0.03022335802000542
589,0.059,785.08,6.96729e-05,5.01447e-05,-6.63513e-05,0.000652146,0.00690924,0.0573251,-0.0250711,-0.0307414,-1.20368e-06,9.50114e-07,1.59574e-06,0.0533511,0.05900003535019427,-1.2036792755854009e-06,9.501144513368587e-07,-0.02475943004127279,1.5957412731193443e-06,-0.03027368812164677
590,0.0591,785.293,6.96448e-05,5.01255e-05,-6.33812e-05,0.000649539,0.00690716,0.0574195,-0.0251131,-0.0307934,-1.20458e-06,9.50721e-07,1.59784e-06,0.0534442,0.05910000967224516,-1.204579274438622e-06,9.50721452008807e-07,-0.024800389285060898,1.5978412766237682e-06,-0.030324112578817175
591,0.0592,785.505,6.96168e-05,5.01064e-05,-6.0417e-05,0.000646936,0.00690509,0.0575139,-0.0251552,-0.0308453,-1.20548e-06,9.51327e-07,1.59993e-06,0.0535373,0.0591999934323173,-1.2054792734028652e-06,9.513274525918547e-07,-0.02484144432445734,1.59993127990532e-06,-0.030374437451432645
592,0.0593,785.717,6.95888e-05,5.00872e-05,-5.74586e-05,0.000644339,0.00690302,0.0576083,-0.0251972,-0.0308973,-1.20638e-06,9.51932e-07,1.60202e-06,0.0536303,0.059299986631302204,-1.2063792723671085e-06,9.519324530860018e-07,-0.024882400123717896,1.6020212831868719e-06,-0.030424856669774125
593,0.0594,785.928,6.95608e-05,5.00681e-05,-5.4506e-05,0.000641747,0.00690095,0.0577027,-0.0252393,-0.0309492,-1.20727e-06,9.52535e-07,1.60411e-06,0.0537233,0.05939998927009049,-1.2072692712195021e-06,9.525354536243924e-07,-0.024923451710530786,1.6041112866904683e-06,-0.030475176313906838
594,0.0595,786.14,6.95328e-05,5.00489e-05,-5.15591e-05,0.000639161,0.00689888,0.0577971,-0.0252813,-0.0310011,-1.20817e-06,9.53137e-07,1.6062e-06,0.0538164,0.05950000134957345,-1.2081692701837454e-06,9.53137454295927e-07,-0.024964404065553447,1.6062012899720202e-06,-0.030525493346517885
595,0.0596,786.351,6.95047e-05,5.00297e-05,-4.8618e-05,0.00063658,0.00689682,0.0578915,-0.0253234,-0.0310531,-1.20906e-06,9.53737e-07,1.60829e-06,0.0539094,0.059600022870642366,-1.209059269036139e-06,9.537374547896604e-07,-0.025005452200072997,1.608291293253572e-06,-0.03057590471015703
596,0.0597,786.561,6.94767e-05,5.00106e-05,-4.56826e-05,0.000634004,0.00689476,0.0579858,-0.0253654,-0.031105,-1.20995e-06,9.54336e-07,1.61038e-06,0.0540024,0.05969994786418842,-1.209949267999555e-06,9.543364554165379e-07,-0.02504640111114742,1.6103812967571685e-06,-0.030626216515100002
597,0.0598,786.771,6.94487e-05,4.99914e-05,-4.27529e-05,0.000631433,0.0068927,0.0580802,-0.0254075,-0.0311569,-1.21084e-06,9.54934e-07,1.61247e-06,0.0540954,0.059799988261099335,-1.2108392669629708e-06,9.549344559545148e-07,-0.025087445793663954,1.6124713000387203e-06,-0.030676525708927982
598,0.0599,786.981,6.94207e-05,4.99722e-05,-3.98288e-05,0.000628867,0.00689064,0.0581746,-0.0254495,-0.0312088,-1.21173e-06,9.5553e-07,1.61455e-06,0.0541884,0.05990003810226918,-1.2117292658153644e-06,9.55530456536735e-07,-0.025128391261079797,1.6145513033194447e-06,-0.03072683229177653
599,0.06,787.191,6.93926e-05,4.9953e-05,-3.69104e-05,0.000626307,0.00688859,0.0582689,-0.0254915,-0.0312607,-1.21261e-06,9.56125e-07,1.61664e-06,0.0542814,0.059999991388585805,-1.212609264777953e-06,9.561254570300548e-07,-0.025169335008822125,1.6166413068230412e-06,-0.030777136263781202
600,0.0601,787.401,6.93646e-05,4.99338e-05,-3.39977e-05,0.000623751,0.00688654,0.0583632,-0.0255335,-0.0313126,-1.2135e-06,9.56718e-07,1.61872e-06,0.0543744,0.06009995410094149,-1.2134992637413688e-06,9.56718457567618e-07,-0.025210277036963213,1.6187213101037656e-06,-0.03082743762507756
601,0.0602,787.61,6.93366e-05,4.99146e-05,-3.10906e-05,0.000621201,0.00688449,0.0584576,-0.0255756,-0.0313645,-1.21438e-06,9.57311e-07,1.6208e-06,0.0544674,0.06020003226022341,-1.214379262592935e-06,9.573114583272258e-07,-0.02525131482044851,1.6208013136065347e-06,-0.030877736375800935
602,0.0603,787.818,6.93086e-05,4.98953e-05,-2.8189e-05,0.000618656,0.00688244,0.0585519,-0.0256176,-0.0314164,-1.21526e-06,9.57902e-07,1.62288e-06,0.0545604,0.06030001383732286,-1.2152592615555236e-06,9.579024586869878e-07,-0.02529225340550978,1.6228813168872591e-06,-0.03092803251608689
603,0.0604,788.027,6.92806e-05,4.98761e-05,-2.52931e-05,0.000616116,0.0068804,0.0586462,-0.0256596,-0.0314683,-1.21614e-06,9.58491e-07,1.62496e-06,0.0546533,0.06040000484312946,-1.216139260518112e-06,9.584914593130378e-07,-0.025333190271186523,1.6249613201679836e-06,-0.03097832604607087
604,0.0605,788.235,6.92526e-05,4.98569e-05,-2.24027e-05,0.000613581,0.00687835,0.0587405,-0.0257016,-0.0315202,-1.21701e-06,9.59079e-07,1.62704e-06,0.0547463,0.06050000527853272,-1.2170092594798732e-06,9.590794598501873e-07,-0.02537412541755102,1.6270413236707526e-06,-0.031028616965888434
605,0.0606,788.443,6.92246e-05,4.98377e-05,-1.95179e-05,0.000611051,0.00687631,0.0588348,-0.0257436,-0.0315721,-1.21789e-06,9.59666e-07,1.62912e-06,0.0548392,0.06060001514442148,-1.2178892583314394e-06,9.596664605204808e-07,-0.025415058844675542,1.629121326951477e-06,-0.03107890527567503
606,0.0607,788.651,6.91965e-05,4.98184e-05,-1.66385e-05,0.000608526,0.00687428,0.0589291,-0.0257856,-0.031624,-1.21876e-06,9.60252e-07,1.63119e-06,0.0549322,0.06070003444168526,-1.2187592572932004e-06,9.602524611018737e-07,-0.025455990552632146,1.6311913304534187e-06,-0.03112919097556599
607,0.0608,788.858,6.91685e-05,4.97992e-05,-1.37647e-05,0.000606006,0.00687224,0.0590233,-0.0258276,-0.0316759,-1.21963e-06,9.60836e-07,1.63327e-06,0.0550251,0.06079995709121255,-1.2196292562549615e-06,9.608364615054654e-07,-0.025496920541493107,1.6332713337341431e-06,-0.031179474065696877
608,0.0609,789.065,6.91405e-05,4.97799e-05,-1.08963e-05,0.000603491,0.00687021,0.0591176,-0.0258696,-0.0317277,-1.2205e-06,9.61419e-07,1.63534e-06,0.055118,0.060899995243891114,-1.2204992552167226e-06,9.614194622642458e-07,-0.0255378488113307,1.6353413372360848e-06,-0.031229657669173738
609,0.061,789.271,6.91125e-05,4.97607e-05,-8.03347e-06,0.000600982,0.00686818,0.0592119,-0.0259116,-0.0317796,-1.22137e-06,9.62001e-07,1.63741e-06,0.055211,0.06100004283061211,-1.2213692541784837e-06,9.62001462712081e-07,-0.025578775362217088,1.6374113405159818e-06,-0.03127993554521857
610,0.0611,789.478,6.90845e-05,4.97414e-05,-5.17603e-06,0.000598477,0.00686615,0.0593061,-0.0259536,-0.0318315,-1.22224e-06,9.62581e-07,1.63948e-06,0.0553039,0.06109999374226094,-1.2222392530292225e-06,9.625814632041596e-07,-0.025619700194224326,1.6394813440179234e-06,-0.03133021081190934
611,0.0612,789.684,6.90566e-05,4.97222e-05,-2.32402e-06,0.000595977,0.00686413,0.0594003,-0.0259956,-0.0318833,-1.2231e-06,9.6316e-07,1.64155e-06,0.0553968,0.06119995406972878,-1.2230992519901562e-06,9.631604638293823e-07,-0.0256606233074248,1.6415513472978205e-06,-0.031380386607424926
612,0.0613,789.89,6.90286e-05,4.97029e-05,5.22581e-07,0.000593482,0.0068621,0.0594946,-0.0260375,-0.0319352,-1.22397e-06,9.63738e-07,1.64362e-06,0.0554897,0.06130002994390105,-1.2239692509519173e-06,9.637384643657043e-07,-0.025701447272040157,1.6436213507997621e-06,-0.03143065666084077
613,0.0614,790.095,6.90006e-05,4.96837e-05,3.36379e-06,0.000590992,0.00686008,0.0595888,-0.0260795,-0.031987,-1.22483e-06,9.64314e-07,1.64569e-06,0.0555826,0.06140000911566679,-1.224829249912851e-06,9.643144649462698e-07,-0.025742366951935436,1.6456913540796592e-06,-0.03148082725339618
614,0.0615,790.3,6.89726e-05,4.96644e-05,6.19964e-06,0.000588507,0.00685807,0.059683,-0.0261215,-0.0320389,-1.22569e-06,9.64889e-07,1.64776e-06,0.0556755,0.06149999770591408,-1.2256892488737847e-06,9.648894654379347e-07,-0.025783284913240334,1.6477613575816008e-06,-0.031531092094077895
615,0.0616,790.505,6.89446e-05,4.96451e-05,9.03013e-06,0.000586026,0.00685605,0.0597772,-0.0261635,-0.0320907,-1.22655e-06,9.65463e-07,1.64982e-06,0.0557683,0.06159999571553021,-1.2265492478347184e-06,9.654634660627437e-07,-0.025824201156026794,1.6498213608606704e-06,-0.03158125748421259
616,0.0617,790.71,6.89166e-05,4.96259e-05,1.18553e-05,0.000583551,0.00685404,0.0598714,-0.0262054,-0.0321425,-1.22741e-06,9.66035e-07,1.65188e-06,0.0558612,0.06170000314540269,-1.2274092466846298e-06,9.660354665097515e-07,-0.02586501826687393,1.6518813643617847e-06,-0.03163142027584742
617,0.0618,790.914,6.88887e-05,4.96066e-05,1.46751e-05,0.000581081,0.00685202,0.0599656,-0.0262474,-0.0321944,-1.22826e-06,9.66607e-07,1.65395e-06,0.0559541,0.0618000199964186,-1.228259245644736e-06,9.666074671788039e-07,-0.025905931076931732,1.6539513678637263e-06,-0.03168167730095395
618,0.0619,791.118,6.88607e-05,4.95873e-05,1.74897e-05,0.000578615,0.00685001,0.0600598,-0.0262893,-0.0322462,-1.22911e-06,9.67176e-07,1.65601e-06,0.0560469,0.06190004626946588,-1.2291092446048424e-06,9.67176467803199e-07,-0.02594674476336689,1.656011371142796e-06,-0.03173183489097697
619,0.062,791.322,6.88327e-05,4.9568e-05,2.02989e-05,0.000576154,0.00684801,0.0601539,-0.0263313,-0.032298,-1.22997e-06,9.67745e-07,1.65807e-06,0.0561398,0.061999975765428816,-1.229969243565776e-06,9.677454682055497e-07,-0.025987654140983918,1.6580713746439102e-06,-0.03178198988290415
620,0.0621,791.526,6.88048e-05,4.95487e-05,2.31029e-05,0.000573698,0.006846,0.0602481,-0.0263732,-0.0323498,-1.23082e-06,9.68312e-07,1.66013e-06,0.0562326,0.062100020875196726,-1.2308192425258824e-06,9.683124688741884e-07,-0.026028464403294427,1.6601313779229798e-06,-0.031832142276869924
621,0.0622,791.729,6.87768e-05,4.95295e-05,2.59017e-05,0.000571247,0.006844,0.0603422,-0.0264152,-0.0324016,-1.23167e-06,9.68878e-07,1.66219e-06,0.0563254,0.062199969189655535,-1.2316692414859887e-06,9.688784694539265e-07,-0.026069370348758558,1.662191381424094e-06,-0.03188229207300908
622,0.0623,791.932,6.87489e-05,4.95102e-05,2.86952e-05,0.0005688,0.006842,0.0604364,-0.0264571,-0.0324534,-1.23251e-06,9.69443e-07,1.66424e-06,0.0564183,0.062300033139691235,-1.2325092404452676e-06,9.69443469944764e-07,-0.026110177187231742,1.664241384924381e-06,-0.03193243927145606
623,0.0624,792.134,6.87209e-05,4.94909e-05,3.14835e-05,0.000566358,0.00684,0.0605305,-0.0264991,-0.0325052,-1.23336e-06,9.70007e-07,1.6663e-06,0.0565111,0.06240000027618953,-1.2333592394053738e-06,9.70007470346701e-07,-0.02615107970083108,1.6663013882034505e-06,-0.03198258387234543
624,0.0625,792.337,6.8693e-05,4.94716e-05,3.42667e-05,0.000563921,0.00683801,0.0606246,-0.026541,-0.032557,-1.2342e-06,9.70569e-07,1.66836e-06,0.0566039,0.06249997682003827,-1.2341992383646527e-06,9.70569471014926e-07,-0.026191883115754155,1.6683613917045648e-06,-0.03203272587581174
625,0.0626,792.539,6.86651e-05,4.94523e-05,3.70446e-05,0.000561489,0.00683601,0.0607187,-0.0265829,-0.0326088,-1.23504e-06,9.7113e-07,1.67041e-06,0.0566967,0.06259996277212232,-1.2350392373239316e-06,9.711304715942504e-07,-0.0262326848210499,1.6704113952048516e-06,-0.03208286528198956
626,0.0627,792.74,6.86371e-05,4.9433e-05,3.98174e-05,0.000559061,0.00683402,0.0608128,-0.0266249,-0.0326606,-1.23588e-06,9.71689e-07,1.67246e-06,0.0567895,0.06269995813332718,-1.2358792362832105e-06,9.716894719957736e-07,-0.02627358218943665,1.6724613984830938e-06,-0.03213300209101333
627,0.0628,792.942,6.86092e-05,4.94137e-05,4.25851e-05,0.000556638,0.00683203,0.0609069,-0.0266668,-0.0327124,-1.23672e-06,9.72248e-07,1.67451e-06,0.0568823,0.06279996290453815,-1.2367192352424894e-06,9.722484726193414e-07,-0.02631438047161294,1.6745114019833807e-06,-0.03218313630301772
628,0.0629,793.143,6.85813e-05,4.93944e-05,4.53476e-05,0.00055422,0.00683005,0.061001,-0.0267087,-0.0327642,-1.23756e-06,9.72805e-07,1.67656e-06,0.056975,0.06289997708664097,-1.2375592342017683e-06,9.728054730651081e-07,-0.026355177044376954,1.6765614054836675e-06,-0.03223326791813719
629,0.063,793.344,6.85534e-05,4.93751e-05,4.8105e-05,0.000551807,0.00682806,0.0610951,-0.0267506,-0.032816,-1.2384e-06,9.73361e-07,1.67861e-06,0.0570678,0.06300000068052114,-1.2383992331610472e-06,9.733614736440188e-07,-0.02639597190780052,1.6786114087619097e-06,-0.03228339693650628
630,0.0631,793.544,6.85255e-05,4.93558e-05,5.08574e-05,0.000549398,0.00682608,0.0611892,-0.0267925,-0.0328677,-1.23923e-06,9.73915e-07,1.68066e-06,0.0571606,0.06310003368706418,-1.2392292321194986e-06,9.73915474267173e-07,-0.026436765061955025,1.6806614122621966e-06,-0.032333426591606984
631,0.0632,793.745,6.84976e-05,4.93365e-05,5.36046e-05,0.000546993,0.0068241,0.0612832,-0.0268344,-0.0329195,-1.24006e-06,9.74469e-07,1.68271e-06,0.0572533,0.06319996978715392,-1.2400592310779501e-06,9.74469474890327e-07,-0.026477556506912192,1.6827114157624834e-06,-0.032383550421891116
632,0.0633,793.945,6.84697e-05,4.93172e-05,5.63469e-05,0.000544594,0.00682212,0.0613773,-0.0268763,-0.0329713,-1.2409e-06,9.75021e-07,1.68475e-06,0.0573461,0.06330002161167547,-1.240899230037229e-06,9.7502147533568e-07,-0.02651834624274363,1.6847514192619428e-06,-0.03243367165582811
633,0.0634,794.145,6.84418e-05,4.92979e-05,5.9084e-05,0.000542198,0.00682015,0.0614713,-0.0269182,-0.033023,-1.24172e-06,9.75572e-07,1.6868e-06,0.0574388,0.06339997651151363,-1.2417192291058754e-06,9.75572475914177e-07,-0.026559134269520834,1.686801422540185e-06,-0.032483693541926595
634,0.0635,794.344,6.84139e-05,4.92786e-05,6.18162e-05,0.000539808,0.00681818,0.0615654,-0.0269601,-0.0330748,-1.24255e-06,9.76121e-07,1.68884e-06,0.0575316,0.06350004715755331,-1.2425492280643269e-06,9.761214763148729e-07,-0.02659992058731564,1.6888414260396445e-06,-0.03253380958858432
635,0.0636,794.543,6.8386e-05,4.92593e-05,6.45433e-05,0.000537422,0.0068162,0.0616594,-0.027002,-0.0331265,-1.24338e-06,9.7667e-07,1.69088e-06,0.0576243,0.06360002086067662,-1.2433792270227784e-06,9.766704769376133e-07,-0.026640705196199543,1.690881429539104e-06,-0.032583826297685414
636,0.0637,794.742,6.83581e-05,4.924e-05,6.72655e-05,0.000535041,0.00681424,0.0617534,-0.0270439,-0.0331783,-1.2442e-06,9.77217e-07,1.69292e-06,0.057717,0.06370000396176967,-1.2441992259804024e-06,9.772174773825526e-07,-0.026681488096244044,1.6929214330385634e-06,-0.03263393715760077
637,0.0638,794.941,6.83303e-05,4.92207e-05,6.99827e-05,0.000532664,0.00681227,0.0618474,-0.0270858,-0.03323,-1.24503e-06,9.77763e-07,1.69496e-06,0.0578097,0.06379999646171597,-1.245029224938854e-06,9.77763477960636e-07,-0.026722269287520972,1.6949614365380228e-06,-0.032683948690240494
638,0.0639,795.14,6.83024e-05,4.92014e-05,7.26949e-05,0.000530291,0.0068103,0.0619414,-0.0271277,-0.0332817,-1.24585e-06,9.78308e-07,1.697e-06,0.0579024,0.06389999836139904,-1.245849223896478e-06,9.783084784498186e-07,-0.026763048770101716,1.6970014398154376e-06,-0.032733957637350763
639,0.064,795.338,6.82746e-05,4.91821e-05,7.54022e-05,0.000527923,0.00680834,0.0620354,-0.0271696,-0.0333335,-1.24667e-06,9.78851e-07,1.69904e-06,0.0579951,0.06400000966170238,-1.246669222854102e-06,9.788514789832448e-07,-0.026803826544057885,1.699041443314897e-06,-0.03278406072066409
640,0.0641,795.536,6.82467e-05,4.91628e-05,7.81046e-05,0.00052556,0.00680638,0.0621294,-0.0272114,-0.0333852,-1.24749e-06,9.79393e-07,1.70108e-06,0.0580878,0.06410003036350997,-1.2474892219227485e-06,9.79393479649815e-07,-0.026844505293916576,1.7010814468143565e-06,-0.03283406449211623
641,0.0642,795.733,6.82189e-05,4.91435e-05,8.08021e-05,0.000523201,0.00680442,0.0622233,-0.0272533,-0.0334369,-1.2483e-06,9.79934e-07,1.70311e-06,0.0581805,0.06419995404770473,-1.2482992208795451e-06,9.799344802274845e-07,-0.02688527965491594,1.7031114503129885e-06,-0.032884065678440155
642,0.0643,795.931,6.81911e-05,4.91241e-05,8.34946e-05,0.000520847,0.00680247,0.0623173,-0.0272952,-0.0334886,-1.24912e-06,9.80474e-07,1.70515e-06,0.0582732,0.0642999935451678,-1.2491192198371692e-06,9.804744807162535e-07,-0.026926052307505333,1.705151453812448e-06,-0.03293406427976964
643,0.0644,796.128,6.81633e-05,4.91048e-05,8.61823e-05,0.000518497,0.00680051,0.0624113,-0.027337,-0.0335403,-1.24993e-06,9.81012e-07,1.70718e-06,0.0583658,0.06440004244678588,-1.249929218793966e-06,9.81012481249266e-07,-0.026966725948433856,1.70718145731108e-06,-0.03298406029623813
644,0.0645,796.324,6.81354e-05,4.90855e-05,8.88652e-05,0.000516151,0.00679856,0.0625052,-0.0273789,-0.033592,-1.25075e-06,9.8155e-07,1.70921e-06,0.0584585,0.06449999430343789,-1.2507492178626123e-06,9.815504817822784e-07,-0.0270074951884951,1.709211460809712e-06,-0.03303405372797952
645,0.0646,796.521,6.81076e-05,4.90662e-05,9.15432e-05,0.00051381,0.00679661,0.0625991,-0.0274207,-0.0336437,-1.25156e-06,9.82086e-07,1.71124e-06,0.0585512,0.06459995554600972,-1.251559216819409e-06,9.820864821374897e-07,-0.02704816542518229,1.7112414640862994e-06,-0.03308404457512726
646,0.0647,796.717,6.80798e-05,4.90469e-05,9.42163e-05,0.000511473,0.00679467,0.0626931,-0.0274626,-0.0336954,-1.25237e-06,9.82621e-07,1.71327e-06,0.0586438,0.06470003264538104,-1.2523692157762056e-06,9.826214828478896e-07,-0.027088931253000936,1.7132714675849314e-06,-0.03313403283781502
647,0.0648,796.913,6.8052e-05,4.90276e-05,9.68847e-05,0.000509141,0.00679272,0.062787,-0.0275044,-0.0337471,-1.25317e-06,9.83155e-07,1.7153e-06,0.0587364,0.06480001267243529,-1.253169214732175e-06,9.831554832473444e-07,-0.027129598085731788,1.7153014710835635e-06,-0.03318401851617636
648,0.0649,797.109,6.80243e-05,4.90083e-05,9.95483e-05,0.000506813,0.00679078,0.0628809,-0.0275463,-0.0337988,-1.25398e-06,9.83687e-07,1.71733e-06,0.0588291,0.0649000020880548,-1.2539792137999939e-06,9.836874839130871e-07,-0.027170360501593493,1.7173314745821955e-06,-0.033234001610344954
649,0.065,797.304,6.79965e-05,4.8989e-05,0.000102207,0.000504489,0.00678884,0.0629748,-0.0275881,-0.0338505,-1.25478e-06,9.84218e-07,1.71935e-06,0.0589217,0.0650000008931213,-1.2547792127559632e-06,9.842184842678847e-07,-0.02721102393065289,1.7193514780800001e-06,-0.03328398212045436
650,0.0651,797.5,6.79687e-05,4.89697e-05,0.000104861,0.00050217,0.0067869,0.0630687,-0.02763,-0.0339022,-1.25559e-06,9.84748e-07,1.72138e-06,0.0590143,0.06510000908851654,-1.2555892117127598e-06,9.847484847558263e-07,-0.027251782934843094,1.7213814815786321e-06,-0.033333960046638245
651,0.0652,797.694,6.7941e-05,4.89504e-05,0.00010751,0.000499855,0.00678496,0.0631626,-0.0276718,-0.0339539,-1.25639e-06,9.85277e-07,1.7234e-06,0.0591069,0.06520002667512204,-1.2563892107797514e-06,9.85277485376912e-07,-0.027292442960516028,1.7234014850764368e-06,-0.03338393538903006
652,0.0653,797.889,6.79132e-05,4.89311e-05,0.000110155,0.000497544,0.00678303,0.0632564,-0.0277136,-0.0340055,-1.25719e-06,9.85805e-07,1.72543e-06,0.0591995,0.06529994712382003,-1.2571892097357207e-06,9.85805485909097e-07,-0.027333101286635353,1.7254314885750688e-06,-0.033433811491149434
653,0.0654,798.084,6.78855e-05,4.89118e-05,0.000112795,0.000495238,0.00678109,0.0633503,-0.0277555,-0.0340572,-1.25799e-06,9.86331e-07,1.72745e-06,0.0592921,0.06539998348548859,-1.25798920869169e-06,9.863314864855255e-07,-0.027373855175891415,1.7274514920728734e-06,-0.03348378167135513
654,0.0655,798.278,6.78577e-05,4.88925e-05,0.00011543,0.000492936,0.00677916,0.0634442,-0.0277973,-0.0341089,-1.25878e-06,9.86857e-07,1.72947e-06,0.0593847,0.06550002924101261,-1.2587792077578541e-06,9.868574868399094e-07,-0.02741451009905127,1.729471495570678e-06,-0.03353374926816921
655,0.0656,798.472,6.783e-05,4.88733e-05,0.00011806,0.000490638,0.00677723,0.063538,-0.0278391,-0.0341605,-1.25958e-06,9.87381e-07,1.73149e-06,0.0594773,0.06559997783127103,-1.2595792067138234e-06,9.873814874605813e-07,-0.02745516332287079,1.7314914990684827e-06,-0.03358361764009188
656,0.0657,798.665,6.78023e-05,4.8854e-05,0.000120686,0.000488345,0.00677531,0.0636319,-0.0278809,-0.0342122,-1.26037e-06,9.87904e-07,1.73351e-06,0.0595698,0.06570004236714588,-1.2603692057799876e-06,9.879044879923526e-07,-0.02749581484742114,1.7335115025662873e-06,-0.033633580075519864
657,0.0658,798.859,6.77746e-05,4.88347e-05,0.000123307,0.000486056,0.00677338,0.0637257,-0.0279227,-0.0342638,-1.26117e-06,9.88426e-07,1.73553e-06,0.0596624,0.06580000971951527,-1.2611692047359568e-06,9.884264884352234e-07,-0.027536464672773264,1.735531506064092e-06,-0.03368344329630579
658,0.0659,799.052,6.77469e-05,4.88154e-05,0.000125923,0.000483771,0.00677146,0.0638195,-0.0279645,-0.0343155,-1.26196e-06,9.88946e-07,1.73754e-06,0.0597549,0.06589998644926243,-1.2619592036910987e-06,9.889464889223376e-07,-0.027577112798998216,1.7375415095610691e-06,-0.0337334005708807
659,0.066,799.245,6.77192e-05,4.87961e-05,0.000128535,0.00048149,0.00676954,0.0639133,-0.0280063,-0.0343671,-1.26275e-06,9.89466e-07,1.73956e-06,0.0598475,0.06599997255726642,-1.2627492027572629e-06,9.894664896314964e-07,-0.027617759226166938,1.7395615130588737e-06,-0.03378325864106191
660,0.0661,799.437,6.76915e-05,4.87768e-05,0.000131142,0.000479213,0.00676762,0.0640071,-0.0280481,-0.0344187,-1.26353e-06,9.89984e-07,1.74157e-06,0.05994,0.06609996804440743,-1.2635292017115773e-06,9.899844899408095e-07,-0.027658403954350597,1.741571516555851e-06,-0.033833114138633213
661,0.0662,799.629,6.76638e-05,4.87575e-05,0.000133745,0.000476941,0.00676571,0.0641009,-0.0280899,-0.0344704,-1.26432e-06,9.90501e-07,1.74359e-06,0.0600326,0.06619997291156499,-1.2643192007777415e-06,9.905014906053111e-07,-0.027699046983620024,1.7435915200536556e-06,-0.033883063675425484
662,0.0663,799.822,6.76362e-05,4.87383e-05,0.000136343,0.000474673,0.00676379,0.0641947,-0.0281317,-0.034522,-1.26511e-06,9.91017e-07,1.7456e-06,0.0601251,0.06629998715961882,-1.2651091997328834e-06,9.910174909588676e-07,-0.027739688314046385,1.7456015235506328e-06,-0.033932914023189875
663,0.0664,800.013,6.76085e-05,4.8719e-05,0.000138936,0.000472409,0.00676188,0.0642885,-0.0281735,-0.0345736,-1.26589e-06,9.91531e-07,1.74761e-06,0.0602176,0.06640001078944935,-1.2658891987982201e-06,9.915314915787121e-07,-0.027780327945700622,1.74761152704761e-06,-0.0339827617987426
664,0.0665,800.205,6.75809e-05,4.86997e-05,0.000141525,0.000470149,0.00675997,0.0643823,-0.0282153,-0.0346252,-1.26667e-06,9.92045e-07,1.74962e-06,0.0603101,0.0665000438019363,-1.2666691977525346e-06,9.92045491976512e-07,-0.02782096587865379,1.7496215305445872e-06,-0.03403260700221644
665,0.0666,800.396,6.75532e-05,4.86805e-05,0.000144109,0.000467893,0.00675806,0.064476,-0.0282571,-0.0346768,-1.26745e-06,9.92557e-07,1.75163e-06,0.0604026,0.06659997953795682,-1.2674491968178714e-06,9.925574926406e-07,-0.027861602112976835,1.7516315340415645e-06,-0.03408244963374418
666,0.0667,800.587,6.75256e-05,4.86612e-05,0.000146689,0.000465641,0.00675616,0.0645698,-0.0282988,-0.0347284,-1.26823e-06,9.93069e-07,1.75364e-06,0.0604951,0.06670003130839208,-1.2682291957721858e-06,9.930694930826434e-07,-0.027902139438959583,1.7536415375385417e-06,-0.034132289693458495
667,0.0668,800.778,6.7498e-05,4.86419e-05,0.000149265,0.000463394,0.00675425,0.0646635,-0.0283406,-0.03478,-1.26901e-06,9.93579e-07,1.75564e-06,0.0605876,0.06679998578411972,-1.2690091948375226e-06,9.935794935689302e-07,-0.027942772280298733,1.7556415410346915e-06,-0.03418212718149205
668,0.0669,800.969,6.74704e-05,4.86227e-05,0.000151835,0.00046115,0.00675235,0.0647573,-0.0283824,-0.0348316,-1.26979e-06,9.94088e-07,1.75765e-06,0.0606801,0.06690005631602092,-1.269789193791837e-06,9.94088494188361e-07,-0.0279834034232207,1.7576515447537133e-06,-0.03423196209797763
669,0.067,801.159,6.74428e-05,4.86034e-05,0.000154402,0.000458911,0.00675045,0.064851,-0.0284241,-0.0348832,-1.27056e-06,9.94595e-07,1.75965e-06,0.0607725,0.06700002953496975,-1.2705591928563464e-06,9.945954946299906e-07,-0.028023935670194677,1.7596515482498631e-06,-0.0342817944430478
670,0.0671,801.349,6.74152e-05,4.85841e-05,0.000156963,0.000456676,0.00674855,0.0649447,-0.0284659,-0.0349348,-1.27133e-06,9.95102e-07,1.76166e-06,0.060865,0.06710001212184835,-1.2713291918098335e-06,9.951024950716203e-07,-0.028064563420557742,1.7616615517468404e-06,-0.03433162421683533
671,0.0672,801.539,6.73876e-05,4.85649e-05,0.000159521,0.000454445,0.00674666,0.0650384,-0.0285077,-0.0349864,-1.2721e-06,9.95608e-07,1.76366e-06,0.0609575,0.06720000407753401,-1.2720991908743429e-06,9.95608495646394e-07,-0.028105189472716452,1.7636615552429902e-06,-0.0343814514194728
672,0.0673,801.729,6.73601e-05,4.85456e-05,0.000162074,0.000452218,0.00674476,0.0651321,-0.0285494,-0.035038,-1.27288e-06,9.96112e-07,1.76566e-06,0.0610499,0.06730000540290515,-1.2728791899396796e-06,9.961124960433665e-07,-0.02814571664131804,1.76566155873914e-06,-0.034431276051092974
673,0.0674,801.918,6.73325e-05,4.85264e-05,0.000164622,0.000449994,0.00674287,0.0652258,-0.0285912,-0.0350895,-1.27364e-06,9.96615e-07,1.76766e-06,0.0611423,0.06740001609883928,-1.2736391888923393e-06,9.96615496573483e-07,-0.028186339301342955,1.7676615622352898e-06,-0.03448100155993361
674,0.0675,802.107,6.7305e-05,4.85072e-05,0.000167166,0.000447775,0.00674098,0.0653195,-0.0286329,-0.0351411,-1.27441e-06,9.97117e-07,1.76966e-06,0.0612348,0.06750003616621458,-1.2744091879568487e-06,9.97117497014699e-07,-0.028226863086067255,1.7696615659534842e-06,-0.03453082105489902
675,0.0676,802.296,6.72774e-05,4.84879e-05,0.000169706,0.00044556,0.00673909,0.0654131,-0.0286747,-0.0351927,-1.27518e-06,9.97618e-07,1.77166e-06,0.0613272,0.06759995884590819,-1.2751791869103357e-06,9.97618497589059e-07,-0.028267482354241702,1.771661569449634e-06,-0.03458063797924493
676,0.0677,802.484,6.72499e-05,4.84687e-05,0.000172241,0.000443349,0.00673721,0.0655068,-0.0287164,-0.0352442,-1.27594e-06,9.98118e-07,1.77366e-06,0.0614196,0.06769999764879686,-1.2759391859740177e-06,9.981184980745184e-07,-0.028308002755371264,1.7736615729457839e-06,-0.03463035579614415
677,0.0678,802.673,6.72224e-05,4.84494e-05,0.000174772,0.000441142,0.00673532,0.0656005,-0.0287581,-0.0352958,-1.2767e-06,9.98617e-07,1.77565e-06,0.061512,0.06780004582576038,-1.2766991850376996e-06,9.986174986931218e-07,-0.028348521466835308,1.7756515764411063e-06,-0.034680167584629884
678,0.0679,802.861,6.71949e-05,4.84302e-05,0.000177298,0.000438939,0.00673344,0.0656941,-0.0287999,-0.0353473,-1.27747e-06,9.99114e-07,1.77765e-06,0.0616044,0.06789999658767254,-1.2774691839911867e-06,9.99114499133924e-07,-0.028389135649795727,1.777651579937256e-06,-0.03472988027588653
679,0.068,803.049,6.71674e-05,4.8411e-05,0.000179821,0.00043674,0.00673156,0.0657877,-0.0288416,-0.0353989,-1.27823e-06,9.99611e-07,1.77964e-06,0.0616968,0.06799995670541348,-1.2782291830548687e-06,9.996114995747263e-07,-0.028429650978088583,1.779641583654623e-06,-0.03477968692904154
680,0.0681,803.236,6.71399e-05,4.83918e-05,0.000182338,0.000434545,0.00672968,0.0658814,-0.0288833,-0.0354504,-1.27899e-06,1.00011e-06,1.78164e-06,0.0617892,0.06810003298985756,-1.2789891821185506e-06,1.0001105001933297e-06,-0.02847016461692764,1.781641587150773e-06,-0.03482939449518396
681,0.0682,803.424,6.71124e-05,4.83726e-05,0.000184852,0.000432354,0.0067278,0.065975,-0.028925,-0.035502,-1.27974e-06,1.0006e-06,1.78363e-06,0.0618816,0.06820001183188218,-1.2797391811814052e-06,1.0006005006779617e-06,-0.028510676566383064,1.7836315906460953e-06,-0.03487919601353773
682,0.0683,803.611,6.7085e-05,4.83533e-05,0.000187361,0.000430166,0.00672593,0.0660686,-0.0289667,-0.0355535,-1.2805e-06,1.00109e-06,1.78562e-06,0.061974,0.06830000003236458,-1.2804991801340648e-06,1.0010905011625937e-06,-0.028551186826525465,1.7856215941414177e-06,-0.03492889845509417
683,0.0684,803.798,6.70575e-05,4.83341e-05,0.000189866,0.000427983,0.00672406,0.0661622,-0.0290085,-0.035605,-1.28125e-06,1.00158e-06,1.78761e-06,0.0620663,0.0683999975921803,-1.2812491791969194e-06,1.0015805016472257e-06,-0.028591792538250838,1.7876115978587848e-06,-0.03497859833704087
684,0.0685,803.984,6.70301e-05,4.83149e-05,0.000192366,0.000425803,0.00672219,0.0662558,-0.0290502,-0.0356566,-1.28201e-06,1.00208e-06,1.7896e-06,0.0621587,0.06850000451220573,-1.2820091782606013e-06,1.002080502132685e-06,-0.02863229941592771,1.7896016013541072e-06,-0.03502839215667508
685,0.0686,804.171,6.70027e-05,4.82957e-05,0.000194863,0.000423628,0.00672032,0.0663494,-0.0290919,-0.0357081,-1.28276e-06,1.00257e-06,1.79158e-06,0.0622511,0.06860002079331706,-1.2827591772124336e-06,1.002570502617317e-06,-0.028672804604503055,1.7915816048486022e-06,-0.035078086914827944
686,0.0687,804.357,6.69752e-05,4.82765e-05,0.000197355,0.000421456,0.00671845,0.066443,-0.0291336,-0.0357596,-1.28351e-06,1.00305e-06,1.79357e-06,0.0623434,0.0687000464363905,-1.2835091762752882e-06,1.0030505031011216e-06,-0.028713308104047153,1.7935716083439246e-06,-0.035127779113766744
687,0.0688,804.543,6.69478e-05,4.82573e-05,0.000199843,0.000419288,0.00671659,0.0665365,-0.0291753,-0.0358111,-1.28426e-06,1.00354e-06,1.79556e-06,0.0624357,0.06879997456229936,-1.2842591753381427e-06,1.0035405035857536e-06,-0.028753809914630613,1.7955616120612916e-06,-0.03517746875362315
688,0.0689,804.728,6.69204e-05,4.82382e-05,0.000202326,0.000417124,0.00671472,0.0666301,-0.029217,-0.0358626,-1.285e-06,1.00403e-06,1.79754e-06,0.0625281,0.06890001892192132,-1.2849991744001699e-06,1.0040305040703856e-06,-0.02879431003632371,1.7975416155557866e-06,-0.03522715583452907
689,0.069,804.914,6.6893e-05,4.8219e-05,0.000204806,0.000414964,0.00671286,0.0667236,-0.0292587,-0.0359141,-1.28575e-06,1.00451e-06,1.79952e-06,0.0626204,0.06899996574613176,-1.2857491734630244e-06,1.0045105045541902e-06,-0.02883480846919706,1.7995216190502816e-06,-0.03527684035661616
690,0.0691,805.099,6.68657e-05,4.81998e-05,0.000207281,0.000412808,0.006711,0.0668172,-0.0293003,-0.0359656,-1.28649e-06,1.005e-06,1.80151e-06,0.0627127,0.06910002882580457,-1.2864891725250516e-06,1.0050005050388222e-06,-0.02887520810084654,1.8015116227676486e-06,-0.03532652232001621
691,0.0692,805.284,6.68383e-05,4.81806e-05,0.000209752,0.000410655,0.00670914,0.0669107,-0.029342,-0.0360171,-1.28724e-06,1.00548e-06,1.80349e-06,0.062805,0.06919999435181534,-1.2872391714768838e-06,1.0054805055226268e-06,-0.028915703160340867,1.8034916262621437e-06,-0.03537620172486111
692,0.0693,805.469,6.6811e-05,4.81614e-05,0.000212219,0.000408506,0.00670729,0.0670042,-0.0293837,-0.0360686,-1.28798e-06,1.00596e-06,1.80547e-06,0.0628973,0.06929996922503978,-1.287979170538911e-06,1.0059605060064314e-06,-0.028956196531226497,1.8054716297566387e-06,-0.03542587857128254
693,0.0694,805.653,6.67836e-05,4.81423e-05,0.000214681,0.000406361,0.00670543,0.0670977,-0.0294254,-0.0361201,-1.28872e-06,1.00644e-06,1.80745e-06,0.0629896,0.06939995344635186,-1.2887191696009381e-06,1.006440506490236e-06,-0.028996688213573707,1.8074516334731783e-06,-0.035475552859412174
694,0.0695,805.837,6.67563e-05,4.81231e-05,0.00021714,0.00040422,0.00670358,0.0671913,-0.029467,-0.0361716,-1.28946e-06,1.00692e-06,1.80943e-06,0.0630819,0.06950005396662573,-1.2894591686629653e-06,1.0069205069740406e-06,-0.029037081111165874,1.8094316369676733e-06,-0.0355252245893819
695,0.0696,806.022,6.6729e-05,4.8104e-05,0.000219594,0.000402083,0.00670173,0.0672847,-0.0295087,-0.036223,-1.2902e-06,1.0074e-06,1.8114e-06,0.0631741,0.06959994993673524,-1.2901991677249924e-06,1.0074005074578452e-06,-0.029077569420696392,1.8114016406833855e-06,-0.03557479731880797
696,0.0697,806.205,6.67017e-05,4.80848e-05,0.000222044,0.000399949,0.00669989,0.0673782,-0.0295504,-0.0362745,-1.29093e-06,1.00788e-06,1.81338e-06,0.0632664,0.06969996220755514,-1.2909291667861922e-06,1.0078805079416497e-06,-0.029118056041899654,1.8133816441778805e-06,-0.035624463937819595
697,0.0698,806.389,6.66744e-05,4.80657e-05,0.00022449,0.00039782,0.00669804,0.0674717,-0.029592,-0.036326,-1.29167e-06,1.00836e-06,1.81535e-06,0.0633587,0.06979998382995967,-1.2916691658482193e-06,1.0083605084254543e-06,-0.029158443890695218,1.8153516476715481e-06,-0.03567412799906622
698,0.0699,806.572,6.66471e-05,4.80465e-05,0.000226932,0.000395693,0.00669619,0.0675652,-0.0296337,-0.0363774,-1.2924e-06,1.00883e-06,1.81733e-06,0.0634509,0.06990001480482277,-1.2923991647983968e-06,1.0088305089084315e-06,-0.02919892713950345,1.8173316513880877e-06,-0.03572369307505374
699,0.07,806.755,6.66198e-05,4.80274e-05,0.00022937,0.000393571,0.00669435,0.0676586,-0.0296753,-0.0364289,-1.29313e-06,1.00931e-06,1.8193e-06,0.0635432,0.06999994813301935,-1.2931291638595965e-06,1.009310509392236e-06,-0.029239311624131292,1.8193016548817553e-06,-0.03577335202613141
700,0.0701,806.938,6.65926e-05,4.80083e-05,0.000231804,0.000391452,0.00669251,0.0677521,-0.029717,-0.0364803,-1.29386e-06,1.00978e-06,1.82127e-06,0.0636354,0.07009999780541909,-1.2938591629207963e-06,1.0097805098752133e-06,-0.02927979150082527,1.8212716585974675e-06,-0.03582291200213494
701,0.0702,807.121,6.65653e-05,4.79891e-05,0.000234233,0.000389337,0.00669067,0.0678455,-0.0297586,-0.0365318,-1.29459e-06,1.01025e-06,1.82324e-06,0.0637276,0.07019994981290023,-1.294589161981996e-06,1.0102505103581905e-06,-0.02932017262156572,1.8232416620911351e-06,-0.03587256584356946
702,0.0703,807.303,6.65381e-05,4.797e-05,0.000236659,0.000387226,0.00668884,0.067939,-0.0298003,-0.0365832,-1.29532e-06,1.01072e-06,1.82521e-06,0.0638198,0.07030001818633136,-1.2953191610431958e-06,1.0107205108411677e-06,-0.02936064912642644,1.8252116658068473e-06,-0.035922120720113915
703,0.0704,807.485,6.65109e-05,4.79509e-05,0.000239081,0.000385119,0.006687,0.0680324,-0.0298419,-0.0366347,-1.29605e-06,1.01119e-06,1.82718e-06,0.0639121,0.07039998887658849,-1.2960491601043955e-06,1.0111905113241448e-06,-0.02940102688355961,1.827181669300515e-06,-0.03597176945243097
704,0.0705,807.667,6.64836e-05,4.79318e-05,0.000241498,0.000383015,0.00668517,0.0681258,-0.0298836,-0.0366861,-1.29677e-06,1.01166e-06,1.82915e-06,0.0640043,0.07049996890454424,-1.2967691591647679e-06,1.011660511807122e-06,-0.02944150001686785,1.8291516727941826e-06,-0.03602131923004093
705,0.0706,807.849,6.64565e-05,4.79127e-05,0.000243912,0.000380914,0.00668334,0.0682192,-0.0299252,-0.0367375,-1.2975e-06,1.01213e-06,1.83112e-06,0.0640965,0.07059995827107057,-1.2974991582259676e-06,1.0121305122900992e-06,-0.02948187441067396,1.8311216765098948e-06,-0.036070866460857776
706,0.0707,808.031,6.64293e-05,4.78936e-05,0.000246321,0.000378818,0.00668151,0.0683126,-0.0299668,-0.036789,-1.29822e-06,1.0126e-06,1.83308e-06,0.0641887,0.0706999569770399,-1.29821915728634e-06,1.0126005127730764e-06,-0.029522247124940115,1.833081680002735e-06,-0.03612050753296647
707,0.0708,808.212,6.64021e-05,4.78745e-05,0.000248727,0.000376725,0.00667968,0.068406,-0.0300084,-0.0368404,-1.29894e-06,1.01306e-06,1.83505e-06,0.0642808,0.07079996502332464,-1.2989391563467123e-06,1.0130605132552262e-06,-0.029562618159736376,1.8350516837184472e-06,-0.03617004966563553
708,0.0709,808.393,6.63749e-05,4.78554e-05,0.000251128,0.000374636,0.00667785,0.0684994,-0.0300501,-0.0368918,-1.29966e-06,1.01353e-06,1.83701e-06,0.064373,0.0708999824107972,-1.2996591554070847e-06,1.0135305135161587e-06,-0.029603084554828962,1.8370116872112874e-06,-0.03621958925190438
709,0.071,808.574,6.63478e-05,4.78363e-05,0.000253526,0.00037255,0.00667603,0.0685928,-0.0300917,-0.0369432,-1.30038e-06,1.01399e-06,1.83897e-06,0.0644652,0.07100000914032978,-1.300379154467457e-06,1.0139905139983085e-06,-0.029643452226858047,1.8389716909261722e-06,-0.03626912629190404
710,0.0711,808.754,6.63206e-05,4.78173e-05,0.000255919,0.000370468,0.00667421,0.0686862,-0.0301333,-0.0369946,-1.30109e-06,1.01445e-06,1.84094e-06,0.0645573,0.07110004521279545,-1.3010891536380242e-06,1.0144505144804583e-06,-0.029683818219626956,1.8409416946418844e-06,-0.03631866078576529
711,0.0712,808.935,6.62935e-05,4.77982e-05,0.000258309,0.000368389,0.00667239,0.0687795,-0.0301749,-0.037046,-1.30181e-06,1.01492e-06,1.8429e-06,0.0646495,0.07119998350906287,-1.3018091526983966e-06,1.0149205149634355e-06,-0.029724182533205523,1.8429016981347246e-06,-0.03636819273361891
712,0.0713,809.115,6.62664e-05,4.77791e-05,0.000260695,0.000366314,0.00667057,0.0688729,-0.0302165,-0.0370974,-1.30252e-06,1.01538e-06,1.84486e-06,0.0647416,0.07130003826000664,-1.3025191517579415e-06,1.0153805154455853e-06,-0.02976454516766347,1.8448617018496094e-06,-0.0364177221355958
713,0.0714,809.295,6.62393e-05,4.77601e-05,0.000263076,0.000364243,0.00666875,0.0689662,-0.0302581,-0.0371488,-1.30324e-06,1.01584e-06,1.84681e-06,0.0648338,0.07139999521649587,-1.3032391508183139e-06,1.015840515927735e-06,-0.02980490612307085,1.8468117053416222e-06,-0.03646724899182696
714,0.0715,809.475,6.62122e-05,4.7741e-05,0.000265454,0.000362175,0.00666693,0.0690595,-0.0302997,-0.0372002,-1.30395e-06,1.01629e-06,1.84877e-06,0.0649259,0.07149996149940407,-1.3039491498778588e-06,1.0162905164090574e-06,-0.02984526539949728,1.848771709056507e-06,-0.03651677330244307
715,0.0716,809.654,6.61851e-05,4.7722e-05,0.000267828,0.000360111,0.00666512,0.0691529,-0.0303413,-0.0372516,-1.30466e-06,1.01675e-06,1.85073e-06,0.065018,0.07160004426960076,-1.3046591489374038e-06,1.0167505168912072e-06,-0.029885622997012806,1.8507317125493472e-06,-0.03656629506757514
716,0.0717,809.833,6.61581e-05,4.77029e-05,0.000270198,0.00035805,0.00666331,0.0692462,-0.0303829,-0.0373029,-1.30537e-06,1.01721e-06,1.85268e-06,0.0651101,0.07170002921795637,-1.3053691479969487e-06,1.017210517373357e-06,-0.029925978915687268,1.8526817162634046e-06,-0.03661571794893037
717,0.0718,810.012,6.6131e-05,4.76839e-05,0.000272564,0.000355993,0.0066615,0.0693395,-0.0304245,-0.0373543,-1.30608e-06,1.01766e-06,1.85464e-06,0.0652023,0.07180002349534309,-1.3060791470564936e-06,1.0176605178546794e-06,-0.029966333155590386,1.8546417197562448e-06,-0.03666523462843818
718,0.0719,810.191,6.6104e-05,4.76649e-05,0.000274926,0.00035394,0.00665969,0.0694328,-0.030466,-0.0374057,-1.30678e-06,1.01812e-06,1.85659e-06,0.0652943,0.07190002710263088,-1.3067791461152112e-06,1.0181205183368292e-06,-0.03000658871745565,1.8565917234703022e-06,-0.03671474876285419
719,0.072,810.37,6.6077e-05,4.76459e-05,0.000277285,0.000351889,0.00665788,0.0695261,-0.0305076,-0.0374571,-1.30749e-06,1.01857e-06,1.85854e-06,0.0653864,0.0720000400406906,-1.3074891452857784e-06,1.0185705188181515e-06,-0.030046939604060796,1.8585417271843596e-06,-0.036764260352309064
720,0.0721,810.548,6.605e-05,4.76268e-05,0.000279639,0.000349843,0.00665608,0.0696193,-0.0305492,-0.0375084,-1.30819e-06,1.01902e-06,1.8605e-06,0.0654785,0.0720999551003918,-1.308189144344496e-06,1.019020519299474e-06,-0.030087288812103874,1.8605017306771998e-06,-0.03681367307830563
721,0.0722,810.726,6.6023e-05,4.76078e-05,0.00028199,0.0003478,0.00665428,0.0697126,-0.0305908,-0.0375598,-1.30889e-06,1.01947e-06,1.86245e-06,0.0655706,0.07219998669260397,-1.3088891434032135e-06,1.0194705195587517e-06,-0.03012763634165494,1.8624517343912572e-06,-0.036863179583181416
722,0.0723,810.904,6.5996e-05,4.75888e-05,0.000284337,0.00034576,0.00665247,0.0698059,-0.0306323,-0.0376111,-1.30959e-06,1.01992e-06,1.8644e-06,0.0656627,0.07230002761819887,-1.309589142461931e-06,1.019920520040074e-06,-0.030167885209576917,1.8644017381053146e-06,-0.03691258723475166
723,0.0724,811.082,6.5969e-05,4.75698e-05,0.00028668,0.000343724,0.00665068,0.0698991,-0.0306739,-0.0376625,-1.31029e-06,1.02037e-06,1.86634e-06,0.0657547,0.07239997063804537,-1.3102891415206486e-06,1.0203705205213964e-06,-0.030208229386387564,1.8663417415965e-06,-0.03696208865557038
724,0.0725,811.26,6.59421e-05,4.75508e-05,0.000289019,0.000341691,0.00664888,0.0699924,-0.0307154,-0.0377138,-1.31099e-06,1.02082e-06,1.86829e-06,0.0658468,0.07250003022301299,-1.3109891406903884e-06,1.0208205210027188e-06,-0.030248474909767564,1.8682917453105574e-06,-0.03701149123323544
725,0.0726,811.437,6.59151e-05,4.75319e-05,0.000291355,0.000339662,0.00664708,0.0700856,-0.030757,-0.0377651,-1.31169e-06,1.02127e-06,1.87024e-06,0.0659388,0.07259999188397082,-1.311689139749106e-06,1.0212705214840412e-06,-0.030288815734116348,1.8702417488025702e-06,-0.03706089127661316
726,0.0727,811.614,6.58882e-05,4.75129e-05,0.000293686,0.000337636,0.00664529,0.0701788,-0.0307986,-0.0378165,-1.31239e-06,1.02171e-06,1.87218e-06,0.0660309,0.07269996286178948,-1.3123891388078235e-06,1.0217105219645362e-06,-0.03032915488032184,1.8721817525158002e-06,-0.03711038507480002
727,0.0728,811.791,6.58613e-05,4.74939e-05,0.000296014,0.000335614,0.00664349,0.0702721,-0.0308401,-0.0378678,-1.31308e-06,1.02216e-06,1.87413e-06,0.0661229,0.0728000504373374,-1.3130791378657136e-06,1.0221605224458585e-06,-0.030369395385397957,1.8741317562298576e-06,-0.037159780045053936
728,0.0729,811.968,6.58343e-05,4.7475e-05,0.000298338,0.000333595,0.0066417,0.0703653,-0.0308816,-0.0379191,-1.31377e-06,1.0226e-06,1.87607e-06,0.0662149,0.0729000400614821,-1.313769137034626e-06,1.0226005229263535e-06,-0.030409634220527892,1.876071759721043e-06,-0.03720917248141076
729,0.073,812.144,6.58075e-05,4.7456e-05,0.000300659,0.000331579,0.00663991,0.0704585,-0.0309232,-0.0379705,-1.31447e-06,1.02305e-06,1.87802e-06,0.0663069,0.07300003900509422,-1.3144691360933436e-06,1.0230505234076759e-06,-0.030449968340788836,1.8780217634351004e-06,-0.0372586586581396
730,0.0731,812.32,6.57806e-05,4.74371e-05,0.000302975,0.000329567,0.00663813,0.0705517,-0.0309647,-0.0380218,-1.31516e-06,1.02349e-06,1.87996e-06,0.0663989,0.07310004726904218,-1.3151591351512337e-06,1.0234905236661263e-06,-0.03049020383221046,1.8799617671483304e-06,-0.03730804602215376
731,0.0732,812.496,6.57537e-05,4.74181e-05,0.000305288,0.000327559,0.00663634,0.0706448,-0.0310063,-0.0380731,-1.31584e-06,1.02393e-06,1.8819e-06,0.0664909,0.07319995753419373,-1.3158391343193188e-06,1.0239305241466212e-06,-0.030530534600845205,1.8819017708615604e-06,-0.03735743085266108
732,0.0733,812.672,6.57269e-05,4.73992e-05,0.000307597,0.000325553,0.00663456,0.070738,-0.0310478,-0.0381244,-1.31653e-06,1.02437e-06,1.88384e-06,0.0665829,0.07329998443141683,-1.3165291333772089e-06,1.0243705246271162e-06,-0.03057076674883641,1.8838417743527458e-06,-0.03740681314979155
733,0.0734,812.848,6.57e-05,4.73802e-05,0.000309903,0.000323551,0.00663278,0.0708312,-0.0310893,-0.0381757,-1.31722e-06,1.02481e-06,1.88578e-06,0.0666749,0.07340002065158147,-1.317219132435099e-06,1.0248105251076112e-06,-0.030610997227228154,1.8857817780659758e-06,-0.03745619291367519
734,0.0735,813.023,6.56732e-05,4.73613e-05,0.000312204,0.000321553,0.00663099,0.0709243,-0.0311308,-0.038227,-1.3179e-06,1.02525e-06,1.88771e-06,0.0667669,0.07349995884555471,-1.317899131603184e-06,1.0252505255881061e-06,-0.030651226036089718,1.8877117817783784e-06,-0.03750557014444189
735,0.0736,813.198,6.56464e-05,4.73424e-05,0.000314503,0.000319557,0.00662922,0.0710175,-0.0311724,-0.0382783,-1.31859e-06,1.02568e-06,1.88965e-06,0.0668589,0.07360001370420322,-1.3185891306610742e-06,1.0256805260677737e-06,-0.03069155010634006,1.8896517854916084e-06,-0.03755494484222166
736,0.0737,813.373,6.56196e-05,4.73235e-05,0.000316797,0.000317565,0.00662744,0.0711106,-0.0312139,-0.0383296,-1.31927e-06,1.02612e-06,1.89159e-06,0.0669508,0.0736999705183965,-1.319269129718137e-06,1.0261205265482687e-06,-0.030731775572326536,1.8915917889827938e-06,-0.037604317007144394
737,0.0738,813.548,6.55928e-05,4.73046e-05,0.000319088,0.000315577,0.00662566,0.0712038,-0.0312554,-0.0383809,-1.31995e-06,1.02655e-06,1.89352e-06,0.0670428,0.07380004401900142,-1.319949128886222e-06,1.0265505268058916e-06,-0.030771999368990666,1.8935217926951964e-06,-0.0376536866393401
738,0.0739,813.723,6.5566e-05,4.72857e-05,0.000321375,0.000313592,0.00662389,0.0712969,-0.0312969,-0.0384321,-1.32063e-06,1.02699e-06,1.89545e-06,0.0671347,0.07390001945688418,-1.3206291279432847e-06,1.0269905272863866e-06,-0.030812221496401948,1.895451796407599e-06,-0.03770295750923913
739,0.074,813.897,6.55393e-05,4.72668e-05,0.000323658,0.00031161,0.00662212,0.07139,-0.0313384,-0.0384834,-1.32131e-06,1.02742e-06,1.89739e-06,0.0672267,0.0740000042029132,-1.3213091271113697e-06,1.0274205277660542e-06,-0.03085244195462955,1.897391800120829e-06,-0.037752322081306744
740,0.0741,814.071,6.55125e-05,4.72479e-05,0.000325938,0.000309631,0.00662035,0.0714831,-0.0313799,-0.0385347,-1.32199e-06,1.02785e-06,1.89932e-06,0.0673186,0.07409999825795555,-1.3219891261684324e-06,1.0278505282457218e-06,-0.03089266074374286,1.899321803611187e-06,-0.037801684121036905
741,0.0742,814.245,6.54858e-05,4.72291e-05,0.000328214,0.000307656,0.00661858,0.0715762,-0.0314214,-0.0385859,-1.32267e-06,1.02828e-06,1.90125e-06,0.0674105,0.07420000162287788,-1.3226691252254952e-06,1.0282805287253893e-06,-0.030932877863810937,1.9012518073235896e-06,-0.0378509474136588
742,0.0743,814.419,6.54591e-05,4.72102e-05,0.000330486,0.000305684,0.00661681,0.0716693,-0.0314629,-0.0386372,-1.32334e-06,1.02871e-06,1.90318e-06,0.0675024,0.07430001429854682,-1.3233391243927528e-06,1.028710529205057e-06,-0.030973093314903166,1.9031818110359922e-06,-0.03790030439403913
743,0.0744,814.592,6.54324e-05,4.71913e-05,0.000332755,0.000303715,0.00661504,0.0717624,-0.0315044,-0.0386885,-1.32402e-06,1.02914e-06,1.90511e-06,0.0675943,0.07440003628582925,-1.3240191234498155e-06,1.0291405294626799e-06,-0.031013307097088938,1.9051118147483947e-06,-0.03794965884247126
744,0.0745,814.765,6.54057e-05,4.71725e-05,0.000335021,0.00030175,0.00661328,0.0718554,-0.0315458,-0.0387397,-1.32469e-06,1.02957e-06,1.90704e-06,0.0676863,0.07449996013559068,-1.3246891226170732e-06,1.0295705299423474e-06,-0.03105342231578434,1.9070418184607973e-06,-0.03799891455898141
745,0.0746,814.939,6.5379e-05,4.71537e-05,0.000337282,0.000299787,0.00661152,0.0719485,-0.0315873,-0.038791,-1.32536e-06,1.03e-06,1.90896e-06,0.0677781,0.0746000007386971,-1.3253591216733085e-06,1.030000530422015e-06,-0.031093632764385593,1.9089618221723725e-06,-0.038048263948841865
746,0.0747,815.111,6.53523e-05,4.71348e-05,0.00033954,0.000297828,0.00660976,0.0720416,-0.0316288,-0.0388422,-1.32603e-06,1.03043e-06,1.91089e-06,0.06787,0.07470005065601737,-1.3260291208405661e-06,1.0304305309016826e-06,-0.031133841544288,1.9108918256627305e-06,-0.03809751461689981
747,0.0748,815.284,6.53257e-05,4.7116e-05,0.000341795,0.000295873,0.006608,0.0721346,-0.0316703,-0.0388934,-1.3267e-06,1.03085e-06,1.91281e-06,0.0679619,0.07480000240841278,-1.3266991198968014e-06,1.0308505313805227e-06,-0.031174048655560505,1.9128118293743057e-06,-0.03814676276338813
748,0.0749,815.457,6.5299e-05,4.70972e-05,0.000344046,0.00029392,0.00660624,0.0722276,-0.0317117,-0.0389447,-1.32737e-06,1.03127e-06,1.91474e-06,0.0680538,0.07489996345675354,-1.327369119064059e-06,1.031270531859363e-06,-0.031214157219693228,1.9147418330867083e-06,-0.03819610456883027
749,0.075,815.629,6.52724e-05,4.70784e-05,0.000346293,0.000291971,0.00660449,0.0723207,-0.0317532,-0.0389959,-1.32803e-06,1.0317e-06,1.91666e-06,0.0681456,0.07500004130190274,-1.328029118119467e-06,1.0317005321169859e-06,-0.03125436099793444,1.9166618367982835e-06,-0.038245347667642204
750,0.0751,815.801,6.52458e-05,4.70596e-05,0.000348537,0.000290025,0.00660273,0.0724137,-0.0317947,-0.0390471,-1.3287e-06,1.03212e-06,1.91858e-06,0.0682375,0.07510002095472568,-1.3286991172867246e-06,1.032120532595826e-06,-0.03129456310775347,1.9185818405098587e-06,-0.0382945882452721
751,0.0752,815.973,6.52192e-05,4.70408e-05,0.000350778,0.000288082,0.00660098,0.0725067,-0.0318361,-0.0390983,-1.32936e-06,1.03254e-06,1.9205e-06,0.0683293,0.07520000990608855,-1.3293591164531549e-06,1.0325405330746662e-06,-0.031334666682691026,1.920501844221434e-06,-0.03834382630184896
752,0.0753,816.145,6.51926e-05,4.7022e-05,0.000353014,0.000286142,0.00659923,0.0725997,-0.0318776,-0.0391496,-1.33002e-06,1.03296e-06,1.92242e-06,0.0684212,0.07530000815685645,-1.3300191155085628e-06,1.0329605335535064e-06,-0.03137486545989332,1.922421847933009e-06,-0.038393157998190874
753,0.0754,816.316,6.51661e-05,4.70032e-05,0.000355248,0.000284206,0.00659748,0.0726927,-0.031919,-0.0392008,-1.33069e-06,1.03338e-06,1.92434e-06,0.068513,0.07540001570789401,-1.3306891146758204e-06,1.0333805340323465e-06,-0.03141496571038238,1.9243418516445843e-06,-0.03844239100812552
754,0.0755,816.487,6.51395e-05,4.69844e-05,0.000357478,0.000282273,0.00659573,0.0727857,-0.0319605,-0.039252,-1.33135e-06,1.0338e-06,1.92626e-06,0.0686048,0.07550003256006632,-1.3313491137312283e-06,1.033800534289142e-06,-0.03145516115524416,1.926261855134115e-06,-0.0384916214973946
755,0.0756,816.658,6.5113e-05,4.69656e-05,0.000359704,0.000280343,0.00659399,0.0728786,-0.0320019,-0.0393032,-1.332e-06,1.03422e-06,1.92818e-06,0.0686967,0.07559995115423801,-1.3319991128968312e-06,1.0342205347679823e-06,-0.031495258081560173,1.92818185884569e-06,-0.038540849466127236
756,0.0757,816.829,6.50864e-05,4.69469e-05,0.000361927,0.000278416,0.00659224,0.0729716,-0.0320434,-0.0393544,-1.33266e-06,1.03463e-06,1.93009e-06,0.0687885,0.07569998660127153,-1.3326591120632614e-06,1.034630535245995e-06,-0.03153545019435766,1.930091862556438e-06,-0.03859007491445232
757,0.0758,817.0,6.50599e-05,4.69281e-05,0.000364146,0.000276492,0.0065905,0.0730646,-0.0320848,-0.0394056,-1.33332e-06,1.03505e-06,1.93201e-06,0.0688803,0.07580003135203439,-1.3333191111186693e-06,1.0350505357248352e-06,-0.031575543796776406,1.932011866268013e-06,-0.038639297842498976
758,0.0759,817.17,6.50334e-05,4.69094e-05,0.000366362,0.000274571,0.00658876,0.0731575,-0.0321262,-0.0394568,-1.33397e-06,1.03546e-06,1.93392e-06,0.0689721,0.07589997781738833,-1.3339691102842721e-06,1.0354605359808033e-06,-0.03161563573935422,1.933921869978761e-06,-0.03868851825039621
759,0.076,817.341,6.5007e-05,4.68906e-05,0.000368575,0.000272654,0.00658702,0.0732505,-0.0321677,-0.0395079,-1.33463e-06,1.03588e-06,1.93584e-06,0.0690638,0.07600004116819914,-1.33462910933968e-06,1.0358805364596435e-06,-0.03165582285658264,1.935841873690336e-06,-0.03873764001204194
760,0.0761,817.511,6.49805e-05,4.68719e-05,0.000370784,0.000270739,0.00658528,0.0733434,-0.0322091,-0.0395591,-1.33528e-06,1.03629e-06,1.93775e-06,0.0691556,0.07610000621532809,-1.3352791085052829e-06,1.0362905369376563e-06,-0.031695911475676186,1.937751877401084e-06,-0.03878685538494908
761,0.0762,817.681,6.4954e-05,4.68532e-05,0.000372989,0.000268828,0.00658354,0.0734363,-0.0322505,-0.0396103,-1.33593e-06,1.0367e-06,1.93966e-06,0.0692474,0.07619998054964139,-1.3359291076708857e-06,1.036700537415669e-06,-0.031735998435135304,1.9396618811118316e-06,-0.0388360682380936
762,0.0763,817.85,6.49276e-05,4.68345e-05,0.000375191,0.00026692,0.00658181,0.0735292,-0.0322919,-0.0396615,-1.33658e-06,1.03711e-06,1.94157e-06,0.0693392,0.07629996417200191,-1.3365791067254662e-06,1.0371105378936818e-06,-0.031776083735028715,1.9415718848225794e-06,-0.03888527857160451
763,0.0764,818.02,6.49012e-05,4.68158e-05,0.00037739,0.000265015,0.00658008,0.0736221,-0.0323333,-0.0397126,-1.33723e-06,1.03752e-06,1.94348e-06,0.0694309,0.0763999570832723,-1.337229105891069e-06,1.03752053814965e-06,-0.03181616737542492,1.943481888533327e-06,-0.038934390279054654
764,0.0765,818.189,6.48748e-05,4.67971e-05,0.000379585,0.000263113,0.00657834,0.073715,-0.0323748,-0.0397638,-1.33788e-06,1.03793e-06,1.94539e-06,0.0695227,0.07649995928431563,-1.3378791050566718e-06,1.0379305386276627e-06,-0.03185634617076316,1.945391892244075e-06,-0.03898359557860598
765,0.0766,818.358,6.48484e-05,4.67784e-05,0.000381777,0.000261214,0.00657661,0.0738079,-0.0324162,-0.0398149,-1.33853e-06,1.03834e-06,1.9473e-06,0.0696144,0.07659997077599501,-1.3385291042222747e-06,1.0383405391056755e-06,-0.03189642648836333,1.9473018959548227e-06,-0.03903270226218547
766,0.0767,818.527,6.4822e-05,4.67597e-05,0.000383966,0.000259318,0.00657489,0.0739008,-0.0324576,-0.0398661,-1.33917e-06,1.03874e-06,1.9492e-06,0.0697061,0.07669999155917351,-1.3391691032760278e-06,1.0387405395828608e-06,-0.03193650514667279,1.949201899664743e-06,-0.03908190252829202
767,0.0768,818.696,6.47956e-05,4.6741e-05,0.000386151,0.000257426,0.00657316,0.0739937,-0.032499,-0.0399172,-1.33982e-06,1.03915e-06,1.95111e-06,0.0697979,0.07680002163471444,-1.3398191024416306e-06,1.039150539838829e-06,-0.03197658214576016,1.951111903375491e-06,-0.039131004188514784
768,0.0769,818.864,6.47693e-05,4.67224e-05,0.000388333,0.000255536,0.00657143,0.0740865,-0.0325404,-0.0399684,-1.34046e-06,1.03956e-06,1.95301e-06,0.0698896,0.07689995331348043,-1.340459101606406e-06,1.0395605403168418e-06,-0.032016657485694044,1.9530119070854113e-06,-0.0391801994216916
769,0.077,819.033,6.47429e-05,4.67037e-05,0.000390511,0.000253649,0.00656971,0.0741794,-0.0325818,-0.0400195,-1.3411e-06,1.03996e-06,1.95492e-06,0.0699813,0.07700000196633106,-1.3410991007711814e-06,1.0399605407940271e-06,-0.03205673116654317,1.954921910796159e-06,-0.03922929605907133
770,0.0771,819.201,6.47166e-05,4.66851e-05,0.000392686,0.000251766,0.00656799,0.0742722,-0.0326231,-0.0400707,-1.34174e-06,1.04036e-06,1.95682e-06,0.070073,0.0770999522041329,-1.3417390998249346e-06,1.0403605412712125e-06,-0.032096706398051844,1.9568219145060795e-06,-0.03927848625983321
771,0.0772,819.369,6.46903e-05,4.66664e-05,0.000394858,0.000249885,0.00656627,0.0743651,-0.0326645,-0.0401218,-1.34238e-06,1.04077e-06,1.95872e-06,0.0701647,0.0772000194377438,-1.34237909898971e-06,1.0407705415271806e-06,-0.03213677676494464,1.958721918216e-06,-0.039327577874883946
772,0.0773,819.536,6.4664e-05,4.66478e-05,0.000397026,0.000248008,0.00656455,0.0744579,-0.0327059,-0.0401729,-1.34302e-06,1.04117e-06,1.96062e-06,0.0702564,0.07729998823802808,-1.3430190981544854e-06,1.041170542004366e-06,-0.032176845472958515,1.9606219219259202e-06,-0.039376666981417174
773,0.0774,819.704,6.46377e-05,4.66292e-05,0.000399191,0.000246133,0.00656283,0.0745507,-0.0327473,-0.040224,-1.34365e-06,1.04157e-06,1.96252e-06,0.0703481,0.07739996631584756,-1.3436490973184334e-06,1.0415705424815513e-06,-0.0322169125221623,1.9625219256358406e-06,-0.03942575357956113
774,0.0775,819.871,6.46114e-05,4.66106e-05,0.000401353,0.000244262,0.00656112,0.0746435,-0.0327887,-0.0402751,-1.34429e-06,1.04197e-06,1.96442e-06,0.0704397,0.0774999536720633,-1.3442890964832088e-06,1.0419705429587367e-06,-0.03225697791262461,1.9644219295678056e-06,-0.03947483766944404
775,0.0776,820.038,6.45852e-05,4.65919e-05,0.000403511,0.000242393,0.0065594,0.0747363,-0.03283,-0.0403263,-1.34493e-06,1.04237e-06,1.96632e-06,0.0705314,0.07759995030753619,-1.344929095536962e-06,1.0423705432138775e-06,-0.03229694487411339,1.966321933277726e-06,-0.039524015298797344
776,0.0777,820.205,6.45589e-05,4.65734e-05,0.000405667,0.000240528,0.00655769,0.0748291,-0.0328714,-0.0403774,-1.34556e-06,1.04276e-06,1.96822e-06,0.070623,0.07769995622312753,-1.34555909470091e-06,1.0427605436902354e-06,-0.032337006951304925,1.9682219369876464e-06,-0.039573094367634676
777,0.0778,820.372,6.45327e-05,4.65548e-05,0.000407818,0.000238666,0.00655598,0.0749219,-0.0329127,-0.0404285,-1.34619e-06,1.04316e-06,1.97011e-06,0.0707147,0.07779997141969841,-1.346189093864858e-06,1.0431605441674208e-06,-0.03237697060766265,1.9701119406967393e-06,-0.03962217092859566
778,0.0779,820.539,6.45065e-05,4.65362e-05,0.000409967,0.000236806,0.00655427,0.0750147,-0.0329541,-0.0404796,-1.34682e-06,1.04356e-06,1.97201e-06,0.0708063,0.07789999589811014,-1.346819093028806e-06,1.0435605444225615e-06,-0.03241702937185731,1.9720119444066597e-06,-0.03967124498180852
779,0.078,820.705,6.44803e-05,4.65176e-05,0.000412112,0.00023495,0.00655256,0.0751075,-0.0329955,-0.0405307,-1.34745e-06,1.04395e-06,1.9739e-06,0.070898,0.07800002965922426,-1.347449092192754e-06,1.0439505448989195e-06,-0.03245708647765344,1.9739019481157527e-06,-0.03972031652740127
780,0.0781,820.871,6.44541e-05,4.6499e-05,0.000414254,0.000233096,0.00655085,0.0752002,-0.0330368,-0.0405817,-1.34808e-06,1.04434e-06,1.9758e-06,0.0709896,0.07809996489390003,-1.348079091356702e-06,1.0443405453752774e-06,-0.03249704517482921,1.975801951825673e-06,-0.03976928954243586
781,0.0782,821.037,6.4428e-05,4.64805e-05,0.000416393,0.000231245,0.00654915,0.075293,-0.0330782,-0.0406328,-1.34871e-06,1.04474e-06,1.97769e-06,0.0710812,0.07820001721299819,-1.34870909052065e-06,1.0447405456304182e-06,-0.03253709896803969,1.977691955534766e-06,-0.0398183560780796
782,0.0783,821.203,6.44018e-05,4.64619e-05,0.000418528,0.000229398,0.00654744,0.0753857,-0.0331195,-0.0406839,-1.34933e-06,1.04513e-06,1.97958e-06,0.0711728,0.07829997098737951,-1.3493290896837706e-06,1.0451305461067761e-06,-0.032577054360767854,1.9795819594659037e-06,-0.03986742010648736
783,0.0784,821.369,6.43757e-05,4.64434e-05,0.000420661,0.000227553,0.00654574,0.0754785,-0.0331608,-0.040735,-1.34996e-06,1.04552e-06,1.98147e-06,0.0712644,0.07840004186790428,-1.3499590888477186e-06,1.045520546583134e-06,-0.0326170081033722,1.9814719631749966e-06,-0.03991648162778738
784,0.0785,821.534,6.43496e-05,4.64249e-05,0.00042279,0.000225711,0.00654404,0.0755712,-0.0332022,-0.0407861,-1.35058e-06,1.04591e-06,1.98336e-06,0.071356,0.07850001418543084,-1.3505790880108393e-06,1.045910547059492e-06,-0.03265705693022036,1.9833619668840896e-06,-0.039965540642107666
785,0.0786,821.7,6.43235e-05,4.64063e-05,0.000424916,0.000223872,0.00654234,0.0756639,-0.0332435,-0.0408371,-1.35121e-06,1.0463e-06,1.98525e-06,0.0714476,0.07859999577082055,-1.351209087063765e-06,1.0463005473138054e-06,-0.03269700736878689,1.9852519705931826e-06,-0.040014501151031334
786,0.0787,821.865,6.42974e-05,4.63878e-05,0.000427038,0.000222036,0.00654064,0.0757566,-0.0332848,-0.0408882,-1.35183e-06,1.04669e-06,1.98714e-06,0.0715392,0.07869998662493316,-1.3518290862268856e-06,1.0466905477901634e-06,-0.03273695615743433,1.9871419743022756e-06,-0.04006355515668203
787,0.0788,822.03,6.42713e-05,4.63693e-05,0.000429157,0.000220203,0.00653895,0.0758493,-0.0333262,-0.0409392,-1.35245e-06,1.04708e-06,1.98902e-06,0.0716308,0.07879998674862732,-1.3524490853900062e-06,1.0470805482665213e-06,-0.032777000018535785,1.989021978010541e-06,-0.04011251066699295
788,0.0789,822.194,6.42452e-05,4.63508e-05,0.000431274,0.000218373,0.00653725,0.075942,-0.0333675,-0.0409903,-1.35307e-06,1.04746e-06,1.99091e-06,0.0717223,0.07889999614276277,-1.3530690845531268e-06,1.0474605485200073e-06,-0.03281694550355507,1.9909119819416787e-06,-0.04016155966448531
789,0.079,822.359,6.42192e-05,4.63323e-05,0.000433387,0.000216546,0.00653556,0.0760347,-0.0334088,-0.0410413,-1.35369e-06,1.04785e-06,1.99279e-06,0.0718139,0.07900001480819863,-1.3536890837162474e-06,1.0478505489963652e-06,-0.032856889338859885,1.9927919856499443e-06,-0.04021051017669375
790,0.0791,822.523,6.41931e-05,4.63139e-05,0.000435496,0.000214722,0.00653387,0.0761274,-0.0334501,-0.0410924,-1.3543e-06,1.04823e-06,1.99468e-06,0.0719054,0.07910004274579463,-1.354299082989563e-06,1.0482305494718958e-06,-0.03289683152451839,1.9946819893590373e-06,-0.040259554166539036
791,0.0792,822.687,6.41671e-05,4.62954e-05,0.000437603,0.0002129,0.00653218,0.07622,-0.0334914,-0.0411434,-1.35492e-06,1.04862e-06,1.99656e-06,0.071997,0.0791999720364076,-1.3549190820416612e-06,1.048620549726209e-06,-0.03293677206059875,1.996561993067303e-06,-0.04030849968115535
792,0.0793,822.851,6.41411e-05,4.62769e-05,0.000439707,0.000211082,0.00653049,0.0763127,-0.0335327,-0.0411945,-1.35553e-06,1.049e-06,1.99844e-06,0.0720885,0.07930001851089785,-1.3555290813149767e-06,1.0490005502017397e-06,-0.03297671094716892,1.9984419967755684e-06,-0.040357538663864934
793,0.0794,823.015,6.41151e-05,4.62585e-05,0.000441807,0.000209266,0.0065288,0.0764053,-0.033574,-0.0412455,-1.35615e-06,1.04938e-06,2.00033e-06,0.07218,0.07939996632012414,-1.3561490804780973e-06,1.0493805506772702e-06,-0.03301664818429717,2.000332000706706e-06,-0.04040647918139928
794,0.0795,823.179,6.40892e-05,4.624e-05,0.000443904,0.000207453,0.00652712,0.076498,-0.0336153,-0.0412965,-1.35676e-06,1.04976e-06,2.00221e-06,0.0722715,0.07950003133494388,-1.3567590796403906e-06,1.0497605509307562e-06,-0.03305658377205156,2.0022120044149716e-06,-0.04045541720303092
795,0.0796,823.342,6.40632e-05,4.62216e-05,0.000445998,0.000205643,0.00652543,0.0765906,-0.0336566,-0.0413475,-1.35737e-06,1.05014e-06,2.00409e-06,0.072363,0.07959999766621517,-1.3573690788026838e-06,1.0501405514062867e-06,-0.03309651771050026,2.004092008123237e-06,-0.04050435272888708
796,0.0797,823.505,6.40372e-05,4.62032e-05,0.000448089,0.000203836,0.00652375,0.0766832,-0.0336979,-0.0413985,-1.35798e-06,1.05052e-06,2.00596e-06,0.0724545,0.07969997325479738,-1.357979077964977e-06,1.0505205518818173e-06,-0.03313644999971144,2.0059620118306754e-06,-0.040553285759095004
797,0.0798,823.668,6.40113e-05,4.61847e-05,0.000450177,0.000202032,0.00652207,0.0767758,-0.0337392,-0.0414496,-1.35859e-06,1.0509e-06,2.00784e-06,0.072546,0.07979995810154761,-1.3585890771272702e-06,1.0509005521353032e-06,-0.033176380639753034,2.0078420157609855e-06,-0.04060231223355559
798,0.0799,823.831,6.39854e-05,4.61663e-05,0.000452261,0.00020023,0.00652039,0.0768684,-0.0337805,-0.0415006,-1.3592e-06,1.05128e-06,2.00972e-06,0.0726375,0.0798999522073236,-1.3591990762895634e-06,1.0512805526108338e-06,-0.03321630963069333,2.009722019469251e-06,-0.04065124026795619
799,0.08,823.994,6.39595e-05,4.61479e-05,0.000454343,0.000198431,0.00651871,0.076961,-0.0338218,-0.0415516,-1.3598e-06,1.05166e-06,2.01159e-06,0.072729,0.07999995557298223,-1.3597990754510292e-06,1.0516605530863643e-06,-0.03325623697260027,2.0115920231766893e-06,-0.04070016580709068
800,0.0801,824.157,6.39336e-05,4.61295e-05,0.000456421,0.000196635,0.00651703,0.0770536,-0.033863,-0.0416026,-1.36041e-06,1.05203e-06,2.01347e-06,0.0728205,0.08009996819938148,-1.3604090746133224e-06,1.0520305533390228e-06,-0.033296065995153445,2.0134720271069995e-06,-0.0407490888510863
801,0.0802,824.319,6.39077e-05,4.61112e-05,0.000458497,0.000194842,0.00651536,0.0771462,-0.0339043,-0.0416536,-1.36101e-06,1.05241e-06,2.01534e-06,0.0729119,0.08019999008737866,-1.3610090737747882e-06,1.0524105538145534e-06,-0.033335990043190655,2.0153420308144376e-06,-0.04079800940007028
802,0.0803,824.481,6.38819e-05,4.60928e-05,0.000460569,0.000193052,0.00651368,0.0772388,-0.0339456,-0.0417046,-1.36162e-06,1.05278e-06,2.01722e-06,0.0730034,0.08030002123783153,-1.3616190730481037e-06,1.052780554067212e-06,-0.03337591244239857,2.017222034522703e-06,-0.04084692745416996
803,0.0804,824.643,6.3856e-05,4.60744e-05,0.000462638,0.000191265,0.00651201,0.0773313,-0.0339869,-0.0417555,-1.36222e-06,1.05316e-06,2.01909e-06,0.0730949,0.08039995361159713,-1.3622190722095695e-06,1.0531605545427425e-06,-0.03341583319284558,2.019092038452186e-06,-0.04089574710309185
804,0.0805,824.805,6.38302e-05,4.60561e-05,0.000464704,0.00018948,0.00651034,0.0774239,-0.0340281,-0.0418065,-1.36282e-06,1.05353e-06,2.02096e-06,0.0731863,0.08050000327952977,-1.3628190713710353e-06,1.0535305550174456e-06,-0.033455655640169946,2.020962042159624e-06,-0.04094466017269571
805,0.0806,824.966,6.38044e-05,4.60377e-05,0.000466767,0.000187698,0.00650867,0.0775164,-0.0340694,-0.0418575,-1.36342e-06,1.0539e-06,2.02283e-06,0.0732777,0.08059995415248977,-1.3634190705325011e-06,1.0539005552701042e-06,-0.0334955730972909,2.0228320458670623e-06,-0.04099357074779664
806,0.0807,825.128,6.37786e-05,4.60194e-05,0.000468827,0.000185919,0.006507,0.077609,-0.0341106,-0.0419085,-1.36402e-06,1.05427e-06,2.0247e-06,0.0733692,0.08070002234132989,-1.364019069693967e-06,1.0542705557448073e-06,-0.033535392259398944,2.024702049796545e-06,-0.041042478828521856
807,0.0808,825.289,6.37528e-05,4.6001e-05,0.000470884,0.000184142,0.00650533,0.0777015,-0.0341519,-0.0419594,-1.36461e-06,1.05464e-06,2.02657e-06,0.0734606,0.08079999171690866,-1.3646090689656276e-06,1.0546405562195105e-06,-0.0335753064234654,2.0265720535039833e-06,-0.04109128852413224
808,0.0809,825.45,6.37271e-05,4.59827e-05,0.000472938,0.000182369,0.00650367,0.077794,-0.0341931,-0.0420104,-1.36521e-06,1.05501e-06,2.02844e-06,0.073552,0.08089997034008256,-1.3652090681270934e-06,1.055010556472169e-06,-0.03361512230062802,2.0284420572114215e-06,-0.04114019162137794
809,0.081,825.611,6.37013e-05,4.59644e-05,0.000474989,0.000180598,0.006502,0.0778865,-0.0342344,-0.0420613,-1.36581e-06,1.05538e-06,2.0303e-06,0.0736434,0.08099995821170691,-1.3658090672885592e-06,1.0553805569468722e-06,-0.033655033171911874,2.030302061140077e-06,-0.04118899634353368
810,0.0811,825.772,6.36756e-05,4.59461e-05,0.000477037,0.00017883,0.00650034,0.077979,-0.0342756,-0.0421123,-1.3664e-06,1.05574e-06,2.03217e-06,0.0737348,0.08109995533263703,-1.3663990664491976e-06,1.0557405571987033e-06,-0.03369484576440018,2.032172064847515e-06,-0.04123789445780757
811,0.0812,825.933,6.36499e-05,4.59278e-05,0.000479082,0.000177064,0.00649868,0.0780715,-0.0343168,-0.0421632,-1.36699e-06,1.05611e-06,2.03403e-06,0.0738262,0.08119996170372867,-1.3669890657208583e-06,1.0561105576734064e-06,-0.03373465671664344,2.0340320685541258e-06,-0.041286694207015584
812,0.0813,826.093,6.36241e-05,4.59095e-05,0.000481123,0.000175301,0.00649702,0.078164,-0.0343581,-0.0422142,-1.36758e-06,1.05648e-06,2.0359e-06,0.0739176,0.08129997732583738,-1.3675790648814967e-06,1.0564805581481096e-06,-0.03377456265125778,2.0359020724836085e-06,-0.041335587338825586
813,0.0814,826.253,6.35985e-05,4.58913e-05,0.000483162,0.000173542,0.00649536,0.0782565,-0.0343993,-0.0422651,-1.36818e-06,1.05684e-06,2.03776e-06,0.0740089,0.08140000219981913,-1.3681790640429625e-06,1.0568405583999407e-06,-0.033814370319232956,2.0377620761902193e-06,-0.041384382115592366
814,0.0815,826.413,6.35728e-05,4.5873e-05,0.000485198,0.000171784,0.00649371,0.078349,-0.0344405,-0.0423161,-1.36877e-06,1.05721e-06,2.03962e-06,0.0741003,0.08150003632652969,-1.368769063203601e-06,1.0572105588746439e-06,-0.03385417634716603,2.0396220801188747e-06,-0.041433270265446076
815,0.0816,826.573,6.35471e-05,4.58547e-05,0.000487231,0.00017003,0.00649205,0.0784414,-0.0344818,-0.042367,-1.36935e-06,1.05757e-06,2.04149e-06,0.0741916,0.0815999715468223,-1.3693490624744342e-06,1.057570559126475e-06,-0.033894077345721585,2.041492083826313e-06,-0.04148206007027855
816,0.0817,826.733,6.35215e-05,4.58365e-05,0.000489261,0.000168278,0.0064904,0.0785339,-0.034523,-0.0424179,-1.36994e-06,1.05793e-06,2.04335e-06,0.074283,0.08170002417155287,-1.3699390616350726e-06,1.0579305596003508e-06,-0.03393388008979281,2.0433520875329236e-06,-0.04153084739177304
817,0.0818,826.892,6.34958e-05,4.58182e-05,0.000491288,0.000166529,0.00648874,0.0786263,-0.0345642,-0.0424688,-1.37053e-06,1.05829e-06,2.04521e-06,0.0743743,0.08179997787157611,-1.370529060795711e-06,1.0582905600742265e-06,-0.033973681194024774,2.045212091461579e-06,-0.04157963223005612
818,0.0819,827.052,6.34702e-05,4.58e-05,0.000493311,0.000164782,0.00648709,0.0787188,-0.0346054,-0.0425198,-1.37111e-06,1.05865e-06,2.04706e-06,0.0744657,0.0819000489977475,-1.3711090600665443e-06,1.0586505603260576e-06,-0.034013480658484974,2.0470620951673624e-06,-0.041628510422407894
819,0.082,827.211,6.34446e-05,4.57818e-05,0.000495332,0.000163038,0.00648544,0.0788112,-0.0346466,-0.0425707,-1.3717e-06,1.05901e-06,2.04892e-06,0.074557,0.08200002118091865,-1.3716990592271827e-06,1.0590105607999334e-06,-0.03405327848324102,2.0489220990960177e-06,-0.0416772902897693
820,0.0821,827.37,6.3419e-05,4.57636e-05,0.000497351,0.000161297,0.00648379,0.0789036,-0.0346878,-0.0426216,-1.37228e-06,1.05937e-06,2.05078e-06,0.0746483,0.08210000260194628,-1.3722790583869937e-06,1.0593705610517645e-06,-0.034093074668360424,2.0507821028026285e-06,-0.04172606767429854
821,0.0822,827.529,6.33935e-05,4.57454e-05,0.000499366,0.000159559,0.00648215,0.078996,-0.034729,-0.0426725,-1.37286e-06,1.05973e-06,2.05264e-06,0.0747396,0.08219999326168415,-1.372859057657827e-06,1.0597305615256403e-06,-0.03413286921391079,2.052642106731284e-06,-0.041774842576122184
822,0.0823,827.687,6.33679e-05,4.57272e-05,0.000501378,0.000157823,0.0064805,0.0790884,-0.0347702,-0.0427234,-1.37344e-06,1.06009e-06,2.05449e-06,0.0748309,0.08229999316098557,-1.373439056817638e-06,1.060090561999516e-06,-0.03417266211995973,2.0544921104370673e-06,-0.041823614995366465
823,0.0824,827.846,6.33424e-05,4.5709e-05,0.000503387,0.00015609,0.00647886,0.0791808,-0.0348114,-0.0427743,-1.37402e-06,1.06044e-06,2.05635e-06,0.0749222,0.08240000230070477,-1.3740190560884713e-06,1.0604405622505197e-06,-0.03421245338657464,2.0563521143657226e-06,-0.041872384932157725
824,0.0825,828.004,6.33168e-05,4.56908e-05,0.000505393,0.000154359,0.00647721,0.0792732,-0.0348526,-0.0428252,-1.3746e-06,1.0608e-06,2.0582e-06,0.0750135,0.08250002068169549,-1.3745990552482823e-06,1.0608005627243955e-06,-0.034252243013823125,2.058202118071506e-06,-0.04192115238662242
825,0.0826,828.162,6.32913e-05,4.56727e-05,0.000507397,0.000152631,0.00647557,0.0793656,-0.0348938,-0.042876,-1.37518e-06,1.06115e-06,2.06005e-06,0.0751048,0.08260004830481149,-1.3751790544080933e-06,1.0611505629753992e-06,-0.034292031001772805,2.060052121999334e-06,-0.04196982155587381
826,0.0827,828.32,6.32658e-05,4.56545e-05,0.000509397,0.000150906,0.00647393,0.0794579,-0.0349349,-0.0429269,-1.37575e-06,1.0615e-06,2.0619e-06,0.0751961,0.0826999769009038,-1.3757490536780992e-06,1.0615005634484476e-06,-0.034331720783668085,2.0619021257051173e-06,-0.04201858405094061
827,0.0828,828.478,6.32404e-05,4.56364e-05,0.000511395,0.000149183,0.00647229,0.0795503,-0.0349761,-0.0429778,-1.37633e-06,1.06186e-06,2.06375e-06,0.0752873,0.08280002300082812,-1.3763290528379102e-06,1.0618605637002787e-06,-0.03437150549720103,2.0637521296329453e-06,-0.04206734406405954
828,0.0829,828.636,6.32149e-05,4.56182e-05,0.000513389,0.000147463,0.00647066,0.0796426,-0.0350173,-0.0430287,-1.3769e-06,1.06221e-06,2.0656e-06,0.0753786,0.0828999700554367,-1.376899052107916e-06,1.062210564173327e-06,-0.034411288571637555,2.0656021333387287e-06,-0.04211610159535706
829,0.083,828.793,6.31894e-05,4.56001e-05,0.000515381,0.000145746,0.00646902,0.079735,-0.0350585,-0.0430795,-1.37748e-06,1.06256e-06,2.06745e-06,0.0754698,0.08300003463558214,-1.377479051267727e-06,1.0625605644243308e-06,-0.03445107000704528,2.0674521372665566e-06,-0.042164760861440165
830,0.0831,828.951,6.3164e-05,4.5582e-05,0.00051737,0.000144031,0.00646739,0.0798273,-0.0350996,-0.0431304,-1.37805e-06,1.06291e-06,2.0693e-06,0.0755611,0.08310000015211672,-1.378049050537733e-06,1.0629105648973791e-06,-0.03449075325257167,2.06930214097234e-06,-0.04221351343434876
831,0.0832,829.108,6.31386e-05,4.55639e-05,0.000519356,0.000142319,0.00646575,0.0799196,-0.0351408,-0.0431813,-1.37862e-06,1.06326e-06,2.07115e-06,0.0756523,0.08319997489589404,-1.3786190496967166e-06,1.0632605653704275e-06,-0.034530531414101895,2.071152144900168e-06,-0.042262263525814636
832,0.0833,829.265,6.31132e-05,4.55458e-05,0.000521339,0.000140609,0.00646412,0.0800119,-0.0351819,-0.0432321,-1.37919e-06,1.06361e-06,2.07299e-06,0.0757435,0.08329995886776631,-1.3791890489667225e-06,1.0636105656214312e-06,-0.03457021139383165,2.072992148605124e-06,-0.04231091536706033
833,0.0834,829.422,6.30878e-05,4.55277e-05,0.00052332,0.000138902,0.00646249,0.0801042,-0.0352231,-0.043283,-1.37976e-06,1.06396e-06,2.07484e-06,0.0758347,0.08339995206858508,-1.379759048125706e-06,1.0639605660944795e-06,-0.034609986281753824,2.074842152532952e-06,-0.0423596605008939
834,0.0835,829.578,6.30624e-05,4.55096e-05,0.000525297,0.000137198,0.00646086,0.0801965,-0.0352642,-0.0433338,-1.38033e-06,1.0643e-06,2.07668e-06,0.075926,0.08349995449920211,-1.380329047395712e-06,1.0643005663446559e-06,-0.03464966299595562,2.076682156237908e-06,-0.04240830739449897
835,0.0836,829.735,6.30371e-05,4.54915e-05,0.000527272,0.000135496,0.00645923,0.0802888,-0.0353054,-0.0433847,-1.38089e-06,1.06465e-06,2.07853e-06,0.0760172,0.08359996616046961,-1.3808890465538681e-06,1.0646505668177042e-06,-0.034689434610539305,2.078532160165736e-06,-0.0424570475712045
836,0.0837,829.891,6.30117e-05,4.54735e-05,0.000529244,0.000133797,0.00645761,0.0803811,-0.0353465,-0.0434355,-1.38146e-06,1.065e-06,2.08037e-06,0.0761084,0.08369998705323933,-1.381459045823874e-06,1.065000567068708e-06,-0.03472910805948182,2.080372163870692e-06,-0.042505689517671974
837,0.0838,830.047,6.29864e-05,4.54554e-05,0.000531213,0.0001321,0.00645598,0.0804734,-0.0353877,-0.0434863,-1.38202e-06,1.06534e-06,2.08221e-06,0.0761995,0.08380001717836372,-1.3820190449820302e-06,1.0653405675409289e-06,-0.03476887640099635,2.0822121677976924e-06,-0.04255432899319134
838,0.0839,830.203,6.29611e-05,4.54374e-05,0.000533179,0.000130406,0.00645436,0.0805656,-0.0354288,-0.0435371,-1.38259e-06,1.06568e-06,2.08405e-06,0.0762907,0.08389994814669444,-1.382589044252036e-06,1.0656805677911052e-06,-0.03480854658494836,2.084052171724693e-06,-0.042602965997888154
839,0.084,830.359,6.29358e-05,4.54193e-05,0.000535142,0.000128714,0.00645274,0.0806579,-0.0354699,-0.043588,-1.38315e-06,1.06603e-06,2.08589e-06,0.0763819,0.08399999672907943,-1.3831490434101923e-06,1.0660305682641535e-06,-0.03484821513848946,2.085892175429649e-06,-0.04265169626672294
840,0.0841,830.514,6.29105e-05,4.54013e-05,0.000537103,0.000127025,0.00645112,0.0807502,-0.0355111,-0.0436388,-1.38371e-06,1.06637e-06,2.08773e-06,0.0764731,0.08410005454637459,-1.3837090426793708e-06,1.0663705685143299e-06,-0.034887978572893275,2.0877321793566495e-06,-0.04270032832528792
841,0.0842,830.67,6.28852e-05,4.53833e-05,0.000539061,0.000125338,0.0064495,0.0808424,-0.0355522,-0.0436896,-1.38427e-06,1.06671e-06,2.08957e-06,0.0765642,0.08420001317942605,-1.3842690419485493e-06,1.0667105689865508e-06,-0.03492764386184666,2.0895721830616054e-06,-0.04274895791340694
842,0.0843,830.825,6.286e-05,4.53653e-05,0.000541016,0.000123654,0.00644788,0.0809346,-0.0355933,-0.0437404,-1.38483e-06,1.06705e-06,2.09141e-06,0.0766554,0.08429998102908831,-1.3848290411067055e-06,1.0670505692367271e-06,-0.034967307520590185,2.091412186988606e-06,-0.042797585031205676
843,0.0844,830.98,6.28347e-05,4.53473e-05,0.000542968,0.000121973,0.00644626,0.0810268,-0.0356344,-0.0437912,-1.38539e-06,1.06739e-06,2.09325e-06,0.0767465,0.08439995809621115,-1.385389040375884e-06,1.067390569708948e-06,-0.0350069695491908,2.0932521909156065e-06,-0.04284620967880959
844,0.0845,831.135,6.28095e-05,4.53293e-05,0.000544917,0.000120294,0.00644464,0.0811191,-0.0356756,-0.043842,-1.38595e-06,1.06773e-06,2.09508e-06,0.0768376,0.08450005283164441,-1.3859490395340401e-06,1.0677305699591244e-06,-0.03504672644304774,2.095082194619735e-06,-0.04289483185634413
845,0.0846,831.29,6.27843e-05,4.53113e-05,0.000546864,0.000118617,0.00644303,0.0812113,-0.0357167,-0.0438928,-1.3865e-06,1.06807e-06,2.09692e-06,0.0769288,0.08460004834623791,-1.3864990388023912e-06,1.0680705704313453e-06,-0.03508638520759777,2.0969221985467357e-06,-0.042943451563934865
846,0.0847,831.445,6.27591e-05,4.52934e-05,0.000548808,0.000116943,0.00644142,0.0813034,-0.0357578,-0.0439436,-1.38706e-06,1.0684e-06,2.09875e-06,0.0770199,0.08469994461084296,-1.3870590380715697e-06,1.0684005706806943e-06,-0.035126042342206065,2.098752202472909e-06,-0.04299206880170714
847,0.0848,831.599,6.27339e-05,4.52754e-05,0.000550749,0.000115272,0.00643981,0.0813956,-0.0357989,-0.0439944,-1.38761e-06,1.06874e-06,2.10059e-06,0.077111,0.08479995855630795,-1.3876090372288985e-06,1.0687405711529152e-06,-0.03516569784693957,2.100592206177865e-06,-0.04304068356978641
848,0.0849,831.754,6.27088e-05,4.52575e-05,0.000552687,0.000113603,0.00643819,0.0814878,-0.03584,-0.0440452,-1.38816e-06,1.06908e-06,2.10242e-06,0.0772021,0.08489998172348412,-1.3881590364972496e-06,1.0690805714030915e-06,-0.03520535172186534,2.102422210104038e-06,-0.04308929586829824
849,0.085,831.908,6.26836e-05,4.52395e-05,0.000554623,0.000111937,0.00643659,0.08158,-0.0358811,-0.0440959,-1.38872e-06,1.06941e-06,2.10425e-06,0.0772932,0.08500001411322122,-1.388719035766428e-06,1.069410571874485e-06,-0.035245003967050326,2.104252214030211e-06,-0.0431378100111538
850,0.0851,832.062,6.26585e-05,4.52216e-05,0.000556556,0.000110272,0.00643498,0.0816721,-0.0359222,-0.0441467,-1.38927e-06,1.06974e-06,2.10608e-06,0.0773843,0.08509994721636982,-1.3892690349237569e-06,1.069740572123834e-06,-0.03528465458256158,2.1060822177343397e-06,-0.04318641737576767
851,0.0852,832.216,6.26334e-05,4.52037e-05,0.000558486,0.000108611,0.00643337,0.0817643,-0.0359632,-0.0441975,-1.38982e-06,1.07008e-06,2.10791e-06,0.0774754,0.08519999804377543,-1.389819034192108e-06,1.070080572596055e-06,-0.03532420710089157,2.107912221660513e-06,-0.04323502227119025
852,0.0853,832.37,6.26083e-05,4.51858e-05,0.000560413,0.000106952,0.00643177,0.0818564,-0.0360043,-0.0442482,-1.39037e-06,1.07041e-06,2.10974e-06,0.0775664,0.08529994956629228,-1.390369033460459e-06,1.0704105728454039e-06,-0.03536385446122081,2.109742225586686e-06,-0.04328352902590449
853,0.0854,832.523,6.25832e-05,4.51679e-05,0.000562338,0.000105295,0.00643016,0.0819486,-0.0360454,-0.044299,-1.39091e-06,1.07074e-06,2.11157e-06,0.0776575,0.08540001883476456,-1.3909090327279827e-06,1.0707405733167974e-06,-0.035403500192077164,2.1115722292908146e-06,-0.043332128988180396
854,0.0855,832.676,6.25581e-05,4.515e-05,0.00056426,0.000103641,0.00642856,0.0820407,-0.0360865,-0.0443498,-1.39146e-06,1.07107e-06,2.11339e-06,0.0777486,0.08549998878004472,-1.3914590318853115e-06,1.0710705735661463e-06,-0.03544314429352735,2.1133922332161603e-06,-0.04338072648164104
855,0.0856,832.83,6.25331e-05,4.51321e-05,0.000566179,0.000101989,0.00642696,0.0821328,-0.0361276,-0.0444005,-1.39201e-06,1.0714e-06,2.11522e-06,0.0778396,0.08559996793298064,-1.3920090311536626e-06,1.0714005740375399e-06,-0.03548278676563854,2.1152222371423335e-06,-0.04342922584933906
856,0.0857,832.983,6.2508e-05,4.51142e-05,0.000568095,0.00010034,0.00642536,0.0822249,-0.0361686,-0.0444513,-1.39255e-06,1.07173e-06,2.11705e-06,0.0779306,0.08569995629442073,-1.3925490304211863e-06,1.0717305742868888e-06,-0.03552233116071557,2.117052240846462e-06,-0.043477818410404434
857,0.0858,833.136,6.2483e-05,4.50964e-05,0.000570009,9.86933e-05,0.00642376,0.082317,-0.0362097,-0.044502,-1.39309e-06,1.07206e-06,2.11887e-06,0.0780217,0.08579995386521277,-1.39308902968871e-06,1.0720605747582823e-06,-0.03556197037831332,2.118872244771808e-06,-0.04352631285566644
858,0.0859,833.288,6.2458e-05,4.50785e-05,0.00057192,9.70489e-05,0.00642216,0.0824091,-0.0362508,-0.0445527,-1.39364e-06,1.07239e-06,2.12069e-06,0.0781127,0.08589996064620542,-1.3936390288460387e-06,1.0723905750076312e-06,-0.0356016079667727,2.1206922486971536e-06,-0.04357480484232246
859,0.086,833.441,6.2433e-05,4.50607e-05,0.000573829,9.54069e-05,0.00642057,0.0825012,-0.0362918,-0.0446035,-1.39418e-06,1.07271e-06,2.12252e-06,0.0782037,0.08599997663824666,-1.3941790281135624e-06,1.0727105752561528e-06,-0.035641147490280356,2.1225222526233267e-06,-0.04362339000816273
860,0.0861,833.593,6.2408e-05,4.50428e-05,0.000575735,9.37674e-05,0.00641897,0.0825933,-0.0363329,-0.0446542,-1.39472e-06,1.07304e-06,2.12434e-06,0.0782947,0.08610000184218491,-1.3947190273810861e-06,1.0730405757275463e-06,-0.035680781824627306,2.124342256326628e-06,-0.043671877073131915
861,0.0862,833.746,6.2383e-05,4.5025e-05,0.000577638,9.21302e-05,0.00641738,0.0826854,-0.0363739,-0.0447049,-1.39526e-06,1.07336e-06,2.12616e-06,0.0783857,0.08620003625886885,-1.3952590266486098e-06,1.0733605759760678e-06,-0.03572031810207332,2.1261622602519736e-06,-0.043720361679869146
862,0.0863,833.898,6.23581e-05,4.50072e-05,0.000579538,9.04955e-05,0.00641579,0.0827774,-0.036415,-0.0447556,-1.3958e-06,1.07369e-06,2.12798e-06,0.0784767,0.08629997125914413,-1.3957990259161335e-06,1.0736905764474614e-06,-0.03575994918257497,2.1279822641773194e-06,-0.043768843828499104
863,0.0864,834.05,6.23332e-05,4.49894e-05,0.000581436,8.88632e-05,0.00641419,0.0828695,-0.036456,-0.0448063,-1.39633e-06,1.07401e-06,2.1298e-06,0.0785677,0.08640002409385938,-1.3963290251828298e-06,1.0740105766959829e-06,-0.0357994822142258,2.129802268102665e-06,-0.04381732351914647
864,0.0865,834.201,6.23082e-05,4.49716e-05,0.000583331,8.72333e-05,0.0064126,0.0829615,-0.0364971,-0.0448571,-1.39687e-06,1.07434e-06,2.13162e-06,0.0786587,0.08649997749386196,-1.3968690243393311e-06,1.0743405771673764e-06,-0.03583911004114937,2.1316222718059663e-06,-0.043865896365350876
865,0.0866,834.353,6.22833e-05,4.49538e-05,0.000585224,8.56057e-05,0.00641102,0.0830536,-0.0365381,-0.0449078,-1.39741e-06,1.07466e-06,2.13344e-06,0.0787497,0.08660004874999983,-1.3974090236068548e-06,1.074660577415898e-06,-0.035878639827271575,2.133442275731312e-06,-0.043914371135559405
866,0.0867,834.505,6.22584e-05,4.4936e-05,0.000587114,8.39806e-05,0.00640943,0.0831456,-0.0365791,-0.0449585,-1.39794e-06,1.07498e-06,2.13526e-06,0.0788406,0.08670002055311721,-1.397939022873551e-06,1.074980577886464e-06,-0.03591816799270575,2.135262279656658e-06,-0.04396284344815926
867,0.0868,834.656,6.22336e-05,4.49183e-05,0.000589001,8.23578e-05,0.00640784,0.0832376,-0.0366202,-0.0450092,-1.39847e-06,1.0753e-06,2.13707e-06,0.0789316,0.08680000155406353,-1.3984690221402474e-06,1.0753005781349856e-06,-0.035957790941744006,2.137072283581176e-06,-0.044011313303275235
868,0.0869,834.807,6.22087e-05,4.49005e-05,0.000590886,8.07375e-05,0.00640626,0.0833296,-0.0366612,-0.0450598,-1.39901e-06,1.07562e-06,2.13889e-06,0.0790225,0.08689999175368524,-1.399009021407771e-06,1.0756205783835071e-06,-0.03599731586204902,2.138892287506522e-06,-0.0440596851070052
869,0.087,834.958,6.21839e-05,4.48828e-05,0.000592768,7.91194e-05,0.00640468,0.0834216,-0.0367022,-0.0451105,-1.39954e-06,1.07594e-06,2.1407e-06,0.0791135,0.0869999911528283,-1.3995390206744673e-06,1.0759405788540732e-06,-0.03603683916186551,2.1407022912089957e-06,-0.04410815005237345
870,0.0871,835.109,6.2159e-05,4.4865e-05,0.000594647,7.75038e-05,0.00640309,0.0835136,-0.0367432,-0.0451612,-1.40007e-06,1.07626e-06,2.14252e-06,0.0792044,0.0870999997523394,-1.4000690199411636e-06,1.0762605791025948e-06,-0.03607636084125987,2.1425222951343414e-06,-0.04415661254063141
871,0.0872,835.26,6.21342e-05,4.48473e-05,0.000596524,7.58905e-05,0.00640151,0.0836056,-0.0367842,-0.0452119,-1.4006e-06,1.07657e-06,2.14433e-06,0.0792953,0.08720001755306495,-1.40059901920786e-06,1.0765705795723335e-06,-0.036115880900298714,2.14433229905886e-06,-0.044205072571903425
872,0.0873,835.41,6.21094e-05,4.48296e-05,0.000598398,7.42795e-05,0.00639993,0.0836976,-0.0368253,-0.0452626,-1.40112e-06,1.07689e-06,2.14614e-06,0.0793863,0.08730004455585139,-1.4011190184737288e-06,1.076890579820855e-06,-0.03615549572350352,2.146142302983378e-06,-0.04425353014631406
873,0.0874,835.561,6.20846e-05,4.48119e-05,0.000600269,7.26709e-05,0.00639835,0.0837895,-0.0368663,-0.0453132,-1.40165e-06,1.07721e-06,2.14795e-06,0.0794772,0.08739997202154282,-1.401649017740425e-06,1.0772105802914211e-06,-0.03619501253807855,2.1479523069078965e-06,-0.044301889694181806
874,0.0875,835.711,6.20599e-05,4.47942e-05,0.000602138,7.10647e-05,0.00639678,0.0838815,-0.0369073,-0.0453639,-1.40218e-06,1.07752e-06,2.14976e-06,0.0795681,0.08750001742098656,-1.402179016896099e-06,1.0775205805391153e-06,-0.03623452773249747,2.149762310832415e-06,-0.044350342360088835
875,0.0876,835.861,6.20351e-05,4.47765e-05,0.000604005,6.94608e-05,0.0063952,0.0839734,-0.0369483,-0.0454146,-1.4027e-06,1.07784e-06,2.15157e-06,0.079659,0.08759996326502884,-1.402699016161968e-06,1.0778405807876368e-06,-0.036274041306826654,2.1515723145348886e-06,-0.04439879256950807
876,0.0877,836.011,6.20104e-05,4.47588e-05,0.000605869,6.78592e-05,0.00639363,0.0840654,-0.0369893,-0.0454652,-1.40323e-06,1.07815e-06,2.15338e-06,0.0797499,0.08770002706451341,-1.4032290154286642e-06,1.0781505812573755e-06,-0.0363135532611325,2.153382318459407e-06,-0.044447144767283064
877,0.0878,836.161,6.19857e-05,4.47412e-05,0.00060773,6.62599e-05,0.00639205,0.0841573,-0.0370302,-0.0455159,-1.40375e-06,1.07846e-06,2.15519e-06,0.0798407,0.08779999129028648,-1.403749014694533e-06,1.0784605815050696e-06,-0.03635296723078296,2.1551923223839253e-06,-0.04449559006894466
878,0.0879,836.31,6.1961e-05,4.47235e-05,0.000609589,6.4663e-05,0.00639048,0.0842492,-0.0370712,-0.0455665,-1.40427e-06,1.07877e-06,2.15699e-06,0.0799316,0.08789996470319394,-1.404269013960402e-06,1.0787705819748084e-06,-0.03639247594919215,2.1569923263076163e-06,-0.044543937368890174
879,0.088,836.46,6.19363e-05,4.47058e-05,0.000611445,6.30684e-05,0.00638891,0.0843411,-0.0371122,-0.0456172,-1.40479e-06,1.07909e-06,2.1588e-06,0.0800225,0.08799994730408023,-1.4047890133372931e-06,1.0790905822233299e-06,-0.03643198304777717,2.1588023302321346e-06,-0.04459237776329117
880,0.0881,836.609,6.19116e-05,4.46882e-05,0.000613298,6.14761e-05,0.00638734,0.0844331,-0.0371532,-0.0456678,-1.40531e-06,1.0794e-06,2.16061e-06,0.0801133,0.08810004790378922,-1.405309012603162e-06,1.079400582471024e-06,-0.03647148852660442,2.160612334156653e-06,-0.04464072016590326
881,0.0882,836.758,6.18869e-05,4.46706e-05,0.000615149,5.9886e-05,0.00638577,0.084525,-0.0371942,-0.0457184,-1.40583e-06,1.07971e-06,2.16241e-06,0.0802042,0.08820004889316668,-1.4058290118690309e-06,1.0797105829407627e-06,-0.03651099238574018,2.162412338080344e-06,-0.04468906012245166
882,0.0883,836.907,6.18623e-05,4.4653e-05,0.000616998,5.82983e-05,0.00638421,0.0846168,-0.0372352,-0.0457691,-1.40635e-06,1.08001e-06,2.16421e-06,0.080295,0.08829995024305681,-1.4063490111348997e-06,1.0800105831876294e-06,-0.03655049462525095,2.164212342004035e-06,-0.04473749315931552
883,0.0884,837.056,6.18377e-05,4.46354e-05,0.000618844,5.67129e-05,0.00638264,0.0847087,-0.0372761,-0.0458197,-1.40687e-06,1.08032e-06,2.16602e-06,0.0803859,0.08839996960430341,-1.4068690104007686e-06,1.0803205834353236e-06,-0.036589898904197726,2.1660223459285532e-06,-0.04478582821927435
884,0.0885,837.205,6.18131e-05,4.46178e-05,0.000620687,5.51298e-05,0.00638108,0.0848006,-0.0373171,-0.0458703,-1.40739e-06,1.08063e-06,2.16782e-06,0.0804767,0.08849999815775167,-1.4073890096666375e-06,1.0806305839050623e-06,-0.03662939790860753,2.1678223496301996e-06,-0.04483416083354097
885,0.0886,837.354,6.17885e-05,4.46002e-05,0.000622528,5.35489e-05,0.00637951,0.0848925,-0.0373581,-0.0459209,-1.4079e-06,1.08094e-06,2.16962e-06,0.0805675,0.08860003590424648,-1.407899008931679e-06,1.0809405841527564e-06,-0.03666889529359141,2.1696223535538905e-06,-0.04488249100223929
886,0.0887,837.502,6.17639e-05,4.45826e-05,0.000624366,5.19703e-05,0.00637795,0.0849843,-0.037399,-0.0459715,-1.40842e-06,1.08124e-06,2.17142e-06,0.0806583,0.0886999739746297,-1.4084190081975478e-06,1.0812405846216677e-06,-0.036708294730049884,2.1714223574775815e-06,-0.04493081872549287
887,0.0888,837.65,6.17393e-05,4.4565e-05,0.000626202,5.0394e-05,0.00637639,0.0850762,-0.03744,-0.0460221,-1.40893e-06,1.08155e-06,2.17322e-06,0.0807491,0.08880003009974646,-1.4089290074625893e-06,1.0815505848693618e-06,-0.03674778888033037,2.1732223614012725e-06,-0.04497914400342551
888,0.0889,837.799,6.17147e-05,4.45475e-05,0.000628036,4.882e-05,0.00637483,0.085168,-0.0374809,-0.0460727,-1.40944e-06,1.08185e-06,2.17502e-06,0.0808399,0.08889998653043962,-1.4094390067276308e-06,1.0818505851162286e-06,-0.036787185090107144,2.1750223653249634e-06,-0.04502746683616088
889,0.089,837.947,6.16902e-05,4.45299e-05,0.000629866,4.72482e-05,0.00637327,0.0852598,-0.0375219,-0.0461233,-1.40995e-06,1.08216e-06,2.17682e-06,0.0809307,0.0889999521375544,-1.4099490059926723e-06,1.0821605855859673e-06,-0.03682667600594913,2.1768223692486544e-06,-0.04507578722382288
890,0.0891,838.094,6.16657e-05,4.45124e-05,0.000631695,4.56787e-05,0.00637171,0.0853517,-0.0375628,-0.0461739,-1.41046e-06,1.08246e-06,2.17861e-06,0.0810215,0.08910003583193116,-1.4104590052577137e-06,1.082460585832834e-06,-0.036866068989308554,2.178612373171518e-06,-0.04512410516653509
891,0.0892,838.242,6.16412e-05,4.44948e-05,0.000633521,4.41114e-05,0.00637016,0.0854435,-0.0376038,-0.0462245,-1.41097e-06,1.08276e-06,2.18041e-06,0.0811123,0.0892000198044145,-1.4109690046337775e-06,1.0827605860797007e-06,-0.03690555667097695,2.180412377095209e-06,-0.04517242066442129
892,0.0893,838.39,6.16167e-05,4.44773e-05,0.000635344,4.25464e-05,0.0063686,0.0855353,-0.0376447,-0.0462751,-1.41148e-06,1.08306e-06,2.18221e-06,0.081203,0.08930001295584811,-1.411479003898819e-06,1.083060586548612e-06,-0.036944946428183134,2.1822123810189e-06,-0.045220733717605155
893,0.0894,838.537,6.15922e-05,4.44598e-05,0.000637165,4.09836e-05,0.00636705,0.0856271,-0.0376856,-0.0463257,-1.41199e-06,1.08336e-06,2.184e-06,0.0812938,0.0894000152870742,-1.4119890031638604e-06,1.0833605867954788e-06,-0.036984334574381106,2.1840023849417634e-06,-0.04526904432621026
894,0.0895,838.684,6.15677e-05,4.44423e-05,0.000638983,3.94231e-05,0.0063655,0.0857189,-0.0377266,-0.0463763,-1.41249e-06,1.08366e-06,2.18579e-06,0.0813845,0.08950002679893565,-1.4124890024280745e-06,1.08366058726439e-06,-0.03702381740725991,2.185792388864627e-06,-0.04531735249036051
895,0.0896,838.831,6.15433e-05,4.44248e-05,0.000640799,3.78648e-05,0.00636394,0.0858107,-0.0377675,-0.0464268,-1.413e-06,1.08396e-06,2.18759e-06,0.0814753,0.08960004749227535,-1.412999001693116e-06,1.0839605875112568e-06,-0.037063202327700884,2.187592392788318e-06,-0.04536556274674053
896,0.0897,838.978,6.15189e-05,4.44073e-05,0.000642613,3.63087e-05,0.00636239,0.0859024,-0.0378084,-0.0464774,-1.4135e-06,1.08426e-06,2.18938e-06,0.081566,0.08969996839793404,-1.41349900095733e-06,1.0842605877581235e-06,-0.03710258563733149,2.1893823967111814e-06,-0.045413866027182226
897,0.0898,839.125,6.14944e-05,4.43898e-05,0.000644424,3.47548e-05,0.00636085,0.0859942,-0.0378493,-0.0465279,-1.41401e-06,1.08456e-06,2.19117e-06,0.0816567,0.08980000744675509,-1.4140090003333938e-06,1.0845605882270348e-06,-0.03714196733621766,2.191172400634045e-06,-0.04546207140975167
898,0.0899,839.272,6.147e-05,4.43724e-05,0.000646232,3.32032e-05,0.0063593,0.0860859,-0.0378902,-0.0465785,-1.41451e-06,1.08486e-06,2.19296e-06,0.0817474,0.08989994668958223,-1.414508999597608e-06,1.0848605884739015e-06,-0.03718134742442536,2.1929624045569085e-06,-0.045510369806978646
899,0.09,839.418,6.14457e-05,4.43549e-05,0.000648039,3.16537e-05,0.00635775,0.0861777,-0.0379312,-0.0466291,-1.41501e-06,1.08515e-06,2.19475e-06,0.0818381,0.09000000409725306,-1.415008998861822e-06,1.0851505887199409e-06,-0.037220822179942936,2.194752408479772e-06,-0.04555866576036849
900,0.0901,839.565,6.14213e-05,4.43375e-05,0.000649842,3.01065e-05,0.00635621,0.0862694,-0.0379721,-0.0466796,-1.41551e-06,1.08545e-06,2.19654e-06,0.0819288,0.09009996168061374,-1.415508998126036e-06,1.0854505891888522e-06,-0.037260199043053444,2.1965424124026356e-06,-0.04560686383073609
901,0.0902,839.711,6.13969e-05,4.43201e-05,0.000651643,2.85614e-05,0.00635466,0.0863612,-0.038013,-0.0467301,-1.41601e-06,1.08574e-06,2.19833e-06,0.0820195,0.09020003745050365,-1.4160089975012724e-06,1.0857405894348915e-06,-0.0372995742956832,2.198332416325499e-06,-0.04565505946716253
902,0.0903,839.857,6.13726e-05,4.43026e-05,0.000653442,2.70186e-05,0.00635312,0.0864529,-0.0380539,-0.0467807,-1.41651e-06,1.08604e-06,2.20011e-06,0.0821102,0.09030001337776405,-1.4165089967654865e-06,1.0860405896817582e-06,-0.03733894793789805,2.2001124202475353e-06,-0.045703348099440766
903,0.0904,840.003,6.13483e-05,4.42852e-05,0.000655239,2.54779e-05,0.00635158,0.0865446,-0.0380948,-0.0468312,-1.41701e-06,1.08633e-06,2.2019e-06,0.0822009,0.09039999847323732,-1.4170089960297005e-06,1.0863305901498421e-06,-0.03737831996976382,2.201902424170399e-06,-0.04575153886353478
904,0.0905,840.149,6.13239e-05,4.42678e-05,0.000657033,2.39395e-05,0.00635004,0.0866363,-0.0381357,-0.0468818,-1.41751e-06,1.08662e-06,2.20369e-06,0.0822916,0.09049999273776432,-1.4175089952939146e-06,1.0866205903958814e-06,-0.03741769039134646,2.2036924280932624e-06,-0.04579982261407911
905,0.0906,840.294,6.12997e-05,4.42504e-05,0.000658824,2.24032e-05,0.0063485,0.086728,-0.0381766,-0.0469323,-1.418e-06,1.08691e-06,2.20547e-06,0.0823823,0.09059999617218573,-1.4179989946683236e-06,1.0869105906419207e-06,-0.037457059202711696,2.2054724320152985e-06,-0.04584800850633308
906,0.0907,840.44,6.12754e-05,4.4233e-05,0.000660613,2.0869e-05,0.00634696,0.0868197,-0.0382174,-0.0469828,-1.4185e-06,1.08721e-06,2.20725e-06,0.0824729,0.09070000877734263,-1.4184989939325376e-06,1.087210591110832e-06,-0.03749633015356346,2.2072524359373347e-06,-0.045896191965260846
907,0.0908,840.585,6.12511e-05,4.42157e-05,0.0006624,1.93371e-05,0.00634542,0.0869114,-0.0382583,-0.0470333,-1.41899e-06,1.0875e-06,2.20904e-06,0.0825636,0.09080003055407593,-1.4189889931959243e-06,1.0875005913568714e-06,-0.03753569574862825,2.2090424398601982e-06,-0.04594437299098553
908,0.0909,840.731,6.12268e-05,4.41983e-05,0.000664185,1.78073e-05,0.00634389,0.087003,-0.0382992,-0.0470838,-1.41948e-06,1.08779e-06,2.21082e-06,0.0826542,0.0908999524132259,-1.4194789925703333e-06,1.0877905916029107e-06,-0.037575059733673144,2.2108224437822344e-06,-0.045992551583629804
909,0.091,840.876,6.12026e-05,4.4181e-05,0.000665967,1.62797e-05,0.00634235,0.0870947,-0.0383401,-0.0471343,-1.41998e-06,1.08807e-06,2.2126e-06,0.0827448,0.09099999252563129,-1.4199789918345473e-06,1.0880705918481226e-06,-0.03761442210876398,2.2126024477042705e-06,-0.04604072774331647
910,0.0911,841.021,6.11784e-05,4.41636e-05,0.000667746,1.47542e-05,0.00634082,0.0871864,-0.0383809,-0.0471848,-1.42047e-06,1.08836e-06,2.21438e-06,0.0828355,0.09110004181213549,-1.420468991097934e-06,1.0883605923162065e-06,-0.0376536866393401,2.2143824518483513e-06,-0.04608890147016864
911,0.0912,841.165,6.11542e-05,4.41463e-05,0.000669523,1.32309e-05,0.00633929,0.087278,-0.0384218,-0.0472353,-1.42096e-06,1.08865e-06,2.21616e-06,0.0829261,0.09119999115357547,-1.420958990472343e-06,1.0886505925622458e-06,-0.03769304579865618,2.2161624557703874e-06,-0.046137072764309006
912,0.0913,841.31,6.113e-05,4.4129e-05,0.000671298,1.17097e-05,0.00633775,0.0873696,-0.0384627,-0.0472858,-1.42145e-06,1.08894e-06,2.21794e-06,0.0830167,0.09129994965079447,-1.4214489897357296e-06,1.0889405928082851e-06,-0.037732403348215704,2.2179424596924235e-06,-0.04618524162586035
913,0.0914,841.455,6.11058e-05,4.41116e-05,0.000673071,1.01907e-05,0.00633622,0.0874613,-0.0385035,-0.0473363,-1.42194e-06,1.08922e-06,2.21972e-06,0.0831073,0.09140002644462841,-1.4219389889991163e-06,1.0892205932755417e-06,-0.03777166306525537,2.2197224636144597e-06,-0.04623340805494569
914,0.0915,841.599,6.10817e-05,4.40943e-05,0.000674841,8.67383e-06,0.0063347,0.0875529,-0.0385444,-0.0473868,-1.42242e-06,1.08951e-06,2.2215e-06,0.0831979,0.09150000326591923,-1.4224189883726979e-06,1.089510593521581e-06,-0.03781101739943438,2.221502467536496e-06,-0.046281572051687814
915,0.0916,841.743,6.10575e-05,4.4077e-05,0.000676608,7.15907e-06,0.00633317,0.0876445,-0.0385852,-0.0474373,-1.42291e-06,1.08979e-06,2.22327e-06,0.0832885,0.09159998924550616,-1.4229089876360845e-06,1.0897905937667929e-06,-0.03785027390908624,2.2232724714577046e-06,-0.0463297336162094
916,0.0917,841.887,6.10334e-05,4.40598e-05,0.000678374,5.64643e-06,0.00633164,0.0877361,-0.0386261,-0.0474878,-1.42339e-06,1.09008e-06,2.22505e-06,0.0833791,0.09169998438422855,-1.423388987009666e-06,1.0900805942348768e-06,-0.03788962502814752,2.2250524753797407e-06,-0.046377892748633465
917,0.0918,842.031,6.10093e-05,4.40425e-05,0.000680137,4.13592e-06,0.00633012,0.0878277,-0.0386669,-0.0475382,-1.42388e-06,1.09036e-06,2.22683e-06,0.0834696,0.09179998868292505,-1.4238789862730528e-06,1.0903605944800887e-06,-0.0379288783306736,2.226832479301777e-06,-0.04642595409168293
918,0.0919,842.175,6.09852e-05,4.40252e-05,0.000681897,2.62753e-06,0.00632859,0.0879193,-0.0387078,-0.0475887,-1.42436e-06,1.09064e-06,2.2286e-06,0.0835602,0.09190000214243499,-1.4243589856466343e-06,1.0906405947253006e-06,-0.03796822623487972,2.2286024832229856e-06,-0.04647410836509569
919,0.092,842.319,6.09611e-05,4.4008e-05,0.000683656,1.12124e-06,0.00632707,0.0880109,-0.0387486,-0.0476392,-1.42485e-06,1.09092e-06,2.23037e-06,0.0836507,0.09200002476359725,-1.424848984910021e-06,1.0909205949705125e-06,-0.03800747633054191,2.230372487366239e-06,-0.046522260206778965
920,0.0921,842.462,6.0937e-05,4.39907e-05,0.000685412,-3.82932e-07,0.00632555,0.0881024,-0.0387895,-0.0476896,-1.42533e-06,1.09121e-06,2.23215e-06,0.0837413,0.09209994733725124,-1.4253289841725802e-06,1.0912105954385964e-06,-0.03804682102015566,2.232152491288275e-06,-0.04657031427389191
921,0.0922,842.606,6.0913e-05,4.39735e-05,0.000687165,-1.885e-06,0.00632403,0.088194,-0.0388303,-0.0477401,-1.42581e-06,1.09149e-06,2.23392e-06,0.0838318,0.09219998827423237,-1.4258089835461618e-06,1.0914905956838084e-06,-0.03808606790921598,2.233922495209484e-06,-0.046618461257299515
922,0.0923,842.749,6.08889e-05,4.39563e-05,0.000688917,-3.38498e-06,0.00632251,0.0882856,-0.0388711,-0.0477905,-1.42629e-06,1.09177e-06,2.23569e-06,0.0839224,0.09230003837538292,-1.426288982808721e-06,1.0917705959290203e-06,-0.03812531319703605,2.2356924991306926e-06,-0.04666651047600168
923,0.0924,842.892,6.08649e-05,4.3939e-05,0.000690666,-4.88286e-06,0.00632099,0.0883771,-0.0389119,-0.047841,-1.42677e-06,1.09204e-06,2.23746e-06,0.0840129,0.09239998840153829,-1.4267689821823026e-06,1.0920405961734048e-06,-0.03816455688368092,2.2374625030519013e-06,-0.046714652601623774
924,0.0925,843.035,6.08409e-05,4.39218e-05,0.000692413,-6.37865e-06,0.00631947,0.0884686,-0.0389528,-0.0478914,-1.42724e-06,1.09232e-06,2.23923e-06,0.0841034,0.0924999475735393,-1.4272389814440345e-06,1.0923205966406613e-06,-0.03820389514883138,2.23923250697311e-06,-0.046762696972404316
925,0.0926,843.178,6.08169e-05,4.39046e-05,0.000694157,-7.87235e-06,0.00631795,0.0885602,-0.0389936,-0.0479419,-1.42772e-06,1.0926e-06,2.241e-06,0.0841939,0.0926000251522201,-1.427718980817616e-06,1.0926005968858732e-06,-0.03824313562939807,2.2410025111163634e-06,-0.04681083424073096
926,0.0927,843.321,6.07929e-05,4.38875e-05,0.000695899,-9.36398e-06,0.00631644,0.0886517,-0.0390344,-0.0479923,-1.4282e-06,1.09288e-06,2.24277e-06,0.0842844,0.09270000262842149,-1.4281989800801753e-06,1.092880597131085e-06,-0.03828237450898575,2.242772515037572e-06,-0.046858873764079045
927,0.0928,843.463,6.0769e-05,4.38703e-05,0.000697639,-1.08535e-05,0.00631492,0.0887432,-0.0390752,-0.0480427,-1.42867e-06,1.09315e-06,2.24453e-06,0.0843749,0.09279998925298028,-1.4286689794529295e-06,1.0931505975975142e-06,-0.038321611787659915,2.2445325189579535e-06,-0.04690691086629617
928,0.0929,843.606,6.0745e-05,4.38531e-05,0.000699376,-1.2341e-05,0.00631341,0.0888347,-0.039116,-0.0480931,-1.42915e-06,1.09343e-06,2.2463e-06,0.0844654,0.0928999850267338,-1.4291489787154887e-06,1.0934305978427261e-06,-0.038360847465485626,2.246302522879162e-06,-0.046954945547504345
929,0.093,843.748,6.07211e-05,4.3836e-05,0.000701112,-1.38264e-05,0.0063119,0.0889262,-0.0391568,-0.0481436,-1.42962e-06,1.0937e-06,2.24806e-06,0.0845559,0.09299998995051917,-1.429618978088243e-06,1.0937005980871106e-06,-0.0384000815425285,2.2480625267995435e-06,-0.04700307310752316
930,0.0931,843.89,6.06971e-05,4.38188e-05,0.000702844,-1.53098e-05,0.00631039,0.0890177,-0.0391976,-0.048194,-1.43009e-06,1.09398e-06,2.24983e-06,0.0846464,0.09310000402517371,-1.430088977460997e-06,1.0939805983323225e-06,-0.03843931401885359,2.249832530942797e-06,-0.047051102942276546
931,0.0932,844.032,6.06732e-05,4.38017e-05,0.000704575,-1.67911e-05,0.00630888,0.0891092,-0.0392384,-0.0482444,-1.43057e-06,1.09425e-06,2.25159e-06,0.0847368,0.09320002725153498,-1.4305689767235563e-06,1.0942505987987516e-06,-0.03847854489452629,2.2515925348631782e-06,-0.04709913035638724
932,0.0933,844.174,6.06494e-05,4.37845e-05,0.000706303,-1.82703e-05,0.00630737,0.0892006,-0.0392792,-0.0482948,-1.43104e-06,1.09452e-06,2.25336e-06,0.0848273,0.09329995030043947,-1.4310389760963105e-06,1.0945205990431361e-06,-0.038517774169611996,2.253362538784387e-06,-0.047147155349977266
933,0.0934,844.316,6.06255e-05,4.37674e-05,0.00070803,-1.97475e-05,0.00630586,0.0892921,-0.03932,-0.0483452,-1.43151e-06,1.0948e-06,2.25512e-06,0.0849177,0.09339999182272174,-1.4315089753580423e-06,1.094800599288348e-06,-0.038557001844175876,2.2551225427047683e-06,-0.04719517792316863
934,0.0935,844.458,6.06016e-05,4.37503e-05,0.000709753,-2.12227e-05,0.00630436,0.0893836,-0.0393608,-0.0483956,-1.43197e-06,1.09507e-06,2.25688e-06,0.0850082,0.09350004249922228,-1.431968974729969e-06,1.0950705995327326e-06,-0.03859622791828321,2.2568825468471942e-06,-0.04724319807608324
935,0.0936,844.599,6.05778e-05,4.37332e-05,0.000711475,-2.26958e-05,0.00630285,0.089475,-0.0394015,-0.048446,-1.43244e-06,1.09534e-06,2.25864e-06,0.0850986,0.0935999929707736,-1.4324389741027233e-06,1.095340599777117e-06,-0.03863535625553993,2.2586425507675756e-06,-0.04729121580884321
936,0.0937,844.74,6.05539e-05,4.37161e-05,0.000713194,-2.41668e-05,0.00630135,0.0895664,-0.0394423,-0.0484964,-1.43291e-06,1.09561e-06,2.2604e-06,0.085189,0.09369995257821562,-1.4329089733644551e-06,1.0956106002435462e-06,-0.03867457913285255,2.260402554687957e-06,-0.047339231121570347
937,0.0938,844.882,6.05301e-05,4.36991e-05,0.000714911,-2.56359e-05,0.00629985,0.0896579,-0.0394831,-0.0485467,-1.43338e-06,1.09588e-06,2.26216e-06,0.0852795,0.09380003070238097,-1.4333789727372093e-06,1.0958806004879307e-06,-0.038713800409904464,2.2621625586083383e-06,-0.047387148753106456
938,0.0939,845.023,6.05063e-05,4.3682e-05,0.000716626,-2.71029e-05,0.00629835,0.0897493,-0.0395239,-0.0485971,-1.43384e-06,1.09615e-06,2.26392e-06,0.0853699,0.09390000859410708,-1.4338389719981137e-06,1.0961506007323152e-06,-0.03875302008676085,2.263922562750764e-06,-0.047435159230935
939,0.094,845.164,6.04825e-05,4.36649e-05,0.000718339,-2.85679e-05,0.00629684,0.0898407,-0.0395646,-0.0486475,-1.43431e-06,1.09641e-06,2.26568e-06,0.0854603,0.09399999562423034,-1.4343089713708679e-06,1.0964106009758723e-06,-0.03879214204270609,2.2656825666711455e-06,-0.04748316728909663
940,0.0941,845.304,6.04588e-05,4.36479e-05,0.000720049,-3.00309e-05,0.00629535,0.0899321,-0.0396054,-0.0486979,-1.43477e-06,1.09668e-06,2.26743e-06,0.0855507,0.09409999179358564,-1.4347689707427946e-06,1.0966806014423014e-06,-0.03883135852328912,2.2674325705906995e-06,-0.04753117292771292
941,0.0942,845.445,6.0435e-05,4.36309e-05,0.000721757,-3.14919e-05,0.00629385,0.0900235,-0.0396462,-0.0487482,-1.43523e-06,1.09695e-06,2.26919e-06,0.0856411,0.09419999710300875,-1.435228970003699e-06,1.096950601686686e-06,-0.038870573403872344,2.269192574511081e-06,-0.04757908090481899
942,0.0943,845.586,6.04113e-05,4.36138e-05,0.000723463,-3.29508e-05,0.00629235,0.0901149,-0.0396869,-0.0487986,-1.43569e-06,1.09721e-06,2.27095e-06,0.0857314,0.09430001155333456,-1.4356889693756258e-06,1.097210601930243e-06,-0.03890969057549498,2.2709525786535067e-06,-0.04762708170951091
943,0.0944,845.726,6.03875e-05,4.35968e-05,0.000725167,-3.44078e-05,0.00629085,0.0902063,-0.0397277,-0.0488489,-1.43615e-06,1.09748e-06,2.2727e-06,0.0858218,0.09440003514539907,-1.4361489687475526e-06,1.0974806021746275e-06,-0.03894890226019565,2.2727025825730607e-06,-0.047674984862526526
944,0.0945,845.866,6.03638e-05,4.35798e-05,0.000726868,-3.58627e-05,0.00628936,0.0902976,-0.0397684,-0.0488993,-1.43661e-06,1.09774e-06,2.27445e-06,0.0859122,0.09449995843003656,-1.4366089681194794e-06,1.0977406024181846e-06,-0.03898801624389869,2.2744525864926146e-06,-0.04772298083378079
945,0.0946,846.006,6.03401e-05,4.35628e-05,0.000728567,-3.73157e-05,0.00628786,0.090389,-0.0398092,-0.0489496,-1.43707e-06,1.09801e-06,2.27621e-06,0.0860025,0.09460000029808069,-1.4370689673803838e-06,1.0980106028846137e-06,-0.03902722473297737,2.2762125906350406e-06,-0.04777087916319178
946,0.0947,846.146,6.03165e-05,4.35458e-05,0.000730265,-3.87667e-05,0.00628637,0.0904803,-0.0398499,-0.049,-1.43753e-06,1.09827e-06,2.27796e-06,0.0860929,0.09469994184036978,-1.4375289667523106e-06,1.0982706031281708e-06,-0.03906633552902061,2.2779625945545945e-06,-0.04781887030149512
947,0.0948,846.286,6.02928e-05,4.35288e-05,0.000731959,-4.02157e-05,0.00628488,0.0905717,-0.0398906,-0.0490503,-1.43799e-06,1.09853e-06,2.27971e-06,0.0861832,0.09480000198773308,-1.4379889661242373e-06,1.098530603371728e-06,-0.03910544473328692,2.2797125984741484e-06,-0.047866763807787205
948,0.0949,846.426,6.02691e-05,4.35119e-05,0.000733652,-4.16627e-05,0.00628339,0.090663,-0.0399314,-0.0491007,-1.43844e-06,1.09879e-06,2.28146e-06,0.0862736,0.09489996179101023,-1.4384389654953367e-06,1.098790603615285e-06,-0.03914464843138088,2.281462602615747e-06,-0.047914750113626225
949,0.095,846.566,6.02455e-05,4.34949e-05,0.000735342,-4.31077e-05,0.0062819,0.0907544,-0.0399721,-0.049151,-1.4389e-06,1.09905e-06,2.28321e-06,0.0863639,0.09500004022103248,-1.4388989647562411e-06,1.0990506038588421e-06,-0.03918375444837696,2.283212606535301e-06,-0.04796263879728502
950,0.0951,846.705,6.02219e-05,4.3478e-05,0.000737031,-4.45507e-05,0.00628041,0.0908457,-0.0400128,-0.0492013,-1.43935e-06,1.09931e-06,2.28496e-06,0.0864542,0.09510001828863412,-1.4393489641273405e-06,1.0993106043244438e-06,-0.0392228588737904,2.284962610454855e-06,-0.0480105250722036
951,0.0952,846.845,6.01983e-05,4.3461e-05,0.000738717,-4.59918e-05,0.00627892,0.090937,-0.0400535,-0.0492516,-1.43981e-06,1.09957e-06,2.28671e-06,0.0865445,0.0952000054846498,-1.4398089634992672e-06,1.099570604568001e-06,-0.039261961707686144,2.2867126145964534e-06,-0.048058408938503105
952,0.0953,846.984,6.01747e-05,4.34441e-05,0.000740401,-4.74309e-05,0.00627744,0.0910283,-0.0400943,-0.0493019,-1.44026e-06,1.09983e-06,2.28846e-06,0.0866348,0.09530000180991327,-1.4402589628703666e-06,1.099830604811558e-06,-0.03930115902001785,2.2884626185160073e-06,-0.04810629039630476
953,0.0954,847.123,6.01511e-05,4.34272e-05,0.000742082,-4.88681e-05,0.00627595,0.0911196,-0.040135,-0.0493523,-1.44071e-06,1.10009e-06,2.2902e-06,0.0867251,0.0954000072652581,-1.4407089621304436e-06,1.1000906050551151e-06,-0.03934025866716251,2.290202622434734e-06,-0.04815426463030792
954,0.0955,847.262,6.01276e-05,4.34103e-05,0.000743762,-5.03033e-05,0.00627447,0.0912109,-0.0401757,-0.0494026,-1.44116e-06,1.10035e-06,2.29195e-06,0.0868154,0.09550002185151785,-1.441158961501543e-06,1.1003506052986722e-06,-0.03937935672298398,2.2919526265763324e-06,-0.048202141266689535
955,0.0956,847.401,6.0104e-05,4.33934e-05,0.000745439,-5.17365e-05,0.00627299,0.0913022,-0.0402164,-0.0494529,-1.44161e-06,1.10061e-06,2.29369e-06,0.0869057,0.09560004556952606,-1.4416089608726423e-06,1.100610605764274e-06,-0.03941845318754689,2.293692630495059e-06,-0.048250015494936904
956,0.0957,847.539,6.00805e-05,4.33765e-05,0.000747114,-5.31678e-05,0.0062715,0.0913934,-0.0402571,-0.0495032,-1.44206e-06,1.10086e-06,2.29544e-06,0.086996,0.09569996885011434,-1.4420589602437417e-06,1.1008606060070036e-06,-0.03945754806091606,2.295442634414613e-06,-0.04829788731517115
957,0.0958,847.678,6.0057e-05,4.33596e-05,0.000748787,-5.45972e-05,0.00627002,0.0914847,-0.0402978,-0.0495535,-1.44251e-06,1.10112e-06,2.29718e-06,0.0870862,0.09580001082411704,-1.442508959614841e-06,1.1011206062505607e-06,-0.039496641343156336,2.297182638555384e-06,-0.0483457567275134
958,0.0959,847.816,6.00335e-05,4.33427e-05,0.000750458,-5.60246e-05,0.00626854,0.0915759,-0.0403385,-0.0496037,-1.44296e-06,1.10137e-06,2.29893e-06,0.0871765,0.09589995234236826,-1.4429589589859404e-06,1.1013706064932904e-06,-0.03953573303433233,2.298932642474938e-06,-0.0483935285714423
959,0.096,847.955,6.001e-05,4.33259e-05,0.000752127,-5.745e-05,0.00626706,0.0916672,-0.0403792,-0.049654,-1.4434e-06,1.10163e-06,2.30067e-06,0.0872667,0.09600001257569724,-1.44339895824519e-06,1.1016306067368475e-06,-0.039574823134508885,2.300672646615709e-06,-0.04844139317315033
960,0.0961,848.093,5.99865e-05,4.3309e-05,0.000753794,-5.88736e-05,0.00626559,0.0917584,-0.0404199,-0.0497043,-1.44385e-06,1.10188e-06,2.30241e-06,0.087357,0.09609997233493983,-1.4438489576162894e-06,1.1018806069795772e-06,-0.03961391164375083,2.3024126505344356e-06,-0.04848925536732951
961,0.0962,848.231,5.9963e-05,4.32922e-05,0.000755458,-6.02952e-05,0.00626411,0.0918497,-0.0404606,-0.0497546,-1.44429e-06,1.10213e-06,2.30415e-06,0.0874472,0.09620005083092775,-1.4442889569865613e-06,1.1021306074443515e-06,-0.03965299856212268,2.304152654453162e-06,-0.04853711515410075
962,0.0963,848.369,5.99396e-05,4.32754e-05,0.00075712,-6.17149e-05,0.00626263,0.0919409,-0.0405012,-0.0498049,-1.44474e-06,1.10239e-06,2.30589e-06,0.0875374,0.09630002883449129,-1.4447389563576607e-06,1.1023906076879086e-06,-0.03969198785889294,2.3058926585939332e-06,-0.04858497253358529
963,0.0964,848.507,5.99162e-05,4.32585e-05,0.000758781,-6.31327e-05,0.00626116,0.0920321,-0.0405419,-0.0498551,-1.44518e-06,1.10264e-06,2.30763e-06,0.0876276,0.09640001595646441,-1.4451789557279326e-06,1.1026406079306383e-06,-0.03973107159962763,2.3076326625126597e-06,-0.0486327323691822
964,0.0965,848.644,5.98927e-05,4.32417e-05,0.000760439,-6.45485e-05,0.00625969,0.0921233,-0.0405826,-0.0499054,-1.44562e-06,1.10289e-06,2.30937e-06,0.0877179,0.0965000121976789,-1.4456189550982046e-06,1.102890608173368e-06,-0.0397701537496864,2.309372666653431e-06,-0.04868058493924188
965,0.0966,848.782,5.98693e-05,4.32249e-05,0.000762095,-6.59624e-05,0.00625821,0.0922145,-0.0406233,-0.0499556,-1.44606e-06,1.10314e-06,2.3111e-06,0.0878081,0.09660001755896652,-1.4460589544684765e-06,1.1031406084160977e-06,-0.03980923430913397,2.31110267057133e-06,-0.04872833997521642
966,0.0967,848.919,5.9846e-05,4.32081e-05,0.000763749,-6.73745e-05,0.00625674,0.0923057,-0.0406639,-0.0500059,-1.44651e-06,1.10339e-06,2.31284e-06,0.0878983,0.09670003204115907,-1.446508953839576e-06,1.1033906086588274e-06,-0.039848217262861696,2.312842674712101e-06,-0.04877618773633441
967,0.0968,849.057,5.98226e-05,4.31914e-05,0.0007654,-6.87846e-05,0.00625527,0.0923968,-0.0407046,-0.0500561,-1.44694e-06,1.10364e-06,2.31458e-06,0.0879884,0.09679994596508812,-1.4469389532090204e-06,1.1036406089015571e-06,-0.03988729464518903,2.3145826786308277e-06,-0.048823937973169085
968,0.0969,849.194,5.97992e-05,4.31746e-05,0.00076705,-7.01928e-05,0.0062538,0.092488,-0.0407453,-0.0501064,-1.44738e-06,1.10389e-06,2.31631e-06,0.0880786,0.09689997868158273,-1.4473789525792924e-06,1.1038906093663314e-06,-0.039926370437099123,2.316312682548727e-06,-0.04887178092582867
969,0.097,849.331,5.97759e-05,4.31578e-05,0.000768697,-7.15992e-05,0.00625233,0.0925792,-0.0407859,-0.0501566,-1.44782e-06,1.10413e-06,2.31805e-06,0.0881688,0.09700002052147694,-1.4478189519495643e-06,1.1041306096082337e-06,-0.03996534863519663,2.318052686689498e-06,-0.04891952636400565
970,0.0971,849.468,5.97526e-05,4.31411e-05,0.000770343,-7.30036e-05,0.00625087,0.0926703,-0.0408266,-0.0502069,-1.44826e-06,1.10438e-06,2.31978e-06,0.088259,0.09709996177560143,-1.4482589513198363e-06,1.1043806098509634e-06,-0.04000442125037407,2.319782690607397e-06,-0.0489673645086901
971,0.0972,849.605,5.97293e-05,4.31243e-05,0.000771986,-7.44062e-05,0.0062494,0.0927615,-0.0408672,-0.0502571,-1.44869e-06,1.10463e-06,2.32151e-06,0.0883491,0.09720002185478571,-1.4486889506892808e-06,1.1046306100936931e-06,-0.040043396279672905,2.3215126947473408e-06,-0.049015105148691784
972,0.0973,849.741,5.9706e-05,4.31076e-05,0.000773627,-7.58068e-05,0.00624794,0.0928526,-0.0409079,-0.0503073,-1.44913e-06,1.10487e-06,2.32325e-06,0.0884393,0.09729998132986162,-1.4491289500595528e-06,1.1048706103355954e-06,-0.040082465718375815,2.3232526986660673e-06,-0.04906284339217337
973,0.0974,849.878,5.96827e-05,4.30909e-05,0.000775266,-7.72056e-05,0.00624647,0.0929437,-0.0409485,-0.0503576,-1.44956e-06,1.10512e-06,2.32498e-06,0.0885294,0.09739994991166046,-1.4495589494289973e-06,1.1051206105783251e-06,-0.040121437579133556,2.324982702806011e-06,-0.049110674328192605
974,0.0975,850.014,5.96594e-05,4.30742e-05,0.000776904,-7.86025e-05,0.00624501,0.0930349,-0.0409892,-0.0504078,-1.45e-06,1.10536e-06,2.32671e-06,0.0886195,0.0975000373510102,-1.4499989487992693e-06,1.1053606108202274e-06,-0.040160503841620177,2.32671270672391e-06,-0.04915840777422176
975,0.0976,850.151,5.96362e-05,4.30575e-05,0.000778539,-7.99976e-05,0.00624355,0.093126,-0.0410298,-0.050458,-1.45043e-06,1.10561e-06,2.32844e-06,0.0887097,0.09760002415874292,-1.4504289481687138e-06,1.1056106112850017e-06,-0.040199472534094394,2.328442710863854e-06,-0.049206138824092194
976,0.0977,850.287,5.96129e-05,4.30408e-05,0.000780171,-8.13908e-05,0.00624209,0.0932171,-0.0410704,-0.0505082,-1.45086e-06,1.10585e-06,2.33017e-06,0.0887998,0.09770002007568857,-1.4508589475381584e-06,1.105850611526904e-06,-0.040238439644471824,2.330172714781753e-06,-0.04925386747792393
977,0.0978,850.423,5.95897e-05,4.30241e-05,0.000781802,-8.27821e-05,0.00624063,0.0933082,-0.041111,-0.0505584,-1.45129e-06,1.10609e-06,2.3319e-06,0.0888899,0.09780002510267738,-1.451288946907603e-06,1.1060906117688063e-06,-0.04027740517281675,2.3319027189216968e-06,-0.04930159373583742
978,0.0979,850.559,5.95665e-05,4.30074e-05,0.000783431,-8.41715e-05,0.00623917,0.0933993,-0.0411517,-0.0506086,-1.45172e-06,1.10633e-06,2.33362e-06,0.08898,0.09790003924053914,-1.4517189462770475e-06,1.1063306120107086e-06,-0.04031646508755149,2.3336227228387685e-06,-0.04934931759795291
979,0.098,850.695,5.95433e-05,4.29908e-05,0.000785058,-8.55591e-05,0.00623771,0.0934903,-0.0411923,-0.0506588,-1.45215e-06,1.10658e-06,2.33535e-06,0.0890701,0.09799995269010298,-1.452148945646492e-06,1.1065806122534383e-06,-0.0403554274481277,2.3353527269787122e-06,-0.049397039064390746
980,0.0981,850.83,5.95201e-05,4.29741e-05,0.000786682,-8.69448e-05,0.00623625,0.0935814,-0.0412329,-0.050709,-1.45258e-06,1.10682e-06,2.33708e-06,0.0891602,0.09809998504219752,-1.4525789450159365e-06,1.1068206124953406e-06,-0.04039438822686414,2.3370827308966113e-06,-0.04944475813527094
981,0.0982,850.966,5.9497e-05,4.29575e-05,0.000788305,-8.83287e-05,0.0062348,0.0936725,-0.0412735,-0.0507592,-1.45301e-06,1.10706e-06,2.3388e-06,0.0892503,0.09820002650765436,-1.453008944385381e-06,1.1070606127372429e-06,-0.040433347423825095,2.3388027350357277e-06,-0.04949247481071406
982,0.0983,851.101,5.94738e-05,4.29408e-05,0.000789926,-8.97108e-05,0.00623334,0.0937635,-0.0413141,-0.0508094,-1.45343e-06,1.1073e-06,2.34053e-06,0.0893403,0.09829996725730172,-1.4534289437539982e-06,1.1073006129791452e-06,-0.04047230503907473,2.340532738953627e-06,-0.049540189090840014
983,0.0984,851.236,5.94507e-05,4.29242e-05,0.000791544,-9.1091e-05,0.00623189,0.0938546,-0.0413547,-0.0508595,-1.45386e-06,1.10753e-06,2.34225e-06,0.0894304,0.09840002694196825,-1.4538589431234428e-06,1.10753061322022e-06,-0.04051126107267733,2.342252743092743e-06,-0.049587805934554696
984,0.0985,851.372,5.94276e-05,4.29076e-05,0.000793161,-9.24693e-05,0.00623044,0.0939456,-0.0413953,-0.0509097,-1.45429e-06,1.10777e-06,2.34397e-06,0.0895205,0.09849998589248332,-1.4542889424928873e-06,1.107770613684167e-06,-0.040550215524697064,2.343972747009815e-06,-0.049635515429178434
985,0.0986,851.507,5.94044e-05,4.2891e-05,0.000794775,-9.38459e-05,0.00622898,0.0940366,-0.0414359,-0.0509599,-1.45471e-06,1.10801e-06,2.3457e-06,0.0896105,0.09859995393967669,-1.4547089418615045e-06,1.1080106139260693e-06,-0.040589168395198105,2.3457027511497586e-06,-0.049683222528845716
986,0.0987,851.642,5.93814e-05,4.28744e-05,0.000796387,-9.52206e-05,0.00622753,0.0941277,-0.0414765,-0.05101,-1.45513e-06,1.10825e-06,2.34742e-06,0.0897006,0.09870004095437479,-1.455128941341144e-06,1.1082506141679715e-06,-0.040628119684244735,2.347422755288875e-06,-0.049730832206764664
987,0.0988,851.776,5.93583e-05,4.28578e-05,0.000797998,-9.65935e-05,0.00622608,0.0942187,-0.0415171,-0.0510602,-1.45556e-06,1.10848e-06,2.34914e-06,0.0897906,0.09880002720740722,-1.4555589407105884e-06,1.1084806144090464e-06,-0.04066706939190112,2.3491427592059466e-06,-0.04977853452164971
988,0.0989,851.911,5.93352e-05,4.28412e-05,0.000799606,-9.79645e-05,0.00622464,0.0943097,-0.0415577,-0.0511104,-1.45598e-06,1.10872e-06,2.35086e-06,0.0898806,0.09890002255960262,-1.4559789400792056e-06,1.1087206146509487e-06,-0.04070601751823155,2.350862763345063e-06,-0.04982623444193868
989,0.099,852.046,5.93122e-05,4.28247e-05,0.000801212,-9.93337e-05,0.00622319,0.0944007,-0.0415983,-0.0511605,-1.4564e-06,1.10895e-06,2.35258e-06,0.0899706,0.099000027011789,-1.4563989394478227e-06,1.1089506148920236e-06,-0.04074496406330008,2.3525827672621347e-06,-0.04987383695514025
990,0.0991,852.18,5.92891e-05,4.28081e-05,0.000802817,-0.000100701,0.00622174,0.0944917,-0.0416389,-0.0512107,-1.45682e-06,1.10919e-06,2.3543e-06,0.0900607,0.09910004056479482,-1.4568189388164399e-06,1.109190615133926e-06,-0.040783909027170995,2.354302771401251e-06,-0.04992153209136718
991,0.0992,852.314,5.92661e-05,4.27916e-05,0.000804419,-0.000102067,0.0062203,0.0945826,-0.0416795,-0.0512608,-1.45724e-06,1.10942e-06,2.35602e-06,0.0901507,0.0991999532994472,-1.457238938185057e-06,1.1094206153750008e-06,-0.04082285240990846,2.3560227753183227e-06,-0.04996912983027613
992,0.0993,852.449,5.92431e-05,4.2775e-05,0.000806019,-0.000103431,0.00621885,0.0946736,-0.04172,-0.0513109,-1.45766e-06,1.10965e-06,2.35773e-06,0.0902406,0.09929998504657278,-1.4576589376646965e-06,1.1096506156160757e-06,-0.040861698297751325,2.3577327794566116e-06,-0.05001672518459799
993,0.0994,852.583,5.92201e-05,4.27585e-05,0.000807618,-0.000104793,0.00621741,0.0947646,-0.0417606,-0.0513611,-1.45807e-06,1.10989e-06,2.35945e-06,0.0903306,0.09940002589700181,-1.4580689370324862e-06,1.109890615857978e-06,-0.04090063852230852,2.359452783595728e-06,-0.050064413148015796
994,0.0995,852.717,5.91971e-05,4.2742e-05,0.000809214,-0.000106153,0.00621597,0.0948555,-0.0418012,-0.0514112,-1.45849e-06,1.11012e-06,2.36117e-06,0.0904206,0.09949996590156007,-1.4584889364011033e-06,1.1101206160990529e-06,-0.04093957716592467,2.3611727875127997e-06,-0.05011200372876312
995,0.0996,852.85,5.91742e-05,4.27255e-05,0.000810808,-0.000107511,0.00621452,0.0949465,-0.0418417,-0.0514613,-1.45891e-06,1.11035e-06,2.36288e-06,0.0905106,0.0996000249510749,-1.4589089357697205e-06,1.1103506163401278e-06,-0.040978418326510724,2.3628827916510886e-06,-0.05015959192528208
996,0.0997,852.984,5.91512e-05,4.2709e-05,0.0008124,-0.000108868,0.00621308,0.0950374,-0.0418823,-0.0515114,-1.45932e-06,1.11058e-06,2.3646e-06,0.0906006,0.09969998313637363,-1.4593189352485325e-06,1.1105806168032473e-06,-0.04101735381233085,2.3646027955681603e-06,-0.05020717773769201
997,0.0998,853.118,5.91283e-05,4.26925e-05,0.000813991,-0.000110223,0.00621164,0.0951283,-0.0419228,-0.0515616,-1.45974e-06,1.11081e-06,2.36631e-06,0.0906905,0.09979995040828449,-1.4597389346171497e-06,1.1108106170443222e-06,-0.041056191823026444,2.3663127997064493e-06,-0.05025485614063163
998,0.0999,853.251,5.91054e-05,4.2676e-05,0.000815579,-0.000111576,0.00621021,0.0952193,-0.0419634,-0.0516117,-1.46015e-06,1.11104e-06,2.36802e-06,0.0907805,0.09990003675763148,-1.4601489339849394e-06,1.111040617285397e-06,-0.041095124151306894,2.368022803844738e-06,-0.05030243718042404
999,0.1,853.385,5.90825e-05,4.26596e-05,0.000817165,-0.000112927,0.00620877,0.0953102,-0.0420039,-0.0516618,-1.46056e-06,1.11127e-06,2.36973e-06,0.0908704,0.10000002221524285,-1.4605589333527291e-06,1.111270617526472e-06,-0.041133959012367494,2.3697328077609825e-06,-0.05035001583646603
