,Time,S11,S22,S33,S12,S13,S23,LE11,LE22,LE33,LE12,LE13,LE23,SDV_EPBAR,E11,E12,E13,E22,E23,E33
0,1e-05,1.93829,0.139163,-2.22045e-16,0.519362,4.37921e-18,-1.63434e-17,9.12912e-06,-2.12914e-06,-3e-06,6.49996e-06,1.09613e-22,-4.09083e-22,0.0,9.129161670617947e-06,6.499981124896692e-06,0.0,-2.1291377333421124e-06,0.0,-2.9999955000192813e-06
1,2e-05,3.87655,0.278324,4.44089e-16,1.03872,4.90297e-17,1.31375e-17,1.82581e-05,-4.25827e-06,-5.99996e-06,1.29999e-05,-1.59542e-26,-4.27491e-27,0.0,1.8258266680115653e-05,1.2999984499106887e-05,0.0,-4.258260933531766e-06,0.0,-5.9999420002343484e-06
2,3.5e-05,6.78392,0.487064,-2.22045e-16,1.81775,-8.75906e-18,3.26867e-17,3.19515e-05,-7.45192e-06,-1.04998e-05,2.27496e-05,-1.03741e-21,5.98946e-22,0.0,3.19520104545834e-05,2.2749858774151477e-05,0.0,-7.451892234500157e-06,0.0,-1.0499744877323636e-05
3,5.75e-05,11.1449,0.800167,-4.44089e-15,2.98626,2.39269e-17,4.14449e-17,5.24912e-05,-1.22423e-05,-1.72495e-05,3.73739e-05,-3.05783e-26,-8.19342e-27,0.0,5.249257768724647e-05,3.737459841279822e-05,0.0,-1.2242225063352485e-05,0.0,-1.7249351228265652e-05
4,9.125e-05,17.6861,1.26981,-2.93099e-14,4.73899,-8.76002e-18,3.26864e-17,8.32998e-05,-1.94277e-05,-2.73738e-05,5.93098e-05,-4.38467e-22,1.63638e-21,0.0,8.330326952465938e-05,5.931155886096384e-05,0.0,-1.9427511283476306e-05,0.0,-2.737342534098186e-05
5,0.00014188,27.4976,1.97424,-1.53655e-13,7.36797,1.51663e-17,7.41312e-17,0.000129511,-3.02053e-05,-4.25596e-05,9.22122e-05,-8.77024e-22,3.2728e-21,0.0,0.0001295193869115252,9.221645167567516e-05,0.0,-3.0204843824543914e-05,0.0,-4.255869435310089e-05
6,0.00021781,42.2139,3.03082,-7.98472e-13,11.3112,-3.26874e-17,-8.75856e-18,0.000198823,-4.63708e-05,-6.53367e-05,0.000141563,2.35091e-22,-1.39685e-20,0.0,0.0001988427666026471,0.00014157302051431842,0.0,-4.636972489102664e-05,0.0,-6.533456560431361e-05
7,0.00033172,64.2863,4.61555,-4.0421e-12,17.2255,5.50891e-16,4.2788e-16,0.000302781,-7.06166e-05,-9.94992e-05,0.000215581,8.29667e-21,-4.79291e-21,0.0,0.00030282684279359096,0.00021560423925381933,0.0,-7.061410670661239e-05,0.0,-9.949425011879232e-05
8,0.00050258,97.3901,6.99229,-2.04503e-11,26.0956,2.63699e-16,-6.94769e-17,0.000458697,-0.00010698,-0.000150736,0.000326594,-1.87047e-24,-5.0119e-25,0.0,0.00045880221755600914,0.00032664733762688414,0.0,-0.00010697427784389646,0.0,-0.00015072463989995732
9,0.00075887,147.035,10.5567,-1.03424e-10,39.398,2.63622e-16,-6.94974e-17,0.00069252,-0.000161514,-0.000227574,0.000493077,1.05225e-20,-3.92819e-20,0.0,0.0006927598473382979,0.0004931985824463414,0.0,-0.00016150095731615188,0.0,-0.0002275481070015406
10,0.0011433,221.479,15.9015,-5.23063e-10,59.3451,4.54805e-16,2.61999e-16,0.00104314,-0.000243289,-0.000342794,0.000742721,2.61813e-20,7.01526e-21,0.0,0.0010436842597596474,0.0007429968855396929,0.0,-0.00024325940763114673,0.0,-0.00034273525284966855
11,0.00172,333.091,23.9149,-2.64423e-09,89.2515,-3.10489e-16,-1.06414e-15,0.00156882,-0.000365891,-0.000515542,0.00111701,4.02483e-20,-4.53668e-20,0.0,0.0015700512418777013,0.001117634088019237,0.0,-0.0003658240700513682,0.0,-0.0005154091310572984
12,0.0025849,450.691,32.6659,-0.0327898,121.576,-0.130412,-0.0310217,0.00235707,-0.00058597,-0.000840482,0.00168668,-1.84315e-06,-4.25349e-07,0.000255812,0.0023598500733390537,0.0016881032447848554,-1.8431483014280658e-06,-0.0005857983531077915,-4.2534890953849214e-07,-0.0008401288939371421
13,0.0028349,453.732,33.3415,0.174497,122.348,-0.0657492,-0.0176347,0.00258702,-0.000672702,-0.000976142,0.00184902,-1.12876e-06,-2.73525e-07,0.000491907,0.0025903692237871923,0.001850730491562036,-1.1287593629782933e-06,-0.0006724757867371256,-2.7352496256849435e-07,-0.0009756657283801484
14,0.0032099,457.35,33.1324,-0.105611,123.614,-0.231853,-0.0801255,0.00293189,-0.000806162,-0.0011815,0.00209321,-3.71882e-06,-1.20055e-06,0.000847677,0.0029361921929773604,0.0020954022934287497,-3.718813085251682e-06,-0.0008058371387177354,-1.2005492793232264e-06,-0.001180802303678119
15,0.0037724,463.323,33.5589,-0.0475902,125.415,-0.360138,-0.0557933,0.00345011,-0.00100162,-0.00149177,0.00245372,-6.48512e-06,-9.60758e-07,0.00138053,0.0034560684800060137,0.002456732834632769,-6.4850989716092045e-06,-0.0010011185461238359,-9.607575385262024e-07,-0.0014906578642192025
16,0.0046162,472.12,34.3601,-0.0346403,128.087,-0.501624,-0.0758366,0.00422875,-0.00128777,-0.00196554,0.00298539,-1.05769e-05,-1.18795e-06,0.00218047,0.004237703779931268,0.002989850714612441,-1.0576844064802415e-05,-0.001286941180028256,-1.1879492943789316e-06,-0.001963609591226545
17,0.0056162,482.235,35.2806,-0.0636649,131.196,-0.661691,-0.125071,0.0051516,-0.00162257,-0.00253209,0.00361065,-1.61217e-05,-1.87907e-06,0.0031294,0.0051648923070273245,0.0036171762490142534,-1.6121570046045974e-05,-0.0016212543449745098,-1.8790682345670717e-06,-0.002528886964144661
18,0.0066162,492.488,36.9215,0.106235,134.202,-0.657516,-0.202917,0.00607296,-0.0019534,-0.00309908,0.00423649,-1.9516e-05,-3.37915e-06,0.00407806,0.0060914378076388775,0.004245476609839427,-1.9515809564163433e-05,-0.0019514933559016123,-3.379144290716063e-06,-0.0030942828084831175
19,0.0076162,501.658,37.0563,-0.0844833,137.141,-0.954301,-0.210888,0.00699304,-0.00229126,-0.00366347,0.00486501,-2.82734e-05,-4.043e-06,0.00502857,0.007017548400320761,0.004876863375618212,-2.8273000311163088e-05,-0.0022886370674620737,-4.042991827102327e-06,-0.0036567676808593186
20,0.0086162,511.433,38.751,0.104704,139.957,-0.897108,-0.300583,0.0079117,-0.00262163,-0.00422903,0.00549295,-3.2189e-05,-6.22098e-06,0.00597795,0.007943080200765396,0.005508063910497407,-3.218848193964341e-05,-0.0026181965291569576,-6.220960649727658e-06,-0.004220100245131642
21,0.0096162,520.009,38.6798,-0.0851676,142.733,-1.22393,-0.274602,0.00882912,-0.00296035,-0.00479145,0.00612379,-4.2602e-05,-6.79562e-06,0.00692933,0.008868211643560109,0.006142578735158111,-4.260109254772271e-05,-0.002955972484663394,-6.795596909858759e-06,-0.00477998931518786
22,0.010616,529.313,40.4267,0.10385,145.382,-1.12507,-0.373349,0.00974515,-0.00329025,-0.00535567,0.00675353,-4.70483e-05,-9.44881e-06,0.00787932,0.009792788596933333,0.0067763865087986375,-4.7047193246108066e-05,-0.0032848430591566613,-9.448765360131617e-06,-0.005341353968141949
23,0.011616,537.363,40.2344,-0.0804191,147.997,-1.45667,-0.332837,0.0106601,-0.00362937,-0.00591642,0.00738609,-5.85367e-05,-1.01278e-05,0.00883137,0.01071712130348268,0.007413434444127676,-5.853498676078317e-05,-0.0036227917973516988,-1.0127748714006124e-05,-0.005898952452618289
24,0.012616,546.182,41.9575,0.0959319,150.49,-1.33685,-0.434695,0.0115736,-0.00395917,-0.00647927,0.00801731,-6.36348e-05,-1.31022e-05,0.00978192,0.011640833234982884,0.008049534690695692,-6.363277534904288e-05,-0.003951342819575432,-1.310211416660767e-05,-0.006458324791102532
25,0.013616,553.776,41.7364,-0.0692702,152.954,-1.6547,-0.387853,0.0124861,-0.00429821,-0.00703859,0.00865113,-7.57416e-05,-1.39561e-05,0.0107344,0.012564376797977728,0.008688659170316138,-7.573873167743272e-05,-0.004288985915813837,-1.3956002614112784e-05,-0.007013877140627067
26,0.014616,562.095,43.3556,0.0824042,155.303,-1.53547,-0.486061,0.0133972,-0.00462826,-0.00760002,0.00928357,-8.16544e-05,-1.71029e-05,0.0116855,0.013487344595812134,0.009326795996278614,-8.165106637025854e-05,-0.004617566109083149,-1.7102753746223165e-05,-0.007571212872444555
27,0.015616,569.766,44.1442,0.0788841,157.604,-1.59808,-0.526466,0.0143072,-0.00496141,-0.00816039,0.00991714,-9.00609e-05,-1.97062e-05,0.0126375,0.01441003784114736,0.009966477794618678,-9.005684463891939e-05,-0.004949122534855688,-1.970600583411919e-05,-0.008127184402455523
28,0.016616,576.74,43.8501,-0.00668175,159.854,-1.91816,-0.437318,0.0152163,-0.00530053,-0.00871736,0.0105522,-0.000103162,-2.02278e-05,0.0135905,0.015332657319690135,0.010608070809474013,-0.00010315667898386227,-0.005286506978282146,-2.0227595419419764e-05,-0.008679473985916841
29,0.017616,584.32,45.3143,0.0588326,162.007,-1.79396,-0.557425,0.0161239,-0.00563075,-0.00927707,0.011186,-0.000109976,-2.39317e-05,0.0145422,0.016254591549941244,0.011248797229507002,-0.00010996995286138844,-0.00561492703952704,-2.3931413639100008e-05,-0.009234170748388615
30,0.018616,591.336,46.0009,0.0442179,164.112,-1.85268,-0.592672,0.0170306,-0.00596401,-0.00983542,0.0118207,-0.000119268,-2.67206e-05,0.0154946,0.017176447448315812,0.011890840572009731,-0.00011926088785485511,-0.005946260595764863,-2.6720243007982702e-05,-0.009787210439927696
31,0.019616,597.807,45.818,0.0218717,166.165,-2.12525,-0.501106,0.0179363,-0.00630221,-0.0103906,0.0124564,-0.000132429,-2.74662e-05,0.0164477,0.018098121473848705,0.012534304082568726,-0.00013242023166704087,-0.006282392727284036,-2.746582280743759e-05,-0.010336804200587024
32,0.020616,604.288,46.2321,-0.0674383,168.156,-2.2238,-0.534184,0.0188407,-0.00663757,-0.0109464,0.0130921,-0.000143759,-2.99072e-05,0.0174004,0.01901930591172296,0.013178176772925543,-0.00014374866717015156,-0.006615589990419113,-2.9906752784136792e-05,-0.01088670617289822
33,0.021616,611.228,47.7686,0.131229,170.055,-2.06993,-0.604031,0.0197441,-0.00696716,-0.0115033,0.0137265,-0.000151102,-3.31133e-05,0.0183521,0.019940303904839363,0.013821140934938247,-0.00015109058466777903,-0.006942945608581774,-3.311275176076656e-05,-0.011437390014082616
34,0.022616,617.442,48.3526,0.074335,171.927,-2.11446,-0.65598,0.0206464,-0.00730019,-0.0120594,0.0143619,-0.000161049,-3.63143e-05,0.0193047,0.020861011355753245,0.014465527587848026,-0.0001610360323059945,-0.007273608336045512,-3.6313640643825806e-05,-0.011986976854711617
35,0.023616,623.147,48.0848,0.0307211,173.756,-2.37507,-0.570697,0.0215478,-0.00763802,-0.0126124,0.0149981,-0.000174793,-3.73888e-05,0.0202578,0.021781630332026625,0.0151111359027285,-0.00017477772459362217,-0.007608924449830856,-3.738810104747525e-05,-0.012533197012717379
36,0.024616,628.907,48.4416,-0.0619597,175.527,-2.46017,-0.602831,0.022448,-0.00797289,-0.013166,0.0156342,-0.000186615,-4.00578e-05,0.0212105,0.022701852285410107,0.015757053508591357,-0.00018659758850403385,-0.007941190813176902,-4.0056997697046626e-05,-0.013079707346833058
37,0.025616,635.118,49.8617,0.124851,177.211,-2.30578,-0.664634,0.0233472,-0.00830232,-0.0137205,0.0162688,-0.000194646,-4.33549e-05,0.022162,0.023621879373172394,0.016401857509417805,-0.00019462705769635047,-0.008267950921440947,-4.33539601899513e-05,-0.013626802952834471
38,0.026616,640.631,50.353,0.0595009,178.876,-2.34691,-0.712663,0.0242454,-0.00863512,-0.0142743,0.0169044,-0.000205227,-4.66738e-05,0.0231144,0.02454170957913049,0.017048087880306984,-0.00020520594237982692,-0.008597944433408222,-4.6672710795170325e-05,-0.014172905199689834
39,0.027616,645.741,50.149,0.0447165,180.5,-2.56921,-0.631813,0.0251427,-0.00897188,-0.0148253,0.0175404,-0.000218966,-4.80055e-05,0.024067,0.025461443432018838,0.017695136203754958,-0.0002189420286951016,-0.00893175277983671,-4.8004347754426746e-05,-0.014715946307360728
40,0.028616,651.327,51.4256,0.0700707,182.055,-2.41638,-0.738066,0.0260388,-0.0093008,-0.015379,0.0181752,-0.000227244,-5.21209e-05,0.0250184,0.02638077127480032,0.018341374170446567,-0.00022721818203796929,-0.00925768134256244,-5.211954172945621e-05,-0.015261347079752241
41,0.029616,656.343,51.7619,0.0229311,183.579,-2.47982,-0.766628,0.026934,-0.00963367,-0.0159309,0.0188106,-0.000238429,-5.53689e-05,0.0259704,0.027299998726064922,0.018988633892231377,-0.00023840057806490123,-0.009587414855932064,-5.536736717071111e-05,-0.01580467439733446
42,0.030616,661.05,51.548,0.0606052,185.059,-2.69359,-0.668832,0.0278283,-0.00996993,-0.0164801,0.0194462,-0.000252331,-5.65981e-05,0.0269225,0.028219124040552268,0.01963650894081259,-0.0002522991672107011,-0.009920395004722637,-5.6596498357763814e-05,-0.016345046070511682
43,0.031616,666.127,52.6843,0.0418157,186.487,-2.55519,-0.77691,0.0287214,-0.0102988,-0.0170322,0.0200808,-0.000261143,-6.08436e-05,0.0278735,0.029137836730318778,0.020283775625383305,-0.0002611089051347548,-0.010245948949020423,-6.084174906573203e-05,-0.01688797208205972
44,0.032616,670.719,52.9694,0.00534869,187.881,-2.61775,-0.797383,0.0296137,-0.0106314,-0.0175825,0.0207157,-0.000272665,-6.40619e-05,0.0288249,0.030056546243325988,0.02093175947523429,-0.0002726278302772611,-0.010575086407806467,-6.405984808033338e-05,-0.017428829800372747
45,0.033616,675.074,52.8344,0.0654152,189.233,-2.79908,-0.705638,0.0305052,-0.0109667,-0.0181302,0.0213507,-0.000286358,-6.5474e-05,0.0297762,0.03097525110614785,0.02158025701868027,-0.0002863170034612672,-0.010906784968962469,-6.547185662442168e-05,-0.01796683668365706
46,0.034616,679.675,53.7863,0.0253804,190.544,-2.69024,-0.801109,0.0313954,-0.0112958,-0.0186805,0.0219849,-0.00029588,-6.96082e-05,0.0307266,0.03189343389720789,0.022228348705833012,-0.00029583623182960483,-0.01123224198913908,-6.960577740544593e-05,-0.018507100866106185
47,0.035616,683.573,53.2379,0.019843,191.826,-2.95545,-0.692981,0.0322849,-0.0116328,-0.0192265,0.0226199,-0.000311121,-7.07332e-05,0.0316777,0.032811711450055236,0.02287766984490447,-0.00031107260688056915,-0.011565400583212648,-7.073069846619262e-05,-0.01904284971628767
48,0.036616,687.665,53.569,-0.0482046,193.07,-2.98764,-0.729758,0.0331733,-0.0119654,-0.0197738,0.0232543,-0.000323489,-7.38061e-05,0.032628,0.033729669070907464,0.02352678931758012,-0.0003234366830748847,-0.011894099265357672,-7.380337639684154e-05,-0.019579580674813468
49,0.037616,692.173,54.8548,0.0982058,194.244,-2.79909,-0.800118,0.0340608,-0.0122929,-0.0203221,0.0238872,-0.000332242,-7.75706e-05,0.033577,0.03464751138448907,0.024174784458971477,-0.0003321868137385886,-0.0122176509633658,-7.756759147881098e-05,-0.020116997844348727
50,0.038616,695.544,54.1527,-0.0781336,195.443,-3.07425,-0.74182,0.0349474,-0.0126296,-0.0208671,0.024522,-0.000347871,-7.9477e-05,0.0345275,0.035565236635570985,0.02482513701220701,-0.0003478104998992926,-0.012550181295663432,-7.947384178685901e-05,-0.020650888582082638
51,0.039616,699.365,54.5399,-0.0847779,196.574,-3.08837,-0.760854,0.035833,-0.0129614,-0.0214127,0.0251555,-0.000360202,-8.24108e-05,0.0354767,0.0364827394194025,0.025474569422500926,-0.0003601371350480109,-0.01287776279673325,-8.240740432330362e-05,-0.021185075717770285
52,0.040616,703.574,55.8461,0.0866401,197.641,-2.88534,-0.826182,0.0367177,-0.0132883,-0.0219594,0.0257874,-0.000368924,-8.61713e-05,0.0364246,0.037400121443069256,0.0261227715808221,-0.0003688559559090754,-0.013200400318098882,-8.616758736013086e-05,-0.021720047588989932
53,0.041616,706.622,55.1164,-0.080473,198.741,-3.15766,-0.764596,0.0376015,-0.0136244,-0.0225029,0.0264214,-0.000384645,-8.8088e-05,0.037374,0.038317380947669566,0.026773539689696424,-0.00038457103359590405,-0.013532007933770629,-8.808412036609425e-05,-0.022251598281140095
54,0.042616,710.136,55.495,-0.0801639,199.775,-3.16413,-0.782243,0.0384844,-0.0139556,-0.0230469,0.0270539,-0.000396981,-9.105e-05,0.038322,0.03923451617307694,0.027423179380444695,-0.00039690221346877497,-0.013858672034181785,-9.104585507457852e-05,-0.02278334876243049
55,0.043616,714.017,56.745,0.0804159,200.75,-2.96339,-0.846349,0.0393663,-0.0142819,-0.0235922,0.0276849,-0.000405859,-9.48324e-05,0.0392688,0.04015142134279781,0.028071687989582372,-0.0004057766503772209,-0.014180397457139726,-9.482790355008763e-05,-0.023316079740048568
56,0.044616,716.795,56.0402,-0.0706652,201.758,-3.22156,-0.784816,0.0402474,-0.0146172,-0.0241341,0.0283178,-0.000421463,-9.67924e-05,0.040217,0.04106830263287797,0.028722560507793204,-0.00042137419694598943,-0.014510887360143832,-9.678771576682177e-05,-0.023845201377981406
57,0.045616,720.018,56.3972,-0.0723489,202.704,-3.22367,-0.803246,0.0411275,-0.0149477,-0.0246767,0.0289494,-0.000433792,-9.98096e-05,0.0411637,0.04198495015760062,0.029372506908476925,-0.00043369792585368216,-0.014836537695189222,-9.980461918757122e-05,-0.02437471930050983
58,0.046616,723.581,57.5576,0.0766488,203.596,-3.03467,-0.861911,0.0420067,-0.0152738,-0.0252204,0.0295794,-0.000442928,-0.000103545,0.0421093,0.042901466167178715,0.030021215909708632,-0.0004428299218744991,-0.015157747124202925,-0.00010353963940146205,-0.024905022589613468
59,0.047616,726.125,56.9095,-0.0609167,204.519,-3.27127,-0.805115,0.0428851,-0.015608,-0.025761,0.0302112,-0.000458278,-0.000105609,0.0430561,0.04381795327726956,0.03067218893464485,-0.0004581730066767209,-0.015486826412902,-0.00010560342356591423,-0.025432016475119834
60,0.048616,729.076,57.2399,-0.0649938,205.385,-3.27107,-0.823832,0.0437626,-0.0159379,-0.0263022,0.0308417,-0.000470591,-0.000108674,0.0440015,0.04473430552201796,0.03132223265451639,-0.00047048028942253683,-0.015811563740500967,-0.00010866809519471943,-0.025959309969313726
61,0.049616,732.34,58.2945,0.0736219,206.2,-3.09907,-0.874382,0.0446391,-0.0162637,-0.0268442,0.0314707,-0.000480031,-0.00011232,0.0449458,0.04565041656782354,0.03197113839831811,-0.0004799158035528883,-0.016132160105050697,-0.00011231369234498967,-0.02648709698010998
62,0.050616,734.677,57.7196,-0.0518464,207.045,-3.31054,-0.824623,0.0455148,-0.0165968,-0.0273835,0.0321012,-0.000495054,-0.000114514,0.0458911,0.046566493683435795,0.03262200136406679,-0.0004949314809872263,-0.01645983190575151,-0.00011450744352214937,-0.027011970943722985
63,0.051616,737.993,59.2051,0.132248,207.8,-3.03009,-0.911442,0.0463896,-0.0169199,-0.0279255,0.032729,-0.000502772,-0.00011873,0.046834,0.04748243062451629,0.03327048499423557,-0.000502645631337062,-0.016777562401937063,-0.00011872295187254078,-0.027539187566860135
64,0.052616,740.448,59.2319,0.0369756,208.583,-3.08455,-0.939693,0.0472635,-0.0172487,-0.0284658,0.0333579,-0.000514867,-0.000122315,0.0477778,0.048398225618978996,0.03392051318218736,-0.0005147344787307384,-0.017100792797430264,-0.0001223075198253376,-0.02806446622700931
65,0.053616,742.706,58.7413,0.0726345,209.341,-3.28675,-0.830226,0.0481367,-0.0175808,-0.0290034,0.0339868,-0.000529533,-0.000123752,0.0487213,0.04931408675636839,0.03457095030144175,-0.0005293928221450361,-0.01742715942796358,-0.00012374434303707993,-0.028586838343759524
66,0.054616,745.405,59.6324,0.028153,210.063,-3.12678,-0.933716,0.0490087,-0.0179054,-0.0295438,0.0346143,-0.000538999,-0.00012823,0.0496634,0.050229487696825226,0.03522034729975543,-0.0005388537661338288,-0.017746050813141512,-0.00012822177888494046,-0.029111648199923734
67,0.055616,747.348,58.7687,0.023891,210.784,-3.41081,-0.805635,0.0498802,-0.018239,-0.0300795,0.0352427,-0.000555067,-0.000129324,0.0506061,0.0511451616423193,0.03587108420612051,-0.0005549129788113838,-0.018073676079657375,-0.0001293156380119953,-0.02963161380476098
68,0.056616,749.635,59.0008,-0.0352204,211.475,-3.40956,-0.841845,0.0507506,-0.0185672,-0.0306169,0.0358701,-0.000567495,-0.000132596,0.0515476,0.052060476678329914,0.0365211936423564,-0.0005673340051685072,-0.018395891420738275,-0.00013258720953890357,-0.030152949680005925
69,0.057616,752.32,60.0756,0.0791668,212.114,-3.20969,-0.908743,0.0516202,-0.0188909,-0.0311552,0.0364959,-0.000576637,-0.00013649,0.0524877,0.052975746370433896,0.03717005161182074,-0.0005764707768367572,-0.01871358524916522,-0.00013648068566374238,-0.03067487785762102
70,0.058616,754.05,59.368,-0.0449633,212.789,-3.43713,-0.84778,0.052489,-0.0192226,-0.0316904,0.0371232,-0.000591959,-0.000138555,0.0534288,0.0538909692141154,0.03782087249382471,-0.0005917838268379993,-0.01903902397594137,-0.00013854540169933038,-0.03119352186147617
71,0.059616,756.839,60.8991,0.125548,213.375,-3.1248,-0.948681,0.0533568,-0.0195434,-0.0322287,0.0377476,-0.000599294,-0.000143001,0.0543673,0.05480593274245438,0.03846909019911693,-0.0005991144592184527,-0.019353665785805108,-0.00014299077584434272,-0.03171489004982064
72,0.060616,758.74,60.847,0.0300839,213.997,-3.18212,-0.972064,0.0542238,-0.0198705,-0.032765,0.0383731,-0.000611458,-0.00014656,0.0553068,0.055720846043747496,0.03911885580804575,-0.0006112710976533542,-0.019674382745608288,-0.00014654926060786444,-0.03223404213121317
73,0.061616,760.473,60.2967,0.0748926,214.596,-3.38365,-0.856724,0.0550901,-0.0202009,-0.0332986,0.0389986,-0.000626133,-0.000147952,0.0562458,0.05663581327350897,0.03976902797249959,-0.0006259370196385339,-0.019998228827230458,-0.00014794105564264193,-0.032750304295336985
74,0.062616,762.651,61.1292,0.0219402,215.166,-3.22082,-0.960024,0.0559553,-0.0205237,-0.0338351,0.0396226,-0.000635592,-0.000152444,0.0571834,0.057550410176720135,0.04041804631861923,-0.0006353900541921087,-0.020314522346444486,-0.00015243238100381973,-0.033269094579145286
75,0.063616,764.117,60.247,0.0307775,215.737,-3.49552,-0.829817,0.0568199,-0.0208553,-0.0343669,0.0402475,-0.000651521,-0.000153537,0.0581216,0.058465163652302365,0.04106840673971335,-0.0006513088062786165,-0.020639332194385296,-0.00015352521379807804,-0.03378306539769438
76,0.064616,765.926,60.4473,-0.0289731,216.284,-3.48704,-0.866553,0.0576835,-0.0211816,-0.0349004,0.0408714,-0.000663816,-0.00015684,0.0590584,0.059379648985563804,0.04171813197939134,-0.0006635957229029765,-0.020958845448867947,-0.00015682770125013956,-0.03429840465333511
77,0.065616,768.114,61.4208,0.0741609,216.784,-3.29614,-0.927978,0.0585463,-0.0215036,-0.0354347,0.0414937,-0.000673086,-0.000160665,0.0599938,0.060294076173870836,0.04236659492123973,-0.0006728595284327676,-0.021274045950629095,-0.00016065209407012393,-0.03481424119772447
78,0.066616,769.432,60.755,-0.0355795,217.321,-3.50049,-0.871273,0.0594083,-0.0218331,-0.0359661,0.0421173,-0.00068804,-0.000162806,0.0609301,0.061208443703320015,0.04301681744814512,-0.0006878033547561557,-0.021596483028062607,-0.0001627927478223823,-0.03532700465663452
79,0.067616,771.711,62.1122,0.110356,217.778,-3.21475,-0.962924,0.0602694,-0.0221526,-0.0365003,0.0427382,-0.000695756,-0.000167117,0.061864,0.062122643846575176,0.04366462768197388,-0.0006955140179176755,-0.021909033019215318,-0.0001671030367319526,-0.03584219535106081
80,0.068616,773.188,62.0238,0.0196219,218.271,-3.26843,-0.983217,0.0611297,-0.022478,-0.0370326,0.0433602,-0.000707913,-0.000170607,0.0627986,0.06303678111684241,0.044313989010829724,-0.0007076624887091265,-0.022227252042827828,-0.00017059244745332158,-0.03635527998088628
81,0.069616,774.564,61.5618,0.0754476,218.742,-3.43508,-0.87931,0.0619893,-0.0228058,-0.0375624,0.0439818,-0.000722053,-0.000172165,0.0637326,0.06395096039185133,0.04496333638265382,-0.0007217923824629491,-0.022547713423118454,-0.00017215018045690922,-0.036865683735659016
82,0.070616,776.277,62.2199,0.0129742,219.194,-3.30228,-0.967967,0.0628478,-0.0231274,-0.0380948,0.0446023,-0.000731919,-0.000176436,0.0646653,0.06486475448133677,0.04561193734051594,-0.0007316512126256391,-0.02286201153663603,-0.00017642043608434577,-0.03737831996976382
83,0.071616,777.452,61.5177,0.0415529,219.642,-3.52117,-0.856147,0.0637058,-0.023456,-0.0386231,0.0452232,-0.000746961,-0.000177799,0.0655983,0.06577880051035434,0.046261359384620615,-0.0007466820940804642,-0.023183046330739643,-0.0001777831946945252,-0.0378867386926931
84,0.072616,779.357,62.7456,0.0393678,220.052,-3.24553,-0.99507,0.0645627,-0.0237745,-0.0391554,0.0458421,-0.000754766,-0.000182779,0.0665292,0.06669245776505583,0.046909090959804445,-0.0007544812357905828,-0.023494112990488203,-0.00018276229693625634,-0.03839873530170024
85,0.073616,780.643,62.6356,-0.00775526,220.473,-3.30168,-0.996883,0.0654189,-0.0240987,-0.0396851,0.0464616,-0.000766922,-0.000186048,0.0674605,0.06760615094362676,0.0475578520746609,-0.0007666279904885442,-0.023810644886463894,-0.00018603069414413476,-0.03890796061138102
86,0.074616,781.843,62.2053,0.0708657,220.876,-3.45552,-0.890304,0.0662744,-0.0244251,-0.0402125,0.0470807,-0.000780821,-0.000187578,0.0683913,0.06851987879711996,0.04820659593882226,-0.0007805162386095299,-0.024129221097506925,-0.00018756040834688736,-0.03941470691220905
87,0.075616,783.323,62.7888,0.00548309,221.266,-3.33461,-0.972658,0.0671288,-0.0247458,-0.0407423,0.0476989,-0.000790807,-0.00019175,0.0693207,0.06943321230207644,0.04885479759491984,-0.0007904943945533649,-0.02444213267824713,-0.0001917316171436978,-0.03992349021189012
88,0.076616,784.441,62.4754,-0.00233449,221.648,-3.44849,-0.936296,0.0679827,-0.0250708,-0.0412694,0.048317,-0.000804164,-0.000194233,0.0702501,0.07034679131911159,0.049503295142834025,-0.0008038407467858555,-0.02475913746905789,-0.00019421413799203258,-0.04042941319248439
89,0.077616,785.657,62.4988,-0.0145999,222.017,-3.47794,-0.932758,0.0688356,-0.0253942,-0.0417966,0.0489345,-0.00081653,-0.000197106,0.0711786,0.07126007951381497,0.0501515635598595,-0.000816196730094032,-0.025074479370466585,-0.00019708657588857204,-0.040935165477832824
90,0.078616,787.005,62.8411,0.0257462,222.365,-3.43032,-0.947569,0.0696877,-0.0257157,-0.0423238,0.0495512,-0.000827731,-0.000200254,0.0721061,0.07217328924531996,0.05079939176640247,-0.0008273885251947055,-0.025387867545500375,-0.00020023395050605686,-0.04144065120084839
91,0.079616,788.161,62.9104,-0.00144029,222.715,-3.44493,-0.958767,0.0705391,-0.026038,-0.0428503,0.0501676,-0.000839742,-0.00020339,0.0730332,0.0730865262936291,0.051447304177578035,-0.0008393895153590014,-0.025701934421194728,-0.00020336931765618793,-0.04194519986390044
92,0.080616,789.288,62.9038,0.0253587,223.052,-3.48408,-0.935814,0.0713896,-0.0263607,-0.0433759,0.0507836,-0.000852172,-0.000206013,0.0739596,0.07399957460299755,0.05209519524691353,-0.0008518090045600557,-0.02601628968300762,-0.000205991780779069,-0.042448621156147004
93,0.081616,790.429,63.0957,-0.00060185,223.382,-3.46678,-0.960041,0.0722393,-0.026682,-0.0439017,0.0513991,-0.000863806,-0.000209304,0.0748853,0.07491253985989776,0.052742959168484926,-0.0008634330269969848,-0.02632918038055021,-0.00020928209744586201,-0.04295196932931178
94,0.082616,791.471,63.0424,0.0204598,223.701,-3.51558,-0.93602,0.0730883,-0.0270044,-0.0444262,0.0520141,-0.000876416,-0.000211903,0.0758103,0.07582552811491272,0.05339059521604561,-0.0008760320596694626,-0.026643041255703825,-0.00021188055014509377,-0.043453809402334787
95,0.083616,792.594,63.3277,0.00349222,224.012,-3.47415,-0.969322,0.0739363,-0.0273247,-0.0449512,0.0526285,-0.000887721,-0.000215328,0.0767345,0.07673821508733747,0.05403799725928837,-0.0008873270922817866,-0.026954757565557652,-0.00021530481859011186,-0.04395586435144283
96,0.084616,793.593,63.3748,-0.0105311,224.316,-3.4927,-0.974049,0.0747836,-0.0276459,-0.0454753,0.0532426,-0.000899822,-0.000218407,0.0776581,0.07765092199065649,0.054685480782873164,-0.0008994172815848245,-0.027267249508534874,-0.0002183831509274814,-0.04445679580238315
97,0.085616,794.575,63.3693,0.0234708,224.61,-3.52937,-0.950008,0.0756302,-0.0279672,-0.0459984,0.0538561,-0.000912254,-0.000221037,0.078581,0.07856364756343392,0.05533272884837648,-0.0009118380228216871,-0.027579738337249138,-0.00022101257312212574,-0.044956509740923356
98,0.086616,795.556,63.533,-0.00325279,224.899,-3.51641,-0.972471,0.0764759,-0.0282873,-0.0465218,0.0544692,-0.000923993,-0.00022432,0.0795031,0.07947617464786871,0.0559799517303341,-0.0009235662499160746,-0.027890960249282948,-0.00022429484214991913,-0.045456248710628144
99,0.087616,796.461,63.492,0.0208474,225.178,-3.5597,-0.950111,0.0773208,-0.0286083,-0.0470439,0.0550818,-0.000936566,-0.00022696,0.0804247,0.08038860947164106,0.05662704323265455,-0.0009361275589507834,-0.0282029571728577,-0.00022693424652753258,-0.045954485927033106
100,0.088616,797.427,63.7352,0.00081804,225.45,-3.52613,-0.980735,0.0781649,-0.0289275,-0.0475664,0.0556939,-0.000948031,-0.000230362,0.0813453,0.08130095049625496,0.057274002627540455,-0.0009475817605870684,-0.028513105286655738,-0.00023033546871176203,-0.04645284450062104
101,0.089616,798.29,63.7775,-0.0112022,225.717,-3.54363,-0.985153,0.0790082,-0.0292473,-0.0480881,0.0563056,-0.000960179,-0.000233447,0.0822654,0.08221319618213951,0.05792093497903528,-0.0009597181756471063,-0.02882373712290709,-0.00023341975336932386,-0.046950180310319056
102,0.090616,799.142,63.7793,0.0215034,225.973,-3.57583,-0.963992,0.0798508,-0.0295673,-0.0486089,0.0569167,-0.0009726,-0.000236134,0.0831848,0.08312545330119359,0.05856762803934035,-0.0009721271779213891,-0.02913446380810658,-0.00023610612256130814,-0.04744639942973883
103,0.091616,799.987,63.918,-0.00363437,226.227,-3.56697,-0.984012,0.0806925,-0.0298862,-0.0491298,0.0575274,-0.000984452,-0.000239399,0.0841034,0.08403750377783448,0.059214292728748674,-0.00098396758610364,-0.029444023465687308,-0.00023937034634602394,-0.04794245539128417
104,0.092616,800.774,63.8912,0.0195031,226.471,-3.60429,-0.964976,0.0815335,-0.0302057,-0.0496496,0.0581377,-0.000996991,-0.000242106,0.0850213,0.08494956278556742,0.059860928512439626,-0.0009964941695984608,-0.029754066568166926,-0.0002420766947074382,-0.04843720630606918
105,0.093616,801.603,64.094,-0.000186339,226.71,-3.57881,-0.991603,0.0823736,-0.0305238,-0.0501697,0.0587474,-0.00100863,-0.000245468,0.0859384,0.08586141188184704,0.06050732275381421,-0.0010081215037374136,-0.03006265271636266,-0.00024543787519537563,-0.048931985436603265
106,0.094616,802.35,64.1336,-0.0112422,226.943,-3.59505,-0.996177,0.083213,-0.0308423,-0.050689,0.0593567,-0.00102083,-0.000248566,0.0868549,0.08677326660286666,0.061153686760366144,-0.0010203091303104816,-0.030371528570381612,-0.00024853511003131157,-0.049425746840321416
107,0.095616,803.091,64.1429,0.0194727,227.168,-3.62297,-0.978047,0.0840516,-0.0311608,-0.0512074,0.0599655,-0.00103325,-0.000251313,0.0877706,0.08768501690771013,0.061799913816422025,-0.0010327163810218698,-0.03068030606310601,-0.0002512814235332561,-0.049918396827249856
108,0.096616,803.818,64.2593,-0.00391661,227.391,-3.61789,-0.99574,0.0848894,-0.0314785,-0.0517259,0.0605738,-0.00104522,-0.000254563,0.0886856,0.08859666124936583,0.06244600319215743,-0.0010446739478405798,-0.030988210016736906,-0.00025453060158875385,-0.05041088644952685
109,0.097616,804.503,64.2459,0.0178854,227.605,-3.64972,-0.979914,0.0857264,-0.0317966,-0.0522434,0.0611817,-0.00105774,-0.000257336,0.0895999,0.08950819807977894,0.06309206046671112,-0.0010571807902297614,-0.031296403646335014,-0.00025730289193159894,-0.050902171684770514
110,0.098616,805.214,64.4124,-0.00104911,227.815,-3.63161,-1.00276,0.0865626,-0.0321134,-0.052761,0.0617891,-0.00106955,-0.000260664,0.0905134,0.09041962584985574,0.06373797872975673,-0.0010689782352605315,-0.031603240340161376,-0.00026063003009124674,-0.05139329760635325
111,0.099616,805.831,64.3368,0.0145634,228.02,-3.67796,-0.982213,0.0873981,-0.0324313,-0.0532775,0.0623961,-0.00108231,-0.000263376,0.0914263,0.09133105214256787,0.06438386368909943,-0.0010817245137768605,-0.031911044741955275,-0.00026334131958605234,-0.05188312645894899
112,0.1006,806.541,64.5803,0.00205787,228.217,-3.64024,-1.01206,0.0882327,-0.0327473,-0.0537943,0.0630024,-0.00109386,-0.000266813,0.0923382,0.09224225723167767,0.06502939529878682,-0.001093261953229896,-0.0322169125221623,-0.0002667774085770569,-0.05237298666841406
113,0.1016,807.143,64.6023,-0.00998635,228.413,-3.65835,-1.01606,0.0890666,-0.0330639,-0.0543103,0.0636085,-0.00110616,-0.000269936,0.0932496,0.09315345792230767,0.06567510527791942,-0.0011055484305458885,-0.032523264149636244,-0.0002698995705558982,-0.052861836073300084
114,0.1026,807.733,64.5728,0.0172483,228.601,-3.69339,-0.995986,0.0898998,-0.0333808,-0.0548254,0.064214,-0.00111877,-0.000272686,0.0941602,0.09406465293457633,0.0663205669479654,-0.0011181444101623361,-0.03282980895263776,-0.00027264882455180217,-0.05334958131196821
115,0.1036,808.338,64.7029,-0.00399719,228.787,-3.68265,-1.01576,0.0907321,-0.0336964,-0.0553406,0.0648191,-0.00113075,-0.000275996,0.0950701,0.09497562199239984,0.06696599277691684,-0.001130110943112661,-0.033134999703298695,-0.0002759579166077275,-0.05383716999404664
116,0.1046,808.878,64.6455,0.0148042,228.966,-3.72306,-0.997098,0.0915637,-0.0340128,-0.0558547,0.0654237,-0.00114349,-0.000278759,0.0959793,0.0958865824445061,0.0676112754654501,-0.0011428364644374689,-0.03344086739857155,-0.00027872015031993325,-0.05432346729152171
117,0.1056,809.483,64.8449,-0.000952294,229.141,-3.69464,-1.02377,0.0923945,-0.0343276,-0.0563691,0.0660278,-0.00115525,-0.000282171,0.0968876,0.09679742332811347,0.06825641428151852,-0.0011545829556111054,-0.03374509232599854,-0.0002821311935075066,-0.054809798204912163
118,0.1066,810.005,64.8681,-0.0105416,229.313,-3.71127,-1.02747,0.0932245,-0.0346429,-0.0568827,0.0666315,-0.00116762,-0.000285306,0.0977952,0.09770814308589237,0.06890151538299527,-0.0011669385970002333,-0.034049704473759435,-0.00028526530411354667,-0.05529512325041397
119,0.1076,810.519,64.8492,0.0146794,229.479,-3.74188,-1.01052,0.0940538,-0.0349583,-0.0573956,0.0672347,-0.00118025,-0.000288121,0.0987022,0.09861885002139026,0.06954647127621616,-0.001179553778900666,-0.034354317157023084,-0.0002880794971307221,-0.05577953814288028
120,0.1086,811.04,64.9596,-0.00437063,229.643,-3.73491,-1.02783,0.0948823,-0.0352727,-0.0579084,0.0678374,-0.00119236,-0.000291417,0.0996083,0.09952943289550231,0.07019128122841467,-0.0011916494212651507,-0.034657868438947026,-0.0002913745421904146,-0.056263610269019604
121,0.1096,811.51,64.9177,0.0128213,229.8,-3.76984,-1.01244,0.0957101,-0.0355877,-0.0584202,0.0684397,-0.0012051,-0.00029425,0.100514,0.10044000019185972,0.07083605159020134,-0.0012043741585947565,-0.03496190332238058,-0.0002942067127146286,-0.056746490973571206
122,0.1106,812.03,65.0838,-0.00185191,229.955,-3.74868,-1.03531,0.096537,-0.0359013,-0.0589322,0.0690415,-0.00121704,-0.000297631,0.101418,0.10135033035215235,0.07148067467367913,-0.0012162997071716308,-0.03526449182114222,-0.00029758671228785616,-0.057229313157166284
123,0.1116,812.442,64.9763,0.00960102,230.107,-3.79926,-1.01452,0.0973632,-0.036216,-0.059443,0.069643,-0.00123004,-0.000300395,0.102322,0.10226064199304608,0.07212536417042403,-0.001229283810878612,-0.03556804631876065,-0.0003003498859394105,-0.05771075745266452
124,0.1126,812.974,65.2252,0.000865816,230.252,-3.75714,-1.04515,0.0981887,-0.0365287,-0.0599542,0.0702437,-0.00124171,-0.000303896,0.103225,0.10317093382427145,0.07276958334853956,-0.0012409393971259952,-0.03586957704389093,-0.0003038498282877944,-0.05819233261235657
125,0.1136,813.393,65.233,-0.00945222,230.397,-3.77585,-1.04807,0.0990133,-0.0368421,-0.0604646,0.0708442,-0.0012542,-0.000307058,0.104128,0.10408098373831565,0.07341397494255242,-0.0012534138198900813,-0.03617168817515837,-0.00030701086251705423,-0.05867290859236829
126,0.1146,813.794,65.1753,0.0121603,230.537,-3.8143,-1.02891,0.0998373,-0.0371558,-0.0609741,0.0714442,-0.00126705,-0.000309877,0.10503,0.10499112139413347,0.07405821658068223,-0.0012662476310650872,-0.0364739936974775,-0.00030982899308129586,-0.0591523925865205
127,0.1156,814.234,65.3042,-0.00472278,230.674,-3.80117,-1.04853,0.10066,-0.0374682,-0.0614837,0.0720437,-0.00127918,-0.000313239,0.105931,0.10590057164076772,0.07470230752849338,-0.0012783621980062554,-0.03677495220967919,-0.00031318994578644066,-0.05963172638263392
128,0.1166,814.596,65.2185,0.0095823,230.808,-3.84534,-1.02996,0.101483,-0.0377814,-0.0619922,0.0726428,-0.00129217,-0.000316061,0.106831,0.1068111024432592,0.07534635458596628,-0.0012913355078194577,-0.037076587056164456,-0.0003160110579838449,-0.0601097820938028
129,0.1176,815.048,65.4229,-0.00212797,230.937,-3.81312,-1.05704,0.102304,-0.0380929,-0.062501,0.0732413,-0.00130407,-0.000319536,0.10773,0.10772016747849977,0.07599014201335641,-0.001303220070213662,-0.037376490986834154,-0.00031948495380951236,-0.06058787659911735
130,0.1186,815.413,65.4346,-0.00992547,231.065,-3.83009,-1.05971,0.103125,-0.038405,-0.063009,0.0738395,-0.00131663,-0.000322712,0.108629,0.10862997916259176,0.076633991872602,-0.0013157636229959024,-0.037676878906024114,-0.00032265993408342464,-0.06106497676410283
131,0.1196,815.762,65.389,0.00935375,231.189,-3.86416,-1.04378,0.103946,-0.0387173,-0.0635163,0.0744372,-0.00132951,-0.000325599,0.109527,0.1095405381087855,0.07727768835907622,-0.001328626593122717,-0.03797736549331898,-0.0003255459983981801,-0.061541177702809646
132,0.1206,816.142,65.5007,-0.00512835,231.311,-3.85461,-1.06095,0.104765,-0.0390284,-0.0640235,0.0750344,-0.00134178,-0.000328952,0.110424,0.11044962402936598,0.0779212307371917,-0.0013408802156983368,-0.038276604185921825,-0.0003288979012229243,-0.06201704332775493
133,0.1216,816.457,65.4311,0.00734746,231.429,-3.89354,-1.0456,0.105584,-0.0393402,-0.0645298,0.0756313,-0.00135478,-0.000331845,0.111321,0.11135945479628861,0.07856483398409875,-0.001353862699869146,-0.03857642279658624,-0.0003317899455379525,-0.062491823897874665
134,0.1226,816.846,65.6053,-0.0030518,231.544,-3.8682,-1.06899,0.106401,-0.0396505,-0.0650363,0.0762275,-0.00136687,-0.000335292,0.112216,0.11226780648199464,0.07920806606655062,-0.0013659362586843082,-0.03887470625152112,-0.0003352357959190977,-0.06296655155414244
135,0.1236,817.163,65.6199,-0.00974294,231.657,-3.88368,-1.0718,0.107219,-0.0399612,-0.065542,0.0768234,-0.00137951,-0.000338489,0.113111,0.11317801377172487,0.07985135780285657,-0.0013785589134747145,-0.039173281494222945,-0.00033843171906156044,-0.06344028957426728
136,0.1246,817.464,65.5804,0.00673267,231.767,-3.915,-1.05845,0.108035,-0.0402721,-0.0660469,0.0774188,-0.00139244,-0.000341437,0.114006,0.1140867377399184,0.0804944927435649,-0.0013914710052310708,-0.03947195608963472,-0.0003413787170210014,-0.06391303921637115
137,0.1256,817.795,65.681,-0.00548342,231.875,-3.90758,-1.07391,0.108851,-0.0405819,-0.0665519,0.0780138,-0.00140484,-0.00034479,0.114899,0.1149962035294918,0.08113757826571777,-0.0014038536742179142,-0.03976948158855875,-0.00034473056675876634,-0.06438564378886846
138,0.1266,818.066,65.6197,0.00499436,231.981,-3.94339,-1.06086,0.109666,-0.0408923,-0.0670559,0.0786083,-0.00141789,-0.000347741,0.115792,0.11590529584016473,0.08178050564722494,-0.001416885268896162,-0.04006749088803763,-0.0003476805451062548,-0.0648570746138517
139,0.1276,818.404,65.7749,-0.00384978,232.083,-3.92222,-1.08173,0.11048,-0.0412014,-0.06756,0.0792023,-0.00143013,-0.000351179,0.116684,0.11681401254850288,0.08242327415092587,-0.0014291078514180322,-0.040364160174003905,-0.00035111734387260896,-0.06532836136473319
140,0.1286,818.63,65.6517,0.00236501,232.185,-3.9731,-1.06306,0.111293,-0.0415115,-0.068063,0.0797961,-0.00144344,-0.000354061,0.117575,0.11772235153046906,0.08306620795927278,-0.0014423987415415063,-0.04066169711244738,-0.00035399832780091955,-0.06579838297862084
141,0.1296,818.988,65.8857,-0.00209538,232.28,-3.93202,-1.09173,0.112106,-0.0418196,-0.0685664,0.0803891,-0.00145543,-0.000357621,0.118466,0.11863142929230075,0.08370865668781424,-0.0014543713754044951,-0.04095722371535615,-0.00035755706123230535,-0.06626854172374463
142,0.1306,819.241,65.8863,-0.0090279,232.377,-3.94994,-1.09339,0.112918,-0.0421285,-0.0690689,0.0809818,-0.00146821,-0.000360845,0.119355,0.1195401268941838,0.08435116119603525,-0.0014671327069932794,-0.04125342627810935,-0.00036077990327321174,-0.06673762391475746
143,0.1316,819.466,65.8072,0.00393278,232.472,-3.99,-1.0774,0.113729,-0.0424377,-0.0695706,0.0815741,-0.00148139,-0.000363795,0.120244,0.1204484422091705,0.08499361263202232,-0.0014802932834557803,-0.04154982489311687,-0.0003637288346227674,-0.0672057242160603
144,0.1326,819.752,65.9312,-0.00620787,232.563,-3.97581,-1.09547,0.11454,-0.0427455,-0.0700724,0.0821659,-0.00149383,-0.000367223,0.121133,0.12135749446666733,0.08563590188662284,-0.0014927147913453842,-0.041844790459485304,-0.0003671555818869354,-0.0676736829629796
145,0.1336,819.949,65.8256,0.0016629,232.654,-4.02164,-1.07876,0.115349,-0.0430542,-0.0705732,0.0827573,-0.00150715,-0.000370161,0.12202,0.12226503973225311,0.0862781368491583,-0.0015060148198059453,-0.04214052732333695,-0.0003700924988694343,-0.06814047508804766
146,0.1346,820.255,66.0247,-0.00460847,232.739,-3.98855,-1.10437,0.116158,-0.0433612,-0.0710742,0.0833481,-0.00151936,-0.000373704,0.122907,0.12317331949902455,0.08692009958952962,-0.0015182063569355586,-0.04243454504741884,-0.0003736341813576072,-0.06860721978072026
147,0.1356,820.476,66.03,-0.009324,232.825,-4.00492,-1.10578,0.116967,-0.0436687,-0.0715745,0.0839386,-0.00153223,-0.000376946,0.123793,0.12408233436143346,0.08756211544486314,-0.0015310567349273718,-0.04272895115755748,-0.0003768749647823366,-0.06907307904425208
148,0.1366,820.669,65.9594,0.00101711,232.91,-4.04188,-1.09248,0.117774,-0.0439765,-0.072074,0.0845287,-0.00154546,-0.000379959,0.124678,0.12498983493249272,0.08820407524079643,-0.001544266391664717,-0.04302355384471168,-0.0003798868247206766,-0.06953796092735354
149,0.1376,820.92,66.0724,-0.00669137,232.991,-4.03009,-1.10865,0.118581,-0.044283,-0.0725735,0.0851182,-0.00155803,-0.000383387,0.125563,0.12589806815209692,0.08884576066134575,-0.0015568169013560063,-0.04331682217979016,-0.0003833135165952628,-0.07000261065993874
150,0.1386,821.088,65.9776,-0.000818178,233.072,-4.07238,-1.0944,0.119387,-0.0445904,-0.0730721,0.0857074,-0.00157141,-0.000386388,0.126447,0.12680590780526058,0.08948749762067054,-0.0015701759817734473,-0.04361086139250958,-0.0003863133617701964,-0.07046619177788704
151,0.1396,821.355,66.1568,-0.00554019,233.148,-4.04394,-1.11728,0.120193,-0.044896,-0.0735708,0.086296,-0.00158378,-0.00038992,0.12733,0.12771447947214654,0.09012895872525362,-0.0015825264823084995,-0.04390308925857589,-0.0003898439910762219,-0.0709296347189452
152,0.1406,821.548,66.1651,-0.00916911,233.225,-4.05911,-1.11869,0.120997,-0.0452022,-0.0740688,0.0868842,-0.00159674,-0.000393185,0.128212,0.12862152649768577,0.09077036119674986,-0.0015954658889177908,-0.04419580131614187,-0.00039310771290756996,-0.07139219657339368
153,0.1416,821.71,66.0967,-0.00170727,233.302,-4.09465,-1.10736,0.121801,-0.0455086,-0.0745661,0.0874721,-0.00161006,-0.000396252,0.129093,0.12952930308227661,0.09141181362856465,-0.0016087645487429247,-0.04448861486129263,-0.00039617350254483874,-0.07185387842732993
154,0.1426,821.931,66.2044,-0.00719006,233.374,-4.08385,-1.12236,0.122604,-0.0458139,-0.0750634,0.0880593,-0.00162274,-0.000399691,0.129974,0.13043667937547654,0.09205287884385438,-0.001621424069346844,-0.0447802879610113,-0.0003996111341931785,-0.07231533074395946
155,0.1436,822.071,66.1128,-0.00333654,233.448,-4.12463,-1.10963,0.123407,-0.0461199,-0.0755597,0.0886463,-0.00163619,-0.000402741,0.130854,0.1313447845844602,0.09269410206433881,-0.0016348521708889896,-0.04507254047597997,-0.0004026599107298523,-0.07277562641349267
156,0.1446,822.309,66.2823,-0.00643717,233.515,-4.0983,-1.13094,0.124209,-0.0464243,-0.0760562,0.0892327,-0.0016487,-0.000406279,0.131734,0.1322524870417292,0.09333504579212382,-0.0016473416407665198,-0.045363176157664165,-0.00040619647986284146,-0.07323587904780715
157,0.1456,822.409,66.1228,-0.00542047,233.588,-4.15593,-1.11128,0.12501,-0.0467301,-0.0765516,0.0898189,-0.00166244,-0.000409241,0.132612,0.1331597846080146,0.09397614668428012,-0.0016610589120544805,-0.04565505946716253,-0.0004091572723239345,-0.07369488428834126
158,0.1466,822.599,66.1981,-0.00766698,233.654,-4.15396,-1.11968,0.12581,-0.0470345,-0.0770469,0.0904044,-0.0016754,-0.000412575,0.13349,0.13406667514354775,0.0946168572678836,-0.0016739973008900177,-0.04594551785705103,-0.00041248990263809127,-0.07415356960935637
159,0.1476,822.788,66.2781,-0.00728311,233.719,-4.15003,-1.13025,0.12661,-0.0473386,-0.0775418,0.0909895,-0.00168832,-0.000415966,0.134367,0.13497429148179174,0.09525750499428676,-0.0016868955895218418,-0.046235601715584496,-0.00041587949813781666,-0.0746116576445226
160,0.1486,822.935,66.27,-0.00724114,233.784,-4.16862,-1.12963,0.127409,-0.0476429,-0.0780361,0.0915742,-0.00170156,-0.000419213,0.135244,0.1358814983215546,0.09589808931403287,-0.0017001131675236092,-0.04652578806788965,-0.000419125142507748,-0.07506896406955477
161,0.1496,823.114,66.3464,-0.00682376,233.846,-4.16589,-1.13851,0.128207,-0.0479465,-0.0785302,0.0921585,-0.00171452,-0.000422602,0.136119,0.13678829352037858,0.0965386096774199,-0.0017130510502193497,-0.04681521890080864,-0.00042251271635240784,-0.07552585960906955
162,0.1506,823.239,66.3065,-0.00806246,233.909,-4.19249,-1.13426,0.129004,-0.0482503,-0.0790236,0.0927423,-0.00172791,-0.000425811,0.136994,0.13769467493532983,0.09717895581660074,-0.0017264180229736859,-0.04710475245493284,-0.00042572035536236896,-0.07598188263980543
163,0.1516,823.42,66.4088,-0.00711647,233.968,-4.18303,-1.1462,0.129801,-0.0485533,-0.0795169,0.0933256,-0.00174081,-0.000429255,0.137868,0.138601779024216,0.09781912698930006,-0.0017392956691202333,-0.04739343597717682,-0.0004291628832534533,-0.07643758836804027
164,0.1526,823.52,66.3308,-0.00911604,234.03,-4.21907,-1.13789,0.130597,-0.0488568,-0.0800093,0.0939087,-0.00175439,-0.000432419,0.138742,0.13950846685420126,0.09845945199085882,-0.0017528519574375734,-0.04768250820042885,-0.0004323255203788623,-0.07689223855546556
165,0.1536,823.712,66.4779,-0.00726267,234.085,-4.19813,-1.15491,0.131393,-0.049159,-0.0805018,0.0944911,-0.00176716,-0.000435946,0.139614,0.14041587669502142,0.0990993811049683,-0.0017655994921249585,-0.04797025506570951,-0.0004358509893495066,-0.0773467571935752
166,0.1546,823.78,66.3419,-0.0103532,234.146,-4.24866,-1.14022,0.132187,-0.0494623,-0.0809932,0.0950733,-0.00178099,-0.000439031,0.140487,0.14132172647589014,0.09973946307442882,-0.0017794049784187749,-0.048258961902743036,-0.0004389346399926719,-0.07780003761696896
167,0.1556,823.995,66.5598,-0.00718747,234.197,-4.20969,-1.16523,0.132981,-0.0497636,-0.0814849,0.0956547,-0.00179354,-0.000442684,0.141358,0.14222829578710083,0.10037903750453103,-0.0017919325682754783,-0.048545678281530225,-0.00044258602989522,-0.07825337187711134
168,0.1566,824.113,66.5602,-0.0087491,234.252,-4.22573,-1.16503,0.133774,-0.0500656,-0.0819759,0.0962359,-0.00180683,-0.000446019,0.142228,0.14313444206517345,0.1010187636875497,-0.0018051986653382368,-0.04883297410283671,-0.00044591954831219027,-0.0787058383819026
169,0.1576,824.184,66.4543,-0.00973071,234.309,-4.26869,-1.15391,0.134567,-0.0503679,-0.0824661,0.0968167,-0.00182058,-0.000449181,0.143098,0.1440413072022344,0.10165842112403767,-0.0018189237494964372,-0.04912046843780726,-0.0004490801333176808,-0.07915734610634328
170,0.1586,824.349,66.5816,-0.00947298,234.359,-4.25208,-1.16987,0.135359,-0.0506689,-0.0829564,0.097397,-0.00183352,-0.000452725,0.143967,0.14494774682024603,0.10229789903238573,-0.0018318401290540187,-0.04940664010581086,-0.0004526225355004909,-0.0796087245950684
171,0.1596,824.402,66.4501,-0.0112811,234.414,-4.30116,-1.15552,0.13615,-0.0509708,-0.0834457,0.097977,-0.00184743,-0.000455846,0.144835,0.14585375876846673,0.10293741725618166,-0.0018457245515913767,-0.04969358092526677,-0.0004557421179974819,-0.0800589618865879
172,0.1606,824.593,66.6528,-0.0096239,234.46,-4.26556,-1.17949,0.13694,-0.0512709,-0.0839352,0.0985563,-0.00186014,-0.000459512,0.145703,0.1467593408957364,0.1035765340042909,-0.0018584110118097241,-0.04997872509360868,-0.00045940644053010793,-0.08050916282907439
173,0.1616,824.697,66.656,-0.00913969,234.51,-4.2808,-1.17873,0.13773,-0.0515716,-0.084424,0.0991353,-0.00187353,-0.000462866,0.14657,0.14766563871554772,0.10421568983523644,-0.0018717760382072068,-0.05026435354458314,-0.00046275889405889004,-0.0809585001233023
174,0.1626,824.75,66.5505,-0.012679,234.561,-4.32306,-1.1691,0.138519,-0.0518726,-0.0849121,0.099714,-0.00188738,-0.000466078,0.147436,0.14857150422144305,0.10485488438804946,-0.0018856000183777866,-0.05055018095498298,-0.00046596940252119357,-0.08140697482023851
175,0.1636,824.9,66.6754,-0.0102271,234.606,-4.30691,-1.18413,0.139308,-0.0521723,-0.0854001,0.100292,-0.00190043,-0.000469638,0.148301,0.14947808473725677,0.10549367510395857,-0.0018986253263072461,-0.05083468843017602,-0.00046952773733632824,-0.08185513885560769
176,0.1646,824.936,66.5451,-0.013904,234.657,-4.35522,-1.17088,0.140095,-0.052473,-0.0858873,0.10087,-0.00191444,-0.000472803,0.149166,0.15038308005889367,0.10613283514762673,-0.0019126086286131994,-0.05112005953166965,-0.0004726912462748034,-0.08230235008245634
177,0.1656,825.111,66.7426,-0.0107488,234.698,-4.32078,-1.19376,0.140882,-0.0527718,-0.0863747,0.101447,-0.00192727,-0.000476484,0.15003,0.15128878789218514,0.10677125796077624,-0.0019254140076977455,-0.0514035425034165,-0.000476370499526646,-0.08274952693117554
178,0.1666,825.203,66.7475,-0.00919455,234.743,-4.33541,-1.19271,0.141669,-0.0530712,-0.0868613,0.102024,-0.00194076,-0.000479861,0.150893,0.15219520879809867,0.10741004925018394,-0.0019388779430483671,-0.05168750977076986,-0.00047974588512411653,-0.08319575243590083
179,0.1676,825.238,66.6387,-0.0154661,234.791,-4.37795,-1.18415,0.142454,-0.053371,-0.0873472,0.1026,-0.00195473,-0.000483116,0.151755,0.15310003713566278,0.10804810117986685,-0.0019528207595327363,-0.05197177124241681,-0.0004829993182563497,-0.08364111940912355
180,0.1686,825.376,66.7645,-0.0110306,234.831,-4.36146,-1.1987,0.143239,-0.0536693,-0.0878332,0.103176,-0.00196788,-0.000486699,0.152617,0.15400557604233378,0.10868652073332674,-0.0019659449936476614,-0.05225452588810309,-0.0004865805812539481,-0.08408636162246919
181,0.1696,825.397,66.631,-0.0165061,234.877,-4.41013,-1.18598,0.144023,-0.0539687,-0.0883182,0.103752,-0.00198201,-0.000489902,0.153478,0.1549106711648789,0.10932530812237595,-0.001980047115213157,-0.05253823840916849,-0.000489782017609186,-0.08453047203160258
182,0.1706,825.561,66.8288,-0.0119278,234.915,-4.37546,-1.20844,0.144807,-0.0542663,-0.0888034,0.104327,-0.00199495,-0.000493606,0.154338,0.15581647616023386,0.10996335359504039,-0.0019929614098478377,-0.05282016107724419,-0.0004934841966002246,-0.08497455010452026
183,0.1716,825.641,66.8344,-0.0093212,234.955,-4.38976,-1.20698,0.14559,-0.0545644,-0.0892879,0.104902,-0.00200854,-0.000497005,0.155198,0.15672183486274394,0.11060176604934857,-0.002006524233342688,-0.05310247330649864,-0.0004968815134736015,-0.08541777255568561
184,0.1726,825.66,66.72,-0.0182346,234.999,-4.4332,-1.19916,0.146372,-0.0548629,-0.0897717,0.105476,-0.00202263,-0.0005003,0.156057,0.1576267451113993,0.11123943445638562,-0.0020205858623518758,-0.05338508003706377,-0.0005001748708232112,-0.08586014041990842
185,0.1736,825.789,66.8485,-0.0119164,235.036,-4.41592,-1.21347,0.147153,-0.05516,-0.0902555,0.10605,-0.00203588,-0.000503908,0.156915,0.1585312047448444,0.11187746899015671,-0.002033809001985687,-0.05366627755582487,-0.0005037810596867365,-0.08630229431832093
186,0.1746,825.795,66.7095,-0.019097,235.078,-4.46558,-1.20095,0.147934,-0.0554582,-0.0907384,0.106623,-0.00205013,-0.000507144,0.157773,0.15943637103717756,0.11251475734556515,-0.0020480299188830875,-0.05394843220050938,-0.0005070154242180491,-0.08674341242385586
187,0.1756,825.9,66.7861,-0.00961765,235.114,-4.46255,-1.20453,0.148714,-0.0557551,-0.0912212,0.107196,-0.00206368,-0.000510585,0.158629,0.16034108419885063,0.11315241097184137,-0.0020615520764648565,-0.05422927321807702,-0.0005104546736607318,-0.08718422628330935
188,0.1766,825.964,66.8089,-0.0239159,235.153,-4.46997,-1.21609,0.149494,-0.0560519,-0.0917036,0.107769,-0.00207738,-0.000514159,0.159485,0.16124650331207513,0.11379043007834566,-0.0020752237395503803,-0.054509936317321595,-0.0005140268429122408,-0.08762446241905708
189,0.1776,826.049,66.8391,-0.0112235,235.187,-4.47806,-1.21633,0.150273,-0.0563485,-0.0921854,0.108341,-0.0020911,-0.000517589,0.160341,0.16215146677566028,0.11442770044630035,-0.0020889151735572487,-0.05479032708620335,-0.0005174550739207584,-0.08806393907463583
190,0.1786,826.104,66.8458,-0.0228686,235.225,-4.49012,-1.22289,0.151051,-0.0566449,-0.092667,0.108913,-0.0021049,-0.000521116,0.161195,0.16305597242388536,0.11506533543717756,-0.002102686251507113,-0.055070445717623095,-0.0005209802426400234,-0.08850302174198454
191,0.1796,826.181,66.8721,-0.0132349,235.259,-4.49915,-1.22305,0.151828,-0.0569411,-0.093148,0.109484,-0.00211867,-0.000524559,0.162049,0.16396001809071703,0.11570221955682425,-0.002116427202910831,-0.05535029240426115,-0.0005244214429810379,-0.08894134636300433
192,0.1806,826.232,66.8744,-0.0226842,235.295,-4.51246,-1.22827,0.152605,-0.057237,-0.0936287,0.110055,-0.00213252,-0.000528079,0.162902,0.16486476647400172,0.11633946744114798,-0.0021302477946861798,-0.055629772901560015,-0.0005279395908256435,-0.08937918701437597
193,0.1816,826.305,66.9028,-0.0149249,235.328,-4.52063,-1.22963,0.153381,-0.0575326,-0.0941089,0.110625,-0.00214633,-0.00053155,0.163755,0.16576905235032746,0.11697596232139729,-0.002144028280809729,-0.05590888748552236,-0.0005314087523266009,-0.08981636215461974
194,0.1826,826.353,66.9004,-0.0226149,235.362,-4.53519,-1.23366,0.154156,-0.057828,-0.0945887,0.111195,-0.00216024,-0.000535065,0.164606,0.16667287355137606,0.11761282010714647,-0.0021579083608401772,-0.056187730812972014,-0.0005349218782505494,-0.09025296351501588
195,0.1836,826.423,66.9337,-0.0164347,235.394,-4.54189,-1.23627,0.154931,-0.0581231,-0.0950681,0.111765,-0.00217407,-0.000538567,0.165457,0.16757739548535477,0.11825004100531089,-0.0021717084215399085,-0.05646620872217267,-0.0005384219988253669,-0.09068899171999523
196,0.1846,826.465,66.9243,-0.0227202,235.428,-4.55828,-1.23893,0.155705,-0.0584181,-0.0955471,0.112334,-0.00218806,-0.000542075,0.166308,0.16848145021350702,0.11888650633585751,-0.002185667941691949,-0.056744510139122406,-0.0005419281038913093,-0.09112444739300174
197,0.1856,826.535,66.9655,-0.0178153,235.458,-4.56277,-1.24304,0.156479,-0.0587126,-0.0960257,0.112903,-0.0022019,-0.000545609,0.167157,0.16938620495088763,0.119523333918228,-0.0021994775964846447,-0.057022257980509305,-0.0005454601824761429,-0.09155933115649373
198,0.1866,826.57,66.9453,-0.0229563,235.491,-4.5819,-1.24401,0.157251,-0.0590072,-0.0965037,0.113471,-0.00221597,-0.000549105,0.168006,0.17028931965853333,0.12015940379863865,-0.0022135165510706045,-0.057300018307203326,-0.0005489542694396832,-0.09199346203065595
199,0.1876,826.641,66.999,-0.0190886,235.52,-4.58304,-1.25007,0.158023,-0.0593011,-0.0969816,0.114039,-0.0022298,-0.000552678,0.168854,0.17119313183992357,0.12079583506936653,-0.0022273158427142947,-0.057577037121913976,-0.0005525253016465115,-0.09242729468258248
200,0.1886,826.667,66.9627,-0.0232915,235.552,-4.60629,-1.24877,0.158795,-0.0595953,-0.0974588,0.114606,-0.00224398,-0.000556154,0.169702,0.17209764203371591,0.1214315065036724,-0.0022414641590638995,-0.05785425717652315,-0.0005559993750305914,-0.09286028505783972
201,0.1896,826.743,67.0356,-0.0202812,235.58,-4.60238,-1.25749,0.159566,-0.0598886,-0.0979358,0.115173,-0.00225778,-0.000559777,0.170548,0.17300167777672004,0.12206753846588159,-0.0022552331318523855,-0.05813054800286288,-0.0005596203540854106,-0.09329288751797793
202,0.1906,826.757,66.9749,-0.0236941,235.611,-4.63181,-1.25303,0.160336,-0.0601824,-0.0984122,0.11574,-0.00227209,-0.00056322,0.171395,0.17390523689422488,0.12270393116047118,-0.002269510757309634,-0.0584072286014895,-0.000563061421388733,-0.09372473991095664
203,0.1916,826.841,67.0769,-0.0214178,235.637,-4.62035,-1.26553,0.161105,-0.0604751,-0.0988884,0.116306,-0.00228583,-0.000566908,0.17224,0.17480831721127466,0.1233395614519115,-0.0022832194800526118,-0.05868279247493757,-0.0005667473380214227,-0.09415620544971282
204,0.1926,826.838,66.9799,-0.0241248,235.668,-4.65902,-1.25652,0.161874,-0.0607686,-0.0993639,0.116872,-0.00230032,-0.000570299,0.173085,0.17571209226417972,0.12397555161192986,-0.0022976762914624915,-0.058959028535721325,-0.0005701364104350182,-0.09458683178449667
205,0.1936,826.938,67.1257,-0.0225231,235.693,-4.63627,-1.27451,0.162642,-0.0610606,-0.0998394,0.117437,-0.00231394,-0.000574075,0.173929,0.17661538597142368,0.12461077723293035,-0.002311264904572785,-0.05923377238483474,-0.0005739102504749294,-0.0950172534051329
206,0.1946,826.911,66.9744,-0.0245265,235.724,-4.68872,-1.25883,0.163409,-0.0613538,-0.100314,0.118002,-0.00232868,-0.000577386,0.174772,0.17751819615591002,0.12524636185781546,-0.0023259707281458875,-0.05950956460965562,-0.0005772193447798335,-0.09544665631129712
207,0.1956,826.993,67.0634,-0.0102337,235.747,-4.68218,-1.26152,0.164176,-0.0616457,-0.100788,0.118567,-0.00234262,-0.000580926,0.175614,0.17842169906143246,0.12588230568948022,-0.002339878207178625,-0.05978405370411377,-0.0005807572951611606,-0.0958753129965455
208,0.1966,827.01,67.0651,-0.0355367,235.777,-4.69307,-1.2761,0.164942,-0.0619377,-0.101263,0.119131,-0.00235681,-0.000584657,0.176456,0.17932471589420618,0.12651748241288785,-0.0023540349038648767,-0.06005855668104709,-0.0005844861213996078,-0.09630467024245337
209,0.1976,827.078,67.1119,-0.0149649,235.799,-4.69677,-1.27574,0.165708,-0.0622293,-0.101736,0.119694,-0.00237091,-0.000588197,0.177297,0.18022842470286693,0.1271518903245561,-0.002368101612802209,-0.06033260364792925,-0.0005880240460566233,-0.09673201705793932
210,0.1986,827.088,67.0918,-0.0339903,235.828,-4.71414,-1.28253,0.166473,-0.0625208,-0.102209,0.120258,-0.00238522,-0.000591845,0.178138,0.18113164488543543,0.12778778329566065,-0.0023823776231229887,-0.06060647677501829,-0.0005916698942948218,-0.097159161786179
211,0.1996,827.151,67.1423,-0.0182407,235.85,-4.71676,-1.2834,0.167237,-0.0628119,-0.102682,0.120821,-0.00239934,-0.000595416,0.178978,0.18203437426083946,0.12842290658808686,-0.002396463884501654,-0.06087989443175845,-0.0005952387750693955,-0.09758610452273697
212,0.2006,827.157,67.1085,-0.0330967,235.878,-4.73793,-1.28694,0.168,-0.063103,-0.103155,0.121383,-0.00241375,-0.000599031,0.179817,0.18293661064781075,0.1290572584977796,-0.0024108392478824348,-0.06115323250820204,-0.000598851616750995,-0.09801284536313282
213,0.2016,827.222,67.1728,-0.0207731,235.899,-4.73658,-1.29102,0.168763,-0.0633935,-0.103627,0.121945,-0.00242786,-0.000602659,0.180655,0.18383953570383937,0.12969196701344243,-0.002424915131635008,-0.06142592788323753,-0.0006024774375401609,-0.09843848284177437
214,0.2026,827.22,67.1204,-0.0323721,235.926,-4.76271,-1.2911,0.169525,-0.0636843,-0.104098,0.122507,-0.00244239,-0.000606237,0.181493,0.18474196521202257,0.13032703233554455,-0.0024394097923141622,-0.061698825542166325,-0.0006060532754786907,-0.09886301833040001
215,0.2036,827.29,67.2069,-0.0229817,235.947,-4.75538,-1.29902,0.170287,-0.0639742,-0.10457,0.123068,-0.00245645,-0.000609931,0.18233,0.1856450826335525,0.1309613237027778,-0.002453435395612269,-0.061970799628093154,-0.0006097450298991891,-0.09928825462208857
216,0.2046,827.277,67.1264,-0.0318897,235.973,-4.78878,-1.29471,0.171048,-0.0642646,-0.10504,0.123629,-0.00247113,-0.000613459,0.183166,0.18654770194452408,0.13159597100729914,-0.0024680792716943456,-0.06224316375869532,-0.0006132708724991831,-0.09971148967438781
217,0.2056,827.357,67.2466,-0.0249986,235.993,-4.7726,-1.30765,0.171808,-0.0645539,-0.105511,0.124189,-0.0024851,-0.000617234,0.184002,0.18744982095980567,0.13222984221843737,-0.0024820146952877487,-0.06251441757266385,-0.0006170435502806937,-0.10013542571797573
218,0.2066,827.326,67.1246,-0.0315348,236.019,-4.81672,-1.29749,0.172568,-0.064844,-0.105981,0.124749,-0.00249998,-0.000620693,0.184837,0.188352625846137,0.13286406849686316,-0.0024968576524772024,-0.06278634269547989,-0.0006205004099483213,-0.10055826269341528
219,0.2076,827.4,67.2123,-0.0122257,236.037,-4.81053,-1.29768,0.173327,-0.065133,-0.10645,0.125308,-0.00251418,-0.000624273,0.185671,0.1892549278694553,0.13349751654338693,-0.0025110220965307573,-0.06305715830769998,-0.0006240781821527097,-0.10098000196262302
220,0.2086,827.391,67.1866,-0.0426526,236.063,-4.82749,-1.31158,0.174085,-0.0654222,-0.106919,0.125868,-0.00252872,-0.000628067,0.186505,0.190156724842655,0.13413245291824305,-0.002525525480829627,-0.06332808299991866,-0.0006278698072073041,-0.1014015434824892
221,0.2096,827.459,67.2537,-0.0178314,236.08,-4.82592,-1.31218,0.174843,-0.0657108,-0.107388,0.126426,-0.002543,-0.00063169,0.187338,0.19105920563709566,0.13476547542382544,-0.002539769314624518,-0.06359836751123393,-0.0006314905258760772,-0.10182288734573675
222,0.2106,827.443,67.2031,-0.0405737,236.105,-4.85024,-1.31707,0.1756,-0.0659996,-0.107857,0.126984,-0.00255767,-0.000635381,0.18817,0.1919611788095359,0.13539885125453455,-0.0025544019488780156,-0.06386876125596053,-0.0006351791882371893,-0.10224403364504475
223,0.2116,827.512,67.2854,-0.0218569,236.122,-4.84458,-1.32062,0.176357,-0.0662876,-0.108325,0.127542,-0.00257193,-0.00063906,0.189001,0.19286383503417026,0.1360325806075806,-0.002568625421692672,-0.06413832823321086,-0.0006388558446497328,-0.10266408513758285
224,0.2126,827.488,67.2101,-0.0391288,236.146,-4.87566,-1.3204,0.177112,-0.0665761,-0.108792,0.1281,-0.00258675,-0.000642692,0.189832,0.19376478729630287,0.13666666368028446,-0.002583407245130398,-0.06440828538232435,-0.0006424855177337152,-0.10308304317550754
225,0.2136,827.564,67.3206,-0.0250053,236.162,-4.86227,-1.32933,0.177868,-0.0668635,-0.10926,0.128657,-0.00260094,-0.000646457,0.190662,0.19466761470125804,0.13729996336954442,-0.0025975604861639967,-0.0646771358054492,-0.0006462480916927804,-0.10350270210345258
226,0.2146,827.527,67.2095,-0.0378422,236.186,-4.90272,-1.32315,0.178622,-0.0671517,-0.109726,0.129214,-0.00261594,-0.000650017,0.191492,0.19556873376193695,0.13793361590498998,-0.002612521410549573,-0.06494665701503821,-0.0006498057847168504,-0.10392037251950714
227,0.2156,827.616,67.3629,-0.0277863,236.201,-4.878,-1.33881,0.179376,-0.0674384,-0.110193,0.12977,-0.00263001,-0.000653888,0.192321,0.19647053252260238,0.13856648291615858,-0.002626554553649907,-0.06521469838290583,-0.0006536742618311608,-0.10433874400819443
228,0.2166,827.559,67.1993,-0.0367475,236.225,-4.9321,-1.32487,0.180129,-0.0677264,-0.110659,0.130326,-0.00264525,-0.000657351,0.193149,0.19737181412352833,0.13919970189922481,-0.0026417544091352774,-0.065483877786077,-0.0006571349921650205,-0.10475602491948299
229,0.2176,827.634,67.3005,-0.0135194,236.239,-4.92252,-1.3247,0.180882,-0.0680129,-0.111124,0.130881,-0.00265963,-0.000660977,0.193976,0.19827377464508134,0.13983213321723587,-0.002656096317588341,-0.06575157830516076,-0.0006607586028238854,-0.10517221659583142
230,0.2186,827.617,67.279,-0.049081,236.263,-4.93749,-1.34166,0.181634,-0.0682997,-0.111589,0.131436,-0.00267435,-0.000664868,0.194803,0.19917521542286631,0.14046491563204877,-0.002670777111799638,-0.06601948233322885,-0.000664647024247289,-0.10558821478803893
231,0.2196,827.68,67.3446,-0.0202461,236.276,-4.9363,-1.34065,0.182386,-0.0685859,-0.112054,0.13199,-0.00268886,-0.000668525,0.195629,0.20007733433906405,0.14109690824109755,-0.002685248253835315,-0.0662867493096565,-0.000668301586950748,-0.10600401958605465
232,0.2206,827.657,67.2967,-0.0463426,236.299,-4.95924,-1.34732,0.183136,-0.0688724,-0.112519,0.132545,-0.00270373,-0.000672298,0.196455,0.20097772994596497,0.14173039280087596,-0.0027000782139328106,-0.06655421983899634,-0.0006720720583358597,-0.10641963107978614
233,0.2216,827.719,67.3732,-0.0249031,236.312,-4.95492,-1.34912,0.183886,-0.0691581,-0.112983,0.133098,-0.00271822,-0.000676009,0.197279,0.2018788011028705,0.14236194431599425,-0.0027145289851033816,-0.06682086720599822,-0.0006757805573952558,-0.10683415619370151
234,0.2226,827.69,67.3035,-0.0444581,236.334,-4.98399,-1.3506,0.184636,-0.0694441,-0.113446,0.133652,-0.00273323,-0.000679721,0.198104,0.2027805483166334,0.14299498817010203,-0.0027294981276796415,-0.06708771827645532,-0.0006794900420130645,-0.10724759626062264
235,0.2236,827.757,67.4041,-0.0284937,236.347,-4.97291,-1.35767,0.185385,-0.0697292,-0.11391,0.134205,-0.00274766,-0.000683517,0.198927,0.20368176841211616,0.14362723919985743,-0.002743888637193881,-0.0673536536570849,-0.0006832834554689748,-0.10766173728780914
236,0.2246,827.718,67.3035,-0.0428255,236.368,-5.01018,-1.35345,0.186133,-0.070015,-0.114373,0.134757,-0.00276283,-0.000687161,0.19975,0.20458245919124485,0.14425869570185634,-0.00275901689765512,-0.06762016589645659,-0.0006869249589491755,-0.10807479427337385
237,0.2256,827.796,67.441,-0.031637,236.38,-4.98923,-1.36681,0.186881,-0.0702995,-0.114835,0.135309,-0.00277717,-0.000691055,0.200572,0.20548382393910924,0.14489050086406574,-0.0027733172308191945,-0.06788539022930873,-0.0006908162764870385,-0.10848676854503503
238,0.2266,827.74,67.2953,-0.0414603,236.401,-5.0383,-1.35545,0.187628,-0.070585,-0.115297,0.135861,-0.00279254,-0.000694611,0.201393,0.20638465677476647,0.14552265487899918,-0.0027886444871429994,-0.06815147096556584,-0.0006943698136261389,-0.10889855252854264
239,0.2276,827.812,67.3965,-0.0152678,236.412,-5.02862,-1.35377,0.188374,-0.0708693,-0.115759,0.136412,-0.00280712,-0.000698274,0.202214,0.20728495549839177,0.14615401178469178,-0.0028031837227151524,-0.06841635784691591,-0.0006980302634453928,-0.10931014631178948
240,0.2286,827.78,67.357,-0.0549297,236.434,-5.04744,-1.3706,0.18912,-0.0711538,-0.11622,0.136963,-0.00282211,-0.000702219,0.203034,0.20818592609544262,0.14678571666389706,-0.002818131590956563,-0.06868135569537714,-0.0007019725019399292,-0.10972065970373268
241,0.2296,827.846,67.4359,-0.023107,236.444,-5.04271,-1.3701,0.189865,-0.0714376,-0.116681,0.137514,-0.00283677,-0.000705939,0.203854,0.20908635998035874,0.1474177697084016,-0.002832750169992959,-0.06894562642484059,-0.00070568988368791,-0.11013098389261677
242,0.2306,827.808,67.3685,-0.0517918,236.464,-5.06998,-1.37563,0.19061,-0.0717218,-0.117142,0.138064,-0.00285192,-0.000709751,0.204673,0.2099874649384632,0.14804902306050027,-0.0028478571393923957,-0.06921019448090904,-0.0007094991863375588,-0.11054111896564445
243,0.2316,827.875,67.4649,-0.0284406,236.475,-5.06038,-1.37903,0.191354,-0.0720051,-0.117602,0.138614,-0.00286654,-0.00071354,0.205491,0.21088803058125505,0.14868062369743718,-0.0028624353971536953,-0.06947384988426142,-0.0007132854908719066,-0.11095017596059842
244,0.2326,827.83,67.3696,-0.0494144,236.494,-5.09542,-1.37816,0.192097,-0.072289,-0.118062,0.139163,-0.00288184,-0.000717275,0.206308,0.2117880547055344,0.14931142249827434,-0.0028776914851826874,-0.06973798876199144,-0.0007170178197805077,-0.11135904483260628
245,0.2336,827.905,67.4979,-0.0325764,236.504,-5.07698,-1.38817,0.19284,-0.0725716,-0.118521,0.139712,-0.00289638,-0.000721166,0.207125,0.21268874779622826,0.14994256770273218,-0.002892189538147405,-0.07000084366322035,-0.0007209060222996833,-0.11176683743546623
246,0.2346,827.847,67.3628,-0.0472723,236.524,-5.12259,-1.38012,0.193582,-0.0728553,-0.11898,0.14026,-0.00291188,-0.000724812,0.207941,0.21358889676105997,0.15057290892755426,-0.002907644589432601,-0.07026464700160018,-0.00072454938723443,-0.11217444290447198
247,0.2356,827.937,67.5387,-0.0362302,236.533,-5.09147,-1.39809,0.194323,-0.0731372,-0.119439,0.140808,-0.00292627,-0.000728824,0.208756,0.21448849939517278,0.15120359567403208,-0.0029219926451924394,-0.07052670245915826,-0.0007285584723001337,-0.11258186132549819
248,0.2366,827.859,67.346,-0.0453535,236.552,-5.15214,-1.381,0.195064,-0.0734207,-0.119897,0.141356,-0.00294202,-0.000732355,0.209571,0.21538876888187608,0.151834628131563,-0.0029376965001400857,-0.07079017079061056,-0.000732086893530659,-0.11298820577302959
249,0.2376,827.935,67.4618,-0.0165812,236.561,-5.13862,-1.37963,0.195805,-0.0737026,-0.120355,0.141903,-0.00295676,-0.000736067,0.210385,0.21628970571549044,0.1524648540242184,-0.0029523930901795836,-0.07105207812389158,-0.0007357961691397685,-0.11339436415741577
250,0.2386,827.898,67.4295,-0.061216,236.58,-5.15468,-1.39973,0.196544,-0.0739848,-0.120813,0.14245,-0.00297193,-0.000740108,0.211199,0.21718887601051695,0.15309542474473892,-0.002967518187652285,-0.07131419024168573,-0.0007398341876285741,-0.11380033656385402
251,0.2396,827.962,67.505,-0.0259621,236.587,-5.15072,-1.39756,0.197283,-0.0742664,-0.12127,0.142997,-0.0029868,-0.000743858,0.212012,0.2180887110379799,0.15372634048179723,-0.0029823439504269578,-0.07157567134744602,-0.0007435814062243251,-0.1142052372831831
252,0.2406,827.921,67.4435,-0.0575302,236.606,-5.17581,-1.40498,0.198022,-0.0745483,-0.121726,0.143543,-0.00300212,-0.00074775,0.212824,0.21898921128929794,0.15435644706714435,-0.002997618143916969,-0.07183735727932816,-0.0007474705046373042,-0.11460906761466882
253,0.2416,827.982,67.531,-0.0319216,236.614,-5.16827,-1.40641,0.19876,-0.0748293,-0.122183,0.144088,-0.00301698,-0.000751564,0.213635,0.21988915736648607,0.15498574279830635,-0.0030124334892330795,-0.07209813434103951,-0.0007512816465169436,-0.11501359882834605
254,0.2426,827.937,67.4455,-0.0547738,236.632,-5.20024,-1.40752,0.199497,-0.0751109,-0.122639,0.144634,-0.00303243,-0.00075538,0.214446,0.22078854705985718,0.1556165372050764,-0.003027836828144559,-0.07235939471922137,-0.0007550947723506951,-0.11541706063099821
255,0.2436,828.004,67.5594,-0.0364315,236.639,-5.18516,-1.41524,0.200234,-0.0753913,-0.123095,0.145178,-0.00304722,-0.000759292,0.215257,0.22168859984775247,0.1562453636265948,-0.0030425819373975926,-0.07261946868086866,-0.0007590038107738728,-0.11582033849700901
256,0.2446,827.949,67.4404,-0.0523703,236.656,-5.22613,-1.40965,0.20097,-0.0756726,-0.12355,0.145723,-0.00306285,-0.000763025,0.216066,0.22258809363034815,0.15687568909786043,-0.0030581642600656656,-0.07288030413610203,-0.0007627339704503466,-0.11622254873322513
257,0.2456,828.027,67.5941,-0.0403588,236.664,-5.20031,-1.42462,0.201705,-0.0759524,-0.124005,0.146267,-0.00307752,-0.000767047,0.216875,0.22348702619641547,0.1575052006843567,-0.0030727892895211495,-0.07313967593919735,-0.0007667528946522228,-0.11662457600541132
258,0.2466,827.956,67.427,-0.0502944,236.681,-5.25396,-1.41093,0.20244,-0.0762335,-0.124459,0.146811,-0.00309337,-0.000770678,0.217684,0.22438661972079155,0.15813505481832024,-0.0030885904605862935,-0.0734001797607633,-0.000770381103985418,-0.1170255374227761
259,0.2476,828.03,67.5406,-0.0189454,236.687,-5.24081,-1.40795,0.203174,-0.0765132,-0.124913,0.147354,-0.0031083,-0.000774423,0.218491,0.22528564940319695,0.15876409292147575,-0.0031034742368231116,-0.07365931348894295,-0.0007741232119011787,-0.1174263168449734
260,0.2486,827.981,67.4891,-0.0669489,236.705,-5.26105,-1.4274,0.203908,-0.0767932,-0.125367,0.147897,-0.00312372,-0.000778508,0.219298,0.22618533921562722,0.15939347268507364,-0.0031188462627317337,-0.07391865257200014,-0.0007782050412706853,-0.11782691435461023
261,0.2496,828.049,67.5783,-0.0293336,236.71,-5.25335,-1.42597,0.204641,-0.0770725,-0.12582,0.148439,-0.00313873,-0.000782319,0.220105,0.22708446255771975,0.1600220342720715,-0.0031338093365511632,-0.07417727097459559,-0.0007820130682750781,-0.11822644826114548
262,0.2506,827.996,67.4968,-0.0628885,236.727,-5.28288,-1.43192,0.205373,-0.0773522,-0.126273,0.148981,-0.00315431,-0.000786242,0.22091,0.22798301721519443,0.16065093663179075,-0.0031493403908144924,-0.07443618738075664,-0.0007859329927488723,-0.11862580121980881
263,0.2516,828.065,67.6048,-0.0359485,236.732,-5.26981,-1.4352,0.206105,-0.0776309,-0.126726,0.149523,-0.00316928,-0.000790133,0.221715,0.2288822298554707,0.16128017994898003,-0.003164263133491829,-0.07469410607269444,-0.0007898209271195444,-0.11902497331255102
264,0.2526,828.006,67.4936,-0.0596283,236.749,-5.30777,-1.43367,0.206836,-0.0779104,-0.127178,0.150064,-0.00318502,-0.000793963,0.22252,0.22978087117888202,0.16190860249930505,-0.003179953204508923,-0.07495269293085027,-0.0007936478947767611,-0.11942308404481039
265,0.2536,828.083,67.6354,-0.0410115,236.754,-5.28519,-1.44454,0.207567,-0.0781885,-0.12763,0.150605,-0.00319989,-0.000797968,0.223324,0.23068016964925886,0.16253736511821004,-0.0031947758083984423,-0.07520991281886302,-0.0007976497082032852,-0.11982101487168029
266,0.2546,828.012,67.4824,-0.0566907,236.77,-5.33436,-1.4349,0.208297,-0.0784677,-0.128081,0.151146,-0.00321583,-0.000801696,0.224127,0.23157889416764132,0.1631664679897218,-0.0032106647570367963,-0.07546807816964396,-0.000801374727621762,-0.12021788609278583
267,0.2556,828.087,67.5957,-0.0216324,236.774,-5.32126,-1.43012,0.209027,-0.0787456,-0.128533,0.151686,-0.00323091,-0.000805459,0.224929,0.2324782749944454,0.16379474750263756,-0.0032256962268746303,-0.07572496989396227,-0.0008051347049742308,-0.12061545775030846
268,0.2566,828.029,67.5312,-0.0718421,236.791,-5.34424,-1.44913,0.209756,-0.0790239,-0.128984,0.152226,-0.00324651,-0.000809577,0.225731,0.2333770792312555,0.16442336637810984,-0.0032412457847267317,-0.07598215984519907,-0.0008092493809574997,-0.12101197075845882
269,0.2576,828.101,67.6298,-0.0322061,236.794,-5.33395,-1.44802,0.210484,-0.0793013,-0.129434,0.152765,-0.00326164,-0.000813432,0.226532,0.23427530465932134,0.16505115974770201,-0.0032563266305910554,-0.0762384468454077,-0.0008131012538765692,-0.12140742638742763
270,0.2586,828.04,67.535,-0.0672285,236.81,-5.36634,-1.45304,0.211212,-0.0795794,-0.129884,0.153304,-0.00327741,-0.000817382,0.227333,0.23517418423357905,0.16567929158913008,-0.0032720451543791773,-0.07649530921497194,-0.000817048034331691,-0.12180270410139737
271,0.2596,828.114,67.6563,-0.0392848,236.814,-5.34959,-1.45745,0.211939,-0.0798563,-0.130334,0.153842,-0.00329248,-0.000821327,0.228133,0.23607248235732015,0.16630659577770102,-0.0032870657314784113,-0.07675099226289872,-0.0008209898033021412,-0.12219780398041169
272,0.2606,828.046,67.5285,-0.0635437,236.829,-5.39135,-1.45423,0.212665,-0.080134,-0.130783,0.15438,-0.00330842,-0.000825172,0.228933,0.23697019681042764,0.1669342375467262,-0.003302953209027071,-0.07700734291641165,-0.0008248316392103217,-0.12259184869676565
273,0.2616,828.129,67.6879,-0.0447699,236.833,-5.36391,-1.46707,0.213391,-0.0804103,-0.131232,0.154918,-0.00332336,-0.000829243,0.229731,0.23786856324086725,0.16756221707787322,-0.0033178437516735437,-0.0772623305593988,-0.0008288992730410838,-0.12298571652675594
274,0.2626,828.048,67.5136,-0.060193,236.848,-5.41815,-1.45484,0.214117,-0.0806879,-0.13168,0.155455,-0.00333953,-0.000832973,0.230529,0.23876758212214644,0.16818936636295634,-0.0033339599718400503,-0.07751844698583077,-0.0008326261742961361,-0.12337853092875595
275,0.2636,828.126,67.6344,-0.023469,236.85,-5.40291,-1.45,0.214842,-0.080964,-0.132129,0.155992,-0.00335472,-0.000836769,0.231327,0.23966601426148237,0.16881685251764678,-0.00334909921400528,-0.07777310898491119,-0.0008364190064483745,-0.12377204561771027
276,0.2646,828.066,67.5709,-0.0766536,236.866,-5.42495,-1.47054,0.215566,-0.0812405,-0.132576,0.156529,-0.00337046,-0.000840945,0.232124,0.24056385743581776,0.16944467572289224,-0.0033647863757253482,-0.07802806947036545,-0.0008405915048503854,-0.12416363198724534
277,0.2656,828.139,67.6696,-0.0350598,236.867,-5.41439,-1.46869,0.216289,-0.0815163,-0.133024,0.157065,-0.00338573,-0.000844827,0.23292,0.24146110942225207,0.17007166608748636,-0.0033800048792438364,-0.07828231426683652,-0.0008444702341455779,-0.12455591880130756
278,0.2666,828.076,67.5752,-0.0716805,236.883,-5.44615,-1.4744,0.217013,-0.0817926,-0.133471,0.157601,-0.00340163,-0.000848823,0.233715,0.24236025271607042,0.17069899260899812,-0.0033958510111892215,-0.07853694968390168,-0.0008484628516652881,-0.12494715485783037
279,0.2676,828.148,67.6945,-0.0425809,236.885,-5.42959,-1.47806,0.217735,-0.0820677,-0.133918,0.158136,-0.00341684,-0.000852794,0.23451,0.24325756070773696,0.17132548414158566,-0.003411009245016583,-0.07879040930407444,-0.0008524304745415323,-0.12533821607091633
280,0.2686,828.08,67.5685,-0.0677177,236.899,-5.47041,-1.47541,0.218457,-0.0823438,-0.134364,0.158671,-0.00343291,-0.000856685,0.235305,0.24415551678970604,0.17195231093681795,-0.0034270243014167256,-0.07904472016283604,-0.0008563181501710648,-0.1257282282473684
281,0.2696,828.161,67.7239,-0.0483423,236.901,-5.44364,-1.48749,0.219178,-0.0826183,-0.13481,0.159205,-0.00344801,-0.000860781,0.236098,0.24505287637656892,0.17257830059522172,-0.0034420724397360436,-0.07929748769322065,-0.0008604106343105267,-0.12611806651717383
282,0.2706,828.081,67.5538,-0.0641649,236.915,-5.49633,-1.47594,0.219899,-0.0828942,-0.135256,0.15974,-0.00346429,-0.000864557,0.236892,0.24595088319299196,0.1732057978265824,-0.003458296270734351,-0.07955147447727806,-0.0008641833782770947,-0.1265077309578776
283,0.2716,828.159,67.6758,-0.0258263,236.916,-5.48052,-1.47035,0.220619,-0.0831685,-0.135701,0.160273,-0.00347961,-0.000868378,0.237684,0.24684829085688187,0.17383128319386665,-0.0034735631726907634,-0.0798039188834958,-0.0008680010689386952,-0.12689634854377552
284,0.2726,828.093,67.6048,-0.0812376,236.931,-5.50386,-1.49105,0.221339,-0.0834434,-0.136146,0.160807,-0.0034955,-0.000872593,0.238476,0.24774634488695368,0.17445827649140333,-0.0034893978519651148,-0.08005684601976704,-0.0008722124014387544,-0.12728479323331998
285,0.2736,828.169,67.7087,-0.0381961,236.931,-5.49165,-1.48924,0.222058,-0.0837174,-0.136591,0.16134,-0.00351088,-0.00087651,0.239267,0.24864379710433715,0.17508442960775517,-0.0035047240671672863,-0.08030887591428526,-0.0008761259773180097,-0.1276730651034328
286,0.2746,828.101,67.6068,-0.0759511,236.945,-5.5248,-1.49453,0.222776,-0.083992,-0.137035,0.161872,-0.00352694,-0.000880536,0.240058,0.24954064528062458,0.1757097408423467,-0.003520727652789546,-0.08056138842540472,-0.0008801484419376226,-0.12806029229172966
287,0.2756,828.177,67.7331,-0.0461491,236.945,-5.50611,-1.49866,0.223494,-0.0842654,-0.137479,0.162404,-0.00354226,-0.000884548,0.240847,0.25043813762513123,0.17633538483101985,-0.0035359935983044766,-0.08081272858204414,-0.0008841569027411289,-0.12844734758931753
288,0.2766,828.104,67.5982,-0.0716729,236.959,-5.54869,-1.49514,0.224212,-0.0845398,-0.137922,0.162936,-0.00355849,-0.000888461,0.241637,0.25133627460053587,0.17696136175084676,-0.00355216607788833,-0.08106491896721801,-0.0008880664353861922,-0.1288333599062943
289,0.2776,828.187,67.762,-0.0522364,236.959,-5.51936,-1.50813,0.224928,-0.0848126,-0.138366,0.163468,-0.00357368,-0.000892603,0.242426,0.25223255220224106,0.17758767177899393,-0.003567302005528017,-0.08131557026693204,-0.0008922047484445361,-0.12922007203804975
290,0.2786,828.102,67.5816,-0.06783,236.972,-5.57425,-1.49527,0.225645,-0.0850868,-0.138808,0.163999,-0.00359012,-0.000896396,0.243214,0.25313072489860344,0.1782131368789961,-0.003583683224429035,-0.0815674390047828,-0.0008959943571249518,-0.12960487171921475
291,0.2796,828.184,67.708,-0.0281857,236.972,-5.557,-1.48943,0.22636,-0.0853594,-0.139251,0.164529,-0.00360555,-0.000900246,0.244001,0.2540270337591388,0.1788377553508158,-0.003599057809581696,-0.08181776959929987,-0.0008998409001420571,-0.12999037136656677
292,0.2806,828.115,67.6351,-0.0858539,236.986,-5.58016,-1.51097,0.227075,-0.0856326,-0.139693,0.16506,-0.00362158,-0.000904504,0.244788,0.25492398370967195,0.17946388442146333,-0.003615029988667584,-0.08206858272201278,-0.0009040950595623487,-0.1303748306506619
293,0.2816,828.191,67.7408,-0.0414173,236.984,-5.56719,-1.50878,0.22779,-0.0859049,-0.140135,0.16559,-0.00363707,-0.000908449,0.245574,0.25582157520874604,0.1800891659651791,-0.0036304638723173577,-0.0823185014189628,-0.0009080364851329348,-0.13075912004130263
294,0.2826,828.122,67.6367,-0.0802712,236.998,-5.60033,-1.51424,0.228504,-0.0861778,-0.140576,0.166119,-0.00365326,-0.000912511,0.24636,0.256718551996052,0.18071359828176048,-0.0036465949645256845,-0.08256890253113969,-0.0009120947884462272,-0.13114237075637047
295,0.2836,828.197,67.7638,-0.0497546,236.997,-5.58103,-1.51812,0.229217,-0.0864495,-0.141017,0.166648,-0.00366869,-0.000916551,0.247145,0.2576149118379354,0.18133836101042378,-0.0036619685789576195,-0.08281813470059851,-0.0009161310954299839,-0.13152545249513503
296,0.2846,828.123,67.6274,-0.0757471,237.009,-5.62351,-1.51459,0.22993,-0.0867222,-0.141458,0.167177,-0.00368505,-0.000920497,0.24793,0.2585119110122809,0.18196345432600292,-0.0036782685358176526,-0.08306821609511783,-0.0009200734725983706,-0.13190836533209827
297,0.2856,828.206,67.7913,-0.0560871,237.009,-5.59372,-1.52743,0.230642,-0.0869933,-0.141898,0.167705,-0.00370035,-0.000924669,0.248713,0.259408290566175,0.182587695815138,-0.003693512141695221,-0.08331676260973209,-0.0009242416253570918,-0.13229024163240521
298,0.2866,828.121,67.6103,-0.0717202,237.02,-5.64826,-1.51452,0.231354,-0.0872659,-0.142338,0.168233,-0.00371692,-0.000928493,0.249497,0.26030530856957257,0.18321226699080873,-0.0037100208034244186,-0.08356661640362528,-0.0009280620837524012,-0.13267194994410014
299,0.2876,828.203,67.7386,-0.0308955,237.019,-5.63019,-1.5082,0.232065,-0.0875368,-0.142778,0.168761,-0.00373246,-0.000932367,0.250279,0.26120170427487643,0.1838371680271358,-0.003725503029403887,-0.08381484458321664,-0.0009319324809429208,-0.13305349034108183
300,0.2886,828.131,67.661,-0.0903421,237.032,-5.65391,-1.53,0.232776,-0.0878083,-0.143217,0.169288,-0.00374861,-0.00093666,0.251061,0.2620987375441539,0.18446121463652454,-0.0037415927326052145,-0.08406355508893337,-0.0009362214709504046,-0.1334339963316462
301,0.2896,828.209,67.7698,-0.0448455,237.029,-5.63976,-1.52772,0.233486,-0.088079,-0.143656,0.169815,-0.00376421,-0.000940634,0.251843,0.262995145835097,0.1850855902051498,-0.0037571342425345433,-0.08431146552837898,-0.00094019174251736,-0.13381433531674114
302,0.2906,828.137,67.6612,-0.0844964,237.042,-5.67351,-1.53295,0.234195,-0.0883502,-0.144095,0.170341,-0.00378053,-0.000944723,0.252624,0.26389092691036087,0.18570910919671646,-0.003773392793433583,-0.08455976658778208,-0.0009442768897212073,-0.13419450736966587
303,0.2916,828.214,67.7919,-0.0535353,237.04,-5.65285,-1.537,0.234904,-0.0886203,-0.144533,0.170867,-0.00379606,-0.000948796,0.253404,0.2647873433196064,0.18633295624554402,-0.0037888640725086686,-0.08480699360531507,-0.0009483460353946205,-0.13457364713776743
304,0.2926,828.138,67.6507,-0.0797343,237.051,-5.69603,-1.53297,0.235612,-0.0888914,-0.144971,0.171393,-0.00381254,-0.000952765,0.254184,0.26568312982968245,0.1869571315242362,-0.003805281496748858,-0.08505506880123648,-0.0009523112635402287,-0.13495262087901305
305,0.2936,828.223,67.8184,-0.0601084,237.049,-5.66478,-1.5462,0.23632,-0.0891608,-0.145408,0.171918,-0.00382794,-0.000956971,0.254962,0.26657955078117346,0.18758044762444603,-0.003820622777285565,-0.08530152176699635,-0.0009565132492822537,-0.13533056399710308
306,0.2946,828.135,67.6326,-0.0755154,237.06,-5.72009,-1.53261,0.237027,-0.0894317,-0.145845,0.172443,-0.00384463,-0.000960816,0.255741,0.26747533914745003,0.18820409105152414,-0.003837248872346266,-0.08554928002437856,-0.0009603545641039268,-0.13570834199013282
307,0.2956,828.219,67.7635,-0.0337594,237.057,-5.70096,-1.526,0.237734,-0.089701,-0.146282,0.172967,-0.00386027,-0.000964714,0.256519,0.2683717610600338,0.188826873149895,-0.0038528287359390623,-0.0857955084471228,-0.0009642488130519045,-0.13608595493024633
308,0.2966,828.144,67.6833,-0.0947866,237.07,-5.7247,-1.54821,0.23844,-0.0899709,-0.146719,0.173492,-0.00387654,-0.000969041,0.257296,0.269267547698818,0.1894511711221769,-0.0038690359185697965,-0.08604221894431363,-0.0009685716313948545,-0.13646340288955605
309,0.2976,828.224,67.7937,-0.0484082,237.066,-5.70969,-1.54573,0.239146,-0.0902398,-0.147155,0.174015,-0.00389223,-0.00097304,0.258072,0.2701639669862679,0.19007341678773182,-0.003884665090785,-0.08628794915173243,-0.0009725667500887214,-0.13683982278039697
310,0.2986,828.15,67.6826,-0.0887084,237.077,-5.74351,-1.5509,0.239851,-0.0905095,-0.147591,0.174539,-0.00390866,-0.000977157,0.258848,0.2710597483088071,0.19069717866946911,-0.0039010311312902557,-0.08653434406399874,-0.0009766797375647673,-0.13721607858793827
311,0.2996,828.228,67.8147,-0.0574039,237.074,-5.72203,-1.55488,0.240555,-0.0907779,-0.148026,0.175062,-0.00392428,-0.000981255,0.259624,0.27195488942431867,0.19132007616741054,-0.003916590075668247,-0.08677948534662028,-0.0009807737267426564,-0.13759130797544383
312,0.3006,828.151,67.6714,-0.0837575,237.085,-5.76522,-1.55064,0.241259,-0.0910473,-0.148461,0.175584,-0.00394088,-0.00098525,0.260399,0.2728506609410508,0.19194210758324504,-0.0039331249230334375,-0.0870254738171331,-0.0009847648005794074,-0.1379663741736621
313,0.3016,828.235,67.8399,-0.0641643,237.082,-5.73326,-1.56388,0.241963,-0.0913151,-0.148896,0.176106,-0.00395637,-0.000989482,0.261173,0.27374706330296195,0.19256446378424008,-0.003948553879430716,-0.08726993566034313,-0.0009889926241086755,-0.13834127725356493
314,0.3026,828.147,67.6528,-0.0794095,237.092,-5.78839,-1.55004,0.242666,-0.0915844,-0.14933,0.176628,-0.00397317,-0.000993351,0.261947,0.27464282231086434,0.19318714493997802,-0.003965287403163598,-0.08751570077291204,-0.0009928577902190705,-0.13871515600168005
315,0.3036,828.233,67.785,-0.0369013,237.088,-5.76846,-1.5431,0.243368,-0.0918521,-0.149765,0.17715,-0.00398889,-0.00099727,0.262719,0.2755379357201735,0.19381015122012912,-0.003980944945777054,-0.08775994012691901,-0.0009967728915377672,-0.13908973343232156
316,0.3046,828.156,67.7017,-0.0991368,237.099,-5.79238,-1.56547,0.24407,-0.0921203,-0.150198,0.177671,-0.00400527,-0.00100162,0.263492,0.2764336777197056,0.19443228836156745,-0.0039972596042814335,-0.08800457010463059,-0.0010011185461238359,-0.13946242688379007
317,0.3056,828.237,67.8139,-0.0521459,237.094,-5.77643,-1.56288,0.244771,-0.0923877,-0.150632,0.178191,-0.00402105,-0.00100565,0.264264,0.2773287714214754,0.19505355466675556,-0.004012976403518942,-0.08824840508039544,-0.001005144503503752,-0.13983581915853793
318,0.3066,828.161,67.7,-0.0928599,237.105,-5.8104,-1.56786,0.245472,-0.0926557,-0.151065,0.178712,-0.00403758,-0.00100979,0.265035,0.2782244928039064,0.19567633979017418,-0.004029439932947576,-0.08849272176793543,-0.0010092803336443357,-0.1402081896248184
319,0.3076,828.24,67.8338,-0.0614046,237.101,-5.78797,-1.57188,0.246172,-0.0929225,-0.151498,0.179231,-0.00405329,-0.00101391,0.265806,0.2791195631869545,0.19629705687267496,-0.004045086507542095,-0.08873587947108785,-0.0010133961669307467,-0.14058039888958962
320,0.3086,828.162,67.688,-0.0877501,237.11,-5.83127,-1.5673,0.246872,-0.0931903,-0.15193,0.179751,-0.00406998,-0.00101793,0.266576,0.2800152603386141,0.19691929310964928,-0.0040617088563343895,-0.08897988332899065,-0.001017412085006164,-0.14095158797465424
321,0.3096,828.247,67.8578,-0.0683232,237.106,-5.79842,-1.58067,0.247571,-0.0934565,-0.152362,0.18027,-0.00408556,-0.00102218,0.267345,0.2809103037868328,0.19754065545235377,-0.004077225454035771,-0.0892223646083583,-0.0010216577519828185,-0.14132261674066549
322,0.3106,828.159,67.6688,-0.0832998,237.115,-5.85353,-1.56645,0.248269,-0.0937242,-0.152794,0.180789,-0.00410245,-0.00102607,0.268114,0.2818046912837999,0.1981623403658137,-0.004094046447644106,-0.08946614714960355,-0.0010255437701758296,-0.14169348525686631
323,0.3116,828.245,67.8022,-0.0402617,237.11,-5.83279,-1.55926,0.248967,-0.0939902,-0.153225,0.181307,-0.00411826,-0.00103001,0.268882,0.28269970328116534,0.1987831492337384,-0.004109791596304091,-0.08970831694445114,-0.0010294797217795804,-0.1420633356562342
324,0.3126,828.166,67.7166,-0.103416,237.121,-5.85667,-1.58176,0.249665,-0.0942569,-0.153656,0.181825,-0.00413473,-0.00103439,0.26965,0.28359534021498245,0.19940427976396013,-0.004126193772964193,-0.08995105936518144,-0.001033855203076084,-0.14243302668442692
325,0.3136,828.248,67.8299,-0.0560353,237.115,-5.83993,-1.57906,0.250362,-0.0945226,-0.154087,0.182343,-0.00415059,-0.00103843,0.270417,0.2844903180306486,0.20002573212314312,-0.004141988206280756,-0.09019282724842248,-0.0010378910181486622,-0.14280255841011869
326,0.3146,828.172,67.7141,-0.0969766,237.125,-5.8738,-1.58385,0.251058,-0.0947891,-0.154517,0.18286,-0.00416721,-0.00104259,0.271184,0.28538463447802,0.20064630583113163,-0.004158539228897418,-0.09043525855455448,-0.00104204669187824,-0.14317107407345653
327,0.3156,828.251,67.8486,-0.0655093,237.12,-5.85064,-1.58785,0.251754,-0.0950543,-0.154947,0.183377,-0.00418299,-0.00104674,0.27195,0.2862795735862993,0.20126720045867752,-0.004174253483162582,-0.09067644314149592,-0.0010461923587822275,-0.1435394313091235
328,0.3166,828.172,67.7015,-0.0917504,237.128,-5.89373,-1.58302,0.252449,-0.0953205,-0.155377,0.183894,-0.00419977,-0.00105077,0.272715,0.28717384861451767,0.20188841617173958,-0.004190963298993378,-0.09091847285674737,-0.001050218134515002,-0.1439076301852289
329,0.3176,828.258,67.8714,-0.0725423,237.124,-5.8603,-1.59638,0.253144,-0.0955851,-0.155807,0.18441,-0.00421542,-0.00105505,0.27348,0.28806874537990934,0.20250875062700957,-0.0042065475884703885,-0.09115898400780098,-0.001054493630431863,-0.1442756707698526
330,0.3186,828.169,67.6819,-0.087245,237.132,-5.91498,-1.58195,0.253838,-0.0958512,-0.156235,0.184926,-0.00423239,-0.00105896,0.274245,0.2889629753511118,0.20312940525745682,-0.004223446059973823,-0.0914007944278532,-0.0010583994997257484,-0.14464184241644107
331,0.3196,828.268,67.9008,-0.0785448,237.127,-5.86804,-1.60529,0.254532,-0.0961151,-0.156664,0.185441,-0.00424787,-0.00106338,0.275008,0.2898578261333109,0.2037491764785555,-0.004238860561720292,-0.09164054212210404,-0.0010628148118421166,-0.14500871236681345
332,0.3206,828.163,67.6541,-0.083317,237.135,-5.93796,-1.58013,0.255225,-0.0963811,-0.157092,0.185956,-0.00426508,-0.00106715,0.275771,0.2907520074048462,0.20436926696403668,-0.00425599746346661,-0.0918821336048079,-0.0010665807979314268,-0.14537457033872947
333,0.3216,828.253,67.802,-0.0430809,237.129,-5.91261,-1.57555,0.255918,-0.0966452,-0.15752,0.18647,-0.00428094,-0.00107113,0.276534,0.2916468085587669,0.20498847188928937,-0.004271789838112938,-0.09212193586604045,-0.0010705565450280785,-0.1457402717569385
334,0.3226,828.18,67.7327,-0.108546,237.139,-5.93136,-1.6009,0.25661,-0.0969098,-0.157948,0.186985,-0.00429744,-0.00107557,0.277296,0.29254093748321686,0.2056092007762813,-0.004288219218037792,-0.09236212862290716,-0.001074991781910839,-0.14610581668843103
335,0.3236,828.258,67.836,-0.0608552,237.131,-5.91649,-1.5968,0.257302,-0.0971736,-0.158376,0.187499,-0.00431343,-0.00107962,0.278057,0.293435685359015,0.2062290431913345,-0.004304140522121358,-0.09260153191469389,-0.001079037420001705,-0.1464712052001691
336,0.3246,828.188,67.735,-0.102261,237.14,-5.94588,-1.60337,0.257993,-0.097438,-0.158803,0.188012,-0.00433008,-0.00108383,0.278818,0.2943297582842186,0.20684799743868187,-0.0043207187201678154,-0.09284141635553511,-0.0010832428684016682,-0.1468355841950968
337,0.3256,828.261,67.852,-0.0705354,237.134,-5.92646,-1.60509,0.258683,-0.0977013,-0.159229,0.188525,-0.00434601,-0.00108797,0.279578,0.2952231540035124,0.2074672692910169,-0.004336579764785076,-0.09308023976812663,-0.001087378375215664,-0.14719895483278855
338,0.3266,828.19,67.7247,-0.0971443,237.141,-5.96376,-1.60264,0.259373,-0.0979655,-0.159656,0.189038,-0.0043628,-0.00109206,0.280338,0.2961171663785742,0.20808685891131273,-0.0043532968132707905,-0.09331981631932396,-0.0010914639194832265,-0.14756302314495862
339,0.3276,828.266,67.8701,-0.0774566,237.136,-5.93584,-1.61282,0.260063,-0.0982283,-0.160082,0.18955,-0.00437863,-0.00109631,0.281097,0.29701179583504356,0.20870555775646404,-0.004369057775833851,-0.09355806056493021,-0.0010957092717401862,-0.14792608395965479
340,0.3286,828.189,67.7081,-0.0928951,237.142,-5.98275,-1.60181,0.260752,-0.0984923,-0.160507,0.190062,-0.00439557,-0.00110029,0.281855,0.29790574489245936,0.20932457345653188,-0.004385923621140986,-0.09379732965203191,-0.0010996849029056843,-0.14828813843194688
341,0.3296,828.275,67.8936,-0.0832298,237.137,-5.94364,-1.62071,0.26144,-0.0987544,-0.160933,0.190574,-0.00441125,-0.00110467,0.282613,0.2987990112933523,0.20994390617378778,-0.004401534727467293,-0.09403481424821425,-0.0011040600767041608,-0.14865089041331692
342,0.3306,828.185,67.6848,-0.0893688,237.143,-6.00308,-1.60044,0.262128,-0.0990183,-0.161358,0.191085,-0.00442839,-0.00110853,0.283371,0.29969289247298847,0.21056234550763508,-0.004418599138919621,-0.0942738669163472,-0.0011079158075907314,-0.149012636908316
343,0.3316,828.272,67.8232,-0.0486343,237.136,-5.97944,-1.59442,0.262816,-0.0992804,-0.161783,0.191596,-0.00444435,-0.00111252,0.284127,0.3005873888544812,0.21118110094473952,-0.004434488491280031,-0.09451122662847933,-0.00111190137905548,-0.14937422969372038
344,0.3326,828.194,67.7402,-0.113454,237.145,-6.00104,-1.6178,0.263503,-0.0995432,-0.162207,0.192107,-0.00446097,-0.00111696,0.284884,0.30148119937938533,0.21180017264667117,-0.004451034652582231,-0.09474915781259441,-0.0011163364323675262,-0.14973481857008641
345,0.3336,828.275,67.8503,-0.0663632,237.136,-5.98364,-1.61458,0.264189,-0.099805,-0.162631,0.192617,-0.004477,-0.00112104,0.285639,0.30237432178812096,0.21241834835612794,-0.004466993174588874,-0.09498612146318375,-0.001120411869400928,-0.15009525458917683
346,0.3346,828.201,67.7379,-0.107093,237.144,-6.01523,-1.61949,0.264875,-0.100068,-0.163055,0.193127,-0.00449377,-0.00112524,0.286394,0.3032680570890267,0.21303683941560392,-0.0044836881231258285,-0.0952241088165302,-0.001124607154860957,-0.15045553781578946
347,0.3356,828.278,67.8656,-0.0761896,237.137,-5.99226,-1.62265,0.265561,-0.100329,-0.163479,0.193636,-0.00450973,-0.00112942,0.287149,0.30416240570269126,0.2136544323309295,-0.004499576436674313,-0.09546022450969072,-0.0011287824452766992,-0.1508156683146945
348,0.3366,828.202,67.7251,-0.101853,237.144,-6.03227,-1.61819,0.266245,-0.100591,-0.163902,0.194145,-0.00452663,-0.0011335,0.287903,0.3050547579378653,0.21427233968106574,-0.004516400251670882,-0.09569718288796614,-0.0011328578315306093,-0.1511747973258567
349,0.3376,828.284,67.884,-0.0832642,237.137,-6.00006,-1.63023,0.26693,-0.100852,-0.164325,0.194654,-0.00454246,-0.0011378,0.288656,0.3059490266991356,0.21489056162610098,-0.004532158632327032,-0.09593317512490585,-0.0011371529510073586,-0.15153377445757188
350,0.3386,828.201,67.7059,-0.0974842,237.143,-6.0504,-1.61678,0.267614,-0.101114,-0.164747,0.195162,-0.00455953,-0.00114176,0.289409,0.3068426014011072,0.21550788281771416,-0.004549151123347861,-0.09617000960635125,-0.0011411084400497762,-0.15189175166624724
351,0.3396,828.293,67.9081,-0.0891677,237.136,-6.00619,-1.638,0.268297,-0.101374,-0.165169,0.19567,-0.0045752,-0.00114619,0.290161,0.30773547978112115,0.21612551768816002,-0.0045647497159344574,-0.09640497485704735,-0.0011455333751382302,-0.15224957784041104
352,0.3406,828.196,67.6799,-0.0938499,237.142,-6.06993,-1.61481,0.26898,-0.101636,-0.165591,0.196178,-0.00459248,-0.00115002,0.290913,0.3086289682053749,0.2167434663968284,-0.004581950688442471,-0.09664168574315468,-0.001149358980419346,-0.15260725304378642
353,0.3416,828.285,67.8227,-0.0536224,237.133,-6.04435,-1.60936,0.269662,-0.101897,-0.166012,0.196685,-0.00460848,-0.00115404,0.291664,0.30952175756825895,0.21736051174206916,-0.004597877249818638,-0.09687743149701655,-0.001153374351925307,-0.15296393030442357
354,0.3426,828.21,67.7448,-0.11858,237.141,-6.06387,-1.63329,0.270344,-0.102157,-0.166434,0.197192,-0.00462514,-0.00115849,0.292415,0.31041515602116454,0.21797787000861857,-0.004614460511044749,-0.09711221284192995,-0.0011578192095196282,-0.1533213041146576
355,0.3436,828.289,67.851,-0.0718217,237.132,-6.04667,-1.62959,0.271025,-0.102417,-0.166854,0.197698,-0.00464123,-0.00116258,0.293165,0.3113078526711246,0.21859432276023627,-0.004630476135529027,-0.09734693315162846,-0.00116190446568476,-0.1536768345003221
356,0.3446,828.218,67.7436,-0.112187,237.139,-6.07625,-1.63482,0.271706,-0.102678,-0.167275,0.198204,-0.00465803,-0.00116681,0.293914,0.3122011574545489,0.2192110875158766,-0.004647198203064251,-0.09758249485993575,-0.0011661295418927686,-0.15403306156193952
357,0.3456,828.292,67.8645,-0.0816927,237.131,-6.0542,-1.6372,0.272386,-0.102937,-0.167695,0.19871,-0.00467406,-0.00117098,0.294663,0.31309375769130376,0.21982816443345365,-0.004663153580594326,-0.09781619072884562,-0.0011702946704482686,-0.15438829307224444
358,0.3466,828.221,67.7312,-0.107013,237.136,-6.09162,-1.63333,0.273066,-0.103198,-0.168115,0.199215,-0.00469099,-0.00117509,0.295411,0.31398696510263524,0.22044433322601797,-0.004680004490760892,-0.09805162997690697,-0.0011743998521011045,-0.15474337541664207
359,0.3476,828.298,67.8803,-0.0886922,237.129,-6.06109,-1.64419,0.273745,-0.103457,-0.168535,0.19972,-0.0047069,-0.00117938,0.296159,0.3148794652214404,0.2210608132624048,-0.004695839905918375,-0.09828520435555521,-0.0011786848047344867,-0.15509830865776886
360,0.3486,828.22,67.7129,-0.102808,237.133,-6.10797,-1.63183,0.274424,-0.103717,-0.168954,0.200225,-0.00472397,-0.00118337,0.296907,0.3157725715536124,0.2216776046998321,-0.004712829602923629,-0.09851961972710399,-0.0011826700938314394,-0.15545224831090576
361,0.3496,828.307,67.9013,-0.0944545,237.126,-6.06647,-1.65127,0.275102,-0.103975,-0.169373,0.200729,-0.00473973,-0.00118779,0.297653,0.31666496784528353,0.22229348540150062,-0.0047285152051262935,-0.09875217166472439,-0.0011870848566729597,-0.15580603969439266
362,0.3506,828.217,67.6884,-0.0994205,237.13,-6.12552,-1.62987,0.27578,-0.104235,-0.169791,0.201233,-0.004757,-0.00119166,0.298399,0.31755796938679715,0.22290967658527783,-0.0047457033952482686,-0.09898646564055491,-0.0011909502551750162,-0.15615883902960248
363,0.3516,828.304,67.8262,-0.0595532,237.121,-6.10037,-1.6239,0.276457,-0.104494,-0.17021,0.201736,-0.00477304,-0.00119568,0.299145,0.318450258137734,0.2235249548821192,-0.004761667146136128,-0.09921979792811841,-0.0011949654594843873,-0.15651233441359447
364,0.3526,828.228,67.7439,-0.123434,237.128,-6.12035,-1.64672,0.277134,-0.104753,-0.170628,0.202239,-0.00478975,-0.00120013,0.29989,0.3193431511726823,0.22414054274179263,-0.004778297439731682,-0.09945306979044488,-0.0011994101319987571,-0.15686483857930644
365,0.3536,828.308,67.8509,-0.0776935,237.118,-6.10206,-1.64333,0.27781,-0.105011,-0.171045,0.202742,-0.00480587,-0.00120424,0.300634,0.320235328664892,0.22475644032004705,-0.004794340284271281,-0.09968538092901336,-0.0012035151939872035,-0.15721635264584222
366,0.3546,828.236,67.7407,-0.117058,237.124,-6.13164,-1.64773,0.278486,-0.10527,-0.171463,0.203245,-0.00482271,-0.00120846,0.301378,0.3211281094729843,0.22537264777271004,-0.004811099406468622,-0.09991853222095715,-0.0012077301062596302,-0.157568562593429
367,0.3556,828.311,67.8631,-0.0875525,237.115,-6.10834,-1.65052,0.279161,-0.105527,-0.17188,0.203746,-0.00483877,-0.00121265,0.302122,0.3220201719841056,0.22598671327980946,-0.004827082011871542,-0.10014982343598222,-0.0012119150371030507,-0.1579197832682273
368,0.3566,828.239,67.7274,-0.111934,237.119,-6.14567,-1.64589,0.279836,-0.105786,-0.172297,0.204248,-0.00485573,-0.00121675,0.302865,0.3229128368406906,0.22660231311250612,-0.004843960001434833,-0.10038285445289297,-0.0012160100598566093,-0.15827085751453684
369,0.3576,828.317,67.8779,-0.0945163,237.111,-6.11392,-1.6571,0.28051,-0.106043,-0.172713,0.204749,-0.00487166,-0.00122106,0.303607,0.3238047806440172,0.22721699483629032,-0.00485981271088487,-0.10061402635243699,-0.001220314809576517,-0.15862094401477
370,0.3586,828.24,67.7084,-0.107826,237.114,-6.1606,-1.64406,0.281184,-0.106301,-0.173129,0.205251,-0.00488876,-0.00122505,0.304349,0.32469732582010713,0.22783321242537213,-0.0048768294625938235,-0.10084603800284819,-0.0012242999325700055,-0.15897088490930722
371,0.3596,828.327,67.8975,-0.10021,237.107,-6.11803,-1.66371,0.281857,-0.106558,-0.173545,0.205751,-0.00490454,-0.00122947,0.30509,0.3255891471846124,0.22844728253631952,-0.004892532382328563,-0.10107709087951511,-0.0012287145114081577,-0.15932068025870771
372,0.3606,828.237,67.6833,-0.104573,237.11,-6.17668,-1.64182,0.28253,-0.106816,-0.17396,0.206251,-0.00492183,-0.00123334,0.305831,0.32648156894690694,0.22906165975909376,-0.004909737641703771,-0.10130898307468872,-0.0012325797488037527,-0.15966948979341578
373,0.3616,828.323,67.8199,-0.0655657,237.1,-6.15094,-1.636,0.283202,-0.107072,-0.174375,0.206751,-0.00493789,-0.00123737,0.306571,0.32737326413726686,0.22967634424728933,-0.004925718662989298,-0.10153901852922709,-0.001236604773396932,-0.1600181546021996
374,0.3626,828.249,67.7391,-0.128307,237.106,-6.16984,-1.65833,0.283874,-0.10733,-0.17479,0.207251,-0.00495461,-0.00124183,0.30731,0.32826555874817753,0.23029133615457753,-0.004942356165883344,-0.10177079156243962,-0.0012410592482061666,-0.16036667474510802
375,0.3636,828.327,67.8435,-0.083701,237.095,-6.15132,-1.6549,0.284545,-0.107586,-0.175205,0.20775,-0.00497075,-0.00124593,0.308049,0.32915712402479635,0.23090540472868604,-0.004958416266649501,-0.10200070880913648,-0.0012451541514686415,-0.16071505028216493
376,0.3646,828.258,67.7358,-0.122007,237.1,-6.17959,-1.65902,0.285216,-0.107843,-0.175619,0.208249,-0.0049876,-0.00125016,0.308788,0.33004928774247033,0.23151977979947747,-0.004975182576078874,-0.1022314649735353,-0.0012493788755313373,-0.16106244233623113
377,0.3656,828.331,67.8542,-0.0934747,237.09,-6.15639,-1.66159,0.285886,-0.108099,-0.176033,0.208747,-0.00500367,-0.00125435,0.309526,0.33094071936150304,0.2321332293860865,-0.0049911724964154525,-0.1024612643029329,-0.0012535636318666832,-0.16140969059975363
378,0.3666,828.262,67.7223,-0.117019,237.094,-6.19201,-1.65695,0.286556,-0.108355,-0.176447,0.209245,-0.00502063,-0.00125845,0.310263,0.3318327484398471,0.2327469845466712,-0.005008047703027763,-0.10269100481123161,-0.0012576584838613902,-0.1617567951322494
379,0.3676,828.337,67.8671,-0.100313,237.085,-6.16084,-1.6676,0.287225,-0.108611,-0.17686,0.209743,-0.00503659,-0.00126276,0.311,0.3327240426532254,0.2333610454334456,-0.00502392764786419,-0.10292068651348762,-0.0012619630540769977,-0.16210291809654787
380,0.3686,828.263,67.7035,-0.113105,237.087,-6.20525,-1.65494,0.287894,-0.108867,-0.177273,0.21024,-0.00505367,-0.00126675,0.311736,0.33361593334193107,0.23397417822390354,-0.005040921694050349,-0.10315030942475345,-0.0012659480108944132,-0.16244889814157693
381,0.3696,828.347,67.8845,-0.105847,237.079,-6.16391,-1.6736,0.288562,-0.109122,-0.177686,0.210737,-0.00506948,-0.00127117,0.312472,0.33450708639738624,0.23458761581709564,-0.005056651872730966,-0.10337897693950293,-0.001270362405648373,-0.16279473532635003
382,0.3706,828.261,67.6792,-0.110094,237.081,-6.21951,-1.65258,0.28923,-0.109378,-0.178098,0.211234,-0.00508673,-0.00127505,0.313207,0.33539883494195366,0.23520135836454648,-0.00507381449745814,-0.10360848254343569,-0.001274237469124584,-0.16313959284986757
383,0.3716,828.36,67.9078,-0.110659,237.072,-6.16525,-1.67989,0.289898,-0.109632,-0.178511,0.21173,-0.00510235,-0.00127958,0.313942,0.336291179373553,0.23581417020306783,-0.005089355123103045,-0.1038361370755202,-0.0012787616865814755,-0.16348514483662369
384,0.3726,828.257,67.648,-0.10756,237.074,-6.23512,-1.6496,0.290564,-0.109889,-0.178922,0.212226,-0.00511981,-0.00128333,0.314676,0.3371814457248037,0.2364272860716543,-0.005106726111313464,-0.10406642159546342,-0.0012825068842029497,-0.1638288817993112
385,0.3736,828.345,67.794,-0.0720462,237.064,-6.20574,-1.6462,0.291231,-0.110143,-0.179333,0.212721,-0.00513585,-0.00128739,0.31541,0.3380736432639042,0.23703946908105444,-0.005122684071443451,-0.10429395982579959,-0.0012865616689937687,-0.16417247751513542
386,0.3746,828.279,67.7292,-0.134064,237.068,-6.21963,-1.66984,0.291897,-0.110398,-0.179745,0.213217,-0.0051525,-0.00129186,0.316143,0.338965097131505,0.23765319284863096,-0.0051392486408532445,-0.10452233574687664,-0.0012910259080854969,-0.16451676752578692
387,0.3756,828.352,67.8227,-0.0909757,237.057,-6.20274,-1.66553,0.292562,-0.110652,-0.180155,0.213711,-0.00516868,-0.00129595,0.316875,0.3398558050486553,0.23826474456673585,-0.0051553453575874375,-0.10474975818972398,-0.0012951106194363238,-0.16485924543833175
388,0.3766,828.29,67.7295,-0.128124,237.06,-6.22649,-1.67067,0.293227,-0.110907,-0.180566,0.214206,-0.00518546,-0.00130019,0.317608,0.34074710548356113,0.23887783734323986,-0.005172038710834714,-0.10497801789703598,-0.001299345119190165,-0.1652024177617133
389,0.3776,828.356,67.8311,-0.100579,237.05,-6.20648,-1.67149,0.293891,-0.11116,-0.180976,0.2147,-0.00520158,-0.00130436,0.318339,0.3416376571920494,0.23948999418517847,-0.005188075208316101,-0.1052044298161926,-0.0013035096922379141,-0.16554461461528247
390,0.3786,828.296,67.7178,-0.123456,237.052,-6.23647,-1.66856,0.294555,-0.111415,-0.181386,0.215194,-0.00521845,-0.00130848,0.31907,0.34252880042323586,0.2401024535073033,-0.005204857543927965,-0.10543257359702118,-0.0013076243133017806,-0.16588667119689926
391,0.3796,828.362,67.8402,-0.107116,237.043,-6.20996,-1.67658,0.295219,-0.111668,-0.181796,0.215687,-0.00523447,-0.00131275,0.3198,0.34342053557002217,0.24071397474448153,-0.00522079403445852,-0.10565887052813228,-0.0013118887206414742,-0.16622858756406367
392,0.3806,828.299,67.7013,-0.119941,237.044,-6.24714,-1.66662,0.295882,-0.111922,-0.182205,0.21618,-0.00525144,-0.00131677,0.32053,0.3443115187133796,0.24132579753595684,-0.005237675294345823,-0.10588600432780437,-0.0013159034387791868,-0.16656953034419864
393,0.3816,828.371,67.8529,-0.112302,237.035,-6.2123,-1.68152,0.296544,-0.112175,-0.182614,0.216673,-0.00526733,-0.00132113,0.32126,0.3452017475720086,0.24193792203043185,-0.00525348194210129,-0.10611218655545118,-0.0013202576919479903,-0.16691033370724928
394,0.3826,828.299,67.6802,-0.117397,237.035,-6.25858,-1.66447,0.297206,-0.112429,-0.183023,0.217165,-0.00528444,-0.00132506,0.321989,0.3460925659572538,0.242549105826956,-0.005270501909419023,-0.1063392052274742,-0.0013241824956229387,-0.16725099771022556
395,0.3836,828.383,67.8703,-0.116719,237.026,-6.21322,-1.68659,0.297868,-0.112681,-0.183432,0.217657,-0.00530017,-0.00132952,0.322717,0.3469839742595111,0.24316059039989302,-0.005286148881360253,-0.10656437937462271,-0.0013286365798363953,-0.167591522410114
396,0.3846,828.297,67.6537,-0.115409,237.027,-6.27102,-1.66186,0.298529,-0.112935,-0.183839,0.218149,-0.00531744,-0.00133334,0.323445,0.3478746249941358,0.2437723758972612,-0.005303327441231742,-0.10679128320425524,-0.0013324514971582158,-0.1679302437260295
397,0.3856,828.379,67.7853,-0.0809652,237.016,-6.24415,-1.65729,0.29919,-0.113187,-0.184247,0.21864,-0.00533347,-0.00133738,0.324172,0.3487658646435108,0.24438321808331143,-0.005319272301094413,-0.10701634344210686,-0.0013364861059042,-0.16826965894117707
398,0.3866,828.312,67.7117,-0.139596,237.019,-6.25966,-1.67817,0.29985,-0.11344,-0.184655,0.219131,-0.00535013,-0.00134181,0.324899,0.3496563439400191,0.24499436026651855,-0.005335843543979091,-0.10724223973013058,-0.0013409101754714436,-0.16860893570316315
399,0.3876,828.385,67.8065,-0.0990245,237.007,-6.24125,-1.67473,0.300509,-0.113692,-0.185062,0.219621,-0.00536625,-0.00134591,0.325625,0.35054606060011606,0.24560455698903705,-0.005351877400947891,-0.10746718634125518,-0.0013450046693460616,-0.16894724301612374
400,0.3886,828.323,67.7082,-0.133868,237.009,-6.2655,-1.67822,0.301169,-0.113945,-0.185469,0.220112,-0.00538302,-0.00135011,0.326351,0.35143771521376754,0.24621629899689168,-0.005368557510100791,-0.1076929685804533,-0.0013491990115183095,-0.16928541266602426
401,0.3896,828.389,67.8135,-0.108372,236.999,-6.2434,-1.6801,0.301827,-0.114196,-0.185876,0.220601,-0.00539907,-0.00135428,0.327076,0.35232725385649677,0.24682584778963457,-0.0053845212166436784,-0.10791690953957345,-0.001353363376675687,-0.16962344470888235
402,0.3906,828.329,67.6951,-0.129414,236.999,-6.27389,-1.67568,0.302485,-0.114449,-0.186282,0.221091,-0.00541592,-0.00135838,0.327801,0.35321737800826436,0.24743694216094547,-0.0054012803462650805,-0.10814257801319427,-0.0013574578194922582,-0.16996050916161654
403,0.3916,828.397,67.8219,-0.114748,236.989,-6.24513,-1.68467,0.303143,-0.1147,-0.186688,0.22158,-0.00543187,-0.00136265,0.328525,0.3541080880544618,0.2480470879941603,-0.005417144069330027,-0.10836640613450865,-0.0013617220140432762,-0.17029743679395937
404,0.3926,828.332,67.6773,-0.126112,236.99,-6.28289,-1.67331,0.3038,-0.114952,-0.187093,0.222069,-0.00544882,-0.00136664,0.329248,0.35499802938202807,0.24865753226164866,-0.005434002105865865,-0.10859106949139086,-0.0013657065728233109,-0.1706333982952617
405,0.3936,828.407,67.8339,-0.119786,236.98,-6.24571,-1.68908,0.304457,-0.115203,-0.187499,0.222557,-0.00546464,-0.001371,0.329971,0.35588855559315946,0.24926702584173022,-0.00544973601549692,-0.10881478505547071,-0.0013700606088508094,-0.17097005279006694
406,0.3946,828.333,67.6551,-0.123778,236.98,-6.29264,-1.67075,0.305114,-0.115455,-0.187904,0.223045,-0.00548171,-0.0013749,0.330694,0.35677966707225095,0.24987681692726427,-0.005466712843605559,-0.10903933543510058,-0.0013739552580198655,-0.17130574193704629
407,0.3956,828.419,67.8504,-0.124063,236.97,-6.24489,-1.69362,0.30577,-0.115705,-0.188309,0.223533,-0.00549736,-0.00137935,0.331416,0.357670006533265,0.2504869056634691,-0.005482277167758398,-0.10926204776104109,-0.0013783991340313717,-0.17164129515744808
408,0.3966,828.332,67.6276,-0.122,236.969,-6.30336,-1.66775,0.306425,-0.115957,-0.188713,0.22402,-0.0055146,-0.00138315,0.332138,0.35855957168832875,0.25109604109896666,-0.005499422505506724,-0.10948648544466943,-0.0013821938889045926,-0.17197588448260992
409,0.3976,828.413,67.7574,-0.089528,236.958,-6.27578,-1.66381,0.30708,-0.116207,-0.189118,0.224507,-0.00553058,-0.00138719,0.332859,0.3594497196994335,0.25170547325566717,-0.005515314497757773,-0.10970908599707985,-0.0013862282966917716,-0.17231116635023336
410,0.3986,828.35,67.69,-0.145411,236.96,-6.289,-1.68392,0.307734,-0.116457,-0.189522,0.224994,-0.00554715,-0.00139159,0.333579,0.3603390906087045,0.252315202278109,-0.005531792972471972,-0.10993163090630786,-0.0013906221876206493,-0.17264548510209277
411,0.3996,828.419,67.7784,-0.107094,236.947,-6.27104,-1.68039,0.308388,-0.116707,-0.189925,0.22548,-0.00556323,-0.00139567,0.334299,0.3612290433567906,0.25292397538629885,-0.00554778389267363,-0.11015412018626247,-0.0013946965055705585,-0.1729788417957112
412,0.4006,828.362,67.6871,-0.139967,236.948,-6.29276,-1.68369,0.309042,-0.116958,-0.190329,0.225966,-0.0055799,-0.00139986,0.335019,0.36211957832433894,0.25353304443012603,-0.005564361272943352,-0.1103774434738507,-0.001398880653026402,-0.17331289086117097
413,0.4016,828.424,67.7836,-0.116114,236.937,-6.27174,-1.68504,0.309695,-0.117207,-0.190732,0.226452,-0.00559592,-0.001404,0.335738,0.36300933288223125,0.2541424095534499,-0.0055802920042702375,-0.11059893191397052,-0.0014030148531026798,-0.17364597864445763
414,0.4026,828.369,67.6743,-0.135837,236.937,-6.29906,-1.68097,0.310348,-0.117458,-0.191134,0.226937,-0.00561266,-0.00140809,0.336456,0.363899668639591,0.2547508161487566,-0.005596938450850963,-0.11082214356782571,-0.0014070991064196736,-0.17397810619893128
415,0.4036,828.432,67.7896,-0.122206,236.926,-6.27215,-1.68884,0.311,-0.117707,-0.191537,0.227422,-0.00562858,-0.00141232,0.337174,0.3647892211861614,0.25535951789282985,-0.005612769221577496,-0.11104352129140693,-0.0014113231454565556,-0.17431092595444797
416,0.4046,828.374,67.6574,-0.132883,236.925,-6.30589,-1.67846,0.311651,-0.117957,-0.191939,0.227907,-0.0056454,-0.00141632,0.337892,0.3656779882314385,0.25596851492885153,-0.005629494674137758,-0.11126573263350892,-0.001415317492175272,-0.174642786253825
417,0.4056,828.442,67.7988,-0.126968,236.915,-6.27153,-1.69243,0.312303,-0.118205,-0.192341,0.228391,-0.00566119,-0.00142063,0.338608,0.3665687006204503,0.2565765508228939,-0.005645195660457292,-0.11148611140371878,-0.001419621382881986,-0.17497451317217294
418,0.4066,828.376,67.6366,-0.130905,236.914,-6.31333,-1.67583,0.312953,-0.118455,-0.192743,0.228875,-0.00567812,-0.00142453,0.339325,0.36745725902605075,0.25718488107753834,-0.005662029944792146,-0.11170821211212256,-0.001423515838764433,-0.17530610676310043
419,0.4076,828.454,67.8119,-0.130966,236.903,-6.26969,-1.69608,0.313604,-0.118703,-0.193144,0.229358,-0.00569376,-0.00142893,0.340041,0.368347763529443,0.2577922480424131,-0.0056775812690320615,-0.11192848116102772,-0.001427909565628549,-0.17563674271734908
420,0.4086,828.376,67.6112,-0.129503,236.902,-6.32156,-1.67286,0.314253,-0.118953,-0.193545,0.229842,-0.00571083,-0.00143274,0.340756,0.3692361094650487,0.25840116683692704,-0.005694554207855362,-0.11215047129081501,-0.0014317141180454351,-0.17596724611315973
421,0.4096,828.469,67.8297,-0.134533,236.891,-6.26636,-1.70003,0.314903,-0.119201,-0.193946,0.230324,-0.00572628,-0.00143722,0.341471,0.37012640225001037,0.25900786240122753,-0.005709916108321944,-0.11237063067304309,-0.0014361876939453788,-0.17629761700367785
422,0.4106,828.374,67.5803,-0.128385,236.89,-6.33083,-1.66932,0.315552,-0.11945,-0.194346,0.230807,-0.00574353,-0.00144093,0.342186,0.37101590289680897,0.2596161100787566,-0.005727067464338154,-0.11259162287133506,-0.0014398923588168078,-0.17662703206947095
423,0.4116,828.454,67.7126,-0.0995198,236.878,-6.30115,-1.66721,0.3162,-0.119698,-0.194746,0.231289,-0.00575939,-0.00144497,0.342899,0.37190460911160206,0.2602233913868528,-0.005742836507999338,-0.11281167286153637,-0.0014439265335026708,-0.17695631539558754
424,0.4126,828.401,67.6588,-0.152255,236.879,-6.31008,-1.68716,0.316848,-0.119946,-0.195146,0.231771,-0.00577581,-0.00144934,0.343613,0.37279389139464825,0.26083096547509355,-0.005759162076590552,-0.11303166828610645,-0.0014482902140090514,-0.17728546703471282
425,0.4136,828.463,67.7366,-0.116766,236.866,-6.29345,-1.68321,0.317496,-0.120194,-0.195546,0.232252,-0.00579181,-0.00145339,0.344326,0.37368375011936084,0.2614375710464316,-0.005775069802735233,-0.11325160915857602,-0.0014523343402442768,-0.177614487039511
426,0.4146,828.414,67.6581,-0.147313,236.865,-6.31102,-1.68682,0.318143,-0.120442,-0.195945,0.232733,-0.00580833,-0.00145755,0.345038,0.3745728110858968,0.2620444684652332,-0.005791494262915697,-0.11347149549247237,-0.0014564882898931986,-0.17794255340558984
427,0.4156,828.469,67.7397,-0.125349,236.854,-6.29251,-1.68701,0.318789,-0.120689,-0.196344,0.233214,-0.00582428,-0.00146165,0.34575,0.3754610719992426,0.26265165787191047,-0.005807351762118218,-0.11369044099220338,-0.0014605823098985393,-0.17827048889929942
428,0.4166,828.422,67.6466,-0.143633,236.852,-6.31477,-1.684,0.319436,-0.120937,-0.196743,0.233694,-0.00584084,-0.00146572,0.346461,0.3763512832651166,0.2632578761484361,-0.005823815456053372,-0.11391021850929872,-0.0014646463570582302,-0.1785982935728473
429,0.4176,828.477,67.7426,-0.131056,236.841,-6.29153,-1.68986,0.320081,-0.121184,-0.197141,0.234174,-0.00585671,-0.0014699,0.347172,0.37723931620265794,0.2638643854795817,-0.005839592906907609,-0.1141290556578265,-0.0014688202261130545,-0.1789251464039774
430,0.4186,828.428,67.6313,-0.141133,236.839,-6.31894,-1.68143,0.320727,-0.121431,-0.197539,0.234654,-0.00587333,-0.00147389,0.347883,0.3781293002348167,0.26447118600508746,-0.005856115715568544,-0.11434783876025356,-0.0014728043575719107,-0.1792518691735645
431,0.4196,828.487,67.748,-0.135459,236.828,-6.28972,-1.69243,0.321371,-0.121678,-0.197937,0.235133,-0.00588909,-0.00147813,0.348592,0.3790171013454422,0.26507701278711493,-0.005871783299724043,-0.11456656782992769,-0.001477038103905981,-0.17957846193336313
432,0.4206,828.433,67.6128,-0.139604,236.826,-6.32354,-1.67882,0.322016,-0.121925,-0.198335,0.235613,-0.00590579,-0.00148205,0.349302,0.3799068542902879,0.26568439551344514,-0.005888385102317484,-0.1147852428801932,-0.0014809523062446761,-0.17990492473510666
433,0.4216,828.499,67.7563,-0.139106,236.815,-6.2869,-1.69495,0.32266,-0.122171,-0.198732,0.236091,-0.00592141,-0.00148635,0.35001,0.38079580051441186,0.2662895372718588,-0.005903913004468908,-0.11500297892781275,-0.0014852459289185216,-0.18023043786135595
434,0.4226,828.435,67.5907,-0.138661,236.812,-6.32868,-1.67599,0.323303,-0.122418,-0.199129,0.23657,-0.00593822,-0.00149019,0.350719,0.38168393771965414,0.2668962352527784,-0.0059206236192382855,-0.11522154619784852,-0.0014890802182122576,-0.18055582178454266
435,0.4236,828.513,67.7683,-0.142315,236.801,-6.28289,-1.69765,0.323946,-0.122664,-0.199526,0.237048,-0.00595369,-0.00149457,0.351427,0.3825726461807586,0.2675019564090524,-0.005936001908239508,-0.11543917492805256,-0.001493453686463031,-0.1808810765559501
436,0.4246,828.436,67.5645,-0.138033,236.799,-6.33457,-1.67275,0.324589,-0.122911,-0.199922,0.237525,-0.00597062,-0.00149832,0.352134,0.3834619262651606,0.26810669906191587,-0.005952831269266268,-0.1156576344709811,-0.0014971980789909578,-0.18120538343263437
437,0.4256,828.529,67.7846,-0.145315,236.787,-6.27748,-1.7007,0.325231,-0.123156,-0.200319,0.238002,-0.00598589,-0.00150278,0.352841,0.38435039398944615,0.26871173024583395,-0.00596801025364091,-0.11587427181137788,-0.0015016513915566687,-0.18153038037924918
438,0.4266,828.434,67.5332,-0.137521,236.785,-6.34142,-1.66893,0.325873,-0.123403,-0.200714,0.23848,-0.00600299,-0.00150643,0.353547,0.38523943229314717,0.2693183194161535,-0.0059850080553339735,-0.1160926238986475,-0.0015052959038778235,-0.18185361203654438
439,0.4276,828.511,67.6603,-0.112191,236.773,-6.31144,-1.66782,0.326514,-0.123648,-0.20111,0.238956,-0.0060187,-0.00151044,0.354253,0.38612765541434446,0.26992265875754806,-0.006000623908194558,-0.11630915467968861,-0.0015092998596133445,-0.1821775338654228
440,0.4286,828.464,67.615,-0.160224,236.772,-6.31741,-1.68627,0.327155,-0.123893,-0.201505,0.239433,-0.00603493,-0.00151475,0.354959,0.38701644806907853,0.2705285563608655,-0.006016756387153155,-0.11652563241718639,-0.0015136033452569642,-0.18250050994757028
441,0.4296,828.521,67.6838,-0.128431,236.759,-6.30154,-1.68239,0.327795,-0.124138,-0.2019,0.239908,-0.00605079,-0.00151876,0.355663,0.38790442271742065,0.27113220077933664,-0.006032520836384392,-0.11674205712413499,-0.001517607267679577,-0.18282335847935827
442,0.4306,828.479,67.6147,-0.155858,236.757,-6.31578,-1.68558,0.328435,-0.124384,-0.202295,0.240384,-0.00606709,-0.00152288,0.356368,0.38879296585143375,0.27173740373378363,-0.006048722374251914,-0.11695931185465502,-0.001521721006663368,-0.18314607951115913
443,0.4316,828.528,67.6848,-0.136439,236.745,-6.29873,-1.68524,0.329074,-0.124628,-0.202689,0.240859,-0.00608291,-0.00152693,0.357072,0.38968068815368206,0.27234162249115146,-0.006064446559085224,-0.11717474749834511,-0.001525764835504595,-0.18346785656159015
444,0.4326,828.488,67.6036,-0.1527,236.742,-6.31691,-1.68256,0.329713,-0.124873,-0.203083,0.241334,-0.00609925,-0.00153096,0.357775,0.39056897789175804,0.2729461283206034,-0.006080687333340995,-0.11739101319157874,-0.0015297886785642367,-0.18378950685683582
445,0.4336,828.536,67.6851,-0.141724,236.73,-6.29601,-1.68714,0.330352,-0.125118,-0.203477,0.241809,-0.00611499,-0.00153508,0.358478,0.39145783542836887,0.27355092135853076,-0.006096331500202501,-0.11760722590620776,-0.0015339023673606178,-0.18411103044682764
446,0.4346,828.496,67.5892,-0.150685,236.727,-6.31839,-1.67981,0.33099,-0.125362,-0.203871,0.242283,-0.00613137,-0.00153904,0.35918,0.39234586877988886,0.27415472758602544,-0.0061126115089588096,-0.11782250347815482,-0.0015378562852784716,-0.1844324273814777
447,0.4356,828.547,67.6872,-0.145772,236.716,-6.29261,-1.68872,0.331627,-0.125606,-0.204264,0.242757,-0.00614701,-0.0015432,0.359882,0.3932330756436877,0.27475882008551333,-0.006128155786158329,-0.11803772852878214,-0.0015420098791568693,-0.1847528824639686
448,0.4366,828.502,67.5722,-0.149598,236.712,-6.32016,-1.67708,0.332265,-0.125851,-0.204657,0.243231,-0.00616344,-0.0015471,0.360584,0.39412224195984247,0.275363198992719,-0.0061444849664141765,-0.11825378281756149,-0.0015459038577251283,-0.1850732116323558
449,0.4376,828.558,67.6918,-0.149102,236.701,-6.28838,-1.6902,0.332901,-0.126094,-0.20505,0.243704,-0.00617896,-0.00155132,0.361285,0.39500918572394883,0.2759665884762057,-0.0061599094843128865,-0.11846802111732924,-0.001550117325120337,-0.18539341493611383
450,0.4386,828.506,67.5524,-0.149075,236.696,-6.3223,-1.6742,0.333538,-0.126339,-0.205442,0.244177,-0.00619547,-0.00155515,0.361985,0.3958980896611015,0.2765702634304268,-0.00617631764875759,-0.11868396999733755,-0.0015539413808479674,-0.18571267813778314
451,0.4396,828.572,67.6991,-0.152013,236.685,-6.28319,-1.69176,0.334174,-0.126582,-0.205835,0.244649,-0.00621086,-0.00155942,0.362685,0.3967861632235836,0.277172946816856,-0.006191612477534969,-0.11889810377432053,-0.0015582047364159912,-0.18603263018058047
452,0.4406,828.509,67.5293,-0.148866,236.681,-6.32495,-1.67102,0.334809,-0.126826,-0.206226,0.245122,-0.00622746,-0.00156318,0.363385,0.39767340410639784,0.27777719251354216,-0.006208109559841635,-0.11911306641049146,-0.001561958870508362,-0.18635082921021573
453,0.4416,828.587,67.7098,-0.154714,236.669,-6.27688,-1.69355,0.335444,-0.127068,-0.206619,0.245593,-0.00624268,-0.00156751,0.364084,0.39856120856608923,0.27837916732515566,-0.006223234957309587,-0.11932621525636955,-0.0015662820978666891,-0.18667053050891613
454,0.4426,828.51,67.5024,-0.148795,236.666,-6.32828,-1.66741,0.336079,-0.127313,-0.207009,0.246065,-0.0062594,-0.00157119,0.364782,0.399449576960643,0.27898270471575226,-0.006239850765912491,-0.11954195390456823,-0.001569956327188038,-0.18698766715635173
455,0.4436,828.604,67.7244,-0.157354,236.653,-6.26927,-1.69572,0.336713,-0.127554,-0.207401,0.246536,-0.00627444,-0.00157559,0.36548,0.40033710931046174,0.27958524745735014,-0.006254796806162477,-0.1197541187267892,-0.0015743494097153476,-0.18730630553362415
456,0.4446,828.51,67.4709,-0.148731,236.651,-6.3325,-1.66323,0.337347,-0.127799,-0.207791,0.247007,-0.00629131,-0.00157918,0.366178,0.40122520453420263,0.28018807406342394,-0.00627156114633276,-0.11996975255147901,-0.0015779337513670555,-0.18762319427714458
457,0.4456,828.581,67.5918,-0.127268,236.638,-6.30238,-1.66322,0.33798,-0.128041,-0.208182,0.247478,-0.0063068,-0.00158315,0.366875,0.40211246087567876,0.2807911846677056,-0.006286953880633606,-0.12018269410439442,-0.0015818974791020901,-0.18794077151778565
458,0.4466,828.544,67.5566,-0.169641,236.635,-6.30499,-1.67985,0.338613,-0.128283,-0.208572,0.247948,-0.00632276,-0.00158738,0.367572,0.4030002790282132,0.28139329801005086,-0.006302813414290287,-0.12039558413168894,-0.0015861207787434273,-0.18825741286781705
459,0.4476,828.594,67.6149,-0.142105,236.622,-6.29012,-1.67608,0.339245,-0.128526,-0.208962,0.248418,-0.00633841,-0.00159133,0.368268,0.40388725545958826,0.2819956944121811,-0.0063183646535714955,-0.12060930203696774,-0.0015900645057774776,-0.1885739307517994
460,0.4486,828.56,67.5568,-0.165956,236.618,-6.3006,-1.67881,0.339877,-0.128768,-0.209352,0.248887,-0.00635443,-0.00159538,0.368963,0.4047747926372447,0.28259709140943245,-0.006334283305861055,-0.12082208883763346,-0.0015941080578281142,-0.18889032521787497
461,0.4496,828.602,67.6138,-0.149406,236.606,-6.28532,-1.6779,0.340509,-0.12901,-0.209742,0.249356,-0.00637004,-0.00159936,0.369658,0.40566289091568697,0.2831987705280279,-0.006349794306634959,-0.12103482415012379,-0.0015980817053704577,-0.18920659631416747
462,0.4506,828.57,67.5462,-0.163411,236.601,-6.29897,-1.6756,0.34114,-0.129252,-0.210131,0.249825,-0.00638608,-0.00160333,0.370353,0.40655014409879486,0.2838007319003135,-0.006365732328110996,-0.12124750798689721,-0.0016020453531182532,-0.18952193361112057
463,0.4516,828.611,67.6114,-0.154211,236.59,-6.28074,-1.67878,0.34177,-0.129493,-0.21052,0.250294,-0.00640162,-0.00160737,0.371047,0.40743654987807965,0.28440297565869677,-0.00638117328465404,-0.12145926182011058,-0.0016060788727072506,-0.18983714826572062
464,0.4526,828.579,67.5327,-0.161941,236.584,-6.29759,-1.67266,0.342401,-0.129735,-0.210908,0.250762,-0.00641768,-0.00161128,0.371741,0.408324922593168,0.2850042169307889,-0.006397130674872908,-0.12167184295539524,-0.0016099825853070904,-0.19015143047750172
465,0.4536,828.621,67.6103,-0.157881,236.573,-6.27563,-1.67932,0.343031,-0.129976,-0.211297,0.25123,-0.00643313,-0.00161535,0.372434,0.409212446835183,0.28560573964964986,-0.006412481720616925,-0.12188349453620306,-0.001614046024408955,-0.1904664003054426
466,0.4546,828.586,67.5172,-0.161325,236.568,-6.29638,-1.66978,0.34366,-0.130218,-0.211685,0.251698,-0.00644922,-0.00161921,0.373127,0.41009912029381157,0.2862075439470273,-0.00642846841517275,-0.12209597301959185,-0.0016178997867535294,-0.1907804384147912
467,0.4556,828.633,67.611,-0.160896,236.557,-6.26987,-1.67972,0.344289,-0.130459,-0.212073,0.252165,-0.00646457,-0.00162332,0.373819,0.41098635164548436,0.28680834314574444,-0.006443719621129218,-0.1223075223973702,-0.0016220031287530468,-0.19109435470098857
468,0.4566,828.593,67.4996,-0.161229,236.551,-6.29539,-1.66683,0.344917,-0.1307,-0.21246,0.252632,-0.0064807,-0.00162713,0.374511,0.4118727293677913,0.2874094229832116,-0.006459745554682206,-0.12251902079789145,-0.0016258069416748011,-0.19140734061903786
469,0.4576,828.646,67.6136,-0.163526,236.539,-6.26336,-1.68013,0.345545,-0.13094,-0.212848,0.253098,-0.00649594,-0.00163127,0.375202,0.4127596639101312,0.2880094955803776,-0.006474886992781981,-0.12272959096346936,-0.001629940202278246,-0.191721013714362
470,0.4586,828.598,67.4797,-0.161429,236.534,-6.2947,-1.66368,0.346173,-0.131182,-0.213234,0.253564,-0.00651213,-0.00163503,0.375893,0.4136471556222967,0.2886098478765391,-0.00649097203415272,-0.1229418647162962,-0.0016336940666458188,-0.19203294919564728
471,0.4596,828.66,67.6186,-0.165956,236.522,-6.25602,-1.68067,0.3468,-0.131421,-0.213621,0.25403,-0.00652724,-0.00163921,0.376583,0.41453379031980275,0.2892104800020654,-0.006505983842150842,-0.12315145656340554,-0.0016378672290826568,-0.19234557194790425
472,0.4606,828.602,67.457,-0.161774,236.517,-6.29443,-1.66024,0.347427,-0.131662,-0.214007,0.254496,-0.0065435,-0.0016429,0.377273,0.41542098111158143,0.28981139208738793,-0.006522137923520521,-0.12336275160029919,-0.001641551178555689,-0.1926572663962337
473,0.4616,828.675,67.6263,-0.168313,236.504,-6.24771,-1.68143,0.348054,-0.131902,-0.214394,0.254961,-0.00655846,-0.00164714,0.377963,0.4163087283464133,0.29041129385105924,-0.006537000241166768,-0.12357311929478199,-0.0016457842094046438,-0.19296964758447965
474,0.4626,828.605,67.4311,-0.162157,236.5,-6.29471,-1.6564,0.34868,-0.132143,-0.214779,0.255426,-0.00657482,-0.00165076,0.378652,0.41719561517697357,0.2910114746339174,-0.006553253162893569,-0.12378431272320167,-0.0016493982451244449,-0.19328029446679762
475,0.4636,828.692,67.6373,-0.170688,236.487,-6.23831,-1.68252,0.349305,-0.132381,-0.215166,0.25589,-0.00658959,-0.00165505,0.37934,0.41808163929015274,0.29161064295444805,-0.0065679262629831925,-0.12399282724256144,-0.0016536811600190715,-0.19359243458982944
476,0.4646,828.606,67.4015,-0.162497,236.483,-6.29569,-1.65206,0.34993,-0.132622,-0.21555,0.256355,-0.00660608,-0.00165859,0.380028,0.41896821734149015,0.29221138156432414,-0.006584307822812829,-0.12420391953355325,-0.0016572152997323952,-0.19390203564773945
477,0.4656,828.711,67.6523,-0.173153,236.468,-6.22765,-1.68403,0.350555,-0.132861,-0.215936,0.256819,-0.00662064,-0.00166295,0.380716,0.4198553496773054,0.2928111067708581,-0.00659877184999258,-0.12441320978560333,-0.0016615680647845688,-0.1942131294170193
478,0.4666,828.606,67.3674,-0.16273,236.466,-6.29757,-1.64713,0.351179,-0.133101,-0.21632,0.257282,-0.00663729,-0.0016664,0.381403,0.4207416159018087,0.29340981690399337,-0.006615311842745442,-0.12462332540037246,-0.001665012326433457,-0.1945224921738724
479,0.4676,828.675,67.4886,-0.146204,236.452,-6.26537,-1.64948,0.351803,-0.13334,-0.216705,0.257745,-0.00665242,-0.0016703,0.382089,0.42162843532901695,0.2940088043041027,-0.006630341639376591,-0.12483251542639795,-0.001668905825292999,-0.19483254132609396
480,0.4686,828.651,67.4731,-0.182106,236.447,-6.26208,-1.66493,0.352426,-0.133579,-0.21709,0.258208,-0.00666795,-0.00167443,0.382776,0.42251438578914025,0.29460806909959025,-0.006645768550380571,-0.1250416554619812,-0.0016730289241977392,-0.19514247113236738
481,0.4696,828.692,67.516,-0.159394,236.434,-6.24926,-1.66087,0.353049,-0.133818,-0.217474,0.258671,-0.00668329,-0.00167828,0.383461,0.4234008883683671,0.29520761141891994,-0.006661006487415744,-0.12525074551906867,-0.0016768724756375253,-0.19545147709051158
482,0.4706,828.669,67.4758,-0.179299,236.428,-6.25412,-1.66372,0.353672,-0.134057,-0.217857,0.259133,-0.00669888,-0.00168224,0.384146,0.42428794341077536,0.29580613558383173,-0.006676492521610733,-0.1254597856096038,-0.0016808258273949273,-0.19575956017310947
483,0.4716,828.701,67.5127,-0.16582,236.416,-6.2422,-1.66152,0.354294,-0.134295,-0.218241,0.259595,-0.00671419,-0.00168612,0.384831,0.42517412608581795,0.29640493633079323,-0.006691700188095173,-0.12566790141386563,-0.0016846992982761932,-0.19606832921455297
484,0.4726,828.681,67.4662,-0.177511,236.409,-6.24924,-1.66039,0.354916,-0.134534,-0.218624,0.260057,-0.00672978,-0.00169001,0.385515,0.426060860137945,0.29700401378761465,-0.006707185743779043,-0.12587684181605507,-0.0016885827372425943,-0.19637617608802438
485,0.4736,828.71,67.5069,-0.17005,236.398,-6.23564,-1.66122,0.355537,-0.134772,-0.219007,0.260518,-0.00674504,-0.00169392,0.386199,0.42694671896278713,0.29760207047944665,-0.0067223432764723645,-0.12608485837275074,-0.0016924861272530345,-0.19668390507871925
486,0.4746,828.691,67.4542,-0.176691,236.391,-6.24456,-1.65732,0.356158,-0.13501,-0.21939,0.260979,-0.00676062,-0.00169777,0.386883,0.4278331280768064,0.2982004029389731,-0.006737818421812425,-0.12629282542739684,-0.0016963296037827424,-0.19699151623177802
487,0.4756,828.721,67.5018,-0.17329,236.38,-6.22875,-1.66055,0.356779,-0.135248,-0.219772,0.26144,-0.0067758,-0.0017017,0.387565,0.4287200878218391,0.2987990112933523,-0.006752896027289457,-0.1265007429917735,-0.0017002529294980473,-0.19729820689093214
488,0.4766,828.7,67.4409,-0.176625,236.372,-6.23993,-1.65436,0.357399,-0.135486,-0.220154,0.2619,-0.00679138,-0.00170551,0.388248,0.42960616893304904,0.2993965962725549,-0.006768370696621284,-0.12670861107765796,-0.0017040564442886152,-0.19760478041662832
489,0.4776,828.732,67.4976,-0.175959,236.361,-6.22143,-1.65971,0.358018,-0.135724,-0.220537,0.26236,-0.00680649,-0.00170946,0.38893,0.4304913690928034,0.2999944562040824,-0.006783378313157229,-0.12691642969682493,-0.0017079997054777474,-0.19791203894196518
490,0.4786,828.709,67.4263,-0.177016,236.353,-6.23532,-1.65139,0.358638,-0.135961,-0.220918,0.26282,-0.00682207,-0.00171323,0.389611,0.4313785487389119,0.3005925912144414,-0.006798852507578834,-0.12712332598480813,-0.001711763259224508,-0.19821757624657577
491,0.4796,828.744,67.4946,-0.178291,236.342,-6.21361,-1.65881,0.359256,-0.136199,-0.2213,0.263279,-0.00683709,-0.0017172,0.390292,0.43226341407725966,0.3011897002398469,-0.006813770276781428,-0.1273310459135717,-0.0017157264556574292,-0.1985237986402486
492,0.4806,828.717,67.4104,-0.177675,236.335,-6.2308,-1.64834,0.359875,-0.136436,-0.221681,0.263738,-0.00685269,-0.00172093,0.390973,0.4331502595809398,0.3017870834012044,-0.0068292638611149314,-0.12753784394915502,-0.0017194500490532727,-0.19882910290881028
493,0.4816,828.757,67.4927,-0.180438,236.323,-6.20527,-1.65791,0.360493,-0.136673,-0.222062,0.264197,-0.00686761,-0.00172492,0.391653,0.4340362201749868,0.3023847408243714,-0.006844081857955597,-0.1277445929794112,-0.001723433180501277,-0.19913429087860202
494,0.4826,828.724,67.3929,-0.178479,236.316,-6.22642,-1.64514,0.36111,-0.13691,-0.222442,0.264655,-0.00688323,-0.00172861,0.392333,0.4349212935398896,0.3029813696532413,-0.006859594832240301,-0.12795129301595332,-0.00172711681423654,-0.19943856203288746
495,0.4836,828.771,67.4922,-0.1825,236.304,-6.19635,-1.6571,0.361728,-0.137146,-0.222823,0.265113,-0.00689805,-0.00173262,0.393012,0.43580834897119325,0.3035782718007003,-0.006874313063982451,-0.1281570722278994,-0.0017311198804719208,-0.19974351784298217
496,0.4846,828.731,67.3738,-0.179346,236.297,-6.22223,-1.64173,0.362344,-0.137384,-0.223203,0.265571,-0.00691371,-0.00173627,0.39369,0.43669307938315005,0.3041754473919567,-0.0068898652904656466,-0.12836454615433257,-0.0017347635552346086,-0.2000475575350017
497,0.4856,828.785,67.4934,-0.184546,236.284,-6.18677,-1.65641,0.362961,-0.13762,-0.223583,0.266028,-0.00692841,-0.00174031,0.394369,0.437579792536007,0.304771591780032,-0.00690446390214583,-0.12857022785004546,-0.0017387965386432835,-0.20035148171388717
498,0.4866,828.737,67.3527,-0.180222,236.278,-6.21831,-1.63806,0.363577,-0.137857,-0.223962,0.266485,-0.00694411,-0.00174391,0.395047,0.4384656144933612,0.30536800866835434,-0.00692005537966911,-0.12877673223430885,-0.0017423902725069995,-0.20065449107841604
499,0.4876,828.801,67.4965,-0.186622,236.265,-6.17648,-1.65591,0.364192,-0.138092,-0.224342,0.266942,-0.00695867,-0.00174797,0.395724,0.4393505429338782,0.30596469818148475,-0.006934514518399992,-0.1289814456474656,-0.0017464431901750288,-0.20095818466637005
500,0.4886,828.742,67.3293,-0.181063,236.258,-6.21476,-1.63407,0.364807,-0.138329,-0.22472,0.267399,-0.00697444,-0.00175152,0.396401,0.4402360157727716,0.3065616604440411,-0.006950175037622519,-0.12918785258465904,-0.00174998698401152,-0.2012601653946129
501,0.4896,828.817,67.5019,-0.188767,236.245,-6.16537,-1.65565,0.365422,-0.138564,-0.225099,0.267855,-0.00698885,-0.00175562,0.397077,0.44112203334494904,0.30715758842245644,-0.006964484782498337,-0.12939246939588467,-0.0017540798006745462,-0.2015628304332805
502,0.4906,828.746,67.3032,-0.181837,236.239,-6.21167,-1.62972,0.366036,-0.1388,-0.225478,0.268311,-0.0070047,-0.0017591,0.397753,0.4420071539776498,0.30775378820599686,-0.006980224270678792,-0.12959790853033581,-0.0017575536904322897,-0.20186538078363336
503,0.4916,828.835,67.51,-0.191012,236.225,-6.15334,-1.65569,0.36665,-0.139035,-0.225856,0.268766,-0.00701893,-0.00176326,0.398429,0.4428928182412968,0.30834895156902786,-0.006994354841548089,-0.12980242898973593,-0.0017617063703713187,-0.20216701865654763
504,0.4926,828.749,67.2741,-0.182514,236.22,-6.20916,-1.62494,0.367264,-0.139272,-0.226234,0.269221,-0.00703489,-0.00176666,0.399104,0.4437790264697816,0.3089443857930052,-0.007010203085175526,-0.13000864137693235,-0.0017651003747999328,-0.20246854253189273
505,0.4936,828.854,67.5213,-0.193385,236.204,-6.14027,-1.6561,0.367877,-0.139506,-0.226612,0.269676,-0.00704892,-0.00177087,0.399778,0.4446643343321448,0.3095400910011987,-0.007024134634296186,-0.13021219553808439,-0.0017693029348808675,-0.20276995245275176
506,0.4946,828.751,67.2412,-0.183068,236.2,-6.20738,-1.61966,0.36849,-0.139742,-0.226989,0.270131,-0.00706501,-0.0017742,0.400453,0.4455501850545973,0.3101360673169342,-0.007040111487435774,-0.130417441239992,-0.0017726270375675313,-0.20307045153304126
507,0.4956,828.874,67.5363,-0.195915,236.184,-6.12602,-1.65694,0.369102,-0.139976,-0.227367,0.270585,-0.0070788,-0.00177847,0.401126,0.44643513253415845,0.3107310041319342,-0.007053804309886114,-0.13062089975316737,-0.0017768894593497286,-0.203371633975294
508,0.4966,828.751,67.2042,-0.183469,236.181,-6.20647,-1.61381,0.369714,-0.140212,-0.227743,0.271039,-0.00709506,-0.0017817,0.4018,0.44732062176733667,0.3113262111095707,-0.00706994948376749,-0.13082604901226091,-0.0017801137147896995,-0.20367110993591053
509,0.4976,828.897,67.5558,-0.198634,236.163,-6.11041,-1.65831,0.370325,-0.140445,-0.228121,0.271492,-0.00710859,-0.00178606,0.402472,0.44820520487985815,0.3119203764514926,-0.007083383736467996,-0.1310285429513811,-0.0017844659440059418,-0.2039720653721938
510,0.4986,828.75,67.1622,-0.183685,236.161,-6.20663,-1.60729,0.370936,-0.140681,-0.228496,0.271945,-0.00712505,-0.00178917,0.403145,0.4490903286378114,0.31251481101128764,-0.007099727009466261,-0.13123359601803097,-0.0017875703894895123,-0.20427051988396072
511,0.4996,828.921,67.5804,-0.201577,236.142,-6.09327,-1.66031,0.371547,-0.140914,-0.228874,0.272398,-0.00713827,-0.00179363,0.403817,0.4499759933716323,0.3131095149109391,-0.007112853064311753,-0.13143599500976055,-0.0017920224069974955,-0.20457124878610133
512,0.5006,828.746,67.1144,-0.183683,236.142,-6.20807,-1.60001,0.372157,-0.14115,-0.229249,0.272851,-0.00715497,-0.00179662,0.404488,0.45086074855048364,0.31370448827248576,-0.007129434141213142,-0.13164095192907055,-0.001795007044388508,-0.20486947864621285
513,0.5016,828.948,67.611,-0.204782,236.12,-6.07435,-1.66304,0.372767,-0.141382,-0.229625,0.273303,-0.00716784,-0.0018012,0.405159,0.4517460435946363,0.3142984169189471,-0.007142212303168138,-0.13184238786075142,-0.0017995788127869172,-0.2051683915230994
514,0.5026,828.739,67.06,-0.183424,236.122,-6.21103,-1.59184,0.373376,-0.141619,-0.23,0.273755,-0.00718483,-0.00180403,0.40583,0.45263042620235616,0.3148926140818369,-0.007159080813682661,-0.13204811683498197,-0.0018024037159816153,-0.20546639749666595
515,0.5036,828.978,67.6488,-0.208296,236.099,-6.05341,-1.66665,0.373985,-0.141849,-0.230376,0.274207,-0.00719729,-0.00180875,0.4065,0.45351534756311773,0.31548707988255176,-0.007171451534465967,-0.1322477228125426,-0.001807115197516973,-0.20576508597425447
516,0.5046,828.73,66.9977,-0.182863,236.103,-6.21581,-1.58264,0.374594,-0.142086,-0.23075,0.274658,-0.00721464,-0.0018114,0.40717,0.4544008080051216,0.3160804983613874,-0.007188676960350859,-0.13245335573377226,-0.0018097604051567906,-0.206062074291823
517,0.5056,828.832,67.2109,-0.176443,236.086,-6.15716,-1.59968,0.375202,-0.142319,-0.231125,0.275109,-0.00722873,-0.00181528,0.407839,0.4552853525706879,0.3166741845323169,-0.007202665573342482,-0.13265547055459537,-0.001813633375772894,-0.20635974519718048
518,0.5066,828.855,67.2969,-0.207982,236.076,-6.126,-1.62387,0.37581,-0.142552,-0.231499,0.27556,-0.00724312,-0.0018193,0.408508,0.45617043510287547,0.3172681385160967,-0.007216951824195128,-0.13285753828815106,-0.0018176460769011582,-0.20665651115378358
519,0.5076,828.875,67.2939,-0.189254,236.064,-6.12245,-1.61555,0.376418,-0.142785,-0.231873,0.27601,-0.00725788,-0.00182291,0.409176,0.4570560559288672,0.3178610425718362,-0.007231605193844026,-0.13305955894540933,-0.0018212495086945557,-0.2069531661406716
520,0.5086,828.884,67.3233,-0.20653,236.054,-6.10777,-1.62459,0.377025,-0.143018,-0.232247,0.27646,-0.00727243,-0.00182675,0.409844,0.4579407574345591,0.31845421349444125,-0.007246049868903204,-0.13326153253733786,-0.0018250825077371635,-0.20724971019933947
521,0.5096,828.887,67.2898,-0.194602,236.043,-6.11153,-1.61475,0.377631,-0.143251,-0.232621,0.27691,-0.00728723,-0.00183034,0.410511,0.45882453729181494,0.31904765140402924,-0.007260742518639285,-0.13346345907490142,-0.0018286659492586788,-0.20754614337126642
522,0.5106,828.9,67.3202,-0.205813,236.033,-6.09697,-1.62163,0.378237,-0.143484,-0.232995,0.27736,-0.00730174,-0.00183414,0.411178,0.4597088528819748,0.31964135642077096,-0.0072751470607601565,-0.1336653385690626,-0.0018324589931212332,-0.20784246569791642
523,0.5116,828.896,67.2762,-0.198032,236.022,-6.10289,-1.61246,0.378843,-0.143717,-0.233368,0.277809,-0.00731653,-0.00183773,0.411845,0.4605937045297914,0.32023400843022354,-0.007289829352759236,-0.13386717103078116,-0.0018360424081612647,-0.20813788535901923
524,0.5126,828.914,67.314,-0.205968,236.011,-6.08661,-1.61883,0.379449,-0.143949,-0.233741,0.278258,-0.00733097,-0.00184151,0.412511,0.46147909256021413,0.32082692660017686,-0.007304163984127143,-0.13406809053953783,-0.0018398154607898176,-0.20843319484913658
525,0.5136,828.904,67.2613,-0.200646,236.001,-6.09447,-1.60967,0.380054,-0.144181,-0.234113,0.278706,-0.00734575,-0.00184508,0.413177,0.4623635549341032,0.32141878963071346,-0.007318835920157585,-0.1342689634403752,-0.0018433788862879386,-0.20872760293735315
526,0.5146,828.928,67.3077,-0.206787,235.99,-6.07604,-1.61624,0.380658,-0.144413,-0.234486,0.279154,-0.00736011,-0.00184886,0.413842,0.4632470893218079,0.32201091787529124,-0.007333090719324087,-0.13446978974410495,-0.0018471519111846746,-0.2090226925038321
527,0.5156,828.913,67.2457,-0.202769,235.98,-6.08606,-1.60658,0.381263,-0.144646,-0.234858,0.279602,-0.00737488,-0.00185241,0.414507,0.4641326216573687,0.3226033114527527,-0.007347752301298027,-0.13467143479053445,-0.0018506953475058152,-0.2093168813397046
528,0.5166,828.942,67.3018,-0.208016,235.968,-6.06514,-1.61384,0.381867,-0.144877,-0.23523,0.28005,-0.00738915,-0.00185619,0.415171,0.4650172248841311,0.32319597048199356,-0.007361917347804892,-0.13487130260347668,-0.0018544683447464516,-0.20961096075768315
529,0.5176,828.923,67.2294,-0.20458,235.958,-6.07768,-1.60324,0.38247,-0.145109,-0.235601,0.280497,-0.00740391,-0.00185972,0.415835,0.4659008966710039,0.3237875712937299,-0.007376568577778464,-0.1350719891807295,-0.001857991792254321,-0.20990414070299934
530,0.5186,828.956,67.2965,-0.209511,235.946,-6.05389,-1.61158,0.383073,-0.145341,-0.235973,0.280944,-0.0074181,-0.00186349,0.416498,0.4667851014726523,0.32437943661014157,-0.007390653804335456,-0.135272629204097,-0.0018617547805319656,-0.21019800170112335
531,0.5196,828.932,67.2122,-0.206191,235.937,-6.06936,-1.5997,0.383676,-0.145573,-0.236344,0.281391,-0.00743286,-0.001867,0.417162,0.4676698396105805,0.3249715665494881,-0.007405304610162089,-0.13547322268437823,-0.0018652582396241346,-0.21049096389464506
532,0.5206,828.97,67.2919,-0.211187,235.924,-6.04226,-1.60944,0.384278,-0.145803,-0.236715,0.281837,-0.00744695,-0.00187078,0.417824,0.46855364285211065,0.32556263566678467,-0.0074192901708916015,-0.13567204097818053,-0.001869031181817138,-0.21078381741935226
533,0.5216,828.94,67.194,-0.207666,235.915,-6.06113,-1.59596,0.38488,-0.146035,-0.237086,0.282283,-0.00746172,-0.00187425,0.418486,0.4694379783033713,0.3261539684597028,-0.007433950479709184,-0.13587254180567832,-0.0018724946902697326,-0.2110765623155536
534,0.5226,828.985,67.2883,-0.212996,235.902,-6.03022,-1.60743,0.385482,-0.146266,-0.237456,0.282729,-0.00747571,-0.00187804,0.419148,0.470322846284849,0.32674556504586794,-0.00744783638160984,-0.13607213219494374,-0.0018762775863463421,-0.21136840999234718
535,0.5236,828.949,67.1747,-0.209041,235.893,-6.05303,-1.59202,0.386083,-0.146497,-0.237826,0.283174,-0.0074905,-0.00188148,0.419809,0.47120677590971205,0.3273360982061966,-0.007462516119552842,-0.13627167648415395,-0.00187971112604568,-0.21166014970547486
536,0.5246,829.0,67.2857,-0.214913,235.88,-6.01771,-1.60556,0.386684,-0.146727,-0.238196,0.283619,-0.00750437,-0.00188528,0.42047,0.47209123693595,0.3279268942122604,-0.007476282518984023,-0.13647031115469976,-0.001883503975937062,-0.2119517814948757
537,0.5256,828.957,67.154,-0.210333,235.871,-6.04512,-1.58787,0.387284,-0.146959,-0.238566,0.284064,-0.00751918,-0.00188868,0.421131,0.4729747567075373,0.3285179531810516,-0.007490981686392284,-0.13667062680499797,-0.0018868975662543752,-0.2122433054004743
538,0.5266,829.016,67.2844,-0.216925,235.857,-6.00472,-1.60383,0.387884,-0.147188,-0.238936,0.284508,-0.00753292,-0.0018925,0.421791,0.4738588067500531,0.32910794612100425,-0.007504618666617668,-0.1368683065962597,-0.0018907103510232837,-0.2125347214621801
539,0.5276,828.964,67.1318,-0.211549,235.849,-6.03743,-1.58349,0.388483,-0.147419,-0.239305,0.284952,-0.00754777,-0.00189585,0.42245,0.47474191263910526,0.32969820107598524,-0.0075193571135973025,-0.13706766699042394,-0.0018940540115429672,-0.21282524254552426
540,0.5286,829.032,67.2845,-0.219031,235.835,-5.99118,-1.60227,0.389083,-0.147649,-0.239674,0.285396,-0.00756138,-0.0018997,0.423109,0.47562702329333173,0.33028871816235505,-0.007532864683227669,-0.13726611860420568,-0.001897896712037772,-0.213115656446365
541,0.5296,828.971,67.1078,-0.21269,235.827,-6.03003,-1.57887,0.389681,-0.14788,-0.240042,0.28584,-0.00757628,-0.001903,0.423768,0.47650971215092497,0.3308794974965261,-0.007547652333375621,-0.13746538711440914,-0.0019011904435439764,-0.21340517660981528
542,0.5306,829.05,67.2863,-0.221232,235.812,-5.97704,-1.60091,0.39028,-0.148109,-0.240411,0.286283,-0.00758974,-0.00190688,0.424426,0.4773944064079809,0.3314692077250885,-0.0075610106520735965,-0.13766288492639733,-0.001905063059412182,-0.2136953765544637
543,0.5316,828.978,67.0819,-0.213751,235.805,-6.02298,-1.57396,0.390878,-0.14834,-0.240779,0.286726,-0.0076047,-0.00191012,0.425084,0.47827815247675165,0.33205917925315576,-0.007575857428300026,-0.13786206179416538,-0.0019082968817690782,-0.2139846834201634
544,0.5326,829.068,67.29,-0.223537,235.789,-5.96225,-1.59977,0.391475,-0.148568,-0.241147,0.287169,-0.00761799,-0.00191403,0.425742,0.4791609480220309,0.3326494121965091,-0.007589046657512255,-0.13805860683709004,-0.0019121994126988229,-0.2142738838405237
545,0.5336,828.983,67.0537,-0.214723,235.783,-6.01635,-1.56875,0.392073,-0.148799,-0.241515,0.287611,-0.00763303,-0.00191721,0.426399,0.48004575079861067,0.33323857343174135,-0.007603972406008519,-0.13825769230365403,-0.0019153733268582052,-0.21456297785470935
546,0.5346,829.087,67.2959,-0.225956,235.766,-5.94672,-1.5989,0.39267,-0.149027,-0.241883,0.288053,-0.00764613,-0.00192117,0.427055,0.4809296019151448,0.33382799513379835,-0.007616972708817893,-0.1384541471531049,-0.001919325734153987,-0.21485196550187036
547,0.5356,828.988,67.023,-0.215595,235.761,-6.01021,-1.56319,0.393266,-0.149257,-0.242249,0.288495,-0.00766127,-0.00192427,0.427711,0.48181249903509293,0.334417677417832,-0.007631997274114788,-0.1386522799131188,-0.0019224197794485143,-0.21513927710126668
548,0.5366,829.107,67.3043,-0.2285,235.742,-5.9304,-1.59833,0.393862,-0.149485,-0.242617,0.288936,-0.00767417,-0.00192828,0.428367,0.4826959225185654,0.3350062853920921,-0.007644798738780323,-0.1388486448068501,-0.001926422062520583,-0.21542805270932264
549,0.5376,828.991,66.9895,-0.216354,235.738,-6.00467,-1.55725,0.394458,-0.149716,-0.242983,0.289377,-0.00768943,-0.00193131,0.429022,0.4835798726793683,0.3355951529997139,-0.00765994196360853,-0.13904754779572004,-0.0019294462208800933,-0.21571515349938153
550,0.5386,829.128,67.3155,-0.231188,235.719,-5.91317,-1.59811,0.395053,-0.149943,-0.24335,0.289818,-0.0077021,-0.00193538,0.429677,0.4844628653678873,0.33618428035522085,-0.007672514832494537,-0.13924296182203932,-0.0019335083597675773,-0.21600293322723718
551,0.5396,828.994,66.9527,-0.216985,235.716,-5.99981,-1.55087,0.395648,-0.150173,-0.243716,0.290258,-0.0077175,-0.00193831,0.430332,0.48534638359338755,0.33677233080018776,-0.0076877965580964824,-0.13944091317554197,-0.0019364326903038576,-0.2162898236495261
552,0.5406,829.15,67.3301,-0.234036,235.695,-5.89496,-1.59829,0.396243,-0.1504,-0.244083,0.290698,-0.00772992,-0.00194245,0.430985,0.4862304276686571,0.3373606400442821,-0.007700120999128313,-0.13963623791805402,-0.0019405646649193198,-0.21657739251213282
553,0.5416,828.995,66.9123,-0.217469,235.693,-5.99575,-1.54401,0.396837,-0.15063,-0.244447,0.291138,-0.00774549,-0.00194529,0.431639,0.4871135107924147,0.3379492082014006,-0.007715570987965936,-0.139834098828456,-0.001943399149690772,-0.21686250644737415
554,0.5426,829.175,67.3483,-0.237066,235.671,-5.87564,-1.59892,0.397431,-0.150856,-0.244814,0.291578,-0.00775762,-0.00194951,0.432292,0.48799711862337025,0.3385380353854901,-0.0077276073250892585,-0.14002847435685872,-0.0019476109396594499,-0.2171498651739563
555,0.5436,828.995,66.8677,-0.217786,235.67,-5.99261,-1.53661,0.398024,-0.151087,-0.245178,0.292017,-0.0077734,-0.00195223,0.432945,0.48887976259278587,0.3391257825840952,-0.0077432652599043195,-0.14022710483657863,-0.0019503256384657552,-0.2174347707670693
556,0.5446,829.201,67.3707,-0.240301,235.647,-5.85509,-1.60008,0.398617,-0.151312,-0.245544,0.292456,-0.00778521,-0.00195655,0.433597,0.48976293012529637,0.3397137878603642,-0.0077549837427437485,-0.14042053197662108,-0.0019546372037460014,-0.21772113723270858
557,0.5456,828.992,66.8186,-0.217913,235.648,-5.99052,-1.52861,0.39921,-0.151543,-0.245908,0.292895,-0.00780123,-0.00195914,0.434249,0.4906466215314669,0.3403020513276185,-0.007770879380579854,-0.14061907190149037,-0.0019572221378880705,-0.2180058349206332
558,0.5466,829.228,67.3978,-0.243768,235.622,-5.83318,-1.60184,0.399802,-0.151767,-0.246274,0.293333,-0.00781268,-0.00196357,0.4349,0.49152934559195516,0.34088923220932577,-0.007782240338969348,-0.14081155167084547,-0.001961643457600859,-0.21829199241503638
559,0.5476,828.988,66.7642,-0.217826,235.625,-5.98964,-1.51992,0.400394,-0.151998,-0.246637,0.293771,-0.00782898,-0.00196601,0.435552,0.4924125923797993,0.3414766703325911,-0.007798413356641332,-0.14101000128059704,-0.001964078668219793,-0.21857570092557976
560,0.5486,829.258,67.4303,-0.247497,235.598,-5.80974,-1.60426,0.400986,-0.152222,-0.247002,0.294209,-0.00784003,-0.00197058,0.436202,0.4932963622045454,0.3420643658101108,-0.00780937712359886,-0.14120239349157815,-0.001968639681958373,-0.21886086874844835
561,0.5496,828.982,66.7041,-0.217496,235.603,-5.99013,-1.51048,0.401577,-0.152453,-0.247365,0.294646,-0.00785665,-0.00197285,0.436853,0.4941791611960149,0.34265097610298345,-0.007825867194718117,-0.14140075282729625,-0.001970905210574969,-0.21914437079435822
562,0.5506,829.291,67.4688,-0.251523,235.572,-5.78461,-1.60744,0.402168,-0.152676,-0.24773,0.295083,-0.00786725,-0.00197757,0.437502,0.4950624820758911,0.34323784280057446,-0.007836384184785716,-0.14159219911236165,-0.0019756158967850768,-0.2194293310906006
563,0.5516,828.973,66.6374,-0.216892,235.58,-5.99217,-1.5002,0.402758,-0.152907,-0.248092,0.29552,-0.00788425,-0.00197966,0.438152,0.49594482920712424,0.34382496601495705,-0.007853250822887792,-0.14179046841338072,-0.0019777017655681073,-0.21971184653436526
564,0.5526,829.326,67.514,-0.255883,235.547,-5.75759,-1.61148,0.403348,-0.15313,-0.248457,0.295956,-0.00789435,-0.00198454,0.4388,0.4968276970767673,0.3444110014465802,-0.007863271454450205,-0.14198182780155977,-0.0019825721024998577,-0.21999659973975894
565,0.5536,828.962,66.5634,-0.215982,235.557,-5.99597,-1.48896,0.403938,-0.153361,-0.248818,0.296393,-0.00791178,-0.00198643,0.439449,0.4977110859921472,0.34499863744332604,-0.007880564246921629,-0.14218000710874634,-0.0019844583536561267,-0.22027813014795672
566,0.5546,829.364,67.5668,-0.260622,235.521,-5.72847,-1.61649,0.404527,-0.153583,-0.249182,0.296828,-0.00792132,-0.00199151,0.440096,0.49859349766652405,0.34558383912275104,-0.007890029021191625,-0.14237042201033212,-0.001989528259730089,-0.22056189725983533
567,0.5556,828.947,66.4813,-0.214726,235.535,-6.00175,-1.47668,0.405116,-0.153815,-0.249543,0.297265,-0.00793924,-0.00199316,0.440745,0.49947642923447066,0.34617198776156544,-0.007907807472576134,-0.14256936899368333,-0.001991174975649934,-0.220843223632459
568,0.5566,829.406,67.6281,-0.265787,235.495,-5.69701,-1.62258,0.405705,-0.154035,-0.249907,0.297699,-0.00794815,-0.00199846,0.441391,0.5003598810022947,0.3467563532023823,-0.00791664697463157,-0.14275798298420495,-0.001996464408405507,-0.22112678508774108
569,0.5576,829.283,67.2927,-0.253511,235.491,-5.77581,-1.57928,0.406293,-0.154263,-0.250269,0.298135,-0.0079627,-0.00200145,0.442038,0.5012423520333815,0.3473436669974821,-0.007931081682405305,-0.1429534118843434,-0.001999448434515827,-0.22140868616436604
570,0.5586,829.191,67.0261,-0.237313,235.485,-5.83817,-1.54123,0.406881,-0.15449,-0.25063,0.298569,-0.00797717,-0.00200442,0.442685,0.5021253421100189,0.3479285410574495,-0.007945436815793738,-0.14314793938013948,-0.00200241249175237,-0.2216897069013658
571,0.5596,829.225,67.1007,-0.247274,235.471,-5.81038,-1.5524,0.407468,-0.154715,-0.250992,0.299004,-0.00799028,-0.00200799,0.443331,0.5030073485293955,0.3485150175221927,-0.007958442565864199,-0.1433407094063378,-0.0020059753367800415,-0.22197140423717343
572,0.5606,829.174,66.9426,-0.238312,235.462,-5.84353,-1.53027,0.408055,-0.154942,-0.251353,0.299438,-0.00800434,-0.00201112,0.443977,0.5038898728385262,0.3491004000586193,-0.007972390572106969,-0.1435351489955743,-0.00200909905318869,-0.22225222186961147
573,0.5616,829.234,67.0771,-0.248319,235.447,-5.80045,-1.54789,0.408642,-0.155167,-0.251714,0.299872,-0.00801719,-0.00201475,0.444622,0.5047729153415013,0.3496860367062049,-0.007985138044985463,-0.14372783190940952,-0.0020127217535839126,-0.22253293814518016
574,0.5626,829.18,66.913,-0.240343,235.438,-5.83517,-1.52516,0.409228,-0.155393,-0.252075,0.300305,-0.00803122,-0.00201786,0.445267,0.5056549706868665,0.3502705773040051,-0.007999055915864584,-0.14392132755356668,-0.0020158254891929905,-0.2228135531004628
575,0.5636,829.251,67.0725,-0.25015,235.422,-5.78573,-1.54533,0.409814,-0.155618,-0.252435,0.300738,-0.00804393,-0.0020215,0.445911,0.5065375430681407,0.3508553710626898,-0.008011664167738353,-0.14411392358700081,-0.002019458144976727,-0.22309328986570776
576,0.5646,829.188,66.888,-0.242047,235.413,-5.82558,-1.52031,0.4104,-0.155844,-0.252795,0.301171,-0.008058,-0.00202457,0.446555,0.5074206327883959,0.35144041809190085,-0.008025621345434497,-0.14430733198429802,-0.002022521940537314,-0.22337292594384195
577,0.5656,829.268,67.0707,-0.252216,235.396,-5.77011,-1.54317,0.410985,-0.156068,-0.253156,0.301604,-0.00807056,-0.00202823,0.447198,0.5083027318473954,0.35202571850132847,-0.00803808046538701,-0.1444989856759188,-0.002026174531422731,-0.22365323771825674
578,0.5666,829.196,66.8623,-0.243511,235.389,-5.8161,-1.51527,0.41157,-0.156294,-0.253515,0.302036,-0.00808467,-0.00203125,0.447841,0.5091853470853123,0.352609919790114,-0.008052076949326192,-0.1446923070590168,-0.0020291884078247335,-0.22393189618372855
579,0.5676,829.287,67.0705,-0.254471,235.371,-5.754,-1.54124,0.412154,-0.156518,-0.253875,0.302468,-0.00809708,-0.00203494,0.448484,0.5100669687364754,0.3531943735083771,-0.008064386946667557,-0.14488387452587836,-0.0020328709133252687,-0.22421123041792346
580,0.5686,829.204,66.8351,-0.24482,235.364,-5.8069,-1.51,0.412738,-0.156744,-0.254234,0.3029,-0.00811125,-0.0020379,0.449126,0.510949105405053,0.35377907976519074,-0.008078442574720124,-0.1450771089339249,-0.0020358248916554356,-0.2244896885999691
581,0.5696,829.305,67.0716,-0.256877,235.345,-5.7374,-1.53952,0.413322,-0.156967,-0.254594,0.303331,-0.00812349,-0.00204163,0.449768,0.5118317573919038,0.3543626843063139,-0.008090583620279701,-0.14526773548298244,-0.002039547291086352,-0.22476882206503468
582,0.5706,829.211,66.8062,-0.246008,235.339,-5.79804,-1.50447,0.413905,-0.157193,-0.254952,0.303763,-0.00813773,-0.00204453,0.45041,0.5127134122838921,0.35494789538242544,-0.008104708309800923,-0.145460883148255,-0.0020424413722027746,-0.2250463051542989
583,0.5716,829.325,67.0744,-0.259416,235.32,-5.72027,-1.53801,0.414488,-0.157416,-0.255312,0.304193,-0.00814979,-0.00204829,0.451051,0.5135955813305442,0.35553064826032954,-0.008116670494886513,-0.14565142412520438,-0.002046193685568798,-0.2253252382734694
584,0.5726,829.217,66.7754,-0.247089,235.314,-5.78956,-1.49869,0.415071,-0.157641,-0.255669,0.304624,-0.00816412,-0.00205112,0.451691,0.5144782648316992,0.356115007890184,-0.008130884081157808,-0.14584363093069974,-0.00204901789084444,-0.22560174780351783
585,0.5736,829.345,67.079,-0.26208,235.294,-5.70258,-1.53674,0.415653,-0.157864,-0.256028,0.305054,-0.00817598,-0.00205493,0.452331,0.5153599477266664,0.3566982627343813,-0.00814264757911487,-0.14603408656440975,-0.0020528200768431537,-0.22587970687941694
586,0.5746,829.223,66.7425,-0.248067,235.289,-5.78153,-1.49263,0.416235,-0.158089,-0.256386,0.305484,-0.00819041,-0.00205769,0.452971,0.516242143910431,0.35728176843209125,-0.008156959977446143,-0.1462262072805417,-0.0020555744072587867,-0.22615679234309682
587,0.5756,829.367,67.0855,-0.264869,235.268,-5.68426,-1.53573,0.416817,-0.158311,-0.256744,0.305914,-0.00820206,-0.00206155,0.453611,0.517124853681814,0.35786552509120395,-0.0081685148815549,-0.14641572402538838,-0.0020594264653071015,-0.22643377862793468
588,0.5766,829.228,66.7074,-0.24894,235.264,-5.77398,-1.48627,0.417398,-0.158537,-0.257101,0.306343,-0.0082166,-0.00206423,0.45425,0.5180065593324923,0.35844817437080256,-0.008182936006506769,-0.14660861227456556,-0.0020621009424602876,-0.2267098924797094
589,0.5776,829.389,67.0942,-0.267788,235.241,-5.66528,-1.535,0.417979,-0.158758,-0.257459,0.306772,-0.00822803,-0.00206815,0.454888,0.5188887774029971,0.3590310736605655,-0.00819427241076054,-0.14679719093254362,-0.002066012851357324,-0.22698668079013795
590,0.5786,829.232,66.6697,-0.249701,235.238,-5.76698,-1.47958,0.418559,-0.158984,-0.257815,0.307201,-0.00824271,-0.00207073,0.455527,0.5197699884203826,0.35961422306777013,-0.008208832011973755,-0.14698999297994086,-0.002068587517722764,-0.22726182455328092
591,0.5796,829.412,67.1054,-0.270847,235.215,-5.64558,-1.53458,0.419139,-0.159205,-0.258173,0.307629,-0.00825388,-0.00207472,0.456164,0.5206517106884065,0.36019626250279724,-0.00821991025744806,-0.14717848736209593,-0.0020725692561150977,-0.22753841530739183
592,0.5806,829.235,66.6294,-0.25034,235.213,-5.76059,-1.47255,0.419719,-0.15943,-0.258528,0.308058,-0.00826872,-0.00207721,0.456802,0.5215339445036804,0.36077991188325176,-0.008234628164772717,-0.14737035061701376,-0.0020750540923240024,-0.22781259050098135
593,0.5816,829.436,67.1191,-0.274056,235.188,-5.6251,-1.5345,0.420298,-0.159651,-0.258886,0.308486,-0.00827962,-0.00208127,0.457438,0.5224151677470583,0.3613624503398749,-0.008245438348410072,-0.1475587609494189,-0.002079105659379632,-0.22808898411617295
594,0.5826,829.237,66.5861,-0.250847,235.188,-5.75488,-1.46513,0.420878,-0.159876,-0.259241,0.308913,-0.00829464,-0.00208366,0.458075,0.523298424664097,0.3619438762317637,-0.008260334390056578,-0.14775053865240462,-0.0020814906874669914,-0.22836296389252408
595,0.5836,829.462,67.1358,-0.27743,235.161,-5.60378,-1.53479,0.421456,-0.160096,-0.259598,0.30934,-0.00830524,-0.0020878,0.458711,0.5241791456574003,0.36252555044552137,-0.008270846774796281,-0.14793801291097652,-0.0020856220615436127,-0.2286383891480811
596,0.5846,829.238,66.5396,-0.251209,235.162,-5.74991,-1.4573,0.422034,-0.160322,-0.259952,0.309768,-0.00832047,-0.00209007,0.459347,0.5250603758545835,0.3631088361953585,-0.008285950694783328,-0.14813055716173873,-0.0020878873246105156,-0.22891140283204947
597,0.5856,829.489,67.1556,-0.280982,235.134,-5.58154,-1.5355,0.422612,-0.160541,-0.260309,0.310194,-0.00833075,-0.00209431,0.459982,0.5259421155500517,0.3636896442629125,-0.00829614546280899,-0.1483170961429563,-0.0020921184629981715,-0.22918663232984993
598,0.5866,829.238,66.4896,-0.251413,235.137,-5.74576,-1.44901,0.42319,-0.160767,-0.260663,0.310621,-0.00834621,-0.00209645,0.460618,0.5268243650383795,0.364272064078794,-0.00831147708588631,-0.14850955473058847,-0.0020942539835796525,-0.22945945197007978
599,0.5876,829.517,67.1788,-0.284727,235.107,-5.55831,-1.53666,0.423767,-0.160985,-0.26102,0.311047,-0.00835614,-0.0021008,0.461252,0.527705596907952,0.3648533677869905,-0.00832132450402634,-0.1486951594160114,-0.0020985948641334407,-0.22973448584925793
600,0.5886,829.236,66.4359,-0.251441,235.111,-5.74251,-1.44024,0.424344,-0.161211,-0.261373,0.311473,-0.00837186,-0.00210281,0.461886,0.5285873373950354,0.3654349191833204,-0.008336913570274773,-0.14888753257099807,-0.002100600643941908,-0.2300063415903919
601,0.5896,829.547,67.2058,-0.288686,235.079,-5.53403,-1.5383,0.42492,-0.161429,-0.261729,0.311898,-0.0083814,-0.00210727,0.46252,0.5294680573243644,0.366015352357286,-0.008346373990993028,-0.14907305486623268,-0.0021050512653382203,-0.2302804105456172
602,0.5906,829.462,66.9703,-0.282865,235.071,-5.58619,-1.50899,0.425497,-0.161652,-0.262083,0.312323,-0.00839482,-0.0021102,0.463153,0.5303508150445515,0.36659603226777837,-0.008359681893357895,-0.14926279041869717,-0.002107975093254555,-0.2305528430568845
603,0.5916,829.412,66.8025,-0.267864,235.061,-5.62216,-1.48236,0.426072,-0.161874,-0.262437,0.312748,-0.00840808,-0.00211309,0.463786,0.5312310197978174,0.3671769590196827,-0.008372830956797417,-0.14945163311690912,-0.0021108589970393332,-0.23082517914411094
604,0.5926,829.43,66.8361,-0.277431,235.047,-5.60408,-1.48861,0.426648,-0.162096,-0.262791,0.313173,-0.00842051,-0.00211638,0.464419,0.5321132629268497,0.3677581327179291,-0.008385156805903349,-0.14964043389669524,-0.002114142046912626,-0.23109741884142454
605,0.5936,829.407,66.7425,-0.269916,235.035,-5.61996,-1.47406,0.427223,-0.162317,-0.263144,0.313597,-0.00843346,-0.00211939,0.465051,0.5329944813790584,0.3683381851286227,-0.008397998134974882,-0.14982834259612787,-0.0021171456788245946,-0.23136879355211903
606,0.5946,829.441,66.813,-0.278105,235.02,-5.59259,-1.48373,0.427798,-0.162538,-0.263498,0.314021,-0.00844571,-0.0021227,0.465683,0.5338762066775813,0.3689184835336854,-0.008410145185096973,-0.15001620977232655,-0.0021204486656059007,-0.23164084084398995
607,0.5956,829.416,66.7186,-0.272471,235.009,-5.60856,-1.46964,0.428372,-0.16276,-0.263851,0.314445,-0.00845862,-0.0021257,0.466314,0.5347569043562672,0.36949902803744106,-0.00842294652748976,-0.1502048852300064,-0.0021234422997694624,-0.2319120237605713
608,0.5966,829.457,66.8018,-0.279672,234.993,-5.57803,-1.48022,0.428946,-0.162981,-0.264204,0.314869,-0.00847077,-0.00212902,0.466945,0.5356381077005328,0.37007981874425777,-0.008434994115500194,-0.1503926691994777,-0.0021267552444415028,-0.23218311096647692
609,0.5976,829.428,66.6982,-0.274674,234.982,-5.59626,-1.46539,0.42952,-0.163202,-0.264557,0.315292,-0.00848367,-0.002132,0.467576,0.5365198170007137,0.3706594850983773,-0.0084477852215733,-0.15058041167327707,-0.002129728902280137,-0.23245410249548693
610,0.5986,829.474,66.7919,-0.281537,234.966,-5.56301,-1.47698,0.430093,-0.163422,-0.264909,0.315715,-0.00849573,-0.00213531,0.468206,0.5374004951460476,0.3712393967032315,-0.008459743269176423,-0.1507672634282623,-0.002133031847411093,-0.23272423110598395
611,0.5996,829.44,66.6777,-0.276638,234.954,-5.58393,-1.46104,0.430666,-0.163643,-0.265261,0.316138,-0.00850861,-0.00213826,0.468836,0.5382816780645627,0.37181955366258324,-0.008472514225437933,-0.15095492312588432,-0.0021359755506251688,-0.23299426464794304
612,0.6006,829.49,66.7825,-0.28359,234.938,-5.5478,-1.47387,0.431239,-0.163863,-0.265614,0.31656,-0.00852057,-0.00214157,0.469465,0.5391633660455766,0.3723985836809698,-0.008484372823253206,-0.15114169249741238,-0.0021392784750797755,-0.23326496989023604
613,0.6016,829.451,66.6567,-0.278467,234.927,-5.57168,-1.45657,0.431811,-0.164084,-0.265965,0.316982,-0.00853345,-0.0021445,0.470094,0.5400440193337837,0.37297785810158923,-0.008497143462288137,-0.1513292694553532,-0.0021422022027105525,-0.23353404666006894
614,0.6026,829.507,66.7735,-0.285767,234.91,-5.53242,-1.47085,0.432383,-0.164304,-0.266317,0.317404,-0.00854531,-0.00214781,0.470722,0.5409251764997671,0.3735573770276013,-0.008508902616434777,-0.15151595647974736,-0.002145505106554979,-0.2338037951971168
615,0.6036,829.463,66.6351,-0.280211,234.899,-5.55952,-1.45201,0.432954,-0.164525,-0.266668,0.317825,-0.00855819,-0.0021507,0.471351,0.5418052960257602,0.3741357664257554,-0.008521672939527991,-0.1517034507344871,-0.0021483889018781843,-0.23407268287245497
616,0.6046,829.523,66.7649,-0.288032,234.882,-5.51685,-1.46792,0.433526,-0.164744,-0.26702,0.318246,-0.00856994,-0.00215403,0.471978,0.542687460930197,0.37471439937711026,-0.008533322741428262,-0.15188920733768574,-0.002151711742210516,-0.23434224184292174
617,0.6056,829.474,66.6128,-0.281899,234.871,-5.54747,-1.44735,0.434096,-0.164965,-0.26737,0.318667,-0.00858282,-0.00215689,0.472606,0.5435670434401279,0.3752932759842238,-0.008546092749992296,-0.1520766191131001,-0.0021545655842339917,-0.23461017516720983
618,0.6066,829.541,66.7568,-0.290366,234.854,-5.50111,-1.46506,0.434667,-0.165184,-0.267721,0.319088,-0.00859447,-0.00216022,0.473233,0.5444486719029045,0.3758723963496964,-0.008557643120730707,-0.15226229400137203,-0.0021578884039981094,-0.2348787798528461
619,0.6076,829.486,66.5898,-0.283543,234.844,-5.53555,-1.4426,0.435237,-0.165404,-0.268072,0.319508,-0.00860736,-0.00216304,0.47386,0.5453292585892529,0.3764503841250999,-0.008570422730346139,-0.15244877578294358,-0.0021607023147851567,-0.23514729027478198
620,0.6086,829.558,66.7491,-0.292759,234.825,-5.48517,-1.46228,0.435807,-0.165623,-0.268422,0.319928,-0.00861889,-0.00216639,0.474486,0.546210347353091,0.3770286147063544,-0.008581853847471566,-0.15263436917782858,-0.0021640450708333425,-0.23541494188142242
621,0.6096,829.497,66.5661,-0.285152,234.816,-5.52376,-1.43776,0.436376,-0.165843,-0.268772,0.320348,-0.00863179,-0.00216917,0.475112,0.5470903913895195,0.3776070881954603,-0.00859464305906632,-0.15282076911186493,-0.0021668190509321894,-0.23568249982639222
622,0.6106,829.576,66.742,-0.295206,234.797,-5.46902,-1.45959,0.436945,-0.166061,-0.269122,0.320768,-0.0086432,-0.00217253,0.475737,0.5479709363134939,0.37818580469445995,-0.008605954929654658,-0.15300543405498845,-0.0021701717647876206,-0.23594996414246727
623,0.6116,829.508,66.5416,-0.286728,234.787,-5.51211,-1.43283,0.437514,-0.166281,-0.269471,0.321187,-0.00865613,-0.00217527,0.476362,0.5488519824101001,0.37876338554136435,-0.008618773571784755,-0.15319175236373084,-0.0021729058147713642,-0.236216571079365
624,0.6126,829.594,66.7355,-0.297706,234.768,-5.45267,-1.45699,0.438083,-0.166499,-0.269821,0.321606,-0.00866741,-0.00217864,0.476987,0.5497335299645865,0.3793412084453509,-0.008629956288948248,-0.1533763364413201,-0.0021762684864126136,-0.23648384850320958
625,0.6136,829.519,66.5163,-0.288272,234.759,-5.50063,-1.4278,0.438651,-0.166719,-0.27017,0.322024,-0.00868036,-0.00218134,0.477611,0.5506140286475598,0.3799178935892795,-0.00864279444788707,-0.1535625731605128,-0.0021789626068506873,-0.2367502691469755
626,0.6146,829.612,66.7296,-0.300261,234.739,-5.4361,-1.45448,0.439218,-0.166937,-0.270519,0.322443,-0.00869151,-0.00218473,0.478235,0.551493476101595,0.3804962003334955,-0.008653848019105181,-0.15374707640797913,-0.002182345214433834,-0.23701659682615983
627,0.6156,829.53,66.4901,-0.28978,234.73,-5.48932,-1.42266,0.439786,-0.167157,-0.270868,0.322861,-0.00870449,-0.00218738,0.478859,0.5523749747179285,0.38107336836494987,-0.008666715608647069,-0.15393323157335037,-0.0021849894277155,-0.23728283157320185
628,0.6166,829.631,66.7244,-0.302872,234.71,-5.4193,-1.45207,0.440353,-0.167374,-0.271217,0.323278,-0.00871551,-0.0021908,0.479482,0.5532554209115015,0.38164939605298387,-0.00867764004124727,-0.15411680814332074,-0.002188401949216212,-0.23754897342052905
629,0.6176,829.54,66.463,-0.291254,234.702,-5.4782,-1.41742,0.44092,-0.167594,-0.271564,0.323696,-0.00872853,-0.0021934,0.480104,0.5541363664596202,0.3822270462210082,-0.008690546974349678,-0.15430288197665698,-0.002190996255998501,-0.23781349802907836
630,0.6186,829.65,66.7198,-0.305541,234.681,-5.40227,-1.44977,0.441486,-0.167811,-0.271913,0.324113,-0.00873939,-0.00219684,0.480727,0.5550162566284642,0.3828035550930282,-0.008701312536552375,-0.1544863783411925,-0.002194428713067631,-0.23807945470612657
631,0.6196,829.55,66.4349,-0.292688,234.673,-5.46728,-1.41206,0.442052,-0.16803,-0.27226,0.32453,-0.00875246,-0.00219939,0.481349,0.5558966449561096,0.3833803044193791,-0.008714268725728669,-0.15467152554997643,-0.0021969731140302207,-0.23834379526960336
632,0.6206,829.67,66.7161,-0.308271,234.651,-5.38499,-1.44758,0.442618,-0.168247,-0.272609,0.324947,-0.00876317,-0.00220286,0.48197,0.5567775317245938,0.3839572943003511,-0.008724885339058575,-0.15485494192753535,-0.0022004354845263085,-0.2386095669052063
633,0.6216,829.56,66.4058,-0.294084,234.644,-5.45658,-1.40659,0.443183,-0.168466,-0.272955,0.325363,-0.00877629,-0.00220536,0.482592,0.5576573595579757,0.3845331403024441,-0.008737890783246938,-0.15504000842973154,-0.002202929980319568,-0.23887296242500444
634,0.6226,829.69,66.7131,-0.311065,234.622,-5.36746,-1.4455,0.443748,-0.168682,-0.273303,0.325779,-0.00878685,-0.00220885,0.483212,0.5585376846345416,0.3851092259063076,-0.008748358455850869,-0.15522250007810312,-0.0022064122860172564,-0.2391377885516619
635,0.6236,829.57,66.3757,-0.295435,234.615,-5.4461,-1.40099,0.444313,-0.168901,-0.273649,0.326195,-0.00880003,-0.00221129,0.483833,0.5594185072353133,0.38568555121163683,-0.008761423066390495,-0.155407486093878,-0.00220884689940104,-0.23940100133838493
636,0.6246,829.711,66.7109,-0.313922,234.592,-5.34967,-1.44356,0.444877,-0.169117,-0.273997,0.32661,-0.00881041,-0.00221482,0.484453,0.5602982673424235,0.3862607300567449,-0.008771712069419069,-0.15558989837564607,-0.0022123690959547915,-0.23966564373947064
637,0.6256,829.579,66.3445,-0.29674,234.586,-5.43586,-1.39527,0.445441,-0.169336,-0.274343,0.327026,-0.00882366,-0.0022172,0.485072,0.5611785237741844,0.38683753448745173,-0.00878484575722327,-0.15577480394000343,-0.0022147438276903797,-0.23992867391989148
638,0.6266,829.732,66.7096,-0.316852,234.562,-5.3316,-1.44174,0.446004,-0.169552,-0.27469,0.32744,-0.00883387,-0.00222076,0.485691,0.5620577147521066,0.38741180409233555,-0.008794966012284022,-0.15595713688968493,-0.0022182959368796107,-0.24019237291561957
639,0.6276,829.588,66.3121,-0.297996,234.556,-5.42588,-1.38942,0.446568,-0.169771,-0.275035,0.327855,-0.0088472,-0.00222308,0.486311,0.5629389637920958,0.3879876994810616,-0.00880817868732442,-0.15614196203761377,-0.002220610787747823,-0.24045446133411186
640,0.6286,829.753,66.7093,-0.319853,234.531,-5.31326,-1.44006,0.447131,-0.169986,-0.275382,0.328269,-0.00885723,-0.00222668,0.486929,0.563819146176803,0.38856244535283313,-0.008818120291435028,-0.15632337201350444,-0.0022242027870834624,-0.24071797791325833
641,0.6296,829.597,66.2786,-0.299202,234.527,-5.41616,-1.38342,0.447693,-0.170205,-0.275727,0.328684,-0.00887064,-0.00222893,0.487547,0.5646982595446721,0.38913881835678077,-0.008831411951321089,-0.1565081169647229,-0.0022264477801015037,-0.2409798850293029
642,0.6306,829.775,66.7098,-0.322926,234.501,-5.29462,-1.43853,0.448255,-0.170419,-0.276073,0.329097,-0.00888047,-0.00223258,0.488165,0.5655778671131115,0.389712651177083,-0.008841155090653974,-0.15668860491479297,-0.00223008964692073,-0.24124246056089627
643,0.6316,829.605,66.2439,-0.300355,234.497,-5.40672,-1.37729,0.448817,-0.170638,-0.276417,0.329511,-0.00889398,-0.00223476,0.488782,0.5664579691599396,0.39028811132670205,-0.008854545556195914,-0.15687326988876393,-0.002232264782954352,-0.2415034282654447
644,0.6326,829.797,66.7114,-0.32608,234.47,-5.27569,-1.43714,0.449379,-0.170853,-0.276764,0.329924,-0.00890361,-0.00223845,0.489399,0.5673385659631316,0.3908624189030312,-0.008864090240964462,-0.1570545226503678,-0.0022359465391045275,-0.24176658091621117
645,0.6336,829.613,66.2079,-0.301448,234.467,-5.39758,-1.37101,0.44994,-0.171071,-0.277107,0.330337,-0.00891722,-0.00224056,0.490016,0.5682180895819449,0.3914369637173756,-0.008877579508901667,-0.15723826473581504,-0.0022380518190362464,-0.2420266103813543
646,0.6346,829.82,66.714,-0.329313,234.439,-5.25645,-1.43591,0.450501,-0.171285,-0.277453,0.330749,-0.00892664,-0.0022443,0.490632,0.5690981067519365,0.39201035385668526,-0.008886915838128506,-0.1574185964509799,-0.002241783441744305,-0.2422888238086235
647,0.6356,829.761,66.5457,-0.329022,234.428,-5.29047,-1.41685,0.451062,-0.171502,-0.277797,0.331162,-0.00893869,-0.00224704,0.491248,0.5699786177500665,0.39258537286608,-0.008898858678836885,-0.157601416778827,-0.0022445172955122272,-0.24254943162611875
648,0.6366,829.743,66.4479,-0.313526,234.414,-5.30786,-1.39763,0.451622,-0.171718,-0.278141,0.331574,-0.00895053,-0.00224973,0.491863,0.5708580519946125,0.39315923624743987,-0.008910593246881371,-0.15778335522274345,-0.002247201254150788,-0.24280994980994275
649,0.6376,829.749,66.4517,-0.323498,234.399,-5.29683,-1.40066,0.452182,-0.171934,-0.278485,0.331986,-0.00896192,-0.00225268,0.492478,0.5717379788602563,0.39373333610922456,-0.00892188169093644,-0.1579652543722,-0.0022501446205656084,-0.24307037839092394
650,0.6386,829.746,66.4024,-0.316558,234.384,-5.30081,-1.39122,0.452741,-0.17215,-0.278829,0.332397,-0.00897353,-0.00225547,0.493093,0.572616826005331,0.39430627824190867,-0.008933388041095558,-0.15814711423568328,-0.002252928338778881,-0.24333071739988066
651,0.6396,829.764,66.4281,-0.323817,234.368,-5.28442,-1.39564,0.453301,-0.172366,-0.279173,0.332809,-0.0089848,-0.00225842,0.493707,0.5734977380602482,0.39488085078236,-0.008944557298873446,-0.1583289348216781,-0.0022558716882987717,-0.24359096686762027
652,0.6406,829.759,66.3803,-0.31972,234.353,-5.2878,-1.38739,0.453859,-0.172581,-0.279516,0.33322,-0.00899636,-0.00226121,0.494321,0.5743759948089306,0.3954542646405077,-0.00895601383357214,-0.15850987464896305,-0.0022586553905336038,-0.24385037067568838
653,0.6416,829.78,66.4116,-0.325251,234.337,-5.27013,-1.39165,0.454418,-0.172797,-0.279859,0.33363,-0.00900756,-0.00226415,0.494935,0.5752563170171623,0.3960265181929721,-0.008967113464059207,-0.1586916168871706,-0.0022615887457746453,-0.24410968552350787
654,0.6426,829.773,66.3607,-0.322437,234.322,-5.27419,-1.3836,0.454976,-0.173012,-0.280202,0.334041,-0.00901907,-0.00226692,0.495548,0.5761355553267327,0.39660040301720234,-0.008978520186937344,-0.15887247874619326,-0.002264352477346021,-0.2443689114415869
655,0.6436,829.797,66.3956,-0.327093,234.306,-5.25565,-1.3879,0.455534,-0.173227,-0.280545,0.334451,-0.00903021,-0.00226985,0.496161,0.5770152843881868,0.3971731265827476,-0.008989560104730066,-0.15905330172409615,-0.0022672758385106073,-0.24462804846042308
656,0.6446,829.788,66.3413,-0.324869,234.291,-5.26054,-1.37973,0.456092,-0.173442,-0.280887,0.334861,-0.00904169,-0.00227261,0.496774,0.5778955044754406,0.3977460850130985,-0.009000936839277496,-0.15923408582923781,-0.0022700295770291534,-0.24488634149722277
657,0.6456,829.814,66.3796,-0.329154,234.274,-5.24114,-1.38426,0.456649,-0.173657,-0.281229,0.33527,-0.00905276,-0.00227553,0.497386,0.5787746370871367,0.39831788008599034,-0.009011907138185893,-0.1594148310699749,-0.002272942944289258,-0.2451445462129076
658,0.6466,829.803,66.3217,-0.327163,234.26,-5.24692,-1.3758,0.457206,-0.173872,-0.281571,0.33568,-0.0090642,-0.00227827,0.497997,0.5796542595120977,0.3988913079615073,-0.009023243977121398,-0.15959553745466237,-0.0022756767126802524,-0.2454026626376783
659,0.6476,829.83,66.3635,-0.331344,234.243,-5.22662,-1.38066,0.457762,-0.174087,-0.281913,0.336089,-0.0090752,-0.00228118,0.498609,0.5805327914896441,0.39946357152638523,-0.009034144661483778,-0.15977620499165346,-0.0022785800862366035,-0.24566069080172515
660,0.6486,829.818,66.302,-0.329374,234.228,-5.23332,-1.37184,0.458319,-0.174302,-0.282255,0.336497,-0.00908661,-0.00228391,0.49922,0.5814133934793908,0.4000346691595629,-0.009045451517387448,-0.15995683368929947,-0.0022813038619950987,-0.24591863073522813
661,0.6496,829.847,66.3473,-0.333607,234.211,-5.2121,-1.37711,0.458875,-0.174516,-0.282596,0.336906,-0.00909755,-0.00228681,0.49983,0.5822929038073792,0.400607400454815,-0.009056292500847607,-0.16013658369295358,-0.0022841972420184486,-0.2461757286444627
662,0.6506,829.833,66.282,-0.331551,234.196,-5.21976,-1.36785,0.45943,-0.17473,-0.282937,0.337314,-0.00910893,-0.00228952,0.50044,0.5831713201069675,0.4011789648654116,-0.009067569376073448,-0.16031629523422253,-0.002286901048180301,-0.24643273889825612
663,0.6516,829.864,66.3311,-0.335922,234.178,-5.19757,-1.37359,0.459985,-0.174944,-0.283279,0.337722,-0.0091198,-0.00229241,0.50105,0.5840502240629142,0.4017507625218668,-0.009078340753051695,-0.1604959683213364,-0.0022897844348697127,-0.24669041483645593
664,0.6526,829.849,66.2619,-0.33371,234.164,-5.20623,-1.36386,0.46054,-0.175159,-0.283619,0.338129,-0.00913114,-0.00229511,0.50166,0.5849296159459438,0.4023213911972716,-0.009089577740953758,-0.1606764422865008,-0.0022924782488151774,-0.24694649655905176
665,0.6536,829.881,66.3148,-0.338274,234.146,-5.18303,-1.3701,0.461095,-0.175372,-0.28396,0.338537,-0.00914195,-0.00229799,0.502269,0.5858094960269309,0.4028936550587694,-0.00910028942472163,-0.16085519916601032,-0.002295351642340071,-0.2472032440257942
666,0.6546,829.864,66.2415,-0.335863,234.132,-5.19275,-1.35985,0.461649,-0.175587,-0.2843,0.338944,-0.00915325,-0.00230067,0.502878,0.5866882778878293,0.4034647489861092,-0.009111486528187385,-0.16103559590484529,-0.0022980254872146944,-0.24745915141610386
667,0.6556,829.898,66.2984,-0.340649,234.114,-5.1685,-1.36662,0.462203,-0.1758,-0.28464,0.339351,-0.00916399,-0.00230355,0.503486,0.5875675467287595,0.4040360753959842,-0.009122128613674008,-0.16121427629278073,-0.0023008988647637008,-0.24771497181269053
668,0.6566,829.879,66.221,-0.338013,234.099,-5.1793,-1.35585,0.462757,-0.176014,-0.28498,0.339757,-0.00917527,-0.0023062,0.504094,0.5884473028195836,0.40460622977610217,-0.009133305653024615,-0.1613937572325086,-0.0023035427638784522,-0.2479707052451271
669,0.6576,829.915,66.282,-0.343043,234.081,-5.15396,-1.36317,0.46331,-0.176227,-0.28532,0.340163,-0.00918594,-0.00230908,0.504701,0.5893259571035605,0.405176615685896,-0.009143878144248885,-0.16157236134020525,-0.0023064161255377247,-0.24822635174297647
670,0.6586,829.895,66.2002,-0.340174,234.066,-5.16591,-1.35183,0.463863,-0.176441,-0.285659,0.340569,-0.00919718,-0.00231172,0.505309,0.5902050974177317,0.40574723321938566,-0.009155015304467606,-0.1617517656579318,-0.0023090500331223174,-0.24848115981732677
671,0.6596,829.932,66.2655,-0.345462,234.048,-5.13942,-1.35974,0.464416,-0.176654,-0.285999,0.340975,-0.00920779,-0.00231459,0.505916,0.5910847240309458,0.4063180824706294,-0.009165528113984633,-0.16193029351795463,-0.0023119134020398446,-0.24873663279012237
672,0.6606,829.911,66.1792,-0.342337,234.033,-5.15255,-1.34782,0.464968,-0.176867,-0.286338,0.341381,-0.009219,-0.0023172,0.506522,0.5919632452481594,0.40688916353372373,-0.009176635306158643,-0.16210878335559276,-0.0023145173645476858,-0.24899126790851533
673,0.6616,829.949,66.249,-0.347893,234.015,-5.12489,-1.35632,0.46552,-0.17708,-0.286677,0.341786,-0.00922954,-0.00232007,0.507128,0.5928422515429539,0.4074590690430304,-0.009187078529386605,-0.16228723517894417,-0.002317380717773876,-0.24924581672023305
674,0.6626,829.926,66.1579,-0.344499,234.0,-5.13925,-1.34381,0.466072,-0.177293,-0.287016,0.342191,-0.00924072,-0.00232266,0.507734,0.5937217431831663,0.40802920541081433,-0.009198155755926862,-0.16246564899610494,-0.002319964712411582,-0.24950027925452845
675,0.6636,829.967,66.2324,-0.35035,233.981,-5.11037,-1.35294,0.466623,-0.177506,-0.287354,0.342595,-0.00925119,-0.00232552,0.508339,0.594600125835858,0.40859816413172334,-0.009208529396929954,-0.1626440248151697,-0.0023228180732322024,-0.24975390529492492
676,0.6646,829.942,66.1365,-0.346671,233.967,-5.12599,-1.33979,0.467174,-0.177719,-0.287692,0.342999,-0.00926234,-0.0023281,0.508945,0.5954789926107544,0.40916735275839344,-0.009219576660238538,-0.162822362644231,-0.0023253920770410774,-0.25000744562420585
677,0.6656,829.984,66.2158,-0.352821,233.948,-5.09585,-1.34957,0.467725,-0.177931,-0.288031,0.343403,-0.00927274,-0.00233096,0.509549,0.5963583437746811,0.40973677138372544,-0.00922988072306008,-0.16299982549162395,-0.0023282454223394478,-0.2502616500100614
678,0.6666,829.958,66.1148,-0.348848,233.933,-5.11278,-1.33578,0.468275,-0.178144,-0.288368,0.343807,-0.00928387,-0.00233351,0.510154,0.5972365823572285,0.4103064201006572,-0.009240907933121045,-0.16317808754321173,-0.002330789482069995,-0.25051426926527265
679,0.6676,830.002,66.199,-0.355318,233.914,-5.08135,-1.34622,0.468825,-0.178356,-0.288706,0.344211,-0.0092942,-0.00233636,0.510758,0.598115304103854,0.4108762990021648,-0.009251142421680902,-0.16335547498491942,-0.002333632835268218,-0.2507675526349602
680,0.6686,829.974,66.093,-0.351032,233.9,-5.09962,-1.33176,0.469375,-0.178569,-0.289043,0.344614,-0.00930529,-0.0023389,0.511361,0.5989945092803715,0.4114449967355591,-0.009262129765586491,-0.16353366129123237,-0.002336166904622461,-0.25102000142971115
681,0.6696,830.02,66.1822,-0.357828,233.88,-5.06686,-1.34289,0.469924,-0.17878,-0.289381,0.345017,-0.00931555,-0.00234175,0.511964,0.5998725982793418,0.4120139237003271,-0.009272294683989046,-0.1637101370698505,-0.0023390102424950543,-0.2512731138908122
682,0.6706,829.989,66.0709,-0.353223,233.866,-5.08652,-1.32775,0.470473,-0.178993,-0.289718,0.345419,-0.00932662,-0.00234426,0.512567,0.6007511694815253,0.4125816674064937,-0.00928326197898277,-0.16388824784118405,-0.002341514368436659,-0.2515253923401247
683,0.6716,830.038,66.1654,-0.36035,233.846,-5.05238,-1.33959,0.471022,-0.179204,-0.290055,0.345822,-0.00933681,-0.00234711,0.51317,0.6016302231517243,0.41315105254185736,-0.009293357331107255,-0.16406464880993288,-0.002344357691068999,-0.2517775857859237
684,0.6726,830.005,66.0486,-0.355423,233.831,-5.07346,-1.32374,0.47157,-0.179416,-0.290391,0.346224,-0.00934786,-0.0023496,0.513772,0.6025081570459279,0.4137192534657128,-0.009304304579025091,-0.16424184832057342,-0.002346841850525583,-0.2520289462861708
685,0.6736,830.056,66.1484,-0.362897,233.811,-5.03793,-1.3363,0.472118,-0.179628,-0.290728,0.346626,-0.00935798,-0.00235244,0.514374,0.6033865721797529,0.4142876828522577,-0.009314330368732193,-0.16441901026889938,-0.0023496751814713335,-0.25228097006288075
686,0.6746,830.021,66.0261,-0.35763,233.797,-5.06046,-1.31974,0.472666,-0.17984,-0.291064,0.347027,-0.009369,-0.00235492,0.514975,0.6042654688169915,0.414854925937719,-0.009325247664657144,-0.16459613466287326,-0.0023521493512089764,-0.2525321614544227
687,0.6756,830.074,66.1314,-0.365462,233.777,-5.0235,-1.33304,0.473214,-0.180051,-0.2914,0.347429,-0.00937904,-0.00235776,0.515576,0.6051448472215792,0.41542381195637446,-0.009335193989239987,-0.16477238628325952,-0.002354982667081451,-0.2527832684598347
688,0.6766,830.037,66.0034,-0.359846,233.762,-5.04752,-1.31574,0.473761,-0.180262,-0.291736,0.34783,-0.00939004,-0.00236021,0.516177,0.6060231016336928,0.4159915107209642,-0.009346091242171117,-0.16494860071847706,-0.0023574268943797883,-0.2530342911074658
689,0.6776,830.093,66.1142,-0.368035,233.742,-5.00909,-1.3298,0.474308,-0.180473,-0.292072,0.34823,-0.00940001,-0.00236304,0.516777,0.6069018365823844,0.41655802061967884,-0.009355968012405569,-0.16512477797637115,-0.002360250218866655,-0.25328522942565534
690,0.6786,830.054,65.9804,-0.36207,233.727,-5.03463,-1.31175,0.474854,-0.180685,-0.292407,0.348631,-0.00941099,-0.00236548,0.517377,0.6077794445503313,0.4171261742931456,-0.009366845224160869,-0.16530175276344983,-0.002362684456886366,-0.25353533697844366
691,0.6796,830.111,66.097,-0.370635,233.707,-4.99472,-1.32658,0.4754,-0.180895,-0.292742,0.349031,-0.00942089,-0.00236831,0.517977,0.6086575318230667,0.4176931381480742,-0.009376652443847333,-0.16547702099156147,-0.002365507766494357,-0.2537853607592343
692,0.6806,830.07,65.9573,-0.364302,233.692,-5.02179,-1.30777,0.475946,-0.181107,-0.293077,0.349431,-0.00943184,-0.00237072,0.518576,0.609536098662363,0.41826032883390796,-0.0093874997101141,-0.16565392111103605,-0.002367912062723465,-0.2540353007960864
693,0.6816,830.129,66.0796,-0.373251,233.671,-4.98037,-1.32338,0.476492,-0.181317,-0.293412,0.349831,-0.00944167,-0.00237355,0.519175,0.610415145330135,0.41882774644139764,-0.009397237383131252,-0.16582911539155942,-0.0023707353575374013,-0.25428515711704924
694,0.6826,830.086,65.934,-0.366545,233.657,-5.00901,-1.3038,0.477037,-0.181528,-0.293746,0.35023,-0.0094526,-0.00237594,0.519773,0.6112930607945737,0.41939397166664816,-0.009408064612155709,-0.16600510688045678,-0.0023731196886305206,-0.2545341842847201
695,0.6836,830.148,66.0621,-0.375881,233.636,-4.96606,-1.3202,0.477582,-0.181738,-0.294081,0.350629,-0.00946235,-0.00237877,0.520371,0.6121714548533457,0.41996042286084156,-0.009417722836441822,-0.16618022741971172,-0.0023759429687069122,-0.2547838735077047
696,0.6846,830.103,65.9106,-0.368797,233.622,-4.99628,-1.29983,0.478127,-0.181949,-0.294415,0.351028,-0.00947326,-0.00238113,0.520969,0.6130503277673558,0.42052710011415706,-0.009428530030132332,-0.1663561448317865,-0.0023782973587033185,-0.2550327341319154
697,0.6856,830.167,66.0445,-0.378531,233.6,-4.95179,-1.31704,0.478671,-0.182158,-0.294749,0.351426,-0.00948295,-0.00238396,0.521567,0.6139280658687787,0.42109258242351744,-0.009438128621171105,-0.16653035819158646,-0.0023811206241268756,-0.255281511650557
698,0.6866,830.119,65.8869,-0.37106,233.586,-4.9836,-1.29588,0.479215,-0.182369,-0.295083,0.351825,-0.00949383,-0.00238631,0.522164,0.6148062815896294,0.4216597114986309,-0.00944890587570335,-0.16670620173386186,-0.002383465025738718,-0.2555302060913822
699,0.6876,830.186,66.0268,-0.381191,233.564,-4.93756,-1.31389,0.479759,-0.182579,-0.295417,0.352223,-0.00950344,-0.00238913,0.522761,0.6156849751898037,0.4222256446770394,-0.009458425025978268,-0.16688117505865563,-0.0023862783004006127,-0.25577881748213427
700,0.6886,830.136,65.8631,-0.373327,233.55,-4.97098,-1.29195,0.480302,-0.182789,-0.29575,0.352621,-0.00951431,-0.00239146,0.523357,0.6165625303659998,0.42279180314168174,-0.009469192154378803,-0.16705611164290912,-0.0023886027376642804,-0.25602660187752113
701,0.6896,830.205,66.0089,-0.383876,233.528,-4.92338,-1.31077,0.480845,-0.182998,-0.296083,0.353018,-0.00952385,-0.00239428,0.523953,0.6174405621840533,0.4233567636247648,-0.009478641773210894,-0.16723017872493207,-0.0023914159978377647,-0.25627430377444116
702,0.6906,830.153,65.8391,-0.375615,233.513,-4.95842,-1.28802,0.481388,-0.183209,-0.296416,0.353415,-0.00953469,-0.00239658,0.524549,0.6183190709028508,0.42392194844168674,-0.009489378966538342,-0.16740587462065226,-0.0023937104949423027,-0.2565219232003617
703,0.6916,830.224,65.9909,-0.386571,233.491,-4.90925,-1.30767,0.48193,-0.183418,-0.296749,0.353812,-0.00954416,-0.0023994,0.525144,0.6191964375841725,0.424487357681526,-0.009498759057704809,-0.1675798686098513,-0.0023965237407120865,-0.25676946018274094
704,0.6926,830.169,65.8149,-0.377916,233.477,-4.9459,-1.28412,0.482472,-0.183628,-0.297081,0.354209,-0.00955498,-0.00240169,0.525739,0.6200742799271282,0.42505299143339625,-0.009509476223151792,-0.16775465848386406,-0.002398808250056894,-0.25701617176557134
705,0.6936,830.243,65.9727,-0.389279,233.454,-4.89517,-1.30458,0.483014,-0.183837,-0.297414,0.354605,-0.00956438,-0.00240451,0.526334,0.6209525981895962,0.4256174241683095,-0.009518786790315592,-0.16792857958485286,-0.002401621481451066,-0.25726354419057884
706,0.6946,830.186,65.7906,-0.380218,233.44,-4.93344,-1.28023,0.483556,-0.184047,-0.297746,0.355001,-0.00957518,-0.00240677,0.526928,0.6218313926295951,0.42618208046284756,-0.009529483929653582,-0.1681032962372494,-0.002403876051238818,-0.2575100917647456
707,0.6956,830.262,65.9544,-0.392007,233.417,-4.88115,-1.30151,0.484097,-0.184255,-0.298078,0.355397,-0.00958451,-0.00240959,0.527522,0.6227090407954308,0.4267469604055576,-0.009538724976458912,-0.16827631275729016,-0.002406689268341755,-0.25775655749870396
708,0.6966,830.203,65.7661,-0.38254,233.403,-4.92104,-1.27636,0.484638,-0.184465,-0.29841,0.355793,-0.00959529,-0.00241182,0.528116,0.6235871638973827,0.42731206408502187,-0.00954940209145394,-0.16845095639338759,-0.002408913898944154,-0.25800294141962044
709,0.6976,830.281,65.9358,-0.394751,233.38,-4.86719,-1.29845,0.485178,-0.184673,-0.298742,0.356188,-0.00960454,-0.00241464,0.528709,0.6244641377275109,0.42787596371318015,-0.009558563717112056,-0.168623900607636,-0.002411727101840344,-0.2582492435546523
710,0.6986,830.22,65.7415,-0.384877,233.366,-4.90868,-1.27251,0.485719,-0.184883,-0.299073,0.356583,-0.00961531,-0.00241686,0.529302,0.625343210593791,0.4284400861256885,-0.009569230713938892,-0.16879847125794856,-0.002413941745347925,-0.2584947224260413
711,0.6996,830.301,65.9171,-0.397508,233.343,-4.8533,-1.29541,0.486258,-0.185091,-0.299404,0.356978,-0.00962449,-0.00241968,0.529894,0.6262195067248932,0.4290044314105643,-0.00957832282666804,-0.168971343196622,-0.002416754934065568,-0.2587401200573698
712,0.7006,830.238,65.7168,-0.387225,233.329,-4.89637,-1.26868,0.486798,-0.1853,-0.299735,0.357372,-0.00963523,-0.00242187,0.530486,0.6270979024040131,0.4295675700875745,-0.009588959898359728,-0.16914501003707694,-0.0024189396389801,-0.25898543647552386
713,0.7016,830.32,65.8981,-0.400281,233.305,-4.83948,-1.29238,0.487337,-0.185508,-0.300066,0.357766,-0.00964434,-0.00242469,0.531078,0.6279751445689341,0.4301309306849388,-0.009597982501837077,-0.16931780990318013,-0.0024217528136036837,-0.25923067170738057
714,0.7026,830.255,65.692,-0.389588,233.291,-4.88411,-1.26488,0.487876,-0.185717,-0.300396,0.358161,-0.00965507,-0.00242686,0.531669,0.6288528596948337,0.43069594398533995,-0.009608609458471085,-0.1694914043396598,-0.0024239175560513138,-0.25947508525526364
715,0.7036,830.34,65.879,-0.403065,233.267,-4.82573,-1.28937,0.488415,-0.185924,-0.300727,0.358554,-0.00966411,-0.00242967,0.53226,0.6297310480367064,0.43125831799058,-0.00961756255617352,-0.16966330182695777,-0.0024267207409045533,-0.2597201584401946
716,0.7046,830.273,65.667,-0.391965,233.253,-4.8719,-1.2611,0.488954,-0.186134,-0.301057,0.358948,-0.00967481,-0.00243183,0.532851,0.6306097098496843,0.43182234487386784,-0.009628159591559937,-0.16983765422593144,-0.0024288754968605497,-0.25996441048410546
717,0.7056,830.36,65.8596,-0.405849,233.229,-4.81206,-1.28637,0.489492,-0.186341,-0.301387,0.359341,-0.00968378,-0.00243464,0.533442,0.6314872139010075,0.4323851616416543,-0.009637043187125438,-0.17000948004692074,-0.0024316786677820446,-0.2602085819381399
718,0.7066,830.29,65.642,-0.394367,233.215,-4.85974,-1.25736,0.490029,-0.18655,-0.301717,0.359734,-0.00969447,-0.00243678,0.534032,0.6323635578121534,0.4329481996398994,-0.00964763011054659,-0.17018292993944573,-0.0024338134617054585,-0.2604526728288882
719,0.7076,830.38,65.84,-0.40866,233.19,-4.79847,-1.28338,0.490567,-0.186756,-0.302047,0.360126,-0.00970337,-0.00243959,0.534621,0.6332420056875463,0.43351002544482165,-0.009656444207415738,-0.1703538546500286,-0.002436616618751164,-0.2606966831829318
720,0.7086,830.308,65.6168,-0.396785,233.176,-4.84763,-1.25364,0.491104,-0.186965,-0.302376,0.360519,-0.00971404,-0.0024417,0.535211,0.6341192921749403,0.4340735056014198,-0.009667011116781477,-0.1705272325757824,-0.0024387214752694675,-0.26093987396708707
721,0.7096,830.399,65.8202,-0.411475,233.152,-4.78497,-1.2804,0.491641,-0.187172,-0.302705,0.360911,-0.00972287,-0.00244451,0.5358,0.6349970498916921,0.43463577261274966,-0.009675755718465906,-0.170698915668826,-0.0024415246185236494,-0.26118298475463453
722,0.7106,830.326,65.5916,-0.399225,233.138,-4.83556,-1.24995,0.492177,-0.18738,-0.303034,0.361302,-0.00973351,-0.0024466,0.536389,0.6358736432164582,0.4351968248784115,-0.009686292712368094,-0.17087139235616955,-0.0024436095135584868,-0.2614260155718886
723,0.7116,830.419,65.8,-0.414304,233.113,-4.77156,-1.27743,0.492714,-0.187587,-0.303363,0.361694,-0.00974228,-0.00244941,0.536977,0.6367523432727149,0.4357595323172161,-0.009694977725497211,-0.17104300421551166,-0.0024464126430774336,-0.26166896644515536
724,0.7126,830.344,65.5662,-0.401678,233.099,-4.82353,-1.2463,0.49325,-0.187795,-0.303691,0.362085,-0.0097529,-0.00245149,0.537565,0.6376298776869227,0.4363210240588342,-0.009705494708988516,-0.17121540933988033,-0.002448487552381251,-0.26191109931220036
725,0.7136,830.439,65.7797,-0.417149,233.073,-4.75824,-1.27447,0.493785,-0.188001,-0.30402,0.362476,-0.00976161,-0.00245429,0.538152,0.6385062440785918,0.43688273538664957,-0.009714120136565807,-0.17138612138161224,-0.002451280692705615,-0.2621538906191666
726,0.7146,830.362,65.5408,-0.404148,233.059,-4.81155,-1.24268,0.494321,-0.188209,-0.304348,0.362867,-0.00977221,-0.00245634,0.53874,0.639384718835621,0.43744466638653723,-0.009724617111258271,-0.1715584551450322,-0.002453325665484174,-0.2623958644571648
727,0.7156,830.459,65.759,-0.419996,233.034,-4.74502,-1.27152,0.494856,-0.188415,-0.304676,0.363257,-0.00978084,-0.00245914,0.539326,0.6402620243184891,0.4380053791383074,-0.00973316315093642,-0.17172909652660662,-0.00245611879226193,-0.2626377589407588
728,0.7166,830.381,65.5154,-0.406637,233.02,-4.79962,-1.23909,0.49539,-0.188623,-0.305004,0.363648,-0.00979142,-0.00246118,0.539913,0.6411381581463877,0.43856774917772867,-0.009743640118646923,-0.17190135895861502,-0.00245815377970382,-0.26287957409597285
729,0.7176,830.479,65.738,-0.422864,232.994,-4.7319,-1.26858,0.495925,-0.188829,-0.305332,0.364038,-0.0098,-0.00246398,0.540499,0.642016401970271,0.43912890001720895,-0.009752136481765317,-0.1720719297092791,-0.0024609468929629452,-0.2631213099488222
730,0.7186,830.399,65.4899,-0.409161,232.98,-4.78772,-1.23555,0.496459,-0.189037,-0.305659,0.364427,-0.00981055,-0.002466,0.541085,0.6428934728860156,0.4396888300586481,-0.009762583541617076,-0.17224412083940122,-0.0024629619198149877,-0.26336222988791225
731,0.7196,830.5,65.7168,-0.425727,232.954,-4.71888,-1.26564,0.496993,-0.189242,-0.305987,0.364817,-0.00981906,-0.00246879,0.541671,0.643771012282703,0.4402504182049414,-0.009771010426174676,-0.17241379340259722,-0.0024657450442687745,-0.26360380745562206
732,0.7206,830.418,65.4643,-0.411696,232.94,-4.77586,-1.23204,0.497526,-0.18945,-0.306313,0.365206,-0.00982959,-0.0024708,0.542256,0.6446473757623699,0.440810784601821,-0.009781437482536348,-0.17258591343246577,-0.002467750086106224,-0.26384383348802243
733,0.7216,830.52,65.6952,-0.428611,232.914,-4.70598,-1.26271,0.498059,-0.189655,-0.306641,0.365595,-0.00983804,-0.00247359,0.542841,0.645524206468276,0.44137136902363205,-0.009789804794037682,-0.17275551593536165,-0.0024705331972010303,-0.264085253115655
734,0.7226,830.437,65.4387,-0.414264,232.9,-4.76405,-1.22857,0.498592,-0.189862,-0.306967,0.365983,-0.00984855,-0.00247557,0.543426,0.6464015046495197,0.44193072962375224,-0.009800211848500107,-0.17292673782148638,-0.0024725083035899154,-0.2643251222223506
735,0.7236,830.54,65.6734,-0.431503,232.873,-4.69319,-1.25978,0.499125,-0.190067,-0.307294,0.366372,-0.00985694,-0.00247836,0.54401,0.6472792705553314,0.4424917497889236,-0.009808519589871723,-0.1730962704625436,-0.002475291401409341,-0.2645656485791813
736,0.7246,830.456,65.413,-0.416847,232.859,-4.75228,-1.22515,0.499657,-0.190274,-0.30762,0.36676,-0.00986742,-0.00248033,0.544594,0.6481558562783947,0.4430515451811248,-0.009818896742210037,-0.17326742181978116,-0.0024772565231496735,-0.2648053611024802
737,0.7256,830.561,65.6512,-0.434389,232.832,-4.68051,-1.25686,0.500189,-0.190479,-0.307946,0.367147,-0.00987576,-0.00248311,0.545177,0.649032908469132,0.4436101142052449,-0.009827154818174977,-0.17343688462777684,-0.0024800296325219184,-0.2650449954922329
738,0.7266,830.475,65.3873,-0.419455,232.818,-4.74054,-1.22177,0.500721,-0.190686,-0.308272,0.367535,-0.00988621,-0.00248506,0.54576,0.6499104273757701,0.4441703436070321,-0.009837502070342619,-0.17360796548517932,-0.0024819747945675763,-0.265284551773907
739,0.7276,830.581,65.6286,-0.437294,232.791,-4.66795,-1.25394,0.501252,-0.19089,-0.308598,0.367922,-0.00989449,-0.00248784,0.546343,0.6507867624590804,0.4447293456899344,-0.00984570058188361,-0.17377653226582412,-0.0024847478908229803,-0.2655240299729613
740,0.7286,830.494,65.3616,-0.422091,232.777,-4.72885,-1.21843,0.501784,-0.191097,-0.308923,0.368309,-0.00990491,-0.00248978,0.546926,0.6516652146642765,0.4452885641485087,-0.00985601793593005,-0.17394754282344171,-0.002486683068534945,-0.2657626958779098
741,0.7296,830.602,65.6058,-0.440194,232.75,-4.65552,-1.25103,0.502314,-0.191302,-0.309249,0.368696,-0.00991314,-0.00249255,0.547508,0.652540829245416,0.4458479990665085,-0.009864166787369899,-0.1741168662209217,-0.0024894461765959663,-0.2660020182273911
742,0.7306,830.514,65.3359,-0.424761,232.735,-4.71719,-1.21514,0.502845,-0.191508,-0.309573,0.369083,-0.00992353,-0.00249447,0.54809,0.6534185614430197,0.44640765052772013,-0.009874454245233477,-0.1742869806240951,-0.002491361395020708,-0.2662397950515599
743,0.7316,830.622,65.5825,-0.443114,232.708,-4.64321,-1.24812,0.503375,-0.191712,-0.309899,0.369469,-0.0099317,-0.00249723,0.548671,0.654295105544253,0.4469660716491668,-0.009882543537897526,-0.1744554088997795,-0.002494114515063983,-0.2664789618920599
744,0.7326,830.533,65.3101,-0.427445,232.694,-4.70557,-1.2119,0.503905,-0.191919,-0.310223,0.369855,-0.00994207,-0.00249914,0.549252,0.6551721143369924,0.4475247083627729,-0.009892811002684132,-0.17462627894447746,-0.002496019749485767,-0.26671658421151245
745,0.7336,830.643,65.5589,-0.446031,232.666,-4.63103,-1.24521,0.504435,-0.192122,-0.310548,0.37024,-0.00995019,-0.0025019,0.549833,0.6560495880675892,0.44808211266893627,-0.009900850640417791,-0.1747938128045896,-0.0024987728566719936,-0.26695486259930834
746,0.7346,830.553,65.2844,-0.430157,232.652,-4.694,-1.20871,0.504964,-0.192329,-0.310872,0.370626,-0.00996052,-0.0025038,0.550413,0.6569258700558278,0.44864118025752964,-0.00991107831180471,-0.174964612806929,-0.0025006681072030634,-0.26719233075190807
747,0.7356,830.663,65.535,-0.448965,232.624,-4.61898,-1.24231,0.505493,-0.192532,-0.311197,0.371011,-0.00996859,-0.00250655,0.550993,0.6578026157198698,0.4491990144881277,-0.009919068297163047,-0.17513207799223773,-0.0025034112265939212,-0.26743045454720094
748,0.7366,830.573,65.2586,-0.432902,232.609,-4.68246,-1.20556,0.506022,-0.192738,-0.31152,0.371396,-0.00997889,-0.00250843,0.551573,0.6586798253050643,0.44975706352625244,-0.009929266078240961,-0.17530198328332558,-0.0025052865184180817,-0.26766703630037225
749,0.7376,830.684,65.5107,-0.451892,232.581,-4.60706,-1.2394,0.50655,-0.192942,-0.311845,0.37178,-0.00998692,-0.00251118,0.552152,0.6595558395002212,0.45031387714001814,-0.009937216314314101,-0.17547020451958628,-0.002508029625108321,-0.2679050058414295
750,0.7386,830.594,65.2328,-0.435685,232.567,-4.67096,-1.20246,0.507079,-0.193147,-0.312168,0.372165,-0.00999719,-0.00251305,0.552732,0.6604339767861507,0.4508723554828997,-0.009947384206890342,-0.17563921580341124,-0.002509894933348855,-0.26814143433928483
751,0.7396,830.705,65.486,-0.454823,232.539,-4.59527,-1.2365,0.507606,-0.193351,-0.312492,0.372549,-0.0100052,-0.00251578,0.55331,0.6613092561077609,0.45142959745101563,-0.009955314496582046,-0.17580736825125454,-0.0025126180776186002,-0.26837851810491486
752,0.7406,830.614,65.207,-0.438475,232.524,-4.65951,-1.19942,0.508134,-0.193556,-0.312814,0.372933,-0.0100154,-0.00251764,0.553889,0.6621866590089678,0.451987053441137,-0.009965412900872161,-0.17597631042359874,-0.0025144734024235005,-0.2686140622974349
753,0.7416,830.726,65.461,-0.457783,232.496,-4.58363,-1.23361,0.508661,-0.193759,-0.313138,0.373316,-0.0100233,-0.00252037,0.554467,0.6630628622375374,0.4525432709914665,-0.00997323414321627,-0.17614357025513538,-0.0025171965341941327,-0.26885099295641113
754,0.7426,830.635,65.1812,-0.441306,232.481,-4.64809,-1.19642,0.509188,-0.193965,-0.31346,0.373699,-0.0100335,-0.00252222,0.555045,0.6639395273469033,0.45309970161391866,-0.009983332364727038,-0.1763132672002774,-0.0025190418756735333,-0.2690863850365204
755,0.7436,830.747,65.4355,-0.460724,232.452,-4.57212,-1.23071,0.509715,-0.194167,-0.313783,0.374082,-0.0100414,-0.00252494,0.555622,0.664816654580541,0.45365634539011546,-0.00999115346550794,-0.17647963511657772,-0.0025217550201898087,-0.2693224320105151
756,0.7446,830.656,65.1553,-0.444174,232.437,-4.63672,-1.19348,0.510241,-0.194372,-0.314105,0.374465,-0.0100516,-0.00252678,0.556199,0.6656925784886423,0.4542132024017105,-0.010001251504242581,-0.17664843948833953,-0.0025235903784720515,-0.2695576723116867
757,0.7456,830.768,65.4097,-0.463677,232.409,-4.56075,-1.22782,0.510767,-0.194575,-0.314428,0.374848,-0.0100594,-0.00252949,0.556776,0.6665689632539145,0.4547702727303886,-0.010008973464365134,-0.176815562891524,-0.002526293535879298,-0.26979356708447333
758,0.7466,830.677,65.1295,-0.447078,232.393,-4.62539,-1.19059,0.511293,-0.19478,-0.31475,0.37523,-0.0100696,-0.00253132,0.557352,0.6674458091188318,0.455326101131037,-0.010019071321336614,-0.1769842984051503,-0.0025281189110919478,-0.270028655704573
759,0.7476,830.789,65.3835,-0.466628,232.365,-4.54952,-1.22493,0.511819,-0.194982,-0.315072,0.375612,-0.0100774,-0.00253402,0.557928,0.6683231163259962,0.455882141898694,-0.010026793142465129,-0.17715053078683662,-0.00253081208153505,-0.2702636686383232
760,0.7486,830.698,65.1036,-0.449994,232.349,-4.6141,-1.18776,0.512344,-0.195187,-0.315393,0.375994,-0.0100874,-0.00253584,0.558504,0.6691992159180873,0.45643839511449946,-0.010036692825035276,-0.17731919763908222,-0.0025326274738051158,-0.2704978764083321
761,0.7496,830.81,65.3569,-0.469599,232.32,-4.53843,-1.22204,0.512869,-0.195389,-0.315716,0.376375,-0.0100952,-0.00253853,0.559079,0.670075775583223,0.45699340386549125,-0.010044414508716626,-0.17748536237795554,-0.0025353106574282913,-0.27073346754423555
762,0.7506,830.72,65.0778,-0.452947,232.305,-4.60286,-1.18497,0.513394,-0.195594,-0.316036,0.376756,-0.0101053,-0.00254034,0.559655,0.6709527955630048,0.4575486241151052,-0.010054413009637608,-0.1776539605967602,-0.002537116066882117,-0.27096679550015734
763,0.7516,830.831,65.33,-0.472583,232.276,-4.52749,-1.21916,0.513918,-0.195796,-0.316358,0.377137,-0.010113,-0.00254302,0.560229,0.6718286042697212,0.45810405594393755,-0.010062035561310467,-0.17782005772034537,-0.0025397892638289177,-0.2712015064015232
764,0.7526,830.741,65.0519,-0.45592,232.26,-4.59168,-1.18224,0.514442,-0.196,-0.316678,0.377518,-0.010123,-0.00254482,0.560804,0.6727048720204591,0.4586596994326153,-0.01007193489145819,-0.17798776532181348,-0.0025415846905924022,-0.2714346846089718
765,0.7536,830.852,65.3026,-0.475552,232.231,-4.5167,-1.21628,0.514966,-0.196202,-0.317,0.377898,-0.0101307,-0.00254749,0.561378,0.6735815990558205,0.4592140954469712,-0.010079557308213194,-0.17815379502365403,-0.002544247901005936,-0.27166924487429833
766,0.7546,830.763,65.026,-0.458946,232.215,-4.58053,-1.17956,0.515489,-0.196406,-0.31732,0.378278,-0.0101407,-0.00254929,0.561952,0.6744571111585851,0.45976870217184507,-0.010089456463144186,-0.1783214345496561,-0.0025460433197438403,-0.2719022734293812
767,0.7556,830.873,65.2749,-0.478525,232.186,-4.50604,-1.21341,0.516013,-0.196607,-0.317641,0.378658,-0.0101483,-0.00255194,0.562525,0.6753347566078582,0.4603235196873219,-0.010096979754686597,-0.17848657534410584,-0.002548686569226688,-0.2721359552916649
768,0.7566,830.785,65.0,-0.462004,232.17,-4.56945,-1.17694,0.516536,-0.196811,-0.317961,0.379038,-0.0101582,-0.00255373,0.563098,0.676211185851834,0.4608785480735176,-0.010106779746076988,-0.1786541469898466,-0.0025504720054797536,-0.2723688345233073
769,0.7576,830.894,65.2468,-0.481527,232.14,-4.49553,-1.21054,0.517058,-0.197013,-0.318281,0.379417,-0.0101659,-0.00255638,0.563671,0.6770863965009546,0.4614323259775215,-0.010114401894527614,-0.17882004209618485,-0.0025531152432266557,-0.2726016392455176
770,0.7586,830.807,64.9741,-0.465074,232.124,-4.55842,-1.17436,0.517581,-0.197216,-0.3186,0.379796,-0.0101758,-0.00255816,0.564244,0.6779637420921985,0.4619863138031288,-0.01012420171343964,-0.17898672470878174,-0.002554890697101353,-0.27283364231614116
771,0.7596,830.916,65.2184,-0.484523,232.094,-4.48517,-1.20769,0.518103,-0.197417,-0.318921,0.380175,-0.0101834,-0.00256079,0.564815,0.6788398678144898,0.4625405116299144,-0.010131724740919057,-0.17915173179334776,-0.0025575139742892716,-0.27306702525699167
772,0.7606,830.83,64.9481,-0.468164,232.078,-4.54744,-1.17184,0.518624,-0.197621,-0.31924,0.380553,-0.0101932,-0.00256257,0.565387,0.679714771278183,0.46309345644329647,-0.010141425402483306,-0.17931916776101253,-0.002559289420334232,-0.27329887989315405
773,0.7616,830.937,65.1895,-0.487513,232.048,-4.47495,-1.20484,0.519146,-0.197822,-0.319559,0.380932,-0.0102008,-0.00256519,0.565959,0.680591811276315,0.4636480739566684,-0.01014894829906321,-0.17948410803124004,-0.002561902711572528,-0.27353066057948316
774,0.7626,830.852,64.922,-0.471298,232.032,-4.53653,-1.16937,0.519667,-0.198025,-0.319878,0.38131,-0.0102106,-0.00256697,0.56653,0.6814676277403677,0.46420143750774634,-0.010158648791837366,-0.17965065585213402,-0.002563678149805515,-0.27376236733956516
775,0.7636,830.959,65.1603,-0.490543,232.002,-4.46488,-1.202,0.520188,-0.198226,-0.320198,0.381687,-0.0102181,-0.00256957,0.567101,0.6823439006236851,0.46475354551550696,-0.010166072574132268,-0.17981552949995105,-0.002566271480871074,-0.27399472620261567
776,0.7646,830.875,64.8959,-0.474483,231.985,-4.52567,-1.16696,0.520709,-0.198429,-0.320516,0.382065,-0.0102279,-0.00257135,0.567671,0.6832206301641237,0.46530732701382105,-0.01017577289908933,-0.17998201004911507,-0.002568046911327615,-0.27422555917529534
777,0.7656,830.98,65.1307,-0.493552,231.955,-4.45495,-1.19917,0.521229,-0.19863,-0.320835,0.382442,-0.0102354,-0.00257393,0.568241,0.6840961325026893,0.46585985202052504,-0.010183196552953855,-0.18014681710143154,-0.0025706202824469226,-0.27445704429807827
778,0.7666,830.898,64.8697,-0.477684,231.938,-4.51489,-1.16459,0.521749,-0.198832,-0.321153,0.382819,-0.0102451,-0.0025757,0.568811,0.6849720902208589,0.4664125853684262,-0.01019279772938153,-0.18031241071885862,-0.002572385730886695,-0.2746877302769769
779,0.7676,831.002,65.1008,-0.496584,231.908,-4.44516,-1.19635,0.522269,-0.199033,-0.321471,0.383196,-0.0102526,-0.00257828,0.569381,0.6858485035554922,0.4669655271360842,-0.010200221255560304,-0.18047715136731435,-0.002574959090811846,-0.2749183429093969
780,0.7686,830.921,64.8434,-0.480925,231.891,-4.50417,-1.16228,0.522788,-0.199236,-0.321789,0.383572,-0.0102622,-0.00258005,0.56995,0.686723686019042,0.46751720988414447,-0.010209723287826433,-0.18064349762087084,-0.0025767245315718723,-0.27514888221865874
781,0.7696,831.023,65.0705,-0.499623,231.861,-4.43551,-1.19354,0.523308,-0.199436,-0.322107,0.383948,-0.0102697,-0.00258261,0.570519,0.6876010104203472,0.4680691001039201,-0.010217146687063972,-0.180807352535309,-0.0025792779318886128,-0.2753793482280755
782,0.7706,830.945,64.8171,-0.484169,231.843,-4.49352,-1.16001,0.523827,-0.199638,-0.322424,0.384324,-0.0102793,-0.00258437,0.571087,0.688477102671029,0.46862119787343537,-0.01022664855684674,-0.18097281273805377,-0.0025810333908147243,-0.27560901657033177
783,0.7716,831.045,65.0399,-0.502666,231.813,-4.42601,-1.19075,0.524345,-0.199838,-0.322742,0.3847,-0.0102868,-0.00258692,0.571655,0.6893519603787965,0.4691735032707436,-0.010234071829145264,-0.1811366017960544,-0.0025835768059366826,-0.27583933628028756
784,0.7726,830.968,64.7906,-0.487475,231.795,-4.48295,-1.1578,0.524864,-0.20004,-0.323059,0.385076,-0.0102963,-0.00258868,0.572223,0.6902289616083666,0.4697260163739274,-0.01024347456079977,-0.1813019954971654,-0.002585332257296735,-0.27606885882944066
785,0.7736,831.067,65.0089,-0.505716,231.765,-4.41665,-1.18797,0.525382,-0.20024,-0.323377,0.385451,-0.0103038,-0.00259121,0.572791,0.6911047270141375,0.470277266983097,-0.010250897706903794,-0.18146571872519746,-0.00258785571321396,-0.2762990323328063
786,0.7746,830.992,64.7641,-0.490799,231.747,-4.47246,-1.15563,0.5259,-0.200442,-0.323693,0.385826,-0.0103132,-0.00259297,0.573358,0.6919809461839033,0.47082872435000955,-0.01026020130473837,-0.1816310459514029,-0.002589611157043037,-0.27652768570945285
787,0.7756,831.089,64.9777,-0.508777,231.717,-4.40743,-1.18521,0.526417,-0.200642,-0.32401,0.3862,-0.0103207,-0.00259549,0.573925,0.6928559264960015,0.4713789171725611,-0.010267624325392188,-0.18179470337592463,-0.002592124628056025,-0.27675699008641896
788,0.7766,831.016,64.7375,-0.494152,231.698,-4.46205,-1.15351,0.526934,-0.200844,-0.324327,0.386574,-0.0103301,-0.00259725,0.574492,0.6937313592898777,0.4719293158057123,-0.010276927765997312,-0.18195996415394222,-0.0025938800643718896,-0.27698622178541765
789,0.7776,831.111,64.9461,-0.511844,231.668,-4.39834,-1.18247,0.527451,-0.201043,-0.324643,0.386948,-0.0103376,-0.00259975,0.575058,0.6946072447995253,0.47247992032645114,-0.010284350661203145,-0.18212273792454825,-0.0025963735765548446,-0.27721465804450374
790,0.7786,831.04,64.7107,-0.497514,231.649,-4.45172,-1.15144,0.527968,-0.201245,-0.324959,0.387322,-0.0103469,-0.00260151,0.575624,0.6954835832590587,0.47303073081179337,-0.01029355497394191,-0.18228793244627906,-0.00259812900539258,-0.27744302212913596
791,0.7796,831.134,64.9141,-0.514957,231.619,-4.3894,-1.17975,0.528484,-0.201444,-0.325276,0.387696,-0.0103543,-0.00260399,0.576189,0.696358678543187,0.47358174733878466,-0.010300878774537003,-0.18245064095768837,-0.002600602558965437,-0.2776720363904428
792,0.7806,831.064,64.6838,-0.50094,231.6,-4.44148,-1.14941,0.529,-0.201645,-0.325591,0.388069,-0.0103636,-0.00260575,0.576755,0.6972342254930017,0.474131495852266,-0.010310082933564946,-0.1826149518650565,-0.002602357980360126,-0.27789953386624633
793,0.7816,831.156,64.8818,-0.518067,231.57,-4.38059,-1.17705,0.529516,-0.201845,-0.325907,0.388442,-0.0103711,-0.00260822,0.57732,0.6981102243416224,0.47468144946019075,-0.010317505580108022,-0.18277841252807236,-0.0026048215494933746,-0.2781276815643098
794,0.7826,831.089,64.6568,-0.504383,231.55,-4.43134,-1.14744,0.530032,-0.202046,-0.326222,0.388815,-0.0103803,-0.00260998,0.577884,0.6989866753222889,0.47523160823907307,-0.010326610617173437,-0.18294265755997552,-0.00260657696346267,-0.2783550355344867
795,0.7836,831.178,64.8493,-0.521178,231.52,-4.37192,-1.17438,0.530547,-0.202245,-0.326538,0.389188,-0.0103877,-0.00261243,0.578448,0.6998618788056332,0.47578197226545615,-0.010333934173157644,-0.18310523579405025,-0.002609020574355747,-0.278583039316763
796,0.7846,831.113,64.6296,-0.507847,231.5,-4.42129,-1.1455,0.531062,-0.202446,-0.326852,0.38956,-0.0103969,-0.00261419,0.579013,0.7007375331348542,0.4763310652841082,-0.010343039059080739,-0.18326941514107853,-0.002610775980934732,-0.27880952868172626
797,0.7856,831.201,64.8165,-0.524303,231.47,-4.36338,-1.17172,0.531577,-0.202644,-0.327168,0.389932,-0.0104043,-0.00261662,0.579576,0.7016136385421972,0.47688036260336086,-0.010350362493494969,-0.18343111178838423,-0.002613199633804353,-0.27903738886685747
798,0.7866,831.138,64.6022,-0.511353,231.45,-4.41134,-1.14361,0.532091,-0.202845,-0.327482,0.390304,-0.0104134,-0.00261839,0.58014,0.7024884927706834,0.47742986429922785,-0.010359368264220015,-0.18359522564092012,-0.0026149650068786334,-0.2792637355884583
799,0.7876,831.224,64.7833,-0.527437,231.42,-4.35497,-1.1691,0.532606,-0.203044,-0.327797,0.390675,-0.0104208,-0.0026208,0.580703,0.7033655001544781,0.4779780924689201,-0.01036669157779857,-0.18375767402686705,-0.0026173687019165337,-0.27949073175797423
800,0.7886,831.163,64.5747,-0.514869,231.399,-4.40149,-1.14176,0.533119,-0.203244,-0.328111,0.391046,-0.0104299,-0.00262257,0.581265,0.7042395508308872,0.4785265240689973,-0.010375697199929479,-0.18392090616830348,-0.002619134067611606,-0.2797169361522538
801,0.7896,831.246,64.7499,-0.530581,231.369,-4.34669,-1.1665,0.533633,-0.203443,-0.328426,0.391417,-0.0104373,-0.00262497,0.581828,0.7051157551252272,0.47907515917494625,-0.010383020392674358,-0.18408328975027366,-0.002621527778817412,-0.27994378958607413
802,0.7906,831.188,64.5469,-0.518431,231.348,-4.39175,-1.13996,0.534146,-0.203643,-0.328739,0.391788,-0.0104463,-0.00262674,0.58239,0.7059907039127822,0.4796239978622814,-0.010391926905411464,-0.18424645677507723,-0.0026232931371509283,-0.28016913191202
803,0.7916,831.269,64.7163,-0.533781,231.318,-4.33854,-1.16393,0.53466,-0.203841,-0.329054,0.392158,-0.0104537,-0.00262912,0.582952,0.7068678085311695,0.4801715600342453,-0.010399249978056968,-0.1844079599872901,-0.0026256668908885006,-0.28039584292660835
804,0.7926,831.213,64.519,-0.52201,231.297,-4.38212,-1.13819,0.535172,-0.204041,-0.329367,0.392529,-0.0104627,-0.00263089,0.583513,0.7077419486099017,0.48072080556176355,-0.01040815634472847,-0.18457106208453922,-0.0026274322418957663,-0.2806210437819999
805,0.7936,831.292,64.6823,-0.536996,231.266,-4.33052,-1.1614,0.535685,-0.204239,-0.329681,0.392898,-0.01047,-0.00263325,0.584074,0.7086182449803398,0.4812672923596293,-0.010415380338819613,-0.18473250103126337,-0.002629786038378157,-0.28084689331402013
806,0.7946,831.239,64.4909,-0.525624,231.245,-4.3726,-1.13646,0.536197,-0.204439,-0.329994,0.393268,-0.0104789,-0.00263503,0.584635,0.7094932815120065,0.48181546266305464,-0.010424187602742108,-0.18489553822679416,-0.002631561355778911,-0.2810719530127326
807,0.7956,831.316,64.6481,-0.540209,231.214,-4.32263,-1.15889,0.536709,-0.204637,-0.330307,0.393637,-0.0104863,-0.00263737,0.585196,0.7103687661770897,0.48236235346392475,-0.010431510436659353,-0.18505691293360205,-0.0026338951951947465,-0.28129694227878266
808,0.7966,831.264,64.4625,-0.529212,231.193,-4.3632,-1.13477,0.537221,-0.204837,-0.33062,0.394007,-0.0104952,-0.00263915,0.585756,0.7112446992050923,0.48291092901492494,-0.010440317557024792,-0.18521988525324007,-0.002635670505281351,-0.2815218611342123
809,0.7976,831.339,64.6137,-0.543471,231.162,-4.31486,-1.15643,0.537732,-0.205035,-0.330933,0.394375,-0.0105025,-0.00264148,0.586316,0.7121193687054106,0.48345674065998545,-0.010447541316339848,-0.18538119574569423,-0.0026379943614617263,-0.2817467096010565
810,0.7986,831.29,64.434,-0.532901,231.14,-4.35392,-1.13311,0.538243,-0.205234,-0.331245,0.394744,-0.0105113,-0.00264326,0.586875,0.7129944852760604,0.48400423720418906,-0.010456249339660939,-0.1855432887589511,-0.002639769664251723,-0.28197076967247225
811,0.7996,831.362,64.579,-0.546733,231.11,-4.30721,-1.15399,0.538754,-0.205432,-0.331558,0.395112,-0.0105187,-0.00264557,0.587434,0.7138700491455525,0.4845504512607024,-0.010463571936322191,-0.18570453522385,-0.002642073563722813,-0.2821954776529313
812,0.8006,831.316,64.4051,-0.536538,231.087,-4.34477,-1.1315,0.539265,-0.205631,-0.33187,0.395481,-0.0105274,-0.00264735,0.587994,0.7147460605425158,0.4850983514585874,-0.010472180865797376,-0.1858665638989525,-0.0026438488592518405,-0.282419397730555
813,0.8016,831.386,64.5441,-0.550013,231.057,-4.29969,-1.15159,0.539775,-0.205828,-0.332182,0.395848,-0.0105348,-0.00264964,0.588552,0.7156208040740331,0.4856434825790146,-0.010479503344565821,-0.18602693238904955,-0.0026461328022229225,-0.28264324795601203
814,0.8026,831.342,64.3761,-0.540231,231.034,-4.33574,-1.12992,0.540285,-0.206027,-0.332494,0.396216,-0.0105435,-0.00265143,0.58911,0.7164959938385309,0.4861902999888361,-0.010488112135438432,-0.18618889691349938,-0.0026479180640474054,-0.2828670283510928
815,0.8036,831.41,64.5089,-0.553303,231.004,-4.2923,-1.14924,0.540795,-0.206224,-0.332806,0.396583,-0.0105508,-0.00265371,0.589668,0.7173716300636466,0.4867358319279196,-0.010495335545854356,-0.18634920191024684,-0.002650192024201803,-0.2830907389375811
816,0.8046,831.368,64.3468,-0.543938,230.98,-4.32684,-1.12838,0.541305,-0.206423,-0.333117,0.39695,-0.0105594,-0.0026555,0.590226,0.718247712977133,0.48728156411396806,-0.010503845249376864,-0.18651110230944268,-0.00265197727876032,-0.28331366305127503
817,0.8056,831.434,64.4735,-0.556632,230.95,-4.28502,-1.14692,0.541814,-0.20662,-0.333429,0.397317,-0.0105668,-0.00265776,0.590783,0.7191225236834757,0.4878274966204852,-0.010511167493829632,-0.1866713438379789,-0.002654231282744668,-0.2835372343094731
818,0.8066,831.394,64.3171,-0.547726,230.926,-4.31807,-1.12687,0.542323,-0.206819,-0.33374,0.397684,-0.0105754,-0.00265955,0.59134,0.7199977797818109,0.4883736295210024,-0.010519677061198052,-0.18683318013730932,-0.0026560165300728578,-0.2837600195846969
819,0.8076,831.458,64.4379,-0.559984,230.896,-4.27787,-1.14464,0.542832,-0.207016,-0.334051,0.39805,-0.0105827,-0.00266179,0.591897,0.7208734814989004,0.4889184739698591,-0.01052690024119085,-0.18699335822276286,-0.002658250578093657,-0.28398273558447296
820,0.8086,831.42,64.2873,-0.551472,230.872,-4.30944,-1.1254,0.54334,-0.207214,-0.334362,0.398416,-0.0105912,-0.00266359,0.592454,0.7217479073128539,0.48946351786828113,-0.010535310726794145,-0.18715431760233037,-0.0026600457916269304,-0.28420538233034265
821,0.8096,831.482,64.4021,-0.563346,230.841,-4.27083,-1.1424,0.543848,-0.207411,-0.334672,0.398782,-0.0105986,-0.00266581,0.59301,0.7226227774479685,0.4900087612892805,-0.01054263273840328,-0.18731443242993429,-0.0026622598838677014,-0.2844272442714427
822,0.8106,831.447,64.2571,-0.555283,230.817,-4.30095,-1.12396,0.544356,-0.207609,-0.334983,0.399147,-0.0106071,-0.00266761,0.593566,0.7234980921300174,0.49055271375243636,-0.010551043090280987,-0.18747532824310198,-0.002664055090184192,-0.2846497527966051
823,0.8116,831.507,64.3661,-0.566771,230.787,-4.26391,-1.14021,0.544864,-0.207806,-0.335293,0.399512,-0.0106144,-0.00266982,0.594121,0.7243738515848877,0.49109686479448,-0.01055826604130261,-0.1876353798378384,-0.0026662592001869267,-0.28487147700421034
824,0.8126,831.474,64.2267,-0.559085,230.762,-4.2926,-1.12255,0.545371,-0.208004,-0.335603,0.399877,-0.0106228,-0.00267162,0.594676,0.7252483307893876,0.49164121448790565,-0.010566577316960535,-0.1877962121097102,-0.00266805439930462,-0.285093132487964
825,0.8136,831.531,64.3299,-0.570191,230.731,-4.25712,-1.13806,0.545878,-0.2082,-0.335913,0.400242,-0.0106302,-0.00267382,0.595231,0.726123253467255,0.4921857629052342,-0.010573899097197748,-0.1879553884523455,-0.0026702485271714593,-0.28531471926916707
826,0.8146,831.5,64.1959,-0.562941,230.707,-4.28439,-1.12118,0.546385,-0.208398,-0.336223,0.400607,-0.0106385,-0.00267562,0.595786,0.7269986198433882,0.49273051011901337,-0.010582111299754504,-0.18811615736878395,-0.0026720437191084523,-0.28553623736911415
827,0.8156,831.556,64.2934,-0.573666,230.676,-4.25044,-1.13596,0.546892,-0.208594,-0.336533,0.400971,-0.0106459,-0.0026778,0.59634,0.7278744301427993,0.49327396292710746,-0.010589432965040668,-0.18827527100829367,-0.002674217891683206,-0.2857576868090931
828,0.8166,831.527,64.1649,-0.566773,230.651,-4.27633,-1.11984,0.547398,-0.208792,-0.336842,0.401335,-0.0106542,-0.00267961,0.596894,0.728748955840794,0.49381761358803056,-0.010597645038666892,-0.18843597659425604,-0.0026760230497151483,-0.28597835358909574
829,0.8176,831.581,64.2568,-0.577125,230.62,-4.24388,-1.1339,0.547904,-0.208988,-0.337151,0.401698,-0.0106615,-0.00268178,0.597447,0.7296239241607656,0.49435996781309943,-0.010604867649495642,-0.1885950275553402,-0.002678187240397034,-0.28619895219359714
830,0.8186,831.555,64.1335,-0.570671,230.594,-4.26842,-1.11853,0.54841,-0.209185,-0.33746,0.402062,-0.0106698,-0.00268358,0.598001,0.7304993353267379,0.4949040138517553,-0.010613079595014452,-0.1887548585910378,-0.0026799824180443466,-0.28641948264366
831,0.8196,831.606,64.2199,-0.580663,230.564,-4.23744,-1.13189,0.548915,-0.209381,-0.337769,0.402425,-0.0106771,-0.00268573,0.598554,0.7313734581885236,0.4954467625117056,-0.01062030209317133,-0.18891384705737535,-0.002682126653777095,-0.28663994496034106
832,0.8206,831.582,64.1018,-0.574566,230.538,-4.26066,-1.11725,0.549421,-0.209578,-0.338078,0.402788,-0.0106853,-0.00268755,0.599106,0.7322497548427236,0.4959897082251823,-0.010628414973431255,-0.1890736152918172,-0.0026839417706547852,-0.2868603391646901
833,0.8216,831.632,64.183,-0.584134,230.507,-4.23112,-1.12993,0.549926,-0.209774,-0.338387,0.403151,-0.0106926,-0.00268968,0.599659,0.7331247618896028,0.496532851063729,-0.010635637359640238,-0.18923254128796363,-0.002686066051596492,-0.28708066527775067
834,0.8226,831.609,64.0698,-0.578509,230.481,-4.25305,-1.11601,0.55043,-0.209971,-0.338695,0.403513,-0.0107008,-0.0026915,0.600211,0.7339984769272898,0.49707469402347293,-0.010643750114151529,-0.18939224674582578,-0.002687881161304473,-0.28730021062112676
835,0.8236,831.657,64.1458,-0.58776,230.45,-4.22491,-1.12802,0.550935,-0.210167,-0.339003,0.403875,-0.0107081,-0.00269362,0.600763,0.7348743673018432,0.49761673316587474,-0.010650972388414393,-0.1895511102963271,-0.0026899954607553234,-0.28751968835494934
836,0.8246,831.637,64.0374,-0.582467,230.423,-4.24559,-1.11479,0.551439,-0.210363,-0.339311,0.404237,-0.0107162,-0.00269543,0.601314,0.7357489643629092,0.4981589685619663,-0.010658986083082467,-0.18970994271262376,-0.002691800590229887,-0.2877390985000391
837,0.8256,831.683,64.1084,-0.591335,230.392,-4.21882,-1.12616,0.551943,-0.210559,-0.339619,0.404599,-0.0107236,-0.00269754,0.601865,0.7366240023319934,0.49870140028280363,-0.010666307179497458,-0.18986874400081744,-0.0026939049083105626,-0.28795844107721025
838,0.8266,831.664,64.0047,-0.586438,230.365,-4.2383,-1.11361,0.552447,-0.210755,-0.339927,0.40496,-0.0107316,-0.00269936,0.602416,0.7374994814313698,0.4992425291561906,-0.010674221817381424,-0.1900275141670087,-0.0026957200037519558,-0.2881777161072704
839,0.8276,831.709,64.0708,-0.594943,230.334,-4.21285,-1.12435,0.55295,-0.210951,-0.340235,0.405321,-0.010739,-0.00270145,0.602967,0.7383736635088909,0.4997838534123653,-0.010681542801052268,-0.19018625321729687,-0.0026978043675189856,-0.2883969236110209
840,0.8286,831.692,63.9717,-0.590396,230.307,-4.23116,-1.11246,0.553453,-0.211147,-0.340542,0.405682,-0.010747,-0.00270327,0.603517,0.7392482854106035,0.500325373121874,-0.010689457317051732,-0.1903449611577801,-0.002699619455863278,-0.2886153522249646
841,0.8296,831.735,64.033,-0.598631,230.276,-4.207,-1.12259,0.553956,-0.211342,-0.340849,0.406042,-0.0107543,-0.00270535,0.604067,0.7401233473577948,0.5008655874889496,-0.010696679257653274,-0.19050282849778843,-0.0027016938384973876,-0.28883371379161593
842,0.8306,831.72,63.9383,-0.594386,230.248,-4.22418,-1.11133,0.554459,-0.211538,-0.341156,0.406403,-0.0107623,-0.00270718,0.604617,0.7409988495718636,0.5014074977749545,-0.01070459365256149,-0.190661474395597,-0.0027035188927277964,-0.28905200833155553
843,0.8316,831.761,63.995,-0.602312,230.217,-4.20127,-1.12088,0.554961,-0.211733,-0.341463,0.406763,-0.0107696,-0.00270925,0.605166,0.7418730504003981,0.5019481017770353,-0.010711815482668197,-0.19081928002154125,-0.0027055832943070346,-0.2892702358653574
844,0.8326,831.748,63.9046,-0.598488,230.189,-4.21736,-1.11024,0.555463,-0.211929,-0.341769,0.407123,-0.0107775,-0.00271107,0.605715,0.7427476901879182,0.5024889004315922,-0.010719630828455173,-0.1909778639009292,-0.002707398368493652,-0.2894876859016302
845,0.8336,831.788,63.9569,-0.606009,230.158,-4.19566,-1.11922,0.555965,-0.212124,-0.342076,0.407482,-0.0107848,-0.00271312,0.606264,0.7436227691548363,0.5030283907795705,-0.0107268525487908,-0.19113560783693484,-0.002709442816231533,-0.289705779702947
846,0.8346,831.776,63.8705,-0.602482,230.13,-4.21071,-1.10918,0.556467,-0.21232,-0.342382,0.407841,-0.0107927,-0.00271495,0.606812,0.7444982875216759,0.5035680748393527,-0.010734667775785467,-0.19129412972214666,-0.0027112678562811743,-0.2899230964831948
847,0.8356,831.814,63.9185,-0.609775,230.098,-4.19017,-1.11763,0.556968,-0.212514,-0.342689,0.4082,-0.0108,-0.00271699,0.60736,0.7453725001356983,0.5041079526804944,-0.010741889386351788,-0.19145100344373756,-0.0027133023232196463,-0.2901410566339795
848,0.8366,831.804,63.8361,-0.606603,230.07,-4.20421,-1.10815,0.557469,-0.21271,-0.342994,0.408559,-0.0108079,-0.00271882,0.607908,0.7462471508399728,0.5046480243725748,-0.010749704494555923,-0.191609463517468,-0.0027151273562064926,-0.2903575305977485
849,0.8376,831.841,63.88,-0.613601,230.038,-4.1848,-1.11607,0.55797,-0.212904,-0.3433,0.408918,-0.0108152,-0.00272085,0.608456,0.7471222398540376,0.5051882899851996,-0.010756925995354605,-0.19176627607023622,-0.002717151842443144,-0.290574647972733
850,0.8386,831.833,63.8013,-0.610678,230.01,-4.19788,-1.10716,0.55847,-0.2131,-0.343606,0.409276,-0.010823,-0.00272268,0.609003,0.7479960194006476,0.5057272438600016,-0.010764642061239171,-0.19192467435658733,-0.002718976868385292,-0.2907916989199648
851,0.8396,831.868,63.8412,-0.617385,229.978,-4.17955,-1.11458,0.558971,-0.213294,-0.343911,0.409634,-0.0108303,-0.0027247,0.60955,0.7488719848173817,0.5062663907148324,-0.01077186345299408,-0.19208142576438392,-0.0027209913740173786,-0.29100797446809656
852,0.8406,831.861,63.7662,-0.614771,229.949,-4.19172,-1.10619,0.559471,-0.213489,-0.344217,0.409992,-0.0108381,-0.00272653,0.610096,0.7497466394552281,0.5068057306187908,-0.010779579402366846,-0.1922389545268064,-0.0027228163929332583,-0.29122489283770614
853,0.8416,831.896,63.8023,-0.621251,229.917,-4.17443,-1.11314,0.55997,-0.213683,-0.344522,0.410349,-0.0108454,-0.00272854,0.610643,0.7506199809088869,0.5073437562964909,-0.010786800685079534,-0.1923956449701637,-0.002724820918057813,-0.2914410362818398
854,0.8426,831.89,63.7307,-0.618958,229.888,-4.18572,-1.10526,0.56047,-0.213878,-0.344827,0.410706,-0.0108531,-0.00273037,0.611189,0.7514955097633149,0.5078819740836475,-0.010794417597389083,-0.19255311246581475,-0.002726645929965632,-0.29165711381227544
855,0.8436,831.923,63.7632,-0.625148,229.856,-4.16944,-1.11175,0.560969,-0.214072,-0.345132,0.411063,-0.0108604,-0.00273237,0.611734,0.752369724121029,0.5084203840488557,-0.010801638771783306,-0.19270974196844337,-0.0027286404746792448,-0.2918731254491135
856,0.8446,831.919,63.6948,-0.623162,229.826,-4.17989,-1.10437,0.561468,-0.214267,-0.345436,0.41142,-0.0108681,-0.0027342,0.61228,0.7532443748205657,0.5089589862607358,-0.010809255569840026,-0.19286714822115114,-0.0027304654795973216,-0.29208836330116583
857,0.8456,831.951,63.7238,-0.629091,229.794,-4.16457,-1.11041,0.561967,-0.214461,-0.345741,0.411776,-0.0108754,-0.00273619,0.612825,0.7541194620797143,0.5094962712909055,-0.010816476635917449,-0.19302371680675234,-0.0027324500439963595,-0.29230424342696637
858,0.8466,831.948,63.6587,-0.627222,229.764,-4.17423,-1.10349,0.562465,-0.214655,-0.346045,0.412132,-0.010883,-0.00273802,0.61337,0.7549932311222634,0.5100337476285965,-0.010823994402127446,-0.19318025502099412,-0.002734275041942902,-0.2925193502390725
859,0.8476,831.979,63.6843,-0.632996,229.732,-4.15982,-1.10914,0.562963,-0.214849,-0.346349,0.412488,-0.0108903,-0.00274,0.613914,0.7558674354101627,0.510571415341927,-0.010831215360611823,-0.19333676286976786,-0.0027362496261233993,-0.29273439166864634
860,0.8486,831.977,63.622,-0.63153,229.702,-4.16874,-1.10266,0.563461,-0.215044,-0.346653,0.412844,-0.0108979,-0.00274183,0.614458,0.7567420751602185,0.511109274499038,-0.010838733014807977,-0.19349404686532024,-0.002738074617116726,-0.29294936773556135
861,0.8496,832.007,63.6445,-0.637035,229.669,-4.1552,-1.10791,0.563959,-0.215237,-0.346957,0.413199,-0.0109052,-0.0027438,0.615002,0.757617150589345,0.5116458135215269,-0.010845953865700753,-0.19364968749447142,-0.002740039221174606,-0.2931642784596846
862,0.8506,832.006,63.585,-0.635821,229.639,-4.16342,-1.10186,0.564457,-0.215431,-0.34726,0.413555,-0.0109128,-0.00274564,0.615546,0.7584926619145644,0.5121840552324806,-0.01085347140788473,-0.19380610428217848,-0.002741874177814352,-0.29337841723964775
863,0.8516,832.035,63.6045,-0.641114,229.606,-4.15071,-1.10674,0.564954,-0.215625,-0.347564,0.413909,-0.01092,-0.0027476,0.616089,0.759366849985277,0.512719463149643,-0.01086059323725197,-0.193962490727972,-0.002743828801825443,-0.2935931975525453
864,0.8526,832.036,63.5478,-0.639961,229.575,-4.15827,-1.10109,0.565451,-0.215819,-0.347867,0.414264,-0.0109276,-0.00274943,0.616632,0.7602414726354452,0.5132565738905768,-0.010868110668177056,-0.19411884683773784,-0.0027456537789488644,-0.2938072063897107
865,0.8536,832.063,63.5644,-0.645139,229.543,-4.14636,-1.10564,0.565947,-0.216012,-0.34817,0.414618,-0.0109349,-0.00275138,0.617175,0.7611147689654583,0.513792361546554,-0.010875331304613822,-0.19427436689213007,-0.0027475984230279638,-0.29402115039202137
866,0.8546,832.065,63.5101,-0.644284,229.512,-4.15328,-1.10036,0.566444,-0.216206,-0.348473,0.414973,-0.0109424,-0.00275321,0.617717,0.761990260547271,0.5143298532340328,-0.010882749711810025,-0.1944306625037885,-0.0027494233932530143,-0.2942350295791195
867,0.8556,832.092,63.524,-0.649178,229.479,-4.14214,-1.10457,0.56694,-0.216399,-0.348776,0.415326,-0.0109496,-0.00275516,0.618259,0.762864424491239,0.5148645060328914,-0.010889871330374223,-0.19458612238356432,-0.002751368029981327,-0.29444884397064086
868,0.8566,832.095,63.472,-0.648654,229.447,-4.14848,-1.09967,0.567436,-0.216592,-0.349079,0.41568,-0.0109572,-0.00275699,0.618801,0.7637390221280704,0.5154008629976088,-0.010897388538786745,-0.19474155226247847,-0.002753192993308007,-0.2946625935862156
869,0.8576,832.121,63.4834,-0.653362,229.414,-4.13804,-1.10356,0.567932,-0.216785,-0.349381,0.416033,-0.0109644,-0.00275893,0.619343,0.7646140536729296,0.5159358939296506,-0.010904510051951699,-0.19489695214632075,-0.0027551276502369992,-0.2948755733213939
870,0.8586,832.125,63.4336,-0.652964,229.383,-4.14384,-1.09901,0.568427,-0.216979,-0.349683,0.416386,-0.0109719,-0.00276076,0.619884,0.7654877538524523,0.5164711137609501,-0.010911928240308066,-0.1950531269881548,-0.002756952606683516,-0.29508848874640337
871,0.8596,832.15,63.4426,-0.657436,229.35,-4.13409,-1.10261,0.568922,-0.217172,-0.349986,0.416739,-0.0109791,-0.00276269,0.620425,0.7663618866206208,0.5170065225582008,-0.010919049648787649,-0.19520846674387748,-0.002758877283907668,-0.2953020445789708
872,0.8606,832.155,63.3949,-0.657281,229.318,-4.13937,-1.0984,0.569417,-0.217365,-0.350287,0.417092,-0.0109865,-0.00276452,0.620965,0.7672364521916191,0.5175421203881192,-0.010926368820739274,-0.19536377652192027,-0.0027607022334924514,-0.29551412674358546
873,0.8616,832.179,63.4015,-0.661685,229.284,-4.13027,-1.10171,0.569912,-0.217557,-0.350589,0.417444,-0.0109937,-0.00276644,0.621506,0.7681114507797382,0.5180763892402971,-0.010933490125247025,-0.19551825184672234,-0.002762616931106021,-0.2957268493545778
874,0.8626,832.185,63.3558,-0.661659,229.252,-4.13508,-1.09781,0.570406,-0.21775,-0.350891,0.417796,-0.0110012,-0.00276827,0.622046,0.7689851136133761,0.5186108461882142,-0.010940908096253699,-0.1956735018420095,-0.0027644418738471677,-0.29593950773304134
875,0.8636,832.209,63.3601,-0.665928,229.219,-4.1266,-1.10087,0.5709,-0.217943,-0.351192,0.418148,-0.0110084,-0.00277019,0.622585,0.7698592081430742,0.5191454912980915,-0.010948029296079076,-0.19582872187693878,-0.002766356564280703,-0.29615139805012125
876,0.8646,832.215,63.3164,-0.666063,229.186,-4.13095,-1.09726,0.571394,-0.218136,-0.351494,0.418499,-0.0110158,-0.00277202,0.623125,0.7707337345821426,0.5196788049566088,-0.010955348253582131,-0.19598391195729203,-0.002768181500178435,-0.29636392823423696
877,0.8656,832.238,63.3186,-0.670118,229.152,-4.12307,-1.10008,0.571888,-0.218328,-0.351795,0.41885,-0.011023,-0.00277392,0.623664,0.7716086931439974,0.5202123058410764,-0.010962469349438675,-0.19613826822752012,-0.0027700762388335187,-0.2965756908199705
878,0.8666,832.245,63.2765,-0.670571,229.12,-4.12699,-1.09676,0.572381,-0.218521,-0.352096,0.419201,-0.0110304,-0.00277576,0.624203,0.7724823115589625,0.5207459940172223,-0.010969788200085762,-0.19629339857119243,-0.002771911140205141,-0.2967873896747577
879,0.8676,832.268,63.2769,-0.674393,229.086,-4.11967,-1.09934,0.572874,-0.218713,-0.352396,0.419552,-0.0110375,-0.00277766,0.624741,0.7733563607739895,0.5212798695507972,-0.010976810289661021,-0.19644769542569473,-0.0027738058717740044,-0.296998321816452
880,0.8686,832.276,63.2363,-0.674999,229.053,-4.12322,-1.0963,0.573367,-0.218905,-0.352697,0.419903,-0.0110449,-0.00277949,0.62528,0.7742308410015153,0.5218139325075755,-0.010984129034185552,-0.19660196265804486,-0.0027756307940394187,-0.2972098934784527
881,0.8696,832.298,63.2349,-0.678772,229.019,-4.11641,-1.09866,0.57386,-0.219097,-0.352997,0.420253,-0.0110521,-0.00278138,0.625818,0.7751057524540816,0.5223466606059319,-0.0109912499228213,-0.1967562002739296,-0.0027775155463161116,-0.2974206988880167
882,0.8706,832.307,63.1957,-0.67955,228.985,-4.11963,-1.09586,0.574352,-0.21929,-0.353298,0.420603,-0.0110594,-0.00278321,0.626355,0.7759793193641273,0.5228795751917565,-0.01099846966034479,-0.19691121136822487,-0.0027793404617928452,-0.29763214343365096
883,0.8716,832.329,63.1926,-0.683148,228.951,-4.1133,-1.09804,0.574844,-0.219482,-0.353598,0.420953,-0.0110666,-0.0027851,0.626893,0.7768533161748397,0.5234126763303308,-0.011005590445728353,-0.19706538961405695,-0.0027812252070583687,-0.2978428221872277
884,0.8726,832.338,63.1547,-0.684024,228.917,-4.1162,-1.09548,0.575336,-0.219674,-0.353898,0.421302,-0.0110739,-0.00278693,0.62743,0.7777277430977816,0.5239444401417577,-0.01101281007856636,-0.19721953826050753,-0.0027830501157464216,-0.29805343774665793
885,0.8736,832.359,63.15,-0.687618,228.883,-4.11033,-1.09748,0.575828,-0.219865,-0.354198,0.421651,-0.011081,-0.00278881,0.627967,0.7786026003446209,0.5244763895711433,-0.011019831862687512,-0.197372854686515,-0.002784924881849893,-0.2982639901308972
886,0.8746,832.369,63.1135,-0.688466,228.849,-4.11295,-1.09512,0.576319,-0.220057,-0.354497,0.422,-0.0110883,-0.00279064,0.628503,0.7794761086501303,0.5250085246832794,-0.01102705139156357,-0.19752694430533835,-0.0027867497837675836,-0.29847377783302365
887,0.8756,832.39,63.1072,-0.692007,228.814,-4.10752,-1.09698,0.576811,-0.220249,-0.354797,0.422349,-0.0110955,-0.00279252,0.629039,0.7803518263044642,0.5255408455429809,-0.011034171971159412,-0.19768100434179492,-0.0027886245429157297,-0.2986842041341504
888,0.8766,832.4,63.0718,-0.693078,228.78,-4.10987,-1.09481,0.577302,-0.220441,-0.355096,0.422697,-0.0111028,-0.00279434,0.629575,0.7812261936908069,0.5260718261424955,-0.011041391395353095,-0.19783503480156406,-0.0027904394659674647,-0.29889386621107183
889,0.8776,832.421,63.0641,-0.696529,228.745,-4.10485,-1.09652,0.577792,-0.220632,-0.355395,0.423045,-0.0111099,-0.00279622,0.630111,0.7820992083968508,0.5266029915554142,-0.011048412976547572,-0.19798823367895835,-0.0027923142181790483,-0.2991034656084033
890,0.8786,832.432,63.0298,-0.697653,228.711,-4.10696,-1.09454,0.578283,-0.220824,-0.355694,0.423393,-0.0111172,-0.00279804,0.630646,0.7829744339584657,0.5271343418460639,-0.011055632296782303,-0.19814220515635717,-0.0027941291345155994,-0.2993130023448831
891,0.8796,832.452,63.0208,-0.701022,228.676,-4.10235,-1.09612,0.578773,-0.221015,-0.355993,0.423741,-0.0111243,-0.00279991,0.631181,0.7838483055121512,0.5276658770787925,-0.01106265377686666,-0.1982953453698164,-0.002795993907750538,-0.29952247643924435
892,0.8806,832.463,62.9875,-0.702169,228.641,-4.10423,-1.09432,0.579263,-0.221206,-0.356292,0.424088,-0.0111315,-0.00280174,0.631716,0.7847226053678236,0.5281960691211383,-0.011069774100126328,-0.19844845633628805,-0.0027978187894118767,-0.299731887910214
893,0.8816,832.483,62.9771,-0.70566,228.606,-4.09998,-1.09579,0.579752,-0.221397,-0.35659,0.424435,-0.0111386,-0.0028036,0.632251,0.7855955481389612,0.5287264451720461,-0.011076795479804225,-0.1986015380613576,-0.002799673583744,-0.2999405367174004
894,0.8826,832.495,62.9447,-0.706962,228.571,-4.10167,-1.09413,0.580242,-0.221589,-0.356888,0.424782,-0.0111459,-0.00280543,0.632785,0.7864707043533112,0.5292570052953787,-0.011084014592847469,-0.19875539179561874,-0.002801498458671614,-0.3001491233565058
895,0.8836,832.514,62.9332,-0.71033,228.535,-4.09778,-1.09549,0.580731,-0.22178,-0.357187,0.425129,-0.011153,-0.00280729,0.633319,0.7873445021538903,0.5297877495550196,-0.011091035871418242,-0.19890841490161393,-0.0028033532461595456,-0.3003583474880558
896,0.8846,832.527,62.9015,-0.711759,228.5,-4.0993,-1.094,0.58122,-0.221971,-0.357485,0.425475,-0.0111602,-0.00280911,0.633852,0.7882187273460826,0.5303171476969628,-0.011098155990327596,-0.19906140878298695,-0.0028051681424050567,-0.30056680963810123
897,0.8856,832.546,62.8891,-0.714924,228.464,-4.09573,-1.09524,0.581709,-0.222161,-0.357782,0.425821,-0.0111673,-0.00281096,0.634386,0.7890933801389337,0.5308467290423553,-0.011105177168494795,-0.19921357265929218,-0.0028070129511374997,-0.3007745104505414
898,0.8866,832.559,62.8581,-0.716448,228.429,-4.0971,-1.09391,0.582197,-0.222352,-0.35808,0.426167,-0.0111745,-0.00281279,0.634919,0.7899666707740256,0.5313764936545968,-0.01111229718558715,-0.19936650826109936,-0.0028088378126340796,-0.3009828486025007
899,0.8876,832.578,62.8447,-0.719459,228.393,-4.09383,-1.09506,0.582685,-0.222543,-0.358378,0.426512,-0.0111815,-0.00281464,0.635451,0.7908403876789492,0.5319049096914328,-0.011119219375279155,-0.199519414654996,-0.00281068261457762,-0.3011911246789404
900,0.8886,832.591,62.8142,-0.721235,228.357,-4.09508,-1.09388,0.583173,-0.222734,-0.358675,0.426858,-0.0111887,-0.00281646,0.635984,0.7917145310617741,0.5324350404975269,-0.011126339291267828,-0.19967229184656032,-0.0028124974974838013,-0.30139864009734574
901,0.8896,832.61,62.7999,-0.724178,228.321,-4.09209,-1.09492,0.583661,-0.222924,-0.358972,0.427203,-0.0111958,-0.00281831,0.636516,0.7925891011306729,0.5329638217960275,-0.011133360269334425,-0.19982433966610924,-0.0028143422926569794,-0.3016060938928232
902,0.8906,832.624,62.77,-0.726022,228.285,-4.09324,-1.09387,0.584149,-0.223115,-0.359269,0.427548,-0.011203,-0.00282013,0.637048,0.7934640980939192,0.5334927855555489,-0.011140480083509097,-0.19997715862255805,-0.002816157168902489,-0.3018134860836723
903,0.8916,832.643,62.7548,-0.728981,228.248,-4.09051,-1.09486,0.584636,-0.223305,-0.359566,0.427892,-0.01121,-0.00282198,0.637579,0.7943377278212631,0.5340203978178863,-0.011147402075921464,-0.20012914852292207,-0.002818001957305305,-0.3020208166881866
904,0.8926,832.656,62.7254,-0.730808,228.212,-4.09156,-1.09391,0.585123,-0.223495,-0.359863,0.428236,-0.0112172,-0.0028238,0.638111,0.7952117831098997,0.5345481916100632,-0.011154521788995564,-0.2002811095479481,-0.0028198168268901425,-0.30222808572465476
905,0.8936,832.675,62.7094,-0.733781,228.175,-4.0891,-1.09484,0.58561,-0.223686,-0.360159,0.42858,-0.0112242,-0.00282564,0.638642,0.7960862641671285,0.5350761669945365,-0.011161443683116445,-0.20043384126968078,-0.0028216516367391975,-0.30243459564630404
906,0.8946,832.689,62.6806,-0.735522,228.139,-4.09007,-1.094,0.586096,-0.223876,-0.360456,0.428924,-0.0112314,-0.00282746,0.639172,0.7969593742400758,0.5356043240337851,-0.011168563295091194,-0.20058574440858434,-0.0028234664996816816,-0.3026417418086693
907,0.8956,832.708,62.6637,-0.738565,228.102,-4.08786,-1.09488,0.586583,-0.224066,-0.360752,0.429267,-0.0112384,-0.0028293,0.639703,0.7978347065814557,0.5361311266584141,-0.01117548509092181,-0.20073761868863316,-0.0028253013028153307,-0.3028481293062374
908,0.8966,832.722,62.6354,-0.740509,228.065,-4.08874,-1.09415,0.587069,-0.224256,-0.361048,0.429611,-0.0112456,-0.00283112,0.640233,0.7987086666039376,0.5366596466662139,-0.011182604601798984,-0.20088946411531006,-0.0028271161591153504,-0.30305445572214673
909,0.8976,832.74,62.6177,-0.743435,228.028,-4.08679,-1.09496,0.587554,-0.224446,-0.361344,0.429954,-0.0112526,-0.00283295,0.640763,0.7995812518920686,0.5371868113285918,-0.01118952629934078,-0.20104128069409644,-0.002828940983823136,-0.30326072107447477
910,0.8986,832.755,62.5898,-0.745392,227.991,-4.08759,-1.09434,0.58804,-0.224635,-0.36164,0.430296,-0.0112597,-0.00283477,0.641293,0.8004560609418683,0.5377126191260744,-0.011196546828781129,-0.20119226962314196,-0.00283075583349901,-0.30346692538129383
911,0.8996,832.774,62.5715,-0.74838,227.953,-4.08587,-1.09511,0.588525,-0.224825,-0.361935,0.430639,-0.0112668,-0.0028366,0.641822,0.8013294939218016,0.5382401450199534,-0.011203567308375906,-0.2013440286743472,-0.002832580651546124,-0.30367237233339095
912,0.9006,832.789,62.5438,-0.750239,227.916,-4.08664,-1.09456,0.58901,-0.225015,-0.362231,0.430981,-0.0112738,-0.00283842,0.642351,0.8022033506194737,0.5387663131191667,-0.011210488859179302,-0.20149575889407167,-0.0028343954945978522,-0.3038784548094692
913,0.9016,832.807,62.5249,-0.753252,227.878,-4.08511,-1.09532,0.589495,-0.225204,-0.362526,0.431323,-0.0112809,-0.00284025,0.64288,0.8030776312404369,0.5392926611986448,-0.011217509239786039,-0.20164666193485414,-0.002836220305984405,-0.30408378037828987
914,0.9026,832.822,62.4974,-0.755266,227.841,-4.08587,-1.09484,0.58998,-0.225394,-0.362821,0.431664,-0.011288,-0.00284207,0.643408,0.8039523359903442,0.5398176495015319,-0.011224529570548203,-0.2017983346597214,-0.0028380351424118766,-0.30428904538500123
915,0.9036,832.84,62.4779,-0.75827,227.803,-4.08453,-1.09557,0.590464,-0.225583,-0.363116,0.432006,-0.011295,-0.0028439,0.643936,0.8048256602483856,0.5403443571995441,-0.011231450974616308,-0.20194918051908795,-0.0028398599471378683,-0.3044942498474662
916,0.9046,832.856,62.4506,-0.760417,227.765,-4.08527,-1.09519,0.590948,-0.225773,-0.363411,0.432347,-0.0113021,-0.00284572,0.644464,0.8056994072976751,0.5408697041919206,-0.011238471206392542,-0.20210079577088436,-0.0028416747769413053,-0.30469939378354294
917,0.9056,832.874,62.4306,-0.763247,227.727,-4.08412,-1.09588,0.591432,-0.225962,-0.363705,0.432688,-0.0113091,-0.00284754,0.644992,0.806573577342893,0.541395230358169,-0.01124539251286949,-0.20225158447050262,-0.002843489603441718,-0.30490378211521363
918,0.9066,832.89,62.4037,-0.765398,227.689,-4.08485,-1.09558,0.591916,-0.226151,-0.364,0.433028,-0.0113162,-0.00284936,0.645519,0.8074481705888192,0.5419193938392333,-0.011252412645661125,-0.20240234467374973,-0.002845304426639106,-0.3051088052570894
919,0.9076,832.908,62.383,-0.768276,227.65,-4.08389,-1.09623,0.592399,-0.22634,-0.364294,0.433369,-0.0113232,-0.00285119,0.646046,0.8083213789180494,0.5424452780106876,-0.011259333854548359,-0.20255307638601094,-0.0028471292180624053,-0.3053130732394791
920,0.9086,832.924,62.3562,-0.770516,227.612,-4.0846,-1.09602,0.592882,-0.226529,-0.364588,0.433709,-0.0113302,-0.002853,0.646573,0.8091950091087738,0.5429697985686532,-0.011266255014987236,-0.2027037796126705,-0.0028489340631251414,-0.30551728117590904
921,0.9096,832.942,62.3352,-0.773165,227.573,-4.08382,-1.09664,0.593365,-0.226718,-0.364882,0.434049,-0.0113373,-0.00285483,0.647099,0.810069061364801,0.5434944974939293,-0.011273274999655691,-0.20285445435911154,-0.0028507588479060875,-0.3057214290840303
922,0.9106,832.958,62.3082,-0.775919,227.534,-4.08456,-1.09653,0.593848,-0.226907,-0.365176,0.434388,-0.0113443,-0.00285664,0.647625,0.8109435358900376,0.5440178308285681,-0.011280196062506964,-0.20300510063071664,-0.00285256368639919,-0.30592551698148873
923,0.9116,832.976,62.2868,-0.7785,227.495,-4.08393,-1.09709,0.594331,-0.227096,-0.36547,0.434728,-0.0113513,-0.00285846,0.648151,0.811818432888489,0.5445428861453958,-0.01128711707691088,-0.20315571843286673,-0.0028543784930817884,-0.3061295448859246
924,0.9126,832.993,62.2602,-0.780926,227.456,-4.08468,-1.09707,0.594813,-0.227285,-0.365763,0.435067,-0.0113584,-0.00286028,0.648677,0.8126919398714127,0.5450665749440351,-0.011294136913459263,-0.20330630777094216,-0.0028561932964614734,-0.30633281914813937
925,0.9136,833.011,62.2384,-0.78352,227.417,-4.08421,-1.09764,0.595295,-0.227473,-0.366057,0.435405,-0.0113654,-0.0028621,0.649202,0.8135658679861868,0.5455888957136037,-0.011301057830277572,-0.20345607210679262,-0.002858008096538245,-0.30653672732333925
926,0.9146,833.027,62.2116,-0.786057,227.378,-4.08499,-1.09765,0.595777,-0.227662,-0.36635,0.435744,-0.0113724,-0.00286392,0.649727,0.8144402174358458,0.5461129391695978,-0.011307978698649745,-0.20360660468338787,-0.002859822893311992,-0.3067398822985763
927,0.9156,833.046,62.1894,-0.788775,227.339,-4.08467,-1.09824,0.596258,-0.22785,-0.366643,0.436082,-0.0113794,-0.00286574,0.650252,0.8153131731094412,0.5466356136700516,-0.011314899518575894,-0.20375631256872517,-0.0028616376867829363,-0.30694297775812507
928,0.9166,833.062,62.1627,-0.791307,227.299,-4.0855,-1.09829,0.596739,-0.228039,-0.366936,0.43642,-0.0113864,-0.00286755,0.650777,0.8161865487757161,0.5471584648643462,-0.011321820290056572,-0.20390678840523524,-0.002863442505585345,-0.30714601371942096
929,0.9176,833.081,62.1401,-0.793994,227.259,-4.08529,-1.09887,0.59722,-0.228227,-0.367228,0.436758,-0.0113934,-0.00286937,0.651301,0.8170603446367348,0.547681492812214,-0.011328741013092003,-0.20405643986133737,-0.0028652572924684483,-0.30734829754853865
930,0.9186,833.097,62.1134,-0.796542,227.219,-4.08618,-1.09898,0.597701,-0.228416,-0.367521,0.437095,-0.0114004,-0.00287119,0.651825,0.8179345608946602,0.5482031493694848,-0.011335661687682519,-0.20420685897914925,-0.002867072076048749,-0.3075512147685324
931,0.9196,833.116,62.0903,-0.799356,227.179,-4.08612,-1.09958,0.598182,-0.228604,-0.367813,0.437433,-0.0114074,-0.00287301,0.652348,0.8188091977517515,0.5487265304803965,-0.011342582313828453,-0.20435645402728597,-0.002868886856326136,-0.30775338029621657
932,0.9206,833.133,62.0637,-0.801965,227.139,-4.08703,-1.09973,0.598662,-0.228792,-0.368106,0.43777,-0.0114144,-0.00287482,0.652872,0.8196824357270203,0.54924853927471,-0.01134950289153025,-0.20450602095419723,-0.002870691662007596,-0.30795617884435167
933,0.9216,833.151,62.0403,-0.804777,227.099,-4.08712,-1.10032,0.599142,-0.22898,-0.368398,0.438106,-0.0114214,-0.00287664,0.653395,0.8205560929571301,0.5497691742456832,-0.011356423420788131,-0.20465555976516914,-0.002872506435697364,-0.3081582261397884
934,0.9226,833.168,62.0136,-0.807445,227.059,-4.08808,-1.10055,0.599622,-0.229168,-0.36869,0.438443,-0.0114284,-0.00287845,0.653918,0.8214301696433721,0.5502915344701582,-0.01136334390160243,-0.20480507046548713,-0.002874311234827287,-0.3083602144460277
935,0.9236,833.186,61.99,-0.809984,227.018,-4.08829,-1.10113,0.600102,-0.229356,-0.368981,0.438779,-0.0114354,-0.00288027,0.65444,0.8223046659871331,0.5508125199463987,-0.01137026433397359,-0.20495455306043542,-0.0028761260019294355,-0.30856145234208987
936,0.9246,833.204,61.9633,-0.812682,226.977,-4.08932,-1.10141,0.600581,-0.229544,-0.369273,0.439115,-0.0114424,-0.00288209,0.654963,0.8231777590112266,0.5513336805031712,-0.011377184717901834,-0.20510400755529734,-0.0028779407657286704,-0.30876332292346675
937,0.9256,833.222,61.9393,-0.815498,226.937,-4.08966,-1.10201,0.601061,-0.229731,-0.369564,0.43945,-0.0114494,-0.00288391,0.655484,0.8240530943992386,0.5518534643450723,-0.011384105053387605,-0.20525263920839176,-0.002879755526224992,-0.30896444353202823
938,0.9266,833.24,61.9126,-0.818164,226.896,-4.09073,-1.10231,0.601539,-0.229919,-0.369856,0.439786,-0.0114564,-0.00288572,0.656006,0.8249252001950416,0.5523749747179285,-0.011391025340431238,-0.20540203766832532,-0.002881560312234188,-0.30916619645715626
939,0.9276,833.258,61.8883,-0.820748,226.855,-4.09121,-1.10292,0.602018,-0.230106,-0.370147,0.440121,-0.0114634,-0.00288754,0.656528,0.8257995487556977,0.5528951074518276,-0.011397945579032953,-0.20555061359499927,-0.0028833750661430013,-0.3093671998465757
940,0.9286,833.276,61.8613,-0.823662,226.813,-4.09235,-1.1033,0.602497,-0.230294,-0.370438,0.440456,-0.0114704,-0.00288936,0.657049,0.8266743162296359,0.5534154144593817,-0.011404865769193195,-0.20569995604101365,-0.002885189816749012,-0.3095681447525185
941,0.9296,833.294,61.8369,-0.826271,226.772,-4.09293,-1.10389,0.602975,-0.230481,-0.370729,0.44079,-0.0114774,-0.00289117,0.65757,0.8275476752689752,0.5539343418638636,-0.011411785910912298,-0.20584847626216052,-0.0028869945929220764,-0.30976903119200094
942,0.9306,833.312,61.8097,-0.829293,226.73,-4.09415,-1.10431,0.603453,-0.230669,-0.371019,0.441125,-0.0114844,-0.00289299,0.65809,0.8284214518737252,0.5544549970732664,-0.011418706004190593,-0.20599776271525694,-0.0028888093369404677,-0.3099691691515485
943,0.9316,833.33,61.7848,-0.83219,226.689,-4.09484,-1.10495,0.603931,-0.230856,-0.37131,0.441459,-0.0114913,-0.00289481,0.658611,0.8292956462435301,0.5549742717563335,-0.011425527191586071,-0.20614622725176235,-0.0028906240776560566,-0.31016993890990874
944,0.9326,833.348,61.7579,-0.834749,226.647,-4.09613,-1.10537,0.604408,-0.231043,-0.3716,0.441793,-0.0114983,-0.00289663,0.659131,0.830168428408786,0.5554937199061123,-0.011432447188675643,-0.20629466402799512,-0.002892438815068843,-0.31036996062307465
945,0.9336,833.367,61.7327,-0.837562,226.605,-4.09696,-1.10605,0.604886,-0.23123,-0.371891,0.442126,-0.0115053,-0.00289845,0.65965,0.8310434580329851,0.5560117855679865,-0.011439367137325518,-0.206443073049146,-0.002894253549178827,-0.3105706137680848
946,0.9346,833.385,61.7058,-0.840185,226.563,-4.0983,-1.10651,0.605363,-0.231417,-0.372181,0.442459,-0.0115123,-0.00290026,0.66017,0.831917074103335,0.556530023774453,-0.011446287037535918,-0.2065914543204045,-0.0028960583089465697,-0.3107705193023885
947,0.9356,833.404,61.6801,-0.843179,226.521,-4.09926,-1.1072,0.60584,-0.231604,-0.372471,0.442792,-0.0115193,-0.00290208,0.660689,0.832791106987953,0.5570484345829789,-0.011453206889307066,-0.20673980784695956,-0.0028978730364690453,-0.3109703668724926
948,0.9366,833.422,61.6528,-0.846188,226.478,-4.10067,-1.1077,0.606316,-0.231791,-0.37276,0.443125,-0.0115263,-0.0029039,0.661208,0.8336637232210666,0.5575670180510504,-0.011460126692639516,-0.20688813363399883,-0.0028996877606887184,-0.3111694676650162
949,0.9376,833.441,61.6272,-0.848853,226.436,-4.10173,-1.10839,0.606793,-0.231978,-0.37305,0.443458,-0.0115332,-0.00290572,0.661727,0.834538589456052,0.5580857742361727,-0.011466947594233168,-0.20703643168670915,-0.002901502481605589,-0.31136919955686915
950,0.9386,833.459,61.5999,-0.851524,226.393,-4.10323,-1.10896,0.607269,-0.232165,-0.373339,0.44379,-0.0115402,-0.00290754,0.662245,0.8354120376888206,0.5586031445919457,-0.011473867301381113,-0.2071847020102765,-0.002903317199219657,-0.3115681851034008
951,0.9396,833.478,61.574,-0.854469,226.35,-4.1044,-1.10968,0.607745,-0.232352,-0.373629,0.444122,-0.0115472,-0.00290936,0.662763,0.8362859017819149,0.5591206867431937,-0.011480786960091138,-0.2073329446098855,-0.002905131913531034,-0.3117678013839612
952,0.9406,833.496,61.5465,-0.857359,226.307,-4.10598,-1.11025,0.608221,-0.232538,-0.373918,0.444454,-0.0115542,-0.00291118,0.663281,0.8371601819333316,0.5596384007469617,-0.011487706570363687,-0.20748036697148342,-0.002906946624539497,-0.31196667175120896
953,0.9416,833.516,61.5203,-0.859954,226.264,-4.10728,-1.11099,0.608696,-0.232725,-0.374207,0.444785,-0.0115612,-0.00291301,0.663799,0.838033040307202,0.5601547265048077,-0.011494626132199204,-0.20762855428691385,-0.002908771303157587,-0.3121654846532248
954,0.9426,833.534,61.4924,-0.863318,226.221,-4.10893,-1.11165,0.609172,-0.232911,-0.374496,0.445116,-0.0115682,-0.00291483,0.664316,0.8389081522945181,0.5606712231947673,-0.011501545645598021,-0.20777592167022507,-0.0029105860075424594,-0.3123642401066137
955,0.9436,833.553,61.4663,-0.865642,226.177,-4.11032,-1.11234,0.609647,-0.233098,-0.374784,0.445447,-0.0115751,-0.00291665,0.664833,0.8397818411515343,0.5611878908734285,-0.011508366261401837,-0.20792405372209422,-0.0029124007086245296,-0.3125622506905702
956,0.9446,833.571,61.4381,-0.869135,226.134,-4.11208,-1.11309,0.610122,-0.233284,-0.375073,0.445778,-0.0115821,-0.00291848,0.66535,0.8406559451093365,0.5617047295973976,-0.011515285678620035,-0.20807136614762156,-0.0029142253772617144,-0.31276089149514186
957,0.9456,833.591,61.4115,-0.871845,226.09,-4.11356,-1.11379,0.610596,-0.23347,-0.375361,0.446108,-0.0115891,-0.0029203,0.665866,0.8415286228356003,0.5622201772023419,-0.011522205047402534,-0.2082186511755859,-0.002916040071720083,-0.3129587878599468
958,0.9466,833.609,61.3835,-0.874973,226.046,-4.11541,-1.11453,0.611071,-0.233656,-0.375649,0.446438,-0.0115961,-0.00292213,0.666382,0.842403556711792,0.5627357949330649,-0.011529124367749555,-0.20836590881108263,-0.002917864733697262,-0.3131566272388051
959,0.9476,833.629,61.3569,-0.877431,226.002,-4.11702,-1.1153,0.611545,-0.233843,-0.375938,0.446768,-0.0116031,-0.00292395,0.666898,0.8432770630023096,0.5632515828457176,-0.01153604363966143,-0.20851393054567136,-0.00291967942153204,-0.3133550962933733
960,0.9486,833.648,61.3286,-0.880614,225.958,-4.11895,-1.1161,0.612019,-0.234029,-0.376225,0.447098,-0.0116101,-0.00292578,0.667414,0.8441509834329524,0.5637675409964693,-0.011542962863138717,-0.20866113326431268,-0.002921504076849102,-0.31355213510431534
961,0.9496,833.667,61.3014,-0.883353,225.914,-4.12066,-1.11687,0.612492,-0.234215,-0.376513,0.447427,-0.0116171,-0.00292761,0.667929,0.8450234731756736,0.5642821051586204,-0.011549882038181525,-0.20880830860579447,-0.002923328728827168,-0.31374980362377214
962,0.9506,833.686,61.273,-0.886779,225.869,-4.12266,-1.11768,0.612966,-0.2344,-0.376801,0.447756,-0.011624,-0.00292944,0.668444,0.8458982216009576,0.5647968386402322,-0.011556702320465462,-0.20895466553026942,-0.0029251533774660166,-0.3139474152228924
963,0.9516,833.706,61.2456,-0.889581,225.825,-4.12451,-1.1185,0.613439,-0.234586,-0.377088,0.448085,-0.011631,-0.00293127,0.668959,0.8467715379828169,0.5653117414970206,-0.011563621399332424,-0.209101786279827,-0.0029269780227657582,-0.31414428406269357
964,0.9526,833.725,61.2176,-0.892344,225.78,-4.12658,-1.11932,0.613912,-0.234772,-0.377376,0.448414,-0.011638,-0.0029331,0.669474,0.8476452675410335,0.5658268137847182,-0.011570540429765908,-0.20924887966746986,-0.002928802664726504,-0.3143417820678057
965,0.9536,833.744,61.1893,-0.895857,225.735,-4.12857,-1.12022,0.614385,-0.234958,-0.377663,0.448742,-0.011645,-0.00293493,0.669988,0.8485194104710858,0.5663404892178054,-0.011577459411766466,-0.2093959456982868,-0.0029306273033480323,-0.3145385377405626
966,0.9546,833.764,61.1611,-0.898398,225.69,-4.13069,-1.121,0.614858,-0.235143,-0.37795,0.44907,-0.011652,-0.00293676,0.670502,0.8493939669685451,0.5668543331640694,-0.011584378345334323,-0.209542193919955,-0.0029324519386305647,-0.314735236952544
967,0.9556,833.783,61.1329,-0.901874,225.645,-4.13279,-1.12199,0.61533,-0.235329,-0.378237,0.449398,-0.011659,-0.0029386,0.671016,0.8502670869610627,0.5673683456787912,-0.01159129723046981,-0.2096892053993945,-0.002934286541231068,-0.31493187971995174
968,0.9566,833.802,61.1044,-0.904793,225.599,-4.13503,-1.12277,0.615802,-0.235514,-0.378523,0.449725,-0.011666,-0.00294043,0.671529,0.8511406191634905,0.5678809589355278,-0.01159821606717315,-0.20983539937303608,-0.0029361111698171793,-0.3151277811871067
969,0.9576,833.822,61.0761,-0.907747,225.554,-4.13722,-1.12375,0.616274,-0.2357,-0.37881,0.450052,-0.011673,-0.00294226,0.672042,0.8520145637704379,0.5683937398442092,-0.011605134855444899,-0.20998235632133277,-0.002937935795064295,-0.31532431131048433
970,0.9586,833.842,61.0476,-0.910369,225.508,-4.13956,-1.12464,0.616746,-0.235885,-0.379096,0.450379,-0.01168,-0.0029441,0.672555,0.8528889209766055,0.5689066884596661,-0.011612053595285277,-0.21012849606707007,-0.0029397703875745362,-0.3155201005582525
971,0.9596,833.861,61.0186,-0.914015,225.462,-4.14186,-1.12566,0.617217,-0.23607,-0.379382,0.450706,-0.011687,-0.00294594,0.673068,0.8537618372140221,0.5694198048367478,-0.011618972286694729,-0.21027460877945503,-0.0029416049767092556,-0.3157158338183025
972,0.9606,833.881,60.9901,-0.916934,225.416,-4.14425,-1.12651,0.617689,-0.236255,-0.379669,0.451032,-0.0116941,-0.00294778,0.673581,0.854637019327918,0.5699315190980172,-0.011625989767079403,-0.21042069446348843,-0.002943439562468231,-0.3159121951947912
973,0.9616,833.901,60.9608,-0.920444,225.37,-4.14673,-1.12754,0.61816,-0.236441,-0.379954,0.451359,-0.0117011,-0.00294962,0.674093,0.8555107591135882,0.5704449706495158,-0.01163290836093589,-0.21056754255702215,-0.002945274144851573,-0.3161071324392839
974,0.9626,833.921,60.9321,-0.923088,225.324,-4.14918,-1.12847,0.61863,-0.236626,-0.38024,0.451684,-0.0117081,-0.00295146,0.674604,0.8563830541436461,0.5709554482130876,-0.01163982690636245,-0.21071357405331925,-0.002947108723859393,-0.3163026978322221
975,0.9636,833.941,60.9028,-0.92629,225.277,-4.15176,-1.12954,0.619101,-0.236811,-0.380526,0.45201,-0.0117151,-0.0029533,0.675116,0.8572576165054162,0.5714676631757076,-0.011646745403359304,-0.21085957853628823,-0.00294894329949158,-0.3164982073014553
976,0.9646,833.961,60.874,-0.929094,225.23,-4.15431,-1.13053,0.619571,-0.236995,-0.380811,0.452335,-0.0117221,-0.00295515,0.675627,0.8581307327514189,0.5719784731683673,-0.011653663851926899,-0.21100476701608784,-0.0029507878422402323,-0.31669297755629466
977,0.9656,833.98,60.8441,-0.93287,225.184,-4.15701,-1.13158,0.620041,-0.23718,-0.381097,0.452661,-0.0117292,-0.00295699,0.676138,0.8590042594585081,0.5724910216914902,-0.011660681086002378,-0.21115071763334148,-0.0029526224111028343,-0.31688837542148696
978,0.9666,834.001,60.8151,-0.93573,225.137,-4.15964,-1.13258,0.620511,-0.237365,-0.381382,0.452985,-0.0117362,-0.00295884,0.676649,0.8598781968196458,0.5730005913283418,-0.011667599437020448,-0.21129664125222836,-0.0029544669470451534,-0.31708303449425634
979,0.9676,834.02,60.785,-0.939246,225.09,-4.16248,-1.13369,0.620981,-0.23755,-0.381667,0.45331,-0.0117432,-0.00296069,0.67716,0.8607525450278846,0.5735118996036175,-0.011674517739610368,-0.2114425378777427,-0.002956311479575091,-0.31727763809709486
980,0.9686,834.041,60.756,-0.942082,225.042,-4.16517,-1.13473,0.621451,-0.237734,-0.381952,0.453634,-0.0117503,-0.00296254,0.67767,0.8616273042763682,0.5740218000585022,-0.01168153482562373,-0.21158761910289114,-0.0029581560086926473,-0.3174721862458092
981,0.9696,834.061,60.7254,-0.9458,224.995,-4.16813,-1.13587,0.62192,-0.237919,-0.382237,0.453958,-0.0117573,-0.00296439,0.67818,0.8625006122567875,0.5745318657479008,-0.011688453030666235,-0.2117334619024822,-0.002960000534397822,-0.3176666789562014
982,0.9706,834.082,60.6962,-0.948383,224.947,-4.17093,-1.13694,0.622389,-0.238103,-0.382521,0.454282,-0.0117643,-0.00296624,0.67869,0.8633743299147114,0.575042096725358,-0.011695371187281367,-0.21187848960253464,-0.002961845056690726,-0.31786043410484444
983,0.9716,834.102,60.6661,-0.951509,224.9,-4.17398,-1.1381,0.622858,-0.238288,-0.382806,0.454606,-0.0117714,-0.0029681,0.679199,0.8642484574423239,0.5755524930444358,-0.01170238812523583,-0.21202427859606043,-0.0029636995459342286,-0.318054816180363
984,0.9726,834.122,60.6361,-0.954961,224.852,-4.17691,-1.13925,0.623326,-0.238472,-0.38309,0.454929,-0.0117784,-0.00296996,0.679708,0.8651211299098363,0.5760614786964466,-0.011709306184305657,-0.21216925279076382,-0.002965554031728379,-0.31824846111368577
985,0.9736,834.143,60.6056,-0.9583,224.803,-4.18002,-1.14036,0.623795,-0.238656,-0.383374,0.455252,-0.0117855,-0.00297181,0.680217,0.8659960768787902,0.5765706287773771,-0.011716323023321928,-0.21231420031266934,-0.0029673985437472794,-0.31844205105965595
986,0.9746,834.163,60.5757,-0.961622,224.755,-4.18307,-1.14159,0.624263,-0.238841,-0.383658,0.455574,-0.0117926,-0.00297368,0.680726,0.866869567423614,0.5770783662611914,-0.01172333981251883,-0.21245990870716946,-0.0029692629929687353,-0.31863558603388786
987,0.9756,834.184,60.5448,-0.965066,224.707,-4.18632,-1.14274,0.624731,-0.239025,-0.383942,0.455897,-0.0117996,-0.00297554,0.681234,0.8677434668576856,0.5775878448498564,-0.011730257724927529,-0.2126048027533063,-0.00297111746841483,-0.31882906605199124
988,0.9766,834.204,60.5146,-0.968283,224.658,-4.18945,-1.14396,0.625199,-0.239209,-0.384226,0.456219,-0.0118067,-0.0029774,0.681742,0.8686177753724094,0.578095909929986,-0.011737274415188348,-0.21274967014139123,-0.002972971940411684,-0.3190224911295714
989,0.9776,834.225,60.4836,-0.97179,224.609,-4.19279,-1.14516,0.625666,-0.239393,-0.384509,0.456541,-0.0118138,-0.00297926,0.68225,0.8694906236677222,0.5786041386334135,-0.011744291055630907,-0.21289451087632894,-0.002974826408959297,-0.3192151804977501
990,0.9786,834.246,60.4531,-0.975112,224.56,-4.19605,-1.14643,0.626134,-0.239577,-0.384792,0.456863,-0.0118208,-0.00298113,0.682758,0.8703657500431976,0.5791125310128338,-0.011751208821381254,-0.21303932496302325,-0.0029766908442906415,-0.319407815342553
991,0.9796,834.267,60.4224,-0.97813,224.511,-4.19947,-1.14763,0.626601,-0.239761,-0.385076,0.457184,-0.0118279,-0.002983,0.683265,0.8712394148333182,0.579619507500662,-0.011758225362889951,-0.2131841124063767,-0.0029785552761355527,-0.3196010760786723
992,0.9806,834.287,60.3909,-0.982033,224.462,-4.20289,-1.14899,0.627068,-0.239944,-0.385359,0.457505,-0.011835,-0.00298487,0.683772,0.8721134877201788,0.5801266467540651,-0.011765241854581276,-0.2133280865397713,-0.0029804197044939196,-0.31979360173047733
993,0.9816,834.309,60.3606,-0.984347,224.413,-4.20633,-1.15018,0.627534,-0.240128,-0.385642,0.457826,-0.0118421,-0.00298674,0.684279,0.8729860959073732,0.5806339488252996,-0.011772258296455673,-0.2134728208558826,-0.002982284129365853,-0.31998607290523184
994,0.9826,834.329,60.3293,-0.987953,224.363,-4.20991,-1.15158,0.628001,-0.240312,-0.385925,0.458146,-0.0118492,-0.00298862,0.684786,0.8738609846847913,0.5811398326260149,-0.011779274688513586,-0.2136175285433296,-0.0029841585209097188,-0.3201784896183505
995,0.9836,834.35,60.2975,-0.991854,224.313,-4.21348,-1.15285,0.628467,-0.240495,-0.386207,0.458467,-0.0118563,-0.0029905,0.685292,0.87473440739534,0.5816474599821198,-0.011786291030755236,-0.21376142336882809,-0.0029860329089297366,-0.32037017225575604
996,0.9846,834.371,60.2666,-0.995098,224.264,-4.21709,-1.15418,0.628933,-0.240679,-0.38649,0.458787,-0.0118634,-0.00299237,0.685798,0.8756082372157212,0.5821536681583024,-0.011793307323181068,-0.21390607795829786,-0.0029878973233049555,-0.32056248028413814
997,0.9856,834.393,60.2352,-0.99809,224.213,-4.22083,-1.1555,0.629399,-0.240862,-0.386772,0.459106,-0.0118706,-0.00299425,0.686304,0.8764824743356925,0.5826584556877754,-0.011800422385754072,-0.21404991998408474,-0.0029897717042961514,-0.3207540546514427
998,0.9866,834.414,60.2032,-1.00206,224.163,-4.22457,-1.15695,0.629864,-0.241046,-0.387054,0.459426,-0.0118777,-0.00299614,0.686809,0.8773552415889185,0.5831649874343525,-0.011807438577847607,-0.21419452149506069,-0.002991656051846925,-0.3209455750023923
999,0.9876,834.435,60.1716,-1.00494,224.113,-4.22835,-1.15822,0.63033,-0.241229,-0.387336,0.459745,-0.0118848,-0.00299802,0.687314,0.8782302930026431,0.5836700976261362,-0.011814454720126433,-0.2143383107405098,-0.002993530425771551,-0.32113704135221743
