,Time,S11,S22,S33,S12,S13,S23,LE11,LE22,LE33,LE12,LE13,LE23,SDV_EPBAR,E11,E12,E13,E22,E23,E33
0,1e-05,0.0775319,0.00556654,0.0,0.0207746,3.22159e-42,-1.20259e-41,3.65167e-07,-8.51666e-08,-1.2e-07,2.6e-07,1.97846e-34,5.30127e-35,0.0,3.6516706658495934e-07,2.6000003372494973e-07,0.0,-8.516659633084345e-08,0.0,-1.1999999283140994e-07
1,2e-05,0.155064,0.0111331,6.93889e-18,0.0415492,1.3685e-19,-5.10732e-19,7.30333e-07,-1.70329e-07,-2.40004e-07,5.19998e-07,-6.8507e-24,2.55672e-23,0.0,7.303332667518703e-07,5.199981352177474e-07,0.0,-1.7032898547153508e-07,0.0,-2.40003971252456e-07
2,3.5e-05,0.271361,0.0194829,0.0,0.0727111,-4.10551e-19,1.5322e-18,1.27808e-06,-2.98078e-07,-4.20004e-07,9.09997e-07,-2.7403e-23,1.0227e-22,0.0,1.2780808167356383e-06,9.099974140891476e-07,0.0,-2.980779555405988e-07,0.0,-4.200039117607801e-07
3,5.75e-05,0.445808,0.0320076,0.0,0.119454,-9.57952e-19,3.57513e-18,2.09971e-06,-4.89707e-07,-6.89999e-07,1.495e-06,-2.55679e-23,-6.85089e-24,0.0,2.0997122043286964e-06,1.4950011175685063e-06,0.0,-4.897068800469029e-07,0.0,-6.899987619046755e-07
4,9.125e-05,0.707477,0.0507946,8.32667e-17,0.189568,1.43201e-18,-1.2585e-18,3.33214e-06,-7.77144e-07,-1.095e-06,2.3725e-06,-5.11358e-23,-1.37018e-23,0.0,3.332145551482313e-06,2.372502814429467e-06,0.0,-7.771436980608115e-07,0.0,-1.0949994004860741e-06
5,0.00014188,1.09998,0.078975,-1.38778e-16,0.294739,9.60371e-18,9.31102e-19,5.18079e-06,-1.20828e-06,-1.70251e-06,3.68873e-06,1.57078e-22,-1.77138e-22,0.0,5.180803420268276e-06,3.688736803342252e-06,0.0,-1.2082792700818246e-06,0.0,-1.7025085506938709e-06
6,0.00021781,1.68873,0.121246,2.77556e-17,0.452495,-1.15834e-18,2.37026e-19,7.95375e-06,-1.85502e-06,-2.61375e-06,5.66309e-06,1.44793e-28,3.87973e-29,0.0,7.953781631098167e-06,5.6631060352252405e-06,0.0,-1.8550182794285774e-06,0.0,-2.6137465841680196e-06
7,0.00033172,2.57186,0.184651,-8.32667e-17,0.689128,-1.04248e-17,2.13329e-18,1.21132e-05,-2.8251e-06,-3.98061e-06,8.62462e-06,1.98462e-27,5.31777e-28,0.0,1.2113273365033095e-05,8.624657192202179e-06,0.0,-2.8250960094622357e-06,0.0,-3.980602077402473e-06
8,0.00050258,3.89654,0.279759,-3.05311e-16,1.04408,-1.20276e-17,-2.45714e-17,1.83523e-05,-4.28022e-06,-6.0309e-06,1.30669e-05,5.67958e-27,1.52184e-27,0.0,1.8352468404536637e-05,1.3066985372400808e-05,0.0,-4.280210839868737e-06,0.0,-6.030881814167444e-06
9,0.00075887,5.88355,0.42242,-3.05311e-16,1.57649,-1.48037e-17,1.84768e-17,2.77109e-05,-6.4629e-06,-9.10629e-06,1.97302e-05,4.54014e-27,1.21653e-27,0.0,2.771128395062661e-05,1.9730394641648275e-05,0.0,-6.4628791155429965e-06,0.0,-9.106248537893435e-06
10,0.0011433,8.86402,0.636408,-1.19349e-15,2.37511,-4.31106e-17,-6.62483e-18,4.17486e-05,-9.73686e-06,-1.37193e-05,2.97251e-05,-1.47584e-21,2.23531e-21,0.0,4.174947148483099e-05,2.972554179514475e-05,0.0,-9.736812596972122e-06,0.0,-1.3719205890883046e-05
11,0.00172,13.3346,0.957384,-5.63438e-15,3.57301,-2.23872e-17,-1.85889e-17,6.28047e-05,-1.46477e-05,-2.06387e-05,4.47172e-05,4.38494e-22,-1.63637e-21,0.0,6.280667225655456e-05,4.4718199828874816e-05,0.0,-1.4647592722960567e-05,0.0,-2.0638487023494356e-05
12,0.0025849,20.0404,1.43883,-3.49443e-14,5.3698,-1.36276e-17,-5.12754e-17,9.4388e-05,-2.20138e-05,-3.10175e-05,6.72046e-05,4.29569e-26,1.15103e-26,0.0,9.439245468745305e-05,6.720685827965589e-05,0.0,-2.2013557698041808e-05,0.0,-3.101701896235376e-05
13,0.0035849,27.7926,1.99542,-7.53564e-14,7.44701,-1.36263e-17,-5.12751e-17,0.0001309,-3.05294e-05,-4.30161e-05,9.32014e-05,8.77008e-22,-3.2728e-21,0.0,0.0001309085677787536,9.320574338533838e-05,0.0,-3.05289339825876e-05,0.0,-4.301517482085959e-05
14,0.0045849,35.5445,2.55198,-8.86791e-14,9.52413,-2.23833e-17,-1.85878e-17,0.000167411,-3.90446e-05,-5.50141e-05,0.000119197,7.61904e-26,2.04152e-26,0.0,0.0001674250140035749,0.00011920410424459682,0.0,-3.904383776953679e-05,0.0,-5.501258675211229e-05
15,0.0055849,43.2961,3.10852,-8.60145e-14,11.6012,-2.27252e-16,-3.84484e-17,0.00020392,-4.75595e-05,-6.70117e-05,0.000145192,-6.545e-21,-1.75373e-21,0.0,0.00020394079309649094,0.00014520254086858309,0.0,-4.755836906489286e-05,0.0,-6.700945476623144e-05
16,0.0065849,51.0474,3.66504,-8.55704e-14,13.6781,9.32019e-17,-5.76842e-17,0.000240428,-5.60742e-05,-7.90088e-05,0.000171186,-5.02721e-21,5.66881e-21,0.0,0.00024045690512797258,0.0001712006531593424,0.0,-5.607262787143963e-05,0.0,-7.900567888696752e-05
17,0.0075849,58.7984,4.22154,-8.29059e-14,15.755,7.56813e-17,7.6885e-18,0.000276934,-6.45885e-05,-9.10053e-05,0.000197178,-3.27334e-21,-8.77089e-22,0.0,0.00027697234976020724,0.0001971974408596644,0.0,-6.458641420770128e-05,0.0,-9.10011591432891e-05
18,0.0085849,66.5491,4.77801,-8.37941e-14,17.8318,1.76082e-16,-1.05544e-16,0.000313439,-7.31023e-05,-0.000103001,0.00022317,-8.53581e-21,1.87609e-20,0.0,0.00031348812713605234,0.00022319490427702426,0.0,-7.309962809198822e-05,0.0,-0.00010299569557914445
19,0.0095849,74.2995,5.33446,-9.08995e-14,19.9085,-3.22962e-16,-2.04229e-16,0.000349942,-8.16159e-05,-0.000114997,0.00024916,-9.81698e-21,-2.63045e-21,0.0,0.00035000323684464263,0.00024919104293097405,0.0,-8.1612569513001e-05,0.0,-0.00011499038809847928
20,0.010585,82.0495,5.89089,-8.11295e-14,21.9851,-3.75352e-17,-9.27151e-17,0.000386444,-9.0129e-05,-0.000126992,0.00027515,-9.58391e-21,-1.66004e-20,0.0,0.00038651867910211024,0.00027518785723334993,0.0,-9.012493850368841e-05,0.0,-0.00012698393685728337
21,0.011585,89.7993,6.4473,-8.86791e-14,24.0616,2.23949e-16,-2.26506e-17,0.000422945,-9.8642e-05,-0.000138987,0.000301138,-6.54781e-21,-1.75448e-21,0.0,0.0004230344538473929,0.000301183346599343,0.0,-9.86371350378823e-05,0.0,-0.00013897734175438714
22,0.012585,97.5487,7.00368,-8.20177e-14,26.1381,-7.02279e-17,-1.01475e-16,0.000459444,-0.000107154,-0.000150981,0.000327126,-1.00538e-20,1.13388e-20,0.0,0.00045954956056037943,0.00032717951154470626,0.0,-0.00010714825921520621,0.0,-0.0001509696029423635
23,0.013585,105.298,7.56005,-8.46823e-14,28.2145,9.08542e-17,8.18215e-17,0.000495941,-0.000115667,-0.000162975,0.000353112,-7.01737e-21,2.61855e-20,0.0,0.0004960639990703175,0.00035317435138115805,0.0,-0.00011566031083043438,0.0,-0.00016296172029606204
24,0.014585,113.047,8.11639,-8.77909e-14,30.2908,1.67326e-16,-7.28564e-17,0.000532438,-0.000124179,-0.000174968,0.000379098,-1.30852e-24,-3.50616e-25,0.0,0.0005325797702719903,0.0003791698667279242,0.0,-0.00012417129010711125,0.0,-0.00017495269399214752
25,0.015585,120.795,8.6727,-8.29059e-14,32.367,4.26452e-16,1.36711e-16,0.000568932,-0.00013269,-0.000186961,0.000405082,-4.38104e-24,-1.1739e-24,0.0,0.0005690938725069206,0.0004051640567928061,0.0,-0.00013268119707132708,0.0,-0.0001869435238813777
26,0.016585,128.543,9.229,-9.53404e-14,34.4431,3.13205e-16,3.62992e-17,0.000605425,-0.000141201,-0.000198953,0.000431065,-3.25131e-24,-8.71187e-25,0.0,0.0006056083067063067,0.00043115792186831925,0.0,-0.00014119103160803448,0.0,-0.0001989332101642871
27,0.017585,136.291,9.78527,-7.75768e-14,36.5191,-2.57627e-16,-1.86722e-16,0.000641917,-0.000149712,-0.000210945,0.000457047,-1.30902e-20,-3.50751e-21,0.0,0.0006421230728088645,0.0004571514618940675,0.0,-0.00014970079371778855,0.0,-0.00021092275266787475
28,0.018585,144.039,10.3415,-8.46823e-14,38.5951,-1.44388e-16,-8.63125e-17,0.000678407,-0.000158223,-0.000222936,0.000483029,-1.30918e-20,-3.50793e-21,0.0,0.0006786371700755467,0.0004831456772929066,0.0,-0.00015821048340125543,0.0,-0.00022291115161654496
29,0.019585,151.786,10.8978,-7.66887e-14,40.671,-1.92233e-16,-1.692e-16,0.000714896,-0.000166733,-0.000234927,0.000509009,-9.58251e-21,-1.66015e-20,0.0,0.0007151515990506674,0.0005091385670636939,0.0,-0.00016671910082588504,0.0,-0.00023489940681320487
30,0.020585,159.533,11.454,-7.89091e-14,42.7468,-5.78034e-16,-1.67474e-16,0.000751383,-0.000175243,-0.000246917,0.000534988,-2.61802e-20,-7.01495e-21,0.0,0.0007516653589219047,0.0005351311316035279,0.0,-0.0001752276458424351,0.0,-0.0002468865185064617
31,0.021585,167.28,12.0101,-7.53564e-14,44.8225,-1.37928e-16,2.05194e-17,0.000787869,-0.000183752,-0.000258907,0.000560966,1.73547e-24,4.65017e-25,0.0,0.0007881794503066253,0.0005611233708517904,0.0,-0.00018373511863523095,0.0,-0.00025887348647501973
32,0.022585,175.026,12.5663,-7.62446e-14,46.8981,1.41077e-16,2.52111e-17,0.000824354,-0.000192261,-0.000270897,0.000586943,-7.01923e-21,2.6188e-20,0.0,0.000824693873144211,0.0005871152847480854,0.0,-0.00019224251903837697,0.0,-0.00027086031072076633
33,0.023585,182.772,13.1224,-7.40241e-14,48.9736,-6.73712e-16,-3.33245e-16,0.000860837,-0.00020077,-0.000282886,0.000612919,-3.31952e-20,1.91745e-20,0.0,0.000861207626512428,0.0006131068732320166,0.0,-0.00020074984705231724,0.0,-0.0002828459915281689
34,0.024585,190.518,13.6786,-7.31359e-14,51.0491,5.82192e-17,7.30769e-17,0.000897318,-0.000209278,-0.000294874,0.000638894,-1.1598e-24,-3.10766e-25,0.0,0.0008977207102405238,0.000639098136243188,0.0,-0.0002092561028869122,0.0,-0.0002948305289349751
35,0.025585,198.263,14.2347,-7.09155e-14,53.1245,-1.47799e-15,-3.38549e-16,0.000933798,-0.000217787,-0.000306862,0.000664868,-5.93721e-20,1.21611e-20,0.0,0.0009342341250928587,0.0006650890737209814,0.0,-0.0002177632861328771,0.0,-0.00030681492267203847
36,0.026585,206.008,14.7907,-8.42382e-14,55.1998,-1.37986e-15,-3.12254e-16,0.000970277,-0.000226294,-0.00031885,0.000690841,-4.02013e-20,4.53684e-20,0.0,0.0009707478710079265,0.0006910796856050005,0.0,-0.0002262683974441071,0.0,-0.00031879917274102443
37,0.027585,213.753,15.3468,-8.64586e-14,57.275,-9.3971e-16,-1.2425e-16,0.00100675,-0.000234802,-0.000330837,0.000716813,-1.30788e-20,-3.50445e-21,0.0,0.0010072569428885014,0.0007170699718350715,0.0,-0.00023477443616781724,0.0,-0.000330782279474362
38,0.028585,221.498,15.9028,-6.8251e-14,59.3501,-1.57585e-15,-3.6477e-16,0.00104323,-0.000243309,-0.000342823,0.000742783,-1.30662e-20,-3.50107e-21,0.0,0.0010437743536952926,0.00074305893160731,0.0,-0.00024327940276569482,0.0,-0.0003427642429099098
39,0.029585,229.242,16.4588,-8.60145e-14,61.4252,-1.38201e-15,-1.72695e-16,0.0010797,-0.000251816,-0.000354809,0.000768753,-1.30697e-20,-3.50202e-21,0.0,0.0010802830858787082,0.0007690485663218727,0.0,-0.00025178429701222527,0.0,-0.00035474606273055986
40,0.030585,236.986,17.0148,-8.60145e-14,63.5001,-1.20975e-15,-1.61574e-16,0.00111618,-0.000260322,-0.000366795,0.000794722,-2.61678e-20,-7.01164e-21,0.0,0.0011168031607278195,0.0007950378752008547,0.0,-0.00026028811916822825,0.0,-0.0003667277389378665
41,0.031585,244.729,17.5708,-6.8251e-14,65.575,-1.57564e-15,-3.64714e-16,0.00115265,-0.000268828,-0.00037878,0.00082069,-6.03089e-20,6.80558e-20,0.0,0.001153314556320284,0.0008210268581838598,0.0,-0.00026879186899098073,0.0,-0.0003787082719124424
42,0.032585,252.473,18.1267,-7.13596e-14,67.6498,-1.46874e-15,-3.71105e-16,0.00118912,-0.000277334,-0.000390765,0.000846656,-5.93704e-20,1.21639e-20,0.0,0.001189827283507805,0.000847014514363531,0.0,-0.00027729554648114885,0.0,-0.0003906886613012084
43,0.033585,260.215,18.6826,-7.09155e-14,69.7245,-1.10678e-15,-4.14253e-16,0.00122559,-0.000285839,-0.000402749,0.000872622,-5.23592e-20,-1.40296e-20,0.0,0.001226341342338566,0.0008730028453474148,0.0,-0.0002857981519250874,0.0,-0.000402667907508536
44,0.034585,267.958,19.2385,-8.55704e-14,71.7992,1.06567e-15,2.37921e-16,0.00126205,-0.000294344,-0.000414733,0.000898587,-5.24083e-20,-1.40428e-20,0.0,0.001262846720232913,0.0008989908502541333,0.0,-0.00029430068505476026,0.0,-0.00041464701015736516
45,0.035585,275.7,19.7944,-8.51264e-14,73.8737,-1.91515e-15,-6.65887e-16,0.00129852,-0.000302849,-0.000426716,0.00092455,-9.1629e-20,-2.45519e-20,0.0,0.0012993634421312183,0.0009249775280981698,0.0,-0.00030280314587072255,0.0,-0.00042662496967615926
46,0.036585,283.442,20.3503,-7.00273e-14,75.9482,-8.30026e-16,-2.70029e-16,0.00133498,-0.000311354,-0.000438698,0.000950513,-8.55772e-20,5.14318e-21,0.0,0.0013358714824598383,0.000950964880642946,0.0,-0.00031130553437341835,0.0,-0.00043860178610255485
47,0.037585,291.184,20.9061,-7.09155e-14,78.0226,-1.23737e-15,-4.49244e-16,0.00137145,-0.000319857,-0.000450681,0.000976474,-8.4627e-20,-5.07496e-20,0.0,0.001372390867619755,0.0009769509059525117,0.0,-0.0003198058512033919,0.0,-0.0004505794585729639
48,0.038585,298.926,21.4619,-1.05554e-13,80.0969,-1.13049e-15,-4.5564e-16,0.00140791,-0.000328361,-0.000462662,0.00100243,-9.86667e-20,1.63652e-21,0.0,0.001408901570576715,0.0010029326008791362,0.0,-0.0003283070954270828,0.0,-0.0004625549884409441
49,0.039585,306.667,22.0177,-8.55704e-14,82.1711,-2.89543e-15,-9.28554e-16,0.00144437,-0.000336865,-0.000474643,0.00102839,-1.17797e-19,-3.15636e-20,0.0,0.001445413604738377,0.0010289189743111216,0.0,-0.00033680826735649205,0.0,-0.0004745303748309171
50,0.040585,314.407,22.5734,-6.51423e-14,84.2452,-2.97176e-15,-7.73836e-16,0.00148082,-0.000345368,-0.000486624,0.00105435,-1.17796e-19,-3.15632e-20,0.0,0.0014819169553339506,0.0010549060223581375,0.0,-0.0003453083673375934,0.0,-0.00048650561774465917
51,0.041585,322.148,23.1292,-6.51423e-14,86.3193,-1.36127e-15,-3.77342e-16,0.00151728,-0.00035387,-0.000498605,0.00108031,-1.04741e-19,-2.80653e-20,0.0,0.0015184316516849705,0.0010808937450377254,0.0,-0.0003538073953963661,0.0,-0.0004984807171838357
52,0.042585,329.888,23.6849,-8.60145e-14,88.3932,-1.3612e-15,-3.77323e-16,0.00155374,-0.000362373,-0.000510585,0.00110627,-7.85467e-20,-2.10465e-20,0.0,0.0015549476793861317,0.0011068821423672048,0.0,-0.00036230735083453425,0.0,-0.0005104546736607318
53,0.043585,337.628,24.2406,-4.29379e-14,90.4671,-2.72515e-15,-7.77825e-16,0.00159019,-0.000370875,-0.000522564,0.00113222,-9.25457e-20,3.13542e-20,0.0,0.0015914550225712976,0.0011328612030356844,0.0,-0.0003708062343685814,0.0,-0.0005224274872128731
54,0.044585,345.367,24.7963,-4.11615e-14,92.5409,-2.13026e-15,-5.13325e-16,0.00162664,-0.000379376,-0.000534543,0.00115818,-3.82914e-20,-6.64126e-20,0.0,0.0016279636964733335,0.0011588509494580013,0.0,-0.0003793040460248198,0.0,-0.0005344001573435175
55,0.045585,353.107,25.3519,-4.3382e-14,94.6146,-7.39858e-16,-2.10835e-16,0.00166309,-0.000387878,-0.000546521,0.00118413,-8.23268e-20,2.02553e-19,0.0,0.0016644737011408672,0.0011848313587343728,0.0,-0.00038780278505357035,0.0,-0.0005463716846008104
56,0.046585,360.846,25.9075,-8.46823e-14,96.6883,-1.33691e-15,-3.35781e-16,0.00169954,-0.000396379,-0.000558499,0.00121008,-1.21173e-20,-5.94006e-20,0.0,0.0017009850366223045,0.0012108124422112176,0.0,-0.0003963004522227198,0.0,-0.0005583430684640289
57,0.047585,368.584,26.4632,-8.51264e-14,98.7618,-2.70086e-15,-7.36284e-16,0.00173599,-0.000404879,-0.000570477,0.00123603,-5.23091e-20,-1.40162e-20,0.0,0.001737497702966273,0.0012367941999060772,0.0,-0.00040479704755835844,0.0,-0.0005703143089348384
58,0.048585,376.322,27.0187,-8.73468e-14,100.835,-2.08611e-15,-6.76663e-16,0.00177244,-0.00041338,-0.000582454,0.00126198,-3.82877e-20,-6.64143e-20,0.0,0.0017740117002211786,0.001262776631836049,0.0,-0.00041329457025984784,0.0,-0.0005822844065973554
59,0.049585,384.06,27.5743,-8.51264e-14,102.909,-1.50643e-15,-4.86304e-16,0.00180888,-0.00042188,-0.00059443,0.00128793,-6.63837e-20,3.83683e-20,0.0,0.0018105170103301926,0.0012887597380191185,0.0,-0.00042179102114603406,0.0,-0.0005942533614889944
60,0.050585,391.798,28.1298,-6.11455e-14,104.982,-1.65226e-15,-5.95446e-16,0.00184533,-0.000430379,-0.000606406,0.00131388,-7.85363e-20,-2.10437e-20,0.0,0.001847033669187148,0.0013147435184723832,0.0,-0.00043028640024300735,0.0,-0.0006062221730414041
61,0.051585,399.536,28.6854,-1.11328e-13,107.055,-2.0053e-15,-5.84942e-16,0.00188177,-0.000438879,-0.000618381,0.00133983,-1.3092e-19,-3.508e-20,0.0,0.0018835416402653848,0.0013407279732133848,0.0,-0.0004387827066992811,0.0,-0.0006181898418743392
62,0.052585,407.273,29.2409,-6.02574e-14,109.128,-2.4301e-15,-6.98767e-16,0.00191821,-0.000447377,-0.000630357,0.00136577,-9.06688e-20,-8.04524e-20,0.0,0.0019200509417180989,0.00136670308859288,0.0,-0.0004472769418317757,0.0,-0.0006301583667650545
63,0.053585,415.009,29.7963,-1.10884e-13,111.201,-2.15332e-15,-5.54538e-16,0.00195465,-0.000455876,-0.000642331,0.00139172,-7.85199e-20,-2.10393e-20,0.0,0.00195656157359414,0.0013926888917024094,0.0,-0.000455772104324792,0.0,-0.000642124749605899
64,0.054585,422.746,30.3518,-5.98133e-14,113.274,-2.6108e-15,-6.77119e-16,0.00199109,-0.000464374,-0.000654305,0.00141766,-7.85032e-20,-2.10349e-20,0.0,0.001993073535941692,0.001418665354965487,0.0,-0.00046426619508199707,0.0,-0.0006540909891621371
65,0.055585,430.482,30.9072,-5.75928e-14,115.347,-2.91124e-15,-8.62723e-16,0.00202752,-0.000472872,-0.000666279,0.0014436,-7.84906e-20,-2.10315e-20,0.0,0.002029576808513678,0.0014446424920668832,0.0,-0.00047276021365671994,0.0,-0.0006660570854354342
66,0.056585,438.218,31.4626,-3.00593e-14,117.42,-3.00039e-15,-9.21643e-16,0.00206396,-0.00048137,-0.000678252,0.00146955,-1.30884e-19,-3.50704e-20,0.0,0.002066091431585093,0.0014706303177300928,0.0,-0.00048125416004962673,0.0,-0.000678022039105719
67,0.057585,445.953,32.018,-8.55704e-14,119.493,-2.3226e-15,-7.04997e-16,0.00210039,-0.000489867,-0.000690225,0.00149549,-7.85107e-20,-2.10369e-20,0.0,0.0021025973642474494,0.0014966088028200986,0.0,-0.0004897470347509092,0.0,-0.0006899868495202632
68,0.058585,448.257,32.2007,-0.00647432,120.186,-0.0112158,-0.0030049,0.00213679,-0.000502543,-0.000709173,0.00152267,-1.42371e-07,-3.81556e-08,2.79744e-05,0.0021390745626723717,0.0015238298505795278,-1.4237098988623131e-07,-0.0005024167464167117,-3.815559923570078e-08,-0.000708921596261125
69,0.059585,449.226,32.2963,-0.0024006,120.465,-0.020133,-0.0053942,0.00217339,-0.000516332,-0.000729923,0.0015494,-2.58465e-07,-6.92892e-08,6.30752e-05,0.002175753524022328,0.0015506009403456478,-2.584649666514949e-07,-0.0005161987235721144,-6.928919760174068e-08,-0.0007296566710108809
70,0.060585,450.182,32.384,-8.31513e-05,120.743,-0.0289882,-0.0077667,0.00220998,-0.000530156,-0.000750681,0.00157614,-3.75753e-07,-1.00752e-07,9.82292e-05,0.0022124238057226187,0.0015773827614860014,-3.757529294379225e-07,-0.0005300154921392686,-1.0075199496917264e-07,-0.0007503993095090422
71,0.061585,451.125,32.4633,-8.69443e-05,121.017,-0.0378235,-0.0101338,0.00224658,-0.000544017,-0.000771448,0.00160289,-4.94757e-07,-1.32687e-07,0.000133436,0.002249105451703759,0.0016041753148237081,-4.947568775781619e-07,-0.0005438690495822573,-1.3268699117219285e-07,-0.0007711505104958105
72,0.062585,452.059,32.5419,-1.29826e-05,121.289,-0.0465755,-0.0124786,0.00228318,-0.000557884,-0.000792226,0.00162963,-6.14658e-07,-1.64872e-07,0.000168688,0.002285788440258063,0.001630958568562102,-6.146578110932666e-07,-0.0005577284116560222,-1.6487198639669742e-07,-0.0007919122718358373
73,0.063585,452.985,32.6198,-1.42959e-05,121.558,-0.0552469,-0.0148017,0.00231977,-0.000571757,-0.000813014,0.00165638,-7.35471e-07,-1.97313e-07,0.000203985,0.002322462748209464,0.0016577525550718342,-7.354707295403884e-07,-0.0005715935781138715,-1.9731298050995605e-07,-0.0008126835936655974
74,0.064585,453.902,32.6969,-1.31497e-05,121.825,-0.0638383,-0.0171033,0.00235636,-0.000585636,-0.000833812,0.00168312,-8.57181e-07,-2.30005e-07,0.000239324,0.002359138398098315,0.0016845372414848736,-8.571806325852194e-07,-0.0005854645487087806,-2.3000497351155502e-07,-0.0008334644753711373
75,0.065585,454.811,32.7733,-1.29028e-05,122.089,-0.072351,-0.0193837,0.00239295,-0.00059952,-0.000854621,0.00170987,-9.79783e-07,-2.62946e-07,0.000274705,0.002395815389973688,0.0017113326612432367,-9.797825200053012e-07,-0.0005993403237930517,-2.629459654457378e-07,-0.0008542559154836038
76,0.066585,455.711,32.849,-1.25954e-05,122.351,-0.080786,-0.0216433,0.00242954,-0.000613411,-0.000875439,0.00173662,-1.10327e-06,-2.96135e-07,0.000310128,0.0024324937238848765,0.001738128797788674,-1.1032693914003744e-06,-0.0006132229019349955,-2.9613495611258145e-07,-0.0008750559150759729
77,0.067585,456.603,32.9241,-1.2316e-05,122.611,-0.0891446,-0.0238823,0.00246613,-0.000627307,-0.000896267,0.00176337,-1.22764e-06,-3.2957e-07,0.000345592,0.002469173399880731,0.001764925651140281,-1.2276392464816155e-06,-0.0006271102840997855,-3.2956994566735176e-07,-0.0008958654726998194
78,0.068585,457.488,32.9985,-1.20462e-05,122.868,-0.0974278,-0.0261011,0.00250271,-0.000641208,-0.000917104,0.00179013,-1.35288e-06,-3.63251e-07,0.000381095,0.0025058443929522056,0.0017917332392345386,-1.352879084870473e-06,-0.0006410024700818084,-3.632509339990264e-07,-0.0009166835886567082
79,0.069585,458.365,33.0723,-1.17872e-05,123.123,-0.105637,-0.0283,0.0025393,-0.000655114,-0.000937951,0.00181688,-1.479e-06,-3.97174e-07,0.000416638,0.002542526752898233,0.0018185315265242252,-1.4789989062347075e-06,-0.000654899459675562,-3.9717392108507e-07,-0.0009375112614559145
80,0.070585,459.234,33.1454,-1.15384e-05,123.376,-0.113773,-0.0304793,0.00257588,-0.000669026,-0.000958806,0.00184363,-1.60598e-06,-4.31339e-07,0.000452219,0.0025792004292841675,0.0018453305306775913,-1.6059787104616419e-06,-0.0006688022520061621,-4.313389069254825e-07,-0.0009583464923984542
81,0.071585,460.095,33.2179,-1.12996e-05,123.627,-0.121837,-0.0326392,0.00261246,-0.000682943,-0.00097967,0.00187039,-1.73382e-06,-4.65745e-07,0.000487838,0.0026158754472178636,0.001872140270435363,-1.7338184968851422e-06,-0.0006827098475090665,-4.6574489154238563e-07,-0.0009791902800141417
82,0.072585,460.95,33.2898,-1.10706e-05,123.875,-0.12983,-0.0347801,0.00264904,-0.000696865,-0.00100054,0.00189715,-1.86251e-06,-5.00389e-07,0.000523494,0.0026525518067483933,0.0018989507276312434,-1.8625082655043812e-06,-0.0006966222459781068,-5.003888747801e-07,-0.0010000396267492162
83,0.073585,461.797,33.361,-1.08509e-05,124.122,-0.137754,-0.0369022,0.00268561,-0.000710792,-0.00102143,0.00192391,-1.99205e-06,-5.3527e-07,0.000559186,0.002689219481032179,0.0019257619022847727,-1.9920480158752696e-06,-0.0007105394472074478,-5.352698567717695e-07,-0.0010209085179451183
84,0.074585,462.637,33.4317,-1.06404e-05,124.366,-0.145608,-0.0390058,0.00272219,-0.000724723,-0.00104232,0.00195067,-2.12244e-06,-5.70386e-07,0.000594913,0.0027258985235363298,0.0019525737944148247,-2.1224377476647405e-06,-0.0007244604517153697,-5.703858373395931e-07,-0.0010417769731944082
85,0.075585,463.47,33.5018,-1.04388e-05,124.608,-0.153395,-0.0410912,0.00275876,-0.00073866,-0.00106321,0.00197743,-2.25366e-06,-6.05737e-07,0.000630676,0.002762568880158911,0.001979386404040495,-2.253657460538072e-06,-0.0007383872578609063,-6.057368165945931e-07,-0.0010626449925061898
86,0.076585,464.296,33.5713,-1.02458e-05,124.849,-0.161114,-0.0431586,0.00279533,-0.0007526,-0.00108412,0.00200419,-2.38572e-06,-6.41321e-07,0.000666473,0.002799240577840756,0.002006199731181546,-2.385717154163025e-06,-0.0007523168676528691,-6.413207943589683e-07,-0.0010835325542192242
87,0.077585,465.115,33.6403,-1.00613e-05,125.087,-0.168768,-0.0452083,0.0028319,-0.000766546,-0.00110503,0.00203095,-2.51861e-06,-6.77135e-07,0.000702303,0.0028359136166309362,0.002033013775856629,-2.5186068283167273e-06,-0.0007662522786699988,-6.771347706990838e-07,-0.0011044196791778482
88,0.078585,465.928,33.7087,-9.88502e-06,125.324,-0.176357,-0.0472406,0.00286847,-0.000780495,-0.00112596,0.00205772,-2.65232e-06,-7.13179e-07,0.000738167,0.002872587996578968,0.0020598385586834134,-2.6523164825542622e-06,-0.0007801904930047066,-7.13178745725962e-07,-0.001125326344884936
89,0.079585,466.735,33.7765,-9.71673e-06,125.558,-0.183882,-0.0492557,0.00290504,-0.000794449,-0.00114688,0.00208448,-2.78684e-06,-7.49451e-07,0.000774064,0.002909263717733479,0.0020866540387529664,-2.78683611676378e-06,-0.0007941335089458601,-7.494507191507793e-07,-0.0011462225844823815
90,0.080585,467.535,33.8438,-9.55624e-06,125.791,-0.191343,-0.0512538,0.00294161,-0.000808407,-0.00116782,0.00211125,-2.92218e-06,-7.85949e-07,0.000809992,0.002945940780143541,0.002113480257548872,-2.9221757303909968e-06,-0.0008080803270953396,-7.859486911288016e-07,-0.0011671383635925014
91,0.081585,468.328,33.9106,-9.40335e-06,126.022,-0.198743,-0.0532353,0.00297817,-0.00082237,-0.00118877,0.00213801,-3.05832e-06,-8.22673e-07,0.000845952,0.0029826091540323674,0.0021402971730892784,-3.058315323323235e-06,-0.0008220319464662396,-8.226726616600288e-07,-0.001188063692850183
92,0.082585,469.116,33.9769,-9.25788e-06,126.251,-0.206081,-0.0552002,0.00301473,-0.000836336,-0.00120972,0.00216478,-3.19527e-06,-8.5962e-07,0.000881943,0.003019278868541253,0.002167124827931133,-3.1952648951172336e-06,-0.0008359863685241109,-8.596196304777592e-07,-0.0012089885837268666
93,0.083585,469.897,34.0427,-9.11964e-06,126.479,-0.213359,-0.0571489,0.00305129,-0.000850306,-0.00123068,0.00219155,-3.33301e-06,-8.9679e-07,0.000917964,0.003055949923719492,0.0021939532009589424,-3.3330044455492924e-06,-0.0008499445922961479,-8.967895979150597e-07,-0.0012299230239324332
94,0.084585,470.672,34.1079,-8.98847e-06,126.704,-0.220577,-0.0590816,0.00308785,-0.00086428,-0.00125164,0.00221832,-3.47155e-06,-9.3418e-07,0.000954015,0.003092622319616156,0.002220782292191803,-3.47154397417615e-06,-0.0008639066176174826,-9.341795637052286e-07,-0.0012508570253567663
95,0.085585,471.442,34.1727,-8.86418e-06,126.928,-0.227736,-0.0609985,0.00312441,-0.000878258,-0.00127261,0.00224509,-3.61087e-06,-9.7179e-07,0.000990095,0.0031292960562798733,0.0022476121016492545,-3.610863480774107e-06,-0.0008778724443234687,-9.717895278482658e-07,-0.0012718005752909711
96,0.086585,472.206,34.2369,-8.74664e-06,127.151,-0.234837,-0.0628998,0.00316096,-0.00089224,-0.00129359,0.00227186,-3.75098e-06,-1.00962e-06,0.0010262,0.003165961102100434,0.0022744426293501707,-3.750972965121946e-06,-0.0008918420722490161,-1.0096194903441713e-06,-0.0012927536731162093
97,0.087585,472.964,34.3007,-8.63567e-06,127.371,-0.241881,-0.0647858,0.00319751,-0.000906226,-0.00131458,0.00229864,-3.89186e-06,-1.04766e-06,0.00106234,0.0032026274880527783,0.0023012838983267336,-3.891852426773923e-06,-0.0009058155012293678,-1.0476594511921178e-06,-0.0013137163182128653
98,0.088585,473.716,34.364,-8.53113e-06,127.59,-0.248868,-0.0666566,0.00323407,-0.000920215,-0.00133557,0.00232541,-4.03351e-06,-1.08592e-06,0.00109851,0.003239305246579116,0.002328115862840985,-4.033501865396971e-06,-0.0009197917320193927,-1.0859194103929326e-06,-0.0013346785233082636
99,0.089585,474.463,34.4269,-8.43288e-06,127.807,-0.2558,-0.0685125,0.00327062,-0.000934207,-0.00135657,0.00235219,-4.17593e-06,-1.12439e-06,0.0011347,0.00327597431330906,0.0023549585692059782,-4.175921280769046e-06,-0.0009337707644958559,-1.124389367834766e-06,-0.0013556502748550692
100,0.090585,475.204,34.4893,-8.34077e-06,128.023,-0.262677,-0.0703536,0.00330716,-0.000948203,-0.00137757,0.00237896,-4.31911e-06,-1.16308e-06,0.00117092,0.0033126346871912293,0.002381791970610392,-4.319100672667275e-06,-0.0009477535975881413,-1.1630793236294679e-06,-0.0013766215859997155
101,0.091585,475.94,34.5512,-8.25469e-06,128.237,-0.2695,-0.0721802,0.00334371,-0.000962203,-0.00139858,0.00240574,-4.46306e-06,-1.20197e-06,0.00120717,0.0033493064341612033,0.0024086361144408652,-4.463050040537375e-06,-0.0009617402311311585,-1.201969277664361e-06,-0.0013976024427755362
102,0.092585,476.671,34.6127,-8.17449e-06,128.45,-0.276269,-0.0739925,0.00338026,-0.000976206,-0.0014196,0.00243252,-4.60775e-06,-1.24108e-06,0.00124344,0.003385979521507876,0.0024354809771671704,-4.607739384376863e-06,-0.0009757296659353987,-1.2410792298300777e-06,-0.0014185928445623608
103,0.093585,477.396,34.6738,-8.10006e-06,128.661,-0.282986,-0.0757906,0.0034168,-0.000990212,-0.00144062,0.00245929,-4.75319e-06,-1.28039e-06,0.00127974,0.00342264391505398,0.0024623165341852715,-4.7531787036314554e-06,-0.0009897219018778491,-1.280389180347008e-06,-0.0014395828051354531
104,0.094585,478.117,34.7344,-8.03127e-06,128.871,-0.289651,-0.0775747,0.00345334,-0.00100422,-0.00146165,0.00248607,-4.89937e-06,-1.31991e-06,0.00131606,0.003459309648341513,0.002489162834492298,-4.89935799807828e-06,-0.001003715939839056,-1.3199091288829123e-06,-0.0014605823098985393
105,0.095585,478.832,34.7946,-7.96802e-06,129.079,-0.296264,-0.0793451,0.00348988,-0.00101823,-0.00148268,0.00251285,-5.04629e-06,-1.35964e-06,0.00135241,0.003495976721419547,0.0025160098537531095,-5.046277267495292e-06,-0.00101771177973764,-1.3596390756598353e-06,-0.0014815813730466587
106,0.096585,479.542,34.8544,-7.91018e-06,129.286,-0.302827,-0.0811019,0.00352642,-0.00103225,-0.00150372,0.00253963,-5.19395e-06,-1.39957e-06,0.00138878,0.0035326451343367093,0.0025428575919865803,-5.193936511438402e-06,-0.0010317174132387086,-1.3995690205659272e-06,-0.001502589979563207
107,0.097585,480.248,34.9137,-7.85766e-06,129.491,-0.309339,-0.0828452,0.00356296,-0.00104627,-0.00152477,0.00256642,-5.34234e-06,-1.4397e-06,0.00142518,0.003569314887142294,0.0025697160749091896,-5.342325729684738e-06,-0.0010457228503822913,-1.439698963601188e-06,-0.0015236081288273473
108,0.098585,480.948,34.9727,-7.81034e-06,129.695,-0.315803,-0.0845753,0.00359949,-0.00106029,-0.00154582,0.0025932,-5.49144e-06,-1.48004e-06,0.0014616,0.003605975943825168,0.0025965652514146065,-5.491424922121624e-06,-0.0010597280911709417,-1.4800389047664453e-06,-0.0015446258356640596
109,0.099585,481.644,35.0312,-7.76814e-06,129.897,-0.322218,-0.0862924,0.00363602,-0.00107431,-0.00156687,0.00261998,-5.64127e-06,-1.52057e-06,0.00149805,0.003642638339760973,0.002623415146950414,-5.64125408808458e-06,-0.0010737331356075464,-1.5205688439490217e-06,-0.0015656431000827808
110,0.1006,492.534,35.9241,-0.0107057,133.079,-0.42423,-0.113589,0.00424204,-0.00130749,-0.00191703,0.00306506,-8.41301e-06,-2.27146e-06,0.00210612,0.004251050187701333,0.003069762099246587,-8.412974610738644e-06,-0.0013066356073604402,-2.271457420266465e-06,-0.0019151936716091944
111,0.1016,508.517,37.3025,0.0128587,137.744,-0.570765,-0.152779,0.00525104,-0.00169701,-0.00250299,0.00380758,-1.35289e-05,-3.66001e-06,0.00313026,0.005264850873775817,0.003814838041662716,-1.3528808484819521e-05,-0.0016955708927048896,-3.660003302208281e-06,-0.0024998601324169867
112,0.1026,522.266,38.3063,-0.0806975,141.779,-0.69547,-0.186117,0.00625884,-0.0020884,-0.00309114,0.00455024,-1.90198e-05,-5.15246e-06,0.0041645,0.0062784674660965045,0.0045606080617872635,-1.9019619124760467e-05,-0.0020862208099907686,-5.152446726053306e-06,-0.0030863673456642537
113,0.1036,534.675,39.5314,0.0333594,145.366,-0.801936,-0.214569,0.0072653,-0.00247909,-0.00368041,0.00529287,-2.48075e-05,-6.72716e-06,0.0052054,0.007291756324279142,0.005306901981980694,-2.4807192296472103e-05,-0.002476019594180867,-6.727137372708469e-06,-0.0036736455922584677
114,0.1046,545.606,40.3315,-0.059053,148.573,-0.896334,-0.239787,0.00827058,-0.00287132,-0.00427102,0.00603552,-3.08943e-05,-8.38427e-06,0.00625208,0.00830487573009453,0.006053770449344631,-3.089382277599029e-05,-0.0028672017033209984,-8.38423485205464e-06,-0.004261912165274939
115,0.1056,555.761,41.3536,0.0473919,151.501,-0.979337,-0.261954,0.00927456,-0.00326263,-0.00486195,0.00677796,-3.72135e-05,-1.01055e-05,0.00730239,0.009317702002815231,0.006800982356358176,-3.721280758628431e-05,-0.0032573134063392795,-1.0105448939645711e-05,-0.004850149852753116
116,0.1066,564.867,41.9957,-0.0408753,154.172,-1.05461,-0.282051,0.0102774,-0.00365515,-0.00545363,0.00752027,-4.37674e-05,-1.18913e-05,0.00835627,0.010330393866174958,0.007548618248039984,-4.376644222137127e-05,-0.0036484780706816933,-1.1891229298788275e-05,-0.005438785956810577
117,0.1076,573.491,42.8671,0.054816,156.656,-1.12208,-0.300063,0.0112789,-0.0040466,-0.00604523,0.00826225,-5.0505e-05,-1.37277e-05,0.00941217,0.011342746606650689,0.008296476585462065,-5.0503724643991e-05,-0.004038423546883219,-1.3727605775559759e-05,-0.006026994361836624
118,0.1086,581.321,43.4066,-0.0274129,158.952,-1.1842,-0.31664,0.0122793,-0.00443899,-0.00663725,0.009004,-5.74299e-05,-1.56154e-05,0.0104704,0.012355000135148897,0.009044657944427215,-5.742825093491e-05,-0.004429152245837176,-1.5615278080249873e-05,-0.0066152721073571286
119,0.1096,588.834,44.1644,0.0562413,161.114,-1.24071,-0.331716,0.0132785,-0.0048303,-0.007229,0.00974534,-6.4503e-05,-1.75438e-05,0.0115297,0.013367050787587376,0.00979298045758159,-6.450091972620697e-05,-0.004818652861558692,-1.754364610839776e-05,-0.007202933628586594
120,0.1106,595.722,44.6355,-0.0171171,163.133,-1.29328,-0.34574,0.0142765,-0.00522234,-0.00782093,0.0104864,-7.17277e-05,-1.95138e-05,0.0125905,0.014378895931016489,0.01054157498615127,-7.172512762998462e-05,-0.005208727289505499,-1.9513609607058058e-05,-0.007790426101720205
121,0.1116,602.387,45.303,0.054544,165.05,-1.34166,-0.358643,0.0152733,-0.00561332,-0.00841246,0.0112269,-7.90741e-05,-2.15172e-05,0.0136518,0.015390532930596557,0.011290158151138874,-7.907097372572558e-05,-0.005597594756655,-2.151696850671847e-05,-0.00837717427428597
122,0.1126,608.551,45.727,-0.00865568,166.855,-1.38702,-0.37074,0.016269,-0.00600485,-0.00900403,0.0119671,-8.6545e-05,-2.35547e-05,0.0147141,0.016402060789809658,0.01203899223550664,-8.654125508955612e-05,-0.005986856921499473,-2.355442259027729e-05,-0.008963615111795109
123,0.1136,614.548,46.3203,0.0513768,168.581,-1.42916,-0.381973,0.0172634,-0.0063954,-0.00959513,0.0127067,-9.41173e-05,-2.56199e-05,0.0157765,0.017413273690786824,0.012787773139209868,-9.411287110583366e-05,-0.006374992956331149,-2.5619571813129127e-05,-0.009549243619345615
124,0.1146,620.136,46.7103,-0.00152503,170.215,-1.4689,-0.392568,0.0182568,-0.00678632,-0.0101861,0.013446,-0.000101793,-2.77135e-05,0.0168395,0.01842447421701454,0.013536803985027657,-0.0001017878192683952,-0.006763344931861925,-2.771311598448456e-05,-0.010134397381654225
125,0.1156,625.593,47.2459,0.0489989,171.786,-1.50609,-0.402479,0.0192489,-0.00717633,-0.0107766,0.0141847,-0.000109554,-2.98303e-05,0.0179024,0.019435354502136404,0.01428578022244631,-0.00010954799917972657,-0.007150641630003118,-2.9829855081042744e-05,-0.0107187404757223
126,0.1166,630.708,47.6037,0.00274231,173.281,-1.54134,-0.411874,0.02024,-0.00756661,-0.0113668,0.0149229,-0.000117402,-3.19709e-05,0.0189655,0.02044621773251154,0.015034802415483606,-0.00011739510865493852,-0.007538055272772071,-3.197038893620885e-05,-0.011302442007827707
127,0.1176,635.718,48.0872,0.0455795,174.723,-1.57454,-0.420719,0.0212299,-0.00795604,-0.0119565,0.0156605,-0.000125322,-3.41313e-05,0.0200283,0.02145685757710858,0.01578376827039607,-0.00012531414752614545,-0.007924474481407429,-3.413071753377572e-05,-0.01188530508370711
128,0.1186,640.443,48.4271,0.00820323,176.103,-1.60613,-0.429134,0.0222187,-0.0083456,-0.0125459,0.0163977,-0.000133316,-3.63117e-05,0.0210912,0.022467373634685872,0.016532880153078855,-0.0001333071138169828,-0.008310872155702809,-3.631104073820168e-05,-0.01246752828685782
129,0.1196,645.074,48.8654,0.0416919,177.437,-1.63603,-0.437101,0.0232063,-0.00873441,-0.0131348,0.0171343,-0.000141372,-3.85091e-05,0.0221536,0.02347766121077699,0.01728193411530543,-0.00014136200744974126,-0.008696375856796501,-3.8508358534139475e-05,-0.013048914953343482
130,0.1206,649.469,49.1896,0.0125141,178.718,-1.66458,-0.444703,0.0241929,-0.00912323,-0.0137234,0.0178703,-0.00014949,-4.07235e-05,0.0232159,0.0244879225512995,0.01803092921520033,-0.00014947882692672998,-0.009081739608513884,-4.0722670809567596e-05,-0.013629663430958283
131,0.1216,653.777,49.5891,0.0383615,179.961,-1.69173,-0.451934,0.0251783,-0.00951138,-0.0143115,0.0186057,-0.000157661,-4.29525e-05,0.0242777,0.025497950509227207,0.018779864510300337,-0.00015764857215772032,-0.00946628989485998,-4.295157755462853e-05,-0.014209577285511421
132,0.1226,657.888,49.8997,0.0159908,181.158,-1.71771,-0.458852,0.0261626,-0.00989946,-0.0148992,0.0193406,-0.000165886,-4.5196e-05,0.0253391,0.026507845079990267,0.019528841010435283,-0.00016587224167829984,-0.009850621636522838,-4.5194978676166286e-05,-0.014788756108573331
133,0.1236,661.917,50.2663,0.035549,182.321,-1.74252,-0.465458,0.0271457,-0.0102869,-0.0154863,0.0200749,-0.000174158,-4.74522e-05,0.0264,0.0275175011576152,0.020277755968865163,-0.00017414283537586783,-0.010234170805733078,-4.745107416215255e-05,-0.015367003868622442
134,0.1246,665.781,50.5644,0.0186903,183.445,-1.76631,-0.471794,0.0281278,-0.0106742,-0.016073,0.0208086,-0.000182475,-4.97208e-05,0.0274605,0.02852712178856298,0.021026608441355732,-0.00018245835244978803,-0.010617432887886968,-4.971956394150823e-05,-0.015944518616935466
135,0.1256,669.567,50.9031,0.0332287,184.539,-1.78911,-0.477863,0.0291088,-0.011061,-0.0166592,0.0215417,-0.000190832,-5.20003e-05,0.0285203,0.029536601964106568,0.021775397483091874,-0.00019081379273211407,-0.011000052061527321,-5.199894800778093e-05,-0.01652120289744574
136,0.1266,673.214,51.1894,0.0207289,185.599,-1.81103,-0.483696,0.0300887,-0.0114475,-0.0172449,0.0222742,-0.000199228,-5.42906e-05,0.0295796,0.030545939324446714,0.02252412214867916,-0.00019920815541984993,-0.011382226681402763,-5.428912629201754e-05,-0.017097057773346358
137,0.1276,676.786,51.5043,0.0313505,186.632,-1.83208,-0.4893,0.0310675,-0.0118335,-0.0178301,0.023006,-0.00020766,-5.65904e-05,0.0306383,0.03155513150794076,0.023272679164873633,-0.00020763844015458943,-0.011763759501332238,-5.6588798793555384e-05,-0.017672084305963676
138,0.1286,680.239,51.7795,0.0222199,187.635,-1.85236,-0.494697,0.0320452,-0.0122193,-0.0184148,0.0237373,-0.000216126,-5.88994e-05,0.0316963,0.03256417615111129,0.024021272164814977,-0.00021610264645854915,-0.01214494750702233,-5.8897665464408e-05,-0.01824628355476099
139,0.1296,683.622,52.0741,0.0298486,188.613,-1.87188,-0.499893,0.0330219,-0.0126046,-0.018999,0.0244679,-0.000224622,-6.12167e-05,0.0327536,0.033573174245967286,0.024769695472001807,-0.00022459677436736936,-0.01252549474161524,-6.121482629606323e-05,-0.018819656577341193
140,0.1306,686.903,52.3386,0.0232688,189.566,-1.89072,-0.504906,0.0339974,-0.0129895,-0.0195827,0.0251979,-0.000233147,-6.3542e-05,0.0338103,0.03458191681163725,0.025518050466035946,-0.0002331198233502807,-0.012905500541881554,-6.353998124986049e-05,-0.019392204429450444
141,0.1316,690.117,52.6157,0.0286547,190.496,-1.90891,-0.509744,0.0349719,-0.0133741,-0.0201658,0.0259273,-0.000241699,-6.58745e-05,0.0348662,0.03559060829466998,0.026266336198677243,-0.00024166979314987902,-0.013285064091623777,-6.587233032273598e-05,-0.019963830161369156
142,0.1326,693.242,52.8701,0.0239692,191.403,-1.92647,-0.514418,0.0359453,-0.0137583,-0.0207485,0.0266561,-0.000250276,-6.82138e-05,0.0359214,0.036599142966976084,0.02701455172111733,-0.0002502446835745964,-0.013664087155006999,-6.8211473491675e-05,-0.020534730889453456
143,0.1336,696.304,53.132,0.0277046,192.289,-1.94346,-0.518937,0.0369176,-0.014142,-0.0213306,0.0273842,-0.000258877,-7.05595e-05,0.0369759,0.03760751845598653,0.027762593307718353,-0.000258843494240768,-0.014042471647058519,-7.05570107369935e-05,-0.021104711713589408
144,0.1346,699.289,53.3767,0.0244008,193.155,-1.9599,-0.52331,0.0378889,-0.0145254,-0.0219121,0.0281117,-0.000267499,-7.2911e-05,0.0380295,0.038615836248926394,0.028510562635203796,-0.0002674632253324427,-0.014420415306999779,-7.290834205764263e-05,-0.02167377385287561
145,0.1356,702.214,53.6254,0.0269419,194.002,-1.97582,-0.527544,0.0388591,-0.0149084,-0.0224932,0.0288386,-0.000276141,-7.5268e-05,0.0390824,0.039623990309709756,0.02925845875309596,-0.00027610287658330623,-0.014797820010323037,-7.526516743516787e-05,-0.022242114075645025
146,0.1366,705.07,53.8609,0.0246293,194.831,-1.99125,-0.531647,0.0398282,-0.015291,-0.0230737,0.0295648,-0.000284802,-7.76302e-05,0.0401345,0.04063197826039233,0.03000617770973535,-0.00028476144776024004,-0.015174686265275295,-7.762718685400127e-05,-0.02280953781774875
147,0.1376,707.87,54.0979,0.02632,195.642,-2.00621,-0.535626,0.0407963,-0.0156733,-0.0236536,0.0302903,-0.000293481,-7.9997e-05,0.0411858,0.04163990188525646,0.03075371832923457,-0.0002934379386639874,-0.01555111302415646,-7.999380032530645e-05,-0.0233760462917606
148,0.1386,710.609,54.3247,0.0247072,196.436,-2.02072,-0.539487,0.0417633,-0.0160551,-0.024233,0.0310153,-0.000302176,-8.23682e-05,0.0422362,0.042647654840405114,0.03150128573546307,-0.00030213034943082917,-0.01592690386616713,-8.236480783296862e-05,-0.023941738313734917
149,0.1396,713.296,54.5512,0.0258015,197.215,-2.03482,-0.543235,0.0427293,-0.0164365,-0.0248119,0.0317395,-0.000310885,-8.47434e-05,0.0432858,0.043655339108121805,0.03224856952539268,-0.00031083668026576916,-0.016302157779562454,-8.47398093795082e-05,-0.024506614922115477
150,0.1406,715.927,54.7698,0.0246753,197.978,-2.04851,-0.546876,0.0436942,-0.0168176,-0.0253902,0.0324632,-0.000319609,-8.71225e-05,0.0443346,0.0446628481393907,0.032995878196184325,-0.0003195579304844376,-0.0166769736015413,-8.711870494515495e-05,-0.02507057966058457
151,0.1416,718.509,54.987,0.0253574,198.726,-2.06182,-0.550415,0.0446581,-0.0171982,-0.025968,0.0331861,-0.000328345,-8.9505e-05,0.0453825,0.045670284114479376,0.03374290089535492,-0.0003282911006798894,-0.017051155134126028,-8.950099454696492e-05,-0.02563373116951828
152,0.1426,721.041,55.1978,0.0245649,199.46,-2.07477,-0.553857,0.0456209,-0.0175785,-0.0265452,0.0339084,-0.000337094,-9.18907e-05,0.0464296,0.04667754027933335,0.0344898431183811,-0.0003370371902011726,-0.017424899507831437,-9.188647817892637e-05,-0.026195973101256098
153,0.1436,723.528,55.4067,0.024966,200.181,-2.08736,-0.557207,0.0465827,-0.0179584,-0.0271218,0.0346301,-0.000345853,-9.42793e-05,0.0474758,0.04768471901218496,0.03523670391045952,-0.00034579319974548106,-0.017798108892897124,-9.427485584645456e-05,-0.026757306655150193
154,0.1446,725.968,55.6102,0.0243992,200.889,-2.09963,-0.560467,0.0475435,-0.0183379,-0.027698,0.0353511,-0.000354623,-9.66706e-05,0.0485211,0.04869181822319879,0.03598337871790114,-0.0003545601286960576,-0.018170783791037537,-9.666592754808967e-05,-0.02731792756466067
155,0.1456,728.366,55.8114,0.0246112,201.584,-2.11157,-0.563642,0.0485032,-0.018717,-0.0282735,0.0360715,-0.000363401,-9.90644e-05,0.0495656,0.04969873085088938,0.036729970033832826,-0.000363334977854346,-0.018542924703135566,-9.905949328437025e-05,-0.02787754505196971
156,0.1466,730.721,56.008,0.0241952,202.267,-2.12321,-0.566736,0.0494619,-0.0190957,-0.0288485,0.0367912,-0.000372188,-0.00010146,0.0506091,0.05070555957038758,0.03747637315421137,-0.0003721187466383391,-0.01891453212924321,-0.00010145485310830704,-0.028436354790368656
157,0.1476,733.037,56.2021,0.0242818,202.938,-2.13456,-0.569753,0.0504195,-0.019474,-0.029423,0.0375102,-0.000380983,-0.000103859,0.0516518,0.05171219711536512,0.03822258689820335,-0.0003809104351925052,-0.019285606568583136,-0.00010385360684073142,-0.028994357802828885
158,0.1486,735.313,56.3924,0.0239653,203.598,-2.14563,-0.572694,0.0513762,-0.0198519,-0.0299969,0.0382286,-0.000389784,-0.000106259,0.0526935,0.052718851630752406,0.03896871398138968,-0.0003897080440857792,-0.019656148519549554,-0.00010625335471237118,-0.02955145806567483
159,0.1496,737.552,56.58,0.0239696,204.248,-2.15643,-0.575564,0.0523318,-0.0202295,-0.0305703,0.0389464,-0.000398592,-0.00010866,0.0537344,0.05372531057486496,0.0397147534458171,-0.00039851257276213303,-0.020026256477088666,-0.0001086540967160099,-0.03010775375440411
160,0.1506,739.755,56.7642,0.0237181,204.886,-2.16697,-0.578365,0.0532864,-0.0206066,-0.031143,0.0396634,-0.000407405,-0.000111063,0.0547743,0.05473167701862147,0.04046049624088144,-0.0004073220218518969,-0.020395734906234808,-0.00011105683273338052,-0.030663052018993442
161,0.1516,741.923,56.9458,0.0236693,205.515,-2.17726,-0.5811,0.0542399,-0.0209834,-0.0317153,0.0403799,-0.000416224,-0.000113468,0.0558134,0.05573784328619613,0.04120625332200811,-0.0004161373908075916,-0.020764780260810967,-0.00011346156274993913,-0.031217644842449488
162,0.1526,744.057,57.1243,0.0234598,206.134,-2.18731,-0.583771,0.0551925,-0.0213597,-0.032287,0.0410956,-0.000425047,-0.000115873,0.0568515,0.05674401832079212,0.04195171136785225,-0.0004249566803210536,-0.02113319715201345,-0.00011586628698323498,-0.03177133942621546
163,0.1536,746.158,57.3003,0.0233772,206.743,-2.19713,-0.586381,0.056144,-0.0217357,-0.0328581,0.0418107,-0.000433873,-0.00011828,0.0578887,0.05774998876876847,0.04269707751055263,-0.0004337788907209372,-0.021501181884419185,-0.00011827300519662298,-0.03232413694791203
164,0.1546,748.227,57.4735,0.0231947,207.343,-2.20673,-0.588932,0.0570946,-0.0221113,-0.0334287,0.0425251,-0.000442704,-0.000120688,0.058925,0.05875596397235294,0.0434422464453772,-0.0004426060210432903,-0.021868637028107596,-0.00012068071749626874,-0.03287613529526423
165,0.1556,750.266,57.6443,0.0230909,207.935,-2.21612,-0.591426,0.0580441,-0.0224865,-0.0339987,0.0432389,-0.000451536,-0.000123096,0.0599604,0.059761730172085636,0.04418732140650827,-0.00045143407296222016,-0.022235563075863496,-0.00012308842399821884,-0.03342723881872056
166,0.1566,752.275,57.8125,0.0229257,208.517,-2.2253,-0.593865,0.0589926,-0.0228613,-0.0345681,0.043952,-0.000460372,-0.000125505,0.0609948,0.06076739103242157,0.04493219693920958,-0.00046026604507098945,-0.022601960519652575,-0.0001254971245769898,-0.0339774486893214
167,0.1576,754.255,57.9783,0.0228088,209.092,-2.23428,-0.596252,0.0599401,-0.0232357,-0.035137,0.0446645,-0.000469209,-0.000127914,0.0620283,0.06177294444112369,0.04567697642571322,-0.00046909893867175256,-0.022967829850621513,-0.0001279058193530691,-0.034526862623150634
168,0.1586,756.206,58.1418,0.0226547,209.658,-2.24307,-0.598588,0.0608866,-0.0236098,-0.0357054,0.0453763,-0.000478047,-0.000130324,0.0630608,0.06277838828427429,0.04642155426134731,-0.0004779327537386413,-0.023333269225777276,-0.00013031550819642135,-0.035075481622145466
169,0.1596,758.131,58.303,0.0225301,210.216,-2.25168,-0.600874,0.0618321,-0.0239834,-0.0362732,0.0460874,-0.000486887,-0.000132734,0.0640925,0.06378372044628189,0.047165929259746386,-0.00048676848975914844,-0.02369808376479532,-0.000132725191232419,-0.03562321024880777
170,0.1606,760.029,58.462,0.0223831,210.767,-2.26011,-0.603113,0.0627767,-0.0243567,-0.0368404,0.0467979,-0.000495727,-0.000135144,0.0651232,0.06478904528878693,0.047910205025141206,-0.0004956041476720241,-0.02406246925334299,-0.00013513486846095102,-0.03617004966563553
171,0.1616,761.902,58.6189,0.0222541,211.31,-2.26836,-0.605306,0.0637202,-0.0247296,-0.0374071,0.0475077,-0.000504568,-0.000137554,0.0661529,0.06579414783558213,0.04865427572812098,-0.0005044407269735318,-0.024426328512783146,-0.0001375445398823505,-0.03671609736126191
172,0.1626,763.75,58.7736,0.0221119,211.846,-2.27645,-0.607455,0.0646627,-0.0251021,-0.0379732,0.0482169,-0.000513408,-0.000139964,0.0671818,0.06679913234447254,0.04939824512083146,-0.0005132762286645942,-0.024789662030343274,-0.00013995420549628435,-0.03726125805625202
173,0.1636,765.573,58.9264,0.0219806,212.375,-2.28438,-0.609561,0.0656042,-0.0254742,-0.0385388,0.0489253,-0.000522248,-0.000142374,0.0682096,0.06780399669323911,0.05014190220991699,-0.0005221116522500235,-0.02515247029243839,-0.00014236386530308565,-0.03780562912604468
174,0.1646,767.372,59.0772,0.0218416,212.897,-2.29215,-0.611625,0.0665448,-0.0258459,-0.0391038,0.0496332,-0.000531087,-0.000144784,0.0692366,0.0688088456389031,0.050885560849411426,-0.0005309459982617559,-0.025514753784672606,-0.00014477351930253235,-0.03834911539625929
175,0.1656,769.149,59.226,0.0217092,213.412,-2.29977,-0.613649,0.0674844,-0.0262173,-0.0396683,0.0503404,-0.000539925,-0.000147193,0.0702626,0.06981357037602853,0.051629009970668216,-0.0005397792667266588,-0.02587661040418321,-0.0001471821676418683,-0.03889181412948928
176,0.1666,770.903,59.373,0.0215726,213.921,-2.30725,-0.615633,0.068423,-0.0265883,-0.0402322,0.0510469,-0.000548762,-0.000149602,0.0712876,0.07081816877746161,0.05237224838426702,-0.0005486114576722656,-0.026237943150354326,-0.00014959081017884568,-0.03943363025608737
177,0.1676,772.636,59.5182,0.0214401,214.423,-2.31458,-0.61758,0.0693606,-0.0269589,-0.0407956,0.0517527,-0.000557597,-0.000152011,0.0723117,0.07182263871442851,0.05311527490038892,-0.0005574415716829151,-0.026598752506519552,-0.00015199944691335343,-0.03997466092615021
178,0.1686,774.347,59.6616,0.0213052,214.92,-2.32177,-0.619491,0.0702972,-0.0273291,-0.0413584,0.0524579,-0.00056643,-0.000154419,0.0733349,0.07282697805654359,0.05385819371463452,-0.000566269608812453,-0.02695903895520524,-0.00015440707799985187,-0.040514811174443666
179,0.1696,776.037,59.8032,0.021173,215.41,-2.32883,-0.621366,0.0712328,-0.0276989,-0.0419206,0.0531624,-0.000575261,-0.000156826,0.0743571,0.07383118467181538,0.05460089839911331,-0.0005750955691143922,-0.02731880297813194,-0.00015681370344566847,-0.04105408214432782
180,0.1706,777.708,59.9432,0.0210397,215.895,-2.33576,-0.623206,0.0721675,-0.0280683,-0.0424823,0.0538663,-0.000584089,-0.000159232,0.0753783,0.07483536391018553,0.0553434932971093,-0.000583918453226473,-0.02767804505621485,-0.00015921932325790866,-0.041592570817685415
181,0.1716,779.358,60.0815,0.020908,216.374,-2.34257,-0.625014,0.0731012,-0.0284374,-0.0430435,0.0545695,-0.000592914,-0.000161638,0.0763986,0.07583940635373998,0.056085871831296874,-0.0005927382612286314,-0.02803686286588425,-0.00016162493728233418,-0.04213027817214643
182,0.1726,780.99,60.2183,0.020776,216.847,-2.34925,-0.626788,0.074034,-0.0288061,-0.0436041,0.0552721,-0.000601737,-0.000164043,0.077418,0.07684341755000812,0.05682813849258883,-0.0006015559925994785,-0.02839515961848038,-0.0001640295456827312,-0.04266710945033658
183,0.1736,782.602,60.3534,0.0206451,217.315,-2.35582,-0.628531,0.0749658,-0.0291744,-0.0441641,0.055974,-0.000610556,-0.000166447,0.0784364,0.07784728787703221,0.05757018655429902,-0.0006103696486133847,-0.028752935792666134,-0.00016643314846664925,-0.04320306578726374
184,0.1746,784.196,60.487,0.0205142,217.777,-2.36227,-0.630244,0.0758966,-0.0295424,-0.0447236,0.0566753,-0.000619372,-0.00016885,0.0794539,0.07885101519481386,0.05831212065491376,-0.0006191802287573989,-0.029110288955279673,-0.00016883574564108272,-0.04373824394190606
185,0.1756,785.773,60.6191,0.0203843,218.234,-2.36861,-0.631927,0.0768264,-0.0299099,-0.0452826,0.0573758,-0.000628184,-0.000171252,0.0804704,0.07985459736178924,0.05905372801308406,-0.0006279867337397604,-0.029467025369757538,-0.00017123733721324808,-0.04427264488456317
186,0.1766,787.331,60.7498,0.0202545,218.687,-2.37484,-0.633581,0.0777553,-0.0302771,-0.045841,0.0580758,-0.000636992,-0.000173653,0.081486,0.08085814032064653,0.05979532515140984,-0.0006367891636666068,-0.02982333965473538,-0.00017363792319047278,-0.04480617406444931
187,0.1776,788.873,60.879,0.0201255,219.134,-2.38096,-0.635207,0.0786832,-0.0306439,-0.0463989,0.0587751,-0.000645796,-0.000176053,0.0825006,0.08186153404157359,0.060536699213516565,-0.0006455875186444082,-0.030179135196858442,-0.00017603750357997328,-0.04533892807438922
188,0.1786,790.398,61.0068,0.0199968,219.576,-2.38698,-0.636806,0.0796102,-0.0310104,-0.0469562,0.0594737,-0.000654596,-0.000178451,0.0835143,0.08286488466479325,0.06127784900506672,-0.0006543817987794132,-0.030534509417505018,-0.00017843507856740715,-0.04587081246642133
189,0.1796,791.907,61.1332,0.0198688,220.014,-2.3929,-0.638378,0.0805362,-0.0313764,-0.0475129,0.0601717,-0.000663392,-0.000180849,0.084527,0.08386808195665418,0.06201887953324059,-0.0006631720041776479,-0.030889268862119623,-0.00018083264780532904,-0.046401828363132225
190,0.1806,793.4,61.2583,0.0197411,220.447,-2.39873,-0.639925,0.0814613,-0.0317421,-0.0480692,0.060869,-0.000672183,-0.000183245,0.0855388,0.08487123225490056,0.06275968354924255,-0.000671957135617518,-0.031243607861661693,-0.00018322821166050218,-0.04693216749850637
191,0.1816,794.877,61.3821,0.019614,220.875,-2.40446,-0.641446,0.0823854,-0.0321074,-0.0486248,0.0615656,-0.000680969,-0.00018564,0.0865496,0.08587422512210519,0.06350025985758401,-0.0006807371932312511,-0.031597429942172184,-0.00018562276996136884,-0.047461544911580944
192,0.1826,796.339,61.5046,0.0194874,221.299,-2.4101,-0.642942,0.0833086,-0.0324724,-0.04918,0.0622616,-0.000689751,-0.000188033,0.0875595,0.08687716709351823,0.06424071368648687,-0.0006895131764618201,-0.03195083238037477,-0.00018801532290346756,-0.04799024748043201
193,0.1836,797.785,61.6258,0.0193613,221.719,-2.41565,-0.64442,0.0842308,-0.032837,-0.0497346,0.062957,-0.000698527,-0.000190425,0.0885684,0.08787994752800188,0.0649810440618217,-0.0006982830868117462,-0.03230371877179061,-0.00019040687031046666,-0.04851808570611005
194,0.1846,799.218,61.7458,0.0192358,222.134,-2.42111,-0.645866,0.0851521,-0.0332012,-0.0502886,0.0636517,-0.000707299,-0.000192816,0.0895764,0.08888267315829546,0.06572114343688451,-0.0007070489230255328,-0.03265608958679356,-0.00019279741218980462,-0.04904506070107717
195,0.1856,800.636,61.8646,0.0191106,222.545,-2.42649,-0.647293,0.0860725,-0.033565,-0.0508421,0.0643458,-0.000716065,-0.000195205,0.0905834,0.08988534212814736,0.06646111726075121,-0.0007158086866405622,-0.033007945294967866,-0.00019518594874368134,-0.049571268618503694
196,0.1866,802.039,61.9823,0.018986,222.952,-2.43178,-0.648698,0.0869919,-0.0339285,-0.0513951,0.0650392,-0.000724825,-0.000197593,0.0915895,0.0908878434909588,0.06720085783787888,-0.0007245623778152632,-0.033359383029175294,-0.00019757347978888173,-0.05009671040891228
197,0.1876,803.429,62.0987,0.0188619,223.355,-2.437,-0.650082,0.0879103,-0.0342916,-0.0519475,0.0657319,-0.00073358,-0.000199979,0.0925947,0.09189017508663744,0.06794036397048209,-0.0007333109959745121,-0.03371030652318152,-0.0001999590055326017,-0.050621292083284475
198,0.1886,804.806,62.214,0.0187383,223.755,-2.44214,-0.651445,0.0888279,-0.0346543,-0.0524994,0.066424,-0.000742329,-0.000202363,0.0935989,0.09289255333210344,0.06867974132840726,-0.0007420535419923047,-0.034060716244361244,-0.00020234252598916314,-0.05114510963143526
199,0.1896,806.169,62.3282,0.0186151,224.15,-2.4472,-0.652787,0.0897445,-0.0350167,-0.0530508,0.0671155,-0.000751073,-0.000204746,0.0946021,0.09389475788666757,0.06941898893493836,-0.0007507910152757535,-0.03441070921823697,-0.0002047250409682455,-0.051668163998642935
200,0.1906,807.52,62.4413,0.0184924,224.541,-2.45218,-0.65411,0.0906601,-0.0353787,-0.0536016,0.0678063,-0.00075981,-0.000207127,0.0956044,0.09489678658572509,0.07015799879711282,-0.0007595214174759279,-0.03476018928179203,-0.00020710555068381709,-0.0521903613475605
201,0.1916,808.857,62.5533,0.0183702,224.929,-2.4571,-0.655414,0.0915749,-0.0357404,-0.0541518,0.0684965,-0.000768542,-0.000209507,0.0966058,0.0958988564429637,0.07089687680535128,-0.0007682467472399646,-0.03510925338927928,-0.00020948505494100544,-0.05271170277656834
202,0.1926,810.182,62.6643,0.0182484,225.313,-2.46194,-0.656699,0.0924887,-0.0361016,-0.0547016,0.069186,-0.000777268,-0.000211885,0.0976062,0.09690074651183656,0.07163551481810049,-0.0007769660054767202,-0.03545770899208478,-0.00021186255395877485,-0.05323237873544484
203,0.1936,811.495,62.7742,0.0181271,225.694,-2.46672,-0.657966,0.0934016,-0.0364626,-0.0552508,0.0698748,-0.000785987,-0.000214261,0.0986057,0.09790256441353318,0.07237391163537699,-0.0007856781931292467,-0.03580584591664304,-0.00021423804775122512,-0.0537522007568505
204,0.1946,812.796,62.8832,0.0180062,226.071,-2.47143,-0.659216,0.0943136,-0.0368231,-0.0557995,0.0705631,-0.0007947,-0.000216635,0.0996043,0.09890430827804764,0.07311228067931141,-0.000794384309586893,-0.03615337526326157,-0.00021661153633278918,-0.05427126450613262
205,0.1956,814.086,62.9911,0.0178858,226.444,-2.47607,-0.660448,0.0952246,-0.0371833,-0.0563476,0.0712507,-0.000803406,-0.000219008,0.100602,0.09990586624327435,0.07385040642205509,-0.0008030833558101413,-0.03650049029832092,-0.00021898401949860258,-0.054789476397114956
206,0.1966,815.363,63.098,0.0177658,226.815,-2.48065,-0.661664,0.0961347,-0.0375431,-0.0568952,0.0719376,-0.000812107,-0.000221378,0.101599,0.10090734622648312,0.07458828766252545,-0.0008117773303586429,-0.0368470950639751,-0.00022135349769869528,-0.05530693198756864
207,0.1976,816.629,63.204,0.0176462,227.181,-2.48517,-0.662865,0.097044,-0.0379026,-0.0574423,0.0726239,-0.0008208,-0.000223747,0.102594,0.10190885654406645,0.07532603073192567,-0.0008204632358249642,-0.03719328630169605,-0.0002237219705067961,-0.055823632208844565
208,0.1986,817.885,63.309,0.017527,227.545,-2.48964,-0.66405,0.0979523,-0.0382617,-0.0579888,0.0733095,-0.000829487,-0.000226114,0.103589,0.10291017503841826,0.07606352704344288,-0.0008291430707599856,-0.037538968121699656,-0.00022608843815619117,-0.05633948362460428
209,0.1996,819.129,63.4131,0.0174082,227.906,-2.49405,-0.665221,0.0988597,-0.0386205,-0.0585348,0.0739945,-0.000838168,-0.00022848,0.104583,0.10391140992281578,0.07680088307507638,-0.0008378168353203597,-0.03788423719496181,-0.00022845390043257918,-0.05685458163199264
210,0.2006,820.362,63.5162,0.0172898,228.263,-2.4984,-0.66638,0.0997661,-0.0389788,-0.0590803,0.0746789,-0.000846842,-0.000230843,0.105576,0.10491244882706674,0.07753809784557131,-0.0008464835305096452,-0.03822890152247327,-0.00023081635780475285,-0.057368927157215865
211,0.2016,821.585,63.6185,0.0171718,228.617,-2.50272,-0.667532,0.100672,-0.0393369,-0.0596253,0.0753626,-0.00085551,-0.000233204,0.106568,0.10591384252725256,0.07827506254574335,-0.0008551441556552408,-0.03857325009354662,-0.00023317681006085333,-0.05788252112484649
212,0.2026,822.798,63.7199,0.0170565,228.968,-2.507,-0.668689,0.101576,-0.0396946,-0.0601697,0.0760457,-0.000864171,-0.000235563,0.107559,0.10691404066233923,0.07901188387364133,-0.0008637977117773588,-0.03891709094238616,-0.00023553525721498048,-0.05839527029735769
213,0.2036,824.0,63.8204,0.0170116,229.316,-2.51132,-0.669946,0.10248,-0.0400519,-0.0607136,0.0767282,-0.000872829,-0.00023792,0.108549,0.10791514338535246,0.07974856084680648,-0.0008724481955688645,-0.039260424525595194,-0.0002378916992812341,-0.05890726985894024
214,0.2046,825.155,63.8598,-0.0105141,229.658,-2.51682,-0.67133,0.103383,-0.0404091,-0.061257,0.07741,-0.000881509,-0.000240261,0.109538,0.10891604259781196,0.08048498443386531,-0.000881120585080275,-0.039603539417986666,-0.0002402321396373086,-0.05941852072905718
215,0.2056,826.39,64.0378,0.0308265,230.004,-2.5224,-0.672753,0.104285,-0.0407654,-0.0617997,0.0780911,-0.000890188,-0.000242601,0.110526,0.10991673611316322,0.08122115343065617,-0.0008897919002054389,-0.03994566772311503,-0.00024257157475693347,-0.0599288358113349
216,0.2066,827.531,64.0915,0.00191175,230.34,-2.52791,-0.674215,0.105186,-0.0411218,-0.0623421,0.0787717,-0.000898866,-0.000244942,0.111514,0.11091722174349483,0.08195728302416616,-0.0008984621409711124,-0.04028777012087004,-0.0002449120041574382,-0.06043859215237368
217,0.2076,828.719,64.2234,0.0230767,230.679,-2.5335,-0.67571,0.106086,-0.0414776,-0.0628839,0.0794516,-0.000907543,-0.000247282,0.1125,0.11191749729954559,0.08269315591253545,-0.0009071313074039411,-0.040629174992732664,-0.00024725142832626723,-0.06094750864521847
218,0.2086,829.856,64.296,0.00860665,231.012,-2.53908,-0.677198,0.106985,-0.0418333,-0.0634252,0.0801309,-0.00091622,-0.000249622,0.113486,0.1129175605907129,0.08342887923348119,-0.0009158003986146079,-0.04097036251139019,-0.0002495908470208086,-0.06145568020974668
219,0.2096,831.012,64.409,0.0188921,231.345,-2.54471,-0.678702,0.107884,-0.0421884,-0.0639659,0.0808095,-0.000924896,-0.000251962,0.11447,0.11391852334302621,0.08416434358576041,-0.0009244684155285121,-0.04131085347791341,-0.00025193026024106224,-0.06196301395341952
220,0.2106,832.139,64.4921,0.0114504,231.673,-2.55036,-0.680207,0.108781,-0.0425433,-0.0645062,0.0814875,-0.000933573,-0.000254302,0.115454,0.11491815652692172,0.08489965625353846,-0.0009331373563057355,-0.04165103188778474,-0.00025426966798713924,-0.06246969844383932
221,0.2116,833.271,64.5951,0.0164937,232.0,-2.55606,-0.681726,0.109678,-0.0428978,-0.0650459,0.0821649,-0.000942249,-0.000256642,0.116437,0.11591868678406048,0.0856348162512639,-0.0009418052228048479,-0.04199070638611846,-0.00025660907025903956,-0.06297554703206909
222,0.2126,834.384,64.683,0.0127275,232.324,-2.56177,-0.683248,0.110574,-0.0432519,-0.0655851,0.0828416,-0.000950925,-0.000258982,0.117418,0.11691899799992145,0.08636971395601556,-0.0009504730141017825,-0.04232987742321104,-0.0002589484670567632,-0.06348065442791773
223,0.2136,835.496,64.7805,0.0151649,232.647,-2.56752,-0.684782,0.111468,-0.0436057,-0.0661237,0.0835178,-0.000959601,-0.000261322,0.118399,0.11791797005810878,0.0871045655819267,-0.0009591407301973165,-0.04266864118173608,-0.0002612878583801992,-0.06398492793439714
224,0.2146,836.594,64.8701,0.0132387,232.966,-2.57329,-0.686321,0.112362,-0.0439592,-0.0666619,0.0841933,-0.000968279,-0.000263661,0.119379,0.11891783559664248,0.08783915279487564,-0.0009678103691563855,-0.043006998008985664,-0.00026362624449316474,-0.06448855570779233
225,0.2156,837.687,64.9642,0.0143762,233.284,-2.5791,-0.687869,0.113255,-0.0443122,-0.0671995,0.0848681,-0.000976956,-0.000266001,0.120358,0.11991747549661547,0.08857347438742225,-0.0009764789338572166,-0.04334475692073325,-0.00026596562487068987,-0.06499135149662627
226,0.2166,838.769,65.0542,0.0133655,233.599,-2.58494,-0.689425,0.114147,-0.044665,-0.0677366,0.0855424,-0.000985635,-0.000268342,0.121336,0.12091688755627072,0.08930774701339583,-0.0009851494213709566,-0.04368220536108658,-0.00026830599950578016,-0.06549340980191021
227,0.2176,839.845,65.146,0.0138588,233.912,-2.5908,-0.690989,0.115039,-0.0450174,-0.0682733,0.0862161,-0.000994314,-0.000270682,0.122313,0.12191719148919944,0.09004186090105581,-0.00099381983363378,-0.044019152378365956,-0.0002706453689326205,-0.06599482492208608
228,0.2186,840.911,65.2356,0.0133006,234.223,-2.5967,-0.692561,0.115929,-0.0453694,-0.0688094,0.0868891,-0.00100299,-0.000273022,0.12329,0.1229161422567775,0.0907757059846146,-0.001002487173653921,-0.044355598418751696,-0.00027298473288539515,-0.0664954109023842
229,0.2196,841.97,65.3257,0.0134763,234.531,-2.60263,-0.69414,0.116819,-0.0457211,-0.0693449,0.0875615,-0.00101168,-0.000275363,0.124265,0.12391598248629032,0.0915093902063111,-0.0010111684243202523,-0.04469163945850718,-0.0002753250910887406,-0.0669951687877296
230,0.2206,843.021,65.4145,0.0131405,234.838,-2.60858,-0.695728,0.117707,-0.0460725,-0.06988,0.0882333,-0.00102036,-0.000277704,0.125239,0.12491446313853549,0.09224291257722861,-0.0010198396097453877,-0.04502727584163524,-0.00027766544381335745,-0.06749428612215902
231,0.2216,844.065,65.5033,0.0131606,235.142,-2.61457,-0.697324,0.118595,-0.0464235,-0.0704146,0.0889045,-0.00102905,-0.000280045,0.126213,0.12591383083538954,0.09297627210807669,-0.0010285207096197846,-0.045362412447899625,-0.0002800057910591347,-0.06799267044679835
232,0.2226,845.1,65.5911,0.0129332,235.445,-2.62058,-0.698927,0.119482,-0.0467742,-0.0709486,0.089575,-0.00103773,-0.000282387,0.127186,0.1269129594513747,0.0937093584382529,-0.0010371917444276235,-0.04569714515104395,-0.0002823471325439364,-0.06849022950068895
233,0.2236,846.129,65.6787,0.0128775,235.745,-2.62663,-0.700538,0.120368,-0.0471245,-0.0714821,0.090245,-0.00104642,-0.000284729,0.128157,0.12791184677518963,0.09444238924630577,-0.0010458726935126395,-0.04603137889663911,-0.00028468846854523555,-0.06898705742261813
234,0.2246,847.149,65.7655,0.0127027,236.044,-2.63271,-0.702157,0.121253,-0.0474744,-0.0720152,0.0909143,-0.00105511,-0.000287072,0.129128,0.12891049059429527,0.09517514472669597,-0.0010545535671604434,-0.046365114126779794,-0.00028703079877612225,-0.06948324815091622
235,0.2256,848.163,65.852,0.0126102,236.34,-2.63881,-0.703785,0.122137,-0.0478241,-0.0725477,0.0915831,-0.0010638,-0.000289415,0.130098,0.12990888869492423,0.09590784285043075,-0.0010632343653718124,-0.046698541943118066,-0.0002893731235188435,-0.06997861641776937
236,0.2266,849.169,65.9378,0.0124608,236.635,-2.64495,-0.70542,0.123021,-0.0481733,-0.0730797,0.0922512,-0.0010725,-0.000291759,0.131067,0.130908169769691,0.09664026351811983,-0.0010719250774281486,-0.047031376695941485,-0.0002917164424819374,-0.07047325620798472
237,0.2276,850.169,66.0232,0.0123505,236.927,-2.65111,-0.707062,0.123903,-0.0485223,-0.0736112,0.0929187,-0.0010812,-0.000294104,0.132035,0.13190607078508476,0.09737251525584734,-0.0010806157138757433,-0.04736390471595986,-0.00029406075565818757,-0.07096716840351702
238,0.2286,851.161,66.108,0.012213,237.218,-2.65731,-0.708713,0.124785,-0.0488709,-0.0741422,0.0935856,-0.0010899,-0.000296449,0.133002,0.13290485233743365,0.09810459707181995,-0.0010893062747150406,-0.04769593578239861,-0.0002964050633369464,-0.07146035388476124
239,0.2296,852.146,66.1923,0.0120941,237.507,-2.66353,-0.710372,0.125666,-0.0492191,-0.0746727,0.0942519,-0.0010986,-0.000298794,0.133969,0.1339033812997661,0.09883650797388777,-0.0010979967599467066,-0.04802747033404409,-0.0002987493655184359,-0.07195281353055483
240,0.2306,853.125,66.2762,0.0119623,237.794,-2.66979,-0.712038,0.126546,-0.0495671,-0.0752027,0.0949176,-0.00110731,-0.000301141,0.134934,0.13490165545151456,0.0995682469695478,-0.0011066971585046437,-0.048358699137213246,-0.00030109566160030354,-0.0724445482181808
241,0.2316,854.097,66.3596,0.0118392,238.079,-2.67607,-0.713713,0.127425,-0.0499146,-0.0757322,0.0955827,-0.00111602,-0.000303488,0.135898,0.1358996725709214,0.10029981306594493,-0.0011153974812824208,-0.0486893370376007,-0.00030344195217535397,-0.07293555882336944
242,0.2326,855.062,66.4424,0.0117099,238.363,-2.68238,-0.715395,0.128303,-0.0502619,-0.0762612,0.0962472,-0.00112473,-0.000305836,0.136862,0.13689743043504476,0.10103120526987408,-0.001124097728280704,-0.04901966986523165,-0.0003057892369379145,-0.0734258462203019
243,0.2336,856.021,66.5248,0.0115847,238.644,-2.68873,-0.717085,0.129181,-0.0506088,-0.0767897,0.0969111,-0.00113344,-0.000308184,0.137825,0.13789606471526317,0.10176242258778356,-0.0011327978995002708,-0.04934950772807045,-0.00030813651618910587,-0.07391541128161183
244,0.2346,856.973,66.6068,0.0114565,238.924,-2.6951,-0.718783,0.130057,-0.0509553,-0.0773176,0.0975745,-0.00114216,-0.000310534,0.138787,0.13889329839253328,0.10249357427512806,-0.001141507983526524,-0.04967885106161496,-0.0003104857893079238,-0.07440416231880964
245,0.2356,857.919,66.6883,0.0113301,239.202,-2.7015,-0.720489,0.130933,-0.0513015,-0.0778451,0.0982372,-0.00115088,-0.000312884,0.139747,0.13989140602924288,0.1032244389120498,-0.001150217991601199,-0.05000779529984434,-0.0003128350569059357,-0.07489228536941328
246,0.2366,858.859,66.7693,0.0112022,239.479,-2.70794,-0.722202,0.131808,-0.0516474,-0.0783721,0.0988993,-0.00115961,-0.000315236,0.140707,0.14088924750149823,0.10395512568021514,-0.0011589379121356158,-0.0503363407782339,-0.0003151863183528114,-0.0753796886929673
247,0.2376,859.793,66.8499,0.0110751,239.754,-2.7144,-0.723924,0.132682,-0.0519929,-0.0788986,0.0995608,-0.00116834,-0.000317588,0.141667,0.14188682057974789,0.10468563358470373,-0.0011676577565454815,-0.050664392898227995,-0.0003175375742694442,-0.07586637315594313
248,0.2386,860.72,66.93,0.0109473,240.027,-2.72089,-0.725653,0.133555,-0.0523382,-0.0794246,0.100222,-0.00117708,-0.000319941,0.142625,0.14288412303329556,0.10541629325509749,-0.0011763875130675894,-0.05099214189423951,-0.0003198898243361725,-0.07635233962327759
249,0.2396,861.642,67.0097,0.0108197,240.299,-2.72741,-0.72739,0.134427,-0.052683,-0.0799501,0.100882,-0.00118581,-0.000322295,0.143582,0.14388115263030787,0.1061461088212905,-0.0011851072051430878,-0.05131930339782986,-0.000322243068545669,-0.07683758895837589
250,0.2406,862.557,67.0889,0.0106916,240.568,-2.73396,-0.729135,0.135299,-0.0530276,-0.0804751,0.101542,-0.00119456,-0.000324651,0.144539,0.14487905201630147,0.10687640622474581,-0.0011938467972193445,-0.05164616244483067,-0.0003245983065666147,-0.07732212202311417
251,0.2416,863.467,67.1677,0.0105636,240.837,-2.74054,-0.730888,0.136169,-0.0533718,-0.0809996,0.102201,-0.0012033,-0.000327007,0.145494,0.1458755301967114,0.10760607817694945,-0.001202576324850213,-0.051972529664696454,-0.00032695353903855473,-0.07780593967784155
252,0.2426,864.371,67.2461,0.0104353,241.104,-2.74715,-0.732648,0.137039,-0.0537156,-0.0815236,0.10286,-0.00121205,-0.000329365,0.146449,0.14687287569036456,0.10833623114144553,-0.001211315764072296,-0.0522984054877339,-0.0003293107653028482,-0.07828904278138327
253,0.2436,865.269,67.3241,0.0103069,241.369,-2.75379,-0.734417,0.137908,-0.0540591,-0.0820471,0.103517,-0.00122081,-0.000331723,0.147403,0.1478699413816369,0.10906464730381304,-0.0012200651146239139,-0.05262388508112836,-0.0003316679860089211,-0.07877143219104255
254,0.2446,866.161,67.4017,0.0101782,241.633,-2.76046,-0.736193,0.138776,-0.0544023,-0.0825702,0.104175,-0.00122957,-0.000334083,0.148356,0.14886672503227727,0.10979465198694083,-0.0012288143885317293,-0.05294896877621558,-0.0003340272004885847,-0.07925320083728826
255,0.2456,867.048,67.4788,0.0100494,241.895,-2.76716,-0.737977,0.139644,-0.0547452,-0.0830927,0.104832,-0.00123833,-0.000336444,0.149308,0.14986437426673516,0.11052402664663585,-0.0012375635857960754,-0.05327365690386132,-0.000336387409064165,-0.07973416537692268
256,0.2466,867.93,67.5556,0.00992036,242.156,-2.77388,-0.739769,0.14051,-0.0550877,-0.0836148,0.105488,-0.0012471,-0.000338807,0.150259,0.15086058811318614,0.1112527694096086,-0.001246322693954749,-0.053597855154252194,-0.0003387496113897992,-0.08021451076410469
257,0.2476,868.806,67.6319,0.00979114,242.415,-2.78064,-0.741568,0.141376,-0.0554299,-0.0841363,0.106144,-0.00125588,-0.00034117,0.151209,0.15185766505449405,0.11198199038467038,-0.0012550917127454042,-0.05392165856229547,-0.0003411118081335651,-0.08069405384501471
258,0.2486,869.676,67.7078,0.00966169,242.672,-2.78743,-0.743376,0.14224,-0.0557718,-0.0846574,0.106799,-0.00126466,-0.000343535,0.152158,0.15285330012951714,0.1127105771744974,-0.0012638606545444242,-0.05424506745733204,-0.00034347599860840017,-0.08117297937867074
259,0.2496,870.542,67.7834,0.00953204,242.929,-2.79424,-0.745191,0.143104,-0.0561134,-0.085178,0.107453,-0.00127345,-0.000345901,0.153107,0.1538497958049707,0.11343852790591247,-0.0012726395066261498,-0.05456808216823483,-0.0003458411831461783,-0.08165119623495787
260,0.2506,871.402,67.8586,0.00940217,243.184,-2.80109,-0.747014,0.143968,-0.0564546,-0.0856981,0.108107,-0.00128224,-0.000348269,0.154055,0.15484715282473527,0.1141669548728177,-0.001281418281542157,-0.054890608512475736,-0.0003482083613914888,-0.08212870526080984
261,0.2516,872.257,67.9334,0.00927206,243.437,-2.80796,-0.748844,0.14483,-0.0567954,-0.0862177,0.10876,-0.00129103,-0.000350638,0.155001,0.15584306024490124,0.11489474349147244,-0.0012901969792930013,-0.05521264691463412,-0.0003505765336808686,-0.08260550730165872
262,0.2526,873.106,68.0078,0.00914172,243.689,-2.81487,-0.750683,0.145691,-0.057136,-0.0867368,0.109413,-0.00129984,-0.000353009,0.155947,0.1568386696681232,0.1156230075112965,-0.001298995573899786,-0.05553438669170052,-0.00035294669965402203,-0.08308160320143665
263,0.2536,873.951,68.0818,0.00901115,243.94,-2.8218,-0.752529,0.146552,-0.0574762,-0.0872555,0.110065,-0.00130864,-0.00035538,0.156892,0.15783513668019777,0.11635063089163955,-0.0013077841040691762,-0.055855639245190325,-0.0003553168600075596,-0.08355708544687501
264,0.2546,874.791,68.1555,0.00888032,244.189,-2.82876,-0.754383,0.147412,-0.0578161,-0.0877736,0.110717,-0.00131746,-0.000357754,0.157837,0.15883130318794403,0.117078728837118,-0.0013165925305681503,-0.0561764993801418,-0.00035769001366847686,-0.08403177154285357
265,0.2556,875.625,68.2288,0.00874924,244.437,-2.83575,-0.756245,0.148271,-0.0581557,-0.0882913,0.111368,-0.00132628,-0.000360129,0.15878,0.15982716693962806,0.11780618385050667,-0.0013254008793771588,-0.05649696742239885,-0.00036006416133538277,-0.08450584557007579
266,0.2566,876.455,68.3017,0.00861791,244.684,-2.84277,-0.758114,0.149129,-0.0584949,-0.0888085,0.112018,-0.0013351,-0.000362505,0.159722,0.16082272568248834,0.1185329940577371,-0.0013342091504968678,-0.05681694937904125,-0.0003624393030011719,-0.08497921672241482
267,0.2576,877.28,68.3743,0.00848631,244.929,-2.84982,-0.759991,0.149986,-0.0588339,-0.0893252,0.112668,-0.00134393,-0.000364883,0.160664,0.16181797716274415,0.11926027684517404,-0.001343027330497737,-0.05713663424355575,-0.00036481643829411325,-0.08545188583655272
268,0.2586,878.101,68.4465,0.00835444,245.173,-2.8569,-0.761876,0.150843,-0.0591724,-0.0898414,0.113317,-0.00135277,-0.000367263,0.161605,0.16281408193910352,0.11998691253262206,-0.001351855419115866,-0.05745573948125582,-0.000367195567199885,-0.08592385374768585
269,0.2596,878.916,68.5183,0.00822229,245.416,-2.86401,-0.763769,0.151699,-0.0595107,-0.0903572,0.113966,-0.00136162,-0.000369644,0.162545,0.1638098769326961,0.12071401995969433,-0.0013606934160872441,-0.05777454827504125,-0.00036957569007367574,-0.08639521265001149
270,0.2606,879.727,68.5899,0.00808986,245.658,-2.87115,-0.765669,0.152554,-0.0598487,-0.0908725,0.114614,-0.00137047,-0.000372027,0.163484,0.1648053598857926,0.12144047799161029,-0.001369531334842633,-0.05809296666198549,-0.0003719578065365381,-0.08686587192115702
271,0.2616,880.533,68.661,0.00795714,245.898,-2.87832,-0.767577,0.153408,-0.0601863,-0.0913873,0.115262,-0.00137933,-0.000374412,0.164422,0.16580052853966754,0.12216740692088535,-0.0013783791615991081,-0.0584109008061372,-0.00037434191657403915,-0.08733583239208775
272,0.2626,881.335,68.7319,0.00782413,246.137,-2.88551,-0.769493,0.154261,-0.0605236,-0.0919016,0.115909,-0.00138819,-0.000376798,0.165359,0.1667953806346083,0.12289368415851398,-0.0013872269099641787,-0.05872844525241372,-0.000376727020548806,-0.08780509489229316
273,0.2636,882.132,68.8024,0.00769081,246.374,-2.89274,-0.771416,0.155114,-0.0608606,-0.0924154,0.116555,-0.00139706,-0.000379186,0.166295,0.1677910817004209,0.12361930782969166,-0.0013960845659777288,-0.05904560032273276,-0.00037911411807456386,-0.088273660249789
274,0.2646,882.925,68.8725,0.00755719,246.611,-2.89999,-0.773347,0.155965,-0.0611972,-0.0929288,0.117201,-0.00140594,-0.000381576,0.167231,0.16878529488865857,0.1243454004052007,-0.001404952129374748,-0.059362272274784744,-0.0003815032091367687,-0.08874162041696321
275,0.2656,883.713,68.9424,0.00742326,246.846,-2.90727,-0.775286,0.156816,-0.0615335,-0.0934417,0.117846,-0.00141482,-0.000383968,0.168166,0.1697803545124268,0.12507083711665157,-0.001413819614028089,-0.05967855555660395,-0.0003838942937214318,-0.08920888499960555
276,0.2666,884.497,69.0119,0.007289,247.08,-2.91459,-0.777233,0.157666,-0.0618696,-0.0939541,0.118491,-0.00142372,-0.000386361,0.1691,0.17077509051667294,0.12579674188571355,-0.0014227069914846124,-0.059994544489166635,-0.00038628637220028406,-0.08967545482153516
277,0.2676,885.277,69.0811,0.00715442,247.313,-2.92193,-0.779187,0.158516,-0.0622052,-0.0944661,0.119135,-0.00143261,-0.000388757,0.170033,0.17177067240597266,0.1265219884918296,-0.0014315843041597942,-0.060309957390790814,-0.00038868144378878533,-0.09014142169096873
278,0.2686,886.053,69.1499,0.00701951,247.545,-2.9293,-0.781149,0.159364,-0.0625406,-0.0949776,0.119779,-0.00144152,-0.000391154,0.170965,0.17276475536777802,0.12724770230718518,-0.0014404815091065837,-0.06062507658263949,-0.000391077509247717,-0.0906066953498913
279,0.2696,886.824,69.2185,0.00688427,247.775,-2.9367,-0.783118,0.160212,-0.0628757,-0.0954886,0.120422,-0.00145043,-0.000393553,0.171896,0.17375968166946043,0.12797275565944055,-0.0014493786347795634,-0.06093980838321833,-0.0003934755681762603,-0.09107127661794423
280,0.2706,887.591,69.2867,0.00674868,248.005,-2.94412,-0.785095,0.161059,-0.0632104,-0.0959991,0.121065,-0.00145936,-0.000395954,0.172827,0.17475427727161108,0.1286982753709196,-0.0014582956520138302,-0.06125405923653848,-0.0003958756205602043,-0.09153516631331149
281,0.2716,888.354,69.3546,0.00661274,248.233,-2.95158,-0.78708,0.161905,-0.0635448,-0.0965092,0.121707,-0.00146828,-0.000398357,0.173756,0.17574853990397554,0.12942313231789115,-0.001467202604291451,-0.06156792339811723,-0.00039827766638500517,-0.09199845605288126
282,0.2726,889.112,69.4222,0.00647644,248.46,-2.95906,-0.789072,0.16275,-0.0638789,-0.0970188,0.122348,-0.00147722,-0.000400762,0.174685,0.17674246729537657,0.1301473246245448,-0.0014761294475971187,-0.06188140118552954,-0.000400681705636341,-0.09246105575926034
283,0.2736,889.867,69.4895,0.00633979,248.686,-2.96658,-0.791072,0.163595,-0.0642127,-0.0975279,0.122989,-0.00148616,-0.000403169,0.175613,0.17773723491036764,0.13087198128727717,-0.0014850562110971799,-0.06219449291589685,-0.00040308773829977884,-0.09292296624648222
284,0.2746,890.618,69.5565,0.00620277,248.911,-2.97412,-0.79308,0.164438,-0.0645462,-0.0980366,0.123629,-0.00149512,-0.000405578,0.17654,0.17873048599590846,0.13159597100729914,-0.0014940028649125248,-0.0625071989058873,-0.0004054957643609969,-0.0933842789887086
285,0.2756,891.365,69.6232,0.00606537,249.135,-2.98169,-0.795095,0.165281,-0.0648793,-0.0985448,0.124269,-0.00150408,-0.000407989,0.177467,0.17972457474514014,0.13232042422904677,-0.0015029494385661035,-0.06281942575366328,-0.00040790578380545117,-0.09384490404338641
286,0.2766,892.108,69.6896,0.00592759,249.358,-2.98929,-0.797118,0.166123,-0.0652122,-0.0990526,0.124908,-0.00151304,-0.000410402,0.178392,0.18071832114559938,0.13304420820448137,-0.0015118959320588043,-0.06313136124228702,-0.0004103177966187088,-0.09430493278992913
287,0.2776,892.847,69.7557,0.00578944,249.58,-2.99692,-0.799149,0.166965,-0.0655447,-0.0995598,0.125547,-0.00152202,-0.000412817,0.179317,0.1817129046328918,0.13376845482567568,-0.0015208623149741696,-0.06344281828207166,-0.0004127318027862259,-0.0947641848518499
288,0.2786,893.582,69.8215,0.00565088,249.8,-3.00458,-0.801187,0.167805,-0.0658769,-0.100067,0.126185,-0.00153101,-0.000415235,0.18024,0.18270596049785492,0.13449202989575793,-0.0015298386020735633,-0.06375389090581485,-0.0004151488018786509,-0.09522320404018658
289,0.2796,894.313,69.887,0.00551193,250.02,-3.01227,-0.803232,0.168645,-0.0662088,-0.100573,0.126822,-0.00154,-0.000417654,0.181163,0.18369985088019303,0.13521493153853048,-0.0015388148084763964,-0.06406457942781085,-0.00041756679470905667,-0.09568090529076023
290,0.2806,895.041,69.9523,0.00537258,250.238,-3.01998,-0.805286,0.169484,-0.0665404,-0.101079,0.127459,-0.001549,-0.000420076,0.182085,0.1846933917872109,0.13593829381634626,-0.0015478009187055441,-0.06437488416190429,-0.00041998778043050855,-0.0961383750030852
291,0.2816,895.765,70.0172,0.00523282,250.456,-3.02773,-0.807346,0.170322,-0.0668717,-0.101584,0.128096,-0.00155801,-0.0004225,0.183007,0.18568658093766088,0.13666211702272313,-0.0015567969324922215,-0.06468480542149013,-0.00042241075944349227,-0.09659470988945174
292,0.2826,896.485,70.0819,0.00509265,250.672,-3.0355,-0.809415,0.17116,-0.0672026,-0.102089,0.128732,-0.00156703,-0.000424926,0.183927,0.18668060272944675,0.1373852640655333,-0.0015658028495670884,-0.06499425001894388,-0.0004248357317334639,-0.09705081438487928
293,0.2836,897.202,70.1463,0.00495205,250.888,-3.0433,-0.811491,0.171997,-0.0675333,-0.102594,0.129367,-0.00157605,-0.000427354,0.184847,0.18767427018575078,0.13810773306784663,-0.001574808685409046,-0.06530340529881962,-0.00042726269728599053,-0.0975066886056859
294,0.2846,897.914,70.2104,0.00481102,251.102,-3.05113,-0.813574,0.172833,-0.0678636,-0.103098,0.130002,-0.00158509,-0.000429785,0.185766,0.18866758102170378,0.13883066098366625,-0.0015838344083421996,-0.06561208460285595,-0.00042969265565673265,-0.0979614306300125
295,0.2856,898.624,70.2742,0.00466957,251.316,-3.05899,-0.815665,0.173668,-0.0681936,-0.103601,0.130636,-0.00159413,-0.000432218,0.186684,0.18966053295159502,0.1395529085510161,-0.0015928600496831757,-0.0659203817431111,-0.00043212460725605695,-0.09841504193759776
296,0.2866,899.33,70.3378,0.00452767,251.528,-3.06687,-0.817763,0.174502,-0.0685233,-0.104105,0.13127,-0.00160319,-0.000434653,0.187601,0.19065312368888065,0.14027561416850998,-0.0016019055773948132,-0.06622829703062605,-0.0004345585520693085,-0.09886932626719391
297,0.2876,900.032,70.4011,0.00438532,251.74,-3.07479,-0.819869,0.175336,-0.0688528,-0.104607,0.131903,-0.00161225,-0.00043709,0.188517,0.1916465425921381,0.14099763712843671,-0.001610951023154339,-0.06653592412240783,-0.00043699449008194335,-0.09932158034013794
298,0.2886,900.731,70.4641,0.00424253,251.95,-3.08273,-0.821983,0.176168,-0.0691819,-0.105109,0.132536,-0.00162132,-0.00043953,0.189433,0.1926384050731511,0.1417201172735807,-0.001620006370762539,-0.06684307660506583,-0.00043943342083985204,-0.09977360743851282
299,0.2896,901.426,70.5269,0.00409928,252.16,-3.0907,-0.824104,0.177,-0.0695107,-0.105611,0.133168,-0.0016304,-0.000441972,0.190347,0.19363109312713878,0.14244191245094862,-0.0016290716199484079,-0.06714984816546987,-0.0004418743447630602,-0.100225407676231
300,0.2906,902.118,70.5894,0.00395556,252.369,-3.0987,-0.826232,0.177832,-0.0698391,-0.106113,0.133799,-0.00163949,-0.000444417,0.191261,0.19462460744126409,0.14316302078345755,-0.0016381467704407182,-0.06745614585849835,-0.0004443182613926844,-0.10067698116714818
301,0.2916,902.807,70.6516,0.00381138,252.576,-3.10673,-0.828368,0.178662,-0.0701673,-0.106613,0.13443,-0.00164859,-0.000446864,0.192174,0.19561655746775508,0.14388458427891315,-0.0016472318219680204,-0.0677621565323292,-0.00044676417115330214,-0.1011265302799208
302,0.2926,903.492,70.7136,0.00366672,252.783,-3.11479,-0.830512,0.179492,-0.0704952,-0.107114,0.135061,-0.0016577,-0.000449314,0.193086,0.19660933115453982,0.14460660322461383,-0.001656326774258532,-0.06806778721031415,-0.00044921307358114504,-0.10157675309801739
303,0.2936,904.174,70.7753,0.00352157,252.989,-3.12287,-0.832663,0.180321,-0.0708228,-0.107614,0.135691,-0.00166681,-0.000451766,0.193998,0.19760173158320993,0.14532793257953425,-0.0016654216436944314,-0.06837303820038187,-0.0004516639691058977,-0.10202585243727735
304,0.2946,904.853,70.8368,0.00337595,253.194,-3.13098,-0.834821,0.181149,-0.07115,-0.108113,0.13632,-0.00167594,-0.00045422,0.194908,0.19859375645858268,0.14604857046598263,-0.0016745363967859417,-0.0686778166778047,-0.0004541168577127941,-0.10247382975727426
305,0.2956,905.528,70.898,0.00322982,253.398,-3.13912,-0.836987,0.181977,-0.071477,-0.108612,0.136949,-0.00168508,-0.000456677,0.195818,0.19958660307070453,0.1467696617762484,-0.0016836610498235371,-0.0689823092445031,-0.00045657273893062733,-0.1029215835923526
306,0.2966,906.201,70.9589,0.0030832,253.601,-3.14729,-0.83916,0.182803,-0.0718036,-0.109111,0.137577,-0.00169423,-0.000459137,0.196727,0.200577870942112,0.1474900593049917,-0.001692795602534325,-0.06928632997301643,-0.000459031612737304,-0.10336911405400351
307,0.2976,906.87,71.0196,0.00293607,253.803,-3.15549,-0.84134,0.183629,-0.07213,-0.109609,0.138205,-0.00170338,-0.000461599,0.197635,0.20156995793903354,0.14821090938546955,-0.0017019300716643038,-0.06959006534260437,-0.00046149247957216755,-0.10381552506963576
308,0.2986,907.536,71.0801,0.00278843,254.004,-3.16371,-0.843528,0.184454,-0.072456,-0.110107,0.138832,-0.00171255,-0.000464063,0.198543,0.20256166217608285,0.1489310633703358,-0.0017110844229927258,-0.06989332954655159,-0.0004639553394204521,-0.10426171382792881
309,0.2996,908.198,71.1403,0.00264027,254.205,-3.17197,-0.845724,0.185279,-0.0727818,-0.110604,0.139459,-0.00172172,-0.000466531,0.199449,0.20355418490670973,0.1496516690333367,-0.0017202386903761857,-0.07019630894176188,-0.00046642219133452567,-0.10470678514677223
310,0.3006,908.858,71.2003,0.00249159,254.404,-3.18025,-0.847926,0.186102,-0.0731072,-0.111101,0.140085,-0.00173091,-0.000469001,0.200355,0.2045451177138058,0.15037157628561193,-0.00172941283922734,-0.07049881784196488,-0.0004688910362227183,-0.10515163532012939
311,0.3016,909.515,71.26,0.00234237,254.603,-3.18856,-0.850136,0.186925,-0.0734324,-0.111597,0.140711,-0.00174011,-0.000471473,0.20126,0.20553686639428803,0.15109193434091384,-0.0017385968863825596,-0.0708010424820128,-0.00047136187407015306,-0.10559537005369957
312,0.3026,910.168,71.3195,0.00219263,254.801,-3.19689,-0.852354,0.187748,-0.0737572,-0.112093,0.141336,-0.00174931,-0.000473948,0.202164,0.20652943161989645,0.15181159166936564,-0.001747780849044922,-0.07110279729578006,-0.0004738357043880814,-0.1060388847494157
313,0.3036,910.819,71.3787,0.00204233,254.998,-3.20526,-0.854579,0.188569,-0.0740818,-0.112589,0.141961,-0.00175853,-0.000476426,0.203068,0.2075203990197112,0.15253169892423513,-0.001756984692075747,-0.07140426839637115,-0.00047631252715440997,-0.10648217951638972
314,0.3046,911.467,71.4377,0.0018915,255.194,-3.21365,-0.856811,0.18939,-0.074406,-0.113084,0.142585,-0.00176776,-0.000478906,0.20397,0.20851218033782914,0.15325110313513446,-0.0017661984325855196,-0.07170527033750596,-0.0004787913428256907,-0.10692436138848693
315,0.3056,912.111,71.4965,0.0017401,255.39,-3.22207,-0.85905,0.190209,-0.0747299,-0.113578,0.143208,-0.001777,-0.00048139,0.204872,0.2095023572356176,0.1539698024239704,-0.0017754220702987933,-0.07200589631143894,-0.00048127415042431565,-0.10736543180059943
316,0.3066,912.753,71.5551,0.00158815,255.584,-3.23052,-0.861297,0.191029,-0.0750536,-0.114073,0.143831,-0.00178624,-0.000483876,0.205773,0.2104945559144129,0.15468894960196633,-0.0017846456227859075,-0.07230623938965319,-0.0004837589508881468,-0.10780717657100758
317,0.3076,913.392,71.6134,0.00143563,255.778,-3.23899,-0.863551,0.191847,-0.0753769,-0.114566,0.144454,-0.0017955,-0.000486364,0.206673,0.2114851455570792,0.15540854494824408,-0.0017938890541703278,-0.07260611430506647,-0.00048624574420230715,-0.10824691922748675
318,0.3086,914.028,71.6715,0.00128253,255.971,-3.24749,-0.865812,0.192665,-0.0757,-0.11506,0.145076,-0.00180477,-0.000488856,0.207572,0.2124765458335771,0.1561274326140889,-0.0018031423819295789,-0.07290570686774966,-0.0004887365293744228,-0.10868733645737605
319,0.3096,914.661,71.7293,0.00112886,256.163,-3.25602,-0.868081,0.193482,-0.0760227,-0.115552,0.145697,-0.00181405,-0.00049135,0.208471,0.21346754393912604,0.15684561072096437,-0.001812405605786771,-0.07320483192971894,-0.0004912293073570106,-0.10912575442817452
320,0.3106,915.291,71.7869,0.000974604,256.354,-3.26458,-0.870357,0.194298,-0.0763452,-0.116045,0.146318,-0.00182334,-0.000493847,0.209369,0.21445813756221255,0.15756423495495264,-0.0018216787254650146,-0.07350367518035728,-0.0004937250776414492,-0.10956484718598314
321,0.3116,915.918,71.8443,0.000819755,256.544,-3.27317,-0.87264,0.195113,-0.0766674,-0.116537,0.146939,-0.00183264,-0.000496347,0.210266,0.21544832439064932,0.15828330559318426,-0.001830961740686754,-0.07380214421027131,-0.0004962238402053121,-0.11000283352769258
322,0.3126,916.543,71.9015,0.00066431,256.734,-3.28178,-0.87493,0.195928,-0.0769892,-0.117028,0.147559,-0.00184196,-0.00049885,0.211162,0.2164393185502942,0.15900166391071902,-0.0018402646327718708,-0.0741001467290876,-0.0004987255950260616,-0.11043971487328308
323,0.3136,917.165,71.9585,0.000508261,256.923,-3.29042,-0.877228,0.196742,-0.0773108,-0.117519,0.148178,-0.00185128,-0.000501356,0.212057,0.21742990326887823,0.1597193080286199,-0.0018495674381543425,-0.0743978682457136,-0.0005012303420812714,-0.11087638176278625
324,0.3146,917.784,72.0152,0.000351603,257.111,-3.29908,-0.879533,0.197555,-0.0776321,-0.11801,0.148797,-0.00186062,-0.000503864,0.212952,0.21842007623100534,0.16043739650574462,-0.0018588901196574525,-0.07469521643910093,-0.0005037370818521403,-0.1113128343014741
325,0.3156,918.4,72.0717,0.000194329,257.298,-3.30778,-0.881845,0.198368,-0.0779531,-0.1185,0.149415,-0.00186996,-0.000506376,0.213846,0.21941105453107634,0.1611547684618877,-0.001868212714087103,-0.07499219160755943,-0.0005062478133111004,-0.11174818434319556
326,0.3166,919.014,72.128,3.64327e-05,257.485,-3.3165,-0.884164,0.19918,-0.0782737,-0.11899,0.150033,-0.00187932,-0.00050889,0.214739,0.22040161842186845,0.16187258389091896,-0.0018775551838933202,-0.07528870157784207,-0.0005087605374456405,-0.11218332111565177
327,0.3176,919.625,72.1841,-0.000122091,257.671,-3.32525,-0.88649,0.199991,-0.0785941,-0.119479,0.150651,-0.00188869,-0.000511407,0.215631,0.221391765584813,0.1625908430669889,-0.001886907547385408,-0.07558493161926971,-0.0005112762537292648,-0.11261735734112022
328,0.3186,920.234,72.24,-0.000281249,257.856,-3.33402,-0.888824,0.200801,-0.0789142,-0.119968,0.151267,-0.00189807,-0.000513927,0.216523,0.22238149370071025,0.16330721964765216,-0.0018962698042834791,-0.07588078952807387,-0.0005137949621395466,-0.11305118137475945
329,0.3196,920.84,72.2957,-0.000441048,258.04,-3.34283,-0.891164,0.201611,-0.0792341,-0.120457,0.151884,-0.00190746,-0.000516451,0.217413,0.2233720238211494,0.16402520167685353,-0.0019056419543077574,-0.07617636798320926,-0.0005163176621374443,-0.11348479332030603
330,0.3206,921.443,72.3511,-0.000601493,258.224,-3.35166,-0.893512,0.202419,-0.0795536,-0.120945,0.152499,-0.00191686,-0.000518977,0.218303,0.22436090787175278,0.16474129735273468,-0.0019150239971776895,-0.0764714824865863,-0.00051884235473032,-0.1139173071991959
331,0.3216,922.043,72.4063,-0.00076259,258.406,-3.36051,-0.895867,0.203228,-0.0798728,-0.121432,0.153115,-0.00192627,-0.000521506,0.219193,0.22535181661476344,0.1654589990213231,-0.001924415932612722,-0.07676622574584979,-0.0005213700393817966,-0.11434872441197197
332,0.3226,922.642,72.4614,-0.000924347,258.588,-3.3694,-0.898229,0.204035,-0.0801917,-0.12192,0.153729,-0.0019357,-0.000524038,0.220081,0.22634107464269793,0.16617481057838202,-0.00193382774099371,-0.07706059805629983,-0.0005239007160690035,-0.11478081679534236
333,0.3236,923.237,72.5162,-0.00108677,258.77,-3.37831,-0.900597,0.204842,-0.0805104,-0.122406,0.154344,-0.00194514,-0.000526574,0.220969,0.22733113132407445,0.16689222867033893,-0.0019432494411893986,-0.07735469197734368,-0.000526435384242796,-0.11521092879269856
334,0.3246,923.83,72.5708,-0.00124986,258.95,-3.38724,-0.902973,0.205648,-0.0808288,-0.122893,0.154957,-0.00195458,-0.000529112,0.221855,0.2283207589822931,0.1676077528922819,-0.0019526710524445656,-0.077648415480155,-0.0005289720449307422,-0.1156417161651373
335,0.3256,924.421,72.6252,-0.00141363,259.13,-3.39621,-0.905357,0.206453,-0.0811468,-0.123379,0.155571,-0.00196404,-0.000531653,0.222742,0.22930995529136955,0.16832488418933633,-0.0019621125355181457,-0.07794167665303453,-0.00053151169758614,-0.11607140986705378
336,0.3266,925.009,72.6794,-0.00157809,259.31,-3.4052,-0.907747,0.207257,-0.0814646,-0.123864,0.156183,-0.00197352,-0.000534198,0.223627,0.23029871792473977,0.16904011785763884,-0.001971573889844369,-0.07823466023063785,-0.0005340553416521843,-0.11650001128902188
337,0.3276,925.595,72.7334,-0.00174323,259.488,-3.41421,-0.910144,0.208061,-0.0817821,-0.124349,0.156796,-0.001983,-0.000536746,0.224511,0.23128827584292888,0.16975695913929112,-0.0019810351544774507,-0.07852727427107753,-0.0005366019776347208,-0.11692840488970113
338,0.3286,926.178,72.7872,-0.00190908,259.666,-3.42326,-0.912548,0.208864,-0.0820993,-0.124834,0.157407,-0.0019925,-0.000539296,0.225395,0.23227739740758935,0.17047189903322102,-0.001990516289608002,-0.07881951906720375,-0.0005391506060501428,-0.11735659076986038
339,0.3296,926.759,72.8408,-0.00207562,259.843,-3.43233,-0.914959,0.209667,-0.0824163,-0.125318,0.158019,-0.00200201,-0.00054185,0.226278,0.23326731355584895,0.17118844707676573,-0.0020000073146682062,-0.07911148700029713,-0.0005417032257998278,-0.11778368681434759
340,0.3306,927.337,72.8942,-0.00224287,260.019,-3.44142,-0.917377,0.210468,-0.0827329,-0.125802,0.158629,-0.00201153,-0.000544408,0.22716,0.23425555641243312,0.1719030899734062,-0.0020095082293741795,-0.07940299415549523,-0.0005442598368530227,-0.11821057619436592
341,0.3316,927.913,72.9474,-0.00241084,260.195,-3.45054,-0.919802,0.211269,-0.0830492,-0.126285,0.159239,-0.00202106,-0.000546968,0.228042,0.23524459116865892,0.17261816893519977,-0.0020190190334417046,-0.07969413294241745,-0.0005468184402728227,-0.11863637764673551
342,0.3326,928.487,73.0004,-0.00257953,260.37,-3.45969,-0.922234,0.21207,-0.0833653,-0.126768,0.159849,-0.0020306,-0.000549531,0.228923,0.2362344184590921,0.1733336842282278,-0.0020285397265863425,-0.07998499565372086,-0.00054938003549454,-0.11906197348666281
343,0.3336,929.058,73.0532,-0.00274895,260.544,-3.46887,-0.924672,0.212869,-0.0836811,-0.127251,0.160458,-0.00204016,-0.000552098,0.229802,0.23722256447120316,0.17404846206968405,-0.002038080288142563,-0.08027549052053973,-0.0005519456219430507,-0.11948736381343494
344,0.3346,929.627,73.1059,-0.0029191,260.718,-3.47807,-0.927118,0.213668,-0.0839966,-0.127733,0.161067,-0.00204973,-0.000554668,0.230682,0.23821150032747873,0.1747636753434214,-0.0020476307380152825,-0.0805656178332903,-0.0005545142001421866,-0.11991166863839942
345,0.3356,930.194,73.1583,-0.00308999,260.891,-3.4873,-0.92957,0.214466,-0.0843118,-0.128215,0.161675,-0.00205931,-0.000557241,0.23156,0.23919998745864945,0.17547814883596247,-0.0020571910759187295,-0.08085537788196662,-0.0005570857700687437,-0.12033576899771836
346,0.3366,930.759,73.2105,-0.00326163,261.063,-3.49655,-0.93203,0.215263,-0.0846267,-0.128696,0.162283,-0.00206891,-0.000559818,0.232438,0.24018802352872703,0.17619305686047104,-0.002066771280899271,-0.08114477095614059,-0.0005596613311401599,-0.12075878574914589
347,0.3376,931.321,73.2626,-0.00343403,261.235,-3.50583,-0.934496,0.21606,-0.0849414,-0.129177,0.16289,-0.00207851,-0.000562397,0.233315,0.24117684737744072,0.1769072227734121,-0.0020763513939103806,-0.08143388920157868,-0.0005622388844498394,-0.12118159907844306
348,0.3386,931.881,73.3144,-0.00360718,261.406,-3.51513,-0.936969,0.216856,-0.0852558,-0.129657,0.163497,-0.00208813,-0.00056498,0.234191,0.24216521746706166,0.1776218223166559,-0.002085951373233974,-0.08172264099265358,-0.0005648204288527525,-0.12160333068720197
349,0.3396,932.439,73.3661,-0.0037811,261.576,-3.52446,-0.939449,0.217651,-0.0855699,-0.130137,0.164103,-0.00209776,-0.000567567,0.235066,0.2431531314587274,0.1783356774172291,-0.0020955612392506984,-0.08201102661778448,-0.0005674059643179241,-0.12202485991336454
350,0.3406,932.994,73.4175,-0.00395579,261.746,-3.53382,-0.941935,0.218446,-0.0858837,-0.130617,0.164709,-0.00210741,-0.000570156,0.235941,0.24414183115429244,0.17904996524509653,-0.002105190970621229,-0.08229904636496999,-0.0005699934919543015,-0.12244618685405084
351,0.3416,933.548,73.4688,-0.00413126,261.915,-3.5432,-0.944429,0.21924,-0.0861972,-0.131096,0.165314,-0.00211707,-0.000572749,0.236815,0.24513007204794524,0.17976350629847393,-0.0021148305879170604,-0.08258670052178951,-0.0005725850106012009,-0.12286643447320778
352,0.3426,934.099,73.5199,-0.00430752,262.084,-3.55261,-0.946929,0.220033,-0.0865104,-0.131575,0.165919,-0.00212674,-0.000575346,0.237688,0.2461178517979865,0.18047747917480184,-0.0021244800908498673,-0.08287398937540313,-0.0005751805202277582,-0.12328648084195848
353,0.3436,934.648,73.5709,-0.00448456,262.252,-3.56204,-0.949436,0.220826,-0.0868234,-0.132053,0.166523,-0.00213642,-0.000577945,0.23856,0.24710641516803378,0.18119070294411888,-0.002134139479130992,-0.08316100489645639,-0.0005777780219581308,-0.1237054497625667
354,0.3446,935.195,73.6216,-0.00466241,262.419,-3.5715,-0.951949,0.221617,-0.0871361,-0.132531,0.167127,-0.00214612,-0.000580548,0.239432,0.24809326659071473,0.18190435763071644,-0.002143818731033642,-0.0834476556300473,-0.0005803795146160917,-0.1241242184638871
355,0.3456,935.74,73.6721,-0.00484106,262.585,-3.58098,-0.954469,0.222409,-0.0874485,-0.133009,0.16773,-0.00215583,-0.000583155,0.240303,0.24908214800320327,0.18261726087709507,-0.002153507867512894,-0.08373394186219074,-0.0005829849981704438,-0.1245427870416016
356,0.3466,936.282,73.7225,-0.00502052,262.751,-3.59049,-0.956996,0.223199,-0.0877606,-0.133486,0.168333,-0.00216555,-0.000585765,0.241173,0.25006931277887134,0.18333059413376618,-0.00216320688827909,-0.08401986387848404,-0.0005855934731754386,-0.12496028055206454
357,0.3476,936.823,73.7727,-0.0052008,262.917,-3.60003,-0.959529,0.223989,-0.0880725,-0.133962,0.168935,-0.00217528,-0.000588378,0.242042,0.25105725772283805,0.18404317361633882,-0.0021729157930422405,-0.08430551353356086,-0.0005882049396078726,-0.12537670034274906
358,0.3486,937.361,73.8227,-0.0053819,263.081,-3.60959,-0.962069,0.224778,-0.0883841,-0.134439,0.169537,-0.00218503,-0.000590995,0.242911,0.25204473140632255,0.18475618220090673,-0.0021826445596854205,-0.08459079948568415,-0.0005908203968532089,-0.12579379617142195
359,0.3496,937.898,73.8725,-0.00556383,263.245,-3.61917,-0.964616,0.225566,-0.0886954,-0.134915,0.170138,-0.00219479,-0.000593615,0.243779,0.2530317314816277,0.18546843467683982,-0.002192383209549842,-0.08487572201931104,-0.0005934388454735817,-0.12620981930308395
360,0.3506,938.432,73.9222,-0.0057466,263.409,-3.62878,-0.967169,0.226354,-0.0890064,-0.13539,0.170739,-0.00220457,-0.000596239,0.244646,0.2540195096195088,0.18618111534516957,-0.0022021417203228477,-0.08516028141848286,-0.0005960612848494584,-0.12662477108006598
361,0.3516,938.965,73.9717,-0.00593021,263.572,-3.63842,-0.969729,0.227141,-0.0893171,-0.135865,0.171339,-0.00221435,-0.000598866,0.245513,0.25500681142588144,0.18689303756968645,-0.0022119001356580847,-0.08544447796682608,-0.0005986867155479692,-0.12703952580175826
362,0.3526,939.495,74.021,-0.00611467,263.734,-3.64808,-0.972295,0.227927,-0.0896276,-0.13634,0.171939,-0.00222416,-0.000601497,0.246378,0.2559936345503455,0.1876053870757095,-0.00222168838890624,-0.08572840337471677,-0.0006013161369441411,-0.12745408356173993
363,0.3536,940.023,74.0701,-0.00629999,263.896,-3.65776,-0.974868,0.228712,-0.0899378,-0.136814,0.172538,-0.00223397,-0.000604131,0.247243,0.2569799766420877,0.18831697580211482,-0.002231476546132205,-0.08601196644108455,-0.0006039485496105446,-0.12786757232155377
364,0.3546,940.55,74.119,-0.00648617,264.057,-3.66747,-0.977447,0.229497,-0.0902477,-0.137288,0.173137,-0.0022438,-0.000606769,0.248107,0.25796709331635603,0.1890289908978522,-0.00224128456251127,-0.0862951674484218,-0.0006065849529168776,-0.12828086513413872
365,0.3556,941.074,74.1678,-0.00667323,264.217,-3.6772,-0.980033,0.230282,-0.0905574,-0.137761,0.173735,-0.00225364,-0.00060941,0.248971,0.2589549851814361,0.18974024287755542,-0.0022511024599670693,-0.08657809802100247,-0.0006092243474407066,-0.1286930907858781
366,0.3566,941.597,74.2164,-0.00686115,264.377,-3.68696,-0.982625,0.231065,-0.0908668,-0.138234,0.174333,-0.0022635,-0.000612055,0.249834,0.25994113296130594,0.19045192031314118,-0.0022609402155965297,-0.08686066704179307,-0.0006118677325464006,-0.1291051215009903
367,0.3576,942.117,74.2648,-0.00704996,264.537,-3.69674,-0.985223,0.231848,-0.0911759,-0.138707,0.17493,-0.00227336,-0.000614703,0.250696,0.2609280531972644,0.19116283229568043,-0.0022707778742263596,-0.08714287479215577,-0.0006145141088168549,-0.12951695737165858
368,0.3586,942.636,74.3131,-0.00723966,264.695,-3.70655,-0.987828,0.23263,-0.0914847,-0.139179,0.175527,-0.00228325,-0.000617355,0.251557,0.26191448457926625,0.1918741688193859,-0.0022806453674383276,-0.08742472155304037,-0.0006171644756111094,-0.12992772841818612
369,0.3596,943.152,74.3612,-0.00743026,264.854,-3.71638,-0.990439,0.233412,-0.0917933,-0.139651,0.176124,-0.00229314,-0.000620011,0.252418,0.2629016876523007,0.1925859301377848,-0.0022905127630612476,-0.08770629883435999,-0.0006198188328971899,-0.13033830562652904
370,0.3606,943.667,74.4091,-0.00762176,265.011,-3.72623,-0.993057,0.234192,-0.0921016,-0.140123,0.17672,-0.00230305,-0.00062267,0.253277,0.2638871352432677,0.19329692320703518,-0.0023004000150883552,-0.08798751563063278,-0.0006224761812659851,-0.1307486890881575
371,0.3616,944.18,74.4569,-0.00781416,265.168,-3.73611,-0.995681,0.234972,-0.0924096,-0.140594,0.177315,-0.00231298,-0.000625333,0.254136,0.2648733517832069,0.194007146146715,-0.0023103071229273464,-0.08826837222168327,-0.0006251375200683196,-0.1311580100529427
372,0.3626,944.691,74.5044,-0.00800749,265.325,-3.74601,-0.998311,0.235752,-0.0927173,-0.141064,0.17791,-0.00232291,-0.000627999,0.254995,0.26586033787213226,0.1947177917947871,-0.0023202141323892533,-0.08854886888692559,-0.0006278018499001892,-0.13156626983965258
373,0.3636,945.2,74.5519,-0.00820173,265.481,-3.75594,-1.00095,0.236531,-0.0930248,-0.141534,0.178504,-0.00233287,-0.000630669,0.255853,0.2668468272630655,0.1954276649745752,-0.0023301509735709214,-0.08882909702245889,-0.0006304701701069781,-0.13197433778934797
374,0.3646,945.708,74.5991,-0.00839691,265.636,-3.76589,-1.00359,0.237309,-0.093332,-0.142004,0.179098,-0.00234283,-0.000633343,0.256709,0.2678328175951816,0.19613795994429117,-0.002340087715782202,-0.08910896573381855,-0.0006331424806569341,-0.13238221399217098
375,0.3656,946.213,74.6462,-0.00859302,265.791,-3.77586,-1.00624,0.238086,-0.093639,-0.142474,0.179692,-0.00235281,-0.00063602,0.257566,0.26881830650731486,0.196848676954553,-0.002350044312023236,-0.08938856636044601,-0.0006358177821536026,-0.13278989853822154
376,0.3666,946.717,74.6931,-0.00879007,265.945,-3.78586,-1.00889,0.238863,-0.0939457,-0.142943,0.180285,-0.0023628,-0.000638701,0.258421,0.2698045614418938,0.19755861869690938,-0.0023600107852980168,-0.08966780806323926,-0.0006384970739344853,-0.13319652471451526
377,0.3676,947.219,74.7399,-0.00898807,266.099,-3.79588,-1.01155,0.239639,-0.0942521,-0.143411,0.180878,-0.00237281,-0.000641386,0.259276,0.2707903122034019,0.19826898155956907,-0.0023699971116083463,-0.0899466911197826,-0.0006411803559676077,-0.13360209383037336
378,0.3686,947.719,74.7865,-0.00918703,266.252,-3.80593,-1.01422,0.240415,-0.0945582,-0.14388,0.18147,-0.00238283,-0.000644074,0.26013,0.27177682820437554,0.19897856681316362,-0.0023799933141562812,-0.09022521580725273,-0.0006438666288643979,-0.13400833917638677
379,0.3696,948.217,74.8329,-0.00938695,266.405,-3.81599,-1.0169,0.241189,-0.0948641,-0.144347,0.182061,-0.00239287,-0.000646766,0.260983,0.2727615645131962,0.19968737257762248,-0.0023900093687426738,-0.09050347335207598,-0.0006465568919543641,-0.13441266286506182
380,0.3706,948.714,74.8791,-0.00958784,266.557,-3.82609,-1.01957,0.241963,-0.0951697,-0.144815,0.182652,-0.00240292,-0.000649462,0.261836,0.27374706330296195,0.20039659737009896,-0.0024000352987681994,-0.09078137302538669,-0.0006492511452050875,-0.1348176629614264
381,0.3716,949.209,74.9252,-0.00978971,266.708,-3.8362,-1.02226,0.242737,-0.095475,-0.145282,0.183243,-0.00241298,-0.000652162,0.262688,0.27473332516406157,0.20110624143831135,-0.002410071103932876,-0.09105891510324815,-0.0006519493885843719,-0.13522160878413247
382,0.3726,949.702,74.9712,-0.00999256,266.859,-3.84634,-1.02495,0.24351,-0.0957801,-0.145749,0.183833,-0.00242306,-0.000654865,0.263539,0.27571907496762793,0.2018151032144211,-0.0024201267597355747,-0.09133619072770272,-0.0006546506227145255,-0.13562536600818054
383,0.3736,950.193,75.017,-0.0101964,267.01,-3.8565,-1.02765,0.244282,-0.0960849,-0.146215,0.184423,-0.00243315,-0.000657572,0.264389,0.27670431034542675,0.2025243833423802,-0.0024301922898758432,-0.09161310925224186,-0.0006573558469137319,-0.13602807075012835
384,0.3746,950.683,75.0626,-0.0104012,267.16,-3.86668,-1.03035,0.245053,-0.0963895,-0.146681,0.185012,-0.00244326,-0.000660283,0.265239,0.2776890289289373,0.20323287883560903,-0.0024402776696501594,-0.09188976176284724,-0.0006600650611496839,-0.13643058787538453
385,0.3756,951.171,75.1081,-0.0106071,267.309,-3.87688,-1.03306,0.245824,-0.0966937,-0.147146,0.185601,-0.00245338,-0.000662998,0.266088,0.2786745070232295,0.20394179175560345,-0.0024503729229580218,-0.09216596688439005,-0.0006627782653898517,-0.13683205430384393
386,0.3766,951.657,75.1534,-0.0108139,267.458,-3.88711,-1.03578,0.246594,-0.0969978,-0.147611,0.186189,-0.00246352,-0.000665716,0.266937,0.27965946555400656,0.20464991769778007,-0.0024604880248929595,-0.09244199724131752,-0.0006654944602672019,-0.1372333340938109
387,0.3776,952.141,75.1985,-0.0110218,267.607,-3.89736,-1.0385,0.247364,-0.0973015,-0.148076,0.186777,-0.00247367,-0.000668439,0.267784,0.28064518279491835,0.20535846014045012,-0.0024706129995551995,-0.09271758075728032,-0.0006682156444209886,-0.13763442733205222
388,0.3786,952.624,75.2435,-0.0112307,267.754,-3.90763,-1.04122,0.248132,-0.097605,-0.14854,0.187364,-0.00248383,-0.000671165,0.268631,0.2816290960696408,0.20606621326177121,-0.002480747846641984,-0.092992899189835,-0.0006709398191520055,-0.13803447214019726
389,0.3796,953.106,75.2884,-0.0114406,267.902,-3.91793,-1.04396,0.248901,-0.0979083,-0.149004,0.187951,-0.00249401,-0.000673895,0.269477,0.2826150478944074,0.20677438195613318,-0.00249090254094142,-0.09326795272953292,-0.0006736679837623383,-0.1384343313706088
390,0.3806,953.585,75.333,-0.0116516,268.049,-3.92824,-1.0467,0.249668,-0.0982112,-0.149468,0.188538,-0.00250421,-0.000676628,0.270323,0.2835991910067792,0.20748296646754927,-0.0025010770818452155,-0.09354256027523877,-0.0006763991388956114,-0.13883400510937471
391,0.3816,954.063,75.3776,-0.0118636,268.195,-3.93858,-1.04944,0.250435,-0.0985139,-0.149931,0.189124,-0.00251442,-0.000679366,0.271168,0.2845840892464726,0.20819075884881233,-0.00251126149385672,-0.09381690341831395,-0.0006791352831689856,-0.13923263267560637
392,0.3826,954.539,75.4219,-0.0120766,268.341,-3.94894,-1.05219,0.251201,-0.0988164,-0.150394,0.189709,-0.00252464,-0.000682107,0.272012,0.285568457623792,0.2088977572195998,-0.0025214557766713996,-0.09409098234850166,-0.0006818744179052372,-0.139631075719995
393,0.3836,955.014,75.4661,-0.0122907,268.486,-3.95933,-1.05495,0.251967,-0.0991186,-0.150856,0.190294,-0.00253488,-0.000684853,0.272855,0.2865535803161541,0.20960516930543371,-0.0025316699046677993,-0.09436470669180452,-0.0006846185417104245,-0.14002847435685872
394,0.3846,955.487,75.5102,-0.0125059,268.631,-3.96973,-1.05771,0.252732,-0.0994205,-0.151318,0.190879,-0.00254513,-0.000687602,0.273698,0.2875381703627715,0.21031299534840864,-0.0025418939026532472,-0.09463807671957225,-0.000687365655918093,-0.14042568943795686
395,0.3856,955.959,75.5541,-0.0127222,268.775,-3.98016,-1.06047,0.253496,-0.0997222,-0.151779,0.191463,-0.0025554,-0.000690355,0.27454,0.28852222538608174,0.21102002457013014,-0.0025521377448006755,-0.09491118321164005,-0.0006901167598135638,-0.14082186187036405
396,0.3866,956.428,75.5979,-0.0129395,268.919,-3.9906,-1.06325,0.25426,-0.100024,-0.152241,0.192046,-0.00256568,-0.000693112,0.275381,0.28950703251469756,0.21172625509064802,-0.002562391456120472,-0.09518429780148219,-0.0006928718533637523,-0.1412187104910898
397,0.3876,956.897,75.6415,-0.0131579,269.062,-4.00107,-1.06602,0.255022,-0.100325,-0.152701,0.19263,-0.00257598,-0.000695873,0.276222,0.29049001134084307,0.21243410989710632,-0.0025726650105795112,-0.0954566063433524,-0.000695630936535685,-0.1416136590391336
398,0.3886,957.364,75.685,-0.0133774,269.205,-4.01156,-1.06881,0.255785,-0.100626,-0.153162,0.193212,-0.00258629,-0.000698638,0.277062,0.29147503095669225,0.2131399519291739,-0.0025829484333921293,-0.09572883293268608,-0.000698394009296166,-0.14200928394376944
399,0.3896,957.829,75.7283,-0.013598,269.348,-4.02207,-1.0716,0.256546,-0.100926,-0.153622,0.193795,-0.00259662,-0.000701407,0.277901,0.29245821751028545,0.21384741872768198,-0.002593251698318366,-0.09600007359467266,-0.0007011610716122219,-0.1424038689116549
400,0.3906,958.292,75.7714,-0.0138198,269.49,-4.0326,-1.07439,0.257307,-0.101227,-0.154082,0.194376,-0.00260696,-0.000704179,0.278739,0.29344215255360995,0.21455286899142,-0.002603564830776839,-0.09627213662498046,-0.0007039311241543444,-0.14279827241219578
401,0.3916,958.755,75.8144,-0.0140426,269.631,-4.04315,-1.07719,0.258068,-0.101527,-0.154541,0.194958,-0.00261732,-0.000706956,0.279577,0.2944268366564835,0.21525994450018748,-0.0026138978043203087,-0.09654321432030566,-0.0007067061654845164,-0.14319163772091403
402,0.3926,959.215,75.8573,-0.0142665,269.772,-4.05373,-1.08,0.258828,-0.101827,-0.155,0.195538,-0.00262769,-0.000709736,0.280414,0.29541097497753444,0.21596499971424454,-0.00262424064457234,-0.09681421070451945,-0.0007094841969799148,-0.1435848225163865
403,0.3936,959.674,75.9,-0.0144916,269.912,-4.06432,-1.08281,0.259587,-0.102126,-0.155458,0.196119,-0.00263808,-0.000712521,0.281251,0.2963945651327873,0.21667168065001152,-0.00263460332487786,-0.09708422288668594,-0.0007122672171910871,-0.14397697085884864
404,0.3946,960.132,75.9426,-0.0147178,270.052,-4.07494,-1.08562,0.260345,-0.102426,-0.155916,0.196699,-0.00264848,-0.00071531,0.282086,0.29737760473810004,0.2173775549085355,-0.0026449758710659355,-0.09735505699267277,-0.0007150542267913007,-0.14436893963849307
405,0.3956,960.588,75.985,-0.0149452,270.192,-4.08557,-1.08844,0.261103,-0.102725,-0.156374,0.197278,-0.0026589,-0.000718102,0.282921,0.29836138976991466,0.21808262060965067,-0.002655368256272883,-0.09762490748597286,-0.0007178442264650364,-0.14476072893754055
406,0.3966,961.043,76.0272,-0.0151737,270.331,-4.09622,-1.09127,0.26186,-0.103024,-0.156832,0.197857,-0.00266933,-0.000720899,0.283756,0.2993446214482074,0.2187880946620131,-0.0026657705065341597,-0.09789467730603663,-0.0007206392147459662,-0.14515233883817436
407,0.3976,961.496,76.0694,-0.0154034,270.469,-4.1069,-1.0941,0.262617,-0.103322,-0.157289,0.198436,-0.00267978,-0.000723699,0.28459,0.3003285977146717,0.21949397730212672,-0.002676192594776916,-0.09816346464089742,-0.0007234371930390227,-0.14554291496588256
408,0.3986,961.948,76.1113,-0.0156342,270.607,-4.11759,-1.09694,0.263373,-0.103621,-0.157745,0.199014,-0.00269025,-0.000726503,0.285423,0.30131201782050576,0.2201990485669736,-0.0026866345203768738,-0.09843307345644325,-0.0007262391605927787,-0.14593245857396542
409,0.3996,962.398,76.1532,-0.0158662,270.745,-4.12831,-1.09978,0.264128,-0.103919,-0.158201,0.199592,-0.00270073,-0.000729312,0.286255,0.30229487937751,0.22090452748081058,-0.002697086309679575,-0.09870170037315473,-0.0007290461166445938,-0.146321824590657
410,0.4006,962.847,76.1949,-0.0160994,270.882,-4.13904,-1.10263,0.264883,-0.104216,-0.158657,0.200169,-0.00271122,-0.000732124,0.287086,0.303278483275188,0.2216091926695236,-0.002707547962372714,-0.09896934622076814,-0.0007318560626160542,-0.14671101309692036
411,0.4016,963.296,76.2377,-0.0146958,271.019,-4.14979,-1.10548,0.265637,-0.104514,-0.159113,0.200746,-0.00272173,-0.000734941,0.287917,0.30426152581204113,0.2223142645673748,-0.002718029450963333,-0.09923781335200499,-0.000734670997012743,-0.14710002417368184
412,0.4026,963.74,76.2773,-0.0167507,271.155,-4.16055,-1.10833,0.26639,-0.104811,-0.159568,0.201322,-0.00273225,-0.000737761,0.288748,0.30524400459781753,0.22301852038997128,-0.002728520802108947,-0.0995052999977063,-0.0007374889212672375,-0.14748800539026263
413,0.4036,964.185,76.3194,-0.0166276,271.291,-4.17133,-1.11119,0.267143,-0.105108,-0.160023,0.201898,-0.00274279,-0.000740586,0.289577,0.30622722346872666,0.22372318198077168,-0.0027390319881055447,-0.09977270721167009,-0.0007403118338736858,-0.14787581011554463
414,0.4046,964.628,76.36,-0.0171688,271.426,-4.18213,-1.11406,0.267895,-0.105405,-0.160477,0.202473,-0.00275335,-0.000743415,0.290406,0.3072098757717334,0.22442702514592816,-0.002749563008323963,-0.10004003501748404,-0.0007431387355328889,-0.14826258669282566
415,0.4056,965.07,76.4012,-0.0172231,271.561,-4.19295,-1.11693,0.268646,-0.105701,-0.160931,0.203048,-0.00276392,-0.000746247,0.291234,0.3081919591145752,0.2251312731372812,-0.0027601038897342445,-0.10030638374556244,-0.0007459686269568611,-0.14864918771339508
416,0.4066,965.51,76.4419,-0.0175658,271.695,-4.20379,-1.1198,0.269397,-0.105998,-0.161385,0.203622,-0.00277451,-0.000749084,0.292062,0.3091747802790248,0.22583470035235909,-0.002770664604314965,-0.10057355307298088,-0.0007488035066225418,-0.14903561325693748
417,0.4076,965.949,76.4827,-0.0177501,271.829,-4.21465,-1.12268,0.270148,-0.106294,-0.161838,0.204196,-0.00278511,-0.000751925,0.292889,0.31015833981939434,0.2265385314505619,-0.002781235179246,-0.10083974390308492,-0.0007516423752391699,-0.14942101282453935
418,0.4086,966.387,76.5231,-0.0180259,271.963,-4.22552,-1.12556,0.270897,-0.106589,-0.162291,0.20477,-0.00279573,-0.000754769,0.293715,0.3111400160077582,0.22724276666378507,-0.0027918255862933172,-0.1011049570577699,-0.0007544842335270863,-0.14980623784567493
419,0.4096,966.823,76.5636,-0.018251,272.096,-4.23642,-1.12845,0.271646,-0.106885,-0.162744,0.205343,-0.00280636,-0.000757618,0.29454,0.3121224277470165,0.2279461782772647,-0.002802425852846735,-0.10137099061557175,-0.000757331079946244,-0.15019128839939577
420,0.4106,967.258,76.6038,-0.0185068,272.228,-4.24733,-1.13134,0.272395,-0.10718,-0.163196,0.205916,-0.00281701,-0.000760471,0.295365,0.31310557558830343,0.22864999306109635,-0.002813045950459281,-0.10163604707559015,-0.0007601819152138756,-0.15057531514045752
421,0.4116,967.691,76.6439,-0.0187471,272.361,-4.25826,-1.13424,0.273142,-0.107475,-0.163648,0.206488,-0.00282767,-0.000763328,0.296189,0.3140868319068737,0.22935298189276598,-0.002823675906731715,-0.10190102535548495,-0.000763036739296119,-0.1509591683406556
422,0.4126,968.123,76.6839,-0.0189982,272.492,-4.26921,-1.13714,0.27389,-0.10777,-0.164099,0.20706,-0.00283835,-0.00076619,0.297013,0.31507013656723615,0.23005637294907255,-0.0028343256930031258,-0.10216592547831582,-0.0007658965513925864,-0.15134199942083637
423,0.4136,968.554,76.7237,-0.0192452,272.624,-4.28018,-1.14005,0.274636,-0.108065,-0.16455,0.207631,-0.00284905,-0.000769055,0.297836,0.3160515449089125,0.23075893570060324,-0.0028449953086355784,-0.10243074746713587,-0.0007687593529979164,-0.15172465788312828
424,0.4146,968.984,76.7634,-0.0194965,272.755,-4.29116,-1.14296,0.275382,-0.108359,-0.165001,0.208202,-0.00285976,-0.000771924,0.298658,0.3170336856543645,0.23146189973001907,-0.002855674781547135,-0.10269459404003389,-0.0007716261433149407,-0.15210714380536428
425,0.4156,969.412,76.803,-0.0197474,272.885,-4.30216,-1.14588,0.276127,-0.108653,-0.165451,0.208772,-0.00287049,-0.000774798,0.299479,0.31801524133426873,0.23216403310186595,-0.002866374082754919,-0.1029583630534412,-0.0007744979215346115,-0.15248860975437617
426,0.4166,969.839,76.8424,-0.0200005,273.015,-4.31318,-1.1488,0.276872,-0.108947,-0.165901,0.209342,-0.00288123,-0.000777675,0.3003,0.31899752854561636,0.2328665668038179,-0.0028770832403890445,-0.10322205453015698,-0.000777372689168776,-0.15286990408232848
427,0.4176,970.265,76.8817,-0.0202544,273.145,-4.32422,-1.15173,0.277616,-0.10924,-0.166351,0.209912,-0.00289199,-0.000780557,0.30112,0.319979227853713,0.23356950106412833,-0.0028878122252512517,-0.10348477197819406,-0.00078025244463098,-0.15325102686643366
428,0.4186,970.689,76.9208,-0.0205099,273.274,-4.33527,-1.15466,0.27836,-0.109534,-0.1668,0.210481,-0.00290276,-0.000783443,0.30194,0.32096165781786534,0.23427160183896167,-0.002898551065684818,-0.1037483087134341,-0.0007831361886612154,-0.15363113181542376
429,0.4196,971.112,76.9598,-0.0207665,273.402,-4.34634,-1.15759,0.279102,-0.109827,-0.167249,0.21105,-0.00291355,-0.000786333,0.302759,0.3219421750948894,0.23497410222281356,-0.0029093097322757666,-0.10401087199158243,-0.0007860239212248432,-0.15401106613560078
430,0.4206,971.534,76.9987,-0.0210246,273.531,-4.35743,-1.16053,0.279845,-0.110119,-0.167698,0.211618,-0.00292436,-0.000789227,0.303577,0.32292474310980035,0.23567576676674218,-0.0029200882243797244,-0.10427246262287004,-0.0007889156422872245,-0.15439082990356
431,0.4216,971.955,77.0374,-0.021284,273.659,-4.36853,-1.16347,0.280586,-0.110412,-0.168146,0.212185,-0.00293518,-0.000792126,0.304395,0.32390539363059134,0.23637659359212826,-0.002930876570660046,-0.10453487234641978,-0.0007918123510219921,-0.15476957796586255
432,0.4226,972.374,77.076,-0.0215447,273.786,-4.37965,-1.16642,0.281327,-0.110704,-0.168594,0.212753,-0.00294601,-0.000795028,0.305211,0.3248867710827128,0.2370790549774362,-0.0029416747707944335,-0.10479630999194078,-0.000794712048975077,-0.1551481563870356
433,0.4236,972.792,77.1145,-0.0218067,273.913,-4.39079,-1.16937,0.282068,-0.110996,-0.169041,0.21332,-0.00295687,-0.000797935,0.306028,0.325868876005021,0.23778067769285105,-0.0029525027654102587,-0.10505767130881372,-0.0007976167345252749,-0.15552572076920446
434,0.4246,973.209,77.1528,-0.0220701,274.04,-4.40194,-1.17232,0.282808,-0.111288,-0.169488,0.213886,-0.00296774,-0.000800846,0.306843,0.32685038208572514,0.2384814598590701,-0.0029633406128014572,-0.10531895631932353,-0.0008005254084293423,-0.1559031164178093
435,0.4256,973.624,77.191,-0.0223349,274.166,-4.41311,-1.17528,0.283547,-0.11158,-0.169935,0.214452,-0.00297862,-0.000803761,0.307658,0.32783128691778085,0.23918263878026602,-0.002974188312643955,-0.1055801650457483,-0.000803438070652529,-0.15628034340825703
436,0.4266,974.039,77.2291,-0.022601,274.292,-4.4243,-1.17824,0.284285,-0.111871,-0.170381,0.215018,-0.00298952,-0.00080668,0.308472,0.32881158809416733,0.23988421468106602,-0.0029850558347632727,-0.10584040335121003,-0.0008063547211599742,-0.15665655847290128
437,0.4276,974.452,77.267,-0.0228685,274.417,-4.4355,-1.18121,0.285023,-0.112162,-0.170827,0.215583,-0.00300044,-0.000809604,0.309286,0.3297926129998454,0.2405849472006567,-0.0029959431785084867,-0.1061005659383425,-0.0008092763591073249,-0.15703260578303868
438,0.4286,974.864,77.3048,-0.0231374,274.542,-4.44671,-1.18418,0.285761,-0.112453,-0.171273,0.216147,-0.00301137,-0.000812532,0.310099,0.3307743621691239,0.2412848344605325,-0.003006840373296349,-0.1063606528291765,-0.0008122019852631057,-0.1574084854134712
439,0.4296,975.274,77.3425,-0.0234077,274.666,-4.45794,-1.18716,0.286498,-0.112744,-0.171718,0.216712,-0.00302232,-0.000815463,0.310911,0.3317555043805369,0.24198635855389705,-0.003017757388623421,-0.10662066404573634,-0.0008151306004071657,-0.15778335522274345
440,0.4306,975.684,77.38,-0.0236794,274.791,-4.46919,-1.19014,0.287234,-0.113034,-0.172163,0.217275,-0.00303329,-0.000818399,0.311723,0.3327360372235848,0.24268579374629473,-0.0030286942238362258,-0.10687970649019318,-0.0008180642028772223,-0.15815805825206197
441,0.4316,976.092,77.4174,-0.0239525,274.914,-4.48045,-1.19312,0.287969,-0.113324,-0.172607,0.217839,-0.00304427,-0.00082134,0.312534,0.3337159582878204,0.24338686621782046,-0.0030396409086762555,-0.10713867382323283,-0.0008210027926291996,-0.158531753107801
442,0.4326,976.499,77.4547,-0.024227,275.038,-4.49172,-1.1961,0.288704,-0.113614,-0.173052,0.218402,-0.00305527,-0.000824284,0.313344,0.3346965998587921,0.24408709011803342,-0.0030506074123104465,-0.10739756606663442,-0.0008239443712668715,-0.15890612317415043
443,0.4336,976.905,77.4918,-0.0245029,275.161,-4.50301,-1.19909,0.289439,-0.113904,-0.173495,0.218964,-0.00306628,-0.000827233,0.314154,0.3356779624662667,0.24478646356821132,-0.003061583764697895,-0.10765638324217075,-0.0008268909371103028,-0.15927864524185398
444,0.4346,977.31,77.5288,-0.0247803,275.283,-4.51432,-1.20209,0.290172,-0.114193,-0.173939,0.219526,-0.00307731,-0.000830186,0.314963,0.3366573733229814,0.24548623017673576,-0.003072579934784936,-0.10791423328628769,-0.0008298414909447827,-0.15965184266740728
445,0.4356,977.714,77.5656,-0.0250591,275.405,-4.52564,-1.20509,0.290906,-0.114483,-0.174382,0.220088,-0.00308835,-0.000833143,0.315771,0.33763883998920274,0.24618639016462307,-0.003083585952749157,-0.10817290065005414,-0.000832796032735228,-0.16002403445453783
446,0.4366,978.116,77.6024,-0.0253393,275.527,-4.53697,-1.20809,0.291638,-0.114772,-0.174825,0.220649,-0.00309941,-0.000836104,0.316579,0.3386183500770299,0.24688569686669481,-0.0030946117873155154,-0.10843060144220817,-0.0008357545624461116,-0.1603960613972225
447,0.4376,978.517,77.639,-0.025621,275.648,-4.54832,-1.21109,0.29237,-0.11506,-0.175267,0.22121,-0.00311049,-0.00083907,0.317386,0.3395985774287278,0.24758539598989038,-0.003105657437823872,-0.10868733645737605,-0.0008387180792031046,-0.16076708433597509
448,0.4386,978.917,77.6754,-0.0259042,275.769,-4.55968,-1.2141,0.293102,-0.115349,-0.175709,0.22177,-0.00312158,-0.000842039,0.318192,0.34057952256952606,0.2482842394695559,-0.003116712934780108,-0.10894488859906282,-0.0008416845846453969,-0.1611379433188257
449,0.4396,979.317,77.7118,-0.0261888,275.89,-4.57105,-1.21711,0.293832,-0.115637,-0.176151,0.22233,-0.00313269,-0.000845013,0.318998,0.3415585029053494,0.2489834744111692,-0.003127788246575891,-0.10920147552085602,-0.0008446560770568601,-0.16150863841822682
450,0.4406,979.714,77.748,-0.0264749,276.01,-4.58244,-1.22012,0.294563,-0.115925,-0.176592,0.222889,-0.00314382,-0.000847992,0.319803,0.3425395406966003,0.24968185135153398,-0.0031388833725481957,-0.10945798855625588,-0.0008476325563928633,-0.16187833158534948
451,0.4416,980.111,77.7841,-0.0267624,276.129,-4.59384,-1.22314,0.295292,-0.116213,-0.177033,0.223448,-0.00315496,-0.000850974,0.320608,0.34351860884874985,0.2503806187937436,-0.0031499883435326392,-0.10971442772653872,-0.0008506120243102488,-0.1622478617537293
452,0.4426,980.507,77.82,-0.0270515,276.249,-4.60525,-1.22616,0.296021,-0.1165,-0.177474,0.224007,-0.00316612,-0.000853961,0.321412,0.344498391001804,0.2510797769561497,-0.003161113127586268,-0.10996990302332244,-0.0008535964790747919,-0.1626172289952329
453,0.4436,980.901,77.8558,-0.0273421,276.368,-4.61668,-1.22919,0.29675,-0.116788,-0.177914,0.224565,-0.00317729,-0.000856952,0.322215,0.3454788876764592,0.2517780742785254,-0.0031722477557656337,-0.11022619478346685,-0.0008565849214985377,-0.16298559636771004
454,0.4446,981.295,77.8915,-0.0276341,276.486,-4.62811,-1.23221,0.297478,-0.117075,-0.178354,0.225123,-0.00318849,-0.000859947,0.323017,0.34645875293436545,0.25247676135953956,-0.003183412164070032,-0.11048152322418014,-0.0008595773515455152,-0.1633538016941961
455,0.4456,981.687,77.9271,-0.0279277,276.605,-4.63957,-1.23525,0.298205,-0.117362,-0.178794,0.22568,-0.00319969,-0.000862946,0.323819,0.34743798435524087,0.25317458524152636,-0.0031945764473336746,-0.11073677839614549,-0.0008625737691799751,-0.16372184504597553
456,0.4466,982.078,77.9625,-0.0282228,276.722,-4.65103,-1.23828,0.298932,-0.117648,-0.179233,0.226237,-0.00321091,-0.00086595,0.324621,0.3484179279361981,0.2538727979196851,-0.003205760541443059,-0.11099107131190389,-0.000865575173500277,-0.16408889058360998
457,0.4476,982.469,77.9978,-0.0285195,276.84,-4.6625,-1.24132,0.299658,-0.117935,-0.179672,0.226793,-0.00322215,-0.000868958,0.325421,0.34939723479725626,0.2545701450398632,-0.0032169644457284985,-0.11124618026455158,-0.0008685805653300127,-0.16445577502361708
458,0.4486,982.858,78.033,-0.0288176,276.957,-4.67399,-1.24436,0.300383,-0.118221,-0.18011,0.227349,-0.00323341,-0.00087197,0.326222,0.35037590251666484,0.25526787999284783,-0.0032281881595191964,-0.11150032751220718,-0.0008715899446332109,-0.16482166325878367
459,0.4496,983.246,78.0681,-0.0291173,277.073,-4.68549,-1.2474,0.301108,-0.118507,-0.180549,0.227905,-0.00324468,-0.000874987,0.327021,0.3513552800274382,0.2559660029943336,-0.003239421714537394,-0.111754402084143,-0.0008746043104991275,-0.1651882260821863
460,0.4506,983.633,78.103,-0.0294186,277.19,-4.697,-1.25044,0.301833,-0.118793,-0.180986,0.22846,-0.00325597,-0.000878007,0.32782,0.3523353678443619,0.25666325759624975,-0.0032506750779409677,-0.11200840400114143,-0.0008776216646378954,-0.16555295912741363
461,0.4516,984.019,78.1378,-0.0297214,277.306,-4.70852,-1.25349,0.302557,-0.119078,-0.181424,0.229015,-0.00326727,-0.000881032,0.328618,0.35331481316710467,0.2573608992818759,-0.003261938281675314,-0.11226144554586825,-0.0008806440052611109,-0.16591836690117168
462,0.4526,984.404,78.1725,-0.0300258,277.421,-4.72005,-1.25654,0.30328,-0.119363,-0.181861,0.229569,-0.00327859,-0.000884062,0.329416,0.3542936135707331,0.2580576702078037,-0.003273221292672046,-0.11251441498403048,-0.0008836713323233658,-0.16628278094456805
463,0.4536,984.787,78.207,-0.0303318,277.536,-4.7316,-1.2596,0.304002,-0.119648,-0.182298,0.230123,-0.00328993,-0.000887095,0.330212,0.3552717666304943,0.25875482725176924,-0.0032845241102554823,-0.11276731233617554,-0.0008867016475527789,-0.16664703577381823
464,0.4546,985.17,78.2414,-0.0306394,277.651,-4.74315,-1.26265,0.304725,-0.119933,-0.182734,0.230676,-0.00330128,-0.000890133,0.331009,0.3562519824230783,0.2594511111760005,-0.003295836766707416,-0.11302013762284502,-0.0008897369491425167,-0.16701029846919868
465,0.4556,985.552,78.2757,-0.0309485,277.765,-4.75471,-1.26571,0.305446,-0.120218,-0.18317,0.231229,-0.00331265,-0.000893175,0.331804,0.3572301927048358,0.26014778025172625,-0.0033071692286181786,-0.11327289086457482,-0.0008927762379399296,-0.16737340281656632
466,0.4566,985.932,78.3099,-0.0312593,277.879,-4.76629,-1.26877,0.306167,-0.120502,-0.183606,0.231782,-0.00332404,-0.000896221,0.332599,0.35820910853052457,0.26084483469199427,-0.0033185214953093123,-0.11352468560702345,-0.0008958195139086023,-0.16773634888494593
467,0.4576,986.312,78.3439,-0.0315716,277.993,-4.77787,-1.27184,0.306887,-0.120786,-0.184042,0.232334,-0.00333544,-0.000899272,0.333394,0.3591873712209741,0.26154101316832645,-0.0033298835994002296,-0.11377640884991858,-0.0008988677761131436,-0.16809913674333188
468,0.4586,986.691,78.3778,-0.0318856,278.106,-4.78947,-1.2749,0.307607,-0.12107,-0.184477,0.232886,-0.00334686,-0.000902327,0.334188,0.36016633851418733,0.2622375760412612,-0.0033412655071386466,-0.11402806061356341,-0.0009019200254097859,-0.16846093492203962
469,0.4596,987.068,78.4116,-0.0322012,278.219,-4.80107,-1.27797,0.308326,-0.121354,-0.184912,0.233437,-0.00335829,-0.000905386,0.334981,0.3611446497723305,0.2629332605891519,-0.003352657251370017,-0.11427964091825493,-0.0009049762617618917,-0.16882257575276516
470,0.4606,987.445,78.4453,-0.0325184,278.332,-4.81269,-1.28104,0.309045,-0.121637,-0.185346,0.233988,-0.00336974,-0.000908449,0.335773,0.36212366468920343,0.26362932856485344,-0.00336406879811324,-0.11453026431499169,-0.0009080364851329348,-0.16918322848758405
471,0.4616,987.821,78.4788,-0.0328373,278.444,-4.82431,-1.28412,0.309763,-0.12192,-0.18578,0.234538,-0.00338121,-0.000911517,0.336565,0.3631020206682163,0.2643245158545442,-0.0033755001466851953,-0.11478081679534236,-0.0009111016945749784,-0.16954372473307677
472,0.4626,988.195,78.5122,-0.0331578,278.556,-4.83594,-1.28719,0.31048,-0.122203,-0.186214,0.235088,-0.00339269,-0.000914589,0.337356,0.3640797152786681,0.26502008560241075,-0.003386941330270954,-0.11503129837937343,-0.0009141708909562452,-0.16990406455714469
473,0.4636,988.569,78.5455,-0.03348,278.667,-4.84758,-1.29027,0.311197,-0.122486,-0.186647,0.235638,-0.00340419,-0.000917665,0.338147,0.3650581111475266,0.2657160380188628,-0.0033984023145449127,-0.11528170908714563,-0.0009172440742399868,-0.1702634182914935
474,0.4646,988.942,78.5786,-0.0338038,278.778,-4.85923,-1.29335,0.311914,-0.122768,-0.18708,0.236187,-0.0034157,-0.000920745,0.338937,0.36603720877777457,0.26641110690268577,-0.0034098731329196275,-0.11553116447032086,-0.0009203212443894548,-0.17062261645935772
475,0.4656,989.313,78.6117,-0.0341293,278.889,-4.87089,-1.29643,0.31263,-0.123051,-0.187513,0.236736,-0.00342723,-0.00092383,0.339727,0.3670156416564301,0.2671065574840925,-0.0034213637508387906,-0.11578143373600436,-0.0009234034004441671,-0.17098165912808339
476,0.4666,989.684,78.6446,-0.0344565,278.999,-4.88256,-1.29951,0.313345,-0.123333,-0.187945,0.237284,-0.00343878,-0.000926919,0.340515,0.367993407349795,0.2678011221709362,-0.00343287416761473,-0.1160307482166969,-0.0009264895432844478,-0.1713397177051188
477,0.4676,990.054,78.6774,-0.0347854,279.109,-4.89423,-1.3026,0.314059,-0.123615,-0.188377,0.237832,-0.00345035,-0.000930012,0.341304,0.3689705034244313,0.2684960675835377,-0.0034444043825582193,-0.11627999240061804,-0.0009295796728734373,-0.1716976216342554
478,0.4686,990.422,78.71,-0.0351159,279.219,-4.90591,-1.30569,0.314773,-0.123896,-0.188809,0.23838,-0.00346193,-0.000933109,0.342091,0.3699482973947843,0.2691913939305919,-0.003455944429538449,-0.11652828283631356,-0.0009326737891739434,-0.17205537098228652
479,0.4696,990.79,78.7426,-0.0354482,279.328,-4.9176,-1.30877,0.315487,-0.124178,-0.18924,0.238927,-0.00347352,-0.000936211,0.342878,0.3709267897593289,0.26988583153444146,-0.0034674943082108056,-0.11677738673525306,-0.0009357728912131602,-0.17241213822852886
480,0.4706,991.157,78.775,-0.0357822,279.437,-4.9293,-1.31187,0.3162,-0.124459,-0.189671,0.239474,-0.00348514,-0.000939317,0.343665,0.37190460911160206,0.27058064909957014,-0.003479073948649103,-0.1170255374227761,-0.0009388759798835133,-0.17276875174121997
481,0.4716,991.523,78.8073,-0.0361179,279.546,-4.941,-1.31496,0.316912,-0.12474,-0.190102,0.24002,-0.00349677,-0.000942427,0.34445,0.3728817530152395,0.27127457555866274,-0.0034906634196262276,-0.11727361838975203,-0.0009419830551476993,-0.17312521158660477
482,0.4726,991.888,78.8395,-0.0364553,279.654,-4.95271,-1.31805,0.317624,-0.125021,-0.190532,0.240566,-0.00350841,-0.000945542,0.345236,0.3738595928930737,0.271968881005056,-0.003502262720795901,-0.11752162965576962,-0.0009450951160233645,-0.17348069131200416
483,0.4736,992.252,78.8715,-0.0367945,279.762,-4.96443,-1.32115,0.318336,-0.125301,-0.190962,0.241111,-0.00352007,-0.000948661,0.34602,0.3748381292408147,0.2726622929828042,-0.0035138818166731145,-0.1177686890095424,-0.0009482111634122603,-0.1738360182139811
484,0.4746,992.615,78.9034,-0.0371354,279.869,-4.97615,-1.32424,0.319046,-0.125581,-0.191392,0.241656,-0.00353175,-0.000951784,0.346804,0.3758146109225522,0.27335608297307945,-0.003525520706562313,-0.1180156791963799,-0.0009513311972768612,-0.17419119235823544
485,0.4756,992.977,78.9352,-0.0374781,279.977,-4.98788,-1.32734,0.319756,-0.125861,-0.191821,0.242201,-0.00354344,-0.000954911,0.347587,0.37679178615246434,0.2740502511819545,-0.0035371694251382646,-0.11826260023564616,-0.0009544552175797527,-0.17454538835624
486,0.4766,993.339,78.9669,-0.0378225,280.083,-4.99962,-1.33044,0.320466,-0.126141,-0.19225,0.242745,-0.00355516,-0.000958043,0.34837,0.3777696554231451,0.27474352307145455,-0.0035488479010766794,-0.11850945214669995,-0.0009575842233260357,-0.17489943243675
487,0.4776,993.699,78.9985,-0.0381687,280.19,-5.01136,-1.33354,0.321175,-0.126421,-0.192679,0.243289,-0.00356688,-0.000961178,0.349152,0.3787468404800083,0.275437172203463,-0.003560526240144024,-0.1187562349488942,-0.0009607162163900451,-0.17525332466492416
488,0.4786,994.058,79.0299,-0.0385167,280.296,-5.02311,-1.33665,0.321884,-0.1267,-0.193107,0.243832,-0.00357862,-0.000964318,0.349934,0.3797247186067412,0.276129922652695,-0.0035722243708977697,-0.11900206766408505,-0.0009638531948160667,-0.17560624071254594
489,0.4796,994.417,79.0612,-0.0388664,280.402,-5.03486,-1.33975,0.322592,-0.126979,-0.193535,0.244375,-0.00359038,-0.000967463,0.350715,0.38070190959230454,0.27682304936756785,-0.0035839422926376985,-0.11924783180151544,-0.0009669951585570269,-0.17595900574441914
490,0.4806,994.774,79.0924,-0.039218,280.507,-5.04662,-1.34286,0.323299,-0.127258,-0.193963,0.244918,-0.00360216,-0.000970611,0.351495,0.3816784109949569,0.2775165525524492,-0.0035956800046622606,-0.11949352738031571,-0.0009701401095061346,-0.1763116198251644
491,0.4816,995.131,79.1235,-0.0395713,280.612,-5.05838,-1.34596,0.324006,-0.127537,-0.19439,0.24546,-0.00361395,-0.000973764,0.352275,0.38265560302821,0.27820915420202463,-0.0036074275423431112,-0.11973915441961136,-0.0009732900456884686,-0.17666325968304664
492,0.4826,995.487,79.1545,-0.0399265,280.717,-5.07015,-1.34907,0.324712,-0.127816,-0.194817,0.246001,-0.00362576,-0.000976921,0.353054,0.38363210254771807,0.2789008524419512,-0.003619194869137643,-0.11998471293852198,-0.0009764439680334247,-0.17701474942276196
493,0.4836,995.842,79.1853,-0.0402834,280.821,-5.08192,-1.35218,0.325418,-0.128094,-0.195244,0.246543,-0.00363758,-0.000980082,0.353832,0.38460929171930536,0.27959420458543227,-0.003630972020651213,-0.12022932318592539,-0.0009796018765029224,-0.17736608910839724
494,0.4846,996.196,79.216,-0.0406422,280.925,-5.09369,-1.35528,0.326123,-0.128372,-0.19567,0.247084,-0.00364942,-0.000983247,0.35461,0.38558578544356026,0.2802866523403418,-0.0036427689601044033,-0.12047386544113126,-0.0009827637710593251,-0.17771645652087964
495,0.4856,996.549,79.2466,-0.0410029,281.029,-5.10547,-1.35839,0.326828,-0.12865,-0.196096,0.247624,-0.00366128,-0.000986417,0.355387,0.38656296783861843,0.28097819383200373,-0.003654585686791223,-0.12071833972303891,-0.0009859306506786458,-0.17806667470863136
496,0.4866,996.901,79.2771,-0.0413653,281.133,-5.11726,-1.3615,0.327532,-0.128928,-0.196522,0.248164,-0.00367315,-0.000989591,0.356164,0.3875394518500188,0.28167010885691623,-0.003666412236668415,-0.12096274605054236,-0.000989101516302604,-0.17841674373520877
497,0.4876,997.253,79.3074,-0.0417297,281.236,-5.12904,-1.36462,0.328235,-0.129205,-0.196947,0.248704,-0.00368504,-0.000992769,0.35694,0.38851523503227114,0.2823623976168417,-0.0036782585726002903,-0.12120620564917517,-0.000992276367893119,-0.17876584243039395
498,0.4886,997.603,79.3377,-0.0420958,281.338,-5.14083,-1.36773,0.328938,-0.129482,-0.197372,0.249243,-0.00369694,-0.000995951,0.357716,0.38949170443127756,0.2830537772592323,-0.0036901147307790705,-0.12144959781883868,-0.0009954552054121102,-0.17911479279015707
499,0.4896,997.953,79.3678,-0.0424639,281.441,-5.15263,-1.37084,0.329641,-0.129759,-0.197797,0.249782,-0.00370886,-0.000999138,0.358491,0.39046886052961804,0.28374552965569855,-0.003701990673830702,-0.12169292257820785,-0.000998639027823045,-0.1794635948775275
500,0.4906,998.302,79.3978,-0.0428338,281.543,-5.16442,-1.37395,0.330343,-0.130036,-0.198221,0.25032,-0.0037208,-0.00100233,0.359265,0.3914453123642039,0.284436370570196,-0.0037138864010444195,-0.12193617994595285,-0.001001827835077851,-0.17981142856734622
501,0.4916,998.65,79.4276,-0.0432056,281.644,-5.17622,-1.37706,0.331044,-0.130313,-0.198645,0.250858,-0.00373275,-0.00100552,0.360039,0.39242105748687983,0.2851275832571032,-0.0037257919489661617,-0.12217936994073852,-0.0010050146341641364,-0.18015911480694202
502,0.4926,998.997,79.4574,-0.0435793,281.746,-5.18802,-1.38018,0.331745,-0.130589,-0.199069,0.251396,-0.00374472,-0.00100872,0.360812,0.39339748684668385,0.28581916791648765,-0.003737717279863273,-0.12242161500327853,-0.0010082114130024467,-0.18050665365882068
503,0.4936,999.343,79.487,-0.0439549,281.847,-5.19983,-1.38329,0.332445,-0.130865,-0.199493,0.251933,-0.0037567,-0.00101193,0.361584,0.3943732065495307,0.2865098382380429,-0.003749652430518502,-0.12266379321540699,-0.0010114181714969694,-0.18085404518546133
504,0.4946,999.689,79.5165,-0.0443324,281.947,-5.21163,-1.38641,0.333145,-0.131141,-0.199916,0.25247,-0.0037687,-0.00101513,0.362356,0.39534960949527664,0.2872008795491625,-0.003761607362959607,-0.12290590459557216,-0.0010146149298440044,-0.18120047065019662
505,0.4956,1000.03,79.5459,-0.0447119,282.048,-5.22344,-1.38952,0.333844,-0.131417,-0.200338,0.253006,-0.00378072,-0.00101834,0.363128,0.3963252998363611,0.2878910041574734,-0.0037735820764709382,-0.12314794916221705,-0.001017821667783303,-0.18154593115428908
506,0.4966,1000.38,79.5752,-0.0450932,282.148,-5.23524,-1.39263,0.334543,-0.131692,-0.200761,0.253542,-0.00379275,-0.00102156,0.363898,0.3973016724234111,0.288581498771727,-0.003785566608191515,-0.1233890503232683,-0.001021038385218609,-0.18189206401315006
507,0.4976,1000.72,79.6043,-0.0454765,282.247,-5.24705,-1.39575,0.335241,-0.131968,-0.201183,0.254078,-0.0038048,-0.00102478,0.364669,0.3982773294554549,0.28927236359029984,-0.0037975709197877183,-0.12363096156009279,-0.0010242550922960891,-0.18223723272641568
508,0.4986,1001.06,79.6334,-0.0458617,282.347,-5.25886,-1.39886,0.335939,-0.132243,-0.201605,0.254613,-0.00381686,-0.001028,0.365438,0.3992536677338343,0.28996230884872065,-0.003809585048637043,-0.12387192991099694,-0.0010274717890158547,-0.1825822558092144
509,0.4996,1001.4,79.6623,-0.0462489,282.446,-5.27067,-1.40198,0.336636,-0.132518,-0.202026,0.255148,-0.00382894,-0.00103123,0.366207,0.4002292875042377,0.290652623326612,-0.0038216189561647296,-0.12411283200471535,-0.0010306984650708673,-0.18292631624971412
510,0.5006,1001.74,79.6911,-0.046638,282.544,-5.28249,-1.40509,0.337332,-0.132792,-0.202447,0.255682,-0.00384104,-0.00103447,0.366976,0.40120418631377164,0.29134201587889796,-0.003833672641650465,-0.12435279221269624,-0.0010339351203644265,-0.18327023187125502
511,0.5016,1002.08,79.7198,-0.0470291,282.643,-5.2943,-1.40821,0.338028,-0.133067,-0.202868,0.256216,-0.00385315,-0.0010377,0.367743,0.40217976388906007,0.29203177666511637,-0.003845736142830125,-0.12459356208746264,-0.0010371617755429163,-0.1836140027347929
512,0.5026,1002.42,79.7483,-0.0474222,282.741,-5.30611,-1.41132,0.338724,-0.133341,-0.203289,0.25675,-0.00386528,-0.00104094,0.368511,0.4031560207026885,0.2927219058819568,-0.0038578194207654626,-0.12483339059344489,-0.0010403984098954489,-0.1839576289012581
513,0.5036,1002.76,79.7768,-0.0478173,282.839,-5.31792,-1.41443,0.339419,-0.133615,-0.203709,0.257283,-0.00387742,-0.00104419,0.369277,0.40413155309531623,0.293411110314457,-0.003869912513432494,-0.12507315339541836,-0.0010436450233248795,-0.18430029473225795
514,0.5046,1003.1,79.8051,-0.0482143,282.936,-5.32973,-1.41754,0.340113,-0.133889,-0.204129,0.257815,-0.00388958,-0.00104744,0.370043,0.4051063586115533,0.2940993880907996,-0.003882025381649945,-0.12531285051138352,-0.0010468916262027506,-0.18464281667382754
515,0.5056,1003.43,79.8333,-0.0486134,283.033,-5.34154,-1.42066,0.340807,-0.134163,-0.204548,0.258348,-0.00390176,-0.00105069,0.370809,0.40608184087762367,0.2947893269170154,-0.0038941580246928398,-0.12555248195933588,-0.001050138218529284,-0.1849843797711752
516,0.5066,1003.77,79.8614,-0.0490144,283.13,-5.35335,-1.42377,0.3415,-0.134436,-0.204967,0.25888,-0.00391395,-0.00105395,0.371574,0.40705659330605815,0.2954783380996593,-0.003906300480898128,-0.12579117354887648,-0.001053394789770512,-0.18532579978356356
517,0.5076,1004.11,79.8894,-0.0494175,283.226,-5.36515,-1.42688,0.342193,-0.134709,-0.205386,0.259411,-0.00392615,-0.00105721,0.372338,0.40803202147204143,0.2961664197667051,-0.003918452749903212,-0.12602979998450714,-0.0010566513503952324,-0.18566707677093242
518,0.5086,1004.44,79.9172,-0.0498226,283.322,-5.37696,-1.42999,0.342885,-0.134982,-0.205805,0.259942,-0.00393838,-0.00106047,0.373102,0.4090067168366005,0.29685486690213936,-0.003930634752733031,-0.1262683612840123,-0.0010599079004036671,-0.18600821079319696
519,0.5096,1004.77,79.945,-0.0502297,283.418,-5.38876,-1.4331,0.343577,-0.135255,-0.206223,0.260473,-0.00395061,-0.00106374,0.373865,0.40998208692377913,0.29754367970007745,-0.003942816606577804,-0.12650685746517187,-0.0010631744291640377,-0.18634838825904187
520,0.5106,1005.11,79.9726,-0.0506389,283.514,-5.40056,-1.43621,0.344268,-0.135527,-0.206641,0.261003,-0.00396287,-0.00106702,0.374628,0.41095672124322014,0.29823156012252827,-0.003955028192789034,-0.12674441529061242,-0.0010664509365785335,-0.1866884235604206
521,0.5116,1005.44,80.0001,-0.0510501,283.609,-5.41236,-1.43932,0.344959,-0.1358,-0.207059,0.261533,-0.00397514,-0.0010703,0.37539,0.411932029267714,0.2989198052182329,-0.003967249589614696,-0.12698278152676645,-0.0010697274332459594,-0.18702831675674536
522,0.5126,1005.77,80.0275,-0.0514634,283.704,-5.42416,-1.44243,0.345649,-0.136072,-0.207476,0.262063,-0.00398742,-0.00107358,0.376151,0.41290659855564704,0.2996084151805194,-0.0039794807966899715,-0.12722020991846605,-0.0010730039191665375,-0.18736725527506526
523,0.5136,1006.1,80.0548,-0.0518788,283.798,-5.43596,-1.44553,0.346339,-0.136344,-0.207893,0.262592,-0.00399972,-0.00107686,0.376912,0.41388184052843835,0.30029608990607826,-0.003991731773732465,-0.12745757373842526,-0.0010762803943402677,-0.18770605248548777
524,0.5146,1006.43,80.0819,-0.0522962,283.892,-5.44775,-1.44864,0.347028,-0.136616,-0.20831,0.263121,-0.00401204,-0.00108015,0.377673,0.4148563407933523,0.30098412850780343,-0.004004002520009098,-0.12769487300420523,-0.0010795668479715026,-0.188044708446926
525,0.5156,1006.76,80.109,-0.0527158,283.986,-5.45953,-1.45174,0.347717,-0.136887,-0.208726,0.263649,-0.00402437,-0.00108345,0.378432,0.4158315127203098,0.3016712295063566,-0.004016283074948168,-0.12793123566503406,-0.0010828632799618765,-0.18838241160108593
526,0.5166,1007.08,80.1359,-0.0531374,284.08,-5.47132,-1.45484,0.348405,-0.137159,-0.209142,0.264177,-0.00403671,-0.00108675,0.379191,0.4168059399655972,0.30235869339002996,-0.004028573438183414,-0.12816840611229008,-0.001086159701073952,-0.18871997429995035
527,0.5176,1007.41,80.1627,-0.0535611,284.173,-5.4831,-1.45795,0.349092,-0.13743,-0.209558,0.264705,-0.00404908,-0.00109005,0.37995,0.41777962006717306,0.30304652035047797,-0.004040893528529987,-0.12840464046303335,-0.0010894561113078405,-0.18905739660193666
528,0.5186,1007.74,80.1894,-0.0539869,284.266,-5.49488,-1.46105,0.349779,-0.137701,-0.209973,0.265232,-0.00406145,-0.00109335,0.380708,0.41875396931680453,0.30373340684539674,-0.004053213466478134,-0.12864081080294143,-0.0010927525106635416,-0.18939386795971114
529,0.5196,1008.06,80.216,-0.0544149,284.358,-5.50665,-1.46414,0.350466,-0.137971,-0.210389,0.265758,-0.00407385,-0.00109666,0.381466,0.41972898817435444,0.30441935100489603,-0.00406556313006301,-0.12887604602584046,-0.001096058888180762,-0.1897310099802375
530,0.5206,1008.39,80.2424,-0.0548449,284.451,-5.51841,-1.46724,0.351152,-0.138242,-0.210803,0.266285,-0.00408626,-0.00109998,0.382222,0.4207032563960349,0.30510696117224057,-0.004077922599733941,-0.12911208863214974,-0.0010993752437600257,-0.19006639191325536
531,0.5216,1008.71,80.2688,-0.0552771,284.543,-5.53018,-1.47034,0.351837,-0.138512,-0.211218,0.266811,-0.00409868,-0.0011033,0.382979,0.4216767715175289,0.3057936280113638,-0.0040902918751218875,-0.1293471966272114,-0.0011026915883290966,-0.19040244462485056
532,0.5226,1009.04,80.295,-0.0557115,284.634,-5.54194,-1.47343,0.352522,-0.138782,-0.211632,0.267336,-0.00411112,-0.00110662,0.383735,0.422650953725332,0.3064793496522502,-0.004102680914831014,-0.12958224115168337,-0.0011060079218878638,-0.1907375486414582
533,0.5236,1009.36,80.3211,-0.056148,284.726,-5.55369,-1.47652,0.353207,-0.139052,-0.212046,0.267861,-0.00412357,-0.00110994,0.38449,0.423625803476555,0.307165431391516,-0.004115079759270612,-0.1298172222227003,-0.0011093242444365492,-0.19107251395371672
534,0.5246,1009.68,80.3471,-0.0565867,284.817,-5.56543,-1.47961,0.353891,-0.139322,-0.212459,0.268386,-0.00413604,-0.00111327,0.385244,0.4245998966280127,0.3078518734182618,-0.004127498366795823,-0.1300521398573924,-0.001112650544848437,-0.19140653202597413
535,0.5256,1010.0,80.373,-0.0570275,284.908,-5.57718,-1.4827,0.354574,-0.139591,-0.212873,0.268911,-0.00414853,-0.00111661,0.385998,0.42557323071316233,0.3085386759216884,-0.004139936736663463,-0.1302861243594443,-0.001115986823024051,-0.19174122043643405
536,0.5266,1010.33,80.3987,-0.0574705,284.998,-5.58891,-1.48579,0.355257,-0.139861,-0.213286,0.269435,-0.00416103,-0.00111995,0.386752,0.42654722981256854,0.30922452986591153,-0.004152384909652973,-0.13052091540764943,-0.0011193230900564677,-0.1920749623899366
537,0.5276,1010.65,80.4244,-0.0579157,285.088,-5.60064,-1.48888,0.35594,-0.14013,-0.213698,0.269958,-0.00417354,-0.00112329,0.387505,0.4275218943805912,0.30990943338168897,-0.004164842885392983,-0.13075477382603728,-0.0011226593459457979,-0.19240775894463413
538,0.5286,1010.96,80.4499,-0.0583632,285.178,-5.61236,-1.49196,0.356622,-0.140399,-0.214111,0.270481,-0.00418607,-0.00112663,0.388257,0.42849579637539037,0.31059469519569216,-0.004177320621738478,-0.13098856934497094,-0.0011259955906921526,-0.1927412256745703
539,0.5296,1011.28,80.4753,-0.0588128,285.268,-5.62408,-1.49504,0.357303,-0.140667,-0.214523,0.271004,-0.00419862,-0.00112998,0.389009,0.42946893332824576,0.31128031549535984,-0.004189818117942723,-0.13122143320323576,-0.0011293418130019495,-0.19307374778533393
540,0.5306,1011.6,80.5006,-0.0592646,285.357,-5.63579,-1.49812,0.357984,-0.140936,-0.214934,0.271526,-0.00421118,-0.00113334,0.38976,0.4304427332130689,0.3119649825025905,-0.004202325415281094,-0.1314551032076794,-0.0011326980127750463,-0.19340532633093555
541,0.5316,1011.92,80.5258,-0.0597186,285.446,-5.64749,-1.5012,0.358664,-0.141204,-0.215346,0.272049,-0.00422375,-0.0011367,0.390511,0.43141576506498924,0.31265131964995896,-0.004214842513380557,-0.13168784205162165,-0.0011360542012712749,-0.19373757488858456
542,0.5326,1012.23,80.5509,-0.0601749,285.534,-5.65918,-1.50427,0.359344,-0.141472,-0.215757,0.27257,-0.00423634,-0.00114006,0.391261,0.43238945880358504,0.3133353891721333,-0.004227379369593609,-0.13192051852991105,-0.0011394103784908571,-0.1940688806573061
543,0.5336,1012.55,80.5759,-0.0606334,285.623,-5.67087,-1.50734,0.360023,-0.14174,-0.216168,0.273091,-0.00424895,-0.00114342,0.392011,0.4333623815159937,0.3140198151873872,-0.004239935983170184,-0.13215313265925943,-0.001142766544433571,-0.1944000502873352
544,0.5346,1012.87,80.6007,-0.0610942,285.711,-5.68254,-1.51041,0.360702,-0.142008,-0.216578,0.273612,-0.00426157,-0.00114679,0.39276,0.4343359650672536,0.31470459788150196,-0.004252502395883817,-0.132385684456374,-0.0011461326876384126,-0.19473027856529446
545,0.5356,1013.18,80.6255,-0.0615572,285.798,-5.69421,-1.51348,0.361381,-0.142275,-0.216988,0.274133,-0.0042742,-0.00115017,0.393508,0.4353102099062265,0.31538973744035537,-0.004265078607359585,-0.13261730655569792,-0.0011495088080042404,-0.19506037147741162
546,0.5366,1013.49,80.6501,-0.0620225,285.886,-5.70587,-1.51654,0.362058,-0.142543,-0.217398,0.274653,-0.00428685,-0.00115354,0.394256,0.4362822439147189,0.31607391797534645,-0.004277674574445611,-0.13284973397087618,-0.0011528749284875905,-0.19539032907917542
547,0.5376,1013.81,80.6746,-0.0624901,285.973,-5.71753,-1.51961,0.362736,-0.14281,-0.217808,0.275172,-0.00429951,-0.00115692,0.395004,0.43725637346869584,0.3167571376189371,-0.004290280339290797,-0.13308123218551904,-0.0011562510260647585,-0.1957201514260516
548,0.5386,1014.12,80.699,-0.0629599,286.06,-5.72917,-1.52266,0.363413,-0.143077,-0.218217,0.275692,-0.00431219,-0.00116031,0.39575,0.43822972547601236,0.3174420293869258,-0.004302905858490136,-0.13331266859838953,-0.0011596371006343809,-0.1960490346229199
549,0.5396,1014.43,80.7232,-0.0634321,286.146,-5.7408,-1.52572,0.364089,-0.143343,-0.218626,0.27621,-0.00432489,-0.0011637,0.396497,0.43920229746272876,0.3181246411393286,-0.00431555113128812,-0.13354317676959637,-0.0011630231637252963,-0.19637778333406497
550,0.5406,1014.74,80.7474,-0.0639065,286.232,-5.75242,-1.52877,0.364765,-0.14361,-0.219035,0.276729,-0.0043376,-0.00116709,0.397242,0.44017552713037955,0.3188089253844817,-0.004328206200210127,-0.13377448985972717,-0.001166409215337394,-0.19670639761448006
551,0.5416,1015.05,80.7715,-0.0643833,286.318,-5.76404,-1.53182,0.36544,-0.143876,-0.219443,0.277247,-0.00435032,-0.00117049,0.397988,0.44114797377501236,0.3194922453724285,-0.00434087106487846,-0.13400487520281545,-0.001169805243772748,-0.19703407455361222
552,0.5426,1015.36,80.7954,-0.0648623,286.404,-5.77564,-1.53487,0.366115,-0.144142,-0.219851,0.277765,-0.00436306,-0.00117389,0.398732,0.44212107704271597,0.32017591941182033,-0.004353555681379961,-0.13423519927155225,-0.0011732012606616715,-0.1973616178278227
553,0.5436,1015.67,80.8192,-0.0653437,286.489,-5.78724,-1.53792,0.366789,-0.144408,-0.220259,0.278282,-0.00437581,-0.00117729,0.399476,0.4430933942827442,0.3208586268268163,-0.004366250092617929,-0.13446546208223453,-0.0011765972660042756,-0.19768902749163575
554,0.5446,1015.98,80.8429,-0.0658275,286.574,-5.79882,-1.54096,0.367463,-0.144674,-0.220666,0.278799,-0.00438857,-0.0011807,0.40022,0.4440663670854921,0.32154168729280186,-0.0043789542982137775,-0.1346956636511547,-0.001180003248000383,-0.19801550161545578
555,0.5456,1016.29,80.8665,-0.0663136,286.659,-5.81039,-1.544,0.368136,-0.144939,-0.221074,0.279316,-0.00440136,-0.00118411,0.400963,0.4450385508536845,0.32222510099235113,-0.004391688209954725,-0.13492493891997226,-0.0011834092183821143,-0.1983426445491001
556,0.5466,1016.6,80.89,-0.066802,286.743,-5.82195,-1.54703,0.368809,-0.145205,-0.22148,0.279832,-0.00441415,-0.00118752,0.401705,0.4460113891217674,0.3229075451999266,-0.004404421958830063,-0.13515501828430743,-0.0011868151771494695,-0.19866805137335797
557,0.5476,1016.9,80.9134,-0.0672928,286.827,-5.8335,-1.55006,0.369482,-0.14547,-0.221887,0.280348,-0.00442696,-0.00119094,0.402447,0.44698488233036726,0.32359034163958134,-0.0044171754564984456,-0.13538417184027496,-0.0011902311124003528,-0.19899412711553421
558,0.5486,1017.21,80.9366,-0.0677859,286.911,-5.84504,-1.55309,0.370153,-0.145735,-0.222293,0.280863,-0.00443978,-0.00119437,0.403188,0.4479561350052419,0.32427216622028543,-0.00442993874649622,-0.13561326467859547,-0.0011936570240321798,-0.19931926949155676
559,0.5496,1017.51,80.9598,-0.0682815,286.995,-5.85656,-1.55612,0.370825,-0.146,-0.222699,0.281378,-0.00445262,-0.00119779,0.403929,0.4489294885381234,0.32495434203108275,-0.004442721784015502,-0.1358422968153572,-0.0011970729358838916,-0.19964427988656852
560,0.5506,1017.82,80.9828,-0.0687794,287.078,-5.86808,-1.55914,0.371496,-0.146264,-0.223105,0.281893,-0.00446547,-0.00120122,0.404669,0.4499020464816319,0.325636869252903,-0.004455514612846434,-0.1360704043374802,-0.0012004988240483794,-0.19996915835414297
561,0.5516,1018.12,81.0057,-0.0692798,287.161,-5.87958,-1.56216,0.372166,-0.146529,-0.22351,0.282407,-0.00447834,-0.00120466,0.405409,0.45087380635598073,0.3263184217476849,-0.004468327187924226,-0.1362993153482822,-0.0012039346884227253,-0.20029310524133703
562,0.5526,1018.43,81.0285,-0.0697825,287.244,-5.89107,-1.56517,0.372836,-0.146793,-0.223915,0.282921,-0.00449122,-0.00120809,0.406148,0.45184621752760545,0.3270003246504962,-0.004481149553293817,-0.13652730223343734,-0.0012073605530513731,-0.20061692095660577
563,0.5536,1018.73,81.0512,-0.0702877,287.326,-5.90254,-1.56818,0.373505,-0.147057,-0.22432,0.283434,-0.00450411,-0.00121153,0.406887,0.4528178276144674,0.32768125045957874,-0.004493981708572736,-0.13675522893799885,-0.0012107963938213784,-0.20094060555306315
564,0.5546,1019.03,81.0738,-0.0707952,287.408,-5.914,-1.57119,0.374174,-0.14732,-0.224725,0.283947,-0.00451702,-0.00121498,0.407625,0.45379008792595354,0.3283625256732159,-0.004506833608309613,-0.13698223246051655,-0.0012142422106298234,-0.20126415908380169
565,0.5556,1019.33,81.0963,-0.0713052,287.49,-5.92545,-1.57419,0.374843,-0.147584,-0.225129,0.28446,-0.00452995,-0.00121843,0.408362,0.4547629988972095,0.32904415047069824,-0.004519705251735728,-0.13721003907935014,-0.0012176880155502223,-0.20158678318907441
566,0.5566,1019.63,81.1186,-0.0718177,287.571,-5.93689,-1.57719,0.375511,-0.147847,-0.225533,0.284972,-0.00454288,-0.00122188,0.409099,0.4557351052278391,0.3297247953059481,-0.004532576728732529,-0.13743692300252863,-0.0012211338085825751,-0.20190927698053385
567,0.5576,1019.93,81.1408,-0.0723326,287.652,-5.94831,-1.58019,0.376178,-0.148111,-0.225936,0.285484,-0.00455583,-0.00122533,0.409836,0.45670640443530197,0.33040578872058246,-0.004545467948393056,-0.1376646095989028,-0.0012245795897268819,-0.2022308427420576
568,0.5586,1020.23,81.163,-0.07285,287.733,-5.95972,-1.58318,0.376845,-0.148374,-0.226339,0.285996,-0.0045688,-0.00122879,0.410572,0.45767835171544413,0.33108713089311936,-0.004558378909946037,-0.13789137398575435,-0.0012280353467031269,-0.20255227893868855
569,0.5596,1020.53,81.185,-0.0733698,287.814,-5.97111,-1.58617,0.377511,-0.148637,-0.226742,0.286507,-0.00458177,-0.00123226,0.411307,0.4586494888504564,0.33176749023401264,-0.004571289704044856,-0.13811807874141402,-0.0012315010794073933,-0.20287358562263091
570,0.5606,1020.83,81.2069,-0.0738921,287.894,-5.98249,-1.58915,0.378177,-0.148899,-0.227145,0.287018,-0.00459476,-0.00123572,0.412042,0.4596212729782252,0.3324481973273725,-0.004584220239007619,-0.1383438622258557,-0.0012349568124352395,-0.20319476284606763
571,0.5616,1021.13,81.2287,-0.0744169,287.974,-5.99385,-1.59213,0.378843,-0.149162,-0.227548,0.287528,-0.00460777,-0.00123919,0.412776,0.4605937045297914,0.33312791922235974,-0.004597170514060611,-0.13857044799275586,-0.0012384225211220512,-0.20351581066116076
572,0.5626,1021.43,81.2504,-0.0749442,288.054,-6.0052,-1.5951,0.379508,-0.149424,-0.22795,0.288038,-0.00462079,-0.00124266,0.41351,0.4615653223704297,0.3338079878639262,-0.004610130574530302,-0.1387961129719787,-0.0012418882177829271,-0.20383593295638258
573,0.5636,1021.72,81.2719,-0.075474,288.134,-6.01654,-1.59807,0.380172,-0.149686,-0.228352,0.288548,-0.00463382,-0.00124614,0.414243,0.462536124014961,0.3344884034289579,-0.004623100420030224,-0.13902171883472147,-0.0012453638899642128,-0.20415592658830473
574,0.5646,1022.02,81.2934,-0.0760063,288.213,-6.02785,-1.60104,0.380836,-0.149948,-0.228753,0.289057,-0.00464687,-0.00124962,0.414976,0.4635075704858431,0.3351678309259323,-0.0046360900038124875,-0.13924726559647072,-0.0012488395500502847,-0.2044749960840334
575,0.5656,1022.31,81.3148,-0.0765412,288.292,-6.03916,-1.604,0.3815,-0.15021,-0.229154,0.289566,-0.00465992,-0.00125311,0.415708,0.4644796622113827,0.33584760433953087,-0.004649079418081903,-0.13947275327270903,-0.0012523251855177664,-0.20479393765854415
576,0.5666,1022.61,81.336,-0.0770785,288.37,-6.05044,-1.60696,0.382163,-0.150471,-0.229555,0.290074,-0.004673,-0.00125659,0.41644,0.465450934168504,0.3365263873188147,-0.004662098522977942,-0.13969732157666637,-0.0012558008213785499,-0.20511275136312324
577,0.5676,1022.9,81.3571,-0.0776184,288.449,-6.06171,-1.60991,0.382826,-0.150732,-0.229956,0.290582,-0.00468608,-0.00126008,0.417171,0.466422850292451,0.33720551520745157,-0.004675117457585198,-0.1399218312759446,-0.0012592864325512432,-0.205431437249036
578,0.5686,1023.2,81.3781,-0.0781609,288.527,-6.07296,-1.61286,0.383488,-0.150993,-0.230356,0.29109,-0.00469918,-0.00126358,0.417901,0.4673939436157699,0.3378849881806998,-0.004688156128143106,-0.1401462823858376,-0.0012627820189314853,-0.2057492011171259
579,0.5696,1023.49,81.399,-0.0787059,288.605,-6.0842,-1.6158,0.384149,-0.151254,-0.230756,0.291598,-0.00471229,-0.00126708,0.418631,0.46836421165075803,0.33856480641390707,-0.004701204580883411,-0.14037067492163513,-0.0012662775930771808,-0.2060668379050864
580,0.5706,1023.78,81.4198,-0.0792535,288.682,-6.09542,-1.61874,0.384811,-0.151515,-0.231156,0.292104,-0.00472542,-0.00127058,0.419361,0.4693365905807849,0.33924229159524844,-0.004714272768274408,-0.1405950088986231,-0.0012697731549883295,-0.20638434766373914
581,0.5716,1024.07,81.4405,-0.0798036,288.759,-6.10662,-1.62167,0.385471,-0.151776,-0.231556,0.292611,-0.00473856,-0.00127408,0.42009,0.47030667282249405,0.339921459591626,-0.004727350736807856,-0.14081928433208335,-0.0012732687046651536,-0.20670173044388584
582,0.5726,1024.37,81.4611,-0.0803564,288.836,-6.11781,-1.6246,0.386131,-0.152036,-0.231955,0.293117,-0.00475171,-0.00127759,0.420818,0.47127739552981307,0.3405996314131805,-0.004740438486093512,-0.14104264228036545,-0.0012767742293396944,-0.20701819331489757
583,0.5736,1024.66,81.4815,-0.0809117,288.913,-6.12897,-1.62752,0.386791,-0.152296,-0.232354,0.293623,-0.00476487,-0.0012811,0.421546,0.47224875912558884,0.34127814647650956,-0.004753536015741133,-0.14126594216312993,-0.0012802797417100775,-0.20733452994241097
584,0.5746,1024.95,81.5019,-0.0814696,288.989,-6.14012,-1.63044,0.38745,-0.152556,-0.232752,0.294129,-0.00477805,-0.00128461,0.422274,0.47321929081292,0.3419570049553373,-0.004766653277693433,-0.14148918399547172,-0.0012837852417759699,-0.20764994802713133
585,0.5756,1025.24,81.5221,-0.0820302,289.065,-6.15125,-1.63335,0.388109,-0.152816,-0.233151,0.294634,-0.00479124,-0.00128813,0.423001,0.47419046229142103,0.34263486438794066,-0.0047797803189637555,-0.14171236779248197,-0.0012873007166647188,-0.20796603263479585
586,0.5766,1025.53,81.5422,-0.0825934,289.141,-6.16236,-1.63626,0.388767,-0.153076,-0.233549,0.295138,-0.00480444,-0.00129165,0.423727,0.4751607988213171,0.3433117229136129,-0.004792917139160302,-0.14193549356924795,-0.0012908161791789219,-0.2082811994314544
587,0.5776,1025.81,81.5623,-0.0831592,289.217,-6.17346,-1.63916,0.389425,-0.153335,-0.233947,0.295643,-0.00481766,-0.00129518,0.424453,0.4761317740427564,0.34399026665155774,-0.00480607368983077,-0.1421577034989855,-0.0012943416163754273,-0.20859624081668637
588,0.5786,1026.1,81.5822,-0.0837276,289.292,-6.18453,-1.64206,0.390083,-0.153594,-0.234344,0.296147,-0.00483089,-0.00129871,0.425178,0.477103388376136,0.3446678084721466,-0.0048192400183803,-0.14237985588380364,-0.0012978670411271098,-0.20891036575115696
589,0.5796,1026.39,81.602,-0.0842987,289.367,-6.19559,-1.64495,0.39074,-0.153854,-0.234741,0.29665,-0.00484413,-0.00130224,0.425903,0.4780741641672268,0.3453443465148618,-0.004832416124416539,-0.14260280813622506,-0.0013013924534340804,-0.2092243660027796
590,0.5806,1026.68,81.6217,-0.0848725,289.442,-6.20662,-1.64784,0.391396,-0.154112,-0.235138,0.297154,-0.00485738,-0.00130577,0.426627,0.47904409892273736,0.3460225709637097,-0.004845602007546135,-0.14282398807828645,-0.00130491785329645,-0.20953824162104384
591,0.5816,1026.96,81.6412,-0.0854489,289.516,-6.21764,-1.65072,0.392052,-0.154371,-0.235535,0.297656,-0.00487065,-0.00130931,0.427351,0.48001467016419186,0.34669844392425286,-0.004858807618788097,-0.14304596791774404,-0.0013084532276296246,-0.2098519926554191
592,0.5826,1027.25,81.6607,-0.086028,289.59,-6.22863,-1.65359,0.392707,-0.15463,-0.235931,0.298159,-0.00488393,-0.00131285,0.428074,0.48098439732412435,0.34737600363352805,-0.00487202300607259,-0.14326789027186793,-0.001311988589447588,-0.21016482932057978
593,0.5836,1027.53,81.68,-0.0866098,289.664,-6.23961,-1.65646,0.393362,-0.154888,-0.236327,0.298661,-0.00489722,-0.00131639,0.428797,0.48195475986341085,0.34805255618783537,-0.004885248169005374,-0.1434888986448718,-0.0013155239387504514,-0.21047754212694658
594,0.5846,1027.82,81.6993,-0.0871942,289.738,-6.25057,-1.65933,0.394017,-0.155146,-0.236723,0.299163,-0.00491052,-0.00131994,0.429519,0.4829257581983608,0.3487294484567862,-0.004898483107192209,-0.1437098500050703,-0.0013190692623474831,-0.21079013112355804
595,0.5856,1028.1,81.7184,-0.0877814,289.811,-6.2615,-1.66219,0.394671,-0.155404,-0.237118,0.299664,-0.00492384,-0.00132349,0.430241,0.4838959088489063,0.3494053312049541,-0.004911737771120972,-0.14393074436717102,-0.0013226145733586936,-0.2111018074616351
596,0.5866,1028.39,81.7375,-0.0883713,289.884,-6.27242,-1.66504,0.395325,-0.155662,-0.237514,0.300165,-0.00493717,-0.00132705,0.430962,0.4848666941854969,0.3500815526552168,-0.004925002209248852,-0.1441515817458774,-0.001326169858522408,-0.21141414929811497
597,0.5876,1028.67,81.7564,-0.0889639,289.957,-6.28331,-1.66789,0.395978,-0.15592,-0.237909,0.300665,-0.00495051,-0.0013306,0.431683,0.4858366287859812,0.35075676221986885,-0.0049382764211801655,-0.14437236215588944,-0.0013297151443264488,-0.21172557919768786
598,0.5886,1028.95,81.7752,-0.0895593,290.03,-6.29418,-1.67073,0.39663,-0.156177,-0.238303,0.301166,-0.00496386,-0.00133416,0.432403,0.48680571015414564,0.35143366090670347,-0.004951560406519118,-0.1445922302045609,-0.0013332704042122723,-0.21203609814323465
599,0.5896,1029.24,81.7939,-0.0901574,290.102,-6.30503,-1.67356,0.397283,-0.156434,-0.238698,0.301666,-0.00497722,-0.00133773,0.433122,0.48777691134555456,0.35210954669452277,-0.004964854164869581,-0.14481204175440432,-0.001336835638072964,-0.21234728242152712
600,0.5906,1029.52,81.8125,-0.0907582,290.174,-6.31586,-1.67639,0.397934,-0.156691,-0.239092,0.302165,-0.0049906,-0.00134129,0.433841,0.4887457694439348,0.35278441772464175,-0.004978167646053522,-0.14503179681993794,-0.0013403908726097313,-0.21265755646425277
601,0.5916,1029.8,81.8309,-0.0913618,290.245,-6.32667,-1.67922,0.398586,-0.156948,-0.239485,0.302664,-0.00500399,-0.00134486,0.43456,0.4897167481902862,0.35345962559944044,-0.004991490899189377,-0.1452514954156765,-0.0013439560810504236,-0.21296692125040007
602,0.5926,1030.08,81.8493,-0.0919681,290.317,-6.33746,-1.68203,0.399236,-0.157205,-0.239879,0.303163,-0.00501739,-0.00134843,0.435278,0.49068537884746966,0.35413517048704635,-0.005004823923879798,-0.14547113755613073,-0.0013475212767632971,-0.21327695120351597
603,0.5936,1030.36,81.8676,-0.0925773,290.388,-6.34822,-1.68484,0.399887,-0.157462,-0.240272,0.303661,-0.0050308,-0.00135201,0.435996,0.4916561309746328,0.3548096977452959,-0.005018166719727324,-0.14569072325580767,-0.001351096446237654,-0.213586072615357
604,0.5946,1030.64,81.8857,-0.0931892,290.459,-6.35896,-1.68765,0.400537,-0.157718,-0.240665,0.304159,-0.00504422,-0.00135559,0.436713,0.49262602264040956,0.3554845610017765,-0.005031519286334052,-0.1459093984390365,-0.0013546716029128048,-0.21389507256635165
605,0.5956,1030.92,81.9038,-0.0938039,290.53,-6.36968,-1.69045,0.401186,-0.157974,-0.241058,0.304657,-0.00505766,-0.00135917,0.437429,0.4935950513449048,0.3561597604238571,-0.0050448915728529276,-0.1461280176485834,-0.0013582467467889714,-0.21420395110422497
606,0.5966,1031.19,81.9217,-0.0944215,290.6,-6.38038,-1.69324,0.401835,-0.15823,-0.24145,0.305154,-0.0050711,-0.00136275,0.438145,0.4945647091531513,0.356833939344372,-0.005058263679649344,-0.1463465808987756,-0.001361821877866154,-0.21451192278899822
607,0.5976,1031.47,81.9395,-0.0950418,290.67,-6.39105,-1.69602,0.402484,-0.158486,-0.241842,0.305651,-0.00508456,-0.00136634,0.438861,0.49553499647357,0.3575084534150885,-0.005071655505293093,-0.1465650882039371,-0.0013654069824903248,-0.21481977377253003
608,0.5986,1031.75,81.9573,-0.095665,290.74,-6.4017,-1.6988,0.403132,-0.158742,-0.242234,0.306147,-0.00509803,-0.00136993,0.439576,0.4965044172096813,0.35818194461999386,-0.005085057099833423,-0.14678353957838797,-0.0013689920742440131,-0.215127504102126
609,0.5996,1032.03,81.9749,-0.096291,290.809,-6.41233,-1.70158,0.403779,-0.158997,-0.242626,0.306643,-0.00511151,-0.00137352,0.44029,0.4974729688602879,0.3588557699593953,-0.005098468462870986,-0.14700108203795315,-0.001372577153127219,-0.2154351138250732
610,0.6006,1032.3,81.9924,-0.0969198,290.879,-6.42293,-1.70434,0.404426,-0.159252,-0.243017,0.307139,-0.005125,-0.00137712,0.441004,0.49844214736657855,0.3595299295990646,-0.0051118895940056586,-0.1472185690312633,-0.0013761722053783343,-0.21574181873085108
611,0.6016,1032.58,82.0098,-0.0975515,290.948,-6.43351,-1.7071,0.405073,-0.159507,-0.243408,0.307635,-0.00513851,-0.00138072,0.441718,0.4994119531342598,0.36020442370485584,-0.005125330441584142,-0.14743600057246053,-0.0013797672446873577,-0.21604840373845247
612,0.6026,1032.85,82.027,-0.0981861,291.017,-6.44406,-1.70986,0.405719,-0.159762,-0.243799,0.30813,-0.00515202,-0.00138432,0.442431,0.5003808861876649,0.3608778915641335,-0.0051387711075779885,-0.14765337667568357,-0.0013833622710541782,-0.2163548688947482
613,0.6036,1033.13,82.0442,-0.0988235,291.085,-6.45459,-1.7126,0.406365,-0.160017,-0.244189,0.308624,-0.00516555,-0.00138793,0.443143,0.5013504453740414,0.3615503313215114,-0.005152231488945169,-0.14787069735506697,-0.001386967270609385,-0.21666043090741383
614,0.6046,1033.4,82.0613,-0.0994638,291.153,-6.4651,-1.71534,0.407011,-0.160272,-0.244579,0.309119,-0.00517908,-0.00139153,0.443855,0.5023206310980024,0.3622244655699771,-0.005165691688194696,-0.14808796262474222,-0.0013905622710561616,-0.21696587377412946
615,0.6056,1033.68,82.0782,-0.100107,291.221,-6.47558,-1.71808,0.407655,-0.160526,-0.244969,0.309612,-0.00519263,-0.00139514,0.444567,0.5032884371845407,0.3628962078023579,-0.005179171601745636,-0.1483043208035837,-0.001394167244619382,-0.21727119754135293
616,0.6066,1033.95,82.0951,-0.100753,291.289,-6.48604,-1.7208,0.4083,-0.16078,-0.245359,0.310106,-0.00520619,-0.00139876,0.445278,0.5042583709965527,0.3635696448542687,-0.005192661280718491,-0.14852062403442634,-0.0013977821911909105,-0.2175764022555241
617,0.6076,1034.22,82.1118,-0.101402,291.356,-6.49647,-1.72352,0.408944,-0.161034,-0.245748,0.310599,-0.00521976,-0.00140237,0.445988,0.5052274253894973,0.36424205042353575,-0.005206160724711029,-0.14873687233122523,-0.0014013871386903132,-0.21788070584416142
618,0.6086,1034.5,82.1285,-0.102054,291.424,-6.50687,-1.72623,0.409587,-0.161288,-0.246137,0.311092,-0.00523334,-0.00140599,0.446698,0.5061955978581139,0.3649147875704757,-0.005219669933320681,-0.148953065707932,-0.0014050020591258594,-0.21818489108172345
619,0.6096,1034.77,82.145,-0.102709,291.49,-6.51726,-1.72894,0.41023,-0.161542,-0.246526,0.311584,-0.00524693,-0.00140961,0.447408,0.5071643930618157,0.3655864908714228,-0.005233188906144659,-0.14916920417849433,-0.0014086169664754289,-0.21848895801424006
620,0.6106,1035.04,82.1614,-0.103367,291.557,-6.52761,-1.73164,0.410873,-0.161796,-0.246915,0.312077,-0.00526053,-0.00141324,0.448117,0.50813381140115,0.3662598909909127,-0.005246717642779841,-0.14938528775685678,-0.001412241846616702,-0.21879290668772267
621,0.6116,1035.31,82.1777,-0.104027,291.624,-6.53794,-1.73433,0.411515,-0.162049,-0.247303,0.312568,-0.00527414,-0.00141687,0.448825,0.5091023441738236,0.3669308893139971,-0.005260256142823105,-0.1496004660578515,-0.0014158667135996117,-0.21909595624451195
622,0.6126,1035.58,82.1939,-0.104691,291.69,-6.54824,-1.73701,0.412157,-0.162302,-0.247691,0.31306,-0.00528777,-0.0014205,0.449533,0.5100714989441768,0.3676035847810548,-0.0052738143531324555,-0.14981558992562205,-0.0014194915674243802,-0.21939888824088138
623,0.6136,1035.85,82.21,-0.105358,291.755,-6.55852,-1.73969,0.412798,-0.162555,-0.248079,0.313551,-0.0053014,-0.00142413,0.450241,0.5110397650711402,0.3682752430197864,-0.005287372378644628,-0.15003065937393845,-0.0014231164080908965,-0.2197017027224356
624,0.6146,1036.12,82.226,-0.106027,291.821,-6.56877,-1.74236,0.413439,-0.162808,-0.248466,0.314041,-0.00531504,-0.00142776,0.450948,0.5120086520556546,0.36894586217714154,-0.005300940166352852,-0.1502456744165671,-0.0014267412355992715,-0.22000361973877125
625,0.6156,1036.39,82.2419,-0.1067,291.886,-6.579,-1.74502,0.414079,-0.163061,-0.248853,0.314531,-0.0053287,-0.0014314,0.451654,0.5129766473184134,0.36961681001840496,-0.005314527662707347,-0.1504606350672708,-0.001430376035645775,-0.22030541993582753
626,0.6166,1036.66,82.2577,-0.107376,291.952,-6.5892,-1.74768,0.414719,-0.163313,-0.24924,0.315021,-0.00534236,-0.00143504,0.45236,0.513945262296428,0.37028808670467095,-0.005328114973457976,-0.15067469201492567,-0.001434010822461751,-0.22060710335880473
627,0.6176,1036.93,82.2733,-0.108054,292.016,-6.59937,-1.75033,0.415359,-0.163565,-0.249627,0.315511,-0.00535603,-0.00143868,0.453066,0.5149144973864432,0.37095969239711324,-0.005341712045190072,-0.15088869502702584,-0.001437645596046977,-0.22090867005288584
628,0.6186,1037.19,82.2889,-0.108736,292.081,-6.60951,-1.75297,0.415998,-0.163818,-0.250013,0.316,-0.00536972,-0.00144233,0.453771,0.5158828371018629,0.3716302556260427,-0.005355328823945071,-0.15110349301409287,-0.0014412903419889211,-0.22120934127296665
629,0.6196,1037.46,82.3044,-0.109421,292.145,-6.61963,-1.7556,0.416637,-0.16407,-0.250399,0.316489,-0.00538341,-0.00144598,0.454475,0.5168517957840995,0.37230114684057725,-0.00536894541628774,-0.1513173879819555,-0.001444935074627507,-0.2215098964563531
630,0.6206,1037.73,82.3197,-0.110108,292.209,-6.62972,-1.75823,0.417275,-0.164321,-0.250785,0.316977,-0.00539712,-0.00144963,0.455179,0.5178198560081844,0.3729709932294609,-0.005382581714569068,-0.15153038058588197,-0.0014485797939629563,-0.2218103356478267
631,0.6216,1037.99,82.3349,-0.110799,292.273,-6.63979,-1.76085,0.417913,-0.164573,-0.251171,0.317465,-0.00541083,-0.00145328,0.455883,0.5187885340517555,0.3736411665831554,-0.005396217825897942,-0.15174416799162982,-0.0014522244999950473,-0.22211065889215154
632,0.6226,1038.26,82.3501,-0.111493,292.337,-6.64982,-1.76346,0.41855,-0.164825,-0.251556,0.317953,-0.00542455,-0.00145694,0.456586,0.5197563105520373,0.3743116670612583,-0.005409863696178574,-0.1519579015297391,-0.0014558791781653646,-0.22241008864455214
633,0.6236,1038.53,82.3651,-0.11219,292.4,-6.65983,-1.76606,0.419187,-0.165076,-0.251941,0.31844,-0.00543829,-0.0014606,0.457288,0.5207247037223384,0.37498111984163796,-0.005423529270768612,-0.15217073338493992,-0.0014595338429594928,-0.2227094031386867
634,0.6246,1038.79,82.38,-0.112889,292.463,-6.66981,-1.76866,0.419823,-0.165327,-0.252326,0.318927,-0.00545203,-0.00146426,0.45799,0.5216921922626496,0.3756508987249214,-0.005437194657595068,-0.1523835118260488,-0.001463188494377654,-0.22300860241892118
635,0.6256,1039.05,82.3948,-0.113592,292.526,-6.67976,-1.77125,0.420459,-0.165578,-0.25271,0.319414,-0.00546578,-0.00146792,0.458692,0.5226602963213864,0.37632100386995915,-0.005450869802151592,-0.15259623686647106,-0.0014668431324197373,-0.22330690983690238
636,0.6266,1039.32,82.4095,-0.114299,292.588,-6.68969,-1.77383,0.421095,-0.165829,-0.253094,0.3199,-0.00547954,-0.00147159,0.459393,0.5236290162901434,0.37699005844493283,-0.005464554704030844,-0.1528089085196086,-0.0014705077423808888,-0.223605102726826
637,0.6276,1039.58,82.4241,-0.115008,292.651,-6.69958,-1.7764,0.42173,-0.166079,-0.253478,0.320386,-0.00549331,-0.00147526,0.460093,0.5245968279631732,0.37765943825945647,-0.005478249362824594,-0.15302067981996315,-0.0014741723388929096,-0.22390318113266217
638,0.6286,1039.84,82.4386,-0.11572,292.713,-6.70945,-1.77897,0.422364,-0.16633,-0.253862,0.320872,-0.00550709,-0.00147893,0.460794,0.5255637288272881,0.3783291434716354,-0.005491953778124725,-0.15323324495128832,-0.0014778369219559107,-0.22420114509836442
639,0.6296,1040.11,82.453,-0.116435,292.774,-6.71929,-1.78152,0.422999,-0.16658,-0.254245,0.321357,-0.00552088,-0.0014826,0.461493,0.526532769432924,0.3789977952411663,-0.005505667949522675,-0.15344491018079442,-0.001481501491569892,-0.22449821916647628
640,0.6306,1040.37,82.4673,-0.117154,292.836,-6.7291,-1.78407,0.423632,-0.16683,-0.254628,0.321841,-0.00553468,-0.00148627,0.462192,0.5274993705729603,0.3796653917193784,-0.005519391876609658,-0.15365652250060713,-0.0014851660477349649,-0.224795179477006
641,0.6316,1040.63,82.4815,-0.117876,292.897,-6.73888,-1.78662,0.424266,-0.16708,-0.255011,0.322326,-0.00554849,-0.00148995,0.462891,0.5284681122325603,0.38033469172649426,-0.005533125558976559,-0.15386808192395218,-0.0014888405755627554,-0.2250920260735143
642,0.6326,1040.89,82.4956,-0.1186,292.958,-6.74863,-1.78915,0.424899,-0.16733,-0.255394,0.32281,-0.00556231,-0.00149363,0.463589,0.5294359388324059,0.3810029354192186,-0.005546868996214038,-0.15407958846405212,-0.0014925150898683626,-0.22538875899954558
643,0.6336,1041.15,82.5095,-0.119328,293.019,-6.75835,-1.79168,0.425531,-0.167579,-0.255776,0.323294,-0.00557613,-0.00149731,0.464287,0.5304028478568159,0.3816715026201729,-0.005560612243518448,-0.15429019642474529,-0.0014961895906517864,-0.22568460398361823
644,0.6346,1041.41,82.5234,-0.12006,293.079,-6.76805,-1.79419,0.426163,-0.167829,-0.256158,0.323777,-0.00558997,-0.001501,0.464984,0.5313703681608732,0.38233901114627056,-0.0055743751894051785,-0.15450159744940994,-0.001499874062914297,-0.2259803359764897
645,0.6356,1041.67,82.5371,-0.120794,293.14,-6.77771,-1.7967,0.426795,-0.168078,-0.25654,0.32426,-0.00560381,-0.00150469,0.465681,0.5323385001310288,0.38300684215686,-0.005588137944814053,-0.15471210034294713,-0.0015035585215812386,-0.22627595502131426
646,0.6366,1041.93,82.5508,-0.121532,293.2,-6.78735,-1.79921,0.427426,-0.168327,-0.256922,0.324743,-0.00561767,-0.00150837,0.466377,0.5333057108475003,0.3836749958077392,-0.00560192039770957,-0.15492255082778905,-0.0015072329817248376,-0.22657146116122995
647,0.6376,1042.19,82.5643,-0.122272,293.259,-6.79695,-1.8017,0.428057,-0.168576,-0.257303,0.325225,-0.00563153,-0.00151207,0.467073,0.5342735320665275,0.38434208791200053,-0.005615702659581556,-0.15513294891698381,-0.0015109273981280813,-0.22686608130582597
648,0.6386,1042.45,82.5778,-0.123016,293.319,-6.80653,-1.80419,0.428687,-0.168825,-0.257684,0.325707,-0.0056454,-0.00151576,0.467768,0.5352404289322619,0.3850095016321593,-0.005629494674137758,-0.1553432946235762,-0.0015146118160082045,-0.22716058922152793
649,0.6396,1042.71,82.5911,-0.123763,293.378,-6.81607,-1.80667,0.429317,-0.169074,-0.258065,0.326188,-0.00565928,-0.00151945,0.468463,0.5362079351349429,0.38567585144672734,-0.0056432964409671715,-0.15555358796060792,-0.0015182962202929806,-0.22745498495108685
650,0.6406,1042.97,82.6043,-0.124514,293.437,-6.82559,-1.80914,0.429946,-0.169322,-0.258445,0.32667,-0.00567316,-0.00152315,0.469157,0.5371745138832908,0.3863439081958675,-0.005657098016229489,-0.1557629847045242,-0.0015219905957623014,-0.22774849628611982
651,0.6416,1043.22,82.6175,-0.125267,293.496,-6.83507,-1.8116,0.430576,-0.16957,-0.258825,0.32715,-0.00568706,-0.00152685,0.469851,0.5381432389433907,0.38700951300417596,-0.00567091928650898,-0.1559723295244868,-0.0015256849575625564,-0.22804189610803438
652,0.6426,1043.48,82.6305,-0.126024,293.554,-6.84453,-1.81405,0.431204,-0.169818,-0.259205,0.327631,-0.00570096,-0.00153056,0.470544,0.5391094962704914,0.3876768250556135,-0.005684740364674146,-0.15618162243337141,-0.0015293892903998074,-0.22833518445919743
653,0.6436,1043.74,82.6434,-0.126784,293.613,-6.85395,-1.8165,0.431832,-0.170066,-0.259585,0.328111,-0.00571487,-0.00153426,0.471237,0.5400763605977719,0.38834306981759115,-0.0056985711937420636,-0.15639086344405018,-0.0015330836248248492,-0.22862836138195963
654,0.6446,1043.99,82.6562,-0.127548,293.671,-6.86335,-1.81893,0.43246,-0.170314,-0.259965,0.328591,-0.00572879,-0.00153797,0.471929,0.5410438323065476,0.3890096344538183,-0.0057124117733003965,-0.15660005256939225,-0.0015367879302131682,-0.22892142691865602
655,0.6456,1044.25,82.6689,-0.128315,293.728,-6.87271,-1.82136,0.433087,-0.170562,-0.260344,0.32907,-0.00574272,-0.00154167,0.472621,0.5420103697672332,0.38967512944204685,-0.005726262102936586,-0.15680918982226388,-0.0015404822372633298,-0.22921361032560073
656,0.6466,1044.51,82.6815,-0.129085,293.786,-6.88205,-1.82378,0.433714,-0.170809,-0.260723,0.329549,-0.00575666,-0.00154538,0.473313,0.5429775134369332,0.39034094327873303,-0.005740122182237961,-0.15701743223338127,-0.0015441865152028278,-0.22950568301601637
657,0.6476,1044.76,82.694,-0.129858,293.843,-6.89135,-1.8262,0.434341,-0.171056,-0.261101,0.330028,-0.0057706,-0.0015491,0.474004,0.5439452636958602,0.39100707611664176,-0.005753982068331109,-0.1572256232149749,-0.0015479007639204179,-0.22979687482911648
658,0.6486,1045.01,82.7064,-0.130634,293.9,-6.90062,-1.8286,0.434967,-0.171304,-0.26148,0.330506,-0.00578455,-0.00155281,0.474694,0.5449120760116162,0.3916721364357789,-0.005767851703540328,-0.1574346053455623,-0.001551605014337265,-0.23008872650417023
659,0.6496,1045.27,82.7187,-0.131414,293.957,-6.90986,-1.831,0.435593,-0.171551,-0.261858,0.330984,-0.00579851,-0.00155653,0.475384,0.5458794937413565,0.39233751472973855,-0.005781731087452169,-0.15764269329812186,-0.0015553192354581524,-0.23037969796848035
660,0.6506,1045.52,82.7309,-0.132198,294.014,-6.91908,-1.83338,0.436218,-0.171797,-0.262236,0.331462,-0.00581248,-0.00156025,0.476074,0.5468459704174453,0.3930032111505488,-0.005795620219653075,-0.15784988770961306,-0.0015590334427622032,-0.23067055946636184
661,0.6516,1045.78,82.7429,-0.132984,294.07,-6.92825,-1.83576,0.436843,-0.172044,-0.262614,0.331939,-0.00582645,-0.00156397,0.476763,0.5478130513302608,0.3936678321817817,-0.005809509157824189,-0.15805787310009567,-0.0015627476362493065,-0.23096131103937434
662,0.6526,1046.03,82.7549,-0.133774,294.126,-6.9374,-1.83814,0.437467,-0.172291,-0.262991,0.332416,-0.00584043,-0.00156769,0.477451,0.548779188077607,0.39433277031286895,-0.005823407843734141,-0.15826580712453076,-0.0015664618159197952,-0.23125118398062972
663,0.6536,1046.28,82.7668,-0.134567,294.182,-6.94652,-1.8405,0.438091,-0.172537,-0.263368,0.332893,-0.00585442,-0.00157141,0.47814,0.5497459278824177,0.3949980256951031,-0.005837316276968596,-0.1584728482688732,-0.0015701759817734473,-0.23154094766038347
664,0.6546,1046.53,82.7785,-0.135364,294.237,-6.95561,-1.84285,0.438714,-0.172783,-0.263745,0.333369,-0.00586842,-0.00157514,0.478827,0.5507117204086227,0.3956622028169485,-0.00585123445711333,-0.15867983848735834,-0.0015739001180715695,-0.2318306021198192
665,0.6556,1046.78,82.7902,-0.136164,294.293,-6.96466,-1.8452,0.439337,-0.173029,-0.264121,0.333845,-0.00588243,-0.00157887,0.479514,0.5516781148110366,0.39632669616235905,-0.005865162383753231,-0.15888677779251237,-0.0015776242404785812,-0.23211937951986872
666,0.6566,1047.04,82.8017,-0.136968,294.348,-6.97368,-1.84754,0.43996,-0.173275,-0.264498,0.33432,-0.00589644,-0.0015826,0.480201,0.5526451114647448,0.39699010889108566,-0.005879090115264218,-0.15909366619685827,-0.0015813483489947044,-0.23240881595159424
667,0.6576,1047.29,82.8132,-0.137774,294.402,-6.98268,-1.84986,0.440582,-0.17352,-0.264874,0.334796,-0.00591046,-0.00158633,0.480887,0.553611157133133,0.3976552344702473,-0.005893027592718814,-0.1592996630129997,-0.0015850724436199393,-0.23269737598411067
668,0.6586,1047.54,82.8245,-0.138585,294.457,-6.99164,-1.85218,0.441204,-0.173766,-0.26525,0.33527,-0.00592448,-0.00159006,0.481573,0.5545778038688396,0.39831788008599034,-0.005906964874771381,-0.15950644986007345,-0.0015887965243542856,-0.2329858275384501
669,0.6596,1047.79,82.8358,-0.139398,294.511,-7.00057,-1.8545,0.441826,-0.174011,-0.265625,0.335745,-0.00593852,-0.0015938,0.482258,0.5555450520458447,0.3989822388517468,-0.00592092184300641,-0.15971234555660507,-0.0015925305752726437,-0.23327340392917995
670,0.6606,1048.04,82.8469,-0.140216,294.566,-7.00946,-1.8568,0.442447,-0.174257,-0.266001,0.336219,-0.00595255,-0.00159754,0.482943,0.5565113455262374,0.39964551361666323,-0.005934868674635663,-0.15991903089625903,-0.0015962646122256174,-0.2335616389377252
671,0.6616,1048.29,82.858,-0.141036,294.619,-7.01833,-1.8591,0.443067,-0.174502,-0.266376,0.336693,-0.0059666,-0.00160127,0.483628,0.5574766817837806,0.4003091028483412,-0.00594883519161582,-0.16012482552281826,-0.0015999886512132466,-0.23384899943966186
672,0.6626,1048.53,82.8689,-0.14186,294.673,-7.02716,-1.86138,0.443688,-0.174746,-0.266751,0.337166,-0.00598066,-0.00160501,0.484312,0.5584441751787754,0.4009716057235666,-0.005962811452739691,-0.1603297300660198,-0.001603722660273088,-0.23413625220161294
673,0.6636,1048.78,82.8797,-0.142688,294.726,-7.03596,-1.86366,0.444307,-0.174991,-0.267125,0.337639,-0.00599472,-0.00160876,0.484995,0.5594091507523393,0.40163442203677446,-0.005976787517358639,-0.16053542408360766,-0.0016074666392931203,-0.23442263168698763
674,0.6646,1049.03,82.8904,-0.143519,294.78,-7.04473,-1.86593,0.444927,-0.175236,-0.267499,0.338112,-0.00600878,-0.0016125,0.485678,0.5603762842061959,0.4022975519362555,-0.0059907633854756615,-0.16074106771233398,-0.0016112006203853335,-0.23470890408646106
675,0.6656,1049.28,82.9011,-0.144353,294.832,-7.05347,-1.86819,0.445546,-0.17548,-0.267873,0.338584,-0.00602286,-0.00161625,0.486361,0.5613424561254785,0.4029595926100775,-0.006004758936998256,-0.1609458219107841,-0.0016149445713631305,-0.23499506944007598
676,0.6666,1049.53,82.9116,-0.145191,294.885,-7.06218,-1.87044,0.446164,-0.175724,-0.268247,0.339056,-0.00603694,-0.00161999,0.487043,0.562307663981872,0.403621945840855,-0.006018754291464923,-0.16115052615530445,-0.0016186785244879376,-0.23528112778785992
677,0.6676,1049.77,82.922,-0.146033,294.938,-7.07085,-1.87269,0.446782,-0.175968,-0.268621,0.339528,-0.00605102,-0.00162374,0.487724,0.563273468521077,0.40428461177615005,-0.006032749448878327,-0.16135518045808228,-0.0016224224474236104,-0.23556707916982578
678,0.6686,1050.02,82.9323,-0.146878,294.99,-7.0795,-1.87492,0.4474,-0.176212,-0.268994,0.339999,-0.00606511,-0.00162749,0.488405,0.5642398701119569,0.4049461856167058,-0.006046754348773775,-0.16155978483130184,-0.001626166356319625,-0.23585215947851257
679,0.6696,1050.26,82.9425,-0.147726,295.042,-7.08811,-1.87715,0.448017,-0.176456,-0.269367,0.34047,-0.00607921,-0.00163125,0.489086,0.5652053039175173,0.40560807113193387,-0.0060607689907340445,-0.1617643392871445,-0.0016299202348768471,-0.23613713347207332
680,0.6706,1050.51,82.9526,-0.148578,295.093,-7.09668,-1.87937,0.448634,-0.1767,-0.26974,0.34094,-0.00609332,-0.001635,0.489766,0.5661713335795389,0.40626886219910263,-0.0060747933743413585,-0.16196884383778865,-0.0016336641156561305,-0.236422001190156
681,0.6716,1050.76,82.9626,-0.149434,295.145,-7.10523,-1.88158,0.449251,-0.176943,-0.270113,0.34141,-0.00610743,-0.00163875,0.490446,0.5671379594657779,0.40692996391106884,-0.006088817560065962,-0.16217246066828916,-0.0016374079823959775,-0.2367067626723941
682,0.6726,1051.0,82.9725,-0.150293,295.196,-7.11375,-1.88378,0.449867,-0.177186,-0.270485,0.34188,-0.00612155,-0.00164251,0.491125,0.5681036138398208,0.40759137641386967,-0.006102851486882277,-0.1623760280259111,-0.0016411618186847887,-0.2369906549494425
683,0.6736,1051.25,82.9823,-0.151156,295.247,-7.12223,-1.88597,0.450483,-0.17743,-0.270857,0.34235,-0.00613567,-0.00164627,0.491804,0.5690698632402074,0.40825309985361113,-0.006116885215540879,-0.1625803833427103,-0.0016449156408591126,-0.23727444163820466
684,0.6746,1051.49,82.992,-0.152022,295.298,-7.13068,-1.88816,0.451098,-0.177673,-0.271229,0.342819,-0.0061498,-0.00165003,0.492482,0.5700351379976638,0.4089137254620383,-0.006130928684735415,-0.16278385158716513,-0.0016486694489191711,-0.23755812277795185
685,0.6756,1051.73,83.0016,-0.152892,295.349,-7.1391,-1.89033,0.451713,-0.177915,-0.2716,0.343288,-0.00616394,-0.00165379,0.49316,0.5710010065816788,0.40957466097654316,-0.006144981894047441,-0.16298643338169516,-0.0016524232428648533,-0.2378409362492584
686,0.6766,1051.98,83.0111,-0.153766,295.399,-7.14748,-1.8925,0.452327,-0.178158,-0.271971,0.343756,-0.00617808,-0.00165755,0.493838,0.5719658973908852,0.41023449630730435,-0.006159034904648419,-0.16318980296797803,-0.0016561770226963812,-0.23812364481622805
687,0.6776,1052.22,83.0205,-0.154643,295.449,-7.15584,-1.89466,0.452941,-0.178401,-0.272342,0.344224,-0.00619222,-0.00166132,0.494515,0.5729313808249654,0.4108946405132714,-0.006173087716541237,-0.16339312314145527,-0.0016599407718143055,-0.23840624851777303
688,0.6786,1052.46,83.0298,-0.155524,295.499,-7.16416,-1.89681,0.453555,-0.178643,-0.272713,0.344692,-0.00620638,-0.00166508,0.495191,0.5738974572479032,0.411555093739032,-0.006187160205985753,-0.16359555751010846,-0.0016636945233799993,-0.23868874739279133
689,0.6796,1052.71,83.039,-0.156408,295.548,-7.17245,-1.89895,0.454168,-0.178885,-0.273084,0.34516,-0.00622053,-0.00166885,0.495867,0.5748625521605659,0.41221585612924083,-0.006201222558177455,-0.1637979428955716,-0.0016674582441570385,-0.2389711414801664
690,0.6806,1052.95,83.048,-0.157297,295.598,-7.1807,-1.90108,0.454781,-0.179127,-0.273454,0.345627,-0.0062347,-0.00167262,0.496543,0.5758282388577733,0.4128755149523997,-0.006215304587082415,-0.1640002793096973,-0.0016712219507447612,-0.2392526700718175
691,0.6816,1053.19,83.057,-0.158188,295.647,-7.18893,-1.9032,0.455393,-0.179369,-0.273824,0.346093,-0.00624886,-0.00167639,0.497218,0.5767929409086716,0.41353406837339723,-0.006229376478740223,-0.1642025667643351,-0.0016749856431435006,-0.2395340945171579
692,0.6826,1053.43,83.0659,-0.159084,295.696,-7.19712,-1.90532,0.456005,-0.179611,-0.274194,0.34656,-0.00626304,-0.00168016,0.497893,0.5777582335379237,0.4141943429454402,-0.006243468046272294,-0.16440480527133183,-0.0016787493213530347,-0.2398154148547148
693,0.6836,1053.67,83.0747,-0.159983,295.744,-7.20528,-1.90743,0.456617,-0.179852,-0.274563,0.347026,-0.00627722,-0.00168393,0.498567,0.5787241171070738,0.41485351108350055,-0.0062575594139873125,-0.1646061594491085,-0.0016825129853735854,-0.2400958712192518
694,0.6846,1053.91,83.0833,-0.160886,295.793,-7.21341,-1.90953,0.457228,-0.180094,-0.274933,0.347491,-0.0062914,-0.00168771,0.499241,0.5796890122880862,0.41551157095321667,-0.006271650581888277,-0.16480830029849247,-0.0016862866183423586,-0.24037698373787775
695,0.6856,1054.15,83.0919,-0.161793,295.841,-7.22151,-1.91162,0.457839,-0.180335,-0.275302,0.347957,-0.00630559,-0.00169148,0.499914,0.5806544972001986,0.4161713530625726,-0.006285751487120295,-0.16500955724568434,-0.0016900502539474171,-0.24065723292172414
696,0.6866,1054.39,83.1004,-0.162703,295.889,-7.22957,-1.9137,0.458449,-0.180576,-0.275671,0.348422,-0.00631979,-0.00169526,0.500587,0.5816189905840654,0.41683002587130624,-0.006299862129263367,-0.16521076569579596,-0.001693823858425314,-0.24093737871269882
697,0.6876,1054.63,83.1087,-0.163617,295.937,-7.23761,-1.91577,0.459059,-0.180817,-0.276039,0.348886,-0.00633399,-0.00169903,0.50126,0.5825840724883768,0.4174875875458215,-0.00631397257103683,-0.16541192566051388,-0.0016975874656149914,-0.2412166623659885
698,0.6886,1054.87,83.117,-0.164535,295.984,-7.24561,-1.91784,0.459669,-0.181058,-0.276408,0.349351,-0.00634819,-0.00170281,0.501932,0.5835497432722401,0.41814687254591343,-0.0063280828124433475,-0.16561303715152165,-0.001701361041602234,-0.24149660176557985
699,0.6896,1055.11,83.1252,-0.165456,296.032,-7.25357,-1.91989,0.460278,-0.181299,-0.276776,0.349815,-0.0063624,-0.00170659,0.502603,0.58451441877977,0.4188050453790635,-0.006342202790063922,-0.16581410018050002,-0.0017051346033254422,-0.24177567966264757
700,0.6906,1055.35,83.1332,-0.166382,296.079,-7.26151,-1.92194,0.460887,-0.181539,-0.277143,0.350278,-0.00637661,-0.00171037,0.503275,0.5854796819536101,0.4194621042124562,-0.006356322567040995,-0.16601428077382463,-0.001708908150784727,-0.24205389693221968
701,0.6916,1055.59,83.1412,-0.167311,296.125,-7.26942,-1.92398,0.461496,-0.18178,-0.277511,0.350741,-0.00639083,-0.00171416,0.503945,0.5864455331517584,0.4201194673345261,-0.006370452079673017,-0.16621524711474134,-0.0017126916668530612,-0.24233276978239704
702,0.6926,1055.82,83.149,-0.168244,296.172,-7.27729,-1.92601,0.462104,-0.18202,-0.277878,0.351204,-0.00640505,-0.00171794,0.504616,0.5874103853212516,0.4207771348861915,-0.006384581391384869,-0.16641533144435383,-0.0017164651857465296,-0.24261078263740754
703,0.6936,1056.06,83.1568,-0.16918,296.218,-7.28513,-1.92803,0.462711,-0.18226,-0.278245,0.351667,-0.00641928,-0.00172173,0.505285,0.5883742359242052,0.4214351070084361,-0.006398720438192007,-0.16661536775948926,-0.0017202486731737743,-0.24288869348042064
704,0.6946,1056.3,83.1645,-0.170121,296.265,-7.29294,-1.93005,0.463318,-0.1825,-0.278612,0.352129,-0.00643351,-0.00172551,0.505955,0.5893386717620761,0.4220919617496357,-0.006412859283802086,-0.16681535607166953,-0.0017240221635018704,-0.24316650234886783
705,0.6956,1056.53,83.172,-0.171065,296.311,-7.30072,-1.93205,0.463925,-0.18274,-0.278979,0.352591,-0.00644775,-0.0017293,0.506624,0.5903036931902088,0.4227491200278375,-0.006427007863947787,-0.16701529639241408,-0.0017278056222882476,-0.24344420928016686
706,0.6966,1056.77,83.1795,-0.172013,296.356,-7.30846,-1.93405,0.464532,-0.182979,-0.279345,0.353053,-0.00646199,-0.00173309,0.507292,0.5912693005641654,0.4234065819833077,-0.006441156242619095,-0.16721435594801193,-0.0017315890667353173,-0.24372105803315813
707,0.6976,1057.01,83.1868,-0.172965,296.402,-7.31618,-1.93604,0.465138,-0.183219,-0.279711,0.353514,-0.00647624,-0.00173687,0.50796,0.592233902005024,0.42406292369274223,-0.0064553143552658065,-0.16741420052027645,-0.0017353625141968143,-0.24399780547804617
708,0.6986,1057.24,83.1941,-0.173921,296.447,-7.32386,-1.93802,0.465743,-0.183458,-0.280077,0.353975,-0.00649049,-0.00174067,0.508628,0.5931974949732184,0.42471956804545874,-0.006469472266160903,-0.16761316474917964,-0.0017391559126117562,-0.2442744516519032
709,0.6996,1057.48,83.2012,-0.174881,296.492,-7.33151,-1.93999,0.466349,-0.183697,-0.280443,0.354435,-0.00650474,-0.00174446,0.509295,0.5941632652540119,0.42537508980520533,-0.00648362997530727,-0.1678120814313142,-0.0017429393140413474,-0.24455099659178758
710,0.7006,1057.71,83.2083,-0.175845,296.537,-7.33913,-1.94196,0.466954,-0.183936,-0.280808,0.354895,-0.006519,-0.00174825,0.509961,0.5951280258401406,0.4260309131743263,-0.0064977974177297115,-0.1680109505780425,-0.0017467227011318531,-0.24482668516180683
711,0.7016,1057.95,83.2152,-0.176812,296.581,-7.34672,-1.94391,0.467558,-0.184175,-0.281173,0.355355,-0.00653326,-0.00175204,0.510628,0.5960917741904506,0.4266870382915937,-0.006511964658125868,-0.16820977220072397,-0.0017505060738832734,-0.24510227312386013
712,0.7026,1058.18,83.222,-0.177784,296.625,-7.35428,-1.94586,0.468162,-0.184414,-0.281538,0.355814,-0.00654752,-0.00175584,0.511293,0.5970561048205949,0.42734203795309234,-0.006526131696498627,-0.16840854631071567,-0.0017542994147528024,-0.24537776051466254
713,0.7036,1058.42,83.2288,-0.178759,296.67,-7.3618,-1.9478,0.468766,-0.184652,-0.281903,0.356274,-0.00656179,-0.00175963,0.511959,0.5980210180823771,0.42799876632649614,-0.006540308467447797,-0.16860644152622906,-0.0017580827587886372,-0.24565314737091604
714,0.7046,1058.65,83.2354,-0.179739,296.713,-7.3693,-1.94973,0.469369,-0.184891,-0.282267,0.356732,-0.00657607,-0.00176343,0.512624,0.5989849153420976,0.42865293955570816,-0.006554494970550939,-0.16880512084358013,-0.0017618760708668635,-0.24592767965736573
715,0.7056,1058.88,83.242,-0.180722,296.757,-7.37676,-1.95166,0.469972,-0.185129,-0.282632,0.357191,-0.00659034,-0.00176722,0.513288,0.5999493940071421,0.42930884177300754,-0.006568671336759091,-0.1690029216855854,-0.0017656593861871128,-0.24620286582975914
716,0.7066,1059.12,83.2484,-0.181709,296.801,-7.38419,-1.95357,0.470575,-0.185367,-0.282996,0.357649,-0.00660462,-0.00177102,0.513952,0.6009144544282032,0.4299636151541981,-0.0065828574348434366,-0.169200675456592,-0.0017694526694742585,-0.24647719805510315
717,0.7076,1059.35,83.2547,-0.1827,296.844,-7.3916,-1.95548,0.471177,-0.185605,-0.283359,0.358107,-0.00661891,-0.00177482,0.514616,0.6018784950768898,0.43061868849028184,-0.006597053264381314,-0.16939838216780145,-0.0017732459383469346,-0.24675067719274268
718,0.7086,1059.58,83.261,-0.183696,296.887,-7.39897,-1.95738,0.471779,-0.185843,-0.283723,0.358564,-0.0066332,-0.00177862,0.515279,0.6028431162527683,0.43127263064532295,-0.006611248891062127,-0.16959604183041266,-0.001777039192805141,-0.2470248100510375
719,0.7096,1059.81,83.2671,-0.184695,296.929,-7.40631,-1.95927,0.47238,-0.186081,-0.284086,0.359021,-0.00664749,-0.00178242,0.515942,0.6038067144979045,0.43192687172022715,-0.006625444314888984,-0.1697936544556219,-0.0017808324328489888,-0.24729809044159723
720,0.7106,1060.04,83.2732,-0.185698,296.972,-7.41362,-1.96115,0.472981,-0.186318,-0.284449,0.359478,-0.00666178,-0.00178622,0.516604,0.6047708920396471,0.43258141185163157,-0.00663963953586455,-0.1699903900454276,-0.0017846256584787001,-0.24757127164937798
721,0.7116,1060.28,83.2791,-0.186705,297.014,-7.4209,-1.96303,0.473582,-0.186556,-0.284812,0.359934,-0.00667608,-0.00179002,0.517266,0.6057356492262582,0.43323481794070196,-0.006653844487453542,-0.17018790882692947,-0.0017884188696940528,-0.2478443537103766
722,0.7126,1060.51,83.2849,-0.187717,297.056,-7.42815,-1.9649,0.474182,-0.186793,-0.285174,0.36039,-0.00669038,-0.00179383,0.517927,0.606699379706026,0.4338885220508928,-0.006668049235913243,-0.17038455098952077,-0.0017922220485731,-0.2481165847775374
723,0.7136,1060.74,83.2907,-0.188732,297.098,-7.43536,-1.96675,0.474782,-0.18703,-0.285537,0.360846,-0.00670468,-0.00179763,0.518588,0.6076636885975879,0.43454252431813245,-0.006682253781246428,-0.1705811465534417,-0.00179601523092221,-0.24838946892579372
724,0.7146,1060.97,83.2963,-0.189752,297.14,-7.44255,-1.96861,0.475381,-0.187267,-0.285899,0.361301,-0.00671899,-0.00180144,0.519248,0.6086269676203231,0.4351953896823042,-0.006696468056491378,-0.17077769552973487,-0.001799818380859186,-0.2486615026969594
725,0.7156,1061.2,83.3018,-0.190775,297.181,-7.44971,-1.97045,0.47598,-0.187504,-0.28626,0.361756,-0.0067333,-0.00180524,0.519909,0.60959082382004,0.4358485521678066,-0.006710682128331591,-0.17097419792944013,-0.0018036115343423864,-0.24893268694278436
726,0.7166,1061.43,83.3073,-0.191803,297.222,-7.45684,-1.97229,0.476579,-0.18774,-0.286622,0.362211,-0.00674762,-0.00180905,0.520568,0.6105552575425715,0.4365020119098608,-0.006724905929520797,-0.17116982493383426,-0.0018074146553375137,-0.24920452410461613
727,0.7176,1061.66,83.3126,-0.192835,297.263,-7.46394,-1.97411,0.477177,-0.187977,-0.286983,0.362665,-0.00676193,-0.00181285,0.521227,0.6115186576144938,0.43715433188869857,-0.006739119594417975,-0.17136623440988275,-0.0018112077799548043,-0.24947551235509224
728,0.7186,1061.89,83.3178,-0.19387,297.304,-7.47101,-1.97593,0.477775,-0.188213,-0.287344,0.363119,-0.00677625,-0.00181666,0.521886,0.6124826339719514,0.43780694808804377,-0.006753342988385591,-0.17156176890458408,-0.0018150108720083047,-0.24974640279646543
729,0.7196,1062.12,83.323,-0.19491,297.345,-7.47805,-1.97775,0.478373,-0.188449,-0.287705,0.363573,-0.00679057,-0.00182047,0.522545,0.6134471869596658,0.4384598606424108,-0.006767566178675799,-0.17175725725858948,-0.0018188139495720623,-0.25001719546403867
730,0.7206,1062.34,83.328,-0.195954,297.385,-7.48506,-1.97955,0.47897,-0.188685,-0.288066,0.364026,-0.0068049,-0.00182428,0.523203,0.6144107025110557,0.4391116305740257,-0.00678179909747334,-0.1719526994827869,-0.0018226170126460772,-0.2502878903931016
731,0.7216,1062.57,83.3329,-0.197003,297.425,-7.49204,-1.98135,0.479567,-0.188921,-0.288426,0.364479,-0.00681923,-0.00182809,0.52386,0.6153747934529668,0.4397636958243041,-0.006796031812314585,-0.17214809558806166,-0.0018264200612304604,-0.25055773817704463
732,0.7226,1062.8,83.3377,-0.198055,297.465,-7.49899,-1.98314,0.480163,-0.189157,-0.288786,0.364932,-0.00683356,-0.0018319,0.524517,0.6163378437903577,0.44041605652705584,-0.006810264323202531,-0.17234344558529646,-0.0018302230953252119,-0.25082748883326955
733,0.7236,1063.03,83.3425,-0.199112,297.504,-7.50591,-1.98492,0.480759,-0.189393,-0.289146,0.365384,-0.00684789,-0.00183571,0.525174,0.6173014682768292,0.44106727174815874,-0.0068244966301400645,-0.17253874948537173,-0.0018340261149304427,-0.25109714239673586
734,0.7246,1063.25,83.3471,-0.200173,297.544,-7.5128,-1.9867,0.481355,-0.189628,-0.289506,0.365836,-0.00686222,-0.00183952,0.52583,0.618265667254676,0.4417187813850747,-0.006838728733130073,-0.1727331800327585,-0.0018378291200462638,-0.25136669890239083
735,0.7256,1063.48,83.3516,-0.201238,297.583,-7.51967,-1.98846,0.48195,-0.189864,-0.289865,0.366288,-0.00687656,-0.00184333,0.526486,0.6192288218367656,0.4423705855709097,-0.006852970563645866,-0.17292839196635656,-0.0018416321106725642,-0.251635410020953
736,0.7266,1063.71,83.3561,-0.202307,297.622,-7.5265,-1.99022,0.482545,-0.190099,-0.290225,0.366739,-0.0068909,-0.00184715,0.527141,0.6201925496663558,0.44302124141686683,-0.006867212189935357,-0.1731227309585186,-0.001845445068355156,-0.2519047727851389
737,0.7276,1063.93,83.3604,-0.203381,297.661,-7.53331,-1.99198,0.483139,-0.190334,-0.290584,0.36719,-0.00690524,-0.00185096,0.527796,0.6211552299285898,0.44367219077479225,-0.00688145361200132,-0.17331702428638318,-0.0018492480299647784,-0.25217329076984685
738,0.7286,1064.16,83.3646,-0.204458,297.699,-7.54009,-1.99372,0.483733,-0.190569,-0.290942,0.36764,-0.00691959,-0.00185477,0.52845,0.6221184821927674,0.4443219894543786,-0.006895704760889743,-0.17351127196068017,-0.0018530509770852133,-0.25244096481523826
739,0.7296,1064.39,83.3687,-0.205541,297.738,-7.54684,-1.99546,0.484327,-0.190804,-0.291301,0.368091,-0.00693394,-0.00185859,0.529105,0.6230823067987585,0.44497352558197556,-0.006909955705275639,-0.17370547399213698,-0.0018568638911478086,-0.25270929034155576
740,0.7306,1064.61,83.3728,-0.206627,297.776,-7.55356,-1.99719,0.484921,-0.191038,-0.291659,0.36854,-0.00694829,-0.0018624,0.529758,0.6240467040866353,0.44562246437081776,-0.006924206445161896,-0.1738988042906957,-0.0018606668092517875,-0.2529767725334443
741,0.7316,1064.84,83.3767,-0.207718,297.813,-7.56026,-1.99891,0.485514,-0.191273,-0.292017,0.36899,-0.00696264,-0.00186622,0.530411,0.62501004938581,0.446273140871017,-0.006938456980551622,-0.17409291526275483,-0.0018644796942219877,-0.253244158983847
742,0.7326,1065.06,83.3805,-0.208812,297.851,-7.56692,-2.00063,0.486106,-0.191507,-0.292375,0.369439,-0.00697699,-0.00187003,0.531064,0.625972340145007,0.44692266331814556,-0.006952707311447592,-0.1742861549106628,-0.0018682825833098438,-0.253511449727033
743,0.7336,1065.29,83.3843,-0.209912,297.889,-7.57356,-2.00234,0.486699,-0.191742,-0.292733,0.369888,-0.00699135,-0.00187385,0.531717,0.6269368276850051,0.4475724774663348,-0.006966967368183141,-0.1744801748660212,-0.0018720954391877598,-0.2537786447972594
744,0.7346,1065.51,83.3879,-0.211015,297.926,-7.58017,-2.00404,0.48729,-0.191976,-0.29309,0.370337,-0.0070057,-0.00187767,0.532369,0.6278986315352098,0.44822258344658783,-0.0069812172899579306,-0.1746733239057835,-0.00187590828050066,-0.2540449982741423
745,0.7356,1065.73,83.3914,-0.212123,297.963,-7.58676,-2.00574,0.487882,-0.19221,-0.293447,0.370785,-0.00702006,-0.00188148,0.53302,0.6288626328413112,0.44887153251770995,-0.006995476937293188,-0.17486642775395822,-0.00187971112604568,-0.25431125667980514
746,0.7366,1065.96,83.3948,-0.213236,298.0,-7.59331,-2.00742,0.488473,-0.192443,-0.293804,0.371233,-0.00703443,-0.0018853,0.533671,0.6298255751787531,0.4495207723831489,-0.00700974630976392,-0.17505866148019278,-0.0018835239382667401,-0.2545774200481823
747,0.7376,1066.18,83.3982,-0.214352,298.036,-7.59985,-2.00911,0.489064,-0.192677,-0.294161,0.37168,-0.00704879,-0.00188912,0.534322,0.6307890867833181,0.45016885300363185,-0.007024005547425327,-0.1752516751699239,-0.0018873367359227844,-0.25484348841319615
748,0.7386,1066.4,83.4014,-0.215474,298.072,-7.60635,-2.01078,0.489654,-0.192911,-0.294517,0.372128,-0.00706315,-0.00189294,0.534972,0.6317515362391908,0.4508186741988567,-0.007038264580325526,-0.17544464369973567,-0.0018911495190140348,-0.255108716917846
749,0.7396,1066.63,83.4045,-0.216599,298.109,-7.61283,-2.01245,0.490244,-0.193144,-0.294873,0.372575,-0.00707752,-0.00189676,0.535622,0.6327145537077896,0.4514673351111369,-0.007052533337942313,-0.17563674271734908,-0.0018949622875404915,-0.2553738510179533
750,0.7406,1066.85,83.4075,-0.217729,298.145,-7.61928,-2.01411,0.490834,-0.193377,-0.295229,0.373021,-0.00709189,-0.00190058,0.536271,0.6336781395243412,0.45211483392409857,-0.007066801890518448,-0.17582879698110532,-0.0018987750415022653,-0.25563889074712
751,0.7416,1067.07,83.4105,-0.218864,298.18,-7.6257,-2.01576,0.491423,-0.19361,-0.295585,0.373467,-0.00710626,-0.0019044,0.53692,0.6346406593827927,0.4527626215859393,-0.00708107023805693,-0.17602080650143093,-0.0019025877808992453,-0.2559038361389361
752,0.7426,1067.29,83.4133,-0.220002,298.216,-7.6321,-2.01741,0.492012,-0.193843,-0.295941,0.373913,-0.00712063,-0.00190822,0.537569,0.6356037463324329,0.4534106982255146,-0.007095338380560756,-0.1762127712887499,-0.0019064005057315425,-0.2561686872269797
753,0.7436,1067.51,83.416,-0.221146,298.251,-7.63847,-2.01905,0.492601,-0.194076,-0.296296,0.374359,-0.007135,-0.00191204,0.538217,0.6365674007073767,0.454059063971737,-0.007109606318032813,-0.1764046913534838,-0.001910213215999379,-0.25643270047788946
754,0.7446,1067.74,83.4187,-0.222294,298.286,-7.64482,-2.02069,0.493189,-0.194309,-0.296651,0.374804,-0.00714938,-0.00191586,0.538865,0.6375299853111323,0.45470626424658556,-0.007123883979237355,-0.17659656670605184,-0.0019140259117026437,-0.25669662002072924
755,0.7456,1067.96,83.4212,-0.223446,298.321,-7.65114,-2.02232,0.493777,-0.194541,-0.297006,0.375249,-0.00716375,-0.00191968,0.539512,0.6384931360810713,0.4553537525896465,-0.0071381515065120915,-0.17678757414485635,-0.0019178385928414476,-0.25696044588875955
756,0.7466,1068.18,83.4236,-0.224603,298.355,-7.65744,-2.02394,0.494364,-0.194774,-0.29736,0.375693,-0.00717813,-0.0019235,0.540159,0.6394552138941638,0.45600007312833823,-0.007152428757239759,-0.17697936029612638,-0.0019216512594157908,-0.2572234353390358
757,0.7476,1068.4,83.4259,-0.225764,298.39,-7.66371,-2.02555,0.494951,-0.195006,-0.297715,0.376138,-0.00719251,-0.00192732,0.540805,0.6404178566127161,0.45664813734447396,-0.007166705802662099,-0.177170278937119,-0.0019254639114257843,-0.2574870742208202
758,0.7486,1068.62,83.4282,-0.22693,298.424,-7.66996,-2.02716,0.495538,-0.195238,-0.298069,0.376581,-0.00720689,-0.00193114,0.541452,0.6413810645684253,0.4572935754232965,-0.007180982642781886,-0.17736115329012447,-0.001929276548871539,-0.2577498772776605
759,0.7496,1068.84,83.4303,-0.228101,298.458,-7.67618,-2.02877,0.496124,-0.19547,-0.298423,0.377025,-0.00722127,-0.00193497,0.542097,0.6423431957491657,0.4579407574345591,-0.007195259277602228,-0.17755198336541644,-0.0019330991524221242,-0.2580125873186835
760,0.7506,1069.06,83.4323,-0.229276,298.492,-7.68238,-2.03036,0.49671,-0.195702,-0.298776,0.377468,-0.00723565,-0.00193879,0.542742,0.6433058909040061,0.4585867682709379,-0.0072095357071260135,-0.17774276917326626,-0.0019369117607012099,-0.25827446265164444
761,0.7516,1069.28,83.4342,-0.230456,298.525,-7.68855,-2.03195,0.497296,-0.195934,-0.29913,0.377911,-0.00725003,-0.00194261,0.543387,0.6442691503635327,0.45923306535351616,-0.007223811931356239,-0.1779335107239426,-0.0019407243544162789,-0.25853698702231054
762,0.7526,1069.5,83.4361,-0.23164,298.559,-7.6947,-2.03354,0.497881,-0.196165,-0.299483,0.378354,-0.00726442,-0.00194644,0.544032,0.6452313292263725,0.459879648809129,-0.007238097877914962,-0.17812338615150924,-0.0019445469141217142,-0.25879867727484474
763,0.7536,1069.71,83.4378,-0.232829,298.592,-7.70083,-2.03512,0.498466,-0.196397,-0.299836,0.378796,-0.0072788,-0.00195026,0.544676,0.6461940711285201,0.4605250582388791,-0.007252373691424174,-0.17831403940928903,-0.0019483594786705583,-0.25906027516702224
764,0.7546,1069.93,83.4394,-0.234023,298.625,-7.70693,-2.03669,0.499051,-0.196628,-0.300189,0.379238,-0.00729319,-0.00195408,0.545319,0.6471573763994498,0.4611707530026514,-0.007266659226981997,-0.1785038269448812,-0.0019521720286553856,-0.25932178073144063
765,0.7556,1070.15,83.4409,-0.235221,298.657,-7.71301,-2.03826,0.499635,-0.196859,-0.300541,0.379679,-0.00730758,-0.00195791,0.545962,0.6481195972484073,0.46181527141058876,-0.007280944556972591,-0.17869357064461588,-0.0019559945445163374,-0.25958245358350973
766,0.7566,1070.37,83.4424,-0.236424,298.69,-7.71907,-2.03982,0.500219,-0.197091,-0.300894,0.38012,-0.00732196,-0.00196173,0.546605,0.6490823801984582,0.46246007411382695,-0.007295219754350879,-0.1788840916349368,-0.001959807065335273,-0.25984377485147736
767,0.7576,1070.59,83.4437,-0.237631,298.722,-7.7251,-2.04138,0.500802,-0.197321,-0.301246,0.380561,-0.00733635,-0.00196556,0.547247,0.6500440755330648,0.463105161237767,-0.007309504673358447,-0.17907292657701002,-0.0019636295519541713,-0.2601042639939509
768,0.7586,1070.8,83.4449,-0.238844,298.754,-7.73112,-2.04293,0.501385,-0.197552,-0.301598,0.381002,-0.00735074,-0.00196938,0.547889,0.651006331699518,0.46375053290786683,-0.007323789386807444,-0.1792625388299124,-0.001967442043607437,-0.2603646614603823
769,0.7596,1071.02,83.4461,-0.240061,298.786,-7.7371,-2.04447,0.501968,-0.197783,-0.30195,0.381442,-0.00736513,-0.0019732,0.548531,0.6519691490248782,0.46439472485418154,-0.0073380738947008695,-0.17945210728744287,-0.001971254520697019,-0.26062496728303564
770,0.7606,1071.24,83.4471,-0.241283,298.818,-7.74307,-2.04601,0.50255,-0.198013,-0.302301,0.381882,-0.00737952,-0.00197703,0.549172,0.6529308749046954,0.4650392003073196,-0.0073523581970417196,-0.1796408116009388,-0.001975076963472211,-0.260884442378976
771,0.7616,1071.45,83.448,-0.242509,298.849,-7.74902,-2.04754,0.503132,-0.198244,-0.302652,0.382321,-0.00739391,-0.00198085,0.549813,0.6538931606718856,0.46568249370882464,-0.007366642293832881,-0.1798302926875509,-0.001978889411396345,-0.26114382641513967
772,0.7626,1071.67,83.4488,-0.243741,298.88,-7.75494,-2.04907,0.503714,-0.198474,-0.303003,0.382761,-0.00740831,-0.00198468,0.550453,0.6548560066523987,0.46632753590493303,-0.0073809361112682215,-0.1800189100284071,-0.001982711824930039,-0.26140311942348293
773,0.7636,1071.89,83.4495,-0.244977,298.911,-7.76084,-2.05059,0.504295,-0.198704,-0.303354,0.3832,-0.0074227,-0.0019885,0.551093,0.6558177573537884,0.46697139500992835,-0.0073952197968261135,-0.18020748399226338,-0.0019865242436891695,-0.2616623214359509
774,0.7646,1072.1,83.4502,-0.246218,298.942,-7.76672,-2.05211,0.504876,-0.198934,-0.303704,0.383638,-0.00743709,-0.00199233,0.551732,0.6567800669946917,0.46761406921631954,-0.007409503276843421,-0.1803960145890955,-0.0019903466279813653,-0.261920694405541
775,0.7656,1072.32,83.4507,-0.247464,298.973,-7.77258,-2.05362,0.505457,-0.199164,-0.304055,0.384076,-0.00745149,-0.00199615,0.552371,0.6577429358999471,0.46825702497566857,-0.00742379647708491,-0.18058450182887653,-0.001994159017575603,-0.2621797147810695
776,0.7666,1072.53,83.4511,-0.248714,299.003,-7.77842,-2.05513,0.506037,-0.199394,-0.304405,0.384514,-0.00746588,-0.00199998,0.55301,0.6587047056890463,0.468900262411323,-0.007438079545886711,-0.18077294572157743,-0.001997981372626745,-0.2624379066946755
777,0.7676,1072.75,83.4514,-0.24997,299.033,-7.78424,-2.05664,0.506617,-0.199623,-0.304755,0.384952,-0.00748028,-0.00200381,0.553648,0.6596670334664241,0.46954378164668387,-0.007452372334632917,-0.18096052723810385,-0.0020018037130382638,-0.2626960082569242
778,0.7686,1072.96,83.4517,-0.25123,299.063,-7.79004,-2.05813,0.507197,-0.199853,-0.305104,0.385389,-0.00749467,-0.00200763,0.554286,0.6606299195558076,0.4701861126183584,-0.007466654992231092,-0.18114888465490575,-0.0020056160588665106,-0.2629532824530839
779,0.7696,1073.18,83.4518,-0.252496,299.093,-7.79582,-2.05963,0.507776,-0.200082,-0.305454,0.385826,-0.00750907,-0.00201146,0.554924,0.6615917026885783,0.47082872435000955,-0.0074809473694937845,-0.18133638009127295,-0.0020094383700373086,-0.2632112036653803
780,0.7706,1073.39,83.4518,-0.253766,299.122,-7.80158,-2.06111,0.508355,-0.200311,-0.305803,0.386262,-0.00752347,-0.00201528,0.555561,0.6625540428550285,0.47147014549347444,-0.0074952395409477734,-0.18152383259610105,-0.002013250686701218,-0.2634682980897145
781,0.7716,1073.6,83.4517,-0.255041,299.151,-7.80732,-2.0626,0.508933,-0.20054,-0.306152,0.386699,-0.00753786,-0.00201911,0.556197,0.6635152768616654,0.47211331847011495,-0.00750952158169127,-0.1817112421792203,-0.002017072968631406,-0.26372530280374995
782,0.7726,1073.82,83.4515,-0.256321,299.181,-7.81304,-2.06408,0.509511,-0.200769,-0.306501,0.387135,-0.00755226,-0.00202294,0.556833,0.664477066622156,0.4727552998187321,-0.007523813341679619,-0.1818986088504586,-0.0020208952359223042,-0.26398221783879017
783,0.7736,1074.03,83.4513,-0.257606,299.209,-7.81874,-2.06555,0.510089,-0.200998,-0.306849,0.38757,-0.00756666,-0.00202676,0.557469,0.665439412457818,0.47339608773542086,-0.007538104895868036,-0.18208593261964168,-0.002024707508821,-0.2642383074648028
784,0.7746,1074.24,83.4509,-0.258896,299.238,-7.82442,-2.06702,0.510666,-0.201227,-0.307198,0.388005,-0.00758106,-0.00203059,0.558105,0.6664006482886746,0.47403715445548844,-0.007552396244259518,-0.18227321349659287,-0.0020285297468717323,-0.2644950434924549
785,0.7756,1074.46,83.4504,-0.260192,299.266,-7.83009,-2.06849,0.511243,-0.201455,-0.307546,0.38844,-0.00759545,-0.00203441,0.55874,0.6673624389126482,0.47467850010024115,-0.007566677462524041,-0.18245963395117626,-0.0020323419906066453,-0.26475095468618914
786,0.7766,1074.67,83.4498,-0.261492,299.295,-7.83573,-2.06995,0.51182,-0.201683,-0.307894,0.388875,-0.00760985,-0.00203824,0.559374,0.6683247846499467,0.47532012479103747,-0.007580968399473531,-0.18264601190674112,-0.002036164199417323,-0.2650067768383222
787,0.7776,1074.88,83.4491,-0.262797,299.323,-7.84136,-2.0714,0.512396,-0.201912,-0.308241,0.389309,-0.00762425,-0.00204207,0.560009,0.6692860165341115,0.475960552687998,-0.007595259130635079,-0.18283316454022003,-0.002039986393588933,-0.2652617752419776
788,0.7786,1075.09,83.4484,-0.264107,299.351,-7.84698,-2.07286,0.512972,-0.20214,-0.308589,0.389743,-0.00763865,-0.00204589,0.560642,0.670247802247329,0.4766012585909887,-0.007609549656011572,-0.1830194573405186,-0.0020437985935596314,-0.2655174196594847
789,0.7796,1075.31,83.4475,-0.265423,299.378,-7.85257,-2.0743,0.513548,-0.202368,-0.308936,0.390177,-0.00765305,-0.00204972,0.561276,0.6712101421086969,0.4772422426206906,-0.007623839975606006,-0.1832057076709005,-0.0020476207584915196,-0.26577224090082063
790,0.7806,1075.52,83.4465,-0.266743,299.405,-7.85815,-2.07575,0.514123,-0.202596,-0.309283,0.39061,-0.00766744,-0.00205354,0.561909,0.6721713642652958,0.47788202701507076,-0.007638120165802453,-0.18339191554104772,-0.002051432929298991,-0.26602697373452533
791,0.7816,1075.73,83.4454,-0.268069,299.433,-7.86371,-2.07719,0.514698,-0.202823,-0.30963,0.391043,-0.00768184,-0.00205737,0.562541,0.6731331392835671,0.47852208849607836,-0.007652410073984539,-0.1835772645383128,-0.0020552550649914902,-0.26628161819127116
792,0.7826,1075.94,83.4442,-0.269399,299.46,-7.86925,-2.07863,0.515273,-0.203051,-0.309977,0.391475,-0.00769624,-0.0020612,0.563174,0.6740954674814978,0.4791609480220309,-0.0076666997763933376,-0.18376338770315093,-0.002059077186045144,-0.2665361743017194
793,0.7836,1076.15,83.4429,-0.270735,299.486,-7.87478,-2.08006,0.515847,-0.203279,-0.310323,0.391908,-0.00771064,-0.00206502,0.563805,0.6750566741197463,0.47980156339574376,-0.007680989273031957,-0.18394946843674487,-0.002062889313089178,-0.26678990888679643
794,0.7846,1076.36,83.4415,-0.272076,299.513,-7.8803,-2.08149,0.516421,-0.203506,-0.310669,0.39234,-0.00772504,-0.00206885,0.564437,0.6760184326489826,0.48044097577426026,-0.007695278563903285,-0.1841346908838667,-0.002066711404903776,-0.26704355569489335
795,0.7856,1076.57,83.44,-0.273422,299.539,-7.88579,-2.08291,0.516995,-0.203733,-0.311015,0.392771,-0.00773943,-0.00207267,0.565068,0.676980743386083,0.48107918335867383,-0.007709557726105931,-0.18431987129026473,-0.0020705235027851376,-0.26729711475637563
796,0.7866,1076.78,83.4384,-0.274774,299.565,-7.89128,-2.08434,0.517568,-0.20396,-0.311361,0.393203,-0.00775383,-0.0020765,0.565698,0.6779419287053385,0.481719147788249,-0.007723846605594442,-0.18450500966548122,-0.002074345565360902,-0.26755058610159854
797,0.7876,1076.99,83.4367,-0.276131,299.591,-7.89674,-2.08576,0.518141,-0.204187,-0.311706,0.393634,-0.00776823,-0.00208033,0.566329,0.6789036649416045,0.4823579063835348,-0.007738135279324654,-0.18469010601905622,-0.002078167613298154,-0.2678032375645101
798,0.7886,1077.2,83.435,-0.277492,299.617,-7.9022,-2.08717,0.518713,-0.204414,-0.312052,0.394064,-0.00778263,-0.00208415,0.566958,0.6798642725455346,0.4829954573469135,-0.007752423747299453,-0.18487516036052754,-0.0020819796674167446,-0.2680565338215334
799,0.7896,1077.41,83.4331,-0.27886,299.642,-7.90764,-2.08858,0.519285,-0.204641,-0.312397,0.394495,-0.00779703,-0.00208798,0.567588,0.6808254297741918,0.48363476615018053,-0.007766712009521726,-0.18506017269943076,-0.002085801686115496,-0.2683090107625883
800,0.7906,1077.62,83.4311,-0.280232,299.668,-7.91306,-2.08999,0.519857,-0.204867,-0.312741,0.394925,-0.00781142,-0.0020918,0.568217,0.6817871369420514,0.48427286628132116,-0.0077809901438045115,-0.18524432829003512,-0.0020896137110720803,-0.2685606691751574
801,0.7916,1077.83,83.4289,-0.28161,299.693,-7.91847,-2.0914,0.520429,-0.205094,-0.313086,0.395354,-0.00782582,-0.00209563,0.568846,0.6827493943637686,0.48490975594402075,-0.007795277994673611,-0.18542925683732903,-0.002093435700532442,-0.2688129722195143
802,0.7926,1078.04,83.4267,-0.282993,299.718,-7.92387,-2.0928,0.521,-0.20532,-0.313431,0.395784,-0.00784022,-0.00209946,0.569474,0.6837105186428181,0.48554840443866243,-0.007809565639799287,-0.18561332902434324,-0.0020972576753546246,-0.26906518823433434
803,0.7936,1078.25,83.4244,-0.284382,299.742,-7.92925,-2.0942,0.521571,-0.205546,-0.313775,0.396213,-0.00785462,-0.00210328,0.570102,0.6846721918805438,0.48618584142462384,-0.007823853079184206,-0.18579735961574362,-0.002101069656549437,-0.2693165865665894
804,0.7946,1078.45,83.422,-0.285776,299.767,-7.93463,-2.0956,0.522141,-0.205772,-0.314119,0.396641,-0.00786901,-0.00210711,0.570729,0.6856327287569188,0.4868220651069095,-0.00783813039121295,-0.18598134862092974,-0.002104891602133563,-0.26956789843269124
805,0.7956,1078.66,83.4195,-0.287175,299.791,-7.93999,-2.09699,0.522711,-0.205998,-0.314463,0.39707,-0.00788341,-0.00211093,0.571356,0.6865938132953826,0.48746004861051717,-0.007852417419268454,-0.186165296049299,-0.002108703554166813,-0.26981912386237905
806,0.7966,1078.87,83.4169,-0.28858,299.815,-7.94533,-2.09839,0.523281,-0.206224,-0.314806,0.397498,-0.0078978,-0.00211476,0.571983,0.6875554458081907,0.4880968177702023,-0.007866694320259215,-0.18634920191024684,-0.0021125254705133267,-0.2700695329552798
807,0.7976,1079.08,83.4142,-0.28999,299.839,-7.95067,-2.09978,0.523851,-0.20645,-0.315149,0.397925,-0.0079122,-0.00211858,0.572609,0.6885176266077782,0.4887323707923037,-0.007880980936997073,-0.18653306621316634,-0.002116337393385237,-0.27031985617259024
808,0.7986,1079.28,83.4114,-0.291406,299.862,-7.95599,-2.10116,0.52442,-0.206675,-0.315493,0.398353,-0.0079266,-0.00212241,0.573235,0.6894786665272463,0.4893696846224336,-0.00789526734800916,-0.18671607568393078,-0.0021201592804940272,-0.27057082297330226
809,0.7996,1079.49,83.4085,-0.292827,299.886,-7.96131,-2.10255,0.524988,-0.206901,-0.315836,0.39878,-0.00794099,-0.00212623,0.57386,0.6904385629946235,0.4900057812747378,-0.007909543632393934,-0.18689985708274592,-0.0021239711742049305,-0.2708209742776212
810,0.8006,1079.7,83.4054,-0.294254,299.909,-7.96661,-2.10393,0.525557,-0.207126,-0.316178,0.399207,-0.00795539,-0.00213006,0.574485,0.6914006962379167,0.4906421495983102,-0.00792382963210625,-0.18708278403484846,-0.0021277930320764415,-0.27107031086543154
811,0.8016,1079.9,83.4023,-0.295686,299.932,-7.9719,-2.10531,0.526125,-0.207351,-0.316521,0.399633,-0.00796978,-0.00213388,0.57511,0.6923616847282743,0.4912772984311351,-0.007938105505482684,-0.18726566983301685,-0.002131604896626338,-0.27132029087478227
812,0.8026,1080.11,83.3991,-0.297123,299.955,-7.97718,-2.10669,0.526693,-0.207576,-0.316863,0.400059,-0.00798417,-0.00213771,0.575734,0.6933232192151433,0.4919127178950031,-0.007952381173430778,-0.18744851448650945,-0.0021354267252607917,-0.2715694567255139
813,0.8036,1080.32,83.3958,-0.298567,299.977,-7.98245,-2.10806,0.52726,-0.207801,-0.317205,0.400485,-0.00799857,-0.00214153,0.576358,0.694283605724284,0.4925484081052276,-0.007966666556286861,-0.1876313180045831,-0.002139238560650125,-0.27181853737609474
814,0.8046,1080.52,83.3923,-0.300016,300.0,-7.98772,-2.10944,0.527827,-0.208026,-0.317547,0.40091,-0.00801296,-0.00214536,0.576982,0.6952445369269817,0.4931828759935486,-0.00798094181324438,-0.18781408039649183,-0.002143060360047633,-0.2720675328556582
815,0.8056,1080.73,83.3888,-0.30147,300.022,-7.99297,-2.11081,0.528394,-0.208251,-0.317889,0.401335,-0.00802735,-0.00214918,0.577605,0.6962060131321648,0.49381761358803056,-0.00799521686478244,-0.18799680167148836,-0.0021468721662765144,-0.2723164431933277
816,0.8066,1080.93,83.3852,-0.30293,300.044,-7.99821,-2.11218,0.52896,-0.208475,-0.31823,0.40176,-0.00804175,-0.00215301,0.578228,0.6971663374817514,0.4944526210033229,-0.008009501630809046,-0.18817867001789867,-0.00215069393643752,-0.27256454098312155
817,0.8076,1081.14,83.3814,-0.304396,300.065,-8.00345,-2.11355,0.529526,-0.2087,-0.318571,0.402185,-0.00805614,-0.00215683,0.57885,0.6981272055287717,0.49508789835412426,-0.008023776271374294,-0.18836130926945838,-0.002154505713506172,-0.27281255418599193
818,0.8086,1081.34,83.3776,-0.305868,300.087,-8.00868,-2.11492,0.530092,-0.208924,-0.318912,0.402609,-0.00807053,-0.00216065,0.579472,0.6990886175810456,0.4957219500324832,-0.008038050706528965,-0.18854309597531083,-0.0021583174760138046,-0.2730604828307781
819,0.8096,1081.55,83.3736,-0.307345,300.108,-8.0139,-2.11628,0.530658,-0.209148,-0.319253,0.403033,-0.00808492,-0.00216448,0.580094,0.7000505739465672,0.4963562706057556,-0.008052324936275945,-0.18872484196550154,-0.0021621392023393193,-0.27330832694630947
820,0.8106,1081.75,83.3696,-0.308828,300.129,-8.01911,-2.11765,0.531223,-0.209372,-0.319594,0.403456,-0.00809931,-0.0021683,0.580715,0.7010113739212807,0.496989363197865,-0.008066598960618232,-0.1889065472491498,-0.0021659509356871665,-0.2735560865614056
821,0.8116,1081.95,83.3654,-0.310317,300.15,-8.02431,-2.11901,0.531787,-0.209596,-0.319934,0.403879,-0.0081137,-0.00217213,0.581336,0.7019710149294984,0.49762272364478854,-0.008080872779558823,-0.18908821183537272,-0.002169772632776512,-0.2738030355082748
822,0.8126,1082.16,83.3612,-0.311811,300.171,-8.02951,-2.12037,0.532352,-0.20982,-0.320274,0.404302,-0.00812809,-0.00217595,0.581956,0.7029329002599514,0.4982563520598522,-0.008095146393100605,-0.1892698357332856,-0.0021735843369646846,-0.27404990050677414
823,0.8136,1082.36,83.3568,-0.313311,300.191,-8.0347,-2.12173,0.532916,-0.210044,-0.320614,0.404725,-0.00814248,-0.00217977,0.582576,0.7038936253146963,0.4988902485564306,-0.008109419801246576,-0.18945141895200157,-0.002177396026592171,-0.2742966815854412
824,0.8146,1082.57,83.3523,-0.314817,300.212,-8.03989,-2.12309,0.533479,-0.210268,-0.320954,0.405147,-0.00815687,-0.0021836,0.583196,0.7048531875171626,0.4995229137242829,-0.008123693003999732,-0.1896329615006318,-0.002181217679846914,-0.27454337877280377
825,0.8156,1082.77,83.3478,-0.316329,300.232,-8.04506,-2.12445,0.534043,-0.210491,-0.321294,0.405569,-0.00817126,-0.00218742,0.583815,0.7058149959193962,0.5001558459331776,-0.008137966001362962,-0.18981365320234356,-0.002185029340315059,-0.2747899920973801
826,0.8166,1082.97,83.3431,-0.317847,300.251,-8.05024,-2.12581,0.534606,-0.210714,-0.321633,0.40599,-0.00818564,-0.00219124,0.584434,0.7067756401580774,0.5007875445075352,-0.008152228874861556,-0.18999430461429845,-0.00218884098622274,-0.2750357966238378
827,0.8176,1083.17,83.3383,-0.319371,300.271,-8.05541,-2.12717,0.535169,-0.210938,-0.321972,0.406411,-0.00820003,-0.00219507,0.585053,0.7077368253917409,0.5014195090829818,-0.008166501461596587,-0.19017572557015916,-0.0021926625956434354,-0.27528151783668353
828,0.8186,1083.38,83.3335,-0.320901,300.29,-8.06057,-2.12853,0.535731,-0.211161,-0.322311,0.406832,-0.00821442,-0.00219889,0.585671,0.7086968432273546,0.5020517397715276,-0.008180773842950462,-0.19035629624897799,-0.0021964742123921077,-0.27552715576415576
829,0.8196,1083.58,83.3285,-0.322436,300.31,-8.06573,-2.12988,0.536293,-0.211384,-0.32265,0.407253,-0.0082288,-0.00220271,0.586289,0.7096574007446288,0.5026842366852298,-0.008195036100876685,-0.19053682666502492,-0.002200285814580427,-0.2757727104344835
830,0.8206,1083.78,83.3234,-0.323978,300.329,-8.07089,-2.13124,0.536855,-0.211606,-0.322988,0.407673,-0.00824319,-0.00220653,0.586906,0.7106184982469488,0.5033154966199442,-0.008209308071620125,-0.19071650754418978,-0.0022040974022085047,-0.2760174578937059
831,0.8216,1083.98,83.3182,-0.325525,300.347,-8.07604,-2.1326,0.537416,-0.211829,-0.323326,0.408093,-0.00825758,-0.00221036,0.587523,0.7115784244585921,0.5039470217395163,-0.008223579836991401,-0.1908969576420737,-0.0022079189531971632,-0.27626212264226613
832,0.8226,1084.19,83.3129,-0.327079,300.366,-8.08119,-2.13395,0.537977,-0.212052,-0.323665,0.408513,-0.00827196,-0.00221418,0.58814,0.7125388893399227,0.504578812155347,-0.008237841479371899,-0.19107736750407234,-0.0022117305116666763,-0.2765074282010489
833,0.8236,1084.39,83.3075,-0.328638,300.384,-8.08633,-2.13531,0.538538,-0.212274,-0.324002,0.408932,-0.00828635,-0.002218,0.588756,0.713499893193219,0.5052093627687686,-0.008252112834150394,-0.1912569283964899,-0.0022155420555760585,-0.27675120411919585
834,0.8246,1084.59,83.302,-0.330204,300.402,-8.09147,-2.13667,0.539099,-0.212497,-0.32434,0.409351,-0.00830073,-0.00222182,0.589372,0.7144614363209298,0.5058401776382551,-0.00826637406622932,-0.19143725799396005,-0.002219353584925421,-0.2769956209034401
835,0.8256,1084.79,83.2963,-0.331776,300.42,-8.09661,-2.13802,0.539659,-0.212719,-0.324678,0.409769,-0.00831511,-0.00222565,0.589987,0.7154218036030109,0.506469750404049,-0.00828063509323318,-0.19161673899955667,-0.0022231750774830417,-0.2772399550887713
836,0.8266,1084.99,83.2906,-0.333354,300.438,-8.10175,-2.13938,0.540218,-0.212941,-0.325015,0.410188,-0.0083295,-0.00222947,0.590602,0.716380992459533,0.5071010934866076,-0.008294905832216037,-0.19179618016479238,-0.0022269865776742837,-0.27748348418694857
837,0.8276,1085.19,83.2848,-0.334938,300.456,-8.10689,-2.14073,0.540778,-0.213163,-0.325352,0.410606,-0.00834388,-0.00223329,0.591217,0.7173424349940942,0.5077311934253976,-0.00830916644893609,-0.19197558149851102,-0.002230798063305617,-0.27772693122964676
838,0.8286,1085.39,83.2789,-0.336528,300.473,-8.11202,-2.14209,0.541337,-0.213385,-0.325689,0.411023,-0.00835826,-0.00223711,0.591831,0.7183026977837004,0.508360048440214,-0.008323426860589955,-0.19215494300955394,-0.002234609534377041,-0.2779702962445142
839,0.8296,1085.59,83.2728,-0.338124,300.49,-8.11716,-2.14345,0.541896,-0.213607,-0.326025,0.411441,-0.00837264,-0.00224093,0.592445,0.7192634975102659,0.5089906747321749,-0.008337687067180521,-0.19233426470676096,-0.0022384209908887787,-0.27821285747240776
840,0.8306,1085.79,83.2667,-0.339727,300.507,-8.12229,-2.14481,0.542454,-0.213828,-0.326362,0.411858,-0.00838703,-0.00224476,0.593059,0.7202231142500477,0.5096200550602163,-0.008351956985191311,-0.19251273911211253,-0.0022422424104183714,-0.2784560587577213
841,0.8316,1085.99,83.2604,-0.341336,300.524,-8.12743,-2.14617,0.543012,-0.21405,-0.326698,0.412275,-0.00840141,-0.00224858,0.593672,0.7211832666053934,0.5102496978945836,-0.008366216781521718,-0.19269198138740096,-0.0022460538377725436,-0.2786984567968276
842,0.8326,1086.19,83.2541,-0.342951,300.54,-8.13256,-2.14753,0.54357,-0.214271,-0.327034,0.412691,-0.00841579,-0.0022524,0.594285,0.7221439548752595,0.5108780924659162,-0.008380476372797707,-0.1928703767461012,-0.002249865250567029,-0.27894077340387424
843,0.8336,1086.39,83.2476,-0.344572,300.556,-8.1377,-2.14889,0.544128,-0.214493,-0.32737,0.413107,-0.00843017,-0.00225622,0.594898,0.7231051793587697,0.5115067485037719,-0.008394735759022165,-0.1930495396346471,-0.00225367664880205,-0.2791830086062176
844,0.8346,1086.59,83.241,-0.3462,300.572,-8.14283,-2.15025,0.544685,-0.214714,-0.327706,0.413523,-0.00844455,-0.00226004,0.59551,0.7240652162891368,0.5121356661169432,-0.0084089949401982,-0.19322785598170567,-0.002257488032477495,-0.2794251624312051
845,0.8356,1086.79,83.2344,-0.347834,300.588,-8.14797,-2.15161,0.545242,-0.214935,-0.328041,0.413938,-0.00845893,-0.00226386,0.596121,0.7250257881090272,0.512763332650179,-0.008423253916328699,-0.19340613292520592,-0.002261299401593475,-0.2796665145730498
846,0.8366,1086.99,83.2276,-0.349475,300.604,-8.15311,-2.15298,0.545798,-0.215156,-0.328376,0.414353,-0.00847331,-0.00226768,0.596733,0.7259851691304247,0.5133912597190835,-0.008437512687416548,-0.1935843704738548,-0.0022651107561499906,-0.2799077858754683
847,0.8376,1087.19,83.2207,-0.351122,300.619,-8.15825,-2.15434,0.546354,-0.215377,-0.328711,0.414768,-0.00848768,-0.0022715,0.597344,0.7269450837159874,0.5140194474318016,-0.008451761337982422,-0.19376256863635788,-0.0022689220961472634,-0.28014897636553715
848,0.8386,1087.38,83.2137,-0.352775,300.634,-8.16339,-2.15571,0.54691,-0.215597,-0.329046,0.415182,-0.00850206,-0.00227533,0.597954,0.7279055321624592,0.514646381249384,-0.008466019699136518,-0.19393992136174276,-0.002272743398857857,-0.28039008607032434
849,0.8396,1087.58,83.2066,-0.354435,300.649,-8.16854,-2.15708,0.547466,-0.215818,-0.329381,0.415597,-0.00851644,-0.00227915,0.598564,0.7288665147667492,0.5152750899456338,-0.008480277855256846,-0.19411804095618168,-0.002276554709698453,-0.2806311150168881
850,0.8406,1087.78,83.1994,-0.356101,300.664,-8.17369,-2.15845,0.548021,-0.216038,-0.329715,0.41601,-0.00853082,-0.00228297,0.599174,0.7298263019987652,0.5159010278050522,-0.008494535806346404,-0.194295315486258,-0.002280366005979917,-0.2808713441039816
851,0.8416,1087.98,83.1921,-0.357774,300.679,-8.17884,-2.15982,0.548576,-0.216259,-0.330049,0.416424,-0.0085452,-0.00228679,0.599784,0.7307866220605412,0.5165287407581791,-0.008508793552408078,-0.1944733565472737,-0.0022841772877022493,-0.2811114929679581
852,0.8426,1088.17,83.1846,-0.359453,300.693,-8.184,-2.1612,0.549131,-0.216479,-0.330383,0.416837,-0.00855957,-0.00229061,0.600393,0.7317474752478805,0.5171551964823149,-0.008523041178675306,-0.194650552916518,-0.00228798855486545,-0.2813515616356076
853,0.8436,1088.37,83.1771,-0.361139,300.707,-8.18916,-2.16257,0.549685,-0.216699,-0.330717,0.41725,-0.00857395,-0.00229443,0.601002,0.7327071291487539,0.5177819109860988,-0.008537298514832647,-0.19482771030684887,-0.00229179980746963,-0.28159155013371107
854,0.8446,1088.57,83.1694,-0.362832,300.721,-8.19432,-2.16395,0.550239,-0.216919,-0.331051,0.417663,-0.00858833,-0.00229825,0.60161,0.7336673148451824,0.5184088843764294,-0.008551555645970987,-0.19500482872684077,-0.0022956110455149004,-0.2818314584890408
855,0.8456,1088.77,83.1617,-0.364531,300.735,-8.1995,-2.16533,0.550792,-0.217139,-0.331384,0.418075,-0.0086027,-0.00230207,0.602218,0.7346262980046965,0.5190345977248914,-0.008565802657751309,-0.1951819081850662,-0.002299422269001261,-0.2820705687992878
856,0.8466,1088.96,83.1538,-0.366237,300.748,-8.20467,-2.16671,0.551346,-0.217359,-0.331717,0.418487,-0.00861708,-0.00230589,0.602826,0.7355875472152371,0.5196605689203657,-0.00858005937900308,-0.19535894869009596,-0.0023032334779288233,-0.2823095994990573
857,0.8476,1089.16,83.1459,-0.367949,300.762,-8.20985,-2.1681,0.551899,-0.217578,-0.33205,0.418898,-0.00863146,-0.00230971,0.603433,0.7365475925569183,0.5202852777830693,-0.00859431589524462,-0.19553514578604658,-0.002307044672297587,-0.2825485506148552
858,0.8486,1089.36,83.1378,-0.369669,300.775,-8.21504,-2.16949,0.552451,-0.217798,-0.332383,0.419309,-0.00864583,-0.00231353,0.60404,0.7375064314431956,0.5209102434538859,-0.00860856229256457,-0.19571210858735177,-0.0023108558521075517,-0.28278742217317865
859,0.8496,1089.55,83.1296,-0.371395,300.788,-8.22024,-2.17088,0.553004,-0.218017,-0.332716,0.41972,-0.00866021,-0.00231736,0.604646,0.7384675382213148,0.5215354660383855,-0.008622818398937082,-0.19588822834975317,-0.0023146769942121725,-0.2830262142005159
860,0.8506,1089.75,83.1213,-0.373127,300.8,-8.22544,-2.17227,0.553556,-0.218237,-0.333048,0.420131,-0.00867459,-0.00232118,0.605252,0.7394274372101601,0.5221609456421812,-0.008637074300308356,-0.1960651134814383,-0.0023184881448666816,-0.28326420998791446
861,0.8516,1089.94,83.1129,-0.374867,300.813,-8.23065,-2.17367,0.554108,-0.218456,-0.33338,0.420541,-0.00868896,-0.002325,0.605858,0.7403878662095169,0.5227851595850086,-0.00865132008319447,-0.19624115594423264,-0.002322299280962725,-0.2835021267738267
862,0.8526,1090.14,83.1044,-0.376614,300.825,-8.23587,-2.17507,0.554659,-0.218675,-0.333712,0.420951,-0.00870334,-0.00232882,0.606463,0.7413470841640764,0.5234096295080248,-0.00866557557471448,-0.19641715985794883,-0.002326110402500192,-0.2837399645844766
863,0.8536,1090.33,83.0957,-0.378367,300.837,-8.24109,-2.17647,0.55521,-0.218894,-0.334044,0.421361,-0.00871771,-0.00233264,0.607069,0.7423068307933656,0.5240343555162035,-0.008679820948040207,-0.19659312523102834,-0.0023299215094793047,-0.28397772344607963
864,0.8546,1090.53,83.087,-0.380127,300.849,-8.24633,-2.17787,0.555761,-0.219113,-0.334375,0.42177,-0.00873209,-0.00233646,0.607673,0.7432671063887639,0.5246578130559854,-0.008694076029720721,-0.19676905207191053,-0.0023337326018999516,-0.284214687599888
865,0.8556,1090.72,83.0781,-0.381894,300.86,-8.25157,-2.17928,0.556311,-0.219331,-0.334707,0.422179,-0.00874647,-0.00234028,0.608277,0.7442261670147738,0.5252815256420547,-0.008708330906414541,-0.19694413733357197,-0.002337543679762244,-0.28445228887960994
866,0.8566,1090.92,83.0692,-0.383668,300.871,-8.25682,-2.18069,0.556862,-0.21955,-0.335038,0.422588,-0.00876084,-0.0023441,0.608881,0.7451875004558401,0.5259054933787461,-0.008722575665350618,-0.1971199873112205,-0.002341354743066182,-0.28468909597825387
867,0.8576,1091.11,83.0601,-0.385449,300.883,-8.26208,-2.18211,0.557411,-0.219768,-0.335369,0.422996,-0.00877522,-0.00234792,0.609485,0.746145871442355,0.5265281898414851,-0.008736830132222706,-0.19729499607733803,-0.0023451657918119873,-0.28492582470671923
868,0.8586,1091.31,83.0509,-0.387238,300.894,-8.26736,-2.18353,0.557961,-0.219987,-0.3357,0.423405,-0.00878959,-0.00235174,0.610088,0.7471065158246373,0.52715266756812,-0.008751074481627819,-0.1974707692253349,-0.002348976825999549,-0.28516247509094206
869,0.8596,1091.5,83.0416,-0.389033,300.904,-8.27264,-2.18495,0.55851,-0.220205,-0.33603,0.423812,-0.00880397,-0.00235557,0.610691,0.7480659406398389,0.5277743452066381,-0.008765328538689832,-0.1976457015293298,-0.0023527978221010715,-0.2853983325555399
870,0.8606,1091.7,83.0322,-0.390835,300.915,-8.27793,-2.18638,0.559059,-0.220423,-0.336361,0.42422,-0.00881835,-0.00235939,0.611294,0.7490258923238766,0.5283978043164921,-0.008779582390780027,-0.19782059570223898,-0.002356608827134399,-0.2856348265655463
871,0.8616,1091.89,83.0227,-0.392644,300.925,-8.28324,-2.18781,0.559608,-0.220641,-0.336691,0.424627,-0.00883272,-0.00236321,0.611896,0.7499863711660806,0.5290199888288085,-0.008793826125839566,-0.19799545175237387,-0.0023604198176097047,-0.28587052817987424
872,0.8626,1092.08,83.0131,-0.394461,300.935,-8.28855,-2.18924,0.560156,-0.220859,-0.337021,0.425034,-0.0088471,-0.00236703,0.612497,0.7509456265094381,0.5296424266217605,-0.00880807956813734,-0.19817026968804452,-0.002364230793526989,-0.28610615202550205
873,0.8636,1092.28,83.0034,-0.396285,300.945,-8.29388,-2.19068,0.560704,-0.221077,-0.337351,0.42544,-0.00886148,-0.00237085,0.613099,0.7519054076687839,0.5302635875341017,-0.008822332805472177,-0.19834504951755894,-0.002368041754886474,-0.2863416981280892
874,0.8646,1092.47,82.9935,-0.398116,300.955,-8.29922,-2.19213,0.561252,-0.221295,-0.33768,0.425846,-0.00887586,-0.00237467,0.6137,0.7528657149323446,0.5308850006889752,-0.008836585837846855,-0.19851979124922337,-0.0023718527016880486,-0.2865764530900963
875,0.8656,1092.66,82.9836,-0.399954,300.964,-8.30458,-2.19357,0.561799,-0.221512,-0.33801,0.426252,-0.00889023,-0.0023785,0.6143,0.7538247947628327,0.5315066661888119,-0.008850828753772744,-0.19869369358543632,-0.0023756736101750997,-0.2868118440189371
876,0.8666,1092.86,82.9735,-0.401799,300.973,-8.30995,-2.19503,0.562346,-0.22173,-0.338339,0.426658,-0.00890461,-0.00238232,0.614901,0.7547843993534966,0.532128584136085,-0.008865081376378647,-0.1988683593209779,-0.002379484527823106,-0.2870464443283878
877,0.8676,1093.05,82.9633,-0.403652,300.982,-8.31533,-2.19648,0.562893,-0.221947,-0.338668,0.427063,-0.00891899,-0.00238614,0.615501,0.7557445289914588,0.5327492218833205,-0.008879333794033384,-0.19904218602612556,-0.0023832954309134236,-0.28728096746703213
878,0.8686,1093.24,82.953,-0.405512,300.991,-8.32072,-2.19795,0.563439,-0.222165,-0.338997,0.427468,-0.00893337,-0.00238996,0.6161,0.7567034272596935,0.5333701110397506,-0.008893586006739729,-0.1992167757985952,-0.002387106319446053,-0.2875154134602548
879,0.8696,1093.43,82.9426,-0.40738,301.0,-8.32613,-2.19941,0.563985,-0.222382,-0.339325,0.427872,-0.00894775,-0.00239379,0.6167,0.75766284922934,0.5339897177167319,-0.00890783801450079,-0.19939052690557002,-0.002390927169511947,-0.2877490700828589
880,0.8706,1093.63,82.9321,-0.409255,301.008,-8.33156,-2.20088,0.564531,-0.222599,-0.339654,0.428277,-0.00896213,-0.00239761,0.617298,0.7586227951864177,0.5346111093757246,-0.008922089817319456,-0.1995642403126452,-0.002394738028891341,-0.28798336209565223
881,0.8716,1093.82,82.9214,-0.411137,301.016,-8.337,-2.20236,0.565077,-0.222816,-0.339982,0.428681,-0.00897651,-0.00240143,0.617897,0.7595832654171015,0.5352312175173226,-0.008936341415198612,-0.19973791602800073,-0.0023985488737133798,-0.2882168652562731
882,0.8726,1094.01,82.9107,-0.413027,301.024,-8.34245,-2.20384,0.565622,-0.223033,-0.34031,0.429084,-0.00899089,-0.00240525,0.618495,0.7605424996643431,0.5358500403824142,-0.008950592808141367,-0.19991155405981487,-0.002402359703977952,-0.2884502918404165
883,0.8736,1094.2,82.8998,-0.414925,301.032,-8.34792,-2.20533,0.566167,-0.223249,-0.340638,0.429487,-0.00900528,-0.00240908,0.619093,0.7615022568367338,0.5364691126833785,-0.008964853906501924,-0.20008435450101836,-0.0024061804956234667,-0.2886836418731954
884,0.8746,1094.39,82.8888,-0.41683,301.039,-8.35341,-2.20682,0.566712,-0.223466,-0.340966,0.42989,-0.00901966,-0.0024129,0.61969,0.762462537219345,0.537088434520758,-0.008979104889437983,-0.20025791736384002,-0.0024099912967353587,-0.28891691537971453
885,0.8756,1094.58,82.8777,-0.418742,301.046,-8.35892,-2.20832,0.567256,-0.223682,-0.341293,0.430293,-0.00903404,-0.00241673,0.620287,0.7634215776749451,0.5377080059951367,-0.008993355667446301,-0.20043064299864932,-0.0024138120591519208,-0.2891494015348274
886,0.8766,1094.78,82.8665,-0.420662,301.053,-8.36444,-2.20982,0.5678,-0.223899,-0.34162,0.430695,-0.00904843,-0.00242055,0.620884,0.7643811399904858,0.5383262888800802,-0.009007616150453868,-0.20060413072501948,-0.0024176228311112435,-0.2893818116793959
887,0.8776,1094.97,82.8552,-0.42259,301.06,-8.36998,-2.21133,0.568343,-0.224115,-0.341947,0.431098,-0.00906281,-0.00242438,0.62148,0.7653394591095952,0.5389463593102986,-0.009021866518473254,-0.2007767815858187,-0.002421443564299186,-0.2896141458382715
888,0.8786,1095.16,82.8437,-0.424526,301.067,-8.37554,-2.21285,0.568887,-0.224331,-0.342274,0.431499,-0.0090772,-0.0024282,0.622076,0.7663000650364731,0.5395636005489792,-0.009036126591212557,-0.2009493951580592,-0.0024252543071061616,-0.28984640403629747
889,0.8796,1095.35,82.8322,-0.426469,301.073,-8.38111,-2.21437,0.56943,-0.224547,-0.342601,0.431901,-0.00909159,-0.00243203,0.622672,0.7672594264148298,0.5401826295328891,-0.009050386458750892,-0.2011219714497946,-0.0024290750110655956,-0.29007858629830874
890,0.8806,1095.54,82.8205,-0.42842,301.079,-8.38671,-2.2159,0.569973,-0.224763,-0.342927,0.432302,-0.00910597,-0.00243585,0.623267,0.7682193088678739,0.5408003666153391,-0.009064636211737698,-0.20129451046907643,-0.002432885724720557,-0.2903099829594704
891,0.8816,1095.73,82.8087,-0.430379,301.085,-8.39232,-2.21743,0.570515,-0.224979,-0.343254,0.432703,-0.00912036,-0.00243968,0.623862,0.7691779434997978,0.5414183514600324,-0.009078895669025533,-0.2014670122239549,-0.0024367063994515936,-0.2905420136559562
892,0.8826,1095.92,82.7968,-0.432345,301.091,-8.39795,-2.21897,0.571057,-0.225195,-0.34358,0.433103,-0.00913475,-0.0024435,0.624457,0.7701370978525242,0.5420350421305278,-0.009093154921121283,-0.20163947672247817,-0.002440517083954763,-0.2907732592644222
893,0.8836,1096.11,82.7848,-0.43432,301.096,-8.40361,-2.22052,0.571599,-0.22541,-0.343906,0.433503,-0.00914914,-0.00244733,0.625051,0.771096772207817,0.5426519795266334,-0.009107413968027944,-0.2018111057841976,-0.002444337729457735,-0.29100442949910643
894,0.8846,1096.3,82.7726,-0.436302,301.102,-8.40928,-2.22207,0.572141,-0.225626,-0.344231,0.433903,-0.00916354,-0.00245116,0.625645,0.7720569668475954,0.543269163747059,-0.009121682718531532,-0.2019834959665383,-0.0024481583603277457,-0.29123481561974673
895,0.8856,1096.49,82.7604,-0.438293,301.107,-8.41498,-2.22363,0.572682,-0.225841,-0.344557,0.434302,-0.00917793,-0.00245499,0.626238,0.7730159090371336,0.5438850510047313,-0.009135941354926014,-0.20215505107207077,-0.002451978976564795,-0.29146583541158266
896,0.8866,1096.68,82.748,-0.440291,301.111,-8.4207,-2.2252,0.573223,-0.226057,-0.344882,0.434702,-0.00919233,-0.00245881,0.626831,0.7739753701547536,0.5445027285524069,-0.0091502096946382,-0.20232736697025222,-0.0024557896027267434,-0.2916960715996668
897,0.8876,1096.87,82.7355,-0.442297,301.116,-8.42644,-2.22677,0.573764,-0.226272,-0.345207,0.4351,-0.00920672,-0.00246264,0.627424,0.7749353504812717,0.5451175629823064,-0.009164467920532604,-0.20249884815146613,-0.002459610189736172,-0.2919262329731478
898,0.8886,1097.06,82.7229,-0.444312,301.12,-8.4322,-2.22835,0.574304,-0.226487,-0.345532,0.435499,-0.00922112,-0.00246647,0.628017,0.7758940744026934,0.5457341878984265,-0.009178735849465158,-0.20267029246818902,-0.0024634307621127505,-0.2921563195563365
899,0.8896,1097.24,82.7101,-0.446334,301.125,-8.43798,-2.22994,0.574844,-0.226702,-0.345857,0.435897,-0.00923552,-0.0024703,0.628609,0.7768533161748397,0.5463495125466924,-0.00919300357294106,-0.2028416999283461,-0.0024672513198565893,-0.29238633137353587
900,0.8906,1097.43,82.6973,-0.448365,301.129,-8.44379,-2.23154,0.575384,-0.226917,-0.346181,0.436295,-0.00924992,-0.00247413,0.629201,0.7778130760774256,0.54696508214291,-0.009207271090963198,-0.20301307053986073,-0.0024710718629676887,-0.29261556106495545
901,0.8916,1097.62,82.6843,-0.450404,301.132,-8.44962,-2.23314,0.575923,-0.227132,-0.346506,0.436693,-0.00926432,-0.00247796,0.629792,0.7787715756178519,0.5475808967845877,-0.00922153840353468,-0.20318440431065432,-0.0024748923914460486,-0.29284542365291555
902,0.8926,1097.81,82.6712,-0.452451,301.136,-8.45547,-2.23475,0.576462,-0.227346,-0.34683,0.43709,-0.00927873,-0.00248179,0.630383,0.779730591928788,0.5481954083730904,-0.009235815418300097,-0.20335490460394967,-0.002478712905292002,-0.29307450462253093
903,0.8936,1098.0,82.658,-0.454506,301.139,-8.46135,-2.23637,0.577001,-0.227561,-0.347154,0.437487,-0.00929313,-0.00248562,0.630974,0.7806901252888478,0.5488101639711265,-0.00925008231983615,-0.20352616488831965,-0.002482533404505216,-0.2933035113819349
904,0.8946,1098.19,82.6447,-0.45657,301.142,-8.46725,-2.23799,0.57754,-0.227775,-0.347478,0.437884,-0.00930754,-0.00248945,0.631564,0.781650175976796,0.5494251636755869,-0.009264358923286697,-0.20369659205267654,-0.0024863538890861347,-0.29353244395516753
905,0.8956,1098.37,82.6313,-0.458642,301.145,-8.47318,-2.23963,0.578078,-0.22799,-0.347801,0.43828,-0.00932195,-0.00249329,0.632154,0.7826089616616945,0.5500388575437685,-0.009278635321012918,-0.20386777888214158,-0.002490184334132728,-0.2937605961272107
906,0.8966,1098.56,82.6177,-0.460722,301.147,-8.47913,-2.24127,0.578616,-0.228204,-0.348125,0.438676,-0.00933636,-0.00249712,0.632744,0.7835682633120737,0.550652794482847,-0.00929291151301781,-0.20403813294892548,-0.002494004789410531,-0.29398938062897484
907,0.8976,1098.75,82.604,-0.462811,301.15,-8.48511,-2.24292,0.579154,-0.228418,-0.348448,0.439072,-0.00935077,-0.00250095,0.633333,0.7845280812055979,0.551266974589097,-0.009307187499304148,-0.20420845056383963,-0.002497825230056039,-0.2942173852343055
908,0.8986,1098.94,82.5902,-0.464908,301.152,-8.49112,-2.24457,0.579691,-0.228632,-0.348771,0.439467,-0.00936519,-0.00250479,0.633922,0.7854866301325574,0.5518798460782102,-0.009321473186660323,-0.2043787317346839,-0.002501655631052757,-0.2944453162060413
909,0.8996,1099.12,82.5763,-0.467014,301.154,-8.49715,-2.24624,0.580228,-0.228846,-0.349094,0.439862,-0.0093796,-0.00250862,0.634511,0.7864456939385236,0.5524929596993795,-0.009335748761375995,-0.2045489764692563,-0.0025054760423955935,-0.29467317356796174
910,0.9006,1099.31,82.5622,-0.469128,301.155,-8.50321,-2.24791,0.580765,-0.22906,-0.349416,0.440257,-0.00939402,-0.00251246,0.635099,0.7874052729000602,0.5531063155482661,-0.009350034036881727,-0.20471918477535367,-0.002509306414013257,-0.29490025224444394
911,0.9016,1099.5,82.548,-0.471251,301.157,-8.5093,-2.2496,0.581302,-0.229273,-0.349739,0.440652,-0.00940844,-0.00251629,0.635687,0.7883653672938806,0.5537199137205686,-0.009364319106395347,-0.20488856154972956,-0.002513126796053644,-0.29512796268575303
912,0.9026,1099.68,82.5338,-0.473382,301.158,-8.51541,-2.25129,0.581838,-0.229487,-0.350061,0.441046,-0.00942287,-0.00252013,0.636274,0.7893241880717632,0.5543321999790467,-0.00937861387613359,-0.2050586971923949,-0.002516957138292586,-0.2953548949437139
913,0.9036,1099.87,82.5193,-0.475522,301.159,-8.52155,-2.25299,0.582374,-0.229701,-0.350383,0.441439,-0.00943729,-0.00252397,0.636861,0.79028352291534,0.5549431725818912,-0.00939289853352887,-0.2052287964299282,-0.002520787465822849,-0.2955817541412511
914,0.9046,1100.06,82.5048,-0.477671,301.16,-8.52773,-2.2547,0.582909,-0.229914,-0.350705,0.441833,-0.00945172,-0.00252781,0.637448,0.7912415808577475,0.55555594089932,-0.009407192890868998,-0.20539806466858124,-0.0025246177786447666,-0.2958085403018862
915,0.9056,1100.24,82.4901,-0.479828,301.161,-8.53393,-2.25642,0.583445,-0.230127,-0.351027,0.442226,-0.00946615,-0.00253164,0.638035,0.7922019436993366,0.5561673945268615,-0.009421487041943122,-0.20556729685693886,-0.0025284381020428404,-0.2960352534491334
916,0.9066,1100.43,82.4754,-0.481995,301.161,-8.54016,-2.25814,0.58398,-0.23034,-0.351348,0.442619,-0.00948058,-0.00253548,0.638621,0.7931610282714627,0.5567790885029038,-0.009435780986754017,-0.20573649300267915,-0.0025322683854863692,-0.29626118986804095
917,0.9076,1100.62,82.4604,-0.48417,301.161,-8.54642,-2.25988,0.584514,-0.230554,-0.35167,0.443012,-0.00949502,-0.00253932,0.639207,0.794118831971387,0.5573910229219228,-0.00945008463080399,-0.20590644720742812,-0.0025360986542216635,-0.2964877572855916
918,0.9086,1100.8,82.4454,-0.486354,301.161,-8.55271,-2.26163,0.585049,-0.230767,-0.351991,0.443404,-0.00950946,-0.00254317,0.639792,0.7950789423531184,0.5580016398760119,-0.009464388068310847,-0.2060755711218366,-0.002539938882849313,-0.2967135484740784
919,0.9096,1100.99,82.4303,-0.488546,301.16,-8.55903,-2.26338,0.585583,-0.230979,-0.352312,0.443796,-0.0095239,-0.00254701,0.640377,0.7960377704926633,0.5586124962388683,-0.009478691299277586,-0.20624386526094973,-0.0025437691221299463,-0.29693926719522523
920,0.9106,1101.17,82.415,-0.490748,301.16,-8.56538,-2.26515,0.586117,-0.231192,-0.352632,0.444187,-0.00953834,-0.00255085,0.640962,0.7969971107831673,0.5592220328815458,-0.009492994323707094,-0.20641291731296652,-0.002547599346702567,-0.2971642106368526
921,0.9116,1101.36,82.3996,-0.492959,301.159,-8.57177,-2.26692,0.58665,-0.231405,-0.352953,0.444579,-0.00955279,-0.00255469,0.641547,0.7979551655421269,0.5598333677322378,-0.009507307046529467,-0.20658193336073072,-0.002551429556567064,-0.29738978471866107
922,0.9126,1101.54,82.384,-0.495179,301.158,-8.57819,-2.26871,0.587184,-0.231617,-0.353273,0.44497,-0.00956724,-0.00255854,0.642131,0.7989155299950144,0.5604433818290053,-0.0095216195625345,-0.20675012016242733,-0.002555269726170928,-0.297614584017745
923,0.9136,1101.73,82.3684,-0.497408,301.157,-8.58463,-2.2705,0.587717,-0.23183,-0.353594,0.44536,-0.00958169,-0.00256238,0.642714,0.7998746075439631,0.5610520734350666,-0.009535931871725079,-0.2069190643936334,-0.002559099906581208,-0.29784001355289924
924,0.9146,1101.91,82.3526,-0.499646,301.155,-8.59112,-2.27231,0.588249,-0.232042,-0.353914,0.445751,-0.00959614,-0.00256623,0.643298,0.8008323955842054,0.5616625641389346,-0.009550243974104422,-0.20708717973112645,-0.0025629400466542496,-0.2980646688018054
925,0.9156,1102.1,82.3367,-0.501893,301.153,-8.59763,-2.27412,0.588782,-0.232255,-0.354233,0.446141,-0.0096106,-0.00257008,0.643881,0.8017924950948421,0.5622717313188277,-0.009564565774029643,-0.20725605217628984,-0.002566780171942895,-0.2982885504614343
926,0.9166,1102.28,82.3207,-0.504149,301.151,-8.60418,-2.27595,0.589314,-0.232467,-0.354553,0.44653,-0.00962506,-0.00257393,0.644464,0.8027513037227136,0.5628795732398995,-0.009578887366863187,-0.20742409607994539,-0.0025706202824469226,-0.29851306220149243
927,0.9176,1102.47,82.3045,-0.506415,301.149,-8.61077,-2.27778,0.589846,-0.232679,-0.354873,0.44692,-0.00963953,-0.00257778,0.645046,0.8037106225724822,0.5634892151459074,-0.00959321865667584,-0.2075921043620692,-0.0025744603781666653,-0.2987375021092875
928,0.9186,1102.65,82.2882,-0.50869,301.147,-8.61738,-2.27963,0.590377,-0.232891,-0.355192,0.447309,-0.00965399,-0.00258163,0.645628,0.8046686472461086,0.5640975307603153,-0.009607539835191692,-0.2077600770302126,-0.002578300459102123,-0.2989611691693218
929,0.9196,1102.84,82.2718,-0.510974,301.144,-8.62404,-2.28149,0.590909,-0.233103,-0.355511,0.447698,-0.00966847,-0.00258548,0.64621,0.8056289863940069,0.5647060830555286,-0.00962188061418745,-0.20792801409192463,-0.002582140525253185,-0.29918476489094314
930,0.9206,1103.02,82.2553,-0.513268,301.141,-8.63072,-2.28335,0.59144,-0.233314,-0.35583,0.448086,-0.00968294,-0.00258933,0.646791,0.8065880299893222,0.5653133068095446,-0.009636211281892293,-0.20809512365027283,-0.0025859805766200727,-0.29940828929690466
931,0.9216,1103.2,82.2386,-0.515571,301.138,-8.63745,-2.28523,0.59197,-0.233526,-0.356149,0.448474,-0.00969742,-0.00259318,0.647372,0.8075457754253379,0.56592076621209,-0.009650551645728478,-0.20826298968963008,-0.0025898206132027868,-0.2996317424099525
932,0.9226,1103.39,82.2218,-0.517883,301.135,-8.64421,-2.28712,0.592501,-0.233738,-0.356467,0.448862,-0.0097119,-0.00259704,0.647953,0.8085058371059068,0.5665284613546142,-0.009664891801917652,-0.208430820145159,-0.00259367060906468,-0.29985442410759966
933,0.9236,1103.57,82.2049,-0.520206,301.131,-8.65101,-2.28902,0.593031,-0.233949,-0.356785,0.44925,-0.00972639,-0.00260089,0.648533,0.8094645992490976,0.5671363923286021,-0.009679241653670512,-0.20859782362262191,-0.0025975106160408545,-0.30007703500372507
934,0.9246,1103.75,82.1878,-0.522537,301.127,-8.65784,-2.29094,0.593561,-0.23416,-0.357104,0.449637,-0.00974088,-0.00260475,0.649113,0.8104238696709067,0.5677429914817986,-0.009693591297495474,-0.20876479186606844,-0.002601360582219381,-0.3003002748209149
935,0.9256,1103.94,82.1706,-0.524879,301.123,-8.66471,-2.29286,0.59409,-0.234372,-0.357422,0.450024,-0.00975537,-0.00260861,0.649693,0.8113818372580495,0.568349825434298,-0.009707940733395648,-0.20893251595081164,-0.002605210533537128,-0.3005227439590542
936,0.9266,1104.12,82.1533,-0.52723,301.119,-8.67163,-2.29479,0.594619,-0.234583,-0.357739,0.45041,-0.00976987,-0.00261247,0.650272,0.8123403117441088,0.5689553253208757,-0.009722299864151074,-0.20909941358162676,-0.0026090604699940956,-0.3007444431080475
937,0.9276,1104.3,82.1359,-0.52959,301.114,-8.67857,-2.29674,0.595148,-0.234794,-0.358057,0.450797,-0.00978437,-0.00261633,0.650851,0.8132992933973051,0.5695626285373678,-0.009736658786700603,-0.20926627600075676,-0.002612910391590395,-0.3009667710231271
938,0.9286,1104.49,82.1183,-0.531961,301.109,-8.68556,-2.2987,0.595677,-0.235005,-0.358374,0.451183,-0.00979887,-0.00262019,0.65143,0.814258782486001,0.5701685966563061,-0.009751017501047343,-0.20943310321563047,-0.0026167602983259153,-0.3011883294378487
939,0.9296,1104.67,82.1006,-0.534341,301.104,-8.69259,-2.30067,0.596206,-0.235216,-0.358692,0.451568,-0.00981338,-0.00262405,0.652008,0.8152187792787005,0.5707732279500746,-0.009765385909540347,-0.20959989523367528,-0.0026206101902008783,-0.30141051621951676
940,0.9306,1104.85,82.0828,-0.536731,301.099,-8.69965,-2.30265,0.596734,-0.235426,-0.359009,0.451953,-0.0098279,-0.00262792,0.652586,0.8161774678656744,0.5713780920717073,-0.009779764011751624,-0.20976586182857382,-0.002624470040970661,-0.30163193398930455
941,0.9316,1105.03,82.0648,-0.539132,301.094,-8.70676,-2.30465,0.597261,-0.235637,-0.359325,0.452338,-0.00984242,-0.00263178,0.653164,0.8171348456381251,0.5719831891108609,-0.009794141905194453,-0.2099325836419581,-0.002628319903085985,-0.30185258343371557
942,0.9326,1105.22,82.0467,-0.541542,301.088,-8.71391,-2.30665,0.597789,-0.235848,-0.359642,0.452723,-0.00985694,-0.00263565,0.653741,0.818094546175268,0.5725885191572253,-0.009808519589871723,-0.21009927028075082,-0.00263217972401919,-0.30207386109040546
943,0.9336,1105.4,82.0285,-0.543962,301.082,-8.7211,-2.30867,0.598316,-0.236058,-0.359959,0.453108,-0.00987147,-0.00263952,0.654318,0.8190529345142485,0.5731940823005259,-0.009822906967557499,-0.21026513201789998,-0.002636039530015011,-0.302295068613195
944,0.9346,1105.58,82.0101,-0.546392,301.076,-8.72832,-2.31071,0.598843,-0.236268,-0.360275,0.453492,-0.009886,-0.00264338,0.654895,0.8200118280569935,0.5737983048314306,-0.009837294136196273,-0.21043095892774122,-0.0026398893474722795,-0.3025155085401705
945,0.9356,1105.76,81.9916,-0.548832,301.069,-8.73559,-2.31275,0.59937,-0.236479,-0.360591,0.453875,-0.00990053,-0.00264726,0.655471,0.8209712270698148,0.5744011850263686,-0.009851681095790932,-0.210597540420442,-0.002643759097194276,-0.3027358788191339
946,0.9366,1105.94,81.973,-0.551283,301.062,-8.74291,-2.31481,0.599896,-0.236689,-0.360907,0.454259,-0.00991508,-0.00265113,0.656047,0.8219293098889453,0.5750058711737287,-0.009866087649023081,-0.21076329753184786,-0.0026476188583779425,-0.30295617947209075
947,0.9376,1106.13,81.9542,-0.553743,301.055,-8.75026,-2.31688,0.600423,-0.236899,-0.361223,0.454642,-0.00992962,-0.002655,0.656622,0.8228897196810092,0.5756092139551556,-0.009880484091446262,-0.210929019837915,-0.0026514786046243355,-0.30317641052103916
948,0.9386,1106.31,81.9353,-0.556214,301.048,-8.75766,-2.31896,0.600949,-0.237109,-0.361538,0.455025,-0.00994417,-0.00265888,0.657198,0.8238488118926999,0.5762127878611254,-0.009894890225597863,-0.2110947073459517,-0.002655348309380079,-0.30339587538419444
949,0.9396,1106.49,81.9163,-0.558695,301.041,-8.76511,-2.32106,0.601474,-0.237319,-0.361854,0.455407,-0.00995873,-0.00266275,0.657773,0.8248065839120997,0.5768150161643708,-0.009909306051048672,-0.21126036006326498,-0.002659208025713511,-0.30361596751118547
950,0.9406,1106.67,81.8971,-0.561187,301.033,-8.77259,-2.32317,0.601999,-0.237529,-0.362169,0.455789,-0.00997329,-0.00266663,0.658347,0.8257648588938258,0.5774174745627736,-0.0099237216666066,-0.21142597799716,-0.002663077700479244,-0.3038352939356941
951,0.9416,1106.85,81.8778,-0.563689,301.025,-8.78012,-2.32529,0.602525,-0.237738,-0.362484,0.456171,-0.00998786,-0.00267051,0.658922,0.8267254638265533,0.5780201631442468,-0.009938146972893414,-0.2115907727461075,-0.0026669473602306537,-0.3040545512832591
952,0.9426,1107.03,81.8584,-0.566201,301.017,-8.7877,-2.32742,0.603049,-0.237948,-0.362799,0.456553,-0.0100024,-0.00267439,0.659496,0.8276829188008938,0.5786230819967371,-0.009952542367581585,-0.21175632130062416,-0.0026708170049677404,-0.3042737395756364
953,0.9436,1107.21,81.8388,-0.568724,301.009,-8.79532,-2.32957,0.603574,-0.238157,-0.363114,0.456934,-0.010017,-0.00267827,0.660069,0.8286427042549012,0.5792246519827831,-0.009966996954944296,-0.21192104701503556,-0.002674686634690726,-0.3044928588345749
954,0.9446,1107.39,81.8191,-0.571258,301.0,-8.80298,-2.33174,0.604098,-0.238367,-0.363428,0.457315,-0.0100316,-0.00268216,0.660643,0.8296011641264862,0.5798264512106617,-0.009981451331271596,-0.21208652621923785,-0.002678566222613865,-0.3047112137933783
955,0.9456,1107.58,81.7992,-0.573802,300.991,-8.81069,-2.33391,0.604622,-0.238576,-0.363743,0.457695,-0.0100462,-0.00268604,0.661215,0.8305601263626519,0.580426899340041,-0.009995905496566482,-0.21225118292803258,-0.002682435822269902,-0.30493019526964016
956,0.9466,1107.76,81.7792,-0.576357,300.982,-8.81845,-2.33611,0.605146,-0.238785,-0.364057,0.458076,-0.0100608,-0.00268993,0.661788,0.8315195912267064,0.5810291567114332,-0.010010359450832063,-0.21241580522717118,-0.0026863153800488204,-0.3051484129263604
957,0.9476,1107.94,81.7591,-0.578922,300.973,-8.82626,-2.33831,0.605669,-0.238994,-0.364371,0.458456,-0.0100754,-0.00269382,0.66236,0.8324777265034531,0.5816300619557491,-0.010024813194071558,-0.21258039312384436,-0.0026901949227362554,-0.3053665620734931
958,0.9486,1108.12,81.7389,-0.581499,300.963,-8.83411,-2.34053,0.606192,-0.239203,-0.364684,0.458835,-0.01009,-0.00269771,0.662932,0.8334363630160111,0.5822296133570444,-0.010039266726287854,-0.21274494662524157,-0.0026940744503323177,-0.3055839483168422
959,0.9496,1108.3,81.7185,-0.584086,300.953,-8.84201,-2.34276,0.606715,-0.239412,-0.364998,0.459215,-0.0101046,-0.00270161,0.663504,0.8343955010265958,0.5828309748615694,-0.010053720047484171,-0.21290946573855074,-0.002697963935857528,-0.305801960727331
960,0.9506,1108.48,81.6979,-0.586684,300.943,-8.84996,-2.34501,0.607237,-0.239621,-0.365312,0.459594,-0.0101192,-0.0027055,0.664075,0.8353533054433355,0.5834309814951169,-0.010068173157663507,-0.21307395047095812,-0.0027018434332320984,-0.3060199046926694
961,0.9516,1108.66,81.6772,-0.589293,300.932,-8.85795,-2.34727,0.60776,-0.23983,-0.365625,0.459972,-0.0101338,-0.0027094,0.664646,0.8363134462770248,0.5840296315438531,-0.01008262605682897,-0.2132384008296485,-0.002705732888458323,-0.30623708647177905
962,0.9526,1108.84,81.6564,-0.591913,300.922,-8.866,-2.34955,0.608282,-0.240038,-0.365938,0.460351,-0.0101485,-0.0027133,0.665217,0.8372722521225355,0.5846300925543821,-0.010097177735270857,-0.213402030224229,-0.0027096223285156817,-0.30645420028362924
963,0.9536,1109.02,81.6355,-0.594544,300.911,-8.8741,-2.35184,0.608803,-0.240247,-0.366251,0.460729,-0.0101631,-0.0027172,0.665787,0.8382297203647104,0.5852291959527764,-0.0101116302109725,-0.2135664120214159,-0.002713511753404174,-0.3066712461494905
964,0.9546,1109.19,81.6144,-0.597186,300.9,-8.88224,-2.35415,0.609325,-0.240455,-0.366563,0.461107,-0.0101778,-0.0027211,0.666357,0.8391895267664173,0.585828525855062,-0.010126181463056438,-0.21372997319676357,-0.0027174011631240225,-0.3068875309785041
965,0.9556,1109.37,81.5931,-0.59984,300.888,-8.89044,-2.35647,0.609846,-0.240664,-0.366876,0.461484,-0.0101924,-0.002725,0.666927,0.8401479941689403,0.5864264959195842,-0.010140633515306918,-0.21389428646103126,-0.0027212905576751156,-0.3071044412330821
966,0.9566,1109.55,81.5718,-0.602504,300.877,-8.89868,-2.35881,0.610367,-0.240872,-0.367188,0.461861,-0.0102071,-0.00272891,0.667496,0.8411069610630864,0.5870246914613204,-0.010155184341045342,-0.21405777944558746,-0.0027251899098057475,-0.3073205909263118
967,0.9576,1109.73,81.5502,-0.60518,300.865,-8.90698,-2.36116,0.610888,-0.24108,-0.367501,0.462238,-0.0102217,-0.00273282,0.668065,0.8420664277091583,0.5876231125652915,-0.010169635969856872,-0.21422123842713936,-0.0027290892466900196,-0.3075373656543372
968,0.9586,1109.91,81.5286,-0.607867,300.853,-8.91533,-2.36353,0.611408,-0.241288,-0.367812,0.462614,-0.0102364,-0.00273673,0.668634,0.843024551342122,0.5882201710955857,-0.010184186369262438,-0.21438466341275886,-0.002732988568327932,-0.3077526880492507
969,0.9596,1110.09,81.5068,-0.610566,300.84,-8.92373,-2.36591,0.611928,-0.241496,-0.368124,0.462991,-0.0102511,-0.00274064,0.669202,0.8439831733289356,0.5888190429803459,-0.010198736554778653,-0.2145480544095163,-0.0027368878747194847,-0.30796863552102205
970,0.9606,1110.27,81.4848,-0.613276,300.828,-8.93218,-2.36831,0.612448,-0.241704,-0.368436,0.463366,-0.0102658,-0.00274455,0.66977,0.8449422939288103,0.5894149618492681,-0.010213286526408738,-0.21471141142448058,-0.0027407871658647887,-0.30818451562769156
971,0.9616,1110.45,81.4627,-0.615997,300.815,-8.94069,-2.37073,0.612967,-0.241912,-0.368747,0.463742,-0.0102805,-0.00274847,0.670338,0.8459000675001023,0.5900126942415711,-0.0102278362841558,-0.21487473446471927,-0.0027446964143169605,-0.3083996367902567
972,0.9626,1110.63,81.4405,-0.61873,300.802,-8.94925,-2.37316,0.613487,-0.242119,-0.369059,0.464117,-0.0102952,-0.00275239,0.670905,0.8468601851441551,0.5906090608136552,-0.01024238582802306,-0.2150372385749294,-0.002748605647444835,-0.3086153824455058
973,0.9636,1110.8,81.4181,-0.621475,300.788,-8.95786,-2.3756,0.614006,-0.242327,-0.36937,0.464492,-0.0103099,-0.00275631,0.671472,0.8478189543593351,0.5912056510651411,-0.010256935158013514,-0.2152004938501686,-0.002752514865248634,-0.3088303696293253
974,0.9646,1110.98,81.3956,-0.624232,300.775,-8.96653,-2.37807,0.614524,-0.242535,-0.369681,0.464867,-0.0103246,-0.00276023,0.672039,0.8487763725275905,0.5918024650799245,-0.010271484274130382,-0.21536371517184183,-0.002756424067728358,-0.30904528996252656
975,0.9656,1111.16,81.3729,-0.627,300.761,-8.97525,-2.38055,0.615043,-0.242742,-0.369992,0.465241,-0.0103393,-0.00276415,0.672606,0.8497361365021401,0.5923979105432253,-0.010286033176376885,-0.21552611807352107,-0.0027603332548840065,-0.3092601434658967
976,0.9666,1111.34,81.3501,-0.62978,300.746,-8.98402,-2.38304,0.615561,-0.242949,-0.370302,0.465615,-0.010354,-0.00276808,0.673172,0.850694548028003,0.5929935787447789,-0.010300581864756131,-0.21568848736127877,-0.002764252399073186,-0.3094742396348016
977,0.9676,1111.52,81.3271,-0.632572,300.732,-8.99285,-2.38555,0.616079,-0.243157,-0.370613,0.465989,-0.0103688,-0.00277201,0.673737,0.8516534561396409,0.5935894697679047,-0.010315229307753193,-0.21585160719085728,-0.0027681715278601304,-0.30968895975556565
978,0.9686,1111.69,81.304,-0.635375,300.717,-9.00174,-2.38808,0.616597,-0.243364,-0.370923,0.466362,-0.0103835,-0.00277594,0.674303,0.8526128610943517,0.5941839895111674,-0.010329777566952414,-0.2160139091093406,-0.002772090641244951,-0.30990292301202316
979,0.9696,1111.87,81.2808,-0.638191,300.702,-9.01068,-2.39063,0.617114,-0.243571,-0.371233,0.466735,-0.0103983,-0.00277988,0.674868,0.8535709095777311,0.594778731051657,-0.010344424577856226,-0.21617617743480388,-0.00277601971146757,-0.31011681995015106
980,0.9706,1112.05,81.2574,-0.641019,300.687,-9.01968,-2.39319,0.617631,-0.243778,-0.371543,0.467108,-0.010413,-0.00278381,0.675433,0.8545294535002361,0.5953736944721191,-0.010358972407888078,-0.21633841217420002,-0.0027799387940091735,-0.3103306505905049
981,0.9716,1112.23,81.2338,-0.643859,300.672,-9.02874,-2.39577,0.618148,-0.243985,-0.371852,0.46748,-0.0104278,-0.00278775,0.675997,0.8554884931180751,0.5959672838872487,-0.01037361898671152,-0.21650061333448078,-0.002783867833310083,-0.3105437254977038
982,0.9726,1112.4,81.2101,-0.646711,300.656,-9.03786,-2.39837,0.618665,-0.244191,-0.372162,0.467852,-0.0104426,-0.00279169,0.676561,0.8564480286875891,0.5965610941587174,-0.010388265348767134,-0.21666199758498528,-0.0027877968571305978,-0.31075742381784854
983,0.9736,1112.58,81.1863,-0.649575,300.64,-9.04703,-2.40098,0.619181,-0.244398,-0.372471,0.468224,-0.0104574,-0.00279564,0.677125,0.8574062030581195,0.5971551253686991,-0.010402911494058253,-0.21682413177001814,-0.002791735837553544,-0.3109703668724926
984,0.9746,1112.76,81.1623,-0.652452,300.624,-9.05626,-2.40361,0.619697,-0.244605,-0.37278,0.468595,-0.0104722,-0.00279958,0.677689,0.858364871974207,0.5977477798508195,-0.010417557422587986,-0.21698623239674808,-0.0027956648303741893,-0.31118324413789766
985,0.9756,1112.94,81.1381,-0.655341,300.607,-9.06555,-2.40626,0.620213,-0.244811,-0.373089,0.468967,-0.010487,-0.00280353,0.678252,0.8593240356911027,0.5983422525899982,-0.010432203134359663,-0.21714751662002896,-0.0027996037797186624,-0.31139605563438955
986,0.9766,1113.11,81.1138,-0.658242,300.59,-9.0749,-2.40893,0.620728,-0.245018,-0.373398,0.469337,-0.0105018,-0.00280748,0.678815,0.8602818341814253,0.5989337486434783,-0.010446848629376282,-0.2173095503130228,-0.002803542713504359,-0.31160880138228775
987,0.9776,1113.29,81.0894,-0.661156,300.573,-9.08431,-2.41161,0.621244,-0.245224,-0.373707,0.469708,-0.0105166,-0.00281144,0.679377,0.8612419873060655,0.5995270631172545,-0.010461493907641284,-0.21747076793967268,-0.0028074916036564534,-0.31182148140190535
988,0.9786,1113.47,81.0648,-0.664082,300.556,-9.09378,-2.41431,0.621759,-0.24543,-0.374015,0.470078,-0.0105315,-0.0028154,0.679939,0.8622007737958579,0.60011899763174,-0.010476237921538845,-0.21763195235891186,-0.0028114404781709457,-0.31203340774730104
989,0.9796,1113.64,81.0401,-0.667021,300.538,-9.10331,-2.41703,0.622273,-0.245636,-0.374324,0.470448,-0.0105463,-0.00281936,0.680501,0.8631581910287389,0.600711151202519,-0.010490882764845555,-0.21779310357758053,-0.0028153893370478356,-0.3122459565838206
990,0.9806,1113.82,81.0152,-0.669973,300.521,-9.1129,-2.41977,0.622788,-0.245842,-0.374632,0.470818,-0.0105612,-0.00282332,0.681063,0.8641179646176049,0.601303523910657,-0.010505626340852392,-0.2179542216025172,-0.002819338180287345,-0.3124577522109919
991,0.9816,1114.0,80.9901,-0.672937,300.503,-9.12255,-2.42253,0.623302,-0.246048,-0.37494,0.471187,-0.010576,-0.00282728,0.681624,0.8650763675398689,0.6018945139419349,-0.01052027074921369,-0.2181153064405592,-0.0028232870078894745,-0.3126694826151549
992,0.9826,1114.17,80.9649,-0.675915,300.484,-9.13226,-2.4253,0.623816,-0.246254,-0.375248,0.471556,-0.0105909,-0.00283125,0.682185,0.8660352632078598,0.6024857220887743,-0.010535013887342903,-0.21827635809854207,-0.0028272457915818894,-0.3128811478163952
993,0.9836,1114.35,80.9395,-0.678905,300.466,-9.14204,-2.42809,0.62433,-0.24646,-0.375555,0.471924,-0.0106058,-0.00283522,0.682746,0.8669946518749139,0.6030755453553276,-0.010549756805800947,-0.21843737658330042,-0.002831204559557876,-0.31309206092719655
994,0.9846,1114.52,80.914,-0.681908,300.447,-9.15188,-2.43091,0.624843,-0.246666,-0.375863,0.472293,-0.0106207,-0.00283919,0.683306,0.867952665840898,0.6036671893831738,-0.010564499504591152,-0.21859836190166715,-0.0028351633118176567,-0.3133035959943583
995,0.9856,1114.7,80.8884,-0.684923,300.427,-9.16178,-2.43374,0.625356,-0.246871,-0.37617,0.472661,-0.0106356,-0.00284317,0.683866,0.868911171394128,0.6042574475097007,-0.010579241983716736,-0.2187585328193974,-0.002839132019969992,-0.3135143794334746
996,0.9866,1114.88,80.8625,-0.687953,300.408,-9.17175,-2.43659,0.625869,-0.247077,-0.376477,0.473028,-0.0106505,-0.00284715,0.684426,0.8698701687868529,0.6048463180440702,-0.010593984243181143,-0.2189194519863933,-0.0028431007123268515,-0.3137250981720072
997,0.9876,1115.05,80.8366,-0.690995,300.388,-9.18177,-2.43946,0.626382,-0.247282,-0.376784,0.473396,-0.0106654,-0.00285113,0.684985,0.870829658271451,0.6054370101697955,-0.01060872628298748,-0.21907955708740257,-0.002847069388888346,-0.31393575222981607
998,0.9886,1115.23,80.8104,-0.69405,300.368,-9.19187,-2.44234,0.626894,-0.247487,-0.377091,0.473763,-0.0106803,-0.00285512,0.685544,0.8717877683117259,0.6060263136831081,-0.010623468103138967,-0.21923962937023,-0.002851048021144109,-0.31414634162675503
999,0.9896,1115.4,80.7841,-0.697119,300.348,-9.20203,-2.44525,0.627406,-0.247693,-0.377397,0.474129,-0.0106953,-0.0028591,0.686103,0.8727463690299446,0.6066142268954711,-0.010638308639813077,-0.2194004494415437,-0.0028550166660753495,-0.3143561807391957
