,Time,S11,S22,S33,S12,S13,S23,LE11,LE22,LE33,LE12,LE13,LE23,SDV_EPBAR,E11,E12,E13,E22,E23,E33
0,0.0001,19.382,1.39156,-2.45848e-12,5.19339,-1.75168e-17,6.53738e-17,9.12871e-05,-2.12906e-05,-2.99985e-05,6.49967e-05,-9.07178e-35,-2.42935e-35,0.0,9.129126679408017e-05,6.499881233135163e-05,0.0,-2.1290373356741554e-05,0.0,-2.999805004955114e-05
1,0.0002,38.7621,2.78299,-3.38751e-12,10.3863,3.03316e-17,1.48262e-16,0.000182565,-4.2579e-05,-5.99941e-05,0.000129987,-2.12703e-25,-5.69937e-26,0.0,0.00018258166600371162,0.00012999544867620116,0.0,-4.257809352725683e-05,0.0,-5.9992300389999365e-05
2,0.0003,58.1402,4.17428,-3.38396e-12,15.5786,3.74666e-16,1.70459e-16,0.000273834,-6.38653e-05,-8.99866e-05,0.000194971,6.54404e-21,1.75347e-21,0.0,0.00027387149595226035,0.00019499000808065325,0.0,-6.386326065510595e-05,0.0,-8.99825513273056e-05
3,0.0004,77.5164,5.56542,-3.38929e-12,20.7704,4.57497e-16,1.22586e-16,0.000365094,-8.51496e-05,-0.000119976,0.000259948,9.81625e-21,2.63026e-21,0.0,0.0003651606549259778,0.00025998178940911387,0.0,-8.514597487574438e-05,0.0,-0.00011996880316755831
4,0.0005,96.8906,6.95643,-3.37508e-12,25.9618,1.7846e-16,1.17886e-16,0.000456344,-0.000106432,-0.000149963,0.000324919,1.30911e-20,3.50775e-21,0.0,0.0004564481407638432,0.0003249717918958339,0.0,-0.0001064263363156348,0.0,-0.00014995175611143274
5,0.0006,116.263,8.3473,-3.37863e-12,31.1526,3.92047e-16,1.05049e-16,0.000547586,-0.000127711,-0.000179946,0.000389883,3.03444e-21,1.48462e-20,0.0,0.0005477359525831726,0.00038995901425531443,0.0,-0.00012770284529739495,0.0,-0.00017992981068959413
6,0.0007,135.633,9.73803,-3.37863e-12,36.3428,9.4525e-16,3.93414e-16,0.000638818,-0.000148989,-0.000209927,0.000454841,1.30823e-20,3.5054e-21,0.0,0.0006390220876746344,0.00045494445585236853,0.0,-0.00014897790169010605,0.0,-0.0002099049668691233
7,0.0008,155.002,11.1286,-3.36975e-12,41.5326,4.74751e-16,5.71417e-17,0.000730041,-0.000170265,-0.000239904,0.000519792,-7.02294e-21,2.61861e-20,0.0,0.0007303075447897545,0.0005199271152711571,0.0,-0.00017025050573749034,0.0,-0.00023987522533652772
8,0.0009,174.368,12.5191,-3.3662e-12,46.7218,6.02809e-17,2.96422e-16,0.000821255,-0.000191539,-0.000269879,0.000584737,6.07516e-21,2.96966e-20,0.0,0.0008215923222236743,0.0005849079920063893,0.0,-0.00019152065757688241,0.0,-0.00026984258593854005
9,0.001,193.733,13.9094,-3.36797e-12,51.9106,3.56759e-16,2.35728e-16,0.00091246,-0.00021281,-0.00029985,0.000649675,1.30883e-20,3.50699e-21,0.0,0.0009128764182710913,0.000649886084512552,0.0,-0.00021278735755814182,0.0,-0.00029980504948168285
10,0.0011,213.095,15.2996,-3.37508e-12,57.0988,7.01051e-16,2.57913e-16,0.00100366,-0.000234079,-0.000329819,0.000714607,-1.40481e-20,5.23767e-20,0.0,0.0010041638352433768,0.0007148623924135844,0.0,-0.00023405160564837768,0.0,-0.0003297646156927847
11,0.0012,232.456,16.6896,-3.35554e-12,62.2864,1.9085e-16,3.31408e-16,0.00109484,-0.000255347,-0.000359784,0.000779532,-5.10233e-24,-1.36716e-24,0.0,0.0010954395560989205,0.0007798359140345212,0.0,-0.000255314401729434,0.0,-0.0003597192854979392
12,0.0013,251.815,18.0795,-3.3733e-12,67.4736,-6.71747e-16,-1.09927e-16,0.00118602,-0.000276612,-0.000389747,0.000844451,1.38181e-23,3.70255e-24,0.0,0.001186723599853945,0.0008448076491296419,0.0,-0.00027657374642797716,0.0,-0.00038967105850429284
13,0.0014,271.172,19.4693,-3.37153e-12,72.6603,2.78485e-16,4.55253e-18,0.00127719,-0.000297875,-0.000419706,0.000909364,2.61865e-20,7.01665e-21,0.0,0.00127800595448746,0.0009097775968027744,0.0,-0.00029783063964694545,0.0,-0.0004196179357576213
14,0.0015,290.527,20.8589,-3.37508e-12,77.8464,-4.40567e-16,-1.88117e-16,0.00136835,-0.000319135,-0.000449663,0.000974269,-1.40258e-20,5.23895e-20,0.0,0.001369286618019716,0.0009747437542091397,0.0,-0.0003190840818426688,0.0,-0.00044956191674494494
15,0.0016,309.88,22.2484,-3.37508e-12,83.032,3.87022e-16,3.83972e-16,0.0014595,-0.000340394,-0.000479617,0.00103917,-2.10679e-20,7.85789e-20,0.0,0.0014605655884707414,0.001039710124221882,0.0,-0.0003403360725352522,0.0,-0.0004795020021524099
16,0.0017,329.231,23.6377,-3.36442e-12,88.2171,1.14572e-15,1.66859e-16,0.00155064,-0.000361651,-0.000509567,0.00110406,-3.07126e-23,-8.22941e-24,0.0,0.0015518428638607862,0.0011046696986023452,0.0,-0.00036158561215982044,0.0,-0.0005094371927857333
17,0.0018,348.58,25.0269,-3.38751e-12,93.4017,2.48791e-15,3.86364e-16,0.00164177,-0.000382905,-0.000539515,0.00116895,-1.41089e-20,5.23722e-20,0.0,0.0016431184422094347,0.0011696334883466442,0.0,-0.00038283170123631916,0.0,-0.0005393694879521904
18,0.0019,367.927,26.416,-3.36797e-12,98.5857,1.61563e-15,5.02974e-16,0.0017329,-0.000404157,-0.00056946,0.00123383,1.39881e-20,-5.24063e-20,0.0,0.0017344023388807805,0.0012345914813818304,0.0,-0.0004040753395612162,0.0,-0.0005692978884276334
19,0.002,387.272,27.8049,-3.38929e-12,103.769,3.00561e-15,8.0535e-16,0.00182401,-0.000425408,-0.000599401,0.0012987,5.22965e-20,1.40128e-20,0.0,0.0018256745181186584,0.0012995436760327994,0.0,-0.0004253175268466025,0.0,-0.0005992213951074854
20,0.0021,406.616,29.1937,-3.3431e-12,108.952,2.73094e-15,5.21551e-16,0.00191511,-0.000446656,-0.000629339,0.00136357,-9.14819e-23,-2.45125e-23,0.0,0.0019169449943743366,0.001364500084269471,0.0,-0.0004465562640586507,0.0,-0.0006291410077484683
21,0.0022,425.957,30.5823,-3.37153e-12,114.135,2.39906e-15,7.12895e-16,0.00200621,-0.000467902,-0.000659275,0.00142843,-8.64838e-23,-2.31733e-23,0.0,0.0020082237857492746,0.0014294506920702332,0.0,-0.0004677925509303238,0.0,-0.0006590577259876218
22,0.0023,438.671,31.4959,-0.0315828,117.633,-0.0159613,-0.0129701,0.00209722,-0.00049425,-0.00069776,0.00149494,-2.0184e-07,-1.65627e-07,3.40532e-05,0.0020994207040487822,0.0014960579798366513,-2.0183997961886746e-07,-0.0004941278785890457,-1.656269862371218e-07,-0.0006975166221009355
23,0.0024,441.281,31.5902,-0.123341,118.422,-0.058111,-0.0567537,0.00218854,-0.000528945,-0.000749379,0.00156247,-7.60715e-07,-7.46209e-07,0.00012035,0.002190936601699889,0.0015636912922452062,-7.607147106680756e-07,-0.0005288051332551502,-7.462087215914792e-07,-0.0007490982856820372
24,0.0025,444.077,32.0015,0.00673309,119.172,-0.0468931,-0.00885422,0.00227993,-0.000562671,-0.000800621,0.00162948,-6.45046e-07,-1.52427e-07,0.000206589,0.00228253101673892,0.001630808323929589,-6.450457920026409e-07,-0.0005625127303588995,-1.5242698836459567e-07,-0.000800300588522318
25,0.0026,446.629,32.1797,-0.00562432,119.916,-0.0763449,-0.0171996,0.00237126,-0.000597204,-0.000852205,0.00169686,-1.05619e-06,-2.667e-07,0.000293474,0.0023740736605277757,0.0016983004815798175,-1.0561894422389528e-06,-0.0005970257091849618,-2.6669996444628197e-07,-0.0008518419764498297
26,0.0027,449.146,32.4046,-0.000203103,120.637,-0.091994,-0.0218034,0.00246258,-0.000631588,-0.000903877,0.00176419,-1.3032e-06,-3.3672e-07,0.000380642,0.0024656146406321078,0.0017657470987160195,-1.3031991508150043e-06,-0.0006313885902828886,-3.3671994326134325e-07,-0.0009034686262335834
27,0.0028,451.588,32.6018,-0.000954525,121.342,-0.113248,-0.0268544,0.0025539,-0.000666112,-0.000955611,0.00183156,-1.6321e-06,-4.15173e-07,0.000468147,0.00255716398064032,0.0018332383305146305,-1.632098668102877e-06,-0.000665890196653085,-4.151729138257565e-07,-0.0009551545492163527
28,0.0029,453.974,32.8012,-0.000674052,122.03,-0.131964,-0.0321751,0.0026452,-0.000700655,-0.00100742,0.00189893,-1.9395e-06,-4.99965e-07,0.000555947,0.002648701628341632,0.0019007341093508767,-1.9394981192188965e-06,-0.0007004095986027359,-4.999648750558805e-07,-0.0010069127228331531
29,0.003,456.302,32.9932,-0.000675404,122.701,-0.15105,-0.0371497,0.00273649,-0.000735254,-0.0010593,0.00196632,-2.26197e-06,-5.83191e-07,0.000644034,0.0027402376064096234,0.00196825447489557,-2.2619674417967417e-06,-0.0007349837670117543,-5.831908299613886e-07,-0.001058739139812248
30,0.0031,458.577,33.1817,-0.000628145,123.357,-0.169414,-0.0421172,0.00282777,-0.000769893,-0.00111123,0.00203372,-2.58539e-06,-6.69074e-07,0.000732392,0.002831771912860326,0.002035789411149125,-2.58538665787178e-06,-0.0007695967084268007,-6.690737761605448e-07,-0.001110612812577072
31,0.0032,460.801,33.3657,-0.000595273,123.999,-0.187473,-0.0469297,0.00291904,-0.000804573,-0.00116323,0.00210114,-2.91478e-06,-7.55666e-07,0.000821007,0.002923304545711103,0.0021033489414772344,-2.9147757519831785e-06,-0.0008042494179314463,-7.556657144469625e-07,-0.0011625537102357697
32,0.0033,462.976,33.5458,-0.000562845,124.626,-0.205093,-0.0516531,0.0030103,-0.000839292,-0.00121528,0.00216856,-3.24818e-06,-8.43731e-07,0.000909868,0.003014835502977986,0.0021709130268225962,-3.2481747246349e-06,-0.0008389398929831149,-8.437306440178816e-07,-0.0012145418463122004
33,0.0034,465.104,33.722,-0.000532952,125.24,-0.222343,-0.0562673,0.00310155,-0.000874048,-0.00126739,0.002236,-3.58621e-06,-9.32945e-07,0.000998963,0.003106364782677451,0.002238501712262142,-3.5862035695499728e-06,-0.000873666131312123,-9.329445648242896e-07,-0.0012665872004831158
34,0.0035,467.187,33.8945,-0.000505082,125.841,-0.239216,-0.0607849,0.00319279,-0.00090884,-0.00131955,0.00230344,-3.92855e-06,-1.0234e-06,0.00108828,0.003197892382825973,0.0023060949560360644,-3.928542283260228e-06,-0.0009084271300142666,-1.0233994762742782e-06,-0.00131867977670852
35,0.0036,469.228,34.0634,-0.000479048,126.429,-0.255734,-0.0652062,0.00328401,-0.000943664,-0.00137175,0.0023709,-4.27521e-06,-1.11505e-06,0.00117781,0.0032894082685450687,0.0023737128059262425,-4.275200861325601e-06,-0.0009432188891502769,-1.1150493783862458e-06,-0.0013708095810244236
36,0.0037,471.227,34.229,-0.000454728,127.006,-0.271907,-0.0695356,0.00337523,-0.000978521,-0.00142401,0.00243836,-4.62611e-06,-1.20787e-06,0.00126755,0.00338093250272431,0.002441335217470364,-4.626099299520625e-06,-0.0009780424044443237,-1.2078692704919902e-06,-0.0014229965788576937
37,0.0038,473.188,34.3914,-0.000431964,127.572,-0.287746,-0.0737759,0.00346643,-0.00101341,-0.0014763,0.00250583,-4.98118e-06,-1.30184e-06,0.00135748,0.0034724450166756515,0.002508972216066052,-4.981167593953728e-06,-0.0010128966735040157,-1.3018391525898565e-06,-0.0014752108052137336
38,0.0039,475.111,34.5506,-0.000410639,128.126,-0.303264,-0.0779304,0.00355763,-0.00104832,-0.00152864,0.00257331,-5.34036e-06,-1.39695e-06,0.0014476,0.003563965876949071,0.0025766238040501044,-5.340345740290076e-06,-0.0010477707045514206,-1.396949024234928e-06,-0.0015274722249868367
39,0.004,476.997,34.7069,-0.000390636,128.67,-0.318471,-0.0820019,0.00364881,-0.00108327,-0.00158102,0.0026408,-5.70358e-06,-1.49318e-06,0.0015379,0.0036554750111956746,0.0026442899837602063,-5.703563734638095e-06,-0.001082683474861068,-1.4931788852035055e-06,-0.0015797708462789162
40,0.0041,478.849,34.8602,-0.000371855,129.205,-0.333378,-0.0859932,0.00373998,-0.00111824,-0.00163344,0.0027083,-6.07078e-06,-1.59052e-06,0.00162837,0.003746982452155878,0.0027119707575344876,-6.070761572884997e-06,-0.0011176150026386278,-1.5905187351616945e-06,-0.0016321066629573222
41,0.0042,480.668,35.0108,-0.000354201,129.729,-0.347995,-0.0899068,0.00383114,-0.00115323,-0.00168589,0.00277581,-6.4419e-06,-1.68893e-06,0.001719,0.003838488197844603,0.002779666127711744,-6.441879251029015e-06,-0.0011525652858308533,-1.6889285737731186e-06,-0.0016844696857306607
42,0.0043,482.454,35.1587,-0.000337591,130.244,-0.362332,-0.0937455,0.00392229,-0.00118826,-0.00173838,0.00284332,-6.81688e-06,-1.78841e-06,0.00180979,0.003929992246277436,0.0028473660681578306,-6.816856765179402e-06,-0.0011875542986328202,-1.788408400815733e-06,-0.001736869892661308
43,0.0044,484.209,35.304,-0.000321948,130.751,-0.376396,-0.0975116,0.00401343,-0.0012233,-0.0017909,0.00291084,-7.19565e-06,-1.88894e-06,0.00190074,0.004021494595469521,0.00291508060833201,-7.195624111333565e-06,-0.001222552073565586,-1.8889382159548163e-06,-0.0017892972954989261
44,0.0045,485.934,35.4469,-0.000307203,131.248,-0.390199,-0.101207,0.00410456,-0.00125837,-0.00184345,0.00297837,-7.57816e-06,-1.99051e-06,0.00199183,0.00411299524343578,0.002982809750574189,-7.5781312858236305e-06,-0.001257578584470842,-1.990508018967496e-06,-0.0018417518896695073
45,0.0046,487.631,35.5873,-0.000293292,131.738,-0.403746,-0.104835,0.00419568,-0.00129345,-0.00189604,0.00304591,-7.96435e-06,-2.09309e-06,0.00208306,0.00420449418819091,0.0030505534972253834,-7.964318284647831e-06,-0.0012926138540919618,-2.0930878095182237e-06,-0.0018942436516546923
46,0.0047,489.299,35.7255,-0.000280157,132.219,-0.417048,-0.108397,0.00428679,-0.00132856,-0.00194865,0.00311345,-8.35416e-06,-2.19667e-06,0.00217443,0.0042959914277498346,0.003118301819443614,-8.354125104137466e-06,-0.0013276778548673152,-2.1966675872731045e-06,-0.001946752614235825
47,0.0048,490.941,35.8614,-0.000267744,132.692,-0.43011,-0.111895,0.00437788,-0.00136369,-0.00200129,0.003181,-8.74753e-06,-2.30123e-06,0.00226593,0.0043874769162524085,0.0031860647493986427,-8.747491740512814e-06,-0.0013627605973123291,-2.3012273521194615e-06,-0.0019992887544147964
48,0.0049,492.556,35.9951,-0.000256006,133.158,-0.442941,-0.115331,0.00446897,-0.00139884,-0.00205396,0.00324855,-9.14442e-06,-2.40676e-06,0.00235756,0.0044789707385475275,0.00325383225689424,-9.144378189884783e-06,-0.0013978620793652086,-2.4067571037234003e-06,-0.002051852067609161
49,0.005,494.147,36.1268,-0.000244897,133.617,-0.455548,-0.118707,0.00456004,-0.001434,-0.00210666,0.00331611,-9.54476e-06,-2.51324e-06,0.0024493,0.004570452803985381,0.0033216143754557503,-9.544714448916913e-06,-0.0014329723132929795,-2.5132368418612216e-06,-0.0021044425492338092
50,0.0051,495.713,36.2564,-0.000234376,134.069,-0.467937,-0.122024,0.00465111,-0.00146919,-0.00215938,0.00338367,-9.9485e-06,-2.62067e-06,0.00254117,0.004661943201074159,0.003389401073531806,-9.94845051383031e-06,-0.0014681112687237041,-2.620666566088836e-06,-0.002157050216272327
51,0.0052,497.255,36.3841,-0.000224407,134.514,-0.480115,-0.125286,0.00474216,-0.00150439,-0.00221212,0.00345124,-1.03556e-05,-2.72901e-06,0.00263315,0.004753421835504312,0.003457202386003999,-1.0355546380957925e-05,-0.0015032589726038381,-2.729006276291912e-06,-0.002209675065714456
52,0.0053,498.775,36.5098,-0.000214953,134.952,-0.492088,-0.128492,0.0048332,-0.0015396,-0.00226489,0.00351881,-1.0766e-05,-2.83827e-06,0.00272523,0.004844898750994142,0.0035250082799656024,-1.0765942046853105e-05,-0.0015384154239224124,-2.8382659721382097e-06,-0.0022623270719258626
53,0.0054,500.272,36.6338,-0.000205983,135.384,-0.503862,-0.131645,0.00492423,-0.00157484,-0.00231768,0.00358639,-1.11796e-05,-2.94842e-06,0.00281743,0.004936373945557904,0.0035928287916544566,-1.1179537508509974e-05,-0.0015736005901966221,-2.9484156534032024e-06,-0.0023149962534644297
54,0.0055,501.748,36.7559,-0.000197467,135.809,-0.515442,-0.134746,0.00501525,-0.00161008,-0.00237049,0.00365398,-1.15964e-05,-3.05945e-06,0.00290972,0.005027847417208964,0.0036606639234149085,-1.159633276204275e-05,-0.0016087845165674297,-3.059445319864018e-06,-0.002367682607316901
55,0.0056,503.204,36.8763,-0.000189379,136.229,-0.526835,-0.137797,0.00510626,-0.00164534,-0.00242332,0.00372157,-1.20164e-05,-3.17135e-06,0.00300212,0.0051193191639609115,0.003728503640306746,-1.2016327803343607e-05,-0.0016439871701988684,-3.171344971297785e-06,-0.00242038613046891
56,0.0057,504.639,36.9951,-0.000181692,136.643,-0.538045,-0.140799,0.00519726,-0.00168062,-0.00247617,0.00378916,-1.24395e-05,-3.28411e-06,0.00309461,0.00521078918382778,0.003796347942640166,-1.2439422629739738e-05,-0.0016792085490228148,-3.284104607370608e-06,-0.002473106819905424
57,0.0058,506.054,37.1121,-0.000174383,137.051,-0.549077,-0.143753,0.00528825,-0.00171591,-0.00252904,0.00385675,-1.28656e-05,-3.3977e-06,0.00318719,0.0053022574748222695,0.0038641968307251418,-1.2865517238558333e-05,-0.0017144386681139379,-3.3976942278579614e-06,-0.002525844672610411
58,0.0059,507.45,37.2277,-0.000167431,137.453,-0.559936,-0.146661,0.00537923,-0.00175121,-0.00258193,0.00392435,-1.32948e-05,-3.51213e-06,0.00327986,0.005393724034958192,0.00393206034419169,-1.3294711624589617e-05,-0.0017496775264594921,-3.512123832427605e-06,-0.0025785996855670623
59,0.006,508.828,37.3416,-0.000160815,137.85,-0.570628,-0.149525,0.0054702,-0.00178652,-0.00263484,0.00399196,-1.37269e-05,-3.62737e-06,0.00337262,0.005485188862248247,0.003999938485386378,-1.3726805786484775e-05,-0.001784925123046066,-3.6273634210770567e-06,-0.0026313718557575694
60,0.0061,510.188,37.4541,-0.000154517,138.242,-0.581156,-0.152344,0.00556115,-0.00182185,-0.00268776,0.00405957,-1.41619e-05,-3.74341e-06,0.00346547,0.005576641898938917,0.004067821215977041,-1.4161799720802115e-05,-0.001820191438658303,-3.7434029934724222e-06,-0.0026841512070050477
61,0.0062,511.53,37.5651,-0.000148518,138.629,-0.591525,-0.155121,0.0056521,-0.00185719,-0.0027407,0.00412718,-1.45998e-05,-3.86025e-06,0.00355839,0.005668103253661849,0.0041357085362745405,-1.4599693423433813e-05,-0.0018554664897790785,-3.860242549280635e-06,-0.002736947710504367
62,0.0063,512.855,37.6747,-0.000142804,139.011,-0.601738,-0.157856,0.00574303,-0.00189254,-0.00279366,0.00419479,-1.50406e-05,-3.97787e-06,0.00365139,0.005759552811981816,0.004203600446588851,-1.5040486890716132e-05,-0.001890750275394093,-3.977862088277995e-06,-0.002789761363235721
63,0.0064,514.164,37.7829,-0.000137358,139.389,-0.611801,-0.16055,0.00583396,-0.0019279,-0.00284663,0.00426241,-1.54841e-05,-4.09625e-06,0.00374448,0.005851010686188207,0.004271506989945495,-1.548398012196639e-05,-0.0019260427944889358,-4.096241610351825e-06,-0.0028425821906044035
64,0.0065,515.457,37.8897,-0.000132166,139.761,-0.621717,-0.163206,0.00592487,-0.00196327,-0.00289962,0.00433003,-1.59304e-05,-4.2154e-06,0.00383763,0.005942456758187831,0.004339418125297589,-1.593027311186379e-05,-0.001961344046048974,-4.215391115169886e-06,-0.002895420162219664
65,0.0066,516.733,37.9953,-0.000127215,140.129,-0.631489,-0.165823,0.00601578,-0.00199865,-0.00295261,0.00439765,-1.63794e-05,-4.33529e-06,0.00393086,0.006033911143927817,0.004407333852956219,-1.637926585840166e-05,-0.0019966540290593526,-4.335280602618674e-06,-0.002948255334025096
66,0.0067,517.995,38.0995,-0.000122494,140.493,-0.641122,-0.168402,0.00610667,-0.00203404,-0.00300563,0.00446527,-1.68311e-05,-4.45591e-06,0.00402416,0.00612535372165679,0.004475254173231358,-1.6830958357805237e-05,-0.002031972742504884,-4.455900072475316e-06,-0.003001117616135751
67,0.0068,519.241,38.2026,-0.000117989,140.852,-0.650618,-0.170945,0.00619755,-0.00206944,-0.00305865,0.0045329,-1.72854e-05,-4.57726e-06,0.00411753,0.006216794548811189,0.00454318913186591,-1.7285250608289893e-05,-0.00206730018537038,-4.577249524406746e-06,-0.0030539770955625434
68,0.0069,520.473,38.3044,-0.000113691,141.207,-0.659981,-0.173452,0.00628842,-0.00210484,-0.00311169,0.00460053,-1.77423e-05,-4.69932e-06,0.00421096,0.00630823362340327,0.0046111286850969435,-1.7742142606302913e-05,-0.002102626377666561,-4.699308958189263e-06,-0.003106853710317159
69,0.007,521.691,38.405,-0.000109589,141.558,-0.669214,-0.175925,0.00637929,-0.00214026,-0.00316474,0.00466816,-1.82017e-05,-4.82209e-06,0.00430446,0.006399681007441593,0.0046790728332355425,-1.8201534350059667e-05,-0.002137971276678363,-4.822078373711847e-06,-0.0031597374889732466
70,0.0071,522.895,38.5045,-0.000105674,141.904,-0.678321,-0.178364,0.00647014,-0.00217569,-0.00321781,0.0047358,-1.86637e-05,-4.94555e-06,0.00439802,0.006491116571858857,0.0047470316240623145,-1.866352583423936e-05,-0.002173324902062901,-4.945537770750796e-06,-0.003212638397966705
71,0.0072,524.085,38.6028,-0.000101937,142.247,-0.687305,-0.180769,0.00656098,-0.00221112,-0.00327088,0.00480343,-1.91282e-05,-5.0697e-06,0.00449164,0.006582550377748797,0.0048149849636272,-1.9128017057168378e-05,-0.0022086772748906025,-5.069687149084068e-06,-0.003265536499583388
72,0.0073,525.262,38.7,-9.83689e-05,142.586,-0.696167,-0.183142,0.00665181,-0.00224656,-0.00332397,0.00487107,-1.95951e-05,-5.19452e-06,0.00458532,0.006673982423123004,0.004882952947861563,-1.959490801728414e-05,-0.0022440383727656554,-5.194506508487962e-06,-0.0033184517276034775
73,0.0074,526.426,38.7962,-9.49626e-05,142.922,-0.704912,-0.185484,0.00674263,-0.00228201,-0.00337706,0.00493871,-2.00645e-05,-5.32001e-06,0.00467905,0.006765412705993068,0.004950925529605854,-2.006429870926585e-05,-0.0022794081946715394,-5.319995848740433e-06,-0.0033713641464285793
74,0.0075,527.577,38.8913,-9.17103e-05,143.253,-0.713542,-0.187795,0.00683344,-0.00231747,-0.00343017,0.00500635,-2.05362e-05,-5.44615e-06,0.00477285,0.006856841224369914,0.005018902709170936,-2.0535989133652066e-05,-0.0023147867395916233,-5.446135169728805e-06,-0.003424293687722346
75,0.0076,528.717,38.9854,-8.8605e-05,143.582,-0.722059,-0.190075,0.00692423,-0.00235293,-0.00348329,0.00507399,-2.10103e-05,-5.57294e-06,0.0048667,0.006948257906782107,0.005086884486867893,-2.101007928523302e-05,-0.0023501640300107596,-5.572924471231033e-06,-0.0034772303832306672
76,0.0077,529.844,39.0784,-8.56403e-05,143.906,-0.730467,-0.192327,0.00701502,-0.0023884,-0.00353641,0.00514164,-2.14867e-05,-5.70036e-06,0.0049606,0.007039682889291798,0.0051548809145567365,-2.1486469162557142e-05,-0.0023855500421180453,-5.700343753023418e-06,-0.0035301642668162936
77,0.0078,530.959,39.1705,-8.28098e-05,144.227,-0.738767,-0.194549,0.0071058,-0.00242388,-0.00358955,0.00520928,-2.19654e-05,-5.82842e-06,0.00505455,0.007131106101341267,0.005222871890130598,-2.196515876240479e-05,-0.002420944774896183,-5.82840301477372e-06,-0.003583115266966641
78,0.0079,532.063,39.2617,-8.01077e-05,144.545,-0.746962,-0.196743,0.00719657,-0.00245936,-0.00364269,0.00527693,-2.24464e-05,-5.95709e-06,0.00514855,0.007222527540941437,0.005290877517678316,-2.2446148081445294e-05,-0.002456338251891621,-5.957072256590479e-06,-0.0036360634533755265
79,0.008,533.155,39.3518,-7.75285e-05,144.86,-0.755055,-0.19891,0.00728732,-0.00249485,-0.00369584,0.00534457,-2.29295e-05,-6.08638e-06,0.00524261,0.007313937132963355,0.0053588776923736425,-2.2929237120994372e-05,-0.0024917404482314165,-6.086361478030433e-06,-0.0036890187893025006
80,0.0081,534.237,39.4411,-7.50011e-05,145.171,-0.763047,-0.20105,0.00737807,-0.00253034,-0.003749,0.00541222,-2.34151e-05,-6.2162e-06,0.00533671,0.00740535502078199,0.0054268925210252394,-2.3414825868650624e-05,-0.0025271413881694516,-6.216180679419203e-06,-0.0037419812733083813
81,0.0082,535.308,39.5295,-7.2716e-05,145.48,-0.770939,-0.203164,0.00746881,-0.00256585,-0.00380217,0.00547987,-2.39027e-05,-6.34662e-06,0.00543085,0.007496771130182767,0.005494911951035464,-2.390241433269935e-05,-0.0025625610204994542,-6.346599860207469e-06,-0.0037949509039538754
82,0.0083,536.368,39.617,-7.04748e-05,145.785,-0.778736,-0.205252,0.00755953,-0.00260135,-0.00385535,0.00554752,-2.43925e-05,-6.47763e-06,0.00552505,0.007588175383293816,0.005562935982716066,-2.439220250538554e-05,-0.0025979694210803705,-6.477609020172359e-06,-0.003847927679799912
83,0.0084,537.418,39.7036,-6.83408e-05,146.087,-0.786439,-0.207314,0.00765025,-0.00263686,-0.00390853,0.00561517,-2.48845e-05,-6.60922e-06,0.00561928,0.007679587928975051,0.005630964616377687,-2.4884190383378524e-05,-0.0026333865383516564,-6.609198159202023e-06,-0.0039009016384158324
84,0.0085,538.457,39.7894,-6.63022e-05,146.387,-0.79405,-0.209352,0.00774096,-0.00267238,-0.00396172,0.00568282,-2.53785e-05,-6.74138e-06,0.00571356,0.007770998690268538,0.005698997852332299,-2.537817796854913e-05,-0.002668812371295237,-6.741357276962567e-06,-0.003953882740412751
85,0.0086,539.487,39.8743,-6.436e-05,146.683,-0.801571,-0.211366,0.00783165,-0.0027079,-0.00401492,0.00575047,-2.58745e-05,-6.87411e-06,0.00580788,0.007862397586559933,0.005767035690890987,-2.5874165258010784e-05,-0.0027042369459356896,-6.874086373342969e-06,-0.004006870984351263
86,0.0087,540.507,39.9585,-6.2509e-05,146.977,-0.809003,-0.213356,0.00792234,-0.00274343,-0.00406812,0.00581812,-2.63726e-05,-7.00739e-06,0.00590225,0.007953804772193429,0.005835078132365057,-2.6372252245998595e-05,-0.0027396702349208324,-7.007365448341574e-06,-0.004059856409389995
87,0.0088,541.518,40.0418,-6.07462e-05,147.268,-0.816349,-0.215323,0.00801301,-0.00277896,-0.00412133,0.00588577,-2.68727e-05,-7.14122e-06,0.00599665,0.008045200087015925,0.0059031251770660376,-2.6872338932282247e-05,-0.0027751022649836754,-7.141194501514292e-06,-0.004112848974550776
88,0.0089,542.519,40.1244,-5.9068e-05,147.556,-0.82361,-0.217267,0.00810368,-0.00281449,-0.00417455,0.00595342,-2.73748e-05,-7.27559e-06,0.00609109,0.008136603689027577,0.005971176825305458,-2.737442531353107e-05,-0.0028105330361688496,-7.275563532971319e-06,-0.004165848678393758
89,0.009,543.511,40.2062,-5.74713e-05,147.841,-0.830788,-0.219189,0.00819433,-0.00285003,-0.00422777,0.00602107,-2.78788e-05,-7.4105e-06,0.00618557,0.00822799541441932,0.006039233077394401,-2.7878411389847813e-05,-0.0028459725200613573,-7.410472542268565e-06,-0.004218845561667517
90,0.0091,544.494,40.2873,-5.59529e-05,148.124,-0.837885,-0.221089,0.00828497,-0.00288558,-0.004281,0.00608872,-2.83847e-05,-7.54594e-06,0.00628009,0.008319385341652552,0.00610729393364462,-2.8384297158234872e-05,-0.0028814207156429017,-7.545911529516225e-06,-0.0042718495818037105
91,0.0092,545.468,40.3676,-5.45099e-05,148.405,-0.844902,-0.222968,0.00837561,-0.00292113,-0.00433423,0.00615637,-2.88926e-05,-7.6819e-06,0.00637464,0.008410783552844414,0.006175359394367419,-2.8892182612816342e-05,-0.0029168676510634706,-7.681870494269383e-06,-0.004324850780611067
92,0.0093,546.434,40.4472,-5.31396e-05,148.682,-0.85184,-0.224826,0.00846623,-0.00295668,-0.00438747,0.00622402,-2.94023e-05,-7.81838e-06,0.00646923,0.008502169878701782,0.00624342945987455,-2.9401867756573274e-05,-0.002952313326367806,-7.818349436528038e-06,-0.004377859114461202
93,0.0094,547.391,40.5261,-5.18394e-05,148.958,-0.858702,-0.226663,0.00855684,-0.00299223,-0.00444071,0.00629167,-2.99138e-05,-7.95536e-06,0.00656385,0.00859355440042786,0.006311504130477097,-2.9913352586730113e-05,-0.0029877577416008716,-7.955328356179514e-06,-0.004430864626222664
94,0.0095,548.339,40.6043,-5.06066e-05,149.231,-0.865489,-0.22848,0.00864745,-0.00302779,-0.00449396,0.00635932,-3.04272e-05,-8.09285e-06,0.00665851,0.008684947202880489,0.006379583406487255,-3.042673709741095e-05,-0.00302321086657531,-8.092817253002593e-06,-0.004483877271207137
95,0.0096,549.28,40.6818,-4.94389e-05,149.501,-0.872202,-0.230278,0.00873804,-0.00306335,-0.00454721,0.00642697,-3.09425e-05,-8.23083e-06,0.00675319,0.00877632811128315,0.006447667288215886,-3.0942021285729204e-05,-0.0030586627308589742,-8.230796126773576e-06,-0.0045368870933434335
96,0.0097,550.213,40.7587,-4.83341e-05,149.77,-0.878843,-0.232056,0.00882862,-0.00309892,-0.00460047,0.00649462,-3.14594e-05,-8.36931e-06,0.00684792,0.008867707209580411,0.006515755775975185,-3.145890515821037e-05,-0.0030941233035556293,-8.369274977382268e-06,-0.0045899040468827534
97,0.0098,551.137,40.8349,-4.72899e-05,150.036,-0.885413,-0.233814,0.0089192,-0.00313449,-0.00465373,0.00656227,-3.19782e-05,-8.50826e-06,0.00694267,0.008959094585371252,0.0065838488700762365,-3.197768870277784e-05,-0.003129582614942117,-8.508223804826187e-06,-0.004642918176814392
98,0.0099,552.054,40.9104,-4.63043e-05,150.3,-0.891913,-0.235555,0.00900976,-0.00317006,-0.004707,0.00662991,-3.24987e-05,-8.6477e-06,0.00703745,0.009050470058395987,0.006651936504311617,-3.249817192296778e-05,-0.00316504066506329,-8.64766260877392e-06,-0.004695939436329399
99,0.01,552.963,40.9853,-4.53753e-05,150.561,-0.898345,-0.237277,0.00910031,-0.00320563,-0.00476027,0.00669756,-3.30209e-05,-8.78761e-06,0.00713226,0.00914184371533966,0.006720038811350859,-3.302035481611565e-05,-0.003200497453964113,-8.787571389112792e-06,-0.004748957871477
100,0.0101,553.865,41.0596,-4.45009e-05,150.821,-0.904709,-0.238981,0.00919086,-0.00324121,-0.00481354,0.00676521,-3.35448e-05,-8.92798e-06,0.00722711,0.009233225646542387,0.006788145725666883,-3.3544237379445896e-05,-0.003235962949329818,-8.92794014573095e-06,-0.004801973482407851
101,0.0102,554.76,41.1333,-4.36795e-05,151.078,-0.911008,-0.240667,0.00928139,-0.00327679,-0.00486682,0.00683285,-3.40704e-05,-9.06881e-06,0.00732198,0.009324595666261759,0.00685624717900879,-3.406981961051603e-05,-0.0032714271828556685,-9.068768878517375e-06,-0.004854996220722496
102,0.0103,555.647,41.2064,-4.29091e-05,151.333,-0.917242,-0.242336,0.00937191,-0.00331237,-0.0049201,0.0069005,-3.45977e-05,-9.2101e-06,0.00741687,0.009415963863923738,0.0069243633081326195,-3.4597101506439465e-05,-0.003306890154586517,-9.210057587138998e-06,-0.0049080161340607775
103,0.0104,556.527,41.2789,-4.21883e-05,151.586,-0.923412,-0.243988,0.00946242,-0.00334796,-0.00497338,0.00696814,-3.51266e-05,-9.35184e-06,0.0075118,0.009507330237535916,0.006992473975543589,-3.5125983068207134e-05,-0.00334236183114367,-9.351796271706014e-06,-0.004961033222573352
104,0.0105,557.401,41.3508,-4.15154e-05,151.837,-0.92952,-0.245623,0.00955293,-0.00338355,-0.00502667,0.00703578,-3.56571e-05,-9.49403e-06,0.00760675,0.009598704881092823,0.0070605892501158785,-3.56564642931545e-05,-0.0033778322452863163,-9.493984931885358e-06,-0.005014057436270258
105,0.0106,558.267,41.4221,-4.08888e-05,152.087,-0.935567,-0.247242,0.00964342,-0.00341913,-0.00507996,0.00710342,-3.61892e-05,-9.63665e-06,0.00770173,0.009690067601541452,0.007128709132161237,-3.618854517883907e-05,-0.0034132914311924,-9.636603567675373e-06,-0.005067078824382065
106,0.0107,559.127,41.4929,-4.03072e-05,152.334,-0.941554,-0.248844,0.0097339,-0.00345473,-0.00513325,0.00717106,-3.67229e-05,-9.7797e-06,0.00779673,0.009781428491962396,0.007196833621991194,-3.672222572259631e-05,-0.0034487692865078357,-9.779652178854015e-06,-0.005120097387059319
107,0.0108,559.98,41.5631,-3.97691e-05,152.579,-0.947481,-0.250431,0.00982437,-0.00349032,-0.00518655,0.0072387,-3.72581e-05,-9.92319e-06,0.00789176,0.009872787550362805,0.0072649627199175,-3.72574059256392e-05,-0.0034842359136765255,-9.92314076531109e-06,-0.005173123072721553
108,0.0109,560.826,41.6328,-3.92733e-05,152.822,-0.953351,-0.252002,0.00991483,-0.00352592,-0.00523985,0.00730634,-3.77949e-05,-1.00671e-05,0.00798681,0.009964144774749606,0.007333096426251906,-3.779418578175875e-05,-0.003519711243413437,-1.0067049326933919e-05,-0.005226145932189952
109,0.011,561.667,41.702,-3.88184e-05,153.064,-0.959163,-0.253558,0.0100053,-0.00356151,-0.00529315,0.00737398,-3.83332e-05,-1.02114e-05,0.00808189,0.010055520364239845,0.00740123474130594,-3.833246529227896e-05,-0.0035551753458028523,-1.0211347863831044e-05,-0.0052791659656153955
110,0.0111,562.5,41.7706,-3.84032e-05,153.304,-0.964919,-0.255099,0.0100957,-0.00359711,-0.00534645,0.00744161,-3.88731e-05,-1.03562e-05,0.00817699,0.010146833510572772,0.0074693675906978285,-3.8872344450879837e-05,-0.003590648150140874,-1.035614637479032e-05,-0.005332183173148208
111,0.0112,563.328,41.8387,-3.80265e-05,153.542,-0.970619,-0.256625,0.0101862,-0.00363271,-0.00539976,0.00750924,-3.94144e-05,-1.05013e-05,0.00827211,0.01023825593580785,0.007537505048070159,-3.9413623262762876e-05,-0.0036261196916694827,-1.0501244861571557e-05,-0.005385207501087286
112,0.0113,564.149,41.9063,-3.76872e-05,153.778,-0.976266,-0.258136,0.0102766,-0.00366832,-0.00545306,0.00757688,-3.99572e-05,-1.06469e-05,0.00836726,0.010329585602183,0.007605657189791115,-3.9956401721719104e-05,-0.0036615999338178717,-1.0646843321970856e-05,-0.00543821905675701
113,0.0114,564.965,41.9734,-3.73843e-05,154.012,-0.981859,-0.259633,0.010367,-0.00370392,-0.00550637,0.00764451,-4.05014e-05,-1.07928e-05,0.00846242,0.010420923525133352,0.0076738038647405915,-4.050057982940558e-05,-0.0036970689495079423,-1.079274175797007e-05,-0.005491237732073717
114,0.0115,565.774,42.04,-3.71166e-05,154.245,-0.9874,-0.261116,0.0104574,-0.00373953,-0.00555969,0.00771213,-4.10471e-05,-1.09392e-05,0.00855761,0.010512269705405197,0.007741945071186196,-4.1046257579280265e-05,-0.0037325466651981776,-1.0939140167143258e-05,-0.005544263525597559
115,0.0116,566.578,42.1062,-3.68833e-05,154.476,-0.992888,-0.262585,0.0105478,-0.00377513,-0.005613,0.00777976,-4.15942e-05,-1.10859e-05,0.00865281,0.01060362414374505,0.007810100963596911,-4.159333497322226e-05,-0.003768013155229677,-1.1085838551583294e-05,-0.005597276547834373
116,0.0117,567.376,42.1718,-3.66832e-05,154.705,-0.998326,-0.264041,0.0106382,-0.00381074,-0.00566631,0.00784739,-4.21427e-05,-1.1233e-05,0.00874804,0.010694986840899423,0.007878261465546377,-4.2141812008900104e-05,-0.0038034883446417256,-1.1232936910077207e-05,-0.005650286744022237
117,0.0118,568.169,42.237,-3.65156e-05,154.933,-1.00371,-0.265483,0.0107285,-0.00384635,-0.00571963,0.00791501,-4.26926e-05,-1.13805e-05,0.00884329,0.010786256718984033,0.007946416497882414,-4.26916886838713e-05,-0.0038389622708047133,-1.1380435242402953e-05,-0.005703304057278924
118,0.0119,568.955,42.3017,-3.63794e-05,155.159,-1.00905,-0.266912,0.0108189,-0.00388196,-0.00577295,0.00798263,-4.32439e-05,-1.15284e-05,0.00893856,0.010877635926869411,0.00801457613901757,-4.324296499602642e-05,-0.003874434933763715,-1.1528333548227465e-05,-0.005756318543727823
119,0.012,569.737,42.3659,-3.6274e-05,155.384,-1.01434,-0.268328,0.0109093,-0.00391757,-0.00582627,0.00805025,-4.37965e-05,-1.16767e-05,0.00903384,0.01096902339580863,0.008082740389263376,-4.379554094724458e-05,-0.003909906333563695,-1.1676631827550743e-05,-0.0058093302035197025
120,0.0121,570.513,42.4297,-3.61983e-05,155.607,-1.01959,-0.269732,0.0109996,-0.00395318,-0.00587959,0.00811787,-4.43505e-05,-1.18253e-05,0.00912915,0.01106031802051155,0.008150909248931582,-4.434951653109476e-05,-0.0039453764702496175,-1.1825230081363713e-05,-0.00586233903680522
121,0.0122,571.283,42.4931,-3.61517e-05,155.828,-1.02478,-0.271122,0.0110899,-0.0039888,-0.00593291,0.00818549,-4.49058e-05,-1.19743e-05,0.00922447,0.011151620889491287,0.008219082718334159,-4.49047917496781e-05,-0.003980855304058006,-1.1974228308342383e-05,-0.005915345043735032
122,0.0123,572.048,42.556,-3.61334e-05,156.048,-1.02993,-0.272501,0.0111803,-0.00402441,-0.00598623,0.0082531,-4.54625e-05,-1.21236e-05,0.00931981,0.011243033127790625,0.008287250714909877,-4.5461466596230515e-05,-0.0040163229142961,-1.2123526509477678e-05,-0.005968348224460018
123,0.0124,572.809,42.6185,-3.61426e-05,156.267,-1.03504,-0.273867,0.0112706,-0.00406003,-0.00603956,0.00832071,-4.60204e-05,-1.22733e-05,0.00941516,0.011334352496689348,0.008355423320479671,-4.601934107761885e-05,-0.004051799221037156,-1.2273224683334583e-05,-0.006021358518917053
124,0.0125,573.564,42.6806,-3.61787e-05,156.483,-1.0401,-0.275221,0.0113609,-0.00409564,-0.00609288,0.00838832,-4.65796e-05,-1.24234e-05,0.00951054,0.011425680112099768,0.00842360053535507,-4.657851518730105e-05,-0.0040872643050072766,-1.2423322829913097e-05,-0.006074356047154228
125,0.0126,574.314,42.7423,-3.62409e-05,156.699,-1.04511,-0.276563,0.0114512,-0.00413126,-0.00614621,0.00845593,-4.71401e-05,-1.25738e-05,0.00960593,0.011517015974765954,0.008491782359847821,-4.713898892294566e-05,-0.004122738084860966,-1.2573720950093126e-05,-0.006127360688364836
126,0.0127,575.059,42.8035,-3.63286e-05,156.913,-1.05008,-0.277894,0.0115415,-0.00416688,-0.00619953,0.00852353,-4.77018e-05,-1.27245e-05,0.00970133,0.011608360085432867,0.00855995870866999,-4.770066228720893e-05,-0.004158210601161172,-1.2724419043874668e-05,-0.006180352564717051
127,0.0128,575.799,42.8643,-3.64412e-05,157.126,-1.05501,-0.279213,0.0116317,-0.00420249,-0.00625286,0.00859114,-4.82648e-05,-1.28756e-05,0.00979675,0.011699611274879507,0.008628149752650582,-4.826363527332678e-05,-0.004193671895889484,-1.287551710982271e-05,-0.006233351553284083
128,0.0129,576.534,42.9248,-3.65781e-05,157.337,-1.0599,-0.280521,0.011722,-0.00423811,-0.00630619,0.00865874,-4.8829e-05,-1.30271e-05,0.00989219,0.011790971874646505,0.008696335320220072,-4.882780788373342e-05,-0.0042291418855723295,-1.3027015147715204e-05,-0.006286347715490526
129,0.013,577.265,42.9848,-3.67386e-05,157.547,-1.06475,-0.281818,0.0118123,-0.00427373,-0.00635951,0.00872634,-4.93945e-05,-1.31788e-05,0.00998764,0.011882340724648444,0.008764525497289677,-4.9393280111775795e-05,-0.004264610611836583,-1.3178713159978095e-05,-0.006339331114880387
130,0.0131,577.991,43.0445,-3.69221e-05,157.755,-1.06955,-0.283104,0.0119025,-0.00430935,-0.00641284,0.00879393,-4.99611e-05,-1.33309e-05,0.0100831,0.011973616628263128,0.008832710195844085,-4.995985196498687e-05,-0.00430007807472732,-1.3330811143963395e-05,-0.00639232162534753
131,0.0132,578.712,43.1037,-3.71283e-05,157.963,-1.07432,-0.284379,0.0119927,-0.00434497,-0.00646617,0.00886153,-5.0529e-05,-1.34834e-05,0.0101786,0.012064900765335729,0.008900909592166828,-5.0527723431614824e-05,-0.0043355442742895045,-1.3483309099338037e-05,-0.0064453093099060554
132,0.0133,579.429,43.1626,-3.73564e-05,158.168,-1.07904,-0.285644,0.012083,-0.00438059,-0.0065195,0.00892912,-5.1098e-05,-1.36361e-05,0.0102741,0.012156294352233088,0.008969103509233634,-5.1096694519414676e-05,-0.004371009210568211,-1.363600702886103e-05,-0.006498294168706731
133,0.0134,580.141,43.2211,-3.7606e-05,158.373,-1.08373,-0.286898,0.0121732,-0.00441621,-0.00657283,0.00899671,-5.16682e-05,-1.37892e-05,0.0103696,0.012247594967579545,0.009037302035683092,-5.1666865221511316e-05,-0.004406472883608403,-1.3789104929440299e-05,-0.0065512762019003246
134,0.0135,580.849,43.2793,-3.78766e-05,158.576,-1.08838,-0.288141,0.0122634,-0.00445182,-0.00662616,0.00906429,-5.22395e-05,-1.39426e-05,0.0104651,0.0123389038186128,0.009105495080771853,-5.2238135541116115e-05,-0.004441925337874353,-1.3942502802399837e-05,-0.006604255409637272
135,0.0136,581.552,43.3371,-3.81678e-05,158.778,-1.09298,-0.289375,0.0123536,-0.00448744,-0.00667948,0.00913188,-5.2812e-05,-1.40962e-05,0.0105607,0.01243022090607604,0.009173702826239083,-5.281060547090988e-05,-0.004477386484927015,-1.4096100649063636e-05,-0.006657221858640816
136,0.0137,582.252,43.3945,-3.84789e-05,158.979,-1.09756,-0.290598,0.0124438,-0.00452306,-0.00673281,0.00919946,-5.33856e-05,-1.42503e-05,0.0106562,0.012521546230712,0.009241905089604652,-5.3384175014214996e-05,-0.004512846368876167,-1.4250198464904607e-05,-0.006710195416446574
137,0.0138,582.946,43.4515,-3.88097e-05,159.179,-1.10209,-0.291812,0.0125339,-0.00455868,-0.00678614,0.00926704,-5.39604e-05,-1.44046e-05,0.0107518,0.012612778531980728,0.009310111962234746,-5.39589441638233e-05,-0.0045483049897666605,-1.4404496254227794e-05,-0.006763166149247879
138,0.0139,583.637,43.5083,-3.91597e-05,159.377,-1.10659,-0.293016,0.0126241,-0.0045943,-0.00683947,0.00933461,-5.45362e-05,-1.45592e-05,0.0108473,0.012704120324057211,0.009378313350657974,-5.453471292848899e-05,-0.004583762347643683,-1.455909401537614e-05,-0.006816134057195278
139,0.014,584.324,43.5646,-3.95283e-05,159.574,-1.11105,-0.29421,0.0127143,-0.00462992,-0.0068928,0.00940219,-5.51131e-05,-1.47141e-05,0.0109429,0.012795470355535077,0.009446529442070029,-5.511158130100391e-05,-0.0046192184425519756,-1.4713991748127597e-05,-0.0068690991404395385
140,0.0141,585.006,43.6207,-3.99154e-05,159.77,-1.11548,-0.295395,0.0128044,-0.00466554,-0.00694612,0.00946976,-5.56912e-05,-1.48693e-05,0.0110385,0.012886727338479398,0.00951474004853381,-5.5689649273937825e-05,-0.004654673274536836,-1.4869189452482168e-05,-0.006922051468351786
141,0.0142,585.684,43.6764,-4.03203e-05,159.965,-1.11987,-0.29657,0.0128946,-0.00470116,-0.00699945,0.00953733,-5.62703e-05,-1.50248e-05,0.0111341,0.012978093841852667,0.009582955264143989,-5.626871685637802e-05,-0.0046901268436428944,-1.5024687128217806e-05,-0.006975010903171097
142,0.0143,586.359,43.7317,-4.07429e-05,160.158,-1.12423,-0.297736,0.0129847,-0.00473678,-0.00705278,0.00960489,-5.68504e-05,-1.51806e-05,0.0112297,0.013069367279914479,0.009651164992700467,-5.684878404665916e-05,-0.004725579149915449,-1.518048477522349e-05,-0.00702796751373902
143,0.0144,587.029,43.7868,-4.11826e-05,160.351,-1.12856,-0.298894,0.0130748,-0.0047724,-0.0071061,0.00967246,-5.74316e-05,-1.53367e-05,0.0113254,0.013160648942083464,0.009719389426855463,-5.742995083724001e-05,-0.0047610301933992405,-1.53365823933882e-05,-0.007080911371015408
144,0.0145,587.696,43.8415,-4.16391e-05,160.542,-1.13285,-0.300042,0.0131649,-0.00480802,-0.00715943,0.00974002,-5.80139e-05,-1.54931e-05,0.011421,0.013251938829100807,0.009787608373215129,-5.8012217226233176e-05,-0.004796479974139456,-1.5492979982600907e-05,-0.007133862334061991
145,0.0146,588.358,43.8959,-4.21122e-05,160.732,-1.1371,-0.301181,0.013255,-0.00484363,-0.00721275,0.00980757,-5.85972e-05,-1.56498e-05,0.0115167,0.01334323694170747,0.009855821830044409,-5.85954832176272e-05,-0.004831918540500135,-1.564967754252855e-05,-0.007186800545177174
146,0.0147,589.017,43.9499,-4.26014e-05,160.922,-1.14133,-0.302311,0.0133451,-0.00487925,-0.00726608,0.00987513,-5.91815e-05,-1.58067e-05,0.0116123,0.013434543280644862,0.00992404999408869,-5.9179748809534694e-05,-0.004867365796242362,-1.580657507482819e-05,-0.007239745861304714
147,0.0148,589.672,44.0037,-4.31064e-05,161.11,-1.14552,-0.303433,0.0134352,-0.00491487,-0.0073194,0.00994268,-5.97668e-05,-1.59639e-05,0.011708,0.013525857846653722,0.009992272667860513,-5.976501400040135e-05,-0.004902811789375794,-1.5963772577620716e-05,-0.007292678426860544
148,0.0149,590.324,44.0572,-4.36269e-05,161.297,-1.14968,-0.304547,0.0135252,-0.00495049,-0.00737272,0.0100102,-6.03531e-05,-1.61214e-05,0.0118037,0.013617079278762878,0.010060469648415227,-6.035127878833979e-05,-0.004938256519945505,-1.6121270050906134e-05,-0.007345608170127416
149,0.015,590.971,44.1103,-4.41626e-05,161.483,-1.15381,-0.305652,0.0136153,-0.0049861,-0.00742605,0.0100778,-6.09404e-05,-1.62792e-05,0.0118994,0.013708410292006201,0.010128752044082479,-6.0938543171573656e-05,-0.0049736900377332915,-1.6279067494573418e-05,-0.007398545017270108
150,0.0151,591.616,44.1632,-4.47132e-05,161.667,-1.15791,-0.306748,0.0137054,-0.00502172,-0.00747937,0.0101453,-6.15287e-05,-1.64372e-05,0.0119951,0.01379974953454477,0.010196938036096892,-6.152680714832659e-05,-0.005009132243664727,-1.6437064909946564e-05,-0.007451469115880793
151,0.0152,592.256,44.2157,-4.52784e-05,161.851,-1.16198,-0.307837,0.0137954,-0.00505733,-0.00753269,0.0102129,-6.21179e-05,-1.65955e-05,0.0120908,0.013890995618014879,0.010265229657338892,-6.211597072314223e-05,-0.005044563237612931,-1.6595362295479532e-05,-0.007504390392653715
152,0.0153,592.893,44.268,-4.58579e-05,162.034,-1.16602,-0.308917,0.0138854,-0.00509295,-0.00758601,0.0102804,-6.27081e-05,-1.6754e-05,0.0121865,0.01398224991400232,0.010333424861902918,-6.270613388814628e-05,-0.005080002919085946,-1.6753859652496317e-05,-0.007557308847739419
153,0.0154,593.527,44.3199,-4.64515e-05,162.216,-1.17003,-0.30999,0.0139755,-0.00512856,-0.00763932,0.0103479,-6.32993e-05,-1.69128e-05,0.0122822,0.014073613830602127,0.010401624669798881,-6.329729664156236e-05,-0.005115431389374314,-1.691265697945088e-05,-0.007610214557390527
154,0.0155,594.157,44.3716,-4.70588e-05,162.397,-1.17401,-0.311055,0.0140655,-0.00516417,-0.00769264,0.0104155,-6.38914e-05,-1.70719e-05,0.0123779,0.014164884562968272,0.010469930128324867,-6.388935898793413e-05,-0.00515085859807729,-1.707175427589913e-05,-0.0076631273700822344
155,0.0156,594.783,44.423,-4.76797e-05,162.577,-1.17796,-0.312111,0.0141555,-0.00519978,-0.00774596,0.010483,-6.44845e-05,-1.72313e-05,0.0124737,0.014256163510069975,0.010538139150637171,-6.448242091927625e-05,-0.00518628454523995,-1.7231151541952094e-05,-0.00771603736153792
156,0.0157,595.406,44.4741,-4.83139e-05,162.755,-1.18188,-0.313161,0.0142455,-0.00523539,-0.00779927,0.0105505,-6.50784e-05,-1.73908e-05,0.0125694,0.014347450672646644,0.010606352777213779,-6.507628244689645e-05,-0.0052217092309070345,-1.739064878092389e-05,-0.007768934609597489
157,0.0158,596.026,44.525,-4.89611e-05,162.933,-1.18577,-0.314202,0.0143354,-0.00527101,-0.00785258,0.010618,-6.56733e-05,-1.75507e-05,0.0126652,0.014438644607567941,0.010674571008365774,-6.567114355604531e-05,-0.005257142602552056,-1.7550545987399246e-05,-0.007821829037779948
158,0.0159,596.643,44.5756,-4.96212e-05,163.11,-1.18964,-0.315236,0.0144254,-0.00530662,-0.00790589,0.0106855,-6.62691e-05,-1.77108e-05,0.012761,0.014529948194182518,0.010742793844403575,-6.626690425171056e-05,-0.005292564765008723,-1.7710643164692286e-05,-0.007874720646235622
159,0.016,597.256,44.6259,-5.02937e-05,163.286,-1.19348,-0.316263,0.0145154,-0.00534222,-0.0079592,0.0107531,-6.68658e-05,-1.78711e-05,0.0128567,0.0146212599984894,0.01081112236674553,-6.686356453222686e-05,-0.00532797571938437,-1.7870940312803008e-05,-0.007927609435114835
160,0.0161,597.867,44.6759,-5.09787e-05,163.461,-1.19729,-0.317283,0.0146053,-0.00537783,-0.00801251,0.0108206,-6.74633e-05,-1.80317e-05,0.0129525,0.014712478549975705,0.010879354420311182,-6.746102440280399e-05,-0.005363395359518464,-1.8031537429852307e-05,-0.0079804954045678
161,0.0162,598.474,44.7257,-5.16757e-05,163.635,-1.20107,-0.318295,0.0146953,-0.00541344,-0.00806582,0.0108881,-6.80618e-05,-1.81925e-05,0.0130483,0.014803806782754059,0.010947591079695895,-6.805948384824845e-05,-0.0053988137383818025,-1.8192334517497244e-05,-0.008033378554744841
162,0.0163,599.077,44.7752,-5.23847e-05,163.809,-1.20483,-0.3193,0.0147852,-0.00544904,-0.00811913,0.0109556,-6.86611e-05,-1.83535e-05,0.0131441,0.014895041745933923,0.01101583234521053,-6.865874288064511e-05,-0.005434220910361276,-1.8353331575515774e-05,-0.008086258885796394
163,0.0164,599.678,44.8244,-5.31054e-05,163.981,-1.20856,-0.320298,0.0148751,-0.00548465,-0.00817243,0.0110231,-6.92613e-05,-1.85148e-05,0.0132399,0.014986284911505887,0.011084078217166171,-6.925890149156455e-05,-0.005469636767171604,-1.8514628602139815e-05,-0.008139126479263847
164,0.0165,600.276,44.8734,-5.38376e-05,164.152,-1.21226,-0.32129,0.0149651,-0.00552025,-0.00822573,0.0110906,-6.98623e-05,-1.86763e-05,0.0133357,0.015077637787965559,0.011152328695873459,-6.985985968632757e-05,-0.005505041417896206,-1.8676125599026427e-05,-0.008191991254963726
165,0.0166,600.87,44.9221,-5.45811e-05,164.323,-1.21594,-0.322274,0.015055,-0.00555586,-0.00827903,0.0111581,-7.04642e-05,-1.88381e-05,0.0134315,0.01516889736965954,0.0112205837816437,-7.046171745661578e-05,-0.005540454752833157,-1.883792256407446e-05,-0.008244853213046133
166,0.0167,601.462,44.9706,-5.53358e-05,164.493,-1.2196,-0.323251,0.0151449,-0.00559146,-0.00833233,0.0112256,-7.10669e-05,-1.90001e-05,0.0135273,0.015260165155958516,0.011288843474787758,-7.106437480763894e-05,-0.0055758568824823,-1.8999919499274043e-05,-0.00829771235366128
167,0.0168,602.05,45.0189,-5.61013e-05,164.661,-1.22323,-0.324222,0.0152348,-0.00562706,-0.00838563,0.011293,-7.16705e-05,-1.91623e-05,0.0136231,0.015351441147600342,0.011357006639910905,-7.166793173107866e-05,-0.005611257751838017,-1.9162116404292107e-05,-0.008350568676959269
168,0.0169,602.636,45.0669,-5.68777e-05,164.829,-1.22683,-0.325186,0.0153246,-0.00566266,-0.00843893,0.0113605,-7.22748e-05,-1.93247e-05,0.013719,0.015442623801055433,0.01142527554190842,-7.227218823957493e-05,-0.005646657360945273,-1.9324513279239675e-05,-0.008403422183090314
169,0.017,603.219,45.1146,-5.76646e-05,164.997,-1.23041,-0.326144,0.0154145,-0.00569826,-0.00849222,0.011428,-7.288e-05,-1.94874e-05,0.0138148,0.015533916196466713,0.01149354905221256,-7.287734431726811e-05,-0.005682055709848921,-1.9487210121904575e-05,-0.008456262956767269
170,0.0171,603.798,45.1621,-5.84619e-05,165.163,-1.23397,-0.327095,0.0155044,-0.00573385,-0.00854552,0.0114955,-7.3486e-05,-1.96503e-05,0.0139106,0.015625216799433517,0.011561827171134187,-7.348329997003411e-05,-0.00571744285576814,-1.9650106934165912e-05,-0.00850911082954342
171,0.0172,604.375,45.2094,-5.92695e-05,165.328,-1.2375,-0.32804,0.0155942,-0.00576945,-0.00859881,0.011563,-7.40928e-05,-1.98134e-05,0.0140065,0.015716424039045718,0.011630109898984387,-7.409005519631862e-05,-0.00575283868475307,-1.9813203715912664e-05,-0.008561945971222396
172,0.0173,604.949,45.2564,-6.00872e-05,165.493,-1.24101,-0.328979,0.0156841,-0.00580504,-0.00865209,0.0116304,-7.47004e-05,-1.99767e-05,0.0141023,0.015807741050205104,0.011698296066239733,-7.469760999456732e-05,-0.005788223311551044,-1.997650046703381e-05,-0.008614768383539473
173,0.0174,605.521,45.3033,-6.09148e-05,165.657,-1.24449,-0.329911,0.0157739,-0.00584064,-0.00870538,0.0116979,-7.53088e-05,-2.01402e-05,0.0141982,0.015898964681231087,0.011766588006051126,-7.530596436355896e-05,-0.005823616620796557,-2.0139997187529346e-05,-0.008667597894877477
174,0.0175,606.089,45.3498,-6.17522e-05,165.82,-1.24796,-0.330837,0.0158637,-0.00587623,-0.00875867,0.0117654,-7.5918e-05,-2.0304e-05,0.0142941,0.01599019650450706,0.011834884555724123,-7.59151183015172e-05,-0.005858998728652698,-2.0303793875187104e-05,-0.00872042459100586
175,0.0176,606.655,45.3962,-6.25992e-05,165.982,-1.25139,-0.331757,0.0159535,-0.00591182,-0.00881195,0.0118328,-7.65279e-05,-2.0468e-05,0.0143899,0.016081436520768433,0.011903084525256347,-7.652497181498408e-05,-0.005894379577282005,-2.0467790531886187e-05,-0.00877323855980705
176,0.0177,607.218,45.4423,-6.34556e-05,166.144,-1.25481,-0.332671,0.0160433,-0.00594741,-0.00886523,0.0119003,-7.71386e-05,-2.06321e-05,0.0144858,0.016172684730751508,0.01197139028875549,-7.713562489464199e-05,-0.00592975916672922,-2.0631887159727746e-05,-0.00882604971475498
177,0.0178,607.778,45.4882,-6.43214e-05,166.304,-1.25821,-0.333579,0.0161331,-0.005983,-0.00891851,0.0119677,-7.775e-05,-2.07965e-05,0.0145817,0.016263941135191473,0.01203959945908406,-7.774697754703297e-05,-0.005965137497039419,-2.0796283754287437e-05,-0.008878858055999417
178,0.0179,608.336,45.5339,-6.51964e-05,166.464,-1.26158,-0.334481,0.0162229,-0.00601858,-0.00897179,0.0120352,-7.83622e-05,-2.09611e-05,0.0146775,0.01635520573482463,0.012107914437652134,-7.835912976295045e-05,-0.006000504628262293,-2.0960880317666408e-05,-0.008931663583690463
179,0.018,608.891,45.5794,-6.60804e-05,166.623,-1.26493,-0.335378,0.0163127,-0.00605417,-0.00902506,0.0121026,-7.89751e-05,-2.11259e-05,0.0147734,0.016446478530386832,0.012176132810018725,-7.897198154893648e-05,-0.006035880440786179,-2.112567684975364e-05,-0.008984456387822526
180,0.0181,609.444,45.6246,-6.69734e-05,166.782,-1.26826,-0.336268,0.0164024,-0.00608975,-0.00907833,0.01217,-7.95888e-05,-2.12909e-05,0.0148693,0.016537657868843203,0.01224435578045835,-7.95856328954514e-05,-0.00607124505501988,-2.1290673350438105e-05,-0.00903724637975678
181,0.0182,609.994,45.6697,-6.78752e-05,166.939,-1.27157,-0.337153,0.0164922,-0.00612533,-0.0091316,0.0122375,-8.02032e-05,-2.1456e-05,0.0149652,0.01662894704934259,0.012312684580544575,-8.019998380937032e-05,-0.006106608411003078,-2.1455769821709936e-05,-0.009090033559643107
182,0.0183,610.541,45.7145,-6.87856e-05,167.096,-1.27485,-0.338032,0.0165819,-0.00616091,-0.00918487,0.0123049,-8.08183e-05,-2.16214e-05,0.0150611,0.016720142755959344,0.01238091675488362,-8.081503428913894e-05,-0.006141970508780292,-2.162116625925581e-05,-0.009142817927631275
183,0.0184,611.086,45.7591,-6.97045e-05,167.253,-1.27812,-0.338906,0.0166717,-0.00619649,-0.00923814,0.0123723,-8.14342e-05,-2.1787e-05,0.015157,0.01681144832433734,0.012449153528226509,-8.143088432555068e-05,-0.0061773313483965975,-2.178676266506585e-05,-0.009195599483871053
184,0.0185,611.628,45.8035,-7.06319e-05,167.408,-1.28137,-0.339774,0.0167614,-0.00623207,-0.0092914,0.0124398,-8.20507e-05,-2.19528e-05,0.0152529,0.01690266040205257,0.012517496152627317,-8.204733393335495e-05,-0.006212690929896514,-2.195255903902904e-05,-0.009248368320995959
185,0.0186,612.168,45.8477,-7.15676e-05,167.563,-1.28459,-0.340636,0.0168511,-0.00626765,-0.00934466,0.0125072,-8.2668e-05,-2.21188e-05,0.0153488,0.01699388066185814,0.01258574213173147,-8.266458309502678e-05,-0.006248049253324894,-2.2118555381145377e-05,-0.009301134347727391
186,0.0187,612.705,45.8917,-7.25114e-05,167.717,-1.2878,-0.341494,0.0169408,-0.00630322,-0.00939792,0.0125746,-8.3286e-05,-2.22849e-05,0.0154447,0.017085109104487906,0.012653992710769835,-8.328253181744127e-05,-0.006283396381560613,-2.228465169340499e-05,-0.009353897564215119
187,0.0188,613.24,45.9355,-7.34633e-05,167.87,-1.29098,-0.342345,0.0170305,-0.0063388,-0.00945118,0.012642,-8.39046e-05,-2.24513e-05,0.0155406,0.017176345730676168,0.012722247890052385,-8.390108010747355e-05,-0.006318752189333754,-2.2451047971494553e-05,-0.0094066579706088
188,0.0189,613.773,45.9791,-7.44232e-05,168.023,-1.29415,-0.343192,0.0171202,-0.00637437,-0.00950443,0.0127094,-8.45239e-05,-2.26178e-05,0.0156365,0.017267590541156785,0.012790507669888873,-8.4520327955806e-05,-0.006354096802710707,-2.2617544219505348e-05,-0.009459405661652043
189,0.019,614.303,46.0225,-7.5391e-05,168.175,-1.29729,-0.344033,0.0172099,-0.00640994,-0.00955768,0.0127768,-8.51439e-05,-2.27845e-05,0.0157324,0.01735884353666406,0.012858772050589495,-8.514027536099533e-05,-0.006389440158902082,-2.27842404352252e-05,-0.0095121505439556
190,0.0191,614.831,46.0658,-7.63664e-05,168.326,-1.30042,-0.34487,0.0172996,-0.00644551,-0.00961093,0.0128442,-8.57646e-05,-2.29514e-05,0.0158284,0.01745010471793207,0.01292704103246467,-8.576092232182031e-05,-0.0064247822579527325,-2.295113661865411e-05,-0.009564892617669019
191,0.0192,615.356,46.1088,-7.73496e-05,168.477,-1.30353,-0.345701,0.0173892,-0.00648107,-0.00966418,0.0129116,-8.6386e-05,-2.31185e-05,0.0159243,0.017541272331562885,0.01299531461582415,-8.638226883694866e-05,-0.006460113164508341,-2.3118232769570035e-05,-0.009617631882941735
192,0.0193,615.88,46.1516,-7.83402e-05,168.627,-1.30662,-0.346527,0.0174789,-0.00651664,-0.00971742,0.012979,-8.7008e-05,-2.32858e-05,0.0160202,0.017632549877427683,0.013063592800978352,-8.700421491369958e-05,-0.0064954527497648185,-2.328552888786195e-05,-0.009670358436627002
193,0.0194,616.4,46.1942,-7.93384e-05,168.776,-1.30968,-0.347348,0.0175685,-0.0065522,-0.00977067,0.0130464,-8.76306e-05,-2.34533e-05,0.0161161,0.017723733838877154,0.01313187558823703,-8.762676055107388e-05,-0.006530781143322506,-2.3453024973529857e-05,-0.009723092085994312
194,0.0195,616.919,46.2367,-8.03438e-05,168.925,-1.31274,-0.348164,0.0176582,-0.00658776,-0.00982391,0.0131138,-8.82539e-05,-2.36209e-05,0.016212,0.017815027752273283,0.013200162977911045,-8.825000573908781e-05,-0.006566108280624872,-2.3620621028785926e-05,-0.009775813025127866
195,0.0196,617.435,46.2789,-8.13565e-05,169.073,-1.31577,-0.348975,0.0177478,-0.00662332,-0.00987714,0.0131812,-8.88779e-05,-2.37887e-05,0.016308,0.01790622806447284,0.013268454970309929,-8.887395047640911e-05,-0.006601434161716435,-2.378841705108492e-05,-0.009828521255758504
196,0.0197,617.95,46.321,-8.23764e-05,169.22,-1.31878,-0.349781,0.0178374,-0.00665888,-0.00993038,0.0132486,-8.95025e-05,-2.39567e-05,0.0164039,0.017997436548586654,0.01333675156574432,-8.949849477069005e-05,-0.006636758786642161,-2.395641304053786e-05,-0.009881236581992359
197,0.0198,618.461,46.3629,-8.34034e-05,169.367,-1.32178,-0.350583,0.017927,-0.00669444,-0.00998361,0.0133159,-9.01277e-05,-2.41248e-05,0.0164998,0.018088653205346583,0.013404951424024203,-9.01236386208204e-05,-0.006672082155446457,-2.412450899935692e-05,-0.009933939201076436
198,0.0199,618.971,46.4046,-8.44373e-05,169.513,-1.32476,-0.351379,0.0180166,-0.00672999,-0.0100368,0.0133833,-9.07536e-05,-2.42931e-05,0.0165958,0.018179878035485153,0.013473257219629664,-9.074948201659438e-05,-0.00670739433524814,-2.4292804924996858e-05,-0.009986599414339548
199,0.02,619.479,46.4461,-8.54781e-05,169.658,-1.32772,-0.352171,0.0181062,-0.00676554,-0.0100901,0.0134507,-9.138e-05,-2.44616e-05,0.0166917,0.018271111039734667,0.013541567619200778,-9.137582497498187e-05,-0.006742705259724091,-2.4461300817457676e-05,-0.010039365722356197
200,0.0201,619.984,46.4875,-8.65257e-05,169.803,-1.33067,-0.352959,0.0181958,-0.00680109,-0.0101433,0.013518,-9.20071e-05,-2.46303e-05,0.0167877,0.01836235221882765,0.013609781262065024,-9.20028674765705e-05,-0.006778014928919052,-2.4629996676628352e-05,-0.010092030227211501
201,0.0202,620.487,46.5287,-8.75801e-05,169.947,-1.33359,-0.353741,0.0182853,-0.00683664,-0.0101965,0.0135854,-9.26348e-05,-2.47991e-05,0.0168836,0.018453499728141365,0.013678100863666831,-9.26305095293456e-05,-0.006813323342877542,-2.479879250483208e-05,-0.010144691930389693
202,0.0203,620.988,46.5697,-8.86411e-05,170.091,-1.3365,-0.354519,0.0183749,-0.00687219,-0.0102497,0.0136527,-9.32631e-05,-2.49681e-05,0.0169795,0.018544757249992827,0.013746323695527307,-9.325875113230797e-05,-0.006848630501644193,-2.496778829963464e-05,-0.010197350832039764
203,0.0204,621.487,46.6105,-8.97086e-05,170.234,-1.33939,-0.355293,0.0184645,-0.00690774,-0.0103029,0.0137201,-9.3892e-05,-2.51373e-05,0.0170755,0.01863602294888489,0.01381465250039926,-9.388759228412535e-05,-0.006883936405263746,-2.513698406070297e-05,-0.010250006932310818
204,0.0205,621.984,46.6512,-9.07827e-05,170.376,-1.34227,-0.356062,0.018554,-0.00694328,-0.0103562,0.0137874,-9.45215e-05,-2.53066e-05,0.0171714,0.018727194952824933,0.01388288452249431,-9.451703298379854e-05,-0.006919231122973102,-2.530627979069333e-05,-0.010302759201080924
205,0.0206,622.479,46.6916,-9.18631e-05,170.518,-1.34513,-0.356827,0.0186435,-0.00697882,-0.0104094,0.0138548,-9.51516e-05,-2.54761e-05,0.0172674,0.018818375117024777,0.013951222531876306,-9.51470732301063e-05,-0.006954524586330391,-2.547577548694946e-05,-0.010355409693775908
206,0.0207,622.972,46.732,-9.29499e-05,170.659,-1.34797,-0.357587,0.018733,-0.00701436,-0.0104626,0.0139221,-9.57823e-05,-2.56457e-05,0.0173633,0.018909563442214505,0.014019463745443828,-9.577771302193838e-05,-0.006989816795380355,-2.564537115179455e-05,-0.010408057385539182
207,0.0208,623.463,46.7721,-9.4043e-05,170.8,-1.3508,-0.358343,0.0188226,-0.0070499,-0.0105158,0.0139895,-9.64135e-05,-2.58156e-05,0.0174593,0.019000861829205462,0.014087810960575542,-9.640885236783525e-05,-0.007025107750167403,-2.5815266780249146e-05,-0.01046070227651974
208,0.0209,623.952,46.8121,-9.51422e-05,170.94,-1.35361,-0.359095,0.0189121,-0.00708543,-0.010569,0.0140568,-9.70453e-05,-2.59855e-05,0.0175552,0.0190920664876868,0.014156061366853434,-9.704059125714704e-05,-0.0070603875213401945,-2.5985162379837945e-05,-0.010513344366866573
209,0.021,624.439,46.8519,-9.62476e-05,171.08,-1.35641,-0.359842,0.0190016,-0.00712097,-0.0106222,0.0141241,-9.76777e-05,-2.61556e-05,0.0176512,0.019183279309350265,0.014224316366538536,-9.767292968876351e-05,-0.007095675968088244,-2.6155257945248422e-05,-0.010565983656728783
210,0.0211,624.924,46.8916,-9.7359e-05,171.219,-1.35919,-0.360585,0.019091,-0.0071565,-0.0106754,0.0141914,-9.83107e-05,-2.63259e-05,0.0177471,0.019274398367481904,0.01429257595993949,-9.830586766146343e-05,-0.007130953232016846,-2.632555347648058e-05,-0.010618620146255253
211,0.0212,625.407,46.9311,-9.84764e-05,171.357,-1.36195,-0.361324,0.0191805,-0.00719203,-0.0107286,0.0142587,-9.89442e-05,-2.64963e-05,0.0178431,0.019365627508578953,0.014360840147365828,-9.893930518412031e-05,-0.007166229242566491,-2.6495948976190675e-05,-0.010671253835594863
212,0.0213,625.888,46.9704,-9.95997e-05,171.495,-1.3647,-0.362059,0.01927,-0.00722756,-0.0107818,0.0143261,-9.95783e-05,-2.66669e-05,0.017939,0.01945686481504949,0.014429210372042478,-9.957334224564018e-05,-0.0072015039997817,-2.6666544441389384e-05,-0.010723884724896715
213,0.0214,626.367,47.0096,-0.000100729,171.632,-1.36743,-0.36279,0.0193594,-0.00726308,-0.0108349,0.0143934,-0.000100213,-2.68376e-05,0.0180349,0.019548008332818556,0.014497483755274043,-0.00010020797884502386,-0.007236767576074832,-2.6837239874843988e-05,-0.01077641389195616
214,0.0215,626.844,47.0486,-0.000101864,171.769,-1.37015,-0.363516,0.0194489,-0.00729861,-0.0108881,0.0144607,-0.000100848,-2.70085e-05,0.0181309,0.019639261963103394,0.014565761733458915,-0.00010084291501133436,-0.007272039827107557,-2.7008135273787204e-05,-0.01082903918689182
215,0.0216,627.319,47.0875,-0.000103004,171.905,-1.37285,-0.364239,0.0195383,-0.00733413,-0.0109413,0.014528,-0.000101484,-2.71795e-05,0.0182269,0.019730421787906183,0.014634044306906402,-0.0001014788506730202,-0.00730730089801257,-2.717913064076427e-05,-0.010881661682236254
216,0.0217,627.793,47.1262,-0.000104151,172.04,-1.37554,-0.364957,0.0196278,-0.00736965,-0.0109945,0.0145953,-0.00010212,-2.73507e-05,0.0183228,0.019821691744925873,0.014702331475925812,-0.0001021147859302518,-0.007342560716466662,-2.7350325973007905e-05,-0.010934281378138455
217,0.0218,628.264,47.1647,-0.000105303,172.176,-1.37821,-0.365672,0.0197172,-0.00740516,-0.0110477,0.0146625,-0.000102757,-2.7522e-05,0.0184188,0.019912867879680496,0.014770521763769029,-0.00010275172068030525,-0.007377809356292286,-2.752162127328539e-05,-0.010986898274747303
218,0.0219,628.734,47.2031,-0.00010646,172.31,-1.38087,-0.366383,0.0198066,-0.00744068,-0.0111008,0.0147298,-0.000103394,-2.76935e-05,0.0185147,0.020004052165945696,0.014838818118030117,-0.00010338865502457217,-0.0074130666703303705,-2.76931165386074e-05,-0.011039413476158
219,0.022,629.202,47.2414,-0.000107623,172.444,-1.38351,-0.36709,0.019896,-0.00747619,-0.011154,0.0147971,-0.000104032,-2.78651e-05,0.0186107,0.02009524460445067,0.01490711906879083,-0.00010402658885910743,-0.007448312806534019,-2.7864711771741213e-05,-0.01109202477988791
220,0.0221,629.668,47.2795,-0.000108791,172.578,-1.38614,-0.367793,0.0199854,-0.00751171,-0.0112072,0.0148644,-0.00010467,-2.80369e-05,0.0187066,0.02018644519592394,0.014975424616360034,-0.00010466452228663492,-0.007483567616334064,-2.8036506969808528e-05,-0.011144633284771
221,0.0222,630.132,47.3175,-0.000109965,172.711,-1.38876,-0.368492,0.0200748,-0.00754721,-0.0112603,0.0149317,-0.000105309,-2.82088e-05,0.0188026,0.02027765394109471,0.015043734761047256,-0.00010530345520187723,-0.007518801324281621,-2.8208402135576627e-05,-0.011197140110675075
222,0.0223,630.595,47.3553,-0.000111144,172.843,-1.39136,-0.369187,0.0201641,-0.00758272,-0.0113135,0.0149989,-0.000105949,-2.83808e-05,0.0188985,0.020368768803809667,0.015111947991962138,-0.00010594338760294697,-0.007554043705914393,-2.8380397268934487e-05,-0.01124974302357129
223,0.0224,631.056,47.3929,-0.000112328,172.975,-1.39394,-0.369879,0.0202535,-0.00761823,-0.0113666,0.0150662,-0.000106588,-2.8553e-05,0.0189945,0.020459993849439417,0.015180267324981678,-0.00010658231970095411,-0.007589284836112431,-2.8552592367003804e-05,-0.011302244268296291
224,0.0225,631.515,47.4305,-0.000113518,173.106,-1.39652,-0.370567,0.0203429,-0.00765373,-0.0114198,0.0151335,-0.000107229,-2.87253e-05,0.0190904,0.020551227050952914,0.015248591256047161,-0.00010722325117629161,-0.007624514791165327,-2.872488743255186e-05,-0.011354841589800047
225,0.0226,631.972,47.4678,-0.000114713,173.237,-1.39908,-0.371252,0.0204322,-0.00768923,-0.011473,0.0152007,-0.00010787,-2.88977e-05,0.0191864,0.020642366344837626,0.015316818253781062,-0.00010786418224073557,-0.007659743495577076,-2.8897282465467633e-05,-0.01140743611320083
226,0.0227,632.427,47.5051,-0.000115912,173.368,-1.40162,-0.371932,0.0205215,-0.00772473,-0.0115261,0.015268,-0.000108511,-2.90703e-05,0.0192823,0.020733513777824397,0.015385151375033157,-0.00010850511289439702,-0.007694970949391977,-2.9069877462872817e-05,-0.011459928984645096
227,0.0228,632.881,47.5422,-0.000117117,173.498,-1.40416,-0.372609,0.0206109,-0.00776023,-0.0115792,0.0153352,-0.000109153,-2.9243e-05,0.0193782,0.020824771433112677,0.015453387549915432,-0.00010914704302800171,-0.007730197152654439,-2.924257242764572e-05,-0.011512419068791968
228,0.0229,633.333,47.5791,-0.000118327,173.627,-1.40667,-0.373283,0.0207002,-0.00779572,-0.0116324,0.0154025,-0.000109795,-2.94158e-05,0.0194742,0.020915935155601195,0.015521729862590483,-0.00010978897274960264,-0.007765412183063036,-2.9415367359564293e-05,-0.01156500520929371
229,0.023,633.784,47.6159,-0.000119542,173.756,-1.40918,-0.373953,0.0207895,-0.00783121,-0.0116855,0.0154697,-0.000110438,-2.95888e-05,0.0195701,0.021007107019373805,0.015589975215855478,-0.00011043190194859331,-0.007800625963712449,-2.9588362255750233e-05,-0.011617489714041196
230,0.0231,634.233,47.6526,-0.000120761,173.885,-1.41167,-0.374619,0.0208788,-0.0078667,-0.0117387,0.0155369,-0.000111081,-2.97619e-05,0.0196661,0.02109828702515726,0.015658225155362304,-0.00011107483073413693,-0.007835838494646974,-2.9761457119081847e-05,-0.011670070264933385
231,0.0232,634.68,47.6892,-0.000121986,174.013,-1.41415,-0.375282,0.0209681,-0.00790219,-0.0117918,0.0156042,-0.000111725,-2.99352e-05,0.019762,0.02118947517367875,0.015726581254072114,-0.0001117187589946278,-0.00787104977591091,-2.993475194634776e-05,-0.011722549190874454
232,0.0233,635.125,47.7256,-0.000123215,174.141,-1.41662,-0.375942,0.0210574,-0.00793767,-0.0118449,0.0156714,-0.000112369,-3.01085e-05,0.019858,0.0212806714656657,0.01579484037381307,-0.00011236268684033934,-0.00790624988661126,-3.010804674363765e-05,-0.011775025330258648
233,0.0234,635.569,47.7618,-0.000124449,174.268,-1.41907,-0.376598,0.0211466,-0.00797316,-0.011898,0.0157386,-0.000113014,-3.0282e-05,0.0199539,0.021371773764662594,0.015863104080721113,-0.00011300761415844462,-0.007941458669019186,-3.0281541504861842e-05,-0.01182749868323374
234,0.0235,636.012,47.798,-0.000125688,174.394,-1.42152,-0.377251,0.0212359,-0.00800864,-0.0119512,0.0158058,-0.000113659,-3.04557e-05,0.0200499,0.021462986336640455,0.015931372375104447,-0.00011365254106054934,-0.007976656281656225,-3.045523622990931e-05,-0.011880068061945859
235,0.0236,636.452,47.834,-0.000126932,174.52,-1.42394,-0.3779,0.0213252,-0.00804412,-0.0120043,0.015873,-0.000114305,-3.06294e-05,0.0201458,0.021554207054264696,0.015999645257271045,-0.00011429846743238326,-0.008011852645504192,-3.062893092475871e-05,-0.011932535837300029
236,0.0237,636.891,47.8698,-0.00012818,174.646,-1.42636,-0.378546,0.0214144,-0.00807959,-0.0120574,0.0159402,-0.000114951,-3.08033e-05,0.0202417,0.02164533375372435,0.01606792272752977,-0.00011494439338699536,-0.008047037841077742,-3.080282558320935e-05,-0.011985000826689296
237,0.0238,637.329,47.9056,-0.000129432,174.771,-1.42877,-0.379189,0.0215036,-0.00811507,-0.0121105,0.0160074,-0.000115598,-3.09773e-05,0.0203377,0.02173646858204803,0.0161362047861886,-0.00011559131880867213,-0.008082231707832288,-3.0976820208361566e-05,-0.012037463030261542
238,0.0239,637.765,47.9412,-0.00013069,174.896,-1.43116,-0.379828,0.0215929,-0.00815054,-0.0121636,0.0160746,-0.000116245,-3.11514e-05,0.0204336,0.021827713722727404,0.016204491433555734,-0.00011623824381179482,-0.008117414407104673,-3.115091480021537e-05,-0.012089922448164758
239,0.024,638.199,47.9767,-0.000131951,175.021,-1.43354,-0.380464,0.0216821,-0.00818601,-0.0122167,0.0161418,-0.000116892,-3.13256e-05,0.0205295,0.021918864820069883,0.016272782669940034,-0.00011688516839636343,-0.008152595858468947,-3.132510935854871e-05,-0.012142379080546828
240,0.0241,638.632,48.012,-0.000133218,175.145,-1.43591,-0.381097,0.0217713,-0.00822147,-0.0122698,0.016209,-0.00011754,-3.15e-05,0.0206255,0.02201002404845287,0.016341078495649475,-0.00011753309244488808,-0.008187766143846975,-3.149950388026124e-05,-0.012194832927555743
241,0.0242,639.063,48.0473,-0.000134488,175.268,-1.43826,-0.381727,0.0218605,-0.00825694,-0.0123229,0.0162762,-0.000118188,-3.16745e-05,0.0207214,0.022101191408602006,0.016409378910992478,-0.00011818101607341536,-0.00822294509987942,-3.167399836834228e-05,-0.012247283989339275
242,0.0243,639.493,48.0824,-0.000135763,175.391,-1.44061,-0.382354,0.0219497,-0.0082924,-0.012376,0.0163434,-0.000118837,-3.18491e-05,0.0208173,0.022192366901242044,0.016477683916277908,-0.00011882993916345619,-0.00825811289071754,-3.1848592822791844e-05,-0.012299732266045416
243,0.0244,639.921,48.1174,-0.000137043,175.514,-1.44294,-0.382977,0.0220389,-0.00832786,-0.0124291,0.0164105,-0.000119486,-3.20238e-05,0.0209133,0.02228355052709885,0.01654589185721944,-0.00011947886183216738,-0.008293279434527956,-3.202328724360992e-05,-0.012352177757821936
244,0.0245,640.348,48.1522,-0.000138327,175.636,-1.44526,-0.383598,0.022128,-0.00836332,-0.0124822,0.0164777,-0.000120136,-3.21986e-05,0.0210092,0.022374640049428907,0.016614206036483115,-0.00012012878395972759,-0.008328444731354745,-3.219808163068549e-05,-0.012404620464816829
245,0.0246,640.773,48.187,-0.000139615,175.758,-1.44757,-0.384215,0.0222172,-0.00839877,-0.0125353,0.0165449,-0.000120786,-3.23736e-05,0.0211051,0.02246583993477569,0.016682524806613586,-0.00012077870566473692,-0.008363598864878363,-3.2373075980696164e-05,-0.012457060387177865
246,0.0247,641.197,48.2216,-0.000140907,175.879,-1.44987,-0.384829,0.0223063,-0.00843423,-0.0125883,0.016612,-0.000121436,-3.25486e-05,0.021201,0.022556945699815367,0.01675074649284003,-0.0001214286269474174,-0.008398761668222399,-3.254807030006468e-05,-0.012509398775997771
247,0.0248,641.62,48.2561,-0.000142203,176.0,-1.45215,-0.38544,0.0223955,-0.00846968,-0.0126414,0.0166792,-0.000122087,-3.27238e-05,0.021297,0.022648161847551584,0.01681907443879771,-0.00012207954768550522,-0.008433913309054741,-3.272326458225727e-05,-0.01256183313477821
248,0.0249,642.041,48.2904,-0.000143504,176.12,-1.45443,-0.386049,0.0224846,-0.00850513,-0.0126945,0.0167463,-0.000122738,-3.28991e-05,0.0213929,0.022739283858197457,0.016887305287812016,-0.0001227304679998209,-0.00846906370378353,-3.2898558830596336e-05,-0.012614264709368106
249,0.025,642.46,48.3247,-0.000144808,176.24,-1.45669,-0.386654,0.0225737,-0.00854057,-0.0127476,0.0168135,-0.00012339,-3.30745e-05,0.0214888,0.022830413988176312,0.01695564241082881,-0.0001233823877669904,-0.008504202937494987,-3.3073953044748805e-05,-0.012666693499915338
250,0.0251,642.878,48.3588,-0.000146117,176.36,-1.45894,-0.387256,0.0226629,-0.00857602,-0.0128006,0.0168806,-0.000124042,-3.325e-05,0.0215847,0.02292165453037165,0.017023882423861547,-0.00012403430710916652,-0.008539350840500615,-3.32494472248257e-05,-0.012719020778474754
251,0.0252,643.295,48.3928,-0.00014743,176.479,-1.46119,-0.387855,0.022752,-0.00861146,-0.0128537,0.0169478,-0.000124694,-3.34256e-05,0.0216806,0.023012800910301223,0.017092228725170466,-0.00012468622602634927,-0.008574487583280055,-3.3425041370827024e-05,-0.012771444006622334
252,0.0253,643.71,48.4268,-0.000148747,176.598,-1.46342,-0.388452,0.0228411,-0.0086469,-0.0129068,0.0170149,-0.000125347,-3.36013e-05,0.0217765,0.023103955411735155,0.01716047790345221,-0.00012533914439305516,-0.008609623080835349,-3.360073548264175e-05,-0.012823864451170452
253,0.0254,644.124,48.4605,-0.000150068,176.717,-1.46564,-0.389045,0.0229302,-0.00868233,-0.0129598,0.017082,-0.000126001,-3.37772e-05,0.0218724,0.023195118035396867,0.01722873166140748,-0.0001259930622073968,-0.00864474741965826,-3.377662955683647e-05,-0.012876183399890162
254,0.0255,644.536,48.4942,-0.000151393,176.835,-1.46785,-0.389636,0.0230192,-0.00871777,-0.0130129,0.0171492,-0.000126654,-3.39531e-05,0.0219683,0.023286186453386426,0.017297091729047587,-0.00012664597972078528,-0.00867988042724921,-3.395252360005596e-05,-0.012928598282924142
255,0.0256,644.947,48.5278,-0.000152722,176.952,-1.47005,-0.390224,0.0231083,-0.0087532,-0.0130659,0.0172163,-0.000127308,-3.41292e-05,0.0220642,0.023377365314557474,0.017365354654098164,-0.00012729989668047725,-0.008715002276898365,-3.41286176054334e-05,-0.012980911680897878
256,0.0257,645.357,48.5612,-0.000154054,177.069,-1.47224,-0.390809,0.0231974,-0.00878862,-0.013119,0.0172834,-0.000127963,-3.43054e-05,0.0221601,0.023468552300126788,0.017433622159744644,-0.00012795481308447432,-0.008750112969703738,-3.430481157651322e-05,-0.013033321003007803
257,0.0258,645.765,48.5945,-0.000155391,177.186,-1.47441,-0.391391,0.0232864,-0.00882405,-0.013172,0.0173505,-0.000128618,-3.44816e-05,0.022256,0.023559645054848977,0.017501894246294558,-0.00012860972905959223,-0.00878523233105799,-3.448100551650679e-05,-0.013085628850824427
258,0.0259,646.172,48.6278,-0.000156731,177.303,-1.47658,-0.391971,0.0233755,-0.00885948,-0.013225,0.0174176,-0.000129273,-3.4658e-05,0.0223519,0.023650848282266823,0.017570170914054994,-0.00012926464460583098,-0.008820350448155434,-3.465739941843626e-05,-0.013137933926398615
259,0.026,646.577,48.6609,-0.000158075,177.419,-1.47874,-0.392547,0.0234645,-0.0088949,-0.0132781,0.0174847,-0.000129928,-3.48345e-05,0.0224478,0.023741957262053415,0.017638452163333707,-0.00012991955972296854,-0.008855457409594591,-3.4833893285846074e-05,-0.013190334910848645
260,0.0261,646.982,48.6939,-0.000159423,177.535,-1.48089,-0.393121,0.0235535,-0.00893032,-0.0133311,0.0175518,-0.000130584,-3.5011e-05,0.0225437,0.023833074350900096,0.017706737994437782,-0.00013057547428063643,-0.008890563127567197,-3.501038712205862e-05,-0.013242634437148681
261,0.0262,647.385,48.7268,-0.000160775,177.65,-1.48302,-0.393692,0.0236425,-0.00896573,-0.0133841,0.0176189,-0.000131241,-3.51877e-05,0.0226396,0.023924199549528513,0.017775028407674975,-0.00013123238827672523,-0.008925657691373878,-3.5187080920096037e-05,-0.013294931191647263
262,0.0263,647.786,48.7596,-0.00016213,177.765,-1.48515,-0.394261,0.0237316,-0.00900115,-0.0134372,0.017686,-0.000131897,-3.53645e-05,0.0227355,0.024015435260198892,0.017843323403352596,-0.0001318883019730821,-0.008960760922896549,-3.536387468339175e-05,-0.013347323839763892
263,0.0264,648.187,48.7922,-0.000163489,177.879,-1.48727,-0.394827,0.0238206,-0.00903656,-0.0134902,0.0177531,-0.000132554,-3.55414e-05,0.0228314,0.024106576689670423,0.017911622981778175,-0.00013254521510674966,-0.008995853001043441,-3.5540768411945756e-05,-0.013399615045871172
264,0.0265,648.586,48.8248,-0.000164852,177.994,-1.48937,-0.39539,0.0239095,-0.00907197,-0.0135432,0.0178201,-0.000133212,-3.57183e-05,0.0229272,0.024197623811322844,0.01797982534527165,-0.00013320312767550746,-0.009030943836601746,-3.571766210908045e-05,-0.013451903480617977
265,0.0266,648.983,48.8573,-0.000166219,178.107,-1.49147,-0.395951,0.0239985,-0.00910737,-0.0135962,0.0178872,-0.000133869,-3.58954e-05,0.0230231,0.024288781456297093,0.01804813408328476,-0.00013386003994519946,-0.009066023520275857,-3.5894755767817976e-05,-0.01350418914415119
266,0.0267,649.38,48.8896,-0.000167589,178.221,-1.49356,-0.396509,0.0240875,-0.00914278,-0.0136492,0.0179543,-0.000134528,-3.60726e-05,0.023119,0.024379947214662634,0.018116447404968206,-0.0001345189515143952,-0.009101111871140044,-3.607194939159175e-05,-0.013556472036617695
267,0.0268,649.775,48.9219,-0.000168962,178.334,-1.49564,-0.397064,0.0241765,-0.00917818,-0.0137022,0.0180213,-0.000135186,-3.62499e-05,0.0232149,0.024471121087142,0.018184663492157638,-0.0001351768627844141,-0.00913618907090974,-3.624924298029075e-05,-0.013608752158164261
268,0.0269,650.169,48.954,-0.000170339,178.447,-1.49771,-0.397617,0.0242654,-0.00921358,-0.0137552,0.0180884,-0.000135845,-3.64272e-05,0.0233107,0.024562200618231778,0.018252985975271585,-0.0001358357734857485,-0.009171265028968478,-3.642653653757044e-05,-0.013661029508937883
269,0.027,650.562,48.9861,-0.00017172,178.559,-1.49977,-0.398167,0.0243544,-0.00924897,-0.0138082,0.0181554,-0.000136504,-3.66047e-05,0.0234066,0.02465339071198569,0.01832121121085195,-0.00013649468375287466,-0.009206329837423644,-3.6604030056119896e-05,-0.013713304089085332
270,0.0271,650.953,49.018,-0.000173104,178.671,-1.50181,-0.398715,0.0244433,-0.00928437,-0.0138612,0.0182225,-0.000137164,-3.67822e-05,0.0235025,0.02474448644756544,0.018389542856625196,-0.00013715459344865177,-0.009241403312543306,-3.6781523543139016e-05,-0.01376557589875338
271,0.0272,651.343,49.0499,-0.000174492,178.783,-1.50385,-0.39926,0.0245322,-0.00931976,-0.0139142,0.0182895,-0.000137824,-3.69599e-05,0.0235983,0.024835590281916176,0.01845777724182307,-0.0001378145027088884,-0.009276465638848541,-3.695921699131688e-05,-0.013817844938089019
272,0.0273,651.732,49.0816,-0.000175883,178.894,-1.50589,-0.399803,0.0246211,-0.00935515,-0.0139672,0.0183566,-0.000138484,-3.71376e-05,0.0236942,0.024926702215757768,0.018526118051484408,-0.0001384744115334735,-0.009311526724320007,-3.7136910407853385e-05,-0.013870111207238911
273,0.0274,652.12,49.1132,-0.000177277,179.005,-1.50791,-0.400344,0.02471,-0.00939053,-0.0140202,0.0184236,-0.000139144,-3.73155e-05,0.02379,0.025017822249810084,0.01859436158752681,-0.00013913431992262915,-0.00934657666246741,-3.731480378543761e-05,-0.013922374706349938
274,0.0275,652.506,49.1448,-0.000178675,179.115,-1.50992,-0.400881,0.0247989,-0.00942592,-0.0140732,0.0184906,-0.000139805,-3.74934e-05,0.0238859,0.02510895038479366,0.01866260969603939,-0.00013979522773643893,-0.00938163526675373,-3.749269713126946e-05,-0.013974635435568983
275,0.0276,652.892,49.1762,-0.000180077,179.226,-1.51192,-0.401417,0.0248878,-0.0094613,-0.0141261,0.0185577,-0.000140466,-3.76714e-05,0.0239817,0.025200086621428586,0.018730964250419646,-0.00014045613511337596,-0.009416682724504799,-3.7670690441693466e-05,-0.01402679479772706
276,0.0277,653.276,49.2076,-0.000181481,179.336,-1.51392,-0.40195,0.0249767,-0.00949668,-0.0141791,0.0186247,-0.000141128,-3.78495e-05,0.0240776,0.025291230960435174,0.01879922151161706,-0.0001411180419123026,-0.009451728942298732,-3.784878371670963e-05,-0.014079049992827941
277,0.0278,653.659,49.2388,-0.000182889,179.445,-1.5159,-0.402481,0.0250656,-0.00953205,-0.0142321,0.0186917,-0.00014179,-3.80277e-05,0.0241734,0.025382383402533515,0.01886748334620414,-0.0001417799482730242,-0.009486764015047111,-3.802697695620694e-05,-0.014131302418476821
278,0.0279,654.041,49.27,-0.000184301,179.554,-1.51788,-0.403009,0.0251544,-0.00956742,-0.014285,0.0187587,-0.000142452,-3.8206e-05,0.0242692,0.025473441401094865,0.01893574975448753,-0.0001424418541956518,-0.009521797848626945,-3.8205270160074356e-05,-0.014183453493170739
279,0.028,654.421,49.301,-0.000185715,179.663,-1.51985,-0.403535,0.0252433,-0.00960279,-0.014338,0.0188257,-0.000143114,-3.83844e-05,0.0243651,0.02556461004242161,0.01900402073677343,-0.00014310375968007438,-0.009556830443081865,-3.838366332831189e-05,-0.014235700385580752
280,0.0281,654.801,49.332,-0.000187133,179.772,-1.52181,-0.404058,0.0253321,-0.00963816,-0.014391,0.0188927,-0.000143777,-3.85629e-05,0.0244609,0.025655684223427233,0.019072296293368485,-0.00014376666458248977,-0.009591861798455947,-3.856215646091954e-05,-0.014287944508978856
281,0.0282,655.179,49.3628,-0.000188554,179.88,-1.52376,-0.40458,0.025421,-0.00967353,-0.0144439,0.0189597,-0.00014444,-3.87414e-05,0.0245567,0.025746869066860745,0.019140576424578892,-0.00014442956904536786,-0.009626891914792934,-3.874064956166379e-05,-0.014340087297525339
282,0.0283,655.556,49.3936,-0.000189978,179.988,-1.5257,-0.405098,0.0255098,-0.00970889,-0.0144969,0.0190267,-0.000145104,-3.892e-05,0.0246526,0.02583795943318634,0.01920886113071152,-0.00014509347292379626,-0.009661910888755676,-3.891924262666713e-05,-0.014392325888563762
283,0.0284,655.932,49.4243,-0.000191406,180.095,-1.52763,-0.405615,0.0255986,-0.00974425,-0.0145498,0.0190937,-0.000145768,-3.90988e-05,0.0247484,0.025929057888695706,0.019277150412072563,-0.00014575737636124408,-0.00969692862446947,-3.909803565183001e-05,-0.014444463155481313
284,0.0285,656.307,49.4548,-0.000192836,180.203,-1.52956,-0.406129,0.0256874,-0.00977961,-0.0146027,0.0191606,-0.000146432,-3.92776e-05,0.0248442,0.02602016443410693,0.019345342334429638,-0.00014642127935793336,-0.009731945121977947,-3.927682864512949e-05,-0.014496597664410471
285,0.0286,656.681,49.4853,-0.00019427,180.31,-1.53147,-0.406642,0.0257762,-0.00981496,-0.0146557,0.0192276,-0.000147096,-3.94565e-05,0.02494,0.02611127907013855,0.019413640760337803,-0.0001470851819138641,-0.009766950478994563,-3.945572160257704e-05,-0.014548827960619182
286,0.0287,657.053,49.5157,-0.000195707,180.416,-1.53338,-0.407151,0.025865,-0.00985031,-0.0147086,0.0192946,-0.000147761,-3.96354e-05,0.0250358,0.026202401797509323,0.01948194376239365,-0.00014775008388112632,-0.009801954598593676,-3.963461452793915e-05,-0.014600956948796151
287,0.0288,657.425,49.546,-0.000197147,180.522,-1.53528,-0.407659,0.0259538,-0.00988566,-0.0147615,0.0193615,-0.000148426,-3.98145e-05,0.0251316,0.026293532616937343,0.019550149385884064,-0.0001484149854061867,-0.00983695748081903,-3.9813707413349775e-05,-0.01465308317942271
288,0.0289,657.795,49.5762,-0.00019859,180.628,-1.53717,-0.408164,0.0260426,-0.00992101,-0.0148145,0.0194285,-0.000149091,-3.99936e-05,0.0252274,0.02638467152914159,0.019618461534324227,-0.00014907988648915627,-0.009871959125714369,-3.9992800266674955e-05,-0.014705305182118877
289,0.029,658.164,49.6064,-0.000200036,180.734,-1.53905,-0.408668,0.0261313,-0.00995636,-0.0148674,0.0194955,-0.000149757,-4.01729e-05,0.0253232,0.026475715887263718,0.019686778259831783,-0.00014974578698023766,-0.009906959533323434,-4.017209307982661e-05,-0.014757425892869769
290,0.0291,658.532,49.6364,-0.000201485,180.839,-1.54093,-0.409169,0.0262201,-0.0099917,-0.0149203,0.0195624,-0.000150423,-4.03522e-05,0.025419,0.026566870978060653,0.019754997587208445,-0.00015041168702778496,-0.009941948803109502,-4.035138586089282e-05,-0.014809543846508011
291,0.0292,658.9,49.6663,-0.000202938,180.944,-1.5428,-0.409668,0.0263088,-0.010027,-0.0149732,0.0196294,-0.000151089,-4.05315e-05,0.0255148,0.026657931497990894,0.01982332346093818,-0.00015107758663190918,-0.009976897235473237,-4.053067860987358e-05,-0.014861659043179376
292,0.0293,659.266,49.6962,-0.000204393,181.049,-1.54465,-0.410164,0.0263976,-0.0100624,-0.0150261,0.0196963,-0.000151755,-4.0711e-05,0.0256106,0.026749102770252442,0.019891551923494344,-0.00015174348579238828,-0.010011943432989723,-4.0710171318458777e-05,-0.014913771483029858
293,0.0294,659.631,49.726,-0.000205851,181.153,-1.54651,-0.410659,0.0264863,-0.0100977,-0.015079,0.0197632,-0.000152422,-4.08905e-05,0.0257064,0.026840179454859392,0.019959784950687176,-0.00015241038435709342,-0.010046889394586755,-4.08896639948475e-05,-0.01496588116620512
294,0.0295,659.994,49.7556,-0.000207312,181.258,-1.54835,-0.411151,0.026575,-0.010133,-0.0151319,0.0198302,-0.000153089,-4.10702e-05,0.0258021,0.02693126421832659,0.020028124545629744,-0.00015307728247704322,-0.010081834122612987,-4.106935663084066e-05,-0.015017988092851042
295,0.0296,660.357,49.7852,-0.000208776,181.361,-1.55018,-0.411642,0.0266637,-0.0101684,-0.0151848,0.0198971,-0.000153756,-4.12499e-05,0.0258979,0.027022357061370572,0.020096366709836833,-0.00015374418015201563,-0.010116876605429481,-4.1249049234526325e-05,-0.01507009226311351
296,0.0297,660.719,49.8147,-0.000210243,181.465,-1.55201,-0.41213,0.0267524,-0.0102037,-0.0152377,0.019964,-0.000154424,-4.14296e-05,0.0259937,0.0271134579847081,0.020164613439597412,-0.00015441207722788342,-0.010151818862950801,-4.142874180601552e-05,-0.015122193677138185
297,0.0298,661.08,49.8441,-0.000211713,181.568,-1.55383,-0.412616,0.0268411,-0.010239,-0.0152906,0.0200309,-0.000155092,-4.16095e-05,0.0260894,0.027204566989055934,0.020232864735216793,-0.00015507997385744154,-0.010186759887032215,-4.1608634336776085e-05,-0.01517429233507106
298,0.0299,661.44,49.8735,-0.000213186,181.671,-1.55564,-0.4131,0.0269298,-0.0102743,-0.0153435,0.0200978,-0.00015576,-4.17894e-05,0.0261852,0.027295684075131055,0.020301120597000732,-0.00015574787004102308,-0.010221699677717355,-4.1788526835229156e-05,-0.015226388237057797
299,0.03,661.798,49.9027,-0.000214662,181.773,-1.55745,-0.413582,0.0270185,-0.0103096,-0.0153964,0.0201647,-0.000156429,-4.19694e-05,0.026281,0.02738680924365,0.02036938102525454,-0.00015641676562194728,-0.01025663823504952,-4.196851929705314e-05,-0.015278481383244169
300,0.0301,662.156,49.9319,-0.000216141,181.876,-1.55924,-0.414062,0.0271071,-0.010345,-0.0154493,0.0202316,-0.000157097,-4.21495e-05,0.0263767,0.02747783974754059,0.02043764602028375,-0.00015708466091246542,-0.010291674529909978,-4.2148611722359064e-05,-0.015330571773776058
301,0.0302,662.513,49.961,-0.000217622,181.978,-1.56103,-0.414541,0.0271958,-0.0103803,-0.0155022,0.0202985,-0.000157766,-4.23296e-05,0.0264725,0.02756898107398431,0.020505915582393897,-0.00015775355559910498,-0.010326610617173437,-4.232870411513545e-05,-0.015382659408799126
302,0.0303,662.868,49.99,-0.000219106,182.079,-1.56281,-0.415017,0.0272845,-0.0104156,-0.015555,0.0203654,-0.000158435,-4.25099e-05,0.0265682,0.02766013048502214,0.02057418971189051,-0.00015842244983821363,-0.010361545471214817,-4.250899646696116e-05,-0.015434645831928662
303,0.0304,663.223,50.0189,-0.000220593,182.181,-1.56459,-0.415491,0.0273731,-0.0104509,-0.0156079,0.0204323,-0.000159105,-4.26901e-05,0.026664,0.027751185206247753,0.02064246840907935,-0.00015909234347077916,-0.010396479092077748,-4.268918879068995e-05,-0.015486727961579683
304,0.0305,663.576,50.0477,-0.000222083,182.282,-1.56635,-0.415963,0.0274617,-0.0104862,-0.0156608,0.0204992,-0.000159775,-4.28705e-05,0.0267597,0.027842247995279124,0.020710751674265504,-0.00015976223665448153,-0.01043141147980553,-4.286958107324601e-05,-0.015538807336158866
305,0.0306,663.929,50.0764,-0.000223576,182.383,-1.56811,-0.416433,0.0275503,-0.0105215,-0.0157136,0.0205661,-0.000160445,-4.3051e-05,0.0268554,0.02793331885283079,0.02077903950775517,-0.00016043212938932072,-0.010466342634441683,-4.305007331895094e-05,-0.015590785514895567
306,0.0307,664.281,50.1051,-0.000225071,182.483,-1.56987,-0.416901,0.027639,-0.0105568,-0.0157665,0.0206329,-0.000161115,-4.32315e-05,0.0269512,0.02802450058206296,0.020847229825125435,-0.00016110202167540777,-0.01050127255602995,-4.323056553212634e-05,-0.015642859384975782
307,0.0308,664.631,50.1337,-0.000226569,182.584,-1.57161,-0.417367,0.0277276,-0.0105921,-0.0158193,0.0206998,-0.000161786,-4.34121e-05,0.0270469,0.02811558758790933,0.020915526789308858,-0.00016177291335084387,-0.010536201244613741,-4.341115770845061e-05,-0.015694832069909292
308,0.0309,664.981,50.1622,-0.00022807,182.684,-1.57335,-0.417832,0.0278161,-0.0106274,-0.0158722,0.0207666,-0.000162456,-4.35927e-05,0.0271426,0.02820657984375874,0.020983726224333976,-0.00016244280473853845,-0.010571128700236687,-4.35917498520233e-05,-0.01574690043607241
309,0.031,665.33,50.1906,-0.000229574,182.783,-1.57508,-0.418294,0.0279047,-0.0106627,-0.015925,0.0208335,-0.000163128,-4.37734e-05,0.0272383,0.028297682982542316,0.021052032320431957,-0.0001631146953512408,-0.010606054922942088,-4.3772441958744857e-05,-0.015798867627783486
310,0.0311,665.677,50.219,-0.00023108,182.883,-1.5768,-0.418754,0.0279933,-0.010698,-0.0159779,0.0209004,-0.000163799,-4.39542e-05,0.027334,0.028388794193421774,0.021120342986360452,-0.0001637855856762016,-0.010640979912773574,-4.395323402828222e-05,-0.015850930490611037
311,0.0312,666.024,50.2472,-0.000232589,182.982,-1.57852,-0.419213,0.0280819,-0.0107332,-0.0160307,0.0209672,-0.00016447,-4.41351e-05,0.0274297,0.028479913477111873,0.021188556103564737,-0.00016445647555096699,-0.010675804737360184,-4.4134126060857426e-05,-0.015902892189680218
312,0.0313,666.37,50.2754,-0.000234101,183.081,-1.58023,-0.41967,0.0281704,-0.0107685,-0.0160835,0.021034,-0.000165142,-4.4316e-05,0.0275254,0.028570937977229427,0.021256773777557303,-0.0001651283648105295,-0.010710727265066722,-4.431501806057003e-05,-0.015954851145244087
313,0.0314,666.715,50.3035,-0.000235615,183.179,-1.58193,-0.420125,0.028259,-0.0108038,-0.0161364,0.0211009,-0.000165814,-4.4497e-05,0.0276211,0.028662073399573718,0.02132509814114747,-0.0001658002536184533,-0.010745648560029686,-4.4496010023209465e-05,-0.01600690575676189
314,0.0315,667.059,50.3316,-0.000237132,183.278,-1.58363,-0.420578,0.0283475,-0.0108391,-0.0161892,0.0211677,-0.000166487,-4.46781e-05,0.0277168,0.02875311402155778,0.021393324936453073,-0.0001664731418085097,-0.010780568622292819,-4.467710194855368e-05,-0.0160588592205545
315,0.0316,667.402,50.3595,-0.000238651,183.376,-1.58531,-0.421029,0.0284361,-0.0108744,-0.016242,0.0212345,-0.000167159,-4.48592e-05,0.0278125,0.02884426558541464,0.02146155628946045,-0.00016714502971282297,-0.01081548745189953,-4.485819384114631e-05,-0.01611080994127656
316,0.0317,667.744,50.3874,-0.000240173,183.474,-1.587,-0.421478,0.0285246,-0.0109096,-0.0162948,0.0213013,-0.000167832,-4.50404e-05,0.0279082,0.028935322332120483,0.021529792200474684,-0.00016781791699771453,-0.010850306133928789,-4.503938569644372e-05,-0.016162757919072956
317,0.0318,668.085,50.4152,-0.000241698,183.571,-1.58867,-0.421926,0.0286131,-0.0109449,-0.0163476,0.0213682,-0.000168505,-4.52216e-05,0.0280039,0.029026387137705223,0.021598134829608373,-0.00016849080382985715,-0.01088522250184476,-4.5220577518878535e-05,-0.016214703154088572
318,0.0319,668.425,50.4429,-0.000243225,183.668,-1.59034,-0.422372,0.0287016,-0.0109802,-0.0164004,0.021435,-0.000169178,-4.5403e-05,0.0280995,0.029117460002881623,0.02166637986437392,-0.0001691636902091398,-0.01092013763723465,-4.5401969299363465e-05,-0.01626664564646818
319,0.032,668.764,50.4706,-0.000244755,183.765,-1.592,-0.422816,0.0287901,-0.0110154,-0.0164532,0.0215018,-0.000169852,-4.55844e-05,0.0281952,0.029208540928363558,0.021734629458059818,-0.00016983757596567006,-0.010954952635642279,-4.558336104698579e-05,-0.016318585396356555
320,0.0321,669.103,50.4982,-0.000246287,183.862,-1.59366,-0.423258,0.0288786,-0.0110507,-0.016506,0.0215686,-0.000170525,-4.57658e-05,0.0282909,0.02929962991486379,0.021802883610970936,-0.00017051046143856663,-0.010989865309601887,-4.576475276174552e-05,-0.01637052240389858
321,0.0322,669.44,50.5257,-0.000247822,183.959,-1.5953,-0.423698,0.0289671,-0.0110859,-0.0165588,0.0216354,-0.000171199,-4.59473e-05,0.0283865,0.029390726963096192,0.021871142323411696,-0.00017118434628748957,-0.011024677853638698,-4.594624443898798e-05,-0.016422456669238916
322,0.0323,669.777,50.5531,-0.000249359,184.055,-1.59695,-0.424137,0.0290555,-0.0111212,-0.0166116,0.0217021,-0.000171874,-4.61289e-05,0.0284822,0.02948172912559599,0.02193930340175143,-0.00017185923051021845,-0.011059588066341552,-4.612783607860216e-05,-0.01647438819252256
323,0.0324,670.112,50.5805,-0.000250899,184.151,-1.59858,-0.424574,0.029144,-0.0111564,-0.0166644,0.0217689,-0.000172548,-4.63106e-05,0.0285779,0.029572842290321866,0.02200757122733865,-0.00017253311444997976,-0.011094398156180407,-4.630952768069907e-05,-0.016526316973894062
324,0.0325,670.447,50.6077,-0.000252442,184.247,-1.60021,-0.425009,0.0292324,-0.0111917,-0.0167172,0.0218357,-0.000173223,-4.64923e-05,0.0286735,0.02966386055252812,0.022075843613369006,-0.00017320799776243678,-0.011129305907800036,-4.649121924982236e-05,-0.016578243013498306
325,0.0326,670.781,50.635,-0.000253986,184.342,-1.60183,-0.425443,0.0293209,-0.0112269,-0.01677,0.0219025,-0.000173897,-4.6674e-05,0.0287691,0.0297549898365983,0.022144120560146918,-0.00017388188079314748,-0.01116411354361413,-4.6672910785861e-05,-0.016630166311480066
326,0.0327,671.114,50.6621,-0.000255534,184.437,-1.60345,-0.425874,0.0294093,-0.0112622,-0.0168227,0.0219692,-0.000174573,-4.68559e-05,0.0288648,0.029846024201359622,0.022212299846742223,-0.00017455776302055526,-0.01119901883432406,-4.685480227950567e-05,-0.016681988536187853
327,0.0328,671.446,50.6892,-0.000257083,184.532,-1.60506,-0.426304,0.0294977,-0.0112974,-0.0168755,0.022036,-0.000175248,-4.70377e-05,0.0289604,0.029937066613914265,0.02228058590910109,-0.0001752326449662167,-0.011233824016286253,-4.7036593744720356e-05,-0.0167339063565507
328,0.0329,671.777,50.7162,-0.000258635,184.627,-1.60666,-0.426733,0.0295862,-0.0113327,-0.0169283,0.0221028,-0.000175923,-4.72197e-05,0.029056,0.030028220077791046,0.02234887653312123,-0.00017590752645646468,-0.011268726846259902,-4.721858516754107e-05,-0.016785821435724824
329,0.033,672.108,50.7431,-0.00026019,184.721,-1.60826,-0.42716,0.0296746,-0.0113679,-0.016981,0.0221695,-0.000176599,-4.74017e-05,0.0291517,0.030119278597173116,0.022417069477395524,-0.00017658340731452338,-0.01130352957454328,-4.740057655716612e-05,-0.016837635457623734
330,0.0331,672.437,50.7699,-0.000261747,184.815,-1.60985,-0.427585,0.029763,-0.0114031,-0.0170338,0.0222363,-0.000177275,-4.75838e-05,0.0292473,0.03021034516648413,0.022485369218822493,-0.00017725928771561428,-0.011338331077792252,-4.7582667908940834e-05,-0.01688954506004603
331,0.0332,672.766,50.7967,-0.000263306,184.909,-1.61143,-0.428008,0.0298513,-0.0114383,-0.0170866,0.022303,-0.000177951,-4.77659e-05,0.0293429,0.03030131675629888,0.02255357126746249,-0.00017793516765995943,-0.011373131356049782,-4.776475922751988e-05,-0.01694145192171359
332,0.0333,673.094,50.8234,-0.000264868,185.003,-1.61301,-0.42843,0.0299397,-0.0114736,-0.0171393,0.0223697,-0.000178628,-4.79481e-05,0.0294385,0.030392399418494476,0.022621777865330817,-0.0001786120469686736,-0.011408029268561215,-4.79469505082486e-05,-0.01699325774210203
333,0.0334,673.421,50.8501,-0.000266432,185.097,-1.61459,-0.42885,0.0300281,-0.0115088,-0.017192,0.0224365,-0.000179304,-4.81303e-05,0.0295341,0.03048349013275331,0.022690091281734937,-0.00017928792599852805,-0.011442827093485652,-4.8129141755670624e-05,-0.017045060832395542
334,0.0335,673.747,50.8766,-0.000267999,185.19,-1.61615,-0.429268,0.0301165,-0.011544,-0.0172448,0.0225032,-0.000179981,-4.83126e-05,0.0296297,0.03057458889978726,0.022758306985791732,-0.00017996480439141926,-0.011477623693548211,-4.8311432965131296e-05,-0.017096959483047236
335,0.0336,674.072,50.9031,-0.000269568,185.283,-1.61771,-0.429685,0.0302048,-0.0115792,-0.0172975,0.0225699,-0.000180658,-4.84949e-05,0.0297253,0.0306655926537438,0.022826527239987904,-0.00018064168232612143,-0.011512419068791968,-4.84937241413963e-05,-0.017148757108403023
336,0.0337,674.397,50.9296,-0.000271139,185.376,-1.61927,-0.4301,0.0302932,-0.0116144,-0.0173503,0.0226366,-0.000181335,-4.86774e-05,0.0298209,0.030756707519352,0.022894752044626765,-0.00018131855980263456,-0.01154721321926011,-4.86762152746012e-05,-0.017200650284035834
337,0.0338,674.72,50.9559,-0.000272712,185.468,-1.62082,-0.430514,0.0303815,-0.0116497,-0.017403,0.0227034,-0.000182013,-4.88598e-05,0.0299165,0.03084772735509267,0.022963083696315056,-0.0001819964366388538,-0.011582104986790132,-4.885860637937611e-05,-0.017252442445030436
338,0.0339,675.043,50.9822,-0.000274288,185.56,-1.62236,-0.430926,0.0304698,-0.0116849,-0.0174557,0.0227701,-0.00018269,-4.90423e-05,0.030012,0.030938755228239634,0.023031317609573332,-0.00018267331319810065,-0.01161689668435717,-4.904109744607865e-05,-0.01730423187665009
339,0.034,675.365,51.0085,-0.000275866,185.652,-1.62389,-0.431337,0.0305581,-0.0117201,-0.0175084,0.0228368,-0.000183368,-4.92249e-05,0.0301076,0.03102979113950255,0.023099556074185346,-0.00018335118911583237,-0.011651687157277935,-4.922368847448677e-05,-0.017356018579038568
340,0.0341,675.686,51.0346,-0.000277446,185.744,-1.62542,-0.431746,0.0306465,-0.0117553,-0.0175612,0.0229035,-0.000184046,-4.94075e-05,0.0302032,0.031120938201679937,0.023167799090454855,-0.00018402906457393176,-0.011686476405595614,-4.94062794695882e-05,-0.017407900811554633
341,0.0342,676.007,51.0607,-0.000279029,185.836,-1.62695,-0.432153,0.0307348,-0.0117905,-0.0176139,0.0229701,-0.000184724,-4.95902e-05,0.0302987,0.031211990200409767,0.0232359443350858,-0.0001847069395723988,-0.011721264429353284,-4.958897042639521e-05,-0.017459682050734227
342,0.0343,676.326,51.0868,-0.000280614,185.927,-1.62847,-0.432559,0.030823,-0.0118257,-0.0176666,0.0230368,-0.000185403,-4.9773e-05,0.0303943,0.03130294710908621,0.023304196448755476,-0.00018538581392590903,-0.011756051228594133,-4.977176134479677e-05,-0.01751146056111441
343,0.0344,676.645,51.1127,-0.000282201,186.018,-1.62998,-0.432963,0.0309113,-0.0118609,-0.0177193,0.0231035,-0.000186081,-4.99558e-05,0.0304898,0.03139401517991214,0.023372453114993252,-0.0001860636880045563,-0.011790836803361238,-4.9954552229780624e-05,-0.01756323634283896
344,0.0345,676.963,51.1386,-0.00028379,186.109,-1.63149,-0.433366,0.0309996,-0.0118961,-0.017772,0.0231702,-0.00018676,-5.01386e-05,0.0305854,0.03148509129240362,0.02344071433410222,-0.00018674256143680346,-0.011825621153697563,-5.0137343081346764e-05,-0.017615009396051762
345,0.0346,677.28,51.1645,-0.000285382,186.2,-1.63299,-0.433767,0.0310879,-0.0119312,-0.0178247,0.0232369,-0.000187439,-5.03215e-05,0.0306809,0.03157617544727098,0.02350898010638658,-0.00018742143440819703,-0.011860305465681842,-5.032023389450746e-05,-0.017666779720896586
346,0.0347,677.596,51.1902,-0.000286976,186.29,-1.63449,-0.434167,0.0311761,-0.0119664,-0.0178774,0.0233035,-0.000188118,-5.05044e-05,0.0307765,0.03166716447850271,0.023577148074429788,-0.00018810030691851498,-0.011895087370764279,-5.0503124674250444e-05,-0.017718547317517097
347,0.0348,677.912,51.2159,-0.000288572,186.38,-1.63598,-0.434565,0.0312644,-0.0120016,-0.0179301,0.0233702,-0.000188798,-5.06874e-05,0.030872,0.03175826471114229,0.02364542294714811,-0.00018878017877910214,-0.011929868051545278,-5.068611541547696e-05,-0.01777031218605718
348,0.0349,678.227,51.2416,-0.00029017,186.47,-1.63746,-0.434962,0.0313526,-0.0120368,-0.0179827,0.0234368,-0.000189477,-5.08705e-05,0.0309675,0.03184926980335545,0.023713600002587043,-0.00018945905036693578,-0.011964647508067916,-5.0869206118075994e-05,-0.017821976108863158
349,0.035,678.541,51.2672,-0.00029177,186.56,-1.63894,-0.435357,0.0314408,-0.012072,-0.0180354,0.0235035,-0.000190157,-5.10536e-05,0.031063,0.03194028292257167,0.023781883976952578,-0.00019013892130359533,-0.011999425740375158,-5.105229678714629e-05,-0.017873735526849566
350,0.0351,678.854,51.2927,-0.000293373,186.65,-1.64042,-0.435751,0.0315291,-0.0121071,-0.0180881,0.0235701,-0.000190837,-5.12367e-05,0.0311585,0.03203140727263465,0.023850070120998712,-0.00019081879177795802,-0.01203410395192539,-5.123538742268785e-05,-0.017925492217186534
351,0.0352,679.167,51.3181,-0.000294978,186.739,-1.64189,-0.436143,0.0316173,-0.0121423,-0.0181408,0.0236368,-0.000191517,-5.14199e-05,0.0312541,0.032122436457084014,0.023918363198224712,-0.00019149866179002384,-0.012068879739408844,-5.1418578019601924e-05,-0.017977246180017836
352,0.0353,679.478,51.3435,-0.000296584,186.828,-1.64335,-0.436534,0.0317055,-0.0121775,-0.0181934,0.0237034,-0.000192197,-5.16032e-05,0.0313496,0.03221347367066163,0.023986558432089744,-0.0001921785313397928,-0.012103654302806133,-5.160186857777749e-05,-0.01802889921838191
353,0.0354,679.789,51.3688,-0.000298193,186.917,-1.64481,-0.436924,0.0317937,-0.0122126,-0.0182461,0.02377,-0.000192878,-5.17865e-05,0.0314451,0.0323045189140756,0.0240547582079087,-0.00019285940023439085,-0.012138328855998193,-5.1785159102313294e-05,-0.018080647731807842
354,0.0355,680.099,51.3941,-0.000299804,187.006,-1.64626,-0.437311,0.0318819,-0.0122478,-0.0182988,0.0238366,-0.000193558,-5.19698e-05,0.0315406,0.03239557218803424,0.024122962525983782,-0.00019353926885889994,-0.012173100974829487,-5.1968449593320365e-05,-0.018132393518158874
355,0.0356,680.409,51.4193,-0.000301418,187.094,-1.64771,-0.437698,0.03197,-0.012283,-0.0183514,0.0239033,-0.000194239,-5.21532e-05,0.031636,0.032486530244587586,0.024191273805740154,-0.00019422013682679484,-0.012207871869703846,-5.2151840045477904e-05,-0.01818403839598759
356,0.0357,680.718,51.4444,-0.000303033,187.182,-1.64915,-0.438083,0.0320582,-0.0123181,-0.0184041,0.0239699,-0.00019492,-5.23367e-05,0.0317315,0.03257759957265338,0.024259487216057085,-0.0001949010043310606,-0.012242542764923536,-5.233533045878591e-05,-0.018235778733794228
357,0.0358,681.026,51.4695,-0.000304651,187.27,-1.65058,-0.438467,0.0321464,-0.0123533,-0.0184567,0.0240365,-0.000195601,-5.25202e-05,0.031827,0.032668676933388374,0.024327705169538305,-0.00019558187137158622,-0.012277311215489806,-5.251882083845416e-05,-0.018287418173703718
358,0.0359,681.333,51.4945,-0.00030627,187.358,-1.65202,-0.438849,0.0322345,-0.0123884,-0.0185093,0.0241031,-0.000196282,-5.27037e-05,0.0319225,0.032759659051529555,0.02439592766648646,-0.0001962627379484827,-0.012311979673431228,-5.270231118437163e-05,-0.018339054897450024
359,0.036,681.639,51.5195,-0.000307892,187.446,-1.65344,-0.43923,0.0323227,-0.0124236,-0.018562,0.0241697,-0.000196964,-5.28873e-05,0.0320179,0.03285075247061853,0.0244641547072042,-0.0001969446038647682,-0.012346745679861382,-5.288590149143957e-05,-0.01839078706610231
360,0.0361,681.945,51.5444,-0.000309515,187.533,-1.65486,-0.43961,0.0324108,-0.0124587,-0.0186146,0.0242363,-0.000197646,-5.30709e-05,0.0321134,0.03294175063032134,0.02453238629199439,-0.0001976264693160923,-0.012381411700695844,-5.3069491764645704e-05,-0.018442418352787926
361,0.0362,682.25,51.5692,-0.000311141,187.62,-1.65628,-0.439988,0.0324989,-0.0124939,-0.0186672,0.0243029,-0.000198327,-5.32546e-05,0.0322088,0.03303275680731521,0.024600622421159235,-0.00019830733450065807,-0.012416175263161633,-5.325318199900231e-05,-0.018494046923739238
362,0.0363,682.554,51.594,-0.000312769,187.707,-1.65769,-0.440364,0.032587,-0.012529,-0.0187199,0.0243694,-0.000199009,-5.34383e-05,0.0323043,0.033123771002306235,0.024668760628120623,-0.00019898919902250345,-0.012450838847060441,-5.343687219949711e-05,-0.018545770924526916
363,0.0364,682.858,51.6187,-0.000314399,187.794,-1.65909,-0.44074,0.0326751,-0.0125641,-0.0187725,0.024436,-0.000199691,-5.36221e-05,0.0323997,0.03321479321600118,0.02473700584011862,-0.00019967106307938742,-0.012485501214288819,-5.3620662360920335e-05,-0.018597394059275962
364,0.0365,683.161,51.6434,-0.000316031,187.88,-1.66049,-0.441114,0.0327632,-0.0125993,-0.0188251,0.0245026,-0.000200374,-5.38059e-05,0.0324952,0.033305823449106375,0.024805255597399434,-0.00020035392647077543,-0.012520261112868303,-5.380445248848176e-05,-0.018649014478719472
365,0.0366,683.463,51.668,-0.000317665,187.967,-1.66189,-0.441487,0.0328513,-0.0126344,-0.0188777,0.0245691,-0.000201056,-5.39898e-05,0.0325906,0.033396861702328584,0.024873407412919324,-0.00020103578959695945,-0.012554921043417822,-5.3988342576971604e-05,-0.018700632183000443
366,0.0367,683.764,51.6925,-0.000319301,188.053,-1.66328,-0.441858,0.0329394,-0.0126695,-0.0189303,0.0246357,-0.000201739,-5.41737e-05,0.032686,0.03348790797637391,0.024941666254847172,-0.00020171865205631523,-0.012589579757425251,-5.417223263159965e-05,-0.018752247172261427
367,0.0368,684.065,51.717,-0.000320938,188.139,-1.66466,-0.442228,0.0330275,-0.0127047,-0.0189829,0.0247023,-0.000202422,-5.43576e-05,0.0327815,0.033578962271949564,0.025009929642965334,-0.00020240151404926632,-0.012624335992504454,-5.435612265247691e-05,-0.018803859446645532
368,0.0369,684.365,51.7414,-0.000322578,188.224,-1.66604,-0.442597,0.0331156,-0.0127398,-0.0190355,0.0247688,-0.000203105,-5.45416e-05,0.0328769,0.03367002458976187,0.025078095069761996,-0.00020308437557581271,-0.01265899227008993,-5.4540112633949533e-05,-0.01885546900629531
369,0.037,684.664,51.7658,-0.00032422,188.31,-1.66742,-0.442964,0.0332036,-0.0127749,-0.0190881,0.0248353,-0.000203788,-5.47256e-05,0.0329723,0.03376099155441348,0.02514626502971007,-0.00020376723663595442,-0.012693647331261326,-5.4724102581671374e-05,-0.01890707585135365
370,0.0371,684.963,51.7901,-0.000325864,188.395,-1.66879,-0.44333,0.0332917,-0.01281,-0.0191407,0.0249019,-0.000204471,-5.49097e-05,0.0330677,0.03385206990971201,0.025214542044560417,-0.00020445009722980245,-0.012728301176061496,-5.490819248998857e-05,-0.018958679981963322
371,0.0372,685.261,51.8144,-0.00032751,188.48,-1.67016,-0.443695,0.0333797,-0.0128451,-0.0191933,0.0249684,-0.000205154,-5.50938e-05,0.0331631,0.033943052895056836,0.025282721078534243,-0.00020513295735713477,-0.012762953804532962,-5.509228236444397e-05,-0.019010281398267104
372,0.0373,685.558,51.8386,-0.000329158,188.565,-1.67152,-0.444058,0.0334677,-0.0128802,-0.0192459,0.0250349,-0.000205838,-5.5278e-05,0.0332585,0.03403404388725639,0.02535090464656453,-0.0002058168168123098,-0.012797605216718577,-5.527647219949472e-05,-0.01906188010040777
373,0.0374,685.854,51.8627,-0.000330807,188.65,-1.67287,-0.44442,0.0335557,-0.0129153,-0.0192985,0.0251015,-0.000206522,-5.54622e-05,0.0333539,0.0341250428870159,0.025419195290867114,-0.00020650067579974785,-0.012832255412660976,-5.546066200057265e-05,-0.019113476088528092
374,0.0375,686.15,51.8868,-0.000332459,188.735,-1.67422,-0.444781,0.0336438,-0.0129504,-0.019351,0.025168,-0.000207206,-5.56464e-05,0.0334492,0.03421615331664962,0.02548738793473415,-0.00020718453431944894,-0.0128669043924029,-5.564485176778877e-05,-0.019164971279272858
375,0.0376,686.445,51.9108,-0.000334113,188.819,-1.67557,-0.445141,0.0337318,-0.0129855,-0.0194036,0.0252345,-0.00020789,-5.58307e-05,0.0335446,0.03430716834274383,0.02555558511356293,-0.00020786839237130206,-0.012901552155986873,-5.582914149548923e-05,-0.019216561844939806
376,0.0377,686.74,51.9348,-0.000335768,188.903,-1.67691,-0.445499,0.0338197,-0.0130206,-0.0194562,0.025301,-0.000208574,-5.60151e-05,0.03364,0.03439808793869892,0.025623786827654982,-0.0002085522499554182,-0.012936198703455748,-5.6013531183563003e-05,-0.019268149697014403
377,0.0378,687.034,51.9587,-0.000337426,188.987,-1.67825,-0.445856,0.0339077,-0.0130557,-0.0195087,0.0253675,-0.000209258,-5.61994e-05,0.0337353,0.03448911897574436,0.025691993077311626,-0.0002092361070717974,-0.012970844034852158,-5.6197820843317814e-05,-0.01931963676760784
378,0.0379,687.327,51.9826,-0.000339085,189.071,-1.67958,-0.446212,0.0339957,-0.0130908,-0.0195613,0.025434,-0.000209943,-5.63838e-05,0.0338307,0.0345801580238736,0.02576020386283462,-0.0002099209635105792,-0.013005488150218736,-5.6382210463445936e-05,-0.019371219198084044
379,0.038,687.619,52.0064,-0.000340746,189.154,-1.68091,-0.446566,0.0340837,-0.0131259,-0.0196138,0.0255005,-0.000210627,-5.65683e-05,0.0339261,0.03467120508379162,0.02582841918452594,-0.00021060481969070732,-0.013040131049598225,-5.656670004383635e-05,-0.019422700857670838
380,0.0381,687.911,52.0301,-0.00034241,189.238,-1.68223,-0.44692,0.0341716,-0.013161,-0.0196664,0.025567,-0.000211312,-5.67527e-05,0.0340214,0.034762156679982725,0.02589663904268691,-0.00021128967519190578,-0.013074772733033257,-5.675108959601882e-05,-0.019474277867118417
381,0.0382,688.202,52.0538,-0.000344075,189.321,-1.68355,-0.447272,0.0342596,-0.0131961,-0.0197189,0.0256335,-0.000211997,-5.69373e-05,0.0341167,0.03485321975648703,0.025964863437619057,-0.00021197453022381296,-0.013109413200566578,-5.69356791026987e-05,-0.019525754116267002
382,0.0383,688.493,52.0775,-0.000345742,189.404,-1.68486,-0.447623,0.0343475,-0.0132312,-0.0197715,0.0256999,-0.000212682,-5.71218e-05,0.0342121,0.03494418735247096,0.026032989766320513,-0.00021265938478676194,-0.013144052452240818,-5.7120168581059616e-05,-0.019577325705255832
383,0.0384,688.783,52.1011,-0.00034741,189.487,-1.68617,-0.447972,0.0344355,-0.0132662,-0.019824,0.0257664,-0.000213367,-5.73064e-05,0.0343074,0.03503526644837929,0.026101223228877313,-0.00021334423888053067,-0.013178591805962814,-5.73047580195718e-05,-0.019628796544534977
384,0.0385,689.072,52.1246,-0.000349081,189.569,-1.68747,-0.448321,0.0345234,-0.0133013,-0.0198765,0.0258329,-0.000214052,-5.74911e-05,0.0344027,0.035126250046970675,0.02616946122911057,-0.00021402909250511915,-0.013213228629510576,-5.748944741834627e-05,-0.01968026468166595
385,0.0386,689.36,52.1481,-0.000350753,189.652,-1.68877,-0.448668,0.0346113,-0.0133364,-0.0199291,0.0258993,-0.000214738,-5.76757e-05,0.034498,0.03521724164337203,0.026237601143556333,-0.00021471494544589298,-0.013247864237327267,-5.7674036788801786e-05,-0.01973182814361274
386,0.0387,689.648,52.1715,-0.000352428,189.734,-1.69007,-0.449014,0.0346992,-0.0133715,-0.0199816,0.0259658,-0.000215423,-5.78605e-05,0.0345934,0.03530824123828613,0.026305848213222127,-0.00021539979813167687,-0.013282498629455297,-5.785882611353266e-05,-0.01978329087172681
387,0.0388,689.935,52.1949,-0.000354104,189.816,-1.69136,-0.449359,0.0347871,-0.0134065,-0.0200341,0.0260322,-0.000216109,-5.80452e-05,0.0346887,0.035399248832415964,0.026373997184064413,-0.0002160856501320918,-0.013317033137645873,-5.804351540994457e-05,-0.01983475089811848
388,0.0389,690.222,52.2182,-0.000355782,189.898,-1.69265,-0.449702,0.034875,-0.0134416,-0.0200866,0.0260987,-0.000216795,-5.823e-05,0.034784,0.03549026442646519,0.02644225332436867,-0.00021677150166210524,-0.013351665101988264,-5.8228304666507746e-05,-0.019886208222929747
389,0.039,690.508,52.2415,-0.000357462,189.979,-1.69393,-0.450045,0.0349629,-0.0134766,-0.0201391,0.0261651,-0.000217481,-5.84148e-05,0.0348792,0.03558128802113658,0.026510411352810737,-0.00021745735272160616,-0.0133861971893946,-5.841309388876503e-05,-0.019937662846302384
390,0.0391,690.793,52.2647,-0.000359143,190.061,-1.69521,-0.450386,0.0350507,-0.0135117,-0.0201916,0.0262315,-0.000218167,-5.85997e-05,0.0349745,0.035672216049907,0.026578573907096503,-0.00021814320331059456,-0.013420826726121327,-5.8597983071062565e-05,-0.01998911476837817
391,0.0392,691.078,52.2879,-0.000360827,190.142,-1.69648,-0.450726,0.0351386,-0.0135467,-0.0202441,0.026298,-0.000218853,-5.87846e-05,0.0350698,0.035763255638828984,0.026646843652205154,-0.00021882905342918146,-0.013455356392913287,-5.878287221927625e-05,-0.020040563989298987
392,0.0393,691.362,52.311,-0.000362512,190.223,-1.69775,-0.451065,0.0352265,-0.0135818,-0.0202966,0.0263644,-0.00021954,-5.89695e-05,0.0351651,0.035854303230482776,0.026715015265896147,-0.00021951590285762546,-0.013489983502194547,-5.896776133318404e-05,-0.020092010509206615
393,0.0394,691.646,52.3341,-0.000364199,190.304,-1.69901,-0.451403,0.0353143,-0.0136168,-0.0203491,0.0264308,-0.000220226,-5.91545e-05,0.0352604,0.03594525523104086,0.026783191406332563,-0.0002202017520345212,-0.013524510748541663,-5.915275040702106e-05,-0.020143454328242827
394,0.0395,691.928,52.3571,-0.000365888,190.385,-1.70027,-0.451739,0.0354021,-0.0136519,-0.0204016,0.0264972,-0.000220913,-5.93395e-05,0.0353556,0.036036215217535084,0.02685137207381505,-0.00022088860051994175,-0.013559135430547653,-5.933773944666321e-05,-0.0201948954465494
395,0.0396,692.211,52.3801,-0.000367578,190.466,-1.70153,-0.452075,0.03549,-0.0136869,-0.0204541,0.0265636,-0.000221599,-5.95245e-05,0.0354509,0.03612728680339017,0.026919557268644256,-0.00022157444875514631,-0.013593660256619566,-5.9522728452110485e-05,-0.020246333864268107
396,0.0397,692.492,52.403,-0.000369271,190.546,-1.70278,-0.452409,0.0355778,-0.013722,-0.0205066,0.02663,-0.000222286,-5.97096e-05,0.0355461,0.03621826277295814,0.02698774699112061,-0.00022226129629754343,-0.013628282511520373,-5.970781741726494e-05,-0.020297769581540837
397,0.0398,692.773,52.4259,-0.000370965,190.627,-1.70403,-0.452742,0.0356656,-0.013757,-0.020559,0.0266964,-0.000222973,-5.98947e-05,0.0356414,0.03630924673056701,0.027055941241544756,-0.00022294814336809576,-0.013662804917486948,-5.989290634822453e-05,-0.020349104633424764
398,0.0399,693.054,52.4487,-0.00037266,190.707,-1.70527,-0.453074,0.0357534,-0.013792,-0.0206115,0.0267628,-0.00022366,-6.00798e-05,0.0357366,0.03640023867691777,0.02712414002021779,-0.0002236349899668033,-0.013697326115190256,-6.0077995244989246e-05,-0.02040053495537364
399,0.04,693.333,52.4714,-0.000374358,190.787,-1.70651,-0.453405,0.0358412,-0.0138271,-0.020664,0.0268292,-0.000224348,-6.0265e-05,0.0358318,0.03649123861271231,0.027192343327439694,-0.00022432283586937274,-0.013731944731483425,-6.026318410135012e-05,-0.02045196257730164
400,0.0401,693.612,52.4941,-0.000376057,190.866,-1.70775,-0.453735,0.035929,-0.0138621,-0.0207164,0.0268955,-0.000225035,-6.04502e-05,0.0359271,0.03658224653865205,0.027260448437461893,-0.00022500968152361356,-0.013766463509335636,-6.0448372923516125e-05,-0.020503289549684167
401,0.0402,693.891,52.5168,-0.000377758,190.946,-1.70898,-0.454064,0.0360168,-0.0138971,-0.0207689,0.0269619,-0.000225723,-6.06354e-05,0.0360223,0.03667326245543845,0.02732866079586338,-0.00022569752648027297,-0.01380098107905181,-6.0633561711265216e-05,-0.020554711777137524
402,0.0403,694.169,52.5394,-0.000379461,191.025,-1.7102,-0.454391,0.0361045,-0.0139321,-0.0208213,0.0270283,-0.00022641,-6.08207e-05,0.0361175,0.03676418268734971,0.02739687768371568,-0.00022638437119015808,-0.01383549744067425,-6.0818850458721485e-05,-0.02060603336560307
403,0.0404,694.446,52.562,-0.000381166,191.104,-1.71143,-0.454718,0.0361923,-0.0139672,-0.0208738,0.0270946,-0.000227098,-6.1006e-05,0.0362127,0.03685521457883123,0.027464996354815252,-0.00022707221520112952,-0.013870111207238911,-6.100413917187186e-05,-0.020657450199147664
404,0.0405,694.723,52.5845,-0.000382872,191.183,-1.71265,-0.455043,0.03628,-0.0140022,-0.0209262,0.027161,-0.000227786,-6.11913e-05,0.0363079,0.03694615076864349,0.02753322229564925,-0.0002277600587388129,-0.013904625149349092,-6.118942785060533e-05,-0.020708766404260892
405,0.0406,694.999,52.607,-0.00038458,191.262,-1.71386,-0.455368,0.0363678,-0.0140372,-0.0209787,0.0272274,-0.000228474,-6.13767e-05,0.0364031,0.03703719863762389,0.027601452766836232,-0.0002284479018033192,-0.013939137883492547,-6.137481648893495e-05,-0.0207601778444626
406,0.0407,695.275,52.6294,-0.000386289,191.341,-1.71507,-0.455691,0.0364555,-0.0140722,-0.0210311,0.0272937,-0.000229162,-6.15621e-05,0.0364983,0.037128150788137804,0.02766958500171346,-0.00022913574439453743,-0.013973649409711353,-6.156020509284765e-05,-0.02081148866678828
407,0.0408,695.55,52.6518,-0.000388,191.42,-1.71628,-0.456013,0.0365432,-0.0141072,-0.0210835,0.02736,-0.00022985,-6.17475e-05,0.0365935,0.03721911091550534,0.02773772175390743,-0.0002298235865124676,-0.01400815972804792,-6.174559366234345e-05,-0.020862796800497296
408,0.0409,695.824,52.6741,-0.000389713,191.498,-1.71748,-0.456334,0.0366309,-0.0141422,-0.021136,0.0274264,-0.000230538,-6.19329e-05,0.0366886,0.03731007902042571,0.027805965804309274,-0.0002305114281572207,-0.014042668838544548,-6.193098219753335e-05,-0.020914200154315332
409,0.041,696.098,52.6964,-0.000391428,191.576,-1.71868,-0.456654,0.0367187,-0.0141772,-0.0211884,0.0274927,-0.000231226,-6.21184e-05,0.0367838,0.037401158843709315,0.027874111598850115,-0.00023119926932879675,-0.014077176741243314,-6.211647069209736e-05,-0.020965502906083455
410,0.0411,696.371,52.7186,-0.000393144,191.654,-1.71987,-0.456973,0.0368063,-0.0142122,-0.0212408,0.027559,-0.000231915,-6.2304e-05,0.036879,0.03749203916572408,0.027942261911607202,-0.00023188810979513086,-0.01411168343618674,-6.23020591461465e-05,-0.0210168029696578
411,0.0412,696.644,52.7408,-0.000394862,191.732,-1.72106,-0.457291,0.036894,-0.0142472,-0.0212932,0.0276253,-0.000232604,-6.24895e-05,0.0369741,0.037583031207501616,0.02801041674287963,-0.00023257694978695564,-0.014146188923416902,-6.248754757187669e-05,-0.021068100345179253
412,0.0413,696.916,52.7629,-0.000396582,191.81,-1.72225,-0.457608,0.0369817,-0.0142822,-0.0213456,0.0276917,-0.000233292,-6.26751e-05,0.0370693,0.03767403122963109,0.028078678900829823,-0.00023326478953744623,-0.014180693202976102,-6.267313595698099e-05,-0.02111939503278859
413,0.0414,697.188,52.785,-0.000398303,191.887,-1.72343,-0.457924,0.0370694,-0.0143172,-0.021398,0.027758,-0.000233981,-6.28607e-05,0.0371644,0.0377650392328126,0.028146842776848535,-0.00023395362858069646,-0.01421519627490675,-6.285872430755735e-05,-0.0211706870326267
414,0.0415,697.459,52.8071,-0.000400026,191.965,-1.72461,-0.458239,0.0371571,-0.0143521,-0.0214504,0.0278243,-0.00023467,-6.30463e-05,0.0372596,0.03785605521774604,0.028215011172281868,-0.00023464246714932635,-0.014249599564215898,-6.304431262382781e-05,-0.02122197634483447
415,0.0416,697.729,52.8291,-0.000401751,192.042,-1.72579,-0.458552,0.0372447,-0.0143871,-0.0215028,0.0278906,-0.000235359,-6.3232e-05,0.0373547,0.03794697539042846,0.028283184087429802,-0.0002353313052433359,-0.014284100224466023,-6.323000089925035e-05,-0.021273262969552675
416,0.0417,697.999,52.851,-0.000403477,192.119,-1.72696,-0.458865,0.0373324,-0.0144221,-0.0215552,0.0279569,-0.000236048,-6.34177e-05,0.0374498,0.03803800733186247,0.028351361522591878,-0.0002360201428627251,-0.014318599677214272,-6.341568914014495e-05,-0.021324546906922204
417,0.0418,698.268,52.8729,-0.000405205,192.196,-1.72812,-0.459177,0.03742,-0.0144571,-0.0216076,0.0280231,-0.000236737,-6.36034e-05,0.0375449,0.03812894344424822,0.028419440636118454,-0.00023670898000760499,-0.014353097922502722,-6.360137734662263e-05,-0.02137582815708383
418,0.0419,698.537,52.8948,-0.000406934,192.273,-1.72929,-0.459488,0.0375076,-0.0144921,-0.02166,0.0280894,-0.000237427,-6.37891e-05,0.0376401,0.03821988752298644,0.0284876271053891,-0.00023739881644035954,-0.014387594960373784,-6.378706551857238e-05,-0.021427106720178335
419,0.042,698.805,52.9166,-0.000408665,192.349,-1.73045,-0.459797,0.0375952,-0.014527,-0.0217124,0.0281557,-0.000238116,-6.39749e-05,0.0377352,0.03831083956877501,0.028555818095572505,-0.0002380876526353326,-0.014421992233073722,-6.39728536496742e-05,-0.02147838259634649
420,0.0421,699.073,52.9384,-0.000410398,192.426,-1.7316,-0.460106,0.0376829,-0.014562,-0.0217647,0.028222,-0.000238806,-6.41607e-05,0.0378303,0.03840190342249672,0.028624013606968424,-0.00023877748811684807,-0.014456486859686146,-6.41586417463591e-05,-0.021529557938689825
421,0.0422,699.34,52.9601,-0.000412132,192.502,-1.73275,-0.460414,0.0377705,-0.014597,-0.0218171,0.0282882,-0.000239495,-6.43466e-05,0.0379254,0.03849287141357638,0.028692110770660584,-0.0002394663233618033,-0.014490980279007637,-6.434452980197403e-05,-0.021580828446554734
422,0.0423,699.606,52.9818,-0.000413868,192.578,-1.7339,-0.46072,0.0378581,-0.0146319,-0.0218695,0.0283545,-0.000240185,-6.45324e-05,0.0380205,0.03858384737380116,0.02876031531856027,-0.00024015615789207967,-0.014525373943622966,-6.453031782949203e-05,-0.021632096267915513
423,0.0424,699.872,53.0034,-0.000415605,192.654,-1.73505,-0.461026,0.0379456,-0.0146669,-0.0219218,0.0284207,-0.000240875,-6.47183e-05,0.0381155,0.038674727436391,0.0288284215057244,-0.00024084599194629241,-0.014559864951938839,-6.471620581605109e-05,-0.02168326357124406
424,0.0425,700.138,53.025,-0.000417344,192.73,-1.73619,-0.461331,0.0380332,-0.0147018,-0.0219742,0.028487,-0.000241565,-6.49042e-05,0.0382106,0.03876571932790118,0.028896635091325562,-0.00024153582552466357,-0.014594256212520973,-6.490209376797118e-05,-0.021734526025144918
425,0.0426,700.402,53.0466,-0.000419084,192.805,-1.73733,-0.461634,0.0381208,-0.0147368,-0.0220265,0.0285532,-0.000242255,-6.50901e-05,0.0383057,0.038856719190650146,0.02896475030315715,-0.00024222565862686007,-0.014628744809999539,-6.508798168536334e-05,-0.021785687971537238
426,0.0427,700.667,53.0681,-0.000420827,192.881,-1.73846,-0.461937,0.0382083,-0.0147717,-0.0220789,0.0286195,-0.000242945,-6.52761e-05,0.0384007,0.038947623130568765,0.029032972927657275,-0.000242915491253215,-0.014663133666716677,-6.527396956168552e-05,-0.02183694505854017
427,0.0428,700.931,53.0895,-0.00042257,192.956,-1.73959,-0.462239,0.0382959,-0.0148067,-0.0221312,0.0286857,-0.000243635,-6.54621e-05,0.0384958,0.03903863892878867,0.029101097165352474,-0.00024360532340350627,-0.014697619853526578,-6.545995740347976e-05,-0.021888101648557035
428,0.0429,701.194,53.1109,-0.000424316,193.031,-1.74072,-0.46254,0.0383834,-0.0148416,-0.0221836,0.0287519,-0.000244325,-6.56481e-05,0.0385908,0.03912955878738078,0.029169225913021624,-0.00024429515507784494,-0.014732006306546586,-6.564594521063505e-05,-0.021939353369223924
429,0.043,701.457,53.1323,-0.000426062,193.106,-1.74184,-0.462839,0.038471,-0.0148765,-0.0222359,0.0288182,-0.000245016,-6.58342e-05,0.0386859,0.039220590523862287,0.029237462094704014,-0.0002449859860311765,-0.014766391559500325,-6.583203297660933e-05,-0.02199050460342622
430,0.0431,701.719,53.1536,-0.000427811,193.181,-1.74296,-0.463138,0.0385585,-0.0149115,-0.0222882,0.0288844,-0.000245706,-6.60202e-05,0.0387809,0.039311526303915656,0.02930559987003023,-0.0002456758167529438,-0.014800874132347208,-6.601802071459772e-05,-0.02204165316248896
431,0.0432,701.981,53.1749,-0.000429561,193.256,-1.74407,-0.463436,0.038646,-0.0149464,-0.0223406,0.0289506,-0.000246397,-6.62063e-05,0.038876,0.03940247004119768,0.029373742156226346,-0.0002463666467522607,-0.014835256981855727,-6.62041084112941e-05,-0.02209289683726723
432,0.0433,702.242,53.1961,-0.000431312,193.331,-1.74519,-0.463733,0.0387335,-0.0149813,-0.0223929,0.0290168,-0.000247088,-6.63924e-05,0.038971,0.03949342173640491,0.029441888953591233,-0.00024705747627418173,-0.014869638631423765,-6.63901960733515e-05,-0.022144040041356283
433,0.0434,702.502,53.2173,-0.000433065,193.405,-1.74629,-0.464029,0.038821,-0.0150163,-0.0224452,0.029083,-0.000247778,-6.65786e-05,0.039066,0.03958438139023368,0.02951004026242332,-0.0002477473055665369,-0.014904117590686439,-6.657638369422791e-05,-0.02219518057072556
434,0.0435,702.762,53.2385,-0.000434819,193.479,-1.7474,-0.464324,0.0389085,-0.0150512,-0.0224975,0.0291492,-0.000248469,-6.67647e-05,0.039161,0.03967534900338032,0.02957819608302148,-0.00024843813413444327,-0.014938496837061166,-6.676247128700741e-05,-0.022246318425515166
435,0.0436,703.022,53.2596,-0.000436575,193.553,-1.7485,-0.464619,0.038996,-0.0150861,-0.0225498,0.0292154,-0.00024916,-6.69509e-05,0.039256,0.03976632457654139,0.02964635641568436,-0.00024912896222506475,-0.01497287488362109,-6.694865883849488e-05,-0.02229745360586488
436,0.0437,703.281,53.2807,-0.000438333,193.627,-1.7496,-0.464912,0.0390835,-0.015121,-0.0226021,0.0292815,-0.000249851,-6.71371e-05,0.039351,0.039857308110413436,0.029714418289263467,-0.00024981978983829034,-0.015007251730408178,-6.713484635534339e-05,-0.022348586111914592
437,0.0438,703.54,53.3017,-0.000440092,193.701,-1.75069,-0.465204,0.0391709,-0.0151559,-0.0226544,0.0293477,-0.000250542,-6.73234e-05,0.039446,0.039948195610868265,0.029782587640134972,-0.00025051061697412,-0.015041627377464284,-6.732113383078886e-05,-0.022399715943804188
438,0.0439,703.798,53.3227,-0.000441852,193.775,-1.75178,-0.465495,0.0392584,-0.0151909,-0.0227067,0.0294139,-0.000251233,-6.75096e-05,0.039541,0.04003919505915188,0.029850761503966705,-0.0002512014436325538,-0.01507610031722606,-6.750732127824843e-05,-0.022450843101673557
439,0.044,704.055,53.3436,-0.000443614,193.848,-1.75287,-0.465786,0.0393458,-0.0152258,-0.022759,0.0294801,-0.000251925,-6.76959e-05,0.039636,0.0401300984572206,0.029918939881057538,-0.00025189326956176483,-0.015110473561508408,-6.769360868430496e-05,-0.022501967585662364
440,0.0441,704.312,53.3645,-0.000445378,193.922,-1.75396,-0.466075,0.0394333,-0.0152607,-0.0228113,0.0295462,-0.000252616,-6.78822e-05,0.0397309,0.04022111382269977,0.029987019772999446,-0.0002525840952648517,-0.015144845606185453,-6.787989605561151e-05,-0.02255308939591072
441,0.0442,704.569,53.3854,-0.000447143,193.995,-1.75504,-0.466364,0.0395207,-0.0152956,-0.0228636,0.0296124,-0.000253307,-6.80685e-05,0.0398259,0.04031203312116349,0.030055207170686327,-0.0002532749204905427,-0.015179216451299049,-6.806618339216808e-05,-0.02260420853255818
442,0.0443,704.825,53.4062,-0.000448909,194.068,-1.75612,-0.466652,0.0396081,-0.0153305,-0.0229159,0.0296785,-0.000253999,-6.82549e-05,0.0399209,0.04040296036632096,0.030123296070193595,-0.0002539667449850125,-0.015213586096891163,-6.82525706873216e-05,-0.02265532499574474
443,0.0444,705.08,53.427,-0.000450677,194.141,-1.75719,-0.466939,0.0396955,-0.0153654,-0.0229681,0.0297447,-0.000254691,-6.84413e-05,0.0400158,0.040493895558866955,0.030191492489670013,-0.0002546585690006431,-0.015247954543003428,-6.843895794761412e-05,-0.022706341056249246
444,0.0445,705.335,53.4477,-0.000452446,194.214,-1.75826,-0.467225,0.039783,-0.0154003,-0.0230204,0.0298108,-0.000255382,-6.86277e-05,0.0401107,0.04058494275798519,0.0302595903979348,-0.0002553493927928141,-0.015282321789678033,-6.862534517326768e-05,-0.02275745217804448
445,0.0446,705.59,53.4684,-0.000454217,194.287,-1.75933,-0.46751,0.0398703,-0.0154352,-0.0230727,0.0298769,-0.000256074,-6.88141e-05,0.0402057,0.04067578978890318,0.030327692807619933,-0.00025604121585176554,-0.0153166878369565,-6.881173236417126e-05,-0.022808560626798036
446,0.0447,705.844,53.4891,-0.000455989,194.359,-1.76039,-0.467794,0.0399577,-0.01547,-0.0231249,0.0299431,-0.000256766,-6.90005e-05,0.0403006,0.04076674882778297,0.030395902758608262,-0.00025673303843176676,-0.015350954219981228,-6.899811952021384e-05,-0.022859568688611276
447,0.0448,706.098,53.5097,-0.000457763,194.432,-1.76145,-0.468077,0.0400451,-0.0155049,-0.0231772,0.0300092,-0.000257458,-6.9187e-05,0.0403955,0.040857715816829954,0.03046401417883815,-0.00025742486053315083,-0.015385317872029791,-6.918460663474235e-05,-0.022910671796810944
448,0.0449,706.351,53.5303,-0.000459538,194.504,-1.76251,-0.468359,0.0401325,-0.0155398,-0.0232294,0.0300753,-0.00025815,-6.93734e-05,0.0404905,0.04094869075673935,0.030532130101381894,-0.00025811668215580674,-0.015419680324807783,-6.937099372128497e-05,-0.02296167452856024
449,0.045,706.603,53.5508,-0.000461315,194.576,-1.76356,-0.468641,0.0402199,-0.0155747,-0.0232817,0.0301414,-0.000258842,-6.95599e-05,0.0405854,0.04103967364820593,0.03060025052653681,-0.0002588085032997345,-0.015454041578357058,-6.95574807662025e-05,-0.023012772296764128
450,0.0451,706.855,53.5713,-0.000463093,194.648,-1.76462,-0.468922,0.0403072,-0.0156096,-0.0233339,0.0302075,-0.000259534,-6.97465e-05,0.0406803,0.04113056037886342,0.03066837545460066,-0.00025950032396482303,-0.015488401632719473,-6.974406776938391e-05,-0.023063769699006476
451,0.0452,707.107,53.5918,-0.000464873,194.72,-1.76566,-0.469201,0.0403945,-0.0156444,-0.0233862,0.0302736,-0.000260226,-6.9933e-05,0.0407752,0.041221455044278876,0.030736504885871208,-0.00026019214415129444,-0.015522662040208135,-6.993055474480148e-05,-0.023114862127772584
452,0.0453,707.358,53.6122,-0.000466653,194.791,-1.76671,-0.46948,0.0404819,-0.0156793,-0.0234384,0.0303397,-0.000260918,-7.01196e-05,0.0408701,0.041312461776386034,0.03080463882064577,-0.00026088396385892665,-0.015557019699758312,-7.011714167826089e-05,-0.02316585420106476
453,0.0454,707.609,53.6326,-0.000468436,194.863,-1.76775,-0.469758,0.0405692,-0.0157142,-0.0234906,0.0304058,-0.00026161,-7.03061e-05,0.0409649,0.0414033723224867,0.03087277725922255,-0.0002615757830878307,-0.015591376160247084,-7.030362858406747e-05,-0.023216843612640314
454,0.0455,707.859,53.6529,-0.00047022,194.934,-1.76879,-0.470035,0.0406565,-0.015749,-0.0235428,0.0304719,-0.000262303,-7.04927e-05,0.0410598,0.04149429080542455,0.030940920201898647,-0.0002622686015757436,-0.015625632984284543,-7.049021544802692e-05,-0.02326783036263791
455,0.0456,708.108,53.6732,-0.000472005,195.006,-1.76982,-0.470312,0.0407438,-0.0157839,-0.0235951,0.030538,-0.000262995,-7.06794e-05,0.0411547,0.04158521722589237,0.031009067648972488,-0.0002629604198465252,-0.015659987050211432,-7.067690227002821e-05,-0.023318912119310364
456,0.0457,708.358,53.6935,-0.000473791,195.077,-1.77085,-0.470587,0.0408311,-0.0158187,-0.0236473,0.0306041,-0.000263688,-7.0866e-05,0.0412496,0.041676151584583154,0.03107721960074117,-0.00026365323737487234,-0.015694241486631455,-7.086348906437667e-05,-0.02336989354147112
457,0.0458,708.606,53.7137,-0.000475579,195.148,-1.77188,-0.470862,0.0409184,-0.0158536,-0.0236995,0.0306701,-0.000264381,-7.10526e-05,0.0413444,0.04176709388219013,0.031145272942970426,-0.00026434605442315906,-0.01572859315816333,-7.105007582375311e-05,-0.02342087230247103
458,0.0459,708.855,53.7339,-0.000477369,195.219,-1.77291,-0.471136,0.0410057,-0.0158884,-0.0237517,0.0307362,-0.000265073,-7.12393e-05,0.0414393,0.04185804411940608,0.031213433898206633,-0.00026503787125631284,-0.015762845207132337,-7.123676254128242e-05,-0.02347184840244898
459,0.046,709.102,53.754,-0.000479159,195.289,-1.77393,-0.471409,0.041093,-0.0159233,-0.0238039,0.0308022,-0.000265766,-7.1426e-05,0.0415341,0.04194900229692444,0.03128149623087628,-0.0002657306873450338,-0.015797194484436283,-7.142344922395072e-05,-0.023522821841544084
460,0.0461,709.35,53.7741,-0.000480952,195.36,-1.77495,-0.471681,0.0411803,-0.0159581,-0.0238561,0.0308683,-0.000266459,-7.16127e-05,0.041629,0.04203996841543822,0.03134966619076951,-0.0002664235029535833,-0.015831444146120588,-7.161013587175802e-05,-0.023573792619895007
461,0.0462,709.596,53.7942,-0.000482745,195.43,-1.77597,-0.471952,0.0412675,-0.015993,-0.0239083,0.0309343,-0.000267152,-7.17995e-05,0.0417238,0.04213083826255182,0.031417737515067046,-0.00026711631808207237,-0.015865791029363363,-7.179692247760716e-05,-0.02362476073764086
462,0.0463,709.843,53.8142,-0.00048454,195.501,-1.77698,-0.472223,0.0413548,-0.0160278,-0.0239605,0.0310004,-0.000267845,-7.19862e-05,0.0418186,0.04222182025603827,0.031485916480806786,-0.00026780913273039,-0.015900038303929498,-7.198360905569245e-05,-0.02367572619492031
463,0.0464,710.089,53.8342,-0.000486336,195.571,-1.77799,-0.472492,0.041442,-0.0160627,-0.0240126,0.0310664,-0.000268538,-7.2173e-05,0.0419134,0.04231270596132375,0.03155399679792037,-0.0002685019468985361,-0.015934382793277857,-7.217039559170857e-05,-0.023726591364536365
464,0.0465,710.334,53.8541,-0.000488134,195.641,-1.779,-0.472761,0.0415293,-0.0160975,-0.0240648,0.0311325,-0.000269231,-7.23597e-05,0.0420082,0.04240370383255354,0.03162218477069634,-0.00026919476058662184,-0.015968627680892133,-7.235708210007186e-05,-0.023777551506395933
465,0.0466,710.579,53.8741,-0.000489933,195.711,-1.78,-0.473029,0.0416165,-0.0161323,-0.024117,0.0311985,-0.000269924,-7.25466e-05,0.042103,0.04249460539877847,0.031690274081813685,-0.0002698875737946471,-0.016002871376805117,-7.254396855904677e-05,-0.023828508988205432
466,0.0467,710.824,53.8939,-0.000491733,195.781,-1.781,-0.473296,0.0417037,-0.0161671,-0.0241692,0.0312645,-0.000270617,-7.27334e-05,0.0421978,0.04258551489196538,0.03175836788697395,-0.00027058038652250094,-0.016037113881058107,-7.273075499036885e-05,-0.023879463810103863
467,0.0468,711.068,53.9138,-0.000493535,195.85,-1.782,-0.473563,0.0417909,-0.016202,-0.0242213,0.0313305,-0.00027131,-7.29202e-05,0.0422926,0.042676432312805934,0.031826466186473557,-0.0002712731987701833,-0.016071453586552376,-7.291754138682993e-05,-0.0239303183652666
468,0.0469,711.312,53.9336,-0.000495338,195.92,-1.78299,-0.473828,0.0418781,-0.0162368,-0.0242735,0.0313965,-0.000272004,-7.31071e-05,0.0423874,0.042767357661991356,0.031894568980609384,-0.0002719670102658833,-0.01610569370418602,-7.310442774111081e-05,-0.02398126787285426
469,0.047,711.555,53.9534,-0.000497143,195.989,-1.78399,-0.474093,0.0419653,-0.0162716,-0.0243257,0.0314625,-0.000272697,-7.32939e-05,0.0424822,0.04285829094021265,0.03196267626967808,-0.00027265982155266766,-0.016139932630284348,-7.329121406773886e-05,-0.024032214720946965
470,0.0471,711.797,53.9731,-0.000498948,196.059,-1.78497,-0.474357,0.0420525,-0.0163064,-0.0243778,0.0315285,-0.00027339,-7.34808e-05,0.042577,0.04294923214816171,0.032030788053975856,-0.00027335263235939156,-0.016174170364888774,-7.347810035218671e-05,-0.024083061317994647
471,0.0472,712.04,53.9928,-0.000500755,196.128,-1.78596,-0.474621,0.0421397,-0.0163412,-0.02443,0.0315945,-0.000274084,-7.36677e-05,0.0426717,0.04304018128652998,0.03209890433380003,-0.00027404644241191267,-0.016208406908040818,-7.366498660166254e-05,-0.02413400285260825
472,0.0473,712.282,54.0124,-0.000502564,196.197,-1.78694,-0.474883,0.0422268,-0.016376,-0.0244821,0.0316605,-0.000274777,-7.38546e-05,0.0427665,0.043131034042900085,0.03216702510944702,-0.0002747392522576275,-0.01624264225978178,-7.385187281616634e-05,-0.024184844146632467
473,0.0474,712.523,54.0321,-0.000504374,196.266,-1.78792,-0.475145,0.042314,-0.0164108,-0.0245342,0.0317265,-0.000275471,-7.40416e-05,0.0428612,0.04322199903508461,0.03223515038121327,-0.0002754330613478073,-0.016276876420153297,-7.403885898837892e-05,-0.024235682791894142
474,0.0475,712.764,54.0516,-0.000506185,196.334,-1.7889,-0.475406,0.0424011,-0.0164456,-0.0245864,0.0317924,-0.000276165,-7.42285e-05,0.042956,0.04331286762847042,0.03230317691907336,-0.0002761268699564834,-0.016311109389196776,-7.422574513304969e-05,-0.024286616359874724
475,0.0476,713.004,54.0712,-0.000507997,196.403,-1.78987,-0.475666,0.0424883,-0.0164804,-0.0246385,0.0318584,-0.000276858,-7.44155e-05,0.0430507,0.043403848477234996,0.03237131117715575,-0.00027681967836057364,-0.01634534116695363,-7.441273123531822e-05,-0.02433744970294227
476,0.0477,713.245,54.0907,-0.000509811,196.472,-1.79085,-0.475925,0.0425754,-0.0165152,-0.0246906,0.0319244,-0.000277552,-7.46024e-05,0.0431454,0.04349473291039696,0.032439449932247566,-0.0002775134860069084,-0.016379571753465383,-7.459961731015596e-05,-0.02438828039766172
477,0.0478,713.484,54.1102,-0.000511626,196.54,-1.79181,-0.476184,0.0426625,-0.01655,-0.0247428,0.0319903,-0.000278246,-7.47894e-05,0.0432402,0.04358562525993781,0.03250748993389152,-0.00027820729317185044,-0.016413801148773444,-7.478660334259146e-05,-0.024439206000255176
478,0.0479,713.723,54.1296,-0.000513442,196.608,-1.79278,-0.476441,0.0427496,-0.0165848,-0.0247949,0.0320563,-0.00027894,-7.49765e-05,0.0433349,0.043676525526546994,0.03257563767707805,-0.00027890109985517775,-0.016448029352919225,-7.49736893325137e-05,-0.0244900313936095
479,0.048,713.962,54.149,-0.00051526,196.676,-1.79374,-0.476698,0.0428368,-0.0166196,-0.024847,0.0321222,-0.000279634,-7.51635e-05,0.0434296,0.04376753808766298,0.03264368665379003,-0.00027959490605711235,-0.016482256365944248,-7.516067529489412e-05,-0.024540854139029955
480,0.0481,714.2,54.1684,-0.000517079,196.744,-1.7947,-0.476955,0.0429238,-0.0166544,-0.0248991,0.0321882,-0.000280328,-7.53505e-05,0.0435243,0.04385834981372927,0.03271184338625677,-0.0002802887117775432,-0.016516482187889925,-7.534766122241354e-05,-0.024591674236654204
481,0.0482,714.438,54.1877,-0.000518899,196.812,-1.79566,-0.47721,0.0430109,-0.0166892,-0.0249512,0.0322541,-0.000281022,-7.55376e-05,0.043619,0.0439492738356817,0.03277990133922071,-0.00028098251701635935,-0.016550706818797778,-7.553474710730868e-05,-0.02464249168662047
482,0.0483,714.676,54.207,-0.00052072,196.88,-1.79661,-0.477465,0.043098,-0.0167239,-0.0250033,0.03232,-0.000281716,-7.57246e-05,0.0437137,0.04404020577746137,0.032847963777351774,-0.00028167632177378277,-0.016584831917197285,-7.572173296488405e-05,-0.024693306489066424
483,0.0484,714.913,54.2263,-0.000522543,196.948,-1.79756,-0.477719,0.0431851,-0.0167587,-0.0250554,0.032386,-0.00028241,-7.59117e-05,0.0438084,0.044131145639758174,0.03291613399255344,-0.00028237012604959144,-0.016619054169575986,-7.590881877983513e-05,-0.024744118644130286
484,0.0485,715.149,54.2455,-0.000524367,197.015,-1.79851,-0.477972,0.0432722,-0.0167935,-0.0251075,0.0324519,-0.000283104,-7.60988e-05,0.043903,0.044222093423262,0.03298420540871194,-0.0002830639298440074,-0.016653275231040876,-7.609590455981419e-05,-0.024794928151949724
485,0.0486,715.386,54.2647,-0.000526193,197.083,-1.79946,-0.478225,0.0433592,-0.0168282,-0.0251596,0.0325178,-0.000283798,-7.62859e-05,0.0439977,0.04431294469736291,0.03305228131092486,-0.00028375773315691966,-0.016687396770378227,-7.62829903047102e-05,-0.02484573501266274
486,0.0487,715.621,54.2839,-0.000528019,197.15,-1.8004,-0.478476,0.0434463,-0.016863,-0.0252116,0.0325837,-0.000284493,-7.6473e-05,0.0440924,0.04440390831625418,0.03312036169948729,-0.00028445253570386075,-0.0167216154535621,-7.647007601463418e-05,-0.024896441716056428
487,0.0488,715.857,54.303,-0.000529847,197.217,-1.80134,-0.478727,0.0435333,-0.0168978,-0.0252637,0.0326496,-0.000285187,-7.66602e-05,0.044187,0.04449477540893887,0.03318844657469522,-0.0002851463380529884,-0.016755832945956506,-7.665726168193387e-05,-0.024947243288050536
488,0.0489,716.092,54.3221,-0.000531676,197.284,-1.80228,-0.478978,0.0436203,-0.0169325,-0.0253158,0.0327155,-0.000285881,-7.68473e-05,0.0442817,0.044585650407404476,0.03325653593684441,-0.0002858401399207233,-0.01678995092660296,-7.684434732191381e-05,-0.02499804221335178
489,0.049,716.326,54.3411,-0.000533507,197.351,-1.80321,-0.479227,0.0437073,-0.0169673,-0.0253679,0.0327814,-0.000286576,-7.70345e-05,0.0443763,0.044676533312338895,0.03332462978623041,-0.0002865349410203777,-0.01682416604096426,-7.703153291904741e-05,-0.025048838492097936
490,0.0491,716.56,54.3602,-0.000535338,197.418,-1.80415,-0.479476,0.0437944,-0.017002,-0.0254199,0.0328473,-0.00028727,-7.72216e-05,0.0444709,0.04476752860117772,0.03339272812314875,-0.000287228741924328,-0.0168582816504933,-7.721861848897227e-05,-0.02509953463438519
491,0.0492,716.794,54.3792,-0.000537171,197.485,-1.80508,-0.479724,0.0438814,-0.0170368,-0.025472,0.0329132,-0.000287965,-7.74088e-05,0.0445656,0.04485842733020351,0.03346083094789565,-0.0002879235420589765,-0.01689249438698681,-7.740580401616182e-05,-0.025150325625513892
492,0.0493,717.027,54.3981,-0.000539005,197.551,-1.806,-0.479972,0.0439684,-0.0170715,-0.025524,0.032979,-0.000288659,-7.7596e-05,0.0446602,0.044949333967762684,0.033528834907877725,-0.00028861734199925326,-0.016926607625563528,-7.759298950826832e-05,-0.025201016490607464
493,0.0494,717.26,54.417,-0.000540841,197.618,-1.80693,-0.480218,0.0440554,-0.0171063,-0.0255761,0.0330449,-0.000289354,-7.77832e-05,0.0447548,0.045040248514543135,0.03359694670235713,-0.0002893121411687849,-0.016960817984354448,-7.778017496529177e-05,-0.02525180219466927
494,0.0495,717.493,54.4359,-0.000542677,197.684,-1.80785,-0.480464,0.0441423,-0.017141,-0.0256281,0.0331108,-0.000290048,-7.79705e-05,0.0448494,0.045131066458121705,0.03366506298555172,-0.00029000594014538805,-0.016994928852143376,-7.796746037957991e-05,-0.025302487783118388
495,0.0496,717.725,54.4548,-0.000544515,197.75,-1.80877,-0.480709,0.0442293,-0.0171757,-0.0256802,0.0331766,-0.000290743,-7.81577e-05,0.044944,0.04522199681631678,0.033733080384444,-0.0002907007383498028,-0.017029038536305774,-7.815464576654829e-05,-0.025353268200663526
496,0.0497,717.956,54.4736,-0.000546354,197.816,-1.80968,-0.480954,0.0443163,-0.0172105,-0.0257322,0.0332425,-0.000291438,-7.83449e-05,0.0450386,0.045312935085797035,0.033801205639143905,-0.0002913955360713816,-0.017063245330563026,-7.834183111843362e-05,-0.025403948513017527
497,0.0498,718.188,54.4924,-0.000548195,197.882,-1.8106,-0.481198,0.0444032,-0.0172452,-0.0257842,0.0333083,-0.000292133,-7.85322e-05,0.0451332,0.04540377672686824,0.03386923199651748,-0.00029209033331001333,-0.01709735264418477,-7.852911642747262e-05,-0.02545462619006389
498,0.0499,718.418,54.5111,-0.000550036,197.948,-1.81151,-0.481441,0.0444902,-0.0172799,-0.0258363,0.0333742,-0.000292827,-7.87195e-05,0.0452277,0.045494730811888706,0.0339373662239042,-0.0002927841303586032,-0.01713145877430322,-7.871640170142857e-05,-0.025505398681404445
499,0.05,718.649,54.5299,-0.000551879,198.014,-1.81241,-0.481683,0.0445771,-0.0173147,-0.0258883,0.03344,-0.000293522,-7.89067e-05,0.0453223,0.0455855882516949,0.03400540154093923,-0.0002934789266322291,-0.017165662004398285,-7.890358694817579e-05,-0.025556071083179144
500,0.0501,718.879,54.5485,-0.000553723,198.079,-1.81332,-0.481925,0.044664,-0.0173494,-0.0259403,0.0335058,-0.000294217,-7.9094e-05,0.0454169,0.045676453587355725,0.034073441334845134,-0.00029417372242290796,-0.017199765764222996,-7.909087215207666e-05,-0.02560674085005754
501,0.0502,719.108,54.5672,-0.000555568,198.145,-1.81422,-0.482166,0.0447509,-0.0173841,-0.0259923,0.0335717,-0.000294912,-7.92813e-05,0.0455114,0.045767326819557086,0.034141589020070695,-0.00029486851773075085,-0.01723386834066787,-7.927815732078347e-05,-0.025657407982176417
502,0.0503,719.338,54.5858,-0.000557415,198.21,-1.81512,-0.482406,0.0448379,-0.0174188,-0.0260443,0.0336375,-0.000295607,-7.94686e-05,0.045606,0.04585831253481176,0.03420963777540775,-0.0002955633125556467,-0.01726796973377387,-7.946544245440723e-05,-0.025708072479672994
503,0.0504,719.566,54.6044,-0.000559262,198.276,-1.81602,-0.482646,0.0449248,-0.0174535,-0.0260963,0.0337033,-0.000296302,-7.9656e-05,0.0457005,0.04594920157124238,0.03427769100850009,-0.0002962581068977066,-0.017302069943582077,-7.965282754507363e-05,-0.025758734342684275
504,0.0505,719.795,54.623,-0.000561111,198.341,-1.81692,-0.482885,0.0450117,-0.0174882,-0.0261483,0.0337691,-0.000296997,-7.98433e-05,0.045795,0.04604009850627344,0.03434574871964258,-0.0002969529007569305,-0.01733616897013346,-7.98401126085313e-05,-0.02580939357134704
505,0.0506,720.023,54.6415,-0.000562961,198.406,-1.81781,-0.483123,0.0450985,-0.0175229,-0.0262003,0.0338349,-0.000297692,-8.00306e-05,0.0458896,0.04613089872749643,0.03441381090912987,-0.00029764769413320735,-0.017370266813469204,-8.002739763690592e-05,-0.02586005016579851
506,0.0507,720.25,54.66,-0.000564812,198.471,-1.8187,-0.483361,0.0451854,-0.0175576,-0.0262523,0.0339007,-0.000298387,-8.0218e-05,0.0459841,0.04622181145269666,0.034481877577256626,-0.0002983424870265372,-0.01740436347363028,-8.021478262232318e-05,-0.025910704126175466
507,0.0508,720.478,54.6784,-0.000566665,198.536,-1.81958,-0.483598,0.0452723,-0.0175923,-0.0263043,0.0339665,-0.000299082,-8.04054e-05,0.0460786,0.04631273207855591,0.03454994872431727,-0.0002990372794371421,-0.017438458950657876,-8.040216757243535e-05,-0.02596135545261502
508,0.0509,720.705,54.6969,-0.000568518,198.6,-1.82047,-0.483834,0.0453592,-0.017627,-0.0263563,0.0340323,-0.000299778,-8.05927e-05,0.0461731,0.04640366060576073,0.0346180243506069,-0.00029973307106501146,-0.017472553244592848,-8.058945249556082e-05,-0.026012004145254064
509,0.051,720.931,54.7153,-0.000570373,198.665,-1.82135,-0.484069,0.045446,-0.0176617,-0.0264083,0.0340981,-0.000300473,-8.07801e-05,0.0462676,0.046494492385543484,0.034686104456420175,-0.0003004278625091672,-0.017506646355476385,-8.077683737561792e-05,-0.026062650204229487
510,0.0511,721.157,54.7336,-0.000572229,198.73,-1.82223,-0.484304,0.0455328,-0.0176964,-0.0264602,0.0341639,-0.000301168,-8.09675e-05,0.0463621,0.046585332049867034,0.03475418904205152,-0.0003011226534702649,-0.017540738283349455,-8.096422222048094e-05,-0.026113196241002945
511,0.0512,721.383,54.752,-0.000574086,198.794,-1.82311,-0.484538,0.0456197,-0.0177311,-0.0265122,0.0342296,-0.000301863,-8.11549e-05,0.0464566,0.04667628426703874,0.03482217462557369,-0.00030181744394863763,-0.017574829028253136,-8.11516070301499e-05,-0.026163837038126303
512,0.0513,721.608,54.7703,-0.000575944,198.858,-1.82398,-0.484772,0.0457065,-0.0177658,-0.0265642,0.0342954,-0.000302559,-8.13423e-05,0.0465511,0.046767139711582306,0.034890268164916804,-0.0003025132336414993,-0.017608918590228506,-8.133899180484683e-05,-0.0262144752019966
513,0.0514,721.833,54.7886,-0.000577804,198.922,-1.82486,-0.485005,0.0457933,-0.0178005,-0.0266161,0.0343612,-0.000303254,-8.15297e-05,0.0466455,0.04685800304272081,0.0349583661849624,-0.0003032080231534229,-0.017643006969316644,-8.152637654434969e-05,-0.026265013359257128
514,0.0515,722.058,54.8068,-0.000579664,198.987,-1.82573,-0.485237,0.0458801,-0.0178351,-0.0266681,0.0344269,-0.000303949,-8.17172e-05,0.04674,0.04694887426113881,0.03502636518336333,-0.00030390281218239945,-0.017676995933263107,-8.171386124056212e-05,-0.026315646262095593
515,0.0516,722.282,54.825,-0.000581526,199.05,-1.82659,-0.485469,0.0459669,-0.0178698,-0.02672,0.0344927,-0.000304645,-8.19046e-05,0.0468345,0.047039753367520865,0.0350944721588875,-0.00030459860042386655,-0.017711081950108398,-8.190124590978787e-05,-0.02636617916871431
516,0.0517,722.506,54.8432,-0.000583389,199.114,-1.82746,-0.4857,0.0460537,-0.0179045,-0.026772,0.0345584,-0.00030534,-8.2092e-05,0.0469289,0.047130640362551546,0.03516248009974454,-0.000305293388486394,-0.01774516678418936,-8.208863054393056e-05,-0.026416806811067395
517,0.0518,722.729,54.8613,-0.000585253,199.178,-1.82832,-0.48593,0.0461405,-0.0179392,-0.0268239,0.0346241,-0.000306036,-8.22795e-05,0.0470233,0.04722153524691608,0.03523049250887045,-0.00030598917576007967,-0.017779250435547178,-8.227611513478283e-05,-0.026467334467589865
518,0.0519,722.952,54.8794,-0.000587118,199.242,-1.82918,-0.48616,0.0462273,-0.0179738,-0.0268759,0.0346899,-0.000306731,-8.2467e-05,0.0471178,0.04731243802129881,0.03529861291641434,-0.00030668396285615795,-0.017813234685551294,-8.246359969044104e-05,-0.026517956850004243
519,0.052,723.175,54.8975,-0.000588985,199.305,-1.83004,-0.486389,0.0463141,-0.0180085,-0.0269278,0.0347556,-0.000307427,-8.26544e-05,0.0472122,0.04740334868638474,0.035366634269759833,-0.00030737974916206223,-0.017847315974993894,-8.265098421922357e-05,-0.02656847925697592
520,0.0521,723.397,54.9156,-0.000590852,199.369,-1.8309,-0.486617,0.0464008,-0.0180431,-0.0269797,0.0348213,-0.000308122,-8.28419e-05,0.0473066,0.04749416249343752,0.035434660092255266,-0.0003080745352916914,-0.017881297869970947,-8.283846870460465e-05,-0.02661899904190268
521,0.0522,723.619,54.9336,-0.000592721,199.432,-1.83175,-0.486845,0.0464876,-0.0180778,-0.0270316,0.034887,-0.000308818,-8.30294e-05,0.047401,0.04758508893289237,0.03550269038419396,-0.0003087703206295922,-0.017915376797662086,-8.302595315479167e-05,-0.02666951620492064
522,0.0523,723.84,54.9516,-0.000594591,199.495,-1.8326,-0.487072,0.0465743,-0.0181124,-0.0270836,0.0349527,-0.000309513,-8.32169e-05,0.0474955,0.04767591849750752,0.035570725145869675,-0.0003094651057928832,-0.01794935633777539,-8.321343756978461e-05,-0.026720128074158023
523,0.0524,724.062,54.9696,-0.000596462,199.558,-1.83345,-0.487298,0.0466611,-0.0181471,-0.0271355,0.0350184,-0.000310209,-8.34044e-05,0.0475899,0.047766860714068216,0.03563876437757596,-0.00031016089016300263,-0.017983432903878604,-8.34009219496945e-05,-0.026770639988715428
524,0.0525,724.282,54.9875,-0.000598334,199.621,-1.83429,-0.487524,0.0467478,-0.0181817,-0.0271874,0.0350841,-0.000310905,-8.35919e-05,0.0476842,0.047857706038979986,0.0357068080796068,-0.00031085667404884276,-0.018017410089291475,-8.358840629452136e-05,-0.026821149281772594
525,0.0526,724.503,55.0054,-0.000600207,199.684,-1.83514,-0.487749,0.0468345,-0.0182164,-0.0272393,0.0351498,-0.0003116,-8.37794e-05,0.0477786,0.0479485592405231,0.035774856252255516,-0.0003115514577620715,-0.01805148429397052,-8.377589060404311e-05,-0.026871655953465412
526,0.0527,724.723,55.0233,-0.000602081,199.747,-1.83598,-0.487974,0.0469212,-0.018251,-0.0272912,0.0352155,-0.000312296,-8.39669e-05,0.047873,0.04803942031938013,0.035842908895816095,-0.0003122472406801302,-0.018085459124845937,-8.396337487848182e-05,-0.026922160003929885
527,0.0528,724.943,55.0411,-0.000603957,199.81,-1.83682,-0.488197,0.0470079,-0.0182857,-0.0273431,0.0352812,-0.000312992,-8.41545e-05,0.0479674,0.048130289276234084,0.0359109660105823,-0.00031294302311390965,-0.018119530968264463,-8.415095910940806e-05,-0.026972661433302347
528,0.0529,725.162,55.0589,-0.000605833,199.872,-1.83765,-0.488421,0.0470946,-0.0183203,-0.027395,0.0353469,-0.000313687,-8.4342e-05,0.0480617,0.04822116611176819,0.0359790275968479,-0.0003136378053770761,-0.01815350344476574,-8.433844331345863e-05,-0.02702316024171847
529,0.053,725.381,55.0767,-0.000607711,199.935,-1.83849,-0.488643,0.0471813,-0.0183549,-0.0274469,0.0354125,-0.000314383,-8.45295e-05,0.0481561,0.048312050826665676,0.03604699005020229,-0.0003143335868429631,-0.018187474745839594,-8.452592748242616e-05,-0.027073656429314585
530,0.0531,725.6,55.0945,-0.00060959,199.997,-1.83932,-0.488865,0.047268,-0.0183896,-0.0274988,0.0354782,-0.000315079,-8.47171e-05,0.0482505,0.048402943421609335,0.03611506057354075,-0.00031502936782468183,-0.01822154304937751,-8.471351160777019e-05,-0.027124149996226476
531,0.0532,725.818,55.1122,-0.00061147,200.059,-1.84015,-0.489087,0.0473546,-0.0184242,-0.0275506,0.0355439,-0.000315775,-8.49046e-05,0.0483448,0.04849373904790344,0.03618313556925967,-0.0003157251483221213,-0.018255511996321805,-8.490099570646059e-05,-0.027174543660049566
532,0.0533,726.036,55.1299,-0.000613351,200.121,-1.84098,-0.489308,0.0474413,-0.0184588,-0.0276025,0.0356095,-0.000316471,-8.50922e-05,0.0484391,0.04858464739589885,0.03625111141253634,-0.00031642092833528146,-0.018289479767960914,-8.508857976141648e-05,-0.027225031991050086
533,0.0534,726.253,55.1476,-0.000615233,200.184,-1.8418,-0.489528,0.0475279,-0.0184934,-0.0276544,0.0356752,-0.000317166,-8.52798e-05,0.0485335,0.048675458758438594,0.03631919534708872,-0.00031711570818127033,-0.01832344636433536,-8.52761637811783e-05,-0.027275517701774166
534,0.0535,726.471,55.1652,-0.000617116,200.245,-1.84262,-0.489747,0.0476146,-0.018528,-0.0277062,0.0357408,-0.000317862,-8.54673e-05,0.0486278,0.04876638286221602,0.036387180116179696,-0.0003178114872266491,-0.018357411785486,-8.546364777439752e-05,-0.02732590352495312
535,0.0536,726.687,55.1828,-0.000619,200.307,-1.84344,-0.489966,0.0477012,-0.0185626,-0.0277581,0.0358064,-0.000318558,-8.56549e-05,0.0487221,0.048857209963728554,0.03645516934521753,-0.00031850726578774857,-0.018391376031453355,-8.56512317237712e-05,-0.02737638400058051
536,0.0537,726.904,55.2004,-0.000620886,200.369,-1.84426,-0.490185,0.0477878,-0.0185973,-0.02781,0.0358721,-0.000319254,-8.58425e-05,0.0488164,0.048948044931208745,0.03652326668681671,-0.00031920304386456877,-0.01842543725973933,-8.583881563806184e-05,-0.027426861856339246
537,0.0538,727.12,55.2179,-0.000622772,200.431,-1.84508,-0.490403,0.0478745,-0.0186319,-0.0278618,0.0359377,-0.00031995,-8.60301e-05,0.0489107,0.04903899266923162,0.03659126484342656,-0.0003198988214571097,-0.01845939915206607,-8.602639951704738e-05,-0.02747723984009398
538,0.0539,727.336,55.2355,-0.000624659,200.492,-1.84589,-0.49062,0.0479611,-0.0186665,-0.0279137,0.0360033,-0.000320646,-8.62177e-05,0.049005,0.04912984337977577,0.03665926746086168,-0.0003205945985653713,-0.01849335986933165,-8.621398336094988e-05,-0.027527712461570486
539,0.054,727.551,55.253,-0.000626548,200.554,-1.8467,-0.490836,0.0480477,-0.0187011,-0.0279655,0.0360689,-0.000321342,-8.64053e-05,0.0490993,0.04922070195833217,0.036727274539414934,-0.00032129037518935366,-0.018527319411576704,-8.640156716954728e-05,-0.02757808522139915
540,0.0541,727.766,55.2704,-0.000628438,200.615,-1.84751,-0.491052,0.0481343,-0.0187357,-0.0280173,0.0361345,-0.000322038,-8.65929e-05,0.0491935,0.04931156840558226,0.036795286079378764,-0.00032198615132916775,-0.018561277778841867,-8.658915094306163e-05,-0.02762845537198655
541,0.0542,727.981,55.2879,-0.000630328,200.676,-1.84832,-0.491268,0.0482208,-0.0187703,-0.0280692,0.0362002,-0.000322734,-8.67805e-05,0.0492878,0.04940233778196812,0.03686340576738156,-0.00032268192698470255,-0.018595234971167884,-8.677673468138192e-05,-0.027678920145580488
542,0.0543,728.196,55.3053,-0.00063222,200.738,-1.84912,-0.491483,0.0483074,-0.0188048,-0.028121,0.0362657,-0.00032343,-8.69681e-05,0.0493821,0.049493219959561685,0.03693132254470943,-0.00032337770215595807,-0.0186290928515096,-8.696431838439711e-05,-0.027729285073054166
543,0.0544,728.41,55.3227,-0.000634113,200.799,-1.84993,-0.491697,0.048394,-0.0188394,-0.0281728,0.0363313,-0.000324126,-8.71557e-05,0.0494763,0.049584110007892424,0.03699934747066158,-0.0003240734768429343,-0.018663047697474733,-8.715190205232926e-05,-0.02777964739169203
544,0.0545,728.623,55.34,-0.000636007,200.86,-1.85073,-0.491911,0.0484805,-0.018874,-0.0282246,0.0363969,-0.000324822,-8.73434e-05,0.0495706,0.04967490296014665,0.037067376859195145,-0.00032476925104563126,-0.018697001368622512,-8.733958567630484e-05,-0.027830007101629417
545,0.0546,728.837,55.3573,-0.000637902,200.92,-1.85152,-0.492124,0.0485671,-0.0189086,-0.0282765,0.0364625,-0.000325518,-8.7531e-05,0.0496648,0.04976580874290648,0.037135410710603,-0.00032546502476415995,-0.01873095386499357,-8.752716927373783e-05,-0.027880461414960034
546,0.0547,729.05,55.3746,-0.000639798,200.981,-1.85232,-0.492336,0.0486536,-0.0189432,-0.0283283,0.0365281,-0.000326214,-8.77186e-05,0.0497591,0.049856617412781246,0.037203449025178026,-0.00032616079799829834,-0.018764905186628544,-8.771475283608776e-05,-0.02793081590286628
547,0.0548,729.262,55.3919,-0.000641695,201.042,-1.85311,-0.492548,0.0487402,-0.0189778,-0.0283801,0.0365937,-0.00032691,-8.79063e-05,0.0498533,0.04994753893269421,0.037271491803212875,-0.00032685657074826846,-0.018798855333568176,-8.790243635437012e-05,-0.0279811677824775
548,0.0549,729.475,55.4091,-0.000643594,201.102,-1.85391,-0.492759,0.0488267,-0.0190123,-0.0284319,0.0366592,-0.000327606,-8.80939e-05,0.0499475,0.05003836332291001,0.03733943531105144,-0.0003275523430139593,-0.01883270618912858,-8.809001984633191e-05,-0.028031517053929034
549,0.055,729.687,55.4263,-0.000645493,201.163,-1.8547,-0.49297,0.0489132,-0.0190469,-0.0284837,0.0367248,-0.000328302,-8.82816e-05,0.0500417,0.050129195569775575,0.03740748701007934,-0.0003282481147954819,-0.01886665399019405,-8.827770329422613e-05,-0.02808186371735577
550,0.0551,729.898,55.4435,-0.000647393,201.223,-1.85548,-0.49318,0.0489997,-0.0190815,-0.0285355,0.0367903,-0.000328999,-8.84692e-05,0.0501359,0.050220035673970154,0.03747543942589582,-0.0003289448857636268,-0.01890060061668597,-8.846528671568876e-05,-0.028132207772892937
551,0.0552,730.11,55.4607,-0.000649294,201.284,-1.85627,-0.49339,0.0490862,-0.019116,-0.0285873,0.0368559,-0.000329695,-8.86569e-05,0.0502301,0.05031088363617364,0.037543500047086065,-0.0003296406565759247,-0.018934447962094647,-8.865297009319484e-05,-0.028182549220675535
552,0.0553,730.321,55.4778,-0.000651197,201.344,-1.85705,-0.493599,0.0491727,-0.0191506,-0.028639,0.0369214,-0.000330391,-8.88445e-05,0.0503243,0.05040173945706594,0.03761146137204818,-0.00033033642690383225,-0.018968392242955767,-8.884055344426933e-05,-0.02823279088412267
553,0.0554,730.531,55.4949,-0.0006531,201.404,-1.85783,-0.493807,0.0492592,-0.0191851,-0.0286908,0.036987,-0.000331087,-8.90322e-05,0.0504185,0.050492603137326286,0.03767953091657095,-0.00033103219674757156,-0.0190022372495936,-8.902823675127625e-05,-0.028283127121835006
554,0.0555,730.742,55.512,-0.000655005,201.464,-1.85861,-0.494015,0.0493457,-0.0192197,-0.0287426,0.0370525,-0.000331783,-8.92198e-05,0.0505127,0.05058347467763524,0.037747501151846885,-0.0003317279661070316,-0.019036179184985902,-8.92158200319626e-05,-0.028333460752197892
555,0.0556,730.952,55.5291,-0.00065691,201.524,-1.85939,-0.494223,0.0494321,-0.0192542,-0.0287944,0.037118,-0.000332479,-8.94075e-05,0.0506068,0.05067424901124218,0.03781547583931899,-0.00033242373498232336,-0.01907002185301465,-8.940350326858137e-05,-0.028383791775346112
556,0.0557,731.161,55.5461,-0.000658817,201.583,-1.86016,-0.494429,0.0495186,-0.0192888,-0.0288461,0.0371835,-0.000333176,-8.95952e-05,0.050701,0.050765136264598665,0.03788345497927903,-0.00033312050304012963,-0.019103961443100226,-8.959118646989506e-05,-0.02843402303482212
557,0.0558,731.371,55.5631,-0.000660724,201.643,-1.86094,-0.494636,0.049605,-0.0193233,-0.0288979,0.0372491,-0.000333872,-8.97828e-05,0.0507952,0.0508559262944448,0.03795154236716747,-0.0003338162709460857,-0.01913780177268143,-8.97787696449992e-05,-0.028484348848979102
558,0.0559,731.58,55.58,-0.000662633,201.703,-1.86171,-0.494841,0.0496915,-0.0193579,-0.0289496,0.0373146,-0.000334568,-8.99705e-05,0.0508893,0.050946829263565974,0.038019530419777015,-0.00033451203836787347,-0.01917173901762237,-8.996645277592474e-05,-0.028534574909788724
559,0.056,731.789,55.597,-0.000664542,201.762,-1.86247,-0.495047,0.0497779,-0.0193924,-0.0290014,0.0373801,-0.000335264,-9.01582e-05,0.0509834,0.051037634992365355,0.038087522925749795,-0.00033520780530538197,-0.019205577008917563,-9.015413587165622e-05,-0.02858489551549348
560,0.0561,731.997,55.6139,-0.000666453,201.822,-1.86324,-0.495251,0.0498643,-0.0194269,-0.0290531,0.0374456,-0.000335961,-9.03459e-05,0.0510776,0.05112844856711862,0.038155519885377576,-0.0003359045714226294,-0.019239413832822128,-9.03418189320826e-05,-0.02863511637817484
561,0.0562,732.205,55.6308,-0.000668365,201.881,-1.86401,-0.495455,0.0499508,-0.0194615,-0.0291049,0.0375111,-0.000336657,-9.05336e-05,0.0511717,0.05121937511043595,0.0382235212989519,-0.00033660033739102424,-0.019273347562046683,-9.05295019573149e-05,-0.028685431775966386
562,0.0563,732.413,55.6476,-0.000670277,201.94,-1.86477,-0.495659,0.0500372,-0.019496,-0.0291566,0.0375765,-0.000337353,-9.07212e-05,0.0512658,0.051310204388213654,0.03829142333761748,-0.00033729610287502876,-0.01930718204790749,-9.071708495633768e-05,-0.028735647441057388
563,0.0564,732.62,55.6645,-0.000672191,201.999,-1.86553,-0.495862,0.0501236,-0.0195305,-0.0292084,0.037642,-0.000338049,-9.09089e-05,0.0513599,0.05140104151398028,0.038359433653159414,-0.000337991867874754,-0.019341015366498793,-9.090476791118185e-05,-0.028785957631474735
564,0.0565,732.827,55.6813,-0.000674105,202.058,-1.86629,-0.496064,0.05021,-0.019565,-0.0292601,0.0377075,-0.000338746,-9.10966e-05,0.051454,0.051491886488413297,0.03842744842352319,-0.00033868863205166466,-0.01937484751786067,-9.109245083072093e-05,-0.028836168099513504
565,0.0566,733.034,55.6981,-0.000676021,202.117,-1.86704,-0.496266,0.0502963,-0.0195996,-0.0293118,0.037773,-0.000339442,-9.12843e-05,0.0515481,0.051582634153922724,0.03849546764900036,-0.0003393843960822762,-0.01940877656116069,-9.128013371506594e-05,-0.028886375971738043
566,0.0567,733.24,55.7148,-0.000677938,202.176,-1.8678,-0.496467,0.0503827,-0.0196341,-0.0293635,0.0378384,-0.000340138,-9.1472e-05,0.0516422,0.05167349481863792,0.03856338747353849,-0.0003400801596286085,-0.019442606374801663,-9.146781656421688e-05,-0.02893658124828269
567,0.0568,733.446,55.7316,-0.000679855,202.235,-1.86855,-0.496668,0.0504691,-0.0196686,-0.0294153,0.0379039,-0.000340834,-9.16597e-05,0.0517363,0.051764363334053654,0.038631415603314956,-0.0003407759226906615,-0.019476435021334226,-9.165549937806272e-05,-0.028986881030598433
568,0.0569,733.652,55.7483,-0.000681774,202.294,-1.8693,-0.496868,0.0505554,-0.0197031,-0.029467,0.0379693,-0.000341531,-9.18474e-05,0.0518304,0.051855134515329526,0.03869934431914035,-0.0003414726849270133,-0.01951026250079868,-9.18431821567145e-05,-0.029037081111165874
569,0.057,733.858,55.7649,-0.000683694,202.352,-1.87005,-0.497068,0.0506418,-0.0197376,-0.0295187,0.0380348,-0.000342227,-9.20351e-05,0.0519244,0.05194601872509286,0.03876738135438185,-0.0003421684470198416,-0.019544088813235105,-9.203086490006118e-05,-0.029087278596456323
570,0.0571,734.063,55.7816,-0.000685614,202.411,-1.87079,-0.497267,0.0507281,-0.0197721,-0.0295704,0.0381002,-0.000342923,-9.22228e-05,0.0520185,0.052036805583905554,0.038835318962657794,-0.00034286420862850164,-0.019577913958683912,-9.221854760832482e-05,-0.029137473486603782
571,0.0572,734.268,55.7982,-0.000687536,202.469,-1.87154,-0.497466,0.0508145,-0.0198066,-0.0296221,0.0381657,-0.000343619,-9.24105e-05,0.0521125,0.05212770549072743,0.03890336490453028,-0.0003435599697528824,-0.019611737937185403,-9.240623028128336e-05,-0.029187665781742478
572,0.0573,734.472,55.8148,-0.000689458,202.528,-1.87228,-0.497664,0.0509008,-0.0198411,-0.0296738,0.0382311,-0.000344316,-9.25982e-05,0.0522066,0.05221850802978434,0.038971311406421405,-0.00034425673004878643,-0.019645560748779767,-9.259391291904784e-05,-0.029237855482006636
573,0.0574,734.677,55.8314,-0.000691382,202.586,-1.87302,-0.497862,0.0509871,-0.0198756,-0.0297255,0.0382965,-0.000345012,-9.27859e-05,0.0523006,0.05230931840543862,0.039039262352159154,-0.0003449524902039425,-0.019679382393507194,-9.278159552150722e-05,-0.029288042587530372
574,0.0575,734.88,55.8479,-0.000693306,202.644,-1.87376,-0.498059,0.0510734,-0.0199101,-0.0297771,0.0383619,-0.000345708,-9.29736e-05,0.0523947,0.05240013661836662,0.03910721774203396,-0.00034564824987493026,-0.019713202871407987,-9.296927808877253e-05,-0.029338130032265597
575,0.0576,735.084,55.8645,-0.000695232,202.702,-1.8745,-0.498255,0.0511597,-0.0199446,-0.0298288,0.0384274,-0.000346405,-9.31613e-05,0.0524887,0.05249096266924447,0.039175281493859515,-0.0003463450087153319,-0.019747022182522445,-9.315696062084378e-05,-0.02938831195372915
576,0.0577,735.287,55.881,-0.000697158,202.76,-1.87523,-0.498451,0.051246,-0.0199791,-0.0298805,0.0384928,-0.000347101,-9.3349e-05,0.0525827,0.05258179655874873,0.039243245779677194,-0.000347040767416984,-0.01978084032689076,-9.334464311772095e-05,-0.029438491280854295
577,0.0578,735.49,55.8974,-0.000699086,202.818,-1.87596,-0.498647,0.0513323,-0.0200135,-0.0299322,0.0385582,-0.000347797,-9.35367e-05,0.0526767,0.05267263828755597,0.039311214510504344,-0.0003477365256345788,-0.019814559286014166,-9.353232557929303e-05,-0.029488668013775365
578,0.0579,735.693,55.9139,-0.000701014,202.876,-1.87669,-0.498842,0.0514186,-0.020048,-0.0299838,0.0386236,-0.000348494,-9.37244e-05,0.0527707,0.05276348785634277,0.03937918768663207,-0.00034843328301936705,-0.019848375100392612,-9.372000800567104e-05,-0.02953874510650578
579,0.058,735.896,55.9303,-0.000702944,202.933,-1.87742,-0.499036,0.0515048,-0.0200825,-0.0300355,0.038689,-0.00034919,-9.39121e-05,0.0528647,0.05285423998035643,0.039447165308350796,-0.00034912904026762615,-0.019882189748145596,-9.390769039674396e-05,-0.029588916656438036
580,0.0581,736.098,55.9467,-0.000704874,202.991,-1.87815,-0.49923,0.0515911,-0.020117,-0.0300871,0.0387543,-0.000349886,-9.40998e-05,0.0529587,0.05294510522204554,0.03951504342444179,-0.000349824797031717,-0.019916003229313417,-9.409537275273383e-05,-0.02963898857647196
581,0.0582,736.299,55.9631,-0.000706805,203.049,-1.87888,-0.499424,0.0516774,-0.0201514,-0.0301388,0.0388197,-0.000350583,-9.42875e-05,0.0530527,0.05303597830574325,0.03958302993141616,-0.00035052155296100285,-0.019949717538912837,-9.428305507341861e-05,-0.029689154943950746
582,0.0583,736.501,55.9794,-0.000708738,203.106,-1.8796,-0.499617,0.0517636,-0.0201859,-0.0301904,0.0388851,-0.000351279,-9.44752e-05,0.0531466,0.05312675391944599,0.03965102088485373,-0.000351217308755869,-0.01998352869041209,-9.44707373587983e-05,-0.029739221691822415
583,0.0584,736.702,55.9958,-0.000710671,203.163,-1.88032,-0.499809,0.0518498,-0.0202204,-0.0302421,0.0389505,-0.000351975,-9.46629e-05,0.0532406,0.05321753735834389,0.03971901628504493,-0.00035191306406656686,-0.02001733867544664,-9.465841960909493e-05,-0.029789382877383197
584,0.0585,736.903,56.0121,-0.000712605,203.221,-1.88104,-0.500001,0.0519361,-0.0202548,-0.0302937,0.0390158,-0.000352671,-9.48506e-05,0.0533345,0.053308433953949574,0.03978691215358432,-0.00035260881889287443,-0.020051049499166695,-9.484610182408648e-05,-0.02983944445362685
585,0.0586,737.103,56.0283,-0.00071454,203.278,-1.88176,-0.500193,0.0520223,-0.0202893,-0.0303454,0.0390812,-0.000353368,-9.50383e-05,0.0534285,0.053399233054341355,0.03985491644135508,-0.0003533055728817125,-0.020084857154773594,-9.503378400388396e-05,-0.029889600457804755
586,0.0587,737.304,56.0446,-0.000716476,203.335,-1.88247,-0.500384,0.0521085,-0.0203237,-0.030397,0.0391465,-0.000354064,-9.5226e-05,0.0535224,0.0534900399819529,0.03992282118446444,-0.0003540013267389064,-0.02011856565589787,-9.522146614837634e-05,-0.029939656862954744
587,0.0588,737.504,56.0608,-0.000718413,203.392,-1.88319,-0.500574,0.0521947,-0.0203582,-0.0304486,0.0392119,-0.00035476,-9.54137e-05,0.0536164,0.053580854737459216,0.0399908343609765,-0.000354697080111932,-0.020152370982237544,-9.540914825767466e-05,-0.029989710685260906
588,0.0589,737.703,56.077,-0.000720351,203.449,-1.8839,-0.500764,0.0522809,-0.0203926,-0.0305002,0.0392772,-0.000355457,-9.56014e-05,0.0537103,0.05367167732153466,0.04005874797981579,-0.0003553938326452677,-0.02018607716092613,-9.55968303317789e-05,-0.030039761924856467
589,0.059,737.903,56.0932,-0.00072229,203.506,-1.88461,-0.500954,0.0523671,-0.0204271,-0.0305519,0.0393426,-0.000356153,-9.57892e-05,0.0538042,0.05376250773485447,0.04012677004623111,-0.0003560895850489576,-0.02021988015815901,-9.578461236103841e-05,-0.030089907572888763
590,0.0591,738.102,56.1093,-0.00072423,203.562,-1.88532,-0.501143,0.0524532,-0.0204615,-0.0306035,0.0394079,-0.000356849,-9.59769e-05,0.0538981,0.05385324059276386,0.04019469254196051,-0.00035678533696847925,-0.020253584014572,-9.59722943646435e-05,-0.03013995364245836
591,0.0592,738.3,56.1255,-0.000726171,203.619,-1.88602,-0.501331,0.0525394,-0.020496,-0.0306551,0.0394732,-0.000357545,-9.61646e-05,0.053992,0.05394408665751205,0.040262619473173666,-0.00035748108840383264,-0.020287384682858622,-9.615997633305451e-05,-0.03018999712971726
592,0.0593,738.499,56.1416,-0.000728112,203.676,-1.88673,-0.501519,0.0526256,-0.0205304,-0.0307067,0.0395385,-0.000358242,-9.63523e-05,0.0540859,0.05403494055352853,0.04033055084016013,-0.0003581778389967205,-0.02032108621715578,-9.634765826627145e-05,-0.03024003803479891
593,0.0594,738.697,56.1577,-0.000730055,203.732,-1.88743,-0.501707,0.0527117,-0.0205648,-0.0307583,0.0396039,-0.000358938,-9.654e-05,0.0541798,0.054125696868913664,0.04039859068306373,-0.0003588735894627382,-0.020354786592140184,-9.65353401641833e-05,-0.030290076357836537
594,0.0595,738.895,56.1737,-0.000731999,203.789,-1.88813,-0.501894,0.0527979,-0.0205992,-0.0308099,0.0396692,-0.000359634,-9.67277e-05,0.0542737,0.054216566420405066,0.040466530929260225,-0.0003595693394445876,-0.020388485807851575,-9.672302202690108e-05,-0.030340112098963257
595,0.0596,739.093,56.1897,-0.000733943,203.845,-1.88883,-0.50208,0.052884,-0.0206337,-0.0308615,0.0397345,-0.00036033,-9.69153e-05,0.0543676,0.05430733837445034,0.040534475612099774,-0.0003602650889422687,-0.02042228182210659,-9.691060386407546e-05,-0.030390145258312296
596,0.0597,739.29,56.2058,-0.000735888,203.901,-1.88953,-0.502266,0.0529701,-0.0206681,-0.030913,0.0397998,-0.000361027,-9.7103e-05,0.0544614,0.0543981181442974,0.0406024247318717,-0.0003609618375947088,-0.020455978716022005,-9.709828565629408e-05,-0.030440078880029753
597,0.0598,739.487,56.2217,-0.000737835,203.957,-1.89022,-0.502452,0.0530562,-0.0207025,-0.0309646,0.039865,-0.000361723,-9.72907e-05,0.0545553,0.054488905730619264,0.04067027422183367,-0.0003616575861230542,-0.0204896744507842,-9.728596741331863e-05,-0.030490106881225998
598,0.0599,739.684,56.2377,-0.000739782,204.014,-1.89091,-0.502637,0.0531423,-0.0207369,-0.0310162,0.0399303,-0.000362419,-9.74784e-05,0.0546491,0.05457970113408872,0.04073823220954442,-0.0003623533341673424,-0.020523369026433036,-9.747364913514911e-05,-0.03054013230104402
599,0.06,739.88,56.2536,-0.00074173,204.07,-1.89161,-0.502822,0.0532284,-0.0207713,-0.0310678,0.0399956,-0.000363115,-9.76661e-05,0.054743,0.05467050435537879,0.04080619463505686,-0.00036304908172724026,-0.020557062443008478,-9.76613308216745e-05,-0.030590155139616937
600,0.0601,740.076,56.2696,-0.000743679,204.125,-1.8923,-0.503006,0.0533145,-0.0208058,-0.0311193,0.0400609,-0.000363812,-9.78538e-05,0.0548368,0.054761315395162935,0.04087416149866052,-0.00036374582843923253,-0.02059085264146987,-9.784901247311684e-05,-0.030640078461090625
601,0.0602,740.272,56.2854,-0.000745629,204.181,-1.89298,-0.50319,0.0534006,-0.0208402,-0.0311709,0.0401262,-0.000364508,-9.80415e-05,0.0549307,0.05485213425411439,0.04094213280064518,-0.00036444157503001673,-0.020624543736648904,-9.803669408925408e-05,-0.030690096142574785
602,0.0603,740.468,56.3013,-0.00074758,204.237,-1.89367,-0.503373,0.0534867,-0.0208746,-0.0312225,0.0401914,-0.000365204,-9.82292e-05,0.0550245,0.05494296093290596,0.041010004440295234,-0.00036513732113652164,-0.020658233672874116,-9.822437567008624e-05,-0.030740111243213186
603,0.0604,740.663,56.3172,-0.000749532,204.293,-1.89436,-0.503556,0.0535728,-0.020909,-0.031274,0.0402567,-0.0003659,-9.84168e-05,0.0551183,0.05503379543221132,0.041077984613113516,-0.0003658330667588583,-0.020691922450185474,-9.841195722559704e-05,-0.03079002684214638
604,0.0605,740.858,56.333,-0.000751485,204.348,-1.89504,-0.503738,0.0536588,-0.0209434,-0.0313256,0.0403219,-0.000366596,-9.86045e-05,0.0552121,0.05512453224024538,0.041145865110590485,-0.00036652881189691566,-0.020725610068622835,-9.859963873604105e-05,-0.03084003678649372
605,0.0606,741.053,56.3488,-0.000753438,204.404,-1.89572,-0.50392,0.0537449,-0.0209778,-0.0313771,0.0403872,-0.000367292,-9.87922e-05,0.0553059,0.05521538237351331,0.04121385415540035,-0.00036722455655080477,-0.020759296528226057,-9.8787320211291e-05,-0.030889947239393978
606,0.0607,741.247,56.3646,-0.000755393,204.459,-1.8964,-0.504101,0.0538309,-0.0210121,-0.0314286,0.0404524,-0.000367989,-9.89799e-05,0.0553997,0.05530613479869584,0.041281743511860425,-0.0003679213003524584,-0.02079288390832823,-9.897500165134687e-05,-0.03093985512197217
607,0.0608,741.442,56.3803,-0.000757348,204.515,-1.89708,-0.504282,0.053917,-0.0210465,-0.0314802,0.0405177,-0.000368685,-9.91675e-05,0.0554935,0.055397000568617294,0.0413497414298194,-0.0003686170440371228,-0.02082656805375116,-9.916258306597037e-05,-0.030989857335379623
608,0.0609,741.635,56.396,-0.000759304,204.57,-1.89775,-0.504462,0.054003,-0.0210809,-0.0315317,0.0405829,-0.000369381,-9.93552e-05,0.0555873,0.055487768613636135,0.041417639646418536,-0.00036931278723750793,-0.02086025104045941,-9.935026443552708e-05,-0.031039760072720357
609,0.061,741.829,56.4117,-0.000761262,204.625,-1.89843,-0.504642,0.054089,-0.0211153,-0.0315832,0.0406481,-0.000370077,-9.95429e-05,0.055681,0.05557854446504251,0.04148554229012569,-0.0003700085299537248,-0.020893932868492948,-9.953794576988972e-05,-0.031089660240136263
610,0.0611,742.022,56.4274,-0.00076322,204.68,-1.8991,-0.504822,0.054175,-0.0211497,-0.0316347,0.0407133,-0.000370773,-9.97305e-05,0.0557748,0.05566932812350789,0.04155344936122929,-0.0003707042721856624,-0.02092761353789141,-9.972552707904203e-05,-0.03113955783775979
611,0.0612,742.216,56.4431,-0.000765179,204.735,-1.89977,-0.505001,0.054261,-0.021184,-0.0316863,0.0407785,-0.000371469,-9.99182e-05,0.0558685,0.05576011958970373,0.04162136086001844,-0.00037140001393332067,-0.0209611951448192,-9.991320834290551e-05,-0.031189549746773015
612,0.0613,742.408,56.4587,-0.000767138,204.79,-1.90044,-0.505179,0.054347,-0.0212184,-0.0317378,0.0408437,-0.000372165,-0.000100106,0.0559623,0.05585091886430127,0.041689276786781804,-0.0003720957551968107,-0.020994873500435163,-0.00010010098956159119,-0.031239442200219347
613,0.0614,742.601,56.4743,-0.000769099,204.845,-1.90111,-0.505357,0.054433,-0.0212528,-0.0317893,0.0409089,-0.000372861,-0.000100294,0.056056,0.0559417259479722,0.04175719714180781,-0.00037279149597602146,-0.02102855069753562,-0.00010028897072489329,-0.03128933208427043
614,0.0615,742.793,56.4899,-0.000771061,204.9,-1.90177,-0.505535,0.054519,-0.0212872,-0.0318408,0.0409741,-0.000373557,-0.000100481,0.0561498,0.0560325408413882,0.041825121925385345,-0.00037348723627106395,-0.021062226736160428,-0.00010047595195339376,-0.031339219399058704
615,0.0616,742.985,56.5055,-0.000773023,204.955,-1.90244,-0.505712,0.054605,-0.0213215,-0.0318923,0.0410393,-0.000374253,-0.000100669,0.0562435,0.05612336354522074,0.04189305113780306,-0.00037418297608182716,-0.02109580372593478,-0.0001006639330461967,-0.03138910414471652
616,0.0617,743.177,56.521,-0.000774987,205.009,-1.9031,-0.505889,0.0546909,-0.0213559,-0.0319438,0.0411045,-0.000374949,-0.000100856,0.0563372,0.05621408843872766,0.04196098477934984,-0.0003748787154083111,-0.02112947745109517,-0.0001008509142046421,-0.031438986321375983
617,0.0618,743.368,56.5366,-0.000776951,205.064,-1.90376,-0.506065,0.0547769,-0.0213902,-0.0319953,0.0411697,-0.000375645,-0.000101044,0.0564309,0.05630492675632515,0.042028922850314565,-0.00037557445425062674,-0.021163052134209548,-0.00010103889522694587,-0.03148886592916944
618,0.0619,743.559,56.5521,-0.000778916,205.118,-1.90442,-0.506241,0.0548628,-0.0214246,-0.0320468,0.0412349,-0.000376341,-0.000101232,0.0565246,0.0563956672467818,0.04209686535098589,-0.0003762701926086631,-0.0211967235460645,-0.00010122687621394455,-0.03153874296822934
619,0.062,743.75,56.5676,-0.000780882,205.173,-1.90508,-0.506417,0.0549487,-0.0214589,-0.0320982,0.0413,-0.000377037,-0.000101419,0.0566183,0.05648641553218137,0.04216470806517658,-0.00037696593048253124,-0.021230295922677334,-0.00010141385726702978,-0.03158852059754469
620,0.0621,743.941,56.583,-0.000782849,205.227,-1.90573,-0.506592,0.0550347,-0.0214933,-0.0321497,0.0413652,-0.000377733,-0.000101607,0.056712,0.05657727727091588,0.04223265941933252,-0.0003776616678721201,-0.021263965021385722,-0.00010160183818364033,-0.031638392504521384
621,0.0622,744.131,56.5985,-0.000784816,205.281,-1.90639,-0.506766,0.0551206,-0.0215276,-0.0322012,0.0414304,-0.000378429,-0.000101795,0.0568057,0.05666804115728663,0.042300615204061254,-0.00037835740477754065,-0.02129753509165555,-0.00010178981906483475,-0.03168826184316087
622,0.0623,744.321,56.6139,-0.000786785,205.335,-1.90704,-0.50694,0.0552065,-0.021562,-0.0322526,0.0414955,-0.000379125,-0.000101982,0.0568994,0.05675881284061002,0.04236847118279918,-0.00037905314119868194,-0.02133120187737636,-0.00010197680001255982,-0.03173803178740364
623,0.0624,744.511,56.6293,-0.000788754,205.39,-1.90769,-0.507114,0.0552924,-0.0215963,-0.0323041,0.0415606,-0.000379821,-0.00010217,0.056993,0.05684959232155595,0.04243633157910498,-0.00037974887713554395,-0.0213647696414615,-0.00010216478082325509,-0.03178789599475218
624,0.0625,744.701,56.6446,-0.000790725,205.444,-1.90834,-0.507287,0.0553783,-0.0216306,-0.0323556,0.0416258,-0.000380517,-0.000102357,0.0570867,0.05694037960079412,0.04250430064369137,-0.0003804446125882377,-0.021398336254192074,-0.0001023517617010361,-0.03183775763416019
625,0.0626,744.89,56.66,-0.000792696,205.497,-1.90899,-0.50746,0.0554642,-0.021665,-0.032407,0.0416909,-0.000381213,-0.000102545,0.0571803,0.057031174678994656,0.042572169882783006,-0.00038114034755665216,-0.021431999572412597,-0.0001025397424412322,-0.03188751989451677
626,0.0627,745.079,56.6753,-0.000794668,205.551,-1.90963,-0.507632,0.0555501,-0.0216993,-0.0324585,0.041756,-0.000381909,-0.000102733,0.057274,0.05712197755682724,0.04264004354030604,-0.00038183608204078734,-0.02146556387919607,-0.0001027277231460122,-0.03193737640342609
627,0.0628,745.268,56.6906,-0.000796641,205.605,-1.91028,-0.507804,0.0556359,-0.0217336,-0.0325099,0.0418212,-0.000382605,-0.00010292,0.0573676,0.05721268251368872,0.04270802588734535,-0.00038253181604075426,-0.021499127034743548,-0.00010291470391854407,-0.03198713354350946
628,0.0629,745.456,56.7059,-0.000798614,205.659,-1.91092,-0.507976,0.0557218,-0.021768,-0.0325613,0.0418863,-0.000383301,-0.000103108,0.0574612,0.05730350098371395,0.04277590838938217,-0.0003832275495565529,-0.02153278688582083,-0.0001031026845528249,-0.03203688812614158
629,0.063,745.644,56.7212,-0.000800589,205.713,-1.91156,-0.508147,0.0558077,-0.0218023,-0.0326128,0.0419514,-0.000383996,-0.000103295,0.0575549,0.05739432725538096,0.04284379531071347,-0.0003839222829720157,-0.021566347735658797,-0.00010328966525519068,-0.03208673694278508
630,0.0631,745.832,56.7364,-0.000802564,205.766,-1.9122,-0.508317,0.0558935,-0.0218366,-0.0326642,0.0420165,-0.000384692,-0.000103483,0.0576485,0.05748505558084904,0.04291168665162748,-0.0003846180155199219,-0.02159990743437934,-0.00010347764581908336,-0.03213648640593403
631,0.0632,746.02,56.7516,-0.00080454,205.82,-1.91284,-0.508488,0.0559793,-0.0218709,-0.0327156,0.0420816,-0.000385388,-0.000103671,0.0577421,0.057575791691141465,0.04297958241241151,-0.0003853137475836599,-0.021633465982021982,-0.00010366562634755994,-0.03218623331202641
632,0.0633,746.207,56.7668,-0.000806518,205.873,-1.91347,-0.508657,0.0560652,-0.0219052,-0.0327671,0.0421467,-0.000386084,-0.000103858,0.0578357,0.05766664135358468,0.04304748259335334,-0.0003860094791632296,-0.021667023378626138,-0.00010385260694467657,-0.0322360744375908
633,0.0634,746.395,56.782,-0.000808495,205.926,-1.91411,-0.508827,0.056151,-0.0219395,-0.0328185,0.0422118,-0.000386779,-0.000104046,0.0579293,0.0577573930446047,0.04311538719474095,-0.00038670421064523897,-0.02170057962423133,-0.00010404058740265398,-0.03228581622498983
634,0.0635,746.581,56.7972,-0.000810474,205.98,-1.91474,-0.508996,0.0562368,-0.0219738,-0.0328699,0.0422769,-0.000387475,-0.000104233,0.0580228,0.0578481525224539,0.04318329621686212,-0.00038739994125691624,-0.021734134718877085,-0.00010422756792960453,-0.03233555545572664
635,0.0636,746.768,56.8123,-0.000812454,206.033,-1.91537,-0.509164,0.0563226,-0.0220081,-0.0329213,0.042342,-0.000388171,-0.000104421,0.0581164,0.057938919787800414,0.0432512096600044,-0.00038809567138453627,-0.021767688662602813,-0.00010441554831708277,-0.0323852921299328
636,0.0637,746.955,56.8274,-0.000814434,206.086,-1.916,-0.509332,0.0564084,-0.0220424,-0.0329727,0.042407,-0.000388867,-0.000104608,0.05821,0.05802969484131215,0.04331902319254821,-0.000388791401027766,-0.02180124145544793,-0.00010460252877397824,-0.03243502624773953
637,0.0638,747.141,56.8425,-0.000816415,206.139,-1.91663,-0.5095,0.0564942,-0.0220767,-0.0330241,0.0424721,-0.000389562,-0.000104796,0.0583035,0.05812047768365791,0.04338694547180433,-0.000389486130576322,-0.021834793097452065,-0.00010479050909095733,-0.032484757809278286
638,0.0639,747.327,56.8576,-0.000818397,206.192,-1.91726,-0.509667,0.05658,-0.022111,-0.0330755,0.0425372,-0.000390258,-0.000104984,0.0583971,0.058211268315505604,0.043454872172944636,-0.0003901818592518813,-0.021868343588654637,-0.00010497848937274235,-0.03253448681468052
639,0.064,747.512,56.8726,-0.00082038,206.245,-1.91788,-0.509834,0.0566658,-0.0221453,-0.0331269,0.0426022,-0.000390953,-0.000105171,0.0584906,0.058302066737523583,0.043522698943982085,-0.0003908765878340992,-0.021901892929095057,-0.00010516546972427765,-0.032584213264077566
640,0.0641,747.698,56.8876,-0.000822364,206.298,-1.91851,-0.51,0.0567515,-0.0221796,-0.0331783,0.0426673,-0.000391649,-0.000105359,0.0585842,0.05839276711109842,0.04359063448296108,-0.0003915723155418771,-0.02193544111881285,-0.00010535344993545248,-0.03263393715760077
641,0.0642,747.883,56.9027,-0.000824349,206.35,-1.91913,-0.510166,0.0568373,-0.0222139,-0.0332296,0.0427323,-0.000392345,-0.000105546,0.0586777,0.0584835811063813,0.04365847007883539,-0.00039226804276537575,-0.021968988157847535,-0.00010554043021693271,-0.03268356176374254
642,0.0643,748.068,56.9176,-0.000826334,206.403,-1.91975,-0.510332,0.056923,-0.0222481,-0.033281,0.0427973,-0.00039304,-0.000105734,0.0587712,0.058574297036404266,0.04372631008416694,-0.00039296276989775336,-0.0220024362464869,-0.00010572841035760838,-0.03273328055088409
643,0.0644,748.252,56.9326,-0.00082832,206.456,-1.92037,-0.510497,0.0570088,-0.0222824,-0.0333324,0.0428624,-0.000393736,-0.000105921,0.0588647,0.0586651266076228,0.04379425887866262,-0.0003936584961534706,-0.022035980987628045,-0.00010591539056892252,-0.032782996782545704
644,0.0645,748.437,56.9476,-0.000830307,206.508,-1.92099,-0.510662,0.0570945,-0.0223167,-0.0333838,0.0429274,-0.000394431,-0.000106109,0.0589582,0.05875585809676198,0.04386210771055299,-0.00039435322231939907,-0.022069524578204325,-0.00010610337063921005,-0.032832710458858605
645,0.0646,748.621,56.9625,-0.000832295,206.561,-1.9216,-0.510826,0.0571802,-0.022351,-0.0334351,0.0429924,-0.000395127,-0.000106296,0.0590517,0.05884659736192277,0.04392996095276058,-0.0003950489476074459,-0.02210306701825515,-0.00010629035078035809,-0.03288232486819165
646,0.0647,748.805,56.9774,-0.000834284,206.613,-1.92222,-0.51099,0.0572659,-0.0223852,-0.0334865,0.0430574,-0.000395822,-0.000106484,0.0591452,0.05893734440377196,0.04399781860557228,-0.00039574367280703626,-0.022136510521475916,-0.00010647833078014646,-0.03293203343917217
647,0.0648,748.988,56.9923,-0.000836273,206.665,-1.92283,-0.511154,0.0573516,-0.0224195,-0.0335378,0.0431225,-0.000396518,-0.000106671,0.0592387,0.059028099222975694,0.04406578507584813,-0.0003964393971273017,-0.022170050663948282,-0.0001066653108511284,-0.03298164275336701
648,0.0649,749.172,57.0071,-0.000838263,206.718,-1.92344,-0.511317,0.0574373,-0.0224537,-0.0335892,0.0431875,-0.000397213,-0.000106859,0.0593322,0.059118861820200985,0.04413365155751481,-0.0003971341213605539,-0.02220349187636761,-0.00010685329078041761,-0.033031346219539404
649,0.065,749.355,57.022,-0.000840254,206.77,-1.92405,-0.51148,0.057523,-0.022488,-0.0336405,0.0432525,-0.000397908,-0.000107046,0.0594257,0.05920963219611397,0.044201522450646236,-0.00039782884511085914,-0.022237029721418944,-0.00010704027078134448,-0.033080950439119294
650,0.0651,749.537,57.0368,-0.000842246,206.822,-1.92466,-0.511642,0.0576087,-0.0225222,-0.0336919,0.0433175,-0.000398604,-0.000107234,0.0595191,0.05930041035138145,0.04426939775552907,-0.00039852456797995206,-0.022270468643193597,-0.00010722825064013453,-0.0331306488010078
651,0.0652,749.72,57.0516,-0.000844239,206.874,-1.92526,-0.511804,0.0576944,-0.0225565,-0.0337432,0.0433824,-0.000399299,-0.000107421,0.0596126,0.059391196286670445,0.04433717303872742,-0.00039921929076391915,-0.02230400419098122,-0.00010741523057100633,-0.033180247926495876
652,0.0653,749.902,57.0664,-0.000846232,206.926,-1.92587,-0.511965,0.0577801,-0.0225907,-0.0337945,0.0434474,-0.000399994,-0.000107609,0.059706,0.05948199000264731,0.044405057161185146,-0.00039991401306505026,-0.022337440822268295,-0.00010760321035918619,-0.033229844507614126
653,0.0654,750.085,57.0812,-0.000848226,206.978,-1.92647,-0.512127,0.0578657,-0.022625,-0.0338459,0.0435124,-0.00040069,-0.000107796,0.0597995,0.05957268554270523,0.04447294569625404,-0.00040060973448285964,-0.022370974072949523,-0.00010779019022000291,-0.033279535216544254
654,0.0655,750.267,57.0959,-0.000850221,207.03,-1.92708,-0.512287,0.0579514,-0.0226592,-0.0338972,0.0435774,-0.000401385,-0.000107983,0.0598929,0.059663494812977946,0.0445408386442212,-0.0004013044558176526,-0.022404408413905785,-0.00010797717004573659,-0.03332912670435506
655,0.0656,750.448,57.1106,-0.000852217,207.081,-1.92768,-0.512448,0.058037,-0.0226935,-0.0339485,0.0436423,-0.00040208,-0.000108171,0.0599863,0.059754205890512724,0.04460863154450512,-0.0004019991766696096,-0.02243793936763805,-0.00010816514972833424,-0.03337871564818784
656,0.0657,750.63,57.1253,-0.000854214,207.133,-1.92828,-0.512608,0.0581226,-0.0227277,-0.0339998,0.0437073,-0.000402775,-0.000108358,0.0600797,0.059844924733247984,0.044676533312338895,-0.0004026938970388416,-0.02247137141842026,-0.00010835212948401285,-0.03342830204817304
657,0.0658,750.811,57.14,-0.000856211,207.185,-1.92887,-0.512767,0.0582083,-0.0227619,-0.0340511,0.0437723,-0.00040347,-0.000108546,0.0601732,0.059935757335419115,0.044744439493931365,-0.0004033886169251266,-0.022504802325846063,-0.00010854010909611134,-0.03347788590444123
658,0.0659,750.992,57.1547,-0.00085821,207.236,-1.92947,-0.512926,0.0582939,-0.0227962,-0.0341024,0.0438372,-0.000404166,-0.000108733,0.0602666,0.060026491719623154,0.044812245608339074,-0.0004040843359245372,-0.022538329836126136,-0.00010872708878162385,-0.03352746721712274
659,0.066,751.172,57.1693,-0.000860209,207.288,-1.93007,-0.513085,0.0583795,-0.0228304,-0.0341537,0.0439022,-0.000404861,-0.000108921,0.0603599,0.06011723387102297,0.04488016061151723,-0.00040477905484448407,-0.022571758453613144,-0.00010891506832322317,-0.03357704598634825
660,0.0661,751.353,57.1839,-0.000862208,207.339,-1.93066,-0.513243,0.0584651,-0.0228646,-0.034205,0.0439671,-0.000405556,-0.000109108,0.0604533,0.06020798379028358,0.044947975534511464,-0.000405473773281706,-0.022605185927860982,-0.00010910204793868061,-0.0336266222122481
661,0.0662,751.533,57.1986,-0.000864209,207.39,-1.93125,-0.513402,0.0585507,-0.0228988,-0.0342563,0.044032,-0.000406251,-0.000109295,0.0605467,0.06029874147806957,0.04501579485883678,-0.00040616849123598087,-0.02263861225890873,-0.000109289027519055,-0.03367619589495274
662,0.0663,751.713,57.2131,-0.00086621,207.442,-1.93184,-0.513559,0.0586363,-0.022933,-0.0343076,0.0440969,-0.000406946,-0.000109483,0.0606401,0.06038950693504619,0.045083618584779384,-0.00040686320870741977,-0.022672037446795468,-0.00010947700695507212,-0.033725767034592735
663,0.0664,751.893,57.2277,-0.000868212,207.493,-1.93243,-0.513716,0.0587219,-0.0229673,-0.0343589,0.0441619,-0.000407641,-0.00010967,0.0607334,0.060480280161878675,0.045151551227774256,-0.0004075579256961337,-0.022705559221009364,-0.00010966398646539144,-0.03377533563129853
664,0.0665,752.072,57.2422,-0.000870215,207.544,-1.93302,-0.513873,0.0588074,-0.0230015,-0.0344101,0.0442268,-0.000408336,-0.000109857,0.0608268,0.06057095510213095,0.04521938376459089,-0.0004082526422019006,-0.022738982119349216,-0.00010985096594073873,-0.033824805067685815
665,0.0666,752.251,57.2568,-0.000872219,207.595,-1.93361,-0.51403,0.058893,-0.0230357,-0.0344614,0.0442917,-0.000409031,-0.000110045,0.0609201,0.060661743861591066,0.045287220703882136,-0.00040894735822494255,-0.02277240387464541,-0.00011003894527106262,-0.03387436858387072
666,0.0667,752.43,57.2713,-0.000874223,207.646,-1.93419,-0.514186,0.0589785,-0.0230699,-0.0345127,0.0443566,-0.000409726,-0.000110232,0.0610135,0.06075243431765309,0.045355062045933536,-0.0004096420737651485,-0.022805824486937132,-0.00011022592467635484,-0.033923929557512555
667,0.0668,752.609,57.2858,-0.000876229,207.697,-1.93477,-0.514341,0.0590641,-0.0231041,-0.0345639,0.0444215,-0.000410421,-0.00011042,0.0611068,0.06084323861239893,0.045422907791031086,-0.00041033678882240743,-0.022839243956263577,-0.00011041390393617956,-0.03397339138608557
668,0.0669,752.788,57.3002,-0.000878235,207.748,-1.93536,-0.514497,0.0591496,-0.0231383,-0.0346152,0.0444864,-0.000411116,-0.000110607,0.0612001,0.06093394458692547,0.045490757939460114,-0.0004110315033969414,-0.022872662282663603,-0.00011060088327130568,-0.034022947279988
669,0.067,752.966,57.3147,-0.000880241,207.799,-1.93594,-0.514652,0.0592351,-0.0231725,-0.0346665,0.0445513,-0.00041181,-0.000110794,0.0612935,0.06102465831714432,0.045558612491506834,-0.00041172521790033834,-0.0229060794661764,-0.00011078786257145978,-0.03407250063173817
670,0.0671,753.144,57.3291,-0.000882249,207.849,-1.93652,-0.514806,0.0593207,-0.0232067,-0.0347177,0.0446162,-0.000412505,-0.000110982,0.0613868,0.06111548591526206,0.045626471447456796,-0.00041241993150997747,-0.022939495506841157,-0.0001109758417257023,-0.03412195485366687
671,0.0672,753.322,57.3435,-0.000884257,207.9,-1.93709,-0.51496,0.0594062,-0.0232409,-0.034769,0.044681,-0.0004132,-0.000111169,0.0614801,0.06120621516792801,0.045694230238167766,-0.0004131146446366696,-0.022972910404696734,-0.0001111628209556903,-0.03417150312645889
672,0.0673,753.499,57.3579,-0.000886266,207.951,-1.93767,-0.515114,0.0594917,-0.023275,-0.0348202,0.0447459,-0.000413895,-0.000111356,0.0615734,0.06129695217827691,0.04576209799599518,-0.0004138093572806367,-0.023006226460410062,-0.0001113498001508173,-0.034220952279589656
673,0.0674,753.677,57.3723,-0.000888276,208.001,-1.93825,-0.515268,0.0595772,-0.0233092,-0.0348714,0.0448108,-0.000414589,-0.000111543,0.0616667,0.06138769694697177,0.04582997015858292,-0.0004145030698561314,-0.023039639076106067,-0.00011153677931086126,-0.0342703989009886
674,0.0675,753.854,57.3866,-0.000890287,208.052,-1.93882,-0.515421,0.0596627,-0.0233434,-0.0349227,0.0448756,-0.000415284,-0.000111731,0.0617599,0.061478449474675845,0.04589774213643749,-0.0004151977815350927,-0.02307305054911024,-0.00011172475832432749,-0.03431993955879631
675,0.0676,754.031,57.401,-0.000892298,208.102,-1.93939,-0.515573,0.0597481,-0.0233776,-0.0349739,0.0449405,-0.000415979,-0.000111918,0.0618532,0.06156910360513734,0.04596562310261576,-0.000415892492731218,-0.023106460879461554,-0.00011191173741431637,-0.034369381112176356
676,0.0677,754.208,57.4153,-0.00089431,208.152,-1.93996,-0.515726,0.0598336,-0.0234117,-0.0350251,0.0450053,-0.000416673,-0.000112105,0.0619465,0.061659871643773956,0.046033403871065914,-0.00041658620386120226,-0.023139772381181256,-0.00011209871646933323,-0.0344188201342136
677,0.0678,754.384,57.4296,-0.000896323,208.203,-1.94053,-0.515878,0.0599191,-0.0234459,-0.0350763,0.0450702,-0.000417368,-0.000112293,0.0620397,0.06175064744340952,0.04610129364197646,-0.0004172809140923217,-0.02317318042968486,-0.00011228669537710623,-0.03446825662503772
678,0.0679,754.56,57.4439,-0.000898337,208.253,-1.9411,-0.516029,0.0600045,-0.0234801,-0.0351275,0.045135,-0.000418063,-0.00011248,0.062133,0.061841324820570254,0.0461690832021624,-0.0004179756238407162,-0.02320658733565284,-0.00011247367436195699,-0.03451769058477838
679,0.068,754.736,57.4581,-0.000900351,208.303,-1.94167,-0.516181,0.06009,-0.0235142,-0.0351787,0.0451998,-0.000418757,-0.000112667,0.0622262,0.06193211613511562,0.046236877155254374,-0.000418669333524857,-0.02323989542311855,-0.00011266065331194675,-0.034567122013565044
680,0.0681,754.912,57.4724,-0.000902366,208.353,-1.94223,-0.516331,0.0601754,-0.0235484,-0.0352299,0.0452647,-0.000419452,-0.000112854,0.0623195,0.06202280901036428,0.04630478013200934,-0.00041936404230824564,-0.023273300047472745,-0.00011284763222685346,-0.03461655091152738
681,0.0682,755.087,57.4866,-0.000904382,208.403,-1.9428,-0.516482,0.0602608,-0.0235826,-0.0352811,0.0453295,-0.000420146,-0.000113042,0.0624127,0.06211350963111517,0.046372582878547286,-0.00042005775102893494,-0.023306703529408335,-0.00011303561099385018,-0.034665977278794946
682,0.0683,755.263,57.5008,-0.000906398,208.453,-1.94336,-0.516632,0.0603463,-0.0236167,-0.0353323,0.0453943,-0.00042084,-0.000113229,0.0625059,0.0622043242184569,0.04644039001884548,-0.0004207514592681205,-0.02334000820297011,-0.00011322258983870181,-0.0347154011154972
683,0.0684,755.438,57.515,-0.000908416,208.503,-1.94392,-0.516782,0.0604317,-0.0236509,-0.0353835,0.0454591,-0.000421535,-0.000113416,0.0625991,0.06229504034126854,0.04650820155318858,-0.00042144616660444445,-0.023373409403525724,-0.00011340956864858143,-0.03476482242176393
684,0.0685,755.613,57.5291,-0.000910434,208.553,-1.94448,-0.516931,0.0605171,-0.023685,-0.0354347,0.0455239,-0.000422229,-0.000113603,0.0626923,0.06238576421156772,0.04657601748186169,-0.00042213987388006746,-0.023406711802456015,-0.00011359654742348901,-0.03481424119772447
685,0.0686,755.787,57.5433,-0.000912453,208.602,-1.94504,-0.51708,0.0606025,-0.0237192,-0.0354859,0.0455887,-0.000422923,-0.00011379,0.0627855,0.062476495830016354,0.046643837805149246,-0.00042283358067429777,-0.023440110721787533,-0.0001137835261635356,-0.03486365744350839
686,0.0687,755.962,57.5574,-0.000914472,208.652,-1.9456,-0.517229,0.0606879,-0.0237533,-0.0355371,0.0456535,-0.000423618,-0.000113978,0.0628787,0.06256723519727614,0.04671166252333614,-0.000423528286563557,-0.02347341084624166,-0.00011397150475456197,-0.03491307115924536
687,0.0688,756.136,57.5715,-0.000916492,208.702,-1.94615,-0.517377,0.0607733,-0.0237874,-0.0355882,0.0457183,-0.000424312,-0.000114165,0.0629719,0.06265798231400876,0.04677949163670725,-0.00042422199239422476,-0.023506709835180772,-0.00011415848342433144,-0.034962385841308286
688,0.0689,756.31,57.5856,-0.000918514,208.751,-1.94671,-0.517525,0.0608586,-0.0238216,-0.0356394,0.0457831,-0.000425006,-0.000114352,0.0630651,0.06274863090600746,0.046847325145547236,-0.0004249156977433888,-0.02354010533463813,-0.0001143454620592399,-0.03501179450228076
689,0.069,756.484,57.5997,-0.000920535,208.801,-1.94726,-0.517673,0.060944,-0.0238557,-0.0356906,0.0458479,-0.0004257,-0.000114539,0.0631582,0.06283939351459522,0.046915163050140984,-0.0004256094026112711,-0.023573402049334002,-0.00011453244065917634,-0.035061200633594414
690,0.0691,756.657,57.6138,-0.000922558,208.85,-1.94781,-0.51782,0.0610294,-0.0238898,-0.0357417,0.0459126,-0.000426394,-0.000114726,0.0632514,0.06293016387464045,0.04698290065247801,-0.0004263031069975387,-0.023606697628631212,-0.00011471941922414075,-0.03511050774643465
691,0.0692,756.83,57.6278,-0.000924581,208.9,-1.94836,-0.517967,0.0611147,-0.023924,-0.0357929,0.0459774,-0.000427089,-0.000114913,0.0633445,0.06302083568471684,0.04705074734264936,-0.00042699781047550456,-0.02364008970856457,-0.00011490639775413314,-0.035159908823759634
692,0.0693,757.003,57.6418,-0.000926605,208.949,-1.94891,-0.518114,0.0612,-0.0239581,-0.035844,0.0460421,-0.000427783,-0.000115101,0.0634377,0.06311151522942815,0.04711849371757415,-0.0004276915138983206,-0.023673383013851357,-0.00011509437613399509,-0.035209210892740095
693,0.0694,757.176,57.6558,-0.00092863,208.998,-1.94946,-0.51826,0.0612854,-0.0239922,-0.0358952,0.0461069,-0.000428477,-0.000115288,0.0635308,0.06320230882966049,0.04718634919446063,-0.00042838521683974395,-0.02370667518385594,-0.0001152813545939324,-0.03525860691659344
694,0.0695,757.349,57.6698,-0.000930655,209.047,-1.95001,-0.518406,0.0613707,-0.0240263,-0.0359463,0.0461716,-0.000429171,-0.000115475,0.0636239,0.0632930038546915,0.04725410434310895,-0.0004290789192996636,-0.023739966218616737,-0.00011546833301878667,-0.03530790394223027
695,0.0696,757.521,57.6838,-0.000932681,209.096,-1.95055,-0.518551,0.061456,-0.0240604,-0.0359975,0.0462364,-0.000429865,-0.000115662,0.063717,0.06338370661633808,0.04732196860784876,-0.0004297726212781905,-0.023773256118172714,-0.00011565531140877994,-0.03535729491312878
696,0.0697,757.694,57.6977,-0.000934708,209.145,-1.9511,-0.518696,0.0615413,-0.0240945,-0.0360486,0.0463011,-0.000430559,-0.000115849,0.0638102,0.06347441711526014,0.04738973253135703,-0.0004304663227752137,-0.023806544882562397,-0.00011584228976369015,-0.035406586895937786
697,0.0698,757.866,57.7116,-0.000936736,209.194,-1.95164,-0.518841,0.0616266,-0.0241287,-0.0360997,0.0463659,-0.000431252,-0.000116036,0.0639033,0.06356513535211783,0.04745760558508838,-0.0004311590242220831,-0.023839930127836473,-0.00011602926808373937,-0.03545587635999092
698,0.0699,758.037,57.7256,-0.000938764,209.243,-1.95218,-0.518986,0.0617119,-0.0241628,-0.0361508,0.0464306,-0.000431946,-0.000116223,0.0639964,0.06365586132757128,0.0475253782845928,-0.000431852724756987,-0.023873216618681248,-0.00011621624636881656,-0.035505163305416754
699,0.07,758.209,57.7395,-0.000940793,209.292,-1.95272,-0.51913,0.0617972,-0.0241969,-0.036202,0.0464953,-0.00043264,-0.00011641,0.0640894,0.06374659504228042,0.04759315536913289,-0.0004325464248104982,-0.02390650197447597,-0.0001164032246188107,-0.03555454417689441
700,0.0701,758.38,57.7533,-0.000942822,209.341,-1.95326,-0.519274,0.0618825,-0.024231,-0.0362531,0.04656,-0.000433334,-0.000116597,0.0641825,0.0638373364969056,0.047660936838992196,-0.0004332401243825057,-0.023939786195259494,-0.00011659020283394383,-0.03560382608052359
701,0.0702,758.551,57.7672,-0.000944853,209.39,-1.9538,-0.519417,0.0619678,-0.024265,-0.0363042,0.0466247,-0.000434028,-0.000116784,0.0642756,0.06392808569210695,0.047728722694454495,-0.0004339338234732315,-0.023972971678372423,-0.00011677718101410495,-0.03565310546591183
702,0.0703,758.722,57.781,-0.000946884,209.438,-1.95433,-0.51956,0.062053,-0.0242991,-0.0363553,0.0466894,-0.000434721,-0.000116971,0.0643687,0.06401873622666576,0.04779651293580334,-0.00043462652251702316,-0.02400625363257758,-0.00011696415915929403,-0.0357023823331879
703,0.0704,758.893,57.7949,-0.000948916,209.487,-1.95487,-0.519703,0.0621383,-0.0243332,-0.0364064,0.0467541,-0.000435415,-0.000117158,0.0644617,0.06410950089592404,0.04786430756332294,-0.0004353202206455187,-0.024039534451887556,-0.0001171511372695111,-0.03575165668248026
704,0.0705,759.063,57.8087,-0.000950948,209.535,-1.9554,-0.519845,0.0622235,-0.0243673,-0.0364575,0.0468188,-0.000436109,-0.000117345,0.0645548,0.06420016688771679,0.04793210657729663,-0.00043601391829251046,-0.02407281413634088,-0.00011733811534475613,-0.03580092851391781
705,0.0706,759.234,57.8224,-0.000952982,209.584,-1.95593,-0.519987,0.0623088,-0.0244014,-0.0365086,0.0468835,-0.000436802,-0.000117532,0.0646478,0.06429094703367055,0.047999909978008626,-0.00043670661589489956,-0.02410609268597641,-0.00011752509338502914,-0.035850197827629104
706,0.0707,759.404,57.8362,-0.000955016,209.632,-1.95647,-0.520129,0.062394,-0.0244355,-0.0365596,0.0469482,-0.000437496,-0.000117719,0.0647409,0.06438162848533269,0.04806771776574248,-0.0004374003125797721,-0.02413937010083267,-0.00011771207139044115,-0.035899368213684335
707,0.0708,759.574,57.85,-0.00095705,209.681,-1.957,-0.520271,0.0624792,-0.0244696,-0.0366107,0.0470129,-0.000438189,-0.000117906,0.0648339,0.06447231766338368,0.048135529940782185,-0.0004380930092213742,-0.024172646380948404,-0.00011789904936077011,-0.03594863249725544
708,0.0709,759.743,57.8637,-0.000959086,209.729,-1.95752,-0.520412,0.0625644,-0.0245036,-0.0366618,0.0470775,-0.000438883,-0.000118093,0.0649269,0.0645630145684819,0.04820324168308199,-0.0004387867049441274,-0.02420582394694959,-0.00011808602729612705,-0.035997894263485986
709,0.071,759.913,57.8774,-0.000961122,209.777,-1.95805,-0.520552,0.0626496,-0.0245377,-0.0367129,0.0471422,-0.000439576,-0.00011828,0.0650199,0.06465371920128571,0.04827106262680281,-0.0004394794006248315,-0.024239097961027856,-0.00011827300519662298,-0.03604715351250465
710,0.0711,760.082,57.8911,-0.000963159,209.825,-1.95858,-0.520693,0.0627348,-0.0245718,-0.0367639,0.0472068,-0.000440269,-0.000118467,0.0651129,0.06474443156245346,0.048338783124797,-0.00044017209582569716,-0.024272370840481616,-0.00011845998306203587,-0.03609631385407608
711,0.0712,760.251,57.9048,-0.000965196,209.874,-1.9591,-0.520833,0.06282,-0.0246058,-0.036815,0.0472715,-0.000440963,-0.000118654,0.0652059,0.06483515165264353,0.0484066128383327,-0.00044086579010549354,-0.02430554501590876,-0.00011864696089258775,-0.03614556807398217
712,0.0713,760.42,57.9185,-0.000967234,209.922,-1.95963,-0.520973,0.0629052,-0.0246399,-0.0368661,0.0473361,-0.000441656,-0.000118841,0.0652989,0.06492587947251449,0.04847434209315349,-0.0004415584843454612,-0.02433881562955653,-0.00011883393868805658,-0.03619481977706185
713,0.0714,760.588,57.9321,-0.000969273,209.97,-1.96015,-0.521112,0.0629904,-0.0246739,-0.0369171,0.0474008,-0.000442349,-0.000119028,0.0653919,0.06501661502272515,0.04854218057763826,-0.0004422511781054794,-0.02437198754589942,-0.00011902091644866442,-0.03624397258784584
714,0.0715,760.757,57.9458,-0.000971313,210.018,-1.96067,-0.521251,0.0630755,-0.024708,-0.0369682,0.0474654,-0.000443042,-0.000119215,0.0654849,0.06510725179320342,0.048609918590417855,-0.0004429438713853262,-0.024405255893895528,-0.00011920789417430022,-0.03629321926258333
715,0.0716,760.925,57.9594,-0.000973353,210.065,-1.96119,-0.52139,0.0631607,-0.024742,-0.0370192,0.04753,-0.000443736,-0.000119402,0.0655778,0.06519800279699406,0.04867766097921433,-0.00044363756374155017,-0.02443842555130782,-0.00011939487186485298,-0.036342367055121616
716,0.0717,761.093,57.973,-0.000975394,210.113,-1.96171,-0.521528,0.0632458,-0.0247761,-0.0370703,0.0475947,-0.000444429,-0.000119589,0.0656708,0.06528865500422887,0.04874551261885651,-0.00044433025606072096,-0.02447169163380658,-0.00011958184952054474,-0.03639160870203029
717,0.0718,761.26,57.9866,-0.000977435,210.161,-1.96223,-0.521666,0.063331,-0.0248101,-0.0371213,0.0476593,-0.000445122,-0.000119776,0.0657637,0.06537942146423137,0.04881326376731021,-0.0004450229478998313,-0.02450485903244204,-0.00011976882714126447,-0.03644075147683512
718,0.0719,761.428,58.0001,-0.000979478,210.209,-1.96274,-0.521804,0.0634161,-0.0248442,-0.0371723,0.0477239,-0.000445815,-0.000119963,0.0658567,0.06547008911085173,0.04888101929262967,-0.00044571563925899227,-0.024538122849597666,-0.00011995580472701217,-0.036489891745422276
719,0.072,761.595,58.0137,-0.000981521,210.256,-1.96326,-0.521942,0.0635012,-0.0248782,-0.0372234,0.0477885,-0.000446508,-0.000120149,0.0659496,0.06556076447361692,0.0489487791950971,-0.00044640833013798176,-0.02457128798961028,-0.00012014178239794226,-0.03653912585401187
720,0.0721,761.762,58.0272,-0.000983564,210.304,-1.96377,-0.522079,0.0635863,-0.0249123,-0.0372744,0.0478531,-0.000447201,-0.000120336,0.0660425,0.06565144755318397,0.049016543474995844,-0.00044710102053702183,-0.024604549541577092,-0.00012032875991396796,-0.036588261105633735
721,0.0722,761.929,58.0407,-0.000985609,210.352,-1.96428,-0.522216,0.0636714,-0.0249463,-0.0373254,0.0479177,-0.000447894,-0.000120523,0.0661355,0.06574213835020948,0.04908431213260833,-0.00044779371045600147,-0.024637712423120517,-0.00012051573739502164,-0.03663739385142173
722,0.0723,762.096,58.0542,-0.000987654,210.399,-1.9648,-0.522352,0.0637565,-0.0249803,-0.0373764,0.0479823,-0.000448587,-0.00012071,0.0662284,0.06583283686535024,0.049152085168217674,-0.0004484863998949207,-0.024670874177145086,-0.00012070271484110329,-0.036686524091503525
723,0.0724,762.263,58.0677,-0.0009897,210.446,-1.96531,-0.522488,0.0638416,-0.0250143,-0.0374274,0.0480469,-0.000449279,-0.000120897,0.0663213,0.06592354309926285,0.04921986258210631,-0.00044917808930300396,-0.024704034803689212,-0.00012088969225221291,-0.03673565182600702
724,0.0725,762.429,58.0812,-0.000991746,210.494,-1.96582,-0.522624,0.0639267,-0.0250484,-0.0374784,0.0481115,-0.000449972,-0.000121083,0.0664142,0.06601425705260455,0.04928764437455757,-0.00044987077778257945,-0.02473729182906692,-0.0001210756697493931,-0.03678477705505989
725,0.0726,762.595,58.0946,-0.000993793,210.541,-1.96632,-0.52276,0.0640118,-0.0250824,-0.0375294,0.048176,-0.000450665,-0.00012127,0.0665071,0.06610497872603216,0.04935532561031608,-0.0004505634657820945,-0.02477045019744928,-0.00012126264709078072,-0.036833899778789925
726,0.0727,762.761,58.1081,-0.000995841,210.588,-1.96683,-0.522895,0.0640969,-0.0251164,-0.0375804,0.0482406,-0.000451358,-0.000121457,0.0666,0.06619570812020292,0.049423116153961555,-0.0004512561533015491,-0.024803607438466324,-0.00012144962439719631,-0.03688301999732502
727,0.0728,762.927,58.1215,-0.000997889,210.635,-1.96734,-0.52303,0.0641819,-0.0251504,-0.0376314,0.0483052,-0.00045205,-0.000121644,0.0666928,0.06628633860713418,0.04949091107701742,-0.0004519478407930544,-0.02483676355215625,-0.00012163660166863988,-0.036932137710792845
728,0.0729,763.092,58.1349,-0.000999938,210.683,-1.96784,-0.523164,0.064267,-0.0251844,-0.0376824,0.0483697,-0.000452743,-0.000121831,0.0667857,0.06637708343568738,0.049558605423901225,-0.0004526405273531653,-0.024869918538557467,-0.00012182357890511142,-0.036981252919321084
729,0.073,763.258,58.1483,-0.00100199,210.73,-1.96834,-0.523298,0.064352,-0.0252184,-0.0377334,0.0484343,-0.000453436,-0.000122017,0.0668786,0.06646772934017564,0.04962640909984661,-0.00045333321343321575,-0.024903072397708392,-0.00012200955622865273,-0.03703036562303763
730,0.0731,763.423,58.1616,-0.00100404,210.777,-1.96885,-0.523432,0.064437,-0.0252524,-0.0377844,0.0484988,-0.000454128,-0.000122204,0.0669714,0.06655838294989347,0.049694112186634776,-0.0004540248994873153,-0.024936225129647216,-0.00012219653339529124,-0.03707947582207016
731,0.0732,763.588,58.175,-0.00100609,210.824,-1.96935,-0.523566,0.0645221,-0.0252864,-0.0378353,0.0485634,-0.000454821,-0.000122391,0.0670642,0.06664915093040524,0.049761924616599895,-0.00045471758460802203,-0.024969376734412352,-0.00012238351052706875,-0.037128487229399876
732,0.0733,763.752,58.1883,-0.00100814,210.87,-1.96985,-0.523699,0.0646071,-0.0253204,-0.0378863,0.0486279,-0.000455513,-0.000122577,0.0671571,0.0667398199616136,0.04982963644442062,-0.00045540926970422113,-0.025002527212042103,-0.00012256948774647114,-0.03717759242435803
733,0.0734,763.917,58.2016,-0.00101019,210.917,-1.97034,-0.523832,0.0646921,-0.0253544,-0.0379373,0.0486924,-0.000456205,-0.000122764,0.0672499,0.06683049670001706,0.049897352639795,-0.00045610095432169206,-0.02503567656257477,-0.00012275646480852664,-0.037226695115015196
734,0.0735,764.081,58.2149,-0.00101225,210.964,-1.97084,-0.523965,0.0647771,-0.0253884,-0.0379882,0.0487569,-0.000456898,-0.000122951,0.0673427,0.0669211811462711,0.04996507320300503,-0.0004567936380036608,-0.02506882478604855,-0.00012294344183561012,-0.03727569902907357
735,0.0736,764.245,58.2282,-0.0010143,211.011,-1.97134,-0.524097,0.0648621,-0.0254224,-0.0380392,0.0488215,-0.00045759,-0.000123137,0.0674355,0.06701187330103053,0.05003290313761721,-0.0004574853216631203,-0.025101971882502072,-0.00012312941895076257,-0.037324796716421416
736,0.0737,764.409,58.2415,-0.00101636,211.057,-1.97183,-0.52423,0.0649471,-0.0254564,-0.0380901,0.048886,-0.000458282,-0.000123324,0.0675284,0.06710257316495061,0.05010063244411622,-0.0004581770048439626,-0.02513511785197331,-0.00012331639590812404,-0.03737379563723553
737,0.0738,764.573,58.2547,-0.00101841,211.104,-1.97233,-0.524361,0.0650321,-0.0254904,-0.0381411,0.0489505,-0.000458974,-0.000123511,0.0676211,0.0671932807386868,0.050168366119296426,-0.0004588686875461878,-0.025168262694500898,-0.00012350337283040247,-0.037422888321783865
738,0.0739,764.736,58.268,-0.00102047,211.151,-1.97282,-0.524493,0.065117,-0.0255244,-0.038192,0.049015,-0.000459667,-0.000123697,0.0677139,0.06728388929450047,0.0502361041634396,-0.00045956136931013525,-0.025201406410122917,-0.00012368934984152702,-0.03747188224986231
739,0.074,764.9,58.2812,-0.00102252,211.197,-1.97331,-0.524624,0.065202,-0.0255583,-0.0382429,0.0490795,-0.000460359,-0.000123884,0.0678067,0.0673746122807628,0.050303846576827516,-0.000460253051054349,-0.02523445152232784,-0.00012387632669419446,-0.037520873684213196
740,0.0741,765.063,58.2944,-0.00102458,211.244,-1.9738,-0.524755,0.065287,-0.0255923,-0.0382939,0.049144,-0.000461051,-0.000124071,0.0678995,0.06746534297880658,0.05037159335974195,-0.0004609447323199456,-0.025267592987567977,-0.00012406330351177886,-0.03756995886797243
741,0.0742,765.226,58.3076,-0.00102664,211.29,-1.97429,-0.524885,0.0653719,-0.0256263,-0.0383448,0.0492085,-0.000461743,-0.000124257,0.0679923,0.0675559746336849,0.0504393445124649,-0.000461636413106814,-0.025300733326017455,-0.00012424928041876449,-0.03761894531035048
742,0.0743,765.389,58.3207,-0.0010287,211.336,-1.97478,-0.525016,0.0654568,-0.0256603,-0.0383957,0.0492729,-0.000462435,-0.000124444,0.068085,0.06764661398351723,0.05050699498457334,-0.00046232809341517633,-0.025333872537714575,-0.00012443625716662687,-0.037667929259382116
743,0.0744,765.551,58.3339,-0.00103075,211.383,-1.97527,-0.525145,0.0655418,-0.0256942,-0.0384466,0.0493374,-0.000463127,-0.00012463,0.0681778,0.06773736780268846,0.05057475487098273,-0.0004630197732448105,-0.025366913159393767,-0.00012462223400422356,-0.03771691071519423
744,0.0745,765.714,58.347,-0.00103281,211.429,-1.97575,-0.525275,0.0656267,-0.0257282,-0.0384976,0.0494019,-0.000463819,-0.000124817,0.0682705,0.06782802255345466,0.050642519128045516,-0.00046371145259582747,-0.025400050121014872,-0.00012480921068236395,-0.037765985901319854
745,0.0746,765.876,58.3602,-0.00103487,211.475,-1.97624,-0.525404,0.0657116,-0.0257621,-0.0385485,0.0494663,-0.00046451,-0.000125003,0.0683633,0.06791868500113596,0.0507101826850207,-0.00046440213193255087,-0.02543308849931203,-0.0001249951874505717,-0.037814962366175875
746,0.0747,766.038,58.3733,-0.00103694,211.521,-1.97672,-0.525533,0.0657965,-0.0257961,-0.0385994,0.0495308,-0.000465202,-0.00012519,0.068456,0.06800935514638562,0.05077795567745924,-0.0004650938103268887,-0.025466223211009775,-0.00012518216405899008,-0.037863936338193294
747,0.0748,766.199,58.3864,-0.001039,211.567,-1.9772,-0.525662,0.0658814,-0.02583,-0.0386503,0.0495952,-0.000465894,-0.000125376,0.0685487,0.06810003298985756,0.05084562795682901,-0.00046578548824272037,-0.02549925934607733,-0.0001253681407578089,-0.0379129078174989
748,0.0749,766.361,58.3994,-0.00104106,211.613,-1.97768,-0.525791,0.0659663,-0.025864,-0.0387012,0.0496597,-0.000466586,-0.000125563,0.0686414,0.06819071853220526,0.05091340968576952,-0.0004664771656798239,-0.025532391808004484,-0.00012555511729639424,-0.03796187680421981
749,0.075,766.522,58.4125,-0.00104312,211.659,-1.97816,-0.525919,0.0660512,-0.0258979,-0.0387521,0.0497241,-0.000467277,-0.000125749,0.0687341,0.0682814117740822,0.05098109068865808,-0.0004671678431055204,-0.025565425699994537,-0.00012574109392593513,-0.03801084329848259
750,0.0751,766.684,58.4255,-0.00104519,211.705,-1.97864,-0.526047,0.0661361,-0.0259319,-0.038803,0.0497886,-0.000467969,-0.000125936,0.0688268,0.0683721127161423,0.051048881155226544,-0.00046785951958594474,-0.025598555912303977,-0.00012592807039479847,-0.03805980730041425
751,0.0752,766.845,58.4386,-0.00104725,211.751,-1.97912,-0.526174,0.0662209,-0.0259658,-0.0388538,0.049853,-0.00046866,-0.000126122,0.0689195,0.06846271451276253,0.05111657088275878,-0.00046855019605640535,-0.025631587561368963,-0.00012611404695495043,-0.038108672621013695
752,0.0753,767.006,58.4516,-0.00104931,211.797,-1.9796,-0.526301,0.0663058,-0.0259998,-0.0389047,0.0499174,-0.000469352,-0.000126309,0.0690122,0.06855343084807863,0.051184264969649895,-0.00046924187158037256,-0.025664715524213233,-0.00012630102335409177,-0.038157631643559675
753,0.0754,767.166,58.4646,-0.00105138,211.842,-1.98007,-0.526428,0.0663906,-0.0260337,-0.0389556,0.0499818,-0.000470043,-0.000126495,0.0691049,0.06864404802112833,0.051251963416180546,-0.0004699325470955973,-0.025697744930505362,-0.00012648699984485479,-0.038206588174154676
754,0.0755,767.327,58.4776,-0.00105345,211.888,-1.98055,-0.526555,0.0664755,-0.0260676,-0.0390065,0.0500462,-0.000470735,-0.000126682,0.0691975,0.06873477975231279,0.0513196662226314,-0.00047062422166299633,-0.025730773217119585,-0.00012667397617427412,-0.03825554221292582
755,0.0756,767.487,58.4905,-0.00105551,211.934,-1.98102,-0.526681,0.0665603,-0.0261016,-0.0390573,0.0501106,-0.000471426,-0.000126868,0.0692902,0.06882541230440187,0.051387373389283564,-0.00047131489622298517,-0.025763897807709046,-0.0001268599525956482,-0.03830439759044424
756,0.0757,767.647,58.5035,-0.00105758,211.979,-1.9815,-0.526808,0.0666452,-0.0261355,-0.0391082,0.050175,-0.000472117,-0.000127054,0.0693828,0.06891615943406748,0.05145508491641748,-0.00047200557030580015,-0.025796923851778675,-0.00012704592898238332,-0.03835334665084278
757,0.0758,767.807,58.5164,-0.00105965,212.025,-1.98197,-0.526933,0.06673,-0.0261694,-0.039159,0.0502394,-0.000472808,-0.000127241,0.0694755,0.06900680736780562,0.051522800804314484,-0.00047269624391133025,-0.025829948776284528,-0.00012723290520733066,-0.038402197060022014
758,0.0759,767.967,58.5293,-0.00106172,212.07,-1.98244,-0.527059,0.0668148,-0.0262033,-0.0392099,0.0503038,-0.0004735,-0.000127427,0.0695681,0.06909746298881436,0.05159052105325479,-0.0004733879165661481,-0.025862972581264354,-0.00012741888152467684,-0.03845114114255421
759,0.076,768.126,58.5423,-0.00106379,212.115,-1.98291,-0.527184,0.0668996,-0.0262372,-0.0392607,0.0503682,-0.000474191,-0.000127614,0.0696608,0.06918812629774584,0.05165824566351973,-0.0004740785892165533,-0.025895995266756122,-0.00012760585767990218,-0.038499986583899415
760,0.0761,768.286,58.5551,-0.00106586,212.161,-1.98337,-0.527309,0.0669844,-0.0262711,-0.0393116,0.0504326,-0.000474882,-0.0001278,0.0697534,0.06927879729525177,0.05172597463538997,-0.00047476926138956266,-0.025929016832797913,-0.00012779183392785942,-0.038548925689071534
761,0.0762,768.445,58.568,-0.00106793,212.206,-1.98384,-0.527434,0.0670692,-0.026305,-0.0393624,0.050497,-0.000475573,-0.000127986,0.069846,0.06936947598198451,0.051793707969146396,-0.00047545993308539813,-0.025962037279427586,-0.00012797781014128873,-0.038597766163087965
762,0.0763,768.604,58.5809,-0.00107,212.251,-1.98431,-0.527558,0.067154,-0.026339,-0.0394132,0.0505613,-0.000476264,-0.000128173,0.0699386,0.06946016235859576,0.05186134047893054,-0.00047615060430394873,-0.02599515400717245,-0.00012816478619193106,-0.03864660415607135
763,0.0764,768.763,58.5937,-0.00107207,212.297,-1.98477,-0.527682,0.0672387,-0.0263729,-0.0394641,0.0506257,-0.000476955,-0.000128359,0.0700312,0.06955074947065754,0.05192908253052808,-0.00047684127504521445,-0.02602817221178988,-0.00012835076233597142,-0.03869553579859897
764,0.0765,768.921,58.6066,-0.00107414,212.342,-1.98524,-0.527806,0.0673235,-0.0264068,-0.0395149,0.05069,-0.000477646,-0.000128545,0.0701238,0.06964145121991261,0.05199672374517661,-0.0004775319453093063,-0.02606118929710921,-0.00012853673844548386,-0.03874436882501098
765,0.0766,769.08,58.6194,-0.00107621,212.387,-1.9857,-0.527929,0.0674082,-0.0264407,-0.0395657,0.0507544,-0.000478337,-0.000128731,0.0702164,0.06973205368779123,0.05206447451573726,-0.0004782226150961133,-0.02609420526316819,-0.00012872271452035733,-0.038793199370768305
766,0.0767,769.238,58.6322,-0.00107829,212.432,-1.98616,-0.528053,0.067493,-0.0264745,-0.0396165,0.0508187,-0.000479027,-0.000128918,0.0703089,0.0698227708122956,0.052132124436370164,-0.0004789122848846139,-0.026127122722722107,-0.0001289096904317777,-0.03884202743599696
767,0.0768,769.396,58.645,-0.00108036,212.477,-1.98662,-0.528175,0.0675777,-0.0265084,-0.0396673,0.0508831,-0.000479718,-0.000129104,0.0704015,0.06991338863859431,0.05219988392701613,-0.00047960295371751727,-0.026160136453675875,-0.00012909566643726222,-0.038890853020822846
768,0.0769,769.554,58.6577,-0.00108244,212.522,-1.98708,-0.528298,0.0676625,-0.0265423,-0.0397181,0.0509474,-0.000480409,-0.00012929,0.0704941,0.07000412114095456,0.052267542554754076,-0.0004802936220732468,-0.0261931490654832,-0.0001292816424081078,-0.03893967612537197
769,0.077,769.711,58.6705,-0.00108451,212.567,-1.98754,-0.528421,0.0677472,-0.0265762,-0.0397689,0.0510117,-0.000481099,-0.000129476,0.0705866,0.07009475432827639,0.05233520553308191,-0.0004809832904327793,-0.026226160558181943,-0.00012946761834442544,-0.03898849674977045
770,0.0771,769.869,58.6832,-0.00108659,212.611,-1.988,-0.528543,0.0678319,-0.0266101,-0.0398197,0.0510761,-0.00048179,-0.000129663,0.0706792,0.0701853951925544,0.05240297810257144,-0.0004816739578347162,-0.02625917093180996,-0.0001296545941165128,-0.03903731489414419
771,0.0772,770.026,58.696,-0.00108867,212.656,-1.98845,-0.528664,0.0679166,-0.026644,-0.0398705,0.0511404,-0.00048248,-0.000129849,0.0707717,0.07027604373443874,0.052470649789684964,-0.0004823636252416774,-0.026292180186405334,-0.0001298405699834415,-0.0390861305586192
772,0.0773,770.183,58.7087,-0.00109074,212.701,-1.98891,-0.528786,0.0680013,-0.0266778,-0.0399213,0.0512047,-0.000483171,-0.000130035,0.0708642,0.07036669995457978,0.052538325828227705,-0.0004830542916898217,-0.02632509095451996,-0.00013002654581584228,-0.03913494374332149
773,0.0774,770.34,58.7214,-0.00109282,212.746,-1.98936,-0.528907,0.068086,-0.0267117,-0.0399721,0.051269,-0.000483861,-0.000130221,0.0709567,0.07045736385362789,0.05260600621847966,-0.0004837439581444336,-0.026358097974464423,-0.00013021252161360408,-0.03918375444837696
774,0.0775,770.497,58.734,-0.0010949,212.79,-1.98982,-0.529028,0.0681707,-0.0267456,-0.0400229,0.0513333,-0.000484552,-0.000130407,0.0710493,0.07054803543223342,0.05267369096072061,-0.0004844346236387853,-0.02639110387548993,-0.00013039849737672693,-0.03923256267391151
775,0.0776,770.654,58.7467,-0.00109698,212.835,-1.99027,-0.529149,0.0682554,-0.0267794,-0.0400737,0.0513976,-0.000485242,-0.000130593,0.0711418,0.07063871469104699,0.05274138005523055,-0.00048512428914093686,-0.02642401130004035,-0.00013058447310532184,-0.039281368420051255
776,0.0777,770.81,58.7594,-0.00109906,212.879,-1.99072,-0.529269,0.06834,-0.0268133,-0.0401244,0.0514619,-0.000485932,-0.00013078,0.0712343,0.0707292945577842,0.05280907350228903,-0.0004858139541672468,-0.02645701496664199,-0.00013077144866857626,-0.0393300756199344
777,0.0778,770.967,58.772,-0.00110122,212.924,-1.99117,-0.529393,0.0684247,-0.0268472,-0.0401752,0.0515262,-0.000486622,-0.000130966,0.0713267,0.07081998916989574,0.05287677130217627,-0.00048650361871760417,-0.026490017514438247,-0.00013095742432778223,-0.03937887641254223
778,0.0779,771.123,58.7846,-0.00110328,212.968,-1.99162,-0.529507,0.0685093,-0.026881,-0.040226,0.0515904,-0.000487312,-0.000131152,0.0714192,0.0709105843731026,0.05294436816072978,-0.00048719328279223095,-0.026522921595764193,-0.00013114339995246027,-0.039427674726132844
779,0.078,771.279,58.7972,-0.00110529,213.012,-1.99207,-0.529627,0.068594,-0.0269149,-0.0402767,0.0516547,-0.000488003,-0.000131338,0.0715117,0.07100129434111202,0.05301207466034308,-0.00048788394590304485,-0.026555921909363622,-0.00013132937554249935,-0.0394763745084743
780,0.0781,771.434,58.8098,-0.00110738,213.057,-1.99252,-0.529746,0.0686786,-0.0269487,-0.0403275,0.051719,-0.000488693,-0.000131524,0.0716042,0.07109190488338513,0.05307978551362447,-0.0004885736090252113,-0.02658882376315863,-0.00013151535109789947,-0.03952516786928739
781,0.0782,771.59,58.8224,-0.00110947,213.101,-1.99296,-0.529865,0.0687633,-0.0269826,-0.0403782,0.0517832,-0.000489383,-0.00013171,0.0716966,0.07118263020989213,0.0531473954061088,-0.0004892632716714251,-0.026621821842712445,-0.00013170132661877165,-0.03957386270885188
782,0.0783,771.745,58.835,-0.00111155,213.145,-1.99341,-0.529983,0.0688479,-0.0270164,-0.040429,0.0518475,-0.000490072,-0.000131896,0.0717891,0.07127325609382873,0.053215114960793564,-0.0004899519343317671,-0.026654721469127285,-0.00013188730210500488,-0.03962265111739016
783,0.0784,771.9,58.8475,-0.00111363,213.189,-1.99385,-0.530102,0.0689325,-0.0270503,-0.0404797,0.0519117,-0.000490762,-0.000132082,0.0718815,0.07136388964503948,0.05328273354170743,-0.0004906415960270749,-0.026687717314786807,-0.00013207327755671017,-0.03967134101467917
784,0.0785,772.055,58.8601,-0.00111572,213.233,-1.9943,-0.53022,0.0690171,-0.0270841,-0.0405304,0.051976,-0.000491452,-0.000132268,0.0719739,0.07145453086417297,0.05335046179891423,-0.0004913312572464301,-0.026720614713972357,-0.0001322592529737765,-0.039720028443453015
785,0.0786,772.21,58.8726,-0.0011178,213.278,-1.99474,-0.530338,0.0691017,-0.0271179,-0.0405812,0.0520402,-0.000492142,-0.000132454,0.0720664,0.0715451797518778,0.05341808906937384,-0.0004920209179899437,-0.026753511001244568,-0.00013244522835620387,-0.039768809426960594
786,0.0787,772.365,58.8851,-0.00111989,213.322,-1.99518,-0.530455,0.0691863,-0.0271518,-0.0406319,0.0521044,-0.000492832,-0.00013264,0.0721588,0.07163583630880321,0.0534857206816437,-0.0004927105782575047,-0.026786503497995717,-0.0001326312037041033,-0.039817491914211134
787,0.0788,772.519,58.8976,-0.00112198,213.366,-1.99562,-0.530573,0.0692709,-0.0271856,-0.0406826,0.0521687,-0.000493521,-0.000132826,0.0722512,0.07172650053559759,0.05355346199134314,-0.0004933992385427466,-0.02681939755826468,-0.00013281717901736378,-0.0398661719333222
788,0.0789,772.674,58.91,-0.00112406,213.409,-1.99606,-0.53069,0.0693554,-0.0272194,-0.0407333,0.0522329,-0.000494211,-0.000133012,0.0723436,0.07181706525119824,0.053621102294833634,-0.0004940888978592906,-0.026852290506733323,-0.00013300315429609633,-0.03991484948441881
789,0.079,772.828,58.9225,-0.00112615,213.453,-1.9965,-0.530807,0.06944,-0.0272532,-0.040784,0.0522971,-0.0004949,-0.000133198,0.072436,0.0719077448106098,0.05368874694097081,-0.0004947775571948476,-0.02688518234343895,-0.0001331891295401899,-0.039963524567626196
790,0.0791,772.982,58.935,-0.00112824,213.497,-1.99693,-0.530923,0.0695245,-0.0272871,-0.0408347,0.0523613,-0.00049559,-0.000133384,0.0725284,0.07199832484199864,0.053756395930033785,-0.0004954672155603745,-0.026918170376607264,-0.00013337510474975556,-0.040012197183069365
791,0.0792,773.136,58.9474,-0.00113033,213.541,-1.99737,-0.53104,0.0696091,-0.0273209,-0.0408854,0.0524255,-0.000496279,-0.000133569,0.0726208,0.07208901973662019,0.05382404926230122,-0.0004961558739462468,-0.02695105998661096,-0.00013356008005827036,-0.04006086733087355
792,0.0793,773.289,58.9598,-0.00113242,213.585,-1.99781,-0.531156,0.0696936,-0.0273547,-0.0409361,0.0524897,-0.000496969,-0.000133755,0.0727132,0.0721796150863876,0.05389170693805201,-0.0004968455313607567,-0.02698394848496466,-0.00013374605519878013,-0.040109535011163766
793,0.0794,773.443,58.9722,-0.00113451,213.628,-1.99824,-0.531272,0.0697782,-0.0273885,-0.0409868,0.0525539,-0.000497658,-0.000133941,0.0728055,0.07227032531881261,0.053959368957565035,-0.0004975341887969442,-0.02701683587170589,-0.00013393203030476197,-0.04015820022406513
794,0.0795,773.596,58.9846,-0.0011366,213.672,-1.99867,-0.531387,0.0698627,-0.0274223,-0.0410375,0.0526181,-0.000498347,-0.000134127,0.0728979,0.07236093598954896,0.05402703532111919,-0.0004982228457586224,-0.02704972214687229,-0.00013411800537610485,-0.04020686296970266
795,0.0796,773.749,58.997,-0.00113869,213.715,-1.99911,-0.531502,0.0699472,-0.0274561,-0.0410882,0.0526823,-0.000499036,-0.000134313,0.0729902,0.07245155431721062,0.054094706028993134,-0.0004989115022457913,-0.027082607310501272,-0.00013430398041280878,-0.0402555232482017
796,0.0797,773.902,59.0094,-0.00114078,213.759,-1.99954,-0.531617,0.0700317,-0.0274899,-0.0411389,0.0527465,-0.000499726,-0.000134499,0.0730826,0.07254218030244441,0.054162381081466204,-0.0004996011577589332,-0.027115491362630584,-0.00013448995541498476,-0.04030418105968703
797,0.0798,774.055,59.0217,-0.00114287,213.802,-1.99997,-0.531732,0.0701162,-0.0275237,-0.0411896,0.0528106,-0.000500415,-0.000134685,0.0731749,0.07263281394589738,0.05422995505581629,-0.0005002898132965283,-0.02714837430329775,-0.0001346759303825218,-0.04035283640428389
798,0.0799,774.208,59.034,-0.00114496,213.846,-2.0004,-0.531847,0.0702007,-0.0275575,-0.0412402,0.0528748,-0.000501104,-0.00013487,0.0732672,0.072723455248217,0.05429763879155547,-0.0005009784683596141,-0.027181256132540188,-0.00013486090545045126,-0.04040139332226145
799,0.08,774.36,59.0464,-0.00114706,213.889,-2.00082,-0.531961,0.0702852,-0.0275913,-0.0412909,0.052939,-0.000501793,-0.000135056,0.0733596,0.07281410421005008,0.05436532687272999,-0.0005016671229481906,-0.027214136850395643,-0.00013504688034904344,-0.040450043738321506
800,0.0801,774.512,59.0587,-0.00114915,213.932,-2.00125,-0.532075,0.0703697,-0.0276251,-0.0413416,0.0530031,-0.000502482,-0.000135242,0.0734519,0.07290476083204411,0.05443291385632221,-0.0005023557770622578,-0.02724701645690164,-0.00013523285521299666,-0.040498691687868016
801,0.0802,774.664,59.071,-0.00115125,213.976,-2.00168,-0.532189,0.0704542,-0.0276589,-0.0413922,0.0530673,-0.00050317,-0.000135428,0.0735442,0.07299542511484636,0.05450061062243483,-0.000503043431204997,-0.027279894952095707,-0.00013541883004242194,-0.04054724122575504
802,0.0803,774.816,59.0833,-0.00115334,214.019,-2.0021,-0.532302,0.0705386,-0.0276926,-0.0414429,0.0531314,-0.000503859,-0.000135613,0.0736365,0.07308598975050007,0.0545682062779933,-0.0005037320843708226,-0.02731267506728774,-0.00013560380497279478,-0.040595884247513814
803,0.0804,774.968,59.0955,-0.00115544,214.062,-2.00253,-0.532415,0.0706231,-0.0277264,-0.0414935,0.0531955,-0.000504548,-0.000135799,0.0737288,0.07317666934779288,0.05463580626657216,-0.000504420737062139,-0.027345551343258334,-0.0001357897797331642,-0.04064442886758168
804,0.0805,775.12,59.1078,-0.00115753,214.105,-2.00295,-0.532528,0.0707075,-0.0277602,-0.0415442,0.0532597,-0.000505237,-0.000135985,0.073821,0.07326724928110528,0.05470351605879564,-0.000505109389279057,-0.027378426508029463,-0.00013597575445900567,-0.040693066962051994
805,0.0806,775.271,59.12,-0.00115963,214.148,-2.00337,-0.532641,0.070792,-0.027794,-0.0415948,0.0533238,-0.000505925,-0.00013617,0.0739133,0.0733579441954757,0.05477112472100942,-0.0005057970415272006,-0.027411300561638874,-0.0001361607292863498,-0.04074160666479887
806,0.0807,775.423,59.1322,-0.00116173,214.191,-2.0038,-0.532753,0.0708764,-0.0278277,-0.0416454,0.0533879,-0.000506614,-0.000136356,0.0740056,0.07344853942903096,0.05483873771707737,-0.0005064856927958772,-0.02744407624853651,-0.00013634670394313542,-0.04079014391149893
807,0.0808,775.574,59.1445,-0.00116383,214.234,-2.00422,-0.532866,0.0709608,-0.0278615,-0.0416961,0.053452,-0.000507302,-0.000136542,0.0740978,0.07353914230914649,0.05490635504727748,-0.0005071733440971116,-0.027476948083222208,-0.00013653267856539308,-0.040838774618403795
808,0.0809,775.725,59.1567,-0.00116592,214.277,-2.00464,-0.532978,0.0710452,-0.0278953,-0.0417467,0.0535161,-0.000507991,-0.000136727,0.0741901,0.07362975283646778,0.054973976711887085,-0.0005078619944174356,-0.027509818806858655,-0.00013671765328970853,-0.04088730694852971
809,0.081,775.875,59.1688,-0.00116802,214.32,-2.00505,-0.533089,0.0711296,-0.027929,-0.0417973,0.0535803,-0.000508679,-0.000136913,0.0742823,0.07372037101164053,0.05504170821535004,-0.0005085496447718718,-0.027542591173747355,-0.00013690362784291032,-0.040935836822981964
810,0.0811,776.026,59.181,-0.00117012,214.363,-2.00547,-0.533201,0.071214,-0.0279628,-0.0418479,0.0536443,-0.000509367,-0.000137099,0.0743746,0.07381099683530978,0.05510923304544724,-0.0005092372946531309,-0.0275754596786848,-0.00013708960236158418,-0.040984364241884674
811,0.0812,776.177,59.1932,-0.00117222,214.406,-2.00589,-0.533312,0.0712984,-0.0279965,-0.0418985,0.0537084,-0.000510056,-0.000137284,0.0744668,0.07390163030812147,0.05517686771495356,-0.0005099259435513703,-0.02760822983351341,-0.00013727457698287093,-0.04103288920536208
812,0.0813,776.327,59.2053,-0.00117432,214.448,-2.0063,-0.533423,0.0713828,-0.0280303,-0.0419492,0.0537725,-0.000510744,-0.00013747,0.074559,0.07399227143072107,0.055244506719980935,-0.0005106135924858313,-0.02764109611990173,-0.00013746055143248892,-0.04108150760539253
813,0.0814,776.477,59.2175,-0.00117643,214.491,-2.00672,-0.533534,0.0714672,-0.028064,-0.0419998,0.0538366,-0.000511432,-0.000137655,0.0746512,0.07408292020375407,0.055312150060807586,-0.0005113012409471152,-0.027673864062819464,-0.00013764552598516389,-0.041130027653540124
814,0.0815,776.627,59.2296,-0.00117853,214.534,-2.00713,-0.533644,0.0715515,-0.0280978,-0.0420504,0.0539007,-0.00051212,-0.000137841,0.0747434,0.07417346921051426,0.05537979773771151,-0.000511988888935333,-0.027706728130808322,-0.00013783150036583702,-0.041178545246635445
815,0.0816,776.777,59.2417,-0.00118063,214.576,-2.00755,-0.533754,0.0716359,-0.0281315,-0.042101,0.0539648,-0.000512808,-0.000138026,0.0748356,0.07426413327728554,0.05544744975097027,-0.0005126765364503738,-0.027739493861964615,-0.0001380164748499002,-0.041227060384802616
816,0.0817,776.926,59.2538,-0.00118273,214.619,-2.00796,-0.533864,0.0717203,-0.0281653,-0.0421515,0.0540288,-0.000513496,-0.000138212,0.0749278,0.07435480499642688,0.055515000549356985,-0.0005133641834923486,-0.027772355711703667,-0.00013820244916151747,-0.041275477195718446
817,0.0818,777.076,59.2658,-0.00118484,214.661,-2.00837,-0.533974,0.0718046,-0.028199,-0.0422021,0.0540929,-0.000514184,-0.000138397,0.07502,0.07444537692404118,0.055582661229393704,-0.0005140518300612573,-0.027805119231247843,-0.00013838742357696887,-0.04132398742925303
818,0.0819,777.225,59.2779,-0.00118694,214.704,-2.00878,-0.534083,0.0718889,-0.0282327,-0.0422527,0.0541569,-0.000514872,-0.000138583,0.0751122,0.0745359564871908,0.055650220681591867,-0.0005147394761571,-0.027837881646679885,-0.00013857339781964129,-0.04137249520823194
819,0.082,777.374,59.29,-0.00118905,214.746,-2.00919,-0.534192,0.0719733,-0.0282665,-0.0423033,0.054221,-0.00051556,-0.000138768,0.0752043,0.07462665114917932,0.05571789002951699,-0.0005154271217797657,-0.027870740170968022,-0.0001387583721664809,-0.04142100053277942
820,0.0821,777.523,59.302,-0.00119115,214.789,-2.0096,-0.534301,0.0720576,-0.0283002,-0.0423539,0.054285,-0.000516247,-0.000138954,0.0752965,0.07471724599439011,0.05578545813663527,-0.0005161137674454253,-0.02790350037501177,-0.00013894434634009745,-0.04146950340301947
821,0.0822,777.672,59.314,-0.00119326,214.831,-2.01001,-0.53441,0.0721419,-0.0283339,-0.0424044,0.0543491,-0.000516935,-0.000139139,0.0753886,0.07480784847706845,0.055853136153559024,-0.000516801412122625,-0.02793625947505518,-0.00013912932061832528,-0.04151790797087196
822,0.0823,777.821,59.326,-0.00119536,214.873,-2.01041,-0.534519,0.0722262,-0.0283676,-0.042455,0.0544131,-0.000517623,-0.000139325,0.0754808,0.07489845859785804,0.055920712916706306,-0.0005174890563267587,-0.02796901747113556,-0.00013931529472288595,-0.041566405937719764
823,0.0824,777.969,59.338,-0.00119747,214.916,-2.01082,-0.534627,0.0723105,-0.0284014,-0.0425055,0.0544771,-0.00051831,-0.00013951,0.0755729,0.07498907635740282,0.05598829400490457,-0.0005181757005758847,-0.02800187156310774,-0.000139500268932502,-0.04161480561211783
824,0.0825,778.118,59.35,-0.00119958,214.958,-2.01122,-0.534735,0.0723948,-0.0284351,-0.0425561,0.0545411,-0.000518998,-0.000139695,0.075665,0.07507970175634648,0.056055879418431154,-0.0005188633438344414,-0.02803462734809803,-0.00013968524310781216,-0.041663298676068994
825,0.0826,778.266,59.362,-0.00120169,215.0,-2.01163,-0.534843,0.0724791,-0.0284688,-0.0426067,0.0546052,-0.000519685,-0.000139881,0.0757572,0.07517033479533364,0.0561235747699147,-0.0005195499871394338,-0.028067382029236865,-0.0001398712171091221,-0.04171178928633312
826,0.0827,778.414,59.3739,-0.0012038,215.042,-2.01203,-0.53495,0.0725633,-0.0285025,-0.0426572,0.0546692,-0.000520372,-0.000140066,0.0758493,0.07526086794891551,0.05619116884168718,-0.0005202366299728034,-0.02810013560656166,-0.00014005619121582047,-0.04176018161905748
827,0.0828,778.562,59.3859,-0.00120591,215.084,-2.01243,-0.535057,0.0726476,-0.0285362,-0.0427077,0.0547332,-0.00052106,-0.000140251,0.0759414,0.07535151626085645,0.056258767239618646,-0.0005209242718133833,-0.028132888080109386,-0.00014024116528832398,-0.041808571508030745
828,0.0829,778.709,59.3978,-0.00120802,215.126,-2.01283,-0.535164,0.0727319,-0.0285699,-0.0427583,0.0547972,-0.000521747,-0.000140437,0.0760335,0.07544217221477201,0.05632636996398621,-0.0005216109137025082,-0.028165639449917457,-0.00014042713918616112,-0.04185705476767565
829,0.083,778.857,59.4097,-0.00121013,215.168,-2.01323,-0.535271,0.0728161,-0.0286036,-0.0428088,0.0548612,-0.000522434,-0.000140622,0.0761255,0.07553272825802826,0.05639397701506632,-0.0005222975551200104,-0.028198389716022842,-0.00014061211319005285,-0.04190543976467842
830,0.0831,779.004,59.4216,-0.00121224,215.21,-2.01363,-0.535378,0.0729004,-0.0286373,-0.0428593,0.0549251,-0.000523121,-0.000140807,0.0762176,0.07562339948875918,0.056461482746982705,-0.0005229841960656678,-0.028231138878462958,-0.00014079708715963868,-0.04195382231830058
831,0.0832,779.152,59.4335,-0.00121435,215.252,-2.01403,-0.535484,0.0729846,-0.028671,-0.0429099,0.0549891,-0.000523808,-0.000140993,0.0763097,0.07571397079199449,0.05652909844555798,-0.0005236708365397025,-0.028263886937274885,-0.00014098306095411406,-0.04200229822844037
832,0.0833,779.299,59.4454,-0.00121646,215.294,-2.01443,-0.53559,0.0730688,-0.0287047,-0.0429604,0.0550531,-0.000524495,-0.000141178,0.0764018,0.07580454972165462,0.056596718471676244,-0.0005243574765420034,-0.028296633892495815,-0.0001411680348550881,-0.042050675890833555
833,0.0834,779.446,59.4573,-0.00121857,215.335,-2.01483,-0.535696,0.073153,-0.0287384,-0.0430109,0.0551171,-0.000525182,-0.000141363,0.0764938,0.07589513627838174,0.05666434282561461,-0.0005250441160725705,-0.02832937974416294,-0.0001413530087218673,-0.0420990511102165
834,0.0835,779.592,59.4691,-0.00122069,215.377,-2.01522,-0.535801,0.0732372,-0.028772,-0.0430614,0.055181,-0.000525869,-0.000141548,0.0765859,0.07598573046281798,0.05673186583445822,-0.0005257307551314039,-0.028362027328521,-0.0001415379825544516,-0.042147423886712554
835,0.0836,779.739,59.481,-0.0012228,215.419,-2.01562,-0.535907,0.0733214,-0.0288057,-0.0431119,0.055245,-0.000526556,-0.000141734,0.0766779,0.07607633227560573,0.056799498838104645,-0.0005264173937185035,-0.028394770976466477,-0.0001417239562111483,-0.04219579422044506
836,0.0837,779.885,59.4928,-0.00122492,215.46,-2.01601,-0.536012,0.0734056,-0.0288394,-0.0431624,0.0553089,-0.000527242,-0.000141919,0.0767699,0.07616694171738736,0.05686703048369357,-0.0005271030323610315,-0.028427513520969616,-0.00014190892997512083,-0.042244162111537475
837,0.0838,780.032,59.5046,-0.00122703,215.502,-2.0164,-0.536117,0.0734898,-0.0288731,-0.0432129,0.0553729,-0.000527929,-0.000142104,0.076862,0.07625755878880502,0.05693467213815451,-0.0005277896700053297,-0.0284602549620675,-0.00014209390370478747,-0.042292527560112925
838,0.0839,780.178,59.5164,-0.00122915,215.543,-2.0168,-0.536221,0.073574,-0.0289067,-0.0432634,0.0554368,-0.000528616,-0.000142289,0.076954,0.07634818349050154,0.0570022124215932,-0.0005284763071780052,-0.028492898149092172,-0.00014227887740037026,-0.042340890566294975
839,0.084,780.324,59.5282,-0.00123126,215.585,-2.01719,-0.536326,0.0736582,-0.0289404,-0.0433139,0.0555008,-0.000529302,-0.000142474,0.077046,0.07643881582311907,0.057069862727974874,-0.0005291619444081075,-0.02852563738676539,-0.00014246385106164716,-0.04238925113020686
840,0.0841,780.47,59.54,-0.00123338,215.626,-2.01758,-0.53643,0.0737423,-0.0289741,-0.0433644,0.0555647,-0.000529989,-0.000142659,0.077138,0.07652934813436008,0.05713741165036823,-0.0005298485806379816,-0.028558375521144708,-0.0001426488246887292,-0.04243760925197193
841,0.0842,780.615,59.5518,-0.0012355,215.668,-2.01797,-0.536534,0.0738265,-0.0290077,-0.0434148,0.0556286,-0.000530675,-0.000142844,0.07723,0.07661999572168288,0.05720496488927562,-0.0005305342169266147,-0.028591015411373988,-0.00014283379828161635,-0.04248586918030528
842,0.0843,780.761,59.5635,-0.00123761,215.709,-2.01836,-0.536638,0.0739106,-0.0290414,-0.0434653,0.0556925,-0.000531362,-0.000143029,0.077322,0.07671054327079418,0.05727252244497305,-0.0005312208522137984,-0.02862375134255113,-0.00014301877184019762,-0.04253422242298199
843,0.0844,780.906,59.5753,-0.00123973,215.751,-2.01875,-0.536741,0.0739948,-0.0290751,-0.0435158,0.0557565,-0.000532048,-0.000143214,0.077414,0.07680120611538976,0.05734019005174984,-0.0005319064875610735,-0.028656486170545947,-0.00014320374536469505,-0.04258257322388159
844,0.0845,781.052,59.587,-0.00124185,215.792,-2.01913,-0.536844,0.0740789,-0.0291087,-0.0435662,0.0558204,-0.000532734,-0.0001434,0.0775059,0.07689176890493599,0.05740775624861105,-0.0005325921224380581,-0.02868912276431268,-0.00014338971871141748,-0.042630825846214804
845,0.0846,781.197,59.5987,-0.00124397,215.833,-2.01952,-0.536948,0.074163,-0.0291424,-0.0436167,0.0558843,-0.00053342,-0.000143585,0.0775979,0.07698233931113307,0.057475326763090306,-0.0005332777568447522,-0.0287218553893277,-0.0001435746921671921,-0.04267917176876479
846,0.0847,781.342,59.6104,-0.00124609,215.874,-2.01991,-0.53705,0.0742472,-0.029176,-0.0436672,0.0559482,-0.000534106,-0.00014377,0.0776898,0.07707302504191871,0.05754290159546338,-0.0005339633907810448,-0.02875448978672568,-0.00014375966558877185,-0.042727515249907255
847,0.0848,781.486,59.6221,-0.00124821,215.915,-2.02029,-0.537153,0.0743313,-0.0292097,-0.0437176,0.0560121,-0.000534792,-0.000143955,0.0777818,0.07716361069239808,0.057610480746006276,-0.0005346490242469359,-0.028787220208909226,-0.00014394463897615672,-0.042775760567346444
848,0.0849,781.631,59.6338,-0.00125033,215.957,-2.02067,-0.537255,0.0744154,-0.0292433,-0.0437681,0.0560759,-0.000535478,-0.00014414,0.0778737,0.07725420396145077,0.05767795844719359,-0.0005353346572425366,-0.02881985241008611,-0.00014412961232934673,-0.042824099170877816
849,0.085,781.775,59.6454,-0.00125245,215.998,-2.02106,-0.537357,0.0744995,-0.0292769,-0.0438185,0.0561398,-0.000536164,-0.000144324,0.0779657,0.07734480484971784,0.05774554622814487,-0.0005360202897677357,-0.02885248351483949,-0.0001443135857924771,-0.0428723396206101
850,0.0851,781.92,59.6571,-0.00125457,216.039,-2.02144,-0.537459,0.0745835,-0.0293106,-0.0438689,0.0562037,-0.00053685,-0.000144509,0.0780576,0.07743530561430423,0.05781313832809354,-0.0005367059218226444,-0.028885210634689962,-0.0001444985590773884,-0.042920577639084856
851,0.0852,782.064,59.6687,-0.0012567,216.08,-2.02182,-0.537561,0.0746676,-0.0293442,-0.0439194,0.0562676,-0.000537536,-0.000144694,0.0781495,0.07752592173386064,0.057880734747315365,-0.0005373915534072626,-0.028917839543443957,-0.00014468353232810482,-0.04296890892953875
852,0.0853,782.208,59.6803,-0.00125882,216.121,-2.0222,-0.537662,0.0747517,-0.0293778,-0.0439698,0.0563314,-0.000538222,-0.000144879,0.0782414,0.07761654547455343,0.0579482296912579,-0.0005380771845214793,-0.028950467355884912,-0.00014486850554451536,-0.043017142081043125
853,0.0854,782.352,59.692,-0.00126094,216.161,-2.02258,-0.537764,0.0748357,-0.0294114,-0.0440202,0.0563953,-0.000538907,-0.000145064,0.0783333,0.07770706906631086,0.058015834743093686,-0.0005387618157041141,-0.02898309407204991,-0.00014505347872673102,-0.0430653728016579
854,0.0855,782.496,59.7036,-0.00126307,216.202,-2.02296,-0.537865,0.0749198,-0.0294451,-0.0440706,0.0564591,-0.000539593,-0.000145249,0.0784252,0.07779770804213482,0.05808333830669099,-0.000539447445878305,-0.029015816790398774,-0.00014523845187475182,-0.04311360109150553
855,0.0856,782.639,59.7151,-0.00126519,216.243,-2.02334,-0.537965,0.0750038,-0.0294787,-0.0441211,0.056523,-0.000540278,-0.000145434,0.0785171,0.07788824685218732,0.05815095199224318,-0.0005401320761223571,-0.029048441310859596,-0.00014542342498846672,-0.04316192263452123
856,0.0857,782.783,59.7267,-0.00126732,216.284,-2.02371,-0.538066,0.0750879,-0.0295123,-0.0441715,0.0565868,-0.000540964,-0.000145619,0.078609,0.07797890106570371,0.05821846417659593,-0.0005408177053566332,-0.029081064735154927,-0.00014560839806798676,-0.04321014605837992
857,0.0858,782.926,59.7383,-0.00126944,216.325,-2.02409,-0.538166,0.0751719,-0.0295459,-0.0442219,0.0566507,-0.000541649,-0.000145803,0.0787009,0.07806945509660923,0.05828608649696698,-0.0005415023346619918,-0.029113687063321625,-0.0001457923712592235,-0.043258367051839275
858,0.0859,783.069,59.7498,-0.00127157,216.365,-2.02446,-0.538266,0.0752559,-0.0295795,-0.0442723,0.0567145,-0.000542334,-0.000145988,0.0787927,0.078160016734373,0.05835360730317629,-0.0005421869634983922,-0.02914630829539655,-0.00014597734427046483,-0.043306585615021875
859,0.086,783.212,59.7614,-0.0012737,216.406,-2.02484,-0.538366,0.07534,-0.0296131,-0.0443227,0.0567783,-0.00054302,-0.000146173,0.0788846,0.07825069380469762,0.058421132417350474,-0.0005428725913229071,-0.02917892843141645,-0.00014616231724751128,-0.043354801748050176
860,0.0861,783.355,59.7729,-0.00127582,216.446,-2.02521,-0.538466,0.075424,-0.0296467,-0.0443731,0.0568421,-0.000543705,-0.000146358,0.0789764,0.07834127066715224,0.05848866183976442,-0.000543557219220725,-0.029211547471418298,-0.00014634729019036286,-0.04340301545104652
861,0.0862,783.497,59.7844,-0.00127795,216.487,-2.02559,-0.538565,0.075508,-0.0296803,-0.0444235,0.056906,-0.00054439,-0.000146543,0.0790683,0.07843185513838291,0.058556301426317736,-0.0005442418466495846,-0.029244165415438728,-0.00014653226309901957,-0.043451226724133485
862,0.0863,783.64,59.7959,-0.00128008,216.528,-2.02596,-0.538665,0.0755919,-0.0297139,-0.0444738,0.0569698,-0.000545075,-0.000146727,0.0791601,0.07852233936678932,0.058623839472789596,-0.0005449264736093751,-0.0292767822635146,-0.00014671623612017015,-0.043499339917372315
863,0.0864,783.782,59.8074,-0.00128221,216.568,-2.02633,-0.538764,0.0756759,-0.0297475,-0.0445242,0.0570336,-0.00054576,-0.000146912,0.0792519,0.07861293904842936,0.05869138182832612,-0.0005456111001003183,-0.029309398015682886,-0.00014690120896054815,-0.04354754633582858
864,0.0865,783.925,59.8189,-0.00128434,216.608,-2.0267,-0.538862,0.0757599,-0.0297811,-0.0445746,0.0570974,-0.000546445,-0.000147097,0.0793437,0.07870354634076238,0.05875892849320241,-0.0005462957261221923,-0.029342012671980222,-0.00014708618176673127,-0.0435957503247425
865,0.0866,784.067,59.8304,-0.00128647,216.649,-2.02707,-0.538961,0.0758439,-0.0298147,-0.044625,0.0571612,-0.00054713,-0.000147281,0.0794355,0.07879416124442784,0.05882647946769359,-0.0005469803516751082,-0.02937462623244358,-0.00014727015468596338,-0.04364395188423664
866,0.0867,784.209,59.8418,-0.0012886,216.689,-2.02744,-0.539059,0.0759278,-0.0298483,-0.0446753,0.0572249,-0.000547814,-0.000147466,0.0795273,0.07888467587159176,0.05889392886267597,-0.0005476639773067671,-0.029407238697109706,-0.0001474551274238678,-0.043692055383643735
867,0.0868,784.35,59.8533,-0.00129073,216.729,-2.02781,-0.539158,0.0760118,-0.0298819,-0.0447257,0.0572887,-0.000548499,-0.000147651,0.0796191,0.07897530599077651,0.05896148845046545,-0.0005483486019224326,-0.02943985006601535,-0.00014764010012757733,-0.043740252089485177
868,0.0869,784.492,59.8647,-0.00129286,216.77,-2.02817,-0.539255,0.0760957,-0.0299155,-0.0447761,0.0573525,-0.000549184,-0.000147835,0.0797109,0.0790658358166223,0.059029052348694044,-0.000549033226069251,-0.02947246033919748,-0.00014782407294489097,-0.04378844636627388
869,0.087,784.634,59.8761,-0.00129499,216.81,-2.02854,-0.539353,0.0761797,-0.029949,-0.0448264,0.0574163,-0.000549868,-0.00014802,0.0798027,0.07915648115388185,0.05909662055763665,-0.0005497168502966998,-0.029504972467194968,-0.0001480090455803218,-0.04383654259779135
870,0.0871,784.775,59.8875,-0.00129713,216.85,-2.0289,-0.539451,0.0762636,-0.0299826,-0.0448768,0.05748,-0.000550553,-0.000148205,0.0798945,0.07924702618096147,0.05916408716115473,-0.0005504014735061569,-0.029537580552301157,-0.00014819401818155775,-0.043884732021660655
871,0.0872,784.916,59.8989,-0.00129926,216.89,-2.02927,-0.539548,0.0763475,-0.0300162,-0.0449271,0.0575438,-0.000551237,-0.000148389,0.0799862,0.0793375788050874,0.05923166398559343,-0.0005510850967977987,-0.02957018754179408,-0.0001483779908968419,-0.043932823410131494
872,0.0873,785.057,59.9103,-0.00130139,216.93,-2.02963,-0.539645,0.0764314,-0.0300497,-0.0449774,0.0576075,-0.000551922,-0.000148574,0.080078,0.07942813902689738,0.05929913919165175,-0.0005517697190700055,-0.029602696395985117,-0.00014856296342979913,-0.04398091237966617
873,0.0874,785.198,59.9217,-0.00130353,216.97,-2.03,-0.539742,0.0765153,-0.0300833,-0.0450278,0.0576713,-0.000552606,-0.000148758,0.0801697,0.07951870684702866,0.059366724632684775,-0.0005524533414257293,-0.029635301197622477,-0.00014874693607735967,-0.04402909452748194
874,0.0875,785.339,59.933,-0.00130566,217.01,-2.03036,-0.539839,0.0765992,-0.0301169,-0.0450781,0.057735,-0.00055329,-0.000148943,0.0802615,0.07960928226611874,0.059434208442380454,-0.0005531369633138272,-0.029667904903756925,-0.0001489319085420382,-0.04407717865470129
875,0.0876,785.48,59.9444,-0.0013078,217.05,-2.03072,-0.539935,0.0766831,-0.0301504,-0.0451284,0.0577988,-0.000553975,-0.000149127,0.0803532,0.07969986528480533,0.059501802501106704,-0.0005538215841804917,-0.02970041048447114,-0.00014911588112165308,-0.04412526036334985
876,0.0877,785.62,59.9557,-0.00130994,217.09,-2.03108,-0.540031,0.076767,-0.030184,-0.0451788,0.0578625,-0.000554659,-0.000149312,0.0804449,0.07979045590372613,0.05956929491553664,-0.0005545052051327826,-0.029733012002970294,-0.0001493008535180529,-0.044173435236210534
877,0.0878,785.761,59.9671,-0.00131207,217.13,-2.03144,-0.540127,0.0768509,-0.0302175,-0.0452291,0.0579262,-0.000555343,-0.000149496,0.0805366,0.07988105412351865,0.0596367916293703,-0.0005551888256173365,-0.02976551540263317,-0.00014948482602983315,-0.04422151210327474
878,0.0879,785.901,59.9784,-0.00131421,217.17,-2.0318,-0.540223,0.0769347,-0.0302511,-0.0452794,0.0579899,-0.000556027,-0.000149681,0.0806284,0.07997155194766004,0.05970429264288146,-0.0005558724456343755,-0.0297981147336438,-0.00014966979835806526,-0.04426958655213342
879,0.088,786.041,59.9897,-0.00131635,217.21,-2.03216,-0.540319,0.0770186,-0.0302846,-0.0453297,0.0580537,-0.000556711,-0.000149865,0.0807201,0.08006216536204813,0.05977190393352938,-0.0005565560651838997,-0.029830615952401773,-0.00014985377080189988,-0.04431765858290815
880,0.0881,786.181,60.001,-0.00131849,217.25,-2.03252,-0.540414,0.0771024,-0.0303182,-0.04538,0.0581174,-0.000557394,-0.000150049,0.0808117,0.08015267836394724,0.05983941355396838,-0.000557238684822936,-0.029863213096070762,-0.0001500377432118727,-0.0443657281957206
881,0.0882,786.321,60.0122,-0.00132062,217.289,-2.03287,-0.540509,0.0771863,-0.0303517,-0.0454303,0.0581811,-0.000558078,-0.000150234,0.0809034,0.0802433069754791,0.059906927474907334,-0.0005579223034378744,-0.02989571213407005,-0.00015022271543774224,-0.044413795390692234
882,0.0883,786.46,60.0235,-0.00132276,217.329,-2.03323,-0.540604,0.0772701,-0.0303853,-0.0454806,0.0582448,-0.000558762,-0.000150418,0.0809951,0.08033383515768144,0.05997444569662003,-0.0005586059215852979,-0.02992830709054406,-0.00015040668777988042,-0.044461860167944844
883,0.0884,786.6,60.0348,-0.0013249,217.369,-2.03359,-0.540699,0.077354,-0.0304188,-0.0455309,0.0583085,-0.000559445,-0.000150602,0.0810868,0.08042447896890592,0.06004196821938046,-0.000559288539824343,-0.029960803947931103,-0.00015059066008804578,-0.04450992252759989
884,0.0885,786.739,60.046,-0.00132705,217.408,-2.03394,-0.540794,0.0774378,-0.0304523,-0.0455812,0.0583721,-0.000560129,-0.000150787,0.0811784,0.08051502233395746,0.06010938903251839,-0.0005599721570371807,-0.029993299716691735,-0.0001507756322116638,-0.044557982469779045
885,0.0886,786.878,60.0572,-0.00132919,217.448,-2.03429,-0.540888,0.0775216,-0.0304858,-0.0456314,0.0584358,-0.000560813,-0.000150971,0.0812701,0.08060557328686091,0.06017692015144305,-0.0005606557737823925,-0.03002579439686226,-0.00015095960445210554,-0.04460594445520316
886,0.0887,787.018,60.0684,-0.00133133,217.487,-2.03465,-0.540982,0.0776054,-0.0305194,-0.0456817,0.0584995,-0.000561496,-0.000151155,0.0813617,0.08069613182825242,0.06024445557223701,-0.0005613383906213354,-0.03005838498264557,-0.00015114357665857447,-0.044653999567600855
887,0.0888,787.156,60.0797,-0.00133347,217.527,-2.035,-0.541076,0.0776892,-0.0305529,-0.045732,0.0585632,-0.000562179,-0.00015134,0.0814534,0.08078669795876747,0.06031199529517428,-0.0005620210069940956,-0.03009087748249628,-0.00015132854867994094,-0.04470205226288715
888,0.0889,787.295,60.0909,-0.00133561,217.566,-2.03535,-0.54117,0.077773,-0.0305864,-0.0457823,0.0586268,-0.000562863,-0.000151524,0.081545,0.08087727167904224,0.06037943328258022,-0.0005627046223379839,-0.030123368893866465,-0.00015151252081846422,-0.04475010254118372
889,0.089,787.434,60.102,-0.00133776,217.606,-2.0357,-0.541264,0.0778567,-0.0306199,-0.0458325,0.0586905,-0.000563546,-0.000151708,0.0816366,0.0809677448929329,0.06044698160387152,-0.0005633872377776017,-0.030155859216792535,-0.00015169649292323673,-0.04479805488242239
890,0.0891,787.573,60.1132,-0.0013399,217.645,-2.03605,-0.541357,0.0779405,-0.0306534,-0.0458828,0.0587541,-0.000564229,-0.000151892,0.0817282,0.08105833378557659,0.060514428176679846,-0.0005640698527510368,-0.03018834845131102,-0.00015188046499414742,-0.04484610033190861
891,0.0892,787.711,60.1244,-0.00134204,217.684,-2.0364,-0.54145,0.0780243,-0.0306869,-0.045933,0.0588178,-0.000564912,-0.000152077,0.0818199,0.08114893026988756,0.060581985097419855,-0.0005647524672581783,-0.030220836597458445,-0.0001520654368791785,-0.04489404785417905
892,0.0893,787.849,60.1355,-0.00134419,217.723,-2.03675,-0.541543,0.078108,-0.0307205,-0.0459833,0.0588814,-0.000565595,-0.000152261,0.0819115,0.08123942622255376,0.06064944025672325,-0.0005654350812991371,-0.03025342062993397,-0.00015224940888225458,-0.0449420884753402
893,0.0894,787.987,60.1467,-0.00134634,217.763,-2.0371,-0.541636,0.0781918,-0.030754,-0.0460335,0.0589451,-0.000566278,-0.000152445,0.082003,0.08133003788304682,0.06071700577800665,-0.0005661176948739133,-0.030285906596199896,-0.00015243338085146885,-0.04499003117912681
894,0.0895,788.125,60.1578,-0.00134848,217.802,-2.03745,-0.541728,0.0782755,-0.0307875,-0.0460838,0.0590087,-0.000566961,-0.000152629,0.0820946,0.0814205489950548,0.06078446952489869,-0.0005668003079823958,-0.03031839147420412,-0.0001526173527867103,-0.045038066972448165
895,0.0896,788.263,60.1689,-0.00135063,217.841,-2.03779,-0.541821,0.0783593,-0.030821,-0.046134,0.0590723,-0.000567644,-0.000152813,0.0821862,0.08151117583427214,0.060851937562621305,-0.0005674829206246956,-0.03035087526398328,-0.00015280132468820096,-0.04508600485823511
896,0.0897,788.401,60.18,-0.00135278,217.88,-2.03814,-0.541913,0.078443,-0.0308544,-0.0461843,0.0591359,-0.000568326,-0.000152997,0.0822778,0.0816017021081612,0.06091940989144762,-0.0005681645333688312,-0.030383261003904538,-0.00015298529655582982,-0.045134035824201835
897,0.0898,788.538,60.1911,-0.00135492,217.919,-2.03848,-0.542005,0.0785267,-0.0308879,-0.0462345,0.0591996,-0.000569009,-0.000153181,0.0823693,0.08169223595941655,0.06098699261034435,-0.0005688471450794319,-0.03041574262059088,-0.00015316926838959688,-0.04518196889247339
898,0.0899,788.676,60.2022,-0.00135707,217.958,-2.03883,-0.542097,0.0786104,-0.0309214,-0.0462847,0.0592632,-0.000569692,-0.000153365,0.0824609,0.08178277738867212,0.061054473528944886,-0.0005695297563236279,-0.03044822314916118,-0.00015335324018961316,-0.045229899554565356
899,0.09,788.813,60.2133,-0.00135922,217.997,-2.03917,-0.542189,0.0786941,-0.0309549,-0.0463349,0.0593268,-0.000570374,-0.000153549,0.0825524,0.08187332639656275,0.06112195873946824,-0.0005702113676719911,-0.030480702589651965,-0.00015353721195565662,-0.045277827810598414
900,0.0901,788.95,60.2243,-0.00136137,218.036,-2.03951,-0.54228,0.0787778,-0.0309884,-0.0463851,0.0593904,-0.000571057,-0.000153734,0.082644,0.08196388298372237,0.06118944824218753,-0.0005708939779844879,-0.03051318094209976,-0.00015372218353415512,-0.04532575366069336
901,0.0902,789.087,60.2354,-0.00136352,218.075,-2.03986,-0.542371,0.0788615,-0.0310219,-0.0464354,0.059454,-0.000571739,-0.000153918,0.0827355,0.0820544471507858,0.06125694203737564,-0.0005715755884023732,-0.030545658206540982,-0.00015390615523236395,-0.04537377256759867
902,0.0903,789.224,60.2464,-0.00136568,218.114,-2.0402,-0.542462,0.0789452,-0.0310553,-0.0464856,0.0595175,-0.000572421,-0.000154102,0.082827,0.08214501889838699,0.061324333992867075,-0.0005722571983554081,-0.03057803744082066,-0.00015409012689671098,-0.0454216936013877
903,0.0904,789.361,60.2574,-0.00136783,218.153,-2.04054,-0.542553,0.0790289,-0.0310888,-0.0465358,0.0595811,-0.000573103,-0.000154285,0.0829185,0.08223559822716076,0.06139183636706158,-0.0005729388078434816,-0.030610512532605605,-0.00015427309868143446,-0.04546961222960133
904,0.0905,789.498,60.2685,-0.00136998,218.192,-2.04088,-0.542644,0.0791125,-0.0311223,-0.046586,0.0596447,-0.000573786,-0.000154469,0.08301,0.08232607690512861,0.06145934303454381,-0.0005736214162932463,-0.03064298653649311,-0.00015445707027827993,-0.04551752845236012
905,0.0906,789.634,60.2795,-0.00137213,218.23,-2.04122,-0.542734,0.0791962,-0.0311558,-0.0466361,0.0597083,-0.000574468,-0.000154653,0.0831015,0.08241667138909192,0.06152685399558666,-0.0005743030248509529,-0.030675459452519815,-0.0001546410418412636,-0.045565346826324404
906,0.0907,789.771,60.2904,-0.00137429,218.269,-2.04156,-0.542825,0.0792798,-0.0311892,-0.0466863,0.0597718,-0.00057515,-0.000154837,0.083193,0.0825071652054088,0.061594263091031554,-0.0005749846329439201,-0.030707834351510255,-0.00015482501337038546,-0.04561325824332707
907,0.0908,789.907,60.3014,-0.00137644,218.308,-2.04189,-0.542915,0.0793635,-0.0312227,-0.0467365,0.0598354,-0.000575832,-0.000155021,0.0832845,0.08259777484709718,0.06166178263326283,-0.000575666240571926,-0.03074030509517156,-0.00015500898486564552,-0.045661167255237056
908,0.0909,790.043,60.3124,-0.0013786,218.347,-2.04223,-0.543005,0.0794471,-0.0312561,-0.0467867,0.0598989,-0.000576514,-0.000155205,0.083376,0.08268828380429616,0.06172920029694828,-0.0005763478477351924,-0.03077267782835369,-0.00015519295632704377,-0.04570907386217493
909,0.091,790.179,60.3234,-0.00138075,218.385,-2.04257,-0.543095,0.0795307,-0.0312896,-0.0468369,0.0599625,-0.000577195,-0.000155389,0.0834675,0.08277880032836005,0.06179672842145867,-0.0005770284550105087,-0.030805146399794814,-0.00015537692775469125,-0.04575697806426149
910,0.0911,790.315,60.3343,-0.00138291,218.424,-2.0429,-0.543184,0.0796144,-0.031323,-0.046887,0.060026,-0.000577877,-0.000155573,0.0835589,0.08286943270685976,0.06186415465447359,-0.0005777100612446295,-0.030837516967313627,-0.0001555608991483659,-0.04580478444210068
911,0.0912,790.45,60.3452,-0.00138507,218.462,-2.04324,-0.543274,0.079698,-0.0313565,-0.0469372,0.0600896,-0.000578559,-0.000155757,0.0836504,0.08295996437560493,0.06193169136235421,-0.000578391667014011,-0.0308699833666799,-0.00015574487050828978,-0.04585268383963681
912,0.0913,790.586,60.3562,-0.00138723,218.501,-2.04357,-0.543363,0.0797816,-0.0313899,-0.0469874,0.0601531,-0.00057924,-0.00015594,0.0837418,0.08305050361311417,0.061999126165788176,-0.0005790722728975517,-0.03090235176868017,-0.00015592784199014442,-0.045900580832683446
913,0.0914,790.721,60.3671,-0.00138939,218.539,-2.04391,-0.543452,0.0798652,-0.0314234,-0.0470375,0.0602166,-0.000579922,-0.000156124,0.0838333,0.08314105042002007,0.06206656525146803,-0.0005797538777377875,-0.030934815996117027,-0.00015611181328256674,-0.04594838001620416
914,0.0915,790.857,60.378,-0.00139155,218.578,-2.04424,-0.543541,0.0799488,-0.0314568,-0.0470877,0.0602801,-0.000580603,-0.000156308,0.0839247,0.08323160479695546,0.06213400861966578,-0.0005804344826936259,-0.03096718223274364,-0.00015629578454101622,-0.04599627220542335
915,0.0916,790.992,60.3889,-0.00139371,218.616,-2.04457,-0.54363,0.0800323,-0.0314903,-0.0471378,0.0603437,-0.000581285,-0.000156492,0.0840161,0.08332205841234175,0.06220156249080433,-0.0005811160866049381,-0.03099964428839641,-0.00015647975576571493,-0.046044066594926436
916,0.0917,791.127,60.3998,-0.00139587,218.654,-2.04491,-0.543719,0.0801159,-0.0315237,-0.047188,0.0604072,-0.000581966,-0.000156675,0.0841075,0.08341262792217785,0.062269014431598935,-0.000581796690633074,-0.03103200835979414,-0.00015666272711312157,-0.046091953980799905
917,0.0918,791.262,60.4106,-0.00139804,218.693,-2.04524,-0.543807,0.0801995,-0.0315571,-0.0472381,0.0604707,-0.000582647,-0.000156859,0.0841989,0.08350320500394148,0.06233647065572767,-0.0005824772941978029,-0.031064371350249975,-0.00015684669827031872,-0.04613974357676609
918,0.0919,791.397,60.4215,-0.0014002,218.731,-2.04557,-0.543895,0.080283,-0.0315905,-0.0472883,0.0605342,-0.000583329,-0.000157043,0.0842903,0.083593681298892,0.06240393116346277,-0.0005831588967158963,-0.031096733259800002,-0.00015703066939354304,-0.046187626159775674
919,0.092,791.531,60.4324,-0.00140237,218.769,-2.0459,-0.543984,0.0803666,-0.031624,-0.0473384,0.0605977,-0.00058401,-0.000157226,0.0843817,0.08368427351735064,0.062471395955076225,-0.0005838394993529228,-0.03112919097556599,-0.00015721364064025245,-0.0462354109626858
920,0.0921,791.666,60.4432,-0.00140453,218.807,-2.04623,-0.544072,0.0804501,-0.0316574,-0.0473885,0.0606611,-0.000584691,-0.00015741,0.0844731,0.08377476493215319,0.06253875877695858,-0.0005845201015264312,-0.03116155072017668,-0.00015739761169597521,-0.04628319337163722
921,0.0922,791.8,60.454,-0.0014067,218.846,-2.04656,-0.54416,0.0805336,-0.0316908,-0.0474386,0.0607246,-0.000585372,-0.000157594,0.0845645,0.08386526390330462,0.06260623213039729,-0.0005852007032365325,-0.031193909383989915,-0.00015758158271783618,-0.04633097338674985
922,0.0923,791.935,60.4648,-0.00140887,218.884,-2.04689,-0.544248,0.0806172,-0.0317242,-0.0474887,0.0607881,-0.000586053,-0.000157777,0.0846558,0.08395587882701783,0.06267370976852993,-0.0005858813044831157,-0.031226266967041894,-0.00015776455386373733,-0.046378751008143815
923,0.0924,792.069,60.4756,-0.00141104,218.922,-2.04722,-0.544336,0.0807007,-0.0317576,-0.0475389,0.0608516,-0.000586734,-0.000157961,0.0847472,0.08404639292181071,0.0627411916916285,-0.0005865619052661808,-0.031258623469368585,-0.00015794852481809674,-0.04642662159328148
924,0.0925,792.203,60.4864,-0.00141322,218.96,-2.04755,-0.544423,0.0807842,-0.031791,-0.047589,0.060915,-0.000587414,-0.000158145,0.0848386,0.08413691457484629,0.06280857161910292,-0.000587241506173064,-0.03129097889100618,-0.00015813249573870536,-0.0464743944228202
925,0.0926,792.336,60.4972,-0.00141539,218.998,-2.04788,-0.544511,0.0808677,-0.0318245,-0.0476391,0.0609785,-0.000588095,-0.000158328,0.0849299,0.08422744378675517,0.062876062106201,-0.00058792210602987,-0.03132343009965255,-0.00015831546678368724,-0.04652216485900029
926,0.0927,792.47,60.508,-0.00141757,219.036,-2.04821,-0.544599,0.0809512,-0.0318579,-0.0476892,0.0610419,-0.000588776,-0.000158512,0.0850212,0.08431798055816908,0.06294345058473083,-0.000588602705423158,-0.031355783356784794,-0.00015849943763668328,-0.046569932901941336
927,0.0928,792.604,60.5188,-0.00141975,219.074,-2.04854,-0.544687,0.0810347,-0.0318913,-0.0477393,0.0611054,-0.000589456,-0.000158695,0.0851126,0.08440852488971884,0.06301094963691511,-0.0005892823049422624,-0.0313881355333363,-0.0001586824086146077,-0.04661769855176345
928,0.0929,792.737,60.5295,-0.00142194,219.112,-2.04887,-0.544775,0.0811182,-0.0319247,-0.0477894,0.0611688,-0.000590137,-0.000158879,0.0852039,0.08449907678203594,0.06307834666758527,-0.0005899629034092913,-0.03142048662934316,-0.00015886637940010218,-0.04666546180858644
929,0.093,792.871,60.5403,-0.00142412,219.149,-2.0492,-0.544863,0.0812016,-0.031958,-0.0478394,0.0612323,-0.000590817,-0.000159062,0.0852952,0.08458952777679363,0.06314585428594288,-0.0005906425020033579,-0.03145273979012031,-0.00015904935031074707,-0.046713127343847693
930,0.0931,793.004,60.551,-0.0014263,219.187,-2.04953,-0.544952,0.0812851,-0.0319914,-0.0478895,0.0612957,-0.000591498,-0.000159246,0.0853865,0.08468009478348293,0.06321325986983917,-0.0005913230995441277,-0.03148508872838107,-0.00015923332102874,-0.046760885819807974
931,0.0932,793.137,60.5617,-0.00142846,219.225,-2.04986,-0.545042,0.0813686,-0.0320248,-0.0479396,0.0613591,-0.000592178,-0.000159429,0.0854778,0.08477066935283295,0.06328066972738466,-0.0005920026972133785,-0.031517436586205316,-0.00015941629187232742,-0.0468086419031285
932,0.0933,793.27,60.5724,-0.00143048,219.263,-2.05021,-0.545133,0.081452,-0.0320582,-0.0479897,0.0614225,-0.000592859,-0.000159613,0.0855691,0.08486114299935577,0.06334808385885093,-0.0005926832938277782,-0.031549783363629125,-0.00015960026252281878,-0.04685639559392918
933,0.0934,793.403,60.5831,-0.00143158,219.3,-2.05056,-0.545228,0.0815354,-0.0320916,-0.0480397,0.061486,-0.000593539,-0.000159796,0.0856604,0.084951624191695,0.06341560860606399,-0.0005933628905721022,-0.03158212906068858,-0.00015978323329923771,-0.0469040515827398
934,0.0935,793.536,60.5938,-0.00141155,219.338,-2.05097,-0.545343,0.0816189,-0.032125,-0.0480898,0.0615494,-0.000594221,-0.00015998,0.0857517,0.08504222143469731,0.0634830312929262,-0.0005940444856661342,-0.031614473677419874,-0.00015996720388222752,-0.04695180049363534
935,0.0936,793.668,60.6044,-0.00143625,219.376,-2.05136,-0.545437,0.0817023,-0.0321583,-0.0481399,0.0616128,-0.000594902,-0.000160163,0.0858429,0.08513271772960795,0.06355045825452232,-0.0005947250808900906,-0.031646720378535886,-0.00016015017459147796,-0.0469995470123703
936,0.0937,793.801,60.6151,-0.00144117,219.413,-2.05174,-0.545541,0.0817857,-0.0321917,-0.0481899,0.0616762,-0.000595582,-0.000160347,0.0859342,0.0852232215722244,0.06361788949112324,-0.0005954046762459697,-0.03167906283795319,-0.00016033414510685517,-0.047047195843789025
937,0.0938,793.933,60.6257,-0.00144395,219.451,-2.05212,-0.545644,0.0818691,-0.0322251,-0.04824,0.0617396,-0.000596263,-0.00016053,0.0860254,0.08531373296317613,0.06368532500300006,-0.000596085270543667,-0.03171140421715035,-0.00016051711574904814,-0.047094937583336716
938,0.0939,794.065,60.6364,-0.00144637,219.488,-2.0525,-0.545747,0.0819525,-0.0322585,-0.04829,0.0618029,-0.000596944,-0.000160714,0.0861167,0.08540425190309264,0.06375265841515265,-0.0005967658643778462,-0.031743744516163463,-0.0001607010861969238,-0.047142581645346016
939,0.094,794.197,60.647,-0.00144877,219.526,-2.05289,-0.545849,0.0820359,-0.0322918,-0.0483401,0.0618663,-0.000597625,-0.000160897,0.0862079,0.08549477839260344,0.06382010247165026,-0.0005974464577486183,-0.03177598691263217,-0.00016088405677183726,-0.04719031860618472
940,0.0941,794.329,60.6576,-0.00145116,219.563,-2.05327,-0.545952,0.0821193,-0.0323252,-0.0483901,0.0619297,-0.000598305,-0.00016108,0.0862991,0.08558531243233847,0.06388755080423647,-0.0005981260512538666,-0.03180832505461939,-0.000161067027313333,-0.04723795789926222
941,0.0942,794.461,60.6682,-0.00145356,219.601,-2.05366,-0.546054,0.0822027,-0.0323585,-0.0484401,0.0619931,-0.000598986,-0.000161264,0.0863904,0.08567585402292699,0.06395500341318261,-0.0005988066436983797,-0.03184056530059198,-0.00016125099766006734,-0.047285594810434484
942,0.0943,794.593,60.6788,-0.00145596,219.638,-2.05404,-0.546157,0.0822861,-0.0323919,-0.0484902,0.0620564,-0.000599667,-0.000161447,0.0864816,0.0857664031649994,0.064022353896519,-0.0005994872356792635,-0.031872901285696975,-0.0001614339681343946,-0.04733332460649309
943,0.0944,794.725,60.6894,-0.00145836,219.675,-2.05442,-0.54626,0.0823694,-0.0324252,-0.0485402,0.0621198,-0.000600347,-0.000161631,0.0865728,0.0858568512734943,0.06408981505225197,-0.0006001668277968442,-0.031905139381316894,-0.00016161793841362737,-0.04738095674944931
944,0.0945,794.856,60.7,-0.00146076,219.713,-2.05481,-0.546363,0.0824528,-0.0324586,-0.0485902,0.0621831,-0.000601028,-0.000161814,0.086664,0.08594741551136686,0.06415717406943533,-0.00060084741885158,-0.03193747320968365,-0.00016180090882078613,-0.047428586510857906
945,0.0946,794.987,60.7106,-0.00146316,219.75,-2.05519,-0.546466,0.0825361,-0.0324919,-0.0486402,0.0622465,-0.000601708,-0.000161997,0.0867552,0.0860378786988183,0.06422464377303827,-0.0006015270100442338,-0.03196970915509423,-0.00016198387919452717,-0.04747621389083789
946,0.0947,795.119,60.7211,-0.00146556,219.787,-2.05558,-0.546569,0.0826195,-0.0325253,-0.0486902,0.0623098,-0.000602389,-0.000162181,0.0868463,0.08612845803500768,0.06429201132514972,-0.0006022076001725996,-0.03200204082686653,-0.0001621678493725076,-0.04752383888950851
947,0.0948,795.25,60.7317,-0.00146796,219.824,-2.05596,-0.546672,0.0827028,-0.0325586,-0.0487402,0.0623732,-0.000603069,-0.000162364,0.0869375,0.08621893630392963,0.06435948957770554,-0.0006028871904403266,-0.03203427462221131,-0.00016235081967908016,-0.047571461506988655
948,0.0949,795.381,60.7422,-0.00147037,219.861,-2.05635,-0.546775,0.0827861,-0.032592,-0.0487902,0.0624365,-0.000603749,-0.000162548,0.0870287,0.08630942211000514,0.06442686566582667,-0.0006035667802459788,-0.03206660413753304,-0.00016253478978967006,-0.04761908174339746
949,0.095,795.512,60.7528,-0.00147278,219.899,-2.05674,-0.546878,0.0828694,-0.0326253,-0.0488402,0.0624998,-0.00060443,-0.000162731,0.0871198,0.08639991545386239,0.06449424601898901,-0.0006042473689853445,-0.03209883578295536,-0.0001627177600289631,-0.047666699598854056
950,0.0951,795.642,60.7633,-0.00147519,219.936,-2.05712,-0.546981,0.0829528,-0.0326586,-0.0488902,0.0625632,-0.00060511,-0.000162914,0.087211,0.08649052498517618,0.06456173709363089,-0.0006049269578660699,-0.03213106635508178,-0.00016290073023494944,-0.04771431507347723
951,0.0952,795.773,60.7738,-0.0014776,219.973,-2.05751,-0.547085,0.0830361,-0.0326919,-0.0489402,0.0626265,-0.00060579,-0.000163098,0.0873021,0.08658103341553125,0.06462912598442494,-0.0006056065462846094,-0.03216329585394806,-0.000163084700244287,-0.047761928167386336
952,0.0953,795.903,60.7843,-0.00148001,220.01,-2.0579,-0.547188,0.0831194,-0.0327253,-0.0489902,0.0626898,-0.000606471,-0.000163281,0.0873933,0.08667154938555255,0.06469651914107066,-0.0006062871336348641,-0.0321956210600326,-0.00016326767038299383,-0.047809538880700164
953,0.0954,796.034,60.7948,-0.00148242,220.047,-2.05828,-0.547291,0.0832026,-0.0327586,-0.0490402,0.0627531,-0.000607151,-0.000163464,0.0874844,0.08676196421966642,0.06476391656383829,-0.0006069667211284768,-0.03222784840926296,-0.00016345064048828295,-0.047857147213537954
954,0.0955,796.164,60.8053,-0.00148484,220.084,-2.05867,-0.547395,0.0832859,-0.0327919,-0.0490902,0.0628164,-0.000607831,-0.000163648,0.0875755,0.08685249526185146,0.0648313182529976,-0.0006076463081601258,-0.03226007468534042,-0.0001636346103964792,-0.0479047531660185
955,0.0956,796.294,60.8158,-0.00148726,220.121,-2.05906,-0.547498,0.0833692,-0.0328252,-0.0491401,0.0628797,-0.000608511,-0.000163831,0.0876666,0.08694303384558633,0.06489872420881904,-0.0006083258947295889,-0.032292299888300846,-0.00016381758043459982,-0.04795226153349197
956,0.0957,796.424,60.8263,-0.00148967,220.158,-2.05944,-0.547602,0.0834525,-0.0328585,-0.0491901,0.062943,-0.000609191,-0.000164014,0.0877577,0.08703357997149963,0.0649661344315724,-0.0006090054808368661,-0.03232452401817976,-0.0001640005504391917,-0.047999862730375376
957,0.0958,796.554,60.8367,-0.00149209,220.195,-2.05983,-0.547706,0.0835357,-0.0328919,-0.0492401,0.0630062,-0.000609871,-0.000164197,0.0878488,0.08712402492781113,0.06503344241817866,-0.0006096850664820685,-0.03235684383933357,-0.00016418352041036588,-0.048047461547258585
958,0.0959,796.684,60.8472,-0.00149452,220.231,-2.06022,-0.547809,0.083619,-0.0329252,-0.04929,0.0630695,-0.000610551,-0.000164381,0.0879399,0.08721458613090949,0.0651008611688646,-0.0006103646516651962,-0.032389065819934726,-0.00016436749018367003,-0.04809496279376135
959,0.096,796.813,60.8576,-0.00149694,220.268,-2.06061,-0.547913,0.0837022,-0.0329585,-0.04934,0.0631328,-0.000611231,-0.000164564,0.088031,0.08730504614755996,0.06516828418729248,-0.0006110442363861379,-0.03242128672756184,-0.0001645504600876757,-0.04814255685576019
960,0.0961,796.943,60.8681,-0.00149936,220.305,-2.061,-0.548017,0.0837854,-0.0329918,-0.0493899,0.063196,-0.000611911,-0.000164747,0.0881221,0.08739551369079712,0.065235604950167,-0.0006117238206450049,-0.032453506562250656,-0.00016473342995826368,-0.04819005335712556
961,0.0962,797.072,60.8785,-0.00150179,220.342,-2.06139,-0.548121,0.0838687,-0.0330251,-0.0494399,0.0632593,-0.000612591,-0.00016493,0.0882131,0.08748609750985126,0.06530303649814617,-0.000612403404441797,-0.03248572532403671,-0.0001649163997952119,-0.048237642664715086
962,0.0963,797.201,60.8889,-0.00150422,220.378,-2.06178,-0.548225,0.0839519,-0.0330584,-0.0494898,0.0633226,-0.000613271,-0.000165114,0.0883042,0.08757658011718839,0.06537047231467774,-0.0006130829877764032,-0.03251794301295596,-0.00016510036943373496,-0.04828513442141691
963,0.0964,797.331,60.8994,-0.00150664,220.415,-2.06216,-0.548329,0.0840351,-0.0330916,-0.0495397,0.0633858,-0.000613951,-0.000165297,0.0883952,0.08766707025299159,0.06543780585624548,-0.0006137625706489347,-0.03255006288405515,-0.0001652833392036257,-0.04833262380833925
964,0.0965,797.46,60.9098,-0.00150908,220.452,-2.06255,-0.548433,0.0841183,-0.0331249,-0.0495897,0.0634491,-0.00061463,-0.00016548,0.0884863,0.08775756791788725,0.06550525020394726,-0.000614441153673706,-0.03258227843056927,-0.0001654663089399877,-0.04838020598758441
965,0.0966,797.588,60.9202,-0.00151151,220.488,-2.06294,-0.548537,0.0842015,-0.0331582,-0.0496396,0.0635123,-0.00061531,-0.000165663,0.0885773,0.08784807311250198,0.06557259226374668,-0.0006151207356226429,-0.0326144929043235,-0.000165649278642932,-0.048427690630553966
966,0.0967,797.717,60.9306,-0.00151394,220.525,-2.06333,-0.548641,0.0842847,-0.0331915,-0.0496895,0.0635755,-0.00061599,-0.000165846,0.0886683,0.08793858583746195,0.06563993857969908,-0.000615800317109505,-0.03264670630535371,-0.00016583224831234755,-0.04847517290409897
967,0.0968,797.846,60.9409,-0.00151638,220.561,-2.06372,-0.548746,0.0843679,-0.0332248,-0.0497394,0.0636388,-0.000616669,-0.000166029,0.0887594,0.08802910609339398,0.06570739572280715,-0.0006164788987507164,-0.03267891863369554,-0.0001660152179483454,-0.04852265280833756
968,0.0969,797.974,60.9513,-0.00151881,220.598,-2.06411,-0.54885,0.084451,-0.0332581,-0.0497894,0.063702,-0.000617349,-0.000166213,0.0888504,0.08811952506896681,0.06577475055860726,-0.0006171584793139839,-0.03271112988938463,-0.00016619918738458583,-0.048570225486370244
969,0.097,798.103,60.9617,-0.00152125,220.635,-2.0645,-0.548954,0.0845342,-0.0332913,-0.0498393,0.0637652,-0.000618029,-0.000166396,0.0889414,0.08821006037966939,0.0658421096513675,-0.0006178380594151767,-0.03274324334678591,-0.00016638215695341518,-0.0486177006476034
970,0.0971,798.231,60.972,-0.00152369,220.671,-2.0649,-0.549059,0.0846174,-0.0333246,-0.0498892,0.0638284,-0.000618708,-0.000166579,0.0890324,0.08830060322322297,0.06590947300135697,-0.0006185166396728281,-0.032775452460497845,-0.0001665651264887158,-0.04866517343988508
971,0.0972,798.359,60.9824,-0.00152613,220.707,-2.06529,-0.549163,0.0847005,-0.0333579,-0.0499391,0.0638916,-0.000619388,-0.000166762,0.0891234,0.08839104476114468,0.06597684060884457,-0.0006191962188504263,-0.03280766050166395,-0.0001667480959905987,-0.048712643863333516
972,0.0973,798.487,60.9927,-0.00152857,220.744,-2.06568,-0.549268,0.0847836,-0.0333911,-0.049989,0.0639548,-0.000620067,-0.000166945,0.0892143,0.08848149381507042,0.06604421247409942,-0.0006198747981858155,-0.03283977075430222,-0.00016693106545895287,-0.04876011191806684
973,0.0974,798.615,61.003,-0.00153102,220.78,-2.06607,-0.549372,0.0848668,-0.0334244,-0.0500389,0.064018,-0.000620747,-0.000167128,0.0893053,0.08857205924282541,0.06611158859739086,-0.0006205543764399302,-0.03287197665370489,-0.0001671140348937783,-0.04880757760420351
974,0.0975,798.743,61.0134,-0.00153347,220.816,-2.06646,-0.549477,0.0849499,-0.0334577,-0.0500887,0.0640812,-0.000621426,-0.000167311,0.0893963,0.08866252333967961,0.066178968978988,-0.0006212329548530571,-0.03290418148066898,-0.00016729700429518601,-0.04885494580736072
975,0.0976,798.871,61.0237,-0.00153591,220.853,-2.06685,-0.549582,0.085033,-0.0334909,-0.0501386,0.0641444,-0.000622106,-0.000167494,0.0894872,0.0887529949544128,0.06624635361915954,-0.0006219125321835772,-0.03293628852886388,-0.000167479973663065,-0.04890240676140434
976,0.0977,798.998,61.034,-0.00153836,220.889,-2.06724,-0.549687,0.0851161,-0.0335242,-0.0501885,0.0642076,-0.000622785,-0.000167678,0.0895782,0.08884347408764937,0.06631374251817523,-0.0006225911096746639,-0.03296849121427814,-0.0001676639428298543,-0.04894986534720536
977,0.0978,799.126,61.0443,-0.00154081,220.925,-2.06764,-0.549791,0.0851992,-0.0335574,-0.0502384,0.0642707,-0.000623464,-0.000167861,0.0896691,0.08893396074001436,0.06638102903819543,-0.000623269686704897,-0.03300059612742534,-0.0001678469121305648,-0.04899732156488201
978,0.0979,799.253,61.0546,-0.00154326,220.961,-2.06803,-0.549896,0.0852823,-0.0335907,-0.0502882,0.0643339,-0.000624144,-0.000168044,0.0897601,0.08902445491213262,0.06644842644896642,-0.000623949262650414,-0.03303279667143222,-0.00016802988139785757,-0.04904468031902531
979,0.098,799.38,61.0648,-0.00154572,220.998,-2.06842,-0.550001,0.0853654,-0.0336239,-0.0503381,0.0643971,-0.000624823,-0.000168227,0.089851,0.08911495660462898,0.06651582811938828,-0.0006246278387584958,-0.033064899449673724,-0.00016821285063173264,-0.04909213180555294
980,0.0981,799.508,61.0751,-0.00154817,221.034,-2.06882,-0.550106,0.0854485,-0.0336571,-0.050388,0.0644602,-0.000625502,-0.00016841,0.0899419,0.08920546581812872,0.06658312739141237,-0.0006253064144058351,-0.033097001162120554,-0.00016839581983196794,-0.04913958092431048
981,0.0982,799.635,61.0854,-0.00155063,221.07,-2.06921,-0.550211,0.0855316,-0.0336904,-0.0504378,0.0645234,-0.000626181,-0.000168593,0.0900328,0.08929598255325644,0.0666505375752029,-0.0006259849895924319,-0.03312919849589335,-0.00016857878899878553,-0.04918693259411411
982,0.0983,799.761,61.0956,-0.00155309,221.106,-2.0696,-0.550317,0.0856146,-0.0337236,-0.0504877,0.0645865,-0.00062686,-0.000168776,0.0901237,0.08938639787199221,0.06671784534766179,-0.0006266635643182861,-0.033161298073647316,-0.0001687617581321854,-0.04923437698243038
983,0.0984,799.888,61.1059,-0.00155555,221.142,-2.07,-0.550422,0.0856977,-0.0337568,-0.0505375,0.0646496,-0.00062754,-0.000168959,0.0902146,0.08947692964319831,0.066785157367375,-0.0006273431379559824,-0.033193396585712964,-0.00016894472723205656,-0.04928172393150776
984,0.0985,800.015,61.1161,-0.00155801,221.178,-2.07039,-0.550527,0.0857807,-0.0337901,-0.0505874,0.0647128,-0.000628219,-0.000169142,0.0903055,0.08956735998116572,0.06685258031986341,-0.0006280217117595743,-0.03322559070957154,-0.00016912769629839897,-0.049329163589854286
985,0.0986,800.141,61.1264,-0.00156047,221.214,-2.07078,-0.550632,0.0858638,-0.0338233,-0.0506372,0.0647759,-0.000628898,-0.000169325,0.0903964,0.08965790679094798,0.06691990084162192,-0.0006287002851024237,-0.03325768708715715,-0.00016931066533132366,-0.04937650581867625
986,0.0987,800.268,61.1366,-0.00156294,221.25,-2.07118,-0.550738,0.0859468,-0.0338565,-0.050687,0.064839,-0.000629577,-0.000169508,0.0904873,0.08974835215064214,0.066987225611439,-0.0006293788579846415,-0.033289782399160806,-0.00016949363433071962,-0.04942384568991387
987,0.0988,800.394,61.1468,-0.0015654,221.286,-2.07157,-0.550843,0.0860298,-0.0338897,-0.0507369,0.0649022,-0.000630256,-0.000169691,0.0905781,0.08983880501761288,0.06705466133504423,-0.0006300574304060058,-0.0333218766456177,-0.00016967660329658685,-0.04947127825656161
988,0.0989,800.52,61.157,-0.00156787,221.322,-2.07197,-0.550949,0.0861129,-0.033923,-0.0507867,0.0649653,-0.000630935,-0.000169874,0.090669,0.08992937438541482,0.06712199460851687,-0.0006307360023666275,-0.03335406649116146,-0.00016985957222903636,-0.04951861340824937
989,0.099,800.646,61.1672,-0.00157034,221.358,-2.07236,-0.551054,0.0861959,-0.0339562,-0.0508365,0.0650284,-0.000631614,-0.000170057,0.0907598,0.09001984227785442,0.06718933213085321,-0.0006314145738665067,-0.03338615860342198,-0.00017004254112795714,-0.04956594620270527
990,0.0991,800.772,61.1774,-0.00157281,221.393,-2.07276,-0.55116,0.0862789,-0.0339894,-0.0508863,0.0650915,-0.000632293,-0.00017024,0.0908507,0.09011031767944067,0.06725667390232104,-0.0006320931449056433,-0.03341824965024198,-0.0001702255099934602,-0.049613276640046666
991,0.0992,800.898,61.1876,-0.00157529,221.429,-2.07315,-0.551266,0.0863619,-0.0340226,-0.0509362,0.0651546,-0.000632972,-0.000170423,0.0909415,0.09020080059079705,0.06732401992318904,-0.0006327717154840373,-0.033450339631657,-0.00017040847882543453,-0.049660699754325854
992,0.0993,801.024,61.1977,-0.00157776,221.465,-2.07355,-0.551372,0.0864449,-0.0340558,-0.050986,0.0652177,-0.00063365,-0.000170606,0.0910323,0.09029129101254663,0.06739137019372476,-0.0006334492862350993,-0.033482428547702225,-0.00017059144762399114,-0.04970802547305786
993,0.0994,801.149,61.2079,-0.00158024,221.501,-2.07395,-0.551477,0.0865278,-0.034089,-0.0510358,0.0652808,-0.000634329,-0.000170789,0.0911232,0.09038167990713952,0.0674587247141969,-0.0006341278558926744,-0.033514516398413186,-0.00017077441638901902,-0.04975534883502786
994,0.0995,801.275,61.218,-0.00158271,221.536,-2.07434,-0.551583,0.0866108,-0.0341222,-0.0510856,0.0653438,-0.000635008,-0.000170972,0.091214,0.09047218534249524,0.06752597673227001,-0.0006348064250895069,-0.033546603183825185,-0.00017095738512051817,-0.049802669840352976
995,0.0996,801.4,61.2282,-0.00158519,221.572,-2.07474,-0.551689,0.0866938,-0.0341554,-0.0511354,0.0654069,-0.000635687,-0.000171155,0.0913048,0.09056269829011421,0.06759333974668258,-0.0006354849938254858,-0.03357868890397364,-0.0001711403538185996,-0.04984998848915079
996,0.0997,801.526,61.2383,-0.00158767,221.608,-2.07514,-0.551795,0.0867767,-0.0341886,-0.0511851,0.06547,-0.000636365,-0.000171338,0.0913956,0.09065310968530294,0.06766070701183557,-0.0006361625627370193,-0.03361077355889375,-0.0001713233224831523,-0.04989720977126433
997,0.0998,801.651,61.2485,-0.00159016,221.643,-2.07553,-0.551901,0.0868597,-0.0342218,-0.0512349,0.065533,-0.000637044,-0.00017152,0.0914864,0.09074363765026527,0.0677279717551944,-0.0006368411305522903,-0.03364285714862103,-0.000171505291285734,-0.049944523712090794
998,0.0999,801.776,61.2586,-0.00159264,221.679,-2.07593,-0.552007,0.0869426,-0.0342549,-0.0512847,0.0655961,-0.000637723,-0.000171703,0.0915771,0.09083406404594885,0.06779534751589522,-0.0006375196979067077,-0.033674843040680025,-0.0001716882598835623,-0.04999183529674178
999,0.1,801.901,61.2687,-0.00159512,221.715,-2.07633,-0.552114,0.0870256,-0.0342881,-0.0513345,0.0656591,-0.000638401,-0.000171886,0.0916679,0.09092460703074656,0.06786262074187288,-0.000638197265438678,-0.03370692450333579,-0.00017187122844786185,-0.05003914452533442
