,Time,S11,S22,S33,S12,S13,S23,LE11,LE22,LE33,LE12,LE13,LE23,SDV_EPBAR,E11,E12,E13,E22,E23,E33
0,0.050005,777.773,31.4467,-0.000774786,158.747,-0.00713415,0.00410155,0.0310363,-0.0137254,-0.0157529,0.085883,-4.52928e-06,2.23398e-05,0.0654484,0.031522947489911024,0.08967882842360542,-4.5292697428145345e-06,-0.013631636169658679,2.234004953516333e-05,-0.01562947203682974
1,0.1,885.175,25.4966,-0.000171469,153.941,-0.00123173,0.00541365,0.0626654,-0.0287158,-0.0321962,0.165763,-6.08875e-06,2.48991e-05,0.138606,0.06467054086293977,0.1802933390513537,-6.088731463571584e-06,-0.028307419739997952,2.4899409985179588e-05,-0.03168342027236615
2,0.15,956.511,18.9408,-0.000134241,140.374,-0.000294929,0.00137241,0.0954751,-0.044549,-0.049048,0.235882,-6.45955e-06,2.67005e-05,0.213876,0.10018142717533407,0.266024910413039,-6.45952913713721e-06,-0.04357126606255357,2.6700856461614464e-05,-0.04786457389882559
3,0.2,1010.52,13.354,-9.91719e-05,124.903,5.41967e-05,0.000930406,0.129052,-0.0609397,-0.0661408,0.296346,-6.47208e-06,2.7187e-05,0.290378,0.13774928559037192,0.3449354239928939,-6.472059056128465e-06,-0.059120026872138354,2.7187369569858788e-05,-0.06400093365528026
4,0.25,1053.67,8.96611,-8.25273e-05,110.086,0.00021189,0.000478209,0.162944,-0.0776008,-0.083297,0.347936,-6.41447e-06,2.75193e-05,0.367275,0.1769707774794036,0.416141613776422,-6.414449427283309e-06,-0.07466625394611481,2.751967865943783e-05,-0.07992215648299072
5,0.3,1089.22,5.63086,-6.80406e-05,96.9891,0.0001449,0.000458239,0.196743,-0.0942817,-0.100353,0.391793,-6.35274e-06,2.77218e-05,0.443809,0.2174311206993902,0.4796313960007659,-6.352719821411945e-06,-0.08997362829905331,2.7722184252620963e-05,-0.09548193320379716
6,0.35,1119.17,3.11012,-5.82855e-05,85.9437,0.00011357,0.000438337,0.23014,-0.110796,-0.117183,0.429202,-6.31819e-06,2.79039e-05,0.519401,0.25877622626572383,0.536031281380188,-6.318170040264803e-06,-0.10487866494303566,2.790428931742639e-05,-0.11057758603218693
7,0.4,1144.85,1.18039,-5.05932e-05,76.9073,9.41845e-05,0.000422169,0.262929,-0.127019,-0.133703,0.461396,-6.30039e-06,2.80693e-05,0.593662,0.3007343635333348,0.5862868965304062,-6.300370152589885e-06,-0.11928306118365095,2.8069693946530805e-05,-0.12515014357030219
8,0.45,1167.22,-0.334879,-4.43863e-05,69.6703,7.69877e-05,0.000407758,0.294978,-0.142876,-0.149856,0.489453,-6.29575e-06,2.82201e-05,0.666333,0.3430968102314198,0.6314235871403953,-6.295730181848924e-06,-0.13313844693608723,2.8220498190734133e-05,-0.1391680727020883
9,0.5,1186.94,-1.56501,-3.92798e-05,63.9654,5.9453e-05,0.000394609,0.326219,-0.158324,-0.165612,0.514266,-6.30261e-06,2.8358e-05,0.737272,0.38571880806394643,0.6724105018683169,-6.302590138562714e-06,-0.14642682054884848,2.835840209192142e-05,-0.15262504810462374
10,0.55,1204.53,-2.60079,-3.50152e-05,59.5261,4.16343e-05,0.00038261,0.356615,-0.173345,-0.180956,0.536543,-6.31966e-06,2.84845e-05,0.806403,0.4284857969398137,0.710084868526061,-6.319640030949536e-06,-0.15915252758005205,2.8484905687298223e-05,-0.1655279253406826
11,0.6,1220.35,-3.50513,-3.14085e-05,56.1117,2.42574e-05,0.00037171,0.386168,-0.187939,-0.195886,0.556842,-6.34548e-06,2.8601e-05,0.873717,0.47133183380054944,0.745152597054866,-6.345459867440617e-06,-0.17133474572850915,2.8601409012507517e-05,-0.17789405058542163
12,0.65,1234.7,-4.32116,-2.83255e-05,53.517,8.02307e-06,0.000361844,0.414891,-0.202113,-0.210409,0.57559,-6.37861e-06,2.87088e-05,0.93924,0.5142056832771054,0.7781793432953259,-6.378589656685918e-06,-0.18299739856807473,2.870921210162969e-05,-0.1897472151979852
13,0.7,1247.8,-5.07836,-2.5666e-05,51.5737,-6.58757e-06,0.000352934,0.442804,-0.21588,-0.224531,0.59311,-6.41759e-06,2.8809e-05,1.003,0.5570671192763019,0.8096075525990214,-6.4175694073353995e-06,-0.19416800408876933,2.880941498317746e-05,-0.20110918929908084
14,0.75,1259.83,-5.79726,-2.33531e-05,50.1448,-1.93311e-05,0.000344885,0.469937,-0.229255,-0.238267,0.609652,-6.46106e-06,2.89024e-05,1.06506,0.5998933967583093,0.8397910400837374,-6.461039127381163e-06,-0.20487424941502863,2.8902817678311266e-05,-0.21200773093216108
15,0.8,1270.94,-6.49195,-2.13274e-05,49.1218,-3.01439e-05,0.000337604,0.496319,-0.242255,-0.251629,0.625402,-6.50783e-06,2.89899e-05,1.12547,0.6426634838994165,0.8689971432853505,-6.5078088241632415e-06,-0.21514398625147668,2.899032021130843e-05,-0.22246685063624316
16,0.85,1281.23,-7.17245,-1.95418e-05,48.4187,-3.90903e-05,0.000331002,0.521984,-0.254898,-0.264633,0.640505,-6.55688e-06,2.90722e-05,1.1843,0.6853681051919975,0.8974388440147307,-6.5568585037034666e-06,-0.22500445652487433,2.9072622600434528e-05,-0.23251243376708086
17,0.9,1290.81,-7.84565,-1.79591e-05,47.9681,-4.63081e-05,0.000324995,0.546965,-0.267201,-0.277293,0.655072,-6.60736e-06,2.91498e-05,1.24162,0.7280005695802332,0.9252811326277028,-6.607338171482624e-06,-0.23448081335604798,2.9150224859497698e-05,-0.24216758032121255
18,0.95,1299.76,-8.51626,-1.65493e-05,47.7173,-5.19739e-05,0.000319509,0.571288,-0.27918,-0.289622,0.669184,-6.65858e-06,2.92232e-05,1.29748,0.7705460467539076,0.9526433134256906,-6.6585578316624705e-06,-0.24359626171232018,2.9223627001861985e-05,-0.25145353532870807
19,1.0,1308.15,-9.18761,-1.51766e-05,47.6252,-5.6258e-05,0.000314481,0.594988,-0.290851,-0.301636,0.682909,-6.70999e-06,2.92929e-05,1.35195,0.8130091887193547,0.9796281024118314,-6.709967488083279e-06,-0.25237293384767434,2.929332904111348e-05,-0.26039276706923686
