,Time,S11,S22,S33,S12,S13,S23,LE11,LE22,LE33,LE12,LE13,LE23,SDV_EPBAR,E11,E12,E13,E22,E23,E33
0,1e-05,1.93829,0.139163,-2.22045e-16,0.519362,4.37921e-18,-1.63434e-17,9.12912e-06,-2.12914e-06,-3e-06,6.49996e-06,1.09613e-22,-4.09083e-22,0.0,9.129161670617947e-06,6.499981124896692e-06,0.0,-2.1291377333421124e-06,0.0,-2.9999955000192813e-06
1,2e-05,3.87655,0.278324,4.44089e-16,1.03872,4.90297e-17,1.31375e-17,1.82581e-05,-4.25827e-06,-5.99996e-06,1.29999e-05,-1.59542e-26,-4.27491e-27,0.0,1.8258266680115653e-05,1.2999984499106887e-05,0.0,-4.258260933531766e-06,0.0,-5.9999420002343484e-06
2,3.5e-05,6.78392,0.487064,-2.22045e-16,1.81775,-8.75906e-18,3.26867e-17,3.19515e-05,-7.45192e-06,-1.04998e-05,2.27496e-05,-1.03741e-21,5.98946e-22,0.0,3.19520104545834e-05,2.2749858774151477e-05,0.0,-7.451892234500157e-06,0.0,-1.0499744877323636e-05
3,5.75e-05,11.1449,0.800167,-4.44089e-15,2.98626,2.39269e-17,4.14449e-17,5.24912e-05,-1.22423e-05,-1.72495e-05,3.73739e-05,-3.05783e-26,-8.19342e-27,0.0,5.249257768724647e-05,3.737459841279822e-05,0.0,-1.2242225063352485e-05,0.0,-1.7249351228265652e-05
4,9.125e-05,17.6861,1.26981,-2.93099e-14,4.73899,-8.76002e-18,3.26864e-17,8.32998e-05,-1.94277e-05,-2.73738e-05,5.93098e-05,-4.38467e-22,1.63638e-21,0.0,8.330326952465938e-05,5.931155886096384e-05,0.0,-1.9427511283476306e-05,0.0,-2.737342534098186e-05
5,0.00014188,27.4976,1.97424,-1.53655e-13,7.36797,1.51663e-17,7.41312e-17,0.000129511,-3.02053e-05,-4.25596e-05,9.22122e-05,-8.77024e-22,3.2728e-21,0.0,0.0001295193869115252,9.221645167567516e-05,0.0,-3.0204843824543914e-05,0.0,-4.255869435310089e-05
6,0.00021781,42.2139,3.03082,-7.98472e-13,11.3112,-3.26874e-17,-8.75856e-18,0.000198823,-4.63708e-05,-6.53367e-05,0.000141563,2.35091e-22,-1.39685e-20,0.0,0.0001988427666026471,0.00014157302051431842,0.0,-4.636972489102664e-05,0.0,-6.533456560431361e-05
7,0.00033172,64.2863,4.61555,-4.0421e-12,17.2255,5.50891e-16,4.2788e-16,0.000302781,-7.06166e-05,-9.94992e-05,0.000215581,8.29667e-21,-4.79291e-21,0.0,0.00030282684279359096,0.00021560423925381933,0.0,-7.061410670661239e-05,0.0,-9.949425011879232e-05
8,0.00050258,97.3901,6.99229,-2.04503e-11,26.0956,2.63699e-16,-6.94769e-17,0.000458697,-0.00010698,-0.000150736,0.000326594,-1.87047e-24,-5.0119e-25,0.0,0.00045880221755600914,0.00032664733762688414,0.0,-0.00010697427784389646,0.0,-0.00015072463989995732
9,0.00075887,147.035,10.5567,-1.03424e-10,39.398,2.63622e-16,-6.94974e-17,0.00069252,-0.000161514,-0.000227574,0.000493077,1.05225e-20,-3.92819e-20,0.0,0.0006927598473382979,0.0004931985824463414,0.0,-0.00016150095731615188,0.0,-0.0002275481070015406
10,0.0011433,221.479,15.9015,-5.23063e-10,59.3451,4.54805e-16,2.61999e-16,0.00104314,-0.000243289,-0.000342794,0.000742721,2.61813e-20,7.01526e-21,0.0,0.0010436842597596474,0.0007429968855396929,0.0,-0.00024325940763114673,0.0,-0.00034273525284966855
11,0.00172,333.091,23.9149,-2.64423e-09,89.2515,-3.10489e-16,-1.06414e-15,0.00156882,-0.000365891,-0.000515542,0.00111701,4.02483e-20,-4.53668e-20,0.0,0.0015700512418777013,0.001117634088019237,0.0,-0.0003658240700513682,0.0,-0.0005154091310572984
12,0.0025849,446.615,32.4022,-0.0294375,120.538,-0.142311,-0.0368709,0.00235712,-0.000588561,-0.00084591,0.00168718,-1.9865e-06,-3.92763e-07,0.000276595,0.002359900191332809,0.0016886040889616538,-1.98649802696238e-06,-0.0005883878319495883,-3.927629228517304e-07,-0.0008455523189984104
13,0.0035849,468.985,34.0381,-0.171905,127.365,-0.522118,-0.106973,0.00327986,-0.000916383,-0.00139122,0.00231902,-8.70594e-06,8.73327e-07,0.00116097,0.0032852446261404378,0.002321711006644245,-8.70590210344524e-06,-0.0009159632493258574,8.733273813010811e-07,-0.001390252702082484
14,0.0043349,483.203,35.4998,-0.182532,131.558,-0.689643,-0.195761,0.00396969,-0.00116637,-0.00179956,0.0027997,-1.33305e-05,-2.0617e-07,0.00183807,0.003977579655722652,0.0028036228200971625,-1.3330411149259369e-05,-0.001165690054893087,-2.0616997875588794e-07,-0.0017979417627537186
15,0.0050849,495.699,36.7565,-0.110003,135.252,-0.743795,-0.250674,0.00465886,-0.00141778,-0.00220964,0.003281,-1.67827e-05,-1.24972e-06,0.00252378,0.004669729361305386,0.0032863883719711495,-1.6782559171257816e-05,-0.0014167754247474962,-1.2497192191096573e-06,-0.002207200542640231
16,0.0060849,510.341,38.0879,0.182934,139.623,-0.928728,-0.205754,0.00557886,-0.00175011,-0.00276439,0.00391439,-2.36133e-05,-5.98352e-07,0.00344812,0.00559445081896448,0.003922061230666296,-2.3613021208235274e-05,-0.0017485794505007757,-5.983518209795591e-07,-0.0027605725923752766
17,0.0070849,522.648,39.0854,-0.384871,143.45,-1.05039,-0.441013,0.00649746,-0.00208194,-0.00332535,0.00454892,-3.02976e-05,-4.86481e-06,0.00438196,0.006518614284780622,0.004559282042659651,-3.0297141032309405e-05,-0.00207977426615491,-4.864798166859252e-06,-0.0033198271471910346
18,0.0080849,534.525,40.4165,0.323266,146.846,-1.21953,-0.253304,0.00741528,-0.00241574,-0.00388151,0.00518294,-3.83999e-05,-3.03311e-06,0.00532026,0.007442841271469769,0.005196394668391502,-3.839916273329358e-05,-0.0024128244483370143,-3.0331054001742075e-06,-0.0038739866771586584
19,0.0090849,544.787,41.4759,0.272575,149.937,-1.30348,-0.316351,0.00833164,-0.00274909,-0.00444189,0.00581837,-4.58176e-05,-4.74377e-06,0.00626432,0.008366444705488307,0.005835329591166172,-4.581655038982113e-05,-0.0027453147124134603,-4.743758748371185e-06,-0.004432039397109344
20,0.010085,553.68,41.8169,-0.172471,152.761,-1.479,-0.439445,0.00924686,-0.00308509,-0.00500337,0.00645486,-5.52059e-05,-7.87059e-06,0.00721296,0.009289744289685986,0.0064757375050938926,-5.520437618233842e-05,-0.003080335999941952,-7.87055902695677e-06,-0.0049908739937224444
21,0.011085,562.87,43.3485,0.304586,155.364,-1.46044,-0.398068,0.010161,-0.0034171,-0.00556316,0.00709057,-6.19873e-05,-8.77238e-06,0.00816259,0.010212798252526412,0.007115767611398427,-6.198537882706745e-05,-0.003411268358120556,-8.772341522744753e-06,-0.005547714281016081
22,0.012085,570.842,44.1311,0.231248,157.777,-1.52675,-0.463619,0.0110739,-0.00375116,-0.00612464,0.00772724,-7.00955e-05,-1.13511e-05,0.00911564,0.011135442592983713,0.007757172167016657,-7.009304336780264e-05,-0.003744133188304688,-1.1351035576478985e-05,-0.006105922624326299
23,0.013085,577.75,43.872,-0.0888549,160.021,-1.80476,-0.466265,0.0119859,-0.00409038,-0.00668463,0.00836487,-8.2132e-05,-1.31775e-05,0.0100715,0.012058018747409305,0.008399953279187633,-8.212862725964776e-05,-0.004082025790240196,-1.317741317707899e-05,-0.006662337560775278
24,0.014085,584.615,44.3084,-0.179056,162.132,-1.91947,-0.490201,0.0128967,-0.004427,-0.00724436,0.00900238,-9.25824e-05,-1.53909e-05,0.011028,0.012980221098083389,0.009043023293405339,-9.257811438190267e-05,-0.004417215279810649,-1.5390781560653544e-05,-0.007218182874411561
25,0.015085,591.862,46.0545,0.194296,164.144,-1.76249,-0.540495,0.0138062,-0.00475727,-0.00780498,0.00963931,-9.87946e-05,-1.81605e-05,0.0119843,0.013901945699897889,0.009685917783891496,-9.878971997423491e-05,-0.004745972113872066,-1.816033509915993e-05,-0.0077746002328055175
26,0.016085,597.515,45.5903,-0.112158,166.013,-2.04526,-0.526652,0.014715,-0.00509717,-0.00836393,0.0102775,-0.000111785,-2.00733e-05,0.0129437,0.01482379861466665,0.010330494899219334,-0.00011177875228973733,-0.00508420147261468,-2.0073098532691347e-05,-0.008329049650819043
27,0.017085,603.902,47.0365,0.108951,167.819,-1.91563,-0.596281,0.0156223,-0.00542828,-0.00892415,0.0109149,-0.00011891,-2.33336e-05,0.0139019,0.01574496607157494,0.010974684838191529,-0.00011890293048621992,-0.005413573510468117,-2.3333327773711332e-05,-0.008884447963476427
28,0.018085,609.55,47.6218,0.105786,169.527,-1.96132,-0.62609,0.0165287,-0.00576254,-0.00948383,0.0115528,-0.000128376,-2.62237e-05,0.0148615,0.016666054683120102,0.011619791324488205,-0.0001283677601539024,-0.005745968413131575,-2.6223356161758637e-05,-0.00943900031523437
29,0.019085,614.519,47.2718,-0.0146419,171.145,-2.2188,-0.55953,0.0174343,-0.0061017,-0.0100411,0.0121912,-0.000141605,-2.76098e-05,0.0158223,0.017587164477805173,0.012265815588273998,-0.00014159497448518188,-0.00608312243267406,-2.760941885293633e-05,-0.009990856462809505
30,0.020085,619.515,47.5513,-0.116431,172.701,-2.30759,-0.587079,0.0183386,-0.00643802,-0.0105988,0.0128295,-0.000153039,-3.02874e-05,0.0167828,0.018507784746359723,0.012912151114402581,-0.0001530272901295593,-0.006417340351701939,-3.02869413413287e-05,-0.010542830629856947
31,0.021085,625.002,49.0389,0.179968,174.217,-2.14558,-0.638219,0.0192417,-0.00676834,-0.0111571,0.0134671,-0.000160515,-3.34665e-05,0.0177421,0.01942801459400778,0.013558189837211687,-0.00016050211815665794,-0.006745486376255827,-3.346594000297465e-05,-0.011095090389859452
32,0.022085,629.7,49.4996,0.122334,175.654,-2.18117,-0.684771,0.0201439,-0.00710226,-0.0117152,0.0141051,-0.000170567,-3.67822e-05,0.0187027,0.02034815756285413,0.014205046287593781,-0.00017055245427632926,-0.007077098554394534,-3.6781523543139016e-05,-0.011646844238679899
33,0.023085,633.846,49.0656,0.0128488,177.028,-2.43283,-0.611408,0.0210453,-0.00744098,-0.0122706,0.0147436,-0.000184377,-3.82751e-05,0.0196639,0.021268314044303516,0.01485282299035351,-0.00018436000360555482,-0.0074133644463656445,-3.827436751768776e-05,-0.012195623171373349
34,0.024085,638.078,49.2746,-0.10335,178.361,-2.51254,-0.641989,0.0219456,-0.00777669,-0.0128264,0.0153819,-0.000196305,-4.11889e-05,0.0206246,0.022188175921129316,0.015500810330427273,-0.0001962857334342205,-0.007746529779191436,-4.118805174890827e-05,-0.012744492299154642
35,0.025085,642.851,50.6716,0.178409,179.671,-2.34704,-0.689163,0.0228446,-0.00810653,-0.0133827,0.0160194,-0.000204354,-4.44913e-05,0.0215838,0.023107536281845587,0.016148398493808003,-0.00020433312114354063,-0.008073760693919851,-4.449031027675687e-05,-0.013293549803583993
36,0.026085,646.884,51.0421,0.104115,180.918,-2.38161,-0.735528,0.0237427,-0.00843997,-0.0139387,0.0166572,-0.000215007,-4.79703e-05,0.0225439,0.024026801894615035,0.016796704665228424,-0.00021498388765139875,-0.008404453442995008,-4.79691494436052e-05,-0.013842006104912485
37,0.027085,650.503,50.6643,0.0360171,182.118,-2.60479,-0.660943,0.0246401,-0.0087775,-0.014492,0.0172954,-0.000228924,-4.96145e-05,0.0235043,0.02494617600810023,0.017445831436466053,-0.00022889779890045148,-0.00873909020967345,-4.961326922103826e-05,-0.014387496399128286
38,0.028085,654.719,51.9104,0.129038,183.31,-2.43927,-0.757031,0.025536,-0.00910666,-0.0150478,0.0179328,-0.000237181,-5.37752e-05,0.0244631,0.025864836739814656,0.01809455813665939,-0.000237152874810298,-0.00906531995690274,-5.377375413984087e-05,-0.014935147622256673
39,0.029085,658.339,52.1238,0.0632173,184.443,-2.50032,-0.78598,0.0264312,-0.00944,-0.015602,0.0185703,-0.000248485,-5.72058e-05,0.0254224,0.02678360211969122,0.018743800341436412,-0.00024845413015939233,-0.009395583075136327,-5.720416377941184e-05,-0.015480919316139152
40,0.030085,661.667,51.7602,0.0606414,185.539,-2.71706,-0.692789,0.0273255,-0.00977678,-0.0161535,0.019208,-0.000262598,-5.87145e-05,0.0263816,0.027702265414132343,0.019393660448786543,-0.00026256352416298423,-0.009729142659417156,-5.87127763375106e-05,-0.016023731894809656
41,0.031085,665.471,52.8541,0.0899615,186.634,-2.57001,-0.794002,0.0282185,-0.0101058,-0.0167077,0.0198451,-0.000271459,-6.30515e-05,0.0273394,0.02862041342922117,0.020043323077914232,-0.0002714221583394183,-0.010054907982307348,-6.304951229596512e-05,-0.01656890046242998
42,0.032085,668.786,53.0279,0.0358679,187.676,-2.63244,-0.81536,0.0291107,-0.0104386,-0.0172601,0.0204822,-0.000283155,-6.64659e-05,0.0282975,0.02953855808550876,0.02069339973897888,-0.00028311491540644607,-0.010384306893911677,-6.646369119100992e-05,-0.01711199778452377
43,0.033085,671.9,52.7773,0.0711845,188.689,-2.81615,-0.726968,0.0300021,-0.0107741,-0.0178101,0.0211194,-0.000297078,-6.81382e-05,0.0292553,0.03045669791031025,0.02134399283023858,-0.00029703387670043657,-0.010716267269481938,-6.813587864562543e-05,-0.017652437551182953
44,0.034085,675.342,53.673,0.0609942,189.7,-2.70397,-0.817945,0.0308922,-0.0111032,-0.0183624,0.021756,-0.000306759,-7.24044e-05,0.0302118,0.0313743157423525,0.021994387414705496,-0.00030671195426867914,-0.011041786978717383,-7.240177886469468e-05,-0.018194838312165618
45,0.035085,678.066,52.9808,-0.00824255,190.652,-2.97401,-0.718334,0.0317818,-0.0114404,-0.0189107,0.022393,-0.000322297,-7.38815e-05,0.031169,0.032292234563392475,0.022645605230342758,-0.00032224506790123897,-0.01137520747029408,-7.387877082920546e-05,-0.01873301452782672
46,0.036085,681.056,53.2075,-0.0940949,191.601,-3.01046,-0.75576,0.0326701,-0.0117731,-0.01946,0.0230296,-0.000334989,-7.72096e-05,0.0321251,0.03320962715495024,0.023296828685064996,-0.00033493289744968013,-0.0117040682297479,-7.720661941557072e-05,-0.019271876470964622
47,0.037085,684.6,54.5525,0.14927,192.55,-2.80983,-0.816788,0.0335573,-0.0121,-0.0200101,0.0236654,-0.000343817,-8.10546e-05,0.0330793,0.03412669748840802,0.023947647682178275,-0.00034375790170848575,-0.012027089369161748,-8.105131516467079e-05,-0.019811226649850244
48,0.038085,687.467,54.8049,0.0709821,193.456,-2.83605,-0.858168,0.0344436,-0.0124308,-0.0205595,0.0243014,-0.000355554,-8.48091e-05,0.0340342,0.035043650267992055,0.02459908552137824,-0.0003554907981673239,-0.012353856757692627,-8.480550380995933e-05,-0.020349594458749953
49,0.039085,690.07,54.4418,0.0571356,194.336,-3.02638,-0.77685,0.0353293,-0.0127651,-0.0211062,0.0249375,-0.000370066,-8.66995e-05,0.0349889,0.035960794526413764,0.025251040331923047,-0.00036999753402378044,-0.01268397168159452,-8.669574170694361e-05,-0.020885022962741973
50,0.040085,693.152,55.4264,0.0831385,195.222,-2.88244,-0.868839,0.0362136,-0.0130922,-0.0216552,0.0255729,-0.000379741,-9.10998e-05,0.035942,0.03687729983010879,0.02590269185071281,-0.0003796689075122872,-0.013006869941568078,-9.109565053921909e-05,-0.021422409559017308
51,0.041085,695.379,54.544,-0.033044,196.051,-3.18059,-0.766998,0.0370974,-0.0134285,-0.0222001,0.0262087,-0.000396116,-9.26759e-05,0.0368959,0.0377940970607189,0.02655516818243764,-0.0003960375564151519,-0.013338739924141363,-9.26716057214616e-05,-0.021955491236755553
52,0.042085,698.004,54.7737,-0.101433,196.886,-3.20618,-0.801366,0.03798,-0.0137596,-0.022746,0.026844,-0.000409108,-9.60756e-05,0.0378483,0.03871045846158494,0.027207545886619666,-0.0004090243267330651,-0.013665369390860271,-9.607098488739751e-05,-0.022489260028642044
53,0.043085,701.197,56.1432,0.139547,197.726,-2.98619,-0.868157,0.0388615,-0.0140847,-0.0232928,0.0274784,-0.000418079,-0.000100118,0.038799,0.039626485410280576,0.027859413104148745,-0.0004179916171529463,-0.013985974662060752,-0.00010011298836032356,-0.02302361679480458
54,0.044085,703.708,56.3604,0.0632053,198.527,-3.01006,-0.907126,0.0397422,-0.014414,-0.0238389,0.028113,-0.000430167,-0.000103955,0.0397502,0.04054248775840863,0.028511899699804166,-0.00043007449144127907,-0.01431061562553626,-0.00010394959686621519,-0.023556997944694347
55,0.045085,705.981,55.9772,0.0592603,199.308,-3.19544,-0.823083,0.0406222,-0.0147467,-0.0243822,0.0287477,-0.000444961,-0.000105923,0.040701,0.041458568163896814,0.02916490341134992,-0.0004448620195356412,-0.01463849993713795,-0.00010591739035714642,-0.024087355343078043
56,0.046085,708.721,56.9076,0.0734127,200.098,-3.0526,-0.914079,0.0415008,-0.0150723,-0.0249279,0.0293816,-0.000455017,-0.00011041,0.0416503,0.0423739957503364,0.029817497861580833,-0.00045491349546422644,-0.014959281415499848,-0.00011040390504024611,-0.024619765591918807
57,0.047085,710.672,56.0538,-0.0199956,200.837,-3.33668,-0.811668,0.0423791,-0.0154067,-0.0254695,0.0300159,-0.000471502,-0.000112086,0.0426002,0.04328991499786228,0.030470918310862016,-0.000471390860400156,-0.015288623962651515,-0.00011207971859894528,-0.025147888498281534
58,0.048085,713.006,56.2745,-0.085776,201.583,-3.35526,-0.846812,0.0432561,-0.015736,-0.0260121,0.0306496,-0.000484667,-0.000115602,0.0435487,0.044205281582893496,0.03112413468154296,-0.000484549567922099,-0.015612836034333277,-0.00011559531834626213,-0.025676699774509038
59,0.049085,715.856,57.5171,0.125751,202.338,-3.15338,-0.908049,0.044132,-0.01606,-0.0265555,0.0312826,-0.000494221,-0.000119656,0.0444954,0.045120301663575946,0.031777042882440876,-0.0004940988929184043,-0.015931725812524444,-0.00011964884150639232,-0.0262060032310778
60,0.050085,717.583,56.6401,-0.109988,203.043,-3.42175,-0.856726,0.0450074,-0.0163934,-0.0270961,0.0319162,-0.000510687,-0.000122111,0.0454435,0.046035600543520516,0.03243098396346866,-0.0005105566215891644,-0.01625975948888614,-0.00012210354475528096,-0.026732293996519885
61,0.051085,719.865,56.936,-0.111796,203.754,-3.42658,-0.875393,0.0458817,-0.0167215,-0.0276369,0.032549,-0.000523798,-0.000125495,0.0463897,0.046950549380677664,0.03308451304491422,-0.0005236608417763522,-0.016582471717961678,-0.00012548712583193566,-0.027258494874384698
62,0.052085,722.588,58.1363,0.108002,204.472,-3.23236,-0.927935,0.0467548,-0.0170448,-0.0281786,0.0331811,-0.000533609,-0.00012948,0.0473344,0.047865041068595016,0.03373773219377241,-0.0005334666560373735,-0.016900359215572425,-0.00012947161782661532,-0.02778528625338439
63,0.053085,724.249,57.3377,-0.101454,205.144,-3.48088,-0.878827,0.0476275,-0.017377,-0.0287175,0.0338139,-0.000549901,-0.000132013,0.0482802,0.048779912035817885,0.03439208844718755,-0.0005497498321554994,-0.017226890676362405,-0.0001320042866673754,-0.028309071615980397
64,0.054085,726.423,57.6291,-0.100623,205.823,-3.48339,-0.897039,0.048499,-0.0177043,-0.0292568,0.0344459,-0.000563052,-0.00013544,0.0492244,0.049694322125478196,0.035046030871125344,-0.000562893515968943,-0.017548499680859475,-0.00013543082841727117,-0.0288329632535802
65,0.055085,728.993,58.7334,0.100073,206.507,-3.30706,-0.943997,0.0493694,-0.0180271,-0.0297967,0.0350771,-0.000573234,-0.000139381,0.0501669,0.05060837380103855,0.03569955815732495,-0.0005730697327799295,-0.017865583845025013,-0.00013937128691965395,-0.029357154818473452
66,0.056085,730.604,58.0299,-0.0862501,207.151,-3.53161,-0.899963,0.0502393,-0.0183579,-0.0303341,0.0357089,-0.000589271,-0.000142023,0.0511105,0.051522695652039596,0.0363541198924473,-0.0005890974139424188,-0.01819042017899719,-0.0001420129152112093,-0.02987863814835301
67,0.057085,732.672,58.3051,-0.0890632,207.8,-3.53432,-0.918753,0.0511082,-0.0186843,-0.0308718,0.03634,-0.000602474,-0.000145505,0.0520525,0.052436760780377734,0.037008369404230024,-0.0006022925489813646,-0.018510830532036615,-0.00014549441466094049,-0.030400132188383333
68,0.058085,735.098,59.3059,0.0947033,208.454,-3.37844,-0.958309,0.0519759,-0.0190067,-0.0314099,0.0369705,-0.000613047,-0.000149374,0.0529929,0.053350356463873316,0.037662409345564196,-0.0006128591250819104,-0.01882721163689849,-0.00014936284425948188,-0.030921733527826567
69,0.059085,736.666,58.6995,-0.0730014,209.072,-3.57823,-0.921109,0.0528431,-0.0193362,-0.0319459,0.0376013,-0.000628807,-0.000152148,0.0539342,0.0542642180861268,0.038317173284214245,-0.0006286093423100159,-0.019150454813426254,-0.00015213642608002953,-0.03144102029736895
70,0.060085,739.233,60.1204,0.172489,209.716,-3.32452,-0.991234,0.053709,-0.0196558,-0.0324837,0.0382309,-0.000637861,-0.000156493,0.0548728,0.05517750082126405,0.038971103612179814,-0.0006376576099195175,-0.019463884239377727,-0.00015648075560925623,-0.03196177127416411
71,0.061085,741.001,60.0894,0.0573078,210.322,-3.38375,-1.02181,0.0545742,-0.0199811,-0.0330203,0.0388608,-0.000651041,-0.000160451,0.0558122,0.05609083544655902,0.03962575767199561,-0.0006508291187917736,-0.019782800763249675,-0.0001604381284266987,-0.032481081244372545
72,0.062085,742.66,59.6447,0.0776779,210.919,-3.56702,-0.92756,0.0554388,-0.020309,-0.0335542,0.0394905,-0.000666412,-0.000162502,0.0567509,0.05700432642813191,0.04028061617216161,-0.0006661899968410934,-0.020104161292941236,-0.00016248879726521448,-0.03299750172438187
73,0.063085,744.727,60.4099,0.0460502,211.53,-3.43932,-1.01713,0.0563021,-0.0206304,-0.0340905,0.0401196,-0.000677357,-0.000167156,0.0576881,0.057917232262242546,0.040935262605240386,-0.0006771276455351805,-0.020419049210302798,-0.0001671420302141735,-0.0335159661255513
74,0.064085,746.193,59.668,0.0145595,212.101,-3.68477,-0.914019,0.0571649,-0.0209593,-0.0346229,0.0407488,-0.00069386,-0.000169031,0.0586256,0.05883039713291516,0.041590425164998335,-0.0006936193348160424,-0.02074118040763817,-0.0001690167150654176,-0.034030385274657626
75,0.065085,747.972,59.8618,-0.0526338,212.682,-3.69166,-0.951717,0.0580266,-0.0212836,-0.0351564,0.0413775,-0.00070734,-0.000172789,0.0595617,0.05974318450408278,0.0422454789598834,-0.0007070898940356729,-0.02105870255383313,-0.00017277407284055357,-0.03454559262033419
76,0.066085,750.151,60.8227,0.0990802,213.272,-3.53386,-0.998795,0.0588873,-0.0216037,-0.0356903,0.0420054,-0.000718124,-0.000176814,0.0604962,0.06065569810688154,0.042900110396153934,-0.0007178662106722689,-0.02137201151537116,-0.00017679836932593673,-0.035060911151911234
77,0.067085,751.514,60.2063,-0.0613106,213.828,-3.73036,-0.960224,0.0597474,-0.0219309,-0.0362219,0.0426338,-0.000734051,-0.000179633,0.0614315,0.061568360507024966,0.04355567478228428,-0.0007337816504741079,-0.02169216621303849,-0.00017961686695866508,-0.03557373645050155
78,0.068085,753.84,61.5659,0.156224,214.41,-3.48117,-1.03303,0.0606062,-0.0222484,-0.0367555,0.0432609,-0.00074341,-0.000184077,0.0623642,0.062480427000323635,0.04421029378027441,-0.0007431337392485027,-0.022002729645712038,-0.00018406005886850707,-0.03608821702910581
79,0.069085,755.405,61.506,0.0443597,214.957,-3.54168,-1.06026,0.0614644,-0.0225715,-0.0372877,0.0438882,-0.000756858,-0.000188045,0.0632975,0.06339263907698989,0.04486553239166646,-0.0007565716552292434,-0.02231866952092809,-0.000188027320647155,-0.03660107439655247
80,0.070085,756.904,61.1136,0.0789421,215.498,-3.70697,-0.970056,0.0623219,-0.0228968,-0.0378174,0.0445154,-0.000772179,-0.00019022,0.0642301,0.06430488933639844,0.04552107761107349,-0.0007718809465178111,-0.02263665753417854,-0.0001902019093228402,-0.03711125167506357
81,0.071085,758.739,61.7752,0.0336536,216.051,-3.59693,-1.05241,0.0631782,-0.0232163,-0.0383493,0.0451419,-0.000783597,-0.000194827,0.0651613,0.06521664392515247,0.04617630179374066,-0.0007832900680463384,-0.022948875242661426,-0.0001948080224525306,-0.037623276015352536
82,0.072085,760.089,61.1567,0.0274114,216.571,-3.80879,-0.958113,0.064034,-0.0235422,-0.0388775,0.0457685,-0.00079979,-0.000196894,0.0660926,0.06612864651927142,0.046832041286172466,-0.0007994702532270193,-0.023267244323160408,-0.00019687461764850145,-0.03813146917533239
83,0.073085,762.153,62.3753,0.0742696,217.121,-3.56938,-1.08083,0.0648884,-0.0238585,-0.039409,0.0463941,-0.0008094,-0.00020208,0.0670217,0.06703993608232217,0.047487144306059825,-0.0008090725241789443,-0.023576136039980655,-0.0002020595832120664,-0.03864256646332964
84,0.074085,763.644,62.309,0.0116791,217.637,-3.63381,-1.08881,0.0657423,-0.0241803,-0.0399383,0.0470197,-0.000823035,-0.000205856,0.0679511,0.06795147060802198,0.048142657286618595,-0.0008226963995940917,-0.023890298687921807,-0.00020583481310743057,-0.039151278310433635
85,0.075085,765.083,61.9736,0.0737974,218.148,-3.7848,-0.997012,0.0665955,-0.0245039,-0.0404654,0.0476452,-0.000838254,-0.000208059,0.0688798,0.06886303562108131,0.048798475604547864,-0.0008379027632644531,-0.024206116685158485,-0.00020803735722729755,-0.03965760821666642
86,0.076085,766.788,62.5569,0.0223578,218.67,-3.69006,-1.07219,0.0674475,-0.0248223,-0.0409944,0.0482701,-0.000850006,-0.000212596,0.0698072,0.0697740949836072,0.04945407459252271,-0.0008496448472345985,-0.024516760000565796,-0.00021257340307179184,-0.04016549499402322
87,0.077085,768.095,62.0398,0.0358437,219.163,-3.87588,-0.984499,0.068299,-0.0251463,-0.0415202,0.0488949,-0.000865911,-0.000214792,0.0707346,0.07068539555664288,0.05010997838133435,-0.0008655362072569339,-0.02483276537469059,-0.00021476893384986262,-0.0406700433193764
88,0.078085,769.99,63.096,0.0576006,219.682,-3.67051,-1.09598,0.0691492,-0.0254619,-0.0420488,0.0495189,-0.000876123,-0.000219841,0.07166,0.07159607935677204,0.050765451494186875,-0.000875739316304025,-0.02514047959408039,-0.00021981683673810704,-0.04117701113108052
89,0.079085,770.996,62.0204,-0.0147021,220.156,-3.98376,-0.969984,0.0699991,-0.0257879,-0.0425727,0.0501433,-0.000893941,-0.000221496,0.0725863,0.07250721599728771,0.051421754318518476,-0.0008935415537802971,-0.02545823200127617,-0.00022147147157203229,-0.041679206933272095
90,0.080085,772.516,62.282,-0.056847,220.648,-3.96722,-1.00728,0.0708478,-0.0261075,-0.0430983,0.050767,-0.0009075,-0.000225306,0.0735108,0.07341783923981815,0.05207773061162935,-0.0009070883464096235,-0.0257696457837554,-0.00022528062050930497,-0.04218276799466836
91,0.081085,774.423,63.3144,0.0806031,221.151,-3.77882,-1.06993,0.0716956,-0.0264229,-0.0436245,0.05139,-0.000918193,-0.000229628,0.0744338,0.07432826876046739,0.052733379251145296,-0.0009177715897958905,-0.026076869585734852,-0.0002296016375087362,-0.04268663884210333
92,0.082085,775.498,62.6442,-0.0506953,221.619,-3.9827,-1.01776,0.0725428,-0.0267459,-0.0441479,0.0520133,-0.000934514,-0.000232341,0.0753576,0.07523882532706039,0.05338975250390643,-0.0009340774777811811,-0.026391395958115016,-0.0002323140109201649,-0.04318756555137793
93,0.083085,777.529,64.015,0.130279,222.118,-3.7159,-1.10527,0.0733887,-0.0270588,-0.0446738,0.0526354,-0.000943926,-0.000237071,0.0762787,0.07614875464975346,0.05404527014656102,-0.0009434806419925668,-0.026695990434028816,-0.00023704290089099356,-0.0436906209206509
94,0.084085,778.811,63.9078,0.0285281,222.582,-3.78042,-1.12482,0.0742341,-0.0273778,-0.045198,0.0532577,-0.000957715,-0.000241019,0.0772005,0.0770589154777086,0.05470140665387291,-0.0009572565373598962,-0.027006424896151127,-0.0002409899572541896,-0.04419178693007719
95,0.085085,780.06,63.5317,0.0761437,223.044,-3.93385,-1.03519,0.0750788,-0.0276986,-0.0457199,0.0538797,-0.000973116,-0.000243293,0.0781215,0.07796909150233766,0.0553576349946685,-0.0009726426761706986,-0.027318511173729076,-0.00024326340665803414,-0.04469049308778672
96,0.086085,781.598,64.1051,0.0216084,223.516,-3.83541,-1.11111,0.0759223,-0.028014,-0.0462437,0.0545012,-0.000984967,-0.000247878,0.0790412,0.07887874202219258,0.05601374362945699,-0.0009844820792278552,-0.027625246540594728,-0.00024784728078686147,-0.04519075317795185
97,0.087085,782.741,63.5717,0.0354719,223.962,-4.01989,-1.02348,0.0767654,-0.0283351,-0.0467643,0.0551226,-0.00100099,-0.000250123,0.0799608,0.07978872824037886,0.05667015449548218,-0.0010004891766303148,-0.02793742595084392,-0.0002500917218503096,-0.04568769750601509
98,0.088085,784.467,64.5996,0.051031,224.433,-3.81512,-1.13366,0.0776071,-0.0286479,-0.0472877,0.0557432,-0.00101135,-0.00025519,0.0808785,0.08069796901323811,0.05732612752073818,-0.0010108387579514932,-0.0282414395737971,-0.00025515744180149014,-0.046187053872179695
99,0.089085,785.34,63.5497,-0.00852781,224.862,-4.11846,-1.00892,0.0784487,-0.0289709,-0.0478065,0.0563641,-0.00102914,-0.000256911,0.0817971,0.0816078672554339,0.05798282516400177,-0.0010286106170488418,-0.02855526690297261,-0.0002568780011950045,-0.04668176368980803
100,0.090085,786.715,63.8129,-0.0481531,225.309,-4.09661,-1.04658,0.079289,-0.0292875,-0.0483269,0.0569844,-0.00104271,-0.000260773,0.0827138,0.08251712431714053,0.058639295493674526,-0.001042166566825431,-0.028862777623955393,-0.0002607390016765576,-0.047177741435381226
101,0.091085,788.432,64.7551,0.0710137,225.767,-3.92312,-1.10437,0.0801283,-0.0296003,-0.0488479,0.0576039,-0.00105374,-0.000265062,0.0836292,0.08342606232205729,0.05929532572161489,-0.0010531850109614105,-0.0291665018421704,-0.0002650268741716255,-0.04767403253703528
102,0.092085,789.412,64.172,-0.0383121,226.194,-4.10313,-1.05696,0.0809672,-0.02992,-0.0493664,0.0582237,-0.00106981,-0.000267883,0.0845451,0.08433532978465141,0.05995208047176992,-0.0010692379572925237,-0.029476827703299402,-0.0002678471225529,-0.04816768556055884
103,0.093085,791.22,65.3739,0.10805,226.647,-3.86889,-1.13599,0.0818048,-0.0302308,-0.0498869,0.0588424,-0.00107982,-0.000272521,0.0854586,0.08524394953370784,0.0606080757351668,-0.0010792372041742437,-0.02977841943546633,-0.00027248386952527515,-0.04866298536726765
104,0.094085,791.892,64.1575,-0.0689542,227.055,-4.19766,-1.03718,0.0826422,-0.0305528,-0.0504034,0.0594617,-0.00109803,-0.000274624,0.0863736,0.08615311343084286,0.06126511374729038,-0.0010974273856425576,-0.030090780491579205,-0.00027458629428100956,-0.049154224062011864
105,0.095085,793.25,64.4693,-0.0644291,227.483,-4.16672,-1.06374,0.0834784,-0.0308679,-0.0509211,0.0600801,-0.00111154,-0.000278363,0.0872864,0.08706173450582044,0.0619216030592058,-0.0011109224682391838,-0.030396350741525135,-0.00027832426061469295,-0.049646349522548094
106,0.096085,794.921,65.4442,0.0598283,227.923,-3.98321,-1.12405,0.0843136,-0.0311791,-0.0514396,0.0606978,-0.00112248,-0.000282705,0.0881978,0.08797002771692575,0.06257775466497595,-0.0011218502549722453,-0.03069804445119828,-0.00028266504270690884,-0.050138980164790015
107,0.097085,795.844,64.8493,-0.0366299,228.331,-4.1656,-1.07113,0.0851484,-0.0314974,-0.0519554,0.0613159,-0.00113862,-0.000285465,0.0891098,0.08887864429985814,0.06323473699460669,-0.0011379720182060904,-0.031006524166498295,-0.0002854242587436717,-0.050628792145451684
108,0.098085,797.59,66.0602,0.100341,228.767,-3.92565,-1.15456,0.0859819,-0.0318066,-0.0524735,0.0619328,-0.00114859,-0.000290175,0.0900195,0.08978660298910102,0.06389084886075591,-0.0011479306229813524,-0.03130609063386358,-0.0002901329033065947,-0.051120533971521276
109,0.099085,798.209,64.8338,-0.062945,229.156,-4.25664,-1.0504,0.0868152,-0.0321273,-0.0529874,0.0625503,-0.00116685,-0.000292217,0.0909306,0.09069510063834652,0.06454800433579888,-0.0011661694952468382,-0.0316167009615691,-0.00029217430877093165,-0.05160803785426182
110,0.1001,799.511,65.1512,-0.0596618,229.568,-4.22204,-1.07848,0.0876474,-0.0324409,-0.0535027,0.0631669,-0.00118034,-0.000295985,0.0918395,0.09160315489006532,0.06520460704508468,-0.0011796436727368187,-0.03192033835131636,-0.00029594120076126273,-0.05209661833878243
111,0.1011,801.111,66.0999,0.0560039,229.989,-4.04185,-1.13862,0.0884785,-0.0327507,-0.0540186,0.0637829,-0.00119135,-0.000300331,0.0927471,0.0925107633765585,0.06586097522366807,-0.001190640624321615,-0.032220202979066026,-0.0003002859051598472,-0.05258551557149682
112,0.1021,801.995,65.532,-0.0321076,230.381,-4.21657,-1.08672,0.0893092,-0.0330674,-0.054532,0.0643991,-0.0012074,-0.000303115,0.0936552,0.09341868912244355,0.06651796115317765,-0.0012066713858923661,-0.032526650312285965,-0.0003030690652896517,-0.053071793329620864
113,0.1031,803.658,66.6885,0.0920655,230.8,-3.98652,-1.16805,0.0901387,-0.0333755,-0.0550475,0.0650143,-0.00121753,-0.000307802,0.0945611,0.09432605620353973,0.06717428486735355,-0.001216789111064931,-0.03282468293704133,-0.0003077546338243753,-0.05355980902330726
114,0.1041,804.261,65.531,-0.0540959,231.175,-4.30056,-1.0671,0.090968,-0.0336944,-0.055559,0.06563,-0.00123556,-0.000309901,0.0954682,0.09523395721106898,0.06783154639174338,-0.0012347970100154981,-0.03313306597136434,-0.0003098529856451204,-0.05404378939246035
115,0.1051,805.506,65.8388,-0.0538364,231.57,-4.26602,-1.09558,0.0917961,-0.0340065,-0.0560718,0.0662448,-0.00124903,-0.00031369,0.0963733,0.09614129608284472,0.06848825107680012,-0.0012482502866917322,-0.033434778056854686,-0.00031364080443618825,-0.05452875138237845
116,0.1061,807.024,66.7236,0.0529459,231.975,-4.09879,-1.15075,0.0926232,-0.0343152,-0.0565852,0.066859,-0.00126024,-0.000317974,0.0972771,0.09704828958429146,0.06914471814100964,-0.0012594462310526744,-0.03373311069085738,-0.0003179234516255125,-0.05501403173929187
117,0.1071,807.884,66.2122,-0.0270428,232.353,-4.25857,-1.1035,0.0934499,-0.0346302,-0.0570962,0.0674734,-0.00127608,-0.000320832,0.0981814,0.0979555943880579,0.06980180249147794,-0.0012752661561302725,-0.034037436827106915,-0.0003207805389174867,-0.05549679621224535
118,0.1081,809.452,67.2709,0.0832738,232.754,-4.04926,-1.17787,0.0942754,-0.0349373,-0.0576092,0.0680868,-0.00128653,-0.000325424,0.0990835,0.09886233093524388,0.07045822021986159,-0.0012857027750674543,-0.034334038384757015,-0.0003253710553534628,-0.05598120209505608
119,0.1091,810.065,66.2359,-0.0440304,233.117,-4.33331,-1.08597,0.0951006,-0.0352541,-0.0581184,0.0687007,-0.00130413,-0.000327659,0.0999867,0.099769486371587,0.07111557627605092,-0.0013032799920186244,-0.03463991290831403,-0.000327605325652347,-0.056461774102932294
120,0.1101,811.252,66.5226,-0.0478159,233.497,-4.30167,-1.11389,0.0959247,-0.0355648,-0.0586287,0.0693137,-0.00131759,-0.000331463,0.100888,0.10067617995708322,0.07177237141145021,-0.0013167223594026112,-0.03493980369692695,-0.000331408072208772,-0.056943138828951856
121,0.1111,812.686,67.3216,0.0505839,233.886,-4.15315,-1.16109,0.0967479,-0.0358725,-0.0591396,0.0699262,-0.00132906,-0.000335642,0.101788,0.10158262963192155,0.07242903307104376,-0.0013281771909036122,-0.035236707038407755,-0.00033558567852542964,-0.057424823522491786
122,0.1121,813.532,66.8822,-0.0221519,234.251,-4.29416,-1.1206,0.0975706,-0.0361857,-0.0596482,0.0705387,-0.00134463,-0.000338602,0.102688,0.10248927455857282,0.0730860970591043,-0.0013437263901339147,-0.035538823587841994,-0.00033854468081240263,-0.05790409536808672
123,0.1131,815.001,67.821,0.0748315,234.637,-4.11131,-1.18522,0.0983921,-0.0364919,-0.0601585,0.0711504,-0.00135547,-0.000343057,0.103587,0.10339534161370967,0.07374270462762622,-0.001354551765466172,-0.03583409639148616,-0.0003429981626758005,-0.05838472426532737
124,0.1141,815.638,66.9343,-0.0342336,234.988,-4.35892,-1.1056,0.0992133,-0.0368066,-0.0606655,0.0717624,-0.00137253,-0.000345471,0.104486,0.10430182201815508,0.07440003628582925,-0.001371588511489219,-0.036137471662749054,-0.0003454113317654661,-0.0588620022099422
125,0.1151,817.292,68.3486,0.0968511,235.377,-4.06032,-1.21635,0.100033,-0.0371099,-0.0611757,0.0723731,-0.00138168,-0.00035058,0.105382,0.10520738931771634,0.07505637277993871,-0.0013807259196506605,-0.03642976683878962,-0.0003505185540125799,-0.059342048346232135
126,0.1161,818.187,68.1419,0.00653625,235.731,-4.1384,-1.22251,0.100853,-0.0374201,-0.0616837,0.072984,-0.00139583,-0.000354408,0.10628,0.10611403104926453,0.0757133253638056,-0.0013948562824063204,-0.036728619970599063,-0.0003543452049032947,-0.05981978123124565
127,0.1171,819.106,67.7927,0.0691257,236.087,-4.27367,-1.13524,0.101671,-0.0377314,-0.0621897,0.0735946,-0.00141111,-0.00035679,0.107176,0.10701920249131014,0.0763703564914624,-0.0014101148524265916,-0.037028439681842884,-0.00035672635801708985,-0.060295392082249544
128,0.1181,820.242,68.228,0.00474943,236.452,-4.19559,-1.19921,0.102489,-0.0380383,-0.0626974,0.0742047,-0.0014234,-0.000361249,0.108071,0.10792511466651367,0.07702725041107228,-0.0014223874466997577,-0.037323930308348574,-0.00036118375743654507,-0.06077235902338618
129,0.1191,821.113,67.8278,0.0407822,236.798,-4.33714,-1.12425,0.103306,-0.0383495,-0.0632023,0.0748146,-0.00143891,-0.000363739,0.108966,0.10883065934982916,0.07768432968705485,-0.0014378752653620985,-0.0376234684906781,-0.0003636728549900603,-0.06124645536362261
130,0.1201,822.382,68.5779,0.021966,237.163,-4.18478,-1.21248,0.104122,-0.0386544,-0.0637095,0.0754238,-0.00145017,-0.000368524,0.109859,0.10973583442906465,0.07834105499891963,-0.0014491190115841768,-0.03791685236649056,-0.0003684561033714395,-0.06172247043383572
131,0.1211,823.093,67.8673,0.0173381,237.5,-4.39848,-1.1149,0.104938,-0.0389664,-0.0642129,0.0760332,-0.00146672,-0.000370693,0.110753,0.11064174843260477,0.07899839630939032,-0.0014656448919125875,-0.03821697548691083,-0.00037062430183876227,-0.062194680476979514
132,0.1221,824.534,69.0327,0.0449718,237.867,-4.14749,-1.23509,0.105753,-0.0392688,-0.0647198,0.0766415,-0.00147656,-0.000375927,0.111644,0.1115472904158119,0.07965495070463935,-0.0014754704216251024,-0.038507774702466135,-0.000375856348298953,-0.06266993353038308
133,0.1231,825.002,67.8084,-0.0116604,238.19,-4.48277,-1.09497,0.106567,-0.0395828,-0.0652215,0.0772503,-0.00149487,-0.000377495,0.112537,0.11245245826354444,0.08031244475951094,-0.0014937532383819674,-0.03880963586652664,-0.0003774237577273132,-0.06314007408011268
134,0.1241,826.075,68.1299,-0.0350203,238.537,-4.43583,-1.13509,0.10738,-0.0398893,-0.0657252,0.0778583,-0.00150815,-0.00038142,0.113427,0.11335724986006013,0.08096947444270852,-0.0015070133132919494,-0.039104195569553135,-0.0003813472686391428,-0.06361185159765603
135,0.1251,827.397,68.96,0.0449784,238.892,-4.27243,-1.19323,0.108192,-0.0401929,-0.0662294,0.0784656,-0.00151941,-0.000385732,0.114317,0.11426166308902408,0.08162614658285028,-0.0015182562810239775,-0.039395879255954114,-0.0003856576149766644,-0.06408385949888928
136,0.1261,828.134,68.5038,-0.0170711,239.223,-4.41469,-1.14825,0.109004,-0.0405021,-0.0667313,0.0790731,-0.00153497,-0.000388626,0.115207,0.11516681099977055,0.0822834340977674,-0.0015337925360838778,-0.03969285213571494,-0.0003885504946974372,-0.06455347794919841
137,0.1271,829.482,69.439,0.0626899,239.575,-4.22612,-1.21854,0.109815,-0.0408044,-0.067235,0.0796796,-0.0015457,-0.00039315,0.116094,0.116071578116967,0.08294003809558292,-0.001544506021011971,-0.03998310911196201,-0.0003930727266657774,-0.06502454371448274
138,0.1281,830.025,68.5556,-0.0255556,239.894,-4.47141,-1.13342,0.110625,-0.0411152,-0.0677352,0.0802865,-0.00156269,-0.000395489,0.116983,0.11697596232139729,0.08359747388341354,-0.0015614696357484359,-0.04028143599925027,-0.000395410804534313,-0.0654921014917681
139,0.1291,831.54,69.9232,0.0784509,240.249,-4.17667,-1.24773,0.111434,-0.0414147,-0.0682388,0.0808922,-0.00157187,-0.000400633,0.117869,0.11787996149327618,0.0842540076845344,-0.0015706352593868322,-0.040568828669967805,-0.00040055275731598616,-0.0659626011876897
140,0.1301,832.331,69.7028,-0.00246645,240.571,-4.2554,-1.24933,0.112243,-0.041721,-0.0687399,0.081498,-0.00158602,-0.000404383,0.118755,0.11878469229639,0.08491104775973435,-0.0015847629349443615,-0.04086265743557349,-0.00040430124821466684,-0.06643053007885935
141,0.1311,833.166,69.3939,0.0639457,240.896,-4.37671,-1.16713,0.113051,-0.0420282,-0.0692394,0.0821035,-0.00160105,-0.000406832,0.119641,0.11968903563327249,0.08556816031990389,-0.0015997690031865908,-0.04115725917406532,-0.0004067492550833274,-0.06689673158556564
142,0.1321,834.177,69.7651,-0.000508263,241.229,-4.3105,-1.22371,0.113858,-0.0423315,-0.0697403,0.0827085,-0.00161348,-0.000411174,0.120526,0.12059298938130758,0.08622512776951208,-0.0016121790409293624,-0.04144803207941772,-0.00041108947955548203,-0.06736400597407377
143,0.1331,834.979,69.4388,0.0403174,241.546,-4.43019,-1.15714,0.114664,-0.0426384,-0.0702387,0.0833133,-0.0016286,-0.000413776,0.12141,0.12149655141733384,0.08688227542820814,-0.0016272745506599184,-0.04174216654113072,-0.0004136904065168423,-0.06782871593815365
144,0.1341,836.099,70.0668,0.0135412,241.879,-4.30332,-1.23331,0.115469,-0.0429399,-0.070739,0.0839175,-0.00164018,-0.000418374,0.122293,0.1223997196176525,0.08753916812632223,-0.0016388356398817638,-0.04203103772839889,-0.0004182864938019337,-0.06829496458974449
145,0.1351,836.778,69.504,0.0224901,242.188,-4.4779,-1.15014,0.116274,-0.0432473,-0.0712362,0.0845216,-0.0016561,-0.000420739,0.123176,0.12330361516108868,0.0881963490192903,-0.0016547294231035181,-0.042325472130515074,-0.0004206505017588791,-0.06875809319003967
146,0.1361,838.027,70.4475,0.029865,242.523,-4.27584,-1.25044,0.117078,-0.0435469,-0.0717361,0.085125,-0.00166658,-0.000425672,0.124057,0.12420711442571286,0.08885316483769246,-0.001665192026715001,-0.042612348442847336,-0.0004255814145278647,-0.06922350467995986
147,0.1371,838.526,69.5032,0.00276362,242.822,-4.54107,-1.13525,0.117882,-0.0438555,-0.0722317,0.0857285,-0.0016838,-0.000427584,0.124939,0.12511134039584237,0.08951048604939738,-0.001682383204091864,-0.04290775268889835,-0.00042749259898910985,-0.0696846832215583
148,0.1381,839.966,70.9169,0.04924,243.16,-4.2255,-1.27696,0.118684,-0.0441522,-0.0727314,0.0863309,-0.00169263,-0.000433094,0.125818,0.1260140416256479,0.09016700488981466,-0.0016911983097294137,-0.04319167983600036,-0.00043300022833137053,-0.07014944565478765
149,0.1391,840.704,70.6741,-0.0120301,243.465,-4.30983,-1.26868,0.119486,-0.0444562,-0.0732283,0.0869334,-0.00170679,-0.000436716,0.126698,0.12691746711222796,0.09082402841872361,-0.0017053342622785905,-0.04348250535761122,-0.0004366206534479611,-0.07061137361973435
150,0.1401,841.48,70.3494,0.0587558,243.772,-4.43333,-1.18355,0.120287,-0.044761,-0.0737235,0.0875357,-0.00172178,-0.00043912,0.127577,0.12782048961561565,0.09148122962731664,-0.0017202985871601628,-0.04377400746280058,-0.000439023600923516,-0.07107149293257331
151,0.1411,842.436,70.7144,-0.00288213,244.088,-4.36664,-1.23848,0.121087,-0.0450618,-0.0742202,0.0881374,-0.00173414,-0.000443424,0.128455,0.12872310700612477,0.09213817150432702,-0.001732637248016533,-0.044061596985723095,-0.00044332570210781075,-0.07153277715261408
152,0.1421,843.183,70.3856,0.0381614,244.388,-4.48467,-1.1722,0.121887,-0.0453661,-0.0747145,0.0887389,-0.00174918,-0.000446019,0.129332,0.12962644677946078,0.09279529022312927,-0.0017476510762479691,-0.04435244478702305,-0.00044591954831219027,-0.07199160509220004
153,0.1431,844.243,70.9986,0.0106794,244.704,-4.3591,-1.24669,0.122685,-0.0456653,-0.0752106,0.0893398,-0.00176071,-0.000450575,0.130208,0.13052824845500344,0.09345214824625248,-0.001759160859477027,-0.0446383317647181,-0.0004504735063287635,-0.07245187587730562
154,0.1441,844.877,70.4503,0.0222713,244.998,-4.5282,-1.16511,0.123484,-0.0459701,-0.0757037,0.0899406,-0.00177648,-0.000452949,0.131085,0.13143190148683082,0.09410929168304039,-0.0017749029933832317,-0.04492948162770305,-0.000452846434087939,-0.07290913711028835
155,0.1451,846.056,71.3561,0.0248118,245.315,-4.33265,-1.26233,0.124281,-0.0462674,-0.0761993,0.0905407,-0.001787,-0.000457818,0.131959,0.1323340121556651,0.09476606371371754,-0.0017854042661670233,-0.04521338188895019,-0.00045771321733045767,-0.07336848950501085
156,0.1461,846.527,70.4587,0.00558235,245.599,-4.58498,-1.15091,0.125078,-0.0465734,-0.0766909,0.0911409,-0.00180395,-0.00045977,0.132834,0.13323684209329278,0.09542333953390059,-0.0018023238601707625,-0.045505501897451506,-0.000459664321970088,-0.0738239096041381
157,0.1471,847.878,71.7905,0.0405324,245.921,-4.28616,-1.28646,0.125873,-0.046868,-0.0771864,0.0917401,-0.00181296,-0.000465169,0.133707,0.13413812359468436,0.0960799138889814,-0.0018113175807159543,-0.0457866545607718,-0.00046506082567443485,-0.07428271617821325
158,0.1481,848.571,71.5534,-0.016106,246.21,-4.36759,-1.2773,0.126668,-0.0471695,-0.0776791,0.0923393,-0.00182703,-0.000468746,0.13458,0.13504012189976122,0.09673688178130768,-0.0018253619966749346,-0.04607430651871003,-0.00046863615575742923,-0.07473870474194522
159,0.1491,849.315,71.2737,0.0550856,246.503,-4.4775,-1.19835,0.127463,-0.0474716,-0.0781703,0.0929383,-0.00184176,-0.000471215,0.135452,0.13594283757860892,0.09739402396793095,-0.0018400650008048025,-0.04636244394536104,-0.00047110399564820327,-0.0751930814861117
160,0.1501,850.204,71.59,-0.00539119,246.802,-4.42094,-1.24717,0.128256,-0.0477702,-0.0786628,0.0935367,-0.00185419,-0.000475411,0.136324,0.1368439975114979,0.09805090106990111,-0.0018524720516868154,-0.04664715760973337,-0.00047529801009682515,-0.07564843675304123
161,0.1511,850.928,71.3226,0.037064,247.089,-4.52172,-1.18824,0.129049,-0.0480718,-0.0791531,0.0941349,-0.0018689,-0.000478089,0.137195,0.13774587234763502,0.09870795162314816,-0.0018671546938319183,-0.046934645471649494,-0.0004779747336646212,-0.07610153523833063
162,0.1521,851.905,71.8475,0.00661292,247.388,-4.4157,-1.25314,0.129841,-0.0483689,-0.079645,0.0947325,-0.00188063,-0.000482488,0.138064,0.13864732400627044,0.09936473572258087,-0.0018788627234396227,-0.04721775912986348,-0.00048237162138276,-0.07655588913564437
163,0.1531,852.536,71.4049,0.0238172,247.669,-4.55697,-1.1828,0.130633,-0.0486708,-0.0801342,0.0953301,-0.00189591,-0.000484999,0.138934,0.13954948989741833,0.10002191243349201,-0.0018941138978979533,-0.0475053606727448,-0.00048488140699665117,-0.07700752751492457
164,0.1541,853.608,72.1638,0.0178664,247.969,-4.395,-1.26538,0.131424,-0.0489663,-0.0806255,0.0959269,-0.00190682,-0.000489638,0.139802,0.14045123013517435,0.10067860144734286,-0.001905003173714226,-0.04778678125672697,-0.0004895181468768106,-0.07746088234092441
165,0.1551,854.109,71.4464,0.0109668,248.243,-4.60182,-1.17172,0.132214,-0.049269,-0.0811133,0.0965238,-0.00192302,-0.000491818,0.14067,0.14135254257852048,0.10133579262374082,-0.001921172181693409,-0.048074972578083575,-0.0004916970773521934,-0.07791078718180666
166,0.1561,855.313,72.5372,0.02934,248.545,-4.35916,-1.28426,0.133003,-0.0495623,-0.0816043,0.0971198,-0.00193274,-0.000496868,0.141536,0.14225342508602945,0.10199238440105818,-0.0019308734607514921,-0.04835413124800625,-0.0004967445815370342,-0.07836342185439482
167,0.1571,855.636,71.4187,-0.00285628,248.809,-4.66295,-1.15288,0.133792,-0.0498664,-0.0820905,0.0977161,-0.00195032,-0.000498518,0.142404,0.14315501867031943,0.10264969841857385,-0.0019484193617671508,-0.04864348275856667,-0.0004983937605479438,-0.07881141264330338
168,0.1581,856.513,71.738,-0.0240619,249.094,-4.60818,-1.19249,0.134579,-0.0501635,-0.0825788,0.0983116,-0.00196313,-0.000502395,0.143269,0.14405503578029233,0.10330652186375278,-0.0019612043206272967,-0.048926088796633405,-0.0005022688207634296,-0.079261119225712
169,0.1591,857.556,72.3899,0.0295677,249.386,-4.47762,-1.23776,0.135366,-0.0504585,-0.0830672,0.0989066,-0.00197457,-0.000506458,0.144133,0.14495576148252498,0.10396318458204745,-0.0019726218191417066,-0.04920661422090389,-0.0005063297717954329,-0.07971069829893573
170,0.1601,858.176,72.0917,-0.00691854,249.66,-4.5753,-1.20463,0.136153,-0.0507577,-0.0835538,0.0995016,-0.00198918,-0.000509456,0.144998,0.14585719633489935,0.10462023813092003,-0.0019872028926218865,-0.04949104904835688,-0.0005093262493270911,-0.08015840213796555
171,0.1611,859.206,72.7505,0.0351073,249.948,-4.44261,-1.25537,0.136938,-0.051052,-0.0840415,0.100096,-0.00200044,-0.000513626,0.145861,0.14675704737934803,0.10527701957657354,-0.001998440453449768,-0.04977074267368631,-0.0005134941167466156,-0.080606899510269
172,0.1621,859.716,72.1949,-0.00571357,250.214,-4.60372,-1.19503,0.137723,-0.0513519,-0.0845267,0.10069,-0.0020159,-0.000516248,0.146724,0.14765760508419445,0.10593374915557718,-0.002013869438293958,-0.050055673700415415,-0.0005161147669293653,-0.0810528808388069
173,0.1631,860.825,73.0797,0.0377904,250.503,-4.41389,-1.27268,0.138507,-0.0516444,-0.0850141,0.101284,-0.00202629,-0.000520788,0.147585,0.14855772144608914,0.10659086894783254,-0.002024238460323291,-0.05033349178298274,-0.0005206524134678814,-0.0815006665304484
174,0.1641,861.207,72.222,-0.00923467,250.762,-4.64939,-1.17914,0.139291,-0.0519453,-0.0854978,0.101877,-0.00204279,-0.000522944,0.148447,0.14945854377591483,0.1072472719373696,-0.0020407049245400044,-0.05061920344782955,-0.0005228072886183099,-0.08194483722670465
175,0.1651,862.446,73.459,0.0417124,251.054,-4.37183,-1.29548,0.140074,-0.0522356,-0.085985,0.10247,-0.0020519,-0.000528013,0.149307,0.15035892226787007,0.1079040642893141,-0.002049796292306949,-0.050894768692838044,-0.0005278736256675298,-0.0823920047631509
176,0.1661,862.65,72.1734,-0.0161528,251.302,-4.71274,-1.15563,0.140856,-0.052538,-0.086467,0.103063,-0.00206989,-0.000529521,0.150168,0.15125885477283219,0.10856124623462637,-0.002067749254984208,-0.05118173472333465,-0.0005293808284976276,-0.08283418524279862
177,0.1671,863.512,72.5389,-0.025133,251.575,-4.646,-1.19563,0.141638,-0.0528326,-0.0869513,0.103655,-0.00208245,-0.00053336,0.151027,0.15215949130024997,0.10921770878614034,-0.002080283205340261,-0.05146121541475801,-0.000533217788839524,-0.08327826110523573
178,0.1681,864.523,73.2181,0.0229964,251.855,-4.5059,-1.24637,0.142418,-0.0531251,-0.0874358,0.104247,-0.00209363,-0.000537463,0.151885,0.15305852628152583,0.10987456007854068,-0.002091439885408053,-0.05173862243649441,-0.0005373185926341728,-0.08372230520935986
179,0.1691,865.107,72.9131,-0.00529929,252.117,-4.60442,-1.20976,0.143198,-0.0534219,-0.0879184,0.104839,-0.00210814,-0.000540381,0.152743,0.15395826278364444,0.11053180034203036,-0.0021059194335659726,-0.052020024651200925,-0.0005402350204835038,-0.08416439414022647
180,0.1701,866.096,73.5776,0.0291656,252.393,-4.46749,-1.26384,0.143977,-0.0537138,-0.0884023,0.10543,-0.00211921,-0.000544563,0.153599,0.15485754649588213,0.11118831861807399,-0.0021169660598946427,-0.0522966996233285,-0.000544414752480793,-0.0846074597815244
181,0.1711,866.571,73.0159,-0.0033765,252.647,-4.62938,-1.20016,0.144756,-0.0540113,-0.0888835,0.106021,-0.00213455,-0.000547109,0.154456,0.15575753102306344,0.11184522501109595,-0.002132273468227086,-0.05257859942051657,-0.0005469593631615144,-0.08504784070772908
182,0.1721,867.635,73.8945,0.0311872,252.924,-4.43813,-1.28016,0.145534,-0.0543015,-0.0893669,0.106611,-0.0021448,-0.000551645,0.155311,0.1566570602536974,0.11250140724857771,-0.002142501560005061,-0.05285350122078425,-0.0005514928718718393,-0.08549002169777509
183,0.1731,867.989,73.0449,-0.00578013,253.171,-4.67108,-1.18451,0.146311,-0.0546,-0.0898468,0.107202,-0.00216113,-0.000553743,0.156166,0.15755613203366825,0.11315908990634416,-0.002158796439906463,-0.05313618225842609,-0.0005535897126401901,-0.0859287897455484
184,0.1741,869.174,74.2547,0.0337303,253.451,-4.39709,-1.30144,0.147087,-0.054888,-0.09033,0.107791,-0.00217015,-0.000558782,0.157019,0.15845474420855665,0.11381493373734664,-0.0021677969269703334,-0.053408839773368855,-0.000558625910412891,-0.08637036226183181
185,0.1751,869.364,73.0061,-0.0107869,253.689,-4.72866,-1.16191,0.147863,-0.0551879,-0.0908082,0.108381,-0.00218786,-0.000560264,0.157874,0.1593540539771241,0.11447227844587227,-0.0021854683788056217,-0.05369267989836668,-0.0005601070814318376,-0.08680715550900919
186,0.1761,870.188,73.3674,-0.0225532,253.951,-4.66085,-1.20251,0.148638,-0.0554801,-0.0912886,0.10897,-0.00220025,-0.000564081,0.158726,0.16025290162743167,0.11512889597275566,-0.002197831224264424,-0.0539691505029779,-0.0005639219362224557,-0.08724574799315288
187,0.1771,871.144,74.0065,0.0205539,254.219,-4.52842,-1.25007,0.149412,-0.0557704,-0.0917692,0.109558,-0.0022114,-0.000568104,0.159578,0.16115128500280762,0.11578478457593944,-0.0022089566564218455,-0.054243743399499555,-0.0005679426594767945,-0.08768431229122509
188,0.1781,871.708,73.7341,-0.00439647,254.47,-4.61748,-1.21645,0.150186,-0.0560648,-0.0922479,0.110147,-0.00222562,-0.00057103,0.160429,0.1620503639960853,0.11644217539664625,-0.0022231451441777628,-0.05452213306047393,-0.0005708669933982558,-0.08812093329735571
189,0.1791,872.638,74.3433,0.0245925,254.734,-4.49193,-1.26595,0.150959,-0.0563545,-0.0927278,0.110734,-0.00223671,-0.00057511,0.16128,0.1629489761963243,0.11709771933692714,-0.0022342104281410924,-0.05479599832722715,-0.0005749446559424332,-0.08855843907355865
190,0.1801,873.107,73.8445,-0.00152704,254.979,-4.63717,-1.20778,0.151731,-0.0566494,-0.0932053,0.111322,-0.00225167,-0.000577698,0.16213,0.16384711944463515,0.11775476594867018,-0.0022491368927027855,-0.055074697891049906,-0.0005775311646387671,-0.08899354852825148
191,0.1811,874.097,74.6339,0.0251188,255.243,-4.46556,-1.28,0.152503,-0.0569377,-0.0936847,0.111909,-0.00226205,-0.000582085,0.162979,0.16474595632724198,0.11841108060578853,-0.002259493492910991,-0.05534708058979532,-0.0005819156213922039,-0.0894301803520764
192,0.1821,874.465,73.8911,-0.00228671,255.482,-4.67128,-1.19395,0.153274,-0.0572333,-0.0941609,0.112496,-0.00227784,-0.000584281,0.163828,0.16564432173493282,0.1190677806327054,-0.0022752476911290787,-0.055626278725255496,-0.0005841103410957338,-0.08986369047324083
193,0.1831,875.555,74.9574,0.025865,255.748,-4.43007,-1.29788,0.154044,-0.0575197,-0.09464,0.113083,-0.00228719,-0.000589098,0.164675,0.16654221350663745,0.11972486625569956,-0.002284576373951519,-0.05589670863161755,-0.0005889245158412493,-0.09029963234092198
194,0.1841,875.788,73.8832,-0.00493782,255.979,-4.71804,-1.17449,0.154814,-0.0578164,-0.0951147,0.113669,-0.00230412,-0.00059077,0.165523,0.1674407969212548,0.12038121731940477,-0.0023014675530892426,-0.05617678252714953,-0.0005905955297624832,-0.09073136462568465
195,0.1851,877.021,75.3372,0.0274284,256.25,-4.37982,-1.32194,0.155582,-0.0581004,-0.0955937,0.114254,-0.00231204,-0.000596177,0.166368,0.16833773583374634,0.12103683208015692,-0.0023093692941752453,-0.0564447902620121,-0.0005959993218033199,-0.09116680000692967
196,0.1861,877.528,75.0268,-0.0260911,256.488,-4.47275,-1.30451,0.15635,-0.0583922,-0.0960697,0.11484,-0.00232573,-0.000599503,0.167214,0.16923536385990845,0.1216939521811411,-0.002323027585418469,-0.056720079505559684,-0.0005993233339817161,-0.09159930166656516
197,0.1871,878.115,74.7528,0.0450306,256.731,-4.5734,-1.22832,0.157118,-0.0586843,-0.0965444,0.115425,-0.00233978,-0.00060188,0.168059,0.17013368152918384,0.12235033511645632,-0.002337044848409353,-0.05699557133279587,-0.0006016989065668055,-0.09203041714470961
198,0.1881,878.823,75.0024,-0.013397,256.98,-4.52612,-1.26896,0.157885,-0.0589732,-0.0970202,0.11601,-0.00235179,-0.000605815,0.168903,0.17103151833931762,0.12300710214812605,-0.0023490267085495287,-0.05726796596293893,-0.000605631531144124,-0.09246232631289286
199,0.1891,879.413,74.7903,0.0299592,257.219,-4.60562,-1.2179,0.158651,-0.0592645,-0.0974942,0.116594,-0.00236562,-0.000608467,0.169747,0.17192887212498809,0.12366312983722061,-0.002362824126100782,-0.057542543810248814,-0.0006082819214948687,-0.0928923972353598
200,0.1901,880.191,75.1993,-0.00385704,257.467,-4.52058,-1.26993,0.159416,-0.0595522,-0.0979694,0.117178,-0.00237708,-0.000612534,0.17059,0.1728257407206626,0.12431954075837837,-0.002374256982625833,-0.057813649819925206,-0.0006123464393471556,-0.093323352365145
201,0.1911,880.723,74.8823,0.0208937,257.703,-4.62399,-1.21356,0.160181,-0.0598435,-0.0984423,0.117762,-0.00239124,-0.0006151,0.171432,0.17372329568331435,0.12497633513547246,-0.0023883832631327317,-0.05808806873267747,-0.0006149108647760526,-0.09375201838574221
202,0.1921,881.558,75.4361,0.00255875,257.951,-4.50424,-1.27573,0.160945,-0.0601301,-0.0989169,0.118345,-0.00240217,-0.000619295,0.172274,0.17462036291726535,0.12563238755955597,-0.0023992870985141135,-0.058357982011758236,-0.000619103276431332,-0.09418202162997513
203,0.1931,882.015,74.9599,0.0143353,258.182,-4.64579,-1.20596,0.161708,-0.0604216,-0.0993888,0.118928,-0.00241683,-0.000621668,0.173115,0.1755169402549288,0.12628882257371687,-0.002413911817765735,-0.05863243065716839,-0.000621474804485489,-0.09460937629170496
204,0.1941,882.922,75.6991,0.00703294,258.432,-4.48045,-1.28527,0.162471,-0.0607068,-0.0998628,0.11951,-0.00242707,-0.000626088,0.173955,0.1764142019421473,0.12694451345599345,-0.0024241270470066745,-0.05890087040661718,-0.0006258920478047214,-0.09503842975363896
205,0.1951,883.285,75.0079,0.00943339,258.657,-4.67446,-1.19436,0.163233,-0.0609988,-0.100333,0.120093,-0.00244245,-0.000628159,0.174795,0.1773109711897185,0.12760171366258377,-0.002439469645947767,-0.05917563123542513,-0.0006279617494391321,-0.09546384266155639
206,0.1961,884.285,75.9951,0.0101576,258.909,-4.44751,-1.29918,0.163994,-0.0612823,-0.100807,0.120674,-0.00245176,-0.00063292,0.175633,0.17820724582803948,0.12825704061226628,-0.0024487568912532343,-0.0594423171394568,-0.0006327197483867453,-0.09589249120240506
207,0.1971,884.527,75.0152,0.00541225,259.128,-4.71272,-1.17772,0.164755,-0.0615752,-0.101276,0.121256,-0.00246812,-0.000634562,0.176472,0.17910420279095174,0.12891387733084714,-0.0024650766960940818,-0.05971776614329083,-0.0006343607081137348,-0.09631641820537828
208,0.1981,885.652,76.3356,0.0122732,259.383,-4.40257,-1.3186,0.165515,-0.0618565,-0.10175,0.121837,-0.0024762,-0.000639807,0.177308,0.18000066259664949,0.12956996686913147,-0.0024731367457117015,-0.059982230337041975,-0.0006396023671455531,-0.09674466272118065
209,0.1991,886.132,76.0479,-0.0305585,259.608,-4.48895,-1.29968,0.166274,-0.062145,-0.10222,0.122417,-0.0024896,-0.000643031,0.178145,0.18089662307354915,0.13022530748032146,-0.0024865035161217852,-0.060253386347454474,-0.0006428242998737232,-0.0971690929807777
210,0.2001,886.698,75.8277,0.0387936,259.839,-4.5734,-1.23129,0.167033,-0.0624335,-0.10269,0.122998,-0.00250319,-0.000645448,0.178981,0.18179326384258898,0.13088215918090929,-0.0025000596324249447,-0.06052446414064139,-0.0006452397432483714,-0.09759332380502361
211,0.2011,887.35,76.0315,-0.014843,260.073,-4.53592,-1.26485,0.167791,-0.0627194,-0.10316,0.123578,-0.00251509,-0.000649216,0.179817,0.18268940273031276,0.13153826108439337,-0.00251192981108761,-0.06079302180419621,-0.0006490053048906486,-0.09801735528763111
212,0.2021,887.921,75.8782,0.0262338,260.3,-4.59824,-1.22181,0.168549,-0.0630071,-0.103629,0.124158,-0.00252842,-0.000651914,0.180651,0.18358622114882284,0.1321947436373594,-0.002525226238442424,-0.06106319278586392,-0.0006517015502370826,-0.09844028596300547
213,0.2031,888.63,76.2089,-0.00597811,260.534,-4.53078,-1.26394,0.169305,-0.0632919,-0.104099,0.124737,-0.00253988,-0.000655774,0.181485,0.18448135064832893,0.13285047420960705,-0.0025366572338499926,-0.061330563913102765,-0.0006555590272242506,-0.09886391946693107
214,0.2041,889.156,75.9809,0.0186057,260.759,-4.60971,-1.21842,0.170061,-0.0635795,-0.104566,0.125316,-0.00255343,-0.000658425,0.182319,0.18537715712160052,0.13350658455979114,-0.002550172770576453,-0.061600486426203416,-0.0006582082858256344,-0.09928465176790136
215,0.2051,889.907,76.4171,-0.000753393,260.993,-4.51707,-1.26709,0.170817,-0.0638634,-0.105035,0.125895,-0.00256449,-0.000662363,0.183151,0.18627364108062316,0.13416307490786683,-0.0025612045046600196,-0.06186686023455579,-0.000662143686052552,-0.09970698822058255
216,0.2061,890.378,76.0762,0.013502,261.213,-4.62288,-1.21262,0.171571,-0.064151,-0.105502,0.126473,-0.00257837,-0.000664879,0.183983,0.18716842869853823,0.1348188106545385,-0.0025750488590614573,-0.06213662853101187,-0.0006646580169360483,-0.10012732690036252
217,0.2071,891.178,76.6422,0.00237794,261.448,-4.49827,-1.27296,0.172325,-0.0644337,-0.10597,0.127051,-0.00258893,-0.000668965,0.184814,0.18806389124073175,0.13547492552602813,-0.0025855816109324747,-0.062401725032970035,-0.0006687412928012559,-0.10054836877988849
218,0.2081,891.583,76.1527,0.0102053,261.664,-4.64027,-1.20403,0.173079,-0.0647215,-0.106436,0.127628,-0.00260329,-0.000671273,0.185645,0.1889600292162883,0.1361302836106819,-0.0025999043791428145,-0.06267152699014167,-0.0006710477466846942,-0.10096741559454603
219,0.2091,892.445,76.8875,0.00405275,261.899,-4.47356,-1.28176,0.173831,-0.065003,-0.106904,0.128205,-0.00261321,-0.000675585,0.186475,0.1898544634233703,0.1367860199460651,-0.002609798539016328,-0.06293534782076993,-0.000675356843836461,-0.10138806440454862
220,0.2101,892.768,76.2038,0.00805193,262.111,-4.66351,-1.19209,0.174584,-0.0652912,-0.107369,0.128782,-0.00262821,-0.000677597,0.187305,0.1907507612481083,0.13744213475049194,-0.0026247592798324115,-0.06320537094132728,-0.0006773674829957388,-0.1018058218184743
221,0.2111,893.711,77.1597,0.00461333,262.348,-4.44132,-1.29407,0.175335,-0.0655711,-0.107836,0.129359,-0.00263728,-0.00068223,0.188133,0.1916453509461915,0.1380986282424015,-0.002633805432241343,-0.06346754306530045,-0.0006819973340270735,-0.10222518057179464
222,0.2121,893.93,76.2218,0.00667962,262.554,-4.6945,-1.17604,0.176086,-0.0658601,-0.108299,0.129935,-0.00265315,-0.000683842,0.188961,0.19254061273347567,0.13875436188542856,-0.0026496335081529487,-0.06373816183905823,-0.000683608233349009,-0.10264075410049422
223,0.2131,894.978,77.4674,0.00419698,262.793,-4.39942,-1.31078,0.176836,-0.066138,-0.108767,0.130511,-0.00266113,-0.000688911,0.189788,0.1934353536789395,0.13941047333983336,-0.0026575923323218786,-0.0639983128542253,-0.0006886737553003508,-0.103060619971298
224,0.2141,895.065,76.197,0.00587721,262.992,-4.73564,-1.15486,0.177585,-0.0664282,-0.109228,0.131086,-0.00267815,-0.000689993,0.190615,0.1943295716016522,0.14006582275690493,-0.0026745669556459406,-0.06426990113446962,-0.0006897550095703586,-0.10347401373090848
225,0.2151,895.77,76.5817,-0.0146927,263.215,-4.65415,-1.20119,0.178334,-0.0667104,-0.109693,0.131661,-0.00268954,-0.000693685,0.191441,0.1952244595444803,0.1407215491082494,-0.0026859264276359873,-0.06453392691257998,-0.0006934444561841335,-0.10389080140387963
226,0.2161,896.56,77.1296,0.0103431,263.442,-4.53563,-1.24396,0.179082,-0.0669913,-0.110157,0.132236,-0.00270011,-0.000697432,0.192266,0.19611882189003693,0.1413776526106667,-0.0026964679816814385,-0.06479666242957927,-0.0006971888508326973,-0.10430649962258332
227,0.2171,897.043,76.9404,-0.00322802,263.656,-4.59865,-1.21698,0.17983,-0.0672754,-0.11062,0.13281,-0.00271318,-0.00070025,0.193091,0.1970138534688901,0.14203299144751802,-0.0027095026536630984,-0.06506231595991219,-0.0007000048821866889,-0.10472110972361304
228,0.2181,897.789,77.4068,0.0091399,263.879,-4.50015,-1.25561,0.180576,-0.067556,-0.111084,0.133384,-0.00272387,-0.000703967,0.193914,0.1979071589650998,0.14268870655684185,-0.002720163632096706,-0.06532462267070127,-0.0007037192733653219,-0.10513642276862356
229,0.2191,898.212,77.0653,0.00101951,264.088,-4.60165,-1.21046,0.181323,-0.0678403,-0.111545,0.133958,-0.00273741,-0.000706535,0.194738,0.19880232991757119,0.14334479815468026,-0.002733666709665128,-0.06559031311079033,-0.0007062854629192872,-0.10554885980368633
230,0.2201,898.986,77.6245,0.00680925,264.311,-4.47854,-1.2629,0.182068,-0.06812,-0.112008,0.134531,-0.00274769,-0.000710432,0.19556,0.19969577041862308,0.14400012245650506,-0.0027439185548767675,-0.06585163095320934,-0.0007101797029368528,-0.10596289482509336
231,0.2211,899.355,77.1488,0.00319556,264.517,-4.61386,-1.20074,0.182813,-0.0684045,-0.112469,0.135104,-0.00276166,-0.000712756,0.196383,0.2005898767808505,0.14465582236675645,-0.0027578501250222764,-0.06611735836268684,-0.0007125020497806833,-0.10637495094434601
232,0.2221,900.176,77.8514,0.00440193,264.74,-4.45394,-1.2713,0.183557,-0.0686829,-0.112932,0.135677,-0.00277136,-0.000716888,0.197203,0.20148344801645646,0.14531189810071976,-0.0027675233269609523,-0.06637731510246148,-0.0007166310971915557,-0.10678860357408548
233,0.2231,900.479,77.2083,0.00466378,264.942,-4.6314,-1.18855,0.184301,-0.0689678,-0.113391,0.136249,-0.00278589,-0.00071892,0.198024,0.20237768431643488,0.14596720390602647,-0.002782013009579254,-0.0666432663188391,-0.0007186616389341927,-0.10719849352810418
234,0.2241,901.364,78.0991,0.00200315,265.167,-4.4235,-1.28205,0.185044,-0.0692448,-0.113853,0.136821,-0.00279486,-0.000723351,0.198844,0.20327138290379354,0.14662288465347717,-0.0027909580148041124,-0.06690177032961042,-0.0007230894447346481,-0.10761087255720347
235,0.2251,901.582,77.241,0.00601188,265.363,-4.65504,-1.17338,0.185787,-0.0695303,-0.114312,0.137393,-0.00281011,-0.000725017,0.199664,0.20416574575594626,0.14727894055760005,-0.0028061653367382755,-0.06716813184926507,-0.0007247542386807915,-0.10802038517636392
236,0.2261,902.553,78.3744,-0.00067688,265.59,-4.38548,-1.29602,0.186528,-0.0698056,-0.114773,0.137964,-0.00281814,-0.000729832,0.200482,0.20505836324748872,0.14793422389824795,-0.0028141727710807585,-0.0674249051161051,-0.0007295657374054576,-0.10843149301116095
237,0.2271,902.664,77.2404,0.00751614,265.781,-4.68643,-1.15437,0.18727,-0.070092,-0.11523,0.138535,-0.00283434,-0.000731036,0.201301,0.20595284836595806,0.1485898815125286,-0.002830327050631798,-0.06769195637971348,-0.0007307688582840477,-0.10883884673144018
238,0.2281,903.745,78.6848,-0.00400218,266.011,-4.33796,-1.31417,0.18801,-0.0703652,-0.115692,0.139105,-0.0028412,-0.000736344,0.202117,0.20684558374510065,0.14924476436887368,-0.0028371676111250688,-0.06794662814748309,-0.0007360729652858833,-0.10925046809239436
239,0.2291,904.13,78.3408,-0.0384136,266.21,-4.43502,-1.28634,0.188749,-0.0706466,-0.116151,0.139675,-0.00285405,-0.000739276,0.202934,0.20773777225453904,0.14990002061485308,-0.002849981071194607,-0.06820887106701312,-0.0007390028028247952,-0.1096592283098935
240,0.2301,904.615,78.112,0.0306929,266.415,-4.5169,-1.21792,0.189489,-0.0709278,-0.116608,0.140245,-0.00286691,-0.000741519,0.20375,0.20863182896619192,0.15055565046335917,-0.0028628043379842483,-0.06847085389595697,-0.0007412441427278038,-0.1100660210833273
241,0.2311,905.181,78.2857,-0.0194449,266.624,-4.48274,-1.24683,0.190227,-0.0712065,-0.117066,0.140814,-0.00287816,-0.00074504,0.204566,0.2095241284739886,0.15121050291632776,-0.0028740220683356466,-0.06873043489468378,-0.0007447625266130409,-0.11047351752186352
242,0.2321,905.681,78.1503,0.0198386,266.826,-4.53571,-1.20717,0.190965,-0.0714868,-0.117523,0.141384,-0.00289066,-0.000747605,0.20538,0.21041708674187443,0.15186687995267412,-0.0028864860651596214,-0.06899143317316525,-0.0007473256130100525,-0.11087993825014619
243,0.2331,906.297,78.4351,-0.0110832,267.034,-4.47529,-1.24321,0.191702,-0.0717646,-0.117981,0.141952,-0.00290152,-0.000751193,0.206194,0.21130949294609547,0.1525213261856222,-0.002897314659121575,-0.06925003143206843,-0.0007509109251736534,-0.11128706199997229
244,0.2341,906.764,78.2507,0.0134992,267.235,-4.53875,-1.20341,0.192439,-0.0720446,-0.118437,0.142521,-0.00291413,-0.00075374,0.207008,0.21220255709611235,0.15317729742634167,-0.0029098880447083753,-0.06951060494127381,-0.0007534560093623854,-0.1116922227160364
245,0.2351,907.411,78.6111,-0.0070595,267.443,-4.46032,-1.24341,0.193175,-0.0723215,-0.118894,0.143089,-0.00292469,-0.000757367,0.207821,0.21309506658133648,0.153832488187841,-0.002920417260696251,-0.06976822178606734,-0.0007570802700048729,-0.11209808662328868
246,0.2361,907.841,78.3507,0.00986176,267.641,-4.54176,-1.19802,0.193911,-0.0726014,-0.119349,0.143656,-0.00293751,-0.000759824,0.208633,0.21398823319533555,0.1544868967159292,-0.002933199739011183,-0.07002855722514512,-0.000759535406842482,-0.11250199009886619
247,0.2371,908.519,78.7966,-0.00529988,267.848,-4.44219,-1.24551,0.194645,-0.0728775,-0.119805,0.144224,-0.0029477,-0.000763539,0.209444,0.21487962766024937,0.15514283154111919,-0.002943359797940248,-0.07028528689733304,-0.000763247578273063,-0.11290659693401173
248,0.2381,908.906,78.4416,0.00814182,268.043,-4.54673,-1.19088,0.19538,-0.0731574,-0.120259,0.144791,-0.0029608,-0.000765857,0.210255,0.21577289242116549,0.15579798324455907,-0.0029564211543747776,-0.07054547763013874,-0.0007655638063807091,-0.11330924593076541
249,0.2391,909.621,78.9918,-0.00504607,268.251,-4.42087,-1.24933,0.196113,-0.0734325,-0.120715,0.145357,-0.00297057,-0.000769706,0.211065,0.21666438064182758,0.1564523500714181,-0.002966162222554969,-0.0708011354019038,-0.0007694098523238768,-0.11371348474116749
250,0.2401,909.958,78.5198,0.00766915,268.443,-4.55443,-1.18183,0.196846,-0.0737125,-0.121168,0.145924,-0.00298403,-0.000771835,0.211875,0.21755652256290725,0.15710824448240235,-0.0029795822076946754,-0.07106127466279522,-0.0007715372119857511,-0.11411488160932493
251,0.2411,910.718,79.1994,-0.00590788,268.651,-4.39575,-1.25498,0.197578,-0.0739865,-0.121623,0.14649,-0.00299327,-0.00077587,0.212684,0.21844810021503336,0.15776335312703682,-0.0029887946337936455,-0.07131576900622039,-0.0007755690906987578,-0.11451786765191563
252,0.2421,910.997,78.5823,0.0081206,268.84,-4.56562,-1.17065,0.19831,-0.0742667,-0.122075,0.147055,-0.0030072,-0.000777757,0.213492,0.21934033074092318,0.15841767424986442,-0.0030026829031523095,-0.07157594987470284,-0.0007774546254208925,-0.11491801513559308
253,0.2431,911.813,79.4225,-0.00770424,269.049,-4.36605,-1.26274,0.199041,-0.0745395,-0.12253,0.14762,-0.0030158,-0.000782034,0.214299,0.22023199438605134,0.15907236516858392,-0.00301125704321048,-0.07182918941213368,-0.0007817282911082302,-0.11532063583555108
254,0.2441,912.021,78.6256,0.00935488,269.233,-4.58115,-1.157,0.199772,-0.0748201,-0.122981,0.148186,-0.00303033,-0.000783616,0.215107,0.2211243100755973,0.1597285858201951,-0.0030257431844036287,-0.07208959760460654,-0.0007833090531637055,-0.11571953626997988
255,0.2451,912.906,79.6651,-0.0104144,269.444,-4.3308,-1.27301,0.200501,-0.0750914,-0.123436,0.14875,-0.00303814,-0.000788203,0.215913,0.22201483425426694,0.16038285722979184,-0.0030335295229436676,-0.07234130555104956,-0.0007878924496129702,-0.11612179236077658
256,0.2461,913.028,78.6455,0.0113436,269.624,-4.60208,-1.14042,0.201231,-0.0753727,-0.123886,0.149315,-0.00305342,-0.000789407,0.216719,0.22290723076837038,0.16103865879062185,-0.0030487630542280764,-0.07260221924256693,-0.0007890955002662903,-0.11651944807496817
257,0.2471,914.0,79.9316,-0.0141381,269.837,-4.28885,-1.28634,0.201959,-0.0756423,-0.12434,0.149878,-0.00306028,-0.000794384,0.217524,0.22379783137165576,0.16169250759668907,-0.0030556021162555513,-0.07285221198372338,-0.000794068560562522,-0.11692045720958066
258,0.2481,914.017,78.6371,0.0141322,270.011,-4.62965,-1.12033,0.202687,-0.0759245,-0.124788,0.150442,-0.0030765,-0.000795121,0.218329,0.22468908056823955,0.16234788697058433,-0.0030717724232476318,-0.07311381617541401,-0.0007948049750625685,-0.11731598823918477
259,0.2491,915.096,80.2275,-0.0190792,270.228,-4.2388,-1.30337,0.203414,-0.0761921,-0.125242,0.151005,-0.00308219,-0.000800585,0.219132,0.2255797532501036,0.1630024730796482,-0.0030774449287243044,-0.07336181773411699,-0.0008002646173324024,-0.11771663582664016
260,0.2501,915.421,79.8287,-0.0448374,270.411,-4.34789,-1.26655,0.204141,-0.0764688,-0.125693,0.151568,-0.00309464,-0.000803264,0.219935,0.2264710736864377,0.1636574278244527,-0.0030898565372724507,-0.07361818304937295,-0.0008029414698378368,-0.11811445590871072
261,0.2511,915.855,79.5803,0.025381,270.602,-4.43191,-1.19588,0.204867,-0.0767451,-0.126142,0.15213,-0.00310696,-0.000805335,0.220738,0.2273618149859018,0.1643115871004288,-0.003102138394583509,-0.07387410698787611,-0.00080501080480333,-0.11851033363680707
262,0.2521,916.374,79.74,-0.0225772,270.795,-4.39858,-1.22244,0.205593,-0.0770189,-0.126592,0.152692,-0.00311766,-0.000808674,0.22154,0.22825320319835019,0.1649661141172436,-0.003112805144635522,-0.0741276455463703,-0.0008083471113022878,-0.11890691474922788
263,0.2531,916.831,79.6067,0.0157978,270.983,-4.44802,-1.18367,0.206318,-0.0772943,-0.127041,0.153254,-0.00312954,-0.000811104,0.222341,0.22914400964898807,0.16562100908162547,-0.0031246480941631294,-0.07438259568454142,-0.0008107751440686872,-0.11930243674317298
264,0.2541,917.397,79.8731,-0.0143017,271.176,-4.38939,-1.21711,0.207042,-0.0775672,-0.127491,0.153816,-0.00313986,-0.000814503,0.223142,0.23003423213362728,0.16627627220041896,-0.0031349357947101364,-0.07463516220990918,-0.0008141713824720842,-0.11969866148938435
265,0.2551,917.828,79.7034,0.0101053,271.363,-4.44627,-1.17939,0.207766,-0.0778423,-0.127939,0.154377,-0.0031518,-0.00081693,0.223942,0.23092509937271832,0.16693073674926473,-0.0031468382925187166,-0.07488969506418586,-0.0008165964035353745,-0.12009294816222782
266,0.2561,918.419,80.0324,-0.0107888,271.556,-4.37279,-1.21566,0.208489,-0.0781145,-0.128388,0.154938,-0.00316185,-0.000820351,0.224741,0.23181538001723645,0.16758556855572881,-0.0031568566164517087,-0.07514147582027397,-0.0008200146041122958,-0.12048793774670541
267,0.2571,918.82,79.8033,0.00708973,271.74,-4.44366,-1.17388,0.209211,-0.0783893,-0.128835,0.155498,-0.00317394,-0.000822707,0.22554,0.2327050718617163,0.16823959958571644,-0.003168908377202184,-0.0753955920255528,-0.0008223686693847876,-0.12088099178441059
268,0.2581,919.436,80.1982,-0.0095366,271.933,-4.35379,-1.2158,0.209933,-0.0786608,-0.129283,0.156058,-0.0031837,-0.000826188,0.226338,0.23359540629565467,0.168893996975652,-0.003178637401178741,-0.07564658804806601,-0.0008258468006657749,-0.12127474889191336
269,0.2591,919.804,79.8976,0.00592968,272.115,-4.44212,-1.16705,0.210655,-0.0789355,-0.129729,0.156618,-0.00319598,-0.000828435,0.227136,0.23448638378316877,0.16954876093075466,-0.003190878292352206,-0.0759004730576266,-0.0008280919424655808,-0.12166657297064298
270,0.2601,920.446,80.37,-0.00970103,272.307,-4.33264,-1.21717,0.211375,-0.0792062,-0.130177,0.157177,-0.0032054,-0.000832011,0.227933,0.2353755340351722,0.1702027214530517,-0.003200268190052147,-0.07615059294431592,-0.0008316649748201232,-0.1220599782165972
271,0.2611,920.778,79.9841,0.00592946,272.487,-4.44215,-1.15888,0.212095,-0.0794809,-0.130623,0.157737,-0.00321793,-0.000834114,0.228729,0.2362653247058799,0.17085821849910787,-0.003212758012442918,-0.07640433952274583,-0.0008337662236193033,-0.12245145216113384
272,0.2621,921.452,80.5488,-0.0108564,272.68,-4.30907,-1.21971,0.212815,-0.0797506,-0.13107,0.158295,-0.00322694,-0.000837819,0.229525,0.23715575625655982,0.17151173970048883,-0.003221739025033643,-0.07665339968510398,-0.0008374681276576146,-0.12284362870403043
273,0.2631,921.743,80.0611,0.00675609,272.856,-4.44415,-1.14933,0.213534,-0.0800253,-0.131514,0.158854,-0.00323978,-0.000839742,0.23032,0.23804559110260115,0.17216679783467215,-0.0032345375757376615,-0.07690700816149154,-0.0008393895153590014,-0.12323299968613122
274,0.2641,922.453,80.7364,-0.0127915,273.049,-4.28269,-1.22353,0.214252,-0.080294,-0.131961,0.159412,-0.00324833,-0.000843612,0.231114,0.23893482703451063,0.17282104942708232,-0.0032430598840085256,-0.07715500992786906,-0.0008432562594393733,-0.1236248269553526
275,0.2651,922.696,80.1269,0.00825942,273.223,-4.44852,-1.13826,0.21497,-0.0805689,-0.132404,0.159969,-0.00326155,-0.000845319,0.231908,0.23982470166708514,0.17347449271867554,-0.003256236923656397,-0.07740866514913236,-0.00084496181854532,-0.12401297517583276
276,0.2661,923.451,80.9346,-0.0154394,273.417,-4.25305,-1.2288,0.215687,-0.0808365,-0.132851,0.160527,-0.00326955,-0.000849393,0.232701,0.24071397474448153,0.1741294742084536,-0.003264210841865345,-0.07765551756001277,-0.0008490323678791434,-0.12440445387392174
277,0.2671,923.638,80.1796,0.0103957,273.588,-4.45577,-1.12548,0.216403,-0.0811117,-0.133293,0.161084,-0.00328324,-0.000850841,0.233494,0.24160264405604703,0.17478364649565648,-0.0032778560614171726,-0.07790931183788585,-0.000850479137432858,-0.1247913815879853
278,0.2681,924.446,81.1455,-0.0188248,273.783,-4.21963,-1.23573,0.217119,-0.0813781,-0.133739,0.16164,-0.0032906,-0.000855164,0.234285,0.24249194988268474,0.17543700782072502,-0.0032851919094005755,-0.07815492408020897,-0.0008547984514752915,-0.12518163759823775
279,0.2691,924.567,80.2168,0.0131861,273.95,-4.46643,-1.11073,0.217835,-0.0816537,-0.13418,0.162197,-0.00330486,-0.000856305,0.235077,0.24338189268030286,0.1760919086070183,-0.0032994049612247167,-0.07840894957681122,-0.0008559384754999178,-0.12556734744078557
280,0.2701,925.44,81.3714,-0.0230369,274.146,-4.18184,-1.24463,0.218549,-0.0819186,-0.134626,0.162753,-0.00331146,-0.00086093,0.235867,0.24426998436267833,0.17674599752807363,-0.003305983163443882,-0.0786530467139751,-0.0008605595060983129,-0.12595725744743225
281,0.2711,925.483,80.2363,0.0166935,274.309,-4.48113,-1.09371,0.219264,-0.0821948,-0.135066,0.163309,-0.00332642,-0.000861705,0.236658,0.24515995552827463,0.17740045022368922,-0.0033208935944053497,-0.07890748760256838,-0.0008613338388646641,-0.12634175165922557
282,0.2721,926.433,81.6149,-0.0282167,274.508,-4.13899,-1.25581,0.219977,-0.0824582,-0.135511,0.163864,-0.00333212,-0.000866693,0.237447,0.24604807115216198,0.17805408884150165,-0.0033265746491208947,-0.07915007142064256,-0.0008663175301021342,-0.12673044308947978
283,0.2731,926.386,80.2352,0.0210091,274.666,-4.50061,-1.07407,0.22069,-0.0827352,-0.13595,0.164419,-0.00334792,-0.000867038,0.238237,0.24693682022828822,0.17870809032943424,-0.0033423219648373026,-0.07940511152617369,-0.0008666622311630512,-0.1271137242885848
284,0.2741,926.984,80.6733,-0.00838887,274.848,-4.39646,-1.12862,0.221402,-0.0830032,-0.136392,0.164974,-0.00335736,-0.000870405,0.239025,0.24782495538288618,0.17936245488893543,-0.003351730368910233,-0.07965179789883425,-0.0008700263074479242,-0.12749945476973312
285,0.2751,927.61,81.135,-0.00131745,275.032,-4.2892,-1.16726,0.222114,-0.0832707,-0.136834,0.165528,-0.00336647,-0.000873657,0.239812,0.24871372311488504,0.18001600270497375,-0.0033608097932896763,-0.07989795811749911,-0.0008732754728392189,-0.12788501479568204
286,0.2761,928.011,81.029,-0.0055838,275.208,-4.32443,-1.1471,0.222825,-0.0835407,-0.137275,0.166082,-0.00337751,-0.000876143,0.240599,0.24960187427234137,0.18066991268681254,-0.0033718126292138217,-0.08014635213410615,-0.000875759298789025,-0.12826953271172492
287,0.2771,928.58,81.3601,-0.00577508,275.388,-4.2502,-1.17444,0.223536,-0.0838082,-0.137716,0.166636,-0.00338692,-0.000879267,0.241386,0.25049065712981333,0.1813241850351477,-0.0033811908563323723,-0.08039238007720584,-0.0008788805580415282,-0.128653881092752
288,0.2781,928.947,81.1586,-0.00217921,275.561,-4.31006,-1.14181,0.224246,-0.0840782,-0.138156,0.167189,-0.00339823,-0.00088158,0.242172,0.2513788207571528,0.18197763797255662,-0.003392462551322195,-0.08064064061790388,-0.0008811915225181988,-0.12903718905113626
289,0.2791,929.519,81.5164,-0.00849613,275.741,-4.22795,-1.17506,0.224955,-0.0843451,-0.138596,0.167742,-0.00340745,-0.000884771,0.242957,0.2522663629375934,0.1826314523693744,-0.0034016512304576585,-0.08088598488827359,-0.0008843797055493319,-0.1294203283911176
290,0.2801,929.865,81.2592,9.94442e-05,275.911,-4.30207,-1.13435,0.225664,-0.0846149,-0.139035,0.168295,-0.00341889,-0.000886959,0.243742,0.25315453460856796,0.18328562842554308,-0.0034130522503535987,-0.08113392840046696,-0.0008865657681349504,-0.12980242898973593
291,0.2811,930.451,81.6688,-0.0109112,276.091,-4.20618,-1.17516,0.226373,-0.0848812,-0.139475,0.168847,-0.00342785,-0.000890235,0.244525,0.2540433362165435,0.18393898240154138,-0.0034219816294017713,-0.08137858985721502,-0.0008898388583841177,-0.13018523169820873
292,0.2821,930.773,81.3519,0.00186142,276.259,-4.29556,-1.1262,0.22708,-0.0851508,-0.139913,0.169399,-0.00343945,-0.000892296,0.245309,0.25493025834527727,0.18459269712849258,-0.0034335418673653306,-0.08162621680777671,-0.0008918980223042716,-0.13056612714453286
293,0.2831,931.377,81.8247,-0.0131984,276.438,-4.18308,-1.17557,0.227787,-0.0854163,-0.140353,0.169951,-0.00344811,-0.00089567,0.246092,0.2558178077496718,0.185246772805586,-0.0034421720955238877,-0.08187001268187988,-0.000895269007353483,-0.13094859389973268
294,0.2841,931.672,81.4383,0.00355105,276.605,-4.29013,-1.1174,0.228494,-0.0856859,-0.14079,0.170502,-0.00345989,-0.00089759,0.246874,0.2567059848733677,0.18590002373150472,-0.0034539114775914426,-0.08211750716270572,-0.0008971872865954911,-0.13132828639534566
295,0.2851,932.3,81.9853,-0.0155552,276.784,-4.15831,-1.17653,0.2292,-0.0859505,-0.141229,0.171053,-0.00346821,-0.000901078,0.247655,0.25759353256615847,0.18655363469786557,-0.0034622027065563943,-0.0823603467412174,-0.0009006721511286564,-0.1317095495842251
296,0.2861,932.563,81.5182,0.00536767,276.949,-4.28589,-1.10783,0.229906,-0.0862201,-0.141665,0.171604,-0.00348023,-0.00090284,0.248437,0.2584817070888652,0.1872076059031056,-0.003474181018890077,-0.08260770904579906,-0.0009024325625933693,-0.13208804170332855
297,0.2871,933.218,82.1515,-0.0181351,277.128,-4.13165,-1.17816,0.23061,-0.0864839,-0.142103,0.172154,-0.00348816,-0.000906461,0.249217,0.2593679901456871,0.18786074968442756,-0.0034820834373014975,-0.08284968521409297,-0.0009060502883351251,-0.1324681039013651
298,0.2881,933.445,81.5908,0.00743554,277.29,-4.28304,-1.09736,0.231315,-0.0867534,-0.142538,0.172704,-0.00350045,-0.000908043,0.249997,0.26025615762098786,0.1885142527936352,-0.003494330567237247,-0.08309682392049123,-0.0009076308537133704,-0.13284539820870667
299,0.2891,934.132,82.3239,-0.0210516,277.47,-4.1029,-1.1806,0.232018,-0.0870163,-0.142976,0.173253,-0.00350794,-0.00091182,0.250776,0.2611424291877509,0.1891669262608926,-0.0035017943667493556,-0.08333784608173123,-0.000911404418465267,-0.13322512875723036
300,0.2901,934.319,81.6553,0.00984503,277.629,-4.2818,-1.08586,0.232722,-0.087286,-0.143411,0.173803,-0.00352057,-0.000913198,0.251555,0.26203058605243346,0.18982114796481286,-0.0035143800596076913,-0.08358503652951277,-0.0009127811616014281,-0.13360209383037336
301,0.2911,935.044,82.5034,-0.0244001,277.81,-4.07184,-1.18397,0.233424,-0.0875478,-0.143848,0.174352,-0.00352756,-0.000917156,0.252332,0.2629168425634818,0.19047453911450507,-0.003521345469746917,-0.08382492256449725,-0.000916735540987812,-0.13398062699984792
302,0.2921,935.184,81.7109,0.0126712,277.966,-4.28241,-1.0732,0.234126,-0.0878177,-0.144282,0.174901,-0.00354058,-0.000918302,0.25311,0.2638037214450273,0.19112828907442303,-0.003534319537367492,-0.08407216485104962,-0.0009178804897528314,-0.13435639785955522
303,0.2931,935.952,82.6911,-0.0282702,278.147,-4.03821,-1.18842,0.234827,-0.0880784,-0.144719,0.175449,-0.00354702,-0.000922472,0.253887,0.2646899584435367,0.191781206259805,-0.0035407367556862246,-0.08431091611509345,-0.0009220466535047045,-0.1347346014701829
304,0.2941,936.039,81.7564,0.015983,278.301,-4.28512,-1.05926,0.235528,-0.0883486,-0.145151,0.175997,-0.00356049,-0.000923355,0.254664,0.26557681691198187,0.19243448134185948,-0.0035541589715633037,-0.0845583018822369,-0.0009229288389480672,-0.1351083153943281
305,0.2951,936.857,82.888,-0.032754,278.483,-4.00174,-1.19408,0.236228,-0.0886081,-0.145588,0.176544,-0.0035663,-0.000927768,0.255439,0.266463030822502,0.19308692142924944,-0.0035599483050816616,-0.08479582818252807,-0.0009273377563348006,-0.1354861904887792
306,0.2961,936.885,81.7909,0.0198484,278.634,-4.29021,-1.04387,0.236928,-0.0888787,-0.146019,0.177092,-0.00358031,-0.000928352,0.256214,0.26734986529993243,0.19374091223930834,-0.003573908332415665,-0.08504344892682425,-0.00092792121459917,-0.13585871565573826
307,0.2971,937.76,83.0951,-0.03795,278.818,-3.96214,-1.20112,0.237627,-0.0891369,-0.146455,0.177638,-0.0035854,-0.000933047,0.256988,0.26823605254213545,0.1943928727464126,-0.0035789801283145906,-0.08527966021212208,-0.0009326118469977773,-0.13623539913274718
308,0.2981,937.721,81.8132,0.0243362,278.965,-4.29799,-1.02689,0.238326,-0.089408,-0.146885,0.178185,-0.00360002,-0.000933293,0.257763,0.2691228594457673,0.19504638436693855,-0.003593547697135935,-0.08552760728549413,-0.0009328576175450243,-0.13660673806752743
309,0.2991,938.662,83.3138,-0.0439666,279.15,-3.9191,-1.20969,0.239024,-0.0896648,-0.147322,0.178731,-0.00360431,-0.000938311,0.258535,0.2700090164344713,0.19569905785645103,-0.0035978222716472885,-0.08576241364551629,-0.0009378709238871963,-0.13698395849432554
310,0.3001,938.915,82.9109,-0.0522433,279.305,-4.02549,-1.16616,0.239721,-0.0899305,-0.147754,0.179277,-0.00361523,-0.00094047,0.259308,0.27089452128151637,0.19635208780299296,-0.0036087029240196022,-0.08600529430408632,-0.000940027896695339,-0.1373567009060982
311,0.3011,939.288,82.7237,0.0113442,279.469,-4.08699,-1.10622,0.240418,-0.0901954,-0.148185,0.179823,-0.00362569,-0.000942273,0.26008,0.2717806435405832,0.1970054744012426,-0.003619125122478861,-0.08624737943603378,-0.0009418292002012496,-0.13772842005677643
312,0.3021,939.707,82.8168,-0.0258503,279.633,-4.06558,-1.12123,0.241115,-0.0904585,-0.148617,0.180369,-0.003635,-0.000945034,0.260852,0.27266738364215737,0.19765921784598506,-0.0036284013852428965,-0.08648775612756376,-0.0009445875960027994,-0.13810084093061126
313,0.3031,940.106,82.7533,0.00493005,279.795,-4.09063,-1.09353,0.24181,-0.0907224,-0.149048,0.180914,-0.00364497,-0.000947201,0.261623,0.27355219491008875,0.1983121200193927,-0.0036383351605611125,-0.08672880020155715,-0.0009467525467358184,-0.13847223942604514
314,0.3041,940.56,82.9205,-0.018121,279.959,-4.0517,-1.11268,0.242506,-0.0909848,-0.14948,0.181458,-0.00365399,-0.000949984,0.262393,0.2744388957738526,0.19896417915668807,-0.003647322302245848,-0.08696841112605624,-0.0009495329080545512,-0.1388443390393097
315,0.3051,940.946,82.8494,0.00060045,280.119,-4.07724,-1.08861,0.2432,-0.0912483,-0.14991,0.182003,-0.0036639,-0.000952178,0.263163,0.27532366334635583,0.1996177927278482,-0.0036571961083571303,-0.08720896325558958,-0.000951724822374822,-0.13921455637109204
316,0.3061,941.412,83.0442,-0.0153211,280.283,-4.03203,-1.10748,0.243894,-0.0915102,-0.150341,0.182547,-0.00367277,-0.000954938,0.263932,0.2762090451606718,0.20027056234432972,-0.0036660336298330876,-0.08744799192594221,-0.0009544821918091584,-0.13958547495859863
317,0.3071,941.784,82.9522,-0.00161681,280.442,-4.06211,-1.08312,0.244588,-0.0917734,-0.150771,0.18309,-0.00368268,-0.00095711,0.264701,0.2770950416432323,0.2009224862410024,-0.0036759072505160306,-0.08768814400906688,-0.0009566521163172359,-0.13995537367044386
318,0.3081,942.258,83.1697,-0.0143889,280.605,-4.01127,-1.1032,0.245281,-0.0920347,-0.151201,0.183634,-0.0036914,-0.000959867,0.265469,0.2779803752397505,0.20157596580384296,-0.0036845951587254344,-0.08792649995447677,-0.0009594064750305664,-0.14032511336003528
319,0.3091,942.618,83.0544,-0.00247061,280.763,-4.0468,-1.07706,0.245973,-0.0922976,-0.15163,0.184177,-0.00370132,-0.000961997,0.266236,0.27886504371940735,0.20222859872707732,-0.003694478558519676,-0.08816625256077781,-0.0009615344292284167,-0.14069383479000208
320,0.3101,943.099,83.2956,-0.0144151,280.926,-3.98989,-1.09934,0.246665,-0.0925584,-0.15206,0.184719,-0.00370988,-0.000964765,0.267003,0.27975032460151894,0.20288038324523594,-0.0037030068972818686,-0.08840402779487166,-0.0009642997638739104,-0.141063257009573
321,0.3111,943.447,83.1553,-0.00260295,281.083,-4.03152,-1.07054,0.247356,-0.0928209,-0.152488,0.185262,-0.00371982,-0.000966842,0.26777,0.28063493767443637,0.20353372465947905,-0.0037129100401747106,-0.08864329033299356,-0.0009663747588684046,-0.1414308032750614
322,0.3121,943.934,83.422,-0.0149782,281.245,-3.9679,-1.09574,0.248047,-0.0930812,-0.152917,0.185804,-0.00372821,-0.00096963,0.268535,0.2815201622262289,0.20418621674762716,-0.003721268853794202,-0.08888048561221495,-0.0009691600607328876,-0.14179905046578622
323,0.3131,944.27,83.2543,-0.00232109,281.4,-4.0163,-1.06365,0.248737,-0.0933435,-0.153344,0.186346,-0.00373818,-0.000971644,0.269301,0.2824047162742169,0.20483906258234352,-0.0037312017032283817,-0.08911944092048019,-0.0009711721068184076,-0.1421654240449115
324,0.3141,944.765,83.549,-0.0158634,281.561,-3.94529,-1.09234,0.249427,-0.0936032,-0.153773,0.186887,-0.0037464,-0.000974459,0.270065,0.28328988087511453,0.20549105686375158,-0.0037393909990922625,-0.08935596588757677,-0.0009739843690106387,-0.14253335615091656
325,0.3151,945.087,83.3513,-0.00177519,281.716,-4.0012,-1.05644,0.250116,-0.0938652,-0.154199,0.187428,-0.00375641,-0.000976404,0.270829,0.28417437227533426,0.20614340396949626,-0.0037493635178758034,-0.08959452337211915,-0.0009759274727213496,-0.1428985591474351
326,0.3161,945.591,83.677,-0.0169679,281.876,-3.92201,-1.08912,0.250805,-0.0941243,-0.154627,0.187969,-0.00376443,-0.000979254,0.271592,0.2850594733001204,0.20679610409050708,-0.003757353415940856,-0.08983037887471357,-0.0009787746872708114,-0.14326532007168347
327,0.3171,945.899,83.4462,-0.00103616,282.029,-3.98624,-1.04891,0.251493,-0.0943861,-0.155053,0.188509,-0.00377449,-0.000981123,0.272355,0.2859438984251075,0.2074479499692632,-0.003767375566554043,-0.09006863009307886,-0.0009806418561960628,-0.14363021131797926
328,0.3181,946.412,83.8059,-0.0182451,282.19,-3.89806,-1.08606,0.25218,-0.0946446,-0.15548,0.189049,-0.00378232,-0.000984013,0.273118,0.2868276454156584,0.20810014793985032,-0.003775176037464467,-0.0903038169529885,-0.0009835290179691647,-0.1439958031583337
329,0.3191,946.705,83.5389,-0.000134787,282.341,-3.97144,-1.04108,0.252867,-0.0949061,-0.155906,0.189589,-0.00379244,-0.0009858,0.273879,0.2877119997489901,0.20875269819244902,-0.003785257781669271,-0.09054167140403047,-0.0009853142588076569,-0.1443603832851077
330,0.3201,947.228,83.9359,-0.0196772,282.501,-3.87339,-1.08317,0.253554,-0.0951641,-0.156332,0.190128,-0.00380005,-0.000988737,0.27464,0.2885969618424904,0.2094043915123469,-0.0037928389470112123,-0.09077628138681904,-0.000988248360630939,-0.14472480813382427
331,0.3211,947.506,83.6293,0.000918253,282.651,-3.95685,-1.03292,0.25424,-0.0954254,-0.156757,0.190668,-0.00381025,-0.000990434,0.275401,0.2894812426319471,0.2100576462466679,-0.003803000208231433,-0.09101383050734846,-0.0009899436821350083,-0.14508822285926815
332,0.3221,948.04,84.0671,-0.0212604,282.811,-3.848,-1.08046,0.254925,-0.0956827,-0.157183,0.191206,-0.00381763,-0.000993425,0.276161,0.2903648398806571,0.21070883241372051,-0.0038103521149612796,-0.0912476825624019,-0.0009929317167448604,-0.1454523377143594
333,0.3231,948.301,83.7172,0.00212234,282.96,-3.94247,-1.02444,0.25561,-0.0959438,-0.157606,0.191745,-0.00382791,-0.000995027,0.276921,0.29124904260083273,0.21136158037416397,-0.00382059289190384,-0.09148492681889941,-0.0009945321247862848,-0.14581373493460548
334,0.3241,948.848,84.1997,-0.0229985,283.119,-3.82185,-1.07794,0.256294,-0.0962005,-0.158032,0.192283,-0.00383505,-0.000998077,0.277679,0.292132559074159,0.21201346824651912,-0.0038277055874782473,-0.09171811270749564,-0.0009975790868167467,-0.14617754078737488
335,0.3251,949.09,83.8026,0.00348175,283.267,-3.92835,-1.01562,0.256978,-0.0964615,-0.158455,0.192821,-0.00384544,-0.000999576,0.278438,0.29301668007947956,0.21266570692890907,-0.0038380557638479917,-0.09195514334623511,-0.0009990765903232779,-0.14653863131159173
336,0.3261,949.652,84.3337,-0.0248988,283.426,-3.79493,-1.07564,0.257661,-0.0967175,-0.15888,0.193358,-0.00385233,-0.00100269,0.279195,0.29390011212967626,0.2133170832924305,-0.0038449192959988387,-0.09218757307726355,-0.0010021874743550985,-0.14690127532597275
337,0.3271,949.874,83.8853,0.00500304,283.571,-3.91451,-1.00645,0.258343,-0.0969783,-0.159302,0.193896,-0.00386283,-0.00100408,0.279953,0.2947828529865657,0.21397002350841077,-0.0038553788694333235,-0.09242429968771315,-0.0010035760803495108,-0.14726120703685264
338,0.3281,950.451,84.4692,-0.02697,283.73,-3.76721,-1.07355,0.259025,-0.0972336,-0.159726,0.194432,-0.00386944,-0.00100727,0.280709,0.295666196078058,0.21462088585653794,-0.0038619633636172157,-0.09265597418949445,-0.001006762873858813,-0.1476226916449166
339,0.3291,950.652,83.9654,0.00669369,283.875,-3.90097,-0.996922,0.259707,-0.0974943,-0.160147,0.194969,-0.00388008,-0.00100855,0.281465,0.2965501418150176,0.21527331243310055,-0.003872562215941122,-0.09289248794611549,-0.0010080415843839452,-0.1479814669642303
340,0.3301,951.246,84.6062,-0.029222,284.034,-3.73867,-1.07169,0.260388,-0.097749,-0.160571,0.195505,-0.0038864,-0.00101182,0.28222,0.29743339317454676,0.2159248735313397,-0.003878857721454021,-0.09312349880895343,-0.001011308282746981,-0.1483426462468186
341,0.3311,951.425,84.0428,0.00856129,284.176,-3.88774,-0.987022,0.261068,-0.0980095,-0.160992,0.196041,-0.00389719,-0.00101297,0.282976,0.29831594791650984,0.21657678395993973,-0.0038896058105931663,-0.09335970936975235,-0.0010124571190818221,-0.14870111852903856
342,0.3321,952.038,84.745,-0.0316642,284.335,-3.70931,-1.07007,0.261748,-0.0982634,-0.161415,0.196577,-0.0039032,-0.00101633,0.28373,0.29919910299979047,0.2172290439061919,-0.003895592416072513,-0.09358987611863812,-0.001015813711586877,-0.1490611418056096
343,0.3331,952.192,84.1173,0.0106132,284.476,-3.87485,-0.976743,0.262428,-0.0985239,-0.161835,0.197112,-0.00391415,-0.00101734,0.284484,0.30008285883275954,0.21788043567644322,-0.003906499699618093,-0.0938259652039708,-0.0010168226851055007,-0.14941846108375023
344,0.3341,952.825,84.8854,-0.0343063,284.635,-3.67911,-1.06869,0.263106,-0.0987771,-0.162258,0.197647,-0.00391984,-0.0010208,0.285237,0.30096461389223594,0.21853217603453046,-0.0039121674555100405,-0.09405537942451514,-0.0010202791609192907,-0.1497781809885882
345,0.3351,952.954,84.189,0.012856,284.774,-3.86231,-0.966079,0.263785,-0.0990375,-0.162677,0.198182,-0.00393098,-0.00102167,0.28599,0.3018482688319706,0.21918426516699818,-0.003923263812157685,-0.09429125669116001,-0.0010211482728983423,-0.1501343493082803
346,0.3361,953.609,85.0276,-0.0371571,284.933,-3.64805,-1.06758,0.264463,-0.09929,-0.163099,0.198716,-0.00393632,-0.00102524,0.286741,0.3027312212452835,0.21983548342439718,-0.0039285828477271245,-0.09451991927897885,-0.0010247146210330405,-0.1504929169497785
347,0.3371,953.711,84.2579,0.0152956,285.071,-3.85014,-0.955024,0.26514,-0.0995503,-0.163517,0.19925,-0.00394766,-0.00102596,0.287493,0.3036134688891974,0.2204870495252116,-0.003939878233552685,-0.0947555850707571,-0.0010254338829795984,-0.15084793670619523
348,0.3381,954.388,85.1716,-0.0402247,285.23,-3.61614,-1.06673,0.265817,-0.099802,-0.163939,0.199783,-0.00395265,-0.00102964,0.288244,0.30449631401699184,0.22113774251688634,-0.0039448485611592865,-0.0949834064174756,-0.0010291101026186356,-0.1512062032773419
349,0.3391,954.462,84.3238,0.0179368,285.366,-3.83834,-0.943577,0.266493,-0.100062,-0.164356,0.200317,-0.0039642,-0.0010302,0.288995,0.3053784516541955,0.2217900042097627,-0.003956352931720586,-0.0952186801448971,-0.0010296695261603483,-0.15156007650287984
350,0.3401,955.164,85.3173,-0.0435163,285.525,-3.58338,-1.06614,0.267169,-0.100313,-0.164778,0.20085,-0.00396881,-0.00103401,0.289744,0.3062611858180455,0.22244139186139456,-0.003960944682349532,-0.09544575175750114,-0.0010334755958688602,-0.15191804261443376
351,0.3411,955.208,84.3869,0.0207833,285.659,-3.8269,-0.931736,0.267844,-0.100574,-0.165194,0.201383,-0.0039806,-0.0010344,0.290494,0.30714320976806664,0.22309312679518745,-0.003972687913585293,-0.09568180960940276,-0.0010338651927374043,-0.15227077133604527
352,0.3421,955.936,85.4649,-0.047038,285.818,-3.54976,-1.06582,0.268518,-0.100824,-0.165615,0.201915,-0.00398481,-0.00103834,0.291242,0.30802452126005986,0.22374398545169427,-0.003976881179742264,-0.09590786089941183,-0.0010378011115548258,-0.1526275902256663
353,0.3431,955.949,84.4471,0.0238373,285.95,-3.81584,-0.919503,0.269193,-0.101084,-0.166031,0.202447,-0.00399685,-0.00103855,0.291991,0.30890773586330433,0.22439519045712708,-0.003988873225900691,-0.09614289429991185,-0.0010380108935945653,-0.15298002383685871
354,0.3441,956.705,85.6142,-0.0507944,286.11,-3.5153,-1.06577,0.269866,-0.101333,-0.166451,0.202979,-0.00400065,-0.00104263,0.292738,0.30978892725718454,0.22504674199579267,-0.00399265806099125,-0.09636792670153449,-0.0010420866501955617,-0.1533356975301432
355,0.3451,956.684,84.5045,0.0270997,286.24,-3.80513,-0.906883,0.270539,-0.101594,-0.166866,0.20351,-0.00401297,-0.00104266,0.293486,0.3106707118924763,0.22569741455406778,-0.004004928795856011,-0.09660374389718274,-0.0010421166189324982,-0.1536869903173731
356,0.3461,957.47,85.7652,-0.0547885,286.401,-3.48001,-1.06597,0.271212,-0.101842,-0.167286,0.204041,-0.00401633,-0.00104689,0.294232,0.31155309016856525,0.22634843271121996,-0.004008275333673095,-0.096827758389751,-0.0010463422018420765,-0.15404236714708153
357,0.3471,957.415,84.5592,0.0305696,286.529,-3.79478,-0.893884,0.271884,-0.102103,-0.1677,0.204572,-0.00402893,-0.00104673,0.294979,0.3124347500497,0.2269997966508106,-0.004020824750342378,-0.0970634555849893,-0.0010461823692440309,-0.15439252112020896
358,0.3481,958.231,85.9179,-0.0590218,286.69,-3.44391,-1.06643,0.272555,-0.10235,-0.16812,0.205102,-0.00403185,-0.00105111,0.295723,0.3133156892890452,0.22765027890560652,-0.004023733005288022,-0.09728645337009956,-0.0010505577773831654,-0.1547476016891992
359,0.3491,958.14,84.6112,0.0342444,286.816,-3.78475,-0.880516,0.273227,-0.102611,-0.168533,0.205633,-0.00404475,-0.00105074,0.296469,0.314198534034859,0.22830233430909375,-0.004036581016262475,-0.09752203086157007,-0.0010501881660210932,-0.15509661885269643
360,0.3501,958.988,86.0721,-0.0634935,286.977,-3.40703,-1.06712,0.273897,-0.102857,-0.168952,0.206162,-0.0040472,-0.0010553,0.297213,0.3150793420904112,0.2289522781389295,-0.004039021123649844,-0.09774401313703873,-0.0010547433667772443,-0.1554505592137133
361,0.3511,958.861,84.6607,0.0381196,287.101,-3.77502,-0.866794,0.274567,-0.103118,-0.169364,0.206692,-0.00406043,-0.00105472,0.297957,0.31596074048510236,0.22960379548318843,-0.0040521976002377835,-0.09797947122099337,-0.001054163978360334,-0.15579844191455994
362,0.3521,959.742,86.2278,-0.068201,287.263,-3.3694,-1.06805,0.275236,-0.103364,-0.169783,0.207221,-0.0040624,-0.00105944,0.2987,0.316841412772521,0.23025442796811846,-0.004054159615475839,-0.0982013409799738,-0.001058878991578971,-0.15615208827331173
363,0.3531,959.927,85.7807,-0.0587899,287.396,-3.48405,-1.01349,0.275905,-0.103619,-0.170197,0.20775,-0.00407155,-0.00106095,0.299443,0.3177226744268209,0.23090540472868604,-0.004063272478224023,-0.09843127032078702,-0.0010603873915328021,-0.15650136900266687
364,0.3541,960.244,85.6145,0.000385948,287.537,-3.5344,-0.958365,0.276573,-0.103873,-0.170611,0.208279,-0.00407995,-0.00106231,0.300185,0.3186032072385543,0.23155672594706078,-0.004071638311598624,-0.09866023969778359,-0.0010617459484821845,-0.15685050515972854
365,0.3551,960.591,85.6643,-0.028088,287.679,-3.51968,-0.965345,0.277241,-0.104125,-0.171026,0.208807,-0.00408744,-0.00106445,0.300927,0.3194843284427069,0.23220715959773375,-0.004079097787091923,-0.09888734870044358,-0.0010638836740584079,-0.15720033960441915
366,0.3561,960.939,85.635,-0.00340552,287.819,-3.53026,-0.943899,0.277909,-0.104378,-0.17144,0.209335,-0.00409528,-0.00106619,0.301668,0.3203660384324567,0.23285793676805544,-0.004086905776357952,-0.09911530136399449,-0.0010656218213886959,-0.1575491864475438
367,0.3571,961.315,85.7469,-0.0205938,287.96,-3.50074,-0.95441,0.278576,-0.10463,-0.171853,0.209863,-0.00410252,-0.00106834,0.302409,0.32124701635356634,0.2335090576394523,-0.004094116161058481,-0.09934229570556252,-0.0010677695279929234,-0.1578970467954346
368,0.3581,961.656,85.7233,-0.00679557,288.099,-3.50867,-0.937592,0.279242,-0.104882,-0.172267,0.21039,-0.00411026,-0.00107012,0.303149,0.32212725995504066,0.23415928823354082,-0.004101824442768298,-0.09956923285176333,-0.001069547625780709,-0.15824560526148035
369,0.3591,962.039,85.8486,-0.0181603,288.24,-3.4763,-0.946808,0.279908,-0.105134,-0.17268,0.210917,-0.00411737,-0.00107224,0.303888,0.32300808999401553,0.23480986158946227,-0.004108905253624173,-0.0997961128170084,-0.0010716653560949307,-0.1585931780477865
370,0.3601,962.374,85.8191,-0.00855452,288.378,-3.48514,-0.931042,0.280573,-0.105386,-0.173092,0.211444,-0.00412505,-0.00107401,0.304627,0.3238881829723437,0.23546077788789965,-0.0041165536678619,-0.10002293561570552,-0.0010734334576825155,-0.1589397662563573
371,0.3611,962.758,85.9513,-0.017291,288.518,-3.45113,-0.939914,0.281238,-0.105637,-0.173505,0.21197,-0.00413207,-0.0010761,0.305366,0.3247688614071449,0.23611080119821204,-0.0041235447451164475,-0.10024880151151028,-0.0010755212120248103,-0.1592870524133656
372,0.3621,963.088,85.9156,-0.00930081,288.656,-3.46119,-0.924173,0.281902,-0.105889,-0.173917,0.212496,-0.00413969,-0.00107785,0.306103,0.3256488000384148,0.23676116651072454,-0.004131133294793088,-0.10047551024702894,-0.0010772693283331858,-0.15963335480458019
373,0.3631,963.473,86.0533,-0.0170931,288.796,-3.4257,-0.933234,0.282566,-0.106139,-0.174329,0.213022,-0.0041466,-0.00107992,0.306841,0.32652932314295935,0.23741187400537744,-0.004138014724886618,-0.1007003632616692,-0.001079337096245525,-0.15997951454859682
374,0.3641,963.799,86.0118,-0.00958629,288.933,-3.437,-0.917087,0.283229,-0.106391,-0.17474,0.213547,-0.00415416,-0.00108164,0.307578,0.3274091036992306,0.23806168579990095,-0.004145543413036856,-0.10092695821796371,-0.0010810552383080374,-0.16032469202928612
375,0.3651,964.184,86.1548,-0.0172028,289.071,-3.40006,-0.926611,0.283892,-0.106641,-0.175152,0.214073,-0.00416098,-0.0010837,0.308314,0.3282894677434154,0.2387130775476427,-0.004152335117270978,-0.10115169838471783,-0.00108311300921482,-0.16067056700103333
376,0.3661,964.506,86.1077,-0.0096583,289.207,-3.4126,-0.909868,0.284554,-0.106892,-0.175562,0.214597,-0.00416848,-0.0010854,0.30905,0.32916908649274346,0.23936233329042622,-0.00415980394674953,-0.10137728099662113,-0.0010848111664791826,-0.1610146215325644
377,0.3671,964.891,86.2557,-0.0174514,289.346,-3.37422,-0.919982,0.285216,-0.107142,-0.175973,0.215122,-0.00417521,-0.00108744,0.309785,0.33004928774247033,0.24001316934491923,-0.004166505928716702,-0.101601908596752,-0.001086848951385888,-0.16135937367169684
378,0.3681,965.209,86.2031,-0.00963023,289.481,-3.388,-0.902558,0.285877,-0.107392,-0.176383,0.215646,-0.00418265,-0.00108911,0.31052,0.33092874094893165,0.240663106514323,-0.0041739149023511946,-0.1018264800470019,-0.0010885171349552802,-0.16170314585037915
379,0.3691,965.594,86.356,-0.0177621,289.619,-3.34816,-0.913319,0.286538,-0.107642,-0.176793,0.21617,-0.00418927,-0.00109114,0.311254,0.331808775666131,0.24131338434004745,-0.004180507249213816,-0.1020509953614065,-0.0010905449232072595,-0.1620467771113583
380,0.3701,965.908,86.2981,-0.00955407,289.753,-3.36319,-0.895178,0.287198,-0.107892,-0.177203,0.216694,-0.00419665,-0.00109278,0.311987,0.3326880595898474,0.2419640030006438,-0.004187856369952114,-0.102275454553998,-0.001092183133370228,-0.1623902675123987
381,0.3711,966.294,86.4559,-0.0180998,289.89,-3.32191,-0.906611,0.287858,-0.108141,-0.177612,0.217217,-0.00420318,-0.00109479,0.31272,0.33356792403250357,0.2426137200604146,-0.00419435900201881,-0.10249896013821402,-0.001094190936064332,-0.16273277984443957
382,0.3721,966.604,86.3927,-0.00945387,290.024,-3.33817,-0.887737,0.288517,-0.108391,-0.178021,0.21774,-0.0042105,-0.0010964,0.313453,0.33444703492966665,0.24326377701108126,-0.004201648272632141,-0.10272330735360913,-0.0010957991731223027,-0.16307515211758072
383,0.3731,966.989,86.5553,-0.0184479,290.16,-3.29547,-0.899849,0.289176,-0.10864,-0.17843,0.218263,-0.00421693,-0.00109841,0.314185,0.33532672535184327,0.24391417403045335,-0.004208051235448207,-0.10294670143636053,-0.0010978069685481096,-0.16341738438909437
384,0.3741,967.296,86.4868,-0.00934111,290.293,-3.31295,-0.880243,0.289834,-0.108889,-0.178838,0.218785,-0.00422419,-0.00109999,0.314917,0.3362056594747389,0.24456366673214447,-0.004215280658753429,-0.10317003990091012,-0.0010993852327662035,-0.1637586404752881
385,0.3751,967.681,86.6542,-0.0187984,290.429,-3.26884,-0.89303,0.290492,-0.109137,-0.179247,0.219307,-0.00423052,-0.00110198,0.315648,0.3370851721266026,0.24521349855752939,-0.004221583956076969,-0.10339242615397948,-0.001101373043011722,-0.16410059325722293
386,0.3761,967.984,86.5805,-0.00922162,290.561,-3.28751,-0.872699,0.291149,-0.109387,-0.179654,0.219829,-0.00423772,-0.00110353,0.316378,0.3379639257236371,0.2458636696836769,-0.004228753534861962,-0.10361655003078907,-0.001102921334683593,-0.16444073509220847
387,0.3771,968.369,86.7525,-0.0191468,290.697,-3.24203,-0.886151,0.291806,-0.109634,-0.180062,0.22035,-0.00424395,-0.00110551,0.317108,0.33884325685148275,0.24651293377419115,-0.004234957170403009,-0.10383792940145364,-0.0011048991489412963,-0.16478157373647928
388,0.3781,968.669,86.6738,-0.00909877,290.828,-3.26187,-0.865109,0.292462,-0.109883,-0.180469,0.220871,-0.00425109,-0.00110703,0.317837,0.33972182616720636,0.24716253621943052,-0.004242066907427122,-0.10406104597786614,-0.0011064174683407257,-0.165121438468804
389,0.3791,969.053,86.8503,-0.0194904,290.963,-3.21505,-0.879212,0.293118,-0.110131,-0.180876,0.221392,-0.00425722,-0.00110899,0.318566,0.34060097201348216,0.2478124771957233,-0.00424817088484819,-0.10428321128882645,-0.0011083752978438,-0.16546116490432794
390,0.3801,969.35,86.7668,-0.00897479,291.094,-3.23602,-0.857476,0.293773,-0.110379,-0.181282,0.221913,-0.0042643,-0.00111048,0.319295,0.3414793532886147,0.2484627568794906,-0.004255220782841684,-0.104505321509621,-0.001109863645255782,-0.1657999188996625
391,0.3811,969.734,86.9476,-0.0198274,291.227,-3.1879,-0.872209,0.294428,-0.110626,-0.181689,0.222433,-0.00427033,-0.00111244,0.320022,0.3423583100919474,0.24911212633449376,-0.004261225105757327,-0.10472648138083973,-0.0011118214680043703,-0.1661393692498383
392,0.3821,970.027,86.8593,-0.00885145,291.358,-3.20995,-0.849803,0.295083,-0.110874,-0.182094,0.222953,-0.00427735,-0.0011139,0.32075,0.34323784280057446,0.2497618335494236,-0.004268215167421929,-0.10494848168428172,-0.0011132798436803704,-0.1664770144275285
393,0.3831,970.411,87.0443,-0.020156,291.491,-3.16059,-0.865142,0.295736,-0.111121,-0.1825,0.223472,-0.00428329,-0.00111584,0.321476,0.34411526355862243,0.2504106282887073,-0.004274129796657311,-0.10516953210845448,-0.0011152176820378168,-0.16681535607166953
394,0.3841,970.701,86.9515,-0.0087303,291.62,-3.18367,-0.842093,0.29639,-0.111369,-0.182905,0.223992,-0.00429024,-0.00111727,0.322203,0.344994602453466,0.25106101090024113,-0.00428105006740731,-0.10539142254893974,-0.0011166460862551686,-0.16715272753012878
395,0.3851,971.084,87.1404,-0.0204748,291.753,-3.13312,-0.85801,0.297042,-0.111615,-0.183311,0.224511,-0.00429608,-0.0011192,0.322928,0.3458718248777002,0.2517104800875738,-0.004286865049095145,-0.10561146919214592,-0.001118573929267952,-0.1674907948904335
396,0.3861,971.371,87.0434,-0.00861282,291.882,-3.15718,-0.834348,0.297695,-0.111862,-0.183715,0.225029,-0.00430297,-0.0011206,0.323654,0.3467509661877435,0.2523590340772408,-0.004293725488960676,-0.10583235587862672,-0.0011199723622854485,-0.16782706067903486
397,0.3871,971.754,87.236,-0.0207823,292.014,-3.1055,-0.85081,0.298347,-0.112108,-0.18412,0.225548,-0.00430872,-0.00112251,0.324378,0.347629334134532,0.25300917711345106,-0.004299450783578962,-0.10605229406557437,-0.0011218802213163181,-0.16816402248008933
398,0.3881,972.038,87.135,-0.0085004,292.142,-3.13047,-0.826571,0.298998,-0.112355,-0.184524,0.226066,-0.00431554,-0.00112388,0.325103,0.3485069264563607,0.2536584040024432,-0.004306241438168379,-0.10627307188175739,-0.0011232486834029665,-0.1685000163396777
399,0.3891,972.42,87.331,-0.0210772,292.273,-3.07774,-0.843543,0.299649,-0.112601,-0.184928,0.226583,-0.00432119,-0.00112578,0.325826,0.34938509027679343,0.25430671297074037,-0.004311867092011812,-0.10649290166590242,-0.001125146547427458,-0.16883587448516302
400,0.3901,972.702,87.2262,-0.00839441,292.401,-3.10355,-0.818764,0.300299,-0.112847,-0.185331,0.227101,-0.00432795,-0.00112713,0.32655,0.35026247570484625,0.2549566121574165,-0.004318597921040057,-0.10671267737857171,-0.0011264950275694519,-0.169170766142544
401,0.3911,973.083,87.4253,-0.021358,292.532,-3.04984,-0.836206,0.300949,-0.113093,-0.185735,0.227618,-0.00433351,-0.00112901,0.327272,0.35114043161881514,0.25560559247285797,-0.004324133894245574,-0.10693239903306495,-0.0011283729079936133,-0.1695063533598401
402,0.3921,973.362,87.3172,-0.00829616,292.659,-3.07641,-0.81093,0.301598,-0.113339,-0.186137,0.228135,-0.0043402,-0.00113033,0.327994,0.3520176063713538,0.25625490839787024,-0.004330794943508631,-0.10715206664267907,-0.0011296914176711637,-0.16984014470923303
403,0.3931,973.742,87.5191,-0.0216235,292.789,-3.0218,-0.8288,0.302247,-0.113584,-0.18654,0.228652,-0.00434566,-0.0011322,0.328716,0.3528953505950807,0.25690456010600804,-0.0043362312825270255,-0.1073707875919413,-0.0011315593034016969,-0.1701746317272541
404,0.3941,974.019,87.4079,-0.00820692,292.915,-3.04905,-0.803071,0.302896,-0.11383,-0.186942,0.229168,-0.00435228,-0.00113348,0.329437,0.35377366465970184,0.25755329021699724,-0.0043428225548587385,-0.10759034737123352,-0.0011328378541874962,-0.17050815448273438
405,0.3951,974.398,87.6123,-0.0218725,293.044,-2.99364,-0.821322,0.303544,-0.114074,-0.187345,0.229684,-0.00435765,-0.00113534,0.330157,0.35465119428329284,0.25820235515910284,-0.004348169219545839,-0.10780806876338489,-0.0011346957453812756,-0.1708423723470549
406,0.3961,974.672,87.4984,-0.00812787,293.17,-3.02148,-0.795189,0.304191,-0.11432,-0.187746,0.230199,-0.0043642,-0.0011366,0.330878,0.3555279372017439,0.25885049625401657,-0.004354690717679466,-0.10802752098473922,-0.0011359543148717899,-0.1711747978999658
407,0.3971,975.051,87.7049,-0.0221038,293.299,-2.96536,-0.813773,0.304838,-0.114563,-0.188148,0.230715,-0.00436949,-0.00113844,0.331597,0.356405247556409,0.25950023072716144,-0.0043599576674344664,-0.10824424396423149,-0.0011377922230249027,-0.17150791866944926
408,0.3981,975.322,87.5886,-0.00806011,293.424,-2.99368,-0.787286,0.305485,-0.114809,-0.188549,0.23123,-0.00437596,-0.00113967,0.332316,0.35728312571453835,0.26014904040013653,-0.004366399437669255,-0.1084635888996831,-0.0011390208227849419,-0.17184007739178797
409,0.3991,975.7,87.7968,-0.0223163,293.552,-2.93696,-0.806152,0.30613,-0.115052,-0.18895,0.231744,-0.00438116,-0.00114149,0.333035,0.3581588557231914,0.2607969234985945,-0.0043715767189312915,-0.10868020592754568,-0.0011408387481126603,-0.17217210294518126
410,0.4001,975.969,87.6786,-0.00800465,293.677,-2.96568,-0.779364,0.306776,-0.115297,-0.18935,0.232259,-0.00438756,-0.0011427,0.333753,0.35903650979573243,0.26144640114033413,-0.004377948720449831,-0.10889855252854264,-0.0011420473669665476,-0.1725031678866007
411,0.4011,976.346,87.8882,-0.0225092,293.804,-2.90845,-0.798458,0.307421,-0.11554,-0.189751,0.232773,-0.00439267,-0.0011445,0.33447,0.35991337110192223,0.2620949512536208,-0.004383036336133017,-0.10911506387308445,-0.0011438453096631607,-0.1728349275940112
412,0.4021,976.613,87.7683,-0.0079624,293.928,-2.93746,-0.771425,0.308066,-0.115785,-0.190151,0.233287,-0.004399,-0.00114569,0.335187,0.36079079816609205,0.2627438348073525,-0.004389338571566426,-0.10933330394693475,-0.0011450339477799831,-0.17316572745859005
413,0.4031,976.988,87.9789,-0.0226815,294.055,-2.87983,-0.790692,0.30871,-0.116028,-0.190551,0.2338,-0.00440402,-0.00114747,0.335904,0.3616674296851625,0.26339178858054124,-0.004394336524541909,-0.10954970965971667,-0.0011468119080372263,-0.1734963950296835
414,0.4041,977.254,87.8579,-0.00793416,294.178,-2.90902,-0.76347,0.309353,-0.116272,-0.19095,0.234314,-0.00441027,-0.00114863,0.33662,0.36254326339281095,0.26404133887999803,-0.0044005590404931905,-0.1097669530257912,-0.0011479705770633952,-0.17382610418671562
415,0.4051,977.628,88.069,-0.0228327,294.305,-2.8511,-0.782854,0.309996,-0.116514,-0.191349,0.234827,-0.00441521,-0.00115039,0.337335,0.36341966044262874,0.2646899584435367,-0.004405477289583515,-0.10998236335745759,-0.0011497285550881031,-0.1741556818160357
416,0.4061,977.891,87.9472,-0.00792058,294.427,-2.88038,-0.7555,0.310639,-0.116758,-0.191748,0.235339,-0.00442138,-0.00115153,0.33805,0.36429662119696093,0.26533764549599637,-0.0044116200888379975,-0.11019950116890809,-0.0011508672437485767,-0.17448512797011262
417,0.4071,978.263,88.1584,-0.022962,294.553,-2.82228,-0.774944,0.311281,-0.117,-0.192147,0.235852,-0.00442623,-0.00115327,0.338765,0.3651727808449228,0.2659869302354321,-0.00441644868077129,-0.11041480683658866,-0.0011526052397274889,-0.1748144427013948
418,0.4081,978.526,88.0363,-0.00792219,294.675,-2.85152,-0.747516,0.311923,-0.117244,-0.192544,0.236364,-0.00443233,-0.00115439,0.339479,0.36604950316797824,0.26663528150747484,-0.004422521721911488,-0.1106318391447022,-0.0011537239481831385,-0.17514197634791162
419,0.4091,978.896,88.2473,-0.023069,294.8,-2.79335,-0.766962,0.312564,-0.117485,-0.192943,0.236875,-0.0044371,-0.00115611,0.340192,0.3669254216013753,0.2672826975370328,-0.0044272706151567975,-0.11084615104584694,-0.0011554419623004408,-0.1754710290489695
420,0.4101,979.157,88.1252,-0.00793938,294.922,-2.82246,-0.739519,0.313205,-0.117729,-0.19334,0.237387,-0.00444311,-0.0011572,0.340905,0.3678019016784757,0.2679317124118019,-0.004433253989280295,-0.11106307811881255,-0.0011565307022752824,-0.17579830208244152
421,0.4111,979.526,88.3355,-0.0231535,295.046,-2.76432,-0.758909,0.313845,-0.11797,-0.193738,0.237898,-0.0044478,-0.0011589,0.341618,0.36867757508114907,0.2685797910868435,-0.004437923186369819,-0.11127728610388699,-0.001158228734729816,-0.1761262690884492
422,0.4121,979.786,88.2139,-0.00797242,295.167,-2.7932,-0.731509,0.314485,-0.118213,-0.194134,0.238409,-0.00445373,-0.00115997,0.34233,0.36955380909417657,0.269228201014716,-0.00444382685198097,-0.11149321948639523,-0.0011592974948533286,-0.1764524584961248
423,0.4131,980.152,88.4231,-0.0232153,295.291,-2.7352,-0.750787,0.315124,-0.118454,-0.194532,0.238919,-0.00445835,-0.00116165,0.343041,0.37042923364654423,0.26987567248842526,-0.0044484263108761635,-0.11170732381989046,-0.0011609755458239501,-0.17678016519968354
424,0.4141,980.411,88.3024,-0.0080214,295.412,-2.76374,-0.723487,0.315763,-0.118696,-0.194928,0.23943,-0.00446419,-0.0011627,0.343752,0.3713052177739662,0.2705247447809138,-0.004454240315089564,-0.11192226463863808,-0.0011620243262490115,-0.17710609571576297
425,0.4151,980.776,88.5101,-0.0232543,295.535,-2.70598,-0.742596,0.316402,-0.118937,-0.195324,0.239939,-0.00446873,-0.00116435,0.344463,0.3721817618341252,0.27117160648834604,-0.004458760082578617,-0.11213626558471035,-0.001163672407549221,-0.17743189718891028
426,0.4161,981.033,88.3906,-0.00808629,295.655,-2.73408,-0.715453,0.31704,-0.119179,-0.19572,0.240449,-0.00447448,-0.00116539,0.345173,0.3730574931267525,0.2718200693516297,-0.004464484428250648,-0.11235110261211001,-0.0011647111967897361,-0.17775756967021628
427,0.4171,981.396,88.5965,-0.0232708,295.778,-2.67668,-0.734338,0.317677,-0.119419,-0.196116,0.240958,-0.00447894,-0.00116701,0.345882,0.3739324093811167,0.2724675905470939,-0.004468924506748739,-0.11256411278523992,-0.0011663293086469073,-0.17808311321075165
428,0.4181,981.653,88.4787,-0.0081669,295.897,-2.70423,-0.707407,0.318314,-0.119661,-0.196511,0.241468,-0.00448461,-0.00116803,0.346591,0.3748078831346797,0.2731167145308191,-0.004474569151944219,-0.11277884628614432,-0.0011673481184714118,-0.17840770626968383
429,0.4191,982.013,88.6824,-0.0232651,296.019,-2.64728,-0.726014,0.318951,-0.119901,-0.196906,0.241976,-0.004489,-0.00116963,0.3473,0.37568391474268137,0.2737636221224171,-0.004478939498992696,-0.11299175381311044,-0.001168946249435976,-0.17873217113967677
430,0.4201,982.269,88.5666,-0.0082629,296.138,-2.67419,-0.699349,0.319587,-0.120142,-0.1973,0.242485,-0.00449458,-0.00117062,0.348008,0.3765591280007723,0.2744121328380531,-0.004484494491011848,-0.1132054970433477,-0.0011699350916896112,-0.17905568692745244
431,0.4211,982.627,88.7676,-0.0232375,296.26,-2.61779,-0.717627,0.320222,-0.120382,-0.197695,0.242993,-0.0044989,-0.0011722,0.348715,0.3774335206373334,0.2750596986693299,-0.004488795108706367,-0.11341830218641868,-0.001171513241945421,-0.17937989589562953
432,0.4221,982.883,88.6542,-0.00837385,296.378,-2.64397,-0.691278,0.320858,-0.120623,-0.198089,0.243501,-0.00450438,-0.00117318,0.349422,0.3783098469987023,0.27570759354761964,-0.004494250495161389,-0.11363194263088416,-0.001172492093382882,-0.1797031565301198
433,0.4231,983.238,88.8523,-0.0231886,296.499,-2.58821,-0.709177,0.321492,-0.120862,-0.198483,0.244008,-0.00450863,-0.00117473,0.350129,0.37918397251020686,0.27635454128494175,-0.004498481385606157,-0.1138437592834971,-0.001174040274820265,-0.18002628982500768
434,0.4241,983.493,88.7416,-0.00849915,296.616,-2.61357,-0.683193,0.322126,-0.121103,-0.198877,0.244516,-0.00451402,-0.00117569,0.350835,0.3800586523930025,0.2770030941103847,-0.004503847124330718,-0.11405729720515667,-0.0011749991472813637,-0.18034929583045511
435,0.4251,983.846,88.9365,-0.0231192,296.737,-2.55854,-0.700668,0.32276,-0.121341,-0.19927,0.245023,-0.0045182,-0.00117721,0.35154,0.3809338869986725,0.27765069883302385,-0.0045080082895528895,-0.11426812647874318,-0.0011765173601288037,-0.18067135526836897
436,0.4261,984.101,88.8288,-0.0086381,296.854,-2.583,-0.675095,0.323393,-0.121582,-0.199663,0.245529,-0.0045235,-0.00117816,0.352245,0.38180829487003676,0.2782973536765114,-0.0045132843831273695,-0.11448156214023153,-0.0011774662419865578,-0.1809932881617915
437,0.4271,984.451,89.0201,-0.02303,296.974,-2.52877,-0.692101,0.324026,-0.12182,-0.200056,0.246036,-0.0045276,-0.00117965,0.35295,0.38268325641680345,0.2789456147551226,-0.0045173658702942765,-0.11469229045077844,-0.0011789544864531099,-0.1813150945604447
438,0.4281,984.706,88.9157,-0.00878987,297.09,-2.55227,-0.666981,0.324659,-0.12206,-0.200448,0.246542,-0.00453281,-0.00118058,0.353654,0.3835587719895599,0.2795929249918674,-0.004522552321307383,-0.11490473880624785,-0.0011798833895935168,-0.18163595615039663
439,0.4291,985.054,89.1032,-0.022922,297.21,-2.49892,-0.683479,0.325291,-0.122298,-0.200841,0.247048,-0.00453685,-0.00118205,0.354357,0.38443345750496616,0.28024056285047316,-0.004526574042072129,-0.11511536641273257,-0.0011813516540857272,-0.18195751003015348
440,0.4301,985.308,89.0023,-0.00895354,297.326,-2.52137,-0.658852,0.325922,-0.122538,-0.201232,0.247553,-0.00454196,-0.00118296,0.355061,0.38530731068833646,0.28088724760887085,-0.004531660898281831,-0.11532771324215474,-0.0011822605786422358,-0.1822773021203039
441,0.4311,985.653,89.1858,-0.0227962,297.445,-2.46897,-0.674804,0.326553,-0.122776,-0.201624,0.248058,-0.00454593,-0.0011844,0.355763,0.3861817154470695,0.28153425902554563,-0.004535612899743358,-0.1155382401927022,-0.001183698875151462,-0.18259778659881098
442,0.4321,985.907,89.0887,-0.00912809,297.56,-2.49032,-0.650706,0.327184,-0.123015,-0.202015,0.248563,-0.00455094,-0.0011853,0.356465,0.3870566721293185,0.28218159726550196,-0.004540600163829622,-0.1157496012946384,-0.001184597809417931,-0.18291732838975971
443,0.4331,986.25,89.2679,-0.0226536,297.678,-2.43893,-0.666079,0.327814,-0.123252,-0.202407,0.249068,-0.00455485,-0.00118671,0.357167,0.38793079315197065,0.2828292624938269,-0.004544492402473677,-0.11595914380736294,-0.001186006138142126,-0.18323756202713737
444,0.4341,986.504,89.1749,-0.00931245,297.793,-2.45912,-0.642542,0.328443,-0.123491,-0.202797,0.249572,-0.00455977,-0.0011876,0.357868,0.3888040762396021,0.28347597139907843,-0.004549390031522882,-0.11617040432535553,-0.001186895082201045,-0.18355603727123748
445,0.4351,986.843,89.3495,-0.0224955,297.911,-2.4088,-0.657306,0.329072,-0.123728,-0.203188,0.250076,-0.00456361,-0.00118897,0.358569,0.38967790879508524,0.2841230063277691,-0.004553212554525898,-0.11637984711957894,-0.0011882634552174975,-0.18387520445941297
446,0.4361,987.098,89.2607,-0.00950545,298.026,-2.42778,-0.634359,0.329701,-0.123967,-0.203578,0.25058,-0.00456842,-0.00118985,0.359269,0.3905522911641439,0.2847703674442563,-0.004558000642058135,-0.11659100710149439,-0.0011891424091589053,-0.18419343107145092
447,0.4371,987.434,89.4306,-0.0223232,298.143,-2.37858,-0.648488,0.330329,-0.124204,-0.203968,0.251084,-0.0045722,-0.00119119,0.359969,0.3914258322661919,0.2854180549129801,-0.004561763405704133,-0.11680035022467128,-0.0011904808148113233,-0.18451153359930816
448,0.4381,987.689,89.3462,-0.00970588,298.257,-2.39631,-0.626155,0.330957,-0.124442,-0.204357,0.251587,-0.00457692,-0.00119205,0.360668,0.3922999221243433,0.2860647828330376,-0.004566461863092508,-0.11701052672932166,-0.001191339790628465,-0.18482869692047266
449,0.4391,988.022,89.5114,-0.0221378,298.373,-2.34825,-0.639627,0.331584,-0.124678,-0.204747,0.25209,-0.00458063,-0.00119337,0.361366,0.39317316790946055,0.28671183613906637,-0.0045701549146683895,-0.11721888765745703,-0.0011926582171898348,-0.18514655174295447
450,0.4401,988.277,89.4314,-0.00991251,298.487,-2.36471,-0.61793,0.332211,-0.124916,-0.205136,0.252592,-0.00458525,-0.00119422,0.362065,0.3940469613913702,0.28735792763620593,-0.00457475378992922,-0.11742896456205121,-0.0011935072030694327,-0.1854634680901005
451,0.4411,988.608,89.5916,-0.0219407,298.603,-2.31783,-0.630727,0.332838,-0.125152,-0.205525,0.253095,-0.0045889,-0.0011955,0.362762,0.39492130291358585,0.2880056315576871,-0.004578387085447111,-0.1176372267505098,-0.0011947856745619934,-0.18578026118076263
452,0.4421,988.863,89.5163,-0.0101241,298.716,-2.33298,-0.609681,0.333464,-0.12539,-0.205913,0.253597,-0.00459342,-0.00119634,0.36346,0.39579479702434117,0.2886523727031747,-0.004582886380969042,-0.11784720410224714,-0.0011956246705896456,-0.1860961171594021
453,0.4431,989.19,89.6715,-0.0217332,298.831,-2.28732,-0.62179,0.334089,-0.125626,-0.206302,0.254098,-0.00459701,-0.00119759,0.364157,0.39666744144545674,0.28929814929542785,-0.0045864599219924695,-0.11805536759782032,-0.0011968731752785011,-0.18641266419743652
454,0.4441,989.446,89.6009,-0.0103393,298.944,-2.30114,-0.601409,0.334714,-0.125863,-0.20669,0.2546,-0.00460143,-0.00119841,0.364853,0.3975406314398091,0.28994553944770685,-0.004590859640116185,-0.11826436370868221,-0.0011976921935067386,-0.1867282748513016
455,0.4451,989.771,89.751,-0.0215167,299.059,-2.2567,-0.612818,0.335339,-0.126098,-0.207078,0.255101,-0.00460495,-0.00119964,0.365549,0.39841436734848856,0.29059196407881926,-0.004594363474123564,-0.11847154723819253,-0.0011989207195898244,-0.18704376307198656
456,0.4461,990.026,89.6851,-0.0105569,299.171,-2.26918,-0.593112,0.335963,-0.126335,-0.207465,0.255602,-0.00460927,-0.00120045,0.366244,0.3992872502248481,0.29123871264981194,-0.004598663617184973,-0.1186804447261669,-0.0011997297481363134,-0.18735831626570887
457,0.4471,990.348,89.8301,-0.0212924,299.285,-2.22599,-0.603815,0.336587,-0.12657,-0.207852,0.256103,-0.00461273,-0.00120164,0.366939,0.4001606779500979,0.29188578532301945,-0.004602107699850588,-0.11888753048812628,-0.0012009183197507767,-0.18767274775089726
458,0.4481,990.604,89.769,-0.0107756,299.397,-2.23712,-0.584788,0.33721,-0.126806,-0.208239,0.256603,-0.00461695,-0.00120244,0.367633,0.4010332498303788,0.2925318897283218,-0.004606308270092896,-0.11909544849564113,-0.0012017173586964525,-0.18798705757464396
459,0.4491,990.923,89.9089,-0.0210617,299.511,-2.19517,-0.594782,0.337833,-0.127041,-0.208626,0.257103,-0.00462035,-0.0012036,0.368327,0.40190636549231185,0.29317831726660315,-0.0046096926028914575,-0.11930243674317298,-0.001202875964032346,-0.18830124578402274
460,0.4501,991.179,89.8525,-0.0109942,299.622,-2.20496,-0.576437,0.338455,-0.127277,-0.209012,0.257603,-0.00462447,-0.00120438,0.369021,0.40277862249545415,0.29382506809947073,-0.004613793602509908,-0.11951025684436511,-0.0012036550254852507,-0.18861450104099609
461,0.4511,991.495,89.9873,-0.0208258,299.735,-2.16426,-0.585722,0.339077,-0.127512,-0.209398,0.258102,-0.0046278,-0.00120551,0.369714,0.40365142221121864,0.294470847917117,-0.004617108233058276,-0.11971714762338803,-0.0012047836647174348,-0.18892763540477409
462,0.4521,991.751,89.9356,-0.0112114,299.846,-2.17271,-0.568057,0.339699,-0.127747,-0.209784,0.258601,-0.00463182,-0.00120628,0.370406,0.4045247649772772,0.2951169500593054,-0.0046211096642403415,-0.11992398978879015,-0.001205552736737947,-0.18924064892201253
463,0.4531,992.064,90.0653,-0.020586,299.958,-2.13325,-0.576637,0.34032,-0.127982,-0.210169,0.2591,-0.0046351,-0.00120738,0.371098,0.4053972457335644,0.29576337468691616,-0.004624374501646322,-0.12013078335199445,-0.0012066514100256276,-0.1895527311924856
464,0.4541,992.321,90.0184,-0.0114262,300.069,-2.14037,-0.559649,0.340941,-0.128217,-0.210554,0.259599,-0.00463902,-0.00120814,0.37179,0.40627026846866787,0.29641012196090966,-0.004628276366450579,-0.12033752832442102,-0.0012074104926821372,-0.1898646933344108
465,0.4551,992.631,90.1431,-0.0203434,300.181,-2.10213,-0.56753,0.341561,-0.128451,-0.21094,0.260097,-0.00464223,-0.00120921,0.372481,0.4071424263761316,0.29705589498578333,-0.004631471504555229,-0.12054334526127242,-0.0012084792001810785,-0.1901773452170884
466,0.4561,992.888,90.1008,-0.0116375,300.291,-2.10795,-0.551211,0.342181,-0.128686,-0.211324,0.260595,-0.00464605,-0.00120996,0.373172,0.4080151251891615,0.2977019896857136,-0.004635273805071671,-0.12074999329304126,-0.001209228293540754,-0.19048825741756203
467,0.4571,993.196,90.2205,-0.0200991,300.402,-2.07092,-0.558402,0.3428,-0.128919,-0.211709,0.261093,-0.0046492,-0.001211,0.373862,0.40888695635556194,0.29834840622093495,-0.004638409199020921,-0.12095483467965573,-0.0012102670354032785,-0.1907998594512158
468,0.4581,993.453,90.1827,-0.0118441,300.512,-2.07545,-0.542742,0.343419,-0.129154,-0.212093,0.26159,-0.00465292,-0.00121173,0.374551,0.40975932735251464,0.2989938457572656,-0.004642111937251614,-0.1211613860227726,-0.0012109961516422185,-0.19111053265211442
469,0.4591,993.758,90.2976,-0.0198541,300.623,-2.0396,-0.549257,0.344037,-0.129387,-0.212477,0.262087,-0.004656,-0.00121274,0.375241,0.4106308278827451,0.2996396061567739,-0.004645177634825748,-0.12136613156604714,-0.0012120049280266443,-0.1914210865774063
470,0.4601,994.015,90.2643,-0.0120452,300.732,-2.04288,-0.534243,0.344655,-0.129621,-0.21286,0.262584,-0.00465963,-0.00121346,0.375929,0.4115028671667611,0.30028568757896834,-0.004648790766273003,-0.12157170783789883,-0.0012127240551241814,-0.19173071300400157
471,0.4611,994.318,90.3745,-0.0196096,300.842,-2.00819,-0.540095,0.345273,-0.129854,-0.213244,0.263081,-0.00466265,-0.00121443,0.376618,0.4123754455376152,0.3009320901834367,-0.004651796722385915,-0.12177635778732765,-0.0012136928783119671,-0.19204102882575702
472,0.4621,994.575,90.3455,-0.0122399,300.951,-2.01024,-0.525712,0.34589,-0.130088,-0.213627,0.263577,-0.00466617,-0.00121514,0.377305,0.41324715008070934,0.30157751255168286,-0.004655300341895097,-0.12198183807747387,-0.0012144020163382674,-0.19235041785993479
473,0.4631,994.875,90.451,-0.0193662,301.061,-1.97668,-0.530918,0.346506,-0.130321,-0.214009,0.264073,-0.00466913,-0.00121609,0.377993,0.4141179785127793,0.3022232551288291,-0.004658246557845636,-0.12218639247768881,-0.0012153508622056997,-0.19265888108008622
474,0.4641,995.132,90.4262,-0.0124273,301.169,-1.97754,-0.517149,0.347123,-0.130554,-0.214392,0.264569,-0.00467256,-0.00121678,0.37868,0.4149907585304691,0.3028693180737383,-0.004661660574204918,-0.12239089922228052,-0.0012160400233758306,-0.19296803352216074
475,0.4651,995.429,90.5273,-0.0191248,301.278,-1.94507,-0.521728,0.347738,-0.130787,-0.214774,0.265064,-0.00467545,-0.0012177,0.379366,0.41586124549427006,0.30351439803030233,-0.004664537097849308,-0.12259535832235158,-0.0012169589041962636,-0.19327626085818594
476,0.4661,995.687,90.5066,-0.0126068,301.386,-1.94477,-0.508555,0.348354,-0.13102,-0.215156,0.265559,-0.00467878,-0.00121838,0.380052,0.4167336847051839,0.30415979738048815,-0.004667851559422176,-0.12279976978900187,-0.0012176380764333805,-0.1935843704738548
477,0.4671,995.982,90.6033,-0.0188862,301.495,-1.91336,-0.512527,0.348969,-0.131252,-0.215538,0.266054,-0.00468161,-0.00121927,0.380737,0.4176052438982589,0.304805516282435,-0.004670668345416518,-0.12300325663702372,-0.00121852699233993,-0.193892362414128
478,0.4681,996.24,90.5865,-0.0127777,301.602,-1.91195,-0.499929,0.349583,-0.131485,-0.215919,0.266549,-0.00468484,-0.00121993,0.381422,0.4184759207884643,0.30545155489435993,-0.004673883253965672,-0.12320757307443797,-0.0012191861878945165,-0.19419943092378256
479,0.4691,996.531,90.6791,-0.018651,301.711,-1.88156,-0.503315,0.350197,-0.131716,-0.216301,0.267043,-0.00468761,-0.00122079,0.382107,0.4193471324384346,0.30609660727729815,-0.004676640303490576,-0.1234100887335986,-0.0012200451390250722,-0.1945071879558341
480,0.4701,996.79,90.666,-0.0129394,301.818,-1.87908,-0.491271,0.350811,-0.131949,-0.216681,0.267537,-0.00469074,-0.00122144,0.382791,0.4202188791766135,0.30674197839483486,-0.004679755660730867,-0.12361431039017678,-0.0012206943457847563,-0.19481321707519572
481,0.4711,997.079,90.7546,-0.0184198,301.925,-1.84967,-0.494095,0.351424,-0.13218,-0.217062,0.268031,-0.00469344,-0.00122227,0.383475,0.42108974024119483,0.3073876684044634,-0.004682443021762683,-0.12381673210386868,-0.0012215233322644403,-0.19511993480605205
482,0.4721,997.337,90.7451,-0.0130915,302.032,-1.84616,-0.482582,0.352037,-0.132412,-0.217442,0.268524,-0.00469648,-0.00122291,0.384158,0.4219611353072634,0.30803236943073187,-0.004685468782536728,-0.12401998304399986,-0.0012221625502849554,-0.19542573112584516
483,0.4731,997.624,90.8298,-0.0181929,302.139,-1.81768,-0.484866,0.352649,-0.132644,-0.217823,0.269017,-0.00469912,-0.00122371,0.384841,0.4228316418699094,0.3086773883729661,-0.0046880964094306865,-0.12422318683538236,-0.001222961572235226,-0.19573221553329911
484,0.4741,997.882,90.8237,-0.0132337,302.245,-1.8132,-0.473862,0.353261,-0.132875,-0.218202,0.26951,-0.00470206,-0.00122433,0.385523,0.4237026813456264,0.3093227253879376,-0.004691022622125618,-0.1244254679148592,-0.0012235808138071347,-0.19603697526799435
485,0.4751,998.167,90.9048,-0.0179709,302.352,-1.78561,-0.475632,0.353872,-0.133106,-0.218582,0.270003,-0.00470463,-0.00122511,0.386205,0.4245728294871154,0.30996838063249443,-0.004693580562910582,-0.12462770227280329,-0.001224359859110291,-0.19634242317861395
486,0.4761,998.425,90.902,-0.0133655,302.458,-1.78019,-0.465111,0.354484,-0.133337,-0.218961,0.270495,-0.00470748,-0.00122571,0.386886,0.4254449348957965,0.31061304364986375,-0.004696417182163737,-0.12482988992000599,-0.0012249591243145286,-0.19664695168843138
487,0.4771,998.708,90.9796,-0.0177539,302.564,-1.75344,-0.466391,0.355094,-0.133568,-0.219341,0.270987,-0.00470998,-0.00122646,0.387567,0.42631472156404615,0.3112580239194753,-0.004698905438010548,-0.12503203086725612,-0.0012257082053143131,-0.19695216785204595
488,0.4781,998.966,90.9798,-0.0134867,302.669,-1.74714,-0.45633,0.355704,-0.133799,-0.219719,0.271479,-0.00471275,-0.00122705,0.388247,0.42718503896402016,0.3119033215974556,-0.004701662418224006,-0.12523412512534038,-0.0012262974819726713,-0.1972556625684827
489,0.4791,999.246,91.0541,-0.0175424,302.775,-1.7212,-0.457145,0.356314,-0.134029,-0.220098,0.271971,-0.00471518,-0.00122777,0.388927,0.42805588741956346,0.31254893684000784,-0.004704080990245774,-0.12543529814077792,-0.0012270165987795512,-0.19755984502615243
490,0.4801,999.504,91.0572,-0.0135973,302.88,-1.71406,-0.447519,0.356923,-0.13426,-0.220476,0.272462,-0.00471785,-0.00122834,0.389607,0.4289258383281662,0.313193556609199,-0.004706738426801915,-0.12563729925488043,-0.0012275858992178978,-0.19786311008402568
491,0.4811,999.782,91.1284,-0.0173363,302.985,-1.68887,-0.447895,0.357532,-0.13449,-0.220854,0.272953,-0.00472021,-0.00122904,0.390286,0.42979631919822947,0.31383849296441246,-0.004709087316127514,-0.12583837955093136,-0.0012282850396629907,-0.19816626052937014
492,0.4821,1000.04,91.1342,-0.0136972,303.09,-1.68094,-0.43868,0.358141,-0.13472,-0.221232,0.273443,-0.00472279,-0.0012296,0.390964,0.4306673303525974,0.31448243157804123,-0.004711655163369688,-0.1260394136038323,-0.0012288443516668135,-0.19846929640550115
493,0.4831,1000.32,91.2024,-0.0171358,303.195,-1.65646,-0.438641,0.358749,-0.13495,-0.221609,0.273934,-0.00472508,-0.00123026,0.391642,0.43153744057615584,0.3151280009262516,-0.004713934371069706,-0.1262404014242181,-0.001229503540411958,-0.19877141652753494
494,0.4841,1000.57,91.2108,-0.0137862,303.299,-1.64779,-0.429812,0.359356,-0.13518,-0.221987,0.274424,-0.00472757,-0.0012308,0.39232,0.43240664758022307,0.3157725715536124,-0.0047164126302876586,-0.1264413430227208,-0.0012300428763344362,-0.19907422369792682
495,0.4851,1000.85,91.2762,-0.0169409,303.403,-1.62398,-0.429384,0.359964,-0.135409,-0.222364,0.274914,-0.00472979,-0.00123144,0.392997,0.4332778156302024,0.31641745809797395,-0.004718622157399044,-0.12664136505177226,-0.001230682088902424,-0.19937611580535486
496,0.4861,1001.1,91.287,-0.0138646,303.507,-1.6146,-0.420918,0.36057,-0.135639,-0.22274,0.275403,-0.00473219,-0.00123197,0.393674,0.4341466452152498,0.3170613436521712,-0.004721010829839445,-0.12684221443924537,-0.0012312114365007343,-0.19967709379840337
497,0.4871,1001.38,91.3498,-0.0167517,303.611,-1.59142,-0.420124,0.361177,-0.135868,-0.223117,0.275893,-0.00473435,-0.00123258,0.39435,0.4350174364873096,0.3177068618496035,-0.004723160630134227,-0.12704214467925257,-0.0012318206852759417,-0.19997875866664083
498,0.4881,1001.63,91.3628,-0.0139323,303.714,-1.58139,-0.411998,0.361783,-0.136097,-0.223493,0.276382,-0.00473666,-0.00123309,0.395026,0.4358873206020868,0.3183513780764222,-0.004725459716977798,-0.12724202914047666,-0.0012323300569174744,-0.20027951010856782
499,0.4891,1001.9,91.4231,-0.0165679,303.817,-1.55879,-0.410862,0.362388,-0.136326,-0.223869,0.27687,-0.00473874,-0.00123368,0.395702,0.4367562952693822,0.3189948905531972,-0.004727529885868553,-0.12744186783339984,-0.0012329193296688468,-0.20058014848920946
500,0.4901,1002.16,91.4382,-0.0139895,303.92,-1.54816,-0.403052,0.362993,-0.136554,-0.224244,0.277359,-0.00474096,-0.00123417,0.396377,0.43762579582541683,0.31964003678007447,-0.004729739388299681,-0.12764078840972648,-0.00123340872541855,-0.20087987473134317
501,0.4911,1002.43,91.4962,-0.0163896,304.023,-1.5261,-0.401598,0.363598,-0.136783,-0.22462,0.277847,-0.00474298,-0.00123473,0.397051,0.43849582258844944,0.32028417827576483,-0.0047317498321955975,-0.12784053579723176,-0.0012339680345530013,-0.20118028741731997
502,0.4921,1002.68,91.5132,-0.0140364,304.125,-1.5149,-0.394082,0.364202,-0.137012,-0.224995,0.278335,-0.00474511,-0.00123521,0.397725,0.4393649365112753,0.3209286341892168,-0.0047338697513107375,-0.12804023744782256,-0.0012344474421333018,-0.20147978864954774
503,0.4931,1002.95,91.5691,-0.0162165,304.228,-1.49334,-0.392333,0.364806,-0.13724,-0.22537,0.278822,-0.00474705,-0.00123574,0.398399,0.4402345755374759,0.3215720831011599,-0.00473580056573053,-0.12823902161142864,-0.0012349767877358753,-0.2017791775898693
504,0.4941,1003.21,91.5878,-0.0140733,304.33,-1.48161,-0.38509,0.365409,-0.137468,-0.225745,0.27931,-0.0047491,-0.0012362,0.399072,0.4411032988802899,0.3222171676655452,-0.004737840855248088,-0.12843776045741184,-0.0012354362195409196,-0.2020784542803865
505,0.4951,1003.47,91.6417,-0.0160485,304.432,-1.46052,-0.383066,0.366012,-0.137696,-0.226119,0.279797,-0.00475097,-0.00123671,0.399745,0.44197254622124915,0.32286124424611606,-0.004739701993745515,-0.12863645399610346,-0.001235945589338483,-0.202376821140405
506,0.4961,1003.73,91.662,-0.0141003,304.533,-1.44831,-0.376075,0.366615,-0.137924,-0.226493,0.280284,-0.00475293,-0.00123715,0.400417,0.4428423178764198,0.32350563456837156,-0.004741652702017873,-0.12883510223783223,-0.0012363850454257808,-0.20267507643208238
507,0.4971,1003.99,91.7141,-0.0158853,304.635,-1.42765,-0.373798,0.367217,-0.138151,-0.226867,0.28077,-0.00475473,-0.00123764,0.401089,0.4437111704501666,0.3241490146354644,-0.00474344416543071,-0.1290328342261945,-0.0012368744394771758,-0.20297322019713748
508,0.4981,1004.24,91.7358,-0.0141179,304.736,-1.41499,-0.36704,0.367819,-0.138379,-0.227241,0.281256,-0.00475661,-0.00123806,0.40176,0.44458054623063203,0.3247927074612642,-0.004745315245996862,-0.12923139210353274,-0.001237293919901905,-0.2032712524772733
509,0.4991,1004.51,91.7862,-0.0157266,304.837,-1.39472,-0.364529,0.36842,-0.138606,-0.227614,0.281742,-0.00475833,-0.00123852,0.402431,0.4454490000831588,0.3254367131978082,-0.004747027082582456,-0.12942903414430496,-0.0012377533506410243,-0.20356837688295282
510,0.5001,1004.76,91.8093,-0.0141263,304.938,-1.38165,-0.357985,0.369021,-0.138833,-0.227987,0.282228,-0.00476013,-0.00123893,0.403102,0.44631797603332557,0.3260810319972085,-0.004748818536321364,-0.12962663132542562,-0.0012381628430782055,-0.20386539048189567
511,0.5011,1005.02,91.8581,-0.0155723,305.039,-1.36174,-0.355259,0.369621,-0.13906,-0.22836,0.282713,-0.00476178,-0.00123937,0.403772,0.4471860272082564,0.32672433728664974,-0.0047504606994159815,-0.12982418365707682,-0.0012386022981898392,-0.20416229331542513
512,0.5021,1005.27,91.8824,-0.0141258,305.139,-1.34829,-0.348912,0.370222,-0.139287,-0.228732,0.283199,-0.00476349,-0.00123975,0.404441,0.4480560474254962,0.3273692820234477,-0.004752162574673147,-0.13002169114943807,-0.0012389818274488595,-0.20445828988353665
513,0.5031,1005.53,91.9297,-0.0154219,305.239,-1.32871,-0.345989,0.370821,-0.139514,-0.229105,0.283683,-0.00476507,-0.00124017,0.40511,0.4489236928317606,0.3280118842531421,-0.004753735065013975,-0.130219153812687,-0.001239401306988408,-0.20475497160682898
514,0.5041,1005.79,91.9552,-0.0141169,305.339,-1.31492,-0.339821,0.37142,-0.13974,-0.229477,0.284168,-0.0047667,-0.00124053,0.405779,0.44979185811331046,0.3286561262330565,-0.004755357315103681,-0.13041570207313535,-0.0012397608607391808,-0.20505074773961962
515,0.5051,1006.04,92.0011,-0.0152752,305.439,-1.29564,-0.336719,0.372019,-0.139967,-0.229849,0.284652,-0.0047682,-0.00124093,0.406447,0.4506605435816442,0.32929935144609845,-0.004756850180948069,-0.13061307530605526,-0.0012401603647549386,-0.20534641386415176
516,0.5061,1006.3,92.0275,-0.0140998,305.539,-1.28153,-0.330714,0.372618,-0.140193,-0.23022,0.285136,-0.00476975,-0.00124127,0.407115,0.4515297495484474,0.3299428880554951,-0.004758392806634815,-0.1308095345503053,-0.00124049994304265,-0.2056411756629135
517,0.5071,1006.55,92.0723,-0.015132,305.638,-1.26253,-0.327448,0.373216,-0.140419,-0.230591,0.28562,-0.00477118,-0.00124164,0.407783,0.4523980239268417,0.33058673621199897,-0.004759816001115413,-0.13100594939978294,-0.001240869483989382,-0.20593582812533107
518,0.5081,1006.8,92.0996,-0.0140748,305.737,-1.24813,-0.321593,0.373813,-0.140645,-0.230962,0.286104,-0.00477264,-0.00124197,0.40845,0.4532653644225033,0.33123089606643563,-0.004761269050723382,-0.13120231986452024,-0.001241199074448085,-0.20623037129196076
519,0.5091,1007.06,92.1432,-0.0149919,305.836,-1.22938,-0.318177,0.374411,-0.140871,-0.231333,0.286587,-0.004774,-0.00124232,0.409116,0.4541346770089856,0.331874035895001,-0.004762622574477016,-0.1313986459545471,-0.0012415486399671716,-0.2065248052033437
520,0.5101,1007.31,92.1712,-0.0140425,305.935,-1.21473,-0.312457,0.375007,-0.141096,-0.231704,0.28707,-0.00477538,-0.00124263,0.409782,0.4550015995937511,0.33251748643513457,-0.004763996001110216,-0.1315940592743844,-0.0012418582550390855,-0.20681912990000606
521,0.5111,1007.56,92.2138,-0.0148545,306.034,-1.1962,-0.308907,0.375604,-0.141322,-0.232074,0.287552,-0.00477666,-0.00124295,0.410448,0.4558704948881471,0.33315991467636485,-0.0047652699023801315,-0.13179029684130805,-0.0012421778575933962,-0.20711255253540806
522,0.5121,1007.81,92.2426,-0.0140031,306.132,-1.18131,-0.303309,0.3762,-0.141547,-0.232444,0.288035,-0.00477796,-0.00124324,0.411113,0.456738452328725,0.33380398644596476,-0.004766563706688265,-0.13198562204960884,-0.0012424674973198213,-0.20740586662451732
523,0.5131,1008.06,92.2842,-0.0147196,306.23,-1.16299,-0.299636,0.376795,-0.141772,-0.232814,0.288517,-0.00477917,-0.00124354,0.411778,0.4576054696199259,0.33444703492966665,-0.0047677679384176,-0.13218090331468146,-0.0012427671245345273,-0.2076990722074884
524,0.5141,1008.31,92.3136,-0.013957,306.328,-1.14789,-0.29415,0.37739,-0.141997,-0.233184,0.288999,-0.00478039,-0.00124381,0.412442,0.45847300293991844,0.3350903934374474,-0.004768982121000076,-0.13237614064641223,-0.0012430367889511018,-0.20799216932446118
525,0.5151,1008.56,92.3543,-0.014587,306.426,-1.12975,-0.290367,0.377985,-0.142222,-0.233553,0.289481,-0.00478153,-0.00124409,0.413106,0.459341052595831,0.33573406211877477,-0.004770116683713743,-0.1325713340546849,-0.0012433164408616193,-0.208284366300323
526,0.5161,1008.81,92.3843,-0.0139045,306.523,-1.11446,-0.28498,0.378579,-0.142447,-0.233922,0.289962,-0.00478267,-0.00124434,0.413769,0.4602081586860862,0.3363767047458155,-0.0047712512451340006,-0.13276648354938114,-0.0012435661300013168,-0.20857645547539105
527,0.5171,1009.06,92.4242,-0.0144562,306.621,-1.09649,-0.281098,0.379173,-0.142671,-0.234291,0.290443,-0.00478373,-0.0012446,0.414432,0.4610757799903624,0.337019656558313,-0.004772306187048603,-0.1329607221015361,-0.0012438258066402863,-0.20886843688943668
528,0.5181,1009.31,92.4546,-0.013846,306.718,-1.08103,-0.2758,0.379767,-0.142895,-0.234659,0.290924,-0.00478479,-0.00124483,0.415095,0.46194391681478786,0.3376629177050212,-0.004773361127844877,-0.13315491714912797,-0.001244055520533971,-0.20915951974213154
529,0.5191,1009.56,92.4938,-0.0143271,306.815,-1.06321,-0.27183,0.38036,-0.14312,-0.235028,0.291404,-0.00478578,-0.00124507,0.415757,0.46281110665383407,0.33830515002894646,-0.00477434640172969,-0.1333499353523988,-0.0012442952219319237,-0.20945128604515317
530,0.5201,1009.81,92.5246,-0.0137818,306.912,-1.04759,-0.266613,0.380953,-0.143344,-0.235396,0.291885,-0.00478676,-0.00124528,0.416419,0.46367881088895824,0.33894902964674456,-0.004775321722392256,-0.13354404322598645,-0.0012445049606079062,-0.20974215444881972
531,0.5211,1010.05,92.5632,-0.0141993,307.008,-1.0299,-0.262563,0.381545,-0.143568,-0.235763,0.292364,-0.00478767,-0.0012455,0.41708,0.46454556527899005,0.3395905398613759,-0.0047762273764374585,-0.13373810762427973,-0.0012447246867925976,-0.21003212586512743
532,0.5221,1010.3,92.5943,-0.0137122,307.105,-1.01416,-0.257418,0.382137,-0.143791,-0.236131,0.292844,-0.00478857,-0.00124569,0.417741,0.46541283293953395,0.34023369766603384,-0.0047771230774297235,-0.13393126248871168,-0.0012449144502768572,-0.21032278055906528
533,0.5231,1010.55,92.6322,-0.0140727,307.201,-0.996589,-0.253297,0.382729,-0.144015,-0.236498,0.293324,-0.00478941,-0.00124588,0.418401,0.4662806141745357,0.3408771642605417,-0.004777959064295234,-0.13412524015960403,-0.0012451042137251456,-0.2106125389246878
534,0.5241,1010.79,92.6637,-0.0136375,307.297,-0.98072,-0.248217,0.38332,-0.144238,-0.236865,0.293803,-0.00479024,-0.00124605,0.419061,0.4671474421399462,0.34151959827288514,-0.004778785098246363,-0.13431830870310568,-0.0012452740020429953,-0.21090219096850127
535,0.5251,1011.04,92.7011,-0.0139469,307.393,-0.963262,-0.244033,0.38391,-0.144462,-0.237232,0.294282,-0.004791,-0.00124623,0.419721,0.46801331453804873,0.3421623400848324,-0.004779541466082282,-0.13451219968535544,-0.0012454537778774366,-0.21119173672951874
536,0.5261,1011.28,92.7328,-0.013558,307.488,-0.947287,-0.23901,0.384501,-0.144685,-0.237599,0.29476,-0.00479175,-0.00124638,0.42038,0.4688811668320332,0.3428040470391369,-0.004780287881146261,-0.13470518194650383,-0.0012456035910481944,-0.2114811762467389
537,0.5271,1011.52,92.7696,-0.0138218,307.584,-0.929926,-0.234771,0.385091,-0.144908,-0.237965,0.295239,-0.00479244,-0.00124653,0.421039,0.46974806242951805,0.34344740424941933,-0.004780974582510811,-0.13489812117740596,-0.0012457534041964147,-0.21176972132926153
538,0.5281,1011.77,92.8016,-0.0134741,307.679,-0.913859,-0.2298,0.38568,-0.145131,-0.238331,0.295717,-0.00479311,-0.00124666,0.421697,0.4706139990315841,0.3440897256112261,-0.004781641379034363,-0.1350910173876565,-0.0012458832422399535,-0.21205816082360762
539,0.5291,1012.01,92.838,-0.0136971,307.774,-0.896584,-0.225512,0.386269,-0.145353,-0.238697,0.296195,-0.00479372,-0.00124679,0.422355,0.47148044582054394,0.3447323540760354,-0.004782248462048,-0.1352830058702864,-0.001246013080266728,-0.21234649476841572
540,0.5301,1012.25,92.87,-0.0133859,307.869,-0.880436,-0.220586,0.386858,-0.145576,-0.239062,0.296672,-0.00479431,-0.0012469,0.423012,0.4723474030969863,0.34537394441606084,-0.004782835640348204,-0.13547581626081973,-0.001246122943199257,-0.21263393583663903
541,0.5311,1012.5,92.906,-0.0135726,307.963,-0.863239,-0.216255,0.387446,-0.145798,-0.239428,0.29715,-0.00479485,-0.00124701,0.423669,0.4732133979475426,0.3460171868841939,-0.004783373057471896,-0.13566771932758126,-0.0012462328061196848,-0.21292205908635187
542,0.5321,1012.74,92.9382,-0.0132936,308.058,-0.847021,-0.211369,0.388034,-0.146021,-0.239793,0.297627,-0.00479537,-0.00124711,0.424326,0.47407990215280615,0.3466593902356603,-0.004783890569983296,-0.1358604439365787,-0.0012463326814914355,-0.21320929011193424
543,0.5331,1012.98,92.9738,-0.0134482,308.152,-0.829894,-0.207,0.388622,-0.146243,-0.240158,0.298103,-0.00479584,-0.00124719,0.424982,0.4749469160123665,0.3473005526899706,-0.004784358321444859,-0.13605226162547346,-0.0012464125817815974,-0.2134964163173233
544,0.5341,1013.22,93.0061,-0.0131976,308.246,-0.813616,-0.202151,0.389209,-0.146465,-0.240522,0.29858,-0.00479628,-0.00124727,0.425638,0.4758129640122859,0.34794336835295114,-0.004784796216230847,-0.13624403673556784,-0.001246492482065431,-0.2137826515238157
545,0.5351,1013.46,93.0413,-0.0133237,308.34,-0.796551,-0.19775,0.389796,-0.146686,-0.240887,0.299056,-0.00479667,-0.00124733,0.426293,0.476679520531617,0.34858514212632774,-0.00478518435008457,-0.1364349057116505,-0.0012465524072741152,-0.21406956849047776
546,0.5361,1013.7,93.0737,-0.0130981,308.434,-0.780222,-0.192933,0.390382,-0.146908,-0.241251,0.299532,-0.00479703,-0.00124739,0.426948,0.4775451083231017,0.3492272214567371,-0.004785542627353756,-0.13662659588418613,-0.0012466123324791356,-0.21435559510754476
547,0.5371,1013.94,93.1085,-0.013199,308.527,-0.763214,-0.188502,0.390968,-0.147129,-0.241615,0.300008,-0.00479735,-0.00124744,0.427602,0.4784112034976806,0.34986960648965937,-0.004785861095929156,-0.13681738032403856,-0.0012466622701472474,-0.2146415176298696
548,0.5381,1014.18,93.1409,-0.0129952,308.62,-0.74684,-0.183714,0.391553,-0.147351,-0.241978,0.300483,-0.00479764,-0.00124747,0.428256,0.479276327075701,0.35051094685902107,-0.00478614970798763,-0.13700898559663455,-0.001246692232746982,-0.21492655102227942
549,0.5391,1014.42,93.1755,-0.0130738,308.713,-0.729883,-0.179259,0.392139,-0.147572,-0.242342,0.300959,-0.00479788,-0.0012475,0.42891,0.4801434370417741,0.3511539430906885,-0.004786388559283039,-0.137199685537698,-0.0012467221953457175,-0.2152122657544714
550,0.5401,1014.65,93.208,-0.0128891,308.806,-0.713474,-0.174496,0.392723,-0.147793,-0.242705,0.301434,-0.0047981,-0.00124751,0.429563,0.4810080932640486,0.351795893664848,-0.004786607506253482,-0.13739034333873112,-0.0012467321828784073,-0.21549709200291078
551,0.5411,1014.89,93.2422,-0.0129482,308.899,-0.696563,-0.170021,0.393308,-0.148014,-0.243068,0.301908,-0.00479827,-0.00124752,0.430216,0.4818747364670295,0.35243679680048867,-0.004786776692515815,-0.13758095900904588,-0.001246742170411097,-0.21578181487818537
552,0.5421,1015.13,93.2747,-0.0127801,308.992,-0.680124,-0.16528,0.393892,-0.148235,-0.24343,0.302383,-0.00479841,-0.00124751,0.430868,0.48274040406346086,0.3530793568749051,-0.004786916022357257,-0.13777153255795205,-0.0012467321828784073,-0.2160656504838553
553,0.5431,1015.36,93.3087,-0.0128219,309.084,-0.663256,-0.160787,0.394475,-0.148455,-0.243793,0.302857,-0.0047985,-0.0012475,0.43152,0.48360509375158256,0.3537208685163118,-0.00478700559153078,-0.1379612019563905,-0.0012467221953457175,-0.216350167009856
554,0.5441,1015.6,93.3411,-0.0126682,309.176,-0.646792,-0.156067,0.395058,-0.148676,-0.244155,0.303331,-0.00479857,-0.00124747,0.432172,0.48447028770077005,0.3543626843063139,-0.004787075256437956,-0.13815169148089035,-0.001246692232746982,-0.2166337969092893
555,0.5451,1015.84,93.3749,-0.0126949,309.268,-0.629963,-0.151558,0.395641,-0.148896,-0.244517,0.303804,-0.00479859,-0.00124744,0.432823,0.48533598620509344,0.3550034493849854,-0.004787095160696309,-0.13834127725356493,-0.0012466622701472474,-0.2169173241532807
556,0.5461,1016.07,93.4073,-0.0125537,309.36,-0.613481,-0.146856,0.396224,-0.149116,-0.244878,0.304278,-0.00479858,-0.00124739,0.433473,0.48620218955879424,0.3556458732624248,-0.004787085208567188,-0.13853082132195715,-0.0012466123324791356,-0.21719996597934232
557,0.5471,1016.31,93.4408,-0.012567,309.452,-0.596688,-0.142336,0.396806,-0.149336,-0.24524,0.304751,-0.00479853,-0.00124734,0.434124,0.4870674109881308,0.3562872454330386,-0.0047870354479202515,-0.1387203236952409,-0.0012465623948084703,-0.2174832883072224
558,0.5481,1016.54,93.4732,-0.0124366,309.543,-0.580193,-0.13765,0.397387,-0.149556,-0.245601,0.305223,-0.00479845,-0.00124727,0.434773,0.48793164819051094,0.3569275641162044,-0.0047869558308798466,-0.13890978438258816,-0.001246492482065431,-0.21776572585709852
559,0.5491,1016.78,93.5065,-0.0124383,309.634,-0.563433,-0.133119,0.397969,-0.149775,-0.245962,0.305696,-0.00479833,-0.0012472,0.435423,0.48879787645773276,0.3575695426699903,-0.004786836405307415,-0.13909834249194175,-0.0012464225693173958,-0.21804806146542055
560,0.5501,1017.01,93.5388,-0.0123171,309.726,-0.546928,-0.128448,0.39855,-0.149995,-0.246323,0.306168,-0.00479817,-0.00124711,0.436072,0.48966311935267615,0.3582104667403121,-0.004786677171188525,-0.13928772002430123,-0.0012463326814914355,-0.21833029516898295
561,0.5511,1017.24,93.5719,-0.0123087,309.817,-0.5302,-0.123909,0.39913,-0.150214,-0.246683,0.30664,-0.00479798,-0.00124702,0.43672,0.49052737457168627,0.3588516933982002,-0.004786488080639195,-0.1394761953748117,-0.0012462427936573706,-0.21861164561660296
562,0.5521,1017.47,93.6041,-0.0121953,309.907,-0.513689,-0.119251,0.39971,-0.150434,-0.247044,0.307112,-0.00479775,-0.00124692,0.437369,0.4913921312041194,0.3594932227865095,-0.004786259181505104,-0.1396654897886802,-0.001246142918276627,-0.2188936759030058
563,0.5531,1017.71,93.637,-0.012178,309.998,-0.496991,-0.114706,0.40029,-0.150653,-0.247404,0.307584,-0.00479748,-0.0012468,0.438016,0.4922573895408793,0.3601350550481628,-0.004785990473758828,-0.13985388241667085,-0.0012460230678065232,-0.21917482357006424
564,0.5541,1017.94,93.6692,-0.0120713,310.088,-0.480479,-0.110061,0.400869,-0.150872,-0.247763,0.308055,-0.00479718,-0.00124668,0.438664,0.4931216567506358,0.3607758295496397,-0.004785691909511169,-0.1400422337911933,-0.0012459032173220974,-0.21945508949765857
565,0.5551,1018.17,93.7019,-0.0120463,310.178,-0.463809,-0.105511,0.401448,-0.151091,-0.248123,0.308526,-0.00479683,-0.00124655,0.439311,0.4939864245160037,0.36141690592699294,-0.004785343584442381,-0.1402305439212811,-0.001245773379281112,-0.2197360350921982
566,0.5561,1018.4,93.7339,-0.0119453,310.268,-0.447298,-0.100877,0.402027,-0.151309,-0.248482,0.308997,-0.00479646,-0.0012464,0.439957,0.4948516931268887,0.3620582843224398,-0.004784975354951371,-0.1404179532343489,-0.0012456235661358894,-0.22001609958101642
567,0.5571,1018.63,93.7665,-0.0119135,310.358,-0.430655,-0.0963241,0.402605,-0.151528,-0.248841,0.309467,-0.00479605,-0.00124625,0.440603,0.4957159671566489,0.3626986021789804,-0.004784567316707622,-0.14060618109088796,-0.0012454737529682403,-0.22029606354472853
568,0.5581,1018.86,93.7985,-0.0118173,310.448,-0.414149,-0.0917,0.403183,-0.151746,-0.2492,0.309937,-0.0047956,-0.00124609,0.441249,0.4965807408811962,0.36333922105564787,-0.004784119469662174,-0.1407935085239781,-0.001245313952231153,-0.22057592701941642
569,0.5591,1019.09,93.8308,-0.0117796,310.537,-0.397533,-0.0871455,0.40376,-0.151964,-0.249559,0.310407,-0.00479511,-0.00124592,0.441894,0.4974445171441719,0.3639801410939547,-0.00478363181376118,-0.14098079512413875,-0.0012451441639201866,-0.22085569004114947
570,0.5601,1019.32,93.8627,-0.0116874,310.627,-0.381034,-0.0825312,0.404337,-0.152182,-0.249917,0.310877,-0.00479459,-0.00124573,0.442539,0.498308791949867,0.3646213624354804,-0.004783114301115221,-0.14116804090027057,-0.0012449544004795587,-0.2211345737809467
571,0.5611,1019.55,93.8949,-0.0116445,310.716,-0.364444,-0.077976,0.404914,-0.1524,-0.250275,0.311346,-0.00479404,-0.00124554,0.443183,0.49917356558602366,0.3652615199596678,-0.0047825669316775565,-0.14135524586127213,-0.0012447646370028487,-0.22141335769823445
572,0.5621,1019.78,93.9267,-0.0115556,310.805,-0.347954,-0.0733709,0.40549,-0.152618,-0.250633,0.311816,-0.00479345,-0.00124534,0.443827,0.5000373383024621,0.3659033436908108,-0.004781979753218812,-0.1415424100160403,-0.0012445648859357172,-0.2216920418287427
573,0.5631,1020.01,93.9588,-0.0115083,310.894,-0.331389,-0.068816,0.406066,-0.152836,-0.250991,0.312284,-0.00479282,-0.00124513,0.444471,0.500901608695302,0.36654273606180277,-0.004781352765668601,-0.14172953337346972,-0.0012443551472723913,-0.22197062620818864
574,0.5641,1020.23,93.9905,-0.0114221,310.982,-0.314911,-0.0642197,0.406641,-0.153053,-0.251348,0.312753,-0.00479216,-0.00124491,0.445114,0.5017648752856616,0.3671837949215677,-0.0047806959211446065,-0.1419157578586403,-0.0012441354210063205,-0.222248333120999
575,0.5651,1020.46,94.0224,-0.0113709,311.071,-0.298373,-0.059666,0.407216,-0.153271,-0.251705,0.313222,-0.00479146,-0.00124468,0.445757,0.5026286383970471,0.36782515450845277,-0.004779999267387924,-0.14210279983511087,-0.0012439057071310655,-0.222525940910136
576,0.5661,1020.69,94.054,-0.011287,311.159,-0.281908,-0.0550781,0.407791,-0.153488,-0.252062,0.31369,-0.00479072,-0.00124444,0.446399,0.5034928983150395,0.36846544649740154,-0.004779262804314954,-0.1422889433302471,-0.001243666005639632,-0.22280344961098064
577,0.5671,1020.91,94.0857,-0.0112324,311.247,-0.265395,-0.0505265,0.408366,-0.153705,-0.252419,0.314158,-0.00478995,-0.00124419,0.447041,0.5043576553253855,0.3691060382131317,-0.004778496484052264,-0.14247504643662712,-0.0012434163165249146,-0.2230808592589011
578,0.5681,1021.14,94.1172,-0.0111502,311.335,-0.248946,-0.0459468,0.408939,-0.153922,-0.252776,0.314625,-0.00478915,-0.00124393,0.447683,0.5052198992711856,0.36974556004970327,-0.004777700306530908,-0.14266110916301433,-0.0012431566397794747,-0.22335816988925283
579,0.5691,1021.37,94.1488,-0.0110926,311.423,-0.232458,-0.041398,0.409513,-0.154139,-0.253132,0.315093,-0.00478831,-0.00124366,0.448324,0.5060841435077343,0.3703867509987857,-0.004776864319448126,-0.14284713151817052,-0.0012428869753953187,-0.22363460517237232
580,0.5701,1021.59,94.1801,-0.0110119,311.511,-0.216027,-0.0368263,0.410086,-0.154355,-0.253488,0.31556,-0.00478743,-0.00124339,0.448965,0.5069473770147452,0.3710268710679048,-0.004775988522703334,-0.14303225654354002,-0.001242617310938443,-0.2239109420620461
581,0.5711,1021.81,94.2116,-0.0109516,311.598,-0.199565,-0.032281,0.410659,-0.154572,-0.253844,0.316027,-0.00478652,-0.0012431,0.449605,0.507811105296295,0.37166729014290834,-0.004775082868440861,-0.1432181983684524,-0.0012423276712554276,-0.224187180593296
582,0.5721,1022.04,94.2429,-0.0108721,311.685,-0.183152,-0.0277172,0.411232,-0.154788,-0.254199,0.316493,-0.00478558,-0.0012428,0.450245,0.5086753286359709,0.3723066360561429,-0.004774147356578995,-0.14340324325203802,-0.0012420280439088272,-0.2244625452640645
583,0.5731,1022.26,94.2742,-0.0108095,311.772,-0.166717,-0.0231759,0.411804,-0.155004,-0.254554,0.31696,-0.0047846,-0.0012425,0.450885,0.5095385377782295,0.3729476529209692,-0.0047731720347655715,-0.14358824817024507,-0.0012417284164722986,-0.22473781219772415
584,0.5741,1022.49,94.3053,-0.0107308,311.859,-0.150325,-0.01862,0.412375,-0.15522,-0.25491,0.317426,-0.00478358,-0.00124218,0.451524,0.5104007304158731,0.37358759562229915,-0.004772156902883351,-0.14377321313170532,-0.001241408813774214,-0.22501375641559662
585,0.5751,1022.71,94.3365,-0.0106662,311.946,-0.133916,-0.0140834,0.412947,-0.155436,-0.255264,0.317891,-0.00478253,-0.00124186,0.452163,0.5112649267702658,0.3742264623792728,-0.004771111913099424,-0.14395813814504843,-0.001241089210973878,-0.2252880529924669
586,0.5761,1022.93,94.3675,-0.0105882,312.033,-0.117545,-0.00953524,0.413518,-0.155652,-0.255619,0.318357,-0.00478145,-0.00124152,0.452801,0.5121281054575142,0.37486700114468263,-0.004770037065319865,-0.14414302321890238,-0.001240749632886562,-0.2255630269228941
587,0.5771,1023.15,94.3986,-0.0105218,312.119,-0.101164,-0.00500377,0.414088,-0.155868,-0.255973,0.318822,-0.00478033,-0.00124118,0.453439,0.512990264169515,0.3755064629635654,-0.004768922407137222,-0.14432786836189293,-0.0012404100546836716,-0.22583712909241693
588,0.5781,1023.38,94.4295,-0.0104441,312.205,-0.0848165,-0.00046346,0.414659,-0.156083,-0.256328,0.319287,-0.00477917,-0.00124082,0.454076,0.5138544283057374,0.37614622220133875,-0.0047677679384176,-0.14451181809489022,-0.0012400505011666008,-0.22611190813542326
589,0.5791,1023.6,94.4604,-0.0103762,312.291,-0.0684628,0.00406239,0.415229,-0.156299,-0.256682,0.319752,-0.00477798,-0.00124046,0.454714,0.514717571302256,0.3767862789963341,-0.004766583611356734,-0.14469658358679027,-0.0012396909475199669,-0.22638581603538466
590,0.5801,1023.82,94.4912,-0.0102988,312.377,-0.0521397,0.00859483,0.415798,-0.156514,-0.257035,0.320217,-0.00477676,-0.00124009,0.45535,0.5155796908500783,0.37742663348694805,-0.004765369425848154,-0.14488045405453553,-0.0012393214061372504,-0.22665885364835014
591,0.5811,1024.04,94.5219,-0.0102294,312.463,-0.0358142,0.0131146,0.416367,-0.156729,-0.257389,0.320681,-0.0047755,-0.00123971,0.455987,0.51644230108351,0.37806590774504456,-0.0047641154294235655,-0.14506428499437962,-0.001238941877007349,-0.2269325679638664
592,0.5821,1024.26,94.5526,-0.0101522,312.549,-0.0195167,0.0176391,0.416936,-0.156944,-0.257742,0.321145,-0.00477421,-0.00123932,0.456623,0.5173054022818309,0.378705478695224,-0.004762831574304349,-0.14524807641482018,-0.0012385523601187165,-0.2272054126074624
593,0.5831,1024.48,94.5833,-0.0100816,312.634,-0.0032201,0.0221524,0.417504,-0.157159,-0.258095,0.321609,-0.00477288,-0.00123892,0.457258,0.5181674765562438,0.37934534647518325,-0.004761507907990126,-0.14543182832435286,-0.0012381528554596954,-0.2274781609538965
594,0.5841,1024.7,94.6138,-0.0100044,312.719,0.0130506,0.0266689,0.418072,-0.157373,-0.258448,0.322073,-0.00477152,-0.00123851,0.457893,0.5190300406279338,0.37998551122268376,-0.004760154382720483,-0.14561468634658525,-0.0012377433630185175,-0.22775081303715583
595,0.5851,1024.92,94.6444,-0.00993262,312.804,0.0293177,0.0311754,0.41864,-0.157588,-0.2588,0.322536,-0.00477012,-0.00123809,0.458528,0.5198930947751847,0.3806245924502676,-0.004758761045961291,-0.14579835944345532,-0.0012373238827826372,-0.22802259691419813
596,0.5861,1025.14,94.6748,-0.00985544,312.889,0.0455606,0.0356837,0.419207,-0.157802,-0.259153,0.322999,-0.0047687,-0.00123766,0.459162,0.5207551185205599,0.38126396964096965,-0.004757347802398559,-0.1459811390364204,-0.001236894414739509,-0.22829505684548035
597,0.5871,1025.36,94.7052,-0.00978259,312.974,0.0617975,0.040183,0.419774,-0.158017,-0.259505,0.323462,-0.00476723,-0.00123723,0.459796,0.5216176311719902,0.3819036429318532,-0.004755884794624521,-0.14616473335443114,-0.0012364649465117505,-0.2285666491824151
598,0.5881,1025.57,94.7355,-0.00970529,313.059,0.0780115,0.0446829,0.420341,-0.158231,-0.259857,0.323924,-0.00476574,-0.00123678,0.46043,0.5224806330067646,0.3825422299171226,-0.00475440187978815,-0.1463474345517679,-0.0012360155028199316,-0.2288381459356711
599,0.5891,1025.79,94.7658,-0.0096315,313.143,0.0942175,0.0491748,0.420907,-0.158445,-0.260208,0.324386,-0.00476421,-0.00123633,0.461063,0.5233426009589655,0.3831811119977413,-0.004752879152858158,-0.14653009665523165,-0.001235566058925719,-0.22910877624804937
600,0.5901,1026.01,94.796,-0.00955402,313.227,0.110402,0.0536663,0.421472,-0.158658,-0.26056,0.324849,-0.00476264,-0.00123586,0.461696,0.5242035327188268,0.38382167313105553,-0.0047513166136518015,-0.14671186638548062,-0.0012350966395314744,-0.22938008220616013
601,0.5911,1026.23,94.8261,-0.00947937,313.312,0.126576,0.0581503,0.422038,-0.158872,-0.260911,0.32531,-0.00476104,-0.00123539,0.462328,0.5250664761082875,0.38445976199055054,-0.0047497242144844964,-0.14689445050887617,-0.0012346272199166286,-0.229650522332287
602,0.5921,1026.44,94.8562,-0.00940167,313.396,0.142729,0.0626331,0.422603,-0.159086,-0.261262,0.325772,-0.00475941,-0.00123491,0.46296,0.525928382132812,0.38509953017566123,-0.004748101955212802,-0.14707699556344977,-0.0012341478124225924,-0.22992086755058705
603,0.5931,1026.66,94.8862,-0.00932624,313.479,0.158871,0.067109,0.423168,-0.159299,-0.261613,0.326233,-0.00475775,-0.00123442,0.463591,0.5267907752718375,0.3857382082630605,-0.004746449835690725,-0.14725864881663642,-0.001233658417035155,-0.23019111789436686
604,0.5941,1026.87,94.9162,-0.00924827,313.563,0.174993,0.0715831,0.423732,-0.159512,-0.261963,0.326694,-0.00475605,-0.00123392,0.464223,0.5276521281477691,0.38637718084893447,-0.004744757903217378,-0.14744026338180072,-0.0012331590337394394,-0.23046050385781025
605,0.5951,1027.09,94.9461,-0.00917211,313.646,0.191102,0.0760505,0.424296,-0.159725,-0.262314,0.327155,-0.00475432,-0.00123341,0.464853,0.5285139669637449,0.38701644806907853,-0.004743036110159138,-0.1476218392671821,-0.0012326496625206795,-0.23073056482248422
606,0.5961,1027.3,94.9759,-0.00909385,313.73,0.207191,0.0805156,0.42486,-0.159938,-0.262664,0.327615,-0.00475255,-0.00123289,0.465484,0.5293762919939125,0.38765462240403425,-0.00474127450377404,-0.1478033764810185,-0.0012321303033634434,-0.23099976201254002
607,0.5971,1027.52,95.0057,-0.00901702,313.813,0.223266,0.0849745,0.425423,-0.160151,-0.263013,0.328076,-0.00475075,-0.00123236,0.466114,0.5302375732742355,0.3882944786604976,-0.004739483036455883,-0.14798487503154623,-0.001231600956252299,-0.23126809626854627
608,0.5981,1027.73,95.0354,-0.00893845,313.896,0.239321,0.0894304,0.425986,-0.160364,-0.263363,0.328536,-0.00474892,-0.00123183,0.466743,0.5310993395924446,0.3889332410247619,-0.004737661708043239,-0.1481663349269996,-0.00123107160886049,-0.23153710535551597
609,0.5991,1027.95,95.0651,-0.00886099,313.979,0.255362,0.0938803,0.426548,-0.160577,-0.263712,0.328995,-0.00474706,-0.00123128,0.467373,0.531960059260868,0.38957090771570235,-0.004735810518372463,-0.14834775617561125,-0.0012305222857987852,-0.23180525211141634
610,0.6001,1028.16,95.0947,-0.00878208,314.062,0.271382,0.0983268,0.42711,-0.160789,-0.264062,0.329455,-0.00474516,-0.00123073,0.468001,0.5328212627896971,0.3902102573723989,-0.004733919514615992,-0.1485282873143252,-0.0012299729624349887,-0.2320740732267379
611,0.6011,1028.37,95.1243,-0.00870405,314.144,0.287388,0.102768,0.427672,-0.161001,-0.264411,0.329914,-0.00474323,-0.00123017,0.46863,0.5336829504509377,0.39084851034838497,-0.0047319986492270205,-0.1487087801844943,-0.0012294136510632159,-0.23234203261354902
612,0.6021,1028.59,95.1537,-0.00862479,314.226,0.303373,0.107205,0.428234,-0.161213,-0.264759,0.330373,-0.00474126,-0.00122959,0.469258,0.534545122516749,0.39148705634973147,-0.004730037969333134,-0.14888923479423066,-0.0012288343639551558,-0.23260913110836579
613,0.6031,1028.8,95.1832,-0.00854621,314.309,0.319342,0.111636,0.428795,-0.161425,-0.265108,0.330832,-0.00473927,-0.00122901,0.469885,0.5354062438524312,0.39212589551096766,-0.004728057380137929,-0.14906965115164472,-0.0012282550765111422,-0.23287690379255765
614,0.6041,1029.01,95.2125,-0.0084666,314.391,0.335292,0.116063,0.429355,-0.161637,-0.265456,0.331291,-0.00473724,-0.00122842,0.470513,0.5362663121456341,0.39276502796668455,-0.004726036976043679,-0.14925002926484499,-0.001227665801007749,-0.23314381618458802
615,0.6051,1029.22,95.2418,-0.0083875,314.473,0.351224,0.120485,0.429916,-0.161849,-0.265804,0.331749,-0.00473518,-0.00122783,0.47114,0.5371283993395961,0.3934030604477785,-0.004723986709568084,-0.1494303691419384,-0.001227076525156745,-0.23341063570726606
616,0.6061,1029.43,95.2711,-0.00830755,314.554,0.367137,0.124902,0.430476,-0.162061,-0.266152,0.332207,-0.00473309,-0.00122722,0.471766,0.5379894323099563,0.39404138521467713,-0.004721906580526625,-0.1496106707910303,-0.0012264672734876303,-0.23367736239290482
617,0.6071,1029.65,95.3003,-0.00822796,314.636,0.383032,0.129314,0.431035,-0.162272,-0.2665,0.332665,-0.00473096,-0.0012266,0.472392,0.5388494087436368,0.394680002401278,-0.004719786635929868,-0.14979008401073302,-0.0012258480337054012,-0.2339439962738059
618,0.6081,1029.86,95.3294,-0.00814765,314.717,0.398906,0.133721,0.431595,-0.162483,-0.266847,0.333122,-0.0047288,-0.00122598,0.473018,0.5397114057491681,0.3953175168233254,-0.004717636828347249,-0.14996945937824002,-0.001225228793539146,-0.2342097715924143
619,0.6091,1030.07,95.3585,-0.0080676,314.799,0.414763,0.138123,0.432153,-0.162695,-0.267194,0.333579,-0.00472661,-0.00122534,0.473643,0.5405708044635185,0.39595532265604594,-0.004715457157585146,-0.15014964675231535,-0.0012245895774810611,-0.23447545470298614
620,0.6101,1030.28,95.3875,-0.00798694,314.88,0.430599,0.14252,0.432712,-0.162906,-0.267541,0.334036,-0.00472439,-0.0012247,0.474268,0.541432224287623,0.39659342003264486,-0.004713247623447492,-0.1503289462600873,-0.0012239503610138591,-0.23474104563751208
621,0.6111,1030.49,95.4165,-0.00790645,314.961,0.446417,0.146911,0.43327,-0.163117,-0.267888,0.334493,-0.00472213,-0.00122405,0.474893,0.5422925834866683,0.397231809086388,-0.004710998272845268,-0.15050820793965414,-0.0012233011563705931,-0.23500654442797175
622,0.6121,1030.7,95.4454,-0.00782544,315.042,0.462214,0.151297,0.433828,-0.163327,-0.268234,0.33495,-0.00471985,-0.00122339,0.475517,0.543153422900114,0.39787048995060226,-0.004708729011334456,-0.15068658248600386,-0.0012226419635318342,-0.23527118637790212
623,0.6131,1030.9,95.4742,-0.00774454,315.122,0.477992,0.155678,0.434386,-0.163538,-0.268581,0.335406,-0.00471753,-0.00122273,0.47614,0.5440147427959945,0.39850806424991214,-0.004706419932907213,-0.15086576871228774,-0.0012219827702579789,-0.235536501241438
624,0.6141,1031.11,95.503,-0.00766319,315.203,0.493749,0.160054,0.434943,-0.163749,-0.268927,0.335862,-0.00471518,-0.00122205,0.476764,0.544874998566723,0.39914592934939974,-0.004704080990245774,-0.15104491713426627,-0.0012213036009753875,-0.2358009598580295
625,0.6151,1031.32,95.5317,-0.0075819,315.283,0.509486,0.164424,0.435499,-0.163959,-0.269273,0.336318,-0.00471279,-0.00122136,0.477387,0.5457341878984265,0.3997840853817005,-0.004701702230156757,-0.15122317898351878,-0.001220614443437129,-0.23606532698776772
626,0.6161,1031.53,95.5604,-0.00750021,315.364,0.525203,0.168789,0.436056,-0.164169,-0.269618,0.336774,-0.00471038,-0.00122067,0.478009,0.5465954016668544,0.4004225324795099,-0.004699303558368673,-0.15140140340171337,-0.0012199252854232512,-0.23632883899152268
627,0.6171,1031.74,95.589,-0.00741854,315.444,0.540899,0.173148,0.436612,-0.164379,-0.269964,0.337229,-0.00470794,-0.00121997,0.478632,0.54745554780865,0.40105986971501384,-0.00469687502170657,-0.15157959039670965,-0.0012192261391262837,-0.23659302350667477
628,0.6181,1031.94,95.6176,-0.00733652,315.524,0.556574,0.177501,0.437168,-0.164589,-0.270309,0.337684,-0.00470546,-0.00121926,0.479254,0.5483161723246763,0.40169749700494206,-0.004694406666895912,-0.15175773997636577,-0.0012185170045251326,-0.23685635348653167
629,0.6191,1032.15,95.6461,-0.00725449,315.604,0.572229,0.181849,0.437723,-0.164799,-0.270654,0.338139,-0.00470295,-0.00121854,0.479875,0.5491757263044823,0.40233541448129984,-0.0046919084467212935,-0.1519358521485381,-0.0012177978815984813,-0.23711959263321492
630,0.6201,1032.36,95.6745,-0.00717216,315.683,0.587862,0.186192,0.438278,-0.165009,-0.270999,0.338593,-0.00470041,-0.00121781,0.480496,0.5500357574691535,0.402972219303231,-0.0046893803609581175,-0.1521139269210814,-0.0012170687703247918,-0.2373827409780569
631,0.6211,1032.56,95.7029,-0.00708978,315.763,0.603474,0.190528,0.438833,-0.165219,-0.271343,0.339048,-0.00469784,-0.00121707,0.481117,0.5508962660836012,0.4036107169102041,-0.004686822409378677,-0.15229196430184866,-0.0012163296706821924,-0.2376450361977961
632,0.6221,1032.77,95.7313,-0.00700714,315.842,0.619064,0.194859,0.439387,-0.165428,-0.271687,0.339502,-0.00469524,-0.00121633,0.481737,0.5517557006564071,0.404248100850888,-0.004684234591752823,-0.15246911676823205,-0.0012155905704926973,-0.23790724120349738
633,0.6231,1032.97,95.7595,-0.00692444,315.921,0.634633,0.199184,0.439941,-0.165637,-0.272032,0.339956,-0.0046926,-0.00121558,0.482357,0.5526156114878777,0.4048857742295784,-0.004681606954663686,-0.15264623221361873,-0.0012148414819047604,-0.23817011785645215
634,0.6241,1033.18,95.7877,-0.00684149,316.0,0.65018,0.203504,0.440494,-0.165847,-0.272375,0.340409,-0.00468994,-0.00121482,0.482977,0.5534744453667113,0.40552233165467544,-0.00467895940421692,-0.1528241578220111,-0.0012140824048958443,-0.23843138069688874
635,0.6251,1033.38,95.8159,-0.00675848,316.079,0.665704,0.207817,0.441048,-0.166056,-0.272719,0.340862,-0.00468725,-0.00121405,0.483596,0.5543353086465552,0.4061591775056097,-0.004676281987016528,-0.15300119907157128,-0.0012133133394431894,-0.23869331524660342
636,0.6261,1033.59,95.844,-0.00667525,316.158,0.681207,0.212124,0.441601,-0.166265,-0.273063,0.341316,-0.00468452,-0.00121327,0.484215,0.5551950937809156,0.40679771871008286,-0.0046735647495573795,-0.15317820332337662,-0.0012125342855237031,-0.2389551597063294
637,0.6271,1033.79,95.8721,-0.00659194,316.237,0.696687,0.216426,0.442153,-0.166473,-0.273406,0.341768,-0.00468176,-0.00121248,0.484833,0.556053798453368,0.4074337350077948,-0.0046708176448050365,-0.15335432393990633,-0.0012117452431141817,-0.23921615332358592
638,0.6281,1034.0,95.9001,-0.00650843,316.315,0.712145,0.220721,0.442705,-0.166682,-0.273749,0.342221,-0.00467898,-0.00121169,0.485451,0.5569129772616492,0.40807144692059616,-0.0046680506258319765,-0.1535312543963261,-0.0012109562000812701,-0.23947705743538295
639,0.6291,1034.2,95.928,-0.00642484,316.393,0.72758,0.22501,0.443257,-0.16689,-0.274092,0.342673,-0.00467616,-0.00121088,0.486069,0.5577726304675541,0.40870803907359265,-0.004665243785777151,-0.15370730158586932,-0.0012101471806280628,-0.23973787207241526
640,0.6301,1034.4,95.9559,-0.00634106,316.471,0.742993,0.229294,0.443809,-0.167099,-0.274434,0.343126,-0.00467331,-0.00121007,0.486686,0.5586327583330226,0.409346328376905,-0.00466240707767962,-0.15388415827766977,-0.0012093381605196019,-0.23999783726358492
641,0.6311,1034.61,95.9837,-0.0062572,316.549,0.758382,0.233571,0.44436,-0.167307,-0.274777,0.343577,-0.00467043,-0.00120925,0.487303,0.5594918016275578,0.40998208692377913,-0.004659540501284143,-0.15406013207083913,-0.0012085191518411698,-0.24025847330376737
642,0.6321,1034.81,96.0115,-0.00617317,316.627,0.773748,0.237842,0.444911,-0.167515,-0.275119,0.344029,-0.00466752,-0.00120842,0.487919,0.5603513183853757,0.41061954288126223,-0.004656644056332593,-0.15423606926526578,-0.0012076901545680085,-0.24051826047975822
643,0.6331,1035.01,96.0392,-0.00608905,316.705,0.789091,0.242106,0.445461,-0.167723,-0.275461,0.34448,-0.00466458,-0.00120759,0.488536,0.5612097476568978,0.4112558757773839,-0.0046537177425645115,-0.15441196986856176,-0.0012068611566068421,-0.240777958823726
644,0.6341,1035.21,96.0669,-0.00600478,316.783,0.804411,0.246365,0.446011,-0.167931,-0.275803,0.344932,-0.00466161,-0.00120674,0.489151,0.5620686491943803,0.4118939076175685,-0.004650761559716221,-0.15458783388833697,-0.0012060121820779424,-0.24103756836604617
645,0.6351,1035.41,96.0945,-0.00592041,316.86,0.819707,0.250617,0.446561,-0.168139,-0.276144,0.345383,-0.00465861,-0.00120589,0.489767,0.5629280232576412,0.412530815381809,-0.004647775507521823,-0.1547636613322001,-0.0012051632068275087,-0.2412963304337934
646,0.6361,1035.61,96.122,-0.00583591,316.937,0.834979,0.254862,0.44711,-0.168346,-0.276485,0.345833,-0.00465558,-0.00120503,0.490382,0.563786306319553,0.4131665972889311,-0.004644759585712532,-0.15493860714678787,-0.001204304242898524,-0.24155500427871834
647,0.6371,1035.82,96.1495,-0.00575131,317.015,0.850228,0.259101,0.447659,-0.168554,-0.276826,0.346284,-0.00465253,-0.00120416,0.490997,0.564645060708233,0.4138040791656663,-0.004641723747599635,-0.15511436163740067,-0.0012034352902652312,-0.24181358993089985
648,0.6381,1036.02,96.177,-0.00566658,317.092,0.865452,0.263334,0.448208,-0.168761,-0.277167,0.346734,-0.00464944,-0.00120329,0.491611,0.5655042866825108,0.4144404341704284,-0.0046386480857740775,-0.15528923486453827,-0.0012025663368758766,-0.24207208742040665
649,0.6391,1036.22,96.2044,-0.00558177,317.169,0.880652,0.26756,0.448757,-0.168968,-0.277508,0.347184,-0.00464632,-0.0012024,0.492225,0.5663639845013579,0.41507707559938334,-0.004635542553511507,-0.1554640718966641,-0.0012016774067643565,-0.2423304967772969
650,0.6401,1036.42,96.2317,-0.00549683,317.245,0.895828,0.27178,0.449305,-0.169176,-0.277848,0.347634,-0.00464317,-0.00120151,0.492838,0.5672225872005174,0.41571400358145083,-0.004632407150532258,-0.155639717101975,-0.0012007884758616916,-0.2425880606200581
651,0.6411,1036.61,96.259,-0.00541181,317.322,0.910979,0.275993,0.449852,-0.169382,-0.278189,0.348083,-0.00463999,-0.00120061,0.493451,0.568080092462024,0.41634980189509885,-0.004629241876554224,-0.15581363740584564,-0.0011998895561667888,-0.24284629406008285
652,0.6421,1036.81,96.2862,-0.00532668,317.398,0.926106,0.2802,0.4504,-0.169589,-0.278529,0.348532,-0.00463678,-0.0011997,0.494064,0.5689396358460701,0.41698588574628803,-0.00462604673129241,-0.1559883658978798,-0.001198980647652781,-0.24310368256157766
653,0.6431,1037.01,96.3134,-0.00524146,317.475,0.941208,0.2844,0.450947,-0.169796,-0.278869,0.348981,-0.00463355,-0.00119878,0.494677,0.5697980805901108,0.4176222552632536,-0.0046228316682310755,-0.15616305822485932,-0.0011980617502922453,-0.24336098356585734
654,0.6441,1037.21,96.3405,-0.00515614,317.551,0.956285,0.288593,0.451493,-0.170003,-0.279208,0.34943,-0.00463028,-0.00119786,0.495289,0.5706554243756674,0.41825891057428843,-0.0046195767795689235,-0.15633771439426958,-0.0011971428520863858,-0.24361744072048475
655,0.6451,1037.41,96.3675,-0.00507074,317.627,0.971337,0.292779,0.45204,-0.170209,-0.279548,0.349878,-0.00462699,-0.00119693,0.4959,0.5715148079127703,0.4188944329126001,-0.004616301972589443,-0.1565114909255072,-0.0011962139649972503,-0.2438745670766823
656,0.6461,1037.61,96.3945,-0.00498525,317.703,0.986364,0.296959,0.452586,-0.170415,-0.279887,0.350327,-0.00462366,-0.00119599,0.496512,0.5723730892873837,0.41953165955965477,-0.004612987339356112,-0.15668523166246617,-0.0011952750889971941,-0.244130850156007
657,0.6471,1037.81,96.4215,-0.00489968,317.779,1.00137,0.301132,0.453131,-0.170621,-0.280226,0.350775,-0.00462031,-0.00119504,0.497123,0.573230266180532,0.4201677522172538,-0.004609652787278318,-0.1568589366125196,-0.0011943262240577956,-0.24438704637009223
658,0.6481,1038.0,96.4484,-0.00481403,317.854,1.01634,0.305298,0.453677,-0.170827,-0.280564,0.351223,-0.00461693,-0.00119408,0.497733,0.5740894844511089,0.42080412990820637,-0.00460628836221888,-0.15703260578303868,-0.0011933673701507441,-0.2446424003911586
659,0.6491,1038.2,96.4753,-0.0047283,317.93,1.03129,0.309457,0.454221,-0.171033,-0.280903,0.35167,-0.00461351,-0.00119312,0.498344,0.574946022087764,0.42143937132015363,-0.0046028841099038376,-0.15720623918139331,-0.0011924085153230957,-0.24489842321910482
660,0.6501,1038.4,96.5021,-0.00464249,318.005,1.04622,0.313609,0.454766,-0.171239,-0.281241,0.352117,-0.00461007,-0.00119215,0.498953,0.5758046016114704,0.4220748967484851,-0.004599459937935535,-0.15737983681495182,-0.0011914396714894915,-0.2451536044240037
661,0.6511,1038.59,96.5288,-0.00455661,318.08,1.06112,0.317754,0.45531,-0.171445,-0.28158,0.352564,-0.00460661,-0.00119117,0.499563,0.5766620725256892,0.42271070632018404,-0.004596015846108692,-0.15755339869108087,-0.0011904608386207327,-0.2454094539831534
662,0.6521,1038.79,96.5555,-0.00447066,318.155,1.07599,0.321892,0.455854,-0.17165,-0.281917,0.353011,-0.00460311,-0.00119018,0.500172,0.5775200100309867,0.42334680016229154,-0.004592531926067345,-0.15772608254364961,-0.0011894720166875095,-0.24566370815292726
663,0.6531,1038.98,96.5821,-0.00438465,318.23,1.09084,0.326024,0.456398,-0.171856,-0.282255,0.353458,-0.00459958,-0.00118919,0.500781,0.5783784143812576,0.42398317840190436,-0.004589018131503142,-0.15789957310050473,-0.0011884831937752915,-0.24591863073522813
664,0.6541,1039.18,96.6087,-0.00429857,318.305,1.10566,0.330148,0.456941,-0.172061,-0.282593,0.353904,-0.00459603,-0.00118818,0.501389,0.5792357065940381,0.4246184165470481,-0.004585484416245178,-0.15807218599459294,-0.0011874743936339804,-0.2461734671682564
665,0.6551,1039.37,96.6352,-0.00421243,318.38,1.12045,0.334265,0.457484,-0.172266,-0.28293,0.35435,-0.00459245,-0.00118717,0.501997,0.5800934644428988,0.4252539380715934,-0.004581920825900587,-0.15824476350666472,-0.0011864655924735956,-0.24642746390896597
666,0.6561,1039.57,96.6617,-0.00412623,318.454,1.13522,0.338375,0.458027,-0.172471,-0.283267,0.354796,-0.00458883,-0.00118615,0.502605,0.580951688180749,0.42588974310195593,-0.004578317405931731,-0.1584173056439725,-0.0011854468021489373,-0.24668137506719545
667,0.6571,1039.76,96.6881,-0.00403997,318.528,1.14996,0.342477,0.458569,-0.172676,-0.283604,0.355242,-0.0045852,-0.00118513,0.503212,0.5818087962510476,0.426525831764607,-0.004574704018665665,-0.15858981241376746,-0.0011844280107851102,-0.24693520067178132
668,0.6581,1039.96,96.7145,-0.00395367,318.603,1.16467,0.346573,0.459111,-0.172881,-0.283941,0.355687,-0.00458153,-0.0011841,0.503819,0.582666368999837,0.42716077702458466,-0.004571050801125742,-0.15876228382329916,-0.0011833992302161533,-0.24718894075154996
669,0.6591,1040.15,96.7408,-0.00386731,318.677,1.17936,0.350661,0.459652,-0.173085,-0.284277,0.356132,-0.00457783,-0.00118305,0.504425,0.5835228231554259,0.42779600489808,-0.00456736770720001,-0.15893387881411503,-0.0011823504722346945,-0.24744184277753778
670,0.6601,1040.35,96.7671,-0.0037809,318.751,1.19402,0.354742,0.460194,-0.17329,-0.284613,0.356577,-0.00457411,-0.00118201,0.505032,0.5843813251586027,0.42843151551088376,-0.004563664690920288,-0.15910627969726387,-0.0011813117013390606,-0.2476946598427191
671,0.6611,1040.54,96.7933,-0.00369445,318.825,1.20866,0.358816,0.460735,-0.173494,-0.284949,0.357022,-0.00457036,-0.00118095,0.505637,0.5852387073564864,0.42906730898884304,-0.004559931797663674,-0.1592778045200789,-0.0011802529529683081,-0.24794739197563598
672,0.6621,1040.73,96.8195,-0.00360796,318.898,1.22326,0.362882,0.461275,-0.173699,-0.285285,0.357467,-0.00456658,-0.00117989,0.506243,0.586094967427871,0.4297033854578607,-0.0045561690270942146,-0.15945013490568416,-0.0011791942034753422,-0.2482000392048207
673,0.6631,1040.92,96.8456,-0.00352143,318.972,1.23784,0.366941,0.461815,-0.173903,-0.285621,0.357911,-0.00456278,-0.00117882,0.506848,0.5869516900045595,0.4303383147048663,-0.004552386333349423,-0.15962158958919115,-0.0011781254646413553,-0.24845260155879634
674,0.6641,1041.12,96.8716,-0.00343486,319.045,1.25239,0.370993,0.462355,-0.174107,-0.285956,0.358355,-0.00455894,-0.00117774,0.507453,0.5878088753363719,0.4309735259230505,-0.004548563807173722,-0.15979300929951,-0.0011770467364343729,-0.24870432777077944
675,0.6651,1041.31,96.8977,-0.00334826,319.119,1.26692,0.375037,0.462895,-0.174311,-0.286292,0.358799,-0.00455508,-0.00117665,0.508057,0.5886665236732636,0.4316090192376363,-0.0045447213572140654,-0.1599643940437746,-0.0011759580188218655,-0.24895672071225972
676,0.6661,1041.5,96.9236,-0.00326162,319.192,1.28141,0.379073,0.463434,-0.174514,-0.286627,0.359242,-0.00455119,-0.00117556,0.508661,0.5895230457414844,0.43224336252982365,-0.004540849028648486,-0.1601349039644412,-0.0011748693000227517,-0.2492082780726107
677,0.6671,1041.69,96.9495,-0.00317496,319.265,1.29588,0.383103,0.463973,-0.174718,-0.286961,0.359685,-0.00454728,-0.00117446,0.509265,0.5903800295995412,0.4328779868983432,-0.004536956775758827,-0.16030621896930786,-0.0011737705917747032,-0.2494590006347358
678,0.6681,1041.88,96.9754,-0.00308827,319.338,1.31032,0.387124,0.464512,-0.174921,-0.287296,0.360128,-0.00454334,-0.00117335,0.509868,0.5912374754964058,0.4335128924677396,-0.004533034643641964,-0.1604766595065572,-0.0011726618940447464,-0.24971038975949378
679,0.6691,1042.07,97.0012,-0.00300155,319.41,1.32474,0.391138,0.46505,-0.175125,-0.28763,0.360571,-0.00453937,-0.00117223,0.510471,0.5920937915865965,0.434148079362612,-0.004529082631944736,-0.16064790480040403,-0.0011715432067995746,-0.24996094464431906
680,0.6701,1042.27,97.0269,-0.00291482,319.483,1.33912,0.395145,0.465588,-0.175328,-0.287965,0.361014,-0.00453537,-0.00117111,0.511074,0.5929505684987937,0.4347835477076156,-0.004525100740311538,-0.16081827598246956,-0.001170424518301516,-0.250212165645996
681,0.6711,1042.46,97.0526,-0.00282806,319.556,1.35348,0.399144,0.466125,-0.175531,-0.288299,0.361456,-0.00453135,-0.00116998,0.511676,0.5938062126739767,0.43541786220888024,-0.004521098923172873,-0.16098861258269526,-0.0011692958402436116,-0.2504625529656602
682,0.6721,1042.65,97.0783,-0.00274129,319.628,1.3678,0.403135,0.466663,-0.175734,-0.288632,0.361898,-0.0045273,-0.00116884,0.512278,0.5946639111165886,0.4360524571391249,-0.004517067225459304,-0.1611589146081005,-0.0011681571725917772,-0.2507121073824061
683,0.6731,1042.84,97.1039,-0.0026545,319.7,1.3821,0.407118,0.4672,-0.175937,-0.288966,0.36234,-0.00452322,-0.0011677,0.512879,0.595520475603839,0.4366873326223262,-0.004513005646807899,-0.16132918206570346,-0.00116701850364187,-0.25096232774941296
684,0.6741,1043.02,97.1294,-0.0025677,319.772,1.39638,0.411094,0.467736,-0.17614,-0.289299,0.362782,-0.00451912,-0.00116655,0.51348,0.5963759038130427,0.437322488782516,-0.00450892414176407,-0.1614994149625204,-0.001165869845052736,-0.2512117157688627
685,0.6751,1043.21,97.1549,-0.0024809,319.844,1.41062,0.415062,0.468273,-0.176342,-0.289633,0.363223,-0.00451498,-0.00116539,0.514081,0.5972333878872582,0.4379564877865745,-0.004504802800178842,-0.16166877497476095,-0.0011647111967897361,-0.25146176929453246
686,0.6761,1043.4,97.1804,-0.00239408,319.916,1.42483,0.419023,0.468809,-0.176545,-0.289966,0.363664,-0.00451083,-0.00116422,0.514682,0.5980897344635461,0.43859076644585304,-0.004500671486537988,-0.16183893894121415,-0.0011635425588181203,-0.25171099102763583
687,0.6771,1043.59,97.2057,-0.00230727,319.988,1.43902,0.422975,0.469344,-0.176747,-0.290298,0.364105,-0.00450664,-0.00116305,0.515282,0.5989449412188927,0.43922532488370725,-0.004496500335612885,-0.16200823037653733,-0.0011623739194792648,-0.2519593817434743
688,0.6781,1043.78,97.2311,-0.00222045,320.059,1.45317,0.42692,0.469879,-0.176949,-0.290631,0.364546,-0.00450243,-0.00116187,0.515881,0.599800605632266,0.43986016322354615,-0.0044923092570571255,-0.1621774876184443,-0.0011611952903851641,-0.252208437799219
689,0.6791,1043.97,97.2564,-0.00213363,320.131,1.4673,0.430857,0.470414,-0.177152,-0.290963,0.364986,-0.0044982,-0.00116068,0.516481,0.6006567279485786,0.4404938410942727,-0.0044880982506190215,-0.16234754832671194,-0.001160006671500291,-0.2524566633901415
690,0.6801,1044.16,97.2816,-0.00204681,320.202,1.4814,0.434786,0.470949,-0.177354,-0.291295,0.365427,-0.00449394,-0.00115948,0.51708,0.6015133084128741,0.44112923897312983,-0.0044838573608844134,-0.16251673703331526,-0.0011588080627891184,-0.25270480658384653
691,0.6811,1044.34,97.3068,-0.00196,320.273,1.49547,0.438707,0.471483,-0.177555,-0.291627,0.365867,-0.00448965,-0.00115828,0.517678,0.6023687449007811,0.4417634753600508,-0.004479586587471718,-0.16268505425272428,-0.0011576094526396519,-0.2529528674076854
692,0.6821,1044.53,97.332,-0.0018732,320.345,1.50951,0.44262,0.472017,-0.177757,-0.291959,0.366306,-0.00448534,-0.00115707,0.518277,0.6032246383137607,0.44239654847511534,-0.004475295885243424,-0.16285417479001596,-0.0011564008526159242,-0.2532008458890005
693,0.6831,1044.72,97.357,-0.0017864,320.415,1.52352,0.446525,0.472551,-0.177959,-0.292291,0.366746,-0.004481,-0.00115586,0.518875,0.6040809888958762,0.4430313426009107,-0.004470975298651925,-0.16302326116840915,-0.0011551922511296997,-0.2534487420551247
694,0.6841,1044.9,97.3821,-0.00169962,320.486,1.5375,0.450423,0.473084,-0.17816,-0.292622,0.367185,-0.00447663,-0.00115463,0.519472,0.6049361919543268,0.4436649724318844,-0.0044666248273081965,-0.16319147658669841,-0.0011539636712606383,-0.25369580962956517
695,0.6851,1045.09,97.4071,-0.00161286,320.557,1.55145,0.454312,0.473617,-0.178362,-0.292953,0.367624,-0.00447224,-0.0011534,0.520069,0.6057918509575058,0.4442988804874195,-0.004462254426198187,-0.16336049483700987,-0.0011527350898803412,-0.25394279543817144
696,0.6861,1045.28,97.432,-0.00152611,320.628,1.56537,0.458193,0.47415,-0.178563,-0.293284,0.368063,-0.00446782,-0.00115217,0.520666,0.6066479661484967,0.4449330668896836,-0.004457854139638173,-0.1635286424781437,-0.0011515065069889197,-0.2541896995080035
697,0.6871,1045.46,97.4569,-0.00143938,320.698,1.57927,0.462066,0.474682,-0.178764,-0.293615,0.368502,-0.00446338,-0.00115092,0.521263,0.6075029302667787,0.44556753176089803,-0.004453433922697703,-0.16369675632499792,-0.0011502579455917594,-0.25443652186611265
698,0.6881,1045.65,97.4818,-0.00135267,320.768,1.59313,0.465932,0.475214,-0.178965,-0.293945,0.36894,-0.00445891,-0.00114967,0.521859,0.6083583493469806,0.4462008290217847,-0.004448983819601349,-0.16386483638436478,-0.0011490093826337366,-0.2546825172224306
699,0.6891,1045.83,97.5066,-0.00126598,320.838,1.60696,0.469789,0.475746,-0.179166,-0.294276,0.369378,-0.00445442,-0.00114841,0.522455,0.6092142236312066,0.44683440372762795,-0.004444513785503479,-0.16403288266303473,-0.0011477508295927308,-0.25492917648487
700,0.6901,1046.02,97.5313,-0.00117932,320.909,1.62076,0.473638,0.476277,-0.179367,-0.294606,0.369816,-0.0044499,-0.00114715,0.52305,0.6100689432919417,0.447468255999975,-0.004440013864535963,-0.164200895167797,-0.0011464922749658824,-0.2551750092919859
701,0.6911,1046.2,97.556,-0.00109269,320.978,1.63453,0.477478,0.476808,-0.179567,-0.294936,0.370254,-0.00444536,-0.00114588,0.523645,0.6109241169293367,0.4481023859604265,-0.004435494011938879,-0.1643680382738958,-0.0011452237302055357,-0.25542076098765953
702,0.6921,1046.39,97.5807,-0.00100609,321.048,1.64828,0.481311,0.477339,-0.179768,-0.295266,0.370692,-0.00444079,-0.0011446,0.52424,0.6117797447845172,0.4487367937306366,-0.004430944271750281,-0.1645359834191502,-0.0011439451952736102,-0.25566643159865343
703,0.6931,1046.57,97.6052,-0.000919525,321.118,1.66199,0.485135,0.47787,-0.179968,-0.295595,0.371129,-0.0044362,-0.00114332,0.524835,0.6126358270987371,0.44937003006155773,-0.004426374599297178,-0.16470305951429987,-0.0011426666587052159,-0.25591127706337
704,0.6941,1046.75,97.6298,-0.000832991,321.187,1.67567,0.488952,0.4784,-0.180169,-0.295925,0.371566,-0.00443158,-0.00114202,0.525429,0.6134907506218206,0.4500035431772287,-0.004421775038522813,-0.16487093732705216,-0.001141368143327881,-0.2561567858307644
705,0.6951,1046.94,97.6543,-0.000746494,321.257,1.68932,0.49276,0.47893,-0.180369,-0.296254,0.372003,-0.00442694,-0.00114073,0.526022,0.6143461273744666,0.4506373331986304,-0.004417155544841789,-0.16503794643811898,-0.0011400796148616221,-0.256401469995474
706,0.6961,1047.12,97.6787,-0.000660036,321.326,1.70294,0.496559,0.479459,-0.180569,-0.296583,0.372439,-0.00442227,-0.00113942,0.526616,0.6152003423958006,0.45126994897612316,-0.00441250616210187,-0.16520492215070348,-0.001138771107508929,-0.2566460736723343
707,0.6971,1047.3,97.7031,-0.00057362,321.395,1.71653,0.500351,0.479988,-0.180769,-0.296912,0.372875,-0.00441758,-0.00113811,0.527209,0.6160550094164241,0.45190284063423247,-0.004407836845806257,-0.16537186447148478,-0.0011374625984419406,-0.25689059688782145
708,0.6981,1047.49,97.7275,-0.000487246,321.464,1.73009,0.504134,0.480517,-0.180968,-0.29724,0.373311,-0.00441286,-0.00113679,0.527801,0.6169101286755079,0.45253600829326834,-0.004403137639706012,-0.16553793894549673,-0.001136144099022407,-0.2571342968030713
709,0.6991,1047.67,97.7518,-0.000400918,321.533,1.74362,0.507909,0.481045,-0.181168,-0.297568,0.373747,-0.00440812,-0.00113546,0.528394,0.617764082647458,0.4531694520735936,-0.004398418499394041,-0.16570481466957898,-0.0011348156092105821,-0.2573779167978566
710,0.7001,1047.85,97.7761,-0.000314637,321.602,1.75712,0.511676,0.481574,-0.181368,-0.297897,0.374183,-0.00440335,-0.00113413,0.528986,0.6186201062454577,0.4538031720956237,-0.004393669468523931,-0.1658716570218537,-0.0011334871176319483,-0.25762219927655894
711,0.7011,1048.03,97.8003,-0.000228405,321.671,1.77059,0.515434,0.482102,-0.181567,-0.298225,0.374618,-0.00439856,-0.00113279,0.529577,0.619474963323964,0.45443571404338456,-0.0043889005027789585,-0.16603763204704358,-0.0011321486356078436,-0.25786565926557536
712,0.7021,1048.22,97.8244,-0.000142225,321.739,1.78403,0.519184,0.482629,-0.181766,-0.298552,0.375054,-0.00439375,-0.00113145,0.530169,0.6203286515567272,0.45506998627600637,-0.004384111601873131,-0.16620357404648967,-0.0011308101517902847,-0.25810829752147857
713,0.7031,1048.4,97.8485,-5.60978e-05,321.808,1.79743,0.522925,0.483156,-0.181966,-0.29888,0.375489,-0.00438891,-0.0011301,0.53076,0.6211827898017568,0.45570307940780963,-0.004379292809311819,-0.16637031665686353,-0.001129461677473742,-0.25835159809641595
714,0.7041,1048.58,97.8726,2.99735e-05,321.876,1.81081,0.526658,0.483683,-0.182165,-0.299207,0.375923,-0.00438405,-0.00112874,0.53135,0.622037378296272,0.45633499165931246,-0.004374454080916745,-0.16653619245865914,-0.0011281032126179147,-0.25859407747629914
715,0.7051,1048.76,97.8966,0.000115987,321.944,1.82415,0.530383,0.48421,-0.182364,-0.299535,0.376358,-0.00437916,-0.00112737,0.531941,0.6228924172776167,0.4569686351881599,-0.0043695854600934725,-0.16670203525445437,-0.0011267347571818354,-0.25883721874153964
716,0.7061,1048.94,97.9206,0.000201942,322.012,1.83747,0.534099,0.484736,-0.182562,-0.299862,0.376792,-0.00437425,-0.001126,0.53253,0.6237462832361649,0.4576010968100763,-0.0043646969027566485,-0.16686701191824527,-0.0011253662998711444,-0.2590795393494325
717,0.7071,1049.12,97.9445,0.000287835,322.08,1.85075,0.537807,0.485262,-0.182761,-0.300188,0.377226,-0.00436932,-0.00112463,0.53312,0.6246005984463499,0.45823383297990894,-0.004359788408612952,-0.16703278888751805,-0.001123997840685509,-0.25932104005285106
718,0.7081,1049.3,97.9684,0.000373665,322.148,1.864,0.541506,0.485788,-0.18296,-0.300515,0.37766,-0.00436436,-0.00112324,0.533709,0.6254553631445405,0.45886684381683795,-0.00435485002091629,-0.16719853287045616,-0.0011226094020775346,-0.25956320247703957
719,0.7091,1049.48,97.9922,0.000459429,322.216,1.87722,0.545197,0.486313,-0.183158,-0.300841,0.378093,-0.00435938,-0.00112185,0.534298,0.6263089512574653,0.4594986699406949,-0.004349891695723085,-0.1673634112374508,-0.0011212209615396596,-0.25980454553197674
720,0.7101,1049.66,98.016,0.000545127,322.284,1.89041,0.548879,0.486838,-0.183357,-0.301168,0.378527,-0.00435438,-0.00112045,0.534887,0.627162987621805,0.46013222983600177,-0.0043449134327359085,-0.1675290894330873,-0.0011198225302700981,-0.26004654987572107
721,0.7111,1049.84,98.0397,0.000630755,322.351,1.90356,0.552553,0.487363,-0.183555,-0.301494,0.37896,-0.00434935,-0.00111905,0.535475,0.6280174724729533,0.460764603990645,-0.0043399052750550116,-0.16769390235636172,-0.0011184240970427695,-0.26028773538508754
722,0.7121,1050.02,98.0634,0.000716312,322.418,1.91669,0.556218,0.487887,-0.183753,-0.301819,0.379393,-0.0043443,-0.00111764,0.536063,0.6288707771748363,0.4613972520225873,-0.004334877178880703,-0.16785868264990778,-0.0011170156730277991,-0.2605281028092653
723,0.7131,1050.2,98.087,0.000801797,322.486,1.92978,0.559875,0.488411,-0.183951,-0.302145,0.379825,-0.00433923,-0.00111623,0.53665,0.629724529125552,0.46202871202100027,-0.0043298291439112235,-0.16802343032018552,-0.001115607247026973,-0.2607691313579614
724,0.7141,1050.38,98.1106,0.000887206,322.553,1.94284,0.563523,0.488935,-0.184149,-0.30247,0.380258,-0.00433413,-0.0011148,0.537237,0.6305787285595204,0.46266190753023984,-0.004324751213091171,-0.16818814537365367,-0.0011141788413240317,-0.26100934235386886
725,0.7151,1050.55,98.1342,0.00097254,322.62,1.95587,0.567162,0.489458,-0.184346,-0.302796,0.38069,-0.00432901,-0.00111337,0.537824,0.6314317442787238,0.4632939139778567,-0.004319653342766849,-0.16835199616918184,-0.001112750433578391,-0.2612502140440428
726,0.7161,1050.73,98.1577,0.00105779,322.687,1.96887,0.570793,0.489981,-0.184544,-0.303121,0.381122,-0.00432387,-0.00111194,0.538411,0.6322852062418309,0.4639261935112413,-0.00431453553263228,-0.16851664617305206,-0.0011113220237902732,-0.2614902687134817
727,0.7171,1050.91,98.1811,0.00114297,322.753,1.98184,0.574415,0.490504,-0.184742,-0.303446,0.381554,-0.0043187,-0.0011105,0.538997,0.6331391146822887,0.4645587462483918,-0.004309387825474187,-0.16868126357944868,-0.0011098836230583053,-0.2617302453778295
728,0.7181,1051.09,98.2045,0.00122806,322.82,1.99478,0.578029,0.491027,-0.184939,-0.30377,0.381985,-0.00431351,-0.00110905,0.539583,0.6339934698336653,0.46519010711651854,-0.004304220177786977,-0.16884501724025835,-0.0011084352313395218,-0.261969406032209
729,0.7191,1051.27,98.2279,0.00131307,322.886,2.00768,0.581634,0.491549,-0.185136,-0.304095,0.382417,-0.0043083,-0.0011076,0.540168,0.6348466370821975,0.46582320598230176,-0.004299032589260454,-0.16900873864477428,-0.0011069868375205294,-0.2622092270022299
730,0.7201,1051.44,98.2512,0.00139799,322.953,2.02055,0.58523,0.492071,-0.185334,-0.304419,0.382848,-0.00430307,-0.00110614,0.540753,0.6357002498002908,0.4664551119500344,-0.004293825059583201,-0.1691732586265069,-0.0011055284526566567,-0.262448232491701
731,0.7211,1051.62,98.2744,0.00148283,323.019,2.03339,0.588818,0.492592,-0.185531,-0.304743,0.383279,-0.00429781,-0.00110467,0.541338,0.6365526716670511,0.46708729032793905,-0.004288587631328555,-0.16933691537383855,-0.0011040600767041608,-0.2626871605559372
732,0.7221,1051.8,98.2977,0.00156758,323.085,2.0462,0.592397,0.493114,-0.185727,-0.305067,0.383709,-0.00429253,-0.0011032,0.541923,0.6374071751676718,0.46771827351444273,-0.0042833302611918755,-0.1694997093840911,-0.0011025916985932804,-0.26292601122002
733,0.7231,1051.97,98.3208,0.00165223,323.151,2.05897,0.595967,0.493635,-0.185924,-0.305391,0.38414,-0.00428723,-0.00110172,0.542507,0.6382604865742536,0.4683509964323216,-0.004278052948857303,-0.16966330182695777,-0.0011011133293349351,-0.26316478450902314
734,0.7241,1052.15,98.3439,0.0017368,323.217,2.07172,0.599528,0.494155,-0.186121,-0.305714,0.38457,-0.00428191,-0.00110024,0.54309,0.6391126035584871,0.46898252312929656,-0.004272755694008312,-0.1698268620452874,-0.0010996349578886733,-0.26340274385112417
735,0.7251,1052.32,98.367,0.00182127,323.283,2.08443,0.603081,0.494676,-0.186318,-0.306037,0.385,-0.00427656,-0.00109875,0.543674,0.6399668037247623,0.46961432144114434,-0.0042674285390011946,-0.1699903900454276,-0.0010981465952359937,-0.26364062634476937
736,0.7261,1052.5,98.39,0.00190564,323.349,2.09711,0.606625,0.495196,-0.186514,-0.306361,0.38543,-0.0042712,-0.00109725,0.544257,0.6408198082246481,0.47024639148468417,-0.00426209139811462,-0.17015305598719566,-0.0010966482413321543,-0.26387916813597667
737,0.7271,1052.67,98.413,0.00198992,323.414,2.10976,0.61016,0.495715,-0.18671,-0.306684,0.385859,-0.00426581,-0.00109575,0.54484,0.6416716147297845,0.47087726249878825,-0.004256724356323072,-0.17031569004956337,-0.0010951498851806685,-0.2641168967694276
738,0.7281,1052.85,98.436,0.0020741,323.48,2.12237,0.613687,0.496235,-0.186907,-0.307006,0.386289,-0.0042604,-0.00109424,0.545422,0.6425255059619233,0.4715098757237586,-0.004251337370630104,-0.17047912176007163,-0.0010936415377181818,-0.26435381298311045
739,0.7291,1053.02,98.4589,0.00215817,323.545,2.13496,0.617205,0.496754,-0.187103,-0.307329,0.386718,-0.00425496,-0.00109273,0.546004,0.6433781979539492,0.47214128888888407,-0.004245920483171517,-0.1706416919198105,-0.0010921331879781837,-0.2645913883310327
740,0.7301,1053.2,98.4817,0.00224215,323.61,2.14751,0.620714,0.497273,-0.187299,-0.307651,0.387147,-0.00424951,-0.00109121,0.546586,0.64423133260798,0.47277297298836873,-0.004240493608649865,-0.17080423021892055,-0.0010906148468666776,-0.26482815178302865
741,0.7311,1053.37,98.5045,0.00232602,323.675,2.16003,0.624214,0.497791,-0.187495,-0.307973,0.387575,-0.00424403,-0.00108969,0.547167,0.6450832650697291,0.4734034547342769,-0.004235036831603312,-0.17096673666364592,-0.00108909650344724,-0.265064839009466
742,0.7321,1053.55,98.5273,0.00240978,323.74,2.17251,0.627705,0.498309,-0.18769,-0.308295,0.388004,-0.00423854,-0.00108815,0.547749,0.64593563894681,0.47403568041907107,-0.00422957006694924,-0.17112838238902606,-0.0010875581794713707,-0.2653014500348855
743,0.7331,1053.72,98.55,0.00249344,323.805,2.18496,0.631188,0.498827,-0.187886,-0.308617,0.388432,-0.00423302,-0.00108662,0.548329,0.6467884544679352,0.4746667027194298,-0.004224073399005213,-0.1712908253061518,-0.001086029842266245,-0.26553798488381974
744,0.7341,1053.89,98.5726,0.00257699,323.87,2.19739,0.634662,0.499345,-0.188082,-0.308939,0.38886,-0.00422748,-0.00108507,0.54891,0.6476417118619355,0.47529799515513815,-0.004218556785090866,-0.17145323638758592,-0.0010844815244125394,-0.26577444358079394
745,0.7351,1054.07,98.5953,0.00266043,323.935,2.20978,0.638126,0.499862,-0.188277,-0.30926,0.389288,-0.00422191,-0.00108352,0.54949,0.6484937628631733,0.47592955784183855,-0.004213010267005157,-0.17161478725476886,-0.0010829332041589756,-0.26601009216078386
746,0.7361,1054.24,98.6178,0.00274376,323.999,2.22213,0.641582,0.500379,-0.188472,-0.309581,0.389715,-0.00421633,-0.00108197,0.55007,0.6493462544886703,0.47655991433457046,-0.0042074537600997886,-0.171776306622604,-0.0010813848815054428,-0.26624566510971925
747,0.7371,1054.41,98.6404,0.00282697,324.064,2.23446,0.64503,0.500896,-0.188667,-0.309902,0.390142,-0.00421073,-0.00108041,0.550649,0.6501991869662882,0.4771905400469991,-0.004201877306226787,-0.17193779449723312,-0.0010798265672503637,-0.2664811624518735
748,0.7381,1054.59,98.6628,0.00291007,324.128,2.24675,0.648468,0.501412,-0.188863,-0.310223,0.390569,-0.0042051,-0.00107884,0.551228,0.6510509094722712,0.4778214350941059,-0.004196270947014136,-0.1721000787851319,-0.0010782582613469982,-0.26671658421151245
749,0.7391,1054.76,98.6853,0.00299306,324.192,2.25901,0.651898,0.501928,-0.189058,-0.310544,0.390996,-0.00419946,-0.00107727,0.551807,0.6519030715804752,0.47845259959092123,-0.004190654598144161,-0.17226150353034464,-0.00107668995298138,-0.26695193041289433
750,0.7401,1054.93,98.7077,0.00307592,324.256,2.27123,0.655318,0.502444,-0.189252,-0.310864,0.391423,-0.00419379,-0.00107569,0.552385,0.6527556735177928,0.4790840336525246,-0.004185008343148611,-0.17242206922328396,-0.0010751116529046367,-0.2671864682671041
751,0.7411,1055.1,98.73,0.00315867,324.32,2.28343,0.65873,0.502959,-0.189447,-0.311185,0.391849,-0.0041881,-0.00107411,0.552963,0.6536070619033465,0.4797142576790474,-0.004179342139725706,-0.17258343118648267,-0.0010735333503341105,-0.26742166365991027
752,0.7421,1055.28,98.7523,0.0032413,324.384,2.29559,0.662133,0.503474,-0.189642,-0.311505,0.392276,-0.00418239,-0.00107252,0.553541,0.6544588888668426,0.4803462305836892,-0.004173655987535385,-0.17274476168716635,-0.0010719450559895094,-0.26765605122352887
753,0.7431,1055.45,98.7746,0.0033238,324.448,2.30771,0.665527,0.503989,-0.189836,-0.311825,0.392702,-0.00417666,-0.00107093,0.554119,0.6553111546342072,0.4809769924206502,-0.004167949886236255,-0.17290523363711652,-0.001070356759119484,-0.26789036379512643
754,0.7441,1055.62,98.7968,0.00340618,324.511,2.31981,0.668912,0.504504,-0.190031,-0.312144,0.393127,-0.00417092,-0.00106933,0.554696,0.6561638594314825,0.48160654141211356,-0.00416223379386349,-0.17306650139244018,-0.001068758470411657,-0.268123869522932
755,0.7451,1055.79,98.819,0.00348844,324.575,2.33187,0.672288,0.505018,-0.190225,-0.312464,0.393553,-0.00416515,-0.00106772,0.555272,0.6570153464686523,0.4822378402558616,-0.004156487793375185,-0.17322691093094167,-0.0010671501898180669,-0.2683580324166235
756,0.7461,1055.96,98.8411,0.00357057,324.638,2.3439,0.675655,0.505532,-0.190419,-0.312783,0.393978,-0.00415936,-0.00106611,0.555849,0.6578672712826581,0.48286792522154154,-0.004150721842747118,-0.17338728935301118,-0.0010655419066352145,-0.2685913889819316
757,0.7471,1056.13,98.8632,0.00365257,324.702,2.3559,0.679013,0.506046,-0.190613,-0.313102,0.394403,-0.00415355,-0.00106449,0.556425,0.6587196340985753,0.48349827803024437,-0.00414493594163301,-0.17354763666468453,-0.001063923631502317,-0.2688246711183673
758,0.7481,1056.3,98.8852,0.00373445,324.765,2.36787,0.682363,0.506559,-0.190807,-0.313421,0.394828,-0.00414772,-0.00106287,0.557001,0.6595707755699891,0.4841288987958279,-0.004139130089685472,-0.1737079528719967,-0.001062305353747739,-0.2690578788496698
759,0.7491,1056.47,98.9072,0.00381619,324.828,2.3798,0.685703,0.507072,-0.191001,-0.31374,0.395253,-0.00414186,-0.00106124,0.557576,0.6604223537889937,0.4847597876321976,-0.004133294327889114,-0.17386823798098128,-0.0010606770839785007,-0.2692910121995704
760,0.7501,1056.64,98.9291,0.0038978,324.891,2.3917,0.689034,0.507585,-0.191195,-0.314059,0.395677,-0.00413599,-0.00105961,0.558151,0.6612743689796987,0.48538945926310606,-0.00412744857316949,-0.17402849199767068,-0.0010590488115550523,-0.2695240711917931
761,0.7511,1056.81,98.951,0.00397928,324.954,2.40356,0.692357,0.508097,-0.191388,-0.314377,0.396102,-0.0041301,-0.00105797,0.558726,0.6621251592403372,0.486020883951535,-0.004121582866567164,-0.17418788911639838,-0.0010574105470517736,-0.269756325606745
762,0.7521,1056.98,98.9729,0.00406063,325.016,2.4154,0.69567,0.508609,-0.191582,-0.314695,0.396526,-0.00412419,-0.00105633,0.559301,0.6629763852171231,0.48665109040065624,-0.0041156972077297516,-0.17434808112678235,-0.0010557722798616442,-0.2699885061765349
763,0.7531,1057.15,98.9947,0.00414184,325.079,2.4272,0.698975,0.509121,-0.191775,-0.315013,0.396949,-0.00411826,-0.00105468,0.559875,0.6638280471331999,0.48728007683314756,-0.004109791596304091,-0.17450741657075997,-0.0010541240205260705,-0.27022061292464183
764,0.7541,1057.32,99.0165,0.00422291,325.142,2.43897,0.702271,0.509633,-0.191968,-0.315331,0.397373,-0.00411231,-0.00105302,0.560449,0.6646801452118258,0.4879108172932529,-0.004103866031935577,-0.17466672126596428,-0.0010524657689956474,-0.2704526458745373
765,0.7551,1057.49,99.0382,0.00430385,325.204,2.4507,0.705557,0.510144,-0.192161,-0.315649,0.397796,-0.00410635,-0.00105136,0.561022,0.6655310141445265,0.4885403367029366,-0.004097930473289102,-0.1748259952183291,-0.0010508075147124263,-0.2706846050496857
766,0.7561,1057.65,99.0599,0.00438465,325.266,2.4624,0.708835,0.510655,-0.192354,-0.315966,0.398219,-0.00410036,-0.0010497,0.561595,0.6663823179823603,0.48917012245565794,-0.004091965002026132,-0.17498523843378744,-0.0010491492576766293,-0.27091576138966933
767,0.7571,1057.82,99.0815,0.0044653,325.329,2.47407,0.712104,0.511165,-0.192547,-0.316284,0.398642,-0.00409435,-0.00104803,0.562168,0.6672323897143977,0.4898001746641043,-0.00408597957674961,-0.1751444509182707,-0.0010474810083628272,-0.2711475733174975
768,0.7581,1057.99,99.1031,0.00454582,325.391,2.48571,0.715364,0.511676,-0.19274,-0.316601,0.399065,-0.00408832,-0.00104635,0.562741,0.6680845631773182,0.49043049344101,-0.004079974197100267,-0.17530363267770954,-0.0010458027667212821,-0.2713785829197993
769,0.7591,1058.16,99.1247,0.00462619,325.453,2.49731,0.718614,0.512186,-0.192933,-0.316918,0.399487,-0.00408228,-0.00104467,0.563313,0.6689355032758197,0.491059587838824,-0.004073958821977919,-0.17546278371803337,-0.0010441245222602147,-0.27160951930366306
770,0.7601,1058.33,99.1462,0.00470642,325.514,2.50888,0.721856,0.512696,-0.193125,-0.317235,0.39991,-0.00407621,-0.00104298,0.563885,0.6697868774644549,0.4916904394601913,-0.00406791353256053,-0.17562107966666218,-0.0010424362854040137,-0.27184038249229514
771,0.7611,1058.49,99.1677,0.0047865,325.576,2.52042,0.725089,0.513205,-0.193318,-0.317551,0.400332,-0.00407013,-0.00104129,0.564456,0.6706370153268157,0.49232006566742936,-0.004061858247066841,-0.17578016944562902,-0.0010407480456947615,-0.2720704445797033
772,0.7621,1058.66,99.1891,0.00486644,325.638,2.53192,0.728313,0.513714,-0.19351,-0.317867,0.400754,-0.00406402,-0.00103959,0.565028,0.6714875860194944,0.4929499576329981,-0.004055773046430455,-0.17593840446204778,-0.0010390498135229853,-0.2723004339789772
773,0.7631,1058.83,99.2105,0.00494623,325.699,2.5434,0.731527,0.514223,-0.193702,-0.318184,0.401175,-0.0040579,-0.00103789,0.565599,0.6723385897628578,0.49357862188970203,-0.004049677849110145,-0.17609660910025982,-0.0010373515784641851,-0.2725310781823682
774,0.7641,1058.99,99.2318,0.00502587,325.761,2.55483,0.734733,0.514732,-0.193895,-0.3185,0.401597,-0.00405176,-0.00103618,0.566169,0.6731900267773847,0.4942090450780765,-0.00404356269535866,-0.17625560711090182,-0.0010356433508748042,-0.2727609220444198
775,0.7651,1059.16,99.2531,0.00510536,325.822,2.56624,0.73793,0.51524,-0.194087,-0.318816,0.402018,-0.0040456,-0.00103447,0.566739,0.6740402232426062,0.49483823952219175,-0.004037427584808739,-0.17641375085205158,-0.0010339351203644265,-0.2729906932872853
776,0.7661,1059.33,99.2744,0.0051847,325.883,2.57761,0.741118,0.515748,-0.194279,-0.319131,0.402439,-0.00403942,-0.00103275,0.567309,0.6748908517173529,0.4954676989129352,-0.0040312725170921215,-0.1765718642325178,-0.0010322168972551893,-0.2732196651539376
777,0.7671,1059.49,99.2956,0.00526389,325.945,2.58895,0.744297,0.516256,-0.19447,-0.319447,0.40286,-0.00403322,-0.00103103,0.567879,0.6757419124211417,0.4960974233618729,-0.0040250974918391025,-0.1767291239876646,-0.0010304986711905384,-0.27344929145688224
778,0.7681,1059.66,99.3167,0.00534293,326.006,2.60026,0.747467,0.516763,-0.194662,-0.319762,0.40328,-0.00402701,-0.0010293,0.568448,0.6765917289810333,0.49672591625395346,-0.004018912468490066,-0.17688717682230137,-0.0010287704524583052,-0.27367811888786087
779,0.7691,1059.82,99.3379,0.00542181,326.066,2.61153,0.750627,0.51727,-0.194854,-0.320077,0.4037,-0.00402077,-0.00102757,0.569017,0.6774419765071618,0.49735467316848947,-0.004012697527113307,-0.17704519931370688,-0.0010270422307363525,-0.2739068742495502
780,0.7701,1059.99,99.359,0.00550054,326.127,2.62277,0.753779,0.517777,-0.195045,-0.320392,0.40412,-0.00401452,-0.00102583,0.569586,0.6782926552180819,0.49798369421639355,-0.004006472587019916,-0.17720236867048655,-0.0010253040162775395,-0.2741355575646486
781,0.7711,1060.15,99.38,0.00557911,326.188,2.63398,0.756922,0.518283,-0.195236,-0.320707,0.40454,-0.00400825,-0.00102409,0.570154,0.6791420861895343,0.4986129795086254,-0.004000227688025326,-0.1773595080107857,-0.001023565798794257,-0.274364168855847
782,0.7721,1060.32,99.401,0.00565752,326.249,2.64516,0.760056,0.51879,-0.195428,-0.321021,0.40496,-0.00400196,-0.00102234,0.570722,0.6799936270746061,0.4992425291561906,-0.003993962829754505,-0.17751743982330848,-0.0010218175885047254,-0.27459198273817487
783,0.7731,1060.48,99.422,0.00573578,326.309,2.6563,0.763181,0.519296,-0.195619,-0.321336,0.405379,-0.00399566,-0.00102059,0.57129,0.6808439189556097,0.4998708433985486,-0.00398768797195459,-0.17767451899076425,-0.0010200693751558632,-0.27482045027808566
784,0.7741,1060.65,99.4429,0.00581388,326.369,2.66741,0.766297,0.519801,-0.19581,-0.32165,0.405799,-0.00398933,-0.00101883,0.571857,0.6816929594993755,0.5005009214599068,-0.003981383194064825,-0.17783156815896406,-0.0010183111689306967,-0.27504812091053843
785,0.7751,1060.81,99.4637,0.00589182,326.43,2.67849,0.769403,0.520307,-0.196001,-0.321964,0.406218,-0.00398299,-0.00101707,0.572424,0.6825441114601678,0.5011297630791176,-0.0039750684160164695,-0.1779885873336371,-0.0010165529596111167,-0.27527572006563517
786,0.7761,1060.98,99.4846,0.00596959,326.49,2.68953,0.772501,0.520812,-0.196192,-0.322278,0.406637,-0.00397663,-0.0010153,0.572991,0.683394010817981,0.5017588682381748,-0.003968733677307101,-0.17814557652051177,-0.0010147847573450663,-0.27550324776581625
787,0.7771,1061.14,99.5054,0.00604721,326.55,2.70054,0.77559,0.521316,-0.196382,-0.322591,0.407055,-0.00397025,-0.00101353,0.573558,0.6842426552398635,0.5023867346600386,-0.003962378977556469,-0.17830171402744,-0.0010130165519491863,-0.2757299797638567
788,0.7781,1061.3,99.5261,0.00612466,326.61,2.71152,0.77867,0.521821,-0.196573,-0.322905,0.407474,-0.00396386,-0.00101175,0.574124,0.6850934125789074,0.5030163666005409,-0.003956014276823017,-0.17845864341282736,-0.0010112383535361147,-0.2759573648488842
789,0.7791,1061.47,99.5468,0.00620195,326.67,2.72246,0.781741,0.522325,-0.196763,-0.323218,0.407892,-0.00395744,-0.00100997,0.57469,0.6859429137151514,0.5036447587665931,-0.003949619653907943,-0.17861472144269652,-0.0010094601519576862,-0.27618395473052015
790,0.7801,1061.63,99.5675,0.00627907,326.729,2.73337,0.784803,0.522829,-0.196954,-0.323531,0.40831,-0.00395101,-0.00100818,0.575255,0.6867928431078794,0.5042734136554758,-0.00394321502937145,-0.17877159104937668,-0.001007671957291012,-0.27641047370062144
791,0.7811,1061.79,99.5881,0.00635603,326.789,2.74425,0.787856,0.523333,-0.197144,-0.323844,0.408727,-0.00394457,-0.00100639,0.57582,0.6876432009729874,0.5049008264754515,-0.0039368004030211345,-0.17892760962484333,-0.0010058837594233427,-0.2766369217813798
792,0.7821,1061.96,99.6087,0.00643282,326.849,2.7551,0.790899,0.523836,-0.197334,-0.324157,0.409145,-0.0039381,-0.0010046,0.576385,0.6884922990333364,0.5055300065103845,-0.0039303558532717275,-0.17908359855959655,-0.0010040955583547895,-0.2768632989949801
793,0.7831,1062.12,99.6292,0.00650944,326.908,2.76591,0.793934,0.524339,-0.197524,-0.32447,0.409562,-0.00393162,-0.00100279,0.57695,0.6893418242974427,0.5061579434388497,-0.003923901301064903,-0.17923955785926748,-0.0010022873741314386,-0.2770896053636004
794,0.7841,1062.28,99.6497,0.0065859,326.967,2.77669,0.79696,0.524842,-0.197714,-0.324782,0.409979,-0.00392512,-0.00100099,0.577514,0.6901917769802437,0.5067861422716171,-0.003917426785381206,-0.17939548752948653,-0.0010004891766303148,-0.2773151182248912
795,0.7851,1062.44,99.6702,0.00666218,327.027,2.78744,0.799977,0.525344,-0.197904,-0.325094,0.410396,-0.0039186,-0.000999179,0.578078,0.691040466255473,0.5074146031179241,-0.003910932305831838,-0.17955138757588252,-0.0009986799868779705,-0.2775405607371443
796,0.7861,1062.6,99.6906,0.0067383,327.086,2.79815,0.802985,0.525846,-0.198094,-0.325406,0.410813,-0.00391207,-0.000997364,0.578641,0.6918895816796731,0.5080433260870525,-0.0039044278229827256,-0.1797072580040835,-0.0009968667978366152,-0.2777659329223052
797,0.7871,1062.77,99.711,0.00681425,327.145,2.80883,0.805984,0.526348,-0.198283,-0.325718,0.411229,-0.00390552,-0.000995544,0.579205,0.6927391234668241,0.5086708026167739,-0.003897903375617351,-0.17986227868240512,-0.0009950486104797207,-0.2779912348023126
798,0.7881,1062.93,99.7313,0.00689002,327.204,2.81948,0.808974,0.52685,-0.198473,-0.32603,0.411646,-0.00389895,-0.00099372,0.579768,0.6935890918310144,0.5093000495303284,-0.003891358963344138,-0.18001809004690716,-0.0009932264237865196,-0.27821646639909803
799,0.7891,1063.09,99.7516,0.00696562,327.262,2.8301,0.811955,0.527351,-0.198662,-0.326341,0.412062,-0.00389236,-0.000991891,0.58033,0.6944377925477991,0.5099280489657589,-0.0038847945857701793,-0.18017305198352396,-0.000991399238726709,-0.2784409061758536
800,0.7901,1063.25,99.7718,0.00704105,327.321,2.84068,0.814927,0.527852,-0.198851,-0.326653,0.412477,-0.00388576,-0.000990058,0.580893,0.6952869185701731,0.5105547991477473,-0.003878220203718974,-0.18032798463510236,-0.0009895680542831853,-0.2786659974970548
801,0.7911,1063.41,99.792,0.00711631,327.38,2.85123,0.81789,0.528353,-0.199041,-0.326964,0.412893,-0.00387915,-0.00098822,0.581455,0.696136470111268,0.5111833206676049,-0.003871635816993124,-0.18048370752387877,-0.0009877318714218708,-0.27889029749137617
802,0.7921,1063.57,99.8122,0.00719139,327.438,2.86175,0.820844,0.528853,-0.19923,-0.327275,0.413309,-0.00387251,-0.000986377,0.582016,0.696984750398723,0.5118121037068069,-0.0038650215026955204,-0.1806385814671081,-0.00098589069011501,-0.2791145277392455
803,0.7931,1063.73,99.8323,0.00726629,327.497,2.87224,0.823789,0.529353,-0.199419,-0.327586,0.413724,-0.00386586,-0.000984531,0.582578,0.6978334549323744,0.5124396359337757,-0.0038583971830626895,-0.18079342614192806,-0.0009840465083670313,-0.2793386882623504
804,0.7941,1063.89,99.8524,0.00734102,327.555,2.88269,0.826725,0.529853,-0.199607,-0.327896,0.414139,-0.0038592,-0.000982679,0.583139,0.6986825839243984,0.5130674286406649,-0.0038517628578955687,-0.18094742250170204,-0.0009821963291078983,-0.2795620586447911
805,0.7951,1064.05,99.8725,0.00741557,327.613,2.89311,0.829653,0.530353,-0.199796,-0.328207,0.414553,-0.00385251,-0.000980823,0.583699,0.6995321375870771,0.5136939682408705,-0.0038450986038972568,-0.1811022088110822,-0.0009803421503437049,-0.279786080007425
806,0.7961,1064.21,99.8925,0.00748994,327.671,2.9035,0.832571,0.530852,-0.199985,-0.328517,0.414968,-0.00384581,-0.000978963,0.58426,0.7003804157515334,0.5143222816036956,-0.003838424343699076,-0.18125696586861428,-0.0009784839720519134,-0.2800093117199195
807,0.7971,1064.37,99.9124,0.00756414,327.729,2.91385,0.83548,0.531351,-0.200173,-0.328827,0.415382,-0.0038391,-0.000977098,0.58482,0.7012291173124223,0.5149493408205812,-0.0038317400771007426,-0.18141087509111076,-0.000976620795187122,-0.28023247424130837
808,0.7981,1064.53,99.9324,0.00763816,327.787,2.92417,0.838381,0.53185,-0.200362,-0.329137,0.415796,-0.00383237,-0.000975229,0.58538,0.7020782424810714,0.5155766596937277,-0.0038250358421517694,-0.1815655738162285,-0.0009747536187465489,-0.28045556759303747
809,0.7991,1064.69,99.9523,0.00771199,327.845,2.93446,0.841272,0.532348,-0.20055,-0.329447,0.41621,-0.00382562,-0.000973355,0.585939,0.7029260885419737,0.5162042383306551,-0.0038183116384495897,-0.18171942502588423,-0.0009728814436805733,-0.280678591796546
810,0.8001,1064.85,99.9721,0.00778565,327.903,2.94472,0.844155,0.532847,-0.200738,-0.329756,0.416624,-0.00381886,-0.000971477,0.586499,0.703776060710575,0.5168320768389276,-0.0038115774274746217,-0.18187324731423116,-0.0009710052689901882,-0.280900827774454
811,0.8011,1065.01,99.9919,0.00785912,327.96,2.95494,0.847029,0.533345,-0.200926,-0.330066,0.417038,-0.00381208,-0.000969595,0.587058,0.7046247524955234,0.5174601753261547,-0.003804823247072875,-0.18202704068670617,-0.0009691250946528562,-0.28112371396869895
812,0.8021,1065.17,100.012,0.00793242,328.018,2.96513,0.849893,0.533842,-0.201114,-0.330375,0.417451,-0.00380528,-0.000967708,0.587616,0.7054721615612236,0.5180870158122148,-0.003798049096838896,-0.18218080514874468,-0.0009672399216132943,-0.2813458124251038
813,0.8031,1065.33,100.031,0.00800553,328.075,2.97529,0.852749,0.534339,-0.201302,-0.330684,0.417864,-0.00379847,-0.000965817,0.588174,0.7063199918939054,0.5187141152368628,-0.003791264938453276,-0.1823345407057816,-0.0009653507488777135,-0.2815678422636878
814,0.8041,1065.48,100.051,0.00807846,328.133,2.98542,0.855596,0.534837,-0.20149,-0.330993,0.418277,-0.00379164,-0.000963922,0.588732,0.7071699508720879,0.5193414737070625,-0.0037844608095567445,-0.18248824736325042,-0.0009634575764236875,-0.2817898035056503
815,0.8051,1065.64,100.071,0.0081512,328.19,2.99551,0.858434,0.535333,-0.201678,-0.331302,0.41869,-0.0037848,-0.000962023,0.58929,0.7080169171980053,0.5199690913298216,-0.003777646671964341,-0.18264192512658373,-0.0009615604042282344,-0.2820116961721846
816,0.8061,1065.8,100.09,0.00822376,328.247,3.00558,0.861264,0.53583,-0.201865,-0.33161,0.419102,-0.00377795,-0.000960119,0.589848,0.7088660125885795,0.5205954476159844,-0.00377082252547134,-0.18279475679637858,-0.0009596582332284109,-0.2822328025176385
817,0.8071,1065.96,100.11,0.00829614,328.304,3.0156,0.864084,0.536326,-0.202053,-0.331918,0.419514,-0.00377107,-0.000958211,0.590405,0.7097138203697719,0.5212220620141046,-0.003763968445152255,-0.1829483769413548,-0.0009577520624377556,-0.2824538407728243
818,0.8081,1066.11,100.129,0.00836833,328.361,3.0256,0.866895,0.536822,-0.20224,-0.332227,0.419926,-0.00376419,-0.000956299,0.590961,0.7105620487679283,0.5218489346305459,-0.0037571143176770017,-0.18310115131001803,-0.0009558418918336198,-0.28267552828354126
819,0.8091,1066.27,100.149,0.00844033,328.418,3.03557,0.869698,0.537318,-0.202427,-0.332535,0.420338,-0.00375728,-0.000954383,0.591518,0.7114106979917261,0.5224760655717167,-0.0037502302555525446,-0.18325389711254536,-0.0009539277213929109,-0.2828964302001884
820,0.8101,1066.43,100.168,0.00851215,328.474,3.0455,0.872492,0.537813,-0.202615,-0.332842,0.42075,-0.00375037,-0.000952462,0.592074,0.712258055991035,0.5231034549440683,-0.003743346145859028,-0.18340743094725553,-0.0009520085520446919,-0.28311654720642765
821,0.8111,1066.59,100.188,0.00858378,328.531,3.0554,0.875277,0.538308,-0.202802,-0.33315,0.421161,-0.00374343,-0.000950538,0.59263,0.7131058335363825,0.5237295791237555,-0.003736432100689635,-0.1835601194808456,-0.0009500863818600047,-0.2833373133101629
822,0.8121,1066.74,100.207,0.00865522,328.588,3.06527,0.878053,0.538803,-0.202989,-0.333458,0.421572,-0.00373649,-0.000948609,0.593185,0.7139540308354955,0.5243559606933703,-0.003729518007536514,-0.18371277946434938,-0.0009481592127178473,-0.2835580114284084
823,0.8131,1066.9,100.226,0.00872647,328.644,3.0751,0.88082,0.539297,-0.203175,-0.333765,0.421983,-0.00372952,-0.000946676,0.593741,0.7148009332944125,0.5249825997587223,-0.0037225739780770706,-0.18386459476810801,-0.0009462280436431936,-0.28377792536038415
824,0.8141,1067.06,100.246,0.00879754,328.7,3.08491,0.883578,0.539792,-0.203362,-0.334072,0.422394,-0.00372255,-0.000944739,0.594295,0.7156499698756109,0.5256094964256635,-0.0037156299002176763,-0.18401719782005632,-0.0009442928746127288,-0.283997771789145
825,0.8151,1067.21,100.265,0.00886842,328.757,3.09468,0.886328,0.540286,-0.203549,-0.334379,0.422805,-0.00371555,-0.000942799,0.59485,0.7164977103353831,0.5262366508000902,-0.0037086558852179596,-0.184169772337902,-0.0009423547046608638,-0.28421755073541133
826,0.8161,1067.37,100.284,0.0089391,328.813,3.10442,0.889069,0.540779,-0.203735,-0.334686,0.423215,-0.00370855,-0.000940854,0.595404,0.717344152337388,0.5268625361246422,-0.0037016818213999603,-0.1843215026488908,-0.0009404115356510534,-0.28443726221989707
827,0.8171,1067.52,100.303,0.0090096,328.869,3.11412,0.891801,0.541273,-0.203922,-0.334992,0.423625,-0.00370153,-0.000938905,0.595958,0.718192729930051,0.5274886781147898,-0.0036946877826572466,-0.18447402026705373,-0.000938464366615599,-0.2846561909198584
828,0.8181,1067.68,100.323,0.00907991,328.925,3.1238,0.894524,0.541766,-0.204108,-0.335299,0.424035,-0.00369449,-0.000936952,0.596512,0.7190400077827364,0.5281150768757883,-0.0036876737685699323,-0.18462569399319018,-0.0009365131975311858,-0.28487576776247603
829,0.8191,1067.83,100.342,0.00915002,328.981,3.13344,0.897238,0.542259,-0.204294,-0.335605,0.424445,-0.00368744,-0.000934995,0.597065,0.7198877034463853,0.5287417325129344,-0.0036806497419104023,-0.18477733951063713,-0.0009345580283743882,-0.2850945623002692
830,0.8201,1067.99,100.361,0.00921994,329.036,3.14305,0.899944,0.542751,-0.20448,-0.335911,0.424855,-0.00368037,-0.000933034,0.597619,0.7207340963920719,0.5293686451315696,-0.0036736057392035004,-0.18492895682464083,-0.0009325988591216694,-0.2853132898971763
831,0.8211,1068.14,100.38,0.00928968,329.092,3.15263,0.902641,0.543244,-0.204666,-0.336217,0.425264,-0.00367329,-0.000931069,0.598171,0.721582627447312,0.5299942848420278,-0.0036665517233609446,-0.18508054594044665,-0.0009306356897496038,-0.285531950573678
832,0.8221,1068.3,100.399,0.00935922,329.148,3.16218,0.905329,0.543736,-0.204852,-0.336523,0.425673,-0.0036662,-0.0009291,0.598724,0.722429854500781,0.5306201804914634,-0.003659487694170682,-0.18523210686329894,-0.0009286685202346545,-0.28575054435024894
833,0.8231,1068.45,100.418,0.00942856,329.203,3.17169,0.908008,0.544228,-0.205038,-0.336829,0.426082,-0.00365909,-0.000927128,0.599276,0.723277498492519,0.5312463321845771,-0.0036524036879446165,-0.18538363959844117,-0.0009266983496263315,-0.2859690712473574
834,0.8241,1068.61,100.437,0.00949771,329.259,3.18118,0.910679,0.544719,-0.205224,-0.337134,0.426491,-0.00365197,-0.000925151,0.599828,0.7241238355030117,0.5318727400261121,-0.0036453096678041863,-0.18553514415111572,-0.0009247231797565592,-0.28618681747263963
835,0.8251,1068.76,100.455,0.00956667,329.314,3.19063,0.913341,0.54521,-0.205409,-0.337439,0.426899,-0.00364484,-0.000923171,0.600379,0.7249705881670114,0.5324978716222164,-0.003638205633536229,-0.1856858062127773,-0.0009227450087500033,-0.2864044972954499
836,0.8261,1068.91,100.474,0.00963544,329.369,3.20005,0.915994,0.545701,-0.205595,-0.337744,0.427308,-0.00363769,-0.000921187,0.600931,0.7258177566886537,0.533124791448075,-0.0036310816212382635,-0.18583725456768807,-0.0009207628375098587,-0.28662211073603816
837,0.8271,1069.07,100.493,0.00970401,329.424,3.20944,0.918639,0.546192,-0.20578,-0.338049,0.427716,-0.00363053,-0.000919199,0.601482,0.7266653412721751,0.5337504339853845,-0.0036239475942428934,-0.18598786074409224,-0.0009187766660121444,-0.2868396578146478
838,0.8281,1069.22,100.512,0.00977238,329.479,3.21879,0.921274,0.546682,-0.205966,-0.338354,0.428124,-0.00362335,-0.000917207,0.602032,0.7275116146094336,0.5343763318369297,-0.0036167935885037528,-0.18613925292208477,-0.0009167864942329906,-0.28705713855151604
839,0.8291,1069.38,100.531,0.00984056,329.534,3.22812,0.923901,0.547173,-0.206151,-0.338659,0.428531,-0.00361616,-0.000915211,0.602583,0.728360031081406,0.5350009501051827,-0.0036096295674949985,-0.18628980323396105,-0.0009147923221486387,-0.2872745529668741
840,0.8301,1069.53,100.549,0.00990855,329.589,3.23741,0.92652,0.547662,-0.206336,-0.338963,0.428939,-0.00360895,-0.000913212,0.603133,0.7292054058138813,0.535627358271402,-0.003602445567025936,-0.18644032569660562,-0.0009127951488223651,-0.2874911885724917
841,0.8311,1069.68,100.568,0.00997634,329.644,3.24667,0.92913,0.548152,-0.206521,-0.339267,0.429346,-0.00360174,-0.000911209,0.603683,0.7300529240877496,0.5362524858110436,-0.003595261514759973,-0.18659082031517027,-0.0009107939751468175,-0.28770775833089446
842,0.8321,1069.83,100.586,0.0100439,329.698,3.2559,0.931731,0.548641,-0.206706,-0.339571,0.429753,-0.0035945,-0.000909202,0.604232,0.7308991268473413,0.5368778678293764,-0.003588047518338744,-0.18674128709480575,-0.000908788801098126,-0.287924262262097
843,0.8331,1069.99,100.605,0.0101113,329.753,3.2651,0.934323,0.54913,-0.20689,-0.339875,0.43016,-0.00358726,-0.000907192,0.604781,0.7317457435012713,0.537503504429995,-0.0035808334696878497,-0.18689091293198112,-0.0009067806257454514,-0.2881407003861076
844,0.8341,1070.14,100.624,0.0101785,329.807,3.27427,0.936907,0.549619,-0.207075,-0.340179,0.430567,-0.00358,-0.000905178,0.60533,0.7325927742519833,0.5381293957165347,-0.0035735994402793514,-0.1870413241996175,-0.000904768449975335,-0.28835707272292865
845,0.8351,1070.29,100.642,0.0102455,329.862,3.2834,0.939482,0.550108,-0.20726,-0.340482,0.430973,-0.00357273,-0.00090316,0.605879,0.7334402193020204,0.5387540030379021,-0.003566355394015286,-0.18719170764374304,-0.0009027522737637961,-0.2885726678655801
846,0.8361,1070.44,100.661,0.0103123,329.916,3.29251,0.942049,0.550596,-0.207444,-0.340786,0.431379,-0.00356545,-0.000901139,0.606427,0.7342863445668126,0.539378864001328,-0.0035591013306777164,-0.1873412506111617,-0.0009007330961857685,-0.2887889089042457
847,0.8371,1070.6,100.679,0.0103789,329.97,3.30158,0.944607,0.551084,-0.207628,-0.341089,0.431785,-0.00355815,-0.000899114,0.606975,0.7351328828415007,0.5400039787098114,-0.003551827285567244,-0.18749076606520565,-0.0008987099181217983,-0.2890043732203553
848,0.8381,1070.75,100.697,0.0104453,330.024,3.31062,0.947156,0.551571,-0.207813,-0.341392,0.432191,-0.00355084,-0.000897085,0.607523,0.7359780983487156,0.5406293472663943,-0.0035445432228015106,-0.18764106637027667,-0.0008966827395476828,-0.289219772260667
849,0.8391,1070.9,100.716,0.0105116,330.078,3.31963,0.949697,0.552059,-0.207997,-0.341695,0.432597,-0.00354351,-0.000895053,0.60807,0.736825462400722,0.5412549697741598,-0.003537239177534013,-0.18779052666329588,-0.0008946525595443511,-0.28943510604495626
850,0.8401,1071.05,100.734,0.0105776,330.132,3.32861,0.95223,0.552546,-0.208181,-0.341998,0.433002,-0.00353618,-0.000893017,0.608617,0.7376715023949287,0.5418793044561576,-0.003529935078727675,-0.18793995945815112,-0.0008926183789861319,-0.2896503745929927
851,0.8411,1071.2,100.752,0.0106434,330.186,3.33756,0.954753,0.553033,-0.208365,-0.3423,0.433408,-0.00352883,-0.000890978,0.609164,0.7385179545109559,0.542505434549575,-0.0035226109968345964,-0.18808936475990157,-0.0008905811969580624,-0.2898648677897626
852,0.8421,1071.35,100.771,0.010709,330.24,3.34648,0.957269,0.553519,-0.208549,-0.342603,0.433813,-0.00352147,-0.000888935,0.609711,0.7393630795856068,0.5431302757723744,-0.003515276896262076,-0.1882387425736054,-0.0008885400143304745,-0.2900800061397163
853,0.8431,1071.5,100.789,0.0107744,330.293,3.35536,0.959775,0.554006,-0.208732,-0.342905,0.434217,-0.00351409,-0.000886889,0.610257,0.7402103557003532,0.5437538263525226,-0.0035079228118689576,-0.1883872812920072,-0.0008864958301920689,-0.29029436960734933
854,0.8441,1071.65,100.807,0.0108396,330.347,3.36422,0.962273,0.554492,-0.208916,-0.343207,0.434622,-0.00350671,-0.000884839,0.610803,0.7410563034818838,0.5443791732763996,-0.0035005686732025865,-0.188536604294112,-0.000884447645409181,-0.2905086683469894
855,0.8451,1071.8,100.825,0.0109046,330.4,3.37304,0.964763,0.554978,-0.2091,-0.343509,0.435027,-0.00349931,-0.000882785,0.611348,0.7419026624939569,0.5450047735170742,-0.0034931945501265327,-0.18868589982331196,-0.0008823954599570527,-0.29072290237818166
856,0.8461,1071.95,100.843,0.0109695,330.453,3.38184,0.967244,0.555463,-0.209283,-0.34381,0.435431,-0.00349189,-0.000880729,0.611894,0.7427476901879182,0.5456290815473057,-0.0034858004421980393,-0.18883435671942395,-0.0008803412720503889,-0.29093636265718226
857,0.8471,1072.1,100.861,0.0110341,330.507,3.3906,0.969717,0.555948,-0.209466,-0.344112,0.435835,-0.00348447,-0.000878669,0.612439,0.7435931278197125,0.546253641848937,-0.0034784062794049886,-0.18898278645040978,-0.0008782830834335176,-0.2911504675441945
858,0.8481,1072.25,100.879,0.0110985,330.56,3.39933,0.972181,0.556433,-0.20965,-0.344413,0.436239,-0.00347703,-0.000876605,0.612983,0.7444389755882086,0.546878454523906,-0.0034709921311670833,-0.18913199988964546,-0.0008762208940815697,-0.2913637991454471
859,0.8491,1072.4,100.897,0.0111627,330.613,3.40803,0.974637,0.556918,-0.209833,-0.344715,0.436642,-0.00346958,-0.000874538,0.613528,0.7452852336923708,0.5475019721714462,-0.0034635679624035465,-0.18928037515691465,-0.0008741557030957914,-0.2915777749661299
860,0.8501,1072.55,100.915,0.0112267,330.666,3.4167,0.977084,0.557403,-0.210016,-0.345016,0.437046,-0.00346212,-0.000872468,0.614072,0.74613190233126,0.5481272892737532,-0.0034561337728910013,-0.18942872327399418,-0.000872087510457531,-0.29179097796720377
861,0.8511,1072.7,100.933,0.0112905,330.719,3.42534,0.979523,0.557887,-0.210199,-0.345316,0.437449,-0.00345465,-0.000870394,0.614616,0.7469772347259258,0.5487513103031223,-0.003448689562406182,-0.1895770442458522,-0.0008700153170181357,-0.29200340880759434
862,0.8521,1072.85,100.951,0.0113541,330.772,3.43395,0.981954,0.558371,-0.210382,-0.345617,0.437852,-0.00344716,-0.000868317,0.61516,0.7478229763604987,0.5493755828636464,-0.003441225365137579,-0.18972533807745573,-0.000867940121884847,-0.29221648371216136
863,0.8531,1073.0,100.969,0.0114175,330.824,3.44253,0.984376,0.558855,-0.210564,-0.345918,0.438255,-0.00343966,-0.000866237,0.615703,0.7486691274330988,0.5500001070567131,-0.003433751146299624,-0.18987279464697082,-0.0008658619250390132,-0.29242949449083355
864,0.8541,1073.15,100.986,0.0114808,330.877,3.45108,0.98679,0.559338,-0.210747,-0.346218,0.438657,-0.00343215,-0.000864153,0.616246,0.7495139386271286,0.5506233323596428,-0.0034262669056673856,-0.19002103436120288,-0.0008637797273256531,-0.2926417338049975
865,0.8551,1073.3,101.004,0.0115438,330.93,3.4596,0.989195,0.559821,-0.21093,-0.346518,0.43906,-0.00342463,-0.000862066,0.616788,0.7503591579635236,0.5512483594970927,-0.0034187726430161547,-0.19016924695004922,-0.0008616945278580035,-0.2928539094569168
866,0.8561,1073.45,101.022,0.0116066,330.982,3.46808,0.991592,0.560304,-0.211112,-0.346818,0.439462,-0.0034171,-0.000859976,0.617331,0.7512047856394639,0.5518720866983784,-0.003411268358120556,-0.1903166227355011,-0.0008596063266174125,-0.2930660214656876
867,0.8571,1073.6,101.04,0.0116692,331.034,3.47654,0.993981,0.560787,-0.211294,-0.347118,0.439864,-0.00340955,-0.000857883,0.617873,0.7520508218522257,0.5524960646884038,-0.0034037440847926037,-0.1904639717010006,-0.0008575151235850065,-0.29327806985039984
868,0.8581,1073.74,101.057,0.0117316,331.087,3.48497,0.996361,0.561269,-0.211477,-0.347418,0.440266,-0.003402,-0.000855786,0.618415,0.7528955139027891,0.5531202935680068,-0.0033962197546560935,-0.1906121032397301,-0.0008554199195973666,-0.2934900546301379
869,0.8591,1073.89,101.075,0.0117938,331.139,3.49336,0.998733,0.561751,-0.211659,-0.347718,0.440667,-0.00339443,-0.000853686,0.618956,0.7537406131930577,0.5537432196940688,-0.0033886754354843784,-0.19075939843267142,-0.0008533217137760563,-0.2937019758239803
870,0.8601,1074.04,101.093,0.0118558,331.191,3.50173,1.0011,0.562233,-0.211841,-0.348017,0.441069,-0.00338685,-0.000851583,0.619498,0.7545861199193686,0.5543679500307701,-0.0033811210930132507,-0.19090666682032686,-0.0008512205061022016,-0.2939131273644805
871,0.8611,1074.19,101.11,0.0119176,331.243,3.51006,1.00345,0.562714,-0.212023,-0.348316,0.44147,-0.00337926,-0.000849477,0.620039,0.7554302788469964,0.554991376567399,-0.0033735567270156697,-0.19105390840757464,-0.0008491162965569288,-0.29412421578010783
872,0.8621,1074.33,101.128,0.0119792,331.295,3.51837,1.0058,0.563196,-0.212205,-0.348615,0.441871,-0.00337166,-0.000847368,0.620579,0.7562766001884589,0.5556150531481998,-0.0033659823372641506,-0.19120112319929206,-0.000847009085121142,-0.29433524108973363
873,0.8631,1074.48,101.145,0.0120405,331.347,3.52665,1.00814,0.563677,-0.212386,-0.348914,0.442272,-0.00336404,-0.000845255,0.621119,0.7571215724326832,0.5562389798734599,-0.003358387957114961,-0.19134750254826227,-0.0008448978726207645,-0.2945462033122238
874,0.8641,1074.63,101.163,0.0121017,331.399,3.53489,1.01047,0.564157,-0.212568,-0.349213,0.442672,-0.00335642,-0.00084314,0.62166,0.7579651932402471,0.5568615999811293,-0.0033507935190965066,-0.19149466391070835,-0.0008427846573451081,-0.2947571024664387
875,0.8651,1074.78,101.18,0.0121627,331.45,3.54311,1.01279,0.564638,-0.21275,-0.349512,0.443073,-0.00334878,-0.000841021,0.622199,0.7588109778930978,0.5574860266719059,-0.0033431790900718683,-0.19164179849222351,-0.0008406674409625614,-0.2949679385712328
876,0.8661,1074.92,101.197,0.0122235,331.502,3.5513,1.01511,0.565118,-0.212931,-0.34981,0.443473,-0.00334113,-0.000838899,0.622739,0.7596554098099335,0.5581091456980716,-0.003335554636228366,-0.1917880980861838,-0.0008385472226093427,-0.29517800682381434
877,0.8671,1075.07,101.215,0.0122841,331.553,3.55945,1.01741,0.565598,-0.213112,-0.350108,0.443873,-0.00333348,-0.000836774,0.623278,0.7605002471513835,0.5587325140217041,-0.003327930124057632,-0.19193437120231382,-0.000836424002266245,-0.29538801248538316
878,0.8681,1075.21,101.232,0.0123445,331.605,3.56758,1.01971,0.566078,-0.213294,-0.350406,0.444273,-0.00332581,-0.000834646,0.623817,0.761345490112098,0.559356131742542,-0.003320285619965113,-0.19208142576438392,-0.0008342977799142837,-0.29559795557458857
879,0.8691,1075.36,101.249,0.0124046,331.656,3.57568,1.022,0.566557,-0.213475,-0.350704,0.444673,-0.00331813,-0.000832515,0.624356,0.7621893766965635,0.5599799989603642,-0.003312631090365281,-0.19222764579300877,-0.0008321685555341407,-0.29580783611007444
880,0.8701,1075.51,101.266,0.0124646,331.707,3.58374,1.02428,0.567037,-0.213656,-0.351002,0.445072,-0.00331043,-0.000830382,0.624894,0.7630354306340785,0.5606025551716545,-0.0033049565680778326,-0.1923738393582035,-0.0008300373282766893,-0.29601765411047876
881,0.8711,1075.65,101.284,0.0125244,331.759,3.59178,1.02655,0.567515,-0.213837,-0.3513,0.445471,-0.00330273,-0.000828245,0.625432,0.763878363014711,0.561225359832435,-0.00329728198669621,-0.19252000646475742,-0.0008279020997850051,-0.2962274095944345
882,0.8721,1075.8,101.301,0.0125839,331.81,3.59979,1.02882,0.567994,-0.214018,-0.351597,0.44587,-0.00329502,-0.000826105,0.62597,0.7647234631359157,0.5618484130418575,-0.0032895973791162714,-0.19266614711745933,-0.0008257638692075187,-0.29643639901731944
883,0.8731,1075.94,101.318,0.0126433,331.861,3.60777,1.03108,0.568473,-0.214198,-0.351894,0.446269,-0.0032873,-0.000823962,0.626507,0.7655689681570441,0.5624717148991127,-0.0032819027451067573,-0.19281145413295442,-0.0008236226365252453,-0.2966453263795622
884,0.8741,1076.09,101.335,0.0127025,331.912,3.61572,1.03333,0.568951,-0.214379,-0.352192,0.446668,-0.00327956,-0.000821816,0.627045,0.766413111858095,0.5630952655034305,-0.0032741881171785003,-0.1929575420384021,-0.000821478401718645,-0.2968548948450489
885,0.8751,1076.23,101.352,0.0127614,331.962,3.62364,1.03557,0.569429,-0.21456,-0.352488,0.447066,-0.00327182,-0.000819667,0.627581,0.767257659156287,0.5637175012357978,-0.0032664734295386744,-0.19310360350433164,-0.0008193311647685109,-0.2970629949958331
886,0.8761,1076.38,101.369,0.0128202,332.013,3.63153,1.0378,0.569906,-0.21474,-0.352785,0.447464,-0.00326406,-0.000817516,0.628118,0.7681008421428595,0.5643399846672754,-0.0032587387473619334,-0.1932488317847636,-0.0008171819248383727,-0.2972717362867032
887,0.8771,1076.52,101.386,0.0128787,332.064,3.63939,1.04002,0.570384,-0.214921,-0.353082,0.447862,-0.0032563,-0.000815361,0.628654,0.7689461963689679,0.5649627158964674,-0.003251004005163871,-0.19339484053202027,-0.0008150286835452158,-0.29748041559061544
888,0.8781,1076.67,101.403,0.0129371,332.114,3.64722,1.04224,0.570861,-0.215101,-0.353378,0.44826,-0.00324852,-0.000813204,0.629191,0.7697901849799169,0.5655856950220166,-0.0032432492678091673,-0.1935400163945049,-0.000812873439237749,-0.29768833061465905
889,0.8791,1076.81,101.42,0.0129953,332.165,3.65503,1.04445,0.571338,-0.215281,-0.353675,0.448658,-0.00324074,-0.000811044,0.629726,0.7706345762694646,0.5662089221426057,-0.00323549447012228,-0.19368516612768605,-0.0008107151927134737,-0.2978968862084278
890,0.8801,1076.96,101.437,0.0130532,332.215,3.6628,1.04665,0.571814,-0.215461,-0.353971,0.449055,-0.00323294,-0.000808881,0.630262,0.7714775989512499,0.566830830525342,-0.003227719676657581,-0.19383028973626648,-0.000808553943952961,-0.2981046779754114
891,0.8811,1077.1,101.454,0.0131109,332.266,3.67055,1.04884,0.572291,-0.215641,-0.354267,0.449452,-0.00322513,-0.000806715,0.630797,0.7723227953292602,0.5674529858547221,-0.003219934854748474,-0.19397538722494811,-0.000806389692937004,-0.29831240824513405
892,0.8821,1077.25,101.471,0.0131685,332.316,3.67827,1.05103,0.572767,-0.215821,-0.354563,0.44985,-0.00321732,-0.000804546,0.631332,0.7731666217946032,0.5680769563049752,-0.0032121499720397795,-0.1941204585984324,-0.0008042224396458408,-0.2985200770357962
893,0.8831,1077.39,101.487,0.0132258,332.366,3.68595,1.05321,0.573242,-0.216001,-0.354858,0.450246,-0.00320949,-0.000802375,0.631867,0.7740090760069911,0.568698037745681,-0.0032043450926180217,-0.1942655038614194,-0.0008020531832579891,-0.29872698309292667
894,0.8841,1077.53,101.504,0.013283,332.416,3.69361,1.05538,0.573718,-0.216181,-0.355154,0.450643,-0.00320165,-0.000800201,0.632401,0.7748537053330022,0.5693209345034913,-0.0031965301840491955,-0.19441052301860862,-0.0007998809245604033,-0.2989345291875939
895,0.8851,1077.68,101.521,0.0133399,332.466,3.70124,1.05754,0.574193,-0.21636,-0.355449,0.451039,-0.00319381,-0.000798024,0.632935,0.7756969611004252,0.5699425086571144,-0.0031887152142111574,-0.1945547106298121,-0.0007977056635334323,-0.29914131299937163
896,0.8861,1077.82,101.538,0.0133966,332.516,3.70884,1.05969,0.574668,-0.21654,-0.355744,0.451436,-0.00318595,-0.000795844,0.633469,0.7765406175094824,0.5705658995679594,-0.0031808802467213626,-0.19469967773446784,-0.0007955274001574253,-0.2993480358189218
897,0.8871,1077.96,101.554,0.0134532,332.566,3.71642,1.06184,0.575143,-0.216719,-0.35604,0.451832,-0.00317809,-0.000793661,0.634002,0.7773846747505242,0.5711879668253761,-0.003173045217648496,-0.1948438135916093,-0.0007933461344128423,-0.2995553981091864
898,0.8881,1078.11,101.571,0.0135095,332.615,3.72396,1.06397,0.575618,-0.216898,-0.356334,0.452228,-0.00317021,-0.000791476,0.634536,0.7782291330139908,0.5718102804702081,-0.003165190190296041,-0.19498792365074136,-0.0007911628654889702,-0.2997612985532939
899,0.8891,1078.25,101.587,0.0135656,332.665,3.73148,1.0661,0.576092,-0.217078,-0.356629,0.452623,-0.00316232,-0.000789288,0.635069,0.77907221341731,0.5724312681679902,-0.0031573251326190155,-0.19513281278407102,-0.0007889765941615501,-0.29996783850408004
900,0.8901,1078.39,101.604,0.0136216,332.715,3.73897,1.06822,0.576566,-0.217257,-0.356924,0.453019,-0.00315443,-0.000787098,0.635601,0.7799156935354654,0.5730540742576515,-0.003149460012886407,-0.19527687111697722,-0.0007867883196240877,-0.300174317534567
901,0.8911,1078.53,101.621,0.0136773,332.764,3.74643,1.07034,0.57704,-0.217436,-0.357218,0.453414,-0.00314653,-0.000784905,0.636134,0.7807595735579664,0.5736755533510236,-0.003141584862513702,-0.1954209036657496,-0.0007845970426482163,-0.30038003604310926
902,0.8921,1078.68,101.637,0.0137328,332.814,3.75386,1.07244,0.577513,-0.217615,-0.357512,0.453809,-0.00313861,-0.000782709,0.636666,0.7816020720714503,0.5742972779771274,-0.0031336897126010843,-0.19556491043500301,-0.0007824027632139519,-0.3005856940792999
903,0.8931,1078.82,101.654,0.0137881,332.863,3.76126,1.07454,0.577987,-0.217794,-0.357806,0.454204,-0.00313069,-0.000780511,0.637198,0.7824467516268518,0.5749192482329668,-0.0031257945001585963,-0.19570889142935177,-0.0007802064805215725,-0.3007912916609152
904,0.8941,1078.96,101.67,0.0138432,332.912,3.76863,1.07663,0.57846,-0.217972,-0.3581,0.454599,-0.00312276,-0.00077831,0.637729,0.7832900483643273,0.5755414642155854,-0.003117889256364803,-0.19585204250585353,-0.000778007195335717,-0.3009968288057261
905,0.8951,1079.1,101.686,0.0138982,332.961,3.77598,1.07872,0.578933,-0.218151,-0.358394,0.454993,-0.00311481,-0.000776106,0.63826,0.7841337440755094,0.5761623498589261,-0.003109964012081523,-0.19599597210816133,-0.0007758049076366236,-0.3012023055314985
906,0.8961,1079.25,101.703,0.0139529,333.01,3.7833,1.08079,0.579405,-0.218329,-0.358688,0.455388,-0.00310686,-0.0007739,0.638791,0.7849760539722108,0.576785056963677,-0.0031020387047924203,-0.19613907208884995,-0.0007736006166308984,-0.30140772185599296
907,0.8971,1079.39,101.719,0.0140074,333.059,3.79059,1.08286,0.579877,-0.218508,-0.358981,0.455782,-0.0030989,-0.000771691,0.639322,0.7858187615330248,0.5774064326790984,-0.003094103365437917,-0.19628295031746046,-0.0007713933230767411,-0.3016123794096933
908,0.8981,1079.53,101.735,0.0140617,333.108,3.79785,1.08492,0.580349,-0.218686,-0.359275,0.456176,-0.00309093,-0.00076948,0.639853,0.7866618669456933,0.5780280532647879,-0.003086157993779426,-0.1964259992205738,-0.0007691840261849769,-0.30181767519018843
909,0.8991,1079.67,101.752,0.0141158,333.157,3.80509,1.08697,0.580821,-0.218865,-0.359568,0.456569,-0.00308295,-0.000767266,0.640383,0.7875053703980466,0.5786483401681137,-0.0030782025895782494,-0.19656982609382412,-0.0007669717267093645,-0.3020222126451573
910,0.9001,1079.81,101.768,0.0141698,333.206,3.8123,1.08902,0.581293,-0.219043,-0.359861,0.456963,-0.00307497,-0.00076505,0.640913,0.7883492720780034,0.5792704501617609,-0.003070247121892633,-0.19671282393759382,-0.000764757423865281,-0.3022266901794306
911,0.9011,1079.95,101.784,0.0142235,333.255,3.81948,1.09105,0.581764,-0.219221,-0.360153,0.457356,-0.00306697,-0.000762831,0.641442,0.7891917829808945,0.5798912254230235,-0.0030622716519677073,-0.1968557963300125,-0.0007625401184019331,-0.30243041024132167
912,0.9021,1080.09,101.8,0.014277,333.303,3.82663,1.09308,0.582235,-0.219399,-0.360446,0.457749,-0.00305897,-0.00076061,0.641971,0.7900346907998874,0.5805122446969091,-0.0030542961182388195,-0.19699874327561018,-0.0007603208095390279,-0.30263476819121937
913,0.9031,1080.23,101.816,0.0143303,333.352,3.83375,1.0951,0.582706,-0.219577,-0.360739,0.458142,-0.00305095,-0.000758386,0.642501,0.7908779957219734,0.5811335080793336,-0.003046300581631689,-0.19714166477891593,-0.0007580984980212202,-0.3028390662730087
914,0.9041,1080.37,101.832,0.0143834,333.4,3.84085,1.09712,0.583176,-0.219754,-0.361031,0.458535,-0.00304293,-0.00075616,0.643029,0.7917199062134301,0.5817550156662503,-0.003038304980899964,-0.19728375812861765,-0.0007558741830728799,-0.3030426075471848
915,0.9051,1080.51,101.849,0.0144364,333.449,3.84792,1.09912,0.583646,-0.219932,-0.361323,0.458928,-0.0030349,-0.000753932,0.643558,0.7925622124958212,0.5823767675536506,-0.0030302993463464656,-0.1974266289037946,-0.0007536478646804623,-0.3032460893959853
916,0.9061,1080.65,101.865,0.0144891,333.497,3.85496,1.10112,0.584116,-0.22011,-0.361615,0.45932,-0.00302686,-0.000751701,0.644086,0.7934049147552125,0.5829971808395911,-0.0030222836777302753,-0.19756947425023663,-0.0007514185435819609,-0.30344951183675994
917,0.9071,1080.79,101.881,0.0145416,333.545,3.86198,1.10311,0.584586,-0.220287,-0.361907,0.459712,-0.00301881,-0.000749467,0.644614,0.7942480131777567,0.5836178373752134,-0.0030142579748104747,-0.197711491884363,-0.0007491862197575028,-0.30365287488685333
918,0.9081,1080.93,101.897,0.0145939,333.593,3.86896,1.1051,0.585056,-0.220465,-0.362199,0.460104,-0.00301075,-0.000747232,0.645142,0.7950915079496943,0.5842387372558904,-0.0030062222373457015,-0.19785428652970716,-0.0007469528916930201,-0.30385617856360503
919,0.9091,1081.07,101.912,0.014646,333.641,3.87592,1.10707,0.585525,-0.220642,-0.36249,0.460496,-0.00300268,-0.000744994,0.645669,0.7959336033228519,0.5848598805770315,-0.002998176465094482,-0.1979962537565212,-0.0007447165608710504,-0.3040587269434244
920,0.9101,1081.21,101.928,0.014698,333.689,3.88286,1.10904,0.585994,-0.220819,-0.362782,0.460888,-0.00299461,-0.000742753,0.646196,0.7967760937313684,0.5854812674340848,-0.0029901306279136453,-0.1981381958573597,-0.0007424772272717206,-0.30426191212867615
921,0.9111,1081.35,101.944,0.0147497,333.737,3.88976,1.111,0.586463,-0.220996,-0.363073,0.461279,-0.00298653,-0.00074051,0.646723,0.7976189793605581,0.5861013118204295,-0.0029820747556235094,-0.1982801128366698,-0.0007402358901344996,-0.30446434245720544
922,0.9121,1081.49,101.96,0.0148012,333.785,3.89664,1.11296,0.586931,-0.221173,-0.363364,0.46167,-0.00297844,-0.000738265,0.647249,0.7984604619344624,0.5867215986915322,-0.002974008847981713,-0.19842200469889748,-0.0007379925494459538,-0.3046667138870792
923,0.9131,1081.63,101.976,0.0148526,333.833,3.9035,1.11491,0.587399,-0.22135,-0.363655,0.462061,-0.00297034,-0.000736018,0.647776,0.7993023384143783,0.5873421281422226,-0.0029659329047458938,-0.19856387144848808,-0.0007357472051925384,-0.3048690264354347
924,0.9141,1081.77,101.992,0.0149037,333.88,3.91032,1.11684,0.587867,-0.221527,-0.363946,0.462452,-0.00296223,-0.000733768,0.648302,0.8001446089846966,0.5879629002673679,-0.0029578469256731355,-0.19870571308988605,-0.0007334988580943724,-0.30507128011940365
925,0.9151,1081.91,102.008,0.0149546,333.928,3.91712,1.11878,0.588335,-0.221704,-0.364237,0.462843,-0.00295412,-0.000731516,0.648827,0.8009872738298949,0.5885839151618726,-0.0029497608810228337,-0.19884752962753538,-0.0007312485073999175,-0.30527347495611334
926,0.9161,1082.05,102.023,0.0150054,333.976,3.92389,1.1207,0.588803,-0.221881,-0.364527,0.463233,-0.00294599,-0.000729262,0.649353,0.8018303331345369,0.5892035837162994,-0.0029416548296277156,-0.19898932106587874,-0.000728996153095629,-0.30547491643794944
927,0.9171,1082.18,102.039,0.0150559,334.023,3.93064,1.12262,0.58927,-0.222057,-0.364818,0.463623,-0.00293786,-0.000727006,0.649878,0.8026719844103873,0.5898234939885947,-0.002933548712330203,-0.1991302865400456,-0.0007267417951680732,-0.30567699383357894
928,0.9181,1082.32,102.055,0.0151063,334.07,3.93736,1.12453,0.589737,-0.222234,-0.365108,0.464013,-0.00292972,-0.000724747,0.650403,0.8035140288291753,0.5904436460730462,-0.0029254325583839558,-0.19927202793484455,-0.0007244844343280432,-0.3058783183119068
929,0.9191,1082.46,102.07,0.0151564,334.118,3.94405,1.12643,0.590204,-0.22241,-0.365398,0.464403,-0.00292157,-0.000722486,0.650928,0.8043564665745417,0.5910640400639795,-0.0029173063675451694,-0.1994129436569807,-0.0007222250698331045,-0.30607958441460104
930,0.9201,1082.6,102.086,0.0152064,334.165,3.95072,1.12832,0.59067,-0.222586,-0.365688,0.464793,-0.00291342,-0.000720223,0.651452,0.8051974926318173,0.5916846760557561,-0.0029091801104775827,-0.1995538345801321,-0.0007199637016697125,-0.3062807921585877
931,0.9211,1082.74,102.101,0.0152562,334.212,3.95736,1.13021,0.591137,-0.222763,-0.365977,0.465183,-0.00290526,-0.000717958,0.651976,0.8060407167383805,0.5923055541427753,-0.0029010438161912733,-0.19969550101356226,-0.0007177003298242113,-0.3064812480423835
932,0.9221,1082.87,102.117,0.0153057,334.259,3.96397,1.13209,0.591603,-0.222939,-0.366267,0.465572,-0.00289708,-0.00071569,0.6525,0.8068825278391334,0.5929250814935942,-0.002892887513370468,-0.1998363422109949,-0.0007154339549985123,-0.3066823393208066
933,0.9231,1083.01,102.132,0.0153551,334.306,3.97056,1.13397,0.592068,-0.223115,-0.366556,0.465961,-0.00288891,-0.000713421,0.653024,0.807722923591448,0.5935448498874325,-0.00288474111498338,-0.19997715862255805,-0.0007131665757458272,-0.3068826791742396
934,0.9241,1083.15,102.148,0.0154043,334.353,3.97712,1.13583,0.592534,-0.223291,-0.366846,0.46635,-0.00288072,-0.000711149,0.653547,0.8085655187832734,0.5941648594180742,-0.002876574707571744,-0.20011795025261359,-0.0007108961934811919,-0.307083654054513
935,0.9251,1083.29,102.163,0.0154533,334.4,3.98365,1.13769,0.592999,-0.223467,-0.367135,0.466739,-0.00287253,-0.000708875,0.65407,0.8094066973083578,0.5947851101793393,-0.0028684082332769423,-0.2002587171055228,-0.0007086238074753837,-0.30728387794474543
936,0.9261,1083.42,102.179,0.015502,334.447,3.99016,1.13954,0.593464,-0.223642,-0.367424,0.467127,-0.00286433,-0.000706599,0.654593,0.8102482670724123,0.5954040068602808,-0.002860231720700823,-0.20039865958470526,-0.0007063494177149687,-0.3074840439786344
937,0.9271,1083.56,102.194,0.0155506,334.493,3.99665,1.14139,0.593929,-0.223818,-0.367713,0.467515,-0.00285612,-0.000704321,0.655115,0.8110902282574055,0.5960231437197261,-0.0028520451695974725,-0.20053937703711922,-0.0007040730241860693,-0.3076841521728977
938,0.9281,1083.7,102.21,0.015599,334.54,4.0031,1.14323,0.594394,-0.223994,-0.368001,0.467904,-0.0028479,-0.000702041,0.655637,0.8119325810453901,0.5966441174942017,-0.0028438485797208646,-0.20068006972544095,-0.0007017946268752517,-0.30788351042810524
939,0.9291,1083.83,102.225,0.0156472,334.586,4.00954,1.14506,0.594858,-0.224169,-0.36829,0.468292,-0.00283968,-0.000699759,0.656159,0.8127735128440849,0.5972637356099304,-0.00283565192246793,-0.20081993847436652,-0.0006995142257686382,-0.30808350319324496
940,0.9301,1083.97,102.24,0.0156953,334.633,4.01594,1.14688,0.595322,-0.224344,-0.368578,0.468679,-0.00283145,-0.000697475,0.656681,0.8136148349256731,0.5978819963013391,-0.002827445226112779,-0.20095978274840265,-0.000697231820852573,-0.3082827464519189
941,0.9311,1084.11,102.255,0.0157431,334.679,4.02232,1.1487,0.595786,-0.22452,-0.368866,0.469067,-0.00282321,-0.000695189,0.657202,0.8144565474712879,0.5985020948072348,-0.0028192284904084985,-0.20110040145183006,-0.0006949474121135113,-0.30848193233679655
942,0.9321,1084.24,102.271,0.0157907,334.726,4.02868,1.1505,0.596249,-0.224695,-0.369154,0.469454,-0.00281496,-0.0006929,0.657723,0.8152968353644034,0.5991208348363983,-0.0028110017151081745,-0.2012401966491394,-0.0006926600002301608,-0.30868106086439917
943,0.9331,1084.38,102.286,0.0158382,334.772,4.03501,1.15231,0.596713,-0.22487,-0.369442,0.469842,-0.00280671,-0.00069061,0.658244,0.8161393285393137,0.5997414141049076,-0.0028027748719366974,-0.20137996738442976,-0.0006903715838013635,-0.3088801320512433
944,0.9341,1084.52,102.301,0.0158854,334.818,4.04131,1.1541,0.597176,-0.225045,-0.36973,0.470229,-0.00279845,-0.000688318,0.658765,0.8169803957404596,0.6003606338434573,-0.0027945379888387745,-0.20151971366198163,-0.0006880811635081585,-0.3090791459138408
945,0.9351,1084.65,102.316,0.0159325,334.864,4.04759,1.15589,0.597639,-0.22522,-0.370018,0.470616,-0.00279019,-0.000686023,0.659285,0.8178218524458827,0.6009800932664218,-0.002786301037704053,-0.20165943548607457,-0.000685787740022703,-0.3092781024686986
946,0.9361,1084.79,102.331,0.0159793,334.91,4.05384,1.15767,0.598101,-0.225395,-0.370305,0.471002,-0.00278191,-0.000683727,0.659805,0.8186618801731762,0.6015981908675851,-0.002778044074092878,-0.20179913286098772,-0.0006834933119573838,-0.30947631120897523
947,0.9371,1084.92,102.346,0.016026,334.956,4.06007,1.15944,0.598564,-0.22557,-0.370592,0.471389,-0.00277363,-0.000681429,0.660325,0.8195041155861487,0.6022181293178037,-0.002769787042113725,-0.2019388057909991,-0.0006811968799863566,-0.3096744630715058
948,0.9381,1085.06,102.362,0.0160725,335.002,4.06627,1.16121,0.599026,-0.225744,-0.370879,0.471775,-0.00276535,-0.000679129,0.660844,0.8203449206985749,0.602836704893126,-0.002761529941766039,-0.20207765635844188,-0.0006788984440960766,-0.30987255807261194
949,0.9391,1085.19,102.377,0.0161188,335.048,4.07245,1.16297,0.599488,-0.225919,-0.371166,0.472161,-0.00275705,-0.000676827,0.661364,0.8211861143527095,0.6034555192847089,-0.0027532528281146718,-0.20221728055110588,-0.000676598004272444,-0.31007059622861033
950,0.9401,1085.33,102.392,0.0161649,335.093,4.0786,1.16472,0.599949,-0.226093,-0.371453,0.472547,-0.00274875,-0.000674523,0.661883,0.8220258747013143,0.6040745725847534,-0.002744975645762815,-0.20235608266815563,-0.0006742955605018031,-0.3102685775558134
951,0.9411,1085.46,102.407,0.0162108,335.139,4.08473,1.16647,0.600411,-0.226268,-0.37174,0.472933,-0.00274044,-0.000672217,0.662401,0.8228678451356206,0.6046938648854958,-0.0027366884220770826,-0.20249565814047865,-0.000671991112770387,-0.3104665020705284
952,0.9421,1085.6,102.421,0.0162565,335.185,4.09084,1.16821,0.600872,-0.226442,-0.372027,0.473318,-0.00273213,-0.00066991,0.66292,0.823708380940845,0.6053117909666146,-0.002728401129524216,-0.20263441182404174,-0.0006696856603944923,-0.3106643697890583
953,0.9431,1085.73,102.436,0.0163021,335.23,4.09691,1.16994,0.601333,-0.226616,-0.372313,0.473704,-0.00272381,-0.0006676,0.663438,0.8245493043224055,0.6059315609258347,-0.0027201037953047402,-0.2027731413665641,-0.0006673772047021131,-0.3108614915895376
954,0.9441,1085.87,102.451,0.0163474,335.276,4.10297,1.17167,0.601794,-0.22679,-0.372599,0.474089,-0.00271548,-0.000665289,0.663956,0.8253906154590156,0.6065499636116694,-0.002711796419169188,-0.20291184677224605,-0.0006650677443422737,-0.31105855702124297
955,0.9451,1086.0,102.466,0.0163926,335.321,4.109,1.17339,0.602254,-0.226964,-0.372885,0.474474,-0.00270715,-0.000662975,0.664474,0.8262304882980698,0.6071686044283757,-0.0027034889738328793,-0.203050528045287,-0.0006627552806335313,-0.3112555661002937
956,0.9461,1086.13,102.481,0.0164375,335.366,4.115,1.1751,0.602714,-0.227138,-0.373171,0.474858,-0.00269881,-0.00066066,0.664991,0.8270707475675023,0.6077858756809718,-0.0026951714862470944,-0.2031891851898857,-0.0006604418122341249,-0.31145251884280434
957,0.9471,1086.27,102.496,0.0164823,335.411,4.12098,1.1768,0.603174,-0.227312,-0.373457,0.475243,-0.00269046,-0.000658343,0.665508,0.8279113934451119,0.6084049924154329,-0.0026868439561615887,-0.20332781821024015,-0.0006581263397953396,-0.3116494152648849
958,0.9481,1086.4,102.511,0.0165269,335.457,4.12694,1.1785,0.603634,-0.227486,-0.373743,0.475627,-0.00268211,-0.000656025,0.666025,0.8287524261087791,0.609022738532184,-0.0026785163565409276,-0.20346642711054752,-0.0006558098626474607,-0.31184625538264055
959,0.9491,1086.54,102.525,0.0165713,335.502,4.13287,1.18019,0.604093,-0.227659,-0.374028,0.476012,-0.00267375,-0.000653704,0.666542,0.8295920161435355,0.6096423315505215,-0.0026701787140863686,-0.20360421549961816,-0.0006534903820903937,-0.31204235125486735
960,0.9501,1086.67,102.54,0.0166156,335.547,4.13877,1.18188,0.604553,-0.227833,-0.374313,0.476396,-0.00266538,-0.000651382,0.667058,0.8304338220714811,0.6102605528967386,-0.0026618310285472235,-0.20374277631098103,-0.0006511698968009183,-0.3122383912477338
961,0.9511,1086.8,102.555,0.0166596,335.592,4.14466,1.18356,0.605012,-0.228007,-0.374599,0.476779,-0.00265701,-0.000649058,0.667574,0.8312741840441304,0.6108774008073328,-0.0026534832731376357,-0.20388131301486012,-0.0006488474074209938,-0.31243506294244405
962,0.9521,1086.94,102.569,0.0167035,335.636,4.15052,1.18523,0.605471,-0.22818,-0.374884,0.477163,-0.00264863,-0.000646732,0.66809,0.8321149318314631,0.6114960965112153,-0.0026451254743082853,-0.2040190296348774,-0.0006465229139367423,-0.31263099102842695
963,0.9531,1087.07,102.584,0.0167471,335.681,4.15635,1.1869,0.605929,-0.228353,-0.375169,0.477547,-0.00264025,-0.000644405,0.668605,0.8329542326554595,0.6121150298398692,-0.0026367676054404043,-0.20415672243198024,-0.0006441974156898844,-0.3128268632828618
964,0.9541,1087.2,102.599,0.0167906,335.726,4.16216,1.18855,0.606387,-0.228526,-0.375453,0.47793,-0.00263185,-0.000642075,0.66912,0.8337939179672742,0.6127325881511654,-0.0026283897191011762,-0.2042943914102895,-0.0006418689139571221,-0.31302199274399445
965,0.9551,1087.33,102.613,0.0168339,335.771,4.16795,1.19021,0.606845,-0.2287,-0.375738,0.478313,-0.00262346,-0.000639745,0.669636,0.8346339879430429,0.613350383032595,-0.00262002173618725,-0.20443283214149122,-0.0006395404067989219,-0.3132177535788184
966,0.9561,1087.47,102.628,0.0168771,335.815,4.17371,1.19185,0.607303,-0.228873,-0.376022,0.478696,-0.00261506,-0.000637412,0.67015,0.8354744427589822,0.6139684145747821,-0.0026116437091822098,-0.20457045335695234,-0.0006372088961270617,-0.3134127720428693
967,0.9571,1087.6,102.642,0.01692,335.86,4.17945,1.19349,0.607761,-0.229046,-0.376307,0.479079,-0.00260665,-0.000635078,0.670665,0.8363152825913893,0.6145866828683846,-0.0026032556378340344,-0.20470805076600262,-0.0006348763806505175,-0.3136084215214622
968,0.9581,1087.73,102.657,0.0169628,335.904,4.18516,1.19512,0.608218,-0.229218,-0.376591,0.479461,-0.00259823,-0.000632742,0.671179,0.8371546704610531,0.6152035727997158,-0.0025948575218904812,-0.20484482921798675,-0.0006325418609950395,-0.3138033290515707
969,0.9591,1087.86,102.671,0.0170053,335.949,4.19086,1.19675,0.608675,-0.229391,-0.376875,0.479844,-0.00258981,-0.000630404,0.671693,0.8379944420186392,0.615822314249522,-0.0025864593352344922,-0.20498237916411866,-0.0006302053371465277,-0.31399818123580026
970,0.9601,1088.0,102.686,0.0170477,335.993,4.19653,1.19837,0.609132,-0.229564,-0.377159,0.480226,-0.00258139,-0.000628065,0.672207,0.8388345974395333,0.6164396762822064,-0.002578061077865512,-0.20511990531616808,-0.000627867808463134,-0.3141929780898667
971,0.9611,1088.13,102.7,0.0170899,336.037,4.20217,1.19998,0.609589,-0.229737,-0.377443,0.480608,-0.00257295,-0.000625724,0.67272,0.8396751368992008,0.6170572741922367,-0.0025696428011758865,-0.20525740767825118,-0.0006255282755631697,-0.31438771962948164
972,0.9621,1088.26,102.714,0.017132,336.081,4.20779,1.20158,0.610045,-0.229909,-0.377726,0.48099,-0.00256452,-0.000623382,0.673233,0.8405142200580473,0.6176751080697356,-0.002561234427823411,-0.20539409164897204,-0.0006231877378096717,-0.3145817204524153
973,0.9631,1088.39,102.729,0.0171738,336.125,4.21339,1.20318,0.610501,-0.230081,-0.378009,0.481371,-0.00255607,-0.000621038,0.673746,0.8413536859260655,0.6182915597124912,-0.0025528060346444725,-0.2055307521120716,-0.0006208451958162886,-0.31477566638088395
974,0.9641,1088.52,102.743,0.0172155,336.169,4.21896,1.20478,0.610957,-0.230254,-0.378293,0.481753,-0.00254762,-0.000618692,0.674259,0.8421935346778102,0.6189098651771263,-0.002544377570245282,-0.20566818340380677,-0.0006185006495689205,-0.31497024246052063
975,0.9651,1088.66,102.757,0.017257,336.213,4.22452,1.20636,0.611413,-0.230426,-0.378576,0.482134,-0.00253917,-0.000616345,0.674771,0.8430337664879164,0.6195267873519703,-0.0025359490346251734,-0.20580479672717866,-0.0006161550984374875,-0.3151640784528178
976,0.9661,1088.79,102.772,0.0172983,336.257,4.23004,1.20794,0.611869,-0.230598,-0.378859,0.482515,-0.00253071,-0.000613996,0.675283,0.8438743815310987,0.6201439446189452,-0.0025275104530588788,-0.20594138655507965,-0.0006138075430285328,-0.31535785959729035
977,0.9671,1088.92,102.786,0.0173394,336.301,4.23555,1.20952,0.612324,-0.23077,-0.379142,0.482896,-0.00252225,-0.000611646,0.675795,0.8447135352676931,0.6207613370676381,-0.002519071800101802,-0.20607795289155062,-0.0006114589827167505,-0.3155515859094582
978,0.9681,1089.05,102.8,0.0173803,336.345,4.24103,1.21109,0.612779,-0.230942,-0.379424,0.483277,-0.00251377,-0.000609294,0.676307,0.8455530709061141,0.6213789647876702,-0.0025106131259660103,-0.20621449574063166,-0.0006091084181040207,-0.3157445731497519
979,0.9691,1089.18,102.814,0.0174211,336.388,4.24649,1.21265,0.613234,-0.231114,-0.379707,0.483657,-0.0025053,-0.00060694,0.676818,0.8463929886201658,0.6219952058726803,-0.002502164355078662,-0.20635101510636222,-0.0006067558491762437,-0.3159381900374687
980,0.9701,1089.31,102.828,0.0174617,336.432,4.25193,1.2142,0.613688,-0.231286,-0.379989,0.484037,-0.00249682,-0.000604585,0.677329,0.847231441351368,0.6226116811738007,-0.0024937055375671147,-0.20648751099278118,-0.0006044022753149969,-0.3161310682707691
981,0.9711,1089.44,102.843,0.0175021,336.476,4.25734,1.21575,0.614142,-0.231458,-0.380272,0.484418,-0.00248833,-0.000602229,0.67784,0.8480702748265321,0.6232300140092535,-0.002485236673176794,-0.20662398340392663,-0.0006020476965130639,-0.31632457579584217
982,0.9721,1089.57,102.857,0.0175424,336.519,4.26273,1.21729,0.614596,-0.231629,-0.380554,0.484798,-0.00247984,-0.000599871,0.678351,0.8489094892185558,0.6238469586266302,-0.0024767677368855434,-0.20675963910387163,-0.00059969111336311,-0.31651734508372065
983,0.9731,1089.7,102.871,0.0175824,336.563,4.2681,1.21883,0.61505,-0.231801,-0.380836,0.485177,-0.00247134,-0.000597512,0.678861,0.8497490847004143,0.6244625132641854,-0.0024682887533756803,-0.20689606471300703,-0.0005973335252535961,-0.31671006001832414
984,0.9741,1089.83,102.885,0.0176223,336.606,4.27345,1.22036,0.615504,-0.231972,-0.381118,0.485557,-0.00246284,-0.000595151,0.679371,0.8505890614451617,0.6250799263202769,-0.0024598096977941353,-0.20703167389102595,-0.0005949739327726355,-0.31690272061497804
985,0.9751,1089.96,102.899,0.017662,336.649,4.27877,1.22188,0.615957,-0.232144,-0.381399,0.485936,-0.00245433,-0.000592789,0.679881,0.8514275681974366,0.6256959483411513,-0.002451320594653583,-0.2071680527142017,-0.0005926133353131302,-0.317094643983989
986,0.9761,1090.09,102.913,0.0177016,336.692,4.28407,1.2234,0.61641,-0.232315,-0.381681,0.486316,-0.00244582,-0.000590425,0.68039,0.852266454879318,0.6263138301916376,-0.002442831419270486,-0.20730361538624875,-0.0005902507334585305,-0.31728719614325507
987,0.9771,1090.22,102.927,0.0177409,336.736,4.28935,1.22491,0.616863,-0.232486,-0.381962,0.486695,-0.0024373,-0.00058806,0.6809,0.8531057216629527,0.6269303199507099,-0.002434332195987543,-0.20743915487906084,-0.0005878871266065122,-0.3174790114898205
988,0.9781,1090.35,102.941,0.0177801,336.779,4.29461,1.22641,0.617316,-0.232657,-0.382243,0.487074,-0.00242878,-0.000585693,0.681409,0.8539453687205658,0.6275470434036834,-0.0024258329002908585,-0.2075746711966011,-0.0005855215153356408,-0.3176707729438457
989,0.9791,1090.48,102.955,0.0178191,336.822,4.29984,1.22791,0.617768,-0.232828,-0.382524,0.487452,-0.00242025,-0.000583325,0.681917,0.854783541439992,0.628162372475958,-0.002417323556353268,-0.2077101643428323,-0.000583154899048477,-0.3178624805204725
990,0.9801,1090.61,102.969,0.017858,336.865,4.30506,1.22941,0.618221,-0.232999,-0.382805,0.487831,-0.00241172,-0.000580956,0.682426,0.8556239487221422,0.6287795629653363,-0.0024088141398306284,-0.20784563432171643,-0.0005807872777380263,-0.3180541342348383
991,0.9811,1090.74,102.982,0.0178966,336.908,4.31025,1.23089,0.618673,-0.23317,-0.383086,0.488209,-0.00240318,-0.000578585,0.682934,0.8564628803312251,0.6293953580180698,-0.002400294674725245,-0.20798108113721459,-0.0005784176519754158,-0.31824573410207624
992,0.9821,1090.87,102.996,0.0179351,336.95,4.31542,1.23237,0.619124,-0.233341,-0.383367,0.488587,-0.00239464,-0.000576213,0.683442,0.8573003339218443,0.6300113858853325,-0.0023917751368633944,-0.20811650479328758,-0.0005760470211705337,-0.3184372801373152
993,0.9831,1091.0,103.01,0.0179734,336.993,4.32056,1.23385,0.619576,-0.233511,-0.383647,0.488965,-0.00238609,-0.000573839,0.68395,0.8581400234283094,0.6306276466551448,-0.0023832455500768512,-0.2082511135454046,-0.0005736743858898441,-0.3186280909841116
994,0.9841,1091.13,103.024,0.0180116,337.036,4.32569,1.23532,0.620027,-0.233682,-0.383928,0.489343,-0.00237754,-0.000571464,0.684458,0.8589782335810572,0.6312441404155607,-0.002374715890362089,-0.2083864910298835,-0.000571300745547898,-0.31881952959216087
995,0.9851,1091.25,103.038,0.0180496,337.078,4.33079,1.23678,0.620478,-0.233853,-0.384208,0.489721,-0.00236898,-0.000569088,0.684965,0.8598168218518432,0.6318608672546671,-0.0023661761813802418,-0.20852184536679175,-0.000568926100137368,-0.31901023342409274
996,0.9861,1091.38,103.051,0.0180874,337.121,4.33587,1.23823,0.620929,-0.234023,-0.384488,0.490098,-0.00236042,-0.000566711,0.685472,0.8606557884112369,0.6324761947835731,-0.002357636399298091,-0.20865638521686813,-0.0005665504496512597,-0.3192008838664264
997,0.9871,1091.51,103.065,0.018125,337.163,4.34093,1.23968,0.62138,-0.234193,-0.384768,0.490475,-0.00235186,-0.000564332,0.685978,0.8614951334298853,0.6330917543346912,-0.0023490965441151923,-0.20879090219711405,-0.0005641727946464892,-0.3193914809341092
998,0.9881,1091.64,103.079,0.0181625,337.206,4.34597,1.24113,0.62183,-0.234364,-0.385048,0.490852,-0.00234329,-0.000561952,0.686485,0.8623329947445855,0.6337075459955099,-0.0023405466392362184,-0.20892618738562496,-0.0005617941345471555,-0.31958202464208363
999,0.9891,1091.77,103.092,0.0181998,337.248,4.35099,1.24257,0.62228,-0.234534,-0.385328,0.491229,-0.00233471,-0.000559571,0.686991,0.8631712331817238,0.6343235698535512,-0.0023319866844042636,-0.2090606585034006,-0.0005594144693460423,-0.31977251500528847
