,Time,S11,S22,S33,S12,S13,S23,LE11,LE22,LE33,LE12,LE13,LE23,SDV_EPBAR,E11,E12,E13,E22,E23,E33
0,1e-05,0.0623238,0.0207746,-2.08167e-17,0.0359827,-1.93535e-19,-7.22285e-19,2.70001e-07,1.00027e-08,-1.20004e-07,4.5033e-07,7.50391e-24,-2.62322e-23,0.0,2.7000103641761086e-07,4.503301014313621e-07,0.0,1.0002700001621179e-08,0.0,-1.2000399285394536e-07
1,2e-05,0.124648,0.0415492,0.0,0.0719653,-1.56727e-18,-1.51541e-18,5.4e-07,2e-08,-2.4e-07,9.00666e-07,-2.29235e-23,-1.32349e-23,0.0,5.400001457100956e-07,9.006664056787628e-07,0.0,2.0000000100495186e-08,0.0,-2.3999997122992056e-07
2,3.5e-05,0.218133,0.0727111,6.93889e-18,0.125939,-1.83164e-18,-1.0575e-18,9.45001e-07,3.50043e-08,-4.20006e-07,1.57616e-06,-1.14617e-23,-6.61744e-24,0.0,9.450014464285061e-07,1.5761612421894e-06,0.0,3.500430056924131e-08,0.0,-4.20005911827559e-07
3,5.75e-05,0.358361,0.119454,6.93889e-18,0.2069,-7.18487e-18,-6.59038e-18,1.5525e-06,5.75078e-08,-6.9001e-07,2.5894e-06,-1.64011e-22,-3.3563e-23,0.0,1.5525012051487153e-06,2.589403352404318e-06,0.0,5.750780163182867e-08,0.0,-6.900097619944034e-07
4,9.125e-05,0.568704,0.189568,4.85723e-17,0.328341,-1.11315e-17,-3.98458e-18,2.46375e-06,9.12556e-08,-1.09501e-06,4.10928e-06,-2.96358e-22,1.95671e-22,0.0,2.4637530351423464e-06,4.109288443077119e-06,0.0,9.125560418432599e-08,0.0,-1.0950094004869015e-06
5,0.00014188,0.884216,0.294739,-9.02056e-17,0.510503,-1.45114e-17,-1.08203e-17,3.83061e-06,1.41875e-07,-1.7025e-06,6.38908e-06,-1.3754e-22,-7.94086e-23,0.0,3.830617336886277e-06,6.38910041028673e-06,0.0,1.418750099624333e-07,0.0,-1.7024985506930435e-06
6,0.00021781,1.35748,0.452495,-3.46945e-17,0.783744,-2.21212e-17,-1.03295e-17,5.88091e-06,2.17812e-07,-2.61374e-06,9.80878e-06,-2.7508e-22,-1.58817e-22,0.0,5.880927292478688e-06,9.808828106194767e-06,0.0,2.178120237505965e-07,0.0,-2.6137365841671922e-06
7,0.00033172,2.06738,0.689128,-3.46945e-17,1.1936,-3.15626e-17,-1.08961e-17,8.95635e-06,3.31717e-07,-3.9806e-06,1.49383e-05,-3.66771e-22,-2.11756e-22,0.0,8.956390108227907e-06,1.4938411576848054e-05,0.0,3.3171705493550974e-07,0.0,-3.980592077401646e-06
8,0.00050258,3.13223,1.04408,-2.56739e-16,1.80839,-2.00059e-17,-1.39926e-17,1.35695e-05,5.02573e-07,-6.03088e-06,2.26325e-05,-1.83382e-22,-1.05876e-22,0.0,1.3569592065998393e-05,2.2632756117024755e-05,0.0,5.025731262264799e-07,0.0,-6.030861814276811e-06
9,0.00075887,4.72948,1.57649,-4.78784e-16,2.73056,-1.88721e-17,-3.28755e-17,2.04891e-05,7.58867e-07,-9.10628e-06,3.41738e-05,-7.90285e-22,5.21805e-22,0.0,2.048930990294906e-05,3.417438393094052e-05,0.0,7.588672878977576e-07,0.0,-9.10623853800363e-06
10,0.0011433,7.12532,2.37511,-9.22873e-16,4.11381,-9.21357e-17,-7.51742e-17,3.08684e-05,1.14329e-06,-1.37193e-05,5.14854e-05,-2.53226e-22,-2.10236e-21,0.0,3.086887643388714e-05,5.148672539601051e-05,0.0,1.1432906534825094e-06,0.0,-1.3719205890883046e-05
11,0.00172,10.719,3.57301,-6.47399e-15,6.18863,-2.89873e-17,-1.16866e-16,4.64371e-05,1.71992e-06,-2.06387e-05,7.74524e-05,9.60611e-22,-3.35774e-21,0.0,4.643817821881058e-05,7.745539951464764e-05,0.0,1.7199214790153405e-06,0.0,-2.0638487023494356e-05
12,0.0025849,16.1094,5.3698,-3.48957e-14,9.30077,-1.38354e-16,-6.27833e-17,6.97894e-05,2.58483e-06,-3.10176e-05,0.000116402,2.20301e-25,1.27191e-25,0.0,6.979183533672995e-05,0.0001164087749756515,0.0,2.5848333407019197e-06,0.0,-3.101711895925341e-05
13,0.0035849,22.341,7.44701,-7.70842e-14,12.8986,-4.23545e-16,-1.10213e-16,9.67861e-05,3.58467e-06,-4.3016e-05,0.00016143,-1.46631e-21,-8.46577e-22,0.0,9.67907839257709e-05,0.00016144303052367803,0.0,3.5846764250280216e-06,0.0,-4.301507482518119e-05
14,0.0045849,28.5724,9.52413,-8.77423e-14,16.4963,-4.31375e-16,-2.31959e-16,0.000123782,4.58457e-06,-5.50142e-05,0.000206455,1.92239e-21,-6.71508e-21,0.0,0.00012378966130777158,0.0002064763133002856,0.0,4.584580509225944e-06,0.0,-5.501268674668047e-05
15,0.0055849,34.8035,11.6012,-8.50778e-14,20.0938,-5.14732e-16,-3.58235e-16,0.000150776,5.58439e-06,-6.70118e-05,0.00025148,4.29822e-21,-2.09936e-20,0.0,0.00015078736727236475,0.00025151162374603686,0.0,5.584405592840014e-06,0.0,-6.700955475946735e-05
16,0.0065849,41.0344,13.6781,-8.41896e-14,23.6912,-4.6063e-16,-2.48849e-16,0.00017777,6.58414e-06,-7.90088e-05,0.000296502,-5.86694e-21,-3.38728e-21,0.0,0.00017778580202287841,0.0002965459610626553,0.0,6.584161675426969e-06,0.0,-7.900567888696752e-05
17,0.0075849,47.265,15.755,-8.19692e-14,27.2884,-6.5004e-16,-1.23756e-16,0.000204762,7.58383e-06,-9.10054e-05,0.000341523,-1.17352e-20,-6.77534e-21,0.0,0.00020478296516923677,0.0003415813256193445,0.0,7.583858757209683e-06,0.0,-9.100125913419355e-05
18,0.0085849,53.4953,17.8318,-8.24132e-14,30.8856,-5.82332e-16,-2.40964e-16,0.000231753,8.58354e-06,-0.000103002,0.000386541,4.7534e-21,-2.8557e-20,0.0,0.0002317798568012286,0.00038661571659903693,0.0,8.583576838638862e-06,0.0,-0.00010299669547608747
19,0.0095849,59.7255,19.9085,-9.04068e-14,34.4825,-7.45748e-16,-2.96237e-16,0.000258743,9.58316e-06,-0.000114997,0.000431558,1.36621e-21,-2.26876e-20,0.0,0.0002587764768573475,0.0004316511345507923,0.0,9.583205918595183e-06,0.0,-0.00011499038809847928
20,0.010585,65.9553,21.9851,-8.06369e-14,38.0793,-8.96771e-16,-3.05281e-16,0.000285733,1.05827e-05,-0.000126992,0.000476574,-5.86362e-21,-3.38536e-21,0.0,0.0002857738255619413,0.00047668757943108986,0.0,1.058275599685743e-05,0.0,-0.00012698393685728337
21,0.011585,72.1849,24.0616,-8.86305e-14,41.676,-1.56167e-15,-8.45459e-16,0.000312721,1.15823e-05,-0.000138987,0.000521587,-1.66881e-20,-2.52862e-20,0.0,0.0003127699023093289,0.0005217230501521897,0.0,1.1582367074991495e-05,0.0,-0.00013897734175438714
22,0.012585,78.4143,26.1381,-8.33014e-14,45.2725,-1.43198e-15,-7.31511e-16,0.000339708,1.25818e-05,-0.000150981,0.000566598,-1.75965e-20,-1.01594e-20,0.0,0.0003397657072969906,0.0005667585469673053,0.0,1.2581879151207787e-05,0.0,-0.0001509696029423635
23,0.013585,84.6434,28.2145,-8.55219e-14,48.8689,-1.77118e-15,-8.88273e-16,0.000366693,1.35813e-05,-0.000162975,0.000611608,-2.16464e-20,-4.38008e-20,0.0,0.0003667602400967418,0.0006117950703088404,0.0,1.358139222618071e-05,0.0,-0.00016296172029606204
24,0.014585,90.8723,30.2908,-8.5966e-14,52.4651,-1.58742e-15,-6.6495e-16,0.000393678,1.45808e-05,-0.000174968,0.000656616,-2.16477e-20,-4.3802e-20,0.0,0.00039375550135378745,0.0006568316194761614,0.0,1.4580906300354357e-05,0.0,-0.00017495269399214752
25,0.015585,97.1009,32.367,-8.01928e-14,56.0612,-1.30214e-15,-6.17472e-16,0.000420662,1.55802e-05,-0.000186961,0.000701622,-2.84269e-20,-3.20643e-20,0.0,0.00042075049066681025,0.0007018681942905225,0.0,1.5580321371944095e-05,0.0,-0.0001869435238813777
26,0.016585,103.329,34.4431,-9.44037e-14,59.6572,-2.08092e-15,-1.02802e-15,0.000447645,1.65795e-05,-0.000198953,0.000746627,-2.84182e-20,-3.20595e-20,0.0,0.00044774520797496997,0.0007469057953195524,0.0,1.657963744072788e-05,0.0,-0.0001989332101642871
27,0.017585,109.557,36.5191,-7.97487e-14,63.253,-1.87568e-15,-9.09531e-16,0.000474626,1.75788e-05,-0.000210945,0.000791629,-1.84964e-20,4.97351e-21,0.0,0.00047473865274194615,0.0007919424209357206,0.0,1.7578954508046252e-05,0.0,-0.00021092275266787475
28,0.018585,115.785,38.5951,-8.46337e-14,66.8487,-1.92966e-15,-1.01885e-15,0.000501607,1.85781e-05,-0.000222936,0.00083663,-3.02338e-20,-1.80292e-21,0.0,0.0005017328258287712,0.0008369800724987719,0.0,1.8578272573899213e-05,0.0,-0.00022291115161654496
29,0.019585,122.013,40.671,-7.66401e-14,70.4442,-2.89209e-15,-1.65265e-15,0.000528586,1.95773e-05,-0.000234927,0.000881629,-2.34424e-20,-1.35345e-20,0.0,0.0005287257261976652,0.0008820177490824754,0.0,1.957749163650213e-05,0.0,-0.00023489940681320487
30,0.020585,128.24,42.7468,-7.70842e-14,74.0396,-3.16475e-15,-1.65377e-15,0.000555564,2.05766e-05,-0.000246918,0.000926626,-9.88221e-21,-3.70114e-20,0.0,0.00055571835426238,0.0009270554505083073,0.0,2.0576811699646314e-05,0.0,-0.0002468875182595198
31,0.021585,134.467,44.8225,-7.57519e-14,77.6348,-3.37426e-15,-1.69658e-15,0.000582542,2.15756e-05,-0.000258907,0.000971622,-2.34339e-20,-1.35296e-20,0.0,0.000582711710543693,0.0009720941775690495,0.0,2.157583275486097e-05,0.0,-0.00025887348647501973
32,0.022585,140.694,46.8981,-7.6196e-14,81.2299,-3.4327e-15,-1.73032e-15,0.000609518,2.25748e-05,-0.000270897,0.00101661,-6.04674e-20,-3.60418e-21,0.0,0.0006097037938423977,0.0010171269231009639,0.0,2.2575054812623563e-05,0.0,-0.00027086031072076633
33,0.023585,146.921,48.9736,-7.6196e-14,84.8248,-3.66696e-15,-1.86558e-15,0.000636493,2.35739e-05,-0.000282886,0.00106161,-4.6906e-20,-2.70812e-20,0.0,0.0006366956046526262,0.0010621737073575055,0.0,2.357417786646998e-05,0.0,-0.0002828459915281689
34,0.024585,153.147,51.0491,-7.26433e-14,88.4196,-3.53264e-15,-1.8271e-15,0.000663467,2.45729e-05,-0.000294874,0.0011066,-1.97931e-20,-7.40424e-20,0.0,0.0006636871429133162,0.0011072125076927453,0.0,2.4573201916178178e-05,0.0,-0.0002948305289349751
35,0.025585,159.373,53.1245,-7.30874e-14,92.0143,-3.97203e-15,-2.08078e-15,0.00069044,2.55718e-05,-0.000306862,0.00115159,-7.0378e-20,-4.06327e-20,0.0,0.0006906784085625173,0.001152253334369302,0.0,2.5572126961304065e-05,0.0,-0.00030681492267203847
36,0.026585,165.599,55.1998,-8.46337e-14,95.6088,-3.27183e-15,-1.8719e-15,0.000717412,2.65709e-05,-0.00031885,0.00119657,-8.39438e-20,-1.71568e-20,0.0,0.0007176694015396112,0.0011972861755054076,0.0,2.657125300942198e-05,0.0,-0.00031879917274102443
37,0.027585,171.825,57.275,-8.641e-14,99.2032,-2.6608e-15,-1.44097e-15,0.000744382,2.75698e-05,-0.000330837,0.00124156,-7.03972e-20,-4.06439e-20,0.0,0.0007446591210380493,0.0012423310546874067,0.0,2.757018005050682e-05,0.0,-0.000330782279474362
38,0.028585,178.05,59.3501,-6.86465e-14,102.797,-3.70324e-15,-2.00375e-15,0.000771352,2.85687e-05,-0.000342823,0.00128654,-9.74916e-20,6.33105e-21,0.0,0.0007716495684590985,0.0012873679476101962,0.0,2.856910808923807e-05,0.0,-0.0003427642429099098
39,0.029585,184.275,61.4252,-8.5966e-14,106.392,-3.04143e-15,-1.66073e-15,0.000798321,2.95675e-05,-0.000354809,0.00133152,-4.32735e-20,-8.76026e-20,0.0,0.0007986397430235215,0.001332406866338287,0.0,2.9567937122942922e-05,0.0,-0.00035474606273055986
40,0.030585,190.5,63.5001,-8.72982e-14,109.985,-3.15396e-15,-1.80384e-15,0.000825288,3.05663e-05,-0.000366795,0.0013765,-7.03842e-20,-4.06363e-20,0.0,0.0008256286438448335,0.0013774478109622734,0.0,3.056676715407214e-05,0.0,-0.0003667277389378665
41,0.031585,196.725,65.575,-6.99787e-14,113.579,-2.81452e-15,-1.64695e-15,0.000852255,3.15652e-05,-0.00037878,0.00142148,-4.6907e-20,-2.70818e-20,0.0,0.0008526182724855058,0.0014224907815736376,0.0,3.156569818618671e-05,0.0,-0.0003787082719124424
42,0.032585,202.949,67.6498,-7.1311e-14,117.173,-2.82345e-15,-1.4958e-15,0.00087922,3.25637e-05,-0.000390765,0.00146645,-7.03898e-20,-4.06396e-20,0.0,0.0008796066272060976,0.0014675257635881067,0.0,3.2564230203036004e-05,0.0,-0.0003906886613012084
43,0.033585,209.174,69.7245,-6.95347e-14,120.766,-3.60215e-15,-1.9063e-15,0.000906184,3.35625e-05,-0.000402749,0.00151143,-7.03722e-20,-4.06294e-20,0.0,0.0009065947087707471,0.001512572785997035,0.0,3.356306322710445e-05,0.0,-0.000402667907508536
44,0.034585,215.397,71.7992,-8.68541e-14,124.36,-4.00769e-15,-2.2186e-15,0.000933148,3.45611e-05,-0.000414732,0.0015564,-8.3919e-20,-1.71395e-20,0.0,0.0009335835180519503,0.0015576118190900878,0.0,3.456169724169733e-05,0.0,-0.00041464601057206174
45,0.035585,221.621,73.8737,-8.50778e-14,127.953,-3.18696e-15,-1.74474e-15,0.00096011,3.55596e-05,-0.000426716,0.00160137,-4.68945e-20,-2.70745e-20,0.0,0.0009605710531481737,0.0016026528776342808,0.0,3.556023225015359e-05,0.0,-0.00042662496967615926
46,0.036585,227.844,75.9482,-6.95347e-14,131.546,-3.93633e-15,-2.13832e-15,0.000987071,3.65584e-05,-0.000438698,0.00164634,-8.3918e-20,-1.71381e-20,0.0,0.0009875583149043798,0.00164769596172043,0.0,3.655906826649513e-05,0.0,-0.00043860178610255485
47,0.037585,234.068,78.0226,-6.90906e-14,135.139,-3.82798e-15,-1.91946e-15,0.00101403,3.75567e-05,-0.00045068,0.0016913,-4.68779e-20,-2.7065e-20,0.0,0.001014544302245124,0.0016927310545120644,0.0,3.755740526178997e-05,0.0,-0.00045057845902352067
48,0.038585,240.291,80.0969,-1.0595e-13,138.732,-5.04952e-15,-2.78102e-15,0.00104099,3.85553e-05,-0.000462662,0.00173627,-6.04025e-20,-3.5607e-21,0.0,0.0010415320181522691,0.001737778189504935,0.0,3.855604326519213e-05,0.0,-0.0004625549884409441
49,0.039585,246.513,82.1711,-8.641e-14,142.324,-5.29608e-15,-2.96245e-15,0.00106795,3.95536e-05,-0.000474643,0.00178123,-4.68342e-20,-2.70397e-20,0.0,0.0010685204616580624,0.001782817332484532,0.0,3.955438225400343e-05,0.0,-0.0004745303748309171
50,0.040585,252.736,84.2452,-6.73142e-14,145.917,-3.89371e-15,-2.07464e-15,0.0010949,4.05522e-05,-0.000486624,0.00182619,-5.05024e-20,3.34693e-20,0.0,0.0010954996218270896,0.0018278585004698478,0.0,4.055302225158819e-05,0.0,-0.00048650561774465917
51,0.041585,258.958,86.3193,-6.50938e-14,149.509,-4.1911e-15,-2.16819e-15,0.00112186,4.15505e-05,-0.000498605,0.00187115,-1.97416e-20,-7.40255e-20,0.0,0.0011224895203190144,0.0018729016935512544,0.0,4.155136323391595e-05,0.0,-0.0004984807171838357
52,0.042585,265.18,88.3932,-8.33014e-14,153.102,-4.12774e-15,-2.20976e-15,0.00114881,4.25487e-05,-0.000510584,0.00191611,1.12368e-22,6.48756e-23,0.0,0.0011494701349736847,0.0019179469118204562,0.0,4.254960520877482e-05,0.0,-0.0005104536741711296
53,0.043585,271.401,90.4671,-4.37775e-14,156.694,-4.06892e-15,-2.1758e-15,0.00117577,4.35471e-05,-0.000522564,0.00196106,1.13343e-22,6.54387e-23,0.0,0.0011764614885303448,0.001962984135738033,0.0,4.354804818862412e-05,0.0,-0.0005224274872128731
54,0.044585,277.623,92.5409,-4.33334e-14,160.286,-4.06871e-15,-2.17568e-15,0.00120272,4.45453e-05,-0.000534543,0.00200602,-2.70036e-20,4.70394e-20,0.0,0.001203443557749262,0.0020080334042047454,0.0,4.454629215655537e-05,0.0,-0.0005344001573435175
55,0.045585,283.844,94.6146,-4.37775e-14,163.877,-4.15642e-15,-2.22631e-15,0.00122967,4.55435e-05,-0.000546521,0.00205097,-1.01092e-19,6.68961e-20,0.0,0.0012304263541447202,0.0020530746776012965,0.0,4.55445371210228e-05,0.0,-0.0005463716846008104
56,0.046585,290.065,96.6883,-8.55219e-14,167.469,-4.37373e-15,-2.39085e-15,0.00125662,4.65416e-05,-0.000558499,0.00209592,1.30902e-22,7.55762e-23,0.0,0.0012574098777362597,0.002098117975648739,0.0,4.654268307713316e-05,0.0,-0.0005583430684640289
57,0.047585,296.285,98.7618,-8.5966e-14,171.061,-6.79794e-15,-3.67325e-15,0.00128357,4.75398e-05,-0.000570477,0.00214087,-6.66205e-20,-1.01096e-19,0.0,0.0012843941285436422,0.002143163298437667,0.0,4.754093003422888e-05,0.0,-0.0005703143089348384
58,0.048585,302.506,100.835,-8.5966e-14,174.652,-4.54567e-15,-2.29475e-15,0.00131052,4.8538e-05,-0.000582454,0.00218582,-4.68353e-20,-2.70404e-20,0.0,0.0013113791065864078,0.002188210646059563,0.0,4.853917798786078e-05,0.0,-0.0005822844065973554
59,0.049585,308.726,102.909,-8.46337e-14,178.243,-4.15994e-15,-2.1502e-15,0.00133747,4.9536e-05,-0.00059443,0.00223076,-1.97232e-20,-7.40209e-20,0.0,0.0013383648118840963,0.0022332499962725016,0.0,4.953722692779827e-05,0.0,-0.0005942533614889944
60,0.050585,314.946,104.982,-6.15411e-14,181.834,-7.01014e-15,-3.91299e-15,0.00136441,5.0534e-05,-0.000606406,0.00227571,-7.38684e-20,1.99865e-20,0.0,0.0013653412308027857,0.002278301393382476,0.0,5.0535276864049905e-05,0.0,-0.0006062221730414041
61,0.051585,321.166,107.055,-1.11723e-13,185.425,-4.97083e-15,-2.77467e-15,0.00139136,5.15319e-05,-0.000618381,0.00232065,-1.28176e-19,1.13903e-19,0.0,0.0013923283903993777,0.0023233447923647343,0.0,5.153322779105629e-05,0.0,-0.0006181898418743392
62,0.052585,327.385,109.128,-5.79883e-14,189.016,-6.48204e-15,-3.60809e-15,0.0014183,5.25299e-05,-0.000630357,0.00236559,-1.67833e-19,-3.42625e-20,0.0,0.0014193062631164821,0.002368390215642835,0.0,5.2531279719270074e-05,0.0,-0.0006301583667650545
63,0.053585,333.604,111.201,-1.13055e-13,192.607,-5.71193e-15,-3.04624e-15,0.00144524,5.35278e-05,-0.000642331,0.00241052,-1.13614e-19,-1.28232e-19,0.0,0.0014462848626273228,0.0024134276391731824,0.0,5.352923263823861e-05,0.0,-0.000642124749605899
64,0.054585,339.823,113.274,-6.02088e-14,196.197,-5.68234e-15,-3.02915e-15,0.00147219,5.45256e-05,-0.000654305,0.00245546,-1.94981e-19,1.27021e-20,0.0,0.0014732742036840385,0.0024584771108653314,0.0,5.452708654751781e-05,0.0,-0.0006540909891621371
65,0.055585,346.042,115.347,-5.88765e-14,199.787,-6.41013e-15,-3.52749e-15,0.00149913,5.55234e-05,-0.000666279,0.0025004,-1.6783e-19,-3.42583e-20,0.0,0.0015002542571107558,0.0025035286071264373,0.0,5.552494145244502e-05,0.0,-0.0006660570854354342
66,0.056585,352.26,117.42,-3.08989e-14,203.378,-5.06632e-15,-2.67349e-15,0.00152607,5.65211e-05,-0.000678252,0.00254533,-1.40755e-19,-8.12648e-20,0.0,0.0015272350373900512,0.0025485721025610975,0.0,5.652269734746085e-05,0.0,-0.000678022039105719
67,0.057585,358.478,119.493,-8.68541e-14,206.968,-7.61557e-15,-4.14531e-15,0.00155301,5.75189e-05,-0.000690225,0.00259026,-2.69009e-19,3.26067e-20,0.0,0.0015542165445410205,0.002593617621845734,0.0,5.7520554243684074e-05,0.0,-0.0006899868495202632
68,0.058585,364.696,121.565,-1.16608e-13,210.558,-7.82031e-15,-4.26352e-15,0.00157994,5.85164e-05,-0.000702197,0.00263519,-1.87627e-19,-1.08326e-19,0.0,0.0015811887627719123,0.0026386651650709414,0.0,5.851811211798896e-05,0.0,-0.0007019505173830876
69,0.059585,366.051,122.037,-0.012491,211.392,-0.00613385,-0.00354101,0.00160593,5.56234e-05,-0.000721802,0.002684,-7.80492e-08,-4.50686e-08,3.15918e-05,0.0016072201961450094,0.0026876051526882883,-7.80491969942787e-08,5.5624947010057824e-05,-4.506859896391546e-08,-0.00072154156360138
70,0.060585,366.857,122.344,-0.00170266,211.86,-0.00974725,-0.0056272,0.00163198,5.23013e-05,-0.000742358,0.00273297,-1.25554e-07,-7.25159e-08,6.70953e-05,0.0016333124040806002,0.00273670796698533,-1.255539920919091e-07,5.230266773681436e-05,-7.251589739798447e-08,-0.0007420825204722536
71,0.061585,367.643,122.622,-0.000344074,212.324,-0.0135997,-0.00785125,0.00165803,4.88761e-05,-0.000762931,0.00278197,-1.76951e-07,-1.02217e-07,0.000102674,0.0016594052917271451,0.0027858432694807256,-1.7695098430969836e-07,4.887729445601785e-05,-1.0221699475732038e-07,-0.0007626400421428814
72,0.062585,368.42,122.894,-7.47097e-05,212.783,-0.0174679,-0.0100844,0.00168408,4.5429e-05,-0.000783514,0.00283099,-2.2945e-07,-1.32561e-07,0.000138304,0.0016854988591021858,0.0028350010363649147,-2.2944997368767872e-07,4.543003191259665e-05,-1.3256099118397202e-07,-0.0007832071330560186
73,0.063585,369.19,123.163,-2.50183e-05,213.238,-0.0213007,-0.0122971,0.00171012,4.19752e-05,-0.000804109,0.00288001,-2.82396e-07,-1.63171e-07,0.000173981,0.0017115830891076822,0.0028841612130217076,-2.8239596017165525e-07,4.1976080971117824e-05,-1.6317098672224972e-07,-0.0008037857909956037
74,0.064585,369.953,123.429,-2.16353e-05,213.689,-0.0250956,-0.0144878,0.00173617,3.85158e-05,-0.000824715,0.00292903,-3.3575e-07,-1.94025e-07,0.000209705,0.0017376780157321026,0.002933323799569676,-3.357499436251743e-07,3.851654174291674e-05,-1.940249811926975e-07,-0.0008243750160541463
75,0.065585,370.708,123.692,-2.05898e-05,214.135,-0.0288527,-0.0166566,0.00176221,3.50511e-05,-0.00084533,0.00297806,-3.89503e-07,-2.25115e-07,0.000245474,0.001763763604500479,0.002982498825951474,-3.8950292413630905e-07,3.50517142970741e-05,-2.2511497466126684e-07,-0.0008449728092506659
76,0.066585,371.457,123.954,-2.00758e-05,214.577,-0.0325725,-0.0188039,0.00178825,3.15812e-05,-0.000865957,0.00302709,-4.4365e-07,-2.56441e-07,0.000281288,0.0017898498725463785,0.0030316762634439165,-4.436499015936235e-07,3.158169869132976e-05,-2.564409671279577e-07,-0.0008655821674411479
77,0.067585,372.198,124.212,-1.95974e-05,215.016,-0.0362556,-0.02093,0.00181429,2.81061e-05,-0.000886593,0.00307613,-4.9819e-07,-2.88e-07,0.000317145,0.0018159368198877868,0.0030808661429737594,-4.981898759082171e-07,2.8106494980084662e-05,-2.87999958548113e-07,-0.0008862000925511371
78,0.068585,372.934,124.469,-1.91448e-05,215.45,-0.0399025,-0.0230352,0.00184033,2.4626e-05,-0.000907239,0.00312517,-5.53118e-07,-3.19791e-07,0.000353044,0.0018420244465420232,0.003130058434834604,-5.53117847079676e-07,2.462630322241921e-05,-3.197909488328321e-07,-0.0009068275831256578
79,0.069585,373.662,124.723,-1.87058e-05,215.88,-0.0435138,-0.0251197,0.00186636,2.11411e-05,-0.000927894,0.00317421,-6.08434e-07,-3.51813e-07,0.000388986,0.0018681027338456335,0.0031792531391445777,-6.084338148859558e-07,2.114132347452724e-05,-3.5181293811525904e-07,-0.0009274636394823732
80,0.070585,374.384,124.975,-1.82802e-05,216.307,-0.0470901,-0.027184,0.00189239,1.76513e-05,-0.000948559,0.00322326,-6.64133e-07,-3.84063e-07,0.000424968,0.0018941816999762384,0.0032284602883063673,-6.64132779437665e-07,1.7651455785028247e-05,-3.840629262397144e-07,-0.0009481092601245633
81,0.071585,375.1,125.225,-1.78673e-05,216.73,-0.0506319,-0.0292284,0.00191842,1.41568e-05,-0.000969233,0.00327231,-7.20214e-07,-4.1654e-07,0.000460991,0.0019202613449509354,0.0032776698511383096,-7.20213740645903e-07,1.4156900207895617e-05,-4.1653991322831985e-07,-0.0009687634454107474
82,0.072585,375.81,125.473,-1.74666e-05,217.149,-0.0541397,-0.0312531,0.00194445,1.06576e-05,-0.000989917,0.00332136,-7.76674e-07,-4.49242e-07,0.000497053,0.00194634166878771,0.00332688182775831,-7.766736983549904e-07,1.0657656792423253e-05,-4.4924189912531887e-07,-0.0009894271938023502
83,0.073585,376.513,125.718,-1.70778e-05,217.565,-0.057614,-0.0332585,0.00197047,7.15399e-06,-0.00101061,0.00337042,-8.3351e-07,-4.82169e-07,0.000533154,0.0019724126517799423,0.003376106252046096,-8.335096526312924e-07,7.154015589927454e-06,-4.821688837086668e-07,-0.0010100995056986362
84,0.074585,377.211,125.961,-1.67004e-05,217.977,-0.0610554,-0.0352448,0.00199649,3.6459e-06,-0.00103131,0.00341948,-8.90719e-07,-5.15317e-07,0.000569293,0.0019984843131479746,0.0034253330913431856,-8.907186033191294e-07,3.6459066463656598e-06,-5.15316867177873e-07,-0.0010307783826117856
85,0.075585,377.903,126.203,-1.6334e-05,218.386,-0.0644642,-0.0372123,0.00202251,1.33451e-07,-0.00105202,0.00346854,-9.48299e-07,-5.48686e-07,0.000605469,0.0020245566529093484,0.0034745623457683728,-9.482985503517227e-07,1.3345100891015704e-07,-5.486858494219149e-07,-0.0010514668209619105
86,0.076585,378.589,126.442,-1.59784e-05,218.791,-0.0678412,-0.0391614,0.00204852,-3.38327e-06,-0.00107274,0.0035176,-1.00625e-06,-5.82274e-07,0.000641682,0.0020506196505758467,0.003523794015440229,-1.0062494937290722e-06,-3.3832642767350762e-06,-5.822738304850361e-07,-0.001072164820137389
87,0.077585,379.269,126.679,-1.5633e-05,219.193,-0.0711866,-0.0410922,0.00207454,-6.90417e-06,-0.00109346,0.00356667,-1.06456e-06,-6.1608e-07,0.000677931,0.002076693346916514,0.0035730381362071295,-1.0645594333835717e-06,-6.904146166220038e-06,-6.160798101673137e-07,-0.0010928623904548074
88,0.078585,379.944,126.915,-1.52977e-05,219.592,-0.0745009,-0.0430051,0.00210055,-1.04292e-05,-0.0011142,0.00361574,-1.12324e-06,-6.50102e-07,0.000714216,0.002102757700675806,0.0036222846734423886,-1.1232393691829046e-06,-1.0429145616108748e-05,-6.501017887350358e-07,-0.0011135795096515189
89,0.079585,380.613,127.148,-1.4972e-05,219.987,-0.0777847,-0.0449003,0.00212656,-1.39582e-05,-0.00113494,0.00366481,-1.18228e-06,-6.84338e-07,0.000750535,0.0021288227323779108,0.003671533627264578,-1.1822793011262434e-06,-1.3958102584754606e-05,-6.843377657883565e-07,-0.0011342961991797074
90,0.080585,381.277,127.38,-1.46558e-05,220.379,-0.0810384,-0.0467781,0.00215257,-1.74912e-05,-0.00115569,0.00371389,-1.24167e-06,-7.18786e-07,0.000786888,0.0021548884420403702,0.003720795035000002,-1.2416692291017384e-06,-1.7491047029860596e-05,-7.187857417045862e-07,-0.0011550224474979887
91,0.081585,381.935,127.61,-1.43485e-05,220.768,-0.0842624,-0.0486387,0.00217857,-2.10281e-05,-0.00117644,0.00376297,-1.30142e-06,-7.53446e-07,0.000823275,0.0021809448078711213,0.0037700588605447116,-1.301419153110217e-06,-2.1027878911006326e-05,-7.53445716150658e-07,-0.0011757482657510643
92,0.082585,382.589,127.838,-1.40501e-05,221.154,-0.0874571,-0.0504824,0.00220457,-2.45688e-05,-0.00119721,0.00381205,-1.36153e-06,-7.88316e-07,0.000859695,0.0022070018511761713,0.0038193251040172793,-1.3615290731516794e-06,-2.456849818954776e-05,-7.883156892818377e-07,-0.0011964936300182805
93,0.083585,383.237,128.064,-1.37601e-05,221.537,-0.090623,-0.0523095,0.00223057,-2.81133e-05,-0.00121798,0.00386113,-1.42198e-06,-8.23394e-07,0.000896147,0.0022330595719732838,0.003868593765536499,-1.421978989002426e-06,-2.8112904824850737e-05,-8.233936610313464e-07,-0.001217238563408718
94,0.084585,383.88,128.288,-1.34784e-05,221.917,-0.0937605,-0.0541201,0.00225657,-3.16614e-05,-0.00123876,0.00391022,-1.48278e-06,-8.58679e-07,0.000932631,0.002259117970279778,0.0039178748843995415,-1.482778900663284e-06,-3.166089878314793e-05,-8.586786313102834e-07,-0.0012379930535514339
95,0.085585,384.518,128.511,-1.32047e-05,222.294,-0.09687,-0.0559145,0.00228257,-3.52132e-05,-0.00125955,0.0039593,-1.54393e-06,-8.94169e-07,0.000969146,0.002285177046113418,0.003967148382860719,-1.543928808134254e-06,-3.52125800225922e-05,-8.941686002739146e-07,-0.001258757099832808
96,0.086585,385.152,128.732,-1.29387e-05,222.669,-0.0999518,-0.057693,0.00230856,-3.87684e-05,-0.00128034,0.00400839,-1.60542e-06,-9.29863e-07,0.00100569,0.002311226776379627,0.0040164343398887414,-1.6054187113034857e-06,-3.876764851529213e-05,-9.298625677223171e-07,-0.001279520714434157
97,0.087585,385.78,128.951,-1.26802e-05,223.04,-0.103006,-0.0594558,0.00233455,-4.23272e-05,-0.00130114,0.00405748,-1.66725e-06,-9.65759e-07,0.00104227,0.0023372771836871475,0.004065722716423803,-1.6672486101709794e-06,-4.2326304216744326e-05,-9.657585336997343e-07,-0.0013002938843615919
98,0.088585,386.404,129.169,-1.2429e-05,223.409,-0.106034,-0.061203,0.00236054,-4.58894e-05,-0.00132195,0.00410658,-1.72942e-06,-1.00186e-06,0.00107887,0.0023633282680535217,0.004115023553734831,-1.7294185045146904e-06,-4.588834709762235e-05,-1.001859498139801e-06,-0.0013210766090009374
99,0.089585,387.023,129.385,-1.21849e-05,223.774,-0.109036,-0.062935,0.00238653,-4.94549e-05,-0.00134276,0.00415567,-1.79192e-06,-1.03815e-06,0.00111551,0.002389380029496513,0.00416431677013307,-1.791918394555836e-06,-4.945367712660964e-05,-1.0381494611744202e-06,-0.0013418589011561233
100,0.090585,387.638,129.599,-1.19476e-05,224.137,-0.112011,-0.0646519,0.00241251,-5.30238e-05,-0.00136358,0.00420477,-1.85476e-06,-1.07465e-06,0.00115217,0.002415422443879045,0.004213622448530963,-1.8547582799621765e-06,-5.302239426319133e-05,-1.0746494225610803e-06,-0.0013626507472099814
101,0.091585,388.248,129.812,-1.1717e-05,224.498,-0.11496,-0.0663539,0.0024385,-5.65958e-05,-0.00138441,0.00425387,-1.91793e-06,-1.11134e-06,0.00118887,0.0024414755592672144,0.00426293054789717,-1.9179281607328846e-06,-5.6594198487913694e-05,-1.1113393824091489e-06,-0.001383452146547559
102,0.092585,388.854,130.023,-1.14929e-05,224.856,-0.117885,-0.0680412,0.00246448,-6.01711e-05,-0.00140524,0.00430297,-1.98142e-06,-1.14822e-06,0.00122559,0.002467519327109313,0.004312241068350486,-1.9814180369781553e-06,-6.0169289755718225e-05,-1.1482193408296482e-06,-0.0014042531125965096
103,0.093585,389.455,130.233,-1.1275e-05,225.211,-0.120784,-0.0697141,0.00249046,-6.37495e-05,-0.00142608,0.00435207,-2.04525e-06,-1.1853e-06,0.00126233,0.0024935637715772785,0.004361554010009705,-2.0452479084775987e-06,-6.37474680438288e-05,-1.1852992974903387e-06,-0.0014250636311152753
104,0.094585,390.052,130.441,-1.10632e-05,225.563,-0.123658,-0.0713728,0.00251643,-6.7331e-05,-0.00144692,0.00440118,-2.10939e-06,-1.22257e-06,0.00129911,0.002519598867492645,0.004410879417102498,-2.1093877752287327e-06,-6.732873331904976e-05,-1.2225692526124377e-06,-0.0014458737159473989
105,0.095585,390.645,130.648,-1.08574e-05,225.914,-0.126509,-0.0730174,0.00254241,-7.09156e-05,-0.00146777,0.00445029,-2.17386e-06,-1.26003e-06,0.00133591,0.0025456446650047315,0.004460207246625769,-2.1738576371221896e-06,-7.091308554829645e-05,-1.260029206195945e-06,-0.001466693352434989
106,0.096585,391.234,130.853,-1.06573e-05,226.261,-0.129335,-0.0746481,0.00256838,-7.45031e-05,-0.00148863,0.00449939,-2.23865e-06,-1.29769e-06,0.00137274,0.0025716811134783857,0.004509527453602669,-2.2386474942681645e-06,-7.45003247130116e-05,-1.2976891580196437e-06,-0.001487522539962427
107,0.097585,391.818,131.057,-1.04628e-05,226.606,-0.132137,-0.0762652,0.00259435,-7.80935e-05,-0.00150949,0.0045485,-2.30375e-06,-1.33553e-06,0.00140959,0.0025977182381276,0.004558860127849895,-2.303747346332763e-06,-7.809045078199794e-05,-1.335529108192901e-06,-0.001508351292997645
108,0.098585,392.399,131.259,-1.02738e-05,226.949,-0.134916,-0.0778687,0.00262032,-8.16868e-05,-0.00153036,0.00459761,-2.36917e-06,-1.37355e-06,0.00144647,0.0026237560389696934,0.004608195224884204,-2.369167193538857e-06,-8.168346372416924e-05,-1.3735490567157171e-06,-0.0015291895962576962
109,0.099585,392.975,131.46,-1.009e-05,227.29,-0.137673,-0.0794589,0.00264628,-8.5283e-05,-0.00155123,0.00464673,-2.4349e-06,-1.41176e-06,0.00148337,0.002649784489524132,0.00465754279139996,-2.4348970356635746e-06,-8.527936350832821e-05,-1.411759003477897e-06,-0.0015500274646269574
110,0.1006,401.977,134.566,-0.0203642,232.628,-0.181686,-0.104848,0.00307689,-0.00014543,-0.00189839,0.0054623,-3.65872e-06,-2.12391e-06,0.00209927,0.00308162848472171,0.005477245560632227,-3.658713306875505e-06,-0.00014541942557011467,-2.1239077444556997e-06,-0.0018965891974260796
111,0.1016,415.118,139.116,-0.0437593,240.442,-0.244998,-0.141359,0.00379328,-0.000246768,-0.0024794,0.00682249,-5.93192e-06,-3.44848e-06,0.00313717,0.0038004835921132685,0.006845816202320609,-5.931902406164369e-06,-0.0002467375552813733,-3.4484740539797443e-06,-0.002476328826566787
112,0.1026,426.563,143.07,-0.0620115,247.192,-0.299288,-0.172659,0.00450868,-0.000349306,-0.00306262,0.00818231,-8.38874e-06,-4.88145e-06,0.00418545,0.004518859390459484,0.008215876586748827,-8.388704814565884e-06,-0.0003492449997619662,-4.881438085746481e-06,-0.0030579349634171082
113,0.1036,436.736,146.706,-0.00478646,253.178,-0.34416,-0.198523,0.00522266,-0.000452009,-0.00364718,0.00954189,-1.09603e-05,-6.38251e-06,0.0052411,0.005236321862136517,0.00958755897291641,-1.0960239936186333e-05,-0.00045190685932205987,-6.382489631806543e-06,-0.0036405371174071943
114,0.1046,445.799,149.833,-0.0428363,258.54,-0.383875,-0.221411,0.00593566,-0.000555787,-0.00423299,0.010901,-1.36652e-05,-7.96211e-06,0.00630258,0.0059533109358544944,0.010960632387737146,-1.3665106631588486e-05,-0.0005556325790150307,-7.962078302448106e-06,-0.004224043525727028
115,0.1056,454.126,152.831,0.0278212,263.421,-0.417874,-0.241001,0.00664746,-0.000659385,-0.00481924,0.0122593,-1.6459e-05,-9.59428e-06,0.00736813,0.006669603400824009,0.012334753237615903,-1.645886455137191e-05,-0.0006591676534851709,-9.594233975063204e-06,-0.0048076460949920685
116,0.1066,461.65,155.381,-0.0331316,267.886,-0.448918,-0.258887,0.00735839,-0.000764034,-0.00540622,0.013617,-1.93581e-05,-1.12883e-05,0.00843728,0.007385529478479258,0.013710133597768515,-1.9357912633188867e-05,-0.0007637422003431427,-1.128823628737674e-05,-0.0053916326918934665
117,0.1076,468.736,157.959,0.0546816,272.025,-0.475761,-0.274349,0.00806817,-0.000868093,-0.00599315,0.0149735,-2.23202e-05,-1.30197e-05,0.00950869,0.008100805393833177,0.015086164475935027,-2.2319950906179997e-05,-0.0008677163162783552,-1.3019615244025395e-05,-0.005975226899689989
118,0.1086,475.175,160.091,-0.0337671,275.86,-0.500955,-0.288861,0.00877717,-0.00097331,-0.00658059,0.0163293,-2.53686e-05,-1.48016e-05,0.0105825,0.008815802301309628,0.016463351681977212,-2.536827821975063e-05,-0.0009728364874592721,-1.480149045685053e-05,-0.006558985334085499
119,0.1096,481.374,162.385,0.0769717,279.464,-0.522756,-0.301416,0.00948503,-0.00107755,-0.00716763,0.0176838,-2.84601e-05,-1.66091e-05,0.0116575,0.009530155456310752,0.01784108415050434,-2.8459695015192743e-05,-0.001076969651468973,-1.6608962069675215e-05,-0.007142003803010888
120,0.1106,487.001,164.193,-0.0416499,282.832,-0.543758,-0.313512,0.0101922,-0.00118317,-0.0077551,0.0190375,-3.16247e-05,-1.84593e-05,0.0127341,0.010244317383527823,0.019219868645852234,-3.162419994440224e-05,-0.0011824703303454642,-1.845912962816776e-05,-0.007725106795509085
121,0.1116,492.538,166.291,0.0978541,286.033,-0.561831,-0.323918,0.0108982,-0.00128741,-0.00834188,0.0203897,-3.48169e-05,-2.0326e-05,0.0138111,0.010957801701929393,0.020598989966022385,-3.4816293898787265e-05,-0.0012865816432623411,-2.0325793428255245e-05,-0.00830718306528555
122,0.1126,497.529,167.832,-0.0543313,289.038,-0.579698,-0.334207,0.0116036,-0.00139333,-0.00892909,0.0217411,-3.80729e-05,-2.223e-05,0.0148895,0.011671182915222955,0.021979159811779114,-3.8072175236325556e-05,-0.0013923597664263765,-2.2229752915325918e-05,-0.008889344062210092
123,0.1136,502.556,169.793,0.118814,291.922,-0.594911,-0.342965,0.0123078,-0.00149745,-0.00951537,0.0230909,-4.13442e-05,-2.41432e-05,0.0159676,0.012383852663799377,0.02335955870331885,-4.13433453403389e-05,-0.0014963293811753875,-2.4142908555346843e-05,-0.009470242116478622
124,0.1146,507.03,171.106,-0.0704713,294.638,-0.610351,-0.351856,0.0130116,-0.00160362,-0.0101022,0.0244399,-4.46724e-05,-2.60896e-05,0.0170468,0.013096619212431104,0.02474100232223453,-4.467140220321131e-05,-0.001602334888483048,-2.6089259669292986e-05,-0.010051344173561239
125,0.1156,511.654,172.974,0.140405,297.268,-0.623306,-0.359313,0.013714,-0.00170753,-0.0106878,0.0257872,-4.80061e-05,-2.80395e-05,0.0181254,0.013808468249881134,0.02612256635628829,-4.800494772561059e-05,-0.0017060730000578728,-2.8039106896859955e-05,-0.010630888399302041
126,0.1166,515.697,174.084,-0.0891496,299.745,-0.636812,-0.36709,0.0144161,-0.00181391,-0.011274,0.0271338,-5.13916e-05,-3.00196e-05,0.0192049,0.014520513109537392,0.027505273772104433,-5.139027947431707e-05,-0.001812265859513773,-3.0019149416360413e-05,-0.011210686617061705
127,0.1176,519.997,175.891,0.162688,302.167,-0.647944,-0.373497,0.0151168,-0.00191756,-0.0118588,0.0284785,-5.47745e-05,-3.19983e-05,0.0202833,0.015231636746143806,0.028887889507096087,-5.477299990441775e-05,-0.0019157226564163743,-3.1997788059845433e-05,-0.011788761561939531
128,0.1186,523.674,176.818,-0.109598,304.445,-0.659872,-0.380364,0.0158173,-0.00202412,-0.0124443,0.0298226,-5.82053e-05,-3.4005e-05,0.0213628,0.015943055653065308,0.030271747532828464,-5.820360610442332e-05,-0.0020220728505710994,-3.4004421836542065e-05,-0.012367189890627461
129,0.1196,527.709,178.587,0.185433,306.692,-0.669507,-0.38591,0.0165163,-0.00212745,-0.0130282,0.0311647,-6.16269e-05,-3.60065e-05,0.0224407,0.016653448102202928,0.03165540353986529,-6.162500110162838e-05,-0.002125188582217441,-3.600585177376825e-05,-0.012943700359839272
130,0.1206,531.067,179.346,-0.131089,308.8,-0.680116,-0.392017,0.0172151,-0.00223419,-0.0136131,0.0325062,-6.50931e-05,-3.8034e-05,0.0235197,0.017364133816405225,0.033040297973965016,-6.509098149010129e-05,-0.002231696055183252,-3.803327671658696e-05,-0.013520860782478938
131,0.1216,534.883,181.096,0.208228,310.899,-0.688506,-0.396846,0.0179124,-0.00233717,-0.014196,0.0338457,-6.85448e-05,-4.00532e-05,0.0245969,0.018073789219517078,0.03442498263861493,-6.854245085885502e-05,-0.0023344409446982572,-4.005239788129611e-05,-0.014095711916089382
132,0.1226,537.962,181.699,-0.152903,312.861,-0.697992,-0.402307,0.0186098,-0.00244406,-0.0147801,0.0351846,-7.20384e-05,-4.20967e-05,0.0256753,0.01878404151630786,0.0358109018444428,-7.203580529679954e-05,-0.0024410757171088315,-4.2095813946319005e-05,-0.014671410461631229
133,0.1236,541.594,183.442,0.230546,314.833,-0.705334,-0.406533,0.0193054,-0.00254667,-0.015362,0.0365214,-7.55131e-05,-4.41294e-05,0.0267515,0.019492954226842718,0.03719649978534956,-7.551024895757763e-05,-0.0025434299869537824,-4.412842631229541e-05,-0.015244606380357073
134,0.1246,544.427,183.902,-0.17432,316.667,-0.713847,-0.411434,0.0200012,-0.00265368,-0.0159452,0.0378578,-7.90271e-05,-4.6185e-05,0.0278289,0.02020256426909839,0.03858353579869367,-7.902397744097289e-05,-0.0026501621037071654,-4.618393348931882e-05,-0.01581874828986196
135,0.1256,547.901,185.648,0.25173,318.529,-0.720308,-0.415152,0.0206952,-0.00275595,-0.016526,0.0391918,-8.25192e-05,-4.8228e-05,0.028904,0.020910830588686924,0.039969930755287875,-8.251579538443021e-05,-0.0027521558560893444,-4.8226837048748195e-05,-0.016390194796725877
136,0.1266,550.513,185.973,-0.196045,320.25,-0.727983,-0.419571,0.0213895,-0.00286312,-0.0171083,0.0405256,-8.60483e-05,-5.02924e-05,0.0299804,0.02161989510162643,0.04135796812527226,-8.604459795125141e-05,-0.002859025180851238,-5.0291135358482286e-05,-0.016962784060752356
137,0.1276,553.852,187.724,0.272811,322.015,-0.733686,-0.422853,0.0220819,-0.00296503,-0.017688,0.041857,-8.95527e-05,-5.23426e-05,0.0310542,0.02232750966488628,0.04274535550286829,-8.954869027666401e-05,-0.002960638639793345,-5.2341230149965945e-05,-0.017532485590889713
138,0.1286,556.269,187.932,-0.214375,323.636,-0.740592,-0.426829,0.0227746,-0.00307227,-0.0182693,0.0431882,-9.30915e-05,-5.44128e-05,0.0321294,0.023035921260860848,0.044134382451326726,-9.308716712075338e-05,-0.003067555407926026,-5.441131965044921e-05,-0.01810342799652831
139,0.1296,559.487,189.688,0.290193,325.315,-0.745641,-0.429734,0.0234655,-0.00317382,-0.018848,0.0445168,-9.6604e-05,-5.64677e-05,0.0332018,0.023742981004522434,0.045522541341606715,-9.65993339838711e-05,-0.0031687887574640694,-5.646610572940247e-05,-0.01867148715897482
140,0.1306,561.73,189.79,-0.230748,326.847,-0.751853,-0.433312,0.0241567,-0.0032811,-0.0194284,0.0458453,-0.000100148,-5.85411e-05,0.0342757,0.02445083675976001,0.04691244107425563,-0.00010014298535643285,-0.0032757230737467946,-5.853938650324242e-05,-0.019240884972598016
141,0.1316,564.838,191.549,0.304926,328.448,-0.756338,-0.435893,0.0248459,-0.00338231,-0.0200059,0.0471712,-0.000103665,-6.05987e-05,0.0353466,0.025157131637712382,0.0483014629284213,-0.00010365962696956554,-0.0033765964330321196,-6.059686393589114e-05,-0.019807109848356874
142,0.1326,566.928,191.56,-0.244214,329.901,-0.761919,-0.439106,0.0255357,-0.00348959,-0.0205853,0.0484971,-0.000107211,-6.26731e-05,0.0364191,0.025864528980409807,0.0496923277081609,-0.00010720525310614626,-0.0034835084569032615,-6.26711360822707e-05,-0.020374869113168437
143,0.1336,569.935,193.317,0.316531,331.433,-0.765913,-0.441406,0.0262233,-0.00359049,-0.0211618,0.0498203,-0.000110729,-6.47314e-05,0.0374884,0.026570155997303946,0.05108219993285901,-0.00011072286977054091,-0.003584051898398055,-6.472930496814744e-05,-0.02093946024209492
144,0.1346,571.889,193.252,-0.25446,332.813,-0.770913,-0.444284,0.0269116,-0.00369774,-0.0217402,0.0511435,-0.000114273,-6.68048e-05,0.0385595,0.027276987463820568,0.05247391245375632,-0.00011426647108947474,-0.003690911778368444,-6.680256860902567e-05,-0.021505585119193427
145,0.1356,574.8,195.0,0.324703,334.282,-0.774479,-0.446337,0.0275977,-0.00379837,-0.0223156,0.052464,-0.00011779,-6.88624e-05,0.0396272,0.027982044046922505,0.05386462226922317,-0.00011778306303034114,-0.0037911653175747295,-6.886002903938593e-05,-0.02206844885408965
146,0.1366,576.635,194.873,-0.26123,335.597,-0.778941,-0.448907,0.0282845,-0.00390554,-0.022893,0.0537845,-0.00012133,-7.09331e-05,0.0406967,0.02868830461689198,0.05525716973003969,-0.00012132263981323721,-0.003897923297659145,-7.09305843071828e-05,-0.022632943546420536
147,0.1376,579.454,196.604,0.329274,337.007,-0.782129,-0.450743,0.0289691,-0.00400593,-0.0234672,0.0551023,-0.000124842,-7.29883e-05,0.0417627,0.029392785746608974,0.05664870430906599,-0.00012483420756181918,-0.0039979169658731495,-7.298563641888745e-05,-0.02319398661935501
148,0.1386,581.186,196.43,-0.264405,338.264,-0.786093,-0.453026,0.0296544,-0.00411297,-0.0240436,0.0564202,-0.000128375,-7.5055e-05,0.0428306,0.030098470397909027,0.05804217966537162,-0.00012836676028227245,-0.00410452332316702,-7.50521834439466e-05,-0.02375685537110961
149,0.1396,583.916,198.137,0.330202,339.621,-0.788945,-0.454668,0.0303375,-0.00421316,-0.0246168,0.0577353,-0.000131881,-7.71065e-05,0.043895,0.03080237105293504,0.059434526272690746,-0.0001318723040831804,-0.004204297092724851,-7.710352737022586e-05,-0.024316277595884284
150,0.1406,585.56,197.93,-0.263998,340.825,-0.792445,-0.456684,0.0310214,-0.00432004,-0.025192,0.0590505,-0.000135404,-7.91677e-05,0.0449611,0.03150757791249714,0.0608288112424602,-0.0001353948332921684,-0.004310722050000604,-7.91645663202889e-05,-0.02487732949901489
151,0.1416,588.201,199.602,0.327572,342.131,-0.794995,-0.458153,0.031703,-0.00442007,-0.0257641,0.0603629,-0.000138902,-8.12144e-05,0.0460238,0.0322108931402032,0.062221956956590274,-0.00013889235356379093,-0.004410315867206083,-8.121110219994065e-05,-0.02543503763118593
152,0.1426,589.769,199.377,-0.260145,343.287,-0.798064,-0.459921,0.0323853,-0.00452673,-0.0263383,0.0616754,-0.000142414,-8.32689e-05,0.0470882,0.032915410951512625,0.06361703859715195,-0.0001424038596077315,-0.004516499800025886,-8.326543324133073e-05,-0.025994472203541674
153,0.1436,592.323,201.007,0.321584,344.547,-0.800338,-0.461231,0.0330655,-0.00462665,-0.0269094,0.0629851,-0.000145902,-8.53098e-05,0.0481491,0.03361823901876937,0.06501097044962356,-0.00014589135682085974,-0.004615963542074608,-8.530616122248702e-05,-0.02655056795221067
154,0.1446,593.828,200.775,-0.25309,345.659,-0.803005,-0.462768,0.0337464,-0.00473306,-0.0274824,0.0642949,-0.0001494,-8.73566e-05,0.0492118,0.03432226933763882,0.06640683577135831,-0.00014938884037574152,-0.004721876722183382,-8.735278452332018e-05,-0.027108194701453314
155,0.1456,596.295,202.355,0.312537,346.874,-0.805026,-0.463933,0.0344251,-0.00483288,-0.0280524,0.065602,-0.000152876,-8.93905e-05,0.050271,0.03502450213758279,0.06780164752703044,-0.00015286431505978637,-0.004821220426122208,-8.938650478829135e-05,-0.02766258501422425
156,0.1466,597.747,202.129,-0.243168,347.947,-0.807319,-0.465255,0.0351045,-0.00493901,-0.0286243,0.0669091,-0.00015636,-9.14287e-05,0.0513318,0.03572793671400287,0.06919828363319303,-0.00015634777641226894,-0.004926833145560305,-9.142452052379735e-05,-0.028218505801153593
157,0.1476,600.128,203.651,0.300806,349.12,-0.809104,-0.466284,0.0357818,-0.00503878,-0.0291932,0.0682135,-0.000159822,-9.34548e-05,0.0523892,0.03642967286165977,0.07059385586870026,-0.00015980922914449192,-0.005026106643076567,-9.345043323616409e-05,-0.028771195065835586
158,0.1486,601.537,203.439,-0.230784,350.157,-0.811049,-0.467407,0.0364597,-0.00514459,-0.029764,0.0695179,-0.00016329,-9.54834e-05,0.0534481,0.0371325067355186,0.0719912496764028,-0.00016327666891358117,-0.005131379261186564,-9.547884160521214e-05,-0.02932541427848112
159,0.1496,603.831,204.898,0.286824,351.291,-0.812611,-0.46831,0.0371356,-0.00524433,-0.0303319,0.0708197,-0.000166737,-9.75008e-05,0.0545038,0.037833741552431466,0.07338767662232226,-0.00016672310015897196,-0.005230602509073479,-9.749604695152847e-05,-0.029876503879009197
160,0.1506,605.205,204.711,-0.216286,352.295,-0.81424,-0.469381,0.0378121,-0.0053498,-0.0309015,0.0721214,-0.000170188,-9.95199e-05,0.0555609,0.03853607361562683,0.0747858151420171,-0.00017017351884385246,-0.005335515304753291,-9.951494805904293e-05,-0.030428928876824468
161,0.1516,607.085,205.496,-0.097939,353.353,-0.816021,-0.470231,0.0384871,-0.00545189,-0.0314691,0.073421,-0.000173633,-0.000101528,0.0566156,0.03923732211005859,0.07618351481590224,-0.00017361792666303888,-0.00543705541879258,-0.0001015228462070139,-0.030979101263099995
162,0.1526,608.971,206.333,0.0450775,354.393,-0.817695,-0.471101,0.0391614,-0.00555352,-0.0320362,0.0747192,-0.000177068,-0.000103533,0.0576693,0.03993831614993737,0.07758152350593561,-0.0001770523243869171,-0.005538127714774577,-0.00010352764064391895,-0.031528477224496476
163,0.1536,610.645,206.829,-0.0176699,355.397,-0.819277,-0.472216,0.0398351,-0.00565619,-0.0326031,0.0760164,-0.000180498,-0.00010554,0.0587226,0.04063915864581458,0.07898026928859969,-0.00018048171121609613,-0.0056402238740060895,-0.00010553443085015157,-0.03207734813859786
164,0.1546,612.421,207.545,0.0656902,356.402,-0.820995,-0.473127,0.040508,-0.00575794,-0.0331692,0.0773121,-0.000183924,-0.000107539,0.0597746,0.041339640386317766,0.08037921013162586,-0.00018390708701798708,-0.005741394834066993,-0.00010753321788903314,-0.03262513408637502
165,0.1556,614.035,208.003,-0.00650552,357.375,-0.822706,-0.474127,0.0411803,-0.00586048,-0.0337352,0.0786067,-0.000187345,-0.000109538,0.060826,0.04203996841543822,0.08177877479980067,-0.00018732745202132417,-0.005843340884577386,-0.00010953200093233306,-0.03317251333754101
166,0.1566,615.749,208.684,0.0650943,358.349,-0.824412,-0.475109,0.0418518,-0.0059621,-0.0343002,0.0798998,-0.00019076,-0.000111532,0.0618762,0.04273993324111758,0.0831785277487187,-0.00019074180646805328,-0.005944361951309429,-0.00011152578053774675,-0.033718616578812144
167,0.1576,617.318,209.133,-0.00262267,359.295,-0.826155,-0.476121,0.0425227,-0.00606442,-0.034865,0.0811917,-0.000194172,-0.000113525,0.0629257,0.04343974218699076,0.08457879039361882,-0.00019415314983728393,-0.006046068520797698,-0.0001135185562810559,-0.0342642182117634
168,0.1586,618.979,209.786,0.0619004,360.241,-0.827893,-0.477118,0.0431927,-0.00616589,-0.0354289,0.0824822,-0.000197578,-0.000115514,0.063974,0.04413908106661957,0.0859793428347122,-0.0001975584827523802,-0.00614691990944316,-0.00011550732851484113,-0.03480864310408893
169,0.1596,620.508,210.23,0.000438423,361.161,-0.829666,-0.478145,0.0438622,-0.00626798,-0.0359926,0.0837715,-0.000200981,-0.000117502,0.0650216,0.044838366240985916,0.08738039899820427,-0.00020096080467180144,-0.006248377191414578,-0.00011749509691039162,-0.03535256815229326
170,0.1606,622.118,210.858,0.058495,362.081,-0.831434,-0.47916,0.0445308,-0.00636929,-0.0365555,0.0850593,-0.000204378,-0.000119486,0.066068,0.045537178759647245,0.08878162953472302,-0.00020435711623933983,-0.006349049068701262,-0.00011947886183216738,-0.03589541539299068
171,0.1616,623.609,211.298,0.00336054,362.976,-0.833234,-0.480204,0.0451989,-0.00647114,-0.037118,0.086346,-0.000207773,-0.000121469,0.0671137,0.046235935542488615,0.09018346653587361,-0.0002077514166850536,-0.006450247264447984,-0.0001214616229396892,-0.03643757172606832
172,0.1626,625.173,211.902,0.0551558,363.872,-0.835032,-0.481236,0.0458661,-0.00657229,-0.0376798,0.0876313,-0.000211163,-0.000123449,0.0681582,0.04693421707949952,0.09158558022074792,-0.00021114070666294893,-0.006550739739444533,-0.00012344138048570041,-0.03697874906732368
173,0.1636,626.628,212.338,0.00615726,364.744,-0.836861,-0.482295,0.0465328,-0.00667391,-0.0382413,0.0889154,-0.00021455,-0.000125427,0.069202,0.04763244084905738,0.09298818561437128,-0.0002145269857947163,-0.0066516889239572885,-0.00012541913436270313,-0.037519333716379055
174,0.1646,628.146,212.92,0.0519535,365.616,-0.838688,-0.483344,0.0471986,-0.00677489,-0.038802,0.0901981,-0.000217933,-0.000127403,0.0702446,0.0483301867820205,0.09439106110190454,-0.00021790925432874086,-0.006751992172013499,-0.00012739488458246573,-0.03805884535974058
175,0.1656,629.568,213.352,0.00879412,366.467,-0.840545,-0.484419,0.0478639,-0.00687628,-0.0393623,0.0914795,-0.000221313,-0.000129377,0.0712865,0.04902787291484434,0.09579431267887606,-0.0002212885120845831,-0.006852692482438694,-0.00012936863115686759,-0.03859767002285974
176,0.1666,631.044,213.912,0.048928,367.316,-0.842401,-0.485485,0.0485284,-0.00697709,-0.0399219,0.0927596,-0.00022469,-0.000131349,0.0723272,0.0497251835922099,0.09719793717672465,-0.0002246647590924411,-0.006952806616171925,-0.0001313403740977881,-0.039135520262182255
177,0.1676,632.434,214.341,0.0112404,368.147,-0.844285,-0.486575,0.0491922,-0.00707825,-0.0404811,0.0940386,-0.000228064,-0.00013332,0.0733671,0.05042222249069428,0.09860215114178161,-0.00022803799538284597,-0.0070532581893283375,-0.00013331111328374057,-0.0396726854738606
178,0.1686,633.869,214.88,0.0461065,368.975,-0.84617,-0.487659,0.0498553,-0.00717889,-0.0410397,0.0953161,-0.000231435,-0.000135288,0.0744059,0.05111898845365204,0.1000065122345195,-0.00023140822098632885,-0.007153183321107259,-0.0001352788489912271,-0.04020897451228145
179,0.1696,635.229,215.306,0.0134749,369.786,-0.848081,-0.488764,0.0505177,-0.00727981,-0.0415978,0.0965924,-0.000234803,-0.000137255,0.0754439,0.05181548032424432,0.10141134685059527,-0.00023477543593297678,-0.007253376366020303,-0.00013724558096339656,-0.04074448443566214
180,0.1706,636.626,215.826,0.0435061,370.594,-0.849995,-0.489865,0.0511794,-0.00738028,-0.0421552,0.0978674,-0.000238169,-0.000139221,0.0764808,0.05251169694544111,0.10281654193933876,-0.0002381406400152608,-0.007353112608962764,-0.00013921130920635516,-0.04127902446989029
181,0.1716,637.957,216.248,0.0154856,371.386,-0.851934,-0.490985,0.0518405,-0.00748097,-0.0427123,0.0991412,-0.000241532,-0.000141185,0.0775168,0.05320774248079263,0.10422220472702537,-0.00024150283349477775,-0.007453057192259749,-0.00014117503386690267,-0.04181297917846416
182,0.1726,639.318,216.751,0.0411351,372.175,-0.853876,-0.492102,0.0525008,-0.00758126,-0.0432686,0.100414,-0.000244893,-0.000143148,0.0785518,0.05390340520092418,0.10562855355973966,-0.0002448630161568932,-0.007552594733760465,-0.00014313775481389346,-0.042345870380716466
183,0.1736,640.62,217.169,0.0172683,372.95,-0.855841,-0.493237,0.0531605,-0.00768173,-0.0438245,0.101685,-0.000248252,-0.000145109,0.0795859,0.05459889465930989,0.1070347008686332,-0.0002482211880220353,-0.007652300915743648,-0.00014509847219834615,-0.042878082369344095
184,0.1746,641.948,217.655,0.0389943,373.721,-0.857811,-0.494371,0.0538195,-0.00778183,-0.0443798,0.102955,-0.000251608,-0.00014707,0.080619,0.05529410437733273,0.10844152808492957,-0.00025157634936179285,-0.007751629948920868,-0.00014705918573765242,-0.04340942462937225
185,0.1756,643.223,218.069,0.0188259,374.479,-0.859803,-0.495522,0.0544778,-0.00788207,-0.0449347,0.104223,-0.000254963,-0.000149029,0.0816512,0.05598903319696924,0.10984792340874017,-0.00025493049969649295,-0.007851087940617063,-0.00014901789573018576,-0.043940089493062384
186,0.1766,644.518,218.54,0.0370783,375.232,-0.861801,-0.496672,0.0551354,-0.00798199,-0.0454889,0.105491,-0.000258316,-0.000150987,0.0826823,0.05668367996002255,0.11125610317291756,-0.0002582826392946158,-0.007950218507264406,-0.0001509756020365849,-0.04446979110159199
187,0.1776,645.768,218.95,0.0201665,375.974,-0.86382,-0.497837,0.0557923,-0.00808201,-0.0460426,0.106757,-0.000261668,-0.000152944,0.0837126,0.057378043508126586,0.11266384431165322,-0.00026163376791477067,-0.008049438364341577,-0.000152932304662734,-0.04499872173030106
188,0.1786,647.032,219.407,0.0353769,376.711,-0.865846,-0.499003,0.0564485,-0.00818174,-0.0465957,0.108022,-0.000265018,-0.0001549,0.0847418,0.05807212268274786,0.11407225470646765,-0.000264982885831877,-0.0081483606610111,-0.00015488800361440624,-0.045526786887430615
189,0.1796,648.257,219.812,0.0213025,377.437,-0.867891,-0.500184,0.0571041,-0.00828153,-0.0471484,0.109285,-0.000268366,-0.000156855,0.0857702,0.05876602220178717,0.11548021690512877,-0.0002683299930661409,-0.00824733259781385,-0.00015684269889770786,-0.046054178474227436
190,0.1806,649.492,220.256,0.0338764,378.158,-0.869944,-0.501366,0.057759,-0.00838108,-0.0477004,0.110548,-0.000271713,-0.00015881,0.0867975,0.05945963516850261,0.11688995848348882,-0.00027167608936595755,-0.008346056661781898,-0.0001587973903595108,-0.0465806112588939
191,0.1816,650.693,220.656,0.022249,378.869,-0.872015,-0.502561,0.0584132,-0.00848065,-0.048252,0.111809,-0.000275059,-0.000160764,0.0878239,0.06015296042379359,0.118299245089597,-0.00027502117474142995,-0.008444790729362994,-0.00016075107816060363,-0.04710637237547677
192,0.1826,651.9,221.087,0.0325607,379.576,-0.874095,-0.503759,0.0590668,-0.00858,-0.0488029,0.113069,-0.000278403,-0.000162717,0.0888492,0.06084610289301007,0.11970919021730464,-0.0002783642494809113,-0.008543296846031723,-0.00016270376230698158,-0.04763117690425489
193,0.1836,653.078,221.483,0.023023,380.273,-0.876193,-0.504969,0.0597196,-0.00867936,-0.0493534,0.114327,-0.000281747,-0.000164669,0.0898737,0.06153884931681031,0.12111867075597393,-0.000281707313041335,-0.008641803090185807,-0.0001646554428044178,-0.048155311660040945
194,0.1846,654.259,221.903,0.0314124,380.965,-0.8783,-0.506183,0.0603718,-0.00877851,-0.0499033,0.115584,-0.00028509,-0.000166621,0.0908972,0.06223141077407668,0.1225288030075613,-0.0002850493657075015,-0.008740091382686832,-0.0001666071194921237,-0.04867858716637252
195,0.1856,655.414,222.293,0.0236425,381.648,-0.880424,-0.507408,0.0610233,-0.00887765,-0.0504527,0.116841,-0.000288432,-0.000168572,0.0919197,0.0629236800204167,0.12394070890989473,-0.00028839040748962486,-0.008838360018770364,-0.00016855779253877046,-0.04920109960327401
196,0.1866,656.57,222.703,0.0304134,382.326,-0.882558,-0.508637,0.0616742,-0.0089766,-0.0510015,0.118095,-0.000291773,-0.000170523,0.0929413,0.06361576225747134,0.12535101463574705,-0.0002917304383978081,-0.008936430610923862,-0.00017050846177957268,-0.049722754884509834
197,0.1876,657.703,223.088,0.0241254,382.996,-0.884708,-0.509877,0.0623244,-0.00907553,-0.0515499,0.119349,-0.000295113,-0.000172474,0.0939619,0.06430755010194789,0.12676308999430752,-0.0002950694584419322,-0.009034471680162137,-0.00017245912721475243,-0.05024374405744292
198,0.1886,658.836,223.488,0.029546,383.661,-0.886868,-0.511122,0.0629739,-0.00917428,-0.0520976,0.120601,-0.000298453,-0.000174424,0.0949815,0.06499904239355181,0.12817468085446926,-0.00029840846733375503,-0.00913232469451164,-0.00017440878901853196,-0.05076378313312191
199,0.1896,659.948,223.868,0.0244893,384.319,-0.889044,-0.512377,0.0636227,-0.009273,-0.0526449,0.121853,-0.000301793,-0.000176374,0.0960002,0.06569023797185625,0.12958804013318703,-0.00030174746507338757,-0.009230138323257586,-0.00017635844702046377,-0.05128315797472338
200,0.1906,661.058,224.259,0.0287932,384.971,-0.89123,-0.513636,0.0642709,-0.00937155,-0.0531916,0.123102,-0.000305132,-0.000178324,0.0970179,0.06638124231442255,0.1309997770414868,-0.00030508545196583636,-0.009327773882054635,-0.00017830810122054785,-0.051801679721424465
201,0.1916,662.149,224.633,0.0247506,385.617,-0.893432,-0.514906,0.0649184,-0.00947005,-0.0537378,0.124351,-0.000308471,-0.000180273,0.0980347,0.06707194776057745,0.13241327831079897,-0.0003084234277127562,-0.009425350290610313,-0.0001802567517991127,-0.05231944422960122
202,0.1926,663.237,225.016,0.0281391,386.257,-0.895645,-0.516181,0.0655653,-0.00956841,-0.0542834,0.125599,-0.00031181,-0.000182223,0.0990505,0.06776245992566321,0.13382741231820816,-0.0003117613923141471,-0.009522778421561684,-0.00018220639839749975,-0.052836357714008075
203,0.1936,664.31,225.384,0.0249248,386.891,-0.897872,-0.517465,0.0662115,-0.0096667,-0.0548285,0.126845,-0.000315149,-0.000184172,0.100065,0.06845267101045072,0.13524104178222252,-0.00031509934577023113,-0.009620127643364729,-0.00018415504137836436,-0.05335251592371748
204,0.1946,665.377,225.759,0.0275688,387.519,-0.900111,-0.518755,0.066857,-0.00976485,-0.0553731,0.12809,-0.000318488,-0.000186122,0.101079,0.06914257985371175,0.13665529707048085,-0.0003184372880807862,-0.009717328657618762,-0.00018610468037505434,-0.05386791978633498
205,0.1956,666.43,226.122,0.0250257,388.141,-0.902364,-0.520054,0.0675019,-0.00986293,-0.0559171,0.129334,-0.000321826,-0.000188071,0.102092,0.06983229227732624,0.13807017613234818,-0.0003217742195678053,-0.009814450819075282,-0.00018805331575810769,-0.05438247566608234
206,0.1966,667.477,226.49,0.0270694,388.759,-0.904629,-0.521359,0.0681461,-0.00996087,-0.0564607,0.130576,-0.000325165,-0.000190021,0.103104,0.07052170027448557,0.1394845374276572,-0.0003251121395909662,-0.009911424842866667,-0.00019000294715332267,-0.05489637366218014
207,0.1976,668.511,226.847,0.0250657,389.37,-0.906908,-0.522672,0.0687897,-0.0100587,-0.0570037,0.131818,-0.000328505,-0.00019197,0.104115,0.07121090980461853,0.140900656451018,-0.00032845104814049897,-0.01000828047040403,-0.00019195157493856474,-0.055409425625067565
208,0.1986,669.54,227.208,0.0266291,389.977,-0.909198,-0.523992,0.0694326,-0.0101565,-0.0575461,0.133058,-0.000331844,-0.00019392,0.105125,0.0718998127226469,0.14231625075209897,-0.00033178894586982643,-0.010105096926172119,-0.00019390119873208267,-0.05592163262951144
209,0.1996,670.556,227.56,0.0250557,390.578,-0.911503,-0.52532,0.0700749,-0.0102541,-0.0580881,0.134297,-0.000335185,-0.00019587,0.106135,0.07258851512545839,0.14373245774584276,-0.0003351288317836598,-0.010201705954114848,-0.0001958508187238639,-0.05643318446155676
210,0.2006,671.566,227.914,0.0262379,391.174,-0.913819,-0.526655,0.0707165,-0.0103517,-0.0586295,0.135534,-0.000338525,-0.000197821,0.107143,0.0732769087298164,0.14514813020897477,-0.0003384677068773989,-0.010298305553476661,-0.00019780143471614942,-0.05694389327413907
211,0.2016,672.565,228.261,0.025005,391.764,-0.916148,-0.527998,0.0713574,-0.0104491,-0.0591704,0.136771,-0.000341866,-0.000199771,0.10815,0.0739649923734722,0.14656555494249934,-0.00034180757047752586,-0.010394697804136932,-0.00019975104710245883,-0.05745385439084971
212,0.2026,673.558,228.608,0.025887,392.351,-0.91849,-0.529347,0.0719977,-0.0105465,-0.0597107,0.138006,-0.000345208,-0.000201722,0.109156,0.07465287235936469,0.14798243814814382,-0.00034514842257404865,-0.010491080666649166,-0.00020170165548538677,-0.057962974522133504
213,0.2036,674.54,228.95,0.0249217,392.931,-0.920845,-0.530704,0.0726374,-0.0106437,-0.0602506,0.13924,-0.000348551,-0.000203674,0.110162,0.07534054773133003,0.1493999228850278,-0.0003484902631570863,-0.010587256259398825,-0.000203653259858938,-0.05847144303876173
214,0.2046,675.515,229.292,0.025569,393.508,-0.923212,-0.532068,0.0732764,-0.0107409,-0.0607899,0.140473,-0.000351894,-0.000205626,0.111166,0.07602790993016417,0.15081800705918025,-0.0003518320925681717,-0.010683422504335183,-0.00020560486042298098,-0.05897907249494461
215,0.2056,676.481,229.628,0.0248125,394.079,-0.925592,-0.53344,0.0739148,-0.0108379,-0.0613287,0.141705,-0.000355238,-0.000207578,0.112169,0.07671506546457252,0.15223668857224681,-0.0003551749104524493,-0.010779381558262968,-0.00020755645717762672,-0.05948595800346568
216,0.2066,677.44,229.964,0.0252777,394.646,-0.927984,-0.534818,0.0745525,-0.0109348,-0.061867,0.142935,-0.000358583,-0.000209531,0.113172,0.07740190563753235,0.15365481166610362,-0.0003585187167999271,-0.010875232392142054,-0.0002095090499131258,-0.05999210047180514
217,0.2076,678.39,230.296,0.024683,395.209,-0.930389,-0.536204,0.0751896,-0.0110317,-0.0624047,0.144165,-0.00036193,-0.000211484,0.114174,0.07808853709483965,0.15507468012454484,-0.000361864511238541,-0.010971073938525366,-0.00021146163883523084,-0.06049740685558558
218,0.2086,679.334,230.626,0.025008,395.766,-0.932807,-0.537597,0.075826,-0.0111284,-0.062942,0.145393,-0.000365277,-0.000213438,0.115174,0.07877485100176873,0.15649398310541085,-0.0003652102944788904,-0.011066708411674231,-0.00021341522373052868,-0.06100206601005931
219,0.2096,680.268,230.953,0.0245378,396.32,-0.935237,-0.538998,0.0764618,-0.011225,-0.0634787,0.14662,-0.000368625,-0.000215393,0.116174,0.07946095414111087,0.15791387214646746,-0.00036855706615235295,-0.011162234753644973,-0.00021536980459313515,-0.0615058909877052
220,0.2106,681.196,231.278,0.0247556,396.869,-0.93768,-0.540405,0.077097,-0.0113215,-0.0640149,0.147846,-0.000371975,-0.000217348,0.117173,0.08014684555523255,0.15933434512573208,-0.0003719058258769836,-0.011257652993987177,-0.00021732438163457601,-0.06200897663964078
221,0.2116,682.116,231.6,0.0243806,397.414,-0.940135,-0.54182,0.0777315,-0.0114179,-0.0645506,0.14907,-0.000375326,-0.000219305,0.11817,0.08083241620302517,0.16075423916204534,-0.00037525557400808207,-0.011352963162214569,-0.0002192809544162566,-0.06251132386513714
222,0.2126,683.03,231.92,0.0245172,397.954,-0.942603,-0.543242,0.0783654,-0.0115143,-0.0650858,0.150294,-0.000378678,-0.000221261,0.119167,0.08151777307256625,0.16217587221271867,-0.0003786063105355453,-0.011448264142984721,-0.00022123652359018475,-0.06301293356187632
223,0.2136,683.935,232.237,0.0242145,398.491,-0.945083,-0.544671,0.0789987,-0.0116105,-0.0656204,0.151516,-0.000382032,-0.000223219,0.120163,0.08220291520561052,0.16359691921144326,-0.0003819590350674362,-0.011543358245874491,-0.00022319408849258426,-0.06351371297732966
224,0.2146,684.834,232.553,0.02429,399.023,-0.947576,-0.546107,0.0796313,-0.0117066,-0.0661546,0.152737,-0.000385387,-0.000225178,0.121158,0.08288773335491251,0.16501853877192474,-0.0003853127479690466,-0.011638344364990894,-0.00022515264933697932,-0.06401385035327034
225,0.2156,685.726,232.865,0.024042,399.552,-0.950081,-0.547551,0.0802633,-0.0118026,-0.0666882,0.153957,-0.000388744,-0.000227137,0.122152,0.08357233471363501,0.1664407287487133,-0.00038866844884155594,-0.011733222529707099,-0.00022711120634455462,-0.06451315933523816
226,0.2166,686.611,233.176,0.0240717,400.076,-0.952598,-0.549001,0.0808946,-0.0118985,-0.0672213,0.155175,-0.000392102,-0.000229098,0.123145,0.08425660989727546,0.16786231912912397,-0.0003920251380570283,-0.011827992769360862,-0.00022907175905717558,-0.06501173446298847
227,0.2176,687.489,233.484,0.0238648,400.597,-0.955128,-0.550459,0.0815253,-0.0119943,-0.0677539,0.156393,-0.000395462,-0.000231059,0.124138,0.08494066623562846,0.16928564206152807,-0.000395383815209982,-0.011922655113254854,-0.00023103230792509422,-0.06550957662607726
228,0.2186,688.361,233.79,0.0238607,401.114,-0.95767,-0.551923,0.0821554,-0.01209,-0.068286,0.157609,-0.000398823,-0.000233021,0.125129,0.08562450276949862,0.17070835823840147,-0.0003987434806790313,-0.012017209590656663,-0.00023299385271546846,-0.0660066867124871
229,0.2196,689.226,234.094,0.0236845,401.627,-0.960225,-0.553395,0.0827849,-0.0121856,-0.0688176,0.158824,-0.000402187,-0.000234984,0.126119,0.08630811853948073,0.1721316333582068,-0.00040210613364999315,-0.012111656230798462,-0.00023495639342230312,-0.0665030656086304
230,0.2206,690.085,234.396,0.0236556,402.136,-0.962791,-0.554874,0.0834137,-0.0122811,-0.0693487,0.160038,-0.000405552,-0.000236949,0.127109,0.08699140388681803,0.17355546525219356,-0.0004054697749035219,-0.01220599506287745,-0.00023692092980276414,-0.06699871419935188
231,0.2216,690.937,234.695,0.0235022,402.642,-0.965371,-0.55636,0.084042,-0.0123765,-0.0698793,0.161251,-0.000408919,-0.000238914,0.128097,0.08767457518166832,0.1749798517473038,-0.0004088354040208131,-0.012300226116055746,-0.0002388854623229797,-0.0674936333679308
232,0.2226,691.783,234.993,0.0234552,403.144,-0.967962,-0.557853,0.0846695,-0.0124718,-0.0704093,0.162463,-0.000412289,-0.000240881,0.129085,0.08835730516172347,0.17640479066617676,-0.0004122040205692956,-0.012394349419460271,-0.00024085199050127848,-0.06798773079486164
233,0.2236,692.623,235.288,0.0233188,403.642,-0.970566,-0.559354,0.0852965,-0.012567,-0.0709389,0.163674,-0.00041566,-0.000242849,0.130071,0.08903991916918841,0.17783027982715138,-0.00041557362535016296,-0.012488365002182755,-0.00024281951456850415,-0.06848119381209206
234,0.2246,693.457,235.582,0.0232589,404.137,-0.973182,-0.560861,0.0859229,-0.0126621,-0.071468,0.164883,-0.000419033,-0.000244818,0.131057,0.08972230747626098,0.17925513778854274,-0.0004189452179340636,-0.012582272893280066,-0.00024478803451888353,-0.06897393004758001
235,0.2256,694.285,235.873,0.023135,404.629,-0.97581,-0.562375,0.0865486,-0.0127571,-0.0719965,0.166091,-0.000422408,-0.000246788,0.132042,0.0904043600819544,0.18068053876384393,-0.0004223187983010135,-0.012676073121773879,-0.00024675755034642144,-0.06946584732495942
236,0.2266,695.107,236.163,0.0230658,405.117,-0.978451,-0.563897,0.0871737,-0.012852,-0.0725246,0.167298,-0.000425786,-0.000248759,0.133026,0.09108618492959586,0.18210648055688905,-0.0004256953660051188,-0.012769765716650672,-0.0002487280620453447,-0.06995713267567238
237,0.2276,695.923,236.451,0.0229513,405.601,-0.981104,-0.565425,0.0877982,-0.0129468,-0.0730521,0.168504,-0.000429166,-0.000250732,0.134009,0.09176778105832373,0.18353296096723426,-0.0004290739214449779,-0.012863350706862064,-0.0002507005693590525,-0.07044760091581459
238,0.2286,696.734,236.736,0.0228756,406.083,-0.983769,-0.56696,0.088422,-0.0130415,-0.0735791,0.169709,-0.000432548,-0.000252706,0.134991,0.09244903826217854,0.1849599777901636,-0.00043245446460049575,-0.012956828121324704,-0.00025267407252826946,-0.07093734597097523
239,0.2296,697.539,237.02,0.022768,406.561,-0.986446,-0.568503,0.0890453,-0.0131361,-0.0741057,0.170913,-0.000435932,-0.000254681,0.135972,0.0931301740016286,0.18638752881669096,-0.00043583699545135524,-0.013050197988920043,-0.0002546485715471114,-0.071426461569147
240,0.2306,698.338,237.302,0.0226879,407.036,-0.989136,-0.570052,0.0896679,-0.0132306,-0.0746317,0.172115,-0.000439319,-0.000256658,0.136952,0.09381096875737804,0.1878144240185462,-0.0004392225135381178,-0.013143460338494672,-0.00025662506615320435,-0.07191476281587528
241,0.2316,699.132,237.582,0.0225854,407.508,-0.991837,-0.571609,0.09029,-0.013325,-0.0751573,0.173317,-0.000442708,-0.000258636,0.137932,0.09449164026196155,0.18924303537963927,-0.0004426100192728155,-0.013236615198860102,-0.0002586025565930461,-0.0724024362447353
242,0.2326,699.92,237.86,0.0225023,407.976,-0.994551,-0.573172,0.0909114,-0.0134193,-0.0756823,0.174517,-0.0004461,-0.000260616,0.13891,0.0951719687233814,0.19067098361968515,-0.00044600051218934844,-0.01332966259879298,-0.00026058204260026585,-0.07288929715353565
243,0.2336,700.703,238.137,0.0224037,408.442,-0.997277,-0.574743,0.0915322,-0.0135135,-0.0762068,0.175716,-0.000449494,-0.000262597,0.139887,0.0958520625608501,0.19209945432610276,-0.000449392992706632,-0.01342260256703498,-0.00026256252442558026,-0.07337543921527812
244,0.2346,701.481,238.412,0.0223188,408.904,-1.00002,-0.57632,0.0921524,-0.0136076,-0.0767309,0.176914,-0.000452891,-0.000264579,0.140864,0.09653192081230211,0.19352844526705115,-0.0004527884603513499,-0.013515435132292697,-0.0002645440020629941,-0.07386095590682284
245,0.2356,702.253,238.685,0.0222231,409.364,-1.00277,-0.577905,0.0927719,-0.0137016,-0.0772545,0.178111,-0.000456291,-0.000266563,0.14184,0.09721143279434985,0.19495795420645168,-0.000456186915093304,-0.013608160323238083,-0.0002665274752401414,-0.07434575537873245
246,0.2366,703.021,238.956,0.022137,409.82,-1.00553,-0.579496,0.0933909,-0.0137955,-0.0777775,0.179307,-0.000459693,-0.000268549,0.142815,0.09789081691894319,0.19638797890399085,-0.0004595873573611797,-0.013700778168507788,-0.0002685129439450318,-0.07482974597409653
247,0.2376,703.783,239.225,0.0220436,410.274,-1.0083,-0.581094,0.0940093,-0.0138893,-0.0783001,0.180501,-0.000463098,-0.000270536,0.143788,0.09856996257031803,0.19781731929720703,-0.00046299078667189075,-0.013793288696704042,-0.0002704994084361534,-0.07531311363387982
248,0.2386,704.54,239.493,0.0219569,410.725,-1.01109,-0.5827,0.094627,-0.013983,-0.0788221,0.181695,-0.000466506,-0.000272525,0.144761,0.09924875886084905,0.19924836734211793,-0.0004663972029947949,-0.013885691936393774,-0.0002724878684353671,-0.07579567422929012
249,0.2396,705.293,239.76,0.0218652,411.173,-1.01389,-0.584312,0.0952442,-0.0140766,-0.0793437,0.182887,-0.000469917,-0.000274516,0.145733,0.09992742460952408,0.2006787237190284,-0.00046980660629913906,-0.013977987916109269,-0.00027447832393046045,-0.07627761350492235
250,0.2406,706.04,240.024,0.0217783,411.618,-1.0167,-0.585931,0.0958608,-0.0141701,-0.0798648,0.184078,-0.000473331,-0.000276508,0.146705,0.10060584899628222,0.20210958398713008,-0.00047321899655450306,-0.014070176664347955,-0.00027646977518624993,-0.0767588398461122
251,0.2416,706.783,240.287,0.0216881,412.06,-1.01952,-0.587558,0.0964767,-0.0142635,-0.0803854,0.185268,-0.000476747,-0.000278502,0.147675,0.10128392092949623,0.20354094588349048,-0.00047663337420666974,-0.014162258209572398,-0.00027846322191804607,-0.07723935410537408
252,0.2426,707.521,240.549,0.0216012,412.5,-1.02236,-0.589191,0.0970921,-0.0143568,-0.0809055,0.186457,-0.000480167,-0.000280497,0.148644,0.10196185963478022,0.204972807140976,-0.00048005173827503356,-0.014254232580210302,-0.0002804576643944401,-0.07771915713371058
253,0.2436,708.254,240.809,0.0215122,412.936,-1.0252,-0.590831,0.0977068,-0.01445,-0.0814251,0.187645,-0.000483589,-0.000282494,0.149613,0.10263944382406254,0.20640516548825527,-0.00048347208968579913,-0.014346099804654733,-0.00028245410232696777,-0.07819824978061529
254,0.2446,708.983,241.067,0.0214255,413.371,-1.02806,-0.592478,0.098321,-0.0145431,-0.0819442,0.188832,-0.000487015,-0.000284494,0.15058,0.10331689299380264,0.2078380186498039,-0.00048689642744459416,-0.014437859911263673,-0.00028445353541939333,-0.07867663289407478
255,0.2456,709.707,241.324,0.0213375,413.802,-1.03093,-0.594132,0.0989345,-0.0146362,-0.0824629,0.190018,-0.000490444,-0.000286494,0.151547,0.10399398558456929,0.20927136434590898,-0.0004903237520005321,-0.014529611475404325,-0.0002864529645129066,-0.07915439940513613
256,0.2466,710.427,241.579,0.0212512,414.231,-1.03382,-0.595793,0.0995475,-0.0147291,-0.0829811,0.191202,-0.000493876,-0.000288497,0.152513,0.10467094136348054,0.21070398958807668,-0.0004937540633229709,-0.014621157422123221,-0.00028845538874211485,-0.07963145797881244
257,0.2476,711.142,241.833,0.021164,414.657,-1.03671,-0.597461,0.10016,-0.0148219,-0.0834987,0.192386,-0.000497311,-0.000290502,0.153478,0.10534775956948206,0.21213831206309464,-0.0004971873613811573,-0.014712596335883177,-0.0002904598083797172,-0.08010771746957357
258,0.2486,711.853,242.085,0.0210781,415.081,-1.03962,-0.599135,0.100772,-0.0149146,-0.0840159,0.193568,-0.000500749,-0.000292508,0.154442,0.10602443944125883,0.21357190663543646,-0.000500623646144005,-0.014803928244903508,-0.00029246522370585115,-0.08058336274562716
259,0.2496,712.559,242.336,0.0209918,415.502,-1.04254,-0.600817,0.101383,-0.0150072,-0.0845326,0.194749,-0.000504191,-0.000294517,0.155405,0.10670042686688586,0.21500598171182284,-0.0005040639170766914,-0.014895153177368448,-0.0002944736341258247,-0.0810583026108157
260,0.2506,713.261,242.586,0.0209064,415.921,-1.04547,-0.602506,0.101993,-0.0150997,-0.0850488,0.195929,-0.000507636,-0.000296527,0.156367,0.10737572007076213,0.21644053499022098,-0.0005075071746454274,-0.014986271161427811,-0.0002964830402143459,-0.08153253790434822
261,0.2516,713.959,242.834,0.0208208,416.337,-1.04841,-0.604201,0.102603,-0.0151922,-0.0855646,0.197109,-0.000511085,-0.000298539,0.157328,0.10805142532915668,0.21787678204061667,-0.0005109544183083958,-0.015077380717463451,-0.00029849444166696326,-0.08200616126333238
262,0.2526,714.652,243.08,0.0207358,416.751,-1.05137,-0.605904,0.103213,-0.0152845,-0.0860798,0.198287,-0.000514537,-0.000300554,0.158289,0.10872754289349928,0.2193122862358292,-0.0005144046485386911,-0.015168284879931604,-0.00030050883817123175,-0.08247898987793967
263,0.2536,715.342,243.326,0.0206509,417.163,-1.05434,-0.607613,0.103822,-0.0153767,-0.0865946,0.199463,-0.000517992,-0.00030257,0.159248,0.10940296361185498,0.22074704095486486,-0.0005178578653052268,-0.015259082178245897,-0.0003025242303138498,-0.08295120813454238
264,0.2546,716.027,243.569,0.0205665,417.572,-1.05732,-0.609329,0.10443,-0.0154689,-0.0871089,0.200639,-0.000521451,-0.000304588,0.160207,0.11007768570846332,0.22218348393795462,-0.0005213150680556389,-0.015349871105435176,-0.0003045416177843707,-0.08342272506722637
265,0.2556,716.709,243.812,0.0204822,417.978,-1.06031,-0.611052,0.105038,-0.0155609,-0.0876227,0.201814,-0.000524913,-0.000306609,0.161165,0.11075281816084193,0.22362039355065977,-0.0005247752572732356,-0.015440454750381916,-0.0003065620002642433,-0.08389354150798556
266,0.2566,717.386,244.053,0.0203983,418.383,-1.06331,-0.612782,0.105645,-0.0156528,-0.088136,0.202987,-0.000528379,-0.000308631,0.162122,0.11142724979075758,0.22505654240893014,-0.0005282394323987694,-0.015530931615114763,-0.00030858337835226735,-0.08436365828733605
267,0.2576,718.059,244.293,0.0203146,418.785,-1.06633,-0.614519,0.106251,-0.0157447,-0.0886489,0.20416,-0.000531849,-0.000310656,0.163078,0.11210097882340953,0.22649437685821705,-0.0005317075933907178,-0.015621400165405808,-0.0003106077514212213,-0.08483316775100591
268,0.2586,718.729,244.531,0.0202313,419.185,-1.06935,-0.616263,0.106857,-0.0158364,-0.0891613,0.205331,-0.000535323,-0.000312682,0.164033,0.11277511625958891,0.22793144301153734,-0.0005351797402074476,-0.01571166354437148,-0.00031263312007823174,-0.08530197911612114
269,0.2596,719.394,244.769,0.0201481,419.582,-1.07239,-0.618013,0.107462,-0.0159281,-0.0896732,0.206502,-0.0005388,-0.000314711,0.164987,0.1134485488977579,0.22937019295498962,-0.0005386548733459229,-0.015801918646564772,-0.0003146614836878614,-0.08577009320898743
270,0.2606,720.056,245.005,0.0200653,419.978,-1.07544,-0.619771,0.108067,-0.0160196,-0.0901846,0.207671,-0.000542281,-0.000316742,0.165941,0.11412238908594441,0.2308081670426516,-0.0005421339922329071,-0.01589196865115805,-0.0003166918425485665,-0.08623751085444142
271,0.2616,720.714,245.239,0.0199828,420.371,-1.07851,-0.621535,0.108671,-0.0161111,-0.0906956,0.208839,-0.000545765,-0.000318776,0.166893,0.11479552227471124,0.2322465908577378,-0.0005456160973722479,-0.015982010416552894,-0.00031872519632936136,-0.08670432420542573
272,0.2626,721.368,245.473,0.0199005,420.762,-1.08158,-0.623306,0.109275,-0.0162025,-0.0912061,0.210006,-0.000549254,-0.000320811,0.167845,0.11546906215873376,0.23368546204730922,-0.0005491031876344588,-0.01607194555070257,-0.0003207595456536927,-0.08717044266106011
273,0.2636,722.019,245.705,0.0198184,421.151,-1.08467,-0.625084,0.109878,-0.0162937,-0.0917161,0.211172,-0.000552746,-0.000322849,0.168796,0.11614189284127896,0.23512477825433575,-0.0005525932640724207,-0.01616167569751148,-0.000322796889869692,-0.08763586704199777
274,0.2646,722.666,245.936,0.0197367,421.538,-1.08777,-0.626869,0.11048,-0.0163849,-0.0922256,0.212337,-0.000556243,-0.000324889,0.169746,0.11681401254850288,0.2365645371177003,-0.0005560883255426585,-0.016251397661304123,-0.0003248362292839202,-0.08810059816743232
275,0.2656,723.309,246.166,0.0196552,421.922,-1.09088,-0.628661,0.111082,-0.016476,-0.0927347,0.213501,-0.000559743,-0.000326931,0.170695,0.11748653699360467,0.2380047362722033,-0.000559586373111931,-0.01634101307693303,-0.00032687756388405376,-0.08856472799863224
276,0.2666,723.949,246.394,0.0195739,422.305,-1.094,-0.63046,0.111683,-0.016567,-0.0932433,0.214664,-0.000563248,-0.000328975,0.171643,0.11815834826140215,0.23944537334856775,-0.0005630894056226632,-0.016430521972026435,-0.0003289208936581023,-0.089028166115669
277,0.2676,724.585,246.621,0.0194929,422.686,-1.09714,-0.632266,0.112284,-0.0166579,-0.0937514,0.215826,-0.000566756,-0.000331022,0.17259,0.11883056340912557,0.24088644597344366,-0.0005665954241554916,-0.016519924374178485,-0.0003309672182625345,-0.0894909133335795
278,0.2686,725.218,246.848,0.0194121,423.064,-1.10028,-0.634078,0.112884,-0.0167487,-0.0942591,0.216987,-0.000570268,-0.000333072,0.173537,0.11950206317695633,0.2423279517694139,-0.0005701054281087581,-0.01660922031094847,-0.00033301653767925377,-0.08995306147064852
279,0.2696,725.847,247.073,0.0193316,423.441,-1.10344,-0.635897,0.113484,-0.0168394,-0.0947663,0.218146,-0.000573785,-0.000335123,0.174483,0.12017396596554208,0.24376864458573033,-0.0005736204168668158,-0.01669840980986126,-0.0003350668525596845,-0.09041452024203356
280,0.2706,726.473,247.297,0.0192513,423.815,-1.10661,-0.637723,0.114083,-0.01693,-0.095273,0.219305,-0.000577306,-0.000337177,0.175427,0.12084515117105599,0.24521100813302255,-0.0005771393909541622,-0.01678749289840764,-0.0003371201622236475,-0.09087529045863418
281,0.2716,727.095,247.519,0.0191713,424.188,-1.10979,-0.639556,0.114681,-0.0170205,-0.0957793,0.220462,-0.000580831,-0.000339234,0.176371,0.12151561702076519,0.246652551041195,-0.000580662350328609,-0.016876469604043765,-0.00033917646665260204,-0.09133546379636448
282,0.2726,727.714,247.741,0.0190915,424.559,-1.11299,-0.641396,0.115279,-0.0171109,-0.0962851,0.221619,-0.00058436,-0.000341293,0.177314,0.12218648392895703,0.2480957627797442,-0.0005841892949478567,-0.01696533995419114,-0.0003412347661692072,-0.09179495010489291
283,0.2736,728.33,247.961,0.0190119,424.927,-1.11619,-0.643243,0.115876,-0.0172012,-0.0967904,0.222774,-0.000587893,-0.000343354,0.178257,0.12285662927834573,0.24953814620183312,-0.0005877202247697166,-0.01705410397623741,-0.0003432950607612506,-0.09225375019100113
284,0.2746,728.942,248.181,0.0189325,425.294,-1.11941,-0.645097,0.116473,-0.0172914,-0.0972953,0.223929,-0.000591431,-0.000345418,0.179198,0.12352717482395437,0.2509821965392327,-0.0005912561391605564,-0.01714276169753537,-0.000345358350070879,-0.09271195558884304
285,0.2756,729.552,248.399,0.0188534,425.659,-1.12264,-0.646957,0.117069,-0.0173816,-0.0977997,0.225082,-0.000594973,-0.000347485,0.180138,0.1241969966072134,0.25242541086501613,-0.0005947960386620821,-0.017231411422267584,-0.00034742463407966273,-0.09316947628202499
286,0.2766,730.158,248.616,0.0187745,426.022,-1.12588,-0.648824,0.117665,-0.0174716,-0.0983036,0.226234,-0.000598519,-0.000349553,0.181078,0.12486721772324438,0.2538690363069338,-0.0005983399232321052,-0.017319856615146234,-0.000349491913468003,-0.09362631307323044
287,0.2776,730.76,248.832,0.0186958,426.383,-1.12914,-0.650698,0.11826,-0.0175616,-0.0988071,0.227386,-0.00060207,-0.000351625,0.182017,0.1255367128728453,0.255314325763649,-0.0006018887922260019,-0.01740829384831566,-0.0003515631871748859,-0.09408255735546134
288,0.2786,731.36,249.048,0.0186174,426.743,-1.1324,-0.652579,0.118854,-0.0176514,-0.0993102,0.228536,-0.000605626,-0.000353699,0.182955,0.12620548028454914,0.25675876763316263,-0.0006054426455907036,-0.01749652662181722,-0.000353636455882822,-0.09453820979187466
289,0.2796,731.957,249.262,0.0185391,427.1,-1.13568,-0.654467,0.119448,-0.0177412,-0.0998127,0.229685,-0.000609185,-0.000355776,0.183892,0.12687464506210167,0.2582036133620871,-0.0006089994844908908,-0.017584751472371485,-0.00035571271922374414,-0.09499309004321943
290,0.2806,732.55,249.475,0.0184611,427.456,-1.13897,-0.656362,0.120041,-0.0178309,-0.100315,0.230833,-0.00061275,-0.000357855,0.184828,0.12754307989796443,0.25964886052337266,-0.0006125623070569741,-0.017672870167981913,-0.0003577909775366317,-0.0954475608641886
291,0.2816,733.14,249.686,0.0183833,427.81,-1.14227,-0.658263,0.120634,-0.0179204,-0.100816,0.23198,-0.000616318,-0.000359937,0.185764,0.1282119112332354,0.2610945066859751,-0.0006161281150732778,-0.017760784511876238,-0.0003598722304491986,-0.09590062813336797
292,0.2826,733.728,249.897,0.0183056,428.162,-1.14559,-0.660172,0.121226,-0.0180099,-0.101318,0.233126,-0.000619892,-0.000362021,0.186698,0.1288800104225334,0.2625405494148616,-0.0006196999066485631,-0.017848690987788962,-0.00036195547830475405,-0.09635437211877595
293,0.2836,734.312,250.107,0.0182282,428.513,-1.14891,-0.662087,0.121818,-0.0180993,-0.101818,0.234271,-0.00062347,-0.000364109,0.187632,0.12954850524364692,0.2639869862710156,-0.0006232756829652741,-0.017936491390078246,-0.00036404272036261176,-0.09680608199583662
294,0.2846,734.894,250.316,0.018151,428.862,-1.15225,-0.664009,0.122409,-0.0181886,-0.102319,0.235415,-0.000627053,-0.000366198,0.188565,0.13021626571402867,0.2654338148114417,-0.000626856443353585,-0.018024185745785792,-0.00036613095769622017,-0.09725846881639566
295,0.2856,735.472,250.524,0.018074,429.209,-1.1556,-0.665938,0.123,-0.0182778,-0.102819,0.236558,-0.00063064,-0.000368291,0.189497,0.1308844209474893,0.2668810325891715,-0.000630441188390285,-0.01811177408191944,-0.0003682231891946053,-0.09770972675810086
296,0.2866,736.048,250.731,0.0179972,429.554,-1.15896,-0.667873,0.12359,-0.0183669,-0.103318,0.2377,-0.000634232,-0.000370386,0.190428,0.1315518396249975,0.26832863715326827,-0.0006340309173983316,-0.018199256425452504,-0.0003703174155733624,-0.09815985728754129
297,0.2876,736.621,250.937,0.0179205,429.898,-1.16233,-0.669816,0.124179,-0.0184559,-0.103817,0.238841,-0.000637829,-0.000372485,0.191359,0.13221851997662637,0.26977662604883257,-0.0006376256303239902,-0.0182866328033241,-0.0003724156360750408,-0.09860976325787962
298,0.2886,737.19,251.142,0.0178441,430.24,-1.16572,-0.671765,0.124768,-0.0185449,-0.104315,0.239981,-0.00064143,-0.000374585,0.192288,0.1328855931186479,0.2712249968170075,-0.0006412243277547081,-0.018374001405044194,-0.00037451485179795796,-0.09905854384013724
299,0.2896,737.757,251.346,0.0177678,430.581,-1.16911,-0.673722,0.125356,-0.0186337,-0.104813,0.24112,-0.000645037,-0.000376689,0.193217,0.13355192572999086,0.27267374699498403,-0.0006448290083574948,-0.01846116592355751,-0.00037661806160615985,-0.09950710098530535
300,0.2906,738.322,251.55,0.0176918,430.919,-1.17252,-0.675685,0.125944,-0.0187225,-0.105311,0.242257,-0.000648648,-0.000378796,0.194145,0.13421865026012236,0.27412159999376895,-0.0006484376733645325,-0.01854832270220519,-0.00037872426585305874,-0.09995543480462799
301,0.2916,738.883,251.752,0.0176159,431.257,-1.17594,-0.677655,0.126532,-0.0188111,-0.105808,0.243394,-0.000652264,-0.000380905,0.195072,0.134885766939558,0.27557110013763775,-0.0006520513220803492,-0.018635275468749324,-0.0003808324649003936,-0.10040264581238922
302,0.2926,739.442,251.953,0.0175402,431.592,-1.17937,-0.679631,0.127118,-0.0188997,-0.106305,0.24453,-0.000655885,-0.000383017,0.195998,0.13555100489466887,0.27702097227884925,-0.0006556699544509881,-0.01872222053161965,-0.0003829436583528967,-0.10084963461150298
303,0.2936,739.998,252.153,0.0174646,431.926,-1.18282,-0.681615,0.127704,-0.0189882,-0.106801,0.245665,-0.000659511,-0.000385132,0.196924,0.13621663279346374,0.2784712139388412,-0.0006592935704221592,-0.018809059772409542,-0.00038505784619125016,-0.10129550260833153
304,0.2946,740.551,252.353,0.0173893,432.259,-1.18627,-0.683605,0.12829,-0.0190766,-0.107297,0.246798,-0.000663143,-0.00038725,0.197848,0.13688265086451645,0.2799205427139444,-0.0006629231692765192,-0.018895793217850954,-0.00038717502839669127,-0.10174114950947
305,0.2956,741.102,252.551,0.0173141,432.59,-1.18974,-0.685603,0.128875,-0.0191649,-0.107792,0.247931,-0.000666779,-0.000389371,0.198772,0.13754792178804465,0.2813715145091451,-0.0006665567522819993,-0.018982420894641527,-0.00038929520495001313,-0.10218567761068109
306,0.2966,741.65,252.749,0.0172391,432.919,-1.19322,-0.687607,0.12946,-0.0192531,-0.108287,0.249063,-0.00067042,-0.000391495,0.199695,0.13821358200892142,0.28282284836354976,-0.0006701953187249199,-0.019068942829445268,-0.0003914183758321199,-0.10262998572493331
307,0.2976,742.196,252.946,0.0171642,433.247,-1.19671,-0.689618,0.130044,-0.0193412,-0.108781,0.250194,-0.000674066,-0.000393621,0.200617,0.13887849287589016,0.28427454178293177,-0.000673838868550547,-0.01915535904889154,-0.00039354354141762915,-0.10307317703471874
308,0.2986,742.738,253.142,0.0170895,433.573,-1.20022,-0.691636,0.130627,-0.0194292,-0.109275,0.251323,-0.000677717,-0.000395751,0.201538,0.13954265262099086,0.2857253065432115,-0.0006774874017044796,-0.019241669579576293,-0.00039567270090234974,-0.10351614946206567
309,0.2996,743.279,253.337,0.017015,433.898,-1.20373,-0.69366,0.13121,-0.0195171,-0.109769,0.252452,-0.000681374,-0.000397883,0.202459,0.140207199684115,0.2871777101418558,-0.0006811419174507227,-0.019327874448060722,-0.0003978038550562779,-0.10395890311507505
310,0.3006,743.816,253.531,0.0169406,434.222,-1.20726,-0.695692,0.131792,-0.019605,-0.110262,0.25358,-0.000685035,-0.000400019,0.203378,0.14087099341957132,0.28863046579904794,-0.0006848004170932898,-0.019414071739470296,-0.0003999390030668959,-0.1044005425027853
311,0.3016,744.352,253.724,0.0168664,434.544,-1.2108,-0.69773,0.132374,-0.0196927,-0.110755,0.254706,-0.000688702,-0.000402158,0.204297,0.1415351735954249,0.29008228092205846,-0.0006884648992113718,-0.01950006535450355,-0.0004020771453107086,-0.1048419642159385
312,0.3026,744.884,253.917,0.0167924,434.864,-1.21435,-0.699775,0.132956,-0.0197804,-0.111247,0.255832,-0.000692374,-0.000404299,0.205215,0.1421997404366495,0.2915357317096039,-0.0006921343644310518,-0.019586051428227558,-0.0004042172821724366,-0.1052822736445429
313,0.3036,745.415,254.109,0.0167185,435.183,-1.21791,-0.701827,0.133536,-0.019868,-0.111739,0.256957,-0.000696051,-0.000406444,0.206133,0.1428624084412473,0.2929895270143059,-0.0006958088126974848,-0.019671931928501585,-0.0004063614128267945,-0.10572236649419131
314,0.3046,745.943,254.299,0.0166447,435.501,-1.22149,-0.703886,0.134117,-0.0199555,-0.11223,0.258081,-0.000699734,-0.000408592,0.207049,0.14352660443080278,0.29444366431473945,-0.000699489243256135,-0.019757706881748938,-0.0004085085376565045,-0.10616134903321006
315,0.3056,746.468,254.489,0.0165711,435.817,-1.22507,-0.705952,0.134696,-0.0200429,-0.112721,0.259203,-0.000703422,-0.000410743,0.207965,0.14418889805026858,0.29589684518812165,-0.0007031746567439656,-0.01984337631435873,-0.00041065865664213774,-0.10660011608470876
316,0.3066,746.991,254.679,0.0164976,436.132,-1.22867,-0.708025,0.135275,-0.0201302,-0.113211,0.260325,-0.000707115,-0.000412897,0.208879,0.14485157524877557,0.2973516574454791,-0.0007068650531055765,-0.01992894025268621,-0.0004128117697644873,-0.10703777479268695
317,0.3076,747.511,254.867,0.0164243,436.445,-1.23228,-0.710104,0.135854,-0.0202174,-0.113701,0.261446,-0.000710814,-0.000415054,0.209793,0.14551463624848027,0.2988068041107983,-0.0007105614315753295,-0.020014398723052773,-0.0004149678770042353,-0.10747521910043067
318,0.3086,748.03,255.055,0.0163511,436.757,-1.2359,-0.71219,0.136432,-0.0203045,-0.114191,0.262565,-0.000714518,-0.000417214,0.210707,0.14617693509415974,0.3002609823856044,-0.000714262792800846,-0.02009975175174561,-0.00041712697834173085,-0.10791244911297015
319,0.3096,748.546,255.241,0.016278,437.068,-1.23954,-0.714284,0.13701,-0.0203916,-0.11468,0.263684,-0.000718227,-0.000419378,0.211619,0.14683961685922498,0.3017167887966721,-0.000717969136726726,-0.020185097346513414,-0.00041929007333851853,-0.10834857328430347
320,0.3106,749.059,255.427,0.0162051,437.377,-1.24318,-0.716384,0.137587,-0.0204785,-0.115169,0.264802,-0.000721943,-0.000421544,0.21253,0.14750153426295953,0.30317292199333234,-0.0007216824618540008,-0.02027023956207119,-0.000421455162811446,-0.10878448424305176
321,0.3116,749.57,255.612,0.0161323,437.685,-1.24684,-0.71849,0.138163,-0.0205654,-0.115657,0.265919,-0.000725663,-0.000423714,0.213441,0.14816268553998313,0.3046293794272421,-0.0007253997702810766,-0.02035537437909185,-0.00042362424590025594,-0.10921929131318708
322,0.3126,750.079,255.797,0.0160597,437.992,-1.25051,-0.720604,0.138739,-0.0206522,-0.116145,0.267035,-0.000729389,-0.000425887,0.214351,0.14882421774984067,0.3060861585462351,-0.0007291230605050991,-0.020440403842263644,-0.0004257963230047679,-0.10965388624923722
323,0.3136,750.586,255.981,0.0159872,438.297,-1.2542,-0.722725,0.139315,-0.0207388,-0.116633,0.268149,-0.000733121,-0.000428063,0.21526,0.14948613111201214,0.30754194925172595,-0.0007328523324590108,-0.020525230030263963,-0.00042797139410555296,-0.11008826915469816
324,0.3146,751.091,256.163,0.0159148,438.601,-1.25789,-0.724852,0.13989,-0.0208255,-0.11712,0.269263,-0.000736858,-0.000430243,0.216169,0.15014727569825426,0.30899936261171357,-0.0007365865868123045,-0.020610146811624652,-0.0004301504587527205,-0.11052155065501112
325,0.3156,751.593,256.346,0.0158425,438.904,-1.26159,-0.726987,0.140464,-0.020912,-0.117606,0.270376,-0.000740601,-0.000432425,0.217076,0.15080764974372474,0.31045708997709687,-0.0007403268227689219,-0.020694860370011225,-0.00043233151778487855,-0.11095373215278215
326,0.3166,752.093,256.527,0.0157703,439.205,-1.26531,-0.729128,0.141038,-0.0209984,-0.118092,0.271488,-0.000744349,-0.000434611,0.217983,0.1514684029527067,0.311915128780482,-0.0007440720410054613,-0.020779468678943647,-0.0004345165703198983,-0.11138570366137679
327,0.3176,752.591,256.708,0.0156983,439.505,-1.26904,-0.731276,0.141611,-0.0210847,-0.118578,0.272599,-0.000748104,-0.000436801,0.218889,0.15212838341394308,0.31337347645068214,-0.0007478242399701074,-0.020863971764436107,-0.00043670561633157856,-0.11181746528282499
328,0.3186,753.086,256.888,0.0156263,439.804,-1.27278,-0.733431,0.142184,-0.021171,-0.119063,0.273709,-0.000751864,-0.000438993,0.219794,0.15278874215234994,0.3148321304127242,-0.0007515814210874439,-0.020948467557626915,-0.0004388966566715169,-0.11224812936768036
329,0.3196,753.58,257.067,0.0155545,440.102,-1.27654,-0.735593,0.142756,-0.0212572,-0.119548,0.274818,-0.000755629,-0.000441189,0.220699,0.15344832593583946,0.316291088087854,-0.0007553435843011824,-0.021032858162436163,-0.0004410916904442619,-0.11267858463109781
330,0.3206,754.071,257.245,0.0154828,440.398,-1.2803,-0.737761,0.143328,-0.0213432,-0.120032,0.275926,-0.000759401,-0.000443389,0.221602,0.15410828710917635,0.31775034689354387,-0.0007591127280365262,-0.021117045716517513,-0.0004432907176236123,-0.11310794428271898
331,0.3216,754.561,257.423,0.0154112,440.694,-1.28408,-0.739937,0.1439,-0.0214292,-0.120516,0.277033,-0.000763178,-0.000445591,0.222505,0.1547686258882892,0.31920990424349704,-0.0007628868537403743,-0.02120122603078045,-0.0004454917390741553,-0.11353709617455077
332,0.3226,755.048,257.6,0.0153398,440.987,-1.28787,-0.742119,0.14447,-0.0215151,-0.121,0.278139,-0.000766961,-0.000447797,0.223407,0.15542703163285632,0.32066975754765537,-0.0007666669605892462,-0.02128530123438266,-0.00044769675388722785,-0.11396604040712444
333,0.3236,755.533,257.776,0.0152684,441.28,-1.29167,-0.744308,0.145041,-0.021601,-0.121483,0.279244,-0.00077075,-0.000450007,0.224308,0.1560869688620672,0.3221299042122048,-0.0007704530485154182,-0.021369369216235112,-0.00044990576203651766,-0.11439389147525703
334,0.3246,756.016,257.952,0.0151971,441.572,-1.29548,-0.746505,0.14561,-0.0216867,-0.121966,0.280348,-0.000774545,-0.000452219,0.225209,0.15674496953078698,0.32359034163958134,-0.0007742451174506115,-0.021453234267624577,-0.0004521167643996016,-0.11482153594122224
335,0.3256,756.497,258.127,0.0151259,441.862,-1.29931,-0.748708,0.146179,-0.0217724,-0.122448,0.281451,-0.000778346,-0.000454436,0.226108,0.1574033447084251,0.32505106722847765,-0.0007780431673267696,-0.021537092132086988,-0.0004543327596002733,-0.1152480891533163
336,0.3266,756.976,258.301,0.0150548,442.151,-1.30315,-0.750918,0.146748,-0.0218579,-0.12293,0.282554,-0.000782152,-0.000456655,0.227007,0.15806209460813747,0.3265134048865914,-0.00078184619885735,-0.021620747134407425,-0.00045655074897499315,-0.1156744368163033
337,0.3276,757.453,258.474,0.0149839,442.439,-1.307,-0.753134,0.147316,-0.0219434,-0.123411,0.283655,-0.000785965,-0.000458879,0.227905,0.15872006072256184,0.3279747004409588,-0.000785656210413932,-0.021704394984530806,-0.00045877373113423214,-0.11609969512937146
338,0.3286,757.928,258.647,0.014913,442.726,-1.31086,-0.755358,0.147884,-0.0220288,-0.123893,0.284755,-0.000789784,-0.000461105,0.228803,0.15937840066789688,0.32943627633080785,-0.0007894722027061984,-0.0217879378618675,-0.0004609987074274402,-0.11652563241718639
339,0.3296,758.401,258.819,0.0148422,443.011,-1.31473,-0.757589,0.148451,-0.0221141,-0.124373,0.285855,-0.000793608,-0.000463335,0.229699,0.16003595462000475,0.33089946083871324,-0.0007932931764588202,-0.021871375792089642,-0.00046322767691509004,-0.11694959835366125
340,0.3306,758.872,258.991,0.0147714,443.296,-1.31861,-0.759826,0.149018,-0.0221993,-0.124853,0.286953,-0.000797439,-0.000465569,0.230595,0.16069388151092157,0.3323615910092821,-0.000797121130020173,-0.0219547088008355,-0.00046546063957020323,-0.11737336083531968
341,0.3316,759.341,259.162,0.0147008,443.579,-1.32251,-0.762071,0.149584,-0.0222845,-0.125333,0.288051,-0.000801276,-0.000467806,0.23149,0.16135102020056258,0.33382532748047566,-0.0008009550641110419,-0.022038034709911614,-0.00046769659583378864,-0.11779691995979646
342,0.3326,759.808,259.332,0.0146303,443.861,-1.32642,-0.764322,0.15015,-0.0223695,-0.125812,0.289147,-0.000805119,-0.000470047,0.232384,0.1620085309359811,0.3352880014383075,-0.0008047949786623709,-0.022121157944173686,-0.0004699365452158766,-0.11821939404451476
343,0.3336,760.273,259.501,0.0145598,444.143,-1.33034,-0.76658,0.150715,-0.0224545,-0.126291,0.290243,-0.000808968,-0.000472291,0.233277,0.16266525126198195,0.3367522793656119,-0.0008086408736049933,-0.022204274113261202,-0.00047217948816169475,-0.11864166581260505
344,0.3346,760.737,259.67,0.0144895,444.423,-1.33427,-0.768845,0.151279,-0.0225394,-0.12677,0.291337,-0.000812823,-0.000474539,0.23417,0.16332117941804647,0.33821548658765344,-0.000812492748869964,-0.022287285446508043,-0.0004744264241766105,-0.11906373536095394
345,0.3356,761.198,259.839,0.0144192,444.701,-1.33822,-0.771117,0.151843,-0.0226242,-0.127248,0.292431,-0.000816685,-0.000476791,0.235062,0.1639774776219345,0.33968029543432476,-0.000816351603571519,-0.02237019196941592,-0.0004766773532337565,-0.11948472227156404
346,0.3366,761.658,260.006,0.0143489,444.979,-1.34218,-0.773396,0.152407,-0.0227089,-0.127726,0.293524,-0.000820552,-0.000479046,0.235953,0.16463414608241211,0.3411453665127251,-0.0008202154392691341,-0.022452993707453017,-0.0004789312757850217,-0.11990550799851762
347,0.3376,762.115,260.173,0.0142788,445.256,-1.34614,-0.775682,0.15297,-0.0227935,-0.128203,0.294615,-0.000824426,-0.000481304,0.236843,0.1652900197177607,0.34260935456786146,-0.0008240862542567839,-0.022535690686053877,-0.0004811881918102001,-0.1203252129636102
348,0.3386,762.571,260.339,0.0142087,445.531,-1.35013,-0.777975,0.153533,-0.0228781,-0.12868,0.295706,-0.000828306,-0.000483567,0.237733,0.16594626271393098,0.34407494070556144,-0.0008279630492811219,-0.022618380668786187,-0.0004834501003219138,-0.12074471777717444
349,0.3396,763.025,260.505,0.0141387,445.806,-1.35412,-0.780274,0.154095,-0.0229625,-0.129156,0.296796,-0.000832193,-0.000485833,0.238622,0.16660170867664026,0.3455407811288307,-0.0008318468234406184,-0.02270086819643513,-0.00048571500225791375,-0.12116314369824288
350,0.3406,763.478,260.67,0.0140688,446.079,-1.35812,-0.782581,0.154656,-0.0230469,-0.129632,0.297885,-0.000836086,-0.000488102,0.23951,0.16725635584656984,0.34700687318171375,-0.0008357365774894765,-0.02278334876243049,-0.0004879828975976608,-0.12158137049596796
351,0.3416,763.928,260.835,0.0139989,446.352,-1.36214,-0.784894,0.155218,-0.0231312,-0.130108,0.298973,-0.000839985,-0.000490376,0.240397,0.16791253828855068,0.3484732142046043,-0.000839632311357863,-0.022865724653937214,-0.0004902557853402323,-0.12199939826510986
352,0.3426,764.377,260.998,0.0139291,446.623,-1.36617,-0.787215,0.155778,-0.0232154,-0.130583,0.30006,-0.00084389,-0.000492653,0.241284,0.16856675247286712,0.3499398015342521,-0.0008435340249756118,-0.022947995896253515,-0.0004925316664367019,-0.12241634951717206
353,0.3436,764.823,261.162,0.0138593,446.894,-1.37021,-0.789542,0.156338,-0.0232995,-0.131058,0.301147,-0.000847802,-0.000494933,0.242169,0.16922133311972676,0.3514079839110784,-0.0008474427174250954,-0.023030162514643848,-0.0004948105408666414,-0.12283310276441939
354,0.3446,765.269,261.324,0.0137897,447.163,-1.37426,-0.791876,0.156898,-0.0233836,-0.131532,0.302232,-0.000851721,-0.000497218,0.243055,0.16987628043440584,0.3528750573170216,-0.0008513583886242682,-0.023112322223112214,-0.0004970944076152506,-0.12324878135010142
355,0.3456,765.712,261.486,0.01372,447.431,-1.37833,-0.794217,0.157457,-0.0234675,-0.132006,0.303316,-0.000855646,-0.000499506,0.243939,0.17053042409128683,0.3543423690184144,-0.0008552800393464288,-0.02319427966111509,-0.0004993812676470366,-0.12366426295082311
356,0.3466,766.154,261.648,0.0136505,447.698,-1.3824,-0.796566,0.158016,-0.0235514,-0.13248,0.3044,-0.000859577,-0.000501798,0.244822,0.17118493351669484,0.3558112721480897,-0.0008592076695207451,-0.023276230223177374,-0.0005016721204398333,-0.1240795476599329
357,0.3476,766.594,261.809,0.0135809,447.965,-1.38649,-0.798921,0.158574,-0.0236352,-0.132953,0.305482,-0.000863515,-0.000504094,0.245705,0.1718386370759286,0.3572790538712689,-0.0008631422782137133,-0.02335807624568842,-0.0005039669659662183,-0.1244937600649334
358,0.3486,767.032,261.969,0.0135115,448.23,-1.39059,-0.801283,0.159131,-0.0237189,-0.133425,0.306564,-0.000867459,-0.000506393,0.246587,0.17249153301141784,0.3587484245937662,-0.0008670828662097341,-0.023439817753776793,-0.0005062648047047258,-0.1249069015011337
359,0.3496,767.468,262.128,0.0134421,448.494,-1.39471,-0.803652,0.159688,-0.0238026,-0.133898,0.307644,-0.00087141,-0.000508697,0.247468,0.17314479271124217,0.3602166655997576,-0.0008710304325668661,-0.023521552420387337,-0.0005085676356177959,-0.12532072266030425
360,0.3506,767.903,262.288,0.0133727,448.757,-1.39883,-0.806027,0.160245,-0.0238861,-0.13437,0.308724,-0.000875367,-0.000511004,0.248349,0.1737984163780748,0.361686493162622,-0.0008749839780773927,-0.023603084966729027,-0.0005108734596924736,-0.12573347386226197
361,0.3516,768.336,262.446,0.0133034,449.02,-1.40297,-0.80841,0.160801,-0.0239696,-0.134841,0.309803,-0.000879332,-0.000513315,0.249228,0.17445122976288463,0.36315654583953916,-0.0008789455009121649,-0.02368461070538741,-0.0005131832763949351,-0.1261451564372158
362,0.3526,768.768,262.604,0.0132341,449.281,-1.40712,-0.8108,0.161357,-0.024053,-0.135312,0.310881,-0.000883302,-0.00051563,0.250107,0.17510440621285905,0.36462682093184706,-0.0008829120036250027,-0.023766032013538774,-0.000515497085697425,-0.1265566451553337
363,0.3536,769.198,262.761,0.0131648,449.541,-1.41128,-0.813197,0.161912,-0.0241363,-0.135783,0.311958,-0.00088728,-0.000517949,0.250986,0.17575677017256064,0.3660973157373042,-0.0008868864834958856,-0.023847348916176014,-0.0005178148875721877,-0.1269679401079007
364,0.3546,769.626,262.918,0.0130956,449.801,-1.41545,-0.815601,0.162467,-0.0242195,-0.136253,0.313034,-0.000891264,-0.000520271,0.251863,0.17640949629475067,0.36756802755009654,-0.0008908669422109661,-0.0239285614382585,-0.0005201356825115244,-0.12737816876476404
365,0.3556,770.053,263.074,0.0130265,450.059,-1.41964,-0.818011,0.163021,-0.0243026,-0.136723,0.314109,-0.000895255,-0.000522598,0.25274,0.17706140771848888,0.36903895366084427,-0.0008948543788040997,-0.02400966960471196,-0.0005224614694497864,-0.12778820465946128
366,0.3566,770.478,263.23,0.0129574,450.317,-1.42384,-0.820429,0.163574,-0.0243857,-0.137193,0.315183,-0.000899252,-0.000524928,0.253616,0.17771250268812366,0.3705100913566084,-0.0008988477940903294,-0.024090771031356817,-0.0005247902494015522,-0.12819804788256928
367,0.3576,770.901,263.385,0.0128883,450.573,-1.42805,-0.822854,0.164128,-0.0244687,-0.137662,0.316257,-0.000903257,-0.000527262,0.254491,0.17836513617739747,0.3719828099030227,-0.0009028491861921006,-0.024171768135934912,-0.0005271230218186762,-0.12860682713188543
368,0.3586,771.323,263.54,0.0128192,450.829,-1.43227,-0.825285,0.16468,-0.0245516,-0.138131,0.317329,-0.000907268,-0.000529601,0.255365,0.17901577329189,0.37345436408735777,-0.0009068565568272069,-0.02425266094330325,-0.0005294607861439093,-0.12901541470868438
369,0.3596,771.743,263.694,0.0127502,451.084,-1.4365,-0.827724,0.165233,-0.0246344,-0.138599,0.3184,-0.000911286,-0.000531943,0.256239,0.17966794932457342,0.3749261216968147,-0.0009108709050127395,-0.02433344947828564,-0.0005318015434058188,-0.1294229401262149
370,0.3606,772.162,263.847,0.0126812,451.337,-1.44075,-0.830169,0.165784,-0.0247171,-0.139067,0.319471,-0.000915311,-0.000534289,0.257112,0.18031812547173032,0.3763994564030557,-0.0009148922306644325,-0.024414133765672474,-0.0005341462930489316,-0.12983027486647192
371,0.3616,772.579,264.0,0.0126122,451.59,-1.44501,-0.832622,0.166336,-0.0247998,-0.139534,0.320541,-0.000919342,-0.000536639,0.257984,0.18096984093391,0.3778729920223758,-0.0009189195346168688,-0.02449481138074472,-0.0005364950350453812,-0.13023654925565575
372,0.3626,772.995,264.153,0.0125432,451.842,-1.44928,-0.835081,0.166886,-0.0248824,-0.140001,0.32161,-0.000923381,-0.000538994,0.258856,0.18161955300086374,0.37934672582121953,-0.0009229548149515265,-0.024575384781597376,-0.0005388487688280374,-0.1306426339589949
373,0.3636,773.409,264.305,0.0124743,452.093,-1.45356,-0.837548,0.167437,-0.0249649,-0.140468,0.322678,-0.000927427,-0.000541352,0.259727,0.1822708047779551,0.3808206550625115,-0.0009269970724988807,-0.024655853992952337,-0.0005412054954441192,-0.13104852906505204
374,0.3646,773.821,264.456,0.0124054,452.343,-1.45786,-0.840021,0.167987,-0.0250473,-0.140934,0.323745,-0.000931479,-0.000543714,0.260597,0.18292123257183013,0.38229477700566394,-0.0009310453081050607,-0.024736219039497964,-0.0005435662143287168,-0.13145336611614877
375,0.3656,774.232,264.607,0.0123365,452.593,-1.46216,-0.842502,0.168536,-0.0251296,-0.1414,0.324811,-0.000935538,-0.00054608,0.261466,0.18357083462796053,0.38376908890658323,-0.0009351005207620666,-0.024816479945889314,-0.0005459309254536304,-0.1318580145571292
376,0.3666,774.642,264.757,0.0122676,452.841,-1.46648,-0.84499,0.169085,-0.0252119,-0.141866,0.325876,-0.000939605,-0.000548451,0.262335,0.18422079341353315,0.38524358801767744,-0.0009391637094458005,-0.024896734247080055,-0.000548300628242071,-0.13226247447586525
377,0.3676,775.05,264.907,0.0121987,453.089,-1.47081,-0.847484,0.169633,-0.0252941,-0.142331,0.32694,-0.000943678,-0.000550825,0.263203,0.18486992425392934,0.3867182715878641,-0.0009432328759451103,-0.024976884441306857,-0.0005506733237600203,-0.13266587862650014
378,0.3686,775.456,265.056,0.0121299,453.335,-1.47516,-0.849986,0.170181,-0.0253762,-0.142796,0.328004,-0.000947759,-0.000553204,0.26407,0.18551941091551205,0.38819452505640717,-0.0009473100182922911,-0.025056930553156276,-0.0005530510108798792,-0.13306909523781119
379,0.3696,775.862,265.205,0.0120611,453.581,-1.47951,-0.852494,0.170728,-0.0254582,-0.14326,0.329066,-0.000951846,-0.000555586,0.264936,0.1861680674246644,0.3896695707526465,-0.0009513931382924001,-0.025136872607182004,-0.0005554316906769552,-0.1334712578686752
380,0.3706,776.265,265.354,0.0119922,453.826,-1.48388,-0.85501,0.171275,-0.0255401,-0.143724,0.330128,-0.000955941,-0.000557973,0.265802,0.18681707884598708,0.3911461837795207,-0.0009554842339609682,-0.02521671062790387,-0.0005578173620142124,-0.13387323393936368
381,0.3716,776.667,265.501,0.0119234,454.07,-1.48826,-0.857532,0.171822,-0.025622,-0.144188,0.331189,-0.000960043,-0.000560364,0.266667,0.18746644537366963,0.3926229731787494,-0.0009595823061595565,-0.025296542110159637,-0.0005602070254160374,-0.13427502353642073
382,0.3726,777.068,265.649,0.0118546,454.313,-1.49265,-0.860062,0.172368,-0.0257037,-0.144651,0.332249,-0.000964152,-0.000562759,0.267531,0.18811497908643582,0.3940999361824178,-0.000963687354802012,-0.02537617212973864,-0.0005626006808538975,-0.1346757614225439
383,0.3736,777.468,265.796,0.0117857,454.556,-1.49705,-0.862599,0.172913,-0.0257854,-0.145113,0.333308,-0.000968268,-0.000565158,0.268394,0.18876267823202308,0.39557707001915343,-0.0009677993798022921,-0.02545579564381073,-0.0005649983282988158,-0.13507544888585343
384,0.3746,777.866,265.942,0.0117169,454.797,-1.50147,-0.865142,0.173458,-0.0258671,-0.145576,0.334366,-0.000972391,-0.000567562,0.269257,0.1894107304698538,0.39705437191413284,-0.0009719183810741328,-0.025535412652907596,-0.0005674009671549074,-0.13547581626081973
385,0.3756,778.262,266.088,0.0116481,455.038,-1.5059,-0.867693,0.174003,-0.0259486,-0.146038,0.335423,-0.000976522,-0.000569969,0.270119,0.1900591359924153,0.39853183908908996,-0.0009760453575550221,-0.02561482828054551,-0.0005698065985255685,-0.1358751341841643
386,0.3766,778.657,266.233,0.0115793,455.278,-1.51034,-0.870251,0.174547,-0.0260301,-0.146499,0.336479,-0.00098066,-0.000572381,0.270981,0.19070670428500103,0.40000946876232213,-0.0009801793101261724,-0.025694237436073686,-0.0005722172212448973,-0.1362734039390735
387,0.3776,779.051,266.378,0.0115105,455.517,-1.51479,-0.872816,0.175091,-0.0261115,-0.146961,0.337535,-0.000984805,-0.000574797,0.271841,0.19135462495057443,0.4014886596366587,-0.0009843202387008754,-0.025773542697378415,-0.0005746318358511582,-0.13667235346201778
388,0.3786,779.443,266.522,0.0114416,455.755,-1.51926,-0.875388,0.175634,-0.0261928,-0.147421,0.338589,-0.000988957,-0.000577217,0.272701,0.19200170617857681,0.40296660742557755,-0.0009884681431920894,-0.025852744088776913,-0.0005770504423155964,-0.13706939285336406
389,0.3796,779.834,266.666,0.0113728,455.992,-1.52374,-0.877967,0.176177,-0.026274,-0.147882,0.339643,-0.000993117,-0.000579641,0.27356,0.19264913886709878,0.40444611379269224,-0.0009926240225204275,-0.025931841634553088,-0.0005794730406091242,-0.13746711218190977
390,0.3806,780.224,266.809,0.0113039,456.229,-1.52823,-0.880553,0.176719,-0.0263552,-0.148342,0.340696,-0.000997284,-0.00058207,0.274419,0.19329572991070876,0.405925774455133,-0.000996786877582867,-0.026010932757869365,-0.0005819006301208685,-0.13786378606831762
391,0.3816,780.612,266.952,0.011235,456.465,-1.53273,-0.883146,0.177261,-0.0264362,-0.148802,0.341748,-0.00100146,-0.000584503,0.275276,0.19394267150165412,0.4074055866145794,-0.0010009587062900227,-0.026089822677231034,-0.0005843322113986416,-0.13826027752669923
392,0.3826,780.999,267.095,0.0111662,456.7,-1.53724,-0.885746,0.177802,-0.0265172,-0.149261,0.342799,-0.00100564,-0.00058694,0.276133,0.19458876924061652,0.40888554746931005,-0.001005134513555217,-0.026168706206768144,-0.0005867677844132446,-0.13865572529710846
393,0.3836,781.385,267.237,0.0110973,456.934,-1.54177,-0.888353,0.178343,-0.0265982,-0.14972,0.343849,-0.00100983,-0.000589382,0.27699,0.19523521661302312,0.4103656542142091,-0.0010093202932723866,-0.02624758334699806,-0.0005892083485463662,-0.1390509915986412
394,0.3846,781.769,267.378,0.0110284,457.168,-1.54631,-0.890967,0.178883,-0.026679,-0.150178,0.344899,-0.00101403,-0.000591828,0.277845,0.19588081792666068,0.41184731588738477,-0.0010135160453160763,-0.026326259363709803,-0.000591652904353035,-0.13944521596021908
395,0.3856,782.152,267.52,0.0109594,457.4,-1.55086,-0.893589,0.179423,-0.0267598,-0.150636,0.345947,-0.00101823,-0.000594278,0.2787,0.19652676795915314,0.4133277074641277,-0.00101771177973764,-0.0264049290236561,-0.0005941014518039411,-0.13983925980838008
396,0.3866,782.534,267.66,0.0108905,457.632,-1.55542,-0.896217,0.179963,-0.0268405,-0.151094,0.346995,-0.00102244,-0.000596733,0.279554,0.19717306689885983,0.414809651304487,-0.0010219174863179692,-0.026483494975705124,-0.0005965549902732237,-0.1402331232257804
397,0.3876,782.914,267.8,0.0108215,457.864,-1.56,-0.898853,0.180502,-0.0269211,-0.151552,0.348041,-0.00102666,-0.000599192,0.280408,0.19781851711512521,0.4162903164526224,-0.0010261331649311645,-0.026561957243938172,-0.0005990125203229058,-0.14062680629503843
398,0.3886,783.294,267.94,0.0107525,458.094,-1.56459,-0.901495,0.18104,-0.0270016,-0.152009,0.349087,-0.00103089,-0.000601655,0.281261,0.19846311685911622,0.4177725311867948,-0.0010303588154505494,-0.026640315852403784,-0.0006014740419237885,-0.14101945011861428
399,0.3896,783.671,268.079,0.0106834,458.324,-1.56919,-0.904145,0.181578,-0.0270821,-0.152465,0.350132,-0.00103512,-0.000604123,0.282113,0.19910806349107424,0.419254877873132,-0.0010345844480955657,-0.026718668153255187,-0.0006039405544421284,-0.14141105595644343
400,0.3906,784.048,268.218,0.0106144,458.552,-1.5738,-0.906802,0.182116,-0.0271625,-0.152921,0.351177,-0.00103936,-0.000606595,0.282964,0.19975335719767484,0.4207387744214184,-0.0010388200524780178,-0.026796916826696826,-0.000606411058447498,-0.14180248326271883
401,0.3916,784.423,268.357,0.0105453,458.781,-1.57842,-0.909466,0.182653,-0.0272428,-0.153377,0.35222,-0.00104361,-0.000609071,0.283815,0.20039779776729638,0.4222213780065054,-0.0010430656284708961,-0.026875061896709074,-0.0006088855539103655,-0.14219373211883224
402,0.3926,784.797,268.495,0.0104761,459.008,-1.58306,-0.912137,0.18319,-0.027323,-0.153833,0.353262,-0.00104787,-0.000611552,0.284665,0.20104258449443901,0.42370410504901956,-0.0010473211759470802,-0.02695310338723944,-0.0006113650401894377,-0.14258480260613848
403,0.3936,785.17,268.632,0.010407,459.235,-1.58771,-0.914815,0.183726,-0.0274031,-0.154288,0.354304,-0.00105213,-0.000614037,0.285514,0.2016865158779222,0.42518837789833763,-0.0010515767052945435,-0.027031041322202132,-0.0006138485178616149,-0.14297483778122144
404,0.3946,785.542,268.769,0.0103378,459.461,-1.59237,-0.9175,0.184262,-0.0274832,-0.154742,0.355345,-0.00105641,-0.000616527,0.286362,0.20233079250114305,0.4266727714925449,-0.0010558521953967226,-0.027108973014586257,-0.0006163369862807189,-0.14336383889493431
405,0.3956,785.912,268.906,0.0102685,459.686,-1.59705,-0.920193,0.184797,-0.0275632,-0.155197,0.356385,-0.00106069,-0.000619021,0.28721,0.20297421157438622,0.42815728298707034,-0.0010601276671997617,-0.02718680118357686,-0.0006188294460280908,-0.14375351968913364
406,0.3966,786.281,269.042,0.0101993,459.91,-1.60173,-0.922892,0.185332,-0.0276432,-0.155651,0.357424,-0.00106497,-0.00062152,0.288057,0.20361797496893153,0.42964190953402803,-0.0010644031207038829,-0.02726462312656297,-0.0006213268964527785,-0.14414216736149765
407,0.3976,786.649,269.178,0.0101299,460.134,-1.60643,-0.925599,0.185866,-0.027723,-0.156104,0.358462,-0.00106927,-0.000624023,0.288904,0.20426087860755926,0.43112664828222425,-0.001068698534535284,-0.027342244312510866,-0.0006238283381410081,-0.1445297831580764
408,0.3986,787.016,269.313,0.0100606,460.357,-1.61114,-0.928313,0.1864,-0.0278028,-0.156558,0.359499,-0.00107357,-0.000626531,0.28975,0.2049041256484101,0.432611496377167,-0.0010729939298965707,-0.027419859304535388,-0.0006263347704364985,-0.14491807848681348
409,0.3996,787.381,269.448,0.00999117,460.579,-1.61587,-0.931034,0.186934,-0.0278825,-0.15701,0.360536,-0.00107788,-0.000629043,0.290595,0.20554771627490998,0.43409788505823976,-0.0010772992960146333,-0.027497370852872627,-0.0006288451939304718,-0.14530448818016806
410,0.4006,787.746,269.582,0.00992171,460.801,-1.6206,-0.933762,0.187467,-0.0279621,-0.157463,0.361571,-0.0010822,-0.00063156,0.291439,0.20619044447953505,0.43558294475509873,-0.0010816146327604637,-0.027574778981268366,-0.0006313606079614287,-0.14569157756465734
411,0.4016,788.109,269.717,0.0098522,461.022,-1.62535,-0.936497,0.187999,-0.0280417,-0.157915,0.362606,-0.00108653,-0.000634082,0.292283,0.20683230851669343,0.43706954228443506,-0.001085939940004832,-0.027652180948222305,-0.0006338810124917327,-0.14607763771543125
412,0.4026,788.471,269.85,0.00978264,461.242,-1.63011,-0.939239,0.188531,-0.0281211,-0.158367,0.36364,-0.00109086,-0.000636608,0.293126,0.2074745141163672,0.43855624068176935,-0.001090265228520626,-0.027729382300120786,-0.0006364054081199333,-0.14646352340644786
413,0.4036,788.831,269.983,0.00971303,461.461,-1.63489,-0.941989,0.189063,-0.0282006,-0.158818,0.364673,-0.00109521,-0.000639138,0.293968,0.20811706146031583,0.44004303707651937,-0.0010946104764160136,-0.027806674741812643,-0.0006389337948159435,-0.1468483815653533
414,0.4046,789.191,270.116,0.00964336,461.68,-1.63967,-0.944746,0.189594,-0.0282799,-0.159269,0.365706,-0.00109956,-0.000641673,0.29481,0.2087587419710495,0.4415313701254906,-0.0010989557054095211,-0.02788376661577241,-0.000641467171907717,-0.14723306619236354
415,0.4056,789.549,270.249,0.00957364,461.898,-1.64447,-0.94751,0.190125,-0.0283591,-0.159719,0.366737,-0.00110391,-0.000644213,0.29565,0.20940076330461466,0.44301835537726997,-0.0011033009155013707,-0.027960755172669383,-0.0006440055393572841,-0.14761672498287481
416,0.4066,789.907,270.381,0.00950385,462.116,-1.64928,-0.950281,0.190656,-0.0284383,-0.16017,0.367768,-0.00110828,-0.000646757,0.296491,0.21004312564203653,0.44450687450141935,-0.0011076660845384945,-0.028037737632313986,-0.0006465478977732975,-0.14800106316513295
417,0.4076,790.263,270.512,0.00943401,462.333,-1.65411,-0.953059,0.191185,-0.0285174,-0.16062,0.368797,-0.00111265,-0.000649306,0.29733,0.21068340779519934,0.44599403708921015,-0.0011120312344998773,-0.028114616806655834,-0.0006490952464761612,-0.14838437643475455
418,0.4086,790.618,270.644,0.0093641,462.549,-1.65894,-0.955845,0.191715,-0.0285965,-0.161069,0.369826,-0.00111704,-0.00065186,0.298169,0.21132524007185993,0.4474827307549085,-0.0011164163430573693,-0.028191489900095568,-0.0006516475854275727,-0.1487666660193011
419,0.4096,790.972,270.774,0.00929413,462.764,-1.66379,-0.958637,0.192244,-0.0286754,-0.161518,0.370854,-0.00112143,-0.000654418,0.299007,0.21196620064298166,0.4489715081025716,-0.0011208014323643711,-0.028268162566765898,-0.000654203915243512,-0.14914878399435338
420,0.4106,791.325,270.905,0.00922409,462.979,-1.66865,-0.961437,0.192772,-0.0287543,-0.161967,0.371882,-0.00112583,-0.000656981,0.299845,0.21260628776505097,0.45046181670027585,-0.0011251964911689338,-0.02834482918420156,-0.0006567652352365005,-0.14953073043694687
421,0.4116,791.676,271.035,0.00915399,463.193,-1.67352,-0.964244,0.193301,-0.0288331,-0.162415,0.372908,-0.00113023,-0.000659549,0.300682,0.21324792618967892,0.451950754218543,-0.0011295915306352988,-0.028421392595023853,-0.0006593315453682358,-0.14991165533616257
422,0.4126,792.027,271.165,0.00908382,463.406,-1.67841,-0.967059,0.193828,-0.0289118,-0.162863,0.373934,-0.00113465,-0.000662121,0.301518,0.2138874763534473,0.4534412201706566,-0.0011340065280835976,-0.02849785282267725,-0.0006619018462621362,-0.15029240961924428
423,0.4136,792.376,271.294,0.00901357,463.619,-1.68331,-0.96988,0.194356,-0.0289905,-0.163311,0.374959,-0.00113907,-0.000664698,0.302353,0.21452857817694926,0.45493176119310563,-0.0011384215060176173,-0.02857430703314745,-0.0006644771372228409,-0.15067299336261097
424,0.4146,792.725,271.423,0.00894325,463.831,-1.68822,-0.972709,0.194882,-0.0290691,-0.163758,0.375983,-0.0011435,-0.00066728,0.303188,0.21516758825398719,0.45642237438026734,-0.0011428464530091054,-0.028650658091978753,-0.0006670574182117139,-0.15105255769562942
425,0.4156,793.072,271.551,0.00887286,464.042,-1.69314,-0.975545,0.195409,-0.0291476,-0.164205,0.377006,-0.00114794,-0.000669866,0.304022,0.2158081503462832,0.4579130568233245,-0.0011472813689252792,-0.028726906022548016,-0.0006696416898597235,-0.15143195240130558
426,0.4166,793.418,271.679,0.00880239,464.253,-1.69808,-0.978388,0.195935,-0.0292261,-0.164652,0.378028,-0.00115239,-0.000672457,0.304855,0.21644783365532683,0.4594038056102727,-0.0011517262536333561,-0.028803147967889742,-0.000672230951463737,-0.15181117755544582
427,0.4176,793.763,271.807,0.00873184,464.463,-1.70303,-0.981239,0.19646,-0.0293044,-0.165098,0.379049,-0.00115684,-0.000675053,0.305688,0.21708663643905424,0.4608946178259301,-0.0011561711185616996,-0.02887918970433112,-0.0006748252029847857,-0.15218938542363225
428,0.4186,794.107,271.934,0.00866121,464.673,-1.70799,-0.984096,0.196985,-0.0293827,-0.165544,0.38007,-0.0011613,-0.000677654,0.30652,0.21772577468229337,0.4623869529381659,-0.0011606259521041995,-0.02895522548693752,-0.0006774244443841226,-0.15256742464871953
429,0.4196,794.45,272.061,0.00859049,464.882,-1.71296,-0.986961,0.19751,-0.029461,-0.165989,0.38109,-0.00116578,-0.00068026,0.307351,0.21836524856120687,0.46387934862257096,-0.0011651007424763327,-0.02903125531617523,-0.0006800286756227791,-0.1529444482507778
430,0.4206,794.792,272.188,0.0085197,465.09,-1.71795,-0.989833,0.198034,-0.0295391,-0.166434,0.382109,-0.00117026,-0.00068287,0.308182,0.2190038392476008,0.465371801954648,-0.0011695755128016128,-0.029107085013946765,-0.0006826368973441577,-0.1533213041146576
431,0.4216,795.133,272.314,0.00844881,465.298,-1.72294,-0.992713,0.198558,-0.0296172,-0.166879,0.383127,-0.00117474,-0.000685485,0.309012,0.21964276464320087,0.4668643100067429,-0.0011740502630798177,-0.02918290878965024,-0.0006852501088319141,-0.15369799231498582
432,0.4226,795.473,272.44,0.00837784,465.505,-1.72796,-0.9956,0.199081,-0.0296952,-0.167323,0.384145,-0.00117924,-0.000688105,0.309842,0.22028080464202549,0.4683583382056582,-0.0011785449697405692,-0.02925862956961578,-0.0006878683100467464,-0.15407366700044622
433,0.4236,795.812,272.565,0.00830678,465.711,-1.73298,-0.998493,0.199604,-0.0297732,-0.167768,0.385161,-0.00118375,-0.00069073,0.31067,0.22091917842304576,0.469850948394855,-0.0011830496443446803,-0.029334344443590843,-0.0006904915009495749,-0.15445002047377254
434,0.4246,796.149,272.69,0.00823563,465.917,-1.73802,-1.00139,0.200126,-0.029851,-0.168211,0.386177,-0.00118826,-0.00069336,0.311498,0.22155666460360024,0.47134507584664287,-0.0011875542986328202,-0.029409859294027396,-0.0006931196815008756,-0.15482451615778414
435,0.4256,796.486,272.815,0.00816438,466.122,-1.74306,-1.0043,0.200648,-0.0299288,-0.168654,0.387192,-0.00119278,-0.000695995,0.312326,0.22219448363880856,0.4728392492633582,-0.0011920689206842416,-0.029485368269637102,-0.0006957528516612355,-0.15519884597694944
436,0.4266,796.822,272.939,0.00809304,466.327,-1.74813,-1.00722,0.20117,-0.0300065,-0.169097,0.388206,-0.00119731,-0.000698634,0.313152,0.22283263570246614,0.47433346570181656,-0.0011965935103638303,-0.02956077432695925,-0.0006983900120897113,-0.15557301000473045
437,0.4276,797.157,273.063,0.0080216,466.53,-1.7532,-1.01014,0.201691,-0.0300842,-0.16954,0.389219,-0.00120185,-0.000701279,0.313978,0.2234698974979501,0.4758277222157168,-0.001201128067535917,-0.029636174525458414,-0.0007010331613526155,-0.15594700831455632
438,0.4286,797.49,273.187,0.00795007,466.734,-1.75829,-1.01307,0.202212,-0.0301618,-0.169982,0.390232,-0.0012064,-0.000703928,0.314804,0.22410749139333386,0.4773234931784045,-0.0012056725920643885,-0.029711471836741832,-0.0007036803008095838,-0.15631999730024304
439,0.4296,797.823,273.31,0.00787843,466.937,-1.76339,-1.01601,0.202732,-0.0302393,-0.170424,0.391243,-0.00121095,-0.000706582,0.315629,0.2247441928168814,0.478817822486191,-0.0012102170959152891,-0.02978666628385196,-0.0007063324297227336,-0.1566928214612271
440,0.4306,798.155,273.433,0.00780669,467.139,-1.7685,-1.01896,0.203252,-0.0303167,-0.170866,0.392254,-0.00121552,-0.000709241,0.316453,0.22538122541126615,0.4803136633248575,-0.001214781554793376,-0.029861757889798946,-0.0007089895480520969,-0.15706548087034478
441,0.4316,798.486,273.555,0.00773485,467.34,-1.77362,-1.02191,0.203771,-0.0303941,-0.171307,0.393264,-0.00122009,-0.000711905,0.317276,0.2260173633307656,0.4818095354130585,-0.0012193459928119266,-0.02993684368388061,-0.0007116516557580388,-0.1574371330379547
442,0.4326,798.815,273.678,0.0076629,467.541,-1.77876,-1.02487,0.20429,-0.0304714,-0.171748,0.394274,-0.00122467,-0.000714574,0.318099,0.2266538314915354,0.4833069190952952,-0.0012239203977318924,-0.030011826667734165,-0.0007143187528005912,-0.15780862134309315
443,0.4336,799.144,273.799,0.00759084,467.741,-1.78391,-1.02783,0.204809,-0.0305486,-0.172188,0.395282,-0.00122926,-0.000717249,0.318921,0.22729063006501526,0.4848028462903864,-0.001228504769416161,-0.030086706864302593,-0.0007169918384226648,-0.15817910403753221
444,0.4346,799.472,273.921,0.00751867,467.941,-1.78908,-1.03081,0.205327,-0.0306258,-0.172628,0.39629,-0.00123386,-0.000719928,0.319742,0.2279265312955887,0.4863002821403246,-0.0012330991077271758,-0.030161581280343075,-0.0007196689140155366,-0.15854942375544323
445,0.4356,799.799,274.042,0.00744639,468.14,-1.79425,-1.03379,0.205845,-0.0307029,-0.173068,0.397297,-0.00123846,-0.000722612,0.320563,0.22856276200832792,0.4877977403681164,-0.0012376934249044291,-0.03023635293994187,-0.0007223509788248927,-0.15891958056852018
446,0.4366,800.125,274.163,0.007374,468.339,-1.79944,-1.03678,0.206362,-0.0307799,-0.173507,0.398303,-0.00124308,-0.000725301,0.321383,0.22919809317524154,0.48929521799988374,-0.0012423076961017854,-0.030311021865974896,-0.0007250380328103212,-0.15928873383757935
447,0.4376,800.45,274.283,0.00730149,468.537,-1.80464,-1.03978,0.206879,-0.0308568,-0.173946,0.399308,-0.0012477,-0.000727995,0.322203,0.22983375289329144,0.4907927120586959,-0.0012469219459813052,-0.030385588081285664,-0.0007277300759316319,-0.15965772508392007
448,0.4386,800.774,274.403,0.00722886,468.735,-1.80985,-1.04278,0.207395,-0.0309337,-0.174385,0.400313,-0.00125234,-0.000730694,0.323021,0.2304685108632567,0.4922917118555439,-0.001251556149512112,-0.030460148562674982,-0.0007304271081485236,-0.16002655437865465
449,0.4396,801.097,274.523,0.00715612,468.931,-1.81508,-1.04579,0.207911,-0.0310105,-0.174823,0.401316,-0.00125698,-0.000733398,0.323839,0.23110359645285294,0.4937892313230048,-0.00125619033154023,-0.030534606364049144,-0.0007331291294205844,-0.1603943821876661
450,0.4406,801.419,274.643,0.00708325,469.128,-1.82032,-1.04881,0.208427,-0.0310873,-0.175261,0.402319,-0.00126163,-0.000736107,0.324657,0.2317390098311758,0.49528825355600237,-0.0012608344794575732,-0.030609058447283788,-0.000735836139707069,-0.16076204892337487
451,0.4416,801.74,274.762,0.00701026,469.324,-1.82557,-1.05183,0.208942,-0.0311639,-0.175699,0.403321,-0.00126629,-0.000738822,0.325474,0.2323735187932725,0.49678728327453503,-0.0012654885931248083,-0.03068331094949961,-0.0007385491382290166,-0.16112955465631562
452,0.4426,802.06,274.88,0.00693715,469.519,-1.83084,-1.05487,0.209457,-0.0312405,-0.176136,0.404323,-0.00127096,-0.000741541,0.32629,0.23300835461164304,0.49828781577361325,-0.0012701526724024914,-0.030757557764191645,-0.0007412661264202258,-0.16149606095347224
453,0.4436,802.38,274.999,0.00686391,469.713,-1.83612,-1.05791,0.209971,-0.0313171,-0.176573,0.405323,-0.00127563,-0.000744266,0.327106,0.2336422838117611,0.4997868529830718,-0.001274816729898931,-0.030831798891795326,-0.0007439891027599677,-0.16186240712236766
454,0.4446,802.698,275.117,0.00679055,469.908,-1.84141,-1.06096,0.210485,-0.0313935,-0.17701,0.406323,-0.00128032,-0.000746995,0.32792,0.23427653893524303,0.5012873899795083,-0.001279500740024364,-0.03090584051393408,-0.0007467160686926988,-0.16222859323296246
455,0.4456,803.016,275.235,0.00671705,470.101,-1.84671,-1.06401,0.210998,-0.0314699,-0.177446,0.407322,-0.00128501,-0.00074973,0.328735,0.23490988523915401,0.5027879254747831,-0.0012841847281819252,-0.03097987647950895,-0.0007494490226870321,-0.16259378194938767
456,0.4466,803.332,275.352,0.00664342,470.294,-1.85203,-1.06707,0.211511,-0.0315462,-0.177882,0.40832,-0.00128972,-0.00075247,0.329548,0.23554355653307169,0.5042884564648265,-0.0012888886685941126,-0.031053809894337925,-0.0007521869654456559,-0.16295881147823787
457,0.4476,803.648,275.469,0.00656966,470.487,-1.85736,-1.07014,0.212024,-0.0316225,-0.178318,0.409317,-0.00129443,-0.000755215,0.330361,0.23617755298375886,0.505788979942581,-0.0012935925868508003,-0.03112773766826249,-0.0007549298969278251,-0.1633236818889039
458,0.4486,803.963,275.586,0.00649576,470.678,-1.8627,-1.07322,0.212536,-0.0316987,-0.178753,0.410314,-0.00129915,-0.000757965,0.331174,0.23681063794680712,0.5072910001882578,-0.0012983064699689795,-0.03120156292187426,-0.0007576778170921283,-0.16368755693872095
459,0.4496,804.277,275.702,0.00642173,470.87,-1.86805,-1.07631,0.213048,-0.0317748,-0.179188,0.41131,-0.00130388,-0.000760721,0.331985,0.23744404713235023,0.5087930099011142,-0.0013030303178074298,-0.03127528567774951,-0.0007604317251371784,-0.16405127373731354
460,0.4506,804.59,275.818,0.00634755,471.061,-1.87342,-1.0794,0.213559,-0.0318509,-0.179622,0.412305,-0.00130862,-0.000763482,0.332796,0.23807654262927125,0.5102950060651394,-0.001307764130224598,-0.031349002823536476,-0.0007631906217765438,-0.16441399676792057
461,0.4516,804.902,275.934,0.00627324,471.251,-1.8788,-1.0825,0.21407,-0.0319268,-0.180056,0.413299,-0.00131337,-0.000766247,0.333607,0.23870936141398413,0.5117969856613602,-0.0013125079070784862,-0.0314225206441856,-0.0007659535077347845,-0.16477656241088778
462,0.4526,805.213,276.049,0.00619878,471.441,-1.88419,-1.08561,0.214581,-0.0320028,-0.18049,0.414293,-0.00131812,-0.000769019,0.334416,0.23934250365173115,0.5133004589675503,-0.00131725166139951,-0.031496129735435696,-0.0007687233806726868,-0.16513897073450678
463,0.4536,805.524,276.165,0.00612418,471.63,-1.8896,-1.08872,0.215091,-0.0320786,-0.180924,0.415285,-0.00132289,-0.000771795,0.335226,0.23997472953248966,0.5148023978613703,-0.0013220153667476975,-0.03156953954653474,-0.0007714972428464195,-0.1655012218070392
464,0.4546,805.833,276.279,0.00604943,471.819,-1.89502,-1.09184,0.215601,-0.0321544,-0.181357,0.416277,-0.00132766,-0.000774576,0.336034,0.24060727793068226,0.5163058274178196,-0.0013267790493729503,-0.03164294379338106,-0.0007742760934486004,-0.16586248155961592
465,0.4556,806.142,276.394,0.00597453,472.007,-1.90045,-1.09497,0.21611,-0.0322301,-0.18179,0.417268,-0.00133245,-0.000777363,0.336842,0.2412389077713064,0.5178092313063787,-0.0013315626826445603,-0.031716245648025665,-0.0007770609316604116,-0.1662235849205811
466,0.4566,806.45,276.508,0.00589948,472.195,-1.9059,-1.09811,0.216619,-0.0323057,-0.182222,0.418259,-0.00133724,-0.000780155,0.337649,0.24187085919335516,0.5193141258066676,-0.0013363462930024994,-0.03178944513287929,-0.000779850758211742,-0.1665836985417527
467,0.4576,806.757,276.622,0.00582428,472.382,-1.91135,-1.10125,0.217128,-0.0323813,-0.182654,0.419248,-0.00134204,-0.000782953,0.338456,0.24250313236055487,0.5208174707586313,-0.0013411398670356567,-0.03186263908406106,-0.0007826465722780007,-0.16694365662743815
468,0.4586,807.063,276.736,0.00574893,472.568,-1.91683,-1.10441,0.217636,-0.0324568,-0.183086,0.420237,-0.00134685,-0.000785756,0.339262,0.24313448430160944,0.5223223032542217,-0.0013459434046004803,-0.0319357306955671,-0.0007854473745942947,-0.16730345924481405
469,0.4596,807.368,276.849,0.00567342,472.755,-1.92231,-1.10757,0.218143,-0.0325322,-0.183517,0.421225,-0.00135167,-0.000788564,0.340067,0.24376491328539363,0.5238271009374842,-0.0013507569055526414,-0.03200871998974175,-0.0007882531651187685,-0.1676622741237187
470,0.4606,807.672,276.962,0.00559775,472.94,-1.92781,-1.11073,0.218651,-0.0326076,-0.183948,0.422212,-0.0013565,-0.000791377,0.340872,0.24439690637399591,0.5253318607629256,-0.0013555803697481439,-0.03208170378073094,-0.0007910639438092337,-0.1680209343867326
471,0.4616,807.976,277.074,0.00552192,473.125,-1.93332,-1.11391,0.219158,-0.0326829,-0.184379,0.423199,-0.00136134,-0.000794196,0.341676,0.24502797556805023,0.5268381065195014,-0.0013604137970422148,-0.032154585284413284,-0.0007938807098296641,-0.1683794401004809
472,0.4626,808.279,277.187,0.00544593,473.31,-1.93884,-1.11709,0.219664,-0.0327582,-0.18481,0.424185,-0.00136619,-0.00079702,0.342479,0.24565811913656543,0.5283443113294737,-0.001365257187290081,-0.032227461300324944,-0.0007967024639262688,-0.16873779133155997
473,0.4636,808.581,277.299,0.00536978,473.494,-1.94437,-1.12028,0.22017,-0.0328333,-0.18524,0.42517,-0.00137105,-0.000799849,0.343282,0.24628858163840972,0.5298504721385555,-0.0013701105403465252,-0.032300138288926195,-0.0007995292060565262,-0.16909515724211022
474,0.4646,808.882,277.41,0.00529346,473.678,-1.94992,-1.12347,0.220676,-0.0329084,-0.185669,0.426154,-0.00137591,-0.000802684,0.344084,0.24691936323500419,0.5313565858895801,-0.0013749638698157263,-0.032372809819690485,-0.0008023619353758615,-0.16945153897030696
475,0.4656,809.182,277.522,0.00521698,473.861,-1.95549,-1.12668,0.221181,-0.0329835,-0.186099,0.427137,-0.00138079,-0.000805524,0.344886,0.2475492165380111,0.5328626495225108,-0.0013798371481011928,-0.03244547589302782,-0.0008051996526383665,-0.16980859803534898
476,0.4666,809.482,277.633,0.00514032,474.043,-1.96106,-1.12989,0.221686,-0.0330585,-0.186528,0.42812,-0.00138567,-0.000808369,0.345686,0.2481793879972638,0.5343701943438774,-0.0013847104026051271,-0.03251803976115686,-0.0008080423578016305,-0.1701646737630872
477,0.4676,809.78,277.744,0.0050635,474.225,-1.96665,-1.13311,0.22219,-0.0331334,-0.186957,0.429102,-0.00139057,-0.00081122,0.346487,0.2488086289642184,0.5358776859319503,-0.0013896036055358607,-0.03259050144625475,-0.0008108910500120858,-0.17052059676709985
478,0.4686,810.078,277.854,0.0049865,474.407,-1.97225,-1.13634,0.222694,-0.0332082,-0.187385,0.430083,-0.00139547,-0.000814077,0.347286,0.24943818714855226,0.5373851212179659,-0.0013944967844898848,-0.032662860970466556,-0.0008137457292184402,-0.1708755379888437
479,0.4696,810.376,277.959,0.0130312,474.591,-1.97788,-1.13958,0.223198,-0.033283,-0.187813,0.431064,-0.00140039,-0.000816939,0.348085,0.25006806271018367,0.5388940360235828,-0.0013994099114793546,-0.032735215082388525,-0.0008166053961859987,-0.17123032732824994
480,0.4706,810.673,278.075,0.00683157,474.769,-1.98348,-1.14281,0.223701,-0.0333576,-0.188241,0.432043,-0.00140531,-0.000819806,0.348884,0.2506970051114801,0.5404013509951391,-0.0014043230142963825,-0.032807370343918674,-0.0008194700508717956,-0.17158496485031005
481,0.4716,810.966,278.183,0.00380444,474.949,-1.98911,-1.14605,0.224204,-0.0334322,-0.188668,0.433022,-0.00141024,-0.000822678,0.349682,0.2513262639503817,0.5419101423506247,-0.001409246078848514,-0.032879520222867,-0.0008223396932329763,-0.1719386225590246
482,0.4726,811.262,278.294,0.00481598,475.129,-1.99476,-1.14931,0.224706,-0.0335067,-0.189095,0.434,-0.00141518,-0.000825556,0.350479,0.2519545874308835,0.5434188681164871,-0.0014141791049883112,-0.03295156801479682,-0.0008252153224013181,-0.1722921292881341
483,0.4736,811.555,278.402,0.0043805,475.308,-2.00042,-1.15257,0.225208,-0.0335812,-0.189522,0.434977,-0.00142013,-0.00082844,0.351275,0.2525832264089556,0.5449275252096222,-0.0014191220925678927,-0.03302361043936608,-0.0008280969383250847,-0.17264548510209277
484,0.4746,811.849,278.511,0.00464793,475.486,-2.0061,-1.15584,0.22571,-0.0336556,-0.189949,0.435954,-0.00142509,-0.000831329,0.352071,0.2532121810430177,0.5464376569810001,-0.0014240750414389325,-0.03309555080653459,-0.0008309835417833478,-0.17299869006532798
485,0.4756,812.141,278.619,0.00433708,475.665,-2.01178,-1.15912,0.226211,-0.0337299,-0.190375,0.43693,-0.00143006,-0.000834224,0.352866,0.2538401976507445,0.5479477169235951,-0.0014290379514532159,-0.033167389138282544,-0.0008338761318988919,-0.1733509175935698
486,0.4766,812.433,278.728,0.0044051,475.842,-2.01748,-1.1624,0.226712,-0.0338042,-0.190801,0.437905,-0.00143504,-0.000837124,0.353661,0.25446852897362127,0.5494577019456748,-0.001434010822461751,-0.033239222132640855,-0.000836773709456673,-0.17370299510484066
487,0.4776,812.724,278.835,0.00422965,476.02,-2.0232,-1.16569,0.227213,-0.0338784,-0.191226,0.438879,-0.00144003,-0.000840029,0.354455,0.2550971751693598,0.5509676089527145,-0.0014389936543155457,-0.03331095312110599,-0.0008396762744130593,-0.17405409671754357
488,0.4786,813.014,278.943,0.00421519,476.197,-2.02892,-1.16899,0.227713,-0.0339525,-0.191651,0.439853,-0.00144503,-0.00084294,0.355249,0.25572488067024257,0.552478987325618,-0.0014439864468652752,-0.03338258212559231,-0.0008425848258820645,-0.17440504914376542
489,0.4796,813.303,279.05,0.0040941,476.373,-2.03466,-1.1723,0.228212,-0.0340266,-0.192076,0.440826,-0.00145003,-0.000845857,0.356041,0.2563516437500801,0.5539902845071323,-0.001448979214451085,-0.033454205822566085,-0.0008454993638112862,-0.17475585244689718
490,0.4806,813.591,279.157,0.00404273,476.549,-2.04042,-1.17561,0.228711,-0.0341006,-0.192501,0.441798,-0.00145505,-0.000848779,0.356834,0.25697871966273955,0.5555014973941554,-0.0014539919279935587,-0.033525727564998054,-0.0008484188889966715,-0.17510650669030237
491,0.4816,813.879,279.264,0.0039452,476.724,-2.04618,-1.17894,0.22921,-0.0341746,-0.192925,0.442769,-0.00146008,-0.000851707,0.357625,0.25760610856436394,0.5570126228808197,-0.0014590146017821048,-0.03359724401501696,-0.0008513444005432413,-0.17545618739391788
492,0.4826,814.166,279.37,0.00387767,476.899,-2.05196,-1.18227,0.229709,-0.0342485,-0.193348,0.44374,-0.00146511,-0.000854641,0.358416,0.25823381061117345,0.5585252163829377,-0.001464037250306638,-0.0336686585398851,-0.0008542758983982601,-0.1758048956696504
493,0.4836,814.453,279.477,0.00379012,477.074,-2.05775,-1.1856,0.230207,-0.0343223,-0.193772,0.44471,-0.00147016,-0.00085758,0.359207,0.25886056709826977,0.5600377192881454,-0.0014690798441859831,-0.033739971161416804,-0.0008572123833662237,-0.17615428031910652
494,0.4846,814.738,279.582,0.00371536,477.248,-2.06356,-1.18895,0.230704,-0.034396,-0.194195,0.445679,-0.00147522,-0.000860524,0.359997,0.25948637630082283,0.5615501284820488,-0.0014741323978589849,-0.033811181901394205,-0.0008601538554030563,-0.1765026933639775
495,0.4856,815.023,279.688,0.00363188,477.421,-2.06938,-1.1923,0.231202,-0.0344697,-0.194618,0.446647,-0.00148028,-0.000863475,0.360786,0.26011375672097925,0.5630624408475149,-0.0014791849259662149,-0.03388238739333338,-0.0008631023127385617,-0.17685095906129666
496,0.4866,815.307,279.793,0.00355377,477.595,-2.07521,-1.19566,0.231699,-0.0345434,-0.19504,0.447615,-0.00148536,-0.000866431,0.361574,0.26074018891357476,0.5645762178401159,-0.0014842573988226304,-0.03395358763762124,-0.0008660557570430161,-0.17719825467204486
497,0.4876,815.591,279.898,0.00347179,477.767,-2.08106,-1.19903,0.232195,-0.0346169,-0.195463,0.448582,-0.00149044,-0.000869393,0.362362,0.2613656711540484,0.5660898947876196,-0.0014893298459111026,-0.034024589439581754,-0.0008690151874028995,-0.17754622620915006
498,0.4886,815.873,280.003,0.003392,477.94,-2.08692,-1.20241,0.232691,-0.0346904,-0.195884,0.449548,-0.00149554,-0.00087236,0.36315,0.2619914637106653,0.5676034685644187,-0.001494422237343196,-0.034095586023101476,-0.0008719796046371409,-0.17789240637187864
499,0.4896,816.155,280.108,0.00331043,478.111,-2.09279,-1.20579,0.233187,-0.0347639,-0.196306,0.450513,-0.00150064,-0.000875333,0.363936,0.26261756673738046,0.569116936042193,-0.001499514602804286,-0.03416657738856421,-0.0008749500078262251,-0.17823926258458134
500,0.4906,816.436,280.212,0.00322966,478.283,-2.09867,-1.20918,0.233682,-0.0348372,-0.196727,0.451478,-0.00150575,-0.000878312,0.364723,0.26324271714487657,0.5706318647209996,-0.0015046169272482368,-0.034237370383846666,-0.0008779263969168616,-0.1785851510404045
501,0.4916,816.717,280.316,0.00314801,478.454,-2.10457,-1.21258,0.234177,-0.0349106,-0.197148,0.452442,-0.00151088,-0.000881296,0.365508,0.2638681770784257,0.572146683864108,-0.0015097391954247419,-0.03430825475937205,-0.0008809077727363057,-0.17893089390783623
502,0.4926,816.997,280.42,0.00306658,478.624,-2.11048,-1.21599,0.234672,-0.0349838,-0.197569,0.453405,-0.00151601,-0.000884286,0.366293,0.26449394669128123,0.5736613903347771,-0.0015148614373241553,-0.03437894080798276,-0.0008838951343559387,-0.17927649124815637
503,0.4936,817.276,280.523,0.00298464,478.794,-2.11641,-1.2194,0.235166,-0.035057,-0.197989,0.454368,-0.00152116,-0.000887282,0.367077,0.26511876101737886,0.5751775561703489,-0.0015200036225465619,-0.03444962168256405,-0.0008868884817220257,-0.17962112274415187
504,0.4946,817.554,280.626,0.00290267,478.964,-2.12235,-1.22282,0.23566,-0.0351301,-0.198409,0.455329,-0.00152631,-0.000890284,0.367861,0.26574388407800464,0.5766920293896567,-0.0015251457812868185,-0.03452020083551954,-0.000889887814780832,-0.17996560952531138
505,0.4956,817.832,280.729,0.00282035,479.133,-2.1283,-1.22625,0.236153,-0.0352032,-0.198828,0.45629,-0.00153147,-0.000893291,0.368644,0.2663680496570284,0.5782079587172759,-0.0015302978982421056,-0.0345907748293276,-0.0008928921343711593,-0.18030913196194398
506,0.4966,818.109,280.832,0.00273787,479.302,-2.13427,-1.22969,0.236646,-0.0352762,-0.199248,0.457251,-0.00153665,-0.000896304,0.369427,0.26699252302554655,0.5797253455531997,-0.0015354699579033237,-0.03466124713049479,-0.0008959024395521764,-0.1806533298399059
507,0.4976,818.385,280.934,0.00265512,479.47,-2.14025,-1.23314,0.237139,-0.0353491,-0.199667,0.45821,-0.00154183,-0.000899323,0.370209,0.2676173043353367,0.5812410288135466,-0.001540641990773417,-0.03473161776053835,-0.0008989187302695933,-0.18099656418208676
508,0.4986,818.661,281.036,0.00257218,479.638,-2.14624,-1.23659,0.237631,-0.035422,-0.200085,0.459169,-0.00154703,-0.000902348,0.37099,0.2682411254964916,0.5827581663113353,-0.0015458339659358833,-0.0348019832607499,-0.0009019410064692313,-0.1813388360784487
509,0.4996,818.936,281.138,0.00248897,479.806,-2.15225,-1.24005,0.238123,-0.0354948,-0.200504,0.460127,-0.00155223,-0.000905379,0.371771,0.2688652536531724,0.5842751751658815,-0.001551025914100168,-0.034872247118733046,-0.0009049692680966892,-0.18168178325368134
510,0.5006,819.21,281.24,0.00240555,479.973,-2.15826,-1.24352,0.238614,-0.0355675,-0.200922,0.461085,-0.00155744,-0.000908415,0.372551,0.2694884194674041,0.5857936380112609,-0.0015562278197042145,-0.034942409355939286,-0.0009080025160055349,-0.18202376878832505
511,0.5016,819.484,281.341,0.00232188,480.139,-2.1643,-1.247,0.239105,-0.0356402,-0.201339,0.462041,-0.00156267,-0.000911458,0.373331,0.2701118913311795,0.5873103816171259,-0.0015614496669775768,-0.03501256649253626,-0.0009110427483282058,-0.18236479376809034
512,0.5026,819.757,281.442,0.00223797,480.306,-2.17034,-1.25048,0.239596,-0.0357129,-0.201757,0.462997,-0.0015679,-0.000914506,0.37411,0.270735669394806,0.5888285759232026,-0.001566671486940785,-0.035082718528894885,-0.0009140879668290136,-0.18270649386399995
513,0.5036,820.029,281.543,0.00215383,480.471,-2.1764,-1.25397,0.240086,-0.0357854,-0.202174,0.463952,-0.00157314,-0.00091756,0.374888,0.2713584824495465,0.590346631969596,-0.0015719032638749075,-0.03515267249593956,-0.0009171391705451448,-0.1830472342067596
514,0.5046,820.3,281.643,0.00206944,480.637,-2.18248,-1.25747,0.240576,-0.0358579,-0.20259,0.464907,-0.0015784,-0.00092062,0.375666,0.2719816007574647,0.5918661384519865,-0.001577154981851736,-0.03522262139150556,-0.0009201963594217544,-0.183387015877842
515,0.5056,820.571,281.744,0.0019848,480.802,-2.18856,-1.26098,0.241066,-0.0359304,-0.203007,0.465861,-0.00158366,-0.000923685,0.376443,0.27260502446817125,0.5933855033699025,-0.0015824066722045504,-0.03529256521596036,-0.000923258534327176,-0.18372747250208132
516,0.5066,820.841,281.844,0.00189992,480.966,-2.19466,-1.2645,0.241555,-0.0360028,-0.203423,0.466814,-0.00158894,-0.000926757,0.37722,0.2732274805032331,0.594904723548048,-0.0015876783031801844,-0.03536240750591735,-0.0009263276933626496,-0.18406697125288418
517,0.5076,821.111,281.943,0.00181479,481.13,-2.20078,-1.26802,0.242044,-0.0360751,-0.203839,0.467766,-0.00159422,-0.000929835,0.377996,0.27385024099372957,0.5964237958085334,-0.00159294990632175,-0.03543214828269514,-0.0009294028373934005,-0.18440632880157892
518,0.5086,821.38,282.043,0.0017294,481.294,-2.20691,-1.27155,0.242532,-0.0361473,-0.204254,0.468718,-0.00159952,-0.000932918,0.378771,0.27447203161590683,0.5979443149143999,-0.0015982414496645836,-0.03550178756758071,-0.0009324829672964219,-0.18474472995203073
519,0.5096,821.648,282.142,0.00164377,481.458,-2.21305,-1.27509,0.24302,-0.0362195,-0.204669,0.469669,-0.00160482,-0.000936008,0.379546,0.2750941257459574,0.5994646827782175,-0.0016035329649624064,-0.03557142182469142,-0.0009355700811545242,-0.18508299069514167
520,0.5106,821.916,282.241,0.00155788,481.62,-2.2192,-1.27863,0.243508,-0.0362917,-0.205084,0.470619,-0.00161014,-0.000939103,0.38032,0.2757165235320296,0.6009848962139059,-0.0016088444200385021,-0.035641051054390305,-0.0009386621807800921,-0.1854211110891687
521,0.5116,822.183,282.34,0.00147173,481.783,-2.22537,-1.28219,0.243995,-0.0363637,-0.205498,0.471569,-0.00161546,-0.000942204,0.381094,0.2763379487837565,0.6025065545385722,-0.0016141558468577566,-0.035710482399155974,-0.0009417602651849988,-0.18575827695102864
522,0.5126,822.449,282.438,0.00138532,481.945,-2.23155,-1.28575,0.244482,-0.0364358,-0.205913,0.472517,-0.0016208,-0.000945312,0.381867,0.2769596767432845,0.6040264510694022,-0.0016194872130308458,-0.035780005167049045,-0.000944865333368905,-0.1860961171594021
523,0.5136,822.715,282.537,0.00129865,482.107,-2.23775,-1.28932,0.244968,-0.0365077,-0.206326,0.473465,-0.00162614,-0.000948425,0.38264,0.2775804299769993,0.6055477891453278,-0.0016248185507343749,-0.03584933009241664,-0.000947975387162292,-0.18643219005918443
524,0.5146,822.98,282.635,0.00121172,482.268,-2.24396,-1.2929,0.245455,-0.0365796,-0.20674,0.474413,-0.0016315,-0.000951545,0.383412,0.27820276317223125,0.6070705701335819,-0.001630169827365524,-0.035918650033501254,-0.0009510924246164398,-0.18676893742098633
525,0.5156,823.244,282.732,0.00112452,482.429,-2.25018,-1.29649,0.24594,-0.0366515,-0.207153,0.475359,-0.00163687,-0.00095467,0.384183,0.27882284186929884,0.6085915782163203,-0.0016355310589586392,-0.03598796499066126,-0.0009542144475744863,-0.1871047325033739
526,0.5166,823.508,282.83,0.00103706,482.59,-2.25641,-1.30008,0.246426,-0.0367232,-0.207566,0.476305,-0.00164225,-0.000957801,0.384954,0.27944450082133665,0.6101140258535067,-0.0016409022453530708,-0.0360570821756907,-0.0009573424550322063,-0.18744038893102666
527,0.5176,823.771,282.927,0.000949325,482.75,-2.26266,-1.30368,0.246911,-0.0367949,-0.207979,0.477251,-0.00164763,-0.000960939,0.385724,0.28006518190723173,0.6116379144076041,-0.0016462734028505066,-0.03612619440519571,-0.0009604774459727183,-0.18777590676119715
528,0.5186,824.034,283.024,0.000861319,482.91,-2.26893,-1.30729,0.247396,-0.0368666,-0.208391,0.478195,-0.00165303,-0.000964082,0.386494,0.2806861640964651,0.6131600189191009,-0.0016516644984182483,-0.036195301679531444,-0.00096361742225759,-0.18811047416199433
529,0.5196,824.296,283.121,0.000773039,483.069,-2.2752,-1.31091,0.24788,-0.0369382,-0.208803,0.479139,-0.00165844,-0.000967232,0.387263,0.2813061662283003,0.6146835609756709,-0.0016570655483034713,-0.03626430762548882,-0.0009667643819063487,-0.18844490374941403
530,0.5206,824.557,283.218,0.000684483,483.228,-2.2815,-1.31453,0.248364,-0.0370097,-0.209215,0.480082,-0.00166386,-0.000970388,0.388031,0.28192646851379877,0.6162069257272638,-0.0016624765523443052,-0.03633321226412345,-0.0009699173258225224,-0.1887791955802235
531,0.5216,824.818,283.314,0.000595649,483.386,-2.2878,-1.31817,0.248847,-0.0370812,-0.209626,0.481025,-0.00166929,-0.000973549,0.388799,0.2825457885518401,0.6177317276893557,-0.0016678975103787685,-0.03640211197625254,-0.0009730752549227395,-0.18911253882411094
532,0.5226,825.078,283.41,0.000506536,483.545,-2.29412,-1.32181,0.24933,-0.0371526,-0.210037,0.481966,-0.00167473,-0.000976717,0.389567,0.2831654077937118,0.6192547297051774,-0.0016733284222442135,-0.03647091040932415,-0.0009762401672072096,-0.18944574509207568
533,0.5236,825.338,283.506,0.00041714,483.702,-2.30045,-1.32546,0.249813,-0.037224,-0.210448,0.482907,-0.00168018,-0.000979891,0.390333,0.28378532638396403,0.6207791655404022,-0.0016787692877778815,-0.03653970393036299,-0.0009794110635886755,-0.18977881444040323
534,0.5246,825.596,283.601,0.00032746,483.86,-2.3068,-1.32912,0.250296,-0.0372953,-0.210859,0.483848,-0.00168564,-0.000983072,0.391099,0.2844055444672171,0.6223050365448892,-0.0016842201068167917,-0.03660839620056422,-0.000982588943027607,-0.19011174692535604
535,0.5256,825.855,283.697,0.000237494,484.017,-2.31316,-1.33278,0.250778,-0.0373665,-0.211269,0.484787,-0.00169111,-0.000986258,0.391865,0.2850247771627412,0.6238290964083277,-0.0016896808791976303,-0.03667698724088464,-0.0009857718074289812,-0.190443733047311
536,0.5266,826.112,283.792,0.00014724,484.174,-2.31953,-1.33645,0.25126,-0.0374377,-0.211679,0.485726,-0.00169659,-0.00098945,0.39263,0.2856443084003677,0.6253545880360862,-0.0016951516047566395,-0.03674557339769702,-0.0009889606557559327,-0.1907755830828557
537,0.5276,826.369,283.887,5.66948e-05,484.33,-2.32592,-1.34013,0.251741,-0.0375088,-0.212088,0.486664,-0.00170209,-0.000992649,0.393395,0.2862628520605328,0.6268798858925233,-0.0017006422663234932,-0.036814058352759416,-0.0009921564869590505,-0.19110648819466658
538,0.5286,826.626,283.981,-3.41429e-05,484.486,-2.33232,-1.34382,0.252222,-0.0375799,-0.212497,0.487602,-0.00170759,-0.000995854,0.394159,0.2868816933117637,0.6284066151495717,-0.0017061328976917256,-0.036882538438714585,-0.0009953583019666201,-0.19143725799396005
539,0.5296,826.882,284.076,-0.000125275,484.641,-2.33873,-1.34752,0.252702,-0.0376509,-0.212906,0.488539,-0.0017131,-0.000999065,0.394922,0.287499544797047,0.629933147216553,-0.0017116334817453005,-0.03695091735100531,-0.0009985661007210211,-0.19176789253606763
540,0.5306,827.137,284.17,-0.000216705,484.797,-2.34516,-1.35123,0.253183,-0.0377218,-0.213315,0.489475,-0.00171863,-0.00100228,0.395685,0.2881189810405682,0.6314594788541197,-0.0017171540011479136,-0.03701919511049001,-0.001001777885167976,-0.19209839187629807
541,0.5316,827.392,284.264,-0.000308433,484.951,-2.3516,-1.35494,0.253663,-0.0377927,-0.213723,0.49041,-0.00172416,-0.00100551,0.396447,0.2887374265665197,0.6329856068204911,-0.001722674490022169,-0.03708746802925311,-0.001005004644214269,-0.19242794849829004
542,0.5326,827.646,284.357,-0.000400463,485.106,-2.35806,-1.35866,0.254142,-0.0378636,-0.214131,0.491345,-0.00172971,-0.00100873,0.397208,0.28935487966205575,0.6345131623838085,-0.0017282149138040381,-0.03715573610763778,-0.0010082214029203396,-0.1927573706886062
543,0.5336,827.9,284.451,-0.000492796,485.26,-2.36453,-1.36239,0.254621,-0.0379343,-0.214539,0.492279,-0.00173527,-0.00101197,0.397969,0.2899726285884703,0.6360405108381706,-0.0017337652894990896,-0.03722380679076798,-0.0010114581310394222,-0.1930866585020834
544,0.5346,828.153,284.544,-0.000585434,485.414,-2.37101,-1.36613,0.2551,-0.0380051,-0.214946,0.493213,-0.00174084,-0.00101521,0.39873,0.29059067348750034,0.6375692865023921,-0.001739325616940901,-0.03729196893227893,-0.0010146948486716711,-0.19341500540894496
545,0.5356,828.405,284.637,-0.00067838,485.567,-2.37751,-1.36987,0.255578,-0.0380757,-0.215353,0.494145,-0.00174641,-0.00101846,0.39949,0.29120772329258204,0.6390962125144068,-0.001744885913411709,-0.03735993372008706,-0.0010179415456375018,-0.1937432187058069
546,0.5366,828.657,284.73,-0.000771636,485.72,-2.38402,-1.37362,0.256056,-0.0381463,-0.21576,0.495077,-0.001752,-0.00102172,0.400249,0.2918250681179746,0.6406245622848332,-0.0017504661439027291,-0.03742789370975064,-0.0010211982218396587,-0.19407129844703752
547,0.5376,828.908,284.822,-0.000865204,485.872,-2.39055,-1.37739,0.256534,-0.0382169,-0.216167,0.496009,-0.0017576,-0.00102498,0.401008,0.29244270810473183,0.6421543371412326,-0.0017560563256397987,-0.037495848901608175,-0.0010244548874250858,-0.19439924468698266
548,0.5386,829.159,284.915,-0.000959087,486.025,-2.39709,-1.38115,0.257012,-0.0382873,-0.216573,0.496939,-0.00176322,-0.00102824,0.401766,0.2930606433939744,0.6436822510446145,-0.0017616664408388605,-0.03756360680873916,-0.0010277115423937833,-0.19472625220662143
549,0.5396,829.409,285.007,-0.00105329,486.177,-2.40364,-1.38493,0.257489,-0.0383578,-0.216979,0.497869,-0.00176884,-0.00103152,0.402524,0.2936775804486633,0.6452115865688779,-0.0017672765245090316,-0.037631456182740664,-0.0010309881661262343,-0.1950531269881548
550,0.5406,829.659,285.099,-0.0011478,486.328,-2.41021,-1.38872,0.257965,-0.0384281,-0.217384,0.498799,-0.00177447,-0.0010348,0.403281,0.2942935175583592,0.6467423450367451,-0.001772896558921766,-0.037699108313370755,-0.0010342647791113935,-0.19537906446493036
551,0.5416,829.908,285.19,-0.00124264,486.479,-2.41679,-1.39251,0.258441,-0.0384985,-0.21779,0.499727,-0.00178011,-0.00103808,0.404038,0.29490974792390867,0.6482712312264103,-0.0017785265439086428,-0.03776685191154283,-0.0010375413813493717,-0.19570567425848318
552,0.5426,830.156,285.282,-0.0013378,486.63,-2.42339,-1.39631,0.258917,-0.0385687,-0.218195,0.500655,-0.00178577,-0.00104138,0.404794,0.2955262716849347,0.6498015368809891,-0.0017841764614591193,-0.037834398307632466,-0.0010408379520234767,-0.19603134750712403
553,0.5436,830.404,285.373,-0.00143329,486.781,-2.43,-1.40012,0.259393,-0.0386389,-0.218599,0.501582,-0.00179144,-0.00104468,0.405549,0.29614308898112696,0.6513316119859192,-0.0017898363291328767,-0.037901939962131426,-0.0010441345118188394,-0.196356085241292
554,0.5446,830.651,285.464,-0.0015291,486.931,-2.43662,-1.40394,0.259868,-0.038709,-0.219004,0.502509,-0.00179711,-0.00104798,0.406304,0.2967589031926896,0.6528631061280936,-0.0017954961647151935,-0.03796938067231559,-0.0010474310607356818,-0.19668149512681954
555,0.5456,830.898,285.555,-0.00162524,487.08,-2.44326,-1.40777,0.260343,-0.0387791,-0.219408,0.503435,-0.0018028,-0.00105129,0.407059,0.2973750099854855,0.6543943662283764,-0.0018011759321830967,-0.03803681665507164,-0.0010507375882665704,-0.19700597025439925
556,0.5466,831.144,285.645,-0.00172172,487.23,-2.44991,-1.4116,0.260817,-0.0388492,-0.219812,0.50436,-0.0018085,-0.00105461,0.407812,0.2979901115077628,0.6559253890060073,-0.0018068656492645774,-0.03810424791073097,-0.0010540540943123622,-0.19733031432050363
557,0.5476,831.39,285.735,-0.00181853,487.379,-2.45658,-1.41544,0.261291,-0.0389191,-0.220215,0.505284,-0.00181421,-0.00105794,0.408566,0.298605504657272,0.6574561711778999,-0.0018125653157891053,-0.03817148207394061,-0.0010573805787735813,-0.19765372503219691
558,0.5486,831.635,285.825,-0.00191568,487.528,-2.46326,-1.41929,0.261765,-0.038989,-0.220618,0.506208,-0.00181993,-0.00106127,0.409318,0.29922118957227695,0.6589883684461937,-0.0018182749315860391,-0.038238711537646575,-0.0010607070521576611,-0.19797700543563235
559,0.5496,831.88,285.915,-0.00201316,487.676,-2.46995,-1.42315,0.262239,-0.0390589,-0.221021,0.507131,-0.00182566,-0.00106461,0.41007,0.29983716639110725,0.6605203215978894,-0.0018239944964840715,-0.03830593630217716,-0.0010640435038242746,-0.1983001555833135
560,0.5506,832.124,286.005,-0.00211098,487.824,-2.47666,-1.42702,0.262712,-0.0391287,-0.221424,0.508054,-0.00183141,-0.00106795,0.410822,0.30045213479937316,0.6620536893951026,-0.0018297339920146927,-0.03837306020517184,-0.0010673799443471355,-0.1986231755277229
561,0.5516,832.368,286.094,-0.00220915,487.972,-2.48338,-1.43089,0.263184,-0.0391985,-0.221826,0.508976,-0.00183716,-0.0010713,0.411573,0.3010660930897566,0.6635868095565125,-0.0018354734545432683,-0.03844017942308153,-0.001070726363019081,-0.19894526426698655
562,0.5526,832.611,286.183,-0.00230767,488.119,-2.49012,-1.43477,0.263657,-0.0392682,-0.222228,0.509897,-0.00184293,-0.00107466,0.412323,0.30168164291784616,0.6651196787860407,-0.0018412328472455775,-0.03850719780695788,-0.0010740827597397473,-0.19926722355259896
563,0.5536,832.853,286.272,-0.00240653,488.266,-2.49687,-1.43867,0.264129,-0.0393378,-0.22263,0.510817,-0.0018487,-0.00107802,0.413073,0.3022961816730405,0.666652293785323,-0.001846992206716247,-0.0385741153772321,-0.001077439145182879,-0.19958905343659006
564,0.5546,833.095,286.361,-0.00250574,488.413,-2.50363,-1.44256,0.2646,-0.0394074,-0.223031,0.511737,-0.00185449,-0.00108139,0.413823,0.30290970764863356,0.6681863194392064,-0.0018527714959003516,-0.03864102829020544,-0.0010808055085407275,-0.1999099538813227
565,0.5556,833.337,286.45,-0.0026053,488.559,-2.51041,-1.44647,0.265072,-0.0394769,-0.223433,0.512656,-0.00186029,-0.00108477,0.414572,0.303524826187199,0.6697200873251681,-0.001858560733036807,-0.038707840416991046,-0.0010841818497120403,-0.20023152543964862
566,0.5566,833.578,286.538,-0.00270522,488.705,-2.5172,-1.45039,0.265543,-0.0395464,-0.223833,0.513575,-0.0018661,-0.00108815,0.41532,0.30413893099066147,0.6712552653916954,-0.0018643599179523074,-0.03877464790049512,-0.0010875581794713707,-0.2005513688565248
567,0.5576,833.818,286.626,-0.0028055,488.851,-2.52401,-1.45431,0.266013,-0.0396158,-0.224234,0.514492,-0.00187192,-0.00109154,0.416068,0.30475202035294147,0.6727885093549761,-0.0018701690504729918,-0.03884135462518068,-0.0010909444869093843,-0.2008718834901344
568,0.5586,834.058,286.714,-0.00290613,488.996,-2.53083,-1.45824,0.266483,-0.0396851,-0.224634,0.51541,-0.00187775,-0.00109494,0.416815,0.30536539793494777,0.6743248342718093,-0.0018759881304247772,-0.03890796061138102,-0.0010943407719243847,-0.2011914708150122
569,0.5596,834.297,286.802,-0.00300713,489.141,-2.53767,-1.46218,0.266953,-0.0397544,-0.225034,0.516326,-0.0018836,-0.00109834,0.417561,0.305979063872176,0.6758592184606744,-0.0018818271388151286,-0.0389745619819466,-0.0010977370453921775,-0.2015109303305237
570,0.5606,834.536,286.889,-0.00310849,489.286,-2.54452,-1.46613,0.267423,-0.0398237,-0.225434,0.517242,-0.00188945,-0.00110175,0.418308,0.3065930183001846,0.6773950087893705,-0.0018876661130473593,-0.039041158737196935,-0.001101143296301177,-0.2018302620877822
571,0.5616,834.775,286.976,-0.00321021,489.43,-2.55138,-1.47009,0.267892,-0.0398929,-0.225833,0.518157,-0.00189532,-0.00110516,0.419053,0.30720595414798857,0.6789305276151445,-0.0018935250152514183,-0.039107654788222423,-0.001104549535594912,-0.20214866828694822
572,0.5626,835.012,287.064,-0.00331231,489.574,-2.55826,-1.47405,0.268361,-0.039962,-0.226232,0.519071,-0.0019012,-0.00110859,0.419798,0.30781917753012666,0.6804657716170155,-0.0018993938640698982,-0.039174050155290185,-0.0011079757411139868,-0.2024669474673827
573,0.5636,835.25,287.15,-0.00341477,489.718,-2.56515,-1.47803,0.268829,-0.0400311,-0.226631,0.519985,-0.00190709,-0.00111202,0.420543,0.3084313801494496,0.682002419473368,-0.0019052726593269398,-0.039240440934596665,-0.0011114019348812398,-0.202785099679756
574,0.5646,835.487,287.237,-0.00351761,489.861,-2.57206,-1.48201,0.269298,-0.0401001,-0.22703,0.520898,-0.00191299,-0.00111545,0.421287,0.3090451783911765,0.6835387889282809,-0.0019111614008464617,-0.03930673105713667,-0.0011148281168967822,-0.20310312497471827
575,0.5656,835.723,287.323,-0.00362082,490.004,-2.57898,-1.486,0.269765,-0.0401691,-0.227428,0.521811,-0.0019189,-0.00111889,0.42203,0.3096566452558851,0.685076561729036,-0.0019170600884519384,-0.039373016605815936,-0.0011182642759778316,-0.20342022682352456
576,0.5666,835.959,287.41,-0.00372442,490.147,-2.58592,-1.49,0.270233,-0.040238,-0.227826,0.522723,-0.00192483,-0.00112234,0.422773,0.3102697080113601,0.6866140525425775,-0.0019229787027369438,-0.039439201524875234,-0.0011217104120214705,-0.20373720249090688
577,0.5676,836.194,287.496,-0.00382839,490.289,-2.59287,-1.494,0.2707,-0.0403069,-0.228223,0.523634,-0.00193076,-0.0011258,0.423515,0.3108817468649505,0.6881512580352322,-0.0019288972819245798,-0.039505381883950585,-0.001125166524924337,-0.20405325608072933
578,0.5686,836.429,287.581,-0.00393274,490.431,-2.59983,-1.49802,0.271167,-0.0403757,-0.228621,0.524544,-0.00193671,-0.00112926,0.424257,0.31149407160743525,0.6896881748711445,-0.0019348357873186783,-0.03957146164050729,-0.0011286226258691023,-0.20436997985259764
579,0.5696,836.664,287.667,-0.00403748,490.573,-2.60681,-1.50204,0.271633,-0.0404445,-0.229018,0.525454,-0.00194267,-0.00113273,0.424998,0.3121053702663297,0.6912264909379311,-0.0019407842379709495,-0.039637536850933075,-0.0011320887035349836,-0.20468578227966672
580,0.5706,836.897,287.752,-0.00414261,490.714,-2.6138,-1.50607,0.272099,-0.0405132,-0.229415,0.526364,-0.00194864,-0.00113621,0.425739,0.3127169538567829,0.6927662075094714,-0.0019467426337032023,-0.03970351148589679,-0.0011355647578179529,-0.20500145935805547
581,0.5716,837.131,287.838,-0.00424813,490.855,-2.62081,-1.51011,0.272565,-0.0405818,-0.229811,0.527272,-0.00195462,-0.00113969,0.426479,0.3133288225116042,0.6943039372495416,-0.001952710974336913,-0.039769385565502136,-0.001139040800004265,-0.20531621645413134
582,0.5726,837.364,287.922,-0.00435404,490.996,-2.62783,-1.51416,0.27303,-0.0406504,-0.230207,0.52818,-0.00196061,-0.00114318,0.427219,0.31393966242334503,0.6958430638823092,-0.001958689259693225,-0.039835255126300484,-0.0011425268186687765,-0.20563084893107353
583,0.5736,837.596,288.007,-0.00446034,491.136,-2.63487,-1.51822,0.273495,-0.040719,-0.230603,0.529087,-0.00196662,-0.00114668,0.427958,0.3145507864416943,0.6973818912939889,-0.001964687469946158,-0.03990112016860203,-0.001146022813706904,-0.20594535683822124
584,0.5746,837.828,288.092,-0.00456704,491.277,-2.64192,-1.52228,0.27396,-0.0407874,-0.230999,0.529994,-0.00197264,-0.00115018,0.428696,0.3151621946987928,0.6989221150552796,-0.001970695624442964,-0.0399667886860936,-0.0011495187965091525,-0.20625974022489435
585,0.5756,838.06,288.176,-0.00467414,491.416,-2.64899,-1.52635,0.274425,-0.0408559,-0.231394,0.5309,-0.00197867,-0.00115369,0.429434,0.31577388732684186,0.700462035970359,-0.0019767137230037868,-0.04003254870876216,-0.001153024755545129,-0.20657320571399573
586,0.5766,838.291,288.26,-0.00478165,491.556,-2.65607,-1.53043,0.274889,-0.0409243,-0.231789,0.531805,-0.00198471,-0.0011572,0.430172,0.3163845480728984,0.7020016506834881,-0.001982741765448215,-0.040098208236849064,-0.0011565307022752824,-0.20688654740867984
587,0.5776,838.521,288.344,-0.00488955,491.695,-2.66316,-1.53452,0.275352,-0.0409926,-0.232184,0.53271,-0.00199076,-0.00116073,0.430909,0.31699417523645423,0.703542659378614,-0.001988779751595615,-0.04016376729035931,-0.0011600566134987167,-0.20719976535783602
588,0.5786,838.751,288.428,-0.00499787,491.834,-2.67027,-1.53862,0.275816,-0.0410609,-0.232578,0.533614,-0.00199682,-0.00116426,0.431645,0.3176054023274828,0.7050833582336513,-0.001994827681265021,-0.040229321866339096,-0.0011635825122756627,-0.20751206712279724
589,0.5796,838.981,288.512,-0.00510659,491.973,-2.67739,-1.54273,0.276279,-0.0411291,-0.232973,0.534517,-0.0020029,-0.0011678,0.432381,0.3182155948774352,0.7066237438855876,-0.0020008955342665224,-0.04029477599457665,-0.001167118386935062,-0.20782503804045827
590,0.5806,839.21,288.595,-0.00521573,492.111,-2.68453,-1.54684,0.276741,-0.0411973,-0.233367,0.53542,-0.00200898,-0.00117134,0.433117,0.31882475118654097,0.708165521133979,-0.0020069633503754236,-0.040360225658994886,-0.001170654249077474,-0.20813709349650866
591,0.5816,839.439,288.678,-0.00532528,492.249,-2.69168,-1.55097,0.277204,-0.0412654,-0.23376,0.536322,-0.00201508,-0.00117489,0.433852,0.31943550842573054,0.709706981528168,-0.0020130510893313636,-0.04042557490246057,-0.001174200086961008,-0.2084482344755575
592,0.5826,839.667,288.761,-0.00543525,492.386,-2.69885,-1.5551,0.277666,-0.0413335,-0.234154,0.537223,-0.00202119,-0.00117845,0.434586,0.3200452284651072,0.7112481216979132,-0.002019148770960766,-0.040490919695794214,-0.0011777559004794158,-0.20876004444057739
593,0.5836,839.895,288.844,-0.00554563,492.524,-2.70603,-1.55924,0.278127,-0.0414015,-0.234547,0.538124,-0.00202732,-0.00118201,0.43532,0.32065390960565265,0.712790651060689,-0.0020252663748283606,-0.040556164094920244,-0.0011813117013390606,-0.20907094064800602
594,0.5846,840.122,288.926,-0.00565644,492.661,-2.71323,-1.56339,0.278589,-0.0414694,-0.234939,0.539024,-0.00203345,-0.00118558,0.436053,0.3212641926764248,0.7143328565350078,-0.002031383941195064,-0.04062130811971343,-0.0011848774776913595,-0.20938092407855013
595,0.5856,840.349,289.009,-0.00576767,492.797,-2.72044,-1.56755,0.27905,-0.0415373,-0.235332,0.539924,-0.0020396,-0.00118916,0.436786,0.3218734358890194,0.7158764506190347,-0.002037521429311129,-0.04068644772137764,-0.0011884532294293981,-0.20969157632822188
596,0.5866,840.575,289.091,-0.00587933,492.934,-2.72766,-1.57171,0.27951,-0.0416052,-0.235724,0.540822,-0.00204576,-0.00119275,0.437518,0.32248163754518466,0.7174179997236461,-0.002043668859245007,-0.04075158290021297,-0.0011920389564459288,-0.21000131651725784
597,0.5876,840.801,289.173,-0.00599142,493.07,-2.73491,-1.57589,0.279971,-0.041673,-0.236116,0.541721,-0.00205193,-0.00119634,0.43825,0.3230914421292499,0.7189626527228881,-0.0020498262308126236,-0.040816617738186456,-0.0011956246705896456,-0.21031093531193457
598,0.5886,841.026,289.254,-0.00610394,493.206,-2.74216,-1.58007,0.280431,-0.0417408,-0.236508,0.542618,-0.00205811,-0.00119994,0.438981,0.3237002041971704,0.7205052539756098,-0.0020559935438294596,-0.04088164816694739,-0.0011992203598686357,-0.21062043275982922
599,0.5896,841.252,289.336,-0.0062169,493.341,-2.74943,-1.58426,0.28089,-0.0418085,-0.236899,0.543515,-0.0020643,-0.00120354,0.439712,0.32430792205147485,0.7220492395624363,-0.002062170798110774,-0.04094657828145731,-0.0012028160362030915,-0.210929019837915
600,0.5906,841.476,289.417,-0.00633029,493.477,-2.75671,-1.58846,0.28135,-0.0418761,-0.23729,0.544411,-0.00207051,-0.00120716,0.440442,0.324917243828883,0.7235928871319233,-0.0020683679727878657,-0.04101140810149284,-0.0012064316754647475,-0.21123748628203864
601,0.5916,841.7,289.498,-0.00644412,493.612,-2.76401,-1.59267,0.281809,-0.0419437,-0.237681,0.545307,-0.00207673,-0.00121078,0.441171,0.32552552043260174,0.7251379184294502,-0.0020745750882349423,-0.04107623353918077,-0.0012100473016377622,-0.21154583213935885
602,0.5926,841.924,289.579,-0.0065584,493.746,-2.77133,-1.59688,0.282267,-0.0420113,-0.238072,0.546202,-0.00208296,-0.0012144,0.441901,0.3261327501659541,0.7266826080119213,-0.0020807921442660415,-0.041141054594817095,-0.0012136629147223577,-0.21185405745701602
603,0.5936,842.147,289.66,-0.00667312,493.881,-2.77866,-1.60111,0.282726,-0.0420788,-0.238462,0.547096,-0.0020892,-0.00121804,0.442629,0.32674158481514315,0.7282269524826046,-0.002087019140694757,-0.04120577538928061,-0.0012172984903725537,-0.21216137444390004
604,0.5946,842.37,289.741,-0.00678828,494.015,-2.786,-1.60534,0.283184,-0.0421462,-0.238852,0.54799,-0.00209545,-0.00122168,0.443357,0.3273493716335456,0.7297726782145761,-0.002093256077334682,-0.04127039594228221,-0.0012209340527893353,-0.21246857160052768
605,0.5956,842.592,289.821,-0.0069039,494.148,-2.79336,-1.60959,0.283641,-0.0422136,-0.239241,0.548883,-0.00210172,-0.00122533,0.444085,0.3279561089252936,0.7313180551243152,-0.002099512933003811,-0.041335012140005345,-0.0012245795897268819,-0.21277486174887883
606,0.5966,842.814,289.901,-0.00701997,494.282,-2.80073,-1.61384,0.284099,-0.0422809,-0.239631,0.549776,-0.002108,-0.00122898,0.444812,0.32856445212313967,0.7328648126719981,-0.0021057797283848823,-0.0413995281227012,-0.0012282251133582944,-0.21308181969210716
607,0.5976,843.036,289.981,-0.00713649,494.415,-2.80812,-1.6181,0.284556,-0.0423482,-0.24002,0.550668,-0.00211429,-0.00123265,0.445538,0.3291717448335749,0.7344112176789999,-0.0021120564632900463,-0.041464039763617455,-0.0012318905990460483,-0.21338787133334336
608,0.5986,843.257,290.061,-0.00725347,494.548,-2.81552,-1.62236,0.285013,-0.0424155,-0.240409,0.551559,-0.00212059,-0.00123631,0.446264,0.32977931514020464,0.7359572667365253,-0.002118343137531231,-0.04152854706304643,-0.0012355460836368515,-0.21369380394364423
609,0.5996,843.477,290.141,-0.00737092,494.68,-2.82294,-1.62664,0.285469,-0.0424827,-0.240798,0.552449,-0.00212691,-0.00123999,0.44699,0.3303858327834215,0.7375029564338076,-0.0021246497296737443,-0.0415929541805804,-0.0012392215300643938,-0.21399961756930364
610,0.6006,843.698,290.22,-0.00748882,494.813,-2.83037,-1.63093,0.285925,-0.0425498,-0.241186,0.553339,-0.00213324,-0.00124367,0.447715,0.3309926270617518,0.7390500224072727,-0.0021309662606491253,-0.041657261135832346,-0.0012428969629664222,-0.214304526561517
611,0.6016,843.917,290.299,-0.0076072,494.945,-2.83782,-1.63522,0.286381,-0.0426169,-0.241574,0.554229,-0.00213958,-0.00124737,0.448439,0.3315996981013696,0.7405984658823512,-0.002137292730268081,-0.041721563776232484,-0.0012465923574112026,-0.21460931727198962
612,0.6026,844.137,290.379,-0.00772604,495.077,-2.84528,-1.63952,0.286836,-0.0426839,-0.241962,0.555117,-0.00214593,-0.00125106,0.449163,0.33220571382212705,0.742144803792474,-0.0021436291383412076,-0.04178576628065156,-0.0012502777506858687,-0.2149139897466058
613,0.6036,844.356,290.457,-0.00784535,495.208,-2.85276,-1.64383,0.287291,-0.0427509,-0.242349,0.556005,-0.00215229,-0.00125477,0.449887,0.33281200534277744,0.7436925154605192,-0.0021499754846784347,-0.04184996448364697,-0.0012539831052819084,-0.2152177592493838
614,0.6046,844.574,290.536,-0.00796513,495.339,-2.86025,-1.64815,0.287746,-0.0428178,-0.242736,0.556893,-0.00215867,-0.00125848,0.45061,0.3334185727888377,0.7452416021069255,-0.0021563417475264357,-0.041914062576917877,-0.0012576884461311666,-0.2155214112161089
615,0.6056,844.792,290.615,-0.0080854,495.47,-2.86776,-1.65248,0.2882,-0.0428847,-0.243123,0.55778,-0.00216506,-0.0012622,0.451332,0.3340240822611338,0.7467903181620248,-0.0021627179481307213,-0.04197815638216973,-0.0012614037606196726,-0.21582494569225885
616,0.6066,845.01,290.693,-0.00820614,495.601,-2.87528,-1.65682,0.288654,-0.0429516,-0.24351,0.558666,-0.00217146,-0.00126593,0.452054,0.3346298666971421,0.7483386601981514,-0.002169104086300222,-0.04204224589968952,-0.00126512904863596,-0.2161283627232935
617,0.6076,845.227,290.771,-0.00832736,495.731,-2.88281,-1.66116,0.289108,-0.0430184,-0.243896,0.559552,-0.00217787,-0.00126966,0.452776,0.3352359262217248,0.7498883746732228,-0.0021755001618435355,-0.04210623534039226,-0.0012688543227570293,-0.21643087878592615
618,0.6086,845.444,290.849,-0.00844907,495.861,-2.89037,-1.66552,0.289562,-0.0430851,-0.244283,0.560436,-0.0021843,-0.0012734,0.453496,0.3358422609598004,0.7514359599283358,-0.0021819161527500963,-0.04217012472376047,-0.001272589570256888,-0.21673406136622275
619,0.6096,845.661,290.927,-0.00857126,495.991,-2.89793,-1.66988,0.290015,-0.0431518,-0.244668,0.561321,-0.00219074,-0.00127715,0.454217,0.3364475345881415,0.7529866668394678,-0.002188342080518546,-0.04223400984584891,-0.0012763347910237366,-0.21703556071024888
620,0.6106,845.877,291.004,-0.00869395,496.12,-2.90551,-1.67425,0.290467,-0.0432184,-0.245054,0.562205,-0.00219719,-0.0012809,0.454937,0.33705174541513516,0.7545369921958021,-0.002194777944956483,-0.04229779493672603,-0.001280079997746042,-0.21733772666203421
621,0.6116,846.092,291.081,-0.00881713,496.249,-2.91311,-1.67863,0.29092,-0.043285,-0.245439,0.563088,-0.00220365,-0.00128467,0.455656,0.3376575670640518,0.756086932557875,-0.0022012237458709505,-0.0423615757796576,-0.0012838451647471105,-0.2176389936396549
622,0.6126,846.307,291.159,-0.0089408,496.378,-2.92072,-1.68302,0.291372,-0.0433516,-0.245824,0.56397,-0.00221013,-0.00128844,0.456375,0.3382623249493506,0.7576364844843377,-0.002207689460992146,-0.042425352374926506,-0.0012876103175534226,-0.21794014465181388
623,0.6136,846.522,291.236,-0.00906497,496.507,-2.92835,-1.68742,0.291824,-0.043418,-0.246209,0.564852,-0.00221662,-0.00129221,0.457093,0.33886735624699993,0.7591874037184938,-0.0022141651120740624,-0.04248893322062142,-0.0012913754561653112,-0.2182411797431495
624,0.6146,846.737,291.312,-0.00918965,496.635,-2.93599,-1.69183,0.292275,-0.0434845,-0.246594,0.565733,-0.00222312,-0.001296,0.457811,0.33947132160861915,0.7607379307280293,-0.0022206506989226327,-0.042552605589432524,-0.0012951605546794864,-0.21854209895828247
625,0.6156,846.951,291.389,-0.00931482,496.763,-2.94365,-1.69624,0.292727,-0.0435509,-0.246978,0.566614,-0.00222963,-0.00129979,0.458529,0.34007689949627884,0.7622898243537661,-0.0022271462213435678,-0.04261617798579442,-0.0012989456388482479,-0.21884212118432844
626,0.6166,847.164,291.466,-0.00944051,496.891,-2.95132,-1.70067,0.293177,-0.0436172,-0.247362,0.567494,-0.00223616,-0.00130359,0.459245,0.34068006980419296,0.7638413219580202,-0.00223366165680583,-0.04267965042905919,-0.0013027406956442888,-0.2191420282239568
627,0.6176,847.378,291.542,-0.0095667,497.019,-2.95901,-1.7051,0.293628,-0.0436835,-0.247745,0.568373,-0.00224269,-0.00130739,0.459962,0.341284852884008,0.7653924200877791,-0.0022401770497224582,-0.04274311866424052,-0.0013065357380189768,-0.21944103956282046
628,0.6186,847.59,291.618,-0.00969341,497.146,-2.96671,-1.70954,0.294078,-0.0437498,-0.248129,0.569252,-0.00224925,-0.00131121,0.460678,0.3418885668932701,0.7669448822321907,-0.002246722332692519,-0.0428065826916173,-0.0013103507397658198,-0.21974071666194284
629,0.6196,847.803,291.694,-0.00982063,497.273,-2.97443,-1.71399,0.294528,-0.043816,-0.248512,0.57013,-0.00225581,-0.00131503,0.461393,0.3424925526349718,0.7684969410929257,-0.0022532675727255924,-0.04286994679846812,-0.0013141657269394313,-0.22003949874703976
630,0.6206,848.015,291.769,-0.00994837,497.4,-2.98216,-1.71845,0.294978,-0.0438821,-0.248895,0.571008,-0.00226239,-0.00131886,0.462108,0.3430968102314198,0.770050363259744,-0.002259832724625599,-0.04293321100407965,-0.001317990686359849,-0.22033816642050918
631,0.6216,848.227,291.845,-0.0100766,497.526,-2.98991,-1.72292,0.295427,-0.0439482,-0.249278,0.571885,-0.00226898,-0.00132269,0.462822,0.34369999610430857,0.7716033783258902,-0.002266407810663007,-0.042996471028065475,-0.0013218156311307627,-0.2206367197261626
632,0.6226,848.438,291.92,-0.0102054,497.652,-2.99768,-1.7274,0.295876,-0.0440143,-0.24966,0.572761,-0.00227558,-0.00132654,0.463536,0.344303452868465,0.7731559828267891,-0.002272992830640863,-0.04305972687070192,-0.0013256605347391481,-0.22093437964256346
633,0.6236,848.649,291.995,-0.0103347,497.778,-3.00546,-1.73188,0.296325,-0.0440803,-0.250042,0.573637,-0.00228219,-0.00133039,0.46425,0.34490718064554615,0.7747099480051205,-0.0022795877843618806,-0.04312288284455834,-0.001329505423544708,-0.2212319258745914
634,0.6246,848.859,292.07,-0.0104646,497.904,-3.01325,-1.73638,0.296773,-0.0441462,-0.250424,0.574512,-0.00228882,-0.00133425,0.464962,0.3455098340467577,0.7762634987889734,-0.0022862026487665554,-0.04318593896885681,-0.0013333602842138248,-0.22152935846566557
635,0.6256,849.069,292.145,-0.0105949,498.029,-3.02106,-1.74088,0.297221,-0.0442121,-0.250805,0.575386,-0.00229546,-0.00133811,0.465675,0.3461127574971794,0.7778166317071333,-0.0022928274463865916,-0.04324899093789358,-0.0013372151300032886,-0.2218258992854768
636,0.6266,849.279,292.22,-0.0107259,498.154,-3.02888,-1.74539,0.297669,-0.044278,-0.251187,0.57626,-0.00230211,-0.00134198,0.466387,0.3467159511178206,0.7793711226568372,-0.0022994621770235923,-0.04331203875194245,-0.0013410799475023216,-0.2221231050220399
637,0.6276,849.488,292.294,-0.0108573,498.279,-3.03672,-1.74992,0.298116,-0.0443438,-0.251568,0.577133,-0.00230878,-0.00134586,0.467098,0.34731806771100304,0.7809251918994409,-0.0023061168174176583,-0.04337498674878082,-0.0013449547365950165,-0.22241941966750212
638,0.6286,849.697,292.369,-0.0109893,498.404,-3.04458,-1.75445,0.298563,-0.0444096,-0.251948,0.578006,-0.00231546,-0.00134975,0.467809,0.34792045351046585,0.7824806184368664,-0.002312781390297558,-0.04343793060377721,-0.001348839497165244,-0.22271484415382115
639,0.6296,849.906,292.443,-0.0111218,498.528,-3.05245,-1.75898,0.29901,-0.0444753,-0.252329,0.578878,-0.00232215,-0.00135365,0.468519,0.348523108636571,0.784035619418038,-0.0023194558954638955,-0.04350077466728641,-0.0013527342290964306,-0.22301093338961742
640,0.6306,850.114,292.517,-0.0112549,498.652,-3.06034,-1.76353,0.299456,-0.044541,-0.252709,0.57975,-0.00232886,-0.00135755,0.469229,0.349124684084376,0.7855919769514359,-0.002326150309455044,-0.04356361460207625,-0.001356628945838212,-0.22330613314342396
641,0.6316,850.322,292.59,-0.0113885,498.776,-3.06824,-1.76809,0.299902,-0.0446066,-0.253089,0.580621,-0.00233557,-0.00136146,0.469939,0.34972652789467085,0.7871479050716912,-0.002332844678526791,-0.04362635477105836,-0.0013605336337854101,-0.22360122074263467
642,0.6326,850.529,292.664,-0.0115227,498.9,-3.07616,-1.77266,0.300348,-0.0446722,-0.253469,0.581491,-0.0023423,-0.00136538,0.470648,0.35032864018717236,0.7887034002914113,-0.0023395589558885543,-0.043689090824420296,-0.0013644482928207857,-0.22389619622986034
643,0.6336,850.737,292.737,-0.0116575,499.023,-3.08409,-1.77723,0.300794,-0.0447377,-0.253848,0.58236,-0.00234905,-0.0013693,0.471356,0.3509310210816501,0.7902584591214661,-0.0023462931411376564,-0.043751727137609664,-0.0013683629365107697,-0.22419028383836714
644,0.6346,850.943,292.81,-0.0117927,499.146,-3.09204,-1.78181,0.301239,-0.0448032,-0.254227,0.583229,-0.0023558,-0.00137324,0.472064,0.3515323191649322,0.7918148698849743,-0.0023530272809312303,-0.04381435934825484,-0.0013722975374096391,-0.22448426000878918
645,0.6356,851.15,292.883,-0.0119286,499.269,-3.1,-1.78641,0.301684,-0.0448686,-0.254606,0.584098,-0.00236257,-0.00137718,0.472771,0.3521338848854063,0.7933726337572768,-0.0023597813280740176,-0.04387689184431853,-0.0013762321228062424,-0.22477812478335357
646,0.6366,851.356,292.956,-0.012065,499.391,-3.10798,-1.79101,0.302128,-0.044934,-0.254985,0.584966,-0.00236936,-0.00138112,0.473478,0.3527343656271553,0.7949299569838812,-0.0023665552821612312,-0.043939420250890815,-0.0013801666927005796,-0.2250718782042711
647,0.6376,851.561,293.029,-0.012202,499.513,-3.11597,-1.79562,0.302573,-0.0449994,-0.255363,0.585833,-0.00237615,-0.00138508,0.474185,0.3533364663773404,0.7964868360661446,-0.0023733291902534592,-0.044001944568238915,-0.0013841212194104502,-0.22536474567887
648,0.6386,851.766,293.101,-0.0123396,499.635,-3.12398,-1.80024,0.303016,-0.0450647,-0.255741,0.5867,-0.00238296,-0.00138904,0.474891,0.3539361272470214,0.7980450655478855,-0.0023801230047486577,-0.04406436920307211,-0.001388075730460514,-0.225657502470484
649,0.6396,851.971,293.174,-0.0124777,499.757,-3.13201,-1.80487,0.30346,-0.0451299,-0.256119,0.587566,-0.00238978,-0.00139301,0.475596,0.3545374083620487,0.7996028469966616,-0.0023869267491090085,-0.04412669417438386,-0.001392040211930401,-0.2259501486209431
650,0.6406,852.176,293.246,-0.0126164,499.879,-3.14005,-1.8095,0.303903,-0.0451951,-0.256497,0.588431,-0.00239662,-0.00139699,0.476301,0.3551376013668881,0.8011601769073975,-0.0023937503991930953,-0.044189015082240046,-0.001396014663701206,-0.22624268417206206
651,0.6416,852.38,293.318,-0.0127557,500.0,-3.14811,-1.81415,0.304346,-0.0452603,-0.256874,0.589296,-0.00240347,-0.00140098,0.477006,0.35573806031613087,0.8027188544912907,-0.002400583978597881,-0.044251331926905446,-0.0013999990856536915,-0.22653433570036174
652,0.6426,852.584,293.39,-0.0128956,500.121,-3.15618,-1.81881,0.304789,-0.0453254,-0.257251,0.59016,-0.00241033,-0.00140497,0.47771,0.35633878532761676,0.8042770766366039,-0.0024074274871185297,-0.04431354914000485,-0.0014039834917084493,-0.22682587729675874
653,0.6436,852.787,293.461,-0.0130361,500.242,-3.16427,-1.82347,0.305232,-0.0453905,-0.257628,0.591024,-0.0024172,-0.00140897,0.478414,0.35693977651923725,0.8058366456676216,-0.002414280924550094,-0.044375762302895305,-0.0014079778677857924,-0.22711730900268956
654,0.6446,852.991,293.533,-0.0131771,500.362,-3.17237,-1.82814,0.305674,-0.0454555,-0.258005,0.591887,-0.00242409,-0.00141298,0.479117,0.357539676468581,0.8073957553518969,-0.0024211542664758223,-0.044437875859633214,-0.0014119822137658167,-0.22740863085957508
655,0.6456,853.193,293.604,-0.0133188,500.482,-3.18049,-1.83283,0.306116,-0.0455204,-0.258381,0.59275,-0.00243099,-0.001417,0.479819,0.3581398416323103,0.8089562111285848,-0.002428037536764127,-0.04449988982911479,-0.001415996529528507,-0.22769907060827732
656,0.6466,853.396,293.675,-0.013461,500.602,-3.18862,-1.83752,0.306557,-0.0455854,-0.258757,0.593612,-0.0024379,-0.00142102,0.480521,0.3587389133880834,0.8105162036427562,-0.002434930735208618,-0.044561995317825676,-0.0014200108291537727,-0.22798940117216215
657,0.6476,853.598,293.746,-0.0136039,500.722,-3.19677,-1.84222,0.306998,-0.0456503,-0.259133,0.594473,-0.00244483,-0.00142506,0.481223,0.35933824939276326,0.8120757293735772,-0.0024418438371847095,-0.04462400123221588,-0.0014240450841607188,-0.2282796225922752
658,0.6486,853.8,293.817,-0.0137473,500.842,-3.20494,-1.84693,0.307439,-0.0457151,-0.259508,0.595334,-0.00245177,-0.0014291,0.481924,0.35993784976290955,0.813636598434273,-0.0024487668667655393,-0.04468590759114832,-0.00142807932286948,-0.22856896347899613
659,0.6496,854.001,293.887,-0.0138914,500.961,-3.21312,-1.85165,0.30788,-0.0457799,-0.259884,0.596194,-0.00245873,-0.00143314,0.482625,0.36053771461513295,0.8151969967840444,-0.002455709799186745,-0.04474780993867866,-0.001432113545279834,-0.2288589670246448
660,0.6506,854.202,293.958,-0.014036,501.08,-3.22132,-1.85638,0.30832,-0.0458446,-0.260259,0.597053,-0.00246569,-0.0014372,0.483325,0.3611364829289325,0.8167569208957679,-0.0024626526832852713,-0.04480961275603301,-0.0014361677226688574,-0.22914809069793374
661,0.6516,854.403,294.028,-0.0141813,501.198,-3.22953,-1.86112,0.30876,-0.0459093,-0.260633,0.597912,-0.00247268,-0.00144126,0.484025,0.3617355147587593,0.8183181855579875,-0.0024696254449732002,-0.04487141157487429,-0.0014402218835979363,-0.22943633540689223
662,0.6526,854.603,294.098,-0.0143272,501.317,-3.23776,-1.86586,0.3092,-0.045974,-0.261008,0.598771,-0.00247967,-0.00144533,0.484724,0.3623348102205861,0.8198807919227309,-0.0024765981579216723,-0.04493320639546139,-0.0014442860136244517,-0.22972524260762883
663,0.6536,854.803,294.168,-0.0144737,501.435,-3.24601,-1.87062,0.309639,-0.0460386,-0.261382,0.599628,-0.00248668,-0.00144941,0.485423,0.36293300649674864,0.8214410982571758,-0.0024835907724594097,-0.04499490171754794,-0.001448360112626279,-0.23001327150213302
664,0.6546,855.003,294.238,-0.0146208,501.553,-3.25427,-1.87538,0.310078,-0.0461032,-0.261756,0.600486,-0.0024937,-0.0014535,0.486121,0.36353146543872716,0.8230045653509497,-0.0024905933130733304,-0.045056593054245364,-0.0014524441804815158,-0.2303011926939722
665,0.6556,855.202,294.307,-0.0147686,501.671,-3.26255,-1.88016,0.310517,-0.0461677,-0.26213,0.601342,-0.00250073,-0.00145759,0.486819,0.3641301871618574,0.8245657253400389,-0.002497605779553491,-0.04511818491763442,-0.001456528231632892,-0.23058900622341982
666,0.6566,855.401,294.376,-0.0149169,501.788,-3.27084,-1.88494,0.310955,-0.0462322,-0.262503,0.602198,-0.00250778,-0.0014617,0.487516,0.3647278070530364,0.826128222254201,-0.0025046381466435896,-0.045179772808476404,-0.001460632236868209,-0.2308759430070615
667,0.6576,855.6,294.446,-0.0150659,501.906,-3.27915,-1.88973,0.311393,-0.0462966,-0.262877,0.603054,-0.00251484,-0.00146581,0.488213,0.3653256887590608,0.827692057238334,-0.0025116804390389325,-0.04524126125115835,-0.0014647362252359075,-0.2311635416200839
668,0.6586,855.798,294.515,-0.0152156,502.023,-3.28747,-1.89453,0.311831,-0.046361,-0.26325,0.603908,-0.00252192,-0.00146993,0.488909,0.365923832394631,0.8292535729275117,-0.00251874263134122,-0.04530274573411219,-0.0014688501820480093,-0.231450264141985
669,0.6596,855.996,294.584,-0.0153659,502.14,-3.29581,-1.89934,0.312269,-0.0464253,-0.263622,0.604763,-0.00252901,-0.00147405,0.489605,0.366522238074497,0.8308182535380073,-0.0025258147483853133,-0.04536413079401069,-0.0014729641219104472,-0.23173611147282425
670,0.6606,856.194,294.652,-0.0155168,502.256,-3.30417,-1.90416,0.312706,-0.0464896,-0.263995,0.605616,-0.00253611,-0.00147819,0.490301,0.3671195387932371,0.8323806077576179,-0.0025328967899592714,-0.045425511906976745,-0.0014770980152818414,-0.23202262046599587
671,0.6616,856.391,294.721,-0.0156683,502.372,-3.31254,-1.90899,0.313143,-0.0465539,-0.264367,0.60647,-0.00254323,-0.00148233,0.490996,0.36771710058943263,0.8339461291791432,-0.0025399987304511873,-0.045486889073264036,-0.0014812318915389255,-0.23230825491988016
672,0.6626,856.588,294.789,-0.0158206,502.488,-3.32093,-1.91383,0.31358,-0.0466181,-0.264739,0.607322,-0.00255036,-0.00148648,0.49169,0.3683149235771992,0.8355093171046999,-0.002547110594906421,-0.045548166847947935,-0.0014853757358280761,-0.23259378313750878
673,0.6636,856.785,294.857,-0.0159734,502.604,-3.32933,-1.91868,0.314016,-0.0466823,-0.265111,0.608174,-0.0025575,-0.00149064,0.492384,0.3689116389583793,0.8370738374338922,-0.0025542323831120317,-0.04560944068872497,-0.0014895295480250592,-0.23287920515839422
674,0.6646,856.981,294.925,-0.0161269,502.72,-3.33776,-1.92354,0.314452,-0.0467464,-0.265482,0.609025,-0.00256466,-0.0014948,0.493078,0.36950861456419015,0.8386378526636404,-0.0025613740692408404,-0.04567061516291393,-0.001493683342942309,-0.23316375418617197
675,0.6656,857.177,294.993,-0.0162811,502.835,-3.34619,-1.9284,0.314888,-0.0468105,-0.265853,0.609876,-0.00257183,-0.00149897,0.493771,0.37010585050811495,0.8402031994368402,-0.0025685256785502597,-0.04573178571594483,-0.001497847105601302,-0.2334481976658409
676,0.6666,857.373,295.061,-0.016436,502.95,-3.35464,-1.93328,0.315324,-0.0468745,-0.266224,0.610726,-0.00257901,-0.00150316,0.494464,0.37070334690368556,0.84176803711816,-0.0025756872108259055,-0.04579285692735946,-0.001502030820857092,-0.23373253563655194
677,0.6676,857.568,295.129,-0.0165915,503.065,-3.36311,-1.93817,0.315759,-0.0469385,-0.266595,0.611576,-0.00258621,-0.00150735,0.495156,0.3712997325640657,0.8433342054769666,-0.0025828686400248824,-0.045853924230341514,-0.0015062145185830156,-0.23401676813744166
678,0.6686,857.763,295.196,-0.0167476,503.18,-3.3716,-1.94306,0.316194,-0.0470025,-0.266965,0.612425,-0.00259342,-0.00151154,0.495847,0.3718963777086415,0.8448998607440334,-0.0025900599916170997,-0.045914987625141346,-0.0015103981987794057,-0.2343001295081446
679,0.6696,857.958,295.263,-0.0169045,503.294,-3.3801,-1.94796,0.316628,-0.0470664,-0.267335,0.613274,-0.00260065,-0.00151575,0.496539,0.3724919099577175,0.8464668458168447,-0.002597271239414667,-0.045975951709608776,-0.0015146018311543719,-0.234583386054534
680,0.6706,858.153,295.33,-0.017062,503.408,-3.38862,-1.95288,0.317063,-0.0471302,-0.267705,0.614121,-0.00260789,-0.00151996,0.497229,0.37308907381227097,0.8480314657582575,-0.002604492409030268,-0.046036816502282196,-0.00151880544583205,-0.2348665378153878
681,0.6716,858.347,295.397,-0.0172202,503.522,-3.39715,-1.9578,0.317497,-0.047194,-0.268075,0.614969,-0.00261514,-0.00152418,0.49792,0.3736851238037977,0.8495992610924916,-0.0026117235002475203,-0.046097677411905735,-0.0015230190275823396,-0.23514958482946935
682,0.6726,858.541,295.464,-0.017379,503.636,-3.4057,-1.96273,0.31793,-0.0472578,-0.268445,0.615816,-0.00262241,-0.00152841,0.498609,0.3742800582564185,0.8511665353135716,-0.0026189744866602638,-0.046158534438727084,-0.0015272425762790087,-0.23543252713552787
683,0.6736,858.734,295.53,-0.0175386,503.75,-3.41426,-1.96767,0.318364,-0.0473216,-0.268814,0.616662,-0.00262969,-0.00153265,0.499299,0.374876625247375,0.8527332848440525,-0.0026262353940963434,-0.04621938758299393,-0.0015314760917954917,-0.23571460048728088
684,0.6746,858.927,295.597,-0.0176988,503.863,-3.42285,-1.97262,0.318797,-0.0473853,-0.269183,0.617507,-0.00263698,-0.0015369,0.499988,0.3754720757318335,0.8542995061050351,-0.0026335062223380445,-0.04628014147297288,-0.001535719574004668,-0.2359965697731684
685,0.6756,859.12,295.663,-0.0178598,503.976,-3.43144,-1.97758,0.31923,-0.0474489,-0.269551,0.618352,-0.00264429,-0.00154115,0.500676,0.3760677841021802,0.8558670513823012,-0.0026407969447599378,-0.04634079612713682,-0.0015399630381791596,-0.23627767130963684
686,0.6766,859.313,295.729,-0.0180214,504.089,-3.44006,-1.98255,0.319662,-0.0475125,-0.26992,0.619197,-0.00265162,-0.00154541,0.501364,0.3766623738070416,0.8574359217951177,-0.0026481075609249283,-0.04640144692378734,-0.0015442164688768134,-0.23655943286072034
687,0.6776,859.505,295.795,-0.0181838,504.201,-3.44869,-1.98753,0.320094,-0.0475761,-0.270288,0.620041,-0.00265895,-0.00154968,0.502052,0.37725722043014565,0.8590042594585081,-0.002655418123503228,-0.046462093863169907,-0.001548479865970065,-0.23684032730168048
688,0.6786,859.697,295.861,-0.0183468,504.313,-3.45734,-1.99252,0.320526,-0.0476396,-0.270656,0.620884,-0.0026663,-0.00155396,0.502739,0.37785232408250535,0.8605720607846443,-0.002662748579240537,-0.04652264159779862,-0.0015527532293312385,-0.23712111839250394
689,0.6796,859.889,295.926,-0.0185105,504.426,-3.466,-1.99752,0.320958,-0.0477031,-0.271024,0.621727,-0.00267367,-0.00155825,0.503425,0.3784476848751812,0.8621411843245332,-0.0026700989276975395,-0.0465831854877683,-0.0015570365588321033,-0.23740180617121653
690,0.6806,860.08,295.991,-0.018675,504.537,-3.47468,-2.00253,0.321389,-0.0477665,-0.271391,0.622569,-0.00268105,-0.00156254,0.504111,0.37904192387666846,0.8637097674825716,-0.0026774591952080096,-0.0466436301976908,-0.001561319869957556,-0.23768162835783968
691,0.6816,860.271,296.057,-0.0188402,504.649,-3.48338,-2.00754,0.321821,-0.0478299,-0.271758,0.623411,-0.00268844,-0.00156685,0.504797,0.37963779868747527,0.8652796719438196,-0.002684829381551679,-0.0467040710755402,-0.0015656231313954105,-0.2379613478685626
692,0.6826,860.462,296.122,-0.019006,504.76,-3.49209,-2.01257,0.322251,-0.0478933,-0.272125,0.624252,-0.00269585,-0.00157116,0.505482,0.3802311705067092,0.8668490319713176,-0.002692219459585643,-0.04676450812155941,-0.0015699263742862124,-0.23824096474106027
693,0.6836,860.652,296.187,-0.0191726,504.872,-3.50082,-2.01761,0.322682,-0.0479566,-0.272492,0.625092,-0.00270327,-0.00157548,0.506167,0.3808261783561784,0.8684178439669654,-0.002699619455863278,-0.046824846018480804,-0.0015742395828877154,-0.2385204790129941
694,0.6846,860.842,296.251,-0.01934,504.983,-3.50956,-2.02265,0.323112,-0.0480198,-0.272858,0.625932,-0.00271071,-0.00157981,0.506851,0.3814200612885512,0.8699879743183219,-0.0027070393430924655,-0.04688508478464737,-0.0015785627570706895,-0.2387991295215217
695,0.6856,861.032,296.316,-0.019508,505.093,-3.51833,-2.02771,0.323542,-0.0480831,-0.273225,0.626772,-0.00271816,-0.00158414,0.507535,0.3820141996454973,0.87155942413327,-0.002714469147973353,-0.04694541504930749,-0.0015828859125343042,-0.23907843898456582
696,0.6866,861.222,296.38,-0.0196768,505.204,-3.5271,-2.03277,0.323972,-0.0481463,-0.273591,0.62761,-0.00272562,-0.00158849,0.508218,0.3826085935368728,0.873128448259983,-0.0027219088702833405,-0.04700564619575209,-0.0015872290175343862,-0.2393568853171103
697,0.6876,861.411,296.445,-0.0198463,505.314,-3.5359,-2.03785,0.324401,-0.0482094,-0.273956,0.628449,-0.0027331,-0.00159284,0.508901,0.38320185987002997,0.8747006624797122,-0.002729368482505934,-0.04706577824229108,-0.001591572103641914,-0.23963446939179422
698,0.6886,861.6,296.509,-0.0200166,505.424,-3.54471,-2.04293,0.32483,-0.0482725,-0.274322,0.629286,-0.00274059,-0.0015972,0.509584,0.3837953807690442,0.8762704437960436,-0.002736838011562548,-0.047125906494617675,-0.0015959251548978148,-0.23991271225444688
699,0.6896,861.789,296.573,-0.0201876,505.534,-3.55354,-2.04802,0.325259,-0.0483356,-0.274687,0.630124,-0.0027481,-0.00160157,0.510266,0.3843891563431483,0.8778434174118388,-0.002744327429786364,-0.04718603095297125,-0.0016002881711717487,-0.2401900934893192
700,0.6906,861.977,296.636,-0.0203594,505.644,-3.56238,-2.05313,0.325687,-0.0483986,-0.275052,0.63096,-0.00275562,-0.00160595,0.510947,0.38498180171912666,0.8794139509003231,-0.0027518267642465677,-0.04724605634220158,-0.0016046611523327092,-0.24046737349851555
701,0.6916,862.165,296.7,-0.0205319,505.753,-3.57125,-2.05824,0.326116,-0.0484616,-0.275417,0.631796,-0.00276315,-0.00161033,0.511628,0.385576086377009,0.880985797903777,-0.002759336014718672,-0.047306077949951564,-0.0016090341143401021,-0.24074455231897662
702,0.6926,862.353,296.764,-0.0207051,505.862,-3.58012,-2.06336,0.326544,-0.0485245,-0.275781,0.632632,-0.0027707,-0.00161473,0.512309,0.3861692398677705,0.8825589595207572,-0.0027668651533091504,-0.047366000513064166,-0.0016134270249255067,-0.24102087100887992
703,0.6936,862.541,296.827,-0.0208791,505.971,-3.58902,-2.06849,0.326971,-0.0485874,-0.276146,0.633466,-0.00277827,-0.00161913,0.512989,0.38676126052060833,0.8841296685876354,-0.0027744141795669197,-0.047425919307166,-0.0016178199161822615,-0.24129784783961505
704,0.6946,862.728,296.89,-0.0210539,506.08,-3.59793,-2.07364,0.327399,-0.0486503,-0.27651,0.634301,-0.00278585,-0.00162354,0.513669,0.38735492137447136,0.8857035738749164,-0.002781973120858927,-0.047485834332494314,-0.001622222771888171,-0.24157396516659924
705,0.6956,862.915,296.953,-0.0212295,506.188,-3.60686,-2.07879,0.327826,-0.0487131,-0.276874,0.635135,-0.00279344,-0.00162796,0.514348,0.38794744842142004,0.8872769066440978,-0.002789541976959131,-0.04754565034385583,-0.0016266355919111186,-0.2418499820051664
706,0.6966,863.101,297.016,-0.0214058,506.297,-3.6158,-2.08395,0.328253,-0.0487759,-0.277237,0.635968,-0.00280105,-0.00163238,0.515027,0.38854022853144254,0.8888496632695235,-0.0027971307196694717,-0.04760546259888976,-0.0016310483924295571,-0.24212514051740708
707,0.6976,863.288,297.078,-0.0215829,506.405,-3.62476,-2.08912,0.328679,-0.0488386,-0.2776,0.6368,-0.00280867,-0.00163682,0.515705,0.3891318726800532,0.8904218401242439,-0.002804729376582493,-0.04766517586435437,-0.0016354811407339742,-0.24240019916523436
708,0.6986,863.474,297.141,-0.0217607,506.513,-3.63374,-2.0943,0.329105,-0.0489013,-0.277963,0.637633,-0.00281631,-0.00164127,0.516383,0.3897237689227633,0.891997217570679,-0.002812347919347147,-0.04772488538591457,-0.0016399238529578586,-0.24267515798489236
709,0.6996,863.66,297.203,-0.0219394,506.62,-3.64274,-2.09949,0.329531,-0.048964,-0.278326,0.638464,-0.00282396,-0.00164572,0.517061,0.3903159173669881,0.893570120709219,-0.0028199763757067453,-0.04778459116380518,-0.0016443665454116685,-0.2429500170126122
710,0.7006,863.845,297.265,-0.0221188,506.728,-3.65175,-2.10469,0.329957,-0.0490266,-0.278689,0.639295,-0.00283162,-0.00165018,0.517738,0.390908318120188,0.8951443314735099,-0.002827614745432694,-0.047844197982685466,-0.001648819201607532,-0.2432247762846117
711,0.7016,864.031,297.327,-0.022299,506.835,-3.66078,-2.1099,0.330382,-0.0490892,-0.279051,0.640126,-0.0028393,-0.00165465,0.518414,0.39149957978959415,0.8967198509506413,-0.002835272999943683,-0.04790380107029568,-0.0016532818214116674,-0.2434986793361532
712,0.7026,864.216,297.389,-0.02248,506.942,-3.66982,-2.11512,0.330807,-0.0491517,-0.279413,0.640956,-0.002847,-0.00165913,0.519091,0.39209109279861565,0.8982947819328737,-0.002842951138780747,-0.04796330522320458,-0.0016577544046905146,-0.2437724832527346
713,0.7036,864.4,297.451,-0.0226618,507.049,-3.67889,-2.12035,0.331232,-0.0492142,-0.279775,0.641785,-0.00285471,-0.00166361,0.519766,0.3926828572540946,0.899869120780386,-0.0028506391899899564,-0.04802280565722028,-0.0016622269679322788,-0.24404618807023615
714,0.7046,864.585,297.512,-0.0228444,507.155,-3.68797,-2.12559,0.331657,-0.0492767,-0.280137,0.642614,-0.00286243,-0.00166811,0.520441,0.3932748732629181,0.9014447652959272,-0.0028583371533412727,-0.04808230237257494,-0.001666719477802725,-0.2443197938245254
715,0.7056,864.769,297.574,-0.0230278,507.261,-3.69706,-2.13084,0.332081,-0.0493391,-0.280498,0.643442,-0.00287017,-0.00167261,0.521116,0.39386574706557576,0.9030198135415803,-0.0028660549999435236,-0.04814170018367592,-0.0016712119674570092,-0.24459254514437934
716,0.7066,864.953,297.635,-0.023212,507.368,-3.70618,-2.13609,0.332505,-0.0494015,-0.280859,0.64427,-0.00287792,-0.00167712,0.521791,0.3944568714518457,0.9045961664672437,-0.002873782758072263,-0.04820109428846908,-0.0016757144201379193,-0.24486519801877737
717,0.7076,865.137,297.696,-0.0233971,507.473,-3.71531,-2.14136,0.332929,-0.0494638,-0.28122,0.645097,-0.00288569,-0.00168165,0.522465,0.39504824652799786,0.906171918980768,-0.002881530398680554,-0.04826038951322953,-0.0016802368189083872,-0.24513775248325176
718,0.7086,865.32,297.757,-0.0235829,507.579,-3.72445,-2.14664,0.333352,-0.0495261,-0.281581,0.645923,-0.00289347,-0.00168618,0.523138,0.3956384767611727,0.9077470674325996,-0.0028892879501971613,-0.04831968104401252,-0.0016847591971924647,-0.24541020857332219
719,0.7096,865.503,297.818,-0.0237696,507.685,-3.73362,-2.15193,0.333775,-0.0495884,-0.281941,0.646749,-0.00290127,-0.00169071,0.523811,0.3962289567145483,0.9093235174945433,-0.0028970653834191618,-0.04837896888104809,-0.0016892815549901519,-0.24568181200668449
720,0.7106,865.686,297.878,-0.0239571,507.79,-3.7428,-2.15723,0.334198,-0.0496506,-0.282302,0.647575,-0.00290908,-0.00169526,0.524484,0.3968196864937785,0.9109012702421733,-0.0029048527269288638,-0.04843815786838712,-0.001693823858425314,-0.2459540717267138
721,0.7116,865.869,297.939,-0.0241454,507.895,-3.752,-2.16254,0.334621,-0.0497128,-0.282661,0.6484,-0.00291691,-0.00169981,0.525156,0.39741066620456245,0.9124784142725819,-0.0029126599513666918,-0.04849734317428567,-0.0016983661411930084,-0.24622472562968145
722,0.7126,866.051,297.999,-0.0243345,508.0,-3.76121,-2.16785,0.335043,-0.0497749,-0.283021,0.649224,-0.00292475,-0.00170438,0.525827,0.398000497951446,0.9140549459277822,-0.0029204770854694972,-0.04855642965462026,-0.0017029283692350239,-0.24649603588967783
723,0.7136,866.233,298.059,-0.0245245,508.104,-3.77045,-2.17318,0.335465,-0.049837,-0.283381,0.650048,-0.00293261,-0.00170895,0.526499,0.39859057865985403,0.9156327771804269,-0.002928314099720053,-0.04861551246579843,-0.001707490576427717,-0.24676724849555942
724,0.7146,866.415,298.119,-0.0247153,508.209,-3.7797,-2.17852,0.335887,-0.0498991,-0.28374,0.650871,-0.00294048,-0.00171353,0.52717,0.3991809084348703,0.9172099918908754,-0.0029361610230104196,-0.04867459160804799,-0.001712062745650611,-0.24703761052046236
725,0.7156,866.596,298.179,-0.024907,508.313,-3.78896,-2.18387,0.336309,-0.0499611,-0.284099,0.651694,-0.00294836,-0.00171812,0.52784,0.39977148738162316,0.9187885051833238,-0.002944017855105563,-0.04873357195495864,-0.0017166448767667042,-0.24730787550281852
726,0.7166,866.777,298.238,-0.0250995,508.417,-3.79825,-2.18923,0.33673,-0.0500231,-0.284458,0.652516,-0.00295627,-0.00172272,0.52851,0.4003609152436698,0.9203663977595868,-0.0029519045367324415,-0.048792548645201106,-0.00172123696963844,-0.24757804347745993
727,0.7176,866.958,298.298,-0.0252929,508.521,-3.80755,-2.19459,0.337151,-0.0500851,-0.284816,0.653338,-0.00296418,-0.00172733,0.529179,0.4009505913070892,0.9219455878967722,-0.0029597911559759993,-0.0488515216790022,-0.0017258390241282617,-0.2478473623269445
728,0.7186,867.139,298.357,-0.0254871,508.625,-3.81687,-2.19997,0.337572,-0.050147,-0.285175,0.654159,-0.00297211,-0.00173194,0.529848,0.40154051567639604,0.9235241531367984,-0.0029676976534828148,-0.04891039594763291,-0.0017304410574026097,-0.24811733666057667
729,0.7196,867.32,298.416,-0.0256822,508.728,-3.8262,-2.20536,0.337992,-0.0502089,-0.285533,0.65498,-0.00298006,-0.00173657,0.530517,0.40212928632616163,0.925104014911041,-0.0029756240287790447,-0.048969266572059134,-0.0017350630347606755,-0.2483864624776566
730,0.7206,867.5,298.475,-0.0258782,508.831,-3.83556,-2.21076,0.338412,-0.0502707,-0.28589,0.6558,-0.00298802,-0.0017412,0.531185,0.402718304311537,0.9266832476001812,-0.002983560311225375,-0.049028038455315004,-0.0017396849907189704,-0.24865474062005433
731,0.7216,867.68,298.534,-0.026075,508.934,-3.84493,-2.21617,0.338832,-0.0503325,-0.286248,0.656619,-0.002996,-0.00174584,0.531853,0.403307569736425,0.9282618475283975,-0.0029915164706689756,-0.04908680670658083,-0.0017443169078344978,-0.2489236740809505
732,0.7226,867.86,298.593,-0.0262727,509.037,-3.85432,-2.22158,0.339252,-0.0503943,-0.286605,0.657438,-0.00300399,-0.00175049,0.53252,0.40389708270477165,0.9298417408595314,-0.002999482536627851,-0.049145571326080884,-0.0017489587859685907,-0.24919176047303537
733,0.7236,868.039,298.652,-0.0264713,509.139,-3.86372,-2.22701,0.339671,-0.050456,-0.286963,0.658257,-0.003012,-0.00175515,0.533187,0.40448543883442656,0.9314229286533138,-0.003007468478789077,-0.04920423723446821,-0.001753610624981805,-0.24946050171523348
734,0.7246,868.218,298.71,-0.0266708,509.242,-3.87314,-2.23245,0.34009,-0.0505177,-0.28732,0.659075,-0.00302002,-0.00175982,0.533854,0.4050740415369529,0.9330034789658979,-0.003015464326828421,-0.04926289952328067,-0.001758272424734919,-0.24972839649405787
735,0.7256,868.397,298.768,-0.0268711,509.344,-3.88258,-2.2379,0.340509,-0.0505793,-0.287676,0.659892,-0.00302805,-0.0017645,0.53452,0.40566289091568697,0.9345833881132188,-0.0030234700805067405,-0.049321463124892495,-0.0017629441850880445,-0.24999544564733622
736,0.7266,868.576,298.826,-0.0270724,509.446,-3.89204,-2.24336,0.340927,-0.050641,-0.288033,0.660709,-0.00303611,-0.00176919,0.535185,0.40625058082272325,0.9361645885737426,-0.0030315056789543826,-0.04938011818109067,-0.0017676259059011823,-0.25026314948526185
737,0.7276,868.755,298.884,-0.0272745,509.548,-3.90152,-2.24883,0.341345,-0.0507025,-0.288389,0.661525,-0.00304417,-0.00177388,0.53585,0.40683851643548974,0.937745143656791,-0.0030395412126353882,-0.049438579506118296,-0.0017723076047569952,-0.25053000830035765
738,0.7286,868.933,298.942,-0.0274775,509.649,-3.91101,-2.25431,0.341763,-0.0507641,-0.288745,0.662341,-0.00305226,-0.00177858,0.536515,0.4074266978567127,0.9393269889991409,-0.003047606590122487,-0.04949713228617658,-0.001776999263885859,-0.25079677213062357
739,0.7296,869.111,299.0,-0.0276815,509.75,-3.92052,-2.25979,0.342181,-0.0508256,-0.289101,0.663156,-0.00306035,-0.0017833,0.537179,0.4080151251891615,0.9409081847449192,-0.0030556719023608903,-0.049555586415058084,-0.0017817108653299663,-0.2510634410098682
740,0.7306,869.289,299.057,-0.0278863,509.851,-3.93005,-2.26529,0.342599,-0.050887,-0.289456,0.663971,-0.00306847,-0.00178802,0.537843,0.40860379853564877,0.9424906696905078,-0.0030637670574387155,-0.049613941910520154,-0.0017864224445354182,-0.25132926630152863
741,0.7316,869.466,299.114,-0.0280921,509.952,-3.93959,-2.2708,0.343016,-0.0509485,-0.289811,0.664785,-0.0030766,-0.00179275,0.538507,0.40919130880701626,0.94407250081356,-0.0030718721160654106,-0.049672388855830696,-0.001791143983590704,-0.251594997241959
742,0.7326,869.643,299.172,-0.0282988,510.053,-3.94916,-2.27632,0.343433,-0.0510099,-0.290166,0.665599,-0.00308474,-0.00179749,0.53917,0.40977906412125464,0.9456556200713462,-0.003079987077998503,-0.04973073717984311,-0.001795875482354603,-0.25186063386464785
743,0.7336,869.82,299.229,-0.0285064,510.154,-3.95874,-2.28185,0.343849,-0.0510712,-0.290521,0.666412,-0.0030929,-0.00180224,0.539832,0.4103656542142091,0.9472380812737797,-0.003088121912113717,-0.04978898690028177,-0.001800616940685118,-0.2521261762030721
744,0.7346,869.997,299.285,-0.0287149,510.254,-3.96834,-2.28739,0.344266,-0.0511325,-0.290876,0.667224,-0.00310107,-0.00180699,0.540494,0.4109538993325996,0.9488198807194366,-0.0030962666488864032,-0.049847233050122064,-0.0018053583764937597,-0.2523916242906967
745,0.7356,870.174,299.342,-0.0289244,510.354,-3.97795,-2.29294,0.344682,-0.0511938,-0.29123,0.668037,-0.00310926,-0.00181176,0.541156,0.4115409782586721,0.9504049155117997,-0.003104431257028417,-0.04990547562958281,-0.0018101197535783653,-0.25265623081757915
746,0.7366,870.35,299.399,-0.0291348,510.454,-3.98759,-2.2985,0.345097,-0.0512551,-0.291584,0.668848,-0.00311747,-0.00181653,0.541817,0.4121268893327883,0.9519873354828454,-0.0031126157360504836,-0.04996371463888283,-0.0018148811079512495,-0.252920743690329
747,0.7376,870.526,299.455,-0.0293462,510.554,-3.99724,-2.30408,0.345513,-0.0513163,-0.291938,0.669659,-0.00312569,-0.00182132,0.542478,0.41271445632421133,0.9535710393170238,-0.003120810116670203,-0.05002185508043122,-0.001819662403219624,-0.2531851629420937
748,0.7386,870.702,299.511,-0.0295584,510.653,-4.00691,-2.30966,0.345928,-0.0513775,-0.292292,0.670469,-0.00313393,-0.00182611,0.543139,0.41330085449278986,0.9551540729009198,-0.0031290243673520735,-0.050079991963893566,-0.0018244436755855409,-0.25344948860600935
749,0.7396,870.878,299.567,-0.0297717,510.753,-4.0166,-2.31525,0.346343,-0.0514386,-0.292645,0.671279,-0.00314218,-0.00183091,0.543799,0.4138874960671115,0.9567383892614729,-0.0031372485189763433,-0.05013803030329522,-0.0018292349067569047,-0.2537129744285477
750,0.7406,871.053,299.623,-0.0299859,510.852,-4.0263,-2.32085,0.346758,-0.0514997,-0.292999,0.672089,-0.00315044,-0.00183572,0.544458,0.4144743811482108,0.9583239894381537,-0.003145482571296876,-0.050196065096662745,-0.0018340360965901636,-0.25397711328026484
751,0.7416,871.228,299.679,-0.030201,510.951,-4.03602,-2.32646,0.347173,-0.0515608,-0.293352,0.672898,-0.00315873,-0.00184054,0.545117,0.4150615098371637,0.9599089145613795,-0.0031537464609925348,-0.05025409634421263,-0.0018388472449413218,-0.25424041288416266
752,0.7426,871.403,299.735,-0.0304171,511.049,-4.04576,-2.33209,0.347587,-0.0516218,-0.293704,0.673706,-0.00316703,-0.00184537,0.545776,0.4156474665869141,0.9614931609136801,-0.003162020250560671,-0.050312029077369314,-0.0018436683516660501,-0.25450287406295
753,0.7436,871.578,299.79,-0.0306342,511.148,-4.05552,-2.33772,0.348001,-0.0516828,-0.294057,0.674514,-0.00317534,-0.00185021,0.546434,0.4162336659729813,0.9630786878543212,-0.0031703039397535937,-0.05036995827673707,-0.0018484994166201307,-0.254765988106045
754,0.7446,871.752,299.846,-0.0308523,511.246,-4.0653,-2.34336,0.348415,-0.0517438,-0.294409,0.675321,-0.00318367,-0.00185506,0.547092,0.41682010809583736,0.9646635317539223,-0.0031786074965374223,-0.05042788394253139,-0.0018533404396584574,-0.25502826431491077
755,0.7456,871.926,299.901,-0.0310713,511.344,-4.0751,-2.34902,0.348828,-0.0518047,-0.294761,0.676128,-0.00319201,-0.00185992,0.54775,0.41740537564991187,0.9662496551387534,-0.0031869209522836783,-0.05048571112354383,-0.001858191420636035,-0.25529044821879776
756,0.7466,872.1,299.956,-0.0312913,511.442,-4.08491,-2.35468,0.349241,-0.0518656,-0.295113,0.676934,-0.00320038,-0.00186478,0.548407,0.4179908849694074,0.9678350912057008,-0.003195264242838669,-0.05054353478298801,-0.0018630423780378047,-0.25555253985019144
757,0.7476,872.274,300.011,-0.0315123,511.54,-4.09474,-2.36036,0.349654,-0.0519264,-0.295465,0.67774,-0.00320875,-0.00186966,0.549063,0.4185766361541934,0.9694218056492343,-0.0032036074635605205,-0.05060125998120946,-0.0018679132745060834,-0.25581453924156605
758,0.7486,872.448,300.065,-0.0317343,511.637,-4.10459,-2.36604,0.350067,-0.0519872,-0.295816,0.678545,-0.00321715,-0.00187454,0.549719,0.41916262930418124,0.9710078284913273,-0.0032119805180909067,-0.050658981669845504,-0.001872784147204376,-0.25607570250145884
759,0.7496,872.621,300.12,-0.0319573,511.735,-4.11446,-2.37174,0.350479,-0.052048,-0.296167,0.67935,-0.00322555,-0.00187943,0.550375,0.41974744477116843,0.9725951285958374,-0.003220353502287998,-0.05071669984910954,-0.001877664977356197,-0.25633677410913336
760,0.7506,872.794,300.174,-0.0321813,511.832,-4.12434,-2.37745,0.350891,-0.0521088,-0.296518,0.680154,-0.00323398,-0.00188434,0.551031,0.42033250123176913,0.9741817328086548,-0.0032287563192899826,-0.05077441451921494,-0.0018825657459897727,-0.2565977540967538
761,0.7516,872.967,300.229,-0.0324063,511.929,-4.13424,-2.38316,0.351303,-0.0521695,-0.296869,0.680957,-0.00324242,-0.00188925,0.551685,0.42091779878529345,0.9757676373955748,-0.003237169033085019,-0.05083203076358289,-0.0018874664905605965,-0.25685864249647317
762,0.7526,873.139,300.283,-0.0326323,512.026,-4.14417,-2.38889,0.351715,-0.0522302,-0.297219,0.68176,-0.00325087,-0.00189417,0.55234,0.4215033375310919,0.9773548159753176,-0.0032455916434210863,-0.05088964351075098,-0.0018923771921451893,-0.25711869645950114
763,0.7536,873.312,300.337,-0.0328594,512.122,-4.15411,-2.39463,0.352126,-0.0522908,-0.29757,0.682563,-0.00325934,-0.0018991,0.552994,0.42208769548015,0.9789432695713105,-0.0032540341175059107,-0.05094715785565196,-0.0018972978505961136,-0.2573794020405378
764,0.7546,873.484,300.39,-0.0330874,512.219,-4.16406,-2.40038,0.352537,-0.0523514,-0.29792,0.683365,-0.00326783,-0.00190404,0.553648,0.4226722936496867,0.9805310186757936,-0.0032624964548335633,-0.0510046687152893,-0.0019022284657661537,-0.25763927376961815
765,0.7556,873.656,300.444,-0.0333165,512.315,-4.17404,-2.40614,0.352948,-0.052412,-0.29827,0.684167,-0.00327634,-0.00190899,0.554301,0.42325713213845373,0.9821200416658182,-0.0032709786548970055,-0.05106217608987407,-0.001907169037507317,-0.2578990545595087
766,0.7566,873.828,300.498,-0.0335466,512.411,-4.18404,-2.41191,0.353359,-0.0524726,-0.298619,0.684968,-0.00328486,-0.00191394,0.554954,0.423842211045242,0.9837083558541031,-0.0032794707499824716,-0.05111967997961764,-0.0019121095847927094,-0.2581580026004059
767,0.7576,873.999,300.551,-0.0337777,512.506,-4.19405,-2.41769,0.353769,-0.0525331,-0.298969,0.685768,-0.00329339,-0.00191891,0.555606,0.42442610604206554,0.9852959574947706,-0.0032879727398359426,-0.051177085502444264,-0.0019170700692813236,-0.25841760186697404
768,0.7586,874.171,300.604,-0.0340099,512.602,-4.20408,-2.42348,0.354179,-0.0525935,-0.299318,0.686568,-0.00330194,-0.00192389,0.556258,0.42501024048492075,0.9868848297249186,-0.0032964945912380417,-0.05123439267578589,-0.0019220405098959725,-0.2586763689664371
769,0.7596,874.342,300.657,-0.0342431,512.697,-4.21413,-2.42928,0.354589,-0.052654,-0.299667,0.687368,-0.00331051,-0.00192887,0.55691,0.42559461447200087,0.9884749735614256,-0.003305036303678066,-0.05129179125870431,-0.001927010925757866,-0.2589350457719397
770,0.7606,874.513,300.71,-0.0344774,512.793,-4.2242,-2.4351,0.354998,-0.0527144,-0.300015,0.688167,-0.00331909,-0.00193387,0.557561,0.4261778019230238,0.9900643999565883,-0.0033135879097802023,-0.051349091504027444,-0.0019320012782273466,-0.25919289150825076
771,0.7616,874.683,300.763,-0.0347128,512.888,-4.23429,-2.44092,0.355408,-0.0527748,-0.300364,0.688965,-0.00332769,-0.00193887,0.558212,0.42676265470844044,0.9916531051568209,-0.0033221593760667245,-0.05140638828852029,-0.0019369916057451197,-0.25945138807883905
772,0.7626,874.854,300.815,-0.0349492,512.983,-4.24439,-2.44676,0.355817,-0.0528351,-0.300712,0.689763,-0.00333631,-0.00194389,0.558862,0.4273463199856291,0.9932430786497846,-0.0033307507020242655,-0.051463586758755286,-0.0019420018694714658,-0.25970905415928924
773,0.7636,875.024,300.868,-0.0351866,513.077,-4.25452,-2.4526,0.356226,-0.0528954,-0.30106,0.69056,-0.00334494,-0.00194891,0.559512,0.42793022403074077,0.9948323266146568,-0.0033393519205313638,-0.0515207817800265,-0.0019470121080463754,-0.25996663058754377
774,0.7646,875.194,300.92,-0.0354252,513.172,-4.26466,-2.45846,0.356634,-0.0529557,-0.301408,0.691357,-0.00335359,-0.00195394,0.560161,0.42851293842779903,0.9964228417150438,-0.0033479729978510564,-0.051577973352541995,-0.0019520323019496244,-0.26022411739479634
775,0.7656,875.364,300.972,-0.0356648,513.266,-4.27482,-2.46432,0.357042,-0.0530159,-0.301756,0.692154,-0.00336225,-0.00195898,0.560811,0.4290958906208382,0.9980146249612549,-0.0033566039670327452,-0.05163506664002093,-0.0019570624510308887,-0.26048151461222946
776,0.7666,875.534,301.024,-0.0359055,513.36,-4.285,-2.4702,0.35745,-0.0530761,-0.302103,0.692949,-0.00337093,-0.00196404,0.561459,0.42967908070689886,0.9996036781530493,-0.0033652547941657174,-0.05169215649058745,-0.0019621125355181457,-0.26073808300946766
777,0.7676,875.703,301.076,-0.0361472,513.454,-4.2952,-2.47609,0.357858,-0.0531363,-0.30245,0.693745,-0.00337963,-0.0019691,0.562108,0.4302625087830616,1.0011959963394208,-0.0033739254787314987,-0.05174924290444849,-0.0019671625944520654,-0.26099456239291685
778,0.7686,875.872,301.128,-0.0363901,513.548,-4.30542,-2.48199,0.358266,-0.0531964,-0.302797,0.69454,-0.00338834,-0.00197417,0.562755,0.43084617494644584,1.0027875797270807,-0.0033826060540366187,-0.051806231062438535,-0.0019722226081105854,-0.26125095279345933
779,0.7696,876.041,301.179,-0.0366341,513.641,-4.31565,-2.4879,0.358673,-0.0532566,-0.303144,0.695334,-0.00339707,-0.00197925,0.563403,0.43142864786484747,1.0043784245472,-0.003391306485908241,-0.051863310609217006,-0.001977292576341938,-0.26150725424196697
780,0.7706,876.21,301.231,-0.0368792,513.734,-4.32591,-2.49382,0.35908,-0.0533166,-0.30349,0.696128,-0.00340582,-0.00198434,0.56405,0.4320113578979763,1.0059705329997026,-0.0034000267738252266,-0.05192019710396856,-0.001982372498994356,-0.26176272853239824
781,0.7716,876.379,301.282,-0.0371253,513.827,-4.33618,-2.49976,0.359487,-0.0533767,-0.303837,0.696921,-0.00341458,-0.00198943,0.564697,0.43259430514235797,1.0075618985254087,-0.003408756951352454,-0.051977174987920094,-0.0019874523957900125,-0.26201885242553213
782,0.7726,876.547,301.333,-0.0373726,513.92,-4.34647,-2.5057,0.359893,-0.0534367,-0.304183,0.697714,-0.00342336,-0.00199454,0.565343,0.433176056517784,1.0091545265044726,-0.003417506984053742,-0.05203405465101385,-0.001992552226878219,-0.26227414973361163
783,0.7736,876.715,301.384,-0.0376211,514.013,-4.35678,-2.51165,0.360299,-0.0534967,-0.304529,0.698506,-0.00343215,-0.00199966,0.565989,0.4337580441322215,1.010746407191005,-0.0034262669056673856,-0.05209093090143013,-0.001997662011929746,-0.26252935872410244
784,0.7746,876.883,301.435,-0.0378706,514.106,-4.36711,-2.51762,0.360705,-0.0535566,-0.304874,0.699298,-0.00344096,-0.00200479,0.566634,0.4343402680816033,1.012339549146438,-0.003435046681581011,-0.05214770895414955,-0.0020027817507914936,-0.2627837422116678
785,0.7756,877.051,301.485,-0.0381213,514.198,-4.37746,-2.52359,0.361111,-0.0536165,-0.30522,0.700089,-0.00344979,-0.00200992,0.567279,0.43492272846190083,1.0139319394371453,-0.0034438463112683726,-0.05220448360596541,-0.002007901463389028,-0.2630387749136608
786,0.7766,877.219,301.536,-0.0383731,514.29,-4.38783,-2.52958,0.361517,-0.0536764,-0.305565,0.70088,-0.00345863,-0.00201507,0.567924,0.4355054253691242,1.0155255898068685,-0.00345265582872889,-0.05226125485708144,-0.002013041109461877,-0.263292982682954
787,0.7776,877.386,301.586,-0.038626,514.382,-4.39822,-2.53558,0.361922,-0.0537363,-0.30591,0.70167,-0.00346749,-0.00202023,0.568568,0.4360869228116826,1.0171184841332312,-0.003461485199084069,-0.05231802270770136,-0.0020181907088837603,-0.2635471027656936
788,0.7786,877.553,301.636,-0.0388801,514.474,-4.40862,-2.54159,0.362327,-0.0537961,-0.306255,0.70246,-0.00347637,-0.00202539,0.569212,0.43666865580840164,1.018712637343305,-0.003470334421804888,-0.052374692395502964,-0.0020233402817337875,-0.2638011351921261
789,0.7796,877.721,301.686,-0.0391353,514.566,-4.41905,-2.54761,0.362732,-0.0538559,-0.306599,0.703249,-0.00348526,-0.00203057,0.569855,0.4372506244547001,1.0203060301249613,-0.003479193531153113,-0.052431358694558394,-0.0020285097874420677,-0.26405434404719996
790,0.7806,877.887,301.736,-0.0393917,514.657,-4.42949,-2.55364,0.363136,-0.0539156,-0.306943,0.704038,-0.00349417,-0.00203575,0.570498,0.43783139101392554,1.0219006805896131,-0.0034880724919829076,-0.05248792685386805,-0.0020336792663724346,-0.2643074658134079
791,0.7816,878.054,301.786,-0.0396493,514.749,-4.43996,-2.55968,0.36354,-0.0539753,-0.307288,0.704826,-0.0035031,-0.00204095,0.571141,0.43841239225024253,1.0234945662343855,-0.003496971303762253,-0.05254449163615926,-0.0020388686777477183,-0.26456123595983494
792,0.7826,878.22,301.835,-0.039908,514.84,-4.45044,-2.56574,0.363944,-0.054035,-0.307631,0.705614,-0.00351205,-0.00204615,0.571783,0.43899362825847965,1.0250897083560329,-0.00350588996595802,-0.05260105304163387,-0.0020440580621382543,-0.26481344819902897
793,0.7836,878.387,301.885,-0.0401679,514.93,-4.46094,-2.5718,0.364348,-0.0540947,-0.307975,0.706401,-0.00352101,-0.00205137,0.572424,0.4395750991335041,1.0266840812599547,-0.003514818513184026,-0.05265761107049327,-0.0020492673785588167,-0.26506630887831806
794,0.7846,878.553,301.934,-0.040429,515.021,-4.47146,-2.57788,0.364752,-0.0541543,-0.308319,0.707188,-0.00352998,-0.00205659,0.573066,0.44015680497022114,1.028279709429234,-0.00352375694517304,-0.0527140709943511,-0.0020544766677867976,-0.2653190825884931
795,0.7856,878.719,301.983,-0.0406912,515.112,-4.482,-2.58397,0.365155,-0.0542139,-0.308662,0.707974,-0.00353898,-0.00206182,0.573707,0.44073730512554876,1.0298745639765747,-0.0035327251910033386,-0.0527705275532977,-0.0020596959092255007,-0.2655710349308684
796,0.7866,878.884,302.032,-0.0409547,515.202,-4.49256,-2.59007,0.365558,-0.0542735,-0.309005,0.70876,-0.00354799,-0.00206707,0.574347,0.4413180392695848,1.031470672572366,-0.003541703320702805,-0.05282698074753356,-0.0020649350820691748,-0.26582290086840943
797,0.7876,879.05,302.081,-0.0412193,515.292,-4.50314,-2.59618,0.365961,-0.054333,-0.309348,0.709545,-0.00355701,-0.00207232,0.574987,0.4418990074966451,1.0330660031356578,-0.0035506913340028756,-0.05288333586559768,-0.0020701742274071844,-0.2660746804307482
798,0.7886,879.215,302.13,-0.0414852,515.382,-4.51374,-2.6023,0.366363,-0.0543925,-0.30969,0.71033,-0.00356606,-0.00207758,0.575627,0.4424787674215962,1.0346625865251116,-0.003559709159440594,-0.05293968763063206,-0.0020754233244856257,-0.266325639973513
799,0.7896,879.38,302.178,-0.0417523,515.472,-4.52436,-2.60843,0.366765,-0.054452,-0.310033,0.711114,-0.00357512,-0.00208285,0.576267,0.44305876045688897,1.036258387465177,-0.003568736867579969,-0.0529960360428362,-0.00208068237314718,-0.2665772471259087
800,0.7906,879.545,302.227,-0.0420205,515.562,-4.535,-2.61457,0.367167,-0.0545114,-0.310375,0.711898,-0.0035842,-0.00208814,0.576906,0.4436389866962529,1.0378554400037414,-0.0035777844223732203,-0.05305228640764281,-0.002085961352374488,-0.2668280348202514
801,0.7916,879.71,302.275,-0.04229,515.651,-4.54565,-2.62073,0.367569,-0.0545708,-0.310717,0.712681,-0.00359329,-0.00209343,0.577544,0.4442194462334548,1.0394517056697183,-0.0035868418591468165,-0.05310853343127708,-0.002091240303676023,-0.2670787367598677
802,0.7926,879.874,302.323,-0.0425607,515.74,-4.55633,-2.6269,0.367971,-0.0546302,-0.311058,0.713464,-0.0036024,-0.00209873,0.578182,0.4448001391622991,1.0410492217011655,-0.003595919141670345,-0.0531647771139373,-0.002096529206086828,-0.26732862030306703
803,0.7936,880.039,302.371,-0.0428327,515.829,-4.56703,-2.63307,0.368372,-0.0546896,-0.3114,0.714246,-0.00361153,-0.00210404,0.57882,0.4453796201962854,1.0426459464305355,-0.0036050162694001298,-0.053221017455822084,-0.002101828059448252,-0.26757915107172003
804,0.7946,880.203,302.419,-0.0431059,515.918,-4.57774,-2.63926,0.368773,-0.0547489,-0.311741,0.715028,-0.00362068,-0.00210937,0.579457,0.44595933364876306,1.0442439202869886,-0.003614133241791051,-0.05327715978485048,-0.0021071468425302164,-0.2678288640027301
805,0.7956,880.367,302.466,-0.0433803,516.007,-4.58848,-2.64547,0.369174,-0.0548082,-0.312082,0.715809,-0.00362984,-0.0021147,0.580094,0.4465392796129508,1.0458410984056035,-0.0036232600945295124,-0.05333329878473747,-0.002112465597262969,-0.2680784917961475
806,0.7966,880.531,302.514,-0.043656,516.096,-4.59924,-2.65168,0.369574,-0.0548675,-0.312423,0.71659,-0.00363902,-0.00212004,0.580731,0.4471180110633697,1.0474395244075638,-0.0036324067910183944,-0.05338943445568034,-0.002117794302469056,-0.26832803448099907
807,0.7976,880.694,302.561,-0.0439329,516.184,-4.61001,-2.6579,0.369975,-0.0549267,-0.312764,0.71737,-0.00364821,-0.00212539,0.581367,0.4476984217503712,1.049037150229673,-0.003641563367125511,-0.053445472142428674,-0.002123132957988605,-0.2685774920863021
808,0.7986,880.858,302.608,-0.0442111,516.272,-4.62081,-2.66414,0.370375,-0.0549859,-0.313104,0.71815,-0.00365743,-0.00213075,0.582003,0.4482776169503888,1.0506360226860472,-0.0036507497495619212,-0.053501506511844155,-0.002128481563661744,-0.2688261334675627
809,0.7996,881.021,302.655,-0.0444905,516.36,-4.63162,-2.67038,0.370775,-0.0550451,-0.313445,0.718929,-0.00366666,-0.00213612,0.582638,0.44885704387482805,1.0522340905143244,-0.003659946010700965,-0.05355753756412318,-0.0021338401193279344,-0.2690754212500678
810,0.8006,881.184,302.702,-0.0447713,516.448,-4.64245,-2.67664,0.371174,-0.0551042,-0.313785,0.719708,-0.00367591,-0.0021415,0.583273,0.44943525318041955,1.053833403722452,-0.003669162113575819,-0.0536134706608139,-0.0021392086248268605,-0.2693238933641897
811,0.8016,881.347,302.749,-0.0450533,516.536,-4.65331,-2.68291,0.371574,-0.0551633,-0.314125,0.720486,-0.00368517,-0.0021469,0.583908,0.45001514325197434,1.0554319078480239,-0.003678388094418339,-0.05366940045195623,-0.002144597058551523,-0.2695722810121529
812,0.8026,881.51,302.795,-0.0453366,516.623,-4.66418,-2.68919,0.371973,-0.0552224,-0.314464,0.721264,-0.00369445,-0.0021523,0.584542,0.4505938147314148,1.0570316560937054,-0.003687633916076072,-0.053725326937745566,-0.002149985463178683,-0.2698198540428902
813,0.8036,881.673,302.842,-0.0456212,516.71,-4.67508,-2.69549,0.372371,-0.0552815,-0.314804,0.722041,-0.00370375,-0.00215771,0.585176,0.4511712659748528,1.0586305907961786,-0.0036968995779952385,-0.0537812501183772,-0.0021553838171547435,-0.27006807309288583
814,0.8046,881.835,302.888,-0.0459071,516.797,-4.68599,-2.70179,0.37277,-0.0553405,-0.315143,0.722818,-0.00371307,-0.00216313,0.585809,0.4517503988393001,1.0602307683537022,-0.0037061850796207274,-0.05383707537775895,-0.0021607921203179448,-0.270315478078593
815,0.8056,881.997,302.934,-0.0461942,516.884,-4.69693,-2.70811,0.373168,-0.0553995,-0.315482,0.723594,-0.0037224,-0.00216856,0.586442,0.452328310494829,1.061830127901191,-0.0037154804575508793,-0.05389289734354741,-0.0021662103725061943,-0.27056279920822435
816,0.8066,882.159,302.98,-0.0464827,516.971,-4.70788,-2.71444,0.373567,-0.0554584,-0.315821,0.72437,-0.00373176,-0.002174,0.587075,0.4529079051121532,1.063430729033361,-0.003724805637011941,-0.05394862141080403,-0.0021716385735569554,-0.2708100365102024
817,0.8076,882.321,303.026,-0.0467725,517.058,-4.71886,-2.72078,0.373965,-0.0555174,-0.316159,0.725145,-0.00374112,-0.00217945,0.587707,0.45348627754686754,1.0650305076825166,-0.003734130729189711,-0.054004436795570765,-0.0021770767233078026,-0.27105646106976533
818,0.8086,882.483,303.072,-0.0470637,517.144,-4.72985,-2.72713,0.374362,-0.0555763,-0.316497,0.72592,-0.00375051,-0.00218492,0.588339,0.4540634261554721,1.0666315266406823,-0.00374348562178084,-0.054060154293347096,-0.0021825347997702638,-0.27130280235190174
819,0.8096,882.645,303.117,-0.0473561,517.23,-4.74087,-2.7335,0.37476,-0.0556352,-0.316836,0.726695,-0.00375991,-0.00219039,0.58897,0.4546422585790937,1.0682337868694711,-0.0037528503890015275,-0.054115868509459375,-0.0021879928463771625,-0.2715497888353302
820,0.8106,882.806,303.163,-0.0476499,517.316,-4.7519,-2.73987,0.375157,-0.055694,-0.317174,0.727468,-0.00376934,-0.00219587,0.589601,0.4552198662032767,1.0698331496608011,-0.0037622449553268433,-0.05417148486125434,-0.0021934608411939838,-0.27179596340085865
821,0.8116,882.967,303.208,-0.0479451,517.402,-4.76296,-2.74626,0.375554,-0.0557529,-0.317511,0.728242,-0.00377877,-0.00220136,0.590232,0.45579770318321033,1.0714358206723098,-0.003771639433061913,-0.05422719252018926,-0.0021989387840570807,-0.27204132681513504
822,0.8126,883.128,303.253,-0.0482416,517.488,-4.77404,-2.75266,0.37595,-0.0558117,-0.317849,0.729015,-0.00378823,-0.00220687,0.590862,0.45637431323492605,1.0730376595926705,-0.0037810637087759558,-0.054282802326324764,-0.002204436652757713,-0.2722873352689008
823,0.8136,883.289,303.298,-0.0485394,517.573,-4.78513,-2.75907,0.376347,-0.0558704,-0.318186,0.729787,-0.0037977,-0.00221238,0.591492,0.45695260862131915,1.0746386625735123,-0.003790497857431907,-0.05433831429653602,-0.002209934491165244,-0.2725325331187569
824,0.8146,883.45,303.343,-0.0488386,517.659,-4.79625,-2.76549,0.376743,-0.0559292,-0.318523,0.730559,-0.00380719,-0.0022179,0.592122,0.457529676106154,1.076240902005864,-0.003799951840747995,-0.054393917568903105,-0.0022154422771253346,-0.2727776483508595
825,0.8156,883.61,303.387,-0.0491392,517.744,-4.80739,-2.77193,0.377139,-0.0559879,-0.31886,0.73133,-0.0038167,-0.00222343,0.592751,0.45810697215496576,1.0778423010012954,-0.0038094256581578945,-0.05444942301684097,-0.0022209600104730054,-0.27302268099304605
826,0.8166,883.771,303.432,-0.0494411,517.829,-4.81855,-2.77837,0.377535,-0.0560466,-0.319197,0.732101,-0.00382623,-0.00222898,0.59338,0.4586844968582833,1.079444935151443,-0.00381891930909406,-0.05450492520670469,-0.002226497668777916,-0.27326763107314467
827,0.8176,883.931,303.476,-0.0497444,517.914,-4.82973,-2.78483,0.377931,-0.0561052,-0.319533,0.732872,-0.00383577,-0.00223453,0.594008,0.4592622503066719,1.0810488054089782,-0.003828422831272049,-0.05456032959472312,-0.0022320352963488554,-0.27351177213110944
828,0.8186,884.091,303.52,-0.0500491,517.998,-4.84093,-2.7913,0.378326,-0.0561638,-0.31987,0.733642,-0.00384534,-0.00224009,0.594636,0.45983877275122964,1.0826518300744365,-0.0038379561476484803,-0.05461573073613957,-0.0022375828708103285,-0.27375655741526417
829,0.8196,884.251,303.564,-0.0503552,518.083,-4.85215,-2.79779,0.378721,-0.0562224,-0.320206,0.734411,-0.00385491,-0.00224567,0.595264,0.46041552296713517,1.084254005289179,-0.003847489372791668,-0.05467112863114432,-0.0022431503695645727,-0.2740005342215739
830,0.8206,884.411,303.608,-0.0506627,518.167,-4.86339,-2.80428,0.379116,-0.056281,-0.320542,0.73518,-0.00386451,-0.00225125,0.595891,0.4609925010443756,1.085857413050514,-0.0038570523909911003,-0.05472652327992744,-0.002248717837252334,-0.2742444290654471
831,0.8216,884.57,303.652,-0.0509717,518.251,-4.87465,-2.81079,0.37951,-0.0563396,-0.320877,0.735949,-0.00387413,-0.00225685,0.596518,0.46156824550399755,1.087462054306636,-0.0038666352400534842,-0.054781914682679234,-0.0022543052287876675,-0.27448751646229785
832,0.8226,884.73,303.696,-0.051282,518.335,-4.88593,-2.81731,0.379905,-0.0563981,-0.321213,0.736717,-0.00388376,-0.00226245,0.597144,0.46214567899657855,1.0890658409395813,-0.003876227958167111,-0.05483720832331562,-0.0022598925890338073,-0.27473124770762425
833,0.8236,884.889,303.739,-0.0515937,518.419,-4.89723,-2.82384,0.380299,-0.0564566,-0.321548,0.737484,-0.00389341,-0.00226807,0.59777,0.4627218778978328,1.0906687690839432,-0.0038858405061867884,-0.05489249872936852,-0.002265499872680987,-0.2749741720475435
834,0.8246,885.048,303.782,-0.0519069,518.503,-4.90856,-2.83039,0.380693,-0.056515,-0.321883,0.738251,-0.00390308,-0.00227369,0.598396,0.46329830386618354,1.092272927145805,-0.0038954728835364216,-0.054947691395801246,-0.0022711071248152637,-0.27521701502143825
835,0.8256,885.207,303.825,-0.0522215,518.586,-4.9199,-2.83694,0.381086,-0.0565735,-0.322218,0.739018,-0.00391276,-0.00227933,0.599021,0.4638734931168875,1.0938783160688752,-0.0039051151286904062,-0.0550029753387834,-0.002276734299902494,-0.27545977665656196
836,0.8266,885.366,303.868,-0.0525375,518.669,-4.93127,-2.84351,0.38148,-0.0566319,-0.322552,0.739784,-0.00392247,-0.00228498,0.599646,0.4644503729110323,1.0954828413136974,-0.0039147871630647035,-0.05505816155357046,-0.0022823714204287526,-0.27570173268225306
837,0.8276,885.525,303.911,-0.052855,518.752,-4.94266,-2.85009,0.381873,-0.0566903,-0.322887,0.74055,-0.00393219,-0.00229063,0.60027,0.46502601501385077,1.0970885960957095,-0.003924469064279346,-0.055113344545576703,-0.002288008509105488,-0.2759443319641559
838,0.8286,885.683,303.954,-0.053174,518.835,-4.95407,-2.85668,0.382266,-0.0567486,-0.323221,0.741315,-0.00394193,-0.0022963,0.600894,0.46560188338847475,1.0986934826625663,-0.0039341707927031955,-0.055168429831838006,-0.0022936655200596068,-0.27618612617539884
839,0.8296,885.841,303.997,-0.0534944,518.918,-4.9655,-2.86329,0.382659,-0.056807,-0.323555,0.742079,-0.00395169,-0.00230198,0.601518,0.4661779781238473,1.100297497138829,-0.00394389234775494,-0.055223606384364854,-0.0022993324759452705,-0.2764278396408605
840,0.8306,886.0,304.039,-0.0538163,519.0,-4.97695,-2.86991,0.383051,-0.0568653,-0.323889,0.742844,-0.00396146,-0.00230767,0.602142,0.46675283255537914,1.1019048394541877,-0.003953623768388592,-0.05527868524254831,-0.002305009376592726,-0.2766694723875054
841,0.8316,886.158,304.081,-0.0541396,519.083,-4.98842,-2.87654,0.383443,-0.0569235,-0.324222,0.743607,-0.00397126,-0.00231337,0.602765,0.46732791237402127,1.1035092048342494,-0.0039633849750456696,-0.05533366642309934,-0.002310696221831665,-0.27691030135295225
842,0.8326,886.315,304.123,-0.0544645,519.165,-4.99991,-2.88318,0.383835,-0.0569818,-0.324556,0.744371,-0.00398107,-0.00231908,0.603387,0.4679032176681426,1.1051168999280683,-0.0039731560463118765,-0.05538873886496953,-0.0023163930114918907,-0.27715177298429305
843,0.8336,886.473,304.165,-0.0547908,519.247,-5.01143,-2.88983,0.384227,-0.05704,-0.324889,0.745133,-0.0039909,-0.0023248,0.604009,0.4684787485261468,1.1067216103228268,-0.0039829469420656904,-0.05544371364058609,-0.0023220997454026504,-0.2773924413703791
844,0.8346,886.631,304.207,-0.0551186,519.329,-5.02296,-2.8965,0.384619,-0.0570982,-0.325222,0.745896,-0.00400075,-0.00233053,0.604631,0.4690545050364723,1.1083296523015052,-0.003992757661720359,-0.05549868521676382,-0.002327816423392748,-0.2776330296272348
845,0.8356,886.788,304.249,-0.0554479,519.411,-5.03452,-2.90318,0.38501,-0.0571564,-0.325555,0.746657,-0.00401062,-0.00233627,0.605253,0.4696290176578397,1.109934701810785,-0.004002588204688462,-0.05555365359368902,-0.0023335430452910977,-0.27787353778153867
846,0.8366,886.946,304.29,-0.0557788,519.492,-5.0461,-2.90987,0.385401,-0.0572145,-0.325888,0.747419,-0.0040205,-0.00234202,0.605874,0.4702037549575637,1.1115430847696475,-0.004012428610505325,-0.05560852433240482,-0.0023392796109259484,-0.27811396585996073
847,0.8376,887.103,304.331,-0.0561111,519.574,-5.0577,-2.91658,0.385792,-0.0572727,-0.32622,0.748179,-0.00403041,-0.00234778,0.606494,0.47077871702351115,1.113148467482231,-0.004022298798430968,-0.05566348631687934,-0.0023450261201254374,-0.2783535922431145
848,0.8386,887.26,304.373,-0.056445,519.655,-5.06932,-2.9233,0.386183,-0.0573308,-0.326552,0.74894,-0.00404033,-0.00235356,0.607115,0.4713539039435821,1.1147571855055558,-0.0040321788482217125,-0.05571835067449937,-0.002350792549209446,-0.278593139083514
849,0.8396,887.417,304.414,-0.0567804,519.736,-5.08097,-2.93003,0.386573,-0.0573888,-0.326884,0.7497,-0.00405027,-0.00235934,0.607735,0.4719278438771326,1.116365011863166,-0.004042078719161513,-0.05577311742190916,-0.0023565589449635604,-0.2788326064075629
850,0.8406,887.573,304.455,-0.0571174,519.817,-5.09263,-2.93677,0.386964,-0.0574469,-0.327216,0.750459,-0.00406023,-0.00236514,0.608354,0.47250348019365473,1.117971942660264,-0.004051998410657398,-0.055827975410146946,-0.002362345260141452,-0.2790719942416563
851,0.8416,887.73,304.495,-0.0574559,519.897,-5.10432,-2.94352,0.387354,-0.0575049,-0.327547,0.751218,-0.0040702,-0.00237094,0.608974,0.4730778685493793,1.1195800935808156,-0.004061927962734302,-0.05588273579950653,-0.0023681315417586335,-0.27931058192312264
852,0.8426,887.886,304.536,-0.0577959,519.978,-5.11603,-2.95029,0.387743,-0.0575629,-0.327879,0.751977,-0.0040802,-0.00237676,0.609592,0.4736510073085063,1.1211894655512453,-0.0040718872936579276,-0.055937493012855666,-0.0023739377423370733,-0.2795498110956841
853,0.8436,888.042,304.576,-0.0581376,520.058,-5.12776,-2.95707,0.388133,-0.0576209,-0.32821,0.752735,-0.00409021,-0.00238258,0.610211,0.4742258432870863,1.1227979366996843,-0.004081856484170254,-0.05599224705037842,-0.002379743909123433,-0.279788240645944
854,0.8446,888.199,304.617,-0.0584807,520.138,-5.13952,-2.96387,0.388522,-0.0576788,-0.328541,0.753492,-0.00410024,-0.00238842,0.610829,0.47479942869525393,1.12440550312489,-0.0040918454930547465,-0.056046903516954294,-0.0023855699944067554,-0.2800265912890826
855,0.8456,888.355,304.657,-0.0588255,520.218,-5.15129,-2.97067,0.388911,-0.0577368,-0.328872,0.754249,-0.00411029,-0.00239427,0.611447,0.4753732372715487,1.1260142869386027,-0.004101854319713105,-0.05610165120885191,-0.0023914060217519184,-0.2802648630512139
856,0.8466,888.51,304.697,-0.0591719,520.298,-5.16309,-2.97749,0.3893,-0.0577946,-0.329202,0.755006,-0.00412036,-0.00240013,0.612064,0.47594726910279994,1.127624289062735,-0.00411188296354581,-0.05615620695673573,-0.0023972519909839507,-0.2805023364611392
857,0.8476,888.666,304.737,-0.0595198,520.378,-5.17491,-2.98433,0.389689,-0.0578525,-0.329533,0.755762,-0.00413045,-0.002406,0.612681,0.4765215242758707,1.1292333811854514,-0.004121931423952119,-0.05621085393030778,-0.002403107901927659,-0.2807404507776772
858,0.8486,888.822,304.776,-0.0598694,520.457,-5.18675,-2.99117,0.390077,-0.0579104,-0.329863,0.756518,-0.00414056,-0.00241188,0.613297,0.47709452578239353,1.130843690241755,-0.00413199970033018,-0.05626549773991163,-0.0024089737544075174,-0.2809777672695458
859,0.8496,888.977,304.816,-0.0602205,520.537,-5.19861,-2.99803,0.390465,-0.0579682,-0.330193,0.757273,-0.00415068,-0.00241777,0.613914,0.4776677496566373,1.1324530846978451,-0.004142077833497848,-0.0563200440177396,-0.0024148495482478882,-0.28121500545989253
860,0.8506,889.133,304.855,-0.0605733,520.616,-5.2105,-3.0049,0.390853,-0.058026,-0.330523,0.758027,-0.00416082,-0.00242367,0.61453,0.4782411959848978,1.1340615606429347,-0.0041521757816318505,-0.0563745871428839,-0.0024207352832725793,-0.28145216537455253
861,0.8516,889.288,304.894,-0.0609277,520.695,-5.22241,-3.01178,0.391241,-0.0580838,-0.330852,0.758782,-0.00417099,-0.00242958,0.615145,0.47881486485350355,1.1356733855085421,-0.004162303502504683,-0.05642912711552672,-0.002426630959305398,-0.2816885287282406
862,0.8526,889.443,304.933,-0.0612837,520.774,-5.23434,-3.01868,0.391629,-0.0581415,-0.331182,0.759535,-0.00418117,-0.00243551,0.61576,0.47938875634881706,1.1372821531928476,-0.004172441078654665,-0.056483569584211746,-0.002432546551843995,-0.2819255324060027
863,0.8536,889.598,304.972,-0.0616414,520.852,-5.24629,-3.02559,0.392016,-0.0581993,-0.331511,0.760289,-0.00419137,-0.00244144,0.616375,0.4799613905951039,1.138894271628629,-0.0041825984679528805,-0.05653810325785147,-0.0024384621093033187,-0.28216174004755346
864,0.8546,889.752,305.011,-0.0620007,520.931,-5.25827,-3.03252,0.392403,-0.058257,-0.33184,0.761042,-0.00420158,-0.00244739,0.616989,0.480534246493731,1.1405054655535478,-0.004192765711718671,-0.05659253943879461,-0.0024443975827956876,-0.2823978699895725
865,0.8556,889.907,305.05,-0.0623617,521.009,-5.27026,-3.03945,0.39279,-0.0583146,-0.332169,0.761794,-0.00421182,-0.00245335,0.617603,0.4811073241304942,1.1421157310475856,-0.0042029627255889546,-0.05664687814355318,-0.002450342996468735,-0.2826339222576185
866,0.8566,890.062,305.088,-0.0627243,521.087,-5.28228,-3.0464,0.393176,-0.0583723,-0.332497,0.762546,-0.00422208,-0.00245931,0.618217,0.4816791419113404,1.1437272079166947,-0.004213179550778934,-0.05670130804836648,-0.0024562883747072384,-0.2828691797467807
867,0.8576,890.216,305.127,-0.0630886,521.165,-5.29433,-3.05337,0.393563,-0.0584299,-0.332826,0.763297,-0.00423235,-0.00246529,0.61883,0.4822526627083763,1.1453377517333476,-0.004223406228910931,-0.05675564048823356,-0.0024622536682665785,-0.28310507697942144
868,0.8586,890.37,305.165,-0.0634546,521.243,-5.30639,-3.06034,0.393949,-0.0584875,-0.333154,0.764048,-0.00424265,-0.00247128,0.619443,0.4828249226752501,1.1469495055226946,-0.004233662675005911,-0.05680996979864228,-0.0024682289014712477,-0.28334017995517635
869,0.8596,890.524,305.203,-0.0638222,521.321,-5.31848,-3.06733,0.394335,-0.0585451,-0.333482,0.764799,-0.00425296,-0.00247728,0.620055,0.4833974035771087,1.1485624701937671,-0.0042439289730209495,-0.05686429597977283,-0.002474214074142278,-0.28357520582980056
870,0.8606,890.678,305.241,-0.0641916,521.398,-5.33059,-3.07433,0.394721,-0.0586027,-0.33381,0.765549,-0.00426329,-0.0024833,0.620668,0.48397010549924957,1.1501744964807061,-0.004254215080106816,-0.056918619031805506,-0.0024802191612982583,-0.28381015462857895
871,0.8616,890.832,305.278,-0.0645627,521.476,-5.34273,-3.08135,0.395106,-0.0586602,-0.334137,0.766298,-0.00427364,-0.00248932,0.621279,0.4845415439847167,1.1517855804542,-0.004264520995647558,-0.05697284465220964,-0.0024862242123037115,-0.28404431042145684
872,0.8626,890.986,305.316,-0.0649354,521.553,-5.35489,-3.08838,0.395492,-0.0587178,-0.334465,0.767047,-0.00428401,-0.00249535,0.621891,0.4851146876303021,1.1533978715816127,-0.004274846719025782,-0.057027161452018804,-0.0024922392022364015,-0.28427910537916046
873,0.8636,891.139,305.353,-0.0653099,521.63,-5.36707,-3.09542,0.395877,-0.0587753,-0.334792,0.767796,-0.0042944,-0.0025014,0.622502,0.48568656686472855,1.1550113707674412,-0.004285192249623315,-0.05708138083141323,-0.002498274105933729,-0.28451310785021233
874,0.8646,891.293,305.391,-0.0656862,521.707,-5.37927,-3.10248,0.396262,-0.0588327,-0.335119,0.768544,-0.00430481,-0.00250745,0.623113,0.486258666315049,1.1566239222918595,-0.00429555758682032,-0.05713550280683799,-0.0025043089731198176,-0.2847470338149656
875,0.8656,891.446,305.428,-0.0660641,521.783,-5.3915,-3.10955,0.396646,-0.0588902,-0.335446,0.769292,-0.00431524,-0.00251352,0.623723,0.4868294992358204,1.158237680456045,-0.004305942729996071,-0.05718971595678357,-0.0025103637535881518,-0.28498088329843385
876,0.8666,891.599,305.465,-0.0664438,521.86,-5.40375,-3.11663,0.397031,-0.0589476,-0.335772,0.770039,-0.00432569,-0.0025196,0.624333,0.48740203879982014,1.1598504863113361,-0.004316347678528509,-0.05724383171395053,-0.002516428472139731,-0.2852139415399211
877,0.8676,891.753,305.502,-0.0668253,521.936,-5.41602,-3.12373,0.397415,-0.059005,-0.336099,0.770786,-0.00433615,-0.00252569,0.624942,0.4879733108599351,1.1614644973826933,-0.004326762475062362,-0.05729794436496227,-0.0025225031285929234,-0.28544763836952347
878,0.8686,891.906,305.538,-0.0672085,522.012,-5.42832,-3.13084,0.397799,-0.0590624,-0.336425,0.771532,-0.00434664,-0.00253179,0.625552,0.4885448023306451,1.163077551492116,-0.004337207032542256,-0.05735205390999687,-0.0025285877227658737,-0.2856805444736573
879,0.8696,892.058,305.575,-0.0675935,522.088,-5.44063,-3.13797,0.398183,-0.0591198,-0.336751,0.772278,-0.00435714,-0.0025379,0.626161,0.4891165132962203,1.1646918093888612,-0.004347661436982619,-0.05740616034923274,-0.0025346822544760617,-0.2859133746627761
880,0.8706,892.211,305.611,-0.0679803,522.164,-5.45298,-3.1451,0.398566,-0.0591771,-0.337077,0.773024,-0.00436766,-0.00254403,0.626769,0.4896869541532638,1.1663072719712892,-0.004358135644489947,-0.05746016942886989,-0.0025407966981330077,-0.28614612896162395
881,0.8716,892.364,305.647,-0.0683688,522.24,-5.46534,-3.15226,0.398949,-0.0592344,-0.337403,0.773769,-0.00437821,-0.00255016,0.627377,0.4902576135309995,1.1679217722155748,-0.004368639610750291,-0.05751417541387538,-0.0025469111043086023,-0.28637880739493715
882,0.8726,892.516,305.683,-0.0687592,522.315,-5.47774,-3.15942,0.399333,-0.0592917,-0.337728,0.774513,-0.00438877,-0.00255631,0.627985,0.49082998234237385,1.169535306174307,-0.004379153422403026,-0.05756817830442651,-0.002553045421942235,-0.28661069659849714
883,0.8736,892.669,305.719,-0.0691513,522.391,-5.49015,-3.1666,0.399715,-0.059349,-0.338053,0.775257,-0.00439935,-0.00256247,0.628592,0.49139958818341767,1.1711500410489895,-0.0043896870352369,-0.057622178100700694,-0.0025591896762581223,-0.2868425104503113
884,0.8746,892.821,305.755,-0.0695453,522.466,-5.50259,-3.1738,0.400098,-0.0594062,-0.338379,0.776001,-0.00440995,-0.00256863,0.629199,0.49197090362561546,1.1727659777334365,-0.004400240448621084,-0.05767608057048801,-0.0025653338927255076,-0.2870749619002595
885,0.8756,892.973,305.791,-0.0699411,522.541,-5.51505,-3.181,0.400481,-0.0594635,-0.338703,0.776744,-0.00442058,-0.00257481,0.629806,0.49254243792353547,1.1743809427400973,-0.004410823617815529,-0.05773007418413956,-0.002571498019914964,-0.28730591219663537
886,0.8766,893.125,305.826,-0.0703387,522.616,-5.52753,-3.18822,0.400863,-0.0595207,-0.339028,0.777487,-0.00443122,-0.00258101,0.630412,0.4931126980475715,1.175997108111639,-0.00442141663029727,-0.05778397048244743,-0.002577682057456676,-0.2875375001400923
887,0.8776,893.277,305.861,-0.0707382,522.69,-5.54004,-3.19546,0.401245,-0.0595779,-0.339353,0.778229,-0.00444188,-0.00258721,0.631018,0.4936831760525875,1.1776122971268768,-0.004432029441429619,-0.05783786369797517,-0.0025838660566575022,-0.2877690128296968
888,0.8786,893.429,305.896,-0.0711395,522.765,-5.55258,-3.20271,0.401627,-0.059635,-0.339677,0.778971,-0.00445256,-0.00259342,0.631624,0.4942538720218297,1.1792286850571068,-0.004442662050576973,-0.05789165962006981,-0.0025900599916170997,-0.28799973828999703
889,0.8796,893.58,305.931,-0.0715426,522.839,-5.56513,-3.20997,0.402008,-0.0596922,-0.340001,0.779712,-0.00446325,-0.00259965,0.632229,0.49482329121453805,1.1808440919470709,-0.004453304501635613,-0.057945546675955084,-0.002596273836187213,-0.2882303890073572
890,0.8806,893.732,305.966,-0.0719477,522.914,-5.57771,-3.21725,0.40239,-0.0597493,-0.340325,0.780453,-0.00447397,-0.00260589,0.632834,0.4953944227909681,1.1824606962971447,-0.00446397670500831,-0.05799933644952715,-0.0026024976160202717,-0.28846096500598994
891,0.8816,893.883,306.001,-0.0723546,522.988,-5.59032,-3.22454,0.402771,-0.0598064,-0.340649,0.781193,-0.00448471,-0.00261213,0.633439,0.4959642766163117,1.1840763149175682,-0.004474668704482321,-0.05805312315179101,-0.002608721357017063,-0.28869146631010023
892,0.8826,894.035,306.035,-0.0727634,523.062,-5.60295,-3.23185,0.403152,-0.0598635,-0.340972,0.781933,-0.00449547,-0.00261839,0.634043,0.4965343475973285,1.1856931295382362,-0.004485380499417491,-0.05810690678292174,-0.0026149650068786334,-0.2889211818654228
893,0.8836,894.186,306.07,-0.073174,523.135,-5.6156,-3.23917,0.403533,-0.0599206,-0.341296,0.782672,-0.00450625,-0.00262467,0.634647,0.4971046358167701,1.1873089537344694,-0.004496112089172333,-0.058160687343094764,-0.0026212285652308376,-0.289151534083424
894,0.8846,894.337,306.104,-0.0735866,523.209,-5.62828,-3.2465,0.403913,-0.0599776,-0.341619,0.783412,-0.00451705,-0.00263095,0.63525,0.49767364368302824,1.1889281613931768,-0.00450686347310425,-0.058214370653927316,-0.002627492084247951,-0.28938110106085224
895,0.8856,894.488,306.138,-0.0740011,523.282,-5.64099,-3.25385,0.404294,-0.0600346,-0.341942,0.78415,-0.00452787,-0.00263724,0.635853,0.49824436605697975,1.1905441866162456,-0.004517634650569202,-0.058268050904898394,-0.0026337655375927582,-0.2896105939001209
896,0.8866,894.639,306.172,-0.0744176,523.355,-5.65371,-3.26121,0.404674,-0.0600916,-0.342265,0.784888,-0.0045387,-0.00264355,0.636456,0.4988138071030279,1.1921614049061167,-0.004528415666206653,-0.0583217280961823,-0.0026400588986765783,-0.28984001262517245
897,0.8876,894.79,306.206,-0.0748359,523.428,-5.66647,-3.26859,0.405054,-0.0601486,-0.342587,0.785626,-0.00454956,-0.00264987,0.637058,0.49938346457779237,1.1937798171435983,-0.004539226428910026,-0.058375402227953566,-0.0026463621935859383,-0.29006864732894433
898,0.8886,894.94,306.239,-0.0752562,523.501,-5.67924,-3.27598,0.405433,-0.0602056,-0.34291,0.786363,-0.00456044,-0.0026562,0.63766,0.49995183861094317,1.1953972288118222,-0.004550056983208095,-0.05842907330038649,-0.0026526754221318782,-0.29029791812663
899,0.8896,895.091,306.273,-0.0756784,523.574,-5.69204,-3.28339,0.405813,-0.0602625,-0.343232,0.7871,-0.00457134,-0.00266254,0.638262,0.5005219286198568,1.1970158329518172,-0.00456090732845249,-0.05848264716192486,-0.002658998584125216,-0.29052640540856656
900,0.8906,895.241,306.306,-0.0761026,523.647,-5.70487,-3.29081,0.406192,-0.0603194,-0.343554,0.787836,-0.00458226,-0.00266889,0.638863,0.5010907342126549,1.1986334318082283,-0.004571777463993398,-0.05853621797519726,-0.002665331679376659,-0.29075481912944245
901,0.8916,895.392,306.339,-0.0765288,523.719,-5.71772,-3.29824,0.406571,-0.0603763,-0.343876,0.788572,-0.00459319,-0.00267526,0.639464,0.50165975542363,1.2002522216556288,-0.004582657435006632,-0.0585897857403771,-0.002671684680979558,-0.2909831593129403
902,0.8926,895.542,306.372,-0.0769569,523.791,-5.7306,-3.30569,0.40695,-0.0604332,-0.344197,0.789307,-0.00460415,-0.00268163,0.640065,0.5022289923345162,1.2018700014998078,-0.0045935671492958186,-0.0586433504576378,-0.0026780376421139396,-0.29121071719380687
903,0.8936,895.692,306.405,-0.0773871,523.863,-5.7435,-3.31316,0.407329,-0.0604901,-0.344519,0.790042,-0.00461513,-0.00268802,0.640665,0.5027984450270797,1.2034889708492624,-0.004604496651925416,-0.05869691212715278,-0.0026844105090920722,-0.2914389106017602
904,0.8946,895.842,306.438,-0.0778192,523.935,-5.75643,-3.32064,0.407707,-0.0605469,-0.34484,0.790777,-0.00462613,-0.00269442,0.641265,0.5033666102157555,1.2051091305785993,-0.004615445942241059,-0.05875037662413796,-0.0026907933084397984,-0.29166632220994115
905,0.8956,895.992,306.47,-0.0782533,524.007,-5.76938,-3.32813,0.408086,-0.0606038,-0.345161,0.791511,-0.00463715,-0.00270083,0.641865,0.5039364941472109,1.2067282748336918,-0.004626415019587049,-0.058803932204037346,-0.0026971860399659375,-0.291893660830711
906,0.8966,896.142,306.502,-0.0786895,524.079,-5.78235,-3.33564,0.408464,-0.0606606,-0.345482,0.792244,-0.00464819,-0.00270725,0.642464,0.5045050895997687,1.2083463996294328,-0.004637403883306579,-0.05885739062245465,-0.0027035887034789763,-0.292120926487495
907,0.8976,896.291,306.535,-0.0791276,524.15,-5.79536,-3.34316,0.408841,-0.0607174,-0.345803,0.792978,-0.00465925,-0.00271369,0.643063,0.5050723949488869,1.2099679209122711,-0.004648412532741619,-0.05891084600452012,-0.0027100112716871294,-0.29234811920371073
908,0.8986,896.441,306.567,-0.0795679,524.221,-5.80838,-3.3507,0.409219,-0.0607741,-0.346123,0.79371,-0.00467033,-0.00272014,0.643661,0.5056414198531092,1.2115862096517978,-0.004659440967233142,-0.05896420424683113,-0.002716443771369592,-0.2925745315776537
909,0.8996,896.59,306.599,-0.0800101,524.293,-5.82144,-3.35825,0.409597,-0.0608309,-0.346443,0.794443,-0.00468143,-0.00272659,0.64426,0.5062106598894025,1.2132078966191364,-0.004670489186120674,-0.05901765356205502,-0.0027228762295624653,-0.292800871511228
910,0.9006,896.74,306.63,-0.0804544,524.364,-5.83452,-3.36582,0.409974,-0.0608876,-0.346764,0.795174,-0.00469255,-0.00273306,0.644857,0.5067786083597405,1.2148263430616706,-0.0046815571887427465,-0.05907100574854929,-0.002729328591679847,-0.29302784600011844
911,0.9016,896.889,306.662,-0.0809008,524.434,-5.84762,-3.37341,0.410351,-0.0609443,-0.347083,0.795906,-0.00470369,-0.00273955,0.645455,0.5073467709870181,1.2164481894681578,-0.004692644974436555,-0.059124354910060295,-0.0027358008573348247,-0.29325333414997234
912,0.9026,897.038,306.693,-0.0813493,524.505,-5.86075,-3.38101,0.410728,-0.061001,-0.347403,0.796637,-0.00471485,-0.00274604,0.646052,0.5079151478519874,1.2180690054307184,-0.0047037525425382976,-0.05917770104675968,-0.0027422730809848472,-0.2934794569014745
913,0.9036,897.188,306.725,-0.0817998,524.575,-5.87391,-3.38862,0.411104,-0.0610577,-0.347723,0.797367,-0.00472603,-0.00275255,0.646649,0.5084822305524466,1.2196887869530064,-0.0047148798923828394,-0.059231044158818746,-0.0027487652076552127,-0.29370550730527245
914,0.9046,897.336,306.756,-0.0822524,524.646,-5.88709,-3.39625,0.411481,-0.0611143,-0.348042,0.798097,-0.00473723,-0.00275907,0.647245,0.5090510355663729,1.2213097513475017,-0.004726027023304047,-0.059284290174842935,-0.0027552672645093645,-0.29393077931564615
915,0.9056,897.485,306.787,-0.0827072,524.716,-5.9003,-3.40389,0.411857,-0.061171,-0.348361,0.798827,-0.00474846,-0.0027656,0.647841,0.5096185454409161,1.222931899478016,-0.004737203887262398,-0.059337627243469804,-0.0027617792513524586,-0.29415597947570915
916,0.9066,897.634,306.817,-0.083164,524.786,-5.91353,-3.41155,0.412233,-0.0612276,-0.34868,0.799556,-0.0047597,-0.00277214,0.648437,0.5101862687392935,1.2245530076548725,-0.004748390578221406,-0.059390867227062105,-0.0027683011679894287,-0.29438110780837823
917,0.9076,897.783,306.848,-0.083623,524.856,-5.92679,-3.41923,0.412608,-0.0612842,-0.348999,0.800285,-0.00477097,-0.00277869,0.649032,0.5107526947883172,1.2261752980504563,-0.00475960700065492,-0.05944410419735657,-0.0027748330142249866,-0.2946061643365626
918,0.9086,897.932,306.879,-0.0840841,524.925,-5.94008,-3.42692,0.412984,-0.0613408,-0.349318,0.801013,-0.00478225,-0.00278526,0.649627,0.5113208446070299,1.2277965437292608,-0.004770833248971762,-0.05949733815452374,-0.002781384762049588,-0.2948311490831643
919,0.9096,898.08,306.909,-0.0845474,524.995,-5.95339,-3.43462,0.413359,-0.0613974,-0.349636,0.801741,-0.00479356,-0.00279184,0.650222,0.5118876962017889,1.2294189701046419,-0.00478208922719503,-0.05955056909873435,-0.002787946438949862,-0.29505535712678754
920,0.9106,898.229,306.939,-0.0850128,525.064,-5.96673,-3.44234,0.413735,-0.0614539,-0.349955,0.802468,-0.00480488,-0.00279843,0.650816,0.512456272861274,1.231040346994995,-0.004793355030180413,-0.059603702990533636,-0.0027945180447294105,-0.2952801986037419
921,0.9116,898.377,306.969,-0.0854804,525.133,-5.9801,-3.45008,0.41411,-0.0615104,-0.350273,0.803195,-0.00481623,-0.00280503,0.65141,0.5130235503214731,1.2326629030549245,-0.004804650561498591,-0.05965683388035292,-0.0028010995791911686,-0.29550426387232
922,0.9126,898.525,306.999,-0.0859502,525.202,-5.99349,-3.45783,0.414484,-0.061567,-0.350591,0.803921,-0.0048276,-0.00281165,0.652004,0.5135895269603274,1.2342844048564752,-0.004815965868294025,-0.05971005579736077,-0.002807701014061248,-0.29572825789947066
923,0.9136,898.673,307.029,-0.0864222,525.271,-6.00691,-3.4656,0.414859,-0.0616235,-0.350908,0.804647,-0.00483899,-0.00281827,0.652597,0.5141572294705055,1.2359070842957642,-0.004827300949889368,-0.05976318067841624,-0.0028143024052298404,-0.2959514766596737
924,0.9146,898.821,307.058,-0.0868963,525.34,-6.02036,-3.47338,0.415233,-0.0616799,-0.351226,0.805373,-0.0048504,-0.00282491,0.65319,0.5147236301846589,1.2375309422280676,-0.00483865580560594,-0.059816208539626214,-0.002820923696279176,-0.29617532849576766
925,0.9156,898.969,307.087,-0.0873727,525.409,-6.03383,-3.48118,0.415607,-0.0617364,-0.351543,0.806098,-0.00486183,-0.00283156,0.653783,0.5152902427722972,1.2391537403544217,-0.004850030434763952,-0.05986932742322115,-0.0028275549150877932,-0.2963984055570522
926,0.9166,899.117,307.117,-0.0878513,525.477,-6.04733,-3.489,0.415981,-0.0617929,-0.35186,0.806823,-0.00487328,-0.00283823,0.654375,0.5158570673126761,1.2407777154360122,-0.004861424836682393,-0.05992244330568397,-0.0028342060331150165,-0.2966214119141155
927,0.9176,899.265,307.146,-0.0883322,525.545,-6.06086,-3.49683,0.416355,-0.0618493,-0.352177,0.807547,-0.00488476,-0.0028449,0.654967,0.5164241038850803,1.2424006259246942,-0.0048728489619507265,-0.05997546218473504,-0.002840857106779393,-0.2968443475893674
928,0.9186,899.413,307.175,-0.0888152,525.613,-6.07441,-3.50467,0.416729,-0.0619057,-0.352494,0.808271,-0.00489625,-0.00285159,0.655558,0.5169913525688252,1.2440247118260177,-0.004884282907227977,-0.06002847807360567,-0.002847528079130912,-0.2970672126052102
929,0.9196,899.56,307.203,-0.0893006,525.681,-6.08799,-3.51254,0.417102,-0.0619621,-0.352811,0.808994,-0.00490777,-0.00285829,0.65615,0.5175572958852004,1.2456477283424388,-0.004895746574258064,-0.060081490972464624,-0.0028542089783117897,-0.2972900069840396
930,0.9206,899.708,307.232,-0.0897882,525.749,-6.1016,-3.52042,0.417475,-0.0620185,-0.353127,0.809717,-0.00491931,-0.00286501,0.65674,0.5181234503378069,1.2472719187241026,-0.0049072300110830636,-0.0601345008814802,-0.0028609097755126767,-0.2975120282606235
931,0.9216,899.855,307.26,-0.090278,525.817,-6.11524,-3.52831,0.417848,-0.0620749,-0.353443,0.81044,-0.00493087,-0.00287173,0.657331,0.5186898160054134,1.2488972838200203,-0.004918733217015414,-0.06018750780082138,-0.002867610527684472,-0.2977339793895678
932,0.9226,900.003,307.289,-0.0907702,525.884,-6.1289,-3.53622,0.418221,-0.0621312,-0.353759,0.811162,-0.00494244,-0.00287847,0.657921,0.5192563929668179,1.2505215739571178,-0.004930246240669178,-0.06024041775470301,-0.0028743311773409275,-0.2979558603930358
933,0.9236,900.15,307.317,-0.0912647,525.951,-6.14259,-3.54415,0.418593,-0.0621875,-0.354075,0.811883,-0.00495405,-0.00288522,0.658511,0.5198216614784259,1.2521447851092438,-0.004941798933446817,-0.06029332472983806,-0.002881061752889713,-0.2981776712931836
934,0.9246,900.297,307.345,-0.0917614,526.018,-6.15631,-3.55209,0.418966,-0.0622439,-0.354391,0.812605,-0.00496567,-0.00289198,0.659101,0.5203886606969379,1.2537714207889112,-0.004953361442564863,-0.06034632269176676,-0.0028878022541293236,-0.29839941211216037
935,0.9256,900.444,307.373,-0.0922605,526.085,-6.17006,-3.56005,0.419338,-0.0623002,-0.354707,0.813325,-0.00497731,-0.00289876,0.65969,0.5209543504904952,1.2553947205296594,-0.0049649437180286915,-0.060399223704621696,-0.002894562651912347,-0.2986210828721083
936,0.9266,900.591,307.4,-0.092762,526.152,-6.18383,-3.56803,0.41971,-0.0623564,-0.355022,0.814046,-0.00498898,-0.00290555,0.660278,0.5215202507598018,1.2570214464873994,-0.004976555709379382,-0.06045202778444092,-0.0029013329748466266,-0.2988419824374955
937,0.9276,900.738,307.428,-0.0932657,526.219,-6.19763,-3.57602,0.420082,-0.0624127,-0.355337,0.814766,-0.00500066,-0.00291235,0.660867,0.5220863615831692,1.2586470870892592,-0.0049881775153372,-0.06050492284626674,-0.002908113222729547,-0.29906281243047783
938,0.9286,900.885,307.455,-0.0937719,526.285,-6.21146,-3.58403,0.420453,-0.062469,-0.355652,0.815485,-0.00501237,-0.00291916,0.661455,0.5226511603870163,1.260271638301051,-0.004999829035558734,-0.060557814930184306,-0.0029149033953579373,-0.29928357287296703
939,0.9296,901.032,307.482,-0.0942804,526.352,-6.22532,-3.59205,0.420824,-0.0625252,-0.355967,0.816204,-0.0050241,-0.00292598,0.662043,0.5232161687700942,1.26189735798518,-0.005011500319111906,-0.06061061009742719,-0.0029217034925284047,-0.29950426378686823
940,0.9306,901.179,307.509,-0.0947912,526.418,-6.23921,-3.60009,0.421196,-0.0625814,-0.356281,0.816923,-0.00503585,-0.00293282,0.66263,0.52378291059232,1.263524246982079,-0.005023191365298163,-0.06066340229766498,-0.0029285234847521435,-0.29972418491861463
941,0.9316,901.325,307.536,-0.0953045,526.484,-6.25312,-3.60815,0.421567,-0.0626376,-0.356596,0.817641,-0.00504763,-0.00293967,0.663218,0.5243483389326213,1.2651500409816134,-0.005034912123068502,-0.060716191531064556,-0.002935353400973728,-0.2999447370615791
942,0.9326,901.472,307.563,-0.0958202,526.55,-6.26707,-3.61623,0.421937,-0.0626938,-0.35691,0.818358,-0.00505942,-0.00294653,0.663804,0.5249124521725403,1.2667747359445385,-0.005046642692302705,-0.060768977797792445,-0.0029421932409887663,-0.30016451990642923
943,0.9336,901.618,307.589,-0.0963383,526.615,-6.28104,-3.62432,0.422308,-0.06275,-0.357224,0.819076,-0.00507124,-0.00295341,0.664391,0.5254782996505132,1.2684028646332006,-0.005058402971482745,-0.060821761098015625,-0.002949052975101729,-0.3003842337502999
944,0.9346,901.765,307.616,-0.0968588,526.681,-6.29504,-3.63243,0.422678,-0.0628062,-0.357538,0.819793,-0.00508308,-0.0029603,0.664977,0.526042831053253,1.270029892707004,-0.005070183010253526,-0.06087454143190063,-0.0029559226324606946,-0.30060387861485394
945,0.9356,901.911,307.642,-0.0973817,526.746,-6.30907,-3.64055,0.423048,-0.0628623,-0.357852,0.820509,-0.00509494,-0.0029672,0.665563,0.5266075713712588,1.271655816121303,-0.005081982807910168,-0.06092722489234137,-0.0029628022128599385,-0.3008234545217473
946,0.9366,902.057,307.668,-0.0979071,526.811,-6.32313,-3.6487,0.423418,-0.0629185,-0.358165,0.821225,-0.00510682,-0.00297411,0.666148,0.5271725206818434,1.2732829041136355,-0.005093802363746014,-0.060979999299327736,-0.0029696917160934033,-0.3010422625352416
947,0.9376,902.204,307.694,-0.098435,526.877,-6.33722,-3.65686,0.423788,-0.0629746,-0.358479,0.82194,-0.00511873,-0.00298104,0.666733,0.5277376790623485,1.2749088826081185,-0.005105651625997409,-0.061032676843748135,-0.0029766011121887814,-0.3012617008111932
948,0.9386,902.35,307.719,-0.0989654,526.941,-6.35134,-3.66503,0.424158,-0.0630307,-0.358792,0.822655,-0.00513065,-0.00298798,0.667318,0.5283030465901444,1.2765360240929446,-0.00511751069594979,-0.06108535143304117,-0.0029835204305669327,-0.3014803716750638
949,0.9396,902.496,307.745,-0.0994982,527.006,-6.36548,-3.67323,0.424527,-0.0630868,-0.359105,0.82337,-0.0051426,-0.00299493,0.667903,0.5288670944747706,1.2781643293999494,-0.005129399470661489,-0.06113802306737259,-0.0029904496710208006,-0.3016989741056645
950,0.9406,902.642,307.77,-0.100034,527.071,-6.37966,-3.68144,0.424896,-0.0631429,-0.359417,0.824084,-0.00515457,-0.0030019,0.668487,0.5294313505314718,1.2797915195689034,-0.005141308000477074,-0.06119069174690828,-0.0029973988033689114,-0.30191681004157034
951,0.9416,902.788,307.795,-0.100571,527.135,-6.39386,-3.68966,0.425266,-0.063199,-0.35973,0.824798,-0.00516656,-0.00300887,0.66907,0.5299973448336575,1.281419871966504,-0.005153236284684004,-0.061243357471813864,-0.0030043478872816554,-0.3021352758883388
952,0.9426,902.933,307.821,-0.101112,527.199,-6.40809,-3.69791,0.425634,-0.063255,-0.360043,0.825512,-0.00517858,-0.00301587,0.669654,0.5305604874684458,1.2830493874228792,-0.005165194270916218,-0.06129592637185244,-0.0030113268324201137,-0.3023536733659975
953,0.9436,903.079,307.845,-0.101655,527.264,-6.42236,-3.70617,0.426003,-0.063311,-0.360355,0.826224,-0.00519062,-0.00302287,0.670237,0.5311253685024628,1.2846754974131853,-0.005177172009871001,-0.06134849232811512,-0.0030183057287060944,-0.30257130506759644
954,0.9446,903.225,307.87,-0.1022,527.328,-6.43665,-3.71445,0.426371,-0.0633671,-0.360667,0.826937,-0.00520267,-0.00302989,0.67082,0.5316889263263513,1.2863050519099848,-0.005189159552723255,-0.061401149200656424,-0.0030253045156340974,-0.30278886887869594
955,0.9456,903.37,307.895,-0.102748,527.391,-6.45098,-3.72275,0.42674,-0.0634231,-0.360979,0.827649,-0.00521476,-0.00303692,0.671402,0.5322542238311412,1.287933480758821,-0.005201186743079678,-0.061453709264605694,-0.0030323132231077077,-0.3030063648204745
956,0.9466,903.516,307.919,-0.103299,527.455,-6.46533,-3.73107,0.427108,-0.0634791,-0.361291,0.828361,-0.00522686,-0.00304396,0.671984,0.532818197150237,1.289563069461857,-0.005213223735896166,-0.06150626638527379,-0.003039331850917093,-0.3032237929141042
957,0.9476,903.661,307.943,-0.103852,527.518,-6.47971,-3.7394,0.427476,-0.0635351,-0.361602,0.829072,-0.00523899,-0.00305101,0.672566,0.5333823780497069,1.2911915276525296,-0.005225290426307594,-0.06155882056282547,-0.003046360398851866,-0.30344045662155505
958,0.9486,903.807,307.967,-0.104408,527.582,-6.49413,-3.74775,0.427843,-0.063591,-0.361914,0.829783,-0.00525113,-0.00305808,0.673147,0.5339452326599545,1.2928211440886832,-0.005237366917977382,-0.06161127795855814,-0.0030534088361675593,-0.3036577492996686
959,0.9496,903.952,307.991,-0.104966,527.645,-6.50857,-3.75612,0.428211,-0.063647,-0.362225,0.830493,-0.00526331,-0.00306516,0.673729,0.5345098283848153,1.294449625143351,-0.005249483053060944,-0.061663826255626386,-0.0030604671930464233,-0.30387427806766776
960,0.9506,904.097,308.015,-0.105527,527.708,-6.52304,-3.7645,0.428578,-0.0637029,-0.362536,0.831203,-0.0052755,-0.00307226,0.674309,0.5350730968452728,1.2960792628301232,-0.005261608987954802,-0.061716277781704854,-0.003067545438601549,-0.30409073950569043
961,0.9516,904.243,308.039,-0.106091,527.771,-6.53755,-3.77291,0.428945,-0.0637589,-0.362847,0.831913,-0.00528772,-0.00307937,0.67489,0.535636572063193,1.2977100579705003,-0.005273764616821941,-0.061768820198947694,-0.0030746336031549637,-0.3043071336346729
962,0.9526,904.388,308.062,-0.106657,527.833,-6.55208,-3.78133,0.429312,-0.0638148,-0.363157,0.832622,-0.00529995,-0.00308649,0.67547,0.5362002541144697,1.2993397120457044,-0.0052859300442889,-0.06182126585602876,-0.0030817316864945044,-0.30452276499865794
963,0.9536,904.533,308.085,-0.107226,527.896,-6.56665,-3.78977,0.429679,-0.0638707,-0.363468,0.83333,-0.00531222,-0.00309362,0.67605,0.536764143075025,1.3009682209859719,-0.0052981351110490404,-0.06187370858147967,-0.003088839688407563,-0.30473902478860293
964,0.9546,904.678,308.108,-0.107798,527.958,-6.58125,-3.79823,0.430045,-0.0639266,-0.363778,0.834038,-0.0053245,-0.00310077,0.676629,0.5373267016933376,1.3025978833188212,-0.00531034997495039,-0.06192614837546406,-0.00309596757772157,-0.3049545222870804
965,0.9556,904.823,308.131,-0.108372,528.021,-6.59587,-3.80671,0.430412,-0.0639825,-0.364088,0.834746,-0.00533681,-0.00310793,0.677208,0.5378910041360236,1.3042286998611448,-0.005322594529176827,-0.06197858523814581,-0.003103105385040328,-0.30516995299168703
966,0.9566,904.968,308.154,-0.108949,528.083,-6.61053,-3.8152,0.430778,-0.0640384,-0.364398,0.835454,-0.00534914,-0.00311511,0.677787,0.5384539752609687,1.3058606714304113,-0.005334858825976729,-0.062031019169689006,-0.0031102630790474928,-0.3053853169231254
967,0.9576,905.112,308.177,-0.109529,528.145,-6.62522,-3.82371,0.431144,-0.0640942,-0.364708,0.836161,-0.00536149,-0.00312229,0.678366,0.539017152471057,1.3074914913520246,-0.005347142864616128,-0.06208335637859763,-0.003117420721662656,-0.3056006141020924
968,0.9586,905.257,308.199,-0.110111,528.206,-6.63994,-3.83225,0.43151,-0.0641501,-0.365018,0.836867,-0.00537386,-0.00312949,0.678944,0.5395805358417292,1.3091211555486901,-0.005359446644359944,-0.06213578445359769,-0.0031245982503942393,-0.3058158445492778
969,0.9596,905.402,308.221,-0.110697,528.268,-6.6547,-3.8408,0.431875,-0.0642059,-0.365327,0.837573,-0.00538626,-0.00313671,0.679522,0.5401425853050985,1.310751970694516,-0.005371780110753899,-0.06218811581676664,-0.0031317956648122536,-0.3060303143160267
970,0.9606,905.546,308.244,-0.111285,528.329,-6.66948,-3.84936,0.432241,-0.0642617,-0.365636,0.838279,-0.00539869,-0.00314394,0.680099,0.5407063806595764,1.312383937602359,-0.005384143262689989,-0.06224044425992692,-0.0031390029958749954,-0.30624471782185536
971,0.9616,905.691,308.265,-0.111875,528.391,-6.6843,-3.85795,0.432606,-0.0643176,-0.365945,0.838984,-0.00541113,-0.00315118,0.680676,0.5412688411313087,1.3140147430697495,-0.005396516206987889,-0.0622928635539598,-0.0031462202433668596,-0.3064590550872355
972,0.9626,905.835,308.287,-0.112469,528.452,-6.69915,-3.86656,0.432971,-0.0643734,-0.366254,0.839689,-0.0054236,-0.00315843,0.681253,0.5418315069385848,1.315646698660366,-0.005408918835100196,-0.0623451861523594,-0.0031534474070715746,-0.3066733261326321
973,0.9636,905.98,308.309,-0.113065,528.513,-6.71403,-3.87518,0.433336,-0.0644291,-0.366563,0.840393,-0.00543609,-0.0031657,0.68183,0.5423943781563656,1.3172774879066838,-0.005421341200126162,-0.06239741207098548,-0.003160694455165869,-0.3068875309785041
974,0.9646,906.124,308.33,-0.113665,528.573,-6.72894,-3.88383,0.4337,-0.0644849,-0.366872,0.841097,-0.0054486,-0.00317298,0.682406,0.5429559119029563,1.3189094256328486,-0.00543378330132227,-0.062449728835740514,-0.003167951418894921,-0.30710166964530383
975,0.9656,906.269,308.352,-0.114267,528.634,-6.74388,-3.89249,0.434065,-0.0645407,-0.36718,0.841801,-0.00546114,-0.00318028,0.682982,0.5435191936034576,1.3205425126476746,-0.005446255083481399,-0.06250204268130166,-0.0031752282662890208,-0.30731504946887345
976,0.9666,906.413,308.373,-0.114872,528.695,-6.75886,-3.90117,0.434429,-0.0645965,-0.367488,0.842504,-0.0054737,-0.00318758,0.683557,0.544081136857397,1.3221744275849576,-0.005458746600070619,-0.06255435360783157,-0.0031825050605622796,-0.3075283635815773
977,0.9676,906.557,308.394,-0.115479,528.755,-6.77387,-3.90987,0.434793,-0.0646522,-0.367796,0.843207,-0.00548628,-0.00319491,0.684132,0.5446432846959126,1.3238074901617893,-0.005471257850342526,-0.06260656787615482,-0.003189811706021395,-0.30774161200365135
978,0.9686,906.701,308.414,-0.11609,528.815,-6.78891,-3.91859,0.435157,-0.0647079,-0.368104,0.843909,-0.00549889,-0.00320224,0.684707,0.5452056371934875,1.3254393757447058,-0.005483798778710303,-0.0626587792362242,-0.0031971182979229074,-0.3079547947553253
979,0.9696,906.845,308.435,-0.116703,528.875,-6.80398,-3.92733,0.435521,-0.0647637,-0.368412,0.844611,-0.00551152,-0.00320959,0.685282,0.5457681944246306,1.3270724073134956,-0.005496359439010945,-0.06271108141709836,-0.0032044447721785163,-0.30816791185682224
980,0.9706,906.989,308.455,-0.11732,528.935,-6.81909,-3.93609,0.435884,-0.0648194,-0.368719,0.845312,-0.00552418,-0.00321695,0.685856,0.5463294101336953,1.3287042569675016,-0.005508949775403504,-0.0627632869559257,-0.003211781160467053,-0.30838027170897697
981,0.9716,907.133,308.476,-0.117939,528.995,-6.83423,-3.94486,0.436248,-0.0648751,-0.369027,0.846013,-0.00553685,-0.00322433,0.68643,0.5468923764926454,1.3303372509491553,-0.005521549897187894,-0.06281548958698546,-0.0032191374303774944,-0.30859325778375135
982,0.9726,907.277,308.496,-0.118561,529.054,-6.84941,-3.95366,0.436611,-0.0649308,-0.369334,0.846714,-0.00554956,-0.00323172,0.687003,0.5474540003538761,1.331971390060911,-0.005534189637962927,-0.06286768931043973,-0.0032265036137337777,-0.30880548707474875
983,0.9736,907.421,308.516,-0.119187,529.113,-6.86461,-3.96248,0.436974,-0.0649865,-0.369641,0.847414,-0.00556228,-0.00323913,0.687577,0.548015828121575,1.333604341500279,-0.005546839162619666,-0.06291988612645028,-0.0032338896779765536,-0.30901765122135394
984,0.9746,907.565,308.535,-0.119815,529.173,-6.87985,-3.97131,0.437337,-0.0650422,-0.369948,0.848114,-0.00557503,-0.00324654,0.68815,0.5485778598697739,1.3352384364058203,-0.005559518359590232,-0.06297208003517918,-0.003241275687488887,-0.30922975024356325
985,0.9756,907.709,308.555,-0.120446,529.232,-6.89512,-3.98017,0.437699,-0.0650978,-0.370254,0.848813,-0.0055878,-0.00325397,0.688722,0.5491385465332099,1.3368713387057354,-0.005572217283458025,-0.06302417733921084,-0.0032486815772976296,-0.3094410936028056
986,0.9766,907.853,308.574,-0.12108,529.291,-6.91043,-3.98905,0.438062,-0.0651535,-0.370561,0.849512,-0.0056006,-0.00326142,0.689295,0.5497009859021711,1.33850538280337,-0.005584945877613601,-0.0630763654390809,-0.003256107346958803,-0.3096530626481562
987,0.9776,907.996,308.594,-0.121717,529.349,-6.92577,-3.99794,0.438424,-0.0652091,-0.370867,0.85021,-0.00561342,-0.00326888,0.689867,0.550262079210829,1.34013822935772,-0.00559769419689049,-0.06312845694500524,-0.0032635430286628297,-0.3098642764936195
988,0.9786,908.14,308.613,-0.122357,529.408,-6.94115,-4.00686,0.438786,-0.0652648,-0.371173,0.850908,-0.00562626,-0.00327635,0.690438,0.5508233756720333,1.3417722160368224,-0.005610462240526082,-0.06318063923666306,-0.00327098862218711,-0.31007542571753355
989,0.9796,908.284,308.631,-0.123,529.466,-6.95656,-4.01579,0.439148,-0.0653204,-0.371479,0.851606,-0.00563913,-0.00328384,0.69101,0.5513848753593382,1.3434073436367613,-0.005623259951523574,-0.06323272494512544,-0.003278454094524097,-0.3102865103396697
990,0.9806,908.427,308.65,-0.123647,529.525,-6.972,-4.02475,0.43951,-0.065376,-0.371785,0.852303,-0.00565202,-0.00329134,0.691581,0.5519465783463251,1.3450412679117383,-0.005636077385094196,-0.06328480775770284,-0.003285929478085703,-0.310497530379793
991,0.9816,908.571,308.669,-0.124296,529.583,-6.98748,-4.03372,0.439871,-0.0654316,-0.372091,0.853,-0.00566494,-0.00329886,0.692151,0.5525069321988929,1.3466763314289145,-0.005648924483982021,-0.06333688767455647,-0.003293424739713835,-0.31070848585766264
992,0.9826,908.714,308.687,-0.124948,529.641,-7.00299,-4.04272,0.440233,-0.0654872,-0.372396,0.853697,-0.00567788,-0.00330639,0.692722,0.5530690414439838,1.3483125349826186,-0.005661791303650632,-0.0633889646958471,-0.0033009299119685087,-0.31091868771206377
993,0.9836,908.858,308.705,-0.125604,529.699,-7.01854,-4.05174,0.440594,-0.0655428,-0.372701,0.854393,-0.00569085,-0.00331393,0.693292,0.5536298005788791,1.3499475294190288,-0.005674687786583532,-0.0634410388217359,-0.003308444994625015,-0.31112882546467524
994,0.9846,909.001,308.723,-0.126262,529.756,-7.03412,-4.06077,0.440955,-0.0655984,-0.373007,0.855088,-0.00570383,-0.00332149,0.693861,0.5541907621843658,1.351581310625181,-0.0056875940453743334,-0.06349311005238378,-0.0033159799542986645,-0.31133958779580184
995,0.9856,909.144,308.741,-0.126924,529.814,-7.04973,-4.06983,0.441316,-0.065654,-0.373311,0.855783,-0.00571685,-0.00332906,0.694431,0.554751926333549,1.3532162277039417,-0.005700539908622071,-0.0635451783879517,-0.003323524823773072,-0.3115489087427159
996,0.9866,909.288,308.759,-0.127589,529.871,-7.06538,-4.07891,0.441677,-0.0657095,-0.373616,0.856478,-0.00572989,-0.00333665,0.695,0.5553132930995601,1.3548522814450163,-0.0057135054890459225,-0.06359715018832035,-0.0033310895695114473,-0.3117588543072233
997,0.9876,909.431,308.776,-0.128257,529.928,-7.08107,-4.08801,0.442037,-0.0657651,-0.373921,0.857172,-0.00574295,-0.00334425,0.695569,0.5558733066814727,1.3564871161503658,-0.005726490785870064,-0.0636492127394176,-0.003338664224446952,-0.3119687358480976
998,0.9886,909.574,308.794,-0.128928,529.985,-7.09679,-4.09713,0.442397,-0.0658206,-0.374225,0.857866,-0.00575603,-0.00335186,0.696137,0.5564335219045677,1.3581230858247895,-0.005739495798317562,-0.06370117876603998,-0.003346248788352879,-0.3121778655630725
999,0.9896,909.717,308.811,-0.129603,530.042,-7.11255,-4.10627,0.442757,-0.0658762,-0.37453,0.85856,-0.00576914,-0.00335949,0.696705,0.5569939388414495,1.3597601912562292,-0.005752530468085215,-0.06375323553330903,-0.0033538532274637323,-0.31238761932500103
