,Time,S11,S22,S33,S12,S13,S23,LE11,LE22,LE33,LE12,LE13,LE23,SDV_EPBAR,E11,E12,E13,E22,E23,E33
0,1e-05,0.779046,0.259682,-1.11022e-16,0.449782,-1.83163e-17,-1.05749e-17,3.37499e-06,1.25006e-07,-1.50001e-06,5.62914e-06,-2.36326e-22,-1.41845e-23,0.0,3.374995695359928e-06,5.629155843678291e-06,0.0,1.250060077673254e-07,0.0,-1.500008874999459e-06
1,2e-05,1.55809,0.519362,-1.11022e-16,0.899562,-2.04312e-17,-6.91156e-18,6.74997e-06,2.49999e-07,-2.99999e-06,1.12583e-05,-1.83386e-22,-1.05878e-22,0.0,6.749992781163172e-06,1.1258363374899716e-05,0.0,2.499990312543332e-07,0.0,-2.999985500018454e-06
2,3.5e-05,2.72664,0.908881,2.22045e-16,1.57423,-3.5084e-17,-1.53714e-17,1.18124e-05,4.37512e-07,-5.24997e-06,1.97019e-05,9.3871e-27,5.41964e-27,0.0,1.1812469766780964e-05,1.970209408375112e-05,0.0,4.375120956634504e-07,0.0,-5.249956218977836e-06
3,5.75e-05,4.47946,1.49315,5.55112e-16,2.58622,-5.05658e-17,-7.31536e-17,1.9406e-05,7.1874e-07,-8.62488e-06,3.23672e-05,-3.66747e-22,-2.11741e-22,0.0,1.9406188297654836e-05,3.2367723823423233e-05,0.0,7.187402581987357e-07,0.0,-8.624842805837751e-06
4,9.125e-05,7.10865,2.36955,-1.66533e-15,4.10418,-7.36771e-17,-6.69594e-17,3.07962e-05,1.1406e-06,-1.36872e-05,5.1365e-05,6.25425e-26,3.61089e-26,0.0,3.079667420791132e-05,5.136631920410473e-05,0.0,1.1406006505954025e-06,0.0,-1.3687106330650955e-05
5,0.00014188,11.0523,3.68411,-6.99441e-15,6.38107,-1.49205e-16,-7.14903e-17,4.78811e-05,1.77341e-06,-2.12805e-05,7.98609e-05,2.27128e-22,-3.78122e-21,0.0,4.788224631813165e-05,7.98640889665414e-05,0.0,1.7734115724810096e-06,0.0,-2.1280273571733233e-05
6,0.00021781,16.9677,5.6559,-4.9627e-14,9.79631,-1.40128e-16,-2.2255e-16,7.35077e-05,2.72253e-06,-3.26701e-05,0.000122604,-2.93395e-21,-1.69392e-21,0.0,7.351040175707091e-05,0.00012261151617765087,0.0,2.722533706034369e-06,0.0,-3.266956633807272e-05
7,0.00033172,25.8403,8.61344,-2.51243e-13,14.9189,-4.17457e-16,-1.48216e-16,0.000111946,4.1462e-06,-4.97538e-05,0.000186714,-4.62749e-21,1.24079e-21,0.0,0.00011195226618720966,0.00018673143214376076,0.0,4.146208595567913e-06,0.0,-4.9752562300220404e-05
8,0.00050258,39.1483,13.0494,-1.27531e-12,22.6023,-6.94753e-16,-7.38626e-17,0.000169599,6.28151e-06,-7.53773e-05,0.000282874,-5.8666e-21,-3.38708e-21,0.0,0.00016961338272358795,0.00028291401262259264,0.0,6.28152972881324e-06,0.0,-7.537445920269281e-05
9,0.00075887,59.1081,19.7027,-6.47116e-12,34.1261,-7.26032e-16,-5.60822e-16,0.000256069,9.48414e-06,-0.000113809,0.000427098,1.36678e-21,-2.26872e-20,0.0,0.00025610178846502407,0.00042718921933682097,0.0,9.484184974706267e-06,0.0,-0.00011380252400139401
10,0.0011433,89.0431,29.681,-3.27506e-11,51.4091,-1.2623e-15,-7.14135e-16,0.000385754,1.42872e-05,-0.000171446,0.000643399,-1.75966e-20,-1.01594e-20,0.0,0.0003858284126423417,0.0006436060255341491,0.0,1.4287302062543361e-05,0.0,-0.00017143130397445638
11,0.00172,133.935,44.6449,-1.65608e-10,77.3273,-1.49619e-15,-8.49172e-16,0.000580234,2.14902e-05,-0.000257882,0.000967773,-1.1719e-20,-6.76597e-21,0.0,0.000580402368310251,0.0009682414433931363,0.0,2.149043091592695e-05,0.0,-0.0002578487512951977
12,0.0025849,201.248,67.0827,-8.37547e-10,116.191,-2.43263e-15,-1.38982e-15,0.00087185,3.22909e-05,-0.000387489,0.00145416,-2.34317e-20,-1.35283e-20,0.0,0.0008722301716874714,0.001455217803329134,0.0,3.2291421356633876e-05,0.0,-0.00038741393583330286
13,0.0035849,279.033,93.0109,-1.8463e-09,161.1,-4.30543e-15,-2.47109e-15,0.00120883,4.47717e-05,-0.000537258,0.00201621,7.39211e-21,-1.20992e-19,0.0,0.001209560929477993,0.002018243918087581,0.0,4.4772702267437126e-05,0.0,-0.0005371137027634365
14,0.0045849,356.779,118.926,-2.10354e-09,205.986,-4.03192e-15,-2.93838e-15,0.00154564,5.72462e-05,-0.000686952,0.00257798,-3.95513e-20,-1.48114e-19,0.0,0.0015468351171656902,0.0025813058478159068,0.0,5.724783859495375e-05,0.0,-0.000686716102494711
15,0.0055849,373.595,125.159,0.064858,216.077,-0.0394301,-0.0305621,0.00187008,2.30517e-05,-0.000932618,0.00318754,-4.06398e-07,-5.27469e-07,0.000397017,0.0018718296901201192,0.0031926256077161597,-4.0639791742957954e-07,2.3051965692522103e-05,-5.274688609224754e-07,-0.0009321832469963987
16,0.0065849,382.005,127.812,-0.0710235,221.149,-0.160086,-0.0540171,0.0021948,-2.19472e-05,-0.00119144,0.00380229,-2.29725e-06,-9.94083e-07,0.000849603,0.0021972103365996976,0.0038095278752148243,-2.297247361338073e-06,-2.1946959162022495e-05,-9.940825058674108e-07,-0.0011907305171598992
17,0.0075849,389.884,130.769,0.00491521,225.73,-0.122998,-0.0986058,0.00251892,-6.50907e-05,-0.00145156,0.00441644,-2.10781e-06,-1.85277e-06,0.00130666,0.002522095144401826,0.004426206844070579,-2.1078077785396943e-06,-6.508858164633313e-05,-1.8527682835722814e-06,-0.0014505069963441919
18,0.0085849,396.878,132.993,-0.0863065,229.93,-0.219316,-0.106502,0.00284297,-0.00011094,-0.00171243,0.00503169,-3.85053e-06,-2.27175e-06,0.00176836,0.0028470150716413123,0.005044370210837368,-3.85052258666807e-06,-0.00011093384638571901,-2.271747419624326e-06,-0.0017109646283156588
19,0.0095849,403.562,135.534,0.0178602,233.794,-0.184815,-0.124174,0.00316649,-0.000155079,-0.00197409,0.0056463,-3.85749e-06,-2.86027e-06,0.00223293,0.0031715086252042113,0.005662270395578206,-3.857482559932457e-06,-0.0001550669758734191,-2.86026590945454e-06,-0.0019721427658851987
20,0.010585,409.536,137.415,-0.0722412,237.388,-0.270343,-0.134169,0.00348994,-0.000201636,-0.00223635,0.00626185,-5.59419e-06,-3.37713e-06,0.00270089,0.0034960369311798356,0.00628149636884201,-5.594174352530068e-06,-0.00020161567282805937,-3.3771242975433324e-06,-0.00223385123239217
21,0.011585,415.34,139.635,0.0260212,240.737,-0.235223,-0.148355,0.00381291,-0.000246494,-0.00249912,0.00687668,-5.72132e-06,-3.98233e-06,0.00317074,0.0038201883890081056,0.006900378655456896,-5.721303633299257e-06,-0.00024646362284996837,-3.9823220705503815e-06,-0.002495999799405957
22,0.012585,420.566,141.265,-0.059846,243.884,-0.313549,-0.157364,0.00413584,-0.000293551,-0.00276232,0.0074923,-7.47208e-06,-4.54364e-06,0.00364318,0.004144404389163414,0.007520437507297029,-7.4720520840676485e-06,-0.0002935079181208833,-4.543629677722372e-06,-0.0027585083046239856
23,0.013585,425.701,143.237,0.029485,246.845,-0.279053,-0.170333,0.00445831,-0.000338957,-0.00302588,0.00810718,-7.71374e-06,-5.18602e-06,0.00411691,0.004468263049791643,0.00814013217331544,-7.71371024921308e-06,-0.00033889956056609716,-5.186006552637679e-06,-0.003021306639089505
24,0.014585,430.355,144.68,-0.0499326,249.649,-0.35053,-0.177961,0.00478073,-0.000386357,-0.00328973,0.00872271,-9.46392e-06,-5.77815e-06,0.00459267,0.004792175922352149,0.008760863688708431,-9.463875217274875e-06,-0.00038628237374538354,-5.778133306488797e-06,-0.0032843247671403564
25,0.015585,434.965,146.452,0.0302019,252.305,-0.317884,-0.189984,0.00510273,-0.0004322,-0.00355385,0.00933751,-9.81969e-06,-6.4535e-06,0.00506932,0.005115771099026611,0.009381240552011283,-9.819641787034428e-06,-0.0004321066150341224,-6.45347917616057e-06,-0.0035475425492124124
26,0.016585,439.168,147.752,-0.0416916,254.837,-0.382523,-0.196422,0.00542469,-0.000479833,-0.00381817,0.00995286,-1.15546e-05,-7.07205e-06,0.00554759,0.005439430272547563,0.010002554441530531,-1.1554533245861087e-05,-0.0004797178985566086,-7.072024993060033e-06,-0.003810890057225902
27,0.017585,443.354,149.359,0.0293339,257.25,-0.352612,-0.207546,0.00574625,-0.000526035,-0.00408268,0.0105675,-1.2023e-05,-7.7745e-06,0.0060265,0.005762791362955877,0.010623533231244542,-1.2022927724064658e-05,-0.000525896667846304,-7.77446977862084e-06,-0.004074357192314748
28,0.018585,447.193,150.548,-0.0346075,259.56,-0.410501,-0.21305,0.00606776,-0.000573827,-0.00434732,0.0111826,-1.37323e-05,-8.41703e-06,0.00650673,0.0060862061457644945,0.011245358989441456,-1.3732205712435608e-05,-0.0005736623927738993,-8.416994576876391e-06,-0.004337884083011279
29,0.019585,451.028,152.014,0.0275735,261.772,-0.383875,-0.223302,0.00638891,-0.000620328,-0.00461211,0.011797,-1.43099e-05,-9.14156e-06,0.00698741,0.006409362618941428,0.01186685904327045,-1.430979761385398e-05,-0.0006201356363644273,-9.141518216071454e-06,-0.004601490552966103
30,0.020585,454.566,153.115,-0.0284112,263.898,-0.435229,-0.228097,0.00670999,-0.000668225,-0.00487698,0.0124117,-1.59871e-05,-9.80621e-06,0.00746918,0.006732552419205229,0.012489044810728656,-1.5986972206949446e-05,-0.000668001787396233,-9.806161919256873e-06,-0.0048651068425987765
31,0.021585,458.106,154.461,0.0253584,265.942,-0.412155,-0.237508,0.00703072,-0.00071498,-0.00514195,0.0130258,-1.66686e-05,-1.05487e-05,0.00795127,0.007055493536426427,0.013111005286564836,-1.6668461079616392e-05,-0.0007147244627048188,-1.0548644362673443e-05,-0.005128752804560932
32,0.022585,461.392,155.49,-0.022962,267.913,-0.457308,-0.241771,0.00735139,-0.000762946,-0.00540698,0.0136402,-1.83108e-05,-1.12338e-05,0.00843424,0.007378477804453665,0.013733651945679881,-1.831063235835373e-05,-0.0007626550307031632,-1.1233736901150593e-05,-0.005392388593965292
33,0.023585,464.68,156.732,0.0229737,269.813,-0.437829,-0.25038,0.00767173,-0.000809917,-0.00567207,0.014254,-1.90895e-05,-1.19912e-05,0.00891745,0.00770123311899229,0.014356072662620623,-1.908931779670553e-05,-0.0008095891057549043,-1.1991128105903748e-05,-0.005656014181875557
34,0.024585,467.75,157.701,-0.018179,271.651,-0.47721,-0.254251,0.007992,-0.000857924,-0.00593719,0.014868,-2.06962e-05,-1.26951e-05,0.00940139,0.00802402127984636,0.014979078534465673,-2.0695985835095243e-05,-0.0008575560884259703,-1.2695019417585662e-05,-0.005919599716953217
35,0.025585,470.82,158.851,0.020605,273.429,-0.461203,-0.262102,0.00831196,-0.000905078,-0.00620234,0.0154814,-2.15643e-05,-1.34647e-05,0.00988551,0.00834660024912659,0.01560185768807787,-2.156406749220796e-05,-0.0009046685404472399,-1.346460935136573e-05,-0.006183145194002648
36,0.026585,473.704,159.77,-0.0140066,275.152,-0.495306,-0.265682,0.00863183,-0.00095311,-0.0064675,0.016095,-2.3137e-05,-1.4186e-05,0.0103702,0.008669191667056042,0.01622522221663436,-2.3136732341666466e-05,-0.0009526559349334329,-1.4185899379182132e-05,-0.00644663073676599
37,0.027585,476.585,160.84,0.0183694,276.822,-0.482533,-0.272823,0.00895141,-0.00100042,-0.00673268,0.016708,-2.40862e-05,-1.49657e-05,0.0108551,0.008991593681203058,0.01684835924984074,-2.4085909929860705e-05,-0.0009999197467468468,-1.4965588014503872e-05,-0.006710066288763583
38,0.028585,479.305,161.715,-0.0103975,278.444,-0.511886,-0.276187,0.0092709,-0.00104846,-0.00699785,0.0173211,-2.56277e-05,-1.57029e-05,0.0113404,0.00931400790678616,0.017471980130343345,-2.5627371613268224e-05,-0.001047910557853693,-1.570277671014697e-05,-0.0069734220619174225
39,0.029585,482.02,162.714,0.0163357,280.02,-0.502037,-0.282672,0.00959012,-0.0010959,-0.00726302,0.0179337,-2.66492e-05,-1.64913e-05,0.0118258,0.009636252555122127,0.018095474422173963,-2.6648844913212955e-05,-0.0010952997208969473,-1.6491164019249993e-05,-0.0072367080102790915
40,0.030585,484.596,163.55,-0.00730528,281.554,-0.527179,-0.285869,0.00990922,-0.00114395,-0.00752816,0.0185464,-2.81632e-05,-1.72428e-05,0.0123116,0.009958478891790135,0.018719452655564073,-2.8162803420772597e-05,-0.0011432959386270536,-1.7242651343729598e-05,-0.007499894377358762
41,0.031585,487.163,164.488,0.014538,283.046,-0.519903,-0.291753,0.0102281,-0.0011915,-0.00779328,0.0191586,-2.92485e-05,-1.80386e-05,0.0127975,0.010280585805536147,0.019343303645783738,-2.9248072266785385e-05,-0.0011907904457142404,-1.8038437305412103e-05,-0.007762991127715169
42,0.032585,489.612,165.288,-0.00468241,284.5,-0.541364,-0.294817,0.0105468,-0.00123955,-0.00805837,0.0197707,-3.07388e-05,-1.8803e-05,0.0132837,0.010602613540626304,0.019967434677760743,-3.0738327567947366e-05,-0.0012387820752252088,-1.8802823224750576e-05,-0.00802598837588675
43,0.033585,492.046,166.171,0.0129861,285.918,-0.536301,-0.300155,0.0108653,-0.00128719,-0.00832344,0.0203825,-3.18798e-05,-1.96053e-05,0.0137699,0.010924541737382887,0.020591641679748474,-3.187929184456095e-05,-0.0012863619262861725,-1.960510781739977e-05,-0.00828889608113581
44,0.034585,494.38,166.94,-0.00247989,287.301,-0.55458,-0.303106,0.0111837,-0.00133523,-0.00858845,0.0209941,-3.33505e-05,-2.03813e-05,0.0142563,0.011246471359948051,0.021216026445198377,-3.334994387826917e-05,-0.0013343389770411607,-2.038109230273477e-05,-0.008551674619777128
45,0.035585,496.697,167.773,0.0116739,288.652,-0.551378,-0.307951,0.0115018,-0.00138294,-0.00885343,0.0216054,-3.45396e-05,-2.11892e-05,0.0147428,0.01156820003072001,0.021840486648979418,-3.453900351491068e-05,-0.0013819841791432586,-2.118897551051102e-05,-0.008814353793135776
46,0.036585,498.927,168.513,-0.000648478,289.971,-0.566938,-0.310802,0.0118199,-0.00143098,-0.00911836,0.0222166,-3.59945e-05,-2.19756e-05,0.0152295,0.011890031059661021,0.022465226455455678,-3.5993852205762344e-05,-0.0014299566363156213,-2.1975358538317558e-05,-0.009076913824834998
47,0.037585,501.137,169.302,0.0105844,291.261,-0.56527,-0.315205,0.0121377,-0.00147875,-0.00938324,0.0228274,-3.72247e-05,-2.27886e-05,0.0157162,0.012211660815793168,0.0230899389835586,-3.722400716943408e-05,-0.001477657187950343,-2.2788340341861613e-05,-0.009339354772687547
48,0.038585,503.272,170.016,0.000859939,292.523,-0.578527,-0.31796,0.0124553,-0.00152677,-0.00964805,0.023438,-3.86673e-05,-2.35841e-05,0.016203,0.012533190295446861,0.023714828459644233,-3.866655242956707e-05,-0.0015256050796141896,-2.3583821897266155e-05,-0.009601656886505938
49,0.039585,505.386,170.766,0.00969502,293.758,-0.578094,-0.32197,0.0127728,-0.00157459,-0.00991282,0.0240484,-3.99324e-05,-2.44016e-05,0.0166899,0.012854720623604265,0.024339894741757462,-3.993160271231755e-05,-0.0015733509835655912,-2.440130228342774e-05,-0.009863849943852587
50,0.040585,507.435,171.454,0.00209108,294.967,-0.589418,-0.32463,0.0130901,-0.00162261,-0.0101775,0.0246585,-4.13657e-05,-2.52053e-05,0.0171768,0.01317615041859832,0.024965035191242713,-4.136484445127486e-05,-0.0016212942801235863,-2.5204982349147365e-05,-0.010125884500866378
51,0.041585,509.461,172.169,0.00898036,296.151,-0.589957,-0.328291,0.0134072,-0.00167046,-0.0104422,0.0252683,-4.26603e-05,-2.60268e-05,0.0176637,0.01349747951993252,0.02559024947816435,-4.265939006231623e-05,-0.0016690655582553005,-2.6026461305783677e-05,-0.010387869503994174
52,0.042585,511.43,172.833,0.00308726,297.312,-0.599669,-0.330856,0.0137242,-0.00171846,-0.0107067,0.025878,-4.4087e-05,-2.68375e-05,0.0181506,0.013818809148995692,0.026215742515447005,-4.408602818251062e-05,-0.0017169842930496726,-2.683713987750025e-05,-0.010649587298806162
53,0.043585,513.376,173.516,0.00841468,298.451,-0.600953,-0.334207,0.0140409,-0.00176634,-0.0109712,0.0264873,-4.54063e-05,-2.76627e-05,0.0186376,0.014139936413671617,0.02684120629555231,-4.5405269149534355e-05,-0.001764780939580879,-2.7662317391041746e-05,-0.010911235878415582
54,0.044585,515.272,174.159,0.00388676,299.567,-0.609327,-0.336676,0.0143575,-0.00181433,-0.0112356,0.0270964,-4.68285e-05,-2.84796e-05,0.0191245,0.014461063949346542,0.027466845793473027,-4.6827403562876846e-05,-0.0018126850982741471,-2.8479194460029333e-05,-0.01117271637840389
55,0.045585,517.145,174.813,0.00797342,300.663,-0.611167,-0.339753,0.014674,-0.00186222,-0.0115,0.0277052,-4.81683e-05,-2.93082e-05,0.0196115,0.014782191691871116,0.028092558056679096,-4.816713992605859e-05,-0.0018604871441556536,-2.9307770518904874e-05,-0.011434127752086964
56,0.046585,518.973,175.435,0.00452347,301.739,-0.618434,-0.342124,0.0149903,-0.0019102,-0.0117643,0.0283138,-4.95878e-05,-3.01304e-05,0.0200984,0.015103218066748081,0.028718445625780964,-4.958657054532356e-05,-0.001908376729102157,-3.012994608408981e-05,-0.011695371187281367
57,0.047585,520.778,176.063,0.00763409,302.796,-0.620672,-0.344958,0.0153064,-0.00195811,-0.0120285,0.0289221,-5.09448e-05,-3.0962e-05,0.0205853,0.015424142913478711,0.029344405422625286,-5.0943502335698554e-05,-0.001956194153297508,-3.096152068227109e-05,-0.011956446780609253
58,0.048585,522.544,176.665,0.00502683,303.834,-0.627025,-0.34723,0.0156223,-0.00200607,-0.0122926,0.0295302,-5.23629e-05,-3.17889e-05,0.0210721,0.01574496607157494,0.02997054011252076,-5.236152908727476e-05,-0.0020040591864132207,-3.178839473827466e-05,-0.012217354628616617
59,0.049585,524.286,177.27,0.00737683,304.854,-0.629534,-0.349849,0.0159381,-0.00205398,-0.0125566,0.0301379,-5.3734e-05,-3.26232e-05,0.0215589,0.016065788987132512,0.030596643431972437,-5.373255635443552e-05,-0.002051872026571866,-3.262266786918655e-05,-0.012478094827773956
60,0.050585,525.994,177.853,0.00542198,305.857,-0.635133,-0.352021,0.0162537,-0.00210193,-0.0128206,0.0307455,-5.51518e-05,-3.3454e-05,0.0220457,0.016386509957243778,0.03122302422773693,-5.515027916747073e-05,-0.0020997224920841218,-3.345344042116061e-05,-0.012738766200604323
61,0.051585,527.678,178.436,0.0071845,306.844,-0.63781,-0.354447,0.0165691,-0.00214984,-0.0130844,0.0313527,-5.65345e-05,-3.42907e-05,0.0225324,0.016707128821421335,0.031849372988287605,-5.653290195528626e-05,-0.0021475307491235496,-3.4290112080670454e-05,-0.01299917136512918
62,0.052585,529.331,179.001,0.00573009,307.814,-0.642784,-0.35652,0.0168844,-0.00219778,-0.0133482,0.0319597,-5.79527e-05,-3.51249e-05,0.023019,0.017027747121957537,0.03247589568809395,-5.795102077477132e-05,-0.0021953666498637503,-3.5124283127907496e-05,-0.013259507843831786
63,0.053585,530.961,179.565,0.0070427,308.769,-0.64555,-0.358774,0.0171995,-0.00224567,-0.0136119,0.0325664,-5.9345e-05,-3.59637e-05,0.0235056,0.017348263059709712,0.033102488871830316,-5.934323912026862e-05,-0.0022431503695645727,-3.5963053313881055e-05,-0.013519677006801567
64,0.054585,532.563,180.113,0.00596872,309.709,-0.650006,-0.360748,0.0175145,-0.0022936,-0.0138755,0.0331729,-6.07639e-05,-3.68008e-05,0.0239921,0.017668778241064498,0.03372925557912243,-6.07620539115894e-05,-0.0022909717093198,-3.6800122858893225e-05,-0.013779678950180951
65,0.055585,534.143,180.658,0.00693955,310.635,-0.6528,-0.362848,0.0178293,-0.00234148,-0.014139,0.033779,-6.2164e-05,-3.76415e-05,0.0244785,0.017989190802745858,0.0343559887932432,-6.216206785858436e-05,-0.0023387408739914406,-3.764079156765021e-05,-0.014039513770036649
66,0.056585,535.697,181.19,0.00615223,311.546,-0.656822,-0.364725,0.0181439,-0.00238939,-0.0144024,0.034385,-6.35842e-05,-3.84809e-05,0.0249648,0.018309500584259286,0.03498299848720077,-6.358217856761161e-05,-0.002386537679934575,-3.848015961971374e-05,-0.014299181562360097
67,0.057585,537.23,181.718,0.00686544,312.444,-0.659597,-0.366685,0.0184584,-0.00243726,-0.0146657,0.0349906,-6.49906e-05,-3.93231e-05,0.0254511,0.018629809288096544,0.03560997402011412,-6.498848815672531e-05,-0.0024342922933600075,-3.9322326856994216e-05,-0.014558682423067237
68,0.058585,538.739,182.235,0.00629228,313.329,-0.663253,-0.368468,0.0187727,-0.00248515,-0.014929,0.035596,-6.6412e-05,-4.01645e-05,0.0259372,0.018950014954840277,0.036237122116960174,-6.640979477190445e-05,-0.002482064571185827,-4.0163693417305524e-05,-0.01481811496619212
69,0.059585,540.228,182.748,0.00681271,314.202,-0.665976,-0.3703,0.0190868,-0.00253301,-0.0151921,0.0362011,-6.78235e-05,-4.10081e-05,0.0264233,0.019270117423998645,0.036864338944866626,-6.782120003845371e-05,-0.002529804637146471,-4.100725917932646e-05,-0.015077282225196553
70,0.060585,541.695,183.25,0.00639821,315.061,-0.669321,-0.371991,0.0194008,-0.00258087,-0.0154551,0.0368059,-6.92461e-05,-4.18511e-05,0.0269092,0.019590218494107692,0.03749162416899132,-6.924370254413059e-05,-0.0025775424183224205,-4.185022425495788e-05,-0.01533628283989763
71,0.061585,543.143,183.748,0.00677539,315.909,-0.671967,-0.373707,0.0197146,-0.00262872,-0.0157181,0.0374105,-7.06618e-05,-4.26957e-05,0.0273951,0.01991021610967114,0.03811908126613095,-7.065930351379812e-05,-0.0026252679410754265,-4.2694788551567164e-05,-0.015595215346393632
72,0.062585,544.57,184.237,0.00647743,316.745,-0.675044,-0.375309,0.0200283,-0.00267656,-0.0159809,0.0380147,-7.20855e-05,-4.35399e-05,0.0278808,0.020230212133216963,0.03874650233985122,-7.208290190274802e-05,-0.0026729812069467007,-4.353895215225556e-05,-0.01585388293339096
73,0.063585,545.979,184.721,0.00674884,317.57,-0.677596,-0.376918,0.0203418,-0.00272438,-0.0162437,0.0386188,-7.35044e-05,-4.43853e-05,0.0283664,0.02055010444522054,0.03937419867850478,-7.350169861775058e-05,-0.0027206722446835307,-4.438431498710038e-05,-0.016112482551477902
74,0.064585,547.368,185.197,0.00653579,318.384,-0.68044,-0.378433,0.0206551,-0.0027722,-0.0165063,0.0392225,-7.49291e-05,-4.52304e-05,0.0288519,0.020869892885186703,0.040001858322247674,-7.492629288508024e-05,-0.0027683610018895966,-4.522937712092556e-05,-0.01637081749269753
75,0.065585,548.74,185.668,0.00672958,319.188,-0.682889,-0.379943,0.0209683,-0.00282001,-0.0167689,0.039826,-7.63504e-05,-4.60764e-05,0.0293373,0.02118967941159422,0.040629688872558356,-7.634748538243308e-05,-0.0028160375068341237,-4.6075338498985374e-05,-0.01662908460406809
76,0.066585,550.094,186.132,0.00657784,319.981,-0.685527,-0.381375,0.0212813,-0.0028678,-0.0170313,0.0404292,-7.77759e-05,-4.69222e-05,0.0298226,0.021509361808935257,0.04125758605563834,-7.777287553312195e-05,-0.002863691789693479,-4.692109917081577e-05,-0.016887087280836433
77,0.067585,551.431,186.59,0.00671499,320.763,-0.687864,-0.382794,0.0215942,-0.00291558,-0.0172937,0.0410321,-7.9199e-05,-4.77685e-05,0.0303077,0.021829042099618556,0.041885549534840694,-7.91958638419743e-05,-0.002911333824322515,-4.776735910339003e-05,-0.017145022266583876
78,0.068585,552.751,187.043,0.00660716,321.536,-0.690319,-0.384146,0.0219069,-0.00296336,-0.0175559,0.0416347,-8.0625e-05,-4.86147e-05,0.0307927,0.022148618004171672,0.042513578973255584,-8.062174989198478e-05,-0.0029589735826694996,-4.861351832463612e-05,-0.017402693059628382
79,0.069585,554.055,187.49,0.00670317,322.3,-0.692542,-0.385479,0.0222195,-0.00301111,-0.0178181,0.0422371,-8.20493e-05,-4.94612e-05,0.0312776,0.022468191608912003,0.0431417783478838,-8.204593404825822e-05,-0.0030065811550411548,-4.945997681504721e-05,-0.017660296300247458
80,0.070585,555.344,187.931,0.00662649,323.054,-0.694831,-0.386754,0.0225319,-0.00305886,-0.0180801,0.0428392,-8.34756e-05,-5.03075e-05,0.0317623,0.02278766057042425,0.04377004313276034,-8.347211600900906e-05,-0.00305418645420541,-5.030623459889583e-05,-0.017917635589697833
81,0.071585,556.617,188.367,0.00669276,323.799,-0.696939,-0.388007,0.0228441,-0.00310659,-0.0183421,0.043441,-8.49006e-05,-5.11539e-05,0.0322469,0.02310702472820525,0.04439837299020866,-8.489699604607992e-05,-0.003101769542306454,-5.115259166155184e-05,-0.018174907465085988
82,0.072585,557.875,188.798,0.00663796,324.535,-0.699076,-0.389209,0.0231562,-0.00315431,-0.0186039,0.0440425,-8.6327e-05,-5.20001e-05,0.0327314,0.023426386264398413,0.04502676758228952,-8.632327393176542e-05,-0.0031493403908144924,-5.199874801820048e-05,-0.01843191563047486
83,0.073585,559.118,189.223,0.00668278,325.263,-0.70107,-0.390385,0.0234681,-0.00320201,-0.0188656,0.0446438,-8.77522e-05,-5.28463e-05,0.0332157,0.02374564273973334,0.04565533113633058,-8.774834988833913e-05,-0.003196889033233674,-5.2844903658866293e-05,-0.018688758388813564
84,0.074585,560.347,189.644,0.00664319,325.982,-0.703068,-0.391517,0.0237799,-0.0032497,-0.0191273,0.0452448,-8.91782e-05,-5.36922e-05,0.0336999,0.02406489640019882,0.04628395887405712,-8.917422374254969e-05,-0.003244425440081078,-5.369075859962269e-05,-0.018945533940196824
85,0.075585,561.562,190.06,0.0066726,326.692,-0.70495,-0.392621,0.0240915,-0.00329738,-0.0193888,0.0458455,-9.06034e-05,-5.45379e-05,0.0341839,0.02438404474264666,0.04691265045676474,-9.059929563592917e-05,-0.00329194961289081,-5.453641283581501e-05,-0.019202046142639206
86,0.076585,562.764,190.471,0.00664345,327.395,-0.706818,-0.393686,0.024403,-0.00334505,-0.0196502,0.046446,-9.20289e-05,-5.53833e-05,0.0346678,0.024703190076889037,0.047541510299634604,-9.202466547064692e-05,-0.003339461553196643,-5.538176637331915e-05,-0.019458393221754577
87,0.077585,563.952,190.877,0.00666179,328.09,-0.70859,-0.394722,0.0247143,-0.00339269,-0.0199115,0.0470461,-9.34535e-05,-5.62285e-05,0.0351515,0.025022229835922172,0.048170328618031055,-9.344913335773697e-05,-0.003386941330270954,-5.6226919207480464e-05,-0.019714575271963297
88,0.078585,565.128,191.279,0.0066397,328.778,-0.710337,-0.395722,0.0250254,-0.00344033,-0.0201727,0.047646,-9.48781e-05,-5.70732e-05,0.0356351,0.025341163859239124,0.04879931464366405,-9.487359921545035e-05,-0.0034344188454625835,-5.7071571355926665e-05,-0.01997059238761134
89,0.079585,566.29,191.677,0.0066501,329.458,-0.712002,-0.396694,0.0253364,-0.00348795,-0.0204338,0.0482456,-9.63019e-05,-5.79175e-05,0.0361186,0.02566009455235152,0.04942836328265998,-9.629726312088138e-05,-0.003481874168516974,-5.791582281400309e-05,-0.020226444662970855
90,0.080585,567.441,192.07,0.0066327,330.13,-0.713635,-0.397631,0.0256473,-0.00353556,-0.0206948,0.048845,-9.77254e-05,-5.87614e-05,0.0366018,0.02597902185042744,0.050057579200783575,-9.77206250286633e-05,-0.0035293172670959327,-5.875967358270895e-05,-0.02048213219223982
91,0.081585,568.579,192.459,0.00663737,330.796,-0.715197,-0.398542,0.025958,-0.00358315,-0.0209557,0.049444,-9.91481e-05,-5.96048e-05,0.037085,0.02629784305882632,0.05068675210919871,-9.914318498960295e-05,-0.003576738178497685,-5.960302366925241e-05,-0.02073765506954206
92,0.082585,569.705,192.844,0.00662302,331.454,-0.716721,-0.39942,0.0262685,-0.00363072,-0.0212165,0.0500428,-0.00010057,-6.04477e-05,0.0375679,0.026616558017032776,0.05131609174184293,-0.000100564943007031,-0.0036241369056748685,-6.044587307463267e-05,-0.020993013388927673
93,0.083585,570.82,193.225,0.00662356,332.106,-0.718183,-0.400271,0.0265789,-0.00367828,-0.0214772,0.0506413,-0.000101991,-6.12901e-05,0.0380507,0.026935269258066885,0.05194549275221494,-0.00010198579909481698,-0.0036715234148634313,-6.128822180018201e-05,-0.02124820724437282
94,0.084585,571.924,193.602,0.00661112,332.75,-0.719606,-0.401093,0.0268891,-0.00372583,-0.0217377,0.0512396,-0.000103412,-6.21318e-05,0.0385334,0.02725387399163015,0.05257506005680779,-0.00010340665316344033,-0.0037188977075923724,-6.212986985965063e-05,-0.02150313888009847
95,0.085585,573.016,193.975,0.00660866,333.389,-0.720971,-0.401887,0.0271992,-0.00377336,-0.0219982,0.0518375,-0.000104831,-6.29729e-05,0.0390159,0.027572474814459458,0.05320458286230467,-0.00010482550542267877,-0.0037662498230524033,-6.297091724860593e-05,-0.021758004114782126
96,0.086585,574.098,194.344,0.00659736,334.021,-0.722296,-0.402654,0.0275091,-0.00382087,-0.0222585,0.0524352,-0.00010625,-6.38133e-05,0.0394982,0.027890968872509747,0.053834271405156287,-0.00010624435566863877,-0.0038135797641916103,-6.381126397470016e-05,-0.02201260736826005
97,0.087585,575.169,194.709,0.0065927,334.647,-0.723568,-0.403395,0.0278189,-0.00386837,-0.0225188,0.0530326,-0.000107668,-6.4653e-05,0.0399804,0.028209458826212952,0.054464020086095744,-0.00010766220400892923,-0.0038608974953477926,-6.465091003982071e-05,-0.022267144357135726
98,0.088585,576.229,195.071,0.00658203,335.266,-0.724799,-0.404109,0.0281285,-0.00391585,-0.0227789,0.0536297,-0.000109084,-6.5492e-05,0.0404624,0.02852784175780032,0.05509382856309797,-0.00010907805055682118,-0.0039081930571291945,-6.548985544574393e-05,-0.02252141960295928
99,0.089585,577.28,195.43,0.00657573,335.88,-0.725981,-0.404797,0.028438,-0.00396332,-0.0230389,0.0542266,-0.0001105,-6.63302e-05,0.0409442,0.02884622039137641,0.05572380206625471,-0.0001104938950998724,-0.003955476412925485,-6.632800020089924e-05,-0.0227755309979496
100,0.090585,578.32,195.784,0.00656536,336.487,-0.727123,-0.40546,0.0287473,-0.00401077,-0.0232988,0.0548232,-0.000111914,-6.71677e-05,0.0414259,0.029164491745470977,0.056353834806646574,-0.0001119077378619604,-0.004002737604289042,-6.716544430052096e-05,-0.023029478635518297
101,0.091585,579.351,196.136,0.00655783,337.089,-0.728219,-0.406099,0.0290565,-0.0040582,-0.0235586,0.0554195,-0.000113327,-6.80043e-05,0.0419074,0.029482758607839887,0.056983926441492416,-0.00011332057873814083,-0.004049976634162067,-6.800198776002464e-05,-0.023283262609003152
102,0.092585,580.372,196.484,0.00654753,337.685,-0.729274,-0.406713,0.0293655,-0.00410562,-0.0238183,0.0560155,-0.000114738,-6.884e-05,0.0423887,0.02980091793333406,0.05761407662775375,-0.00011473141784745788,-0.004097203464513033,-6.88376305815197e-05,-0.023536883011668897
103,0.093585,581.384,196.829,0.00653906,338.276,-0.730286,-0.407304,0.0296744,-0.00415302,-0.0240779,0.0566112,-0.000116149,-6.96749e-05,0.0428698,0.030119072573338013,0.05824428502213497,-0.00011614225496603403,-0.004144408138309186,-6.967247276057353e-05,-0.02379033993670676
104,0.094585,582.387,197.17,0.00652871,338.861,-0.731258,-0.407871,0.0299831,-0.00420041,-0.0243374,0.0572067,-0.000117558,-7.05088e-05,0.0433508,0.030437119419046255,0.058874657168543676,-0.00011755109032907107,-0.004191600616572977,-7.050631431293475e-05,-0.024043633477234927
105,0.095585,583.38,197.509,0.00651951,339.441,-0.73219,-0.408415,0.0302917,-0.00424778,-0.0245967,0.0578019,-0.000118965,-7.13418e-05,0.0438316,0.030755161385450425,0.05950508696178525,-0.0001189579239450067,-0.004238770943213677,-7.133925523428175e-05,-0.024296666155969704
106,0.096585,584.365,197.844,0.00650903,340.016,-0.733082,-0.408937,0.0306001,-0.00429513,-0.024856,0.0583968,-0.000120371,-7.21738e-05,0.0443123,0.031073095300111486,0.060135574057811114,-0.00012036375570190216,-0.004285919121167603,-7.217119553393214e-05,-0.024549633231836676
107,0.097585,585.341,198.177,0.00649925,340.585,-0.733935,-0.409436,0.0309084,-0.00434246,-0.0251151,0.0589914,-0.000121776,-7.30048e-05,0.0447927,0.031391024141605106,0.060766118112316025,-0.00012176858560386528,-0.004333045153369297,-7.300213521443943e-05,-0.02480233968233192
108,0.098585,586.308,198.506,0.00648859,341.15,-0.734751,-0.409913,0.0312165,-0.00438978,-0.0253742,0.0595858,-0.000123178,-7.38348e-05,0.045273,0.03170884467388202,0.06139682492041576,-0.00012317041390164096,-0.004380158998950279,-7.383207427824612e-05,-0.025054980665067506
109,0.099585,587.267,198.832,0.00647837,341.709,-0.735528,-0.41037,0.0315245,-0.00443708,-0.0256331,0.0601799,-0.00012458,-7.46638e-05,0.0457531,0.03202665993907994,0.06202758812375797,-0.00012457224023398883,-0.004427250703701979,-7.46610127279057e-05,-0.025307361258495753
110,0.1006,588.218,199.156,0.00646758,342.264,-0.73627,-0.410805,0.0318323,-0.00448437,-0.0258919,0.0607737,-0.000125979,-7.54916e-05,0.0462331,0.032344366637561794,0.06265840737728667,-0.00012597106497902466,-0.004474330225812118,-7.548875058083215e-05,-0.025559579075008942
111,0.1016,589.161,199.477,0.00645858,342.814,-0.736975,-0.411226,0.03214,-0.00453164,-0.0261506,0.0613672,-0.000127377,-7.63184e-05,0.0467128,0.03266206787500492,0.06328928233569053,-0.0001273688878943302,-0.004521387612012262,-7.631548782494058e-05,-0.025811634207165146
112,0.1026,590.096,199.795,0.00646541,343.359,-0.737678,-0.411672,0.0324476,-0.00457889,-0.0264092,0.0619605,-0.000128774,-7.71444e-05,0.0471924,0.0329797635861786,0.06392031904542961,-0.00012876570898434636,-0.004568422865230959,-7.714142444725791e-05,-0.02606352674744994
113,0.1036,591.022,200.11,0.00642358,343.9,-0.738421,-0.412083,0.0327549,-0.00462612,-0.0266677,0.0625535,-0.00013017,-7.79692e-05,0.0476718,0.03329724704636394,0.06455141089486327,-0.00013016152825318095,-0.004615435988395422,-7.796616048094673e-05,-0.026315256788276176
114,0.1046,591.942,200.423,0.00642216,344.436,-0.739147,-0.412506,0.0330622,-0.00467333,-0.026926,0.0631462,-0.000131565,-7.87933e-05,0.048151,0.03361482808420857,0.0651825575379319,-0.0001315563457049418,-0.0046624269844312005,-7.879019588941105e-05,-0.02656672707866159
115,0.1056,592.853,200.733,0.00640321,344.968,-0.739879,-0.412939,0.0333693,-0.00472053,-0.0271843,0.0637386,-0.000132959,-7.96168e-05,0.04863,0.03393229994322211,0.06581375862832095,-0.00013295016134384774,-0.004709405809168565,-7.961363066666394e-05,-0.02681813242265918
116,0.1066,593.757,201.041,0.0063951,345.496,-0.740611,-0.413371,0.0336762,-0.00476771,-0.0274424,0.0643308,-0.000134351,-8.04395e-05,0.0491089,0.03424966246286232,0.06644512046396867,-0.00013434197530859393,-0.004756362511685208,-8.043626483011934e-05,-0.02706927825091754
117,0.1076,594.654,201.346,0.00638009,346.019,-0.74135,-0.413805,0.033983,-0.00481487,-0.0277005,0.0649226,-0.000135743,-8.12616e-05,0.0495876,0.03456701893930014,0.06707642947216952,-0.0001357337873357789,-0.004803297094903014,-8.125829836558296e-05,-0.027320359266802097
118,0.1086,595.543,201.649,0.00636991,346.538,-0.742089,-0.41424,0.0342896,-0.00486201,-0.0279584,0.0655143,-0.000137133,-8.20829e-05,0.0500661,0.03488426581876847,0.0677080054288084,-0.00013712359769990634,-0.004850209561742425,-8.207953129091283e-05,-0.027571181001294298
119,0.1096,596.426,201.95,0.00635594,347.053,-0.742834,-0.414678,0.0345961,-0.00490913,-0.0282162,0.0661056,-0.000138523,-8.29035e-05,0.0505444,0.0352015064608866,0.06833952786362607,-0.00013851340613224572,-0.004897099915122438,-8.290006359978896e-05,-0.027821840839390766
120,0.1106,597.301,202.248,0.00634477,347.564,-0.74358,-0.415118,0.0349025,-0.00495624,-0.0284739,0.0666967,-0.000139911,-8.37235e-05,0.0510225,0.035518740800285276,0.06897121003381912,-0.00013990121291251878,-0.0049439781085208745,-8.371999528555829e-05,-0.028072338872948577
121,0.1116,598.17,202.544,0.00633126,348.071,-0.744332,-0.415559,0.0352087,-0.00500332,-0.0287315,0.0672874,-0.000141299,-8.45429e-05,0.0515004,0.035835865187984206,0.06960283786049892,-0.00014128901776644387,-0.004990824243264913,-8.453932634977512e-05,-0.028322675193752422
122,0.1126,599.031,202.838,0.00631948,348.574,-0.745084,-0.416002,0.0355147,-0.00505039,-0.028989,0.067878,-0.000142686,-8.53616e-05,0.0519782,0.036152879463442256,0.07023473187647467,-0.00014267582083682395,-0.0050376582229214595,-8.535795680231217e-05,-0.028572849893515162
123,0.1136,599.886,203.13,0.00630621,349.074,-0.745842,-0.416447,0.0358206,-0.00509744,-0.0292463,0.0684682,-0.000144071,-8.61797e-05,0.0524558,0.03646988711311816,0.07086657085256909,-0.00014406062227190208,-0.0050844700998440295,-8.617598663629433e-05,-0.028822765946158624
124,0.1146,600.735,203.419,0.00629401,349.569,-0.746601,-0.416894,0.0361264,-0.00514447,-0.0295036,0.0690582,-0.000145456,-8.69971e-05,0.0529332,0.0367868880715736,0.07149856855035974,-0.00014544542178895892,-0.00513125987694496,-8.69933158620384e-05,-0.029072617703673642
125,0.1156,601.577,203.706,0.00628085,350.061,-0.747365,-0.417343,0.036432,-0.00519148,-0.0297607,0.0696479,-0.00014684,-8.7814e-05,0.0534104,0.03710377856296909,0.07213061759757933,-0.00014682921953490524,-0.005178027557135256,-8.781014446357371e-05,-0.029322211047062896
126,0.1166,602.413,203.991,0.00626836,350.549,-0.748131,-0.417794,0.0367374,-0.00523847,-0.0300177,0.0702373,-0.000148223,-8.86302e-05,0.0538874,0.03742055842676528,0.07276271764517639,-0.00014821201551384888,-0.005224773143324146,-8.862627245986854e-05,-0.029571643185421048
127,0.1176,603.242,204.274,0.00625525,351.034,-0.7489,-0.418246,0.0370428,-0.00528545,-0.0302746,0.0708265,-0.000149605,-8.94459e-05,0.0543642,0.03773743504990623,0.07339497568334008,-0.0001495938097300087,-0.005271506585704744,-8.944189983473017e-05,-0.02982091421005273
128,0.1186,604.066,204.555,0.00624254,351.515,-0.749673,-0.4187,0.0373479,-0.0053324,-0.0305314,0.0714153,-0.000150986,-9.02611e-05,0.0548408,0.03805409704567109,0.07402717674675086,-0.00015097460218749248,-0.00531820799214644,-9.025702658949086e-05,-0.030070024212190294
129,0.1196,604.883,204.835,0.00622944,351.992,-0.750449,-0.419156,0.0376529,-0.00537933,-0.0307881,0.0720039,-0.000152367,-9.10757e-05,0.0553173,0.03837075183267036,0.07465953522782831,-0.00015235539273816823,-0.005364887313306532,-9.107155273435641e-05,-0.03031897328299471
130,0.1206,605.694,205.112,0.00621658,352.466,-0.751227,-0.419614,0.0379578,-0.00542625,-0.0310447,0.0725923,-0.000153747,-9.18897e-05,0.0557935,0.03868739934536425,0.07529205096623759,-0.00015373518153571908,-0.005411554497973037,-9.188547827088112e-05,-0.030567761513555225
131,0.1216,606.5,205.387,0.00620346,352.937,-0.752009,-0.420074,0.0382625,-0.00547314,-0.0313012,0.0731804,-0.000155125,-9.27032e-05,0.0562696,0.039003935617796914,0.07592461620898883,-0.00015511296873926828,-0.005458189656812773,-9.269890319107965e-05,-0.030816388994889365
132,0.1226,607.3,205.66,0.00619048,353.404,-0.752794,-0.420535,0.0385671,-0.00552002,-0.0315575,0.0737682,-0.000156504,-9.35162e-05,0.0567455,0.03932046442147552,0.0765572306055533,-0.0001564917538878774,-0.005504812684029359,-9.351182749650633e-05,-0.031064758924423952
133,0.1236,608.094,205.931,0.00617733,353.869,-0.753583,-0.420999,0.0388716,-0.00556688,-0.0318138,0.0743557,-0.000157881,-9.43287e-05,0.0572212,0.039636985690809645,0.07718989380515162,-0.00015786853745081153,-0.005551413636638136,-9.432425118804932e-05,-0.03131306520490251
134,0.1246,608.882,206.2,0.00616426,354.329,-0.754374,-0.421464,0.0391759,-0.00561371,-0.0320699,0.0749429,-0.000159258,-9.51407e-05,0.0576967,0.039953395364845656,0.07782260545675479,-0.00015924531911792883,-0.005597982573517402,-9.513617426715193e-05,-0.0315611141648785
135,0.1256,609.665,206.468,0.00615108,354.787,-0.755168,-0.42193,0.03948,-0.00566053,-0.0323259,0.0755299,-0.000160634,-9.59523e-05,0.058172,0.04026969328303687,0.07845547305462564,-0.00016062109904979582,-0.005644539386069791,-9.59476967252737e-05,-0.031809002788554586
136,0.1266,610.442,206.734,0.00613794,355.242,-0.755966,-0.422399,0.039784,-0.00570733,-0.0325818,0.0761166,-0.000162009,-9.67633e-05,0.0586472,0.04058598334344832,0.07908838852826583,-0.00016199587725063136,-0.005691074132704976,-9.675861858293722e-05,-0.03205673116654317
137,0.1276,611.214,206.998,0.00612473,355.693,-0.756766,-0.422869,0.0400879,-0.00575411,-0.0328376,0.0767031,-0.000163384,-9.75739e-05,0.0591221,0.04090226548042297,0.07972145949805243,-0.00016337065356120117,-0.005737586816316864,-9.756913982184034e-05,-0.03230429938938517
138,0.1286,611.981,207.26,0.00611154,356.142,-0.75757,-0.423341,0.0403916,-0.00580087,-0.0330933,0.0772893,-0.000164758,-9.8384e-05,0.0595968,0.041218435506437556,0.08035457776644495,-0.0001647444281460686,-0.005784077439798141,-9.837916045296602e-05,-0.03255170754755021
139,0.1296,612.743,207.52,0.0060983,356.587,-0.758376,-0.423815,0.0406951,-0.00584761,-0.0333488,0.0778752,-0.000166131,-9.91937e-05,0.0600714,0.04153449326095204,0.08098774298119515,-0.0001661172010095635,-0.005830546006039716,-9.918878046755175e-05,-0.03279885901132784
140,0.1306,613.499,207.779,0.00608506,357.029,-0.759186,-0.42429,0.0409985,-0.00589433,-0.0336043,0.0784608,-0.000167504,-0.000100003,0.0605458,0.041850542768493204,0.08162095478980702,-0.0001674899719882328,-0.00587699251793139,-9.999799986670777e-05,-0.03304594733597277
141,0.1316,614.25,208.036,0.0060718,357.469,-0.759998,-0.424768,0.0413018,-0.00594102,-0.0338596,0.0790462,-0.000168876,-0.000100812,0.0610199,0.04216658396333939,0.08225432106496222,-0.00016886174125096964,-0.005923407037595307,-0.00010080691864111646,-0.033292779196190336
142,0.1326,614.997,208.292,0.00605854,357.906,-0.760814,-0.425247,0.041605,-0.0059877,-0.0341148,0.0796313,-0.000170247,-0.00010162,0.0614939,0.04248261677975096,0.08288773335491251,-0.0001702325088018819,-0.0059698094499140986,-0.00010161483686266237,-0.03353945140222725
143,0.1336,615.738,208.545,0.00604525,358.339,-0.761633,-0.425727,0.0419079,-0.00603436,-0.03437,0.0802161,-0.000171618,-0.000102428,0.0619677,0.04279843259226368,0.08352119130643043,-0.00017160327447340862,-0.0060161898165427274,-0.00010242275443150817,-0.0337860606655489
144,0.1346,616.475,208.798,0.00603196,358.77,-0.762454,-0.42621,0.0422108,-0.006081,-0.034625,0.0808007,-0.000172988,-0.000103236,0.0624413,0.043114344079875355,0.08415480298151556,-0.00017297303843866185,-0.00606254814036522,-0.00010323067134754282,-0.034032413808718576
145,0.1356,617.206,209.048,0.00601866,359.199,-0.763279,-0.426694,0.0425135,-0.00612762,-0.0348799,0.081385,-0.000174358,-0.000104043,0.0629147,0.0434301425855208,0.08478845973769111,-0.0001743428005273051,-0.006108884424263716,-0.00010403758771482252,-0.03427860756771106
146,0.1366,617.933,209.297,0.00600535,359.624,-0.764107,-0.42718,0.042816,-0.00617422,-0.0351346,0.081969,-0.000175727,-0.00010485,0.0633879,0.04374582794865689,0.08542216122100044,-0.00017571156091511497,-0.006155198671119244,-0.00010484450343084539,-0.0345245454848403
147,0.1376,618.656,209.545,0.00599204,360.047,-0.764937,-0.427667,0.0431184,-0.0062208,-0.0353893,0.0825527,-0.000177096,-0.000105657,0.0638609,0.04406150441490464,0.08605590707723998,-0.00017708031942909042,-0.006201490883811167,-0.00010565141849572246,-0.03477042076955861
148,0.1386,619.373,209.791,0.00597872,360.467,-0.765771,-0.428157,0.0434207,-0.00626736,-0.0356438,0.0831362,-0.000178464,-0.000106463,0.0643338,0.04437717191842849,0.0866898056209342,-0.00017844807624767256,-0.006247761065217405,-0.0001064573330159524,-0.03501604044104378
149,0.1396,620.086,210.035,0.0059654,360.884,-0.766607,-0.428648,0.0437228,-0.0063139,-0.0358983,0.0837195,-0.000179832,-0.000107269,0.0648064,0.044692725924097676,0.08732385668756915,-0.00017981583119508482,-0.006294009218214547,-0.00010726324688647981,-0.03526159761027636
150,0.1406,620.795,210.278,0.00595208,361.299,-0.767447,-0.42914,0.0440248,-0.00636042,-0.0361526,0.0843024,-0.000181199,-0.000108074,0.0652788,0.0450082707722006,0.08795784252085248,-0.0001811825844526549,-0.006340235345677625,-0.00010806816021569077,-0.03550689939456031
151,0.1416,621.499,210.519,0.00593876,361.712,-0.768289,-0.429635,0.0443266,-0.00640691,-0.0364068,0.0848851,-0.000182566,-0.000108879,0.0657511,0.045323701864477206,0.08859198029378668,-0.00018254933584194166,-0.006386429514344649,-0.00010887307289675352,-0.035752042381740456
152,0.1426,622.199,210.759,0.00592544,362.122,-0.769134,-0.430131,0.0446283,-0.00645339,-0.0366609,0.0854675,-0.000183932,-0.000109684,0.0662231,0.045639123604306775,0.08922616091858204,-0.00018391508554671532,-0.006432611599820892,-0.00010967798493000114,-0.035997026661200415
153,0.1436,622.895,210.998,0.00591211,362.529,-0.769983,-0.430628,0.0449298,-0.00649985,-0.0369149,0.0860497,-0.000185298,-0.000110489,0.066695,0.04595443133032462,0.08986049302562749,-0.00018528083338598123,-0.006478771668379291,-0.00011048289631521158,-0.0362418523222533
154,0.1446,623.586,211.235,0.00589879,362.934,-0.770834,-0.431128,0.0452312,-0.00654629,-0.0371688,0.0866316,-0.000186663,-0.000111293,0.0671666,0.04626972950897623,0.09049486739984314,-0.0001866455795461741,-0.006524909722888994,-0.00011128680716376849,-0.03648651945414183
155,0.1456,624.273,211.471,0.00588548,363.336,-0.771688,-0.431629,0.0455325,-0.0065927,-0.0374226,0.0872132,-0.000188028,-0.000112097,0.0676381,0.046585018074314366,0.09112928368509543,-0.00018801032384352379,-0.006571015831928317,-0.00011209071736606457,-0.0367310281460389
156,0.1466,624.956,211.705,0.00587216,363.736,-0.772545,-0.432131,0.0458336,-0.0066391,-0.0376762,0.0877946,-0.000189393,-0.0001129,0.0681094,0.046900192270350693,0.0917638507013867,-0.00018937506627791922,-0.006617109867403825,-0.00011289362703481576,-0.036975282184579905
157,0.1476,625.635,211.938,0.00585885,364.134,-0.773405,-0.432636,0.0461346,-0.00668548,-0.0379298,0.0883757,-0.000190757,-0.000113704,0.0685804,0.04721535665808485,0.092398459042625,-0.00019073880704034707,-0.006663181897429538,-0.00011369753594514531,-0.03721947428815042
158,0.1486,626.309,212.17,0.00584555,364.529,-0.774268,-0.433142,0.0464354,-0.00673183,-0.0381832,0.0889565,-0.000192121,-0.000114507,0.0690513,0.04753040641847606,0.093033108351956,-0.00019210254594248521,-0.006709221991961112,-0.00011450044432370632,-0.0374634119651569
159,0.1496,626.98,212.4,0.00583225,364.922,-0.775133,-0.43365,0.0467361,-0.00677817,-0.0384365,0.0895371,-0.000193485,-0.00011531,0.069522,0.04784544617553976,0.09366790763906585,-0.0001934662829845557,-0.0067552500201363275,-0.00011530335205744979,-0.03770719160691105
160,0.1506,627.647,212.629,0.00581896,365.313,-0.776002,-0.434159,0.0470366,-0.00682448,-0.0386897,0.0901174,-0.000194848,-0.000116112,0.0699925,0.048160371047207606,0.09430274730678323,-0.00019482901836131994,-0.0068012461194599805,-0.00011610525926264437,-0.03795081330218797
161,0.1516,628.31,212.857,0.00580567,365.702,-0.776874,-0.43467,0.047337,-0.00687077,-0.0389428,0.0906974,-0.00019621,-0.000116915,0.0704628,0.04847528572048598,0.09493762699753372,-0.00019619075207688574,-0.006847220225698281,-0.00011690816570775198,-0.03819427713969292
162,0.1526,628.969,213.083,0.00579239,366.088,-0.777748,-0.435182,0.0476373,-0.00691705,-0.0391958,0.0912772,-0.000197573,-0.000117717,0.0709329,0.0487901901293184,0.09557265591075903,-0.000197553483740176,-0.006893182272776244,-0.000117710071625865,-0.03843758320806112
163,0.1536,629.624,213.308,0.00577912,366.472,-0.778625,-0.435697,0.0479374,-0.0069633,-0.0394487,0.0918567,-0.000198935,-0.000118519,0.0714028,0.049104979297128315,0.09620772425814073,-0.00019891521374493237,-0.006939112400953684,-0.00011851197690082582,-0.038680731595858164
164,0.1546,630.275,213.532,0.00576586,366.854,-0.779505,-0.436213,0.0482374,-0.00700953,-0.0397014,0.0924359,-0.000200297,-0.00011932,0.0718725,0.0494197580053628,0.09684283168138563,-0.00020027694189506118,-0.006985020544612475,-0.00011931288165190068,-0.03892362628394752
165,0.1556,630.923,213.755,0.00575261,367.234,-0.780388,-0.43673,0.0485372,-0.00705574,-0.0399541,0.0930149,-0.000201658,-0.000120122,0.072342,0.049734421214471025,0.09747808756976184,-0.0002016376683922072,-0.007030906706605222,-0.00012011478564144529,-0.03916645960030385
166,0.1566,631.567,213.976,0.00573937,367.612,-0.781274,-0.437249,0.0488369,-0.00710193,-0.0402066,0.0935936,-0.00020302,-0.000120923,0.0728114,0.05004907376883905,0.09811338194373587,-0.00020299939283441315,-0.0070767708897829795,-0.00012091568910876926,-0.03940903944226082
167,0.1576,632.207,214.197,0.00572614,367.987,-0.782162,-0.43777,0.0491364,-0.0071481,-0.040459,0.0941721,-0.000204381,-0.000121724,0.0732805,0.050363610565967054,0.09874882431917587,-0.00020436011562618983,-0.007122613096995467,-0.00012171659193449536,-0.03965146200569114
168,0.1586,632.844,214.416,0.00571292,368.361,-0.783054,-0.438292,0.0494359,-0.00719425,-0.0407113,0.0947503,-0.000205741,-0.000122525,0.0737494,0.05067824158097434,0.09938430458903902,-0.00020571983677186712,-0.007168433331091073,-0.00012251749411873458,-0.039893727378765176
169,0.1596,633.477,214.634,0.00569971,368.732,-0.783948,-0.438816,0.0497351,-0.00724038,-0.0409635,0.0953282,-0.000207102,-0.000123325,0.0742182,0.050992651544240264,0.10001982239384377,-0.00020708055586116103,-0.007214231594916409,-0.00012331739578474998,-0.040135835649584006
170,0.1606,634.107,214.85,0.00568651,369.102,-0.784845,-0.439342,0.0500342,-0.00728649,-0.0412156,0.0959059,-0.000208462,-0.000124126,0.0746867,0.051307050462331416,0.10065548743941033,-0.00020844027330702009,-0.007260007891316866,-0.00012411829668679264,-0.040377786906179436
171,0.1616,634.733,215.066,0.00567332,369.469,-0.785745,-0.439869,0.0503332,-0.00733258,-0.0414676,0.0964833,-0.000209822,-0.000124926,0.075155,0.05162143826905452,0.10129118942736048,-0.00020979998890369167,-0.007305762223136503,-0.00012491819707216578,-0.04061958123651388
172,0.1626,635.356,215.28,0.00566015,369.834,-0.786648,-0.440398,0.0506321,-0.00737864,-0.0417195,0.0970604,-0.000211182,-0.000125726,0.0756232,0.05193581489819987,0.10192692799749925,-0.00021115970265106476,-0.007351484666732522,-0.0001257180968177174,-0.040861218728480586
173,0.1636,635.976,215.493,0.00564699,370.198,-0.787553,-0.440928,0.0509308,-0.00742469,-0.0419712,0.0976373,-0.000212542,-0.000126526,0.0760911,0.05225007505852841,0.10256281304566728,-0.00021251941454925038,-0.007397195078373331,-0.00012651799592322543,-0.041102603580168706
174,0.1646,636.592,215.706,0.00563384,370.559,-0.788462,-0.44146,0.0512293,-0.00747071,-0.0422229,0.098214,-0.000213901,-0.000127326,0.0765589,0.05256421858952276,0.10319884440196447,-0.00021387812481210577,-0.0074428736083848035,-0.00012731789438891195,-0.041343927682935155
175,0.1656,637.204,215.917,0.0056207,370.919,-0.789373,-0.441994,0.0515277,-0.00751672,-0.0424744,0.0987903,-0.00021526,-0.000128125,0.0770264,0.052878350618517755,0.10383480112932308,-0.00021523683322854925,-0.007488540111204145,-0.0001281167923427029,-0.04158499936908766
176,0.1666,637.814,216.127,0.00560758,371.277,-0.790287,-0.442529,0.051826,-0.0075627,-0.0427258,0.0993664,-0.000216619,-0.000128925,0.0774938,0.05319247107924463,0.10447090356996869,-0.0002165955397984698,-0.007534174738981658,-0.00012891668952930146,-0.04182591461593088
177,0.1676,638.42,216.336,0.00559447,371.633,-0.791203,-0.443066,0.0521242,-0.00760866,-0.0429771,0.0999423,-0.000217978,-0.000129724,0.077961,0.05350657990541885,0.10510715155335659,-0.0002179542445218674,-0.0075797874201232185,-0.00012971558620578083,-0.04206667351096571
178,0.1686,639.023,216.543,0.00558138,371.987,-0.792123,-0.443605,0.0524222,-0.0076546,-0.0432283,0.100518,-0.000219337,-0.000130523,0.0784279,0.053820571648676596,0.10574354490875648,-0.00021931294739874208,-0.007625378157461893,-0.00013051448224388196,-0.042307276141624106
179,0.1696,639.623,216.75,0.0055683,372.339,-0.793045,-0.444145,0.05272,-0.00770053,-0.0434794,0.101093,-0.000220696,-0.000131323,0.0788947,0.05413444614850693,0.10637953027534919,-0.00022067164842920484,-0.007670956877119828,-0.00013131437751223718,-0.0425477225952694
180,0.1706,640.219,216.956,0.00555523,372.689,-0.79397,-0.444686,0.0530177,-0.00774643,-0.0437304,0.101668,-0.000222054,-0.000132122,0.0793613,0.05444830868924666,0.10701588143868412,-0.00022202934783532857,-0.007716503734890745,-0.0001321132722729157,-0.042788012959195765
181,0.1716,640.813,217.161,0.00554218,373.038,-0.794898,-0.445229,0.0533153,-0.0077923,-0.0439812,0.102243,-0.000223413,-0.00013292,0.0798277,0.05476215920455285,0.10765259860915499,-0.00022338804517418875,-0.007762018734969955,-0.00013291116652813795,-0.04302805162343881
182,0.1726,641.403,217.364,0.00552914,373.385,-0.795829,-0.445774,0.0536127,-0.00783816,-0.044232,0.102818,-0.000224771,-0.000133719,0.0802938,0.05507589212047259,0.10828968199727651,-0.00022474574089137445,-0.007807521725399225,-0.00013371006001305918,-0.04326803009353364
183,0.1736,641.991,217.567,0.00551612,373.73,-0.796762,-0.44632,0.05391,-0.007884,-0.0444826,0.103392,-0.000226129,-0.000134518,0.0807598,0.0553896128154705,0.10892602288710673,-0.00022610343476470174,-0.007853002786169516,-0.00013450895285949116,-0.043507757086145515
184,0.1746,642.575,217.768,0.00550311,374.073,-0.797698,-0.446868,0.0542072,-0.00792982,-0.0447332,0.103966,-0.000227487,-0.000135317,0.0812256,0.05570332122315946,0.10956272914145715,-0.00022746112679439268,-0.007898461920105126,-0.00013530784506765592,-0.043747424010699754
185,0.1756,643.157,217.969,0.00549012,374.415,-0.798637,-0.447418,0.0545042,-0.00797561,-0.0449836,0.10454,-0.000228845,-0.000136115,0.0816912,0.05601691167543987,0.11019980097010751,-0.00022881881698033624,-0.007943889209468091,-0.00013610573677369509,-0.04398683967963479
186,0.1766,643.735,218.169,0.00547714,374.754,-0.799579,-0.447969,0.0548011,-0.00802139,-0.0452339,0.105113,-0.000230203,-0.000136913,0.0821566,0.056330489644862425,0.11083612774627438,-0.00023017650532253242,-0.007989304498656091,-0.00013690362784291032,-0.04422609982900616
187,0.1776,644.311,218.368,0.00546418,375.093,-0.800523,-0.448521,0.0550978,-0.00806714,-0.0454841,0.105686,-0.000231561,-0.000137712,0.0826218,0.05664394940059525,0.11147281924216634,-0.0002315341918208702,-0.008034687949820984,-0.00013770251813782775,-0.04446520454558156
188,0.1786,644.883,218.565,0.00545124,375.429,-0.80147,-0.449075,0.0553944,-0.00811287,-0.0457342,0.106259,-0.000232918,-0.00013851,0.0830868,0.05695739647789111,0.11210987566682729,-0.0002328908767085247,-0.008080049486341556,-0.00013850040793284002,-0.04470415391606042
189,0.1796,645.453,218.762,0.00543831,375.764,-0.80242,-0.449631,0.0556909,-0.00815858,-0.0459841,0.106832,-0.000234276,-0.000139308,0.0835516,0.057270830810290496,0.1127472972294219,-0.00023424855952081103,-0.008125389111034553,-0.0001392982970911394,-0.04494285252136376
190,0.1806,646.02,218.958,0.00542539,376.097,-0.803372,-0.450188,0.0559872,-0.00820427,-0.046234,0.107405,-0.000235634,-0.000140107,0.0840162,0.057584146572897454,0.11338508413923365,-0.000235606240489461,-0.008170706826714946,-0.00014009718547258743,-0.0451814914833385
191,0.1816,646.584,219.153,0.00541249,376.429,-0.804327,-0.450747,0.0562834,-0.00824994,-0.0464838,0.107977,-0.000236991,-0.000140905,0.0844807,0.05789744939496977,0.11402212258298716,-0.00023696291985120244,-0.008216002636196484,-0.00014089507335668383,-0.04541997535888975
192,0.1826,647.146,219.347,0.00539961,376.759,-0.805285,-0.451308,0.0565795,-0.00829559,-0.0467334,0.108549,-0.000238349,-0.000141703,0.0849449,0.05821073921000375,0.11465952551696468,-0.00023832059713368992,-0.008261276542291363,-0.00014169296060406733,-0.04565820880026994
193,0.1836,647.705,219.54,0.00538675,377.088,-0.806246,-0.451869,0.0568754,-0.00834122,-0.0469829,0.10912,-0.000239707,-0.000142501,0.0854089,0.058523910099083976,0.11529617785297885,-0.00023967827257254104,-0.008306528547810443,-0.00014249084721473793,-0.04589628737563689
194,0.1846,648.26,219.732,0.00537389,377.414,-0.807209,-0.452433,0.0571711,-0.00838683,-0.0472324,0.109692,-0.000241064,-0.000143299,0.0858727,0.05883696190172816,0.11593430975503582,-0.00024103494640859147,-0.008351758655562924,-0.00014328873318869562,-0.046134306557809035
195,0.1856,648.814,219.923,0.00536106,377.74,-0.808176,-0.452998,0.0574668,-0.00843241,-0.0474817,0.110263,-0.000242422,-0.000144097,0.0863364,0.05915010628747819,0.11657169020070568,-0.0002423926181612801,-0.00839695695232634,-0.0001440866185259404,-0.04637207563603707
196,0.1866,649.364,220.114,0.00534824,378.064,-0.809144,-0.453564,0.0577623,-0.00847798,-0.0477309,0.110834,-0.000243779,-0.000144895,0.0867998,0.0594631313910674,0.1172094346945356,-0.0002437492883139436,-0.008442143273419855,-0.00014488450322647228,-0.04660969010679583
197,0.1876,649.912,220.303,0.00533544,378.386,-0.810116,-0.454133,0.0580576,-0.00852352,-0.04798,0.111405,-0.000245137,-0.000145693,0.087263,0.059776037052014175,0.1178475434444568,-0.0002451069563805808,-0.008487297790039094,-0.00014568238729029126,-0.04684715005612572
198,0.1886,650.458,220.492,0.00532265,378.707,-0.81109,-0.454702,0.0583528,-0.00856905,-0.0482289,0.111975,-0.000246495,-0.00014649,0.0877261,0.060088929118748746,0.11848489817306151,-0.0002464646226034706,-0.008532440335692892,-0.00014647927086386403,-0.047084360278439874
199,0.1896,651.0,220.68,0.00530988,379.026,-0.812067,-0.455273,0.0586479,-0.00861455,-0.0484778,0.112545,-0.000247852,-0.000147288,0.0881889,0.06040180752466995,0.11912261629741927,-0.0002478212872305541,-0.00857755108338032,-0.00014727715365503435,-0.047321511466476895
200,0.1906,651.541,220.867,0.00529713,379.344,-0.813046,-0.455846,0.0589428,-0.00866003,-0.0487266,0.113115,-0.00024921,-0.000148086,0.0886516,0.06071456613169901,0.119760698024725,-0.0002491789497673924,-0.00862263995102841,-0.00014807503580949177,-0.04755850839078413
201,0.1916,652.078,221.053,0.00528439,379.66,-0.814029,-0.45642,0.0592377,-0.00870549,-0.0489752,0.113685,-0.000250568,-0.000148884,0.089114,0.061027416984842375,0.12039914356229153,-0.00025053661046048337,-0.008667706941435704,-0.0001488729173272363,-0.04779525591666145
202,0.1926,652.613,221.238,0.00527167,379.975,-0.815014,-0.456996,0.0595323,-0.00875093,-0.0492238,0.114254,-0.000251926,-0.000149682,0.0895763,0.061340041709246895,0.12103683208015692,-0.00025189426930993797,-0.00871275205739952,-0.00014967079820837892,-0.04803194459441895
203,0.1936,653.146,221.423,0.00525897,380.289,-0.816001,-0.457573,0.0598268,-0.00879635,-0.0494722,0.114823,-0.000253284,-0.00015048,0.0900384,0.06165265238119222,0.12167488354603773,-0.0002532519263156452,-0.008757775301715509,-0.00015046867845269762,-0.04826838409238032
204,0.1946,653.676,221.606,0.00524628,380.601,-0.816992,-0.458152,0.0601212,-0.00884174,-0.0497205,0.115392,-0.000254642,-0.000151278,0.0905002,0.06196524893400812,0.12231329816651049,-0.00025460958147771606,-0.008802766765205527,-0.00015126655806030342,-0.048504669716536
205,0.1956,654.204,221.789,0.0052336,380.911,-0.817984,-0.458733,0.0604155,-0.00888712,-0.0499687,0.115961,-0.000256,-0.000152076,0.0909619,0.06227783130100861,0.12295207614826875,-0.00025596723479603956,-0.008847746275056911,-0.00015206443703130734,-0.048740801552339286
206,0.1966,654.729,221.971,0.00522095,381.221,-0.81898,-0.459314,0.0607096,-0.00893248,-0.0502168,0.116529,-0.000257358,-0.000152874,0.0914234,0.06259029315645792,0.12359009410746813,-0.0002573248862707267,-0.008892703921638767,-0.00015286231536548733,-0.04897677968517633
207,0.1976,655.252,222.152,0.00520831,381.528,-0.819978,-0.459898,0.0610036,-0.00897781,-0.0504648,0.117097,-0.000258716,-0.000153672,0.0918846,0.06290274063017387,0.12422847456380759,-0.00025868253590166645,-0.008937629797117319,-0.00015366019306306544,-0.049212604200365884
208,0.1986,655.773,222.333,0.00519568,381.835,-0.820979,-0.460483,0.0612974,-0.00902312,-0.0507127,0.117665,-0.000260075,-0.00015447,0.0923457,0.06321506733391713,0.12486721772324438,-0.0002600411834288163,-0.008982533815803051,-0.00015445807012381962,-0.04944827518315931
209,0.1996,656.291,222.512,0.00518308,382.14,-0.821983,-0.461069,0.0615912,-0.00906841,-0.0509605,0.118233,-0.000261433,-0.000155268,0.0928066,0.06352748581272727,0.12550632379185211,-0.0002613988293711511,-0.009027415980482179,-0.00015525594654797192,-0.04968379271874113
210,0.2006,656.807,222.691,0.00517049,382.444,-0.822989,-0.461657,0.0618847,-0.00911369,-0.0512082,0.1188,-0.000262792,-0.000156066,0.0932673,0.0638396769416203,0.1261446668305919,-0.00026275747320692044,-0.009072286203217095,-0.0001560538223353003,-0.04991915689222837
211,0.2016,657.321,222.869,0.00515791,382.746,-0.823998,-0.462246,0.0621782,-0.00915894,-0.0514557,0.119367,-0.000264151,-0.000156864,0.0937278,0.06415195971205745,0.12678337191246403,-0.00026411611519627787,-0.009117124667788468,-0.0001568516974860268,-0.05015427280410334
212,0.2026,657.832,223.047,0.00514535,383.048,-0.82501,-0.462837,0.0624715,-0.00920417,-0.0517032,0.119934,-0.00026551,-0.000157663,0.0941881,0.06446412125809386,0.1274224392428056,-0.0002654747553393344,-0.009161941286704334,-0.00015765057184236042,-0.05038933053199057
213,0.2036,658.341,223.223,0.00513281,383.347,-0.826024,-0.46343,0.0627646,-0.00924937,-0.0519505,0.120501,-0.000266869,-0.000158461,0.0946482,0.06477616141928655,0.12806186902706918,-0.000266833393635868,-0.00920672615481255,-0.00015844844571888395,-0.05062414021513595
214,0.2046,658.848,223.399,0.00512028,383.646,-0.827041,-0.464024,0.0630577,-0.00929456,-0.0521977,0.121067,-0.000268228,-0.000159259,0.0951081,0.0650882930528549,0.1287005327697277,-0.0002681920300861007,-0.009251499091205484,-0.00015924631895869457,-0.05085879692291073
215,0.2056,659.352,223.574,0.00510777,383.943,-0.82806,-0.464619,0.0633505,-0.00933973,-0.0524448,0.121633,-0.000269587,-0.000160058,0.0955678,0.06540019656550666,0.12933955809838382,-0.0002695506646899215,-0.009296250190280353,-0.00016004519140166984,-0.05109330074005125
216,0.2066,659.854,223.749,0.00509527,384.239,-0.829082,-0.465216,0.0636433,-0.00938487,-0.0526919,0.122199,-0.000270947,-0.000160856,0.0960273,0.06571219141687834,0.12997894521775288,-0.0002709102971765187,-0.009340969548223166,-0.0001608430633672775,-0.05132774661845729
217,0.2076,660.355,223.922,0.00508279,384.534,-0.830107,-0.465815,0.0639359,-0.00943,-0.0529388,0.122765,-0.000272307,-0.000161655,0.0964867,0.06602406442888342,0.13061869433266682,-0.00027226992781392845,-0.009385676981436664,-0.0001616419345344955,-0.05156194488485144
218,0.2086,660.853,224.095,0.00507033,384.827,-0.831134,-0.466415,0.0642284,-0.0094751,-0.0531856,0.12333,-0.000273667,-0.000162454,0.0969458,0.0663359220746862,0.1312576743898326,-0.00027362955660226174,-0.009430352679960285,-0.00016244080506344627,-0.051795990514435175
219,0.2096,661.348,224.268,0.00505788,385.12,-0.832164,-0.467016,0.0645208,-0.00952018,-0.0534322,0.123895,-0.000275027,-0.000163252,0.0974047,0.06664776428741037,0.13189701557273925,-0.0002749891835415186,-0.009475006553155585,-0.0001632386751173609,-0.05202978879466158
220,0.2106,661.842,224.439,0.00504544,385.411,-0.833197,-0.467619,0.064813,-0.00956524,-0.0536788,0.12446,-0.000276387,-0.000164051,0.0978634,0.06695948430421184,0.1325367180854804,-0.00027634880863169897,-0.00951963860379268,-0.0001640375443705544,-0.05226352942734025
221,0.2116,662.334,224.61,0.00503303,385.7,-0.834232,-0.468224,0.0651051,-0.00961029,-0.0539253,0.125025,-0.000277748,-0.00016485,0.098322,0.0672711886917865,0.13317678213226491,-0.00027770943159510786,-0.009564258738997466,-0.00016483641298536966,-0.05249711767640197
222,0.2126,662.823,224.78,0.00502062,385.989,-0.83527,-0.46883,0.065397,-0.0096553,-0.0541716,0.125589,-0.000279108,-0.000165649,0.0987803,0.06758277062493634,0.13381607410077612,-0.00027906905298569207,-0.00960883724846473,-0.0001656352809619177,-0.052730458899167054
223,0.2136,663.311,224.949,0.00500824,386.276,-0.83631,-0.469437,0.0656888,-0.0097003,-0.0544179,0.126153,-0.000280469,-0.000166448,0.0992385,0.06789433673268919,0.13445572673165507,-0.00028042967224684023,-0.009653403848032482,-0.00016643414830019854,-0.05296374265706616
224,0.2146,663.796,225.118,0.00499587,386.563,-0.837354,-0.470046,0.0659805,-0.00974528,-0.054664,0.126717,-0.00028183,-0.000167248,0.0996964,0.06820588694810392,0.13509574022837234,-0.0002817902896561364,-0.009697948636107623,-0.00016723401483287326,-0.05319677960362579
225,0.2156,664.279,225.286,0.00498351,386.848,-0.838399,-0.470657,0.066272,-0.00979024,-0.0549101,0.127281,-0.000283192,-0.000168047,0.100154,0.0685173143524882,0.13573611479451375,-0.0002831519049305564,-0.009742471615452941,-0.0001680328808938425,-0.05342975920684934
226,0.2166,664.761,225.453,0.00497117,387.132,-0.839447,-0.471268,0.0665634,-0.00983517,-0.055156,0.127844,-0.000284553,-0.000168846,0.100612,0.06882872566831555,0.1363757142574975,-0.0002845125186349273,-0.009786962886699335,-0.0001688317463164335,-0.05366249221336439
227,0.2176,665.24,225.62,0.00495884,387.414,-0.840498,-0.471882,0.0668547,-0.00988009,-0.0554018,0.128407,-0.000285915,-0.000169646,0.101069,0.06914012082860599,0.13701567391636438,-0.0002858741302015355,-0.00983144225731225,-0.00016963161093108692,-0.05389507338738109
228,0.2186,665.717,225.786,0.00494653,387.696,-0.841552,-0.472497,0.0671458,-0.00992498,-0.0556475,0.12897,-0.000287277,-0.000170446,0.101526,0.0694513928212197,0.1376559939739621,-0.0002872357399137382,-0.009875889926234005,-0.0001704314749058078,-0.0541275028127256
229,0.2196,666.193,225.952,0.00493423,387.976,-0.842608,-0.473113,0.0674369,-0.00996985,-0.0558931,0.129532,-0.00028864,-0.000171246,0.101983,0.06976275543830002,0.13829553633714653,-0.00028859834748284907,-0.009920315798351065,-0.00017123133824070713,-0.05435978057315827
230,0.2206,666.666,226.116,0.00492195,388.255,-0.843667,-0.473731,0.0677277,-0.0100147,-0.0561386,0.130095,-0.000290002,-0.000172046,0.10244,0.07007388768401746,0.1389365771601634,-0.00028995995348457537,-0.00996471987641867,-0.00017203120093567392,-0.05459190675237324
231,0.2216,667.137,226.28,0.00490969,388.534,-0.844728,-0.47435,0.0680185,-0.0100595,-0.056384,0.130657,-0.000291365,-0.000172846,0.102897,0.07038511042014872,0.13957683941336874,-0.00029132255734054535,-0.010009072463462831,-0.00017283106299070816,-0.054823881433998634
232,0.2226,667.607,226.444,0.00489743,388.811,-0.845792,-0.474971,0.0683091,-0.0101043,-0.0566293,0.131219,-0.000292728,-0.000173646,0.103353,0.07069620953374867,0.14021746159509063,-0.00029268515933933426,-0.010053423063555611,-0.00017363092440592087,-0.0550557047015966
233,0.2236,668.074,226.607,0.0048852,389.087,-0.846858,-0.475593,0.0685995,-0.0101491,-0.0568744,0.13178,-0.000294092,-0.000174446,0.103809,0.0710071848644298,0.1408573030497926,-0.0002940487591868157,-0.010097771676785938,-0.00017443078518131205,-0.055287282167396534
234,0.2246,668.54,226.769,0.00487297,389.362,-0.847927,-0.476217,0.0688899,-0.0101939,-0.0571195,0.132342,-0.000295456,-0.000175247,0.104265,0.07131825051546081,0.14149864505432963,-0.00029541235717434056,-0.010142118303243075,-0.00017523164514143819,-0.05551880288051492
235,0.2256,669.004,226.931,0.00486076,389.635,-0.848999,-0.476842,0.0691801,-0.0102387,-0.0573645,0.132903,-0.00029682,-0.000176048,0.104721,0.07162919218721475,0.14213920545459757,-0.00029677595330190876,-0.010186462943015728,-0.00017603250446018848,-0.055750172429882006
236,0.2266,669.466,227.091,0.00484857,389.908,-0.850073,-0.477469,0.0694701,-0.0102834,-0.0576093,0.133464,-0.000298184,-0.000176849,0.105177,0.07194000971931303,0.14278012531006778,-0.0002981395475695203,-0.010230706619268615,-0.0001768333631374519,-0.05598129649693118
237,0.2276,669.926,227.252,0.00483639,390.18,-0.85115,-0.478097,0.0697601,-0.0103281,-0.057854,0.134024,-0.000299549,-0.00017765,0.105632,0.07225091740156664,0.14342026140161823,-0.00029950413967771983,-0.010274948317873345,-0.00017763422117311745,-0.056212269612965104
238,0.2286,670.384,227.412,0.00482422,390.45,-0.852229,-0.478727,0.0700499,-0.0103728,-0.0580987,0.134585,-0.000300914,-0.000178451,0.106087,0.07256170074776125,0.14406190013109987,-0.00030086872992318714,-0.010319188038918403,-0.00017843507856740715,-0.05644318621679212
239,0.2296,670.841,227.571,0.00481207,390.72,-0.853311,-0.479358,0.0703395,-0.0104174,-0.0583432,0.135145,-0.000302279,-0.000179252,0.106542,0.07287235959752802,0.14470275421756984,-0.0003022333183060333,-0.010363326818829788,-0.00017923593532009896,-0.05667385765702937
240,0.2306,671.295,227.729,0.00479993,390.988,-0.854396,-0.479991,0.0706291,-0.0104621,-0.0585876,0.135705,-0.000303645,-0.000180054,0.106997,0.07318310842712616,0.14534396728283294,-0.000303598904522695,-0.010407562589444197,-0.0001800377912514195,-0.05690437839543627
241,0.2316,671.748,227.887,0.0047878,391.256,-0.855483,-0.480625,0.0709185,-0.0105067,-0.0588319,0.136264,-0.000305011,-0.000180855,0.107452,0.07349373256384961,0.14598439354300718,-0.00030496448887384897,-0.0104516974279385,-0.00018083864672036043,-0.057134748514938494
242,0.2326,672.199,228.044,0.00477569,391.522,-0.856572,-0.48126,0.0712078,-0.0105513,-0.0590761,0.136824,-0.000306377,-0.000181657,0.107906,0.07380433922776808,0.14662632452729096,-0.00030633007135971724,-0.010495830298062891,-0.00018164050136626475,-0.05736496809839586
243,0.2336,672.649,228.201,0.00476359,391.788,-0.857665,-0.481897,0.0714969,-0.0105959,-0.0593202,0.137383,-0.000307743,-0.000182459,0.108361,0.07411482094020783,0.1472674678255581,-0.00030769565198007776,-0.01053996119990519,-0.00018244235536901687,-0.057595037228603374
244,0.2346,673.096,228.357,0.00475151,392.052,-0.858759,-0.482536,0.0717859,-0.0106404,-0.0595642,0.137942,-0.00030911,-0.000183262,0.108815,0.07442528498335288,0.1479089696231204,-0.0003090622304261492,-0.010583991191957187,-0.00018324520854540172,-0.05782495598829018
245,0.2356,673.542,228.513,0.00473944,392.316,-0.859857,-0.483176,0.0720748,-0.010685,-0.0598081,0.1385,-0.000310478,-0.000184064,0.109269,0.07473573128999433,0.14854968157017878,-0.00031042980669349074,-0.010628118161911226,-0.0001840470612611833,-0.0580547244601205
246,0.2366,673.986,228.668,0.00472738,392.578,-0.860957,-0.483817,0.0723635,-0.0107295,-0.0600519,0.139059,-0.000311846,-0.000184867,0.109722,0.07504605228829853,0.14919190032559504,-0.00031179738109010646,-0.010672144231065772,-0.00018484991314915433,-0.05828434272669303
247,0.2376,674.429,228.822,0.00471534,392.84,-0.862059,-0.48446,0.0726521,-0.010774,-0.0602956,0.139617,-0.000313214,-0.00018567,0.110176,0.07535635535356744,0.14983332834775176,-0.00031316495361588537,-0.010716168341103782,-0.00018565276439230782,-0.05851381087054153
248,0.2386,674.87,228.976,0.0047033,393.1,-0.863164,-0.485104,0.0729406,-0.0108185,-0.0605391,0.140175,-0.000314582,-0.000186473,0.110629,0.07566664041855553,0.1504751143866223,-0.00031453252427082745,-0.01076019049211241,-0.0001864556149907548,-0.05874303484844268
249,0.2396,675.309,229.13,0.00469128,393.359,-0.864272,-0.48575,0.073229,-0.0108629,-0.0607826,0.140733,-0.000315951,-0.000187276,0.111082,0.0759769074160026,0.1511172586420355,-0.000315901092739046,-0.01080411176459517,-0.0001872584649446063,-0.058972203017100266
250,0.2406,675.746,229.282,0.00467928,393.618,-0.865382,-0.486397,0.0735172,-0.0109074,-0.0610259,0.14129,-0.00031732,-0.000188079,0.111535,0.0762870486499252,0.15175860955474696,-0.00031726965933365214,-0.010848130002208523,-0.00018806131425364025,-0.05920112723034643
251,0.2416,676.182,229.435,0.00466728,393.876,-0.866494,-0.487046,0.0738053,-0.0109518,-0.0612692,0.141847,-0.00031869,-0.000188883,0.111988,0.0765971716197098,0.1524003177994242,-0.00031863922373609466,-0.010892047370263613,-0.0001888651627292015,-0.05942999575310648
252,0.2426,676.616,229.586,0.0046553,394.132,-0.86761,-0.487696,0.0740932,-0.0109962,-0.0615123,0.142404,-0.00032006,-0.000189687,0.11244,0.07690716856733859,0.1530423835751571,-0.00032000878626214924,-0.010935962788430897,-0.00018966901055850194,-0.05965862053067117
253,0.2436,677.049,229.738,0.00464334,394.388,-0.868727,-0.488348,0.074381,-0.0110406,-0.0617553,0.142961,-0.00032143,-0.000190491,0.112893,0.0772171470542169,0.15368480708114562,-0.0003213783469119269,-0.010979876256796861,-0.00019047285774143052,-0.05988709572502193
254,0.2446,677.479,229.888,0.00463138,394.643,-0.869848,-0.489001,0.0746687,-0.0110849,-0.0619983,0.143517,-0.000322801,-0.000191295,0.113345,0.07752710701302656,0.15432643418968972,-0.00032274890536276857,-0.011023688877822013,-0.00019127670427809829,-0.06011551540664539
255,0.2456,677.909,230.038,0.00461943,394.897,-0.870971,-0.489655,0.0749563,-0.0111292,-0.0622411,0.144073,-0.000324172,-0.0001921,0.113797,0.07783704837643524,0.1549684181420996,-0.00032411946193444674,-0.011067499557991023,-0.00019208154997640836,-0.06034369165778686
256,0.2466,678.336,230.188,0.0046075,395.15,-0.872096,-0.490311,0.0752437,-0.0111735,-0.0624838,0.144629,-0.000325544,-0.000192905,0.114249,0.07814686326240516,0.15561075913683542,-0.0003254910163017488,-0.011111308297389821,-0.00019288639502679228,-0.060571718571636235
257,0.2476,678.763,230.337,0.00459558,395.402,-0.873224,-0.490968,0.075531,-0.0112178,-0.0627264,0.145185,-0.000326916,-0.00019371,0.1147,0.07845665935629831,0.15625345737246832,-0.00032686256878711184,-0.011155115096104451,-0.00019369123942936106,-0.06079959623003306
258,0.2486,679.187,230.485,0.00458367,395.653,-0.874354,-0.491627,0.0758182,-0.0112621,-0.0629689,0.145741,-0.000328288,-0.000194515,0.115152,0.078766436590747,0.15689651304767915,-0.00032823411939075786,-0.011198919954220954,-0.00019449608318389267,-0.061027324714752584
259,0.2496,679.61,230.633,0.00457178,395.903,-0.875487,-0.492288,0.0761052,-0.0113064,-0.0632113,0.146296,-0.000329661,-0.00019532,0.115603,0.07907608699075563,0.1575387688219121,-0.0003296066677831444,-0.011242722871825261,-0.00019530092629060913,-0.061254904107505004
260,0.2506,680.031,230.781,0.00455989,396.152,-0.876623,-0.492949,0.0763921,-0.0113506,-0.0634536,0.146851,-0.000331034,-0.000196126,0.116054,0.07938571833460561,0.1581813811470334,-0.00033097921429092736,-0.011286424977650644,-0.00019610676855330578,-0.06148233448993623
261,0.2516,680.451,230.928,0.00454802,396.401,-0.877761,-0.493612,0.0766789,-0.0113948,-0.0636958,0.147406,-0.000332408,-0.000196932,0.116505,0.0796953305548942,0.15882435022098385,-0.0003323527585817887,-0.011330125151885695,-0.00019691261016652195,-0.06170961594362767
262,0.2526,680.87,231.074,0.00453616,396.648,-0.878901,-0.494277,0.0769655,-0.011439,-0.0639379,0.14796,-0.000333782,-0.000197738,0.116955,0.08000481558371741,0.15946651677471735,-0.00033372630098549294,-0.011373823394615679,-0.00019771845113025766,-0.06193674855009634
263,0.2536,681.287,231.22,0.00452431,396.895,-0.880044,-0.494943,0.077252,-0.0114831,-0.0641798,0.148514,-0.000335157,-0.000198545,0.117406,0.08031428129222817,0.16010903918728547,-0.00033510084116683547,-0.011417420847673054,-0.0001985252912458657,-0.06216363860716323
264,0.2546,681.702,231.366,0.00451247,397.141,-0.88119,-0.495611,0.0775384,-0.0115273,-0.0644217,0.149068,-0.000336532,-0.000199351,0.117856,0.0806237276129882,0.16075191765588848,-0.00033647537945824535,-0.011461115232018537,-0.0001993311309097523,-0.062390473786163136
265,0.2556,682.116,231.51,0.00450064,397.386,-0.882338,-0.49628,0.0778247,-0.0115714,-0.0646635,0.149622,-0.000337908,-0.000200158,0.118306,0.08093315447854588,0.1613951523778363,-0.0003378509155217424,-0.011504708835590849,-0.00020013796972395692,-0.06261716036209009
266,0.2566,682.528,231.655,0.00448882,397.63,-0.883489,-0.49695,0.0781108,-0.0116155,-0.0649051,0.150176,-0.000339284,-0.000200966,0.118756,0.08124245369718563,0.1620387435505477,-0.00033922644969253124,-0.011548300516727505,-0.00020094580768614811,-0.06284360470056904
267,0.2576,682.939,231.799,0.00447702,397.873,-0.884642,-0.497622,0.0783968,-0.0116596,-0.0651467,0.150729,-0.00034066,-0.000201773,0.119205,0.08155173326381293,0.1626815286894414,-0.00034060198197050084,-0.01159189027551355,-0.00020175264519728398,-0.06306999433670424
268,0.2586,683.349,231.942,0.00446522,398.116,-0.885798,-0.498295,0.0786827,-0.0117037,-0.0653881,0.151282,-0.000342037,-0.000202581,0.119655,0.08186099311094175,0.16332466938681955,-0.0003419785120138963,-0.01163547811203347,-0.00020256048185474107,-0.06329614194295707
269,0.2596,683.757,232.085,0.00445344,398.357,-0.886956,-0.49897,0.0789684,-0.0117477,-0.0656295,0.151835,-0.000343415,-0.000203389,0.120104,0.08217012495405451,0.1639681658393608,-0.0003433560398183877,-0.011678965194273694,-0.00020336831785949805,-0.06352223496376641
270,0.2606,684.163,232.228,0.00444166,398.598,-0.888117,-0.499646,0.079254,-0.0117917,-0.0658707,0.152387,-0.000344793,-0.000204197,0.120553,0.08247923688082359,0.1646108536324158,-0.00034473356572461977,-0.01172245036312447,-0.0002041761532115549,-0.06374808616194372
271,0.2616,684.568,232.37,0.0044299,398.838,-0.88928,-0.500323,0.0795395,-0.0118357,-0.0661119,0.15294,-0.000346172,-0.000205006,0.121002,0.08278832882372833,0.16525506154154423,-0.0003461120893865077,-0.011765933618669844,-0.0002049849877059362,-0.06397388289138117
272,0.2626,684.972,232.512,0.00441814,399.077,-0.890446,-0.501002,0.0798248,-0.0118797,-0.0663529,0.153492,-0.000347551,-0.000205815,0.121451,0.0830972924055009,0.16589845989712426,-0.0003474906111474718,-0.01180941496099408,-0.00020579382154584103,-0.06419943800512151
273,0.2636,685.374,232.653,0.0044064,399.315,-0.891614,-0.501683,0.0801101,-0.0119237,-0.0665938,0.154044,-0.00034893,-0.000206624,0.121899,0.08340634414715886,0.16654221350663745,-0.000348869131007401,-0.011852894390181334,-0.00020660265473149142,-0.06442484520911818
274,0.2646,685.775,232.793,0.00439467,399.553,-0.892785,-0.502365,0.0803951,-0.0119676,-0.0668346,0.154595,-0.00035031,-0.000207433,0.122348,0.0837151589592613,0.1671851553804995,-0.00035024864861621374,-0.011896273095948096,-0.00020741148726277636,-0.06465010458407461
275,0.2656,686.175,232.933,0.00438294,399.79,-0.893958,-0.503048,0.0806801,-0.0120115,-0.0670753,0.155147,-0.000351691,-0.000208243,0.122796,0.08402406179612809,0.16782961944198616,-0.0003516291639695801,-0.011939649897431348,-0.00020822131893150075,-0.0648752162106302
276,0.2666,686.573,233.073,0.00437123,400.025,-0.895134,-0.503733,0.0809649,-0.0120554,-0.067316,0.155698,-0.000353072,-0.000209053,0.123244,0.08433283581626094,0.16847327087198316,-0.00035300967741636047,-0.011983024794714914,-0.00020903114994419436,-0.06510027365933768
277,0.2676,686.97,233.212,0.00435953,400.261,-0.896312,-0.504419,0.0812496,-0.0120993,-0.0675565,0.156249,-0.000354453,-0.000209863,0.123691,0.08464158932359411,0.1691172770516427,-0.0003543901889567769,-0.012026397787882281,-0.0002098409803009682,-0.06532509000827313
278,0.2686,687.365,233.351,0.00434783,400.495,-0.897493,-0.505107,0.0815342,-0.0121432,-0.0677969,0.156799,-0.000355835,-0.000210674,0.124139,0.08495032225052723,0.16976046841543235,-0.00035577169823497456,-0.01206976887701705,-0.0002106518097911847,-0.0655497588503583
279,0.2696,687.759,233.49,0.00433615,400.728,-0.898676,-0.505795,0.0818187,-0.012187,-0.0680372,0.15735,-0.000357218,-0.000211485,0.124586,0.08525903452944683,0.17040518403637162,-0.00035715420524662367,-0.012113039273511594,-0.0002114626386238161,-0.06577428026597809
280,0.2706,688.152,233.627,0.00432447,400.961,-0.899862,-0.506486,0.082103,-0.0122308,-0.0682774,0.1579,-0.000358601,-0.000212296,0.125034,0.08556761753595943,0.17104908394383456,-0.0003585367103463577,-0.012156307774804365,-0.00021227346679875136,-0.0659986543354536
281,0.2716,688.544,233.765,0.0043128,401.193,-0.90105,-0.507178,0.0823872,-0.0122746,-0.0685175,0.15845,-0.000359985,-0.000213108,0.125481,0.08587617969746963,0.17169333809365428,-0.0003599202131742141,-0.012199574380978184,-0.00021308529410313248,-0.06622288113904273
282,0.2726,688.934,233.902,0.00430115,401.424,-0.902241,-0.507871,0.0826712,-0.0123184,-0.0687574,0.159,-0.000361369,-0.000213919,0.125927,0.08618461232786401,0.17233794668071756,-0.0003613037140872688,-0.012242839092116209,-0.0002138961209621204,-0.06644686740163097
283,0.2736,689.323,234.039,0.0042895,401.655,-0.903435,-0.508566,0.0829552,-0.0123622,-0.0689973,0.159549,-0.000362754,-0.000214731,0.126374,0.08649313256556534,0.17298173691769558,-0.00036268821272289475,-0.012286101908301372,-0.00021470794694888884,-0.06667079993635983
284,0.2746,689.71,234.175,0.00427786,401.885,-0.90463,-0.509262,0.083239,-0.0124059,-0.0692371,0.160099,-0.000364139,-0.000215544,0.12682,0.08680152307513089,0.17362705431901815,-0.0003640727094409435,-0.012329264062548084,-0.0002155207720609953,-0.06689458544558013
285,0.2756,690.096,234.31,0.00426623,402.114,-0.905829,-0.50996,0.0835227,-0.0124496,-0.0694768,0.160648,-0.000365525,-0.000216357,0.127267,0.08710989240734879,0.17427155247039416,-0.00036545820387601236,-0.012372424330649778,-0.00021633359651218598,-0.06711822400929623
286,0.2766,690.481,234.446,0.0042546,402.342,-0.907029,-0.510659,0.0838062,-0.0124933,-0.0697164,0.161196,-0.000366912,-0.00021717,0.127713,0.08741813175270896,0.17491522963258221,-0.0003668446960238825,-0.012415582712689055,-0.0002171464203024609,-0.06734171570744896
287,0.2776,690.865,234.581,0.00424299,402.569,-0.908233,-0.511359,0.0840897,-0.012537,-0.0699558,0.161745,-0.000368299,-0.000217983,0.128159,0.08772645849631155,0.17556043518636955,-0.0003682311862488463,-0.012458739208748182,-0.0002179592434320421,-0.0675649673764176
288,0.2786,691.247,234.715,0.00423138,402.796,-0.909438,-0.512061,0.0843729,-0.0125806,-0.0701952,0.162293,-0.000369687,-0.000218797,0.128604,0.08803454625252494,0.1762048188498495,-0.0003696186741809493,-0.012501795069094102,-0.0002187730656819653,-0.06778816560533363
289,0.2796,691.628,234.849,0.00421979,403.022,-0.910647,-0.512764,0.0846561,-0.0126243,-0.0704345,0.162841,-0.000371075,-0.000219611,0.12905,0.08834272127154663,0.1768495557323504,-0.0003710061601873704,-0.012544947797755612,-0.00021958688726952946,-0.06801121720811565
290,0.2806,692.008,234.983,0.0042082,403.248,-0.911857,-0.513469,0.0849392,-0.0126679,-0.0706736,0.163389,-0.000372464,-0.000220425,0.129495,0.08865087471300015,0.17749464602748888,-0.0003723946438954906,-0.012587999899489,-0.00022040070819451252,-0.06823402908785947
291,0.2816,692.387,235.116,0.00419662,403.472,-0.913071,-0.514175,0.0852221,-0.0127115,-0.0709127,0.163937,-0.000373853,-0.00022124,0.12994,0.08895889761324138,0.17814008992898844,-0.00037378312567504235,-0.012631050124191634,-0.0002212155282359518,-0.06845678769965124
292,0.2826,692.764,235.249,0.00418504,403.696,-0.914286,-0.514883,0.0855049,-0.012755,-0.0711516,0.164484,-0.000375243,-0.000222055,0.130385,0.08926689873879279,0.17878470884538022,-0.00037517260515085304,-0.01267399973935035,-0.00022203034761325569,-0.06867930679210588
293,0.2836,693.14,235.381,0.00417348,403.919,-0.915505,-0.515592,0.0857875,-0.0127986,-0.0713905,0.165031,-0.000376634,-0.000222871,0.13083,0.08957476906440442,0.1794296804647748,-0.0003765630823185928,-0.012717046214541727,-0.00022284616610368513,-0.06890177273109876
294,0.2846,693.515,235.513,0.00416192,404.142,-0.916725,-0.516302,0.0860701,-0.0128421,-0.0716292,0.165578,-0.000378025,-0.000223686,0.131274,0.089882726406465,0.1800750049801536,-0.00037795355755232407,-0.012759992088951844,-0.00022366098415194102,-0.06912399935414526
295,0.2856,693.889,235.645,0.00415037,404.363,-0.917949,-0.517014,0.0863525,-0.0128856,-0.0718679,0.166125,-0.000379417,-0.000224502,0.131719,0.09019055275143639,0.18072068258460305,-0.0003793450304725443,-0.012802936095257067,-0.00022447680131176817,-0.06934617293802725
296,0.2866,694.261,235.776,0.00413883,404.585,-0.919174,-0.517727,0.0866348,-0.0129291,-0.0721064,0.166671,-0.000380809,-0.000225319,0.132163,0.0904983569890021,0.18136553210519346,-0.00038073650145575844,-0.012845878233538666,-0.00022529361758050204,-0.06956810740904384
297,0.2876,694.632,235.906,0.00412729,404.805,-0.920402,-0.518442,0.0869169,-0.0129726,-0.0723448,0.167217,-0.000382202,-0.000226136,0.132607,0.09080602997074227,0.1820107338097594,-0.00038212897011991043,-0.012888818503877797,-0.00022611043318199187,-0.06978989593399498
298,0.2886,695.003,236.037,0.00411577,405.025,-0.921633,-0.519158,0.087199,-0.013016,-0.0725832,0.167763,-0.000383596,-0.000226953,0.133051,0.0911137897592742,0.18265628789064614,-0.00038352243646089246,-0.012931658199526685,-0.00022692724811612663,-0.07001163159086377
299,0.2896,695.371,236.167,0.00410425,405.244,-0.922866,-0.519875,0.0874809,-0.0130595,-0.0728214,0.168309,-0.00038499,-0.00022777,0.133494,0.0914214180947841,0.1833021945403035,-0.0003849159008594283,-0.012974594738518475,-0.00022774406238290634,-0.07023312843889695
300,0.2906,695.739,236.296,0.00409273,405.462,-0.924102,-0.520594,0.0877626,-0.0131029,-0.0730595,0.168854,-0.000386385,-0.000228588,0.133938,0.0917289148171414,0.1839472700034248,-0.000386310362929132,-0.013017430711559475,-0.0002285618757537078,-0.07045447957811679
301,0.2916,696.106,236.426,0.00408123,405.68,-0.92534,-0.521314,0.0880443,-0.0131463,-0.0732976,0.1694,-0.000387781,-0.000229406,0.134381,0.0920364981735271,0.18459388172178204,-0.0003877058226657848,-0.013060264825559553,-0.00022937968845559986,-0.07067577801990421
302,0.2926,696.471,236.554,0.00406973,405.897,-0.92658,-0.522036,0.0883258,-0.0131897,-0.0735355,0.169945,-0.000389177,-0.000230225,0.134824,0.09234394971953774,0.18523966134628367,-0.00038910128045444026,-0.013103097080599535,-0.00023019850025840505,-0.07089683795619128
303,0.2936,696.835,236.683,0.00405823,406.113,-0.927823,-0.522759,0.0886072,-0.013233,-0.0737733,0.170489,-0.000390574,-0.000231044,0.135267,0.0926513785601979,0.18588460713140442,-0.00039049773590449366,-0.013145828791347736,-0.0002310173113905245,-0.07111775242035445
304,0.2946,697.199,236.811,0.00404675,406.329,-0.929069,-0.523484,0.0888885,-0.0132763,-0.074011,0.171034,-0.000391971,-0.000231863,0.135709,0.09295878462762319,0.186531090392978,-0.0003918941894037742,-0.013188558651852866,-0.00023183612185195823,-0.0713385214911606
305,0.2956,697.561,236.938,0.00403526,406.544,-0.930317,-0.52421,0.0891696,-0.0133196,-0.0742487,0.171578,-0.000393369,-0.000232683,0.136152,0.0932660585273053,0.18717673890662478,-0.00039329164055890153,-0.013231286662195196,-0.00023265593141030827,-0.07155923809139497
306,0.2966,697.921,237.066,0.00402379,406.758,-0.931567,-0.524937,0.0894507,-0.0133629,-0.0744862,0.172122,-0.000394768,-0.000233503,0.136594,0.09357341881382175,0.18782273874861577,-0.00039469008936565686,-0.013274012822454662,-0.00023347574029630724,-0.07177971658949034
307,0.2976,698.281,237.193,0.00401232,406.972,-0.93282,-0.525666,0.0897316,-0.0134062,-0.0747236,0.172666,-0.000396167,-0.000234324,0.137036,0.09388064673530794,0.18846909011012558,-0.00039608853621597717,-0.01331673713271142,-0.00023429654827578084,-0.07200004993016962
308,0.2986,698.64,237.319,0.00400086,407.185,-0.934075,-0.526396,0.0900123,-0.0134494,-0.0749609,0.17321,-0.000397567,-0.000235144,0.137478,0.09418774213166903,0.18911579318243255,-0.00039748798071237434,-0.013359360928986708,-0.00023511635581641155,-0.07222023819195067
309,0.2996,698.997,237.445,0.0039894,407.397,-0.935333,-0.527128,0.090293,-0.0134927,-0.0751981,0.173753,-0.000398968,-0.000235966,0.13792,0.09449492374180757,0.1897616583946664,-0.00039888842285074055,-0.013402081543750444,-0.0002359381622130119,-0.07244028145328907
310,0.3006,699.354,237.571,0.00397795,407.609,-0.936593,-0.527861,0.0905735,-0.0135359,-0.0754352,0.174296,-0.00040037,-0.000236787,0.138362,0.0948019726295104,0.19040787440694396,-0.00040028986262674593,-0.013444701653226754,-0.00023675896817088038,-0.07266017979257822
311,0.3016,699.709,237.697,0.00396651,407.82,-0.937856,-0.528595,0.0908539,-0.0135791,-0.0756722,0.174839,-0.000401772,-0.000237609,0.138803,0.09510899814560125,0.19105444140980166,-0.0004016913004379896,-0.013487319921554164,-0.00023758077321722748,-0.07287993328814946
312,0.3026,700.063,237.822,0.00395507,408.031,-0.939121,-0.529331,0.0911342,-0.0136222,-0.0759091,0.175382,-0.000403175,-0.000238432,0.139244,0.0954160002221125,0.1917013595938788,-0.00040309373588132136,-0.013529837701800829,-0.00023840357734972173,-0.0730995420182724
313,0.3036,700.416,237.946,0.00394364,408.241,-0.940389,-0.530068,0.0914143,-0.0136654,-0.0761459,0.175924,-0.000404578,-0.000239254,0.139685,0.09572286921877149,0.19234743680188582,-0.00040449616935700483,-0.013572452292330284,-0.00023922538104415025,-0.07331900606115427
314,0.3046,700.768,238.071,0.00393221,408.45,-0.941659,-0.530807,0.0916944,-0.0137085,-0.0763827,0.176467,-0.000405982,-0.000240078,0.140126,0.09602982418147521,0.19299505727311472,-0.0004058996004591142,-0.013614966403450834,-0.0002400491835831131,-0.0735384181411034
315,0.3056,701.119,238.195,0.00392079,408.658,-0.942932,-0.531547,0.0919743,-0.0137516,-0.0766193,0.177009,-0.000407387,-0.000240901,0.140566,0.09633664586695545,0.19364183585531913,-0.0004073040291835417,-0.013657478682252644,-0.00024087198568401025,-0.07375759302196039
316,0.3066,701.469,238.318,0.00390937,408.866,-0.944207,-0.532288,0.092254,-0.0137947,-0.0768558,0.17755,-0.000408793,-0.000241725,0.141007,0.09664333411515647,0.1942877707981645,-0.0004087094555260684,-0.01369998912881476,-0.00024169578686605853,-0.07397662344984168
317,0.3076,701.818,238.442,0.00389796,409.074,-0.945485,-0.533031,0.0925337,-0.0138378,-0.0770922,0.178092,-0.000410199,-0.000242549,0.141447,0.0969501081560582,0.19493525022101021,-0.0004101148798926202,-0.013742497743216009,-0.00024251958736931645,-0.07419550950270737
318,0.3086,702.166,238.564,0.00388655,409.281,-0.946765,-0.533776,0.0928132,-0.0138808,-0.0773285,0.178633,-0.000411606,-0.000243374,0.141887,0.09725674856228839,0.19558188509034036,-0.00041152130187149805,-0.013784905904031142,-0.00024334438695050586,-0.07441425125845558
319,0.3096,702.513,238.687,0.00387515,409.487,-0.948047,-0.534521,0.0930926,-0.0139239,-0.0775647,0.179174,-0.000413013,-0.000244199,0.142327,0.09756336493014861,0.19622886988378085,-0.0004129277218716254,-0.013827410858598288,-0.00024416918585112857,-0.07463284879492293
320,0.3106,702.858,238.809,0.00386375,409.693,-0.949332,-0.535268,0.0933719,-0.0139669,-0.0778008,0.179715,-0.000414422,-0.000245025,0.142767,0.09786995719158975,0.1968762047906918,-0.00041433613906427524,-0.013869815368227845,-0.0002449949838263521,-0.07485130218988445
321,0.3116,703.203,238.931,0.00385236,409.898,-0.950619,-0.536017,0.0936511,-0.0140099,-0.0780368,0.180256,-0.000415831,-0.000245851,0.143206,0.09817652527855114,0.19752389000053583,-0.0004157445542724014,-0.013912218054502712,-0.0002458207811193436,-0.07506961152105329
322,0.3126,703.547,239.053,0.00384097,410.102,-0.951909,-0.536767,0.0939301,-0.0140528,-0.0782726,0.180796,-0.000417241,-0.000246677,0.143646,0.09848295927465855,0.1981707275315514,-0.0004171539670789759,-0.013954520312958296,-0.00024664657773032506,-0.07528768439485434
323,0.3136,703.889,239.174,0.00382959,410.306,-0.953201,-0.537518,0.094209,-0.0140958,-0.0785084,0.181336,-0.000418651,-0.000247504,0.144085,0.09878936889883616,0.19881791444915953,-0.00041856337789825115,-0.013996919356998871,-0.00024747337341179954,-0.07550570585313399
324,0.3146,704.231,239.295,0.00381821,410.509,-0.954496,-0.538271,0.0944878,-0.0141387,-0.0787441,0.181876,-0.000420062,-0.000248331,0.144524,0.09909575408299531,0.1994654509420799,-0.00041997378631020155,-0.014039217981846486,-0.00024830016840937663,-0.07572358348037733
325,0.3156,704.572,239.415,0.00380683,410.712,-0.955793,-0.539025,0.0947665,-0.0141816,-0.0789797,0.182416,-0.000421474,-0.000249159,0.144963,0.09940211475903538,0.20011333719913438,-0.00042138519231083027,-0.01408151479212194,-0.0002491279624742271,-0.07594131735405185
326,0.3166,704.911,239.535,0.00379546,410.914,-0.957093,-0.539781,0.095045,-0.0142245,-0.0792152,0.182955,-0.000422887,-0.000249987,0.145401,0.09970834088800484,0.20076037264827362,-0.00042279759589569643,-0.014123809787903174,-0.0002499557558535148,-0.07615890755156363
327,0.3176,705.25,239.655,0.00378409,411.115,-0.958395,-0.540538,0.0953234,-0.0142674,-0.0794506,0.183495,-0.000424301,-0.000250816,0.14584,0.10001454231136853,0.201408958351883,-0.0004242109970605812,-0.014166102969268124,-0.0002507845482966342,-0.07637635415025712
328,0.3186,705.587,239.775,0.00377273,411.316,-0.9597,-0.541296,0.0956017,-0.0143102,-0.0796859,0.184034,-0.000425715,-0.000251645,0.146278,0.10032071896099848,0.20205669232905965,-0.00042562439622695347,-0.014208295757128897,-0.0002516133400527476,-0.07659365722741596
329,0.3196,705.924,239.894,0.00376137,411.517,-0.961007,-0.542056,0.0958799,-0.0143531,-0.0799211,0.184572,-0.00042713,-0.000252474,0.146716,0.1006268707687552,0.20270357282478324,-0.00042703879296779323,-0.014250585314123487,-0.00025244213112174396,-0.07681081686026214
330,0.3206,706.26,240.013,0.00375001,411.716,-0.962316,-0.542817,0.0961579,-0.0143959,-0.0801562,0.185111,-0.000428545,-0.000253304,0.147154,0.10093288757319407,0.20335200478725102,-0.00042845318770723395,-0.014292774486217241,-0.00025327192125035314,-0.07702783312595674
331,0.3216,706.594,240.131,0.00373866,411.916,-0.963628,-0.543579,0.0964359,-0.0144387,-0.0803912,0.185649,-0.000429962,-0.000254134,0.147591,0.10123898946213039,0.20399958234857074,-0.00042986957958546235,-0.01433496185265315,-0.000254101710690402,-0.07724470610159939
332,0.3226,706.928,240.25,0.00372731,412.114,-0.964943,-0.544343,0.0967137,-0.0144814,-0.0806261,0.186187,-0.000431379,-0.000254965,0.148029,0.10154495615020842,0.20464750840035406,-0.0004312859694568516,-0.014377048851218266,-0.000254932499186622,-0.07746143586422893
333,0.3236,707.261,240.368,0.00371596,412.313,-0.96626,-0.545109,0.0969913,-0.0145242,-0.0808609,0.186725,-0.000432797,-0.000255796,0.148466,0.1018507874774599,0.2052957831301392,-0.00043270335688838646,-0.01441923261078848,-0.0002557632869925053,-0.077678022490823
334,0.3246,707.593,240.485,0.00370462,412.51,-0.967579,-0.545875,0.0972689,-0.0145669,-0.0810956,0.187263,-0.000434216,-0.000256627,0.148903,0.10215670371527286,0.20594440672556535,-0.0004341217418759591,-0.014461316011069036,-0.0002565940741080519,-0.0778944660582983
335,0.3256,707.924,240.602,0.00369328,412.707,-0.968901,-0.546644,0.0975463,-0.0146096,-0.0813302,0.1878,-0.000435635,-0.000257459,0.14934,0.10246248439470285,0.2065921727815967,-0.0004355401248509194,-0.01450339761442676,-0.00025742586027577286,-0.07811076664351024
336,0.3266,708.254,240.719,0.00368194,412.904,-0.970225,-0.547413,0.0978236,-0.0146523,-0.0815647,0.188337,-0.000437056,-0.000258292,0.149777,0.10276823963262993,0.2072402867814147,-0.0004369605049391323,-0.014545477420938369,-0.0002582586454931146,-0.07832692432325383
337,0.3276,708.583,240.836,0.00367061,413.1,-0.971551,-0.548184,0.0981008,-0.014695,-0.0817991,0.188874,-0.000438477,-0.000259125,0.150214,0.1030739693608389,0.20788874891191522,-0.00043838088300907074,-0.014587555430680577,-0.00025909143001690005,-0.07854293917426292
338,0.3286,708.911,240.952,0.00365927,413.295,-0.97288,-0.548956,0.0983779,-0.0147377,-0.0820334,0.189411,-0.000439898,-0.000259958,0.15065,0.10337967351110255,0.20853755936009488,-0.00043980125906073475,-0.014629631643730212,-0.0002599242138467961,-0.0787588112732105
339,0.3296,709.238,241.068,0.00364794,413.49,-0.974212,-0.54973,0.0986549,-0.0147803,-0.0822676,0.189948,-0.000441321,-0.000260792,0.151086,0.10368535201518347,0.20918671831305047,-0.00044122363221144045,-0.014671607527329433,-0.00026075799672231614,-0.07897454069670873
340,0.3306,709.564,241.184,0.00363662,413.684,-0.975546,-0.550505,0.0989317,-0.0148229,-0.0825017,0.190484,-0.000442744,-0.000261626,0.151522,0.10399089440573728,0.2098350161223579,-0.0004426460033382096,-0.014713581622794236,-0.0002615917789025035,-0.07919012752130927
341,0.3316,709.889,241.299,0.00362529,413.878,-0.976882,-0.551282,0.0992084,-0.0148655,-0.0827357,0.19102,-0.000444169,-0.000262461,0.151958,0.10429641095248443,0.21048366151243458,-0.00044407037155280715,-0.01475555393020056,-0.0002624265601248732,-0.07940557182350283
342,0.3326,710.214,241.415,0.00361397,414.071,-0.978221,-0.55206,0.099485,-0.0149081,-0.0829696,0.191556,-0.000445593,-0.000263296,0.152394,0.10460190158716087,0.2111326546696337,-0.00044549373818314475,-0.014797524449624788,-0.00026326134065013385,-0.0796208736797196
343,0.3336,710.537,241.529,0.00360265,414.264,-0.979563,-0.552839,0.0997614,-0.0149506,-0.0832034,0.192091,-0.000447019,-0.000264131,0.152829,0.1049072557507611,0.21178078399901823,-0.0004469191018928731,-0.014839394665087213,-0.0002640961204783965,-0.07983603316632926
344,0.3346,710.859,241.644,0.00359133,414.456,-0.980906,-0.55362,0.100038,-0.0149932,-0.083437,0.192627,-0.000448446,-0.000264968,0.153265,0.10521291536847799,0.2124304726002324,-0.00044834546312155776,-0.014881361612972155,-0.0002649328990798061,-0.08005095836474108
345,0.3356,711.181,241.758,0.00358002,414.648,-0.982253,-0.554402,0.100314,-0.0150357,-0.0836707,0.193162,-0.000449873,-0.000265804,0.1537,0.10551799623234226,0.21307929644797707,-0.00044977182231487056,-0.014923228265431021,-0.0002657686772464807,-0.08026592533590227
346,0.3366,711.502,241.872,0.00356871,414.839,-0.983601,-0.555186,0.10059,-0.0150782,-0.0839042,0.193697,-0.000451301,-0.000266641,0.154135,0.10582316131014591,0.2137284675093516,-0.00045119917902158857,-0.014965093138594843,-0.00026660545444789907,-0.08048065817130212
347,0.3376,711.822,241.985,0.00355739,415.03,-0.984952,-0.555971,0.100866,-0.0151207,-0.0841376,0.194232,-0.00045273,-0.000267479,0.154569,0.10612841062513523,0.21437798597016489,-0.0004526275332373819,-0.015006956232539448,-0.00026744323068150777,-0.08069524894196789
348,0.3386,712.141,242.099,0.00354608,415.22,-0.986306,-0.556757,0.101142,-0.0151631,-0.0843709,0.194766,-0.00045416,-0.000268317,0.155004,0.10643374420056295,0.2150266369890812,-0.00045405688495803176,-0.015048719052217163,-0.00026828100621312245,-0.08090969772396661
349,0.3396,712.459,242.212,0.00353477,415.409,-0.987662,-0.557545,0.101418,-0.0152056,-0.0846041,0.1953,-0.000455591,-0.000269155,0.155438,0.10673916205968803,0.21567563448014138,-0.0004554872341792082,-0.015090578592135917,-0.00026911878104252107,-0.08112400459330515
350,0.3406,712.776,242.324,0.00352347,415.599,-0.98902,-0.558334,0.101693,-0.015248,-0.0848372,0.195834,-0.000457022,-0.000269994,0.155873,0.10704355718166547,0.21632497862841094,-0.0004569175813535775,-0.015132337866300638,-0.00026995755490000217,-0.08133816962593021
351,0.3416,713.092,242.437,0.00351216,415.787,-0.990381,-0.559124,0.101969,-0.0152904,-0.0850702,0.196368,-0.000458455,-0.000270833,0.156307,0.10734914337240209,0.21697466961905443,-0.00045834992556437193,-0.015174095369909879,-0.0002707963280538239,-0.08155219289772797
352,0.3426,713.408,242.549,0.00350086,415.975,-0.991744,-0.559916,0.102244,-0.0153327,-0.0853031,0.196902,-0.000459888,-0.000271673,0.156741,0.10765370626230752,0.217624707637335,-0.00045978226772269704,-0.015215752624618495,-0.00027163610023217544,-0.08176607448452455
353,0.3436,713.722,242.661,0.00348955,416.163,-0.99311,-0.56071,0.102519,-0.0153751,-0.0855359,0.197435,-0.000461322,-0.000272514,0.157174,0.10795835291852485,0.21827387459413128,-0.0004612156073672269,-0.015257506591516923,-0.00027247687143261423,-0.0819798144620858
354,0.3446,714.036,242.772,0.00347825,416.35,-0.994478,-0.561504,0.102795,-0.0154174,-0.0857686,0.197968,-0.000462756,-0.000273354,0.157608,0.10826419162773093,0.21892338764914254,-0.00046264894495628983,-0.0152991603180056,-0.0002733166421994282,-0.0821934129061177
355,0.3456,714.349,242.884,0.00346695,416.537,-0.995849,-0.562301,0.10307,-0.0154598,-0.0860012,0.198501,-0.000464192,-0.000274196,0.158041,0.1085690061905098,0.2195732469868883,-0.0004640842795619049,-0.015340910748492642,-0.00027415841171241073,-0.08240686989226587
356,0.3466,714.661,242.995,0.00345565,416.723,-0.997222,-0.563098,0.103344,-0.0155021,-0.0862338,0.199034,-0.000465628,-0.000275038,0.158474,0.10887279571547048,0.22022345279198619,-0.0004655196121062799,-0.015382560947060142,-0.0002750001805166269,-0.08262027723409282
357,0.3476,714.972,243.105,0.00344435,416.908,-0.998598,-0.563897,0.103619,-0.0155444,-0.0864662,0.199566,-0.000467066,-0.00027588,0.158907,0.10917777766738856,0.22087278437575808,-0.0004669569416556607,-0.015424209383861354,-0.00027584194861207667,-0.08283345150985333
358,0.3486,715.283,243.216,0.00343305,417.094,-0.999976,-0.564697,0.103894,-0.0155866,-0.0866985,0.200099,-0.000468504,-0.000276723,0.15934,0.10948284350087656,0.22152368301890935,-0.0004683942691381393,-0.0154657576055518,-0.0002766847157220642,-0.08304648455432151
359,0.3496,715.592,243.326,0.00342175,417.278,-1.00136,-0.565499,0.104168,-0.0156289,-0.0869307,0.200631,-0.000469943,-0.000277566,0.159773,0.10978688345156695,0.22217370650919288,-0.00046983259408384104,-0.015507402523208813,-0.00027752748212162004,-0.08325937644290315
360,0.3506,715.901,243.436,0.00341045,417.463,-1.00274,-0.566302,0.104443,-0.0156711,-0.0871629,0.201162,-0.000471383,-0.00027841,0.160205,0.11009211681217956,0.2228228530805112,-0.00047127191648865807,-0.015548947234222732,-0.00027837124753238296,-0.08347221890372714
361,0.3516,716.209,243.545,0.00339915,417.646,-1.00412,-0.567107,0.104717,-0.0157133,-0.0873949,0.201694,-0.000472823,-0.000279254,0.160637,0.11039632372663011,0.2234735679131481,-0.00047271123682079974,-0.015590490192086914,-0.0002792150122309378,-0.08368482868525318
362,0.3526,716.516,243.655,0.00338785,417.83,-1.00551,-0.567912,0.104991,-0.0157555,-0.0876268,0.202225,-0.000474265,-0.000280099,0.161069,0.1107006140051956,0.22412340489415938,-0.000474152554131968,-0.01563203139687519,-0.0002800597759373691,-0.08389729753676556
363,0.3536,716.822,243.764,0.00337655,418.012,-1.0069,-0.56872,0.105265,-0.0157976,-0.0878587,0.202757,-0.000475707,-0.000280944,0.161501,0.11100498767072109,0.22477481180443748,-0.00047559386936479875,-0.0156734724160138,-0.00028090453892992695,-0.08410971712246385
364,0.3546,717.128,243.872,0.00336526,418.195,-1.00829,-0.569528,0.105539,-0.0158398,-0.0880904,0.203287,-0.000477151,-0.00028179,0.161933,0.11130944474605742,0.22542411450471045,-0.0004770371815652208,-0.015715010119026207,-0.00028175030092691955,-0.08432190431817066
365,0.3556,717.432,243.981,0.00335396,418.376,-1.00969,-0.570339,0.105813,-0.0158819,-0.088322,0.203818,-0.000478595,-0.000282636,0.162364,0.11161398525406208,0.22607498750099952,-0.00047848049168142115,-0.015756447644834193,-0.00028259606220848443,-0.08453395080919912
366,0.3566,717.736,244.089,0.00334266,418.558,-1.01109,-0.57115,0.106087,-0.015924,-0.0885536,0.204349,-0.00048004,-0.000283483,0.162796,0.11191860921759877,0.2267262062026263,-0.00047992479923364417,-0.015797883426158954,-0.00028344282249104236,-0.08474594819594672
367,0.3576,718.039,244.197,0.00333136,418.739,-1.01249,-0.571963,0.10636,-0.0159661,-0.088785,0.204879,-0.000481486,-0.000284331,0.163227,0.1122222044367771,0.22737654341605196,-0.00048137010421733795,-0.0158393174630741,-0.0002842905817720398,-0.08495771348134573
368,0.3586,718.341,244.305,0.00332006,418.919,-1.01389,-0.572777,0.106634,-0.0160082,-0.0890164,0.205409,-0.000482933,-0.000285178,0.163658,0.11252699507520347,0.22802722539955678,-0.00048281640662839465,-0.015880749755653123,-0.0002851373406193014,-0.08516942976992681
369,0.3596,718.643,244.412,0.00330876,419.099,-1.01529,-0.573593,0.106907,-0.0160502,-0.0892476,0.205939,-0.000484381,-0.000286027,0.164089,0.11283075640639395,0.2286782523359172,-0.0004842637064624844,-0.015922081896182272,-0.0002859860981774265,-0.08538091414922777
370,0.3606,718.944,244.519,0.00329746,419.279,-1.0167,-0.57441,0.10718,-0.0160923,-0.0894788,0.206468,-0.000485829,-0.000286876,0.164519,0.11313460067574854,0.22932839507899705,-0.00048571100420069513,-0.0159635107044519,-0.0002868348550149058,-0.08559234963899198
371,0.3616,719.243,244.626,0.00328616,419.458,-1.01811,-0.575228,0.107454,-0.0161343,-0.0897098,0.206998,-0.000487279,-0.000287725,0.16495,0.11343964134499696,0.2299801118180691,-0.00048716029886908263,-0.01600483936909436,-0.00028768361113185037,-0.08580355341125057
372,0.3626,719.543,244.733,0.00327486,419.637,-1.01952,-0.576048,0.107726,-0.0161763,-0.0899408,0.207527,-0.000488729,-0.000288575,0.16538,0.11374253811953672,0.23063094342700396,-0.000488609591435929,-0.01604616629796929,-0.00028853336623957393,-0.08601470840107228
373,0.3636,719.841,244.839,0.00326355,419.815,-1.02094,-0.576869,0.107999,-0.0162182,-0.0901717,0.208056,-0.00049018,-0.000289426,0.16581,0.11404663133927917,0.23128211941694077,-0.0004900598814111534,-0.01608739309989382,-0.000289384120335745,-0.08622572324230149
374,0.3646,720.138,244.945,0.00325225,419.993,-1.02235,-0.577692,0.108272,-0.0162602,-0.0904024,0.208585,-0.000491632,-0.000290277,0.16624,0.1143508075878037,0.23193363997010508,-0.0004915111687906482,-0.016128716561584877,-0.00029023487370782863,-0.08643650665314817
375,0.3656,720.435,245.051,0.00324094,420.17,-1.02377,-0.578516,0.108545,-0.0163021,-0.0906331,0.209113,-0.000493086,-0.000291128,0.16667,0.11465506688777993,0.23258427268393023,-0.0004929644530767829,-0.016169939904725816,-0.0002910856263559358,-0.08664724144187075
376,0.3666,720.731,245.157,0.00322964,420.347,-1.0252,-0.579341,0.108817,-0.016344,-0.0908637,0.209641,-0.00049454,-0.00029198,0.167099,0.11495829430303228,0.23323524902253734,-0.0004944177352499413,-0.016211161520644946,-0.00029193737798816066,-0.08685783630547328
377,0.3676,721.026,245.262,0.00321833,420.523,-1.02662,-0.580168,0.10909,-0.0163859,-0.0910941,0.210169,-0.000495995,-0.000292833,0.167529,0.11526271946952149,0.2338865691674079,-0.0004958720148141582,-0.01625238140941454,-0.0002927901286018386,-0.08706820002515747
378,0.3686,721.321,245.367,0.00320702,420.699,-1.02805,-0.580996,0.109362,-0.0164278,-0.0913245,0.210697,-0.00049745,-0.000293686,0.167958,0.11556611218875656,0.23453823330012002,-0.0004973262922624011,-0.016293599571106987,-0.00029364287848820947,-0.08727851528262365
379,0.3696,721.615,245.472,0.00319571,420.875,-1.02948,-0.581826,0.109634,-0.0164697,-0.0915548,0.211225,-0.000498907,-0.000294539,0.168387,0.11586958744203524,0.2351902416023468,-0.000498782566597078,-0.01633481600579456,-0.0002944956276471622,-0.08748869083790989
380,0.3706,721.908,245.577,0.00318439,421.05,-1.03091,-0.582657,0.109906,-0.0165115,-0.091785,0.211752,-0.000500365,-0.000295394,0.168816,0.11617314525181022,0.23584135841388143,-0.0005002398383097129,-0.01637593235114798,-0.0002953503754880016,-0.08769872676521628
381,0.3716,722.2,245.681,0.00317308,421.224,-1.03234,-0.583489,0.110178,-0.0165533,-0.0920151,0.212279,-0.000501823,-0.000296248,0.169244,0.11647678564053954,0.23649281845440884,-0.0005016971078977139,-0.01641704697787405,-0.00029620412289421694,-0.08790862313868375
382,0.3726,722.492,245.785,0.00316176,421.399,-1.03378,-0.584323,0.11045,-0.0165951,-0.0922451,0.212806,-0.000503283,-0.000297104,0.169673,0.1167805086306879,0.23714462190485808,-0.0005031563743547185,-0.0164581598860446,-0.00029705986897721193,-0.08811838003239436
383,0.3736,722.782,245.889,0.00315044,421.573,-1.03522,-0.585158,0.110722,-0.0166369,-0.092475,0.213333,-0.000504743,-0.000297959,0.170101,0.11708431424472576,0.23779676894625412,-0.000504615638681094,-0.01649927107573146,-0.0002979146146255829,-0.08832799752037135
384,0.3746,723.072,245.992,0.00313912,421.746,-1.03666,-0.585995,0.110993,-0.0166787,-0.0927048,0.21386,-0.000506205,-0.000298816,0.170529,0.1173870851174863,0.23844925975971676,-0.0005060768998649268,-0.016540380547006572,-0.00029877135894562645,-0.08853747567657921
385,0.3756,723.362,246.096,0.0031278,421.919,-1.0381,-0.586833,0.111265,-0.0167204,-0.0929345,0.214386,-0.000507667,-0.000299673,0.170957,0.11769105574276928,0.23910085542498694,-0.0005075381589122463,-0.016581389958085557,-0.00029962810253147953,-0.0887468145749234
386,0.3766,723.65,246.199,0.00311647,422.092,-1.03955,-0.587672,0.111536,-0.0167622,-0.0931641,0.214912,-0.00050913,-0.00030053,0.171385,0.11799399106475783,0.23975279391973325,-0.0005090004153143202,-0.016622495996863162,-0.00030048484538314213,-0.08895601428925082
387,0.3776,723.938,246.302,0.00310515,422.264,-1.041,-0.588513,0.111807,-0.0168039,-0.0933936,0.215438,-0.000510595,-0.000301388,0.171813,0.11829700849334346,0.24040507542433165,-0.0005104646685560876,-0.01666350198379929,-0.0003013425871991604,-0.08916507489334946
388,0.3786,724.225,246.404,0.00309382,422.435,-1.04245,-0.589355,0.112078,-0.0168456,-0.093623,0.215964,-0.00051206,-0.000302247,0.17224,0.11860010805078014,0.24105770011925243,-0.0005119289196527932,-0.016704506260821428,-0.00030220132797698085,-0.0893739964609489
389,0.3796,724.512,246.507,0.00308248,422.607,-1.0439,-0.590198,0.112349,-0.0168872,-0.0938524,0.216489,-0.000513526,-0.000303106,0.172668,0.11890328975932785,0.24170942647501392,-0.0005133941680910414,-0.016745410502546854,-0.00030306006801728014,-0.0895828701074376
390,0.3806,724.798,246.609,0.00307115,422.778,-1.04536,-0.591043,0.11262,-0.0169289,-0.0940816,0.217014,-0.000514993,-0.000303965,0.173095,0.11920655364125254,0.24236149507694416,-0.0005148604138662805,-0.01678641136405501,-0.0003039188073198362,-0.08979151380212813
391,0.3816,725.083,246.711,0.00305981,422.948,-1.04681,-0.59189,0.112891,-0.0169705,-0.0943107,0.217539,-0.000516461,-0.000304826,0.173522,0.11950989971882642,0.24301390610476936,-0.0005163276569741804,-0.01682731219859901,-0.00030477954527519113,-0.09000001868117025
392,0.3826,725.367,246.813,0.00304847,423.118,-1.04827,-0.592737,0.113161,-0.0170121,-0.0945398,0.218064,-0.00051793,-0.000305686,0.173948,0.11981220820155913,0.24366665973831036,-0.0005177958974105223,-0.016868211331703686,-0.00030563928279503383,-0.09020847579721591
393,0.3836,725.651,246.914,0.00303713,423.288,-1.04974,-0.593586,0.113432,-0.0170537,-0.0947687,0.218589,-0.0005194,-0.000306548,0.174375,0.12011571843376068,0.24431975615748214,-0.0005192651351706434,-0.016909108763439873,-0.0003065010189625683,-0.09041670324456541
394,0.3846,725.933,247.015,0.00302578,423.457,-1.0512,-0.594437,0.113702,-0.0170953,-0.0949976,0.219113,-0.000520871,-0.00030741,0.174801,0.12041819050963065,0.24497195056972143,-0.0005207353702502138,-0.01695000449387818,-0.0003073627543873636,-0.09062488303410687
395,0.3856,726.216,247.116,0.00301443,423.626,-1.05267,-0.595289,0.113973,-0.0171369,-0.0952263,0.219637,-0.000522343,-0.000308272,0.175227,0.1207218649852917,0.24562448682138704,-0.0005222066026449035,-0.016990898523089548,-0.00030822448906919764,-0.0908328333433327
396,0.3866,726.497,247.217,0.00300307,423.794,-1.05414,-0.596142,0.114243,-0.0171784,-0.095455,0.220161,-0.000523816,-0.000309135,0.175653,0.12102450074282634,0.24627736509164966,-0.0005236788323502717,-0.0170316925543188,-0.0003090872226991781,-0.09104073609976071
397,0.3876,726.778,247.317,0.00299172,423.963,-1.05561,-0.596997,0.114513,-0.0172199,-0.0956835,0.220685,-0.00052529,-0.000309999,0.176079,0.12132721822304782,0.24693058555977365,-0.0005251520593619885,-0.017072484892630913,-0.00030995095527475147,-0.09124840956396507
398,0.3886,727.058,247.418,0.00298036,424.13,-1.05709,-0.597853,0.114783,-0.0172614,-0.095912,0.221208,-0.000526764,-0.000310863,0.176505,0.12163001744802382,0.2475829008215935,-0.0005266252842019981,-0.017113275538096162,-0.0003108146871039219,-0.09145603558020399
399,0.3896,727.338,247.518,0.00296899,424.298,-1.05857,-0.59871,0.115053,-0.0173029,-0.0961404,0.221732,-0.00052824,-0.000311728,0.176931,0.12193289843982869,0.24823680556970573,-0.0005281005058144217,-0.017154064490784715,-0.00031167941787524356,-0.09166352332567496
400,0.3906,727.616,247.618,0.00295762,424.464,-1.06005,-0.599569,0.115322,-0.0173444,-0.0963687,0.222255,-0.000529717,-0.000312593,0.177356,0.12223473898524229,0.24888980416326656,-0.0005295767247197603,-0.01719485175076685,-0.00031254414789860796,-0.0918708728734482
401,0.3916,727.895,247.717,0.00294625,424.631,-1.06153,-0.600429,0.115592,-0.0173858,-0.0965969,0.222778,-0.000531195,-0.000313459,0.177781,0.1225377832739063,0.24954314436441427,-0.0005310539409136839,-0.017235539041671633,-0.00031340987686045985,-0.09207808429653586
402,0.3926,728.172,247.817,0.00293488,424.797,-1.06302,-0.601291,0.115861,-0.0174272,-0.0968249,0.2233,-0.000532673,-0.000314325,0.178206,0.12283978655522731,0.25019557615565513,-0.0005325311549243539,-0.017276224648157368,-0.00031427560507268915,-0.09228506689640326
403,0.3936,728.449,247.916,0.0029235,424.963,-1.0645,-0.602154,0.116131,-0.0174686,-0.0970529,0.223823,-0.000534153,-0.000315192,0.178631,0.12314299422879116,0.2508495994541693,-0.0005340103656835682,-0.017316908570294,-0.00031514233221996424,-0.0924920023096173
404,0.3946,728.725,248.015,0.00291211,425.128,-1.06599,-0.603018,0.1164,-0.01751,-0.0972808,0.224345,-0.000535634,-0.00031606,0.179055,0.12344516033375763,0.2515027133929921,-0.0005354905737181559,-0.017357590808151024,-0.00031601005829984263,-0.09269879981681994
405,0.3956,729.0,248.113,0.00290073,425.293,-1.06749,-0.603884,0.116669,-0.0175514,-0.0975086,0.224867,-0.000537116,-0.000316928,0.17948,0.12374740773233994,0.25215616834628807,-0.0005369717790235651,-0.01739827136179828,-0.00031687778362654573,-0.0929054594907911
406,0.3966,729.275,248.212,0.00288933,425.458,-1.06898,-0.604751,0.116938,-0.0175927,-0.0977364,0.225389,-0.000538598,-0.000317797,0.179904,0.12404973644640882,0.2528099644921131,-0.0005384529821338413,-0.01743885197519568,-0.0003177465078822994,-0.09311207209305028
407,0.3976,729.549,248.31,0.00287794,425.622,-1.07048,-0.60562,0.117207,-0.0176341,-0.097964,0.22591,-0.000540082,-0.000318667,0.180328,0.12435214649784143,0.2534628485451411,-0.000539936181969014,-0.01747952916470019,-0.00031861623106443915,-0.09331845629802837
408,0.3986,729.823,248.408,0.00286654,425.786,-1.07198,-0.60649,0.117476,-0.0176754,-0.0981915,0.226432,-0.000541567,-0.000319537,0.180752,0.12465463790852005,0.2541173269560857,-0.0005414203790617966,-0.017520106422219572,-0.0003194859534900729,-0.09352470288778147
409,0.3996,730.096,248.506,0.00285513,425.949,-1.07348,-0.607361,0.117745,-0.0177167,-0.0984189,0.226953,-0.000543053,-0.000320407,0.181176,0.12495721070033339,0.2547708923224239,-0.0005429055734076371,-0.017560682003932793,-0.00032035567515897867,-0.093730811934858
410,0.4006,730.368,248.604,0.00284372,426.112,-1.07498,-0.608234,0.118013,-0.0177579,-0.0986463,0.227474,-0.000544539,-0.000321278,0.1816,0.12525873963587353,0.2554247982850357,-0.0005443907655464653,-0.017601157670029788,-0.0003212263957499406,-0.09393687411806573
411,0.4016,730.639,248.701,0.0028323,426.275,-1.07649,-0.609108,0.118282,-0.0177992,-0.0988735,0.227994,-0.000546027,-0.00032215,0.182023,0.12556147495291037,0.25607778894300104,-0.0005458779543865422,-0.01764172990439561,-0.0003220981152604052,-0.0941427082766203
412,0.4026,730.91,248.798,0.00282088,426.437,-1.078,-0.609984,0.11855,-0.0178404,-0.0991007,0.228515,-0.000547516,-0.000323022,0.182446,0.12586316585297253,0.2567323759761557,-0.0005473661404662433,-0.017682202231387945,-0.00032296983401081114,-0.09434849567496617
413,0.4036,731.181,248.895,0.00280946,426.599,-1.07951,-0.610861,0.118818,-0.0178817,-0.0993277,0.229035,-0.000549006,-0.000323895,0.182869,0.1261649376170313,0.25738604675133536,-0.0005488553237812388,-0.01772277111868248,-0.00032384255167727805,-0.09455405523455529
414,0.4046,731.45,248.992,0.00279803,426.761,-1.08103,-0.611739,0.119086,-0.0179229,-0.0995547,0.229555,-0.000550497,-0.000324769,0.183292,0.1264667902667611,0.25804005752370984,-0.0005503455043270877,-0.01776324010684549,-0.00032471626825703037,-0.09475956813742004
415,0.4056,731.719,249.088,0.00278659,426.922,-1.08254,-0.612619,0.119354,-0.0179641,-0.0997816,0.230075,-0.000551988,-0.000325643,0.183715,0.12676872382384197,0.2586944084701237,-0.0005518356826510473,-0.017803707427720528,-0.0003255899840731713,-0.09496494389064936
416,0.4066,731.988,249.185,0.00277515,427.083,-1.08406,-0.6135,0.119622,-0.0180052,-0.100008,0.230595,-0.000553481,-0.000326518,0.184138,0.1270707383099603,0.25934909976751297,-0.0005533278576463907,-0.01784407486578876,-0.000326464698799267,-0.09516982063443002
417,0.4076,732.255,249.281,0.00276371,427.243,-1.08558,-0.614382,0.11989,-0.0180464,-0.100235,0.231114,-0.000554975,-0.000327393,0.18456,0.12737283374680786,0.26000287158940516,-0.0005548210298591538,-0.017884538856340337,-0.0003273394127599749,-0.09537519377441273
418,0.4086,732.523,249.377,0.00275226,427.403,-1.08711,-0.615266,0.120158,-0.0180875,-0.100462,0.231633,-0.00055647,-0.000328269,0.184982,0.12767501015608218,0.2606569828069383,-0.0005563151992848958,-0.01792490297230509,-0.0003282151256270849,-0.09558052029998354
419,0.4096,732.789,249.472,0.0027408,427.563,-1.08863,-0.616152,0.120425,-0.0181286,-0.100688,0.232152,-0.000557966,-0.000329146,0.185404,0.12797613958278342,0.2613114335963047,-0.0005578103659189537,-0.01796526542933874,-0.00032909183739793235,-0.09578489600707096
420,0.4106,733.055,249.568,0.00272934,427.722,-1.09016,-0.617038,0.120692,-0.0181697,-0.100914,0.232671,-0.000559463,-0.000330023,0.185826,0.12827734942177593,0.2619662241337877,-0.0005593065297569977,-0.018005626227509564,-0.0003299685483999504,-0.09598922553046751
421,0.4116,733.32,249.663,0.00271787,427.881,-1.09169,-0.617926,0.12096,-0.0182108,-0.101141,0.23319,-0.000560962,-0.000330901,0.186248,0.12857976827373707,0.2626213545957625,-0.0005608046902335628,-0.01804598536688562,-0.0003308462583022642,-0.09619441268664886
422,0.4126,733.585,249.758,0.00270639,428.04,-1.09323,-0.618816,0.121227,-0.0182518,-0.101367,0.233708,-0.000562461,-0.000331779,0.186669,0.1288811393031084,0.263275561882502,-0.0005623028484644799,-0.018086244656164485,-0.00033172396743397226,-0.09639864966973322
423,0.4136,733.849,249.853,0.00269491,428.198,-1.09476,-0.619707,0.121494,-0.0182928,-0.101593,0.234226,-0.000563961,-0.000332658,0.187091,0.1291825908092874,0.26393010813640094,-0.0005638020038858382,-0.01812650229484636,-0.0003326026754624234,-0.09660284050047485
424,0.4146,734.112,249.948,0.00268343,428.356,-1.0963,-0.620599,0.121761,-0.0183339,-0.101819,0.234744,-0.000565462,-0.000333538,0.187512,0.12948412281376487,0.26458499353308995,-0.000565302156493197,-0.018166856466318104,-0.0003334823823849531,-0.09680698518930309
425,0.4156,734.375,250.042,0.00267193,428.514,-1.09784,-0.621493,0.122028,-0.0183749,-0.102045,0.235262,-0.000566965,-0.000334418,0.187933,0.12978573533803628,0.26524021824829025,-0.0005668043057152072,-0.018207110799983495,-0.0003343620885334353,-0.09701108374664458
426,0.4166,734.637,250.136,0.00266044,428.671,-1.09939,-0.622388,0.122295,-0.0184158,-0.102271,0.23578,-0.000568468,-0.000335299,0.188354,0.13008742840360354,0.26589578245781453,-0.0005683064526794679,-0.018247265307986482,-0.00033524279357244335,-0.09721513618292399
427,0.4176,734.899,250.23,0.00264893,428.828,-1.10093,-0.623284,0.122561,-0.0184568,-0.102497,0.236297,-0.000569972,-0.000336181,0.188775,0.130388071643337,0.26655041978651317,-0.0005698095968161843,-0.018287516344956956,-0.00033612449749953477,-0.09741914250856354
428,0.4186,735.16,250.324,0.00263742,428.985,-1.10248,-0.624182,0.122828,-0.0184978,-0.102722,0.236814,-0.000571478,-0.000337063,0.189195,0.13068992555416958,0.2672053956502147,-0.0005713147375495664,-0.01832776573166872,-0.00033700620064880393,-0.0976222003566346
429,0.4196,735.421,250.418,0.0026259,429.141,-1.10403,-0.625081,0.123094,-0.0185387,-0.102948,0.237331,-0.000572984,-0.000337946,0.189615,0.1309907290794623,0.2678607102239865,-0.0005728198760162062,-0.018367915304985938,-0.00033788890268271476,-0.09782611469616564
430,0.4206,735.68,250.511,0.00261438,429.297,-1.10558,-0.625982,0.12336,-0.0185796,-0.103173,0.237848,-0.000574492,-0.000338829,0.190036,0.13129161262913547,0.2685163636829875,-0.0005743270110674104,-0.01840806323621924,-0.000338771603937027,-0.09802908098579521
431,0.4216,735.94,250.605,0.00260285,429.452,-1.10714,-0.626884,0.123627,-0.0186205,-0.103399,0.238364,-0.000576001,-0.000339713,0.190456,0.13159370781762036,0.26917108703074466,-0.000575835143270087,-0.018448209525435688,-0.00033965530407231714,-0.09823290338069424
432,0.4226,736.198,250.698,0.00259131,429.608,-1.1087,-0.627787,0.123893,-0.0186613,-0.103624,0.238881,-0.000577511,-0.000340598,0.190875,0.13189475178097188,0.26982741812970934,-0.0005773442726195732,-0.018488256021532923,-0.0003405400030859207,-0.09843577815316584
433,0.4236,736.456,250.791,0.00257976,429.763,-1.11026,-0.628692,0.124159,-0.0187022,-0.103849,0.239397,-0.000579021,-0.000341483,0.191295,0.13219587583266912,0.2704828181561292,-0.0005788533996903267,-0.01852839903093151,-0.00034142470131659497,-0.09863860728394847
434,0.4246,736.714,250.883,0.00256821,429.917,-1.11182,-0.629598,0.124424,-0.018743,-0.104074,0.239913,-0.000580533,-0.000342369,0.191714,0.13249594749750426,0.27113855645622964,-0.0005803645233216637,-0.018568442255363693,-0.0003423103984219189,-0.09884139078331033
435,0.4256,736.971,250.976,0.00255665,430.071,-1.11339,-0.630506,0.12469,-0.0187838,-0.104299,0.240428,-0.000582046,-0.000343255,0.192134,0.13279723148853284,0.27179336141060784,-0.0005818766440861545,-0.018608483846065726,-0.0003431960947425372,-0.09904412866151757
436,0.4266,737.227,251.068,0.00254509,430.225,-1.11495,-0.631415,0.124956,-0.0188246,-0.104524,0.240944,-0.00058356,-0.000344142,0.192553,0.13309859563176296,0.27244977612552757,-0.0005833897619794692,-0.01864852380310411,-0.0003440827899343635,-0.09924682092883352
437,0.4276,737.483,251.16,0.00253351,430.379,-1.11652,-0.632325,0.125221,-0.0188654,-0.104749,0.241459,-0.000585076,-0.00034503,0.192972,0.1333989065490444,0.2731052565319494,-0.0005849048764121623,-0.01868856212654557,-0.0003449704839947332,-0.09944946759551965
438,0.4286,737.738,251.252,0.00252193,430.532,-1.1181,-0.633237,0.125487,-0.0189062,-0.104974,0.241974,-0.000586592,-0.000345919,0.193391,0.13370043075912852,0.27376107459772037,-0.0005864199885479149,-0.018728598816456832,-0.00034585917692087076,-0.09965206867183485
439,0.4296,737.993,251.344,0.00251034,430.685,-1.11967,-0.63415,0.125752,-0.0189469,-0.105199,0.242489,-0.000588109,-0.000346808,0.193809,0.13400090118385277,0.2744172304967798,-0.0005879360977988357,-0.018768535749762894,-0.00034674786905708466,-0.09985462416803581
440,0.4306,738.247,251.435,0.00249875,430.837,-1.12125,-0.635065,0.126017,-0.0189877,-0.105423,0.243003,-0.000589628,-0.000347698,0.194228,0.13430145124379056,0.2750724493300698,-0.0005894542035709271,-0.018808569176816836,-0.0003476375600555137,-0.10005623415106102
441,0.4316,738.501,251.526,0.00248714,430.99,-1.12283,-0.635981,0.126282,-0.0190284,-0.105648,0.243518,-0.000591148,-0.000348588,0.194646,0.1346020809600481,0.27572928076105097,-0.0005909733064459743,-0.01884850285539541,-0.00034852725026224274,-0.10025869872025894
442,0.4326,738.754,251.618,0.00247553,431.141,-1.12441,-0.636898,0.126547,-0.019069,-0.105872,0.244032,-0.000592668,-0.000349479,0.195064,0.13490279035373742,0.2763851741615255,-0.0005924924070120907,-0.01888833679754498,-0.0003494179393276342,-0.10046021820072115
443,0.4336,739.006,251.708,0.00246391,431.293,-1.126,-0.637817,0.126812,-0.0191097,-0.106096,0.244546,-0.00059419,-0.000350371,0.195482,0.1352035794459756,0.2770414047778653,-0.000594013504081059,-0.018928267229647577,-0.0003503096272491346,-0.10066169254587509
444,0.4346,739.258,251.799,0.00245228,431.444,-1.12758,-0.638737,0.127077,-0.0191504,-0.10632,0.24506,-0.000595713,-0.000351263,0.1959,0.13550444825788577,0.2776979727834432,-0.0005955355982394384,-0.018968196036614593,-0.00035120131437527125,-0.1008631217658299
445,0.4356,739.509,251.89,0.00244065,431.595,-1.12917,-0.639659,0.127341,-0.019191,-0.106544,0.245573,-0.000597237,-0.000352156,0.196318,0.13580426100576726,0.2783535999974831,-0.0005970586894825658,-0.01900802511931965,-0.0003520940003538531,-0.1010645058706926
446,0.4366,739.76,251.98,0.002429,431.746,-1.13076,-0.640582,0.127606,-0.0192316,-0.106768,0.246087,-0.000598762,-0.00035305,0.196735,0.1361052890193839,0.27901084264477216,-0.0005985827778058894,-0.01904785258499675,-0.0003529876851823266,-0.10126584487056767
447,0.4376,740.01,252.07,0.00241735,431.896,-1.13236,-0.641506,0.12787,-0.0192722,-0.106992,0.2466,-0.000600288,-0.000353944,0.197152,0.13640526041016643,0.2796671435338338,-0.0006001078632049683,-0.01908767843371162,-0.0003538813692118836,-0.10146713877555769
448,0.4386,740.26,252.16,0.00240569,432.046,-1.13396,-0.642432,0.128134,-0.0193128,-0.107216,0.247113,-0.000601816,-0.000354839,0.197569,0.1367053110038503,0.28032378119162527,-0.0006016349450734815,-0.01912750266552976,-0.0003547760520876686,-0.10166838759576258
449,0.4396,740.509,252.25,0.00239402,432.196,-1.13556,-0.643359,0.128398,-0.0193534,-0.10744,0.247626,-0.000603344,-0.000355735,0.197986,0.13700544082134813,0.2809807557909534,-0.0006031620246086389,-0.01916732528051701,-0.000355671733807128,-0.10186959134128026
450,0.4406,740.757,252.34,0.00238234,432.345,-1.13716,-0.644287,0.128662,-0.0193939,-0.107664,0.248138,-0.000604874,-0.000356631,0.198403,0.13730564988357763,0.2816367858672868,-0.000604691100600907,-0.01920704819944863,-0.0003565674147240072,-0.10207075002220645
451,0.4416,741.005,252.429,0.00237066,432.494,-1.13876,-0.645217,0.128926,-0.0194344,-0.107887,0.248651,-0.000606405,-0.000357528,0.19882,0.13760593821146205,0.282294434210814,-0.0006062211736476142,-0.019246769509634554,-0.0003574640944807861,-0.10227096592004925
452,0.4426,741.253,252.519,0.00235896,432.643,-1.14037,-0.646149,0.12919,-0.0194749,-0.108111,0.249163,-0.000607936,-0.000358425,0.199236,0.13790630582593044,0.28295113706271424,-0.0006077512443517508,-0.019286489211140068,-0.0003583607734334304,-0.1024720347031387
453,0.4436,741.5,252.608,0.00234726,432.791,-1.14198,-0.647081,0.129454,-0.0195154,-0.108334,0.249675,-0.000609469,-0.000359324,0.199653,0.13820675274791716,0.2836081762325646,-0.0006092833114946794,-0.01932620730403023,-0.0003592594508631253,-0.10267216112447453
454,0.4446,741.746,252.697,0.00233555,432.939,-1.14359,-0.648015,0.129718,-0.0195559,-0.108557,0.250186,-0.000611004,-0.000360223,0.200069,0.13850727899836235,0.2842642676276943,-0.0006108173750674073,-0.01936592378837021,-0.00036015812748491083,-0.10287224292259423
455,0.4456,741.992,252.785,0.00232383,433.087,-1.1452,-0.648951,0.129981,-0.0195964,-0.10878,0.250698,-0.000612539,-0.000361122,0.200485,0.1388067457908959,0.28492197929253793,-0.0006123514362853522,-0.019405638664225067,-0.0003610568032987871,-0.1030722801074474
456,0.4466,742.238,252.874,0.0023121,433.235,-1.14682,-0.649888,0.130244,-0.0196368,-0.109003,0.251209,-0.000614075,-0.000362023,0.2009,0.13910629135355368,0.2855787422125913,-0.0006138864945346434,-0.019445253876190338,-0.0003619574775808321,-0.10327227268898176
457,0.4476,742.482,252.962,0.00230036,433.382,-1.14844,-0.650826,0.130508,-0.0196772,-0.109226,0.25172,-0.000615613,-0.000362923,0.201316,0.13940705511354068,0.2862358408242587,-0.0006154235491951932,-0.01948486748773337,-0.0003628571514142642,-0.10347222067714279
458,0.4486,742.727,253.051,0.00228861,433.529,-1.15006,-0.651766,0.130771,-0.0197176,-0.109449,0.252231,-0.000617152,-0.000363825,0.201731,0.1397067585783136,0.28689327529912223,-0.0006169616008748768,-0.01952447949891889,-0.000363758823710425,-0.10367212408187376
459,0.4496,742.971,253.139,0.00227685,433.675,-1.15168,-0.652707,0.131034,-0.019758,-0.109672,0.252742,-0.000618691,-0.000364727,0.202147,0.14000654087546383,0.2875510458088524,-0.000618499650187454,-0.01956408990981151,-0.0003646604951933474,-0.10387198291311561
460,0.4506,743.214,253.226,0.00226508,433.821,-1.15331,-0.65365,0.131297,-0.0197984,-0.109895,0.253252,-0.000620232,-0.00036563,0.202562,0.14030640202572675,0.28820786431669765,-0.00062003969589286,-0.019603698720475737,-0.00036556316549740675,-0.10407179718080706
461,0.4516,743.457,253.314,0.0022533,433.967,-1.15494,-0.654594,0.13156,-0.0198387,-0.110118,0.253763,-0.000621775,-0.000366534,0.202977,0.140606342049844,0.28886630675307834,-0.00062158173798188,-0.01964320789530205,-0.00036646683461982743,-0.10427156689488482
462,0.4526,743.699,253.402,0.00224152,434.113,-1.15657,-0.655539,0.131822,-0.019879,-0.11034,0.254273,-0.000623318,-0.000367438,0.203391,0.14090522006277095,0.28952379621508406,-0.000623123777691581,-0.01968271547794076,-0.000367370502925346,-0.10447039653612733
463,0.4536,743.941,253.489,0.00222972,434.258,-1.1582,-0.656486,0.132085,-0.0199194,-0.110563,0.254783,-0.000624862,-0.000368343,0.203806,0.14120531759674337,0.29018162108223655,-0.0006246668143973233,-0.019722319496228935,-0.00036827517004567323,-0.10467007737245904
464,0.4546,744.182,253.576,0.00221791,434.404,-1.15984,-0.657434,0.132348,-0.0199597,-0.110785,0.255292,-0.000626408,-0.000369249,0.20422,0.14150549406674684,0.2908384906864998,-0.0006262118474680278,-0.01976182389073433,-0.00036918083597814455,-0.10486881855419494
465,0.4556,744.423,253.663,0.00220609,434.548,-1.16148,-0.658383,0.13261,-0.0199999,-0.111007,0.255802,-0.000627955,-0.000370155,0.204635,0.1418046076883659,0.2914969862188377,-0.0006277578775224502,-0.019801228673372417,-0.000370086501089939,-0.1050675156202856
466,0.4566,744.663,253.75,0.00219427,434.693,-1.16312,-0.659334,0.132872,-0.0200402,-0.111229,0.256311,-0.000629503,-0.000371062,0.205049,0.14210379968802056,0.2921545255143776,-0.0006293049045559274,-0.019840729887902087,-0.00037099316501032487,-0.1052661685805234
467,0.4576,744.903,253.837,0.00218243,434.837,-1.16476,-0.660287,0.133134,-0.0200804,-0.111452,0.25682,-0.000631052,-0.00037197,0.205463,0.14240307008624908,0.29281239958261107,-0.0006308529285636855,-0.01988013149858292,-0.00037190082773652655,-0.10546567197947421
468,0.4586,745.142,253.923,0.00217058,434.981,-1.16641,-0.66124,0.133396,-0.0201207,-0.111674,0.257329,-0.000632602,-0.000372879,0.205877,0.14270241890359436,0.29347060859398133,-0.0006324019495411726,-0.01991962953339277,-0.0003728094892656575,-0.10566423655881096
469,0.4596,745.38,254.009,0.00215872,435.124,-1.16805,-0.662195,0.133658,-0.0201609,-0.111895,0.257838,-0.000634154,-0.000373788,0.20629,0.14300184616060507,0.2941291527190175,-0.0006339529668497601,-0.01995902797237159,-0.0003737181499687825,-0.10586186292401378
470,0.4606,745.619,254.095,0.00214686,435.268,-1.16971,-0.663152,0.13392,-0.020201,-0.112117,0.258346,-0.000635707,-0.000374697,0.206704,0.14330135187783477,0.2947867373409512,-0.0006355049811156421,-0.019998326827402657,-0.0003746268098460126,-0.10606033955872296
471,0.4616,745.856,254.181,0.00213498,435.411,-1.17136,-0.66411,0.134182,-0.0202412,-0.112339,0.258855,-0.00063726,-0.000375608,0.207117,0.143600936075843,0.29544595154604036,-0.00063705699297123,-0.02003772210281385,-0.00037553746814622535,-0.10625877213650992
472,0.4626,746.094,254.267,0.00212309,435.554,-1.17301,-0.665069,0.134444,-0.0202814,-0.112561,0.259363,-0.000638815,-0.000376519,0.20753,0.14390059877519423,0.2961042052717162,-0.0006386110011393775,-0.020077115794566724,-0.00037644812561676844,-0.10645716066715383
473,0.4636,746.33,254.353,0.00211119,435.696,-1.17467,-0.66603,0.134705,-0.0203215,-0.112782,0.25987,-0.000640372,-0.000377431,0.207943,0.14419919579669083,0.2967614967130896,-0.0006401670056106479,-0.020116409914371025,-0.0003773597818803598,-0.10665461181549085
474,0.4646,746.567,254.438,0.00209928,435.838,-1.17633,-0.666992,0.134967,-0.0203616,-0.113004,0.260378,-0.000641929,-0.000378344,0.208356,0.14449901526062425,0.2974204189054863,-0.0006417230076593006,-0.020155702458512725,-0.00037827243693422385,-0.1068529124794797
475,0.4656,746.802,254.524,0.00208736,435.98,-1.178,-0.667956,0.135228,-0.0204017,-0.113225,0.260886,-0.000643488,-0.000379257,0.208768,0.14479776848920767,0.2980796759153934,-0.0006432810059986416,-0.020194993427054886,-0.00037918509115486554,-0.10705027617633
476,0.4666,747.037,254.609,0.00207542,436.122,-1.17966,-0.668921,0.135489,-0.0204418,-0.113446,0.261393,-0.000645047,-0.000380171,0.209181,0.1450965997025604,0.2987379691743224,-0.0006448390019091477,-0.0202342828200609,-0.0003800987441622272,-0.10724759626062264
477,0.4676,747.272,254.694,0.00206348,436.263,-1.18133,-0.669887,0.13575,-0.0204819,-0.113668,0.2619,-0.000646608,-0.000381086,0.209593,0.1453955089210388,0.2993965962725549,-0.0006463989940979076,-0.02027357063759383,-0.0003810133959534223,-0.10744576529667582
478,0.4686,747.507,254.779,0.00205152,436.404,-1.183,-0.670855,0.136011,-0.0205219,-0.113889,0.262407,-0.000648171,-0.000382001,0.210005,0.1456944961650053,0.3000555573793904,-0.0006479609825555954,-0.020312758910997597,-0.0003819280469077313,-0.10764299798753019
479,0.4696,747.74,254.863,0.00203956,436.545,-1.18467,-0.671824,0.136272,-0.020562,-0.11411,0.262913,-0.000649734,-0.000382917,0.210417,0.14599356145482711,0.3007135519500115,-0.0006495229685719028,-0.020352043581702395,-0.00038284369664220996,-0.10784018709477605
480,0.4706,747.974,254.948,0.00202758,436.685,-1.18635,-0.672794,0.136533,-0.020602,-0.114331,0.26342,-0.000651299,-0.000383834,0.210829,0.14629270481087642,0.30137318092266496,-0.0006510869508445927,-0.02039122871625121,-0.0003837603451543048,-0.10803733262804427
481,0.4716,748.207,255.032,0.00201559,436.825,-1.18802,-0.673766,0.136793,-0.020642,-0.114552,0.263926,-0.000652864,-0.000384751,0.211241,0.14659077966217882,0.302031842379507,-0.0006526509306696848,-0.020430412283426014,-0.00038467699282573875,-0.10823443459696369
482,0.4726,748.439,255.116,0.00200359,436.965,-1.1897,-0.67474,0.137054,-0.0206819,-0.114772,0.264432,-0.000654431,-0.00038567,0.211652,0.1468900789125238,0.30269083720338097,-0.0006542169067387249,-0.020469496330243975,-0.0003855956388855164,-0.10843060144220817
483,0.4736,748.671,255.2,0.00199158,437.105,-1.19139,-0.675715,0.137314,-0.0207219,-0.114993,0.264938,-0.000656,-0.000386589,0.212063,0.14718830910128555,0.3033501655630131,-0.000655784879042387,-0.020508676766776812,-0.00038651428410096944,-0.10862761650832276
484,0.4746,748.902,255.284,0.00197955,437.244,-1.19307,-0.676691,0.137575,-0.0207618,-0.115214,0.265444,-0.000657569,-0.000387508,0.212474,0.14748776432716815,0.3040098276272154,-0.0006573528488857949,-0.020547757690904223,-0.0003874329284722089,-0.10882458803891859
485,0.4756,749.133,255.368,0.00196752,437.383,-1.19476,-0.677668,0.137835,-0.0208018,-0.115434,0.265949,-0.00065914,-0.000388429,0.212885,0.14778614993434114,0.3046685188957139,-0.0006589228149512794,-0.020586934997045225,-0.0003883535712225772,-0.10902062506468657
486,0.4766,749.364,255.451,0.00195547,437.522,-1.19645,-0.678647,0.138095,-0.0208417,-0.115655,0.266454,-0.000660711,-0.00038935,0.213296,0.1480846131318585,0.30532754288730857,-0.0006604927785502923,-0.02062601279873144,-0.00038927421312495714,-0.10921750974998812
487,0.4776,749.594,255.535,0.00194341,437.661,-1.19814,-0.679628,0.138355,-0.0208816,-0.115875,0.266959,-0.000662285,-0.000390271,0.213707,0.1483831539398961,0.30598689977006677,-0.000662065737696782,-0.020665089041244533,-0.00039019485417945976,-0.10941346034248767
488,0.4786,749.823,255.618,0.00193133,437.799,-1.19984,-0.68061,0.138615,-0.0209214,-0.116095,0.267464,-0.000663859,-0.000391194,0.214117,0.1486817723786351,0.3066465897121413,-0.0006636386943673633,-0.020704065795058235,-0.00039111749360376535,-0.10960936783059849
489,0.4796,750.052,255.701,0.00191925,437.937,-1.20153,-0.681593,0.138875,-0.0209613,-0.116315,0.267969,-0.000665434,-0.000392117,0.214528,0.14898046846826252,0.3073066128817694,-0.0006652126478969844,-0.020743138923318916,-0.0003920401321765299,-0.10980523222380245
490,0.4806,750.281,255.784,0.00190715,438.075,-1.20323,-0.682577,0.139134,-0.0210011,-0.116535,0.268473,-0.000667011,-0.000393041,0.214938,0.1492780929503026,0.30796566148095805,-0.0006667885976139321,-0.020782112570808975,-0.00039296376950470613,-0.11000105353157963
491,0.4816,750.509,255.867,0.00189504,438.212,-1.20493,-0.683563,0.139394,-0.0210409,-0.116755,0.268977,-0.000668589,-0.000393966,0.215348,0.14957694410343603,0.3086250423243593,-0.0006683655441773739,-0.020821084667178802,-0.00039388840558562954,-0.11019683176340744
492,0.4826,750.737,255.949,0.00188292,438.35,-1.20664,-0.684551,0.139653,-0.0210807,-0.116975,0.269482,-0.000670168,-0.000394891,0.215758,0.14987472309267336,0.3092860648648763,-0.000669943487582314,-0.020860055212490125,-0.00039481304081123714,-0.11039256692876187
493,0.4836,750.964,256.032,0.00187079,438.486,-1.20835,-0.68554,0.139913,-0.0211205,-0.117195,0.269985,-0.000671749,-0.000395817,0.216167,0.15017372938981155,0.3099448014138566,-0.0006715234271528203,-0.02089902420680445,-0.0003957386747857061,-0.11058825903711633
494,0.4846,751.191,256.114,0.00185864,438.623,-1.21005,-0.68653,0.140172,-0.0211603,-0.117415,0.270489,-0.000673331,-0.000396744,0.216577,0.1504716629664562,0.31060517999519277,-0.0006731043635521683,-0.02093799165018384,-0.000396665307506483,-0.11078390809794236
495,0.4856,751.417,256.196,0.00184648,438.76,-1.21177,-0.687522,0.140431,-0.0212001,-0.117634,0.270992,-0.000674913,-0.000397672,0.216986,0.15076967371789096,0.3112645802259857,-0.0006746852974505169,-0.02097695754268969,-0.00039759293897068115,-0.11097862509977896
496,0.4866,751.643,256.278,0.00183431,438.896,-1.21348,-0.688515,0.14069,-0.0212398,-0.117854,0.271496,-0.000676498,-0.0003986,0.217395,0.15106776166410674,0.3119256241434938,-0.0006762692268190706,-0.021015823985971238,-0.0003985205695740124,-0.11117418828951742
497,0.4876,751.869,256.36,0.00182212,439.032,-1.2152,-0.689509,0.140949,-0.0212795,-0.118073,0.271999,-0.000678083,-0.000399529,0.217804,0.1513659268250993,0.3125856887247631,-0.0006778531536770771,-0.02105468888628559,-0.0003994491989171012,-0.11136881982935054
498,0.4886,752.094,256.441,0.00180992,439.167,-1.21692,-0.690505,0.141208,-0.0213192,-0.118293,0.272502,-0.00067967,-0.000400459,0.218213,0.15166416922087,0.31324608540203225,-0.0006794390766657887,-0.021093552243694136,-0.00040037882699706095,-0.11156429718569039
499,0.4896,752.319,256.523,0.00179771,439.303,-1.21864,-0.691502,0.141467,-0.0213589,-0.118512,0.273004,-0.000681258,-0.000401389,0.218622,0.15196248887142527,0.31390550043622967,-0.0006810259964564747,-0.021132414058257942,-0.00040130845421237904,-0.11175884330102959
500,0.4906,752.543,256.604,0.00178549,439.438,-1.22036,-0.692501,0.141725,-0.0213985,-0.118731,0.273507,-0.000682847,-0.000402321,0.21903,0.15225973353646705,0.31456656114577974,-0.000682613913044583,-0.021171176447160822,-0.00040224007975886433,-0.11195334681543445
501,0.4916,752.766,256.685,0.00177325,439.573,-1.22209,-0.693501,0.141984,-0.0214382,-0.11895,0.274009,-0.000684437,-0.000403253,0.219439,0.1525582074581575,0.315226639225211,-0.0006842028264252287,-0.02121003518010489,-0.0004031717044369332,-0.11214780773823363
502,0.4926,752.99,256.767,0.001761,439.707,-1.22382,-0.694503,0.142242,-0.0214778,-0.119169,0.274511,-0.000686029,-0.000404185,0.219847,0.15285560583842295,0.31588704874702334,-0.0006857937359079358,-0.021248794495272283,-0.0004041033282468076,-0.11234222607875355
503,0.4936,753.212,256.847,0.00174873,439.842,-1.22555,-0.695506,0.142501,-0.0215174,-0.119388,0.275013,-0.000687622,-0.000405119,0.220255,0.15315423411102702,0.3165477898776423,-0.0006873856421706348,-0.021287552275601196,-0.00040503695037830134,-0.11253660184631886
504,0.4946,753.435,256.928,0.00173645,439.976,-1.22728,-0.69651,0.142759,-0.021557,-0.119607,0.275515,-0.000689216,-0.000406053,0.220663,0.15345178628600786,0.3172088627835774,-0.0006889785452083297,-0.02132630852115236,-0.0004059705716377149,-0.112730935050252
505,0.4956,753.657,257.009,0.00172416,440.109,-1.22902,-0.697516,0.143017,-0.0215966,-0.119826,0.276016,-0.000690811,-0.000406988,0.221071,0.1537494152393537,0.31786894976181324,-0.0006905724450164685,-0.021365063231986503,-0.00040690519161834526,-0.1129252256998734
506,0.4966,753.878,257.089,0.00171185,440.243,-1.23076,-0.698523,0.143275,-0.0216362,-0.120044,0.276517,-0.000692408,-0.000407924,0.221478,0.15404712099087603,0.3185293675264802,-0.000692168340897914,-0.021403816408164578,-0.0004078408103171949,-0.1131185869235316
507,0.4976,754.099,257.17,0.00169953,440.376,-1.2325,-0.699531,0.143533,-0.0216757,-0.120263,0.277018,-0.000694006,-0.00040886,0.221886,0.1543449035603912,0.3191901162433437,-0.0006937652335370359,-0.02144247019399914,-0.0004087764281403006,-0.11331279268668815
508,0.4986,754.32,257.25,0.00168719,440.51,-1.23424,-0.700541,0.14379,-0.0217153,-0.120481,0.277519,-0.000695605,-0.000409797,0.222293,0.15464160832553553,0.31985119607825263,-0.0006953631229288382,-0.021481220304922277,-0.00040971304467796177,-0.113506069429952
509,0.4996,754.54,257.33,0.00167485,440.642,-1.23599,-0.701553,0.144048,-0.0217548,-0.1207,0.27802,-0.000697206,-0.000410735,0.2227,0.1549395442925705,0.3205126071971385,-0.0006969630083718537,-0.02151987103336328,-0.0004106506599274029,-0.11370019034373091
510,0.5006,754.76,257.41,0.00166248,440.775,-1.23774,-0.702566,0.144306,-0.0217943,-0.120918,0.27852,-0.000698808,-0.000411674,0.223107,0.15523755713700194,0.3211730285923271,-0.000698563890554782,-0.021558520235130718,-0.0004115892738857374,-0.11389338264351023
511,0.5016,754.979,257.49,0.00165011,440.907,-1.23949,-0.70358,0.144563,-0.0218337,-0.121136,0.279021,-0.000700411,-0.000412613,0.223514,0.15553449134359743,0.32183510211522104,-0.0007001657694729602,-0.02159707006999667,-0.00041252788696277687,-0.11408653283195846
512,0.5026,755.198,257.569,0.00163771,441.039,-1.24124,-0.704596,0.14482,-0.0218732,-0.121354,0.279521,-0.000702015,-0.000413553,0.22392,0.15583150187209083,0.322496184923208,-0.0007017686451215033,-0.02163571622246241,-0.00041346749874493494,-0.11427964091825493
513,0.5036,755.417,257.649,0.00162531,441.171,-1.243,-0.705613,0.145078,-0.0219126,-0.121572,0.280021,-0.000703621,-0.000414494,0.224327,0.1561297448712664,0.32315759835524815,-0.0007033735167923938,-0.02167426301586639,-0.00041440810922943605,-0.11447270691157685
514,0.5046,755.635,257.728,0.00161289,441.303,-1.24476,-0.706631,0.145335,-0.0219521,-0.12179,0.28052,-0.000705228,-0.000415436,0.224733,0.15642690839957596,0.3238180187580142,-0.0007049793851807706,-0.021712906119271014,-0.00041534971841350465,-0.11466573082109954
515,0.5056,755.853,257.807,0.00160045,441.434,-1.24652,-0.707651,0.145592,-0.0219915,-0.122008,0.28102,-0.000706836,-0.000416378,0.225139,0.15672414830872694,0.3244800932722285,-0.0007065862502820819,-0.021751449871452944,-0.0004162913267106161,-0.11485871265599623
516,0.5066,756.07,257.886,0.001588,441.565,-1.24828,-0.708672,0.145849,-0.0220309,-0.122226,0.281519,-0.000708446,-0.000417322,0.225545,0.15702146461835165,0.3251411737646368,-0.000708195111383092,-0.021789992105041067,-0.0004172349332861591,-0.11505165242543824
517,0.5076,756.287,257.965,0.00157553,441.696,-1.25005,-0.709695,0.146106,-0.0220702,-0.122444,0.282018,-0.000710056,-0.000418266,0.225951,0.15731885734808748,0.32580258421852926,-0.0007098039698938408,-0.021828435002943403,-0.00041817853897108126,-0.1152445501385948
518,0.5086,756.503,258.044,0.00156305,441.827,-1.25182,-0.710719,0.146362,-0.0221096,-0.122661,0.282517,-0.000711669,-0.00041921,0.226356,0.15761516890182925,0.3264643247985979,-0.0007114158236800616,-0.021866974203377132,-0.00041912214376516044,-0.11543652124159676
519,0.5096,756.719,258.122,0.00155056,441.957,-1.25359,-0.711745,0.146619,-0.0221489,-0.122879,0.283016,-0.000713282,-0.000420156,0.226762,0.15791271423317443,0.32712639566961665,-0.0007130276748663622,-0.021905414075942486,-0.00042006774682834536,-0.11562933506249606
520,0.5106,756.935,258.201,0.00153805,442.087,-1.25536,-0.712772,0.146875,-0.0221883,-0.123096,0.283514,-0.000714897,-0.000421102,0.227167,0.15820917783373978,0.3277874692083087,-0.0007146415220234958,-0.02194395024346041,-0.00042101334899691256,-0.11582122267622841
521,0.5116,757.15,258.279,0.00152552,442.217,-1.25714,-0.7138,0.147132,-0.0222276,-0.123314,0.284013,-0.000716513,-0.000422049,0.227572,0.158506875844999,0.32845020049314755,-0.0007162563658579257,-0.021982387090926814,-0.00042195994984906005,-0.1160139526413555
522,0.5126,757.365,258.357,0.00151298,442.347,-1.25892,-0.71483,0.147388,-0.0222668,-0.123531,0.284511,-0.00071813,-0.000422997,0.227977,0.15880349157040818,0.3291119334508237,-0.0007178722063649889,-0.02202072462993221,-0.0004229075493819012,-0.11620575680212819
523,0.5136,757.58,258.435,0.00150043,442.476,-1.2607,-0.715861,0.147644,-0.0223061,-0.123748,0.285009,-0.000719749,-0.000423946,0.228382,0.15910018323916364,0.3297739960335824,-0.0007194900428202367,-0.02205915846022455,-0.0004238561475925495,-0.11639751934591369
524,0.5146,757.794,258.513,0.00148785,442.606,-1.26248,-0.716894,0.1479,-0.0223454,-0.123965,0.285507,-0.000721369,-0.000424895,0.228787,0.15939695087070893,0.33043638840561806,-0.0007211088759351281,-0.022097590780096987,-0.000424804744902918,-0.11658924028174178
525,0.5156,758.007,258.591,0.00147527,442.735,-1.26427,-0.717928,0.148156,-0.0223846,-0.124182,0.286004,-0.00072299,-0.000425845,0.229191,0.15969379448449317,0.33109777963276144,-0.0007227287057047782,-0.02213592380320628,-0.0004257543408873188,-0.11678091961864034
526,0.5166,758.22,258.669,0.00146266,442.863,-1.26605,-0.718963,0.148412,-0.0224238,-0.124399,0.286502,-0.000724612,-0.000426796,0.229596,0.15999071409997034,0.33176083141320856,-0.0007243495321243021,-0.02217425532369044,-0.0004267049355429764,-0.11697255736563561
527,0.5176,758.433,258.746,0.00145004,442.992,-1.26785,-0.72,0.148668,-0.022463,-0.124616,0.286999,-0.000726236,-0.000427748,0.23,0.16028770973659956,0.3324228810521286,-0.0007259723544629226,-0.022212585341608526,-0.0004276565288668932,-0.11716415353175136
528,0.5186,758.646,258.824,0.00143741,443.12,-1.26964,-0.721038,0.148924,-0.0225022,-0.124833,0.287496,-0.000727862,-0.0004287,0.230404,0.16058478141384436,0.3330852598114986,-0.0007275971727109809,-0.022250913857019272,-0.00042860812128497905,-0.11735570812600982
529,0.5196,758.858,258.901,0.00142476,443.248,-1.27143,-0.722078,0.149179,-0.0225414,-0.125049,0.287992,-0.000729488,-0.000429653,0.230808,0.16088076826982523,0.3337466341076316,-0.0007292219883169304,-0.02228924086998174,-0.0004295607123674383,-0.11754633870421105
530,0.5206,759.069,258.978,0.00141209,443.376,-1.27323,-0.723119,0.149435,-0.0225806,-0.125266,0.288489,-0.000731116,-0.000430607,0.231212,0.16117799178948955,0.3344096709357869,-0.000730848799819328,-0.022327566380554775,-0.0004305143021117175,-0.11773781037328479
531,0.5216,759.28,259.055,0.00139941,443.503,-1.27503,-0.724162,0.14969,-0.0226197,-0.125482,0.288985,-0.000732745,-0.000431562,0.231615,0.16147412993340438,0.3350717023027776,-0.0007324766079408462,-0.022365792625381298,-0.00043146889051470794,-0.11792835842631355
532,0.5226,759.491,259.132,0.00138671,443.631,-1.27684,-0.725206,0.149945,-0.0226588,-0.125699,0.289482,-0.000734376,-0.000432518,0.232019,0.16177034360217513,0.3357353978535049,-0.0007341064119423812,-0.022404017375590946,-0.00043242447757374514,-0.11811974720610141
533,0.5236,759.702,259.208,0.00137399,443.758,-1.27864,-0.726251,0.1502,-0.0226979,-0.125915,0.289978,-0.000736007,-0.000433474,0.232422,0.16206663281506284,0.33639808694414874,-0.0007357362132857093,-0.022442240631242005,-0.0004333800637191798,-0.11831021276968345
534,0.5246,759.912,259.285,0.00136126,443.885,-1.28045,-0.727298,0.150455,-0.022737,-0.126131,0.290473,-0.000737641,-0.000434431,0.232825,0.16236299759133366,0.3370597677496747,-0.0007373690097587371,-0.022480462392392986,-0.0004343366485166644,-0.11850063719714665
535,0.5256,760.121,259.361,0.00134851,444.011,-1.28226,-0.728346,0.15071,-0.0227761,-0.126348,0.290969,-0.000739275,-0.000435389,0.233228,0.16265943795025883,0.33772311389072196,-0.000739001803563788,-0.022518682659102396,-0.00043529423196353445,-0.11869190180591427
536,0.5266,760.331,259.438,0.00133574,444.138,-1.28407,-0.729396,0.150965,-0.0228151,-0.126564,0.291465,-0.000740911,-0.000436348,0.233631,0.1629559539111145,0.33838678913306564,-0.0007406365932195458,-0.02255680368711377,-0.00043625281405668126,-0.11888224379744916
537,0.5276,760.539,259.514,0.00132296,444.264,-1.28589,-0.730447,0.15122,-0.0228542,-0.12678,0.29196,-0.000742548,-0.000437307,0.234033,0.16325254549318147,0.33904945458985636,-0.000742272379458564,-0.022595020968936952,-0.0004372113952305634,-0.11907254467955375
538,0.5286,760.748,259.59,0.00131016,444.39,-1.28771,-0.731499,0.151475,-0.0228932,-0.126996,0.292455,-0.000744187,-0.000438267,0.234436,0.1635492127157454,0.3397124481472462,-0.0007439101615319688,-0.022633139019812343,-0.0004381709750470586,-0.11926280446110682
539,0.5296,760.956,259.666,0.00129735,444.516,-1.28953,-0.732553,0.151729,-0.0229322,-0.127211,0.29295,-0.000745827,-0.000439228,0.234838,0.16384479175272393,0.3403757699676855,-0.0007455489401755333,-0.02267125558411265,-0.00043913155350316924,-0.11945214260356796
540,0.5306,761.164,259.742,0.00128451,444.641,-1.29135,-0.733609,0.151983,-0.0229712,-0.127427,0.293444,-0.000747468,-0.00044019,0.23524,0.16414044587631316,0.34103807917495477,-0.0007471887153842616,-0.022709370661896044,-0.00044009313059611976,-0.11964232040082412
541,0.5316,761.371,259.817,0.00127166,444.767,-1.29317,-0.734666,0.152238,-0.0230102,-0.127643,0.293939,-0.00074911,-0.000441153,0.235642,0.1644373395423453,0.3417020573451859,-0.0007488294871532686,-0.022747484253220374,-0.0004410557063229126,-0.11983245712411217
542,0.5326,761.578,259.893,0.0012588,444.892,-1.295,-0.735724,0.152492,-0.0230491,-0.127858,0.294433,-0.000750754,-0.000442116,0.236044,0.1647331441921891,0.3423650219002772,-0.0007504722547272413,-0.02278549863669843,-0.0004420182811227802,-0.120021672804416
543,0.5336,761.785,259.968,0.00124591,445.017,-1.29683,-0.736783,0.152746,-0.0230881,-0.128074,0.294927,-0.0007524,-0.000443081,0.236446,0.1650290239859571,0.3430283140407657,-0.0007521170180962988,-0.02282360925908955,-0.0004429828541098191,-0.12021172759643373
544,0.5346,761.991,260.043,0.00123301,445.141,-1.29867,-0.737844,0.153,-0.023127,-0.128289,0.295421,-0.000754046,-0.000444046,0.236847,0.1653249789427378,0.3436919339285185,-0.0007537617787580775,-0.022861620681362438,-0.00044394742616593597,-0.1204008617423512
545,0.5356,762.197,260.119,0.00122009,445.266,-1.3005,-0.738907,0.153254,-0.0231659,-0.128504,0.295915,-0.000755694,-0.000445012,0.237249,0.16562100908162547,0.3443558817254828,-0.0007554085352017292,-0.022899630625019762,-0.0004449129968463472,-0.12058995522879845
546,0.5366,762.402,260.194,0.00120715,445.39,-1.30234,-0.739971,0.153508,-0.0232048,-0.12872,0.296408,-0.000757344,-0.000445978,0.23765,0.16591711442171841,0.34501881257420064,-0.0007570572874173731,-0.022937639090119033,-0.0004458785665940601,-0.1207798872850685
547,0.5376,762.607,260.268,0.00119419,445.514,-1.30418,-0.741036,0.153762,-0.0232436,-0.128935,0.296902,-0.000758994,-0.000446946,0.238051,0.16621329498212023,0.3456834160111457,-0.0007587060369126375,-0.0229755483742774,-0.00044684613451528854,-0.1209688992897836
548,0.5386,762.812,260.343,0.00118122,445.638,-1.30602,-0.742103,0.154015,-0.0232825,-0.12915,0.297395,-0.000760646,-0.000447914,0.238452,0.166508384272972,0.3463470014956207,-0.0007603567821667934,-0.023013553886233717,-0.0004478137014999328,-0.12115787066128592
549,0.5396,763.016,260.418,0.00116823,445.761,-1.30787,-0.743171,0.154269,-0.0233213,-0.129365,0.297888,-0.0007623,-0.000448883,0.238853,0.16680471503499095,0.3470109142083948,-0.0007620095231698487,-0.02305146022495519,-0.0004487822670991015,-0.12134680140831067
550,0.5406,763.22,260.492,0.00115522,445.885,-1.30971,-0.744241,0.154522,-0.0233602,-0.12958,0.29838,-0.000763955,-0.000449853,0.239253,0.16709995397404587,0.3476738066363507,-0.0007636632606756732,-0.023089462783997816,-0.0004497518313101301,-0.1215356915395912
551,0.5416,763.424,260.567,0.00114219,446.008,-1.31156,-0.745312,0.154775,-0.023399,-0.129795,0.298873,-0.000765611,-0.000450824,0.239654,0.16739526761800194,0.34833837362532516,-0.00076531799467916,-0.02312736617751121,-0.0004507223941299099,-0.12172454106385888
552,0.5426,763.627,260.641,0.00112915,446.131,-1.31342,-0.746384,0.155029,-0.0234378,-0.130009,0.299365,-0.000767268,-0.000451795,0.240054,0.16769182367700197,0.3490019193240055,-0.0007669737251754238,-0.023165268100401537,-0.00045169295600722137,-0.12191247190275423
553,0.5436,763.83,260.715,0.00111609,446.253,-1.31527,-0.747458,0.155282,-0.0234765,-0.130224,0.299858,-0.000768927,-0.000452767,0.240454,0.1679872870829371,0.3496671412339596,-0.0007686314513909442,-0.023203070873037634,-0.00045266451648950934,-0.12210124042795145
554,0.5446,764.033,260.789,0.001103,446.376,-1.31713,-0.748534,0.155535,-0.0235153,-0.130438,0.30035,-0.000770588,-0.00045374,0.240854,0.16828282525057103,0.35033134084715334,-0.0007702911733157292,-0.023240969858642657,-0.0004536370755737762,-0.12228909066180804
555,0.5456,764.235,260.863,0.0010899,446.498,-1.31899,-0.74961,0.155787,-0.023554,-0.130653,0.300841,-0.000772249,-0.000454714,0.241254,0.16857726962096664,0.3509945163317676,-0.0007719508924837193,-0.023278769701677526,-0.00045461063325713535,-0.12247777822267603
556,0.5466,764.437,260.937,0.00107678,446.62,-1.32085,-0.750689,0.15604,-0.0235927,-0.130867,0.301333,-0.000773913,-0.000455689,0.241653,0.16887295707306604,0.3516593691741907,-0.0007736136065740196,-0.023316568081886646,-0.00045558518953670024,-0.12266554788606587
557,0.5476,764.638,261.01,0.00106365,446.742,-1.32272,-0.751768,0.156293,-0.0236315,-0.131082,0.301824,-0.000775577,-0.000456665,0.242053,0.16916871934355515,0.3523231968808207,-0.0007752763178976441,-0.02335446266388541,-0.00045656074440947325,-0.12285415451733095
558,0.5486,764.839,261.084,0.00105049,446.864,-1.32459,-0.752849,0.156546,-0.0236701,-0.131296,0.302316,-0.000777243,-0.000457641,0.242452,0.16946455645136527,0.3529887035949131,-0.000776941024900557,-0.023392160454054567,-0.000457536298330119,-0.1230418436448113
559,0.5496,765.04,261.157,0.00103732,446.985,-1.32646,-0.753932,0.156798,-0.0237088,-0.13151,0.302807,-0.00077891,-0.000458618,0.242851,0.16975929865554895,0.3536531841650088,-0.0007786067283515052,-0.0234299544461265,-0.0004585128508400871,-0.12322949261111582
560,0.5506,765.24,261.23,0.00102412,447.106,-1.32833,-0.755016,0.15705,-0.0237475,-0.131724,0.303297,-0.000780579,-0.000459596,0.24325,0.1700541151441275,0.3543166367578603,-0.0007802744274651996,-0.02346774697559928,-0.00045949040193649093,-0.12341710142483797
561,0.5516,765.44,261.303,0.00101091,447.227,-1.3302,-0.756101,0.157303,-0.0237861,-0.131938,0.303788,-0.000782249,-0.000460575,0.243649,0.17035017628541405,0.3549817695032349,-0.0007819431230134954,-0.023505440393078447,-0.00046046895161644397,-0.12360467009456955
562,0.5526,765.64,261.376,0.000997675,447.348,-1.33208,-0.757188,0.157555,-0.0238247,-0.132152,0.304279,-0.00078392,-0.000461555,0.244048,0.17064514169391853,0.3556472289089758,-0.0007836128149915078,-0.023543132355619667,-0.00046144849987683756,-0.12379219862890045
563,0.5536,765.839,261.449,0.000984424,447.469,-1.33396,-0.758276,0.157807,-0.0238634,-0.132366,0.304769,-0.000785593,-0.000462535,0.244447,0.17094018144307244,0.35631165882317606,-0.0007852845026089517,-0.023580920505192116,-0.0004624280471773323,-0.12397968703641882
564,0.5546,766.038,261.522,0.000971153,447.589,-1.33584,-0.759366,0.158059,-0.023902,-0.132579,0.305259,-0.000787267,-0.000463516,0.244845,0.1712352955516121,0.35697641438781225,-0.0007869571866426783,-0.02361860955425732,-0.0004634085930544929,-0.12416625949240812
565,0.5556,766.237,261.595,0.000957862,447.709,-1.33773,-0.760457,0.158311,-0.0239405,-0.132793,0.305749,-0.000788943,-0.000464499,0.245243,0.1715304840382783,0.3576414957624918,-0.0007886318662989611,-0.023656199514178078,-0.0004643911370408871,-0.12435366785946622
566,0.5566,766.435,261.667,0.000944552,447.829,-1.33962,-0.761549,0.158563,-0.0239791,-0.133006,0.306239,-0.00079062,-0.000465482,0.245641,0.17182574692181674,0.35830690310690105,-0.000790307542358315,-0.023693885657529612,-0.00046537368006149826,-0.12454016066602314
567,0.5576,766.633,261.74,0.000931223,447.949,-1.34151,-0.762643,0.158814,-0.0240176,-0.13322,0.306728,-0.000792299,-0.000466465,0.246039,0.17211991210047972,0.3589712776088474,-0.0007919852140235717,-0.023731472719376145,-0.0004663562221162154,-0.1247274890267911
568,0.5586,766.83,261.812,0.000917873,448.069,-1.3434,-0.763739,0.159066,-0.0240562,-0.133433,0.307218,-0.000793979,-0.00046745,0.246437,0.17241532353860678,0.3596373367060277,-0.0007936638820783548,-0.023769155957238053,-0.00046734076227050725,-0.12491390221791876
569,0.5596,767.028,261.884,0.000904504,448.188,-1.34529,-0.764836,0.159317,-0.0240947,-0.133647,0.307707,-0.00079566,-0.000468435,0.246835,0.17270963671957396,0.36030236194909704,-0.0007953435465175573,-0.02380674012123385,-0.00046832530145490825,-0.12510115060655191
570,0.5606,767.224,261.956,0.000891115,448.307,-1.34719,-0.765934,0.159569,-0.0241332,-0.13386,0.308196,-0.000797343,-0.000469422,0.247232,0.17300519678703186,0.36096771246903403,-0.0007970252065392369,-0.023844322838267318,-0.00046931183873100135,-0.12528748421623892
571,0.5616,767.421,262.028,0.000877706,448.426,-1.34909,-0.767034,0.15982,-0.0241716,-0.134073,0.308684,-0.000799027,-0.000470409,0.24763,0.1732996580447672,0.3616320267922304,-0.0007987078629320132,-0.02388180649657945,-0.00047029837503331784,-0.1254737781410935
572,0.5626,767.617,262.1,0.000864277,448.545,-1.35099,-0.768135,0.160071,-0.0242101,-0.134286,0.309173,-0.000800712,-0.000471397,0.248027,0.17359419322155478,0.3622980276772767,-0.0008003915156907793,-0.023919386323613012,-0.0004712859098907618,-0.1256600323895678
573,0.5636,767.813,262.172,0.000850827,448.663,-1.3529,-0.769237,0.160322,-0.0242486,-0.134499,0.309662,-0.000802399,-0.000472385,0.248424,0.1738888023359506,0.3629643543163965,-0.0008020771640084856,-0.023956964703851114,-0.00047227344377243075,-0.12584624697011193
574,0.5646,768.008,262.243,0.000837358,448.782,-1.35481,-0.770341,0.160573,-0.024287,-0.134712,0.31015,-0.000804088,-0.000473375,0.248821,0.17418348540651518,0.36362964323859703,-0.0008037648078749182,-0.023994444036798623,-0.000473262975731914,-0.12603242189117436
575,0.5656,768.204,262.315,0.000823868,448.9,-1.35672,-0.771447,0.160824,-0.0243254,-0.134925,0.310638,-0.000805777,-0.000474366,0.249217,0.17447824245181387,0.3642952569010218,-0.0008054524488909642,-0.024031921930567468,-0.0004742535062374209,-0.12621855716120156
576,0.5666,768.398,262.386,0.000810357,449.018,-1.35863,-0.772554,0.161075,-0.0243638,-0.135137,0.311126,-0.000807469,-0.000475357,0.249614,0.1747730734904167,0.36496119546218275,-0.0008071430846351424,-0.024069398385212826,-0.00047524403576137964,-0.12640377919285428
577,0.5676,768.593,262.457,0.000796826,449.136,-1.36054,-0.773662,0.161325,-0.0244022,-0.13535,0.311613,-0.000809161,-0.000476349,0.25001,0.17506680347350745,0.36562609345389263,-0.0008088337175187199,-0.024106873400789874,-0.00047623556382758725,-0.1265898353721997
578,0.5686,768.787,262.528,0.000783274,449.253,-1.36246,-0.774772,0.161576,-0.0244406,-0.135563,0.312101,-0.000810855,-0.000477342,0.250407,0.1753617822594682,0.3662926816217824,-0.0008105263459207146,-0.024144346977354014,-0.0004772280904328241,-0.1267758519257991
579,0.5696,768.981,262.599,0.000769701,449.371,-1.36438,-0.775883,0.161826,-0.0244789,-0.135775,0.312588,-0.000812551,-0.000478336,0.250803,0.17565565943814976,0.3669582282051713,-0.0008122209698310234,-0.024181721533137468,-0.00047822161557431464,-0.12696095582348443
580,0.5706,769.174,262.67,0.000756108,449.488,-1.3663,-0.776996,0.162077,-0.0245172,-0.135987,0.313075,-0.000814248,-0.000479331,0.251199,0.1759507860455085,0.36762409898868276,-0.0008139165900533651,-0.024219094657502938,-0.00047921613924906126,-0.1271460204833028
581,0.5716,769.368,262.741,0.000742493,449.605,-1.36823,-0.77811,0.162327,-0.0245556,-0.1362,0.313562,-0.000815946,-0.000480326,0.251594,0.17624481049354457,0.3682902941302406,-0.0008156132065825217,-0.024256563924853536,-0.0004802106619342661,-0.12733191858208948
582,0.5726,769.56,262.812,0.000728858,449.722,-1.37016,-0.779225,0.162577,-0.0245939,-0.136412,0.314049,-0.000817646,-0.000481322,0.25199,0.17653890845688158,0.3689568137878454,-0.0008173118185962336,-0.02429393418281023,-0.0004812061831486192,-0.12751690460613874
583,0.5736,769.753,262.882,0.000715201,449.838,-1.37209,-0.780342,0.162827,-0.0246321,-0.136624,0.314535,-0.000819348,-0.00048232,0.252386,0.17683307995390085,0.36962228849660206,-0.0008190124260842868,-0.02433120544263878,-0.00048220370240714683,-0.1277018514173075
584,0.5746,769.945,262.953,0.000701523,449.955,-1.37402,-0.781461,0.163077,-0.0246704,-0.136836,0.315022,-0.00082105,-0.000483318,0.252781,0.1771273250029879,0.37028945699344296,-0.0008207130306779886,-0.0243685728418801,-0.00048320122067002647,-0.12788675902390823
585,0.5756,770.137,263.023,0.000687823,450.071,-1.37596,-0.78258,0.163327,-0.0247087,-0.137048,0.315508,-0.000822755,-0.000484317,0.253176,0.1774216436225331,0.37095557952420544,-0.0008224166299098945,-0.024405938809977434,-0.0004841997374532836,-0.12807162743425127
586,0.5766,770.328,263.093,0.000674102,450.187,-1.37789,-0.783702,0.163577,-0.0247469,-0.13726,0.315994,-0.00082446,-0.000485317,0.253571,0.17771603583093154,0.37162202586919824,-0.0008241202262372349,-0.024443205791310985,-0.0004851992527538096,-0.12825645665664542
587,0.5776,770.52,263.163,0.00066036,450.303,-1.37983,-0.784825,0.163826,-0.0247851,-0.137472,0.31648,-0.000826167,-0.000486317,0.253966,0.17800932363667,0.37228879618583366,-0.0008258258180082745,-0.024480471349073052,-0.0004861987670548018,-0.1284412466993976
588,0.5786,770.71,263.233,0.000646596,450.418,-1.38178,-0.785949,0.164076,-0.0248233,-0.137684,0.316965,-0.000827876,-0.000487319,0.254361,0.17830386278343835,0.37295451767639576,-0.0008275334052127992,-0.024517735483318037,-0.00048720027938187194,-0.12862599757081294
589,0.5796,770.901,263.303,0.00063281,450.534,-1.38372,-0.787074,0.164326,-0.0248615,-0.137895,0.317451,-0.000829586,-0.000488321,0.254755,0.17859847557419872,0.3736219357414394,-0.0008292419886698488,-0.02455499819410023,-0.0004882017907054115,-0.12880983808946878
590,0.5806,771.091,263.373,0.000619002,450.649,-1.38567,-0.788202,0.164575,-0.0248997,-0.138107,0.317936,-0.000831298,-0.000489324,0.25515,0.1788919831347915,0.37428830396150525,-0.0008309525675432861,-0.024592259481474144,-0.0004892043005362279,-0.1289945108277919
591,0.5816,771.281,263.443,0.000605172,450.764,-1.38762,-0.78933,0.164824,-0.0249379,-0.138318,0.318421,-0.000833011,-0.000490328,0.255544,0.17918556378786632,0.3749549954485436,-0.0008326641426555925,-0.024629519345493955,-0.0004902078088713235,-0.1291782735983531
592,0.5826,771.471,263.512,0.00059132,450.879,-1.38957,-0.79046,0.165073,-0.024976,-0.13853,0.318906,-0.000834725,-0.000491333,0.255938,0.179479217551626,0.37562201035937726,-0.0008343767140015501,-0.024666680252887097,-0.0004912123157078119,-0.12936286823662724
593,0.5836,771.66,263.582,0.000577446,450.994,-1.39153,-0.791591,0.165322,-0.0250141,-0.138741,0.319391,-0.000836441,-0.000492339,0.256332,0.17977294444427683,0.37628934885090426,-0.0008360912807400256,-0.024703839744476652,-0.0004922178210423622,-0.1295465532919745
594,0.5846,771.849,263.651,0.00056355,451.108,-1.39348,-0.792724,0.165571,-0.0250522,-0.138952,0.319875,-0.000838158,-0.000493346,0.256726,0.18006674448403048,0.3769556341237774,-0.0008378068436984965,-0.02474099782031658,-0.00049322432487231,-0.12973019959386367
595,0.5856,772.037,263.72,0.000549631,451.223,-1.39545,-0.793859,0.16582,-0.0250903,-0.139163,0.32036,-0.000839877,-0.000494353,0.25712,0.1803606176891026,0.3776236195797067,-0.0008395244020322767,-0.024778154480460723,-0.0004942308276886243,-0.12991380715047096
596,0.5866,772.226,263.789,0.00053569,451.337,-1.39741,-0.794994,0.166069,-0.0251284,-0.139375,0.320844,-0.000841597,-0.000495362,0.257513,0.18065456407771374,0.3782905507959182,-0.0008412429565723967,-0.024815309724963153,-0.0004952393285009293,-0.1300982458721598
597,0.5876,772.414,263.858,0.000521727,451.451,-1.39937,-0.796132,0.166318,-0.0251665,-0.139586,0.321328,-0.000843319,-0.000496371,0.257907,0.18094858366808908,0.37895780488496733,-0.0008429635064706176,-0.024852463553877713,-0.000496247828295604,-0.13028177577919464
598,0.5886,772.601,263.927,0.000507741,451.565,-1.40134,-0.79727,0.166566,-0.0252045,-0.139796,0.321812,-0.000845042,-0.000497381,0.2583,0.1812414952363719,0.3796253820031621,-0.0008446850525614114,-0.02488951845621501,-0.0004972573265755731,-0.13046439743033655
599,0.5896,772.789,263.996,0.000493732,451.678,-1.40331,-0.79841,0.166815,-0.0252426,-0.140007,0.322295,-0.000846767,-0.000498392,0.258693,0.18153566099080232,0.38029190201429475,-0.0008464085939930976,-0.02492666945783084,-0.000498267823337617,-0.13064785008754276
600,0.5906,772.976,264.065,0.0004797,451.792,-1.40528,-0.799552,0.167063,-0.0252806,-0.140218,0.322779,-0.000848493,-0.000499404,0.259086,0.1818287181723166,0.38096012499178555,-0.00084813313160359,-0.024963721540397388,-0.0004992793185787381,-0.13083126404032175
601,0.5916,773.163,264.133,0.000465645,451.905,-1.40726,-0.800695,0.167311,-0.0253186,-0.140429,0.323262,-0.000850221,-0.000500417,0.259479,0.1821218480410245,0.38162728983949723,-0.0008498596645378775,-0.025000772215011513,-0.0005002918122959388,-0.13101463929683932
602,0.5926,773.349,264.202,0.000451567,452.018,-1.40924,-0.80184,0.16756,-0.0253566,-0.140639,0.323745,-0.00085195,-0.000501431,0.259871,0.18241623303059695,0.38229477700566394,-0.0008515871936369823,-0.02503782148172684,-0.0005013053044862215,-0.13119710706280097
603,0.5936,773.535,264.27,0.000437466,452.131,-1.41122,-0.802985,0.167808,-0.0253945,-0.14085,0.324228,-0.000853681,-0.000502445,0.260264,0.18270950862105861,0.38296258664600313,-0.0008533167180426737,-0.025074771848078825,-0.0005023187956487707,-0.13138040513458416
604,0.5946,773.721,264.338,0.000423342,452.243,-1.4132,-0.804133,0.168056,-0.0254325,-0.14106,0.32471,-0.000855413,-0.000503461,0.260656,0.18300285695288632,0.3836293352862803,-0.0008550472385995267,-0.025111818302861577,-0.0005033342847770017,-0.13156279609778443
605,0.5956,773.906,264.406,0.000409194,452.356,-1.41519,-0.805282,0.168304,-0.0254704,-0.141271,0.325193,-0.000857147,-0.000504477,0.261048,0.18329627804412207,0.3842977896739628,-0.0008567797544455358,-0.025148765864787093,-0.0005043497728735025,-0.13174601701732103
606,0.5966,774.092,264.474,0.000395023,452.468,-1.41718,-0.806432,0.168551,-0.0255083,-0.141481,0.325675,-0.000858882,-0.000505494,0.26144,0.18358858832363234,0.3849651820372244,-0.0008585132664288286,-0.02518571202642661,-0.0005053662594328712,-0.13192833121008718
607,0.5976,774.277,264.542,0.000380829,452.58,-1.41917,-0.807584,0.168799,-0.0255463,-0.141691,0.326157,-0.000860619,-0.000506512,0.261832,0.18388215469426195,0.3856328961611428,-0.0008602487736839581,-0.02522275426556264,-0.0005063837444522212,-0.13211060712089262
608,0.5986,774.461,264.61,0.000366611,452.692,-1.42116,-0.808737,0.169047,-0.0255841,-0.141901,0.326639,-0.000862357,-0.000507531,0.262224,0.1841757938783799,0.3863009322008448,-0.0008619852770626046,-0.025259600149059813,-0.000507402227928222,-0.13229284475777559
609,0.5996,774.646,264.678,0.000352369,452.804,-1.42315,-0.809892,0.169294,-0.025622,-0.142111,0.327121,-0.000864097,-0.000508551,0.262616,0.1844683214251328,0.3869692903115307,-0.0008637237756956573,-0.025296542110159637,-0.0005084217098579868,-0.13247504412877287
610,0.6006,774.83,264.745,0.000338103,452.916,-1.42515,-0.811048,0.169542,-0.0256599,-0.142321,0.327603,-0.000865838,-0.000509571,0.263007,0.18476210599662735,0.38763797064847605,-0.0008654632704383491,-0.025333482671185625,-0.0005094411907479168,-0.1326572052419196
611,0.6016,775.013,264.813,0.000323813,453.027,-1.42715,-0.812205,0.169789,-0.0256977,-0.142531,0.328084,-0.00086758,-0.000510593,0.263398,0.18505477838035977,0.38830558506075263,-0.0008672037612853511,-0.025370324369228148,-0.0005104626695771053,-0.1328393281052488
612,0.6026,775.197,264.88,0.000309499,453.138,-1.42916,-0.813364,0.170036,-0.0257356,-0.142741,0.328565,-0.000869324,-0.000511615,0.263789,0.18534752306309987,0.38897352067280355,-0.0008689462473625564,-0.025407262133959496,-0.00051148414736224,-0.13302141272679224
613,0.6036,775.38,264.948,0.000295161,453.25,-1.43116,-0.814525,0.170283,-0.0257734,-0.142951,0.329046,-0.00087107,-0.000512639,0.26418,0.18564034006270713,0.38964177763916363,-0.0008706907286595289,-0.02544410104319106,-0.0005125076230784176,-0.13320345911457987
614,0.6046,775.562,265.015,0.000280799,453.36,-1.43317,-0.815687,0.17053,-0.0258112,-0.14316,0.329527,-0.000872817,-0.000513663,0.264571,0.18593322939704637,0.3903103561144412,-0.000872436206038163,-0.02548093855993816,-0.0005135310977466556,-0.1333846006616739
615,0.6056,775.745,265.082,0.000266413,453.471,-1.43518,-0.81685,0.170777,-0.0258489,-0.14337,0.330008,-0.000874566,-0.000514688,0.264962,0.18622619108398641,0.3909792562533192,-0.0008741836786190227,-0.02551767723602605,-0.0005145555708522265,-0.13356657078800294
616,0.6066,775.927,265.149,0.000252002,453.582,-1.4372,-0.818015,0.171024,-0.0258867,-0.143579,0.330488,-0.000876316,-0.000515714,0.265352,0.1865192251414003,0.3916470865627726,-0.0008759321472676662,-0.0255545119716456,-0.0005155810423921325,-0.13374763645268717
617,0.6076,776.109,265.216,0.000237566,453.692,-1.43921,-0.819181,0.171271,-0.0259245,-0.143789,0.330969,-0.000878068,-0.000516741,0.265743,0.18681233158716615,0.3923166298236547,-0.0008776826111012159,-0.025591345314938563,-0.0005166075123632652,-0.1339295303495045
618,0.6086,776.291,265.283,0.000223106,453.802,-1.44123,-0.820349,0.171517,-0.0259622,-0.143998,0.331449,-0.000879821,-0.000517769,0.266133,0.18710432333424887,0.39298510222651206,-0.0008794340709883386,-0.025628079828770245,-0.0005176349807626268,-0.13411052016356706
619,0.6096,776.472,265.349,0.000208621,453.912,-1.44325,-0.821518,0.171764,-0.0259999,-0.144207,0.331929,-0.000881576,-0.000518798,0.266523,0.1873975743171179,0.393653895573143,-0.0008811875260429369,-0.025664812957736816,-0.0005186634475871088,-0.13429147215471116
620,0.6106,776.653,265.416,0.000194112,454.022,-1.44527,-0.822689,0.17201,-0.0260376,-0.144416,0.332409,-0.000883333,-0.000519827,0.266913,0.18768971005162216,0.39432301001763803,-0.0008829429762542418,-0.025701544701890566,-0.0005196919133533262,-0.1344723863308409
621,0.6116,776.834,265.482,0.000179577,454.132,-1.4473,-0.823861,0.172257,-0.0260753,-0.144625,0.332888,-0.00088509,-0.000520858,0.267303,0.1879831056428687,0.39499105072241214,-0.0008846984233813471,-0.025738275061283677,-0.0005207223770197222,-0.13465326269985878
622,0.6126,777.014,265.549,0.000165017,454.241,-1.44933,-0.825035,0.172503,-0.026113,-0.144834,0.333368,-0.00088685,-0.000521889,0.267693,0.18827538543579747,0.3956608071554435,-0.0008864568647646287,-0.02577500403596844,-0.0005217528396237459,-0.13483410126966566
623,0.6136,777.194,265.615,0.000150432,454.351,-1.45136,-0.82621,0.172749,-0.0261506,-0.145043,0.333847,-0.000888611,-0.000522922,0.268082,0.1885677371383998,0.396329488818544,-0.000888216302164957,-0.025811634207165146,-0.0005227853001197325,-0.1350149020481608
624,0.6146,777.374,265.681,0.000135822,454.46,-1.45339,-0.827386,0.172995,-0.0261883,-0.145252,0.334326,-0.000890373,-0.000523955,0.268471,0.18886016076836754,0.3969984908568849,-0.0008899767355768917,-0.02584836041626215,-0.0005238177595493498,-0.13519566504324176
625,0.6156,777.554,265.747,0.000121187,454.569,-1.45543,-0.828564,0.173241,-0.0262259,-0.145461,0.334805,-0.000892137,-0.000524989,0.268861,0.18915265634339717,0.3976678134239626,-0.0008917391641034556,-0.025884987829310813,-0.0005248512173874342,-0.13537639026280446
626,0.6166,777.733,265.813,0.000106526,454.678,-1.45747,-0.829744,0.173487,-0.0262635,-0.145669,0.335284,-0.000893903,-0.000526024,0.26925,0.18944522388118945,0.3983374566733475,-0.0008935035877341013,-0.025921613865194537,-0.0005258856736310991,-0.13555621327138856
627,0.6176,777.912,265.879,9.18395e-05,454.786,-1.45951,-0.830925,0.173733,-0.0263011,-0.145878,0.335762,-0.00089567,-0.00052706,0.269639,0.1897378633994493,0.3990060217519613,-0.000895269007353483,-0.025958238523965393,-0.0005269211282772357,-0.1357368631442456
628,0.6186,778.091,265.945,7.71274e-05,454.895,-1.46156,-0.832107,0.173978,-0.0263387,-0.146087,0.336241,-0.000897438,-0.000528097,0.270027,0.19002938488590604,0.3996763061566795,-0.0008970354229563826,-0.025994861805674896,-0.0005279575813226245,-0.13591747526522435
629,0.6196,778.269,266.01,6.23895e-05,455.003,-1.4636,-0.833291,0.174224,-0.0263763,-0.146295,0.336719,-0.000899208,-0.000529135,0.270416,0.1903221681254499,0.40034551135832364,-0.0008988038336386062,-0.02603148371037478,-0.0005289950327641568,-0.13609718573983187
630,0.6206,778.447,266.076,4.76258e-05,455.111,-1.46565,-0.834476,0.174469,-0.0264138,-0.146503,0.337197,-0.00090098,-0.000530173,0.270804,0.19061383278410227,0.40101503651651793,-0.0009005742393897176,-0.02606800684492261,-0.0005300324831288838,-0.1362768588385479
631,0.6216,778.625,266.142,3.28361e-05,455.219,-1.4677,-0.835663,0.174715,-0.0264513,-0.146712,0.337674,-0.000902753,-0.000531213,0.271193,0.19090675981551497,0.4016834801000566,-0.0009023456411012543,-0.026104528609878552,-0.0005310719313545986,-0.1364573581122196
632,0.6226,778.803,266.207,1.80203e-05,455.327,-1.46976,-0.836852,0.17496,-0.0264889,-0.14692,0.338152,-0.000904528,-0.000532253,0.271581,0.19119856771667787,0.4023536449601859,-0.0009041190378638042,-0.026141146391184256,-0.0005321113784992892,-0.13663695630287287
633,0.6236,778.98,266.272,3.17843e-06,455.435,-1.47181,-0.838041,0.175205,-0.0265264,-0.147128,0.33863,-0.000906305,-0.000533295,0.271969,0.19149044711953533,0.4030241302356914,-0.0009058944296668203,-0.026177665413458673,-0.000533152823496641,-0.1368165171409873
634,0.6246,779.157,266.337,-1.16897e-05,455.542,-1.47387,-0.839233,0.17545,-0.0265639,-0.147336,0.339107,-0.000908083,-0.000534337,0.272357,0.19178239804160713,0.4036935323855342,-0.0009076708174072801,-0.026214183066295416,-0.0005341942674087496,-0.13699604063433146
635,0.6256,779.334,266.403,-2.65843e-05,455.65,-1.47593,-0.840425,0.175695,-0.0266013,-0.147544,0.339584,-0.000909862,-0.00053538,0.272745,0.1920744205004179,0.40436325391636885,-0.0009094482010799654,-0.026250601974810883,-0.0005352367097005706,-0.13717552679067213
636,0.6266,779.51,266.468,-4.15053e-05,455.757,-1.478,-0.841619,0.17594,-0.0266388,-0.147752,0.340061,-0.000911643,-0.000536425,0.273132,0.19236651451349607,0.4050332949805764,-0.0009112275797681368,-0.02628711689257779,-0.000536281149832396,-0.13735497561777466
637,0.6276,779.686,266.532,-5.64529e-05,455.864,-1.48007,-0.842815,0.176185,-0.0266762,-0.14796,0.340538,-0.000913426,-0.00053747,0.27352,0.1926586800983745,0.4057036557306104,-0.0009130089534613584,-0.02632353307341917,-0.0005373255888728723,-0.13753438712340282
638,0.6286,779.862,266.597,-7.14271e-05,455.971,-1.48214,-0.844012,0.17643,-0.0267137,-0.148167,0.341014,-0.00091521,-0.000538516,0.273907,0.19295091727259073,0.40637292994536445,-0.0009147913230634908,-0.026360045256321185,-0.0005383710262836239,-0.13771289902864858
639,0.6296,780.038,266.662,-8.64282e-05,456.077,-1.48421,-0.845211,0.176674,-0.0267511,-0.148375,0.341491,-0.000916995,-0.000539563,0.274294,0.19324203281105645,0.40704392985370386,-0.000916574688569316,-0.02639645870969287,-0.0005394174620613201,-0.1378922360939493
640,0.6306,780.213,266.727,-0.000101456,456.184,-1.48628,-0.846411,0.176919,-0.0267885,-0.148583,0.341967,-0.000918783,-0.000540611,0.274681,0.1935344129241967,0.40771384219080176,-0.0009183610481366955,-0.026432870801226693,-0.0005404648962029635,-0.1380715358610195
641,0.6316,780.388,266.791,-0.000116511,456.29,-1.48836,-0.847612,0.177163,-0.0268259,-0.14879,0.342443,-0.000920572,-0.000541659,0.275068,0.19382567085297242,0.40838407348207695,-0.0009201484035900043,-0.02646928153097383,-0.0005415123292469293,-0.138249936587984
642,0.6326,780.563,266.855,-0.000131593,456.396,-1.49044,-0.848815,0.177407,-0.0268632,-0.148997,0.342919,-0.000922362,-0.000542709,0.275455,0.19411699985735376,0.40905462387938796,-0.0009219367549238022,-0.0265055935495494,-0.000542561760108029,-0.1384283003898199
643,0.6336,780.738,266.92,-0.000146702,456.503,-1.49252,-0.85002,0.177652,-0.0269006,-0.149205,0.343394,-0.000924154,-0.00054376,0.275841,0.1944095943636821,0.409724083809877,-0.0009237271012090265,-0.02654200155951658,-0.000543612189323639,-0.13860748866711203
644,0.6346,780.912,266.984,-0.000161839,456.608,-1.49461,-0.851225,0.177896,-0.0269379,-0.149412,0.34387,-0.000925948,-0.000544811,0.276228,0.19470106586278368,0.41039527220393546,-0.0009255194424349078,-0.02657831086568574,-0.0005446626174351321,-0.1387857784633274
645,0.6356,781.086,267.048,-0.000177003,456.714,-1.49669,-0.852433,0.17814,-0.0269752,-0.149619,0.344345,-0.000927743,-0.000545864,0.276614,0.1949926084896083,0.41106536909364433,-0.0009273127795179636,-0.0266146188175429,-0.0005457150433513247,-0.13896403135737445
646,0.6366,781.26,267.112,-0.000192194,456.82,-1.49878,-0.853642,0.178384,-0.0270125,-0.149826,0.34482,-0.00092954,-0.000546917,0.277,0.1952842222615132,0.41173578435498315,-0.000929108111523802,-0.026650925415138693,-0.0005467674681592927,-0.13914224735689118
647,0.6376,781.433,267.176,-0.000207413,456.925,-1.50088,-0.854852,0.178628,-0.0270498,-0.150033,0.345295,-0.000931338,-0.000547972,0.277386,0.19557590719585982,0.4124065181392145,-0.000930904439372493,-0.026687230658523742,-0.0005478218907634114,-0.13932042646951392
648,0.6386,781.606,267.24,-0.00022266,457.03,-1.50297,-0.856064,0.178871,-0.0270871,-0.15024,0.34577,-0.000933138,-0.000549027,0.277772,0.19586646744294867,0.41307757059767214,-0.0009327027621259809,-0.02672353454774845,-0.0005488763122550866,-0.13949856870287747
649,0.6396,781.779,267.304,-0.000237934,457.135,-1.50507,-0.857277,0.179115,-0.0271244,-0.150447,0.346245,-0.000934939,-0.000550083,0.278158,0.19615829446245314,0.41374894188176303,-0.0009345020807079996,-0.026759837082863336,-0.0005499317320845076,-0.13967667406461504
650,0.6406,781.952,267.367,-0.000253236,457.24,-1.50717,-0.858492,0.179359,-0.0271616,-0.150654,0.346719,-0.000936742,-0.00055114,0.278543,0.19645019269643837,0.4144192177230397,-0.0009363033941769405,-0.026796040943527832,-0.0005509881502483438,-0.1398547425623583
651,0.6416,782.124,267.431,-0.000268567,457.345,-1.50927,-0.859708,0.179602,-0.0271988,-0.150861,0.347193,-0.000938547,-0.000552198,0.278928,0.19674096542071884,0.4150898113503745,-0.0009381067025218126,-0.026832243457433846,-0.0005520455667434865,-0.14003277420373728
652,0.6426,782.296,267.494,-0.000283925,457.45,-1.51138,-0.860926,0.179845,-0.0272361,-0.151067,0.347667,-0.000940353,-0.000553257,0.279314,0.19703180881135696,0.4157607229144338,-0.0009399110066717897,-0.026868541937781987,-0.000553103981566827,-0.1402099092067196
653,0.6436,782.468,267.558,-0.000299312,457.554,-1.51349,-0.862145,0.180089,-0.0272733,-0.151274,0.348141,-0.000942161,-0.000554317,0.279699,0.19732392020884815,0.4164319525659552,-0.0009417173056798234,-0.026904741754701145,-0.0005541633947150348,-0.140387867336212
654,0.6446,782.64,267.621,-0.000314727,457.658,-1.5156,-0.863366,0.180332,-0.0273104,-0.15148,0.348615,-0.000943971,-0.000555378,0.280084,0.19761490527471248,0.41710350045574796,-0.0009435255995349223,-0.02694084291910126,-0.0005552238061851122,-0.14056492919754282
655,0.6456,782.811,267.684,-0.000330171,457.762,-1.51771,-0.864588,0.180575,-0.0273476,-0.151687,0.349089,-0.000945782,-0.00055644,0.280469,0.19790596105853964,0.41777536673469284,-0.0009453348891718116,-0.026977040046473943,-0.0005562852159738396,-0.1407428138455027
656,0.6466,782.982,267.747,-0.000345643,457.866,-1.51983,-0.865812,0.180818,-0.0273848,-0.151893,0.349562,-0.000947594,-0.000557503,0.280853,0.19819708757751653,0.4184461331068994,-0.0009471451745848292,-0.0270132358273385,-0.0005573476240779973,-0.1409198025953834
657,0.6476,783.153,267.81,-0.000361144,457.97,-1.52194,-0.867037,0.181061,-0.0274219,-0.152099,0.350035,-0.000949409,-0.000558567,0.281238,0.1984882848488334,0.41911721682664704,-0.000948958453870774,-0.027049332966683215,-0.0005584110304943657,-0.1410967548893367
658,0.6486,783.324,267.873,-0.000376673,458.074,-1.52406,-0.868263,0.181304,-0.027459,-0.152305,0.350508,-0.000951225,-0.000559631,0.281622,0.19877955288968518,0.4197886180440762,-0.0009507727289148615,-0.02708542876684894,-0.0005594744357793058,-0.14127367073487185
659,0.6496,783.494,267.936,-0.000392232,458.177,-1.52619,-0.869492,0.181546,-0.0274961,-0.152511,0.350981,-0.000953042,-0.000560697,0.282006,0.19906969264697927,0.4204603369093991,-0.0009525879997116515,-0.027121523227885302,-0.0005605398388117688,-0.14145055013949626
660,0.6506,783.664,267.999,-0.000407819,458.281,-1.52831,-0.870721,0.181789,-0.0275332,-0.152717,0.351454,-0.000954861,-0.000561764,0.282391,0.19936110198709334,0.4211323735728987,-0.000954405265301328,-0.02715761634984204,-0.0005616062401467836,-0.14162739311071604
661,0.6516,783.834,268.062,-0.000423435,458.384,-1.53044,-0.871952,0.182031,-0.0275703,-0.152923,0.351926,-0.000956682,-0.000562831,0.282775,0.1996513824962991,0.4218033063809119,-0.0009562245256728996,-0.02719370813276878,-0.0005626726403440419,-0.14180419965603586
662,0.6526,784.003,268.124,-0.000439081,458.487,-1.53257,-0.873185,0.182274,-0.0276074,-0.153129,0.352399,-0.000958504,-0.0005639,0.283158,0.19994293320422218,0.4224759784192256,-0.000958044781773526,-0.027229798576715147,-0.0005637410382759445,-0.1419809697829585
663,0.6536,784.172,268.187,-0.000454756,458.59,-1.53471,-0.874419,0.182516,-0.0276444,-0.153335,0.352871,-0.000960328,-0.000564969,0.283542,0.200233354533621,0.4231475455584164,-0.000959867032637951,-0.027265790408314783,-0.0005648094350656496,-0.1421577034989855
664,0.6546,784.341,268.249,-0.00047046,458.693,-1.53684,-0.875654,0.182758,-0.0276815,-0.153541,0.353343,-0.000962154,-0.00056604,0.283926,0.2005238461534864,0.42381942975211606,-0.0009616912782551834,-0.027301878178058403,-0.0005658798295815615,-0.14233440081161663
665,0.6556,784.51,268.311,-0.000486194,458.795,-1.53898,-0.876891,0.183001,-0.0277185,-0.153746,0.353815,-0.000963981,-0.000567111,0.284309,0.20081560889583927,0.4244916311500093,-0.0009635165195779338,-0.027337867342762112,-0.000566950222951057,-0.1425102042389833
666,0.6566,784.679,268.374,-0.000501957,458.898,-1.54112,-0.87813,0.183243,-0.0277555,-0.153952,0.354286,-0.00096581,-0.000568183,0.284692,0.20110624143831135,0.42516272473841465,-0.0009653437556351729,-0.027373855175891415,-0.0005680216146062289,-0.1426868289439408
667,0.6576,784.847,268.436,-0.00051775,459.0,-1.54327,-0.87937,0.183485,-0.0277925,-0.154157,0.354758,-0.00096764,-0.000569257,0.285075,0.20139694432236976,0.4258355603211974,-0.0009671719873832751,-0.027409841677495606,-0.0005690950039745069,-0.14286256013094523
668,0.6586,785.015,268.498,-0.000533573,459.102,-1.54541,-0.880611,0.183727,-0.0278295,-0.154363,0.355229,-0.000969472,-0.000570331,0.285458,0.2016877175650389,0.42650728704933516,-0.0009690022138476584,-0.027445826847623755,-0.0005701683921901513,-0.14303911225806487
669,0.6596,785.183,268.56,-0.000549425,459.204,-1.54756,-0.881854,0.183968,-0.0278664,-0.154568,0.3557,-0.000971306,-0.000571406,0.285841,0.20197735920538795,0.42717933023528176,-0.0009708344350175535,-0.027481713434501454,-0.000571242778681591,-0.14321477123439164
670,0.6606,785.35,268.622,-0.000565308,459.306,-1.54972,-0.883099,0.18421,-0.0279034,-0.154773,0.356171,-0.000973141,-0.000572482,0.286224,0.2022682729254559,0.42785169002812395,-0.0009726676518543309,-0.02751769594542386,-0.0005723181634458285,-0.1433903942043192
671,0.6616,785.517,268.683,-0.000581221,459.408,-1.55187,-0.884345,0.184452,-0.0279403,-0.154978,0.356642,-0.000974978,-0.000573559,0.286606,0.20255925705516353,0.42852436657701887,-0.0009745028633781905,-0.027553579880380763,-0.0005733945464795331,-0.14356598117522779
672,0.6626,785.684,268.745,-0.000597164,459.509,-1.55403,-0.885592,0.184693,-0.0279772,-0.155183,0.357112,-0.000976817,-0.000574637,0.286989,0.2028491087618416,0.4291959308345481,-0.000976340069578141,-0.027589462491244943,-0.0005744719277794852,-0.1437415321544967
673,0.6636,785.851,268.807,-0.000613137,459.611,-1.55619,-0.886841,0.184934,-0.0280141,-0.155388,0.357583,-0.000978657,-0.000575716,0.287371,0.20313903033119907,0.4298692406699902,-0.000978178271421215,-0.027625343778065248,-0.000575550307342465,-0.14391704714950337
674,0.6646,786.017,268.868,-0.000629141,459.712,-1.55835,-0.888092,0.185176,-0.028051,-0.155593,0.358053,-0.000980499,-0.000576796,0.287753,0.20343022520969845,0.43054143716690785,-0.0009800184679220614,-0.027661223740890417,-0.000576629685165253,-0.1440925261676239
675,0.6656,786.184,268.929,-0.000645176,459.813,-1.56051,-0.889344,0.185417,-0.0280879,-0.155798,0.358523,-0.000982343,-0.000577877,0.288135,0.203720286844997,0.4312139496704348,-0.0009818606590694667,-0.02769710237976941,-0.0005777100612446295,-0.14426796921623264
676,0.6666,786.35,268.991,-0.000661241,459.914,-1.56268,-0.890597,0.185658,-0.0281247,-0.156003,0.358993,-0.000984188,-0.000578959,0.288517,0.20401041839357403,0.43188677832912914,-0.0009837038458362368,-0.027732882468044173,-0.0005787914355773749,-0.14444337630270265
677,0.6676,786.515,269.052,-0.000677337,460.015,-1.56485,-0.891852,0.185899,-0.0281616,-0.156208,0.359463,-0.000986035,-0.000580042,0.288898,0.20430061987228054,0.4325599232916184,-0.0009855490272312473,-0.027768758462764942,-0.0005798738081601584,-0.1446187474344054
678,0.6686,786.681,269.113,-0.000693464,460.116,-1.56702,-0.893108,0.18614,-0.0281984,-0.156412,0.359932,-0.000987883,-0.000581126,0.28928,0.20459089129797148,0.4332319514739327,-0.0009873952042307454,-0.027804535914144335,-0.0005809571789897605,-0.1447932274123659
679,0.6696,786.846,269.174,-0.000709621,460.216,-1.5692,-0.894366,0.186381,-0.0282352,-0.156617,0.360402,-0.000989733,-0.000582211,0.289661,0.20488123268750646,0.43390572881639766,-0.0009892433758400543,-0.027840312048937776,-0.0005820415480629615,-0.14496852683194195
680,0.6706,787.011,269.235,-0.00072581,460.316,-1.57138,-0.895625,0.186622,-0.028272,-0.156821,0.360871,-0.000991585,-0.000583297,0.290043,0.20517164405774868,0.43457838832953866,-0.0009910935420480715,-0.027876086867193672,-0.0005831269153764307,-0.14514293546218315
681,0.6716,787.176,269.296,-0.00074203,460.417,-1.57356,-0.896886,0.186862,-0.0283088,-0.157026,0.36134,-0.000993438,-0.000584384,0.290424,0.2054609199640427,0.43525136339398207,-0.0009929447038367067,-0.02791186036896054,-0.0005842132809270595,-0.14531816319895674
682,0.6726,787.34,269.357,-0.000758282,460.517,-1.57574,-0.898149,0.187103,-0.0283456,-0.15723,0.361809,-0.000995293,-0.000585472,0.290805,0.20575147105575442,0.4359246541577564,-0.0009947978602053986,-0.027947632554286672,-0.0005853006447115172,-0.14549250051065377
683,0.6736,787.505,269.418,-0.000774564,460.617,-1.57793,-0.899413,0.187343,-0.0283823,-0.157434,0.362278,-0.00099715,-0.00058656,0.291186,0.20604088613722826,0.4365982607689596,-0.000996653011143267,-0.027983306221556092,-0.0005863880073128103,-0.14566680226116646
684,0.6746,787.669,269.478,-0.000790879,460.717,-1.58011,-0.900678,0.187584,-0.0284191,-0.157638,0.362746,-0.000999008,-0.00058765,0.291566,0.2063315770176315,0.43727074610429373,-0.0009985091576376615,-0.028019075777723335,-0.0005874773675562661,-0.1458410684577488
685,0.6756,787.832,269.539,-0.000807225,460.816,-1.58231,-0.901945,0.187824,-0.0284558,-0.157842,0.363214,-0.00100087,-0.000588741,0.291947,0.2066211313412447,0.4379435462364214,-0.0010003692966817912,-0.028054746823074628,-0.0005885677260236699,-0.14601529910765298
686,0.6766,787.996,269.599,-0.000823602,460.916,-1.5845,-0.903213,0.188064,-0.0284925,-0.158046,0.363683,-0.00100273,-0.000589832,0.292327,0.20691075516623547,0.4386180999300828,-0.0010022274342668114,-0.02809041655932254,-0.0005896580833014697,-0.14618949421812955
687,0.6776,788.159,269.66,-0.000840012,461.015,-1.5867,-0.904483,0.188304,-0.0285292,-0.15825,0.364151,-0.00100459,-0.000590925,0.292707,0.20720044850928598,0.4392915307713756,-0.0010040855683957073,-0.028126084986515143,-0.0005907504382082207,-0.14636365379642813
688,0.6786,788.322,269.72,-0.000856453,461.114,-1.58889,-0.905754,0.188544,-0.0285659,-0.158454,0.364618,-0.00100646,-0.000592019,0.293088,0.20749021138708268,0.4399638368875054,-0.0010059536890090204,-0.02816175210470051,-0.0005918437913291497,-0.14653777784979638
689,0.6796,788.485,269.78,-0.000872927,461.213,-1.59109,-0.907027,0.188784,-0.0286026,-0.158658,0.365086,-0.00100833,-0.000593113,0.293467,0.20778004381631598,0.4406378976810914,-0.0010078218061289057,-0.028197417913926714,-0.0005929371432539243,-0.14671186638548062
690,0.6806,788.648,269.84,-0.000889433,461.312,-1.5933,-0.908302,0.189024,-0.0286392,-0.158862,0.365554,-0.00101019,-0.000594209,0.293847,0.20806994581367988,0.4413122740089581,-0.0010096799298523473,-0.028232985237545027,-0.0005940324927946605,-0.14688591941072582
691,0.6816,788.81,269.9,-0.000905971,461.411,-1.59551,-0.909578,0.189264,-0.0286759,-0.159065,0.366021,-0.00101206,-0.000595306,0.294227,0.20835991739587323,0.4419855240325652,-0.00101154804000414,-0.02826864843256316,-0.0005951288405395827,-0.14705908399228573
692,0.6826,788.972,269.96,-0.000922541,461.51,-1.59771,-0.910855,0.189504,-0.0287125,-0.159269,0.366488,-0.00101394,-0.000596403,0.294607,0.20864995857959823,0.4426590885373587,-0.0010134261365284392,-0.028304213149192292,-0.0005962251870819113,-0.14723306619236354
693,0.6836,789.134,270.02,-0.000939144,461.608,-1.59993,-0.912134,0.189743,-0.0287491,-0.159472,0.366955,-0.00101581,-0.000597502,0.294986,0.20893886044209609,0.4433329676702362,-0.0010152942396749465,-0.028339776564176522,-0.0005973235312268788,-0.1474061603102791
694,0.6846,789.296,270.08,-0.00095578,461.707,-1.60214,-0.913414,0.189983,-0.0287857,-0.159676,0.367422,-0.00101768,-0.000598602,0.295365,0.20922904058882685,0.4440071615781629,-0.001017162339328026,-0.0283753386775637,-0.0005984228735663732,-0.14758007171400944
695,0.6856,789.457,270.14,-0.000972448,461.805,-1.60436,-0.914696,0.190222,-0.0288223,-0.159879,0.367888,-0.00101956,-0.000599702,0.295744,0.20951808086846513,0.4446802257272249,-0.001019040425297435,-0.02841089948940123,-0.0005995222146966128,-0.14775309539695347
696,0.6866,789.618,270.199,-0.000989149,461.903,-1.60658,-0.91598,0.190461,-0.0288588,-0.160082,0.368355,-0.00102144,-0.000600804,0.296123,0.20980719023698602,0.4453550489515983,-0.0010209185077360017,-0.028446361844377988,-0.0006006235534162796,-0.14792608395965479
697,0.6876,789.779,270.259,-0.00100588,462.001,-1.6088,-0.917264,0.190701,-0.0288954,-0.160286,0.368821,-0.00102332,-0.000601906,0.296502,0.2100975788078776,0.4460287413625501,-0.001022796586643837,-0.028481920056815158,-0.0006017248909222506,-0.14809988930977858
698,0.6886,789.94,270.318,-0.00102265,462.099,-1.61102,-0.918551,0.19094,-0.0289319,-0.160489,0.369287,-0.0010252,-0.00060301,0.296881,0.21038682669295805,0.4467027477873249,-0.0010246746620208302,-0.028517379819588462,-0.000602828226008989,-0.14827280748046046
699,0.6896,790.1,270.378,-0.00103945,462.197,-1.61325,-0.919839,0.191179,-0.0289685,-0.160692,0.369753,-0.00102709,-0.000604114,0.29726,0.21067614371654475,0.4473770683722873,-0.0010265627236014652,-0.02855293543281545,-0.0006039315598775907,-0.1484456905523165
700,0.6906,790.261,270.437,-0.00105628,462.294,-1.61548,-0.921128,0.191418,-0.029005,-0.160895,0.370219,-0.00102897,-0.00060522,0.297638,0.21096552989516404,0.4480517032638702,-0.001028440791898233,-0.02858839260357482,-0.0006050368913179671,-0.14861853853247087
701,0.6916,790.421,270.496,-0.00107315,462.392,-1.61771,-0.922419,0.191656,-0.0290415,-0.161097,0.370685,-0.00103086,-0.000606327,0.298016,0.21125377399096568,0.44872665260857425,-0.001030328846360895,-0.028623848480171077,-0.0006061432209297779,-0.14879050021897222
702,0.6926,790.58,270.556,-0.00109005,462.489,-1.61995,-0.923712,0.191895,-0.0290779,-0.1613,0.37115,-0.00103275,-0.000607434,0.298394,0.21154329823971918,0.4494004671517773,-0.0010322168972551893,-0.02865920592857696,-0.0006072495493169017,-0.14896327820986832
703,0.6936,790.74,270.615,-0.00110699,462.586,-1.62219,-0.925006,0.192134,-0.0291144,-0.161503,0.371615,-0.00103464,-0.000608543,0.298772,0.21183289169303765,0.45007459509160186,-0.0010341049445810047,-0.028694659220534047,-0.0006083578752625884,-0.14913602113039204
704,0.6946,790.899,270.674,-0.00112395,462.683,-1.62443,-0.926301,0.192372,-0.0291509,-0.161706,0.372081,-0.00103653,-0.000609652,0.29915,0.21212134224551482,0.4507504873235735,-0.0010359929883384522,-0.02873011121846958,-0.0006094661999791473,-0.149308728987662
705,0.6956,791.058,270.732,-0.00114096,462.78,-1.62667,-0.927598,0.192611,-0.0291873,-0.161908,0.372546,-0.00103842,-0.000610763,0.299528,0.2124110738678613,0.45142524316875465,-0.001037881028527532,-0.028765464798982232,-0.0006105765222453874,-0.14948055126977178
706,0.6966,791.217,270.791,-0.00115799,462.877,-1.62892,-0.928896,0.192849,-0.0292237,-0.162111,0.37301,-0.00104032,-0.000611874,0.299906,0.21269966204407242,0.4520988607487779,-0.0010397790547505004,-0.028800817092647812,-0.0006116868432781697,-0.14965318919452175
707,0.6976,791.376,270.85,-0.00117506,462.973,-1.63117,-0.930197,0.193087,-0.0292601,-0.162313,0.373475,-0.00104221,-0.000612987,0.300283,0.21298831891244374,0.4527742437334006,-0.0010416670877838596,-0.028836168099513504,-0.0006127991618516404,-0.1498249419026969
708,0.6986,791.534,270.909,-0.00119216,463.07,-1.63342,-0.931498,0.193326,-0.0292965,-0.162516,0.373939,-0.00104411,-0.000614101,0.30066,0.21327825776697673,0.4534484873949256,-0.001043565106813249,-0.028871517819625825,-0.0006139124785732308,-0.149997509923244
709,0.6996,791.693,270.967,-0.0012093,463.166,-1.63567,-0.932801,0.193564,-0.0293329,-0.162718,0.374404,-0.00104601,-0.000615215,0.301038,0.21356705235751838,0.4541244981018726,-0.001045463122236412,-0.02890686625303185,-0.0006150257940547021,-0.15016919308565635
710,0.7006,791.85,271.026,-0.00122647,463.262,-1.63793,-0.934106,0.193802,-0.0293693,-0.16292,0.374868,-0.00104792,-0.000616331,0.301415,0.21385591568935247,0.45479936842679924,-0.0010473711235797767,-0.028942213399778205,-0.0006161411070635392,-0.15034084157157224
711,0.7016,792.008,271.084,-0.00124368,463.358,-1.64019,-0.935412,0.19404,-0.0294056,-0.163122,0.375332,-0.00104982,-0.000617447,0.301792,0.21414484777884124,0.45547455196421627,-0.001049269131771502,-0.028977462157662948,-0.0006172564188277052,-0.15051245538799585
712,0.7026,792.166,271.143,-0.00126092,463.454,-1.64245,-0.936719,0.194278,-0.029442,-0.163324,0.375795,-0.00105173,-0.000618565,0.302168,0.21443384864235115,0.45614859271016717,-0.0010511771258453484,-0.02901280673476525,-0.0006183737281104662,-0.15068403454192947
713,0.7036,792.323,271.201,-0.0012782,463.55,-1.64471,-0.938028,0.194515,-0.0294783,-0.163526,0.376259,-0.00105363,-0.000619684,0.302545,0.2147217035739415,0.45682440243291556,-0.001053075126805636,-0.02904805293015844,-0.0006194920355245825,-0.1508555790403744
714,0.7046,792.48,271.259,-0.00129551,463.646,-1.64698,-0.939339,0.194753,-0.0295146,-0.163728,0.376722,-0.00105554,-0.000620803,0.302921,0.2150108417454697,0.45749906830433895,-0.0010549831136100751,-0.029083297846137945,-0.0006206103416872555,-0.15102708889033012
715,0.7056,792.637,271.317,-0.00131286,463.741,-1.64925,-0.940651,0.194991,-0.0295509,-0.16393,0.377186,-0.00105745,-0.000621924,0.303298,0.21530004874007225,0.45817550479316127,-0.0010568910967702072,-0.029118541482750282,-0.0006217306453552007,-0.15119856409879517
716,0.7066,792.794,271.375,-0.00133024,463.837,-1.65152,-0.941965,0.195228,-0.0295872,-0.164132,0.377649,-0.00105937,-0.000623046,0.303674,0.21558810898541436,0.4588507963698172,-0.0010588090656979965,-0.029153783840041858,-0.0006228519471442873,-0.1513700046727663
717,0.7076,792.95,271.433,-0.00134765,463.932,-1.65379,-0.94328,0.195465,-0.0296234,-0.164333,0.378112,-0.00106128,-0.000624168,0.30405,0.21587623750912543,0.45952640067886485,-0.0010607170415506406,-0.02918892783695659,-0.0006239732476753801,-0.15154056216022538
718,0.7086,793.106,271.491,-0.00136511,464.027,-1.65607,-0.944597,0.195703,-0.0296597,-0.164535,0.378574,-0.0010632,-0.000625292,0.304426,0.21616565049243142,0.46020085766354546,-0.0010626350031326393,-0.029224167639269827,-0.0006250965456982005,-0.15171193365756497
719,0.7096,793.262,271.549,-0.00138259,464.122,-1.65835,-0.945915,0.19594,-0.0296959,-0.164736,0.379037,-0.00106511,-0.000626417,0.304802,0.21645391590970076,0.4608770871957,-0.0010645429716776844,-0.029259309088337293,-0.0006262208418321702,-0.1518824224242048
720,0.7106,793.418,271.606,-0.00140012,464.217,-1.66063,-0.947235,0.196177,-0.0297321,-0.164938,0.379499,-0.00106703,-0.000627543,0.305177,0.21674224965397038,0.4615521683417214,-0.0010664609259138924,-0.02929444926530722,-0.0006273461360739585,-0.15205372487274538
721,0.7116,793.573,271.664,-0.00141767,464.312,-1.66292,-0.948556,0.196414,-0.0297684,-0.165139,0.379962,-0.00106896,-0.00062867,0.305553,0.217030651741436,0.46222902367558216,-0.0010683888657838647,-0.029329685237262093,-0.0006284724284201237,-0.1522241449462548
722,0.7126,793.729,271.722,-0.00143527,464.406,-1.66521,-0.949879,0.196651,-0.0298046,-0.165341,0.380424,-0.00107088,-0.000629797,0.305928,0.2173191221882964,0.46290472956056083,-0.0010703068126359794,-0.029364822866661644,-0.000629598719497082,-0.15239537837381723
723,0.7136,793.884,271.779,-0.0014529,464.501,-1.6675,-0.951203,0.196888,-0.0298407,-0.165542,0.380886,-0.0010728,-0.000630926,0.306304,0.2176076610107549,0.4635807476937823,-0.0010722247558057063,-0.02939986216409296,-0.0006307270080432303,-0.152565729781874
724,0.7146,794.039,271.836,-0.00147056,464.595,-1.66979,-0.952529,0.197125,-0.0298769,-0.165743,0.381347,-0.00107473,-0.000632056,0.306679,0.21789626822501829,0.46425561396319237,-0.001074152684551466,-0.0294349972531337,-0.0006318562946836526,-0.1527360469527388
725,0.7156,794.193,271.894,-0.00148827,464.69,-1.67209,-0.953856,0.197361,-0.0299131,-0.165944,0.381809,-0.00107666,-0.000633187,0.307054,0.21818372566296307,0.4649322563491991,-0.0010760806095763131,-0.02947013107030727,-0.000632986579415018,-0.15290632989329245
726,0.7166,794.348,271.951,-0.001506,464.784,-1.67439,-0.955185,0.197598,-0.0299492,-0.166145,0.38227,-0.00107859,-0.000634319,0.307429,0.21847246942072873,0.46560774580773323,-0.0010780085308803589,-0.029505166566181074,-0.000634117862233885,-0.15307657861041468
727,0.7176,794.502,272.008,-0.00152378,464.878,-1.67669,-0.956515,0.197834,-0.0299853,-0.166346,0.382732,-0.00108052,-0.000635452,0.307803,0.21876006285820293,0.46628501302297654,-0.001079936448463381,-0.029540200797296357,-0.0006352501431369229,-0.15324679311098355
728,0.7186,794.656,272.065,-0.00154159,464.971,-1.67899,-0.957847,0.198071,-0.0300214,-0.166547,0.383193,-0.00108245,-0.000636586,0.308178,0.21904894322407142,0.4669611262461042,-0.001081864362325602,-0.02957523376369875,-0.0006363834221206899,-0.1534169734018761
729,0.7196,794.81,272.122,-0.00155944,465.065,-1.6813,-0.959181,0.198307,-0.0300575,-0.166748,0.383654,-0.00108439,-0.000637721,0.308552,0.219336672725418,0.4676375512292825,-0.0010838022616289633,-0.029610265465433883,-0.0006375176991817444,-0.15358711948996762
730,0.7206,794.964,272.179,-0.00157732,465.159,-1.68361,-0.960516,0.198543,-0.0300936,-0.166948,0.384114,-0.00108633,-0.000638857,0.308926,0.21962447013894026,0.46831281980271267,-0.0010857401571728875,-0.029645295902547386,-0.0006386529743168667,-0.15375638513894052
731,0.7216,795.117,272.236,-0.00159524,465.252,-1.68592,-0.961852,0.198779,-0.0301297,-0.167149,0.384575,-0.00108826,-0.000639994,0.309301,0.21991233548066735,0.46898986806027465,-0.0010876680598339572,-0.02968032507508489,-0.0006397892475223932,-0.15392646301212864
732,0.7226,795.27,272.293,-0.0016132,465.346,-1.68823,-0.96319,0.199015,-0.0301657,-0.16735,0.385035,-0.00109021,-0.000641132,0.309675,0.22020026876663223,0.46966575884254413,-0.0010896159369820912,-0.029715255954622544,-0.0006409265187951041,-0.15409650670309982
733,0.7236,795.423,272.35,-0.0016312,465.439,-1.69055,-0.96453,0.199251,-0.0302018,-0.16755,0.385496,-0.00109215,-0.000642271,0.310048,0.2204882700128714,0.4703434309487893,-0.0010915538212473708,-0.029750282601647804,-0.0006420647881315578,-0.1542656704848172
734,0.7246,795.576,272.406,-0.00164923,465.532,-1.69287,-0.965871,0.199487,-0.0302378,-0.167751,0.385956,-0.00109409,-0.000643412,0.310422,0.2207763392354256,0.4710199445132164,-0.001093491701753213,-0.029785210962759878,-0.000643205054885132,-0.15443564600193793
735,0.7256,795.728,272.463,-0.0016673,465.625,-1.69519,-0.967214,0.199723,-0.0302738,-0.167951,0.386416,-0.00109604,-0.000644553,0.310796,0.22106447645033933,0.4716967693454692,-0.0010954395675452089,-0.029820138066473656,-0.0006443453203376359,-0.1546047419625779
736,0.7266,795.881,272.519,-0.0016854,465.718,-1.69752,-0.968558,0.199959,-0.0303098,-0.168151,0.386875,-0.00109798,-0.000645695,0.311169,0.22135268167366018,0.4723724332155945,-0.0010973774405127479,-0.029855063912834212,-0.0006454865838436685,-0.15477380410740738
737,0.7276,796.033,272.576,-0.00170355,465.81,-1.69985,-0.969903,0.200194,-0.0303458,-0.168351,0.387335,-0.00109993,-0.000646839,0.311543,0.22163973328109643,0.47304988033576567,-0.0010993252987275826,-0.029889988501886955,-0.000646629844753055,-0.15494283244318885
738,0.7286,796.185,272.632,-0.00172173,465.903,-1.70218,-0.971251,0.20043,-0.0303818,-0.168551,0.387794,-0.00110189,-0.000647983,0.311916,0.22192807428105055,0.4737261654263947,-0.0011012831421313152,-0.02992491183367718,-0.0006477731043545987,-0.15511182697668358
739,0.7296,796.336,272.688,-0.00173995,465.995,-1.70451,-0.9726,0.200665,-0.0304177,-0.168752,0.388254,-0.00110384,-0.000649128,0.312289,0.22221526112163859,0.47440423540662957,-0.00110323099273002,-0.029959736904228595,-0.000648917361999235,-0.15528163243344117
740,0.7306,796.488,272.745,-0.00175821,466.088,-1.70685,-0.97395,0.200901,-0.0304537,-0.168952,0.388713,-0.00110579,-0.000650275,0.312662,0.22250373796219147,0.4750811422889265,-0.0011051788395304296,-0.029994657725121443,-0.0006500636170336804,-0.1554505592137133
741,0.7316,796.639,272.801,-0.0017765,466.18,-1.70918,-0.975302,0.201136,-0.0304896,-0.169151,0.389172,-0.00110775,-0.000651422,0.313035,0.22279106009964167,0.475758359942799,-0.0011071366714612285,-0.030029480291840382,-0.0006512098707533998,-0.15561860783103776
742,0.7326,796.79,272.857,-0.00179484,466.272,-1.71152,-0.976655,0.201371,-0.0305255,-0.169351,0.38963,-0.00110971,-0.000652571,0.313407,0.2230784497657281,0.47643441207577353,-0.0011090944995546526,-0.030064301608451527,-0.0006523581218534913,-0.15578746722296954
743,0.7336,796.941,272.913,-0.00181321,466.364,-1.71387,-0.97801,0.201606,-0.0305614,-0.169551,0.390089,-0.00111167,-0.000653721,0.31378,0.22336590697632253,0.4771122510230541,-0.0011110523238108128,-0.03009912167499984,-0.0006535073709809103,-0.1559562928463999
744,0.7346,797.092,272.969,-0.00183162,466.456,-1.71622,-0.979366,0.201841,-0.0305973,-0.169751,0.390547,-0.00111363,-0.000654871,0.314152,0.22365343174729935,0.477788923380164,-0.001113010144229598,-0.030133940491530176,-0.0006546566187866087,-0.15612508470808173
745,0.7356,797.242,273.024,-0.00185006,466.548,-1.71856,-0.980724,0.202076,-0.0306332,-0.16995,0.391006,-0.00111559,-0.000656023,0.314524,0.2239410240945372,0.47846738419084,-0.0011149679608110086,-0.030168758058087497,-0.0006558078639590237,-0.15629299910818795
746,0.7366,797.393,273.08,-0.00186855,466.639,-1.72092,-0.982084,0.202311,-0.030669,-0.17015,0.391464,-0.00111756,-0.000657176,0.314897,0.2242286840339185,0.47914467734109145,-0.0011169357623858067,-0.030203477395069123,-0.00065696010714833,-0.15646172363535116
747,0.7376,797.543,273.136,-0.00188708,466.731,-1.72327,-0.983445,0.202546,-0.0307049,-0.170349,0.391922,-0.00111953,-0.00065833,0.315268,0.22451641158132896,0.47982228076265243,-0.0011189035600841502,-0.030238292465296412,-0.0006581133483508639,-0.15662957105097597
748,0.7386,797.692,273.192,-0.00190564,466.822,-1.72563,-0.984808,0.20278,-0.0307407,-0.170549,0.39238,-0.00112149,-0.000659485,0.31564,0.22480298194906445,0.4805001945976599,-0.0011208613651144672,-0.03027300931299093,-0.0006592675875634058,-0.15679822827048162
749,0.7396,797.842,273.247,-0.00192424,466.913,-1.72799,-0.986172,0.203015,-0.0307765,-0.170748,0.392837,-0.00112347,-0.000660641,0.316012,0.2250908444723443,0.481176937810637,-0.0011228391438510288,-0.030307724917844392,-0.0006604228247824029,-0.15696600872834654
750,0.7406,797.992,273.303,-0.00194289,467.004,-1.73035,-0.987537,0.203249,-0.0308123,-0.170947,0.393295,-0.00112544,-0.000661798,0.316384,0.22537754927310427,0.48185547222067315,-0.001124806929919564,-0.030342439279901545,-0.0006615790600043026,-0.15713375580122224
751,0.7416,798.141,273.358,-0.00196157,467.095,-1.73272,-0.988905,0.203484,-0.0308481,-0.171147,0.393752,-0.00112741,-0.000662956,0.316755,0.2256655468355715,0.4825328349370699,-0.0011267747121116445,-0.030377152399206797,-0.0006627362932256631,-0.15730231219386093
752,0.7426,798.29,273.413,-0.00198029,467.186,-1.73508,-0.990273,0.203718,-0.0308839,-0.171346,0.394209,-0.00112939,-0.000664115,0.317126,0.22595238613241997,0.48321050727897186,-0.001128752479139794,-0.030411864275804668,-0.0006638945244431538,-0.1574699923490055
753,0.7436,798.439,273.468,-0.00199905,467.277,-1.73745,-0.991644,0.203952,-0.0309197,-0.171545,0.394666,-0.00113137,-0.000665275,0.317497,0.22623929255751762,0.48388848938791074,-0.001130730242251854,-0.030446574909739565,-0.0006650537536531109,-0.1576376391391192
754,0.7446,798.587,273.524,-0.00201785,467.368,-1.73983,-0.993016,0.204186,-0.0309554,-0.171744,0.395123,-0.00113335,-0.000666436,0.317869,0.22652626612657412,0.48456678140548193,-0.0011327080014480462,-0.030481187349179484,-0.0006662139808522038,-0.15780525257084088
755,0.7456,798.736,273.579,-0.00203669,467.458,-1.7422,-0.994389,0.20442,-0.0309912,-0.171943,0.395579,-0.00113533,-0.000667599,0.318239,0.22681330685530332,0.4852438982287055,-0.0011346857567281488,-0.030515895501392776,-0.0006673762053694965,-0.1579728326508083
756,0.7466,798.884,273.634,-0.00205557,467.549,-1.74458,-0.995764,0.204654,-0.0310269,-0.172141,0.396036,-0.00113731,-0.000668762,0.31861,0.22710041475942222,0.4859228098096764,-0.0011366635080923837,-0.030550505466131805,-0.0006685384285352036,-0.15813953752561627
757,0.7476,799.032,273.689,-0.00207448,467.639,-1.74696,-0.997141,0.204888,-0.0310626,-0.17234,0.396492,-0.0011393,-0.000669926,0.318981,0.22738758985465157,0.4866005451228572,-0.001138651244154243,-0.030585114195317176,-0.0006697016496793884,-0.15830705108949628
758,0.7486,799.18,273.744,-0.00209344,467.729,-1.74935,-0.998519,0.205122,-0.0310983,-0.172539,0.396948,-0.00114128,-0.000671092,0.319351,0.22767483215671613,0.4872785895538143,-0.0011406289876667586,-0.030619721688992962,-0.0006708668681280061,-0.15847453132149358
759,0.7496,799.328,273.798,-0.00211244,467.819,-1.75173,-0.999898,0.205355,-0.031134,-0.172737,0.397404,-0.00114327,-0.000672258,0.319722,0.22796091371981664,0.48795694324353756,-0.0011426167158373746,-0.030654327947203353,-0.0006720320852179329,-0.15864113686979842
760,0.7506,799.475,273.853,-0.00213148,467.909,-1.75412,-1.00128,0.205589,-0.0311696,-0.172936,0.39786,-0.00114526,-0.000673426,0.320092,0.2282482901953633,0.48863560633308123,-0.001144604440052266,-0.03068883603888073,-0.0006731992996027447,-0.15880855062534016
761,0.7516,799.622,273.908,-0.00215056,467.999,-1.75652,-1.00266,0.205822,-0.0312053,-0.173134,0.398316,-0.00114726,-0.000674595,0.320462,0.22853450538975428,0.48931457896356356,-0.0011466021488456546,-0.030723439829752786,-0.0006743675119499359,-0.15897509004436983
762,0.7526,799.769,273.962,-0.00216968,468.089,-1.75891,-1.00405,0.206056,-0.0312409,-0.173333,0.398771,-0.00114925,-0.000675765,0.320832,0.2288220161014567,0.4899923712830514,-0.0011485898651296678,-0.030757945461091007,-0.0006755367222559538,-0.1591424373498418
763,0.7536,799.916,274.017,-0.00218884,468.178,-1.76131,-1.00543,0.206289,-0.0312766,-0.173531,0.399227,-0.00115125,-0.000676936,0.321202,0.22910836498955844,0.4906719627394325,-0.0011505875659522102,-0.0307925467848007,-0.0006767069305173568,-0.1593089106658444
764,0.7546,800.063,274.072,-0.00220804,468.268,-1.76371,-1.00682,0.206522,-0.0313122,-0.173729,0.399682,-0.00115324,-0.000678107,0.321571,0.2293947806047243,0.4913503728090658,-0.0011525752743051232,-0.030827049955975072,-0.0006778771374083004,-0.15947535102339339
765,0.7556,800.21,274.126,-0.00222728,468.357,-1.76611,-1.00821,0.206756,-0.0313478,-0.173928,0.400137,-0.00115524,-0.000679281,0.321941,0.22968249264438168,0.49202909162551545,-0.0011545729671569305,-0.03086155189885842,-0.0006790503408918847,-0.1596425987868353
766,0.7566,800.356,274.18,-0.00224657,468.446,-1.76852,-1.0096,0.206989,-0.0313834,-0.174126,0.400592,-0.00115725,-0.000680455,0.32231,0.22996904204687674,0.49270811932929304,-0.001156580644447569,-0.030896052613494485,-0.0006802235429981263,-0.15980897308067687
767,0.7576,800.502,274.234,-0.00226589,468.535,-1.77092,-1.01099,0.207222,-0.0314189,-0.174324,0.401046,-0.00115925,-0.00068163,0.32268,0.23025565822316163,0.49338596267426493,-0.001158578329288562,-0.030930455192977213,-0.000681397743045653,-0.15997531443566937
768,0.7586,800.648,274.289,-0.00228525,468.624,-1.77334,-1.01238,0.207455,-0.0314545,-0.174522,0.401501,-0.00116125,-0.000682806,0.323049,0.23054234118879613,0.494065607894844,-0.0011605760101341955,-0.03096495345469974,-0.0006825729410309123,-0.1601416228583339
769,0.7596,800.794,274.343,-0.00230466,468.713,-1.77575,-1.01378,0.207687,-0.03149,-0.17472,0.401955,-0.00116326,-0.000683983,0.323418,0.23082786013086865,0.49474406767954604,-0.0011625836753587082,-0.030999353588246015,-0.0006837491369503512,-0.16030789835519055
770,0.7606,800.939,274.397,-0.00232411,468.802,-1.77817,-1.01518,0.20792,-0.0315256,-0.174917,0.402409,-0.00116527,-0.000685162,0.323787,0.23111467643508088,0.4954228355549215,-0.0011645913365478933,-0.031033849397229307,-0.0006849273301156034,-0.16047330140647909
771,0.7616,801.084,274.451,-0.0023436,468.89,-1.78058,-1.01657,0.208153,-0.0315611,-0.175115,0.402863,-0.00116728,-0.000686341,0.324156,0.2314015595752783,0.4961019116608756,-0.0011665989937015286,-0.0310682470850131,-0.0006861055218917445,-0.16063951123748432
772,0.7626,801.23,274.505,-0.00236313,468.979,-1.78301,-1.01797,0.208385,-0.0315966,-0.175313,0.403317,-0.00116929,-0.000687522,0.324524,0.23168727787914145,0.4967812961373763,-0.0011686066468199474,-0.03110264355170067,-0.0006872857109041508,-0.16080568816220087
773,0.7636,801.375,274.559,-0.0023827,469.067,-1.78543,-1.01938,0.208618,-0.0316321,-0.17551,0.403771,-0.00117131,-0.000688704,0.324893,0.23197429445101947,0.49746098912445613,-0.0011706242841966752,-0.031137038797335426,-0.0006884668978344166,-0.16097099315855612
774,0.7646,801.519,274.612,-0.00240232,469.156,-1.78786,-1.02078,0.20885,-0.0316676,-0.175708,0.404225,-0.00117332,-0.000689886,0.325261,0.23226014564478836,0.4981409907622105,-0.0011726319292242326,-0.031171432821960554,-0.000689648083368466,-0.16113710445634954
775,0.7656,801.664,274.666,-0.00242197,469.244,-1.79029,-1.02218,0.209082,-0.031703,-0.175905,0.404678,-0.00117534,-0.00069107,0.325629,0.23254606316372772,0.4988198023702468,-0.001174649558469909,-0.031205728746197203,-0.0006908312661246807,-0.16130234417012546
776,0.7666,801.808,274.72,-0.00244167,469.332,-1.79272,-1.02359,0.209315,-0.0317385,-0.176103,0.405131,-0.00117736,-0.000692255,0.325997,0.23283327985589009,0.4994989215496013,-0.0011766671836399567,-0.031240120332372445,-0.0006920154467879858,-0.16146838986691336
777,0.7676,801.952,274.773,-0.00246141,469.42,-1.79516,-1.025,0.209547,-0.0317739,-0.1763,0.405584,-0.00117938,-0.000693441,0.326365,0.23311933035739174,0.5001783484396349,-0.0011786848047344867,-0.03127441382511431,-0.0006932006253548284,-0.16163356432389142
778,0.7686,802.096,274.827,-0.0024812,469.508,-1.79759,-1.02641,0.209779,-0.0318094,-0.176497,0.406037,-0.00118141,-0.000694628,0.326733,0.23340544723030865,0.5008580831797729,-0.0011807124099463273,-0.03130880297301253,-0.0006943868018216559,-0.16179870624470627
779,0.7696,802.24,274.88,-0.00250102,469.595,-1.80003,-1.02782,0.210011,-0.0318448,-0.176695,0.40649,-0.00118343,-0.000695817,0.327101,0.2336916304900405,0.5015381259095024,-0.0011827300228693938,-0.03134309403443192,-0.0006955749754894436,-0.16196465367153245
780,0.7706,802.384,274.934,-0.00252089,469.683,-1.80248,-1.02923,0.210242,-0.0318802,-0.176892,0.406943,-0.00118546,-0.000697006,0.327468,0.2339766461747279,0.5022184767683744,-0.0011847576198694698,-0.0313773838819692,-0.0006967631477444725,-0.16212973037417
781,0.7716,802.527,274.987,-0.0025408,469.771,-1.80492,-1.03064,0.210474,-0.0319156,-0.177089,0.407395,-0.00118749,-0.000698196,0.327836,0.23426296196798835,0.5028976329976187,-0.001186785212753505,-0.031411672515667344,-0.000697952317888717,-0.16229477455990027
782,0.7726,802.671,275.04,-0.00256076,469.858,-1.80737,-1.03206,0.210706,-0.0319509,-0.177286,0.407847,-0.00118952,-0.000699388,0.328203,0.23454934419421858,0.5035770962748662,-0.0011888128015214994,-0.03144586308016051,-0.0006991434852195999,-0.16245978623512825
783,0.7736,802.814,275.093,-0.00258076,469.945,-1.80982,-1.03348,0.210938,-0.0319863,-0.177483,0.408299,-0.00119155,-0.000700581,0.32857,0.23483579286883316,0.504256866738934,-0.001190840386173564,-0.03148014928973797,-0.0007003356504302616,-0.16262476540625803
784,0.7746,802.957,275.146,-0.0026008,470.032,-1.81228,-1.03489,0.211169,-0.0320216,-0.177679,0.408751,-0.00119359,-0.000701774,0.328937,0.23512107288555906,0.5049369445287017,-0.0011928779547808466,-0.03151433743704368,-0.0007015278142187276,-0.16278887486898574
785,0.7756,803.099,275.199,-0.00262088,470.12,-1.81474,-1.03631,0.211401,-0.032057,-0.177876,0.409203,-0.00119563,-0.000702969,0.329304,0.2354076542166177,0.5056173297831126,-0.0011949155192314542,-0.03154862122267188,-0.00070272197517951,-0.16295378921603998
786,0.7766,803.242,275.252,-0.00264101,470.206,-1.8172,-1.03774,0.211632,-0.0320923,-0.178073,0.409655,-0.00119766,-0.000704165,0.329671,0.23569306634857368,0.5062980226411713,-0.0011969430914949841,-0.03158280695296101,-0.000703917134009302,-0.1631186710781678
787,0.7776,803.384,275.305,-0.00266118,470.293,-1.81966,-1.03916,0.211863,-0.0321276,-0.178269,0.410106,-0.00119971,-0.000705362,0.330038,0.23597854441834776,0.5069775162636769,-0.0011989906356628666,-0.0316169914765152,-0.000705113290704662,-0.1632826837448701
788,0.7786,803.526,275.358,-0.00268139,470.38,-1.82212,-1.04058,0.212094,-0.0321629,-0.178466,0.410558,-0.00120175,-0.00070656,0.330404,0.2362640884411733,0.5076588240649917,-0.0012010281876436713,-0.03165117479337698,-0.0007063104452618152,-0.16344750082115733
789,0.7796,803.668,275.411,-0.00270165,470.467,-1.82459,-1.04201,0.212325,-0.0321982,-0.178662,0.411009,-0.00120379,-0.000707759,0.330771,0.23654969843228724,0.5083389315473545,-0.001203065735467912,-0.03168535690358898,-0.0007075085976773199,-0.16361144904354563
790,0.7806,803.81,275.463,-0.00272196,470.553,-1.82706,-1.04344,0.212556,-0.0322334,-0.178859,0.41146,-0.00120584,-0.00070896,0.331137,0.2368353744069298,0.5090193458273693,-0.00120511326708439,-0.0317194409791427,-0.0007087087472387177,-0.16377620135944815
791,0.7816,803.952,275.516,-0.0027423,470.64,-1.82954,-1.04487,0.212787,-0.0322687,-0.179055,0.41191,-0.00120789,-0.000710161,0.331503,0.23712111638034505,0.5096985573441213,-0.001207160794503559,-0.03175362067960086,-0.000709908895358824,-0.1639400851628443
792,0.7826,804.093,275.569,-0.00276269,470.726,-1.83201,-1.0463,0.213018,-0.0323039,-0.179251,0.412361,-0.00120994,-0.000711364,0.331869,0.23740692436778055,0.5103795849536659,-0.0012092083177251967,-0.031787702352311986,-0.0007111110406153864,-0.1641039368481627
793,0.7836,804.234,275.621,-0.00278313,470.812,-1.83449,-1.04773,0.213249,-0.0323391,-0.179448,0.412812,-0.00121199,-0.000712567,0.332235,0.2376927983844872,0.5110609197759337,-0.0012112558367494142,-0.031821782825369405,-0.0007123131844256614,-0.16426859215352352
794,0.7846,804.375,275.674,-0.00280361,470.898,-1.83697,-1.04917,0.21348,-0.0323743,-0.179644,0.413262,-0.00121404,-0.000713772,0.332601,0.2379787384457197,0.5117410502077029,-0.0012133033515762115,-0.03185586209881519,-0.0007135173253628446,-0.16443237945778133
795,0.7856,804.516,275.726,-0.00282413,470.984,-1.83946,-1.0506,0.21371,-0.0324095,-0.17984,0.413712,-0.0012161,-0.000714978,0.332966,0.2382635063026104,0.5124214867670398,-0.0012153608500521385,-0.031889940172691644,-0.0007147224641341765,-0.16459613466287326
796,0.7866,804.657,275.778,-0.0028447,471.07,-1.84194,-1.05204,0.213941,-0.0324447,-0.180036,0.414162,-0.00121815,-0.000716185,0.333332,0.2385495782125997,0.5131022295917329,-0.0012174083564636673,-0.031924017047041064,-0.0007159286007363264,-0.16475985777509017
797,0.7876,804.798,275.831,-0.00286531,471.156,-1.84443,-1.05348,0.214171,-0.0324799,-0.180232,0.414612,-0.00122021,-0.000717393,0.333697,0.23883447737773666,0.5137832788196328,-0.0012194658464832475,-0.03195809272190564,-0.0007171357351654084,-0.1649235488007217
798,0.7886,804.938,275.883,-0.00288597,471.241,-1.84693,-1.05492,0.214401,-0.0325151,-0.180427,0.415062,-0.00122227,-0.000718602,0.334062,0.2391194420772178,0.5144646345886519,-0.0012215233322644403,-0.03199216719732756,-0.000718343867417981,-0.16508637283284655
799,0.7896,805.078,275.935,-0.00290668,471.327,-1.84942,-1.05636,0.214632,-0.0325502,-0.180623,0.415511,-0.00122434,-0.000719813,0.334427,0.23940571173120984,0.5151447818912251,-0.001223590801571306,-0.03202614367596823,-0.0007195539967709275,-0.16524999986779798
800,0.7906,805.218,275.987,-0.00292742,471.412,-1.85192,-1.0578,0.214862,-0.0325853,-0.180819,0.415961,-0.0012264,-0.000721024,0.334792,0.23969080782970242,0.5158267504744991,-0.0012256482788549627,-0.032060118962055406,-0.0007207641246582686,-0.1654135948349934
801,0.7916,805.358,276.039,-0.00294822,471.498,-1.85442,-1.05925,0.215092,-0.0326205,-0.181015,0.41641,-0.00122847,-0.000722237,0.335157,0.23997596950783917,0.5165075095044276,-0.0012277157396232141,-0.032094189846216925,-0.0007219762496362137,-0.16557715774071735
802,0.7926,805.498,276.091,-0.00296906,471.583,-1.85692,-1.0607,0.215322,-0.0326556,-0.18121,0.416859,-0.00123054,-0.00072345,0.335522,0.24026119678070512,0.5171885742637916,-0.0012297831961118888,-0.03212816274392549,-0.0007231883731438904,-0.16573985433152483
803,0.7936,805.637,276.143,-0.00298994,471.668,-1.85943,-1.06215,0.215552,-0.0326907,-0.181406,0.417308,-0.00123261,-0.000724665,0.335886,0.24054648966338843,0.5178699448898947,-0.0012318506483207647,-0.03216213444920624,-0.0007244024937324012,-0.16590335329665384
804,0.7946,805.776,276.194,-0.00301087,471.753,-1.86194,-1.0636,0.215782,-0.0327258,-0.181601,0.417757,-0.00123468,-0.000725881,0.336251,0.24083184817098147,0.5185516215201014,-0.001233918096250175,-0.032196104962101124,-0.0007256176121201996,-0.16606598628552927
805,0.7956,805.915,276.246,-0.00303185,471.838,-1.86445,-1.06505,0.216011,-0.0327608,-0.181796,0.418205,-0.00123676,-0.000727098,0.336615,0.24111603120192782,0.5192320850589942,-0.001235995527539946,-0.032229977505654483,-0.0007268337283035109,-0.16622858756406367
806,0.7966,806.054,276.298,-0.00305287,471.922,-1.86697,-1.0665,0.216241,-0.0327959,-0.181992,0.418654,-0.00123883,-0.000728316,0.336979,0.24140152071914,0.5199143734274618,-0.0012380629668894416,-0.03226394563729984,-0.0007280508422788934,-0.16639199074686606
807,0.7976,806.193,276.349,-0.00307394,472.007,-1.86948,-1.06796,0.216471,-0.0328309,-0.182187,0.419102,-0.00124091,-0.000729536,0.337343,0.2416870759064933,0.5205954476159844,-0.0012401403895579977,-0.032297815806471064,-0.0007292699533131275,-0.16655452846072827
808,0.7986,806.332,276.401,-0.00309506,472.092,-1.872,-1.06941,0.2167,-0.0328659,-0.182382,0.41955,-0.00124299,-0.000730756,0.337707,0.2419714548070171,0.5212768269941006,-0.0012422178079054547,-0.032331684790207205,-0.0007304890628602179,-0.16671703448282638
809,0.7996,806.47,276.452,-0.00311622,472.176,-1.87453,-1.07087,0.216929,-0.032901,-0.182577,0.419998,-0.00124507,-0.000731978,0.338071,0.24225589883776655,0.5219585116985666,-0.0012442952219319237,-0.03236564935198949,-0.0007317101694563899,-0.16687950881933955
810,0.8006,806.608,276.504,-0.00313743,472.261,-1.87705,-1.07233,0.217159,-0.032936,-0.182772,0.420446,-0.00124716,-0.0007332,0.338434,0.2425416505546869,0.5226405018661984,-0.001246382619173536,-0.03239951596159307,-0.0007329312745605332,-0.16704195147644596
811,0.8016,806.746,276.555,-0.00315868,472.345,-1.87958,-1.07379,0.217388,-0.032971,-0.182967,0.420894,-0.00124924,-0.000734424,0.338798,0.24282622517521424,0.5233227976338748,-0.0012484600245371569,-0.03243338138588603,-0.0007341543767040992,-0.16720436246032244
812,0.8026,806.884,276.606,-0.00317998,472.429,-1.88211,-1.07525,0.217617,-0.0330059,-0.183162,0.421341,-0.00125133,-0.000735649,0.339161,0.24311086497079226,0.524003875133898,-0.0012505474130743988,-0.0324671488716296,-0.0007353784766152005,-0.16736674177714472
813,0.8036,807.022,276.658,-0.00320133,472.513,-1.88464,-1.07672,0.217846,-0.0330409,-0.183357,0.421789,-0.00125342,-0.000736875,0.339525,0.24339556995634726,0.5246867818296361,-0.0012526347972490193,-0.03250101192881216,-0.0007366035742901733,-0.1675290894330873
814,0.8046,807.16,276.709,-0.00322273,472.597,-1.88718,-1.07818,0.218075,-0.0330758,-0.183551,0.422236,-0.00125551,-0.000738103,0.339888,0.2436803401468095,0.5253684691668832,-0.0012547221770610184,-0.032534777054290975,-0.0007378306689875824,-0.16769057312531266
815,0.8056,807.297,276.76,-0.00324417,472.681,-1.88972,-1.07965,0.218304,-0.0331108,-0.183746,0.422683,-0.00125761,-0.000739331,0.340251,0.24396517555711283,0.5260504612864838,-0.0012568195399421667,-0.03256863774452856,-0.0007390577621780858,-0.16785285764029878
816,0.8066,807.434,276.811,-0.00326566,472.765,-1.89226,-1.08112,0.218533,-0.0331457,-0.183941,0.42313,-0.0012597,-0.000740561,0.340614,0.2442500762021942,0.5267327583247061,-0.0012589069110080509,-0.03260240050990759,-0.0007402868523811446,-0.16801511051288975
817,0.8076,807.571,276.862,-0.0032872,472.848,-1.89481,-1.08259,0.218762,-0.0331806,-0.184135,0.423577,-0.0012618,-0.000741791,0.340976,0.24453504209699406,0.5274153604178793,-0.0012610042651013398,-0.03263616209698661,-0.0007415159410724126,-0.168176499926171
818,0.8086,807.708,276.913,-0.00330878,472.932,-1.89735,-1.08406,0.21899,-0.0332155,-0.18433,0.424023,-0.0012639,-0.000743023,0.341339,0.24481882843700564,0.5280967396048895,-0.001263101614790152,-0.032669922505806914,-0.000742747026766466,-0.16833868969466903
819,0.8096,807.845,276.963,-0.00333041,473.015,-1.8999,-1.08554,0.219219,-0.0332504,-0.184524,0.42447,-0.001266,-0.000744256,0.341702,0.2451039245909814,0.528779951533983,-0.0012651989600744873,-0.03270368173640947,-0.0007439791101997439,-0.1685000163396777
820,0.8106,807.981,277.014,-0.00335209,473.098,-1.90246,-1.08701,0.219447,-0.0332853,-0.184718,0.424916,-0.0012681,-0.00074549,0.342064,0.24538784065098906,0.5294619394643709,-0.0012672963009544569,-0.032737439788835365,-0.0007452121913688048,-0.16866131169035292
821,0.8116,808.118,277.065,-0.00337382,473.182,-1.90501,-1.08849,0.219676,-0.0333201,-0.184912,0.425362,-0.00127021,-0.000746725,0.342426,0.24567306712368286,0.5301442316292149,-0.001269403624736043,-0.032771099940240744,-0.0007464462702696517,-0.16882257575276516
822,0.8126,808.254,277.116,-0.0033956,473.265,-1.90757,-1.08997,0.219904,-0.033355,-0.185107,0.425808,-0.00127232,-0.000747962,0.342788,0.24595711296298228,0.5308268281642339,-0.0012715109440711858,-0.03280485563981239,-0.0007476823461510795,-0.16898463954875975
823,0.8136,808.39,277.166,-0.00341742,473.348,-1.91013,-1.09145,0.220132,-0.0333898,-0.185301,0.426254,-0.00127443,-0.000749199,0.34315,0.24624122357211653,0.5315097292052073,-0.0012736182589598855,-0.032838513445186956,-0.0007489184205035082,-0.1691458408916514
824,0.8146,808.526,277.217,-0.00343929,473.431,-1.9127,-1.09293,0.22036,-0.0334246,-0.185495,0.426699,-0.00127654,-0.000750438,0.343512,0.24652539896585468,0.5321914026958061,-0.0012757255694021419,-0.03287217007929022,-0.0007501564918266368,-0.16930701096451595
825,0.8156,808.661,277.267,-0.00346121,473.514,-1.91527,-1.09441,0.220588,-0.0334595,-0.185689,0.427145,-0.00127865,-0.000751678,0.343874,0.24680963915896958,0.5328749124727588,-0.001277832875397955,-0.032905922251575626,-0.000751395560864343,-0.16946814977341895
826,0.8166,808.797,277.318,-0.00348318,473.596,-1.91784,-1.0959,0.220816,-0.0334942,-0.185883,0.42759,-0.00128077,-0.000752918,0.344235,0.2470939441662372,0.533557193605102,-0.0012799501641479472,-0.03293947983384604,-0.0007526346283656116,-0.16962925732442513
827,0.8176,808.932,277.368,-0.0035052,473.679,-1.92041,-1.09739,0.221044,-0.033529,-0.186076,0.428035,-0.00128288,-0.000754161,0.344597,0.24737831400243637,0.5342397784201134,-0.0012820574612298907,-0.03297313295438009,-0.0007538766920688333,-0.1697895034135165
828,0.8186,809.068,277.418,-0.00352727,473.761,-1.92298,-1.09887,0.221272,-0.0335638,-0.18627,0.42848,-0.001285,-0.000755404,0.344958,0.2476627486823504,0.5349226670529621,-0.0012841747410238247,-0.03300678490380604,-0.000755118754228179,-0.16995054862796344
829,0.8196,809.203,277.468,-0.00354939,473.844,-1.92556,-1.10036,0.2215,-0.0335986,-0.186464,0.428925,-0.00128712,-0.000756648,0.345319,0.24794724822076497,0.5356058596388771,-0.001286292016329016,-0.033040435682164415,-0.0007563618140872252,-0.17011156260266902
830,0.8206,809.338,277.519,-0.00357155,473.926,-1.92814,-1.10186,0.221728,-0.0336333,-0.186658,0.42937,-0.00128925,-0.000757894,0.34568,0.2482318126324694,0.5362893563131472,-0.0012884192742614875,-0.033073988596899806,-0.000757606870884775,-0.1702725453436933
831,0.8216,809.472,277.569,-0.00359377,474.008,-1.93073,-1.10335,0.221955,-0.033668,-0.186851,0.429815,-0.00129137,-0.000759141,0.346041,0.24851519341643913,0.5369731572111223,-0.0012905365405683211,-0.03310754034736929,-0.0007588529253721443,-0.17043266729017714
832,0.8226,809.607,277.619,-0.00361603,474.09,-1.93331,-1.10484,0.222183,-0.0337028,-0.187045,0.430259,-0.0012935,-0.000760388,0.346402,0.2487998873344115,0.537655724811718,-0.0012926637894600246,-0.033141187619499246,-0.0007600989783055345,-0.1705935877429342
833,0.8236,809.741,277.669,-0.00363835,474.172,-1.9359,-1.10634,0.22241,-0.0337375,-0.187238,0.430703,-0.00129563,-0.000761637,0.346763,0.24908339708597582,0.5383385955396178,-0.0012947910338205748,-0.03317473703820306,-0.0007613470281625512,-0.17075364773421386
834,0.8246,809.875,277.719,-0.00366071,474.254,-1.93849,-1.10784,0.222637,-0.0337722,-0.187431,0.431147,-0.00129776,-0.000762888,0.347123,0.2493669712015587,0.5390217695294399,-0.0012969182736501939,-0.03320828529276221,-0.0007625970749355337,-0.17091367683689596
835,0.8256,810.009,277.768,-0.00368312,474.336,-1.94109,-1.10934,0.222865,-0.0338068,-0.187625,0.431591,-0.00129989,-0.000764139,0.347484,0.24965185934700718,0.5397052469158627,-0.0012990455089487707,-0.03324173570739564,-0.0007638471201446562,-0.17107450398285207
836,0.8266,810.143,277.818,-0.00370559,474.418,-1.94369,-1.11084,0.223092,-0.0338415,-0.187818,0.432035,-0.00130202,-0.000765392,0.347844,0.2499355625181705,0.5403890278336239,-0.0013011727397163053,-0.03327528163714133,-0.0007650991622598635,-0.17123447116625368
837,0.8276,810.277,277.868,-0.0037281,474.499,-1.94629,-1.11234,0.223319,-0.0338762,-0.188011,0.432479,-0.00130416,-0.000766645,0.348204,0.25021933009726394,0.5410731124175214,-0.0013033099529198289,-0.03330882640286348,-0.0007663512028062147,-0.17139440747896795
838,0.8286,810.411,277.918,-0.00375066,474.581,-1.94889,-1.11385,0.223546,-0.0339108,-0.188204,0.432922,-0.0013063,-0.0007679,0.348564,0.2505031620989093,0.5417559590456833,-0.0013054471615496777,-0.03334227333883455,-0.0007676052402485478,-0.17155431292695245
839,0.8296,810.544,277.967,-0.00377328,474.662,-1.9515,-1.11535,0.223773,-0.0339454,-0.188397,0.433366,-0.00130844,-0.000769156,0.348924,0.25078705853773253,0.5424406506817947,-0.0013075843656059627,-0.033375719117561764,-0.000768860275348171,-0.1717141875161634
840,0.8306,810.677,278.017,-0.00379594,474.744,-1.9541,-1.11686,0.224,-0.0339801,-0.18859,0.433809,-0.00131058,-0.000770413,0.349284,0.2510710194283623,0.5431241032636163,-0.001309721565088684,-0.03340926039816383,-0.0007701163081014206,-0.17187403125255607
841,0.8316,810.81,278.066,-0.00381866,474.825,-1.95672,-1.11837,0.224226,-0.0340147,-0.188783,0.434252,-0.00131273,-0.000771671,0.349644,0.25135379343101194,0.5438078586820052,-0.0013118687468790524,-0.0334427038591788,-0.0007713733385044108,-0.17203384414208434
842,0.8326,810.943,278.116,-0.00384142,474.906,-1.95933,-1.11988,0.224453,-0.0340493,-0.188976,0.434695,-0.00131487,-0.000772931,0.350003,0.2516378829850652,0.5444919170711473,-0.0013140059371931079,-0.03347614616307004,-0.0007726323657808454,-0.17219362619070122
843,0.8336,811.076,278.165,-0.00386424,474.987,-1.96195,-1.12139,0.22468,-0.0340838,-0.189168,0.435137,-0.00131702,-0.000774192,0.350363,0.25192203703476723,0.5451747333897827,-0.001316153109772178,-0.03350949066083153,-0.0007738923906969175,-0.17235254975732206
844,0.8346,811.208,278.214,-0.00388711,475.068,-1.96457,-1.12291,0.224906,-0.0341184,-0.189361,0.43558,-0.00131917,-0.000775454,0.350722,0.25220500338913077,0.5458593974385642,-0.0013183002777347186,-0.03354293065393954,-0.0007751534132490745,-0.17251227030169058
845,0.8356,811.341,278.264,-0.00391003,475.149,-1.96719,-1.12442,0.225132,-0.034153,-0.189554,0.436022,-0.00132133,-0.000776717,0.351081,0.2524880337011173,0.5465428183171199,-0.0013204574278764536,-0.03357636949004361,-0.0007764154334333195,-0.17267196002296858
846,0.8366,811.473,278.313,-0.003933,475.229,-1.96982,-1.12594,0.225359,-0.0341875,-0.189746,0.436464,-0.00132348,-0.000777981,0.35144,0.2527723807569373,0.5472265413344717,-0.0013226045865847302,-0.03360971053016004,-0.0007776784512459889,-0.17283079175830962
847,0.8376,811.605,278.362,-0.00395602,475.31,-1.97244,-1.12746,0.225585,-0.034222,-0.189939,0.436907,-0.00132564,-0.000779246,0.351799,0.2530555393106997,0.5479121145355348,-0.0013247617274291246,-0.03364305042003035,-0.0007789424666831968,-0.1729904200108784
848,0.8386,811.737,278.411,-0.0039791,475.391,-1.97508,-1.12898,0.225811,-0.0342566,-0.190131,0.437349,-0.0013278,-0.000780513,0.352158,0.2533387618655272,0.5485964429155905,-0.001326918863614135,-0.033676485792050515,-0.0007802084789610975,-0.17314919060777123
849,0.8396,811.869,278.46,-0.00400222,475.471,-1.97771,-1.1305,0.226037,-0.0342911,-0.190323,0.43779,-0.00132996,-0.00078178,0.352517,0.2536220484358853,0.5492795245553472,-0.0013290759951396502,-0.03370982337821404,-0.0007814744896349479,-0.17330793072363582
850,0.8406,812.001,278.509,-0.0040254,475.551,-1.98035,-1.13202,0.226263,-0.0343255,-0.190516,0.438232,-0.00133212,-0.000783049,0.352875,0.25390539903624365,0.5499644574642226,-0.0013312331220057816,-0.033743063188561795,-0.0007827424971392771,-0.1734674668972701
851,0.8416,812.132,278.558,-0.00404863,475.632,-1.98299,-1.13355,0.226489,-0.03436,-0.190708,0.438673,-0.00133428,-0.000784319,0.353234,0.2541888136810744,0.5506481425314413,-0.001333390244212529,-0.03377639847784475,-0.0007840115022504923,-0.17362614590995318
852,0.8426,812.264,278.607,-0.00407191,475.712,-1.98563,-1.13508,0.226715,-0.0343945,-0.1909,0.439115,-0.00133645,-0.000785591,0.353592,0.25447229238485325,0.5513336805031712,-0.0013355573484044037,-0.03380973261708009,-0.0007852825041795297,-0.17378479445919037
853,0.8436,812.395,278.656,-0.00409524,475.792,-1.98827,-1.1366,0.226941,-0.034429,-0.191092,0.439556,-0.00133862,-0.000786863,0.35395,0.25475583516205935,0.5520179695309138,-0.0013377244478937067,-0.03384306560630734,-0.0007865535044917493,-0.17394341255083012
854,0.8446,812.526,278.704,-0.00411863,475.872,-1.99092,-1.13813,0.227167,-0.0344634,-0.191284,0.439997,-0.00134079,-0.000788137,0.354308,0.25503944202717443,0.5527025603966678,-0.001339891542680327,-0.03387630083320137,-0.0007878265016116881,-0.17410200019071975
855,0.8456,812.657,278.753,-0.00414207,475.952,-1.99357,-1.13967,0.227392,-0.0344978,-0.191476,0.440438,-0.00134296,-0.000789411,0.354666,0.25532185767219917,0.5533874532335732,-0.0013420586327643758,-0.033909534916823136,-0.0007890994971098131,-0.17426055738470547
856,0.8466,812.787,278.802,-0.00416556,476.031,-1.99623,-1.1412,0.227618,-0.0345322,-0.191668,0.440879,-0.00134514,-0.000790687,0.355024,0.25560559247285797,0.554072648174829,-0.0013442357047035447,-0.033942767857212175,-0.0007903744894054432,-0.17441908413863227
857,0.8476,812.918,278.85,-0.00418911,476.111,-1.99888,-1.14274,0.227843,-0.0345666,-0.191859,0.441319,-0.00134731,-0.000791965,0.355382,0.2558881355160647,0.5547565905963245,-0.0013464027853608007,-0.033975999654407674,-0.0007916514784909179,-0.17457675503551173
858,0.8486,813.048,278.899,-0.00421271,476.191,-2.00154,-1.14427,0.228069,-0.034601,-0.192051,0.44176,-0.00134949,-0.000793243,0.355739,0.25617199830997883,0.5554423894603122,-0.0013485798478297673,-0.034009230308449045,-0.0007929284659442537,-0.17473522108531736
859,0.8496,813.178,278.947,-0.00423636,476.27,-2.0042,-1.14581,0.228294,-0.0346354,-0.192243,0.4422,-0.00135167,-0.000794522,0.356097,0.25645466880883716,0.5561269347005837,-0.0013507569055526414,-0.03404245981937559,-0.0007942064509715019,-0.17489365671256207
860,0.8506,813.309,278.995,-0.00426006,476.35,-2.00687,-1.14735,0.228519,-0.0346698,-0.192434,0.44264,-0.00135385,-0.000795803,0.356454,0.25673740291571345,0.5568117812070346,-0.0013529339585296452,-0.034075688187226616,-0.0007954864327731626,-0.1750512369747358
861,0.8516,813.439,279.044,-0.00428382,476.429,-2.00954,-1.14889,0.228744,-0.0347041,-0.192626,0.44308,-0.00135604,-0.000797085,0.356811,0.2570202006449209,0.5574969291122511,-0.0013551209932094466,-0.034108818822928155,-0.0007967674121385215,-0.1752096119327542
862,0.8526,813.568,279.092,-0.00430763,476.508,-2.01221,-1.15043,0.228969,-0.0347385,-0.192817,0.44352,-0.00135823,-0.000798368,0.357168,0.25730306201077635,0.558182378548878,-0.0013573080230996348,-0.034142044908068714,-0.000798049389063471,-0.1753671318532437
863,0.8536,813.698,279.14,-0.0043315,476.587,-2.01488,-1.15198,0.229194,-0.0347728,-0.193009,0.443959,-0.00136041,-0.000799653,0.357525,0.2575859870275996,0.558866570782268,-0.0013594850617951737,-0.03417517326777375,-0.0007993333627450694,-0.17552544616526766
864,0.8546,813.827,279.188,-0.00435541,476.666,-2.01756,-1.15353,0.229419,-0.0348071,-0.1932,0.444399,-0.0013626,-0.000800938,0.357882,0.2578689757097137,0.5595526229938304,-0.001361672082128118,-0.0342083004911955,-0.0008006173347767653,-0.17568290576717938
865,0.8556,813.957,279.236,-0.00437939,476.745,-2.02024,-1.15507,0.229644,-0.0348414,-0.193391,0.444838,-0.0013648,-0.000802225,0.358239,0.2581520280714449,0.5602374168965885,-0.0013638690840328538,-0.034241426578373035,-0.0008019033035547851,-0.17584033529717913
866,0.8566,814.086,279.285,-0.00440341,476.824,-2.02292,-1.15662,0.229869,-0.0348757,-0.193583,0.445278,-0.00136699,-0.000803513,0.358595,0.2584351441271229,0.5609240724131586,-0.0013660560947648115,-0.03427455152934522,-0.0008031902698745208,-0.1759985587628633
867,0.8576,814.215,279.332,-0.0044275,476.903,-2.0256,-1.15818,0.230093,-0.03491,-0.193774,0.445717,-0.00136919,-0.000804802,0.358951,0.25871706517338566,0.5616094685143846,-0.0013682530870247067,-0.03430767534415102,-0.0008044782337320866,-0.17615592800889823
868,0.8586,814.344,279.38,-0.00445163,476.981,-2.02829,-1.15973,0.230318,-0.0349443,-0.193965,0.446156,-0.00137139,-0.000806092,0.359308,0.25900030837671517,0.5622951655705539,-0.001370450074451246,-0.03434079802282963,-0.0008057671951238188,-0.1763132672002774
869,0.8596,814.473,279.428,-0.00447582,477.06,-2.03098,-1.16128,0.230542,-0.0349785,-0.194156,0.446594,-0.00137359,-0.000807384,0.359664,0.2592823560339499,0.5629796007334325,-0.0013726470570443183,-0.03437382300280678,-0.0008070581532386711,-0.17647057634274077
870,0.8606,814.601,279.476,-0.00450007,477.138,-2.03368,-1.16284,0.230767,-0.0350128,-0.194347,0.447033,-0.00137579,-0.000808676,0.36002,0.259565726442033,0.5636658994096919,-0.0013748440348041457,-0.034406943412659596,-0.0008083491096855244,-0.1766278554420272
871,0.8616,814.73,279.524,-0.00452437,477.217,-2.03637,-1.1644,0.230991,-0.035047,-0.194537,0.447471,-0.001378,-0.00080997,0.360376,0.2598479007671006,0.5643509350854947,-0.0013770509939601272,-0.03443996613050315,-0.0008096420628452838,-0.17678428128856727
872,0.8626,814.858,279.572,-0.00454872,477.295,-2.03907,-1.16596,0.231215,-0.0350812,-0.194728,0.44791,-0.0013802,-0.000811265,0.360732,0.2601301383062966,0.5650378359096964,-0.0013792479620312603,-0.0344729877189891,-0.000810936013521002,-0.17694150047593082
873,0.8636,814.986,279.619,-0.00457313,477.373,-2.04177,-1.16752,0.231439,-0.0351154,-0.194919,0.448348,-0.00138241,-0.000812562,0.361087,0.26041243907378275,0.5657234726253044,-0.0013814549114545827,-0.03450600817815608,-0.0008122319608965256,-0.17709868963729714
874,0.8646,815.114,279.667,-0.0045976,477.451,-2.04448,-1.16908,0.231663,-0.0351496,-0.19511,0.448786,-0.00138462,-0.000813859,0.361443,0.2606948030837237,0.566409409715571,-0.0013836618560005842,-0.03453902750804261,-0.0008135279065912826,-0.17725584877840062
875,0.8656,815.242,279.714,-0.00462212,477.529,-2.04718,-1.17065,0.231887,-0.0351838,-0.1953,0.449224,-0.00138684,-0.000815158,0.361798,0.2609772303502875,0.5670956473120892,-0.0013858787818105123,-0.03457204570868733,-0.00081482584897552,-0.1774121553175413
876,0.8666,815.369,279.762,-0.0046467,477.607,-2.0499,-1.17221,0.232111,-0.035218,-0.195491,0.449661,-0.00138905,-0.000816458,0.362154,0.26125972088764504,0.5677806177651077,-0.0013880857165796678,-0.03460506278012898,-0.0008161247888576195,-0.17756925459241724
877,0.8676,815.497,279.809,-0.00467133,477.685,-2.05261,-1.17378,0.232335,-0.0352522,-0.195681,0.450099,-0.00139127,-0.000817759,0.362509,0.2615422747099705,0.5684674560823,-0.001390302632568674,-0.034638078722406096,-0.0008174247262335843,-0.1777255015901099
878,0.8686,815.624,279.857,-0.00469602,477.763,-2.05532,-1.17535,0.232559,-0.0352863,-0.195872,0.450536,-0.00139349,-0.000819061,0.362864,0.2618248918314414,0.5691530261467566,-0.0013925195436360616,-0.03467099700266174,-0.0008187256610997506,-0.1778825410215631
879,0.8696,815.752,279.904,-0.00472076,477.84,-2.05804,-1.17692,0.232783,-0.0353204,-0.196062,0.450974,-0.00139571,-0.000820365,0.363219,0.26210757226623826,0.5698404657104832,-0.0013947364497818304,-0.03470391416042329,-0.0008200285926319717,-0.17803872850048863
880,0.8706,815.879,279.951,-0.00474557,477.918,-2.06077,-1.17849,0.233006,-0.0353546,-0.196252,0.451411,-0.00139793,-0.00082167,0.363574,0.2623890536388602,0.570526635911268,-0.0013969533510062027,-0.034736926722040984,-0.0008213325216438472,-0.17819488630661218
881,0.8716,816.006,279.998,-0.00477042,477.995,-2.06349,-1.18007,0.23323,-0.0353887,-0.196442,0.451848,-0.00140016,-0.000822976,0.363928,0.26267186046005686,0.5712131060339585,-0.0013991802333173098,-0.03476984163163732,-0.0008226374481313803,-0.178351014445571
882,0.8726,816.132,280.045,-0.00479534,478.073,-2.06622,-1.18164,0.233453,-0.0354228,-0.196632,0.452285,-0.00140239,-0.000824283,0.364283,0.26295346768297767,0.5718998762096492,-0.0014014071106623893,-0.03480275541885447,-0.0008239433720909073,-0.17850711292300137
883,0.8736,816.259,280.093,-0.00482031,478.15,-2.06895,-1.18322,0.233677,-0.0354569,-0.196823,0.452721,-0.00140462,-0.000825591,0.364637,0.26323640094708134,0.5725853739833322,-0.0014036339830415523,-0.03483566808373051,-0.0008252502935182093,-0.1786640030809461
884,0.8746,816.386,280.14,-0.00484533,478.227,-2.07168,-1.1848,0.2339,-0.0354909,-0.197013,0.453158,-0.00140685,-0.000826901,0.364992,0.2635181340765689,0.5732727439711665,-0.0014058608504547987,-0.034868483113157045,-0.0008265592115830334,-0.17882004209618485
885,0.8756,816.512,280.187,-0.00487042,478.304,-2.07442,-1.18638,0.234123,-0.035525,-0.197202,0.453594,-0.00140908,-0.000828212,0.365346,0.26379993003954993,0.5739588404457006,-0.0014080877129021285,-0.03490139353675692,-0.0008278691271051963,-0.178975230442468
886,0.8766,816.638,280.233,-0.00489556,478.381,-2.07716,-1.18796,0.234346,-0.035559,-0.197392,0.45403,-0.00141132,-0.000829524,0.3657,0.2640817888500382,0.5746452361235193,-0.001410324556280429,-0.03493420633155597,-0.0008291800400809235,-0.17913121033012536
887,0.8776,816.764,280.28,-0.00492076,478.458,-2.0799,-1.18955,0.234569,-0.0355931,-0.197582,0.454466,-0.00141356,-0.000830837,0.366054,0.26436371052204977,0.5753319311351035,-0.0014125613946481819,-0.03496711451403245,-0.0008304919505063291,-0.1792871605844193
888,0.8786,816.89,280.327,-0.00494601,478.535,-2.08264,-1.19113,0.234792,-0.0356271,-0.197772,0.454902,-0.0014158,-0.000832152,0.366408,0.2646456950696048,0.5760189256109911,-0.0014147982280053872,-0.03499992507435623,-0.0008318058575454979,-0.17944308121097974
889,0.8796,817.016,280.374,-0.00497133,478.612,-2.08539,-1.19272,0.235015,-0.0356611,-0.197961,0.455338,-0.00141804,-0.000833467,0.366761,0.2649277425067258,0.5767062196817774,-0.001417035056352045,-0.03503273451914002,-0.0008331197628569376,-0.1795981518139972
890,0.8806,817.142,280.421,-0.0049967,478.689,-2.08814,-1.19431,0.235238,-0.0356951,-0.198151,0.455774,-0.00142028,-0.000834784,0.367115,0.2652098528474387,0.5773938134781138,-0.0014192718796882664,-0.03506554284842156,-0.0008344356647715934,-0.17975401335783703
891,0.8816,817.267,280.467,-0.00502213,478.765,-2.09089,-1.1959,0.235461,-0.0357291,-0.198341,0.456209,-0.00142253,-0.000836103,0.367469,0.2654920261057725,0.5780801290497912,-0.0014215186837989169,-0.03509835006223894,-0.0008357535632818047,-0.17990984529079657
892,0.8826,817.392,280.514,-0.00504762,478.842,-2.09365,-1.19749,0.235683,-0.0357631,-0.19853,0.456644,-0.00142478,-0.000837422,0.367822,0.26577299652213027,0.5787667432336858,-0.0014237654828542778,-0.035131156160630006,-0.0008370714600537399,-0.18006482768373921
893,0.8836,817.518,280.56,-0.00507316,478.918,-2.09641,-1.19909,0.235906,-0.035797,-0.198719,0.45708,-0.00142703,-0.000838743,0.368175,0.2660552953755071,0.579455235614168,-0.0014260122768542383,-0.03516386466002397,-0.0008383913534105725,-0.18021978078777734
894,0.8846,817.643,280.607,-0.00509876,478.994,-2.09917,-1.20068,0.236128,-0.035831,-0.198909,0.457515,-0.00142928,-0.000840065,0.368528,0.2663363908515237,0.5801424480995394,-0.0014282590657990202,-0.0351966685309566,-0.0008397122441841098,-0.1803755242333318
895,0.8856,817.768,280.653,-0.00512443,479.071,-2.10194,-1.20228,0.236351,-0.0358649,-0.199098,0.457949,-0.00143153,-0.000841388,0.368881,0.26661881535584553,0.5808283787582009,-0.0014305058496885126,-0.03522937480951882,-0.0008410341323703552,-0.18053041862127095
896,0.8866,817.892,280.7,-0.00515015,479.147,-2.1047,-1.20388,0.236573,-0.0358989,-0.199287,0.458384,-0.00143379,-0.000842712,0.369234,0.26690003594718514,0.5815161886907751,-0.0014327626141951155,-0.03526217645314422,-0.0008423570179654227,-0.18068528373693715
897,0.8876,818.017,280.746,-0.00517593,479.223,-2.10747,-1.20548,0.236795,-0.0359328,-0.199476,0.458819,-0.00143605,-0.000844038,0.369587,0.2671813189764265,0.5822042978857549,-0.001435019373601465,-0.03529488051102547,-0.0008436819001216289,-0.1808401195858622
898,0.8886,818.142,280.792,-0.00520176,479.299,-2.11025,-1.20708,0.237017,-0.0359667,-0.199665,0.459253,-0.00143831,-0.000845365,0.369939,0.26746266445743205,0.5828911235814327,-0.0014372761279075608,-0.035327583460258105,-0.0008450077796759992,-0.18099492617357715
899,0.8896,818.266,280.839,-0.00522766,479.375,-2.11302,-1.20869,0.23724,-0.0360006,-0.199854,0.459688,-0.00144057,-0.000846693,0.370292,0.26774534014877416,0.5835798310031948,-0.001439532877113403,-0.035360285300879424,-0.0008463346566246477,-0.18114970350561166
900,0.8906,818.39,280.885,-0.00525362,479.45,-2.1158,-1.21029,0.237462,-0.0360345,-0.200043,0.460122,-0.00144284,-0.000848022,0.370644,0.2680268108563799,0.584267253809809,-0.0014417996068010197,-0.035392986032927176,-0.0008476625309634667,-0.18130445158749475
901,0.8916,818.514,280.931,-0.00527963,479.526,-2.11858,-1.2119,0.237684,-0.0360683,-0.200232,0.460556,-0.00144511,-0.000849352,0.370996,0.268308344057419,0.584954975022671,-0.0014440663313431967,-0.03542558919900263,-0.0008489914026885703,-0.181459170424754
902,0.8926,818.638,280.977,-0.00530571,479.602,-2.12137,-1.21351,0.237905,-0.0361022,-0.200421,0.46099,-0.00144738,-0.000850684,0.371349,0.26858867117646135,0.5856429947713171,-0.001446333050739823,-0.035458287717285764,-0.0008503222709457248,-0.18161386002291624
903,0.8936,818.762,281.023,-0.00533184,479.677,-2.12416,-1.21512,0.238127,-0.036136,-0.20061,0.461423,-0.00144965,-0.000852017,0.371701,0.26887032912433795,0.5863297268548195,-0.0014485997649911209,-0.03549088867620165,-0.0008516541365783947,-0.18176852038750713
904,0.8946,818.886,281.069,-0.00535804,479.753,-2.12695,-1.21673,0.238349,-0.0361699,-0.200799,0.461857,-0.00145192,-0.000853351,0.372052,0.26915204960722017,0.5870183433752507,-0.001450866474096979,-0.03552358498087005,-0.0008529869995828054,-0.18192315152405114
905,0.8956,819.009,281.115,-0.00538429,479.828,-2.12974,-1.21835,0.23857,-0.0362037,-0.200987,0.46229,-0.0014542,-0.000854687,0.372404,0.26943256320579434,0.5877056711136486,-0.0014531431635259606,-0.03555618373277569,-0.0008543218591005042,-0.18207693551541648
906,0.8966,819.133,281.161,-0.00541061,479.903,-2.13254,-1.21996,0.238792,-0.0362375,-0.201176,0.462723,-0.00145647,-0.000856024,0.372756,0.26971440851849815,0.5883932965293999,-0.001455409862318291,-0.035588781382862145,-0.0008556577159791745,-0.18223150836700952
907,0.8976,819.256,281.206,-0.00543698,479.978,-2.13534,-1.22158,0.239013,-0.0362713,-0.201364,0.463157,-0.00145875,-0.000857362,0.373107,0.2699950464121257,0.5890828088334408,-0.0014576865413883366,-0.0356213779311666,-0.0008569945702147086,-0.18238523439273724
908,0.8986,819.379,281.252,-0.00546342,480.054,-2.13814,-1.2232,0.239235,-0.0363051,-0.201553,0.463589,-0.00146104,-0.000858701,0.373459,0.2702770166099633,0.5897694409087064,-0.00145997320066793,-0.035653973377726356,-0.0008583324218033317,-0.1825397489813485
909,0.8996,819.502,281.298,-0.00548992,480.129,-2.14095,-1.22482,0.239456,-0.0363389,-0.201741,0.464022,-0.00146332,-0.000860042,0.37381,0.27055777885371923,0.590457960130274,-0.0014622498693336317,-0.03568656772257872,-0.000859672269881151,-0.18269341706328768
910,0.9006,819.625,281.344,-0.00551647,480.203,-2.14375,-1.22644,0.239677,-0.0363726,-0.201929,0.464455,-0.00146561,-0.000861383,0.374161,0.27083860315278785,0.5911467775452186,-0.0014645365181632508,-0.03571906453767204,-0.0008610121161622963,-0.18284705625834297
911,0.9016,819.747,281.389,-0.00554309,480.278,-2.14656,-1.22807,0.239899,-0.0364064,-0.202117,0.464887,-0.00146789,-0.000862726,0.374512,0.2711207606410102,0.5918343014475886,-0.0014668131764246084,-0.03575165668248026,-0.0008623539589219797,-0.18300066657194447
912,0.9026,819.87,281.435,-0.00556977,480.353,-2.14938,-1.22969,0.24012,-0.0364401,-0.202306,0.46532,-0.00147019,-0.00086407,0.374863,0.27140170937280317,0.5925237149473668,-0.0014691098001131664,-0.03578415130411261,-0.0008636967990158784,-0.183155064854865
913,0.9036,819.992,281.48,-0.00559651,480.428,-2.15219,-1.23132,0.240341,-0.0364738,-0.202494,0.465752,-0.00147248,-0.000865416,0.375214,0.2716827202011274,0.5932118338151979,-0.0014713964332335738,-0.03581664483069469,-0.0008650416355748813,-0.18330861726829317
914,0.9046,820.115,281.526,-0.00562331,480.502,-2.15501,-1.23295,0.240562,-0.0365076,-0.202682,0.466184,-0.00147477,-0.000866763,0.375565,0.27196379313970764,0.5939002500145989,-0.0014736830611175034,-0.03584923367734483,-0.0008663874694574414,-0.18346214081658108
915,0.9056,820.237,281.571,-0.00565018,480.577,-2.15784,-1.23458,0.240782,-0.0365413,-0.20287,0.466616,-0.00147707,-0.000868111,0.375915,0.2722436559579795,0.5945889636740447,-0.0014759796690053673,-0.03588172501068787,-0.0008677343006593397,-0.1836156355051547
916,0.9066,820.359,281.616,-0.0056771,480.651,-2.16066,-1.23621,0.241003,-0.036575,-0.203058,0.467048,-0.00147937,-0.00086946,0.376266,0.2725248528770614,0.595277974922066,-0.001478276271611012,-0.03591421524909144,-0.0008690821291766904,-0.18376910133943924
917,0.9076,820.481,281.661,-0.00570409,480.726,-2.16349,-1.23785,0.241224,-0.0366086,-0.203245,0.46748,-0.00148167,-0.000870811,0.376616,0.2728061119475298,0.5959672838872487,-0.0014805728689345488,-0.03594660798725802,-0.0008704319541349426,-0.18392172224698922
918,0.9086,820.603,281.707,-0.00573114,480.8,-2.16632,-1.23948,0.241445,-0.0366423,-0.203433,0.467911,-0.00148397,-0.000872162,0.376966,0.2730874331831217,0.5966552940421419,-0.0014828694609758664,-0.03597909603914207,-0.0008717817772695424,-0.18407513054237512
919,0.9096,820.724,281.752,-0.00575825,480.874,-2.16916,-1.24112,0.241665,-0.036676,-0.203621,0.468342,-0.00148628,-0.000873515,0.377316,0.27336754322939716,0.5973436007933239,-0.0014851760328832286,-0.03601158299619722,-0.0008731335968342746,-0.1842285099997124
920,0.9106,820.846,281.797,-0.00578542,480.948,-2.17199,-1.24276,0.241886,-0.0367096,-0.203809,0.468774,-0.00148859,-0.00087487,0.377666,0.27364898855501396,0.5980338023016585,-0.0014874825994625196,-0.036043972462862506,-0.0008744874128210345,-0.18438186062442208
921,0.9116,820.967,281.842,-0.00581266,481.022,-2.17483,-1.2444,0.242106,-0.0367432,-0.203996,0.469205,-0.0014909,-0.000876225,0.378016,0.27392922215706195,0.5987227033179552,-0.0014897891607136282,-0.03607636084125987,-0.0008758412269733729,-0.1845343669566989
922,0.9126,821.088,281.887,-0.00583995,481.096,-2.17768,-1.24604,0.242326,-0.0367769,-0.204184,0.469636,-0.00149321,-0.000877582,0.378366,0.2742095174172847,0.5994119013145847,-0.0014920957166366655,-0.036108844520546524,-0.0008771970375369698,-0.18468766008570536
923,0.9136,821.209,281.932,-0.00586731,481.17,-2.18052,-1.24769,0.242546,-0.0368105,-0.204371,0.470066,-0.00149552,-0.00087894,0.378715,0.2744898743492483,0.6000997963189765,-0.0014944022672315205,-0.03614123071927944,-0.0008785538453820463,-0.18484010923882932
924,0.9146,821.33,281.977,-0.00589474,481.244,-2.18337,-1.24933,0.242767,-0.0368441,-0.204559,0.470497,-0.00149784,-0.0008803,0.379065,0.27477156773745226,0.6007895879706129,-0.0014967187975309937,-0.036173615829854344,-0.0008799126496248366,-0.18499334489368946
925,0.9156,821.451,282.022,-0.00592223,481.317,-2.18622,-1.25098,0.242987,-0.0368777,-0.204746,0.470928,-0.00150016,-0.00088166,0.379414,0.2750520483340888,0.6014796769865287,-0.0014990353224562103,-0.03620599985230788,-0.0008812714520196607,-0.18514573688909874
926,0.9166,821.572,282.067,-0.00594978,481.391,-2.18908,-1.25263,0.243207,-0.0369112,-0.204933,0.471358,-0.00150248,-0.000883022,0.379763,0.2753325906432449,0.6021684613256526,-0.0015013518420071703,-0.03623828641050986,-0.0008826322508012074,-0.18529810038986916
927,0.9176,821.692,282.111,-0.00597739,481.464,-2.19194,-1.25428,0.243427,-0.0369448,-0.20512,0.471788,-0.0015048,-0.000884385,0.380112,0.27561319467849854,0.6028575419057298,-0.0015036683561837627,-0.03627066826006842,-0.000883994046845471,-0.18545043540132877
928,0.9186,821.813,282.156,-0.00600507,481.538,-2.1948,-1.25593,0.243646,-0.0369783,-0.205307,0.472218,-0.00150712,-0.00088575,0.380461,0.2758925845602085,0.6035469188541711,-0.0015059848649859875,-0.03630295265191508,-0.0008853578392628014,-0.18560274192880455
929,0.9196,821.933,282.201,-0.00603281,481.611,-2.19766,-1.25759,0.243866,-0.0370119,-0.205494,0.472648,-0.00150945,-0.000887115,0.38081,0.27617331180767657,0.6042365922984423,-0.001508311353330849,-0.036335332328724435,-0.0008867216298185099,-0.18575501997762256
930,0.9206,822.053,282.245,-0.00606061,481.684,-2.20053,-1.25924,0.244086,-0.0370454,-0.205681,0.473078,-0.00151178,-0.000888482,0.381159,0.27645410082193345,0.6049265623660638,-0.0015106378362550466,-0.036367614554361105,-0.000888087416736516,-0.18590726955310777
931,0.9216,822.173,282.29,-0.00608848,481.758,-2.20339,-1.2609,0.244305,-0.0370789,-0.205868,0.473507,-0.00151411,-0.000889851,0.381508,0.27673367488225553,0.605615223568585,-0.0015129643137585802,-0.03639989569856128,-0.0008894552000086042,-0.18605949066058425
932,0.9226,822.293,282.334,-0.00611642,481.831,-2.20627,-1.26256,0.244525,-0.0371124,-0.206055,0.473937,-0.00151644,-0.00089122,0.381856,0.27701458718995053,0.6063057865751253,-0.001515290785841339,-0.036432175761361374,-0.0008908229814081903,-0.18621168330537485
933,0.9236,822.413,282.379,-0.00614441,481.904,-2.20914,-1.26422,0.244744,-0.0371459,-0.206242,0.474366,-0.00151878,-0.000892591,0.382205,0.27729428401022904,0.6069950395917674,-0.0015176272373272903,-0.03646445474279736,-0.0008921927591508672,-0.18636384749280188
934,0.9246,822.533,282.423,-0.00617248,481.977,-2.21202,-1.26589,0.244964,-0.0371794,-0.206429,0.474795,-0.00152112,-0.000893963,0.382553,0.2775753196655,0.607684588361388,-0.0015199636833459484,-0.03649673264290565,-0.000893563534122066,-0.18651598322818608
935,0.9256,822.652,282.468,-0.0062006,482.049,-2.2149,-1.26755,0.245183,-0.0372129,-0.206616,0.475224,-0.00152346,-0.000895336,0.382901,0.27785513929963823,0.6083744330108922,-0.0015223001238972023,-0.03652900946172233,-0.000894935306317679,-0.18666809051684763
936,0.9266,822.771,282.512,-0.00622879,482.122,-2.21779,-1.26922,0.245402,-0.0372463,-0.206802,0.475653,-0.0015258,-0.000896711,0.383249,0.27813502022098713,0.6090645736672402,-0.0015246365589813848,-0.03656118885540749,-0.000896309074837176,-0.18681935618386847
937,0.9276,822.891,282.556,-0.00625705,482.195,-2.22067,-1.27088,0.245622,-0.0372798,-0.206989,0.476082,-0.00152814,-0.000898087,0.383597,0.27841624085857153,0.6097550104574458,-0.001526972988598163,-0.036593463514977276,-0.000897683840569985,-0.18697140674709123
938,0.9286,823.01,282.6,-0.00628537,482.268,-2.22356,-1.27255,0.245841,-0.0373132,-0.207175,0.476511,-0.00153049,-0.000899464,0.383945,0.2786962446746184,0.6104457435085779,-0.0015293193974545982,-0.036625640755933,-0.000899059603512109,-0.18712261600253965
939,0.9296,823.129,282.645,-0.00631376,482.34,-2.22645,-1.27423,0.24606,-0.0373466,-0.207362,0.476939,-0.00153284,-0.000900843,0.384293,0.2789763098182161,0.6111351618117924,-0.0015316658007969997,-0.036657816922186726,-0.0009004373627590212,-0.18727460986147837
940,0.9306,823.248,282.689,-0.00634221,482.413,-2.22935,-1.2759,0.246279,-0.0373801,-0.207548,0.477367,-0.00153519,-0.000902223,0.38464,0.27925643630279673,0.6118248752491946,-0.0015340121986253674,-0.0366900883447705,-0.0009018161192040353,-0.187425762726392
941,0.9316,823.366,282.733,-0.00637073,482.485,-2.23225,-1.27757,0.246497,-0.0374135,-0.207734,0.477796,-0.00153754,-0.000903604,0.384988,0.2795353446058111,0.6125164964628196,-0.0015363585909397015,-0.03672226235851073,-0.0009031958728432654,-0.1875768874794871
942,0.9326,823.485,282.777,-0.00639932,482.557,-2.23515,-1.27925,0.246716,-0.0374469,-0.207921,0.478224,-0.0015399,-0.000904986,0.385335,0.27981559353241714,0.6132068012379899,-0.0015387149623529162,-0.03675443529765687,-0.0009045766236724928,-0.18772879639760198
943,0.9336,823.604,282.821,-0.00642797,482.629,-2.23806,-1.28093,0.246935,-0.0374802,-0.208107,0.478652,-0.00154226,-0.00090637,0.385682,0.28009590384025906,0.6138974015268395,-0.0015410713282050237,-0.03678651084090079,-0.0009059593707816394,-0.18787986479167584
944,0.9346,823.722,282.865,-0.00645669,482.702,-2.24096,-1.28261,0.247153,-0.0375136,-0.208293,0.479079,-0.00154462,-0.000907755,0.386029,0.2803749951671457,0.6145866828683846,-0.0015434276884962461,-0.03681868163418345,-0.0009073431150695699,-0.18803090508964138
945,0.9356,823.84,282.908,-0.00648547,482.774,-2.24387,-1.28429,0.247372,-0.037547,-0.208479,0.479507,-0.00154698,-0.000909141,0.386376,0.28065542799736143,0.615277873872976,-0.0015457840432263614,-0.0368508513529795,-0.0009087278565323986,-0.18818191729672407
946,0.9366,823.958,282.952,-0.00651432,482.846,-2.24679,-1.28597,0.24759,-0.0375803,-0.208665,0.479934,-0.00154934,-0.000910528,0.386723,0.2809346413138105,0.6159677448020813,-0.0015481403923954806,-0.03688292368562218,-0.0009101135951659067,-0.1883329014181483
947,0.9376,824.076,282.996,-0.00654324,482.917,-2.2497,-1.28766,0.247809,-0.0376136,-0.208851,0.480362,-0.00155171,-0.000911917,0.38707,0.2812151967199539,0.6166595270276927,-0.0015505067204987233,-0.03691499495027395,-0.000911501330054354,-0.18848385745913754
948,0.9386,824.194,283.04,-0.00657222,482.989,-2.25262,-1.28934,0.248027,-0.037647,-0.209037,0.480789,-0.00155408,-0.000913307,0.387416,0.28149453207928676,0.6173499880486704,-0.0015528730429936743,-0.03694716145225907,-0.0009128900621022673,-0.1886347854249142
949,0.9396,824.312,283.083,-0.00660127,483.061,-2.25554,-1.29103,0.248245,-0.0376803,-0.209222,0.481216,-0.00155645,-0.000914699,0.387763,0.28177392834036596,0.6180407439594586,-0.0015552393598804448,-0.0369792305778287,-0.000914280790391353,-0.18878487410597955
950,0.9406,824.429,283.127,-0.00663039,483.133,-2.25847,-1.29272,0.248464,-0.0377136,-0.209408,0.481643,-0.00155882,-0.000916091,0.388109,0.28205466757049624,0.6187317948860023,-0.0015576056711591457,-0.037011298635514445,-0.0009156715167445428,-0.18893574608786656
951,0.9416,824.547,283.171,-0.00665957,483.204,-2.2614,-1.29441,0.248682,-0.0377469,-0.209594,0.482069,-0.00156119,-0.000917485,0.388456,0.2823341859544235,0.6194215215319687,-0.001559971976829555,-0.03704336562535149,-0.0009170642393278028,-0.18908659001017447
952,0.9426,824.664,283.214,-0.00668882,483.276,-2.26433,-1.29611,0.2489,-0.0377801,-0.209779,0.482496,-0.00156357,-0.000918881,0.388802,0.2826137652800007,0.6201131621764315,-0.0015623482612685535,-0.03707533525491391,-0.0009184589581325842,-0.18923659511512259
953,0.9436,824.781,283.258,-0.00671814,483.347,-2.26726,-1.2978,0.249118,-0.0378134,-0.209965,0.482923,-0.00156595,-0.000920277,0.389148,0.2828934055605148,0.6208050982145117,-0.001564724540051854,-0.03710740011236713,-0.0009198536749903674,-0.18938738308471526
954,0.9446,824.898,283.301,-0.00674753,483.419,-2.2702,-1.2995,0.249336,-0.0378467,-0.21015,0.483349,-0.00156833,-0.000921675,0.389494,0.28317310680925556,0.6214957082758501,-0.0015671008131796782,-0.03713946390207834,-0.0009212503880585698,-0.18953733254809157
955,0.9456,825.015,283.344,-0.00677699,483.49,-2.27314,-1.3012,0.249553,-0.0378799,-0.210336,0.483775,-0.00157072,-0.000923074,0.389839,0.28345158558728767,0.622186612599748,-0.0015694870649571868,-0.03717143034123094,-0.0009226480982515994,-0.18968806458572363
956,0.9466,825.132,283.388,-0.00680651,483.561,-2.27608,-1.3029,0.249771,-0.0379131,-0.210521,0.484201,-0.0015731,-0.000924475,0.390185,0.28373140853253864,0.622877811311588,-0.0015718633267501891,-0.03720339571911535,-0.0009240478046411704,-0.1898379584281673
957,0.9476,825.249,283.431,-0.0068361,483.632,-2.27903,-1.3046,0.249989,-0.0379463,-0.210707,0.484627,-0.00157549,-0.000925877,0.390531,0.2840112924858411,0.6235693045368063,-0.0015742495671453582,-0.037235360035766885,-0.0009254485081442443,-0.18998863455458548
958,0.9486,825.366,283.474,-0.00686577,483.703,-2.28198,-1.3063,0.250206,-0.0379796,-0.210892,0.485053,-0.00157788,-0.00092728,0.390876,0.28428995316990124,0.6242610924008922,-0.0015766358018373117,-0.03726741956448365,-0.0009268502087567132,-0.19013847279672813
959,0.9496,825.482,283.517,-0.0068955,483.774,-2.28493,-1.30801,0.250424,-0.0380128,-0.211077,0.485478,-0.00158027,-0.000928684,0.391222,0.2845699588992079,0.624951550077026,-0.0015790220308261604,-0.03729938175557879,-0.0009282529064742473,-0.19028828332135994
960,0.9506,825.599,283.56,-0.00692529,483.845,-2.28789,-1.30972,0.250641,-0.0380459,-0.211262,0.485904,-0.00158267,-0.00093009,0.391567,0.2848487408270344,0.625643926903152,-0.001581418238297827,-0.03733124661867626,-0.0009296576003632318,-0.19043806613360814
961,0.9516,825.715,283.604,-0.00695516,483.916,-2.29084,-1.31143,0.250858,-0.0380791,-0.211447,0.486329,-0.00158507,-0.000931497,0.391912,0.2851275832571032,0.626334972408854,-0.0015838144400186493,-0.03736320669074844,-0.0009310632913460681,-0.1905878212385992
962,0.9526,825.831,283.647,-0.0069851,483.986,-2.2938,-1.31314,0.251076,-0.0381123,-0.211632,0.486754,-0.00158747,-0.000932905,0.392257,0.2854077716096741,0.6270263116713151,-0.0015862106359885164,-0.03739516570176371,-0.0009324699794186486,-0.1907375486414582
963,0.9536,825.947,283.69,-0.00701511,484.057,-2.29677,-1.31485,0.251293,-0.0381454,-0.211817,0.487179,-0.00158987,-0.000934315,0.392602,0.2856867353625858,0.6277179448154078,-0.0015886068262076503,-0.03742702739446513,-0.0009338786636428065,-0.19088724834730975
964,0.9546,826.063,283.732,-0.00704518,484.128,-2.29974,-1.31656,0.25151,-0.0381786,-0.212002,0.487604,-0.00159227,-0.000935726,0.392946,0.2859657596572005,0.6284098719660589,-0.0015910030106758288,-0.03745898428666827,-0.0009352883449454952,-0.1910369203612774
965,0.9556,826.178,283.775,-0.00707533,484.198,-2.30271,-1.31828,0.251727,-0.0382117,-0.212187,0.488029,-0.00159468,-0.000937138,0.393291,0.2862448445066572,0.6291020932482476,-0.0015934091734590705,-0.037490843867009405,-0.0009366990233223849,-0.1911865646884835
966,0.9566,826.294,283.818,-0.00710554,484.269,-2.30568,-1.32,0.251944,-0.0382448,-0.212371,0.488454,-0.00159709,-0.000938552,0.393636,0.28652398992409767,0.6297946087870063,-0.0015958153304436173,-0.037522702392815854,-0.000938111697831201,-0.1913353726698267
967,0.9576,826.41,283.861,-0.00713583,484.339,-2.30865,-1.32172,0.252161,-0.0382779,-0.212556,0.488878,-0.0015995,-0.000939967,0.39398,0.28680319592266645,0.6304857882208172,-0.0015982214816292473,-0.037554559864122594,-0.0009395253694030048,-0.19148496178846264
968,0.9586,826.525,283.904,-0.00716618,484.409,-2.31163,-1.32344,0.252378,-0.038311,-0.212741,0.489302,-0.00160191,-0.000941383,0.394324,0.28708246251551106,0.6311772607768456,-0.0016006276270160713,-0.037586416280964485,-0.0009409400380334665,-0.19163452323567132
969,0.9596,826.64,283.946,-0.00719661,484.479,-2.31461,-1.32516,0.252594,-0.0383441,-0.212925,0.489727,-0.00160432,-0.000942801,0.394668,0.28736050235463595,0.631870658449244,-0.0016030337666040895,-0.0376182716433765,-0.0009423567027760926,-0.19178324880022446
970,0.9606,826.755,283.989,-0.00722711,484.55,-2.3176,-1.32688,0.252811,-0.0383772,-0.21311,0.490151,-0.00160674,-0.00094422,0.395013,0.2876398898960988,0.63256271831475,-0.001605449884338861,-0.03765012595139339,-0.0009437743645661634,-0.19193275506944008
971,0.9616,826.87,284.032,-0.00725768,484.62,-2.32059,-1.32861,0.253028,-0.0384103,-0.213294,0.490575,-0.00160916,-0.00094564,0.395356,0.2879193380712366,0.6332550716758556,-0.0016078659962266428,-0.03768197920505012,-0.0009451930233992378,-0.19208142576438392
972,0.9626,826.985,284.074,-0.00728831,484.69,-2.32358,-1.33034,0.253244,-0.0384433,-0.213478,0.490998,-0.00161158,-0.000947062,0.3957,0.28819755869500585,0.6339460847101277,-0.0016102821022674352,-0.03771373517575993,-0.0009466136783247148,-0.19223006910643647
973,0.9636,827.1,284.117,-0.00731902,484.759,-2.32657,-1.33207,0.253461,-0.0384763,-0.213663,0.491422,-0.00161401,-0.000948484,0.396044,0.2884771278974039,0.6346390247429508,-0.0016127081863341886,-0.03774549009854,-0.0009480343312300299,-0.1923794927215412
974,0.9646,827.215,284.159,-0.0073498,484.829,-2.32957,-1.3338,0.253677,-0.0385094,-0.213847,0.491845,-0.00161643,-0.000949909,0.396388,0.2887554690167884,0.6353306233132021,-0.00161512428065691,-0.037777340195695785,-0.0009494579792667102,-0.19252808122431897
975,0.9656,827.329,284.202,-0.00738066,484.899,-2.33257,-1.33553,0.253893,-0.0385424,-0.214031,0.492269,-0.00161886,-0.000951334,0.396731,0.28903387026434846,0.6360241505148638,-0.0016175503529572977,-0.037809093019544826,-0.0009508816252747909,-0.19267664238932736
976,0.9666,827.444,284.244,-0.00741158,484.969,-2.33557,-1.33727,0.254109,-0.0385754,-0.214215,0.492692,-0.00162129,-0.000952761,0.397074,0.2893123316530728,0.636716335117254,-0.00161997641936229,-0.03784084479556804,-0.000952307267349517,-0.192825176221596
977,0.9676,827.558,284.286,-0.00744258,485.038,-2.33858,-1.339,0.254326,-0.0386084,-0.214399,0.493115,-0.00162373,-0.000954189,0.397418,0.2895921427874517,0.6374088125756658,-0.0016224124636478043,-0.037872595523799846,-0.0009537339064360495,-0.1929736827261539
978,0.9686,827.672,284.328,-0.00747365,485.108,-2.34159,-1.34074,0.254542,-0.0386414,-0.214583,0.493538,-0.00162616,-0.000955619,0.397761,0.28987072477606546,0.6381015830140031,-0.0016248385182378033,-0.03790434520427499,-0.0009551625415751275,-0.19312216190802867
979,0.9696,827.786,284.371,-0.00750479,485.177,-2.3446,-1.34248,0.254758,-0.0386744,-0.214767,0.493961,-0.0016286,-0.00095705,0.398104,0.2901493669448878,0.6387946465562233,-0.0016272745506599184,-0.037936093837027896,-0.0009565921737145766,-0.1932706137722472
980,0.9706,827.9,284.413,-0.007536,485.247,-2.34761,-1.34422,0.254974,-0.0387073,-0.214951,0.494384,-0.00163104,-0.000958482,0.398447,0.29042806930691945,0.6394880033263348,-0.0016297105771380105,-0.037967745218872584,-0.0009580228028502891,-0.19341903832383567
981,0.9716,828.014,284.455,-0.00756728,485.316,-2.35063,-1.34597,0.255189,-0.0387403,-0.215135,0.494806,-0.00163348,-0.000959915,0.398789,0.29070554116897673,0.6401800132675666,-0.0016321465976723015,-0.03799949175945949,-0.000959454428977824,-0.19356743556781886
982,0.9726,828.128,284.497,-0.00759864,485.385,-2.35365,-1.34771,0.255405,-0.0387732,-0.215319,0.495228,-0.00163592,-0.00096135,0.399132,0.29098436367761615,0.64087231529862,-0.0016345826122626805,-0.038031141055546835,-0.0009608880511321471,-0.19371580550922118
983,0.9736,828.241,284.539,-0.00763007,485.454,-2.35668,-1.34946,0.255621,-0.0388061,-0.215502,0.495651,-0.00163837,-0.000962786,0.399475,0.29126324641842216,0.6415665511085136,-0.0016370286045389593,-0.03806278931038953,-0.0009623226702668575,-0.19386334201681088
984,0.9746,828.355,284.581,-0.00766157,485.523,-2.3597,-1.35121,0.255836,-0.0388391,-0.215686,0.496073,-0.00164082,-0.000964224,0.399817,0.29154089786286286,0.6422594383820135,-0.0016394745908224762,-0.03809453271457319,-0.0009637592854139232,-0.19401165751643534
985,0.9756,828.468,284.623,-0.00769315,485.592,-2.36273,-1.35296,0.256052,-0.038872,-0.215869,0.496495,-0.00164327,-0.000965663,0.400159,0.2918199008280369,0.6429526181156475,-0.0016419205711134532,-0.0381261788838646,-0.0009651968975299408,-0.19415913988806122
986,0.9766,828.582,284.665,-0.0077248,485.661,-2.36577,-1.35471,0.256268,-0.0389049,-0.216053,0.496916,-0.00164572,-0.000967103,0.400502,0.2920989640643601,0.6436444467875913,-0.0016443665454116685,-0.03815782401201406,-0.0009666355066105803,-0.1943074009658844
987,0.9776,828.695,284.707,-0.00775653,485.73,-2.3688,-1.35646,0.256483,-0.0389378,-0.216236,0.497338,-0.00164818,-0.000968545,0.400844,0.29237679520741167,0.6443382111181135,-0.001646822497249234,-0.03818946809905599,-0.0009680761116834802,-0.19445482922141077
988,0.9786,828.808,284.749,-0.00778832,485.799,-2.37184,-1.35822,0.256698,-0.0389706,-0.21642,0.49776,-0.00165064,-0.000969988,0.401186,0.29265468609058076,0.6450322682789662,-0.0016492784430450769,-0.03822101496713093,-0.0009695177137095667,-0.1946030358974018
989,0.9796,828.921,284.79,-0.00782019,485.867,-2.37488,-1.35998,0.256913,-0.0390035,-0.216603,0.498181,-0.0016531,-0.000971432,0.401528,0.2929326367267129,0.6457249726679544,-0.001651734382799197,-0.03825265697522462,-0.0009709603126843991,-0.1947504100566857
990,0.9806,829.033,284.832,-0.00785214,485.936,-2.37793,-1.36174,0.257129,-0.0390364,-0.216786,0.498602,-0.00165556,-0.000972877,0.401869,0.29321194033995024,0.6464179687468865,-0.0016541903165118166,-0.03828429794231336,-0.0009724039086037584,-0.19489775724896596
991,0.9816,829.146,284.874,-0.00788416,486.005,-2.38098,-1.3635,0.257344,-0.0390692,-0.216969,0.499023,-0.00165803,-0.000974324,0.402211,0.29349001079862647,0.6471112566385904,-0.0016566562276163488,-0.03831584170002034,-0.0009738495004893988,-0.1950450774791772
992,0.9826,829.259,284.915,-0.00791625,486.073,-2.38403,-1.36526,0.257559,-0.039102,-0.217153,0.499444,-0.00166049,-0.000975773,0.402553,0.2937681410488786,0.6478048364659446,-0.0016591121492213201,-0.03834738442310914,-0.0009752970883327716,-0.1951931755594799
993,0.9836,829.371,284.957,-0.00794842,486.142,-2.38708,-1.36702,0.257774,-0.0391348,-0.217336,0.499865,-0.00166296,-0.000977222,0.402894,0.2940463311035635,0.6484987083518801,-0.0016615780481689102,-0.03837892611161353,-0.000976744674078489,-0.19534044173308662
994,0.9846,829.483,284.998,-0.00798067,486.21,-2.39014,-1.36879,0.257989,-0.0391677,-0.217519,0.500286,-0.00166544,-0.000978673,0.403235,0.29432458097554015,0.6491928724193796,-0.0016640539243852892,-0.038410562924516056,-0.0009781942557702816,-0.19548768095944935
995,0.9856,829.596,285.04,-0.00801299,486.278,-2.3932,-1.37056,0.258203,-0.0392005,-0.217702,0.500707,-0.00166791,-0.000980126,0.403576,0.29460159607542735,0.6498873287914775,-0.0016665198111266433,-0.038442102540799605,-0.0009796458333994895,-0.19563489324349892
996,0.9866,829.708,285.081,-0.00804538,486.346,-2.39626,-1.37233,0.258418,-0.0392332,-0.217884,0.501127,-0.00167039,-0.000981579,0.403917,0.2948799653422074,0.6505804270100071,-0.0016689956750874924,-0.038473544969959916,-0.0009810974089194957,-0.1957812743718419
997,0.9876,829.82,285.123,-0.00807785,486.414,-2.39933,-1.3741,0.258633,-0.039266,-0.218067,0.501547,-0.00167286,-0.000983034,0.404258,0.2951583944648142,0.6512738163909284,-0.0016714615496228324,-0.03850508252046625,-0.00098255098036526,-0.19592843293321272
998,0.9886,829.932,285.164,-0.0081104,486.483,-2.4024,-1.37587,0.258847,-0.0392988,-0.21825,0.501967,-0.00167535,-0.000984491,0.404599,0.29543558801988223,0.6519674970565554,-0.0016739473845887032,-0.03853661903655792,-0.0009840065477281223,-0.1960755645670309
999,0.9896,830.043,285.205,-0.00814302,486.551,-2.40547,-1.37765,0.259062,-0.0393315,-0.218433,0.502387,-0.00167783,-0.000985949,0.40494,0.2957141366142073,0.6526614691292529,-0.001676423230129065,-0.038568058375079484,-0.0009854631119847745,-0.19622266927822352
