,Time,S11,S22,S33,S12,S13,S23,LE11,LE22,LE33,LE12,LE13,LE23,SDV_EPBAR,E11,E12,E13,E22,E23,E33
0,0.0001,15.5802,5.19339,-2.46025e-12,8.99522,-2.68259e-16,-7.67297e-17,6.74966e-05,2.49991e-06,-2.99985e-05,0.000112578,-3.78097e-21,-2.26748e-22,0.0,6.749887794677001e-05,0.00011258433714078642,0.0,2.499913124731634e-06,0.0,-2.999805004955114e-05
1,0.0002,31.1588,10.3863,-3.38929e-12,17.9895,-5.86018e-16,-3.38338e-16,0.000134987,4.99956e-06,-5.99941e-05,0.000225144,-7.10708e-21,-8.01578e-21,0.0,0.00013499611115497245,0.00022516934681249268,0.0,4.9995724977769385e-06,0.0,-5.9992300389999365e-05
2,0.0003,46.7358,15.5786,-3.38218e-12,26.983,-3.51523e-16,-2.02952e-16,0.00020247,7.49896e-06,-8.99866e-05,0.000337699,-9.25566e-21,2.48149e-21,0.0,0.00020249049843390488,0.00033775602672636573,0.0,7.498988117360383e-06,0.0,-8.99825513273056e-05
3,0.0004,62.3113,20.7704,-3.38396e-12,35.9755,-5.27292e-16,-3.04432e-16,0.000269946,9.99807e-06,-0.000119976,0.000450243,-9.25423e-21,2.48256e-21,0.0,0.00026998243870024474,0.00045034437459334775,0.0,9.998119980814124e-06,0.0,-0.00011996880316755831
4,0.0005,77.8853,25.9618,-3.37863e-12,44.9671,-1.26432e-15,-6.51806e-16,0.000337416,1.24969e-05,-0.000149963,0.000562776,-1.17286e-20,-6.7715e-21,0.0,0.0003374729311815816,0.0005629343881239368,0.0,1.2496978086584676e-05,0.0,-0.00014995175611143274
5,0.0006,93.4577,31.1526,-3.38218e-12,53.9578,-7.61483e-16,-4.39642e-16,0.000404879,1.49956e-05,-0.000179946,0.000675297,-2.52865e-20,1.67047e-20,0.0,0.00040496097456510505,0.0006755250643533106,0.0,1.4995712434462405e-05,0.0,-0.00017992981068959413
6,0.0007,109.029,36.3428,-3.3733e-12,62.9476,-1.30452e-15,-9.87614e-16,0.000472335,1.74939e-05,-0.000209927,0.000787807,-5.85363e-21,-3.3796e-21,0.0,0.00047244656774125815,0.0007881174014414682,0.0,1.74940530190959e-05,0.0,-0.0002099049668691233
7,0.0008,124.598,41.5326,-3.36797e-12,71.9366,-1.07899e-15,-7.01105e-16,0.000539784,1.9992e-05,-0.000239904,0.000900306,-1.17252e-20,-6.76952e-21,0.0,0.0005399297095993738,0.0009007113970982417,0.0,1.999219984138989e-05,0.0,-0.00023987522533652772
8,0.0009,140.165,46.7218,-3.36264e-12,80.9246,-1.06977e-15,-8.52082e-16,0.000607227,2.249e-05,-0.000269879,0.00101279,-2.5279e-20,1.67118e-20,0.0,0.0006074113996370478,0.0010133030449797076,0.0,2.249025290201878e-05,0.0,-0.00026984258593854005
9,0.001,155.732,51.9106,-3.37153e-12,89.9117,-1.10346e-15,-7.93382e-16,0.000674663,2.49876e-05,-0.00029985,0.00112527,-2.52779e-20,1.67134e-20,0.0,0.0006748906362714635,0.0011259033538288943,0.0,2.49879121927421e-05,0.0,-0.00029980504948168285
10,0.0011,171.296,57.0988,-3.37153e-12,98.8979,-1.37157e-15,-8.70024e-16,0.000742092,2.7485e-05,-0.000329819,0.00123774,-1.17155e-20,-6.76397e-21,0.0,0.0007423674183926199,0.0012385063162878573,0.0,2.748537771601889e-05,0.0,-0.0003297646156927847
11,0.0012,186.859,62.2864,-3.36087e-12,107.883,-1.64872e-15,-7.95588e-16,0.000809514,2.99821e-05,-0.000359784,0.00135019,-2.52676e-20,1.67212e-20,0.0,0.0008098417448900719,0.001351101916892139,0.0,2.998254946762202e-05,0.0,-0.0003597192854979392
12,0.0013,202.421,67.4736,-3.37153e-12,116.868,-1.99107e-15,-1.14954e-15,0.00087693,3.24791e-05,-0.000389747,0.00146263,-3.88149e-20,4.0211e-20,0.0,0.0008773146155311995,0.0014637001649466796,0.0,3.2479627451786897e-05,0.0,-0.00038967105850429284
13,0.0014,217.981,72.6603,-3.3662e-12,125.851,-1.28755e-15,-7.43367e-16,0.000944339,3.49756e-05,-0.000419706,0.00157506,-1.35289e-20,2.35005e-20,0.0,0.0009447850284631798,0.0015763010584968207,0.0,3.4976211653381384e-05,0.0,-0.0004196179357576213
14,0.0015,233.539,77.8464,-3.3733e-12,134.834,-2.6939e-15,-1.55532e-15,0.00101174,3.74721e-05,-0.000449663,0.00168748,-4.06101e-20,7.04906e-20,0.0,0.0010122519815634057,0.0016889045955881254,0.0,3.7472802087989976e-05,0.0,-0.00044956191674494494
15,0.0016,249.096,83.032,-3.36975e-12,143.816,-2.11658e-15,-1.06571e-15,0.00107914,3.99682e-05,-0.000479617,0.00179989,1.17958e-20,6.81032e-21,0.0,0.0010797224810772388,0.0018015107742652692,0.0,3.9968998739148276e-05,0.0,-0.0004795020021524099
16,0.0017,264.651,88.2171,-3.3662e-12,152.796,-2.70236e-15,-1.40391e-15,0.00114653,4.24641e-05,-0.000509567,0.00191229,5.79439e-20,-1.54431e-19,0.0,0.0011471875167841095,0.0019141195925733712,0.0,4.246500161264599e-05,0.0,-0.0005094371927857333
17,0.0018,280.205,93.4017,-3.38929e-12,161.776,-3.59016e-15,-1.76018e-15,0.00121391,4.49595e-05,-0.000539515,0.00202468,1.01183e-22,5.84181e-23,0.0,0.0012146470869662807,0.0020267310485566625,0.0,4.496051069335927e-05,0.0,-0.0005393694879521904
18,0.0019,295.757,98.5857,-3.3662e-12,170.755,-3.76553e-15,-1.86143e-15,0.00128128,4.74552e-05,-0.000569459,0.00213705,-2.70082e-20,4.70388e-20,0.0,0.0012821011899064594,0.0021393351188656595,0.0,4.745632601577121e-05,0.0,-0.000569296888996984
19,0.002,311.308,103.769,-3.38929e-12,179.734,-3.04365e-15,-1.75725e-15,0.00134865,4.99501e-05,-0.000599401,0.00224942,9.90772e-23,5.72022e-23,0.0,0.001349559837382719,0.0022519518432051466,0.0,4.995134752694419e-05,0.0,-0.0005992213951074854
20,0.0021,326.857,108.952,-3.33955e-12,188.711,-5.15303e-15,-2.9751e-15,0.00141601,5.2445e-05,-0.000629339,0.00236177,-2.33124e-20,-1.34594e-20,0.0,0.0014170130155308769,0.002364561175705493,0.0,5.244637526313767e-05,0.0,-0.0006291410077484683
21,0.0022,342.404,114.135,-3.36975e-12,197.687,-5.06899e-15,-2.84843e-15,0.00148337,5.49398e-05,-0.000659275,0.00247411,-7.75547e-20,8.04992e-20,0.0,0.0014844707374781496,0.0024771731358035343,0.0,5.4941309218348167e-05,0.0,-0.0006590577259876218
22,0.0023,356.752,118.924,-0.00185803,205.98,-0.00124383,-0.00107921,0.00155047,5.65026e-05,-0.000691092,0.00258742,-1.56195e-08,-1.35667e-08,7.78887e-06,0.0015516726000619485,0.002590770260014974,-1.5619499915686674e-08,5.650419630187642e-05,-1.3566699985645414e-08,-0.0006908532509261045
23,0.0024,359.022,119.731,0.0099145,207.302,-0.00233589,-0.00358422,0.00161531,4.85025e-05,-0.00074199,0.00271012,-2.96203e-08,-4.73819e-08,9.45987e-05,0.0016166153159333785,0.0027137956949818687,-2.962029954645118e-08,4.8503676265188034e-05,-4.738189884889721e-08,-0.000741714793490944
24,0.0025,361.199,120.452,-0.00236762,208.591,-0.017857,-0.00954155,0.00168015,4.02105e-05,-0.000792989,0.00283297,-2.33292e-07,-1.27943e-07,0.00018187,0.001681562242827006,0.002836986651632678,-2.3329197273991298e-07,4.0211308452997585e-05,-1.279429918676911e-07,-0.000792674667315918
25,0.0026,363.336,121.196,-0.000205538,209.843,-0.0230591,-0.0140359,0.00174496,3.20324e-05,-0.000844076,0.00295579,-3.10837e-07,-1.92818e-07,0.000269476,0.0017464833286211512,0.002960162654416676,-3.1083695173350634e-07,3.2032913042767674e-05,-1.928179813592834e-07,-0.000843719868060977
26,0.0027,365.414,121.908,-0.00115347,211.064,-0.0314181,-0.018001,0.00180976,2.37595e-05,-0.000895239,0.00307867,-4.32747e-07,-2.53395e-07,0.000357447,0.0018113986039729468,0.0030834139716096054,-4.3274690642025604e-07,2.3759782259213935e-05,-2.5339496789733573e-07,-0.0008948383931216553
27,0.0028,367.441,122.608,-0.000803766,212.253,-0.038045,-0.0221303,0.00187454,1.54681e-05,-0.000946484,0.00320157,-5.36807e-07,-3.18428e-07,0.00044575,0.0018762980484448022,0.003206700498988635,-5.368068559663541e-07,1.546821963160916e-05,-3.1842794934178187e-07,-0.0009460362253005394
28,0.0029,369.417,123.288,-0.000870384,213.414,-0.0450714,-0.0260262,0.00193929,7.12869e-06,-0.000997801,0.0033245,-6.49915e-07,-3.82801e-07,0.000534372,0.001941171639003425,0.0033300322791134374,-6.499147887639722e-07,7.1287154090882154e-06,-3.8280092673481647e-07,-0.0009973033621104577
29,0.003,371.346,123.953,-0.000779262,214.546,-0.0516945,-0.0298866,0.00200404,-1.24469e-06,-0.00104919,0.00344746,-7.61773e-07,-4.48957e-07,0.000623296,0.002006049430262724,0.003453409324947865,-7.617727098008231e-07,-1.2446892253548114e-06,-4.4895689921276016e-07,-0.0010486397926128266
30,0.0031,373.23,124.602,-0.000750796,215.652,-0.0582478,-0.0336308,0.00206876,-9.65494e-06,-0.00110064,0.00357045,-8.76498e-07,-5.15811e-07,0.000712507,0.002070901360367694,0.0035768316494608765,-8.764976158204263e-07,-9.654893391219943e-06,-5.158108670189065e-07,-0.0011000345179548177
31,0.0032,375.072,125.237,-0.000702614,216.733,-0.0646104,-0.0372967,0.00213347,-1.80984e-05,-0.00115216,0.00369346,-9.92453e-07,-5.8378e-07,0.000801991,0.00213574746646783,0.0037002892286248645,-9.924525075089008e-07,-1.8098236224894926e-05,-5.837798295882379e-07,-0.0011514965185039916
32,0.0033,376.872,125.857,-0.000666176,217.79,-0.0708381,-0.0408736,0.00219816,-2.65743e-05,-0.00120374,0.00381649,-1.11025e-06,-6.5267e-07,0.000891734,0.00220057772488369,0.003823782071715298,-1.1102493836512295e-06,-2.6573946906416346e-05,-6.526697869935205e-07,-0.0012030157956199883
33,0.0034,378.633,126.464,-0.000629032,218.824,-0.0769169,-0.04437,0.00226284,-3.50807e-05,-0.00125537,0.00393955,-1.2296e-06,-7.22534e-07,0.000981724,0.002265402154650431,0.003947320227483786,-1.2295992440902737e-06,-3.5080084679450785e-05,-7.225337389504816e-07,-0.0012545823527122524
34,0.0035,380.357,127.058,-0.000595673,219.836,-0.0828596,-0.0477868,0.0023275,-4.36163e-05,-0.00130706,0.00406263,-1.35058e-06,-7.93326e-07,0.00107195,0.0023302107307923148,0.004070893668211006,-1.3505790880108393e-06,-4.361534882302287e-05,-7.933256853664972e-07,-0.001306206169121471
35,0.0036,382.045,127.639,-0.000564057,220.827,-0.0886683,-0.0511276,0.00239214,-5.21798e-05,-0.00135879,0.00418573,-1.47313e-06,-8.6504e-07,0.0011624,0.0023950034496920125,0.004194502403183087,-1.4731289149638727e-06,-5.2178438657901616e-05,-8.650396258191861e-07,-0.0013578672628505872
36,0.0037,383.699,128.209,-0.000534703,221.798,-0.0943488,-0.0543947,0.00245678,-6.07698e-05,-0.00141058,0.00430884,-1.59723e-06,-9.37655e-07,0.00125307,0.0024598003569284987,0.00431813639850831,-1.5972287243926075e-06,-6.076795355314246e-05,-9.376545604400377e-07,-0.0014095855996472118
37,0.0038,385.32,128.768,-0.000510279,222.749,-0.099908,-0.0575906,0.00252139,-6.93865e-05,-0.00146242,0.00443197,-1.724e-06,-1.01068e-06,0.00134395,0.00252457137703499,0.004441805704187507,-1.7239985139472225e-06,-6.938409281243008e-05,-1.0106794892106308e-06,-0.0014613511849541627
38,0.0039,386.909,129.315,-0.000480739,223.682,-0.105333,-0.0607232,0.002586,-7.80274e-05,-0.00151429,0.00455512,-1.85207e-06,-1.08464e-06,0.00143502,0.002589346582132057,0.0045655103295161314,-1.852068284957653e-06,-7.802435594161938e-05,-1.0846394117303149e-06,-0.0015131440414087871
39,0.004,388.469,129.853,-0.000457608,224.598,-0.110652,-0.0637862,0.00265059,-8.66917e-05,-0.00156622,0.00467828,-1.98174e-06,-1.15941e-06,0.00152628,0.0026541059194080674,0.004689240236899428,-1.9817380363384984e-06,-8.668794238320121e-05,-1.159409327877725e-06,-0.001564994117539853
40,0.0041,389.999,130.38,-0.000434349,225.496,-0.115858,-0.0667861,0.00271516,-9.53782e-05,-0.00161818,0.00480146,-2.11283e-06,-1.23502e-06,0.00161772,0.0027188493852474682,0.004813005480056809,-2.112827767963843e-06,-9.537365164413725e-05,-1.2350192373222768e-06,-0.001616871452660651
41,0.0042,391.501,130.897,-0.000413191,226.378,-0.120956,-0.0697237,0.00277972,-0.000104086,-0.00167018,0.00492465,-2.24535e-06,-1.31145e-06,0.00170933,0.0027835870038717125,0.004936796018923495,-2.2453474791683803e-06,-0.00010408058324018477,-1.3114491400623152e-06,-0.0016687860255545361
42,0.0043,392.977,131.406,-0.000393019,227.244,-0.12595,-0.0726018,0.00284427,-0.000112815,-0.00172222,0.00504785,-2.37926e-06,-1.38869e-06,0.00180112,0.0028483187736081383,0.005060611859092123,-2.379257169615734e-06,-0.00011280863662721519,-1.3886890357639459e-06,-0.0017207378301320464
43,0.0044,394.426,131.905,-0.000374119,228.095,-0.130844,-0.0754219,0.00290881,-0.000121563,-0.00177429,0.00517106,-2.51455e-06,-1.46672e-06,0.00189306,0.0029130446927847498,0.005184453006156442,-2.51454683852792e-06,-0.00012155561151794281,-1.4667189243144918e-06,-0.0017727168780270475
44,0.0045,395.851,132.396,-0.000356254,228.931,-0.13564,-0.0781861,0.00297333,-0.00013033,-0.0018264,0.00529428,-2.65118e-06,-1.54553e-06,0.00198516,0.002977754729951654,0.005308319465711753,-2.651176485679585e-06,-0.00013032150741454362,-1.5455288057131256e-06,-0.0018247331464548155
45,0.0046,397.252,132.878,-0.000339403,229.753,-0.140342,-0.0808961,0.00303784,-0.000139115,-0.00187854,0.00541751,-2.78914e-06,-1.6251e-06,0.0020774,0.0030424589119202317,0.00543221124335469,-2.789136110403767e-06,-0.00013910532395711162,-1.6250986795141031e-06,-0.001876776648082723
46,0.0047,398.629,133.352,-0.000323475,230.561,-0.144952,-0.0835537,0.00310234,-0.000147918,-0.00193071,0.00554075,-2.9284e-06,-1.70542e-06,0.00216979,0.0031071572370187095,0.00555612834468322,-2.928395712253895e-06,-0.00014790706067202564,-1.7054185458276194e-06,-0.0019288473783681814
47,0.0048,399.984,133.819,-0.000308412,231.357,-0.149474,-0.0861605,0.00316683,-0.000156738,-0.00198292,0.005664,-3.06894e-06,-1.78648e-06,0.00226232,0.0031718497035750914,0.005680070775297086,-3.068935290784225e-06,-0.00015672571724145712,-1.7864784042087578e-06,-0.0019809553129570556
48,0.0049,401.317,134.278,-0.000294151,232.139,-0.153911,-0.0887181,0.0032313,-0.000165574,-0.00203515,0.00578725,-3.21073e-06,-1.86827e-06,0.00235498,0.003236526277552443,0.005804028482756962,-3.2107248456592075e-06,-0.00016556029338177236,-1.8682682547677132e-06,-0.002033080486400385
49,0.005,402.63,134.73,-0.00028064,232.909,-0.158264,-0.091228,0.00329576,-0.000174426,-0.00208741,0.00591051,-3.35376e-06,-1.95077e-06,0.00244777,0.003301196988350963,0.005928011528225863,-3.3537543761008592e-06,-0.00017441078866964332,-1.950768097280786e-06,-0.0020852328748603988
50,0.0051,403.922,135.175,-0.000267827,233.667,-0.162537,-0.0936916,0.00336021,-0.000183293,-0.0021397,0.00603378,-3.498e-06,-2.03397e-06,0.00254068,0.0033658618342991,0.006052019917307083,-3.4979938819956757e-06,-0.00018327620286440194,-2.0339679315251047e-06,-0.002137412473785849
51,0.0052,405.194,135.613,-0.000255668,234.414,-0.166732,-0.0961102,0.00342465,-0.000192174,-0.00219201,0.00615705,-3.64344e-06,-2.11786e-06,0.00263371,0.003430520813725524,0.0061760435938444935,-3.6434333626766957e-06,-0.00019215553575968602,-2.117857757388819e-06,-0.0021896093005193684
52,0.0053,406.448,136.045,-0.00024412,235.15,-0.170852,-0.0984854,0.00348908,-0.00020107,-0.00224435,0.00628033,-3.79005e-06,-2.20242e-06,0.00272685,0.0034951739249593494,0.006300092622723685,-3.79004281780837e-06,-0.00020104978678237018,-2.20241757464823e-06,-0.002241833329653886
53,0.0054,407.683,136.47,-0.000233144,235.875,-0.174897,-0.100818,0.00355349,-0.000209979,-0.00229671,0.00640362,-3.93781e-06,-2.28765e-06,0.00282011,0.0035598111307306723,0.006424167009551507,-3.9378022468339324e-06,-0.00020995695595271702,-2.2876473833033373e-06,-0.002294074579572869
54,0.0055,408.9,136.889,-0.000222703,236.589,-0.178872,-0.10311,0.0036179,-0.000218901,-0.00234909,0.0065269,-4.0867e-06,-2.37353e-06,0.00291347,0.0036244524999184957,0.006548246628971022,-4.086691649418661e-06,-0.00021887704292422594,-2.3735271831304416e-06,-0.002346333047285154
55,0.0056,410.1,137.302,-0.000212766,237.293,-0.182777,-0.105362,0.00368229,-0.000227836,-0.0024015,0.00665019,-4.23671e-06,-2.46005e-06,0.00300694,0.0036890779590093015,0.0066723516125926086,-4.2367010251176396e-06,-0.00022781004734961918,-2.4600469741287156e-06,-0.002398618705812483
56,0.0057,411.283,137.709,-0.000203301,237.987,-0.186614,-0.107575,0.00374668,-0.000236783,-0.00245392,0.00677349,-4.38781e-06,-2.5472e-06,0.00310051,0.003753707579467358,0.006796481966025336,-4.387800373595319e-06,-0.00023675496911790272,-2.5471967558532427e-06,-0.002450911599611194
57,0.0058,412.45,138.111,-0.00019428,238.672,-0.190387,-0.10975,0.00381105,-0.000245742,-0.00250637,0.00689678,-4.53999e-06,-2.63498e-06,0.00319417,0.003818321285194104,0.006920617556468223,-4.539979694295759e-06,-0.00024571180790788905,-2.634976528415045e-06,-0.0025032316771917973
58,0.0059,413.601,138.507,-0.000185676,239.347,-0.194095,-0.111889,0.00387541,-0.000254712,-0.00255884,0.00702008,-4.69322e-06,-2.72336e-06,0.00328793,0.0038829291114095277,0.007044778522979245,-4.693208986883413e-06,-0.00025467956365254896,-2.7233562917006182e-06,-0.002555568959545118
59,0.006,414.736,138.898,-0.000177465,240.013,-0.197742,-0.113993,0.00393976,-0.000263694,-0.00261133,0.00714339,-4.84749e-06,-2.81235e-06,0.00338179,0.003947531056443188,0.007168964871170802,-4.847478250913362e-06,-0.0002636592357929679,-2.8123460453777227e-06,-0.0026079234436749976
60,0.0061,415.857,139.283,-0.000169624,240.671,-0.201328,-0.116061,0.0040041,-0.000272686,-0.00266383,0.00726669,-5.00279e-06,-2.90192e-06,0.00347572,0.00401212711862442,0.007293156460793648,-5.002777486051713e-06,-0.00027264882455180217,-2.9019157894438763e-06,-0.0026602851531872806
61,0.0062,416.963,139.664,-0.000162133,241.32,-0.204856,-0.118096,0.00406843,-0.000281689,-0.00271636,0.00738999,-5.15909e-06,-2.99207e-06,0.00356975,0.0040767172962827836,0.007417363364183416,-5.159076691962916e-06,-0.0002816493293786859,-2.9920655237880567e-06,-0.0027126740324021625
62,0.0063,418.055,140.04,-0.000154972,241.96,-0.208327,-0.120098,0.00413275,-0.000290702,-0.0027689,0.0075133,-5.31638e-06,-3.0828e-06,0.00366386,0.0041413015877476145,0.007541595658644651,-5.316365868091033e-06,-0.00029065975026776325,-3.0827952481882193e-06,-0.002765070132050962
63,0.0064,419.133,140.411,-0.000148121,242.593,-0.211743,-0.122068,0.00419706,-0.000299724,-0.00282145,0.0076366,-5.47465e-06,-3.17408e-06,0.00375805,0.004205879991349137,0.007665833196476068,-5.474635014102169e-06,-0.0002996790872491495,-3.174074962641882e-06,-0.002817473450706265
64,0.0065,420.198,140.777,-0.000141566,243.217,-0.215104,-0.124007,0.00426136,-0.000308756,-0.00287403,0.00775991,-5.63387e-06,-3.26592e-06,0.00385232,0.004270452505416689,0.0077900961316412776,-5.633854129771798e-06,-0.0003087083397714796,-3.265914666927827e-06,-0.002869903929542783
65,0.0066,421.25,141.139,-0.000135288,243.834,-0.218413,-0.125915,0.00432564,-0.000317798,-0.00292661,0.00788322,-5.79403e-06,-3.35829e-06,0.00394666,0.004335009084929897,0.007914374390614043,-5.794013214655003e-06,-0.0003177475075645253,-3.3582843609325508e-06,-0.0029223316516573394
66,0.0067,422.289,141.496,-0.000129274,244.444,-0.22167,-0.127794,0.00438992,-0.000326848,-0.00297922,0.00800652,-5.95511e-06,-3.4512e-06,0.00404108,0.004399569814273585,0.008038657894896994,-5.9550922684170615e-06,-0.0003267945910114811,-3.45119404465688e-06,-0.0029747865279514674
67,0.0068,423.315,141.85,-0.00012351,245.046,-0.224877,-0.129645,0.00445419,-0.000335907,-0.00303183,0.00812983,-6.11711e-06,-3.54464e-06,0.00413557,0.004464124649072865,0.008162966805910221,-6.117091290502863e-06,-0.00033585058956009384,-3.5446337177669207e-06,-0.0030272386446672517
68,0.0069,424.33,142.199,-0.000117983,245.641,-0.228036,-0.131467,0.00451845,-0.000344975,-0.00308446,0.00825313,-6.28e-06,-3.63859e-06,0.00423013,0.004528673587657961,0.00828728096352771,-6.2799802807989025e-06,-0.0003449155029665585,-3.63858338037204e-06,-0.003079707940355725
69,0.007,425.333,142.544,-0.00011268,246.229,-0.231147,-0.133261,0.0045827,-0.00035405,-0.00313711,0.00837644,-6.44378e-06,-3.73306e-06,0.00432475,0.004593216628359098,0.008411620534142017,-6.443759238861091e-06,-0.0003539873316948938,-3.733053032139999e-06,-0.0031321944120141776
70,0.0071,426.324,142.884,-0.00010759,246.811,-0.234211,-0.135029,0.00464694,-0.000363134,-0.00318977,0.00849974,-6.60842e-06,-3.82802e-06,0.00441944,0.004657753769506057,0.00853596535265444,-6.6083981644649015e-06,-0.0003630680748291093,-3.828012673179337e-06,-0.003184688088485821
71,0.0072,427.304,143.221,-0.000102703,247.386,-0.23723,-0.136771,0.00471117,-0.000372225,-0.00324244,0.00862304,-6.77391e-06,-3.92347e-06,0.0045142,0.004722285009429283,0.008660325503828226,-6.7738870571654175e-06,-0.0003721557328693059,-3.923462303156988e-06,-0.0032371889683413535
72,0.0073,428.273,143.555,-9.80083e-05,247.954,-0.240205,-0.138487,0.00477539,-0.000381324,-0.00329512,0.00874634,-6.94025e-06,-4.01941e-06,0.00460902,0.004786810346459003,0.008784700989553862,-6.94022591651855e-06,-0.0003812513052439126,-4.019401922183974e-06,-0.0032896970501515854
73,0.0074,429.231,143.884,-9.34965e-05,248.516,-0.243137,-0.140179,0.0048396,-0.00039043,-0.00334781,0.00886963,-7.10741e-06,-4.11582e-06,0.0047039,0.0048513297789254395,0.008909081722631607,-7.107384742410794e-06,-0.00039035379212581933,-4.115811530036595e-06,-0.0033422123324866604
74,0.0075,430.179,144.21,-8.91589e-05,249.072,-0.246027,-0.141846,0.0049038,-0.000399544,-0.00340051,0.00899293,-7.27539e-06,-4.2127e-06,0.00479883,0.004915843305159262,0.00903348788189029,-7.2753635343980605e-06,-0.0003994641929252474,-4.212691126603829e-06,-0.0033947348139172773
75,0.0076,431.117,144.533,-8.49871e-05,249.622,-0.248876,-0.143489,0.00496799,-0.000408664,-0.00345323,0.00911622,-7.44416e-06,-4.31004e-06,0.00489383,0.004980350923490917,0.009157899289794713,-7.444132292255823e-06,-0.00040858050824132963,-4.310030711773827e-06,-0.00344727445854065
76,0.0077,432.045,144.852,-8.09732e-05,250.166,-0.251684,-0.14511,0.00503218,-0.000417791,-0.00350596,0.00923951,-7.61372e-06,-4.40784e-06,0.00498888,0.005044862682699547,0.009282326037327593,-7.613691015762036e-06,-0.0004177037374930581,-4.4078302854355655e-06,-0.003499821298348804
77,0.0078,432.963,145.167,-7.711e-05,250.704,-0.254453,-0.146707,0.00509635,-0.000426924,-0.00355869,0.00936279,-7.78406e-06,-4.50609e-06,0.00508398,0.0051093584808634684,0.009406758032312057,-7.78402970424974e-06,-0.0004268328809164945,-4.506079847588218e-06,-0.003552365367435195
78,0.0079,433.871,145.48,-7.33903e-05,251.237,-0.257184,-0.148283,0.00516051,-0.000436064,-0.00361144,0.00948608,-7.95517e-06,-4.60477e-06,0.00517914,0.0051738483661167844,0.009531215463530529,-7.955138357718106e-06,-0.00043596893791220115,-4.604759398008085e-06,-0.0036049265938475905
79,0.008,434.77,145.789,-6.98077e-05,251.764,-0.259877,-0.149837,0.00522467,-0.00044521,-0.00366419,0.00960936,-8.12702e-06,-4.70389e-06,0.00527435,0.0052383423891742,0.009655678143494661,-8.126986975831585e-06,-0.0004451109087340033,-4.703878936695993e-06,-0.003657485047728337
80,0.0081,435.66,146.094,-6.6356e-05,252.286,-0.262533,-0.15137,0.00528882,-0.000454363,-0.00371696,0.00973263,-8.29962e-06,-4.80343e-06,0.00536961,0.005302830497272426,0.009780146070362594,-8.299585558257938e-06,-0.0004542597927639225,-4.803418463539266e-06,-0.0037100606550227733
81,0.0082,436.541,146.397,-6.30292e-05,252.802,-0.265154,-0.152882,0.00535295,-0.000463521,-0.00376973,0.0098559,-8.47294e-06,-4.9034e-06,0.00546492,0.005367302635069127,0.009904629341337401,-8.472904104772638e-06,-0.00046341359073742705,-4.903387978316687e-06,-0.003762633487975564
82,0.0083,437.414,146.697,-5.98219e-05,253.314,-0.267739,-0.154373,0.00541708,-0.000472685,-0.00382251,0.00997917,-8.64698e-06,-5.00378e-06,0.00556027,0.005431778907596829,0.010029127958310902,-8.646942614931596e-06,-0.00047257330204542036,-5.003767481137622e-06,-0.003815213508581161
83,0.0084,438.277,146.994,-5.67288e-05,253.82,-0.27029,-0.155845,0.0054812,-0.000481854,-0.0038753,0.0101024,-8.82173e-06,-5.10456e-06,0.00565568,0.005496249260157793,0.010153601517030042,-8.821691088622963e-06,-0.0004817379270054545,-5.1045469717792e-06,-0.003867800715408487
84,0.0085,439.133,147.288,-5.3745e-05,254.322,-0.272807,-0.157298,0.00554531,-0.000491029,-0.0039281,0.0102257,-8.99718e-06,-5.20575e-06,0.00575112,0.00556071369108313,0.010278161135039765,-8.997139525512843e-06,-0.0004909084649901141,-5.2057364501312264e-06,-0.003920395107026575
85,0.0086,439.98,147.579,-5.08658e-05,254.818,-0.275292,-0.158732,0.00560941,-0.000500209,-0.00398091,0.010349,-9.17331e-06,-5.30733e-06,0.00584661,0.005625172198703732,0.01040273611219722,-9.173267925266515e-06,-0.0005000839163350479,-5.307315916192046e-06,-0.003972996682004126
86,0.0087,440.819,147.867,-4.80867e-05,255.31,-0.277744,-0.160147,0.0056735,-0.000509394,-0.00403372,0.0104722,-9.35011e-06,-5.40931e-06,0.00594215,0.005689624781350933,0.010527225397668705,-9.350066287883152e-06,-0.0005092642809033654,-5.409295369740441e-06,-0.004025595479165922
87,0.0088,441.65,148.153,-4.54035e-05,255.798,-0.280165,-0.161543,0.00573759,-0.000518585,-0.00408654,0.0105955,-9.52758e-06,-5.51166e-06,0.00603772,0.005754081494896424,0.010651831086343044,-9.527534612807642e-06,-0.0005184505580397847,-5.5116448108849525e-06,-0.004078201457876518
88,0.0089,442.474,148.436,-4.28123e-05,256.28,-0.282555,-0.162922,0.00580166,-0.00052778,-0.00413937,0.0107187,-9.70571e-06,-5.61439e-06,0.00613334,0.005818522223234535,0.010776351062206091,-9.705662899706091e-06,-0.0005276407486348722,-5.6143742392933405e-06,-0.0041308146167047255
89,0.009,443.29,148.716,-4.03093e-05,256.759,-0.284914,-0.164284,0.00586573,-0.00053698,-0.0041922,0.0108419,-9.88448e-06,-5.7175e-06,0.006229,0.005882967080422352,0.010900886379874963,-9.884431148687867e-06,-0.0005368358520424499,-5.717483655076627e-06,-0.0041834249960530645
90,0.0091,444.098,148.994,-3.78908e-05,257.233,-0.287244,-0.165629,0.00592979,-0.000546185,-0.00424504,0.0109652,-1.00639e-05,-5.82097e-06,0.00632469,0.005947406007250411,0.011025538143788927,-1.0063849359087662e-05,-0.0005460358681252941,-5.820953058233158e-06,-0.004236042553708241
91,0.0092,444.9,149.269,-3.55534e-05,257.702,-0.289545,-0.166956,0.00599383,-0.000555395,-0.00429789,0.0110884,-1.02439e-05,-5.9248e-06,0.00642043,0.006011828941931308,0.011150104163197394,-1.0243847531454797e-05,-0.0005552407967461814,-5.924782448429866e-06,-0.004288667288238401
92,0.0093,445.694,149.542,-3.32939e-05,258.168,-0.291817,-0.168268,0.00605787,-0.000564608,-0.00435074,0.0112116,-1.04246e-05,-6.02899e-06,0.0065162,0.0060762560023892576,0.011274685530084927,-1.0424545664022844e-05,-0.0005644486388967085,-6.028971825666751e-06,-0.004341289241624802
93,0.0094,446.481,149.812,-3.11093e-05,258.629,-0.294062,-0.169563,0.00612191,-0.000573827,-0.0044036,0.0113348,-1.06058e-05,-6.13353e-06,0.00661201,0.006140687188888272,0.011399282246342457,-1.0605743758662634e-05,-0.0005736623927738993,-6.133511189942986e-06,-0.004393918370075411
94,0.0095,447.261,150.08,-2.89965e-05,259.086,-0.296279,-0.170842,0.00618593,-0.000583049,-0.00445646,0.011458,-1.07877e-05,-6.23841e-06,0.00670785,0.006205102377590199,0.011523894313860916,-1.0787641812948223e-05,-0.0005828790599612388,-6.238390541146721e-06,-0.004446544716623757
95,0.0096,448.034,150.346,-2.69529e-05,259.54,-0.298469,-0.172106,0.00624995,-0.000592276,-0.00450933,0.0115812,-1.09701e-05,-6.34363e-06,0.00680372,0.006269521690284607,0.011648521734531903,-1.0970039828639422e-05,-0.000592100639192239,-6.343609879166934e-06,-0.004499178236425205
96,0.0097,448.801,150.609,-2.49756e-05,259.989,-0.300633,-0.173355,0.00631395,-0.000601507,-0.0045622,0.0117044,-1.11532e-05,-6.44919e-06,0.00689963,0.006333925000556739,0.011773164510246792,-1.1153137803310287e-05,-0.0006013261309310014,-6.449169204003624e-06,-0.004551808973566107
97,0.0098,449.561,150.87,-2.30622e-05,260.435,-0.302771,-0.174589,0.00637795,-0.000610741,-0.00461508,0.0118276,-1.13368e-05,-6.55508e-06,0.00699558,0.006398332432772769,0.011897822642897848,-1.1336735738720627e-05,-0.0006105545356778208,-6.5550585155449426e-06,-0.004604446882149005
98,0.0099,450.315,151.129,-2.12104e-05,260.876,-0.304884,-0.175808,0.00644194,-0.00061998,-0.00466797,0.0119508,-1.15209e-05,-6.66129e-06,0.00709155,0.006462733922568686,0.012022496134376892,-1.1520833634648397e-05,-0.0006197878521111422,-6.661267813679039e-06,-0.004657091960742044
99,0.01,451.063,151.386,-1.94177e-05,261.315,-0.306972,-0.177013,0.00650592,-0.000629222,-0.00472085,0.012074,-1.17057e-05,-6.76783e-06,0.00718756,0.006527129468276716,0.012147184986576187,-1.1705631488556634e-05,-0.0006290240813511261,-6.7678070982957195e-06,-0.0047097243021078095
100,0.0101,451.805,151.64,-1.7682e-05,261.749,-0.309035,-0.178204,0.00656989,-0.000638468,-0.00477375,0.0121972,-1.18909e-05,-6.87468e-06,0.0072836,0.006591519068228191,0.012271889201388442,-1.1890829303529138e-05,-0.0006382642226772095,-6.874656369393328e-06,-0.00476237376510158
101,0.0102,452.54,151.893,-1.60012e-05,262.18,-0.311075,-0.179381,0.00663386,-0.000647718,-0.00482664,0.0123204,-1.20768e-05,-6.98185e-06,0.00737967,0.006655912787314033,0.012396608780706364,-1.2076727075704952e-05,-0.0006475082759793693,-6.981825626972693e-06,-0.00481501049116273
102,0.0103,453.269,152.143,-1.43732e-05,262.607,-0.313091,-0.180544,0.00669782,-0.000656971,-0.00487955,0.0124435,-1.22631e-05,-7.08932e-06,0.00747576,0.0067203005585949604,0.012521242474293759,-1.2263024808500944e-05,-0.0006567552418040856,-7.0892948708101144e-06,-0.004867664335987842
103,0.0104,453.993,152.392,-1.27963e-05,263.031,-0.315084,-0.181694,0.00676176,-0.000666227,-0.00493245,0.0125667,-1.245e-05,-7.19709e-06,0.00757189,0.006784672312555751,0.012645992775827342,-1.2449922499047084e-05,-0.0006660051200690909,-7.197064101016615e-06,-0.004920305444174877
104,0.0105,454.711,152.638,-1.12685e-05,263.452,-0.317054,-0.182831,0.0068257,-0.000675487,-0.00498536,0.0126898,-1.26374e-05,-7.30516e-06,0.00766804,0.0068490481825780325,0.012770657170473987,-1.2637320148445319e-05,-0.0006752589100166295,-7.305133317370149e-06,-0.004972953717991446
105,0.0106,455.423,152.883,-9.78813e-06,263.869,-0.319002,-0.183956,0.00688964,-0.000684751,-0.00503827,0.012813,-1.28253e-05,-7.41353e-06,0.00776422,0.006913428168924929,0.012895438201791176,-1.2825217756140539e-05,-0.0006845166115363455,-7.413502519870718e-06,-0.005025599206261555
106,0.0107,456.13,153.125,-8.3535e-06,264.283,-0.320928,-0.185067,0.00695356,-0.000694017,-0.00509119,0.0129361,-1.30137e-05,-7.52219e-06,0.00786043,0.006977792132303984,0.013020133305059911,-1.3013615322132743e-05,-0.0006937762259054958,-7.522161708406472e-06,-0.005078251858350091
107,0.0108,456.831,153.366,-6.96302e-06,264.694,-0.322833,-0.186166,0.00701748,-0.000703287,-0.00514411,0.0130592,-1.32026e-05,-7.63113e-06,0.00795666,0.007042160209958848,0.013144843759240743,-1.3202512846088865e-05,-0.0007030397516634146,-7.631100882976583e-06,-0.005130901724133996
108,0.0109,457.527,153.604,-5.61516e-06,265.102,-0.324716,-0.187254,0.00708138,-0.000712559,-0.00519703,0.0131824,-1.3392e-05,-7.74036e-06,0.00805292,0.007106512260022457,0.013269670893185426,-1.3391910327564815e-05,-0.0007123051901242183,-7.740330043470856e-06,-0.005183548803760818
109,0.011,458.217,153.841,-4.30846e-06,265.506,-0.326579,-0.188329,0.00714528,-0.000721835,-0.00524996,0.0133055,-1.35819e-05,-7.84986e-06,0.0081492,0.007170868422313292,0.01339441206733416,-1.3581807766449572e-05,-0.0007215745397899376,-7.849829189887636e-06,-0.005236203045015819
110,0.0111,458.903,154.077,-3.04153e-06,265.908,-0.328422,-0.189392,0.00720918,-0.000731114,-0.00530289,0.0134286,-1.37722e-05,-7.95964e-06,0.00824551,0.007235228697094254,0.013519168598066678,-1.377210516373406e-05,-0.0007308468012809932,-7.959608322116729e-06,-0.005288854499355566
111,0.0112,459.583,154.31,-1.81302e-06,266.306,-0.330244,-0.190444,0.00727306,-0.000740395,-0.00535582,0.0135517,-1.3963e-05,-8.06969e-06,0.00834184,0.0072995729386367,0.013643940487273243,-1.3962902517761222e-05,-0.0007401209752549986,-8.069657440157307e-06,-0.005341503166927719
112,0.0113,460.258,154.542,-6.2165e-07,266.702,-0.332047,-0.191484,0.00733694,-0.00074968,-0.00540875,0.0136748,-1.41543e-05,-8.18001e-06,0.0084382,0.007363921290620468,0.013768727736844788,-1.4154199828420033e-05,-0.0007493990601581402,-8.179976543787326e-06,-0.005394149047879493
113,0.0114,460.928,154.772,5.33817e-07,267.094,-0.33383,-0.192513,0.0074008,-0.000758967,-0.00546169,0.0137979,-1.43461e-05,-8.29059e-06,0.00853458,0.007428253604742974,0.013893530348672467,-1.4345997095155383e-05,-0.000758679057397349,-8.29055563311698e-06,-0.005446802087890612
114,0.0115,461.593,155.0,1.65456e-06,267.484,-0.335594,-0.193532,0.00746466,-0.000768256,-0.00551463,0.013921,-1.45383e-05,-8.40142e-06,0.00863098,0.007492590027258439,0.014018348324647212,-1.4538194319402287e-05,-0.000767960966917669,-8.401384708145443e-06,-0.005499452340523625
115,0.0116,462.254,155.226,2.74171e-06,267.871,-0.33734,-0.194539,0.00752852,-0.000777549,-0.00556757,0.014044,-1.47309e-05,-8.51252e-06,0.0087274,0.007556930558428876,0.01414308025234745,-1.4730791500827678e-05,-0.0007772467871097755,-8.512483768652324e-06,-0.005552099805926081
116,0.0117,462.91,155.451,3.79635e-06,268.255,-0.339067,-0.195536,0.00759236,-0.000786843,-0.00562051,0.0141671,-1.4924e-05,-8.62386e-06,0.00882384,0.007621255046091457,0.014267928949805997,-1.4923888637663474e-05,-0.0007865335202226209,-8.62382281463514e-06,-0.005604744484245416
117,0.0118,463.561,155.675,4.81954e-06,268.636,-0.340776,-0.196522,0.0076562,-0.000796141,-0.00567346,0.0142902,-1.51175e-05,-8.73546e-06,0.0089203,0.007685583640360427,0.014392793017085515,-1.5117385731122646e-05,-0.0007958241638417185,-8.735421845984526e-06,-0.005657396319055263
118,0.0119,464.207,155.896,5.81226e-06,269.015,-0.342468,-0.197499,0.00772003,-0.000805441,-0.00572641,0.0144132,-1.53114e-05,-8.8473e-06,0.00901679,0.007749906263998962,0.0145175710043155,-1.531128278109417e-05,-0.000805116719466592,-8.847260862809847e-06,-0.005710045366024374
119,0.012,464.849,156.117,6.77549e-06,269.391,-0.344141,-0.198465,0.00778385,-0.000814743,-0.00577936,0.0145362,-1.55058e-05,-8.95938e-06,0.00911329,0.007814222915339286,0.014642364340181846,-1.5505679785698945e-05,-0.0008144111870421744,-8.95933986488906e-06,-0.005762691625300298
120,0.0121,465.487,156.335,7.71015e-06,269.764,-0.345798,-0.199421,0.00784766,-0.000824048,-0.00583231,0.0146593,-1.57005e-05,-9.0717e-06,0.00920981,0.007878533592713843,0.014767274503294958,-1.5700376747807e-05,-0.0008237085656899179,-9.071658852222164e-06,-0.005815335097030472
121,0.0122,466.12,156.552,8.61713e-06,270.135,-0.347437,-0.200367,0.00791147,-0.000833355,-0.00588526,0.0147823,-1.58957e-05,-9.18426e-06,0.00930636,0.007942848373883704,0.014892098554580624,-1.589557366399319e-05,-0.0008330078561600285,-9.18421782480916e-06,-0.0058679757813626665
122,0.0123,466.749,156.768,9.49728e-06,270.503,-0.34906,-0.201303,0.00797526,-0.000842664,-0.00593822,0.0149053,-1.60913e-05,-9.29705e-06,0.00940292,0.008007147098967327,0.015016937960168786,-1.6091170535692534e-05,-0.0008423090583974391,-9.297006782538197e-06,-0.0059206236192382855
123,0.0124,467.373,156.982,1.03514e-05,270.869,-0.350666,-0.20223,0.00803905,-0.000851975,-0.00599117,0.0150283,-1.62872e-05,-9.41007e-06,0.0094995,0.008071449925797669,0.015141792721948377,-1.6287067364229024e-05,-0.0008516121723470826,-9.410025725409277e-06,-0.005973258728690811
124,0.0125,467.993,157.195,1.11804e-05,271.232,-0.352256,-0.203148,0.00810283,-0.000861289,-0.00604413,0.0151513,-1.64836e-05,-9.52331e-06,0.00959609,0.008135746773278552,0.01526666284180811,-1.6483464146177518e-05,-0.0008609181970929969,-9.52326465342157e-06,-0.006025900990929145
125,0.0126,468.61,157.406,1.19848e-05,271.593,-0.35383,-0.204057,0.00816661,-0.000870604,-0.00609709,0.0152743,-1.66804e-05,-9.63678e-06,0.00969271,0.008200047721743209,0.015391548321637138,-1.6680260882862008e-05,-0.0008702251342929124,-9.636733566353861e-06,-0.006078540465307092
126,0.0127,469.222,157.616,1.27656e-05,271.952,-0.355389,-0.204956,0.00823038,-0.000879922,-0.00615005,0.0153973,-1.68775e-05,-9.75047e-06,0.00978934,0.008264342688809823,0.015516449163325063,-1.6877357575828533e-05,-0.0008795349821604237,-9.750422464316344e-06,-0.0061311771519722
127,0.0128,469.83,157.824,1.35233e-05,272.308,-0.356932,-0.205847,0.00829413,-0.000889242,-0.00620301,0.0155203,-1.7075e-05,-9.86437e-06,0.00988598,0.00832862158952441,0.015641365368761262,-1.7074854222975944e-05,-0.000888846741501581,-9.864321347308191e-06,-0.006183811051072352
128,0.0129,470.434,158.031,1.42588e-05,272.662,-0.358459,-0.206729,0.00835789,-0.000898563,-0.00625597,0.0156433,-1.72729e-05,-9.97849e-06,0.00998265,0.008392914672078478,0.015766296939835778,-1.727275082430424e-05,-0.000898159413159294,-9.978440214997164e-06,-0.006236442162754874
129,0.013,471.034,158.237,1.49725e-05,273.013,-0.359972,-0.207602,0.00842163,-0.000907887,-0.00630893,0.0157662,-1.74712e-05,-1.00928e-05,0.0100793,0.008457191684946519,0.015891142289319315,-1.7471047379480353e-05,-0.0009074749952916461,-1.0092749067824869e-05,-0.006289070487167647
130,0.0131,471.631,158.442,1.56652e-05,273.362,-0.36147,-0.208466,0.00848537,-0.000917212,-0.0063619,0.0158892,-1.76698e-05,-1.02074e-05,0.010176,0.008521472794961626,0.016016104584844593,-1.7669643890050324e-05,-0.0009167914896490714,-1.0207347904689357e-05,-0.006341705961041111
131,0.0132,472.223,158.645,1.63374e-05,273.709,-0.362953,-0.209322,0.0085491,-0.00092654,-0.00641486,0.0160121,-1.78687e-05,-1.03221e-05,0.0102727,0.008585747916527886,0.016140980637574298,-1.7868540355681084e-05,-0.0009261108943522389,-1.0322046727351264e-05,-0.006394328710830677
132,0.0133,472.812,158.846,1.69898e-05,274.054,-0.364422,-0.21017,0.00861282,-0.000935869,-0.00646783,0.0161351,-1.80681e-05,-1.04371e-05,0.0103695,0.008650017047977965,0.016265973665106293,-1.8067936772836468e-05,-0.0009354312111891083,-1.0437045533606693e-05,-0.006446958609323761
133,0.0134,473.397,159.047,1.76229e-05,274.396,-0.365877,-0.21101,0.00867653,-0.0009452,-0.00652079,0.016258,-1.82677e-05,-1.05522e-05,0.0104662,0.00871428018764453,0.016390880428633015,-1.826753314659868e-05,-0.0009447534391875401,-1.0552144325770563e-05,-0.006499575785080647
134,0.0135,473.978,159.246,1.82372e-05,274.737,-0.367318,-0.211842,0.00874024,-0.000954532,-0.00657376,0.0163809,-1.84678e-05,-1.06675e-05,0.010563,0.00877854742164641,0.01651580254414453,-1.8467629471219382e-05,-0.000954076579246621,-1.0667443102407859e-05,-0.006552200108783768
135,0.0136,474.556,159.444,1.88334e-05,275.075,-0.368745,-0.212665,0.00880393,-0.000963867,-0.00662672,0.0165038,-1.86681e-05,-1.07831e-05,0.0106597,0.008842798573387878,0.016640740013527555,-1.8667925752113845e-05,-0.0009634026294123021,-1.0783041862638676e-05,-0.006604811711098502
136,0.0137,475.131,159.641,1.94118e-05,275.411,-0.370159,-0.213481,0.00886763,-0.000973203,-0.00667969,0.0166268,-1.88688e-05,-1.08988e-05,0.0107565,0.008907063906486101,0.016765794515243293,-1.8868621985301814e-05,-0.0009727295915470391,-1.0898740608333846e-05,-0.006657430460602298
137,0.0138,475.701,159.837,1.9973e-05,275.745,-0.371559,-0.21429,0.00893131,-0.00098254,-0.00673266,0.0167496,-1.90698e-05,-1.10147e-05,0.0108533,0.008971313153989913,0.01689066102145631,-1.9069618172551372e-05,-0.0009820574656236314,-1.1014639338391419e-05,-0.006710046422964688
138,0.0139,476.269,160.031,2.05175e-05,276.077,-0.372947,-0.21509,0.00899499,-0.00099188,-0.00678563,0.0168725,-1.92712e-05,-1.11308e-05,0.0109501,0.009035566493016178,0.017015644563777244,-1.9271014311650347e-05,-0.0009913882496320747,-1.1130738052922418e-05,-0.0067626595983334425
139,0.014,476.832,160.224,2.10457e-05,276.408,-0.374321,-0.215883,0.00905865,-0.00100122,-0.00683859,0.0169954,-1.94728e-05,-1.12471e-05,0.0110469,0.00909980374182906,0.017140643467519423,-1.9472610406245927e-05,-0.0010007189464913413,-1.1247036751593775e-05,-0.006815260055008765
140,0.0141,477.393,160.416,2.1558e-05,276.736,-0.375682,-0.216669,0.00912232,-0.00101056,-0.00689156,0.0171183,-1.96748e-05,-1.13636e-05,0.0111438,0.009164055171756003,0.017265657734570894,-1.9674606452357857e-05,-0.0010100495562023193,-1.1363535434516514e-05,-0.006867867657358917
141,0.0142,477.95,160.607,2.20549e-05,277.062,-0.377031,-0.217448,0.00918597,-0.00101991,-0.00694453,0.0172411,-1.98771e-05,-1.14803e-05,0.0112406,0.009228290508135562,0.017390585627756305,-1.987690245175422e-05,-0.0010193900685721013,-1.1480234101579612e-05,-0.006920472473158301
142,0.0143,478.504,160.797,2.25368e-05,277.386,-0.378367,-0.218219,0.00924962,-0.00102925,-0.00699749,0.017364,-2.00797e-05,-1.15971e-05,0.0113375,0.00929252993322427,0.017515630614587163,-2.007949840421297e-05,-0.001028720503895575,-1.1597032753885017e-05,-0.0069730645722850815
143,0.0144,479.055,160.985,2.30041e-05,277.708,-0.379691,-0.218983,0.00931326,-0.0010386,-0.00705046,0.0174868,-2.02826e-05,-1.17141e-05,0.0114343,0.009356763353715047,0.017640589206327162,-2.0282394309512064e-05,-0.0010380608416927783,-1.1714031390219759e-05,-0.007025663815951377
144,0.0145,479.602,161.173,2.34572e-05,278.029,-0.381003,-0.21974,0.00937689,-0.00104795,-0.00710343,0.0176097,-2.04858e-05,-1.18313e-05,0.0115312,0.009420990767940784,0.017765664920485813,-2.0485590167429457e-05,-0.0010474010921581733,-1.1831230010472815e-05,-0.007078260273509551
145,0.0146,480.146,161.359,2.38964e-05,278.347,-0.382303,-0.220491,0.00944051,-0.0010573,-0.00715639,0.0177325,-2.06893e-05,-1.19487e-05,0.0116281,0.009485212174234592,0.0178906542183237,-2.0689085977854127e-05,-0.001056741255292648,-1.1948628614533163e-05,-0.007130844016415727
146,0.0147,480.687,161.545,2.43222e-05,278.664,-0.383591,-0.221234,0.00950413,-0.00106665,-0.00720936,0.0178553,-2.08931e-05,-1.20662e-05,0.011725,0.009549437666424465,0.01801565886579004,-2.089288174067505e-05,-0.0010660813310969797,-1.2066127203724797e-05,-0.007183434902726216
147,0.0148,481.225,161.729,2.47348e-05,278.979,-0.384868,-0.221971,0.00956774,-0.001076,-0.00726233,0.0179781,-2.10972e-05,-1.21839e-05,0.0118219,0.009613657148633381,0.018140678864769555,-2.1096977455670185e-05,-0.0010754213195719453,-1.21838257766127e-05,-0.007236023003371339
148,0.0149,481.76,161.912,2.51346e-05,279.292,-0.386133,-0.222701,0.00963134,-0.00108535,-0.00731529,0.0181009,-2.13015e-05,-1.23017e-05,0.0119188,0.009677870619194673,0.01826571421714762,-2.130127312460761e-05,-0.0010847612207185442,-1.2301624334409844e-05,-0.007288598391384515
149,0.015,482.292,162.094,2.5522e-05,279.603,-0.387387,-0.223425,0.00969494,-0.00109471,-0.00736826,0.0182237,-2.15062e-05,-1.24197e-05,0.0120157,0.009742088173862795,0.018390764924809844,-2.150596874328503e-05,-0.0010941110235963558,-1.2419622875792236e-05,-0.007341180921667023
150,0.0151,482.821,162.275,2.58972e-05,279.913,-0.38863,-0.224142,0.00975852,-0.00110406,-0.00742122,0.0183465,-2.17111e-05,-1.25379e-05,0.0121127,0.009806289616770991,0.018515830989641824,-2.171086431579372e-05,-0.0011034507499949608,-1.2537821400870897e-05,-0.007393750740664395
151,0.0152,483.347,162.455,2.62605e-05,280.22,-0.389861,-0.224853,0.0098221,-0.00111342,-0.00747418,0.0184693,-2.19163e-05,-1.26562e-05,0.0122096,0.00987049514173699,0.01864091241352961,-2.1916059839699464e-05,-0.0011128003779397044,-1.2656119910636754e-05,-0.007446317775637756
152,0.0153,483.87,162.635,2.66123e-05,280.527,-0.391082,-0.225558,0.00988568,-0.00112278,-0.00752715,0.018592,-2.21217e-05,-1.27747e-05,0.0123066,0.009934704749019918,0.018765907321763642,-2.212145531699239e-05,-0.0011221499183722283,-1.2774618403876836e-05,-0.007498891951745801
153,0.0154,484.39,162.813,2.69528e-05,280.831,-0.392292,-0.226256,0.00994924,-0.00113214,-0.00758011,0.0187148,-2.23275e-05,-1.28933e-05,0.0124036,0.00999889823890121,0.01889101945691052,-2.232725074324815e-05,-0.0011314993712934207,-1.2893216881804115e-05,-0.007551453418588094
154,0.0155,484.908,162.99,2.72824e-05,281.134,-0.393491,-0.226948,0.0100128,-0.0011415,-0.00763307,0.0188375,-2.25335e-05,-1.30121e-05,0.0125005,0.010063095809050404,0.019016045055161523,-2.2533246122558026e-05,-0.0011408487367042808,-1.3012015342983574e-05,-0.0076040121018489115
155,0.0156,485.422,163.166,2.76012e-05,281.435,-0.39468,-0.227635,0.0100764,-0.00115086,-0.00768603,0.0189603,-2.27397e-05,-1.31311e-05,0.0125975,0.010127337864819674,0.019141187909108348,-2.2739441455033038e-05,-0.0011501980146053636,-1.3131013787526236e-05,-0.007656568001675468
156,0.0157,485.934,163.341,2.79096e-05,281.734,-0.395859,-0.228315,0.0101399,-0.00116022,-0.00773899,0.019083,-2.29462e-05,-1.32502e-05,0.0126945,0.010191482987360168,0.01926624420491163,-2.2945936738016925e-05,-0.0011595472049976685,-1.3250112216534049e-05,-0.007709121118215312
157,0.0158,486.443,163.515,2.82078e-05,282.032,-0.397027,-0.228989,0.0102034,-0.00116958,-0.00779195,0.0192057,-2.3153e-05,-1.33694e-05,0.0127915,0.010255632183245211,0.019391315846063684,-2.3152731971398666e-05,-0.0011688963078819725,-1.3369310630007014e-05,-0.00776167145161577
158,0.0159,486.949,163.689,2.8496e-05,282.328,-0.398185,-0.229658,0.010267,-0.00117895,-0.00784491,0.0193284,-2.336e-05,-1.34888e-05,0.0128885,0.010319886484717156,0.019516402834447888,-2.335972715727941e-05,-0.0011782553114765282,-1.3488709026510115e-05,-0.00781421900202428
159,0.016,487.453,163.861,2.87746e-05,282.623,-0.399333,-0.230321,0.0103305,-0.00118831,-0.00789787,0.0194511,-2.35673e-05,-1.36083e-05,0.0129856,0.010384043834483325,0.019641505171947182,-2.356702229333596e-05,-0.0011876042392537922,-1.3608207407478368e-05,-0.00786676376958817
160,0.0161,487.954,164.033,2.90436e-05,282.916,-0.400472,-0.230978,0.010394,-0.00119768,-0.00795082,0.0195738,-2.37748e-05,-1.3728e-05,0.0130826,0.010448205258370313,0.01976662286044495,-2.377451738166947e-05,-0.0011969630675559007,-1.3727905771476756e-05,-0.007919295833647921
161,0.0162,488.452,164.203,2.93034e-05,283.208,-0.401601,-0.231629,0.0104575,-0.00120705,-0.00800378,0.0196965,-2.39825e-05,-1.38477e-05,0.0131796,0.010512370756637246,0.019891755901825015,-2.3982212422168914e-05,-0.0012063218081661553,-1.3847604121042245e-05,-0.007971835036490238
162,0.0163,488.948,164.373,2.95542e-05,283.498,-0.40272,-0.232275,0.010521,-0.00121642,-0.00805673,0.0198191,-2.41905e-05,-1.39677e-05,0.0132767,0.010576540329542805,0.020016802296285885,-2.4190207412178033e-05,-0.0012156804610855554,-1.3967602452091832e-05,-0.008024361537173674
163,0.0164,489.441,164.542,2.97962e-05,283.786,-0.403829,-0.232916,0.0105845,-0.00122578,-0.00810968,0.0199418,-2.43987e-05,-1.40877e-05,0.0133737,0.01064071397734545,0.02014196603656604,-2.4398402354131044e-05,-0.0012250290385650286,-1.4087600768819541e-05,-0.00807688525665251
164,0.0165,489.932,164.709,3.00295e-05,284.073,-0.40493,-0.233551,0.010648,-0.00123515,-0.00816263,0.0200645,-2.46071e-05,-1.42079e-05,0.0134708,0.010704891700304087,0.020267145135379527,-2.46067972478059e-05,-0.0012343875161983098,-1.420779906824432e-05,-0.008129406195074074
165,0.0166,490.42,164.876,3.02544e-05,284.359,-0.406021,-0.23418,0.0107115,-0.00124453,-0.00821558,0.0201871,-2.48158e-05,-1.43283e-05,0.0135678,0.010769073498677617,0.020392237555381776,-2.4815492090546343e-05,-0.0012437558937057336,-1.4328197350366167e-05,-0.008181924352585468
166,0.0167,490.906,165.043,3.04711e-05,284.643,-0.407102,-0.234805,0.0107749,-0.0012539,-0.00826853,0.0203097,-2.50247e-05,-1.44487e-05,0.0136649,0.0108331582894039,0.02051734531265481,-2.5024386884786587e-05,-0.0012531141958692649,-1.4448595618055116e-05,-0.008234439729334131
167,0.0168,491.389,165.208,3.06798e-05,284.926,-0.408175,-0.235424,0.0108384,-0.00126327,-0.00832148,0.0204324,-2.52338e-05,-1.45693e-05,0.013762,0.010897348232964399,0.02064257047333129,-2.523348163030459e-05,-0.0012624724103459384,-1.4569193868219088e-05,-0.008286952325467278
168,0.0169,491.87,165.372,3.08806e-05,285.207,-0.409239,-0.236038,0.0109019,-0.00127264,-0.00837442,0.020555,-2.54431e-05,-1.469e-05,0.013859,0.010961542252715617,0.020767708923301376,-2.5442776327100347e-05,-0.0012718305371365313,-1.4689892102515145e-05,-0.008339452224526589
169,0.017,492.348,165.536,3.10738e-05,285.487,-0.410294,-0.236647,0.0109653,-0.00128202,-0.00842737,0.0206776,-2.56527e-05,-1.48109e-05,0.0139561,0.011025639246347696,0.020892862716186178,-2.5652370972295557e-05,-0.0012811985634300083,-1.4810790319175204e-05,-0.008391959260395265
170,0.0171,492.824,165.699,3.12594e-05,285.765,-0.411341,-0.237251,0.0110288,-0.00129139,-0.00848031,0.0208002,-2.58625e-05,-1.49318e-05,0.0140532,0.011089841412837087,0.021018031853866637,-2.5862165568435458e-05,-0.0012905565147574016,-1.493168852118032e-05,-0.008444453600534585
171,0.0172,493.298,165.861,3.14378e-05,286.042,-0.412378,-0.23785,0.0110922,-0.00130077,-0.00853325,0.0209227,-2.60724e-05,-1.50529e-05,0.0141503,0.011153946540893855,0.021143114223907356,-2.6072060117954265e-05,-0.0012999243654020498,-1.505278670566046e-05,-0.008496945161697078
172,0.0173,493.769,166.022,3.16089e-05,286.318,-0.413407,-0.238444,0.0111556,-0.00131014,-0.00858619,0.0210453,-2.62826e-05,-1.51741e-05,0.0142474,0.011218055733344334,0.021268314044303516,-2.6282254615539458e-05,-0.0013092821412694633,-1.5173984873939617e-05,-0.00854943394402985
173,0.0174,494.238,166.183,3.17731e-05,286.592,-0.414428,-0.239033,0.0112191,-0.00131952,-0.00863913,0.0211679,-2.6493e-05,-1.52954e-05,0.0143445,0.011282270118668558,0.021393529215138374,-2.649264906362525e-05,-0.0013186498162685023,-1.5295283026017792e-05,-0.008601919947680114
174,0.0175,494.705,166.342,3.19304e-05,286.865,-0.415441,-0.239618,0.0112825,-0.0013289,-0.00869206,0.0212904,-2.67036e-05,-1.54169e-05,0.0144416,0.011346387447092043,0.021518657586423462,-2.6703243462100623e-05,-0.001328017403399162,-1.5416781160237925e-05,-0.00865439325933881
175,0.0176,495.17,166.501,3.2081e-05,287.137,-0.416445,-0.240198,0.0113459,-0.00133828,-0.008745,0.021413,-2.69144e-05,-1.55384e-05,0.0145388,0.011410508840682843,0.02164390345125833,-2.691403781074353e-05,-0.0013373849026623308,-1.553827927969209e-05,-0.008706873706589957
176,0.0177,495.632,166.659,3.22251e-05,287.407,-0.417441,-0.240772,0.0114093,-0.00134766,-0.00879793,0.0215355,-2.71253e-05,-1.56601e-05,0.0146359,0.011474634299698971,0.021769062495266,-2.7124932112321254e-05,-0.0013467523140586746,-1.5659977381288215e-05,-0.008759341463193238
177,0.0178,496.092,166.817,3.23627e-05,287.676,-0.418429,-0.241343,0.0114727,-0.00135704,-0.00885086,0.021658,-2.73365e-05,-1.57819e-05,0.014733,0.011538763824398002,0.021894236872195716,-2.733612636129923e-05,-0.0013561196375891926,-1.5781775466461312e-05,-0.008811806442751702
178,0.0179,496.55,166.973,3.24941e-05,287.944,-0.419409,-0.241908,0.0115361,-0.00136642,-0.00890379,0.0217806,-2.75479e-05,-1.59037e-05,0.0148301,0.011602897415037727,0.022019528785873543,-2.754752056011167e-05,-0.001365486873254551,-1.5903573536868443e-05,-0.008864268645412232
179,0.018,497.006,167.129,3.26193e-05,288.211,-0.420381,-0.24247,0.0115994,-0.0013758,-0.00895672,0.0219031,-2.77594e-05,-1.60257e-05,0.0149273,0.01166693390517759,0.022144733846803266,-2.7759014711414842e-05,-0.0013748540210556381,-1.6025571589195486e-05,-0.008916728071321822
180,0.0181,497.459,167.284,3.27385e-05,288.476,-0.421346,-0.243026,0.0116628,-0.00138518,-0.00900964,0.0220256,-2.79712e-05,-1.61478e-05,0.0150244,0.011731075622058107,0.0222699542462923,-2.7970808809674175e-05,-0.001384221080993342,-1.614766962498848e-05,-0.008969174810319336
181,0.0182,497.911,167.439,3.28519e-05,288.74,-0.422302,-0.243578,0.0117262,-0.00139456,-0.00906257,0.022148,-2.81831e-05,-1.627e-05,0.0151216,0.011795221405652478,0.022395087746706066,-2.818270286020219e-05,-0.0013935880530684397,-1.6269867644247427e-05,-0.009021628683692606
182,0.0183,498.36,167.592,3.29595e-05,289.003,-0.423251,-0.244126,0.0117895,-0.00140394,-0.00911549,0.0222705,-2.83952e-05,-1.63923e-05,0.0152187,0.011859270070286199,0.022520338816426566,-2.8394796860120586e-05,-0.0014029549372818195,-1.6392165646972323e-05,-0.009074069871496615
183,0.0184,498.807,167.745,3.30614e-05,289.264,-0.424193,-0.24467,0.0118529,-0.00141333,-0.00916841,0.022393,-2.86075e-05,-1.65148e-05,0.0153159,0.011923423981666126,0.022645605230342758,-2.860709080942936e-05,-0.0014123317195108287,-1.6514663631395088e-05,-0.009126508284186374
184,0.0185,499.252,167.897,3.31579e-05,289.525,-0.425127,-0.245209,0.0119162,-0.00142271,-0.00922133,0.0225154,-2.88199e-05,-1.66373e-05,0.015413,0.011987480761779912,0.022770784713251002,-2.881948471067375e-05,-0.0014216984279094014,-1.6637161600940864e-05,-0.009178943921908767
185,0.0186,499.696,168.049,3.32489e-05,289.784,-0.426053,-0.245744,0.0119796,-0.00143209,-0.00927424,0.0226379,-2.90326e-05,-1.67599e-05,0.0155102,0.01205164280197546,0.022896081808668756,-2.9032178558097144e-05,-0.0014310650484485876,-1.6759759553619524e-05,-0.009231366877124336
186,0.0187,500.137,168.2,3.33347e-05,290.042,-0.426973,-0.246274,0.0120429,-0.00144148,-0.00932716,0.0227603,-2.92454e-05,-1.68826e-05,0.0156074,0.012115707698597378,0.023021291951786482,-2.9244972357456156e-05,-0.0014404415667249593,-1.6882457489764136e-05,-0.00928379696587689
187,0.0188,500.576,168.35,3.34153e-05,290.298,-0.427885,-0.246801,0.0121062,-0.00145086,-0.00938007,0.0228827,-2.94584e-05,-1.70054e-05,0.0157045,0.012179776650655727,0.023146517421563928,-2.9457966105650435e-05,-0.0014498080114544454,-1.700525540904163e-05,-0.009336214373464657
188,0.0189,501.013,168.499,3.34908e-05,290.554,-0.42879,-0.247323,0.0121696,-0.00146025,-0.00943298,0.0230052,-2.96715e-05,-1.71283e-05,0.0158017,0.01224395088279695,0.023271860547057655,-2.9671059805447264e-05,-0.0014591843537351545,-1.712815331145201e-05,-0.00938862900772075
189,0.019,501.448,168.648,3.35613e-05,290.809,-0.429688,-0.247842,0.0122329,-0.00146964,-0.00948588,0.0231276,-2.98848e-05,-1.72513e-05,0.0158989,0.012308027952905753,0.02339711668830824,-2.9884353453857315e-05,-0.0014685606079725133,-1.7251151197217318e-05,-0.009441030963202257
190,0.0191,501.882,168.796,3.3627e-05,291.062,-0.430579,-0.248356,0.0122962,-0.00147902,-0.00953879,0.02325,-3.00983e-05,-1.73744e-05,0.015996,0.012372109079221483,0.023522388161848484,-3.0097847050658544e-05,-0.0014779267889465375,-1.7374249066004488e-05,-0.009493440051759339
191,0.0192,502.313,168.943,3.36879e-05,291.314,-0.431463,-0.248866,0.0123595,-0.00148841,-0.00959169,0.0233724,-3.03119e-05,-1.74976e-05,0.0160932,0.012436194262000821,0.023647674969555776,-3.03114405989513e-05,-0.0014873028671932298,-1.7497446917924542e-05,-0.009545836462883317
192,0.0193,502.742,169.09,3.37441e-05,291.565,-0.43234,-0.249372,0.0124228,-0.0014978,-0.00964459,0.0234947,-3.05257e-05,-1.76209e-05,0.0161904,0.012500283501500675,0.023772874736014193,-3.052523409552421e-05,-0.0014966788573990142,-1.7620744752866457e-05,-0.009598230102310534
193,0.0194,503.17,169.236,3.37957e-05,291.815,-0.433211,-0.249875,0.012486,-0.00150718,-0.00969749,0.0236171,-3.07396e-05,-1.77443e-05,0.0162876,0.012564275541544934,0.023898192205154656,-3.073912754336661e-05,-0.001506044774625126,-1.7744142570830235e-05,-0.009650620970187429
194,0.0195,503.596,169.382,3.38429e-05,292.064,-0.434074,-0.250373,0.0125493,-0.00151657,-0.00975039,0.0237394,-3.09537e-05,-1.78677e-05,0.0163848,0.01262837288884655,0.024023422611744616,-3.095322093915609e-05,-0.0015154205888451289,-1.7867540373583957e-05,-0.009703009066660662
195,0.0196,504.02,169.527,3.38857e-05,292.312,-0.434931,-0.250868,0.0126126,-0.00152596,-0.00980328,0.0238618,-3.1168e-05,-1.79913e-05,0.016482,0.01269247429363829,0.024148770749821802,-3.116751428289266e-05,-0.0015247963150266663,-1.7991138157480435e-05,-0.009755384489430918
196,0.0197,504.442,169.671,3.39241e-05,292.558,-0.435782,-0.251359,0.0126759,-0.00153535,-0.00985617,0.0239841,-3.13824e-05,-1.81149e-05,0.0165792,0.012756579756177722,0.02427403180404175,-3.138190757767667e-05,-0.0015341719531706266,-1.811473592616686e-05,-0.009807757142138218
197,0.0198,504.862,169.814,3.39583e-05,292.804,-0.436626,-0.251846,0.0127391,-0.00154474,-0.00990906,0.0241065,-3.15969e-05,-1.82386e-05,0.0166764,0.01282058799465724,0.024399410618561435,-3.159640082317505e-05,-0.0015435475032776758,-1.823843367776412e-05,-0.009860127024929222
198,0.0199,505.28,169.957,3.39884e-05,293.049,-0.437463,-0.25233,0.0128024,-0.00155413,-0.00996195,0.0242288,-3.18116e-05,-1.83624e-05,0.0167736,0.012884701567050572,0.02452470232791204,-3.181109401639848e-05,-0.001552922965348813,-1.83622314121612e-05,-0.009912494137950367
199,0.02,505.697,170.1,3.40144e-05,293.292,-0.438295,-0.252809,0.0128656,-0.00156352,-0.0100148,0.0243511,-3.20265e-05,-1.84863e-05,0.0168708,0.012948717903084495,0.024650009361375735,-3.20259871571249e-05,-0.0015622983393847045,-1.8486129129358098e-05,-0.009964818879941717
200,0.0201,506.112,170.241,3.40364e-05,293.535,-0.439119,-0.253285,0.0129288,-0.00157291,-0.0100677,0.0244734,-3.22414e-05,-1.86102e-05,0.016968,0.013012738285078651,0.024775331720826577,-3.224088025166605e-05,-0.0015716736253862384,-1.861002683134494e-05,-0.010017190355785188
201,0.0202,506.525,170.383,3.40546e-05,293.776,-0.439938,-0.253758,0.0129921,-0.0015823,-0.0101206,0.0245957,-3.24566e-05,-1.87343e-05,0.0170652,0.013076864020970191,0.02490066940813951,-3.245607329027678e-05,-0.001581048823354303,-1.873412451414147e-05,-0.010069559061250954
202,0.0203,506.936,170.523,3.40689e-05,294.017,-0.44075,-0.254227,0.0130553,-0.00159169,-0.0101735,0.0247179,-3.26718e-05,-1.88584e-05,0.0171624,0.01314089250205508,0.025025919922591733,-3.2671266282591205e-05,-0.0015904239332895642,-1.88582221815059e-05,-0.010121924996485343
203,0.0204,507.346,170.663,3.40794e-05,294.256,-0.441557,-0.254692,0.0131185,-0.00160108,-0.0102263,0.0248402,-3.28872e-05,-1.89826e-05,0.0172596,0.013204925029867809,0.02515128825871571,-3.288665922196454e-05,-0.0015997989551931324,-1.8982419831559127e-05,-0.01017418917905899
204,0.0205,507.754,170.802,3.40862e-05,294.494,-0.442357,-0.255154,0.0131817,-0.00161047,-0.0102792,0.0249624,-3.31027e-05,-1.91069e-05,0.0173568,0.013268961604664176,0.025276569400662696,-3.3102152111719185e-05,-0.0016091738890655627,-1.910671746430115e-05,-0.010226549579506639
205,0.0206,508.16,170.941,3.40895e-05,294.732,-0.443151,-0.255613,0.0132449,-0.00161986,-0.0103321,0.0250847,-3.33184e-05,-1.92312e-05,0.017454,0.013333002226699753,0.02540196839309261,-3.331784494831069e-05,-0.0016185487349077432,-1.923101508161107e-05,-0.010278907210162336
206,0.0207,508.564,171.079,3.40891e-05,294.968,-0.443939,-0.256068,0.0133081,-0.00162925,-0.010385,0.0252069,-3.35342e-05,-1.93557e-05,0.0175512,0.01339704689623078,0.025527280170023925,-3.353363773495044e-05,-0.0016279234927205621,-1.9355512679619657e-05,-0.010331262071172631
207,0.0208,508.967,171.217,3.40853e-05,295.204,-0.444721,-0.256519,0.0133713,-0.00163865,-0.0104378,0.0253291,-3.37501e-05,-1.94802e-05,0.0176484,0.01346109561351283,0.025652607260989946,-3.3749530471749445e-05,-0.0016373081461317218,-1.9480010262085123e-05,-0.010383515201040527
208,0.0209,509.369,171.354,3.40781e-05,295.438,-0.445498,-0.256967,0.0134345,-0.00164804,-0.0104907,0.0254514,-3.39661e-05,-1.96047e-05,0.0177456,0.013525148378801699,0.02577805224566232,-3.396552315859669e-05,-0.0016466827277945573,-1.960450782911849e-05,-0.01043586452843448
209,0.021,509.768,171.49,3.40675e-05,295.672,-0.446269,-0.257412,0.0134977,-0.00165743,-0.0105435,0.0255736,-3.41823e-05,-1.97294e-05,0.0178428,0.013589205192353182,0.02590340998284857,-3.418171579183671e-05,-0.0016560572214304736,-1.9729205376628478e-05,-0.010488112135438432
210,0.0211,510.166,171.626,3.40537e-05,295.904,-0.447034,-0.257854,0.0135608,-0.00166682,-0.0105964,0.0256958,-3.43986e-05,-1.98541e-05,0.01794,0.013653164689101605,0.026028783039686143,-3.439800837490292e-05,-0.001665431627040248,-1.9853902908706367e-05,-0.010540455929800907
211,0.0212,510.563,171.762,3.40366e-05,296.136,-0.447793,-0.258292,0.013624,-0.00167622,-0.0106492,0.0258179,-3.4615e-05,-1.99789e-05,0.0180373,0.013717229593539715,0.0261540688026356,-3.461440090779533e-05,-0.0016748159278766606,-1.9978700423139983e-05,-0.01059269801452456
212,0.0213,510.957,171.896,3.40163e-05,296.367,-0.448547,-0.258727,0.0136871,-0.00168561,-0.0107021,0.0259401,-3.48315e-05,-2.01038e-05,0.0181345,0.01378119716888282,0.026279472491852696,-3.4830893390291884e-05,-0.0016841901573430018,-2.0103597919929328e-05,-0.010645036276440423
213,0.0214,511.351,172.031,3.3993e-05,296.597,-0.449295,-0.259159,0.0137503,-0.001695,-0.0107549,0.0260623,-3.50481e-05,-2.02287e-05,0.0182317,0.013845270165229184,0.026404891506336847,-3.504748582250361e-05,-0.0016935642987857547,-2.022849540117555e-05,-0.010697272839467642
214,0.0215,511.742,172.164,3.39665e-05,296.825,-0.450037,-0.259587,0.0138134,-0.0017044,-0.0108078,0.0261844,-3.52649e-05,-2.03537e-05,0.0183289,0.013909245820187488,0.02653022319493359,-3.5264278200775045e-05,-0.0017029483351762575,-2.0353492864888523e-05,-0.010749605569521425
215,0.0216,512.132,172.298,3.39371e-05,297.053,-0.450774,-0.260013,0.0138766,-0.00171379,-0.0108606,0.0263066,-3.54818e-05,-2.04787e-05,0.0184261,0.0139733269094644,0.026655672853026058,-3.5481170528428585e-05,-0.0017123223004805732,-2.0478490312836328e-05,-0.010801836611435744
216,0.0217,512.521,172.43,3.39047e-05,297.281,-0.451506,-0.260435,0.0139397,-0.00172318,-0.0109135,0.0264287,-3.56987e-05,-2.06038e-05,0.0185233,0.014037310645057977,0.02678103516389463,-3.569806280900867e-05,-0.001721696177763743,-2.0603587743139862e-05,-0.010854163810212425
217,0.0218,512.908,172.562,3.38695e-05,297.507,-0.452232,-0.260854,0.0140028,-0.00173258,-0.0109663,0.0265508,-3.59158e-05,-2.0729e-05,0.0186205,0.014101298418152552,0.026906412782436107,-3.5915155035426416e-05,-0.0017310799497158857,-2.0728785155799123e-05,-0.010906389331597377
218,0.0219,513.294,172.694,3.38314e-05,297.732,-0.452953,-0.261271,0.0140659,-0.00174197,-0.0110191,0.0266729,-3.6133e-05,-2.08543e-05,0.0187178,0.014165290229003258,0.02703180571051922,-3.613234721100422e-05,-0.0017404536508656143,-2.0854082550592068e-05,-0.010958612095547493
219,0.022,513.678,172.825,3.37905e-05,297.956,-0.453669,-0.261684,0.014129,-0.00175136,-0.011072,0.026795,-3.63503e-05,-2.09796e-05,0.018815,0.014229286077864556,0.027157213950013803,-3.634963933585311e-05,-0.0017498272639966395,-2.0979379929730868e-05,-0.011010931001120383
220,0.0221,514.06,172.956,3.37468e-05,298.18,-0.454379,-0.262094,0.0141921,-0.00176076,-0.0111248,0.0269171,-3.65678e-05,-2.11049e-05,0.0189122,0.014293285964991131,0.02728263750278903,-3.65671314062066e-05,-0.0017592107715177496,-2.1104677293215524e-05,-0.01106314824541621
221,0.0222,514.441,173.086,3.37005e-05,298.403,-0.455085,-0.262501,0.0142552,-0.00177015,-0.0111776,0.0270392,-3.67853e-05,-2.12304e-05,0.0190094,0.014357289890638114,0.027408076370715184,-3.678462342915356e-05,-0.0017685842085203296,-2.123017463662169e-05,-0.011115362732714185
222,0.0223,514.821,173.215,3.36515e-05,298.624,-0.455785,-0.262905,0.0143183,-0.00177955,-0.0112304,0.0271613,-3.70029e-05,-2.13559e-05,0.0191066,0.014421297855060411,0.027533530555662322,-3.700221540114956e-05,-0.0017779675397270323,-2.1355671964373713e-05,-0.01116757446316008
223,0.0224,515.199,173.345,3.36e-05,298.845,-0.45648,-0.263306,0.0143814,-0.00178894,-0.0112833,0.0272833,-3.72206e-05,-2.14814e-05,0.0192038,0.014485309858512485,0.0276588972936056,-3.721990732208358e-05,-0.0017873408006042757,-2.1481169276360568e-05,-0.011219882314916108
224,0.0225,515.576,173.473,3.35459e-05,299.065,-0.45717,-0.263705,0.0144445,-0.00179833,-0.0113361,0.0274054,-3.74385e-05,-2.1607e-05,0.0193011,0.014549325901249466,0.027784382105656924,-3.74377991880781e-05,-0.0017967139734670345,-2.1606766570481106e-05,-0.01127208852687378
225,0.0226,515.951,173.601,3.34893e-05,299.285,-0.457855,-0.2641,0.0145075,-0.00180773,-0.0113889,0.0275274,-3.76564e-05,-2.17327e-05,0.0193983,0.0146132445221967,0.027909779449356353,-3.76556910066661e-05,-0.00180609704025525,-2.1732463846624306e-05,-0.011324291982416246
226,0.0227,516.325,173.729,3.34302e-05,299.503,-0.458535,-0.264493,0.0145706,-0.00181712,-0.0114417,0.0276494,-3.78744e-05,-2.18584e-05,0.0194955,0.01467726863786556,0.028035192092464856,-3.7873682773970074e-05,-0.0018154700369976684,-2.1858161106891316e-05,-0.011376492681688943
227,0.0228,516.698,173.856,3.33687e-05,299.721,-0.45921,-0.264882,0.0146337,-0.00182652,-0.0114945,0.0277714,-3.80925e-05,-2.19841e-05,0.0195927,0.014741296793583825,0.02816062003684916,-3.8091774489878993e-05,-0.001824852927479692,-2.198385835139316e-05,-0.011428690624837534
228,0.0229,517.069,173.983,3.33048e-05,299.938,-0.459881,-0.265269,0.0146967,-0.00183591,-0.0115473,0.0278934,-3.83107e-05,-2.211e-05,0.0196899,0.0148052275090782,0.028286063284376217,-3.830996615450388e-05,-0.0018342257481052116,-2.2109755575705492e-05,-0.011480885812007458
229,0.023,517.439,174.109,3.32386e-05,300.154,-0.460546,-0.265653,0.0147597,-0.00184531,-0.0116001,0.0280154,-3.8529e-05,-2.22358e-05,0.0197871,0.014869162252334478,0.02841152183691298,-3.85282577676227e-05,-0.001843608462284374,-2.223555278646483e-05,-0.011533078243344264
230,0.0231,517.807,174.234,3.31701e-05,300.369,-0.461207,-0.266035,0.0148228,-0.0018547,-0.0116529,0.0281374,-3.87474e-05,-2.23617e-05,0.0198844,0.014933202516921762,0.02853699569632684,-3.874664932923544e-05,-0.0018529811067963253,-2.2361449979024783e-05,-0.011585267918993503
231,0.0232,518.174,174.36,3.30993e-05,300.583,-0.461863,-0.266413,0.0148858,-0.0018641,-0.0117057,0.0282594,-3.89658e-05,-2.24877e-05,0.0199816,0.014997145322857452,0.028662484864485416,-3.896504084310859e-05,-0.0018623636446758463,-2.24874471536074e-05,-0.011637454839100503
232,0.0233,518.54,174.484,3.30263e-05,300.797,-0.462514,-0.266789,0.0149488,-0.00187349,-0.0117585,0.0283813,-3.91844e-05,-2.26137e-05,0.0200788,0.01506109215731688,0.02878788646446262,-3.9183632301376115e-05,-0.001871736113077449,-2.2613444312202802e-05,-0.011689639003810925
233,0.0234,518.904,174.609,3.29512e-05,301.009,-0.463161,-0.267162,0.0150118,-0.00188288,-0.0118113,0.0285033,-3.9403e-05,-2.27398e-05,0.020176,0.015125043020553841,0.028913406243161965,-3.940222371201507e-05,-0.0018811084934720057,-2.2739541452709844e-05,-0.01174182041327021
234,0.0235,519.267,174.732,3.28739e-05,301.222,-0.463803,-0.267533,0.0150749,-0.00189228,-0.0118641,0.0286252,-3.96218e-05,-2.28659e-05,0.0202732,0.015189099431726971,0.02903883843231969,-3.962101506682636e-05,-0.001890490766955355,-2.2865638577340697e-05,-0.011793999067623795
235,0.0236,519.629,174.856,3.27945e-05,301.433,-0.46444,-0.267901,0.0151379,-0.00190167,-0.0119169,0.0287472,-3.98406e-05,-2.29921e-05,0.0203704,0.015253058359676386,0.029164388829026944,-3.9839806373787034e-05,-0.0018998629712445592,-2.2991835683661144e-05,-0.011846174967017231
236,0.0237,519.989,174.979,3.2713e-05,301.643,-0.465073,-0.268266,0.0152008,-0.00191107,-0.0119696,0.0288691,-4.00595e-05,-2.31183e-05,0.0204676,0.015316919785467897,0.029289851614826556,-4.005869762890857e-05,-0.0019092450684367046,-2.3118032774216424e-05,-0.01189824930142569
237,0.0238,520.348,175.101,3.26295e-05,301.853,-0.465701,-0.268629,0.0152638,-0.00192046,-0.0120224,0.028991,-4.02785e-05,-2.32446e-05,0.0205648,0.015380886766353186,0.029415329695472003,-4.027768883207994e-05,-0.0019186170966236649,-2.3244329846350276e-05,-0.011950419696551973
238,0.0239,520.706,175.223,3.2544e-05,302.062,-0.466325,-0.268989,0.0153268,-0.00192986,-0.0120752,0.0291129,-4.04975e-05,-2.33709e-05,0.020662,0.015444857777284993,0.029540823072828015,-4.0496679987289674e-05,-0.0019279990175279371,-2.3370626902607938e-05,-0.012002587337154202
239,0.024,521.062,175.345,3.24565e-05,302.27,-0.466945,-0.269347,0.0153898,-0.00193925,-0.012128,0.0292348,-4.07166e-05,-2.34973e-05,0.0207592,0.015508832818517782,0.02966633174875888,-4.0715771090438224e-05,-0.0019373708696162062,-2.3497023940555195e-05,-0.012054752223377707
240,0.0241,521.418,175.466,3.2367e-05,302.478,-0.46756,-0.269702,0.0154528,-0.00194865,-0.0121807,0.0293567,-4.09358e-05,-2.36237e-05,0.0208564,0.015572811890304905,0.02979185572512999,-4.093496214152559e-05,-0.001946752614235825,-2.3623420962626263e-05,-0.012106815566054308
241,0.0242,521.772,175.587,3.22757e-05,302.684,-0.468171,-0.270054,0.0155157,-0.00195804,-0.0122335,0.0294785,-4.11551e-05,-2.37501e-05,0.0209536,0.015636693429226023,0.02991729201207205,-4.1154253140440744e-05,-0.0019561242902286224,-2.3749817968599096e-05,-0.012158974949172618
242,0.0243,522.124,175.707,3.21825e-05,302.89,-0.468777,-0.270404,0.0155787,-0.00196743,-0.0122863,0.0296004,-4.13745e-05,-2.38766e-05,0.0210508,0.015700680556485436,0.03004284658236389,-4.137364408718369e-05,-0.0019654958782219234,-2.3876314956261524e-05,-0.012211131578348189
243,0.0244,522.476,175.827,3.20875e-05,303.096,-0.469379,-0.270752,0.0156416,-0.00197683,-0.012339,0.0297222,-4.15939e-05,-2.40031e-05,0.021148,0.015764570138598888,0.030168313441854444,-4.159303498574296e-05,-0.001974877358467575,-2.400281192793674e-05,-0.012263186680049998
244,0.0245,522.826,175.946,3.19906e-05,303.3,-0.469977,-0.271097,0.0157046,-0.00198622,-0.0123918,0.0298441,-4.18134e-05,-2.41297e-05,0.0212452,0.015828565322344668,0.030293898613523496,-4.1812525832019e-05,-0.0019842487703704004,-2.4129408881079506e-05,-0.012315337806991455
245,0.0246,523.175,176.065,3.1892e-05,303.504,-0.47057,-0.271439,0.0157675,-0.00199562,-0.0124445,0.0299659,-4.2033e-05,-2.42563e-05,0.0213424,0.015892462948662756,0.030419396053013692,-4.203211662578976e-05,-0.001993630074339725,-2.4256005818346082e-05,-0.012367387417169806
246,0.0247,523.523,176.184,3.17916e-05,303.707,-0.47116,-0.271779,0.0158304,-0.00200501,-0.0124973,0.0300877,-4.22526e-05,-2.43829e-05,0.0214396,0.015956364594267747,0.030544908779022828,-4.225170737148787e-05,-0.0020030013101552946,-2.4382602739514425e-05,-0.012419533042457465
247,0.0248,523.87,176.302,3.16895e-05,303.91,-0.471745,-0.272117,0.0158933,-0.0020144,-0.01255,0.0302095,-4.24723e-05,-2.45096e-05,0.0215368,0.016020270259412994,0.03067043679341297,-4.24713980646807e-05,-0.0020123724579753643,-2.450929964226134e-05,-0.01247157716169156
248,0.0249,524.215,176.42,3.15857e-05,304.111,-0.472326,-0.272453,0.0159563,-0.0020238,-0.0126028,0.0303313,-4.26921e-05,-2.46363e-05,0.021634,0.01608428155277375,0.030795980098046405,-4.269118870525723e-05,-0.0020217534975833784,-2.4635996528798998e-05,-0.012523717285906066
249,0.025,524.559,176.537,3.14802e-05,304.312,-0.472903,-0.272786,0.0160192,-0.00203319,-0.0126555,0.0304531,-4.29119e-05,-2.47631e-05,0.0217312,0.01614819526414868,0.030921538694785644,-4.2910979297539065e-05,-0.0020311244693211883,-2.4762793396915228e-05,-0.012575755914775222
250,0.0251,524.902,176.654,3.13731e-05,304.513,-0.473476,-0.273116,0.0160821,-0.00204258,-0.0127082,0.0305749,-4.31318e-05,-2.48899e-05,0.0218284,0.01621211299582237,0.03104711258549342,-4.313086983731562e-05,-0.002040495353066052,-2.4889590249044247e-05,-0.012627791801280819
251,0.0252,525.244,176.771,3.12644e-05,304.712,-0.474045,-0.273445,0.016145,-0.00205198,-0.012761,0.0306966,-4.33518e-05,-2.50167e-05,0.0219256,0.01627603474804773,0.031172598654767514,-4.335086032425384e-05,-0.002049876128320083,-2.501638708496401e-05,-0.012679923677580085
252,0.0253,525.585,176.887,3.1154e-05,304.911,-0.47461,-0.273771,0.0162079,-0.00206137,-0.0128137,0.0308184,-4.35718e-05,-2.51436e-05,0.0220227,0.01633996052107789,0.031298203126440605,-4.357085076289735e-05,-0.0020592468359876825,-2.514328390235132e-05,-0.012731954074589269
253,0.0254,525.925,177.003,3.10422e-05,305.11,-0.475171,-0.274095,0.0162707,-0.00207076,-0.0128664,0.0309401,-4.37919e-05,-2.52705e-05,0.0221199,0.01640378867478165,0.03142371975529312,-4.379094114870252e-05,-0.0020686174556647785,-2.52701807036404e-05,-0.01278398172966877
254,0.0255,526.263,177.118,3.09287e-05,305.307,-0.475728,-0.274416,0.0163336,-0.00208016,-0.0129191,0.0310618,-4.4012e-05,-2.53974e-05,0.0222171,0.016467722483786584,0.03154925166044875,-4.401103148610197e-05,-0.0020779979665721537,-2.539707748872022e-05,-0.012836006642963138
255,0.0256,526.601,177.233,3.08138e-05,305.504,-0.476281,-0.274736,0.0163965,-0.00208955,-0.0129719,0.0311836,-4.42322e-05,-2.55244e-05,0.0223143,0.0165316603143546,0.031674902011252115,-4.4231221770663076e-05,-0.002087368410176982,-2.5524074255267593e-05,-0.012888127525808923
256,0.0257,526.937,177.348,3.06974e-05,305.7,-0.476831,-0.275053,0.0164593,-0.00209894,-0.0130246,0.0313053,-4.44524e-05,-2.56514e-05,0.0224114,0.01659550050718339,0.03180046448714857,-4.4451412006707436e-05,-0.0020967387657937486,-2.5651071005605708e-05,-0.012940146950764397
257,0.0258,527.272,177.462,3.05795e-05,305.896,-0.477376,-0.275367,0.0165222,-0.00210833,-0.0130773,0.031427,-4.46727e-05,-2.57784e-05,0.0225086,0.016659446375241638,0.03192604224492812,-4.467170218980243e-05,-0.0021061090334232313,-2.577806773995661e-05,-0.012992163634368503
258,0.0259,527.606,177.576,3.04602e-05,306.091,-0.477918,-0.27568,0.0165851,-0.00211773,-0.01313,0.0315486,-4.48931e-05,-2.59055e-05,0.0226058,0.016723396265621693,0.03205153208129263,-4.489209231983704e-05,-0.0021154891919115126,-2.5905164455441998e-05,-0.01304417757676557
259,0.026,527.939,177.689,3.03394e-05,306.285,-0.478456,-0.275991,0.0166479,-0.00212712,-0.0131827,0.0316703,-4.51135e-05,-2.60325e-05,0.0227029,0.016787248499846363,0.03217714039585773,-4.51124824013549e-05,-0.0021248592834753888,-2.603216115737439e-05,-0.013096188778100037
260,0.0261,528.271,177.802,3.02173e-05,306.479,-0.47899,-0.276299,0.0167107,-0.00213651,-0.0132354,0.031792,-4.5334e-05,-2.61597e-05,0.0228001,0.016851104744117107,0.03230276399788501,-4.533297242970136e-05,-0.0021342292870544233,-2.6159357838007047e-05,-0.013148197238516457
261,0.0262,528.601,177.915,3.00937e-05,306.672,-0.47952,-0.276605,0.0167736,-0.0021459,-0.0132881,0.0319136,-4.55545e-05,-2.62868e-05,0.0228973,0.016915066690187608,0.03242829964640004,-4.5553462409531065e-05,-0.0021435992026496153,-2.628645450508671e-05,-0.013200202958159268
262,0.0263,528.931,178.027,2.99689e-05,306.865,-0.480047,-0.276909,0.0168364,-0.00215529,-0.0133408,0.0320353,-4.57751e-05,-2.6414e-05,0.0229944,0.016978930961693006,0.032553953816368164,-4.577405233607834e-05,-0.002152969030261631,-2.6413651153411877e-05,-0.0132522059371728
263,0.0264,529.259,178.139,2.98427e-05,307.056,-0.48057,-0.277211,0.0168992,-0.00216469,-0.0133935,0.0321569,-4.59957e-05,-2.65412e-05,0.0230916,0.01704279924400054,0.03267952001142205,-4.599464221399785e-05,-0.0021623487482680392,-2.6540847785416766e-05,-0.013304206175701605
264,0.0265,529.587,178.251,2.97151e-05,307.248,-0.481089,-0.277511,0.016962,-0.00217408,-0.0134462,0.0322785,-4.62163e-05,-2.66684e-05,0.0231887,0.017106671537362006,0.03280510147625382,-4.621523204328959e-05,-0.002171718399822775,-2.6668044401434443e-05,-0.01335620367389001
265,0.0266,529.913,178.362,2.95863e-05,307.438,-0.481605,-0.277808,0.0170248,-0.00218347,-0.0134988,0.0324001,-4.6437e-05,-2.67957e-05,0.0232859,0.017170547842029427,0.03293069821272021,-4.6435921819187875e-05,-0.0021810879633967772,-2.679534099847558e-05,-0.013408099772697413
266,0.0267,530.239,178.473,2.94562e-05,307.628,-0.482117,-0.278104,0.0170876,-0.00219286,-0.0135515,0.0325217,-4.66578e-05,-2.6923e-05,0.023383,0.017234428158255044,0.03305631022267819,-4.665671154180373e-05,-0.0021904574389910447,-2.6922637579307462e-05,-0.013460091795837625
267,0.0268,530.563,178.583,2.93249e-05,307.817,-0.482626,-0.278397,0.0171504,-0.00220225,-0.0136042,0.0326433,-4.68786e-05,-2.70503e-05,0.0234802,0.017298312486290213,0.03318193750798559,-4.687750121556977e-05,-0.0021998268266063548,-2.7049934143930088e-05,-0.013512081079070315
268,0.0269,530.886,178.694,2.91923e-05,308.006,-0.483131,-0.278689,0.0172132,-0.00221164,-0.0136569,0.0327649,-4.70994e-05,-2.71776e-05,0.0235773,0.017362200826387175,0.03330758007049939,-4.7098290840708046e-05,-0.0022091961262434845,-2.7177230692343457e-05,-0.013564067622539921
269,0.027,531.209,178.803,2.90586e-05,308.194,-0.483632,-0.278978,0.017276,-0.00222103,-0.0137095,0.0328865,-4.73203e-05,-2.7305e-05,0.0236745,0.017426093178797952,0.03343323791207786,-4.731918041223082e-05,-0.002218565337903433,-2.730462722189131e-05,-0.013615952787991215
270,0.0271,531.53,178.913,2.89236e-05,308.382,-0.48413,-0.279266,0.0173387,-0.00223042,-0.0137622,0.033008,-4.75412e-05,-2.74324e-05,0.0237716,0.017489887794780667,0.033558807678693015,-4.7540069935014806e-05,-0.002227934461586756,-2.7432023735118882e-05,-0.01366793385756604
271,0.0272,531.85,179.022,2.87874e-05,308.569,-0.484625,-0.279551,0.0174015,-0.00223981,-0.0138149,0.0331296,-4.77622e-05,-2.75598e-05,0.0238687,0.01755378816618469,0.03368449607140622,-4.7761059404294315e-05,-0.0022373034972944517,-2.7559420232248222e-05,-0.013719912187810768
272,0.0273,532.169,179.131,2.86501e-05,308.755,-0.485116,-0.279835,0.0174643,-0.0022492,-0.0138675,0.0332511,-4.79832e-05,-2.76872e-05,0.0239659,0.01761769255065837,0.03381009636774235,-4.798204882472401e-05,-0.002246672445027298,-2.7686816713057283e-05,-0.013771789156053482
273,0.0274,532.488,179.239,2.85117e-05,308.941,-0.485604,-0.280116,0.017527,-0.00225859,-0.0139202,0.0333726,-4.82042e-05,-2.78146e-05,0.024063,0.017681499180298044,0.03393571192544176,-4.820303819619287e-05,-0.0022560413047861827,-2.7814213177546065e-05,-0.01382376201326807
274,0.0275,532.805,179.347,2.83721e-05,309.126,-0.486088,-0.280396,0.0175898,-0.00226798,-0.0139728,0.0334941,-4.84253e-05,-2.79421e-05,0.0241601,0.017745411585275095,0.034061342746358525,-4.8424127514046234e-05,-0.002265410076571883,-2.794170962316933e-05,-0.013875633519153663
275,0.0276,533.121,179.455,2.82314e-05,309.31,-0.486569,-0.280674,0.0176525,-0.00227736,-0.0140255,0.0336156,-4.86464e-05,-2.80696e-05,0.0242572,0.01780922622314951,0.03418698883234739,-4.864521678304978e-05,-0.002274768783133041,-2.8069206052472317e-05,-0.013927600903914539
276,0.0277,533.436,179.562,2.80896e-05,309.494,-0.487047,-0.280949,0.0177152,-0.00228675,-0.0140781,0.0337371,-4.88675e-05,-2.81971e-05,0.0243543,0.017873044862327214,0.03431265018526308,-4.886630600320352e-05,-0.002284137379068518,-2.8196702465566048e-05,-0.013979466948018104
277,0.0278,533.751,179.669,2.79468e-05,309.678,-0.487521,-0.281223,0.017778,-0.00229614,-0.0141308,0.0338586,-4.90887e-05,-2.83247e-05,0.0244515,0.017936969296750815,0.034438326806960795,-4.908749516951971e-05,-0.0022935058870332536,-2.8324298859461194e-05,-0.014031428860901474
278,0.0279,534.064,179.776,2.78029e-05,309.861,-0.487992,-0.281495,0.0178407,-0.00230553,-0.0141834,0.0339801,-4.93099e-05,-2.84522e-05,0.0245486,0.018000795945670278,0.034564018699295485,-4.930868428687507e-05,-0.0023028743070282465,-2.845179524002539e-05,-0.014083289443798108
279,0.028,534.376,179.882,2.7658e-05,310.043,-0.48846,-0.281765,0.0179034,-0.00231492,-0.014236,0.0341015,-4.95312e-05,-2.85798e-05,0.0246457,0.018064626596645983,0.03468962239515583,-4.9529973350392886e-05,-0.002312242639054052,-2.8579391601391002e-05,-0.014135147298899864
280,0.0281,534.688,179.988,2.7512e-05,310.225,-0.488925,-0.282033,0.0179661,-0.0023243,-0.0142887,0.034223,-4.97524e-05,-2.87074e-05,0.0247428,0.018128461249929062,0.03481534482175941,-4.9751162369826574e-05,-0.0023216009063278253,-2.8706987946547358e-05,-0.014187101007644976
281,0.0282,534.998,180.094,2.73651e-05,310.406,-0.489386,-0.282299,0.0180288,-0.00233369,-0.0143413,0.0343444,-4.99737e-05,-2.8835e-05,0.0248399,0.018192299905770426,0.034940979030463115,-4.997245133542272e-05,-0.002330969062511734,-2.8834584275383435e-05,-0.014238953402402
282,0.0283,535.308,180.199,2.72171e-05,310.586,-0.489844,-0.282564,0.0180915,-0.00234308,-0.0143939,0.0344658,-5.01951e-05,-2.89626e-05,0.024937,0.018256142564420985,0.035066628492085306,-5.01938402470703e-05,-0.00234033713072912,-2.8962180587899233e-05,-0.0142908030697948
283,0.0284,535.616,180.304,2.70682e-05,310.766,-0.490299,-0.282826,0.0181542,-0.00235246,-0.0144465,0.0345873,-5.04164e-05,-2.90902e-05,0.0250341,0.01831998922613165,0.035192396727712794,-5.041512911463375e-05,-0.0023496951344776917,-2.9089776884205776e-05,-0.014342650009966929
284,0.0285,535.924,180.409,2.69183e-05,310.946,-0.490751,-0.283087,0.0182169,-0.00236185,-0.0144991,0.0347087,-5.06378e-05,-2.92179e-05,0.0251312,0.018383839891153553,0.03531807671329634,-5.063651792824864e-05,-0.002359063026858066,-2.9217473161313734e-05,-0.014394494223061605
285,0.0286,536.231,180.514,2.67674e-05,311.125,-0.491199,-0.283346,0.0182795,-0.00237124,-0.0145518,0.0348301,-5.08592e-05,-2.93455e-05,0.0252283,0.018447592714973204,0.03544377195735615,-5.0857906692791666e-05,-0.0023684308312743596,-2.934506942497972e-05,-0.014446434264583918
286,0.0287,536.536,180.618,2.66156e-05,311.303,-0.491645,-0.283603,0.0183422,-0.00238062,-0.0146044,0.0349514,-5.10807e-05,-2.94732e-05,0.0253253,0.018511451380984756,0.03556937890480194,-5.107939540327511e-05,-0.0023777885715052793,-2.9472765669558143e-05,-0.01449827301877038
287,0.0288,536.841,180.721,2.64629e-05,311.481,-0.492087,-0.283858,0.0184049,-0.00239001,-0.014657,0.0350728,-5.13021e-05,-2.96009e-05,0.0254224,0.018575314051060055,0.03569510465879988,-5.130078406978544e-05,-0.0023871562000894464,-2.9600461897705266e-05,-0.014550109046310156
288,0.0289,537.145,180.825,2.63093e-05,311.659,-0.492526,-0.284112,0.0184675,-0.00239939,-0.0147096,0.0351942,-5.15236e-05,-2.97286e-05,0.0255195,0.018639078861537595,0.03582084567683075,-5.152227268212517e-05,-0.0023965137646773105,-2.972815810953211e-05,-0.014601942347346575
289,0.029,537.448,180.928,2.61548e-05,311.835,-0.492963,-0.284364,0.0185302,-0.00240878,-0.0147622,0.0353155,-5.17451e-05,-2.98564e-05,0.0256166,0.018702949534106672,0.03594649836609287,-5.174376124539304e-05,-0.0024058812174327926,-2.985595430216037e-05,-0.014653772922022967
290,0.0291,537.751,181.031,2.59994e-05,312.012,-0.493396,-0.284614,0.0185928,-0.00241816,-0.0148148,0.0354369,-5.19667e-05,-2.99841e-05,0.0257136,0.018766722334815356,0.03607226990517254,-5.19653497544903e-05,-0.0024152386063807096,-2.9983650481346658e-05,-0.014705600770482996
291,0.0292,538.052,181.134,2.58432e-05,312.188,-0.493826,-0.284862,0.0186555,-0.00242755,-0.0148673,0.0355582,-5.21882e-05,-3.01118e-05,0.0258107,0.01883060101088141,0.03619795309404328,-5.218683821961445e-05,-0.0024246058833107265,-3.011134664432369e-05,-0.014757327368607465
292,0.0293,538.352,181.236,2.56861e-05,312.363,-0.494253,-0.285109,0.0187181,-0.00243693,-0.0149199,0.0356795,-5.24098e-05,-3.02396e-05,0.0259078,0.018894381802822657,0.03632365152920958,-5.240842663045697e-05,-0.002433963096622138,-3.023914278788009e-05,-0.014809149770246721
293,0.0294,538.652,181.338,2.55281e-05,312.538,-0.494678,-0.285354,0.0187807,-0.00244631,-0.0149725,0.0358008,-5.26314e-05,-3.03674e-05,0.0260048,0.01895816658756644,0.036449365212520846,-5.2630014992116614e-05,-0.0024433202221633143,-3.0366938915227237e-05,-0.014860969446099381
294,0.0295,538.951,181.439,2.53694e-05,312.712,-0.495099,-0.285597,0.0188433,-0.0024557,-0.0150251,0.0359221,-5.2853e-05,-3.04951e-05,0.0261019,0.019021955365362775,0.036575094145826714,-5.285160330481542e-05,-0.0024526872354082574,-3.049463502913241e-05,-0.014912786396308775
295,0.0296,539.248,181.541,2.52098e-05,312.886,-0.495517,-0.285838,0.0189059,-0.00246508,-0.0150777,0.0360434,-5.30747e-05,-3.06229e-05,0.0261989,0.019085748136461467,0.03670083833097726,-5.307329156301055e-05,-0.002462044185317813,-3.0622431123839e-05,-0.014964600621018231
296,0.0297,539.545,181.642,2.50494e-05,313.059,-0.495933,-0.286078,0.0189686,-0.00247446,-0.0151302,0.0361647,-5.32963e-05,-3.07507e-05,0.026296,0.01914964681607234,0.036826597769822556,-5.329487977745462e-05,-0.002471401047459576,-3.075022720211429e-05,-0.015016313622007504
297,0.0298,539.841,181.743,2.48882e-05,313.231,-0.496345,-0.286316,0.0190311,-0.00248384,-0.0151828,0.0362859,-5.3518e-05,-3.08785e-05,0.026393,0.01921334565956645,0.036952268768980945,-5.351656793739501e-05,-0.002480757821834434,-3.08780232640693e-05,-0.015068122401328155
298,0.0299,540.137,181.843,2.47263e-05,313.404,-0.496755,-0.286553,0.0190937,-0.00249323,-0.0152354,0.0364072,-5.37397e-05,-3.10064e-05,0.02649,0.019277150412072563,0.037078058708188255,-5.373825604815252e-05,-0.002490124483541911,-3.100591930649266e-05,-0.015119928455578635
299,0.03,540.431,181.943,2.45635e-05,313.575,-0.497162,-0.286787,0.0191563,-0.00250261,-0.0152879,0.0365284,-5.39613e-05,-3.11342e-05,0.0265871,0.019340959158881343,0.03720376018625937,-5.3959844115269995e-05,-0.00249948108229181,-3.113371533580711e-05,-0.01517163330207072
300,0.0301,540.725,182.043,2.44e-05,313.747,-0.497566,-0.28702,0.0192189,-0.00251199,-0.0153405,0.0366496,-5.41831e-05,-3.1262e-05,0.0266841,0.019404771900242812,0.037329476900272995,-5.418163212234095e-05,-0.0025088375932771356,-3.1261511348801285e-05,-0.01522343391179104
301,0.0302,541.017,182.143,2.42358e-05,313.917,-0.497967,-0.287252,0.0192815,-0.00252137,-0.015393,0.0367709,-5.44048e-05,-3.13899e-05,0.0267811,0.01946858863640677,0.03745531259760182,-5.4403320085660845e-05,-0.002518194016498776,-3.138940734226381e-05,-0.015275133324389234
302,0.0303,541.309,182.242,2.40708e-05,314.088,-0.498365,-0.287482,0.019344,-0.00253075,-0.0154456,0.0368921,-5.46265e-05,-3.15177e-05,0.0268782,0.019532307414387606,0.03758105980161508,-5.462500799990888e-05,-0.0025275503519576192,-3.1517203322506404e-05,-0.015326928490151492
303,0.0304,541.6,182.341,2.39052e-05,314.257,-0.498761,-0.28771,0.0194066,-0.00254013,-0.0154981,0.0370133,-5.48483e-05,-3.16456e-05,0.0269752,0.019596132134524602,0.0377068222471133,-5.484679585954222e-05,-0.0025369065996544427,-3.164509928332837e-05,-0.015378622469427006
304,0.0305,541.891,182.44,2.37388e-05,314.427,-0.499153,-0.287937,0.0194692,-0.00254951,-0.0155506,0.0371345,-5.507e-05,-3.17734e-05,0.0270722,0.019659960850214153,0.03783259993594368,-5.5068483675424496e-05,-0.0025462627595901344,-3.177289523081939e-05,-0.015430313734839718
305,0.0306,542.18,182.538,2.35717e-05,314.595,-0.499543,-0.288162,0.0195317,-0.00255889,-0.0156032,0.0372556,-5.52918e-05,-3.19013e-05,0.0271692,0.019723691589332182,0.03795828907411969,-5.529027143658105e-05,-0.0025556188317653605,-3.1900791158889774e-05,-0.01548210073832712
306,0.0307,542.469,182.636,2.34039e-05,314.764,-0.499931,-0.288386,0.0195943,-0.00256827,-0.0156557,0.0373768,-5.55135e-05,-3.20292e-05,0.0272662,0.019787528290493572,0.03808409724257644,-5.551195915420859e-05,-0.0025649748161811203,-3.202868707063988e-05,-0.015533786571273356
307,0.0308,542.756,182.734,2.32354e-05,314.932,-0.500315,-0.288607,0.0196568,-0.00257765,-0.0157082,0.0374979,-5.57353e-05,-3.2157e-05,0.0273632,0.01985126700282569,0.03820981683892044,-5.5733746816999385e-05,-0.00257433071283808,-3.2156482969170064e-05,-0.01558546969078467
308,0.0309,543.043,182.832,2.30662e-05,315.099,-0.500697,-0.288828,0.0197193,-0.00258703,-0.0157608,0.0376191,-5.59571e-05,-3.22849e-05,0.0274602,0.01991500969895177,0.038335655494389886,-5.595553443071832e-05,-0.0025836865217372385,-3.2284378848279616e-05,-0.01563724853328341
309,0.031,543.329,182.929,2.28964e-05,315.266,-0.501076,-0.289047,0.0197818,-0.0025964,-0.0158133,0.0377402,-5.61789e-05,-3.24128e-05,0.0275572,0.019978756379120943,0.038461405556282635,-5.617732199514336e-05,-0.002593032268809581,-3.2412274710846845e-05,-0.01568892622118423
310,0.0311,543.615,183.026,2.2726e-05,315.432,-0.501453,-0.289264,0.0198444,-0.00260578,-0.0158658,0.0378613,-5.64007e-05,-3.25407e-05,0.0276542,0.020042609047838056,0.03858717084743035,-5.6399109510385514e-05,-0.0026023879022889496,-3.254017055720482e-05,-0.015740601196077675
311,0.0312,543.9,183.123,2.25549e-05,315.598,-0.501827,-0.28948,0.0199069,-0.00261516,-0.0159183,0.0379824,-5.66225e-05,-3.26686e-05,0.0277512,0.020106363703215724,0.038712951369676896,-5.662089697655581e-05,-0.0026117434480128487,-3.266806638713149e-05,-0.015792273458106076
312,0.0313,544.183,183.219,2.23832e-05,315.764,-0.502198,-0.289694,0.0199694,-0.00262453,-0.0159708,0.0381035,-5.68443e-05,-3.27965e-05,0.0278481,0.02017012234338389,0.03883874712486701,-5.684268439343221e-05,-0.0026210889321930386,-3.279596220062686e-05,-0.015843943007411987
313,0.0314,544.466,183.316,2.22108e-05,315.929,-0.502566,-0.289907,0.0200319,-0.00263391,-0.0160233,0.0382246,-5.70661e-05,-3.29244e-05,0.0279451,0.020233884968591687,0.03896455811484545,-5.7064471761125724e-05,-0.002630444302502144,-3.2923857997912975e-05,-0.015895609844137848
314,0.0315,544.749,183.412,2.20378e-05,316.094,-0.502932,-0.290118,0.0200944,-0.00264329,-0.0160758,0.0383457,-5.7288e-05,-3.30523e-05,0.0280421,0.020297651579088027,0.039090384341457396,-5.7286359073871473e-05,-0.0026397995850582223,-3.305175377876779e-05,-0.01594727396842588
315,0.0316,545.03,183.507,2.18643e-05,316.258,-0.503296,-0.290328,0.0201568,-0.00265266,-0.0161283,0.0384668,-5.75098e-05,-3.31802e-05,0.028139,0.02036132013898495,0.039216225806548044,-5.750814634319923e-05,-0.002649144806353698,-3.3179649543302325e-05,-0.015998935380418633
316,0.0317,545.311,183.603,2.16901e-05,316.421,-0.503657,-0.290536,0.0202193,-0.00266204,-0.0161808,0.0385878,-5.77316e-05,-3.33081e-05,0.028236,0.020425094714428438,0.039341978577759784,-5.772993356323308e-05,-0.0026584999134998677,-3.330754529140556e-05,-0.01605059408025833
317,0.0318,545.591,183.698,2.15154e-05,316.585,-0.504015,-0.290743,0.0202818,-0.00267141,-0.0162333,0.0387089,-5.79534e-05,-3.3436e-05,0.028333,0.020488873275907427,0.039467850512757474,-5.795172073419508e-05,-0.0026678449595740616,-3.343544102318852e-05,-0.01610225006808763
318,0.0319,545.87,183.793,2.134e-05,316.748,-0.504371,-0.290948,0.0203443,-0.00268079,-0.0162858,0.0388299,-5.81752e-05,-3.35639e-05,0.0284299,0.02055265582367105,0.03959363373240077,-5.817350785586317e-05,-0.002677199891313653,-3.3563336738651195e-05,-0.016153903344048648
319,0.032,546.149,183.888,2.11641e-05,316.91,-0.504724,-0.291152,0.0204067,-0.00269016,-0.0163383,0.0389509,-5.83971e-05,-3.36918e-05,0.0285269,0.020616340296329305,0.03971943217273455,-5.83953949225835e-05,-0.0026865447621698957,-3.369123243768257e-05,-0.01620555390828393
320,0.0321,546.426,183.982,2.09877e-05,317.072,-0.505075,-0.291354,0.0204692,-0.00269953,-0.0163907,0.0390719,-5.86189e-05,-3.38197e-05,0.0286238,0.020680130811030484,0.03984524583560067,-5.861718194588583e-05,-0.002695889545465069,-3.381912812039367e-05,-0.016257103386650984
321,0.0322,546.703,184.076,2.08107e-05,317.233,-0.505423,-0.291555,0.0205316,-0.00270891,-0.0164432,0.0391929,-5.88407e-05,-3.39476e-05,0.0287207,0.020743823238376313,0.039971074722841005,-5.8838968920005286e-05,-0.0027052442141477506,-3.394702378678449e-05,-0.01630874853302633
322,0.0323,546.98,184.17,2.06331e-05,317.394,-0.505768,-0.291755,0.0205941,-0.00271828,-0.0164957,0.0393139,-5.90625e-05,-3.40754e-05,0.0288177,0.020807621721010472,0.040096918836297624,-5.906075584483084e-05,-0.0027145888222298575,-3.407481944017743e-05,-0.01636039096810249
323,0.0324,547.255,184.264,2.0455e-05,317.555,-0.506112,-0.291953,0.0206565,-0.00272765,-0.0165482,0.0394349,-5.92843e-05,-3.42033e-05,0.0289146,0.020871322104037082,0.0402227781778135,-5.928254272058453e-05,-0.0027239333427534484,-3.420271507381667e-05,-0.016412030692022017
324,0.0325,547.53,184.357,2.02764e-05,317.715,-0.506453,-0.29215,0.0207189,-0.00273702,-0.0166006,0.0395559,-5.95061e-05,-3.43312e-05,0.0290115,0.020935026462091777,0.04034865274923094,-5.9504329547155344e-05,-0.0027332777757193005,-3.433061069113563e-05,-0.01646356935128912
325,0.0326,547.804,184.45,2.00973e-05,317.875,-0.506791,-0.292345,0.0207813,-0.0027464,-0.0166531,0.0396768,-5.97279e-05,-3.44591e-05,0.0291084,0.020998734795422358,0.04047443850494403,-5.972611632454328e-05,-0.0027426320937019577,-3.4458506292023294e-05,-0.0165152036584858
326,0.0327,548.077,184.543,1.99177e-05,318.034,-0.507127,-0.292539,0.0208437,-0.00275577,-0.0167055,0.0397978,-5.99497e-05,-3.4587e-05,0.0292054,0.02106244710427685,0.04060034352910358,-5.994790305263731e-05,-0.002751976351461294,-3.458640187659068e-05,-0.01656673691163102
327,0.0328,548.35,184.636,1.97375e-05,318.193,-0.50746,-0.292731,0.0209062,-0.00276514,-0.016758,0.0399187,-6.01715e-05,-3.47149e-05,0.0293023,0.021126265501524966,0.04072615971607152,-6.016968973154846e-05,-0.0027613205216653336,-3.471429744483778e-05,-0.016618365802672952
328,0.0329,548.622,184.728,1.95569e-05,318.352,-0.507791,-0.292922,0.0209686,-0.00277451,-0.0168104,0.0400396,-6.03933e-05,-3.48428e-05,0.0293992,0.02118998576854403,0.04085199111513593,-6.039147636138775e-05,-0.002770664604314965,-3.484219299665359e-05,-0.0166698936502635
329,0.033,548.893,184.821,1.93757e-05,318.51,-0.50812,-0.293112,0.021031,-0.00278388,-0.0168629,0.0401605,-6.06151e-05,-3.49706e-05,0.0294961,0.02125371001183174,0.040977837728136235,-6.0613262941933144e-05,-0.002780008599410966,-3.496998853569355e-05,-0.016721517125718788
330,0.0331,549.164,184.912,1.91941e-05,318.668,-0.508446,-0.2933,0.0210933,-0.00279325,-0.0169153,0.0402814,-6.08368e-05,-3.50985e-05,0.029593,0.0213173360998975,0.041103699556911844,-6.083494947939361e-05,-0.0027893525069541125,-3.50978840548688e-05,-0.016773039568321546
331,0.0332,549.433,185.004,1.9012e-05,318.825,-0.50877,-0.293487,0.0211557,-0.00280261,-0.0169677,0.0404023,-6.10586e-05,-3.52263e-05,0.0296898,0.021381068290093674,0.0412295766033024,-6.105673596157324e-05,-0.0027986863549321894,-3.5225679561157186e-05,-0.016824559311219178
332,0.0333,549.702,185.096,1.88295e-05,318.982,-0.509092,-0.293673,0.0212181,-0.00281198,-0.0170202,0.0405232,-6.12803e-05,-3.53542e-05,0.0297867,0.02144480445730279,0.04135546886914776,-6.127842240077896e-05,-0.0028080300874655517,-3.5353575047580854e-05,-0.016876174666940358
333,0.0334,549.971,185.187,1.86465e-05,319.138,-0.509411,-0.293857,0.0212805,-0.00282135,-0.0170726,0.040644,-6.15021e-05,-3.54821e-05,0.0298836,0.021508544601772872,0.041481272208155895,-6.150020878459284e-05,-0.0028173737324486137,-3.5481470517684244e-05,-0.016927689005700408
334,0.0335,550.239,185.278,1.8463e-05,319.294,-0.509728,-0.29404,0.0213428,-0.00283072,-0.017125,0.0407649,-6.17238e-05,-3.56099e-05,0.0299805,0.02157218656652815,0.04160719490583964,-6.17218951254328e-05,-0.0028267172898820414,-3.5609265975011795e-05,-0.01697920064517977
335,0.0336,550.506,185.368,1.82791e-05,319.45,-0.510043,-0.294222,0.0214052,-0.00284009,-0.0171774,0.0408858,-6.19455e-05,-3.57377e-05,0.0300774,0.021635934659889555,0.041733132828497777,-6.194358141708989e-05,-0.002836060759766834,-3.573706141601907e-05,-0.017030709585519888
336,0.0337,550.772,185.459,1.80947e-05,319.605,-0.510356,-0.294402,0.0214676,-0.00284945,-0.0172298,0.0410066,-6.21672e-05,-3.58656e-05,0.0301742,0.02169968673125644,0.04185898179206782,-6.216526765967512e-05,-0.0028453941705577357,-3.58649568370506e-05,-0.017082215826862313
337,0.0338,551.038,185.549,1.791e-05,319.76,-0.510666,-0.294581,0.0215299,-0.00285882,-0.0172822,0.0411274,-6.23889e-05,-3.59934e-05,0.0302711,0.021763340604537218,0.041984845959110784,-6.238695385307746e-05,-0.0028547374654409596,-3.599275224530629e-05,-0.017133719369348377
338,0.0339,551.303,185.639,1.77248e-05,319.914,-0.510974,-0.294759,0.0215922,-0.00286818,-0.0173347,0.0412482,-6.26106e-05,-3.61212e-05,0.0303679,0.02182699844357816,0.04211072533146365,-6.260863999729693e-05,-0.0028640707014186972,-3.612054763735273e-05,-0.017185318494592594
339,0.034,551.567,185.729,1.75391e-05,320.069,-0.511279,-0.294935,0.0216546,-0.00287755,-0.0173871,0.041369,-6.28323e-05,-3.6249e-05,0.0304648,0.021890762437696942,0.04223661991096317,-6.283032609233352e-05,-0.002873413821303572,-3.6248343012967865e-05,-0.017236816634640384
340,0.0341,551.831,185.819,1.73531e-05,320.222,-0.511583,-0.29511,0.0217169,-0.00288691,-0.0174395,0.0414898,-6.30539e-05,-3.63768e-05,0.0305616,0.021954428215365196,0.04236252969944654,-6.305191214461825e-05,-0.0028827468824714764,-3.637613837226272e-05,-0.017288312076256362
341,0.0342,552.093,185.908,1.71667e-05,320.375,-0.511884,-0.295284,0.0217792,-0.00289628,-0.0174918,0.0416106,-6.32756e-05,-3.65046e-05,0.0306585,0.0220180979595348,0.04248845469875118,-6.32735981414001e-05,-0.0028920898273613327,-3.65039337152373e-05,-0.017339706553557543
342,0.0343,552.356,185.997,1.69798e-05,320.528,-0.512183,-0.295457,0.0218415,-0.00290564,-0.0175442,0.0417314,-6.34972e-05,-3.66324e-05,0.0307553,0.022081771670453332,0.042614394910714504,-6.349518409543009e-05,-0.0029014227137226234,-3.663172904178058e-05,-0.017391196603882997
343,0.0344,552.617,186.086,1.67926e-05,320.681,-0.512479,-0.295628,0.0219038,-0.00291501,-0.0175966,0.0418521,-6.37188e-05,-3.67601e-05,0.0308521,0.022145449348367485,0.042740246063144305,-6.371677000038822e-05,-0.002910765483620792,-3.6759424355770065e-05,-0.017442683956200522
344,0.0345,552.878,186.174,1.6605e-05,320.833,-0.512774,-0.295798,0.0219662,-0.00292437,-0.017649,0.0419728,-6.39404e-05,-3.68879e-05,0.030949,0.02220923321444257,0.04286611240672533,-6.393835585616348e-05,-0.0029200981951787996,-3.688721964978381e-05,-0.01749416861065156
345,0.0346,553.139,186.263,1.6417e-05,320.985,-0.513066,-0.295967,0.0220284,-0.00293373,-0.0177014,0.0420936,-6.41619e-05,-3.70157e-05,0.0310458,0.02227281660617164,0.04299209824249517,-6.415984166929789e-05,-0.0029294308193829055,-3.7015014927477274e-05,-0.017545650567377336
346,0.0347,553.398,186.351,1.62286e-05,321.136,-0.513356,-0.296134,0.0220907,-0.00294309,-0.0177538,0.0422143,-6.43835e-05,-3.71434e-05,0.0311426,0.022336506186555916,0.043117994986468844,-6.438142742692943e-05,-0.0029387633562341087,-3.714271019250592e-05,-0.017597129826519176
347,0.0348,553.658,186.439,1.60398e-05,321.287,-0.513644,-0.2963,0.022153,-0.00295246,-0.0178061,0.042335,-6.4605e-05,-3.72711e-05,0.0312394,0.022400199734924797,0.043243906927096454,-6.460291314192013e-05,-0.0029481057762521523,-3.7270405441214294e-05,-0.017648508153074283
348,0.0349,553.916,186.527,1.58507e-05,321.438,-0.51393,-0.296465,0.0222153,-0.00296182,-0.0178585,0.0424557,-6.48265e-05,-3.73988e-05,0.0313362,0.022463897251525422,0.04336983406621253,-6.482439880783897e-05,-0.002957438138306512,-3.7398100673602386e-05,-0.01769998202261991
349,0.035,554.174,186.614,1.56613e-05,321.588,-0.514214,-0.296629,0.0222776,-0.00297118,-0.0179108,0.0425764,-6.5048e-05,-3.75266e-05,0.031433,0.022527598736604704,0.04349577640565161,-6.504588442468595e-05,-0.002966770413010411,-3.7525895885903715e-05,-0.017751354970145905
350,0.0351,554.431,186.702,1.54714e-05,321.738,-0.514496,-0.296792,0.0223398,-0.00298054,-0.0179632,0.0426971,-6.52695e-05,-3.76542e-05,0.0315298,0.022591201931285054,0.04362173394724844,-6.52673699925721e-05,-0.0029761026003647384,-3.765349108952876e-05,-0.017802823450659422
351,0.0352,554.687,186.789,1.52813e-05,321.887,-0.514775,-0.296953,0.0224021,-0.0029899,-0.0180156,0.0428178,-6.5491e-05,-3.77819e-05,0.0316266,0.02265491134769304,0.043747706692838007,-6.548885551127537e-05,-0.0029854347003700488,-3.778118627295601e-05,-0.01785428923429533
352,0.0353,554.943,186.876,1.50908e-05,322.036,-0.515053,-0.297113,0.0224643,-0.00299926,-0.0180679,0.0429384,-6.57124e-05,-3.79096e-05,0.0317233,0.022718522461464108,0.04387359025689164,-6.571024098755984e-05,-0.0029947667130273414,-3.7908881440174014e-05,-0.017905654111765146
353,0.0354,555.199,186.962,1.48999e-05,322.185,-0.515328,-0.297272,0.0225266,-0.00300861,-0.0181202,0.0430591,-6.59338e-05,-3.80373e-05,0.0318201,0.022782239810188232,0.04399959340337256,-6.593162641477246e-05,-0.003004088668378424,-3.8036576591071736e-05,-0.017957016302922124
354,0.0355,555.453,187.049,1.47088e-05,322.333,-0.515601,-0.29743,0.0225888,-0.00301797,-0.0181726,0.0431797,-6.61552e-05,-3.81649e-05,0.0319169,0.022845858844035893,0.04412550734679521,-6.615301179302424e-05,-0.0030134205064353825,-3.8164171729415663e-05,-0.01800847400706418
355,0.0356,555.707,187.135,1.45173e-05,322.481,-0.515872,-0.297586,0.0226511,-0.00302733,-0.0182249,0.0433003,-6.63765e-05,-3.82925e-05,0.0320137,0.02290958412606381,0.0442514364763551,-6.637429712885723e-05,-0.0030227522571467658,-3.8291766851550335e-05,-0.01805983082088125
356,0.0357,555.961,187.221,1.43255e-05,322.629,-0.516141,-0.297742,0.0227133,-0.00303669,-0.0182773,0.0434209,-6.65979e-05,-3.84202e-05,0.0321104,0.022973211080974165,0.04437738079388387,-6.659568240907632e-05,-0.003032083920513462,-3.8419461953598244e-05,-0.01811128313768373
357,0.0358,556.214,187.307,1.41333e-05,322.776,-0.516409,-0.297896,0.0227755,-0.00304604,-0.0183296,0.0435415,-6.68192e-05,-3.85478e-05,0.0322072,0.02303684199360423,0.04450334030121317,-6.681696764698764e-05,-0.0030414055269502027,-3.854705704309236e-05,-0.01816263457472389
358,0.0359,556.466,187.392,1.39409e-05,322.923,-0.516674,-0.298049,0.0228377,-0.0030554,-0.0183819,0.0436621,-6.70405e-05,-3.86753e-05,0.0323039,0.023100476864200248,0.044629315000175085,-6.703825283593812e-05,-0.003050737015723004,-3.8674552120254724e-05,-0.018213983326154093
359,0.036,556.717,187.478,1.37482e-05,323.07,-0.516937,-0.2982,0.0228999,-0.00306476,-0.0184342,0.0437827,-6.72618e-05,-3.88029e-05,0.0324007,0.023164115693008247,0.04475530489260193,-6.725953797581674e-05,-0.003060068417153561,-3.8802147177219304e-05,-0.018265329392114782
360,0.0361,556.968,187.563,1.35551e-05,323.216,-0.517198,-0.298351,0.0229621,-0.00307411,-0.0184865,0.0439033,-6.7483e-05,-3.89305e-05,0.0324974,0.023227758480274474,0.04488130998032602,-6.748072307360964e-05,-0.003069389761936492,-3.8929742217863605e-05,-0.0183166727727464
361,0.0362,557.219,187.648,1.33618e-05,323.362,-0.517457,-0.2985,0.0230243,-0.00308347,-0.0185388,0.0440238,-6.77042e-05,-3.9058e-05,0.0325941,0.023291405226245177,0.045007225764452485,-6.770190812233068e-05,-0.0030787209887780387,-3.905723724628718e-05,-0.018368013468189504
362,0.0363,557.468,187.733,1.31682e-05,323.507,-0.517713,-0.298649,0.0230865,-0.00309282,-0.0185912,0.0441444,-6.79254e-05,-3.91856e-05,0.0326909,0.023355055931166824,0.045133261235665634,-6.79230931222019e-05,-0.0030880421591602536,-3.918483225440195e-05,-0.018419449636644436
363,0.0364,557.718,187.817,1.29743e-05,323.653,-0.517968,-0.298796,0.0231487,-0.00310217,-0.0186435,0.0442649,-6.81465e-05,-3.93131e-05,0.0327876,0.02341871059528522,0.04525920738174749,-6.81441780799874e-05,-0.003097363242389961,-3.9312327250184964e-05,-0.018470784956998054
364,0.0365,557.966,187.902,1.27801e-05,323.797,-0.518221,-0.298942,0.0232109,-0.00311153,-0.0186958,0.0443854,-6.83677e-05,-3.94406e-05,0.0328843,0.023482369218846832,0.04538516870525444,-6.836536298204798e-05,-0.0031066942074010617,-3.9439822229758725e-05,-0.018522117592584708
365,0.0366,558.214,187.986,1.25857e-05,323.942,-0.518473,-0.299087,0.0232731,-0.00312088,-0.0187481,0.0445059,-6.85888e-05,-3.9568e-05,0.032981,0.023546031802098133,0.04551114520801525,-6.858644784202284e-05,-0.003116015116234827,-3.956721719700074e-05,-0.01857344754354473
366,0.0367,558.462,188.07,1.23909e-05,324.086,-0.518722,-0.299231,0.0233352,-0.00313023,-0.0188003,0.0446264,-6.88099e-05,-3.96955e-05,0.0330777,0.02360959598432033,0.04563713689185933,-6.880753265314787e-05,-0.0031253359379186385,-3.9694712144044964e-05,-0.018624676672491014
367,0.0368,558.709,188.154,1.2196e-05,324.23,-0.518969,-0.299373,0.0233974,-0.00313958,-0.0188526,0.0447469,-6.90309e-05,-3.98229e-05,0.0331744,0.02367326648132262,0.0457631437586159,-6.902851742229821e-05,-0.003134656672453162,-3.982210707886846e-05,-0.01867600125975144
368,0.0369,558.955,188.237,1.20007e-05,324.373,-0.519214,-0.299515,0.0234595,-0.00314893,-0.0189049,0.0448674,-6.92519e-05,-3.99504e-05,0.0332711,0.02373683856506381,0.04588916581011504,-6.92495021424877e-05,-0.003143977319839175,-3.9949601993383155e-05,-0.01872732316280612
369,0.037,559.201,188.321,1.18052e-05,324.517,-0.519457,-0.299655,0.0235217,-0.00315829,-0.0189572,0.0449879,-6.94729e-05,-4.00778e-05,0.0333678,0.023800516976800745,0.04601520304818618,-6.947048681393841e-05,-0.0031533078485445065,-4.007699689567712e-05,-0.018778642381795385
370,0.0371,559.446,188.404,1.16095e-05,324.659,-0.519699,-0.299794,0.0235838,-0.00316764,-0.0190095,0.0451083,-6.96938e-05,-4.02052e-05,0.0334645,0.023864096963043036,0.04614115086053938,-6.969137144352544e-05,-0.003162628321542793,-4.020439178176183e-05,-0.01882995891685968
371,0.0372,559.69,188.487,1.14135e-05,324.802,-0.519938,-0.299933,0.023646,-0.00317698,-0.0190617,0.0452288,-6.99148e-05,-4.03326e-05,0.0335611,0.023927783290498494,0.04626721846463866,-6.991235601727652e-05,-0.003171938739114588,-4.033178665163728e-05,-0.018881174656261823
372,0.0373,559.934,188.57,1.12172e-05,324.944,-0.520176,-0.30007,0.0237081,-0.00318633,-0.019114,0.0453492,-7.01356e-05,-4.04599e-05,0.0336578,0.023991371180224208,0.046393196621474564,-7.013314055626108e-05,-0.0031812590379148853,-4.0459081509292005e-05,-0.0189324858290284
373,0.0374,560.178,188.652,1.10208e-05,325.086,-0.520411,-0.300206,0.0237702,-0.00319568,-0.0191663,0.0454696,-7.03565e-05,-4.05872e-05,0.0337545,0.02405496301888066,0.04651918994699389,-7.03540250395207e-05,-0.0031905792495707797,-4.0586376350737474e-05,-0.018983794318290892
374,0.0375,560.421,188.734,1.08241e-05,325.227,-0.520645,-0.300341,0.0238323,-0.00320503,-0.0192185,0.04559,-7.05773e-05,-4.07146e-05,0.0338511,0.024118558806712986,0.04664519844302273,-7.057480948091666e-05,-0.0031998993740831594,-4.0713771171874136e-05,-0.019035002027694592
375,0.0376,560.663,188.817,1.06271e-05,325.368,-0.520877,-0.300475,0.0238945,-0.00321438,-0.0192708,0.0457104,-7.07981e-05,-4.08419e-05,0.0339478,0.02418226096218734,0.046771222111387845,-7.079559387368484e-05,-0.0032092194114528017,-4.084106598090109e-05,-0.01908630515550014
376,0.0377,560.905,188.899,1.043e-05,325.509,-0.521107,-0.300607,0.0239566,-0.00322372,-0.019323,0.0458308,-7.10189e-05,-4.09691e-05,0.0340444,0.024245864655467297,0.04689726095391622,-7.10163782176032e-05,-0.003218529393865799,-4.0968260777929366e-05,-0.019137507513977803
377,0.0378,561.146,188.981,1.02326e-05,325.65,-0.521335,-0.300739,0.0240187,-0.00323307,-0.0193753,0.0459512,-7.12396e-05,-4.10964e-05,0.0341411,0.024309472298659207,0.047023314972434616,-7.123706251999096e-05,-0.0032278492570455564,-4.109555555453781e-05,-0.01918880528088651
378,0.0379,561.387,189.062,1.0035e-05,325.79,-0.521562,-0.30087,0.0240807,-0.00324242,-0.0194275,0.0460716,-7.14603e-05,-4.12236e-05,0.0342377,0.024372981454705345,0.04714938416877068,-7.14577467735289e-05,-0.003237169033085019,-4.122275031903655e-05,-0.01924000228899736
379,0.038,561.627,189.144,9.83717e-06,325.93,-0.521786,-0.300999,0.0241428,-0.00325176,-0.0194797,0.0461919,-7.16809e-05,-4.13508e-05,0.0343343,0.02443659699209566,0.04727536381721009,-7.167833098564724e-05,-0.003246478754449722,-4.1349945067437055e-05,-0.01929119662469403
380,0.0381,561.866,189.225,9.63915e-06,326.069,-0.522009,-0.301128,0.0242049,-0.00326111,-0.019532,0.0463123,-7.19015e-05,-4.1478e-05,0.034431,0.024500216480133563,0.047401463362053864,-7.189891514913782e-05,-0.003255798356304185,-4.1477139799628304e-05,-0.01934248635387248
381,0.0382,562.105,189.306,9.44093e-06,326.208,-0.52223,-0.301255,0.024267,-0.00327045,-0.0195842,0.0464326,-7.21221e-05,-4.16052e-05,0.0345276,0.02456383991906419,0.04752747333744445,-7.211949926388961e-05,-0.003265107903671849,-4.160433451572132e-05,-0.01939367534004066
382,0.0383,562.344,189.387,9.24251e-06,326.347,-0.522449,-0.301382,0.0243291,-0.00327979,-0.0196364,0.0465529,-7.23426e-05,-4.17324e-05,0.0346242,0.024627467309133122,0.0476534984727468,-7.23399833372218e-05,-0.003274417364088844,-4.1731529215494056e-05,-0.01944486165421344
383,0.0384,562.582,189.467,9.04389e-06,326.486,-0.522666,-0.301507,0.0243911,-0.00328914,-0.0196886,0.0466733,-7.25631e-05,-4.18595e-05,0.0347208,0.024690996181480962,0.047779643547744,-7.256046736192623e-05,-0.0032837367047184873,-4.185862390337913e-05,-0.019496045296530484
384,0.0385,562.819,189.548,8.84507e-06,326.624,-0.522882,-0.301631,0.0244532,-0.00329848,-0.0197409,0.0467936,-7.27836e-05,-4.19866e-05,0.0348174,0.02475463146819923,0.047905699020947656,-7.278095133800289e-05,-0.0032930459911432175,-4.198571857505495e-05,-0.01954732431240347
385,0.0386,563.056,189.628,8.64607e-06,326.762,-0.523095,-0.301755,0.0245152,-0.00330782,-0.0197931,0.0469139,-7.3004e-05,-4.21137e-05,0.034914,0.024818168224969295,0.048031769659536705,-7.3001335272882e-05,-0.0033023551906196102,-4.211281323063254e-05,-0.019598502606309243
386,0.0387,563.292,189.708,8.44689e-06,326.9,-0.523307,-0.301877,0.0245773,-0.00331716,-0.0198453,0.0470341,-7.32244e-05,-4.22408e-05,0.0350106,0.024881811409316557,0.04815775064955563,-7.322171915902231e-05,-0.0033116643031485538,-4.223990787000087e-05,-0.019649678228777834
387,0.0388,563.528,189.788,8.24752e-06,327.037,-0.523517,-0.301998,0.0246393,-0.00332651,-0.0198975,0.0471544,-7.34448e-05,-4.23678e-05,0.0351072,0.0249453560514874,0.048283851611779394,-7.344210299675691e-05,-0.003320983295520996,-4.236690249748154e-05,-0.019700851179948686
388,0.0389,563.764,189.868,8.04797e-06,327.174,-0.523726,-0.302119,0.0247013,-0.00333585,-0.0199497,0.0472747,-7.36651e-05,-4.24948e-05,0.0352037,0.025008904633548212,0.048409967744861726,-7.366238679318293e-05,-0.003330292234064114,-4.2493897108752954e-05,-0.019752021459961133
389,0.039,563.998,189.948,7.84825e-06,327.311,-0.523933,-0.302238,0.0247634,-0.00334519,-0.0200019,0.0473949,-7.38853e-05,-4.26218e-05,0.0353003,0.025072559662994154,0.0485359941970227,-7.388257054841141e-05,-0.003339601085662336,-4.2620891704037156e-05,-0.01980318906895473
390,0.0391,564.233,190.027,7.64836e-06,327.447,-0.524137,-0.302356,0.0248254,-0.00335453,-0.0200541,0.0475151,-7.41056e-05,-4.27488e-05,0.0353969,0.02513611613192346,0.048662035798473724,-7.410285424780394e-05,-0.0033489098503161063,-4.27478862831121e-05,-0.01985435400706881
391,0.0392,564.466,190.106,7.4483e-06,327.583,-0.524341,-0.302473,0.0248874,-0.00336386,-0.0201062,0.0476354,-7.43257e-05,-4.28758e-05,0.0354934,0.025199676541475924,0.04878819742985008,-7.432293791354017e-05,-0.003358208561608733,-4.287488084597779e-05,-0.019905418264989594
392,0.0393,564.7,190.186,7.24808e-06,327.719,-0.524542,-0.30259,0.0249494,-0.0033732,-0.0201584,0.0477556,-7.45459e-05,-4.30027e-05,0.03559,0.02526324089189602,0.048914269347951844,-7.454312152344045e-05,-0.0033675171524695235,-4.3001775397177866e-05,-0.019956577866878877
393,0.0394,564.932,190.264,7.0477e-06,327.854,-0.524742,-0.302705,0.0250114,-0.00338254,-0.0202106,0.0478758,-7.4766e-05,-4.31296e-05,0.0356865,0.025326809183428,0.04904035642080862,-7.47632050922542e-05,-0.003376825656388527,-4.3128669932168684e-05,-0.020007734798306753
394,0.0395,565.165,190.343,6.84716e-06,327.99,-0.52494,-0.302819,0.0250734,-0.00339188,-0.0202628,0.047996,-7.4986e-05,-4.32565e-05,0.0357831,0.025390381416316332,0.049166458650242495,-7.498318862020348e-05,-0.00338613407336652,-4.325556445106127e-05,-0.020058889059412444
395,0.0396,565.396,190.422,6.64647e-06,328.124,-0.525136,-0.302932,0.0251354,-0.00340121,-0.0203149,0.0481161,-7.52061e-05,-4.33833e-05,0.0358796,0.025453957590805043,0.04929247110882318,-7.520327209220579e-05,-0.0033954324373587363,-4.3382358958288236e-05,-0.02010994266133459
396,0.0397,565.628,190.5,6.44563e-06,328.259,-0.525331,-0.303045,0.0251974,-0.00341055,-0.0203671,0.0482363,-7.5426e-05,-4.35101e-05,0.0359761,0.02551753770713905,0.04941860364426387,-7.542315553077383e-05,-0.003404740680550189,-4.350915344930595e-05,-0.02016109158732904
397,0.0398,565.858,190.578,6.24465e-06,328.393,-0.525523,-0.303156,0.0252593,-0.00341989,-0.0204193,0.0483565,-7.5646e-05,-4.36369e-05,0.0360726,0.025581019207455258,0.04954475134174663,-7.564313891350594e-05,-0.003414048836803074,-4.363594792433645e-05,-0.0202122378434193
398,0.0399,566.088,190.656,6.04352e-06,328.527,-0.525715,-0.303266,0.0253213,-0.00342922,-0.0204714,0.0484766,-7.58658e-05,-4.37637e-05,0.0361691,0.025644607201853464,0.04967080923600786,-7.58629222629148e-05,-0.0034233469403517347,-4.3762742383268716e-05,-0.020263283456077863
399,0.04,566.318,190.734,5.84225e-06,328.661,-0.525904,-0.303376,0.0253833,-0.00343855,-0.0205236,0.0485967,-7.60857e-05,-4.38905e-05,0.0362657,0.025708199138829713,0.04979688227073131,-7.608280555648772e-05,-0.0034326449571494555,-4.388953682610275e-05,-0.020314424377891882
400,0.0401,566.547,190.812,5.64084e-06,328.795,-0.526092,-0.303484,0.0254452,-0.00344789,-0.0205757,0.0487169,-7.63055e-05,-4.40172e-05,0.0363622,0.02577169244145394,0.04992307544003771,-7.63025888094182e-05,-0.0034419528527775967,-4.4016231257271166e-05,-0.020365464666770694
401,0.0402,566.776,190.889,5.4393e-06,328.928,-0.526278,-0.303592,0.0255072,-0.00345722,-0.0206279,0.048837,-7.65252e-05,-4.41439e-05,0.0364587,0.02583529225795922,0.05004917877375181,-7.652227202159523e-05,-0.0034512506959829548,-4.414292567234135e-05,-0.02041660025486458
402,0.0403,567.004,190.967,5.23763e-06,329.061,-0.526463,-0.303698,0.0255691,-0.00346655,-0.02068,0.0489571,-7.67449e-05,-4.42706e-05,0.0365551,0.02589879342789092,0.05017529725338554,-7.674195518547755e-05,-0.0034605484524398156,-4.426962007142432e-05,-0.020467635220518976
403,0.0404,567.232,191.044,5.03584e-06,329.193,-0.526646,-0.303804,0.0256311,-0.00347589,-0.0207321,0.0490772,-7.69646e-05,-4.43972e-05,0.0366516,0.025962401124901557,0.050301430880758335,-7.69616383011762e-05,-0.00346985608745054,-4.43962144589527e-05,-0.02051866752732079
404,0.0405,567.459,191.121,4.83392e-06,329.325,-0.526827,-0.303908,0.025693,-0.00348522,-0.0207843,0.0491973,-7.71842e-05,-4.45238e-05,0.0367481,0.02602591016311573,0.050427579657689625,-7.71812213762324e-05,-0.0034791536703200343,-4.452280883027182e-05,-0.020569795118434153
405,0.0406,567.686,191.198,4.63188e-06,329.457,-0.527007,-0.304012,0.0257549,-0.00349455,-0.0208364,0.0493173,-7.74038e-05,-4.46504e-05,0.0368446,0.026089423132660938,0.050553638530629774,-7.740080440321595e-05,-0.0034884511664433626,-4.464940318571475e-05,-0.020620822102843994
406,0.0407,567.912,191.274,4.42972e-06,329.589,-0.527185,-0.304115,0.0258168,-0.00350388,-0.0208885,0.0494374,-7.76233e-05,-4.4777e-05,0.036941,0.02615294003378077,0.05067981759951867,-7.762028738955706e-05,-0.0034977485758215243,-4.477599752505945e-05,-0.020671846428817142
407,0.0408,568.138,191.351,4.22745e-06,329.721,-0.527361,-0.304216,0.0258788,-0.00351321,-0.0209406,0.0495574,-7.78428e-05,-4.49035e-05,0.0370375,0.026216563488369538,0.05080590674282792,-7.783977032782552e-05,-0.0035070458984551856,-4.490249185296058e-05,-0.020722868096492264
408,0.0409,568.363,191.427,4.02507e-06,329.852,-0.527536,-0.304317,0.0259407,-0.00352254,-0.0209927,0.0496775,-7.80622e-05,-4.503e-05,0.037134,0.026280088259720724,0.05093211611094861,-7.80591532257846e-05,-0.0035163431343453455,-4.5028986164763474e-05,-0.020773887106007694
409,0.041,568.588,191.503,3.82257e-06,329.983,-0.527709,-0.304417,0.0260026,-0.00353187,-0.0210449,0.0497975,-7.82815e-05,-4.51565e-05,0.0372304,0.02634361696337728,0.05105823553189581,-7.82784360833233e-05,-0.0035256402834925593,-4.5155480460579156e-05,-0.020825001375006758
410,0.0411,568.813,191.579,3.61998e-06,330.113,-0.527881,-0.304516,0.0260645,-0.00354119,-0.021097,0.0499175,-7.85009e-05,-4.52829e-05,0.0373268,0.026407149599582125,0.05118437008808163,-7.849781888502605e-05,-0.003534927381247166,-4.528187474495127e-05,-0.020876015063516995
411,0.0412,569.037,191.655,3.41728e-06,330.243,-0.528051,-0.304614,0.0261264,-0.00355052,-0.0211491,0.0500375,-7.87201e-05,-4.54094e-05,0.0374233,0.02647068616857884,0.051310519781322395,-7.871700165418272e-05,-0.0035442243570042997,-4.5408369008792526e-05,-0.02092702609428332
412,0.0413,569.26,191.731,3.21448e-06,330.373,-0.528219,-0.304712,0.0261882,-0.00355985,-0.0212012,0.0501575,-7.89394e-05,-4.55358e-05,0.0375197,0.02653412401719324,0.05143668461343465,-7.893628436750344e-05,-0.003553521246021041,-4.5534763261190214e-05,-0.020978034467444062
413,0.0414,569.483,191.806,3.01158e-06,330.503,-0.528386,-0.304808,0.0262501,-0.00356918,-0.0212532,0.0502775,-7.91585e-05,-4.56621e-05,0.0376161,0.026597668446149747,0.05156286458623516,-7.915536704861115e-05,-0.0035628180482981664,-4.566105750214433e-05,-0.021028942286037022
414,0.0415,569.705,191.882,2.80859e-06,330.633,-0.528551,-0.304903,0.026312,-0.0035785,-0.0213053,0.0503974,-7.93777e-05,-4.57885e-05,0.0377125,0.026661216808628208,0.05168895453264044,-7.937454967377189e-05,-0.003572104799557607,-4.578745172267862e-05,-0.021079945349502638
415,0.0416,569.927,191.957,2.60551e-06,330.762,-0.528715,-0.304998,0.0263739,-0.00358783,-0.0213574,0.0505174,-7.95967e-05,-4.59148e-05,0.037809,0.02672476910487176,0.05181516477964765,-7.959353226671961e-05,-0.003581401428450981,-4.591374593165831e-05,-0.021130945755777786
416,0.0417,570.149,192.032,2.40233e-06,330.891,-0.528877,-0.305091,0.0264357,-0.00359715,-0.0214095,0.0506373,-7.98157e-05,-4.6041e-05,0.0379054,0.02678822265629699,0.051941284978659574,-7.98125148117057e-05,-0.0035906880065140756,-4.603994012941648e-05,-0.021181943505001022
417,0.0418,570.37,192.107,2.19907e-06,331.02,-0.529038,-0.305184,0.0264976,-0.00360647,-0.0214616,0.0507573,-8.00347e-05,-4.61673e-05,0.0380018,0.026851782814446112,0.052067525507137224,-8.003149730884118e-05,-0.0035999744980267367,-4.6166234306643794e-05,-0.02123293859731068
418,0.0419,570.591,192.181,1.99573e-06,331.148,-0.529197,-0.305276,0.0265594,-0.0036158,-0.0215136,0.0508772,-8.02536e-05,-4.62935e-05,0.0380981,0.02691524421556113,0.05219367596601443,-8.025037976600036e-05,-0.0036092708668971074,-4.629242847242754e-05,-0.0212838331612335
419,0.042,570.811,192.256,1.79232e-06,331.276,-0.529354,-0.305367,0.0266213,-0.00362512,-0.0215657,0.0509971,-8.04725e-05,-4.64197e-05,0.0381945,0.026978812236587935,0.05231984155123848,-8.04692621751979e-05,-0.0036185571852183074,-4.6418622622446115e-05,-0.02133482294523037
420,0.0421,571.031,192.33,1.58882e-06,331.404,-0.52951,-0.305457,0.0266831,-0.00363444,-0.0216178,0.051117,-8.06913e-05,-4.65458e-05,0.0382909,0.02704228148836396,0.05244602226462303,-8.068804454464118e-05,-0.0036278434169914053,-4.654471676102112e-05,-0.021385810072728773
421,0.0422,571.25,192.405,1.38525e-06,331.532,-0.529665,-0.305546,0.0267449,-0.00364376,-0.0216698,0.0512369,-8.091e-05,-4.6672e-05,0.0383873,0.02710575466266074,0.05257221810798218,-8.090672687421918e-05,-0.0036371295622172894,-4.66709108791763e-05,-0.021436696687541557
422,0.0423,571.469,192.479,1.1816e-06,331.659,-0.529818,-0.305634,0.0268068,-0.00365309,-0.0217219,0.0513568,-8.11287e-05,-4.6798e-05,0.0384836,0.027169334476649265,0.05269842908313005,-8.112540915605759e-05,-0.0036464255844324,-4.679690499065359e-05,-0.021487678507556174
423,0.0424,571.687,192.553,9.77885e-07,331.786,-0.529969,-0.305721,0.0268686,-0.00366241,-0.0217739,0.0514766,-8.13474e-05,-4.69241e-05,0.03858,0.027232815503063446,0.05282454990942087,-8.134409138993437e-05,-0.0036557115564732623,-4.6922999081600025e-05,-0.021538559825348025
424,0.0425,571.905,192.626,7.74103e-07,331.913,-0.530119,-0.305808,0.0269304,-0.00367173,-0.021826,0.0515965,-8.1566e-05,-4.70501e-05,0.0386763,0.02729630045272624,0.05295079114096568,-8.156267358427893e-05,-0.003664997441969353,-4.704899316143596e-05,-0.021589536338431414
425,0.0426,572.123,192.7,5.70255e-07,332.039,-0.530267,-0.305894,0.0269922,-0.00368105,-0.021878,0.0517163,-8.17845e-05,-4.71761e-05,0.0387727,0.027359789325880346,0.053076942202042066,-8.178115573898026e-05,-0.003674283240921228,-4.717498722528468e-05,-0.02164041235975378
426,0.0427,572.34,192.774,3.66346e-07,332.166,-0.530414,-0.305978,0.027054,-0.00369036,-0.02193,0.0518362,-8.2003e-05,-4.73021e-05,0.038869,0.02742328212276779,0.053203213697236906,-8.1999637845942e-05,-0.003683558990165592,-4.7300981273257214e-05,-0.02169128573559187
427,0.0428,572.557,192.847,1.62376e-07,332.292,-0.53056,-0.306062,0.0271158,-0.00369968,-0.0219821,0.051956,-8.22214e-05,-4.7428e-05,0.0389654,0.027486778843631487,0.053329395000346835,-8.221801991337152e-05,-0.0036928446161247352,-4.7426875310230265e-05,-0.021742254291862606
428,0.0429,572.773,192.92,-4.16499e-08,332.418,-0.530704,-0.306145,0.0271776,-0.003709,-0.0220341,0.0520758,-8.24398e-05,-4.75539e-05,0.0390617,0.02755027948871369,0.05345559142088274,-8.243640193306145e-05,-0.003702130155542216,-4.7552769331216105e-05,-0.021793122372057883
429,0.043,572.989,192.993,-2.45731e-07,332.543,-0.530846,-0.306228,0.0272394,-0.00371832,-0.0220861,0.0521956,-8.26581e-05,-4.76798e-05,0.039158,0.027613784058257096,0.05358180296065518,-8.26546839133302e-05,-0.003711415608418922,-4.767866333643678e-05,-0.021843987807181775
430,0.0431,573.204,193.066,-4.49865e-07,332.668,-0.530987,-0.306309,0.0273011,-0.00372763,-0.0221381,0.0523154,-8.28764e-05,-4.78056e-05,0.0392543,0.027677189784780065,0.053708029621475806,-8.287296584608139e-05,-0.0037206910119624848,-4.7804457330546946e-05,-0.02189485059737184
431,0.0432,573.419,193.139,-6.54048e-07,332.793,-0.531127,-0.306389,0.0273629,-0.00373695,-0.0221902,0.0524352,-8.30946e-05,-4.79314e-05,0.0393506,0.027740702197622147,0.053834271405156287,-8.309114773930038e-05,-0.003729976291852788,-4.7930251308780925e-05,-0.021945808548189505
432,0.0433,573.633,193.211,-8.58279e-07,332.918,-0.531265,-0.306469,0.0274247,-0.00374626,-0.0222422,0.052555,-8.33127e-05,-4.80572e-05,0.0394469,0.027804218535652625,0.053960528313508505,-8.330922959343123e-05,-0.0037392515225972422,-4.8056045271249737e-05,-0.021996666043838653
433,0.0434,573.847,193.284,-1.06256e-06,333.043,-0.531401,-0.306548,0.0274864,-0.00375558,-0.0222942,0.0526747,-8.35308e-05,-4.81829e-05,0.0395432,0.02786763601234532,0.054086694939669444,-8.35273113998225e-05,-0.003748536629504362,-4.818173922271907e-05,-0.022047520894966866
434,0.0435,574.061,193.356,-1.26687e-06,333.167,-0.531537,-0.306626,0.0275482,-0.00376489,-0.0223462,0.0527945,-8.37488e-05,-4.83086e-05,0.0396395,0.027931160195127758,0.05421298209017267,-8.374529316712565e-05,-0.0037578116874529277,-4.830743315842323e-05,-0.022098373101711477
435,0.0436,574.274,193.428,-1.47123e-06,333.291,-0.53167,-0.306703,0.0276099,-0.00377421,-0.0223982,0.0529142,-8.39668e-05,-4.84343e-05,0.0397358,0.027994585504362623,0.05433917893685947,-8.396327488691124e-05,-0.003767096621380084,-4.8433127078251204e-05,-0.022149222664210044
436,0.0437,574.487,193.5,-1.67563e-06,333.415,-0.531803,-0.30678,0.0276717,-0.00378352,-0.0224502,0.0530339,-8.41847e-05,-4.85599e-05,0.0398321,0.028058117532866245,0.05446539089021285,-8.418115656760872e-05,-0.0037763715065359804,-4.855872098719072e-05,-0.022200069582600235
437,0.0438,574.699,193.572,-1.88007e-06,333.538,-0.531933,-0.306855,0.0277334,-0.00379283,-0.0225021,0.0531536,-8.44025e-05,-4.86855e-05,0.0399283,0.028121550675610285,0.05459161795204137,-8.439893820921807e-05,-0.003785646305342949,-4.868431488025404e-05,-0.022250816082105773
438,0.0439,574.911,193.644,-2.08453e-06,333.661,-0.532063,-0.30693,0.0277951,-0.00380214,-0.0225541,0.0532733,-8.46203e-05,-4.88111e-05,0.0400246,0.02818498773230016,0.05471786012415336,-8.461671980342089e-05,-0.0037949210178019888,-4.880990875766322e-05,-0.02230165771777559
439,0.044,575.123,193.715,-2.28903e-06,333.785,-0.532191,-0.307004,0.0278568,-0.00381145,-0.0226061,0.053393,-8.48381e-05,-4.89366e-05,0.0401208,0.02824842870317701,0.05484411740835804,-8.48345013502172e-05,-0.003804195643913877,-4.893540262407292e-05,-0.022352496709748926
440,0.0441,575.334,193.787,-2.49356e-06,333.907,-0.532317,-0.307077,0.0279186,-0.00382076,-0.0226581,0.0535127,-8.50557e-05,-4.90621e-05,0.0402171,0.02831197641967509,0.05497038980646396,-8.505208286646582e-05,-0.0038134701836793905,-4.9060896474828475e-05,-0.022403333058163555
441,0.0442,575.544,193.858,-2.69812e-06,334.03,-0.532443,-0.307149,0.0279803,-0.00383007,-0.0227101,0.0536324,-8.52733e-05,-4.91876e-05,0.0403133,0.028375425225995565,0.055096677320280785,-8.526966433552996e-05,-0.003822744637099307,-4.918639030981886e-05,-0.022454166763156702
442,0.0443,575.755,193.929,-2.9027e-06,334.152,-0.532566,-0.30722,0.028042,-0.00383938,-0.022762,0.053752,-8.54909e-05,-4.9313e-05,0.0404096,0.028438877947228436,0.05522287442932505,-8.548724575718758e-05,-0.003832019004174514,-4.931178413403181e-05,-0.02250490007536088
443,0.0444,575.965,194.0,-3.1073e-06,334.274,-0.532689,-0.307291,0.0281037,-0.00384869,-0.022814,0.0538717,-8.57084e-05,-4.94384e-05,0.0405058,0.02850233458361484,0.055349192167359895,-8.570472713997912e-05,-0.003841293284905678,-4.943717794247959e-05,-0.022555728499006555
444,0.0445,576.174,194.071,-3.31192e-06,334.396,-0.53281,-0.307361,0.0281654,-0.003858,-0.0228659,0.0539913,-8.59258e-05,-4.95637e-05,0.040602,0.028565795135396588,0.05547541947898593,-8.592210848412662e-05,-0.0038505674792937983,-4.956247174014994e-05,-0.022606456540293363
445,0.0446,576.383,194.142,-3.51656e-06,334.518,-0.532929,-0.30743,0.028227,-0.0038673,-0.0229179,0.0541109,-8.61431e-05,-4.96891e-05,0.0406982,0.028629156739894412,0.05560166188830129,-8.613938978974112e-05,-0.0038598316259379484,-4.968786551706739e-05,-0.02265727968314013
446,0.0447,576.592,194.212,-3.72122e-06,334.639,-0.533048,-0.307498,0.0282887,-0.00387661,-0.0229698,0.0542305,-8.63604e-05,-4.98143e-05,0.0407944,0.02869262511684445,0.055727919397111636,-8.635667104794909e-05,-0.003869105647734794,-4.981305928830615e-05,-0.02270800245405724
447,0.0448,576.8,194.283,-3.92589e-06,334.76,-0.533164,-0.307565,0.0283504,-0.00388592,-0.0230218,0.0543501,-8.65777e-05,-4.99396e-05,0.0408906,0.02875609740991436,0.05585419200722308,-8.65739522590836e-05,-0.0038783795831910384,-4.993835303890304e-05,-0.02275882031665377
448,0.0449,577.008,194.353,-4.13057e-06,334.881,-0.53328,-0.307632,0.0284121,-0.00389522,-0.0230737,0.0544697,-8.67948e-05,-5.00648e-05,0.0409868,0.028819573619345284,0.055980479720441956,-8.679103344033656e-05,-0.003887643471183755,-5.006354677883351e-05,-0.02280953781774875
449,0.045,577.215,194.423,-4.33526e-06,335.002,-0.533394,-0.307698,0.0284737,-0.00390453,-0.0231257,0.0545893,-8.7012e-05,-5.019e-05,0.041083,0.028882950857079148,0.056106782538574373,-8.700821456575358e-05,-0.0038969172340536096,-5.018874050299882e-05,-0.022860350400643714
450,0.0451,577.422,194.493,-4.53995e-06,335.122,-0.533507,-0.307763,0.0285354,-0.00391383,-0.0231776,0.0547089,-8.7229e-05,-5.03151e-05,0.0411792,0.028946434893609485,0.05623310046342733,-8.722519566140008e-05,-0.003906180949647009,-5.031383421660873e-05,-0.02291106263246412
451,0.0452,577.629,194.563,-4.74462e-06,335.242,-0.533618,-0.307827,0.028597,-0.00392313,-0.0232295,0.0548284,-8.7446e-05,-5.04402e-05,0.0412754,0.029009819946238524,0.05635932786086961,-8.744217670997312e-05,-0.003915444579088212,-5.043892791445348e-05,-0.022961772232387934
452,0.0453,577.835,194.633,-4.94927e-06,335.362,-0.533728,-0.307891,0.0286587,-0.00393244,-0.0232814,0.054948,-8.76629e-05,-5.05653e-05,0.0413715,0.029073311810833058,0.0564856759919492,-8.765905772023519e-05,-0.003924718083130885,-5.0564021596755104e-05,-0.023012479200551827
453,0.0454,578.041,194.702,-5.15382e-06,335.482,-0.533837,-0.307954,0.0287203,-0.00394174,-0.0233334,0.0550675,-8.78798e-05,-5.06903e-05,0.0414677,0.029136704679320946,0.05661193357397054,-8.787593868353483e-05,-0.003933981540177656,-5.0689015268501336e-05,-0.023063281230769173
454,0.0455,578.246,194.772,-5.35807e-06,335.601,-0.533945,-0.308016,0.0287819,-0.00395104,-0.0233853,0.055187,-8.80965e-05,-5.08153e-05,0.0415638,0.029200101452929728,0.05673820624467463,-8.809261961728598e-05,-0.0039432449110745615,-5.08140089244824e-05,-0.02311398293075284
455,0.0456,578.451,194.841,-5.56084e-06,335.72,-0.534051,-0.308077,0.0288436,-0.00396034,-0.0234372,0.0553065,-8.83133e-05,-5.09402e-05,0.04166,0.029263605058255537,0.05686449400586424,-8.830940049531222e-05,-0.003952508195822491,-5.0938902570019096e-05,-0.023164681999386483
456,0.0457,578.656,194.91,-5.73957e-06,335.839,-0.534156,-0.308138,0.0289052,-0.00396964,-0.0234891,0.055426,-8.85299e-05,-5.10651e-05,0.0417561,0.029327009649168456,0.05699079685934305,-8.852598134401202e-05,-0.003961771394422331,-5.106379620001267e-05,-0.023215378436806877
457,0.0458,578.86,194.979,-5.86775e-06,335.958,-0.534262,-0.308199,0.0289668,-0.00397894,-0.023541,0.0555455,-8.87466e-05,-5.119e-05,0.0418523,0.029390418145924357,0.057117114806914726,-8.87426621369869e-05,-0.00397103450687486,-5.1188689814352095e-05,-0.02326607224315025
458,0.0459,579.064,195.048,-6.20392e-06,336.077,-0.534368,-0.30826,0.0290284,-0.00398824,-0.0235929,0.055665,-8.89631e-05,-5.13149e-05,0.0419484,0.02945383054876416,0.05724344785038338,-8.895914290074636e-05,-0.003980297533180854,-5.131358341303738e-05,-0.023316763418553488
459,0.046,579.268,195.117,-6.40225e-06,336.195,-0.534474,-0.308321,0.02909,-0.00399754,-0.0236448,0.0557845,-8.91797e-05,-5.14397e-05,0.0420445,0.029517246857928336,0.05736979599155245,-8.91757236087809e-05,-0.003989560473340981,-5.143837700127829e-05,-0.02336745196315293
460,0.0461,579.471,195.186,-6.6134e-06,336.313,-0.53458,-0.308382,0.0291516,-0.00400684,-0.0236967,0.0559039,-8.93962e-05,-5.15645e-05,0.0421406,0.029580667073657363,0.057496053482616105,-8.939220427872652e-05,-0.003998823327356238,-5.156317057397608e-05,-0.023418137877085243
461,0.0462,579.674,195.254,-6.82075e-06,336.431,-0.534686,-0.308444,0.0292132,-0.00401614,-0.0237485,0.0560234,-8.96126e-05,-5.16893e-05,0.0422367,0.029644091196191935,0.05762243181196203,-8.960858491091628e-05,-0.004008086095227403,-5.168796413113075e-05,-0.023468723507364064
462,0.0463,579.876,195.323,-7.02869e-06,336.549,-0.534793,-0.308505,0.0292748,-0.00402543,-0.0238004,0.0561428,-8.9829e-05,-5.1814e-05,0.0423328,0.02970751922577297,0.05774871946954341,-8.98249654961436e-05,-0.004017338817128624,-5.1812657677841045e-05,-0.023519404165439628
463,0.0464,580.078,195.391,-7.23673e-06,336.666,-0.534899,-0.308566,0.0293364,-0.00403473,-0.0238523,0.0562622,-9.00454e-05,-5.19387e-05,0.0424289,0.029770951162640724,0.05787502220677143,-9.004134603463054e-05,-0.00402660141280653,-5.193735120911924e-05,-0.02357008219325718
464,0.0465,580.28,195.459,-7.44494e-06,336.783,-0.535006,-0.308628,0.0293979,-0.00404402,-0.0239042,0.0563816,-9.02617e-05,-5.20634e-05,0.042525,0.029834284023602775,0.05800134002544666,-9.025762653536162e-05,-0.00403585396270123,-5.2062044724743295e-05,-0.02362075759095339
465,0.0466,580.481,195.527,-7.65333e-06,336.9,-0.535112,-0.308689,0.0294595,-0.00405332,-0.023956,0.056501,-9.04779e-05,-5.21881e-05,0.0426211,0.02989772376942268,0.05812767292736987,-9.047380699822583e-05,-0.004045116386188985,-5.2186738224824225e-05,-0.023671332725802907
466,0.0467,580.682,195.595,-7.86189e-06,337.017,-0.535219,-0.308751,0.0295211,-0.00406261,-0.0240079,0.0566204,-9.06941e-05,-5.23127e-05,0.0427172,0.02996116742325139,0.058254020914342064,-9.068998741446066e-05,-0.004054368764080385,-5.231133171457181e-05,-0.023722002868732828
467,0.0468,580.882,195.663,-8.07061e-06,337.134,-0.535326,-0.308813,0.0295826,-0.0040719,-0.0240598,0.0567398,-9.09103e-05,-5.24374e-05,0.0428132,0.03002451198287326,0.0583803839881647,-9.090616778384408e-05,-0.004063621056017652,-5.243602518356649e-05,-0.023772670381950634
468,0.0469,581.082,195.731,-8.27951e-06,337.25,-0.535433,-0.308874,0.0296442,-0.0040812,-0.0241116,0.0568592,-9.11264e-05,-5.25619e-05,0.0429093,0.0300879634470963,0.05850676215063899,-9.11222481156937e-05,-0.0040728832212726385,-5.2560518647548626e-05,-0.02382323764792138
469,0.047,581.282,195.798,-8.48857e-06,337.366,-0.53554,-0.308936,0.0297057,-0.00409049,-0.0241635,0.0569785,-9.13425e-05,-5.26865e-05,0.0430053,0.03015131580491337,0.05863304954025672,-9.133832840091394e-05,-0.004082135341211379,-5.2685112090777864e-05,-0.023873899907190466
470,0.0471,581.481,195.866,-8.6978e-06,337.482,-0.535647,-0.308998,0.0297672,-0.00409978,-0.0242153,0.0570979,-9.15585e-05,-5.2811e-05,0.0431014,0.030214672059020398,0.058759457872799015,-9.155430864848935e-05,-0.004091387375198319,-5.280960552367375e-05,-0.02392446192960751
471,0.0472,581.68,195.933,-8.9072e-06,337.598,-0.535754,-0.30906,0.0298288,-0.00410907,-0.0242671,0.0572172,-9.17745e-05,-5.29356e-05,0.0431974,0.03027813523746503,0.05888577541081452,-9.177028884943539e-05,-0.004100639323234234,-5.2934198935816745e-05,-0.023975021332979685
472,0.0473,581.879,196.0,-9.11676e-06,337.713,-0.535862,-0.309122,0.0298903,-0.00411836,-0.024319,0.0573365,-9.19905e-05,-5.306e-05,0.0432934,0.030341499291206775,0.05901210801941126,-9.198626900364104e-05,-0.004109891185319903,-5.305859234305821e-05,-0.024025675714880013
473,0.0474,582.077,196.067,-9.32649e-06,337.829,-0.535969,-0.309184,0.0299518,-0.00412765,-0.0243708,0.0574559,-9.22064e-05,-5.31845e-05,0.0433895,0.030404867241957678,0.05913856161423836,-9.220214912053493e-05,-0.0041191429614562125,-5.3183085729546775e-05,-0.024076229875513833
474,0.0475,582.275,196.134,-9.53639e-06,337.944,-0.536077,-0.309246,0.0300133,-0.00413694,-0.0244226,0.0575752,-9.24222e-05,-5.33089e-05,0.0434855,0.030468239089957327,0.05926492438202802,-9.241792920000602e-05,-0.004128394651643941,-5.3307479105813016e-05,-0.024126781417510124
475,0.0476,582.472,196.201,-9.74645e-06,338.059,-0.536184,-0.309308,0.0300748,-0.00414623,-0.0244744,0.0576944,-9.2638e-05,-5.34333e-05,0.0435815,0.03053161483544553,0.059391196286670445,-9.263370923295877e-05,-0.0041376462558838645,-5.343187246664716e-05,-0.024177330341004222
476,0.0477,582.67,196.268,-9.95668e-06,338.173,-0.536292,-0.30937,0.0301363,-0.00415551,-0.0245263,0.0578137,-9.28538e-05,-5.35577e-05,0.0436775,0.030594994478662096,0.059517589195574594,-9.284948921939318e-05,-0.004146887815645761,-5.3556265811938175e-05,-0.024227974223339444
477,0.0478,582.866,196.334,-1.01671e-05,338.288,-0.5364,-0.309433,0.0301978,-0.0041648,-0.0245781,0.057933,-9.30695e-05,-5.36821e-05,0.0437735,0.03065837801984639,0.05964399718405211,-9.30651691684048e-05,-0.004156139248085,-5.3680659141908116e-05,-0.024278517905181984
478,0.0479,583.063,196.401,-1.03776e-05,338.402,-0.536508,-0.309495,0.0302593,-0.00417409,-0.0246299,0.0580522,-9.32852e-05,-5.38064e-05,0.0438695,0.030721765459238437,0.059770314276865744,-9.328084907100909e-05,-0.004165390594578766,-5.380495246165573e-05,-0.024329058968929673
479,0.048,583.259,196.467,-1.05883e-05,338.516,-0.536616,-0.309557,0.0303208,-0.00418337,-0.0246817,0.0581715,-9.35008e-05,-5.39307e-05,0.0439655,0.03078515679707783,0.059896752417244015,-9.349642893641263e-05,-0.004174631896874392,-5.3929245765971245e-05,-0.02437959741471807
480,0.0481,583.455,196.533,-1.07992e-05,338.63,-0.536724,-0.30962,0.0303823,-0.00419266,-0.0247335,0.0582907,-9.37164e-05,-5.4055e-05,0.0440614,0.03084855203360437,0.06002309964027708,-9.371200875540886e-05,-0.0041838830715722475,-5.405353905485466e-05,-0.024430133242682728
481,0.0482,583.65,196.599,-1.10102e-05,338.744,-0.536833,-0.309682,0.0304437,-0.00420194,-0.0247853,0.05841,-9.3932e-05,-5.41793e-05,0.0441574,0.030911848077867843,0.06014956793974813,-9.392758852777572e-05,-0.00419312420225848,-5.417783232819495e-05,-0.02448066645295932
482,0.0483,583.845,196.665,-1.12214e-05,338.857,-0.536941,-0.309745,0.0305052,-0.00421122,-0.0248371,0.0585292,-9.41475e-05,-5.43035e-05,0.0442534,0.03097525110614785,0.06027594530018754,-9.414306826316388e-05,-0.004202365247187312,-5.4302025591645986e-05,-0.024531197045683406
483,0.0484,584.04,196.731,-1.14328e-05,338.97,-0.53705,-0.309807,0.0305667,-0.00422051,-0.0248889,0.0586484,-9.4363e-05,-5.44277e-05,0.0443493,0.031038658033833988,0.060402337725706357,-9.435854795214471e-05,-0.004211616164243592,-5.44262188395539e-05,-0.02458172502099054
484,0.0485,584.234,196.797,-1.16443e-05,339.083,-0.537158,-0.30987,0.0306281,-0.00422979,-0.0249406,0.0587676,-9.45784e-05,-5.45519e-05,0.0444453,0.031101965750964133,0.06052874521810003,-9.457392760414685e-05,-0.0042208570375679155,-5.455041207214073e-05,-0.02463215284223652
485,0.0486,584.428,196.863,-1.1856e-05,339.196,-0.537267,-0.309933,0.0306896,-0.00423907,-0.0249924,0.0588867,-9.47938e-05,-5.46761e-05,0.0445412,0.031165380471840587,0.060655061713653646,-9.478930720974166e-05,-0.00423009782513728,-5.4674605289295464e-05,-0.024682675588168945
486,0.0487,584.621,196.928,-1.20678e-05,339.309,-0.537376,-0.309996,0.030751,-0.00424835,-0.0250442,0.0590059,-9.50091e-05,-5.48002e-05,0.0446371,0.031228695969967468,0.06078149933254218,-9.500458677835777e-05,-0.004239338526952463,-5.4798698496449916e-05,-0.02473319571709076
487,0.0488,584.815,196.993,-1.22798e-05,339.421,-0.537485,-0.310059,0.0308124,-0.00425763,-0.025096,0.0591251,-9.52244e-05,-5.49243e-05,0.0447331,0.031292015355785185,0.06090795202369326,-9.521986630067758e-05,-0.004248579143014464,-5.492279168828329e-05,-0.02478371322913775
488,0.0489,585.007,197.059,-1.2492e-05,339.533,-0.537594,-0.310121,0.0308739,-0.00426691,-0.0251477,0.0592442,-9.54397e-05,-5.50484e-05,0.044829,0.03135544176507166,0.06103431368546697,-9.543514577670109e-05,-0.004257819673323837,-5.5046884864684564e-05,-0.024834130607863325
489,0.049,585.2,197.124,-1.27043e-05,339.645,-0.537703,-0.310184,0.0309353,-0.00427619,-0.0251995,0.0593633,-9.56549e-05,-5.51725e-05,0.0449249,0.031418768933320296,0.0611606903978108,-9.565032521596795e-05,-0.004267060117881583,-5.517097802565374e-05,-0.024884642891618403
490,0.0491,585.392,197.189,-1.29168e-05,339.757,-0.537812,-0.310247,0.0309967,-0.00428546,-0.0252512,0.0594825,-9.58701e-05,-5.52965e-05,0.0450208,0.03148209998997631,0.0612871882912307,-9.586550460882748e-05,-0.004276290519451331,-5.5294971176733654e-05,-0.024935055052415334
491,0.0492,585.584,197.254,-1.31294e-05,339.869,-0.537921,-0.310311,0.0310581,-0.00429474,-0.025303,0.0596016,-9.60852e-05,-5.54206e-05,0.0451167,0.031545434935278616,0.0614135951227337,-9.608058396504138e-05,-0.004285530792600412,-5.541906430694965e-05,-0.024985562108419623
492,0.0493,585.776,197.319,-1.33422e-05,339.98,-0.538031,-0.310374,0.0311195,-0.00430402,-0.0253547,0.0597207,-9.63003e-05,-5.55446e-05,0.0452126,0.031608773769465914,0.06154001701018674,-9.629566327495898e-05,-0.004294770980000084,-5.554305742727639e-05,-0.025035969051827922
493,0.0494,585.967,197.383,-1.35551e-05,340.091,-0.53814,-0.310437,0.0311809,-0.00431329,-0.0254065,0.0598398,-9.65154e-05,-5.56685e-05,0.0453085,0.031672116492777125,0.06166645395538328,-9.651074253858027e-05,-0.004304001124691315,-5.566695053782489e-05,-0.025086470880622325
494,0.0495,586.158,197.448,-1.37682e-05,340.202,-0.53825,-0.3105,0.0312423,-0.00432257,-0.0254582,0.0599589,-9.67304e-05,-5.57925e-05,0.0454044,0.031735463105450945,0.06179290596011677,-9.672572176566696e-05,-0.004313241140687096,-5.579094362739845e-05,-0.025136872607182004
495,0.0496,586.348,197.512,-1.39815e-05,340.313,-0.53836,-0.310563,0.0313037,-0.00433184,-0.02551,0.0600779,-9.69454e-05,-5.59164e-05,0.0455002,0.03179881360772607,0.061919266834248976,-9.694070094656837e-05,-0.004322471114160731,-5.591483670719377e-05,-0.025187369209307642
496,0.0497,586.538,197.577,-1.41949e-05,340.424,-0.53847,-0.310627,0.0313651,-0.00434112,-0.0255617,0.060197,-9.71603e-05,-5.60403e-05,0.0455961,0.03186216799984143,0.062045748950789514,-9.715558009093517e-05,-0.004331710958755841,-5.6038729771668017e-05,-0.02523776571955849
497,0.0498,586.728,197.641,-1.44084e-05,340.534,-0.53858,-0.31069,0.0314264,-0.00435039,-0.0256134,0.060316,-9.73752e-05,-5.61642e-05,0.045692,0.031925423089488536,0.06217213991502768,-9.737045918911669e-05,-0.0043409407610151,-5.6162622820821184e-05,-0.025288159624377138
498,0.0499,586.918,197.705,-1.46221e-05,340.645,-0.53869,-0.310754,0.0314878,-0.00435966,-0.0256651,0.0604351,-9.759e-05,-5.6288e-05,0.0457878,0.03198878525566484,0.06229865215054575,-9.758523825087462e-05,-0.004350170477714466,-5.6286415860196115e-05,-0.02533855092389825
499,0.05,587.107,197.769,-1.4836e-05,340.755,-0.5388,-0.310817,0.0315492,-0.00436893,-0.0257168,0.0605541,-9.78048e-05,-5.64119e-05,0.0458836,0.03205215131239769,0.062425073212055704,-9.780001726644727e-05,-0.004359400108854716,-5.641030887870713e-05,-0.0253889396182565
500,0.0501,587.296,197.833,-1.505e-05,340.864,-0.53891,-0.310881,0.0316105,-0.0043782,-0.0257686,0.0606731,-9.80196e-05,-5.65357e-05,0.0459795,0.0321154180483787,0.0625515093185669,-9.801479623594567e-05,-0.004368629654436629,-5.65341018874399e-05,-0.02543942316364911
501,0.0502,587.484,197.897,-1.52642e-05,340.974,-0.53902,-0.310945,0.0316719,-0.00438747,-0.0258203,0.0607921,-9.82344e-05,-5.66595e-05,0.0460753,0.032178791880603574,0.06267796047187035,-9.822957515936981e-05,-0.004377859114461202,-5.66578948808516e-05,-0.025489806643047452
502,0.0503,587.672,197.961,-1.54785e-05,341.084,-0.539131,-0.311008,0.0317332,-0.00439674,-0.025872,0.0609111,-9.84491e-05,-5.67832e-05,0.0461711,0.03224206637988947,0.06280442667375619,-9.844425404637036e-05,-0.004387088488928992,-5.6781587864596084e-05,-0.025540187517687163
503,0.0504,587.86,198.024,-1.5693e-05,341.193,-0.539241,-0.311072,0.0317946,-0.00440601,-0.0259237,0.0610301,-9.86637e-05,-5.6907e-05,0.0462669,0.03230544798856072,0.06293090792601563,-9.865883289716937e-05,-0.004396317777840886,-5.6905380827365626e-05,-0.025590565787702912
504,0.0505,588.048,198.088,-1.59076e-05,341.302,-0.539352,-0.311136,0.0318559,-0.00441528,-0.0259754,0.061149,-9.88783e-05,-5.70307e-05,0.0463628,0.03236873025210385,0.0630572979247046,-9.887341170200514e-05,-0.004405546981197661,-5.7029073780578976e-05,-0.025640941453229593
505,0.0506,588.235,198.151,-1.61224e-05,341.411,-0.539463,-0.3112,0.0319172,-0.00442455,-0.026027,0.061268,-9.90929e-05,-5.71544e-05,0.0464585,0.032432016394968954,0.06318380927043332,-9.908799046076666e-05,-0.004414776099000095,-5.7152766718360226e-05,-0.025691217083528173
506,0.0507,588.422,198.214,-1.63373e-05,341.52,-0.539574,-0.311264,0.0319785,-0.00443381,-0.0260787,0.061387,-9.93075e-05,-5.72781e-05,0.0465543,0.03249530641739318,0.06331033567190825,-9.930256917345393e-05,-0.004423995175488971,-5.727645964093142e-05,-0.025741587545517253
507,0.0508,588.608,198.278,-1.65524e-05,341.628,-0.539684,-0.311328,0.0320399,-0.00444308,-0.0261304,0.0615059,-9.9522e-05,-5.74017e-05,0.0466501,0.032558703575480186,0.0634367707872383,-9.951704785005067e-05,-0.004433224122277535,-5.7400052553946423e-05,-0.02579195540342083
508,0.0509,588.794,198.341,-1.67677e-05,341.737,-0.539796,-0.311392,0.0321012,-0.00445235,-0.0261821,0.0616248,-9.97364e-05,-5.75254e-05,0.0467459,0.03262200136406679,0.06356322093659728,-9.973142649055688e-05,-0.004442452983514089,-5.752374544587546e-05,-0.025842320657373463
509,0.051,588.98,198.404,-1.6983e-05,341.845,-0.539907,-0.311456,0.0321625,-0.00446161,-0.0262338,0.0617437,-9.99509e-05,-5.7649e-05,0.0468417,0.032685303032926605,0.06368968612177284,-9.994590507522716e-05,-0.004451671803716195,-5.764733832835933e-05,-0.025892683307509712
510,0.0511,589.166,198.466,-1.71986e-05,341.953,-0.540018,-0.31152,0.0322238,-0.00447087,-0.0262854,0.0618626,-0.000100165,-5.77726e-05,0.0469374,0.03274860858229789,0.0638161663445529,-0.00010015998365386913,-0.0044608905385524755,-5.7770931195522124e-05,-0.02594294594826374
511,0.0512,589.351,198.529,-1.74143e-05,342.061,-0.540129,-0.311584,0.0322851,-0.00448014,-0.0263371,0.0619815,-0.00010038,-5.78961e-05,0.0470332,0.03281191801241823,0.06394266160672557,-0.00010037496209636121,-0.004470119143322515,-5.7894424053128724e-05,-0.02599330339620698
512,0.0513,589.536,198.592,-1.76301e-05,342.168,-0.540241,-0.311649,0.0323463,-0.0044894,-0.0263887,0.0621004,-0.000100594,-5.80197e-05,0.0471289,0.03287512803600756,0.06406917191007921,-0.0001005889405932825,-0.0044793377073373275,-5.801801688976038e-05,-0.0260435608450984
513,0.0514,589.721,198.654,-1.78461e-05,342.276,-0.540352,-0.311713,0.0324076,-0.00449866,-0.0264404,0.0622193,-0.000100808,-5.81432e-05,0.0472247,0.03293844522200806,0.06419569725640195,-0.00010080291904435157,-0.004488556185988535,-5.814150971694687e-05,-0.02609391309138598
514,0.0515,589.905,198.717,-1.80622e-05,342.383,-0.540464,-0.311778,0.0324689,-0.00450792,-0.026492,0.0623381,-0.000101022,-5.82667e-05,0.0473204,0.033001766289471046,0.06432213121526464,-0.00010101689744956843,-0.004497774579277025,-5.826500252881228e-05,-0.02614416534895103
515,0.0516,590.089,198.779,-1.82785e-05,342.49,-0.540576,-0.311842,0.0325302,-0.00451718,-0.0265437,0.062457,-0.000101237,-5.83902e-05,0.0474162,0.033065091238634325,0.06444868664023695,-0.00010123187570787451,-0.004506992887203576,-5.838849532546764e-05,-0.026194512394120184
516,0.0517,590.273,198.841,-1.84949e-05,342.597,-0.540688,-0.311907,0.0325914,-0.00452644,-0.0265953,0.0625758,-0.000101451,-5.85136e-05,0.0475119,0.03312831675689942,0.0645751506560237,-0.00010144585402127593,-0.004516211109768964,-5.8511888112677823e-05,-0.026244759460895217
517,0.0518,590.456,198.903,-1.87115e-05,342.704,-0.540799,-0.311971,0.0326527,-0.0045357,-0.026647,0.0626947,-0.000101665,-5.86371e-05,0.0476076,0.03319164946384423,0.06470173616679609,-0.00010165983228904718,-0.0045254292469740776,-5.8635380878802046e-05,-0.02629510130548318
518,0.0519,590.639,198.965,-1.89282e-05,342.81,-0.540911,-0.312036,0.0327139,-0.00454496,-0.0266986,0.0628135,-0.000101879,-5.87605e-05,0.0477033,0.03325488272770949,0.0648282302466523,-0.00010187381051096622,-0.004534647298819583,-5.875877363559212e-05,-0.02634534318200421
519,0.052,590.822,199.027,-1.91451e-05,342.917,-0.541024,-0.312101,0.0327752,-0.00455422,-0.0267502,0.0629323,-0.000102093,-5.88839e-05,0.047799,0.033318223193386176,0.06495473935489793,-0.00010208778868703305,-0.004543865265306368,-5.888216637717214e-05,-0.0263955824661114
520,0.0521,591.004,199.089,-1.93621e-05,343.023,-0.541136,-0.312165,0.0328364,-0.00456347,-0.0268018,0.0630511,-0.000102307,-5.90073e-05,0.0478947,0.03338146420380084,0.06508126349331822,-0.0001023017668173587,-0.004553073191965962,-5.9005559103542105e-05,-0.02644581915793831
521,0.0522,591.187,199.151,-1.95792e-05,343.129,-0.541248,-0.31223,0.0328976,-0.00457273,-0.0268535,0.0631699,-0.000102521,-5.91306e-05,0.0479904,0.033444709084683666,0.06520780266369908,-0.00010251574490183213,-0.004562290987829676,-5.912885182057792e-05,-0.026496150608008695
522,0.0523,591.368,199.212,-1.97965e-05,343.235,-0.541361,-0.312295,0.0329589,-0.00458199,-0.0269051,0.0632886,-0.000102735,-5.9254e-05,0.0480861,0.03350806118707261,0.0653342503343961,-0.00010272972294056437,-0.004571508698337112,-5.925224451641675e-05,-0.02654638211065341
523,0.0524,591.55,199.274,-2.0014e-05,343.34,-0.541473,-0.31236,0.0330201,-0.00459124,-0.0269567,0.0634074,-0.000102949,-5.93773e-05,0.0481817,0.03357131381592793,0.06546081956139904,-0.00010294370093355543,-0.004580716369296023,-5.937553720303246e-05,-0.026596611021419414
524,0.0525,591.731,199.335,-2.02316e-05,343.446,-0.541586,-0.312425,0.0330813,-0.0046005,-0.0270083,0.0635261,-0.000103163,-5.95006e-05,0.0482774,0.03363457031596262,0.06558729726698442,-0.00010315767888069427,-0.004589933909185273,-5.949882987443811e-05,-0.026646837340440488
525,0.0526,591.912,199.397,-2.04493e-05,343.551,-0.541699,-0.31249,0.0331425,-0.00460975,-0.0270599,0.0636449,-0.000103377,-5.96238e-05,0.048373,0.03369783068741361,0.06571389655774862,-0.00010337165678209193,-0.004599141409711849,-5.962202253650961e-05,-0.026697061067850414
526,0.0527,592.093,199.458,-2.06672e-05,343.656,-0.541811,-0.312555,0.0332037,-0.004619,-0.0271115,0.0637636,-0.00010359,-5.97471e-05,0.0484687,0.03376109493051782,0.0658404043053562,-0.00010358463474124946,-0.0046083488250694415,-5.974531517760617e-05,-0.026747282203782863
527,0.0528,592.273,199.519,-2.08853e-05,343.761,-0.541924,-0.31262,0.0332649,-0.00462825,-0.0271631,0.0638823,-0.000103804,-5.98703e-05,0.0485643,0.033824363045512174,0.06596692707032492,-0.00010379861255116474,-0.0046175561552588285,-5.986850780936859e-05,-0.026797500748371617
528,0.0529,592.453,199.58,-2.11034e-05,343.866,-0.542037,-0.312685,0.0333261,-0.0046375,-0.0272147,0.064001,-0.000104018,-5.99935e-05,0.04866,0.03388763503263359,0.06609346485443712,-0.00010401259031544985,-0.004626763400280787,-5.9991700425920946e-05,-0.026847716701750235
529,0.053,592.633,199.641,-2.13218e-05,343.971,-0.54215,-0.312751,0.0333873,-0.00464675,-0.0272662,0.0641197,-0.000104232,-6.01167e-05,0.0487556,0.03395091089211921,0.0662200176594756,-0.00010422656803377173,-0.0046359705601362045,-6.011489302737427e-05,-0.026897832753840722
530,0.0531,592.812,199.702,-2.15402e-05,344.075,-0.542264,-0.312816,0.0334485,-0.004656,-0.0273178,0.0642384,-0.000104445,-6.02399e-05,0.0488512,0.03401419062420574,0.06634658548722383,-0.00010443954581085269,-0.004645177634825748,-6.023808561361754e-05,-0.0269480435302214
531,0.0532,592.991,199.762,-2.17588e-05,344.179,-0.542377,-0.312881,0.0335096,-0.00466525,-0.0273694,0.0643571,-0.000104659,-6.0363e-05,0.0489468,0.034077370821388175,0.06647316833946482,-0.00010465352343791423,-0.004654384624350194,-6.036117819074871e-05,-0.026998251715792954
532,0.0533,593.17,199.823,-2.19776e-05,344.283,-0.54249,-0.312947,0.0335708,-0.0046745,-0.027421,0.0644757,-0.000104873,-6.04862e-05,0.0490424,0.034140658293059456,0.06659965955801095,-0.00010486750101912357,-0.004663591528710431,-6.048437074668289e-05,-0.027048457310688945
533,0.0534,593.349,199.883,-2.21965e-05,344.387,-0.542604,-0.313012,0.033632,-0.00468375,-0.0274725,0.0645944,-0.000105086,-6.06093e-05,0.049138,0.03420394963804241,0.06672627245192686,-0.00010508047865975811,-0.0046727983479071256,-6.060746329350497e-05,-0.02709856302490421
534,0.0535,593.527,199.944,-2.24156e-05,344.491,-0.542718,-0.313078,0.0336931,-0.004693,-0.0275241,0.064713,-0.0001053,-6.07324e-05,0.0492336,0.034267141429854764,0.06685279369040087,-0.0001052944561495961,-0.004682005081941276,-6.0730555825116994e-05,-0.027148763443870183
535,0.0536,593.705,200.004,-2.26347e-05,344.595,-0.542831,-0.313144,0.0337543,-0.00470224,-0.0275756,0.0648316,-0.000105513,-6.08554e-05,0.0493292,0.034330440515842664,0.06697932993518352,-0.00010550743369919235,-0.004691201777725529,-6.085354834772794e-05,-0.027198863992452638
536,0.0537,593.882,200.064,-2.28541e-05,344.698,-0.542945,-0.313209,0.0338154,-0.00471149,-0.0276272,0.0649503,-0.000105727,-6.09785e-05,0.0494248,0.03439364003648393,0.06710598789864841,-0.00010572141109765898,-0.004700408341528628,-6.097664084903087e-05,-0.027249059236022166
537,0.0538,594.06,200.125,-2.30735e-05,344.801,-0.543059,-0.313275,0.0338765,-0.00472073,-0.0276787,0.0650689,-0.00010594,-6.11015e-05,0.0495204,0.034456843418733785,0.06723255417404483,-0.00010593438855632797,-0.0047096048672675694,-6.109963334133273e-05,-0.027299154619504273
538,0.0539,594.237,200.185,-2.32932e-05,344.904,-0.543173,-0.313341,0.0339377,-0.00472998,-0.0277303,0.0651875,-0.000106153,-6.12245e-05,0.0496159,0.03452015411483855,0.06735913546109185,-0.00010614736596969987,-0.004718811260842837,-6.122262581853555e-05,-0.02734934468821104
539,0.054,594.414,200.244,-2.35129e-05,345.007,-0.543287,-0.313407,0.0339988,-0.00473922,-0.0277818,0.0653061,-0.000106367,-6.13475e-05,0.0497115,0.03458336522733463,0.0674857317615698,-0.000106361343231276,-0.004728007616539576,-6.134561828063934e-05,-0.027399434907125375
540,0.0541,594.59,200.304,-2.37328e-05,345.11,-0.543401,-0.313473,0.0340599,-0.00474846,-0.0278334,0.0654246,-0.00010658,-6.14705e-05,0.049807,0.034646580202147836,0.0676122363160303,-0.0001065743205536096,-0.004737203887262398,-6.146861072753307e-05,-0.027449619801502734
541,0.0542,594.766,200.364,-2.39529e-05,345.213,-0.543516,-0.313538,0.034121,-0.0047577,-0.0278849,0.0655432,-0.000106793,-6.15935e-05,0.0499026,0.03470979903951399,0.06773886263604978,-0.00010678729783053509,-0.004746400073011969,-6.159160315932777e-05,-0.027499704856381757
542,0.0543,594.942,200.424,-2.41731e-05,345.315,-0.54363,-0.313605,0.0341821,-0.00476695,-0.0279364,0.0656617,-0.000107007,-6.17164e-05,0.0499981,0.03477302173966912,0.06786539718829632,-0.00010700127495522072,-0.004755606126233269,-6.171449558212139e-05,-0.027549787331946796
543,0.0544,595.118,200.483,-2.43934e-05,345.417,-0.543745,-0.313671,0.0342433,-0.00477619,-0.0279879,0.0657803,-0.00010722,-6.18393e-05,0.0500936,0.03483635178647937,0.06799205353497562,-0.00010721425214121894,-0.004764802141946967,-6.1837387989927e-05,-0.027599867228330854
544,0.0545,595.293,200.543,-2.46139e-05,345.52,-0.543859,-0.313737,0.0343043,-0.00478543,-0.0280394,0.0658988,-0.000107433,-6.19622e-05,0.0501891,0.034899478729290445,0.06811861809212161,-0.00010742722928192006,-0.004773998072689967,-6.196028038252255e-05,-0.027649944545666605
545,0.0546,595.468,200.602,-2.48345e-05,345.621,-0.543974,-0.313803,0.0343654,-0.00479466,-0.028091,0.0660173,-0.000107646,-6.20851e-05,0.0502847,0.03496271301922871,0.06824519764805603,-0.00010764020637721305,-0.004783183966294735,-6.208317276001907e-05,-0.02770011651408011
546,0.0547,595.643,200.661,-2.50552e-05,345.723,-0.544089,-0.313869,0.0344265,-0.0048039,-0.0281425,0.0661358,-0.000107859,-6.2208e-05,0.0503802,0.03502595117290008,0.06837179220455658,-0.00010785318342720895,-0.004792379727190488,-6.220606512252758e-05,-0.027750188668710596
547,0.0548,595.818,200.72,-2.52761e-05,345.825,-0.544204,-0.313935,0.0344876,-0.00481314,-0.028194,0.0662543,-0.000108072,-6.23308e-05,0.0504757,0.035089193190540824,0.06849840176340116,-0.00010806616043179673,-0.004801575403117653,-6.2328857476035e-05,-0.027800258244691456
548,0.0549,595.992,200.779,-2.54972e-05,345.926,-0.544319,-0.314002,0.0345487,-0.00482238,-0.0282455,0.0663728,-0.000108286,-6.24536e-05,0.0505711,0.03515243907238674,0.06862502632636724,-0.00010828013728270136,-0.004810770994077229,-6.245164981455442e-05,-0.027850325242155693
549,0.055,596.166,200.838,-2.57184e-05,346.028,-0.544434,-0.314068,0.0346097,-0.00483161,-0.028297,0.0664913,-0.000108499,-6.25764e-05,0.0506666,0.03521558529711033,0.06875166589523318,-0.00010849311419636187,-0.0048199565482696105,-6.25744421379748e-05,-0.02790038966123587
550,0.0551,596.34,200.897,-2.59397e-05,346.129,-0.544549,-0.314135,0.0346708,-0.00484085,-0.0283484,0.0666098,-0.000108712,-6.26992e-05,0.0507621,0.03527883890174999,0.06887832047177711,-0.00010870609106461426,-0.004829151969388157,-6.269723444618513e-05,-0.02795035429710513
551,0.0552,596.513,200.956,-2.61611e-05,346.23,-0.544664,-0.314201,0.0347319,-0.00485008,-0.0283999,0.0667282,-0.000108925,-6.2822e-05,0.0508576,0.03534209637130292,0.06900488315728426,-0.00010891906788756955,-0.004838337353924915,-6.282002673951848e-05,-0.028000413564821636
552,0.0553,596.686,201.015,-2.63827e-05,346.331,-0.54478,-0.314268,0.0347929,-0.00485932,-0.0284514,0.0668467,-0.000109138,-6.29447e-05,0.050953,0.0354052541654748,0.06913156774185181,-0.00010913204466511672,-0.004847532605205651,-6.294271902396176e-05,-0.028050470254552207
553,0.0554,596.859,201.073,-2.66045e-05,346.431,-0.544895,-0.314334,0.0348539,-0.00486855,-0.0285029,0.0669651,-0.00010935,-6.30675e-05,0.0510485,0.035468415812389464,0.06925816041361066,-0.00010934402150664102,-0.004856717820089784,-6.306551128698601e-05,-0.028100524366429624
554,0.0555,597.032,201.132,-2.68264e-05,346.532,-0.545011,-0.314401,0.034915,-0.00487778,-0.0285544,0.0670835,-0.000109563,-6.31902e-05,0.0511439,0.035531684865445445,0.06938476807482918,-0.00010955699819370501,-0.004865902950194845,-6.318820354134225e-05,-0.028150575900586672
555,0.0556,597.204,201.19,-2.70484e-05,346.632,-0.545126,-0.314468,0.034976,-0.00488701,-0.0286058,0.0672019,-0.000109776,-6.33129e-05,0.0512394,0.03559485422486808,0.06951139072728241,-0.00010976997483536088,-0.00487508799552161,-6.331089578059945e-05,-0.028200527677213705
556,0.0557,597.376,201.249,-2.72706e-05,346.732,-0.545242,-0.314535,0.035037,-0.00489624,-0.0286573,0.0673203,-0.000109989,-6.34355e-05,0.0513348,0.03565802743773938,0.06963802837274513,-0.00010998295143171966,-0.004884272956070745,-6.343348801118864e-05,-0.02825057406133291
557,0.0558,597.548,201.307,-2.74929e-05,346.832,-0.545358,-0.314601,0.0350981,-0.00490547,-0.0287087,0.0674387,-0.000110202,-6.35582e-05,0.0514302,0.0357213080764196,0.06976468101299282,-0.0001101959279826703,-0.00489345783184314,-6.35561802203588e-05,-0.02830052069818656
558,0.0559,597.719,201.365,-2.77153e-05,346.932,-0.545474,-0.314668,0.0351591,-0.0049147,-0.0287602,0.0675571,-0.000110414,-6.36808e-05,0.0515256,0.03578448900321085,0.06989134864980096,-0.00011040790459859728,-0.004902642622839459,-6.367877242086095e-05,-0.028350561932797835
559,0.056,597.89,201.423,-2.79379e-05,347.032,-0.54559,-0.314735,0.0352201,-0.00492393,-0.0288116,0.0676754,-0.000110627,-6.38035e-05,0.051621,0.03584767378415621,0.07001792428314735,-0.00011062088105906476,-0.004911827329060592,-6.380146459994407e-05,-0.028400503430406898
560,0.0561,598.061,201.481,-2.81606e-05,347.131,-0.545706,-0.314802,0.0352811,-0.00493316,-0.0288631,0.0677938,-0.00011084,-6.39261e-05,0.0517164,0.03591086241949104,0.07014462190573356,-0.00011083385747412411,-0.004921011950507204,-6.392405677035917e-05,-0.02845053951604004
561,0.0562,598.232,201.539,-2.83835e-05,347.231,-0.545822,-0.314869,0.0353421,-0.00494239,-0.0289145,0.0679121,-0.000111053,-6.40487e-05,0.0518118,0.035974054909449826,0.07027122750307857,-0.00011104683384388636,-0.004930196487180183,-6.404664892578626e-05,-0.02850047587493343
562,0.0563,598.402,201.597,-2.86065e-05,347.33,-0.545939,-0.314937,0.0354031,-0.00495161,-0.028966,0.0680305,-0.000111265,-6.41712e-05,0.0519072,0.036037251254268154,0.07039795511854163,-0.0001112588102794021,-0.004939370988474079,-6.416914107254534e-05,-0.028550506812118237
563,0.0564,598.573,201.655,-2.88296e-05,347.429,-0.546055,-0.315004,0.0354641,-0.00496084,-0.0290174,0.0681488,-0.000111478,-6.42938e-05,0.0520026,0.03610045145418117,0.07052459068697847,-0.00011147178655868117,-0.00494855535569394,-6.429173319788539e-05,-0.02860043803282475
564,0.0565,598.742,201.712,-2.90529e-05,347.528,-0.546172,-0.315071,0.035525,-0.00497007,-0.0290688,0.0682671,-0.00011169,-6.44163e-05,0.052098,0.03616355189306364,0.07065124123728905,-0.00011168376290415782,-0.0049577396381425,-6.441422531466845e-05,-0.02865036668713239
565,0.0566,598.912,201.77,-2.92763e-05,347.627,-0.546288,-0.315138,0.035586,-0.00497929,-0.0291202,0.0683854,-0.000111903,-6.45388e-05,0.0521933,0.036226759797550745,0.07077790677124596,-0.0001118967390928427,-0.004966913885489643,-6.45367174164635e-05,-0.028700292775173275
566,0.0567,599.081,201.827,-2.94999e-05,347.725,-0.546405,-0.315206,0.035647,-0.00498851,-0.0291717,0.0685037,-0.000112115,-6.46613e-05,0.0522887,0.03628997155783731,0.07090458729062199,-0.00011210871534828026,-0.004976088048250671,-6.465920950315951e-05,-0.028750313422052587
567,0.0568,599.25,201.885,-2.97236e-05,347.824,-0.546522,-0.315273,0.0357079,-0.00499774,-0.0292231,0.068622,-0.000112328,-6.47838e-05,0.052384,0.036353083538845476,0.07103128279718995,-0.00011232169144637094,-0.004985272076573621,-6.478170157497853e-05,-0.028800234372963307
568,0.0569,599.419,201.942,-2.99474e-05,347.922,-0.546639,-0.31534,0.0357689,-0.00500696,-0.0292745,0.0687402,-0.00011254,-6.49063e-05,0.0524794,0.03641630300511567,0.07115788617692886,-0.00011253366761176942,-0.004994446070072933,-6.490419363169853e-05,-0.028850152758003067
569,0.057,599.588,201.999,-3.01714e-05,348.02,-0.546756,-0.315408,0.0358298,-0.00501618,-0.0293259,0.0688585,-0.000112753,-6.50287e-05,0.0525747,0.036479422679943196,0.07128461165052769,-0.00011274664361937692,-0.0050036199789883495,-6.502658567997255e-05,-0.02890006857730376
570,0.0571,599.756,202.056,-3.03955e-05,348.118,-0.546873,-0.315476,0.0358908,-0.0050254,-0.0293773,0.0689767,-0.000112965,-6.51512e-05,0.05267,0.03654264985313582,0.07141124497550688,-0.00011295861969462528,-0.005012793803320759,-6.51490777066055e-05,-0.028949981830997285
571,0.0572,599.924,202.113,-3.06198e-05,348.216,-0.54699,-0.315543,0.0359517,-0.00503462,-0.0294287,0.069095,-0.000113177,-6.52736e-05,0.0527654,0.03660577722272085,0.07153800042322422,-0.00011317059572490962,-0.005021967543070938,-6.52714697249035e-05,-0.02899989251921542
572,0.0573,600.092,202.17,-3.08442e-05,348.314,-0.547108,-0.315611,0.0360126,-0.00504384,-0.0294801,0.0692132,-0.00011339,-6.5396e-05,0.0528607,0.036668908436879644,0.07166466370052649,-0.00011338357159695889,-0.005031141198239553,-6.539386172821349e-05,-0.029049800642090173
573,0.0574,600.259,202.227,-3.10687e-05,348.412,-0.547225,-0.315679,0.0360736,-0.00505306,-0.0295315,0.0693314,-0.000113602,-6.55184e-05,0.052956,0.03673214716905604,0.07179134195031311,-0.00011359554753709311,-0.005040314768827492,-6.551625371653547e-05,-0.02909970619975344
574,0.0575,600.427,202.284,-3.12934e-05,348.509,-0.547342,-0.315746,0.0361345,-0.00506228,-0.0295828,0.0694496,-0.000113814,-6.56407e-05,0.0530513,0.036795286079378764,0.07191803517435358,-0.00011380752343237432,-0.005049488254835421,-6.563854569641148e-05,-0.029149512107292885
575,0.0576,600.594,202.34,-3.15182e-05,348.606,-0.54746,-0.315814,0.0361954,-0.00507149,-0.0296342,0.0695678,-0.000114027,-6.57631e-05,0.0531466,0.036858428834978474,0.07204474337441824,-0.00011402049916875434,-0.005058651706850825,-6.576093765475743e-05,-0.029199412539918534
576,0.0577,600.761,202.397,-3.17431e-05,348.704,-0.547578,-0.315882,0.0362563,-0.00508071,-0.0296856,0.069686,-0.000114239,-6.58854e-05,0.0532418,0.03692157543608898,0.07217146655227746,-0.00011423247497388545,-0.005067825023793104,-6.588322960465742e-05,-0.029249310407727713
577,0.0578,600.927,202.453,-3.19682e-05,348.801,-0.547695,-0.31595,0.0363172,-0.00508992,-0.029737,0.0698041,-0.000114451,-6.60077e-05,0.0533371,0.03698472588294477,0.07229809747988636,-0.00011444445073416354,-0.005076988306927599,-6.600552153968042e-05,-0.02929920571085254
578,0.0579,601.093,202.51,-3.21935e-05,348.897,-0.547813,-0.316018,0.0363781,-0.00509914,-0.0297883,0.0699223,-0.000114663,-6.61301e-05,0.0534324,0.037047880175779646,0.07242485060597059,-0.0001146564264494776,-0.005086161454807114,-6.612791345317337e-05,-0.02934900138432961
579,0.058,601.259,202.566,-3.24188e-05,348.994,-0.547931,-0.316086,0.036439,-0.00510835,-0.0298397,0.0700404,-0.000114875,-6.62523e-05,0.0535276,0.03711103831482809,0.07255151146000349,-0.00011486840211982763,-0.005095324569063919,-6.625010536487341e-05,-0.029398891563469864
580,0.0581,601.425,202.622,-3.26443e-05,349.091,-0.548049,-0.316154,0.0364999,-0.00511756,-0.029891,0.0701586,-0.000115087,-6.63746e-05,0.0536229,0.03717420030032459,0.07267829454139041,-0.00011508037774521362,-0.005104487598928897,-6.637239725493238e-05,-0.029448682123193848
581,0.0582,601.591,202.679,-3.287e-05,349.187,-0.548168,-0.316222,0.0365608,-0.00512678,-0.0299424,0.0702767,-0.0001153,-6.64969e-05,0.0537181,0.037237366132502725,0.07280498532891966,-0.00011529335321047718,-0.0051136604932661145,-6.649468913011436e-05,-0.02949856717887589
582,0.0583,601.756,202.735,-3.30958e-05,349.283,-0.548286,-0.316291,0.0366216,-0.00513599,-0.0299937,0.0703948,-0.000115512,-6.66191e-05,0.0538134,0.037300432081549095,0.07293169107951414,-0.00011550532874582409,-0.005122823354257955,-6.661688099707241e-05,-0.02954835262537192
583,0.0584,601.921,202.791,-3.33217e-05,349.379,-0.548404,-0.316359,0.0366825,-0.0051452,-0.0300451,0.0705129,-0.000115724,-6.67413e-05,0.0539086,0.037363605601477,0.07305841179494177,-0.00011571730423620696,-0.005131986130860189,-6.673907284893144e-05,-0.029598232558121773
584,0.0585,602.086,202.847,-3.35477e-05,349.475,-0.548523,-0.316427,0.0367434,-0.00515441,-0.0300964,0.070631,-0.000115936,-6.68635e-05,0.0540038,0.03742678296878954,0.07318514747696936,-0.00011592927968162581,-0.0051411488230735936,-6.686126468602449e-05,-0.029648012891914988
585,0.0586,602.25,202.903,-3.37739e-05,349.571,-0.548641,-0.316496,0.0368042,-0.00516362,-0.0301477,0.0707491,-0.000116148,-6.69857e-05,0.0540991,0.03748986043472957,0.07331189812736505,-0.00011614125508219164,-0.005150311430899057,-6.698345650812954e-05,-0.0296977906720427
586,0.0587,602.414,202.958,-3.40003e-05,349.667,-0.54876,-0.316564,0.0368651,-0.00517283,-0.0301991,0.0708672,-0.00011636,-6.71079e-05,0.0541943,0.037553045491195425,0.07343866374789632,-0.00011635323043779344,-0.005159473954337357,-6.710564831524657e-05,-0.02974766292387432
587,0.0588,602.578,203.014,-3.42267e-05,349.763,-0.548879,-0.316633,0.0369259,-0.00518204,-0.0302504,0.0709852,-0.000116571,-6.723e-05,0.0542895,0.037616130634130274,0.07356533698379253,-0.00011656420586503291,-0.005168636393389159,-6.722774011413968e-05,-0.029797435592086474
588,0.0589,602.742,203.07,-3.44533e-05,349.858,-0.548997,-0.316701,0.0369867,-0.00519124,-0.0303017,0.0711033,-0.000116783,-6.73522e-05,0.0543847,0.03767921961275822,0.0736921325372204,-0.00011677618113092869,-0.005177788799833216,-6.734993189150273e-05,-0.02984720570702626
589,0.059,602.906,203.125,-3.46801e-05,349.953,-0.549116,-0.31677,0.0370476,-0.00520045,-0.030353,0.0712213,-0.000116995,-6.74743e-05,0.0544798,0.03774241620154939,0.07381883568419845,-0.00011698815635186044,-0.005186951070205947,-6.747202366064187e-05,-0.029896973268824567
590,0.0591,603.069,203.18,-3.4907e-05,350.048,-0.549235,-0.316838,0.0371084,-0.00520966,-0.0304043,0.0713393,-0.000117207,-6.75964e-05,0.054575,0.037805512858573254,0.07394555378303003,-0.00011720013152793918,-0.005196113256194734,-6.759411541479299e-05,-0.029946738277612517
591,0.0592,603.232,203.236,-3.5134e-05,350.143,-0.549354,-0.316907,0.0371692,-0.00521886,-0.0304556,0.0714574,-0.000117419,-6.77185e-05,0.0546702,0.03786861335199054,0.0740723942427135,-0.00011741210665905388,-0.005205265409852777,-6.771620715417814e-05,-0.029996500733520892
592,0.0593,603.395,203.291,-3.53612e-05,350.238,-0.549474,-0.316976,0.03723,-0.00522806,-0.0305069,0.0715754,-0.000117631,-6.78406e-05,0.0547654,0.03793171768203463,0.07419914226322022,-0.00011762408174520456,-0.005214417479311395,-6.783829887857529e-05,-0.03004626063668092
593,0.0594,603.557,203.346,-3.55885e-05,350.333,-0.549593,-0.317045,0.0372908,-0.00523727,-0.0305582,0.0716934,-0.000117842,-6.79627e-05,0.0548605,0.03799482584893843,0.07432590524087601,-0.00011783505690421414,-0.005223579412335644,-6.796039058798442e-05,-0.030096017987223278
594,0.0595,603.719,203.401,-3.58159e-05,350.427,-0.549712,-0.317114,0.0373516,-0.00524647,-0.0306095,0.0718113,-0.000118054,-6.80847e-05,0.0549557,0.03805793785293554,0.07445257573218256,-0.00011804703190076982,-0.00523273131330626,-6.808238228939167e-05,-0.03014577278527908
595,0.0596,603.881,203.456,-3.60435e-05,350.522,-0.549832,-0.317183,0.0374124,-0.00525567,-0.0306608,0.0719293,-0.000118266,-6.82067e-05,0.0550508,0.03812105369425933,0.07457936861675196,-0.00011825900685236146,-0.005241883130079783,-6.820437397592194e-05,-0.03019552503097911
596,0.0597,604.043,203.511,-3.62712e-05,350.616,-0.549951,-0.317252,0.0374732,-0.00526487,-0.0307121,0.0720473,-0.000118477,-6.83288e-05,0.0551459,0.03818417337314273,0.07470617646376465,-0.00011846998187736713,-0.005251034862656989,-6.832646564070011e-05,-0.030245274724454485
597,0.0598,604.205,203.566,-3.6499e-05,350.71,-0.550071,-0.317321,0.037534,-0.00527407,-0.0307634,0.0721652,-0.000118689,-6.84508e-05,0.0552411,0.038247296889819093,0.07483289179169139,-0.00011868195673925275,-0.005260186511038545,-6.84484572974764e-05,-0.030295021865836103
598,0.0599,604.366,203.621,-3.6727e-05,350.804,-0.550191,-0.31739,0.0375948,-0.00528327,-0.0308146,0.0722832,-0.000118901,-6.85728e-05,0.0553362,0.038310424244522245,0.07495972955620389,-0.00011889393155628536,-0.005269338075225449,-6.857044893926467e-05,-0.030344669489726472
599,0.06,604.527,203.676,-3.69551e-05,350.898,-0.550311,-0.317459,0.0376556,-0.00529247,-0.0308659,0.0724011,-0.000119112,-6.86947e-05,0.0554313,0.03837355543748511,0.07508647477980257,-0.00011910490644739813,-0.005278489555218258,-6.869234057316209e-05,-0.03039441153228739
600,0.0601,604.688,203.73,-3.71834e-05,350.992,-0.550431,-0.317528,0.0377163,-0.00530167,-0.0309172,0.072519,-0.000119324,-6.88167e-05,0.0555264,0.03843658662527738,0.07521323494754428,-0.0001193168811746137,-0.005287640951017858,-6.881433218519639e-05,-0.030444151023146904
601,0.0602,604.849,203.785,-3.74118e-05,351.086,-0.550551,-0.317597,0.0377771,-0.00531087,-0.0309684,0.0726369,-0.000119535,-6.89386e-05,0.0556215,0.03849972548914615,0.07534001006119073,-0.00011952785597657556,-0.0052967922626250274,-6.893622378933983e-05,-0.030493791011820037
602,0.0603,605.009,203.839,-3.76403e-05,351.179,-0.550671,-0.317667,0.0378379,-0.00532006,-0.0310197,0.0727548,-0.000119747,-6.90606e-05,0.0557166,0.03856286819197474,0.07546680012250406,-0.00011973983061419613,-0.005305933543099828,-6.905821537162016e-05,-0.030543525404643
603,0.0604,605.169,203.894,-3.7869e-05,351.272,-0.550791,-0.317736,0.0378986,-0.00532926,-0.0310709,0.0728727,-0.000119958,-6.91825e-05,0.0558116,0.03862591087139977,0.07559360513324709,-0.00011995080532678504,-0.0053150846864159496,-6.918010694600962e-05,-0.030593160305477984
604,0.0605,605.329,203.948,-3.80978e-05,351.366,-0.550911,-0.317805,0.0379594,-0.00533846,-0.0311222,0.0729906,-0.00012017,-6.93044e-05,0.0559067,0.03868906124653271,0.07572042509518218,-0.00012016277987481061,-0.005324235745541861,-6.93019985055221e-05,-0.030642889600786982
605,0.0606,605.489,204.002,-3.83268e-05,351.459,-0.551032,-0.317875,0.0380201,-0.00534765,-0.0311734,0.0731084,-0.000120381,-6.94263e-05,0.0560018,0.03875211158610892,0.07584715242535145,-0.00012037375449813759,-0.005333376773812293,-6.942389005015759e-05,-0.030692519414305397
606,0.0607,605.648,204.056,-3.85559e-05,351.552,-0.551152,-0.317944,0.0380808,-0.00535684,-0.0312247,0.0732263,-0.000120593,-6.95482e-05,0.0560968,0.03881516575295674,0.07597400228227458,-0.00012058572895645714,-0.005342517718077033,-6.954578158002711e-05,-0.030742243612622788
607,0.0608,605.808,204.111,-3.87851e-05,351.644,-0.551273,-0.318014,0.0381415,-0.00536604,-0.0312759,0.0733441,-0.000120804,-6.967e-05,0.0561919,0.03887822374730865,0.07610075948559603,-0.0001207967034906332,-0.0053516685248202744,-6.966757310189475e-05,-0.030791868339345996
608,0.0609,605.967,204.165,-3.90145e-05,351.737,-0.551394,-0.318084,0.0382023,-0.00537523,-0.0313271,0.073462,-0.000121016,-6.97919e-05,0.0562869,0.03894138946353087,0.07622763924455422,-0.00012100867785924674,-0.0053608093009845925,-6.97894646020103e-05,-0.030841490525348236
609,0.061,606.125,204.218,-3.9244e-05,351.83,-0.551514,-0.318153,0.038263,-0.00538442,-0.0313784,0.0735798,-0.000121227,-6.99137e-05,0.056382,0.0390044551198947,0.07635442632806999,-0.00012121965230416087,-0.005369949993145551,-6.991125609423499e-05,-0.030891207081643723
610,0.0611,606.284,204.272,-3.94736e-05,351.922,-0.551635,-0.318223,0.0383237,-0.00539361,-0.0314296,0.0736976,-0.000121438,-7.00355e-05,0.056477,0.039067524604459836,0.07648122834798365,-0.00012143062670455507,-0.005379090601303926,-7.003304757158269e-05,-0.030940824181632465
611,0.0612,606.442,204.326,-3.97034e-05,352.014,-0.551756,-0.318293,0.0383844,-0.0054028,-0.0314808,0.0738154,-0.00012165,-7.01573e-05,0.056572,0.03913059791745899,0.07660804530605536,-0.00012164260093883161,-0.0053882311254606075,-7.015483903416442e-05,-0.030990438741290816
612,0.0613,606.6,204.38,-3.99333e-05,352.106,-0.551877,-0.318363,0.0384451,-0.00541199,-0.031532,0.0739332,-0.000121861,-7.02791e-05,0.056667,0.03919367505912463,0.07673487720404437,-0.00012185357524996387,-0.005397371565616149,-7.027663048186916e-05,-0.031040050760748783
613,0.0614,606.758,204.433,-4.01634e-05,352.198,-0.551999,-0.318433,0.0385058,-0.00542118,-0.0315832,0.074051,-0.000122072,-7.04009e-05,0.056762,0.03925675602968881,0.07686172404371128,-0.00012206454951657619,-0.00540651192177144,-7.039842191480794e-05,-0.031089660240136263
614,0.0615,606.916,204.487,-4.03935e-05,352.29,-0.55212,-0.318503,0.0385665,-0.00543036,-0.0316344,0.0741687,-0.000122283,-7.05226e-05,0.056857,0.039319840829384,0.07698847812796283,-0.00012227552373866857,-0.005415642248083774,-7.052011333985586e-05,-0.031139267179583485
615,0.0616,607.073,204.54,-4.06239e-05,352.382,-0.552241,-0.318573,0.0386272,-0.00543955,-0.0316856,0.0742865,-0.000122495,-7.06444e-05,0.056952,0.039382929458442906,0.07711535484357812,-0.00012248749779386614,-0.005424782436332265,-7.064190474315168e-05,-0.031188871579220456
616,0.0617,607.23,204.594,-4.08543e-05,352.474,-0.552363,-0.318643,0.0386878,-0.00544874,-0.0317368,0.0744042,-0.000122706,-7.07661e-05,0.057047,0.039445917972500855,0.07724213878193154,-0.00012269847192669658,-0.005433922540582836,-7.076359613855665e-05,-0.031238473439177183
617,0.0618,607.387,204.647,-4.10849e-05,352.565,-0.552484,-0.318713,0.0387485,-0.00545792,-0.031788,0.074522,-0.000122917,-7.08878e-05,0.057142,0.03950901425467457,0.07736904538053202,-0.0001229094460151181,-0.005443052615266786,-7.088528751930667e-05,-0.031288072759583674
618,0.0619,607.544,204.7,-4.13157e-05,352.656,-0.552606,-0.318783,0.0388092,-0.00546711,-0.0318392,0.0746397,-0.000123128,-7.10095e-05,0.0572369,0.03957211436690877,0.077495859180019,-0.00012312042005890866,-0.00545219255161522,-7.10069788851797e-05,-0.031337669540569935
619,0.062,607.701,204.754,-4.15466e-05,352.748,-0.552728,-0.318853,0.0388698,-0.00547629,-0.0318904,0.0747574,-0.000123339,-7.11312e-05,0.0573319,0.03963511434591949,0.07762268790636861,-0.0001233313940582903,-0.005461322458581219,-7.112867023617575e-05,-0.03138726378226597
620,0.0621,607.857,204.807,-4.17776e-05,352.839,-0.552849,-0.318924,0.0389305,-0.00548547,-0.0319415,0.0748751,-0.00012355,-7.12529e-05,0.0574269,0.03969822211266161,0.07774953156133768,-0.00012354236801304097,-0.00547045228173515,-7.125036157240583e-05,-0.03143675862848261
621,0.0622,608.013,204.86,-4.20087e-05,352.93,-0.552971,-0.318994,0.0389911,-0.00549466,-0.0319927,0.0749928,-0.000123761,-7.13746e-05,0.0575218,0.03976122973403329,0.0778763901466839,-0.00012375334192338272,-0.005479591966281672,-7.137205289386994e-05,-0.03148634779694737
622,0.0623,608.169,204.913,-4.224e-05,353.021,-0.553093,-0.319064,0.0390517,-0.00550384,-0.0320439,0.0751105,-0.000123972,-7.14962e-05,0.0576167,0.03982424117378258,0.0780032636641641,-0.00012396431578920453,-0.0054887216217223145,-7.149364420755422e-05,-0.03153593442651159
623,0.0624,608.324,204.966,-4.24715e-05,353.111,-0.553215,-0.319135,0.0391124,-0.00551302,-0.032095,0.0752281,-0.000124183,-7.16179e-05,0.0577117,0.0398873604208716,0.07813004430252657,-0.00012417528961039537,-0.005497851193352998,-7.161533549937538e-05,-0.03158542167585243
624,0.0625,608.48,205.018,-4.2703e-05,353.202,-0.553338,-0.319205,0.039173,-0.0055222,-0.0321462,0.0753458,-0.000124394,-7.17395e-05,0.0578066,0.03995037950437208,0.07825694767685798,-0.0001243862633871773,-0.005506980681174611,-7.173692678363874e-05,-0.031635003232963865
625,0.0626,608.635,205.071,-4.29348e-05,353.292,-0.55346,-0.319276,0.0392336,-0.00553138,-0.0321973,0.0754634,-0.000124605,-7.18611e-05,0.0579015,0.04001340240694473,0.07838375815021448,-0.00012459723711943926,-0.005516110085187931,-7.185851805302512e-05,-0.031684485420018005
626,0.0627,608.79,205.124,-4.31666e-05,353.383,-0.553582,-0.319346,0.0392942,-0.00554056,-0.0322485,0.0755811,-0.000124816,-7.19827e-05,0.0579964,0.04007642912882092,0.07851069138842326,-0.0001248082108071813,-0.005525239405393734,-7.198010930764553e-05,-0.031734061905195676
627,0.0628,608.945,205.176,-4.33986e-05,353.473,-0.553705,-0.319417,0.0393549,-0.00554973,-0.0322996,0.0756987,-0.000125027,-7.21043e-05,0.0580913,0.04013956368418348,0.07863753170379484,-0.0001250191844504034,-0.005534358697136366,-7.210170054738896e-05,-0.031783539030481034
628,0.0629,609.099,205.229,-4.36307e-05,353.563,-0.553827,-0.319488,0.0394155,-0.00555891,-0.0323508,0.0758163,-0.000125238,-7.22259e-05,0.0581862,0.040202598051664706,0.0787643869364647,-0.00012523015804910553,-0.005543487849820616,-7.222329177247744e-05,-0.03183311044424364
629,0.063,609.253,205.281,-4.3863e-05,353.653,-0.55395,-0.319559,0.0394761,-0.00556809,-0.0324019,0.0759339,-0.000125449,-7.23474e-05,0.0582811,0.040265636239144476,0.07889125708818723,-0.00012544113160317671,-0.005552616918699682,-7.234478299000813e-05,-0.03188258250827791
630,0.0631,609.407,205.334,-4.40954e-05,353.743,-0.554073,-0.319629,0.0395367,-0.00557726,-0.032453,0.0760515,-0.00012566,-7.2469e-05,0.058376,0.04032867824685393,0.07901814216071679,-0.00012565210511283897,-0.005561735959391689,-7.246637418545365e-05,-0.03193205204435434
631,0.0632,609.561,205.386,-4.43279e-05,353.833,-0.554196,-0.3197,0.0395972,-0.00558644,-0.0325042,0.0761691,-0.000125871,-7.25905e-05,0.0584708,0.040391620035857834,0.07914504215580842,-0.0001258630785780923,-0.005570864860753866,-7.258786537345241e-05,-0.031981615854445256
632,0.0633,609.715,205.438,-4.45606e-05,353.922,-0.554318,-0.319771,0.0396578,-0.00559561,-0.0325553,0.0762867,-0.000126081,-7.2712e-05,0.0585657,0.04045466967841693,0.07927195707521695,-0.00012607305212475328,-0.005579983734112948,-7.270935654657418e-05,-0.03203108033004698
633,0.0634,609.868,205.49,-4.47934e-05,354.012,-0.554442,-0.319842,0.0397184,-0.00560478,-0.0326064,0.0764042,-0.000126292,-7.28335e-05,0.0586605,0.04051772314190005,0.07939877898081416,-0.00012628402550107776,-0.005589102523852474,-7.2830847705041e-05,-0.03208054227807866
634,0.0635,610.022,205.543,-4.50264e-05,354.101,-0.554565,-0.319913,0.039779,-0.00561395,-0.0326575,0.0765218,-0.000126503,-7.2955e-05,0.0587554,0.04058078042653901,0.07952572374142797,-0.0001264949988328823,-0.005598221229972999,-7.295233884874186e-05,-0.0321300016986692
635,0.0636,610.175,205.595,-4.52594e-05,354.19,-0.554688,-0.319984,0.0398395,-0.00562313,-0.0327086,0.0766393,-0.000126714,-7.30765e-05,0.0588502,0.04064373746818606,0.07965257546636062,-0.00012670597212016688,-0.005607349796401873,-7.307382997756573e-05,-0.03217945859194804
636,0.0637,610.327,205.646,-4.54927e-05,354.279,-0.554811,-0.320055,0.0399001,-0.0056323,-0.0327597,0.0767568,-0.000126924,-7.3198e-05,0.058945,0.04070680238952451,0.07977944209724641,-0.0001269159454898583,-0.00561646833519569,-7.319532109173466e-05,-0.0322289129580442
637,0.0638,610.48,205.698,-4.5726e-05,354.368,-0.554935,-0.320126,0.0399606,-0.00564147,-0.0328108,0.0768743,-0.000127135,-7.33194e-05,0.0590399,0.04076976705573099,0.07990632363583727,-0.00012712691868832504,-0.0056255867903728385,-7.331671219845681e-05,-0.03227836479708679
638,0.0639,610.632,205.75,-4.59596e-05,354.457,-0.555058,-0.320198,0.0400212,-0.00565064,-0.0328619,0.0769919,-0.000127346,-7.34409e-05,0.0591347,0.04083283961469375,0.08003332808721231,-0.00012733789184227184,-0.005634705161934206,-7.34382032830938e-05,-0.03232781410920493
639,0.064,610.785,205.802,-4.61932e-05,354.546,-0.555182,-0.320269,0.0400817,-0.0056598,-0.032913,0.0771094,-0.000127557,-7.35623e-05,0.0592295,0.04089581190638314,0.08016023945915962,-0.00012754886495180973,-0.005643813506318596,-7.355959436039505e-05,-0.03237726089452786
640,0.0641,610.937,205.854,-4.6427e-05,354.634,-0.555305,-0.32034,0.0401423,-0.00566897,-0.0329641,0.0772268,-0.000127767,-7.36837e-05,0.0593243,0.04095889210389525,0.08028705771535805,-0.00012775883814442057,-0.005652931710741771,-7.368098542281931e-05,-0.032426705153184576
641,0.0642,611.088,205.905,-4.66609e-05,354.723,-0.555429,-0.320412,0.0402028,-0.00567814,-0.0330152,0.0773443,-0.000127978,-7.38052e-05,0.0594191,0.04102187202199081,0.08041399890228829,-0.0001279698111651406,-0.005662049831551275,-7.380247646326943e-05,-0.0324761468853042
642,0.0643,611.24,205.957,-4.6895e-05,354.811,-0.555553,-0.320483,0.0402633,-0.0056873,-0.0330662,0.0774618,-0.000128188,-7.39266e-05,0.0595139,0.041084855750486815,0.08054095500568437,-0.0001281797842693777,-0.005671157925459691,-7.392386749627278e-05,-0.03252548934356969
643,0.0644,611.391,206.008,-4.71292e-05,354.899,-0.555677,-0.320555,0.0403238,-0.00569647,-0.0331173,0.0775792,-0.000128399,-7.40479e-05,0.0596086,0.04114784328961352,0.08066781796051181,-0.00012839075720116888,-0.0056802758791356656,-7.404515852194038e-05,-0.032574926027946205
644,0.0645,611.542,206.06,-4.73635e-05,354.988,-0.555801,-0.320626,0.0403843,-0.00570563,-0.0331684,0.0776967,-0.00012861,-7.41693e-05,0.0597034,0.04121083463960162,0.0807948038893993,-0.00012860173008844011,-0.005689383806094295,-7.416654952552282e-05,-0.03262436018617265
645,0.0646,611.693,206.111,-4.7598e-05,355.076,-0.555925,-0.320698,0.0404449,-0.0057148,-0.0332194,0.0778141,-0.00012882,-7.42907e-05,0.0597982,0.041273933928069884,0.080921696647835,-0.00012881170306011658,-0.0056985015926396265,-7.428794051422827e-05,-0.032673695085752574
646,0.0647,611.844,206.162,-4.78326e-05,355.163,-0.556049,-0.320769,0.0405053,-0.00572396,-0.0332705,0.0779315,-0.000129031,-7.4412e-05,0.0598929,0.04133682877308442,0.08104860430435523,-0.00012902267585856997,-0.005707609352651466,-7.440923149582002e-05,-0.03272312419700918
647,0.0648,611.994,206.213,-4.80674e-05,355.251,-0.556173,-0.320841,0.0405658,-0.00573312,-0.0333215,0.0780489,-0.000129241,-7.45334e-05,0.0599877,0.04139983155704008,0.08117552686070884,-0.00012923264874176166,-0.005716717029236484,-7.453062245510456e-05,-0.03277245405975293
648,0.0649,612.145,206.264,-4.83023e-05,355.339,-0.556298,-0.320913,0.0406263,-0.00574228,-0.0333726,0.0781663,-0.000129452,-7.46547e-05,0.0600824,0.041462838152779735,0.0813024643186453,-0.0001294436214513972,-0.005725824622395681,-7.46519134072754e-05,-0.03282187812455484
649,0.065,612.295,206.315,-4.85373e-05,355.426,-0.556422,-0.320985,0.0406868,-0.00575144,-0.0334236,0.0782837,-0.000129662,-7.4776e-05,0.0601771,0.04152584856053365,0.0814294166799141,-0.00012965359424621514,-0.005734932132129722,-7.477320434456924e-05,-0.032871202950976675
650,0.0651,612.445,206.366,-4.87725e-05,355.514,-0.556547,-0.321057,0.0407473,-0.0057606,-0.0334747,0.0784011,-0.000129872,-7.48973e-05,0.0602719,0.04158886278053231,0.08155638394626497,-0.0001298635669968462,-0.005744039558439273,-7.489449526720815e-05,-0.03292062196983925
651,0.0652,612.594,206.417,-4.90078e-05,355.601,-0.556672,-0.321129,0.0408078,-0.00576976,-0.0335257,0.0785185,-0.000130083,-7.50186e-05,0.0603666,0.04165188081300686,0.08168336611944804,-0.000130074539573366,-0.0057531469013252234,-7.501578617519211e-05,-0.032969941760453425
652,0.0653,612.744,206.468,-4.92433e-05,355.688,-0.556796,-0.321201,0.0408682,-0.00577892,-0.0335767,0.0786358,-0.000130293,-7.51399e-05,0.0604613,0.041714798486702565,0.08181025502018224,-0.00013028451223573434,-0.005762254160788349,-7.513707706841011e-05,-0.03301925903582248
653,0.0654,612.893,206.519,-4.94789e-05,355.775,-0.556921,-0.321273,0.0409287,-0.00578808,-0.0336278,0.0787532,-0.000130504,-7.52612e-05,0.060556,0.04177782413851783,0.08193726699957904,-0.0001304954847234363,-0.005771361336829317,-7.525836794697316e-05,-0.03306867048921236
654,0.0655,613.042,206.57,-4.97146e-05,355.862,-0.557046,-0.321345,0.0409891,-0.00579724,-0.0336788,0.0788705,-0.000130714,-7.53824e-05,0.0606507,0.041840749419420176,0.08206418568463336,-0.00013070545729731986,-0.005780468429448904,-7.537955881831149e-05,-0.03311798272954458
655,0.0656,613.191,206.62,-4.99505e-05,355.949,-0.557171,-0.321417,0.0410496,-0.00580639,-0.0337298,0.0789878,-0.000130924,-7.55037e-05,0.0607454,0.04190378269149719,0.08219111925812284,-0.00013091542982712756,-0.005789565496543636,-7.55008496673426e-05,-0.033167292455016706
656,0.0657,613.34,206.671,-5.01865e-05,356.036,-0.557296,-0.321489,0.04111,-0.00581555,-0.0337808,0.0791051,-0.000131135,-7.56249e-05,0.06084,0.04196671558052589,0.08231806772179362,-0.00013112640218171379,-0.005798672422413831,-7.562204050937105e-05,-0.03321659966575685
657,0.0658,613.488,206.721,-5.04226e-05,356.122,-0.557421,-0.321561,0.0411705,-0.0058247,-0.0338318,0.0792224,-0.000131345,-7.57461e-05,0.0609347,0.04202975647378637,0.08244503107739254,-0.00013133637462314773,-0.005807769322942802,-7.574323133663352e-05,-0.03326590436189347
658,0.0659,613.636,206.772,-5.06589e-05,356.209,-0.557547,-0.321633,0.0412309,-0.00583385,-0.0338828,0.0793397,-0.000131555,-7.58673e-05,0.0610294,0.042092696971861354,0.08257200932666664,-0.0001315463470203948,-0.005816866140235577,-7.586442214913003e-05,-0.03331520654355469
659,0.066,613.784,206.822,-5.08954e-05,356.295,-0.557672,-0.321706,0.0412913,-0.00584301,-0.0339338,0.079457,-0.000131766,-7.59885e-05,0.061124,0.04215564127165705,0.08269900247136297,-0.0001317573192418653,-0.0058259728160330315,-7.598561294708261e-05,-0.03336450621086884
660,0.0661,613.932,206.872,-5.11319e-05,356.382,-0.557798,-0.321778,0.0413517,-0.00585216,-0.0339848,0.0795742,-0.000131976,-7.61097e-05,0.0612187,0.0422185893734035,0.08282590223063324,-0.00013196729155084963,-0.0058350694667644865,-7.610680373026923e-05,-0.033413803363963934
661,0.0662,614.08,206.923,-5.13686e-05,356.468,-0.557923,-0.321851,0.0414122,-0.00586131,-0.0340358,0.0796915,-0.000132186,-7.62309e-05,0.0613133,0.042281645505489296,0.082952925158714,-0.0001321772638156471,-0.005844166034262077,-7.622799449880091e-05,-0.03346309800296843
662,0.0663,614.227,206.973,-5.16055e-05,356.554,-0.558049,-0.321923,0.0414726,-0.00587046,-0.0340868,0.0798088,-0.000132396,-7.63521e-05,0.0614079,0.042344601218121225,0.08307996298745812,-0.0001323872360363687,-0.005853262518526359,-7.634918525256662e-05,-0.03351239012801044
663,0.0664,614.375,207.023,-5.18425e-05,356.64,-0.558175,-0.321996,0.041533,-0.00587961,-0.0341378,0.079926,-0.000132606,-7.64732e-05,0.0615026,0.04240756073339291,0.08320690739791736,-0.00013259720821301446,-0.005862358919558219,-7.647027599932965e-05,-0.03356167973921809
664,0.0665,614.522,207.073,-5.20796e-05,356.725,-0.5583,-0.322068,0.0415934,-0.00588876,-0.0341888,0.0800432,-0.000132817,-7.65944e-05,0.0615972,0.0424705240515344,0.0833338666871335,-0.0001328081802127734,-0.005871455237358436,-7.659146672378547e-05,-0.03361096683671971
665,0.0666,614.669,207.123,-5.23169e-05,356.811,-0.558426,-0.322141,0.0416538,-0.00589791,-0.0342397,0.0801604,-0.000133027,-7.67155e-05,0.0616918,0.04253349117277505,0.08346084085685024,-0.0001330181523009344,-0.005880551471927675,-7.671255744123862e-05,-0.03366015478666373
666,0.0667,614.815,207.173,-5.25543e-05,356.897,-0.558552,-0.322214,0.0417141,-0.00590706,-0.0342907,0.0802776,-0.000133237,-7.68366e-05,0.0617864,0.04259635783770355,0.08358782990881175,-0.00013322812434513054,-0.005889647623266714,-7.683364814403681e-05,-0.03370943686206607
667,0.0668,614.962,207.223,-5.27919e-05,356.982,-0.558679,-0.322286,0.0417745,-0.0059162,-0.0343417,0.0803948,-0.000133447,-7.69578e-05,0.061881,0.04265933255953436,0.08371483384476242,-0.0001334380963451398,-0.0058987337503637605,-7.695483882441678e-05,-0.03375871642414663
668,0.0669,615.108,207.273,-5.30296e-05,357.067,-0.558805,-0.322359,0.0418349,-0.00592535,-0.0343926,0.080512,-0.000133657,-7.70789e-05,0.0619756,0.04272231108515334,0.08384185266644639,-0.00013364806830107323,-0.005907829735335768,-7.70759294979051e-05,-0.03380789685382801
669,0.067,615.254,207.322,-5.32674e-05,357.153,-0.558931,-0.322432,0.0418953,-0.00593449,-0.0344436,0.0806292,-0.000133867,-7.72e-05,0.0620702,0.04278529341479009,0.08396888637560895,-0.0001338580402129308,-0.005916915696249081,-7.719702015662744e-05,-0.033857171394577
670,0.0671,615.4,207.372,-5.35054e-05,357.238,-0.559057,-0.322505,0.0419556,-0.00594364,-0.0344945,0.0807463,-0.000134077,-7.7321e-05,0.0621647,0.04284817526385165,0.0840958265644065,-0.0001340680120807125,-0.005926011514857055,-7.731801080856915e-05,-0.033906346813028065
671,0.0672,615.546,207.422,-5.37435e-05,357.323,-0.559184,-0.322578,0.042016,-0.00595278,-0.0345455,0.0808635,-0.000134287,-7.74421e-05,0.0622593,0.042911165195914425,0.08422289004105421,-0.00013427798390441836,-0.005935097309589632,-7.74391014379816e-05,-0.03395561633295707
672,0.0673,615.691,207.471,-5.39818e-05,357.408,-0.55931,-0.322651,0.0420763,-0.00596192,-0.0345964,0.0809806,-0.000134497,-7.75632e-05,0.0623538,0.04297405463527326,0.08434985997542244,-0.00013448795568393734,-0.005944183021278415,-7.756019205273912e-05,-0.0340047867406883
673,0.0674,615.837,207.521,-5.42202e-05,357.492,-0.559437,-0.322724,0.0421367,-0.00597107,-0.0346474,0.0810978,-0.000134707,-7.76842e-05,0.0624484,0.04303705217067977,0.0844769532265306,-0.0001346979274194915,-0.00595327859039152,-7.7681182660716e-05,-0.034054051240309136
674,0.0675,615.982,207.57,-5.44587e-05,357.577,-0.559564,-0.322797,0.042197,-0.00598021,-0.0346983,0.0812149,-0.000134917,-7.78053e-05,0.0625429,0.04309994920125204,0.08460395291344014,-0.00013490789911085876,-0.00596236413590423,-7.780227324616362e-05,-0.034103216637831
675,0.0676,616.127,207.619,-5.46974e-05,357.662,-0.559691,-0.32287,0.0422573,-0.00598935,-0.0347492,0.081332,-0.000135127,-7.79263e-05,0.0626375,0.043162850024629495,0.08473096747288356,-0.00013511787075815018,-0.005971449598375367,-7.792326382471959e-05,-0.03415237953289785
676,0.0677,616.272,207.669,-5.49362e-05,357.746,-0.559818,-0.322944,0.0423177,-0.00599849,-0.0348001,0.0814491,-0.000135337,-7.80473e-05,0.062732,0.043225858963621855,0.08485799690660278,-0.00013532784236136575,-0.005980534977805818,-7.804425438873164e-05,-0.034201539925637015
677,0.0678,616.416,207.718,-5.51752e-05,357.831,-0.559945,-0.323017,0.042378,-0.00600762,-0.0348511,0.0815662,-0.000135547,-7.81683e-05,0.0628265,0.04328876737958698,0.08498504121633976,-0.00013553781392039443,-0.005989610334092399,-7.816524493808874e-05,-0.034250794391101236
678,0.0679,616.561,207.767,-5.54143e-05,357.915,-0.560072,-0.32309,0.0424383,-0.00601676,-0.034902,0.0816832,-0.000135757,-7.82893e-05,0.062921,0.04335167958904407,0.08511199189263174,-0.0001357477854354583,-0.005998695547534405,-7.828623547267988e-05,-0.03429994977465156
679,0.068,616.705,207.816,-5.56535e-05,357.999,-0.560199,-0.323163,0.0424986,-0.0060259,-0.0349529,0.0818003,-0.000135967,-7.84103e-05,0.0630155,0.04341459559222183,0.0852390659469231,-0.00013595775690633527,-0.006007780677938057,-7.840722599272709e-05,-0.03434910265625657
680,0.0681,616.849,207.865,-5.58929e-05,358.083,-0.560326,-0.323237,0.0425589,-0.00603504,-0.0350038,0.0819174,-0.000136177,-7.85313e-05,0.06311,0.04347751538934874,0.08536615488245736,-0.00013616772833324742,-0.00601686572530391,-7.852821649823039e-05,-0.0343982530360436
681,0.0682,616.993,207.914,-5.61324e-05,358.167,-0.560454,-0.32331,0.0426192,-0.00604417,-0.0350547,0.0820344,-0.000136387,-7.86523e-05,0.0632045,0.04354043898065396,0.08549315015165715,-0.0001363776997159727,-0.006025940749892267,-7.864920698896771e-05,-0.03444740091414
682,0.0683,617.136,207.963,-5.63721e-05,358.251,-0.560581,-0.323384,0.0426795,-0.00605331,-0.0351056,0.0821514,-0.000136596,-7.87732e-05,0.063299,0.04360336636636619,0.0856201602801725,-0.00013658667119120782,-0.006035025631275892,-7.87700974729244e-05,-0.034496546290673
683,0.0684,617.28,208.012,-5.66119e-05,358.334,-0.560709,-0.323458,0.0427398,-0.00606244,-0.0351565,0.0822685,-0.000136806,-7.88942e-05,0.0633934,0.04366629754671414,0.08574729384446611,-0.0001367966424858924,-0.006044100490064985,-7.889108793446287e-05,-0.034545689165770055
684,0.0685,617.423,208.061,-5.68519e-05,358.418,-0.560836,-0.323531,0.0428001,-0.00607157,-0.0352074,0.0823855,-0.000137016,-7.90151e-05,0.0634879,0.04372923252192651,0.08587433370953312,-0.00013700661373661216,-0.006053175266001132,-7.90119783892207e-05,-0.03459482953955839
685,0.0686,617.566,208.109,-5.7092e-05,358.501,-0.560964,-0.323605,0.0428604,-0.00608071,-0.0352583,0.0825025,-0.000137226,-7.91361e-05,0.0635823,0.04379217129223245,0.08600138843913396,-0.00013721658494314504,-0.00606225989846243,-7.913296882144927e-05,-0.034643967412165355
686,0.0687,617.709,208.158,-5.73322e-05,358.585,-0.561092,-0.323679,0.0429206,-0.00608984,-0.0353091,0.0826195,-0.000137436,-7.9257e-05,0.0636768,0.043855009472354434,0.08612845803500768,-0.00013742655610560206,-0.006071334508603865,-7.925385924689721e-05,-0.03469300625302374
687,0.0688,617.852,208.207,-5.75726e-05,358.668,-0.56122,-0.323752,0.0429809,-0.00609897,-0.03536,0.0827364,-0.000137645,-7.93779e-05,0.0637712,0.04391795582723912,0.08625543387334522,-0.00013763552736156814,-0.006080409035894463,-7.937474965780122e-05,-0.034742139128563165
688,0.0689,617.994,208.255,-5.78132e-05,358.751,-0.561348,-0.323826,0.0430411,-0.0061081,-0.0354109,0.0828534,-0.000137855,-7.94988e-05,0.0638657,0.04398080157981821,0.08638253319427358,-0.0001378454984360955,-0.006089483480335112,-7.949564005416132e-05,-0.0347912695033028
689,0.069,618.137,208.304,-5.80538e-05,358.834,-0.561476,-0.3239,0.0431014,-0.00611723,-0.0354617,0.0829704,-0.000138065,-7.96197e-05,0.0639601,0.04404375552019557,0.08650964738669265,-0.000138055469466547,-0.006098557841926366,-7.961653043575545e-05,-0.034840300861404994
690,0.0691,618.279,208.352,-5.82946e-05,358.917,-0.561604,-0.323974,0.0431616,-0.00612636,-0.0355126,0.0830873,-0.000138275,-7.97406e-05,0.0640545,0.044106608846144146,0.08663666778866985,-0.00013826544045281164,-0.006107632120669115,-7.973742080280566e-05,-0.034889426239839705
691,0.0692,618.421,208.4,-5.85356e-05,359.0,-0.561732,-0.324048,0.0432219,-0.00613549,-0.0355635,0.0832042,-0.000138484,-7.98615e-05,0.0641489,0.04416957037292857,0.0867637030402002,-0.0001384744115334735,-0.0061167063165641355,-7.985831115531195e-05,-0.03493854911785621
692,0.0693,618.562,208.449,-5.87767e-05,359.083,-0.561861,-0.324122,0.0432821,-0.00614461,-0.0356143,0.0833212,-0.000138694,-7.99823e-05,0.0642433,0.04423243127315901,0.08689086183210026,-0.00013868438243180847,-0.00612577049086982,-7.997910150114862e-05,-0.034987572994344074
693,0.0694,618.704,208.497,-5.90179e-05,359.166,-0.561989,-0.324196,0.0433423,-0.00615374,-0.0356652,0.0834381,-0.000138904,-8.01032e-05,0.0643377,0.04429529595772963,0.08701792680065101,-0.00013889435328606758,-0.006134844521162197,-8.009999182434502e-05,-0.03503669087681793
694,0.0695,618.846,208.545,-5.92593e-05,359.248,-0.562118,-0.32427,0.0434026,-0.00616286,-0.035716,0.083555,-0.000139113,-8.0224e-05,0.0644321,0.04435826886269001,0.08714500662396496,-0.00013910332423527905,-0.006143908530048314,-8.022078214098283e-05,-0.035085709767830986
695,0.0696,618.987,208.593,-5.95008e-05,359.331,-0.562246,-0.324344,0.0434628,-0.00617199,-0.0357668,0.0836719,-0.000139323,-8.03449e-05,0.0645265,0.04442114112291162,0.08727210130377872,-0.00013931329500149747,-0.006152982394741158,-8.034167243498036e-05,-0.03513472616874769
696,0.0697,619.128,208.641,-5.97425e-05,359.413,-0.562375,-0.324419,0.043523,-0.00618111,-0.0358177,0.0837888,-0.000139533,-8.04657e-05,0.0646208,0.044484017168157086,0.08739921084182889,-0.00013952326572375107,-0.0061620462382104835,-8.04624627224193e-05,-0.03518383656131563
697,0.0698,619.269,208.689,-5.99843e-05,359.495,-0.562504,-0.324493,0.0435832,-0.00619024,-0.0358685,0.0839056,-0.000139742,-8.05865e-05,0.0647152,0.04454689699865466,0.08752622648722452,-0.00013973223654151212,-0.00617111993730679,-8.05832529952033e-05,-0.0352328479775178
698,0.0699,619.409,208.737,-6.02263e-05,359.577,-0.562633,-0.324567,0.0436434,-0.00619936,-0.0359193,0.0840225,-0.000139952,-8.07073e-05,0.0648096,0.04460978061463172,0.08765336573424509,-0.00013994220717572503,-0.0061801836153625445,-8.070404325344338e-05,-0.035281856904003206
699,0.07,619.55,208.785,-6.04684e-05,359.659,-0.562762,-0.324642,0.0437036,-0.00620848,-0.0359701,0.0841393,-0.000140161,-8.08281e-05,0.0649039,0.04467266801631653,0.08778041106666579,-0.0001401511779058895,-0.0061892472107579755,-8.082483349713954e-05,-0.03533086334089852
700,0.0701,619.69,208.833,-6.07106e-05,359.741,-0.562891,-0.324716,0.0437638,-0.0062176,-0.036021,0.0842562,-0.000140371,-8.09489e-05,0.0649982,0.0447355592039369,0.08790758002960053,-0.00014036114845217273,-0.0061983107234937496,-8.094562372618075e-05,-0.03537996375033847
701,0.0702,619.831,208.88,-6.0953e-05,359.823,-0.56302,-0.324791,0.043824,-0.00622672,-0.0360718,0.084373,-0.00014058,-8.10697e-05,0.0650926,0.04479845417772066,0.08803465505598496,-0.00014057011909485162,-0.006207374153570644,-8.106641394067804e-05,-0.03542896520353245
702,0.0703,619.971,208.928,-6.11956e-05,359.905,-0.563149,-0.324865,0.0438842,-0.00623584,-0.0361226,0.0844898,-0.00014079,-8.11905e-05,0.0651869,0.04486135293789584,0.08816174492559936,-0.00014078008955309418,-0.006216437500989436,-8.118720414052039e-05,-0.03547796416751592
703,0.0704,620.11,208.976,-6.14382e-05,359.986,-0.563278,-0.32494,0.0439443,-0.00624496,-0.0361734,0.0846066,-0.000141,-8.13113e-05,0.0652812,0.044924150992269984,0.08828884964017769,-0.00014099005996714986,-0.006225500765750791,-8.130799432581881e-05,-0.03552696064241523
704,0.0705,620.25,209.023,-6.16811e-05,360.068,-0.563408,-0.325015,0.0440045,-0.00625407,-0.0362242,0.0847234,-0.000141209,-8.1432e-05,0.0653755,0.04498705731962116,0.08841596920145345,-0.00014119903047837834,-0.006234554010201232,-8.142868450466967e-05,-0.03557595462835672
705,0.0706,620.389,209.071,-6.1924e-05,360.149,-0.563537,-0.325089,0.0440647,-0.00626319,-0.036275,0.0848402,-0.000141419,-8.15528e-05,0.0654698,0.04504996743404743,0.08854310361116124,-0.00014140900080461538,-0.006243617109740862,-8.154947466076923e-05,-0.03562494612546707
706,0.0707,620.529,209.118,-6.21671e-05,360.23,-0.563667,-0.325164,0.0441248,-0.00627231,-0.0363258,0.084957,-0.000141628,-8.16735e-05,0.0655641,0.04511277682449344,0.08867025287103525,-0.00014161797122824726,-0.006252680126625387,-8.167016481053224e-05,-0.035673935133872514
707,0.0708,620.668,209.166,-6.24104e-05,360.312,-0.563797,-0.325239,0.044185,-0.00628142,-0.0363765,0.0850737,-0.000141837,-8.17942e-05,0.0656584,0.045175694507461506,0.08879730810307374,-0.00014182694160824738,-0.006261733123473001,-8.179085494564031e-05,-0.03572282522598702
708,0.0709,620.807,209.213,-6.26538e-05,360.393,-0.563926,-0.325314,0.0442451,-0.00629054,-0.0364273,0.0851905,-0.000142047,-8.1915e-05,0.0657527,0.045238511454331665,0.08892448705576661,-0.00014203691180258993,-0.006270795975140242,-8.191164505799708e-05,-0.03577180926226042
709,0.071,620.946,209.26,-6.28973e-05,360.474,-0.564056,-0.325389,0.0443052,-0.00629965,-0.0364781,0.0853072,-0.000142256,-8.20357e-05,0.0658469,0.04530133217661403,0.08905157195866575,-0.00014224588209499345,-0.006279848806953203,-8.203233516401731e-05,-0.03582079081020806
710,0.0711,621.084,209.308,-6.3141e-05,360.555,-0.564186,-0.325464,0.0443654,-0.00630876,-0.0365289,0.085424,-0.000142466,-8.21564e-05,0.0659412,0.045364261210955936,0.08917878061111129,-0.0001424558522012953,-0.0062889015562952455,-8.21530252553826e-05,-0.03586976986995627
711,0.0712,621.223,209.355,-6.33849e-05,360.635,-0.564316,-0.325539,0.0444255,-0.00631787,-0.0365796,0.0855407,-0.000142675,-8.22771e-05,0.0660354,0.045427089491025585,0.08930589519179999,-0.00014266482240621325,-0.006297954223167146,-8.227371533220396e-05,-0.035918650033501254
712,0.0713,621.361,209.402,-6.36288e-05,360.716,-0.564446,-0.325614,0.0444856,-0.00632699,-0.0366304,0.0856574,-0.000142884,-8.23978e-05,0.0661297,0.04548992154718845,0.08943302460762603,-0.0001428737925673884,-0.006307016744499405,-8.23944053944814e-05,-0.03596762412212717
713,0.0714,621.499,209.449,-6.3873e-05,360.797,-0.564577,-0.325689,0.0445457,-0.0063361,-0.0366812,0.0857741,-0.000143094,-8.25185e-05,0.0662239,0.04555275737967124,0.0895601688603207,-0.0001430837625419068,-0.006316069246342648,-8.251509544221491e-05,-0.03601659572293259
714,0.0715,621.637,209.496,-6.41172e-05,360.877,-0.564707,-0.325764,0.0446058,-0.00634521,-0.0367319,0.0858908,-0.000143303,-8.26391e-05,0.0663182,0.0456155969887011,0.08968732795161527,-0.00014329273261559639,-0.006325121665718081,-8.263568548361189e-05,-0.036065468442595505
715,0.0716,621.775,209.543,-6.43616e-05,360.958,-0.564837,-0.325839,0.0446659,-0.00635431,-0.0367827,0.0860075,-0.000143513,-8.27598e-05,0.0664124,0.04567844037450497,0.08981450188324192,-0.0001435027025020741,-0.006334164065967873,-8.275637550225756e-05,-0.03611443507303569
716,0.0717,621.912,209.59,-6.46062e-05,361.038,-0.564968,-0.325914,0.044726,-0.00636342,-0.0368334,0.0861241,-0.000143722,-8.28805e-05,0.0665066,0.04574128753730977,0.08994158166276867,-0.00014371167248816707,-0.006343216320500167,-8.287706550624829e-05,-0.03616330283236924
717,0.0718,622.049,209.637,-6.48509e-05,361.118,-0.565098,-0.32599,0.0447861,-0.00637253,-0.0368841,0.0862408,-0.000143931,-8.30011e-05,0.0666008,0.04580413847734266,0.09006878526753459,-0.00014392064243051728,-0.006352268492566759,-8.29976555040135e-05,-0.03621216811417027
718,0.0719,622.187,209.683,-6.50958e-05,361.198,-0.565229,-0.326065,0.0448462,-0.00638164,-0.0369349,0.0863575,-0.00014414,-8.31218e-05,0.066695,0.04586699319483034,0.09019600371782754,-0.00014412961232934673,-0.006361320582168428,-8.311834547891639e-05,-0.03626112729245645
719,0.072,622.324,209.73,-6.53407e-05,361.278,-0.56536,-0.326141,0.0449063,-0.00639074,-0.0369856,0.0864741,-0.00014435,-8.32424e-05,0.0667892,0.04592985169000019,0.09032312798306164,-0.00014433958204007613,-0.00637036265300972,-8.323893544759375e-05,-0.03630998761468307
720,0.0721,622.461,209.777,-6.55859e-05,361.358,-0.565491,-0.326216,0.0449664,-0.00639985,-0.0370363,0.0865907,-0.000144559,-8.3363e-05,0.0668834,0.045992713963079135,0.09045026707184922,-0.00014454855185119797,-0.006379414577774356,-8.335952540161617e-05,-0.03635884545975421
721,0.0722,622.597,209.823,-6.58312e-05,361.438,-0.565621,-0.326292,0.0450264,-0.00640895,-0.0370871,0.0867073,-0.000144768,-8.34836e-05,0.0669776,0.04605547540874144,0.09057742098591892,-0.00014475752161868805,-0.006388456483960914,-8.34801153412057e-05,-0.036407797187020474
722,0.0723,622.734,209.87,-6.60766e-05,361.518,-0.565753,-0.326367,0.0450865,-0.00641805,-0.0371378,0.0868239,-0.000144978,-8.36043e-05,0.0670717,0.04611834523203284,0.09070458972699957,-0.00014496749119763397,-0.0063974983078666225,-8.36008052579329e-05,-0.03645665007327192
723,0.0724,622.87,209.916,-6.63222e-05,361.597,-0.565884,-0.326443,0.0451466,-0.00642716,-0.0371885,0.0869405,-0.000145187,-8.37249e-05,0.0671659,0.04618121883391413,0.0908317732968198,-0.00014517646087752745,-0.006406549985426557,-8.372139516832355e-05,-0.036505500482744924
724,0.0725,623.007,209.963,-6.65679e-05,361.677,-0.566015,-0.326518,0.0452066,-0.00643626,-0.0372392,0.0870571,-0.000145396,-8.38455e-05,0.06726,0.04624399159020798,0.09095897169710865,-0.00014538543051390018,-0.006415591644682084,-8.384198506428131e-05,-0.03655434841556482
725,0.0726,623.143,210.009,-6.68138e-05,361.756,-0.566146,-0.326594,0.0452667,-0.00644536,-0.0372899,0.0871737,-0.000145605,-8.3966e-05,0.0673542,0.04630687274366241,0.09108618492959586,-0.0001455944001064191,-0.006424633221658871,-8.396247495412457e-05,-0.0366031938718574
726,0.0727,623.278,210.055,-6.70598e-05,361.836,-0.566277,-0.32667,0.0453267,-0.00645446,-0.0373406,0.0872902,-0.000145814,-8.40866e-05,0.0674483,0.04636965303941687,0.09121330387467497,-0.0001458033696554173,-0.006433674716357696,-8.408306482088346e-05,-0.036652036851748115
727,0.0728,623.414,210.102,-6.7306e-05,361.915,-0.566409,-0.326746,0.0453867,-0.00646356,-0.0373913,0.0874068,-0.000146024,-8.42072e-05,0.0675424,0.04643243710210232,0.09134054676402314,-0.00014601333901465008,-0.0064427161287792245,-8.420365467320945e-05,-0.03670087735536243
728,0.0729,623.55,210.148,-6.75523e-05,361.994,-0.56654,-0.326822,0.0454468,-0.00647266,-0.037442,0.0875233,-0.000146233,-8.43278e-05,0.0676366,0.04649532958147229,0.09146769534398214,-0.00014622230847605167,-0.006451757458924345,-8.432424451099152e-05,-0.03674971538282612
729,0.073,623.685,210.194,-6.77988e-05,362.073,-0.566672,-0.326898,0.0455068,-0.00648176,-0.0374927,0.0876399,-0.000146442,-8.44483e-05,0.0677307,0.046558121184976375,0.09159496789710486,-0.00014643127789371047,-0.0064607987067937245,-8.444473434265909e-05,-0.03679855093426454
730,0.0731,623.82,210.24,-6.80454e-05,362.152,-0.566804,-0.326973,0.0455668,-0.00649085,-0.0375433,0.0877564,-0.000146651,-8.45689e-05,0.0678248,0.0466209165560898,0.09172214611885243,-0.0001466402472677375,-0.0064698299370865575,-8.456532415135332e-05,-0.03684728769453682
731,0.0732,623.955,210.286,-6.82921e-05,362.231,-0.566936,-0.327049,0.0456268,-0.00649995,-0.037594,0.0878729,-0.00014686,-8.46894e-05,0.0679189,0.0466837156950386,0.09184933915772597,-0.00014684921659813277,-0.006478871020497157,-8.468581395404406e-05,-0.03689611829918438
732,0.0733,624.09,210.332,-6.8539e-05,362.31,-0.567067,-0.327126,0.0456868,-0.00650904,-0.0376447,0.0879894,-0.000147069,-8.48099e-05,0.068013,0.04674651860204859,0.09197654701545166,-0.00014705818588478525,-0.006487902086513286,-8.480630374207987e-05,-0.036944946428183134
733,0.0734,624.225,210.378,-6.87861e-05,362.388,-0.567199,-0.327202,0.0457468,-0.00651814,-0.0376954,0.0881059,-0.000147278,-8.49305e-05,0.0681071,0.04680932527734605,0.09210376969375611,-0.00014726715512780597,-0.006496943005467992,-8.492689350714233e-05,-0.03699377208165844
734,0.0735,624.359,210.424,-6.90333e-05,362.467,-0.567331,-0.327278,0.0458068,-0.00652723,-0.037746,0.0882223,-0.000147487,-8.5051e-05,0.0682011,0.046872135721157226,0.09223089797127071,-0.0001474761243270839,-0.006505973907210638,-8.504738326620132e-05,-0.03704249896399059
735,0.0736,624.494,210.47,-6.92806e-05,362.545,-0.567464,-0.327354,0.0458668,-0.00653632,-0.0377967,0.0883388,-0.000147696,-8.51715e-05,0.0682952,0.04693494993370817,0.09235815028318761,-0.00014768509348273007,-0.0065150047268626166,-8.516787301071638e-05,-0.03709131967167767
736,0.0737,624.628,210.516,-6.95281e-05,362.624,-0.567596,-0.32743,0.0459268,-0.00654542,-0.0378473,0.0884553,-0.000147906,-8.5292e-05,0.0683893,0.0469977679152247,0.09248541742086225,-0.00014789506244683448,-0.006524045399184497,-8.528836274079854e-05,-0.037140041618226705
737,0.0738,624.762,210.561,-6.97758e-05,362.702,-0.567728,-0.327507,0.0459868,-0.00655451,-0.037898,0.0885717,-0.000148115,-8.54125e-05,0.0684833,0.047060589665933295,0.09261259012475787,-0.00014810403151488405,-0.006533076054567433,-8.540885245622576e-05,-0.037188857380626605
738,0.0739,624.896,210.607,-7.00236e-05,362.78,-0.567861,-0.327583,0.0460468,-0.0065636,-0.0379486,0.0886881,-0.000148324,-8.5533e-05,0.0685773,0.04712341518606,0.0927397776324177,-0.00014831300053930185,-0.006542106627862143,-8.552934215722008e-05,-0.03723757439189235
739,0.074,625.03,210.653,-7.02715e-05,362.858,-0.567993,-0.327659,0.0461067,-0.00657269,-0.0379993,0.0888046,-0.000148533,-8.56535e-05,0.0686714,0.047186139757211754,0.09286708923226872,-0.0001485219695200879,-0.006551137119069184,-8.564983184367048e-05,-0.037286385209506
740,0.0741,625.163,210.698,-7.05196e-05,362.936,-0.568126,-0.327736,0.0461667,-0.00658178,-0.0380499,0.088921,-0.000148742,-8.5774e-05,0.0687654,0.047248972810570056,0.09299430636534889,-0.00014873093845713115,-0.006560167528189553,-8.577032151568798e-05,-0.037335097285988494
741,0.0742,625.297,210.744,-7.07678e-05,363.014,-0.568258,-0.327812,0.0462266,-0.00659087,-0.0381005,0.0890374,-0.000148951,-8.58944e-05,0.0688594,0.04731170490284864,0.09312153830736514,-0.00014893990735054263,-0.006569197855223807,-8.589071118159097e-05,-0.037383806897702265
742,0.0743,625.43,210.789,-7.10162e-05,363.092,-0.568391,-0.327889,0.0462866,-0.00659995,-0.0381512,0.0891538,-0.00014916,-8.60149e-05,0.0689534,0.04737454549034159,0.09324878506004142,-0.00014914887620032236,-0.006578218165955052,-8.601120082452063e-05,-0.03743261030151579
743,0.0744,625.563,210.835,-7.12647e-05,363.17,-0.568524,-0.327966,0.0463465,-0.00660904,-0.0382018,0.0892702,-0.000149369,-8.61354e-05,0.0690475,0.047437285104649174,0.09337604662510168,-0.0001493578450063593,-0.006587248328909667,-8.613169045290636e-05,-0.03748131497919571
744,0.0745,625.696,210.88,-7.15134e-05,363.248,-0.568657,-0.328042,0.0464065,-0.00661812,-0.0382524,0.0893865,-0.000149578,-8.62558e-05,0.0691414,0.047500133227180275,0.09350321365394376,-0.00014956681376865344,-0.00659626847574335,-8.625208007539964e-05,-0.03753001719248139
745,0.0746,625.829,210.925,-7.17622e-05,363.325,-0.56879,-0.328119,0.0464664,-0.00662721,-0.038303,0.0895029,-0.000149787,-8.63763e-05,0.0692354,0.04756288036441858,0.09363050483621604,-0.00014977578248742685,-0.006605298474621546,-8.637256967480855e-05,-0.03757871694149739
746,0.0747,625.962,210.97,-7.20112e-05,363.403,-0.568923,-0.328196,0.0465263,-0.00663629,-0.0383536,0.0896192,-0.000149995,-8.64967e-05,0.0693294,0.04762563126032293,0.09375770146026885,-0.00014998375131236585,-0.006614318457560553,-8.649295926832501e-05,-0.037627414226368505
747,0.0748,626.094,211.016,-7.22604e-05,363.48,-0.569056,-0.328273,0.0465862,-0.00664538,-0.0384042,0.0897356,-0.000150204,-8.66171e-05,0.0694234,0.0476883859151187,0.09388502226664608,-0.00015019271994398675,-0.0066233482923651055,-8.661334884729754e-05,-0.0376761090472193
748,0.0749,626.226,211.061,-7.25096e-05,363.557,-0.569189,-0.32835,0.0466462,-0.00665446,-0.0384548,0.0898519,-0.000150413,-8.67376e-05,0.0695174,0.047751249104150295,0.09401224849279721,-0.00015040168853186486,-0.0066323681114125455,-8.673383840318571e-05,-0.037724801404174446
749,0.075,626.359,211.106,-7.27591e-05,363.634,-0.569323,-0.328427,0.0467061,-0.00666354,-0.0385054,0.0899682,-0.000150622,-8.6858e-05,0.0696113,0.047814011283680236,0.09413948951621909,-0.0001506106570761112,-0.006641387848560498,-8.685422795318143e-05,-0.03777349129735874
750,0.0751,626.491,211.151,-7.30086e-05,363.712,-0.569456,-0.328503,0.046766,-0.00667262,-0.038556,0.0900845,-0.000150831,-8.69784e-05,0.0697053,0.04787677722277728,0.09426674533863255,-0.00015081962557661477,-0.006650407503809519,-8.697461748863322e-05,-0.03782217872689675
751,0.0752,626.622,211.196,-7.32584e-05,363.789,-0.56959,-0.32858,0.0468259,-0.0066817,-0.0386066,0.0902008,-0.00015104,-8.70988e-05,0.0697992,0.047939546921666576,0.09439401596175867,-0.00015102859403348656,-0.006659427077160496,-8.709500700965211e-05,-0.03787086369291315
752,0.0753,626.754,211.241,-7.35082e-05,363.866,-0.569723,-0.328658,0.0468858,-0.00669078,-0.0386572,0.0903171,-0.000151249,-8.72192e-05,0.0698931,0.048002320380573504,0.09452130138731896,-0.00015123756244661557,-0.006668446568614095,-8.721539651612709e-05,-0.037919546195532616
753,0.0754,626.886,211.286,-7.37583e-05,363.942,-0.569857,-0.328735,0.0469457,-0.00669986,-0.0387078,0.0904334,-0.000151458,-8.73396e-05,0.0699871,0.04806509759972322,0.09464860161703514,-0.0001514465308161128,-0.006677465978170982,-8.733578600816916e-05,-0.03796822623487972
754,0.0755,627.017,211.331,-7.40085e-05,364.019,-0.569991,-0.328812,0.0470055,-0.00670894,-0.0387583,0.0905496,-0.000151667,-8.746e-05,0.070081,0.04812777376655841,0.09477580717504286,-0.0001516554991419783,-0.006686485305832157,-8.745617548566731e-05,-0.038016807612764714
755,0.0756,627.148,211.375,-7.42588e-05,364.096,-0.570125,-0.328889,0.0470654,-0.00671802,-0.0388089,0.0906659,-0.000151875,-8.75804e-05,0.0701749,0.04819055850059106,0.09490313700550357,-0.00015186346757600777,-0.006695504551598064,-8.757656494873256e-05,-0.038065482730808675
756,0.0757,627.279,211.42,-7.45093e-05,364.172,-0.570259,-0.328966,0.0471253,-0.00672709,-0.0388595,0.0907821,-0.000152084,-8.77007e-05,0.0702688,0.04825334699554196,0.09503037214224186,-0.00015207243581472074,-0.006704513782514909,-8.769685440601638e-05,-0.03811415538595386
757,0.0758,627.41,211.465,-7.47599e-05,364.249,-0.570393,-0.329044,0.0471852,-0.00673617,-0.03891,0.0908984,-0.000152293,-8.78211e-05,0.0703627,0.04831613925163625,0.09515773158032981,-0.00015228140400969092,-0.006713532864583094,-8.781724384010481e-05,-0.03816272939460286
758,0.0759,627.541,211.509,-7.50107e-05,364.325,-0.570527,-0.329121,0.047245,-0.00674524,-0.0389606,0.0910146,-0.000152502,-8.79415e-05,0.0704566,0.04837883043121116,0.0952849963026765,-0.00015249037216114036,-0.00672254193198385,-8.793763325964932e-05,-0.038211397129191416
759,0.076,627.672,211.554,-7.52616e-05,364.401,-0.570661,-0.329198,0.0473049,-0.00675431,-0.0390111,0.0911308,-0.000152711,-8.80618e-05,0.0705505,0.048441630203988284,0.09541227581404321,-0.000152699340268736,-0.006731550917672635,-8.805792267352341e-05,-0.03825996622725636
760,0.0761,627.802,211.598,-7.55127e-05,364.478,-0.570795,-0.329276,0.0473647,-0.00676339,-0.0390617,0.091247,-0.000152919,-8.81822e-05,0.0706443,0.0485043288881466,0.09553957011614855,-0.00015290730848571688,-0.006740569754244752,-8.81783120640911e-05,-0.03830862904178567
761,0.0762,627.932,211.643,-7.57639e-05,364.554,-0.57093,-0.329353,0.0474246,-0.00677246,-0.0391122,0.0913632,-0.000153128,-8.83025e-05,0.0707382,0.0485671361785065,0.09566687921071115,-0.00015311627650616,-0.0067495785764219995,-8.829860144898838e-05,-0.038357193229763054
762,0.0763,628.063,211.687,-7.60153e-05,364.63,-0.571064,-0.329431,0.0474844,-0.00678153,-0.0391628,0.0914794,-0.000153337,-8.84228e-05,0.0708321,0.04862984236814638,0.09579420309945008,-0.00015332524448308238,-0.006758587316889608,-8.841889081945276e-05,-0.038405851124730495
763,0.0764,628.193,211.732,-7.62668e-05,364.706,-0.571199,-0.329509,0.0475442,-0.0067906,-0.0392133,0.0915955,-0.000153546,-8.85432e-05,0.0709259,0.0486925523077284,0.09592143219193594,-0.00015353421241626197,-0.006767595975648355,-8.853928016661072e-05,-0.03845441040311659
764,0.0765,628.322,211.776,-7.65185e-05,364.782,-0.571334,-0.329586,0.047604,-0.00679967,-0.0392638,0.0917117,-0.000153755,-8.86635e-05,0.0710197,0.04875526599747704,0.09604878566144981,-0.0001537431803058098,-0.006776604552698906,-8.865956950809828e-05,-0.038502967229321006
765,0.0766,628.452,211.82,-7.67704e-05,364.857,-0.571468,-0.329664,0.0476639,-0.00680874,-0.0393144,0.0918278,-0.000153963,-8.87838e-05,0.0711136,0.04881808831942003,0.09617604431268689,-0.00015395114830552004,-0.0067856130480420385,-8.877985883504191e-05,-0.03855161774831073
766,0.0767,628.582,211.864,-7.70223e-05,364.933,-0.571603,-0.329742,0.0477237,-0.00681781,-0.0393649,0.091944,-0.000154172,-8.89041e-05,0.0712074,0.04888080951644658,0.09630342736984843,-0.00015416011610791536,-0.006794621461678418,-8.890014814766367e-05,-0.03860016966566815
767,0.0768,628.711,211.909,-7.72745e-05,365.009,-0.571738,-0.32982,0.0477835,-0.00682688,-0.0394154,0.0920601,-0.000154381,-8.90244e-05,0.0713012,0.04894353446431299,0.09643071558670413,-0.0001543690838666789,-0.006803629793608934,-8.902043744574151e-05,-0.0386487191312157
768,0.0769,628.84,211.953,-7.75268e-05,365.084,-0.571873,-0.329898,0.0478433,-0.00683594,-0.0394659,0.0921762,-0.000154589,-8.91447e-05,0.071395,0.0490062631632433,0.09655801858257962,-0.000154577051736271,-0.006812628111960595,-8.914072672927542e-05,-0.03869726614507718
769,0.077,628.969,211.997,-7.77792e-05,365.16,-0.572008,-0.329975,0.0479031,-0.00684501,-0.0395164,0.0922923,-0.000154798,-8.9265e-05,0.0714888,0.04906899561346201,0.09668533635919085,-0.00015478601940777104,-0.006821636280571419,-8.926101599848746e-05,-0.03874581070737637
770,0.0771,629.098,212.041,-7.80318e-05,365.235,-0.572143,-0.330053,0.0479629,-0.00685407,-0.0395669,0.0924084,-0.000155007,-8.93853e-05,0.0715826,0.04913173181519359,0.09681266891825424,-0.0001549949870356393,-0.006830634435785021,-8.938130525304455e-05,-0.038794352818237066
771,0.0772,629.227,212.085,-7.82846e-05,365.31,-0.572278,-0.330131,0.0480227,-0.00686314,-0.0396174,0.0925245,-0.000155216,-8.95056e-05,0.0716764,0.049194471768662096,0.09694001626148596,-0.0001552039546198758,-0.006839642441079374,-8.950159449327977e-05,-0.03884289247778294
772,0.0773,629.356,212.129,-7.85375e-05,365.385,-0.572414,-0.330209,0.0480824,-0.0068722,-0.0396679,0.0926406,-0.000155424,-8.96259e-05,0.0717702,0.04925711054837545,0.09706737839060242,-0.000155411922315829,-0.006848640433157915,-8.962188371897106e-05,-0.03889142968613801
773,0.0774,629.484,212.173,-7.87906e-05,365.46,-0.572549,-0.330288,0.0481422,-0.00688126,-0.0397184,0.0927566,-0.000155633,-8.97462e-05,0.071864,0.0493198579997165,0.09719464558785051,-0.000155620889812913,-0.006857638343715,-8.974217293022946e-05,-0.038939964443425956
774,0.0775,629.613,212.216,-7.90438e-05,365.535,-0.572685,-0.330366,0.048202,-0.00689033,-0.0397689,0.0928727,-0.000155842,-8.98664e-05,0.0719577,0.04938260920346704,0.09732203728114786,-0.0001558298572662542,-0.006866646104084939,-8.986236213603949e-05,-0.03898849674977045
775,0.0776,629.741,212.26,-7.92971e-05,365.61,-0.57282,-0.330444,0.0482617,-0.00689939,-0.0398193,0.0929887,-0.00015605,-8.99867e-05,0.0720515,0.049445259215320725,0.09744933402054068,-0.00015603782483208928,-0.006875643851511404,-8.998265131832106e-05,-0.03903693050899337
776,0.0777,629.869,212.304,-7.95506e-05,365.685,-0.572956,-0.330522,0.0483215,-0.00690845,-0.0398698,0.0931047,-0.000156259,-9.0107e-05,0.0721452,0.049508017918288516,0.09757664552721157,-0.00015624679219827797,-0.006884641517418633,-9.010294048616974e-05,-0.03908545791867524
777,0.0778,629.997,212.348,-7.98043e-05,365.76,-0.573092,-0.330601,0.0483813,-0.00691751,-0.0399203,0.0932208,-0.000156467,-9.02272e-05,0.072239,0.0495707803743386,0.09770408157327681,-0.00015645475967740463,-0.006893639101807292,-9.022312964857004e-05,-0.0391339828777848
778,0.0779,630.125,212.391,-8.00581e-05,365.835,-0.573228,-0.330679,0.048441,-0.00692656,-0.0399708,0.0933368,-0.000156676,-9.03475e-05,0.0723327,0.04963344162034655,0.09783142263237776,-0.00015666372695644082,-0.00690262667370467,-9.034341878755292e-05,-0.039182505386445854
779,0.078,630.252,212.435,-8.03121e-05,365.909,-0.573364,-0.330757,0.0485007,-0.00693562,-0.0400212,0.0934528,-0.000156885,-9.04677e-05,0.0724264,0.04969610660734247,0.09795877846389867,-0.00015687269419195626,-0.006911624095148561,-9.046360792097641e-05,-0.03923092936787975
780,0.0781,630.38,212.478,-8.05662e-05,365.984,-0.5735,-0.330836,0.0485605,-0.00694468,-0.0400717,0.0935688,-0.000157093,-9.05879e-05,0.0725201,0.04975888031143283,0.09808614906955282,-0.00015708066154074274,-0.006920621435076213,-9.058379704007802e-05,-0.039279446980866606
781,0.0782,630.507,212.522,-8.08205e-05,366.058,-0.573636,-0.330914,0.0486202,-0.00695373,-0.0401221,0.0936847,-0.000157302,-9.07082e-05,0.0726138,0.049821552787342016,0.09821342462970617,-0.00015728962868910568,-0.006929608762784589,-9.070408613565117e-05,-0.03932786607656735
782,0.0783,630.634,212.565,-8.1075e-05,366.132,-0.573772,-0.330993,0.0486799,-0.00696279,-0.0401726,0.0938007,-0.00015751,-9.08284e-05,0.0727075,0.049884229004909963,0.0983408247760289,-0.00015749759595118373,-0.0069386059397719135,-9.082427522577596e-05,-0.039376378794374056
783,0.0784,630.761,212.609,-8.13296e-05,366.207,-0.573908,-0.331071,0.0487396,-0.00697184,-0.040223,0.0939167,-0.000157719,-9.09486e-05,0.0728012,0.049946908964359826,0.09846823970162566,-0.00015770656301239416,-0.00694759310472115,-9.094446430146785e-05,-0.03942479300483448
784,0.0785,630.888,212.652,-8.15843e-05,366.281,-0.574045,-0.33115,0.0487994,-0.0069809,-0.0402735,0.0940326,-0.000157928,-9.10688e-05,0.0728949,0.05000969766687935,0.09859555954864963,-0.0001579155300298618,-0.006956590118771144,-9.106465336272684e-05,-0.03947330082795486
785,0.0786,631.015,212.695,-8.18392e-05,366.355,-0.574181,-0.331229,0.0488591,-0.00698995,-0.0403239,0.0941486,-0.000158136,-9.11891e-05,0.0729886,0.050072385117031715,0.09872300402519407,-0.00015812349716182172,-0.006965577120964239,-9.118494240034636e-05,-0.0395217101536679
786,0.0787,631.141,212.738,-8.20943e-05,366.429,-0.574318,-0.331308,0.0489188,-0.006999,-0.0403743,0.0942645,-0.000158345,-9.13093e-05,0.0730823,0.05013507630973679,0.09885035340111425,-0.00015833246409213686,-0.006974564041825504,-9.130513143273955e-05,-0.03957011703961233
787,0.0788,631.268,212.782,-8.23495e-05,366.503,-0.574454,-0.331386,0.0489785,-0.00700805,-0.0404247,0.0943804,-0.000158553,-9.14295e-05,0.0731759,0.05019777124521774,0.0989777175376827,-0.00015854043113738836,-0.006983550881355383,-9.142532045058882e-05,-0.03961852148591127
788,0.0789,631.394,212.825,-8.26048e-05,366.577,-0.574591,-0.331465,0.0490381,-0.00701711,-0.0404752,0.0944963,-0.000158762,-9.15497e-05,0.0732696,0.050260364897656284,0.09910509643660981,-0.000158749397980551,-0.006992547569629304,-9.154550945411621e-05,-0.03966701952599039
789,0.079,631.52,212.868,-8.28604e-05,366.65,-0.574728,-0.331544,0.0490978,-0.00702616,-0.0405256,0.0946122,-0.00015897,-9.16699e-05,0.0733632,0.050323067313089,0.0992324900996071,-0.00015895736493909407,-0.007001534246409036,-9.166569844309969e-05,-0.03971541908852705
790,0.0791,631.646,212.911,-8.31161e-05,366.724,-0.574865,-0.331623,0.0491575,-0.0070352,-0.040576,0.0947281,-0.000159179,-9.179e-05,0.0734569,0.05038577347196793,0.09935989852838545,-0.0001591663316952152,-0.007010510911964807,-9.178578742685684e-05,-0.03976381621178726
791,0.0792,631.772,212.954,-8.33719e-05,366.797,-0.575002,-0.331702,0.0492172,-0.00704425,-0.0406264,0.0948439,-0.000159387,-9.19102e-05,0.0735505,0.05044848337451602,0.09948721177592978,-0.00015937429856693885,-0.007019497426177024,-9.190597638697451e-05,-0.03981221089589393
792,0.0793,631.898,212.997,-8.36279e-05,366.871,-0.575139,-0.331781,0.0492769,-0.0070533,-0.0406768,0.0949598,-0.000159596,-9.20304e-05,0.0736441,0.0505111970209573,0.09961464972866141,-0.0001595832652359075,-0.0070284838590617404,-9.202616533265928e-05,-0.03986060314096995
793,0.0794,632.023,213.04,-8.3884e-05,366.944,-0.575276,-0.33186,0.0493365,-0.00706235,-0.0407272,0.0950757,-0.000159804,-9.21506e-05,0.0737377,0.05057380935412881,0.09974210245230752,-0.0001597912320209227,-0.007037470210619512,-9.214635426391116e-05,-0.03990899294713823
794,0.0795,632.149,213.083,-8.41403e-05,367.018,-0.575413,-0.331939,0.0493962,-0.00707139,-0.0407776,0.0951915,-0.000160013,-9.22707e-05,0.0738313,0.050636530482754294,0.09986945996162899,-0.00016000019860273884,-0.007046446551315588,-9.226644318993671e-05,-0.039957380314521784
795,0.0796,632.274,213.125,-8.43968e-05,367.091,-0.57555,-0.332019,0.0494558,-0.00708044,-0.040828,0.0953073,-0.000160221,-9.23909e-05,0.0739249,0.050699150286022565,0.09999683221980393,-0.00016020816530104565,-0.00705543274031184,-9.238663209221176e-05,-0.04000576524324351
796,0.0797,632.399,213.168,-8.46534e-05,367.164,-0.575688,-0.332098,0.0495155,-0.00708948,-0.0408784,0.0954231,-0.00016043,-9.25111e-05,0.0740185,0.0507618788977251,0.10012421922854053,-0.00016041713179570927,-0.007064408918627474,-9.250682098016494e-05,-0.040054147733426304
797,0.0798,632.525,213.211,-8.49101e-05,367.237,-0.575825,-0.332177,0.0495751,-0.00709852,-0.0409288,0.095539,-0.000160638,-9.26312e-05,0.0741121,0.05082450617198164,0.10025173101471441,-0.00016062509840730765,-0.007073385015798794,-9.262690986289179e-05,-0.040102527785192965
798,0.0799,632.649,213.254,-8.51671e-05,367.31,-0.575963,-0.332257,0.0496347,-0.00710757,-0.0409791,0.0956548,-0.000160847,-9.27514e-05,0.0742057,0.050887137178935005,0.10037914754244048,-0.00016083406481481877,-0.007082370961002948,-9.274709872186815e-05,-0.040150809413752264
799,0.08,632.774,213.296,-8.54242e-05,367.383,-0.5761,-0.332336,0.0496944,-0.00711661,-0.0410295,0.0957705,-0.000161055,-9.28715e-05,0.0742993,0.050949877013789946,0.10050646877520242,-0.00016104203133970874,-0.007091346895798156,-9.28671875757292e-05,-0.040199184593893045
800,0.0801,632.899,213.339,-8.56814e-05,367.456,-0.576238,-0.332415,0.049754,-0.00712565,-0.0410799,0.0958863,-0.000161263,-9.29917e-05,0.0743928,0.05101251549306807,0.10063391480326911,-0.0001612499978213,-0.007100322749451271,-9.298737640583976e-05,-0.04024755733598617
801,0.0802,633.023,213.381,-8.59388e-05,367.529,-0.576376,-0.332495,0.0498136,-0.00713469,-0.0411302,0.0960021,-0.000161472,-9.31118e-05,0.0744864,0.051075157705710916,0.1007613755904404,-0.0001614589640982489,-0.00710929852196307,-9.310746523094604e-05,-0.04029583166974249
802,0.0803,633.148,213.424,-8.61963e-05,367.601,-0.576514,-0.332574,0.0498732,-0.00714373,-0.0411806,0.0961178,-0.00016168,-9.32319e-05,0.0745799,0.05113780365194076,0.10088874104954604,-0.00016166693049313174,-0.007118274213334219,-9.32275540415084e-05,-0.0403441995409457
803,0.0804,633.272,213.466,-8.6454e-05,367.674,-0.576652,-0.332654,0.0499328,-0.00715277,-0.041231,0.0962336,-0.000161889,-9.33521e-05,0.0746734,0.05120045333198053,0.10101623134730531,-0.00016187589668292812,-0.007127249823565496,-9.334774282832026e-05,-0.040392564974469636
804,0.0805,633.396,213.509,-8.67119e-05,367.747,-0.57679,-0.332734,0.0499924,-0.0071618,-0.0412813,0.0963493,-0.000162097,-9.34722e-05,0.074767,0.05126310674605228,0.1011436262949279,-0.00016208386299110256,-0.007136215424019876,-9.346783161001682e-05,-0.040440832014525196
805,0.0806,633.52,213.551,-8.69699e-05,367.819,-0.576928,-0.332813,0.050052,-0.00717084,-0.0413317,0.0964651,-0.000162305,-9.35923e-05,0.0748605,0.051325763894378706,0.10127114611010746,-0.00016229182925608931,-0.007145190872063334,-9.358792037728048e-05,-0.040489192577895294
806,0.0807,633.644,213.593,-8.72281e-05,367.891,-0.577066,-0.332893,0.0501116,-0.00717988,-0.041382,0.0965808,-0.000162514,-9.37124e-05,0.074954,0.05138842477718253,0.10139857055307444,-0.00016250079531521244,-0.00715416623896914,-9.370800913022226e-05,-0.04053745475770465
807,0.0808,633.767,213.635,-8.74865e-05,367.964,-0.577205,-0.332973,0.0501712,-0.00718891,-0.0414323,0.0966965,-0.000162722,-9.38326e-05,0.0750475,0.051451089394686456,0.10152600973990222,-0.00016270876149337976,-0.0071631315963693876,-9.382819785930252e-05,-0.04058571450998738
808,0.0809,633.891,213.678,-8.77449e-05,368.036,-0.577343,-0.333053,0.0502308,-0.00719795,-0.0414827,0.0968122,-0.000162931,-9.39527e-05,0.075141,0.051513757747112754,0.10165346367229677,-0.0001629177274654614,-0.007172106801091815,-9.394828658326748e-05,-0.04063406777146361
809,0.081,634.014,213.72,-8.80036e-05,368.108,-0.577482,-0.333133,0.0502903,-0.00720698,-0.041533,0.0969278,-0.000163139,-9.40728e-05,0.0752345,0.051576324677046426,0.10178082217387696,-0.0001631256935569203,-0.00718107199648943,-9.406837529291057e-05,-0.040682322664233994
810,0.0811,634.137,213.762,-8.82624e-05,368.18,-0.57762,-0.333212,0.0503499,-0.00721601,-0.0415833,0.0970435,-0.000163347,-9.41929e-05,0.075328,0.051639000493717946,0.10190830558977582,-0.00016333365960519153,-0.007190037110931802,-9.418846398812075e-05,-0.04073057512984424
811,0.0812,634.26,213.804,-8.85214e-05,368.252,-0.577759,-0.333292,0.0504095,-0.00722504,-0.0416336,0.0971592,-0.000163556,-9.4313e-05,0.0754214,0.051701680045979304,0.10203580375635934,-0.00016354262544659992,-0.007199002144419486,-9.430855266878702e-05,-0.04077882516841658
812,0.0813,634.383,213.846,-8.87805e-05,368.324,-0.577898,-0.333372,0.050469,-0.00723408,-0.0416839,0.0972748,-0.000163764,-9.44331e-05,0.0755149,0.051764258157622534,0.1021632064590079,-0.00016375059140816273,-0.007207977024873524,-9.44286413351314e-05,-0.040827072780073026
813,0.0814,634.506,213.888,-8.90398e-05,368.396,-0.578036,-0.333453,0.0505286,-0.00724311,-0.0417343,0.0973905,-0.000163972,-9.45532e-05,0.0756084,0.05182694517546316,0.10229073411932799,-0.0001639585573263158,-0.00721694189636457,-9.454872998704289e-05,-0.040875413877399014
814,0.0815,634.629,213.93,-8.92993e-05,368.467,-0.578175,-0.333533,0.0505881,-0.00725214,-0.0417846,0.0975061,-0.000164181,-9.46732e-05,0.0757018,0.05188953074060332,0.1024181662936301,-0.00016416752303716198,-0.00722590668690315,-9.466871863406112e-05,-0.04092365663076558
815,0.0816,634.752,213.972,-8.95589e-05,368.539,-0.578314,-0.333613,0.0506476,-0.00726116,-0.0418349,0.0976217,-0.000164389,-9.47933e-05,0.0757953,0.05195212002969529,0.10254561319994293,-0.00016437548886871767,-0.007234861468838671,-9.478880725710681e-05,-0.04097189695758263
816,0.0817,634.874,214.014,-8.98186e-05,368.611,-0.578453,-0.333693,0.0507072,-0.00727019,-0.0418852,0.0977373,-0.000164597,-9.49134e-05,0.0758887,0.05201481824443732,0.10267307483996957,-0.00016458345465697466,-0.007243826097564243,-9.49088958657196e-05,-0.04102013485797229
817,0.0818,634.996,214.056,-9.00785e-05,368.682,-0.578593,-0.333773,0.0507667,-0.00727922,-0.0419354,0.0978529,-0.000164806,-9.50335e-05,0.0759821,0.052077414988357384,0.10280055121541376,-0.00016479242023714757,-0.0072527906453396795,-9.502898446001051e-05,-0.04106827443888883
818,0.0819,635.118,214.097,-9.03386e-05,368.754,-0.578732,-0.333854,0.0508262,-0.00728825,-0.0419857,0.0979685,-0.000165014,-9.51535e-05,0.0760755,0.05214001545689473,0.10292804232797859,-0.00016500038593869615,-0.0072617551121654245,-9.514897304929715e-05,-0.04111650749161311
819,0.082,635.241,214.139,-9.05989e-05,368.825,-0.578871,-0.333934,0.0508857,-0.00729727,-0.042036,0.0980841,-0.000165222,-9.52736e-05,0.076169,0.05220261965027073,0.1030555481793678,-0.00016520835159705705,-0.007270709570749712,-9.526906161472226e-05,-0.04116473811827592
820,0.0821,635.362,214.181,-9.08593e-05,368.896,-0.579011,-0.334014,0.0509452,-0.0073063,-0.0420863,0.0981997,-0.000165431,-9.53937e-05,0.0762624,0.052265227568706996,0.10318306877128558,-0.00016541731704666773,-0.007279673875768333,-9.538915016571448e-05,-0.04121296631899918
821,0.0822,635.484,214.222,-9.11198e-05,368.967,-0.57915,-0.334095,0.0510047,-0.00731532,-0.0421366,0.0983152,-0.000165639,-9.55137e-05,0.0763557,0.05232783921242534,0.10331049377438095,-0.0001656252826182092,-0.007288628172726019,-9.550913871181343e-05,-0.041261192093904886
822,0.0823,635.606,214.264,-9.13806e-05,369.039,-0.57929,-0.334175,0.0510642,-0.00732434,-0.0421868,0.0984308,-0.000165847,-9.56338e-05,0.0764491,0.05239045458164715,0.10343804383971289,-0.00016583324814656297,-0.007297582388916424,-9.562922723393985e-05,-0.04130931957405193
823,0.0824,635.727,214.305,-9.16414e-05,369.11,-0.579429,-0.334256,0.0511237,-0.00733336,-0.0422371,0.0985463,-0.000166055,-9.57538e-05,0.0765425,0.052453073676594464,0.10356549829412942,-0.00016604121363161806,-0.0073065365243399905,-9.574921575117301e-05,-0.04135754050251084
824,0.0825,635.849,214.347,-9.19025e-05,369.181,-0.579569,-0.334337,0.0511832,-0.00734239,-0.0422874,0.0986618,-0.000166264,-9.58739e-05,0.0766359,0.05251569649748866,0.1036929674703857,-0.00016625017890714577,-0.007315500505842731,-9.586930424454465e-05,-0.04140575900551802
825,0.0826,635.97,214.388,-9.21637e-05,369.252,-0.579709,-0.334417,0.0512427,-0.00735141,-0.0423376,0.0987773,-0.000166472,-9.59939e-05,0.0767293,0.05257832304455157,0.10382045137018192,-0.00016645814430549244,-0.007324454479645692,-9.598929273302303e-05,-0.04145387922858823
826,0.0827,636.091,214.43,-9.2425e-05,369.322,-0.579849,-0.334498,0.0513022,-0.00736043,-0.0423879,0.0988929,-0.00016668,-9.6114e-05,0.0768226,0.05264095331800478,0.10394806039001958,-0.0001666661096605404,-0.007333408372684147,-9.610938119752888e-05,-0.04150209288587936
827,0.0828,636.212,214.471,-9.26866e-05,369.393,-0.579989,-0.334579,0.0513617,-0.00736945,-0.0424381,0.0990083,-0.000166889,-9.6234e-05,0.076916,0.052703587318070344,0.10407546334719786,-0.0001668750748055059,-0.007342362184958873,-9.622936965714146e-05,-0.04155020827311018
828,0.0829,636.333,214.513,-9.29483e-05,369.464,-0.580129,-0.334659,0.0514211,-0.00737846,-0.0424884,0.0991238,-0.000167097,-9.63541e-05,0.0770093,0.052766119768352215,0.1042029914278193,-0.00016708304007384545,-0.007351305989983681,-9.63494580927815e-05,-0.04159841708517231
829,0.083,636.454,214.554,-9.32101e-05,369.534,-0.580269,-0.33474,0.0514806,-0.00738748,-0.0425386,0.0992393,-0.000167305,-9.64741e-05,0.0771026,0.052828761216043185,0.1043305342387848,-0.00016729100529899732,-0.007360259640822653,-9.646944652363931e-05,-0.04164652763704968
830,0.0831,636.574,214.595,-9.34721e-05,369.605,-0.580409,-0.334821,0.05154,-0.0073965,-0.0425888,0.0993548,-0.000167513,-9.65941e-05,0.0771959,0.052891301101875676,0.10445809178179566,-0.0001674989704808505,-0.007369213210900005,-9.658943494017525e-05,-0.04169463577383792
831,0.0832,636.695,214.636,-9.37343e-05,369.675,-0.58055,-0.334902,0.0515995,-0.00740551,-0.0426391,0.0994702,-0.000167722,-9.67141e-05,0.0772893,0.05295394999807734,0.10458555359999289,-0.00016770793545173301,-0.0073781567739982234,-9.670942334216726e-05,-0.0417428373213794
832,0.0833,636.815,214.677,-9.39966e-05,369.746,-0.58069,-0.334983,0.0516589,-0.00741453,-0.0426893,0.0995857,-0.00016793,-9.68342e-05,0.0773826,0.05301649732034419,0.10471314059944103,-0.00016791590054676675,-0.007387110182644152,-9.682951172018672e-05,-0.04179094062354294
833,0.0834,636.935,214.719,-9.42591e-05,369.816,-0.580831,-0.335064,0.0517184,-0.00742354,-0.0427395,0.0997011,-0.000168138,-9.69542e-05,0.0774759,0.053079153665942735,0.1048406318519699,-0.0001681238655986128,-0.007396053584491358,-9.694950009342396e-05,-0.04183904151098117
834,0.0835,637.055,214.76,-9.45217e-05,369.886,-0.580971,-0.335145,0.0517778,-0.00743256,-0.0427897,0.0998165,-0.000168346,-9.70742e-05,0.0775692,0.053141708425528345,0.10496813781783843,-0.0001683318306072712,-0.007405006831708749,-9.706948845233931e-05,-0.04188713998381555
835,0.0836,637.175,214.801,-9.47846e-05,369.956,-0.581112,-0.335226,0.0518372,-0.00744157,-0.0428399,0.0999319,-0.000168554,-9.71942e-05,0.0776625,0.053204266900977126,0.10509565849874436,-0.00016853979557263088,-0.00741395007230794,-9.718947679682177e-05,-0.0419352360421672
836,0.0837,637.295,214.842,-9.50475e-05,370.026,-0.581253,-0.335308,0.0518966,-0.00745058,-0.0428902,0.100047,-0.000168763,-9.73142e-05,0.0777557,0.05326682909250979,0.10522286232947753,-0.0001687487603260207,-0.007422893232328698,-9.730946512687133e-05,-0.04198342548781964
837,0.0838,637.415,214.883,-9.53107e-05,370.096,-0.581394,-0.335389,0.0519561,-0.00745959,-0.0429404,0.100163,-0.000168971,-9.74342e-05,0.077849,0.053329500333291646,0.10535107561773471,-0.00016895672520456095,-0.007431836311772133,-9.742945344248799e-05,-0.042031516712760286
838,0.0839,637.534,214.923,-9.5574e-05,370.166,-0.581535,-0.33547,0.0520155,-0.0074686,-0.0429906,0.100278,-0.000169179,-9.75542e-05,0.0779423,0.053392069963911215,0.10547819830084504,-0.00016916469004002455,-0.00744077931063869,-9.754944174378277e-05,-0.04207960552358203
839,0.084,637.654,214.964,-9.58374e-05,370.236,-0.581676,-0.335552,0.0520749,-0.00747761,-0.0430407,0.100393,-0.000169387,-9.76743e-05,0.0780355,0.05345464331127703,0.1056053356039044,-0.00016937265483207842,-0.007449722228929145,-9.766953002088297e-05,-0.04212759613317052
840,0.0841,637.773,215.005,-9.61011e-05,370.306,-0.581817,-0.335633,0.0521343,-0.00748662,-0.0430909,0.100509,-0.000169595,-9.77943e-05,0.0781288,0.05351722037561002,0.10573359326163478,-0.00016958061958094461,-0.007458665066644277,-9.778951829331195e-05,-0.04217568012092643
841,0.0842,637.892,215.046,-9.63649e-05,370.376,-0.581958,-0.335714,0.0521937,-0.00749563,-0.0431411,0.100624,-0.000169804,-9.79142e-05,0.078222,0.053579801157131124,0.10586075993680355,-0.00016978958411673073,-0.007467607823784861,-9.790940656118075e-05,-0.0422237616949267
842,0.0843,638.011,215.087,-9.66288e-05,370.445,-0.582099,-0.335796,0.052253,-0.00750463,-0.0431913,0.10074,-0.000170012,-9.80342e-05,0.0783152,0.05364228029182794,0.10598904722547497,-0.0001699975487788885,-0.007476540575117041,-9.802939480485495e-05,-0.042271840855292675
843,0.0844,638.13,215.127,-9.68929e-05,370.515,-0.58224,-0.335877,0.0523124,-0.00751364,-0.0432415,0.100855,-0.00017022,-9.81542e-05,0.0784085,0.05370486850212863,0.10611624327953884,-0.0001702055133977476,-0.007485483171200014,-9.814938303409626e-05,-0.04231991760214526
844,0.0845,638.249,215.168,-9.71572e-05,370.584,-0.582382,-0.335959,0.0523718,-0.00752265,-0.0432916,0.10097,-0.000170428,-9.82742e-05,0.0785017,0.05376746043027958,0.10624345396199009,-0.000170413477973419,-0.0074944256867105485,-9.826937124901569e-05,-0.04236789617240022
845,0.0846,638.367,215.208,-9.74217e-05,370.654,-0.582523,-0.33604,0.0524312,-0.00753165,-0.0433418,0.101085,-0.000170636,-9.83942e-05,0.0785949,0.05383005607650149,0.10637067927451094,-0.0001706214425057917,-0.007503358196683019,-9.838935944950222e-05,-0.042415968097396894
846,0.0847,638.486,215.249,-9.76863e-05,370.723,-0.582665,-0.336122,0.0524905,-0.00754065,-0.043392,0.101201,-0.000170844,-9.85142e-05,0.0786881,0.05389255005175486,0.10649902571725667,-0.0001708294069948657,-0.0075122906262632405,-9.850934763555586e-05,-0.042464037609243555
847,0.0848,638.604,215.29,-9.7951e-05,370.792,-0.582807,-0.336204,0.0525499,-0.00754966,-0.0434421,0.101316,-0.000171053,-9.86342e-05,0.0787813,0.05395515312852073,0.10662628042221933,-0.0001710383712697494,-0.007521232900239649,-9.862933580717659e-05,-0.04251200895926699
848,0.0849,638.723,215.33,-9.8216e-05,370.862,-0.582948,-0.336286,0.0526092,-0.00755866,-0.0434923,0.101431,-0.000171261,-9.87542e-05,0.0788744,0.05401765452224927,0.10675354976231466,-0.000171246335672115,-0.007530165168948333,-9.874932396447544e-05,-0.042560073649983376
849,0.085,638.841,215.37,-9.84811e-05,370.931,-0.58309,-0.336367,0.0526686,-0.00756766,-0.0435424,0.101547,-0.000171469,-9.88741e-05,0.0789676,0.05408026503044172,0.10688194062061296,-0.0001714543000311819,-0.007539097357266877,-9.886921211732513e-05,-0.042608040188721774
850,0.0851,638.959,215.411,-9.87463e-05,371.0,-0.583232,-0.336449,0.0527279,-0.00757666,-0.0435926,0.101662,-0.000171677,-9.89941e-05,0.0790608,0.05414277384352606,0.10700923936332174,-0.0001716622643470611,-0.007548029465196171,-9.898920024575819e-05,-0.04265610005879139
851,0.0852,639.077,215.451,-9.90118e-05,371.069,-0.583374,-0.336531,0.0527873,-0.00758566,-0.0436427,0.101777,-0.000171885,-9.91141e-05,0.0791539,0.05420539178402661,0.1071365527462278,-0.00017187022861975265,-0.007556961492736769,-9.910918835986937e-05,-0.04270406178672714
852,0.0853,639.195,215.492,-9.92773e-05,371.138,-0.583516,-0.336613,0.0528466,-0.00759466,-0.0436929,0.101892,-0.000172093,-9.92341e-05,0.0792471,0.05426790801734738,0.10726388077101467,-0.0001720781928491455,-0.007565893439889448,-9.922917645954765e-05,-0.0427521168366336
853,0.0854,639.312,215.532,-9.95431e-05,371.206,-0.583659,-0.336695,0.0529059,-0.00760366,-0.043743,0.102008,-0.000172301,-9.9354e-05,0.0793402,0.05433042795799081,0.10739233083114352,-0.00017228615703523964,-0.0075748253066550975,-9.934906455477677e-05,-0.042800073754249324
854,0.0855,639.43,215.572,-9.9809e-05,371.275,-0.583801,-0.336777,0.0529652,-0.00761265,-0.0437931,0.102123,-0.00017251,-9.9474e-05,0.0794334,0.05439295160617652,0.10751968827210168,-0.00017249512100558917,-0.0075837471688717795,-9.946905262570027e-05,-0.04284802826928358
855,0.0856,639.547,215.612,-0.000100075,371.344,-0.583943,-0.336859,0.0530246,-0.00762165,-0.0438432,0.102238,-0.000172718,-9.95939e-05,0.0795265,0.054455584407677726,0.10764706036000771,-0.0001727030851049749,-0.007592678874954517,-9.958894069217461e-05,-0.042895980381856824
856,0.0857,639.665,215.652,-0.000100341,371.413,-0.584086,-0.336941,0.0530839,-0.00763065,-0.0438934,0.102353,-0.000172926,-9.97139e-05,0.0796196,0.05451811547786112,0.10777444709654604,-0.00017291104916106192,-0.007601610500652223,-9.970892873434334e-05,-0.04294402579769163
857,0.0858,639.782,215.692,-0.000100608,371.481,-0.584228,-0.337024,0.0531432,-0.00763964,-0.0439435,0.102468,-0.000173134,-9.98339e-05,0.0797127,0.0545806502562467,0.10790184848340134,-0.00017311901317396128,-0.007610532122071079,-9.982891676207917e-05,-0.04299197310090919
858,0.0859,639.899,215.732,-0.000100874,371.55,-0.584371,-0.337106,0.0532025,-0.00764863,-0.0439936,0.102583,-0.000173342,-9.99538e-05,0.0798059,0.05464318874305474,0.10802926452225892,-0.00017332697714356193,-0.00761945366328487,-9.994880478536583e-05,-0.043039918002027
859,0.086,640.016,215.773,-0.000101141,371.618,-0.584513,-0.337188,0.0532618,-0.00765763,-0.0440437,0.102699,-0.00017355,-0.000100074,0.0798989,0.05470573093850506,0.1081578033720525,-0.0001735349410699749,-0.007628385048010666,-0.0001000689927642684,-0.04308786050116553
860,0.0861,640.133,215.812,-0.000101408,371.686,-0.584656,-0.337271,0.053321,-0.00766662,-0.0440938,0.102814,-0.000173758,-0.000100194,0.079992,0.05476817136599488,0.10828524884741464,-0.00017374290495297817,-0.007637306428727397,-0.00010018898074881655,-0.04313580059844491
861,0.0862,640.249,215.852,-0.000101675,371.755,-0.584799,-0.337353,0.0533803,-0.00767561,-0.0441439,0.102929,-0.000173966,-0.000100314,0.0800851,0.05483072097313446,0.10841270897984923,-0.00017395086879290478,-0.007646227729241284,-0.0001003089687189318,-0.043183738293985696
862,0.0863,640.366,215.892,-0.000101942,371.823,-0.584942,-0.337435,0.0534396,-0.0076846,-0.044194,0.103044,-0.000174175,-0.000100434,0.0801782,0.0548932742895758,0.10854018377104202,-0.0001741598324153104,-0.007655148949553103,-0.00010042895667461416,-0.043231673587908026
863,0.0864,640.482,215.932,-0.00010221,371.891,-0.585085,-0.337518,0.0534989,-0.00769359,-0.0442441,0.103159,-0.000174383,-0.000100554,0.0802713,0.054955831315538495,0.10866767322267856,-0.00017436779616841758,-0.007664070089663411,-0.00010054894461597463,-0.043279606480332244
864,0.0865,640.599,215.972,-0.000102477,371.959,-0.585228,-0.3376,0.0535581,-0.00770258,-0.0442941,0.103274,-0.000174591,-0.000100674,0.0803643,0.0550182865494091,0.10879517733644528,-0.00017457575987833707,-0.007672991149573094,-0.00010066893254290221,-0.04332744130412769
865,0.0866,640.715,216.012,-0.000102745,372.027,-0.585371,-0.337683,0.0536174,-0.00771157,-0.0443442,0.103389,-0.000174799,-0.000100793,0.0804574,0.055080850988818764,0.10892269611402816,-0.00017478372354495786,-0.00768191212928282,-0.00010078792055623342,-0.04337536939870956
866,0.0867,640.831,216.052,-0.000103013,372.095,-0.585514,-0.337766,0.0536767,-0.00772056,-0.0443943,0.103504,-0.000175007,-0.000100913,0.0805504,0.0551434191384097,0.10905022955711363,-0.00017499168716827995,-0.007690833028793254,-0.00010090790845451725,-0.043423295092154035
867,0.0868,640.947,216.091,-0.000103281,372.163,-0.585658,-0.337848,0.0537359,-0.00772954,-0.0444444,0.10362,-0.000175215,-0.000101033,0.0806434,0.055205885477808136,0.10917888684572086,-0.00017519965074841437,-0.007699743925102642,-0.00010102789633836817,-0.043471218384581456
868,0.0869,641.063,216.131,-0.000103549,372.23,-0.585801,-0.337931,0.0537951,-0.00773853,-0.0444944,0.103735,-0.000175423,-0.000101153,0.0807365,0.055268355515323275,0.10930644975243453,-0.0001754076142852501,-0.007708664664305975,-0.0001011478842077862,-0.04351904362802117
869,0.087,641.178,216.171,-0.000103818,372.298,-0.585945,-0.338014,0.0538544,-0.00774752,-0.0445445,0.10385,-0.000175631,-0.000101273,0.0808295,0.05533093478426232,0.10943402732972629,-0.0001756155777787871,-0.007717585323312237,-0.00010126787206288235,-0.04356696212356703
870,0.0871,641.294,216.21,-0.000104086,372.366,-0.586088,-0.338097,0.0539136,-0.0077565,-0.0445946,0.103965,-0.000175839,-0.000101393,0.0809225,0.05539341222491556,0.10956161957928279,-0.00017582354122913646,-0.007726495979387127,-0.0001013878599035456,-0.04361487821845644
871,0.0872,641.409,216.25,-0.000104355,372.433,-0.586232,-0.338179,0.0539728,-0.00776548,-0.0446446,0.10408,-0.000176047,-0.000101513,0.0810155,0.055455893364342757,0.109689226502792,-0.0001760315046361871,-0.0077354065554446905,-0.00010150784772977595,-0.043662696279084035
872,0.0873,641.525,216.289,-0.000104624,372.501,-0.586376,-0.338262,0.0540321,-0.00777447,-0.0446947,0.104195,-0.000176255,-0.000101633,0.0811085,0.055518483754605885,0.10981684810194103,-0.00017623946800005008,-0.007744326974042481,-0.0001016278355415734,-0.04371060757781242
873,0.0874,641.64,216.329,-0.000104893,372.568,-0.58652,-0.338345,0.0540913,-0.00778345,-0.0447447,0.10431,-0.000176463,-0.000101753,0.0812015,0.0555809722984868,0.10994448437841808,-0.00017644743132061436,-0.007753237389978351,-0.00010174782333904897,-0.043758420852091695
874,0.0875,641.755,216.368,-0.000105162,372.636,-0.586664,-0.338428,0.0541505,-0.00779243,-0.0447947,0.104425,-0.000176671,-0.000101873,0.0812945,0.05564346454179914,0.11007213533391069,-0.00017665539459787993,-0.007762147725899116,-0.00010186781112209164,-0.04380623173576703
875,0.0876,641.87,216.407,-0.000105432,372.703,-0.586808,-0.338511,0.0542097,-0.00780141,-0.0448448,0.10454,-0.00017688,-0.000101993,0.0813874,0.05570596048476162,0.11019980097010751,-0.00017686435765507103,-0.00777105798180544,-0.00010198779889081244,-0.043854135843549136
876,0.0877,641.985,216.447,-0.000105701,372.77,-0.586952,-0.338594,0.0542689,-0.00781039,-0.0448948,0.104655,-0.000177088,-0.000102113,0.0814804,0.05576846012759362,0.11032748128869674,-0.00017707232084562818,-0.007779968157697992,-0.00010210778664510034,-0.04390194194159458
877,0.0878,642.1,216.486,-0.000105971,372.837,-0.587096,-0.338678,0.0543281,-0.00781937,-0.0449448,0.10477,-0.000177296,-0.000102233,0.0815734,0.05583096347051386,0.11045517629136681,-0.00017728028399299767,-0.007788878253577547,-0.00010222777438495534,-0.0439497456493948
878,0.0879,642.215,216.525,-0.000106241,372.905,-0.58724,-0.338761,0.0543873,-0.00782834,-0.0449948,0.104885,-0.000177504,-0.000102353,0.0816663,0.055893470513741494,0.11058288597980681,-0.00017748824709706845,-0.007797778347422679,-0.00010234776211037744,-0.04399754696706948
879,0.088,642.329,216.565,-0.000106511,372.972,-0.587384,-0.338844,0.0544464,-0.00783732,-0.0450449,0.105,-0.000177712,-0.000102472,0.0817592,0.05595587566190274,0.11071061035570517,-0.00017769621015784054,-0.007806688283367391,-0.00010246674992397953,-0.04404544149019862
880,0.0881,642.444,216.604,-0.000106781,373.039,-0.587529,-0.338927,0.0545056,-0.0078463,-0.0450949,0.105115,-0.00017792,-0.000102592,0.0818522,0.056018390100151194,0.11083834942075166,-0.00017790417317542495,-0.007815598139301327,-0.00010258673762075787,-0.044093238023200754
881,0.0882,642.558,216.643,-0.000107052,373.105,-0.587673,-0.339011,0.0545648,-0.00785527,-0.0451449,0.10523,-0.000178128,-0.000102712,0.0819451,0.056080908239363625,0.11096610317663513,-0.00017811213614971066,-0.00782449799347007,-0.00010270672530310332,-0.044141032166436056
882,0.0883,642.672,216.682,-0.000107322,373.172,-0.587818,-0.339094,0.054624,-0.00786425,-0.0451949,0.105344,-0.000178336,-0.000102832,0.082038,0.05614343007975964,0.11109276053172934,-0.0001783200990808087,-0.007833407689473493,-0.00010282671297112689,-0.04418882392002399
883,0.0884,642.786,216.721,-0.000107593,373.239,-0.587963,-0.339178,0.0546831,-0.00787322,-0.0452449,0.105459,-0.000178544,-0.000102952,0.0821309,0.056205850000967894,0.11122054354657296,-0.00017852806196860804,-0.007842307383891356,-0.00010294670062471756,-0.0442366132840839
884,0.0885,642.9,216.76,-0.000107864,373.306,-0.588107,-0.339261,0.0547423,-0.00788219,-0.0452949,0.105574,-0.000178752,-0.000103072,0.0822238,0.0562683792381351,0.11134834125730841,-0.00017873602481310868,-0.007851206998479299,-0.00010306668826387533,-0.04428440025873537
885,0.0886,643.014,216.799,-0.000108135,373.372,-0.588252,-0.339345,0.0548014,-0.00789117,-0.0453449,0.105689,-0.00017896,-0.000103192,0.0823167,0.056330806544056866,0.11147615366562569,-0.00017894398761442165,-0.007860116454636912,-0.00010318667588871122,-0.044332184844097844
886,0.0887,643.128,216.838,-0.000108407,373.439,-0.588397,-0.339428,0.0548606,-0.00790014,-0.0453948,0.105804,-0.000179168,-0.000103312,0.0824096,0.05639334317887035,0.11160398077321498,-0.00017915195037243592,-0.007869015909478194,-0.00010330666349911422,-0.044379871478282706
887,0.0888,643.241,216.877,-0.000108678,373.505,-0.588542,-0.339512,0.0549197,-0.00790911,-0.0454448,0.105919,-0.000179376,-0.000103432,0.0825025,0.05645577787037914,0.11173182258176695,-0.0001793599130871515,-0.007877915284491777,-0.00010342665109508431,-0.04442765129020354
888,0.0889,643.355,216.916,-0.00010895,373.572,-0.588687,-0.339595,0.0549788,-0.00791808,-0.0454948,0.106034,-0.000179584,-0.000103552,0.0825953,0.056518216251887354,0.11185967909297245,-0.00017956787575867939,-0.007886814579678325,-0.00010354663867673253,-0.04447542871319354
889,0.089,643.468,216.955,-0.000109221,373.638,-0.588832,-0.339679,0.0550379,-0.00792705,-0.0455448,0.106149,-0.000179792,-0.000103672,0.0826882,0.05658065832361281,0.11198755030852214,-0.00017977583838690858,-0.007895713795038506,-0.00010366662624394785,-0.044523203747372064
890,0.0891,643.581,216.994,-0.000109493,373.705,-0.588978,-0.339763,0.0550971,-0.00793601,-0.0455947,0.106263,-0.00018,-0.000103791,0.0827811,0.05664320975008952,0.11211432411522693,-0.0001799838009719501,-0.007904603009619149,-0.00010378561390045338,-0.04457088084995142
891,0.0892,643.695,217.032,-0.000109765,373.771,-0.589123,-0.339847,0.0551562,-0.00794498,-0.0456447,0.106378,-0.000180208,-0.000103911,0.0828739,0.05670565920914905,0.11224222461663813,-0.00018019176351369293,-0.007913502065417743,-0.00010390560143902494,-0.04461865111164243
892,0.0893,643.808,217.071,-0.000110038,373.837,-0.589268,-0.339931,0.0552153,-0.00795395,-0.0456947,0.106493,-0.000180416,-0.000104031,0.0829667,0.05676811235908086,0.11237013982745259,-0.00018039972601213705,-0.007922401041392302,-0.0001040255889631636,-0.04466641898488011
893,0.0894,643.921,217.11,-0.00011031,373.903,-0.589414,-0.340014,0.0552744,-0.00796291,-0.0457446,0.106608,-0.000180624,-0.000104151,0.0830596,0.056830569200102765,0.11249806974936227,-0.0001806076884673935,-0.00793129001685633,-0.00010414557647286937,-0.04471408894119744
894,0.0895,644.033,217.148,-0.000110583,373.969,-0.589559,-0.340098,0.0553335,-0.00797188,-0.0457946,0.106723,-0.000180832,-0.000104271,0.0831524,0.05689302973243304,0.11262601438405895,-0.00018081565087935125,-0.007940188833273631,-0.00010426556396825326,-0.04476185204266292
895,0.0896,644.146,217.187,-0.000110856,374.035,-0.589705,-0.340182,0.0553926,-0.00798084,-0.0458445,0.106837,-0.00018104,-0.000104391,0.0832452,0.05695549395628974,0.1127528609798174,-0.00018102361324812133,-0.007949077649359704,-0.00010438555144920425,-0.04480951723698945
896,0.0897,644.259,217.226,-0.000111129,374.101,-0.589851,-0.340266,0.0554517,-0.0079898,-0.0458945,0.106952,-0.000181248,-0.000104511,0.083338,0.05701796187189134,0.11288083491719036,-0.0001812315755735927,-0.007957966385802373,-0.00010450553891572234,-0.04485727556715946
897,0.0898,644.371,217.264,-0.000111402,374.167,-0.589997,-0.340351,0.0555108,-0.00799877,-0.0459444,0.107067,-0.000181456,-0.000104631,0.0834308,0.05708043347945568,0.11300882357241249,-0.0001814395378557654,-0.00796686496293375,-0.00010462552636780753,-0.04490493599997092
898,0.0899,644.484,217.303,-0.000111675,374.233,-0.590142,-0.340435,0.0555698,-0.00800773,-0.0459943,0.107182,-0.000181664,-0.000104751,0.0835236,0.057142803064915704,0.1131368269471762,-0.0001816475000947504,-0.007975753540002795,-0.00010474551380557084,-0.04495259405458618
899,0.09,644.596,217.341,-0.000111949,374.298,-0.590288,-0.340519,0.0556289,-0.00801669,-0.0460443,0.107297,-0.000181872,-0.000104871,0.0836164,0.057205282050812656,0.11326484504317458,-0.0001818554622904367,-0.007984642037430545,-0.00010486550122890126,-0.045000345231094085
900,0.0901,644.708,217.38,-0.000112222,374.364,-0.590434,-0.340603,0.055688,-0.00802565,-0.0460942,0.107411,-0.00018208,-0.00010499,0.0837092,0.05726776472932693,0.1133917644697795,-0.0001820634244428243,-0.007993530455217668,-0.00010498448874285415,-0.045047998524907484
901,0.0902,644.82,217.418,-0.000112496,374.43,-0.590581,-0.340687,0.055747,-0.00803461,-0.0461441,0.107526,-0.000182288,-0.00010511,0.0838019,0.05733014536765668,0.11351981188527871,-0.00018227138655202424,-0.00800241879336494,-0.00010510447613754081,-0.04509564944088085
902,0.0903,644.932,217.456,-0.00011277,374.495,-0.590727,-0.340772,0.0558061,-0.00804357,-0.046194,0.107641,-0.000182496,-0.00010523,0.0838947,0.05739263542581097,0.11364787402707743,-0.00018247934861792547,-0.00801130705187314,-0.00010522446351779458,-0.04514329797913286
903,0.0904,645.044,217.495,-0.000113044,374.561,-0.590873,-0.340856,0.0558651,-0.00805252,-0.0462439,0.107755,-0.000182704,-0.00010535,0.0839874,0.057455023431729035,0.11377483712147551,-0.00018268731064063903,-0.008020185310944727,-0.00010534445088361544,-0.045190944139782085
904,0.0905,645.155,217.533,-0.000113319,374.626,-0.59102,-0.340941,0.0559242,-0.00806148,-0.0462938,0.10787,-0.000182912,-0.00010547,0.0840802,0.05751752087039508,0.11390292859286277,-0.0001828952726200539,-0.008029073410265597,-0.00010546443823511442,-0.045238587922947215
905,0.0906,645.267,217.571,-0.000113593,374.691,-0.591166,-0.341025,0.0559832,-0.00807044,-0.0463437,0.107985,-0.00018312,-0.00010559,0.0841729,0.05757991624477188,0.1140310347956166,-0.00018310323455617006,-0.008037961429949503,-0.00010558442557218051,-0.04528622932874693
906,0.0907,645.378,217.609,-0.000113868,374.757,-0.591313,-0.34111,0.0560422,-0.00807939,-0.0463936,0.108099,-0.000183328,-0.00010571,0.0842656,0.05764231530058428,0.11415804157283205,-0.00018331119644909855,-0.00804683945046547,-0.00010570441289481369,-0.0453338683572998
907,0.0908,645.49,217.647,-0.000114143,374.822,-0.591459,-0.341194,0.0561013,-0.00808835,-0.0464435,0.108214,-0.000183536,-0.00010583,0.0843584,0.057704823808526706,0.11428617711526545,-0.00018351915829872834,-0.008055727310966376,-0.000105824400203125,-0.0453815050087244
908,0.0909,645.601,217.686,-0.000114418,374.887,-0.591606,-0.341279,0.0561603,-0.0080973,-0.0464934,0.108329,-0.000183744,-0.00010595,0.0844511,0.05776723023410302,0.11441432739413337,-0.00018372712010505943,-0.008064605172478423,-0.00010594438749700341,-0.04542913928313941
909,0.091,645.712,217.724,-0.000114693,374.952,-0.591753,-0.341363,0.0562193,-0.00810625,-0.0465433,0.108443,-0.000183952,-0.00010607,0.0845438,0.05782964034176685,0.11454137786919572,-0.00018393508186820284,-0.008073482954534028,-0.00010606437477644892,-0.04547677118066351
910,0.0911,645.823,217.762,-0.000114969,375.017,-0.5919,-0.341448,0.0562783,-0.0081152,-0.0465932,0.108558,-0.00018416,-0.000106189,0.0846365,0.05789205413173559,0.11466955749783825,-0.00018414304358815858,-0.008082360657133747,-0.00010618336214773816,-0.04552440070141517
911,0.0912,645.934,217.8,-0.000115244,375.082,-0.592047,-0.341533,0.0563373,-0.00812415,-0.046643,0.108673,-0.000184368,-0.000106309,0.0847292,0.05795447160422684,0.11479775186798546,-0.0001843510052647046,-0.008091238280278468,-0.00010630334939853991,-0.04557193240271107
912,0.0913,646.045,217.838,-0.00011552,375.147,-0.592194,-0.341618,0.0563963,-0.0081331,-0.0466929,0.108787,-0.000184576,-0.000106429,0.0848219,0.05801689275945732,0.11492484605592934,-0.00018455896689806295,-0.008100115823968745,-0.00010642333663490877,-0.045619557175036185
913,0.0914,646.156,217.876,-0.000115796,375.212,-0.592341,-0.341702,0.0564553,-0.00814205,-0.0467428,0.108902,-0.000184784,-0.000106549,0.0849145,0.05807931759764484,0.11505306978594909,-0.00018476692848823362,-0.008108993288205468,-0.00010654332385684473,-0.04566717957094446
914,0.0915,646.266,217.914,-0.000116072,375.276,-0.592488,-0.341787,0.0565143,-0.008151,-0.0467926,0.109016,-0.000184992,-0.000106669,0.0850072,0.058141746119006354,0.11518019308179483,-0.0001849748900351056,-0.008117870672989191,-0.00010666331106445881,-0.04571470416202972
915,0.0916,646.377,217.952,-0.000116348,375.341,-0.592635,-0.341872,0.0565733,-0.00815995,-0.0468425,0.109131,-0.0001852,-0.000106789,0.0850999,0.05820417832375924,0.11530844617841085,-0.00018518285153867886,-0.008126747978320581,-0.00010678329825775101,-0.045762321810221884
916,0.0917,646.487,217.989,-0.000116625,375.406,-0.592783,-0.341957,0.0566323,-0.0081689,-0.0468924,0.109246,-0.000185408,-0.000106909,0.0851925,0.05826661421212109,0.11543671402498124,-0.00018539081299895344,-0.008135625204200525,-0.0001069032854364993,-0.04580993708235259
917,0.0918,646.597,218.027,-0.000116901,375.47,-0.59293,-0.342042,0.0566912,-0.00817784,-0.0469422,0.10936,-0.000185616,-0.000107029,0.0852851,0.05832894795140864,0.11556388105876336,-0.00018559877441604034,-0.008144492432074713,-0.0001070232726009257,-0.0458574545642908
918,0.0919,646.708,218.065,-0.000117178,375.535,-0.593078,-0.342127,0.0567502,-0.00818679,-0.046992,0.109475,-0.000185824,-0.000107149,0.0853778,0.05839139120139558,0.11569217828203393,-0.00018580673578993956,-0.008153369499142471,-0.0001071432597509192,-0.04590496967991731
919,0.092,646.818,218.103,-0.000117455,375.599,-0.593225,-0.342213,0.0568091,-0.00819573,-0.0470419,0.109589,-0.000186032,-0.000107268,0.0854704,0.058453732290264515,0.11581937444040147,-0.00018601469712042906,-0.00816223656838333,-0.00010726224699375564,-0.0459525778340969
920,0.0921,646.928,218.14,-0.000117732,375.664,-0.593373,-0.342298,0.0568681,-0.00820468,-0.0470917,0.109704,-0.00018624,-0.000107388,0.085563,0.05851618290274452,0.11594770104710062,-0.0001862226584077309,-0.00817111347664179,-0.00010738223411510539,-0.04600008821270252
921,0.0922,647.037,218.178,-0.00011801,375.728,-0.593521,-0.342383,0.0569271,-0.00821362,-0.0471416,0.109818,-0.000186448,-0.000107508,0.0856556,0.058578637199919514,0.11607492633672356,-0.00018643061965184504,-0.008179980387252206,-0.00010750222122202224,-0.04604769162058575
922,0.0923,647.147,218.216,-0.000118287,375.792,-0.593669,-0.342468,0.056986,-0.00822256,-0.0471914,0.109933,-0.000186656,-0.000107628,0.0857482,0.05864098931790229,0.11620328233358079,-0.0001866385808526605,-0.008188847218592699,-0.00010762220831461722,-0.04609519726264277
923,0.0924,647.257,218.253,-0.000118565,375.856,-0.593816,-0.342554,0.0570449,-0.0082315,-0.0472412,0.110047,-0.000186864,-0.000107748,0.0858408,0.058703345108533256,0.11633053676113136,-0.00018684654201017725,-0.008197713970664156,-0.0001077421953927793,-0.04614270053897773
924,0.0925,647.366,218.291,-0.000118843,375.92,-0.593964,-0.342639,0.0571039,-0.00824044,-0.047291,0.110162,-0.000187072,-0.000107868,0.0859334,0.05876581044860396,0.11645892215487752,-0.00018705450312450633,-0.008206580643467132,-0.00010786218245650847,-0.04619020144970842
925,0.0926,647.476,218.328,-0.000119121,375.985,-0.594113,-0.342724,0.0571628,-0.00824938,-0.0473408,0.110276,-0.00018728,-0.000107988,0.086026,0.05882817359141601,0.11658620572702882,-0.00018726246419553672,-0.008215447237002405,-0.00010798216950580475,-0.04623769999495264
926,0.0927,647.585,218.366,-0.000119399,376.049,-0.594261,-0.34281,0.0572217,-0.00825832,-0.0473906,0.110391,-0.000187488,-0.000108108,0.0861186,0.05889054040752506,0.11671462052439674,-0.0001874704252232684,-0.008224313751270751,-0.00010810215654077915,-0.04628519617482818
927,0.0928,647.694,218.403,-0.000119677,376.112,-0.594409,-0.342895,0.0572806,-0.00826726,-0.0474404,0.110505,-0.000187696,-0.000108228,0.0862111,0.05895291089714805,0.11684193324782388,-0.0001876783862078124,-0.008233180186272837,-0.00010822214356132065,-0.046332689989452835
928,0.0929,647.803,218.441,-0.000119956,376.176,-0.594557,-0.342981,0.0573395,-0.0082762,-0.0474902,0.11062,-0.000187905,-0.000108347,0.0863037,0.05901528506050102,0.11697037745554795,-0.0001878873469611797,-0.00824204654200933,-0.0001083411306758153,-0.04638018143894451
929,0.093,647.912,218.478,-0.000120235,376.24,-0.594706,-0.343066,0.0573984,-0.00828513,-0.04754,0.110734,-0.000188112,-0.000108467,0.0863962,0.059077662897800254,0.11709771933692714,-0.00018809430804711536,-0.008250902900989954,-0.00010846111766760202,-0.04642767052342078
930,0.0931,648.021,218.515,-0.000120514,376.304,-0.594854,-0.343152,0.0574574,-0.00829407,-0.0475898,0.110848,-0.00018832,-0.000108587,0.0864888,0.059140150323272245,0.11722507573610841,-0.0001883022689018743,-0.008259769098286074,-0.00010858110464506687,-0.046475157242999554
931,0.0932,648.13,218.553,-0.000120793,376.368,-0.595003,-0.343238,0.0575162,-0.008303,-0.0476396,0.110963,-0.000188529,-0.000108707,0.0865813,0.05920242959510391,0.1173535640077521,-0.0001885112295249014,-0.008268625299005072,-0.00010870109160820984,-0.04652264159779862
932,0.0933,648.239,218.59,-0.000121072,376.431,-0.595152,-0.343324,0.0575751,-0.00831194,-0.0476894,0.111077,-0.000188737,-0.000108827,0.0866738,0.05926481845554088,0.1174809495748883,-0.0001887191902928409,-0.008277491337863596,-0.00010882107855680889,-0.04657012358793566
933,0.0934,648.347,218.627,-0.000121352,376.495,-0.5953,-0.343409,0.057634,-0.00832087,-0.0477392,0.111192,-0.000188945,-0.000108947,0.0867663,0.05932721099079008,0.11760946727371535,-0.00018892715101770374,-0.008286347380323633,-0.00010894106549108606,-0.04661760321352848
934,0.0935,648.456,218.664,-0.000121631,376.558,-0.595449,-0.343495,0.0576929,-0.0083298,-0.047789,0.111306,-0.000189153,-0.000109067,0.0868589,0.059389607201067784,0.11773688201548693,-0.00018913511169915687,-0.008295203343699598,-0.00010906105241104136,-0.046665080474694864
935,0.0936,648.564,218.702,-0.000121911,376.622,-0.595598,-0.343581,0.0577518,-0.00833873,-0.0478387,0.11142,-0.000189361,-0.000109187,0.0869514,0.059452007086590486,0.11786431128336705,-0.0001893430723374223,-0.008304059227992155,-0.00010918103931645273,-0.04671246004280327
936,0.0937,648.672,218.739,-0.000122191,376.685,-0.595747,-0.343667,0.0578106,-0.00834766,-0.0478885,0.111535,-0.000189569,-0.000109307,0.0870438,0.05951430469613905,0.11799287307132555,-0.00018955103293250009,-0.008312915033202084,-0.00010930102620754223,-0.046759932580217156
937,0.0938,648.78,218.776,-0.000122471,376.749,-0.595896,-0.343753,0.0578695,-0.00835659,-0.0479382,0.111649,-0.000189777,-0.000109426,0.0871363,0.059576711926560444,0.11812033152384949,-0.00018975899348427916,-0.008321770759329938,-0.00010942001319358408,-0.046807307434293066
938,0.0939,648.888,218.813,-0.000122751,376.812,-0.596045,-0.343839,0.0579284,-0.00836552,-0.047988,0.111763,-0.000189985,-0.000109546,0.0872288,0.05963912283287609,0.1182478045074653,-0.00018996695399275954,-0.008330626406376496,-0.00010954000005602982,-0.04685477524842441
939,0.094,648.996,218.85,-0.000123032,376.875,-0.596195,-0.343925,0.0579872,-0.00837445,-0.0480378,0.111878,-0.000190193,-0.000109666,0.0873213,0.05970143144515383,0.11837641039968072,-0.0001901749144579412,-0.008339481974342533,-0.00010965998690404266,-0.04690224069871751
940,0.0941,649.104,218.887,-0.000123313,376.938,-0.596344,-0.344011,0.058046,-0.00838338,-0.0480875,0.111992,-0.000190401,-0.000109786,0.0874137,0.0597637437212859,0.11850391257795234,-0.00019038287487993522,-0.008348337463228717,-0.0001097799737376226,-0.046949608480255645
941,0.0942,649.212,218.924,-0.000123594,377.001,-0.596493,-0.344097,0.0581049,-0.00839231,-0.0481372,0.112106,-0.000190609,-0.000109906,0.0875062,0.059826165644098594,0.11863142929230075,-0.00019059083525874154,-0.008357192873035713,-0.00010989996055688067,-0.046996973907673545
942,0.0943,649.32,218.961,-0.000123875,377.065,-0.596643,-0.344183,0.0581637,-0.00840123,-0.048187,0.112221,-0.000190817,-0.000110026,0.0875986,0.05988848525481716,0.11876007930390342,-0.00019079879559413815,-0.00836603828742466,-0.00011001994736159482,-0.047044432276649784
943,0.0944,649.427,218.998,-0.000124156,377.128,-0.596792,-0.34427,0.0582226,-0.00841016,-0.0482367,0.112335,-0.000191025,-0.000110146,0.0876911,0.05995091452512247,0.11888762522292318,-0.00019100675588634708,-0.008374893539163986,-0.00011013993415209811,-0.04709179299144217
944,0.0945,649.535,219.035,-0.000124437,377.19,-0.596942,-0.344356,0.0582814,-0.00841908,-0.0482864,0.112449,-0.000191233,-0.000110266,0.0877835,0.060013241471290835,0.11901518568300684,-0.00019121471613536833,-0.008383738795663676,-0.00011025992092805748,-0.04713915135246538
945,0.0946,649.642,219.071,-0.000124719,377.253,-0.597092,-0.344442,0.0583402,-0.008428,-0.0483362,0.112564,-0.000191441,-0.000110386,0.0878759,0.06007557208239134,0.11914387982913177,-0.0001914226763410909,-0.008392583973264145,-0.00011037990768969497,-0.04718660264118124
946,0.0947,649.749,219.108,-0.000125001,377.316,-0.597241,-0.344529,0.058399,-0.00843693,-0.0483859,0.112678,-0.000191649,-0.000110505,0.0879683,0.06013790635863958,0.11927146950390566,-0.00019163063650351475,-0.008401438987951537,-0.00011049889454739503,-0.04723395629028204
947,0.0948,649.856,219.145,-0.000125283,377.379,-0.597391,-0.344615,0.0584578,-0.00844585,-0.0484356,0.112792,-0.000191857,-0.000110625,0.0880608,0.06020024430025095,0.11939907372473146,-0.00019183859662275093,-0.008410284007666857,-0.00011061888128027775,-0.04728130758596494
948,0.0949,649.963,219.182,-0.000125565,377.442,-0.597541,-0.344702,0.0585166,-0.00845477,-0.0484853,0.112906,-0.000192065,-0.000110745,0.0881531,0.06026258590744127,0.11952669249326764,-0.00019204655669868842,-0.008419128948485066,-0.00011073886799883859,-0.047328656528346946
949,0.095,650.07,219.218,-0.000125847,377.504,-0.597691,-0.344788,0.0585754,-0.00846369,-0.048535,0.113021,-0.000192273,-0.000110865,0.0882455,0.0603249311804257,0.11965544546605855,-0.0001922545167313272,-0.00842797381040672,-0.00011085885470296652,-0.047376003117544974
950,0.0951,650.177,219.255,-0.00012613,377.567,-0.597841,-0.344875,0.0586342,-0.00847261,-0.0485847,0.113135,-0.000192481,-0.000110985,0.0883379,0.06038728011941985,0.11978309346263916,-0.00019246247672077832,-0.008436818593432482,-0.00011097884139277259,-0.04742334735367604
951,0.0952,650.284,219.292,-0.000126412,377.629,-0.597992,-0.344961,0.058693,-0.00848153,-0.0486344,0.113249,-0.000192689,-0.000111105,0.0884303,0.060449632724639546,0.11991075601192103,-0.00019267043666693073,-0.008445663297563244,-0.00011109882806803473,-0.047470689236857044
952,0.0953,650.39,219.328,-0.000126695,377.692,-0.598142,-0.345048,0.0587518,-0.00849044,-0.0486841,0.113363,-0.000192897,-0.000111225,0.0885227,0.06051198899630017,0.12003843311556306,-0.00019287839656989547,-0.008454498007344546,-0.00011121881472897499,-0.0475180287672049
953,0.0954,650.497,219.365,-0.000126978,377.754,-0.598292,-0.345135,0.0588105,-0.00849936,-0.0487338,0.113477,-0.000193105,-0.000111345,0.088615,0.06057424287718782,0.12016612477522437,-0.0001930863564295615,-0.008463342553775566,-0.00011133880137559338,-0.04756536594483651
954,0.0955,650.603,219.401,-0.000127261,377.816,-0.598443,-0.345222,0.0588693,-0.00850828,-0.0487835,0.113592,-0.000193313,-0.000111465,0.0887074,0.060636606476140775,0.120294951286956,-0.00019329431624592885,-0.008472187021313582,-0.00011145878800766784,-0.0476127007698689
955,0.0956,650.709,219.438,-0.000127545,377.879,-0.598593,-0.345308,0.0589281,-0.00851719,-0.0488332,0.113706,-0.000193521,-0.000111585,0.0887997,0.06069897374218125,0.12042267219135594,-0.00019350227601910852,-0.008481021494769592,-0.00011157877462542043,-0.047660033242418964
956,0.0957,650.816,219.474,-0.000127828,377.941,-0.598744,-0.345395,0.0589868,-0.00852611,-0.0488829,0.11382,-0.000193729,-0.000111704,0.0888921,0.06076123859939564,0.12055040765676894,-0.0001937102357489895,-0.008489865804612196,-0.00011169776134045684,-0.047707363362603616
957,0.0958,650.922,219.511,-0.000128112,378.003,-0.598895,-0.345482,0.0590456,-0.00853502,-0.0489325,0.113934,-0.000193937,-0.000111824,0.0889844,0.0608236131940203,0.12067815768485501,-0.00019391819543568278,-0.008498700120550984,-0.00011181774792956567,-0.04775459590600406
958,0.0959,651.028,219.547,-0.000128396,378.065,-0.599045,-0.345569,0.0591043,-0.00854393,-0.0489822,0.114048,-0.000194145,-0.000111944,0.0890767,0.060885885367785164,0.1208059222772746,-0.00019412615507907738,-0.008507534357776292,-0.0001119377345042416,-0.04780192132654104
959,0.096,651.134,219.583,-0.00012868,378.127,-0.599196,-0.345656,0.0591631,-0.00855284,-0.0490319,0.114162,-0.000194353,-0.000112064,0.089169,0.06094826729185554,0.12093370143568793,-0.00019433411467917328,-0.008516368516288897,-0.00011205772106448464,-0.04784924439506322
960,0.0961,651.24,219.62,-0.000128965,378.189,-0.599347,-0.345743,0.0592218,-0.00856176,-0.0490815,0.114276,-0.000194561,-0.000112184,0.0892613,0.06101054678303064,0.12106149516175546,-0.0001945420742360815,-0.008525212510837488,-0.0001121777076104058,-0.04789646990133889
961,0.0962,651.345,219.656,-0.000129249,378.251,-0.599498,-0.34583,0.0592805,-0.00857067,-0.0491312,0.114391,-0.000194769,-0.000112304,0.0893536,0.06107282993011931,0.12119042464700236,-0.00019475003374969102,-0.008534046511838533,-0.00011229769414189406,-0.04794378827091361
962,0.0963,651.451,219.692,-0.000129534,378.313,-0.599649,-0.345917,0.0593393,-0.00857958,-0.0491808,0.114505,-0.000194977,-0.000112424,0.0894459,0.06113522284685291,0.12131824764118448,-0.00019495799322000185,-0.008542880434128874,-0.00011241768065894941,-0.047991009087929415
963,0.0964,651.556,219.729,-0.000129819,378.375,-0.5998,-0.346005,0.059398,-0.00858848,-0.0492305,0.114619,-0.000195185,-0.000112544,0.0895382,0.06119751331264145,0.12144608520801836,-0.000195165952647125,-0.008551704363226498,-0.00011253766716157187,-0.04803832275902331
964,0.0965,651.662,219.765,-0.000130104,378.437,-0.599952,-0.346092,0.0594567,-0.00859739,-0.0492801,0.114733,-0.000195393,-0.000112664,0.0896305,0.06125980743498749,0.12157393734916555,-0.00019537391203106047,-0.008560538128186135,-0.00011265765364987246,-0.04808553888724476
965,0.0966,651.767,219.801,-0.000130389,378.498,-0.600103,-0.346179,0.0595154,-0.0086063,-0.0493297,0.114847,-0.000195601,-0.000112784,0.0897227,0.06132210521410575,0.12170180406628783,-0.00019558187137158622,-0.008569371814437288,-0.00011277764012374014,-0.048132752673604395
966,0.0967,651.872,219.837,-0.000130674,378.56,-0.600254,-0.346266,0.0595741,-0.00861521,-0.0493794,0.114961,-0.000195809,-0.000112904,0.089815,0.061384406650211165,0.12182968536104677,-0.0001957898306689243,-0.008578205421980623,-0.00011289762658328595,-0.04818005930021707
967,0.0968,651.977,219.873,-0.00013096,378.622,-0.600406,-0.346354,0.0596328,-0.00862411,-0.049429,0.115075,-0.000196017,-0.000113024,0.0899072,0.06144671174351801,0.12195758123510414,-0.0001959977899230747,-0.008587029036687177,-0.00011301761302828783,-0.04822726839848046
968,0.0969,652.083,219.909,-0.000131246,378.683,-0.600557,-0.346441,0.0596915,-0.00863302,-0.0494786,0.115189,-0.000196226,-0.000113143,0.0899995,0.06150902049424145,0.1220854916901224,-0.00019620674893772172,-0.00859586248690547,-0.00011313659957212785,-0.048274475155230645
969,0.097,652.187,219.945,-0.000131532,378.745,-0.600709,-0.346529,0.0597502,-0.00864192,-0.0495282,0.115303,-0.000196434,-0.000113263,0.0900917,0.061571332902595755,0.12221341672776376,-0.00019641470810505268,-0.00860468594446484,-0.000113256585988597,-0.048321679570583864
970,0.0971,652.292,219.981,-0.000131818,378.806,-0.600861,-0.346616,0.0598089,-0.00865082,-0.0495779,0.115417,-0.000196642,-0.000113383,0.0901839,0.06163364896879564,0.12234135634969046,-0.00019662266722919597,-0.008613509323495805,-0.00011337657239063326,-0.04836897680776309
971,0.0972,652.397,220.017,-0.000132104,378.868,-0.601013,-0.346704,0.0598675,-0.00865973,-0.0496275,0.115531,-0.00019685,-0.000113503,0.0902762,0.061695862523464706,0.1224693105575656,-0.00019683062631004056,-0.008622342537775718,-0.00011349655877823661,-0.04841617653595043
972,0.0973,652.502,220.053,-0.000132391,378.929,-0.601165,-0.346791,0.0599262,-0.00866863,-0.0496771,0.115645,-0.000197058,-0.000113623,0.0903684,0.061758185899768,0.12259727935305187,-0.00019703858534758645,-0.008631165759663828,-0.00011361654515140707,-0.048463373923089414
973,0.0974,652.606,220.089,-0.000132677,378.99,-0.601317,-0.346879,0.0599849,-0.00867753,-0.0497267,0.115759,-0.000197266,-0.000113743,0.0904606,0.06182051293456081,0.12272526273781259,-0.00019724654434194466,-0.00863998890302542,-0.00011373653151025565,-0.04851056896929595
974,0.0975,652.711,220.125,-0.000132964,379.051,-0.601469,-0.346967,0.0600435,-0.00868643,-0.0497763,0.115873,-0.000197474,-0.000113863,0.0905528,0.06188273743977901,0.12285326071351066,-0.00019745450329300418,-0.008648811967861492,-0.00011385651785467132,-0.048557761674686395
975,0.0976,652.815,220.161,-0.000133251,379.112,-0.601621,-0.347054,0.0601022,-0.00869533,-0.0498259,0.115987,-0.000197682,-0.000113983,0.0906449,0.06194507178596198,0.12298127328180986,-0.00019766246220087602,-0.00865763495417271,-0.0001139765041846541,-0.04860495203937654
976,0.0977,652.919,220.197,-0.000133539,379.174,-0.601773,-0.347142,0.0601608,-0.00870422,-0.0498755,0.116101,-0.00019789,-0.000114103,0.0907371,0.06200730359054263,0.12310930044437352,-0.00019787042106544916,-0.008666447948624145,-0.000114096490500315,-0.04865214006348273
977,0.0978,653.023,220.232,-0.000133826,379.235,-0.601925,-0.34723,0.0602195,-0.00871312,-0.049925,0.116215,-0.000198098,-0.000114223,0.0908293,0.06206964524897307,0.12323734220286564,-0.00019807837988683463,-0.008675270777975697,-0.00011421647680154301,-0.04869923061704884
978,0.0979,653.127,220.268,-0.000134114,379.296,-0.602078,-0.347318,0.0602781,-0.00872202,-0.0499746,0.116329,-0.000198306,-0.000114343,0.0909215,0.062131884353772815,0.12336539855895046,-0.00019828633866481038,-0.008684093528804504,-0.00011433646308833811,-0.048746413965053526
979,0.098,653.231,220.304,-0.000134401,379.357,-0.60223,-0.347406,0.0603367,-0.00873091,-0.0500242,0.116443,-0.000198514,-0.000114463,0.0910136,0.06219412710589056,0.12349346951429196,-0.00019849429739970947,-0.008692906288040203,-0.00011445644936070032,-0.04879359497282221
980,0.0981,653.335,220.339,-0.000134689,379.417,-0.602383,-0.347494,0.0603954,-0.00873981,-0.0500738,0.116557,-0.000198722,-0.000114583,0.0911058,0.062256479731183534,0.12362155507055461,-0.00019870225609119885,-0.008701728881913673,-0.00011457643561874065,-0.0488407736404709
981,0.0982,653.439,220.375,-0.000134978,379.478,-0.602535,-0.347582,0.060454,-0.0087487,-0.0501233,0.116671,-0.000198931,-0.000114703,0.0911979,0.06231872978480446,0.12374965522940284,-0.00019891121454063132,-0.008710541484371892,-0.0001146964218624591,-0.04888785485690594
982,0.0983,653.543,220.411,-0.000135266,379.539,-0.602688,-0.34767,0.0605126,-0.0087576,-0.0501729,0.116784,-0.000199139,-0.000114822,0.09129,0.062380983486385544,0.12387664611529381,-0.00019911917314541228,-0.008719363921292689,-0.00011481540820645897,-0.04893502884938039
983,0.0984,653.646,220.446,-0.000135554,379.6,-0.602841,-0.347758,0.0605712,-0.00876649,-0.0502225,0.116898,-0.000199347,-0.000114942,0.0913822,0.06244324083614039,0.12400477535617882,-0.00019932713170700556,-0.008728176366976093,-0.00011493539442142264,-0.048982200502082796
984,0.0985,653.75,220.482,-0.000135843,379.66,-0.602994,-0.347846,0.0606298,-0.00877538,-0.050272,0.117012,-0.000199555,-0.000115062,0.0914743,0.06250550183428283,0.1241329192046301,-0.00019953509022541116,-0.008736988734317164,-0.00011505538062195342,-0.04902927471806151
985,0.0986,653.853,220.517,-0.000136132,379.721,-0.603146,-0.347934,0.0606884,-0.00878427,-0.0503216,0.117126,-0.000199763,-0.000115182,0.0915664,0.06256776648102647,0.12426107766231276,-0.00019974304870040704,-0.00874580102331668,-0.00011517536680816232,-0.04907644169628467
986,0.0987,653.956,220.553,-0.000136421,379.781,-0.603299,-0.348022,0.060747,-0.00879316,-0.0503711,0.11724,-0.000199971,-0.000115302,0.0916585,0.06263003477658557,0.12438925073089235,-0.00019995100713221525,-0.008754613233975195,-0.00011529535297982729,-0.049123511247439744
987,0.0988,654.06,220.588,-0.000136711,379.842,-0.603453,-0.348111,0.0608056,-0.00880205,-0.0504207,0.117354,-0.000200179,-0.000115422,0.0917506,0.06269230672117354,0.12451743841203466,-0.00020015896552083579,-0.008763425366293598,-0.00011541533913728141,-0.04917067355164706
988,0.0989,654.163,220.624,-0.000137,379.902,-0.603606,-0.348199,0.0608642,-0.00881094,-0.0504702,0.117468,-0.000200387,-0.000115542,0.0918427,0.06275458231500464,0.12464564070740547,-0.00020036692386615762,-0.008772237420272444,-0.00011553532528019161,-0.049217738438440684
989,0.099,654.266,220.659,-0.00013729,379.963,-0.603759,-0.348287,0.0609228,-0.00881983,-0.0505197,0.117581,-0.000200595,-0.000115662,0.0919347,0.06281686155829225,0.12477273284537604,-0.00020057488216818076,-0.00878104939591251,-0.00011565531140877994,-0.04926480099558006
990,0.0991,654.369,220.694,-0.00013758,380.023,-0.603912,-0.348376,0.0609813,-0.00882871,-0.0505692,0.117695,-0.000200804,-0.000115782,0.0920268,0.06287903816334128,0.1249009642459713,-0.0002007838402261486,-0.00878985138111299,-0.00011577529752293536,-0.04931186122318054
991,0.0992,654.471,220.73,-0.00013787,380.083,-0.604066,-0.348464,0.0610399,-0.0088376,-0.0506188,0.117809,-0.000201012,-0.000115902,0.0921189,0.0629413246999555,0.12502921026577973,-0.00020099179844157433,-0.008798663200165535,-0.00011589528362265789,-0.04935901418546074
992,0.0993,654.574,220.765,-0.00013816,380.144,-0.604219,-0.348553,0.0610985,-0.00884648,-0.0506683,0.117923,-0.00020122,-0.000116022,0.0922109,0.0630036148866675,0.12515747090646756,-0.00020119975661359035,-0.00880746502895624,-0.00011601526970805853,-0.049406069749623804
993,0.0994,654.677,220.8,-0.00013845,380.204,-0.604373,-0.348641,0.061157,-0.00885537,-0.0507178,0.118037,-0.000201428,-0.000116142,0.092303,0.0630658024171058,0.1252857461697019,-0.0002014077147424187,-0.008816276691424152,-0.00011613525577902628,-0.04945312298459403
994,0.0995,654.779,220.836,-0.000138741,380.264,-0.604526,-0.34873,0.0612156,-0.00886425,-0.0507673,0.11815,-0.000201636,-0.000116262,0.092395,0.06312809989842583,0.12541291064367655,-0.00020161567282805937,-0.008825078363807637,-0.00011625524183556113,-0.049500173890486776
995,0.0996,654.882,220.871,-0.000139032,380.324,-0.60468,-0.348819,0.0612741,-0.00887313,-0.0508168,0.118264,-0.000201844,-0.000116382,0.0924871,0.06319029471145043,0.12554121502870097,-0.00020182363087029032,-0.008833879958032642,-0.0001163752278777741,-0.04954722246741727
996,0.0997,654.984,220.906,-0.000139323,380.384,-0.604834,-0.348907,0.0613327,-0.00888202,-0.0508663,0.118378,-0.000202052,-0.000116502,0.0925791,0.0632525994882327,0.12566953404125902,-0.0002020315888693336,-0.008842691385672952,-0.00011649521390555417,-0.04959426871550088
997,0.0998,655.086,220.941,-0.000139614,380.444,-0.604988,-0.348996,0.0613912,-0.0088909,-0.0509158,0.118492,-0.000202261,-0.000116622,0.0926711,0.06331480158469649,0.12579786768301826,-0.0002022405466229893,-0.008851492823495066,-0.00011661519991890135,-0.04964131263485283
998,0.0999,655.189,220.976,-0.000139905,380.504,-0.605142,-0.349085,0.0614497,-0.00889978,-0.0509653,0.118605,-0.000202469,-0.000116742,0.0927631,0.06337700732008922,0.12592509002999375,-0.00020244850453532415,-0.0088602941831607,-0.00011673518591792664,-0.04968835422558848
999,0.1,655.291,221.011,-0.000140197,380.564,-0.605296,-0.349174,0.0615082,-0.00890866,-0.0510148,0.118719,-0.000202677,-0.000116862,0.0928551,0.06343921669462382,0.12605345280679647,-0.0002026564624043603,-0.008869095464670629,-0.00011685517190240802,-0.049735393487822965
