,Time,S11,S22,S33,S12,S13,S23,LE11,LE22,LE33,LE12,LE13,LE23,SDV_EPBAR,E11,E12,E13,E22,E23,E33
0,1e-05,1.55809,0.519362,-3.33067e-16,0.899562,-3.04394e-17,1.96331e-18,6.74997e-06,2.49999e-07,-2.99999e-06,1.12583e-05,-1.83385e-22,-1.05877e-22,0.0,6.749992781163172e-06,1.1258363374899716e-05,0.0,2.499990312543332e-07,0.0,-2.999985500018454e-06
1,2e-05,3.11616,1.03872,1.11022e-16,1.79912,-3.35356e-17,-9.59302e-18,1.34999e-05,5.00011e-07,-5.99996e-06,2.25164e-05,-1.8338e-22,-1.05874e-22,0.0,1.3499991124099608e-05,2.2516653495952e-05,0.0,5.000111249486849e-07,0.0,-5.9999420002343484e-06
2,3.5e-05,5.45324,1.81775,-5.55112e-16,3.14843,-8.98792e-17,-8.11981e-17,2.36246e-05,8.75006e-07,-1.04998e-05,3.94034e-05,-3.66722e-22,-2.11727e-22,0.0,2.3624879063044446e-05,3.9404176324087103e-05,0.0,8.750063829054966e-07,0.0,-1.0499744877323636e-05
3,5.75e-05,8.95879,2.98626,-4.10783e-15,5.17236,-7.74908e-17,-3.49706e-17,3.88114e-05,1.43749e-06,-1.72495e-05,6.47335e-05,2.65468e-21,-6.29197e-21,0.0,3.8812153172029795e-05,6.473559525832506e-05,0.0,1.4374910330960944e-06,0.0,-1.7249351228265652e-05
4,9.125e-05,14.217,4.73899,-2.94209e-14,8.20817,-3.41232e-16,-1.87242e-16,6.1591e-05,2.28117e-06,-2.73738e-05,0.000102728,-3.92632e-22,-6.09524e-21,0.0,6.159289676466173e-05,0.00010273327670162757,0.0,2.2811726019256184e-06,0.0,-2.737342534098186e-05
5,0.00014188,22.1039,7.36797,-1.5643e-13,12.7617,-3.87434e-16,-1.74842e-16,9.57588e-05,3.54668e-06,-4.25596e-05,0.000159716,-1.01239e-21,-8.40938e-21,0.0,9.576338502026438e-05,0.00015972875527947572,0.0,3.5466862895461304e-06,0.0,-4.255869435310089e-05
6,0.00021781,33.9336,11.3112,-7.95919e-13,19.5916,-6.55665e-16,-2.51555e-16,0.000147007,5.4448e-06,-6.53367e-05,0.000245194,-5.86667e-21,-3.38713e-21,0.0,0.00014701780605852477,0.00024522406250571116,0.0,5.44481482300796e-06,0.0,-6.533456560431361e-05
7,0.00033172,51.6764,17.2255,-4.03955e-12,29.8354,-6.55576e-16,-2.51503e-16,0.000223873,8.29167e-06,-9.94992e-05,0.000373398,4.29964e-21,-2.09936e-20,0.0,0.00022389806143019442,0.00037346772171087395,0.0,8.291704375995579e-06,0.0,-9.949425011879232e-05
8,0.00050258,78.2868,26.0956,-2.04531e-11,45.1989,-1.32232e-15,-1.26165e-15,0.000339155,1.25613e-05,-0.000150736,0.000565677,-4.04076e-21,-3.36359e-20,0.0,0.0003392125195595952,0.0005658370254069123,0.0,1.256137889349418e-05,0.0,-0.00015072463989995732
9,0.00075887,118.194,39.398,-1.0343e-10,68.2393,-1.59252e-15,-7.92449e-16,0.000512041,1.89646e-05,-0.000227574,0.000854034,-1.17205e-20,-6.76684e-21,0.0,0.0005121721153706904,0.00085439879087712,0.0,1.896477982921141e-05,0.0,-0.0002275481070015406
10,0.0011433,178.035,59.3451,-5.23063e-10,102.789,-2.86239e-15,-1.83821e-15,0.000771287,2.85663e-05,-0.000342794,0.00128643,-8.05347e-21,-6.72675e-20,0.0,0.0007715845183038361,0.0012872578060059148,0.0,2.8566708020649756e-05,0.0,-0.00034273525284966855
11,0.00172,267.755,89.2515,-2.6442e-09,154.588,-2.86019e-15,-1.83694e-15,0.00115997,4.29618e-05,-0.000515542,0.00193471,-2.34034e-20,-1.3512e-20,0.0,0.0011606430254049727,0.001936582758945704,0.0,4.29627228712981e-05,0.0,-0.0005154091310572984
12,0.0025849,364.812,122.348,0.293591,210.866,-0.0107073,0.00199581,0.00173652,3.75456e-05,-0.000834731,0.00293252,-1.79323e-07,1.42605e-07,0.000244377,0.0017380286239807585,0.0029368240429774595,-1.7932298390643808e-07,3.754630484475996e-05,1.4260501024487837e-07,-0.0008343827089952738
13,0.0030849,374.26,125.369,-0.12487,216.851,-0.208526,-0.122779,0.00206633,-3.24299e-06,-0.00109857,0.00353624,-3.4182e-06,-1.21668e-06,0.000687807,0.0020684663310359674,0.003542499873298688,-3.418194157944754e-06,-3.242984741524957e-06,-1.216679259896658e-06,-0.001097966792886207
14,0.0035849,383.248,129.01,0.0460179,222.173,-0.206797,-0.173072,0.00239517,-4.12558e-05,-0.00136317,0.0041395,-4.11798e-06,-1.90735e-06,0.00113732,0.0023980407111539037,0.004148079564409102,-4.117971521111485e-06,-4.125494899120952e-05,-1.9073481810627513e-06,-0.0013622413058128613
15,0.0040849,390.883,131.384,-0.200102,226.989,-0.376116,-0.23304,0.00272372,-8.34901e-05,-0.00162941,0.0047451,-7.43063e-06,-2.97167e-06,0.00159363,0.0027274326953348194,0.0047563758149067326,-7.430602392943797e-06,-8.34866147986224e-05,-2.9716655846057094e-06,-0.0016280832322399519
16,0.0048349,401.486,135.313,-0.0580824,233.484,-0.501032,-0.242536,0.00321845,-0.000142099,-0.00203497,0.00564641,-1.14538e-05,-3.11533e-06,0.00228501,0.003223634771017947,0.005662381018433971,-1.145373440547548e-05,-0.00014208890441524957,-3.1153251474069776e-06,-0.0020329008523386483
17,0.0058349,414.051,140.353,0.408453,241.051,-0.609389,-0.252259,0.0038805,-0.000215224,-0.00258595,0.00683907,-1.68777e-05,-2.72274e-06,0.00321778,0.003888038888523182,0.006862509844343112,-1.687755757240339e-05,-0.0002152008409763706,-2.7227362933146537e-06,-0.0025826093115369764
18,0.0068349,424.767,144.887,0.387243,247.609,-0.622715,-0.386656,0.00453963,-0.000286561,-0.00314193,0.00803349,-2.10172e-05,-5.04445e-06,0.00416119,0.004549949730278113,0.00806584506411756,-2.101697914025369e-05,-0.0002865199453182532,-5.044437276779945e-06,-0.003136999303257393
19,0.0078349,434.148,148.526,0.318161,253.455,-0.700756,-0.475142,0.00519696,-0.000360093,-0.00369875,0.00923,-2.62692e-05,-7.53327e-06,0.00511237,0.0052104876206362505,0.009272727808046444,-2.626885496759268e-05,-0.0003600281742970335,-7.533241624946285e-06,-0.0036919180500393223
20,0.0088349,441.97,150.793,-0.363543,258.706,-0.926932,-0.604109,0.005853,-0.000437814,-0.00425722,0.0104289,-3.45152e-05,-1.13944e-05,0.00607052,0.005870162271754298,0.010483470516108984,-3.451460435732745e-05,-0.00043771817343596364,-1.1394335084125018e-05,-0.00424817088484819
21,0.0098349,449.684,153.769,-0.338163,263.525,-0.996655,-0.631207,0.00650704,-0.000512868,-0.00481408,0.0116274,-4.10596e-05,-1.42272e-05,0.00703155,0.006528256779293029,0.01169526097590401,-4.105875706617024e-05,-0.0005127365056879496,-1.4227098793839765e-05,-0.004802510889197142
22,0.010835,457.335,157.44,0.212792,267.958,-0.928386,-0.635106,0.00715912,-0.000584325,-0.00537051,0.012825,-4.54033e-05,-1.68504e-05,0.00799477,0.007184807763592316,0.012907593019978236,-4.5402269285732544e-05,-0.0005841543153939366,-1.6850258032774512e-05,-0.005356114592924954
23,0.011835,463.307,159.05,-0.342124,272.047,-1.12134,-0.705439,0.00781034,-0.000662451,-0.00592887,0.0140257,-5.39716e-05,-2.07229e-05,0.00896318,0.007840920267708995,0.014124521603790852,-5.3970143559345374e-05,-0.0006622316277801188,-2.07226852821929e-05,-0.005911328933616455
24,0.012835,469.444,161.497,-0.296563,275.871,-1.16012,-0.730108,0.00845988,-0.000737376,-0.00648576,0.0152252,-6.07153e-05,-2.41719e-05,0.00993237,0.008495765910255804,0.015341693820552615,-6.0713456863425996e-05,-0.0007371042051264043,-2.417160786194472e-05,-0.0064647728556506134
25,0.013835,475.689,164.595,0.230556,279.463,-1.08027,-0.715403,0.00910772,-0.000809143,-0.00704181,0.0164236,-6.54718e-05,-2.70602e-05,0.0109022,0.00914932148410652,0.01655920869562788,-6.546965676845762e-05,-0.0008088157320775835,-2.7059833876075245e-05,-0.007017074550794922
26,0.014835,481.185,166.902,0.365926,282.839,-1.08671,-0.725478,0.00975436,-0.000882833,-0.00759853,0.0176229,-7.12774e-05,-3.03172e-05,0.0118743,0.009802088831343925,0.01777909951593082,-7.127485982649784e-05,-0.0008824434176009088,-3.0316740438296463e-05,-0.007569734152450103
27,0.015835,485.583,167.822,-0.292076,286.003,-1.28061,-0.799605,0.0104003,-0.000961187,-0.00815627,0.0188238,-8.03615e-05,-3.47541e-05,0.0128493,0.010454571102116006,0.019002084630973304,-8.035827110119964e-05,-0.0009607252077435957,-3.475349608328404e-05,-0.008123097878037
28,0.016835,491.06,170.813,0.382193,289.045,-1.14031,-0.759964,0.0110443,-0.0010319,-0.00871105,0.0200216,-8.44637e-05,-3.75522e-05,0.0138221,0.011105513426836744,0.020223376613694777,-8.446013304208577e-05,-0.001031367774278702,-3.755149492501442e-05,-0.008673218733662336
29,0.017835,494.889,171.429,-0.334813,291.896,-1.33983,-0.83373,0.0116879,-0.00111052,-0.00926807,0.0212223,-9.37785e-05,-4.21364e-05,0.0147987,0.011756470390759333,0.02144909453449073,-9.377410293387456e-05,-0.0011099036008603846,-4.2135512274388276e-05,-0.009225253815799195
30,0.018835,499.984,174.364,0.40192,294.656,-1.17624,-0.784737,0.0123295,-0.00118066,-0.0098219,0.0224193,-9.76497e-05,-4.49193e-05,0.0157725,0.012405821631764624,0.02267250116344033,-9.764493242325756e-05,-0.0011799632951996486,-4.4918291143392075e-05,-0.0097738226725117
31,0.019835,503.378,174.765,-0.339802,297.252,-1.37901,-0.854903,0.0129709,-0.00125933,-0.010378,0.0236193,-0.000107072,-4.95343e-05,0.0167501,0.013055387019110132,0.023900444783655272,-0.00010706626799794616,-0.0012585373767352026,-4.953307319677247e-05,-0.01032433436576019
32,0.020835,508.106,177.572,0.395505,299.782,-1.20398,-0.803149,0.0136104,-0.00132922,-0.010931,0.0248155,-0.000110829,-5.23453e-05,0.0177245,0.013703443132965454,0.025125967334610477,-0.00011082285869323805,-0.0013283369783824162,-5.234393000863591e-05,-0.010871473710883706
33,0.021835,511.189,177.872,-0.318039,302.168,-1.39825,-0.865902,0.0142497,-0.00140761,-0.0114861,0.0260146,-0.000120121,-5.68879e-05,0.0187024,0.014351710940885942,0.026355933160677747,-0.00012011378576148868,-0.0014066197817121928,-5.6886281914136916e-05,-0.011420386590961895
34,0.022835,515.559,180.487,0.364638,304.503,-1.22619,-0.816279,0.0148871,-0.00147753,-0.0120381,0.02721,-0.000123925,-5.97586e-05,0.0196771,0.01499846482000411,0.02758357265711564,-0.00012391732161431968,-0.0014764389899490915,-5.975681449044146e-05,-0.011965931953191178
35,0.023835,519.144,181.978,0.407571,306.732,-1.21609,-0.820082,0.0155238,-0.00155066,-0.0125912,0.0284062,-0.000129673,-6.33054e-05,0.0206532,0.01564492011976082,0.0288135036017676,-0.0001296645928199336,-0.0015494583479803703,-6.330339625548742e-05,-0.012512262494588922
36,0.024835,521.911,182.2,-0.200083,308.866,-1.40403,-0.85383,0.0161601,-0.00162859,-0.0131443,0.0296035,-0.000138755,-6.73777e-05,0.0216308,0.016291380632033725,0.03004603972013764,-0.00013874537397018383,-0.0016272645669326291,-6.737543017376613e-05,-0.01305829094411537
37,0.025835,525.723,184.429,0.290319,310.957,-1.24851,-0.830166,0.0167946,-0.00169891,-0.0136953,0.0307975,-0.00014274,-7.05922e-05,0.0226056,0.016936422130819473,0.031276649219234454,-0.00014272981313090405,-0.00169746766931822,-7.0589708429325e-05,-0.013601946035073142
38,0.026835,528.906,185.703,0.280845,312.964,-1.24217,-0.835254,0.0174284,-0.00177207,-0.0142468,0.0319921,-0.00014853,-7.41783e-05,0.0235814,0.017581160731245715,0.03250934844904618,-0.00014851896996570524,-0.0017705008109986098,-7.417554885791322e-05,-0.014145794581813531
39,0.027835,531.595,186.161,-0.0771193,314.902,-1.37487,-0.837311,0.0180619,-0.00184853,-0.0147979,0.0331871,-0.000156643,-7.7727e-05,0.0245578,0.018226002628674243,0.03374393463877268,-0.00015663073212579537,-0.001846822520690461,-7.77239793350315e-05,-0.014688949154430198
40,0.028835,535.115,188.319,0.413572,316.801,-1.20648,-0.807947,0.0186935,-0.00191816,-0.0153474,0.034379,-0.000160154,-8.07221e-05,0.0255318,0.01886931730932484,0.03497678860783959,-0.00016014117603280198,-0.001916321506803098,-8.071884205895774e-05,-0.015230228846654481
41,0.029835,537.939,189.346,0.326954,318.626,-1.21247,-0.825316,0.0193246,-0.00199139,-0.0158975,0.0355717,-0.00016585,-8.43705e-05,0.0265068,0.019512528679477947,0.036211941860833985,-0.0001658362476489872,-0.001989408498466294,-8.436694090940833e-05,-0.015771801724488776
42,0.030835,540.335,189.619,-0.0505567,320.397,-1.35698,-0.82172,0.0199554,-0.00206789,-0.0164468,0.0367648,-0.000173907,-8.77325e-05,0.0274822,0.02015584006164728,0.03744898413949671,-0.0001738918790542554,-0.002065753388486913,-8.772865161676968e-05,-0.0163122898151572
43,0.031835,543.586,191.677,0.410368,322.135,-1.1793,-0.797885,0.0205843,-0.00213713,-0.0169949,0.0379546,-0.000177075,-9.07081e-05,0.028455,0.020797617855336625,0.038684075551004504,-0.00017705932314748818,-0.002134847963640496,-9.07039861446357e-05,-0.016851301319512957
44,0.032835,546.16,192.575,0.306196,323.811,-1.18807,-0.814097,0.0212129,-0.00221021,-0.0175433,0.0391452,-0.000182595,-9.4248e-05,0.0294288,0.021439492958129636,0.03992146928567575,-0.0001825783305475781,-0.0022077692843738284,-9.424355879672497e-05,-0.01739031225556198
45,0.033835,548.379,192.809,-0.0239516,325.444,-1.32488,-0.80075,0.0218411,-0.00228629,-0.0180908,0.0403359,-0.000190303,-9.73518e-05,0.0304028,0.022081362837826246,0.041160441254734836,-0.0001902848935326773,-0.002283678429666147,-9.734706146724559e-05,-0.01792814381477792
46,0.034835,551.352,194.684,0.361564,327.048,-1.15604,-0.785006,0.0224676,-0.00235557,-0.0186374,0.0415237,-0.000193387,-0.000100332,0.0313744,0.02272189743815689,0.04239786638815701,-0.0001933683019395005,-0.0023527978221010715,-0.00010032696691320009,-0.018464797610524997
47,0.035835,553.72,195.483,0.249956,328.598,-1.16583,-0.799001,0.0230936,-0.00242851,-0.0191841,0.042712,-0.000198731,-0.000103737,0.0323467,0.023362321777857575,0.04363728402693212,-0.0001987112543028191,-0.002425563555229382,-0.00010373161950349985,-0.019001256251340415
48,0.036835,555.851,195.794,0.0171607,330.116,-1.27788,-0.774428,0.0237193,-0.00250381,-0.0197298,0.0439002,-0.000205823,-0.000106545,0.0333189,0.024002839947806498,0.04487807085328588,-0.0002058018198994871,-0.0025006780821963392,-0.00010653932428306145,-0.01953644122730236
49,0.037835,558.517,197.387,0.27247,331.602,-1.13781,-0.770251,0.0243434,-0.00257358,-0.0202749,0.0450858,-0.000209106,-0.000109569,0.0342891,0.02464211958667928,0.046117612949447606,-0.00020908413886422395,-0.0025702711821029567,-0.00010956299753639431,-0.02007074627511851
50,0.038835,560.239,197.136,-0.248789,333.042,-1.32807,-0.775944,0.0249677,-0.00265075,-0.0208197,0.0462731,-0.000217342,-0.000112742,0.0352609,0.025282003380880713,0.047360406029419044,-0.00021731838293859163,-0.002647239864401074,-0.0001127356448595851,-0.020604466334002813
51,0.039835,562.374,197.894,-0.3806,334.455,-1.31773,-0.793092,0.0255908,-0.00272402,-0.0213637,0.0474584,-0.000222984,-0.000116114,0.0362309,0.025921055673252758,0.04860257834667858,-0.00022295914091563507,-0.002720313224060966,-0.00011610725903044017,-0.021137112611393838
52,0.040835,565.403,200.152,0.409832,335.865,-1.08104,-0.71566,0.0262124,-0.00279152,-0.0219056,0.0486406,-0.000224728,-0.00011795,0.0371982,0.026558966443586574,0.04984296936546739,-0.00022470275055441746,-0.0027876273310416533,-0.00011794304417223067,-0.021667414711738497
53,0.041835,567.541,201.005,0.366213,337.216,-1.05497,-0.727349,0.0268336,-0.00286323,-0.0224489,0.0498237,-0.000228988,-0.000120947,0.0381669,0.027196862983693615,0.05108577361841404,-0.00022896178424902658,-0.002859134866352475,-0.0001209396862064116,-0.022198798441864454
54,0.042835,569.151,200.865,-0.0943544,338.536,-1.20897,-0.729686,0.0274546,-0.0029391,-0.0229917,0.0510075,-0.000236148,-0.000123835,0.039136,0.027834950341224962,0.05233078573450012,-0.00023612011925577825,-0.0029347850739631642,-0.00012382733276283808,-0.02272940491444575
55,0.043835,571.053,201.448,-0.278223,339.83,-1.21567,-0.749529,0.0280745,-0.00301222,-0.0235336,0.0521894,-0.00024146,-0.00012701,0.0401036,0.028472302753911993,0.05357527077372648,-0.0002414308508803531,-0.0030076878171217958,-0.0001270019345713802,-0.02325884438534187
56,0.044835,573.755,203.348,0.370997,341.127,-1.02727,-0.675864,0.0286932,-0.00308045,-0.0240735,0.0533686,-0.000243495,-0.000128689,0.0410687,0.02910881545252475,0.05481837952589674,-0.00024346535749841802,-0.0030757102819692905,-0.0001286807199257778,-0.023786044604752754
57,0.045835,574.877,202.695,-0.488472,342.349,-1.2274,-0.751804,0.0293121,-0.0031575,-0.0246156,0.0545505,-0.000251245,-0.000132562,0.0420367,0.02974592803255982,0.0560658063903543,-0.00025121344061806994,-0.003152520339346654,-0.00013255321404626041,-0.024315106774714934
58,0.046835,577.652,204.844,0.294025,343.599,-0.985841,-0.677899,0.0299292,-0.00322456,-0.0251542,0.0557275,-0.000252399,-0.000134225,0.0430001,0.030381580355100857,0.057309527630845514,-0.00025236715005205745,-0.0032193666899494877,-0.0001342159922277375,-0.024840469165414047
59,0.047835,579.599,205.645,0.305645,344.801,-0.957435,-0.671513,0.0305459,-0.00329577,-0.025694,0.0569054,-0.000256097,-0.000136705,0.0439647,0.031017212652779458,0.05855566629272735,-0.00025606420996249213,-0.0032903449116379324,-0.00013669565629725877,-0.025366718232756935
60,0.048835,581.051,205.523,-0.0856028,345.976,-1.09388,-0.666487,0.0311624,-0.00337079,-0.0262332,0.0580838,-0.000262418,-0.000139181,0.0449296,0.0316530307351659,0.05980380354792447,-0.0002623835714082867,-0.003365115265291596,-0.00013917131477392264,-0.02589209884294441
61,0.049835,583.44,207.256,0.397227,347.147,-0.900135,-0.630798,0.0317773,-0.00343848,-0.0267711,0.0592587,-0.000263765,-0.000141106,0.0458916,0.03228758925878905,0.06104969879455724,-0.0002637302170706013,-0.0034325751974321195,-0.00014109604501666428,-0.026415930585799163
62,0.050835,585.127,207.74,0.248582,348.277,-0.912167,-0.648529,0.032392,-0.00351038,-0.0273095,0.0604343,-0.000267734,-0.000143771,0.0468544,0.032922331507949876,0.06229780231196402,-0.00026769816245098,-0.0035042258194046827,-0.0001437606654450807,-0.026939967165465872
63,0.051835,586.659,207.832,0.0392296,349.398,-1.0147,-0.620273,0.0330063,-0.00358436,-0.0278467,0.0616096,-0.000273244,-0.000145742,0.0478168,0.033557050630213636,0.0635470548985011,-0.00027320667225816386,-0.003577943849915055,-0.00014573138015061549,-0.02746255463554259
64,0.052835,588.663,209.074,0.225539,350.499,-0.88582,-0.619675,0.0336192,-0.00365336,-0.0283836,0.0627825,-0.000275303,-0.000148041,0.0487773,0.03419071191220868,0.06479522108315927,-0.0002752651076064483,-0.003646694599861222,-0.00014803004247188056,-0.02798456984243669
65,0.053835,589.948,208.797,-0.16297,351.576,-1.04363,-0.611862,0.0342323,-0.00372863,-0.0289198,0.0639564,-0.000281593,-0.000150222,0.0497388,0.034824968649217025,0.06604591814620409,-0.00028155335641233403,-0.003721687290773379,-0.00015021071724030666,-0.028505624808766616
66,0.054835,591.576,209.392,-0.259384,352.637,-1.02209,-0.626185,0.0348442,-0.00380042,-0.0294555,0.0651284,-0.000285525,-0.000152725,0.0506985,0.03545837181746947,0.06729605640019076,-0.0002854842416164516,-0.0037932075435925805,-0.00015271333813082766,-0.029025914973393463
67,0.055835,593.838,211.043,0.293845,353.701,-0.841314,-0.566676,0.035455,-0.00386817,-0.0299895,0.0662979,-0.000286704,-0.000154053,0.0516561,0.03609102298297273,0.06854498930931907,-0.000286662904335766,-0.0038606982675073453,-0.00015404113444594802,-0.02954427671989357
68,0.056835,594.804,210.516,-0.373758,354.712,-1.0071,-0.618212,0.036066,-0.00394359,-0.0305251,0.0674695,-0.0002929,-0.000156982,0.0526158,0.03672426803467821,0.06979763027258401,-0.00029285710898274697,-0.003935824260607235,-0.00015696967897060876,-0.030063913634094552
69,0.057835,596.439,211.172,-0.373888,355.728,-0.978453,-0.610629,0.0366759,-0.00401501,-0.0310587,0.0686385,-0.000296519,-0.000159127,0.0535732,0.03735675902427382,0.07104895495915109,-0.00029647504258611956,-0.004006960623728739,-0.00015911433997051194,-0.030581333469890115
70,0.058835,598.744,212.953,0.301632,356.749,-0.77772,-0.532787,0.0372846,-0.00408209,-0.0315908,0.069805,-0.000297152,-0.000160071,0.0545283,0.037988390300968566,0.0722990625486084,-0.00029710785471714907,-0.004073769596012133,-0.0001600581893210773,-0.031097023930736434
71,0.059835,599.566,212.28,-0.435697,357.711,-0.961571,-0.592821,0.0378936,-0.00415771,-0.0321248,0.070974,-0.000303348,-0.000162987,0.055486,0.03862071775482834,0.0735533131193522,-0.00030330199464745355,-0.00414907869008263,-0.0001629737183405089,-0.031614280000295314
72,0.060835,601.162,212.949,-0.401859,358.683,-0.928316,-0.579185,0.0385014,-0.00422886,-0.0326567,0.0721402,-0.000306665,-0.000164914,0.056441,0.039252183310022115,0.07480602130527925,-0.00030661798309516985,-0.004219930962534257,-0.00016490040243377635,-0.032129227402360905
73,0.061835,603.425,214.756,0.295546,359.66,-0.717778,-0.500943,0.0391081,-0.00429553,-0.0331871,0.0733039,-0.000306902,-0.000165711,0.0573938,0.03988288891483549,0.07605750110456411,-0.0003068549103986129,-0.0042863174067203635,-0.00016569727069060125,-0.03264244994149745
74,0.062835,604.177,214.033,-0.440736,360.58,-0.908314,-0.558825,0.0397151,-0.00437108,-0.0337195,0.0744701,-0.00031293,-0.00016845,0.0583492,0.04051428943907931,0.07731313137805751,-0.000312881042514479,-0.0043615407338433165,-0.00016843581309533562,-0.03315733402684318
75,0.063835,605.722,214.699,-0.395068,361.512,-0.871874,-0.544513,0.0403209,-0.00444196,-0.0342498,0.0756335,-0.000315944,-0.000170215,0.059302,0.0411448239652461,0.0785672068293437,-0.0003158940949502531,-0.004432109086864089,-0.00017020051424876392,-0.033669914769812403
76,0.064835,607.905,216.459,0.281798,362.447,-0.663296,-0.469858,0.0409256,-0.0045085,-0.0347786,0.0767944,-0.00031596,-0.000170923,0.0602525,0.041774594632268736,0.07982004256755326,-0.00031591008989584335,-0.004498351970400272,-0.00017090839349620524,-0.034180775035523636
77,0.065835,608.631,215.759,-0.418809,363.33,-0.848667,-0.523373,0.0415306,-0.00458371,-0.0353093,0.0779577,-0.000321651,-0.000173453,0.0612055,0.04240505895824942,0.08107692814882883,-0.00032159927586294934,-0.0045732208338696845,-0.0001734379578981482,-0.03469319931440318
78,0.066835,610.122,216.409,-0.370446,364.224,-0.811209,-0.509918,0.0421345,-0.00465435,-0.0358379,0.0791183,-0.00032438,-0.00017508,0.062156,0.04303475749168917,0.08233235441457953,-0.0003243273944960601,-0.004643535298013868,-0.0001750646743912121,-0.035203325650976613
79,0.067835,612.204,218.077,0.263534,365.121,-0.613466,-0.439737,0.0427372,-0.00472094,-0.0363653,0.0802765,-0.000324311,-0.000175716,0.0631043,0.04366358401786807,0.08358663796285448,-0.0003242584168722251,-0.004709813878228553,-0.00017570056284788027,-0.035712025261149805
80,0.068835,612.93,217.445,-0.382334,365.97,-0.78568,-0.488274,0.0433402,-0.00479565,-0.0368942,0.0814369,-0.000329559,-0.000178035,0.0640549,0.044293102939910955,0.0848447617197754,-0.0003295047013978092,-0.004784169230454993,-0.000178019152709874,-0.03622190232211453
81,0.069835,614.365,218.071,-0.336731,366.828,-0.749063,-0.476307,0.0439422,-0.00486606,-0.0374213,0.0825946,-0.000332025,-0.000179538,0.0650031,0.04492195665385701,0.0861014137731051,-0.00033196988579964337,-0.00485423991023215,-0.0001795218840178192,-0.03672977589556159
82,0.070835,616.339,219.622,0.243756,367.69,-0.567285,-0.410666,0.044543,-0.00493282,-0.0379472,0.0837501,-0.000331954,-0.000180109,0.0659492,0.04554993439103727,0.08735712930665218,-0.00033189890936691224,-0.004920673623593719,-0.00018009278134778484,-0.03723622652355296
83,0.071835,617.08,219.08,-0.339727,368.508,-0.722277,-0.454301,0.0451441,-0.00500693,-0.0384744,0.0849075,-0.000336711,-0.000182224,0.0668974,0.04617860338413626,0.08861636502725312,-0.0003366543192131477,-0.004994416219905817,-0.0001822073982153949,-0.03774366181323441
84,0.072835,618.46,219.678,-0.300171,369.333,-0.687768,-0.444099,0.0457441,-0.00507716,-0.039,0.0860624,-0.000338941,-0.000183615,0.0678432,0.04680649889598354,0.08987433434178116,-0.0003388835659883238,-0.005064293008302578,-0.00018359814379753647,-0.038249290853633267
85,0.073835,620.326,221.104,0.224676,370.162,-0.523907,-0.382686,0.0463431,-0.00514411,-0.0395243,0.0872151,-0.000338907,-0.000184124,0.0687872,0.04743372382393396,0.0911313568327039,-0.0003388495775098477,-0.005130901724133996,-0.00018410705021665308,-0.03875340458547594
86,0.074835,621.085,220.659,-0.296987,370.951,-0.660681,-0.421903,0.0469422,-0.00521763,-0.0400499,0.0883695,-0.000343173,-0.00018605,0.0697328,0.048061429378301046,0.09239168619317484,-0.00034311412288123844,-0.005204041811576743,-0.00018603269377204246,-0.03925850304452272
87,0.075835,623.225,222.605,0.513633,371.768,-0.409952,-0.335382,0.0475397,-0.0052824,-0.0405728,0.0895196,-0.000341601,-0.000186058,0.0706745,0.048687833201860986,0.09364876861814908,-0.0003415426610214878,-0.0052684726591730735,-0.00018604069228378428,-0.039760743451082714
88,0.076835,624.309,222.805,0.30501,372.539,-0.432895,-0.367792,0.0481371,-0.00535278,-0.0410975,0.0906711,-0.000343557,-0.000187683,0.0716178,0.04931450648208702,0.09490883051661902,-0.0003434979910517111,-0.005338479400501139,-0.0001876653886475621,-0.04026444883033142
89,0.077835,625.24,222.57,0.0324973,373.315,-0.556595,-0.350759,0.0487343,-0.00542548,-0.0416208,0.0918223,-0.000347239,-0.000188629,0.0725606,0.049941344260488796,0.09617001536102299,-0.00034717871951583934,-0.005410788664575228,-0.0001886112106687099,-0.04076654705879901
90,0.078835,626.744,223.635,0.232246,374.079,-0.424233,-0.350917,0.0493302,-0.00549277,-0.0421437,0.0929707,-0.000347196,-0.000189777,0.0735013,0.05056719075997851,0.097429580110314,-0.00034713573444367096,-0.005477712320934303,-0.00018975899348427916,-0.04126799911527601
91,0.079835,627.517,223.13,-0.158266,374.833,-0.593014,-0.348243,0.0499264,-0.00556652,-0.042666,0.0941204,-0.000351569,-0.000190891,0.0744428,0.05119372567060765,0.09869202047335057,-0.0003515072068608349,-0.0055510556350826246,-0.00019087278147233988,-0.041768614092356326
92,0.080835,629.376,224.884,0.393881,375.588,-0.340126,-0.32503,0.0505207,-0.00563111,-0.0431873,0.0952659,-0.000349685,-0.00019164,0.0753811,0.05181863577541845,0.09995129329361241,-0.0003496238673262875,-0.005615285018088945,-0.0001916216382281677,-0.042268009934994244
93,0.081835,630.413,225.037,0.221689,376.319,-0.374826,-0.343436,0.0511151,-0.00570142,-0.0437091,0.0964126,-0.000351545,-0.000192986,0.0763204,0.05244402261908032,0.10121333089259954,-0.0003514832152967662,-0.005685197749588422,-0.0001929673793997777,-0.04276762412673152
94,0.082835,631.378,224.904,0.0577561,377.057,-0.485446,-0.309138,0.0517093,-0.00577351,-0.0442296,0.0975588,-0.000354765,-0.00019355,0.0772591,0.05306957068924678,0.10247626526188802,-0.00035470207833843137,-0.00575687532003355,-0.00019353127040711016,-0.04326573393405053
95,0.083835,632.724,225.794,0.164742,377.776,-0.37603,-0.320774,0.0523022,-0.00584105,-0.04475,0.0987027,-0.000354807,-0.000194719,0.078196,0.053694120767283415,0.10373810943590223,-0.00035474406344004894,-0.0058240242330301895,-0.00019470004348598469,-0.04376348891903081
96,0.084835,633.58,225.493,-0.0778847,378.495,-0.511961,-0.300361,0.0528953,-0.00591378,-0.0452695,0.0998472,-0.000358432,-0.000195423,0.0791333,0.05431925211468647,0.10500206086038544,-0.00035836777092479455,-0.005896328022388486,-0.00019540390616934467,-0.0442601247742046
97,0.085835,635.175,226.894,0.275034,379.203,-0.309922,-0.300047,0.0534867,-0.00597926,-0.0457886,0.100988,-0.000357056,-0.000196358,0.0800681,0.05494296093290596,0.10626336652337387,-0.00035699226309249266,-0.0059614197997015506,-0.00019633872302970978,-0.04475612059658085
98,0.086835,635.684,225.978,-0.260728,379.902,-0.552197,-0.298419,0.0540789,-0.00605422,-0.0463073,0.102132,-0.000362158,-0.000197292,0.0810046,0.05556788317558303,0.10752965599415076,-0.00036209242870743896,-0.0060359301389909525,-0.0001972725392132002,-0.0452514771150081
99,0.087835,636.835,226.512,-0.265789,380.594,-0.508393,-0.307846,0.0546697,-0.00612356,-0.0468252,0.103272,-0.000363493,-0.000198383,0.0819387,0.05619169693740367,0.10879295974830816,-0.00036342694442326184,-0.006104849218143027,-0.00019836332339384644,-0.04574581335559147
100,0.088835,638.482,227.903,0.213671,381.291,-0.326833,-0.266401,0.0552595,-0.00618944,-0.047342,0.104411,-0.000362422,-0.000198678,0.0828709,0.056814822541934484,0.11005659443280269,-0.0003623563330802382,-0.006170324873884803,-0.0001986582648331181,-0.046238844509025934
101,0.089835,639.077,227.381,-0.265227,381.961,-0.473948,-0.296091,0.0558496,-0.00626231,-0.0478597,0.105551,-0.000366025,-0.000199985,0.0838047,0.057438633005892026,0.1113227805394088,-0.000365958021021906,-0.006242742603739138,-0.00019996500433283604,-0.046732478870943894
102,0.090835,640.958,229.206,0.455611,382.65,-0.221335,-0.231307,0.056438,-0.00632633,-0.0483752,0.106687,-0.000363667,-0.000199854,0.0847348,0.05806101298378574,0.11258596056851422,-0.00036360088117182165,-0.006306360906914055,-0.00019983403051970772,-0.04722376163907305
103,0.091835,641.853,229.304,0.248019,383.305,-0.254945,-0.261601,0.0570265,-0.00639614,-0.048892,0.107824,-0.000365036,-0.000201033,0.0856663,0.05868386514619939,0.11385169023663888,-0.000364969382465552,-0.006375728238564249,-0.00020101279422046758,-0.047716029186167463
104,0.092835,642.683,229.117,0.0571799,383.968,-0.364534,-0.236993,0.0576148,-0.0064677,-0.0494075,0.108961,-0.000367752,-0.00020144,0.0865972,0.05930687210359298,0.11511885985785453,-0.00036768438752166066,-0.006446829447419922,-0.00020141971232545686,-0.04820680506477104
105,0.093835,643.918,229.953,0.167168,384.617,-0.259973,-0.247192,0.0582017,-0.00653482,-0.0499228,0.110095,-0.000367392,-0.000202308,0.0875263,0.059928761782505946,0.11638412191292913,-0.00036732451982335323,-0.006513514498252104,-0.00020228753711648562,-0.048697137753053954
106,0.094835,644.669,229.631,-0.0766341,385.266,-0.391911,-0.232167,0.0587889,-0.00660693,-0.0504372,0.11123,-0.000370481,-0.000202818,0.0884557,0.060551334720950534,0.11765193724039613,-0.00037041238038870716,-0.006585152225792257,-0.00020279743381990123,-0.0491863621061025
107,0.095835,646.137,230.938,0.261076,385.905,-0.20221,-0.230314,0.0593745,-0.00667217,-0.0509512,0.112362,-0.000368835,-0.000203467,0.0893826,0.06117257546409949,0.11891783559664248,-0.0003687669887333378,-0.0066499604963923264,-0.00020344630199375935,-0.049674954736916854
108,0.096835,646.586,230.074,-0.235928,386.538,-0.429035,-0.230747,0.0599608,-0.00674624,-0.0514649,0.113495,-0.000373246,-0.000204169,0.0903111,0.06179492336855463,0.12018628794693842,-0.0003731763523772136,-0.006723535208945197,-0.000204148158928108,-0.05016301134459611
109,0.097835,647.645,230.579,-0.230853,387.164,-0.386095,-0.239635,0.0605458,-0.00681503,-0.0519777,0.114626,-0.000374101,-0.000204993,0.0912374,0.06241625512054316,0.12145393535809035,-0.0003740310329460872,-0.006791860346888168,-0.00020497199037061709,-0.050649962887332145
110,0.098835,649.122,231.804,0.184105,387.796,-0.227363,-0.203046,0.0611299,-0.00688088,-0.0524896,0.115755,-0.000372925,-0.00020511,0.0921619,0.06303699372421989,0.12272077184574348,-0.00037285547211529657,-0.0068572609495458625,-0.00020508896638204988,-0.05113581080794549
111,0.099835,649.706,231.396,-0.212249,388.405,-0.351331,-0.227304,0.0617141,-0.00695271,-0.0530021,0.116886,-0.000375752,-0.000206088,0.0930876,0.06365820137304024,0.12399128737980258,-0.00037568141405841526,-0.006928595830468898,-0.0002060667653268622,-0.05162197911363686
112,0.1008,651.349,232.937,0.374137,389.029,-0.140482,-0.175047,0.0622969,-0.00701716,-0.0535129,0.118012,-0.000373604,-0.000205905,0.0940102,0.06427828204675756,0.12525761437769667,-0.00037353421871599846,-0.006992597220000674,-0.0002058838030203347,-0.05210628690396568
113,0.1018,651.518,231.785,-0.385286,389.619,-0.392885,-0.227917,0.0628803,-0.00709163,-0.0540248,0.119142,-0.000378193,-0.00020725,0.0949353,0.06489936314824529,0.12652987417334893,-0.00037812149404203854,-0.007066543727853314,-0.0002072285252022743,-0.05259138952309106
114,0.1028,652.602,232.345,-0.300558,390.222,-0.345225,-0.219496,0.0634625,-0.00716005,-0.0545349,0.120268,-0.000378824,-0.00020778,0.0958574,0.06551952806996142,0.12779906122988338,-0.0003787522552483047,-0.007134477910876513,-0.00020775841523079652,-0.05307453941743834
115,0.1038,654.1,233.653,0.178674,390.828,-0.172423,-0.175002,0.0640437,-0.00722535,-0.0550442,0.121392,-0.000377262,-0.000207693,0.0967779,0.0661389880172989,0.1290674200588331,-0.00037719084563991867,-0.00719930991268114,-0.00020767143330202575,-0.05355668576552364
116,0.1048,654.618,233.175,-0.236276,391.41,-0.307753,-0.199866,0.0646251,-0.00729717,-0.0555542,0.122518,-0.000380063,-0.000208579,0.0976998,0.06675902145118573,0.1303394660012851,-0.00037999078520700724,-0.007270610297815727,-0.00020855724891266636,-0.05403924879175204
117,0.1058,656.263,234.782,0.388682,392.007,-0.0826102,-0.145031,0.065205,-0.00736106,-0.0560624,0.123639,-0.000377522,-0.000208254,0.0986183,0.06737781440940283,0.13160728702358937,-0.00037745074753647856,-0.007334033752439906,-0.0002082323166410216,-0.05451986391087038
118,0.1068,656.349,233.527,-0.405713,392.572,-0.352709,-0.19998,0.0657857,-0.00743564,-0.056572,0.124764,-0.000382175,-0.000209524,0.0995395,0.06799782070763616,0.1328810615853384,-0.00038210198043708843,-0.007408064019579719,-0.00020950205137970634,-0.0550015578421833
119,0.1078,657.409,234.103,-0.304129,393.149,-0.300546,-0.190278,0.066365,-0.00750374,-0.0570796,0.125886,-0.000382576,-0.000209932,0.100458,0.06861669108366941,0.1341528674861261,-0.00038250282713381267,-0.007475657228845023,-0.0002099099658195991,-0.05548111732892802
120,0.1088,658.866,235.401,0.16929,393.729,-0.125748,-0.148491,0.0669435,-0.00756877,-0.0575864,0.127005,-0.000380816,-0.000209784,0.101374,0.06923506468678053,0.1354226948807682,-0.0003807434987905811,-0.007540198988257418,-0.00020976199687527952,-0.0559596782210926
121,0.1098,659.36,234.926,-0.227414,394.287,-0.260429,-0.170784,0.0675221,-0.00764031,-0.0580939,0.128126,-0.000383429,-0.000210534,0.102292,0.06985390310789907,0.13669621739773685,-0.00038335550049517497,-0.0076111970227917825,-0.0002105118392726757,-0.056438657133216164
122,0.1108,660.943,236.488,0.370639,394.858,-0.0391632,-0.120697,0.0680992,-0.00770407,-0.0585998,0.129243,-0.000380778,-0.000210181,0.103207,0.07047149398408936,0.13796661645835684,-0.0003807055132580839,-0.007674469715714727,-0.00021015891352105243,-0.05691588409183501
123,0.1118,661.031,235.274,-0.380929,395.401,-0.303139,-0.17017,0.0686771,-0.00777824,-0.0591068,0.130363,-0.000385168,-0.000211277,0.104124,0.07109029824673274,0.13924185306798686,-0.00038509383232854244,-0.007748067770878331,-0.00021125468258642588,-0.057393906549667806
124,0.1128,662.054,235.837,-0.281685,395.954,-0.250905,-0.162111,0.0692537,-0.00784608,-0.059612,0.13148,-0.000385381,-0.000211605,0.105039,0.07170806699831722,0.1405150971923228,-0.00038530675028092265,-0.007815379858708948,-0.00021158261324105698,-0.057869990879051536
125,0.1138,663.438,237.059,0.156739,396.509,-0.0866543,-0.123937,0.0698294,-0.00791109,-0.0601164,0.132594,-0.000383611,-0.000211415,0.105951,0.07232522696493904,0.14178633896079296,-0.00038353743070795865,-0.007879879684274727,-0.00021139265342373648,-0.058345081427743084
126,0.1148,663.935,236.639,-0.20304,397.046,-0.210854,-0.143624,0.0704052,-0.00798215,-0.0606215,0.13371,-0.000385909,-0.000212036,0.106865,0.07294284962712583,0.1430612838019707,-0.0003858345466996038,-0.007950377235216743,-0.00021201352195610035,-0.05882059122700445
127,0.1158,665.421,238.079,0.336293,397.593,-0.00797173,-0.0993105,0.0709796,-0.00804607,-0.061125,0.134823,-0.000383378,-0.000211682,0.107776,0.07355932503473883,0.14433421926802303,-0.0003833045200450913,-0.008013787020505592,-0.00021165959694624537,-0.05929435577908693
128,0.1168,665.561,237.003,-0.33355,398.115,-0.247955,-0.142052,0.0715547,-0.00811947,-0.0616295,0.135938,-0.000387262,-0.000212595,0.108689,0.07417690657111553,0.145610863519414,-0.0003871870237505126,-0.00808659613641094,-0.0002125724032843168,-0.05976882208240797
129,0.1178,666.537,237.533,-0.246701,398.646,-0.199549,-0.136417,0.0721286,-0.0081871,-0.0621323,0.13705,-0.000387336,-0.000212863,0.1096,0.07479355362774465,0.1468854913613833,-0.00038726099509589496,-0.008153676971550228,-0.0002128403462789974,-0.06024145148967486
130,0.1188,667.834,238.642,0.143465,399.179,-0.0535762,-0.101369,0.0727016,-0.00825225,-0.0626345,0.13816,-0.000385676,-0.000212635,0.110509,0.07540958681062526,0.14815924105709333,-0.00038560163657186397,-0.008218293654584263,-0.00021261239478065352,-0.06071327974674501
131,0.1198,668.347,238.302,-0.172184,399.695,-0.162019,-0.118977,0.0732747,-0.00832273,-0.0631371,0.139271,-0.0003876,-0.000213144,0.111419,0.0760260806842723,0.14943555483492954,-0.0003875248928241204,-0.008288191966002056,-0.0002131212864313614,-0.06118524663712954
132,0.1208,669.723,239.584,0.295923,400.22,0.0148645,-0.0800687,0.0738465,-0.00838698,-0.0636383,0.140379,-0.000385315,-0.000212793,0.112326,0.07664152833692262,0.15070983525067128,-0.0003852407757088949,-0.008351907402787906,-0.00021277036117539616,-0.061655662695403346
133,0.1218,669.935,238.689,-0.278155,400.724,-0.192266,-0.116489,0.0744188,-0.00845942,-0.0641403,0.14149,-0.000388585,-0.000213537,0.113235,0.07725786663197076,0.15198898431336572,-0.0003885095106271885,-0.008423739788815277,-0.00021351420259752008,-0.06212659333924897
134,0.1228,671.605,240.557,0.462025,401.244,0.0909238,-0.0615151,0.0749892,-0.0085213,-0.0646403,0.142595,-0.000384699,-0.000212914,0.11414,0.07787250979866389,0.1532626357038287,-0.00038462501282765515,-0.008485096629396893,-0.0002128913354229045,-0.06259541282794012
135,0.1238,672.199,240.448,0.215322,401.738,0.0306949,-0.0960526,0.0755599,-0.00859007,-0.0651415,0.143702,-0.000385357,-0.000213552,0.115047,0.07848782720412695,0.1545400043346441,-0.00038528275952798285,-0.00855328076476336,-0.00021352919939476855,-0.06306512228800742
136,0.1248,672.833,240.237,0.0812845,402.247,-0.0749026,-0.0678072,0.0761304,-0.00865992,-0.0656412,0.144808,-0.00038694,-0.000213314,0.115952,0.07910328005077893,0.15581763197728793,-0.00038686514837282804,-0.008622530899512815,-0.00021329125018632045,-0.06353319168952043
137,0.1258,673.74,240.828,0.111143,402.737,0.000585702,-0.0880258,0.0766997,-0.00872615,-0.0661411,0.145913,-0.000385984,-0.000213737,0.116857,0.07971778845133093,0.1570955163617178,-0.00038590951775918647,-0.008688187655043866,-0.00021371415987470055,-0.06400121445495799
138,0.1268,674.376,240.629,-0.0117464,403.238,-0.101314,-0.0657165,0.0772691,-0.00879601,-0.0666397,0.147017,-0.000387608,-0.000213567,0.117761,0.0803327548243864,0.15837365521461,-0.0003875328897239294,-0.008757438279301755,-0.00021354419619168397,-0.06446778712319867
139,0.1278,675.422,241.511,0.14897,403.722,0.0287468,-0.0810175,0.0778373,-0.00886106,-0.0671385,0.148119,-0.000385867,-0.0002139,0.118664,0.08094677432209729,0.15965088660789784,-0.00038579256290371955,-0.008821916510764471,-0.000213877125025963,-0.06493431422944862
140,0.1288,675.912,241.043,-0.088497,404.215,-0.122203,-0.0635543,0.0784058,-0.00893189,-0.0676363,0.149222,-0.000388178,-0.000213789,0.119567,0.08156146727321545,0.16093068721611048,-0.0003881026686678446,-0.008892119168161572,-0.00021376614876023048,-0.06539967409014602
141,0.1298,677.135,242.292,0.235199,404.693,0.075835,-0.0700813,0.0789727,-0.0089954,-0.068134,0.150322,-0.00038542,-0.00021397,0.120467,0.0821747782955966,0.16220841359271776,-0.00038534573525317306,-0.008955062430888727,-0.0002139471100521817,-0.0658647089388299
142,0.1308,677.384,241.365,-0.201978,405.177,-0.158925,-0.0629642,0.0795404,-0.00906793,-0.068631,0.151423,-0.000388912,-0.000213993,0.121369,0.08278930333366286,0.16348870972977547,-0.0003888363835311548,-0.009026940313527687,-0.0002139701051311338,-0.0663288588276858
143,0.1318,678.235,241.84,-0.170605,405.651,-0.10897,-0.0740393,0.0801068,-0.0091349,-0.0691275,0.152522,-0.00038864,-0.00021426,0.122269,0.0834027689121224,0.16476808671065002,-0.0003885644892577256,-0.00909330355713689,-0.00021423704796541543,-0.06679231148763454
144,0.1328,679.356,242.775,0.124618,406.129,0.015323,-0.0519689,0.0806724,-0.00919993,-0.0696233,0.15362,-0.000387011,-0.00021403,0.123167,0.08401571484298809,0.1660477044514388,-0.0003869361209029032,-0.009157740124428937,-0.00021400709721353106,-0.06725488117909673
145,0.1338,679.865,242.542,-0.119405,406.596,-0.0713832,-0.0648863,0.081238,-0.0092693,-0.0701193,0.154718,-0.00038834,-0.000214299,0.124066,0.08462900755413227,0.16732872798414533,-0.00038826460578200717,-0.009226472467987579,-0.00021427603960944008,-0.06771740804188753
146,0.1348,681.035,243.575,0.228521,407.067,0.068623,-0.0385413,0.0818026,-0.00933376,-0.0706141,0.155813,-0.000386334,-0.00021397,0.124963,0.08524156199964517,0.16860765302495917,-0.0003862593826295946,-0.009290335671239158,-0.0002139471100521817,-0.06817858736321525
147,0.1358,681.334,242.943,-0.188268,407.526,-0.0911798,-0.0618411,0.0823674,-0.00940455,-0.0711093,0.15691,-0.000388652,-0.000214365,0.125861,0.08585467956196347,0.16989031903400265,-0.00038857648459478256,-0.00936046552610148,-0.0002143420254651085,-0.06863991109357004
148,0.1368,682.697,244.373,0.335589,407.992,0.122465,-0.0268105,0.0829307,-0.00946735,-0.0716031,0.158003,-0.000385538,-0.000213882,0.126756,0.08646651380989856,0.17116970821152377,-0.00038546368977543377,-0.009422675735445418,-0.0002138591288756153,-0.06909970317346459
149,0.1378,682.719,243.206,-0.313423,408.443,-0.135106,-0.0625427,0.0834947,-0.00954012,-0.0720976,0.159098,-0.000389236,-0.000214445,0.127653,0.0870794537565045,0.172452841429243,-0.00038916025749569094,-0.009494757424608036,-0.00021442200831445213,-0.06955991957236263
150,0.1388,683.594,243.733,-0.213685,408.898,-0.0800614,-0.0588788,0.0840575,-0.00960667,-0.0725906,0.160191,-0.000388795,-0.000214476,0.128547,0.08769143426824111,0.17373503297495763,-0.0003887194290181917,-0.00956067335512456,-0.00021445300166689218,-0.07001851347932697
151,0.1398,684.712,244.706,0.112925,409.355,0.0517186,-0.033121,0.0846195,-0.00967124,-0.0730831,0.161282,-0.000386948,-0.000214138,0.12944,0.08830288865688951,0.17501627668729158,-0.0003868731452779661,-0.009624623957778522,-0.0002141150740949671,-0.07047641659354098
152,0.1408,685.187,244.449,-0.126091,409.801,-0.0390642,-0.0440392,0.0851815,-0.00974038,-0.0735758,0.162373,-0.000388217,-0.000214316,0.130334,0.08891468677948433,0.17629891899931338,-0.0003881416535310711,-0.009693096144167357,-0.0002142930359666506,-0.07093428005915825
153,0.1418,686.329,245.49,0.225065,410.25,0.105081,-0.0188222,0.0857425,-0.00980446,-0.0740675,0.163462,-0.000386039,-0.000213937,0.131226,0.08952573930297447,0.17758060627415984,-0.0003859644965326092,-0.009756552977387756,-0.000213914117111913,-0.07139098938246446
154,0.1428,686.596,244.835,-0.186251,410.688,-0.0588575,-0.0402634,0.0863037,-0.00987501,-0.0745594,0.164552,-0.000388299,-0.000214241,0.132118,0.09013735275055268,0.17886486893099396,-0.00038822362170010116,-0.009826412188262634,-0.00021421805203580835,-0.07184765982748309
155,0.1438,687.918,246.252,0.326272,411.132,0.156321,-0.00853226,0.0868634,-0.00993749,-0.0750501,0.165639,-0.000385055,-0.000213741,0.133008,0.09074767340919077,0.18014699175103144,-0.0003849808758377149,-0.009888276301374122,-0.00021371815901982671,-0.07230299245580885
156,0.1448,687.924,245.088,-0.300804,411.564,-0.101692,-0.0404665,0.0874239,-0.0100099,-0.0755412,0.166728,-0.000388645,-0.000214187,0.1339,0.09135920884693305,0.18143287185968826,-0.0003885694873148049,-0.00995996769566887,-0.00021416406360208473,-0.07275847260390911
157,0.1458,688.769,245.611,-0.200223,411.998,-0.0452549,-0.037832,0.0879831,-0.0100762,-0.0760311,0.167814,-0.000388066,-0.000214164,0.134789,0.09196966758487557,0.18271660489939912,-0.00038799071212902714,-0.010025605173904162,-0.00021414106852757353,-0.07321261697643344
158,0.1468,689.833,246.535,0.103901,412.434,0.0802073,-0.0147755,0.0885415,-0.0101406,-0.0765205,0.168899,-0.000386205,-0.000213802,0.135677,0.09257959372278424,0.18400054882933947,-0.000386130432448728,-0.010089357472084948,-0.00021377914598119663,-0.07366607575127226
159,0.1478,690.3,246.31,-0.111527,412.861,-0.00392454,-0.0239989,0.0891,-0.0102093,-0.0770099,0.169984,-0.000387273,-0.000213895,0.136565,0.09318996985754824,0.18528588659446266,-0.000387198019491386,-0.010157361997244374,-0.00021387212609536022,-0.07411931265768223
160,0.1488,691.374,247.272,0.204106,413.289,0.128791,-0.00241637,0.0896574,-0.0102733,-0.0774985,0.171066,-0.000385163,-0.000213511,0.137451,0.09379948380250225,0.18656905999538087,-0.0003850888342540326,-0.010220709898922098,-0.00021348820814859337,-0.07457158746178538
161,0.1498,691.66,246.695,-0.160025,413.709,-0.0207781,-0.020105,0.090215,-0.0103432,-0.0779872,0.17215,-0.000387114,-0.000213704,0.138339,0.09440955646712257,0.18785599825093158,-0.0003870390810432056,-0.010289893053320731,-0.0002136811669267713,-0.07502373383602756
162,0.1508,692.883,247.978,0.288757,414.132,0.173062,0.00586736,0.0907713,-0.0104059,-0.0784748,0.173231,-0.000384088,-0.000213233,0.139223,0.09501854587808456,0.18914076487629128,-0.00038401424764689107,-0.010351945931648232,-0.00021321026745968474,-0.07547464232298617
163,0.1518,692.95,246.968,-0.253778,414.547,-0.0573141,-0.0194527,0.0913282,-0.0104774,-0.0789627,0.174313,-0.000387181,-0.00021353,0.140109,0.09562853154102702,0.1904281115128239,-0.00038710605510938745,-0.01042270323791028,-0.00021350720409207824,-0.0759256082229196
164,0.1528,694.414,248.757,0.404933,414.965,0.232678,0.0146791,0.0918831,-0.010538,-0.0794494,0.175391,-0.000382745,-0.000212919,0.140992,0.09623666452407087,0.1917120849543792,-0.00038267176247652746,-0.010482669805088718,-0.00021289633435839228,-0.07637524580121713
165,0.1538,694.855,248.554,0.16516,415.368,0.15897,-0.0155428,0.0924385,-0.0106057,-0.0799367,0.176471,-0.000383161,-0.000213245,0.141876,0.09684568347645528,0.19299982926288783,-0.00038308760319860635,-0.010549657860771666,-0.00021322226490105844,-0.07682521849918611
166,0.1548,695.405,248.396,0.0914832,415.788,0.0682088,0.0158849,0.0929935,-0.0106739,-0.0804226,0.177549,-0.000384077,-0.000212704,0.142759,0.09745460178998666,0.1942865765109909,-0.00038400325187104567,-0.010617136073072353,-0.00021268138010799298,-0.07727368016293268
167,0.1558,696.107,248.806,0.0685513,416.187,0.117985,-0.00778631,0.0935476,-0.0107394,-0.0809088,0.178626,-0.000383058,-0.000212914,0.143641,0.09806286988995261,0.19557351604643647,-0.00038298464265129617,-0.010681938528355972,-0.0002128913354229045,-0.0777222006554702
168,0.1568,696.691,248.733,0.0278036,416.6,0.0462061,0.0170836,0.0941016,-0.0108074,-0.0813937,0.179703,-0.000383804,-0.000212452,0.144522,0.09867136525752529,0.1968618423624091,-0.0003837303566666117,-0.010749209869284515,-0.00021242943367194567,-0.07816930475122386
169,0.1578,697.475,249.318,0.0811164,416.995,0.12956,-0.00444604,0.0946546,-0.0108721,-0.081879,0.180778,-0.000382323,-0.000212622,0.145402,0.09927909854527939,0.19814916065255828,-0.0003822499238750332,-0.010813212324904287,-0.00021259939754447732,-0.07861656065220568
170,0.1588,697.993,249.125,-0.00945094,417.403,0.0357996,0.0185442,0.0952077,-0.0109404,-0.082363,0.181853,-0.000383381,-0.000212182,0.146282,0.09988727799120611,0.19943786355396442,-0.00038330751889514847,-0.010880771475331175,-0.00021215949099151477,-0.07906240233445949
171,0.1598,698.854,249.881,0.117022,417.793,0.151578,0.00078057,0.0957597,-0.0110045,-0.0828474,0.182926,-0.000381419,-0.000212285,0.147161,0.10049458336952077,0.20072555110238155,-0.0003813462690205327,-0.010944171985871609,-0.00021226246913375046,-0.07950839647826624
172,0.1608,699.267,249.488,-0.0557863,418.197,0.0204632,0.0201989,0.0963119,-0.0110735,-0.0833306,0.184,-0.000383,-0.00021189,0.14804,0.10110244429341253,0.2020158230963014,-0.0003829266648627261,-0.011012414483611344,-0.00021186755289936965,-0.07995307057917322
173,0.1618,700.24,250.482,0.170272,418.582,0.181668,0.00653112,0.0968627,-0.0111364,-0.083814,0.185071,-0.000380367,-0.000211919,0.148916,0.10170909857698196,0.2033038716697284,-0.0003802946696436216,-0.011074619846361156,-0.0002118965467547973,-0.08039771378593363
174,0.1628,700.505,249.798,-0.120137,418.982,-0.0039731,0.0212387,0.0974141,-0.0112065,-0.0842964,0.186143,-0.000382717,-0.000211587,0.149794,0.10231674848762173,0.20459450507606602,-0.00038264377319097154,-0.011143941085772102,-0.000211564617049409,-0.08084122294579321
175,0.1638,701.637,251.134,0.245659,419.362,0.222534,0.0127615,0.0979638,-0.0112681,-0.0847788,0.187212,-0.000379127,-0.000211524,0.150669,0.10292285857836148,0.20588290512912644,-0.0003790551404405651,-0.011204852742902838,-0.00021150163037597647,-0.08128451820843019
176,0.1648,701.696,250.037,-0.210301,419.758,-0.0414231,0.0215156,0.0985145,-0.0113397,-0.0852605,0.188283,-0.00038259,-0.000211277,0.151546,0.10353040546926273,0.20717509756605312,-0.00038251682177870006,-0.011275647940948152,-0.00021125468258642588,-0.08172695688609866
177,0.1658,702.438,250.534,-0.146223,420.139,0.0208187,0.0111244,0.0990637,-0.011405,-0.0857417,0.189351,-0.000381718,-0.000211267,0.15242,0.10413663082219071,0.20846504928185738,-0.00038164515495331397,-0.011340209533178713,-0.000211244684698908,-0.08216872357685479
178,0.1668,703.354,251.323,0.0875043,420.523,0.130539,0.0242214,0.0996124,-0.0114689,-0.0862224,0.190417,-0.000379897,-0.000210914,0.153293,0.10474263683406804,0.20975395989169177,-0.0003798248482717037,-0.011403382875379675,-0.0002108917592059667,-0.0826098190456418
179,0.1678,703.802,251.176,-0.0744406,420.903,0.063885,0.0181251,0.100161,-0.0115364,-0.0867029,0.191485,-0.000380526,-0.000210842,0.154167,0.10534886491779427,0.21104666730373967,-0.0003804536091641664,-0.011470110894939656,-0.0002108197743875273,-0.08305051914091333
180,0.1688,704.707,251.949,0.155367,421.281,0.168652,0.0310865,0.100709,-0.0116002,-0.0871828,0.192549,-0.000378649,-0.000210469,0.155039,0.1059547620964334,0.2123359067114874,-0.0003785773215146948,-0.011533177090031543,-0.00021044685295379395,-0.0834904576250951
181,0.1698,705.034,251.554,-0.100517,421.657,0.0542173,0.0216481,0.101256,-0.0116686,-0.0876626,0.193615,-0.000379917,-0.000210434,0.155911,0.10655988483728152,0.21362894585545944,-0.00037984484067499213,-0.011600785908470579,-0.00021041186031878212,-0.08393009342646385
182,0.1708,706.026,252.525,0.205201,422.031,0.198118,0.035425,0.101803,-0.0117315,-0.0881416,0.194678,-0.000377452,-0.000210033,0.156781,0.10716533867081446,0.2149197193494714,-0.00037738077395554903,-0.01166295426382169,-0.00021001094461359227,-0.08436878583649254
183,0.1718,706.221,251.86,-0.152711,422.403,0.0316919,0.0236953,0.10235,-0.0118008,-0.0886206,0.195742,-0.000379451,-0.000210029,0.157652,0.10777112377818976,0.2162130818777066,-0.00037937901757423287,-0.01173144364790668,-0.0002100069454535891,-0.08480726816317574
184,0.1728,707.35,253.133,0.268455,422.771,0.235007,0.0395735,0.102895,-0.0118624,-0.0890988,0.196803,-0.000376117,-0.000209582,0.15852,0.10837502358839934,0.2175041687580519,-0.0003760462768681583,-0.01179231911599432,-0.00020956003922689703,-0.08524480870325912
185,0.1738,707.367,252.103,-0.226752,423.142,-0.00227606,0.0252317,0.103442,-0.0119332,-0.0895768,0.197866,-0.000379123,-0.000209616,0.159391,0.10898147057443164,0.2187990638042261,-0.00037905114195668776,-0.011862281743094671,-0.0002095940321011902,-0.0856819571978853
186,0.1748,708.689,253.8,0.354816,423.504,0.284178,0.0438915,0.103986,-0.011993,-0.0900541,0.198924,-0.000374581,-0.000209111,0.160257,0.109584920617954,0.2200892355942603,-0.000374510853295984,-0.011921370611871596,-0.00020908913781869654,-0.08611825706846765
187,0.1758,709.06,253.563,0.131257,423.861,0.205373,0.018513,0.104531,-0.0120599,-0.0905318,0.199985,-0.000374933,-0.00020928,0.161125,0.11018980921686183,0.2213844372562046,-0.0003748627214062994,-0.011987470861099636,-0.0002092581024684126,-0.08655471412099913
188,0.1768,709.57,253.449,0.0927493,424.233,0.126809,0.050926,0.105075,-0.012127,-0.0910081,0.201044,-0.000375516,-0.000208628,0.161992,0.11079391677543371,0.22267856849680556,-0.0003754455026914183,-0.012053764277635937,-0.0002086062386921217,-0.08698968451424105
189,0.1778,710.165,253.76,0.04698,424.585,0.161505,0.0274034,0.105618,-0.0121919,-0.0914848,0.202101,-0.00037456,-0.000208736,0.162858,0.11139724166012477,0.2239716230026243,-0.00037448986116050964,-0.012117879907759588,-0.00020871421615686891,-0.08742481281056369
190,0.1788,710.718,253.758,0.0436285,424.951,0.10809,0.0518402,0.106162,-0.0122586,-0.0919602,0.203159,-0.000374883,-0.000208181,0.163723,0.1120020062406395,0.2252672702562999,-0.0003748127401481671,-0.012183769447729142,-0.00020815933183926383,-0.08785854794754255
191,0.1798,711.369,254.191,0.0515208,425.299,0.166228,0.0298694,0.106704,-0.012323,-0.0924359,0.204214,-0.000373615,-0.00020826,0.164587,0.11260487469061342,0.2265606093428285,-0.000373545214607085,-0.012247382764605907,-0.00020823831539151794,-0.08829235044817874
192,0.1808,711.885,254.129,0.0208062,425.662,0.102453,0.0525867,0.107247,-0.0123898,-0.0929105,0.20527,-0.000374088,-0.000207727,0.165451,0.11320918319248041,0.22785654147803358,-0.00037401803780845455,-0.0123133624356917,-0.00020770542624060084,-0.08872494423603017
193,0.1818,712.579,254.656,0.0705432,426.006,0.178287,0.0334484,0.107788,-0.0124537,-0.0933854,0.206324,-0.000372558,-0.000207758,0.166314,0.11381159229755755,0.2291513845351707,-0.0003724886088859458,-0.012376473595409054,-0.00020773641980120772,-0.08915760601634126
194,0.1828,713.038,254.49,-0.00361018,426.365,0.0953402,0.0538312,0.10833,-0.0125209,-0.0938592,0.207378,-0.000373297,-0.000207254,0.167177,0.11441544180901797,0.23044759307637364,-0.00037322733334399505,-0.012442839666458427,-0.0002072325243733797,-0.089589060922872
195,0.1838,713.787,255.136,0.0967456,426.706,0.194139,0.0370504,0.10887,-0.0125843,-0.0943331,0.20843,-0.000371427,-0.000207242,0.168038,0.11501738865861699,0.23174270505374794,-0.00037135802953125463,-0.012505448805692931,-0.00020722052686017456,-0.09002040245245269
196,0.1848,714.171,254.827,-0.0342498,427.061,0.0844142,0.0550472,0.109411,-0.0126518,-0.0948061,0.209482,-0.000372542,-0.00020677,0.168899,0.11562077626751277,0.2330391802058267,-0.00037247261484563143,-0.012572102438313082,-0.00020674862455682952,-0.09045072102372764
197,0.1858,714.992,255.635,0.130802,427.398,0.214403,0.0405387,0.109951,-0.0127145,-0.0952792,0.210532,-0.000370214,-0.000206714,0.169759,0.11622337417348882,0.2343345512958528,-0.0003701454792531811,-0.012634012226598101,-0.00020669263613315447,-0.09088092701436001
198,0.1868,715.281,255.136,-0.0736274,427.75,0.0682684,0.0562494,0.11049,-0.0127828,-0.0957514,0.211583,-0.000371843,-0.000206274,0.170619,0.11682518074446935,0.23563251887174785,-0.000371773874959791,-0.012701447020638579,-0.00020625272698115982,-0.09131011170214431
199,0.1878,716.2,256.159,0.174895,428.083,0.240444,0.0438792,0.111029,-0.0128445,-0.0962237,0.212631,-0.000368899,-0.000206176,0.171477,0.11742731177662624,0.2369281405386967,-0.00036883096513018465,-0.012762361462127614,-0.00020615474718910232,-0.09173918460284591
200,0.1888,716.365,255.406,-0.124446,428.433,0.0452984,0.0574717,0.111568,-0.0129137,-0.096695,0.213681,-0.000371223,-0.000205767,0.172336,0.11802976744489091,0.23822759718161235,-0.0003711541052675571,-0.012830675943006131,-0.0002057458314228544,-0.092167147067866
201,0.1898,717.413,256.716,0.231975,428.76,0.274087,0.0470267,0.112105,-0.0129742,-0.0971664,0.214727,-0.000367457,-0.000205627,0.173192,0.11863031066143082,0.23952346086681953,-0.00036738949594505854,-0.012890397880504723,-0.00020560586021745042,-0.09259499862220388
202,0.1908,717.417,255.629,-0.190076,429.109,0.0134728,0.0587719,0.112644,-0.0130446,-0.0976369,0.215775,-0.000370712,-0.000205249,0.17405,0.11923341492087403,0.24082316237844448,-0.0003706432947967464,-0.012959887950414806,-0.0002052279378650379,-0.09302183225486593
203,0.1918,718.636,257.319,0.30578,429.431,0.317677,0.049918,0.11318,-0.0131035,-0.0981075,0.216819,-0.000365854,-0.00020507,0.174905,0.11983348483564238,0.24211925820426683,-0.0003657870835861443,-0.013018022900923354,-0.00020504897458484272,-0.09344855576468969
204,0.1928,718.971,257.049,0.107232,429.761,0.230289,0.0337764,0.113717,-0.0131699,-0.0985779,0.217864,-0.000366254,-0.000205085,0.17576,0.12043499690853587,0.24341795127803767,-0.00036618693719137063,-0.013083556328468915,-0.0002050639715089897,-0.09387489728067178
205,0.1938,719.45,256.944,0.0892162,430.104,0.154678,0.0687633,0.114253,-0.0132363,-0.0990471,0.218909,-0.000366724,-0.000204357,0.176615,0.12103571104388533,0.24471800219542028,-0.0003666567649730501,-0.013149085404739247,-0.00020433612053061267,-0.0942999514533609
206,0.1948,719.986,257.208,0.0368155,430.426,0.182461,0.0461636,0.114789,-0.0133007,-0.0995166,0.219952,-0.0003658,-0.000204405,0.177469,0.12163674724831797,0.24601692033976996,-0.0003657331033372069,-0.013212636557270119,-0.0002043841107213229,-0.09472507781992967
207,0.1958,720.508,257.228,0.0478986,430.763,0.136548,0.0701887,0.115324,-0.0133665,-0.099985,0.220994,-0.000365948,-0.000203809,0.178322,0.12223698345696477,0.24731594664593337,-0.0003658810491977693,-0.013277565029614524,-0.00020378823235667198,-0.09514900930097514
208,0.1968,721.091,257.593,0.0397303,431.082,0.18413,0.0486535,0.115859,-0.0134304,-0.100454,0.222036,-0.000364767,-0.000203834,0.179174,0.12283754087789966,0.24861632724297045,-0.00036470048060610605,-0.013340614578754573,-0.00020381322726159556,-0.09557328491520445
209,0.1978,721.586,257.577,0.0302913,431.416,0.132666,0.070451,0.116393,-0.0134963,-0.100921,0.223077,-0.000364998,-0.000203267,0.180026,0.12343729624515953,0.2499168136253498,-0.00036493139633364535,-0.013405633289863772,-0.00020324634266299935,-0.09599555358374057
210,0.1988,722.199,258.008,0.0531371,431.732,0.192221,0.0516729,0.116927,-0.0135599,-0.101389,0.224116,-0.000363641,-0.000203248,0.180877,0.12403737196731268,0.2512161520841474,-0.00036357489062510684,-0.013468378696261496,-0.00020322734652455932,-0.09641852868077061
211,0.1998,722.655,257.923,0.0133342,432.062,0.128548,0.0712248,0.117461,-0.013626,-0.101856,0.225155,-0.000364041,-0.00020271,0.181728,0.12463776821547445,0.2525168412571779,-0.0003639747451151809,-0.013533586281295196,-0.00020268945571610963,-0.09684040271262306
212,0.2008,723.303,258.431,0.0703233,432.375,0.202697,0.0545349,0.117994,-0.0136892,-0.102323,0.226193,-0.000362467,-0.000202654,0.182577,0.1252373599229284,0.2538176287303078,-0.00036240131677323095,-0.013595928988591965,-0.00020263346706517193,-0.09726207977529855
213,0.2018,723.709,258.256,-0.00620257,432.703,0.122359,0.0721343,0.118526,-0.0137555,-0.102789,0.227231,-0.0003631,-0.000202142,0.183426,0.125836145461238,0.2551197671218399,-0.00036303408717286434,-0.013661325410584624,-0.0002021215706824453,-0.09768265764386896
214,0.2028,724.401,258.862,0.0910565,433.012,0.215572,0.057144,0.119058,-0.0138183,-0.103255,0.228267,-0.000361245,-0.000202055,0.184274,0.1264352496382044,0.25642074499075296,-0.0003611797588812804,-0.013723265534408613,-0.00020203458826328902,-0.09810303956881106
215,0.2038,724.749,258.572,-0.0295275,433.337,0.113387,0.0732065,0.11959,-0.013885,-0.10372,0.229303,-0.000362185,-0.000201564,0.185122,0.1270346726233884,0.2577230713711467,-0.0003621194189306065,-0.013789047998727932,-0.0002015436873417098,-0.09852232416418816
216,0.2048,725.496,259.303,0.116113,433.643,0.231396,0.0594682,0.120121,-0.0139472,-0.104185,0.230337,-0.000359967,-0.00020145,0.185969,0.12763328695259046,0.2590242296098253,-0.00035990221965265246,-0.013850388412235737,-0.00020142971031122947,-0.09894141383755128
217,0.2058,725.771,258.869,-0.0576868,433.966,0.100954,0.074474,0.120652,-0.0140144,-0.10465,0.231372,-0.000361305,-0.000200975,0.186816,0.12823221923040906,0.2603279942692973,-0.0003612397372086962,-0.013916655439537351,-0.00020095480587756231,-0.09936030867951806
218,0.2068,726.588,259.76,0.146569,434.268,0.250906,0.0614655,0.121182,-0.0140758,-0.105114,0.232404,-0.000358623,-0.000200842,0.18766,0.1288303407948146,0.26162932413009576,-0.00035855870245837806,-0.013977199098184068,-0.00020082183259573227,-0.09977810855922276
219,0.2078,726.776,259.142,-0.0918873,434.59,0.0842557,0.075986,0.121712,-0.0141436,-0.105578,0.233437,-0.000360474,-0.000200376,0.188506,0.1294287794476705,0.2629332605891519,-0.0003604090370536994,-0.014044049177841855,-0.0002003559260701504,-0.10019571462475174
220,0.2088,727.681,260.235,0.18372,434.887,0.275003,0.0630824,0.122241,-0.0142042,-0.106041,0.234467,-0.0003572,-0.000200229,0.189349,0.13002640533010745,0.264234752000573,-0.00035713621167532406,-0.014103796298105653,-0.0002002089555116493,-0.10061222757869093
221,0.2098,727.761,259.386,-0.133561,435.208,0.062321,0.0778079,0.122771,-0.0142729,-0.106504,0.2355,-0.000359706,-0.000199766,0.190194,0.13062547806518388,0.26554138125720983,-0.0003596413135530385,-0.014171525040791,-0.00019974604810124585,-0.10102854773176939
222,0.2108,728.776,260.734,0.229102,435.5,0.304778,0.0642478,0.123299,-0.0143323,-0.106967,0.236528,-0.000355684,-0.000199615,0.191035,0.1312226059454904,0.26684302672828464,-0.0003556207519450627,-0.014230081513059156,-0.00019959507825151324,-0.10144467517323319
223,0.2118,728.724,259.597,-0.1844,435.821,0.0339848,0.0800252,0.123828,-0.0144021,-0.107429,0.237558,-0.000359018,-0.000199144,0.191879,0.13182118101318197,0.2681485472734766,-0.0003589535607496641,-0.014298885852070176,-0.0001991241721498449,-0.10185971185244802
224,0.2128,729.876,261.264,0.284514,436.107,0.341538,0.0648691,0.124354,-0.0144601,-0.107891,0.238584,-0.000354057,-0.000199,0.192719,0.13241667555572967,0.2694503353860842,-0.0003539943292169001,-0.01435605485877356,-0.00019898020081332568,-0.10227455682900377
225,0.2138,730.158,260.962,0.091593,436.407,0.249528,0.051242,0.124882,-0.0145258,-0.108353,0.239612,-0.00035448,-0.000198944,0.19356,0.1330147494380336,0.27075600132817135,-0.0003544171793878892,-0.014420809538754797,-0.00019892421195466525,-0.10268921019144661
226,0.2148,730.604,260.877,0.0876995,436.719,0.180913,0.0855573,0.125409,-0.0145912,-0.108814,0.240639,-0.000354795,-0.000198187,0.1944,0.13361200557415653,0.2720617381226129,-0.0003547320676968724,-0.014485264310116985,-0.0001981673622538649,-0.10310277513150534
227,0.2158,731.076,261.086,0.0275656,437.011,0.2003,0.0642061,0.125935,-0.0146549,-0.109275,0.241665,-0.000353936,-0.000198177,0.19524,0.13420844233820572,0.27336754322939716,-0.00035387337204295655,-0.014548039599366236,-0.00019815736423545172,-0.10351614946206567
228,0.2168,731.567,261.136,0.0514714,437.318,0.164199,0.086559,0.126461,-0.0147197,-0.109735,0.24269,-0.000353887,-0.000197564,0.196078,0.13480519291051718,0.2746734141056997,-0.0003538243893814741,-0.014611894817468829,-0.00019754448551811965,-0.10392843719986333
229,0.2178,732.078,261.426,0.0286611,437.607,0.199306,0.0665895,0.126986,-0.0147831,-0.110195,0.243713,-0.000352831,-0.000197528,0.196916,0.13540112205450794,0.27597807222717896,-0.0003527687624627074,-0.014674366442965936,-0.00019750849262900605,-0.10434053532891507
230,0.2188,732.552,261.461,0.0380791,437.91,0.16205,0.0862503,0.127511,-0.0148479,-0.110654,0.244737,-0.000352803,-0.000196951,0.197754,0.13599736414344,0.27728534298153473,-0.00035274077233982126,-0.0147382134753542,-0.0001969316064249771,-0.10475154868841707
231,0.2198,733.083,261.791,0.0375089,438.198,0.20387,0.0692032,0.128036,-0.0149111,-0.111113,0.245759,-0.000351649,-0.000196871,0.19859,0.13659391934165255,0.27859139588141435,-0.00035158717873706724,-0.014800480052618026,-0.00019685162217630836,-0.1051623734360767
232,0.2208,733.53,261.788,0.0269899,438.498,0.160526,0.0864947,0.12856,-0.0149759,-0.111572,0.246781,-0.000351705,-0.000196325,0.199426,0.1371896506233523,0.27989878424966586,-0.0003516431590466773,-0.014864318913109131,-0.00019630572950835035,-0.10557300965844707
233,0.2218,734.081,262.16,0.04782,438.783,0.209796,0.0715592,0.129084,-0.0150388,-0.11203,0.247801,-0.000350439,-0.000196211,0.200261,0.1377856941500446,0.2812049470393789,-0.00035037760342582214,-0.01492628199869006,-0.00019619175188068105,-0.10598256342505186
234,0.2228,734.5,262.109,0.0156827,439.08,0.158138,0.0869665,0.129607,-0.0151037,-0.112488,0.248821,-0.00035061,-0.000195691,0.201096,0.1383809117039081,0.28251244279483445,-0.00035054854349658715,-0.014990211208463111,-0.00019567185376523355,-0.10639192965897981
235,0.2238,735.072,262.53,0.0589923,439.363,0.216767,0.0736139,0.13013,-0.0151664,-0.112946,0.24984,-0.000349204,-0.000195549,0.20193,0.138976440637971,0.28381998905572026,-0.0003491430353798064,-0.015051969386081221,-0.00019552988154047934,-0.10680110844610113
236,0.2248,735.459,262.421,0.00354549,439.658,0.15457,0.087666,0.130652,-0.0152314,-0.113403,0.250859,-0.000349522,-0.000195048,0.202764,0.13957114154341643,0.285128868385329,-0.0003494609243017699,-0.015115988927413504,-0.0001950289793755111,-0.1072092070819004
237,0.2258,736.058,262.902,0.0711985,439.938,0.224896,0.0753688,0.131174,-0.0152938,-0.11386,0.251876,-0.000347943,-0.000194886,0.203596,0.14016615296377188,0.2864365092671588,-0.0003478824748543996,-0.015177443772293242,-0.00019486701095705605,-0.10761711925923212
238,0.2268,736.409,262.725,-0.00975873,440.231,0.149626,0.0885909,0.131696,-0.015359,-0.114316,0.252893,-0.000348445,-0.000194396,0.204428,0.14076147506116832,0.28774548069623385,-0.00034838430009143107,-0.015241652109744819,-0.00019437710632186356,-0.10802395308768742
239,0.2278,737.037,263.278,0.0847343,440.508,0.234375,0.0768192,0.132217,-0.015421,-0.114772,0.253908,-0.000346655,-0.000194222,0.205259,0.14135596664128447,0.28905320591741956,-0.0003465949220977649,-0.015302705234647607,-0.00019420314012841278,-0.10843060144220817
240,0.2288,737.348,263.02,-0.0245551,440.799,0.143103,0.0897484,0.132738,-0.0154864,-0.115227,0.254924,-0.000347381,-0.000193737,0.20609,0.1419507680322123,0.29036354951646226,-0.0003473206702063747,-0.015367102331917182,-0.00019371823419933598,-0.1088361732439701
241,0.2298,738.012,263.658,0.0999268,441.073,0.245426,0.0779566,0.133258,-0.015548,-0.115683,0.255937,-0.000345335,-0.000193556,0.20692,0.1425447368500976,0.2916713500812733,-0.0003452753787321905,-0.015427753850327575,-0.00019353726924598025,-0.10924245131053167
242,0.2308,738.276,263.303,-0.0411867,441.363,0.134768,0.0911527,0.133778,-0.0156138,-0.116137,0.256952,-0.000346335,-0.000193069,0.207749,0.14313901461208678,0.2929830620828333,-0.000346275032957033,-0.015492536572749294,-0.00019305036338002068,-0.109646763451836
243,0.2318,738.982,264.044,0.117125,441.633,0.258303,0.0787656,0.134297,-0.0156748,-0.116592,0.257963,-0.000343981,-0.00019289,0.208578,0.14373245774584276,0.2942909289739126,-0.0003439218453187287,-0.015552589696379404,-0.00019287139792001362,-0.1100517820257525
244,0.2328,739.193,263.574,-0.0600179,441.922,0.12436,0.092825,0.134816,-0.015741,-0.117046,0.258976,-0.000345311,-0.000192394,0.209406,0.14432620895652426,0.2956027099898719,-0.0003452513870184637,-0.015617757957848255,-0.00019237549346129423,-0.11045572681430749
245,0.2338,739.948,264.437,0.136698,442.188,0.273289,0.0792237,0.135334,-0.0158014,-0.1175,0.259986,-0.000342589,-0.000192223,0.210233,0.14491912348436875,0.2969119297716569,-0.0003425303230893961,-0.015677212849711797,-0.0001922045263428318,-0.11085948825355196
246,0.2348,740.098,263.833,-0.0814351,442.477,0.111587,0.0947935,0.135853,-0.0158681,-0.117953,0.260997,-0.000344313,-0.00019171,0.21106,0.14551349073441688,0.2982237707565356,-0.00034425373108160073,-0.015742864990091587,-0.00019169162481225133,-0.11126217768932956
247,0.2358,740.911,264.838,0.159034,442.738,0.290701,0.079301,0.13637,-0.0159279,-0.118406,0.262006,-0.000341154,-0.000191557,0.211885,0.14610587432709043,0.2995343396120278,-0.0003410958135912079,-0.015801721806928737,-0.0001915386541293529,-0.11166468474810431
248,0.2368,740.991,264.076,-0.105846,443.027,0.0961287,0.0970947,0.136888,-0.0159951,-0.118858,0.263016,-0.000343346,-0.000191019,0.212712,0.14669971096040157,0.30084753234573425,-0.0003432870635075025,-0.015867857709032096,-0.00019100075703237795,-0.11206612157903983
249,0.2378,741.872,265.25,0.184541,443.284,0.310887,0.078959,0.137404,-0.0160541,-0.11931,0.264022,-0.000339674,-0.000190892,0.213535,0.14729156069535665,0.30215684343633,-0.0003396163173181588,-0.015925919792578958,-0.00019087378128146426,-0.11246737700152909
250,0.2388,741.872,264.303,-0.133679,443.574,0.0776306,0.099773,0.137921,-0.016122,-0.119762,0.265031,-0.000342416,-0.000190318,0.21436,0.14788486378787047,0.3034713827649229,-0.0003423573823322368,-0.01599273615418395,-0.00019029989067831377,-0.11286845109755028
251,0.2398,742.831,265.674,0.213639,443.825,0.334229,0.078151,0.138436,-0.0161801,-0.120214,0.266035,-0.000338141,-0.000190229,0.215183,0.14847617674273783,0.3047807252131416,-0.00033808383677536025,-0.016049905315433155,-0.00019021090761106585,-0.11326934394904442
252,0.2408,742.739,264.511,-0.165379,444.116,0.0557101,0.102881,0.138952,-0.0162489,-0.120664,0.267042,-0.000341528,-0.000189609,0.216007,0.14906894337057475,0.3060953011813441,-0.00034146968595138993,-0.01611759875326646,-0.00018959102534965577,-0.11366828297625409
253,0.2418,743.789,266.112,0.246763,444.361,0.36114,0.0768214,0.139467,-0.0163058,-0.121115,0.268045,-0.000336551,-0.000189568,0.216827,0.14966086628347797,0.30740597195994557,-0.0003364943730650438,-0.016173580069213878,-0.00018955003312204344,-0.11406792845380265
254,0.2428,744.023,265.788,0.0701844,444.629,0.265623,0.067923,0.139982,-0.0163705,-0.121566,0.269049,-0.000337001,-0.000189421,0.217649,0.15025309411519117,0.30871926671944405,-0.000336944221541291,-0.016237231579434908,-0.00018940306097503523,-0.11446739373187875
255,0.2438,744.433,265.732,0.0828823,444.907,0.206986,0.100903,0.140496,-0.0164346,-0.122015,0.270053,-0.000337132,-0.000188652,0.21847,0.15084447617773633,0.3100338806890137,-0.0003370751773930092,-0.016300288751886605,-0.00018863420633041805,-0.11486490862332177
256,0.2448,744.838,265.881,0.0181927,445.166,0.216607,0.0820964,0.14101,-0.0164974,-0.122465,0.271055,-0.000336369,-0.000188574,0.21929,0.15143616228879542,0.311347192496799,-0.0003363124342904422,-0.01636206315401645,-0.00018855622104085867,-0.11526312980795472
257,0.2458,745.29,265.964,0.0526406,445.438,0.192025,0.101657,0.141523,-0.0165608,-0.122914,0.272056,-0.000336107,-0.000187967,0.22011,0.15202700057711294,0.3126605082413565,-0.00033605052236995725,-0.016424423822358425,-0.00018794933531030011,-0.11566028749409818
258,0.2468,745.726,266.176,0.0189748,445.695,0.21349,0.0845943,0.142036,-0.0166234,-0.123363,0.273057,-0.0003352,-0.000187859,0.220928,0.15261814204323088,0.3139751392731658,-0.0003351438267565898,-0.016485993726269133,-0.0001878413556030134,-0.11605726689646811
259,0.2478,746.168,266.259,0.0424838,445.963,0.191253,0.100795,0.142549,-0.0166867,-0.123811,0.274057,-0.000334912,-0.000187297,0.221747,0.15320958684271946,0.31528977161905924,-0.00033485592323656554,-0.016548248192491566,-0.0001872794610119355,-0.11645318454872255
260,0.2488,746.616,266.491,0.0248222,446.219,0.215215,0.0869313,0.143061,-0.0167491,-0.124259,0.275056,-0.000333969,-0.000187143,0.222564,0.1538001813304699,0.31660440264977296,-0.00033391323856124533,-0.01660961366718161,-0.00018712548984112232,-0.11684892486959397
261,0.2498,747.043,266.558,0.0353959,446.485,0.191549,0.100483,0.143573,-0.0168124,-0.124707,0.276055,-0.0003337,-0.000186617,0.223381,0.15439107828002196,0.3179203476531063,-0.0003336443283477042,-0.016671860308509534,-0.00018659958813083133,-0.11724448793850906
262,0.2508,747.5,266.806,0.0306573,446.739,0.217702,0.0889227,0.144084,-0.0168747,-0.125154,0.277052,-0.000332722,-0.000186428,0.224197,0.154981122864575,0.31923496946979646,-0.0003326666541737522,-0.016733119743361113,-0.00018641062338020653,-0.11763899147429147
263,0.2518,747.912,266.856,0.0293292,447.003,0.191649,0.100452,0.144595,-0.016938,-0.125601,0.278049,-0.000332485,-0.000185929,0.225013,0.15557146903896024,0.3205509026180282,-0.000332429732987749,-0.01679535856700176,-0.00018591171627468928,-0.11803331870640033
264,0.2528,748.377,267.12,0.0359765,447.255,0.220515,0.0906014,0.145106,-0.0170001,-0.126047,0.279045,-0.000331466,-0.000185714,0.225828,0.15616211695732973,0.3218668265383633,-0.00033141107121459346,-0.016856413679453897,-0.00018569675622259751,-0.11842658814065443
265,0.2538,748.775,267.15,0.0238287,447.516,0.191408,0.100666,0.145616,-0.0170634,-0.126493,0.28004,-0.00033127,-0.000185235,0.226642,0.15675191002142563,0.3231827385884485,-0.0003312151361519744,-0.016918644698835417,-0.00018521784505665106,-0.11881968221584882
266,0.2548,749.248,267.433,0.0408583,447.767,0.223602,0.0920129,0.146126,-0.0171254,-0.126939,0.281034,-0.000330199,-0.000185001,0.227456,0.15734200395669973,0.32449863612333396,-0.0003301444903099915,-0.01697959385342085,-0.00018498388837029367,-0.11921260101017628
267,0.2558,749.631,267.44,0.0187049,448.026,0.19081,0.101083,0.146635,-0.0171887,-0.127384,0.282028,-0.000330054,-0.000184536,0.228269,0.1579312409848157,0.32581584231066185,-0.0003299995381704779,-0.017041817075744148,-0.00018451897427962383,-0.11960446420669901
268,0.2568,750.112,267.744,0.0454306,448.275,0.226963,0.0931917,0.147144,-0.0172505,-0.12783,0.283021,-0.000328924,-0.000184289,0.229081,0.1585207780109219,0.32713303131818416,-0.0003288699104316839,-0.01710256201441096,-0.0001842720198252934,-0.11999703306629972
269,0.2578,750.481,267.728,0.0138385,448.532,0.18986,0.10167,0.147652,-0.0173138,-0.128274,0.284013,-0.000328839,-0.000183831,0.229893,0.15910945607772087,0.32845020049314755,-0.00032878493838206513,-0.01716477745309597,-0.00018381410411705268,-0.12038766765632203
270,0.2588,750.971,268.054,0.0498231,448.779,0.230602,0.0941702,0.14816,-0.0173755,-0.128719,0.285004,-0.00032764,-0.000183576,0.230704,0.15969843326894861,0.32976734718022427,-0.0003275863318766836,-0.01722541651559284,-0.00018355915095713549,-0.12077900806451614
271,0.2598,751.324,268.012,0.00910276,449.035,0.188546,0.102401,0.148668,-0.0174387,-0.129162,0.285995,-0.000327624,-0.000183122,0.231514,0.16028770973659956,0.3310857998066541,-0.0003275703371178329,-0.01728752590659166,-0.00018310523418996194,-0.1211684167035616
272,0.2608,751.823,268.363,0.0541246,449.28,0.234522,0.0949683,0.149175,-0.0175002,-0.129606,0.286985,-0.000326347,-0.000182864,0.232324,0.16087612475603907,0.3324042272623706,-0.00032629375461012966,-0.017347960865354284,-0.00018284728139783546,-0.12155853131469274
273,0.2618,752.161,268.292,0.00441754,449.534,0.186867,0.103257,0.149682,-0.0175636,-0.130049,0.287974,-0.000326409,-0.000182409,0.233134,0.1614648381775321,0.33372262688428345,-0.00032635573437800325,-0.017410259029762787,-0.00018239236448991392,-0.12194759470141747
274,0.2628,752.669,268.671,0.058414,449.776,0.238732,0.0956051,0.150189,-0.0176249,-0.130492,0.288962,-0.000325046,-0.000182151,0.233942,0.1620538501524067,0.3350409960067484,-0.00032499317827228147,-0.01747048993478817,-0.00018213441151382348,-0.1223364857712328
275,0.2638,752.992,268.569,-0.000287037,450.029,0.184819,0.104224,0.150695,-0.0176882,-0.130934,0.28995,-0.000325195,-0.000181692,0.23475,0.1626419981894882,0.3363606683215774,-0.0003251421298371415,-0.017532682084372975,-0.00018167549500813784,-0.12272432732522431
276,0.2648,753.51,268.978,0.0627531,450.269,0.243238,0.0960952,0.1512,-0.0177493,-0.131377,0.290936,-0.000323736,-0.000181437,0.235557,0.16322928067492048,0.3376789697563458,-0.0003236836031556001,-0.017592709003656615,-0.00018142054130299012,-0.12311287437869256
277,0.2658,753.816,268.842,-0.00506556,450.52,0.182397,0.105289,0.151706,-0.0178128,-0.131818,0.291923,-0.000323983,-0.000180972,0.236364,0.16381802363034814,0.3389999106766044,-0.00032393052317525317,-0.017655089886020825,-0.00018095562555542344,-0.12349949634468216
278,0.2668,754.345,269.284,0.0671892,450.758,0.248047,0.0964494,0.15221,-0.0178737,-0.13226,0.292907,-0.000322418,-0.000180724,0.23717,0.16440473575329317,0.34031813504873654,-0.0003223660289022323,-0.01771491286941851,-0.0001807076704016808,-0.12388682396158868
279,0.2678,754.633,269.112,-0.0099589,451.008,0.1796,0.106445,0.152715,-0.0179372,-0.132701,0.293892,-0.000322772,-0.000180248,0.237976,0.16499290864600424,0.3416389988303774,-0.0003227199147221027,-0.017777285992083613,-0.00018023175630521582,-0.12427310469106034
280,0.2688,755.174,269.59,0.0717564,451.244,0.253162,0.0966764,0.153219,-0.0179978,-0.133141,0.294876,-0.000321092,-0.000180009,0.23878,0.16558021306024218,0.34295982134332825,-0.0003210404554807589,-0.017836806885051293,-0.00017999279935210222,-0.12465833976706442
281,0.2698,755.445,269.379,-0.0149957,451.493,0.176427,0.107686,0.153722,-0.0180614,-0.133581,0.295859,-0.000321563,-0.000179521,0.239585,0.16616664738327924,0.3442805999040168,-0.000321511304159805,-0.01789927047777007,-0.00017950488706952594,-0.12504340537692038
282,0.2708,755.998,269.894,0.0764771,451.726,0.258586,0.0967826,0.154225,-0.0181218,-0.134022,0.296841,-0.000319758,-0.000179295,0.240388,0.16675337675697977,0.345601331826362,-0.00031970688285920534,-0.017958587570439,-0.00017927892761204767,-0.125429176166438
283,0.2718,756.25,269.642,-0.0201936,451.974,0.172879,0.109007,0.154728,-0.0181855,-0.134461,0.297823,-0.000320355,-0.000178791,0.241191,0.1673404013297919,0.3469233613444702,-0.00032030369181612617,-0.01802114161604329,-0.00017877501784169247,-0.1258130284963498
284,0.2728,756.817,270.198,0.0813635,452.204,0.264319,0.096773,0.155231,-0.0182457,-0.1349,0.298803,-0.000318416,-0.00017858,0.241993,0.16792772125023747,0.3482439932425232,-0.0003183653110057083,-0.01808025496398835,-0.0001785640555409529,-0.12619671235207153
285,0.2738,757.049,269.901,-0.0255605,452.452,0.168962,0.110404,0.155733,-0.0183095,-0.135339,0.299783,-0.00031915,-0.000178059,0.242795,0.16851416815216202,0.34956591999421116,-0.00031909907705629514,-0.01814289944534142,-0.00017804314843705704,-0.1265802278075473
286,0.2748,757.631,270.502,0.086418,452.679,0.270355,0.0966516,0.156234,-0.0183693,-0.135778,0.300762,-0.000317067,-0.000177864,0.243596,0.169099740424012,0.35088779198064457,-0.0003170167395708523,-0.018201612744409457,-0.00017784818313648643,-0.1269635749366883
287,0.2758,757.843,270.157,-0.031095,452.927,0.164684,0.111876,0.156736,-0.0184333,-0.136216,0.301741,-0.000317947,-0.000177323,0.244396,0.1696867758272631,0.3522109587134281,-0.00031789646020907725,-0.018264445830513565,-0.0001773072792060626,-0.12734588115969125
288,0.2768,758.44,270.805,0.0916349,453.151,0.276687,0.0964218,0.157236,-0.0184929,-0.136654,0.302718,-0.000315711,-0.000177149,0.245196,0.17027176545039535,0.35353271439260237,-0.00031566116852643766,-0.01832295552593588,-0.00017713331004243216,-0.12772801996923477
289,0.2778,758.63,270.41,-0.0367877,453.398,0.160057,0.11342,0.157737,-0.018557,-0.137091,0.303695,-0.000316746,-0.000176586,0.245995,0.17085821849910787,0.3548557620581081,-0.00031669584128168893,-0.018385879007767558,-0.00017657040960994408,-0.12810911954818538
290,0.2788,759.243,271.107,0.0970001,453.619,0.283303,0.0960868,0.158237,-0.0186162,-0.137528,0.304671,-0.000314347,-0.000176433,0.246793,0.17144379399003085,0.3561787467934072,-0.0003142975981583751,-0.018443988843662162,-0.0001764174366135629,-0.12849005262300373
291,0.2798,759.411,270.659,-0.042622,453.866,0.155098,0.115035,0.158737,-0.0186805,-0.137965,0.305647,-0.000315547,-0.000175846,0.247592,0.1720296623419082,0.357503023392135,-0.00031549722028145766,-0.018507100866106185,-0.00017583053999836729,-0.1288708192664364
292,0.2808,760.041,271.408,0.102493,454.084,0.290186,0.0956499,0.159236,-0.0187395,-0.138401,0.306621,-0.000312977,-0.000175717,0.248389,0.17261465108596985,0.35882587546129674,-0.00031292802780791273,-0.01856500723890031,-0.0001757015626722147,-0.129250548802182
293,0.2818,760.187,270.906,-0.0485741,454.331,0.14983,0.116718,0.159735,-0.0188039,-0.138837,0.307596,-0.000314349,-0.000175103,0.249186,0.17319993181225835,0.36015137676675346,-0.0003142995975298213,-0.01862820961729572,-0.00017508767036444883,-0.12963011281193726
294,0.2828,760.835,271.709,0.108086,454.545,0.297314,0.0951147,0.160233,-0.0188625,-0.139273,0.308568,-0.000311601,-0.000175,0.249982,0.1737843308815914,0.36147408663782854,-0.00031155245745051463,-0.018685716319249313,-0.00017498468839316494,-0.130009511367856
295,0.2838,760.956,271.149,-0.0546146,454.792,0.144279,0.118465,0.160731,-0.0189271,-0.139708,0.309541,-0.000313154,-0.000174359,0.250778,0.17436902105413954,0.3627994456067025,-0.00031310497240399915,-0.01874910717442846,-0.0001743438003529718,-0.13038787493036974
296,0.2848,761.623,272.009,0.113747,455.004,0.30466,0.0944854,0.161228,-0.0189854,-0.140143,0.310512,-0.00031022,-0.000174284,0.251572,0.17495282752149355,0.3641233665279733,-0.0003101718867511982,-0.018806312433930605,-0.00017426881342597067,-0.13076607394052664
297,0.2858,761.721,271.39,-0.0607084,455.251,0.138475,0.120275,0.161726,-0.0190502,-0.140577,0.311484,-0.00031196,-0.000173612,0.252367,0.17553809975028822,0.36544993905004053,-0.0003119113455387623,-0.018869891724893617,-0.00017359693030882806,-0.13114323961356522
298,0.2868,762.406,272.307,0.119437,455.459,0.312193,0.093767,0.162223,-0.0191082,-0.141012,0.312453,-0.000308834,-0.000173567,0.25316,0.1761224873941647,0.3667737013002099,-0.00030878631568920234,-0.01892679562094468,-0.00017355193811963154,-0.13152111011154155
299,0.2878,762.48,271.628,-0.066816,455.706,0.132456,0.122141,0.16272,-0.0191732,-0.141445,0.313423,-0.000310766,-0.000172864,0.253954,0.1767071655508865,0.36810011499711237,-0.0003107177172483322,-0.01899056330675708,-0.00017284905987968724,-0.13189708006749357
300,0.2888,763.185,272.605,0.125115,455.911,0.319874,0.0929652,0.163215,-0.0192308,-0.14188,0.314391,-0.000307443,-0.000172851,0.254745,0.17728977978296023,0.36942507708662076,-0.0003073957442437658,-0.019047067822964947,-0.0001728360621265912,-0.13227462271618473
301,0.2898,763.233,271.863,-0.0728937,456.159,0.126263,0.12406,0.163711,-0.019296,-0.142312,0.31536,-0.000309573,-0.000172113,0.255538,0.17787386035373975,0.37075269311240056,-0.0003095250872231503,-0.019111023869153088,-0.00017209818940733257,-0.1326493991216392
302,0.2908,763.958,272.901,0.130736,456.36,0.327664,0.092087,0.164206,-0.0193532,-0.142746,0.316326,-0.000306049,-0.000172134,0.256328,0.17845705224269937,0.37207747998298624,-0.00030600217178211597,-0.019167129113962456,-0.00017211918579307373,-0.1330257476088914
303,0.2918,763.982,272.097,-0.0788949,456.608,0.119941,0.126024,0.164702,-0.0194186,-0.143178,0.317294,-0.000308381,-0.000171362,0.25712,0.17904171192422647,0.3734062940258456,-0.0003083334554667694,-0.019231273486174594,-0.00017134731837109562,-0.13340019959847116
304,0.2928,764.726,273.195,0.13625,456.806,0.335516,0.0911402,0.165196,-0.0194755,-0.14361,0.318258,-0.000304653,-0.000171417,0.257909,0.17962430241792116,0.37473089604888266,-0.0003046065979870338,-0.019287077639070005,-0.000171402308945523,-0.13377448985972717
305,0.2938,764.726,272.328,-0.0847704,457.055,0.113539,0.128026,0.16569,-0.0195411,-0.144042,0.319225,-0.000307187,-0.000170608,0.258699,0.18020718078241815,0.37606090378046053,-0.0003071398229044231,-0.019351410296642668,-0.00017059344728276304,-0.13414861846251114
306,0.2948,765.49,273.488,0.141609,457.249,0.34338,0.0901336,0.166184,-0.0195977,-0.144474,0.320188,-0.000303255,-0.0001707,0.259487,0.18079034715996034,0.3773866886937791,-0.0003032090228501927,-0.019406913436066153,-0.000170685431583939,-0.13452258547664442
307,0.2958,765.465,272.558,-0.0904696,457.498,0.107112,0.130057,0.166678,-0.0196635,-0.144904,0.321153,-0.000305993,-0.000169854,0.260276,0.18137380169286166,0.37871650838317206,-0.0003059461889167725,-0.01947143433840115,-0.00016983957562599628,-0.13489466076296985
308,0.2968,766.248,273.778,0.146762,457.689,0.351202,0.0890774,0.16717,-0.0197197,-0.145336,0.322114,-0.000301855,-0.000169982,0.261063,0.18195518061078086,0.38004209178853765,-0.0003018094463631549,-0.01952653849535002,-0.00016996755387832518,-0.13526830555643388
309,0.2978,766.199,272.787,-0.0959413,457.939,0.100714,0.132108,0.167663,-0.0197857,-0.145765,0.323078,-0.000304796,-0.000169098,0.261851,0.18253802817494136,0.3813730938049191,-0.0003047495544181711,-0.019591247608385043,-0.00016908370373902581,-0.13563919589168505
310,0.2988,767.001,274.067,0.151657,458.126,0.358925,0.0879825,0.168155,-0.0198416,-0.146196,0.324037,-0.000300456,-0.000169265,0.262636,0.1831199800332215,0.38269846601627666,-0.0003004108676162298,-0.01964605092587679,-0.00016925067548811956,-0.13601165512752467
311,0.2998,766.928,273.014,-0.101134,458.377,0.0944064,0.134168,0.168647,-0.0199078,-0.146625,0.325,-0.000303597,-0.000168341,0.263423,0.1837022182822623,0.38403064598075143,-0.00030355091909428644,-0.019710948209181733,-0.00016832683144896166,-0.1363822266342034
312,0.3008,767.749,274.353,0.156247,458.561,0.366493,0.086861,0.169138,-0.0199633,-0.147055,0.325958,-0.000299057,-0.000168546,0.264207,0.1842835587788516,0.38535718264921126,-0.0002990122869127587,-0.019765352741816344,-0.00016853179692088993,-0.13675350244673024
313,0.3018,767.654,273.24,-0.105999,458.812,0.0882476,0.136226,0.16963,-0.0200297,-0.147484,0.326919,-0.000302395,-0.000167584,0.264993,0.18486636964948855,0.38668915080992994,-0.0003023492832402441,-0.019830438161534514,-0.00016756995858580037,-0.13712375576916447
314,0.3028,768.492,274.636,0.160481,458.992,0.373844,0.0857256,0.17012,-0.0200849,-0.147913,0.327876,-0.000297661,-0.000167828,0.265776,0.18544709643706025,0.38801684752880417,-0.0002976167033598154,-0.019884542028067442,-0.0001678139176690685,-0.13749385028698935
315,0.3038,768.375,273.466,-0.110487,459.244,0.0822989,0.138269,0.170611,-0.0201514,-0.148341,0.328835,-0.000301188,-0.000166826,0.26656,0.18602929387918654,0.38934859415602685,-0.00030114264744762753,-0.019949717538912837,-0.0001668120853166588,-0.13786292393167254
316,0.3048,769.229,274.917,0.164316,459.421,0.380918,0.0845898,0.1711,-0.0202063,-0.14877,0.32979,-0.000296267,-0.000167108,0.267342,0.1866094040292654,0.39067605582550335,-0.0002962231172661811,-0.020003520822506338,-0.0001670940382358932,-0.1382327014143646
317,0.3058,769.092,273.692,-0.114554,459.673,0.0766212,0.140284,0.17159,-0.020273,-0.149196,0.330749,-0.000299977,-0.000166068,0.268125,0.18719098511296872,0.39201035385668526,-0.0002999320113983295,-0.020068884407767662,-0.00016605421147297683,-0.1385997360996235
318,0.3068,769.962,275.194,0.167709,459.847,0.387656,0.0834677,0.172079,-0.0203276,-0.149625,0.331702,-0.000294877,-0.000166388,0.268906,0.1877716634689761,0.3933375720429271,-0.00029483352805048657,-0.02012238718603987,-0.00016637415828446578,-0.13896919755768766
319,0.3078,769.805,273.918,-0.118159,460.1,0.0712742,0.142257,0.172568,-0.0203945,-0.150051,0.332659,-0.000298759,-0.00016531,0.269688,0.188352625846137,0.39467163434636765,-0.0002987143759740629,-0.020187938805610983,-0.00016529633705486546,-0.13933591856240812
320,0.3088,770.689,275.468,0.170624,460.27,0.394,0.0823737,0.173056,-0.0204487,-0.150479,0.333611,-0.000293492,-0.000165667,0.270467,0.18893268345009373,0.39599999394110763,-0.0002934489354361469,-0.020241043180186158,-0.0001656532779803488,-0.13970420397056416
321,0.3098,770.514,274.144,-0.121263,460.524,0.0663156,0.144176,0.173545,-0.0205158,-0.150904,0.334567,-0.000297536,-0.000164551,0.271248,0.1895142137048602,0.39733520806597533,-0.0002974917405540456,-0.020306782800599832,-0.000164537462226777,-0.1400697519994183
322,0.3108,771.411,275.739,0.173027,460.691,0.399893,0.0813223,0.174032,-0.0205698,-0.151331,0.335517,-0.000292112,-0.000164945,0.272026,0.19009364820778396,0.3986633072608716,-0.0002920693394437013,-0.02035968480596162,-0.0001649313973214328,-0.14043686383136045
323,0.3118,771.22,274.37,-0.123837,460.945,0.0618001,0.146025,0.17452,-0.0206369,-0.151755,0.336472,-0.000296305,-0.000163794,0.272806,0.19067455563799385,0.3999996687303411,-0.0002962611060088882,-0.020425416465789326,-0.0001637805864951325,-0.14080124134760363
324,0.3128,772.127,276.005,0.174891,461.108,0.405283,0.080328,0.175006,-0.0206906,-0.152182,0.337421,-0.000290739,-0.000164222,0.273583,0.19125336411110028,0.40132889903598734,-0.0002906967395126525,-0.02047801820855566,-0.00016420851630549738,-0.14116804090027057
325,0.3138,772.274,275.601,0.0371897,461.326,0.290753,0.087511,0.175493,-0.020753,-0.152607,0.338372,-0.000291436,-0.000163861,0.274361,0.19183364578654172,0.40266219670152426,-0.0002913935366541942,-0.020539138473247398,-0.0001638475755195712,-0.14153296693061357
326,0.3148,772.609,275.568,0.0683793,461.545,0.243097,0.1188,0.175979,-0.0208142,-0.153031,0.339322,-0.000291374,-0.000163099,0.275138,0.19241301771436858,0.40399535894018923,-0.00029133155471861016,-0.020599079643754292,-0.00016308570008116696,-0.1418968797976553
327,0.3158,772.908,275.63,0.00834757,461.749,0.238081,0.106471,0.176465,-0.0208746,-0.153456,0.340271,-0.000290782,-0.000162908,0.275915,0.19299267128538622,0.4053283829556751,-0.0002907397270117684,-0.020658233672874116,-0.00016289473121233744,-0.1422614961372809
328,0.3168,773.279,275.737,0.0455993,461.96,0.228181,0.120104,0.17695,-0.0209351,-0.15388,0.34122,-0.000290271,-0.000162357,0.27669,0.19357141306449654,0.4066626726114033,-0.0002902288754492721,-0.02071748205745516,-0.00016234382081548038,-0.14262510017341568
329,0.3178,773.604,275.853,0.0111737,462.162,0.233035,0.109455,0.177435,-0.0209953,-0.154304,0.342167,-0.000289563,-0.000162135,0.277465,0.19415043560144785,0.4079954131153938,-0.00028952108068069915,-0.020776433090591406,-0.00016212185683117664,-0.14298855007411826
330,0.3188,773.968,275.97,0.0377248,462.371,0.227778,0.118773,0.17792,-0.0210557,-0.154727,0.343114,-0.000288995,-0.000161641,0.27824,0.19472973903244117,0.409329416322437,-0.00028895324496747143,-0.02083557640788658,-0.00016162793679741494,-0.14335098925614576
331,0.3198,774.302,276.094,0.0155356,462.573,0.232713,0.111406,0.178404,-0.0211158,-0.15515,0.344061,-0.000288287,-0.000161374,0.279014,0.19530812818501686,0.4106646834288794,-0.00028824544929573204,-0.020894422421404046,-0.00016136097991648057,-0.14371327515882004
332,0.3208,774.658,276.209,0.0331159,462.779,0.228603,0.117967,0.178888,-0.0211761,-0.155573,0.345006,-0.000287704,-0.000160917,0.279787,0.1958867973456988,0.4119983916325929,-0.0002876626171729457,-0.02095346070770987,-0.00016090405355395632,-0.1440754078469646
333,0.3218,774.995,276.335,0.0188127,462.981,0.232987,0.112836,0.179372,-0.0212362,-0.155995,0.345951,-0.000287002,-0.000160619,0.28056,0.1964657466500439,0.41333336078626415,-0.00028696081886581126,-0.02101229963659379,-0.00016060610145895993,-0.14443653182233518
334,0.3228,775.344,276.447,0.0300399,463.185,0.229453,0.117522,0.179855,-0.0212963,-0.156417,0.346895,-0.000286411,-0.000160188,0.281333,0.19704377918929672,0.4146681774131691,-0.0002863699882850179,-0.02107113502936442,-0.0001601751705874177,-0.14479750343553877
335,0.3238,775.683,276.574,0.0210419,463.386,0.23339,0.113929,0.180338,-0.0213563,-0.156839,0.347839,-0.000285715,-0.000159869,0.282104,0.19762209098570116,0.4160042547019085,-0.0002856741873563662,-0.021129868999225865,-0.00015985622163239288,-0.14515832275085883
336,0.3248,776.027,276.685,0.0279118,463.589,0.230222,0.117338,0.18082,-0.0214164,-0.15726,0.348782,-0.000285118,-0.000159455,0.282875,0.19819948397408793,0.417340176502224,-0.00028507735772576037,-0.02118869732629014,-0.00015944228772712954,-0.1455181353511139
337,0.3258,776.367,276.812,0.0225093,463.789,0.233846,0.11479,0.181302,-0.0214764,-0.157681,0.349724,-0.000284426,-0.000159121,0.283646,0.19877715533297713,0.41867593999431807,-0.0002843855547599583,-0.02124742424262538,-0.00015910834092514037,-0.1458777965021465
338,0.3268,776.707,276.921,0.0264261,463.99,0.230925,0.117332,0.181784,-0.0215364,-0.158102,0.350665,-0.000283825,-0.000158719,0.284416,0.1993551051965754,0.42001154235620985,-0.00028378472549506206,-0.021306147635451467,-0.00015870640480586395,-0.14623730626770348
339,0.3278,777.046,277.048,0.0234489,464.189,0.234329,0.115491,0.182266,-0.0215963,-0.158522,0.351606,-0.000283135,-0.000158376,0.285185,0.19993333369915467,0.42134840211143487,-0.000283094921068594,-0.0213647696414615,-0.00015836345918340822,-0.14659581130774257
340,0.3288,777.383,277.155,0.0253808,464.389,0.231578,0.117445,0.182747,-0.0216562,-0.158942,0.352546,-0.000282532,-0.000157981,0.285954,0.20051064046381017,0.42268509775794816,-0.000282492091593034,-0.02142338813611855,-0.0001579685216589466,-0.1469541658072807
341,0.3298,777.721,277.283,0.0240261,464.587,0.234823,0.116079,0.183227,-0.021716,-0.159362,0.353485,-0.000281844,-0.000157631,0.286722,0.20108702389218913,0.4240216264667678,-0.000281804285711007,-0.02148190526782834,-0.00015761857688667558,-0.14731236982953133
342,0.3308,778.055,277.389,0.0246374,464.785,0.232194,0.117636,0.183708,-0.0217759,-0.159781,0.354424,-0.000281239,-0.000157242,0.28749,0.2016648857153085,0.42535941076545236,-0.0002811994560196762,-0.021540516746271443,-0.0001572296381247007,-0.1476695711076791
343,0.3318,778.392,277.516,0.024356,464.982,0.235318,0.116589,0.184187,-0.0218356,-0.160201,0.355362,-0.000280552,-0.000156887,0.288257,0.2022406210731762,0.42669702513581576,-0.00028051264896777894,-0.021598929033797565,-0.00015687469387815067,-0.14802747472279354
344,0.3328,778.723,277.621,0.0241003,465.18,0.232781,0.117877,0.184667,-0.0218954,-0.160619,0.356299,-0.000279945,-0.000156502,0.289023,0.20281783509157325,0.4280344667419076,-0.00027990581905479317,-0.021657435668475555,-0.0001564897542007948,-0.1483835248187052
345,0.3338,779.058,277.747,0.0245175,465.375,0.235807,0.117044,0.185146,-0.0219551,-0.161038,0.357236,-0.000279259,-0.000156144,0.289789,0.20339412284448022,0.4293731621180841,-0.000279220010834913,-0.021715840976150314,-0.00015613181016005395,-0.14874027737692586
346,0.3348,779.387,277.851,0.023704,465.571,0.233346,0.11815,0.185625,-0.0220148,-0.161456,0.358172,-0.000278651,-0.000155761,0.290555,0.20397068670534346,0.43071168172728114,-0.00027861218041591584,-0.02177424279713236,-0.0001557488698852305,-0.14909602958359125
347,0.3358,779.721,277.977,0.0245651,465.766,0.236287,0.11746,0.186103,-0.0220744,-0.161874,0.359107,-0.000277966,-0.000155401,0.29132,0.20454632225952585,0.4320500227266124,-0.0002779273710307173,-0.02183254331488893,-0.00015538892589006537,-0.14945163311690912
348,0.3368,780.048,278.081,0.0234036,465.961,0.233893,0.11844,0.186582,-0.022134,-0.162291,0.360041,-0.000277356,-0.00015502,0.292084,0.2051234381561109,0.433388182271067,-0.00027731754038040624,-0.021890840358038233,-0.00015500798502066093,-0.14980623784567493
349,0.3378,780.38,278.206,0.0245356,466.154,0.236754,0.117847,0.187059,-0.0221936,-0.162708,0.360975,-0.000276672,-0.000154659,0.292848,0.20569841915817833,0.4347275922403937,-0.0002766337298316657,-0.021949133926787323,-0.00015464704091339154,-0.15016069473509552
350,0.3388,780.705,278.309,0.0231685,466.348,0.234424,0.11874,0.187537,-0.0222531,-0.163125,0.361908,-0.000276061,-0.000154278,0.293611,0.20627488076588407,0.43606681773549916,-0.00027602289866834884,-0.02200732622208068,-0.00015426609976132433,-0.15051500384680694
351,0.3398,781.035,278.433,0.0244544,466.54,0.237207,0.118213,0.188014,-0.0223126,-0.163542,0.362841,-0.000275378,-0.000153916,0.294373,0.20685041113709035,0.4374072933110633,-0.0002753400869587308,-0.02206551505503551,-0.00015390415554017434,-0.15086916524241978
352,0.3408,781.358,278.535,0.0229778,466.733,0.234942,0.119044,0.18849,-0.0223721,-0.163958,0.363772,-0.000274766,-0.000153537,0.295135,0.20742500867615687,0.43874614263879264,-0.00027472825527974365,-0.022123700425857873,-0.00015352521379807804,-0.1512223302062733
353,0.3418,781.686,278.659,0.0243387,466.924,0.237644,0.118563,0.188967,-0.0224315,-0.164374,0.364703,-0.000274083,-0.000153174,0.295897,0.20800108778924087,0.44008623901565747,-0.000274045442685944,-0.022181784552936845,-0.0001531622694618262,-0.1515753482840564
354,0.3428,782.007,278.761,0.0228174,467.116,0.235446,0.119348,0.189443,-0.0224909,-0.164789,0.365634,-0.000273471,-0.000152795,0.296657,0.20857623318077234,0.4414275836032011,-0.00027343361021447965,-0.022239865229921274,-0.00015278332743851042,-0.15192737146465618
355,0.3438,782.334,278.883,0.0242001,467.306,0.238067,0.1189,0.189918,-0.0225502,-0.165204,0.366563,-0.000272789,-0.000152431,0.297418,0.2091504432556297,0.4427672920265793,-0.0002727517964636883,-0.02229784468680529,-0.00015241938298538038,-0.15227924858594555
356,0.3448,782.653,278.985,0.0226776,467.496,0.235939,0.119649,0.190393,-0.0226096,-0.165619,0.367493,-0.000272175,-0.000152053,0.298177,0.20972492614506089,0.444109689726341,-0.00027213796374492283,-0.022355918470022385,-0.00015204144052849422,-0.15263097970852635
357,0.3458,782.978,279.106,0.0240465,467.685,0.238474,0.119227,0.190868,-0.0226688,-0.166034,0.368421,-0.000271495,-0.000151689,0.298937,0.21029968197868354,0.4454504455328816,-0.00027145814856754935,-0.022413793286537476,-0.00015167749580535794,-0.15298256489297557
358,0.3468,783.295,279.208,0.0225519,467.874,0.236421,0.119945,0.191343,-0.0227281,-0.166448,0.369349,-0.00027088,-0.000151312,0.299695,0.21087471088617726,0.44679244613830793,-0.000270843315325231,-0.02247176242979354,-0.00015130055291667777,-0.1533331575334258
359,0.3478,783.618,279.328,0.0238833,468.062,0.238867,0.119546,0.191817,-0.0227873,-0.166862,0.370275,-0.0002702,-0.000150947,0.300453,0.2114488015478755,0.4481327964298405,-0.00027016349926756167,-0.02252963038854916,-0.0001509356080747759,-0.15368360505856382
360,0.3488,783.933,279.429,0.0224358,468.251,0.236892,0.120237,0.192291,-0.0228465,-0.167276,0.371202,-0.000269584,-0.00015057,0.301211,0.2120231643930497,0.4494758379356927,-0.0002695476654985818,-0.022587494921623152,-0.00015055866490643055,-0.15403390752845492
361,0.3498,784.254,279.549,0.0237142,468.437,0.239245,0.119857,0.192764,-0.0229056,-0.167689,0.372127,-0.000268906,-0.000150206,0.301968,0.2125965869535522,0.450817223380908,-0.0002688698480221019,-0.02264525829374886,-0.00015019471964361486,-0.1543832193867818
362,0.3508,784.568,279.65,0.0223263,468.625,0.237352,0.120523,0.193237,-0.0229647,-0.168102,0.373052,-0.000268288,-0.000149828,0.302724,0.21317028080708145,0.4521598501816986,-0.0002682520139928313,-0.022703018252160034,-0.00014981677634573476,-0.15473238700909797
363,0.3518,784.887,279.768,0.0235418,468.81,0.239609,0.120161,0.19371,-0.0230238,-0.168515,0.373977,-0.000267611,-0.000149464,0.30348,0.21374424608198983,0.45350371948684964,-0.0002675751953703509,-0.022760774797058625,-0.0001494528308128018,-0.1550814104549606
364,0.3528,785.2,279.869,0.0222212,468.996,0.237802,0.120803,0.194182,-0.0230828,-0.168927,0.3749,-0.000266993,-0.000149087,0.304235,0.21431726858881373,0.4548459227514541,-0.0002669573605408315,-0.022818430210494234,-0.00014907588708545916,-0.15542944521376978
365,0.3538,785.517,279.986,0.0233678,469.181,0.23996,0.120458,0.194654,-0.0231418,-0.169339,0.375823,-0.000266317,-0.000148722,0.30499,0.21489056162610098,0.45618936544157873,-0.0002662815407755703,-0.022876082222360705,-0.00014871094143154018,-0.1557773366117926
366,0.3548,785.828,280.086,0.022119,469.366,0.238241,0.121078,0.195126,-0.0232008,-0.169751,0.376745,-0.000265697,-0.000148346,0.305744,0.21546412532157233,0.4575325911684214,-0.00026566170567798864,-0.02293373083285888,-0.00014833499727617827,-0.15612508470808173
367,0.3558,786.143,280.203,0.0231933,469.55,0.240299,0.12075,0.195597,-0.0232597,-0.170162,0.377667,-0.000265023,-0.000147981,0.306498,0.2160367437656565,0.4588770559204869,-0.00026498788450690647,-0.022991278341322086,-0.00014797005135191998,-0.15647184603393305
368,0.3568,786.452,280.303,0.0220187,469.734,0.23867,0.121346,0.196068,-0.0233186,-0.170573,0.378588,-0.000264402,-0.000147605,0.307251,0.21660963197655292,0.4602213006186531,-0.00026436704887167206,-0.023048822460336793,-0.00014759410691800312,-0.15681846487016293
369,0.3578,786.765,280.418,0.0230194,469.917,0.240626,0.121036,0.196539,-0.0233774,-0.170984,0.379508,-0.00026373,-0.00014724,0.308003,0.21718279008135166,0.4615653223704297,-0.0002636952263005421,-0.023106265500734136,-0.00014722916072318348,-0.15716494127532277
370,0.3588,787.073,280.518,0.0219195,470.1,0.239089,0.121608,0.197009,-0.0234363,-0.171395,0.380428,-0.000263107,-0.000146864,0.308755,0.21775500045159357,0.46291058119118245,-0.0002630723903886967,-0.02316380284720465,-0.00014685321601071166,-0.15751127530793962
371,0.3598,787.385,280.632,0.0228466,470.281,0.240943,0.121317,0.197479,-0.023495,-0.171805,0.381347,-0.000262436,-0.000146499,0.309507,0.21832747982391987,0.46425561396319237,-0.00026240156668522197,-0.023221141449073168,-0.00014648826954555272,-0.15785662488356267
372,0.3608,787.691,280.732,0.0218209,470.463,0.239497,0.121865,0.197949,-0.0235538,-0.172215,0.382265,-0.000261813,-0.000146124,0.310257,0.2189002283247916,0.4656004177873243,-0.00026177872996735463,-0.023278574357411874,-0.0001461133244082813,-0.1582018328948822
373,0.3618,788.0,280.846,0.0226754,470.644,0.241249,0.121592,0.198418,-0.0236125,-0.172624,0.383182,-0.000261143,-0.000145758,0.311008,0.21947202660809206,0.46694498976246623,-0.0002611089051347548,-0.023335906222390457,-0.00014574737781880565,-0.15854605794640664
374,0.3628,788.305,280.945,0.0217224,470.825,0.239895,0.122116,0.198887,-0.0236712,-0.173033,0.384099,-0.000260518,-0.000145383,0.311758,0.22004409312768414,0.46829079527560014,-0.0002604840681325049,-0.02339323472208721,-0.0001453724324037564,-0.15889014223867226
375,0.3638,788.613,281.057,0.0225062,471.005,0.241545,0.121862,0.199355,-0.0237298,-0.173442,0.385016,-0.000259851,-0.000145018,0.312507,0.2206152073935821,0.469637835458399,-0.00025981724165302644,-0.023450462201750955,-0.0001450074853981409,-0.15923408582923781
376,0.3648,788.916,281.157,0.0216238,471.185,0.240283,0.122362,0.199824,-0.0237885,-0.173851,0.385931,-0.000259225,-0.000144643,0.313255,0.22118781019070988,0.4709831694742934,-0.0002591914041026877,-0.023507783977209207,-0.00014463253970564693,-0.1595778887756385
377,0.3658,789.222,281.268,0.0223391,471.364,0.241833,0.122127,0.200291,-0.023847,-0.174259,0.386846,-0.000258558,-0.000144278,0.314004,0.22175823808261463,0.472329735034158,-0.00025852457676101004,-0.023564907100978805,-0.00014426759242991416,-0.15992071105651706
378,0.3668,789.523,281.368,0.0215247,471.542,0.24066,0.122603,0.200759,-0.0239056,-0.174667,0.38776,-0.000257931,-0.000143904,0.314751,0.2223301547561003,0.4736760595885743,-0.00025789773865936283,-0.023622124520935928,-0.00014389364631606227,-0.16026339349443497
379,0.3678,789.828,281.478,0.0221744,471.72,0.242112,0.122387,0.201226,-0.0239641,-0.175075,0.388674,-0.000257267,-0.000143538,0.315498,0.22290111624750297,0.475023615246162,-0.00025723390968313,-0.023679240955979508,-0.00014352769891412542,-0.16060593614643648
380,0.3688,790.128,281.577,0.0214251,471.898,0.241028,0.122839,0.201693,-0.0240226,-0.175482,0.389587,-0.000256638,-0.000143165,0.316245,0.22347234444019204,0.47637092676099835,-0.00025660507128544285,-0.023736354049809227,-0.00014315475238046993,-0.16094750001746216
381,0.3698,790.43,281.686,0.0220122,472.075,0.242384,0.122642,0.202159,-0.024081,-0.17589,0.390499,-0.000255975,-0.000142799,0.316991,0.2240426154155184,0.4777179912142273,-0.00025594224119485087,-0.02379336618196226,-0.00014278880470808275,-0.16128976361093406
382,0.3708,790.729,281.785,0.0213248,472.252,0.241386,0.123071,0.202626,-0.0241394,-0.176296,0.391411,-0.000255346,-0.000142426,0.317736,0.2246143768128126,0.4790662847506144,-0.00025531340198481356,-0.023850374984703993,-0.00014241585789875888,-0.1616302108514417
383,0.3718,791.03,281.894,0.0218526,472.428,0.242648,0.122893,0.203091,-0.0241977,-0.176703,0.392322,-0.000254684,-0.00014206,0.318481,0.22518395491467613,0.4804143280765263,-0.0002546515707831931,-0.02390728284896204,-0.0001420499099560324,-0.16197135792748596
384,0.3728,791.327,281.993,0.0212236,472.604,0.241733,0.123298,0.203557,-0.0242561,-0.177109,0.393232,-0.000254054,-0.000141687,0.319225,0.22575502368635592,0.48176211826660387,-0.000254021731015297,-0.023964284999164698,-0.00014167696287104015,-0.16231152849686914
385,0.3738,791.626,282.1,0.0216956,472.779,0.242906,0.123138,0.204022,-0.0243144,-0.177515,0.394142,-0.000253394,-0.000141321,0.319969,0.22632513231235296,0.4831111355039759,-0.00025336189845193147,-0.02402118622266247,-0.00014131101465786333,-0.16265156098503353
386,0.3748,791.922,282.199,0.0211217,472.954,0.242071,0.123521,0.204487,-0.0243726,-0.17792,0.395051,-0.000252763,-0.000140949,0.320712,0.22689550610050646,0.48445989644512544,-0.0002527310581241782,-0.02407798653671911,-0.00014093906715639815,-0.1629906184390656
387,0.3758,792.219,282.305,0.0215414,473.128,0.243158,0.12338,0.204951,-0.0244309,-0.178326,0.395959,-0.000252104,-0.000140583,0.321455,0.22746491770861432,0.4858083981582262,-0.0002520722244568896,-0.02413488113161044,-0.00014057311867310407,-0.16333037527267513
388,0.3768,792.513,282.404,0.0210188,473.302,0.242399,0.123741,0.205415,-0.0244891,-0.178731,0.396867,-0.000251472,-0.000140211,0.322197,0.22803459358501366,0.4871581248669461,-0.0002514403835668366,-0.024191674828816012,-0.00014020117089708073,-0.1636691578625845
389,0.3778,792.809,282.509,0.0213898,473.476,0.243403,0.123616,0.205879,-0.0245472,-0.179135,0.397774,-0.000250815,-0.000139845,0.322939,0.2286045338523537,0.4885075891757533,-0.0002507835485474619,-0.02424836764556615,-0.0001398352221437804,-0.16400696728071096
390,0.3788,793.102,282.607,0.020915,473.649,0.242718,0.123956,0.206342,-0.0246053,-0.17954,0.398681,-0.000250182,-0.000139474,0.32368,0.229173509459216,0.489858278003924,-0.0002501507070931108,-0.024305057168559352,-0.00013946427395383765,-0.16434547590633852
391,0.3798,793.396,282.712,0.0212409,473.821,0.243644,0.123848,0.206805,-0.0246634,-0.179944,0.399586,-0.000249527,-0.000139108,0.324421,0.2297427485627792,0.49120721004519874,-0.0002494958707274231,-0.024361743397986912,-0.00013909832493075314,-0.16468301214716086
392,0.3808,793.687,282.81,0.0208104,473.993,0.243027,0.124168,0.207268,-0.0247215,-0.180347,0.400492,-0.000248893,-0.000138737,0.325161,0.23031225128507038,0.49255885598065197,-0.00024886202870688656,-0.024418426334040344,-0.00013872737646747346,-0.16501957707087833
393,0.3818,793.98,282.914,0.0210947,474.165,0.243879,0.124076,0.20773,-0.0247795,-0.180751,0.401396,-0.000248239,-0.000138371,0.3259,0.23088078686677083,0.4939087392417636,-0.0002482081912488221,-0.02447500842441641,-0.00013836142717471578,-0.16535684102983472
394,0.3828,794.27,283.012,0.0207049,474.336,0.243327,0.124376,0.208192,-0.0248375,-0.181154,0.4023,-0.000247605,-0.000138,0.326639,0.23144958517259462,0.4952598433490827,-0.00024757434841182757,-0.02453158723312654,-0.00013799047843798817,-0.16569313445522305
395,0.3838,794.561,283.115,0.0209509,474.507,0.244109,0.124299,0.208654,-0.0248954,-0.181557,0.403203,-0.000246952,-0.000137634,0.327378,0.23201864632394864,0.4966106727953319,-0.00024692150986471706,-0.024588065219172228,-0.00013762452887555732,-0.16602929238166575
396,0.3848,794.849,283.212,0.0205986,474.677,0.243619,0.124581,0.209116,-0.0249534,-0.181959,0.404106,-0.000246317,-0.000137264,0.328116,0.23258797044229484,0.4979627225914762,-0.0002462866664583174,-0.024644637470778386,-0.00013725457972812993,-0.1663644812286561
397,0.3858,795.139,283.314,0.0208097,474.847,0.244335,0.124519,0.209577,-0.0250112,-0.182362,0.405008,-0.000245665,-0.000136898,0.328853,0.2331563244922117,0.4993144945247452,-0.0002456348268247144,-0.024701011381510818,-0.00013688862989635897,-0.16670036865685833
398,0.3868,795.426,283.412,0.0204916,475.016,0.243901,0.124783,0.210037,-0.0250691,-0.182764,0.405909,-0.00024503,-0.000136528,0.32959,0.23372370688942468,0.5006659856396307,-0.0002449999826013016,-0.024757479558182416,-0.0001365186804767049,-0.167035287785403
399,0.3878,795.714,283.513,0.020671,475.185,0.244556,0.124734,0.210498,-0.0251269,-0.183165,0.40681,-0.00024438,-0.000136162,0.330326,0.23429258463454605,0.5020186949967465,-0.00024435014164014834,-0.024813846946830642,-0.00013615273037559383,-0.16736923967317263
400,0.3888,795.999,283.61,0.0203839,475.354,0.244176,0.124982,0.210958,-0.0251847,-0.183567,0.407709,-0.000243744,-0.000135793,0.331062,0.2348604898316593,0.5033696169519828,-0.00024371429684455492,-0.024870211077538062,-0.00013578378054790452,-0.16770388996960772
401,0.3898,796.286,283.711,0.0205345,475.522,0.244773,0.124946,0.211417,-0.0252424,-0.183968,0.408609,-0.000243095,-0.000135427,0.331798,0.23542742089721802,0.5047232586546349,-0.00024306545480468067,-0.02492647444314522,-0.0001354178301777864,-0.1680375738016502
402,0.3908,796.57,283.808,0.0202756,475.689,0.244442,0.125177,0.211877,-0.0253001,-0.184368,0.409508,-0.000242459,-0.000135058,0.332532,0.23599584823909625,0.5060766131058427,-0.00024242960919207412,-0.024982734562449815,-0.00013504888007886962,-0.1683702922240088
403,0.3918,796.855,283.908,0.0204003,475.857,0.244987,0.125153,0.212336,-0.0253578,-0.184769,0.410406,-0.000241811,-0.000134693,0.333267,0.2365633005537815,0.5074296773393261,-0.00024178176607658752,-0.025038991435639146,-0.00013468392930515716,-0.16870370888231911
404,0.3928,797.138,284.004,0.0201668,476.023,0.2447,0.12537,0.212794,-0.0254155,-0.185169,0.411303,-0.000241175,-0.000134324,0.334,0.23712977625846943,0.50878244838701,-0.00024114591964752297,-0.025095245062900506,-0.00013431497893545696,-0.16903616090392914
405,0.3938,797.421,284.103,0.0202683,476.19,0.245196,0.125357,0.213253,-0.0254731,-0.185569,0.4122,-0.000240527,-0.000133958,0.334733,0.23769774916558228,0.5101364334147125,-0.00024049807570025727,-0.025151397959566002,-0.00013394902802776887,-0.1693684799713232
406,0.3948,797.702,284.199,0.0200576,476.356,0.244951,0.12556,0.213711,-0.0255306,-0.185968,0.413096,-0.000239891,-0.00013359,0.335466,0.23826474456673585,0.5114901220209842,-0.0002398622284547347,-0.025207450142667565,-0.00013358107725325308,-0.16969983583792325
407,0.3958,797.984,284.298,0.0201383,476.521,0.245402,0.125557,0.214169,-0.0255882,-0.186368,0.413992,-0.000239245,-0.000133225,0.336198,0.23883199971125957,0.5128450240757907,-0.00023921638319712724,-0.025263596576506564,-0.000133216125943747,-0.17003188948843062
408,0.3968,798.264,284.394,0.0199479,476.686,0.245194,0.125748,0.214626,-0.0256457,-0.186767,0.414887,-0.000238609,-0.000132857,0.33693,0.23939827531924873,0.5141996264664859,-0.00023858053513658994,-0.025319642308373136,-0.00013284817489955802,-0.17036298070743405
409,0.3978,798.545,284.492,0.0200103,476.851,0.245604,0.125754,0.215083,-0.0257032,-0.187165,0.415781,-0.000237963,-0.000132492,0.337661,0.23996480977433254,0.5155539262143338,-0.00023793468905097814,-0.025375684817702804,-0.0001324832233225992,-0.17069311054091774
410,0.3988,798.824,284.587,0.0198381,477.015,0.24543,0.125933,0.21554,-0.0257606,-0.187564,0.416674,-0.000237327,-0.000132124,0.338392,0.24053160319483147,0.5169079203388414,-0.0002372988401753151,-0.02543162664784837,-0.00013211527200873707,-0.17102393798534776
411,0.3998,799.102,284.684,0.0198841,477.179,0.245803,0.125947,0.215996,-0.025818,-0.187962,0.417567,-0.000236683,-0.000131759,0.339122,0.24109741460108447,0.5182631241201334,-0.00023665499278835433,-0.025487565267025114,-0.0001317503201642145,-0.17135380481017715
412,0.4008,799.38,284.78,0.019728,477.342,0.24566,0.126115,0.216452,-0.0258754,-0.18836,0.41846,-0.000236046,-0.000131392,0.339851,0.241663484076174,0.5196195386389162,-0.0002360181433348485,-0.02554350067541722,-0.0001313833684492005,-0.1716835403741328
413,0.4018,799.657,284.876,0.0197597,477.505,0.245998,0.126137,0.216908,-0.0259327,-0.188757,0.419352,-0.000235403,-0.000131027,0.34058,0.24222981173780633,0.5209756440004563,-0.0002353752948878185,-0.025599335433147408,-0.00013101841633755829,-0.1720123167421771
414,0.4028,799.934,284.971,0.0196178,477.668,0.245882,0.126295,0.217363,-0.02599,-0.189154,0.420243,-0.000234766,-0.000130661,0.341309,0.242795154907965,0.5223314372154431,-0.00023473844461896487,-0.025655166991637612,-0.0001306524642232798,-0.1723409626119088
415,0.4038,800.21,285.067,0.019637,477.83,0.24619,0.126324,0.217818,-0.0260473,-0.189551,0.421133,-0.000234124,-0.000130296,0.342037,0.24336075536779478,0.5236869152928363,-0.0002340965951150853,-0.025710995351071242,-0.000130287511844851,-0.17266947803512567
416,0.4048,800.484,285.161,0.0195076,477.992,0.246099,0.126473,0.218273,-0.0261045,-0.189948,0.422023,-0.000233488,-0.00012993,0.342764,0.24392661323438958,0.525043600282715,-0.00023346074379826387,-0.02576672308830874,-0.00012992155946311978,-0.17299786306360454
417,0.4058,800.759,285.257,0.0195159,478.154,0.246378,0.126508,0.218728,-0.0261617,-0.190344,0.422912,-0.000232846,-0.000129565,0.343491,0.2444927286248959,0.5263999668589792,-0.0002328188934740405,-0.02582244763801078,-0.00012955660681790437,-0.17332529107480632
418,0.4068,801.033,285.351,0.0193974,478.315,0.24631,0.126648,0.219182,-0.0262189,-0.19074,0.423801,-0.00023221,-0.000129199,0.344218,0.2450578565980348,0.5277575397812708,-0.00023218304134464685,-0.025878169000359663,-0.00012919065416860942,-0.17365258945018514
419,0.4078,801.306,285.446,0.0193962,478.475,0.246564,0.126688,0.219635,-0.026276,-0.191136,0.424689,-0.000231569,-0.000128834,0.344944,0.2456219955749046,0.5291147910069531,-0.0002315421899685699,-0.02593378976892169,-0.00012882570125660742,-0.17397975824106682
420,0.4088,801.578,285.539,0.0192874,478.635,0.246514,0.126821,0.220089,-0.0263331,-0.191532,0.425576,-0.000230933,-0.000128469,0.345669,0.24618763635163643,0.5304717175345255,-0.00023090633702727015,-0.02598940736162858,-0.00012846074821137865,-0.17430679749875666
421,0.4098,801.85,285.634,0.019278,478.795,0.246746,0.126866,0.220542,-0.0263902,-0.191927,0.426463,-0.000230293,-0.000128105,0.346394,0.2467522872346728,0.5318298481898798,-0.00023026648460255927,-0.026045021778661415,-0.00012809679490488612,-0.174632881907834
422,0.4108,802.121,285.727,0.0191775,478.955,0.246714,0.126992,0.220995,-0.0264472,-0.192322,0.427349,-0.000229657,-0.00012774,0.347119,0.24731719396250362,0.5331876508531332,-0.0002296306308497975,-0.02610053563026027,-0.0001277318415935369,-0.1749588375390052
423,0.4118,802.391,285.821,0.019161,479.114,0.246925,0.127041,0.221447,-0.0265042,-0.192716,0.428235,-0.000229018,-0.000127376,0.347843,0.24788110876932024,0.5345466570626387,-0.00022899177737967236,-0.026156046317659776,-0.00012736788802170107,-0.17528383972737938
424,0.4128,802.661,285.914,0.0190679,479.272,0.246908,0.12716,0.221899,-0.0265612,-0.193111,0.42912,-0.000228383,-0.000127011,0.348566,0.24844527852324316,0.5359053319791107,-0.0002283569225879356,-0.026211553841040236,-0.00012700293444445343,-0.17560953828098802
425,0.4138,802.93,286.007,0.0190454,479.431,0.247101,0.127213,0.222351,-0.0266181,-0.193505,0.430004,-0.000227744,-0.000126647,0.349289,0.24900970333953443,0.5372636725906736,-0.00022771806830390595,-0.02626696082728297,-0.0001266389806072743,-0.17593428414376933
426,0.4148,803.199,286.099,0.0189585,479.588,0.247097,0.127327,0.222803,-0.026675,-0.193899,0.430888,-0.000227109,-0.000126283,0.350011,0.24957438333350868,0.5386232145062353,-0.0002270832127032607,-0.02632236466095783,-0.00012627502663764556,-0.17625890208188344
427,0.4158,803.467,286.192,0.018931,479.746,0.247274,0.127382,0.223254,-0.0267319,-0.194292,0.431771,-0.000226471,-0.000125919,0.350733,0.2501380684818386,0.5399824188050293,-0.0002264453573789238,-0.02637776534224434,-0.0001259110725354562,-0.17658256872870337
428,0.4168,803.734,286.284,0.0188495,479.903,0.247281,0.127491,0.223705,-0.0267887,-0.194685,0.432653,-0.000225836,-0.000125555,0.351454,0.25070200790950614,0.5413412824692001,-0.0002258105009701472,-0.02643306551463309,-0.00012554711830081722,-0.1769061081995228
429,0.4178,804.0,286.377,0.0188177,480.06,0.247443,0.127549,0.224155,-0.0268455,-0.195078,0.433535,-0.000225199,-0.000125192,0.352175,0.2512649504656408,0.5427013451798246,-0.00022517364460861167,-0.02648836254606135,-0.00012518416380857822,-0.17722952054431207
430,0.4188,804.266,286.468,0.0187409,480.216,0.24746,0.127653,0.224606,-0.0269023,-0.195471,0.434416,-0.000224565,-0.000124828,0.352896,0.2518293982317046,0.5440610639330921,-0.00022453978716774348,-0.026543656436707308,-0.0001248202093093731,-0.1775528058130219
431,0.4198,804.531,286.56,0.0187055,480.372,0.24761,0.127714,0.225055,-0.026959,-0.195863,0.435297,-0.000223928,-0.000124465,0.353616,0.2523915958354277,0.5454219811264165,-0.00022390292999674433,-0.026598849846639405,-0.0001244572545532341,-0.1778751419311364
432,0.4208,804.796,286.651,0.0186328,480.528,0.247635,0.127814,0.225505,-0.0270157,-0.196255,0.436177,-0.000223294,-0.000124101,0.354335,0.2529552988772257,0.5467825510327644,-0.0002232690717502983,-0.026654040127193857,-0.00012409329978946282,-0.17819735171825513
433,0.4218,805.06,286.743,0.0185943,480.683,0.247774,0.127876,0.225954,-0.0270724,-0.196647,0.437056,-0.000222659,-0.000123739,0.355054,0.2535180021238468,0.5481427706240525,-0.00022263421332457956,-0.026709227278548076,-0.00012373134464571667,-0.17851943522389002
434,0.4228,805.323,286.833,0.018525,480.838,0.247806,0.127972,0.226403,-0.027129,-0.197038,0.437935,-0.000222025,-0.000123375,0.355772,0.2540809580809551,0.549504186373996,-0.00022200035427366593,-0.026764313977315823,-0.00012336738961771232,-0.17884057133851583
435,0.4238,805.586,286.924,0.0184841,480.992,0.247935,0.128035,0.226852,-0.0271856,-0.19743,0.438813,-0.00022139,-0.000123013,0.35649,0.25464416686204294,0.5508652484684569,-0.00022136549504236935,-0.02681939755826468,-0.00012300543421117638,-0.179162402751473
436,0.4248,805.848,287.015,0.0184178,481.146,0.247973,0.128128,0.2273,-0.0272422,-0.197821,0.439691,-0.000220757,-0.00012265,0.357207,0.2552063733736525,0.5522275061002004,-0.00022073263496646955,-0.026874478021571058,-0.00012264247879623102,-0.1794832875149378
437,0.4258,806.11,287.105,0.0183748,481.3,0.248093,0.128193,0.227748,-0.0272987,-0.198211,0.440568,-0.000220122,-0.000122288,0.357924,0.2557688318102065,0.5535894067291864,-0.00022009777493003924,-0.026929458060362177,-0.00012228052312734938,-0.17980322664062232
438,0.4268,806.371,287.195,0.0183111,481.454,0.248136,0.128282,0.228196,-0.0273552,-0.198602,0.441444,-0.000219489,-0.000121926,0.35864,0.2563315422845922,0.554950947317191,-0.00021946491405167023,-0.026984434992868733,-0.0001219185673273504,-0.18012386089092502
439,0.4278,806.631,287.285,0.0182665,481.607,0.248248,0.128348,0.228643,-0.0274117,-0.198992,0.44232,-0.000218856,-0.000121564,0.359356,0.25689324801587143,0.55631368113731,-0.00021883205277262174,-0.027039408819266475,-0.0001215566113963451,-0.180443550241702
440,0.4288,806.891,287.375,0.018205,481.759,0.248295,0.128435,0.22909,-0.0274681,-0.199381,0.443195,-0.000218223,-0.000121202,0.360072,0.2574552048857379,0.5576760515584422,-0.00021819919109300479,-0.02709428224916377,-0.00012119465533433349,-0.18076229570064684
441,0.4298,807.15,287.464,0.0181591,481.912,0.2484,0.128501,0.229537,-0.0275245,-0.199771,0.444069,-0.00021759,-0.00012084,0.360786,0.25801741300647585,0.5590380555365426,-0.00021756632901281936,-0.027149152584286962,-0.00012083269914131556,-0.1810817361103948
442,0.4308,807.408,287.553,0.0180994,482.063,0.248451,0.128585,0.229983,-0.0275809,-0.20016,0.444943,-0.000216958,-0.000120478,0.361501,0.25857861391117565,0.5604012504264724,-0.0002169344663150996,-0.027204019824810466,-0.00012047074281718029,-0.1814002333633159
443,0.4318,807.666,287.642,0.0180525,482.215,0.24855,0.128652,0.23043,-0.0276372,-0.200549,0.445816,-0.000216326,-0.000120117,0.362215,0.2591413243079981,0.5617640755046873,-0.00021630260321803263,-0.02725878669679238,-0.00012010978624199531,-0.18171860674490015
444,0.4328,807.923,287.731,0.0179944,482.366,0.248603,0.128734,0.230875,-0.0276935,-0.200938,0.446689,-0.000215695,-0.000119756,0.362928,0.25970176688654045,0.5631280908486709,-0.00021567173950587382,-0.027313550485486227,-0.00011974882953647015,-0.1820368563033241
445,0.4338,808.18,287.82,0.0179467,482.517,0.248697,0.128801,0.231321,-0.0277498,-0.201326,0.447561,-0.000215063,-0.000119394,0.363641,0.2602637191806183,0.5644917330054637,-0.00021503987561077853,-0.027368311191065642,-0.00011938687281998206,-0.1823541644413189
446,0.4348,808.436,287.908,0.01789,482.668,0.248752,0.128881,0.231766,-0.027806,-0.201714,0.448433,-0.000214432,-0.000119033,0.364353,0.26082466133602655,0.5658565647768139,-0.00021440901110192367,-0.027422971556006037,-0.00011902591585355449,-0.18267134948763752
447,0.4358,808.691,287.996,0.0178417,482.818,0.248841,0.128949,0.232211,-0.0278622,-0.202102,0.449304,-0.000213801,-0.000118673,0.365065,0.2613858531662425,0.5672210199787138,-0.00021377814619494284,-0.027477628849120306,-0.00011866595863807561,-0.1829884114900302
448,0.4368,808.946,288.084,0.0177862,482.968,0.248897,0.129026,0.232655,-0.0279184,-0.20249,0.450174,-0.000213171,-0.000118312,0.365777,0.26194603283573237,0.568585095552931,-0.00021314828067675595,-0.027532283070580976,-0.00011830500141130074,-0.18330535049622876
449,0.4378,809.201,288.172,0.0177375,483.117,0.248982,0.129094,0.2331,-0.0279745,-0.202877,0.451044,-0.00021254,-0.000117952,0.366487,0.2625077237873119,0.569950358389282,-0.00021251741497430032,-0.02758683697924924,-0.00011794504393636274,-0.1836213501757048
450,0.4388,809.454,288.26,0.017683,483.266,0.24904,0.12917,0.233544,-0.0280306,-0.203264,0.451913,-0.00021191,-0.000117591,0.367198,0.2630684016779543,0.5713152382051101,-0.00021188754866185988,-0.027641387827529118,-0.00011758408644935159,-0.1839372275869653
451,0.4398,809.707,288.347,0.017634,483.415,0.249121,0.129237,0.233987,-0.0280867,-0.203651,0.452781,-0.00021128,-0.000117231,0.367908,0.26362806493615665,0.5726797319364814,-0.00021125768195262573,-0.02769593561559225,-0.00011722412871484345,-0.18425298277731894
452,0.4408,809.96,288.434,0.0175805,483.564,0.24918,0.129312,0.23443,-0.0281427,-0.204037,0.453649,-0.000210651,-0.000116871,0.368617,0.2641879761801069,0.5740454105625814,-0.00021062881463596028,-0.02775038311865341,-0.00011686417085077228,-0.18456780036226417
453,0.4418,810.212,288.521,0.0175313,483.712,0.249257,0.129379,0.234873,-0.0281987,-0.204423,0.454517,-0.000210022,-0.000116511,0.369326,0.2647481355196877,0.5754122751123454,-0.00020999994692361135,-0.027804827572739832,-0.00011650421285702706,-0.1848824964510718
454,0.4428,810.463,288.608,0.0174785,483.859,0.249317,0.129452,0.235316,-0.0282547,-0.204809,0.455383,-0.000209393,-0.000116152,0.370035,0.2653085430648292,0.5767771730581019,-0.00020937107881580097,-0.027859268978022156,-0.0001161452546175612,-0.18519707109063044
455,0.4438,810.714,288.694,0.0174293,484.007,0.249391,0.129519,0.235758,-0.0283107,-0.205195,0.456249,-0.000208765,-0.000115792,0.370742,0.2658679330569449,0.5781432535174342,-0.00020874321010377894,-0.027913707334671245,-0.00011578529636513402,-0.18551152432781026
456,0.4448,810.964,288.781,0.0173772,484.154,0.249451,0.12959,0.236201,-0.0283666,-0.20558,0.457115,-0.000208137,-0.000115433,0.37145,0.26642883678229135,0.5795105175148423,-0.00020811534099729467,-0.027968045439667022,-0.00011542633786765233,-0.1858250420349129
457,0.4458,811.214,288.867,0.017328,484.301,0.249523,0.129657,0.236642,-0.0284224,-0.205965,0.45798,-0.000207509,-0.000115074,0.372157,0.2669874550655904,0.5808773851975382,-0.0002074874714965702,-0.028022283309480867,-0.00011506737924127375,-0.18613843906093086
458,0.4468,811.463,288.953,0.0172766,484.447,0.249582,0.129727,0.237084,-0.0284783,-0.20635,0.458844,-0.000206881,-0.000114715,0.372863,0.26754758730083417,0.5822438534876448,-0.00020685960160160555,-0.0280766153452493,-0.00011470842048599827,-0.18645171545231742
459,0.4478,811.712,289.039,0.0172274,484.593,0.249652,0.129793,0.237525,-0.0285341,-0.206735,0.459708,-0.000206254,-0.000114356,0.373569,0.26810669906191587,0.583611502916533,-0.00020623273110598195,-0.028130847157031402,-0.00011434946160182591,-0.186764871255508
460,0.4488,811.96,289.124,0.0171765,484.739,0.249711,0.129862,0.237966,-0.0285899,-0.207119,0.460571,-0.000205627,-0.000113997,0.374275,0.2686660574456603,0.5849787495256047,-0.00020560586021745042,-0.02818507594276287,-0.00011399050258886767,-0.18707709359442026
461,0.4498,812.207,289.21,0.0171275,484.884,0.249779,0.129928,0.238406,-0.0286456,-0.207503,0.461434,-0.000205,-0.000113639,0.37498,0.2692243933358245,0.5863471765777881,-0.00020497898893578892,-0.02823920452653772,-0.00011363254333340844,-0.1873891960629709
462,0.4508,812.454,289.295,0.0170771,485.03,0.249837,0.129996,0.238846,-0.0287013,-0.207887,0.462296,-0.000204373,-0.00011328,0.375685,0.2697829749478351,0.587715197376254,-0.00020435211726110847,-0.028293330095434555,-0.00011327358406310051,-0.1877011787071814
463,0.4518,812.701,289.38,0.0170282,485.174,0.249903,0.130061,0.239286,-0.028757,-0.20827,0.463157,-0.000203747,-0.000112922,0.376389,0.27034180238983363,0.5890828088334408,-0.00020372624498965486,-0.02834745264962113,-0.00011291562455095772,-0.18801222958569097
464,0.4528,812.946,289.465,0.0169784,485.319,0.249961,0.130128,0.239726,-0.0288127,-0.208653,0.464018,-0.000203122,-0.000112564,0.377092,0.2709008757700091,0.5904515983111571,-0.00020310137212320445,-0.02840157218926531,-0.00011255766491069519,-0.1883231613545251
465,0.4538,813.192,289.549,0.0169296,485.463,0.250025,0.130193,0.240165,-0.0288683,-0.209036,0.464878,-0.000202496,-0.000112206,0.377795,0.2714589237370386,0.5918199750033448,-0.00020247549906882156,-0.028455591560099247,-0.0001121997051422019,-0.18863397405929394
466,0.4548,813.436,289.634,0.0168802,485.607,0.250083,0.130259,0.240604,-0.0289239,-0.209419,0.465738,-0.000201871,-0.000111849,0.378498,0.2720172167409072,0.5931895290056584,-0.00020185062542066312,-0.028509607927539538,-0.00011184274513376113,-0.18894466774559038
467,0.4558,813.68,289.718,0.0168317,485.75,0.250145,0.130323,0.241043,-0.0289794,-0.209801,0.466597,-0.000201246,-0.000111491,0.3792,0.2725757548892098,0.5945586667715563,-0.00020122575138203924,-0.028563524148110586,-0.00011148478510947246,-0.18925443171382672
468,0.4568,813.924,289.802,0.0167827,485.893,0.250202,0.130388,0.241481,-0.0290349,-0.210183,0.467456,-0.000200621,-0.000111134,0.379902,0.2731332651556868,0.5959289811320703,-0.00020060087695294992,-0.028617437376414423,-0.00011112782484579142,-0.1895640773748255
469,0.4578,814.167,289.886,0.0167345,486.036,0.250263,0.130452,0.241919,-0.0290904,-0.210565,0.468313,-0.000199997,-0.000110777,0.380603,0.27369101966514586,0.5972972785005775,-0.00019997700193319368,-0.028671347612617137,-0.00011077086445465678,-0.18987360477377113
470,0.4588,814.41,289.969,0.0166858,486.179,0.250319,0.130516,0.242357,-0.0291459,-0.210947,0.469171,-0.000199373,-0.00011042,0.381304,0.2742490185245885,0.5986683476700936,-0.00019935312652419324,-0.02872525485688482,-0.00011041390393617956,-0.19018301395583126
471,0.4598,814.652,290.053,0.0166378,486.321,0.250379,0.130579,0.242795,-0.0292013,-0.211328,0.470028,-0.000198749,-0.000110063,0.382004,0.27480726184106397,0.6000389936819739,-0.0001987292507259486,-0.028779061987294408,-0.00011005694329024873,-0.19049149545805621
472,0.4608,814.893,290.136,0.0165896,486.463,0.250434,0.130642,0.243232,-0.0292567,-0.211709,0.470884,-0.000198126,-0.000109706,0.382704,0.27536447435655576,0.6014092134309508,-0.00019810637434025669,-0.028832866136871638,-0.0001096999825168643,-0.1907998594512158
473,0.4618,815.134,290.219,0.0165418,486.604,0.250492,0.130705,0.243669,-0.0293121,-0.21209,0.471739,-0.000197503,-0.00010935,0.383403,0.2759219304271294,0.6027790038103755,-0.0001974834975664308,-0.028886667305781488,-0.00010934402150664102,-0.19110810598007244
474,0.4628,815.374,290.302,0.016494,486.746,0.250547,0.130767,0.244105,-0.0293674,-0.21247,0.472594,-0.00019688,-0.000108993,0.384102,0.2764783536802504,0.6041499658613929,-0.000196860620404693,-0.028940368388230886,-0.00010898706047879347,-0.19141542650520216
475,0.4638,815.614,290.385,0.0164465,486.887,0.250604,0.130829,0.244542,-0.0294227,-0.212851,0.473449,-0.000196258,-0.000108637,0.3848,0.27703629662246243,0.6055221005862106,-0.0001962387426585055,-0.028994066501092486,-0.00010863109921477321,-0.1917234385476836
476,0.4648,815.854,290.468,0.0163989,487.027,0.250658,0.130891,0.244978,-0.029478,-0.213231,0.474303,-0.000195636,-0.000108281,0.385498,0.2775932058451782,0.6068938020932877,-0.00019561686452562732,-0.0290477616445306,-0.0001082751378240765,-0.19203052529085896
477,0.4658,816.093,290.55,0.0163517,487.168,0.250714,0.130952,0.245413,-0.0295332,-0.21361,0.475156,-0.000195014,-0.000107926,0.386195,0.2781490797835371,0.6082650672679248,-0.00019499498600594745,-0.029101356728849948,-0.00010792017619876138,-0.1923366877003324
478,0.4668,816.331,290.632,0.0163045,487.308,0.250767,0.131013,0.245849,-0.0295884,-0.21399,0.476009,-0.000194392,-0.00010757,0.386892,0.2787064742854941,0.6096375026307703,-0.00019437310709935485,-0.029154948854802187,-0.00010756421455504483,-0.1926435414531008
479,0.4678,816.569,290.714,0.0162576,487.447,0.250822,0.131074,0.246284,-0.0296436,-0.214369,0.476861,-0.000193771,-0.000107215,0.387589,0.27926283260096896,0.6110094981701166,-0.00019375222761230937,-0.029208538022550745,-0.000107209252677265,-0.1929494715734702
480,0.4688,816.806,290.796,0.0162107,487.587,0.250874,0.131134,0.246719,-0.0296987,-0.214748,0.477712,-0.00019315,-0.000106859,0.388285,0.27981943298495704,0.6123810507659158,-0.00019313134773968343,-0.029262027158466486,-0.00010685329078041761,-0.19325528576829332
481,0.4698,817.043,290.878,0.0161641,487.726,0.250927,0.131194,0.247153,-0.0297538,-0.215126,0.478563,-0.00019253,-0.000106504,0.38898,0.2803749951671457,0.6137537710497545,-0.0001925114672889361,-0.029315513347212052,-0.00010649832865028408,-0.19356017764207845
482,0.4708,817.279,290.959,0.0161175,487.865,0.250979,0.131254,0.247587,-0.0298089,-0.215505,0.479414,-0.00019191,-0.000106149,0.389675,0.28093079851565084,0.6151276600157585,-0.00019189158645382953,-0.02936899658894976,-0.00010614336639425126,-0.19386576042315717
483,0.4718,817.515,291.04,0.0160712,488.003,0.251032,0.131313,0.248021,-0.0298639,-0.215883,0.480264,-0.00019129,-0.000105795,0.39037,0.28148684313516115,0.6165011021569893,-0.0001912717052344748,-0.029422379826084866,-0.00010578940390637559,-0.19417042158113074
484,0.4728,817.75,291.122,0.0160249,488.141,0.251083,0.131372,0.248455,-0.0299189,-0.216261,0.481113,-0.00019067,-0.00010544,0.391064,0.2820431291304111,0.6178740943454335,-0.00019065182363076083,-0.02947576012722275,-0.00010543444139854419,-0.19447496759894956
485,0.4738,817.985,291.202,0.0159789,488.279,0.251134,0.131431,0.248888,-0.0299739,-0.216638,0.481962,-0.000190051,-0.000105086,0.391757,0.28259837400716514,0.6192482526992127,-0.00019003294145270022,-0.029529137492524726,-0.00010508047865975811,-0.19477859329912406
486,0.4748,818.219,291.283,0.0159329,488.417,0.251184,0.131489,0.249321,-0.0300288,-0.217016,0.48281,-0.000189432,-0.000104731,0.392451,0.28315385935700954,0.6206219575860539,-0.00018941405889161267,-0.0295824148803987,-0.00010472551590023915,-0.19508290947147688
487,0.4758,818.453,291.364,0.0158872,488.554,0.251234,0.131547,0.249754,-0.0300838,-0.217393,0.483657,-0.000188813,-0.000104377,0.393143,0.2837095852840916,0.6219952058726803,-0.00018879517594738715,-0.029635786379850648,-0.00010437155291043165,-0.19538630602076323
488,0.4768,818.686,291.444,0.0158415,488.691,0.251284,0.131605,0.250186,-0.0301386,-0.217769,0.484504,-0.000188195,-0.000104024,0.393835,0.2842642676276943,0.6233696177933348,-0.00018817729243181258,-0.029688960881762316,-0.00010401858969133482,-0.19568878390029443
489,0.4778,818.919,291.524,0.015796,488.828,0.251333,0.131663,0.250618,-0.0301935,-0.218146,0.485351,-0.000187577,-0.00010367,0.394527,0.2848191896458352,0.6247451943340332,-0.00018755940853443231,-0.029742229495573036,-0.00010366462645128305,-0.19599195207797182
490,0.4788,819.151,291.605,0.0157507,488.964,0.251382,0.13172,0.25105,-0.0302483,-0.218522,0.486197,-0.000186959,-0.000103316,0.395218,0.28537435144207635,0.6261203103605029,-0.00018694152425524635,-0.029795398164561893,-0.0001033106630858871,-0.19629420227739203
491,0.4798,819.383,291.684,0.0157055,489.101,0.251431,0.131777,0.251482,-0.0303031,-0.218898,0.487042,-0.000186342,-0.000102963,0.395909,0.285929753120024,0.6274949627315896,-0.00018632463940781996,-0.02984856391998747,-0.00010295769949220102,-0.19659633885210015
492,0.4808,819.614,291.764,0.0156604,489.236,0.251478,0.131833,0.251913,-0.0303579,-0.219274,0.487887,-0.000185725,-0.00010261,0.3966,0.2864841082985783,0.6288707771748363,-0.00018570775417980911,-0.02990172676200953,-0.00010260473577405893,-0.1968983618448109
493,0.4818,819.845,291.844,0.0156155,489.372,0.251526,0.13189,0.252344,-0.0304126,-0.219649,0.488731,-0.000185108,-0.000102257,0.397289,0.2870387024557106,0.6302461244256694,-0.00018509086857121382,-0.02995478968627141,-0.00010225177193112778,-0.197199468498093
494,0.4828,820.075,291.923,0.0155708,489.507,0.251573,0.131946,0.252774,-0.0304673,-0.220025,0.489574,-0.000184492,-0.000101904,0.397979,0.2875922481015514,0.6316210013377574,-0.00018447498239748672,-0.03000784970807069,-0.00010189880796374062,-0.1975012647566855
495,0.4838,820.305,292.002,0.0155261,489.642,0.25162,0.132001,0.253205,-0.0305219,-0.2204,0.490418,-0.000183876,-0.000101551,0.398668,0.2881473199698781,0.6329986707576014,-0.00018385909584439641,-0.030060809833652113,-0.00010154584387178645,-0.19780214536376206
496,0.4848,820.534,292.081,0.0154817,489.777,0.251666,0.132057,0.253635,-0.0305766,-0.220774,0.49126,-0.00018326,-0.000101199,0.399356,0.2887013424237561,0.6343742346695174,-0.0001832432089119429,-0.030113864056308004,-0.0001011938795538736,-0.19810211126427602
497,0.4858,820.763,292.16,0.0154373,489.911,0.251713,0.132112,0.254065,-0.0306312,-0.221149,0.492102,-0.000182644,-0.000100847,0.400044,0.28925560315851606,0.6357509572939968,-0.00018262732160001516,-0.030166818393663974,-0.00010084191511228191,-0.19840276659615397
498,0.4868,820.991,292.239,0.0153931,490.046,0.251758,0.132167,0.254494,-0.0306857,-0.221523,0.492943,-0.000182029,-0.000100495,0.400732,0.2898088124671834,0.6371272024790653,-0.00018201243372673037,-0.03021967286176408,-0.00010048995054667831,-0.19870250790632804
499,0.4878,821.219,292.318,0.0153491,490.179,0.251803,0.132222,0.254923,-0.0307403,-0.221897,0.493784,-0.000181414,-0.000100143,0.401419,0.29036225915355796,0.6385046055731669,-0.00018139754547530362,-0.030272621422117063,-0.00010013798585717382,-0.1990021371342129
500,0.4888,821.447,292.396,0.0153052,490.313,0.251848,0.132276,0.255352,-0.0307948,-0.222271,0.494624,-0.0001808,-9.9791e-05,0.402106,0.2909159433194968,0.6398815276681653,-0.00018078365666496232,-0.030325470124109355,-9.978602104376844e-05,-0.19930165432171942
501,0.4898,821.674,292.474,0.0152614,490.446,0.251893,0.13233,0.255781,-0.0308493,-0.222644,0.495464,-0.000180186,-9.94394e-05,0.402792,0.2914698650669003,0.6412596068636376,-0.0001801697674777003,-0.03037831594592577,-9.943445606674928e-05,-0.1996002591114021
502,0.4908,821.9,292.552,0.0152178,490.579,0.251937,0.132384,0.256209,-0.0309037,-0.223017,0.496303,-0.000179572,-9.9088e-05,0.403478,0.2920227324743345,0.6426372014939339,-0.00017955587791340655,-0.030431061930834558,-9.908309094630585e-05,-0.19989875254226785
503,0.4918,822.126,292.63,0.0151743,490.712,0.251981,0.132437,0.256637,-0.0309581,-0.22339,0.497142,-0.000178958,-9.87368e-05,0.404163,0.29257583655966446,0.6440159524111193,-0.0001789419879723031,-0.03048380504643977,-9.873192568254918e-05,-0.200197134655846
504,0.4928,822.352,292.708,0.0151309,490.845,0.252024,0.132491,0.257065,-0.0310125,-0.223763,0.49798,-0.000178345,-9.83858e-05,0.404848,0.29312917742420996,0.6453942151906882,-0.0001783290974758378,-0.03053654529289751,-9.838096027592336e-05,-0.20049540549364997
505,0.4938,822.577,292.785,0.0150877,490.977,0.252067,0.132544,0.257492,-0.0310668,-0.224135,0.498817,-0.000177732,-9.8035e-05,0.405532,0.29368146148722607,0.6467719866657298,-0.00017771620660378407,-0.03058918572928737,-9.803019472642838e-05,-0.20079276589034334
506,0.4948,822.801,292.863,0.0150446,491.109,0.25211,0.132596,0.25792,-0.0311212,-0.224507,0.499654,-0.00017712,-9.76843e-05,0.406216,0.29423527566052154,0.6481509118182425,-0.00017710431517881098,-0.0306419202431919,-9.7679529044159e-05,-0.20109001568954166
507,0.4958,823.026,292.94,0.0150017,491.24,0.252153,0.132649,0.258346,-0.0311755,-0.224879,0.500491,-0.000176508,-9.73338e-05,0.4069,0.2947867373409512,0.6495309916142591,-0.0001764924233794707,-0.030694554957877207,-9.732906321935353e-05,-0.20138715493237935
508,0.4968,823.249,293.017,0.0149589,491.372,0.252195,0.132701,0.258773,-0.0312297,-0.225251,0.501326,-0.000175896,-9.69835e-05,0.407583,0.29533972933318386,0.650908925199468,-0.00017588053120554115,-0.03074708988928898,-9.697879725234504e-05,-0.20168418365997576
509,0.4978,823.472,293.094,0.0149162,491.503,0.252236,0.132753,0.259199,-0.0312839,-0.225622,0.502162,-0.000175284,-9.66334e-05,0.408265,0.295891661611108,0.652289662128555,-0.0001752686386572444,-0.030799621973384705,-9.662873114335557e-05,-0.201980303894138
510,0.4988,823.695,293.171,0.0148736,491.634,0.252278,0.132805,0.259625,-0.0313381,-0.225993,0.502996,-0.000174673,-9.62834e-05,0.408947,0.29644382906227107,0.6536682464965449,-0.00017465774555969205,-0.03085215121031859,-9.627876490225784e-05,-0.2022763142880699
511,0.4998,823.917,293.247,0.0148312,491.764,0.252319,0.132856,0.260051,-0.0313923,-0.226364,0.503831,-0.000174062,-9.59336e-05,0.409629,0.29699623178687795,0.6550496361322808,-0.00017404685208899373,-0.030904677600244956,-9.592899851929015e-05,-0.20257221488251476
512,0.5008,824.139,293.324,0.014789,491.894,0.25236,0.132907,0.260477,-0.0314464,-0.226735,0.504664,-0.000173451,-9.55841e-05,0.41031,0.2975488698851767,0.6564288668490197,-0.0001734359582449274,-0.030957104239033417,-9.557953198546798e-05,-0.20286800571820063
513,0.5018,824.361,293.4,0.0147468,492.024,0.2524,0.132958,0.260902,-0.0315005,-0.227105,0.505497,-0.000172841,-9.52346e-05,0.410991,0.29810044535636315,0.657809246943595,-0.00017282606385493615,-0.031009528041617385,-9.523006532941025e-05,-0.2031628899991288
514,0.5028,824.582,293.476,0.0147048,492.154,0.25244,0.133009,0.261327,-0.0315546,-0.227475,0.50633,-0.000172231,-9.48854e-05,0.411671,0.29865225529694595,0.6591907773738375,-0.00017221616909279813,-0.031061949008150402,-9.48808985228311e-05,-0.2034576651930553
515,0.5038,824.802,293.552,0.014663,492.284,0.25248,0.133059,0.261751,-0.0316086,-0.227845,0.507162,-0.000171622,-9.45364e-05,0.412351,0.2992030006029458,0.6605717985257471,-0.00017160727378706664,-0.031114270250217735,-9.45319315753812e-05,-0.203752331340335
516,0.5048,825.022,293.628,0.0146212,492.413,0.252519,0.13311,0.262176,-0.0316627,-0.228215,0.507993,-0.000171012,-9.41875e-05,0.41303,0.29975527922909717,0.6619523072122375,-0.00017099737828141226,-0.031166685550350515,-9.418306449671121e-05,-0.2040468884813076
517,0.5058,825.242,293.704,0.0145796,492.542,0.252559,0.13316,0.2626,-0.0317166,-0.228584,0.508824,-0.000170403,-9.38388e-05,0.413709,0.30030649231640694,0.6633339635782411,-0.00017038848223338565,-0.03121890425869256,-9.383439727750353e-05,-0.20434054099723675
518,0.5068,825.461,293.779,0.0145381,492.671,0.252597,0.133209,0.263023,-0.0317706,-0.228953,0.509654,-0.000169795,-9.34903e-05,0.414388,0.3008566383103315,0.6647151038619399,-0.0001697805856448742,-0.03127121702540514,-9.348592991809124e-05,-0.20463408517537718
519,0.5078,825.68,293.855,0.0144968,492.799,0.252636,0.133259,0.263447,-0.0318245,-0.229322,0.510484,-0.000169186,-9.31419e-05,0.415066,0.3014083184729046,0.6660973909679395,-0.00016917168885577372,-0.03132343009965255,-9.313756242790294e-05,-0.204927521055698
520,0.5088,825.898,293.93,0.0144556,492.927,0.252674,0.133308,0.26387,-0.0318784,-0.229691,0.511313,-0.000168578,-9.27938e-05,0.415743,0.3019589306378814,0.6674791583685056,-0.00016856379152740963,-0.03137564035969098,-9.27894947885255e-05,-0.20522084867815382
521,0.5098,826.116,294.005,0.0144145,493.055,0.252712,0.133357,0.264293,-0.0319322,-0.230059,0.512142,-0.000167971,-9.24458e-05,0.41642,0.3025097757610713,0.6688620717291813,-0.00016795689366144728,-0.03142775094845218,-9.244152701870512e-05,-0.20551327359635518
522,0.5108,826.333,294.08,0.0143735,493.183,0.25275,0.133406,0.264715,-0.0319861,-0.230427,0.51297,-0.000167363,-9.2098e-05,0.417097,0.303059550880834,0.6702444617550651,-0.00016734899559445182,-0.031479955585748454,-9.209375910934625e-05,-0.20580559092198492
523,0.5118,826.55,294.154,0.0143327,493.31,0.252787,0.133455,0.265138,-0.0320399,-0.230795,0.513798,-0.000166756,-9.17504e-05,0.417773,0.30361086166486695,0.6716279968738934,-0.00016674209699107934,-0.031532060562501574,-9.174619106078197e-05,-0.20609780069462968
524,0.5128,826.767,294.229,0.014292,493.437,0.252824,0.133503,0.26556,-0.0320936,-0.231163,0.514625,-0.00016615,-9.1403e-05,0.418449,0.30416110154093756,0.6730110050223543,-0.0001661361978532172,-0.031584065894493696,-9.139882287301226e-05,-0.20638990295386195
525,0.5138,826.983,294.303,0.0142514,493.564,0.252861,0.133551,0.265982,-0.0321474,-0.23153,0.515451,-0.000165543,-9.10557e-05,0.419125,0.3047115736672372,0.6743934829973037,-0.00016552929851365583,-0.031636165270262806,-9.105155455557679e-05,-0.20668110442074028
526,0.5148,827.198,294.378,0.014211,493.691,0.252898,0.133599,0.266403,-0.0322011,-0.231897,0.516277,-0.000164937,-9.07087e-05,0.419799,0.30526097288017096,0.6757771033708062,-0.00016492339864082606,-0.03168816501198224,-9.070458609028442e-05,-0.2069721990362886
527,0.5158,827.414,294.452,0.0141706,493.817,0.252934,0.133647,0.266824,-0.0322548,-0.232264,0.517103,-0.000164332,-9.03618e-05,0.420474,0.3058106034388679,0.6771618670868726,-0.00016431849823650424,-0.03174016196139051,-9.035771749554833e-05,-0.20726318683971423
528,0.5168,827.628,294.526,0.0141305,493.943,0.25297,0.133694,0.267245,-0.0323084,-0.23263,0.517928,-0.000163726,-9.00151e-05,0.421148,0.3063604654407457,0.6785460965433585,-0.00016371259762992807,-0.03179205929784834,-9.0011048762495e-05,-0.2075532754238818
529,0.5178,827.843,294.6,0.0140904,494.069,0.253006,0.133742,0.267666,-0.032362,-0.232997,0.518752,-0.000163121,-8.96685e-05,0.421822,0.3069105589832619,0.6799297885297173,-0.0001631076964930811,-0.03184395385268346,-8.966447990021997e-05,-0.20784405001140072
530,0.5188,828.057,294.673,0.0140504,494.195,0.253041,0.133789,0.268086,-0.0324156,-0.233363,0.519576,-0.000162517,-8.93222e-05,0.422495,0.3074595767036856,0.6813146211481489,-0.0001625037948277397,-0.03189584562604497,-8.931821089108727e-05,-0.20813392603854775
531,0.5198,828.27,294.747,0.0140106,494.32,0.253076,0.133835,0.268506,-0.0324691,-0.233729,0.520399,-0.000161912,-8.8976e-05,0.423167,0.30800882505998217,0.6826989126391672,-0.0001618988929594778,-0.03194763781285059,-8.897204175306594e-05,-0.20842369599048172
532,0.5208,828.483,294.82,0.0139709,494.445,0.253111,0.133882,0.268926,-0.0325227,-0.234094,0.521222,-0.000161308,-8.863e-05,0.42384,0.3085583041490385,0.6840843438710218,-0.00016129499056405372,-0.03199952402890083,-8.862607247761556e-05,-0.20871256861898335
533,0.5218,828.696,294.894,0.0139313,494.57,0.253146,0.133928,0.269346,-0.0325762,-0.23446,0.522044,-0.000160704,-8.82842e-05,0.424512,0.3091080140677833,0.6854692303120322,-0.00016069108780392138,-0.03205131066906031,-8.828030306473611e-05,-0.20900212682648456
534,0.5228,828.908,294.967,0.0138919,494.695,0.253181,0.133975,0.269765,-0.0326296,-0.234825,0.522866,-0.000160101,-8.79386e-05,0.425183,0.3096566452558851,0.6868552555976983,-0.00016008818451884732,-0.03210299774901326,-8.793473351464964e-05,-0.20929078836625714
535,0.5238,829.12,295.04,0.0138526,494.819,0.253215,0.134021,0.270184,-0.0326831,-0.23519,0.523687,-0.000159498,-8.75932e-05,0.425854,0.31020550636862065,0.6882407324229585,-0.00015948528087028624,-0.03215477885347684,-8.758936382768923e-05,-0.2095793445637938
536,0.5248,829.332,295.112,0.0138134,494.944,0.253249,0.134066,0.270603,-0.0327365,-0.235554,0.524508,-0.000158895,-8.72479e-05,0.426524,0.31075459750234824,0.689627347191754,-0.00015888237685812712,-0.03220646040837627,-8.724409401261735e-05,-0.20986700532493785
537,0.5258,829.543,295.185,0.0137743,495.067,0.253282,0.134112,0.271021,-0.0327898,-0.235919,0.525328,-0.000158293,-8.69028e-05,0.427194,0.3113026074502043,0.6910134098244649,-0.0001582804723241349,-0.032258042429363476,-8.689902406100458e-05,-0.21015535124166318
538,0.5268,829.753,295.258,0.0137353,495.191,0.253316,0.134157,0.271439,-0.0328432,-0.236283,0.526147,-0.000157691,-8.65579e-05,0.427864,0.3118508465141001,0.692398917094893,-0.00015767856742776587,-0.032309718470135085,-8.655415397307298e-05,-0.21044280237453128
539,0.5278,829.964,295.33,0.0136965,495.314,0.253349,0.134202,0.271857,-0.0328965,-0.236647,0.526966,-0.000157089,-8.62132e-05,0.428533,0.31239931478982697,0.6937855595605746,-0.00015707666216913108,-0.03236129498761431,-8.620948374882254e-05,-0.2107301488942276
540,0.5288,830.173,295.402,0.0136578,495.438,0.253382,0.134247,0.272275,-0.0329498,-0.23701,0.527785,-0.000156487,-8.58687e-05,0.429202,0.3129480123732147,0.6951733381516154,-0.0001564747565481195,-0.03241286875613825,-8.586501338869734e-05,-0.21101660185582105
541,0.5298,830.383,295.474,0.0136192,495.561,0.253414,0.134292,0.272692,-0.033003,-0.237374,0.528603,-0.000155886,-8.55243e-05,0.42987,0.3134956258638517,0.6965605572374778,-0.0001558738504088275,-0.03246434302229284,-8.552064290134886e-05,-0.21130373955051474
542,0.5308,830.592,295.546,0.0135807,495.683,0.253447,0.134337,0.273109,-0.0330562,-0.237737,0.52942,-0.000155286,-8.51802e-05,0.430538,0.31404346775693304,0.6979472135847271,-0.00015527394375314252,-0.03251581455008923,-8.517657226980724e-05,-0.21158998433648601
543,0.5318,830.8,295.618,0.0135423,495.806,0.253479,0.134381,0.273526,-0.0331094,-0.2381,0.530237,-0.000154685,-8.48362e-05,0.431206,0.3145915381477222,0.6993350032931271,-0.00015467303689220557,-0.03256728333967329,-8.48326015113754e-05,-0.21187612523445687
544,0.5328,831.009,295.69,0.0135041,495.928,0.253511,0.134425,0.273942,-0.0331626,-0.238463,0.531054,-0.000154085,-8.44924e-05,0.431873,0.31513852199234327,0.7007239272890124,-0.00015407312951609686,-0.03261874939119047,-8.448883061773493e-05,-0.2121621622821317
545,0.5338,831.216,295.761,0.0134659,496.05,0.253543,0.134469,0.274359,-0.0332157,-0.238825,0.531869,-0.000153485,-8.41488e-05,0.432539,0.3156870491159707,0.7021105822749056,-0.00015347322177994283,-0.032670115971803027,-8.414525958899688e-05,-0.21244730796490308
546,0.5348,831.424,295.833,0.0134279,496.172,0.253574,0.134513,0.274775,-0.0332688,-0.239187,0.532685,-0.000152886,-8.38053e-05,0.433206,0.3162344887879598,0.7035000713444821,-0.00015287431353105951,-0.03272147982492257,-8.380178843392372e-05,-0.21273235044361838
547,0.5358,831.631,295.904,0.01339,496.293,0.253606,0.134557,0.27519,-0.0333219,-0.239549,0.5335,-0.000152287,-8.34621e-05,0.433871,0.3167808394607303,0.7048889898100232,-0.00015227540492346314,-0.03277284095069388,-8.345861713587865e-05,-0.21301728975563072
548,0.5368,831.837,295.975,0.0133523,496.414,0.253637,0.1346,0.275606,-0.0333749,-0.239911,0.534314,-0.000151688,-8.3119e-05,0.434537,0.3173287342441595,0.7062773344273283,-0.0001516764959570427,-0.03282410263167701,-8.31155457116095e-05,-0.21330212593827957
549,0.5378,832.043,296.046,0.0133146,496.535,0.253667,0.134643,0.276021,-0.0334279,-0.240272,0.535128,-0.00015109,-8.27761e-05,0.435201,0.31787553912303546,0.7076668096172329,-0.00015107858648077954,-0.032875361595862906,-8.277267415313094e-05,-0.213586072615357
550,0.5388,832.249,296.117,0.0132771,496.656,0.253698,0.134686,0.276436,-0.0334809,-0.240634,0.535941,-0.000150491,-8.24334e-05,0.435866,0.3184225709730293,0.7090557072438355,-0.00015047967679748808,-0.03292661784339579,-8.243000246066501e-05,-0.21387070293587396
551,0.5398,832.455,296.188,0.0132396,496.777,0.253729,0.134729,0.27685,-0.0335339,-0.240995,0.536754,-0.000149894,-8.20908e-05,0.43653,0.3189685109191833,0.7104457345033417,-0.00014988276645566678,-0.03297787137441954,-8.20874306425301e-05,-0.21415444439369946
552,0.5408,832.66,296.258,0.0132023,496.897,0.253759,0.134772,0.277265,-0.0335868,-0.241355,0.537566,-0.000149296,-8.17485e-05,0.437193,0.3195159964466041,0.7118351804784808,-0.00014928485590681717,-0.0330290254919855,-8.174515868242249e-05,-0.21443729787703592
553,0.5418,832.864,296.329,0.0131651,497.017,0.253789,0.134814,0.277679,-0.0336397,-0.241716,0.538377,-0.000148699,-8.14063e-05,0.437857,0.3200623891646215,0.7132240419170386,-0.00014868794485167758,-0.033080176903570235,-8.140298659709e-05,-0.2147208348310029
554,0.5428,833.068,296.399,0.013128,497.137,0.253818,0.134856,0.278093,-0.0336926,-0.242076,0.539189,-0.000148102,-8.10643e-05,0.438519,0.3206090081360553,0.7146157447939758,-0.0001480910334401564,-0.03313132560931675,-8.106101437843627e-05,-0.21500348445047968
555,0.5438,833.272,296.469,0.0130911,497.257,0.253848,0.134898,0.278506,-0.0337454,-0.242436,0.539999,-0.000147506,-8.07225e-05,0.439182,0.32115453229940116,0.7160051461788544,-0.00014749512152489874,-0.03318237492761078,-8.071924202668335e-05,-0.2152860323344068
556,0.5448,833.476,296.539,0.0130542,497.376,0.253877,0.13494,0.278919,-0.0337982,-0.242796,0.540809,-0.00014691,-8.03809e-05,0.439843,0.3217002818107575,0.7173956734347706,-0.00014689920925436972,-0.03323342155057185,-8.037766954205328e-05,-0.21556847851940275
557,0.5458,833.679,296.609,0.0130175,497.495,0.253907,0.134982,0.279332,-0.033851,-0.243156,0.541619,-0.000146314,-8.00395e-05,0.440505,0.3222462567632127,0.7187873274740499,-0.00014630329662868036,-0.03328446547834241,-8.003629692465708e-05,-0.21585082304207237
558,0.5468,833.881,296.679,0.0129808,497.614,0.253935,0.135024,0.279745,-0.0339037,-0.243515,0.542428,-0.000145718,-7.96982e-05,0.441166,0.3227924572498926,0.7201783890305076,-0.00014570738364794167,-0.0333354100446106,-7.969502418281316e-05,-0.21613228207168156
559,0.5478,834.084,296.749,0.0129443,497.733,0.253964,0.135065,0.280158,-0.0339564,-0.243874,0.543237,-0.000145123,-7.93571e-05,0.441826,0.3233388833639623,0.7215705764110987,-0.00014511247016679718,-0.0333863519261709,-7.93539513086472e-05,-0.21641364007563424
560,0.5488,834.286,296.818,0.0129079,497.852,0.253993,0.135106,0.28057,-0.0340091,-0.244233,0.544045,-0.000144528,-7.90163e-05,0.442487,0.3238842113137521,0.7229621675639546,-0.0001445175563317136,-0.033437291123164736,-7.901317829439591e-05,-0.2166948970901923
561,0.5498,834.487,296.888,0.0128716,497.97,0.254021,0.135147,0.280982,-0.0340618,-0.244592,0.544852,-0.000143934,-7.86755e-05,0.443146,0.3244297639849467,0.724353159222823,-0.00014392364199877772,-0.03348822763573367,-7.86724051640153e-05,-0.2169760531516043
562,0.5508,834.688,296.957,0.0128354,498.088,0.254049,0.135188,0.281393,-0.0341144,-0.24495,0.545659,-0.00014334,-7.8335e-05,0.443806,0.32497421649527114,0.7257452738650227,-0.00014332972731301297,-0.03353906481793045,-7.833193189399346e-05,-0.21725632555282282
563,0.5518,834.889,297.026,0.0127994,498.206,0.254077,0.135229,0.281805,-0.034167,-0.245308,0.546466,-0.000142746,-7.79947e-05,0.444465,0.3255202183411241,0.7271385123971674,-0.00014273581227453036,-0.03358989932616174,-7.799165849242673e-05,-0.2175364976344799
564,0.5528,835.09,297.095,0.0127634,498.324,0.254105,0.135269,0.282216,-0.0342196,-0.245666,0.547272,-0.000142152,-7.76545e-05,0.445123,0.3260651191203021,0.7285311471945908,-0.00014214189688321888,-0.033640731160568205,-7.765148496741148e-05,-0.21781656943248362
565,0.5538,835.29,297.164,0.0127275,498.441,0.254133,0.13531,0.282627,-0.0342721,-0.246024,0.548077,-0.000141559,-7.73145e-05,0.445781,0.32661024389972915,0.7299231749840953,-0.0001415489809974968,-0.033691463690441736,-7.731151131107339e-05,-0.21809654098272913
566,0.5548,835.489,297.232,0.0126918,498.558,0.25416,0.13535,0.283037,-0.0343246,-0.246381,0.548882,-0.000140966,-7.69747e-05,0.446439,0.32715426561655914,0.7313163238071259,-0.0001409560647602781,-0.033742193556927313,-7.697173752374553e-05,-0.21837563069712018
567,0.5558,835.689,297.301,0.0126562,498.675,0.254187,0.13539,0.283447,-0.0343771,-0.246738,0.549686,-0.000140374,-7.66351e-05,0.447096,0.32769851042802434,0.7327088618567494,-0.00014036414803109132,-0.033792920760164824,-7.663216360576097e-05,-0.2186546207942659
568,0.5568,835.887,297.369,0.0126206,498.792,0.254214,0.13543,0.283858,-0.0344296,-0.247095,0.55049,-0.000139781,-7.62956e-05,0.447753,0.32824430666925464,0.7341025199571651,-0.00013977123109121248,-0.033843645300294156,-7.629268956477198e-05,-0.21893351130972327
569,0.5578,836.086,297.438,0.0125852,498.908,0.254241,0.13547,0.284267,-0.034482,-0.247452,0.551294,-0.000139189,-7.59564e-05,0.448409,0.32878766970084783,0.7354972990092556,-0.00013917931366058678,-0.033894270566886764,-7.595351538569606e-05,-0.21921230227903665
570,0.5588,836.284,297.506,0.0125499,499.025,0.254268,0.135509,0.284677,-0.0345344,-0.247808,0.552097,-0.000138598,-7.56173e-05,0.449065,0.3293325843452941,0.7368914630222971,-0.00013858839574087956,-0.033944893180785085,-7.561444108405979e-05,-0.21949021322834128
571,0.5598,836.482,297.574,0.0125147,499.141,0.254294,0.135549,0.285086,-0.0345867,-0.248165,0.552899,-0.000138007,-7.52784e-05,0.449721,0.3298763925734931,0.7382850087127686,-0.0001379974774720072,-0.03399541654167426,-7.527556665232193e-05,-0.21976880549054112
572,0.5608,836.679,297.642,0.0124796,499.257,0.254321,0.135588,0.285495,-0.0346391,-0.248521,0.553701,-0.000137416,-7.49397e-05,0.450376,0.3304204232647483,0.7396796724751704,-0.00013740655885396968,-0.034046033855662294,-7.493689209081555e-05,-0.2200465183599627
573,0.5618,836.876,297.71,0.0124446,499.372,0.254347,0.135627,0.285904,-0.0346914,-0.248877,0.554502,-0.000136825,-7.46012e-05,0.45103,0.33096467651006534,0.7410737141319719,-0.000136815639886545,-0.03409655192703254,-7.459841739965167e-05,-0.22032413238119875
574,0.5628,837.073,297.778,0.0124097,499.488,0.254373,0.135666,0.286312,-0.0347437,-0.249232,0.555303,-0.000136235,-7.42628e-05,0.451685,0.3315078208920008,0.7424688728634687,-0.00013622572043381354,-0.03414706735637674,-7.426004258648256e-05,-0.22060086819069102
575,0.5638,837.27,297.845,0.0123749,499.603,0.254399,0.135705,0.28672,-0.0347959,-0.249587,0.556104,-0.000135645,-7.39247e-05,0.452338,0.33205118692205726,0.743865149564797,-0.00013563580063291614,-0.03419748356358632,-7.39219676366698e-05,-0.22087750577640652
576,0.5648,837.466,297.913,0.0123403,499.718,0.254424,0.135743,0.287128,-0.0348481,-0.249943,0.556903,-0.000135056,-7.35867e-05,0.452992,0.33259477469068566,0.7452590546102089,-0.00013504688034904344,-0.03424789713913856,-7.358399256518489e-05,-0.22115482401877418
577,0.5658,837.661,297.98,0.0123057,499.833,0.25445,0.135782,0.287536,-0.0349003,-0.250297,0.557703,-0.000134466,-7.32489e-05,0.453645,0.3331385842883736,0.746655820485753,-0.00013445695985259132,-0.0342983080831708,-7.324621736481962e-05,-0.22143048641594842
578,0.5668,837.856,298.047,0.0122712,499.948,0.254475,0.13582,0.287944,-0.0349525,-0.250652,0.558502,-0.000133877,-7.29113e-05,0.454297,0.33368261580564607,0.7480519561682519,-0.00013386803887438514,-0.03434871639582038,-7.290864203579606e-05,-0.2217068295394642
579,0.5678,838.051,298.114,0.0122369,500.062,0.2545,0.135858,0.288351,-0.0350046,-0.251006,0.5593,-0.000133289,-7.25738e-05,0.45495,0.33422553510686215,0.7494474583605939,-0.0001332801174158682,-0.03439902551713225,-7.257116658543339e-05,-0.22198229656126767
580,0.5688,838.246,298.181,0.0122026,500.176,0.254525,0.135896,0.288758,-0.0350567,-0.251361,0.560098,-0.000132701,-7.22366e-05,0.455601,0.33476867542120714,0.750844074608134,-0.00013269219561173884,-0.034449332017407075,-7.223399099964833e-05,-0.2222584438269486
581,0.5698,838.44,298.248,0.0121684,500.29,0.25455,0.135934,0.289164,-0.0351088,-0.251715,0.560895,-0.000132113,-7.18995e-05,0.456253,0.33531070152728226,0.7522400535593139,-0.00013210427346188602,-0.03449963589678151,-7.189691529285724e-05,-0.2225337156118533
582,0.5708,838.634,298.315,0.0121344,500.404,0.254575,0.135971,0.289571,-0.0351608,-0.252068,0.561692,-0.000131525,-7.15626e-05,0.456904,0.33585428359425085,0.7536371455492048,-0.00013151635096642078,-0.03454984061038102,-7.156003945818501e-05,-0.22280811277629342
583,0.5718,838.828,298.381,0.0121004,500.517,0.254599,0.136009,0.289977,-0.0352129,-0.252422,0.562488,-0.000130938,-7.12259e-05,0.457554,0.3363967505467298,0.7550335964307784,-0.0001309294279941975,-0.034600139253394224,-7.122336349585368e-05,-0.22308319001282706
584,0.5728,839.021,298.448,0.0120666,500.631,0.254624,0.136046,0.290383,-0.0352648,-0.252775,0.563284,-0.000130351,-7.08894e-05,0.458204,0.33693943778550683,0.7564311593297779,-0.00013034250467758302,-0.034650242205984116,-7.088688740586324e-05,-0.2233573932470344
585,0.5738,839.214,298.514,0.0120328,500.744,0.254648,0.136084,0.290788,-0.0353168,-0.253128,0.564079,-0.000129764,-7.0553e-05,0.458854,0.3374810079183592,0.7578280773027655,-0.00012975558101635531,-0.03470043908825915,-7.055051119564393e-05,-0.22363149970458207
586,0.5748,839.406,298.58,0.0119992,500.857,0.254672,0.136121,0.291193,-0.0353687,-0.253481,0.564874,-0.000129178,-7.02169e-05,0.459503,0.33802279743153707,0.759226106267102,-0.00012916965688136717,-0.03475053683542262,-7.021443485122347e-05,-0.2239055094196264
587,0.5758,839.598,298.646,0.0119657,500.97,0.254696,0.136158,0.291599,-0.0354206,-0.253833,0.565669,-0.000128592,-6.98809e-05,0.460152,0.33856614497938287,0.760625247106377,-0.00012858373240320908,-0.03480063198258054,-6.987845838679618e-05,-0.2241786466053457
588,0.5768,839.79,298.712,0.0119322,501.082,0.254719,0.136194,0.292003,-0.0354725,-0.254186,0.566462,-0.000128006,-6.95451e-05,0.460801,0.33910703495437255,0.762021976657405,-0.000127997807581548,-0.034850724529867816,-6.954268179559797e-05,-0.2244524632116197
589,0.5778,839.981,298.778,0.0118989,501.194,0.254743,0.136231,0.292408,-0.0355244,-0.254538,0.567256,-0.000127421,-6.92094e-05,0.461449,0.3396494831418726,0.7634215776749451,-0.00012741288228912406,-0.03490081447741933,-6.920700508472599e-05,-0.22472540790348516
590,0.5788,840.172,298.844,0.0118656,501.307,0.254766,0.136268,0.292812,-0.0355762,-0.25489,0.568049,-0.000126836,-6.8874e-05,0.462097,0.3401908108739009,0.7648205255955813,-0.00012682795665464042,-0.03495080532045536,-6.887162824054105e-05,-0.22499825653572658
591,0.5798,840.363,298.91,0.0118325,501.419,0.25479,0.136304,0.293216,-0.035628,-0.255241,0.568841,-0.000126251,-6.85387e-05,0.462744,0.34073235734651575,0.7662188171021982,-0.000126243030677875,-0.03500079357403285,-6.85363512770154e-05,-0.22527023441277283
592,0.5808,840.553,298.975,0.0117994,501.53,0.254813,0.13634,0.29362,-0.0356797,-0.255593,0.569633,-0.000125667,-6.82037e-05,0.463391,0.34127412264810597,0.7676182164943528,-0.00012565910423334437,-0.035050682743358985,-6.820137418050987e-05,-0.22554289129983218
593,0.5818,840.743,299.04,0.0117665,501.642,0.254836,0.136376,0.294024,-0.0357314,-0.255944,0.570424,-0.000125083,-6.78688e-05,0.464037,0.3418161068670962,0.7690169556319986,-0.0001250751774477532,-0.0351005693334816,-6.786649696510771e-05,-0.22581467804362199
594,0.5828,840.933,299.106,0.0117337,501.753,0.254859,0.136412,0.294427,-0.0357832,-0.256295,0.571215,-0.000124499,-6.75341e-05,0.464683,0.34235696773430835,0.7704168016099997,-0.00012449125032110153,-0.03515054982948418,-6.753181962404486e-05,-0.226086369407005
595,0.5838,841.123,299.171,0.0117009,501.864,0.254881,0.136448,0.29483,-0.0358348,-0.256646,0.572005,-0.000123916,-6.71995e-05,0.465329,0.3428980466123761,0.7718159834873439,-0.0001239083227295712,-0.0352003347766503,-6.719724216419642e-05,-0.22635796542345388
596,0.5848,841.312,299.236,0.0116683,501.975,0.254904,0.136484,0.295233,-0.0358865,-0.256996,0.572795,-0.000123333,-6.68652e-05,0.465974,0.3434393435891758,0.7732162711551012,-0.0001233253947982016,-0.035250213629962834,-6.686296457236729e-05,-0.2266286927555089
597,0.5858,841.5,299.301,0.0116357,502.086,0.254926,0.136519,0.295635,-0.0359381,-0.257346,0.573585,-0.00012275,-6.6531e-05,0.466619,0.34397951477243205,0.7746176654871906,-0.00012274246652699272,-0.035299993434609545,-6.652878686208563e-05,-0.2268993253495778
598,0.5868,841.689,299.366,0.0116033,502.196,0.254949,0.136555,0.296037,-0.0359897,-0.257697,0.574373,-0.000122168,-6.6197e-05,0.467263,0.3445199031481567,0.7760166153214401,-0.00012216053779379177,-0.035349770670684566,-6.619480902692043e-05,-0.22717063606856347
599,0.5878,841.877,299.43,0.0115709,502.307,0.254971,0.13659,0.296439,-0.0360412,-0.258046,0.575162,-0.000121586,-6.58632e-05,0.467907,0.34506050880367867,0.7774184453801645,-0.00012157860872186177,-0.03539944887827018,-6.586103106709373e-05,-0.2274403064563556
600,0.5888,842.064,299.495,0.0115386,502.417,0.254993,0.136625,0.296841,-0.0360928,-0.258396,0.57595,-0.000121004,-6.55296e-05,0.468551,0.345601331826362,0.7788196030987617,-0.00012099667931131375,-0.035449220982576746,-6.552745298260554e-05,-0.22771065503533483
601,0.5898,842.252,299.559,0.0115065,502.527,0.255015,0.13666,0.297243,-0.0361443,-0.258745,0.576737,-0.000120423,-6.51961e-05,0.469194,0.3461423723036059,0.7802200851438008,-0.0001204157494415492,-0.03549889406860318,-6.519397478044198e-05,-0.22798013698939124
602,0.5908,842.439,299.624,0.0114744,502.637,0.255037,0.136695,0.297644,-0.0361957,-0.259095,0.577524,-0.000119842,-6.48628e-05,0.469837,0.34668228363988773,0.7816216698020304,-0.00011983481923438788,-0.03554846815138324,-6.4860696454061e-05,-0.2282502966607446
603,0.5918,842.625,299.688,0.0114424,502.746,0.255058,0.13673,0.298045,-0.0362472,-0.259443,0.57831,-0.000119261,-6.45298e-05,0.470479,0.3472224115240303,0.7830225749180826,-0.00011925388868960773,-0.03559813612631213,-6.452771799725365e-05,-0.22851881883193892
604,0.5928,842.812,299.752,0.0114105,502.855,0.25508,0.136764,0.298446,-0.0362986,-0.259792,0.579096,-0.00011868,-6.41968e-05,0.471121,0.34776275604288687,0.7844245815784063,-0.00011867295780743081,-0.03564770510818149,-6.419473942953502e-05,-0.22878801878604216
605,0.5938,842.998,299.816,0.0113788,502.965,0.255101,0.136799,0.298846,-0.03635,-0.260141,0.579882,-0.0001181,-6.38641e-05,0.471763,0.3483019689807021,0.7858276906491555,-0.00011809302646947906,-0.03569727154227065,-6.386206073172307e-05,-0.2290571248057539
606,0.5948,843.184,299.88,0.0113471,503.074,0.255122,0.136833,0.299246,-0.0364014,-0.260489,0.580667,-0.000117521,-6.35316e-05,0.472404,0.3488413976468352,0.7872301157661561,-0.00011751409467775087,-0.0357468354287106,-6.352958191069291e-05,-0.2293253662496032
607,0.5958,843.369,299.944,0.0113155,503.182,0.255144,0.136867,0.299646,-0.0364527,-0.260837,0.581451,-0.000116941,-6.31992e-05,0.473045,0.3493810421275949,0.7886318535863432,-0.00011693416266778112,-0.03579630034726711,-6.319720297265352e-05,-0.22959351436167075
608,0.5968,843.554,300.007,0.011284,503.291,0.255165,0.136901,0.300046,-0.036504,-0.261185,0.582235,-0.000116362,-6.2867e-05,0.473685,0.34992090250932417,0.7900346907998874,-0.00011635523020503413,-0.03584576272833839,-6.286502391161797e-05,-0.22986156917443024
609,0.5978,843.739,300.071,0.0112526,503.399,0.255185,0.136935,0.300445,-0.0365553,-0.261532,0.583019,-0.000115783,-6.2535e-05,0.474325,0.35045962841809697,0.7914386282690509,-0.00011577629740711082,-0.035895222572054575,-6.253304472769727e-05,-0.23012876084949008
610,0.5988,843.923,300.134,0.0112212,503.508,0.255206,0.136969,0.300845,-0.0366065,-0.26188,0.583802,-0.000115205,-6.22032e-05,0.474965,0.35099992032064087,0.792841874014002,-0.00011519836415885276,-0.035944583473008995,-6.220126542111348e-05,-0.23039662942887829
611,0.5998,844.107,300.198,0.01119,503.616,0.255227,0.137003,0.301244,-0.0366578,-0.262227,0.584584,-0.000114627,-6.18715e-05,0.475604,0.35153907684342234,0.7942444246853189,-0.00011462043057641758,-0.035994038247351035,-6.18695859981866e-05,-0.23066363547023916
612,0.6008,844.291,300.261,0.0111589,503.723,0.255247,0.137037,0.301642,-0.0367089,-0.262574,0.585366,-0.000114049,-6.15401e-05,0.476243,0.35207709645480656,0.7956480725802193,-0.0001140424966600273,-0.03604329769340697,-6.153820644694274e-05,-0.2309305488765767
613,0.6018,844.475,300.324,0.0111278,503.831,0.255268,0.13707,0.302041,-0.0367601,-0.262921,0.586148,-0.000113471,-6.12088e-05,0.476881,0.3526166828566206,0.7970528185570676,-0.00011346456240957092,-0.03609265101310932,-6.120692677957784e-05,-0.2311973696800299
614,0.6028,844.658,300.387,0.0110969,503.938,0.255288,0.137104,0.302439,-0.0368113,-0.263267,0.586929,-0.000112894,-6.08777e-05,0.477519,0.3531551314405581,0.7984568650171355,-0.0001128876277122215,-0.03614200180598637,-6.087584699043802e-05,-0.23146332937643976
615,0.6038,844.841,300.45,0.011066,504.046,0.255308,0.137137,0.302837,-0.0368624,-0.263613,0.58771,-0.000112317,-6.05468e-05,0.478157,0.35369379436968384,0.799862008465807,-0.00011231069268191618,-0.03619125369129772,-6.054496707952328e-05,-0.2317291970667127
616,0.6048,845.023,300.512,0.0110353,504.153,0.255328,0.13717,0.303235,-0.0369134,-0.263959,0.58849,-0.000111741,-6.0216e-05,0.478794,0.35423267172932404,0.8012664484928158,-0.00011173475720693826,-0.03624040668394746,-6.02141870530426e-05,-0.23199497278267733
617,0.6058,845.205,300.575,0.0110046,504.26,0.255348,0.137203,0.303632,-0.0369645,-0.264305,0.589269,-0.000111165,-5.98855e-05,0.479431,0.3547704088337531,0.8026701817393045,-0.00011115882140033673,-0.03628965354089808,-5.988370689924416e-05,-0.23226065655615113
618,0.6068,845.387,300.638,0.010974,504.366,0.255368,0.137236,0.304029,-0.0370155,-0.264651,0.590048,-0.000110589,-5.95551e-05,0.480067,0.3553083594621944,0.8040750089200239,-0.00011058288526200055,-0.03633880151528346,-5.9553326630212844e-05,-0.23252624841894087
619,0.6078,845.569,300.7,0.0109435,504.473,0.255388,0.137269,0.304426,-0.0370665,-0.264996,0.590827,-0.000110013,-5.92249e-05,0.480703,0.3558465236994337,0.8054809308874813,-0.00011000694879181871,-0.03638794698318615,-5.9223146240183766e-05,-0.23279098119420671
620,0.6088,845.75,300.762,0.0109131,504.579,0.255407,0.137301,0.304823,-0.0371175,-0.265341,0.591605,-0.000109438,-5.88948e-05,0.481339,0.3563849016302907,0.8068861416078028,-0.00010943201188051699,-0.036437089944733825,-5.88930657353659e-05,-0.2330556226524183
621,0.6098,845.931,300.825,0.0108828,504.685,0.255427,0.137334,0.305219,-0.0371684,-0.265686,0.592383,-0.000108863,-5.8565e-05,0.481974,0.35692213641680337,0.8082924460074505,-0.00010885707463859084,-0.036486134048672514,-5.856328510389641e-05,-0.23332017282507445
622,0.6108,846.112,300.887,0.0108526,504.791,0.255446,0.137366,0.305616,-0.0372193,-0.266031,0.59316,-0.000108288,-5.82353e-05,0.482609,0.3574609414506833,0.8096980352386984,-0.00010828213706615131,-0.03653517565633002,-5.823360435786018e-05,-0.23358463174366317
623,0.6118,846.292,300.949,0.0108224,504.897,0.255465,0.137398,0.306012,-0.0372702,-0.266376,0.593937,-0.000107714,-5.79058e-05,0.483243,0.35799860243334614,0.8111047170371866,-0.00010770819905536744,-0.036584214767833134,-5.790412349149232e-05,-0.23384899943966186
624,0.6128,846.472,301.011,0.0107924,505.003,0.255485,0.137431,0.306407,-0.0373211,-0.26672,0.594713,-0.00010714,-5.75765e-05,0.483877,0.3585351178361236,0.8125106797405832,-0.0001071342607151804,-0.03663325138330897,-5.75748425051259e-05,-0.23411251005742983
625,0.6138,846.652,301.073,0.0107624,505.108,0.255504,0.137463,0.306803,-0.0373719,-0.267064,0.595489,-0.000106567,-5.72474e-05,0.484511,0.3590732042768703,0.8139177338944659,-0.00010656132193898049,-0.036682189171108326,-5.724576139887194e-05,-0.23437593004313484
626,0.6148,846.831,301.134,0.0107326,505.214,0.255523,0.137495,0.307198,-0.0374227,-0.267408,0.596264,-0.000105993,-5.69184e-05,0.485144,0.3596101442312194,0.8153240650211557,-0.0001059873829404312,-0.036731124472931254,-5.691678017860635e-05,-0.23463925942794905
627,0.6158,847.01,301.196,0.0107028,505.319,0.255541,0.137527,0.307593,-0.0374735,-0.267751,0.597039,-0.00010542,-5.65897e-05,0.485777,0.36014729631874376,0.8167314864769168,-0.00010541444350709028,-0.03678005728890399,-5.658809883313243e-05,-0.2349017331451495
628,0.6168,847.189,301.257,0.0106731,505.423,0.25556,0.137558,0.307988,-0.0375243,-0.268095,0.597814,-0.000104848,-5.62611e-05,0.486409,0.360684660623253,0.8181399991070815,-0.00010484250364051206,-0.036828987619152764,-5.625951737397994e-05,-0.23516488168480376
629,0.6178,847.367,301.319,0.0106435,505.528,0.255579,0.13759,0.308382,-0.037575,-0.268438,0.598587,-0.000104275,-5.59327e-05,0.487042,0.36122087600703257,0.8195459646620695,-0.00010426956355114037,-0.03687781915159072,-5.593113579571707e-05,-0.23542717514448597
630,0.6188,847.546,301.38,0.010614,505.633,0.255597,0.137622,0.308777,-0.0376257,-0.268781,0.599361,-0.000103703,-5.56044e-05,0.487673,0.3617586644592823,0.8209548384025205,-0.0001036976230297526,-0.03692664820833269,-5.560285410399768e-05,-0.23568937865293904
631,0.6198,847.724,301.441,0.0105845,505.737,0.255616,0.137653,0.309171,-0.0376763,-0.269124,0.600134,-0.000103132,-5.52764e-05,0.488305,0.362295303083946,0.8223629806694746,-0.00010312668207812514,-0.036975378487046906,-5.527487228795813e-05,-0.23595149224101086
632,0.6208,847.901,301.502,0.0105552,505.841,0.255634,0.137684,0.309564,-0.037727,-0.269466,0.600906,-0.00010256,-5.49485e-05,0.488936,0.36283079035441457,0.8237703880799125,-0.00010255474090303807,-0.03702420259765593,-5.4946990358795134e-05,-0.23621275215267312
633,0.6218,848.078,301.563,0.0105259,505.945,0.255652,0.137715,0.309958,-0.0377776,-0.269809,0.601678,-0.000101989,-5.46208e-05,0.489566,0.36336785147990835,0.8251788824283754,-0.00010198379929871049,-0.03707292794024297,-5.461930831129891e-05,-0.23647468625441825
634,0.6228,848.255,301.624,0.0104967,506.049,0.25567,0.137747,0.310351,-0.0378282,-0.270151,0.60245,-0.000101418,-5.42933e-05,0.490196,0.3639037603447344,0.8265884645543033,-0.00010141285736853245,-0.03712165081738994,-5.429182614546946e-05,-0.23673576726432177
635,0.6238,848.432,301.685,0.0104676,506.153,0.255688,0.137778,0.310744,-0.0378787,-0.270493,0.603221,-0.000100848,-5.39659e-05,0.490826,0.364439879863135,0.8279973072995634,-0.00010084291501133436,-0.037170274946254134,-5.396444386696064e-05,-0.23699675899978667
636,0.6248,848.609,301.745,0.0104386,506.256,0.255706,0.137808,0.311137,-0.0379293,-0.270834,0.603992,-0.000100278,-5.36388e-05,0.491455,0.36497621011791326,0.8294072366814249,-0.00010027297232939603,-0.0372189928977672,-5.3637361465241895e-05,-0.23725689874861988
637,0.6258,848.785,301.806,0.0104097,506.36,0.255724,0.137839,0.31153,-0.0379798,-0.271176,0.604762,-9.97082e-05,-5.33118e-05,0.492084,0.36551275119190496,0.8308164227206691,-9.970322930263897e-05,-0.03726761211098051,-5.3310378951287873e-05,-0.23751771228759044
638,0.6268,848.96,301.866,0.0103809,506.463,0.255742,0.13787,0.311922,-0.0380302,-0.271517,0.605531,-9.91387e-05,-5.2985e-05,0.492713,0.3660481371191582,0.8322248620252459,-9.913378592152355e-05,-0.0373161326006034,-5.298359631966676e-05,-0.23777767442163755
639,0.6278,849.136,301.927,0.0103521,506.566,0.25576,0.1379,0.312314,-0.0380807,-0.271858,0.6063,-9.85696e-05,-5.26583e-05,0.493341,0.36658373295883484,0.8336343848362027,-9.856474217662115e-05,-0.03736474690838554,-5.2656913576032416e-05,-0.23803754792370946
640,0.6288,849.311,301.987,0.0103234,506.668,0.255777,0.137931,0.312706,-0.0381311,-0.272199,0.607069,-9.80008e-05,-5.23319e-05,0.493969,0.3671195387932371,0.8350449919870764,-9.799599807847059e-05,-0.03741326250253807,-5.2330530709965295e-05,-0.23829733282402465
641,0.6298,849.486,302.047,0.0102948,506.771,0.255795,0.137961,0.313097,-0.0381815,-0.27254,0.607837,-9.74323e-05,-5.20056e-05,0.494596,0.367654187049828,0.836454847856279,-9.7427553627627e-05,-0.03746177565156639,-5.200424773221801e-05,-0.2385570291527911
642,0.6308,849.661,302.107,0.0102663,506.873,0.255812,0.137992,0.313489,-0.0382319,-0.27288,0.608605,-9.68641e-05,-5.16795e-05,0.495224,0.3681904125844897,0.8378657869106789,-9.685940882453448e-05,-0.0375102863555935,-5.1678164637691815e-05,-0.23881587575646301
643,0.6318,849.835,302.167,0.0102379,506.976,0.255829,0.138022,0.31388,-0.0382822,-0.27322,0.609373,-9.62963e-05,-5.13536e-05,0.49585,0.3687254796346018,0.8392778099824825,-9.629166366009745e-05,-0.03755869837061743,-5.1352281426497726e-05,-0.2390746343672493
644,0.6328,850.009,302.227,0.0102096,507.078,0.255847,0.138052,0.314271,-0.0383325,-0.27356,0.610139,-9.57288e-05,-5.10279e-05,0.496477,0.3692607559368366,0.8406872365263793,-9.572421814463272e-05,-0.0376071079505782,-5.102659809885779e-05,-0.23933330501506245
645,0.6338,850.183,302.287,0.0101813,507.18,0.255864,0.138082,0.314661,-0.0383828,-0.2739,0.610906,-9.51615e-05,-5.07023e-05,0.497102,0.36979487177747106,0.8420995852032735,-9.515697228812403e-05,-0.03765551509559839,-5.07010146600928e-05,-0.23959188772980478
646,0.6348,850.356,302.346,0.0101531,507.282,0.255881,0.138112,0.315052,-0.0384331,-0.27424,0.611672,-9.45946e-05,-5.03769e-05,0.497728,0.370330566293789,0.843511174055048,-9.459012607193618e-05,-0.03770391980580046,-5.037563110532606e-05,-0.23985038254136848
647,0.6358,850.53,302.406,0.010125,507.383,0.255898,0.138141,0.315442,-0.0384833,-0.274579,0.612437,-9.40281e-05,-5.00517e-05,0.498353,0.3708650994418323,0.8449219996751958,-9.402367949673529e-05,-0.03775222585653415,-5.0050447434557555e-05,-0.2401080295880451
648,0.6368,850.702,302.465,0.010097,507.485,0.255915,0.138171,0.315832,-0.0385335,-0.274918,0.613202,-9.34618e-05,-4.97267e-05,0.498978,0.3713998410984598,0.8463339049898733,-9.345743258204475e-05,-0.03780052948236501,-4.972546364812036e-05,-0.24036558930717578
649,0.6378,850.875,302.525,0.0100691,507.586,0.255931,0.138201,0.316221,-0.0385837,-0.275257,0.613967,-9.28959e-05,-4.94018e-05,0.499602,0.3719334194109003,0.8477468908253631,-9.289158530945141e-05,-0.037848830683414714,-4.940057975122425e-05,-0.24062306172835946
650,0.6388,851.047,302.584,0.0100412,507.687,0.255948,0.13823,0.316611,-0.0386338,-0.275596,0.614731,-9.23302e-05,-4.90771e-05,0.500226,0.3724685777935721,0.8491591088485464,-9.232593769825659e-05,-0.0378970332495131,-4.907589573888149e-05,-0.24088044688118526
651,0.6398,851.219,302.643,0.0100135,507.788,0.255965,0.138259,0.317,-0.0386839,-0.275934,0.615494,-9.17649e-05,-4.87526e-05,0.50085,0.3730025719254588,0.8505705556470762,-9.176068973038021e-05,-0.03794523340072342,-4.875141161131413e-05,-0.24113698593259747
652,0.6408,851.391,302.702,0.00998578,507.889,0.255981,0.138289,0.317389,-0.038734,-0.276273,0.616257,-9.11999e-05,-4.84283e-05,0.501473,0.3735367738214703,0.8519830797904686,-9.119574141558395e-05,-0.03799343113716669,-4.842712736885524e-05,-0.24139419689464492
653,0.6418,851.563,302.761,0.00995817,507.989,0.255998,0.138318,0.317777,-0.0387841,-0.276611,0.61702,-9.06353e-05,-4.81042e-05,0.502096,0.3740698094919459,0.8533966821010504,-9.063119274532738e-05,-0.038041626458963806,-4.810304301150481e-05,-0.2416505623278956
654,0.6428,851.734,302.82,0.00993064,508.09,0.256014,0.138347,0.318166,-0.0388342,-0.276949,0.617782,-9.00709e-05,-4.77802e-05,0.502719,0.37460442662412907,0.8548095085913419,-9.00668437382457e-05,-0.03808981936623579,-4.777905854447262e-05,-0.2419068411242724
655,0.6438,851.905,302.879,0.00990319,508.19,0.25603,0.138376,0.318554,-0.0388842,-0.277286,0.618544,-8.95069e-05,-4.74564e-05,0.503341,0.3751378766242668,0.8562234120656975,-8.950289437692494e-05,-0.03813791367289987,-4.745527396288196e-05,-0.2421622754757078
656,0.6448,852.076,302.937,0.00987582,508.29,0.256047,0.138405,0.318942,-0.0389342,-0.277624,0.619305,-8.89432e-05,-4.71328e-05,0.503963,0.37567153364316375,0.8576365357076279,-8.893924467090475e-05,-0.03818600557490859,-4.71316892670659e-05,-0.24241838134226734
657,0.6458,852.246,302.996,0.00984852,508.39,0.256063,0.138434,0.31933,-0.0389841,-0.277961,0.620066,-8.83797e-05,-4.68093e-05,0.504584,0.3762053977611588,0.8590507351459382,-8.837579462939171e-05,-0.03823399889578716,-4.6808204461790126e-05,-0.24267364333369368
658,0.6468,852.416,303.054,0.00982131,508.49,0.256079,0.138462,0.319717,-0.0390341,-0.278298,0.620827,-8.78167e-05,-4.64861e-05,0.505205,0.3767380923198409,0.8604660111996214,-8.781284422643143e-05,-0.0382820859936549,-4.6485019537967354e-05,-0.24292881931632215
659,0.6478,852.586,303.113,0.00979417,508.589,0.256095,0.138491,0.320105,-0.039084,-0.278635,0.621587,-8.72539e-05,-4.6163e-05,0.505826,0.37727237034289485,0.8618805028068597,-8.725009348919954e-05,-0.038330074520240065,-4.6161934505128954e-05,-0.24318390931913292
660,0.6488,852.755,303.171,0.00976711,508.689,0.256111,0.13852,0.320492,-0.0391338,-0.278971,0.622346,-8.66914e-05,-4.58401e-05,0.506446,0.3778054778998763,0.8632942065411899,-8.668764240915561e-05,-0.038377964490058813,-4.5839049358620265e-05,-0.24343815680963132
661,0.6498,852.925,303.229,0.00974013,508.788,0.256127,0.138548,0.320879,-0.0391837,-0.279308,0.623105,-8.61293e-05,-4.55173e-05,0.507066,0.378338791809409,0.8647089836839617,-8.612559097831429e-05,-0.0384259482324264,-4.5516264103429016e-05,-0.24369307519462602
662,0.6508,853.094,303.287,0.00971323,508.887,0.256142,0.138576,0.321265,-0.0392335,-0.279644,0.623864,-8.55674e-05,-4.51948e-05,0.507685,0.37887093327974375,0.8661248350502007,-8.556373921442262e-05,-0.038473833427853155,-4.5193778730356904e-05,-0.2439471516341284
663,0.6518,853.262,303.345,0.00968641,508.986,0.256158,0.138605,0.321651,-0.0392833,-0.27998,0.624622,-8.50059e-05,-4.48724e-05,0.508304,0.37940328019633496,0.867539893914725,-8.500228710084379e-05,-0.038521716238656634,-4.48713932489353e-05,-0.24420114271828763
664,0.6528,853.431,303.403,0.00965966,509.085,0.256174,0.138633,0.322038,-0.0393331,-0.280316,0.62538,-8.44447e-05,-4.45502e-05,0.508923,0.3799372125750222,0.8689560258004922,-8.444113464667335e-05,-0.03856959666495541,-4.454920765462056e-05,-0.24445504847577837
665,0.6538,853.599,303.461,0.00963299,509.183,0.256189,0.138661,0.322423,-0.0393828,-0.280651,0.626137,-8.38838e-05,-4.42281e-05,0.509541,0.38046859068558625,0.8703713611488646,-8.388028185246643e-05,-0.03861737856861103,-4.422712195195633e-05,-0.24470811364375655
666,0.6548,853.767,303.519,0.00960639,509.282,0.256205,0.138689,0.322809,-0.0394326,-0.280987,0.626893,-8.33233e-05,-4.39063e-05,0.510159,0.3810015544169736,0.8717858965248937,-8.331982871023769e-05,-0.03866525423104439,-4.3905336132521455e-05,-0.24496184908763052
667,0.6558,853.935,303.576,0.00957988,509.38,0.25622,0.138717,0.323194,-0.0394823,-0.281322,0.62765,-8.2763e-05,-4.35846e-05,0.510777,0.38153334237803804,0.8732033748964363,-8.275957523740107e-05,-0.038713031380637086,-4.358365020507016e-05,-0.24521474450583858
668,0.6568,854.102,303.634,0.00955343,509.478,0.256235,0.138745,0.32358,-0.0395319,-0.281657,0.628406,-8.22031e-05,-4.32631e-05,0.511394,0.38206671718291063,0.8746200520843614,-8.219972141776388e-05,-0.03876071003184034,-4.32621641656139e-05,-0.24546755521827046
669,0.6578,854.269,303.691,0.00952707,509.576,0.256251,0.138772,0.323965,-0.0395816,-0.281992,0.629161,-8.16434e-05,-4.29418e-05,0.512011,0.382598915310592,0.8760359246483211,-8.164006726829598e-05,-0.03880848243739765,-4.2940878014152695e-05,-0.24572028125329803
670,0.6588,854.436,303.748,0.00950078,509.674,0.256266,0.1388,0.324349,-0.0396312,-0.282326,0.629916,-8.10841e-05,-4.26206e-05,0.512628,0.38312993524337324,0.8774528665997097,-8.108081277324874e-05,-0.038856156354345806,-4.261969175511915e-05,-0.2459721686118289
671,0.6598,854.602,303.806,0.00947456,509.772,0.256281,0.138828,0.324734,-0.0396808,-0.28266,0.63067,-8.05251e-05,-4.22996e-05,0.513244,0.3836625427888156,0.8788689998762798,-8.052185794116262e-05,-0.03890382790672642,-4.229870538452474e-05,-0.24622397185403022
672,0.6608,854.769,303.863,0.00944842,509.869,0.256296,0.138855,0.325118,-0.0397303,-0.282995,0.631424,-7.99664e-05,-4.19788e-05,0.51386,0.3841939712329776,0.880286201319989,-7.996320277270375e-05,-0.03895140098980143,-4.197791890248048e-05,-0.2464764445319244
673,0.6618,854.935,303.92,0.00942235,509.967,0.256311,0.138882,0.325502,-0.0397799,-0.283329,0.632178,-7.9408e-05,-4.16582e-05,0.514475,0.3847256037848483,0.881704471736539,-7.940484726820518e-05,-0.03899906781816531,-4.165733230920843e-05,-0.2467280793740928
674,0.6628,855.1,303.977,0.00939636,510.064,0.256326,0.13891,0.325886,-0.0398294,-0.283662,0.632931,-7.885e-05,-4.13377e-05,0.51509,0.3852574405228202,0.8831219288093686,-7.884689142045875e-05,-0.039046636186981454,-4.133684560903017e-05,-0.24697887716351175
675,0.6638,855.266,304.034,0.00937044,510.161,0.256341,0.138937,0.326269,-0.0398789,-0.283996,0.633684,-7.82922e-05,-4.10174e-05,0.515705,0.38578809573652695,0.8845404536293304,-7.828913524565717e-05,-0.03909420220122162,-4.101655879795718e-05,-0.24723034422120282
676,0.6648,855.431,304.091,0.0093446,510.258,0.256355,0.138964,0.326652,-0.0399283,-0.284329,0.634436,-7.77348e-05,-4.06973e-05,0.516319,0.3863189542301064,0.8859581610416367,-7.773177872871795e-05,-0.03914166977517408,-4.069647187610048e-05,-0.24748097478427233
677,0.6658,855.596,304.147,0.00931883,510.355,0.25637,0.138991,0.327036,-0.0399778,-0.284662,0.635188,-7.71776e-05,-4.03774e-05,0.516933,0.3868514029321388,0.8873769349708771,-7.717462188561175e-05,-0.03918923108536809,-4.037658484379314e-05,-0.24773152190125902
678,0.6668,855.761,304.204,0.00929313,510.451,0.256385,0.139018,0.327418,-0.0400272,-0.284995,0.635939,-7.66208e-05,-4.00576e-05,0.517547,0.38738128136839656,0.8887948874235425,-7.661786470147813e-05,-0.03923669396500973,-4.0056797705023683e-05,-0.24798198559994555
679,0.6678,855.925,304.26,0.00926751,510.548,0.256399,0.139045,0.327801,-0.0400765,-0.285328,0.63669,-7.60643e-05,-3.9738e-05,0.51816,0.38791275016893945,0.890213905158463,-7.606140718452448e-05,-0.039284058428453617,-3.973721045613665e-05,-0.24823236590810582
680,0.6688,856.09,304.317,0.00924196,510.644,0.256414,0.139072,0.328183,-0.0401259,-0.28566,0.637441,-7.55081e-05,-3.94186e-05,0.518773,0.38844303411728953,0.8916339889759666,-7.550524933519487e-05,-0.03933151662374024,-3.9417823097243065e-05,-0.24848191133579112
681,0.6698,856.253,304.373,0.00921648,510.74,0.256428,0.139099,0.328566,-0.0401752,-0.285993,0.638191,-7.49522e-05,-3.90994e-05,0.519385,0.38897490964701875,0.8930532466227881,-7.494939115404442e-05,-0.03937887641254223,-3.909863562845395e-05,-0.24873212519639631
682,0.6708,856.417,304.429,0.00919108,510.836,0.256443,0.139125,0.328947,-0.0402245,-0.286325,0.63894,-7.43967e-05,-3.87803e-05,0.519997,0.38950420991289203,0.8944716746394892,-7.439393263419802e-05,-0.0394262338665643,-3.877954805386885e-05,-0.24898150473153768
683,0.6718,856.581,304.486,0.00916575,510.932,0.256457,0.139152,0.329329,-0.0402738,-0.286657,0.639689,-7.38414e-05,-3.84614e-05,0.520609,0.39003510191499546,0.8958911654567439,-7.383867379096021e-05,-0.03947358898592135,-3.846066036983231e-05,-0.24923080148641563
684,0.6728,856.744,304.542,0.00914048,511.028,0.256471,0.139178,0.329711,-0.040323,-0.286988,0.640438,-7.32865e-05,-3.81427e-05,0.52122,0.39056619675658344,0.8973117198708882,-7.328381461002564e-05,-0.039520845722818,-3.814197257645535e-05,-0.24947926496814898
685,0.6738,856.907,304.598,0.0091153,511.123,0.256485,0.139205,0.330092,-0.0403723,-0.28732,0.641186,-7.27318e-05,-3.78241e-05,0.521831,0.39109610341835666,0.898731439946465,-7.272915510680988e-05,-0.03956819617792562,-3.78233846777265e-05,-0.24972839649405787
686,0.6748,857.069,304.653,0.00909018,511.219,0.2565,0.139231,0.330473,-0.0404215,-0.287651,0.641934,-7.21775e-05,-3.75058e-05,0.522442,0.3916262120130336,0.9001522223699268,-7.217489526689658e-05,-0.039615448260262864,-3.7505096666223814e-05,-0.24997669529909905
687,0.6758,857.232,304.709,0.00906513,511.314,0.256514,0.139257,0.330854,-0.0404706,-0.287982,0.642681,-7.16234e-05,-3.71876e-05,0.523052,0.39215652261756584,0.90157216636309,-7.162083510547923e-05,-0.03966260198411986,-3.7186908549813324e-05,-0.2502249119308363
688,0.6768,857.394,304.765,0.00904016,511.409,0.256528,0.139284,0.331234,-0.0405198,-0.288313,0.643428,-7.10697e-05,-3.68695e-05,0.523662,0.3926856426225942,0.9029931714506858,-7.10671746086966e-05,-0.039709849421805776,-3.686882032838401e-05,-0.2504730464164643
689,0.6778,857.556,304.821,0.00901525,511.504,0.256542,0.13931,0.331614,-0.0405689,-0.288644,0.644175,-7.05163e-05,-3.65517e-05,0.524272,0.39321496373143217,0.9044152384256476,-7.051381378420096e-05,-0.0397569985106796,-3.655103199473597e-05,-0.25072109878316906
690,0.6788,857.717,304.876,0.00899042,511.599,0.256555,0.139336,0.331995,-0.040618,-0.288974,0.644921,-6.99632e-05,-3.6234e-05,0.524881,0.39374587976569586,0.905836462244086,-6.99607526324364e-05,-0.039804145284589865,-3.62333435565132e-05,-0.2509683200268219
691,0.6798,857.879,304.932,0.00896566,511.693,0.256569,0.139362,0.332374,-0.040667,-0.289304,0.645666,-6.94104e-05,-3.59165e-05,0.52549,0.3942742095663001,0.9072568394332654,-6.940799115395802e-05,-0.03985119372877466,-3.591585501028227e-05,-0.25121545970092396
692,0.6808,858.04,304.987,0.00894096,511.788,0.256583,0.139388,0.332754,-0.0407161,-0.289635,0.646411,-6.8858e-05,-3.55992e-05,0.526098,0.3948041344452857,0.9086782751977212,-6.88556293423348e-05,-0.03989833587781333,-3.559856635604319e-05,-0.2514632663694968
693,0.6818,858.201,305.042,0.00891634,511.882,0.256597,0.139413,0.333133,-0.0407651,-0.289964,0.647156,-6.83058e-05,-3.5282e-05,0.526706,0.39533286540042756,0.9101007703263855,-6.83034672119831e-05,-0.039945379706772144,-3.528137759756245e-05,-0.2517094944481213
694,0.6828,858.361,305.097,0.00889178,511.976,0.256611,0.139439,0.333513,-0.0408141,-0.290294,0.6479,-6.77539e-05,-3.4965e-05,0.527314,0.3958631926450744,0.9115224140854092,-6.775160475636088e-05,-0.03999242123063973,-3.496438873151764e-05,-0.251956389575017
695,0.6838,858.522,305.153,0.0088673,512.07,0.256624,0.139465,0.333892,-0.0408631,-0.290624,0.648644,-6.72024e-05,-3.46482e-05,0.527921,0.39639232505934574,0.9129451159409525,-6.720014196925916e-05,-0.04003946044952911,-3.464759975801979e-05,-0.2522032032399626
696,0.6848,858.682,305.208,0.00884288,512.164,0.256638,0.13949,0.33427,-0.040912,-0.290953,0.649387,-6.66511e-05,-3.43315e-05,0.528528,0.39692026113184964,0.9143669623126132,-6.664887886476123e-05,-0.04008640137219821,-3.433091068083538e-05,-0.2524491879193982
697,0.6858,858.842,305.262,0.00881854,512.258,0.256651,0.139516,0.334649,-0.0409609,-0.291282,0.65013,-6.61002e-05,-3.40151e-05,0.529135,0.39744979425100624,0.9157898655086893,-6.609801542989402e-05,-0.04013333999951241,-3.401452149309758e-05,-0.2526950916831854
698,0.6868,859.001,305.317,0.00879426,512.352,0.256665,0.139541,0.335027,-0.0410098,-0.291611,0.650873,-6.55496e-05,-3.36988e-05,0.529741,0.3979781301224219,0.9172138263146938,-6.554745167186571e-05,-0.04018027633158372,-3.369823220178425e-05,-0.25294091455794143
699,0.6878,859.161,305.372,0.00877005,512.445,0.256678,0.139567,0.335405,-0.0410586,-0.291939,0.651615,-6.49992e-05,-3.33826e-05,0.530347,0.3985066657425471,0.9186369268788364,-6.499708759777345e-05,-0.040227114391240826,-3.338204280722845e-05,-0.2531859097565574
700,0.6888,859.32,305.427,0.00874591,512.538,0.256692,0.139592,0.335783,-0.0411075,-0.292268,0.652357,-6.44492e-05,-3.30667e-05,0.530953,0.39903540118690106,0.9200610837754479,-6.444712319497725e-05,-0.040274046137856456,-3.306615330267437e-05,-0.2534315711787276
701,0.6898,859.479,305.481,0.00872184,512.632,0.256705,0.139617,0.336161,-0.0411563,-0.292596,0.653098,-6.38995e-05,-3.27509e-05,0.531558,0.39956433653103174,0.9214843763032821,-6.389745847046324e-05,-0.040320879621658645,-3.275036369509987e-05,-0.25367640546836256
702,0.6908,859.637,305.536,0.00869783,512.725,0.256718,0.139642,0.336538,-0.0412051,-0.292924,0.653839,-6.33501e-05,-3.24353e-05,0.532163,0.40009207175774364,0.9229087238817271,-6.334809342478653e-05,-0.040367710820042646,-3.2434773981293574e-05,-0.2539211594655191
703,0.6918,859.796,305.59,0.00867389,512.818,0.256731,0.139667,0.336915,-0.0412538,-0.293252,0.654579,-6.2801e-05,-3.21198e-05,0.532768,0.40062000597814396,0.9243322029597003,-6.279902805850224e-05,-0.04041444377456904,-3.211928416479992e-05,-0.25416583319652886
704,0.6928,859.954,305.645,0.00865002,512.91,0.256745,0.139693,0.337292,-0.0413026,-0.29358,0.655319,-6.22522e-05,-3.18046e-05,0.533372,0.40114813926726756,0.925756735802036,-6.225026237205444e-05,-0.040461270407133654,-3.1804094239085146e-05,-0.25441042668771496
705,0.6938,860.112,305.699,0.00862622,513.003,0.256758,0.139717,0.337669,-0.0413513,-0.293907,0.656058,-6.17037e-05,-3.14895e-05,0.533976,0.4016764717001773,0.9271803960074487,-6.170179636588724e-05,-0.04050799880541911,-3.148900421090506e-05,-0.254654194619959
706,0.6948,860.27,305.753,0.00860248,513.095,0.256771,0.139742,0.338045,-0.0413999,-0.294235,0.656797,-6.11555e-05,-3.11745e-05,0.534579,0.4022036011476624,0.9286051086865943,-6.115363004055574e-05,-0.040554628983554664,-3.117401408037068e-05,-0.2548986279548654
707,0.6958,860.427,305.807,0.00857881,513.188,0.256784,0.139767,0.338421,-0.0414486,-0.294562,0.657536,-6.06076e-05,-3.08598e-05,0.535182,0.40273092883308603,0.9300308746175385,-6.060576339650403e-05,-0.04060135283538813,-3.0859323841281316e-05,-0.25514223627139365
708,0.6968,860.584,305.861,0.00855521,513.28,0.256797,0.139792,0.338797,-0.0414972,-0.294889,0.658274,-6.00601e-05,-3.05452e-05,0.535785,0.4032584548310001,0.9314557631221931,-6.0058296428300295e-05,-0.040647978476628044,-3.054473350017073e-05,-0.2553857649410254
709,0.6978,860.741,305.915,0.00853167,513.372,0.25681,0.139817,0.339173,-0.0415458,-0.295215,0.659012,-5.95128e-05,-3.02308e-05,0.536387,0.4037861792159836,0.932881703582688,-5.9511029148473504e-05,-0.04069460185191687,-3.023034305393857e-05,-0.2556284696186427
710,0.6988,860.898,305.969,0.0085082,513.464,0.256822,0.139841,0.339549,-0.0415944,-0.295542,0.659749,-5.89658e-05,-2.99165e-05,0.536989,0.4043141020626442,0.9343067624679238,-5.8964061551369795e-05,-0.04074122296136473,-2.9916052506018254e-05,-0.25587183931596325
711,0.6998,861.055,306.023,0.00848479,513.556,0.256835,0.139866,0.339924,-0.041643,-0.295868,0.660486,-5.84192e-05,-2.96024e-05,0.537591,0.4048408186040968,0.9357328720086768,-5.8417493631779394e-05,-0.04078784180508177,-2.9601961853309433e-05,-0.25611438555916055
712,0.7008,861.211,306.076,0.00846145,513.647,0.256848,0.13989,0.340299,-0.0416915,-0.296194,0.661223,-5.78728e-05,-2.92885e-05,0.538192,0.4053677327012919,0.9371600329795657,-5.787112540178718e-05,-0.04083436246661909,-2.9288071096034152e-05,-0.2563568527451696
713,0.7018,861.367,306.13,0.00843818,513.739,0.256861,0.139915,0.340674,-0.04174,-0.29652,0.661959,-5.73268e-05,-2.89748e-05,0.538793,0.4058948444283266,0.9385863075685035,-5.73251568504185e-05,-0.04088088087195896,-2.8974380234525476e-05,-0.25659924089975883
714,0.7028,861.523,306.183,0.00841497,513.83,0.256873,0.139939,0.341049,-0.0417885,-0.296846,0.662694,-5.6781e-05,-2.86612e-05,0.539394,0.406422153859326,0.940011692269275,-5.677938798953619e-05,-0.040927397021210954,-2.8660789271772735e-05,-0.25684155004868825
715,0.7038,861.678,306.237,0.00839183,513.921,0.256886,0.139963,0.341423,-0.0418369,-0.297172,0.663429,-5.62356e-05,-2.83478e-05,0.539994,0.40694825411948554,0.94143812501291,-5.623401880827661e-05,-0.040973815011870696,-2.8347398204897623e-05,-0.2570837802177095
716,0.7048,861.833,306.29,0.00836875,514.012,0.256899,0.139987,0.341798,-0.0418853,-0.297497,0.664164,-5.56904e-05,-2.80346e-05,0.540594,0.4074759586531964,0.9428656065700032,-5.56888493185026e-05,-0.04102023075595407,-2.8034207034233205e-05,-0.25732518875812604
717,0.7058,861.988,306.344,0.00834573,514.103,0.256911,0.140011,0.342172,-0.0419337,-0.297822,0.664898,-5.51456e-05,-2.77215e-05,0.541194,0.4080024531100592,0.9442921934185504,-5.514407950935052e-05,-0.04106664425356976,-2.772111576276881e-05,-0.2575665188535149
718,0.7068,862.143,306.397,0.00832278,514.194,0.256924,0.140036,0.342546,-0.0419821,-0.298147,0.665632,-5.4601e-05,-2.74086e-05,0.541793,0.4085291445126755,0.9457198277662298,-5.459950939257219e-05,-0.04111305550482658,-2.7408224387737157e-05,-0.25780777052936665
719,0.7078,862.298,306.45,0.00829989,514.285,0.256936,0.14006,0.342919,-0.0420305,-0.298472,0.666366,-5.40568e-05,-2.70959e-05,0.542392,0.40905462387938796,0.9471485103821875,-5.405533895752601e-05,-0.0411594645098331,-2.709553290947131e-05,-0.2580489438111635
720,0.7088,862.452,306.503,0.00827707,514.375,0.256949,0.140083,0.343293,-0.0420788,-0.298796,0.667099,-5.35129e-05,-2.67834e-05,0.54299,0.4095817088674678,0.9485762934588675,-5.351146821030994e-05,-0.04120577538928061,-2.678304132797127e-05,-0.25828929701404724
721,0.7098,862.606,306.556,0.00825431,514.465,0.256961,0.140107,0.343666,-0.0421271,-0.299121,0.667831,-5.29692e-05,-2.6471e-05,0.543589,0.4101075809139152,0.950003173480054,-5.296779715668887e-05,-0.04125208403196656,-2.6470649646226363e-05,-0.25853031382516445
722,0.7108,862.76,306.609,0.00823161,514.556,0.256973,0.140131,0.344039,-0.0421754,-0.299445,0.668563,-5.24259e-05,-2.61588e-05,0.544186,0.4106336491472222,0.951431098359788,-5.242452578646528e-05,-0.0412983904379991,-2.615845786158033e-05,-0.25877051108942706
723,0.7118,862.914,306.661,0.00820898,514.646,0.256986,0.140155,0.344411,-0.0422236,-0.299769,0.669295,-5.18829e-05,-2.58467e-05,0.544784,0.41115850248137265,0.952860068863185,-5.1881554105626115e-05,-0.041344598741950955,-2.584636597691148e-05,-0.25901063054238205
724,0.7128,863.068,306.714,0.00818641,514.736,0.256998,0.140179,0.344784,-0.0422718,-0.300093,0.670027,-5.13401e-05,-2.55349e-05,0.545381,0.4116849627815402,0.9542900857559227,-5.133878211960319e-05,-0.041390804818716154,-2.553457398724035e-05,-0.2592506722092365
725,0.7138,863.221,306.767,0.0081639,514.826,0.25701,0.140202,0.345156,-0.04232,-0.300416,0.670757,-5.07977e-05,-2.52232e-05,0.545978,0.4122102072771141,0.9557172383658497,-5.0796409818643085e-05,-0.041437008668402164,-2.5222881897768445e-05,-0.25948989560545455
726,0.7148,863.374,306.819,0.00814146,514.915,0.257022,0.140226,0.345528,-0.0423682,-0.30074,0.671488,-5.02556e-05,-2.49116e-05,0.546574,0.41273564719998745,0.9571473903239509,-5.025433720851069e-05,-0.041483210291116346,-2.491128970871781e-05,-0.2597297820155814
727,0.7158,863.526,306.872,0.00811908,515.005,0.257034,0.140249,0.3459,-0.0424163,-0.301063,0.672218,-4.97137e-05,-2.46003e-05,0.54717,0.41326128262287276,0.9585766295277265,-4.9712464294526804e-05,-0.041529313839902104,-2.4599997415108987e-05,-0.25996885068432196
728,0.7168,863.679,306.924,0.00809676,515.094,0.257046,0.140273,0.346272,-0.0424645,-0.301386,0.672948,-4.91722e-05,-2.42891e-05,0.547766,0.41378711361850984,0.9600069124570345,-4.917099106716005e-05,-0.04157551101361412,-2.4288805022143478e-05,-0.26020784214635195
729,0.7178,863.831,306.977,0.0080745,515.184,0.257058,0.140296,0.346643,-0.0425126,-0.301709,0.673677,-4.8631e-05,-2.3978e-05,0.548361,0.414311725947232,0.9614362784368133,-4.86298175320643e-05,-0.041621610122841934,-2.3977712530043327e-05,-0.2604467564266053
730,0.7188,863.983,307.029,0.0080523,515.273,0.25707,0.140319,0.347014,-0.0425606,-0.302031,0.674406,-4.809e-05,-2.36672e-05,0.548957,0.4148365329432364,0.9628666868042957,-4.8088843694449324e-05,-0.041667611181521735,-2.3666919934051123e-05,-0.26068485423523147
731,0.7198,864.135,307.081,0.00803017,515.362,0.257082,0.140343,0.347385,-0.0426087,-0.302354,0.675134,-4.75494e-05,-2.33565e-05,0.549551,0.4153615346787587,0.9642961740225029,-4.754826954522784e-05,-0.041713705860838,-2.33562272390353e-05,-0.26092361446546053
732,0.7208,864.287,307.133,0.00800809,515.451,0.257094,0.140366,0.347756,-0.0426567,-0.302676,0.675862,-4.70091e-05,-2.30459e-05,0.550146,0.4158867312260599,0.9657267022862994,-4.700799508960962e-05,-0.041759702499028606,-2.3045634445328922e-05,-0.26116155875051683
733,0.7218,864.438,307.185,0.00798608,515.54,0.257106,0.140389,0.348127,-0.0427047,-0.302998,0.67659,-4.64691e-05,-2.27356e-05,0.55074,0.4164121226574291,0.9671582723538428,-4.6468020328149784e-05,-0.04180569692943348,-2.273534154817458e-05,-0.2613994264298475
734,0.7228,864.59,307.237,0.00796413,515.628,0.257118,0.140412,0.348497,-0.0427527,-0.30332,0.677317,-4.59293e-05,-2.24254e-05,0.551333,0.41693629210818073,0.968588916393941,-4.5928245265836054e-05,-0.041851689152158644,-2.2425148552551732e-05,-0.26163721752811564
735,0.7238,864.741,307.289,0.00794224,515.717,0.25713,0.140435,0.348867,-0.0428006,-0.303642,0.678043,-4.53899e-05,-2.21154e-05,0.551927,0.4174606555375131,0.9700186308708008,-4.538886989402524e-05,-0.041897583357073276,-2.2115155456359226e-05,-0.2618749320699765
736,0.7248,864.891,307.341,0.00792041,515.805,0.257142,0.140458,0.349237,-0.0428486,-0.303963,0.67877,-4.48508e-05,-2.18055e-05,0.55252,0.4179852130172115,0.9714513551476156,-4.484979421792712e-05,-0.041943571169355875,-2.1805262261809233e-05,-0.2621118321922782
737,0.7258,865.042,307.392,0.00789864,515.893,0.257153,0.140481,0.349607,-0.0428965,-0.304284,0.679496,-4.43119e-05,-2.14958e-05,0.553112,0.4185099646190875,0.9728831485095544,-4.431091824230737e-05,-0.0419894609732272,-2.1495568966911627e-05,-0.26234865628184456
738,0.7268,865.192,307.444,0.00787693,515.981,0.257165,0.140504,0.349976,-0.0429443,-0.304606,0.680221,-4.37734e-05,-2.11863e-05,0.553705,0.41903349138077917,0.9743140074159027,-4.3772441958744857e-05,-0.04203525278255971,-2.1186075571888452e-05,-0.262586141777305
739,0.7278,865.342,307.495,0.00785528,516.069,0.257177,0.140527,0.350345,-0.0429922,-0.304926,0.680946,-4.32351e-05,-2.08769e-05,0.554296,0.4195572113594923,0.975745904071097,-4.3234165376548894e-05,-0.042081138194987044,-2.0876682079062903e-05,-0.2628220764603737
740,0.7288,865.492,307.547,0.00783369,516.157,0.257188,0.140549,0.350714,-0.04304,-0.305247,0.681671,-4.26972e-05,-2.05678e-05,0.554888,0.420081124626537,0.9771788392277772,-4.2696288487520384e-05,-0.042126925622253064,-2.056758848423268e-05,-0.2630586725981182
741,0.7298,865.642,307.598,0.00781216,516.245,0.2572,0.140572,0.351083,-0.0430878,-0.305568,0.682395,-4.21595e-05,-2.02587e-05,0.555479,0.4206052312532498,0.978610835027306,-4.215861130074661e-05,-0.04217271086093244,-2.0258494793923276e-05,-0.2632951928006908
742,0.7308,865.791,307.65,0.00779069,516.333,0.257211,0.140595,0.351452,-0.0431356,-0.305888,0.683119,-4.16222e-05,-1.99499e-05,0.55607,0.42112953131099395,0.9800438679671932,-4.1621333808250505e-05,-0.04221849391112964,-1.994970100205329e-05,-0.2635309006237315
743,0.7318,865.94,307.701,0.00776928,516.42,0.257223,0.140617,0.35182,-0.0431833,-0.306208,0.683842,-4.10851e-05,-1.96412e-05,0.556661,0.42165260321784426,0.981475957321652,-4.108425601878629e-05,-0.04226417899937207,-1.9641007112936038e-05,-0.26376653303233577
744,0.7328,866.089,307.752,0.00774798,516.507,0.257235,0.14064,0.352188,-0.0432311,-0.306528,0.684565,-4.05483e-05,-1.93327e-05,0.557251,0.4221758676505787,0.982909082451102,-4.054747792880953e-05,-0.04230995767749679,-1.9332513124581396e-05,-0.26400209005063247
745,0.7338,866.238,307.803,0.00772445,516.595,0.257248,0.140663,0.352556,-0.0432788,-0.306848,0.685287,-4.00118e-05,-1.90243e-05,0.557841,0.4226993246800601,0.9843412597624268,-4.001099953865328e-05,-0.04235563840302159,-1.9024119039201537e-05,-0.2642375717027424
746,0.7348,866.387,307.854,0.0077062,516.682,0.257261,0.140687,0.352924,-0.0433264,-0.307168,0.68601,-3.94756e-05,-1.87161e-05,0.558431,0.42322297437717715,0.9857764572546104,-3.947482084876164e-05,-0.042401221189754756,-1.8715924854917354e-05,-0.26447297801277914
747,0.7358,866.535,307.905,0.00768366,516.769,0.257273,0.14071,0.353292,-0.0433741,-0.307487,0.686731,-3.89398e-05,-1.84081e-05,0.55902,0.42374681681284443,0.9872087183483695,-3.8939041855812206e-05,-0.04244689756211384,-1.8407930571950892e-05,-0.2647075737127895
748,0.7368,866.683,307.956,0.00766338,516.856,0.257285,0.140733,0.353659,-0.0434217,-0.307806,0.687453,-3.84041e-05,-1.81003e-05,0.559609,0.4242694277878627,0.9886440011177475,-3.8403362571992616e-05,-0.04249247600501427,-1.8100136190524196e-05,-0.26494209458870677
749,0.7378,866.831,308.007,0.00764191,516.942,0.257297,0.140755,0.354026,-0.0434693,-0.308125,0.688173,-3.78688e-05,-1.77926e-05,0.560197,0.42479223059630833,0.9900763403788093,-3.7868082986003415e-05,-0.04253805227843255,-1.7792441712627394e-05,-0.26517654066439567
750,0.7388,866.979,308.057,0.00762113,517.029,0.257309,0.140778,0.354393,-0.0435169,-0.308444,0.688894,-3.73338e-05,-1.74851e-05,0.560786,0.4253152253085968,0.9915117028061975,-3.733310310238824e-05,-0.04258362638247182,-1.74849471364924e-05,-0.265410911963714
751,0.7398,867.126,308.108,0.00760008,517.115,0.25732,0.1408,0.35476,-0.0435645,-0.308763,0.689614,-3.67991e-05,-1.71777e-05,0.561373,0.4258384119951697,0.9929461075559614,-3.679842292148017e-05,-0.04262919831723533,-1.7177552464109347e-05,-0.26564520851051154
752,0.7408,867.273,308.159,0.00757925,517.202,0.257332,0.140823,0.355126,-0.043612,-0.309081,0.690334,-3.62647e-05,-1.68705e-05,0.561961,0.426360364365417,0.9943815454490323,-3.626404244372328e-05,-0.042674672350298426,-1.6870357693932192e-05,-0.2658786962076938
753,0.7418,867.421,308.209,0.00755839,517.288,0.257343,0.140845,0.355493,-0.0436595,-0.3094,0.691053,-3.57306e-05,-1.65635e-05,0.562548,0.4268839346884168,0.9958160214125218,-3.572996166967268e-05,-0.04272014422339632,-1.6563362825960937e-05,-0.266112843555116
754,0.7428,867.567,308.26,0.00753763,517.374,0.257355,0.140867,0.355859,-0.043707,-0.309718,0.691772,-3.51967e-05,-1.62566e-05,0.563135,0.4274062697900056,0.9972515291351021,-3.519608060342794e-05,-0.042765613936631475,-1.625646786218571e-05,-0.266346182567996
755,0.7438,867.714,308.31,0.00751691,517.46,0.257366,0.140889,0.356224,-0.0437544,-0.310036,0.69249,-3.46632e-05,-1.59499e-05,0.563722,0.4279273681731486,0.9986860706718044,-3.466259923823323e-05,-0.0428109857712099,-1.594977280106047e-05,-0.2665794473908669
756,0.7448,867.86,308.36,0.00749625,517.546,0.257377,0.140911,0.35659,-0.0438019,-0.310353,0.693208,-3.41299e-05,-1.56434e-05,0.564308,0.42845008524128825,1.0001216425791886,-3.412931758162152e-05,-0.04285645116957393,-1.564327764269624e-05,-0.2668119048595886
757,0.7458,868.007,308.41,0.00747565,517.631,0.257389,0.140933,0.356956,-0.0438493,-0.310671,0.693926,-3.3597e-05,-1.5337e-05,0.564894,0.42897299365888975,1.001558245597327,-3.3596435627170074e-05,-0.04290181869856957,-1.5336882388861106e-05,-0.26704502160631605
758,0.7468,868.153,308.461,0.0074551,517.717,0.2574,0.140955,0.357321,-0.0438967,-0.310988,0.694643,-3.30643e-05,-1.50308e-05,0.565479,0.429494664000621,1.002993877471944,-3.3063753382078787e-05,-0.04294718407719533,-1.503068703812005e-05,-0.26727733151140143
759,0.7478,868.299,308.511,0.00743462,517.802,0.257411,0.140977,0.357686,-0.043944,-0.311305,0.69536,-3.25319e-05,-1.47248e-05,0.566064,0.4300165247867811,1.004430539063724,-3.2531370843469354e-05,-0.04299245160480303,-1.4724691590695116e-05,-0.26750956778591806
760,0.7488,868.444,308.561,0.00741418,517.888,0.257422,0.140999,0.358051,-0.0439914,-0.311622,0.696076,-3.19999e-05,-1.44189e-05,0.566649,0.4305385760868947,1.005866225244012,-3.1999388008685514e-05,-0.04303781268753082,-1.4418796048132343e-05,-0.26774173045320304
761,0.7498,868.589,308.611,0.00739381,517.973,0.257433,0.141021,0.358415,-0.0440387,-0.311939,0.696792,-3.14681e-05,-1.41132e-05,0.567234,0.43105938691040957,1.007302939743699,-3.146760488448308e-05,-0.043083075928506576,-1.411310040921876e-05,-0.26797381953658617
762,0.7508,868.735,308.66,0.00737348,518.058,0.257444,0.141042,0.35878,-0.044086,-0.312256,0.697508,-3.09366e-05,-1.38077e-05,0.567818,0.4315818189246745,1.0087406832993264,-3.093612146831681e-05,-0.043128337028581765,-1.380760467417641e-05,-0.2682058350593898
763,0.7518,868.88,308.71,0.00735322,518.143,0.257454,0.141064,0.359144,-0.0441332,-0.312572,0.698223,-3.04054e-05,-1.35023e-05,0.568402,0.43210300955770364,1.0101774464695095,-3.040493776051978e-05,-0.043173500305212276,-1.3502208844329289e-05,-0.26843704548234015
764,0.7528,869.024,308.76,0.00733301,518.228,0.257465,0.141085,0.359508,-0.0441805,-0.312889,0.698938,-2.98745e-05,-1.31971e-05,0.568986,0.43262438993865526,1.0116152372927014,-2.9874053761536068e-05,-0.043218757128315466,-1.3197012918686468e-05,-0.2686689141857911
765,0.7538,869.169,308.81,0.00731285,518.313,0.257476,0.141107,0.359871,-0.0442277,-0.313205,0.699652,-2.93439e-05,-1.2892e-05,0.569569,0.4331445269913665,1.0130520434508874,-2.9343469472031813e-05,-0.04326391613721803,-1.2891916898571942e-05,-0.2688999782988557
766,0.7548,869.313,308.859,0.00729275,518.397,0.257487,0.141128,0.360235,-0.0442749,-0.313521,0.700366,-2.88135e-05,-1.25871e-05,0.570152,0.4336662865536709,1.0144898758549963,-2.8813084895107366e-05,-0.04330907301466569,-1.258702078277274e-05,-0.26913096940719605
767,0.7558,869.457,308.909,0.00727271,518.482,0.257497,0.141149,0.360598,-0.044322,-0.313836,0.70108,-2.82835e-05,-1.22824e-05,0.570734,0.43418680188350645,1.0159287352380293,-2.8283100025561225e-05,-0.043354132096177,-1.2282324571621928e-05,-0.26936115689539997
768,0.7568,869.601,308.958,0.00725271,518.566,0.257508,0.141171,0.360961,-0.0443692,-0.314152,0.701793,-2.77538e-05,-1.19778e-05,0.571316,0.434707506194705,1.0173666049658978,-2.775341486682681e-05,-0.043399284715531894,-1.19777282664435e-05,-0.2695920022943271
769,0.7578,869.745,309.007,0.00723278,518.651,0.257519,0.141192,0.361324,-0.0444163,-0.314467,0.702506,-2.72243e-05,-1.16734e-05,0.571898,0.435228399555879,1.0188055002604535,-2.722392942211549e-05,-0.04344433954817217,-1.1673331866135506e-05,-0.2698220445800422
770,0.7588,869.889,309.057,0.00721289,518.735,0.257529,0.141213,0.361687,-0.0444634,-0.314782,0.703218,-2.66952e-05,-1.13692e-05,0.57248,0.435749482035666,1.0202434016087745,-2.669484368633679e-05,-0.04348939225877979,-1.1369135370919992e-05,-0.2700520144138491
771,0.7598,870.032,309.106,0.00719307,518.819,0.25754,0.141234,0.36205,-0.0445105,-0.315097,0.70393,-2.61663e-05,-1.10651e-05,0.573061,0.4362707537027284,1.0216823271074094,-2.616595766535834e-05,-0.04353444284745467,-1.1065038782009928e-05,-0.27028191181856653
772,0.7608,870.175,309.155,0.00717329,518.903,0.25755,0.141255,0.362412,-0.0445575,-0.315412,0.704641,-2.56377e-05,-1.07612e-05,0.573642,0.4367907778342579,1.0231202543645477,-2.5637371356967975e-05,-0.04357939567224112,-1.0761142098525411e-05,-0.27051173681700613
773,0.7618,870.318,309.204,0.00715357,518.986,0.257561,0.141276,0.362774,-0.0446045,-0.315727,0.705353,-2.51094e-05,-1.04575e-05,0.574222,0.4373109902485999,1.0245612289117196,-2.510908476160978e-05,-0.04362434638429458,-1.0457445320577463e-05,-0.27074148943197207
774,0.7628,870.461,309.253,0.0071339,519.07,0.257571,0.141297,0.363136,-0.0446515,-0.316041,0.706063,-2.45814e-05,-1.01539e-05,0.574803,0.43783139101392554,1.0259991777956947,-2.4581097879838865e-05,-0.04366929498371419,-1.0153848449379055e-05,-0.270970440657067
775,0.7638,870.603,309.302,0.00711429,519.154,0.257581,0.141318,0.363498,-0.0446985,-0.316355,0.706774,-2.40537e-05,-9.85048e-06,0.575383,0.4383519801984299,1.0274401754250602,-2.405341071209932e-05,-0.04371424147059921,-9.85043148415965e-06,-0.2711993200027628
776,0.7648,870.746,309.351,0.00709473,519.237,0.257592,0.141339,0.363859,-0.0447455,-0.316669,0.707484,-2.35263e-05,-9.54722e-06,0.575962,0.4388713189982949,1.0288801690868703,-2.3526023258724216e-05,-0.04375918584504901,-9.547174425472704e-06,-0.27142812749162626
777,0.7658,870.888,309.4,0.00707522,519.32,0.257602,0.14136,0.36422,-0.0447924,-0.316983,0.708193,-2.29991e-05,-9.24412e-06,0.576541,0.4393908453133111,1.0303191551870459,-2.2998835522702876e-05,-0.04380403248757092,-9.244077273207196e-06,-0.27165686314621673
778,0.7668,871.03,309.448,0.00705577,519.403,0.257612,0.14138,0.364581,-0.0448393,-0.317297,0.708902,-2.24723e-05,-8.94119e-06,0.57712,0.4399105592111836,1.031759161890128,-2.247204749972198e-05,-0.0438488770268346,-8.94115002769702e-06,-0.27188552698908675
779,0.7678,871.171,309.497,0.00703637,519.487,0.257623,0.141401,0.364942,-0.0448862,-0.317611,0.709611,-2.19457e-05,-8.63842e-06,0.577699,0.4404304607596421,1.0332001899199796,-2.1945459194872008e-05,-0.04389371946293863,-8.638382688941348e-06,-0.2721141190427815
780,0.7688,871.313,309.546,0.00701702,519.569,0.257633,0.141422,0.365303,-0.044933,-0.317924,0.710319,-2.14195e-05,-8.33581e-06,0.578277,0.4409505500264408,1.0346402053597568,-2.1419270604172702e-05,-0.04393846418983305,-8.335775257273248e-06,-0.27234191167211497
781,0.7698,871.454,309.594,0.00699772,519.652,0.257643,0.141442,0.365663,-0.0449798,-0.318237,0.711027,-2.08935e-05,-8.03336e-06,0.578855,0.44146938560925175,1.0360812406914635,-2.0893281732381475e-05,-0.043983206822723164,-8.033327732692719e-06,-0.27256963301351245
782,0.7708,871.595,309.643,0.00697848,519.735,0.257653,0.141463,0.366024,-0.0450267,-0.31855,0.711735,-2.03678e-05,-7.73108e-06,0.579433,0.4419898499956263,1.0375232966374406,-2.0367592577730242e-05,-0.0440280429589075,-7.73105011531161e-06,-0.27279728308928386
783,0.7718,871.736,309.691,0.00695929,519.818,0.257663,0.141483,0.366384,-0.0450734,-0.318863,0.712442,-1.98424e-05,-7.42895e-06,0.58001,0.44250905979378086,1.0389643349551836,-1.984220314088514e-05,-0.04407268580688273,-7.428922405461336e-06,-0.2730248619217317
784,0.7728,871.877,309.739,0.00694014,519.9,0.257674,0.141504,0.366743,-0.0451202,-0.319176,0.713149,-1.93173e-05,-7.12699e-06,0.580587,0.4430270135133765,1.0404063924472529,-1.9317113422179233e-05,-0.04411742215834824,-7.126964603032526e-06,-0.2732523695331516
785,0.7738,872.017,309.788,0.00692106,519.983,0.257684,0.141524,0.367103,-0.0451669,-0.319488,0.713855,-1.87924e-05,-6.82519e-06,0.581164,0.443546596757614,1.0418474279860104,-1.8792223423935717e-05,-0.04416206083241225,-6.825166708468444e-06,-0.27347907942527505
786,0.7748,872.158,309.836,0.00690202,520.065,0.257694,0.141544,0.367463,-0.0452137,-0.3198,0.714561,-1.82679e-05,-6.52355e-06,0.58174,0.4440663670854921,1.0432894812550746,-1.8267733142951492e-05,-0.04420679300122443,-6.523528721658067e-06,-0.2737057185949453
787,0.7758,872.298,309.884,0.00688303,520.147,0.257704,0.141565,0.367822,-0.0452603,-0.320112,0.715267,-1.77436e-05,-6.22207e-06,0.582316,0.4445848799787713,1.0447325529732172,-1.7743442583206814e-05,-0.044251331926905446,-6.222050642934462e-06,-0.27393228706422457
788,0.7768,872.438,309.932,0.0068641,520.229,0.257714,0.141585,0.368181,-0.045307,-0.320424,0.715972,-1.72196e-05,-5.92075e-06,0.582892,0.44510357905159625,1.0461745976840966,-1.7219451743488712e-05,-0.04429596434752936,-5.920732472408652e-06,-0.27415878485516776
789,0.7778,872.578,309.98,0.00684522,520.311,0.257724,0.141605,0.36854,-0.0453536,-0.320736,0.716677,-1.66959e-05,-5.61959e-06,0.583467,0.44562246437081776,1.0476176593949469,-1.6695760624241274e-05,-0.044340499117922594,-5.619574210080636e-06,-0.27438521198982324
790,0.7788,872.717,310.028,0.00682638,520.393,0.257734,0.141625,0.368898,-0.0454003,-0.321048,0.717381,-1.61725e-05,-5.3186e-06,0.584042,0.4461400898624972,1.0490596897622928,-1.6172369225797567e-05,-0.044385127374535815,-5.318585856284308e-06,-0.27461156849023216
791,0.7798,872.857,310.076,0.0068076,520.474,0.257744,0.141645,0.369257,-0.0454469,-0.321359,0.718085,-1.56494e-05,-5.01776e-06,0.584617,0.44665934735590107,1.0505027356764471,-1.5649277548823726e-05,-0.04442965799002885,-5.017747411018014e-06,-0.27483712921592074
792,0.7808,872.996,310.123,0.00678887,520.556,0.257754,0.141666,0.369615,-0.0454934,-0.32167,0.718789,-1.51266e-05,-4.71708e-06,0.585191,0.4471773441181426,1.051946797852608,-1.5126485593541794e-05,-0.04447409097785726,-4.717068874615649e-06,-0.27506261980313085
793,0.7818,873.135,310.171,0.00677019,520.637,0.257764,0.141686,0.369973,-0.04554,-0.321981,0.719492,-1.4604e-05,-4.41657e-06,0.585765,0.44769552635642307,1.0533898236156243,-1.4603893362163944e-05,-0.04451861744774288,-4.416560246967016e-06,-0.27528804027367204
794,0.7828,873.274,310.219,0.00675156,520.719,0.257774,0.141706,0.370331,-0.0455865,-0.322292,0.720195,-1.40817e-05,-4.11621e-06,0.586339,0.4482138941371552,1.054833864182414,-1.4081600853366183e-05,-0.04456304629905283,-4.116201528403529e-06,-0.2755133906493471
795,0.7838,873.412,310.266,0.00673298,520.8,0.257784,0.141726,0.370688,-0.045633,-0.322603,0.720897,-1.35598e-05,-3.81602e-06,0.586912,0.4487309987950514,1.0562768639887423,-1.3559708066379628e-05,-0.04460747308446911,-3.8160127190378645e-06,-0.27573867095195237
796,0.7848,873.551,310.314,0.00671445,520.881,0.257794,0.141746,0.371046,-0.0456795,-0.322913,0.721599,-1.30381e-05,-3.51598e-06,0.587485,0.4492497373412796,1.057720877136576,-1.3038015004296355e-05,-0.04465189780408796,-3.51597381897939e-06,-0.2759631571667962
797,0.7858,873.689,310.361,0.00669597,520.962,0.257804,0.141765,0.371403,-0.0457259,-0.323223,0.722301,-1.25166e-05,-3.21611e-06,0.588058,0.44976721186121615,1.0591659043375303,-1.2516521667671476e-05,-0.04469622492763259,-3.2161048283407823e-06,-0.2761875738016989
798,0.7868,873.827,310.409,0.00667754,521.043,0.257814,0.141785,0.37176,-0.0457724,-0.323534,0.723002,-1.19955e-05,-2.91639e-06,0.588631,0.45028487115253624,1.0606098856928048,-1.1995428054301094e-05,-0.0447406455203867,-2.9163857473424315e-06,-0.27641264446594416
799,0.7878,873.965,310.456,0.00665916,521.124,0.257824,0.141805,0.372117,-0.0458188,-0.323843,0.723703,-1.14747e-05,-2.61683e-06,0.589203,0.45080271528121485,1.0620548796338793,-1.1474634165842268e-05,-0.044784968526132896,-2.6168265760961873e-06,-0.27663619841793985
800,0.7888,874.102,310.503,0.00664083,521.205,0.257834,0.141825,0.372473,-0.0458652,-0.324153,0.724404,-1.09541e-05,-2.31743e-06,0.589775,0.4513192929932319,1.0635008868708251,-1.0954040004063081e-05,-0.04482928947533926,-2.317427314713072e-06,-0.27686040644239096
801,0.7898,874.24,310.551,0.00662255,521.285,0.257844,0.141845,0.37283,-0.0459115,-0.324463,0.725104,-1.04338e-05,-2.0182e-06,0.590346,0.4518375064764333,1.0649458431673358,-1.043374556808363e-05,-0.04487351285545749,-2.0181979634159575e-06,-0.2770845449731265
802,0.7908,874.377,310.598,0.00660432,521.366,0.257853,0.141864,0.373186,-0.0459579,-0.324772,0.725803,-9.91381e-06,-1.71912e-06,0.590917,0.45235445263969654,1.0663897448965733,-9.91376085834883e-06,-0.044917829696302314,-1.7191185223142114e-06,-0.27730789133993905
803,0.7918,874.514,310.645,0.00658613,521.446,0.257863,0.141884,0.373542,-0.0460042,-0.325082,0.726503,-9.39409e-06,-1.4202e-06,0.591488,0.4528715828685552,1.0678367241016375,-9.394045875632528e-06,-0.0449620489771031,-1.4201989915196833e-06,-0.27753189117185584
804,0.7928,874.651,310.692,0.006568,521.526,0.257873,0.141903,0.373898,-0.0460505,-0.325391,0.727202,-8.87465e-06,-1.12144e-06,0.592059,0.45338889722854914,1.0692826472630563,-8.874610620379642e-06,-0.04500626621059867,-1.1214393711433956e-06,-0.2777550993300473
805,0.7938,874.788,310.739,0.00654991,521.606,0.257883,0.141923,0.374253,-0.0460967,-0.3257,0.7279,-8.3555e-06,-8.22833e-07,0.592629,0.4539049418795713,1.0707275107495406,-8.355465092924064e-06,-0.045050385901927004,-8.228326614512227e-07,-0.27797823852757286
806,0.7948,874.925,310.786,0.00653187,521.686,0.257893,0.141942,0.374609,-0.046143,-0.326008,0.728598,-7.83662e-06,-5.24389e-07,0.593199,0.45442262418086266,1.0721733831027924,-7.836589293819252e-06,-0.04509459904551749,-5.243888625550142e-07,-0.2782005869866859
807,0.7958,875.061,310.832,0.00651388,521.766,0.257902,0.141962,0.374964,-0.0461892,-0.326317,0.729296,-7.31803e-06,-2.26103e-07,0.593768,0.4549390358700982,1.073620265027246,-7.318003223288905e-06,-0.0451387146559632,-2.2610297445435634e-07,-0.2784235885497912
808,0.7968,875.197,310.879,0.00649594,521.846,0.257912,0.141981,0.375319,-0.0462354,-0.326625,0.729994,-6.79971e-06,7.2024e-08,0.594338,0.45545563091802777,1.075068157227828,-6.799686881997502e-06,-0.045182828228314764,7.202400253980556e-08,-0.27864579986221905
809,0.7978,875.333,310.926,0.00647804,521.926,0.257922,0.142001,0.375674,-0.0462816,-0.326933,0.730691,-6.28168e-06,3.69993e-07,0.594907,0.45597240938975525,1.0765149838939356,-6.281660270279765e-06,-0.04522693976266623,3.6999306840534985e-07,-0.27886794274410154
810,0.7988,875.469,310.972,0.0064602,522.005,0.257932,0.14202,0.376028,-0.0463277,-0.327241,0.731387,-5.76393e-06,6.67804e-07,0.595475,0.4564879148617642,1.077960741387971,-5.763913388578956e-06,-0.045270953786212154,6.678042230312542e-07,-0.27909001721651205
811,0.7998,875.604,311.019,0.0064424,522.085,0.257941,0.142039,0.376383,-0.0463738,-0.327549,0.732084,-5.24646e-06,9.65457e-07,0.596044,0.45700505985934625,1.0794095848880234,-5.246446237339164e-06,-0.04531496578075833,9.654574659734294e-07,-0.2793120233005174
812,0.8008,875.74,311.065,0.00642465,522.164,0.257951,0.142059,0.376737,-0.04642,-0.327857,0.732779,-4.72927e-06,1.26295e-06,0.596612,0.4575209309543329,1.0808552768692916,-4.729258817004478e-06,-0.04535907121049598,1.2629507974981635e-06,-0.279533961017178
813,0.8018,875.875,311.112,0.00640695,522.244,0.257961,0.142078,0.377091,-0.046466,-0.328164,0.733475,-4.21235e-06,1.56029e-06,0.597179,0.4580369847000145,1.082304056258736,-4.21234112801816e-06,-0.045402983683225706,1.5602912173395822e-06,-0.279755110143018
814,0.8028,876.01,311.158,0.00638929,522.323,0.25797,0.142097,0.377445,-0.0465121,-0.328472,0.73417,-3.69572e-06,1.85747e-06,0.597747,0.458553221161061,1.08375176059682,-3.695713170825954e-06,-0.045446989591333975,1.857471725097426e-06,-0.2799769114099454
815,0.8038,876.145,311.205,0.00637168,522.402,0.25798,0.142116,0.377798,-0.0465581,-0.328779,0.734865,-3.17936e-06,2.15449e-06,0.598314,0.4590681813332538,1.0852004714391392,-3.179354945870294e-06,-0.04549089801991113,2.1544923209937394e-06,-0.28019792457088655
816,0.8048,876.28,311.251,0.00635412,522.481,0.25799,0.142135,0.378152,-0.0466041,-0.329086,0.735559,-2.66329e-06,2.45136e-06,0.598881,0.4595847829025286,1.08664810283631,-2.6632864534859024e-06,-0.04553480442874713,2.451363004585261e-06,-0.28041886989120124
817,0.8058,876.414,311.297,0.0063366,522.56,0.257999,0.142155,0.378505,-0.0466501,-0.329393,0.736253,-2.14749e-06,2.74807e-06,0.599447,0.4601001072802948,1.0880967392383671,-2.1474876941152132e-06,-0.04557870881793469,2.7480737758711626e-06,-0.2806397473917135
818,0.8068,876.549,311.343,0.00631914,522.638,0.258009,0.142174,0.378858,-0.0466961,-0.329699,0.736947,-1.63197e-06,3.04462e-06,0.600013,0.46061561359967707,1.0895463813430255,-1.6319686683141654e-06,-0.04562261118756683,3.044624634851445e-06,-0.2808598379534384
819,0.8078,876.683,311.389,0.00630171,522.717,0.258019,0.142193,0.379211,-0.046742,-0.330006,0.73764,-1.11673e-06,3.34101e-06,0.600579,0.46113130192491214,1.0909949388525009,-1.116729376415826e-06,-0.04566641610438271,3.3410155810820186e-06,-0.2810805800975338
820,0.8088,876.817,311.435,0.00628434,522.796,0.258028,0.142212,0.379564,-0.046788,-0.330312,0.738333,-6.01771e-07,3.63725e-06,0.601144,0.46164717232025954,1.0924445005602448,-6.017708189531845e-07,-0.04571031443957252,3.6372566147857555e-06,-0.2813005357850875
821,0.8098,876.951,311.481,0.00626701,522.874,0.258038,0.14223,0.379916,-0.0468339,-0.330618,0.739025,-8.70861e-08,3.93333e-06,0.60171,0.46216176268750764,1.093892973268388,-8.708609622321006e-08,-0.04575411533090157,3.933337735517739e-06,-0.2815204241764976
822,0.8108,877.084,311.527,0.00624973,522.952,0.258047,0.142249,0.380268,-0.0468797,-0.330924,0.739717,4.27321e-07,4.22925e-06,0.602275,0.4626765342224486,1.0953424486665355,4.2732109140075636e-07,-0.045797818791602496,4.229258943277969e-06,-0.28174024529235353
823,0.8118,877.218,311.573,0.00623249,523.031,0.258057,0.142268,0.38062,-0.0469256,-0.33123,0.740409,9.41451e-07,4.52502e-06,0.602839,0.4631914869888647,1.0967929274487895,9.41451443248198e-07,-0.045841615666574076,4.525030237845229e-06,-0.28195999915323866
824,0.8128,877.351,311.619,0.0062153,523.109,0.258066,0.142287,0.380972,-0.0469714,-0.331536,0.7411,1.4553e-06,4.82063e-06,0.603403,0.4637066210505607,1.098242312066371,1.455301058994607e-06,-0.04588531511985139,4.820641619218691e-06,-0.2821796857797296
825,0.8138,877.484,311.664,0.00619815,523.187,0.258076,0.142306,0.381324,-0.0470172,-0.331841,0.741791,1.96888e-06,5.11609e-06,0.603967,0.4642219364713638,1.0996926985548297,1.968881938152478e-06,-0.04592901257173965,5.116103087177137e-06,-0.2823985875913436
826,0.8148,877.617,311.71,0.00618105,523.265,0.258085,0.142325,0.381675,-0.047063,-0.332146,0.742481,2.48218e-06,5.41139e-06,0.604531,0.4647359685784225,1.1011419864636602,2.4821830806320833e-06,-0.04597270802233033,5.411404641497697e-06,-0.28261742264808576
827,0.8158,877.75,311.755,0.006164,523.342,0.258095,0.142343,0.382027,-0.0471088,-0.332451,0.743172,2.99521e-06,5.70653e-06,0.605094,0.46525164639333316,1.1025943773195568,2.9952144855460716e-06,-0.046016401471715374,5.706546282180369e-06,-0.282836190970313
828,0.8168,877.883,311.801,0.00614699,523.42,0.258104,0.142362,0.382378,-0.0471545,-0.332756,0.743861,3.50795e-06,6.00152e-06,0.605657,0.4657660399920125,1.1040435640330228,3.5079561528927883e-06,-0.04605999752599066,6.001538009225982e-06,-0.28305489257837646
829,0.8178,878.015,311.846,0.00613002,523.498,0.258114,0.142381,0.382729,-0.0472002,-0.333061,0.744551,4.02043e-06,6.29635e-06,0.60622,0.4662806141745357,1.1054958550749951,4.020438082008582e-06,-0.04610359158797184,6.2963698219675734e-06,-0.2832735274926207
830,0.8188,878.147,311.892,0.0061131,523.575,0.258123,0.142399,0.383079,-0.0472459,-0.333366,0.74524,4.53262e-06,6.59103e-06,0.606782,0.4667939022096632,1.1069470415954892,4.53263027244688e-06,-0.046147183657749835,6.591051720850061e-06,-0.2834920957333844
831,0.8198,878.279,311.937,0.00609623,523.653,0.258133,0.142418,0.38343,-0.0472916,-0.33367,0.745928,5.04454e-06,6.88555e-06,0.607345,0.46730883723514904,1.1083971199298555,5.04455272376525e-06,-0.0461907737354158,6.885573705428527e-06,-0.28370988103123895
832,0.8208,878.411,311.982,0.0060794,523.73,0.258142,0.142436,0.38378,-0.0473372,-0.333974,0.746617,5.55619e-06,7.17992e-06,0.607906,0.46782248521133374,1.109850306110638,5.556205435741646e-06,-0.046234266444492134,7.1799457757038e-06,-0.28392760013242535
833,0.8218,878.543,312.028,0.00606261,523.807,0.258152,0.142455,0.38413,-0.0473829,-0.334278,0.747305,6.06756e-06,7.47413e-06,0.608468,0.4683363129957747,1.1113023825782693,6.067578407709107e-06,-0.04627785254256578,7.474157931453007e-06,-0.2841452530570643
834,0.8228,878.674,312.073,0.00604587,523.884,0.258161,0.142473,0.38448,-0.0474285,-0.334582,0.747992,6.57866e-06,7.76819e-06,0.609029,0.46885032065141563,1.1127533456638532,6.578681639446415e-06,-0.04632134128093901,7.768220172454932e-06,-0.28436283982527044
835,0.8238,878.806,312.118,0.00602918,523.961,0.25817,0.142492,0.38483,-0.047474,-0.334886,0.748679,7.08948e-06,8.06209e-06,0.60959,0.469364508241223,1.11420530590356,7.089505130508655e-06,-0.0463647326727491,8.062122498708746e-06,-0.2845803604571524
836,0.8248,878.937,312.163,0.00601252,524.038,0.25818,0.14251,0.385179,-0.0475196,-0.335189,0.749366,7.60003e-06,8.35583e-06,0.61015,0.46987740595004324,1.1156582639826698,7.60005888023052e-06,-0.04640821744947876,8.355864909992405e-06,-0.2847970997702697
837,0.8258,879.068,312.208,0.00599592,524.115,0.258189,0.142528,0.385529,-0.0475651,-0.335493,0.750052,8.11031e-06,8.64942e-06,0.610711,0.4703919530826215,1.1171101034757722,8.11034288861201e-06,-0.046451604888513076,8.649457406306738e-06,-0.28501448840719257
838,0.8268,879.199,312.253,0.00597935,524.192,0.258198,0.142547,0.385878,-0.0476107,-0.335796,0.750738,8.62031e-06,8.94286e-06,0.611271,0.47090520943227077,1.11856293927246,8.620347154986163e-06,-0.046495085703960104,8.942899987429698e-06,-0.2852310961994674
839,0.8278,879.329,312.298,0.00596283,524.268,0.258208,0.142565,0.386227,-0.0476561,-0.336099,0.751424,9.13004e-06,9.23614e-06,0.61183,0.47141864493964714,1.1200167720564318,9.130081678909718e-06,-0.04653837384442083,9.236182653360459e-06,-0.28544763836952347
840,0.8288,879.46,312.342,0.00594635,524.345,0.258217,0.142583,0.386576,-0.0477016,-0.336402,0.752109,9.63949e-06,9.52927e-06,0.61239,0.4719322596672877,1.1214694810413137,9.639536459937759e-06,-0.04658175536147391,9.529315403655758e-06,-0.2856641149372413
841,0.8298,879.59,312.387,0.00592992,524.421,0.258226,0.142602,0.386924,-0.0477471,-0.336705,0.752794,1.01487e-05,9.82225e-06,0.612949,0.47244458123243405,1.122923185472752,1.0148751498295638e-05,-0.04662513490471287,9.822298238537641e-06,-0.28588052592249535
842,0.8308,879.72,312.432,0.00591353,524.497,0.258236,0.14262,0.387273,-0.0477925,-0.337007,0.753479,1.06576e-05,1.01151e-05,0.613507,0.4729585540743282,1.1243778860328608,1.0657656792423253e-05,-0.04666841714107406,1.0115151157785718e-05,-0.2860961574416685
843,0.8318,879.85,312.476,0.00589718,524.573,0.258245,0.142638,0.387621,-0.0478379,-0.33731,0.754163,1.11662e-05,1.04077e-05,0.614066,0.47347123285207937,1.1258314575717017,1.1166262342321431e-05,-0.04671169741246628,1.0407754160279836e-05,-0.2863124375378744
844,0.8328,879.98,312.521,0.00588088,524.649,0.258254,0.142656,0.387969,-0.0478833,-0.337612,0.754847,1.16746e-05,1.07002e-05,0.614624,0.4739840900730927,1.1272860236935838,1.1674668148442535e-05,-0.046754975718978686,1.0700257247364675e-05,-0.2865279386394337
845,0.8338,880.11,312.565,0.00586462,524.725,0.258264,0.142674,0.388317,-0.0479286,-0.337914,0.75553,1.21827e-05,1.09926e-05,0.615182,0.474497125799477,1.128739456338514,1.2182774209446023e-05,-0.046798156740521124,1.099266041881819e-05,-0.28674337466948674
846,0.8348,880.239,312.61,0.0058484,524.801,0.258273,0.142692,0.388664,-0.0479739,-0.338216,0.756213,1.26905e-05,1.12848e-05,0.615739,0.4750088650837603,1.1301938820170228,1.2690580524665762e-05,-0.04684133580600758,1.1284863673521883e-05,-0.286958745647682
847,0.8358,880.369,312.654,0.00583222,524.877,0.258282,0.14271,0.389012,-0.0480193,-0.338517,0.756896,1.31981e-05,1.15769e-05,0.616296,0.47552225749390775,1.1316493014075841,1.3198187095220248e-05,-0.046884608227070634,1.1576967012594253e-05,-0.2871733387673573
848,0.8368,880.498,312.699,0.00581609,524.953,0.258291,0.142728,0.389359,-0.0480645,-0.338819,0.757578,1.37053e-05,1.18688e-05,0.616853,0.47603435256061366,1.1331035820844866,1.370539391798431e-05,-0.04692768806916692,1.1868870434472711e-05,-0.2873885799160002
849,0.8378,880.627,312.743,0.0058,525.028,0.258301,0.142746,0.389706,-0.0481098,-0.33912,0.75826,1.42123e-05,1.21605e-05,0.61741,0.47654662535514203,1.1345588549190984,1.421240099519494e-05,-0.046970861267017106,1.216057393915726e-05,-0.28760304367503053
850,0.8388,880.756,312.787,0.00578395,525.104,0.25831,0.142764,0.390053,-0.0481551,-0.339422,0.758942,1.47191e-05,1.24521e-05,0.617966,0.4770590759391744,1.1360151205883007,1.4719208326408051e-05,-0.04701403250916569,1.2452177527766395e-05,-0.28781815507238473
851,0.8398,880.884,312.831,0.00576795,525.179,0.258319,0.142782,0.390399,-0.0482003,-0.339723,0.759623,1.52256e-05,1.27435e-05,0.618522,0.4775702268034496,1.1374702422981278,1.5225715910061055e-05,-0.0470571065014167,1.274358119873753e-05,-0.28803248954875105
852,0.8408,881.013,312.875,0.00575198,525.255,0.258328,0.1428,0.390746,-0.0482455,-0.340023,0.760304,1.57317e-05,1.30348e-05,0.619078,0.47808303263881724,1.1389263552833304,1.5731823743925233e-05,-0.04710017854676729,1.3034884953411208e-05,-0.28824604776655205
853,0.8418,881.141,312.919,0.00573606,525.33,0.258337,0.142818,0.391092,-0.0482906,-0.340324,0.760984,1.62377e-05,1.3326e-05,0.619633,0.47859453785340955,1.1403813198368065,1.6237831832244254e-05,-0.04714315335962549,1.3326088791565383e-05,-0.2884602534665992
854,0.8428,881.269,312.963,0.00572018,525.405,0.258347,0.142835,0.391438,-0.0483358,-0.340625,0.761664,1.67433e-05,1.3617e-05,0.620188,0.47910622007942716,1.141837274102643,1.674344016988627e-05,-0.04718622151574603,1.3617092711859513e-05,-0.2886743947004332
855,0.8438,881.397,313.007,0.00570434,525.48,0.258356,0.142853,0.391784,-0.0483809,-0.340925,0.762344,1.72487e-05,1.39078e-05,0.620743,0.47961807937812684,1.1432942187540736,1.724884875975441e-05,-0.04722919244815382,1.390789671384951e-05,-0.2888877603755716
856,0.8448,881.525,313.051,0.00568854,525.555,0.258365,0.142871,0.39213,-0.048426,-0.341225,0.763024,1.77538e-05,1.41985e-05,0.621298,0.48013011581078624,1.144752154464789,1.775395759961995e-05,-0.04727216144261637,1.419860079909796e-05,-0.2891010620506079
857,0.8458,881.653,313.095,0.00567279,525.63,0.258374,0.142888,0.392476,-0.0484711,-0.341525,0.763703,1.82587e-05,1.4489e-05,0.621852,0.48064232943870433,1.1462089356989296,1.8258866691045483e-05,-0.047315128499220815,1.4489104966042277e-05,-0.2893142997447393
858,0.8468,881.78,313.139,0.00565707,525.704,0.258383,0.142906,0.392821,-0.0485162,-0.341825,0.764381,1.87633e-05,1.47794e-05,0.622406,0.4811532391692217,1.14766455875779,1.8763476031802284e-05,-0.047358093618054875,1.4779509215800957e-05,-0.28952747347715724
859,0.8478,881.907,313.182,0.0056414,525.779,0.258392,0.142924,0.393166,-0.0485612,-0.342125,0.76506,1.92676e-05,1.50696e-05,0.622959,0.48166432519400515,1.1491233181859668,1.9267785621446265e-05,-0.04740096153930651,1.5069713547033459e-05,-0.2897405832670473
860,0.8488,882.035,313.226,0.00562577,525.853,0.258401,0.142941,0.393511,-0.0486063,-0.342425,0.765737,1.97716e-05,1.53597e-05,0.623513,0.48217558757388645,1.1505787672863095,1.9771795459311292e-05,-0.0474439227871577,1.535981796085828e-05,-0.28995362913358935
861,0.8498,882.162,313.27,0.00561018,525.928,0.258411,0.142959,0.393856,-0.0486513,-0.342724,0.766415,2.02754e-05,1.56496e-05,0.624066,0.4826870263697187,1.152037354095584,2.027560554740404e-05,-0.04748678684618368,1.5649722455712833e-05,-0.29016590126221375
862,0.8508,882.288,313.313,0.00559463,526.002,0.25842,0.142976,0.3942,-0.0486962,-0.343023,0.767092,2.07789e-05,1.59393e-05,0.624618,0.4831971584444763,1.1534947766661818,2.0779115882829657e-05,-0.047529553729330654,1.5939427031375075e-05,-0.29037810993095936
863,0.8518,882.415,313.357,0.00557912,526.076,0.258429,0.142994,0.394545,-0.0487412,-0.343322,0.767769,2.12822e-05,1.6229e-05,0.625171,0.4837089497430622,1.1549531862459252,2.1282426467594817e-05,-0.04757241393505096,1.6229131690970178e-05,-0.290590255158798
864,0.8528,882.542,313.4,0.00556365,526.151,0.258438,0.143011,0.394889,-0.0487861,-0.343621,0.768445,2.17851e-05,1.65184e-05,0.625723,0.48421943341993234,1.1564104270917395,2.1785337297020035e-05,-0.047615176973627826,1.6518536429588337e-05,-0.2908023369646955
865,0.8538,882.668,313.443,0.00554822,526.225,0.258447,0.143029,0.395233,-0.048831,-0.34392,0.769122,2.22878e-05,1.68077e-05,0.626275,0.48473009273339485,1.157870811235135,2.228804837489662e-05,-0.047657938092187435,1.6807841250132682e-05,-0.2910143553676122
866,0.8548,882.794,313.487,0.00553283,526.299,0.258456,0.143046,0.395577,-0.0488759,-0.344218,0.769797,2.27903e-05,1.70969e-05,0.626826,0.4852409277438794,1.1593278657332893,2.2790559700780477e-05,-0.04770069729081594,1.7097046152825257e-05,-0.2912256016124589
867,0.8558,882.92,313.53,0.00551748,526.372,0.258465,0.143064,0.395921,-0.0489208,-0.344517,0.770473,2.32925e-05,1.73859e-05,0.627377,0.4857519385118363,1.1607880648622242,2.329277127244289e-05,-0.0477434545695995,1.7386051135659386e-05,-0.2914374934781643
868,0.8568,883.046,313.573,0.00550217,526.446,0.258474,0.143081,0.396264,-0.0489656,-0.344815,0.771148,2.37944e-05,1.76748e-05,0.627928,0.4862616388353542,1.1622470891713133,2.3794683088995683e-05,-0.04778611470724048,1.7674956200197656e-05,-0.2916486136466403
869,0.8578,883.172,313.616,0.0054869,526.52,0.258483,0.143098,0.396607,-0.0490105,-0.345113,0.771822,2.4296e-05,1.79635e-05,0.628479,0.48677151401606933,1.1637049349482531,2.4296295150216807e-05,-0.047828868150868176,1.7963661344655435e-05,-0.2918596709106793
870,0.8588,883.297,313.659,0.00547168,526.594,0.258492,0.143116,0.396951,-0.0490553,-0.345411,0.772497,2.47974e-05,1.8252e-05,0.629029,0.4872830513962758,1.1651659288092988,2.479770745811294e-05,-0.04787152446206655,1.825216656881068e-05,-0.29207066528902415
871,0.8598,883.423,313.702,0.00545649,526.667,0.258501,0.143133,0.397294,-0.0491001,-0.345709,0.773171,2.52985e-05,1.85405e-05,0.629579,0.48779327698159025,1.166625742547283,2.5298820009789225e-05,-0.04791417886230487,1.854067187623265e-05,-0.2922815968004119
872,0.8608,883.548,313.745,0.00544134,526.74,0.25851,0.14315,0.397636,-0.0491448,-0.346006,0.773844,2.57993e-05,1.88287e-05,0.630129,0.4883021893013644,1.1680843724459233,2.5799632804801576e-05,-0.04795673614734741,1.8828877261123367e-05,-0.2924917579556857
873,0.8618,883.673,313.788,0.00542623,526.814,0.258519,0.143167,0.397979,-0.0491895,-0.346304,0.774517,2.62999e-05,1.91168e-05,0.630679,0.48881276451093747,1.169543984332888,2.630024584537871e-05,-0.047999291530121724,1.9116982727274134e-05,-0.29270256400015426
874,0.8628,883.798,313.831,0.00541116,526.887,0.258528,0.143184,0.398321,-0.0492343,-0.346601,0.77519,2.68002e-05,1.94048e-05,0.631228,0.48932202555507476,1.171004578869277,2.6800559128625778e-05,-0.04804194020652364,1.9404988274240864e-05,-0.2929126001467346
875,0.8638,883.923,313.874,0.00539613,526.96,0.258537,0.143201,0.398663,-0.049279,-0.346898,0.775863,2.73003e-05,1.96926e-05,0.631777,0.4898314607962755,1.1724661567166352,2.7300672656549452e-05,-0.048084491780761685,1.969279390046097e-05,-0.29312257392184193
876,0.8648,884.047,313.917,0.00538113,527.033,0.258546,0.143219,0.399005,-0.0493236,-0.347195,0.776535,2.78e-05,1.99803e-05,0.632325,0.4903410702941249,1.1739265446093237,2.780038642358207e-05,-0.048126946265686144,1.9980499607497038e-05,-0.2933324853439979
877,0.8658,884.172,313.959,0.00536618,527.106,0.258555,0.143236,0.399347,-0.0493683,-0.347492,0.777207,2.82996e-05,2.02678e-05,0.632873,0.4908508541082288,1.1753879142124934,2.8300000437520012e-05,-0.04816949404023829,2.0268005393342392e-05,-0.29354233443171873
878,0.8668,884.296,314.002,0.00535127,527.179,0.258564,0.143253,0.399689,-0.0494129,-0.347788,0.777878,2.87988e-05,2.05551e-05,0.633421,0.4913608122982136,1.1768480893368984,2.8799214689456676e-05,-0.04821194473414658,2.0555311257552944e-05,-0.2937514149552828
879,0.8678,884.42,314.045,0.00533639,527.252,0.258573,0.14327,0.40003,-0.0494575,-0.348085,0.778549,2.92978e-05,2.08423e-05,0.633969,0.4918694530535275,1.1783092445676009,2.929822918473768e-05,-0.0482543935347961,2.084251720213537e-05,-0.29396113963938386
880,0.8688,884.544,314.087,0.00532155,527.324,0.258582,0.143287,0.400372,-0.0495021,-0.348381,0.77922,2.97965e-05,2.11294e-05,0.634516,0.4923797596639281,1.1797713805624723,2.9796943920024077e-05,-0.04829684044227134,2.112962322731171e-05,-0.2941700962149518
881,0.8698,884.668,314.13,0.00530676,527.397,0.258591,0.143304,0.400713,-0.0495467,-0.348677,0.77989,3.0295e-05,2.14163e-05,0.635063,0.4928887479395423,1.1812323167464194,3.0295458898210725e-05,-0.04833928545665678,2.1416529330631207e-05,-0.2943789909485264
882,0.8708,884.792,314.172,0.005292,527.469,0.2586,0.143321,0.401054,-0.0495912,-0.348973,0.78056,3.07932e-05,2.17031e-05,0.63561,0.49339790980975473,1.1826942320855904,3.079367411551459e-05,-0.04838163341620494,2.1703335513878486e-05,-0.2945878238584102
883,0.8718,884.915,314.215,0.00527727,527.542,0.258609,0.143337,0.401394,-0.0496357,-0.349269,0.78123,3.12911e-05,2.19897e-05,0.636157,0.4939057514272729,1.1841571272362388,3.1291589571491585e-05,-0.04842397949131072,2.1989941775268917e-05,-0.29479659496290034
884,0.8728,885.039,314.257,0.00526259,527.614,0.258618,0.143354,0.401735,-0.0496802,-0.349565,0.781899,3.17888e-05,2.22762e-05,0.636703,0.4944152601548104,1.1856188172351483,3.1789305269258605e-05,-0.048466323682058166,2.227644811636509e-05,-0.2950053042802885
885,0.8738,885.162,314.299,0.00524795,527.686,0.258627,0.143371,0.402075,-0.0497247,-0.34986,0.782568,3.22862e-05,2.25625e-05,0.637249,0.4949234477302553,1.187081485431838,3.228672120503262e-05,-0.048508665988530986,2.2562754535160323e-05,-0.29521324704246044
886,0.8748,885.285,314.341,0.00523334,527.758,0.258636,0.143388,0.402415,-0.0497692,-0.350156,0.783237,3.27834e-05,2.28486e-05,0.637795,0.49543180811885246,1.18854513248094,3.278393738148644e-05,-0.04855100641081311,2.2848861031210532e-05,-0.29542183304908387
887,0.8758,885.408,314.384,0.00521877,527.83,0.258645,0.143405,0.402755,-0.0498136,-0.350451,0.783905,3.32803e-05,2.31347e-05,0.63834,0.4959403413793684,1.1900075690288632,3.328085379528112e-05,-0.04859324980831814,2.31349676091952e-05,-0.2956296529533914
888,0.8768,885.531,314.426,0.00520424,527.902,0.258654,0.143422,0.403095,-0.049858,-0.350746,0.784573,3.37769e-05,2.34205e-05,0.638885,0.49644904757058916,1.1914709828107601,3.377747044597257e-05,-0.04863549133025791,2.342077426198408e-05,-0.295837411559869
889,0.8778,885.653,314.468,0.00518974,527.974,0.258662,0.143438,0.403435,-0.0499024,-0.351041,0.78524,3.42733e-05,2.37063e-05,0.63943,0.4969579267513218,1.1929331815453632,3.42738873362336e-05,-0.04867773097671568,2.370658099648537e-05,-0.29604510888659685
890,0.8788,885.776,314.51,0.00517529,528.046,0.258671,0.143455,0.403774,-0.0499468,-0.351335,0.785908,3.47694e-05,2.39918e-05,0.639974,0.49746548151416214,1.1943985502893057,3.4770004462503223e-05,-0.048719968747774844,2.399208780556883e-05,-0.296252041204043
891,0.8798,885.898,314.552,0.00516087,528.117,0.25868,0.143472,0.404114,-0.0499911,-0.35163,0.786574,3.52652e-05,2.42773e-05,0.640518,0.4979747063411919,1.195860506501179,3.5265821824559396e-05,-0.048762109519734365,2.4277594696142657e-05,-0.2964596162330657
892,0.8808,886.02,314.594,0.00514648,528.189,0.258689,0.143488,0.404453,-0.0500354,-0.351924,0.787241,3.57608e-05,2.45626e-05,0.641062,0.49848260585074455,1.1973256340247258,3.5761439425074926e-05,-0.048804248424899055,2.456290166308328e-05,-0.2966664267032645
893,0.8818,886.142,314.636,0.00513214,528.26,0.258698,0.143505,0.404792,-0.0500797,-0.352218,0.787907,3.62561e-05,2.48477e-05,0.641606,0.4989906775674182,1.1987895403236735,3.625675726026678e-05,-0.048846385463351516,2.4848008706612745e-05,-0.2968731763801219
894,0.8828,886.264,314.677,0.00511783,528.332,0.258707,0.143522,0.40513,-0.050124,-0.352512,0.788573,3.67512e-05,2.51327e-05,0.642149,0.49949742205142944,1.2002544219089506,3.675187533369595e-05,-0.04888852063517457,2.513301582895977e-05,-0.29707986528150887
895,0.8838,886.385,314.719,0.00510356,528.403,0.258716,0.143538,0.405469,-0.0501683,-0.352806,0.789238,3.7246e-05,2.54175e-05,0.642692,0.5000058378491137,1.2017180777111354,3.7246693640913264e-05,-0.04893065394045082,2.5417823027451547e-05,-0.2972864934252907
896,0.8848,886.507,314.761,0.00508933,528.474,0.258725,0.143555,0.405807,-0.0502125,-0.3531,0.789903,3.77405e-05,2.57022e-05,0.643235,0.5005129255152945,1.2031827071681334,3.774121218169668e-05,-0.04897269027653672,2.5702530304316795e-05,-0.29749306082932736
897,0.8858,886.628,314.802,0.00507513,528.546,0.258733,0.143571,0.406145,-0.0502567,-0.353394,0.790568,3.82348e-05,2.59867e-05,0.643778,0.5010201846060758,1.2046483109276394,3.8235530959385144e-05,-0.049014724754657735,2.598703765710475e-05,-0.29769956751147375
898,0.8868,886.75,314.844,0.00506097,528.617,0.258742,0.143588,0.406483,-0.0503009,-0.353687,0.791232,3.87288e-05,2.62711e-05,0.64432,0.5015276151794086,1.2061126835239944,3.872954996975153e-05,-0.04905675737489579,2.6271445088266177e-05,-0.297905311395242
899,0.8878,886.871,314.886,0.00504684,528.688,0.258751,0.143604,0.406821,-0.0503451,-0.35398,0.791896,3.92226e-05,2.65554e-05,0.644862,0.5020352172932638,1.207578028786643,3.9223369216134785e-05,-0.04909878813733315,2.6555752597801074e-05,-0.2981109950048829
900,0.8888,886.992,314.927,0.00503276,528.758,0.25876,0.14362,0.407159,-0.0503893,-0.354273,0.79256,3.97161e-05,2.68395e-05,0.645403,0.5025429910056323,1.2090443473616497,3.971688869475187e-05,-0.049140817042051865,2.6839860182592545e-05,-0.29831661835805423
901,0.8898,887.112,314.969,0.0050187,528.829,0.258769,0.143637,0.407496,-0.0504334,-0.354566,0.793223,4.02093e-05,2.71235e-05,0.645945,0.5030494333243389,1.2105094293849739,4.021010840471462e-05,-0.049182749007413706,2.7123867845535443e-05,-0.2985221814724084
902,0.8908,887.233,315.01,0.00500469,528.9,0.258778,0.143653,0.407834,-0.0504775,-0.354859,0.793886,4.07023e-05,2.74073e-05,0.646486,0.5035575498996663,1.2119754830797533,4.070312834980605e-05,-0.04922467912361661,2.740767558351287e-05,-0.29872768436559294
903,0.8918,887.354,315.051,0.00499071,528.97,0.258786,0.14367,0.408171,-0.0505216,-0.355152,0.794549,4.11951e-05,2.76909e-05,0.647026,0.5040643341823379,1.2134425090904193,4.119594852980413e-05,-0.04926660739074218,2.7691283396524824e-05,-0.2989331270552501
904,0.8928,887.474,315.093,0.00497677,529.041,0.258795,0.143686,0.408508,-0.0505657,-0.355444,0.795211,4.16875e-05,2.79744e-05,0.647567,0.5045712892800933,1.214908293152431,4.1688368935810516e-05,-0.0493085338088719,2.7974791287244116e-05,-0.2991378086971759
905,0.8938,887.594,315.134,0.00496286,529.111,0.258804,0.143702,0.408844,-0.0506097,-0.355736,0.795873,4.21797e-05,2.82578e-05,0.648107,0.5050769101728445,1.216375047884748,4.2180589576057415e-05,-0.049350363313128476,2.82581992554487e-05,-0.29934243058078736
906,0.8948,887.714,315.175,0.00494899,529.182,0.258813,0.143718,0.409181,-0.0506538,-0.356029,0.796535,4.26717e-05,2.8541e-05,0.648647,0.505584206566214,1.2178427739301667,4.267261044987869e-05,-0.049392286037703514,2.8541407298243726e-05,-0.29954769317618857
907,0.8958,887.834,315.216,0.00493515,529.252,0.258822,0.143735,0.409517,-0.0506978,-0.356321,0.797196,4.31634e-05,2.88241e-05,0.649186,0.506090167856357,1.2193092526215477,4.316433155304722e-05,-0.04943411185694302,2.8824515418302e-05,-0.2997521953910046
908,0.8968,887.954,315.257,0.00492135,529.322,0.25883,0.143751,0.409853,-0.0507417,-0.356612,0.797857,4.36548e-05,2.91071e-05,0.649726,0.506596299178057,1.2207767009757817,4.3655752884674826e-05,-0.04947584078347589,2.9107523615845565e-05,-0.29995593785617947
909,0.8978,888.074,315.298,0.00490759,529.392,0.258839,0.143767,0.41019,-0.0507857,-0.356904,0.798517,4.4146e-05,2.93899e-05,0.650265,0.5071041076918086,1.2222428973900192,4.414697444898863e-05,-0.049517662926387485,2.9390331887313437e-05,-0.30016032088095157
910,0.8988,888.193,315.339,0.00489386,529.462,0.258848,0.143783,0.410525,-0.0508297,-0.357196,0.799177,4.46369e-05,2.96725e-05,0.650804,0.5076090721447089,1.2237100618132986,4.463789624131742e-05,-0.04955948322916537,2.9672940232927658e-05,-0.30036464423459297
911,0.8998,888.312,315.38,0.00488016,529.532,0.258857,0.143799,0.410861,-0.0508736,-0.357487,0.799837,4.51276e-05,2.9955e-05,0.651342,0.5081157139039985,1.2251781948847156,4.512861826544423e-05,-0.04960120665201573,2.9955448655583083e-05,-0.3005682085030831
912,0.9008,888.432,315.421,0.0048665,529.602,0.258865,0.143816,0.411197,-0.0509175,-0.357778,0.800497,4.5618e-05,3.02373e-05,0.65188,0.5086225259235213,1.2266472972437894,4.561904051669785e-05,-0.04964292824324812,3.0237757151718725e-05,-0.30077171354298937
913,0.9018,888.551,315.462,0.00485288,529.672,0.258874,0.143832,0.411532,-0.0509614,-0.358069,0.801156,4.61082e-05,3.05195e-05,0.652418,0.509127999131741,1.228115141414206,4.61092629993054e-05,-0.04968464800294281,3.0519965724673526e-05,-0.3009751593715446
914,0.9028,888.669,315.503,0.00483929,529.742,0.258883,0.143848,0.411867,-0.0510052,-0.35836,0.801815,4.65981e-05,3.08016e-05,0.652956,0.5096336417018517,1.229583953212729,4.6599185708373625e-05,-0.0497262709038121,3.080207437422544e-05,-0.30117854600597693
915,0.9038,888.788,315.544,0.00482573,529.811,0.258892,0.143864,0.412202,-0.0510491,-0.358651,0.802473,4.70877e-05,3.10835e-05,0.653493,0.5101394536905997,1.2310515022246182,4.708880864323639e-05,-0.049767987004844305,3.108398309703553e-05,-0.3013818734635093
916,0.9048,888.907,315.584,0.00481221,529.881,0.2589,0.14388,0.412537,-0.0510929,-0.358942,0.803131,4.75771e-05,3.13653e-05,0.65403,0.5106454351547491,1.2325200172015252,4.757823180812082e-05,-0.0498096062555452,3.1365791896220685e-05,-0.30158514176135964
917,0.9058,889.025,315.625,0.00479873,529.95,0.258909,0.143896,0.412871,-0.0511367,-0.359232,0.803789,4.80663e-05,3.16469e-05,0.654567,0.5111500750002538,1.233989498779263,4.806745520302691e-05,-0.04985122368336292,3.164740076844197e-05,-0.30178765270474284
918,0.9068,889.144,315.666,0.00478528,530.019,0.258918,0.143912,0.413206,-0.0511804,-0.359522,0.804447,4.85551e-05,3.19284e-05,0.655103,0.511656395079257,1.235459947594066,4.855627881794611e-05,-0.04989274427765633,3.192890971681628e-05,-0.3019901049284671
919,0.9078,889.262,315.706,0.00477186,530.089,0.258927,0.143928,0.41354,-0.0512242,-0.359812,0.805104,4.90438e-05,3.22098e-05,0.65564,0.512161372641772,1.2369291273523384,4.9045002666892046e-05,-0.0499343580641084,3.221031874112157e-05,-0.30219249844955887
920,0.9088,889.38,315.747,0.00475848,530.158,0.258935,0.143944,0.413874,-0.0512679,-0.360102,0.80576,4.95321e-05,3.24909e-05,0.656176,0.5126665188949626,1.238397034280713,4.953332673474087e-05,-0.04997587502550882,3.2491427834902e-05,-0.30239483328503935
921,0.9098,889.498,315.787,0.00474513,530.227,0.258944,0.143959,0.414208,-0.0513116,-0.360392,0.806417,5.00203e-05,3.2772e-05,0.656711,0.513171833895181,1.2398681443389723,5.002155103617234e-05,-0.050017390172657605,3.277253700795235e-05,-0.30259710945192486
922,0.9108,889.615,315.827,0.00473182,530.296,0.258953,0.143975,0.414542,-0.0513553,-0.360682,0.807073,5.05081e-05,3.30529e-05,0.657247,0.5136773176987981,1.241337979895011,5.050937555561852e-05,-0.050058903505634134,3.3053446253150653e-05,-0.3027993269672269
923,0.9118,889.733,315.868,0.00471854,530.365,0.258961,0.143991,0.414875,-0.051399,-0.360971,0.807729,5.09957e-05,3.33337e-05,0.657782,0.5141814561799902,1.2428087799795051,5.0997000302865914e-05,-0.050100415024517675,3.333425557405789e-05,-0.3030007888490892
924,0.9128,889.851,315.908,0.00470529,530.434,0.25897,0.144007,0.415209,-0.0514427,-0.361261,0.808384,5.14831e-05,3.36143e-05,0.658316,0.5146872772537714,1.2442783009459695,5.1484425277470436e-05,-0.05014192472938739,3.3614864966891034e-05,-0.30320288931433914
925,0.9138,889.968,315.948,0.00469208,530.502,0.258979,0.144023,0.415542,-0.0514863,-0.36155,0.809039,5.19702e-05,3.38948e-05,0.658851,0.5151917521074982,1.2457487847639666,5.1971550474316786e-05,-0.05018333763866123,3.389537443521107e-05,-0.3034042345835345
926,0.9148,890.085,315.989,0.0046789,530.571,0.258988,0.144039,0.415875,-0.0515299,-0.361839,0.809694,5.2457e-05,3.41751e-05,0.659385,0.515696394979325,1.2472202320643708,5.2458375892516784e-05,-0.050224748742371594,3.4175683975457005e-05,-0.30360552167235455
927,0.9158,890.202,316.029,0.00466576,530.64,0.258996,0.144054,0.416208,-0.0515735,-0.362128,0.810348,5.29436e-05,3.44553e-05,0.659919,0.5162012059252108,1.24869039478695,5.294500153718573e-05,-0.0502661580405972,3.4455893590745745e-05,-0.303806750597611
928,0.9168,890.319,316.069,0.00465265,530.708,0.259005,0.14407,0.416541,-0.0516171,-0.362417,0.811002,5.343e-05,3.47353e-05,0.660453,0.5167061850011336,1.2501615193104247,5.343142740787954e-05,-0.05030756553341664,3.47359032775163e-05,-0.30400792137611066
929,0.9178,890.436,316.109,0.00463957,530.776,0.259014,0.144086,0.416873,-0.0516606,-0.362705,0.811656,5.39161e-05,3.50152e-05,0.660986,0.5172098150525164,1.251633606264018,5.391755349903882e-05,-0.0503488762558012,3.501581303932966e-05,-0.3042083382333416
930,0.9188,890.552,316.149,0.00462653,530.845,0.259022,0.144101,0.417205,-0.0517041,-0.362994,0.812309,5.44019e-05,3.5295e-05,0.66152,0.5177136123368355,1.253104403171835,5.4403379810219477e-05,-0.050390185181208524,3.529562287574173e-05,-0.3044093929697833
931,0.9198,890.669,316.189,0.00461352,530.913,0.259031,0.144117,0.417538,-0.0517476,-0.363282,0.812962,5.48875e-05,3.55746e-05,0.662052,0.5182190951279575,1.254576160823682,5.488900634631477e-05,-0.05043149230971655,3.557523278363561e-05,-0.3046096942198435
932,0.9208,890.785,316.229,0.00460054,530.981,0.25904,0.144133,0.41787,-0.0517911,-0.36357,0.813615,5.53728e-05,3.58541e-05,0.662585,0.5187232275488911,1.2560488798471292,5.5374333101765316e-05,-0.050472797641403555,3.585474276590617e-05,-0.3048099377914498
933,0.9218,890.901,316.269,0.00458759,531.049,0.259048,0.144148,0.418201,-0.0518346,-0.363858,0.814267,5.58579e-05,3.61334e-05,0.663117,0.5192260081428077,1.2575203033487257,5.585946008146436e-05,-0.0505141011763478,3.6134052819214446e-05,-0.3050101237012113
934,0.9228,891.018,316.309,0.00457468,531.117,0.259057,0.144164,0.418533,-0.051878,-0.364146,0.814919,5.63427e-05,3.64126e-05,0.663649,0.5197304749143614,1.2589926865312666,5.634428727963048e-05,-0.05055530797016283,3.641326294667735e-05,-0.3052102519657319
935,0.9238,891.133,316.348,0.0045618,531.185,0.259066,0.144179,0.418865,-0.0519214,-0.364434,0.815571,5.68273e-05,3.66916e-05,0.664181,0.5202351091966888,1.2604660300206691,5.682891470160101e-05,-0.05059651297564183,3.6692273144955934e-05,-0.3054103226016113
936,0.9248,891.249,316.388,0.00454896,531.253,0.259074,0.144195,0.419196,-0.0519648,-0.364721,0.816222,5.73116e-05,3.69705e-05,0.664713,0.5207383903062615,1.2619380725040532,5.731324234115043e-05,-0.05063771619286239,3.697118341738914e-05,-0.30560964123543255
937,0.9258,891.365,316.428,0.00453614,531.321,0.259083,0.144211,0.419527,-0.0520082,-0.365009,0.816873,5.77957e-05,3.72493e-05,0.665244,0.5212418380294546,1.2634110735990882,5.779737020361608e-05,-0.05067891762190213,3.724999376375493e-05,-0.3058095968637642
938,0.9268,891.48,316.467,0.00452336,531.389,0.259092,0.144226,0.419858,-0.0520516,-0.365296,0.817524,5.82796e-05,3.75279e-05,0.665775,0.521745452421426,1.2648850339300335,5.828129828877593e-05,-0.05072011726283876,3.752860418049231e-05,-0.30600880092231453
939,0.9278,891.596,316.507,0.00451061,531.456,0.2591,0.144241,0.420189,-0.0520949,-0.365583,0.818174,5.87631e-05,3.78064e-05,0.666305,0.5222492335373528,1.2663576877627336,5.8764826584845054e-05,-0.050761220191876344,3.780711467094022e-05,-0.3062079478175034
940,0.9288,891.711,316.546,0.0044979,531.524,0.259109,0.144257,0.420519,-0.0521382,-0.36587,0.818824,5.92465e-05,3.80847e-05,0.666836,0.522751658680009,1.2678312991315912,5.9248255108501624e-05,-0.05080232134119578,3.808542523131564e-05,-0.3064070375657343
941,0.9298,891.826,316.586,0.00448521,531.591,0.259118,0.144272,0.42085,-0.0521815,-0.366157,0.819474,5.97295e-05,3.83629e-05,0.667366,0.5232557729053338,1.269305868659206,5.9731283842179295e-05,-0.05084342071087389,3.836363586540159e-05,-0.30660607018340613
942,0.9308,891.941,316.625,0.00447256,531.659,0.259126,0.144288,0.42118,-0.0522248,-0.366443,0.820123,6.02124e-05,3.8641e-05,0.667896,0.5237585302607937,1.2707791261883226,6.021421280300032e-05,-0.050884518300987946,3.864174657297603e-05,-0.3068043524916121
943,0.9318,892.056,316.665,0.00445994,531.726,0.259135,0.144303,0.42151,-0.0522681,-0.36673,0.820772,6.0695e-05,3.89189e-05,0.668425,0.524261453553559,1.2722533401719112,6.0696841978735705e-05,-0.05092561411161478,3.891965735025593e-05,-0.3070032710962618
944,0.9328,892.171,316.704,0.00444735,531.793,0.259144,0.144318,0.42184,-0.0523113,-0.367016,0.821421,6.11773e-05,3.91966e-05,0.668955,0.5247645428383982,1.273728511230913,6.11791713691634e-05,-0.05096661323949758,3.91973681967972e-05,-0.3072014398212498
945,0.9338,892.285,316.743,0.0044348,531.86,0.259152,0.144334,0.42217,-0.0523545,-0.367302,0.822069,6.16594e-05,3.94742e-05,0.669484,0.5252677981700975,1.2752023647831687,6.166130097984279e-05,-0.05100761059625636,3.947497911638287e-05,-0.30739955187808643
946,0.9348,892.4,316.783,0.00442227,531.927,0.259161,0.144349,0.422499,-0.0523977,-0.367588,0.822717,6.21412e-05,3.97517e-05,0.670012,0.525769693833005,1.2766771737020313,6.214313080432632e-05,-0.051048606181967604,3.9752490109234984e-05,-0.30759760728297636
947,0.9358,892.514,316.822,0.00440978,531.994,0.259169,0.144364,0.422829,-0.0524409,-0.367874,0.823365,6.26228e-05,4.00291e-05,0.670541,0.526273280919269,1.2781529386067794,6.262476084839541e-05,-0.0510895999967077,4.00299011751315e-05,-0.30779560605211986
948,0.9368,892.628,316.861,0.00439732,532.061,0.259178,0.14438,0.423158,-0.0524841,-0.36816,0.824012,6.31041e-05,4.03063e-05,0.671069,0.5267755074404239,1.2796273804885718,6.31060911056025e-05,-0.05113059204055337,4.0307112309845294e-05,-0.3079935482017123
949,0.9378,892.742,316.9,0.00438489,532.128,0.259187,0.144395,0.423487,-0.0525272,-0.368445,0.824659,6.35852e-05,4.05833e-05,0.671597,0.5272778992212883,1.2811027766429364,6.358722158172903e-05,-0.05117148743073441,4.0584123513154324e-05,-0.3081907419390325
950,0.9388,892.856,316.939,0.00437249,532.195,0.259195,0.14441,0.423816,-0.0525703,-0.368731,0.825306,6.4066e-05,4.08603e-05,0.672125,0.5277804563162412,1.282579127687486,6.406805227010537e-05,-0.05121238105836212,4.086113479351283e-05,-0.30838857109592
951,0.9398,892.97,316.978,0.00436013,532.261,0.259204,0.144425,0.424145,-0.0526134,-0.369016,0.825952,6.45466e-05,4.1137e-05,0.672652,0.5282831787796798,1.284054150184943,6.454868317651297e-05,-0.05125327292351256,4.113784613801741e-05,-0.3085856522677567
952,0.9408,893.084,317.017,0.00434779,532.328,0.259213,0.144441,0.424473,-0.0526565,-0.369301,0.826598,6.5027e-05,4.14137e-05,0.673179,0.5287845378807172,1.2855301258547747,6.502911430117386e-05,-0.05129416302626144,4.1414557559127374e-05,-0.3087826772794626
953,0.9418,893.197,317.056,0.00433549,532.394,0.259221,0.144456,0.424802,-0.0526995,-0.369586,0.827244,6.55071e-05,4.16902e-05,0.673706,0.5292875907413379,1.2870070553129298,6.550924563697436e-05,-0.05133495650018538,4.1691069048388485e-05,-0.3089796461470411
954,0.9428,893.31,317.095,0.00432321,532.461,0.25923,0.144471,0.42513,-0.0527426,-0.369871,0.827889,6.59869e-05,4.19665e-05,0.674233,0.5297892793435341,1.288482650691959,6.598907718347036e-05,-0.051375843082448025,4.196738060580074e-05,-0.309176558886491
955,0.9438,893.424,317.134,0.00431097,532.527,0.259238,0.144486,0.425458,-0.0527856,-0.370156,0.828534,6.64665e-05,4.22428e-05,0.674759,0.5302911325265816,1.2899591981370166,6.646870894666534e-05,-0.05141663304420507,4.224369223959634e-05,-0.3093734155138065
956,0.9448,893.537,317.173,0.00429876,532.594,0.259247,0.144501,0.425786,-0.0528286,-0.37044,0.829179,6.69459e-05,4.25188e-05,0.675285,0.5307931503444716,1.2914366982623822,6.694814092678136e-05,-0.05145742125203134,4.251970393709392e-05,-0.3095695256148481
957,0.9458,893.65,317.212,0.00428658,532.66,0.259256,0.144516,0.426114,-0.0528716,-0.370724,0.829823,6.7425e-05,4.27948e-05,0.675811,0.5312953328512133,1.292912858768728,6.742727311648267e-05,-0.05149820770600244,4.279571571053076e-05,-0.30976558002852894
958,0.9468,893.763,317.25,0.00427443,532.726,0.259264,0.144531,0.426441,-0.0529145,-0.371009,0.830467,6.79039e-05,4.30706e-05,0.676336,0.5317961483039197,1.2943899702286141,6.790620552199478e-05,-0.05153889756008834,4.307152755167465e-05,-0.30996226880873834
959,0.9478,893.875,317.289,0.00426231,532.792,0.259273,0.144546,0.426769,-0.0529574,-0.371293,0.831111,6.83825e-05,4.33462e-05,0.676861,0.5322986598479513,1.2958680332546524,6.838483813642604e-05,-0.051579585668616756,4.334713946008151e-05,-0.3101582116991892
960,0.9488,893.988,317.328,0.00425023,532.858,0.259281,0.144561,0.427096,-0.0530004,-0.371577,0.831754,6.88608e-05,4.36217e-05,0.677386,0.5327998034422337,1.2973447511139478,6.886317095933236e-05,-0.051620366869630896,4.36226514402005e-05,-0.3103540989497604
961,0.9498,894.1,317.366,0.00423817,532.924,0.25929,0.144576,0.427423,-0.0530433,-0.371861,0.832397,6.9339e-05,4.38971e-05,0.677911,0.5333011109372678,1.2988224188081658,6.934140400405298e-05,-0.05166105148320099,4.389806349180958e-05,-0.31054993057625147
962,0.9508,894.213,317.405,0.00422614,532.99,0.259299,0.144591,0.42775,-0.0530861,-0.372144,0.83304,6.98169e-05,4.41724e-05,0.678435,0.5338025823866579,1.3003010369482473,6.981933725658251e-05,-0.051701639521607334,4.417337561490875e-05,-0.3107450173398193
963,0.9518,894.325,317.443,0.00421414,533.055,0.259307,0.144606,0.428076,-0.053129,-0.372428,0.833682,7.02945e-05,4.44475e-05,0.67896,0.5343026835405749,1.3017783043660693,7.029697071625485e-05,-0.05174232064865547,4.44484878048268e-05,-0.3109407379612511
964,0.9528,894.437,317.482,0.00420218,533.121,0.259316,0.144621,0.428403,-0.0531718,-0.372711,0.834324,7.07719e-05,4.47224e-05,0.679483,0.5348044825577605,1.303256520494077,7.077440438996163e-05,-0.0517829052088159,4.472340006134168e-05,-0.31113571414197716
965,0.9538,894.549,317.52,0.00419024,533.186,0.259324,0.144636,0.428729,-0.0532146,-0.372994,0.834966,7.1249e-05,4.49973e-05,0.680007,0.5353049103843781,1.3047356859415382,7.125153827036712e-05,-0.051823488031994325,4.4998312393795814e-05,-0.3113306351522511
966,0.9548,894.661,317.558,0.00417833,533.252,0.259333,0.144651,0.429055,-0.0532574,-0.373277,0.835607,7.17259e-05,4.52719e-05,0.68053,0.535805501377062,1.3062134951034627,7.172847236391888e-05,-0.05186406911826513,4.527292478795353e-05,-0.31152550100768395
967,0.9558,894.772,317.597,0.00416646,533.317,0.259342,0.144666,0.429381,-0.0533002,-0.37356,0.836248,7.22026e-05,4.55465e-05,0.681054,0.5363062555890126,1.3076922518447267,7.220520667039487e-05,-0.0519046484677026,4.554753725760641e-05,-0.31172031172388226
968,0.9568,894.884,317.635,0.00415461,533.383,0.25935,0.144681,0.429707,-0.0533429,-0.373843,0.836889,7.2679e-05,4.58209e-05,0.681576,0.5368071730734483,1.3091719567729236,7.268164118245934e-05,-0.05194513127489897,4.582194979341203e-05,-0.31191506731644825
969,0.9578,894.995,317.673,0.00414279,533.448,0.259359,0.144695,0.430033,-0.0533857,-0.374125,0.83753,7.31552e-05,4.60952e-05,0.682099,0.5373082538836045,1.3106526104960357,7.315787590700396e-05,-0.05198570715495032,4.609626240004161e-05,-0.3121090799104035
970,0.9588,895.107,317.711,0.004131,533.513,0.259367,0.14471,0.430359,-0.0534284,-0.374408,0.83817,7.36311e-05,4.63693e-05,0.682621,0.5378094980727341,1.3121319014893777,7.363381083602683e-05,-0.05202618650101465,4.637037507260189e-05,-0.31230372549713925
971,0.9598,895.218,317.75,0.00411925,533.578,0.259376,0.144725,0.430684,-0.0534711,-0.37469,0.838809,7.41068e-05,4.66433e-05,0.683143,0.538309367383971,1.3136098259209965,7.410954597664166e-05,-0.0520666641186478,4.664438781554203e-05,-0.31249762850494
972,0.9608,895.329,317.788,0.00410752,533.643,0.259385,0.14474,0.431009,-0.0535138,-0.374972,0.839449,7.45822e-05,4.69171e-05,0.683665,0.5388093991791361,1.3150910101379778,7.45849813215127e-05,-0.05210714000792349,4.6918200624412876e-05,-0.3126914768398018
973,0.9618,895.44,317.826,0.00409582,533.708,0.259393,0.144755,0.431334,-0.0535564,-0.375254,0.840088,7.50574e-05,4.71908e-05,0.684186,0.5393095935110455,1.3165708260442845,7.506021687708753e-05,-0.05214751938367235,4.7191913503219496e-05,-0.3128852705171401
974,0.9628,895.551,317.864,0.00408415,533.773,0.259402,0.144769,0.431659,-0.053599,-0.375536,0.840727,7.55324e-05,4.74644e-05,0.684708,0.5398099504325322,1.3180515878551398,7.553525264358818e-05,-0.052187897039296494,4.746552645240598e-05,-0.31307900955236645
975,0.9638,895.661,317.902,0.00407251,533.838,0.25941,0.144784,0.431984,-0.0536417,-0.375818,0.841365,7.60071e-05,4.77379e-05,0.685229,0.5403104699964463,1.3195309766430334,7.600998861279074e-05,-0.052228367752036986,4.773903947175029e-05,-0.3132726939608875
976,0.9648,895.772,317.94,0.0040609,533.903,0.259419,0.144799,0.432308,-0.0536842,-0.3761,0.842003,7.64816e-05,4.80112e-05,0.685749,0.5408096114452734,1.3210113095821256,7.648452479203094e-05,-0.052268647190463424,4.801235255613712e-05,-0.3134663237581059
977,0.9658,895.882,317.978,0.00404932,533.968,0.259427,0.144813,0.432633,-0.0537268,-0.376381,0.842641,7.69558e-05,4.82843e-05,0.68627,0.5413104559518169,1.322492587274978,7.695876117352896e-05,-0.05230901968615287,4.8285465705566466e-05,-0.3136592126189758
978,0.9668,895.992,318.015,0.00403776,534.032,0.259436,0.144828,0.432957,-0.0537694,-0.376662,0.843279,7.74298e-05,4.85574e-05,0.68679,0.5418099214485863,1.3239748103245348,7.743279776439849e-05,-0.05234939046201059,4.85585789296028e-05,-0.31385204728569027
979,0.9678,896.103,318.053,0.00402624,534.097,0.259445,0.144843,0.433281,-0.0538119,-0.376943,0.843916,7.79035e-05,4.88303e-05,0.68731,0.5423095487983958,1.3254556538773095,7.790653455641561e-05,-0.05238966475708107,4.8831492218459616e-05,-0.314044827773476
980,0.9688,896.213,318.091,0.00401474,534.161,0.259453,0.144857,0.433605,-0.0538544,-0.377225,0.844553,7.8377e-05,4.9103e-05,0.687829,0.5428093380536936,1.3269374410279315,7.838007155736015e-05,-0.052429937340530475,4.9104205572136905e-05,-0.31423823985965793
981,0.9698,896.323,318.129,0.00400328,534.226,0.259462,0.144872,0.433928,-0.0538969,-0.377505,0.845189,7.88503e-05,4.93756e-05,0.688349,0.5433077459584283,1.3284178439586558,7.885340876656599e-05,-0.052470208212431424,4.937681899508384e-05,-0.314430226273145
982,0.9708,896.432,318.166,0.00399184,534.29,0.25947,0.144886,0.434252,-0.0539394,-0.377786,0.845826,7.93233e-05,4.96481e-05,0.688868,0.5438078586820052,1.3299015186254697,7.932644617625328e-05,-0.052510477372856634,4.964933248730041e-05,-0.31462284431545995
983,0.9718,896.542,318.204,0.00398043,534.354,0.259479,0.144901,0.434575,-0.0539818,-0.378067,0.846462,7.97961e-05,4.99204e-05,0.689387,0.5443065891609957,1.3313838073091522,7.979928379353574e-05,-0.0525506500769487,4.9921646043893375e-05,-0.31481540823970877
984,0.9728,896.651,318.241,0.00396905,534.418,0.259487,0.144915,0.434898,-0.0540243,-0.378347,0.847097,8.02686e-05,5.01926e-05,0.689905,0.5448054807559499,1.3328647061624181,8.027182161018942e-05,-0.05259091581866737,5.0193859669533936e-05,-0.3150072330686724
985,0.9738,896.761,318.279,0.0039577,534.482,0.259496,0.14493,0.435222,-0.0540667,-0.378627,0.847732,8.07409e-05,5.04647e-05,0.690424,0.5453060788242228,1.334346545685087,8.074415963421622e-05,-0.05263108511224157,5.046597336444414e-05,-0.31519900419420266
986,0.9748,896.87,318.316,0.00394637,534.547,0.259504,0.144944,0.435544,-0.0541091,-0.378907,0.848367,8.1213e-05,5.07366e-05,0.690942,0.5458037475019613,1.335829326474673,8.121629786495e-05,-0.05267125270267392,5.0737887123064596e-05,-0.3153907216313345
987,0.9758,896.979,318.354,0.00393508,534.61,0.259513,0.144959,0.435867,-0.0541515,-0.379187,0.849002,8.16848e-05,5.10084e-05,0.691459,0.5463031227571664,1.337313049129071,8.168813629416682e-05,-0.052711418590036474,5.1009700950510606e-05,-0.31558238539509864
988,0.9768,897.088,318.391,0.00392381,534.674,0.259522,0.144973,0.43619,-0.0541938,-0.379467,0.849636,8.21564e-05,5.12801e-05,0.691977,0.5468026593366315,1.33879537545001,8.21597749294245e-05,-0.052751488049555095,5.128141484678217e-05,-0.31577399550052143
989,0.9778,897.197,318.429,0.00391257,534.738,0.25953,0.144988,0.436512,-0.0542362,-0.379747,0.85027,8.26277e-05,5.15516e-05,0.692494,0.5473008099908891,1.3402786418638142,8.26311137624991e-05,-0.052791650535011114,5.155292880654194e-05,-0.3159655519626251
990,0.9788,897.306,318.466,0.00390136,534.802,0.259539,0.145002,0.436834,-0.0542785,-0.380027,0.850904,8.30988e-05,5.1823e-05,0.693011,0.5477991210754851,1.3417628489666922,8.31022528009484e-05,-0.052831716600790224,5.1824342834905224e-05,-0.31615705479642764
991,0.9798,897.415,318.503,0.00389018,534.866,0.259547,0.145017,0.437156,-0.0543208,-0.380306,0.851537,8.35697e-05,5.20943e-05,0.693528,0.5482975926420868,1.3432456541084035,8.357319204455038e-05,-0.052871780971810556,5.209565693164997e-05,-0.3163478203651051
992,0.9808,897.523,318.541,0.00387902,534.929,0.259556,0.145031,0.437478,-0.0543631,-0.380585,0.85217,8.40403e-05,5.23654e-05,0.694044,0.5487962247423772,1.344729398162904,8.404383148485906e-05,-0.05291184364814383,5.2366771091438835e-05,-0.316538532717613
993,0.9818,897.632,318.578,0.00386789,534.993,0.259564,0.145045,0.4378,-0.0544053,-0.380864,0.852803,8.45107e-05,5.26363e-05,0.694561,0.5492950174280571,1.346214081724714,8.45142711298763e-05,-0.052951809925047555,5.263768531427182e-05,-0.31672919186879644
994,0.9828,897.74,318.615,0.00385679,535.056,0.259573,0.14506,0.438122,-0.0544476,-0.381143,0.853435,8.49808e-05,5.29072e-05,0.695077,0.5497939707508428,1.3476973576901976,8.498441097049003e-05,-0.05299186921622778,5.290859961060157e-05,-0.31691979783349655
995,0.9838,897.848,318.652,0.00384572,535.12,0.259582,0.145074,0.438443,-0.0544898,-0.381422,0.854067,8.54508e-05,5.31779e-05,0.695592,0.5502915344701582,1.349181571382382,8.545445102359217e-05,-0.05303183211612372,5.317931396953135e-05,-0.31711035062655035
996,0.9848,897.956,318.689,0.00383468,535.183,0.25959,0.145088,0.438764,-0.054532,-0.381701,0.854699,8.59204e-05,5.34485e-05,0.696108,0.5507892579330651,1.3506667233940974,8.592409126317868e-05,-0.053071793329620864,5.344992839662055e-05,-0.31730085026279053
997,0.9858,898.064,318.726,0.00382366,535.246,0.259599,0.145103,0.439085,-0.0545742,-0.381979,0.855331,8.63899e-05,5.37189e-05,0.696623,0.5512871411908493,1.3521528143185497,8.639363171480952e-05,-0.05311175285679037,5.372034288586569e-05,-0.3174906142480014
998,0.9868,898.172,318.763,0.00381267,535.309,0.259607,0.145117,0.439406,-0.0546163,-0.382258,0.855962,8.68591e-05,5.39892e-05,0.697138,0.5517851842948132,1.3536374911106508,8.68628723609266e-05,-0.05315161601286977,5.399065744304821e-05,-0.3176810078054899
999,0.9878,898.28,318.8,0.00380171,535.372,0.259616,0.145131,0.439727,-0.0546585,-0.382536,0.856593,8.7328e-05,5.42594e-05,0.697653,0.5522833872962756,1.3551231050294406,8.73318132008638e-05,-0.053191572171593204,5.426087206794605e-05,-0.31787066612159254
