,Time,S11,S22,S33,S12,S13,S23,LE11,LE22,LE33,LE12,LE13,LE23,SDV_EPBAR,E11,E12,E13,E22,E23,E33
0,1e-05,1.55809,0.519362,-3.33067e-16,0.899562,-3.04394e-17,1.96331e-18,6.74997e-06,2.49999e-07,-2.99999e-06,1.12583e-05,-1.83385e-22,-1.05877e-22,0.0,6.749992781163172e-06,1.1258363374899716e-05,0.0,2.499990312543332e-07,0.0,-2.999985500018454e-06
1,2e-05,3.11616,1.03872,1.11022e-16,1.79912,-3.35356e-17,-9.59302e-18,1.34999e-05,5.00011e-07,-5.99996e-06,2.25164e-05,-1.8338e-22,-1.05874e-22,0.0,1.3499991124099608e-05,2.2516653495952e-05,0.0,5.000111249486849e-07,0.0,-5.9999420002343484e-06
2,3.5e-05,5.45324,1.81775,-5.55112e-16,3.14843,-8.98792e-17,-8.11981e-17,2.36246e-05,8.75006e-07,-1.04998e-05,3.94034e-05,-3.66722e-22,-2.11727e-22,0.0,2.3624879063044446e-05,3.9404176324087103e-05,0.0,8.750063829054966e-07,0.0,-1.0499744877323636e-05
3,5.75e-05,8.95879,2.98626,-4.10783e-15,5.17236,-7.74908e-17,-3.49706e-17,3.88114e-05,1.43749e-06,-1.72495e-05,6.47335e-05,2.65468e-21,-6.29197e-21,0.0,3.8812153172029795e-05,6.473559525832506e-05,0.0,1.4374910330960944e-06,0.0,-1.7249351228265652e-05
4,9.125e-05,14.217,4.73899,-2.94209e-14,8.20817,-3.41232e-16,-1.87242e-16,6.1591e-05,2.28117e-06,-2.73738e-05,0.000102728,-3.92632e-22,-6.09524e-21,0.0,6.159289676466173e-05,0.00010273327670162757,0.0,2.2811726019256184e-06,0.0,-2.737342534098186e-05
5,0.00014188,22.1039,7.36797,-1.5643e-13,12.7617,-3.87434e-16,-1.74842e-16,9.57588e-05,3.54668e-06,-4.25596e-05,0.000159716,-1.01239e-21,-8.40938e-21,0.0,9.576338502026438e-05,0.00015972875527947572,0.0,3.5466862895461304e-06,0.0,-4.255869435310089e-05
6,0.00021781,33.9336,11.3112,-7.95919e-13,19.5916,-6.55665e-16,-2.51555e-16,0.000147007,5.4448e-06,-6.53367e-05,0.000245194,-5.86667e-21,-3.38713e-21,0.0,0.00014701780605852477,0.00024522406250571116,0.0,5.44481482300796e-06,0.0,-6.533456560431361e-05
7,0.00033172,51.6764,17.2255,-4.03955e-12,29.8354,-6.55576e-16,-2.51503e-16,0.000223873,8.29167e-06,-9.94992e-05,0.000373398,4.29964e-21,-2.09936e-20,0.0,0.00022389806143019442,0.00037346772171087395,0.0,8.291704375995579e-06,0.0,-9.949425011879232e-05
8,0.00050258,78.2868,26.0956,-2.04531e-11,45.1989,-1.32232e-15,-1.26165e-15,0.000339155,1.25613e-05,-0.000150736,0.000565677,-4.04076e-21,-3.36359e-20,0.0,0.0003392125195595952,0.0005658370254069123,0.0,1.256137889349418e-05,0.0,-0.00015072463989995732
9,0.00075887,118.194,39.398,-1.0343e-10,68.2393,-1.59252e-15,-7.92449e-16,0.000512041,1.89646e-05,-0.000227574,0.000854034,-1.17205e-20,-6.76684e-21,0.0,0.0005121721153706904,0.00085439879087712,0.0,1.896477982921141e-05,0.0,-0.0002275481070015406
10,0.0011433,178.035,59.3451,-5.23063e-10,102.789,-2.86239e-15,-1.83821e-15,0.000771287,2.85663e-05,-0.000342794,0.00128643,-8.05347e-21,-6.72675e-20,0.0,0.0007715845183038361,0.0012872578060059148,0.0,2.8566708020649756e-05,0.0,-0.00034273525284966855
11,0.00172,267.755,89.2515,-2.6442e-09,154.588,-2.86019e-15,-1.83694e-15,0.00115997,4.29618e-05,-0.000515542,0.00193471,-2.34034e-20,-1.3512e-20,0.0,0.0011606430254049727,0.001936582758945704,0.0,4.29627228712981e-05,0.0,-0.0005154091310572984
12,0.0025849,368.288,123.044,-0.0324261,212.992,-0.0567156,-0.0239013,0.00173657,3.87564e-05,-0.000829362,0.00293173,-7.97276e-07,-3.23839e-07,0.00022107,0.001738078710883384,0.0029360317231994504,-7.97275682140608e-07,3.875715103895949e-05,-3.238389475468395e-07,-0.0008290181743949576
13,0.0030849,372.973,125.081,0.0702936,215.651,0.0090415,-0.060255,0.00206526,-2.78182e-06,-0.00110333,0.00353784,8.10654e-08,-8.59956e-07,0.000701359,0.0020673941183506628,0.003544105542582887,8.106540327901257e-08,-2.7818161307813227e-06,-8.599556302613109e-07,-0.001102721555247932
14,0.0035849,377.355,126.53,0.0416719,218.298,-0.0493611,-0.0724368,0.00239385,-4.66415e-05,-0.00137685,0.0041449,-7.94603e-07,-1.13294e-06,0.00118234,0.002396717546613525,0.004153501978679142,-7.946026843175247e-07,-4.664041230217908e-05,-1.132939358217122e-06,-0.0013759025769084499
15,0.0040849,381.632,127.828,0.000451156,220.915,-0.137682,-0.0691356,0.00272222,-9.12734e-05,-0.0016499,0.0047522,-2.34122e-06,-1.19998e-06,0.00166359,0.002725928605313843,0.004763509610500094,-2.3412172593939573e-06,-9.12692347099231e-05,-1.1999792800532205e-06,-0.001648539663237747
16,0.0048349,388.237,130.554,0.0964111,224.742,-0.0895985,-0.133135,0.00321678,-0.000150671,-0.0020668,0.00565425,-2.11365e-06,-2.25262e-06,0.00238526,0.003221959388946649,0.005670265442408118,-2.1136477662553332e-06,-0.00015065964969496193,-2.252617462894513e-06,-0.0020646656395653107
17,0.0058349,396.295,132.962,-0.142654,229.757,-0.14265,-0.277844,0.00387986,-0.000229583,-0.00263106,0.00684846,-3.54519e-06,-4.89325e-06,0.0033496,0.0038873964003838246,0.00687196432769932,-3.5451837158140265e-06,-0.00022955664783974594,-4.893238028103042e-06,-0.0026276017952178155
18,0.0068349,404.248,135.605,-0.249955,234.642,-0.375339,-0.213861,0.00454128,-0.000307846,-0.0031938,0.00804291,-8.74011e-06,-4.52092e-06,0.00431411,0.004551607239062783,0.008075341089104349,-8.740071805402039e-06,-0.00030779862028218474,-4.520909780647564e-06,-0.0031887052460982668
19,0.0078349,412.201,138.438,-0.17771,239.366,-0.455398,-0.209454,0.00520155,-0.000385669,-0.00375514,0.00923681,-1.24957e-05,-4.87756e-06,0.0052787,0.005215101547363377,0.009279600978725933,-1.249562192906506e-05,-0.0003855946392710141,-4.877548104742502e-06,-0.0037480982787641004
20,0.0088349,420.338,142.124,0.176552,243.934,-0.342847,-0.24872,0.00585994,-0.000458853,-0.00431669,0.010429,-1.30792e-05,-6.0263e-06,0.00624283,0.005877143034903609,0.010483571564461114,-1.3079114467684505e-05,-0.0004587477430619824,-6.0262818418754804e-06,-0.004307386485332354
21,0.0098349,427.781,144.76,0.159444,248.386,-0.387592,-0.297525,0.00651746,-0.000535762,-0.00487774,0.0116226,-1.58765e-05,-7.58709e-06,0.00720847,0.006538744858371359,0.011690404850306146,-1.5876373969048174e-05,-0.0005356185051671458,-7.587061218061741e-06,-0.004865863144830174
22,0.010835,434.69,146.594,-0.0586374,252.736,-0.592502,-0.276691,0.00717421,-0.000616707,-0.00543694,0.0128176,-2.18922e-05,-8.15436e-06,0.00817519,0.0072000062970141165,0.012900097531523436,-2.189196036750385e-05,-0.0006165168753238248,-8.154326753273544e-06,-0.005422186591626854
23,0.011835,441.603,148.901,-0.170246,256.939,-0.663137,-0.324913,0.00782959,-0.000695773,-0.00599553,0.0140117,-2.65912e-05,-9.86193e-06,0.00914177,0.00786032139215953,0.014110323959872106,-2.6590846457175132e-05,-0.0006955310060937636,-9.861881371309167e-06,-0.005977592675834753
24,0.012835,448.412,151.319,-0.201752,261.018,-0.704112,-0.358326,0.00848378,-0.000774308,-0.00655331,0.0152052,-3.11001e-05,-1.15678e-05,0.0101085,0.008519869247094691,0.015321387189743296,-3.109961639691239e-05,-0.0007740083009186716,-1.1567733093298393e-05,-0.006531883893543422
25,0.013835,455.599,154.694,0.221921,264.957,-0.563681,-0.372014,0.00913654,-0.000848304,-0.00711074,0.0163963,-3.24614e-05,-1.30959e-05,0.0110742,0.009178405586651728,0.016531457008042816,-3.246087313446555e-05,-0.0008479442918829516,-1.3095814249131088e-05,-0.007085518504898136
26,0.014835,462.023,157.001,0.173411,268.8,-0.582917,-0.429309,0.00978842,-0.000925719,-0.00766832,0.0175887,-3.58911e-05,-1.54757e-05,0.0120415,0.009836483276223662,0.017744292065938083,-3.589045592222728e-05,-0.0009252906543526507,-1.547558025194462e-05,-0.007638993443872533
27,0.015835,467.923,158.349,-0.0565579,272.562,-0.803065,-0.388439,0.0104399,-0.00100808,-0.00822375,0.0187824,-4.30391e-05,-1.63954e-05,0.0130098,0.010494585895419295,0.01895989881792204,-4.303817383122244e-05,-0.00100757205805313,-1.639526559615856e-05,-0.00819002747316222
28,0.016835,473.914,160.38,-0.151523,276.189,-0.848026,-0.434714,0.01109,-0.00108757,-0.00877893,0.0199746,-4.81823e-05,-1.86424e-05,0.0139776,0.011151722004658415,0.02017542724181287,-4.818113925164624e-05,-0.0010869788100871247,-1.8642226231491144e-05,-0.008740507711760936
29,0.017835,480.346,163.499,0.230654,279.685,-0.688669,-0.457781,0.0117387,-0.00116197,-0.00933392,0.0211641,-4.98297e-05,-2.07081e-05,0.0149443,0.011807868924966769,0.02138964792710185,-4.9828458521083974e-05,-0.001161295174260557,-2.0707885588722164e-05,-0.00929049418477279
30,0.018835,486.014,165.455,0.146279,283.103,-0.719701,-0.507326,0.0123866,-0.00124035,-0.00988887,0.0223549,-5.39899e-05,-2.33515e-05,0.0159123,0.012463631654640261,0.022606643175015373,-5.3988442571539785e-05,-0.0012395810838800037,-2.3351227355861148e-05,-0.009840135899084168
31,0.019835,491.319,166.724,-0.00864227,286.444,-0.901517,-0.461562,0.0130342,-0.00132248,-0.0104418,0.0235463,-6.09727e-05,-2.45531e-05,0.016881,0.013119515454751873,0.023825702779302294,-6.097084120271212e-05,-0.0013216059086900156,-2.455279857516146e-05,-0.010387473659062785
32,0.020835,496.539,168.312,-0.178807,289.672,-0.98047,-0.498079,0.0136806,-0.00140326,-0.0109945,0.0247367,-6.70314e-05,-2.6957e-05,0.0178496,0.013774607612517364,0.02504519059102983,-6.702915344591887e-05,-0.001402275891060234,-2.695663666330006e-05,-0.010934281378138455
33,0.021835,501.792,170.189,-0.1946,292.801,-0.996847,-0.524024,0.0143261,-0.00148288,-0.0115465,0.025926,-7.23348e-05,-2.93449e-05,0.0188177,0.014429210372042478,0.026265002053307285,-7.23321839014579e-05,-0.0014817810767103756,-2.934446944258262e-05,-0.011480094996399792
34,0.022835,507.431,173.021,0.196788,295.813,-0.827929,-0.538949,0.0149702,-0.00155795,-0.0120984,0.0271126,-7.43845e-05,-3.16542e-05,0.0197848,0.015082814697119362,0.027483490891199835,-7.438173354168409e-05,-0.0015567370258982027,-3.165369901114712e-05,-0.012025508611240188
35,0.023835,511.906,173.773,-0.154011,298.788,-1.03974,-0.543024,0.0156142,-0.00164158,-0.0126492,0.0283021,-8.22588e-05,-3.38371e-05,0.020754,0.01573673857067126,0.02870640969037752,-8.225541683770654e-05,-0.0016402333445334483,-3.3836527531749816e-05,-0.012569535122441966
36,0.024835,517.232,176.58,0.183372,301.619,-0.837682,-0.597112,0.0162565,-0.00171614,-0.0132005,0.0294873,-8.38611e-05,-3.68915e-05,0.0217211,0.0163893558434558,0.029926355324120246,-8.385758375628605e-05,-0.0017146682737666508,-3.6890819516965934e-05,-0.013113755509595482
37,0.025835,521.387,177.055,-0.162004,304.431,-1.09529,-0.56077,0.016899,-0.00180084,-0.0137499,0.0306757,-9.24911e-05,-3.86279e-05,0.0226904,0.017042595835460972,0.031151047372667273,-9.248682283002907e-05,-0.0017992194605706002,-3.8627153952308646e-05,-0.013655801898541098
38,0.026835,525.968,178.741,-0.140192,307.127,-1.09575,-0.57713,0.0175402,-0.0018807,-0.014299,0.0318614,-9.78467e-05,-4.10856e-05,0.0236583,0.017694932664748197,0.0323744082957349,-9.784191316775104e-05,-0.0018789325919167377,-4.1084755998288536e-05,-0.014197254828212325
39,0.027835,530.799,181.187,0.146133,309.722,-0.938916,-0.605552,0.0181801,-0.00195665,-0.0148483,0.0330449,-0.000100406,-4.38143e-05,0.0246253,0.01834636405540513,0.03359694670235713,-0.0001004009594862687,-0.0019547370082771964,-4.381334016756444e-05,-0.014738607579990015
40,0.028835,535.121,182.829,0.150986,312.258,-0.920815,-0.642967,0.0188195,-0.00203521,-0.0153975,0.0342287,-0.000104581,-4.68194e-05,0.0255931,0.018997702931430105,0.03482124328603553,-0.00010457553159781696,-0.0020331403644137103,-4.681830398900466e-05,-0.01527956457631885
41,0.029835,538.914,183.372,-0.0593491,314.754,-1.13432,-0.585015,0.0194587,-0.00211922,-0.0159446,0.0354136,-0.000112665,-4.83479e-05,0.0265616,0.019649254476833855,0.03604812970251814,-0.00011265865353726756,-0.0021169760387249603,-4.834673125908573e-05,-0.015818157780933872
42,0.030835,543.295,185.656,0.132281,317.123,-0.962886,-0.660368,0.0200961,-0.00219515,-0.0164928,0.0365948,-0.000115049,-5.18765e-05,0.0275283,0.020299386086570115,0.037272632802481276,-0.00011504238211756945,-0.002192742420227156,-5.187515443760837e-05,-0.016357538409100147
43,0.031835,547.239,187.112,0.136432,319.445,-0.958338,-0.679949,0.0207331,-0.00227412,-0.0170404,0.0377763,-0.00011947,-5.47848e-05,0.0284956,0.020949523842398676,0.03849889468969803,-0.00011946286374375781,-0.002271536148147013,-5.478329934027748e-05,-0.01689603356763647
44,0.032835,550.701,187.529,-0.0485634,321.731,-1.17425,-0.609176,0.0213701,-0.00235837,-0.0175858,0.0389589,-0.000127653,-5.62277e-05,0.0294636,0.021600075867908464,0.03972774996146322,-0.00012764485270244652,-0.0023555912303564464,-5.6226119252489326e-05,-0.017432072279884303
45,0.033835,554.711,189.64,0.120615,323.896,-1.00926,-0.684723,0.0220053,-0.00243468,-0.0181325,0.0401377,-0.000130237,-5.9827e-05,0.0304297,0.02224920237685346,0.040954103704004874,-0.0001302285195300401,-0.002431718570514052,-5.9825210400710205e-05,-0.017969095357335263
46,0.034835,558.311,190.953,0.117993,326.02,-1.00746,-0.701934,0.02264,-0.00251398,-0.0186784,0.0413169,-0.000134829,-6.27623e-05,0.0313964,0.022898229892696076,0.042182320797570005,-0.00013481991097885615,-0.0025108225987152677,-6.276033048802088e-05,-0.018505039728853867
47,0.035835,561.501,191.363,-0.0303028,328.11,-1.20016,-0.632797,0.0232747,-0.00259792,-0.0192223,0.0424967,-0.000142728,-6.4297e-05,0.0323635,0.023547669477059108,0.043412613106373454,-0.0001427178148435404,-0.0025945483262483915,-6.429493299220379e-05,-0.01903872968760434
48,0.036835,564.734,192.298,-0.153481,330.119,-1.25388,-0.655866,0.0239082,-0.00267959,-0.0197663,0.043675,-0.000149097,-6.70745e-05,0.0333299,0.024196292355277205,0.04464279080525735,-0.00014908588559470193,-0.002676003103235458,-6.707225055602173e-05,-0.019572227494094152
49,0.037835,568.573,194.626,0.223767,332.031,-1.03035,-0.685407,0.0245404,-0.00275488,-0.0203105,0.0448498,-0.000150921,-7.00481e-05,0.0342945,0.024843993968211464,0.04587075832278309,-0.00015090961199881736,-0.002751088800325263,-7.004564668910973e-05,-0.020105631135596935
50,0.038835,571.244,194.632,-0.126142,333.949,-1.26045,-0.670955,0.0251728,-0.00283992,-0.0208533,0.0460277,-0.000159466,-7.2403e-05,0.0352611,0.025492310286010067,0.04710341531982931,-0.00015945328597322117,-0.002835891241882771,-7.240037896605322e-05,-0.02063737347109096
51,0.039835,574.763,196.702,0.135153,335.752,-1.0646,-0.723792,0.0258036,-0.00291591,-0.0213967,0.0472011,-0.000161738,-7.58119e-05,0.0362253,0.026139394904370228,0.04833280761076342,-0.00016172492111476977,-0.002911662863528064,-7.580902635051512e-05,-0.0211694145536927
52,0.040835,577.785,197.821,0.136018,337.527,-1.05696,-0.739262,0.026434,-0.00299538,-0.0219396,0.048375,-0.000166312,-7.88118e-05,0.0371901,0.026786477117802354,0.049564168099250905,-0.00016629817092594923,-0.0029908983252175947,-7.88086944316646e-05,-0.021700677454168482
53,0.041835,580.365,197.934,-0.0395894,339.282,-1.2655,-0.666175,0.0270644,-0.00307993,-0.0224805,0.0495497,-0.00017451,-8.03797e-05,0.0381554,0.027433967380465107,0.05079781556849694,-0.00017449477401565439,-0.0030751918812038648,-8.037646963843237e-05,-0.02222969647164219
54,0.042835,583.053,198.681,-0.156761,340.962,-1.31562,-0.686351,0.0276936,-0.00316181,-0.0230214,0.0507227,-0.000180914,-8.31886e-05,0.0391198,0.028080632252175386,0.05203112460049408,-0.00018089763604911546,-0.003156816742725166,-8.318513992433552e-05,-0.022758429420103754
55,0.043835,586.364,200.85,0.217389,342.554,-1.08016,-0.71842,0.0283216,-0.00323715,-0.0235626,0.0518921,-0.000182655,-8.62683e-05,0.0400822,0.028726469660950382,0.05326208940244315,-0.00018263831959108856,-0.0032319160791243196,-8.626457899718609e-05,-0.023287169468139024
56,0.044835,588.532,200.692,-0.114913,344.162,-1.30545,-0.699829,0.0289498,-0.00332228,-0.0241024,0.0530646,-0.000191155,-8.86332e-05,0.0410466,0.029372918657561975,0.05449776347462976,-0.0001911367310470924,-0.0033167673343634796,-8.86292721939963e-05,-0.023814256780395837
57,0.045835,591.512,202.515,0.118731,345.666,-1.11934,-0.750271,0.0295764,-0.00339874,-0.0246427,0.0542326,-0.000193641,-9.20572e-05,0.0420085,0.030018125850695965,0.05573013642807023,-0.00019362225279162537,-0.0033929708210367338,-9.205296286596276e-05,-0.024341547477048198
58,0.046835,594.033,203.434,0.112267,347.15,-1.11447,-0.762892,0.0302027,-0.00347855,-0.0251825,0.0554011,-0.000198359,-9.50543e-05,0.0429709,0.03066342825827184,0.05696447811617111,-0.00019833932815427335,-0.0034725068541078263,-9.504978248320306e-05,-0.024868065789642624
59,0.047835,596.204,203.52,-0.0183145,348.617,-1.29188,-0.693053,0.0308289,-0.00356262,-0.0257205,0.0565701,-0.000206116,-9.67203e-05,0.0439336,0.031309031814424015,0.05820079207580675,-0.0002060947595565743,-0.003556281398944372,-9.67156227426047e-05,-0.025392545672508704
60,0.048835,598.447,204.138,-0.124165,350.022,-1.33274,-0.713296,0.0314541,-0.00364438,-0.0262585,0.0577375,-0.000212311,-9.95867e-05,0.0448953,0.03195400781960478,0.059436857031212265,-0.00021228846361454057,-0.00363774730700539,-9.958174140922704e-05,-0.025916743461087965
61,0.049835,601.215,205.94,0.186206,351.353,-1.13644,-0.736468,0.032078,-0.00372073,-0.0267966,0.0589017,-0.000214654,-0.000102572,0.0458553,0.03259804481153217,0.06067097165890356,-0.00021463096347851263,-0.003713816661014002,-0.0001025667396722385,-0.02644075666303547
62,0.050835,603.411,206.725,0.132062,352.669,-1.12992,-0.771793,0.0327016,-0.00380061,-0.0273346,0.0600665,-0.000219334,-0.000105851,0.046816,0.03324217377081218,0.06190716102361038,-0.00021930994805674509,-0.0037933968228651693,-0.00010584539798053072,-0.02696439066577383
63,0.051835,605.294,206.679,-0.00709732,353.975,-1.31259,-0.701133,0.0333252,-0.00388488,-0.0278705,0.0612318,-0.00022715,-0.000107508,0.0477767,0.033886704534180856,0.06314532271314865,-0.0002271242033919929,-0.003877343616167095,-0.00010750222122202224,-0.02748570075130241
64,0.052835,607.265,207.2,-0.121971,355.221,-1.35227,-0.723092,0.0339477,-0.00396667,-0.0284066,0.0623954,-0.000233318,-0.000110402,0.0487365,0.034530499368105705,0.0643831186206556,-0.00023329078347222865,-0.003958813156490382,-0.00011039590592343274,-0.02800692594023424
65,0.053835,609.775,208.913,0.185271,356.398,-1.15346,-0.746117,0.0345691,-0.00404305,-0.0289428,0.0635558,-0.000235622,-0.00011339,0.0496945,0.03517355639753972,0.06561894567968984,-0.00023559424331665024,-0.004034887877011006,-0.00011338357159695889,-0.028527968922437807
66,0.054835,611.715,209.598,0.126481,357.566,-1.14784,-0.780939,0.03519,-0.00412302,-0.0294788,0.0647169,-0.000240312,-0.000116665,0.0506531,0.03581649523841479,0.06685695442440975,-0.00024028312738422208,-0.004114532022413853,-0.00011665819490347396,-0.029048538406010627
67,0.055835,613.372,209.496,-0.00101411,358.727,-1.32343,-0.709938,0.035811,-0.00420718,-0.0300128,0.0658782,-0.000248,-0.000118322,0.0516118,0.03645993704996231,0.06809661507522069,-0.0002479692505420461,-0.004198342216616413,-0.0001183150002281863,-0.02956688807482266
68,0.056835,615.112,209.944,-0.11282,359.833,-1.36001,-0.731728,0.036431,-0.00428891,-0.0305469,0.067038,-0.000254075,-0.000121219,0.0525695,0.037102741459709154,0.06933611217481195,-0.00025404272568063657,-0.004279725760323205,-0.00012121165327383387,-0.030085058010302812
69,0.057835,617.368,211.519,0.175842,360.876,-1.17107,-0.752377,0.0370498,-0.00436554,-0.0310811,0.0681946,-0.000256505,-0.000124172,0.0535253,0.03774469923737622,0.07057362183603666,-0.00025647210540513665,-0.004356024881500109,-0.0001241642909762808,-0.03060304820481452
70,0.058835,619.08,212.111,0.113452,361.912,-1.16748,-0.785619,0.0376682,-0.00444562,-0.031615,0.0693518,-0.000261234,-0.000127413,0.0544817,0.03838663902671002,0.07181320671670877,-0.0002611998813696337,-0.0044357528586767,-0.00012740488330842403,-0.031120471099045366
71,0.059835,620.559,212.014,0.00912718,362.942,-1.32512,-0.717363,0.0382866,-0.00452942,-0.0321471,0.0705092,-0.000268625,-0.000129107,0.055438,0.039028975914379815,0.07305444148616314,-0.0002685889235350958,-0.004519177647039685,-0.0001290986660499316,-0.03163587476106877
72,0.060835,622.519,213.417,0.152234,363.894,-1.14571,-0.77925,0.0389034,-0.00460603,-0.0326805,0.0716631,-0.000271023,-0.000132661,0.0563925,0.03967004667262142,0.07429335365910616,-0.0002709862765843951,-0.0045954385116304675,-0.00013265220091862595,-0.03215226245263059
73,0.061835,624.066,213.85,0.0973305,364.845,-1.16682,-0.797408,0.0395201,-0.00468656,-0.0332128,0.0728175,-0.000276013,-0.000135736,0.0573472,0.040311408934130766,0.07553423400490189,-0.00027597491191622137,-0.004675595213414208,-0.00013572678828599472,-0.03266731071107176
74,0.062835,625.423,213.819,-0.010033,365.784,-1.29399,-0.756195,0.0401365,-0.0047696,-0.0337438,0.0739717,-0.000282847,-0.000137894,0.0583017,0.04095285455982989,0.07677633229482228,-0.0002828070025584495,-0.004758243520382455,-0.00013788449305940365,-0.033180828018173125
75,0.063835,626.843,214.136,-0.0811279,366.684,-1.33763,-0.752944,0.0407521,-0.00485124,-0.0342744,0.0751246,-0.000288794,-0.000140507,0.0592553,0.04159386241907281,0.07801846361734133,-0.0002887523030268291,-0.004839491740784019,-0.00014049712935382264,-0.033693686197519335
76,0.064835,628.643,215.318,0.137908,367.534,-1.20599,-0.757825,0.0413667,-0.004929,-0.0348051,0.0762748,-0.000291981,-0.00014323,0.0602073,0.04223422276949429,0.07925911381534534,-0.00029193837769625475,-0.004916872413306739,-0.00014321974307329732,-0.034206368905864926
77,0.065835,629.8,215.221,-0.0464059,368.394,-1.3261,-0.754393,0.0419812,-0.00501202,-0.0353348,0.0774263,-0.000298812,-0.000145836,0.06116,0.042874872518861906,0.08050259648264935,-0.00029876736014078364,-0.004999480785437993,-0.0001458253664474718,-0.034717814323977914
78,0.066835,631.364,216.123,0.0525727,369.2,-1.23842,-0.778309,0.0425946,-0.0050907,-0.0358645,0.078575,-0.000302656,-0.000148866,0.0621111,0.043514768201607046,0.08174448295616821,-0.0003026102042931189,-0.005077764346574143,-0.00014885492000682454,-0.03522898890119153
79,0.067835,632.686,216.555,0.0265396,369.996,-1.24555,-0.783953,0.0432076,-0.00517113,-0.0363936,0.0797236,-0.000307708,-0.000151685,0.0630621,0.04415463885483284,0.08298768850556049,-0.00030766066274878767,-0.005157782724005466,-0.0001516734964119859,-0.03573931422469423
80,0.068835,633.972,216.829,0.0461371,370.776,-1.29577,-0.741702,0.0438202,-0.00525256,-0.0369217,0.0808713,-0.000313489,-0.000153736,0.0640124,0.044794483951138275,0.08423134701257862,-0.0003134398674577987,-0.0052387894275256475,-0.0001537241832266778,-0.036248405855375476
81,0.069835,635.291,217.477,0.047246,371.519,-1.24824,-0.770757,0.0444317,-0.0053319,-0.03745,0.0820175,-0.000317838,-0.000156784,0.0649618,0.04543357115907365,0.08547480547243236,-0.0003177874948537829,-0.005317710651126073,-0.00015677171003092294,-0.03675742135427906
82,0.070835,636.418,217.558,0.00728911,372.258,-1.32944,-0.737363,0.0450432,-0.00541403,-0.037977,0.0831636,-0.000324117,-0.00015892,0.0659111,0.046073049288348544,0.08671958132953361,-0.0003240644797595227,-0.005399400552908551,-0.00015890737288570822,-0.037264916456520414
83,0.071835,637.806,218.5,0.0996913,372.949,-1.21547,-0.778087,0.0456534,-0.00549193,-0.0385046,0.0843074,-0.000327472,-0.000162129,0.0668589,0.04671155785217507,0.08796328232366446,-0.00032741838689698266,-0.0054768769218617175,-0.0001621158578039017,-0.03777272151584388
84,0.072835,638.905,218.801,0.0465709,373.638,-1.23368,-0.795111,0.0462633,-0.00557236,-0.0390314,0.0854511,-0.000332551,-0.000165106,0.0678066,0.047350141947734015,0.08920829775602135,-0.0003324957110452109,-0.005556863199959627,-0.00016509237075446048,-0.038279489351781604
85,0.073835,639.968,218.892,0.0484399,374.317,-1.31095,-0.743113,0.0468729,-0.0056542,-0.0395569,0.0865941,-0.000338666,-0.000167014,0.0687538,0.04798880123783933,0.09045397460906024,-0.00033860865914359106,-0.0056382450960826835,-0.0001670000539383265,-0.038784740713704746
86,0.074835,641.144,219.587,0.0624286,374.954,-1.23951,-0.781627,0.0474814,-0.00573285,-0.040083,0.0877353,-0.000342616,-0.000170194,0.0696999,0.04862669648333795,0.09169911102459039,-0.00034255731384069676,-0.005716448572713917,-0.0001701795178228327,-0.03929030306177872
87,0.075835,642.029,219.424,-0.0145845,375.601,-1.3616,-0.736078,0.0480899,-0.00581567,-0.0406074,0.0888769,-0.000349472,-0.000172149,0.0706459,0.04926498000621504,0.0929461063792556,-0.0003494109417735425,-0.005798791726566055,-0.00017213418321115892,-0.03979396715458594
88,0.076835,643.212,220.249,0.0452271,376.196,-1.25635,-0.790864,0.0486971,-0.00589374,-0.0411325,0.0900159,-0.00035304,-0.000175556,0.0715905,0.049902287168948734,0.09419168121463106,-0.00035297768871223045,-0.005876405985183908,-0.00017554059094715413,-0.040298038986791185
89,0.077835,644.192,220.578,0.0230673,376.79,-1.26069,-0.797293,0.049304,-0.00597378,-0.0416568,0.0911546,-0.000357992,-0.00017838,0.0725347,0.05053966626015294,0.09543834693645281,-0.0003579279285098602,-0.0059559724533563285,-0.0001783640912337292,-0.04080107884152906
90,0.078835,645.135,220.714,0.0436404,377.376,-1.31698,-0.751417,0.0499105,-0.006055,-0.04218,0.0922927,-0.000363807,-0.000180372,0.0734784,0.051177011823244856,0.09668577503341313,-0.00036374083025791926,-0.006036705430663147,-0.00018035573394881155,-0.041302800455260025
91,0.079835,646.136,221.285,0.0489397,377.927,-1.26224,-0.783286,0.0505161,-0.00613383,-0.0427035,0.0934291,-0.000368,-0.000183451,0.0744211,0.05181379742082215,0.0979327571492028,-0.00036793229630527335,-0.0061150564689272935,-0.00018343417389421468,-0.0418045470955799
92,0.080835,646.929,221.215,0.00226246,378.484,-1.35357,-0.746519,0.0511215,-0.0062158,-0.0432256,0.0945656,-0.000374377,-0.000185531,0.0753636,0.05245075828237922,0.0991812670590746,-0.00037430692967543866,-0.006196521878843009,-0.0001855137901883852,-0.04230469036777895
93,0.081835,647.749,221.45,-0.062576,379.014,-1.36498,-0.769535,0.051726,-0.00629626,-0.0437478,0.0957007,-0.000379784,-0.000188439,0.0763052,0.05308715709792344,0.1004296561044753,-0.0003797118911855746,-0.006276480089930758,-0.0001884212464867696,-0.04280466830286833
94,0.082835,648.873,222.291,0.114118,379.513,-1.25952,-0.772447,0.0523298,-0.00637403,-0.0442696,0.0968336,-0.000383294,-0.000191098,0.0772453,0.05372320312635126,0.10167703930867789,-0.00038322055223916074,-0.006353758963046241,-0.00019107974194021438,-0.04330400253931588
95,0.083835,649.644,222.525,0.0460413,380.012,-1.26703,-0.798774,0.0529331,-0.00645387,-0.0447911,0.0979666,-0.000388248,-0.000194149,0.0781855,0.05435910613565276,0.10292594676668876,-0.00038817264149815234,-0.00643308851205282,-0.0001941301543025853,-0.04380278943200511
96,0.084835,650.407,222.575,0.050848,380.506,-1.3288,-0.755614,0.053536,-0.00653493,-0.0453114,0.0990989,-0.000394113,-0.000196164,0.079125,0.05499497090291516,0.10417549711563856,-0.00039403534767323833,-0.006513623781759459,-0.00019614476110052514,-0.0443001694360351
97,0.085835,651.254,223.108,0.0528053,380.967,-1.27026,-0.790455,0.054138,-0.0066134,-0.0458321,0.10023,-0.000398228,-0.000199279,0.0800635,0.055630269080964245,0.10542513662081698,-0.00039814871775445404,-0.006591579599064867,-0.0001992591452589787,-0.04479767280156788
98,0.086835,651.885,222.957,-1.7869e-05,381.439,-1.36842,-0.751859,0.0547399,-0.00669522,-0.0463513,0.10136,-0.000404685,-0.000201332,0.0810017,0.05626584419706693,0.10667497304978801,-0.0004046031260701577,-0.006672856950920236,-0.0002013117340730064,-0.04529348512583198
99,0.087835,652.562,223.148,-0.0640937,381.884,-1.379,-0.775138,0.0553409,-0.00677539,-0.0468706,0.10249,-0.000410072,-0.000204239,0.081939,0.05690085076979079,0.10792622259218221,-0.00040998793196911354,-0.006752488795893297,-0.0002042181446353375,-0.04578913551224473
100,0.088835,653.547,223.955,0.112929,382.3,-1.27043,-0.77964,0.0559411,-0.00685281,-0.0473895,0.103617,-0.000413527,-0.000206918,0.0828749,0.057535393067517315,0.10917555931405154,-0.00041344150949473857,-0.006829383041596082,-0.00020689659394712567,-0.04628414708796691
101,0.089835,654.181,224.142,0.0454657,382.72,-1.27828,-0.80558,0.0565408,-0.00693234,-0.0479082,0.104744,-0.000418471,-0.000209962,0.0838108,0.05816978724682187,0.11042630483211391,-0.0004183834532234254,-0.00690836675993356,-0.0002099399595218987,-0.04677871122457511
102,0.090835,654.811,224.146,0.0501067,383.137,-1.34037,-0.762519,0.0571403,-0.00701311,-0.0484256,0.10587,-0.000424327,-0.000211981,0.0847459,0.058804350225523994,0.11167734905707283,-0.0004242369860307793,-0.006988575531875485,-0.00021195853361533068,-0.04727178035140467
103,0.091835,655.529,224.635,0.052127,383.524,-1.28207,-0.797155,0.0577387,-0.00709128,-0.0489435,0.106995,-0.000428435,-0.000215093,0.0856801,0.059438128356203546,0.1129286898219648,-0.0004283432348309857,-0.007066196201082842,-0.0002150698691590902,-0.047765070547838406
104,0.092835,656.036,224.446,0.000356884,383.923,-1.37952,-0.758898,0.0583371,-0.00717276,-0.0494598,0.10812,-0.000434868,-0.000217153,0.0866139,0.06007228585321167,0.11418143913737855,-0.00043477345861608896,-0.007147097151466886,-0.00021712942399387813,-0.04825658254717358
105,0.093835,656.593,224.6,-0.0619502,384.298,-1.3894,-0.782031,0.0589346,-0.00725257,-0.0499762,0.109244,-0.000440228,-0.00022006,0.0875469,0.0607058683079178,0.11543448315378413,-0.00044013111387186665,-0.007226333579671507,-0.00022003578857421324,-0.0487479359695735
106,0.094835,657.453,225.352,0.109426,384.646,-1.28389,-0.786361,0.0595313,-0.00732974,-0.0504923,0.110365,-0.00044372,-0.000222737,0.0884784,0.06133898036973573,0.11668558632170956,-0.0004436215708396585,-0.007302942967497894,-0.00022271219595604297,-0.049238750494237093
107,0.095835,657.973,225.498,0.042248,384.999,-1.29246,-0.811748,0.0601276,-0.00740897,-0.0510081,0.111486,-0.000448676,-0.000225774,0.0894099,0.06197204553335034,0.11793809276267364,-0.000448575359975667,-0.007381591239634111,-0.00022574851496848236,-0.04972902669363055
108,0.096835,658.498,225.484,0.0510625,385.352,-1.35038,-0.770071,0.0607236,-0.00748931,-0.0515227,0.112607,-0.000454464,-0.000227815,0.0903406,0.0626051695246963,0.1191920040506278,-0.000454360746878546,-0.0074613349992442846,-0.00022778905213338696,-0.05021791033594425
109,0.097835,659.1,225.912,0.047857,385.677,-1.29745,-0.803234,0.0613186,-0.00756726,-0.0520377,0.113726,-0.000458647,-0.000230907,0.0912703,0.06323760773227205,0.12044508086888572,-0.0004585418375427919,-0.007538700372826446,-0.00023088034303042626,-0.050706922180763
110,0.098835,659.518,225.729,0.0057758,386.014,-1.38628,-0.767087,0.0619135,-0.00764821,-0.0525512,0.114845,-0.000464945,-0.000233002,0.0921997,0.06387031596551607,0.12169956066492316,-0.0004648369298230204,-0.007619036863367956,-0.00023297485714213195,-0.05119425904177566
111,0.099835,659.975,225.851,-0.0557572,386.33,-1.39595,-0.790188,0.0625075,-0.00772765,-0.0530647,0.115963,-0.000470275,-0.000235917,0.0931282,0.06450244265624039,0.12295432205466694,-0.0004701644380443737,-0.007697868475846414,-0.0002358891737728186,-0.05168134571955019
112,0.1008,660.717,226.525,0.104225,386.622,-1.29975,-0.792476,0.0631008,-0.00780465,-0.053578,0.117079,-0.000473895,-0.00023857,0.0940553,0.06513419934755893,0.12420823863338937,-0.0004737827295000496,-0.007774272798369619,-0.0002385415444404737,-0.05216799277614026
113,0.1018,661.14,226.634,0.0366481,386.92,-1.30944,-0.817273,0.0636937,-0.00788357,-0.0540909,0.118194,-0.000478882,-0.000241596,0.0949823,0.06576590466488819,0.12546242990116063,-0.0004787673543164006,-0.00785257616286894,-0.00024156681803655378,-0.05265401116257562
114,0.1028,661.588,226.628,0.0536478,387.218,-1.35892,-0.778215,0.0642862,-0.00796338,-0.0546027,0.119309,-0.000484547,-0.000243679,0.0959085,0.06639755807224512,0.1267180203721061,-0.00048442962606087825,-0.007931756289040415,-0.00024364931268394674,-0.05313873878728259
115,0.1038,662.08,226.978,0.0403389,387.492,-1.31617,-0.808724,0.0648778,-0.00804118,-0.0551148,0.120423,-0.000488883,-0.000246737,0.0968338,0.06702862551894584,0.1279738836327602,-0.0004887635161781034,-0.008008936196063798,-0.0002467065629297993,-0.05362350230485702
116,0.1048,662.442,226.841,0.0156723,387.776,-1.38906,-0.776355,0.0654692,-0.00812143,-0.0556256,0.121536,-0.000494942,-0.000248892,0.0977586,0.06765985288361165,0.12923001747405438,-0.0004948195364132824,-0.008088540284777346,-0.0002488610289557158,-0.05410678797821067
117,0.1058,663.026,227.441,0.078979,388.027,-1.29248,-0.815147,0.0660596,-0.00819801,-0.0561369,0.122647,-0.000498495,-0.000252067,0.0986821,0.06829038537563026,0.13048528919779323,-0.0004983707720106478,-0.008164497955905903,-0.00025203523378292125,-0.05459029955724859
118,0.1068,663.384,227.481,0.0278081,388.288,-1.31486,-0.828766,0.0666496,-0.00827684,-0.0566474,0.123758,-0.000503625,-0.000254978,0.0996054,0.06892086267551623,0.13174195630340835,-0.0005034982022167345,-0.008242681266896423,-0.0002549454958724606,-0.055072808038555854
119,0.1078,663.773,227.452,0.0542851,388.548,-1.36585,-0.786011,0.0672393,-0.00835636,-0.0571568,0.124868,-0.000509297,-0.000257027,0.100528,0.06955139120129972,0.13299888734257648,-0.0005091673302972666,-0.008321542673310978,-0.0002569939713904512,-0.05555403137215198
120,0.1088,664.193,227.758,0.0364194,388.785,-1.32806,-0.814967,0.0678281,-0.00843395,-0.0576666,0.125977,-0.000513704,-0.000260071,0.101449,0.07018132849577952,0.1342560800931698,-0.0005135720766910046,-0.008398484019836783,-0.0002600371844689864,-0.05603538721892787
121,0.1098,664.505,227.625,0.0197287,389.033,-1.39586,-0.783006,0.0684167,-0.00851376,-0.058175,0.127086,-0.000519686,-0.000262239,0.10237,0.07081142264424867,0.1355146678439081,-0.0005195509866199322,-0.008477620578840828,-0.00026220461835890774,-0.056515176855205906
122,0.1108,665.011,228.163,0.0718853,389.25,-1.30792,-0.820331,0.0690043,-0.00859021,-0.058684,0.128192,-0.000523371,-0.000265398,0.10329,0.07144081633395105,0.1367712418238638,-0.0005232340652884249,-0.008553419567294274,-0.00026536278506616995,-0.05699528843142487
123,0.1118,665.312,228.186,0.0225374,389.477,-1.33017,-0.833313,0.0695916,-0.00866874,-0.0591921,0.129298,-0.000528522,-0.0002683,0.10421,0.07207025834293757,0.13802920634346805,-0.0005283823568503765,-0.008631274810229517,-0.0002682640107737333,-0.05747430742029325
124,0.1128,665.659,228.172,0.0557396,389.703,-1.37347,-0.793118,0.0701785,-0.00874778,-0.0596992,0.130404,-0.00053409,-0.000270391,0.105128,0.072699641051849,0.1392885629415086,-0.0005339473993243304,-0.008709629497650528,-0.00027035444764811345,-0.057952141034048
125,0.1138,666.009,228.421,0.0304886,389.91,-1.34411,-0.819607,0.0707645,-0.00882523,-0.0602066,0.131508,-0.000538628,-0.000273404,0.106046,0.07332842725787003,0.14054703206213026,-0.0005384829659798029,-0.008786401963793766,-0.0002733666285322789,-0.05843001487084243
126,0.1148,666.292,228.332,0.0272085,390.125,-1.3987,-0.791028,0.0713503,-0.00890444,-0.0607128,0.132611,-0.000544419,-0.000275628,0.106963,0.07395736724909563,0.1418057494935443,-0.000544270830866167,-0.008864912883428167,-0.0002755900180925197,-0.058906516984454926
127,0.1158,666.71,228.763,0.0590045,390.315,-1.32985,-0.823827,0.0719351,-0.00898096,-0.0612193,0.133713,-0.000548392,-0.000278727,0.107879,0.07458560119516444,0.1430647129909659,-0.0005482416605900875,-0.008940751638666589,-0.00027868815923848267,-0.059383060138860744
128,0.1168,666.865,228.43,-0.0130563,390.525,-1.43332,-0.789421,0.0725199,-0.00906108,-0.0617244,0.134815,-0.000554916,-0.00028087,0.108795,0.0752142026398912,0.14432506463088757,-0.0005547620625918626,-0.009020152124819325,-0.0002808305597141736,-0.05985804578746057
129,0.1178,667.122,228.502,-0.0622436,390.716,-1.43948,-0.80985,0.0731038,-0.00913932,-0.0622296,0.135916,-0.000560229,-0.000283764,0.10971,0.07584220353983273,0.1455856603576524,-0.0005600721010349252,-0.009097683355055786,-0.000283723742804054,-0.0603328855481059
130,0.1188,667.662,229.133,0.0984494,390.885,-1.33658,-0.81569,0.073687,-0.00921504,-0.0627344,0.137015,-0.000563775,-0.000286484,0.110623,0.07646981770743966,0.14684535107164476,-0.0005636161087356761,-0.009172711637865594,-0.00028644296737734276,-0.060807109803208914
131,0.1198,667.886,229.178,0.0355712,391.066,-1.34617,-0.838966,0.0742698,-0.0092928,-0.063239,0.138114,-0.000568774,-0.00028951,0.111537,0.0770973671673496,0.14810642694673848,-0.0005686122787308401,-0.00924975537230932,-0.000289468096023926,-0.06128090698651967
132,0.1208,668.133,229.099,0.049861,391.249,-1.39711,-0.800481,0.0748523,-0.00937147,-0.0637424,0.139212,-0.000574473,-0.000291625,0.112449,0.07772495915214472,0.14936774013774756,-0.0005743080219794416,-0.00932769462827343,-0.0002915824815629131,-0.06175333925676352
133,0.1218,668.438,229.39,0.0402515,391.411,-1.35339,-0.830333,0.0754339,-0.00944809,-0.0642462,0.140308,-0.000578812,-0.000294694,0.113361,0.07835194629857622,0.15062813775266393,-0.0005786445206489299,-0.009403597032452748,-0.0002946505819882983,-0.062225908874164015
134,0.1228,668.611,229.186,0.0130641,391.588,-1.42722,-0.798707,0.0760153,-0.00952717,-0.0647486,0.141405,-0.000584899,-0.000296885,0.114272,0.07897908241095641,0.1518910694111415,-0.000584727979924704,-0.00948193029866129,-0.00029684093400939027,-0.06269692824757167
135,0.1238,669.016,229.724,0.0771026,391.734,-1.33075,-0.836788,0.0765957,-0.00960258,-0.0652516,0.142499,-0.000588476,-0.00030007,0.115182,0.07960550364024344,0.1531519278048652,-0.0005883028819589908,-0.009556622449994445,-0.00030002498350034656,-0.06316827313948492
136,0.1248,669.197,229.702,0.025974,391.893,-1.35438,-0.849597,0.0771758,-0.00968026,-0.0657538,0.143593,-0.000593652,-0.000302988,0.116092,0.08023196448030401,0.15441416633246718,-0.0005934758235156545,-0.009633557103381873,-0.0003029421037713531,-0.06363863191574004
137,0.1258,669.419,229.627,0.0528248,392.054,-1.40257,-0.808885,0.0777556,-0.00975852,-0.0662549,0.144686,-0.000599304,-0.000305091,0.117,0.08085846457813717,0.15567663082743177,-0.0005991244532272955,-0.009711060148469342,-0.00030504446447354727,-0.0641077250561849
138,0.1268,669.669,229.859,0.0331579,392.196,-1.36896,-0.836052,0.0783344,-0.00983501,-0.0667563,0.145778,-0.000603798,-0.000308132,0.117908,0.08148424654126507,0.15693931901056746,-0.0006036157506700279,-0.009786804452600717,-0.00030808453221087273,-0.06457686381992511
139,0.1278,669.831,229.703,0.0217017,392.35,-1.43017,-0.806608,0.0789131,-0.00991348,-0.0672565,0.14687,-0.000609705,-0.000310364,0.118816,0.08211028260080089,0.15820338680232826,-0.0006095191676760425,-0.009864503433495875,-0.000310315842076081,-0.06504464547069821
140,0.1288,670.163,230.139,0.0635104,392.478,-1.35286,-0.840851,0.0794908,-0.00998895,-0.0677571,0.14796,-0.000613575,-0.000313502,0.119722,0.08273559831611288,0.15946651677471735,-0.000613386801353033,-0.009939226139724977,-0.00031345286338291256,-0.06551256699064745
141,0.1298,670.314,230.113,0.0160505,392.617,-1.37513,-0.852989,0.0800683,-0.0100663,-0.068257,0.149049,-0.00061878,-0.000316409,0.120627,0.08336105870844568,0.16072986357896757,-0.0006185885951369707,-0.010015804378881499,-0.00031635894795145614,-0.0659796005136537
142,0.1308,670.529,230.094,0.0558678,392.756,-1.40843,-0.817057,0.0806453,-0.0101439,-0.0687559,0.150138,-0.000624236,-0.000318585,0.121532,0.08398633841516823,0.16199458691727409,-0.0006240412052428423,-0.010092624171815223,-0.0003185342571876415,-0.06644546707088184
143,0.1318,670.72,230.245,0.0227109,392.882,-1.39019,-0.839795,0.0812215,-0.0102204,-0.069255,0.151225,-0.000628972,-0.000321571,0.122436,0.08461111132315202,0.1632583617704495,-0.0006287742385758799,-0.010168349189547232,-0.0003215193015877471,-0.06691128788301348
144,0.1328,670.895,230.189,0.0350441,393.014,-1.42747,-0.8164,0.0817975,-0.010298,-0.069753,0.152312,-0.000634537,-0.000323898,0.12334,0.08523602728179247,0.1645235110937795,-0.0006343357239724234,-0.010245157145462813,-0.00032384555070563703,-0.06737585037598581
145,0.1338,671.133,230.459,0.0419909,393.129,-1.3838,-0.842581,0.0823726,-0.0103739,-0.0702513,0.153398,-0.000638917,-0.00032693,0.124242,0.08586032602097804,0.165788870592672,-0.0006387129359958221,-0.010320276687212804,-0.0003268765642109317,-0.06784046122233744
146,0.1348,671.227,230.253,0.00906107,393.259,-1.45047,-0.817098,0.0829475,-0.010452,-0.0707483,0.154483,-0.000644926,-0.00032923,0.125144,0.0864847666006534,0.1670544379634089,-0.0006447180799273866,-0.010397567655351936,-0.0003291758097507813,-0.06830362940628232
147,0.1358,671.55,230.734,0.0751875,393.361,-1.36242,-0.849017,0.0835214,-0.0105267,-0.0712458,0.155566,-0.000648654,-0.000332347,0.126045,0.0871084791654071,0.16831904257951935,-0.0006484436694738083,-0.010471488196081569,-0.0003322917788535218,-0.06876703306943355
148,0.1368,671.656,230.688,0.0224472,393.477,-1.38553,-0.862509,0.0840951,-0.0106036,-0.0717425,0.156649,-0.000653868,-0.000335284,0.126946,0.0877323322350465,0.16958501750431743,-0.0006536542749044916,-0.010547580012871483,-0.00033522779860095664,-0.06922946163046761
149,0.1378,671.816,230.62,0.0534383,393.594,-1.42648,-0.825048,0.0846684,-0.0106809,-0.0722382,0.157732,-0.000659446,-0.000337452,0.127845,0.08835610796934623,0.17085236422265115,-0.0006592286132740544,-0.010624061728879974,-0.0003373950694778305,-0.06969073025146455
150,0.1388,671.983,230.794,0.0276991,393.697,-1.40063,-0.849792,0.0852409,-0.0107567,-0.0727342,0.158813,-0.000664084,-0.000340478,0.128744,0.08897937023295865,0.17211873998115368,-0.0006638635450233465,-0.010699053582773788,-0.00034042004394352343,-0.0701520492326948
151,0.1398,672.098,230.67,0.027378,393.809,-1.44967,-0.823907,0.0858131,-0.0108341,-0.0732291,0.159893,-0.000669838,-0.000342783,0.129642,0.08960266253552751,0.1733853120461375,-0.0006696137086092957,-0.010775622512770644,-0.00034272425661974193,-0.0706121171303381
152,0.1408,672.331,231.003,0.0516291,393.901,-1.38994,-0.853633,0.0863845,-0.0109091,-0.0737242,0.160972,-0.000673997,-0.000345877,0.130539,0.09022543940730787,0.174652078095217,-0.0006737699150430876,-0.010849811558958256,-0.00034581719144610723,-0.0710721431823007
153,0.1418,672.347,230.68,-0.00582938,394.013,-1.47931,-0.823287,0.0869558,-0.0109872,-0.0742181,0.162051,-0.000680359,-0.000348123,0.131436,0.09084846315062811,0.17592021172253935,-0.0006801276082950558,-0.010927061172038788,-0.00034806241221929657,-0.07153082736939875
154,0.1428,672.447,230.704,-0.0512688,394.11,-1.4845,-0.843109,0.0875263,-0.0110636,-0.0747119,0.163129,-0.00068567,-0.000351057,0.132332,0.09147096975197977,0.17718853721539185,-0.0006854349820435424,-0.011002623458049143,-0.00035099538670146924,-0.07198919226723655
155,0.1438,672.795,231.199,0.0862497,394.191,-1.39893,-0.84604,0.0880961,-0.011138,-0.0752055,0.164205,-0.000689514,-0.000353777,0.133226,0.09209306712925569,0.17845587378623629,-0.0006892763398483881,-0.011076202125703483,-0.00035371442829612576,-0.07244714536980978
156,0.1448,672.712,230.787,-0.0551308,394.297,-1.49834,-0.836826,0.0886658,-0.0112161,-0.0756982,0.165282,-0.000696057,-0.000356329,0.134121,0.09271540980707882,0.1797257544703048,-0.0006958148085226545,-0.011153434058371325,-0.0003562655223617872,-0.07290403809652013
157,0.1458,672.835,230.846,-0.0674357,394.386,-1.49899,-0.847565,0.0892347,-0.0112923,-0.0761906,0.166357,-0.000701345,-0.000359157,0.135015,0.09333723246440195,0.1809946415609751,-0.0007010991150822043,-0.011228781295929857,-0.00035909251084553784,-0.0733604277758011
158,0.1468,673.19,231.381,0.0814592,394.459,-1.40401,-0.852528,0.089803,-0.0113662,-0.0766828,0.16743,-0.000705072,-0.000361916,0.135907,0.09395875260183106,0.18226252891128736,-0.0007048234951454457,-0.011301848789114888,-0.00036185051630455156,-0.07381640754742258
159,0.1478,673.088,230.936,-0.0596577,394.559,-1.51048,-0.839175,0.0903711,-0.0114443,-0.0771742,0.168504,-0.000711731,-0.000364417,0.136799,0.09458040713343463,0.18353296096723426,-0.0007114777795703686,-0.011379063099466458,-0.00036435060819006715,-0.07427142235845852
160,0.1488,673.381,231.424,0.0314418,394.627,-1.41786,-0.871807,0.0909382,-0.0115182,-0.0776657,0.169575,-0.00071553,-0.000367585,0.13769,0.09520131972544488,0.1848012037912352,-0.0007152740694551518,-0.011452119487236567,-0.00036751744891105886,-0.07472630615751841
161,0.1498,673.369,231.098,-0.0207183,394.721,-1.5065,-0.835288,0.0915053,-0.0115957,-0.078156,0.170647,-0.000721936,-0.000369776,0.138581,0.09582258453684855,0.18607199170232236,-0.0007216754669058245,-0.011528728979320224,-0.00036970764128096967,-0.07517985665261961
162,0.1508,673.459,231.152,-0.052747,394.798,-1.50483,-0.852385,0.0920717,-0.0116715,-0.0786463,0.171718,-0.000727188,-0.000372687,0.139471,0.09644343425677304,0.18734295528494682,-0.0007269236628845155,-0.011603652262035302,-0.0003726175608266269,-0.07563318482641956
163,0.1518,673.771,231.631,0.0791245,394.862,-1.4198,-0.856769,0.0926373,-0.0117453,-0.0791363,0.172787,-0.000731071,-0.000375442,0.140359,0.09706375807422729,0.1886129035705677,-0.0007308038327065169,-0.011676593220943832,-0.0003753715304716243,-0.07608601361374134
164,0.1528,673.673,231.236,-0.0508786,394.95,-1.51429,-0.846953,0.0932028,-0.0118227,-0.0796255,0.173856,-0.000737566,-0.000378001,0.141248,0.09768432307763542,0.18988421015678836,-0.0007372940650586246,-0.01175308649230078,-0.0003779295666228588,-0.07653788179991161
165,0.1538,673.768,231.287,-0.0633365,395.022,-1.51413,-0.85825,0.0937676,-0.0118983,-0.0801144,0.174924,-0.000742854,-0.000380852,0.142135,0.09830447029639866,0.1911556853401275,-0.0007425781522764074,-0.0118277951349397,-0.0003807794850831936,-0.07698925208304319
166,0.1548,674.083,231.786,0.0779344,395.079,-1.42459,-0.862465,0.0943317,-0.0119718,-0.0806031,0.17599,-0.000746681,-0.000383616,0.143022,0.09892419862603474,0.19242613432970468,-0.0007464023031122924,-0.011900423122885972,-0.00038354242879024003,-0.07744021723324057
167,0.1558,673.969,231.365,-0.054551,395.163,-1.52434,-0.850359,0.0948957,-0.0120492,-0.081091,0.177057,-0.000753263,-0.000386152,0.143908,0.0995441666886192,0.19369913203853772,-0.0007529793686472663,-0.011976899070478941,-0.00038607745291230344,-0.07789022436308624
168,0.1568,674.058,231.419,-0.064991,395.229,-1.52322,-0.861361,0.095459,-0.0121245,-0.0815786,0.178122,-0.000758554,-0.000389003,0.144793,0.10016371439694471,0.1949710988162432,-0.0007582663706465764,-0.012051294408959246,-0.00038892734814288676,-0.07833973548996798
169,0.1578,674.368,231.927,0.0774697,395.281,-1.43082,-0.86687,0.0960215,-0.0121978,-0.082066,0.179186,-0.000762352,-0.00039179,0.145677,0.10078273056826959,0.19624322471634836,-0.0007620614835439632,-0.01212370839507404,-0.00039171326032017006,-0.07878884324643909
170,0.1588,674.242,231.494,-0.055657,395.36,-1.53285,-0.853754,0.096584,-0.0122749,-0.0825526,0.18025,-0.000768978,-0.000394318,0.146562,0.10140209503413922,0.19751670487875117,-0.0007686824121894142,-0.012199870721061434,-0.0003942402668749567,-0.07923699555101693
171,0.1598,674.324,231.548,-0.0653877,395.421,-1.53099,-0.864894,0.0971457,-0.0123501,-0.0830389,0.181312,-0.000774272,-0.000397175,0.147445,0.10202092637343108,0.1987891431644695,-0.0007739723287822908,-0.01227415049782854,-0.0003970961364508918,-0.07968465374316891
172,0.1608,674.627,232.057,0.0768192,395.468,-1.43774,-0.870987,0.0977067,-0.0124231,-0.083525,0.182373,-0.000778068,-0.000399976,0.148326,0.10263933356012367,0.2000617334351238,-0.0007777653835842058,-0.012346251853110779,-0.00039989602026335724,-0.08013191031846678
173,0.1618,674.493,231.62,-0.0556446,395.542,-1.54007,-0.857553,0.0982677,-0.0125001,-0.0840103,0.183435,-0.000784707,-0.000402506,0.149208,0.1032580877705791,0.20133687597687477,-0.0007843991979787912,-0.012422298263893738,-0.0004024250053272782,-0.08057821399804199
174,0.1628,674.568,231.674,-0.0649621,395.599,-1.53782,-0.868761,0.0988279,-0.012575,-0.0844953,0.184495,-0.000790005,-0.00040537,0.150089,0.10387630609813403,0.2026109682149988,-0.0007896930282085268,-0.012496265063662526,-0.00040528784868243406,-0.08102402544623799
175,0.1638,674.862,232.177,0.0758994,395.641,-1.44509,-0.874982,0.0993874,-0.0126478,-0.0849801,0.185553,-0.000793819,-0.000408178,0.150969,0.10449409770248108,0.20388400393651773,-0.0007935040090517598,-0.0125681527188235,-0.00040809470669334047,-0.08146943702221188
176,0.1648,674.724,231.742,-0.0548213,395.711,-1.54648,-0.8616,0.0999468,-0.0127246,-0.0854641,0.186612,-0.000800454,-0.000410716,0.151848,0.10511212454672769,0.20515959240156656,-0.0008001337221584803,-0.012643984572714206,-0.0004106316677295885,-0.08191389824640039
177,0.1658,674.792,231.794,-0.0639861,395.764,-1.54406,-0.872846,0.100505,-0.0127993,-0.0859478,0.187669,-0.000805756,-0.000413588,0.152727,0.10572917033610763,0.2064341195596744,-0.0008054314658052508,-0.012717737312367472,-0.0004135024842729651,-0.08235786911080889
178,0.1668,675.076,232.288,0.0748292,395.802,-1.45273,-0.878906,0.101063,-0.0128719,-0.0864314,0.188725,-0.000809599,-0.0004164,0.153604,0.10634633938730675,0.2077087868958305,-0.0008092713631536741,-0.012789411402837625,-0.0004163133175519862,-0.08280153355859676
179,0.1678,674.935,231.86,-0.0534963,395.868,-1.55237,-0.865813,0.101621,-0.0129484,-0.0869141,0.189781,-0.000816218,-0.000418949,0.154482,0.10696385291493637,0.20898480099165773,-0.0008158849846987559,-0.012864930124237395,-0.00041886125312196043,-0.08324415842224286
180,0.1688,674.996,231.91,-0.0626814,395.917,-1.54996,-0.877075,0.102179,-0.0130229,-0.0873965,0.190836,-0.000821526,-0.000421827,0.155358,0.10758171111126824,0.2102609530085271,-0.0008211886399053236,-0.012938468947587989,-0.00042173804349954214,-0.08368629478835443
181,0.1698,675.27,232.392,0.0736803,395.952,-1.46056,-0.882798,0.102735,-0.0130954,-0.0878788,0.191889,-0.000825406,-0.000424641,0.156233,0.1081976977710688,0.2115360290017374,-0.000825065446172446,-0.013010028314530908,-0.000424550852771044,-0.08412812633213651
182,0.1708,675.128,231.972,-0.0518867,396.014,-1.55799,-0.870137,0.103291,-0.0131716,-0.0883602,0.192943,-0.000832002,-0.000427203,0.157109,0.10881402701468179,0.21281366117017964,-0.0008316559823051684,-0.013085234084997066,-0.00042711176179122123,-0.08456892094434443
183,0.1718,675.183,232.02,-0.0611987,396.059,-1.55568,-0.8814,0.103847,-0.0132459,-0.0888414,0.193995,-0.000837316,-0.00043009,0.157983,0.10943069903263658,0.21409021248999438,-0.0008369655487776573,-0.013158559128045422,-0.0004299975245539711,-0.08500932041097631
184,0.1728,675.446,232.49,0.072499,396.091,-1.46851,-0.886683,0.104402,-0.0133182,-0.0893224,0.195045,-0.000841238,-0.000432903,0.158856,0.11004660396840982,0.21536567671464368,-0.0008408842585142517,-0.013229905185029422,-0.00043280931101619124,-0.08544932509824799
185,0.1738,675.303,232.079,-0.0501366,396.149,-1.56348,-0.874533,0.104957,-0.0133942,-0.0898026,0.196096,-0.000847807,-0.00043548,0.159729,0.11066285082629723,0.2166436975231636,-0.0008474477131877878,-0.01330489686251557,-0.00043538519234753714,-0.08588838690515899
186,0.1748,675.353,232.124,-0.0596373,396.191,-1.56134,-0.885787,0.105511,-0.0134683,-0.0902825,0.197146,-0.000853128,-0.000438374,0.160601,0.11127832851723363,0.21792184431519912,-0.0008527641897740912,-0.01337800826084723,-0.00043827792815709365,-0.08632696382333449
187,0.1758,675.606,232.582,0.0713146,396.22,-1.47652,-0.890579,0.106065,-0.0135404,-0.0907622,0.198194,-0.000857093,-0.000441188,0.161471,0.11189414727727831,0.21919889546596183,-0.0008567258007101675,-0.013449141142080512,-0.0004410906908853818,-0.08676514767198973
188,0.1768,675.463,232.182,-0.0483396,396.275,-1.56894,-0.878977,0.106618,-0.0136161,-0.0912412,0.199242,-0.000863635,-0.000443779,0.162342,0.11250919478568489,0.22047728566787095,-0.0008632621746295088,-0.013523820215457394,-0.00044368054466426,-0.08720248241622175
189,0.1778,675.508,232.224,-0.0580608,396.314,-1.567,-0.890213,0.107171,-0.01369,-0.0917198,0.200289,-0.000868963,-0.000446681,0.163212,0.11312458250942425,0.22175579456858197,-0.0008685855609871229,-0.013596718111533068,-0.00044658125289442907,-0.08763924278304458
190,0.1788,675.751,232.668,0.0701449,396.341,-1.48458,-0.894496,0.107723,-0.013762,-0.0921983,0.201335,-0.000872972,-0.000449494,0.164081,0.11373919689693412,0.2230344197340819,-0.0008725910707985118,-0.013667736591133073,-0.000449392992706632,-0.08807570297394451
191,0.1798,675.609,232.278,-0.0465543,396.393,-1.57444,-0.883452,0.108275,-0.0138374,-0.092676,0.202381,-0.000879486,-0.000452101,0.164949,0.11435415064524102,0.22431438304123108,-0.000879099365542757,-0.01374210324013625,-0.0004519988177423828,-0.08851122517787335
192,0.1808,675.648,232.318,-0.0565081,396.429,-1.57272,-0.894665,0.108826,-0.0139111,-0.0931534,0.203425,-0.000884823,-0.00045501,0.165817,0.11496832897283693,0.22559323470153725,-0.0008844316595602031,-0.013814787768669623,-0.00045490649864854404,-0.08894626606645073
193,0.1818,675.883,232.75,0.0690001,396.453,-1.49267,-0.898442,0.109377,-0.0139829,-0.0936306,0.204468,-0.000888876,-0.000457824,0.166683,0.11558284580594114,0.22687219530734382,-0.0008884810667525445,-0.013885593324957979,-0.00045771921458426235,-0.08938091719227703
194,0.1828,675.741,232.37,-0.0448154,396.502,-1.58001,-0.887948,0.109927,-0.0140581,-0.094107,0.205511,-0.000895363,-0.000460445,0.16755,0.11619658513397835,0.22815249056496234,-0.0008949622821540215,-0.013959746340151624,-0.0004603390114689132,-0.08981463280406499
195,0.1838,675.776,232.407,-0.055002,396.536,-1.57851,-0.899134,0.110477,-0.0141316,-0.0945832,0.206553,-0.000900708,-0.000463362,0.168415,0.11681066211149105,0.22943289243365328,-0.0009003024843089458,-0.014032217635442934,-0.00046325466440755303,-0.0902479598925553
196,0.1848,676.002,232.827,0.0678855,396.558,-1.50077,-0.90242,0.111026,-0.0142032,-0.0950591,0.207593,-0.000904804,-0.000466176,0.169279,0.11742395949971929,0.23071216774964332,-0.0009043947882888537,-0.014102810401409038,-0.0004660673568513962,-0.0906808078840935
197,0.1858,675.861,232.458,-0.0431423,396.604,-1.58568,-0.89246,0.111575,-0.0142782,-0.0955344,0.208634,-0.000911266,-0.000468812,0.170144,0.1180375936806548,0.23199400619742416,-0.0009108509232299555,-0.014176749917862441,-0.00046870212482530427,-0.09111290460018706
198,0.1868,675.891,232.492,-0.0535544,396.636,-1.58441,-0.903616,0.112123,-0.0143514,-0.0960093,0.209674,-0.00091662,-0.000471737,0.171007,0.11865044618824205,0.2332759464572589,-0.000916200032214598,-0.014248909538694066,-0.00047162574959569437,-0.0915444326073569
199,0.1878,676.109,232.9,0.0668031,396.656,-1.50888,-0.906432,0.112671,-0.0144229,-0.096484,0.210711,-0.000920758,-0.000474551,0.171869,0.11926363463104117,0.23455551695637156,-0.0009203342324252128,-0.014319388222019058,-0.00047443841848349155,-0.0919755741256627
200,0.1888,675.969,232.541,-0.0415441,396.7,-1.59146,-0.896984,0.113219,-0.0144976,-0.096958,0.21175,-0.000927196,-0.000477202,0.172731,0.1198771591931953,0.2358388867336363,-0.0009267662866085935,-0.014393015813694121,-0.0004770881572350172,-0.09240587571399417
201,0.1898,675.996,232.573,-0.0521704,396.729,-1.5904,-0.908108,0.113766,-0.0145706,-0.0974317,0.212787,-0.000932559,-0.000480135,0.173592,0.12048989956848866,0.23712111638034505,-0.0009321243019934089,-0.01446496249745377,-0.0004800197536362072,-0.09283570123845553
202,0.1908,676.206,232.97,0.0657533,396.748,-1.51701,-0.910478,0.114312,-0.014642,-0.0979051,0.213822,-0.000936738,-0.00048295,0.174452,0.12110185410203789,0.23840219958199493,-0.000936299397922058,-0.01453532718708217,-0.0004828333984203681,-0.09326505118233908
203,0.1918,676.067,232.62,-0.0400238,396.789,-1.59734,-0.901519,0.114858,-0.0147164,-0.0983779,0.214858,-0.000943154,-0.000485616,0.175312,0.12171414285399584,0.23968584907638868,-0.0009427093700619116,-0.014608643031356228,-0.00048549810763454104,-0.09369365413641761
204,0.1928,676.09,232.65,-0.0508512,396.816,-1.5965,-0.912609,0.115403,-0.0147892,-0.0988504,0.215892,-0.000948527,-0.000488556,0.176171,0.12232564368069054,0.24096834718158822,-0.0009480772904635337,-0.01468037691099866,-0.0004884366759503322,-0.09412178273149241
205,0.1938,676.293,233.036,0.0647353,396.833,-1.52515,-0.91456,0.115948,-0.0148604,-0.0993226,0.216925,-0.000952746,-0.000491373,0.177029,0.12293747786616782,0.24225092982410912,-0.0009522922816339596,-0.014750529170712512,-0.0004912522960585086,-0.09454943744846156
206,0.1948,676.156,232.695,-0.0385808,396.872,-1.60334,-0.906064,0.116493,-0.0149346,-0.0997941,0.217958,-0.000959142,-0.000494052,0.177887,0.12354964559215786,0.24353483805905052,-0.0009586821703376769,-0.014823631969300699,-0.0004939299764068483,-0.09497625675814514
207,0.1958,676.175,232.723,-0.0495954,396.898,-1.6027,-0.91712,0.117037,-0.0150072,-0.100265,0.21899,-0.000964524,-0.000497,0.178744,0.12416102287890474,0.24481882843700564,-0.0009640589962411905,-0.014895153177368448,-0.000496876515958089,-0.09540233211152238
208,0.1968,676.371,233.099,0.0637477,396.914,-1.53329,-0.918676,0.11758,-0.0150782,-0.100736,0.22002,-0.000968782,-0.000499819,0.179599,0.12477160807320553,0.24610165237120962,-0.0009683128822214337,-0.014965093138594843,-0.0004996941112916931,-0.09582829729042353
209,0.1978,676.235,232.767,-0.0372124,396.95,-1.60945,-0.91062,0.118123,-0.0151522,-0.101207,0.221051,-0.000975159,-0.000502512,0.180455,0.12538252490529866,0.2473870456811953,-0.0009746836869768405,-0.015037983024743573,-0.0005023857619911309,-0.09625406188696628
210,0.1988,676.252,232.793,-0.0484003,396.975,-1.609,-0.92164,0.118666,-0.0152246,-0.101677,0.22208,-0.000980552,-0.000505468,0.18131,0.12599377355531183,0.24867126757004754,-0.0009800714159796664,-0.01510929169336761,-0.0005053402725720968,-0.09667872267477695
211,0.1998,676.442,233.159,0.0627887,396.989,-1.54145,-0.922827,0.119208,-0.0152954,-0.102147,0.223108,-0.000984847,-0.000508289,0.182163,0.12660422759868029,0.24995556164716337,-0.0009843621973585348,-0.015179019487122636,-0.0005081598430302092,-0.09710318391891382
212,0.2008,676.306,232.835,-0.0359148,397.024,-1.61567,-0.915187,0.11975,-0.0153691,-0.102616,0.224136,-0.000991207,-0.000510996,0.183017,0.12721501259782153,0.25124117665743384,-0.000990715916610041,-0.015251598118831033,-0.0005108654637794308,-0.09752654324013477
213,0.2018,676.551,233.366,0.0979569,397.03,-1.51092,-0.932627,0.120291,-0.015439,-0.103085,0.225162,-0.000994915,-0.000514042,0.183869,0.12782500090659665,0.2525256089057535,-0.0009944202361676924,-0.015320429626433318,-0.000513909903046561,-0.09794970405238812
214,0.2028,676.489,233.251,0.0308334,397.056,-1.5366,-0.949578,0.120831,-0.0155113,-0.103554,0.226189,-0.00100038,-0.000517157,0.184721,0.128434190873574,0.2538126134698233,-0.0009998797867427633,-0.015391619385830557,-0.0005170232973681355,-0.09837266644875264
215,0.2038,676.478,233.096,0.0452609,397.087,-1.58463,-0.914849,0.121372,-0.0155842,-0.104021,0.227214,-0.00100628,-0.000519509,0.185572,0.12904483893624374,0.2550984302671626,-0.001005773870064508,-0.015463394720534596,-0.0005193740785647272,-0.0987936281113223
216,0.2048,676.514,233.243,0.028454,397.103,-1.55418,-0.939595,0.121911,-0.0156554,-0.10449,0.228238,-0.00101107,-0.000522677,0.186422,0.12965355813951862,0.25638430931746803,-0.0010105590409471565,-0.015533491231365049,-0.0005225404281722357,-0.09921619480010391
217,0.2058,676.471,233.037,0.0163955,397.134,-1.61013,-0.914649,0.122451,-0.0157283,-0.104956,0.229262,-0.00101715,-0.00052515,0.187272,0.13026373579405326,0.25767150578232223,-0.0010166328782836853,-0.015605256223988562,-0.0005250121328734814,-0.09963586226321364
218,0.2068,676.584,233.354,0.0505821,397.144,-1.54398,-0.944295,0.122989,-0.0157987,-0.105424,0.230284,-0.00102145,-0.000528383,0.188121,0.13087198128727717,0.2589575030939244,-0.001020928497526774,-0.015674555174598703,-0.0005282434302857908,-0.100057134094377
219,0.2078,676.453,232.955,-0.0146174,397.18,-1.64025,-0.914002,0.123528,-0.0158723,-0.10589,0.231307,-0.00102814,-0.00053079,0.18897,0.13148168558573836,0.26024607561205504,-0.0010276116451599648,-0.015746998861377426,-0.0005306491559086135,-0.10047640977106898
220,0.2088,676.443,232.966,-0.0467823,397.199,-1.64,-0.932136,0.124066,-0.0159441,-0.106356,0.232328,-0.0010336,-0.000533848,0.189817,0.13209058651224592,0.26153344394495526,-0.0010330660195099206,-0.015817665689889737,-0.0005337055285102865,-0.10089549011081267
221,0.2098,676.637,233.367,0.0675882,397.207,-1.56363,-0.937363,0.124603,-0.0160141,-0.106822,0.233348,-0.00103781,-0.000536743,0.190664,0.1326986824163403,0.26282086453065845,-0.0010372716614490685,-0.015886556042100985,-0.000536598979244518,-0.10131437520461384
222,0.2108,676.477,232.999,-0.0413429,397.239,-1.64675,-0.92831,0.12514,-0.0160873,-0.107287,0.234368,-0.00104435,-0.000539456,0.191511,0.1333071049556287,0.26410959895530284,-0.0010438048563288227,-0.01595859050970494,-0.000539310519773295,-0.10173216687605202
223,0.2118,676.488,233.031,-0.0499587,397.257,-1.64432,-0.939473,0.125676,-0.0161589,-0.107752,0.235387,-0.00104977,-0.000542443,0.192356,0.1339147203902744,0.2653983831606723,-0.0010492191842337295,-0.016029045352310978,-0.0005422959043940301,-0.1021497643195245
224,0.2128,676.67,233.402,0.0604342,397.265,-1.57465,-0.942224,0.126212,-0.0162288,-0.108216,0.236404,-0.00105409,-0.000545316,0.193201,0.13452266159409132,0.2666859479320569,-0.0010535346422854142,-0.01609782251825098,-0.0005451673422530723,-0.10256627019204512
225,0.2138,676.527,233.074,-0.0361089,397.295,-1.6495,-0.933759,0.126748,-0.0163016,-0.10868,0.237421,-0.00106052,-0.000548046,0.194045,0.1351309287417386,0.26797482282289664,-0.0010599578474070892,-0.01616944798957287,-0.0005478958502218578,-0.10298258285066997
226,0.2148,676.762,233.603,0.0952476,397.296,-1.54416,-0.952228,0.127283,-0.0163706,-0.109144,0.238437,-0.00106427,-0.000551139,0.194888,0.1357383862690147,0.26926373990188646,-0.0010637038655413322,-0.016237329955706814,-0.0005509871507992647,-0.10339870238502957
227,0.2158,676.691,233.484,0.029637,397.317,-1.57029,-0.968345,0.127817,-0.0164421,-0.109608,0.239452,-0.0010698,-0.000554275,0.195731,0.1363450325274176,0.27055269663276826,-0.0010692279679848093,-0.016307666472054505,-0.0005541214179890508,-0.10381462888471271
228,0.2168,676.673,233.328,0.0436297,397.342,-1.61767,-0.934417,0.128352,-0.0165141,-0.11007,0.240467,-0.00107575,-0.000556673,0.196573,0.13695313977400358,0.27184296231891425,-0.0010751715883960955,-0.01637848977039924,-0.0005565180863322805,-0.10422857089820003
229,0.2178,676.7,233.467,0.0272095,397.354,-1.58836,-0.958452,0.128885,-0.0165845,-0.110533,0.241481,-0.00108062,-0.000559864,0.197415,0.13755929732414018,0.2731332651556868,-0.0010800363404648294,-0.016447734287283744,-0.0005597073053946744,-0.10464321707187774
230,0.2188,676.652,233.267,0.0158546,397.379,-1.6426,-0.93441,0.129419,-0.0166565,-0.110995,0.242494,-0.00108673,-0.000562385,0.198255,0.13816691620871446,0.27442360259886245,-0.0010861397227969194,-0.016518547501108816,-0.000562226891196671,-0.10505677636603761
231,0.2198,676.753,233.568,0.0480446,397.385,-1.57928,-0.963044,0.129951,-0.0167261,-0.111457,0.243506,-0.00109112,-0.000565637,0.199095,0.13877258210097998,0.2757139721015338,-0.0010905249450179344,-0.0165869954281872,-0.0005654770575499457,-0.10547014463993265
232,0.2208,676.622,233.186,-0.0131598,397.415,-1.67132,-0.934069,0.130484,-0.0167988,-0.111918,0.244518,-0.00109781,-0.000568099,0.199935,0.13937970967236457,0.277005648119127,-0.0010972076270524544,-0.016658486954871154,-0.0005679376623164423,-0.10588242786466873
233,0.2218,676.606,233.196,-0.044054,397.43,-1.67087,-0.951873,0.131016,-0.0168697,-0.112379,0.245529,-0.00110331,-0.000571188,0.200774,0.13998602094240797,0.2782973536765114,-0.0011027015773021898,-0.016728203396668917,-0.0005710249031888326,-0.10629452107064097
234,0.2228,676.782,233.571,0.0638081,397.434,-1.59942,-0.956413,0.131547,-0.016939,-0.11284,0.246538,-0.00110764,-0.000574107,0.201611,0.14059151426377814,0.27958780663040406,-0.0011070267932402622,-0.016796341771151635,-0.0005739422321092702,-0.10670642434542776
235,0.2238,676.628,233.228,-0.0375571,397.461,-1.67685,-0.948333,0.132078,-0.0170112,-0.1133,0.247548,-0.00111415,-0.000576869,0.202449,0.14119732918747974,0.2808808431886438,-0.0011135295653292854,-0.016867326512695735,-0.0005767026430686384,-0.10711724489425845
236,0.2248,676.632,233.257,-0.0463183,397.475,-1.67467,-0.959417,0.132609,-0.0170819,-0.11376,0.248556,-0.00111963,-0.000579891,0.203285,0.14180346588432902,0.28217262202573434,-0.0011190034481887157,-0.01693683153567982,-0.0005797228957097333,-0.1075278765090949
237,0.2258,676.796,233.598,0.0568529,397.48,-1.61075,-0.961248,0.133139,-0.0171511,-0.114219,0.249563,-0.00112408,-0.000582786,0.204121,0.1424087821158797,0.28346442016731643,-0.001123448458733245,-0.017004857153223973,-0.0005826162132238633,-0.1079374272146999
238,0.2268,676.66,233.297,-0.0320782,397.505,-1.67939,-0.95401,0.133668,-0.0172229,-0.114678,0.25057,-0.00113047,-0.000585569,0.204957,0.14301327623621685,0.2847575198048202,-0.001129831259504499,-0.017075433670753037,-0.0005853975879326345,-0.10834678997966674
239,0.2278,676.868,233.776,0.0874024,397.503,-1.58396,-0.970729,0.134197,-0.0172913,-0.115137,0.251575,-0.00113443,-0.00058867,0.205791,0.14361809021854,0.28604935014823973,-0.001133786777540835,-0.017142663411806702,-0.0005884967678093656,-0.10875596489024031
240,0.2288,676.796,233.661,0.0247683,397.52,-1.60917,-0.986231,0.134726,-0.0173619,-0.115596,0.252581,-0.00114002,-0.000591828,0.206625,0.1442232242321002,0.2873437667768868,-0.0011393704240664215,-0.017212050690370018,-0.000591652904353035,-0.109164952032626
241,0.2298,676.782,233.533,0.0431508,397.541,-1.64977,-0.955075,0.135254,-0.0174329,-0.116053,0.253585,-0.00114593,-0.000594299,0.207458,0.1448275336181335,0.28863690896748495,-0.0011452736729431479,-0.017281826157712565,-0.0005941224393276601,-0.10957197063871182
242,0.2308,676.793,233.641,0.0226888,397.55,-1.62705,-0.976787,0.135782,-0.0175026,-0.116511,0.254589,-0.00115096,-0.000597492,0.208291,0.14543216216377308,0.2899313501248144,-0.0011502978995805435,-0.017350319227418254,-0.0005973135372000504,-0.10997969330054258
243,0.2318,676.757,233.484,0.0194037,397.57,-1.67134,-0.955832,0.13631,-0.0175736,-0.116968,0.255592,-0.00115698,-0.000600091,0.209123,0.14603711003758013,0.291225800327247,-0.0011563109566878893,-0.01742008487804314,-0.0005999109814068815,-0.11038633965493494
244,0.2328,676.829,233.721,0.0396813,397.575,-1.62162,-0.980667,0.136836,-0.0176426,-0.117425,0.256593,-0.00116163,-0.000603325,0.209954,0.1466400841257427,0.2925189644740509,-0.001160955569043276,-0.017487880553208934,-0.0006031430360684542,-0.11079280021440074
245,0.2338,676.727,233.423,-0.00382391,397.599,-1.69487,-0.956649,0.137363,-0.0177141,-0.117881,0.257595,-0.0011681,-0.000605892,0.210784,0.14724452270565358,0.2938147175403283,-0.001167418036754575,-0.01755812765838538,-0.0006057084845075833,-0.11119818626245948
246,0.2348,676.884,233.859,0.0668803,397.597,-1.60339,-0.987929,0.137889,-0.0177821,-0.118337,0.258595,-0.00117215,-0.000609217,0.211614,0.14784813205994007,0.2951091793809171,-0.0011714633005198705,-0.01762493143435051,-0.0006090314650023521,-0.11160338749662113
247,0.2358,676.821,233.745,0.0181127,397.612,-1.62989,-0.997778,0.138414,-0.0178523,-0.118793,0.259594,-0.00117779,-0.000612324,0.212443,0.14845091054477866,0.2964036399265051,-0.0011770966775807024,-0.017693891743628676,-0.0006121365679178092,-0.11200840400114143
248,0.2368,676.812,233.632,0.0410483,397.631,-1.66717,-0.967206,0.13894,-0.0179228,-0.119248,0.260593,-0.00118369,-0.000614826,0.213272,0.14905515462598684,0.29769939428432957,-0.0011829897153258218,-0.017763141883164635,-0.0006146370332240636,-0.11241234827303026
249,0.2378,676.818,233.724,0.0202722,397.639,-1.64829,-0.986871,0.139464,-0.0179921,-0.119703,0.261591,-0.0011888,-0.000618011,0.2141,0.14965741730605253,0.2989951447517609,-0.0011880936572078449,-0.017831208538895194,-0.0006178200705361236,-0.11281610879208215
250,0.2388,676.787,233.59,0.0208339,397.657,-1.68711,-0.967783,0.139989,-0.0180625,-0.120157,0.262589,-0.00119478,-0.000620657,0.214927,0.15026114591503115,0.30029218902365984,-0.0011940665345487878,-0.01790035078797836,-0.0006204644322856945,-0.11321879886112818
251,0.2398,676.845,233.793,0.0355043,397.661,-1.64482,-0.99026,0.140512,-0.0181312,-0.120612,0.263585,-0.00119957,-0.000623878,0.215753,0.15086288983666396,0.3015879252134339,-0.0011988508035117862,-0.017967818716329353,-0.000623683428585653,-0.1136221925286276
252,0.2408,676.759,233.541,0.000799555,397.683,-1.70795,-0.969127,0.141036,-0.0182021,-0.121065,0.264581,-0.00120593,-0.000626504,0.216579,0.15146610001820382,0.302884952599362,-0.0012052031586201606,-0.018037442329796094,-0.0006263077873471801,-0.11402363074279176
253,0.2418,676.89,233.912,0.0587264,397.681,-1.6304,-0.996752,0.141559,-0.0182699,-0.121519,0.265575,-0.00121021,-0.000629797,0.217404,0.15206847429565618,0.30418066410417954,-0.0012094779912025233,-0.01810401713429477,-0.000629598719497082,-0.11442577272129806
254,0.2428,676.829,233.808,0.0128195,397.695,-1.65493,-1.00662,0.142081,-0.0183397,-0.121972,0.26657,-0.00121588,-0.000632918,0.218229,0.15267001102666633,0.30547896966486676,-0.0012151411174072813,-0.018172551082036192,-0.000632717749652234,-0.11482684699607337
255,0.2438,676.832,233.73,0.0414831,397.711,-1.68387,-0.97913,0.142603,-0.0184096,-0.122424,0.267563,-0.0012217,-0.00063548,0.219053,0.15327186184181874,0.3067759541279558,-0.0012209540283704134,-0.018241178422162108,-0.0006352781253494699,-0.11522685485264539
256,0.2448,676.824,233.788,0.0156073,397.719,-1.67242,-0.99635,0.143125,-0.0184786,-0.122877,0.268556,-0.00122696,-0.00063865,0.219876,0.1538740269051082,0.3080742271362733,-0.0012262075923353821,-0.018308917443827788,-0.0006384461064965485,-0.11562756631939741
257,0.2458,676.811,233.704,0.0254449,397.734,-1.70001,-0.980542,0.143646,-0.0185483,-0.123328,0.269548,-0.0012328,-0.000641361,0.220699,0.1544753519046862,0.3093724805968452,-0.0012320404142511787,-0.018377338927765607,-0.0006411553719968266,-0.11602632835938831
258,0.2468,676.841,233.84,0.0271873,397.739,-1.67253,-0.998963,0.144167,-0.0186169,-0.12378,0.270539,-0.00123785,-0.000644546,0.22152,0.15507699027621524,0.3106707118924763,-0.0012370841797115784,-0.01844467593262944,-0.0006443383248481149,-0.116425794172895
259,0.2478,676.789,233.678,0.0108794,397.756,-1.71562,-0.983076,0.144687,-0.0186869,-0.124231,0.271529,-0.00124394,-0.000647264,0.222342,0.15567778650464037,0.31196891840344176,-0.0012431666273478026,-0.018513382400559775,-0.0006470545698451513,-0.11682419629329188
260,0.2488,676.869,233.925,0.0433672,397.758,-1.66517,-1.00389,0.145207,-0.0187549,-0.124682,0.272519,-0.00124866,-0.000650485,0.223162,0.15627889522834604,0.31326841077524925,-0.001247880748476038,-0.01858012122141084,-0.0006502734804982868,-0.11722241877484407
261,0.2498,676.755,233.619,-0.00951695,397.779,-1.73872,-0.983119,0.145726,-0.0188253,-0.125132,0.273508,-0.00125521,-0.000653144,0.223982,0.15687915973013355,0.31456787571299816,-0.0012544225534326658,-0.018649210748897027,-0.0006529307478883029,-0.11761957931857103
262,0.2508,676.915,234.057,0.0684311,397.774,-1.64721,-1.0118,0.146245,-0.0188923,-0.125582,0.274495,-0.00125932,-0.000656475,0.224801,0.1574797358500557,0.31586599472267585,-0.0012585273893205295,-0.018714959049184188,-0.0006562595674317606,-0.11801656118025972
263,0.2518,676.846,233.94,0.0180032,397.787,-1.674,-1.02203,0.146764,-0.0189616,-0.126032,0.275483,-0.00126505,-0.00065963,0.22562,0.15808062374988396,0.31716671277437203,-0.001264250161562841,-0.018782959746270644,-0.0006594124919591104,-0.11841336444029904
264,0.2528,676.833,233.827,0.0395733,397.803,-1.71068,-0.992557,0.147282,-0.019031,-0.126481,0.276469,-0.00127102,-0.000662192,0.226438,0.1586806649102297,0.31846607963576035,-0.0012702125961915334,-0.018851053845971744,-0.0006619727992646096,-0.11880910798859023
265,0.2538,676.834,233.913,0.0190233,397.809,-1.69279,-1.01168,0.1478,-0.0190994,-0.12693,0.277455,-0.00127623,-0.000665414,0.227255,0.15928101697241326,0.3197667283047012,-0.001275415964829052,-0.018918162138758854,-0.0006651926612010195,-0.11920467388791345
266,0.2548,676.801,233.784,0.0198551,397.824,-1.73021,-0.993465,0.148317,-0.0191688,-0.127378,0.27844,-0.00128226,-0.000668118,0.228072,0.1598805202164233,0.3210673389776808,-0.0012814382559135362,-0.018986246855739464,-0.0006678948588666467,-0.11959918181763707
267,0.2558,676.853,233.976,0.0331837,397.826,-1.69025,-1.01505,0.148834,-0.0192365,-0.127827,0.279424,-0.00128716,-0.000671372,0.228888,0.16048033348374435,0.32236790901475265,-0.001286331964876486,-0.019052659238742775,-0.0006711466802460375,-0.11999439305343895
268,0.2568,676.769,233.737,0.0012531,397.845,-1.75005,-0.99509,0.14935,-0.0193063,-0.128274,0.280408,-0.00129354,-0.000674061,0.229703,0.16107929585482395,0.3236697594425899,-0.0012927037377525874,-0.019121126973576152,-0.0006738338719197712,-0.12038766765632203
269,0.2578,676.887,234.083,0.0543324,397.841,-1.67768,-1.02133,0.149866,-0.0193733,-0.128722,0.28139,-0.00129798,-0.00067738,0.230518,0.16167856737023945,0.324970241578584,-0.001297137988303998,-0.019186843656535446,-0.0006771506299609875,-0.12078164572353556
270,0.2588,676.826,233.981,0.0102833,397.853,-1.70166,-1.0308,0.150381,-0.019442,-0.129169,0.282373,-0.00130373,-0.000680538,0.231332,0.16227698591198325,0.3262733276879488,-0.0013028805132507815,-0.01925422320586223,-0.0006803064865361641,-0.12117456850311337
271,0.2598,676.829,233.917,0.0399134,397.867,-1.72725,-1.0052,0.150897,-0.0195109,-0.129616,0.283354,-0.00130958,-0.000683172,0.232146,0.16287687559494168,0.32757504020800865,-0.0013087228743108303,-0.01932179426203373,-0.0006829386911422208,-0.12156731568545776
272,0.2608,676.814,233.96,0.0131617,397.873,-1.71899,-1.02103,0.151411,-0.019579,-0.130062,0.284334,-0.00131497,-0.000686368,0.232958,0.1634747479490295,0.32887670145724823,-0.0013141058057875021,-0.019388576173894556,-0.0006861325033664656,-0.12195900930849124
273,0.2618,676.805,233.895,0.025764,397.885,-1.74189,-1.00707,0.151926,-0.0196477,-0.130508,0.285314,-0.00132082,-0.000689151,0.233771,0.1640740917620085,0.3301796389597742,-0.0013199481011798575,-0.019455941864673476,-0.0006889135899897925,-0.12235052827512016
274,0.2628,676.823,234.001,0.0229632,397.889,-1.72082,-1.0234,0.152439,-0.0197154,-0.130954,0.286293,-0.00132604,-0.000692354,0.234582,0.16467141497138593,0.33148252248373944,-0.0013251611974445243,-0.019522322450401086,-0.000692114378273545,-0.12274187266322378
275,0.2638,676.783,233.878,0.0138108,397.903,-1.75527,-1.01015,0.152953,-0.0197842,-0.131399,0.287271,-0.00133208,-0.000695154,0.235393,0.16527020995580877,0.3327853493692312,-0.0013311931752543193,-0.01958977699415354,-0.0006949124364360459,-0.12313216568325103
276,0.2648,676.839,234.068,0.035727,397.904,-1.71682,-1.02774,0.153466,-0.0198514,-0.131844,0.288249,-0.00133705,-0.000698377,0.236203,0.16586814693123708,0.3340894510426866,-0.0013361565468902326,-0.01965565834750127,-0.0006981331915429934,-0.12352228506152252
277,0.2658,676.751,233.837,-0.00195196,397.921,-1.77412,-1.01124,0.153979,-0.0199206,-0.132288,0.289226,-0.00134344,-0.000701143,0.237013,0.16646639072702651,0.33539349335729707,-0.0013425379884611788,-0.019723495828739668,-0.0007008972566838745,-0.1239113547870846
278,0.2668,676.868,234.17,0.0545682,397.918,-1.70503,-1.03439,0.15449,-0.0199871,-0.132732,0.290201,-0.00134797,-0.000704444,0.237821,0.16706260737306744,0.33669613694887746,-0.0013470618965174541,-0.019788682048801243,-0.0007041959375775342,-0.12430025180403248
279,0.2678,676.702,233.749,-0.0261293,397.941,-1.80302,-1.00953,0.155002,-0.020057,-0.133176,0.291177,-0.00135497,-0.000707106,0.23863,0.16766029642338265,0.33800138923804424,-0.0013540524426172151,-0.01985719642532069,-0.0007068560594672979,-0.12468897618903207
280,0.2688,676.69,233.777,-0.0442949,397.947,-1.79892,-1.02485,0.155514,-0.0201249,-0.133619,0.292152,-0.00136064,-0.000710295,0.239438,0.1682582915688453,0.33930657676807674,-0.0013597147490872485,-0.0199237458623045,-0.0007100428002221326,-0.1250766530958054
281,0.2698,676.841,234.124,0.0524864,397.944,-1.73167,-1.03085,0.156024,-0.0201913,-0.134062,0.293125,-0.00136526,-0.000713362,0.240244,0.1688542552553678,0.3406103562531311,-0.0013643284565474367,-0.01998882076506847,-0.0007131076178209517,-0.125464158299744
282,0.2708,676.698,233.818,-0.0323568,397.963,-1.80123,-1.02252,0.156535,-0.0202604,-0.134505,0.294099,-0.00137188,-0.00071626,0.241051,0.16945169241199665,0.34191674684906337,-0.0013709394028107447,-0.020056537197923996,-0.0007160035470388237,-0.12585149187689537
283,0.2718,676.889,234.286,0.0791119,397.954,-1.70643,-1.04122,0.157045,-0.0203261,-0.134947,0.29507,-0.00137606,-0.000719507,0.241856,0.17004826488817737,0.34322038082212125,-0.0013751136635599126,-0.020120917368518287,-0.0007192482169076087,-0.12623778014149045
284,0.2728,676.811,234.166,0.0207212,397.965,-1.73265,-1.05457,0.157555,-0.020394,-0.135389,0.296042,-0.00138189,-0.000722759,0.242662,0.17064514169391853,0.344526625764479,-0.0013809356296761166,-0.020187448899457894,-0.0007224978726284581,-0.1266238977044004
285,0.2738,676.789,234.045,0.0379747,397.979,-1.77051,-1.02621,0.158064,-0.0204623,-0.135831,0.297013,-0.00138797,-0.000725397,0.243466,0.17124115174273036,0.3458327951607123,-0.001387007215129854,-0.020254367811391227,-0.0007251339632020626,-0.1270098446410587
286,0.2748,676.79,234.134,0.0185291,397.982,-1.75161,-1.04567,0.158573,-0.0205293,-0.136272,0.297983,-0.00139327,-0.000728683,0.24427,0.17183746523787735,0.34713888632382384,-0.0013922998499661388,-0.020320008569757908,-0.0007284175750168487,-0.12739474842205023
287,0.2758,676.751,233.997,0.0172622,397.996,-1.79038,-1.02761,0.159081,-0.0205975,-0.136713,0.298952,-0.00139943,-0.000731454,0.245073,0.1724329099003572,0.3484448965644422,-0.001398451254452704,-0.02038682046686191,-0.0007311865527354078,-0.12777948249789706
288,0.2768,676.803,234.194,0.0321973,397.996,-1.74925,-1.0493,0.159589,-0.0206639,-0.137154,0.299921,-0.00140442,-0.000734769,0.245876,0.17302865712557014,0.3497521729423281,-0.0014034342637483377,-0.020451864622493043,-0.0007344991233613207,-0.12816404694342276
289,0.2778,676.714,233.948,-0.00101715,398.012,-1.81034,-1.02932,0.160097,-0.0207325,-0.137594,0.300889,-0.00141093,-0.000737523,0.246678,0.17362470706725674,0.3510593656249221,-0.0014099351062309973,-0.02051905931977538,-0.00073725109676126,-0.12854757038142373
290,0.2788,676.831,234.296,0.0525636,398.007,-1.7372,-1.05572,0.160604,-0.0207982,-0.138034,0.301856,-0.00141546,-0.000740903,0.247479,0.17421988565876378,0.35236647191551773,-0.0014144587089790495,-0.02058340910366463,-0.0007406285991445882,-0.1289309251062316
291,0.2798,676.768,234.192,0.00953659,398.017,-1.76164,-1.06455,0.16111,-0.0208657,-0.138473,0.302822,-0.00142133,-0.000744114,0.24828,0.17481419126754583,0.3536734891150579,-0.0014203203889023852,-0.020649517492366876,-0.0007438372158347084,-0.1293132405057399
292,0.2808,676.767,234.126,0.0372421,398.028,-1.78716,-1.03998,0.161617,-0.0209333,-0.138912,0.303788,-0.00142728,-0.000746825,0.24908,0.17540997308044592,0.3549817695032349,-0.0014262619203200266,-0.020715719347336514,-0.0007465461956199793,-0.1296953881056223
293,0.2818,676.751,234.167,0.0121016,398.033,-1.77935,-1.05516,0.162122,-0.0210001,-0.139351,0.304753,-0.00143278,-0.000750075,0.24988,0.1760037050215486,0.3562899580102419,-0.0014317540607760026,-0.020781133352431924,-0.0007497937640675856,-0.13007736797952696
294,0.2828,676.739,234.103,0.0235132,398.043,-1.80178,-1.04203,0.162628,-0.0210675,-0.139789,0.305717,-0.00143874,-0.000752933,0.250678,0.17659891347132772,0.3575980519297324,-0.0014377055097865021,-0.02084713047991582,-0.0007526496170759955,-0.13045831065981484
295,0.2838,676.755,234.204,0.0213031,398.046,-1.78173,-1.05763,0.163133,-0.021134,-0.140228,0.306681,-0.00144408,-0.000756188,0.251477,0.17719324597895802,0.35890740745976,-0.0014430378182017645,-0.020912241980757473,-0.0007559021619080175,-0.13083995568422302
296,0.2848,676.714,234.086,0.0123626,398.057,-1.81484,-1.04527,0.163638,-0.0212016,-0.140665,0.307644,-0.0014502,-0.000759065,0.252274,0.17778787870030244,0.3602166655997576,-0.0014491489681102143,-0.020978426076151968,-0.0007587769830420532,-0.13121969564436453
297,0.2858,676.765,234.265,0.0329446,398.057,-1.77873,-1.06198,0.164142,-0.0212676,-0.141103,0.308605,-0.00145532,-0.000762338,0.253071,0.1783816334047843,0.36152446211097455,-0.0014542615353793087,-0.021043039367768857,-0.0007620474942127142,-0.13160013809469362
298,0.2868,676.681,234.047,-0.00185561,398.072,-1.8327,-1.04665,0.164646,-0.0213355,-0.141539,0.309567,-0.00146177,-0.000765185,0.253868,0.1789756874370616,0.3628348788529183,-0.001460702134621461,-0.021109508288750467,-0.0007648923206139413,-0.13197867790680873
299,0.2878,676.787,234.356,0.0496572,398.068,-1.76888,-1.06844,0.165149,-0.0214008,-0.141976,0.310527,-0.00146648,-0.000768529,0.254663,0.1795688613785822,0.36414382853193583,-0.0014654052436385845,-0.02117342775086606,-0.0007682337572271214,-0.13235792035405336
300,0.2888,676.634,233.969,-0.0230798,398.088,-1.85929,-1.04553,0.165652,-0.0214693,-0.142412,0.311488,-0.00147348,-0.000771284,0.255459,0.18016233376164714,0.36545540086072026,-0.0014723949613377751,-0.021240475074667975,-0.0007709866369510765,-0.13273612984511862
301,0.2898,676.62,233.996,-0.0404741,398.093,-1.85539,-1.06047,0.166155,-0.021536,-0.142848,0.312447,-0.00147924,-0.000774534,0.256253,0.18075610473641035,0.36676550068260405,-0.001478146463778529,-0.021305756157832256,-0.0007742341259673324,-0.13311417447278862
302,0.2908,676.755,234.308,0.0475323,398.09,-1.7954,-1.06529,0.166657,-0.0216013,-0.143284,0.313405,-0.00148407,-0.000777649,0.257047,0.18134899310351726,0.36807548941667334,-0.0014829693126838794,-0.02136966280538033,-0.0007773467093801223,-0.13349205430892808
303,0.2918,676.626,234.037,-0.0280384,398.105,-1.85729,-1.0585,0.167159,-0.0216691,-0.143719,0.314363,-0.00149069,-0.000780633,0.25784,0.1819421791753022,0.36938673372127195,-0.0014895794735473311,-0.021436011692989476,-0.0007803283853289322,-0.1338689032947068
304,0.2928,676.791,234.448,0.0695495,398.097,-1.77453,-1.075,0.16766,-0.0217337,-0.144154,0.31532,-0.00149515,-0.000783913,0.258633,0.18253448056617838,0.3706978641012637,-0.0014940328200919728,-0.02149922488482603,-0.0007836058204767626,-0.1342455883868262
305,0.2938,676.717,234.336,0.0152202,398.106,-1.7993,-1.08766,0.168161,-0.0218004,-0.144589,0.316276,-0.00150109,-0.000787213,0.259425,0.18312707877439793,0.37200887782405534,-0.0014999639279216215,-0.021564488709953422,-0.0007869032291368816,-0.13462210965656451
306,0.2948,676.704,234.245,0.0363109,398.118,-1.8299,-1.06257,0.168662,-0.0218673,-0.145023,0.317232,-0.00150719,-0.00078996,0.260216,0.18371997394870365,0.3733211454752483,-0.0015060547595645568,-0.021629943856159684,-0.0007896480637437087,-0.13499760217320367
307,0.2958,676.694,234.305,0.0138078,398.121,-1.81762,-1.07948,0.169162,-0.0219332,-0.145457,0.318187,-0.0015127,-0.000793275,0.261007,0.1843119819253387,0.3746332936201904,-0.0015115564460457254,-0.02169441631846858,-0.0007929604405700896,-0.1353729317614485
308,0.2968,676.67,234.211,0.0193997,398.131,-1.84661,-1.06477,0.169662,-0.022,-0.14589,0.319141,-0.00151882,-0.000796156,0.261797,0.1849042859799752,0.37594531951915,-0.0015176671766213845,-0.02175976494878995,-0.0007958391519042873,-0.13574723423966106
309,0.2978,676.699,234.348,0.0242548,398.132,-1.8185,-1.08255,0.170161,-0.0220655,-0.146324,0.320094,-0.00152412,-0.000799483,0.262587,0.18549570076439603,0.37725722043014565,-0.0015229591189617198,-0.02182383758578399,-0.0007991634986173057,-0.13612223855817784
310,0.2988,676.639,234.181,0.00590985,398.145,-1.86221,-1.06755,0.17066,-0.0221325,-0.146756,0.321047,-0.00153048,-0.00080237,0.263376,0.18608741073843804,0.3785703721786393,-0.0015293094127477591,-0.02188937319319839,-0.0008020481872682561,-0.13649535315256556
311,0.2998,676.713,234.421,0.0385197,398.142,-1.81265,-1.08773,0.171159,-0.0221974,-0.147189,0.321999,-0.00153547,-0.000805731,0.264164,0.18667941604943739,0.37988339607316046,-0.0015342917690628344,-0.021952850513016875,-0.0008054064859406296,-0.1368691697275215
312,0.3008,676.598,234.124,-0.0117008,398.159,-1.88405,-1.06803,0.171657,-0.0222649,-0.147621,0.322951,-0.00154225,-0.000808566,0.264952,0.18727052957368095,0.3811976705616176,-0.0015410613436157572,-0.022018866467543696,-0.0008082391985979598,-0.13724196171733183
313,0.3018,676.742,234.533,0.0594921,398.149,-1.79803,-1.09555,0.172155,-0.022329,-0.148053,0.323901,-0.00154671,-0.000812026,0.265739,0.18786193754577107,0.38251043181151423,-0.0015455144605516224,-0.022081553049076774,-0.0008116963961093404,-0.13761459269578336
314,0.3028,676.672,234.416,0.0129811,398.158,-1.82503,-1.1042,0.172652,-0.0223952,-0.148485,0.324851,-0.00155272,-0.000815308,0.266526,0.18845245165933333,0.3838244407771694,-0.0015515151539776673,-0.022146289107477735,-0.0008149757267403857,-0.13798706273241823
315,0.3038,676.658,234.321,0.0340411,398.17,-1.85669,-1.07867,0.173149,-0.0224616,-0.148916,0.3258,-0.00155888,-0.00081808,0.267312,0.18904325933135335,0.38513831350547023,-0.001557665577700984,-0.022211216438269732,-0.000817745463788766,-0.13835851025568924
316,0.3048,676.65,234.382,0.0136022,398.172,-1.84441,-1.09493,0.173646,-0.022527,-0.149347,0.326749,-0.00156444,-0.000821415,0.268097,0.18963436070776574,0.3864534336908152,-0.0015632169016476238,-0.022275161733680715,-0.0008210777310511119,-0.13872979771957306
317,0.3058,676.624,234.285,0.0179425,398.182,-1.87382,-1.08049,0.174142,-0.0225933,-0.149777,0.327697,-0.00157062,-0.00082433,0.268882,0.19022456570941726,0.38776841474849366,-0.0015693872219009197,-0.022339982741617637,-0.0008239903333644438,-0.13910006429353505
318,0.3068,676.654,234.424,0.0239948,398.182,-1.84546,-1.098,0.174638,-0.0226583,-0.150207,0.328644,-0.00157596,-0.00082768,0.269666,0.1908150635253616,0.3890832539153428,-0.0015747188271377777,-0.022403528577477405,-0.0008273375673901739,-0.1394701716870964
319,0.3078,676.592,234.255,0.00475355,398.195,-1.8895,-1.08322,0.175133,-0.0227247,-0.150637,0.32959,-0.00158237,-0.0008306,0.27045,0.19140466289561187,0.39039794842600517,-0.0015811187126784088,-0.02246843882813565,-0.000830255147304837,-0.13984011996869017
320,0.3088,676.667,234.495,0.037939,398.191,-1.83982,-1.10327,0.175628,-0.0227892,-0.151066,0.330536,-0.00158741,-0.000833986,0.271233,0.1919945541897956,0.39171388722613076,-0.0015861507311594192,-0.022531487580487175,-0.0008336383303331196,-0.14020904941619894
321,0.3098,676.551,234.198,-0.012417,398.208,-1.91122,-1.08373,0.176123,-0.0228561,-0.151495,0.331481,-0.00159424,-0.000836854,0.272016,0.19258473755245098,0.3930296784629994,-0.0015929698744625576,-0.022596878036632906,-0.0008365039353491754,-0.14057782062691893
322,0.3108,676.694,234.605,0.0583144,398.198,-1.82564,-1.11112,0.176617,-0.0229197,-0.151924,0.332425,-0.00159876,-0.000840339,0.272797,0.1931740199535712,0.39434531936427253,-0.0015974826640398065,-0.022659038898453332,-0.0008399860140654303,-0.14094643366871917
323,0.3118,676.625,234.487,0.0122959,398.207,-1.85274,-1.11953,0.177111,-0.0229854,-0.152353,0.333369,-0.00160482,-0.000843646,0.273578,0.19376359353211248,0.3956622028169485,-0.0016035329649624064,-0.022723248090302683,-0.0008432902307681234,-0.14131488860943964
324,0.3128,676.611,234.394,0.033035,398.218,-1.88388,-1.09455,0.177604,-0.0230513,-0.152781,0.334312,-0.00161103,-0.000846455,0.274359,0.19435226407909068,0.39697893301491827,-0.0016097329877715616,-0.02278764850623649,-0.0008460968580239481,-0.14168232719964746
325,0.3138,676.602,234.452,0.0128104,398.22,-1.87225,-1.11044,0.178097,-0.0231162,-0.153209,0.335254,-0.00161664,-0.000849813,0.275139,0.194941224912198,0.3982955071788927,-0.001615333941458852,-0.022851067529878866,-0.0008494520111974602,-0.1420496085597882
326,0.3148,676.577,234.359,0.0173588,398.23,-1.90077,-1.0965,0.17859,-0.023182,-0.153636,0.336195,-0.00162286,-0.000852764,0.275918,0.1955304761745813,0.3996119225274313,-0.0016215438747687605,-0.022915361814330293,-0.0008524005001140367,-0.14241587517344612
327,0.3158,676.604,234.492,0.0227457,398.23,-1.87374,-1.1135,0.179082,-0.0232465,-0.154063,0.337136,-0.00162827,-0.000856136,0.276697,0.19611882189003693,0.4009295772058259,-0.0016269450876061908,-0.0229783817410788,-0.000855769620139224,-0.1427819854246457
328,0.3168,676.546,234.33,0.00480216,398.241,-1.916,-1.09937,0.179574,-0.0233124,-0.15449,0.338077,-0.00163471,-0.000859095,0.277476,0.19670745714280513,0.40224847238083505,-0.0016333745893767349,-0.023042765344258975,-0.0008587260835427601,-0.14314793938013948
329,0.3178,676.616,234.559,0.0358567,398.238,-1.86892,-1.11867,0.180066,-0.0233764,-0.154916,0.339016,-0.00163983,-0.0008625,0.278253,0.19729638207537303,0.40356580208590387,-0.001638486213413115,-0.023105288606511287,-0.0008621281537884995,-0.14351288061996048
330,0.3188,676.506,234.278,-0.0112539,398.254,-1.9368,-1.10014,0.180557,-0.0234428,-0.155342,0.339955,-0.00164667,-0.00086541,0.27903,0.1978843989453003,0.40488436934450656,-0.001645314982812951,-0.023170152261850596,-0.0008650356407651216,-0.14387766642792266
331,0.3198,676.64,234.661,0.0547445,398.245,-1.85623,-1.12627,0.181048,-0.023506,-0.155768,0.340892,-0.0016513,-0.000868908,0.279806,0.19847270460240218,0.4062013629137129,-0.0016499373543038542,-0.023231885957422316,-0.0008685306087578004,-0.14424229687022583
332,0.3208,676.572,234.548,0.0102254,398.253,-1.88259,-1.13455,0.181538,-0.0235712,-0.156194,0.34183,-0.00165742,-0.000872239,0.280582,0.19906010012780828,0.40752099860450874,-0.001656047237990954,-0.02329556916236286,-0.0008718587101393949,-0.14460677201304173
333,0.3218,676.562,234.466,0.0322402,398.263,-1.91094,-1.11089,0.182028,-0.0236365,-0.156619,0.342767,-0.00166363,-0.000875094,0.281358,0.19964778354755008,0.40884046385313266,-0.001662246934687528,-0.023359345879364057,-0.0008747112169107396,-0.14497023689317823
334,0.3228,676.55,234.514,0.0110457,398.265,-1.9017,-1.12583,0.182517,-0.023701,-0.157044,0.343703,-0.00166934,-0.000878469,0.282132,0.20023455476757568,0.4101597558596395,-0.0016679474269826189,-0.023422337170063923,-0.0008780832590701282,-0.14533354733356152
335,0.3238,676.53,234.436,0.0178796,398.274,-1.92671,-1.11314,0.183007,-0.0237662,-0.157468,0.344638,-0.00167555,-0.000881466,0.282907,0.20082281381110745,0.4114788718219802,-0.0016741470497791955,-0.023486007957990163,-0.0008810776229675188,-0.14569584909609068
336,0.3248,676.55,234.548,0.0199331,398.274,-1.90427,-1.12872,0.183495,-0.0238303,-0.157892,0.345573,-0.00168108,-0.000884849,0.28368,0.201408958351883,0.41279922173452777,-0.0016796677764812085,-0.023548600498767724,-0.0008844576365646395,-0.1460579972752345
337,0.3258,676.502,234.414,0.00686321,398.284,-1.94053,-1.11638,0.183984,-0.0238956,-0.158316,0.346507,-0.00168748,-0.000887861,0.284453,0.2019965909969892,0.414119392631465,-0.0016860570061618674,-0.023612360693362144,-0.0008874669680462022,-0.14641999193609856
338,0.3268,676.558,234.606,0.0311358,398.282,-1.90147,-1.1335,0.184472,-0.0239593,-0.158739,0.34744,-0.00169278,-0.000891266,0.285225,0.20258330848081818,0.41543938170393946,-0.001691348056038433,-0.023674554605088827,-0.0008908689404293346,-0.14678097992516725
339,0.3278,676.467,234.373,-0.00669471,398.296,-1.95885,-1.11779,0.18496,-0.0240249,-0.159162,0.348373,-0.00169951,-0.000894244,0.285997,0.20317031235265226,0.4167606029009152,-0.00169806665065797,-0.023738599453612674,-0.0008938442829913296,-0.1471418152486077
340,0.3288,676.576,234.692,0.0467883,398.289,-1.89225,-1.14034,0.185447,-0.024088,-0.159585,0.349304,-0.0017044,-0.000897724,0.286768,0.20375639899528197,0.4180802212092225,-0.0017029483351762575,-0.023800199604481986,-0.0008973211663634295,-0.1475024979709837
341,0.3298,676.419,234.295,-0.0262847,398.308,-1.98515,-1.11683,0.185934,-0.0241542,-0.160007,0.350236,-0.00171167,-0.00090061,0.287539,0.2043427711316188,0.4194024880560272,-0.0017102059283605753,-0.023864821892246812,-0.0009002045725338137,-0.14786217601943397
342,0.3308,676.411,234.333,-0.0392312,398.311,-1.97891,-1.13144,0.18642,-0.0242185,-0.16043,0.351167,-0.00171762,-0.000903986,0.288309,0.20492822397190547,0.42072456710471084,-0.0017161457349642584,-0.023927585366331883,-0.0009035775277496105,-0.1482225540936415
343,0.3318,676.532,234.621,0.0396364,398.306,-1.92333,-1.13701,0.186906,-0.0242817,-0.160851,0.352096,-0.00172274,-0.000907239,0.289078,0.20551396141142453,0.4220450334892185,-0.001721256935213411,-0.023989271193644024,-0.0009068275831256578,-0.1485810769240169
344,0.3328,676.418,234.382,-0.0251251,398.319,-1.97878,-1.13077,0.187392,-0.024347,-0.161273,0.353026,-0.00172949,-0.000910366,0.289848,0.20609998358852488,0.42336815052442134,-0.0017279952939871501,-0.024053002613381613,-0.0009099517425912307,-0.14894029990817437
345,0.3338,676.56,234.741,0.0576743,398.311,-1.90642,-1.14631,0.187877,-0.0244096,-0.161694,0.353954,-0.00173433,-0.00091376,0.290616,0.2066850839559351,0.42468964924867825,-0.0017328269187973921,-0.024114094983206824,-0.0009133426484605467,-0.1492985206311599
346,0.3348,676.491,234.637,0.00906389,398.319,-1.93002,-1.15753,0.188362,-0.0244741,-0.162115,0.354882,-0.0017405,-0.000917169,0.291383,0.20727046816584993,0.42601237489295407,-0.0017389862082538565,-0.024177037594159456,-0.0009167485290701993,-0.14965659057496228
347,0.3358,676.485,234.572,0.0317702,398.327,-1.95427,-1.13619,0.188847,-0.0245386,-0.162535,0.355809,-0.00174674,-0.000920099,0.292151,0.20785613635596611,0.42733490126074414,-0.0017452153375450141,-0.024239976145444486,-0.0009196758387084447,-0.150013659817131
348,0.3368,676.468,234.607,0.00856751,398.33,-1.94789,-1.15032,0.189331,-0.0246024,-0.162956,0.356736,-0.00175257,-0.000923509,0.292917,0.20844088022256324,0.4286586541788955,-0.0017510351459748552,-0.024302227649122377,-0.0009230826968051886,-0.1503714287507032
349,0.3378,676.455,234.549,0.0184386,398.337,-1.96843,-1.13919,0.189815,-0.0246667,-0.163375,0.357662,-0.0017588,-0.000926574,0.293683,0.20902590717369263,0.42998220480202765,-0.0017572542176534922,-0.024364962998921436,-0.0009261448628639091,-0.15072734855165115
350,0.3388,676.466,234.635,0.0161062,398.338,-1.95174,-1.15308,0.190299,-0.0247302,-0.163795,0.358587,-0.0017645,-0.00092998,0.294449,0.20961121734640042,0.4313055502944023,-0.0017629441850880445,-0.024426913856810395,-0.0009295477026194376,-0.15108396816989733
351,0.3398,676.43,234.534,0.0092092,398.347,-1.98051,-1.14294,0.190782,-0.0247946,-0.164214,0.359511,-0.00177087,-0.000933068,0.295214,0.21019560068159326,0.4326286878182719,-0.0017693029348808675,-0.02448973874057503,-0.0009326328274127382,-0.1514395894793671
352,0.3408,676.47,234.681,0.025027,398.346,-1.95143,-1.15739,0.191264,-0.0248578,-0.164633,0.360435,-0.00177639,-0.000936485,0.295978,0.21077905556245224,0.4339530484862191,-0.001774813153120447,-0.024551389040916693,-0.0009360466347738683,-0.15179506181472036
353,0.3418,676.401,234.506,-0.00136965,398.357,-1.99583,-1.14519,0.191747,-0.0249224,-0.165052,0.361358,-0.00178301,-0.000939556,0.296742,0.21136400309974746,0.43527719815103527,-0.0017814213819841163,-0.02461440098587686,-0.0009391147554635992,-0.15215038523836433
354,0.3428,676.48,234.747,0.0368219,398.352,-1.94645,-1.16331,0.192229,-0.024985,-0.16547,0.362281,-0.00178824,-0.000943025,0.297505,0.21194802128631762,0.43660257057020657,-0.001786642051498255,-0.024675458213264,-0.0009425804916631808,-0.15250471231781593
355,0.3438,676.363,234.453,-0.0159462,398.368,-2.01691,-1.14562,0.192711,-0.0250501,-0.165888,0.363203,-0.00179526,-0.000946035,0.298268,0.2125323210375054,0.4379277289444081,-0.001793649484674975,-0.02473894977426161,-0.0009455876499701033,-0.1528588913194988
356,0.3448,676.503,234.847,0.0542866,398.358,-1.93407,-1.17145,0.193192,-0.0251119,-0.166306,0.364123,-0.0018,-0.000949606,0.299029,0.2131156893727617,0.4392512311727108,-0.0017983809715627075,-0.02479921904482585,-0.0009491552669066428,-0.15321292230529637
357,0.3458,676.434,234.73,0.00954791,398.365,-1.9613,-1.17932,0.193672,-0.0251758,-0.166723,0.365044,-0.00180628,-0.000953015,0.299791,0.21369812467695093,0.44057739216001357,-0.0018046496580466087,-0.024861532383796514,-0.0009525610254311756,-0.1535659589034486
358,0.3468,676.421,234.645,0.0293857,398.375,-1.99004,-1.15654,0.194153,-0.0252398,-0.16714,0.365964,-0.00181265,-0.000955967,0.300552,0.21428205389864008,0.4419033332001563,-0.0018110081421764956,-0.02492393924868297,-0.0009555102091181045,-0.15391884831602975
359,0.3478,676.41,234.692,0.00958781,398.376,-1.98109,-1.17102,0.194633,-0.025303,-0.167557,0.366883,-0.0018185,-0.000959418,0.301312,0.2148650491921884,0.44322905143759317,-0.001816847530698551,-0.024985562108419623,-0.0009589579057033282,-0.15427159060440332
360,0.3488,676.389,234.614,0.015265,398.384,-2.00596,-1.159,0.195113,-0.0253668,-0.167973,0.367802,-0.00182486,-0.00096251,0.302072,0.21544832439064932,0.4445559885700867,-0.0018231959553602906,-0.025047766045230402,-0.0009620469358297967,-0.15462334045367054
361,0.3498,676.409,234.723,0.0178666,398.384,-1.98424,-1.17405,0.195592,-0.0254296,-0.168389,0.36872,-0.00183054,-0.000965968,0.302831,0.21603066359713807,0.4458826998348937,-0.001828865583505479,-0.025108991123035218,-0.0009655016030983843,-0.15497494400543244
362,0.3508,676.362,234.593,0.00495805,398.393,-2.01956,-1.1624,0.196071,-0.0254936,-0.168804,0.369637,-0.00183708,-0.000969076,0.30359,0.21661328181092365,0.44720918236993246,-0.001835393601377966,-0.025171382151069177,-0.0009686065974942037,-0.15532555664651515
363,0.3518,676.416,234.776,0.0280655,398.391,-1.9824,-1.17888,0.19655,-0.025556,-0.16922,0.370553,-0.00184255,-0.000972555,0.304348,0.21719617916568246,0.4485354333111813,-0.0018408535468419363,-0.025232209558988083,-0.0009720822216660041,-0.1556768681370938
364,0.3528,676.329,234.555,-0.00726782,398.403,-2.03708,-1.16412,0.197028,-0.0256203,-0.169635,0.37147,-0.00184938,-0.000975633,0.305105,0.21777813801640833,0.4498643495184862,-0.0018476709505307332,-0.0252948851128727,-0.0009751572248645202,-0.15602718954009798
365,0.3538,676.43,234.854,0.0419143,398.396,-1.97494,-1.18559,0.197506,-0.0256821,-0.17005,0.372384,-0.00185449,-0.00097918,0.305862,0.21836037510995943,0.45119013132393504,-0.0018527714959003516,-0.02535512002769469,-0.000978700759697415,-0.1563773655898827
366,0.3548,676.285,234.486,-0.0244239,398.414,-2.06148,-1.16373,0.197984,-0.0257469,-0.170464,0.3733,-0.00186181,-0.000982177,0.306619,0.218942890579368,0.4525200304850552,-0.0018600779068714823,-0.025418274969674748,-0.0009816948220445765,-0.15672655307373184
367,0.3558,676.278,234.523,-0.0366021,398.416,-2.05542,-1.17795,0.198461,-0.0258099,-0.170878,0.374214,-0.0018679,-0.000985635,0.307375,0.21952446503265444,0.45384824069251817,-0.0018661565604874975,-0.025479671684334848,-0.0009851494213709566,-0.15707559602388332
368,0.3568,676.387,234.781,0.034797,398.412,-2.006,-1.18266,0.198938,-0.0258718,-0.171292,0.375126,-0.00187325,-0.00098896,0.30813,0.22010631696312788,0.4551747550866503,-0.0018714965622653734,-0.025539992625705166,-0.00098847114022671,-0.1574244945001615
369,0.3578,676.286,234.572,-0.0224371,398.423,-2.05518,-1.17768,0.199414,-0.0259357,-0.171705,0.376039,-0.00188006,-0.00099219,0.308885,0.22068722581534095,0.45650393631694564,-0.0018782937942292133,-0.02560225863075627,-0.000991697942253622,-0.15777240633519374
370,0.3588,676.409,234.885,0.0494717,398.416,-1.99256,-1.19146,0.19989,-0.0259973,-0.172119,0.376951,-0.00188519,-0.000995646,0.309639,0.22126841124598795,0.45783287381025217,-0.0018834141454483477,-0.025662279682957312,-0.000995150508979581,-0.15812101639171006
371,0.3598,676.251,234.515,-0.0322579,398.434,-2.0777,-1.17579,0.200366,-0.0260618,-0.172531,0.377863,-0.00189253,-0.000998747,0.310392,0.22184987338675177,0.4591630238473887,-0.001890740294301474,-0.025725122439217096,-0.000998248418214498,-0.15846779909081532
372,0.3608,676.25,234.557,-0.0378413,398.436,-2.07137,-1.18787,0.200842,-0.0261245,-0.172944,0.378773,-0.00189864,-0.0010022,0.311146,0.2224316123693777,0.46049146654884554,-0.0018968387232475292,-0.025786207559001628,-0.0010016979653070246,-0.1588152801300171
373,0.3618,676.357,234.811,0.0327115,398.431,-2.02293,-1.19236,0.201316,-0.0261862,-0.173356,0.379683,-0.00190403,-0.00100554,0.311898,0.22301118230086336,0.46182111868336895,-0.0019022184847884427,-0.025846314695671002,-0.001005034614063649,-0.15916177685137767
374,0.3628,676.26,234.607,-0.0218332,398.442,-2.07091,-1.18719,0.201791,-0.0262499,-0.173768,0.380593,-0.00191085,-0.00100878,0.31265,0.22359225060525323,0.4631519813520446,-0.001909025488446403,-0.025908366309060016,-0.0010082713525080278,-0.15950813084549276
375,0.3638,676.379,234.912,0.0475781,398.435,-2.01007,-1.20082,0.202265,-0.0263112,-0.17418,0.381501,-0.00191604,-0.00101225,0.313401,0.224172370809667,0.464481126691777,-0.0019142055671618197,-0.02596807629607545,-0.0010117378477920713,-0.15985434217115402
376,0.3648,676.226,234.553,-0.031023,398.452,-2.09282,-1.18548,0.20274,-0.0263754,-0.174591,0.38241,-0.00192337,-0.00101538,0.314152,0.2247539908096159,0.46581294525577266,-0.0019215215092220905,-0.02603060713831573,-0.0010148646761590774,-0.1601995710871198
377,0.3658,676.405,235.026,0.0646872,398.439,-1.99414,-1.21127,0.203213,-0.0264358,-0.175002,0.383316,-0.001928,-0.00101901,0.314902,0.2253334364753654,0.46714157356191466,-0.0019261426018796213,-0.026089433113082205,-0.0010184909856185698,-0.16054465814315522
378,0.3668,676.327,234.891,0.0134826,398.447,-2.02474,-1.2196,0.203686,-0.0264987,-0.175413,0.384223,-0.00193443,-0.0010225,0.315652,0.22591315628374464,0.46847287462290055,-0.0019325601961500682,-0.026150690161185097,-0.0010219774250012081,-0.16088960339755298
379,0.3678,676.303,234.776,0.0270911,398.457,-2.06016,-1.19541,0.204159,-0.0265618,-0.175823,0.38513,-0.00194102,-0.00102551,0.316401,0.2264931503644536,0.4698053837217109,-0.001939137438906391,-0.026212138113932637,-0.0010249843443237427,-0.16123356814256884
380,0.3688,676.299,234.842,0.0106632,398.457,-2.0468,-1.21133,0.204631,-0.0266238,-0.176233,0.386035,-0.00194693,-0.00102905,0.31715,0.22707219177444826,0.4711361596792716,-0.001945035961173902,-0.026272511089787898,-0.0010285207096197846,-0.16157739189094555
381,0.3698,676.267,234.733,0.0104831,398.466,-2.07853,-1.19769,0.205104,-0.0266867,-0.176643,0.38694,-0.00195353,-0.0010322,0.317898,0.22765273420861964,0.4724681405342077,-0.001951623102198985,-0.026333756622648252,-0.0010316674648234159,-0.1619210747004799
382,0.3708,676.301,234.878,0.0198013,398.464,-2.04896,-1.21487,0.205575,-0.0267483,-0.177053,0.387844,-0.00195922,-0.00103576,0.318646,0.2282310948396684,0.4737998535768544,-0.001957301981307169,-0.026393732615960674,-0.0010352237857569335,-0.16226461662894487
383,0.3718,676.236,234.701,-0.00149516,398.475,-2.09433,-1.2007,0.206047,-0.0268114,-0.177462,0.388748,-0.00196603,-0.00103891,0.319393,0.22881095675307894,0.47513277103240426,-0.0019640986289380935,-0.026455165233213118,-0.0010383705198458992,-0.16260718034168908
384,0.3728,676.311,234.939,0.0317291,398.469,-2.04508,-1.22045,0.206518,-0.0268725,-0.177871,0.389651,-0.00197145,-0.0010425,0.320139,0.22938986303543718,0.4764654175239833,-0.0019695079688641925,-0.026514647005430714,-0.0010419567856583267,-0.16294960397452296
385,0.3738,676.199,234.65,-0.0158876,398.484,-2.11486,-1.20176,0.206989,-0.026936,-0.178279,0.390553,-0.00197864,-0.0010456,0.320885,0.22996904204687674,0.47779779014030455,-0.0019766837823047556,-0.026576461362719295,-0.0010450535507923187,-0.16329105087619689
386,0.3748,676.332,235.031,0.0481566,398.473,-2.03443,-1.22824,0.207459,-0.0269964,-0.178687,0.391455,-0.0019836,-0.00104929,0.32163,0.23054726336800524,0.47913136509890064,-0.0019816339656767434,-0.026635254368886363,-0.0010487396877438826,-0.16363235849595037
387,0.3758,676.266,234.915,0.00650084,398.48,-2.06172,-1.235,0.207929,-0.0270588,-0.179095,0.392356,-0.00199007,-0.00105278,0.322375,0.23112575651702905,0.4804646630193701,-0.001988091123616087,-0.026695990434028816,-0.0010522260215586332,-0.16397352689059885
388,0.3768,676.256,234.838,0.0257616,398.489,-2.0885,-1.21398,0.208398,-0.0271212,-0.179503,0.393256,-0.00199659,-0.00105586,0.32312,0.23170328991783173,0.48179768098419307,-0.0019945981400489865,-0.026756722709359027,-0.0010553027759643285,-0.16431455611693446
389,0.3778,676.243,234.876,0.00676523,398.49,-2.08169,-1.22721,0.208868,-0.0271829,-0.17991,0.394156,-0.00200266,-0.0010594,0.323863,0.23228232652703729,0.4831318992052185,-0.002000656014452651,-0.026816769967090925,-0.0010588390339333342,-0.16465461088675515
390,0.3788,676.226,234.81,0.013065,398.497,-2.10371,-1.21678,0.209337,-0.0272452,-0.180317,0.395055,-0.00200916,-0.00106262,0.324607,0.23286040248639472,0.48446583429658685,-0.00200714298910587,-0.02687739739375794,-0.0010620556192929564,-0.16499452728244546
391,0.3798,676.242,234.901,0.013854,398.497,-2.08608,-1.23024,0.209805,-0.0273066,-0.180724,0.395954,-0.00201509,-0.00106616,0.325349,0.23343751618883135,0.48580096913480797,-0.00201306106920085,-0.026937145287278863,-0.001065591853356862,-0.16533430536031235
392,0.3808,676.202,234.793,0.00440319,398.505,-2.1162,-1.22057,0.210274,-0.0273689,-0.18113,0.396852,-0.00202174,-0.00106941,0.326092,0.2340161340592084,0.4871358176623777,-0.002019697660277986,-0.02699776521479713,-0.0010688383849077887,-0.16567311085016767
393,0.3818,676.245,234.943,0.0220156,398.503,-2.08641,-1.23488,0.210741,-0.02743,-0.181537,0.397749,-0.0020275,-0.00107296,0.326833,0.23459255417743563,0.4884703769511787,-0.0020254460102642202,-0.02705721383516868,-0.001072384584236974,-0.16601261280071822
394,0.3828,676.175,234.765,-0.0052119,398.513,-2.13151,-1.22299,0.211209,-0.0274926,-0.181942,0.398646,-0.00203438,-0.00107618,0.327574,0.2351704787165847,0.48980613387672145,-0.0020323120515765014,-0.02711811814725773,-0.0010756011259799303,-0.166350309304376
395,0.3838,676.254,235.004,0.0325061,398.508,-2.08258,-1.24101,0.211676,-0.0275531,-0.182348,0.399541,-0.00203986,-0.00107979,0.328315,0.23574743803966158,0.49114010723057144,-0.0020377808995217794,-0.027176975720650254,-0.001079207236550861,-0.1666887023803557
396,0.3848,676.14,234.715,-0.0180344,398.522,-2.15179,-1.22379,0.212143,-0.0276161,-0.182753,0.400437,-0.00204712,-0.00108296,0.329055,0.23632466686566622,0.49247676750102687,-0.0020450260789324215,-0.027238261640653127,-0.0010823738104449587,-0.16702612512317416
397,0.3858,676.274,235.092,0.0475495,398.511,-2.07247,-1.24909,0.212609,-0.0276759,-0.183158,0.401331,-0.00205216,-0.00108666,0.329794,0.2369009284189394,0.49381163832952657,-0.0020500557593261526,-0.027296431053324244,-0.0010860697988241963,-0.1673634112374508
398,0.3868,676.208,234.977,0.00567804,398.518,-2.0997,-1.25595,0.213075,-0.0277378,-0.183563,0.402225,-0.0020587,-0.0010902,0.330533,0.23747745857267533,0.49514770306614464,-0.0020565823306195608,-0.027356639540770167,-0.0010896059478781028,-0.16770056077850914
399,0.3878,676.198,234.902,0.024644,398.526,-2.12575,-1.2356,0.213541,-0.0277997,-0.183967,0.403119,-0.00206529,-0.00109333,0.331272,0.2380542574520712,0.4964849627787118,-0.0020631587560726583,-0.02741684430142599,-0.0010927325325184034,-0.1680367418388079
400,0.3888,676.185,234.938,0.00566848,398.527,-2.1197,-1.24848,0.214007,-0.0278609,-0.184371,0.404012,-0.00207143,-0.0010969,0.332009,0.23863132518238217,0.4978219207133445,-0.0020692860694671023,-0.027476364569215983,-0.001096298625097858,-0.16837278710938974
401,0.3898,676.169,234.875,0.0122867,398.534,-2.14071,-1.23857,0.214472,-0.0279226,-0.184775,0.404904,-0.00207799,-0.00110017,0.332747,0.2392074226808798,0.49915857392532614,-0.0020758324734782008,-0.027536367426414854,-0.00109956503486075,-0.16870869664510257
402,0.3908,676.183,234.96,0.0123533,398.534,-2.12452,-1.25152,0.214936,-0.0279835,-0.185178,0.405796,-0.00208402,-0.00110374,0.333484,0.23978254834383894,0.5004964199638946,-0.002081849938065705,-0.02759558865833378,-0.0011031311030481605,-0.16904363954482715
403,0.3918,676.147,234.86,0.00413388,398.541,-2.15284,-1.24252,0.215401,-0.0280453,-0.185581,0.406687,-0.0020907,-0.00110703,0.33422,0.24035918128558764,0.5018339580588165,-0.002088516009043473,-0.027655681394070042,-0.0011064174683407257,-0.16937844748975828
404,0.3928,676.185,234.999,0.0198707,398.539,-2.12556,-1.2561,0.215865,-0.0281059,-0.185984,0.407577,-0.00209657,-0.00111062,0.334956,0.24093484148854305,0.503171185259325,-0.002094373732262067,-0.027714603674414473,-0.001110003489865119,-0.169713120534272
405,0.3938,676.121,234.836,-0.00466688,398.549,-2.16746,-1.24518,0.216329,-0.0281678,-0.186386,0.408467,-0.00210347,-0.0011139,0.335691,0.24151076885981104,0.5045096031218079,-0.0021012592573281808,-0.027774786277776187,-0.0011132798436803704,-0.1700468287799658
406,0.3948,676.193,235.054,0.0293197,398.544,-2.12291,-1.26205,0.216792,-0.0282279,-0.186789,0.409356,-0.00210909,-0.00111753,0.336425,0.24208572143704377,0.5058477068579661,-0.002106867432492221,-0.027833215257312527,-0.0011169057958935191,-0.17038123252108783
407,0.3958,676.089,234.792,-0.0161613,398.557,-2.18645,-1.24638,0.217255,-0.0282903,-0.187191,0.410244,-0.00211634,-0.00112075,0.33716,0.24266094027895524,0.5071854935110214,-0.0021141021314774466,-0.027893876572027687,-0.0011201221942783723,-0.17071467223974046
408,0.3968,676.21,235.134,0.0426491,398.548,-2.11474,-1.26974,0.217718,-0.0283497,-0.187592,0.411132,-0.00212156,-0.00112447,0.337893,0.2432364255088546,0.5085244686462325,-0.0021193110822689265,-0.027951617960823127,-0.0011238380205124132,-0.17104714899012863
409,0.3978,676.148,235.026,0.00294472,398.554,-2.14055,-1.27661,0.21818,-0.0284111,-0.187994,0.412019,-0.00212817,-0.00112805,0.338627,0.24381093343855276,0.509863123455562,-0.0021259070518230283,-0.028011299899226128,-0.0011274139907713199,-0.1713803210641609
410,0.3988,676.142,234.966,0.0234879,398.561,-2.16309,-1.25787,0.218642,-0.0284724,-0.188395,0.412906,-0.00213477,-0.00113124,0.339359,0.24438570685223637,0.5112029661784689,-0.0021324929991027863,-0.028070880980363477,-0.001130600389238401,-0.17171253094288186
411,0.3998,676.127,234.99,0.00357126,398.563,-2.15971,-1.26968,0.219104,-0.0285331,-0.188796,0.413792,-0.00214103,-0.00113484,0.340091,0.24496074587258754,0.5125424853258591,-0.0021387396301446593,-0.028129875287392636,-0.001134196312604252,-0.17204460763214768
412,0.4008,676.117,234.944,0.0125201,398.568,-2.17683,-1.26119,0.219565,-0.0285942,-0.189196,0.414677,-0.00214761,-0.00113816,0.340823,0.24553480508691705,0.5138816779306927,-0.0021453055356360773,-0.028189254737951863,-0.0011375125415675758,-0.1723757235614941
413,0.4018,676.123,235.008,0.00937214,398.569,-2.16549,-1.27259,0.220026,-0.0286547,-0.189596,0.415562,-0.00215377,-0.00114176,0.341554,0.24610912900355375,0.5152220562455807,-0.0021514523016219478,-0.028248047509540908,-0.0011411084400497762,-0.17270670707095448
414,0.4028,676.097,234.935,0.00568456,398.575,-2.18773,-1.26549,0.220487,-0.0287158,-0.189996,0.416446,-0.00216044,-0.00114511,0.342284,0.2466837177445531,0.5165621047574784,-0.0021581079292385397,-0.028307419739997952,-0.0011444546117317378,-0.1730375582134862
415,0.4038,676.123,235.039,0.0153689,398.574,-2.16828,-1.27684,0.220947,-0.028776,-0.190396,0.41733,-0.0021665,-0.00114871,0.343014,0.24725732417407986,0.5179033383960092,-0.002164154832782317,-0.02836591387263865,-0.0011480504852224849,-0.1733682770420255
416,0.4048,676.076,234.919,-0.00120946,398.582,-2.20035,-1.26873,0.221407,-0.0288373,-0.190795,0.418213,-0.00217333,-0.00115207,0.343744,0.24783119452326097,0.5192442389642902,-0.0021709700283308875,-0.028425473216605712,-0.001151406622134532,-0.17369803730793787
417,0.4058,676.126,235.081,0.0224553,398.579,-2.16841,-1.28218,0.221866,-0.0288971,-0.191194,0.419095,-0.00217921,-0.0011557,0.344473,0.2484040805088228,0.5205848034851055,-0.002176837245777441,-0.02848357163614723,-0.0011550324359477226,-0.1740276660257497
418,0.4068,676.05,234.89,-0.00975695,398.59,-2.21607,-1.27085,0.222326,-0.0289586,-0.191592,0.419977,-0.00218629,-0.00115902,0.345201,0.2489784784872633,0.5219265509054103,-0.0021839018087611572,-0.02854331805927024,-0.0011583485957351591,-0.17435633760468872
419,0.4078,676.136,235.141,0.0320815,398.583,-2.16464,-1.28883,0.222785,-0.029018,-0.191991,0.420858,-0.00219189,-0.00116271,0.345929,0.2495518911970387,0.5232679590002614,-0.0021894895632653677,-0.02860102087238703,-0.0011620343146286904,-0.17468570371307612
420,0.4088,676.017,234.839,-0.021716,398.598,-2.23662,-1.27151,0.223243,-0.0290799,-0.192389,0.421739,-0.00219934,-0.00116597,0.346657,0.2501243170387184,0.5246105493963711,-0.002196923223877656,-0.028661148608222442,-0.0011652905210892683,-0.17501411344512652
421,0.4098,676.155,235.227,0.0461877,398.586,-2.1549,-1.29725,0.223701,-0.0291385,-0.192787,0.422618,-0.0022045,-0.00116976,0.347383,0.2506970051114801,0.5259512712302119,-0.0022020718744703016,-0.028718067397177194,-0.0011690760974644165,-0.17534239249611083
422,0.4108,676.09,235.108,0.00454098,398.593,-2.18304,-1.30357,0.224159,-0.0291993,-0.193185,0.423498,-0.00221121,-0.00117338,0.34811,0.2512699555354527,0.5272946993705803,-0.002208767076105622,-0.02877711954347595,-0.001172691858864483,-0.1756705409180298
423,0.4118,676.078,235.031,0.0217716,398.601,-2.20952,-1.28388,0.224617,-0.0292601,-0.193582,0.424376,-0.00221796,-0.00117661,0.348836,0.2518431684308211,0.5286362529724771,-0.002215502144196968,-0.028836168099513504,-0.0011759180658594826,-0.1759977347610101
424,0.4128,676.067,235.065,0.00398277,398.601,-2.2037,-1.2964,0.225074,-0.0293201,-0.193979,0.425254,-0.00222427,-0.00118027,0.349561,0.2524153915018068,0.5299789849756789,-0.0022217981445145085,-0.028894436181367555,-0.0011795737553094154,-0.17632479873381568
425,0.4138,676.051,235.003,0.00963002,398.607,-2.22469,-1.28701,0.225531,-0.0293807,-0.194375,0.426132,-0.00223099,-0.00118363,0.350286,0.25298787613849893,0.5313228964152761,-0.0022285031915020292,-0.02895328339544634,-0.0011829297863034105,-0.17665090953931595
426,0.4148,676.065,235.086,0.0102256,398.607,-2.209,-1.29959,0.225988,-0.0294405,-0.194772,0.427009,-0.00223717,-0.00118729,0.35101,0.25356062246046074,0.5326664556600469,-0.0022346694002987055,-0.029011350252882928,-0.0011865854500905382,-0.17697771425320086
427,0.4158,676.03,234.988,0.00194817,398.614,-2.23678,-1.2911,0.226444,-0.0295012,-0.195168,0.427885,-0.00224401,-0.00119068,0.351734,0.254132376454306,0.5340096597126851,-0.002241494091819507,-0.02907028747515983,-0.001189971421826641,-0.17730356655534263
428,0.4168,676.067,235.121,0.0171068,398.612,-2.21073,-1.30425,0.2269,-0.0295606,-0.195564,0.428761,-0.00225005,-0.00119435,0.352457,0.2547043912274254,0.535354040927595,-0.0022475205349953287,-0.02912795898722298,-0.001193637047905094,-0.17762928984551862
429,0.4178,676.006,234.965,-0.0060661,398.621,-2.25101,-1.29399,0.227356,-0.0296215,-0.195959,0.429636,-0.00225709,-0.00119773,0.35318,0.25527666689876183,0.5366980636375909,-0.002254544687725679,-0.029187083294167193,-0.0011970130077064711,-0.1779540621292809
430,0.4188,676.074,235.171,0.0255294,398.616,-2.20921,-1.31019,0.227811,-0.0296805,-0.196354,0.43051,-0.00226291,-0.00120144,0.353902,0.2558479477387361,0.5380417248396228,-0.0022603515493776483,-0.02924435956658622,-0.0012007185599144377,-0.17827870615332408
431,0.4198,675.978,234.925,-0.0162464,398.628,-2.26902,-1.29558,0.228266,-0.0297417,-0.196749,0.431384,-0.00227026,-0.00120477,0.354624,0.2564194885706361,0.5393865609148902,-0.002267684908843659,-0.02930376799386425,-0.0012040445559838853,-0.1786032219683007
432,0.4208,676.088,235.242,0.0371283,398.619,-2.20295,-1.31766,0.22872,-0.0298001,-0.197144,0.432257,-0.00227573,-0.00120856,0.355345,0.2569900325221244,0.5407310321588785,-0.0022731424896806907,-0.02936045499853679,-0.0012078299854816343,-0.17892760962484333
433,0.4218,675.94,234.86,-0.0305971,398.637,-2.29287,-1.29541,0.229175,-0.0298618,-0.197538,0.43313,-0.00228354,-0.00121181,0.356066,0.2575620931208389,0.5420766776387422,-0.0022809347060092078,-0.029420341610942424,-0.0012110760547592303,-0.17925104842502337
434,0.4228,675.942,234.913,-0.0367537,398.637,-2.28371,-1.30916,0.229629,-0.0299215,-0.197932,0.434003,-0.00229001,-0.0012155,0.356786,0.25813315593256525,0.5434234983800368,-0.002287389927479011,-0.029478283486966017,-0.001214761579088841,-0.17957435981541747
435,0.4238,676.037,235.14,0.0232331,398.632,-2.24025,-1.31475,0.230082,-0.0299804,-0.198326,0.434874,-0.00229587,-0.00121908,0.357506,0.25870321936182106,0.5447684058693121,-0.002293236506243468,-0.029535445532629878,-0.0012183372238420143,-0.17989754384621537
436,0.4248,675.956,234.969,-0.021258,398.641,-2.28142,-1.31068,0.230535,-0.0300409,-0.198719,0.435745,-0.00230299,-0.00122257,0.358225,0.25927354108831,0.54611448528331,-0.002300340153110536,-0.02959415686213951,-0.0012218229657624535,-0.18021978078777734
437,0.4258,676.053,235.222,0.0339969,398.634,-2.23143,-1.32312,0.230988,-0.0300995,-0.199113,0.436615,-0.00230873,-0.00122625,0.358944,0.25984412122906764,0.5474601901822571,-0.0023060669327221728,-0.029651020978412546,-0.0012254984626910437,-0.1805427105728018
438,0.4268,675.933,234.933,-0.0264806,398.648,-2.29934,-1.31061,0.231441,-0.0301604,-0.199506,0.437485,-0.00231626,-0.00122965,0.359662,0.2604149599011818,0.5488070663538962,-0.0023135795397531966,-0.02971011343185148,-0.0012288942902233257,-0.18086469401365635
439,0.4278,676.07,235.303,0.0450813,398.637,-2.22245,-1.33237,0.231893,-0.0302184,-0.199899,0.438353,-0.0023216,-0.00123345,0.36038,0.26098479623636717,0.5501520145105483,-0.0023189071710136844,-0.029766388613276407,-0.0012326896132138776,-0.18118655093988045
440,0.4288,676.005,235.187,0.00261412,398.643,-2.24967,-1.33947,0.232345,-0.0302783,-0.200291,0.439222,-0.00232843,-0.00123715,0.361097,0.2615548901957949,0.5514996820879114,-0.002325721309607398,-0.029824503866029306,-0.0012363850454257808,-0.18150746290905673
441,0.4298,675.996,235.119,0.0200612,398.65,-2.27383,-1.32126,0.232797,-0.0303382,-0.200683,0.44009,-0.00233527,-0.00124047,0.361814,0.2621252418959372,0.5528469684496549,-0.002332545378335271,-0.029882615637782717,-0.0012397009351230448,-0.18182824910539408
442,0.4308,675.983,235.146,0.00166884,398.651,-2.26989,-1.33308,0.233248,-0.0303975,-0.201075,0.440957,-0.00234173,-0.00124418,0.36253,0.26269458875809915,0.5541938705689986,-0.002338990289275089,-0.02994014189300509,-0.0012434063289590291,-0.18214890957818597
443,0.4318,675.971,235.094,0.00865408,398.656,-2.28826,-1.3248,0.233699,-0.0304572,-0.201466,0.441824,-0.00234853,-0.00124763,0.363246,0.26326419245360744,0.5555419409588518,-0.0023457743610751924,-0.029998052737878145,-0.001246852033263357,-0.18246862684574183
444,0.4328,675.981,235.162,0.00717683,398.656,-2.27599,-1.33626,0.23415,-0.0305163,-0.201858,0.44269,-0.00235489,-0.00125135,0.363961,0.2638340530983203,0.5568896237421421,-0.0023521194217729358,-0.03005537815897852,-0.001250567388063284,-0.1827890363396546
445,0.4338,675.953,235.083,0.00192319,398.662,-2.29956,-1.3292,0.2346,-0.0305761,-0.202249,0.443556,-0.00236179,-0.00125482,0.364676,0.2644029064046092,0.5582384741242201,-0.002359003168399987,-0.030113379113118732,-0.0012540330425815371,-0.18310850336657192
446,0.4348,675.982,235.192,0.0129056,398.66,-2.27911,-1.34076,0.23505,-0.0306348,-0.202639,0.444421,-0.00236804,-0.00125854,0.36539,0.26497201575249063,0.5595869335289507,-0.0023652384051451314,-0.030170309786833216,-0.0012577483706680548,-0.18342702893373608
447,0.4358,675.933,235.066,-0.00466535,398.668,-2.31242,-1.33257,0.2355,-0.0306947,-0.20303,0.445285,-0.0023751,-0.00126202,0.366104,0.26554138125720983,0.5609349989199082,-0.0023722816816991177,-0.030228400845432435,-0.001261223987656157,-0.18374624655431127
448,0.4368,675.986,235.231,0.0195502,398.664,-2.27973,-1.34631,0.235949,-0.0307532,-0.20342,0.446149,-0.00238117,-0.00126577,0.366817,0.2661097369236931,0.5622842295426711,-0.002378337263570618,-0.030285130824614814,-0.0012649692510438015,-0.18406452345012625
449,0.4378,675.91,235.037,-0.0126402,398.674,-2.32813,-1.33489,0.236398,-0.0308133,-0.20381,0.447012,-0.00238848,-0.00126921,0.367529,0.26667834783916966,0.5636330627705901,-0.0023856298512707763,-0.030343408936977512,-0.0012684048936403292,-0.18438267624215365
450,0.4388,675.995,235.287,0.028371,398.667,-2.27684,-1.35308,0.236847,-0.0308712,-0.204199,0.447875,-0.00239429,-0.00127302,0.368241,0.267247214118272,0.564983060544014,-0.002391425973923611,-0.030399550428288125,-0.001272210053768874,-0.1846998896790819
451,0.4398,675.879,234.989,-0.0235236,398.682,-2.34814,-1.33587,0.237296,-0.0309317,-0.204588,0.448737,-0.00240195,-0.0012764,0.368953,0.26781633587568443,0.5663326575349386,-0.002399067626333129,-0.03045820948103306,-0.0012755857479939126,-0.18501697974398057
452,0.4408,676.013,235.365,0.0409876,398.67,-2.26869,-1.36143,0.237743,-0.030989,-0.204978,0.449598,-0.00240735,-0.00128031,0.369664,0.2683831764572524,0.5676818506973837,-0.0024044546568229297,-0.030513762634016728,-0.0012794907528194122,-0.1853347611504783
453,0.4418,675.95,235.247,0.00138993,398.676,-2.29685,-1.36706,0.238191,-0.0310484,-0.205367,0.450459,-0.00241428,-0.00128404,0.370375,0.26895153942410377,0.5690322060153781,-0.0024113679699975243,-0.030571348406201904,-0.0012832159733713322,-0.1856516042984031
454,0.4428,675.941,235.176,0.0179589,398.683,-2.32167,-1.34895,0.238639,-0.0311077,-0.205755,0.451319,-0.00242122,-0.00128741,0.371086,0.2695201570746093,0.5703821541070291,-0.002418291211080059,-0.030628833820782075,-0.0012865816432623411,-0.18596751018622992
455,0.4438,675.929,235.204,0.000846953,398.683,-2.31762,-1.36047,0.239086,-0.0311665,-0.206143,0.452179,-0.00242776,-0.00129117,0.371795,0.2700877594344979,0.5717332636533925,-0.002424815374121536,-0.030685831169614874,-0.0012903367986556447,-0.1862832935263481
456,0.4448,675.916,235.15,0.00686956,398.688,-2.33638,-1.35241,0.239533,-0.0312256,-0.206531,0.453038,-0.00243466,-0.00129468,0.372505,0.27065561556935624,0.5730839625690005,-0.0024316986191482703,-0.030743115944210975,-0.0012938422634214408,-0.1865989543662968
457,0.4458,675.927,235.219,0.00621586,398.688,-2.32391,-1.36375,0.239979,-0.0312841,-0.206919,0.453897,-0.00244111,-0.00129844,0.373213,0.2712224543695565,0.5744358222334471,-0.00243813291394146,-0.030799815813440934,-0.0012975973915148042,-0.18691449275359706
458,0.4468,675.898,235.139,0.000316374,398.694,-2.34781,-1.35682,0.240425,-0.0313433,-0.207306,0.454755,-0.0024481,-0.00130197,0.373922,0.2717895460362467,0.5757872678561886,-0.0024451058470220666,-0.03085719076602944,-0.00130112280477368,-0.1872290959652534
459,0.4478,675.928,235.248,0.0117476,398.692,-2.32721,-1.36835,0.240871,-0.0314015,-0.207693,0.455612,-0.00245444,-0.00130574,0.374629,0.27235689068223023,0.5771382963777743,-0.0024514303250022795,-0.030913593236199022,-0.0013048878924435403,-0.18754357744902284
460,0.4488,675.88,235.122,-0.00605361,398.699,-2.36071,-1.36025,0.241317,-0.0314608,-0.20808,0.456469,-0.00246159,-0.00130927,0.375337,0.27292448842036143,0.5784904832270756,-0.0024585627717770286,-0.03097105835626246,-0.0013084132799670023,-0.18785793725200473
461,0.4498,675.932,235.286,0.0181196,398.695,-2.32813,-1.37398,0.241762,-0.0315187,-0.208467,0.457325,-0.00246776,-0.00131307,0.376043,0.2734910658718419,0.5798422495541653,-0.00246471758345701,-0.03102716350772383,-0.001312208300785933,-0.1881721754212805
462,0.4508,675.857,235.093,-0.0136994,398.705,-2.37631,-1.36268,0.242207,-0.0315783,-0.208853,0.458181,-0.00247515,-0.00131657,0.37675,0.2740578955063946,0.5811951734886163,-0.002472089341955419,-0.03108491256783963,-0.0013157037019398965,-0.18848548048979963
463,0.4518,675.942,235.339,0.0265078,398.698,-2.32572,-1.38076,0.242651,-0.0316357,-0.209239,0.459036,-0.00248106,-0.00132043,0.377456,0.2746237028119263,0.5825476734732999,-0.0024779847144865697,-0.031140526697717497,-0.0013195586158836203,-0.18879866464589978
464,0.4528,675.829,235.046,-0.0240328,398.712,-2.39597,-1.36383,0.243096,-0.0316956,-0.209624,0.459891,-0.0024888,-0.00132387,0.378161,0.2751910365820791,0.5839013303399669,-0.0024857055050053756,-0.031198559642064305,-0.0013229940706930288,-0.18911091704756688
465,0.4538,675.959,235.414,0.0383933,398.7,-2.3184,-1.38905,0.243539,-0.0317524,-0.21001,0.460744,-0.00249432,-0.00132782,0.378866,0.2757560713572471,0.5852529745690549,-0.002491211768713697,-0.031253586001113165,-0.0013269388370755753,-0.18942385983174348
466,0.4548,675.898,235.297,-0.000183056,398.706,-2.34634,-1.39445,0.243983,-0.0318112,-0.210395,0.461598,-0.00250134,-0.0013316,0.37957,0.27632263282026703,0.5866073588491101,-0.0024982142558283016,-0.031310546615597845,-0.0013307138141119834,-0.18973587157959282
467,0.4558,675.889,235.23,0.0163207,398.713,-2.37015,-1.3771,0.244427,-0.03187,-0.21078,0.462451,-0.00250836,-0.00133503,0.380274,0.2768894458924296,0.5879613123052616,-0.0025052166937856724,-0.03136750388089682,-0.001334139243889032,-0.19004776322604022
468,0.4568,675.877,235.254,-0.000625082,398.713,-2.36702,-1.38816,0.244869,-0.0319282,-0.211165,0.463303,-0.00251501,-0.00133884,0.380978,0.27745395577500775,0.5893148318607992,-0.0025118500120387965,-0.03142387665170743,-0.0013379441535701364,-0.19035953481731582
469,0.4578,675.866,235.205,0.00574253,398.718,-2.38458,-1.38072,0.245312,-0.0319868,-0.211549,0.464154,-0.00252199,-0.00134241,0.381681,0.2780199932454588,0.5906679144376907,-0.002518812455026831,-0.031480633549542336,-0.0013415093707456194,-0.1906703770704138
470,0.4588,675.875,235.268,0.00437318,398.717,-2.37373,-1.39147,0.245755,-0.0320447,-0.211933,0.465005,-0.00252855,-0.00134621,0.382383,0.2785862815260596,0.5920221489779458,-0.0025253559101545697,-0.031536709197454105,-0.0013453042657997072,-0.1909810999830014
471,0.4598,675.85,235.195,-0.000320693,398.723,-2.3957,-1.38529,0.246197,-0.0321033,-0.212317,0.465856,-0.00253561,-0.00134981,0.383085,0.2791515415757624,0.5933775364623028,-0.002532398056283025,-0.03159345948349557,-0.0013488994162330625,-0.19129170360089653
472,0.4608,675.876,235.292,0.00933822,398.721,-2.37772,-1.39604,0.246638,-0.032161,-0.212701,0.466706,-0.00254208,-0.00135362,0.383786,0.27971577180921936,0.5947324831390544,-0.0025388516507901526,-0.03164933492886124,-0.00135270426967804,-0.1916021879698998
473,0.4618,675.833,235.181,-0.00601142,398.728,-2.40803,-1.38895,0.24708,-0.0322197,-0.213084,0.467555,-0.00254928,-0.00135721,0.384488,0.2802815312039746,0.5960869859223104,-0.0025460333452042017,-0.0317061754446154,-0.0013562894070343612,-0.19191174504794273
474,0.4628,675.879,235.326,0.0148773,398.724,-2.37968,-1.40153,0.247521,-0.0322772,-0.213467,0.468404,-0.0025556,-0.00136105,0.385188,0.2808462598727546,0.5974426391667309,-0.002552337234353108,-0.0317618507388473,-0.0013601241915202067,-0.1922211835883263
475,0.4638,675.813,235.156,-0.0126472,398.733,-2.42264,-1.39174,0.247962,-0.032336,-0.21385,0.469253,-0.00256301,-0.00136462,0.385888,0.2814112376418001,0.5987994438494726,-0.0025597282941502986,-0.03181878146824402,-0.0013636893295131403,-0.19253050363644164
476,0.4648,675.887,235.372,0.0220048,398.727,-2.37884,-1.40802,0.248402,-0.0323931,-0.214232,0.4701,-0.00256911,-0.00136851,0.386588,0.2819751826451651,0.6001542006369196,-0.002565812661250333,-0.031874063037518385,-0.001367574017205886,-0.1928388980769642
477,0.4658,675.789,235.117,-0.0214314,398.739,-2.44062,-1.39344,0.248843,-0.0324522,-0.214614,0.470947,-0.00257682,-0.00137203,0.387287,0.28254065837894626,0.6015101053894603,-0.002573502849189002,-0.03193127758968617,-0.0013710891971586703,-0.19314717473330867
478,0.4668,675.901,235.436,0.0319467,398.729,-2.37394,-1.41579,0.249282,-0.0325087,-0.214997,0.471793,-0.00258259,-0.001376,0.387985,0.2831038173323206,0.6028655562134753,-0.002579257983474026,-0.031985971927372736,-0.001375053746064947,-0.19345614019472313
479,0.4678,675.756,235.056,-0.0337605,398.746,-2.46354,-1.39369,0.249722,-0.0325684,-0.215378,0.47264,-0.00259073,-0.00137945,0.388684,0.2836685072346148,0.6042237584570394,-0.0025873769552697823,-0.03204376063983849,-0.0013784989961864724,-0.19376337487338613
480,0.4688,675.763,235.116,-0.0372198,398.745,-2.45305,-1.40722,0.250161,-0.0326261,-0.215759,0.473485,-0.00259749,-0.00138332,0.389381,0.2842321614223329,0.6055799004222224,-0.0025941194418119817,-0.03209961010357709,-0.0013823636539171957,-0.19407049251793296
481,0.4698,675.848,235.32,0.0155343,398.74,-2.41424,-1.41295,0.2506,-0.032683,-0.216141,0.47433,-0.00260374,-0.00138708,0.390078,0.28479606310856087,0.6069371888116621,-0.0026003532090849157,-0.03215468206894989,-0.0013861184491708034,-0.1943782987950492
482,0.4708,675.781,235.175,-0.0215972,398.747,-2.45012,-1.40975,0.251039,-0.0327415,-0.216521,0.475175,-0.00261111,-0.00139077,0.390775,0.2853602124019752,0.6082956245944966,-0.0026077040173939636,-0.03221129936397682,-0.001389803327595196,-0.19468437688298723
483,0.4718,675.863,235.388,0.0240222,398.742,-2.40834,-1.42106,0.251477,-0.0327983,-0.216902,0.476018,-0.0026173,-0.00139462,0.391471,0.2859233234873326,0.6096519894334844,-0.002613877856598057,-0.03226626820104317,-0.001393647969451406,-0.19499114369260662
484,0.4728,675.764,235.149,-0.0245717,398.753,-2.46565,-1.41081,0.251916,-0.0328571,-0.217282,0.476861,-0.00262499,-0.00139823,0.392167,0.2864879677566923,0.6110094981701166,-0.002621547726386675,-0.03232316927156509,-0.0013972529318753146,-0.19529698894372538
485,0.4738,675.875,235.449,0.031741,398.743,-2.40373,-1.42954,0.252353,-0.0329134,-0.217663,0.477704,-0.00263089,-0.00140218,0.392862,0.2870502858561581,0.6123681517691058,-0.0026274322418957663,-0.03237764794354614,-0.0014011974049358278,-0.1956035223926078
486,0.4748,675.735,235.095,-0.0339458,398.759,-2.48728,-1.41084,0.252791,-0.0329726,-0.218042,0.478546,-0.00263899,-0.0014057,0.393557,0.2876141373558272,0.6137263374688329,-0.0026355109269758925,-0.032434929491237274,-0.0014047124665345079,-0.1959083308927616
487,0.4758,675.896,235.532,0.0436731,398.744,-2.39435,-1.43916,0.253228,-0.0330282,-0.218422,0.479387,-0.00264443,-0.00140977,0.394251,0.2881769476989551,0.6150840521576468,-0.0026409365750386105,-0.032488724613639386,-0.0014087767410839724,-0.1962138276789569
488,0.4768,675.827,235.398,0.00137845,398.75,-2.42619,-1.44383,0.253665,-0.0330861,-0.218802,0.480228,-0.00265166,-0.00141363,0.394945,0.2887400040439503,0.6164429091647918,-0.0026481474549998607,-0.0325447418947683,-0.0014126312957664089,-0.1965192083984274
489,0.4778,675.811,235.307,0.0136339,398.757,-2.45525,-1.42525,0.254101,-0.0331441,-0.21918,0.481069,-0.00265891,-0.00141714,0.395639,0.2893020171956775,0.6178029094513613,-0.002655378229719174,-0.03260085267251012,-0.0014161363312792385,-0.19682286674261007
490,0.4788,675.804,235.343,-0.00109514,398.757,-2.44937,-1.4372,0.254537,-0.0332013,-0.219559,0.481909,-0.00266568,-0.00142105,0.396332,0.28986427543856497,0.6191624348160136,-0.002662130229952986,-0.032656186321179836,-0.0014200407865530007,-0.1971272131988181
491,0.4798,675.786,235.274,0.00163533,398.762,-2.47148,-1.4287,0.254973,-0.0332591,-0.219938,0.482748,-0.00267288,-0.0014247,0.397024,0.2904267788794954,0.6205214821394545,-0.002669311036764377,-0.03271209717777113,-0.001423685596752322,-0.19743144432957482
492,0.4808,675.804,235.358,0.00415936,398.761,-2.45585,-1.44083,0.255409,-0.0333161,-0.220316,0.483586,-0.00267953,-0.00142861,0.397716,0.29098952762539887,0.6218800483012055,-0.002675943263793834,-0.0327672310169026,-0.0014275900225084737,-0.1977347579137393
493,0.4818,675.769,235.258,-0.00516907,398.767,-2.48384,-1.43312,0.255844,-0.0333739,-0.220694,0.484425,-0.00268684,-0.00143228,0.398408,0.2915512302313752,0.6232413766591207,-0.0026832336760020947,-0.032823135455296026,-0.001431254776528279,-0.19803795686703551
494,0.4828,675.807,235.386,0.00978403,398.763,-2.45906,-1.44584,0.256279,-0.0334306,-0.221072,0.485262,-0.00269337,-0.0014362,0.399099,0.29211317723113717,0.6246005984463499,-0.0026897461332230366,-0.03287797282886151,-0.0014351691583373016,-0.19834104123278584
495,0.4838,675.751,235.237,-0.0117016,398.771,-2.49764,-1.43655,0.256714,-0.0334885,-0.221449,0.4861,-0.00270086,-0.00143986,0.39979,0.29267536873101885,0.6259625843402337,-0.0026972159590499256,-0.03293396757317113,-0.0014388238989300195,-0.1986432096979065
496,0.4848,675.814,235.425,0.0162624,398.766,-2.45983,-1.45191,0.257148,-0.0335449,-0.221826,0.486936,-0.0027072,-0.00144383,0.40048,0.2932365116002429,0.6273224574084837,-0.00270353883865726,-0.03298850855932978,-0.0014427881789300656,-0.19894526426698655
497,0.4858,675.73,235.204,-0.0194562,398.776,-2.51413,-1.43897,0.257583,-0.0336031,-0.222203,0.487772,-0.00271494,-0.00144745,0.40117,0.2937991918568721,0.6286834678059563,-0.0027112578833938805,-0.033044786990413355,-0.0014464029494940522,-0.19924720498295678
498,0.4868,675.825,235.478,0.0246687,398.767,-2.45731,-1.45912,0.258016,-0.033659,-0.22258,0.488607,-0.00272101,-0.00145148,0.401859,0.2943595282110121,0.6300439864390548,-0.0027173114076860516,-0.033098838276073184,-0.0014504271123815249,-0.19954903188873152
499,0.4878,675.703,235.154,-0.0297372,398.782,-2.53456,-1.44013,0.25845,-0.0337176,-0.222956,0.489442,-0.00272911,-0.00145505,0.402548,0.294921402164084,0.6314056415796374,-0.0027253893647478655,-0.03315549702403264,-0.0014539919279935587,-0.19984994487755436
500,0.4888,675.845,235.551,0.0363224,398.768,-2.45008,-1.4678,0.258883,-0.0337728,-0.223333,0.490276,-0.00273478,-0.00145917,0.403236,0.2954822245405031,0.632766801409467,-0.0027310438957595107,-0.033208865367617024,-0.0014581059290719178,-0.20015154459321693
501,0.4898,675.782,235.426,-0.00207553,398.774,-2.48019,-1.47206,0.259316,-0.0338302,-0.223709,0.49111,-0.00274208,-0.00146307,0.403923,0.2960432898055929,0.6341290969201077,-0.0027383239325668995,-0.03326435758610302,-0.0014620002348648686,-0.2004522310798479
502,0.4908,675.77,235.35,0.0116924,398.78,-2.5058,-1.45506,0.259749,-0.0338876,-0.224084,0.491943,-0.00274939,-0.00146666,0.404611,0.2966045980645471,0.6354908935674011,-0.0027456138887741455,-0.03331984661942711,-0.001465584979849499,-0.2007520052820171
503,0.4918,675.761,235.376,-0.00340674,398.78,-2.50232,-1.46593,0.260181,-0.0339443,-0.22446,0.492776,-0.00275629,-0.00147061,0.405298,0.2971648522571033,0.6368538250639009,-0.0027524949202987203,-0.033374655830267996,-0.0014695291829989188,-0.20105246603786908
504,0.4928,675.749,235.322,0.00109041,398.784,-2.52098,-1.45878,0.260613,-0.0340015,-0.224835,0.493608,-0.00276354,-0.00147433,0.405984,0.29772534853175703,0.6382162541382568,-0.0027597249385017397,-0.03342994521866294,-0.001473243709441352,-0.20135201519412782
505,0.4938,675.761,235.387,0.00121607,398.783,-2.50952,-1.46951,0.261045,-0.0340581,-0.22521,0.49444,-0.00277035,-0.00147828,0.40667,0.29828608699310966,0.6395798172252865,-0.002766516121650908,-0.03348465153556013,-0.0014771878823389706,-0.20165145204051227
506,0.4948,675.734,235.31,-0.00471928,398.788,-2.53247,-1.46348,0.261476,-0.0341153,-0.225584,0.495271,-0.00277768,-0.00148203,0.407356,0.29884576889939063,0.6409428743251862,-0.0027738258162977036,-0.0335399346323807,-0.0014809323358635496,-0.20194997856950847
507,0.4958,675.763,235.41,0.00579078,398.786,-2.51403,-1.47433,0.261907,-0.0341716,-0.225959,0.496101,-0.0027844,-0.00148598,0.408041,0.2994056920805641,0.6423054222900599,-0.002780527153671719,-0.0335943448024002,-0.0014848764783911284,-0.20224919122166618
508,0.4968,675.72,235.295,-0.00999677,398.792,-2.54497,-1.46735,0.262338,-0.0342289,-0.226333,0.496931,-0.00279187,-0.00148973,0.408726,0.29996585664064224,0.643669101639204,-0.002787976355311028,-0.03364971825997831,-0.0014886209030835484,-0.2025474942380081
509,0.4978,675.767,235.44,0.0107798,398.788,-2.5167,-1.48002,0.262769,-0.0342849,-0.226707,0.497761,-0.00279846,-0.00149371,0.40941,0.3005262626836813,0.6450339133120571,-0.002794547960893401,-0.03370383236054686,-0.0014925949704639452,-0.20284568570988204
510,0.4988,675.703,235.271,-0.0159814,398.796,-2.55944,-1.47042,0.263199,-0.0343424,-0.22708,0.49859,-0.00280612,-0.00149744,0.410093,0.3010856092275238,0.6463982118498031,-0.0028021865254002076,-0.033759392792808374,-0.0014963193961387011,-0.20314296882236504
511,0.4998,675.775,235.48,0.0170355,398.79,-2.51697,-1.4866,0.263629,-0.034398,-0.227454,0.499418,-0.00281251,-0.00150147,0.410776,0.30164519634209896,0.6477619940971495,-0.0028085585990695883,-0.03381311427709799,-0.0015003433578631986,-0.20344093762838555
512,0.5008,675.682,235.235,-0.0236818,398.801,-2.57677,-1.47255,0.264059,-0.0344557,-0.227826,0.500246,-0.00282045,-0.00150515,0.411459,0.30220502413087447,0.6491269060238196,-0.0028164762676811117,-0.03386886165207692,-0.0015040178298386664,-0.20373720249090688
513,0.5018,675.788,235.536,0.0255342,398.791,-2.51386,-1.49427,0.264488,-0.0345109,-0.228199,0.501073,-0.00282653,-0.00150925,0.412142,0.30276378993292163,0.6504912980734514,-0.0028225391250742415,-0.03392219061902069,-0.001508111654973221,-0.2040341531296408
514,0.5028,675.654,235.181,-0.0341813,398.806,-2.59818,-1.47346,0.264917,-0.0345691,-0.228572,0.5019,-0.00283486,-0.00151287,0.412824,0.3033227954969231,0.6518568189420109,-0.002830845578726926,-0.03397841471138974,-0.0015117261890666978,-0.2043309930264411
515,0.5038,675.809,235.612,0.0374875,398.791,-2.50592,-1.5034,0.265346,-0.0346235,-0.228944,0.502725,-0.00284052,-0.00151707,0.413505,0.30388204092575877,0.653220163119784,-0.002836489540168574,-0.034030964856252566,-0.0015159198310100708,-0.20462692684993133
516,0.5048,675.744,235.478,-0.00205551,398.797,-2.53815,-1.50696,0.265774,-0.0346804,-0.229317,0.503551,-0.00284797,-0.00152104,0.414186,0.30444022188147857,0.6545862871060546,-0.002843918380649013,-0.034085926930666366,-0.0015198838049398367,-0.2049235456833648
517,0.5058,675.729,235.391,0.00969346,398.803,-2.56614,-1.48951,0.266203,-0.0347373,-0.229688,0.504376,-0.00285542,-0.00152469,0.414866,0.30499994678907405,0.6559518840241909,-0.0028513471657848344,-0.034140885877827154,-0.00152352825071278,-0.20521846433712332
518,0.5068,675.722,235.422,-0.00428383,398.803,-2.56163,-1.50066,0.266631,-0.0347934,-0.23006,0.505201,-0.00286242,-0.00152871,0.415546,0.30555860631090925,0.6573186080246423,-0.0028583271819245804,-0.03419506905427705,-0.0015275421180613868,-0.20551406808268435
519,0.5078,675.707,235.359,-0.00139354,398.807,-2.58215,-1.49317,0.267058,-0.0348501,-0.230431,0.506025,-0.00286981,-0.00153249,0.416226,0.30611619887334407,0.6586848013520041,-0.00286569603165876,-0.034249828641412794,-0.0015313163368189109,-0.2058087676932676
520,0.5088,675.722,235.432,0.000328447,398.805,-2.5689,-1.50439,0.267486,-0.034906,-0.230802,0.506848,-0.00287671,-0.00153651,0.416905,0.30667533625332566,0.6600504608353108,-0.0028725762346194506,-0.03430381256712689,-0.0015353301728593394,-0.20610335799057433
521,0.5098,675.693,235.345,-0.00738732,398.811,-2.59413,-1.49785,0.267913,-0.0349627,-0.231173,0.507671,-0.00288419,-0.00154031,0.417584,0.30723340576126645,0.6614172447189997,-0.0028800347198544296,-0.034358565988680145,-0.0015391243313958025,-0.20639783901515207
522,0.5108,675.725,235.455,0.00502216,398.808,-2.57328,-1.50942,0.268339,-0.0350183,-0.231544,0.508494,-0.00289099,-0.00154434,0.418262,0.30779040582471073,0.662785153928833,-0.0028868151125649444,-0.03441225415986626,-0.001543148120616844,-0.20669221080753342
523,0.5118,675.678,235.327,-0.0128395,398.814,-2.60713,-1.5017,0.268766,-0.0350751,-0.231914,0.509316,-0.00289862,-0.00154815,0.41894,0.30834895156902786,0.6641525252379779,-0.002894423057141271,-0.03446709798625047,-0.001546952233975607,-0.2069856803943131
524,0.5128,675.731,235.486,0.0101809,398.809,-2.57575,-1.51533,0.269192,-0.0351305,-0.232284,0.510137,-0.00290527,-0.0015522,0.419617,0.30890642695622295,0.6655193554682328,-0.002901053787180752,-0.03452058702736194,-0.0015509959606305745,-0.20727904141743114
525,0.5138,675.662,235.301,-0.0190288,398.818,-2.62217,-1.50472,0.269618,-0.0351875,-0.232653,0.510958,-0.00291311,-0.00155598,0.420294,0.3094641398785245,0.6668873083268827,-0.002908871012275549,-0.03457561778550988,-0.0015547700907326822,-0.20757150148894643
526,0.5148,675.74,235.527,0.0166389,398.81,-2.57576,-1.52216,0.270044,-0.0352425,-0.233023,0.511778,-0.00291955,-0.0015601,0.420971,0.3100220904371438,0.6682547164804331,-0.0029152922584697594,-0.03462871466635409,-0.0015588836766059488,-0.20786464579835406
527,0.5158,675.641,235.262,-0.0269552,398.822,-2.64012,-1.50679,0.270469,-0.0352997,-0.233392,0.512598,-0.00292768,-0.00156383,0.421647,0.3105789681537121,0.6696232463685181,-0.002923398524191656,-0.03468393232463507,-0.0015626078550242672,-0.2081568898217161
528,0.5168,675.755,235.584,0.0253493,398.811,-2.57234,-1.53009,0.270894,-0.0353542,-0.233762,0.513417,-0.0029338,-0.00156802,0.422322,0.31113608259361025,0.6709912279192731,-0.0029295006143202906,-0.03473654061673437,-0.0015667912989330013,-0.20844981757750547
529,0.5178,675.613,235.205,-0.0376695,398.827,-2.66218,-1.50762,0.271319,-0.0354119,-0.23413,0.514236,-0.00294234,-0.00157168,0.422998,0.31169343385746684,0.6723603303058381,-0.0029380155600261526,-0.034792234711550796,-0.0015704455577895127,-0.208741054453765
530,0.5188,675.626,235.272,-0.0388917,398.825,-2.65029,-1.52115,0.271743,-0.0354676,-0.234499,0.515054,-0.00294945,-0.00157576,0.423672,0.31224970979558764,0.6737288807168353,-0.0029451046455337693,-0.03484599528683141,-0.0015745191420615257,-0.20903297514199226
531,0.5198,675.702,235.454,0.00718282,398.82,-2.61585,-1.52706,0.272167,-0.0355227,-0.234867,0.515872,-0.00295614,-0.00157974,0.424346,0.3128062216447156,0.6750985510600589,-0.002951774920471606,-0.03489917380740937,-0.0015784928675676158,-0.20932399745574992
532,0.5208,675.646,235.331,-0.0234642,398.826,-2.64693,-1.52475,0.272591,-0.0355791,-0.235235,0.516689,-0.00296382,-0.00158366,0.42502,0.3133629695048985,0.6764676657834836,-0.0029594322214362423,-0.034953603959061996,-0.0015824066722045504,-0.20961491269299948
533,0.5218,675.715,235.51,0.013803,398.82,-2.61256,-1.53503,0.273015,-0.0356341,-0.235603,0.517505,-0.00297049,-0.0015877,0.425694,0.31391995347622603,0.677836221693636,-0.0029660824598447544,-0.035006680051238304,-0.0015864402711337489,-0.20990572089313775
534,0.5228,675.636,235.313,-0.0247647,398.829,-2.66064,-1.52686,0.273438,-0.0356908,-0.23597,0.518321,-0.00297843,-0.00159156,0.426367,0.31447585918231447,0.6792058948011654,-0.002973998877721762,-0.03506139362133498,-0.001590294140036308,-0.21019563229157445
535,0.5238,675.725,235.554,0.0189398,398.821,-2.61166,-1.54293,0.273861,-0.0357454,-0.236338,0.519137,-0.0029849,-0.00159569,0.427039,0.3150320000862572,0.6805766860180771,-0.0029804496150808157,-0.03511407783095122,-0.001594417563606565,-0.21048622682621732
536,0.5248,675.617,235.274,-0.0309759,398.833,-2.67885,-1.52832,0.274284,-0.0358024,-0.236705,0.519952,-0.00299315,-0.00159948,0.427711,0.3155883762875642,0.6819469143093655,-0.00298867499244182,-0.03516907476108755,-0.0015982015135934668,-0.21077592521806554
537,0.5258,675.739,235.611,0.0266952,398.821,-2.6079,-1.55148,0.274706,-0.0358565,-0.237072,0.520766,-0.00299929,-0.0016037,0.428382,0.31614367174145763,0.6833165764744868,-0.002994796623183915,-0.03522127070223002,-0.0016024147602931027,-0.21106551731011125
538,0.5268,675.684,235.499,-0.00841558,398.826,-2.63528,-1.55612,0.275129,-0.0359125,-0.237438,0.52158,-0.00300687,-0.00160777,0.429054,0.3167005182793441,0.6846873539985003,-0.0030023538939834005,-0.03527529679832586,-0.0016064782301958846,-0.21135421449596803
539,0.5278,675.679,235.445,0.00669244,398.83,-2.65554,-1.5421,0.275551,-0.0359683,-0.237804,0.522394,-0.00301438,-0.00161155,0.429724,0.31725628315619914,0.686059247789677,-0.003009841318190376,-0.035329126934889765,-0.0016102521505754197,-0.21164280603798868
540,0.5288,675.667,235.455,-0.00890778,398.83,-2.65588,-1.55135,0.275972,-0.0360238,-0.238171,0.523207,-0.00302164,-0.00161565,0.430395,0.3178109648037022,0.6874305713256137,-0.003017079440468029,-0.035382664682658604,-0.0016143455401501638,-0.211932080043146
541,0.5298,675.663,235.423,-0.00204585,398.833,-2.66929,-1.54647,0.276394,-0.0360795,-0.238536,0.524019,-0.0030291,-0.00161956,0.431065,0.31836719838788086,0.6888013213987436,-0.003024516905313579,-0.03543639237190577,-0.0016182492204274146,-0.21221967234514227
542,0.5308,675.667,235.46,-0.00534614,398.833,-2.66436,-1.555,0.276815,-0.0361347,-0.238902,0.524831,-0.00303629,-0.00162364,0.431734,0.31892234782915985,0.6901731849729531,-0.0030316851332672368,-0.03548963481354195,-0.0016223226096608867,-0.21250794718754973
543,0.5318,675.653,235.417,-0.00637055,398.836,-2.67967,-1.55171,0.277235,-0.0361904,-0.239267,0.525642,-0.0030438,-0.00162758,0.432403,0.3194764115604871,0.691544471407455,-0.0030391723371974155,-0.03554335654471874,-0.001626256209960597,-0.21279532933639367
544,0.5328,675.668,235.473,-0.00238172,398.834,-2.67099,-1.55967,0.277656,-0.0362455,-0.239632,0.526453,-0.00305095,-0.00163167,0.433071,0.3200320280788247,0.6929168704063391,-0.003046300581631689,-0.03559649664175002,-0.0016303395502222928,-0.2130826066098941
545,0.5338,675.645,235.409,-0.00977715,398.838,-2.69043,-1.55634,0.278076,-0.0363012,-0.239997,0.527263,-0.00305854,-0.00163562,0.43374,0.3205865579737439,0.6942886885827255,-0.0030538674314940506,-0.03565021242088873,-0.0016342831025925042,-0.2133697790463236
546,0.5348,675.669,235.489,0.000384434,398.836,-2.67669,-1.56493,0.278496,-0.0363561,-0.240362,0.528073,-0.00306563,-0.00163972,0.434407,0.3211413208201357,0.6956616183819813,-0.0030609357545167137,-0.03570315377097344,-0.001638376393640506,-0.2136568466839407
547,0.5358,675.635,235.398,-0.0131711,398.841,-2.70213,-1.56049,0.278916,-0.0364119,-0.240726,0.528882,-0.00307333,-0.00164367,0.435074,0.32169631671585974,0.6970339636700735,-0.0030686121557571555,-0.03575696003378426,-0.0016423199142653333,-0.21394302350440664
548,0.5368,675.673,235.51,0.00349653,398.837,-2.68126,-1.5707,0.279335,-0.0364666,-0.24109,0.529691,-0.00308033,-0.00164779,0.435741,0.322250223507933,0.6984074196347119,-0.003075590651047344,-0.03580970268554573,-0.0016464331394340226,-0.21422909617546637
549,0.5378,675.624,235.381,-0.0171572,398.843,-2.71516,-1.56415,0.279754,-0.0365224,-0.241454,0.530499,-0.00308817,-0.00165173,0.436408,0.3228043624355812,0.69978028739366,-0.0030834065077784967,-0.035863503003093156,-0.001650366644738499,-0.21451506473502313
550,0.5388,675.678,235.538,0.00746555,398.838,-2.68431,-1.57702,0.280173,-0.0365769,-0.241818,0.531307,-0.00309503,-0.00165589,0.437073,0.32335873359608924,0.701154264878026,-0.00309024533215263,-0.035916047010342234,-0.001654519770574736,-0.21480092922096683
551,0.5398,675.61,235.355,-0.0222615,398.846,-2.73003,-1.56723,0.280592,-0.0366329,-0.242181,0.532114,-0.00310307,-0.0016598,0.437739,0.3239133370867835,0.7025276504563289,-0.0030982604543593473,-0.03597003420005429,-0.001658423293770972,-0.21508590475747047
552,0.5408,675.687,235.574,0.0128357,398.838,-2.68524,-1.58403,0.28101,-0.036687,-0.242545,0.532921,-0.00310974,-0.00166402,0.438404,0.3244668485375195,0.7039021448041216,-0.0031049097667865677,-0.03602218681046321,-0.0016626362863353394,-0.21537156149545844
553,0.5418,675.592,235.319,-0.0290696,398.849,-2.74743,-1.56955,0.281428,-0.0367432,-0.242907,0.533727,-0.00311805,-0.00166789,0.439069,0.32502059140440487,0.7052760435396463,-0.0031131939305656386,-0.03607636084125987,-0.0016664998444568813,-0.21565554558597555
554,0.5428,675.701,235.624,0.0202571,398.838,-2.68324,-1.59194,0.281845,-0.0367968,-0.24327,0.534532,-0.00312443,-0.00167218,0.439733,0.3255732402102882,0.706649343433742,-0.0031195540480996042,-0.036128025763686566,-0.001670782685985861,-0.21594021095303784
555,0.5438,675.569,235.267,-0.0383119,398.853,-2.76832,-1.57086,0.282263,-0.0368535,-0.243632,0.535338,-0.00313311,-0.00167598,0.440397,0.3261274456455625,0.7080254573039415,-0.0031282069328169015,-0.03618267575528378,-0.001674576329803723,-0.21622398922970576
556,0.5448,675.722,235.692,0.0305766,398.837,-2.67718,-1.60107,0.28268,-0.0369065,-0.243995,0.536142,-0.0031391,-0.00168036,0.44106,0.32668055610591273,0.7093992619670844,-0.003134178176973479,-0.03623375671981133,-0.001678948985583295,-0.21650844828917248
557,0.5458,675.659,235.557,-0.00705283,398.842,-2.70989,-1.60383,0.283097,-0.0369619,-0.244357,0.536946,-0.00314688,-0.0016845,0.441723,0.3272338972614215,0.7107741716133202,-0.0031419337628979527,-0.036287147890739946,-0.0016830820261790613,-0.21679202090115235
558,0.5468,675.646,235.475,0.00388031,398.848,-2.73644,-1.58797,0.283514,-0.0370172,-0.244718,0.53775,-0.00315464,-0.00168836,0.442385,0.3277874692083087,0.7121501871314122,-0.0031496693514778684,-0.03634043973792844,-0.0016869355220451299,-0.21707470795352413
559,0.5478,675.639,235.498,-0.00940335,398.847,-2.73377,-1.59818,0.28393,-0.0370719,-0.24508,0.538553,-0.003162,-0.00169255,0.443047,0.32833994370222674,0.7135255958843867,-0.0031570061429120333,-0.03639315047422298,-0.0016911184450221217,-0.21735807561660347
560,0.5488,675.627,235.444,-0.00623751,398.85,-2.75225,-1.592,0.284346,-0.037127,-0.245441,0.539356,-0.00316969,-0.00169653,0.443709,0.3288926480733454,0.7149021095341466,-0.0031646718360601733,-0.03644624374889871,-0.0016950917064638693,-0.21764055836010288
561,0.5498,675.64,235.504,-0.00559179,398.848,-2.74208,-1.60211,0.284762,-0.0371815,-0.245802,0.540158,-0.00317696,-0.00170072,0.44437,0.3294455824173135,0.7162780126894095,-0.0031719188025531864,-0.03649875599764263,-0.0016992745952665311,-0.21792293914573635
562,0.5508,675.617,235.431,-0.0113012,398.852,-2.76387,-1.59707,0.285177,-0.0372366,-0.246163,0.54096,-0.00318472,-0.00170473,0.445031,0.32999741683173767,0.7176550197616143,-0.003179654158450007,-0.036551843453614286,-0.0017032777731490478,-0.21820521801030413
563,0.5518,675.644,235.52,-0.00198015,398.849,-2.74794,-1.60721,0.285593,-0.037291,-0.246523,0.541761,-0.00319192,-0.00170893,0.445691,0.33055081085511584,0.7190314126041857,-0.003186831239102572,-0.03660425360776132,-0.0017074706105774107,-0.21848661347759724
564,0.5528,675.607,235.417,-0.0155409,398.854,-2.77606,-1.60146,0.286008,-0.0373461,-0.246884,0.542561,-0.0031998,-0.00171294,0.446351,0.3311031040345287,0.7204071879710408,-0.003194686095924215,-0.03665733525097481,-0.0017114737555938841,-0.21876868889245604
565,0.5538,675.649,235.541,0.00170196,398.85,-2.75247,-1.61301,0.286422,-0.0374002,-0.247244,0.543361,-0.00320689,-0.00171716,0.44701,0.3316542948082166,0.7217840643985554,-0.003201753420546072,-0.03670945067940268,-0.0017156865242857755,-0.2190498815467401
566,0.5548,675.596,235.398,-0.0200291,398.856,-2.78958,-1.60525,0.286837,-0.0374555,-0.247603,0.544161,-0.00321493,-0.00172116,0.44767,0.33220704602850715,0.7231620427679297,-0.0032097676462313762,-0.03676271917389262,-0.001719679653553352,-0.21933019232047046
567,0.5558,675.656,235.569,0.00605477,398.85,-2.75541,-1.61947,0.287251,-0.0375093,-0.247963,0.54496,-0.00322188,-0.00172542,0.448328,0.332758693928799,0.7245393994208087,-0.0032166953142725996,-0.03681453994560979,-0.0017239323186598599,-0.21961118286990144
568,0.5568,675.583,235.37,-0.0254758,398.859,-2.80497,-1.6084,0.287665,-0.0375648,-0.248322,0.545758,-0.00323012,-0.00172939,0.448987,0.33331057025860344,0.7259161311044291,-0.0032249087748636995,-0.03686799525524431,-0.0017278954667816482,-0.21989129217262293
569,0.5578,675.667,235.606,0.011688,398.85,-2.75622,-1.62666,0.288078,-0.0376182,-0.248682,0.546556,-0.00323686,-0.0017337,0.449644,0.3338613412505014,0.7272939618584042,-0.0032316270163380567,-0.036919425131107686,-0.0017321980102802392,-0.22017208076246209
570,0.5588,675.565,235.332,-0.0325199,398.862,-2.8229,-1.61075,0.288492,-0.037674,-0.24904,0.547354,-0.00324538,-0.00173764,0.450302,0.3344136741708046,0.7286728925601413,-0.0032401194466979977,-0.03697316352787017,-0.0017361311776717958,-0.22045120919057937
571,0.5598,675.682,235.657,0.0192752,398.849,-2.7541,-1.63478,0.288905,-0.0377269,-0.249399,0.548151,-0.00325183,-0.00174202,0.450958,0.3349649008387088,0.7300511940356909,-0.003246548527193749,-0.03702410630007136,-0.0017405035638417,-0.22073101697797692
572,0.5608,675.543,235.278,-0.0418902,398.865,-2.84427,-1.61208,0.289318,-0.0377831,-0.249757,0.548948,-0.00326073,-0.00174589,0.451615,0.3355163552102445,0.7314305944553869,-0.00325541959343556,-0.03707822402457506,-0.0017443668206174046,-0.22100994534274243
573,0.5618,675.559,235.349,-0.041378,398.862,-2.83132,-1.62562,0.28973,-0.0378372,-0.250115,0.549744,-0.00326816,-0.00175017,0.452271,0.33606670131210326,0.7328093618852098,-0.003262825378155476,-0.03713031668353617,-0.0017486393455842242,-0.22128877386902557
574,0.5628,675.629,235.515,-0.000270029,398.857,-2.80024,-1.63168,0.290143,-0.0378909,-0.250473,0.550539,-0.00327525,-0.00175434,0.452927,0.3366186108212139,0.7341874930624672,-0.003269892219671555,-0.037182021397246245,-0.0017528020450789938,-0.22156750259256208
575,0.5638,675.583,235.409,-0.0262551,398.861,-2.8278,-1.63009,0.290555,-0.0379457,-0.250831,0.551334,-0.00328322,-0.00175846,0.453582,0.337169411145948,0.7355667202896323,-0.0032778361269740763,-0.03723478237680966,-0.0017569148150622382,-0.22184613154907484
576,0.5648,675.643,235.562,0.0051275,398.856,-2.79888,-1.6396,0.290966,-0.0379993,-0.251188,0.552128,-0.00329033,-0.0017627,0.454237,0.3377191007274001,0.7369453074922359,-0.003284922796366052,-0.037286385209506,-0.001761147356770354,-0.222123882898546
577,0.5658,675.577,235.395,-0.026567,398.863,-2.84043,-1.63301,0.291378,-0.0380543,-0.251546,0.552923,-0.00329853,-0.00176677,0.454891,0.3382703545473891,0.7383267280536077,-0.0032930958264897336,-0.03733933300224179,-0.0017652101806328035,-0.22240231270655897
578,0.5668,675.651,235.594,0.00866728,398.855,-2.80055,-1.64718,0.291789,-0.0381076,-0.251903,0.553716,-0.00330548,-0.00177108,0.455545,0.33882049670957803,0.7397057678659724,-0.00330002291540199,-0.03739064144841053,-0.0017695125633052644,-0.22267986553479502
579,0.5678,675.565,235.365,-0.0308914,398.865,-2.85659,-1.6355,0.2922,-0.0381629,-0.252259,0.554509,-0.00331391,-0.0017751,0.456199,0.3393708650266676,0.741085901690627,-0.0033084250607937626,-0.037443872274092516,-0.0017735254417988733,-0.22295654225128703
580,0.5688,675.663,235.635,0.0139314,398.854,-2.80047,-1.65511,0.292611,-0.0382158,-0.252616,0.555301,-0.00332063,-0.00177947,0.456852,0.339921459591626,0.742465387929208,-0.003315122805672921,-0.03749479014645962,-0.0017778876819611877,-0.2232338972548895
581,0.5698,675.547,235.321,-0.037829,398.867,-2.87567,-1.63735,0.293021,-0.0382713,-0.252972,0.556094,-0.00332938,-0.00178344,0.457505,0.3404709400258503,0.7438477110004942,-0.003323843760194123,-0.03754820770325562,-0.0017818506158806535,-0.2235103767711928
582,0.5708,675.68,235.689,0.0217156,398.853,-2.79732,-1.66386,0.293431,-0.0383237,-0.253328,0.556885,-0.00333577,-0.0017879,0.458157,0.34102064579324276,0.7452276402299562,-0.0033302125004843752,-0.03759863885586423,-0.0017863026588988973,-0.22378675787830626
583,0.5718,675.624,235.567,-0.0125673,398.857,-2.82722,-1.66702,0.293841,-0.0383782,-0.253684,0.557676,-0.00334376,-0.00179216,0.458809,0.34157057698620896,0.7466086614152503,-0.0033381758602728517,-0.03765108830078623,-0.0017905550401919879,-0.22406304061125726
584,0.5728,675.617,235.504,-0.000159934,398.862,-2.8492,-1.65351,0.294251,-0.0384325,-0.25404,0.558466,-0.00335167,-0.00179617,0.459461,0.3421207336971921,0.7479890274305538,-0.0033460594241222497,-0.037703342427979125,-0.0017945578520406347,-0.22433922500506065
585,0.5738,675.609,235.515,-0.0138844,398.861,-2.84948,-1.66247,0.29466,-0.0384864,-0.254395,0.559256,-0.00335929,-0.00180047,0.460112,0.34266977334822935,0.7493704843658662,-0.0033536538982144037,-0.03775520882001038,-0.0017988501262135026,-0.2246145357096424
586,0.5748,675.603,235.478,-0.00879215,398.863,-2.86383,-1.65803,0.295069,-0.0385406,-0.25475,0.560046,-0.00336714,-0.00180459,0.460762,0.343219037602412,0.7507530330833547,-0.003361477541323432,-0.03780736107435356,-0.001802962706479061,-0.2248897486962701
587,0.5758,675.61,235.517,-0.0107453,398.861,-2.85864,-1.66649,0.295478,-0.0385943,-0.255105,0.560835,-0.0033747,-0.00180889,0.461413,0.3437685265516215,0.7521349223100693,-0.003369012100072566,-0.03785902943175601,-0.0018072549445110608,-0.22516486399962732
588,0.5768,675.596,235.469,-0.0128595,398.864,-2.87471,-1.66348,0.295887,-0.0386484,-0.25546,0.561624,-0.0033826,-0.00181304,0.462063,0.34431824028777713,0.7535179022776248,-0.003376885453777234,-0.03791107985028719,-0.0018113974358073825,-0.22543988165438544
589,0.5778,675.613,235.526,-0.00815651,398.862,-2.86593,-1.6715,0.296295,-0.038702,-0.255814,0.562412,-0.00339012,-0.00181734,0.462712,0.3448668340353289,0.7549002189458585,-0.003384380031418943,-0.037962646434410496,-0.0018156896375701725,-0.2257140274096182
590,0.5788,675.591,235.46,-0.0159423,398.865,-2.88583,-1.6684,0.296703,-0.0387561,-0.256168,0.563199,-0.00339809,-0.00182151,0.463361,0.3454156516547966,0.7562818690261628,-0.003392323026257249,-0.03801469124741352,-0.0018198520574657095,-0.22598807613442906
591,0.5798,675.617,235.538,-0.00582144,398.862,-2.87242,-1.67705,0.297111,-0.0388095,-0.256522,0.563986,-0.00340556,-0.00182582,0.46401,0.3459646932375382,0.7576646068930681,-0.0033997676577984803,-0.038066059891345816,-0.0018241542046322223,-0.22626202786316052
592,0.5808,675.584,235.448,-0.0189134,398.866,-2.8977,-1.67291,0.297518,-0.0388637,-0.256876,0.564773,-0.00341364,-0.00182998,0.464658,0.3465126123616642,0.7590484334029997,-0.003407820155143626,-0.03811819529801752,-0.0018283066075136523,-0.22653588263014335
593,0.5818,675.621,235.554,-0.00328189,398.861,-2.87802,-1.68304,0.297925,-0.0389169,-0.25723,0.565559,-0.00342103,-0.00183432,0.465306,0.347060754534261,0.7604315889805875,-0.0034151849441398374,-0.038169366048873554,-0.0018326386632624425,-0.22680964046969587
594,0.5828,675.577,235.431,-0.0222824,398.867,-2.91063,-1.67701,0.298333,-0.0389712,-0.257583,0.566345,-0.00342923,-0.00183848,0.465953,0.3476104674559213,0.7618158321458253,-0.003423356906118169,-0.03822159203434883,-0.0018367910308486612,-0.2270825284990392
595,0.5838,675.628,235.575,-0.000143511,398.861,-2.88245,-1.68947,0.298739,-0.0390242,-0.257936,0.56713,-0.0034365,-0.00184284,0.4666,0.34815770838810045,0.7631994005536107,-0.0034306019919775332,-0.03827256493917708,-0.001841143012952462,-0.22735532021590832
596,0.5848,675.567,235.408,-0.0264385,398.868,-2.92494,-1.68067,0.299146,-0.0390786,-0.258289,0.567914,-0.00344488,-0.00184698,0.467247,0.34870652025105286,0.7645822909058293,-0.003438953208541151,-0.03832488148862134,-0.001845275382066358,-0.22762801565429558
597,0.5858,675.637,235.603,0.00397591,398.86,-2.88531,-1.69644,0.299552,-0.0391313,-0.258641,0.568698,-0.00345199,-0.0018514,0.467893,0.34925420627101356,0.7659662658691961,-0.003446038732394796,-0.038375560431964995,-0.0018496872161990474,-0.2278998427484099
598,0.5868,675.555,235.377,-0.0317751,398.869,-2.94111,-1.68377,0.299958,-0.0391859,-0.258994,0.569482,-0.00346059,-0.0018555,0.468539,0.3498021146966437,0.7673513262943796,-0.0034546090596092593,-0.038428063693013326,-0.0018537796240920557,-0.2281723460042654
599,0.5878,675.65,235.64,0.00949912,398.859,-2.88609,-1.70407,0.300363,-0.0392382,-0.259346,0.570265,-0.00346749,-0.00185998,0.469184,0.35034889526868795,0.7687357042961267,-0.003461485199084069,-0.038478352590216036,-0.0018582513091427444,-0.2284439815278151
600,0.5888,675.539,235.335,-0.0387538,398.871,-2.95975,-1.68614,0.300769,-0.0392932,-0.259698,0.571048,-0.00347638,-0.00186403,0.469829,0.3508972482282855,0.7701211666903336,-0.003470344387101476,-0.038531234826548744,-0.0018622937750388813,-0.22871552145248675
601,0.5898,675.667,235.69,0.0169425,398.857,-2.88406,-1.71256,0.301174,-0.039345,-0.26005,0.57183,-0.00348297,-0.00186858,0.470473,0.3514444724192367,0.7715059428195832,-0.0034769114958933534,-0.03858103761868126,-0.0018668352912702968,-0.22898696581192546
602,0.5908,675.614,235.57,-0.0156472,398.861,-2.91356,-1.71541,0.301579,-0.0393988,-0.260401,0.572612,-0.00349112,-0.00187293,0.471117,0.3519919182808706,0.7728918022672886,-0.0034850331259689282,-0.03863276056749765,-0.001871177161093196,-0.22925754389769348
603,0.5918,675.608,235.512,-0.00333964,398.864,-2.93444,-1.70277,0.301984,-0.0394525,-0.260752,0.573393,-0.00349918,-0.00187704,0.471761,0.35253958590298184,0.7742769716030766,-0.003493065004233409,-0.03868438460213741,-0.0018752794621248459,-0.2295280270272192
604,0.5928,675.6,235.519,-0.0167048,398.863,-2.93565,-1.71126,0.302388,-0.0395058,-0.261103,0.574174,-0.00350698,-0.00188143,0.472404,0.3530861222886028,0.7756632231786755,-0.0035008377280126846,-0.038735621358966354,-0.0018796612200300267,-0.22979841523382638
605,0.5938,675.596,235.487,-0.0114392,398.865,-2.94891,-1.70747,0.302792,-0.0395593,-0.261454,0.574954,-0.00351498,-0.00188565,0.473047,0.3536328795195316,0.7770487807899755,-0.0035088096894230203,-0.03878704762755869,-0.0018838732789722146,-0.23006870855082717
606,0.5948,675.602,235.519,-0.0138515,398.863,-2.94521,-1.7154,0.303196,-0.0396125,-0.261805,0.575734,-0.00352273,-0.00189004,0.47369,0.35417985768500726,0.7784354195578085,-0.0035165324662220776,-0.038838182796417375,-0.0018882549991506847,-0.23033890701152182
607,0.5958,675.591,235.478,-0.0151566,398.865,-2.95973,-1.71309,0.3036,-0.039666,-0.262155,0.576513,-0.00353076,-0.00189429,0.474332,0.3547270568743055,0.7798213605035555,-0.0035245341963394683,-0.03888960357811966,-0.0018924969650526702,-0.2306082412578253
608,0.5968,675.605,235.525,-0.0116344,398.863,-2.95308,-1.72049,0.304003,-0.039719,-0.262505,0.577292,-0.00353849,-0.00189867,0.474974,0.3552731219029388,0.7812083815179309,-0.003532236921919063,-0.03894054107927425,-0.0018968686663419776,-0.23087748125363727
609,0.5978,675.587,235.469,-0.0178561,398.865,-2.97066,-1.71824,0.304406,-0.0397725,-0.262855,0.57807,-0.00354659,-0.00190295,0.475615,0.35581940704012727,0.7825947008470444,-0.003540308278110915,-0.038991956384954896,-0.0019011405386022417,-0.23114662703193978
610,0.5988,675.609,235.534,-0.00975297,398.862,-2.9603,-1.72605,0.304809,-0.0398254,-0.263205,0.578848,-0.00355427,-0.00190734,0.476256,0.3563659123745928,0.7839820991522635,-0.003547961059156668,-0.03904279236583852,-0.0019055221829775704,-0.23141567862570311
611,0.5998,675.583,235.458,-0.0203439,398.865,-2.98217,-1.72304,0.305212,-0.0398789,-0.263554,0.579625,-0.00356246,-0.00191161,0.476896,0.3569126379950929,0.7853687919036731,-0.003556121967936643,-0.03909420220122162,-0.0019097840372988006,-0.231683867752138
612,0.6008,675.614,235.546,-0.00780323,398.862,-2.96686,-1.73199,0.305614,-0.0399316,-0.263903,0.580402,-0.00357008,-0.00191603,0.477536,0.3574582265315154,0.7867565625340525,-0.003563714841358312,-0.03914484060243195,-0.0019141955863037907,-0.23195196329689882
613,0.6018,675.578,235.444,-0.0230666,398.865,-2.99447,-1.72752,0.306016,-0.0399852,-0.264252,0.581178,-0.00357838,-0.0019203,0.478176,0.35800403443861994,0.7881436237367208,-0.003571985228203012,-0.03919634105875114,-0.0019184574035896462,-0.23221996529263966
614,0.6028,675.62,235.561,-0.00545637,398.861,-2.97255,-1.73827,0.306418,-0.0400377,-0.264601,0.581954,-0.00358591,-0.00192474,0.478815,0.3585500618046116,0.7895317617166182,-0.0035794883029051094,-0.03924678192676123,-0.0019228888758009433,-0.23248787377200353
615,0.6038,675.572,235.426,-0.0263292,398.866,-3.00782,-1.73166,0.30682,-0.0400913,-0.26495,0.58273,-0.00359435,-0.001929,0.479454,0.35909630871773013,0.7909209773096477,-0.0035878980565345886,-0.03929827691917176,-0.001927140675238026,-0.2327556887676221
616,0.6048,675.628,235.581,-0.00242595,398.859,-2.9771,-1.74496,0.307221,-0.0401436,-0.265298,0.583504,-0.00360177,-0.00193348,0.480093,0.3596414156241563,0.7923076867334036,-0.003595291406901624,-0.039348520305412915,-0.0019316120316319463,-0.2330226433351421
617,0.6058,675.564,235.401,-0.0304249,398.866,-3.02252,-1.73539,0.307622,-0.0401974,-0.265646,0.584279,-0.00361037,-0.00193771,0.480731,0.36018674116228455,0.7936972635820996,-0.0036038604505486127,-0.03940020196477134,-0.0019358338519838147,-0.23328950501863532
618,0.6068,675.639,235.608,0.00159174,398.858,-2.98014,-1.75215,0.308023,-0.0402494,-0.265994,0.585053,-0.00361763,-0.00194224,0.481369,0.36073228541980384,0.7950861226832484,-0.003611094260262959,-0.03945015185556078,-0.0019403550724159668,-0.23355627385041988
619,0.6078,675.553,235.368,-0.0356719,398.867,-3.039,-1.73859,0.308424,-0.0403034,-0.266342,0.585827,-0.00362646,-0.00194644,0.482006,0.36127804848443845,0.7964760571774647,-0.00361989233545712,-0.03950202014690418,-0.0019445469141217142,-0.2338229498628025
620,0.6088,675.652,235.644,0.00694807,398.855,-2.9812,-1.75996,0.308824,-0.040355,-0.266689,0.586599,-0.0036335,-0.00195103,0.482643,0.36182266862059786,0.7978634721668851,-0.0036269068267240634,-0.03955158056399477,-0.0019491279781378434,-0.23408876717722882
621,0.6098,675.539,235.326,-0.0424595,398.868,-3.05781,-1.74111,0.309224,-0.0404094,-0.267036,0.587372,-0.00364262,-0.00195519,0.48328,0.3623675066483871,0.7992537579070809,-0.003635993707897578,-0.03960382753688152,-0.0019532798611295865,-0.2343544922690486
622,0.6108,675.67,235.691,0.0140861,398.853,-2.97964,-1.76859,0.309624,-0.0404605,-0.267384,0.588144,-0.00364936,-0.00195985,0.483915,0.3629125626549803,0.8006433181094101,-0.0036427091786688237,-0.03965290252741771,-0.0019579307480088737,-0.23462089054974966
623,0.6118,675.617,235.568,-0.0182356,398.857,-3.0101,-1.77093,0.310023,-0.0405137,-0.26773,0.588916,-0.00365771,-0.0019643,0.484551,0.3634564732704315,0.8020339514664001,-0.0036510287273129327,-0.03970399163402105,-0.001962372025335113,-0.2348856659128402
624,0.6128,675.611,235.507,-0.00687228,398.86,-3.03142,-1.75861,0.310423,-0.0405668,-0.268077,0.589687,-0.00366596,-0.00196852,0.485187,0.3640019649508026,0.8034238553820889,-0.0036592485724190604,-0.03975498199825911,-0.001966583735238503,-0.23515111452877002
625,0.6138,675.604,235.513,-0.0196327,398.858,-3.03284,-1.76695,0.310822,-0.0406194,-0.268423,0.590458,-0.00367396,-0.00197301,0.485821,0.36454631032449836,0.804814831326911,-0.003667219266547672,-0.039805489557845464,-0.001971064895217367,-0.23541570646609822
626,0.6148,675.6,235.48,-0.0148741,398.86,-3.04623,-1.76342,0.311221,-0.0406723,-0.268769,0.591228,-0.00368214,-0.00197734,0.486456,0.36509087293533415,0.8062050739217419,-0.0036753692353606038,-0.03985628250396267,-0.0019753863511503544,-0.2356802068704522
627,0.6158,675.607,235.511,-0.0169857,398.858,-3.04276,-1.77125,0.311619,-0.0407248,-0.269115,0.591998,-0.00369008,-0.00198183,0.48709,0.36563428723503466,0.8075963874156145,-0.003683280021523072,-0.03990668872595626,-0.001979867471605501,-0.235944615773497
628,0.6168,675.597,235.47,-0.0184519,398.859,-3.05724,-1.76918,0.312018,-0.0407777,-0.269461,0.592767,-0.00369831,-0.0019862,0.487724,0.3661792840352729,0.8089869636455698,-0.003691479674386877,-0.039957476318778995,-0.001984228810055111,-0.23620893320688652
629,0.6178,675.612,235.516,-0.0149614,398.857,-3.05101,-1.7765,0.312416,-0.04083,-0.269806,0.593536,-0.00370623,-0.00199068,0.488357,0.3667231316088071,0.8103786096399175,-0.0036993704066204947,-0.04000768522979303,-0.0019886999106948355,-0.23647239567504108
630,0.6188,675.595,235.461,-0.0209925,398.858,-3.06831,-1.7745,0.312814,-0.0408829,-0.270152,0.594304,-0.00371451,-0.00199506,0.48899,0.36726719567675503,0.8117695144512029,-0.0037076197416812118,-0.04005846748004205,-0.0019930711906160914,-0.2367365305281729
631,0.6198,675.616,235.522,-0.013293,398.855,-3.05868,-1.78219,0.313211,-0.0409351,-0.270497,0.595072,-0.00372239,-0.00199956,0.489623,0.36781010851450624,0.8131614878876827,-0.003715470494705664,-0.040108575120218815,-0.0019975622116908953,-0.2369998110066467
632,0.6208,675.592,235.45,-0.0232837,398.858,-3.07988,-1.7795,0.313609,-0.040988,-0.270841,0.595839,-0.00373076,-0.00200395,0.490255,0.368354605285365,0.814552716216753,-0.003723809361319441,-0.04015935203353371,-0.0020019434327760433,-0.23726223793164147
633,0.6218,675.622,235.531,-0.0116116,398.854,-3.06578,-1.78822,0.314006,-0.0410401,-0.271186,0.596606,-0.00373859,-0.00200846,0.490887,0.368897949910435,0.8159450120272786,-0.0037316101733518847,-0.04020935842861484,-0.0020064443938614396,-0.2375253370723437
634,0.6228,675.589,235.436,-0.0257385,398.857,-3.09212,-1.78423,0.314403,-0.041093,-0.27153,0.597373,-0.00374706,-0.00201285,0.491518,0.3694415102861448,0.8173383761383317,-0.0037400485308772824,-0.04026013001063378,-0.0020108255759538896,-0.23778758324746252
635,0.6238,675.629,235.543,-0.00962251,398.852,-3.07215,-1.79456,0.314799,-0.041145,-0.271875,0.598138,-0.00375482,-0.00201739,0.492149,0.369983916513563,0.818729171907632,-0.0037477794781045626,-0.040310035186327475,-0.002015356436520732,-0.2380505011752918
636,0.6248,675.585,235.418,-0.0286207,398.856,-3.10524,-1.78866,0.315196,-0.041198,-0.272218,0.598904,-0.0037634,-0.00202177,0.49278,0.3705279081036046,0.8201228521647057,-0.0037563272854864715,-0.04036089740660187,-0.002019727599686605,-0.2383118050372145
637,0.6258,675.637,235.56,-0.00709096,398.85,-3.07759,-1.80124,0.315592,-0.0412497,-0.272562,0.599669,-0.00377106,-0.00202634,0.49341,0.3710707446297521,0.8215157788731464,-0.0037639584827919847,-0.04041050946572311,-0.0020242883591101712,-0.2385737807138819
638,0.6268,675.579,235.395,-0.0321662,398.856,-3.11948,-1.79275,0.315988,-0.0413028,-0.272906,0.600434,-0.0037798,-0.0020307,0.49404,0.3716137961617323,0.822909771578211,-0.0037726655477449134,-0.040461462314860364,-0.002028639523727338,-0.23883566628641528
639,0.6278,675.647,235.581,-0.00377197,398.848,-3.0818,-1.80834,0.316383,-0.0413542,-0.273249,0.601197,-0.00378732,-0.00203532,0.494669,0.37215569062832743,0.8243011824896846,-0.003780157149131491,-0.04051078132818786,-0.002033250140762277,-0.2390967008828866
640,0.6288,675.571,235.366,-0.0366259,398.856,-3.13517,-1.79642,0.316779,-0.0414075,-0.273592,0.601961,-0.00379626,-0.00203965,0.495299,0.3726991718840027,0.8256954811473736,-0.003789063314715957,-0.04056192074066567,-0.0020375713274337626,-0.23935764595984466
641,0.6298,675.66,235.61,0.00059778,398.845,-3.08442,-1.81594,0.317174,-0.0414587,-0.273935,0.602724,-0.0038036,-0.00204433,0.495927,0.3732414951586924,0.827089018366332,-0.0037963754761555224,-0.04061104271279048,-0.002042241780671028,-0.2396185015479897
642,0.6308,675.561,235.329,-0.0422889,398.856,-3.15272,-1.79954,0.317569,-0.0415122,-0.274277,0.603487,-0.00381279,-0.00204862,0.496556,0.373784032693389,0.8284836192599285,-0.00380553054539734,-0.040662368649024394,-0.00204652301027064,-0.23987850755689843
643,0.6318,675.676,235.647,0.00634866,398.842,-3.08498,-1.82421,0.317963,-0.0415629,-0.27462,0.604249,-0.00381988,-0.00205336,0.497183,0.3743254102466447,0.8298774547616872,-0.003812593539147424,-0.040711005833970804,-0.002051253298540723,-0.24013918452015148
644,0.6328,675.547,235.281,-0.0495132,398.856,-3.17267,-1.80196,0.318358,-0.0416168,-0.274962,0.605011,-0.00382939,-0.0020576,0.497811,0.3748683760123712,0.8312723527708621,-0.0038220672363353803,-0.04076271011731336,-0.0020554845922563514,-0.24039901248593099
645,0.6338,675.697,235.696,0.0138923,398.838,-3.08286,-1.83331,0.318752,-0.041667,-0.275304,0.605772,-0.00383616,-0.00206242,0.498438,0.37541018088107014,0.8326664814299947,-0.0038288113381113043,-0.04081086262062761,-0.0020602946732283245,-0.24065875160573957
646,0.6348,675.64,235.558,-0.0199807,398.842,-3.1168,-1.83447,0.319146,-0.0417196,-0.275646,0.606533,-0.00384476,-0.00206698,0.499065,0.3759521992629469,0.8340616714248241,-0.0038373783734955147,-0.040861314642353874,-0.0020648452679092877,-0.2409184019099576
647,0.6358,675.63,235.484,-0.0107949,398.846,-3.14105,-1.82155,0.319539,-0.0417721,-0.275988,0.607294,-0.00385327,-0.00207131,0.499691,0.3764930547483989,0.8354579235633339,-0.0038458556813345535,-0.04091166810154534,-0.002069166317774207,-0.2411779634289547
648,0.6368,675.625,235.494,-0.0225789,398.844,-3.14166,-1.83018,0.319933,-0.041824,-0.276329,0.608054,-0.00386146,-0.00207592,0.500317,0.37703549986664076,0.8368534017998028,-0.0038540141503675684,-0.04096144349428821,-0.00207376676831339,-0.2414366776301472
649,0.6378,675.62,235.452,-0.0192917,398.845,-3.15693,-1.82634,0.320326,-0.0418763,-0.27667,0.608813,-0.00386989,-0.00208038,0.500943,0.3775767811728983,0.838248102753826,-0.0038624116256328334,-0.04101159989919201,-0.0020782175093885247,-0.24169530362483715
650,0.6388,675.63,235.49,-0.020064,398.842,-3.15194,-1.83468,0.320719,-0.0419281,-0.277011,0.609572,-0.00387802,-0.00208499,0.501568,0.3781182752445149,0.839643862687705,-0.003870510191305687,-0.04106127421174144,-0.0020828179182018625,-0.24195384144309773
651,0.6398,675.617,235.44,-0.02299,398.843,-3.1685,-1.8322,0.321112,-0.0419803,-0.277352,0.610331,-0.00388649,-0.00208947,0.502193,0.37865998216512375,0.841040682405511,-0.0038789473723528367,-0.0411113295067731,-0.0020872885771632266,-0.2422122911149922
652,0.6408,675.636,235.494,-0.0180316,398.84,-3.16034,-1.84018,0.321504,-0.042032,-0.277692,0.611089,-0.00389459,-0.00209408,0.502818,0.37920052281717864,0.842436720274284,-0.0038870159202014642,-0.04116090276955764,-0.002091888944159015,-0.24246989514084716
653,0.6418,675.616,235.429,-0.0256191,398.842,-3.18007,-1.83762,0.321896,-0.0420843,-0.278033,0.611846,-0.00390313,-0.00209858,0.503442,0.3797412754027052,0.8438319729080246,-0.003895522688761588,-0.04121104874301418,-0.0020963795205549696,-0.24272816886843085
654,0.6428,675.642,235.5,-0.0163237,398.838,-3.16813,-1.84613,0.322288,-0.0421358,-0.278373,0.612603,-0.00391119,-0.0021032,0.504065,0.3802822400047978,0.8452282821478838,-0.0039035512584935095,-0.04126042510255179,-0.002100989824631805,-0.24298559752566395
655,0.6438,675.615,235.415,-0.0280098,398.84,-3.19216,-1.84272,0.32268,-0.0421881,-0.278713,0.61336,-0.00391981,-0.0021077,0.504689,0.38082341670658315,0.8466256487940154,-0.003912137572874563,-0.04131056587112636,-0.0021054803600738525,-0.24324293867203128
656,0.6448,675.65,235.509,-0.0145802,398.835,-3.17533,-1.85243,0.323072,-0.0422395,-0.279052,0.614116,-0.00392781,-0.00211235,0.505312,0.3813648055912209,0.8480222256240291,-0.003920106243899268,-0.041359841241652706,-0.0021101205588017757,-0.24349943583709555
657,0.6458,675.613,235.398,-0.0305726,398.839,-3.20493,-1.84754,0.323463,-0.0422918,-0.279392,0.614872,-0.00393655,-0.00211685,0.505934,0.38190502483618705,0.8494198586653239,-0.003928811944126753,-0.041409976810899196,-0.0021146110531555795,-0.24375660230813345
658,0.6468,675.658,235.52,-0.0125282,398.833,-3.18179,-1.85903,0.323854,-0.042343,-0.279731,0.615627,-0.00394447,-0.00212152,0.506556,0.382445455348178,0.8508166978990743,-0.00393670079669628,-0.04145905536366479,-0.0021192711670405817,-0.24401292537073727
659,0.6478,675.61,235.378,-0.0335682,398.837,-3.21859,-1.85208,0.324245,-0.0423955,-0.28007,0.616382,-0.00395333,-0.00212601,0.507178,0.38298609720981514,0.8522145921446629,-0.003945525878431999,-0.041509377442292106,-0.0021237516414543967,-0.24426916155454947
660,0.6488,675.668,235.536,-0.00993931,398.83,-3.18733,-1.86597,0.324635,-0.0424464,-0.280409,0.617137,-0.00396115,-0.00213072,0.5078,0.38352556697749396,0.8536135421989246,-0.003953314993964119,-0.04155816337336782,-0.0021284516275157372,-0.2445253108890172
661,0.6498,675.605,235.353,-0.0372001,398.836,-3.23334,-1.85628,0.325026,-0.042499,-0.280747,0.617891,-0.00397018,-0.00213519,0.508421,0.38406663124535334,0.8550116938466743,-0.003962309254920582,-0.04160857608810831,-0.0021329121033677456,-0.2447806181845732
662,0.6508,675.68,235.556,-0.00659806,398.827,-3.19168,-1.87332,0.325416,-0.0425497,-0.281086,0.618644,-0.00397785,-0.00213995,0.509041,0.38460652250349114,0.8564090436883305,-0.003969948834710801,-0.04165716530155372,-0.0021376619394015695,-0.24503659416462853
663,0.6518,675.599,235.322,-0.0417039,398.835,-3.2495,-1.86006,0.325806,-0.0426025,-0.281424,0.619397,-0.00398708,-0.00214439,0.509662,0.3851466243602839,0.8578074461306717,-0.003979142149655779,-0.0417077644673961,-0.002142092438346843,-0.24529172867563953
664,0.6528,675.695,235.584,-0.00226619,398.823,-3.1945,-1.88117,0.326195,-0.0426528,-0.281762,0.62015,-0.00399456,-0.0021492,0.510282,0.38568555121163683,0.8592069019666051,-0.003986592357808738,-0.041755965354580926,-0.0021468921233389615,-0.245546776965758
665,0.6538,675.59,235.283,-0.0473247,398.834,-3.26744,-1.86333,0.326585,-0.0427059,-0.2821,0.620902,-0.00400404,-0.0021536,0.510902,0.3862260739716963,0.8606055513831528,-0.003996034520157288,-0.04180684676190727,-0.002151282667354315,-0.24580173906412173
666,0.6548,675.712,235.62,0.00333926,398.819,-3.19539,-1.88965,0.326974,-0.0427558,-0.282438,0.621653,-0.00401128,-0.00215848,0.51152,0.38676542081063037,0.86200339097531,-0.0040032455627633245,-0.04185465940731836,-0.0021561521572134312,-0.24605661499985831
667,0.6558,675.664,235.502,-0.0261859,398.822,-3.22486,-1.89174,0.327363,-0.0428078,-0.282775,0.622405,-0.00402004,-0.00216315,0.512139,0.3873049774962971,0.8634041441425031,-0.00401197045611712,-0.041904481669639115,-0.002160812077101837,-0.24631065111311412
668,0.6568,675.662,235.449,-0.0151066,398.824,-3.24397,-1.88126,0.327752,-0.0428596,-0.283112,0.623156,-0.00402867,-0.00216763,0.512758,0.3878447441103432,0.8648040862672248,-0.0040205657957231855,-0.04195410973211078,-0.002165282386650258,-0.24656460163062333
669,0.6578,675.655,235.448,-0.0272045,398.822,-3.24722,-1.88876,0.32814,-0.042911,-0.283449,0.623906,-0.00403711,-0.00217234,0.513376,0.3883833323504198,0.866203213939218,-0.004028971826674277,-0.042003352025332785,-0.002169982177102181,-0.24681846658122708
670,0.6588,675.656,235.423,-0.0221653,398.822,-3.25862,-1.88654,0.328528,-0.0429626,-0.283786,0.624656,-0.00404568,-0.00217692,0.513994,0.38892212960327943,0.8676033913505683,-0.004037507261811402,-0.042052783377028446,-0.002174552228118465,-0.24707224599375643
671,0.6598,675.66,235.442,-0.025077,398.819,-3.25801,-1.89342,0.328916,-0.043014,-0.284122,0.625405,-0.00405408,-0.00218163,0.514611,0.3894611359500346,0.8690027502851907,-0.00404587331161288,-0.04210202059855539,-0.002179251974909535,-0.24732518722259633
672,0.6608,675.656,235.413,-0.0251669,398.819,-3.26974,-1.8927,0.329304,-0.0430655,-0.284459,0.626154,-0.00406267,-0.00218624,0.515228,0.39000035147182976,0.8704031577322742,-0.0040544285208165,-0.042151351074223964,-0.0021838519179550042,-0.2475787958990402
673,0.6618,675.667,235.441,-0.0236741,398.817,-3.26741,-1.89892,0.329691,-0.0431168,-0.284795,0.626903,-0.00407106,-0.00219095,0.515844,0.3905383857107596,0.8718046144774485,-0.004062784469107905,-0.04220048744955496,-0.0021885516209446676,-0.24783156695570252
674,0.6628,675.658,235.404,-0.0271311,398.817,-3.28076,-1.89851,0.330079,-0.0431683,-0.285131,0.627651,-0.00407971,-0.00219558,0.516461,0.3910780192865593,0.8732052481007475,-0.0040713992887631,-0.042249812854311286,-0.0021931714772557287,-0.2480842530955567
675,0.6638,675.673,235.441,-0.0227125,398.814,-3.27646,-1.90479,0.330466,-0.0432194,-0.285466,0.628399,-0.00408809,-0.0022003,0.517076,0.39161647066364424,0.874606929789925,-0.004079745135467938,-0.042298752638452286,-0.0021978811143715804,-0.24833610268360828
676,0.6648,675.66,235.393,-0.0287344,398.814,-3.29203,-1.90411,0.330853,-0.043271,-0.285802,0.629146,-0.00409679,-0.00220494,0.517692,0.3921551304617392,0.8760077843205043,-0.004088409603994814,-0.04234816874786951,-0.002202510905462085,-0.24858861932793475
677,0.6658,675.68,235.443,-0.0218915,398.811,-3.28522,-1.91089,0.331239,-0.043322,-0.286137,0.629893,-0.00410514,-0.00220967,0.518307,0.3926926060682161,0.8774096856803604,-0.004096725431055992,-0.04239700774585842,-0.0022072304764236828,-0.24884029998159662
678,0.6668,675.661,235.382,-0.0303151,398.812,-3.30366,-1.90953,0.331626,-0.0433736,-0.286472,0.630639,-0.00411391,-0.00221432,0.518922,0.3932316824113087,0.8788107558400708,-0.0041054594644751585,-0.04244641878544286,-0.002211870202014632,-0.24909189633636042
679,0.6678,675.687,235.446,-0.0210055,398.807,-3.29365,-1.91718,0.332012,-0.0434245,-0.286807,0.631385,-0.00412224,-0.00221907,0.519536,0.39376957364704923,0.8802128715880766,-0.004113755231445859,-0.04249515702232809,-0.0022166096843748706,-0.24934340842046143
680,0.6688,675.663,235.369,-0.0320397,398.809,-3.31573,-1.91481,0.332398,-0.043476,-0.287142,0.63213,-0.00413108,-0.00222372,0.52015,0.3943076725488841,0.8816141520895844,-0.004122558826937683,-0.042544467251992124,-0.0022212493663525956,-0.24959483626212575
681,0.6698,675.695,235.45,-0.0199063,398.804,-3.30166,-1.92365,0.332783,-0.0435268,-0.287476,0.632875,-0.00413936,-0.00222849,0.520764,0.39484458435170544,0.8830164769340352,-0.004130804658012854,-0.042593104757652656,-0.002226008759641962,-0.2498454297353746
682,0.6708,675.664,235.353,-0.0340445,398.806,-3.32833,-1.91992,0.333169,-0.0435784,-0.28781,0.63362,-0.00414829,-0.00223314,0.521377,0.3953830982877684,0.8844198468997544,-0.004139697730219605,-0.042642505678892384,-0.0022306483979140923,-0.25009593952437936
683,0.6718,675.704,235.457,-0.0184789,398.801,-3.30912,-1.93033,0.333554,-0.0436291,-0.288145,0.634364,-0.00415652,-0.00223794,0.52199,0.39592042420921203,0.8858223769423279,-0.004147893626781141,-0.04269104247343636,-0.0022354376793074504,-0.2503471153103456
684,0.6728,675.664,235.334,-0.0364239,398.804,-3.34159,-1.92485,0.333939,-0.0436807,-0.288478,0.635108,-0.00416556,-0.00224258,0.522602,0.396457957040963,0.8872259508555247,-0.004156896089131501,-0.04274043834122032,-0.002240067296135906,-0.2505967081614311
685,0.6738,675.714,235.467,-0.0166263,398.797,-3.31591,-1.93725,0.334323,-0.0437312,-0.288812,0.635851,-0.0041737,-0.00224741,0.523215,0.39699429986769874,0.8886286807866486,-0.004165002219005398,-0.04278877872847908,-0.002244886464972562,-0.2508469670653417
686,0.6748,675.662,235.312,-0.0393007,398.801,-3.35568,-1.92955,0.334708,-0.0437829,-0.289145,0.636593,-0.00418288,-0.00225204,0.523826,0.39753224622117633,0.8900305633018863,-0.004174143942324404,-0.042838265269380726,-0.002249506060453821,-0.25109639349350377
687,0.6758,675.726,235.48,-0.0142064,398.793,-3.32184,-1.94447,0.335092,-0.0438332,-0.289479,0.637336,-0.00419091,-0.00225691,0.524438,0.3980690016541726,0.8914353778343913,-0.004182140391842837,-0.04288640929380527,-0.0022543650935276105,-0.25134648553038186
688,0.6768,675.66,235.285,-0.0428121,398.799,-3.37079,-1.93396,0.335477,-0.0438851,-0.289812,0.638078,-0.00420025,-0.00226152,0.525049,0.3986073618474968,0.8928393436916631,-0.004191441287216269,-0.04293608220013989,-0.0022589646903024008,-0.2515957456465876
689,0.6778,675.739,235.499,-0.0110883,398.788,-3.32669,-1.95205,0.33586,-0.043935,-0.290145,0.638819,-0.00420814,-0.00226644,0.525659,0.3991431310603393,0.8942424574347785,-0.004199298185749045,-0.042983838498108495,-0.002263873564120278,-0.2518449227729931
690,0.6788,675.656,235.253,-0.0471111,398.797,-3.38717,-1.938,0.336244,-0.0439872,-0.290477,0.63956,-0.00421769,-0.00227102,0.52627,0.3996805051918966,0.8956466112704844,-0.004208808037041711,-0.0430337934379037,-0.0022684431851149878,-0.2520932690308725
691,0.6798,675.755,235.523,-0.00708686,398.784,-3.33018,-1.96007,0.336627,-0.0440368,-0.29081,0.6403,-0.0042254,-0.00227599,0.52688,0.4002166854973592,0.8970499089189172,-0.004216485557534844,-0.04308125778462357,-0.002273401898629901,-0.25234228050957297
692,0.6808,675.649,235.214,-0.0523837,398.795,-3.40512,-1.94159,0.337011,-0.0440891,-0.291142,0.641041,-0.00423519,-0.00228054,0.52749,0.4007544719529814,0.8984561438471221,-0.004226234230421455,-0.043131303326139125,-0.0022779415443235917,-0.2525904616720912
693,0.6818,675.774,235.554,-0.00198143,398.779,-3.33198,-1.96866,0.337393,-0.0441384,-0.291474,0.64178,-0.00424266,-0.00228557,0.528098,0.4012896623761302,0.8998596214585304,-0.004233672632669272,-0.04317847579007439,-0.0022829600736560263,-0.2528385604521397
694,0.6828,675.727,235.434,-0.0308569,398.781,-3.36215,-1.97031,0.337776,-0.0441897,-0.291806,0.642519,-0.0042517,-0.00229039,0.528707,0.40182645910683235,0.9012641366232219,-0.00424267431958103,-0.043227559475259025,-0.0022877690581988297,-0.25308657687706493
695,0.6838,675.725,235.381,-0.0205706,398.783,-3.38131,-1.9604,0.338158,-0.0442408,-0.292137,0.643258,-0.00426061,-0.00229502,0.529316,0.40236205910729805,0.9026696901082323,-0.004251546477827328,-0.04327644929782426,-0.002292388455134131,-0.25333376430834187
696,0.6848,675.719,235.378,-0.0321046,398.78,-3.38507,-1.96769,0.338541,-0.0442915,-0.292469,0.643997,-0.00426932,-0.00229988,0.529924,0.40289926664461273,0.9040762826811639,-0.0042602194090868295,-0.04332495395224145,-0.0022972373023435466,-0.25358161635287557
697,0.6858,675.72,235.353,-0.0274192,398.78,-3.39632,-1.96589,0.338923,-0.0443424,-0.2928,0.644734,-0.00427815,-0.00230462,0.530532,0.4034352765358422,0.9054801041461671,-0.004269011752531138,-0.04337364747282468,-0.002301966402230682,-0.2538286399532016
698,0.6868,675.726,235.369,-0.0302132,398.777,-3.39635,-1.97259,0.339305,-0.0443931,-0.293131,0.645472,-0.00428683,-0.00230947,0.531139,0.4039714912219634,0.906886867494854,-0.004277654659998853,-0.04342214719941939,-0.0023068052259594962,-0.25407558180224643
699,0.6878,675.723,235.341,-0.0302677,398.776,-3.40773,-1.97228,0.339686,-0.044444,-0.293462,0.646209,-0.00429569,-0.00231425,0.531746,0.4045065062740143,0.9082927611243636,-0.00428647672089677,-0.04347083577299227,-0.002311574188032739,-0.2543224419270653
700,0.6888,675.734,235.366,-0.0290238,398.773,-3.40629,-1.97833,0.340067,-0.0444945,-0.293793,0.646945,-0.00430436,-0.0023191,0.532353,0.40504172520563686,0.9096977815806544,-0.0042951095197203415,-0.04351913927611195,-0.0023164129651638277,-0.25456922035470464
701,0.6898,675.727,235.331,-0.0320689,398.772,-3.41901,-1.97835,0.340449,-0.0445454,-0.294123,0.647682,-0.00431327,-0.00232389,0.53296,0.4055785536723746,0.9111057476174336,-0.004303981210771135,-0.04356782291291372,-0.0023211918581003133,-0.25481517192774605
702,0.6908,675.741,235.363,-0.0282951,398.769,-3.41593,-1.9844,0.340829,-0.0445959,-0.294453,0.648417,-0.00432193,-0.00232876,0.533565,0.40611277501839727,0.9125109266819793,-0.004312603900957557,-0.04361612151830663,-0.002326050542065028,-0.2550610423501589
703,0.6918,675.731,235.32,-0.0335049,398.769,-3.43047,-1.98422,0.34121,-0.0446467,-0.294783,0.649153,-0.00433089,-0.00233356,0.534171,0.4066486060550101,0.9139190528508827,-0.004321525220059019,-0.04366470458531313,-0.002330839365529247,-0.2553068316487186
704,0.6928,675.75,235.361,-0.0277251,398.765,-3.42537,-1.99068,0.341591,-0.0446971,-0.295113,0.649888,-0.00433954,-0.00233844,0.534776,0.4071846412821434,0.9153263004548702,-0.004330137801616396,-0.04371290266960004,-0.0023357079791537227,-0.25555253985019144
705,0.6938,675.735,235.308,-0.0348863,398.765,-3.44221,-1.98997,0.341971,-0.0447479,-0.295443,0.650622,-0.00434855,-0.00234325,0.535381,0.4077194730574323,0.9167326660324304,-0.004339108746660658,-0.043761480820249,-0.0023405067328573503,-0.2557981669813352
706,0.6948,675.758,235.361,-0.0271376,398.76,-3.43456,-1.99711,0.342351,-0.0447982,-0.295772,0.651356,-0.00435719,-0.00234814,0.535986,0.40825450810741515,0.9181400642612612,-0.004347711219598316,-0.04380957840809929,-0.002345385275851375,-0.25604296911223956
707,0.6958,675.739,235.294,-0.0363391,398.761,-3.45428,-1.9956,0.342731,-0.0448491,-0.296101,0.65209,-0.00436627,-0.00235296,0.53659,0.40878974650935174,0.9195484958996065,-0.0043567517013366475,-0.04385824726192544,-0.00235019395950542,-0.2562876907164904
708,0.6968,675.767,235.361,-0.0264064,398.756,-3.44346,-2.00368,0.34311,-0.0448992,-0.29643,0.652823,-0.00437487,-0.00235787,0.537194,0.40932377901604644,0.920956040749267,-0.0043653141964531406,-0.04390614876379495,-0.002355092408027337,-0.25653233182057633
709,0.6978,675.743,235.279,-0.0379856,398.757,-3.46674,-2.00113,0.343489,-0.0449501,-0.296759,0.653555,-0.00438402,-0.00236269,0.537797,0.40985801395942034,0.9223626953438671,-0.004374424212149952,-0.04395481270231516,-0.0023599010448931423,-0.2567768924509777
710,0.6988,675.777,235.363,-0.0254806,398.751,-3.45199,-2.01041,0.343869,-0.0450002,-0.297088,0.654287,-0.00439259,-0.00236763,0.5384,0.4103938618093683,0.923770379986582,-0.004382956686772688,-0.04400270936637729,-0.0023648293748089744,-0.257021372634166
711,0.6998,675.746,235.261,-0.0398843,398.753,-3.47968,-2.00652,0.344248,-0.0450511,-0.297416,0.655019,-0.00440183,-0.00237244,0.539003,0.4109285023909848,0.9251790954316832,-0.004392156145751391,-0.04405136839008794,-0.0023696279884389826,-0.25726502966200493
712,0.7008,675.788,235.367,-0.0242497,398.747,-3.46006,-2.01732,0.344626,-0.045101,-0.297745,0.655751,-0.00441034,-0.00237741,0.539606,0.4114619341771444,0.9265888424339939,-0.004400628732451617,-0.04409906903666427,-0.0023745861990667194,-0.2575093492744661
713,0.7018,675.748,235.242,-0.042118,398.75,-3.49319,-2.01177,0.345005,-0.045152,-0.298073,0.656482,-0.00441969,-0.00238222,0.540208,0.4119969796349072,0.9279976937502332,-0.004409937543054188,-0.044147818741015366,-0.002379384765766601,-0.2577528462722134
714,0.7028,675.799,235.374,-0.0226557,398.742,-3.46757,-2.02444,0.345383,-0.0452017,-0.2984,0.657212,-0.00442813,-0.00238722,0.540809,0.412530815381809,0.9294056459066831,-0.0044183402877217,-0.04419532341392296,-0.0023843728563724964,-0.2579955214119346
715,0.7038,675.75,235.219,-0.0447581,398.746,-3.5074,-2.01682,0.345761,-0.0452528,-0.298728,0.657942,-0.0044376,-0.00239201,0.541411,0.4130648529567662,0.9308146262434474,-0.004427768401397025,-0.0442441637850145,-0.002389151423781821,-0.2582388589713702
716,0.7048,675.812,235.383,-0.0206086,398.737,-3.47436,-2.03181,0.346139,-0.0453023,-0.299056,0.658672,-0.00444594,-0.00239705,0.542012,0.4135990924360844,0.9322246355113717,-0.0044360714391848965,-0.044291472528006026,-0.002394179369788252,-0.2584821167291744
717,0.7058,675.75,235.192,-0.0479061,398.742,-3.52246,-2.02163,0.346516,-0.0453535,-0.299383,0.659401,-0.00445557,-0.00240183,0.542613,0.4141321197632708,0.9336337408271425,-0.004445658673654318,-0.044340403551967666,-0.0023989479142140224,-0.2587245534364421
718,0.7068,675.827,235.396,-0.0180017,398.731,-3.48029,-2.03948,0.346894,-0.0454028,-0.29971,0.66013,-0.00446379,-0.00240691,0.543213,0.4146667627456988,0.9350438737552074,-0.004453842096706073,-0.044387516408731176,-0.0024040157146864027,-0.2589669108798667
719,0.7078,675.749,235.161,-0.0516762,398.739,-3.53855,-2.02616,0.347271,-0.0454542,-0.300037,0.660859,-0.0044736,-0.00241167,0.543813,0.4152001926604749,0.9364550350449694,-0.004463608356611526,-0.04443663362806438,-0.0024087642602700354,-0.2592091890853635
720,0.7088,675.844,235.415,-0.0147084,398.726,-3.48515,-2.04752,0.347648,-0.0455032,-0.300364,0.661586,-0.00448166,-0.00241679,0.544412,0.41573382371624157,0.937863349715802,-0.004471632347591403,-0.044483455085881474,-0.0024138719143214082,-0.25945138807883905
721,0.7098,675.746,235.124,-0.056206,398.735,-3.55589,-2.03032,0.348024,-0.0455548,-0.30069,0.662314,-0.00449168,-0.00242153,0.545012,0.41626623972189547,0.9392746278773163,-0.004481607491859774,-0.044532758467560885,-0.002418600461361886,-0.259692767579329
722,0.7108,675.862,235.438,-0.0105741,398.72,-3.4887,-2.056,0.348401,-0.0456034,-0.301016,0.663041,-0.00449955,-0.00242671,0.54561,0.4168002727531719,0.940684993137437,-0.00448944219077918,-0.044579193047129984,-0.0024237679196277284,-0.2599340684029269
723,0.7118,675.741,235.081,-0.0616515,398.732,-3.57473,-2.03404,0.348777,-0.0456553,-0.301342,0.663768,-0.00450984,-0.00243141,0.546209,0.41733308981905815,0.9420963841059016,-0.004499685941714904,-0.04462877810026755,-0.002428456516900379,-0.2601752905752771
724,0.7128,675.883,235.469,-0.00542241,398.713,-3.49064,-2.06501,0.349153,-0.0457036,-0.301668,0.664494,-0.00451745,-0.00243665,0.546807,0.4178661072618297,0.9435068580208412,-0.00450726167027915,-0.044674921415915225,-0.002433683778092721,-0.26041643412201576
725,0.7138,675.833,235.334,-0.0355441,398.715,-3.52439,-2.06544,0.349529,-0.0457542,-0.301994,0.66522,-0.00452686,-0.00244164,0.547405,0.4183993251568423,0.9449183563116468,-0.004516629212872547,-0.04472325964192414,-0.0024386616215910095,-0.26065749906877067
726,0.7148,675.828,235.269,-0.0271491,398.716,-3.54597,-2.05524,0.349905,-0.0458046,-0.302319,0.665945,-0.00453612,-0.00244645,0.548003,0.4189327435794805,0.9463289333923783,-0.00452584734620598,-0.04477140437638072,-0.002443459880088761,-0.2608977463392772
727,0.7158,675.825,235.268,-0.0379034,398.713,-3.54951,-2.06267,0.35028,-0.0458546,-0.302645,0.66667,-0.00454515,-0.00245149,0.5486,0.41946494313950344,0.9477405335123001,-0.004534836437218637,-0.04481916461214608,-0.002448487552381251,-0.26113865440382256
728,0.7168,675.825,235.236,-0.0343263,398.712,-3.56208,-2.06084,0.350655,-0.0459048,-0.30297,0.667395,-0.00455433,-0.00245642,0.549197,0.41999734231178665,0.9491531574133847,-0.004543974765475189,-0.0448671134865557,-0.0024534054692149088,-0.2613787453242534
729,0.7178,675.834,235.256,-0.0362501,398.709,-3.56142,-2.06788,0.35103,-0.0459547,-0.303295,0.668119,-0.00456332,-0.00246146,0.549793,0.42052994117119824,0.9505648552723123,-0.004552923874915682,-0.04491477342846728,-0.0024584330913817176,-0.26161875822781355
730,0.7188,675.83,235.222,-0.0372041,398.707,-3.57412,-2.06746,0.351405,-0.0460049,-0.303619,0.668842,-0.00457252,-0.00246641,0.550389,0.4210627397926352,0.9519756235939683,-0.004562081945888807,-0.044962717503434835,-0.0024633709099167733,-0.26185795499817854
731,0.7198,675.844,235.25,-0.0351653,398.703,-3.57184,-2.07394,0.351779,-0.0460547,-0.303944,0.669566,-0.00458151,-0.00247145,0.550985,0.421594316655995,0.9533893656583234,-0.004571030892546624,-0.04501027717585748,-0.0024683984818578697,-0.26209781218390016
732,0.7208,675.836,235.209,-0.0390117,398.702,-3.58595,-2.07379,0.352154,-0.0461049,-0.304268,0.670289,-0.00459076,-0.00247643,0.55158,0.42212751449308694,0.9548021768393933,-0.004580238567925221,-0.045058216456657196,-0.0024733661768638893,-0.2623368537659252
733,0.7218,675.854,235.245,-0.0345109,398.698,-3.58196,-2.08034,0.352528,-0.0461546,-0.304593,0.671011,-0.00459973,-0.00248148,0.552175,0.422659489656662,0.956214053637263,-0.004589167443139197,-0.04510567588392278,-0.0024784036736450465,-0.26257655533483637
734,0.7228,675.843,235.195,-0.0404668,398.697,-3.59795,-2.07995,0.352902,-0.0462048,-0.304916,0.671733,-0.00460904,-0.00248646,0.55277,0.42319166381615836,0.9576269501782637,-0.004598434674851326,-0.04515361037582766,-0.002483371318825256,-0.26281470464427925
735,0.7238,675.864,235.241,-0.0340086,398.693,-3.59189,-2.08693,0.353275,-0.0462545,-0.30524,0.672454,-0.004618,-0.00249153,0.553364,0.4237226133226888,0.959038908159028,-0.0046073534329205135,-0.04520106506213328,-0.0024884287153121853,-0.26305351399077126
736,0.7248,675.849,235.181,-0.0418479,398.692,-3.61021,-2.08598,0.353649,-0.0463046,-0.305564,0.673176,-0.00462736,-0.00249652,0.553958,0.4242551851647982,0.9604538449814464,-0.004616670264489531,-0.04524889929051623,-0.0024934062856338812,-0.26329224597556833
737,0.7258,675.875,235.238,-0.0335085,398.687,-3.60161,-2.09367,0.354022,-0.0463542,-0.305887,0.673896,-0.00463631,-0.00250161,0.554552,0.4247865314387842,0.9618658800214477,-0.004625578905424477,-0.04529625377071056,-0.0024984835812741357,-0.2635301641542639
738,0.7268,675.855,235.165,-0.0433077,398.687,-3.62277,-2.09192,0.354395,-0.0464043,-0.30621,0.674617,-0.00464574,-0.0025066,0.555146,0.42531807594189797,0.9632808953726786,-0.004634965241958722,-0.045344083230258736,-0.0025034611014220776,-0.2637680054977972
739,0.7278,675.886,235.236,-0.0329027,398.681,-3.61108,-2.10054,0.354768,-0.0464538,-0.306533,0.675337,-0.00465466,-0.00251171,0.555738,0.4258498187480926,0.9646949666219087,-0.004643843858470054,-0.04539133752858526,-0.002508558295712504,-0.26400577003098225
740,0.7288,675.861,235.148,-0.0448962,398.682,-3.63568,-2.09776,0.355141,-0.046504,-0.306856,0.676056,-0.00466416,-0.00251671,0.556331,0.42638175993134886,0.9661080902599803,-0.0046532996970380935,-0.04543925768063539,-0.002513545740452483,-0.26424345777862446
741,0.7298,675.898,235.235,-0.0321006,398.675,-3.62023,-2.10756,0.355513,-0.0465533,-0.307179,0.676775,-0.00467304,-0.00252184,0.556923,0.4269124726524893,0.9675222302993001,-0.0046621383364932045,-0.04548631636522571,-0.002518662832837415,-0.2644810687655218
742,0.7308,675.867,235.129,-0.0467115,398.677,-3.649,-2.10349,0.355885,-0.0466036,-0.307501,0.677494,-0.00468264,-0.00252684,0.557515,0.42744338283548755,0.9689373874709235,-0.00467169353410013,-0.04553432719603001,-0.002523650227054808,-0.2647178677346993
743,0.7318,675.911,235.236,-0.0310929,398.669,-3.62901,-2.11473,0.356257,-0.0466528,-0.307824,0.678212,-0.00469147,-0.00253199,0.558107,0.4279744905538132,0.9703515921538541,-0.004680482244244,-0.04558128575194198,-0.0025287872170283165,-0.26495532551192547
744,0.7328,675.872,235.107,-0.0488035,398.671,-3.66281,-2.1091,0.356629,-0.0467031,-0.308145,0.67893,-0.00470116,-0.00253699,0.558698,0.42850579588096305,0.9717668126003625,-0.0046901268436428944,-0.04562929180590625,-0.0025337745606238693,-0.26519123698661873
745,0.7338,675.924,235.238,-0.0297592,398.663,-3.63734,-2.12208,0.357001,-0.0467521,-0.308467,0.679647,-0.00470993,-0.00254218,0.559289,0.4290372988904614,0.9731810763579658,-0.004698855672954583,-0.045676054824904444,-0.00253895139690008,-0.2654278073184415
746,0.7348,675.876,235.084,-0.0512142,398.666,-3.6772,-2.11457,0.357372,-0.0468025,-0.308789,0.680364,-0.00471974,-0.00254716,0.55988,0.4295675700875745,0.974596354506299,-0.004708619529288582,-0.04572415153969389,-0.0025439187405533747,-0.26566430148688047
747,0.7358,675.939,235.244,-0.028097,398.656,-3.6451,-2.12963,0.357743,-0.0468514,-0.309111,0.681081,-0.00472842,-0.00255239,0.56047,0.4300980380517998,0.9760126477729412,-0.004717258620977383,-0.04577081448776521,-0.002549135422216686,-0.2659007195164562
748,0.7368,675.88,235.057,-0.0540217,398.661,-3.69227,-2.11984,0.358114,-0.0469019,-0.309432,0.681797,-0.00473837,-0.00255736,0.56106,0.4306287028561515,0.9774279794570246,-0.004727161634986543,-0.045819001844892626,-0.0025540927406947356,-0.266136327568376
749,0.7378,675.955,235.252,-0.0259931,398.65,-3.65219,-2.13744,0.358485,-0.0469505,-0.309753,0.682512,-0.00474695,-0.00256262,0.561649,0.4311595645736708,0.9788423460381341,-0.00473570103930554,-0.045865373914552476,-0.002559339292368512,-0.26637186000224844
750,0.7388,675.882,235.027,-0.0572967,398.656,-3.70815,-2.12489,0.358855,-0.0470012,-0.310074,0.683228,-0.00475706,-0.00256758,0.562239,0.4316891915875183,0.9802597045116794,-0.004745763110504231,-0.04591374731381903,-0.002564286585776343,-0.26660731684234307
751,0.7398,675.972,235.263,-0.0233746,398.643,-3.65847,-2.14553,0.359226,-0.0470496,-0.310395,0.683943,-0.00476551,-0.00257289,0.562828,0.43222044681934935,0.9816760965002,-0.004754172973274184,-0.04595992397096493,-0.0025695829553527005,-0.2668426981129216
752,0.7408,675.884,234.992,-0.0611385,398.651,-3.72499,-2.12968,0.359596,-0.0471004,-0.310715,0.684657,-0.00477581,-0.00257783,0.563416,0.43275046643225434,0.983091518478616,-0.004764423952499985,-0.04600838797583107,-0.002574510249442441,-0.2670772709158753
753,0.7418,675.991,235.279,-0.0201558,398.635,-3.66378,-2.15397,0.359965,-0.0471485,-0.311036,0.685371,-0.0047841,-0.00258318,0.564004,0.4332792489087347,0.9845079514291988,-0.0047726744212271965,-0.046054273868804785,-0.0025798464615381933,-0.26731250135540585
754,0.7428,675.883,234.953,-0.0656344,398.646,-3.74296,-2.13413,0.360335,-0.0471996,-0.311355,0.686085,-0.00479463,-0.00258809,0.564592,0.4338096603508965,0.9859253960740402,-0.0047831541097898,-0.04610301924995508,-0.002584743782469201,-0.26754619139193103
755,0.7438,676.012,235.3,-0.0161924,398.628,-3.66792,-2.16281,0.360705,-0.0472474,-0.311676,0.686798,-0.00480272,-0.0025935,0.56518,0.4343402680816033,0.9873418657928885,-0.004791205381505681,-0.046148614435901236,-0.00259013978440914,-0.26778127133214524
756,0.7448,675.967,235.175,-0.043633,398.629,-3.69964,-2.1636,0.361074,-0.0472973,-0.311996,0.687511,-0.00481244,-0.00259868,0.565767,0.4348696373031402,0.9887593458147763,-0.004800878763976613,-0.046196210432510876,-0.0025953063541035437,-0.2680155438397186
757,0.7458,675.967,235.12,-0.0348591,398.629,-3.71879,-2.15499,0.361443,-0.047347,-0.312315,0.688223,-0.00482201,-0.0026037,0.566354,0.435399201897964,0.9901758466834651,-0.00481040277399436,-0.0462436133028814,-0.0026003133130981793,-0.2682490096414586
758,0.7468,675.964,235.112,-0.0453054,398.625,-3.72384,-2.16185,0.361812,-0.0473964,-0.312635,0.688935,-0.0048314,-0.00260893,0.56694,0.43592896193818054,0.9915933564599009,-0.00481974756043857,-0.046290727704648926,-0.002605529699818754,-0.2684831324967186
759,0.7478,675.968,235.088,-0.0412643,398.623,-3.73472,-2.16106,0.362181,-0.0474459,-0.312954,0.689647,-0.0048409,-0.00261405,0.567527,0.4364589174959228,0.993011875862682,-0.004829201727929333,-0.046337935145233655,-0.002610636346433659,-0.26871644916146553
760,0.7488,675.975,235.098,-0.0439223,398.619,-3.73636,-2.16741,0.362549,-0.0474952,-0.313273,0.690358,-0.00485026,-0.00261928,0.568112,0.4369876316550001,0.9944294111805096,-0.004838516483008037,-0.04638494952611705,-0.002615852679164865,-0.2689496914100665
761,0.7498,675.975,235.072,-0.043804,398.617,-3.74698,-2.16804,0.362917,-0.0475447,-0.313592,0.691069,-0.00485977,-0.00262443,0.568698,0.4375165404166923,0.9958479547243304,-0.004847980423715148,-0.04643215230283715,-0.0026209891942969854,-0.2691828592662563
762,0.7508,675.987,235.088,-0.0431887,398.613,-3.74762,-2.17376,0.363285,-0.0475939,-0.31391,0.691779,-0.00486914,-0.00262966,0.569283,0.4380456438526268,0.9972655099447387,-0.004857304954453134,-0.04647906668684054,-0.0026262054728829476,-0.26941522216935
763,0.7518,675.985,235.059,-0.0453587,398.61,-3.75903,-2.17477,0.363653,-0.0476434,-0.314229,0.692489,-0.00487869,-0.00263484,0.569868,0.4385749420344567,0.9986840719867329,-0.004866808521811206,-0.04652626480487643,-0.0026313718557575694,-0.2696482415449115
764,0.7528,675.998,235.079,-0.042879,398.606,-3.75867,-2.18039,0.364021,-0.0476926,-0.314547,0.693199,-0.00488807,-0.00264007,0.570453,0.43910443503386176,1.0001036415654103,-0.004876142827369256,-0.046573174558658614,-0.0026365880800424124,-0.2698804564799687
765,0.7538,675.994,235.044,-0.0465361,398.604,-3.77117,-2.18136,0.364388,-0.047742,-0.314865,0.693908,-0.00489766,-0.00264526,0.571037,0.43963268328914484,1.0015222178731569,-0.004885686019399871,-0.046620272680502284,-0.0026417643827176818,-0.27011259758241646
766,0.7548,676.01,235.07,-0.0427886,398.599,-3.76964,-2.18718,0.364755,-0.0477911,-0.315183,0.694617,-0.00490704,-0.00265051,0.571621,0.4401611254471167,1.0029418003081356,-0.004895020147887896,-0.04666708247592377,-0.002647000499709895,-0.27034466487573006
767,0.7558,676.004,235.03,-0.0476056,398.597,-3.78347,-2.18788,0.365122,-0.0478405,-0.315501,0.695325,-0.00491668,-0.00265572,0.572204,0.44068976157895245,1.0043603852225562,-0.004904612913656514,-0.04671417595883087,-0.0026521966953011455,-0.27057665838337674
768,0.7568,676.022,235.062,-0.0427351,398.592,-3.78053,-2.19407,0.365489,-0.0478896,-0.315818,0.696033,-0.00492606,-0.00266098,0.572787,0.44121859175585376,1.0057799748507232,-0.004913946864610996,-0.04676098114371463,-0.0026574427309494775,-0.27080784893703047
769,0.7578,676.013,235.014,-0.0486603,398.59,-3.79594,-2.19435,0.365856,-0.047939,-0.316136,0.69674,-0.00493574,-0.00266619,0.57337,0.4417476160490481,1.0071985627046591,-0.004923579250984522,-0.04680806998814202,-0.002662638872136913,-0.2710396951755628
770,0.7588,676.035,235.054,-0.042647,398.585,-3.79131,-2.20106,0.366222,-0.047988,-0.316453,0.697447,-0.00494512,-0.00267147,0.573953,0.44227539225367596,1.0086181538548313,-0.004932913024035757,-0.04685477524842441,-0.0026679047995016303,-0.271270738969816
771,0.7598,676.023,234.998,-0.0497619,398.584,-3.80859,-2.20078,0.366588,-0.0480374,-0.31677,0.698154,-0.00495486,-0.00267669,0.574535,0.44280336165974843,1.0100387490108207,-0.004942604930263217,-0.04690185945953751,-0.002673110859450656,-0.2715017095347939
772,0.7608,676.048,235.046,-0.0424994,398.578,-3.80197,-2.20812,0.366954,-0.0480863,-0.317087,0.69886,-0.00496422,-0.002682,0.575117,0.44333152433799006,1.0114583374233672,-0.004951918623892881,-0.046948464819099645,-0.002678406651171694,-0.2717326068937064
773,0.7618,676.033,234.981,-0.0510008,398.577,-3.82147,-2.20718,0.36732,-0.0481357,-0.317403,0.699566,-0.00497402,-0.00268722,0.575698,0.4438598803591516,1.0128789284192035,-0.0049616700473082975,-0.04699554440206233,-0.0026836126563013485,-0.2719627030328233
774,0.7628,676.061,235.04,-0.0422305,398.57,-3.81247,-2.21527,0.367686,-0.0481845,-0.31772,0.700272,-0.00498337,-0.00269254,0.576279,0.4443884297940095,1.014300522706403,-0.004970973612199114,-0.04704204988475247,-0.0026889183653687754,-0.2721934542799569
775,0.7638,676.042,234.962,-0.0523488,398.57,-3.83459,-2.21352,0.368051,-0.0482339,-0.318036,0.700977,-0.00499323,-0.00269778,0.57686,0.4449157277969158,1.0157211052714263,-0.00498078455003137,-0.04708912484472716,-0.0026941442617446354,-0.2724234048143065
776,0.7648,676.075,235.033,-0.0418784,398.563,-3.82278,-2.22253,0.368416,-0.0482827,-0.318352,0.701681,-0.00500256,-0.00270312,0.577441,0.445443218298722,1.0171406725585928,-0.004990068036003992,-0.0471356257608031,-0.0026994698607949452,-0.27265328269576705
777,0.7658,676.051,234.943,-0.0538141,398.563,-3.848,-2.21981,0.368781,-0.0483321,-0.318668,0.702386,-0.00501249,-0.00270835,0.578021,0.4459709013697031,1.0185632581352406,-0.004999948435572055,-0.04718269609824366,-0.0027046857289281245,-0.2728830879472931
778,0.7668,676.089,235.028,-0.0413438,398.555,-3.83288,-2.22989,0.369146,-0.0483807,-0.318984,0.70309,-0.0050218,-0.00271372,0.578601,0.4464987770801596,1.0199848270024963,-0.005009211842930905,-0.04722900189397328,-0.002710041190386314,-0.2731128205918323
779,0.7678,676.06,234.922,-0.0554533,398.556,-3.86173,-2.22603,0.369511,-0.0484302,-0.319299,0.703793,-0.00503181,-0.00271896,0.579181,0.4470268455004178,1.021405375600207,-0.005019171650871512,-0.04727616289113523,-0.002715266976078934,-0.27334175399444194
780,0.7688,676.104,235.025,-0.0406395,398.548,-3.8427,-2.23737,0.369875,-0.0484787,-0.319615,0.704496,-0.00504107,-0.00272435,0.57976,0.44755365914644707,1.0228269231946885,-0.005028385130683488,-0.0473223688767308,-0.002720642326303313,-0.273571341723408
781,0.7698,676.069,234.899,-0.0573089,398.549,-3.87584,-2.23217,0.370239,-0.0485283,-0.31993,0.705199,-0.00505118,-0.00272959,0.580339,0.4480806645875477,1.0242494704884817,-0.005038444242860929,-0.04736962051538418,-0.0027258680564460347,-0.2738001307146073
782,0.7708,676.12,235.022,-0.0397216,398.54,-3.8522,-2.24499,0.370603,-0.0485766,-0.320245,0.705901,-0.00506039,-0.00273501,0.580917,0.4486078618935463,1.0256709925126177,-0.005047607796591191,-0.04741563145154026,-0.0027312732675930373,-0.2740288476486239
783,0.7718,676.077,234.875,-0.0594029,398.542,-3.89037,-2.23821,0.370967,-0.0486263,-0.32056,0.706603,-0.0050706,-0.00274024,0.581496,0.4491352511342943,1.0270935127955618,-0.005057766208656833,-0.04746297371819197,-0.0027364889693948236,-0.27425749254815224
784,0.7728,676.137,235.021,-0.0385593,398.531,-3.86132,-2.25278,0.37133,-0.0486744,-0.320874,0.707304,-0.00507975,-0.00274569,0.582073,0.44966138271756106,1.0285150035223216,-0.0050668698884466234,-0.04750878964727423,-0.002741924040719379,-0.2744853399215824
785,0.7738,676.085,234.848,-0.0617463,398.535,-3.90541,-2.24412,0.371694,-0.0487242,-0.321189,0.708005,-0.00509008,-0.00275093,0.582651,0.4501891555096911,1.0299374910634227,-0.0050771474945967565,-0.047556222528461256,-0.002747149659346193,-0.27471384104869023
786,0.7748,676.154,235.023,-0.0371288,398.523,-3.86999,-2.26074,0.372057,-0.0487722,-0.321503,0.708706,-0.00509915,-0.00275641,0.583228,0.45071566972969057,1.031360976117878,-0.005086171403945516,-0.04760193873258223,-0.0027526145899922083,-0.27494154515118596
787,0.7758,676.092,234.819,-0.0644094,398.527,-3.92101,-2.24989,0.37242,-0.048822,-0.321817,0.709406,-0.00510961,-0.00276163,0.583805,0.4512423751090451,1.032783426600746,-0.005096578148165221,-0.04764936697506028,-0.002757820207757389,-0.2751691777658176
788,0.7768,676.173,235.026,-0.0353083,398.515,-3.87814,-2.26891,0.372783,-0.0488699,-0.322131,0.710106,-0.00511859,-0.00276715,0.584382,0.4517692717171584,1.034206873147534,-0.005105512340778939,-0.04769498347785828,-0.0027633249693966855,-0.275396738915029
789,0.7778,676.098,234.788,-0.0674603,398.52,-3.93726,-2.2555,0.373145,-0.0489198,-0.322445,0.710805,-0.0051292,-0.00277236,0.584958,0.4522949073278255,1.0356292808254315,-0.005116068115294414,-0.04774250231257793,-0.0027685205589390582,-0.2756242286212567
790,0.7788,676.192,235.032,-0.0331599,398.506,-3.88566,-2.27732,0.373508,-0.0489674,-0.322759,0.711504,-0.00513806,-0.00277792,0.585534,0.4528221860744881,1.0370526831138722,-0.005124882747882142,-0.047787828690691425,-0.0027740651505507863,-0.2758516469069302
791,0.7798,676.103,234.752,-0.0709116,398.513,-3.95427,-2.2609,0.37387,-0.0490176,-0.323072,0.712203,-0.00514885,-0.00278312,0.58611,0.4533482029091498,1.038477080708331,-0.005135617392483693,-0.04783562854190493,-0.0027792507119295262,-0.276078269873104
792,0.7808,676.213,235.042,-0.030542,398.497,-3.89246,-2.28599,0.374232,-0.0490649,-0.323385,0.712901,-0.00515758,-0.00278873,0.586685,0.45387441019637564,1.0399004344033163,-0.005144302520633248,-0.04788066485155773,-0.0027848451046407208,-0.27630482191738914
793,0.7818,676.108,234.713,-0.0748254,398.506,-3.97214,-2.26605,0.374594,-0.0491152,-0.323698,0.713599,-0.00516857,-0.0027939,0.58726,0.4544008080051216,1.0413247819459932,-0.005155235924669377,-0.04792855524966211,-0.0027900006936643074,-0.2765313030619809
794,0.7828,676.236,235.055,-0.0274142,398.488,-3.89842,-2.29499,0.374955,-0.0491623,-0.324011,0.714296,-0.00517712,-0.00279956,0.587834,0.45492594147770027,1.042748081281207,-0.005163741811039513,-0.04797339675868406,-0.002795644886287363,-0.2767577133290673
795,0.7838,676.111,234.67,-0.0793231,398.499,-3.991,-2.27093,0.375317,-0.0492129,-0.324323,0.714994,-0.00518834,-0.00280471,0.588409,0.45545272000967696,1.0441744171752587,-0.005174903811237419,-0.04802156808606317,-0.0028007804754920373,-0.27698332972452067
796,0.7848,676.26,235.072,-0.023693,398.478,-3.9034,-2.30433,0.375678,-0.0492596,-0.324636,0.71569,-0.0051967,-0.00281042,0.588983,0.4559782332910405,1.0455976577998967,-0.005183220514277775,-0.04806602444076957,-0.002806474466779174,-0.27720959852940164
797,0.7858,676.212,234.927,-0.0525048,398.479,-3.93954,-2.30368,0.376039,-0.0493089,-0.324948,0.716386,-0.00520696,-0.00281586,0.589557,0.45650393631694564,1.0470218893448093,-0.005193427282074392,-0.04811295362895063,-0.0028118991848027353,-0.2774350739586645
798,0.7868,676.209,234.862,-0.0456061,398.478,-3.96118,-2.29493,0.3764,-0.0493579,-0.32526,0.717082,-0.00521705,-0.00282115,0.59013,0.4570298291559023,1.0484471124999182,-0.005203464829753646,-0.04815959495150113,-0.0028171742959034463,-0.27766047905056657
799,0.7878,676.208,234.853,-0.0554061,398.474,-3.96649,-2.30191,0.37676,-0.0494065,-0.325572,0.717778,-0.00522692,-0.00282664,0.590703,0.4575544543212622,1.0498733279556234,-0.005213283423100901,-0.04820585327110016,-0.002822648814588935,-0.2778858138270497
800,0.7888,676.212,234.824,-0.0523355,398.471,-3.97855,-2.30128,0.377121,-0.0494553,-0.325884,0.718473,-0.00523691,-0.00283204,0.591276,0.45808072646567877,1.0512984851032958,-0.005223221292759761,-0.04825229969215872,-0.002828033557746523,-0.278111078310049
801,0.7898,676.222,234.834,-0.0543023,398.465,-3.98003,-2.30793,0.377481,-0.0495038,-0.326196,0.719167,-0.00524675,-0.00283754,0.591848,0.45860573002217664,1.052722580355852,-0.005233009848102488,-0.04829845833626745,-0.00283351798847975,-0.2783362725214925
802,0.7908,676.223,234.804,-0.0548879,398.462,-3.9917,-2.3087,0.377841,-0.0495525,-0.326507,0.719862,-0.00525677,-0.00284297,0.59242,0.45913092261397903,1.0541497184222322,-0.005242977363406509,-0.04834480507279426,-0.002838932587776455,-0.27856067504433735
803,0.7918,676.237,234.821,-0.0537473,398.457,-3.99216,-2.31478,0.378201,-0.049601,-0.326818,0.720555,-0.00526661,-0.00284847,0.592992,0.45965630430915105,1.0555737375427334,-0.0052527657243504056,-0.04839095923050085,-0.002844416958565188,-0.2787850077888486
804,0.7928,676.236,234.787,-0.0564537,398.454,-4.00457,-2.3159,0.378561,-0.0496497,-0.327129,0.721249,-0.00527667,-0.00285392,0.593564,0.46018187517578224,1.057000800850279,-0.005262772831191365,-0.04843730146234382,-0.002849851441683815,-0.2790092707767241
805,0.7938,676.252,234.808,-0.0536248,398.448,-4.00409,-2.32192,0.37892,-0.0496982,-0.32744,0.721942,-0.00528652,-0.00285943,0.594135,0.46070617457508134,1.058426796455676,-0.005272570944623189,-0.048483451134084365,-0.0028553457238655877,-0.27923346402965477
806,0.7948,676.249,234.769,-0.0576494,398.445,-4.01752,-2.32299,0.379279,-0.0497469,-0.327751,0.722635,-0.00529661,-0.0028649,0.594706,0.4612306622316551,1.059853780618523,-0.005282607693746888,-0.048529788861681245,-0.0028608000902067277,-0.2794575875693246
807,0.7958,676.268,234.795,-0.0536598,398.439,-4.01596,-2.3292,0.379638,-0.0497953,-0.328062,0.723327,-0.00530648,-0.00287043,0.595276,0.4617553382130999,1.0612796927434052,-0.005292425505957987,-0.04857583890548034,-0.0028663142547356024,-0.27968164141741125
808,0.7968,676.262,234.751,-0.0586831,398.436,-4.03059,-2.33002,0.379997,-0.049844,-0.328372,0.724019,-0.00531662,-0.00287591,0.595846,0.4622802025870365,1.0627065919409646,-0.005302511789625819,-0.0486221721339023,-0.002871778532361313,-0.279904905500851
809,0.7978,676.283,234.783,-0.0537591,398.43,-4.02779,-2.33657,0.380356,-0.0498923,-0.328682,0.72471,-0.00532648,-0.00288145,0.596416,0.46280525542110995,1.0641324147610467,-0.0053123194585077416,-0.04866812257327624,-0.0028773026074065955,-0.2801281003831515
810,0.7988,676.275,234.733,-0.0597178,398.427,-4.04381,-2.33702,0.380714,-0.049941,-0.328992,0.725401,-0.00533667,-0.00288694,0.596986,0.4633290334532243,1.0655592231651774,-0.005322455274330284,-0.04871445130759311,-0.002882776795988584,-0.280351226085762
811,0.7998,676.299,234.771,-0.053873,398.421,-4.03955,-2.34403,0.381073,-0.0499892,-0.329302,0.726092,-0.00534654,-0.0028925,0.597555,0.46385446288517374,1.0669870178346308,-0.005332272693247764,-0.04876030216602545,-0.002888320752337359,-0.28057428263012474
812,0.8008,676.289,234.713,-0.0608219,398.418,-4.05718,-2.34399,0.381431,-0.0500379,-0.329611,0.726783,-0.00535677,-0.002898,0.598124,0.4643786166008037,1.0684157994511518,-0.005342448092050867,-0.04880662641130551,-0.0028938048514919323,-0.2807965508345859
813,0.8018,676.315,234.759,-0.053899,398.412,-4.05125,-2.35155,0.381789,-0.0500861,-0.329921,0.727472,-0.00536664,-0.00290358,0.598692,0.4649029579970565,1.0698414290099585,-0.005352265313640081,-0.048852472827005,-0.0028993686885377956,-0.28101946934967215
814,0.8028,676.302,234.693,-0.0619641,398.409,-4.07072,-2.35096,0.382146,-0.0501348,-0.33023,0.728162,-0.00537693,-0.00290909,0.599261,0.46542602171437975,1.0712701124350739,-0.005362500186171459,-0.048898792583683015,-0.0029048626978802616,-0.28124160001268816
815,0.8038,676.331,234.747,-0.0539028,398.402,-4.06286,-2.35914,0.382504,-0.0501829,-0.330539,0.728851,-0.00538679,-0.00291469,0.599829,0.46595073814879107,1.0726977092931835,-0.005372307263570741,-0.04894453945153876,-0.0029104464150147002,-0.28146366204793294
816,0.8048,676.315,234.673,-0.0631994,398.4,-4.08444,-2.3579,0.382861,-0.0502316,-0.330848,0.72954,-0.00539714,-0.0029202,0.600396,0.46647417599040564,1.0741262901044615,-0.00538260160691717,-0.048990854724681454,-0.002915940363319214,-0.28168565547660906
817,0.8058,676.348,234.736,-0.0538275,398.393,-4.07437,-2.36682,0.383218,-0.0502797,-0.331157,0.730228,-0.00540699,-0.00292582,0.600963,0.46699780073268937,1.075553779992267,-0.005392398540041365,-0.04903659716445463,-0.0029215439599882265,-0.2819075803199127
818,0.8068,676.329,234.651,-0.064518,398.391,-4.09837,-2.36481,0.383575,-0.0503284,-0.331466,0.730916,-0.0054174,-0.00293135,0.601531,0.4675216124423778,1.0769822523310397,-0.005402752351280959,-0.04908290795449588,-0.002927057788604359,-0.28212943659903345
819,0.8078,676.365,234.725,-0.0536689,398.383,-4.08575,-2.37457,0.383932,-0.0503763,-0.331774,0.731604,-0.00542724,-0.00293699,0.602097,0.46804561118623034,1.0784117077969384,-0.0054125391400466905,-0.04912845579232539,-0.0029326812641401467,-0.2823505066860199
820,0.8088,676.342,234.628,-0.0659323,398.382,-4.11253,-2.37169,0.384289,-0.0504251,-0.332082,0.732291,-0.00543772,-0.00294252,0.602664,0.46856979703102986,1.0798400672254798,-0.0054229623620187795,-0.049174857191479404,-0.0029381950311672123,-0.28257150869390435
821,0.8098,676.383,234.716,-0.0533582,398.373,-4.09699,-2.38242,0.384645,-0.050473,-0.33239,0.732978,-0.00544753,-0.00294819,0.60323,0.469092700950148,1.081269408274097,-0.005432719114901063,-0.04922040062504596,-0.0029438483555742634,-0.2827924426436518
822,0.8108,676.355,234.605,-0.0674374,398.373,-4.12694,-2.37854,0.385001,-0.0505218,-0.332698,0.733664,-0.00545809,-0.00295372,0.603795,0.46961579105620044,1.0826976489187037,-0.005443221689933497,-0.049266797537401597,-0.0029493620608473936,-0.283013308556221
823,0.8118,676.401,234.706,-0.0529672,398.363,-4.10805,-2.39037,0.385357,-0.0505695,-0.333006,0.73435,-0.00546788,-0.00295941,0.604361,0.47013906741548195,1.0841268696725317,-0.005452958353132087,-0.049312146429579484,-0.0029550352628370247,-0.2832341064525642
824,0.8128,676.368,234.58,-0.0691369,398.363,-4.14163,-2.38533,0.385713,-0.0506184,-0.333314,0.735036,-0.00547852,-0.00296495,0.604926,0.47066253009431036,1.0855570712081666,-0.005463540277359291,-0.049358633928990425,-0.0029605588766412616,-0.283454836353627
825,0.8138,676.42,234.698,-0.0524399,398.353,-4.11892,-2.39842,0.386069,-0.050666,-0.333621,0.735721,-0.00548827,-0.00297067,0.605491,0.47118617915902705,1.0869861672114447,-0.005473236960570116,-0.049403883381069824,-0.002966261925933744,-0.2836747819554891
826,0.8148,676.38,234.554,-0.070971,398.354,-4.15663,-2.39207,0.386424,-0.0507149,-0.333928,0.736406,-0.005499,-0.00297621,0.606055,0.47170854296671827,1.0884162424808452,-0.005483908175486385,-0.04945036639465361,-0.002971785477542399,-0.2838946600444152
827,0.8158,676.439,234.691,-0.0517395,398.343,-4.12955,-2.40659,0.38678,-0.0507624,-0.334235,0.73709,-0.00550871,-0.00298195,0.606619,0.4722325644783092,1.089845207841143,-0.00549356487985464,-0.049495516429928,-0.0029775084030689847,-0.2841144706411286
828,0.8168,676.393,234.526,-0.0730056,398.344,-4.17197,-2.39874,0.387135,-0.0508114,-0.334542,0.737775,-0.00551954,-0.00298749,0.607184,0.4727552998187321,1.0912772422242947,-0.005504335326224963,-0.04954209000856091,-0.0029830318923722565,-0.28433421376634616
829,0.8178,676.459,234.685,-0.0508519,398.332,-4.13993,-2.41489,0.387489,-0.0508588,-0.334849,0.738458,-0.00552919,-0.00299327,0.607747,0.4732767474856594,1.0927060724707185,-0.0055139321630841565,-0.049587140645786065,-0.0029887946337936455,-0.28455388944077853
830,0.8188,676.405,234.496,-0.0752119,398.335,-4.18769,-2.40534,0.387844,-0.0509078,-0.335155,0.739142,-0.00554014,-0.00299881,0.60831,0.4737998535768544,1.0941379730784697,-0.005524821725906515,-0.04963370973494241,-0.002994318060571488,-0.28477278245826987
831,0.8198,676.48,234.68,-0.0498335,398.322,-4.14999,-2.42334,0.388199,-0.0509551,-0.335462,0.739824,-0.00554973,-0.00300461,0.608873,0.4743231454036778,1.0955666623037583,-0.005534358697136366,-0.049678660997366175,-0.003000100676757045,-0.28499232351277903
832,0.8208,676.416,234.465,-0.0775965,398.325,-4.20384,-2.41183,0.388553,-0.0510042,-0.335768,0.740507,-0.0055608,-0.00301015,0.609436,0.47484514818619195,1.0969984232248082,-0.005545367370852428,-0.04972532062960788,-0.003005624040899657,-0.28521108238996895
833,0.8218,676.501,234.677,-0.0485027,398.311,-4.1597,-2.43195,0.388907,-0.0510513,-0.336074,0.741189,-0.0055703,-0.00301599,0.609998,0.4753673357904027,1.09842906394248,-0.00555481464498786,-0.049770077512973354,-0.0030114464710536692,-0.2854297743371832
834,0.8228,676.428,234.432,-0.0802554,398.316,-4.22046,-2.41822,0.389261,-0.0511006,-0.336379,0.741871,-0.00558151,-0.00302152,0.61056,0.47588970828174837,1.0998606806899094,-0.005565962313032857,-0.04981692269340876,-0.003016959802510377,-0.2856476850229416
835,0.8238,676.523,234.676,-0.0469786,398.3,-4.16903,-2.44073,0.389615,-0.0511474,-0.336685,0.742552,-0.00559093,-0.0030274,0.611122,0.4764122657256904,1.101291172840753,-0.005575329837546716,-0.04986139022087843,-0.0030228220455517096,-0.28586624339018896
836,0.8248,676.438,234.397,-0.0831944,398.306,-4.2376,-2.42449,0.389969,-0.0511969,-0.336991,0.743234,-0.00560229,-0.00303292,0.611683,0.47693500818771417,1.1027247422122204,-0.005586626437634967,-0.04990842091804315,-0.003028325344384908,-0.28608473488880737
837,0.8258,676.547,234.676,-0.0451836,398.289,-4.17789,-2.4497,0.390322,-0.0512435,-0.337296,0.743914,-0.0056116,-0.00303884,0.612244,0.47745645827613026,1.104155081297098,-0.005595884383047034,-0.0499526941540539,-0.0030342273992287616,-0.2863024458420582
838,0.8268,676.448,234.359,-0.0864067,398.296,-4.25531,-2.43061,0.390675,-0.0512931,-0.337601,0.744595,-0.00562313,-0.00304435,0.612805,0.4779780924689201,1.1055884989307687,-0.005607349796401873,-0.04999981533180908,-0.003039720665501844,-0.2865200904035935
839,0.8278,676.571,234.679,-0.0430673,398.277,-4.18625,-2.45889,0.391028,-0.0513396,-0.337906,0.745274,-0.00563231,-0.00305031,0.613366,0.4784999108310839,1.1070186790127328,-0.00561647827903089,-0.050043989313343085,-0.0030456625310598673,-0.2867376685936598
840,0.8288,676.458,234.318,-0.0899763,398.287,-4.27367,-2.43658,0.391381,-0.0513893,-0.338211,0.745954,-0.00564403,-0.0030558,0.613926,0.479021913427645,1.108451938967618,-0.005628132385612328,-0.05009120095385522,-0.0030511357953484364,-0.2869551804324971
841,0.8298,676.596,234.684,-0.0405379,398.266,-4.19404,-2.46831,0.391734,-0.0514355,-0.338516,0.746633,-0.00565307,-0.00306181,0.614486,0.4795441003236498,1.1098840639855978,-0.005637121466664841,-0.05013508572662506,-0.0030571274400174042,-0.28717262594033965
842,0.8308,676.554,234.547,-0.0667635,398.265,-4.22878,-2.46798,0.392086,-0.051484,-0.33882,0.747312,-0.00566389,-0.00306757,0.615045,0.4800649915184356,1.1113171617466744,-0.005647880414804574,-0.050181153057825556,-0.003062869814425273,-0.2873892925270639
843,0.8318,676.556,234.489,-0.0597425,398.263,-4.24852,-2.46094,0.392439,-0.0515323,-0.339125,0.74799,-0.00567452,-0.0030732,0.615605,0.48058754668600234,1.1127491201613875,-0.005658450321656572,-0.050227028200239277,-0.003068482554668406,-0.28760660565090723
844,0.8328,676.557,234.474,-0.0691852,398.257,-4.25547,-2.46752,0.392791,-0.0515803,-0.339429,0.748668,-0.00568499,-0.00307901,0.616164,0.48110880523855903,1.1141820497731039,-0.005668861023181648,-0.050272616208764664,-0.003074274709958469,-0.28782314032785083
845,0.8338,676.565,234.449,-0.0658911,398.252,-4.26631,-2.46801,0.393143,-0.0516283,-0.339733,0.749346,-0.00569554,-0.00308475,0.616722,0.4816302473064229,1.1156159512405188,-0.0056793511613622005,-0.050318202029118186,-0.003079997047198524,-0.2880396091882572
846,0.8348,676.574,234.45,-0.0684333,398.246,-4.27009,-2.47421,0.393494,-0.0516762,-0.340036,0.750023,-0.00570599,-0.00309056,0.617281,0.48215039080307087,1.1170487081730074,-0.005689741757851641,-0.050363690697778685,-0.003085789135589656,-0.28825530050778814
847,0.8358,676.58,234.427,-0.0682591,398.241,-4.28031,-2.47607,0.393846,-0.0517242,-0.34034,0.7507,-0.00571655,-0.00309633,0.617839,0.4826721995735892,1.1184824354103506,-0.005700241618739277,-0.05040927214666169,-0.003091541313991253,-0.288471638011467
848,0.8368,676.593,234.432,-0.0681476,398.235,-4.28348,-2.48167,0.394197,-0.0517721,-0.340643,0.751376,-0.00572702,-0.00310215,0.618396,0.48319270885967547,1.1199150136935931,-0.0057106518827116926,-0.05045475645316799,-0.0030973433043370857,-0.2886871984460946
849,0.8378,676.597,234.406,-0.0695861,398.23,-4.29403,-2.48395,0.394549,-0.0518201,-0.340947,0.752052,-0.00573762,-0.00310794,0.618954,0.48371488459073086,1.121348560727156,-0.005721191293942773,-0.0505003335309997,-0.0031031153540092005,-0.28890340467275544
850,0.8388,676.612,234.414,-0.0682937,398.224,-4.29674,-2.4894,0.3949,-0.0518679,-0.34125,0.752728,-0.0057481,-0.00311377,0.619511,0.48423575992349543,1.1227830771661358,-0.0057316112812572095,-0.05054571853034673,-0.0031089272459050576,-0.28911883430190255
851,0.8398,676.615,234.385,-0.0706269,398.219,-4.30779,-2.49175,0.39525,-0.0519159,-0.341553,0.753403,-0.00575874,-0.00311958,0.620068,0.48475533335951604,1.1242164394485705,-0.005742190240633049,-0.05059129124210349,-0.0031147191662121987,-0.28933419866576027
852,0.8408,676.63,234.395,-0.0687146,398.213,-4.31,-2.49724,0.395601,-0.0519637,-0.341856,0.754078,-0.00576924,-0.00312542,0.620624,0.485276573953898,1.125650769577157,-0.00575262989282721,-0.05063667189377585,-0.0031205409592526268,-0.2895494977841009
853,0.8418,676.632,234.365,-0.0715669,398.208,-4.32164,-2.49951,0.395952,-0.0520116,-0.342158,0.754753,-0.00577991,-0.00313125,0.62118,0.4857979975358413,1.1270860682054118,-0.005763238455669506,-0.05068214530809523,-0.003126352749557415,-0.2897640214410675
854,0.8428,676.649,234.377,-0.0691279,398.201,-4.32329,-2.50516,0.396302,-0.0520594,-0.342461,0.755427,-0.00579043,-0.00313711,0.621736,0.4863181178507243,1.1285202074660217,-0.0057736977713848114,-0.05072752161704708,-0.0031321944120141776,-0.28997919034283604
855,0.8438,676.65,234.343,-0.0724961,398.196,-4.33557,-2.50728,0.396652,-0.0521073,-0.342763,0.756101,-0.00580114,-0.00314295,0.622292,0.4868384202395788,1.1299553136623142,-0.005784345878060981,-0.050772990679768815,-0.0031380161029994635,-0.2901935842522426
856,0.8448,676.668,234.358,-0.0696227,398.19,-4.33659,-2.51313,0.397002,-0.0521551,-0.343065,0.756774,-0.00581168,-0.00314883,0.622847,0.4873589047661415,1.1313892560559013,-0.00579482485583116,-0.050818362646415705,-0.003143877634231851,-0.2904079134244645
857,0.8458,676.668,234.322,-0.0733847,398.185,-4.34959,-2.51505,0.397352,-0.052203,-0.343367,0.757447,-0.00582243,-0.00315468,0.623402,0.48787957149417194,1.1328241638175296,-0.005805512504017729,-0.05086382735795636,-0.0031497092254902936,-0.2906221778790492
858,0.8468,676.688,234.34,-0.0700573,398.178,-4.3499,-2.52115,0.397701,-0.0522507,-0.343669,0.75812,-0.00583298,-0.00316057,0.623957,0.4883989320877755,1.1342600375971101,-0.005816001200532828,-0.05090910007362859,-0.0031555806564115274,-0.2908363776355385
859,0.8478,676.687,234.3,-0.0743332,398.173,-4.36371,-2.52285,0.398051,-0.0522986,-0.34397,0.758792,-0.00584377,-0.00316644,0.624511,0.48891996288907746,1.1356947423491812,-0.0058267283880065746,-0.050954560438950636,-0.0031614321159790792,-0.29104980376362655
860,0.8488,676.707,234.321,-0.070499,398.166,-4.36323,-2.52922,0.3984,-0.0523462,-0.344272,0.759464,-0.00585434,-0.00317235,0.625065,0.48943968664264537,1.1371304115468632,-0.005837236743950758,-0.05099973392673618,-0.003167323414506429,-0.2912638743965974
861,0.8498,676.705,234.277,-0.0753103,398.162,-4.37793,-2.53066,0.398749,-0.0523942,-0.344573,0.760136,-0.00586517,-0.00317823,0.625619,0.48995959181145876,1.1385670458384811,-0.005848003468374885,-0.051045284846276906,-0.0031731847734123297,-0.2914771718675242
862,0.8508,676.727,234.303,-0.070944,398.154,-4.37656,-2.53734,0.399098,-0.0524417,-0.344874,0.760807,-0.00587575,-0.00318416,0.626173,0.4904796784588419,1.1400025058692207,-0.005858521540857531,-0.05109035912472415,-0.0031790959389000895,-0.29169040514557376
863,0.8518,676.724,234.254,-0.0762114,398.15,-4.39226,-2.53848,0.399447,-0.0524897,-0.345175,0.761478,-0.00588663,-0.00319005,0.626726,0.4909999466481423,1.1414389294168643,-0.005869337741302938,-0.05113590569435966,-0.003184967196734112,-0.2919035742500653
864,0.8528,676.747,234.284,-0.0713459,398.142,-4.3899,-2.54552,0.399795,-0.0525372,-0.345476,0.762148,-0.00589722,-0.003196,0.627279,0.49151890492307837,1.1428741742529036,-0.005879865529271444,-0.05118097566841884,-0.0031908982285344667,-0.29211667920031203
865,0.8538,676.742,234.231,-0.0773231,398.138,-4.4067,-2.54631,0.400144,-0.0525851,-0.345777,0.762818,-0.00590814,-0.00320191,0.627831,0.4920395358657115,1.1443103810251958,-0.005890721261867515,-0.05122642301121183,-0.0031967893529176727,-0.29232972001562163
866,0.8548,676.768,234.266,-0.0717599,398.13,-4.40323,-2.55374,0.400492,-0.0526326,-0.346077,0.763488,-0.00591874,-0.00320788,0.628384,0.49255885598065197,1.145747550378454,-0.005901258764373307,-0.05127148868580056,-0.003202740250321745,-0.29254198925763863
867,0.8558,676.761,234.207,-0.0783302,398.126,-4.42125,-2.55417,0.40084,-0.0526805,-0.346377,0.764157,-0.00592971,-0.00321379,0.628936,0.49307835685044155,1.1471835357732139,-0.0059121639677495175,-0.05131693169312379,-0.003208631304718823,-0.2927541948284341
868,0.8568,676.788,234.247,-0.071981,398.117,-4.41656,-2.56202,0.401187,-0.052728,-0.346677,0.764826,-0.00594032,-0.00321978,0.629487,0.49359654494070293,1.1486204821636203,-0.005922711183736662,-0.05136199306865219,-0.003214602067134753,-0.2929663367471067
869,0.8578,676.78,234.183,-0.0794398,398.114,-4.43593,-2.56204,0.401535,-0.0527759,-0.346977,0.765494,-0.00595134,-0.00322571,0.630039,0.4941164069890922,1.1500562401354792,-0.005933665855099135,-0.05140743174091933,-0.003220512987018642,-0.2931784150327491
870,0.8588,676.809,234.229,-0.0723785,398.105,-4.42987,-2.57034,0.401883,-0.0528233,-0.347277,0.766163,-0.00596196,-0.00323172,0.63059,0.4946364499809568,1.1514951090081027,-0.005944222783510367,-0.05145239396304169,-0.0032265036137337777,-0.2933904297044485
871,0.8598,676.799,234.158,-0.0806002,398.101,-4.45074,-2.56991,0.40223,-0.0528712,-0.347577,0.766831,-0.00597303,-0.00323766,0.631141,0.49515517882334925,1.1529327878721998,-0.0059552269200561225,-0.05149782830520966,-0.003232424430717473,-0.293602380781286
872,0.8608,676.831,234.211,-0.0726712,398.092,-4.44316,-2.57874,0.402577,-0.0529186,-0.347876,0.767498,-0.00598365,-0.00324369,0.631691,0.4956740876958836,1.1543692730562634,-0.005965783619490073,-0.05154278624263653,-0.0032384349210764496,-0.29381356209625253
873,0.8618,676.818,234.133,-0.081731,398.089,-4.46568,-2.57778,0.402924,-0.0529665,-0.348175,0.768165,-0.00599477,-0.00324964,0.632241,0.496193176661041,1.1558067166955532,-0.00597683721851805,-0.051588216255118,-0.003244365634744839,-0.29402468027744477
874,0.8628,676.852,234.193,-0.0729602,398.08,-4.45644,-2.58721,0.403271,-0.0530138,-0.348475,0.768832,-0.0060054,-0.0032557,0.632791,0.49671244578132434,1.1572451194295739,-0.005987403628577859,-0.05163307507156978,-0.003250405955586899,-0.2942364411076488
875,0.8638,676.837,234.107,-0.0829838,398.076,-4.48077,-2.58567,0.403617,-0.0530618,-0.348774,0.769498,-0.00601658,-0.00326166,0.633341,0.49723039788811185,1.158682323214851,-0.005998516627283568,-0.05167859559146504,-0.003256346565464363,-0.29444743286691766
876,0.8648,676.874,234.175,-0.073098,398.067,-4.46968,-2.59572,0.403964,-0.053109,-0.349072,0.770164,-0.0060272,-0.00326773,0.63389,0.49775002698661375,1.1601204844966602,-0.006009072866983156,-0.05172335530541561,-0.003262396781078314,-0.29465765620708995
877,0.8658,676.856,234.08,-0.0843419,398.064,-4.496,-2.59356,0.40431,-0.053157,-0.349371,0.77083,-0.00603844,-0.0032737,0.634439,0.49826833815861304,1.1615596039129064,-0.006020245262215229,-0.05176887149196374,-0.0032683472868072494,-0.29486852204187075
878,0.8668,676.896,234.157,-0.0732063,398.054,-4.48289,-2.6043,0.404656,-0.0532041,-0.34967,0.771495,-0.00604906,-0.0032798,0.634988,0.4987868286973065,1.1629975191033193,-0.0060308012711580705,-0.051813532126350315,-0.0032744273313446426,-0.2950793248371918
879,0.8678,676.875,234.053,-0.0856108,398.051,-4.51139,-2.60145,0.405002,-0.0532521,-0.349968,0.77216,-0.00606037,-0.00328578,0.635537,0.4993054986647656,1.1644363908253448,-0.006042042999223507,-0.05185904398451491,-0.0032803877324475428,-0.2952893599016114
880,0.8688,676.919,234.139,-0.0733957,398.04,-4.49605,-2.61296,0.405347,-0.0532992,-0.350266,0.772824,-0.00607098,-0.0032919,0.636085,0.49982284829948553,1.165874053840152,-0.006052588837201611,-0.05190370037187697,-0.0032864876378089214,-0.2954993323849069
881,0.8698,676.894,234.025,-0.0871061,398.038,-4.52696,-2.60934,0.405693,-0.0533472,-0.350564,0.773488,-0.00608235,-0.00329789,0.636633,0.5003418767917482,1.1673126717802011,-0.006063889955019497,-0.051949207902069694,-0.003292457933866899,-0.2957092423057246
882,0.8708,676.942,234.122,-0.0733515,398.027,-4.50915,-2.62168,0.406038,-0.0533942,-0.350862,0.774152,-0.00609295,-0.00330404,0.63718,0.5008595840386065,1.1687522452797734,-0.006074425621946822,-0.05199376524219257,-0.0032985876664016756,-0.2959190896827053
883,0.8718,676.913,233.996,-0.0884475,398.025,-4.54271,-2.61723,0.406384,-0.0534423,-0.351159,0.774815,-0.0061044,-0.00331004,0.637727,0.5013789713034991,1.1701906047818809,-0.006085806004620609,-0.05203936324544367,-0.0033045678569350034,-0.2961281706630071
884,0.8728,676.966,234.106,-0.073238,398.014,-4.52219,-2.6305,0.406729,-0.0534892,-0.351457,0.775478,-0.00611498,-0.00331621,0.638274,0.5018970364096911,1.171629918232537,-0.006096321561165685,-0.05208382155675195,-0.003310717448779865,-0.2963378932179368
885,0.8738,676.932,233.967,-0.0900017,398.012,-4.55865,-2.62512,0.407074,-0.0535373,-0.351754,0.776141,-0.0061265,-0.00332221,0.638821,0.5024152802791795,1.1730701862644195,-0.006107771265590922,-0.052129415228398424,-0.003316697566534854,-0.2965468498320579
886,0.8748,676.989,234.089,-0.0733604,398.0,-4.53516,-2.63938,0.407418,-0.0535842,-0.352052,0.776803,-0.00613707,-0.00332841,0.639367,0.502932200040697,1.1745092350003037,-0.006118276650927568,-0.052173869316367694,-0.0033228769838536953,-0.29675644763918363
887,0.8758,676.952,233.937,-0.0915945,397.999,-4.57478,-2.63297,0.407763,-0.0536323,-0.352349,0.777465,-0.00614867,-0.00333442,0.639914,0.5034508011032506,1.1759492367018476,-0.006129805612050343,-0.052219458656821205,-0.0033288669953630556,-0.2969652799610999
888,0.8768,677.013,234.073,-0.0732137,397.986,-4.54805,-2.64836,0.408107,-0.0536791,-0.352646,0.778127,-0.00615921,-0.00334064,0.640459,0.5039680771452082,1.1773901920001237,-0.00614028094869401,-0.05226381374823885,-0.0033350662705304845,-0.2971740502690261
889,0.8778,676.971,233.906,-0.093436,397.986,-4.59111,-2.64083,0.408451,-0.0537273,-0.352942,0.778788,-0.0061709,-0.00334666,0.641005,0.5044855311607341,1.17882992269561,-0.006151899100901526,-0.05230949353152459,-0.0033410661753718873,-0.29738205596378486
890,0.8788,677.038,234.057,-0.0728826,397.972,-4.56085,-2.65741,0.408795,-0.0537739,-0.353239,0.779449,-0.00618141,-0.00335291,0.64155,0.5050031632110614,1.1802706053676797,-0.006162344389551877,-0.05235365488015853,-0.003347295274242268,-0.2975907025076182
891,0.8798,676.99,233.874,-0.0953899,397.973,-4.60767,-2.64869,0.409139,-0.0538222,-0.353535,0.780109,-0.0061932,-0.00335894,0.642095,0.5055209733574448,1.1817100589346472,-0.00617406166643808,-0.05239942509326834,-0.003353305071932211,-0.2977985848915653
892,0.8808,677.063,234.042,-0.0725676,397.958,-4.57355,-2.66654,0.409483,-0.0538688,-0.353831,0.780769,-0.00620367,-0.00336522,0.64264,0.50603896166116,1.183150462854551,-0.0061844669695405585,-0.05244358225118917,-0.003359563993523329,-0.2980064057514328
893,0.8818,677.009,233.841,-0.0971101,397.959,-4.62447,-2.65651,0.409826,-0.0539171,-0.354127,0.781429,-0.00621555,-0.00337125,0.643184,0.5065556216271287,1.1845918177548311,-0.006196273427942489,-0.05248934812091177,-0.003365573717233117,-0.2982141651054291
894,0.8828,677.089,234.027,-0.072276,397.944,-4.58613,-2.6758,0.410169,-0.0539635,-0.354423,0.782088,-0.00622599,-0.00337756,0.643728,0.5070724588378612,1.1860319382303102,-0.006206648684688898,-0.05253331159519847,-0.0033718624606219327,-0.2984218629717571
895,0.8838,677.028,233.807,-0.0992051,397.946,-4.6415,-2.6643,0.410513,-0.054012,-0.354719,0.782747,-0.00623797,-0.00338359,0.644272,0.5075909809443906,1.1874730080579594,-0.006218554257723219,-0.05257926261526491,-0.003377872110172264,-0.2986294993686147
896,0.8848,677.115,234.013,-0.0717012,397.93,-4.5986,-2.68514,0.410855,-0.0540583,-0.355015,0.783406,-0.00624836,-0.00338993,0.644815,0.5081066652368611,1.188915027863609,-0.006228879593304204,-0.05262312717993334,-0.003384190674433185,-0.29883707431419415
897,0.8858,677.047,233.772,-0.10133,397.932,-4.6588,-2.67208,0.411198,-0.0541068,-0.35531,0.784064,-0.00626045,-0.00339597,0.645359,0.5086240345468016,1.1903558079165966,-0.006240894213521364,-0.0526690738440494,-0.003390210215742484,-0.29904388687091954
898,0.8868,677.141,234.0,-0.0710998,397.915,-4.61092,-2.69458,0.411541,-0.054153,-0.355605,0.784722,-0.0062708,-0.00340234,0.645901,0.509141581344853,1.191797536314831,-0.0062511795670394665,-0.052712839521842914,-0.0033965585998837478,-0.29925063842693866
899,0.8878,677.066,233.736,-0.103799,397.919,-4.67636,-2.67984,0.411884,-0.0542016,-0.3559,0.785379,-0.006283,-0.00340838,0.646444,0.5096593056919039,1.1932380204434105,-0.006263303228694284,-0.05275887655913314,-0.0034025780664910243,-0.29945732900024424
900,0.8888,677.168,233.987,-0.0702538,397.9,-4.6231,-2.70412,0.412226,-0.0542476,-0.356195,0.786036,-0.00629328,-0.00341478,0.646986,0.5101756974724119,1.1946794512810226,-0.006273518789429056,-0.052802448648645584,-0.0034089562695811537,-0.29966395860882333
901,0.8898,677.085,233.698,-0.106045,397.905,-4.69422,-2.68756,0.412568,-0.0542963,-0.35649,0.786693,-0.00630561,-0.00342082,0.647529,0.5106922658891118,1.1961218294498592,-0.006285771361405068,-0.0528485760461852,-0.003414975661306663,-0.2998705272706581
902,0.8908,677.196,233.975,-0.0696267,397.885,-4.63511,-2.7138,0.41291,-0.0543422,-0.356785,0.78735,-0.00631583,-0.00342726,0.64807,0.5112090110024234,1.1975651555725215,-0.0062959270689260105,-0.05289204929882585,-0.0034213936481974905,-0.30007703500372507
903,0.8918,677.103,233.66,-0.108421,397.891,-4.71237,-2.69521,0.413252,-0.054391,-0.357079,0.788006,-0.00632829,-0.0034333,0.648612,0.5117259328727877,1.199007231263689,-0.0063083085445380105,-0.0529382670390981,-0.003427412964801424,-0.3002827821091274
904,0.8928,677.224,233.964,-0.0686665,397.87,-4.64694,-2.72362,0.413593,-0.0544368,-0.357374,0.788661,-0.00633844,-0.00343977,0.649153,0.5122415193183902,1.2004480528177135,-0.006318394464020161,-0.052981641473185515,-0.0034338607685808764,-0.30048916824495353
905,0.8938,677.122,233.62,-0.111038,397.877,-4.73084,-2.70282,0.413935,-0.0544857,-0.357667,0.789317,-0.00635103,-0.00344581,0.649694,0.5127587943669885,1.2018920203099168,-0.006330904836680862,-0.05302794953867607,-0.0034398800098837112,-0.3006940948954374
906,0.8948,677.253,233.954,-0.0674411,397.855,-4.65859,-2.73353,0.414276,-0.0545313,-0.357962,0.789972,-0.0063611,-0.00345232,0.650234,0.5132747330784184,1.2033347320197247,-0.006340911034087848,-0.05307113047964418,-0.0034463675951478256,-0.3009003597118869
907,0.8958,677.14,233.579,-0.113848,397.863,-4.74963,-2.71041,0.414617,-0.0545804,-0.358255,0.790627,-0.00637384,-0.00345836,0.650775,0.5137908477549493,1.20477838901525,-0.006353570170242406,-0.05311762354572358,-0.0034523867609096426,-0.3011051659009194
908,0.8968,677.282,233.944,-0.0663141,397.84,-4.67003,-2.74358,0.414958,-0.0546258,-0.358549,0.79128,-0.00638382,-0.00346491,0.651314,0.5143071384565956,1.2062185794742861,-0.006363486712128497,-0.053160611029791305,-0.003458914126399204,-0.30131061078026755
909,0.8978,677.158,233.536,-0.116814,397.849,-4.76878,-2.71793,0.415299,-0.054675,-0.358842,0.791935,-0.00639672,-0.00347094,0.651855,0.5148236052433917,1.2076641260086505,-0.006376304540474775,-0.053207194381768796,-0.003464923251029428,-0.3015152967833451
910,0.8988,677.312,233.936,-0.0649884,397.824,-4.68126,-2.75377,0.415639,-0.0547203,-0.359136,0.792588,-0.0064066,-0.00347753,0.652394,0.5153387328359027,1.209106201469329,-0.0063861214940901245,-0.05325008312442592,-0.003471490395546506,-0.301720621101937
911,0.8998,677.27,233.782,-0.0913138,397.822,-4.72011,-2.75239,0.41598,-0.0547681,-0.359429,0.793241,-0.00641848,-0.00348384,0.652933,0.5158555514563667,1.2105492189128073,-0.006397925556850481,-0.053295336688883754,-0.0034777784706031545,-0.30192518698958815
912,0.9008,677.274,233.718,-0.0856071,397.817,-4.74127,-2.74632,0.41632,-0.0548156,-0.359722,0.793894,-0.00643012,-0.00349005,0.653472,0.5163710299702433,1.2119931789544016,-0.006409491017685842,-0.053340304092406754,-0.003483966854383902,-0.3021296929482141
913,0.9018,677.278,233.697,-0.0944184,397.81,-4.74998,-2.75295,0.41666,-0.0548628,-0.360015,0.794546,-0.00644161,-0.00349642,0.654011,0.5168866837766128,1.2134358687728528,-0.006420907307047363,-0.05338498537556702,-0.003490314641297343,-0.30233413899537176
914,0.9028,677.289,233.67,-0.092041,397.803,-4.76138,-2.75448,0.417,-0.0549101,-0.360308,0.795199,-0.00645316,-0.00350273,0.654549,0.5174025129350848,1.2148817144123858,-0.0064323830792952785,-0.05342975920684934,-0.0034966025975734505,-0.30253852514861257
915,0.9038,677.302,233.665,-0.0942307,397.795,-4.76684,-2.76084,0.41734,-0.0549573,-0.3606,0.79585,-0.00646463,-0.0035091,0.655087,0.5179185175052887,1.2163240718448733,-0.006443779234504232,-0.053474436267827774,-0.0035029503039973875,-0.30274215416798544
916,0.9048,677.312,233.64,-0.094124,397.788,-4.7774,-2.76372,0.41768,-0.0550046,-0.360893,0.796502,-0.0064762,-0.00351545,0.655625,0.518434697546875,1.2177695863262294,-0.006455274613477613,-0.05351920586818293,-0.0035092780401724255,-0.30294642079029277
917,0.9058,677.327,233.638,-0.0942834,397.779,-4.78243,-2.76957,0.418019,-0.0550517,-0.361185,0.797153,-0.0064877,-0.00352183,0.656162,0.5189495341692205,1.219213824375407,-0.006466700312121709,-0.05356378406376183,-0.0035156356306977887,-0.30314993072152596
918,0.9068,677.336,233.613,-0.0955931,397.772,-4.79309,-2.77283,0.418358,-0.055099,-0.361477,0.797803,-0.0064993,-0.0035282,0.656699,0.5194645453507669,1.2206567822717629,-0.006478225231553392,-0.053608549438066144,-0.0035219832158817077,-0.30335338123653455
919,0.9078,677.352,233.612,-0.0949996,397.764,-4.79793,-2.77852,0.418698,-0.0551461,-0.361769,0.798454,-0.00651083,-0.0035346,0.657236,0.5199812511311914,1.2221029004974322,-0.006489680471576831,-0.053653123425661975,-0.0035283606547813484,-0.3035567723526653
920,0.9088,677.36,233.585,-0.0969018,397.757,-4.80884,-2.78189,0.419037,-0.0551934,-0.362061,0.799104,-0.00652247,-0.00354099,0.657773,0.5204966121240775,1.2235477369037175,-0.006501244864391298,-0.05369788457431435,-0.0035347280882127574,-0.3037601040872604
921,0.9098,677.378,233.585,-0.0954294,397.748,-4.81345,-2.78755,0.419375,-0.0552405,-0.362353,0.799753,-0.00653402,-0.00354741,0.658309,0.5210106268425694,1.2249912877665543,-0.006512719708745784,-0.05374245435432434,-0.0035411253747231752,-0.3039633764576565
922,0.9108,677.385,233.557,-0.0977031,397.741,-4.82466,-2.79098,0.419714,-0.0552877,-0.362644,0.800402,-0.0065457,-0.00355381,0.658845,0.521526336852977,1.2264357757979791,-0.006524323572412838,-0.053787116656440204,-0.003547502691113258,-0.3041658936474271
923,0.9118,677.403,233.558,-0.0962775,397.733,-4.82905,-2.79669,0.420053,-0.0553348,-0.362935,0.801051,-0.00655728,-0.00356025,0.659381,0.5220422217187144,1.227881201606412,-0.006535827954135431,-0.05383168223371815,-0.003553919824532792,-0.3043683519132693
924,0.9128,677.411,233.529,-0.0985839,397.725,-4.84056,-2.80005,0.420391,-0.0553821,-0.363226,0.8017,-0.00656899,-0.00356667,0.659917,0.5225567589415474,1.2293275658006682,-0.006547461351476436,-0.05387643493673866,-0.003560316987832546,-0.3045707512723276
925,0.9138,677.429,233.531,-0.0971885,397.717,-4.84471,-2.8059,0.420729,-0.0554291,-0.363518,0.802348,-0.0065806,-0.00357313,0.660452,0.5230714701073564,1.2307726382162039,-0.006558995268495571,-0.05392090169931962,-0.0035667539673933657,-0.3047737869683018
926,0.9148,677.436,233.5,-0.0996034,397.709,-4.85654,-2.80916,0.421067,-0.0554763,-0.363808,0.802996,-0.00659235,-0.00357957,0.660987,0.5235863552749442,1.2322186473421262,-0.006570668131722912,-0.053965555578919466,-0.0035731709768350717,-0.30497537333864444
927,0.9158,677.455,233.504,-0.0980151,397.7,-4.86044,-2.81513,0.421405,-0.0555234,-0.364099,0.803643,-0.00660399,-0.00358605,0.661521,0.5241014145031331,1.2336633601211426,-0.006582231581846454,-0.054010112751922135,-0.0035796278017670158,-0.30517759608016704
928,0.9168,677.462,233.472,-0.100538,397.693,-4.87261,-2.81832,0.421743,-0.0555706,-0.36439,0.80429,-0.00661578,-0.00359251,0.662056,0.5246166478507657,1.235109007931778,-0.006593943908291822,-0.054054762420859714,-0.00358606465658029,-0.30537975998343314
929,0.9178,677.481,233.477,-0.0985867,397.684,-4.87622,-2.82442,0.42208,-0.0556176,-0.36468,0.804937,-0.00662745,-0.003599,0.66259,0.5251305302454115,1.2365555913791924,-0.006605536889321306,-0.05409922080224583,-0.0035925313620361887,-0.3055811706470801
930,0.9188,677.488,233.443,-0.10152,397.677,-4.88875,-2.82754,0.422417,-0.0556648,-0.36497,0.805583,-0.00663927,-0.00360548,0.663124,0.525644585847608,1.2380008730669467,-0.006617278742480748,-0.0541438662653827,-0.003598988061513264,-0.3057825229101032
931,0.9198,677.508,233.449,-0.0994463,397.668,-4.89208,-2.83375,0.422755,-0.0557118,-0.36526,0.806229,-0.00665097,-0.00361199,0.663657,0.5261603408753142,1.2394470887083062,-0.006628901252327624,-0.05418832045898647,-0.003605474610987258,-0.305983816789436
932,0.9208,677.513,233.413,-0.102944,397.661,-4.90499,-2.83679,0.423092,-0.055759,-0.36555,0.806875,-0.00666283,-0.00361849,0.66419,0.5266747435821768,1.2408942389067992,-0.0066406825636954325,-0.054232961716718875,-0.003611951154353421,-0.30618505230200743
933,0.9218,677.535,233.421,-0.100335,397.651,-4.90797,-2.84309,0.423429,-0.055806,-0.36584,0.80752,-0.00667455,-0.00362502,0.664723,0.5271893196719653,1.2423400819251418,-0.006652324666672982,-0.054277411722934876,-0.0036184575470690206,-0.30638622946474137
934,0.9228,677.54,233.383,-0.103916,397.644,-4.92133,-2.84608,0.423765,-0.0558532,-0.36613,0.808165,-0.00668646,-0.00363153,0.665256,0.5277025414998138,1.2437868578130495,-0.006664155367034241,-0.05432204877565883,-0.0036249439697970676,-0.3065873482945568
935,0.9238,677.562,233.393,-0.100884,397.635,-4.92394,-2.85253,0.424102,-0.0559002,-0.366419,0.80881,-0.0066982,-0.00363808,0.665789,0.5282174640158697,1.245234567172417,-0.006675817061395972,-0.05436649459488141,-0.003631470205040621,-0.3067877155964299
936,0.9248,677.566,233.354,-0.104854,397.627,-4.93773,-2.85542,0.424438,-0.0559474,-0.366708,0.809454,-0.00671015,-0.00364461,0.666321,0.5287310313582609,1.2466809639234406,-0.006687687214457783,-0.054411127442993035,-0.0036379764702971773,-0.30698802500051947
937,0.9258,677.589,233.365,-0.101925,397.618,-4.93997,-2.86201,0.424774,-0.0559943,-0.366998,0.810098,-0.00672192,-0.00365119,0.666853,0.5292447712882724,1.2481282924539725,-0.006699378431576308,-0.054455474521168834,-0.003644532510842624,-0.30718896933493256
938,0.9268,677.593,233.323,-0.105833,397.61,-4.95423,-2.86475,0.425111,-0.0560415,-0.367287,0.810742,-0.00673391,-0.00365774,0.667384,0.5297602136233517,1.249576553364272,-0.006711288034630725,-0.054500103169527025,-0.0036510586177816995,-0.30738916279344664
939,0.9278,677.616,233.336,-0.10261,397.601,-4.95609,-2.87155,0.425446,-0.0560884,-0.367575,0.811385,-0.00674571,-0.00366433,0.667915,0.5302727691431717,1.251023496230364,-0.006723008772279382,-0.054544446074839104,-0.003657624535670645,-0.3075886059933628
940,0.9288,677.62,233.293,-0.106918,397.594,-4.97081,-2.87416,0.425782,-0.0561356,-0.367864,0.812028,-0.00675774,-0.0036709,0.668446,0.5307870271841166,1.2524713697799008,-0.0067349578226101325,-0.0545890705238391,-0.0036641704835740363,-0.30778868397357007
941,0.9298,677.644,233.307,-0.103572,397.584,-4.97226,-2.88113,0.426118,-0.0561825,-0.368153,0.81267,-0.00676957,-0.00367751,0.668977,0.5313014580447952,1.2539179206924578,-0.006746708078556263,-0.05463340925668014,-0.0036707562416411488,-0.30798870413959556
942,0.9308,677.648,233.262,-0.107495,397.577,-4.98749,-2.88358,0.426453,-0.0562297,-0.368441,0.813312,-0.00678164,-0.00368409,0.669508,0.5318145299679891,1.2553654005888726,-0.0067586965734389715,-0.054678029506717074,-0.003677312066496352,-0.30818797469646575
943,0.9318,677.672,233.279,-0.104271,397.567,-4.98851,-2.89079,0.426789,-0.0562766,-0.368729,0.813954,-0.00679349,-0.00369073,0.670038,0.5323293061276102,1.256813810065744,-0.006770466413148157,-0.054722364067479656,-0.0036839276271806165,-0.30838718787167896
944,0.9328,677.675,233.231,-0.108849,397.559,-5.00423,-2.89307,0.427124,-0.0563238,-0.369017,0.814596,-0.0068056,-0.00369733,0.670568,0.5328427224375933,1.258263149720055,-0.00678249434997058,-0.05476698011894854,-0.003690503291558511,-0.30858634368175875
945,0.9338,677.7,233.249,-0.105096,397.549,-5.00482,-2.90044,0.427459,-0.0563706,-0.369305,0.815237,-0.00681748,-0.00370398,0.671098,0.5333563107708525,1.25971116043688,-0.00679429370384943,-0.05481121598915151,-0.0036971287276820197,-0.3087854421432238
946,0.9348,677.702,233.2,-0.1101,397.542,-5.0211,-2.90262,0.427793,-0.0564178,-0.369593,0.815877,-0.00682963,-0.0037106,0.671627,0.5338685373157213,1.2611578384671494,-0.006806361079871426,-0.05485582784690868,-0.0037037242308587404,-0.3089844832725881
947,0.9358,677.728,233.22,-0.106047,397.532,-5.02119,-2.91015,0.428128,-0.0564647,-0.369881,0.816518,-0.00684154,-0.00371728,0.672156,0.5343824693545323,1.262607705274275,-0.006818189945669961,-0.05490015406912463,-0.0037103794677523227,-0.309183467086361
948,0.9368,677.73,233.168,-0.111296,397.524,-5.03804,-2.9122,0.428463,-0.0565119,-0.370168,0.817158,-0.00685374,-0.00372392,0.672685,0.5348965735894173,1.2640562376865794,-0.006830306689840304,-0.054944761729103564,-0.003716994808869667,-0.3093817029830954
949,0.9378,677.757,233.191,-0.106618,397.514,-5.03763,-2.91993,0.428797,-0.0565587,-0.370456,0.817797,-0.00686567,-0.00373061,0.673213,0.5354093146679897,1.2655034319517853,-0.006842155133605421,-0.05498898927932183,-0.0037236599198796627,-0.30958057241406367
950,0.9388,677.758,233.136,-0.112185,397.507,-5.05509,-2.92183,0.429131,-0.0566059,-0.370743,0.818437,-0.00687791,-0.00373727,0.673742,0.5359222270306851,1.2669538182223348,-0.006854311311230599,-0.05503359274637776,-0.003730295098209435,-0.30977869435792194
951,0.9398,677.786,233.161,-0.107385,397.496,-5.05413,-2.92978,0.429465,-0.0566527,-0.37103,0.819076,-0.00688987,-0.00374399,0.67427,0.5364353107347222,1.2684028646332006,-0.006866189262637046,-0.05507781613940177,-0.0037369900081314356,-0.3099767594489411
952,0.9408,677.786,233.103,-0.113656,397.489,-5.07223,-2.9315,0.429799,-0.0566998,-0.371317,0.819714,-0.00690216,-0.00375066,0.674797,0.5369485658373383,1.269850567428922,-0.0068783948021677865,-0.05512232092616565,-0.003743635060246775,-0.31017476770343555
953,0.9418,677.816,233.131,-0.108159,397.478,-5.07072,-2.93964,0.430133,-0.0567466,-0.371603,0.820353,-0.00691414,-0.0037574,0.675325,0.5374619923957902,1.2713014654540586,-0.006890292327731751,-0.055166540166808,-0.0037503498055178053,-0.31037202951008946
954,0.9428,677.815,233.071,-0.114508,397.471,-5.08947,-2.94121,0.430466,-0.0567938,-0.37189,0.820991,-0.00692647,-0.00376409,0.675852,0.5379740524925325,1.2727510181471584,-0.00690253729493695,-0.05521113525365984,-0.0037570146933835202,-0.31056992433835384
955,0.9438,677.845,233.101,-0.109094,397.46,-5.08734,-2.9496,0.4308,-0.0568406,-0.372177,0.821628,-0.00693848,-0.00377086,0.676379,0.5384878216207332,1.2741992217495959,-0.006914464323842129,-0.055255350337888864,-0.003763759235563713,-0.3107677623789519
956,0.9448,677.843,233.038,-0.115918,397.453,-5.10681,-2.95095,0.431133,-0.0568878,-0.372463,0.822266,-0.00695086,-0.00377757,0.676906,0.53900022337549,1.2756506238010945,-0.0069267586466718045,-0.05529994123299953,-0.003770443958311942,-0.3109648546133785
957,0.9458,677.875,233.071,-0.10966,397.442,-5.10406,-2.95957,0.431466,-0.0569345,-0.372749,0.822902,-0.00696289,-0.00378435,0.677432,0.5395127957884442,1.2770983979412067,-0.00693870524590634,-0.055344057695616566,-0.0037771983718044577,-0.3111618904874861
958,0.9468,677.872,233.004,-0.116807,397.435,-5.12422,-2.96076,0.431799,-0.0569817,-0.373035,0.823539,-0.00697531,-0.00379108,0.677958,0.5400255389164346,1.2785493717067764,-0.00695103899059446,-0.05538864440383873,-0.003783902928698568,-0.31135887001739115
959,0.9478,677.905,233.04,-0.110568,397.423,-5.12085,-2.96963,0.432132,-0.0570284,-0.373321,0.824175,-0.00698737,-0.00379788,0.678484,0.5405384528163184,1.279998990036947,-0.006963015088848223,-0.05543275672411441,-0.003790677175126156,-0.3115557932192061
960,0.9488,677.901,232.971,-0.118216,397.416,-5.14174,-2.97058,0.432464,-0.0570756,-0.373606,0.824811,-0.00699984,-0.00380463,0.67901,0.541049996494205,1.2814495306176203,-0.006975398182841319,-0.055477339245841195,-0.0037974015653603477,-0.31175197186135417
961,0.9498,677.935,233.01,-0.111484,397.405,-5.13773,-2.97972,0.432797,-0.0571223,-0.373892,0.825446,-0.00701192,-0.00381145,0.679535,0.5415632515952691,1.2828987111356818,-0.0069873938475772945,-0.05552144742416443,-0.003804195643913877,-0.31194878265211723
962,0.9508,677.93,232.937,-0.119178,397.398,-5.15937,-2.98049,0.433129,-0.0571695,-0.374177,0.826082,-0.00702444,-0.00381822,0.68006,0.5420751355628355,1.284351096525561,-0.006999826287579114,-0.05556602575978897,-0.0038109398666801297,-0.3121448493082357
963,0.9518,677.965,232.979,-0.112312,397.386,-5.15464,-2.9899,0.433461,-0.0572161,-0.374463,0.826716,-0.00703654,-0.00382507,0.680585,0.5425871895040932,1.2857998343221122,-0.007011841516988748,-0.05561003535755704,-0.0038177637383702834,-0.3123415477521154
964,0.9528,677.96,232.903,-0.120241,397.379,-5.17707,-2.99039,0.433793,-0.0572634,-0.374748,0.827351,-0.00704911,-0.00383185,0.681109,0.543099413475483,1.2872517781602868,-0.007024323299692714,-0.0556547039464641,-0.0038245178310357675,-0.3125375024861301
965,0.9538,677.996,232.947,-0.113066,397.367,-5.17166,-3.00012,0.434125,-0.05731,-0.375033,0.827985,-0.00706124,-0.00383872,0.681633,0.5436118075334639,1.2887023555720911,-0.0070363680215996816,-0.055698709411924896,-0.0038313615330900497,-0.31273340138100303
966,0.9548,677.99,232.868,-0.121806,397.36,-5.19488,-3.00039,0.434457,-0.0573572,-0.375317,0.828619,-0.00707386,-0.00384553,0.682157,0.5441243717345143,1.29015385294157,-0.007048899143563658,-0.055743279380981114,-0.00383814541841887,-0.312928557381547
967,0.9558,678.027,232.916,-0.114062,397.348,-5.18878,-3.01037,0.434789,-0.0574038,-0.375602,0.829252,-0.00708601,-0.00385242,0.682681,0.5446371061351309,1.291603979247037,-0.007060963426148481,-0.055787280718922916,-0.0038450089499521,-0.31312434484165497
968,0.9568,678.02,232.833,-0.122902,397.341,-5.21277,-3.01041,0.43512,-0.0574511,-0.375886,0.829885,-0.00709868,-0.00385924,0.683204,0.5451484656425916,1.2930550237730412,-0.007073543884044464,-0.05583194092432264,-0.0038518027038243474,-0.3133193898300206
969,0.9578,678.058,232.884,-0.115199,397.329,-5.20595,-3.02071,0.435451,-0.0574977,-0.376171,0.830518,-0.00711085,-0.00386616,0.683727,0.5456599944380645,1.2945069871010007,-0.007085627725485044,-0.05587593813073277,-0.003858696025498709,-0.3135150659187519
970,0.9588,678.05,232.798,-0.124323,397.322,-5.23077,-3.02047,0.435782,-0.0575449,-0.376455,0.83115,-0.00712357,-0.003873,0.68425,0.5461716925775939,1.2959575738539795,-0.007098257515974815,-0.05592049973479085,-0.003865509608715345,-0.31370999995808724
971,0.9598,678.09,232.852,-0.115729,397.309,-5.22322,-3.03109,0.436113,-0.0575915,-0.376739,0.831782,-0.00713577,-0.00387994,0.684773,0.5466835601172413,1.2974090776675467,-0.007110370843341651,-0.05596449281445648,-0.003872422758090077,-0.31390487864401584
972,0.9608,678.08,232.762,-0.125633,397.303,-5.24886,-3.03064,0.436444,-0.0576388,-0.377023,0.832414,-0.00714854,-0.00388679,0.685295,0.5471955971130882,1.2988614991214673,-0.007123049962949657,-0.05600914463792239,-0.0038792462086237878,-0.314099701992256
973,0.9618,678.122,232.82,-0.116603,397.29,-5.24052,-3.0415,0.436775,-0.0576853,-0.377307,0.833045,-0.00716076,-0.00389376,0.685817,0.5477078036212333,1.3003125384821859,-0.007135182845147026,-0.05605303919214044,-0.00388618914608152,-0.3142944700185214
974,0.9628,678.11,232.726,-0.127446,397.283,-5.26711,-3.04082,0.437105,-0.0577326,-0.37759,0.833676,-0.00717358,-0.00390063,0.686339,0.5482186314783888,1.301764493737675,-0.007147911290513398,-0.056097686827461746,-0.0038930324244553782,-0.31448849722736116
975,0.9638,678.153,232.788,-0.117539,397.27,-5.2579,-3.05194,0.437436,-0.0577791,-0.377874,0.834307,-0.00718582,-0.00390762,0.686861,0.5487311766669574,1.3032173654660477,-0.007160063725706212,-0.0561415772645637,-0.0038999951878239125,-0.3146831548514576
976,0.9648,678.142,232.69,-0.12777,397.264,-5.28542,-3.05107,0.437766,-0.0578264,-0.378157,0.834937,-0.0071987,-0.00391451,0.687382,0.5492423422929469,1.3046688495757781,-0.007172851421732407,-0.056186220712133195,-0.003906858293213578,-0.31487707207805293
977,0.9658,678.186,232.755,-0.118258,397.25,-5.27538,-3.06259,0.438096,-0.0578729,-0.37844,0.835567,-0.00721096,-0.00392153,0.687903,0.549753676631429,1.3061212484086049,-0.007185023407959568,-0.056230107032505305,-0.003913850842524491,-0.3150709344338376
978,0.9668,678.173,232.654,-0.12934,397.244,-5.30383,-3.06129,0.438426,-0.0579202,-0.378723,0.836197,-0.00722389,-0.00392844,0.688424,0.550265179738088,1.3075745625409856,-0.0071978604226153875,-0.05627474629271578,-0.003920733774034679,-0.31526474193433796
979,0.9678,678.218,232.723,-0.119489,397.23,-5.29296,-3.07317,0.438756,-0.0579666,-0.379006,0.836826,-0.00723618,-0.00393547,0.688944,0.5507768516686267,1.3090264835221022,-0.00721006188593265,-0.056318534128602216,-0.003927736186662756,-0.315458494595076
980,0.9688,678.204,232.617,-0.130798,397.224,-5.32235,-3.07161,0.439085,-0.0580139,-0.379289,0.837455,-0.00724915,-0.0039424,0.689464,0.5512871411908493,1.3104793180487961,-0.007222938287926417,-0.056363169206310015,-0.003934638943532853,-0.31565219243156895
981,0.9698,678.251,232.69,-0.120021,397.21,-5.31062,-3.08383,0.439415,-0.0580604,-0.379572,0.838084,-0.00726147,-0.00394946,0.689984,0.5517991504243194,1.3119330666958686,-0.007235169225983995,-0.05640704729876833,-0.003941671140158198,-0.31584583545933
982,0.9708,678.236,232.58,-0.131862,397.204,-5.34093,-3.08203,0.439744,-0.0581077,-0.379854,0.838712,-0.0072745,-0.00395641,0.690504,0.5523097763381659,1.3133854166519079,-0.007248104867453087,-0.056451678189902155,-0.003948593721487814,-0.3160387397329495
983,0.9718,678.284,232.656,-0.121114,397.19,-5.32838,-3.09459,0.440073,-0.0581541,-0.380136,0.83934,-0.00728684,-0.0039635,0.691023,0.5528205702755764,1.3148386789701711,-0.007260355350253378,-0.05649545781633902,-0.003955655700923599,-0.31623158961523334
984,0.9728,678.268,232.543,-0.132852,397.184,-5.35962,-3.09242,0.440402,-0.0582015,-0.380418,0.839968,-0.00729992,-0.00397046,0.691542,0.55333153229184,1.3162928542238022,-0.0072733402998835794,-0.05654017887174112,-0.003962588145434931,-0.3164243851215178
985,0.9738,678.317,232.622,-0.121776,397.169,-5.34625,-3.1054,0.440731,-0.0582479,-0.3807,0.840595,-0.00731228,-0.00397757,0.692061,0.5538426624422632,1.3177456252395197,-0.0072856103255686255,-0.056583954391841496,-0.00396966994625747,-0.3166171262671348
986,0.9748,678.3,232.505,-0.134655,397.163,-5.37838,-3.10293,0.44106,-0.0582952,-0.380982,0.841222,-0.00732541,-0.00398456,0.69258,0.5543539607821717,1.3191993074282875,-0.007298644579934899,-0.056628576915467854,-0.003976632173931516,-0.3168098130674116
987,0.9758,678.35,232.588,-0.122724,397.149,-5.36422,-3.11616,0.441388,-0.0583416,-0.381264,0.841848,-0.0073378,-0.00399169,0.693098,0.5548638725022588,1.3206515807088488,-0.007310944073533054,-0.05667234833399415,-0.003983733795226763,-0.31700244553767176
988,0.9768,678.332,232.467,-0.135594,397.143,-5.39729,-3.1135,0.441717,-0.058389,-0.381545,0.842475,-0.00735099,-0.0039987,0.693616,0.5553755068755515,1.3221070855030224,-0.007324037555828999,-0.056717061004984415,-0.003990715844780723,-0.3171943408879163
989,0.9778,678.384,232.554,-0.124288,397.128,-5.38221,-3.12712,0.442045,-0.0584353,-0.381827,0.8431,-0.0073634,-0.00400585,0.694134,0.5558857537177142,1.3235588560625033,-0.007336356588083182,-0.05676073399402248,-0.003997837285703243,-0.31738686493661916
990,0.9788,678.364,232.429,-0.137448,397.122,-5.41629,-3.12405,0.442373,-0.0584827,-0.382108,0.843726,-0.00737664,-0.00401288,0.694652,0.5563961679482914,1.3250138592748892,-0.007349499367716561,-0.056805442475631684,-0.00400483915629557,-0.3175786522801882
991,0.9798,678.418,232.52,-0.124962,397.107,-5.40035,-3.13807,0.442701,-0.058529,-0.382389,0.844351,-0.00738908,-0.00402006,0.695169,0.5569067496221953,1.3264674471358249,-0.00736184786313665,-0.05684911137270232,-0.004011990375877517,-0.3177703857390849
992,0.9808,678.398,232.391,-0.138445,397.101,-5.43539,-3.13474,0.443029,-0.0585764,-0.38267,0.844976,-0.00740237,-0.00402711,0.695686,0.5574174987943568,1.3279219437731373,-0.007375039936517003,-0.056893815665323144,-0.00401901206659383,-0.3179620653284486
993,0.9818,678.453,232.485,-0.125249,397.086,-5.41858,-3.14905,0.443357,-0.0586227,-0.382951,0.8456,-0.00741483,-0.00403431,0.696203,0.5579284155197237,1.3293750203788033,-0.007387407966466419,-0.05693748047080982,-0.0040261831038912455,-0.3181536910634146
994,0.9828,678.43,232.351,-0.140151,397.08,-5.45457,-3.14551,0.443684,-0.0586702,-0.383232,0.846225,-0.00742818,-0.00404138,0.696719,0.5584379414145422,1.330831334817396,-0.007400659256117548,-0.056982274876611894,-0.004033224613884889,-0.3183452629591139
995,0.9838,678.487,232.45,-0.126322,397.064,-5.43689,-3.16007,0.444012,-0.0587165,-0.383512,0.846848,-0.00744066,-0.00404861,0.697235,0.5589491928999861,1.332283895164554,-0.007413046818591451,-0.057025935586531906,-0.004040425427639938,-0.3185360995671135
996,0.9848,678.464,232.312,-0.140935,397.059,-5.4739,-3.15631,0.444339,-0.0587639,-0.383793,0.847472,-0.00745407,-0.00405569,0.697752,0.5594590526435892,1.3337396944772841,-0.007426357320386545,-0.057070631497883606,-0.00404747679646611,-0.31872756402111946
997,0.9858,678.521,232.414,-0.127916,397.043,-5.45529,-3.17126,0.444666,-0.0588102,-0.384073,0.848095,-0.00746658,-0.00406295,0.698267,0.559969079138591,1.3351940672970364,-0.007438774338987875,-0.05711428811698671,-0.0040547073855374816,-0.3189182935998065
998,0.9868,678.497,232.273,-0.142759,397.037,-5.49328,-3.16708,0.444993,-0.0588576,-0.384353,0.848718,-0.00748004,-0.00407005,0.698783,0.5604792724395278,1.3366493464733562,-0.007452134123173693,-0.05715897984052776,-0.004061778572012287,-0.31910896978168735
999,0.9878,678.557,232.379,-0.129037,397.021,-5.47382,-3.18248,0.44532,-0.0589039,-0.384633,0.84934,-0.00749257,-0.00407733,0.699298,0.5609896326009542,1.3381031944667159,-0.007464570670017934,-0.057202632369197315,-0.0040690289758728015,-0.31929959258171103
