,Time,S11,S22,S33,S12,S13,S23,LE11,LE22,LE33,LE12,LE13,LE23,SDV_EPBAR,E11,E12,E13,E22,E23,E33
0,1e-05,1.03872,1.03872,-3.33067e-16,1.03872,5.98211e-18,-5.98211e-18,3.49998e-06,3.49998e-06,-2.99999e-06,1.29999e-05,1.4967e-22,-1.4967e-22,0.0,3.499986124921861e-06,1.2999984499106887e-05,0.0,3.499986124921861e-06,0.0,-2.999985500018454e-06
1,2e-05,2.07744,2.07744,3.33067e-16,2.07744,5.98211e-18,-5.98211e-18,6.99994e-06,6.99994e-06,-5.99996e-06,2.59997e-05,-2.99473e-22,2.99472e-22,0.0,6.999964499598832e-06,2.600003799502204e-05,0.0,6.999964499598832e-06,0.0,-5.9999420002343484e-06
2,3.5e-05,3.63549,3.63549,-3.33067e-16,3.63549,-6.58019e-17,-7.77661e-17,1.22498e-05,1.22498e-05,-1.04998e-05,4.54992e-05,-1.19786e-21,-1.19786e-21,0.0,1.2249875029013424e-05,4.550023510430101e-05,0.0,1.2249875029013424e-05,0.0,-1.0499744877323636e-05
3,5.75e-05,5.97253,5.97253,-3.66374e-15,5.97253,-1.01691e-16,-1.37584e-16,2.01244e-05,2.01244e-05,-1.72495e-05,7.47478e-05,-3.59361e-21,-3.59361e-21,0.0,2.0124602497118005e-05,7.475059368644565e-05,0.0,2.0124602497118005e-05,0.0,-1.7249351228265652e-05
4,9.125e-05,9.47798,9.47798,-2.80886e-14,9.47798,-1.49543e-16,-8.97216e-17,3.19361e-05,3.19361e-05,-2.73738e-05,0.00011862,-5.98941e-21,1.19809e-21,0.0,3.193660996259062e-05,0.0001186270356303698,0.0,3.193660996259062e-05,0.0,-2.737342534098186e-05
5,0.00014188,14.7359,14.7359,-1.55986e-13,14.7359,-2.69169e-16,-2.09348e-16,4.96528e-05,4.96528e-05,-4.25595e-05,0.000184424,5.54707e-25,-4.7912e-21,0.0,4.965403272061408e-05,0.00018444100715142575,0.0,4.965403272061408e-05,0.0,-4.255859435731146e-05
6,0.00021781,22.6224,22.6224,-7.98139e-13,22.6224,-2.69131e-16,-4.96452e-16,7.62261e-05,7.62261e-05,-6.53367e-05,0.000283125,2.39728e-21,-7.18642e-21,0.0,7.622900528292398e-05,0.0002831650836656596,0.0,7.622900528292398e-05,0.0,-6.533456560431361e-05
7,0.00033172,34.4509,34.4509,-4.03644e-12,34.4509,-6.51902e-16,-4.96367e-16,0.000116082,0.000116082,-9.94992e-05,0.000431163,-4.78892e-21,-4.78892e-21,0.0,0.00011608873777602113,0.00043125596412663114,0.0,0.00011608873777602113,0.0,-9.949425011879232e-05
8,0.00050258,52.1912,52.1912,-2.04446e-11,52.1912,-1.03459e-15,-4.96197e-16,0.000175858,0.000175858,-0.000150736,0.000653187,-4.786e-21,-4.786e-21,0.0,0.0001758734639245585,0.0006534003730833682,0.0,0.0001758734639245585,0.0,-0.00015072463989995732
9,0.00075887,78.7959,78.7959,-1.03432e-10,78.7959,-8.42968e-16,-3.04578e-16,0.000265503,0.000265503,-0.000227574,0.000986153,7.08779e-24,7.08779e-24,0.0,0.00026553824904107515,0.0009866394087476582,0.0,0.00026553824904107515,0.0,-0.0002275481070015406
10,0.0011433,118.69,118.69,-5.23093e-10,118.69,-1.41658e-15,-1.26105e-15,0.000399927,0.000399927,-0.000342794,0.00148544,2.49115e-23,2.49115e-23,0.0,0.00040000698146447355,0.0014865438124782582,0.0,0.00040000698146447355,0.0,-0.00034273525284966855
11,0.00172,178.503,178.503,-2.64423e-09,178.503,-2.18043e-15,-2.79061e-15,0.000601466,0.000601466,-0.000515542,0.00223402,-3.82825e-20,-3.82825e-20,0.0,0.0006016469169445315,0.0022365172819931445,0.0,0.0006016469169445315,0.0,-0.0005154091310572984
12,0.0025849,243.421,242.871,-0.0764819,243.286,0.0048121,0.0136868,0.000883245,0.0008863,-0.000833345,0.00339364,3.51013e-08,4.41499e-07,0.000245666,0.0008836351757302019,0.0033994049157297646,3.5101300532858204e-08,0.0008866928799062812,4.4149909750323957e-07,-0.0008329978644900926
13,0.0030849,250.234,249.337,-0.143045,250.07,0.00246867,0.0456419,0.00102001,0.00103309,-0.00109136,0.00410726,-1.16405e-07,2.09144e-06,0.000690148,0.0010205303871184679,0.004115706352182835,-1.1640499320009212e-07,0.0010336238212866888,2.091442186991088e-06,-0.00109076468326319
14,0.0035849,256.499,255.679,-0.0105222,256.018,0.132101,0.0453406,0.00115576,0.00118182,-0.00135123,0.00481945,1.79617e-06,3.09312e-06,0.00114112,0.0011564281479703453,0.004831082228625272,1.7961716132219863e-06,0.0011825186244451835,3.0931247836374354e-06,-0.0013503174997890888
15,0.0040849,261.859,260.552,-0.157858,261.508,0.0598244,0.079583,0.00129149,0.0013266,-0.00161225,0.00553512,9.85809e-07,4.45775e-06,0.00159839,0.0012923243323486044,0.00555046707961715,9.858094858206101e-07,0.0013274803230158838,4.457759935849737e-06,-0.001610951023154339
16,0.0048349,269.541,268.363,0.132751,268.682,0.232092,0.124706,0.00149505,0.00155106,-0.00200975,0.00660044,3.96463e-06,7.43122e-06,0.00229141,0.0014961681444090047,0.006622270908867689,3.964637859121822e-06,0.001552263515723018,7.431247611489056e-06,-0.002007731804717805
17,0.0058349,278.225,276.75,0.234375,277.103,0.288852,0.174199,0.00176785,0.0018504,-0.00254861,0.00801769,6.02152e-06,1.24173e-05,0.00322797,0.001769413568060152,0.00804991774959185,6.021538129452608e-06,0.0018521130465241065,1.2417377095008675e-05,-0.00254536505082259
18,0.0068349,285.311,283.039,-0.216762,284.536,0.171112,0.188297,0.00204016,0.00214461,-0.0030901,0.00943858,5.27717e-06,1.62154e-05,0.00417518,0.0020422425424118096,0.009483263869655367,5.277183924290441e-06,0.0021469113208771873,1.6215531470242794e-05,-0.0030853305549471965
19,0.0078349,292.351,290.308,0.213534,290.966,0.36017,0.232029,0.00231077,0.00244422,-0.0036318,0.0108538,9.47068e-06,2.0067e-05,0.00512736,0.002313441886638623,0.010912916171999854,9.470724847027157e-06,0.002447209540906492,2.006720134350992e-05,-0.0036252129910259168
20,0.0088349,298.365,296.117,0.239386,296.83,0.400059,0.259441,0.0025809,0.00274035,-0.00417514,0.012271,1.20256e-05,2.34851e-05,0.00608576,0.002584233389503199,0.012346597623518196,1.2025672307736102e-05,0.00274410819119697,2.3485375777010375e-05,-0.004166436220369718
21,0.0098349,303.801,301.308,0.221212,302.181,0.416863,0.285423,0.00285043,0.00303522,-0.00471903,0.0136881,1.43791e-05,2.67417e-05,0.00704836,0.0028544963382788335,0.01378221095058696,1.4379203379766281e-05,0.003039830944120636,2.6742057562367805e-05,-0.004707912872157549
22,0.010835,308.44,305.278,-0.188656,307.174,0.289907,0.296156,0.00311992,0.00332601,-0.00526344,0.0151074,1.42391e-05,2.96492e-05,0.00801509,0.0031247920158521403,0.015222093613611154,1.4239201376442523e-05,0.0033315473086059644,2.9649639541773354e-05,-0.005249612370619716
23,0.011835,313.022,309.603,-0.242366,311.736,0.289182,0.316275,0.00338865,0.00361813,-0.00580717,0.0165241,1.56702e-05,3.26057e-05,0.00898354,0.0033943979651915868,0.016661378030024876,1.567032277827174e-05,0.003624683333569134,3.260623157164133e-05,-0.005790340980380115
24,0.012835,317.789,314.822,0.257367,315.863,0.495956,0.35232,0.00365607,0.00391437,-0.00635057,0.0179361,2.07785e-05,3.58093e-05,0.00995271,0.0036627615763944465,0.01809791785424486,2.077871587458091e-05,0.003922041152225386,3.580994116059166e-05,-0.00633044774879199
25,0.013835,321.383,317.648,-0.236752,319.936,0.325948,0.35388,0.00392418,0.00420215,-0.006895,0.0193539,2.0269e-05,3.84808e-05,0.0109259,0.003931889675755862,0.01954240083419334,2.0269205417644542e-05,0.0042109914122867576,3.848154039554075e-05,-0.00687128402601811
26,0.014835,325.612,322.359,0.238524,323.558,0.533581,0.375107,0.00419064,0.00449709,-0.00743821,0.0207643,2.55425e-05,4.14054e-05,0.011898,0.004199433010294351,0.02098137796446431,2.554282621236581e-05,0.0045072170843465376,4.1406257215381714e-05,-0.007410614977577223
27,0.015835,328.794,324.817,-0.210874,327.185,0.365956,0.385874,0.00445787,0.00478383,-0.00798214,0.0221801,2.52461e-05,4.41753e-05,0.0128734,0.00446782108385313,0.022427907155771587,2.5246418685398453e-05,0.004795290782925621,4.4176275742824345e-05,-0.00795036731472043
28,0.016835,332.575,329.037,0.209613,330.427,0.5527,0.402571,0.00472353,0.00507718,-0.0085249,0.0235889,3.03128e-05,4.70268e-05,0.0138475,0.004734703453617817,0.023869318683253038,3.0313259437475537e-05,0.0050900907191433475,4.702790577737481e-05,-0.008488666076624019
29,0.017835,335.813,332.168,0.21397,333.6,0.568401,0.414838,0.00498922,0.00536696,-0.00906805,0.0249994,3.32982e-05,4.98233e-05,0.0148232,0.005001686882821543,0.025314505335541027,3.329875439117558e-05,0.005381387929646486,4.98245412012821e-05,-0.009027059230287793
30,0.018835,338.596,334.344,-0.115312,336.714,0.425663,0.443057,0.00525519,0.0056527,-0.00961081,0.0264117,3.35719e-05,5.29002e-05,0.0158002,0.0052690227315634885,0.026763580034665946,3.3572463542519415e-05,0.005668706654704758,5.290159924031812e-05,-0.009564773765448953
31,0.019835,341.863,338.044,0.242099,339.514,0.602308,0.439399,0.00551966,0.00594428,-0.0101527,0.0278177,3.86949e-05,5.55068e-05,0.0167758,0.005534921389564573,0.028208224975602603,3.869564865732755e-05,0.005961982290768386,5.550834053091869e-05,-0.010101335318393412
32,0.020835,344.241,339.651,-0.245986,342.401,0.406749,0.448437,0.00578507,0.0062278,-0.0106949,0.0292289,3.81865e-05,5.82722e-05,0.0177538,0.005801835832364821,0.0296602567353228,3.818722911375083e-05,0.006247233067226743,5.827389785761916e-05,-0.010637912895057444
33,0.021835,347.357,343.308,0.206082,344.951,0.611074,0.457314,0.00604879,0.00651887,-0.0112357,0.0306324,4.36562e-05,6.1032e-05,0.0187294,0.00606712087145822,0.031106399498949555,4.365715294585293e-05,0.006540164079002153,6.103386249045606e-05,-0.011172815261127345
34,0.022835,349.95,345.802,0.196208,347.51,0.617054,0.466034,0.00631267,0.00680594,-0.0117769,0.0320377,4.66542e-05,6.37951e-05,0.0197063,0.006332636893957133,0.032556431948830955,4.665528832403787e-05,0.00682915304195042,6.379713495063832e-05,-0.011707823747153179
35,0.023835,352.208,347.529,-0.0754488,350.051,0.487548,0.496478,0.00657682,0.00708955,-0.0123174,0.0334444,4.73198e-05,6.69358e-05,0.0206838,0.006598494771625996,0.03400995117471517,4.732091959946949e-05,0.0071147403538391885,6.693804025070804e-05,-0.012241851334461429
36,0.024835,354.46,349.525,-0.259688,352.454,0.441799,0.48249,0.00684041,0.00737383,-0.0128574,0.034849,4.88014e-05,6.94199e-05,0.0216609,0.0068638590410103895,0.03546334202958268,4.880259080763949e-05,0.0074010836311320105,6.942230961692886e-05,-0.012775096745522019
37,0.025835,356.785,351.777,-0.269231,354.748,0.451126,0.485989,0.00710357,0.00765868,-0.0133966,0.0362516,5.1003e-05,7.21066e-05,0.0226373,0.007128860201478959,0.03691670191613716,5.100430067517259e-05,0.007688082703706689,7.210919974331986e-05,-0.013307264927921447
38,0.026835,359.526,355.098,0.2703,356.86,0.658327,0.521752,0.00736564,0.00794761,-0.0139349,0.0376493,5.66348e-05,7.53303e-05,0.0236123,0.007392833050043235,0.03836701370469231,5.663640378061885e-05,0.007979276086668596,7.533313739838121e-05,-0.013838258697415617
39,0.027835,361.643,357.111,0.192406,359.014,0.656558,0.504548,0.00762784,0.00823224,-0.0144739,0.0390493,5.96269e-05,7.77876e-05,0.0245884,0.007657006082440132,0.039821745598598524,5.96286777190258e-05,0.008266218062231268,7.779062553381344e-05,-0.014369656651363916
40,0.028835,363.559,358.541,-0.0289064,361.173,0.5356,0.539698,0.00789034,0.00851386,-0.015012,0.04045,6.05516e-05,8.10316e-05,0.0255646,0.007921550766507579,0.0412792444386747,6.055343328514873e-05,0.00855020598102385,8.103488314881169e-05,-0.014899881669284798
41,0.029835,365.903,361.348,0.282386,363.101,0.700235,0.535753,0.00815141,0.00880084,-0.0155495,0.041845,6.57895e-05,8.37414e-05,0.026539,0.008184723197484534,0.04273284263367949,6.579166417663984e-05,0.0088396812539564,8.374490640883359e-05,-0.01542923070758917
42,0.030835,367.45,362.125,-0.210474,365.189,0.493482,0.528078,0.00841353,0.00907974,-0.0160869,0.0432451,6.54206e-05,8.63473e-05,0.0275151,0.00844902321477603,0.0441937953879703,6.542273997411918e-05,0.00912108588110927,8.635102803533634e-05,-0.015958196893062437
43,0.031835,369.39,364.01,-0.211837,367.099,0.500977,0.532098,0.00867478,0.00936211,-0.0166232,0.0446407,6.77541e-05,8.90918e-05,0.0284895,0.00871251493919889,0.04565208960982847,6.775639536082956e-05,0.009406071635949864,8.909576879223557e-05,-0.016485797023448212
44,0.032835,371.681,366.828,0.230795,368.86,0.684791,0.555195,0.00893501,0.00964808,-0.0171587,0.0460319,7.31092e-05,9.21546e-05,0.0294624,0.0089750463547551,0.04710781316340906,7.311187254277485e-05,0.009694772768219506,9.215884636559757e-05,-0.01701232788792084
45,0.033835,373.133,367.654,-0.197091,370.768,0.516678,0.543485,0.00919608,0.00992654,-0.0176946,0.0474279,7.32921e-05,9.47106e-05,0.0304369,0.009238493857730345,0.048570596455765225,7.329478593165462e-05,0.009975971524130323,9.471508519043326e-05,-0.01753896985508674
46,0.034835,375.326,370.436,0.242211,372.424,0.718236,0.546006,0.00945559,0.0102121,-0.0182292,0.0488164,7.89859e-05,9.74338e-05,0.0314087,0.009500435326016632,0.05002754798346687,7.898901946834513e-05,0.010264421445478344,9.743854682686681e-05,-0.018064053154530635
47,0.035835,376.662,371.043,-0.213024,374.262,0.516929,0.554562,0.0097162,0.0104892,-0.0187641,0.0502105,7.87311e-05,0.000100251,0.0323823,0.009763555518854439,0.05149241223448797,7.87341993744306e-05,0.010544404506522609,0.00010025602529939448,-0.018589150242762087
48,0.036835,378.392,372.765,-0.187979,375.936,0.534599,0.557655,0.00997591,0.0107699,-0.0192977,0.0516,8.12829e-05,0.000102993,0.0333541,0.010025835268720806,0.05295447647518392,8.128620354441729e-05,0.010828104136247685,0.00010299830396109932,-0.019112691378995184
49,0.037835,380.405,375.238,0.193319,377.492,0.694127,0.577905,0.0102347,0.0110534,-0.0198307,0.0529856,8.62979e-05,0.000106018,0.0343244,0.010287253679406305,0.054414461441788964,8.630162377087913e-05,0.011114714528873915,0.00010602362010669886,-0.01963536500959373
50,0.038835,382.052,376.928,0.21003,379.08,0.726046,0.561737,0.0104935,0.0113344,-0.0203639,0.0543721,8.98416e-05,0.000108501,0.0352951,0.010548749856804429,0.05587742105496574,8.984563587732808e-05,0.01139887768671044,0.00010850688644636897,-0.020157956097805352
51,0.039835,383.364,377.639,-0.0967518,380.748,0.562087,0.593167,0.0107529,0.0116109,-0.0208964,0.0557606,9.02069e-05,0.000111696,0.036266,0.010810920204541219,0.05734452515541588,9.02109687648256e-05,0.011678568141814338,0.00011170223823042669,-0.020679583090670528
52,0.040835,385.181,379.923,0.185006,382.193,0.721791,0.569861,0.0110107,0.0118933,-0.0214282,0.0571428,9.53011e-05,0.000114089,0.0372347,0.011071540852328088,0.05880699723970828,9.530564129400787e-05,0.011964306513816636,0.00011409550839736049,-0.021200247231517033
53,0.041835,386.715,381.45,0.191815,383.688,0.736733,0.568176,0.0112687,0.0121729,-0.0219599,0.0585259,9.86346e-05,0.000116731,0.0382036,0.01133243096324521,0.06027244639534124,9.863946455213046e-05,0.012247291293346674,0.00011673781332821598,-0.021720536728843887
54,0.042835,387.962,382.138,-0.0755537,385.253,0.582821,0.604281,0.0115272,0.0124485,-0.0224908,0.0599105,9.91814e-05,0.00011998,0.0391725,0.011593894189315224,0.061741516427105125,9.918631863770067e-05,0.012526305093162549,0.00011998719788808287,-0.02223976745390288
55,0.043835,389.284,383.272,-0.235395,386.718,0.540494,0.584861,0.011785,0.0127255,-0.0230211,0.0612927,0.000100933,0.000122437,0.0401405,0.011854716713816105,0.06321007023484393,0.00010093809390654407,0.012806813728325706,0.00012244449571530147,-0.0227581362475886
56,0.044835,391.225,385.908,0.324775,388.01,0.76978,0.611049,0.0120416,0.0130079,-0.0235503,0.0626688,0.000107046,0.000125558,0.041106,0.012114391949032743,0.06467416074893251,0.00010705172962754972,0.013092870761874709,0.00012556588273548996,-0.023275155826439686
57,0.045835,392.133,386.033,-0.226617,389.522,0.545973,0.592372,0.0122993,0.013281,-0.0240801,0.0640512,0.00010653,0.000128026,0.0420736,0.01237524743762397,0.06614698408969422,0.00010653567452201251,0.013369584208380969,0.00012803419567819496,-0.02379248759559649
58,0.046835,393.56,387.499,-0.176214,390.87,0.572594,0.594469,0.0125562,0.0135583,-0.0246086,0.0654286,0.00010925,0.000130746,0.043039,0.012635360048725008,0.0676165067735166,0.00010925596799848947,0.013650630559357557,0.00013075454763078476,-0.024308276956558017
59,0.047835,395.224,389.593,0.163904,392.127,0.71802,0.610654,0.0128122,0.013838,-0.0251364,0.0668025,0.000114057,0.000133697,0.044003,0.012894627885764676,0.06908431317089114,0.00011406350474696403,0.01393418829442572,0.00013370593784212126,-0.024823111171279555
60,0.048835,396.557,390.958,0.165076,393.426,0.740979,0.593905,0.0130682,0.0141152,-0.0256644,0.0681771,0.000117416,0.000136153,0.0449671,0.01315396210386699,0.07055488696158507,0.00011742289352834057,0.014215289810290965,0.00013616226924040298,-0.025337868660645024
61,0.049835,397.663,391.595,-0.0520451,394.792,0.612537,0.624856,0.0133247,0.0143889,-0.0261916,0.0695529,0.000118333,0.000139318,0.0459312,0.013413869426835978,0.07202877002674368,0.00011834000162558311,0.014492918526868959,0.00013932770520330706,-0.025851575111368486
62,0.050835,399.251,393.72,0.276236,395.956,0.787188,0.616063,0.0135796,0.0146683,-0.0267182,0.0709227,0.000123756,0.000141938,0.0468931,0.013672221547731844,0.07349824124699467,0.00012376365808974832,0.014776407449863527,0.0001419480736746248,-0.026364426626259485
63,0.051835,400.107,393.871,-0.165516,397.318,0.586634,0.609338,0.0138357,0.0149399,-0.0272447,0.0722974,0.000123643,0.000144541,0.0478563,0.013931856248474483,0.07497499409274155,0.00012365064411068438,0.015052058153798065,0.0001445514465536757,-0.02687691083233501
64,0.052835,401.683,395.991,0.200971,398.442,0.765204,0.604384,0.0140902,0.0152186,-0.02777,0.0736648,0.000129,0.000147136,0.0488166,0.014189934744985422,0.07644592034274833,0.00012900832085782632,0.015334992587487495,0.00014714682503225163,-0.02738795815274453
65,0.053835,402.911,397.219,0.206943,399.639,0.777191,0.602062,0.0143449,0.0154941,-0.0282954,0.0750334,0.000132309,0.000149742,0.0497772,0.014448281820468534,0.07792015281649989,0.00013231775322175565,0.015614755913573974,0.00014975321189281132,-0.027898834300615016
66,0.054835,403.846,397.573,-0.0797293,400.921,0.612204,0.635848,0.0146001,0.0157655,-0.0288201,0.0764037,0.000132719,0.000152921,0.0507378,0.014707202058806157,0.07939823928155976,0.0001327278075560212,0.015890431165768604,0.00015293269301208667,-0.02840876199102882
67,0.055835,404.898,398.461,-0.224819,402.106,0.57209,0.616548,0.0148546,0.0160385,-0.0293442,0.0777713,0.000134519,0.000155345,0.0516973,0.014965477905937608,0.08087543418924215,0.00013452804808644636,0.01616780711357091,0.0001553570666592563,-0.028917839543443957
68,0.056835,406.532,400.773,0.297024,403.135,0.791394,0.637976,0.015108,0.0163167,-0.0298671,0.0791331,0.000140446,0.000158356,0.0526543,0.015222702747049954,0.08234837305196252,0.0001404558630011543,0.016450544324432492,0.00015836853897321923,-0.029425485669500095
69,0.057835,407.239,400.784,-0.185435,404.377,0.589676,0.621249,0.0153624,0.0165863,-0.0303907,0.0805006,0.000140276,0.000160808,0.0536132,0.015481008257696605,0.08382949693975394,0.0001402858391381656,0.016724616334429232,0.00016082093029945455,-0.0299335454635421
70,0.058835,408.717,402.838,0.197411,405.386,0.776023,0.616036,0.0156153,0.0168632,-0.0309129,0.0818607,0.000145706,0.000163375,0.0545691,0.01573785588169807,0.08530461636610909,0.00014571661563489435,0.017006186362263476,0.00016338834642204425,-0.030439981924032744
71,0.059835,409.835,403.962,0.203886,406.475,0.78781,0.613146,0.0158683,0.0171368,-0.0314352,0.083222,0.000148987,0.000165949,0.0555252,0.015994870070160205,0.08678304760628053,0.00014899809911428363,0.017284477323319614,0.00016596277029701234,-0.030946250897822325
72,0.060835,410.669,404.225,-0.0766807,407.653,0.623917,0.646443,0.016122,0.0174063,-0.0319568,0.0845851,0.000149404,0.000169092,0.0564813,0.016252660668051533,0.08826545168143918,0.0001494151613334882,0.017558672436090106,0.0001691062968580681,-0.03145157753271066
73,0.061835,411.627,405.032,-0.212594,408.736,0.586382,0.627223,0.0163749,0.0176775,-0.0324777,0.0859454,0.000151244,0.000171492,0.0574363,0.01650970346762648,0.08974682650401711,0.00015125543795035945,0.017834671771873145,0.00017150670559362702,-0.03195596302736703
74,0.062835,412.729,406.191,-0.170826,409.771,0.613511,0.623896,0.0166274,0.0179497,-0.032998,0.0873034,0.000153994,0.000174068,0.05839,0.01676640457490297,0.09122770798535318,0.00015400585768476915,0.018111764080081638,0.00017408315071332225,-0.032459505331913774
75,0.063835,414.065,407.91,0.14807,410.739,0.740582,0.644191,0.0168792,0.0182238,-0.0335175,0.0886583,0.00015849,0.00017701,0.0593423,0.017022458591422707,0.09270721447223784,0.00015850256020355502,0.018390866763891456,0.00017702566719446367,-0.03296201208146421
76,0.064835,414.785,408.127,-0.200695,411.839,0.59495,0.635916,0.0171317,0.0184923,-0.0340372,0.0900165,0.000158987,0.000179548,0.0602955,0.017279289185715196,0.09419233772983682,0.00015899963910293025,0.018664341423947794,0.00017956411970687647,-0.033464451153684016
77,0.065835,415.76,409.025,-0.247707,412.855,0.579796,0.629856,0.0173836,0.0187626,-0.0345559,0.0913717,0.000161051,0.000182081,0.0612471,0.017535574116392727,0.09567619241876568,0.00016106396940851475,0.01893972361166063,0.00018209757775133895,-0.03396566314230376
78,0.066835,417.218,411.148,0.251058,413.734,0.792894,0.648089,0.0176343,0.0190376,-0.0350737,0.0927216,0.0001668,0.000184983,0.0621967,0.01779070226380086,0.09715624444727866,0.00016681391189354855,0.01921997056784419,0.00018500011041022724,-0.03446574623924148
79,0.067835,417.84,411.166,-0.155359,414.813,0.616384,0.635982,0.0178861,0.0193046,-0.0355921,0.0940766,0.000166971,0.000187443,0.0631477,0.01804701423095323,0.09864389881672597,0.00016698494043332346,0.019492138632805522,0.00018746056853680138,-0.034966149480664455
80,0.068835,418.734,411.921,-0.251616,415.8,0.58079,0.633416,0.0181373,0.0195737,-0.0361093,0.0954285,0.000168761,0.000190004,0.0640972,0.018302779763734067,0.10013015991536411,0.00016877524093872331,0.01976652088378783,0.00019002205190332688,-0.03546513593913181
81,0.069835,420.18,414.082,0.276663,416.631,0.807985,0.652398,0.0183872,0.019848,-0.0366256,0.0967745,0.000174716,0.000192902,0.0650443,0.018557285427555303,0.10161193211959119,0.0001747312637292442,0.020046281207840577,0.0001929206067872169,-0.035962996755617205
82,0.070835,420.855,414.315,-0.0320233,417.646,0.681191,0.635804,0.018638,0.0201153,-0.0371425,0.0981251,0.000175735,0.00019528,0.0659928,0.018812771631371294,0.10310077438397403,0.0001757504422996714,0.020318976022845714,0.00019529906838045008,-0.03646117871637422
83,0.071835,421.686,414.958,-0.157021,418.605,0.630416,0.634327,0.0188884,0.0203834,-0.0376584,0.0994735,0.000177503,0.000197833,0.06694,0.019067914291915677,0.10458919873833428,0.00017751875458960065,0.020592560212639333,0.0001978525702384104,-0.03695814019203958
84,0.072835,422.968,416.728,0.231143,419.441,0.788,0.657433,0.0191378,0.0206556,-0.0381733,0.100817,0.000182479,0.000200776,0.0678851,0.01932210152557068,0.10607421166090014,0.0001824956503055919,0.02087040332026069,0.00020079615684998053,-0.037453882805766
85,0.073835,423.749,417.321,0.074208,420.377,0.738804,0.635595,0.0193875,0.0209235,-0.0386885,0.102163,0.000184667,0.000203061,0.0688308,0.019576658034379024,0.10756398994566019,0.00018468405200011695,0.02114393113872559,0.00020308161828053173,-0.03794965884247126
86,0.074835,424.679,418.167,0.101521,421.29,0.721633,0.664447,0.019637,0.0211917,-0.0392027,0.103507,0.000187182,0.000206081,0.0697754,0.01983107414764884,0.10905355671279304,0.00018719951964363268,0.021417838670415135,0.00020610223614814238,-0.03844421796584696
87,0.075835,425.506,418.93,0.0137232,422.181,0.70815,0.64953,0.0198861,0.0214596,-0.0397169,0.10485,0.000189684,0.000208488,0.0707193,0.020085145711518537,0.11054401625902144,0.00018970199114742847,0.02169151316645679,0.00020850973513364401,-0.03893852285229138
88,0.076835,426.458,419.902,0.0894793,423.055,0.722368,0.664974,0.020135,0.0217277,-0.04023,0.106191,0.000192579,0.000211324,0.0716622,0.02033907650466249,0.1120342547664217,0.00019259754452605193,0.02196546538279054,0.00021134633048935925,-0.039431517007749384
89,0.077835,427.249,420.575,-0.0130533,423.936,0.694403,0.652998,0.0203837,0.0219947,-0.0407431,0.107532,0.000194832,0.000213762,0.0726046,0.020592866390453324,0.11352649302419349,0.00019485098098681597,0.022238366592737924,0.00021378484872425219,-0.03992425827279078
90,0.078835,428.237,421.695,0.121971,424.77,0.742981,0.664956,0.020632,0.0222629,-0.0412553,0.10887,0.00019822,0.000216538,0.0735457,0.02084631106303214,0.11501738865861699,0.00019823964688225892,0.02251256769138177,0.00021656144604498273,-0.04041588315182376
91,0.079835,428.923,422.107,-0.0724103,425.659,0.666704,0.656124,0.0208804,0.0225283,-0.0417674,0.110209,0.000199748,0.000219009,0.0744868,0.02109992078372347,0.11651139695736701,0.00019976795096021682,0.02278397854147385,0.00021903298422198958,-0.04090716037579223
92,0.080835,429.723,422.834,-0.125963,426.507,0.652185,0.645587,0.0211285,0.0227945,-0.0422787,0.111546,0.000201988,0.000221413,0.0754268,0.021353287102862106,0.11800517106056829,0.0002020084009495271,0.02305627987826142,0.00022143751366754394,-0.041397419199343255
93,0.081835,430.828,424.291,0.166829,427.275,0.768982,0.66594,0.0213758,0.0230631,-0.0427892,0.11288,0.000206304,0.000224274,0.0763652,0.021605899004937035,0.11949758517765963,0.0002063252821338235,0.023331109703029984,0.00022429915129373867,-0.041886660927265784
94,0.082835,431.443,424.567,-0.0724883,428.149,0.672741,0.651127,0.0216235,0.0233273,-0.0432998,0.114216,0.000207583,0.000226626,0.077304,0.021858982129171478,0.12099423348991611,0.00020760454684176644,0.02360150950045381,0.00022665168161184468,-0.042375748723456064
95,0.083835,432.207,425.232,-0.138921,428.973,0.649664,0.648859,0.0218709,0.0235925,-0.0438097,0.115549,0.000209686,0.000229121,0.0782417,0.022111821316267877,0.12248951518699691,0.00020970798564601267,0.023873004619434868,0.00022914725022116222,-0.042863916860138684
96,0.084835,433.31,426.731,0.178958,429.707,0.779685,0.669186,0.0221175,0.0238605,-0.0443187,0.116879,0.000214185,0.00023197,0.0791776,0.022363905172066545,0.12398341946832869,0.00021420793924487036,0.02414743935728514,0.000231996907120946,-0.043350975159603955
97,0.085835,433.88,426.923,-0.0801984,430.562,0.671982,0.655074,0.0223645,0.0241236,-0.0448279,0.118212,0.000215296,0.000234321,0.0801141,0.022616460245911574,0.12548268840722487,0.00021531917784711752,0.024416927998256233,0.00023434845531000725,-0.043837976841901716
98,0.086835,434.619,427.561,-0.147519,431.361,0.64828,0.65293,0.0226112,0.0243879,-0.0453363,0.119542,0.000217367,0.000236809,0.0810494,0.02286877084788741,0.12698057625742565,0.00021739062591819014,0.024687717175539747,0.0002368370414647103,-0.04432396606554678
99,0.087835,435.709,429.072,0.183362,432.066,0.786125,0.672349,0.022857,0.0246553,-0.0458438,0.120868,0.000221964,0.000239635,0.0819829,0.023120222893952214,0.1284759437110592,0.00022198863583144934,0.024961755308377853,0.00023966371476036308,-0.044808848603417495
100,0.088835,436.248,429.219,-0.0828596,432.9,0.673906,0.658928,0.0231034,0.0249174,-0.0463515,0.122197,0.000223006,0.000241985,0.0829172,0.023372350777753015,0.12997668526212247,0.00022303086768649116,0.02523043299311678,0.00024201428073200582,-0.04529367606711587
101,0.089835,437.179,430.409,0.0864099,433.614,0.761529,0.65555,0.0233488,0.0251832,-0.0468583,0.123522,0.000226868,0.000244448,0.0838495,0.023623517169489627,0.13147489671599155,0.00022689373649087408,0.025502975461495714,0.00024447787984693825,-0.045777398646429934
102,0.090835,437.783,430.655,-0.0885632,434.429,0.659793,0.675148,0.0235948,0.025445,-0.0473648,0.124849,0.000227978,0.000247256,0.0847819,0.023875359530053597,0.13297736056822207,0.00022800398895927998,0.025771487287135963,0.0002472865702842775,-0.04626059001547134
103,0.091835,438.701,431.883,0.0814531,435.118,0.762748,0.657399,0.0238397,0.0257105,-0.0478707,0.126171,0.000232021,0.000249531,0.0857126,0.02412613731208868,0.13447614711851918,0.000232047918954148,0.026043865773654806,0.00024956213544968797,-0.046742964756003924
104,0.092835,439.439,432.593,0.0641355,435.859,0.761914,0.655066,0.0240848,0.0259738,-0.0483763,0.127494,0.000234754,0.000251982,0.086643,0.024377181392539082,0.13597805235240013,0.00023478155687661761,0.026314058692849862,0.00025201375013095273,-0.04722480969235876
105,0.093835,440.144,433.112,0.02484,436.625,0.713489,0.682716,0.0243298,0.0262359,-0.0488812,0.128816,0.000236708,0.000254897,0.0875728,0.024628184548611376,0.13748080844052235,0.000236736017549255,0.026583090862758896,0.0002549294890006326,-0.0477057444637452
106,0.094835,440.948,434.063,0.090333,437.32,0.765608,0.672809,0.0245742,0.0264997,-0.0493858,0.130135,0.000240104,0.000257302,0.0885014,0.024878634280625533,0.1389821355344114,0.00024013282727253227,0.026853939205454314,0.0002573351049988126,-0.04818615092834433
107,0.095835,441.553,434.379,-0.0425372,438.089,0.685655,0.684334,0.0248189,0.0267605,-0.0498898,0.131456,0.000241549,0.000260005,0.0894298,0.02512945276882461,0.14048772515845598,0.00024157817530867653,0.027121777637412414,0.00026003880422975634,-0.048665744240609765
108,0.096835,442.222,434.994,-0.104699,438.806,0.676521,0.66761,0.0250631,0.0270223,-0.0503934,0.132774,0.000243842,0.000262289,0.0903572,0.025379819949779225,0.14199187899985444,0.00024387173187712108,0.027390713320942783,0.00026232340076726146,-0.04914471555670996
109,0.097835,443.17,436.248,0.148397,439.458,0.780141,0.685474,0.0253067,0.0272861,-0.0508961,0.134089,0.000247917,0.000265068,0.091283,0.025629632899901056,0.1434945861341368,0.00024794773395919734,0.027661774742546497,0.0002651031336264875,-0.04962259038429817
110,0.098835,443.83,436.873,0.087602,440.158,0.776332,0.665567,0.0255503,0.0275478,-0.051399,0.135405,0.000250621,0.000267293,0.0922088,0.025879506711870226,0.14500041562797295,0.0002506524080665429,0.02793074902274606,0.0002673287259569168,-0.050100415024517675
111,0.099835,444.477,437.304,0.0294239,440.889,0.719383,0.692451,0.025794,0.0278081,-0.051901,0.13672,0.000252451,0.000270189,0.0931339,0.026129544013463457,0.14650708159028025,0.0002524828684353775,0.028198354224022504,0.0002702255043354196,-0.05057714494695331
112,0.1008,445.247,438.244,0.0985017,441.54,0.778282,0.679769,0.026037,0.0280703,-0.0524028,0.138033,0.000255937,0.000272543,0.0940577,0.02637892379107476,0.1480134340924173,0.00025596975466823935,0.02846798317931154,0.0002725801432177377,-0.05105344582173499
113,0.1018,445.796,438.469,-0.0521891,442.277,0.687136,0.69276,0.0262803,0.0283293,-0.0529039,0.139346,0.00025721,0.00027525,0.0949815,0.026628672163890643,0.14952176573441056,0.00025724308132835105,0.028734390885263528,0.00027528788475716937,-0.05152884381911771
114,0.1028,446.431,439.053,-0.112047,442.956,0.679503,0.675995,0.0265232,0.0285894,-0.0534046,0.140658,0.000259497,0.000277522,0.0959041,0.02687807055656788,0.1510309280850739,0.00025953067225903403,0.02900199950132465,0.00027756051279292926,-0.05200362445576612
115,0.1038,447.349,440.297,0.148798,443.568,0.789,0.69273,0.0267654,0.0288517,-0.0539045,0.141966,0.000263637,0.000280272,0.0968252,0.027126810546453495,0.15253746159713644,0.0002636717552881862,0.029271942127221617,0.0002803112798666074,-0.05247740941148438
116,0.1048,447.974,440.885,0.0891156,444.232,0.785184,0.673304,0.0270076,0.0291118,-0.0544045,0.143275,0.000266332,0.00028249,0.0977463,0.027375610788460847,0.15404712099087603,0.00026636746951602674,0.02953969057854544,0.00028252990405741585,-0.05295105228619246
117,0.1058,448.581,441.271,0.0270925,444.928,0.726337,0.700059,0.02725,0.0293704,-0.0549037,0.144583,0.000268126,0.00028537,0.0986666,0.027624676822099792,0.15555760226453264,0.00026816194898882095,0.029805963970194638,0.00028541072189192107,-0.053423701137922386
118,0.1068,449.319,442.185,0.0997462,445.543,0.786938,0.687587,0.0274916,0.029631,-0.0554026,0.145889,0.000271625,0.000287714,0.0995858,0.02787298093794921,0.15706774640256582,0.0002716618934106574,0.030074366375719697,0.00028775539364267466,-0.05389583027101963
119,0.1078,449.831,442.365,-0.0545582,446.247,0.693846,0.700509,0.0277336,0.0298883,-0.0559009,0.147196,0.000272862,0.000290406,0.100505,0.02812175629994096,0.15858102265772578,0.0002728992302216682,0.030339438610268887,0.00029044817190460037,-0.054367156538103534
120,0.1088,450.435,442.923,-0.110602,446.891,0.687529,0.684228,0.0279751,0.0301469,-0.0563987,0.1485,0.00027516,0.000292673,0.101423,0.028370077687688067,0.1600927977744271,0.00027519785998531,0.03060591884350261,0.0002927158329211199,-0.05483777542082047
121,0.1098,451.315,444.122,0.143616,447.471,0.795254,0.700363,0.028216,0.0304075,-0.0568958,0.149802,0.000279261,0.000295403,0.102339,0.02861784188140204,0.1616042223209948,0.0002792999969831733,0.0308745297444335,0.00029544663576275276,-0.055307498803239374
122,0.1108,451.907,444.676,0.0839738,448.103,0.790804,0.681524,0.0284569,0.0306659,-0.057393,0.151104,0.00028193,0.000297619,0.103256,0.028865665768699866,0.16311761602396468,0.00028196974599747904,0.03114094214191865,0.00029766329292857385,-0.055777083166487995
123,0.1118,452.489,445.05,0.0293307,448.765,0.735973,0.707787,0.0286979,0.030923,-0.0578893,0.152405,0.000283772,0.00030048,0.104171,0.02911365227532392,0.16463181681644934,0.0002838122670827392,0.03140608256048383,0.0003005251486372096,-0.0562455847318325
124,0.1128,453.186,445.905,0.0919965,449.351,0.791332,0.695722,0.0289382,0.0311819,-0.0583854,0.153704,0.000287182,0.000302819,0.105086,0.0293609780009616,0.1661456565725441,0.00028722324069829774,0.03167314816540934,0.00030286485430175425,-0.05671366518029164
125,0.1138,453.683,446.1,-0.0442161,450.019,0.707143,0.708466,0.0291788,0.0314379,-0.0588809,0.155004,0.000288544,0.000305497,0.106,0.029608672048667684,0.1676626317463108,0.0002885856328240788,0.031937290300090515,0.00030554366896073937,-0.05718094778036997
126,0.1148,454.259,446.632,-0.0983574,450.633,0.701494,0.692376,0.029419,0.0316948,-0.059376,0.156302,0.000290866,0.000307757,0.106913,0.029856013756243582,0.16917924190938072,0.00029090830561662173,0.03220242904558224,0.0003078043620441395,-0.057647621958398454
127,0.1158,455.088,447.746,0.133282,451.188,0.798777,0.708567,0.0296586,0.0319537,-0.0598703,0.157596,0.000294811,0.000310478,0.107825,0.030102796820570044,0.1706931391286688,0.00029485446103372226,0.032469700851304406,0.00031052620328275715,-0.0581133116341791
128,0.1168,455.649,448.264,0.0721459,451.791,0.793064,0.690263,0.0298982,0.0322105,-0.0603646,0.158892,0.000297436,0.000312693,0.108737,0.030349639021203023,0.1722113410193049,0.0002974802384729802,0.032734873117144625,0.00031274189355223747,-0.058578771176435174
129,0.1178,456.219,448.659,0.0361433,452.419,0.748296,0.715647,0.0301378,0.0324662,-0.0608582,0.160186,0.000299413,0.000315533,0.109648,0.030596540372313186,0.17372916431446428,0.0002994578285462346,0.03299897718846734,0.0003155827857732607,-0.0590433420294636
130,0.1188,456.867,449.424,0.0756367,452.984,0.791532,0.704176,0.0303769,0.0327233,-0.0613515,0.161479,0.000302635,0.000317871,0.110558,0.030842985466453143,0.17524777769589983,0.00030268079859152586,0.03326459536925652,0.00031792152633980386,-0.059507401479166666
131,0.1198,457.371,449.69,-0.0220041,453.613,0.726749,0.716584,0.0306161,0.032978,-0.0618442,0.162771,0.000304275,0.000320537,0.111467,0.031089592601614147,0.17676717914666318,0.00030432129633339855,0.03352780137955946,0.00032058837747350744,-0.05997066804736717
132,0.1208,458.115,450.71,0.134743,454.143,0.819823,0.708907,0.0308546,0.0332355,-0.0623365,0.164061,0.000308209,0.00032293,0.112375,0.031335536797129304,0.1782861883580551,0.0003082565012737515,0.03379396905603249,0.00032298214750570153,-0.06043333059375744
133,0.1218,458.644,451.15,0.0668982,454.733,0.800837,0.69551,0.0310931,0.0334908,-0.0628285,0.16535,0.000310663,0.000325194,0.113283,0.03158153965733024,0.17980597854919655,0.00031071126074722066,0.03405793034955784,0.0003252468813008669,-0.06089548369611952
134,0.1228,459.205,451.552,0.0456573,455.336,0.761431,0.721835,0.0313317,0.0337453,-0.0633197,0.166639,0.000312725,0.000328036,0.11419,0.031827704378976085,0.18132772901301886,0.0003127739035604371,0.03432113158376815,0.00032808980969223356,-0.06135665856070871
135,0.1238,459.809,452.232,0.0616199,455.886,0.791885,0.711266,0.0315697,0.0340008,-0.0638108,0.167926,0.000315759,0.000330379,0.115096,0.03207330859836088,0.18284907657742355,0.0003158088571204587,0.03458543439613426,0.00033043358115247834,-0.06181751313358674
136,0.1248,460.324,452.565,-0.0014368,456.484,0.744387,0.723523,0.0318078,0.0342546,-0.0643012,0.169213,0.000317649,0.000333038,0.116002,0.03231907451040894,0.18437238337664064,0.0003176994557858581,0.03484804550332399,0.00033309346331167333,-0.062277485030818536
137,0.1258,460.998,453.43,0.10277,457.007,0.811291,0.716166,0.0320453,0.0345103,-0.0647912,0.170497,0.000321196,0.000335428,0.116906,0.03256427940753426,0.18589409424620973,0.00032124758895846206,0.03511268998191386,0.0003354842622620424,-0.06273685650795036
138,0.1268,461.411,453.514,-0.0644643,457.621,0.718847,0.724423,0.0322831,0.0347627,-0.0652808,0.171783,0.000322425,0.000338025,0.117811,0.03280985239064771,0.1874201350853566,0.00032247698452714246,0.03537398539895964,0.00033808213688812927,-0.06319562822652303
139,0.1278,461.942,454.013,-0.103892,458.176,0.716635,0.711385,0.0325205,0.0350164,-0.0657699,0.173066,0.000324773,0.00034031,0.118714,0.033055070555849886,0.188944572836375,0.0003248257444605773,0.035636693102118366,0.0003403679120173031,-0.0636537072124097
140,0.1288,462.714,455.074,0.12525,458.674,0.815628,0.726195,0.0327573,0.0352719,-0.0662582,0.174346,0.000328723,0.000342997,0.119615,0.033299726962732645,0.1904673962886989,0.00032877703532618874,0.0359013320833963,0.0003430558301971143,-0.06411081349559622
141,0.1298,463.046,455.024,-0.122914,459.282,0.704922,0.721981,0.0329945,0.0355231,-0.0667466,0.175629,0.000329659,0.00034541,0.120518,0.03354485472897206,0.19199574618494575,0.0003297133434996269,0.036161583184185275,0.00034546966090309716,-0.06456779017149705
142,0.1308,463.778,456.071,0.070442,459.767,0.810619,0.711845,0.0332309,0.0357782,-0.0672342,0.176907,0.000333664,0.000347726,0.121418,0.03378921361471221,0.19352009059717568,0.0003337196720241131,0.036425941721553556,0.0003477864636936001,-0.06502379573381856
143,0.1318,464.179,456.125,-0.0890183,460.365,0.713007,0.730889,0.0334677,0.0360292,-0.0677215,0.178187,0.000334783,0.00035045,0.122318,0.03403404388725639,0.19504877446209723,0.00033483904608289095,0.03668611728359261,0.0003505114147752675,-0.06547929864585922
144,0.1328,464.708,456.652,-0.110597,460.895,0.719198,0.719953,0.033704,0.0362817,-0.0682083,0.179464,0.000337221,0.000352763,0.123218,0.03427841500313722,0.19657582656233408,0.00033727786539339277,0.03694791357859817,0.0003528252281841393,-0.06593411261257731
145,0.1338,465.461,457.703,0.117695,461.373,0.820595,0.733198,0.0339397,0.036536,-0.0686944,0.180739,0.000341191,0.000355426,0.124116,0.03452222315721576,0.1981024337464734,0.00034124921226963423,0.03721164296479129,0.0003554891713046793,-0.06638805170160222
146,0.1348,465.784,457.653,-0.119473,461.961,0.713169,0.730056,0.0341759,0.036786,-0.0691805,0.182016,0.000342171,0.000357851,0.125014,0.03476660616682281,0.19963338786052187,0.00034222954717422205,0.03747097829109758,0.00035791503630733246,-0.06684177018445858
147,0.1358,466.491,458.667,0.0666969,462.428,0.816372,0.719653,0.0344112,0.0370398,-0.0696659,0.183289,0.000346136,0.000360162,0.125911,0.03501011539699128,0.20116149359620739,0.00034619591197770916,0.03773432184227099,0.0003602268661202501,-0.06729461527481628
148,0.1368,466.882,458.726,-0.0832867,463.006,0.723238,0.73864,0.034647,0.0372896,-0.0701509,0.184563,0.000347322,0.000362883,0.126807,0.035254199558593546,0.202692748541337,0.00034738232326958496,0.03799358025589483,0.0003629488500009881,-0.06774686770632832
149,0.1378,467.394,459.237,-0.103971,463.518,0.729941,0.727687,0.0348822,0.0375409,-0.0706355,0.185835,0.000349778,0.000365194,0.127703,0.03549771998320894,0.20422354709896373,0.00034983917945741183,0.03825446082088324,0.00036526069144704465,-0.0681985281280787
150,0.1388,468.118,460.241,0.112046,463.981,0.825695,0.740916,0.0351169,0.0377939,-0.0711194,0.187105,0.000353667,0.000367856,0.128597,0.03574077982004531,0.20575388256110805,0.00035372954754686603,0.03851717243108821,0.00036792366731530635,-0.06864931778296413
151,0.1398,468.438,460.212,-0.109608,464.548,0.725517,0.737912,0.035352,0.0380428,-0.0716033,0.188376,0.000354755,0.000370281,0.129491,0.03598431110336153,0.2072873700707174,0.00035481793299663167,0.03877569152667326,0.0003703495624716169,-0.0690998893535053
152,0.1408,468.951,460.715,-0.11599,465.053,0.730621,0.731262,0.0355867,0.0382933,-0.0720864,0.189645,0.00035718,0.000372641,0.130385,0.03622748515653629,0.20882039023890742,0.00035724379637147585,0.03903593743183942,0.0003727104392825531,-0.0695494985851044
153,0.1418,469.677,461.742,0.113926,465.503,0.833085,0.74443,0.0358207,0.0385456,-0.072569,0.190911,0.000361162,0.000375298,0.131276,0.03646999076011204,0.2103517259839467,0.0003612272268473937,0.03929811927170168,0.00037536843310537193,-0.06999842566227055
154,0.1428,469.978,461.67,-0.117684,466.064,0.725716,0.742815,0.0360553,0.0387936,-0.0730516,0.192179,0.000362146,0.000377739,0.132169,0.036713175144357235,0.21188742540016303,0.00036221158277927046,0.03955589716841912,0.00037781035235995297,-0.07044713613949893
155,0.1438,470.654,462.647,0.0630907,466.505,0.827167,0.732439,0.0362889,0.0390454,-0.0735334,0.193443,0.000366083,0.000380051,0.133059,0.03695537963045359,0.21342021962774238,0.00036615001655904145,0.03981769030169846,0.00038012322853120395,-0.07089488683750234
156,0.1448,471.026,462.7,-0.0784775,467.054,0.737963,0.751304,0.036523,0.0392933,-0.0740149,0.194709,0.000367328,0.000382768,0.13395,0.03719815930107684,0.2149573824445461,0.00036739547319109,0.04007549306045588,0.00038284126501841875,-0.07134214326386434
157,0.1458,471.514,463.19,-0.0969026,467.54,0.745687,0.740501,0.0367566,0.0395427,-0.074496,0.195972,0.000369811,0.000385081,0.134839,0.037440477092705704,0.216492843057841,0.0003698793885178464,0.04033492023764951,0.0003851551532063624,-0.07178881310369478
158,0.1468,472.199,464.134,0.104831,467.981,0.835204,0.753532,0.0369897,0.0397935,-0.0749763,0.197233,0.000373612,0.000387739,0.135727,0.03768233265508658,0.21802780812501332,0.0003736818016559784,0.04059586895724676,0.00038781418048250416,-0.07223452589026691
159,0.1478,472.51,464.125,-0.0980275,468.517,0.743553,0.750846,0.0372232,0.0400406,-0.0754567,0.198495,0.000374829,0.000390167,0.136616,0.03792465977035131,0.2195659295693586,0.0003748992571674936,0.040853031967647446,0.00039024312504420955,-0.07268011738438274
160,0.1488,472.998,464.603,-0.104218,468.997,0.748946,0.744142,0.0374561,0.0402892,-0.0759364,0.199756,0.000377279,0.000392527,0.137503,0.03816642057556474,0.22110477224293912,0.00037735017867301934,0.04111182019743875,0.00039260404880381294,-0.07312484605537362
161,0.1498,473.681,465.555,0.105124,469.428,0.841744,0.757367,0.0376886,0.0405394,-0.0764155,0.201013,0.000381128,0.000395185,0.138389,0.03840782233021511,0.22264066604867305,0.0003812006385039979,0.041372338964390964,0.00039526309587922803,-0.07356880558263168
162,0.1508,473.979,465.52,-0.101871,469.957,0.746145,0.755863,0.0379215,0.0407857,-0.0768946,0.202273,0.000382289,0.000397628,0.139275,0.038649695677093865,0.224182164227807,0.00038236208175224107,0.04162886056081572,0.0003977070644922698,-0.07401255245982452
163,0.1518,474.46,465.995,-0.105846,470.428,0.752566,0.749359,0.0381539,0.0410335,-0.077373,0.20353,0.000384751,0.000399992,0.14016,0.03889110591715261,0.22572192874750008,0.00038482502615955205,0.04188700817563107,0.00040007200746705607,-0.07445543890784256
164,0.1528,475.135,466.943,0.104136,470.849,0.846516,0.762149,0.0383857,0.041283,-0.0778508,0.204784,0.000388614,0.000402645,0.141044,0.039131948788114546,0.2272599481827886,0.0003886895202029894,0.04214699141573153,0.0004027260723786785,-0.07489755846835833
165,0.1538,475.425,466.899,-0.101817,471.371,0.75079,0.76096,0.038618,0.0415286,-0.0783285,0.20604,0.000389775,0.000405093,0.141928,0.03937336717947848,0.2288023551064875,0.00038985097214561115,0.04240297415021632,0.00040517506124970737,-0.07533937436854843
166,0.1548,475.899,467.369,-0.104589,471.832,0.757897,0.754482,0.0388498,0.0417757,-0.0788056,0.207294,0.000392249,0.000407459,0.142811,0.03961432185155833,0.23034423981945285,0.00039232593969851237,0.04266058375148418,0.00040754202269410733,-0.07578042473210689
167,0.1558,476.562,468.302,0.102058,472.246,0.850639,0.767096,0.039081,0.0420245,-0.0792821,0.208545,0.000396096,0.00041011,0.143692,0.03985470847039263,0.23188436361004006,0.00039617445637896154,0.04292002997849398,0.0004101941066032566,-0.07622071045331824
168,0.1568,476.849,468.261,-0.0989992,472.758,0.757015,0.766053,0.0393127,0.0422694,-0.0797586,0.209798,0.00039729,0.000412561,0.144574,0.04009567072074405,0.2334288821564372,0.000397368930124431,0.043175472371479895,0.0004126461149940308,-0.0766607864283595
169,0.1578,477.315,468.724,-0.101449,473.211,0.764353,0.759576,0.0395439,0.0425158,-0.0802345,0.211049,0.000399774,0.000414928,0.145454,0.04033616864030276,0.23497286724932898,0.00039985392027519495,0.04343254247760875,0.00041501409452981974,-0.07710009901737636
170,0.1588,477.965,469.634,0.0994378,473.618,0.854463,0.77216,0.0397746,0.0427638,-0.0807097,0.212297,0.000403586,0.00041758,0.146334,0.04057620188117794,0.23651507552545414,0.0004036674517868821,0.04369134583843337,0.0004176671986653169,-0.07753855686448796
171,0.1598,478.25,469.602,-0.0946226,474.12,0.764157,0.771175,0.0400056,0.043008,-0.0811849,0.213547,0.000404831,0.000420033,0.147213,0.04081660274904375,0.23806168579990095,0.0004049129551282338,0.04394624638717759,0.00042012122621271075,-0.07797680640592797
172,0.1608,478.707,470.057,-0.0973331,474.566,0.771432,0.764679,0.0402362,0.0432538,-0.0816594,0.214794,0.000407324,0.000422402,0.148091,0.04105664273318399,0.23960651172087033,0.00040740696768493123,0.04420287991350769,0.00042249122428716923,-0.07841420263082732
173,0.1618,479.343,470.943,0.0966156,474.967,0.858195,0.777316,0.0404663,0.0435009,-0.0821334,0.216039,0.00041109,0.000425056,0.148968,0.04129621742868861,0.2411507829373234,0.0004111745090740193,0.04446093432644416,0.00042514634910229,-0.07885093078603067
174,0.1628,479.628,470.923,-0.0895477,475.459,0.771759,0.776335,0.0406968,0.0437446,-0.0826073,0.217286,0.000412395,0.000427511,0.149846,0.04153626387109566,0.24269946336520865,0.00041248004650862313,0.04471550047376449,0.0004276023958513786,-0.07928735990988256
175,0.1638,480.077,471.369,-0.0928409,475.897,0.778802,0.769817,0.0409267,0.0439896,-0.0830806,0.21853,0.000414895,0.000429881,0.150722,0.041775740584953036,0.2442463434575648,0.0004149810808349308,0.04497148712846544,0.0004299734120787324,-0.07972303009295534
176,0.1648,480.699,472.228,0.0937849,476.292,0.861955,0.782545,0.0411562,0.044236,-0.0835533,0.219772,0.000418614,0.000432538,0.151597,0.04201485555481055,0.24579265747837198,0.00041870163106794145,0.04522899982715556,0.0004326315580494011,-0.08015794221705164
177,0.1658,480.983,472.221,-0.0843031,476.775,0.779538,0.781543,0.0413861,0.044479,-0.0840259,0.221015,0.00041998,0.000434994,0.152472,0.04225444230954478,0.24734214055584802,0.00042006820394768773,0.04548302133647697,0.0004350886236097473,-0.08059255686602906
178,0.1668,481.425,472.658,-0.0883285,477.206,0.786262,0.775005,0.0416155,0.0447233,-0.084498,0.222256,0.000422487,0.000437366,0.153346,0.042493562904694304,0.2488910530536952,0.00042257626020258954,0.04573846403964521,0.00043746165845437446,-0.08102650667801958
179,0.1678,482.032,473.492,0.0910489,477.596,0.865809,0.787837,0.0418444,0.0449689,-0.0849694,0.223495,0.000426159,0.000440027,0.154218,0.04273221699416174,0.250439388063894,0.00042624981864713973,0.04599532894813274,0.00044012382608182854,-0.08145960869260649
180,0.1688,482.317,473.498,-0.0791871,478.069,0.787328,0.786805,0.0420737,0.0452113,-0.0854408,0.224735,0.000427586,0.000442485,0.155091,0.04297134290625659,0.25199089464037083,0.0004276774279243778,0.04624890894852429,0.00044258291092846846,-0.08189250659101766
181,0.1698,482.75,473.925,-0.0839889,478.493,0.793704,0.780252,0.0423025,0.0454549,-0.0859116,0.225973,0.000430099,0.000444858,0.155963,0.04321000205107839,0.2535418191921486,0.00043019150583667454,0.046503806227972344,0.0004449569639946027,-0.08232464986440591
182,0.1708,483.345,474.734,0.0884558,478.878,0.869791,0.793186,0.0425309,0.0456998,-0.0863817,0.227209,0.000433726,0.000447523,0.156834,0.043448298427957166,0.2550921547906999,0.0004338200727216357,0.04676012639524085,0.00044762315335744596,-0.08275594766201444
183,0.1718,483.629,474.752,-0.07435,479.342,0.795048,0.792122,0.0427595,0.0459415,-0.0868519,0.228446,0.000435211,0.000449983,0.157704,0.04368685797529537,0.256645664433796,0.0004353057180475073,0.04701315889553648,0.0004500842575376751,-0.08318713443546921
184,0.1728,484.055,475.171,-0.079913,479.76,0.801073,0.785563,0.0429878,0.0461845,-0.0873214,0.229681,0.000437729,0.000452359,0.158574,0.04392515888598503,0.2581985805576994,0.0004378248173189103,0.04726761400819224,0.00045246132976184406,-0.0836174770450191
185,0.1738,484.636,475.957,0.0860218,480.14,0.873913,0.798589,0.0432156,0.0464286,-0.0877904,0.230914,0.000441315,0.000455027,0.159442,0.04416299212535657,0.2597508962134647,0.00044141239379125174,0.04752328323593136,0.00045513054048940127,-0.08404715967983101
186,0.1748,484.92,475.986,-0.0698528,480.595,0.80266,0.797497,0.0434437,0.0466697,-0.0882592,0.232148,0.000442855,0.00045749,0.160311,0.04440119286962263,0.2613063883606608,0.00044295307475250567,0.04777587154781693,0.0004575946645104523,-0.0844764577360464
187,0.1758,485.339,476.396,-0.0761317,481.006,0.808352,0.790939,0.0436713,0.0469119,-0.0887275,0.233379,0.000445378,0.000459868,0.161178,0.044638925634082005,0.2628600125842504,0.00044547719550736,0.0480296735980934,0.00045997375549933217,-0.08490509703716265
188,0.1768,485.908,477.16,0.0837457,481.381,0.878178,0.804045,0.0438985,0.0471553,-0.0891953,0.234609,0.000448926,0.00046254,0.162044,0.044876294562075314,0.26441428608197515,0.0004490267823573646,0.04828479506767058,0.00046264698812059635,-0.0853330783201417
189,0.1778,486.191,477.198,-0.065706,481.828,0.810157,0.802932,0.044126,0.0473958,-0.0896629,0.23584,0.000450517,0.000465005,0.162911,0.04511403096057798,0.26597173848341993,0.0004506184980253014,0.048536937879842146,0.0004651131315849266,-0.08576067659245201
190,0.1788,486.806,478.129,0.14709,482.177,0.916498,0.807428,0.0443527,0.0476394,-0.0901298,0.237067,0.000454632,0.000467576,0.163775,0.0453509851691416,0.2675260391750096,0.00045473536079088106,0.0487923925910303,0.00046768533069729834,-0.08618743529797857
191,0.1798,487.149,478.371,0.0658068,482.594,0.893814,0.793221,0.0445796,0.0478805,-0.0905968,0.238295,0.000457041,0.000469846,0.16464,0.045588202218932894,0.2690835172469317,0.0004571454591513202,0.04904528692207055,0.00046995639492064534,-0.0866140861349699
192,0.1808,487.535,478.608,0.0421589,483.023,0.857137,0.816359,0.0448064,0.048121,-0.091063,0.239522,0.000459162,0.00047265,0.165504,0.04582536851683772,0.2706416384344592,0.0004592674310071043,0.04929761265452837,0.0004727617166115916,-0.0870398074046752
193,0.1818,487.961,479.09,0.0503503,483.407,0.881877,0.807664,0.0450328,0.0483624,-0.091529,0.240747,0.000462126,0.000475029,0.166367,0.04606217018520731,0.2721991282092613,0.0004622327966705697,0.04955094367404689,0.00047514184414287897,-0.08746514774242886
194,0.1828,488.323,479.306,0.0048231,483.83,0.845292,0.818483,0.0452593,0.0486024,-0.0919944,0.241973,0.000464202,0.000477674,0.167229,0.046299130101451924,0.2737598008372826,0.0004643097584215994,0.04980286613001428,0.0004777881043926957,-0.0878897426517703
195,0.1838,488.799,479.913,0.073817,484.198,0.894393,0.812901,0.0454852,0.0488438,-0.0924595,0.243195,0.000467503,0.000480103,0.168091,0.04653551577369819,0.2753172867439806,0.0004676122965590057,0.05005631913244457,0.00048021826789135247,-0.08831386649481776
196,0.1848,489.104,479.99,-0.0310556,484.631,0.832597,0.820771,0.0457113,0.0490828,-0.0929241,0.244419,0.000469213,0.000482705,0.168952,0.04677216420591179,0.2768792308177228,0.0004693230976386964,0.05030731258524024,0.0004828215208061426,-0.08873733749251422
197,0.1858,489.648,480.786,0.116725,484.974,0.919183,0.817169,0.0459368,0.0493245,-0.0933883,0.245639,0.000473055,0.000485169,0.169812,0.04700823794525388,0.2784379741193983,0.0004731669081621259,0.050561202544057604,0.0004852867135154426,-0.0891602474554537
198,0.1868,489.986,481.026,0.046869,485.377,0.89719,0.806438,0.0461623,0.0495639,-0.0938524,0.24686,0.000475452,0.000487491,0.170672,0.04724436492522699,0.27999990024765076,0.0004755650452172855,0.05081273700341993,0.0004876098430484088,-0.0895828701074376
199,0.1878,490.38,481.316,0.0468932,485.784,0.874239,0.828263,0.0463878,0.0498031,-0.0943157,0.24808,0.000477768,0.000490285,0.17153,0.04748054515783795,0.2815624530893779,0.0004778821493092167,0.05106412147449535,0.0004904052093355205,-0.09000456866970186
200,0.1888,490.772,481.721,0.0343407,486.162,0.885896,0.821151,0.0466129,0.0500427,-0.0947788,0.249298,0.000480548,0.000492692,0.172389,0.04771635956846931,0.2831243471576359,0.0004806634816876265,0.05131598661023906,0.0004928133926389577,-0.09042588998946954
201,0.1898,491.154,482.019,0.023329,486.56,0.868954,0.830851,0.046838,0.0502815,-0.0952414,0.250516,0.000482914,0.000495331,0.173246,0.047952227066899056,0.2846881447718934,0.00048303062173760125,0.05156707084610601,0.0004954536966574885,-0.09084656166390015
202,0.1908,491.572,482.485,0.0456815,486.93,0.892201,0.826607,0.0470627,0.0505208,-0.0957037,0.251732,0.000485852,0.000497784,0.174103,0.048187728389903706,0.28625127574695797,0.00048597004519956855,0.051818740957287446,0.0004979079150153609,-0.09126676616068963
203,0.1918,491.924,482.724,0.00574488,487.328,0.865782,0.833211,0.0472874,0.0507589,-0.0961655,0.252948,0.00048808,0.000500381,0.174959,0.048423282636001375,0.28781630864542307,0.00048819913042419394,0.05206920881652466,0.0005005062114562531,-0.09168632228511131
204,0.1928,492.372,483.269,0.0647658,487.686,0.90453,0.831189,0.0475117,0.0509981,-0.0966269,0.254162,0.000491243,0.000502869,0.175814,0.04865847035361326,0.28938066701752163,0.0004913636796026744,0.05232089387160621,0.0005029954598123609,-0.09210532154544615
205,0.1938,492.68,483.398,-0.0192518,488.092,0.857477,0.836594,0.0477361,0.0512354,-0.0970879,0.255377,0.000493176,0.000505448,0.176669,0.04889381571912299,0.2909482166214943,0.0004932976312779225,0.05257063925083916,0.000505575760364918,-0.09252376453369426
206,0.1948,493.176,484.082,0.0962022,488.43,0.924424,0.835114,0.0479599,0.0514747,-0.0975485,0.256588,0.000496746,0.000507951,0.177522,0.049128584424719124,0.2925125018953849,0.000496869398725952,0.052822549544676356,0.0005080800289549714,-0.09294165184091518
207,0.1958,493.412,484.018,-0.0607654,488.854,0.839603,0.840644,0.0481841,0.0517108,-0.0980088,0.257801,0.00049814,0.000510529,0.178376,0.04936382542287765,0.2940812708261873,0.0004982640923341108,0.053071150294787595,0.0005106593421100314,-0.09335907472132676
208,0.1968,493.784,484.384,-0.0742018,489.222,0.846192,0.831645,0.0484078,0.0519484,-0.0984686,0.259012,0.000500704,0.000512906,0.179228,0.04959859436855241,0.2956493525269923,0.0005008293731718627,0.053321389727365,0.0005130375587738545,-0.09377585239424013
209,0.1978,494.308,485.103,0.0804785,489.556,0.916183,0.843521,0.0486311,0.052187,-0.0989279,0.26022,0.000504278,0.00051559,0.18008,0.049832995904632416,0.29721544267284816,0.0005044051695259899,0.05357274219611097,0.000515722939370411,-0.0941919855729354
210,0.1988,494.557,485.115,-0.0621697,489.961,0.850519,0.842812,0.0488547,0.0524228,-0.099387,0.26143,0.000505934,0.000518085,0.180931,0.05006776480870201,0.29878602336817894,0.0005060620061927423,0.05382120394120937,0.0005182192292132459,-0.09460774658711557
211,0.1998,495.118,485.975,0.136058,490.273,0.951861,0.846632,0.0490775,0.0526616,-0.0998455,0.262636,0.000510001,0.000520675,0.181781,0.050301745971234935,0.3003533041927391,0.0005101310726214336,0.05407288649441133,0.0005208105747569469,-0.09502277378305002
212,0.2008,495.423,486.178,0.0568937,490.651,0.928681,0.833824,0.0493004,0.052898,-0.100304,0.263843,0.000512415,0.000522992,0.182631,0.050535884324161895,0.301923778221314,0.0005125463069930447,0.0543220987805102,0.0005231287841607202,-0.09543761073263246
213,0.2018,495.779,486.407,0.0429959,491.036,0.898733,0.855606,0.0495234,0.0531339,-0.100762,0.265049,0.000514658,0.000525803,0.18348,0.05077017994935762,0.30349484546097627,0.0005147904591511487,0.05457084270180457,0.0005259412586287038,-0.09585180544908656
214,0.2028,496.155,486.816,0.0407973,491.385,0.916551,0.848111,0.0497459,0.0533705,-0.101219,0.266253,0.000517548,0.000528226,0.184328,0.05100400232617108,0.30506519841769064,0.0005176819510739339,0.054820383682721685,0.0005283655359213935,-0.09626490677315414
215,0.2038,496.496,487.046,0.0134171,491.763,0.8908,0.858088,0.0499684,0.053606,-0.101676,0.267457,0.00051981,0.000530887,0.185176,0.05123787673425162,0.3066374432180261,0.0005199451246300502,0.055068823135676404,0.0005310279454442401,-0.09667781935304798
216,0.2048,496.909,487.541,0.0560492,492.102,0.925288,0.853605,0.0501905,0.0538425,-0.102133,0.26866,0.00052293,0.000533359,0.186023,0.051471382596540494,0.30821027393020617,0.0005230667517286403,0.055318376420860904,0.0005335012612024403,-0.09709054327500433
217,0.2058,497.211,487.685,-0.0102721,492.484,0.884433,0.860734,0.0504127,0.0540773,-0.102589,0.269862,0.000524973,0.00053598,0.186869,0.051705045496740265,0.309783688111954,0.0005251108224419987,0.05556619426832121,0.0005361236629459754,-0.09750217612784773
218,0.2068,497.667,488.298,0.0824644,492.807,0.941961,0.858187,0.0506344,0.0543137,-0.103045,0.271062,0.000528426,0.000538486,0.187715,0.05193823435335654,0.3113563719592747,0.0005285656416142981,0.055815759614107785,0.0005386310096133773,-0.09791362131890036
219,0.2078,497.91,488.285,-0.0446923,493.203,0.870958,0.864536,0.0508563,0.0545475,-0.103501,0.272263,0.00053004,0.000541094,0.18856,0.05217168534798944,0.312932257091598,0.0005301804960224921,0.05606263819768742,0.0005412404177658203,-0.09832487893371644
220,0.2088,498.434,489.096,0.12585,493.5,0.968858,0.86198,0.0510775,0.0547843,-0.103956,0.27346,0.000534075,0.000543611,0.189403,0.05240445146777217,0.31450477796932197,0.0005342176434457446,0.05631274344170478,0.0005437587832373136,-0.09873504779330977
221,0.2098,498.727,489.282,0.0510594,493.864,0.944063,0.851733,0.0512988,0.0550187,-0.104411,0.274658,0.000536476,0.000545974,0.190247,0.05263737434484783,0.3160804983613874,0.0005366199289862372,0.05656037216972076,0.0005461230709327136,-0.09914503006852315
222,0.2108,499.074,489.516,0.043671,494.233,0.918101,0.873007,0.0515201,0.0552527,-0.104865,0.275855,0.000538789,0.000548793,0.19109,0.052870348773460085,0.3176567899402254,0.0005389341728645469,0.05680763622557472,0.0005489436144292537,-0.09955392539860886
223,0.2118,499.43,489.89,0.0355463,494.57,0.931519,0.866407,0.051741,0.0554873,-0.105319,0.277051,0.000541631,0.000551242,0.191932,0.05310295352375283,0.31923365023548667,0.0005417777085561237,0.0570555923811531,0.0005513939617924901,-0.09996263513234815
224,0.2128,499.766,490.136,0.0184552,494.93,0.912101,0.875831,0.0519619,0.055721,-0.105772,0.278246,0.000543999,0.000553911,0.192774,0.053335609662110706,0.3208110767721568,0.0005441469942910615,0.05730265514125166,0.0005540644370267689,-0.10037025972469238
225,0.2138,500.151,490.577,0.0468186,495.259,0.938331,0.872037,0.0521824,0.0559554,-0.106226,0.27944,0.000547016,0.000556407,0.193614,0.05356789577264376,0.3223890670705609,0.0005471656405360292,0.05755051593176641,0.0005565618230882752,-0.10077859892676466
226,0.2148,500.458,490.761,0.000560068,495.621,0.908773,0.878635,0.052403,0.0561884,-0.106678,0.280633,0.000549238,0.000559037,0.194455,0.05380033848793997,0.32396761864636825,0.0005493888588081752,0.05779695391088824,0.0005591932903064034,-0.10118495515662351
227,0.2158,500.874,491.285,0.0657437,495.939,0.951206,0.876781,0.0526231,0.0564227,-0.107131,0.281824,0.00055249,0.000561566,0.195294,0.05403230546947113,0.32554540346453065,0.0005526426507114213,0.0580448247741272,0.0005617237077057968,-0.10159202616339336
228,0.2168,501.138,491.36,-0.0238243,496.309,0.900704,0.882473,0.0528433,0.0566549,-0.107583,0.283016,0.000554415,0.000564184,0.196133,0.05426442893899153,0.32712639566961665,0.0005545687164023594,0.058290531307864324,0.0005643431817274891,-0.10199801480722182
229,0.2178,501.601,492.021,0.0957662,496.608,0.971089,0.880851,0.053063,0.0568893,-0.108034,0.284205,0.000558071,0.000566725,0.19697,0.0544960762795581,0.3287052874192036,0.000558226750592361,0.05853862368369356,0.000566885618953572,-0.10240292238902093
230,0.2188,501.798,491.911,-0.0626162,496.996,0.884049,0.886989,0.053283,0.0571204,-0.108486,0.285396,0.000559476,0.000569345,0.197808,0.05472809093701603,0.33028871816235505,0.0005596325358885323,0.058783280228601686,0.0005695071076281533,-0.10280854459057764
231,0.2198,502.139,492.256,-0.0697846,497.326,0.893515,0.87871,0.0535026,0.057353,-0.108937,0.286584,0.000562126,0.000571773,0.198645,0.05495973465933557,0.3318700402788868,0.0005622840224279724,0.05902958186335261,0.0005719364933405302,-0.10321308670586327
232,0.2208,502.614,492.91,0.071287,497.626,0.958759,0.889703,0.0537218,0.0575866,-0.109387,0.28777,0.000565672,0.000574487,0.199481,0.055191007179715035,0.3334505752186123,0.0005658320225778724,0.05927700007099723,0.0005746520492613261,-0.10361655003078907
233,0.2218,502.843,492.929,-0.0523609,497.991,0.901325,0.88974,0.0539412,0.0578176,-0.109837,0.288957,0.00056749,0.000577031,0.200316,0.05542254148507486,0.3350343208184563,0.0005676510529140089,0.0595217213222301,0.0005771975144139851,-0.10401983183806318
234,0.2228,503.342,493.686,0.117044,498.273,0.989918,0.893032,0.0541599,0.0580513,-0.110287,0.290141,0.000571413,0.000579654,0.201151,0.055653387637004226,0.3366159375866655,0.0005715762875082575,0.059769360484011935,0.0005798220318451452,-0.10442293220935017
235,0.2238,503.617,493.862,0.043791,498.615,0.968009,0.881807,0.0543788,0.0582827,-0.110736,0.291326,0.000573862,0.000582034,0.201985,0.05588449545738605,0.3382007662982627,0.0005740266902991564,0.060014619489400456,0.0005822034146554245,-0.10482495605168163
236,0.2248,503.95,494.101,0.0439871,498.959,0.947758,0.901838,0.0545975,0.0585139,-0.111185,0.292509,0.000576278,0.000584863,0.202818,0.0561154426496977,0.3397847945727821,0.0005764440800679616,0.06025972320232387,0.0005850340657127528,-0.10522679942582591
237,0.2258,504.279,494.434,0.029355,499.279,0.957031,0.895827,0.054816,0.0587454,-0.111634,0.293692,0.000579086,0.000587347,0.203651,0.05634622908641651,0.34137069786160246,0.0005792537026676481,0.060505201741289705,0.0005875195220244045,-0.10562846241279511
238,0.2268,504.606,494.692,0.0233271,499.615,0.944442,0.904725,0.0550344,0.0589763,-0.112082,0.294873,0.000581579,0.000590036,0.204483,0.05657696029778014,0.3429557924699076,0.0005817481498564536,0.060750100664864526,0.0005902101054817699,-0.10602905112306316
239,0.2278,504.956,495.072,0.0368843,499.929,0.962156,0.90164,0.0552525,0.0592075,-0.11253,0.296054,0.000584501,0.000592567,0.205314,0.056807424864068645,0.34454276018079444,0.0005846718539959106,0.06099537444069414,0.0005927426025085225,-0.10642946040978285
240,0.2288,505.263,495.294,0.0111806,500.264,0.944288,0.907709,0.0554705,0.0594379,-0.112977,0.297233,0.000586919,0.00059522,0.206145,0.05703783399637197,0.3461289109471899,0.0005870912706575915,0.0612398559381524,0.0005953971785759293,-0.10682879718256166
241,0.2298,505.632,495.722,0.0485536,500.571,0.971373,0.906629,0.0556882,0.0596689,-0.113424,0.298412,0.000589979,0.000597785,0.206975,0.057267976182900915,0.3477169328881795,0.0005901530718415149,0.06148503066146427,0.0005979637090611778,-0.10722795549169262
242,0.2308,505.912,495.879,-0.00350562,500.91,0.941577,0.911626,0.055906,0.0598986,-0.113871,0.29959,0.00059223,0.000600424,0.207804,0.057498274226660095,0.34930547890502583,0.0005924054028110248,0.06172888177823577,0.0006006042905717379,-0.10762693541693125
243,0.2318,506.308,496.385,0.0658255,501.205,0.984561,0.911058,0.0561233,0.0601295,-0.114317,0.300766,0.000595522,0.000603004,0.208633,0.057728093570617034,0.3508931955426198,0.0005956993584315118,0.06197406328215371,0.0006031858434609738,-0.10802484506328836
244,0.2328,506.549,496.437,-0.0254529,501.553,0.934216,0.916082,0.0563407,0.0603584,-0.114763,0.301943,0.000597482,0.000605643,0.209461,0.0579580686555452,0.35248413291675385,0.0005976605279240932,0.0622171769685389,0.0006058264387527323,-0.1084225772815125
245,0.2338,506.989,497.072,0.093113,501.83,1.00384,0.915028,0.0565576,0.0605894,-0.115209,0.303116,0.00060116,0.000608226,0.210288,0.05818756464857744,0.35407152762965244,0.0006013407328875342,0.062462577479086345,0.0006084110069404236,-0.10882013215071906
246,0.2348,507.168,496.953,-0.0604422,502.195,0.919236,0.92104,0.0567749,0.0608172,-0.115654,0.304292,0.000602635,0.000610875,0.211115,0.05841753379161796,0.35566485243750434,0.0006028166209535168,0.06270463402342985,0.0006110616221317589,-0.10921661896705248
247,0.2358,507.68,497.802,0.137363,502.445,1.03294,0.918492,0.0569912,0.0610487,-0.116099,0.305463,0.000606947,0.000613453,0.211941,0.05864649426535973,0.35725326581423267,0.0006071312296009879,0.06295067862477,0.0006136412007737846,-0.10961292938600398
248,0.2368,507.929,497.93,0.0561986,502.774,1.00392,0.909132,0.0572079,0.0612773,-0.116544,0.306635,0.000609357,0.000615882,0.212766,0.05887592781889461,0.3588448991567188,0.0006095426956931327,0.0631936969258371,0.0006160716942600342,-0.110009063486053
249,0.2378,508.23,498.106,0.0405145,503.106,0.974243,0.929985,0.0574244,0.0615056,-0.116988,0.307807,0.000611678,0.000618747,0.213591,0.059105199275007125,0.36043839898703056,0.0006118651131368225,0.0634364517562549,0.0006189384634120998,-0.11040413175022035
250,0.2388,508.552,498.452,0.0366074,503.406,0.989373,0.923923,0.0576406,0.0617346,-0.117432,0.308977,0.000614601,0.000621259,0.214415,0.0593342025734549,0.36203104342916315,0.0006147899058932538,0.06368000658967099,0.0006214520213425612,-0.11079902464301372
251,0.2398,508.845,498.647,0.0136935,503.73,0.967492,0.933141,0.0578568,0.0619626,-0.117875,0.310147,0.000616992,0.000623979,0.215238,0.0595632553877683,0.3636255523558036,0.0006171823787159969,0.0639225532804455,0.0006241737153935834,-0.11119285343557861
252,0.2408,509.198,499.065,0.0472325,504.021,0.996445,0.929778,0.0580726,0.0621914,-0.118318,0.311315,0.000620105,0.000626537,0.216061,0.05979193381179537,0.36521919750855036,0.0006202973048532456,0.0641660066106351,0.000626733315303607,-0.11158650780062696
253,0.2418,509.464,499.2,-0.0039023,504.348,0.964356,0.936444,0.0582885,0.0624188,-0.118761,0.312483,0.000622349,0.000629223,0.216883,0.06002076759202302,0.3668147051263033,0.0006225426993196059,0.0644080254770405,0.0006294210023189972,-0.11197998781541296
254,0.2428,509.846,499.7,0.0651276,504.628,1.00946,0.934742,0.0585039,0.0626475,-0.119203,0.313648,0.000625696,0.000631813,0.217705,0.060249120658104616,0.36840797215561816,0.0006258917885748616,0.06465148343082294,0.000632012635875423,-0.11237240593000652
255,0.2438,510.072,499.731,-0.026555,504.964,0.957185,0.94077,0.0587195,0.0628741,-0.119645,0.314815,0.000627656,0.00063449,0.218526,0.06047773501226028,0.37000583643158613,0.0006278530172447727,0.06489276079266104,0.0006346913313586278,-0.11276465063412
256,0.2448,510.499,500.359,0.092291,505.226,1.02857,0.939041,0.0589345,0.0631029,-0.120086,0.315978,0.000631383,0.00063709,0.219345,0.06070576223733637,0.3716000800923511,0.0006315823642024654,0.06513643613172615,0.0006372929849383091,-0.11315583516066241
257,0.2458,510.665,500.222,-0.060816,505.579,0.942843,0.945756,0.0591499,0.0633285,-0.120527,0.317143,0.000632869,0.000639773,0.220165,0.06093426286715653,0.37319892533217813,0.0006330693038387736,0.06537675801900722,0.0006399776983969652,-0.11354684721286201
258,0.2468,511.162,501.057,0.134928,505.815,1.05695,0.942721,0.0593643,0.0635577,-0.120968,0.318305,0.000637212,0.000642371,0.220984,0.061161751559031696,0.37479550991941113,0.0006374150626955455,0.06562097035761005,0.0006425773644360699,-0.1139376868667632
259,0.2478,511.397,501.171,0.0541707,506.131,1.02734,0.934019,0.0595791,0.0637841,-0.121409,0.319467,0.000639636,0.000644835,0.221802,0.06138971358551171,0.3763939508162415,0.0006398406107293031,0.06586225425760572,0.0006450429507842692,-0.11432835419837695
260,0.2488,511.686,501.34,0.0400753,506.45,0.999128,0.954412,0.0597938,0.0640102,-0.121849,0.320628,0.000642004,0.00064772,0.22262,0.061617618421727194,0.3779928721873933,0.0006422101286773785,0.06610327295943086,0.0006479298158974522,-0.11471796400208711
261,0.2498,511.993,501.665,0.0343003,506.737,1.01269,0.948807,0.0600081,0.0642369,-0.122289,0.321788,0.000644931,0.000650264,0.223437,0.06184514745622027,0.3795922713913231,0.0006451390127129031,0.06634498596854521,0.0006504754674689917,-0.11510740241519235
262,0.2508,512.277,501.858,0.0148533,507.047,0.993211,0.957749,0.0602225,0.0644628,-0.122728,0.322948,0.000647383,0.000653006,0.224253,0.06207283146268816,0.38119352697482123,0.0006475925976019425,0.06658590051114865,0.000653219254834303,-0.11549578500931523
263,0.2518,512.612,502.248,0.0432993,507.327,1.01911,0.954787,0.0604364,0.0646893,-0.123167,0.324105,0.000650479,0.000655597,0.225068,0.062300033139691235,0.3827924927088371,0.0006506906073442398,0.06682750957880845,0.0006558119506843152,-0.11588399714089848
264,0.2528,512.872,502.392,-0.000465778,507.639,0.991345,0.961228,0.0606504,0.0649146,-0.123605,0.325263,0.000652812,0.000658306,0.225883,0.06252738967306448,0.3843946939108489,0.0006530251281287036,0.06706789289488024,0.0006585227309505726,-0.11627115515635589
265,0.2538,513.232,502.851,0.0582777,507.909,1.03076,0.959899,0.060864,0.0651409,-0.124044,0.326419,0.000656105,0.000660928,0.226698,0.06275436976410931,0.3859959795417831,0.0006563202839660054,0.06730939768427868,0.0006611464610368767,-0.11665902697514885
266,0.2548,513.459,502.907,-0.0192598,508.228,0.986343,0.965676,0.0610778,0.0653655,-0.124482,0.327575,0.000658205,0.000663629,0.227512,0.06298161093958088,0.387599117329247,0.0006584216644449636,0.06754914229731068,0.0006638492504436044,-0.11704584560187037
267,0.2558,513.855,503.471,0.0803833,508.484,1.04731,0.964398,0.0612909,0.0655919,-0.124919,0.328729,0.000661811,0.000666262,0.228324,0.06320815645843991,0.389201331010131,0.0006620300452193639,0.06779086278485358,0.0006664840018273388,-0.11743161227118604
268,0.2568,514.032,503.392,-0.0468656,508.816,0.975734,0.970718,0.0615045,0.0658156,-0.125356,0.329884,0.000663528,0.000668968,0.229137,0.06343528197680115,0.3908067855189501,0.0006637481833999814,0.06802975431988045,0.0006691918089967164,-0.11781721039729653
269,0.2578,514.484,504.122,0.114269,509.05,1.07107,0.968366,0.0617172,0.0660422,-0.125793,0.331035,0.000667629,0.000671601,0.229948,0.0636614987185753,0.3924085257537555,0.0006678519138458849,0.06827179728464161,0.0006718265744474206,-0.11820264005383918
270,0.2588,514.715,504.242,0.041482,509.352,1.04504,0.960314,0.0619301,0.0662665,-0.12623,0.332187,0.000670106,0.000674104,0.23076,0.06388797635934185,0.3940135046657791,0.0006703305711850405,0.06851143752342059,0.0006743312591639405,-0.1185879013144191
271,0.2598,515.005,504.442,0.0413434,509.654,1.02614,0.979322,0.0621429,0.0664906,-0.126666,0.333339,0.000672626,0.000677,0.23157,0.06411439581088652,0.3956203335789057,0.0006728522635952583,0.06875091776932885,0.000677229216223596,-0.1189721132251631
272,0.2608,515.29,504.723,0.0254717,509.933,1.03287,0.974723,0.0623555,0.066715,-0.127102,0.334489,0.000675481,0.000679585,0.23238,0.06434065058146565,0.3972262201703294,0.0006757091886668842,0.06899077238595774,0.0006798159702043893,-0.11935615765602714
273,0.2618,515.578,504.955,0.0228854,510.225,1.02384,0.982862,0.0625679,0.0669389,-0.127537,0.335638,0.00067811,0.000682346,0.233189,0.06456674054555345,0.3988325557603778,0.0006783399685643676,0.06923014621679546,0.000682578850990545,-0.11973915441961136
274,0.2628,515.88,505.272,0.0302286,510.501,1.0372,0.980898,0.0627801,0.067163,-0.127972,0.336786,0.000681055,0.000684976,0.233998,0.06479266557769536,0.4004393376507305,0.0006812869706152025,0.0694697875433703,0.0006852106496337829,-0.12012198461583434
275,0.2638,516.155,505.483,0.0142563,510.791,1.02572,0.986456,0.0629923,0.0673864,-0.128407,0.337934,0.00068365,0.000687706,0.234806,0.06501863855621592,0.4020479651858906,0.000683883741924074,0.06970873378320874,0.00068794252398785,-0.12050464831713736
276,0.2648,516.469,505.83,0.0373544,511.062,1.04465,0.986282,0.0632041,0.0676102,-0.128841,0.33908,0.00068668,0.000690368,0.235613,0.06524423339351215,0.40365563317180153,0.0006869158186855184,0.06994816138877913,0.000690606358836332,-0.12088626648263578
277,0.2658,516.728,506.003,0.00551533,511.354,1.02647,0.990863,0.063416,0.0678332,-0.129275,0.340226,0.000689184,0.000693088,0.23642,0.06546998256384806,0.4052651446013158,0.0006894215418598026,0.07018678643447251,0.0006933282409873343,-0.12126771906178524
278,0.2668,517.057,506.393,0.0468644,511.618,1.05425,0.991201,0.0636274,0.0680568,-0.129709,0.34137,0.000692346,0.000695765,0.237226,0.0656952467277454,0.40687368783804123,0.0006925857268131885,0.07042610695495632,0.0006960071006127944,-0.12164900612643459
279,0.2678,517.293,506.509,-0.006197,511.914,1.02499,0.995689,0.063839,0.0682791,-0.130142,0.342515,0.000694697,0.000698486,0.238032,0.06592077170165367,0.4084854807859868,0.0006949383578478407,0.07066408912927113,0.0006987299981524586,-0.12202924977809027
280,0.2688,517.644,506.966,0.0606886,512.168,1.06674,0.995804,0.0640501,0.0685026,-0.130575,0.343657,0.000698064,0.000701169,0.238836,0.06614581132865682,0.4100948900027961,0.000698307703377532,0.07090340929622396,0.0007014148764468153,-0.12240932881988542
281,0.2698,517.85,506.994,-0.0234477,512.472,1.02006,1.00085,0.0642614,0.0687242,-0.131008,0.3448,0.000700173,0.000703898,0.239641,0.06637111174074084,0.4117075499216414,0.0007004181783341057,0.07114074778785762,0.0007041457943344209,-0.12278924332308072
282,0.2708,518.235,507.555,0.0815951,512.711,1.08355,1.00012,0.0644721,0.0689477,-0.13144,0.34594,0.000703855,0.000706582,0.240444,0.06659581980614804,0.41331781420480196,0.0007041027640570796,0.07138017449992651,0.0007068316878662273,-0.12316811652746074
283,0.2718,518.393,507.451,-0.0495642,513.029,1.00989,1.00637,0.0646832,0.0691684,-0.131872,0.347081,0.000705585,0.000709325,0.241247,0.06682100195084817,0.4149313301666153,0.0007058339836523153,0.07161665419901353,0.0007095766304703321,-0.12354682609396483
284,0.2728,518.832,508.173,0.113573,513.247,1.10693,1.00409,0.0648934,0.0693922,-0.132303,0.348219,0.000709751,0.000712003,0.242049,0.06704527129534066,0.41654243856715345,0.0007100029328406254,0.0718565088449572,0.0007122565343047338,-0.12392449601820332
285,0.2738,519.046,508.274,0.0403812,513.535,1.08013,0.996589,0.0651039,0.0696135,-0.132734,0.349358,0.000712257,0.000714554,0.242851,0.06726990796712862,0.41815679960876584,0.0007125107152503585,0.07209373693868493,0.0007148093545272793,-0.12430200320177753
286,0.2748,519.322,508.462,0.0402654,513.82,1.062,1.01512,0.0653143,0.0698348,-0.133165,0.350496,0.00071483,0.000717485,0.243652,0.06749448518045909,0.4197715806828841,0.0007150855518529564,0.07233101753679927,0.0007177424539319688,-0.1246793477148137
287,0.2758,519.591,508.725,0.0238894,514.086,1.0679,1.01098,0.0655244,0.0700562,-0.133596,0.351633,0.000717715,0.000720118,0.244453,0.06771878933412179,0.4213867790363779,0.0007179726190393865,0.07256845790776101,0.0007203773472168606,-0.12505652962740765
288,0.2768,519.865,508.947,0.0225606,514.362,1.06018,1.01887,0.0657345,0.0702773,-0.134026,0.352769,0.000720405,0.000722918,0.245252,0.06794314061903806,0.4230023919117314,0.0007206645540063228,0.07280562901210397,0.000723179368196103,-0.12543267444273676
289,0.2778,520.15,509.242,0.0277939,514.624,1.07205,1.01731,0.0659442,0.0704984,-0.134456,0.353904,0.000723372,0.000725596,0.246052,0.06816711177818124,0.4246184165470481,0.0007236336966227608,0.07304285256077536,0.0007258593084589204,-0.12580865755056492
290,0.2788,520.413,509.448,0.0150192,514.899,1.06274,1.02271,0.0661539,0.070719,-0.134885,0.355038,0.000726041,0.000728367,0.24685,0.0683911299090012,0.4262348501760582,0.000726304631565311,0.07327959192544209,0.0007286323236570524,-0.1261836052044535
291,0.2798,520.708,509.768,0.0335777,515.156,1.07903,1.02287,0.0663634,0.0709399,-0.135314,0.356171,0.000729076,0.000731075,0.247648,0.06861498129833143,0.42785169002812395,0.0007293418405089902,0.07351670557553702,0.0007313423004626785,-0.1265583920402965
292,0.2808,520.958,509.944,0.00798993,515.432,1.06457,1.02732,0.0665728,0.0711601,-0.135743,0.357304,0.000731677,0.000733837,0.248446,0.06883877270555794,0.42947036279789397,0.0007319447409122048,0.07375311998237555,0.0007341063242471968,-0.12693301812707003
293,0.2818,521.265,510.297,0.0409258,515.684,1.08768,1.028,0.0667819,0.0713807,-0.136171,0.358435,0.000734816,0.000736561,0.249242,0.06906229026087662,0.4310880083843618,0.0007350860434169881,0.07399001604931921,0.0007368323276657485,-0.1273066108407679
294,0.2828,521.497,510.43,-0.000951013,515.962,1.06479,1.03231,0.066991,0.0716003,-0.136599,0.359566,0.000737302,0.000739324,0.250039,0.06928585455860303,0.4327074845629926,0.0007375738739332505,0.07422589015487246,0.0007395973673534062,-0.1276800436909975
295,0.2838,521.82,510.832,0.0512096,516.207,1.09842,1.03286,0.0671997,0.0718208,-0.137027,0.360695,0.000740597,0.000742055,0.250834,0.0695090378048111,0.43432592475063925,0.000740871309671709,0.07446278308013676,0.0007423303909257495,-0.12805331674616582
296,0.2848,522.029,510.9,-0.0136614,516.491,1.06258,1.03758,0.0674086,0.0720397,-0.137455,0.361825,0.000742905,0.000744826,0.251629,0.06973248158069834,0.43594762913602225,0.0007431810222680024,0.07469800872786103,0.0007451034517653721,-0.1284264300746505
297,0.2858,522.377,511.378,0.0663056,516.724,1.11218,1.0375,0.067617,0.0722601,-0.137882,0.362952,0.000746433,0.00074756,0.252423,0.06995543706101381,0.437566854376096,0.0007467116504387139,0.07493489827325361,0.0007478394926183629,-0.12879851254374797
298,0.2868,522.552,511.349,-0.0323488,517.018,1.05676,1.04314,0.0678256,0.0724784,-0.138308,0.36408,0.000748469,0.000750343,0.253217,0.07017865304580262,0.4391893447003392,0.0007487491728177531,0.07516958217636271,0.0007506245777311182,-0.12916956533754786
299,0.2878,522.937,511.942,0.0887895,517.236,1.1304,1.04189,0.0680335,0.0726988,-0.138735,0.365205,0.000752346,0.000753075,0.25401,0.07040116631722393,0.44080934379175685,0.0007526290832395865,0.0754065756679978,0.0007533586321721852,-0.129541330555626
300,0.2888,523.062,511.769,-0.0600718,517.544,1.04559,1.04904,0.0682419,0.0729161,-0.139161,0.366332,0.000753969,0.000755875,0.254803,0.07062426116596021,0.4424340512729099,0.0007542533060747036,0.07564028690869695,0.0007561607454993347,-0.12991206697634505
301,0.2898,523.504,512.534,0.122342,517.74,1.15523,1.04591,0.0684494,0.0731369,-0.139586,0.367455,0.000758365,0.000758599,0.255594,0.07084643875027918,0.44405481460076546,0.000758652631441814,0.0758778145061283,0.0007588868089940526,-0.13028177577919464
302,0.2908,523.698,512.605,0.044513,518.014,1.12507,1.03913,0.0686573,0.073355,-0.140012,0.368579,0.000760885,0.00076121,0.256385,0.07106909086878122,0.44567884474633845,0.0007611745464242148,0.07611248904780044,0.0007614997938587553,-0.13065219683742546
303,0.2918,523.952,512.762,0.0384598,518.286,1.10389,1.05764,0.068865,0.073573,-0.140437,0.369702,0.00076347,0.000764191,0.257176,0.07129157502313421,0.4473032540240822,0.0007637615174040935,0.07634710714285609,0.000764483068336208,-0.13102159115191758
304,0.2928,524.209,513.017,0.0251627,518.536,1.11126,1.05373,0.0690724,0.0737913,-0.140861,0.370824,0.00076643,0.000766879,0.257966,0.07151378393806196,0.4489280396093591,0.0007667237825221829,0.0765820993648132,0.0007671731268821258,-0.1313899598975764
305,0.2938,524.463,513.212,0.0191411,518.798,1.10125,1.06163,0.0692797,0.0740091,-0.141286,0.371946,0.00076914,0.00076973,0.258756,0.07173593177029969,0.4505546492271537,0.0007694358640184529,0.0768166044827352,0.000770026318159811,-0.1317590407293877
306,0.2948,524.738,513.505,0.0292097,519.043,1.11582,1.06022,0.0694868,0.0742271,-0.14171,0.373066,0.000772198,0.000772463,0.259544,0.07195791126695283,0.45218018056191345,0.0007724962216326681,0.077051376091688,0.0007727614263792759,-0.13212709686270419
307,0.2958,524.981,513.682,0.0108502,519.305,1.10351,1.06577,0.0696938,0.0744445,-0.142133,0.374185,0.000774877,0.000775287,0.260333,0.07217982952233215,0.4538060797048755,0.0007751772947413027,0.07728555251490521,0.0007755876126482875,-0.13249412946786254
308,0.2968,525.266,514.004,0.0356619,519.546,1.12353,1.06594,0.0699006,0.0746623,-0.142557,0.375304,0.000778019,0.00077805,0.26112,0.07240157923920765,0.4554337992473019,0.0007783217352883565,0.07752021086160932,0.0007783527594167339,-0.13286187398962024
309,0.2978,525.495,514.146,0.00299313,519.809,1.10497,1.07068,0.0701074,0.0748792,-0.14298,0.376422,0.000780615,0.000780866,0.261907,0.07262337481866687,0.45706188416474736,0.0007809197591837069,0.07775395034347565,0.0007811709552261181,-0.1332285958497812
310,0.2988,525.794,514.508,0.0439363,520.044,1.13304,1.07122,0.0703138,0.0750968,-0.143402,0.377538,0.000783877,0.000783644,0.262694,0.07284478713219422,0.4586888729183378,0.0007841843118685521,0.07798849512061667,0.0007839511291807266,-0.13359429621412855
311,0.2998,526.003,514.599,-0.00697795,520.311,1.1047,1.07597,0.0705203,0.0753131,-0.143825,0.378655,0.00078634,0.000786464,0.26348,0.07306635245656934,0.4603191387233343,0.0007866492463501906,0.07822168925114736,0.0007867733439022029,-0.133960708325205
312,0.3008,526.321,515.018,0.0553551,520.537,1.14478,1.07622,0.0707263,0.0755306,-0.144247,0.379769,0.000789781,0.000789248,0.264265,0.07328742689506074,0.46194684070554537,0.0007900929591351247,0.07845622797372087,0.0007895595381577358,-0.13432609980326737
313,0.3018,526.505,515.037,-0.0208953,520.811,1.10188,1.08156,0.0709325,0.0757463,-0.144668,0.380884,0.000792043,0.000792077,0.26505,0.07350876158130837,0.4635778205352141,0.0007923567488856698,0.07868887607229036,0.0007923907758262683,-0.13469047180956106
314,0.3028,526.85,515.54,0.0717237,521.026,1.15966,1.081,0.0711382,0.0759637,-0.14509,0.381997,0.000795742,0.000794863,0.265833,0.07372960504653747,0.46520768950329794,0.000796058686659995,0.07892340852670254,0.0007951789873110737,-0.13505555539240344
315,0.3038,526.997,515.454,-0.040858,521.31,1.09537,1.08744,0.0713442,0.0761786,-0.145511,0.383111,0.000797706,0.000797706,0.266617,0.07395081612913623,0.4668408403655404,0.0007980242520495562,0.0791552940824054,0.0007980242520495562,-0.13541962036252986
316,0.3048,527.382,516.08,0.095455,521.508,1.17903,1.0855,0.0715495,0.0763962,-0.145931,0.384221,0.000801781,0.000800489,0.2674,0.0741713208657242,0.46846993768008804,0.000802102512307723,0.079390143825123,0.0008008094768265916,-0.13578266787666282
317,0.3058,527.477,515.843,-0.0696878,521.809,1.08355,1.09367,0.0717553,0.0766101,-0.146352,0.385334,0.000803308,0.000803352,0.268182,0.07439240807265168,0.47010525460578023,0.0008036307382850438,0.07962105007142983,0.000803674773645735,-0.1361464267968613
318,0.3068,527.743,516.143,-0.0578427,522.042,1.10246,1.0876,0.0719606,0.0768259,-0.146772,0.386444,0.000806344,0.000806053,0.268964,0.07461300347737243,0.4717379774319215,0.000806669182720432,0.07985405743462559,0.0008063779480220745,-0.13650916911638722
319,0.3078,528.092,516.627,0.0453091,522.258,1.1541,1.09627,0.0721655,0.0770423,-0.147191,0.387552,0.000809936,0.000808976,0.269745,0.07483321424160749,0.47336956684453013,0.0008102640867324595,0.08008776313869959,0.000809303309340148,-0.13687089598745583
320,0.3088,528.274,516.673,-0.0288734,522.521,1.11932,1.09815,0.0723707,0.0772569,-0.147611,0.388661,0.000812323,0.000811782,0.270525,0.07505379264774015,0.4750044400638025,0.0008126530236840512,0.08031957484517571,0.00081211158418526,-0.1372333340938109
321,0.3098,528.617,517.167,0.0695077,522.732,1.17521,1.10076,0.0725753,0.077473,-0.148029,0.389768,0.000816016,0.000814635,0.271305,0.07527377115675016,0.4766381740838952,0.0008163490316364097,0.08055305713215222,0.0008149669052126551,-0.1375938951976391
322,0.3108,528.763,517.096,-0.0401903,523.008,1.11578,1.10523,0.0727802,0.0776867,-0.148448,0.390876,0.000818071,0.000817475,0.272085,0.0754941173261543,0.4782751959234033,0.0008184057113469478,0.08078399599539998,0.0008178092237547396,-0.1379551676636842
323,0.3118,529.137,517.695,0.0911161,523.204,1.19448,1.1048,0.0729844,0.0779029,-0.148866,0.391981,0.000822098,0.000820302,0.272863,0.07571375564922178,0.4799095928528989,0.0008224360151816157,0.0810176867563952,0.0008206385397007132,-0.13831542710413225
324,0.3128,529.236,517.483,-0.0646765,523.495,1.10571,1.11194,0.0731892,0.0781158,-0.149285,0.393087,0.000823744,0.000823175,0.273641,0.07593408438727134,0.4815472783357264,0.0008240833702670702,0.08124785992296979,0.0008235139015257964,-0.13867639731163606
325,0.3138,529.495,517.773,-0.0538502,523.724,1.12354,1.10629,0.0733934,0.0783303,-0.149702,0.394191,0.000826798,0.000825905,0.274419,0.07615381256078635,0.48318380973011954,0.0008271398916850359,0.08147981246494407,0.0008262461534480625,-0.13903549437701546
326,0.3148,529.833,518.236,0.0432672,523.936,1.17187,1.11515,0.0735973,0.0785454,-0.150119,0.395294,0.000830371,0.000828855,0.275196,0.07637326269534839,0.4848206640314481,0.0008307158534444081,0.08171246379335861,0.0008291985952291192,-0.1393944417301357
327,0.3158,530.015,518.29,-0.0258589,524.192,1.13987,1.117,0.0738013,0.0787588,-0.150537,0.396397,0.000832822,0.000831685,0.275972,0.07659286523963615,0.4864593247791431,0.0008331688925351521,0.08194332586523911,0.0008320309458689223,-0.13975409967974428
328,0.3168,530.346,518.759,0.0650747,524.4,1.19171,1.11976,0.0740049,0.0789736,-0.150953,0.397498,0.000836482,0.000834563,0.276748,0.076812081862494,0.4880968177702023,0.0008368319486367071,0.08217575225333529,0.0008349113445988987,-0.14011188754924087
329,0.3178,530.495,518.708,-0.0354822,524.668,1.13741,1.12411,0.0742088,0.0791862,-0.15137,0.3986,0.000838635,0.000837427,0.277523,0.07703166623185131,0.48973760437075375,0.0008389867526554795,0.08240584727649858,0.000837777739889578,-0.14047038613998175
330,0.3188,530.853,519.269,0.0840879,524.862,1.20958,1.12397,0.074412,0.079401,-0.151786,0.399699,0.000842594,0.000840281,0.278297,0.07725054130338371,0.49137572598090506,0.0008429490820474062,0.08263837302486499,0.0008406341349833646,-0.1408278760962811
331,0.3198,530.96,519.093,-0.056895,525.144,1.12922,1.13082,0.0746156,0.0796127,-0.152201,0.4008,0.000844385,0.000843177,0.279072,0.07746989184272035,0.4930186349106145,0.0008447415933743319,0.08286759183038894,0.00084353257365688,-0.14118435855247524
332,0.3208,531.364,519.796,0.110644,525.32,1.23158,1.12822,0.0748184,0.0798278,-0.152617,0.401897,0.000848781,0.000846016,0.279845,0.07768842489528871,0.49465737503773144,0.0008491413165290229,0.08310054170225212,0.0008463739724791086,-0.14154155155802106
333,0.3218,531.537,519.85,0.0368078,525.569,1.20245,1.12257,0.0750215,0.0800402,-0.153032,0.402995,0.000851405,0.000848747,0.280618,0.0779073256430034,0.49629941014782797,0.0008517675481214404,0.08333061669040842,0.0008491072876588568,-0.14189773790034643
334,0.3228,531.773,520.007,0.0368589,525.814,1.18666,1.13973,0.0752244,0.0802527,-0.153447,0.404092,0.000854167,0.000851815,0.28139,0.07812605522874239,0.4979417512601596,0.0008545319045210054,0.08356084890776194,0.0008521778974301952,-0.14225377645600756
335,0.3238,532.0,520.22,0.0192407,526.042,1.19021,1.13698,0.0754271,0.0804654,-0.153861,0.405188,0.000857176,0.000854624,0.282162,0.07834461353027278,0.4995843954241117,0.0008575434803383963,0.08379134681290767,0.000854989295146602,-0.1426088098955619
336,0.3248,532.239,520.418,0.0211333,526.278,1.18614,1.1442,0.0756297,0.0806777,-0.154275,0.406283,0.000860077,0.000857572,0.282933,0.07856310828174484,0.5012273396849232,0.0008604469722834907,0.08402146014150169,0.0008579398200041499,-0.1429636963816936
337,0.3258,532.479,520.657,0.0211449,526.504,1.19417,1.14383,0.0758321,0.0808901,-0.154689,0.407378,0.000863148,0.000860424,0.283704,0.07878143154843054,0.5028720839550251,0.0008635206194358425,0.08425173075350911,0.0008607942709188965,-0.14331843597522897
338,0.3268,532.711,520.85,0.0160621,526.737,1.19044,1.14881,0.0760344,0.0811021,-0.155103,0.408471,0.000866057,0.000863348,0.284474,0.0789996911082429,0.5045156211722563,0.0008664321356521842,0.08448161648745556,0.0008637207921600165,-0.14367302873696897
339,0.3278,532.957,521.101,0.0240397,526.96,1.20037,1.14998,0.0762365,0.0813142,-0.155516,0.409564,0.000869162,0.000866229,0.285243,0.0792177789828532,0.5061609557577489,0.0008695398307485558,0.08471165943350467,0.0008666042846932065,-0.14402661875473588
340,0.3288,533.182,521.281,0.0125792,527.193,1.19474,1.15409,0.0764386,0.0815258,-0.155929,0.410656,0.00087205,0.000869148,0.286012,0.07943591093747715,0.5078065818697644,0.0008724303461535854,0.08494120870609723,0.0008695258185751342,-0.14438006276997717
341,0.3298,533.432,521.545,0.0270805,527.414,1.20733,1.15577,0.0766403,0.0817375,-0.156341,0.411747,0.000875201,0.000872044,0.28678,0.07965365511947575,0.509452496533775,0.0008755841001502063,0.08517091507354135,0.0008724243409188315,-0.14473250557591255
342,0.3308,533.65,521.707,0.00897721,527.647,1.19854,1.15965,0.0768421,0.0819487,-0.156753,0.412838,0.000878051,0.000874966,0.287548,0.07987155121205514,0.5111002078705911,0.0008784365996297172,0.08540012737477198,0.0008753488944155396,-0.14508480320532025
343,0.3318,533.906,521.989,0.0307621,527.865,1.215,1.16141,0.0770436,0.0821602,-0.157165,0.413927,0.000881264,0.000877872,0.288315,0.0800891672537043,0.5127466923450417,0.0008816524272128312,0.08562971377961826,0.00087825744240555,-0.14543695571800075
344,0.3328,534.114,522.128,0.00448565,528.099,1.20163,1.16538,0.077245,0.082371,-0.157577,0.415016,0.000884057,0.0008808,0.289081,0.08030671911872678,0.5143949708177398,0.0008844478935718936,0.08585858864584628,0.0008811880182337806,-0.1457889631737298
345,0.3338,534.377,522.434,0.0356454,528.312,1.22355,1.16694,0.0774462,0.0825822,-0.157988,0.416104,0.000887355,0.000883714,0.289847,0.08052409869826582,0.5160435291991263,0.0008877488159242386,0.08608794619907334,0.0008841045902652223,-0.14613997177265725
346,0.3348,534.574,522.541,-0.00149651,528.548,1.20376,1.17125,0.0776474,0.0827925,-0.158399,0.417191,0.000890064,0.000886652,0.290613,0.08074152201897644,0.517692364494998,0.0008904602245083382,0.08631637451255436,0.0008870451920841571,-0.14649083613669278
347,0.3358,534.848,522.882,0.0423397,528.756,1.2333,1.17241,0.0778482,0.0830036,-0.15881,0.418277,0.000893479,0.00088957,0.291377,0.08095855670615126,0.5193414737070625,0.0008938782712664128,0.08654572010578954,0.0008899657847432074,-0.14684155632510487
348,0.3368,535.029,522.945,-0.00963535,528.996,1.20455,1.17725,0.0780491,0.0832133,-0.15922,0.419363,0.000896067,0.000892519,0.292142,0.08117574309583575,0.5209923748245595,0.0008964685879750967,0.08677359263489537,0.0008929174136045326,-0.14719127958884348
349,0.3378,535.319,523.336,0.051588,529.196,1.24466,1.17778,0.0782497,0.0834242,-0.15963,0.420447,0.00089964,0.000895441,0.292905,0.081392648704806,0.5226420245074617,0.0009000447974463199,0.08700281735647941,0.0008958420269820078,-0.14754085949543416
350,0.3388,535.479,523.338,-0.0207727,529.443,1.20352,1.1834,0.0784503,0.0836335,-0.16004,0.421532,0.00090206,0.000898403,0.293669,0.08160959782940602,0.5242949876744112,0.0009024669784856165,0.08723035085670228,0.0008988066848567566,-0.14789029610364135
351,0.3398,535.79,523.797,0.0643582,529.633,1.25822,1.18303,0.0786505,0.0838443,-0.160449,0.422614,0.000905848,0.000901327,0.294431,0.08182615774781588,0.5259451674373345,0.0009062584042114352,0.08745956317279213,0.0009017333172463005,-0.14823873771136886
352,0.3408,535.922,523.716,-0.0360202,529.888,1.19998,1.18975,0.078851,0.0840528,-0.160858,0.423697,0.000908032,0.000904304,0.295193,0.08204308563873863,0.5275986612589598,0.0009084443858669022,0.08768632213051353,0.0009047130061414776,-0.1485870368356187
353,0.3418,536.264,524.269,0.0819413,530.065,1.27477,1.18812,0.0790508,0.0842637,-0.161267,0.424778,0.000912114,0.000907227,0.295954,0.0822592994462894,0.5292508882795914,0.0009125301024759391,0.08791573936704822,0.0009076386548934057,-0.14893519353465468
354,0.3428,536.357,524.075,-0.056864,530.333,1.19304,1.19635,0.079251,0.0844715,-0.161675,0.42586,0.000913971,0.000910222,0.296716,0.08247598944798407,0.5309064332290121,0.0009143887987701493,0.08814183174787349,0.0009106363777604543,-0.14928235714949922
355,0.3438,536.741,524.759,0.10607,530.492,1.29538,1.19296,0.0794504,0.0846825,-0.162084,0.426938,0.000918453,0.000913141,0.297476,0.08269185668152779,0.5325576402046894,0.0009188749071140645,0.0883714538986573,0.0009135580401720134,-0.14963022952067584
356,0.3448,536.899,524.797,0.0338455,530.727,1.26582,1.18839,0.0796502,0.084891,-0.162492,0.428018,0.000921152,0.000915972,0.298236,0.08290820012648337,0.5342136965655768,0.0009215763908030361,0.08859840300541721,0.0009163916304659736,-0.1499771096186795
357,0.3458,537.121,524.946,0.0351872,530.956,1.25189,1.20487,0.0798497,0.0850996,-0.162899,0.429096,0.000924026,0.000919117,0.298995,0.08312426186385014,0.5358684706934804,0.0009244530435472686,0.08882550831854497,0.0009195395174674825,-0.15032299854189413
358,0.3468,537.332,525.138,0.0166734,531.17,1.25406,1.20283,0.0800491,0.0853083,-0.163306,0.430174,0.000927102,0.000922021,0.299753,0.0833402583758025,0.5375250296297329,0.0009275318919002018,0.08905276991605371,0.0009224461920307458,-0.15066874671696118
359,0.3478,537.557,525.331,0.0207174,531.389,1.25213,1.20973,0.0802483,0.0855167,-0.163713,0.431251,0.00093012,0.000925053,0.300511,0.08355608125051561,0.5391818361167893,0.000930552695749709,0.08927975216403294,0.0009254809934884367,-0.1510143542011536
360,0.3488,537.78,525.545,0.0178182,531.602,1.25803,1.20995,0.0804474,0.0857251,-0.16412,0.432327,0.000933248,0.000927998,0.301269,0.08377183874423832,0.5408388871060088,0.0009336836114153257,0.08950678172004212,0.0009284287233704003,-0.15135982105172074
361,0.3498,538.0,525.736,0.0166825,531.818,1.2572,1.21472,0.0806463,0.0859332,-0.164526,0.433402,0.000936286,0.000931008,0.302026,0.08398742240204848,0.5424961795447327,0.0009367244525653184,0.08973353167383236,0.0009314415224752626,-0.15170429903061222
362,0.3508,538.226,525.957,0.0196306,532.029,1.264,1.21638,0.0808451,0.0861413,-0.164932,0.434476,0.000939435,0.000933982,0.302782,0.08420294052341348,0.5441537103762935,0.0009398764072732213,0.08996032881919835,0.0009344182970087989,-0.15204863717983153
363,0.3518,538.442,526.142,0.0144714,532.245,1.26248,1.22031,0.0810437,0.086349,-0.165338,0.43555,0.00094247,0.000936988,0.303538,0.0844182846103616,0.5458130223522708,0.0009429142644081789,0.09018673709117908,0.0009374271103923526,-0.15239283555613814
364,0.3528,538.67,526.368,0.0212149,532.454,1.27046,1.22251,0.0812422,0.0865568,-0.165743,0.436623,0.000945644,0.000939978,0.304293,0.0846335630055306,0.5474725699132974,0.0009460912622598627,0.09041330143436666,0.000940419917773827,-0.1527360469527388
365,0.3538,538.882,526.544,0.0125844,532.669,1.26758,1.22615,0.0814406,0.0867642,-0.166148,0.437695,0.000948667,0.000942987,0.305048,0.08484877565281956,0.5491323499914169,0.0009491171268674048,0.09063947660663874,0.0009434317520284896,-0.1530791193768677
366,0.3548,539.112,526.779,0.0228778,532.876,1.27727,1.22851,0.0816388,0.0869717,-0.166553,0.438766,0.000951874,0.000945989,0.305802,0.08506381398974905,0.5507923595146826,0.0009523271758333784,0.09086580777908182,0.0009464365887208448,-0.15342205288479716
367,0.3558,539.319,526.943,0.0104881,533.091,1.2724,1.23213,0.0818369,0.0871787,-0.166957,0.439837,0.000954877,0.000949004,0.306556,0.08527878642361708,0.5524541478605369,0.0009553330401850246,0.09109164037415929,0.000949454446776743,-0.15376400129720147
368,0.3568,539.551,527.188,0.0249186,533.296,1.28444,1.23445,0.0820348,0.0873859,-0.167361,0.440906,0.000958125,0.000952014,0.307309,0.08549358434900389,0.5541146087027944,0.0009585841483865654,0.09131773798494836,0.0009524673091689806,-0.15410581159034908
369,0.3578,539.753,527.339,0.00788674,533.511,1.27686,1.2382,0.0822326,0.0875925,-0.167765,0.441975,0.000961097,0.000955039,0.308062,0.08570831621626973,0.5557768455267851,0.0009615590017193476,0.09154322752188304,0.0009554951949621859,-0.15444748382002904
370,0.3588,539.989,527.597,0.0275936,533.713,1.29209,1.24036,0.0824302,0.0877994,-0.168169,0.443043,0.000964399,0.000958056,0.308814,0.08592287337710336,0.5574393027919675,0.0009648641822439519,0.09176909118044718,0.0009585150822466471,-0.15478901804200762
371,0.3598,540.183,527.729,0.0045247,533.929,1.28084,1.24434,0.0826278,0.0880056,-0.168572,0.444111,0.000967328,0.00096109,0.309565,0.08613747293862106,0.5591035365099659,0.0009677960126248664,0.09199423717880317,0.0009615519949883744,-0.1551295694420205
372,0.3608,540.425,528.007,0.0311652,534.127,1.30034,1.24626,0.082825,0.0882123,-0.168975,0.445177,0.000970698,0.000964114,0.310316,0.08635168036844298,0.5607664270430701,0.0009711692797813587,0.09221997571690221,0.0009645789072982858,-0.15546998362746978
373,0.3618,540.611,528.114,0.000120107,534.345,1.28419,1.25057,0.0830223,0.0884181,-0.169377,0.446243,0.000973565,0.000967158,0.311066,0.08656603870073387,0.562431091162636,0.0009740390682375644,0.09244477771923743,0.0009676258481139399,-0.15580941646348034
374,0.3628,540.861,528.418,0.0359436,534.539,1.30939,1.25212,0.0832193,0.0886246,-0.16978,0.447308,0.000977025,0.000970189,0.311816,0.08678011329601332,0.5640959666635665,0.0009775024444043101,0.09267039085959139,0.000970659785585859,-0.15614955672577924
375,0.3638,541.035,528.493,-0.00567272,534.76,1.28669,1.25688,0.0834164,0.0888299,-0.170182,0.448373,0.000979807,0.000973244,0.312565,0.08699433876757068,0.5657626162014127,0.0009802871676896086,0.09289473911939572,0.0009737177556226051,-0.15648871642830786
376,0.3648,541.295,528.831,0.0423188,534.948,1.31946,1.25794,0.0836131,0.0890362,-0.170583,0.449436,0.000983383,0.000976279,0.313314,0.08720817158377425,0.5674279068075814,0.0009838666795967121,0.09312022656230612,0.000976755715466071,-0.15682689664335536
377,0.3658,541.454,528.864,-0.0132937,535.172,1.28807,1.26331,0.0838099,0.0892411,-0.170985,0.450499,0.00098605,0.000979347,0.314062,0.08742215520723984,0.5690949685588611,0.0009865363071290822,0.09334422984508128,0.0009798267168634744,-0.15716578410996007
378,0.3668,541.729,529.249,0.0507911,535.353,1.33087,1.26369,0.0840062,0.0894472,-0.171386,0.45156,0.000989777,0.000982387,0.31481,0.08763563712887201,0.5707606618145156,0.0009902669909021,0.09356959131355413,0.0009828697001621478,-0.15750369287529653
379,0.3678,541.869,529.226,-0.0233086,535.584,1.28799,1.26986,0.0842028,0.0896515,-0.171787,0.452622,0.000992288,0.000985468,0.315557,0.08784948731591613,0.5724296957375081,0.0009927804806182383,0.09379303040458531,0.0009859537331344814,-0.1578414661663825
380,0.3688,542.164,529.673,0.0620054,535.756,1.34402,1.26935,0.0843988,0.0898575,-0.172187,0.453682,0.000996212,0.00098851,0.316303,0.08806272671220827,0.5740973549182071,0.0009967083839954594,0.09401837497854304,0.0009889987370372832,-0.15817826221621534
381,0.3698,542.279,529.577,-0.0364459,535.994,1.28598,1.27658,0.0845952,0.0900613,-0.172587,0.454742,0.000998516,0.000991607,0.31705,0.08827644321800854,0.5757667827548598,0.0009990146830682889,0.09424135864462735,0.0009920988047669166,-0.15851492357456842
382,0.3708,542.6,530.105,0.076793,536.155,1.35944,1.27488,0.0847908,0.0902673,-0.172987,0.4558,0.0010027,0.00099465,0.317795,0.08848933091003941,0.5774348262504279,0.0010032028717075203,0.09446679558371573,0.0009951448283580522,-0.15885145029530734
383,0.3718,542.683,529.913,-0.0536419,536.404,1.28145,1.28351,0.084987,0.0904703,-0.173387,0.456859,0.00100472,0.000997764,0.31854,0.08870291346852777,0.5791062145753427,0.0010052249002194813,0.09468899489568638,0.0009982619320922925,-0.15918784243227668
384,0.3728,543.038,530.549,0.0962236,536.55,1.37781,1.28023,0.0851823,0.0906765,-0.173786,0.457915,0.00100924,0.00100081,0.319284,0.08891555791158212,0.5807746315070315,0.0010097494540615148,0.0949147430402677,0.0010013109774418272,-0.15952325956297864
385,0.3738,543.183,530.577,0.0281179,536.768,1.34946,1.27669,0.0853779,0.0908802,-0.174185,0.458972,0.00101206,0.00100377,0.320028,0.08912857062667401,0.5824463936631861,0.0010125723055351976,0.09513779989099391,0.0010042739457074568,-0.1598585428889414
386,0.3748,543.391,530.725,0.0330056,536.978,1.33919,1.29217,0.0855734,0.091084,-0.174584,0.460028,0.0010151,0.00100702,0.320771,0.08934151607697105,0.5841183396870244,0.0010156153883804642,0.09536101171912437,0.0010075272148843961,-0.1601936924635422
387,0.3758,543.583,530.893,0.012808,537.177,1.33932,1.29104,0.0857687,0.0912879,-0.174982,0.461084,0.00101827,0.00101005,0.321514,0.0895542852512945,0.5857920522184157,0.001018788612910937,0.09558437860089364,0.0010105602722869644,-0.16052786886842596
388,0.3768,543.795,531.083,0.0205873,537.378,1.34073,1.29751,0.0859638,0.0914916,-0.17538,0.462138,0.00102145,0.0010132,0.322256,0.08976687803009842,0.5874643581918859,0.0010219718577200165,0.09580757187027733,0.0010137134605181508,-0.1608619122975644
389,0.3778,543.996,531.266,0.013227,537.576,1.34344,1.29849,0.0861588,0.0916952,-0.175778,0.463191,0.00102466,0.00101628,0.322998,0.08997940329185372,0.5891368385674414,0.0010251851434068815,0.09603070100568534,0.0010167965875036433,-0.16119582280387146
390,0.3788,544.206,531.46,0.0177949,537.774,1.34678,1.30297,0.0863537,0.0918986,-0.176176,0.464244,0.00102788,0.0010194,0.323739,0.0901918609808845,0.5908110809923883,0.0010284084496925416,0.09625365632405702,0.0010199197647811076,-0.16152960044024
391,0.3798,544.408,531.644,0.0138792,537.971,1.34922,1.3053,0.0865484,0.0921019,-0.176573,0.465296,0.00103108,0.0010225,0.32448,0.09040414200110436,0.5924854948368512,0.0010316117457249696,0.09647654734849276,0.0010230229313421546,-0.16186240712236766
392,0.3808,544.615,531.838,0.0169261,538.168,1.35319,1.30896,0.086743,0.092305,-0.17697,0.466348,0.00103432,0.00102563,0.32522,0.0906163552948216,0.5941616710915436,0.0010348550934011769,0.0966992643514053,0.001026156138307588,-0.1621950817064658
393,0.3818,544.817,532.02,0.0139942,538.365,1.35524,1.31185,0.0869374,0.092508,-0.177366,0.467398,0.00103753,0.00102875,0.325959,0.09082839172356394,0.5958364199354651,0.0010380684204434054,0.09692191690053775,0.0010292793447868043,-0.16252678677217225
394,0.3828,545.024,532.214,0.0167068,538.56,1.35967,1.31516,0.0871317,0.0927108,-0.177763,0.468448,0.00104078,0.00103188,0.326698,0.09104036027215345,0.5975129281892015,0.0010413217994524882,0.09714439522382468,0.0010324125713345733,-0.16285919764989853
395,0.3838,545.224,532.394,0.0137636,538.756,1.36131,1.3183,0.0873259,0.0929134,-0.178159,0.469497,0.00104399,0.00103501,0.327437,0.09125226088500193,0.5991895985107047,0.0010445351472530007,0.09736669919692909,0.0010355458076896085,-0.1631906397777566
396,0.3848,545.43,532.589,0.0167768,538.949,1.36621,1.32146,0.0875199,0.0931159,-0.178555,0.470545,0.00104726,0.00103814,0.328175,0.0914639843601266,0.6008664277149747,0.0010478085682350535,0.09758893845448191,0.0010386790538514656,-0.16352195068051634
397,0.3858,545.629,532.766,0.0133201,539.145,1.36736,1.32474,0.0877138,0.0933182,-0.17895,0.471593,0.00105047,0.00104128,0.328912,0.09167563974602055,0.6025450151574065,0.0010510219368577989,0.09781100315781854,0.001041822320238639,-0.16385229426284487
398,0.3868,545.834,532.962,0.0170293,539.337,1.37283,1.32782,0.0879076,0.0935204,-0.179345,0.47264,0.00105375,0.00104443,0.329649,0.09188722698714469,0.6042237584570394,0.001054305389594612,0.09803300298608342,0.0010449756069452754,-0.16418250738522588
399,0.3878,546.031,533.135,0.0127129,539.532,1.37338,1.33119,0.0881012,0.0937223,-0.17974,0.473686,0.00105697,0.00104758,0.330385,0.09209863681810071,0.6059026544178971,0.0010575287896477104,0.09825471823078713,0.0010481289035848551,-0.16451259009918096
400,0.3888,546.237,533.334,0.0174411,539.723,1.37955,1.33421,0.0882947,0.0939242,-0.180135,0.474731,0.00106027,0.00105073,0.331121,0.09230997835095889,0.6075816998402006,0.0010608322849434693,0.09847647824431793,0.0010512822101573782,-0.16484254245621122
401,0.3898,546.432,533.502,0.0119431,539.917,1.37935,1.33767,0.0884881,0.0941258,-0.180529,0.475776,0.00106349,0.00105389,0.331857,0.09252125153022983,0.6092625007820691,0.0010640557060130895,0.09869795342628018,0.001054445537207238,-0.16517152967974458
402,0.3908,546.637,533.704,0.0180251,540.106,1.3864,1.34063,0.0886813,0.0943274,-0.180923,0.476819,0.00106681,0.00105705,0.332591,0.0927323470271939,0.6109418371920841,0.001067379244195088,0.09891947326214012,0.001057608874253324,-0.16550038730784378
403,0.3918,546.83,533.867,0.0109865,540.3,1.38522,1.34418,0.0888744,0.0945287,-0.181317,0.477862,0.00107002,0.00106022,0.333326,0.09294337401740504,0.6126229260637244,0.0010705926756400252,0.09914070801863883,0.0010607822319030902,-0.16582911539155942
404,0.3928,547.036,534.073,0.0188141,540.488,1.39341,1.34707,0.0890673,0.09473,-0.18171,0.478905,0.00107337,0.00106339,0.334059,0.09315422312999622,0.6143057692257614,0.0010739462677429312,0.09936198731417689,0.0010639555996125871,-0.16615688013921903
405,0.3938,547.226,534.229,0.00980261,540.682,1.39099,1.35073,0.0892602,0.094931,-0.182103,0.479946,0.00107657,0.00106657,0.334793,0.09336511291930405,0.6159871365313689,0.00107714970949635,0.09958298128277687,0.0010671389880529958,-0.16648451610064097
406,0.3948,547.433,534.441,0.0198559,540.868,1.4006,1.35353,0.0894528,0.095132,-0.182496,0.480987,0.00107994,0.00106975,0.335525,0.09357571532041264,0.617670255051691,0.0010805233451753882,0.09980401967562913,0.00107032238661664,-0.1668120233264283
407,0.3958,547.619,534.588,0.0083368,541.061,1.3966,1.35731,0.0896454,0.0953326,-0.182889,0.482027,0.00108313,0.00107294,0.336257,0.09378635828744986,0.6193535072563741,0.0010837167971384787,0.10002466249171049,0.0010735158060384276,-0.16713940186716414
408,0.3968,547.828,534.808,0.0212122,541.245,1.40802,1.36,0.0898378,0.0955334,-0.183281,0.483067,0.00108654,0.00107612,0.336989,0.09399682302884327,0.6210385109539684,0.0010871304984332308,0.1002455696222726,0.0010766992248802953,-0.16746581923964732
409,0.3978,548.01,534.945,0.00651979,541.439,1.40202,1.36395,0.0900301,0.0957336,-0.183673,0.484105,0.00108971,0.00107932,0.33772,0.09420721884682126,0.6227220225196839,0.0010903039496668043,0.10046586083572562,0.0010799026754433338,-0.16779210868159655
410,0.3988,548.222,535.174,0.0229604,541.621,1.41572,1.36648,0.0902222,0.0959341,-0.184065,0.485143,0.00109316,0.00108252,0.338451,0.09441743624429622,0.624407282477663,0.0010937577171730162,0.10068652636180286,0.0010831061362575056,-0.16811827024315074
411,0.3998,548.399,535.298,0.00426559,541.815,1.40719,1.37063,0.0904143,0.096134,-0.184456,0.48618,0.0010963,0.00108573,0.339181,0.09462769402841253,0.6260926665501998,0.0010969011565076237,0.10090657559161031,0.0010863196181858381,-0.16844347241831725
412,0.4008,548.614,535.54,0.0251962,541.994,1.42376,1.37296,0.0906061,0.0963342,-0.184847,0.487217,0.00109981,0.00108893,0.33991,0.09483766375558011,0.627779799272538,0.00110041501279734,0.10112699915170609,0.0010895230995342509,-0.1687685474642887
413,0.4018,548.785,535.648,0.0014684,542.189,1.41204,1.37737,0.0907979,0.0965338,-0.185238,0.488253,0.00110291,0.00109215,0.34064,0.09504767375880396,0.6294670529911004,0.0011035184288943345,0.10134680603673396,0.0010927466129884156,-0.1690934954307629
414,0.4028,549.005,535.906,0.0280367,542.365,1.43221,1.37945,0.0909894,0.0967338,-0.185629,0.489287,0.00110648,0.00109536,0.341368,0.09525739546854162,0.6311527933014405,0.0011070923748346395,0.10156709742634606,0.0010959601258626606,-0.1694183163674181
415,0.4038,549.169,535.994,-0.00200138,542.562,1.41648,1.38417,0.091181,0.0969329,-0.186019,0.490322,0.00110953,0.0010986,0.342096,0.09546726689055363,0.6328419104098255,0.0011101457561226713,0.10178644127039882,0.0010992036820280937,-0.16974218006650854
416,0.4048,549.395,536.273,0.0316257,542.735,1.44118,1.38592,0.0913723,0.0971327,-0.186409,0.491355,0.00111317,0.00110181,0.342824,0.09567684982467828,0.6345295075971582,0.0011137898036854832,0.10200660019450858,0.0011024172156297585,-0.17006591748338296
417,0.4058,549.55,536.336,-0.00630181,542.933,1.42042,1.39103,0.0915636,0.0973314,-0.186799,0.492388,0.00111617,0.00110506,0.343551,0.09588647285585328,0.6362188489731035,0.0011167931495599248,0.1022255906619498,0.0011056708037726626,-0.17038952866728174
418,0.4068,549.783,536.64,0.0361379,543.102,1.45076,1.39238,0.0917545,0.097531,-0.187188,0.49342,0.00111989,0.00110828,0.344277,0.09609569755338354,0.6379082984312223,0.001120517310957192,0.1024456168477288,0.0011088943692225683,-0.17071218438002533
419,0.4078,549.928,536.673,-0.011625,543.303,1.42374,1.39798,0.0919456,0.0977293,-0.187577,0.494452,0.00112281,0.00111154,0.345003,0.0963051814567355,0.6395994923011432,0.001123440587135871,0.10266425349065633,0.0011121579895378986,-0.1710347146041058
420,0.4088,550.171,537.01,0.0417858,543.466,1.46111,1.39881,0.0921363,0.0979287,-0.187966,0.495482,0.00112665,0.00111477,0.345728,0.09651426679049213,0.6412891498024469,0.0011272849085288694,0.10288414666542334,0.0011153915870305564,-0.17135711938832876
421,0.4098,550.303,537.005,-0.0182038,543.672,1.42627,1.40501,0.0923271,0.0981266,-0.188355,0.496512,0.00112946,0.00111804,0.346454,0.09672350167296884,0.6429805485475635,0.0011300980801518534,0.10310242903637667,0.00111866523971349,-0.17167939878148075
422,0.4108,550.559,537.381,0.0488265,543.829,1.47238,1.4052,0.0925175,0.0983259,-0.188743,0.497541,0.00113343,0.00112128,0.347178,0.09693233770824694,0.6446720456580299,0.0011340725745305757,0.1033222992598235,0.001121908869443411,-0.1720007248334683
423,0.4118,550.675,537.33,-0.0263191,544.039,1.42784,1.41215,0.0927081,0.0985233,-0.189131,0.49857,0.00113611,0.00112456,0.347902,0.09714143293795652,0.6463652842148437,0.0011367556174404214,0.10354011657955953,0.0011251925546897912,-0.17232192623513143
424,0.4128,550.946,537.757,0.0575706,544.189,1.48477,1.41153,0.0928982,0.0987224,-0.189519,0.499597,0.00114025,0.0011278,0.348625,0.09735001934986842,0.6480569698936391,0.0011409003321882771,0.10375985329083437,0.0011284362055683506,-0.17264300303482505
425,0.4138,551.043,537.648,-0.0363094,544.405,1.42823,1.41941,0.0930886,0.0989193,-0.189906,0.500625,0.00114277,0.0011311,0.349348,0.09755897468546926,0.6497520435772861,0.0011434232104359232,0.10397720500352126,0.001131739934858933,-0.17296312824442706
426,0.4148,551.333,538.136,0.0683919,544.546,1.49854,1.41779,0.0932784,0.0991184,-0.190293,0.50165,0.00114711,0.00113435,0.35007,0.09776731114936954,0.6514439063534996,0.0011477681823210961,0.10419702874776493,0.001134993618300939,-0.17328312958954228
427,0.4158,551.406,537.957,-0.0485804,544.77,1.42717,1.42682,0.0934686,0.0993147,-0.19068,0.502677,0.00114943,0.00113766,0.350793,0.09797612634964636,0.6531408104564336,0.0011500908478376815,0.10441380390029331,0.0011383073806141564,-0.17360300711809706
428,0.4168,551.721,538.522,0.081739,544.901,1.51397,1.42394,0.093658,0.0995138,-0.191067,0.5037,0.00115401,0.00114091,0.351514,0.09818410272271771,0.6548328388304807,0.0011546761257539284,0.10463371458003157,0.0011415610854004221,-0.17392276087799907
429,0.4178,551.766,538.257,-0.0636172,545.135,1.42436,1.43439,0.093848,0.0997094,-0.191453,0.504726,0.00115608,0.00114424,0.352235,0.09839277752571363,0.6565315686224864,0.0011567485180785653,0.10484980206727057,0.0011448948923495905,-0.1742415651591156
430,0.4188,552.11,538.916,0.098149,545.253,1.53141,1.42996,0.0940371,0.0999086,-0.191839,0.505748,0.00116095,0.00114749,0.352955,0.09860050323979097,0.6582254092907676,0.0011616241633158886,0.10506991006987176,0.001148148618545397,-0.1745602464055267
431,0.4198,552.229,538.909,0.0273118,545.451,1.49966,1.42809,0.0942266,0.100105,-0.192225,0.506771,0.00116394,0.00115068,0.353675,0.0988087077619102,0.6599226418709199,0.0011646176410473608,0.10528696711451357,0.001151342286233259,-0.17487880466471484
432,0.4208,552.413,539.033,0.0296626,545.639,1.48941,1.44295,0.0944159,0.100302,-0.19261,0.507793,0.00116719,0.00115413,0.354394,0.09901673193915683,0.6616199499876254,0.0011678714313421157,0.10550473009598438,0.0011547962643223553,-0.1751964151809714
433,0.4218,552.582,539.176,0.0102008,545.817,1.48901,1.44275,0.094605,0.100499,-0.192996,0.508814,0.00117056,0.00115739,0.355113,0.09922457565417031,0.6633173303217716,0.0011712453727539263,0.10572253598098857,0.0011580600342782077,-0.17551472792639944
434,0.4228,552.771,539.347,0.017226,545.996,1.49123,1.44903,0.094794,0.100695,-0.193381,0.509835,0.00117397,0.00116074,0.355832,0.09943234873290652,0.6650164445662499,0.0011746593725217025,0.10593927883814702,0.0011614139193969475,-0.17583209365932406
435,0.4238,552.95,539.508,0.0101229,546.173,1.49368,1.45076,0.0949829,0.100892,-0.193765,0.510855,0.00117738,0.00116404,0.356549,0.09964005112045493,0.666715627775825,0.0011780733839310553,0.10615717033768624,0.0011647177575142553,-0.17614851337888449
436,0.4248,553.137,539.683,0.0146627,546.349,1.49788,1.45525,0.0951716,0.101088,-0.19415,0.511874,0.00118082,0.00116738,0.357267,0.09984757277715395,0.6684148766207791,0.0011815174424272268,0.1063739983915275,0.0011680616532558918,-0.17646563515137537
437,0.4258,553.317,539.844,0.0105432,546.525,1.50011,1.45814,0.0953602,0.101284,-0.194534,0.512892,0.00118424,0.0011707,0.357984,0.10005502359137664,0.6701141877677999,0.001184941489071889,0.10659086894783254,0.0011713855367381232,-0.17678181163770668
438,0.4268,553.503,540.02,0.0139535,546.7,1.50494,1.46195,0.0955487,0.10148,-0.194918,0.51391,0.0011877,0.00117404,0.3587,0.10026240350826665,0.6718152296943856,0.0011884055949624717,0.10680778201493246,0.0011747294547501674,-0.17709786673557526
439,0.4278,553.682,540.18,0.0105353,546.876,1.50679,1.4653,0.095737,0.101676,-0.195301,0.514927,0.00119112,0.00117738,0.359416,0.10046960242601322,0.6735163306461995,0.0011918296651647342,0.10702473760116016,0.0011780733839310553,-0.17741297790497468
440,0.4288,553.867,540.356,0.0138132,547.05,1.51208,1.46883,0.0959252,0.101872,-0.195684,0.515944,0.0011946,0.00118073,0.360131,0.10067673029531088,0.6752191624976949,0.0011953138187943413,0.10724173571485052,0.0011814273360946093,-0.1777279684099049
441,0.4298,554.045,540.513,0.0102489,547.225,1.51351,1.4724,0.0961133,0.102068,-0.196068,0.516959,0.00119803,0.00118408,0.360846,0.1008837870613577,0.6769203731659916,0.0011987479246102772,0.10745877636433954,0.0011847812994940643,-0.1780436602533223
442,0.4308,554.23,540.691,0.0139041,547.398,1.51927,1.4758,0.0963013,0.102263,-0.19645,0.517974,0.00120152,0.00118743,0.36156,0.10109077266936284,0.6786233114397284,0.001202242114337837,0.10767475188265929,0.0011881352741294204,-0.17835758761116283
443,0.4318,554.406,540.845,0.00980142,547.573,1.52024,1.47948,0.0964891,0.102458,-0.196833,0.518988,0.00120495,0.00119079,0.362274,0.10129757693478281,0.6803262987461756,0.0012056762439178748,0.10789076952031151,0.0011914992719153084,-0.17867221639984865
444,0.4328,554.591,541.024,0.0141277,547.744,1.52652,1.48282,0.0966768,0.102654,-0.197215,0.520002,0.00120846,0.00119416,0.362988,0.10150430989125447,0.6820310137575498,0.0012091904820088484,0.1081079373928937,0.0011948732929532024,-0.17898590369509593
445,0.4338,554.766,541.175,0.00924019,547.918,1.52695,1.48658,0.0968644,0.102849,-0.197597,0.521015,0.00121189,0.00119753,0.363701,0.1017109714840414,0.6837357744900161,0.0012126246354218218,0.10832403950995695,0.0011982473253613346,-0.17929947118468081
446,0.4348,554.95,541.357,0.0144567,548.089,1.53386,1.48987,0.0970518,0.103043,-0.197979,0.522027,0.00121542,0.0012009,0.364413,0.10191745146666764,0.685440577578666,0.0012161589222248192,0.1085390752314126,0.001201621369140149,-0.17961291891436026
447,0.4358,555.123,541.504,0.00857552,548.263,1.53363,1.49371,0.0972391,0.103238,-0.19836,0.523038,0.00121885,0.00120428,0.365125,0.10212385993487683,0.6871454196550546,0.001219593099539562,0.10875526142855185,0.0012050054363395013,-0.17992542685571078
448,0.4368,555.308,541.688,0.0148904,548.432,1.54128,1.49695,0.0974263,0.103433,-0.198741,0.524049,0.0012224,0.00120767,0.365836,0.10233019683398803,0.6888519861983537,0.0012231474354040817,0.10897148978611004,0.001208399527060866,-0.1802378157542146
449,0.4378,555.479,541.83,0.00780116,548.605,1.54028,1.50088,0.0976134,0.103627,-0.199122,0.525059,0.00122583,0.00121106,0.366547,0.10253646210933032,0.6905585883934473,0.0012265816366894278,0.10918665112510362,0.0012117936292883602,-0.18055008565521868
450,0.4388,555.664,542.018,0.0154396,548.773,1.54881,1.50406,0.0978003,0.103822,-0.199502,0.526068,0.00122941,0.00121446,0.367258,0.10274254543198524,0.6922652228614343,0.0012301660342677323,0.10940296361185498,0.001215197755173536,-0.18086141746587936
451,0.4398,555.833,542.155,0.00690274,548.946,1.54687,1.50807,0.0979872,0.104016,-0.199883,0.527077,0.00123284,0.00121786,0.367968,0.10294866727521268,0.6939735801926379,0.0012336002596269324,0.10961820866489069,0.0012186018926330089,-0.1811734498198868
452,0.4408,556.019,542.346,0.0161213,549.113,1.55646,1.51119,0.0981738,0.10421,-0.200263,0.528085,0.00123643,0.00122126,0.368677,0.10315449669981436,0.6956819664434901,0.001237194694703847,0.1098334954795177,0.0012220060416665568,-0.18148454479716603
453,0.4418,556.185,542.478,0.00586098,549.286,1.5534,1.51531,0.0983604,0.104403,-0.200643,0.529092,0.00123986,0.00122468,0.369386,0.10336036453577013,0.6973903782246627,0.001240628944171318,0.1100477140155689,0.0012254302267824535,-0.18179552158081214
454,0.4428,556.372,542.674,0.0169569,549.451,1.56423,1.51834,0.0985468,0.104597,-0.201022,0.530098,0.00124348,0.00122809,0.370094,0.10356605007701658,0.6990988121433346,0.0012442534418084517,0.11026308416231667,0.001228844411320873,-0.1821055623217014
455,0.4438,556.536,542.799,0.00465268,549.624,1.55986,1.52258,0.0987331,0.104791,-0.201401,0.531104,0.0012469,0.00123152,0.370802,0.10377166358444945,0.7008089656113172,0.0012476777030105968,0.1104784960949261,0.0012322786321468104,-0.18241548557941434
456,0.4448,556.724,543.001,0.0179715,549.787,1.57215,1.52551,0.0989193,0.104984,-0.20178,0.532109,0.00125055,0.00123494,0.37151,0.10397720500352126,0.7025191378393583,0.001251332263703997,0.11069283912810968,0.0012357028523950486,-0.1827252913984686
457,0.4458,556.885,543.117,0.00325097,549.961,1.56621,1.52989,0.0991054,0.105177,-0.202159,0.533114,0.00125396,0.00123838,0.372217,0.10418267427969541,0.7042310296544358,0.0012547465365682076,0.11090722353349114,0.0012391471091370843,-0.18303497982336514
458,0.4468,557.075,543.327,0.0191938,550.122,1.58024,1.53269,0.0992913,0.105371,-0.202537,0.534118,0.00125765,0.00124181,0.372923,0.10438796091964608,0.7059429368418146,0.0012584411733995715,0.11112276044126057,0.0012425813653014206,-0.18334373424273032
459,0.4478,557.232,543.434,0.0016251,550.296,1.57245,1.53725,0.0994771,0.105564,-0.202915,0.535121,0.00126103,0.00124526,0.373629,0.10459317526660739,0.7076548559914033,0.0012618254326501877,0.11133722782946309,0.0012460356581658338,-0.1836523719749802
460,0.4488,557.424,543.653,0.0206567,550.456,1.58852,1.5399,0.0996627,0.105757,-0.203293,0.536123,0.00126477,0.0012487,0.374335,0.10479820678627338,0.7093667836896518,0.0012655701588799584,0.11155173661386608,0.0012494799504525478,-0.18396089306421426
461,0.4498,557.576,543.749,-0.000259887,550.63,1.57854,1.54464,0.0998483,0.105949,-0.203671,0.537125,0.00126813,0.00125216,0.37504,0.10500327636332085,0.7110804275991318,0.0012689344168475003,0.11176517503672878,0.0012529442796465062,-0.18426929755451515
462,0.4508,557.772,543.977,0.0223974,550.787,1.59701,1.54712,0.100034,0.106142,-0.204048,0.538126,0.00127191,0.00125561,0.375744,0.10520849452565817,0.7127940766454164,0.0012727192205730375,0.11197976642291363,0.0012563986082629874,-0.1845767700671267
463,0.4518,557.92,544.061,-0.00244347,550.962,1.58447,1.55209,0.100219,0.106334,-0.204425,0.539127,0.00127525,0.00125908,0.376449,0.10541297701119223,0.7145094419132221,0.0012760634770401236,0.11219328703538967,0.0012598729739941028,-0.18488412668444865
464,0.4528,558.118,544.302,0.024458,551.117,1.60574,1.55434,0.100404,0.106527,-0.204802,0.540126,0.00127907,0.00126254,0.377152,0.10561749732948544,0.7162230926717283,0.0012798883589080212,0.11240796105516404,0.001263337339147963,-0.1851913674501653
465,0.4538,558.261,544.37,-0.00497011,551.293,1.5902,1.55958,0.100589,0.106718,-0.205179,0.541125,0.00128238,0.00126603,0.377855,0.10582205548753754,0.7179384562227398,0.0012832026008235964,0.11262045126789477,0.0012668317542929852,-0.18549849240794447
466,0.4548,558.463,544.626,0.0268858,551.446,1.61475,1.56158,0.100774,0.106911,-0.205555,0.542123,0.00128626,0.0012695,0.378558,0.10602665149234958,0.719653814623517,0.0012870875871864307,0.11283520773832234,0.0012703061562273632,-0.1858046874065319
467,0.4558,558.6,544.677,-0.00788972,551.623,1.59569,1.56712,0.100959,0.107102,-0.205931,0.543121,0.00128953,0.00127299,0.37926,0.10623128535092397,0.721370885806514,0.0012903618013162532,0.11304777956296341,0.0012738005956935972,-0.18611076729744158
468,0.4568,558.807,544.95,0.0297337,551.772,1.62406,1.56883,0.101144,0.107294,-0.206307,0.544118,0.00129348,0.00127647,0.379962,0.10643595707026421,0.7230879483931312,0.0012943169060566362,0.1132615052536492,0.001277285034582576,-0.1864167321239456
469,0.4578,558.937,544.982,-0.011258,551.952,1.60092,1.57472,0.101328,0.107486,-0.206682,0.545115,0.0012967,0.00127998,0.380663,0.10663956001726183,0.7248067237448188,0.0012975410789479724,0.11347527198360718,0.0012807995240209369,-0.1867217686514756
470,0.4588,559.151,545.274,0.0330609,552.098,1.63372,1.57607,0.101513,0.107678,-0.207058,0.54611,0.00130072,0.00128347,0.381364,0.1068443072744023,0.7265237605190811,0.0013015663031539226,0.11368907976071796,0.0012842940001092096,-0.1870275037846557
471,0.4598,559.272,545.283,-0.0151371,552.279,1.60584,1.58238,0.101697,0.107868,-0.207433,0.547105,0.00130388,0.00128699,0.382064,0.10704798536475058,0.7282425065951701,0.0013047304211026844,0.11390070078923342,0.0012878185270273068,-0.18733231131575234
472,0.4608,559.493,545.599,0.0369332,552.421,1.64378,1.58332,0.101881,0.10806,-0.207807,0.548099,0.00130799,0.00129049,0.382764,0.10725170093531533,0.7299612337125896,0.001308845792001856,0.11411459025651682,0.0012913230405249276,-0.1876361922020524
473,0.4618,559.606,545.581,-0.0195957,552.605,1.61041,1.5901,0.102065,0.10825,-0.208182,0.549093,0.00131108,0.00129402,0.383463,0.10745545399299394,0.7316816700941271,0.0013119398411156613,0.11432629213970769,0.0012948576051339256,-0.18794077151778565
474,0.4628,559.834,545.924,0.0414235,552.743,1.65428,1.59056,0.102249,0.108442,-0.208556,0.550085,0.00131529,0.00129753,0.384162,0.10765924454468445,0.733400350635468,0.0013161553732561337,0.11454026332837519,0.001298372156252059,-0.18824442488251936
475,0.4638,559.936,545.876,-0.02471,552.93,1.61456,1.59789,0.102433,0.108632,-0.20893,0.551078,0.0013183,0.00130107,0.38486,0.10786307259728645,0.7351224720754357,0.001319169339419668,0.11475204609713363,0.001301916758763344,-0.18854796470212887
476,0.4648,560.174,546.25,0.0466123,553.063,1.66527,1.59779,0.102617,0.108823,-0.209304,0.552069,0.00132261,0.00130459,0.385558,0.10806693815770085,0.7368428307421877,0.0013234850343399884,0.11496498407286748,0.0013054413477135984,-0.1888513910190721
477,0.4658,560.265,546.167,-0.0305634,553.254,1.61825,1.60574,0.1028,0.109013,-0.209677,0.553061,0.00132553,0.00130815,0.386256,0.10826973296254239,0.7385666336951877,0.001326408903185028,0.11517684754623381,0.0013090060014300242,-0.18915389303008967
478,0.4668,560.514,546.577,0.0525883,553.382,1.67683,1.605,0.102984,0.109204,-0.21005,0.55405,0.00132996,0.00131167,0.386952,0.10847367335534819,0.7402869266405525,0.001330844789001917,0.11538986666679363,0.0013125306153343175,-0.189456282228898
479,0.4678,560.591,546.455,-0.0372477,553.576,1.62142,1.61368,0.103167,0.109393,-0.210423,0.555041,0.00133278,0.00131525,0.387649,0.10867654259954196,0.7420124058185726,0.0013336685459657271,0.11560069527426942,0.0013161153206107112,-0.18975855865756808
480,0.4688,560.853,546.906,0.0594483,553.698,1.689,1.61219,0.10335,0.109585,-0.210796,0.556029,0.00133735,0.00131877,0.388345,0.10887944897220447,0.7437343645830776,0.0013382446512875124,0.11581491117183029,0.0013196399595398756,-0.1900607223581553
481,0.4698,560.915,546.738,-0.0448626,553.898,1.62399,1.6217,0.103533,0.109773,-0.211168,0.557018,0.00134003,0.00132237,0.38904,0.10908239248013096,0.7454597709424571,0.0013409282413792134,0.1160247040950475,0.0013232447167323969,-0.19036196373506808
482,0.4708,561.191,547.236,0.0672984,554.013,1.70187,1.61935,0.103716,0.109964,-0.21154,0.558004,0.00134477,0.0013259,0.389735,0.10928537313011777,0.7471816430200406,0.0013456746086277782,0.11623788517167433,0.001326779394024813,-0.19066309307102947
483,0.4718,561.237,547.016,-0.0535169,554.219,1.62589,1.62981,0.103899,0.110153,-0.211912,0.558992,0.0013473,0.00132951,0.39043,0.10948839092896256,0.748908711514692,0.0013482080163893517,0.11644887406979465,0.001330394190223183,-0.1909641104077111
484,0.4728,561.529,547.568,0.0762537,554.326,1.71551,1.62648,0.104082,0.110344,-0.212284,0.559977,0.00135222,0.00133305,0.391124,0.10969144588346436,0.7506322352916435,0.0013531346616924012,0.11666213617062415,0.0013339389060926798,-0.1912650157867689
485,0.4738,561.556,547.29,-0.0633279,554.538,1.62705,1.63802,0.104265,0.110531,-0.212655,0.560964,0.00135459,0.00133667,0.391818,0.10989453800042281,0.752360962294313,0.001355507871433792,0.11687097151558423,0.0013375637415125041,-0.1915650008152484
486,0.4748,561.867,547.904,0.0864389,554.637,1.73001,1.63356,0.104447,0.110722,-0.213026,0.561948,0.0013597,0.00134022,0.39251,0.1100965571895276,0.7540861341265512,0.001360624811152844,0.11708431424472576,0.0013411184961735767,-0.19186487456992485
487,0.4758,561.968,547.882,0.0201198,554.814,1.69917,1.63336,0.104629,0.110911,-0.213397,0.562932,0.00136298,0.00134372,0.393203,0.11029861314947076,0.7558130043633506,0.0013639092793886753,0.11729546313305939,0.0013446231962215283,-0.1921646370920732
488,0.4768,562.131,548.0,0.024855,554.979,1.69268,1.64705,0.104811,0.1111,-0.213768,0.563916,0.00136657,0.00134744,0.393896,0.11050070588694516,0.7575415746767635,0.001367504182275825,0.11750665193230447,0.0013483482051483975,-0.19246428842295316
489,0.4778,562.277,548.116,0.00497086,555.137,1.69074,1.64814,0.104994,0.111288,-0.214138,0.564899,0.0013702,0.00135101,0.394587,0.11070394611203582,0.7592700874695215,0.0013711391529134254,0.11771676293268296,0.0013519230251324288,-0.1927630213672339
490,0.4788,562.447,548.278,0.0141203,555.293,1.69591,1.65409,0.105176,0.111477,-0.214508,0.565881,0.00137394,0.00135465,0.395279,0.11090611262682315,0.7609985392263301,0.0013748842879772738,0.1179280313651152,0.0013555679527659237,-0.19306164380077107
491,0.4798,562.6,548.408,0.00463008,555.451,1.69635,1.65684,0.105357,0.111666,-0.214878,0.566863,0.00137762,0.00135825,0.395969,0.11110720483150405,0.7627286891564307,0.0013785693543320043,0.11813933973105484,0.0013591728392994273,-0.19336015576444598
492,0.4808,562.769,548.575,0.0121436,555.604,1.70353,1.66127,0.105539,0.111854,-0.215247,0.567844,0.0013814,0.00136188,0.39666,0.11130944474605742,0.7644587744685916,0.0013823545724782615,0.11834956968792087,0.0013628077796943305,-0.1936577509572791
493,0.4818,562.923,548.705,0.00469103,555.762,1.70354,1.66499,0.105721,0.112042,-0.215617,0.568824,0.00138508,0.0013655,0.39735,0.1115117214716248,0.7661887916375245,0.0013860396663236685,0.1185598391717344,0.0013664327196196702,-0.19395604240210462
494,0.4828,563.09,548.874,0.0117734,555.914,1.71154,1.66884,0.105902,0.11223,-0.215986,0.569804,0.00138887,0.00136914,0.398039,0.11171292330142735,0.7679205050543088,0.0013898349266059373,0.11877014818992704,0.0013700777000684727,-0.19425341775333171
495,0.4838,563.244,549.001,0.00439363,556.071,1.71094,1.67295,0.106084,0.112418,-0.216354,0.570783,0.00139256,0.00137278,0.398728,0.11191527346677477,0.7696521467290505,0.0013935300619143387,0.11898049674993172,0.0013737226937853286,-0.1945498779435778
496,0.4848,563.411,549.172,0.0118741,556.223,1.71963,1.67657,0.106265,0.112606,-0.216723,0.571761,0.00139638,0.00137642,0.399417,0.1121165483460993,0.7713837131265016,0.001397355392505517,0.11919088485918339,0.0013773677007697938,-0.19484703420991367
497,0.4858,563.563,549.296,0.00387093,556.379,1.71838,1.68087,0.106446,0.112794,-0.217091,0.572739,0.00140006,0.00138008,0.400105,0.11231785965947427,0.7731169738242676,0.0014010405415540994,0.11940131252511765,0.001381032748642541,-0.19514327598949388
498,0.4868,563.731,549.47,0.0121594,556.53,1.72777,1.68437,0.106627,0.112982,-0.217459,0.573716,0.0014039,0.00138373,0.400792,0.11251920741349464,0.7748501556291414,0.001404885928932842,0.11961177975517212,0.0013846877960825843,-0.1954394087721557
499,0.4878,563.881,549.59,0.00322098,556.686,1.72582,1.68879,0.106808,0.113169,-0.217827,0.574692,0.00140759,0.0013874,0.401479,0.1127205916147569,0.7765832549959506,0.001408581119779484,0.11982116673505883,0.0013883628846305118,-0.19573543259800286
500,0.4888,564.049,549.766,0.0125477,556.836,1.73598,1.69222,0.106989,0.113356,-0.218195,0.575668,0.00141145,0.00139106,0.402166,0.11292201226985865,0.7783180466934649,0.0014124465643630124,0.120030592873972,0.0013920279727457352,-0.19603134750712403
501,0.4898,564.198,549.882,0.00248376,556.992,1.73326,1.69674,0.10717,0.113544,-0.218562,0.576643,0.00141514,0.00139474,0.402852,0.11312346938539841,0.7800527523205631,0.0014161417831084488,0.12024117841985338,0.0013957131021893332,-0.1963263498663449
502,0.4908,564.366,550.061,0.0130143,557.14,1.74426,1.7001,0.10735,0.113731,-0.218929,0.577617,0.00141903,0.00139842,0.403538,0.11332384964357001,0.7817873683221839,0.0014200372994768173,0.12045068310829565,0.0013993982451943054,-0.19662124397956426
503,0.4918,564.513,550.172,0.00167143,557.296,1.74068,1.70471,0.107531,0.113917,-0.219296,0.578591,0.00142271,0.0014021,0.404223,0.11352537949825714,0.7835236746628513,0.0014237225319948532,0.1206591063181115,0.00140308340176043,-0.19691602988650114
504,0.4928,564.682,550.355,0.0135534,557.443,1.75262,1.70801,0.107711,0.114104,-0.219662,0.579564,0.00142662,0.00140579,0.404908,0.11372583210676046,0.785259887728978,0.0014276381064048937,0.1208686891663786,0.0014067785859559478,-0.19720990483716616
505,0.4938,564.826,550.462,0.000785313,557.6,1.74809,1.71272,0.107891,0.114291,-0.220028,0.580537,0.00143031,0.00140949,0.405592,0.11392632079998055,0.7869977909525463,0.001431333381207267,0.12107831121030288,0.0014104837978912155,-0.19750367224928
506,0.4948,564.996,550.649,0.0141662,557.745,1.76106,1.71594,0.108071,0.114478,-0.220394,0.581509,0.00143424,0.00141319,0.406276,0.11412684558441377,0.7887355972423882,0.0014352690140810864,0.1212879724572149,0.001414189023535961,-0.19779733216219464
507,0.4958,565.139,550.749,-0.000177298,557.902,1.75548,1.72077,0.108251,0.114664,-0.22076,0.58248,0.00143792,0.0014169,0.40696,0.11432740646655692,0.7904733030269373,0.0014389543026518403,0.12149655141733384,0.0014179042770690042,-0.19809088461524738
508,0.4968,565.31,550.941,0.0148564,558.046,1.76958,1.72391,0.108431,0.11485,-0.221126,0.58345,0.00144189,0.00142061,0.407643,0.11452800345290814,0.7922109047314576,0.0014429300231924014,0.12170516917674767,0.0014216195443856883,-0.19838432964776154
509,0.4978,565.449,551.036,-0.00122065,558.202,1.76284,1.72885,0.108611,0.115036,-0.221491,0.58442,0.00144556,0.00142434,0.408325,0.11472863654996668,0.7939501927273505,0.0014466053254897915,0.12191382574267373,0.0014253548539930883,-0.1986768659763124
510,0.4988,565.621,551.233,0.0156286,558.345,1.77818,1.73189,0.10879,0.115222,-0.221856,0.585389,0.00144956,0.00142806,0.409007,0.11492819083548467,0.7956893729608412,0.001450611119922618,0.12212252112233046,0.001429080163242169,-0.19896929554858755
511,0.4998,565.759,551.321,-0.00234953,558.502,1.77018,1.73697,0.10897,0.115408,-0.222221,0.586358,0.00145323,0.0014318,0.409689,0.11512889597275566,0.7974302392767532,0.0014542864504096809,0.12233125532293809,0.0014328255150057867,-0.19926161840354584
512,0.5008,565.932,551.524,0.0164876,558.643,1.78688,1.73991,0.109149,0.115594,-0.222585,0.587326,0.00145725,0.00143553,0.41037,0.11532852191112308,0.7991709941377985,0.0014583123047331448,0.12254002835171796,0.0014365608664113072,-0.1995530341335665
513,0.5018,566.067,551.605,-0.00356887,558.8,1.77748,1.74512,0.109328,0.115779,-0.22295,0.588294,0.00146091,0.00143928,0.411051,0.11552818358573202,0.8009134348653768,0.0014619776488637992,0.12274771746761393,0.0014403162605558517,-0.19984514396282094
514,0.5028,566.241,551.813,0.0174384,558.94,1.79568,1.74794,0.109507,0.115965,-0.223314,0.58926,0.00146497,0.00144302,0.411731,0.1157278810029796,0.8026539577806766,0.001466043592746935,0.1229565679655571,0.001444061654342521,-0.20013634732819063
515,0.5038,566.373,551.887,-0.00488362,559.097,1.78475,1.75332,0.109687,0.11615,-0.223677,0.590226,0.00146862,0.00144679,0.412411,0.11592873009743632,0.8043961628534639,0.0014696989504769942,0.1231643341484101,0.0014478371055717254,-0.20042664514186959
516,0.5048,566.55,552.103,0.0184859,559.236,1.80457,1.75601,0.109865,0.116336,-0.224041,0.591192,0.00147271,0.00145054,0.413091,0.11612738309098547,0.8061400517094879,0.0014737949699219488,0.12337326214426292,0.0014515925420024445,-0.20071763687932886
517,0.5058,566.678,552.168,-0.00629856,559.393,1.79199,1.76154,0.110044,0.11652,-0.224404,0.592157,0.00147635,0.00145431,0.41377,0.11632718777454443,0.8078838180913468,0.0014774403411703663,0.12357998184212637,0.001455368021622938,-0.2010077237231941
518,0.5068,566.857,552.391,0.0196349,559.53,1.81356,1.7641,0.110223,0.116706,-0.224767,0.59312,0.00148048,0.00145808,0.414448,0.11652702822634309,0.809625648765028,0.001481576451539901,0.12378898715564057,0.001459143515477379,-0.20129770528464497
519,0.5078,566.982,552.447,-0.00781832,559.688,1.79918,1.76981,0.110401,0.11689,-0.22513,0.594084,0.0014841,0.00146187,0.415126,0.11672578772643805,0.8113709689996307,0.0014852018214086549,0.12399578335394401,0.0014629390528237973,-0.20158758160189205
520,0.5088,567.162,552.679,0.0208898,559.823,1.82266,1.77221,0.11058,0.117075,-0.225493,0.595047,0.00148827,0.00146565,0.415804,0.116925699534014,0.8131161594170937,0.0014893780234075393,0.12420374180942861,0.0014667245898880577,-0.2018773527131319
521,0.5098,567.284,552.725,-0.00944723,559.982,1.80633,1.77812,0.110758,0.117259,-0.225855,0.596009,0.00149188,0.00146945,0.416481,0.11712453000391787,0.8148612164002826,0.001492993406587928,0.12441061432960976,0.001470530170672113,-0.20216622082316738
522,0.5108,567.467,552.965,0.0222548,560.115,1.83187,1.78034,0.110936,0.117444,-0.226217,0.596971,0.00149609,0.00147323,0.417158,0.11732339586879559,0.8166079529360244,0.0014972097009655627,0.12461864953592383,0.0014743157364307535,-0.20245498438187182
523,0.5118,567.585,553.002,-0.0111893,560.274,1.81344,1.78646,0.111115,0.117628,-0.226579,0.597932,0.00149968,0.00147705,0.417834,0.1175234146578037,0.8183545522853648,0.0015008050824021346,0.12482559840615082,0.0014781413756239647,-0.20274364342708617
524,0.5128,567.77,553.252,0.0237338,560.406,1.84118,1.7885,0.111292,0.117813,-0.226941,0.598892,0.00150394,0.00148085,0.41851,0.11772123380867638,0.8201010108215281,0.0015050714849191849,0.12503371039162103,0.0014819469997917611,-0.2030321979966373
525,0.5138,567.884,553.277,-0.013048,560.566,1.82049,1.79484,0.11147,0.117996,-0.227302,0.599852,0.0015075,0.00148467,0.419185,0.11792020589628471,0.8218491467629119,0.0015086368493200109,0.12523961039989873,0.0014857726681363204,-0.20331985144858855
526,0.5148,568.073,553.537,0.0253301,560.695,1.85062,1.79669,0.111648,0.118181,-0.227663,0.600811,0.0015118,0.00148848,0.41986,0.11811921340407716,0.8235971381225482,0.001512943345717499,0.12544779898467318,0.0014895883361991658,-0.20360740107638498
527,0.5158,568.183,553.55,-0.0150266,560.856,1.82749,1.80327,0.111826,0.118364,-0.228024,0.60177,0.00151535,0.00149232,0.420534,0.11831825633835868,0.8253468066099527,0.0015164987229769888,0.12565377477809747,0.0014934340636021393,-0.20389484691750037
528,0.5168,568.374,553.822,0.0270467,560.984,1.86016,1.80489,0.112003,0.118548,-0.228384,0.602727,0.0015197,0.00149614,0.421208,0.11851621618866037,0.8270944996416087,0.0015208553292220817,0.12586091412889266,0.0014972597758273753,-0.2041813931911861
529,0.5178,568.479,553.823,-0.0171275,561.145,1.83444,1.81173,0.112181,0.118731,-0.228745,0.603685,0.00152322,0.00149999,0.421882,0.1187153297957273,0.8288456948608436,0.0015243806888376454,0.1260669655293063,0.0015011155476998272,-0.20446863185854525
530,0.5188,568.674,554.106,0.0288857,561.271,1.86983,1.81312,0.112358,0.118915,-0.229105,0.604641,0.00152762,0.00150383,0.422555,0.11891335993425134,0.830594907335471,0.0015287874058074191,0.1262741809141945,0.0015049613193673927,-0.20475497160682898
531,0.5198,568.775,554.093,-0.0193526,561.434,1.84133,1.82023,0.112535,0.119098,-0.229465,0.605597,0.00153111,0.00150769,0.423228,0.11911142512721229,0.8323457928568132,0.0015322827473747136,0.12648030794935017,0.0015088271359791072,-0.20504120829135597
532,0.5208,568.973,554.389,0.0308488,561.557,1.87961,1.82138,0.112712,0.119282,-0.229824,0.606552,0.00153557,0.00151154,0.4239,0.11930952538081496,0.8340965189276313,0.0015367495913167772,0.12668759939624108,0.0015126829523859353,-0.20532654727616695
533,0.5218,569.069,554.363,-0.021703,561.721,1.84817,1.82877,0.112889,0.119464,-0.230184,0.607508,0.00153903,0.00151541,0.424572,0.11950766070126595,0.8358507535902902,0.001540214914465432,0.12689267520066339,0.001516558813968727,-0.20561257823048662
534,0.5228,569.271,554.672,0.0329367,561.841,1.88952,1.82965,0.113066,0.119648,-0.230543,0.608461,0.00154354,0.00151927,0.425243,0.11970583109477251,0.8376011532914418,0.0015447318710204438,0.12710004253010965,0.0015204246753468542,-0.2058977121303045
535,0.5238,569.361,554.631,-0.0241791,562.007,1.85496,1.83735,0.113243,0.11983,-0.230902,0.609415,0.00154696,0.00152316,0.425914,0.11990403656754323,0.8393550612727674,0.0015481571598607857,0.12730519340601343,0.001524320597376505,-0.20618274368542433
536,0.5248,569.567,554.955,0.0351496,562.125,1.89954,1.83795,0.113419,0.120013,-0.231261,0.610367,0.00155153,0.00152703,0.426585,0.12010115702407043,0.8411069610630864,0.0015527342453975912,0.12751150913372,0.001528196503997048,-0.20646767293258128
537,0.5258,569.653,554.897,-0.0267805,562.291,1.86168,1.84598,0.113596,0.120195,-0.231619,0.61132,0.00155493,0.00153093,0.427255,0.12029943247572361,0.8428623723175857,0.0015561395304830583,0.127716734903361,0.001532102471579977,-0.2067517066606005
538,0.5268,569.863,555.236,0.0374864,562.407,1.90969,1.84627,0.113772,0.120378,-0.231977,0.612271,0.00155956,0.00153481,0.427925,0.12049662252805482,0.8446157680411785,0.001560776746144077,0.12792312595005306,0.0015359884236763044,-0.20703563872274444
539,0.5278,569.942,555.162,-0.0295055,562.575,1.86835,1.85464,0.113948,0.120559,-0.232335,0.613223,0.00156291,0.00153873,0.428594,0.12069384728888966,0.8463726784089973,0.0015641319803663123,0.1281272985129096,0.0015399144524459452,-0.20731946915540278
540,0.5288,570.157,555.517,0.0399454,562.688,1.91995,1.85462,0.114124,0.120742,-0.232693,0.614173,0.00156761,0.00154262,0.429262,0.12089110676433723,0.8481275658930587,0.0015688393428487935,0.12833376469961744,0.00154381045029095,-0.20760319799495264
541,0.5298,570.231,555.426,-0.032352,562.858,1.87497,1.86334,0.1143,0.120923,-0.23305,0.615123,0.00157092,0.00154655,0.429931,0.12108840096050755,0.8498841213123738,0.0015721545411937488,0.12853801159481426,0.0015477465252005107,-0.20788603316418675
542,0.5308,570.451,555.798,0.0425238,562.968,1.93033,1.86299,0.114476,0.121106,-0.233408,0.616072,0.00157568,0.00155045,0.430599,0.1212857298835126,0.8516404946108134,0.00157692203599602,0.12874455294889375,0.001551652569028672,-0.2081695592101236
543,0.5318,570.518,555.688,-0.0353163,563.14,1.88153,1.87209,0.114652,0.121287,-0.233765,0.617021,0.00157896,0.0015544,0.431266,0.1214830935394644,0.8533985354986593,0.0015802072136879008,0.1289488742034932,0.0015556087058696821,-0.20845219222449074
544,0.5328,570.743,556.078,0.0452175,563.247,1.94083,1.87138,0.114828,0.12147,-0.234121,0.617968,0.00158379,0.00155831,0.431933,0.1216804919344765,0.8551545352464238,0.001585044857771667,0.12915549075231003,0.001559524795955669,-0.20873393309120902
545,0.5338,570.804,555.949,-0.0383939,563.42,1.88805,1.88087,0.115003,0.12165,-0.234478,0.618916,0.00158701,0.00156227,0.4326,0.12187680319729943,0.8569140556267238,0.0015882699668086087,0.12935875703406197,0.0015634909795267937,-0.2090163646600608
546,0.5348,571.034,556.357,0.0480216,563.525,1.95144,1.87979,0.115179,0.121833,-0.234834,0.619862,0.00159191,0.00156619,0.433266,0.12207427089130962,0.8586715274764658,0.0015931777613553688,0.12956544859830044,0.0015674171161068617,-0.20929790471713816
547,0.5358,571.089,556.209,-0.0415791,563.7,1.89452,1.8897,0.115354,0.122013,-0.23519,0.620809,0.00159509,0.00157017,0.433932,0.12227065107148016,0.8604325231128136,0.0015963628327249069,0.12976878867910635,0.0015714033623595025,-0.2095793445637938
548,0.5368,571.324,556.636,0.05093,563.801,1.96216,1.88823,0.115529,0.122195,-0.235546,0.621754,0.00160007,0.0015741,0.434597,0.12246706562118947,0.8621914628152665,0.001601350795031875,0.129974425311012,0.001575339545709209,-0.20986068423569615
549,0.5378,571.372,556.467,-0.0448653,563.979,1.90095,1.89856,0.115705,0.122375,-0.235902,0.622699,0.0016032,0.00157809,0.435262,0.12266463721052867,0.8639520655013742,0.001604485812166212,0.13017783901425206,0.0015793358392865997,-0.21014192376850116
550,0.5388,571.613,556.914,0.0539353,564.077,1.97298,1.8967,0.115879,0.122557,-0.236257,0.623643,0.00160825,0.00158203,0.435926,0.12285999785328627,0.8657124670299992,0.0016095439275913836,0.13038355010009361,0.0015832820696439764,-0.21042227362052035
551,0.5398,571.654,556.725,-0.0482443,564.256,1.90735,1.90746,0.116055,0.122736,-0.236612,0.624587,0.00161133,0.00158603,0.436591,0.12305763860478436,0.8674745311622927,0.0016126288897373442,0.13058590686595162,0.0015872884107850371,-0.21070252396600553
552,0.5408,571.901,557.191,0.057029,564.351,1.9839,1.90519,0.116229,0.122918,-0.236967,0.625529,0.00161646,0.00158999,0.437254,0.1232530676357344,0.8692345209957133,0.0016177671757033885,0.13079169222690123,0.0015912547043002156,-0.21098267484027522
553,0.5418,571.935,556.981,-0.051707,564.533,1.91371,1.9164,0.116404,0.123098,-0.237322,0.626473,0.00161949,0.00159401,0.437917,0.12344965412338649,0.8709999115167588,0.001620802082135775,0.13099525305142667,0.0015952811092372343,-0.21126272627863552
554,0.5428,572.188,557.468,0.0602016,564.625,1.99491,1.9137,0.116578,0.123279,-0.237676,0.627414,0.00162469,0.00159797,0.43858,0.12364515137097132,0.872761351060825,0.0016260105238485867,0.13119998171961433,0.001599247434403761,-0.21154188985866385
555,0.5438,572.215,557.235,-0.0552433,564.809,1.92006,1.92538,0.116753,0.123458,-0.23803,0.628356,0.00162767,0.001602,0.439242,0.12384180647928122,0.8745263234249934,0.0016289953738073404,0.13140248463981297,0.0016032838875044142,-0.21182095463227468
556,0.5448,572.474,557.744,0.0634422,564.897,2.006,1.92225,0.116927,0.12364,-0.238384,0.629295,0.00163295,0.00160598,0.439904,0.12403737196731268,0.876287330306027,0.001634283988864782,0.13160841863144213,0.001607270276507089,-0.21209992063443928
557,0.5458,572.493,557.489,-0.0588417,565.083,1.92639,1.9344,0.117102,0.123818,-0.238738,0.630237,0.00163587,0.00161003,0.440566,0.12423409572023347,0.8780556257075491,0.0016372087652443135,0.1318098628579627,0.0016113267941662013,-0.21237878790011644
558,0.5468,572.759,558.019,0.0667389,565.168,2.01717,1.93082,0.117275,0.124,-0.239091,0.631175,0.00164124,0.00161402,0.441226,0.12442860504336428,0.879818068340835,0.001642587571497378,0.13201587099917522,0.0016153232313329546,-0.2126567691214155
559,0.5478,572.77,557.741,-0.0624899,565.357,1.93271,1.94346,0.11745,0.124178,-0.239445,0.632115,0.0016441,0.00161808,0.441887,0.12462539726806421,0.8815859280889835,0.00164545227339441,0.13221738775867253,0.001619389797800519,-0.21293543929761527
560,0.5488,573.042,558.293,0.0700789,565.438,2.02841,1.93941,0.117623,0.124359,-0.239798,0.633052,0.00164956,0.00162208,0.442547,0.12481997429221892,0.8833498003487044,0.0016509212724942213,0.13242233765326272,0.0016233962833727134,-0.2132132240556489
561,0.5498,573.125,558.264,0.010508,565.592,1.99989,1.94108,0.117797,0.124538,-0.240151,0.63399,0.00165329,0.00162604,0.443207,0.12501570999625833,0.885117211247556,0.0016546574373983436,0.13262505939475733,0.0016273627198755136,-0.2134909107729681
562,0.5508,573.268,558.376,0.0173808,565.733,1.99756,1.95357,0.117971,0.124718,-0.240503,0.634927,0.00165737,0.00163019,0.443866,0.12521147976127334,0.8868843938702595,0.001658744196737727,0.13282895025507524,0.0016315194820559764,-0.2137677132522815
563,0.5518,573.39,558.468,-0.00180662,565.871,1.99479,1.95613,0.118144,0.124897,-0.240855,0.635863,0.00166144,0.00163421,0.444525,0.12540615818647005,0.8886513444667996,0.0016628209561229124,0.13303174478673996,0.001635546048857739,-0.2140444183142688
564,0.5528,573.537,558.618,0.00833522,566.004,2.0025,1.96195,0.118318,0.125076,-0.241207,0.636799,0.00166566,0.00163829,0.445184,0.12560199589538112,0.8904199497033489,0.0016670479821463413,0.13323457562187513,0.0016396327302223845,-0.21432102599321456
565,0.5538,573.667,558.723,-0.0020456,566.141,2.00197,1.96584,0.118491,0.125255,-0.241559,0.637734,0.00166976,0.00164234,0.445842,0.12579674188571355,0.8921883189401105,0.0016711548254619846,0.1334374427669791,0.0016436893789497642,-0.21459753632339185
566,0.5548,573.813,558.876,0.00660134,566.273,2.0112,1.97044,0.118664,0.125434,-0.241911,0.638669,0.00167401,0.00164642,0.446499,0.1259915215700167,0.8939583423753255,0.0016754119369164489,0.13364034622855248,0.001647776093539166,-0.21487394933906112
567,0.5558,573.943,558.982,-0.00195976,566.41,2.01053,1.97506,0.118837,0.125613,-0.242262,0.639603,0.00167812,0.0016505,0.447156,0.12618633495412013,0.8957281258273193,0.00167952883131961,0.13384328601309625,0.0016518628248025635,-0.215149480224344
568,0.5568,574.088,559.136,0.00613291,566.54,2.02022,1.97926,0.11901,0.125791,-0.242614,0.640536,0.00168239,0.00165459,0.447813,0.1263811820438545,0.8974976655306242,0.001683806012039435,0.13404512808141766,0.0016559595892995382,-0.21542569898995023
569,0.5578,574.218,559.241,-0.00211136,566.677,2.0193,1.98415,0.119183,0.12597,-0.242964,0.641469,0.00168652,0.00165868,0.44847,0.1265760628450514,0.8992688569848939,0.0016879429747012065,0.13424814032839838,0.0016600563705519988,-0.21570025194573372
570,0.5588,574.363,559.395,0.00598176,566.807,2.02929,1.9882,0.119356,0.126148,-0.243315,0.642402,0.0016908,0.00166278,0.449126,0.12677097736354326,0.9010417017319319,0.0016922302082718055,0.13445005446720204,0.0016641631852021277,-0.2159754928496963
571,0.5598,574.491,559.498,-0.00238585,566.943,2.02813,1.99321,0.119529,0.126327,-0.243666,0.643333,0.00169494,0.00166688,0.449781,0.12696592560516384,0.9028123956863829,0.001696377222689227,0.13465313920249322,0.001668270016690343,-0.21625063716105453
572,0.5608,574.636,559.654,0.00591947,567.072,2.03839,1.99721,0.119701,0.126505,-0.244016,0.644264,0.00169924,0.00167099,0.450436,0.12715978041540366,0.9045847389245276,0.0017006845263718429,0.134855125437513,0.0016723868817400955,-0.21652490143899983
573,0.5618,574.764,559.755,-0.00270578,567.208,2.037,2.00228,0.119874,0.126683,-0.244366,0.645195,0.00170338,0.00167512,0.451091,0.12735479592577081,0.9063587329825646,0.0017048315757901555,0.13505714762928234,0.0016765237972407032,-0.2167990697412444
574,0.5628,574.909,559.911,0.00588253,567.337,2.04751,2.00626,0.120046,0.126861,-0.244716,0.646125,0.00170771,0.00167924,0.451745,0.12754871762745834,0.9081324712646974,0.001709168967101382,0.1352592057842028,0.0016806507130202597,-0.21707314210137418
575,0.5638,575.036,560.011,-0.00303948,567.472,2.04591,2.01138,0.120218,0.127039,-0.245065,0.647054,0.00171186,0.00168337,0.452399,0.12774267268654715,0.9099059499838187,0.00171332606877872,0.13546129990867573,0.0016847876626504554,-0.21734633589969
576,0.5648,575.18,560.168,0.00585024,567.6,2.05667,2.01535,0.12039,0.127217,-0.245415,0.647983,0.0017162,0.00168751,0.453052,0.12793666110877533,0.9116810770301993,0.001717673514047613,0.13566343000910486,0.0016889346462556354,-0.2176202167501804
577,0.5658,575.306,560.266,-0.00337522,567.735,2.05486,2.02051,0.120562,0.127394,-0.245764,0.648911,0.00172036,0.00169166,0.453705,0.1281306828998816,0.91345594047895,0.0017218406682371068,0.13586446022686594,0.0016930916639601445,-0.2178932196527571
578,0.5668,575.45,560.424,0.00581521,567.863,2.06585,2.02447,0.120734,0.127572,-0.246113,0.649838,0.00172471,0.00169581,0.454358,0.1283247380656063,0.9152305365339652,0.001726198167721682,0.13606666209621876,0.0016972486989164093,-0.2181661272939449
579,0.5678,575.575,560.521,-0.00370844,567.998,2.06385,2.02968,0.120906,0.127749,-0.246461,0.650765,0.00172889,0.00169997,0.45501,0.12851882661169012,0.9170067784022402,0.0017303853919812262,0.13626776369237592,0.0017014157681385367,-0.21843815814553313
580,0.5688,575.719,560.679,0.00577438,568.124,2.07507,2.03363,0.121078,0.127926,-0.24681,0.651691,0.00173326,0.00170413,0.455662,0.12871294854387494,0.9187827488264428,0.0017347629633304162,0.1364689008866662,0.0017055828546956864,-0.21871087563637004
581,0.5698,575.844,560.774,-0.00403704,568.259,2.07287,2.03887,0.121249,0.128103,-0.247158,0.652617,0.00173744,0.0017083,0.456313,0.12890597496136413,0.9205603645609193,0.0017389502233911003,0.13667007368539053,0.0017097599756854542,-0.2189827169485168
582,0.5708,575.987,560.933,0.00572619,568.385,2.08431,2.04283,0.121421,0.128281,-0.247506,0.653542,0.00174183,0.00171248,0.456964,0.12910016348879227,0.9223377047912664,0.0017433478670352276,0.13687241896670232,0.0017139471312332955,-0.2192544636763457
583,0.5718,576.111,561.027,-0.0043598,568.519,2.08194,2.0481,0.121592,0.128457,-0.247854,0.654467,0.00174602,0.00171667,0.457615,0.12929325612569875,0.92411668982193,0.001747545180456278,0.13707252612135346,0.0017181443214648873,-0.21952611585276605
584,0.5728,576.254,561.186,0.00566955,568.645,2.09358,2.05205,0.121763,0.128634,-0.248201,0.655391,0.00175042,0.00172086,0.458265,0.1294863817842693,0.9258953952786948,0.0017519528793519257,0.1372738057712004,0.0017223415292826338,-0.2197968933079597
585,0.5738,576.377,561.279,-0.0046758,568.778,2.09104,2.05737,0.121935,0.128811,-0.248548,0.656314,0.00175463,0.00172506,0.458915,0.12968067015025686,0.9276738173440628,0.001756170263951251,0.1374751210506986,0.0017265487719524408,-0.22006757681967648
586,0.5748,576.52,561.438,0.00560361,568.903,2.10288,2.06132,0.122106,0.128987,-0.248896,0.657237,0.00175905,0.00172926,0.459564,0.12987386206229012,0.9294538816507749,0.0017605980360091422,0.13767533429025192,0.0017307560322925575,-0.22033894608195292
587,0.5758,576.642,561.53,-0.00498423,569.037,2.10018,2.06666,0.122277,0.129164,-0.249242,0.658159,0.00176327,0.00173348,0.460213,0.1300670870129652,0.9312336584806957,0.0017648254746527314,0.13787672064658807,0.0017349833450024388,-0.2206086621430392
588,0.5768,576.785,561.69,0.00552758,569.161,2.11221,2.07061,0.122447,0.12934,-0.249589,0.659081,0.0017677,0.00173769,0.460861,0.13025921474815227,0.9330150770215659,0.001769263302659363,0.13807700457389038,0.0017392006581598007,-0.2208790640198367
589,0.5778,576.906,561.781,-0.00528438,569.294,2.10936,2.07599,0.122618,0.129516,-0.249935,0.660002,0.00177193,0.00174192,0.461509,0.13045250559977095,0.93479620399057,0.0017735007956054538,0.13827732375426605,0.0017434380239407243,-0.22114859323244318
590,0.5788,577.049,561.94,0.00544075,569.418,2.12157,2.07994,0.122789,0.129692,-0.250282,0.660923,0.00177638,0.00174615,0.462157,0.13064582950695147,0.9365789721331568,0.0017779586976027772,0.13847767819392032,0.0017476754076455325,-0.22141880778565515
591,0.5798,577.169,562.03,-0.0055756,569.551,2.11858,2.08536,0.122959,0.129868,-0.250628,0.661843,0.00178062,0.0017504,0.462804,0.1308380556367259,0.93836144459913,0.0017822062451524623,0.13867806789905934,0.0017519328443131865,-0.22168815027922295
592,0.5808,577.311,562.19,0.00534246,569.674,2.13095,2.08931,0.12313,0.130044,-0.250973,0.662762,0.00178509,0.00175464,0.463451,0.1310314454785999,0.9401436175497577,0.0017866842216225365,0.13887849287589016,0.0017561802815129202,-0.2219566215534189
593,0.5818,577.431,562.279,-0.00585728,569.806,2.12785,2.09475,0.1233,0.13022,-0.251319,0.663681,0.00178934,0.0017589,0.464098,0.13122373716866198,0.9419274290701349,0.0017909418240780184,0.13907895313062135,0.0017604477719306288,-0.22222577799561172
594,0.5828,577.573,562.439,0.00523213,569.929,2.14036,2.09871,0.12347,0.130396,-0.251664,0.664599,0.00179382,0.00176315,0.464744,0.13141606155108976,0.9437109369548902,0.0017954298575504346,0.13927944866946218,0.0017647052628808613,-0.2224940638202374
595,0.5838,577.692,562.527,-0.00612889,570.061,2.13716,2.10418,0.12364,0.130571,-0.252009,0.665517,0.00179808,0.00176742,0.465389,0.13160841863144213,0.9454960828516157,0.0017996975151717276,0.1394788400192135,0.0017689828073048641,-0.2227622571022181
596,0.5848,577.834,562.687,0.00510921,570.183,2.14979,2.10814,0.12381,0.130747,-0.252354,0.666434,0.00180258,0.00177169,0.466034,0.13180080841527775,0.9472809209828028,0.0018042056239537807,0.1396794059443407,0.0017732603699940341,-0.2230303578734757
597,0.5858,577.952,562.774,-0.00638997,570.315,2.1465,2.11365,0.12398,0.130922,-0.252699,0.66735,0.00180686,0.00177598,0.466679,0.13199323090815684,0.9490654474947893,0.00180849335512967,0.1398788672927398,0.0017775579864993674,-0.22329836616592047
598,0.5868,578.093,562.935,0.00497326,570.437,2.15926,2.11761,0.12415,0.131097,-0.253043,0.668266,0.00181137,0.00178026,0.467324,0.1321856861156403,0.9508516093819479,0.0018130115216230536,0.14007836354992942,0.0017818456036231556,-0.22356550557734634
599,0.5878,578.211,563.021,-0.00664012,570.568,2.1559,2.12315,0.124319,0.131272,-0.253387,0.669181,0.00181566,0.00178456,0.467968,0.13237704166568243,0.9526374555045374,0.001817309308661308,0.1402778947220189,0.0017861532748206788,-0.22383255310861883
600,0.5888,578.352,563.181,0.0048239,570.689,2.16874,2.12712,0.124489,0.131447,-0.253731,0.670096,0.00182019,0.00178886,0.468611,0.13256956212654103,0.9544249364241344,0.0018218475513516186,0.14047746081511914,0.001790460964541385,-0.22409950879133955
601,0.5898,578.469,563.267,-0.00687902,570.82,2.16533,2.13268,0.124658,0.131622,-0.254075,0.67101,0.00182449,0.00179317,0.469254,0.13276098255711122,0.9562120974241874,0.0018261553945579934,0.14067706183534168,0.0017947786907326346,-0.2243663726570988
602,0.5908,578.609,563.427,0.00466082,570.94,2.17826,2.13666,0.124827,0.131796,-0.254418,0.671924,0.00182903,0.00179748,0.469897,0.13295243534046786,0.9580008926361154,0.0018307036956279887,0.14087555691267206,0.0017990964355336647,-0.22463236937023323
603,0.5918,578.726,563.512,-0.00710645,571.071,2.17481,2.14224,0.124997,0.131971,-0.254762,0.672837,0.00183335,0.00180181,0.47054,0.13314505362656637,0.9597893637639276,0.0018350316136164224,0.14107522760580782,0.0018034342350126131,-0.22489904996347798
604,0.5928,578.865,563.672,0.00448381,571.191,2.1878,2.14623,0.125166,0.132145,-0.255105,0.673749,0.0018379,0.00180614,0.471182,0.1333365713234187,0.9615775069330259,0.0018395899733805177,0.14127379197000978,0.0018077720532740926,-0.22516486399962732
605,0.5938,578.982,563.756,-0.00732226,571.321,2.18433,2.15184,0.125335,0.13232,-0.255448,0.674661,0.00184223,0.00181047,0.471823,0.133528121389497,0.9633672816325587,0.0018439279481967663,0.14147353236037907,0.0018121098903185473,-0.22543058687719675
606,0.5948,579.121,563.916,0.00429272,571.441,2.19736,2.15584,0.125504,0.132494,-0.25579,0.675573,0.0018468,0.00181482,0.472464,0.1337197038302722,0.9651586893511612,0.001848506385409232,0.14167216603563837,0.0018164677824750175,-0.22569544432327993
607,0.5958,579.236,564.0,-0.00752636,571.57,2.1939,2.16147,0.125672,0.132668,-0.256133,0.676484,0.00185115,0.00181917,0.473105,0.133910184740464,0.9669497646280778,0.001852864435890611,0.14187083427616431,0.0018208256935883238,-0.2259609852430059
608,0.5968,579.375,564.159,0.00408751,571.689,2.20695,2.16549,0.125841,0.132842,-0.256475,0.677394,0.00185573,0.00182352,0.473745,0.1341018317554019,0.9687405035765353,0.0018574529325174893,0.14206953708797165,0.0018251836236584662,-0.22622566132386313
609,0.5978,579.49,564.243,-0.00771879,571.818,2.20351,2.17114,0.12601,0.133016,-0.256817,0.678303,0.00186009,0.00182789,0.474385,0.13429351116142207,0.9705309023072282,0.0018618210405347835,0.14226827447707624,0.0018295616092769418,-0.22649024690097785
610,0.5988,579.629,564.402,0.00386821,571.937,2.21657,2.17517,0.126178,0.13319,-0.257159,0.679212,0.00186469,0.00183226,0.475025,0.13448408847934368,0.972322929250278,0.0018664296155113114,0.14246704644949548,0.0018339396140270026,-0.22675474200529677
611,0.5998,579.743,564.485,-0.00789965,572.066,2.21316,2.18084,0.126347,0.133363,-0.2575,0.680121,0.00186906,0.00183664,0.475664,0.1346758324922095,0.9741165858864023,0.001870807781374939,0.14266471034596528,0.0018383276562923268,-0.22701837368651678
612,0.6008,579.881,564.644,0.00363494,572.184,2.22621,2.18489,0.126515,0.133537,-0.257842,0.681029,0.00187367,0.00184102,0.476303,0.1348664740455101,0.9759098977867797,0.00187542641644467,0.14286355130422712,0.0018427157177773879,-0.22728268820235742
613,0.6018,579.995,564.727,-0.00806913,572.313,2.22286,2.19057,0.126683,0.13371,-0.258183,0.681936,0.00187806,0.00184542,0.476941,0.13505714762928234,0.9777028610499974,0.0018798246592208745,0.1430612838019707,0.0018471238354242914,-0.2275461398846158
614,0.6028,580.132,564.885,0.0033879,572.431,2.23588,2.19464,0.126851,0.133884,-0.258524,0.682843,0.00188269,0.00184982,0.477579,0.13524785324890765,0.9794974512686072,0.0018844633735475291,0.14326019377001753,0.0018515319724670132,-0.2278095017451659
615,0.6038,580.246,564.968,-0.00822748,572.558,2.2326,2.20034,0.127019,0.134057,-0.258864,0.683749,0.00188709,0.00185423,0.478217,0.1354385909097684,0.9812916886262486,0.0018888716748848289,0.1434579948928436,0.0018559501474650908,-0.2280720018870197
616,0.6048,580.383,565.125,0.00312737,572.676,2.24558,2.20444,0.127187,0.13423,-0.259205,0.684655,0.00189173,0.00185864,0.478854,0.13562936061724784,0.9830875522995455,0.001893520450034547,0.14365583023822404,0.0018603683419473604,-0.22833518445919743
617,0.6058,580.496,565.208,-0.00837507,572.803,2.24239,2.21014,0.127354,0.134403,-0.259545,0.68556,0.00189615,0.00186306,0.479491,0.13581902655713618,0.9848830588785562,0.0018979488291814839,0.14385369981207985,0.0018647965745619555,-0.22859750589930938
618,0.6068,580.632,565.365,0.00285372,572.921,2.2553,2.21426,0.127522,0.134576,-0.259885,0.686465,0.0019008,0.00186749,0.480127,0.13600986018317363,0.9866801911265257,0.001902607665475342,0.1440516036203332,0.0018692348454414365,-0.22885973816529226
619,0.6078,580.745,565.448,-0.00851231,573.047,2.25222,2.21998,0.12769,0.134749,-0.260225,0.687369,0.00190523,0.00187193,0.480763,0.1362007258719533,0.9884769620373932,0.0019070461038583897,0.1442495416689069,0.0018736831547194743,-0.22912188128745992
620,0.6088,580.88,565.603,0.00256736,573.164,2.26505,2.22412,0.127857,0.134922,-0.260565,0.688272,0.0019099,0.00187637,0.481399,0.136390487237807,0.9902733676891977,0.0019117250206890368,0.14444751396372535,0.0018781314837479357,-0.22938393529611634
621,0.6098,580.993,565.686,-0.0086397,573.291,2.26209,2.22985,0.128024,0.135094,-0.260904,0.689175,0.00191435,0.00188082,0.482034,0.13658028029645486,0.9920713962279288,0.001916183537785665,0.1446443758657654,0.0018825898513528116,-0.22964512986706975
622,0.6108,581.128,565.841,0.0022688,573.407,2.27483,2.23402,0.128192,0.135267,-0.261243,0.690077,0.00191903,0.00188527,0.482669,0.1367712418238638,0.9938690552496636,0.0019208725164967522,0.14484241647280882,0.001887048238797595,-0.22990623590807036
623,0.6118,581.24,565.925,-0.00875779,573.533,2.27201,2.23975,0.128359,0.135439,-0.261582,0.690979,0.00192349,0.00188974,0.483303,0.13696109847383742,0.9956683364913468,0.0019253410935531345,0.14503934630392212,0.00189152668391257,-0.2301672534491246
624,0.6128,581.374,566.078,0.0019586,573.649,2.28464,2.24396,0.128526,0.135611,-0.261921,0.691881,0.00192819,0.00189421,0.483937,0.13715098683251936,0.9974692414168813,0.0019300501537224957,0.14523631000987947,0.0018960051490461982,-0.2304281825202289
625,0.6138,581.486,566.162,-0.0088672,573.775,2.28197,2.24969,0.128693,0.135783,-0.262259,0.692781,0.00193267,0.00189869,0.484571,0.13734090690520495,0.9992677729519466,0.0019345388104017314,0.14543330759650797,0.0019004936532034389,-0.23068825384000813
626,0.6148,581.619,566.315,0.00163738,573.891,2.29447,2.25393,0.128859,0.135955,-0.262598,0.693681,0.00193737,0.00190318,0.485204,0.13752972116690132,1.0010679238940172,0.0019392479138005125,0.14563033906963563,0.001904992196519295,-0.2309490063219135
627,0.6158,581.731,566.399,-0.00896859,574.015,2.29197,2.25967,0.129026,0.136127,-0.262936,0.694581,0.00194187,0.00190767,0.485837,0.13771970449350257,1.0028696957012153,0.0019437566505609016,0.14582740443509112,0.0019094907600334388,-0.2312089016329948
628,0.6168,581.864,566.551,0.00130579,574.131,2.30434,2.26394,0.129193,0.136299,-0.263274,0.69548,0.00194659,0.00191217,0.48647,0.13790971954996856,1.004671085160889,0.0019484858362530666,0.14602450369870468,0.0019139993628862761,-0.23146870911430506
629,0.6178,581.975,566.635,-0.00906268,574.255,2.30202,2.26968,0.129359,0.13647,-0.263611,0.696379,0.0019511,0.00191668,0.487102,0.1380986282424015,1.0064740947978477,0.001953004634114075,0.14622049064524356,0.0019185180052128104,-0.2317276605235703
630,0.6188,582.107,566.786,0.00096454,574.37,2.31423,2.27398,0.129525,0.136642,-0.263949,0.697276,0.00195583,0.00192119,0.487733,0.1382875682962803,1.0082747095158497,0.0019577438830342686,0.14641765752550007,0.0019230366679185984,-0.23198729269400475
631,0.6198,582.219,566.871,-0.00915022,574.494,2.3121,2.27973,0.129692,0.136814,-0.264286,0.698174,0.00196036,0.00192572,0.488365,0.13847767819392032,1.0100789501878111,0.001962282761894585,0.14661485832137688,0.001927575389554903,-0.23224606937004788
632,0.6208,582.35,567.02,0.000614377,574.609,2.32416,2.28406,0.129858,0.136985,-0.264623,0.699071,0.00196511,0.00193025,0.488996,0.1386666811753141,1.0118827999117812,0.0019670420940411937,0.14681094622718782,0.00193211413175165,-0.232504758853044
633,0.6218,582.461,567.106,-0.00923199,574.732,2.32223,2.28981,0.130024,0.137156,-0.26496,0.699967,0.00196965,0.00193479,0.489626,0.13885571553380682,1.0136862547276064,0.001971591034738429,0.14700706766689797,0.0019366629138755087,-0.23276336117237229
634,0.6228,582.591,567.254,0.000256067,574.847,2.33411,2.29418,0.13019,0.137327,-0.265297,0.700863,0.00197441,0.00193933,0.490256,0.13904478127460784,1.0154913261630836,0.0019763604308629112,0.14720322264624186,0.00194121171665107,-0.2330218763574019
635,0.6238,582.702,567.34,-0.00930881,574.97,2.3324,2.29993,0.130356,0.137498,-0.265633,0.701758,0.00197898,0.00194388,0.490886,0.13923387840292678,1.0172959983703467,0.001980939473293253,0.14739941117095512,0.0019457705595355979,-0.23327953771741328
636,0.6248,582.832,567.487,-0.000109604,575.084,2.3441,2.30433,0.130521,0.137669,-0.265969,0.702652,0.00198374,0.00194844,0.491516,0.1394218675015373,1.019100267380968,0.001985708913916362,0.14759563324677472,0.0019503394426665377,-0.23353711251775056
637,0.6258,582.943,567.574,-0.00938149,575.207,2.34261,2.31008,0.130687,0.13784,-0.266305,0.703547,0.00198833,0.00195301,0.492145,0.13961102723136576,1.0209081710364782,0.0019903080388752326,0.14779188887943828,0.001954918366180669,-0.2337946007874928
638,0.6268,583.072,567.72,-0.000481834,575.321,2.35412,2.31452,0.130853,0.138011,-0.266641,0.70444,0.00199311,0.00195758,0.492773,0.1398002183643159,1.0227136480587231,0.00199509756399463,0.14798817807468456,0.001959497310620284,-0.23405200255570957
639,0.6278,583.182,567.807,-0.00945087,575.442,2.35286,2.32027,0.131018,0.138181,-0.266977,0.705333,0.00199771,0.00196217,0.493401,0.13998830091672976,1.024520738092051,0.0019997067520445277,0.14818335265432636,0.001964096315267838,-0.23430931785146025
640,0.6288,583.31,567.951,-0.000859819,575.556,2.36417,2.32475,0.131183,0.138352,-0.267312,0.706225,0.0020025,0.00196675,0.494029,0.14017641450532525,1.0263274162490945,0.002004506342134782,0.1483797087956018,0.0019686853213376487,-0.23456578126995897
641,0.6298,583.421,568.039,-0.00951778,575.677,2.36315,2.33049,0.131349,0.138522,-0.267647,0.707117,0.00200712,0.00197135,0.494657,0.14036569950035305,1.0281357066820225,0.0020091356136477945,0.1485749499411244,0.001973294387890956,-0.2348221587876017
642,0.6308,583.548,568.182,-0.00124276,575.791,2.37426,2.33501,0.131514,0.138692,-0.267982,0.708009,0.00201192,0.00197595,0.495284,0.14055387536485253,1.0299456108296265,0.0020139452690419724,0.14877022428046294,0.001977903475646192,-0.23507845043316034
643,0.6318,583.659,568.271,-0.00958304,575.912,2.37348,2.34075,0.131679,0.138863,-0.268317,0.7089,0.00201656,0.00198057,0.49591,0.14074208228093132,1.0317550983758674,0.0020185946245343533,0.14896668078536734,0.001982532624253519,-0.2353346562353973
644,0.6328,583.785,568.413,-0.00162985,576.025,2.38438,2.34531,0.131844,0.139033,-0.268651,0.70979,0.00202137,0.00198518,0.496537,0.14093032025371333,1.0335641653288028,0.002023414345565966,0.14916202172461013,0.001987151774375917,-0.2355900118134593
645,0.6338,583.895,568.502,-0.00964748,576.145,2.38384,2.35105,0.132009,0.139203,-0.268986,0.71068,0.00202603,0.00198981,0.497163,0.14111858928832355,1.0353748430680194,0.0020280837855566336,0.14935739587463548,0.0019917909856284055,-0.23584604627133565
646,0.6348,584.021,568.642,-0.00202033,576.258,2.39454,2.35565,0.132173,0.139372,-0.26932,0.711569,0.00203086,0.00199445,0.497788,0.14130574808356844,1.0371850958416413,0.002032923592889535,0.14955165368886125,0.0019964402383250146,-0.23610123107364667
647,0.6358,584.131,568.732,-0.00971188,576.378,2.39425,2.36138,0.132338,0.139542,-0.269654,0.712457,0.00203553,0.00199909,0.498413,0.14149407906888145,1.0389949196495922,0.002037603097569285,0.1497470940819512,0.002001089512593923,-0.23635633065846595
648,0.6368,584.256,568.871,-0.00241343,576.491,2.40473,2.36603,0.132503,0.139712,-0.269987,0.713345,0.00204037,0.00200374,0.499038,0.1416824411313704,1.0408063512948589,0.002042452971305009,0.14994256770273218,0.002005748828493026,-0.23661058166521454
649,0.6378,584.366,568.962,-0.00977704,576.61,2.40469,2.37175,0.132667,0.139881,-0.270321,0.714233,0.00204506,0.00200839,0.499662,0.14186969240590086,1.0426193922058347,0.0020471525614298436,0.15013692441935378,0.0020104081660581308,-0.2368655111553436
650,0.6388,584.49,569.1,-0.00280843,576.723,2.41496,2.37644,0.132831,0.140051,-0.270654,0.71512,0.00204991,0.00201306,0.500286,0.14205697439215847,1.0444319993791606,0.0020520125019052315,0.15033246431692548,0.0020150875655906564,-0.23711959263321492
651,0.6398,584.6,569.192,-0.00984367,576.841,2.41517,2.38216,0.132996,0.14022,-0.270987,0.716007,0.00205463,0.00201773,0.50091,0.1422454293400388,1.046246215048312,0.0020567421985662193,0.15052688693164318,0.002019766986975924,-0.23737358951603993
652,0.6408,584.723,569.328,-0.00320462,576.954,2.42523,2.38689,0.13316,0.140389,-0.27132,0.716892,0.00205949,0.00202241,0.501533,0.14243277295220702,1.048057944520672,0.002061612206167407,0.15072134240655943,0.002024456450458789,-0.23762750183198422
653,0.6418,584.833,569.42,-0.0099125,577.072,2.42569,2.39261,0.133324,0.140558,-0.271653,0.717778,0.00206422,0.0020271,0.502156,0.14262014729124695,1.0498733279556234,0.002066351968802671,0.15091583074722803,0.0020291559561798067,-0.2378813296092036
654,0.6428,584.956,569.555,-0.00360135,577.184,2.43553,2.39737,0.133488,0.140727,-0.271985,0.718663,0.00206909,0.00203179,0.502779,0.14280755236219855,1.051688268843748,0.0020712320438198706,0.15111035195920386,0.002033855483941638,-0.23813431101053706
655,0.6438,585.065,569.648,-0.0099842,577.301,2.43624,2.40309,0.133651,0.140896,-0.272318,0.719547,0.00207384,0.00203649,0.503401,0.14299384517568536,1.0535027631617324,0.0020759918934765142,0.15130490604804248,0.002038565054129915,-0.23838797004839674
656,0.6448,585.187,569.782,-0.00399801,577.413,2.44588,2.4079,0.133815,0.141065,-0.27265,0.720431,0.00207873,0.0020412,0.504022,0.14318131153811575,1.0553188622018763,0.0020808920570578593,0.15149949301930055,0.0020432846668860805,-0.23864078327302318
657,0.6458,585.297,569.875,-0.0100594,577.53,2.44683,2.41361,0.133979,0.141234,-0.272981,0.721314,0.0020835,0.00204592,0.504644,0.14336880864755064,1.0571345102478427,0.0020856719943131985,0.15169411287853563,0.0020480143223515768,-0.23889275147072264
658,0.6468,585.418,570.008,-0.004394,577.642,2.45626,2.41846,0.134142,0.141402,-0.273313,0.722197,0.0020884,0.00205065,0.505265,0.14355519295326857,1.0589517622190625,0.0020905822261358953,0.15188761374311666,0.0020527540206687345,-0.23914539713573335
659,0.6478,585.527,570.102,-0.0101387,577.758,2.45746,2.42416,0.134306,0.141571,-0.273644,0.723079,0.00209318,0.00205538,0.505885,0.14374275138428372,1.0607685587628382,0.002095372230566994,0.15208229920029703,0.0020574937414046257,-0.23939719833388418
660,0.6488,585.647,570.233,-0.00478882,577.87,2.46668,2.42905,0.134469,0.141739,-0.273976,0.723961,0.00209809,0.00206012,0.506506,0.1439291966476357,1.0625869584280379,0.0021002925309241416,0.15227586528565862,0.0020622435051820265,-0.2396496765503343
661,0.6498,585.756,570.328,-0.0102225,577.986,2.46812,2.43476,0.134632,0.141907,-0.274307,0.724842,0.0021029,0.00206487,0.507126,0.1441156723040422,1.0644048982233083,0.0021051126449234125,0.15246946389285432,0.0020670033121432674,-0.23990131085962052
662,0.6508,585.876,570.458,-0.00518196,578.097,2.47714,2.43969,0.134795,0.142075,-0.274638,0.725723,0.00210782,0.00206962,0.507745,0.14430217835845838,1.0662244403292522,0.0021100430142064752,0.1526630950273482,0.002071763141713534,-0.24015286189173346
663,0.6518,585.985,570.554,-0.0103115,578.212,2.47882,2.44539,0.134958,0.142243,-0.274968,0.726603,0.00211265,0.00207439,0.508364,0.14448871481583914,1.068043518113576,0.002114883217403163,0.15285675869460524,0.0020765430354237058,-0.24040357007818325
664,0.6528,586.104,570.682,-0.005573,578.323,2.48764,2.45036,0.135121,0.142411,-0.275299,0.727482,0.00211758,0.00207916,0.508983,0.14467528168114052,1.069862127527741,0.002119823655955644,0.15305045490009173,0.0020813229519340837,-0.24065495489000588
665,0.6538,586.213,570.779,-0.0104061,578.438,2.48955,2.45606,0.135284,0.142579,-0.275629,0.728361,0.00212242,0.00208394,0.509601,0.14486187895931946,1.071682336202353,0.0021246739276399307,0.15324418364927417,0.0020861129121056976,-0.2409054974131022
666,0.6548,586.331,570.906,-0.00596157,578.549,2.49819,2.46107,0.135447,0.142747,-0.275959,0.72924,0.00212737,0.00208873,0.510219,0.14504850665533398,1.0735041455437804,0.0021296344570531645,0.15343794494762064,0.0020909129160826545,-0.2411559572708064
667,0.6558,586.439,571.003,-0.0105065,578.664,2.50032,2.46677,0.135609,0.142915,-0.276289,0.730118,0.00213223,0.00209352,0.510837,0.14523401953955006,1.075325481633108,0.00213450481891142,0.15363173880059966,0.002095712943051664,-0.24140633449039361
668,0.6568,586.557,571.129,-0.00634732,578.774,2.50877,2.47182,0.135772,0.143082,-0.276618,0.730995,0.00213719,0.00209832,0.511454,0.14542070789942296,1.0771463404103674,0.0021394754183825526,0.15382441138869263,0.0021005230140178632,-0.24165587075537986
669,0.6578,586.665,571.227,-0.0106132,578.888,2.51112,2.47751,0.135934,0.14325,-0.276948,0.731872,0.00214207,0.00210314,0.512071,0.14560628108512486,1.0789687967812172,0.002144365870955234,0.1540182701734878,0.0021053531501793454,-0.24190608303073446
670,0.6588,586.782,571.352,-0.00672999,578.998,2.5194,2.4826,0.136097,0.143417,-0.277277,0.732749,0.00214705,0.00210795,0.512687,0.14579303012857525,1.0807928521473613,0.0021493565623240674,0.15421100731771054,0.0021101732885204783,-0.24215545490549462
671,0.6598,586.89,571.45,-0.0107265,579.112,2.52196,2.4883,0.136259,0.143584,-0.277606,0.733625,0.00215195,0.00211278,0.513304,0.14597866363536416,1.0826164252942667,0.0021542671062020347,0.1544037766517239,0.0021150134923464403,-0.24240474475040263
672,0.6608,587.006,571.574,-0.00710933,579.222,2.53006,2.49343,0.136421,0.143751,-0.277935,0.7345,0.00215693,0.00211761,0.513919,0.14616432721721706,1.0844395121505825,0.0021592578468792034,0.15459657818090444,0.0021198537195508127,-0.24265395259244182
673,0.6618,587.114,571.673,-0.0108466,579.335,2.53283,2.49912,0.136583,0.143918,-0.278263,0.735375,0.00216185,0.00212246,0.514535,0.14635002087900695,1.086264194906001,0.0021641884825571722,0.15478941191062878,0.002124714012627482,-0.24290232136128664
674,0.6628,587.23,571.795,-0.00748516,579.445,2.54077,2.50429,0.136745,0.144085,-0.278592,0.736249,0.00216685,0.00212731,0.51515,0.1465357446256066,1.0880883868681148,0.00216919931602666,0.15498227784627527,0.002129574329276851,-0.24315136552754713
675,0.6638,587.338,571.895,-0.0109737,579.557,2.54374,2.50998,0.136907,0.144252,-0.27892,0.737123,0.00217179,0.00213216,0.515764,0.1467214984618903,1.0899141738709348,0.0021741500440994876,0.1551751759932225,0.002134434669498697,-0.2433995711717032
676,0.6648,587.452,572.016,-0.00785735,579.667,2.55152,2.51519,0.137068,0.144419,-0.279248,0.737996,0.0021768,0.00213703,0.516379,0.14690613548602438,1.0917394655686246,0.0021791709491685296,0.1553681063568504,0.00213931507607934,-0.243647695417758
677,0.6658,587.56,572.116,-0.0111079,579.779,2.55468,2.52088,0.13723,0.144585,-0.279576,0.738869,0.00218175,0.0021419,0.516993,0.14709194933048808,1.0935663514417229,0.0021841317483428657,0.15555991338204822,0.0021441955064274154,-0.24389573829240574
678,0.6668,587.674,572.237,-0.0082258,579.888,2.56232,2.52612,0.137391,0.144752,-0.279903,0.739741,0.00218678,0.00214678,0.517606,0.1472766460020134,1.0953927374887669,0.0021891727472036493,0.15575290800218533,0.0021490859820343378,-0.24414294396565372
679,0.6678,587.782,572.337,-0.0112493,580.0,2.56566,2.53182,0.137553,0.144918,-0.280231,0.740613,0.00219175,0.00215167,0.518219,0.1474625198740429,1.0972207168390233,0.0021941536397696026,0.15594477890975833,0.0021539865030464345,-0.24439082442541527
680,0.6688,587.895,572.456,-0.00859047,580.109,2.57315,2.5371,0.137714,0.145085,-0.280558,0.741484,0.00219679,0.00215657,0.518832,0.14764727621222873,1.0990481918332171,0.002199204711032632,0.15613783780780577,0.002158897069611365,-0.24463786823196443
681,0.6698,588.002,572.557,-0.0113981,580.22,2.57667,2.5428,0.137875,0.145251,-0.280885,0.742355,0.00220179,0.00216148,0.519445,0.1478320622985798,1.1008772592515306,0.0022042157195836243,0.15632977261903025,0.0021638176818759014,-0.24488483126839555
682,0.6708,588.115,572.676,-0.00895133,580.329,2.58403,2.54811,0.138036,0.145417,-0.281211,0.743225,0.00220684,0.00216639,0.520057,0.14801687813788567,1.1027058177747007,0.002209276863652576,0.1565217392940783,0.002168738318300889,-0.24513095869245205
683,0.6718,588.222,572.777,-0.0115541,580.44,2.58772,2.55382,0.138197,0.145583,-0.281538,0.744094,0.00221185,0.00217131,0.520668,0.14820172373493712,1.1045338633010893,0.0022142979447072886,0.1567137378382395,0.00217366900062288,-0.24537776051466254
684,0.6728,588.334,572.895,-0.00930842,580.548,2.59496,2.55916,0.138358,0.145749,-0.281864,0.744964,0.00221692,0.00217624,0.52128,0.14838659909452545,1.1063656044540253,0.0022193791840787735,0.15690576825680425,0.0021786097289899775,-0.24562372726997528
685,0.6738,588.441,572.996,-0.0117176,580.658,2.5988,2.56488,0.138519,0.145914,-0.282191,0.745832,0.00222194,0.00218118,0.521891,0.14857150422144305,1.108194723521525,0.002224410337990479,0.15709667345781275,0.002183560503550508,-0.24587036798320372
686,0.6748,588.552,573.113,-0.00966179,580.767,2.60592,2.57026,0.13868,0.14608,-0.282517,0.7467,0.00222703,0.00218612,0.522501,0.14875643912048253,1.1100254309536255,0.002229511673222051,0.15728876744896692,0.0021885113025679193,-0.24611617417465503
687,0.6758,588.659,573.215,-0.0118883,580.877,2.60992,2.57597,0.138841,0.146246,-0.282842,0.747568,0.00223207,0.00219108,0.523112,0.14894140379643783,1.1118577281296265,0.0022345629226900865,0.1574808933303704,0.0021934821699116647,-0.24636114660787156
688,0.6768,588.77,573.331,-0.0100115,580.985,2.61693,2.58138,0.139001,0.146411,-0.283168,0.748435,0.00223717,0.00219604,0.523722,0.14912524912827974,1.1136895027394642,0.002239674331995012,0.1576718934348451,0.002198453061911021,-0.2466067928315674
689,0.6778,588.876,573.433,-0.0120662,581.094,2.62108,2.58711,0.139162,0.146577,-0.283493,0.749301,0.00224223,0.00220101,0.524331,0.1493102731874265,1.115520750664742,0.0022447456775775976,0.1578640829204414,0.0022034340006003017,-0.2468516058396285
690,0.6788,588.987,573.548,-0.0103578,581.202,2.62799,2.59255,0.139322,0.146742,-0.283819,0.750167,0.00224735,0.00220599,0.52494,0.14949417754309247,1.1173535851375993,0.002249877183812199,0.1580551462564148,0.002208424986129165,-0.2470970921996739
691,0.6798,589.093,573.651,-0.0122512,581.311,2.63227,2.59829,0.139482,0.146907,-0.284144,0.751033,0.00225243,0.00221097,0.525549,0.14967811132580966,1.1191880075325806,0.0022549686261204016,0.15824624112043995,0.002213415996513257,-0.2473417458863315
692,0.6808,589.202,573.765,-0.0107006,581.418,2.63908,2.60376,0.139642,0.147072,-0.284469,0.751898,0.00225755,0.00221597,0.526157,0.14986207454028655,1.1210218982024642,0.0022601001846966895,0.15843736751771909,0.0022184270761209657,-0.24758632007346026
693,0.6818,589.308,573.868,-0.0124433,581.527,2.64349,2.6095,0.139802,0.147237,-0.284793,0.752763,0.00226265,0.00222097,0.526766,0.15004606719123248,1.122857375874056,0.0022652117242421,0.1586285254534554,0.0022234381807839654,-0.2478300626173321
694,0.6828,589.417,573.981,-0.0110403,581.634,2.65022,2.61501,0.139962,0.147402,-0.285118,0.753627,0.00226779,0.00222598,0.527373,0.1502300892833579,1.1246923172273284,0.002270363380669993,0.15881971493285363,0.002228459332787258,-0.24807447812730976
695,0.6838,589.523,574.084,-0.0126422,581.742,2.65475,2.62076,0.140122,0.147567,-0.285442,0.75449,0.00227291,0.002231,0.527981,0.1504141408213735,1.1265267181272334,0.0022754950180674527,0.15901093596111848,0.0022334905322813903,-0.2483180625335918
696,0.6848,589.631,574.197,-0.0113769,581.849,2.6614,2.62629,0.140282,0.147732,-0.285766,0.755353,0.00227807,0.00223603,0.528588,0.15059822180999127,1.1283627027984142,0.002280666772964901,0.15920218854345625,0.002238531779417574,-0.24856156803131013
697,0.6858,589.737,574.3,-0.0128479,581.957,2.66605,2.63205,0.140441,0.147896,-0.28609,0.756215,0.0022832,0.00224106,0.529194,0.1507811814721669,1.1301981424090473,0.002285808485974039,0.15939231329218062,0.0022435730519112518,-0.2488049946460269
698,0.6868,589.845,574.412,-0.0117107,582.064,2.67263,2.63762,0.140601,0.148061,-0.286413,0.757077,0.00228838,0.0022461,0.529801,0.15096532119198725,1.1320351648507274,0.002291000339908811,0.15958362880696964,0.0022486243722485977,-0.24904759145126298
699,0.6878,589.95,574.516,-0.0130601,582.171,2.67739,2.64339,0.14076,0.148225,-0.286737,0.757939,0.00229353,0.00225116,0.530407,0.15114833922760496,1.1338737714884424,0.0022961621518522435,0.15977381611702723,0.002253695763118513,-0.24929086061989936
700,0.6888,590.057,574.627,-0.0120418,582.278,2.6839,2.64899,0.14092,0.14839,-0.28706,0.7588,0.00229872,0.00225622,0.531012,0.151332537697366,1.1357118279754626,0.0023013640824327553,0.15996519458497582,0.002258767179649901,-0.24953330051576816
701,0.6898,590.162,574.731,-0.0132787,582.385,2.68876,2.65477,0.141079,0.148554,-0.287383,0.75966,0.00230389,0.00226128,0.531617,0.1515156141250502,1.1375493301602093,0.002306545993880249,0.16015544447695262,0.00226383862184254,-0.24977566211619595
702,0.6908,590.269,574.841,-0.0123705,582.491,2.69521,2.66039,0.141238,0.148718,-0.287706,0.76052,0.00230909,0.00226636,0.532222,0.1516987196642008,1.1393884132765382,0.002311758001470654,0.16034572557247007,0.00226893013507512,-0.25001794544646816
703,0.6918,590.374,574.945,-0.0135035,582.598,2.70017,2.66618,0.141397,0.148882,-0.288029,0.761379,0.00231428,0.00227144,0.532827,0.15188185431944645,1.141226937456627,0.002316960012993974,0.1605360378766465,0.002274021674172788,-0.2502601505318619
704,0.6928,590.48,575.055,-0.0126971,582.703,2.70657,2.67184,0.141556,0.149046,-0.288351,0.762238,0.0023195,0.00227654,0.533431,0.15206501809541773,1.143067041607487,0.0023221921211808993,0.16072638139460005,0.002279133284717849,-0.25050152789954894
705,0.6938,590.584,575.159,-0.0137343,582.81,2.71162,2.67764,0.141715,0.14921,-0.288673,0.763097,0.0023247,0.00228164,0.534035,0.15224821099674446,1.144908727086896,0.002327404210131334,0.1609167561314504,0.002284244921332279,-0.25074282755623556
706,0.6948,590.69,575.269,-0.0130217,582.915,2.71797,2.68332,0.141874,0.149373,-0.288995,0.763955,0.00232994,0.00228675,0.534638,0.1524314330280585,1.1467498485028766,0.00233265641949032,0.16110600098573657,0.002289366606909704,-0.250984049526941
707,0.6958,590.794,575.372,-0.013971,583.021,2.7231,2.68914,0.142032,0.149537,-0.289317,0.764812,0.00233516,0.00229187,0.535241,0.15261353157988378,1.148590401687434,0.002337888609612815,0.16129643798530524,0.002294498341604001,-0.25122519383667585
708,0.6968,590.899,575.481,-0.0133445,583.127,2.72941,2.69485,0.142191,0.149701,-0.289639,0.765669,0.00234041,0.00229699,0.535844,0.1527968117017886,1.1504325329021596,0.002343150897341495,0.1614869062191031,0.002299630102572836,-0.2514662605104431
709,0.6978,591.003,575.585,-0.0142132,583.232,2.73463,2.70068,0.14235,0.149864,-0.28996,0.766525,0.00234565,0.00230213,0.536446,0.15298012096754943,1.1522740912248377,0.002348403189213144,0.16167624401542802,0.0023047819359116595,-0.25170650128011285
710,0.6988,591.107,575.694,-0.0136659,583.337,2.7409,2.70641,0.142508,0.150027,-0.290282,0.767381,0.00235092,0.00230727,0.537048,0.15316230621891824,1.154117226596321,0.002353685579217002,0.16186561267632915,0.0023099337957310784,-0.2519474129978325
711,0.6998,591.211,575.798,-0.0144609,583.442,2.74619,2.71226,0.142666,0.150191,-0.290603,0.768237,0.00235618,0.00231242,0.53765,0.15334452025783074,1.1559619403671406,0.002358957973469522,0.16205617426243113,0.0023150957051820686,-0.2521874993423403
712,0.7008,591.315,575.906,-0.0139859,583.547,2.75243,2.71802,0.142824,0.150354,-0.290924,0.769092,0.00236146,0.00231758,0.538251,0.15352676308883617,1.15780607608183,0.0023642504427396904,0.16224560485700978,0.0023202676644196174,-0.25242750863149965
713,0.7018,591.418,576.01,-0.0147138,583.652,2.75779,2.72388,0.142982,0.150517,-0.291245,0.769946,0.00236674,0.00232275,0.538852,0.15370903471648356,1.159649629556093,0.0023695429399543944,0.16243506633129234,0.002325449673598934,-0.25266744089004123
714,0.7028,591.522,576.117,-0.014305,583.756,2.76401,2.72967,0.14314,0.15068,-0.291565,0.7708,0.00237204,0.00232792,0.539453,0.15389133514532327,1.161494758097481,0.0023748555126101856,0.1626245586903119,0.002330631709569264,-0.2529065490496105
715,0.7038,591.624,576.221,-0.0149718,583.861,2.76943,2.73555,0.143298,0.150843,-0.291885,0.771653,0.00237733,0.00233311,0.540053,0.15407366437990655,1.1633392997112946,0.0023801580896212204,0.16281408193910352,0.0023358338190473393,-0.2531455807068097
716,0.7048,591.728,576.328,-0.0146232,583.965,2.77562,2.74135,0.143456,0.151005,-0.292206,0.772506,0.00238265,0.0023383,0.540653,0.15425602242478464,1.1651854153903476,0.002385490766247056,0.1630024730796482,0.002341035955524262,-0.2533852825012066
717,0.7058,591.83,576.432,-0.0152346,584.069,2.78111,2.74725,0.143614,0.151168,-0.292526,0.773359,0.00238796,0.00234351,0.541252,0.15443840928451036,1.1670331064778914,0.0023908134473347165,0.163192057933506,0.0023462581659254855,-0.25362416098820983
718,0.7068,591.933,576.539,-0.0149409,584.173,2.78728,2.75308,0.143771,0.151331,-0.292845,0.77421,0.00239329,0.00234872,0.541852,0.15461967034338886,1.1688780365579112,0.002396156204608868,0.16338167369221357,0.0023514804035345005,-0.2538622169089165
719,0.7078,592.035,576.643,-0.0155021,584.277,2.79283,2.759,0.143929,0.151493,-0.293165,0.775062,0.00239862,0.00235393,0.542451,0.15480211466402483,1.170726708067292,0.002401498990360018,0.16357015679007048,0.002356702668351307,-0.2541009428013258
720,0.7088,592.137,576.749,-0.0152581,584.38,2.79899,2.76485,0.144086,0.151655,-0.293484,0.775913,0.00240397,0.00235916,0.543049,0.15498343282913063,1.172574782740099,0.002406861852725317,0.16375867042466252,0.002361945007615107,-0.2543388466528903
721,0.7098,592.239,576.853,-0.0157741,584.484,2.80459,2.77078,0.144244,0.151818,-0.293804,0.776763,0.00240932,0.0023644,0.543647,0.15516593462878014,1.1744222563704878,0.0024122247437818878,0.1639483785487339,0.0023671973979682015,-0.2545774200481823
722,0.7108,592.341,576.959,-0.0155752,584.587,2.81074,2.77667,0.144401,0.15198,-0.294123,0.777613,0.00241468,0.00236964,0.544245,0.15534730991810441,1.1762713010210515,0.002417597687705886,0.16413695346021417,0.0023724498158437246,-0.25481517192774605
723,0.7118,592.442,577.062,-0.0160505,584.69,2.81639,2.78261,0.144558,0.152142,-0.294441,0.778463,0.00242005,0.0023749,0.544842,0.15552871368558474,1.1781219180277245,0.0024229806846589597,0.1643255589233048,0.002377722308796404,-0.25505210302903125
724,0.7128,592.544,577.168,-0.0158923,584.793,2.82253,2.78852,0.144715,0.152304,-0.29476,0.779311,0.00242543,0.00238016,0.54544,0.15571014593569243,1.1799697487837206,0.0024283737348023138,0.16451419494295538,0.0023829948294824543,-0.2552897035088736
725,0.7138,592.645,577.272,-0.0163311,584.896,2.82823,2.79448,0.144872,0.152466,-0.295079,0.78016,0.00243081,0.00238543,0.546036,0.15589160667289947,1.181821328985015,0.0024337668139602364,0.16470286152411662,0.002388277401784933,-0.25552722820625084
726,0.7148,592.746,577.377,-0.0162096,584.999,2.83436,2.80041,0.145029,0.152628,-0.295397,0.781008,0.00243621,0.00239071,0.546633,0.15607309590167873,1.1836722981720098,0.002439179970916694,0.16489155867173988,0.0023935700258621573,-0.2557639329096387
727,0.7158,592.846,577.48,-0.0166157,585.101,2.84011,2.8064,0.145186,0.152789,-0.295715,0.781855,0.00244161,0.002396,0.547229,0.15625461362650395,1.1855226521228377,0.0024445931571039914,0.16507912131107316,0.0023988727018731115,-0.2560005623528978
728,0.7168,592.947,577.585,-0.0165273,585.204,2.84624,2.81235,0.145342,0.152951,-0.296033,0.782702,0.00244703,0.00240129,0.547824,0.15643500341626737,1.18737457398738,0.0024500264215230327,0.1652678794177196,0.0024041754059351828,-0.2562371165599573
729,0.7178,593.047,577.689,-0.0169042,585.306,2.85204,2.81835,0.145499,0.153113,-0.296351,0.783549,0.00245245,0.0024066,0.54842,0.1566165779650328,1.189228065094222,0.0024554597153905178,0.16545666810565596,0.00240949818623859,-0.25647359555473825
730,0.7188,593.147,577.793,-0.0168456,585.408,2.85816,2.82433,0.145655,0.153274,-0.296668,0.784395,0.00245788,0.00241191,0.549015,0.1567970242256378,1.1910809356910432,0.0024609030633153672,0.16564432173493282,0.002414820994806055,-0.2567092560707821
731,0.7198,593.247,577.896,-0.0171965,585.51,2.864,2.83035,0.145812,0.153435,-0.296985,0.78524,0.00246332,0.00241723,0.54961,0.15697865561613233,1.1929331815453632,0.00246635646546145,0.16583200557887623,0.002420153855839269,-0.2569448418942819
732,0.7208,593.347,578.001,-0.0171646,585.612,2.87013,2.83635,0.145968,0.153597,-0.297302,0.786085,0.00246877,0.00242256,0.550204,0.15715915836525673,1.1947869932088913,0.002471819921991969,0.16602088566265372,0.0024254967694981033,-0.2571803530489112
733,0.7218,593.446,578.104,-0.0174925,585.713,2.876,2.84239,0.146124,0.153758,-0.297619,0.78693,0.00247422,0.0024279,0.550798,0.15733968927500652,1.1966423720052952,0.0024772834082984474,0.16620863013827014,0.002430849735943319,-0.2574157895583363
734,0.7228,593.546,578.208,-0.0174845,585.815,2.88214,2.84841,0.14628,0.153919,-0.297936,0.787774,0.00247969,0.00243325,0.551391,0.15752024834977507,1.1984971207611426,0.0024827669740363767,0.16639640484318052,0.002436212755335454,-0.2576511514462162
735,0.7238,593.645,578.311,-0.017792,585.916,2.88805,2.85447,0.146436,0.15408,-0.298253,0.788617,0.00248516,0.00243861,0.551985,0.15770083559395642,1.2003512352333923,0.0024882505697692014,0.16658420978225208,0.0024415858278354907,-0.257886438736202
736,0.7248,593.744,578.415,-0.0178055,586.017,2.89419,2.86052,0.146592,0.154241,-0.298569,0.78946,0.00249064,0.00244397,0.552578,0.1578814510119455,1.2022069133831392,0.0024937442204349125,0.16677204496035314,0.002446958929135601,-0.258120909573218
737,0.7258,593.842,578.517,-0.018095,586.118,2.90014,2.8666,0.146748,0.154402,-0.298885,0.790303,0.00249614,0.00244935,0.55317,0.15806209460813747,1.2040641565291197,0.002499257951190881,0.16695991038235247,0.0024523521082822075,-0.25835530632915493
738,0.7268,593.941,578.621,-0.0181276,586.219,2.90629,2.87267,0.146904,0.154562,-0.299201,0.791145,0.00250164,0.00245473,0.553763,0.1582427663869288,1.205920760069319,0.002504771712272591,0.1671466389058971,0.002457745316444271,-0.25858962902741867
739,0.7278,594.039,578.724,-0.0184013,586.32,2.91227,2.87877,0.147059,0.154723,-0.299517,0.791987,0.00250715,0.00246013,0.554355,0.1584223079298288,1.2077789275280164,0.002510295528782791,0.16733456464237695,0.0024631586028847074,-0.2588238776914078
740,0.7288,594.138,578.827,-0.018451,586.42,2.91843,2.88486,0.147215,0.154883,-0.299833,0.792828,0.00251267,0.00246553,0.554946,0.15860303590628155,1.2096364505850303,0.0025158294008875703,0.16752135311539895,0.0024685719185570942,-0.2590580523445135
741,0.7298,594.236,578.929,-0.0187109,586.521,2.92445,2.89098,0.14737,0.155044,-0.300148,0.793669,0.00251819,0.00247094,0.555537,0.15878263329528508,1.211495536476015,0.00252136330353947,0.16770933918572317,0.0024739952882015803,-0.2592914123019021
742,0.7308,594.333,579.032,-0.0187759,586.621,2.93062,2.8971,0.147526,0.155204,-0.300464,0.794509,0.00252373,0.00247636,0.556128,0.15896341748687948,1.2133539731607863,0.002526917287276609,0.1678961876274696,0.0024794287119804803,-0.25952543923741145
743,0.7318,594.431,579.135,-0.0190237,586.721,2.93667,2.90324,0.147681,0.155364,-0.300779,0.795348,0.00252927,0.00248178,0.556719,0.1591430707393573,1.215211756375349,0.0025324713017829126,0.16808306596735845,0.002484862165208712,-0.2597586519911146
744,0.7328,594.528,579.237,-0.0191023,586.821,2.94285,2.90937,0.147836,0.155525,-0.301094,0.796188,0.00253483,0.00248722,0.557309,0.15932275184024736,1.2170733159962852,0.002538045397819433,0.16827114248073238,0.0024903156976925356,-0.25999179129436933
745,0.7338,594.625,579.339,-0.0193396,586.921,2.94893,2.91554,0.147991,0.155685,-0.301408,0.797026,0.00254039,0.00249267,0.557899,0.15950246079386687,1.2189320021158037,0.002543619524847829,0.16845808081819746,0.0024957792848012694,-0.26022411739479634
746,0.7348,594.722,579.442,-0.0194303,587.021,2.95512,2.9217,0.148146,0.155845,-0.301723,0.797864,0.00254596,0.00249812,0.558488,0.15968219760453284,1.2207922464670977,0.0025492037083605368,0.16864504906818945,0.002501242901686851,-0.2604571100995394
747,0.7358,594.819,579.544,-0.0196586,587.12,2.96123,2.92788,0.148301,0.156004,-0.302037,0.798702,0.00255154,0.00250358,0.559078,0.1598619622765638,1.222654050356513,0.0025547979485252004,0.168830878404032,0.002506716573416057,-0.2606892901127984
748,0.7368,594.916,579.646,-0.0197601,587.22,2.96744,2.93406,0.148456,0.156164,-0.302351,0.79954,0.00255713,0.00250906,0.559667,0.1600417548142783,1.2245174150914915,0.0025604022455096853,0.1690179063064099,0.002512210325275932,-0.260921397232978
749,0.7378,595.012,579.748,-0.0199806,587.319,2.97358,2.94027,0.14861,0.156324,-0.302665,0.800376,0.00256273,0.00251454,0.560255,0.16022041500100093,1.2263778892203372,0.0025660165994825235,0.16920496413564612,0.002517704107241281,-0.2611534314829632
750,0.7388,595.109,579.85,-0.0200917,587.418,2.97981,2.94647,0.148765,0.156484,-0.302979,0.801213,0.00256834,0.00252003,0.560843,0.160400263103194,1.2282421475969083,0.0025716410106120247,0.16939205189652973,0.0025232079445449695,-0.26138539288563145
751,0.7398,595.205,579.952,-0.0203056,587.517,2.98597,2.9527,0.148919,0.156643,-0.303293,0.802048,0.00257396,0.00252553,0.561431,0.16057897850444447,1.2301035067994701,0.002577275479067387,0.1695780000152649,0.002528721837351755,-0.2616172814638533
752,0.7408,595.3,580.054,-0.0204252,587.616,2.99222,2.95892,0.149074,0.156802,-0.303606,0.802884,0.00257959,0.00253103,0.562019,0.16075888218828815,1.2319686528535763,0.002582920005017586,0.1697639777021016,0.0025342357604851706,-0.2618483590892202
753,0.7418,595.396,580.155,-0.0206336,587.714,2.99841,2.96517,0.149228,0.156962,-0.303919,0.803719,0.00258522,0.00253655,0.562606,0.1609376528211306,1.2338331249874952,0.002588564562746587,0.1699511549123114,0.0025397697647404627,-0.26207936439860835
754,0.7428,595.492,580.257,-0.0207608,587.813,3.00467,2.97142,0.149382,0.157121,-0.304233,0.804553,0.00259087,0.00254208,0.563193,0.1611164509867704,1.2356969189077684,0.002594229204138987,0.17013719193549393,0.0025453138249964535,-0.262311035103983
755,0.7438,595.587,580.358,-0.0209644,587.911,3.01089,2.97769,0.149536,0.15728,-0.304545,0.805387,0.00259652,0.00254761,0.563779,0.161295276689448,1.2375622678805378,0.0025998938775366742,0.1703232585409149,0.0025508579159114753,-0.26254115815996704
756,0.7448,595.682,580.459,-0.0210984,588.01,3.01717,2.98396,0.14969,0.157439,-0.304858,0.80622,0.00260218,0.00255316,0.564365,0.16147412993340438,1.239426933775205,0.0026055686089956342,0.1705093547332781,0.002556422088613397,-0.26277194665717907
757,0.7458,595.777,580.56,-0.0212981,588.108,3.02341,2.99025,0.149844,0.157598,-0.305171,0.807053,0.00260785,0.00255871,0.564951,0.16165301072288152,1.2412931535836775,0.002611253398685953,0.17069548051728844,0.0025619862921966163,-0.2630026629288952
758,0.7468,595.871,580.662,-0.0214382,588.206,3.02971,2.99655,0.149998,0.157757,-0.305483,0.807886,0.00261354,0.00256427,0.565537,0.16183191906212135,1.243160928600905,0.0026169582729480556,0.17088163589765126,0.0025675605523369782,-0.26323257023065727
759,0.7478,595.966,580.763,-0.0216346,588.304,3.03598,3.00286,0.150152,0.157916,-0.305795,0.808718,0.00261923,0.00256984,0.566122,0.16201085495536716,1.2450280150937787,0.002622663179671081,0.17106782087907257,0.0025731448692014602,-0.2634624058125301
760,0.7488,596.06,580.864,-0.0217802,588.401,3.0423,3.00918,0.150306,0.158075,-0.306107,0.80955,0.00262493,0.00257543,0.566707,0.1621898184068622,1.2468966556490142,0.002628378145138832,0.17125403546625972,0.0025787492687454616,-0.2636921696968868
761,0.7498,596.154,580.964,-0.021974,588.499,3.04859,3.01551,0.150459,0.158233,-0.306419,0.810381,0.00263063,0.00258102,0.567291,0.16236764705262297,1.2487646027944033,0.0026340931431820813,0.17143910822422637,0.0025843536996184024,-0.26392186190609346
762,0.7508,596.248,581.065,-0.0221245,588.596,3.05493,3.02186,0.150613,0.158392,-0.306731,0.811211,0.00263635,0.00258661,0.567875,0.16254666545433216,1.2506318522160371,0.0026398282265971407,0.1716253818507949,0.0025899581618200607,-0.2641514824625093
763,0.7518,596.342,581.166,-0.0223162,588.693,3.06125,3.02821,0.150766,0.15855,-0.307042,0.812041,0.00264208,0.00259222,0.568459,0.16272454870186825,1.2525006520980426,0.0026455733692727357,0.17181051328612562,0.002595582707262123,-0.26438029576915
764,0.7528,596.436,581.266,-0.0224711,588.791,3.06761,3.03458,0.150919,0.158709,-0.307353,0.812871,0.00264782,0.00259784,0.569043,0.16290245916762314,1.2543710037278366,0.002651328571381173,0.1719968459707939,0.0026012173102700764,-0.2646090379259167
765,0.7538,596.529,581.367,-0.0226611,588.888,3.07396,3.04095,0.151072,0.158867,-0.307664,0.8137,0.00265356,0.00260347,0.569626,0.16308039685576192,1.2562406521521239,0.0026570838065247404,0.17218203610209248,0.002606861971013341,-0.26483770895493375
766,0.7548,596.622,581.467,-0.0228201,588.984,3.08034,3.04734,0.151225,0.159025,-0.307975,0.814529,0.00265932,0.0026091,0.570209,0.1632583617704495,1.2581118511575822,0.002662859127960493,0.1723672554957434,0.002612506663536074,-0.26506630887831806
767,0.7558,596.715,581.567,-0.0230089,589.081,3.08671,3.05374,0.151378,0.159183,-0.308286,0.815357,0.00266508,0.00261475,0.570791,0.16343635391585232,1.2599823420467038,0.00266863448266208,0.17255250415637047,0.0026181714402016,-0.2652948377181804
768,0.7568,596.808,581.668,-0.0231715,589.178,3.09311,3.06015,0.151531,0.159341,-0.308596,0.816185,0.00267085,0.0026204,0.571373,0.16361437329613682,1.2618543823436483,0.0026744198973738253,0.17273778208859847,0.0026238362488733014,-0.2655225610195523
769,0.7578,596.901,581.768,-0.0233595,589.274,3.0995,3.06658,0.151684,0.159499,-0.308907,0.817012,0.00267664,0.00262607,0.571955,0.1637924199154701,1.2637257096050143,0.0026802253990720892,0.17292308929705236,0.0026295211421414333,-0.265750947987061
770,0.7588,596.993,581.868,-0.0235254,589.37,3.10593,3.07301,0.151837,0.159657,-0.309217,0.817839,0.00268243,0.00263174,0.572537,0.16397049377802042,1.2655985850941294,0.0026860309343841315,0.17310842578635843,0.0026352060676431144,-0.26597852991616344
771,0.7598,597.085,581.968,-0.0237129,589.467,3.11235,3.07946,0.15199,0.159815,-0.309527,0.818666,0.00268823,0.00263742,0.573118,0.16414859488795575,1.2674730100919076,0.002691846530228803,0.17329379156114322,0.002640901051787381,-0.26620604130580205
772,0.7608,597.177,582.068,-0.0238818,589.563,3.11879,3.08591,0.152142,0.159972,-0.309837,0.819491,0.00269404,0.00264311,0.573699,0.1643255589233048,1.2693444471868895,0.002697672186780631,0.1734780131474345,0.0026466060947452075,-0.2664334821778407
773,0.7618,597.269,582.167,-0.0240692,589.658,3.12523,3.09238,0.152295,0.16013,-0.310146,0.820317,0.00269986,0.00264881,0.574279,0.16450371436236355,1.2712197000730878,0.002703507904214586,0.1736634373216357,0.0026523211966880123,-0.2666601192146222
774,0.7628,597.361,582.267,-0.0242408,589.754,3.1317,3.09886,0.152447,0.160287,-0.310456,0.821142,0.00270569,0.00265452,0.574859,0.16468073237997527,1.2730942294627008,0.002709353682706084,0.1738477169468673,0.0026580463577872138,-0.26688741934432536
775,0.7638,597.452,582.367,-0.0244282,589.85,3.13817,3.10535,0.152599,0.160445,-0.310765,0.821966,0.00271153,0.00266024,0.575439,0.1648577773063704,1.2749680310079925,0.0027152095224307615,0.17403319953888374,0.0026637815782151186,-0.2671139161361914
776,0.7648,597.544,582.466,-0.0246024,589.945,3.14466,3.11186,0.152751,0.160602,-0.311074,0.822791,0.00271738,0.00266597,0.576019,0.16503484914563993,1.2768456540465811,0.0027210754235640344,0.1742175372213408,0.0026695268581438114,-0.2673403429513608
777,0.7658,597.635,582.566,-0.02479,590.041,3.15115,3.11837,0.152903,0.160759,-0.311383,0.823614,0.00272324,0.00267171,0.576598,0.16521194790187455,1.2787202693182347,0.00272695138628265,0.1744019038470861,0.0026752821977458208,-0.26756669981145287
778,0.7668,597.726,582.665,-0.0249667,590.136,3.15766,3.1249,0.153055,0.160916,-0.311692,0.824437,0.00272911,0.00267746,0.577177,0.1653890735791661,1.2805964280332969,0.0027328374107626896,0.17458629942066373,0.0026810475971938974,-0.2677929867380804
779,0.7678,597.817,582.764,-0.0251547,590.231,3.16418,3.13144,0.153207,0.161073,-0.312001,0.82526,0.00273499,0.00268322,0.577755,0.16556622618160688,1.282474131462544,0.002738733497181123,0.1747707239466192,0.002686823056661458,-0.2680192037528496
780,0.7688,597.907,582.863,-0.0253337,590.326,3.17071,3.13799,0.153359,0.16123,-0.312309,0.826082,0.00274087,0.00268898,0.578334,0.1657434057132896,1.284351096525561,0.0027446296182687124,0.1749551774294984,0.0026925985493955196,-0.2682446191223449
781,0.7698,597.998,582.962,-0.0255222,590.421,3.17725,3.14455,0.153511,0.161387,-0.312617,0.826904,0.00274677,0.00269476,0.578912,0.16592061217830834,1.2862296050881508,0.0027505458290362217,0.17513965987384772,0.0026983941293643454,-0.2684699650745971
782,0.7708,598.088,583.061,-0.0257033,590.515,3.18381,3.15112,0.153662,0.161544,-0.312925,0.827725,0.00275268,0.00270055,0.579489,0.16609667948349416,1.2881073703110784,0.0027564721022743655,0.17532417128421462,0.002704199769873794,-0.2686952416309836
783,0.7718,598.178,583.16,-0.0258926,590.61,3.19038,3.15771,0.153814,0.161701,-0.313233,0.828546,0.00275859,0.00270634,0.580066,0.1662739396502071,1.289986677812272,0.002762398410536715,0.17550871166514725,0.0027100054439979093,-0.2689204488128748
784,0.7728,598.268,583.259,-0.0260758,590.704,3.19696,3.1643,0.153965,0.161857,-0.313541,0.829366,0.00276452,0.00271215,0.580643,0.16645006031186949,1.2918652369920798,0.002768344809190193,0.17569210532850077,0.002715831206053343,-0.269145586641635
785,0.7738,598.357,583.358,-0.0262658,590.799,3.20354,3.17091,0.154117,0.162014,-0.313848,0.830186,0.00277045,0.00271796,0.58122,0.16662737419655094,1.293745337222159,0.0027742912431061306,0.17587670347961293,0.00272165700195659,-0.2693699245089115
786,0.7748,598.447,583.457,-0.026451,590.893,3.21015,3.17753,0.154268,0.16217,-0.314156,0.831006,0.0027764,0.00272378,0.581796,0.1668035482308594,1.29562697976669,0.0027802577678894824,0.17606015455416757,0.002727492858982661,-0.2695949239204747
787,0.7758,598.536,583.555,-0.026642,590.987,3.21676,3.18417,0.154419,0.162327,-0.314463,0.831825,0.00278235,0.00272962,0.582372,0.16697974886945555,1.2975078683818713,0.0027862243281735477,0.17624481049354457,0.0027333488046401566,-0.26981912386237905
788,0.7768,598.625,583.654,-0.026829,591.081,3.22339,3.19081,0.15457,0.162483,-0.31477,0.832643,0.00278831,0.00273546,0.582948,0.16715597611635724,1.2993879986866657,0.002792200951881041,0.17642831899727263,0.0027392047844967404,-0.27004325498546566
789,0.7778,598.714,583.752,-0.027021,591.174,3.23003,3.19747,0.154721,0.162639,-0.315077,0.833461,0.00279429,0.00274131,0.583523,0.16733222997558217,1.301269667567241,0.0027981976671727082,0.17661185613056052,0.002745070826002838,-0.2702673173108583
790,0.7788,598.803,583.85,-0.0272099,591.268,3.23668,3.20414,0.154872,0.162795,-0.315383,0.834279,0.00280027,0.00274717,0.584098,0.16750851045114956,1.3031528762826672,0.0028041944183250234,0.17679542189787445,0.002750946929334752,-0.270490581350621
791,0.7798,598.891,583.949,-0.027403,591.362,3.24334,3.21082,0.155023,0.162951,-0.31569,0.835096,0.00280626,0.00275305,0.584673,0.16768481754707842,1.3050353210565708,0.0028102012334401127,0.17697901630368174,0.0027568431222375622,-0.2707145063678975
792,0.7808,598.98,584.047,-0.0275937,591.455,3.25002,3.21751,0.155174,0.163107,-0.315996,0.835913,0.00281226,0.00275893,0.585247,0.16786115126738888,1.3069193044162817,0.0028162181126980546,0.17716263935245058,0.002762739349809973,-0.270937633588743
793,0.7818,599.068,584.145,-0.027788,591.548,3.2567,3.22421,0.155324,0.163263,-0.316302,0.836729,0.00281828,0.00276482,0.585821,0.16803634357917385,1.3088025188156647,0.00282225508450229,0.1773462910486494,0.002768645639738887,-0.2711606925431044
794,0.7828,599.156,584.243,-0.0279803,591.641,3.2634,3.23093,0.155475,0.163419,-0.316608,0.837545,0.0028243,0.00277072,0.586395,0.16821273038392293,1.310687270545143,0.0028282920926494537,0.17752997139674753,0.0027745619922012743,-0.2713836832518677
795,0.7838,599.244,584.341,-0.0281759,591.734,3.27011,3.23766,0.155625,0.163575,-0.316914,0.83836,0.00283033,0.00277663,0.586968,0.16838797543653095,1.312571248287285,0.002834339165482591,0.17771368040121538,0.0027804884073752145,-0.2716066057359131
796,0.7848,599.331,584.439,-0.02837,591.827,3.27684,3.2444,0.155775,0.16373,-0.317219,0.839175,0.00283637,0.00278255,0.587541,0.16856324677786838,1.3144567620971497,0.0028403963031837787,0.17789624016969396,0.0027864248854385654,-0.27182873184521006
797,0.7858,599.419,584.537,-0.0285668,591.92,3.28357,3.25115,0.155926,0.163886,-0.317525,0.839989,0.00284242,0.00278848,0.588114,0.16873971315100755,1.3163414968844869,0.002846463505934649,0.1780800063165473,0.0027923714265696287,-0.2720515181652201
798,0.7868,599.506,584.634,-0.0287626,592.012,3.29032,3.25792,0.156076,0.164041,-0.31783,0.840803,0.00284849,0.00279442,0.588686,0.16891503725695944,1.3182277664705193,0.0028525508024430657,0.17826262286994354,0.0027983280309469283,-0.2722735085969179
799,0.7878,599.593,584.732,-0.0289607,592.105,3.29708,3.26469,0.156226,0.164196,-0.318135,0.841617,0.00285456,0.00280037,0.589258,0.1690903876634997,1.320115572105082,0.002858638135901481,0.17844526773109948,0.002804294698749654,-0.2724954313318585
800,0.7888,599.68,584.83,-0.0291582,592.197,3.30386,3.27148,0.156376,0.164352,-0.31844,0.84243,0.00286064,0.00280633,0.58983,0.16926576437457386,1.3220025930352732,0.0028647355349573633,0.17862911953293326,0.0028102714301565523,-0.27271728639068593
801,0.7898,599.767,584.927,-0.0293577,592.289,3.31064,3.27828,0.156526,0.164507,-0.318745,0.843242,0.00286673,0.0028123,0.590402,0.16944116739412762,1.3238888248472938,0.002870842999793899,0.17881182120547479,0.002816258225347701,-0.2729390737940385
802,0.7908,599.853,585.025,-0.0295568,592.381,3.31744,3.2851,0.156676,0.164662,-0.319049,0.844054,0.00287283,0.00281828,0.590973,0.16961659672610763,1.3257765889015518,0.002876960530594719,0.17899455119897034,0.00282225508450229,-0.2731600667229779
803,0.7918,599.94,585.122,-0.0297578,592.473,3.32425,3.29192,0.156825,0.164817,-0.319353,0.844866,0.00287894,0.00282426,0.591543,0.16979088258299369,1.3276658864427335,0.002883088127543454,0.17917730951780997,0.0028282519795184147,-0.2733809924802776
804,0.7928,600.026,585.219,-0.0299585,592.565,3.33107,3.29876,0.156975,0.164972,-0.319658,0.845677,0.00288506,0.00283026,0.592114,0.16996636437618662,1.329554389160982,0.002889225790823957,0.17936009616638438,0.002834268967081277,-0.2736025774841403
805,0.7938,600.112,585.317,-0.0301609,592.657,3.33791,3.30561,0.157124,0.165127,-0.319962,0.846488,0.00289119,0.00283627,0.592684,0.17014070235233536,1.3314444240761567,0.0028953735206207476,0.17954291114908538,0.0028402960191491466,-0.273823368738614
806,0.7948,600.198,585.414,-0.0303633,592.749,3.34475,3.31248,0.157274,0.165282,-0.320266,0.847299,0.00289733,0.00284229,0.593254,0.17031623662242934,1.3333359924313735,0.0029015313171185664,0.1797257544703048,0.0028463331359027677,-0.27404409288274767
807,0.7958,600.284,585.511,-0.0305672,592.84,3.35161,3.31935,0.157423,0.165436,-0.320569,0.848108,0.00290348,0.00284832,0.593824,0.17049062673342674,1.3352244250172358,0.0029076991805023766,0.17990744622639943,0.0028523803175237727,-0.2742640242013268
808,0.7968,600.369,585.608,-0.0307712,592.931,3.35848,3.32624,0.157572,0.165591,-0.320873,0.848918,0.00290964,0.00285436,0.594393,0.17066504283048656,1.3371167230787533,0.0029138771109573636,0.180090346054935,0.0028584375641937942,-0.2744846144065596
809,0.7978,600.454,585.705,-0.0309766,593.023,3.36537,3.33314,0.157722,0.165745,-0.321176,0.849727,0.00291581,0.0028604,0.594962,0.17084065575755147,1.3390082155132519,0.0029200651086691565,0.18027209396245714,0.002864494847449661,-0.2747044122673369
810,0.7988,600.539,585.802,-0.0311822,593.114,3.37227,3.34005,0.157871,0.1659,-0.321479,0.850536,0.00292199,0.00286646,0.59553,0.17101512401282148,1.3409012387842694,0.0029262631738233846,0.18045505031577247,0.002870572224702883,-0.27492414353945105
811,0.7998,600.624,585.898,-0.0313891,593.205,3.37918,3.34698,0.15802,0.166054,-0.321782,0.851344,0.00292818,0.00287253,0.596099,0.17118961826579837,1.342793451336132,0.0029324713066065655,0.18063685439207555,0.0028766596675517953,-0.2751438082430754
812,0.8008,600.709,585.995,-0.0315964,593.295,3.3861,3.35392,0.158169,0.166208,-0.322085,0.852151,0.00293438,0.00287861,0.596667,0.17136413852035615,1.3446848487275598,0.0029386895072052166,0.18081868646836252,0.0028827571761789184,-0.2753634063983771
813,0.8018,600.794,586.092,-0.0318049,593.386,3.39304,3.36087,0.158317,0.166363,-0.322388,0.852959,0.0029406,0.0028847,0.597234,0.17153751324227007,1.3465801196716805,0.0029449278052549044,0.1810017275500826,0.0028888647507676612,-0.27558293802551737
814,0.8028,600.878,586.188,-0.0320138,593.477,3.39998,3.36783,0.158466,0.166517,-0.32269,0.853765,0.00294682,0.00289079,0.597802,0.1717120853370413,1.3484722256644193,0.002951166142107109,0.1811836158211626,0.00289497236255154,-0.27580167894669194
815,0.8038,600.962,586.285,-0.0322239,593.567,3.40695,3.37481,0.158615,0.166671,-0.322993,0.854572,0.00295305,0.0028969,0.598369,0.17188668344499258,1.3503682076763757,0.0029574145473358904,0.18136553210519346,0.0029011000695529088,-0.27602107779736673
816,0.8048,601.046,586.381,-0.0324345,593.658,3.41392,3.38179,0.158763,0.166825,-0.323295,0.855377,0.00295929,0.00290302,0.598935,0.17206013550927857,1.3522610158366244,0.0029636730211290985,0.18154747640648927,0.00290723784306679,-0.2762396864203084
817,0.8058,601.13,586.478,-0.0326462,593.748,3.42091,3.3888,0.158912,0.166979,-0.323597,0.856183,0.00296554,0.00290915,0.599502,0.17223478548056903,1.354157702477425,0.002969941563674805,0.18172944872936503,0.002913385683277925,-0.2764582290334139
818,0.8068,601.214,586.574,-0.0328584,593.838,3.42791,3.39581,0.15906,0.167132,-0.323898,0.856988,0.0029718,0.00291529,0.600068,0.17240828906776895,1.3560535624091616,0.0029762201751608597,0.18191026716727832,0.0029195435903708322,-0.2766759823329592
819,0.8078,601.297,586.67,-0.0330717,593.928,3.43492,3.40284,0.159208,0.167286,-0.3242,0.857792,0.00297807,0.00292143,0.600633,0.17258181833539998,1.35794859117282,0.0029825088557764445,0.18209229536423366,0.002925701535273273,-0.27689439320459297
820,0.8088,601.381,586.766,-0.0332856,594.018,3.44194,3.40988,0.159357,0.16744,-0.324502,0.858597,0.00298435,0.00292759,0.601199,0.172756546043223,1.3598475039985813,0.0029888076057100754,0.18227435159568972,0.0029318795766231087,-0.2771127381261026
821,0.8098,601.464,586.863,-0.0335005,594.107,3.44898,3.41693,0.159505,0.167593,-0.324803,0.8594,0.00299065,0.00293376,0.601764,0.17293012685670073,1.3617432225734354,0.0029951264551024703,0.1824552534101198,0.002938067685410495,-0.27733029444805757
822,0.8108,601.547,586.959,-0.0337161,594.197,3.45603,3.42399,0.159653,0.167747,-0.325104,0.860203,0.00299695,0.00293994,0.602329,0.17310373336204,1.3636404640216568,0.003001445344303466,0.18263736554141907,0.0029442658618210604,-0.27754778529541413
823,0.8118,601.63,587.055,-0.0339327,594.287,3.4631,3.43107,0.1598,0.1679,-0.325405,0.861006,0.00300326,0.00294613,0.602893,0.17327619228626467,1.365539229566604,0.003007774303391386,0.1828183229012319,0.002950474106041323,-0.2777652106878771
824,0.8128,601.712,587.151,-0.03415,594.376,3.47017,3.43816,0.159948,0.168054,-0.325706,0.861809,0.00300959,0.00295233,0.603458,0.1734498500130779,1.3674395204326184,0.003014123362697463,0.1830004909495384,0.002956692418257356,-0.2779825706451453
825,0.8138,601.795,587.246,-0.0343683,594.465,3.47727,3.44527,0.160096,0.168207,-0.326006,0.86261,0.00301592,0.00295854,0.604021,0.17362353344313664,1.3693365991670872,0.003020472462193391,0.18318150387178922,0.0029629207986565653,-0.27819914338641627
826,0.8148,601.877,587.342,-0.0345873,594.554,3.48437,3.45239,0.160244,0.16836,-0.326307,0.863412,0.00302226,0.00296476,0.604585,0.1737972425802452,1.3712375693067527,0.003026831632147342,0.18336254449113576,0.002969159247425468,-0.27841637274959774
827,0.8158,601.959,587.438,-0.0348072,594.643,3.49149,3.45952,0.160391,0.168513,-0.326607,0.864213,0.00302862,0.00297099,0.605148,0.17396980345781832,1.3731376914971114,0.003033210903082617,0.1835436128118162,0.002975407764751692,-0.2786328153697565
828,0.8168,602.041,587.534,-0.0350279,594.732,3.49862,3.46666,0.160539,0.168666,-0.326907,0.865014,0.00303498,0.00297723,0.605711,0.17414356384668173,1.375039336295067,0.0030395902145901044,0.18372470883806913,0.0029816663508228647,-0.2788491930668682
829,0.8178,602.123,587.629,-0.0352496,594.821,3.50576,3.47382,0.160686,0.168819,-0.327207,0.865814,0.00304136,0.00298348,0.606274,0.1743161756372229,1.3769401279794016,0.00304598962758984,0.18390583257413384,0.002987935005827058,-0.2790655058604068
830,0.8188,602.204,587.725,-0.0354721,594.91,3.51292,3.48098,0.160833,0.168972,-0.327507,0.866613,0.00304774,0.00298974,0.606836,0.17448881280356243,1.3788400620642474,0.0030523890814178056,0.18408698402425028,0.002994213729952566,-0.2792817537698403
831,0.8198,602.286,587.82,-0.0356954,594.998,3.52009,3.48817,0.160981,0.169125,-0.327807,0.867413,0.00305414,0.00299601,0.607398,0.1746626500114934,1.3807438955457534,0.0030588086372504986,0.18426816319265882,0.0030005025233879046,-0.2794979368146313
832,0.8208,602.367,587.916,-0.0359196,595.087,3.52727,3.49536,0.161128,0.169277,-0.328106,0.868211,0.00306054,0.00300229,0.60796,0.17483533811330965,1.382644487409694,0.003065228234168549,0.18444818563482324,0.0030068013863222554,-0.27971333472793103
833,0.8218,602.448,588.011,-0.0361448,595.175,3.53446,3.50257,0.161275,0.16943,-0.328405,0.86901,0.00306696,0.00300858,0.608521,0.1750080516021426,1.384548981099044,0.003071667933605138,0.18462942007130612,0.0030131103189445785,-0.279928668246882
834,0.8228,602.529,588.106,-0.0363707,595.263,3.54167,3.50979,0.161422,0.169582,-0.328704,0.869808,0.00307339,0.00301489,0.609083,0.17518079048172486,1.3864526106331252,0.0030781177051659725,0.18480949742868957,0.003019439351638731,-0.2801439373907354
835,0.8238,602.609,588.202,-0.0365976,595.351,3.5489,3.51703,0.161568,0.169735,-0.329003,0.870605,0.00307982,0.0030212,0.609643,0.17535237940282156,1.3883553715132897,0.0030845675181989662,0.1849907871501062,0.0030257684242691596,-0.2803591421787365
836,0.8248,602.69,588.297,-0.0368253,595.439,3.55613,3.52428,0.161715,0.169887,-0.329302,0.871402,0.00308627,0.00302752,0.610204,0.17552516890231074,1.3902596494983617,0.003091037434524768,0.18517091943946018,0.003032107567157327,-0.28057428263012474
837,0.8258,602.77,588.392,-0.037054,595.527,3.56338,3.53154,0.161862,0.170039,-0.329601,0.872199,0.00309273,0.00303386,0.610764,0.1756979838037236,1.3921654457979558,0.003097517423557017,0.18535107911100313,0.003038466810878049,-0.2807893587641339
838,0.8268,602.85,588.487,-0.0372835,595.615,3.57065,3.53882,0.162008,0.170192,-0.329899,0.872995,0.0030992,0.0030402,0.611324,0.17586964824055795,1.3940703675510862,0.0031040074854900013,0.18553245170075638,0.0030448260949165196,-0.2810036516040032
839,0.8278,602.93,588.582,-0.037514,595.702,3.57792,3.54611,0.162155,0.170344,-0.330197,0.873791,0.00310568,0.00304655,0.611884,0.17604251378415547,1.3959768062255868,0.0031105076205188986,0.18571266632937977,0.003051195449784938,-0.28121788059412034
840,0.8288,603.01,588.677,-0.0377453,595.79,3.58522,3.55341,0.162301,0.170496,-0.330496,0.874586,0.00311217,0.00305292,0.612443,0.17621422852603907,1.3978823651458434,0.003117017828839108,0.18589290835270855,0.00305758490625041,-0.28143276432110464
841,0.8298,603.09,588.772,-0.0379775,595.877,3.59252,3.56073,0.162448,0.170648,-0.330793,0.875381,0.00311867,0.0030593,0.613002,0.17638714472666162,1.399789439587782,0.003123538110645807,0.18607317777490717,0.0030639844340565325,-0.28164614710118996
842,0.8308,603.169,588.867,-0.0382107,595.965,3.59984,3.56806,0.162594,0.1708,-0.331091,0.876176,0.00312518,0.00306568,0.61356,0.17655890978833622,1.4016980307567208,0.003130068466135283,0.18625347460014052,0.003070384002691773,-0.28186018465617413
843,0.8318,603.248,588.961,-0.0384448,596.052,3.60717,3.5754,0.16274,0.170952,-0.331389,0.87697,0.0031317,0.00307208,0.614119,0.17673069992954038,1.4036057362519996,0.003136608895503379,0.18643379883257416,0.003076803673692341,-0.28207415843746964
844,0.8328,603.327,589.056,-0.0386797,596.139,3.61452,3.58276,0.162886,0.171103,-0.331686,0.877764,0.00313824,0.00307849,0.614677,0.1769025151539363,1.4055149570669436,0.003143169430378512,0.18661296386281734,0.0030832334166113196,-0.2822873507517879
845,0.8338,603.406,589.151,-0.0389156,596.226,3.62188,3.59013,0.163032,0.171255,-0.331984,0.878557,0.00314478,0.0030849,0.615235,0.17707435546518635,1.4074232869807042,0.003149730008159546,0.18679334274177184,0.0030896632007448854,-0.2825011972565522
846,0.8348,603.485,589.245,-0.0391525,596.312,3.62925,3.59751,0.163178,0.171407,-0.332281,0.879349,0.00315133,0.00309133,0.615792,0.17724622086695319,1.4093307214683448,0.0031563006604100607,0.18697374904039998,0.0030961130880156063,-0.28271426275917366
847,0.8358,603.564,589.34,-0.0393903,596.399,3.63664,3.60491,0.163324,0.171558,-0.332578,0.880142,0.0031579,0.00309777,0.616349,0.17741811136290075,1.4112420784833626,0.003162891418956093,0.18715299560928056,0.00310257304778494,-0.28292726499073706
848,0.8368,603.642,589.435,-0.0396289,596.486,3.64404,3.61232,0.163469,0.17171,-0.332874,0.880934,0.00316447,0.00310422,0.616906,0.1775888493672544,1.4131525386518846,0.003169482220803488,0.18733345657929945,0.0031090430802469537,-0.2831394871098767
849,0.8378,603.72,589.529,-0.0398686,596.572,3.65145,3.61975,0.163615,0.171861,-0.333171,0.881725,0.00317106,0.00311068,0.617463,0.17776078989061483,1.4150620974408947,0.0031760931294742,0.18751275746811924,0.0031155231855959364,-0.2833523630685604
850,0.8388,603.798,589.623,-0.0401092,596.659,3.65888,3.62718,0.16376,0.172012,-0.333468,0.882516,0.00317766,0.00311715,0.618019,0.17793157758695766,1.4169731672884516,0.0031827141135380987,0.18769208543341764,0.0031220133640266212,-0.2835651758124722
851,0.8398,603.876,589.718,-0.0403507,596.745,3.66632,3.63464,0.163906,0.172163,-0.333764,0.883307,0.00318427,0.00312363,0.618575,0.17810356815229111,1.418885749390276,0.0031893451731939138,0.18787144047928317,0.0031285136157341853,-0.28377720913795146
852,0.8408,603.954,589.812,-0.0405932,596.831,3.67378,3.6421,0.164051,0.172315,-0.33406,0.884097,0.00319089,0.00313013,0.61913,0.17827440555508556,1.420797424144399,0.003195986308641041,0.18805201066122224,0.0031350339722637788,-0.28398917971085413
853,0.8418,604.031,589.906,-0.0408366,596.917,3.68125,3.64959,0.164196,0.172466,-0.334356,0.884887,0.00319752,0.00313663,0.619686,0.17844526773109948,1.4227106097182731,0.003202637520079099,0.18823142005990068,0.003141554371175914,-0.2842010875497524
854,0.8428,604.109,590.0,-0.041081,597.003,3.68874,3.65708,0.164342,0.172617,-0.334652,0.885676,0.00320416,0.00314315,0.620241,0.1786173333006693,1.4246228826818226,0.0032092988077077056,0.18841085655144396,0.003148094875432328,-0.28441293267321255
855,0.8438,604.186,590.095,-0.0413264,597.089,3.69623,3.66459,0.164487,0.172768,-0.334947,0.886465,0.00321081,0.00314967,0.620795,0.1787882452048115,1.4265366650241118,0.003215970171726923,0.18859032013994326,0.003154635422333074,-0.2846239997241533
856,0.8448,604.263,590.189,-0.0415727,597.174,3.70375,3.67211,0.164632,0.172918,-0.335243,0.887254,0.00321747,0.00315621,0.62135,0.17895918189297655,1.4284519579365105,0.0032226516123374793,0.18876862206027378,0.003161196075102124,-0.284835719684135
857,0.8458,604.34,590.283,-0.04182,597.26,3.71127,3.67965,0.164776,0.173069,-0.335538,0.888042,0.00322414,0.00316275,0.621904,0.17912896423920466,1.4303663322437816,0.003229343129739881,0.18894813967544377,0.003167756770777963,-0.28504666203130224
858,0.8468,604.416,590.377,-0.0420683,597.345,3.71882,3.6872,0.164921,0.17322,-0.335833,0.888829,0.00323083,0.00316931,0.622458,0.17929995033521173,1.432279783391523,0.0032360547564957987,0.18912768439982042,0.003174337572847241,-0.2852575421596547
859,0.8478,604.493,590.471,-0.0423176,597.431,3.72637,3.69477,0.165066,0.17337,-0.336128,0.889616,0.00323752,0.00317588,0.623011,0.17947096122600037,1.4341947410180396,0.003242766428152688,0.18930606693083574,0.0031809284498962587,-0.2854683600875444
860,0.8488,604.569,590.565,-0.0425678,597.516,3.73394,3.70234,0.165211,0.173521,-0.336423,0.890403,0.00324423,0.00318246,0.623565,0.1796419969151659,1.4361112063093961,0.003249498209700441,0.18948566570630865,0.003187529402122413,-0.28567911583331773
861,0.8498,604.645,590.658,-0.042819,597.601,3.74153,3.70994,0.165355,0.173671,-0.336718,0.89119,0.00325095,0.00318905,0.624117,0.17981187759383688,1.4380291804525926,0.0032562400689810644,0.18966410193854744,0.0031941404297244347,-0.2858898094153155
862,0.8508,604.721,590.752,-0.0430713,597.686,3.74913,3.71755,0.1655,0.173822,-0.337012,0.891976,0.00325768,0.00319565,0.62467,0.1799829627194598,1.4399462246881178,0.003262992006197063,0.18984375478138826,0.003200761532901053,-0.2860997269519575
863,0.8518,604.797,590.846,-0.0433245,597.771,3.75674,3.72517,0.165644,0.173972,-0.337307,0.892761,0.00326442,0.00320226,0.625222,0.18015289250074207,1.441862334449183,0.0032697540215511633,0.19002224473101714,0.003207392711850776,-0.2863102964719755
864,0.8528,604.872,590.94,-0.0435787,597.856,3.76437,3.73281,0.165788,0.174122,-0.337601,0.893546,0.00327117,0.00320888,0.625774,0.18032284675367483,1.4437799489469425,0.0032765261152465364,0.1902007614561465,0.003214033966773,-0.2865200904035935
865,0.8538,604.948,591.033,-0.043834,597.941,3.77201,3.74046,0.165932,0.174273,-0.337895,0.894331,0.00327793,0.00321552,0.626326,0.18049282548178192,1.4456990693630782,0.003283308287486797,0.19038049534069312,0.003220695330074186,-0.2867298226648618
866,0.8548,605.023,591.127,-0.0440902,598.025,3.77967,3.74812,0.166077,0.174423,-0.338189,0.895115,0.0032847,0.00322216,0.626878,0.18066400935200755,1.4476172492617274,0.003290100538475782,0.1905590658074443,0.003227356737607101,-0.28693949327390855
867,0.8558,605.098,591.221,-0.0443475,598.11,3.78734,3.7558,0.166221,0.174573,-0.338483,0.895899,0.00329148,0.00322882,0.627429,0.18083403721106617,1.4495369336030817,0.0032969028684171064,0.19073766306177475,0.0032340382540523294,-0.2871491022488568
868,0.8568,605.173,591.314,-0.0446058,598.194,3.79503,3.7635,0.166365,0.174723,-0.338776,0.896682,0.00329828,0.00323549,0.62798,0.18100408955589953,1.4514556721101886,0.0033037253105530073,0.1909162871077026,0.003240729847403978,-0.2873579369661179
869,0.8578,605.248,591.407,-0.0448651,598.278,3.80273,3.7712,0.166508,0.174872,-0.33907,0.897465,0.00330509,0.00324216,0.62853,0.18117298521645808,1.453375913577879,0.0033105578321870333,0.19109374685490432,0.0032474214853885908,-0.28756742293670323
870,0.8588,605.323,591.501,-0.0451254,598.362,3.81044,3.77893,0.166652,0.175022,-0.339363,0.898248,0.0033119,0.00324885,0.62908,0.18134308637331853,1.4552976591834317,0.003317390400350728,0.19127242431740732,0.003254133233089096,-0.28777613510395716
871,0.8598,605.397,591.594,-0.0453868,598.447,3.81818,3.78667,0.166796,0.175172,-0.339656,0.89903,0.00331873,0.00325555,0.62963,0.18151321202650927,1.4572184528853662,0.0033242430815290103,0.19145112858353985,0.003260855058299983,-0.287984786127504
872,0.8608,605.471,591.688,-0.0456492,598.531,3.82592,3.79442,0.166939,0.175322,-0.339949,0.899812,0.00332557,0.00326227,0.63018,0.18168218049678675,1.4591407492354342,0.0033311058428222573,0.1916298596573227,0.0032675969938988914,-0.2881933760252563
873,0.8618,605.545,591.781,-0.0459126,598.614,3.83368,3.80219,0.167083,0.175471,-0.340241,0.900593,0.00333242,0.00326899,0.630729,0.1818523549830473,1.461062088345848,0.0033379786844367487,0.19180742573475595,0.003274338974803559,-0.28840119321667046
874,0.8628,605.619,591.874,-0.0461771,598.698,3.84146,3.80997,0.167226,0.175621,-0.340534,0.901374,0.00333928,0.00327572,0.631278,0.1820213719542354,1.4629849286082308,0.003344861606578986,0.19198621025712015,0.0032810910338256782,-0.28860966112501796
875,0.8638,605.693,591.967,-0.0464427,598.782,3.84925,3.81777,0.16737,0.17577,-0.340826,0.902154,0.00334616,0.00328247,0.631827,0.18219159528758255,1.4649068062874009,0.003351764642973265,0.19216382943474852,0.00328786320404606,-0.2888173567789283
876,0.8648,605.766,592.061,-0.0467093,598.865,3.85705,3.82558,0.167513,0.175919,-0.341119,0.902934,0.00335304,0.00328922,0.632376,0.1823606607736028,1.466830183615948,0.0033586677268606646,0.1923414750796062,0.0032946354199789862,-0.2890257027692139
877,0.8658,605.84,592.154,-0.046977,598.949,3.86487,3.83341,0.167656,0.176069,-0.341411,0.903714,0.00335994,0.00329599,0.632924,0.18252975043771635,1.4687550617640546,0.003365590925552997,0.19252033971538052,0.00330142774765263,-0.2892332769566991
878,0.8668,605.913,592.247,-0.0472457,599.032,3.87271,3.84125,0.167799,0.176218,-0.341703,0.904493,0.00336685,0.00330277,0.633472,0.18269886428338067,1.4706789712226107,0.0033725242057407456,0.19269803848422762,0.003308230154392966,-0.28944079054136984
879,0.8678,605.986,592.34,-0.0475155,599.115,3.88056,3.8491,0.167942,0.176367,-0.341995,0.905272,0.00337377,0.00330956,0.634019,0.1828680023140541,1.47260437999054,0.0033794675676321884,0.19287576373216386,0.0033150426404040534,-0.2896482435409198
880,0.8688,606.059,592.433,-0.0477864,599.198,3.88842,3.85698,0.168085,0.176516,-0.342286,0.906051,0.0033807,0.00331636,0.634567,0.1830371645331954,1.47453128923626,0.003386421011436047,0.19305351546313498,0.0033218652058908393,-0.28985492582831807
881,0.8698,606.131,592.526,-0.0480584,599.281,3.89631,3.86486,0.168228,0.176665,-0.342578,0.906829,0.00338764,0.00332318,0.635114,0.18320635094426385,1.4764572236706361,0.003393384537361266,0.19323129368108738,0.003328707884344917,-0.290062257918018
882,0.8708,606.204,592.619,-0.0483314,599.364,3.9042,3.87276,0.16837,0.176814,-0.342869,0.907606,0.00339459,0.00333,0.63566,0.1833743781757491,1.478382178681604,0.0034003581456170107,0.19340909838996767,0.003335550609466331,-0.2902688197447604
883,0.8718,606.276,592.712,-0.0486056,599.447,3.91211,3.88068,0.168513,0.176963,-0.34316,0.908383,0.00340156,0.00333684,0.636207,0.1835436128118162,1.4803086299638415,0.0034073518704864636,0.1935869295937236,0.0033424134481034873,-0.2904753214707563
884,0.8728,606.348,592.804,-0.0488808,599.529,3.92004,3.88861,0.168656,0.177112,-0.343451,0.90916,0.00340853,0.00334368,0.636753,0.1837128716501668,1.482236578680403,0.003414345644102257,0.19376478729630287,0.003349276333682427,-0.2906817631134925
885,0.8738,606.42,592.897,-0.0491571,599.612,3.92798,3.89656,0.168798,0.17726,-0.343742,0.909936,0.00341552,0.00335054,0.637299,0.18388097081269916,1.4841635418304637,0.0034213595348919768,0.19394147755957958,0.0033561593333268913,-0.29088814469045066
886,0.8748,606.492,592.99,-0.0494346,599.695,3.93594,3.90452,0.16894,0.177409,-0.344033,0.910712,0.00342252,0.00335741,0.637844,0.18404909384700763,1.4860920008842644,0.0034283835089925496,0.19411938809374174,0.0033630524138190676,-0.2910944662191073
887,0.8758,606.564,593.083,-0.0497131,599.777,3.94391,3.9125,0.169083,0.177558,-0.344323,0.911488,0.00342953,0.00336429,0.63839,0.18421842497431484,1.488021957003077,0.00343541756661514,0.19429732513854825,0.0033699555753665678,-0.2913000190173075
888,0.8768,606.635,593.175,-0.0499928,599.859,3.9519,3.92049,0.169225,0.177706,-0.344614,0.912263,0.00343656,0.00337118,0.638935,0.18438659593051643,1.4899509213969084,0.0034424717423962026,0.19447409422325834,0.0033768688181765594,-0.2915062207079723
889,0.8778,606.707,593.268,-0.0502735,599.941,3.95991,3.9285,0.169367,0.177855,-0.344904,0.913038,0.00344359,0.00337809,0.639479,0.1845547907686893,1.4918813813175866,0.003449525967768041,0.19465208412321577,0.003383802176294859,-0.29171165411468325
890,0.8788,606.778,593.361,-0.0505554,600.023,3.96793,3.93653,0.169509,0.178003,-0.345194,0.913812,0.00345064,0.003385,0.640024,0.1847230094922252,1.4938108441125038,0.003456600311863234,0.1948289057161412,0.0033907355823228347,-0.29191702795434393
891,0.8798,606.849,593.453,-0.0508385,600.105,3.97596,3.94457,0.169651,0.178151,-0.345484,0.914586,0.00345769,0.00339193,0.640568,0.18489125210451585,1.4957418008897205,0.0034636747058325312,0.1950057534805989,0.00339768910421423,-0.2921223422442263
892,0.8808,606.919,593.546,-0.0511226,600.187,3.98401,3.95262,0.169793,0.178299,-0.345773,0.915359,0.00346476,0.00339887,0.641112,0.18505951860895387,1.4976717551330228,0.0034707692190918404,0.19518262742046288,0.003404652708340228,-0.2923268893288403
893,0.8818,606.99,593.638,-0.0514079,600.269,3.99208,3.96069,0.169934,0.178448,-0.346063,0.916132,0.00347184,0.00340582,0.641655,0.1852266237817155,1.4996032018077057,0.0034778738172880352,0.19536072289973205,0.0034116263949102166,-0.292532084776157
894,0.8828,607.06,593.731,-0.0516944,600.351,4.00016,3.96878,0.170076,0.178596,-0.346352,0.916905,0.00347894,0.00341278,0.642198,0.18539493791231298,1.5015361420678648,0.0034849985354850066,0.1955376493789578,0.003418610164133362,-0.2927365134622887
895,0.8838,607.131,593.823,-0.051982,600.432,4.00826,3.97688,0.170218,0.178744,-0.346642,0.917677,0.00348604,0.00341976,0.642741,0.18556327594521393,1.5034680735991621,0.0034921233042675137,0.19571460204524027,0.0034256140504758115,-0.29294159013582977
896,0.8848,607.201,593.915,-0.0522707,600.513,4.01638,3.985,0.170359,0.178892,-0.346931,0.918449,0.00349316,0.00342674,0.643284,0.18573045215276807,1.5054014971574499,0.00349926819362123,0.1958915809024553,0.0034326179857055994,-0.29314590049201195
897,0.8858,607.271,594.008,-0.0525606,600.595,4.02451,3.99313,0.170501,0.179039,-0.34722,0.91922,0.00350029,0.00343374,0.643826,0.18589883783207384,1.5073339065598579,0.0035064231689108105,0.19606738988649175,0.0034396420386157978,-0.2933501518110325
898,0.8868,607.34,594.1,-0.0528517,600.676,4.03265,4.00128,0.170642,0.179187,-0.347509,0.919991,0.00350743,0.00344075,0.644368,0.18606606135718962,1.5092678064244143,0.0035135882303514165,0.19624442096017125,0.003446676175161034,-0.29355434410995085
899,0.8878,607.41,594.192,-0.0531439,600.757,4.04082,4.00945,0.170783,0.179335,-0.347797,0.920762,0.00351458,0.00344777,0.64491,0.18623330846248498,1.5112031979007083,0.0035207633781584313,0.19642147823638867,0.003453720395552917,-0.2937577711639453
900,0.8888,607.479,594.285,-0.0534373,600.838,4.049,4.01763,0.170924,0.179483,-0.348086,0.921532,0.00352174,0.0034548,0.645452,0.1864005791512846,1.5131375690003916,0.00352794861254746,0.196598561719022,0.0034607747000032774,-0.2939618456778913
901,0.8898,607.549,594.377,-0.0537319,600.919,4.05719,4.02583,0.171065,0.17963,-0.348374,0.922302,0.00352892,0.00346185,0.645993,0.18656787342691405,1.5150734301394126,0.003535153969085547,0.19677447463687736,0.0034678491234021447,-0.29416515538833243
902,0.8908,607.618,594.469,-0.0540277,601.0,4.0654,4.03404,0.171206,0.179778,-0.348662,0.923071,0.0035361,0.0034689,0.646534,0.18673519129269978,1.51700826545602,0.0035423593773584727,0.19695161036684428,0.003474923596676005,-0.29436840655400787
903,0.8918,607.687,594.561,-0.0543247,601.081,4.07363,4.04227,0.171347,0.179925,-0.34895,0.92384,0.0035433,0.00347597,0.647075,0.18690253275196755,1.518944589233226,0.0035495849083579945,0.19712757518666568,0.0034820181894650304,-0.294571599191776
904,0.8928,607.755,594.653,-0.0546228,601.161,4.08187,4.05051,0.171488,0.180073,-0.349238,0.924609,0.00355051,0.00348305,0.647615,0.18706989780804473,1.5208824026160963,0.003556820526949389,0.1973047631793814,0.003489122867304406,-0.29477473331849047
905,0.8938,607.824,594.745,-0.0549222,601.242,4.09013,4.05877,0.171629,0.18022,-0.349526,0.925377,0.00355774,0.00349014,0.648155,0.18723728646425863,1.5228191839301335,0.0035640762689912453,0.19748077991648194,0.003496237630407295,-0.294977808951
906,0.8948,607.892,594.838,-0.0552228,601.322,4.09841,4.06705,0.171769,0.180367,-0.349813,0.926145,0.00356497,0.00349724,0.648695,0.18740351131983202,1.524757453263546,0.0035713320634924717,0.19765682252994465,0.0035033624789877482,-0.2951801212866222
907,0.8958,607.961,594.93,-0.0555246,601.403,4.1067,4.07535,0.17191,0.180514,-0.350101,0.926912,0.00357222,0.00350436,0.649234,0.18757094701886756,1.5266946850636236,0.0035786079820250283,0.19783289102357382,0.0035105074483645637,-0.29538308018420756
908,0.8968,608.029,595.022,-0.0558275,601.483,4.11501,4.08366,0.17205,0.180661,-0.350388,0.927679,0.00357948,0.00351149,0.649773,0.18773721859018866,1.5286334032904634,0.0035858939891670882,0.19800898540117395,0.0035176625037904863,-0.29558527622367514
909,0.8978,608.096,595.114,-0.0561318,601.563,4.12334,4.09198,0.172191,0.180808,-0.350675,0.928445,0.00358675,0.00351863,0.650312,0.1879047013452666,1.5305710785122484,0.0035931900851378096,0.19818510566655023,0.003524827645480233,-0.2957874142412059
910,0.8988,608.164,595.206,-0.0564372,601.643,4.13168,4.10033,0.172331,0.180955,-0.350962,0.929212,0.00359403,0.00352578,0.650851,0.18807101964546424,1.532512771073375,0.0036004962701561283,0.19836125182350872,0.003532002873649409,-0.2959894942534499
911,0.8998,608.232,595.297,-0.0567439,601.723,4.14004,4.10869,0.172471,0.181102,-0.351249,0.929977,0.00360133,0.00353294,0.651389,0.18823736123185397,1.5344508845771423,0.003607822580519837,0.19853742387585527,0.003539188188513398,-0.296191516277052
912,0.9008,608.299,595.389,-0.0570518,601.803,4.14841,4.11706,0.172611,0.181249,-0.351536,0.930743,0.00360864,0.00354012,0.651928,0.18840372610769607,1.5363930176967497,0.003615158980517341,0.19871362182739727,0.0035463936257520423,-0.29639348032865287
913,0.9018,608.366,595.481,-0.057361,601.883,4.15681,4.12545,0.172751,0.181396,-0.351822,0.931508,0.00361596,0.0035473,0.652465,0.18857011427625103,1.5383341007248816,0.0036225054703693527,0.1988898456819419,0.0035535991147259693,-0.29659468301992253
914,0.9028,608.433,595.573,-0.0576714,601.962,4.16522,4.13386,0.172891,0.181543,-0.352108,0.932272,0.00362329,0.0035545,0.653003,0.18873652574078048,1.5402741289742612,0.00362986205029614,0.19906609544329723,0.0035608247266516457,-0.29679582817545047
915,0.9038,608.5,595.665,-0.057983,602.042,4.17364,4.14229,0.173031,0.181689,-0.352395,0.933036,0.00363063,0.00356171,0.65354,0.1889029605045458,1.5422156399715607,0.0036372287205193032,0.19924117187350032,0.00356806042628266,-0.2969976188144223
916,0.9048,608.567,595.757,-0.0582959,602.121,4.18209,4.15073,0.173171,0.181836,-0.352681,0.9338,0.00363799,0.00356894,0.654077,0.18906941857080928,1.544158634850033,0.003644615517706118,0.19941747328360182,0.0035753162495892887,-0.2971986487467908
917,0.9058,608.633,595.848,-0.0586101,602.201,4.19055,4.15919,0.173311,0.181982,-0.352967,0.934563,0.00364536,0.00357617,0.654614,0.18923589994283319,1.546100568641954,0.0036520124057799475,0.1995926010187148,0.003582572125355732,-0.2973996211928195
918,0.9068,608.7,595.94,-0.0589256,602.28,4.19902,4.16767,0.17345,0.182129,-0.353252,0.935326,0.00365274,0.00358342,0.65515,0.18940121522207098,1.5480439846947687,0.0036594193849632806,0.1997689540926979,0.0035898481253791026,-0.29759983376913224
919,0.9078,608.766,596.032,-0.0592423,602.359,4.20752,4.17616,0.17359,0.182275,-0.353538,0.936089,0.00366013,0.00359068,0.655686,0.18956774304887802,1.5499888841398741,0.003666836455478384,0.1999441331477554,0.0035971342141249973,-0.29780069149265076
920,0.9088,608.832,596.123,-0.0595603,602.438,4.21603,4.18467,0.173729,0.182421,-0.353823,0.936851,0.00366754,0.00359795,0.656222,0.18973310445751346,1.5519327161755383,0.0036742736542914045,0.20011933778082192,0.003604430391812352,-0.29800078978021494
921,0.9098,608.897,596.215,-0.0598796,602.517,4.22456,4.1932,0.173869,0.182568,-0.354109,0.937613,0.00367496,0.00360524,0.656758,0.18989967875206615,1.553878029975694,0.003681720945031275,0.20029576829080042,0.0036117466947778176,-0.2982015328467109
922,0.9108,608.963,596.307,-0.0602002,602.596,4.2331,4.20174,0.174008,0.182714,-0.354394,0.938374,0.00368239,0.00361254,0.657293,0.19006508630297114,1.5558222708463276,0.003689178327922038,0.20047102426634567,0.0036190730872698307,-0.2984015169107669
923,0.9118,609.029,596.398,-0.0605221,602.675,4.24167,4.2103,0.174147,0.18286,-0.354679,0.939135,0.00368983,0.00361985,0.657828,0.19023051684712367,1.5577679918473821,0.003696645803187737,0.20064630583113163,0.0036264095695091036,-0.29860144398748567
924,0.9128,609.094,596.49,-0.0608453,602.753,4.25025,4.21888,0.174286,0.183006,-0.354963,0.939896,0.00369729,0.00362717,0.658363,0.19039597038772005,1.5597151941056646,0.003704133408094279,0.200821612988894,0.0036337561417154607,-0.2988006128940697
925,0.9138,609.159,596.582,-0.0611698,602.832,4.25885,4.22748,0.174425,0.183152,-0.355248,0.940656,0.00370476,0.0036345,0.658897,0.19056144692795707,1.5616613170862443,0.003711631105974611,0.20099694574337001,0.0036411128041100582,-0.29900042624463996
926,0.9148,609.224,596.673,-0.0614957,602.91,4.26746,4.23609,0.174564,0.183298,-0.355533,0.941416,0.00371224,0.00364185,0.659431,0.19072694647103194,1.5636089196824718,0.0037191388970545525,0.2011723040982969,0.003648489593398807,-0.2992001826565195
927,0.9158,609.289,596.765,-0.0618228,602.989,4.27609,4.24472,0.174703,0.183444,-0.355817,0.942175,0.00371973,0.00364921,0.659965,0.1908924690201419,1.5655554374625624,0.0037266567815592566,0.20134768805741277,0.003655876473465991,-0.2993991815454653
928,0.9168,609.353,596.856,-0.0621513,603.067,4.28474,4.25337,0.174842,0.183589,-0.356101,0.942934,0.00372723,0.00365658,0.660499,0.19105801457848548,1.567503433210466,0.003734184759714987,0.20152189610195914,0.0036632734445334325,-0.299598123926751
929,0.9178,609.418,596.948,-0.0624811,603.145,4.29341,4.26203,0.17498,0.183735,-0.356385,0.943693,0.00373475,0.00366396,0.661032,0.19122239192627344,1.5694529080483859,0.0037417328691653484,0.2016973311052337,0.0036706805068233983,-0.29979700981642277
930,0.9188,609.482,597.039,-0.0628123,603.223,4.3021,4.27071,0.175119,0.183881,-0.356669,0.944451,0.00374228,0.00367136,0.661565,0.1913879833470884,1.5714012916967999,0.0037492910728702533,0.2018727917238885,0.003678107697339783,-0.29999583923052164
931,0.9198,609.546,597.13,-0.0631448,603.301,4.3108,4.27941,0.175257,0.184026,-0.356953,0.945208,0.00374983,0.00367876,0.662098,0.19155240623370862,1.5733485794300304,0.0037568694086260734,0.20204707591398674,0.0036855349428175366,-0.3001946121850847
932,0.9208,609.61,597.222,-0.0634786,603.379,4.31952,4.28813,0.175396,0.184172,-0.357237,0.945966,0.00375738,0.00368619,0.66263,0.19171804352970034,1.5752999171167907,0.0037644478015985694,0.2022225875991115,0.0036929923540462983,-0.3003933286961439
933,0.9218,609.674,597.313,-0.0638138,603.457,4.32826,4.29686,0.175534,0.184317,-0.35752,0.946723,0.00376495,0.00369362,0.663162,0.19188251196776873,1.577250157226798,0.0037720463272288285,0.20239692251328933,0.003700449820684071,-0.30059128937136614
934,0.9228,609.737,597.405,-0.0641504,603.535,4.33702,4.30562,0.175672,0.184463,-0.357803,0.947479,0.00377253,0.00370107,0.663694,0.19204700310404754,1.5791992950269162,0.0037796549481765584,0.20257248527974614,0.0037079274168891896,-0.3007891940316437
935,0.9238,609.801,597.496,-0.0644884,603.612,4.3458,4.31439,0.17581,0.184608,-0.358086,0.948236,0.00378013,0.00370852,0.664226,0.1922115169416696,1.5811524880835508,0.0037872837025434425,0.20274687093276622,0.003715405068802635,-0.30098704269282683
936,0.9248,609.864,597.587,-0.0648277,603.69,4.35459,4.32317,0.175949,0.184753,-0.358369,0.948992,0.00378773,0.003716,0.664757,0.1923772458604176,1.5831045771612393,0.0037949125148890595,0.20292128187353908,0.0037229128881117735,-0.3011848353707607
937,0.9258,609.927,597.679,-0.0651684,603.767,4.3634,4.33198,0.176086,0.184898,-0.358652,0.949747,0.00379535,0.00372348,0.665289,0.19254061273347567,1.5850555575194054,0.0038025614612648972,0.2030957181057318,0.003730420763579545,-0.3013825720812865
938,0.9268,609.99,597.77,-0.0655105,603.845,4.37223,4.34081,0.176224,0.185043,-0.358935,0.950502,0.00380299,0.00373098,0.665819,0.1927051946939271,1.587008011423936,0.003810230542130144,0.2032701796330123,0.00373794876996536,-0.3015802528402408
939,0.9278,610.053,597.861,-0.065854,603.922,4.38108,4.34965,0.176362,0.185189,-0.359218,0.951257,0.00381063,0.00373849,0.66635,0.1928697993682562,1.5889619399877786,0.003817899681587633,0.20344586990431646,0.0037454868702662125,-0.30177787766345554
940,0.9288,610.115,597.952,-0.0661989,603.999,4.38994,4.35851,0.1765,0.185333,-0.3595,0.952011,0.00381829,0.00374601,0.66688,0.1930344267595976,1.5909147534086716,0.0038255889561491507,0.20361917858750833,0.0037530350647085875,-0.3019747485418559
941,0.9298,610.178,598.044,-0.0665452,604.076,4.39883,4.36739,0.176638,0.185478,-0.359782,0.952765,0.00382596,0.00375354,0.66741,0.19319907687108695,1.5928690398061267,0.003833288327943496,0.20379371602206175,0.0037605933535196368,-0.3021715639104958
942,0.9308,610.24,598.135,-0.0668929,604.153,4.40773,4.37628,0.176775,0.185623,-0.360064,0.953518,0.00383364,0.00376109,0.66794,0.19336255634270638,1.5948222054676835,0.0038409977972020393,0.20396827876637813,0.0037681717746078647,-0.30236832378502687
943,0.9318,610.302,598.226,-0.067242,604.23,4.41665,4.3852,0.176913,0.185768,-0.360346,0.954271,0.00384134,0.00376865,0.668469,0.1935272517392026,1.5967768424168542,0.003848727402644192,0.2041428668241274,0.0037757602906709486,-0.3025650281810961
944,0.9328,610.364,598.317,-0.0675926,604.307,4.42559,4.39413,0.17705,0.185913,-0.360628,0.955024,0.00384905,0.00377623,0.668999,0.19369077617385888,1.5987329517619346,0.003856467106168937,0.20431748019898066,0.003783368939770826,-0.3027616771143462
945,0.9338,610.426,598.408,-0.0679446,604.384,4.43455,4.40308,0.177187,0.186057,-0.36091,0.955776,0.00385677,0.00378381,0.669527,0.1938543230128975,1.6006879339228233,0.0038642169080091993,0.20449091440309242,0.0037909776465443468,-0.3029582706004156
946,0.9348,610.487,598.499,-0.068298,604.46,4.44353,4.41205,0.177324,0.186202,-0.361191,0.956528,0.00386451,0.00379141,0.670056,0.19401789225938781,1.60264438678321,0.0038719868471177588,0.20466557824850362,0.0037986064869639513,-0.30315411180939833
947,0.9358,610.549,598.591,-0.0686529,604.537,4.45252,4.42104,0.177462,0.186347,-0.361473,0.95728,0.00387226,0.00379902,0.670584,0.194182678098481,1.6046023114494776,0.0038797668851633382,0.20484026742200867,0.0038062454234255583,-0.3033505946444863
948,0.9368,610.61,598.682,-0.0690092,604.613,4.46154,4.43005,0.177599,0.186491,-0.361754,0.958031,0.00388002,0.00380665,0.671113,0.1943462923326995,1.6065591024684345,0.0038875570223799727,0.2050137769129008,0.0038139044942973044,-0.30354632562590045
949,0.9378,610.671,598.773,-0.069367,604.69,4.47057,4.43907,0.177736,0.186636,-0.362035,0.958782,0.0038878,0.00381429,0.67164,0.19450992898360386,1.6085173635894008,0.0038953672979555876,0.20518851657887294,0.003821573661823896,-0.3037420016146355
950,0.9388,610.732,598.864,-0.0697262,604.766,4.47962,4.44811,0.177872,0.18678,-0.362316,0.959532,0.00389558,0.00382194,0.672168,0.19467239338127418,1.6104744854410473,0.003903177634295485,0.20536207622125469,0.0038292529262355934,-0.30393762262614255
951,0.9398,610.792,598.955,-0.070087,604.842,4.4887,4.45718,0.178009,0.186924,-0.362597,0.960282,0.00390339,0.0038296,0.672695,0.19483607471108244,1.6124330756846605,0.00391101814872985,0.20553566085802433,0.003836942287763101,-0.3041331886758677
952,0.9408,610.853,599.046,-0.0704492,604.918,4.49779,4.46626,0.178146,0.187068,-0.362877,0.961032,0.0039112,0.00383728,0.673222,0.1949997784667692,1.6143931354219476,0.00391885872439901,0.20570927049278165,0.0038446517850843076,-0.3043280041076052
953,0.9418,610.913,599.137,-0.0708129,604.994,4.5069,4.47536,0.178282,0.187213,-0.363158,0.961781,0.00391903,0.00384497,0.673749,0.19516230948849955,1.6163520494020847,0.003926719439837578,0.20588411101263437,0.0038523713801383863,-0.3045234604755451
954,0.9428,610.973,599.228,-0.071178,605.07,4.51602,4.48448,0.178419,0.187357,-0.363438,0.96253,0.00392687,0.00385267,0.674275,0.19532605794141245,1.6183124311584067,0.0039345902561713775,0.20605777082782684,0.0038601010731573737,-0.304718166646476
955,0.9438,611.033,599.319,-0.0715447,605.146,4.52517,4.49362,0.178555,0.187501,-0.363718,0.963278,0.00393472,0.00386039,0.674801,0.19548863334016886,1.6202716615177177,0.003942471173637552,0.2062314556518332,0.0038678509030518615,-0.30491281830731076
956,0.9448,611.093,599.41,-0.0719129,605.221,4.53434,4.50277,0.178692,0.187645,-0.363999,0.964027,0.00394259,0.00386812,0.675327,0.1956524265025119,1.6222349801632419,0.003950372231976251,0.20640516548825527,0.0038756108315314286,-0.3051081103655472
957,0.9458,611.153,599.501,-0.0722826,605.297,4.54353,4.51195,0.178828,0.187789,-0.364278,0.964774,0.00395047,0.00387586,0.675853,0.19581504629041135,1.6241945214909896,0.003958283392079487,0.2065789003406946,0.003883380858829222,-0.3053019581597305
958,0.9468,611.212,599.592,-0.0726538,605.372,4.55273,4.52115,0.178964,0.187933,-0.364558,0.965522,0.00395837,0.00388362,0.676378,0.19597768819610573,1.6261581532998064,0.003966214693846837,0.2067526602127543,0.003891171024090534,-0.30549644638182394
959,0.9478,611.272,599.683,-0.0730265,605.448,4.56196,4.53036,0.1791,0.188076,-0.364838,0.966268,0.00396627,0.00389139,0.676903,0.1961403522226035,1.6281179982134306,0.0039741460582718435,0.20692523818219533,0.0038989712887933514,-0.3056908801548386
960,0.9488,611.331,599.774,-0.0734008,605.523,4.5712,4.5396,0.179236,0.18822,-0.365117,0.967015,0.0039742,0.00389917,0.677428,0.19630303837291319,1.6300819357974587,0.003982107604817431,0.20709904793049505,0.003906781653172375,-0.3058845653789303
961,0.9498,611.39,599.865,-0.0737766,605.599,4.58047,4.54885,0.179372,0.188364,-0.365397,0.967761,0.00398213,0.00390697,0.677953,0.1964657466500439,1.6320447089449215,0.003990069214498515,0.20727288270920075,0.003914612156608044,-0.3060788904938384
962,0.9508,611.449,599.956,-0.0741539,605.674,4.58975,4.55812,0.179508,0.188507,-0.365676,0.968507,0.00399008,0.00391478,0.678477,0.19662847705700526,1.6340089468674455,0.003998050967276123,0.20744553507577823,0.003922452760346529,-0.3062724674781456
963,0.9518,611.507,600.047,-0.0745329,605.749,4.59906,4.56742,0.179644,0.188651,-0.365955,0.969252,0.00399804,0.0039226,0.679001,0.19679122959680684,1.6359720146848278,0.004006042823569533,0.20761941975222542,0.003930303464623419,-0.3064659904620076
964,0.9528,611.566,600.138,-0.0749133,605.824,4.60838,4.57673,0.17978,0.188794,-0.366234,0.969997,0.00400601,0.00393043,0.679525,0.1969540042724589,1.6379365455326451,0.004014044783618553,0.20779212167714323,0.003938164269674527,-0.30665945946048845
965,0.9538,611.624,600.229,-0.0752953,605.899,4.61773,4.58606,0.179915,0.188938,-0.366512,0.970742,0.004014,0.00393828,0.680048,0.19711560397077,1.6399025405012613,0.0040220668878845345,0.20796605626565468,0.003946045215196703,-0.30685218134117587
966,0.9548,611.682,600.32,-0.0756789,605.974,4.62709,4.59541,0.180051,0.189081,-0.366791,0.971486,0.00402201,0.00394615,0.680572,0.19727842276433694,1.6418673588131734,0.004030109136849536,0.2081388077631383,0.003953946301663347,-0.3070455426074308
967,0.9558,611.74,600.411,-0.0760641,606.048,4.63648,4.60478,0.180186,0.189225,-0.367069,0.97223,0.00403002,0.00395402,0.681095,0.19744006626210076,1.643833639493843,0.004038151450233229,0.20831279227804056,0.003961847450311584,-0.30723815717192093
968,0.9568,611.798,600.502,-0.0764509,606.123,4.64588,4.61417,0.180321,0.189368,-0.367348,0.972974,0.00403805,0.00396191,0.681617,0.19760173158320993,1.6458013836316776,0.004046213908960095,0.20848559336231953,0.00396976874053756,-0.30743141076594005
969,0.9578,611.855,600.593,-0.0768393,606.197,4.6553,4.62359,0.180457,0.189511,-0.367626,0.973717,0.00404609,0.00396982,0.68214,0.19776461649462806,1.6477679445466262,0.004054286472971569,0.20865841915892025,0.003977710172816451,-0.3076239180739915
970,0.9588,611.913,600.684,-0.0772292,606.272,4.66475,4.63302,0.180592,0.189654,-0.367904,0.97446,0.00405415,0.00397773,0.682662,0.19792632563297619,1.6497359671592875,0.004062379183134013,0.208831269671377,0.003985651667912649,-0.3078163718724495
971,0.9598,611.97,600.774,-0.0776208,606.346,4.67422,4.64247,0.180727,0.189797,-0.368182,0.975202,0.00406222,0.00398566,0.683184,0.19808805660353146,1.651702800851981,0.004070481999228992,0.2090041449032245,0.0039936133056981404,-0.3080087721761875
972,0.9608,612.027,600.865,-0.078014,606.421,4.6837,4.65194,0.180862,0.18994,-0.36846,0.975944,0.00407031,0.00399361,0.683705,0.19824980940924153,1.653671094476842,0.004078604962285626,0.2091770448579977,0.004001595086651433,-0.3082011190000753
973,0.9618,612.084,600.956,-0.0784088,606.495,4.69321,4.66143,0.180997,0.190083,-0.368737,0.976686,0.0040784,0.00400157,0.684227,0.1984115840530547,1.6556408491175425,0.0040867279910572485,0.20934996953923246,0.004009586971156054,-0.3083927207520445
974,0.9628,612.141,601.047,-0.0788053,606.569,4.70273,4.67094,0.181132,0.190226,-0.369015,0.977427,0.00408652,0.00400954,0.684748,0.19857338053791884,1.6576094082478217,0.004094881208390744,0.20952291895046482,0.004017588959452034,-0.3085849608530633
975,0.9638,612.197,601.138,-0.0792034,606.643,4.71228,4.68048,0.181266,0.190369,-0.369292,0.978168,0.00409464,0.00401752,0.685269,0.19873400013218334,1.6595794266209989,0.004103034491928392,0.2096958930952313,0.00402560105178007,-0.3087764562955637
976,0.9648,612.254,601.229,-0.0796031,606.717,4.72185,4.69003,0.181401,0.190512,-0.369569,0.978908,0.00410278,0.00402552,0.685789,0.19889584014615647,1.6615482437691993,0.004111207923894966,0.20986889197706904,0.00403363328871742,-0.3089678987011726
977,0.9658,612.31,601.32,-0.0800045,606.791,4.73144,4.6996,0.181536,0.190654,-0.369846,0.979648,0.00411093,0.00403354,0.686309,0.19905770201000617,1.6635185183812848,0.0041193914635873075,0.21004070555820542,0.004041685670746364,-0.30915928808457904
978,0.9668,612.366,601.411,-0.0804076,606.865,4.74105,4.7092,0.18167,0.190797,-0.370123,0.980388,0.0041191,0.00404156,0.686829,0.1992183865076964,1.6654902515361774,0.004127595152527697,0.21021375375175122,0.004049738117355872,-0.3093506244604681
979,0.9678,612.422,601.501,-0.0808123,606.938,4.75068,4.71881,0.181805,0.19094,-0.3704,0.981127,0.00412728,0.0040496,0.687349,0.19938029191824413,1.6674607768514877,0.004135808949850439,0.21038682669295805,0.004057810709702014,-0.309541907843521
980,0.9688,612.477,601.592,-0.0812187,607.012,4.76033,4.72845,0.181939,0.191082,-0.370676,0.981866,0.00413548,0.00405766,0.687869,0.19954101964587845,1.6694327589232119,0.0041440428972430166,0.21055871382604607,0.004065903448270181,-0.3097324479812076
981,0.9698,612.533,601.683,-0.0816268,607.085,4.77001,4.7381,0.182073,0.191225,-0.370953,0.982605,0.00414369,0.00406573,0.688388,0.19970176891247138,1.6714061988282891,0.004152286953676976,0.21073183610007074,0.004074006292805743,-0.3099236256137923
982,0.9708,612.588,601.774,-0.0820365,607.159,4.7797,4.74778,0.182207,0.191367,-0.371229,0.983343,0.00415191,0.00407381,0.688907,0.19986253972090928,1.6733784242646972,0.0041605411194003405,0.21090377222797319,0.004082119243552951,-0.3101140604119118
983,0.9718,612.644,601.865,-0.082448,607.232,4.78942,4.75748,0.182341,0.19151,-0.371505,0.984081,0.00416015,0.00408191,0.689426,0.20002333207407896,1.6753521057406897,0.004168815436349282,0.21107694384887754,0.004090252341657941,-0.31030444265727974
984,0.9728,612.699,601.956,-0.0828612,607.305,4.79915,4.7672,0.182475,0.191652,-0.371781,0.984818,0.0041684,0.00409002,0.689944,0.20018414597486744,1.6773245670053152,0.004177099863249767,0.21124892898555991,0.004098395546624944,-0.3104947723643985
985,0.9738,612.753,602.047,-0.0832761,607.379,4.80891,4.77694,0.182609,0.191794,-0.372057,0.985556,0.00417667,0.00409814,0.690462,0.20034498142616264,1.6793011618095361,0.004185404442204943,0.21142093854586563,0.0041065488586993215,-0.31068504954776677
986,0.9748,612.808,602.137,-0.0836927,607.452,4.81869,4.7867,0.182743,0.191936,-0.372333,0.986292,0.00418495,0.00410628,0.69098,0.20050583843085246,1.681273853326056,0.004193719131776685,0.21159297253326304,0.00411472231927279,-0.310875274221879
987,0.9758,612.862,602.228,-0.084111,607.525,4.82849,4.79648,0.182877,0.192078,-0.372608,0.987029,0.00419324,0.00411443,0.691498,0.20066671699182503,1.6832506805273018,0.00420204393221435,0.21176503095122134,0.004122905887607775,-0.3110647574663278
988,0.9768,612.917,602.319,-0.0845311,607.598,4.83832,4.80629,0.18301,0.19222,-0.372884,0.987765,0.00420155,0.0041226,0.692015,0.20082641628495246,1.6852262799595796,0.004210388885872662,0.2119371138032098,0.004131109605260974,-0.3112548773555155
989,0.9778,612.971,602.41,-0.0849529,607.67,4.84816,4.81611,0.183144,0.192363,-0.373159,0.9885,0.00420988,0.00413078,0.692532,0.2009873378062359,1.687200646766268,0.004218753993252777,0.21211043320252543,0.004139323431332054,-0.31144425622345484
990,0.9788,613.025,602.501,-0.0853765,607.743,4.85803,4.82596,0.183277,0.192504,-0.373434,0.989236,0.00421821,0.00413897,0.693049,0.20114707974476742,1.6891791544438006,0.004227119170314486,0.21228135282315708,0.004147547366067927,-0.31163358301936583
991,0.9798,613.079,602.592,-0.0858018,607.816,4.86792,4.83583,0.183411,0.192646,-0.373709,0.989971,0.00422657,0.00414718,0.693566,0.20130804423783344,1.6911564276812174,0.004235514544123298,0.21245350899805704,0.00415579145127376,-0.31182285775756613
992,0.9808,613.132,602.682,-0.0862289,607.888,4.87783,4.84572,0.183544,0.192788,-0.373984,0.990705,0.00423493,0.00415541,0.694082,0.20146782883315728,1.693132461614872,0.0042439099881179665,0.21262568962086958,0.004164055687444712,-0.31201208045236983
993,0.9818,613.186,602.773,-0.0866578,607.961,4.88776,4.85563,0.183677,0.19293,-0.374259,0.991439,0.00424331,0.00416364,0.694598,0.20162763468124534,1.6951099464898647,0.004252325587344785,0.2127978946950666,0.004172319991630591,-0.3122012511180867
994,0.9828,613.239,602.864,-0.0870885,608.033,4.89772,4.86556,0.183811,0.193072,-0.374533,0.992173,0.00425171,0.0041719,0.695114,0.2017886635729873,1.6970888833715772,0.0042607613423100155,0.21297012422412065,0.004180614489250001,-0.31238968215904883
995,0.9838,613.292,602.955,-0.087521,608.106,4.90769,4.87552,0.183944,0.193213,-0.374808,0.992906,0.00426012,0.00418016,0.69563,0.20194851209493359,1.6990665742582491,0.004269207210827686,0.21314116506973235,0.004188909055382162,-0.3125787489985732
996,0.9848,613.345,603.046,-0.0879552,608.178,4.91769,4.8855,0.184077,0.193355,-0.375082,0.993639,0.00426854,0.00418844,0.696145,0.20210838187814728,1.701045715323767,0.004277663193152037,0.21331344334664037,0.004197223773972025,-0.31276707661928527
997,0.9858,613.398,603.137,-0.0883913,608.25,4.92771,4.8955,0.184209,0.193497,-0.375356,0.994372,0.00427698,0.00419674,0.69666,0.20226707065778426,1.7030263076315006,0.00428613933239852,0.2134857460888009,0.00420555864551897,-0.31295535264529817
998,0.9868,613.45,603.228,-0.0888292,608.322,4.93776,4.90552,0.184342,0.193638,-0.37563,0.995104,0.00428543,0.00420505,0.697175,0.20242698281210414,1.7050056472386017,0.004294625586130252,0.21365685964222147,0.004213903628384585,-0.3131435770907467
999,0.9878,613.503,603.319,-0.0892689,608.394,4.94783,4.91556,0.184475,0.19378,-0.375904,0.995836,0.0042939,0.00421337,0.697689,0.2025869162361551,1.7069864362527132,0.004303131997633658,0.21382921115295828,0.004222258722820005,-0.3133317499697621
