,Time,S11,S22,S33,S12,S13,S23,LE11,LE22,LE33,LE12,LE13,LE23,SDV_EPBAR,E11,E12,E13,E22,E23,E33
0,1e-05,0.0415492,0.0415492,-6.93889e-18,0.0415492,-1.12165e-18,3.73882e-19,1.40001e-07,1.40001e-07,-1.20003e-07,5.19997e-07,-4.67926e-24,-4.67926e-24,0.0,1.4000100989619568e-07,5.199971351288468e-07,0.0,1.4000100989619568e-07,0.0,-1.2000299276504478e-07
1,2e-05,0.0830984,0.0830984,1.38778e-17,0.0830984,-7.47764e-19,-7.47764e-19,2.80002e-07,2.80002e-07,-2.40004e-07,1.04e-06,9.73285e-30,9.73285e-30,0.0,2.80002039110272e-07,1.0400005407973367e-06,0.0,2.80002039110272e-07,0.0,-2.40003971252456e-07
2,3.5e-05,0.145422,0.145422,2.77556e-17,0.145422,-2.61717e-18,-1.86941e-18,4.9e-07,4.9e-07,-4.2e-07,1.82e-06,-9.35843e-24,-9.35843e-24,0.0,4.900001200347504e-07,1.8200016562719412e-06,0.0,4.900001200347504e-07,0.0,-4.19999911849267e-07
3,5.75e-05,0.238908,0.238908,0.0,0.238908,-3.36493e-18,-4.1127e-18,8.04999e-07,8.04999e-07,-6.89999e-07,2.99e-06,-1.87168e-23,-1.87168e-23,0.0,8.049993240888398e-07,2.990004470015961e-06,0.0,8.049993240888398e-07,0.0,-6.899987619046755e-07
4,9.125e-05,0.379136,0.379136,1.38778e-17,0.379136,-5.60822e-18,-1.8694e-18,1.2775e-06,1.2775e-06,-1.09501e-06,4.74498e-06,-7.48675e-23,7.48678e-23,0.0,1.2775008160215151e-06,4.744991257465969e-06,0.0,1.2775008160215151e-06,0.0,-1.0950094004869015e-06
5,0.00014188,0.589478,0.589478,-9.71445e-17,0.589478,-1.45814e-17,-7.85148e-18,1.98625e-06,1.98625e-06,-1.7025e-06,7.37747e-06,-7.4867e-23,-7.4867e-23,0.0,1.9862519726743244e-06,7.377497213578721e-06,0.0,1.9862519726743244e-06,0.0,-1.7024985506930435e-06
6,0.00021781,0.90499,0.90499,1.38778e-17,0.90499,-1.60768e-17,-1.53291e-17,3.04936e-06,3.04936e-06,-2.61374e-06,1.13262e-05,-7.48658e-23,-7.48658e-23,0.0,3.0493646492324444e-06,1.1326264141686693e-05,0.0,3.0493646492324444e-06,0.0,-2.6137365841671922e-06
7,0.00033172,1.37826,1.37826,1.38778e-17,1.37826,-1.30857e-17,-1.832e-17,4.64404e-06,4.64404e-06,-3.98062e-06,1.72492e-05,1.49739e-22,-4.49204e-22,0.0,4.64405078348662e-06,1.7249348768233475e-05,0.0,4.64405078348662e-06,0.0,-3.980612077292278e-06
8,0.00050258,2.08815,2.08815,1.38778e-17,2.08815,-4.29959e-17,-3.6266e-17,7.03602e-06,7.03602e-06,-6.03088e-06,2.61338e-05,-2.9946e-22,-2.9946e-22,0.0,7.036044752828374e-06,2.613414149066351e-05,0.0,7.036044752828374e-06,0.0,-6.030861814276811e-06
9,0.00075887,3.15298,3.15298,-6.52256e-16,3.15298,-3.10311e-17,-6.01939e-17,1.0624e-05,1.0624e-05,-9.1063e-06,3.94605e-05,-5.98923e-22,5.98968e-22,0.0,1.0624056434815898e-05,3.9461278575680936e-05,0.0,1.0624056434815898e-05,0.0,-9.10625853778324e-06
10,0.0011433,4.75022,4.75022,-8.74301e-16,4.75022,-4.29941e-17,-7.21569e-17,1.60059e-05,1.60059e-05,-1.37193e-05,5.94502e-05,-1.19786e-21,-1.19786e-21,0.0,1.600602809515017e-05,5.945196719814305e-05,0.0,1.600602809515017e-05,0.0,-1.3719205890883046e-05
11,0.00172,7.14601,7.14601,-5.98133e-15,7.14601,-9.08482e-17,-9.60826e-17,2.40785e-05,2.40785e-05,-2.06387e-05,8.94344e-05,-5.9885e-22,-5.9885e-22,0.0,2.4078789889303565e-05,8.943839937525233e-05,0.0,2.4078789889303565e-05,0.0,-2.0638487023494356e-05
12,0.0025849,10.7396,10.7396,-3.52912e-14,10.7396,-2.34407e-16,-2.87498e-16,3.61871e-05,3.61871e-05,-3.10176e-05,0.000134409,-1.07809e-20,3.5942e-21,0.0,3.618775476099678e-05,0.00013441803329428126,0.0,3.618775476099678e-05,0.0,-3.101711895925341e-05
13,0.0035849,14.894,14.894,-7.57033e-14,14.894,-2.58322e-16,-2.63556e-16,5.01854e-05,5.01854e-05,-4.30161e-05,0.000186403,-5.98907e-21,3.59441e-21,0.0,5.0186659308337767e-05,0.00018642037411864543,0.0,5.0186659308337767e-05,0.0,-4.301517482085959e-05
14,0.0045849,19.0483,19.0483,-8.76937e-14,19.0483,-2.58306e-16,-3.59254e-16,6.41831e-05,6.41831e-05,-5.50141e-05,0.000238394,-2.39498e-21,-2.39498e-21,0.0,6.418515977912875e-05,0.00023842241810778653,0.0,6.418515977912875e-05,0.0,-5.501258675211229e-05
15,0.0055849,23.2023,23.2023,-8.50292e-14,23.2023,-3.30075e-16,-2.87453e-16,7.81803e-05,7.81803e-05,-6.70117e-05,0.000290384,-1.91663e-20,9.58485e-21,0.0,7.81833561593892e-05,0.0002904261655150009,0.0,7.81833561593892e-05,0.0,-6.700945476623144e-05
16,0.0065849,27.3562,27.3562,-8.36969e-14,27.3562,-2.58275e-16,-3.11366e-16,9.21769e-05,9.21769e-05,-7.90088e-05,0.000342371,-4.7907e-21,4.79314e-21,0.0,9.218114842091119e-05,0.0003424296156400164,0.0,9.218114842091119e-05,0.0,-7.900567888696752e-05
17,0.0075849,31.51,31.51,-8.28088e-14,31.51,-2.58259e-16,-3.59207e-16,0.000106173,0.000106173,-9.10054e-05,0.000394356,-9.58242e-21,9.58547e-21,0.0,0.00010617863655237869,0.00039443376854997325,0.0,0.00010617863655237869,0.0,-9.100125913419355e-05
18,0.0085849,35.6636,35.6636,-8.32528e-14,35.6636,-4.73589e-16,-5.2668e-16,0.000120168,0.000120168,-0.000103002,0.000446339,-1.19773e-20,7.19084e-21,0.0,0.00012017522046336993,0.00044643862407300894,0.0,0.00012017522046336993,0.0,-0.00010299669547608747
19,0.0095849,39.817,39.817,-9.12465e-14,39.817,-4.97492e-16,-5.02726e-16,0.000134163,0.000134163,-0.000114997,0.000498321,2.39916e-21,-7.18502e-21,0.0,0.00013417200025767073,0.0004984451825362779,0.0,0.00013417200025767073,0.0,-0.00011499038809847928
20,0.010585,43.9702,43.9702,-8.19206e-14,43.9702,-5.21389e-16,-6.70194e-16,0.000148158,0.000148158,-0.000126992,0.0005503,4.10453e-24,4.10453e-24,0.0,0.00014816897593861178,0.0005504514428233964,0.0,0.00014816897593861178,0.0,-0.00012698393685728337
21,0.011585,48.1233,48.1233,-8.94701e-14,48.1233,-4.73504e-16,-6.22309e-16,0.000162151,0.000162151,-0.000138987,0.000602277,4.13148e-24,4.13148e-24,0.0,0.0001621641471840629,0.0006024584052093385,0.0,0.0001621641471840629,0.0,-0.00013897734175438714
22,0.012585,52.2762,52.2762,-8.28088e-14,52.2762,-6.17043e-16,-5.74421e-16,0.000176145,0.000176145,-0.000150981,0.000654252,-4.78739e-21,-4.78739e-21,0.0,0.00017616051444147018,0.0006544660695222415,0.0,0.00017616051444147018,0.0,-0.0001509696029423635
23,0.013585,56.429,56.429,-8.36969e-14,56.429,-9.04137e-16,-9.57228e-16,0.000190137,0.000190137,-0.000162975,0.000706224,4.80054e-21,-1.43687e-20,0.0,0.0001901550771850058,0.0007064734348845025,0.0,0.0001901550771850058,0.0,-0.00016296172029606204
24,0.014585,60.5815,60.5815,-8.63615e-14,60.5815,-8.32304e-16,-9.81109e-16,0.00020413,0.00020413,-0.000174968,0.000758195,1.43858e-20,-2.39533e-20,0.0,0.0002041508359462707,0.0007584825024853359,0.0,0.0002041508359462707,0.0,-0.00017495269399214752
25,0.015585,64.734,64.734,-8.19206e-14,64.734,-1.23902e-15,-1.29211e-15,0.000218121,0.000218121,-0.000186961,0.000810164,4.80528e-21,-1.43645e-20,0.0,0.00021814479011506016,0.0008104922714986529,0.0,0.00021814479011506016,0.0,-0.0001869435238813777
26,0.016585,68.8862,68.8862,-9.21346e-14,68.8862,-1.14325e-15,-1.05277e-15,0.000232112,0.000232112,-0.000198953,0.00086213,1.18522e-23,1.18522e-23,0.0,0.0002321389400745666,0.0008625017408905311,0.0,0.0002321389400745666,0.0,-0.0001989332101642871
27,0.017585,73.0383,73.0383,-7.79238e-14,73.0383,-9.99631e-16,-9.09151e-16,0.000246102,0.000246102,-0.000210945,0.000914095,1.09241e-23,1.09241e-23,0.0,0.0002461322855815684,0.0009145129121619355,0.0,0.0002461322855815684,0.0,-0.00021092275266787475
28,0.018585,77.1902,77.1902,-8.54733e-14,77.1902,-7.84231e-16,-8.85179e-16,0.000260092,0.000260092,-0.000222936,0.000966057,1.00986e-23,1.00986e-23,0.0,0.0002601258268568607,0.0009665237833647033,0.0,0.0002601258268568607,0.0,-0.00022291115161654496
29,0.019585,81.3419,81.3419,-7.70356e-14,81.3419,-1.14309e-15,-1.33976e-15,0.000274082,0.000274082,-0.000234927,0.00101802,-2.87402e-20,9.60115e-21,0.0,0.000274119563903108,0.001018538358245058,0.0,0.000274119563903108,0.0,-0.00023489940681320487
30,0.020585,85.4935,85.4935,-8.05883e-14,85.4935,-1.04732e-15,-1.19613e-15,0.00028807,0.00028807,-0.000246918,0.00106998,-5.74976e-20,1.91859e-20,0.0,0.0002881114961470477,0.00107055263281719,0.0,0.0002881114961470477,0.0,-0.0002468875182595198
31,0.021585,89.645,89.645,-7.74797e-14,89.645,-1.28654e-15,-1.38748e-15,0.000302059,0.000302059,-0.000258908,0.00112193,1.87851e-23,-3.83235e-20,0.0,0.0003021046244133796,0.0011225595988957338,0.0,0.0003021046244133796,0.0,-0.00025887448621619846
32,0.022585,93.7962,93.7962,-7.43711e-14,93.7962,-1.86072e-15,-1.96167e-15,0.000316046,0.000316046,-0.000270897,0.00117389,-1.91433e-20,-1.91433e-20,0.0,0.0003160959477988001,0.0011745792785520237,0.0,0.0003160959477988001,0.0,-0.00027086031072076633
33,0.023585,97.9473,97.9473,-7.43711e-14,97.9473,-1.1428e-15,-1.24375e-15,0.000330033,0.000330033,-0.000282886,0.00122584,-7.6668e-20,3.83615e-20,0.0,0.000330087466882345,0.001226591648955111,0.0,0.000330087466882345,0.0,-0.0002828459915281689
34,0.024585,102.098,102.098,-7.43711e-14,102.098,-1.19059e-15,-1.43511e-15,0.00034402,0.00034402,-0.000294874,0.00127779,2.10162e-23,-3.83226e-20,0.0,0.0003440791816664568,0.001278606721471176,0.0,0.0003440791816664568,0.0,-0.0002948305289349751
35,0.025585,106.249,106.249,-7.43711e-14,106.249,-1.23838e-15,-1.43504e-15,0.000358006,0.000358006,-0.000306862,0.00132974,2.2258e-23,-3.83218e-20,0.0,0.0003580700917962254,0.001330624496240329,0.0,0.0003580700917962254,0.0,-0.00030681492267203847
36,0.026585,110.4,110.4,-8.50292e-14,110.4,-1.57329e-15,-1.76995e-15,0.000371991,0.000371991,-0.00031885,0.00138168,-3.83156e-20,2.89296e-23,0.0,0.0003720601972321269,0.0013826349595766896,0.0,0.0003720601972321269,0.0,-0.00031879917274102443
37,0.027585,114.55,114.55,-8.63615e-14,114.55,-1.52535e-15,-1.91344e-15,0.000385976,0.000385976,-0.000330837,0.00143363,3.08706e-23,-3.83141e-20,0.0,0.0003860504983208557,0.0014346581387532087,0.0,0.0003860504983208557,0.0,-0.000330782279474362
38,0.028585,118.7,118.7,-7.03743e-14,118.7,-1.23813e-15,-1.48265e-15,0.00039996,0.00039996,-0.000342823,0.00148557,2.53289e-23,-3.83202e-20,0.0,0.00040003999466531326,0.0014866740057373207,0.0,0.00040003999466531326,0.0,-0.0003427642429099098
39,0.029585,122.85,122.85,-8.54733e-14,122.85,-2.12337e-15,-2.32003e-15,0.000413944,0.000413944,-0.000354809,0.00153751,-3.83032e-20,-3.83032e-20,0.0,0.00041402968664039363,0.0015386925744957924,0.0,0.00041402968664039363,0.0,-0.00035474606273055986
40,0.030585,127.0,127.0,-8.59174e-14,127.0,-2.26682e-15,-2.46348e-15,0.000427927,0.000427927,-0.000366795,0.00158944,-1.91261e-20,-1.91261e-20,0.0,0.0004280185738205766,0.0015907038292617415,0.0,0.0004280185738205766,0.0,-0.0003667277389378665
41,0.031585,131.15,131.15,-7.08184e-14,131.15,-2.29062e-15,-2.67871e-15,0.00044191,0.00044191,-0.00037878,0.00164138,-3.82958e-20,5.10865e-23,0.0,0.00044200765660873387,0.0016427278014694568,0.0,0.00044200765660873387,0.0,-0.0003787082719124424
42,0.032585,135.3,135.3,-7.03743e-14,135.3,-2.02729e-15,-2.27181e-15,0.000455892,0.000455892,-0.000390765,0.00169331,-3.83017e-20,-3.83017e-20,0.0,0.0004559959345515896,0.0016947444589250349,0.0,0.0004559959345515896,0.0,-0.0003906886613012084
43,0.033585,139.449,139.449,-7.08184e-14,139.449,-3.12783e-15,-3.3245e-15,0.000469874,0.000469874,-0.000402749,0.00174524,-1.91034e-20,-5.74511e-20,0.0,0.0004699844080799931,0.0017467638176758005,0.0,0.0004699844080799931,0.0,-0.000402667907508536
44,0.034585,143.598,143.598,-8.72497e-14,143.598,-1.69203e-15,-2.17583e-15,0.000483854,0.000483854,-0.000414732,0.00179717,-5.74788e-20,-1.91306e-20,0.0,0.00048397107622855096,0.0017987858778618637,0.0,0.00048397107622855096,0.0,-0.00041464601057206174
45,0.035585,147.747,147.747,-8.28088e-14,147.747,-2.1944e-15,-2.43892e-15,0.000497835,0.000497835,-0.000426716,0.0018491,-2.87078e-20,-2.87078e-20,0.0,0.0004979589404101592,0.001850810639623779,0.0,0.0004979589404101592,0.0,-0.00042662496967615926
46,0.036585,151.896,151.896,-7.08184e-14,151.896,-1.69181e-15,-1.93633e-15,0.000511815,0.000511815,-0.000438698,0.00190103,-6.70678e-20,9.6305e-21,0.0,0.0005119459996454356,0.0019028381031016561,0.0,0.0005119459996454356,0.0,-0.00043860178610255485
47,0.037585,156.045,156.045,-6.99302e-14,156.045,-9.26046e-16,-1.21842e-15,0.000525794,0.000525794,-0.00045068,0.00195295,-6.70856e-20,9.61376e-21,0.0,0.0005259322538950784,0.0019548582488873034,0.0,0.0005259322538950784,0.0,-0.00045057845902352067
48,0.038585,160.194,160.194,-1.05013e-13,160.194,-5.43151e-16,-9.79097e-16,0.000539773,0.000539773,-0.000462662,0.00200487,-5.75059e-20,-1.91559e-20,0.0,0.0005399187036603248,0.002006881095629076,0.0,0.0005399187036603248,0.0,-0.0004625549884409441
49,0.039585,164.342,164.342,-8.59174e-14,164.342,-1.52413e-15,-1.91222e-15,0.000553751,0.000553751,-0.000474643,0.00205679,-4.78938e-20,-4.78938e-20,0.0,0.0005539043483893114,0.0020589066434670844,0.0,0.0005539043483893114,0.0,-0.0004745303748309171
50,0.040585,168.49,168.49,-6.63775e-14,168.49,-1.26084e-15,-1.69678e-15,0.000567728,0.000567728,-0.000486624,0.0021087,-9.58384e-20,-1.91364e-20,0.0,0.0005678891880431802,0.0021109248714323847,0.0,0.0005678891880431802,0.0,-0.00048650561774465917
51,0.041585,172.639,172.639,-6.59334e-14,172.639,-4.2331e-16,-8.114e-16,0.000581705,0.000581705,-0.000498605,0.00216062,-3.83347e-20,-3.83347e-20,0.0,0.0005818742231644691,0.002162955821363388,0.0,0.0005818742231644691,0.0,-0.0004984807171838357
52,0.042585,176.786,176.786,-8.63615e-14,176.786,-7.34335e-16,-9.78854e-16,0.000595682,0.000595682,-0.000510585,0.00221253,-9.58559e-20,-1.91521e-20,0.0,0.0005958594537560646,0.002214979450661625,0.0,0.0005958594537560646,0.0,-0.0005104546736607318
53,0.043585,180.934,180.934,-4.32848e-14,180.934,-2.5574e-16,-7.39544e-16,0.000609658,0.000609658,-0.000522564,0.00226444,-5.75143e-20,-5.75143e-20,0.0,0.0006098438792108141,0.002267005780576703,0.0,0.0006098438792108141,0.0,-0.0005224274872128731
54,0.044585,185.082,185.082,-4.32848e-14,185.082,-3.27496e-16,-8.11299e-16,0.000623633,0.000623633,-0.000534543,0.00231635,3.83694e-20,-1.15042e-19,0.0,0.0006238274994894155,0.0023190348112485104,0.0,0.0006238274994894155,0.0,-0.0005344001573435175
55,0.045585,189.229,189.229,-4.28407e-14,189.229,-1.28455e-15,-1.76836e-15,0.000637608,0.000637608,-0.000546521,0.00236826,-9.58379e-20,-1.91313e-20,0.0,0.0006378113151903619,0.0023710665428176014,0.0,0.0006378113151903619,0.0,-0.0005463716846008104
56,0.046585,193.377,193.377,-8.63615e-14,193.377,7.59166e-18,-3.80498e-16,0.000651582,0.000651582,-0.000558499,0.00242016,-1.91711e-20,-1.91711e-20,0.0,0.0006517943256647563,0.0024230909511928633,0.0,0.0006517943256647563,0.0,-0.0005583430684640289
57,0.047585,197.524,197.524,-8.63615e-14,197.524,1.51164e-16,-1.89069e-16,0.000665556,0.000665556,-0.000570476,0.00247206,-3.83535e-20,-3.83535e-20,0.0,0.000665777531539069,0.002475118059704906,0.0,0.000665777531539069,0.0,-0.0005703133095051882
58,0.048585,201.671,201.671,-8.72497e-14,201.671,-5.18792e-16,-1.05045e-15,0.000679529,0.000679529,-0.000582453,0.00252396,-5.75071e-20,-5.75071e-20,0.0,0.0006797599321364256,0.002527147868494062,0.0,0.0006797599321364256,0.0,-0.0005822834071795846
59,0.049585,205.817,205.817,-8.50292e-14,205.817,-1.61941e-15,-1.95964e-15,0.000693502,0.000693502,-0.00059443,0.00257586,-1.15008e-19,-3.82973e-20,0.0,0.0006937425281110521,0.0025791803777004407,0.0,0.0006937425281110521,0.0,-0.0005942533614889944
60,0.050585,209.964,209.964,-6.06043e-14,209.964,-2.07607e-16,-6.43554e-16,0.000707474,0.000707474,-0.000606406,0.00262776,-5.75192e-20,-5.75192e-20,0.0,0.0007077243187580962,0.002631215587464153,0.0,0.0007077243187580962,0.0,-0.0006062221730414041
61,0.051585,214.11,214.11,-1.11675e-13,214.11,-6.14348e-16,-1.05029e-15,0.000721445,0.000721445,-0.000618381,0.00267965,-3.8328e-20,-3.8328e-20,0.0,0.0007217053040387,0.002683243471092611,0.0,0.0007217053040387,0.0,-0.0006181898418743392
62,0.052585,218.257,218.257,-5.9272e-14,218.257,-1.64317e-15,-2.07912e-15,0.000735416,0.000735416,-0.000630357,0.00273154,-1.53362e-19,-7.66492e-20,0.0,0.0007356864846486122,0.002735274054518122,0.0,0.0007356864846486122,0.0,-0.0006301583667650545
63,0.053585,222.403,222.403,-1.11675e-13,222.403,-1.60272e-17,-4.51974e-16,0.000749386,0.000749386,-0.000642331,0.00278343,-7.67056e-20,-7.67056e-20,0.0,0.00074966685984168,0.0027873073378807955,0.0,0.00074966685984168,0.0,-0.000642124749605899
64,0.054585,226.549,226.549,-6.06043e-14,226.549,5.57705e-17,-5.23747e-16,0.000763356,0.000763356,-0.000654305,0.00283532,-7.67063e-20,-7.67063e-20,0.0,0.0007636474303416296,0.002839343321320298,0.0,0.0007636474303416296,0.0,-0.0006540909891621371
65,0.055585,230.695,230.695,-5.83839e-14,230.695,-1.37986e-15,-1.67223e-15,0.000777325,0.000777325,-0.000666279,0.00288721,-7.66604e-20,-7.66604e-20,0.0,0.0007776271953741087,0.0028913820049774053,0.0,0.0007776271953741087,0.0,-0.0006660570854354342
66,0.056585,234.84,234.84,-3.08503e-14,234.84,-1.83417e-16,-4.75793e-16,0.000791294,0.000791294,-0.000678252,0.00293909,-1.53421e-19,-7.67043e-20,0.0,0.0007916071556912652,0.0029434133595573897,0.0,0.0007916071556912652,0.0,-0.000678022039105719
67,0.057585,238.986,238.986,-8.63615e-14,238.986,-1.35583e-15,-1.83963e-15,0.000805262,0.000805262,-0.000690225,0.00299097,-2.30093e-19,-7.66575e-20,0.0,0.0008055863104901029,0.0029954474135942544,0.0,0.0008055863104901029,0.0,-0.0006899868495202632
68,0.058585,243.131,243.131,-1.16115e-13,243.131,-2.79021e-16,-7.62824e-16,0.00081923,0.00081923,-0.000702197,0.00304285,-1.53417e-19,-7.66984e-20,0.0,0.0008195656605511914,0.0030474841672276654,0.0,0.0008195656605511914,0.0,-0.0007019505173830876
69,0.059585,244.098,244.036,-0.0160986,244.095,0.00219151,0.00219136,0.000830546,0.000830813,-0.000721524,0.00309976,2.78867e-08,2.78895e-08,3.13803e-05,0.0008308909988348212,0.0031045692238915734,2.7886700282309107e-08,0.000831158220718553,2.7889500486821817e-08,-0.0007212637641512698
70,0.060585,244.652,244.594,-0.00143538,244.626,0.00461378,0.00461361,0.000841375,0.000842413,-0.000741783,0.00315714,5.92926e-08,5.93067e-08,6.68857e-05,0.0008417290552360512,0.003162129015448212,5.9292601717331195e-08,0.000842767929490007,5.930670177178854e-08,-0.0007415079470045605
71,0.061585,245.189,245.12,-0.000420324,245.155,0.00669093,0.00669069,0.000852213,0.000853921,-0.000762079,0.0032146,8.68697e-08,8.68993e-08,0.000102468,0.00085257623667645,0.003219772367459184,8.68697038747257e-08,0.0008542856943365429,8.689930375282984e-08,-0.0007617886915495253
72,0.062585,245.72,245.638,-7.48126e-05,245.679,0.00871693,0.00871659,0.000863045,0.000865414,-0.000782383,0.00327208,1.14284e-07,1.14333e-07,0.000138102,0.0008634175304984559,0.003277439097300716,1.1428400648050285e-07,0.0008657885787430875,1.143330066177839e-07,-0.0007820770182241921
73,0.063585,246.246,246.15,-3.42905e-05,246.198,0.0107172,0.0107167,0.000873873,0.000876902,-0.000802699,0.00332956,1.41845e-07,1.4192e-07,0.000173783,0.0008742549382572129,0.0033351091419213663,1.4184500995995108e-07,0.0008772865909667527,1.419200099661566e-07,-0.0008023769233402867
74,0.064585,246.767,246.658,-2.79507e-05,246.713,0.0126974,0.0126968,0.000884696,0.000888385,-0.000823025,0.00338705,1.69621e-07,1.69725e-07,0.00020951,0.0008850874589383384,0.0033927925354391153,1.6962101434536692e-07,0.0008887797308363421,1.6972501448719868e-07,-0.0008226864078210161
75,0.065585,247.283,247.161,-2.703e-05,247.222,0.014658,0.0146573,0.000895516,0.000899865,-0.000843362,0.00344454,1.97611e-07,1.97749e-07,0.000245283,0.0008959170941729155,0.0034504792452705324,1.9761101954784976e-07,0.0009002699999818287,1.9774901960367686e-07,-0.000843006470222285
76,0.066585,247.795,247.66,-2.63318e-05,247.727,0.0165995,0.0165985,0.000906331,0.000911341,-0.000863708,0.00350204,2.25814e-07,2.2599e-07,0.0002811,0.0009067418420509732,0.0035081793066880085,2.2581402547849905e-07,0.0009117563973890519,2.259900255818792e-07,-0.0008633351116086319
77,0.067585,248.302,248.154,-2.57534e-05,248.228,0.018522,0.0185209,0.000917142,0.000922813,-0.000884064,0.00355954,2.5423e-07,2.54449e-07,0.00031696,0.0009175627033291001,0.003565882685954369,2.5423003235935937e-07,0.0009232389229221205,2.5444903228866167e-07,-0.0008836733305560562
78,0.068585,248.804,248.643,-2.5193e-05,248.723,0.020426,0.0204246,0.000927949,0.000934281,-0.00090443,0.00361705,2.82856e-07,2.83123e-07,0.000352863,0.0009283796778787323,0.003623599419496415,2.82856039923729e-07,0.0009347175764444771,2.8312304012345635e-07,-0.0009040211264627063
79,0.069585,249.302,249.128,-2.46503e-05,249.215,0.0223116,0.02231,0.000938752,0.000945745,-0.000924805,0.00367456,3.11692e-07,3.1201e-07,0.000388808,0.0009391927655710841,0.003681319472423228,3.116920486156971e-07,0.0009461923578202303,3.1201004868641746e-07,-0.000924377499650908
80,0.070585,249.795,249.609,-2.41225e-05,249.702,0.0241792,0.0241774,0.000949551,0.000957206,-0.000945189,0.00373208,3.40736e-07,3.4111e-07,0.000424794,0.0009500019662780357,0.0037390528823162406,3.4073605803541795e-07,0.0009576642678703617,3.411100581995896e-07,-0.0009447424495797607
81,0.071585,250.284,250.086,-2.36093e-05,250.185,0.026029,0.0260269,0.000960346,0.000968663,-0.000965582,0.0037896,3.69987e-07,3.7042e-07,0.00046082,0.0009608072798708012,0.003796789613130569,3.6998706853808017e-07,0.0009691323055245338,3.7042006861831567e-07,-0.0009651159757075867
82,0.072585,250.769,250.558,-2.311e-05,250.663,0.0278613,0.027859,0.000971138,0.000980117,-0.000985984,0.00384713,3.99442e-07,3.9994e-07,0.000496886,0.0009716097071927887,0.0038545397036022777,3.99442079856982e-07,0.0009805974716268206,3.999400799425956e-07,-0.00098549807749293
83,0.073585,251.249,251.027,-2.26242e-05,251.138,0.0296764,0.0296738,0.000981926,0.000991568,-0.00100639,0.00390465,4.29101e-07,4.29667e-07,0.000532991,0.000982408247165445,0.003912283077409651,4.2910109199212343e-07,0.000992059766075748,4.296670923498169e-07,-0.0010058837594233427
84,0.074585,251.726,251.491,-2.21514e-05,251.609,0.0314746,0.0314716,0.00099271,0.00100301,-0.00102681,0.00396219,4.58962e-07,4.59601e-07,0.000569133,0.0009932028996606501,0.003970049852112023,4.5896210543183713e-07,0.0010035131827483834,4.59601105617935e-07,-0.00102628301099994
85,0.075585,252.198,251.952,-2.16912e-05,252.075,0.033256,0.0332527,0.00100349,0.00101446,-0.00104724,0.00401972,4.89024e-07,4.89739e-07,0.000605313,0.0010039936645500624,0.0040278099105321985,4.890241196431333e-07,0.0010149747385916896,4.897391199243373e-07,-0.0010466918355611643
86,0.076585,252.667,252.408,-2.12433e-05,252.538,0.0350209,0.0350173,0.00101427,0.0010259,-0.00106768,0.00407726,5.19285e-07,5.20081e-07,0.00064153,0.0010147845457644245,0.004085583332839926,5.192851348923e-07,0.0010264264154060676,5.200811352690238e-07,-0.0010671102325032766
87,0.077585,253.132,252.861,-2.08071e-05,252.997,0.0367696,0.0367656,0.00102504,0.00103733,-0.00108812,0.00413481,5.49745e-07,5.50624e-07,0.000677782,0.001025565533049555,0.004143370120959666,5.497451511793372e-07,0.0010378682128497907,5.506241516073374e-07,-0.001087528212097677
88,0.078585,253.593,253.311,-2.03823e-05,253.452,0.0385023,0.038498,0.00103581,0.00104877,-0.00110857,0.00419236,5.804e-07,5.81368e-07,0.00071407,0.0010363466364464724,0.004201160234804657,5.804001683706872e-07,0.0010493201515671124,5.81368168939278e-07,-0.0011079557632732717
89,0.079585,254.05,253.756,-1.99686e-05,253.903,0.0402193,0.0402146,0.00104658,0.0010602,-0.00112903,0.00424991,6.11251e-07,6.12311e-07,0.000750393,0.001047127855956509,0.0042589536745663015,6.112511867772952e-07,0.001060762210687738,6.123111875311338e-07,-0.0011283928854258773
90,0.080585,254.503,254.198,-1.95656e-05,254.351,0.0419207,0.0419156,0.00105734,0.00107163,-0.00114949,0.00430746,6.42295e-07,6.43451e-07,0.00078675,0.0010578991810019645,0.004316750440436445,6.42295206354504e-07,0.0010722044005917475,6.434512069830589e-07,-0.001148829589439293
91,0.081585,254.953,254.637,-1.91729e-05,254.795,0.0436069,0.0436014,0.0010681,0.00108305,-0.00116997,0.00436502,6.73532e-07,6.74787e-07,0.00082314,0.0010686706219473763,0.004374560576351438,6.73532226880269e-07,0.0010836367104443134,6.74787227650242e-07,-0.0011692858519364302
92,0.082585,255.399,255.072,-1.87903e-05,255.236,0.0452779,0.045272,0.00107886,0.00109447,-0.00119045,0.00442258,7.0496e-07,7.06319e-07,0.000859564,0.0010794421787940767,0.0044323740399137,7.049602483988338e-07,0.0010950691508546662,7.063192495326831e-07,-0.0011897416954936846
93,0.083585,255.842,255.503,-1.84173e-05,255.673,0.0469341,0.0469278,0.00108961,0.00110589,-0.00121094,0.00448014,7.36577e-07,7.38043e-07,0.00089602,0.0010902038406412906,0.004490190831314855,7.365772711764862e-07,0.00110650172182436,7.380432722747798e-07,-0.001210207108017447
94,0.084585,256.282,255.932,-1.80538e-05,256.107,0.0485757,0.0485689,0.00110036,0.0011173,-0.00123143,0.00453771,7.68383e-07,7.69959e-07,0.000932507,0.0011009656181770744,0.00454802099622631,7.683832952132263e-07,0.0011179244121752863,7.699592963206214e-07,-0.001230672101209196
95,0.085585,256.718,256.357,-1.76994e-05,256.537,0.0502028,0.0501956,0.00111111,0.00112872,-0.00125193,0.00459528,8.00375e-07,8.02066e-07,0.000969026,0.0011117275114025382,0.0046058544905160925,8.003753202423525e-07,0.0011293572441533062,8.020663215813073e-07,-0.0012511466625662049
96,0.086585,257.15,256.778,-1.73539e-05,256.964,0.0518156,0.051808,0.00112185,0.00114013,-0.00127244,0.00465285,8.32553e-07,8.34362e-07,0.00100558,0.0011224795090942763,0.004663691314376273,8.325533464859092e-07,0.0011407801952874053,8.343623481010809e-07,-0.0012716307914827363
97,0.087585,257.58,257.197,-1.70169e-05,257.388,0.0534145,0.0534064,0.00113259,0.00115153,-0.00129296,0.00471042,8.64915e-07,8.66845e-07,0.00104216,0.0011332316222627536,0.00472153146799803,8.649153739881399e-07,0.0011521932652358569,8.66845375702141e-07,-0.0012921244873528304
98,0.088585,258.006,257.612,-1.66883e-05,257.809,0.0549995,0.0549909,0.00114333,0.00116294,-0.00131348,0.004768,8.9746e-07,8.99515e-07,0.00107877,0.0011439838509097466,0.004779384999367142,8.97460402660144e-07,0.001163616476930418,8.995154046065323e-07,-0.001312617762696644
99,0.089585,258.429,258.025,-1.63677e-05,258.227,0.0565708,0.0565618,0.00115407,0.00117434,-0.00133401,0.00482558,9.30186e-07,9.3237e-07,0.0011154,0.0011547361950363655,0.004837241862038599,9.301864325461651e-07,0.0011750298072141785,9.323704346364536e-07,-0.001333120604191551
100,0.090585,258.848,258.434,-1.6055e-05,258.641,0.0581287,0.0581192,0.0011648,0.00118573,-0.00135454,0.00488316,9.63093e-07,9.65409e-07,0.00115207,0.001165478642988882,0.004895102056203804,9.630934638682476e-07,0.0011864332557460777,9.65409465925049e-07,-0.0013536230247674919
101,0.091585,259.265,258.84,-1.57498e-05,259.053,0.0596733,0.0596633,0.00117553,0.00119713,-0.00137508,0.00494075,9.96179e-07,9.9863e-07,0.00118877,0.0011762212062085275,0.004952975631584922,9.961794962265458e-07,0.0011978468461426584,9.986304987386063e-07,-0.0013741350106917238
102,0.092585,259.679,259.243,-1.54521e-05,259.461,0.0612048,0.0611943,0.00118626,0.00120852,-0.00139563,0.00499833,1.02944e-06,1.03203e-06,0.00122549,0.0011869638846964126,0.005010842489892697,1.0294405299315912e-06,0.0012092505545622245,1.0320305325883794e-06,-0.0013946565613576212
103,0.093585,260.089,259.644,-1.51615e-05,259.867,0.0627234,0.0627124,0.00119698,0.00121991,-0.00141618,0.00505592,1.06288e-06,1.06561e-06,0.00126224,0.001197696666476844,0.005068722730957154,1.062880564894897e-06,0.0012206543928707791,1.0656105677853134e-06,-0.0014151776903099655
104,0.094585,260.497,260.041,-1.48779e-05,260.269,0.0642293,0.0642178,0.0012077,0.0012313,-0.00143674,0.00511351,1.0965e-06,1.09937e-06,0.00129902,0.0012084295633132403,0.005126606305440706,1.0965006012053635e-06,0.0012320583610696545,1.0993706043294083e-06,-0.0014357083832003958
105,0.095585,260.902,260.436,-1.4601e-05,260.669,0.0657226,0.0657106,0.00121842,0.00124268,-0.0014573,0.00517111,1.13029e-06,1.13331e-06,0.00133583,0.0012191625752071555,0.005184503265380336,1.1302906388621636e-06,0.0012434524467261898,1.133310642220664e-06,-0.0014562386539841432
106,0.096585,261.304,260.828,-1.43307e-05,261.066,0.0672036,0.067191,0.00122914,0.00125407,-0.00147787,0.0052287,1.16425e-06,1.16742e-06,0.00137266,0.001229895702159256,0.005242393507856935,1.1642506776432526e-06,0.0012548566745964607,1.1674206814582533e-06,-0.001476778487902064
107,0.097585,261.703,261.217,-1.40668e-05,261.46,0.0686723,0.0686592,0.00123985,0.00126545,-0.00149844,0.0052863,1.19838e-06,1.20171e-06,0.00140951,0.0012406189317650806,0.005300297137331489,1.1983807179927197e-06,0.0012662510196990162,1.2017107220430034e-06,-0.0014973178993200609
108,0.098585,262.1,261.604,-1.3809e-05,261.852,0.070129,0.0701153,0.00125056,0.00127682,-0.00151903,0.0053439,1.23268e-06,1.23617e-06,0.0014464,0.00125134227621726,0.005358204102151376,1.2326807596885203e-06,0.0012776354816936841,1.236170763974087e-06,-0.0015178768578892887
109,0.099585,262.493,261.987,-1.35574e-05,262.24,0.0715737,0.0715595,0.00126127,0.0012882,-0.00153961,0.0054015,1.26715e-06,1.27081e-06,0.0014833,0.001262065735517126,0.005416114402508221,1.2671508027306544e-06,0.0012890300860206594,1.2708108074743762e-06,-0.0015384254085382132
110,0.1006,268.628,267.925,-0.0429498,268.337,0.0938617,0.0938359,0.00143878,0.00147633,-0.00188207,0.006358,1.89699e-06,1.90408e-06,0.00209929,0.0014398155405230817,0.006378254986313836,1.8969917991995544e-06,0.00147742031162168,1.9040818126647707e-06,-0.0018803000168423623
111,0.1016,277.476,276.409,-0.228502,277.262,0.12529,0.125242,0.00173357,0.00178793,-0.00245541,0.00795349,3.05479e-06,3.0693e-06,0.0031376,0.0017350735011549823,0.007985203022237153,3.054794665890981e-06,0.0017895292998457712,3.0693047103902416e-06,-0.002452397946645646
112,0.1026,285.547,284.47,0.0830879,284.96,0.156436,0.156364,0.00202693,0.00210056,-0.0030297,0.00954697,4.3816e-06,4.40519e-06,0.00418533,0.002028985611237877,0.009592687690743062,4.381609599146685e-06,0.002102767721703369,4.40519970279496e-06,-0.0030251150904240243
113,0.1036,292.238,290.757,-0.242686,291.797,0.177876,0.177781,0.00231984,0.00240943,-0.00360709,0.0111422,5.69897e-06,5.73271e-06,0.00524182,0.002322532910784325,0.011204505502184325,5.6989862391443324e-06,0.002412335009132738,5.732726432006174e-06,-0.003600592265851077
114,0.1046,298.776,297.487,0.221543,297.902,0.202796,0.20268,0.00261105,0.00272098,-0.00418339,0.0127341,7.18687e-06,7.23198e-06,0.00630243,0.0026144617598302666,0.012815523904377457,7.186895825572748e-06,0.0027246852259332766,7.232006150825754e-06,-0.0041746518133815025
115,0.1056,304.049,302.206,-0.324238,303.49,0.217229,0.217093,0.00290277,0.00302712,-0.00476303,0.0143285,8.61124e-06,8.66834e-06,0.00736927,0.002906987116288784,0.014431645005068772,8.611277076742141e-06,0.0030317063543945366,8.668377570186792e-06,-0.004751704760562636
116,0.1066,309.703,308.287,0.390948,308.568,0.238622,0.238467,0.00319224,0.00333833,-0.00533971,0.0159176,1.02238e-05,1.02939e-05,0.00843701,0.0031973406241367908,0.01604495985195764,1.0223852263235855e-05,0.0033439084294133448,1.0293952982465271e-05,-0.00532547908947012
117,0.1076,313.908,311.698,-0.476416,313.319,0.247827,0.247655,0.00348322,0.00364158,-0.00592091,0.0175108,1.17218e-05,1.18051e-05,0.00951038,0.003489293460469778,0.017665012873550934,1.172186870057601e-05,0.003648218608343301,1.1805169680467742e-05,-0.005903415956301172
118,0.1086,319.074,317.621,0.614849,317.671,0.267523,0.267333,0.00377103,0.00395326,-0.00649693,0.0190964,1.3438e-05,1.35355e-05,0.010582,0.0037781492798234506,0.019279902464093945,1.3438090290307514e-05,0.00396108443959764,1.3535591605329245e-05,-0.0064758705821569285
119,0.1096,322.362,319.755,-0.713981,321.824,0.272315,0.272112,0.00406165,0.00425315,-0.00707953,0.0206885,1.49834e-05,1.50951e-05,0.0116598,0.004069909679217165,0.02090399050903624,1.4983512251598441e-05,0.004262207478847424,1.5095213931504148e-05,-0.007054529160344436
120,0.1106,326.457,323.991,-0.429863,325.674,0.283808,0.28359,0.00435013,0.00455937,-0.00765762,0.0222741,1.66544e-05,1.67808e-05,0.0127358,0.0043596055504848685,0.022524019896272174,1.6654538685267894e-05,0.0045697797420074515,1.6780940798488686e-05,-0.007628375124294484
121,0.1116,330.488,328.385,0.119351,329.304,0.296213,0.295982,0.00463735,0.00486668,-0.00823484,0.0238575,1.83865e-05,1.8528e-05,0.0138121,0.004648119147845353,0.024144366919575777,1.8386669032643965e-05,0.00487854152138123,1.852817164449405e-05,-0.008201026584767401
122,0.1126,333.762,331.29,-0.23149,332.765,0.303806,0.303563,0.00492539,0.00516943,-0.00881439,0.0254423,2.00856e-05,2.02424e-05,0.0148909,0.004937539672427604,0.025768717707859157,2.0085801716973606e-05,0.005182814556833559,2.024260487876184e-05,-0.00877565715015427
123,0.1136,337.416,335.306,0.295767,336.028,0.314547,0.314292,0.00521166,0.00547587,-0.00939129,0.0270227,2.18628e-05,2.20354e-05,0.0159685,0.005225264323412748,0.027391124277310386,2.1863038992764317e-05,0.005490889979431701,2.2035642781137454e-05,-0.009347329558783035
124,0.1146,340.2,337.531,-0.298331,339.171,0.320139,0.319874,0.00549917,0.00577658,-0.009971,0.0286053,2.35931e-05,2.37816e-05,0.0170486,0.005514318190105838,0.029018360763188422,2.3593378319475278e-05,0.005793296611027676,2.378188278440163e-05,-0.009921454389333229
125,0.1156,343.677,341.541,0.423446,342.135,0.330146,0.329871,0.00578434,0.00608302,-0.0105468,0.0301822,2.5412e-05,2.56166e-05,0.0181262,0.005801101597292746,0.030642299874559242,2.5412322887552463e-05,0.0061015591384132595,2.5616928107874415e-05,-0.01049137751928042
126,0.1166,346.032,343.134,-0.42228,345.018,0.334064,0.333781,0.00607146,0.00638164,-0.0111264,0.0317625,2.71653e-05,2.73863e-05,0.019207,0.006089928671613842,0.032272311515523455,2.7165668980089208e-05,0.006402046049470922,2.7386675008234107e-05,-0.011064730543113188
127,0.1176,349.434,347.308,0.575733,347.732,0.343693,0.343401,0.00635546,0.00668847,-0.0117006,0.0333355,2.90197e-05,2.92573e-05,0.0202842,0.0063756987887926275,0.03389735362208013,2.9020121075529204e-05,0.006710887767789497,2.9257727998999172e-05,-0.01163241417726657
128,0.1186,351.363,348.205,-0.591874,350.402,0.346054,0.345755,0.00664234,0.00698469,-0.0122805,0.0349138,3.07884e-05,3.10425e-05,0.0213654,0.0066644492656491305,0.03553044222816926,3.078887396767982e-05,0.007009139838897616,3.104298182332599e-05,-0.012205402386296749
129,0.1196,354.08,351.08,-0.342419,352.935,0.35192,0.351614,0.00692715,0.00728665,-0.0128559,0.0364861,3.26129e-05,3.28838e-05,0.0224436,0.006951198199988129,0.03715988739511955,3.261343180649412e-05,0.007313262232851558,3.2884340678052126e-05,-0.012773615907056501
130,0.1206,356.835,354.166,0.110089,355.371,0.35826,0.357947,0.007211,0.0075895,-0.0134304,0.0380562,3.44615e-05,3.47492e-05,0.0235211,0.007237061866878669,0.038789611214201436,3.4462093804421556e-05,0.007618373253422961,3.4749803760503184e-05,-0.013340614578754573
131,0.1216,359.056,356.107,-0.164393,357.741,0.36241,0.362092,0.00749554,0.00788864,-0.0140064,0.039627,3.6293e-05,3.65978e-05,0.0245997,0.007523701878803024,0.04042262416809428,3.62936585989182e-05,0.007919837301327615,3.6598469707715964e-05,-0.013908766741226097
132,0.1226,361.613,358.958,0.233702,360.016,0.368,0.367676,0.00777864,0.0081906,-0.0145802,0.0411941,3.81557e-05,3.84776e-05,0.0256765,0.007808972216915899,0.04205434866622593,3.8156427937918735e-05,0.008224234731010194,3.847834027226327e-05,-0.014474423588400565
133,0.1236,363.584,360.519,-0.196106,362.241,0.371331,0.371002,0.00806268,0.00848825,-0.0151559,0.0427622,3.99972e-05,4.03363e-05,0.0267545,0.008095270935603471,0.04368967593361606,3.999799989862218e-05,0.008524377340985767,4.033711351958402e-05,-0.015041627377464284
134,0.1246,366.06,363.383,0.305398,364.374,0.376532,0.376198,0.00834492,0.00878993,-0.0157284,0.0443258,4.18727e-05,4.22291e-05,0.0278302,0.008379835900791388,0.045322865605850415,4.187357667384539e-05,0.008828674873073927,4.222999166092478e-05,-0.015605354663458026
135,0.1256,367.813,364.609,-0.262383,366.471,0.379187,0.37885,0.0086285,0.00908617,-0.0163035,0.0458912,4.37213e-05,4.4095e-05,0.0289074,0.008665832804240381,0.04696049545814063,4.3722255789857556e-05,0.009127574550552575,4.409597219878769e-05,-0.016171317265845864
136,0.1266,370.252,367.565,0.38373,368.477,0.384108,0.383766,0.00890984,0.00938778,-0.0168748,0.0474511,4.56067e-05,4.59979e-05,0.0299816,0.00894965077244314,0.048594923575796534,4.5607740001285535e-05,0.009431983422385048,4.599895791956854e-05,-0.016733218070044242
137,0.1276,371.789,368.437,-0.3463,370.462,0.38615,0.385806,0.00919302,0.00968248,-0.0174493,0.0490139,4.74596e-05,4.78682e-05,0.0310579,0.009235405592664225,0.05023494890436053,4.746072622463515e-05,0.009729506865825854,4.7869345700668475e-05,-0.017297942603608396
138,0.1286,374.224,371.547,0.476919,372.355,0.390858,0.39051,0.0094734,0.0099842,-0.0180191,0.0505701,4.93524e-05,4.97785e-05,0.0321306,0.009518414688875376,0.05187059689945506,4.9353617849634546e-05,0.010034208417601942,4.977973897002386e-05,-0.017857726738267354
139,0.1296,375.541,372.03,-0.447169,374.241,0.392334,0.391985,0.00975624,0.0102772,-0.0185932,0.0521303,5.12071e-05,5.16508e-05,0.0332059,0.009803987261055358,0.053513006315156764,5.120841110595187e-05,0.010330191800116406,5.165213392555046e-05,-0.01842141279578202
140,0.1306,378.003,375.358,0.587348,376.032,0.39688,0.396526,0.0100356,0.0105792,-0.0191613,0.0536827,5.31048e-05,5.35661e-05,0.0342768,0.010086125510172517,0.05514975001791722,5.310621008480787e-05,0.010635357595755845,5.3567534689102914e-05,-0.018978889224999795
141,0.1316,379.089,375.41,-0.566124,377.832,0.397833,0.39748,0.0103182,0.0108705,-0.0197351,0.0552403,5.49594e-05,5.54383e-05,0.0353512,0.010371616187174304,0.05679453189213257,5.4960910295553944e-05,0.010929798558667603,5.543983673095276e-05,-0.019541637670393186
142,0.1326,381.611,379.02,0.716471,379.529,0.402252,0.401894,0.0105965,0.0111729,-0.0203015,0.0567888,5.68599e-05,5.73565e-05,0.0364201,0.01065284173867953,0.058432245897586554,5.686151655481808e-05,0.01123554995703313,5.735814491547586e-05,-0.020096812046591306
143,0.1336,382.454,378.593,-0.704238,381.252,0.402726,0.402369,0.0108789,0.0114622,-0.020875,0.0583441,5.87127e-05,5.9227e-05,0.0374935,0.010938290404641116,0.06007970638518434,5.871442362437307e-05,0.011528142723138624,5.9228753953366464e-05,-0.02065862540950225
144,0.1346,384.324,380.74,-0.355029,382.896,0.405246,0.404887,0.0111586,0.0117589,-0.0214429,0.0598924,6.05875e-05,6.11194e-05,0.0385627,0.011221089392062122,0.06172229907957516,6.058933545971534e-05,0.01182830765034959,6.112126782853444e-05,-0.021214635482128874
145,0.1356,386.211,382.978,0.07681,384.5,0.407856,0.407495,0.0114375,0.0120561,-0.0220102,0.0614388,6.24658e-05,6.30154e-05,0.0396309,0.011503158286572335,0.06336541657387906,6.24677510288052e-05,0.012129067714115038,6.301738551206526e-05,-0.021769742948299586
146,0.1366,387.684,384.244,-0.128292,386.082,0.409617,0.409256,0.011717,0.01235,-0.0225787,0.0629855,6.43347e-05,6.4902e-05,0.0406996,0.011785912932434472,0.06501139645409704,6.433676952122269e-05,0.012426576163841352,6.490410618043008e-05,-0.022325708801166133
147,0.1376,389.429,386.239,0.182552,387.619,0.411851,0.411489,0.0119953,0.0126461,-0.0231452,0.064529,6.6209e-05,6.6794e-05,0.0417664,0.012067532137498338,0.0666565108349384,6.621119186411839e-05,0.012726400059780651,6.67962307689951e-05,-0.02287940443803338
148,0.1386,390.768,387.28,-0.128336,389.139,0.413317,0.412955,0.0122743,0.0129389,-0.023713,0.0660729,6.80737e-05,6.86764e-05,0.0428336,0.012349938372802738,0.06830459373224107,6.807601706682043e-05,0.01302296976540429,6.867875827798464e-05,-0.023434056031704564
149,0.1396,392.471,389.267,0.219352,390.614,0.415329,0.414966,0.012552,0.0132345,-0.0242783,0.0676132,6.99435e-05,7.0564e-05,0.0438987,0.01263110698914427,0.06995137123807793,6.994594610354454e-05,0.013322463618277602,7.056648969760992e-05,-0.02398595275152471
150,0.1406,393.712,390.154,-0.154671,392.076,0.416564,0.416201,0.0128305,0.0135263,-0.0248452,0.0691541,7.18032e-05,7.24414e-05,0.0449644,0.012913164027060109,0.07160133019042547,7.180577791143783e-05,0.013618194258163241,7.244402394168681e-05,-0.024539098310987106
151,0.1416,395.39,392.17,0.250802,393.492,0.418379,0.418017,0.0131074,0.0138215,-0.0254093,0.0706911,7.36674e-05,7.43233e-05,0.0460277,0.013193678517618102,0.07324964784254928,7.367011350956076e-05,0.01391745851833992,7.432606204482717e-05,-0.02508920063468223
152,0.1426,396.539,392.909,-0.186355,394.9,0.41941,0.419048,0.0133854,0.0141123,-0.0259753,0.072229,7.55211e-05,7.61947e-05,0.0470917,0.013475385515704597,0.07490146831775579,7.552395179000193e-05,0.014212348590215473,7.619760288979371e-05,-0.02564084401731881
153,0.1436,398.2,394.969,0.283805,396.262,0.42104,0.420678,0.0136616,0.0144072,-0.0265382,0.0737626,7.73785e-05,7.80697e-05,0.0481531,0.013755346077957809,0.07655120190194209,7.738149379332704e-05,0.014511483917150736,7.80727475182541e-05,-0.026189156449209494
154,0.1446,399.258,395.558,-0.22068,397.621,0.421888,0.421528,0.0139391,0.014697,-0.0271033,0.0752976,7.92253e-05,7.99342e-05,0.0492155,0.014036702222854025,0.07820497694448458,7.922843840701965e-05,0.014805531950692119,7.993739482325957e-05,-0.026739301498776125
155,0.1456,400.911,397.674,0.318875,398.932,0.423339,0.422978,0.0142145,0.0149915,-0.0276649,0.0768278,8.10748e-05,8.18014e-05,0.050275,0.014316006389064606,0.07985610915928376,8.107808665047678e-05,0.015104436191340609,8.180474582575314e-05,-0.02728573125521705
156,0.1466,401.88,398.109,-0.257026,400.245,0.424025,0.423667,0.0144915,0.0152804,-0.0282291,0.0783599,8.2914e-05,8.36582e-05,0.0513358,0.014597010840154079,0.08151182474117236,8.291743746080549e-05,0.015397742228973499,8.366169944484803e-05,-0.027834381856754242
157,0.1476,403.528,400.289,0.355704,401.51,0.4253,0.42494,0.0147662,0.0155746,-0.0287894,0.0798867,8.47546e-05,8.55164e-05,0.0523933,0.014875758923328153,0.08316433820294677,8.475819177267141e-05,0.015696516192232224,8.552005663164941e-05,-0.028378933682159824
158,0.1486,404.41,400.57,-0.294917,402.781,0.425848,0.425489,0.0150428,0.0158625,-0.0293528,0.0814159,8.65854e-05,8.73649e-05,0.0534524,0.015156512384660203,0.08482198021898579,8.658914862391676e-05,0.015988977317002773,8.736871642400779e-05,-0.028926190814113295
159,0.1496,405.726,401.996,-0.155044,404.018,0.426709,0.426414,0.0153178,0.0161535,-0.0299133,0.0829411,8.84131e-05,8.92133e-05,0.054509,0.015435718814690524,0.08647781312039848,8.841700855333201e-05,0.016284673131056193,8.921727962474257e-05,-0.02947032517626158
160,0.1506,407.093,403.544,0.070132,405.226,0.427628,0.42737,0.0155924,0.0164448,-0.0304731,0.0844644,9.02389e-05,9.1058e-05,0.0555646,0.01571459575112799,0.08813410596829452,9.024297165205475e-05,0.01658075997929509,9.106214590559603e-05,-0.03001347564622714
161,0.1516,408.226,404.557,-0.0501873,406.425,0.428509,0.428088,0.0158672,0.0167343,-0.0310333,0.0859872,9.20616e-05,9.28975e-05,0.0566199,0.015993752476417766,0.08979237887340297,9.206583779919342e-05,0.01687510271336401,9.290181510634987e-05,-0.030556709923042602
162,0.1526,409.51,405.971,0.113369,407.598,0.429426,0.429074,0.0161412,0.0170247,-0.0315922,0.0875076,9.38808e-05,9.47368e-05,0.0576737,0.01627217290645322,0.09145055943568248,9.388520694031399e-05,0.017170446124979755,9.47412876723952e-05,-0.031098380393953406
163,0.1536,410.585,406.885,-0.045485,408.762,0.430223,0.429887,0.0164154,0.0173133,-0.0321514,0.0890275,9.56964e-05,9.65715e-05,0.0587272,0.016550872944293138,0.09311071645770408,9.57009790465424e-05,0.017464043879849678,9.657616317748641e-05,-0.03164003871785481
164,0.1546,411.835,408.273,0.124616,409.9,0.4312,0.430847,0.0166888,0.0176032,-0.0327092,0.0905447,9.75105e-05,9.84044e-05,0.0597791,0.016828835948767606,0.09477044278673041,9.75152543032376e-05,0.017759049465164045,9.840924187187738e-05,-0.03218003928409874
165,0.1556,412.866,409.127,-0.0516567,411.029,0.432005,0.431663,0.0169625,0.017891,-0.0332674,0.0920615,9.93205e-05,0.000100233,0.0608308,0.017107180090824903,0.09643225059078042,9.932543244417502e-05,0.018052002673544676,0.00010023802349490296,-0.03272012563404636
166,0.1566,414.09,410.501,0.131912,412.134,0.433004,0.43265,0.0172352,0.0181803,-0.033824,0.0935756,0.000101129,0.000102061,0.0618809,0.017384583041008872,0.09809361608075418,0.00010113411370960002,0.018346567724698337,0.00010206620840103042,-0.03325836380653935
167,0.1576,415.08,411.301,-0.0587866,413.231,0.433814,0.433478,0.0175084,0.0184675,-0.0343812,0.0950894,0.000102934,0.000103885,0.0629307,0.017662570480450945,0.0997571690223169,0.00010293929788596223,0.018639078861537595,0.00010389039623337482,-0.0337968822010688
168,0.1586,416.281,412.664,0.13846,414.304,0.434838,0.434486,0.0177805,0.0187562,-0.0349367,0.0966004,0.000104738,0.000105708,0.0639788,0.017939514142355062,0.1014201581766152,0.00010474348521571919,0.018933202418297324,0.00010571358728750369,-0.03433345898500628
169,0.1596,417.233,413.413,-0.0656172,415.371,0.435656,0.435322,0.0180531,0.0190427,-0.0354928,0.098111,0.000106538,0.000107527,0.0650268,0.018217042279276674,0.10308522077270843,0.0001065436753742155,0.019225168602948983,0.00010753278123498689,-0.034870316861297046
170,0.1606,418.411,414.766,0.144472,416.414,0.436704,0.436354,0.0183247,0.0193308,-0.0360472,0.0996189,0.000108338,0.000109345,0.066073,0.01849362758654438,0.10474981768454517,0.00010834386877300872,0.019518849676750882,0.00010935097838249419,-0.03540523646421412
171,0.1616,419.327,415.468,-0.0719012,417.452,0.437528,0.437198,0.0185967,0.0196166,-0.0366023,0.101127,0.000110134,0.00011116,0.067119,0.018770695532780213,0.10641714781887313,0.0001101400649716755,0.01981026980594125,0.00011116617850182031,-0.0359405344317566
172,0.1626,420.484,416.81,0.149855,418.467,0.438599,0.438252,0.0188677,0.0199042,-0.0371556,0.102631,0.000111929,0.000112974,0.0681633,0.01904681980441847,0.10808245120342597,0.00011193526428421308,0.020103609419751978,0.00011298038180274084,-0.036473800992256944
173,0.1636,421.367,417.468,-0.077503,419.478,0.439432,0.439106,0.0191392,0.0201893,-0.0377096,0.104136,0.000113721,0.000114785,0.0692075,0.01932352857751174,0.10975137083950126,0.00011372746647797527,0.020394482420773796,0.00011479158805016709,-0.03700744667300504
174,0.1646,422.503,418.799,0.1545,420.467,0.440525,0.44018,0.0194096,0.0204763,-0.0382618,0.105638,0.000115513,0.000116596,0.0702498,0.019599190927509058,0.11141946982723883,0.00011551967188339063,0.020687377665685736,0.0001166027975778583,-0.03753906436779808
175,0.1656,423.355,419.418,-0.0823136,421.452,0.441366,0.441044,0.0196805,0.0207608,-0.0388147,0.107139,0.000117301,0.000118403,0.0712921,0.019875437764276027,0.11308896309269767,0.00011730788003139203,0.020977804535894817,0.00011841000991186235,-0.03807106193482912
176,0.1666,424.471,420.736,0.158309,422.415,0.442481,0.442138,0.0199504,0.0210472,-0.0393658,0.108638,0.00011909,0.00012021,0.0723325,0.02015073929519895,0.11475873462947561,0.0001190970914954903,0.02127025445594355,0.0001202172255114764,-0.03860103492512612
177,0.1676,425.294,421.319,-0.0862431,423.376,0.443331,0.443012,0.0202207,0.021331,-0.0399177,0.110136,0.000120874,0.000122014,0.0733729,0.020426523310561162,0.11642989460026132,0.00012088130555620857,0.02156013208584806,0.00012202144401074477,-0.03913148462289251
178,0.1686,426.39,422.624,0.161201,424.316,0.444467,0.444127,0.02049,0.0216169,-0.0404676,0.111632,0.00012266,0.000123818,0.0744114,0.020701361178546485,0.11810132363978121,0.00012266752304546102,0.021852237882145298,0.000123825665764965,-0.039659720967604284
179,0.1696,427.187,423.174,-0.0892227,425.254,0.445327,0.445011,0.0207599,0.0219,-0.0410185,0.113127,0.000124442,0.000125619,0.0754499,0.020976885656284416,0.11977413523372449,0.0001244497432268954,0.02214156520303967,0.0001256268903970792,-0.040188626726855414
180,0.1706,428.263,424.464,0.163121,426.17,0.446482,0.446144,0.0210286,0.0221853,-0.0415673,0.11462,0.000126224,0.00012742,0.0764864,0.021251259005868883,0.12144720665466435,0.00012623196658423375,0.02243322379471202,0.000127428118273043,-0.040715226696259266
181,0.1716,429.036,424.987,-0.0912065,427.086,0.447352,0.44704,0.0212979,0.0224678,-0.0421171,0.116112,0.000128004,0.000129219,0.077523,0.021526319005085615,0.12312165471462677,0.00012801219286151522,0.022722101982556753,0.00012922734913467515,-0.04124249650486933
182,0.1726,430.092,426.26,0.164033,427.981,0.448525,0.448191,0.021566,0.0227525,-0.0426649,0.117602,0.000129784,0.000131017,0.0785576,0.02180022692692729,0.12479635332077987,0.00012979242230759525,0.023013312416829468,0.00013102558310196244,-0.04176756003725213
183,0.1736,430.843,426.758,-0.0921723,428.876,0.449408,0.4491,0.0218348,0.0230344,-0.0432136,0.119091,0.00013156,0.000132813,0.0795923,0.022074923745523556,0.1264724226147933,0.00013156865439634124,0.023301740521631142,0.00013282182003693244,-0.042293197955108996
184,0.1746,431.878,428.012,0.163929,429.751,0.450598,0.450267,0.0221024,0.0233184,-0.0437603,0.120578,0.000133339,0.00013461,0.0806249,0.0223484675936525,0.12814873313520958,0.00013334789003960346,0.02359239948755887,0.00013461906033263027,-0.04281663316973394
185,0.1756,432.61,428.49,-0.0921221,430.626,0.451494,0.451189,0.0223706,0.0235997,-0.0443079,0.122064,0.000135113,0.000136404,0.0816577,0.022622698225345017,0.1298264083566183,0.00013512212817246017,0.023880376531606906,0.0001364133034487125,-0.04334064329434373
186,0.1766,433.625,429.723,0.162821,431.481,0.452699,0.452371,0.0226376,0.0238832,-0.0448536,0.123548,0.000136889,0.000138198,0.0826884,0.022895774939890146,0.13150431544574803,0.00013689836972674563,0.024170687768027,0.00013820754978355332,-0.04386254989013183
187,0.1776,434.339,430.185,-0.0910813,432.337,0.453609,0.453308,0.0229053,0.0241639,-0.0454001,0.125031,0.000138662,0.00013999,0.0837192,0.023169640794150625,0.13318358121335483,0.00013867161401948103,0.02445821283233851,0.00013999979905721105,-0.04438493625154227
188,0.1786,435.333,431.395,0.160748,433.173,0.454829,0.454504,0.0231718,0.0244467,-0.0459447,0.126512,0.000140436,0.000141783,0.084748,0.02344235184055532,0.13486306945119497,0.00014044586159678296,0.02474797058474243,0.0001417930516844912,-0.0449052225284472
189,0.1796,436.032,431.845,-0.0890967,434.011,0.455753,0.455456,0.0234389,0.0247268,-0.0464902,0.127992,0.000142207,0.000143574,0.0857769,0.023715749803404407,0.13654391030940838,0.00014221711189477126,0.025035042693875242,0.0001435843072399301,-0.04542608465149778
190,0.1806,437.005,433.029,0.157765,434.83,0.456986,0.456666,0.0237049,0.0250091,-0.0470337,0.12947,0.00014398,0.000145365,0.0868038,0.023988094413079253,0.13822496420165242,0.00014399036561774103,0.025324450934478993,0.0001453755660036915,-0.045944754613159944
191,0.1816,437.69,433.47,-0.0862346,435.649,0.457927,0.457633,0.0239715,0.0252886,-0.0475781,0.130947,0.00014575,0.000147154,0.0878307,0.024261126032547597,0.13990736462063724,0.00014576062204740836,0.025611069171547873,0.00014716482768095673,-0.046464000937075034
192,0.1826,438.642,434.627,0.153949,436.451,0.459172,0.458855,0.024237,0.0255702,-0.0481206,0.132422,0.000147522,0.000148945,0.0888558,0.024533103464915662,0.1415899685988271,0.00014753288190538782,0.025899921917184265,0.00014895609285714428,-0.046981153926135
193,0.1836,439.314,435.063,-0.0825777,437.254,0.46013,0.459839,0.024503,0.0258492,-0.0486639,0.133897,0.000149291,0.000150733,0.0898807,0.02480566551958363,0.1432750562491425,0.000149302144455854,0.026186187927650817,0.00015074436078954534,-0.047498788437059236
194,0.1846,440.245,436.191,0.149388,438.04,0.461386,0.461073,0.0247679,0.0261301,-0.0492053,0.135368,0.000151061,0.000152522,0.0909038,0.025077172499891498,0.144958051396338,0.00015107241028733398,0.026474484117143815,0.000152533632071572,-0.048014333022487365
195,0.1856,440.907,436.624,-0.0782217,438.827,0.462362,0.462075,0.0250334,0.0264086,-0.0497476,0.13684,0.000152829,0.000154309,0.0919269,0.02534936662136089,0.14664467069525244,0.00015284067894660858,0.02676039707250144,0.0001543209062462303,-0.04853045489059593
196,0.1866,441.816,437.723,0.144184,439.597,0.463627,0.463318,0.0252979,0.0266889,-0.050288,0.138308,0.000154599,0.000156098,0.0929481,0.025620607398843864,0.14832918120003002,0.00015461095104130074,0.027048238350871445,0.0001561101839266943,-0.04904449012794232
197,0.1876,442.469,438.156,-0.0732718,440.368,0.464622,0.464338,0.0255628,0.0269668,-0.0508291,0.139777,0.000156366,0.000157884,0.0939692,0.02589233028585114,0.15001731639893912,0.00015637822580027994,0.027333694718634227,0.00015789646433472804,-0.049558912964684176
198,0.1886,443.357,439.223,0.138447,441.124,0.465896,0.465592,0.0258267,0.0272465,-0.0513685,0.141243,0.000158135,0.000159672,0.0949885,0.026163098998173817,0.15170447817219523,0.0001581475039982294,0.027621080142024912,0.00015968474825234225,-0.05007144264534935
199,0.1896,444.001,439.658,-0.0678392,441.88,0.466911,0.466631,0.0260911,0.0275239,-0.0519085,0.142709,0.000159902,0.000161458,0.0960076,0.026434452392886998,0.1533941151384841,0.00015991478500620993,0.02790618177142412,0.00016147103504438043,-0.050584265591663735
200,0.1906,444.868,440.694,0.132289,442.621,0.468193,0.467893,0.0263545,0.0278029,-0.0524469,0.144172,0.00016167,0.000163245,0.097025,0.026704850837558913,0.15508276567560508,0.00016168306929875698,0.0281930076064818,0.00016325832519004102,-0.051095293442027456
201,0.1916,445.505,441.132,-0.0620374,443.362,0.469228,0.468951,0.0266184,0.0280797,-0.0529859,0.145634,0.000163437,0.000165031,0.0980423,0.02697583400235093,0.15677273174320105,0.0001634503565541845,0.028477650823791167,0.00016504461836452933,-0.051606615265251676
202,0.1926,446.351,442.135,0.125823,444.09,0.470518,0.470222,0.0268813,0.0283581,-0.0535232,0.147094,0.000165205,0.000166818,0.0990578,0.027245861442661834,0.1584628534201482,0.00016521864709750922,0.028764018862361906,0.00016683191489619276,-0.05211605015892962
203,0.1936,446.981,442.578,-0.0559787,444.818,0.471573,0.4713,0.0271446,0.0286344,-0.0540611,0.148554,0.000166972,0.000168604,0.100073,0.02751637088898562,0.16015544447695262,0.00016698594060038374,0.02904830563318228,0.00016861821445335323,-0.05262577983146344
204,0.1946,447.807,443.55,0.11916,445.532,0.47287,0.472578,0.0274071,0.0289122,-0.0545975,0.150011,0.00016874,0.000170391,0.101087,0.02778612934059166,0.16184702297524445,0.00016875423739448614,0.029334214963454563,0.0001704055173710195,-0.05313381509592274
205,0.1956,448.431,443.999,-0.0497715,446.246,0.473946,0.473676,0.0276699,0.029188,-0.0551343,0.151468,0.000170507,0.000172177,0.1021,0.028056267029920035,0.1635410678997633,0.00017052153714480767,0.0296181444920236,0.00017219182331040805,-0.05364195646663339
206,0.1966,449.236,444.938,0.112407,446.948,0.475249,0.474962,0.0279318,0.0294651,-0.0556696,0.152922,0.000172275,0.000173965,0.103112,0.028325550227350726,0.16523408713920684,0.00017228984018990978,0.02990349121282465,0.00017398013278802082,-0.05414840636392837
207,0.1976,449.856,445.394,-0.0435174,447.65,0.476347,0.47608,0.028194,0.0297404,-0.0562053,0.154376,0.000174042,0.000175751,0.104123,0.028595212537804393,0.16692956981911156,0.00017405714618745627,0.030187062675776533,0.0001757664451118579,-0.05465496336923126
208,0.1986,450.641,446.301,0.10566,448.339,0.477656,0.477374,0.0284555,0.0300169,-0.0567397,0.155828,0.000175811,0.000177539,0.105133,0.02886422535777622,0.1686251822712237,0.00017582645565950017,0.030471948782295533,0.00017755476098102463,-0.0551600207934434
209,0.1996,451.256,446.764,-0.0373096,449.028,0.478775,0.478512,0.0287172,0.0302917,-0.0572743,0.157279,0.000177578,0.000179325,0.106143,0.029133514360481394,0.17032208821824146,0.00017759376790627002,0.030755161385450425,0.00017934107968886615,-0.05566499725409246
210,0.2006,452.022,447.64,0.0990075,449.706,0.48009,0.479813,0.0289781,0.0305675,-0.0578077,0.158728,0.000179347,0.000181114,0.107151,0.029402050323371176,0.1720191141224141,0.0001793630836346427,0.031039482865090173,0.00018113040213063591,-0.05616857122943841
211,0.2016,452.632,448.11,-0.0312305,450.383,0.481231,0.480971,0.0292393,0.0308418,-0.0583412,0.160176,0.000181115,0.000182901,0.108158,0.029670965257677206,0.1737174270815076,0.00018113140231190705,0.031322335786744926,0.0001829177274077498,-0.056671971002858035
212,0.2026,453.379,448.956,0.0925269,451.05,0.482551,0.482279,0.0294998,0.031117,-0.0588736,0.161622,0.000182885,0.00018469,0.109164,0.029939229484025276,0.17541585014500383,0.00018290172448121034,0.03160619475075532,0.00018470705624817896,-0.0571740651761673
213,0.2036,453.985,449.433,-0.0253516,451.715,0.483713,0.483458,0.0297604,0.0313907,-0.0594061,0.163067,0.000184654,0.000186478,0.11017,0.03020766662306884,0.177115553788594,0.00018467104959918323,0.031888584009465815,0.00018649538810300292,-0.057675986338091456
214,0.2046,454.714,450.25,0.0862833,452.371,0.48504,0.484773,0.0300204,0.0316653,-0.0599374,0.16451,0.000186425,0.000188268,0.111174,0.030475555440427904,0.178815357646243,0.0001864423782202973,0.03217197952305795,0.00018828572353224438,-0.05817651011063585
215,0.2056,455.315,450.734,-0.0197321,453.025,0.486223,0.485971,0.0302806,0.0319385,-0.0604689,0.165952,0.000188194,0.000190057,0.112178,0.030743720066658486,0.1805164355743918,0.0001882117096017044,0.0324540074311217,0.00019007506197588064,-0.05867695629015879
216,0.2066,456.027,451.522,0.08033,453.67,0.487556,0.487294,0.0305401,0.0322125,-0.0609992,0.167392,0.000189966,0.000191848,0.11318,0.031011232770287833,0.18221760378877128,0.000189984044683289,0.03273693858895643,0.0001918664040043705,-0.05917600756509733
217,0.2076,456.624,452.012,-0.0144193,454.313,0.48876,0.488511,0.0307997,0.0324852,-0.0615296,0.168832,0.000191737,0.000193638,0.114182,0.031278918030358316,0.18392122344999784,0.0001917553827135432,0.03301860435549142,0.00019365674904769925,-0.05967488829581946
218,0.2086,457.32,452.774,0.0747081,454.948,0.490099,0.489842,0.0310587,0.0327586,-0.062059,0.170269,0.000193509,0.00019543,0.115183,0.03154605386272524,0.18562374121413838,0.00019352772407432717,0.03330107025325102,0.00019544909768653973,-0.06017256466339771
219,0.2096,457.913,453.27,-0.00944875,455.58,0.491323,0.491079,0.0313178,0.0330308,-0.0625883,0.171706,0.000195281,0.000197222,0.116183,0.03181336207356433,0.18732870725497164,0.00019530006857571003,0.03358237308815282,0.00019724144953725542,-0.06066988369782833
220,0.2106,458.592,454.006,0.0694473,456.205,0.49267,0.492417,0.0315763,0.0333035,-0.0631167,0.173141,0.000197055,0.000199015,0.117181,0.03208012030467633,0.1890337470233281,0.0001970744166117644,0.03386426943611398,0.00019903480479888103,-0.06116609462081102
221,0.2116,459.181,454.507,-0.00484467,456.828,0.493913,0.493673,0.0318349,0.0335752,-0.063645,0.174575,0.000198829,0.000200808,0.118179,0.032347050736404315,0.19074004453948223,0.00019884876779574512,0.03414520852196645,0.0002008281632761566,-0.06166194958140225
222,0.2126,459.845,455.218,0.0645667,457.443,0.495267,0.49502,0.032093,0.0338474,-0.0641723,0.176006,0.000200604,0.000202603,0.119176,0.03261353389837218,0.19244521330048525,0.00020062412232801918,0.034426741162580266,0.00020262352537403494,-0.062156604808076055
223,0.2136,460.429,455.723,-0.000621193,458.056,0.49653,0.496294,0.032351,0.0341186,-0.0646996,0.177437,0.000202379,0.000204398,0.120172,0.032879982560517274,0.19415282390470745,0.00020239948001132824,0.03470731573897634,0.00020441889069444663,-0.06265099927180506
224,0.2146,461.079,456.413,0.0600754,458.662,0.497891,0.497649,0.0326086,0.0343901,-0.065226,0.178867,0.000204156,0.000206194,0.121167,0.033146086716768774,0.19586168398664583,0.00020417684125439983,0.03498827691395312,0.0002062152594439759,-0.06314428994029364
225,0.2156,461.658,456.921,0.0032168,459.265,0.499174,0.498941,0.0328662,0.0346608,-0.0657522,0.180295,0.000205933,0.00020799,0.122161,0.03341225943028059,0.19757059434297464,0.0002059542056558339,0.03526848616512468,0.00020801163141981327,-0.06363713373635249
226,0.2166,462.294,457.589,0.0559741,459.862,0.500543,0.500306,0.0331233,0.0349317,-0.0662776,0.181721,0.000207711,0.000209788,0.123154,0.03367798387959442,0.19927954820501825,0.00020773257342332485,0.0355489783889833,0.00020981000704134445,-0.06412896956969993
227,0.2176,462.869,458.099,0.00667237,460.456,0.501843,0.501616,0.0333803,0.0352019,-0.0668028,0.183147,0.00020949,0.000211587,0.124147,0.033943673261074725,0.20099094077365365,0.00020951194456242384,0.03582882152804956,0.00021160938610820246,-0.0646203599844638
228,0.2186,463.492,458.748,0.052256,461.045,0.503221,0.502989,0.0336369,0.0354722,-0.0673272,0.18457,0.00021127,0.000213386,0.125138,0.03420901724981129,0.20270116742004296,0.00021129231907823787,0.03610884390182734,0.00021340876841202672,-0.0651107444776361
229,0.2196,464.062,459.259,0.0097553,461.63,0.50454,0.504316,0.0338935,0.0357419,-0.0678514,0.185993,0.00021305,0.000215187,0.126129,0.034474429334551804,0.20441382945131537,0.0002130726967630725,0.03638832014270488,0.00021521015438330515,-0.06560068500075067
230,0.2206,464.673,459.89,0.0489084,462.21,0.505926,0.505699,0.0341496,0.0360116,-0.0683748,0.187414,0.000214833,0.000216989,0.127118,0.03473939216294619,0.206126518080042,0.0002148560782615494,0.0366678717684894,0.00021701254381589763,-0.06608962163634191
231,0.2216,465.238,460.402,0.0124808,462.786,0.507262,0.507043,0.0344057,0.0362808,-0.0688979,0.188833,0.000216615,0.000218791,0.128107,0.035004422857011,0.20783922648842656,0.0002166384627231288,0.03694698032589594,0.0002188149364965586,-0.06657802240290656
232,0.2226,465.837,461.015,0.0459138,463.357,0.508658,0.508436,0.0346614,0.03655,-0.0694204,0.190252,0.000218399,0.000220595,0.129094,0.03526910732640287,0.20955436695517982,0.00021842285079798351,0.03722616402944001,0.00022061933286621205,-0.06706560799337269
233,0.2236,466.396,461.528,0.0148682,463.926,0.510011,0.509797,0.0349169,0.0368186,-0.0699425,0.191669,0.000220184,0.000222399,0.130081,0.03553365237751582,0.21126952039237912,0.00022020824227619862,0.03750480039628723,0.00022242373249103942,-0.06755256590801406
234,0.2246,466.985,462.125,0.0432509,464.489,0.511416,0.5112,0.0351721,0.0370872,-0.070464,0.193084,0.00022197,0.000224206,0.131067,0.03579795428909205,0.21298467995294534,0.00022199463716332524,0.03778351161491478,0.00022423113604363998,-0.06803871047168031
235,0.2256,467.539,462.636,0.01694,465.049,0.512786,0.512576,0.0354272,0.0373553,-0.0709851,0.194498,0.000223758,0.000226013,0.132052,0.03606222005289639,0.21470105348050694,0.00022378303568859614,0.038061778674411295,0.00022603854286229463,-0.06852422898681776
236,0.2266,468.117,463.219,0.040896,465.605,0.514201,0.51399,0.0356819,0.0376233,-0.0715056,0.195911,0.000225546,0.000227821,0.133036,0.036326138708957956,0.21641863925765326,0.0002255714374115314,0.03834001651330099,0.0002278469531749039,-0.0690089359696947
237,0.2276,468.665,463.729,0.0187206,466.157,0.515587,0.515382,0.0359365,0.0378909,-0.0720257,0.197323,0.000227336,0.00022963,0.134019,0.03659002093465502,0.21813743556090537,0.0002273618427868218,0.03861791348267607,0.00022965636698657477,-0.06949301852551604
238,0.2286,469.233,464.298,0.0388242,466.705,0.517013,0.516807,0.0361908,0.0381584,-0.0725452,0.198733,0.000229127,0.000231441,0.135001,0.03685365929717577,0.21985622080388278,0.00022915325159611477,0.038895780937648006,0.00023146778453453365,-0.06997629136140415
239,0.2296,469.776,464.806,0.0202354,467.249,0.518415,0.518215,0.0364449,0.0384254,-0.0730643,0.200142,0.000230919,0.000233253,0.135982,0.03711715728800513,0.22157620966659408,0.00023094566384473936,0.03917320314537487,0.0002332802055962091,-0.07045894138590647
240,0.2306,470.335,465.363,0.0370094,467.79,0.519851,0.519651,0.0366987,0.0386924,-0.0735829,0.201549,0.000232712,0.000235067,0.136962,0.03738041102801137,0.22329617710694505,0.00023273907953802464,0.03945069943472079,0.00023509463041215817,-0.0709408764023528
241,0.2316,470.872,465.868,0.0215103,468.327,0.521268,0.521073,0.0369523,0.0389589,-0.074101,0.202955,0.000234507,0.000236882,0.137942,0.03764352406157068,0.2250173412267953,0.00023453449891608358,0.03972774996146322,0.00023691005875647875,-0.07142209726326032
242,0.2326,471.422,466.413,0.0354261,468.86,0.522715,0.522521,0.0372056,0.0392253,-0.0746185,0.20436,0.000236303,0.000238698,0.13892,0.03790639245709215,0.2267397002651117,0.0002363309217532361,0.04000477033152783,0.0002387264906344999,-0.0719025120098894
243,0.2336,471.954,466.915,0.0225706,469.39,0.524148,0.523958,0.0374588,0.0394913,-0.0751357,0.205763,0.000238101,0.000240516,0.139898,0.03816922362868458,0.22846202399215843,0.00023812934829292587,0.04028144839698733,0.00024054492629210777,-0.07238239992096673
244,0.2346,472.495,467.449,0.0340491,469.916,0.525606,0.525417,0.0377116,0.0397571,-0.0756523,0.207165,0.0002399,0.000242335,0.140874,0.03843170598478962,0.23018553564915512,0.00023992877830636417,0.04055799195698229,0.00024236436549807117,-0.07286148341524634
245,0.2356,473.021,467.947,0.0234408,470.439,0.527054,0.526869,0.0379643,0.0400226,-0.0761684,0.208566,0.0002417,0.000244155,0.14185,0.0386941508354024,0.2319102334533083,0.00024172921179843598,0.04083429678168926,0.0002441848082579412,-0.07333985614895355
246,0.2366,473.555,468.472,0.0328544,470.958,0.528524,0.52834,0.0382167,0.0402879,-0.076684,0.209965,0.000243502,0.000245977,0.142825,0.038956350327257194,0.23363488198026383,0.00024353164901858015,0.04111046675295227,0.00024600725482293306,-0.07381751896706668
247,0.2376,474.075,468.966,0.0241441,471.475,0.529986,0.529806,0.0384688,0.0405529,-0.0771992,0.211363,0.000245305,0.000247801,0.143799,0.039218304241078084,0.23536070961771038,0.00024533508973179075,0.04138639758586238,0.00024783170520392694,-0.07429456528361178
248,0.2386,474.601,469.481,0.0318195,471.987,0.531467,0.531289,0.0387208,0.0408176,-0.0777138,0.21276,0.00024711,0.000249626,0.144772,0.03948022025377851,0.23708771456112943,0.0002471405341910593,0.041662089051459184,0.00024965715916258624,-0.07477081075184822
249,0.2396,475.115,469.971,0.0247022,472.497,0.532944,0.532769,0.0389725,0.0410821,-0.078228,0.214155,0.000248916,0.000251452,0.145744,0.03974189035501707,0.23881465618466868,0.0002489469821580492,0.041937645114696,0.000251483616704018,-0.07524644130586433
250,0.2406,475.633,470.478,0.0309235,473.003,0.534437,0.534264,0.0392239,0.0413463,-0.0787417,0.215549,0.000250724,0.000253281,0.146715,0.04000331432586868,0.2405427680295018,0.0002507554338890827,0.04221296140821629,0.00025331307834064454,-0.07572136521431572
251,0.2416,476.142,470.963,0.025135,473.506,0.535928,0.535758,0.0394752,0.0416102,-0.079255,0.216942,0.000252534,0.000255111,0.147685,0.0402647000004932,0.2422720482694225,0.00025256588939481794,0.042488037703452664,0.00025514354357847324,-0.07619567569535213
252,0.2426,476.653,471.461,0.0301475,474.005,0.537434,0.537266,0.0397262,0.0418739,-0.0797677,0.218333,0.000254345,0.000256942,0.148655,0.04052583921179331,0.24400125107029647,0.0002543773484320333,0.042762978048286326,0.0002569750124230552,-0.07666918877697226
253,0.2436,477.156,471.942,0.0254605,474.502,0.538938,0.538774,0.039977,0.0421373,-0.0802799,0.219723,0.000256157,0.000258775,0.149623,0.04078683581987419,0.24573161513370523,0.0002561898110058358,0.043037677993098766,0.00025880848513870625,-0.07714199772177321
254,0.2446,477.661,472.433,0.0294741,474.996,0.540456,0.540294,0.0402275,0.0424005,-0.0807917,0.221112,0.000257972,0.00026061,0.150591,0.041047585579790935,0.2474631386117927,0.00025800527763797376,0.0433122416409375,0.00026064396173630655,-0.07761419560159455
255,0.2456,478.158,472.909,0.025695,475.486,0.541974,0.541815,0.0404778,0.0426633,-0.081303,0.222499,0.000259788,0.000262447,0.151558,0.04130819240404504,0.2491945704554579,0.0002598217478249065,0.043586460128771876,0.00026248144222695835,-0.07808569091533468
256,0.2466,478.656,473.392,0.0288881,475.974,0.543504,0.543348,0.0407279,0.042926,-0.0818138,0.223885,0.000261606,0.000264285,0.152524,0.041568656152599415,0.2509271545335181,0.0002616402218338365,0.04386064630462516,0.00026431992635744805,-0.07855648449349872
257,0.2476,479.148,473.863,0.0258527,476.458,0.545036,0.544883,0.0409778,0.0431883,-0.0823241,0.22527,0.000263425,0.000266125,0.153488,0.04182897668546781,0.2526608889765076,0.00026345969941221625,0.04413448686477017,0.0002661604143991969,-0.0790265771651153
258,0.2486,479.64,474.34,0.0283759,476.94,0.546579,0.546428,0.0412274,0.0434504,-0.082834,0.226654,0.000265247,0.000267967,0.154453,0.04208904965380467,0.25439577190891605,0.0002652821810960049,0.04440819038105648,0.00026800290636375124,-0.07949606180813695
259,0.2496,480.126,474.806,0.0259463,477.418,0.548124,0.547976,0.0414768,0.0437123,-0.0833433,0.228036,0.00026707,0.000269811,0.155416,0.04234897907463986,0.2561305453180127,0.0002671056663674509,0.04468175670806396,0.0002698474022617692,-0.07996475510098
260,0.2506,480.612,475.276,0.0279257,477.894,0.549679,0.549534,0.0417259,0.0439739,-0.0838522,0.229417,0.000268895,0.000271657,0.156378,0.04260866054731194,0.25786645997427815,0.00026893115550108426,0.04495508120490421,0.00027169390210435296,-0.08043284192231537
261,0.2516,481.092,475.737,0.0259867,478.367,0.551238,0.551096,0.0419749,0.0442352,-0.0843607,0.230796,0.000270721,0.000273504,0.157339,0.04286830242786088,0.2596022543777523,0.00027075764823702997,0.045228163644290165,0.00027354140562918516,-0.0809003229550721
262,0.2526,481.572,476.201,0.0275273,478.837,0.552806,0.552667,0.0422236,0.0444963,-0.0848686,0.232174,0.00027255,0.000275353,0.1583,0.04312769602893196,0.2613391827530833,0.0002725871451259021,0.045501108349198294,0.0002753909131170129,-0.08136701515452682
263,0.2536,482.048,476.657,0.0259834,479.305,0.554378,0.554242,0.0424721,0.0447571,-0.0853761,0.233551,0.00027438,0.000277205,0.15926,0.04338694547180433,0.2630772431877113,0.00027441764563529425,0.045773810597083076,0.0002772434248563549,-0.0818331031145123
264,0.2546,482.522,477.114,0.0271718,479.769,0.555959,0.555825,0.0427203,0.0450177,-0.0858831,0.234927,0.000276213,0.000279058,0.160218,0.04364594625233775,0.26481643376304165,0.00027625115032314795,0.0460463747656934,0.00027909694030570087,-0.08229849574423265
265,0.2556,482.992,477.566,0.0259444,480.231,0.557544,0.557414,0.0429683,0.045278,-0.0863896,0.236302,0.000278047,0.000280913,0.161176,0.043904802543861754,0.2665567525544441,0.0002780856586499514,0.04631869607812611,0.0002809524597515711,-0.0827631938614054
266,0.2566,483.461,478.017,0.0268519,480.69,0.559137,0.55901,0.0432162,0.045538,-0.0868957,0.237675,0.000279883,0.00028277,0.162133,0.04416361862333984,0.26829692933368876,0.0002799221709011146,0.04659077430774339,0.0002828099832050679,-0.08322728995956852
267,0.2576,483.926,478.464,0.0258765,481.147,0.560736,0.560611,0.0434637,0.0457978,-0.0874013,0.239046,0.000281722,0.000284629,0.163089,0.04442208110236168,0.27003695694017726,0.00028176168736959717,0.04686271391433405,0.0002846695106772934,-0.08369069308358346
268,0.2586,484.389,478.91,0.0265611,481.601,0.562342,0.56222,0.0437111,0.0460573,-0.0879064,0.240417,0.000283562,0.000286491,0.164045,0.04468050309070826,0.27177937176057543,0.00028360220750434095,0.04713441003964225,0.00028653204246587016,-0.08415340404701566
269,0.2596,484.849,479.351,0.0257855,482.052,0.563954,0.563835,0.0439582,0.0463166,-0.088411,0.241786,0.000285404,0.000288354,0.164999,0.044938675538914286,0.27352163002419116,0.00028544473159652917,0.047405967198029586,0.00028839557801085824,-0.08461542366198138
270,0.2606,485.307,479.792,0.0262942,482.501,0.565573,0.565457,0.0442051,0.0465757,-0.0889152,0.243154,0.000287248,0.000290219,0.165952,0.045196702750053275,0.2752649998071137,0.00028728925965726404,0.047677385244820236,0.00029026111760832585,-0.08507684423147033
271,0.2616,485.761,480.229,0.0256761,482.948,0.567197,0.567085,0.0444518,0.0468344,-0.0894189,0.244521,0.000289094,0.000292087,0.166905,0.04545458458503804,0.27700947914181784,0.0002891357916976478,0.047948454445672306,0.00029212966156122455,-0.08553757498025072
272,0.2626,486.214,480.664,0.0260469,483.391,0.568829,0.56872,0.0446983,0.047093,-0.0899222,0.245886,0.000290943,0.000293956,0.167857,0.04571232090483468,0.27875378730032807,0.0002909853280195218,0.04821948895924422,0.00029399920929873424,-0.08599770811654639
273,0.2636,486.664,481.096,0.0255523,483.833,0.570467,0.57036,0.0449445,0.0473512,-0.090425,0.24725,0.000292793,0.000295828,0.168808,0.04596980697347597,0.2804991975653959,0.00029283586805406436,0.04849017417525103,0.0002958717614178763,-0.08645715295479373
274,0.2646,487.112,481.527,0.0258154,484.272,0.572112,0.572008,0.0451905,0.0476092,-0.0909273,0.248613,0.000294646,0.000297702,0.169758,0.04622714719754106,0.2822457079481189,0.0002946894123962984,0.04876071953903938,0.00029774631763812565,-0.08691591030031165
275,0.2656,487.557,481.954,0.0254172,484.708,0.573763,0.573662,0.0454363,0.047867,-0.0914292,0.249975,0.000296501,0.000299578,0.170707,0.04648434143819946,0.28399331645357884,0.000296544960766143,0.04903112490629091,0.00029962287797036247,-0.0873740722195806
276,0.2666,488.0,482.379,0.0255969,485.142,0.57542,0.575323,0.0456819,0.0481245,-0.0919306,0.251335,0.000298358,0.000301456,0.171655,0.04674138955667373,0.28574073533946254,0.0002984025131749224,0.049301285202599576,0.0003015014424261331,-0.08783154816096694
277,0.2676,488.441,482.802,0.0252736,485.574,0.577084,0.57699,0.0459272,0.0483818,-0.0924315,0.252694,0.000300217,0.000303336,0.172602,0.04699818671441558,0.2874892448418884,0.0003002620696337388,0.04957130515986008,0.0003033820110165397,-0.08828833892569532
278,0.2686,488.879,483.223,0.0253889,486.004,0.578755,0.578663,0.0461724,0.0486388,-0.092932,0.254052,0.000302078,0.000305219,0.173549,0.04725494214672765,0.28923884294461666,0.00030212363015347243,0.049841079649823206,0.00030526558405830073,-0.08874453643911218
279,0.2696,489.315,483.641,0.0251235,486.431,0.580432,0.580343,0.0464173,0.0488956,-0.093432,0.255409,0.000303941,0.000307104,0.174495,0.04751144628970971,0.29098952762539887,0.00030398719474589164,0.05011071345857654,0.0003071511612611211,-0.08920005028294176
280,0.2706,489.748,484.057,0.0251895,486.856,0.582115,0.58203,0.046662,0.0491521,-0.0939315,0.256764,0.000305807,0.000308991,0.17544,0.047767803704667156,0.2927400041153265,0.00030585376372749273,0.05038010140410565,0.000309038742636325,-0.08965488125433363
281,0.2716,490.18,484.47,0.0249686,487.278,0.583805,0.583723,0.0469064,0.0494084,-0.0944306,0.258118,0.000307675,0.000310881,0.176384,0.04802390945073998,0.29449155961637663,0.0003077223368075366,0.05064934832661483,0.00031092932850618205,-0.09010912113810732
282,0.2726,490.609,484.882,0.024997,487.699,0.585502,0.585422,0.0471507,0.0496644,-0.0949293,0.259471,0.000309546,0.000312773,0.177327,0.04827997296870401,0.2962441920850374,0.0003095939143067383,0.05091834899040237,0.000312821918574846,-0.0905627705925024
283,0.2736,491.036,485.291,0.0248103,488.117,0.587204,0.587128,0.0473947,0.0499202,-0.0954274,0.260822,0.000311418,0.000314667,0.178269,0.04853578448984486,0.2979966014745452,0.00031146649561941686,0.05118720828971246,0.0003147165128536411,-0.09101564847786947
284,0.2746,491.46,485.698,0.0248103,488.533,0.588914,0.588841,0.0476385,0.0501757,-0.0959252,0.262173,0.000313293,0.000316563,0.17921,0.04879144867830165,0.2997513799691085,0.00031334208137745456,0.05145582093523471,0.00031661311135411374,-0.09146802828138234
285,0.2756,491.883,486.103,0.0246497,488.946,0.59063,0.59056,0.0478821,0.050431,-0.0964224,0.263522,0.00031517,0.000318462,0.180151,0.04904696539587228,0.3015059277570924,0.0003152196712825628,0.051724291875176576,0.00031851271440608286,-0.0919196380982169
286,0.2766,492.303,486.506,0.0246282,489.358,0.592352,0.592285,0.0481255,0.050686,-0.0969193,0.264869,0.00031705,0.000320364,0.181091,0.04930233450440946,0.3032602375041431,0.0003171002656634503,0.05199251576669761,0.0003204153220266459,-0.09237075114172821
287,0.2776,492.721,486.906,0.0244876,489.767,0.594081,0.594017,0.0483687,0.0509408,-0.0974156,0.266216,0.000318932,0.000322268,0.182029,0.04955755586582056,0.3050169118986552,0.0003189828642176096,0.0522605976118915,0.00032231993391063085,-0.09282109577567177
288,0.2786,493.137,487.305,0.0244502,490.175,0.595816,0.595756,0.0486116,0.0511954,-0.0979115,0.267561,0.000320816,0.000324174,0.182968,0.04981252436081052,0.306773340578661,0.00032086746695658697,0.052528537267314324,0.00032422655006936196,-0.09327085426744164
289,0.2796,493.551,487.701,0.0243247,490.58,0.597558,0.597501,0.0488543,0.0514497,-0.098407,0.268905,0.000322703,0.000326082,0.183905,0.05006734478168018,0.3085308247131866,0.0003227550742144203,0.05279622930994199,0.0003261351705146076,-0.09372002726735129
290,0.2806,493.963,488.095,0.0242754,490.983,0.599306,0.599252,0.0490969,0.0517037,-0.098902,0.270248,0.000324593,0.000327994,0.184841,0.05032212202275388,0.3102893622043863,0.000324645686008207,0.053063673516163146,0.0003280477959133332,-0.09416852484154659
291,0.2816,494.373,488.488,0.0241614,491.384,0.601061,0.60101,0.0493392,0.0519575,-0.0993965,0.27159,0.000326484,0.000329907,0.185776,0.05057664590724342,0.3120489509484323,0.00032653730170162376,0.053330974995624336,0.0003299614252991745,-0.09461634777266725
292,0.2826,494.781,488.878,0.0241034,491.784,0.602822,0.602774,0.0495813,0.0522111,-0.0998906,0.27293,0.000328379,0.000331824,0.186711,0.050831021304116764,0.31380827502658204,0.00032843292228590393,0.05359813360516319,0.00033187905967335674,-0.09506358733559983
293,0.2836,495.187,489.266,0.0239981,492.181,0.60459,0.604545,0.0498231,0.0524644,-0.100384,0.274269,0.000330275,0.000333742,0.187645,0.05108514296713906,0.3155686426099229,0.0003303295467926848,0.053865043815156444,0.0003337976980573032,-0.09550997282925133
294,0.2846,495.591,489.653,0.0239339,492.576,0.606364,0.606323,0.0500648,0.0527175,-0.100877,0.275607,0.000332175,0.000335664,0.188578,0.05133922095028165,0.31733005157355243,0.0003322301762245239,0.054131810815685855,0.0003357203414642296,-0.09595577651300913
295,0.2856,495.993,490.037,0.0238352,492.969,0.608145,0.608107,0.0503062,0.0529704,-0.10137,0.276944,0.000334076,0.000337588,0.18951,0.051593044873534,0.31909249978659515,0.00033413180960151223,0.054398434463780454,0.00033764498924160335,-0.09640136046971803
296,0.2866,496.393,490.419,0.0237666,493.361,0.609932,0.609897,0.0505475,0.053223,-0.101863,0.27828,0.000335981,0.000339514,0.190441,0.05184682489258985,0.32085598511220437,0.0003360374479377537,0.054664809150032356,0.0003395716414011929,-0.09684672480767675
297,0.2876,496.791,490.8,0.0236729,493.75,0.611726,0.611694,0.0507885,0.0534753,-0.102354,0.279614,0.000337888,0.000341443,0.191372,0.052100350526000705,0.32261918278771784,0.00033794509058027167,0.05493093465170129,0.00034150129829613185,-0.09729006421706443
298,0.2886,497.187,491.179,0.0236011,494.137,0.613526,0.613497,0.0510293,0.0537275,-0.102846,0.280947,0.000339797,0.000343375,0.192301,0.05235372679568595,0.32438340975441093,0.00033985473754016837,0.05519702178559771,0.00034343395994351766,-0.09773408826659657
299,0.2896,497.581,491.555,0.0235113,494.523,0.615332,0.615307,0.0512699,0.0539793,-0.103337,0.282279,0.000341709,0.000345309,0.19323,0.052606953564311665,0.3261486638544382,0.0003417673891707995,0.055462753849946145,0.0003453686260157518,-0.09817699208747166
300,0.2906,497.974,491.93,0.0234374,494.907,0.617145,0.617124,0.0515103,0.054231,-0.103827,0.283609,0.000343624,0.000347246,0.194158,0.05286003069460077,0.3279136150097144,0.00034368304548970663,0.055728447261203407,0.000347306296871297,-0.09861877711517764
301,0.2916,498.364,492.303,0.0233506,495.288,0.618965,0.618947,0.0517504,0.0544824,-0.104317,0.284939,0.000345541,0.000349186,0.195085,0.05311285273804223,0.32968091511173037,0.00034560070616818095,0.05599389075769423,0.0003492469725279168,-0.09906034572124767
302,0.2926,498.753,492.675,0.0232752,495.668,0.620791,0.620776,0.0519904,0.0547335,-0.104807,0.286267,0.000347461,0.000351129,0.196011,0.05336563015477602,0.33144790438819216,0.00034752137156535134,0.0562590841172963,0.0003511906530031528,-0.09950169801170239
303,0.2936,499.14,493.044,0.0231907,496.047,0.622624,0.622612,0.0522302,0.0549845,-0.105296,0.287594,0.000349384,0.000353074,0.196937,0.05361825752169791,0.3332159085686448,0.0003494450416985373,0.05652423842288301,0.0003531363379611907,-0.09994193403489449
304,0.2946,499.525,493.412,0.0231145,496.423,0.624463,0.624455,0.0524697,0.0552352,-0.105785,0.28892,0.000351309,0.000355022,0.197862,0.05387062931469022,0.33498492546240577,0.000351370716233701,0.056789142253763414,0.000355085027768709,-0.10038195483529755
305,0.2956,499.908,493.777,0.0230319,496.798,0.626309,0.626304,0.052709,0.0554856,-0.106273,0.290245,0.000353238,0.000356972,0.198785,0.054122850733374195,0.3367549528728442,0.00035330039588887807,0.057053795388173345,0.00035703572208656276,-0.10082086133944068
306,0.2966,500.289,494.142,0.0229552,497.171,0.628161,0.628159,0.0529482,0.0557358,-0.106761,0.291568,0.000355168,0.000358926,0.199708,0.054375027078358285,0.3385246500720629,0.00035523107962176503,0.05731830333634402,0.000358990421644112,-0.10125955370946271
307,0.2976,500.669,494.504,0.0228741,497.542,0.63002,0.630021,0.0531871,0.0559858,-0.107249,0.29289,0.000357102,0.000360882,0.200631,0.054626947363006995,0.34029534983411547,0.0003571657685095264,0.05758266595612871,0.0003609471257428609,-0.10169803204983574
308,0.2986,501.047,494.865,0.0227972,497.911,0.631885,0.63189,0.0534258,0.0562355,-0.107736,0.294211,0.000359038,0.000362841,0.201552,0.054878716862837074,0.3420670499415266,0.00035910246185721917,0.05784677732074961,0.0003629068347579256,-0.1021353986008281
309,0.2996,501.423,495.223,0.0227173,498.279,0.633756,0.633765,0.0536643,0.056485,-0.108222,0.295531,0.000360978,0.000364803,0.202472,0.05513033544113144,0.34383974817088503,0.0003610431603984221,0.05811074302004271,0.0003648695487066256,-0.10257165477827024
310,0.3006,501.798,495.581,0.0226405,498.645,0.635635,0.635647,0.0539026,0.0567343,-0.108708,0.29685,0.00036292,0.000366768,0.203392,0.055381802961232074,0.3456134422928454,0.00036298586343064265,0.05837456291206067,0.0003668352676065023,-0.10300769898672268
311,0.3016,502.171,495.936,0.0225616,499.009,0.637519,0.637535,0.0541407,0.0569833,-0.109194,0.298167,0.000364864,0.000368736,0.204311,0.05563311928653847,0.34738678268467327,0.00036493057096542714,0.05863813099108994,0.00036880399147554144,-0.10344353132917739
312,0.3026,502.542,496.29,0.022485,499.371,0.639411,0.639429,0.0543785,0.0572321,-0.109679,0.299483,0.000366812,0.000370706,0.205229,0.05588417869208495,0.3491611109426065,0.0003668792837483448,0.058901552926410305,0.0003707747199606093,-0.10387825578728016
313,0.3036,502.912,496.642,0.0224069,499.732,0.641308,0.641331,0.0546162,0.0574807,-0.110164,0.300799,0.000368762,0.00037268,0.206146,0.05613519219313279,0.35093777575364205,0.00036883000106469055,0.05916482857627536,0.00037274945381904345,-0.10431276945514145
314,0.3046,503.279,496.993,0.0223306,500.092,0.643213,0.643238,0.0548537,0.0577291,-0.110649,0.302112,0.000370716,0.000374656,0.207063,0.05638605408994968,0.35271272205045445,0.00037078472366847137,0.059427957798990017,0.00037472619232481463,-0.10474707243496983
315,0.3056,503.646,497.342,0.0222533,500.449,0.645123,0.645153,0.0550909,0.0579772,-0.111133,0.303425,0.000372672,0.000376635,0.207978,0.05663665858249778,0.3544900003824005,0.0003727414508369886,0.059690834483824284,0.0003767059358670277,-0.1051802700096417
316,0.3066,504.01,497.689,0.0221773,500.805,0.647041,0.647073,0.055328,0.058225,-0.111616,0.304737,0.000374631,0.000378617,0.208893,0.056887216836754906,0.35626825754451796,0.00037470118295712673,0.05995345841037003,0.0003786886844630022,-0.10561236358022952
317,0.3076,504.373,498.035,0.0221008,501.16,0.648965,0.649001,0.0555648,0.0584727,-0.112099,0.306047,0.000376593,0.000380603,0.209807,0.057137517364114654,0.35804613321621526,0.0003766639200462052,0.06021604140157932,0.0003806754385116129,-0.10604424850001593
318,0.3086,504.735,498.379,0.0220252,501.513,0.650895,0.650935,0.0558015,0.0587201,-0.112582,0.307356,0.000378558,0.000382591,0.210721,0.057387771430875034,0.3598249796055555,0.0003786296621222096,0.06047837129909217,0.0003826641972712874,-0.1064759248697551
319,0.3096,505.095,498.722,0.0219493,501.864,0.652832,0.652875,0.0560379,0.0589672,-0.113064,0.308664,0.000380526,0.000384582,0.211633,0.05763776744840632,0.36160479442401905,0.0003805984092026815,0.06074044788286881,0.0003846559611384581,-0.10690649969709842
320,0.3106,505.453,499.063,0.0218741,502.214,0.654775,0.654822,0.0562742,0.0592142,-0.113546,0.309971,0.000382497,0.000386576,0.212545,0.057887716783205256,0.36338557537718263,0.0003825701613051624,0.06100248313351697,0.0003866507301311106,-0.10733686703738332
321,0.3116,505.81,499.402,0.0217988,502.562,0.656725,0.656776,0.0565102,0.0594609,-0.114027,0.311277,0.000384471,0.000388574,0.213455,0.05813740774674092,0.365167320164721,0.00038454491844786,0.06126426473553903,0.00038864950465611336,-0.10776613475717545
322,0.3126,506.165,499.74,0.0217241,502.909,0.658682,0.658736,0.056746,0.0597074,-0.114508,0.312582,0.000386448,0.000390574,0.214365,0.05838694596688754,0.3669500264804073,0.0003865226806480937,0.061525898621848096,0.00039065028395590673,-0.1081951960488442
323,0.3136,506.519,500.077,0.0216494,503.254,0.660645,0.660702,0.0569817,0.0599536,-0.114989,0.313885,0.000388428,0.000392577,0.215275,0.05863643717143541,0.3687323232791091,0.0003885034479240712,0.061787278472628104,0.0003926540684351387,-0.10862405101165784
324,0.3146,506.871,500.412,0.0215751,503.598,0.662615,0.662675,0.0572171,0.0601996,-0.115469,0.315187,0.000390411,0.000394584,0.216183,0.05888566952224239,0.37051557340793795,0.000390487220293112,0.06204851027332636,0.000394661858506673,-0.10905180879709075
325,0.3156,507.221,500.745,0.021501,503.94,0.664591,0.664655,0.0574523,0.0604454,-0.115949,0.316488,0.000392397,0.000396593,0.217091,0.05913474872227975,0.3722997745401164,0.0003924739977736458,0.062309593883012715,0.0003966716534011816,-0.10947936130805647
326,0.3166,507.571,501.078,0.0214272,504.28,0.666574,0.666642,0.0576873,0.060691,-0.116428,0.317788,0.000394386,0.000398606,0.217997,0.05938367463587868,0.3740849243429818,0.0003944637803834361,0.06257052916081096,0.00039868545392818255,-0.1099058185493268
327,0.3176,507.918,501.408,0.0213535,504.62,0.668563,0.668634,0.0579222,0.0609364,-0.116907,0.319087,0.000396378,0.000400622,0.218903,0.05963255309068072,0.37587102047798804,0.0003964565681400245,0.06283131596589908,0.0004007022597110055,-0.11033207156649405
328,0.3186,508.265,501.737,0.0212802,504.957,0.670559,0.670634,0.0581568,0.0611815,-0.117385,0.320384,0.000398374,0.000402641,0.219809,0.05988117204949939,0.37765668294333543,0.0003984533614600494,0.06309184784832045,0.00040272207076785804,-0.11075723121503411
329,0.3196,508.609,502.065,0.021207,505.294,0.672561,0.67264,0.0583912,0.0614263,-0.117863,0.321681,0.000400372,0.000404663,0.220713,0.060129637315219364,0.3794446629154784,0.00040045215956663327,0.063352124589247,0.0004047448871169479,-0.11118218768582544
330,0.3206,508.953,502.391,0.0211342,505.629,0.67457,0.674653,0.0586254,0.061671,-0.118341,0.322976,0.000402373,0.000406688,0.221617,0.06037794875241298,0.38123220093500954,0.0004024539628741941,0.06361235869247794,0.0004067707087764827,-0.11160694107596392
331,0.3216,509.295,502.716,0.0210615,505.962,0.676586,0.676672,0.0588594,0.0619154,-0.118818,0.32427,0.000404378,0.000408717,0.22252,0.06062610622571296,0.38302067229443226,0.0004044597718053655,0.06387233732103659,0.00040880053617353695,-0.11203060351354632
332,0.3226,509.635,503.04,0.0209891,506.294,0.678608,0.678698,0.0590932,0.0621596,-0.119295,0.325563,0.000406386,0.000410748,0.223422,0.06087410959981332,0.3848100746230134,0.0004064685859774819,0.0641321666696828,0.00041083236851080507,-0.11245406391233614
333,0.3236,509.975,503.362,0.0209169,506.625,0.680637,0.68073,0.0593269,0.0624036,-0.119771,0.326855,0.000408397,0.000412783,0.224323,0.06112206485166949,0.386600405544157,0.0004084804054085289,0.06439184659801311,0.00041286820662600476,-0.11287643524556168
334,0.3246,510.312,503.683,0.020845,506.954,0.682672,0.682769,0.0595603,0.0626474,-0.120247,0.328146,0.000410411,0.000414822,0.225223,0.06136975964646396,0.3883916626754047,0.00041049523011715827,0.06465137696568002,0.00041490805054400504,-0.11329860557787452
335,0.3256,510.649,504.002,0.0207733,507.282,0.684714,0.684815,0.0597935,0.0628909,-0.120722,0.329435,0.000412429,0.000416863,0.226123,0.061617299936489456,0.39018245344529157,0.00041251406053333106,0.06491065114132089,0.0004169498994550658,-0.11371968872506033
336,0.3266,510.984,504.32,0.0207018,507.609,0.686763,0.686867,0.0600265,0.0631342,-0.121197,0.330724,0.000414449,0.000418908,0.227022,0.06186468558668379,0.39197555403283846,0.0004145348958528583,0.0651697754239342,0.00041899575420956126,-0.11414057190524718
337,0.3276,511.317,504.637,0.0206305,507.934,0.688818,0.688926,0.0602594,0.0633773,-0.121672,0.332011,0.000416473,0.000420956,0.22792,0.06211202267324256,0.3937681798781727,0.00041655973692056314,0.06542874967338452,0.00042104461441083707,-0.11456125521339677
338,0.3286,511.65,504.952,0.0205595,508.258,0.69088,0.690991,0.060492,0.0636202,-0.122146,0.333297,0.0004185,0.000423007,0.228817,0.06235909866354006,0.39556171875581536,0.0004185875833424557,0.06568757374959167,0.00042309648007754497,-0.11498085372572209
339,0.3296,511.981,505.266,0.0204887,508.58,0.692948,0.693063,0.0607244,0.0638628,-0.12262,0.334582,0.000420531,0.000425062,0.229714,0.062606019609172,0.3973561682512974,0.00042061943555715686,0.06594614091791273,0.00042515235165319076,-0.11540025339548199
340,0.3306,512.31,505.579,0.0204181,508.901,0.695023,0.695141,0.0609567,0.0641052,-0.123093,0.335866,0.000422565,0.00042712,0.23061,0.06285289166060593,0.39915152594431036,0.00042265429316645786,0.0662045575813055,0.0004272112287353469,-0.11581857013591756
341,0.3316,512.639,505.89,0.0203477,509.221,0.697104,0.697227,0.0611887,0.0643474,-0.123566,0.337149,0.000424602,0.000429181,0.231505,0.0630995021371803,0.40094778940870857,0.00042469215618901046,0.06646282359990408,0.00042927311134244306,-0.1162366890593225
342,0.3326,512.966,506.2,0.0202776,509.54,0.699193,0.699319,0.0614206,0.0645894,-0.124039,0.338431,0.000426642,0.000431246,0.232399,0.06334606349941097,0.40274495621251116,0.00042673302464257823,0.06672093883389874,0.00043133899992442437,-0.11665461025924195
343,0.3336,513.291,506.509,0.0202076,509.857,0.701287,0.701417,0.0616522,0.0648311,-0.124511,0.339711,0.000428686,0.000433314,0.233293,0.06359236296809478,0.4045416193755831,0.0004287778989746638,0.06697879644565208,0.000433407894072646,-0.1170714509010693
344,0.3346,513.616,506.817,0.0201379,510.173,0.703389,0.703522,0.0618837,0.0650726,-0.124983,0.340991,0.000430733,0.000435386,0.234185,0.0638386131024753,0.4063405837399585,0.0004308257787790648,0.0672365029418005,0.00043548079424127195,-0.11748809484053913
345,0.3356,513.939,507.123,0.0200683,510.488,0.705497,0.705634,0.0621149,0.065314,-0.125454,0.342269,0.000432783,0.000437461,0.235077,0.06408460102493274,0.4081390359721726,0.000432876664074211,0.06749416493216165,0.00043755670001766056,-0.1179036600745742
346,0.3366,514.261,507.428,0.019999,510.802,0.707611,0.707752,0.062346,0.065555,-0.125925,0.343546,0.000434837,0.000439539,0.235968,0.06433053939331335,0.40993837815657397,0.0004349315553131561,0.0677514620289652,0.0004396356114204636,-0.1183190296234714
347,0.3376,514.582,507.732,0.0199299,511.114,0.709733,0.709877,0.0625769,0.0657959,-0.126396,0.344822,0.000436894,0.000441621,0.236859,0.06457632168933336,0.41173860782937544,0.0004369894520839246,0.0680087143409649,0.0004417185289102843,-0.11873420357937692
348,0.3386,514.901,508.035,0.019861,511.425,0.711861,0.712009,0.0628075,0.0660366,-0.126866,0.346097,0.000438955,0.000443706,0.237748,0.06482184129643764,0.4135397225209789,0.00043905135484401114,0.06826581497932716,0.00044380445206804175,-0.11914830118313491
349,0.3396,515.219,508.336,0.0197923,511.735,0.713995,0.714147,0.063038,0.066277,-0.127336,0.347371,0.000441019,0.000445795,0.238637,0.0650673110201554,0.4153417197559779,0.00044111626317699937,0.06852265695241644,0.00044589438135833603,-0.11956220420674901
350,0.3406,515.536,508.636,0.0197238,512.044,0.716137,0.716292,0.0632683,0.0665172,-0.127805,0.348644,0.000443086,0.000447888,0.239525,0.06531262426861972,0.4171445970531591,0.000443184177101541,0.06877934692184762,0.00044798831680670226,-0.11997503271712318
351,0.3416,515.852,508.935,0.0196555,512.351,0.718284,0.718444,0.0634984,0.0667572,-0.128274,0.349916,0.000445157,0.000449983,0.240413,0.06555778090765352,0.4189483519255055,0.00044525609708134795,0.06903588474841671,0.0004500842575376751,-0.12038766765632203
352,0.3426,516.166,509.233,0.0195874,512.657,0.720439,0.720602,0.0637283,0.066997,-0.128742,0.351186,0.000447232,0.000452083,0.241299,0.06580278080314295,0.4207515611279282,0.0004473320231415112,0.06929227029297746,0.00045218520492062986,-0.12079922991477854
353,0.3436,516.48,509.53,0.0195194,512.962,0.7226,0.722767,0.063958,0.0672365,-0.12921,0.352455,0.000449309,0.000454186,0.242185,0.06604762382103768,0.42255563930450113,0.0004494099544081198,0.06954839646159705,0.0004542891580783248,-0.12121059960716207
354,0.3446,516.792,509.825,0.0194517,513.266,0.724768,0.724939,0.0641875,0.0674759,-0.129678,0.353724,0.000451391,0.000456292,0.24307,0.0662923098273498,0.4243620083095032,0.00045149289224788447,0.06980447699932735,0.00045639611702985583,-0.12162177682357245
355,0.3456,517.103,510.119,0.0193842,513.569,0.726943,0.727117,0.0644169,0.067715,-0.130145,0.354991,0.000453476,0.000458402,0.243954,0.06653694534184496,0.42616781871335174,0.0004535788357851178,0.07006029783193957,0.0004585070822529236,-0.12203188368639006
356,0.3466,517.412,510.413,0.0193168,513.87,0.729124,0.729302,0.064646,0.0679539,-0.130612,0.356257,0.000455564,0.000460516,0.244838,0.06678131694772116,0.4279744905538132,0.00045566778503869365,0.07031596577541155,0.00046062205377239707,-0.12244179907401576
357,0.3476,517.721,510.704,0.0192497,514.171,0.731312,0.731494,0.0648749,0.0681926,-0.131079,0.357522,0.000457656,0.000462633,0.245721,0.06702553114041865,0.4297820213065271,0.0004577607404849804,0.07057148069093411,0.0004627400311509877,-0.12285152307584735
358,0.3486,518.029,510.995,0.0191827,514.47,0.733506,0.733693,0.0651037,0.0684311,-0.131545,0.358786,0.000459752,0.000464754,0.246603,0.06726969451316833,0.43159040844135665,0.00045985770214906907,0.0708268424397569,0.00046486201487305756,-0.12326017904185871
359,0.3496,518.335,511.285,0.0191159,514.768,0.735708,0.735898,0.0653323,0.0686693,-0.13201,0.360049,0.000461851,0.000466878,0.247484,0.0675137002541275,0.43339964942239373,0.00046195766959433726,0.071081943774989,0.0004669870044966551,-0.12366776828676063
360,0.3506,518.64,511.574,0.0190493,515.065,0.737916,0.73811,0.0655606,0.0689074,-0.132476,0.361311,0.000463953,0.000469006,0.248364,0.06775744145389484,0.435209741707961,0.0004640606428394367,0.07133699874889143,0.0004691160005103612,-0.12407604397111627
361,0.3516,518.944,511.861,0.0189829,515.36,0.74013,0.740328,0.0657888,0.0691452,-0.13294,0.362571,0.00046606,0.000471138,0.249244,0.06800113150601206,0.4370192457306499,0.00046616862283599403,0.07159179298102747,0.0004712490029394889,-0.12448237840983367
362,0.3526,519.247,512.148,0.0189166,515.655,0.742352,0.742553,0.0660168,0.0693828,-0.133405,0.363831,0.00046817,0.000473273,0.250123,0.06824466352559067,0.43883103116539535,0.00046827960867901197,0.0718464334411284,0.0004733850113363136,-0.1248893994641439
363,0.3536,519.549,512.433,0.0188506,515.949,0.74458,0.744785,0.0662446,0.0696202,-0.133869,0.365089,0.000470283,0.000475412,0.251001,0.06848803737917142,0.44064221960126737,0.0004703936003871423,0.0721009199907856,0.00047552502619541137,-0.12529535659345514
364,0.3546,519.849,512.717,0.0187847,516.241,0.746815,0.747024,0.0664723,0.0698574,-0.134333,0.366347,0.0004724,0.000477555,0.251879,0.06873135980648959,0.4424556879459538,0.0004725115984522965,0.07235525249164954,0.00047766904754298345,-0.12570112540235212
365,0.3556,520.149,513.0,0.0187189,516.533,0.749056,0.749269,0.0666997,0.0700944,-0.134796,0.367603,0.000474521,0.000479701,0.252756,0.0689744169522597,0.44426855052939485,0.00047463360289978773,0.07260943080543059,0.0004798160749244218,-0.12610583208446424
366,0.3566,520.448,513.282,0.0186534,516.823,0.751305,0.751522,0.0669269,0.0703312,-0.135259,0.368858,0.000476646,0.000481852,0.253632,0.06921731553202504,0.44608224541579933,0.0004767596137551511,0.07286345479389844,0.00048196810932332745,-0.12651035143075406
367,0.3576,520.745,513.563,0.018588,517.112,0.75356,0.753781,0.067154,0.0705677,-0.135721,0.370113,0.000478774,0.000484006,0.254507,0.06946016235859576,0.4478982179181912,0.00047888863056488873,0.07311721700715612,0.0004841231498036169,-0.12691381044218508
368,0.3586,521.041,513.843,0.0185228,517.4,0.755821,0.756046,0.0673808,0.0708041,-0.136183,0.371366,0.000480906,0.000486163,0.255381,0.06970274343107241,0.44971357146673063,0.00048102165382912787,0.07337093190517607,0.00048628119638483014,-0.12731708309860412
369,0.3596,521.337,514.122,0.0184578,517.688,0.75809,0.758319,0.0676075,0.0710402,-0.136645,0.372618,0.000483042,0.000488325,0.256255,0.06994527253264327,0.4515297495484474,0.0004831586835738477,0.07362438470112398,0.0004884442500630026,-0.12772016948608733
370,0.3606,521.631,514.4,0.0183929,517.974,0.760365,0.760598,0.067834,0.0712761,-0.137106,0.373869,0.000485181,0.00049049,0.257128,0.07018764258424404,0.45334674956167365,0.0004852987193391112,0.07387768256878391,0.0004906103098896164,-0.12812219781330492
371,0.3616,521.924,514.677,0.0183282,518.259,0.762647,0.762884,0.0680603,0.0715118,-0.137567,0.375119,0.000487324,0.000492659,0.258001,0.0704298534528871,0.45516456889901624,0.0004874427616314847,0.0741308253702726,0.0004927803763767891,-0.1285240408481768
372,0.3626,522.216,514.952,0.0182636,518.543,0.764936,0.765176,0.0682864,0.0717474,-0.138028,0.376368,0.000489471,0.000494832,0.258872,0.07067190500564968,0.45698320494736056,0.0004895908104769475,0.07438392040615427,0.0004949544495504998,-0.12892569867610304
373,0.3636,522.507,515.227,0.0181992,518.826,0.767232,0.767476,0.0685124,0.0719826,-0.138488,0.377615,0.000491622,0.000497009,0.259743,0.07091390420106003,0.4588011962859466,0.0004917428659014789,0.07463664522350721,0.000497132529437172,-0.1293263007091805
374,0.3646,522.797,515.501,0.018135,519.107,0.769534,0.769782,0.0687381,0.0722177,-0.138948,0.378862,0.000493776,0.00049919,0.260613,0.07115563674772996,0.4606214560738162,0.0004938979274364819,0.07488932199979059,0.0004993146160627848,-0.1297267185076999
375,0.3656,523.086,515.773,0.0180709,519.388,0.771843,0.772095,0.0689637,0.0724526,-0.139407,0.380108,0.000495934,0.000501374,0.261482,0.07139731671985605,0.4624425246982342,0.0004960569955978489,0.07514184315897743,0.0005014997089520801,-0.1301260822829069
376,0.3666,523.374,516.045,0.018007,519.668,0.774159,0.774415,0.0691891,0.0726873,-0.139866,0.381352,0.000498096,0.000503562,0.262351,0.0716388368933456,0.4642629352595653,0.0004982200704113371,0.07539420856348844,0.0005036888086282776,-0.1305252627922039
377,0.3676,523.661,516.316,0.0179432,519.947,0.776482,0.776742,0.0694143,0.0729217,-0.140325,0.382596,0.000500262,0.000505755,0.263219,0.07188019713555716,0.46608561182079455,0.0005003871519029257,0.07564631051116977,0.000505882915623701,-0.1309242601196905
378,0.3686,523.947,516.586,0.0178796,520.225,0.778811,0.779075,0.0696393,0.073156,-0.140783,0.383838,0.000502432,0.000507951,0.264086,0.0721213973139152,0.4679076213844011,0.000502558240098816,0.07589836396863192,0.0005080800289549714,-0.13132220567206798
379,0.3696,524.232,516.855,0.0178161,520.502,0.781147,0.781415,0.0698641,0.07339,-0.141241,0.38508,0.000504606,0.000510151,0.264953,0.07236243729591041,0.4697318952897509,0.0005047333350247651,0.07615015364404387,0.000510281149152414,-0.13171996900711336
380,0.3706,524.516,517.122,0.0177528,520.778,0.78349,0.783762,0.0700888,0.0736238,-0.141698,0.38632,0.000506783,0.000512355,0.265818,0.07260342420943644,0.47155549323697366,0.0005069114361999638,0.07640178696475464,0.0005124862762420079,-0.13211668232537943
381,0.3716,524.799,517.389,0.0176896,521.053,0.78584,0.786116,0.0703132,0.0738575,-0.142155,0.387559,0.000508964,0.000514563,0.266683,0.07284414342551493,0.4733798804675957,0.000509093544153405,0.07665337145887152,0.0005146954102506207,-0.13251321438707941
382,0.3726,525.081,517.655,0.0176266,521.327,0.788197,0.788477,0.0705375,0.0740909,-0.142612,0.388797,0.00051115,0.000516774,0.267547,0.07308480935656059,0.47520505430911086,0.0005112806594225194,0.07690469168369929,0.000516907550687673,-0.1329095652750285
383,0.3736,525.363,517.92,0.0175637,521.6,0.79056,0.790844,0.0707616,0.0743241,-0.143068,0.390035,0.000513339,0.00051899,0.268411,0.0733253146099444,0.4770324891150899,0.0005134707810130479,0.07715585514232104,0.0005191246986113729,-0.13330486837730593
384,0.3746,525.643,518.184,0.017501,521.872,0.792931,0.793219,0.0709855,0.0745571,-0.143524,0.391271,0.000515532,0.00052121,0.269274,0.07356565905344192,0.47885922996492236,0.0005156649094602006,0.07740686169769728,0.0005213458535338056,-0.13369999126246135
385,0.3756,525.922,518.447,0.0174384,522.143,0.795308,0.7956,0.0712092,0.0747899,-0.143979,0.392506,0.000517729,0.000523434,0.270136,0.0738058425548953,0.4806867493748834,0.000517863044790623,0.07765771121285114,0.0005235710154813944,-0.13409406810715618
386,0.3766,526.2,518.709,0.017376,522.413,0.797692,0.797988,0.0714328,0.0750225,-0.144434,0.39374,0.00051993,0.000525662,0.270997,0.07404597238680521,0.48251504464979256,0.0005200651870307382,0.07790840355086792,0.0005258001844807847,-0.1344879656876723
387,0.3776,526.477,518.97,0.0173136,522.683,0.800083,0.800383,0.0716561,0.0752549,-0.144889,0.394973,0.000522135,0.000527894,0.271858,0.07428583363195052,0.4843441130888124,0.0005222713362067477,0.07815893857489531,0.0005280333605590659,-0.13488168408555645
388,0.3786,526.754,519.231,0.0172515,522.951,0.802481,0.802784,0.0718793,0.0754871,-0.145343,0.396205,0.000524344,0.00053013,0.272718,0.07452564099152292,0.4861739519854502,0.0005244814923452967,0.07840931614814362,0.0005302705437428834,-0.13527435865710913
389,0.3796,527.029,519.49,0.0171894,523.218,0.804885,0.805193,0.0721023,0.0757191,-0.145797,0.397436,0.000526557,0.00053237,0.273577,0.07476528692899298,0.4880045586275634,0.0005266956554728086,0.07865953613388599,0.0005325117340588825,-0.13566685499486852
390,0.3806,527.303,519.749,0.0171275,523.485,0.807297,0.807608,0.0723252,0.0759509,-0.146251,0.398666,0.000528774,0.000534614,0.274436,0.07500487881297291,0.4898359302973623,0.0005289138256159287,0.07890959839545841,0.0005347569315343748,-0.13605917317973426
391,0.3816,527.577,520.006,0.0170657,523.75,0.809715,0.810031,0.0725478,0.0761825,-0.146704,0.399895,0.000530995,0.000536862,0.275293,0.07524420153462752,0.49166806427141374,0.0005311360028010803,0.07915950279625927,0.0005370061361962275,-0.136450449743451
392,0.3826,527.85,520.263,0.0170041,524.015,0.812141,0.81246,0.0727703,0.0764138,-0.147157,0.401123,0.00053322,0.000539114,0.27615,0.07548346998709721,0.49350095782064707,0.0005333621870553529,0.07940914125883136,0.0005392593480710861,-0.13684154909902513
393,0.3836,528.121,520.519,0.0169426,524.279,0.814573,0.814896,0.0729925,0.076645,-0.147609,0.402349,0.000535449,0.00054137,0.277007,0.07572246896593149,0.4953331128764955,0.0005355923784051697,0.07965872950357977,0.0005415165671862621,-0.1372316085587535
394,0.3846,528.392,520.773,0.0168812,524.542,0.817012,0.817339,0.0732147,0.076876,-0.148061,0.403575,0.000537682,0.000543631,0.277862,0.07596152105623943,0.4971675155319393,0.0005378265768776203,0.07990815947814789,0.0005437787941127148,-0.13762149175144556
395,0.3856,528.662,521.028,0.0168199,524.804,0.819458,0.819789,0.0734366,0.0771067,-0.148513,0.4048,0.000539919,0.000545896,0.278717,0.07620030340968409,0.4990026695408065,0.0005400647824989058,0.0801573230304502,0.0005460450283381046,-0.13801119875675583
396,0.3866,528.931,521.281,0.0167588,525.065,0.821911,0.822246,0.0736583,0.0773373,-0.148964,0.406024,0.000542161,0.000548164,0.279571,0.07643892346700598,0.5008385721515134,0.0005423079958388755,0.08040643603076614,0.0005483142693416543,-0.13839986805460192
397,0.3876,529.199,521.533,0.0166978,525.325,0.82437,0.82471,0.0738799,0.0775677,-0.149415,0.407246,0.000544406,0.000550437,0.280425,0.07667748876450498,0.5026737179323886,0.0005445542158417638,0.08065539035206415,0.0005505885182446324,-0.13878836210211654
398,0.3886,529.463,521.773,0.0213509,525.589,0.826845,0.827189,0.0741013,0.0777978,-0.149866,0.408468,0.000546656,0.000552714,0.281278,0.07691589155073197,0.5045111076321631,0.0005468054436212899,0.08090407776777409,0.0005528667745284821,-0.1391766809783198
399,0.3896,529.735,522.038,0.0205546,525.843,0.829334,0.82968,0.0743225,0.0780279,-0.150316,0.409689,0.00054891,0.000554996,0.28213,0.0771541316943316,0.5063492376445913,0.0005490606786624497,0.08115282241304222,0.0005551500387757091,-0.1395639643265908
400,0.3906,529.997,522.281,0.0137075,526.101,0.831821,0.832174,0.0745436,0.0782578,-0.150766,0.410908,0.000551168,0.000557281,0.282981,0.07739231680324266,0.5081865970082919,0.0005513199209921105,0.0814014080207357,0.0005574363099054569,-0.13995107343656166
401,0.3916,530.264,522.536,0.0179277,526.357,0.834325,0.83468,0.0747644,0.0784874,-0.151215,0.412127,0.00055343,0.000559571,0.283832,0.07763023129158575,0.5100261974787339,0.0005535831706375838,0.08164972628986367,0.000559727589058312,-0.14033714872420044
402,0.3926,530.526,522.779,0.0150818,526.613,0.836826,0.837187,0.0749851,0.0787168,-0.151664,0.413344,0.000555696,0.000561866,0.284682,0.0778680905304332,0.5118650180564324,0.000555850427625737,0.08189788519981334,0.0005620238762680252,-0.14072305070294588
403,0.3936,530.79,523.03,0.0173089,526.868,0.839342,0.839706,0.0752056,0.0789461,-0.152113,0.414561,0.000557967,0.000564164,0.285531,0.07810578664942924,0.5137060778410547,0.0005581226925424065,0.08214599282934221,0.0005643231704408613,-0.1411087794505962
404,0.3946,531.052,523.274,0.0154983,527.123,0.84186,0.842228,0.0754259,0.0791751,-0.152562,0.415776,0.000560241,0.000566467,0.286379,0.07834331951751294,0.5155463484636471,0.0005603979643002965,0.08239383263827516,0.0005666274727305076,-0.1414943350449146
405,0.3956,531.313,523.521,0.0167734,527.376,0.844388,0.84476,0.0756461,0.0794039,-0.15301,0.416991,0.00056252,0.000568774,0.287227,0.07858079686176667,0.5173888563739228,0.0005626782440455447,0.08264151268069919,0.000568935782602642,-0.141878859442918
406,0.3966,531.573,523.765,0.0156904,527.629,0.84692,0.847297,0.0758661,0.0796326,-0.153457,0.418204,0.000564804,0.000571085,0.288074,0.07881811074064582,0.5192305658276688,0.0005649635318125679,0.08288914110988088,0.0005712481000852421,-0.1422623538753559
407,0.3976,531.833,524.01,0.0164149,527.88,0.849462,0.849842,0.0760859,0.079861,-0.153904,0.419417,0.000567091,0.000573401,0.288921,0.079055261023248,0.5210745106304469,0.0005672518265007476,0.08313650123716165,0.0005735654257792433,-0.14264567692408958
408,0.3986,532.092,524.252,0.0157552,528.131,0.852009,0.852393,0.0763055,0.0800893,-0.154351,0.420628,0.000569383,0.000575721,0.289766,0.0792922475787401,0.5229176476570401,0.0005695451292702103,0.08338380952956137,0.0005758867591436623,-0.14302882866571043
409,0.3996,532.35,524.495,0.0161545,528.382,0.854564,0.854952,0.076525,0.0803173,-0.154798,0.421839,0.000571679,0.000578045,0.290612,0.07952917822927108,0.5247630180746177,0.0005718424395830812,0.0836308491995863,0.0005782121002066987,-0.14341180917677576
410,0.4006,532.607,524.736,0.0157445,528.631,0.857125,0.857517,0.0767442,0.0805452,-0.155244,0.423048,0.00057398,0.000580374,0.291456,0.07976583696198847,0.5266075713712588,0.0005741447580414061,0.08387783681328864,0.0005805424495761713,-0.1437937623279988
411,0.4016,532.863,524.977,0.0159528,528.879,0.859694,0.86009,0.0769633,0.0807728,-0.15569,0.424257,0.000576285,0.000582707,0.292299,0.08000243957573683,0.528454356081453,0.0005764510841030912,0.08412455548446696,0.0005828768067048795,-0.1441755451660991
412,0.4026,533.119,525.217,0.0156894,529.127,0.862269,0.86267,0.0771823,0.0810003,-0.156135,0.425464,0.000578594,0.000585045,0.293142,0.08023898601089297,0.530300314300922,0.0005787614177958922,0.0843712218780781,0.0005852161722055271,-0.14455630232374928
413,0.4036,533.374,525.456,0.0157858,529.374,0.864852,0.865257,0.077401,0.0812275,-0.15658,0.426671,0.000580908,0.000587387,0.293985,0.08047526011276496,0.5321485019371441,0.000581076759728516,0.08461761900934306,0.0005875595455258065,-0.1449368900821585
414,0.4046,533.627,525.694,0.0156083,529.62,0.867441,0.86785,0.0776196,0.0814546,-0.157025,0.427876,0.000583225,0.000589733,0.294826,0.08071147782228061,0.5339958536878748,0.0005833951087692579,0.08486396364199433,0.0005899069266941392,-0.14531730851669256
415,0.4056,533.881,525.932,0.0156395,529.866,0.870038,0.870451,0.077838,0.0816815,-0.157469,0.429081,0.000585548,0.000592084,0.295667,0.08094753098510399,0.5358454328392044,0.0005857194666958332,0.0851101472038136,0.0005922593163305567,-0.14569670339981444
416,0.4066,534.133,526.169,0.0155121,530.11,0.872642,0.873059,0.0780562,0.0819081,-0.157913,0.430284,0.000587874,0.00059444,0.296507,0.08118341947086294,0.5376941666853599,0.0005880468317860377,0.0853560610241535,0.000594616714470364,-0.14607592986899876
417,0.4076,534.384,526.405,0.0155054,530.354,0.875253,0.875674,0.0782743,0.0821346,-0.158357,0.431487,0.000590205,0.0005968,0.297347,0.08141925129117467,0.5395451258966208,0.0005903792052415202,0.08560192201468153,0.0005969781205523716,-0.14645498799900492
418,0.4086,534.635,526.64,0.0154072,530.597,0.87787,0.878295,0.0784922,0.0823609,-0.1588,0.432688,0.000592541,0.000599164,0.298186,0.08165491822101045,0.541395230358169,0.0005927165870975859,0.085847621529485,0.0005993435346045572,-0.14683302469801007
419,0.4096,534.885,526.875,0.0153786,530.839,0.880495,0.880924,0.0787099,0.082587,-0.159243,0.433889,0.000594881,0.000601533,0.299024,0.08189042013016001,0.5432475581300062,0.0005950579767937114,0.08609315943372686,0.0006017139572571661,-0.1472108939638468
420,0.4106,535.134,527.109,0.0152974,531.081,0.883127,0.88356,0.0789275,0.0828129,-0.159685,0.435088,0.000597225,0.000603906,0.299861,0.08212586510106412,0.5450990216827984,0.0005974033743583185,0.08633853559263671,0.0006040883879416814,-0.14758774345884118
421,0.4116,535.383,527.342,0.0152562,531.322,0.885766,0.886204,0.0791448,0.0830386,-0.160127,0.436287,0.000599574,0.000606284,0.300698,0.08236103660200866,0.5469527064717556,0.000599753780419432,0.0865837498715103,0.0006064678272930113,-0.14796442642316465
422,0.4126,535.63,527.574,0.0151849,531.562,0.888412,0.888854,0.079362,0.0832641,-0.160569,0.437485,0.000601927,0.000608666,0.301534,0.08259615095165285,0.5488070663538962,0.0006021081944100892,0.08682880213571065,0.000608851274737976,-0.14834094293040778
423,0.4136,535.877,527.806,0.0151365,531.801,0.891065,0.891511,0.0795791,0.0834894,-0.161011,0.438681,0.000604285,0.000611053,0.30237,0.08283120809055355,0.5506605477662025,0.0006044676169629781,0.08707369225066741,0.0006112397309165907,-0.14871729305412806
424,0.4146,536.123,528.036,0.015071,532.04,0.893725,0.894175,0.0797959,0.0837146,-0.161452,0.439877,0.000606648,0.000613445,0.303204,0.08306599134605297,0.5525162472684313,0.0006068320481136258,0.0873185288137246,0.0006136331958646046,-0.14909262596090234
425,0.4156,536.369,528.267,0.0150185,532.277,0.896393,0.896847,0.0800126,0.0839395,-0.161892,0.441072,0.000609014,0.000615841,0.304038,0.08330071717800291,0.5543726131416149,0.0006091994866788131,0.08756309425120734,0.0006160306690019546,-0.14946694284972495
426,0.4166,536.614,528.496,0.0149563,532.514,0.899067,0.899525,0.0802291,0.0841642,-0.162333,0.442265,0.000611386,0.000618241,0.304872,0.0835352771734752,0.5562280862387288,0.0006115729345148591,0.08780749713612135,0.0006184321503572843,-0.149841945233825
427,0.4176,536.857,528.725,0.0149016,532.751,0.901749,0.902211,0.0804455,0.0843888,-0.162773,0.443458,0.000613762,0.000620647,0.305705,0.08376977957970078,0.5580857742361727,0.0006139503904365462,0.08805184613934403,0.0006208396412012984,-0.15021593249469112
428,0.4186,537.101,528.953,0.0148414,532.986,0.904438,0.904904,0.0806617,0.0846132,-0.163212,0.44465,0.000616142,0.000623057,0.306537,0.08400411593689339,0.5599441198329997,0.0006163318544725183,0.08829603237028816,0.0006232511403307939,-0.1505889058266895
429,0.4196,537.343,529.18,0.0147855,533.221,0.907134,0.907604,0.0808777,0.0848373,-0.163651,0.44584,0.000618527,0.000625471,0.307368,0.08423828611540451,0.5618015582922911,0.000618718327269896,0.08853994684073796,0.0006256666477744144,-0.1509617154593299
430,0.4206,537.585,529.407,0.0147265,533.456,0.909837,0.910311,0.0810935,0.0850613,-0.16409,0.44703,0.000620917,0.00062789,0.308199,0.08447228998565781,0.56366120841903,0.0006211098088644285,0.08878380710015965,0.0006280871641897168,-0.15133436146446044
431,0.4216,537.826,529.633,0.0146699,533.689,0.912547,0.913026,0.0813092,0.0852851,-0.164529,0.448219,0.000623311,0.000630314,0.309029,0.08470623588876625,0.5655215073243776,0.0006235052986687251,0.08902750418487537,0.0006305126896126723,-0.15170684391389777
432,0.4226,538.066,529.858,0.0146117,533.922,0.915264,0.915747,0.0815247,0.0855087,-0.164967,0.449407,0.00062571,0.000632743,0.309858,0.08494001527142414,0.5673824520573809,0.000625905797337456,0.08927103796087255,0.0006329432240799182,-0.15207831495816604
433,0.4236,538.306,530.082,0.0145548,534.154,0.917989,0.918476,0.08174,0.0857321,-0.165405,0.450594,0.000628113,0.000635176,0.310687,0.08517362800422035,0.5692440396616396,0.0006283103042781235,0.0895144082942072,0.0006353777669925176,-0.152449623333744
434,0.4246,538.545,530.306,0.014497,534.385,0.92072,0.921212,0.0819552,0.0859553,-0.165842,0.45178,0.000630521,0.000637614,0.311515,0.08540718249852897,0.5711062671753104,0.0006307198201502828,0.08975761505100266,0.000637817319017131,-0.1528199219322105
435,0.4256,538.783,530.529,0.0144401,534.616,0.923459,0.923955,0.0821702,0.0861784,-0.166279,0.452965,0.000632934,0.000640056,0.312342,0.08564057013103765,0.5729691316311132,0.0006331343449903493,0.09000076709752292,0.0006402608795506026,-0.15319005874554203
436,0.4266,539.02,530.752,0.0143826,534.846,0.926205,0.926705,0.082385,0.0864012,-0.166716,0.454149,0.000635351,0.000642503,0.313169,0.08587379077250201,0.5748326300563358,0.0006355528781989417,0.09024364632417337,0.0006427094492649221,-0.1535600338444233
437,0.4276,539.257,530.974,0.0143257,535.075,0.928959,0.929462,0.0825997,0.0866239,-0.167153,0.455332,0.000637773,0.000644956,0.313995,0.08610695290444004,0.5766967594728398,0.0006379764204427207,0.09048647062169168,0.0006451640288416272,-0.1539298472995081
438,0.4286,539.493,531.195,0.0142684,535.304,0.931719,0.932227,0.0828142,0.0868464,-0.167589,0.456514,0.0006402,0.000647412,0.31482,0.08633994783365084,0.5785615168970664,0.0006404049717585458,0.09072913085635514,0.0006476216163824322,-0.15429865348049565
439,0.4296,539.728,531.415,0.0142115,535.532,0.934487,0.934999,0.0830285,0.0870686,-0.168024,0.457695,0.000642632,0.000649874,0.315645,0.08657277543105768,0.580426899340041,0.0006428385321828323,0.09097151779742307,0.0006500852138595636,-0.15466645356391373
440,0.4306,539.963,531.635,0.0141545,535.759,0.937262,0.937778,0.0832427,0.0872907,-0.16846,0.458875,0.000645068,0.00065234,0.316469,0.08680554424820541,0.5822929038073792,0.000645276101106429,0.09121384948146338,0.0006525528200123087,-0.15503493865457285
441,0.4316,540.197,531.854,0.0140977,535.985,0.940044,0.940564,0.0834567,0.0875126,-0.168895,0.460054,0.000647509,0.000654811,0.317292,0.08703814552212297,0.584159527299293,0.0006477186792064327,0.09145601670212278,0.0006550254355253138,-0.15540241852359182
442,0.4326,540.43,532.073,0.0140408,536.211,0.942834,0.943358,0.0836705,0.0877344,-0.169329,0.461233,0.000649954,0.000657287,0.318115,0.08727057912390235,0.5860283528381554,0.0006501652658696955,0.0916981284958327,0.0006575030604354382,-0.1557688943429475
443,0.4336,540.663,532.291,0.0139841,536.437,0.945631,0.946159,0.0838842,0.0879559,-0.169764,0.46241,0.000652405,0.000659768,0.318937,0.08750295367499761,0.5878962072261202,0.0006526178624304269,0.09193996641385516,0.0006599856947802074,-0.1561360550106734
444,0.4346,540.895,532.508,0.0139274,536.661,0.948435,0.948967,0.0840977,0.0881773,-0.170198,0.463586,0.00065486,0.000662254,0.319759,0.08773516034278694,0.5897646716075378,0.000655074467622585,0.09218174868672913,0.000662473338596925,-0.15650221250087604
445,0.4356,541.126,532.724,0.0138708,536.885,0.951246,0.951782,0.084311,0.0883984,-0.170631,0.464762,0.00065732,0.000664744,0.320579,0.0879671989985309,0.5916353345955951,0.0006575360821337028,0.09242325676909835,0.0006649649912575661,-0.15686736798099654
446,0.4366,541.357,532.94,0.0138142,537.108,0.954064,0.954605,0.0845242,0.0886194,-0.171065,0.465936,0.000659784,0.000667239,0.321399,0.0881991783334759,0.593505011764164,0.0006600017053401963,0.0926647089883319,0.0006674616534598776,-0.15723320815023367
447,0.4376,541.587,533.156,0.0137577,537.331,0.95689,0.957435,0.0847372,0.0888402,-0.171497,0.46711,0.000662254,0.000669739,0.322219,0.08843098944546779,0.5953768852226988,0.000662473338596925,0.0929059959931815,0.000669963325241163,-0.15759720477538097
448,0.4386,541.816,533.37,0.0137012,537.553,0.959723,0.960272,0.08495,0.0890608,-0.17193,0.468283,0.000664728,0.000672244,0.323038,0.0886626322059374,0.597249360300999,0.0006649489806183073,0.09314711765063866,0.0006724700066387257,-0.15796188622648122
449,0.4396,542.045,533.584,0.0136448,537.774,0.962564,0.963117,0.0851627,0.0892812,-0.172362,0.469454,0.000667207,0.000674754,0.323856,0.08889421537580455,0.5991208348363983,0.000667429632101646,0.09338807382776415,0.0006749816976907574,-0.1583255681306841
450,0.4406,542.273,533.798,0.0135884,537.995,0.965412,0.965969,0.0853752,0.0895015,-0.172794,0.470625,0.000669691,0.000677269,0.324673,0.08912562998350326,0.600994502152101,0.0006699152930840224,0.09362897375458101,0.0006774983984343397,-0.1586890929582353
451,0.4416,542.5,534.01,0.0135321,538.215,0.968267,0.968828,0.0855875,0.0897215,-0.173226,0.471795,0.00067218,0.000679789,0.32549,0.08935687590063424,0.6028687619477933,0.0006724059636027402,0.09386959859656918,0.0006800201089076641,-0.15905246077697743
452,0.4426,542.727,534.223,0.0134758,538.435,0.971129,0.971695,0.0857997,0.0899414,-0.173657,0.472964,0.000674674,0.000682314,0.326306,0.08958806195767366,0.6047436111663707,0.0006749016436953248,0.09411016697082397,0.0006825468291484782,-0.1594148310699749
453,0.4436,542.953,534.434,0.0134196,538.653,0.973999,0.974569,0.0860117,0.0901611,-0.174088,0.474132,0.000677172,0.000684843,0.327122,0.08981907911376186,0.6066190467453816,0.000677401332721761,0.09435056938174524,0.0006850775585094393,-0.15977704521502833
454,0.4446,543.178,534.645,0.0133635,538.872,0.976876,0.97745,0.0862236,0.0903806,-0.174518,0.475299,0.000679676,0.000687378,0.327937,0.09005003624566998,0.6084950656170343,0.0006799070320717693,0.09459080569669553,0.0006876142983964773,-0.16013826341810644
455,0.4456,543.403,534.855,0.0133073,539.089,0.979761,0.980339,0.0864353,0.0905999,-0.174948,0.476465,0.000682184,0.000689917,0.328751,0.09028082426639328,0.610371664708202,0.0006824167404257953,0.09483087578310778,0.0006901550474747165,-0.16049932633074704
456,0.4466,543.627,535.065,0.0132513,539.306,0.982653,0.983235,0.0866468,0.0908191,-0.175378,0.47763,0.000684697,0.000692462,0.329564,0.09051144304780201,0.6122488409404299,0.0006849314584989052,0.09507088901556848,0.0006927018071600788,-0.16086023401971072
457,0.4476,543.851,535.274,0.0131952,539.522,0.985552,0.986138,0.0868582,0.0910381,-0.175808,0.478794,0.000687216,0.000695012,0.330377,0.09074200153603607,0.6141265912299398,0.0006874521870161576,0.09531073580252758,0.000695253576803001,-0.16122098655172923
458,0.4486,544.074,535.483,0.0131392,539.738,0.988459,0.989049,0.0870694,0.0912568,-0.176237,0.479957,0.000689739,0.000697566,0.33119,0.09097239057498663,0.6160049124876386,0.0006899769246428988,0.09555030645654372,0.0006978093557443721,-0.16158074557467061
459,0.4496,544.296,535.691,0.0130833,539.953,0.991373,0.991968,0.0872804,0.0914754,-0.176666,0.48112,0.000692267,0.000700126,0.332001,0.09120261003669694,0.6178854195037318,0.0006925066721021889,0.09578981993140423,0.0007003711454154349,-0.1619403502940916
460,0.4506,544.518,535.898,0.0130274,540.168,0.994295,0.994893,0.0874913,0.0916939,-0.177094,0.482281,0.0006948,0.00070269,0.332812,0.09143276893655661,0.6197648752887457,0.0006950414294317753,0.0960292761667001,0.0007029369444564448,-0.16229896307555614
461,0.4516,544.739,536.105,0.0129715,540.382,0.997224,0.997826,0.087702,0.0919121,-0.177522,0.483442,0.000697338,0.00070526,0.333623,0.09166275804947377,0.6216465143890952,0.0006975811966698497,0.096268455848314,0.000705508754309081,-0.1626574224035916
462,0.4526,544.959,536.311,0.0129157,540.595,1.00016,1.00077,0.0879126,0.0921302,-0.17795,0.484601,0.000699881,0.000707835,0.334432,0.09189268643692827,0.62352709228365,0.000700125973854604,0.09650757807386534,0.0007080855743117898,-0.16301572834386202
463,0.4536,545.179,536.516,0.0128599,540.808,1.0031,1.00371,0.088123,0.0923481,-0.178377,0.48576,0.00070243,0.000710415,0.335242,0.09212244482788967,0.6254098510315451,0.0007026767617266394,0.09674653310833325,0.0007106674045032069,-0.16337304433546596
464,0.4546,545.398,536.721,0.0128042,541.02,1.00606,1.00667,0.0883332,0.0925658,-0.178805,0.486918,0.000704983,0.000713,0.33605,0.0923520330946741,0.6272931658678751,0.0007052315589215485,0.09698532081969025,0.0007132542449219681,-0.16373104405508532
465,0.4556,545.617,536.926,0.0127484,541.231,1.00901,1.00963,0.0885433,0.0927833,-0.179231,0.488074,0.000707541,0.00071559,0.336858,0.09258156036782306,0.6291754044919344,0.0007077913661779345,0.09722394107598076,0.0007158460956069312,-0.16408721875971932
466,0.4566,545.835,537.13,0.0126928,541.442,1.01198,1.0126,0.0887532,0.0930006,-0.179658,0.48923,0.000710104,0.000718185,0.337665,0.0928109173075129,0.6310598202419797,0.0007103561835339889,0.09746239374532073,0.0007184429565969541,-0.1644440773225837
467,0.4576,546.052,537.333,0.0126371,541.653,1.01495,1.01558,0.088963,0.0932178,-0.180084,0.490385,0.000712673,0.000720785,0.338472,0.09304021309025057,0.6329447826906243,0.0007129270117414155,0.09770078846597174,0.0007210448279311166,-0.16479994833973577
468,0.4586,546.269,537.536,0.0125815,541.862,1.01794,1.01857,0.0891726,0.0934348,-0.18051,0.491539,0.000715246,0.000723391,0.339278,0.09326933833040063,0.6348302886975687,0.0007155018494151566,0.09793901538375449,0.0007236527103720025,-0.16515566778812096
469,0.4596,546.485,537.738,0.0125259,542.072,1.02092,1.02156,0.089382,0.0936516,-0.180935,0.492693,0.000717824,0.000726001,0.340083,0.09349829290055389,0.6367179718344076,0.0007180816973042514,0.098177074366951,0.0007262646025141262,-0.16551040124311234
470,0.4606,546.701,537.939,0.0124703,542.28,1.02392,1.02456,0.0895913,0.0938682,-0.18136,0.493845,0.000720408,0.000728617,0.340888,0.0937271860460902,0.6386045574026067,0.0007206675561681752,0.09841496528391525,0.0007288825058464621,-0.16586498396841765
471,0.4616,546.916,538.14,0.0124148,542.488,1.02692,1.02757,0.0898004,0.0940847,-0.181785,0.494996,0.000722997,0.000731238,0.341692,0.0939559083127719,0.6404916770772118,0.0007232584253304974,0.09865279786834735,0.0007315054196848081,-0.16621941602808343
472,0.4626,547.13,538.341,0.0123593,542.696,1.02993,1.03058,0.0900094,0.0943009,-0.182209,0.496147,0.000725591,0.000733864,0.342495,0.09418456899181793,0.6423809700770708,0.0007258543048296318,0.09889035228195331,0.0007341333440684661,-0.16657286405940985
473,0.4636,547.344,538.541,0.0123038,542.903,1.03295,1.03361,0.0902182,0.094517,-0.182633,0.497296,0.00072819,0.000736496,0.343298,0.09441305858330673,0.6442691503635327,0.0007284551947048801,0.09912784814758546,0.0007367672797737868,-0.16692616226053714
474,0.4646,547.558,538.74,0.0122483,543.109,1.03598,1.03664,0.0904268,0.094733,-0.183057,0.498445,0.000730794,0.000739132,0.3441,0.094641376960106,0.6461595014160098,0.0007310610949951002,0.09936528540508616,0.000739405225369083,-0.16727931069497992
475,0.4656,547.77,538.939,0.0121929,543.315,1.03901,1.03967,0.0906353,0.0949487,-0.18348,0.499593,0.000733403,0.000741774,0.344901,0.09486963348211752,0.6480503776789441,0.000733672005739372,0.09960244407379082,0.000742049182370419,-0.1676314770581191
476,0.4666,547.983,539.137,0.0121375,543.52,1.04206,1.04272,0.0908437,0.0951643,-0.183904,0.50074,0.000736018,0.000744421,0.345702,0.0950978280907877,0.649941775971701,0.00073628892771338,0.09983954391917793,0.0007446981500804917,-0.16798432650247808
477,0.4676,548.194,539.335,0.0120821,543.725,1.0451,1.04577,0.0910518,0.0953797,-0.184326,0.501885,0.000738637,0.000747073,0.346503,0.09532574166239804,0.6518320412755596,0.0007389098594861032,0.10007647487348592,0.0007473521285390472,-0.16833536304277452
478,0.4686,548.405,539.532,0.0120267,543.929,1.04816,1.04883,0.0912598,0.0955949,-0.184749,0.503031,0.000741262,0.000749731,0.347302,0.09555359311239298,0.6537261258980558,0.0007415368025722735,0.10031323680554882,0.000750012118536203,-0.16868708279023636
479,0.4696,548.616,539.729,0.0119713,544.132,1.05123,1.0519,0.0914677,0.0958099,-0.185171,0.504175,0.000743892,0.000752394,0.348101,0.09578138238227529,0.6556190711443171,0.0007441687562752541,0.10054982958427439,0.0007526771193668846,-0.1690378228299455
480,0.4706,548.826,539.925,0.011916,544.335,1.0543,1.05498,0.0916754,0.0960248,-0.185593,0.505318,0.000746528,0.000755062,0.3489,0.09600899981264788,0.6575125256457408,0.0007468067213809437,0.10078636315727407,0.0007553471310712823,-0.16938841488858392
481,0.4716,549.035,540.121,0.0118607,544.538,1.05738,1.05806,0.0918829,0.0962395,-0.186014,0.50646,0.000749168,0.000757736,0.349698,0.0962364452767599,0.6594064861956659,0.0007494486964378932,0.1010227273622335,0.0007580231544472849,-0.1697380287670306
482,0.4726,549.244,540.316,0.0118054,544.74,1.06046,1.06115,0.0920903,0.096454,-0.186435,0.507602,0.000751814,0.000760415,0.350495,0.09646382829431421,0.661302610884027,0.0007520966829825948,0.1012589220682294,0.0007607041887827126,-0.17008749548901303
483,0.4736,549.452,540.511,0.0117501,544.941,1.06356,1.06425,0.0922976,0.0966683,-0.186856,0.508742,0.000754465,0.000763099,0.351291,0.09669114880687668,0.6631975757852038,0.0007547496803073095,0.1014949471444122,0.0007633902341173116,-0.17043681511647113
484,0.4746,549.66,540.705,0.0116948,545.142,1.06666,1.06736,0.0925046,0.0968825,-0.187276,0.509882,0.000757122,0.000765788,0.352087,0.09691818737236058,0.6650947021781839,0.0007574086892097043,0.10173091263309209,0.0007660812904917158,-0.1707851584968917
485,0.4756,549.867,540.898,0.0116395,545.343,1.06977,1.07047,0.0927116,0.0970965,-0.187696,0.511021,0.000759784,0.000768483,0.352882,0.097145272939692,0.6669923255353145,0.0007600727089775994,0.10196670827762966,0.0007687783587151387,-0.17113335560381204
486,0.4766,550.073,541.091,0.0115843,545.542,1.07289,1.07359,0.0929183,0.0973103,-0.188116,0.512159,0.000762451,0.000771184,0.353677,0.09737207630692901,0.6688904426255529,0.0007627417396505187,0.1022023339473459,0.0007714814388359859,-0.17148140649865418
487,0.4776,550.279,541.284,0.011529,545.742,1.07601,1.07672,0.0931249,0.097524,-0.188536,0.513296,0.000765123,0.00077389,0.354471,0.09759881679938043,0.6707890502126928,0.0007654157812690965,0.10243789975542072,0.0007741895301287549,-0.1718293112428143
488,0.4786,550.485,541.476,0.0114737,545.94,1.07915,1.07986,0.0933314,0.0977375,-0.188955,0.514432,0.000767801,0.000776601,0.355265,0.09782549435870203,0.6726881450553739,0.0007680958346409916,0.10267329537460657,0.000776902632634302,-0.1721762420743187
489,0.4796,550.69,541.667,0.0114185,546.139,1.08229,1.08301,0.0935377,0.0979508,-0.189374,0.515567,0.000770484,0.000779317,0.356058,0.0980519991213511,0.6745877239070863,0.0007707808990442544,0.10290852067439649,0.0007796207463930394,-0.17252302757225424
490,0.4806,550.894,541.858,0.0113633,546.336,1.08544,1.08616,0.0937438,0.0981639,-0.189792,0.516702,0.000773172,0.000782039,0.35685,0.09827833096106486,0.676489460004801,0.0007734709745186308,0.10314357552435682,0.000782344872228169,-0.17286884066675712
491,0.4816,551.098,542.049,0.011308,546.534,1.08859,1.08932,0.0939498,0.0983769,-0.19021,0.517835,0.000775866,0.000784767,0.357641,0.09850459960211277,0.6783899990150275,0.0007761670618811056,0.10337857013198093,0.0007850750101889847,-0.1732145092415932
492,0.4826,551.302,542.239,0.0112528,546.73,1.09176,1.09249,0.0941556,0.0985897,-0.190628,0.518968,0.000778565,0.0007875,0.358432,0.09873069511314103,0.6802926925562636,0.0007788681604012915,0.10361339407608638,0.0007878101595364395,-0.17356003335715908
493,0.4836,551.505,542.428,0.0111976,546.927,1.09493,1.09566,0.0943613,0.0988023,-0.191046,0.5201,0.00078127,0.000790238,0.359223,0.0989567272637355,0.6821958608742749,0.0007815752709008361,0.10384804722641294,0.0007905503203120556,-0.17390541307382623
494,0.4846,551.707,542.617,0.0111424,547.122,1.09811,1.09885,0.0945669,0.0990147,-0.191463,0.52123,0.00078398,0.000792982,0.360013,0.09918269599565055,0.6840978165996636,0.0007842873926449112,0.10408252945277474,0.0007932964933499154,-0.17424982270217615
495,0.4856,551.909,542.806,0.0110871,547.317,1.1013,1.10204,0.0947722,0.099227,-0.19188,0.52236,0.000786696,0.000795731,0.360802,0.09940838136894925,0.6860019227497833,0.0007870055264607156,0.10431695105675054,0.000796047677903422,-0.1745940887416515
496,0.4866,552.11,542.994,0.0110319,547.512,1.10449,1.10524,0.0949775,0.0994391,-0.192296,0.52349,0.000789416,0.000798486,0.36159,0.09963411308021164,0.6879081817559873,0.0007897276708177525,0.10455120152345332,0.0007988048748128751,-0.17493738618991483
497,0.4876,552.311,543.181,0.0109767,547.706,1.1077,1.10845,0.0951825,0.0996511,-0.192713,0.524618,0.000792143,0.000801247,0.362378,0.099859561181034,0.6898132164225654,0.0007924568281263422,0.10478539120140518,0.0008015680841275685,-0.17528136557518736
498,0.4886,552.511,543.369,0.0109215,547.9,1.11091,1.11166,0.0953874,0.0998628,-0.193129,0.525745,0.000794875,0.000804013,0.363166,0.10008494549495439,0.6917187094611157,0.0007951909968533233,0.10501929902699225,0.0008043363050933561,-0.17562437717574841
499,0.4896,552.711,543.555,0.0108662,548.093,1.11412,1.11488,0.0955922,0.100074,-0.193544,0.526872,0.000797612,0.000806784,0.363953,0.1003102659638202,0.693626351200886,0.0007979301770395519,0.10525270374961782,0.0008071095377517601,-0.1759664220799938
500,0.4906,552.91,543.741,0.010811,548.286,1.11735,1.11811,0.0957968,0.100286,-0.193959,0.527997,0.000800355,0.000809561,0.364739,0.10053541247593922,0.695532752995931,0.000800675369527104,0.10548704216180682,0.0008098887829537382,-0.17630832506505423
501,0.4916,553.109,543.927,0.0107557,548.478,1.12059,1.12135,0.0960013,0.100497,-0.194374,0.529122,0.000803103,0.000812344,0.365524,0.10076049498169226,0.6974413006998428,0.0008034255735618334,0.10572032453812819,0.0008126740407499167,-0.17665008618981382
502,0.4926,553.307,544.112,0.0107005,548.67,1.12383,1.1246,0.0962056,0.100708,-0.194789,0.530246,0.000805857,0.000815132,0.366309,0.10098540332442196,0.6993502973769801,0.000806181789991145,0.1059536561422243,0.0008154643103748249,-0.17699170551313248
503,0.4936,553.505,544.297,0.0106452,548.861,1.12708,1.12785,0.0964097,0.100919,-0.195203,0.531369,0.000808617,0.000817926,0.367094,0.10121013737857054,0.7012597397121345,0.0008089440188647767,0.10618703698448329,0.0008182605926885245,-0.17733236042661749
504,0.4946,553.702,544.481,0.0105899,549.052,1.13034,1.13111,0.0966137,0.10113,-0.195617,0.532491,0.000811382,0.000820726,0.367877,0.10143480716213449,0.7031696243850329,0.0008117112594205889,0.10642046707529551,0.0008210628877414194,-0.1776728743381576
505,0.4956,553.899,544.665,0.0105346,549.242,1.1336,1.13438,0.0968176,0.10134,-0.196031,0.533613,0.000814152,0.000823531,0.368661,0.1016594126170629,0.7050816531511455,0.0008144835117003257,0.1066528397716604,0.0008238701947600457,-0.17801324730611567
506,0.4966,554.095,544.848,0.0104793,549.432,1.13688,1.13766,0.0970213,0.101551,-0.196444,0.534733,0.000816928,0.000826342,0.369443,0.10188384349692203,0.7069924144292523,0.0008172617765629386,0.10688636815723052,0.0008266835146133467,-0.1783526577418989
507,0.4976,554.291,545.031,0.010424,549.621,1.14016,1.14095,0.0972248,0.101761,-0.196858,0.535853,0.00081971,0.000829158,0.370225,0.10210809967636592,0.7089053169588675,0.0008200460540581656,0.10711883870309657,0.000829501846522307,-0.1786927493377758
508,0.4986,554.486,545.213,0.0103687,549.81,1.14345,1.14424,0.0974282,0.101971,-0.19727,0.536971,0.000822497,0.00083198,0.371007,0.10233229126335153,0.7108169415022318,0.0008228353434132085,0.10735135807290352,0.0008323261913616431,-0.17903105822863163
509,0.4996,554.681,545.395,0.0103134,549.998,1.14674,1.14754,0.0976315,0.102181,-0.197683,0.538089,0.00082529,0.000834808,0.371787,0.10255641819989658,0.7127307044369737,0.0008256306454961226,0.1075839262769056,0.0008351565491822033,-0.17937004839529536
510,0.5006,554.875,545.577,0.010258,550.186,1.15005,1.15085,0.0978346,0.102391,-0.198095,0.539206,0.000828089,0.000837642,0.372568,0.10278037014998365,0.7146448935094005,0.0008284319603566459,0.10781654332535884,0.0008379929200350578,-0.17970807829641533
511,0.5016,555.069,545.758,0.0102026,550.373,1.15336,1.15417,0.0980375,0.102601,-0.198507,0.540323,0.000830893,0.000840481,0.373347,0.1030041469884797,0.7165612219256225,0.0008312382872144308,0.10804920922852213,0.0008408343031303112,-0.18004596895790137
512,0.5026,555.262,545.938,0.0101472,550.56,1.15668,1.15749,0.0982403,0.10281,-0.198918,0.541438,0.000833703,0.000843326,0.374126,0.10322785891311148,0.7184762551206745,0.0008340506269453041,0.1082808157152857,0.0008436816993542262,-0.18038290082041908
513,0.5036,555.455,546.118,0.0100918,550.747,1.16001,1.16083,0.098443,0.103019,-0.199329,0.542552,0.000836519,0.000846177,0.374905,0.10345150586596596,0.7203917043760255,0.0008368689796001139,0.10851247061286373,0.0008465351087583173,-0.18071969423239476
514,0.5046,555.647,546.298,0.0100363,550.933,1.16335,1.16417,0.0986455,0.103228,-0.19974,0.543666,0.00083934,0.000849033,0.375682,0.10367497742163523,0.7223092886308207,0.000839692344389853,0.10874417393137503,0.0008493935305444733,-0.1810563492507199
515,0.5056,555.839,546.477,0.00998087,551.118,1.1667,1.16752,0.0988479,0.103437,-0.200151,0.544779,0.000842167,0.000851896,0.37646,0.1038983838450327,0.724227286036627,0.0008425217221994519,0.10897592568094105,0.0008522589664599067,-0.18139286593226278
516,0.5066,556.03,546.656,0.00992538,551.303,1.17005,1.17087,0.0990501,0.103646,-0.200561,0.545891,0.000845,0.000854764,0.377236,0.10412161466612169,0.7261456932154082,0.0008453571130797588,0.10920772587168437,0.0008551294148548827,-0.18172842606270312
517,0.5076,556.221,546.834,0.00986987,551.488,1.17341,1.17424,0.0992521,0.103855,-0.200971,0.547002,0.000847838,0.000857638,0.378012,0.10434466976009027,0.7280645067841385,0.0008481975162337729,0.10943957451373088,0.0008580058766303189,-0.18206384864169
518,0.5086,556.412,547.012,0.00981432,551.672,1.17678,1.17761,0.099454,0.104063,-0.20138,0.548112,0.000850682,0.000860517,0.378788,0.10456765945896751,0.7299837233548101,0.0008510439325550845,0.10967036194629065,0.0008608873509772241,-0.18239831612433288
519,0.5096,556.602,547.19,0.00975875,551.856,1.18016,1.18099,0.0996558,0.104271,-0.20179,0.549222,0.000853532,0.000863403,0.379563,0.1047905837049461,0.7319050714386461,0.0008538963620949858,0.10990119738762916,0.0008637758396661255,-0.18273346410469105
520,0.5106,556.791,547.367,0.00970315,552.039,1.18354,1.18438,0.0998574,0.104479,-0.202199,0.55033,0.000856388,0.000866294,0.380337,0.10501333193888862,0.7338250857493005,0.0008567548049049911,0.11013208084773307,0.0008666693410246396,-0.18306765777060885
521,0.5116,556.98,547.544,0.00964753,552.222,1.18694,1.18778,0.100059,0.104687,-0.202607,0.551438,0.000859249,0.000869191,0.381111,0.10523612508340197,0.7357472286148128,0.0008596182601765534,0.11036301233659174,0.0008695688559656745,-0.18340089818057215
522,0.5126,557.169,547.72,0.00959187,552.404,1.19034,1.19119,0.10026,0.104895,-0.203016,0.552545,0.000862116,0.000872094,0.381884,0.10545829987236188,0.7376697647242951,0.0008624877288154753,0.11059399186419583,0.0008724743845414107,-0.1837348189217698
523,0.5136,557.357,547.896,0.00953618,552.586,1.19375,1.1946,0.100461,0.105103,-0.203424,0.553651,0.000864989,0.000875003,0.382656,0.10568051932294287,0.7395926906661099,0.0008653632108732712,0.11082501944053869,0.0008753859268042508,-0.18406778718550498
524,0.5146,557.545,548.071,0.00948045,552.768,1.19717,1.19802,0.100662,0.10531,-0.203832,0.554756,0.000867868,0.000877918,0.383428,0.10590278344412263,0.7415160030236725,0.0008682447064018994,0.11105498402007563,0.0008783034828065972,-0.18440061962589838
525,0.5156,557.732,548.246,0.00942469,552.949,1.20059,1.20145,0.100863,0.105517,-0.204239,0.55586,0.000870753,0.000880839,0.3842,0.10612509224488109,0.743439698375459,0.0008711322154530965,0.11128499620720778,0.0008812270526008525,-0.18473250103126337
526,0.5166,557.919,548.42,0.0093689,553.13,1.20403,1.20489,0.101064,0.105725,-0.204646,0.556964,0.000873644,0.000883766,0.384971,0.1063474457341993,0.7453655186596606,0.0008740257380790428,0.11151616752740279,0.0008841566362398634,-0.18506424738838056
527,0.5176,558.105,548.594,0.00931307,553.31,1.20747,1.20834,0.101265,0.105932,-0.205053,0.558067,0.00087654,0.000886698,0.385741,0.10656984392106095,0.7472917189309058,0.0008769242734545379,0.11174627518940228,0.0008870912328893255,-0.18539585875220332
528,0.5186,558.291,548.768,0.0092572,553.49,1.21092,1.21179,0.101465,0.106138,-0.20546,0.559169,0.000879442,0.000889637,0.38651,0.10679118002271748,0.749218295754027,0.0008798288225033701,0.11197531851274367,0.0008900328443730565,-0.18572733517766282
529,0.5196,558.476,548.941,0.00920129,553.669,1.21438,1.21525,0.101665,0.106345,-0.205866,0.56027,0.00088235,0.000892581,0.38728,0.10701256039602147,0.7511452456889371,0.0008827393852774978,0.11220552122883487,0.0008929794689671589,-0.18605786277793768
530,0.5206,558.661,549.114,0.00914534,553.848,1.21785,1.21873,0.101865,0.106551,-0.206272,0.56137,0.000885264,0.000895532,0.388048,0.10723398504982784,0.7530725652906378,0.0008856559618295456,0.11243465916660544,0.0008959331085076627,-0.18638825621124444
531,0.5216,558.846,549.286,0.00908935,554.026,1.22132,1.2222,0.102065,0.106758,-0.206677,0.562469,0.000888184,0.000898488,0.388816,0.10745545399299394,0.7550002511092277,0.0008885785522119161,0.11266495697605383,0.000898891761258902,-0.18671770225015294
532,0.5226,559.03,549.459,0.00903332,554.204,1.22481,1.22569,0.102265,0.106964,-0.207083,0.563568,0.00089111,0.000901451,0.389583,0.10767696723437825,0.7569300566190893,0.0008915071564772337,0.11289418956733699,0.0009018574290688974,-0.18704782784300922
533,0.5236,559.213,549.63,0.00897725,554.382,1.2283,1.22919,0.102465,0.10717,-0.207488,0.564665,0.000894042,0.000904419,0.39035,0.10789852478284145,0.7588584664305933,0.0008944417746785671,0.11312346938539841,0.0009048281101902145,-0.18737700680949265
534,0.5246,559.397,549.801,0.00892113,554.559,1.2318,1.23269,0.102665,0.107376,-0.207892,0.565762,0.00089698,0.000907394,0.391116,0.1081201266472458,0.7607889928684177,0.0008973824068680969,0.11335279643996743,0.0009078058064830863,-0.1877052401911341
535,0.5256,559.579,549.972,0.00886497,554.736,1.2353,1.2362,0.102864,0.107581,-0.208297,0.566858,0.000899924,0.000910374,0.391882,0.10834066449523672,0.7627198755350189,0.0009003290530993358,0.113581057159162,0.0009107885161887541,-0.1880341529595253
536,0.5266,559.762,550.143,0.00880875,554.912,1.23882,1.23972,0.103063,0.107787,-0.208701,0.567954,0.000902874,0.000913361,0.392647,0.10856124623462637,0.76465287560915,0.0009032817134253524,0.11381047848652215,0.0009137782411789974,-0.1883621209077433
537,0.5276,559.943,550.313,0.0087525,555.088,1.24235,1.24325,0.103262,0.107992,-0.209105,0.569048,0.000905829,0.000916353,0.393411,0.10878187187415023,0.7665844622403044,0.0009062393869927465,0.11403883304015383,0.0009167729796837332,-0.18868995638367148
538,0.5286,560.125,550.482,0.00869619,555.264,1.24588,1.24679,0.103461,0.108198,-0.209508,0.570142,0.000908791,0.000919352,0.394175,0.10900254142254484,0.7685181631835512,0.000909204075664416,0.11426834867905944,0.0009197747335869533,-0.18901684845807165
539,0.5296,560.306,550.651,0.00863983,555.439,1.24942,1.25033,0.10366,0.108403,-0.209911,0.571235,0.000911759,0.000922357,0.394939,0.10922325488854945,0.7704522103001177,0.0009121747785907353,0.11449679710570226,0.0009227825020292624,-0.18934360882150736
540,0.5306,560.486,550.82,0.00858342,555.613,1.25297,1.25389,0.103859,0.108607,-0.210314,0.572327,0.000914733,0.000925368,0.395702,0.10944401228090439,0.772386600098371,0.0009151514958249951,0.11472417764433818,0.0009257962850646173,-0.1896702375270476
541,0.5316,560.667,550.989,0.00852696,555.788,1.25653,1.25745,0.104057,0.108812,-0.210717,0.573418,0.000917713,0.000928385,0.396464,0.10966370394409286,0.7743213290818327,0.0009181342274207083,0.11495271952549779,0.000928816082747419,-0.18999673462773947
542,0.5326,560.846,551.157,0.00847044,555.962,1.2601,1.26102,0.104256,0.109017,-0.211119,0.574508,0.000920699,0.000931408,0.397225,0.10988454899453148,0.7762563937491882,0.0009211229734316095,0.11518130826254547,0.0009318418951318463,-0.1903222904993047
543,0.5336,561.026,551.324,0.00841387,556.135,1.26367,1.2646,0.104454,0.109221,-0.211521,0.575598,0.000923691,0.000934438,0.397986,0.11010432789262525,0.7781935687869741,0.0009241177339116557,0.11540882845570177,0.0009348747232076349,-0.19064771552371162
544,0.5346,561.204,551.492,0.00835724,556.308,1.26725,1.26818,0.104652,0.109425,-0.211923,0.576687,0.000926689,0.000937473,0.398747,0.11032415031124931,0.7801310763647815,0.0009271185089148037,0.11563639506771195,0.000937912565162291,-0.19097300975355014
545,0.5356,561.383,551.659,0.00830056,556.481,1.27084,1.27178,0.10485,0.10963,-0.212324,0.577774,0.000929693,0.000940515,0.399507,0.11054401625902144,0.782067130899798,0.0009301252984950104,0.1158651239726125,0.0009409574229235496,-0.19129736453915802
546,0.5366,561.561,551.825,0.00824382,556.653,1.27444,1.27538,0.105048,0.109833,-0.212725,0.578862,0.000932703,0.000943563,0.400266,0.1107639257445614,0.7840070750764827,0.0009331381027064545,0.11609166758617784,0.0009440082956113649,-0.19162158928457174
547,0.5376,561.739,551.991,0.00818701,556.825,1.27805,1.279,0.105246,0.110037,-0.213126,0.579948,0.00093572,0.000946617,0.401025,0.1109838787764903,0.7859455591663564,0.0009361579225395378,0.11631937351157995,0.0009470651832805821,-0.1919456840419269
548,0.5386,561.916,552.157,0.00813015,556.996,1.28167,1.28262,0.105443,0.110241,-0.213526,0.581033,0.000938743,0.000949678,0.401783,0.11120276416011166,0.7878843617082305,0.0009391837571184336,0.11654712589372962,0.0009501290869362577,-0.19226884113258325
549,0.5396,562.093,552.322,0.00807323,557.167,1.2853,1.28625,0.105641,0.110444,-0.213927,0.582118,0.000941771,0.000952744,0.402541,0.11142280409064975,0.7898252689924785,0.0009422146055555469,0.11677380796773806,0.0009531980047368105,-0.1925926763939798
550,0.5406,562.269,552.487,0.00801624,557.338,1.28893,1.28988,0.105838,0.110648,-0.214327,0.583202,0.000944806,0.000955817,0.403298,0.11164177595107572,0.7917664915365981,0.0009452524697868281,0.11700165306397303,0.0009562739386403951,-0.19291557473944776
551,0.5416,562.445,552.652,0.00795919,557.508,1.29257,1.29353,0.106035,0.110851,-0.214726,0.584285,0.000947848,0.000958896,0.404055,0.11186079095320745,0.7937080257979678,0.0009482973498762259,0.11722842741636308,0.0009593558877525332,-0.19323753718934655
552,0.5426,562.62,552.816,0.00790207,557.678,1.29622,1.29718,0.106232,0.111054,-0.215125,0.585367,0.000950895,0.000961982,0.404811,0.1120798491055448,0.7956498682291897,0.0009513472439846016,0.11745524780861949,0.000962444853090938,-0.19355937120185285
553,0.5436,562.796,552.98,0.00784489,557.848,1.29988,1.30085,0.106429,0.111257,-0.215524,0.586449,0.000953949,0.000965073,0.405566,0.112298950416589,0.7975938128710129,0.0009544041540670012,0.11768211425008945,0.0009655388327898251,-0.19388107682820288
554,0.5446,562.97,553.144,0.00778764,558.017,1.30355,1.30452,0.106626,0.111459,-0.215923,0.58753,0.000957008,0.000968171,0.406321,0.11251809489484343,0.7995380624602983,0.0009574660782725175,0.11790790884165392,0.0009686398288326625,-0.19420265411961246
555,0.5456,563.145,553.307,0.00773032,558.186,1.30723,1.3082,0.106822,0.111662,-0.216322,0.588609,0.000960074,0.000971276,0.407076,0.11273616981208678,0.8014808119545596,0.0009605350185681871,0.11813486718264099,0.0009717478412845093,-0.19452410312727708
556,0.5466,563.319,553.47,0.00767293,558.354,1.31091,1.31189,0.107018,0.111864,-0.21672,0.589689,0.000963147,0.000974386,0.407829,0.11295428747620262,0.8034274622334066,0.000963610975018625,0.11836075323953543,0.0009748608682609294,-0.19484461874739312
557,0.5476,563.492,553.632,0.00761547,558.522,1.3146,1.31558,0.107215,0.112066,-0.217118,0.590767,0.000966225,0.000977503,0.408583,0.11317356106857512,0.805372605281429,0.0009666919457547163,0.11858668493002233,0.0009779809117649307,-0.19516500682767446
558,0.5486,563.665,553.794,0.00755794,558.69,1.31831,1.31929,0.107411,0.112269,-0.217515,0.591844,0.00096931,0.000980627,0.409335,0.1133917644697795,0.8073180390053303,0.0009697799327625933,0.11881378107654217,0.0009811079718617943,-0.195484462903737
559,0.5496,563.838,553.956,0.00750034,558.857,1.32202,1.323,0.107607,0.11247,-0.217912,0.592921,0.000972401,0.000983757,0.410088,0.11361001064304177,0.8092655690900399,0.000972873935134233,0.11903868524865069,0.000984241047632839,-0.1958037921809086
560,0.5506,564.01,554.117,0.00744266,559.024,1.32574,1.32673,0.107803,0.112672,-0.218309,0.593997,0.000975499,0.000986893,0.410839,0.11382829959674634,0.8112133865802624,0.0009759749539011153,0.11926475389523539,0.000987380139134908,-0.19612299470951844
561,0.5516,564.182,554.278,0.0073849,559.19,1.32946,1.33046,0.107998,0.112874,-0.218706,0.595072,0.000978603,0.000990035,0.41159,0.11404551729320489,0.8131614878876827,0.000979081988149444,0.11949086821229948,0.0009905252464244008,-0.19644207053987572
562,0.5526,564.354,554.439,0.00732707,559.356,1.3332,1.3342,0.108194,0.113075,-0.219102,0.596146,0.000981713,0.000993184,0.412341,0.11426389161457884,0.8151098694192722,0.000982195037935174,0.11971590849260072,0.000993677370551227,-0.19676021648288766
563,0.5536,564.525,554.599,0.00726916,559.522,1.33695,1.33795,0.108389,0.113277,-0.219499,0.59722,0.00098483,0.00099634,0.413091,0.114481194259763,0.8170603446367348,0.0009853151042997776,0.11994211395209842,0.000996836511582222,-0.19707903938641014
564,0.5546,564.696,554.759,0.00721117,559.687,1.3407,1.3417,0.108585,0.113478,-0.219894,0.598293,0.000987952,0.000999501,0.41384,0.1146996539821914,0.8190110967778905,0.0009884401853317293,0.12016724494190933,0.0010000006675834339,-0.19739613053622762
565,0.5556,564.866,554.919,0.00715311,559.852,1.34446,1.34547,0.10878,0.113679,-0.22029,0.599365,0.000991082,0.00100267,0.414589,0.11491704160932259,0.8209621222364418,0.0009915732840528602,0.1203924211875973,0.0010031728416117769,-0.1977138987462771
566,0.5566,565.036,555.078,0.00709496,560.017,1.34823,1.34924,0.108975,0.11388,-0.220685,0.600436,0.000994217,0.00100584,0.415337,0.11513447163117463,0.8229134174013997,0.0009947113975541377,0.12061764269825948,0.0010063460266991342,-0.19803073917616776
567,0.5576,565.206,555.237,0.00703672,560.181,1.35201,1.35303,0.10917,0.11408,-0.22108,0.601506,0.00099736,0.00100903,0.416085,0.1153519440560149,0.8248649786570958,0.000997857528876267,0.1208417886406461,0.0010095392420361726,-0.19834745447880298
568,0.5586,565.375,555.395,0.00697841,560.345,1.3558,1.35682,0.109365,0.114281,-0.221475,0.602576,0.00100051,0.00101221,0.416832,0.11556945889211323,0.8268186292009054,0.0010010106770936833,0.12106710048324465,0.0010127224574323357,-0.1986640447035981
569,0.5596,565.544,555.554,0.00692,560.509,1.3596,1.36062,0.109559,0.114481,-0.221869,0.603645,0.00100366,0.00101541,0.417579,0.115785900361282,0.8287725424961061,0.0010041638352433768,0.12129133632617806,0.0010159257032693603,-0.19897970888005856
570,0.5606,565.712,555.711,0.00686152,560.672,1.36341,1.36443,0.109754,0.114682,-0.222263,0.604713,0.00100682,0.00101861,0.418325,0.11600349982711089,0.8307267149138149,0.0010073270133990064,0.12151673853694289,0.001019128959356852,-0.19929524870933157
571,0.5616,565.88,555.869,0.00680294,560.835,1.36722,1.36825,0.109948,0.114882,-0.222657,0.60578,0.00100999,0.00102182,0.419071,0.11622002550838917,0.8326811428204917,0.0010105002116551631,0.12174106431648046,0.0010223422359181278,-0.19961066424040008
572,0.5626,566.048,556.026,0.00674428,560.997,1.37105,1.37208,0.110142,0.115082,-0.22305,0.606847,0.00101317,0.00102503,0.419816,0.11643659319972466,0.8346376572146881,0.001013683430107104,0.12196543496566092,0.0010255555227940416,-0.19992515544778366
573,0.5636,566.215,556.183,0.00668552,561.159,1.37488,1.37591,0.110336,0.115281,-0.223443,0.607912,0.00101635,0.00102825,0.42056,0.11665320290926795,0.8365925871350266,0.0010168666586818365,0.12218872830416938,0.0010287788302723033,-0.20023952308440596
574,0.5646,566.382,556.339,0.00662668,561.321,1.37872,1.37976,0.11053,0.115481,-0.223836,0.608977,0.00101954,0.00103148,0.421304,0.11686985464517119,0.8385496001647894,0.0010200599075795846,0.12241318849510097,0.0010320121584497244,-0.2005537671988208
575,0.5656,566.549,556.496,0.00656774,561.482,1.38257,1.38361,0.110724,0.11568,-0.224229,0.610041,0.00102273,0.00103471,0.422048,0.11708654841558852,0.8405068580158914,0.0010232531666640732,0.12263657094542824,0.0010352454970707914,-0.20086788783956278
576,0.5666,566.715,556.651,0.00650871,561.643,1.38643,1.38747,0.110918,0.11588,-0.224621,0.611105,0.00102593,0.00103795,0.42279,0.1173032842286752,0.8424661994976415,0.0010264564461994752,0.1228611207138457,0.0010384888565204697,-0.20118108623663322
577,0.5676,566.881,556.807,0.00644959,561.804,1.3903,1.39134,0.111111,0.116079,-0.225013,0.612167,0.00102914,0.0010412,0.423533,0.1175189445730851,0.8444239379766385,0.001029669746281936,0.12308459231155422,0.001041742236896015,-0.2014941618839925
578,0.5686,567.046,556.962,0.00639037,561.964,1.39417,1.39522,0.111304,0.116278,-0.225405,0.613229,0.00103235,0.00104445,0.424275,0.11773464654395838,0.8463837566783028,0.0010328830566792568,0.12330810838453576,0.0010449956278451022,-0.2018071148297491
579,0.5696,567.211,557.117,0.00633105,562.124,1.39806,1.39911,0.111498,0.116477,-0.225797,0.61429,0.00103557,0.00104771,0.425016,0.11795150810027866,0.8483438094682707,0.0010361063877522003,0.12353166894164191,0.0010482590398501745,-0.20211994512199272
580,0.5706,567.376,557.272,0.00627164,562.284,1.40195,1.40301,0.111691,0.116676,-0.226188,0.615351,0.0010388,0.00105098,0.425757,0.11816729356396949,0.8503059429778754,0.0010393397395975779,0.12375527399172603,0.0010515324730093756,-0.202431855241048
581,0.5716,567.54,557.426,0.00621212,562.443,1.40586,1.40692,0.111884,0.116874,-0.226579,0.61641,0.00104203,0.00105425,0.426497,0.11838312067827395,0.852266454879318,0.0010425731018868234,0.1239777995652811,0.0010548059168724588,-0.20274364342708617
582,0.5726,567.704,557.58,0.00615251,562.602,1.40977,1.41083,0.112076,0.117073,-0.226969,0.617469,0.00104527,0.00105753,0.427236,0.11859787085280127,0.8542290440625906,0.001045816485077955,0.12420149340419329,0.0010580893820208992,-0.20305451278268494
583,0.5736,567.868,557.733,0.00609279,562.76,1.41369,1.41476,0.112269,0.117271,-0.22736,0.618527,0.00104852,0.00106082,0.427976,0.11881378107654217,0.8561918565359152,0.0010490698892684502,0.12442410733793952,0.0010613828685526183,-0.20336605755721437
584,0.5746,568.031,557.886,0.00603297,562.919,1.41762,1.41869,0.112462,0.117469,-0.22775,0.619584,0.00105177,0.00106411,0.428714,0.11902973297497788,0.8581548886079575,0.0010523233040322655,0.12464676535360852,0.0010646763659201142,-0.20367668421863094
585,0.5756,568.194,558.039,0.00597305,563.077,1.42156,1.42264,0.112654,0.117667,-0.22814,0.620641,0.00105503,0.00106741,0.429452,0.11924460731098518,0.8601199967018842,0.0010555867399257846,0.12486946745992955,0.0010679798848030053,-0.20398718975926955
586,0.5766,568.357,558.192,0.00591302,563.234,1.42551,1.42659,0.112846,0.117865,-0.228529,0.621696,0.0010583,0.00107072,0.43019,0.11945952290682582,0.8620834588425688,0.001058860197046485,0.12509221366563317,0.0010712934253003237,-0.20429677852353467
587,0.5776,568.519,558.344,0.00585288,563.391,1.42947,1.43055,0.113039,0.118063,-0.228918,0.622751,0.00106157,0.00107404,0.430927,0.11967559944546213,0.8640489935288873,0.0010621336648712898,0.1253150039794524,0.0010746169875115452,-0.204606246881191
588,0.5786,568.681,558.496,0.00579264,563.548,1.43344,1.43452,0.113231,0.11826,-0.229307,0.623805,0.00106485,0.00107736,0.431663,0.1198905977997371,0.8660147369328592,0.0010654171540547264,0.1255367128728453,0.0010779405607570514,-0.20491559487906774
589,0.5796,568.842,558.648,0.00573229,563.705,1.43741,1.4385,0.113422,0.118458,-0.229696,0.624859,0.00106814,0.00108068,0.432399,0.1201045173325821,0.8679825533226506,0.0010687106646949385,0.12575959120622082,0.001081264145036842,-0.20522482256397567
590,0.5806,569.003,558.799,0.00567183,563.861,1.4414,1.44248,0.113614,0.118655,-0.230085,0.625911,0.00107143,0.00108402,0.433135,0.12031959804699777,0.8699487049831904,0.0010720041861709273,0.12598138769192513,0.0010846077620429995,-0.20553392998270748
591,0.5816,569.164,558.95,0.00561125,564.017,1.44539,1.44648,0.113806,0.118852,-0.230473,0.626963,0.00107473,0.00108736,0.433869,0.12053472006087529,0.8719169261236328,0.0010753077292355862,0.12620322787584093,0.0010879513902166682,-0.20584212302455762
592,0.5826,569.324,559.101,0.00555057,564.173,1.44939,1.45049,0.113997,0.119049,-0.23086,0.628015,0.00107804,0.00109071,0.434604,0.12074876263282186,0.873887218922216,0.001078621293988169,0.12642511176657822,0.0010913050404712799,-0.20614940266050252
593,0.5836,569.484,559.251,0.00548977,564.328,1.45341,1.4545,0.114189,0.119246,-0.231248,0.629065,0.00108135,0.00109406,0.435338,0.12096396705421064,0.8758558338440519,0.001081934869708645,0.12664703937274768,0.0010946587019604603,-0.20645735694527567
594,0.5846,569.644,559.402,0.00542886,564.483,1.45743,1.45853,0.11438,0.119443,-0.231635,0.630114,0.00108467,0.00109743,0.436071,0.12117809162016302,0.8778246390715563,0.0010852584672493837,0.1268690107029622,0.0010980323966449657,-0.20676439853175865
595,0.5856,569.804,559.551,0.00536782,564.637,1.46146,1.46256,0.114571,0.119639,-0.232022,0.631163,0.001088,0.00110079,0.436804,0.12139225708781365,0.8797955106593613,0.001088592086710749,0.12708989867537412,0.0011013960916848031,-0.20707132131613748
596,0.5866,569.963,559.701,0.00530668,564.792,1.4655,1.4666,0.114762,0.119836,-0.232409,0.632212,0.00109134,0.00110417,0.437536,0.12160646346497517,0.8817684507762154,0.001091935728191995,0.12731195725746547,0.001104779820122248,-0.2073781253443796
597,0.5876,570.121,559.85,0.00524541,564.945,1.46955,1.47066,0.114953,0.120032,-0.232795,0.633259,0.00109468,0.00110755,0.438268,0.12182071075946221,0.8837396941099889,0.0010952793808414185,0.12753293205591065,0.0011081635599965445,-0.20768401834684913
598,0.5886,570.279,559.999,0.00518402,565.099,1.4736,1.47472,0.115143,0.120228,-0.233182,0.634306,0.00109802,0.00111094,0.438999,0.12203387694465295,0.8857130024163573,0.0010986230446583534,0.1277539501696614,0.0011115573224234065,-0.20799058530721581
599,0.5896,570.437,560.148,0.00512251,565.252,1.47767,1.47879,0.115334,0.120424,-0.233568,0.635351,0.00110138,0.00111434,0.43973,0.1222482058829113,0.8876846024854987,0.0011019867416828255,0.1279750116072078,0.0011149611075047527,-0.2082962419457609
600,0.5906,570.595,560.296,0.00506088,565.405,1.48175,1.48287,0.115524,0.12062,-0.233953,0.636397,0.00110474,0.00111774,0.44046,0.12246145329989222,0.8896601536128146,0.001105350450009368,0.12819611637704242,0.0011183649041588417,-0.20860098922499626
601,0.5916,570.752,560.444,0.00499913,565.558,1.48583,1.48696,0.115714,0.120815,-0.234339,0.637441,0.00110811,0.00112115,0.441189,0.12267474123773159,0.8916339889759666,0.0011087241807250514,0.1284161360709588,0.0011217787236037502,-0.20890641029309698
602,0.5926,570.909,560.592,0.00493725,565.71,1.48993,1.49105,0.115905,0.121011,-0.234724,0.638485,0.00111149,0.00112457,0.441919,0.12288919259276043,0.8936098860992889,0.00111210793393135,0.12863732730966215,0.0011252025659418408,-0.209210922702734
603,0.5936,571.066,560.739,0.00487525,565.862,1.49403,1.49516,0.116095,0.121206,-0.235108,0.639527,0.00111487,0.001128,0.442647,0.12310256180878665,0.8955840559644805,0.001115491698574722,0.12885743304809938,0.001128636431275698,-0.20951452741258114
604,0.5946,571.222,560.886,0.00481311,566.014,1.49815,1.49928,0.116284,0.121402,-0.235493,0.64057,0.00111826,0.00113143,0.443375,0.12331484825340566,0.8975621815480181,0.0011188854858439345,0.12907871078948707,0.0011320703083876893,-0.20981880574219036
605,0.5956,571.378,561.033,0.00475085,566.165,1.50227,1.5034,0.116474,0.121597,-0.235877,0.641611,0.00112165,0.00113487,0.444103,0.12352829835169099,0.8995385723119209,0.0011222792846183882,0.12929890260609556,0.001135514208633115,-0.21012217706976266
606,0.5966,571.534,561.18,0.00468846,566.316,1.5064,1.50754,0.116664,0.121792,-0.236261,0.642652,0.00112506,0.00113831,0.44483,0.12374178900934818,0.9015170215698691,0.001125693117411286,0.12951913736429477,0.0011389581207255084,-0.2104254319251092
607,0.5976,571.689,561.326,0.00462594,566.467,1.51055,1.51168,0.116853,0.121987,-0.236645,0.643692,0.00112847,0.00114176,0.445557,0.12395419627932558,0.9034956279692912,0.0011291069618453164,0.12973941507245934,0.0011424120560890039,-0.2107285703529469
608,0.5986,571.844,561.472,0.00456328,566.617,1.5147,1.51584,0.117043,0.122181,-0.237028,0.644731,0.00113189,0.00114522,0.446283,0.12416776786527683,0.9054743877144293,0.0011325308292460257,0.12995860577979457,0.0011458760148272962,-0.21103080342917313
609,0.5996,571.998,561.617,0.00450049,566.768,1.51886,1.52,0.117232,0.122376,-0.237411,0.645769,0.00113531,0.00114869,0.447008,0.12438025565286681,0.9074532970051186,0.0011359547083562571,0.13017896919265604,0.0011493499970445242,-0.21133292077229537
610,0.6006,572.153,561.763,0.00443757,566.917,1.52303,1.52417,0.117421,0.12257,-0.237794,0.646807,0.00113874,0.00115217,0.447733,0.12459278360444404,0.9094342614701023,0.0011393886105699469,0.13039824518176268,0.001152834002844605,-0.21163492242663107
611,0.6016,572.307,561.908,0.00437451,567.067,1.52721,1.52836,0.11761,0.122764,-0.238177,0.647844,0.00114218,0.00115565,0.448458,0.12480535172759999,0.9114153718274316,0.0011428325359903457,0.1306175637145377,0.0011563180207692092,-0.21193680843648055
612,0.6026,572.46,562.053,0.00431131,567.216,1.5314,1.53255,0.117799,0.122959,-0.238559,0.64888,0.00114563,0.00115913,0.449182,0.12501796002992838,0.9133966242642013,0.0011462864847207044,0.1308380556367259,0.001159802050818115,-0.21223779108431207
613,0.6036,572.613,562.197,0.00424798,567.365,1.53559,1.53675,0.117987,0.123152,-0.238941,0.649916,0.00114908,0.00116263,0.449905,0.12522948328897732,0.9153799303420977,0.0011497404453670867,0.1310563284441122,0.0011633061162574787,-0.21253865877872957
614,0.6046,572.766,562.342,0.0041845,567.514,1.5398,1.54096,0.118176,0.123346,-0.239323,0.65095,0.00115254,0.00116613,0.450628,0.12544217175974626,0.9173614574630462,0.0011532044294617627,0.13127577465742468,0.001166810193961032,-0.21283941156363684
615,0.6056,572.919,562.486,0.00412088,567.662,1.54402,1.54518,0.118364,0.12354,-0.239705,0.651984,0.00115601,0.00116964,0.45135,0.12565377477809747,0.9193450345426837,0.0011566784371086491,0.13149526344743245,0.0011703242956320192,-0.2131400494829211
616,0.6066,573.071,562.629,0.00405712,567.81,1.54825,1.54941,0.118553,0.123734,-0.240086,0.653018,0.00115948,0.00117316,0.452072,0.12586654344753656,0.9213306637017638,0.0011601524568101151,0.13171479482239623,0.0011738484213759115,-0.21343978602063185
617,0.6076,573.223,562.773,0.00399322,567.958,1.55248,1.55365,0.118741,0.123927,-0.240467,0.65405,0.00116296,0.00117668,0.452794,0.1260782262552651,0.9233145004303867,0.0011636365002030136,0.13193323685677516,0.0011773725595247697,-0.213739408380474
618,0.6086,573.375,562.916,0.00392917,568.105,1.55673,1.5579,0.118929,0.12412,-0.240848,0.655082,0.00116645,0.00118022,0.453515,0.12628994886310263,0.9253003855352937,0.0011671305673914834,0.13215172105453532,0.0011809167336969129,-0.214038916605941
619,0.6096,573.526,563.059,0.00386497,568.252,1.56099,1.56216,0.119117,0.124313,-0.241228,0.656113,0.00116994,0.00118375,0.454235,0.12650171127853227,0.9272863938441427,0.0011706246467744208,0.1323702474238151,0.0011844509085707777,-0.21433752507842774
620,0.6106,573.677,563.201,0.00380063,568.399,1.56525,1.56642,0.119304,0.124506,-0.241608,0.657144,0.00117345,0.0011873,0.454955,0.1267123867960882,0.9292744507834461,0.0011741387618340315,0.1325888159727544,0.0011880051196802022,-0.2146360201012517
621,0.6116,573.828,563.344,0.00373614,568.545,1.56953,1.5707,0.119492,0.124699,-0.241988,0.658173,0.00117696,0.00119085,0.455674,0.12692422863731512,0.9312606959411762,0.0011776528892284421,0.13280742670949475,0.0011915593434070892,-0.21493440171751566
622,0.6126,573.978,563.486,0.00367149,568.692,1.57381,1.57499,0.11968,0.124892,-0.242368,0.659202,0.00118047,0.00119441,0.456393,0.127136110308552,0.9332489859970929,0.0011811670289574305,0.13302607964217894,0.001195123591702707,-0.21523266997030577
623,0.6136,574.128,563.627,0.0036067,568.837,1.57811,1.57929,0.119867,0.125084,-0.242747,0.66023,0.001184,0.00119798,0.457112,0.12734690446981944,0.9352373878181248,0.0011847012047148109,0.13324364153474355,0.001198697864674081,-0.21553004043312474
624,0.6146,574.278,563.769,0.00354175,568.983,1.58241,1.58359,0.120054,0.125277,-0.243126,0.661258,0.00118753,0.00120156,0.45783,0.12755773805328086,0.9372278347672445,0.0011882353929479894,0.13346237866501398,0.0012022821624282365,-0.21582729821389302
625,0.6156,574.427,563.91,0.00347665,569.128,1.58672,1.58791,0.120241,0.125469,-0.243505,0.662285,0.00119107,0.00120514,0.458547,0.1277686110663092,0.9392183897285651,0.0011917796055744834,0.13368002433503334,0.0012058664730143498,-0.21612444335530878
626,0.6166,574.576,564.051,0.00341139,569.273,1.59105,1.59223,0.120428,0.125661,-0.243884,0.663311,0.00119462,0.00120873,0.459264,0.12797952351627795,0.941209048829919,0.0011953338427008742,0.13389771179703325,0.0012094608085269076,-0.21642147590005434
627,0.6176,574.725,564.192,0.00334597,569.418,1.59538,1.59657,0.120615,0.125853,-0.244262,0.664336,0.00119817,0.00121233,0.45998,0.12819047541056294,0.9431998081948492,0.0011988880924447276,0.1341154410590386,0.0012130651690736016,-0.21671761260880007
628,0.6186,574.874,564.332,0.0032804,569.563,1.59972,1.60092,0.120802,0.126045,-0.24464,0.665361,0.00120173,0.00121593,0.460696,0.12840146675654074,0.9451926091342562,0.0012024523668308085,0.13433321212907567,0.0012166695425961382,-0.2170136373990238
629,0.6196,575.022,564.473,0.00321467,569.707,1.60408,1.60527,0.120989,0.126237,-0.245018,0.666384,0.0012053,0.00121955,0.461412,0.12861249756158943,0.9471835593708142,0.0012060266659659202,0.13455102501517224,0.0012202939534999846,-0.2173095503130228
630,0.6206,575.17,564.612,0.00314877,569.851,1.60844,1.60964,0.121175,0.126429,-0.245395,0.667408,0.00120887,0.00122317,0.462126,0.1288224390100854,0.9491784965691354,0.0012096009778612693,0.13476887972535811,0.0012239183775242246,-0.21760456899803848
631,0.6216,575.317,564.752,0.00308272,569.994,1.61281,1.61401,0.121362,0.12662,-0.245773,0.66843,0.00121246,0.00122679,0.462841,0.1290335485443066,0.9511715752823733,0.0012131953267804363,0.1349856412814554,0.0012275428146690803,-0.21790025858210504
632,0.6226,575.464,564.892,0.0030165,570.138,1.61719,1.61839,0.121548,0.126811,-0.24615,0.669452,0.00121605,0.00123043,0.463555,0.12924356831556905,0.9531666919632802,0.0012167896886037255,0.1352024442429638,0.0012311872895578446,-0.21819505461207633
633,0.6236,575.611,565.031,0.00295011,570.281,1.62159,1.62279,0.121734,0.127003,-0.246526,0.670473,0.00121965,0.00123407,0.464268,0.129453627154142,0.9551618935328525,0.0012203940755344256,0.1354204240376491,0.0012348317777126638,-0.21848895801424006
634,0.6246,575.758,565.17,0.00288356,570.423,1.62599,1.62719,0.12192,0.127194,-0.246903,0.671493,0.00122325,0.00123772,0.464981,0.12966372506729296,0.957157176085367,0.0012239984754409683,0.1356373100505952,0.001238486291518015,-0.21878353214635582
635,0.6256,575.904,565.308,0.00281684,570.566,1.6304,1.63161,0.122106,0.127385,-0.247279,0.672513,0.00122686,0.00124138,0.465693,0.12987386206229012,0.9591544948643838,0.001227612900599473,0.13585423749272607,0.0012421508310840323,-0.21907721432255967
636,0.6266,576.05,565.447,0.00274995,570.708,1.63482,1.63603,0.122291,0.127575,-0.247655,0.673532,0.00123048,0.00124504,0.466405,0.13008290806293066,0.9611518907950425,0.0012312373511185193,0.13607007030131735,0.00124581538406221,-0.21937078609502247
637,0.6276,576.196,565.585,0.0026829,570.85,1.63925,1.64046,0.122477,0.127766,-0.248031,0.67455,0.00123411,0.00124871,0.467117,0.1302931230332165,0.9631493599591741,0.0012348718271066872,0.1362870804085503,0.001249489962947381,-0.21966424750524827
638,0.6286,576.341,565.723,0.00261567,570.992,1.64369,1.64491,0.122662,0.127957,-0.248406,0.675567,0.00123775,0.00125239,0.467828,0.13050224660431153,0.965146898434398,0.0012385163286730005,0.13650413196867262,0.0012531745678501238,-0.21995681855193394
639,0.6296,576.486,565.86,0.00254826,571.133,1.64815,1.64936,0.122848,0.128147,-0.248781,0.676584,0.00124139,0.00125608,0.468538,0.13071253957882023,0.9671464694396172,0.0012421608435055909,0.13672008826894544,0.0012568691988810166,-0.22024927990504606
640,0.6306,576.631,565.998,0.00248069,571.274,1.65261,1.65383,0.123033,0.128337,-0.249156,0.6776,0.00124504,0.00125977,0.469248,0.13092174074915386,0.9691461058958764,0.00124581538406221,0.13693608560481363,0.001260563843544782,-0.22054163160571172
641,0.6316,576.776,566.135,0.00241293,571.415,1.65708,1.6583,0.123218,0.128527,-0.249531,0.678615,0.00124869,0.00126348,0.469958,0.13113098062528428,0.9711458038684035,0.0012494699379579366,0.13715212398407473,0.0012642785271275159,-0.22083387369504315
642,0.6326,576.92,566.272,0.002345,571.555,1.66156,1.66278,0.123403,0.128717,-0.249905,0.67963,0.00125236,0.00126719,0.470666,0.13134025921437265,0.9731475325647907,0.00125314453025549,0.1373682034145276,0.0012679932244916703,-0.22112522733975348
643,0.6336,577.064,566.408,0.00227689,571.696,1.66605,1.66728,0.123588,0.128907,-0.250279,0.680644,0.00125603,0.0012709,0.471375,0.13154957652358146,0.9751493188969629,0.0012568191360387004,0.13758432390397268,0.0012717079356372452,-0.22141647203857495
644,0.6346,577.207,566.545,0.0022086,571.836,1.67056,1.67178,0.123773,0.129097,-0.250653,0.681657,0.00125971,0.00127463,0.472083,0.13175893256007454,0.9771511589177904,0.0012605037679127573,0.13780048546021195,0.0012754426860730472,-0.22170760783224552
645,0.6356,577.351,566.681,0.00214013,571.975,1.67507,1.6763,0.123957,0.129286,-0.251027,0.68267,0.0012634,0.00127836,0.47279,0.13196719536325596,0.9791550278300194,0.0012641984259884609,0.13801555007492983,0.0012791774504397058,-0.22199863476148818
646,0.6366,577.494,566.817,0.00207148,572.115,1.67959,1.68082,0.124142,0.129476,-0.2514,0.683682,0.0012671,0.0012821,0.473497,0.13217662866638125,0.9811589465300203,0.0012679031103761673,0.13823179357192572,0.001282922241566009,-0.22228877515617462
647,0.6376,577.636,566.952,0.00200264,572.254,1.68412,1.68535,0.124326,0.129665,-0.251773,0.684693,0.0012708,0.00128585,0.474204,0.1323849683327174,0.9831629110583402,0.0012716078084713534,0.13844693971158062,0.0012866770595647559,-0.22257880734867486
648,0.6386,577.779,567.088,0.00193362,572.393,1.68866,1.6899,0.12451,0.129854,-0.252146,0.685703,0.00127451,0.00128961,0.47491,0.1325933463370792,0.9851669174513802,0.0012753225330273121,0.1386621265176986,0.0012904419045485227,-0.2228687313793406
649,0.6396,577.921,567.223,0.00186441,572.531,1.69322,1.69445,0.124694,0.130043,-0.252519,0.686713,0.00127823,0.00129337,0.475615,0.13280176268652122,0.9871729489133652,0.001279047284155066,0.13887735399796663,0.0012942067636878551,-0.22315854728850892
650,0.6406,578.063,567.358,0.00179501,572.67,1.69778,1.69902,0.124878,0.130232,-0.252891,0.687722,0.00128195,0.00129714,0.47632,0.13301021738810004,0.9891790183106346,0.0012827720491390693,0.1390926221600728,0.001297981649962976,-0.2234474785643683
651,0.6416,578.204,567.492,0.00172542,572.808,1.70235,1.70359,0.125062,0.130421,-0.253263,0.68873,0.00128569,0.00130092,0.477025,0.1332187104488729,0.9911851216673224,0.0012865168537092853,0.1393079310117067,0.0013017665634871278,-0.22373630237778241
652,0.6426,578.345,567.627,0.00165565,572.946,1.70694,1.70818,0.125246,0.13061,-0.253635,0.689738,0.00128943,0.00130471,0.477729,0.13342724187589838,0.9931932481957013,0.0012902616722851867,0.1395232805605593,0.0013055615043737756,-0.2240250187687196
653,0.6436,578.486,567.761,0.00158567,573.083,1.71153,1.71277,0.125429,0.130798,-0.254007,0.690745,0.00129318,0.0013085,0.478433,0.13363467804099183,0.9952014047337541,0.0012940165178068064,0.1397375310762221,0.0013093564596433627,-0.22431362777713382
654,0.6446,578.627,567.895,0.00151551,573.221,1.71613,1.71738,0.125613,0.130987,-0.254378,0.691751,0.00129693,0.00131231,0.479136,0.13384328601309625,0.997209587293381,0.0012977713774089406,0.13995296182716,0.0013131714555589813,-0.22460135404470571
655,0.6456,578.767,568.029,0.00144515,573.358,1.72075,1.72199,0.125796,0.131175,-0.254749,0.692757,0.0013007,0.00131612,0.479838,0.1340507983212338,0.9992197911011802,0.001301546277122867,0.14016729313049492,0.0013169864660098618,-0.2248889735856312
656,0.6466,578.907,568.162,0.00137459,573.494,1.72537,1.72662,0.125979,0.131363,-0.25512,0.693762,0.00130447,0.00131994,0.480541,0.13425834860759855,1.001230016960533,0.0013053211910678542,0.1403816647319025,0.0013208115042040447,-0.22517648643949884
657,0.6476,579.047,568.296,0.00130383,573.631,1.73001,1.73126,0.126162,0.131551,-0.25549,0.694766,0.00130825,0.00132376,0.481242,0.1344659368791412,1.0032402608711415,0.0013091061323355913,0.1405960766389598,0.0013246365570098728,-0.22546311810938724
658,0.6486,579.187,568.429,0.00123288,573.767,1.73465,1.7359,0.126345,0.131739,-0.25586,0.695769,0.00131204,0.0013276,0.481943,0.13467356314281376,1.0052505188286327,0.001312901101039321,0.14081052885924517,0.00132848165099686,-0.22574964374517537
659,0.6496,579.326,568.561,0.00116172,573.903,1.73931,1.74056,0.126528,0.131926,-0.25623,0.696772,0.00131583,0.00133144,0.482644,0.13488122740556951,1.0072627940863623,0.00131669608412599,0.14102388037588676,0.0013323267597489252,-0.2260360633860885
660,0.6506,579.465,568.694,0.00109036,574.039,1.74397,1.74523,0.126711,0.132114,-0.2566,0.697774,0.00131964,0.00133529,0.483344,0.13508892967436248,1.0092750793926135,0.0013205111080056842,0.14123841303083529,0.001336181896627986,-0.2263223770713375
661,0.6516,579.604,568.826,0.0010188,574.174,1.74865,1.74991,0.126894,0.132301,-0.25697,0.698776,0.00132345,0.00133915,0.484044,0.13529666995614908,1.0112893820192501,0.0013243261464206402,0.14145184456929893,0.0013400470617499494,-0.2266085848401187
662,0.6526,579.742,568.958,0.00094703,574.31,1.75334,1.7546,0.127076,0.132489,-0.257339,0.699776,0.00132727,0.00134301,0.484743,0.1355033127540053,1.0133016773812589,0.0013281512126523953,0.14166645768907893,0.001343912241791534,-0.22689391362591427
663,0.6536,579.88,569.09,0.000875054,574.445,1.75804,1.75929,0.127258,0.132676,-0.257708,0.700776,0.00133109,0.00134689,0.485442,0.13570999316427335,1.0153159860451129,0.0013319762934957957,0.1418799692793784,0.0013477974637081669,-0.22717913714481064
664,0.6546,580.018,569.222,0.00080287,574.579,1.76274,1.764,0.127441,0.132863,-0.258077,0.701776,0.00133493,0.00135077,0.48614,0.13591784711107846,1.0173323100251213,0.0013358214156675707,0.14209352080007842,0.0013516827006998522,-0.2274642554356444
665,0.6556,580.155,569.353,0.000730475,574.714,1.76746,1.76872,0.127623,0.13305,-0.258445,0.702774,0.00133877,0.00135466,0.486838,0.1361246029734653,1.0193466126403434,0.0013396665526044238,0.142307112258647,0.001355577966321686,-0.22774849628611982
666,0.6566,580.293,569.485,0.00065787,574.848,1.77219,1.77346,0.127805,0.133237,-0.258814,0.703772,0.00134262,0.00135855,0.487536,0.13633139646884396,1.0213629265330364,0.001343521717741769,0.14252074366255307,0.0013594732470962878,-0.2280334045221879
667,0.6576,580.43,569.616,0.000585051,574.982,1.77693,1.7782,0.127987,0.133423,-0.259181,0.70477,0.00134648,0.00136246,0.488232,0.13653822760406364,1.0233812537114564,0.001347386911195514,0.14273327228542354,0.0013633885702912796,-0.2283166642813832
668,0.6586,580.566,569.746,0.000512019,575.116,1.78168,1.78295,0.128168,0.13361,-0.259549,0.705766,0.00135035,0.00136637,0.488929,0.1367439596414477,1.0253975453867246,0.0013512621330813435,0.14294698338870648,0.0013673039087949146,-0.22860059150311451
669,0.6596,580.703,569.877,0.00043877,575.249,1.78644,1.78771,0.12835,0.133796,-0.259917,0.706762,0.00135422,0.0013703,0.489625,0.13695086586999805,1.02741584628893,0.0013551373699642877,0.14315959129953937,0.0013712392900324666,-0.2288844142588513
670,0.6606,580.839,570.007,0.000365304,575.383,1.79121,1.79248,0.128531,0.133983,-0.260284,0.707758,0.0013581,0.00137423,0.49032,0.13715667260166775,1.02943615842026,0.0013590226354347479,0.1433733821319323,0.0013751746867358694,-0.22916736175477703
671,0.6616,580.975,570.137,0.00029162,575.516,1.796,1.79727,0.128713,0.134169,-0.260651,0.708752,0.00136199,0.00137816,0.491015,0.13736365395081274,1.0314544208719925,0.0013629179296090754,0.14358606936030793,0.001379110098905345,-0.2294502054280243
672,0.6626,581.11,570.267,0.000217715,575.648,1.80079,1.80206,0.128894,0.134355,-0.261018,0.709746,0.00136589,0.00138211,0.49171,0.13756953540388728,1.0334746904739895,0.0013668232526045099,0.14379879615218716,0.0013830655542024228,-0.2297329453166892
673,0.6636,581.246,570.397,0.000143588,575.781,1.80559,1.80687,0.129075,0.134541,-0.261384,0.710739,0.0013698,0.00138606,0.492404,0.13777545412487746,1.0354949337264001,0.0013707386045378467,0.14401156251492986,0.0013870210251234472,-0.23001481147405
674,0.6646,581.381,570.526,6.92382e-05,575.913,1.81041,1.81168,0.129256,0.134727,-0.261751,0.711732,0.00137371,0.00139003,0.493097,0.13798141012052945,1.0375171840767194,0.0013746539717804929,0.1442243684558966,0.001390996539488265,-0.23029734419031445
675,0.6656,581.515,570.656,-5.33667e-06,576.045,1.81523,1.81651,0.129437,0.134912,-0.262117,0.712724,0.00137764,0.001394,0.493791,0.1381874033975905,1.0395394039785621,0.0013785893819036055,0.144436069545808,0.0013949720696357915,-0.23057900381548513
676,0.6666,581.65,570.784,-8.01379e-05,576.177,1.82007,1.82134,0.129618,0.135098,-0.262482,0.713715,0.00138157,0.00139798,0.494483,0.138393433962809,1.041561589355263,0.001382524807493013,0.1446489544524261,0.0013989576295558859,-0.23085979123227163
677,0.6676,581.784,570.913,-0.000155167,576.308,1.82492,1.82619,0.129798,0.135283,-0.262848,0.714706,0.00138551,0.00140196,0.495175,0.13859836322400265,1.0435857797109755,0.0013864702624133418,0.14486073409801303,0.0014029432053386248,-0.23114124503949207
678,0.6686,581.918,571.042,-0.000230426,576.44,1.82977,1.83105,0.129979,0.135468,-0.263213,0.715696,0.00138945,0.00140596,0.495867,0.13880446817968184,1.0456099314226641,0.0013904157328785693,0.1450725529264587,0.0014069488251227114,-0.2314218272756795
679,0.6696,582.052,571.17,-0.000305915,576.571,1.83464,1.83592,0.130159,0.135654,-0.263578,0.716685,0.00139341,0.00140996,0.496558,0.13900947143369358,1.0476340404017463,0.0013943812467767103,0.14528555622999617,0.0014109544609293145,-0.23170230711803874
680,0.6706,582.185,571.298,-0.000381637,576.701,1.83952,1.8408,0.13034,0.135839,-0.263943,0.717673,0.00139737,0.00141397,0.497249,0.13921565080669351,1.049658102555719,0.0013983467763780677,0.14549745365780642,0.001414970126907944,-0.23198268460393667
681,0.6716,582.318,571.426,-0.000457593,576.832,1.84441,1.84569,0.13052,0.136023,-0.264307,0.718661,0.00140134,0.00141799,0.497939,0.13942072808023953,1.0516841654713138,0.001402322335706252,0.1457082445814497,0.001418995823179614,-0.23226219203330256
682,0.6726,582.451,571.554,-0.000533785,576.962,1.84931,1.85059,0.1307,0.136208,-0.264672,0.719648,0.00140532,0.00142202,0.498629,0.1396258422710175,1.0537101774150548,0.001406307924880501,0.14592022021383877,0.0014230315498646728,-0.23254236519849725
683,0.6736,582.584,571.682,-0.000610213,577.092,1.85422,1.85551,0.13088,0.136393,-0.265036,0.720635,0.00140931,0.00142606,0.499319,0.1398309933856725,1.0557381900197487,0.001410303544020497,0.14613223506534734,0.0014270773070845788,-0.23282166894119993
684,0.6746,582.716,571.809,-0.000686881,577.222,1.85915,1.86043,0.131059,0.136577,-0.265399,0.721621,0.00141331,0.0014301,0.500008,0.1400350413952407,1.0577661474938447,0.0014143091932459217,0.14634314279951588,0.0014311230806494102,-0.23310010413632898
685,0.6756,582.848,571.936,-0.000763788,577.352,1.86408,1.86537,0.131239,0.136762,-0.265763,0.722606,0.00141731,0.00143416,0.500696,0.14024026617236762,1.0597940457250452,0.0014183148584938632,0.1465552358989406,0.0014351888992627515,-0.23337920489900288
686,0.6766,582.98,572.063,-0.000840938,577.481,1.86903,1.87031,0.131419,0.136946,-0.266126,0.723591,0.00142132,0.00143822,0.501384,0.14044552789327924,1.0618239424200855,0.0014223305539879938,0.14676622147242346,0.0014392547343833328,-0.23365743774530767
687,0.6776,583.112,572.19,-0.000918331,577.61,1.87398,1.87527,0.131598,0.13713,-0.266489,0.724574,0.00142534,0.00144229,0.502071,0.14064968591437,1.0638517118408708,0.0014263562798484397,0.14697724587082361,0.0014433306004444368,-0.23393556961141837
688,0.6786,583.243,572.316,-0.000995969,577.739,1.87895,1.88024,0.131777,0.137314,-0.266852,0.725558,0.00142937,0.00144637,0.502759,0.14085388048301728,1.0658835414215315,0.0014303920361964373,0.14718830910128555,0.0014474164975686321,-0.234213600533984
689,0.6796,583.374,572.443,-0.00107385,577.868,1.88393,1.88522,0.131957,0.137498,-0.267215,0.72654,0.00143341,0.00145045,0.503445,0.14105925266444608,1.067913235475881,0.0014344378231527788,0.14739941117095512,0.0014515024113630481,-0.23449153054964045
690,0.6806,583.505,572.569,-0.00115199,577.996,1.88892,1.89021,0.132136,0.137682,-0.267577,0.727522,0.00143746,0.00145455,0.504131,0.14126352055210356,1.069944923668754,0.0014384936408389226,0.14761055208697904,0.0014556083709402756,-0.23476859446398735
691,0.6816,583.635,572.694,-0.00123037,578.124,1.89392,1.89521,0.132315,0.137865,-0.267939,0.728503,0.00144151,0.00145865,0.504817,0.14146782500698563,1.071976535981784,0.0014425494749512602,0.14782058403534815,0.0014597143473518148,-0.2350455580993488
692,0.6826,583.765,572.82,-0.001309,578.252,1.89893,1.90022,0.132493,0.138049,-0.268301,0.729484,0.00144557,0.00146276,0.505502,0.1416710243640431,1.074010142284385,0.0014466153399557147,0.14803180245430925,0.0014638303552361176,-0.23532242149201943
693,0.6836,583.895,572.946,-0.00138789,578.38,1.90395,1.90524,0.132672,0.138232,-0.268663,0.730464,0.00144965,0.00146688,0.506187,0.14187540176863633,1.0760436684889139,0.0014507012504816341,0.1482419114985496,0.0014679563947168628,-0.23559918467828023
694,0.6846,584.025,573.071,-0.00146703,578.508,1.90899,1.91028,0.132851,0.138415,-0.269024,0.731443,0.00145372,0.00147101,0.506871,0.14207981576005935,1.0780771104477922,0.0014547771631301387,0.14845205899626346,0.0014720924659177292,-0.23587508356986508
695,0.6856,584.155,573.196,-0.00154643,578.635,1.91403,1.91532,0.133029,0.138599,-0.269385,0.732422,0.00145781,0.00147515,0.507555,0.1422831240611666,1.0801125441211337,0.0014588731215450235,0.14866339361730763,0.00147623856896284,-0.2361508828799257
696,0.6866,584.284,573.321,-0.00162608,578.762,1.91909,1.92038,0.133208,0.138782,-0.269746,0.7334,0.00146191,0.0014793,0.508238,0.14248761104141217,1.0821478893108507,0.0014629791113420776,0.14887361825330703,0.0014803947039769838,-0.23642658264440441
697,0.6876,584.413,573.446,-0.001706,578.889,1.92416,1.92545,0.133386,0.138964,-0.270106,0.734377,0.00146601,0.00148345,0.508921,0.14269099193654022,1.0841831418576837,0.0014670851179736655,0.14908273228062852,0.0014845508562391085,-0.23670141960103208
698,0.6886,584.541,573.57,-0.00178618,579.015,1.92924,1.93053,0.133564,0.139147,-0.270467,0.735354,0.00147013,0.00148761,0.509604,0.14289440903668993,1.0862203838179258,0.0014712111708641284,0.14929303366262525,0.0014887170406361339,-0.23697692065762344
699,0.6896,584.67,573.694,-0.00186661,579.142,1.93433,1.93562,0.133742,0.13933,-0.270827,0.73633,0.00147425,0.00149179,0.510286,0.1430978623483059,1.0882575288776102,0.0014753372407538823,0.14950337353329668,0.0014929032722226232,-0.23725155952822385
700,0.6906,584.798,573.819,-0.00194732,579.268,1.93943,1.94072,0.13392,0.139512,-0.271187,0.737305,0.00147838,0.00149597,0.510967,0.14330135187783477,1.090294572865838,0.0014794733424376982,0.1497126021865096,0.0014970895213075597,-0.2375260995466254
701,0.6916,584.926,573.943,-0.00202829,579.394,1.94454,1.94584,0.134098,0.139695,-0.271547,0.73828,0.00148252,0.00150015,0.511649,0.14350487763172382,1.0923336039405016,0.0014836194760396992,0.14992301884524695,0.0015012757878911653,-0.23780054074840828
702,0.6926,585.054,574.066,-0.00210953,579.52,1.94967,1.95096,0.134275,0.139877,-0.271906,0.739254,0.00148667,0.00150435,0.512329,0.1437072959085537,1.0943725296663782,0.0014877756416846744,0.15013232388085718,0.001505482102082567,-0.23807412124364236
703,0.6936,585.181,574.19,-0.00219103,579.645,1.95481,1.9561,0.134453,0.140059,-0.272265,0.740227,0.00149082,0.00150856,0.513009,0.14391089392691137,1.0964113458609717,0.0014919318245776303,0.15034166701345075,0.0015096984490376997,-0.2383476035411063
704,0.6946,585.308,574.313,-0.00227281,579.77,1.95995,1.96125,0.13463,0.140241,-0.272624,0.7412,0.00149499,0.00151277,0.513689,0.14411338407498597,1.0984521467891386,0.0014961080546407324,0.15055104824996168,0.001513914813743522,-0.23862098767604667
705,0.6956,585.435,574.436,-0.00235486,579.895,1.96511,1.96641,0.134807,0.140423,-0.272983,0.742172,0.00149916,0.001517,0.514369,0.14431591006698885,1.1004928338890814,0.0015002843021187928,0.15076046759732575,0.0015181512265634023,-0.23889427368369753
706,0.6966,585.562,574.559,-0.00243719,580.02,1.97028,1.97158,0.134985,0.140605,-0.273341,0.743143,0.00150334,0.00152123,0.515047,0.1445196164283089,1.1025334029667468,0.0015044705820566051,0.15096992506247964,0.0015223876573029482,-0.23916670076636137
707,0.6976,585.688,574.682,-0.00251979,580.145,1.97547,1.97676,0.135162,0.140787,-0.273699,0.744114,0.00150753,0.00152547,0.515726,0.14472221432980215,1.1045759543992646,0.0015086668945796244,0.15117942065236134,0.00152663412122922,-0.23943903033758518
708,0.6986,585.814,574.805,-0.00260267,580.269,1.98066,1.98195,0.135339,0.140968,-0.274057,0.745084,0.00151173,0.00152972,0.516404,0.1449248480942975,1.1066183834929988,0.00151287323981375,0.15138780298553178,0.0015308906184692272,-0.2397112624322718
709,0.6996,585.94,574.927,-0.00268582,580.393,1.98587,1.98716,0.135515,0.141149,-0.274415,0.746054,0.00151594,0.00153398,0.517081,0.14512637260119865,1.1086627947041254,0.0015170896178855475,0.15159622303931797,0.0015351571491510896,-0.2399833970853117
710,0.7006,586.066,575.049,-0.00276926,580.517,1.99108,1.99238,0.135692,0.141331,-0.274773,0.747023,0.00152015,0.00153825,0.517758,0.1453290779080394,1.1107070792480966,0.0015213060137084788,0.15180583262580494,0.0015394337134024827,-0.24025543433158258
711,0.7016,586.191,575.171,-0.00285299,580.641,1.99631,1.9976,0.135869,0.141512,-0.27513,0.747991,0.00152438,0.00154252,0.518435,0.14553181909689505,1.1127512329115636,0.0015255424577929055,0.1520143283498041,0.0015437102959150462,-0.24052661473294445
712,0.7026,586.316,575.293,-0.00293699,580.765,2.00155,2.00284,0.136045,0.141693,-0.275487,0.748959,0.00152861,0.00154681,0.519111,0.145733450440094,1.1147973662737964,0.0015297789197976641,0.1522228618149446,0.0015480069276483377,-0.24079769834018172
713,0.7036,586.441,575.415,-0.00302129,580.888,2.00681,2.0081,0.136222,0.141874,-0.275844,0.749925,0.00153286,0.0015511,0.519787,0.14593626320922248,1.1168412475653424,0.0015340354304032022,0.1524314330280585,0.00155230357781444,-0.24106868518784397
714,0.7046,586.566,575.536,-0.00310587,581.011,2.01207,2.01336,0.136398,0.142055,-0.2762,0.750892,0.00153711,0.0015554,0.520462,0.14613796574084925,1.118889223088317,0.0015382919590989363,0.15264004199597858,0.0015566102619790634,-0.24133881664966395
715,0.7056,586.69,575.657,-0.00319074,581.134,2.01735,2.01864,0.136574,0.142235,-0.276557,0.751857,0.00154137,0.00155971,0.521137,0.14633970377524608,1.1209349380873324,0.0015425585213104664,0.15284753587742705,0.0015609269802718817,-0.241609610352568
716,0.7066,586.815,575.779,-0.00327591,581.256,2.02263,2.02392,0.13675,0.142416,-0.276913,0.752823,0.00154564,0.00156404,0.521811,0.1465414773186613,1.1229847511378286,0.0015468351171656902,0.15305622016677933,0.0015652637484748766,-0.24187954927930266
717,0.7076,586.938,575.9,-0.00336136,581.379,2.02793,2.02922,0.136926,0.142596,-0.277269,0.753787,0.00154991,0.00156836,0.522485,0.14674328637734568,1.1250322951955964,0.0015511117312823064,0.15326378896704096,0.0015695905197601334,-0.24214939212488273
718,0.7086,587.062,576.02,-0.00344712,581.501,2.03324,2.03453,0.137102,0.142777,-0.277624,0.754751,0.0015542,0.0015727,0.523159,0.14694513095755024,1.1270818140375294,0.0015554083947679764,0.15347254860502124,0.001573937341215581,-0.24241838134226734
719,0.7096,587.186,576.141,-0.00353317,581.623,2.03857,2.03986,0.137277,0.142957,-0.27798,0.755714,0.0015585,0.00157705,0.523832,0.14714586391908968,1.129131180435992,0.0015597150922834757,0.1536801923511466,0.00157829419731903,-0.2426880323977738
720,0.7106,587.309,576.261,-0.00361951,581.745,2.0439,2.04519,0.137453,0.143137,-0.278335,0.756676,0.0015628,0.00158141,0.524504,0.14734777935917687,1.1311803901434048,0.001564021808317717,0.15388787347651034,0.0015826610882014869,-0.2429568304317986
721,0.7116,587.432,576.381,-0.00370616,581.867,2.04925,2.05054,0.137628,0.143317,-0.27869,0.757638,0.00156711,0.00158577,0.525177,0.14754858279035243,1.133231572139075,0.0015683385585543164,0.15409559198784128,0.0015870279981238244,-0.24322553305945693
722,0.7126,587.554,576.501,-0.00379311,581.988,2.05461,2.0559,0.137804,0.143497,-0.279045,0.758599,0.00157144,0.00159015,0.525848,0.1477505691151988,1.1352825930375956,0.001572675358849418,0.1543033478918696,0.001591414958913795,-0.24349414031461214
723,0.7136,587.677,576.621,-0.00388037,582.109,2.05998,2.06127,0.137979,0.143677,-0.279399,0.75956,0.00157577,0.00159453,0.52652,0.1479514430407498,1.1373355859145837,0.001577012177923054,0.15451114119532638,0.0015958019389188394,-0.2437618959933895
724,0.7146,587.799,576.741,-0.00396793,582.23,2.06536,2.06665,0.138154,0.143856,-0.279753,0.76052,0.00158011,0.00159892,0.527191,0.1481523521223138,1.1393884132765382,0.001581359031588514,0.15471781718654976,0.0016001989541407635,-0.24402955690343153
725,0.7156,587.921,576.861,-0.0040558,582.351,2.07076,2.07204,0.138329,0.144036,-0.280107,0.761479,0.00158446,0.00160332,0.527861,0.14835329636604366,1.1414410708568643,0.0015857159199765825,0.15492568510119442,0.001604606004711684,-0.24429712307828055
726,0.7166,588.043,576.98,-0.00414397,582.471,2.07617,2.07745,0.138504,0.144215,-0.280461,0.762438,0.00158881,0.00160773,0.528531,0.14855427577809333,1.1434956978800068,0.0015900728273170461,0.1551324353024186,0.0016090230907639391,-0.24456459455146695
727,0.7176,588.164,577.099,-0.00423246,582.592,2.08159,2.08287,0.138679,0.144394,-0.280815,0.763396,0.00159318,0.00161215,0.5292,0.14875529036461788,1.1455501506843437,0.0015944497854989415,0.15533922251524102,0.0016134502124298677,-0.24483197135650892
728,0.7186,588.286,577.218,-0.00432127,582.712,2.08702,2.0883,0.138853,0.144574,-0.281168,0.764353,0.00159756,0.00161658,0.52987,0.14895519117600764,1.1476044249920214,0.0015988367787964641,0.1555472022929123,0.0016178873698426965,-0.24509849862578947
729,0.7196,588.407,577.337,-0.00441038,582.832,2.09246,2.09374,0.139028,0.144753,-0.281521,0.76531,0.00160194,0.00162102,0.530538,0.14915627592886604,1.149660666181214,0.0016032237913090608,0.15575406375567113,0.0016223345631352082,-0.24536493182754782
730,0.7206,588.527,577.456,-0.00449982,582.952,2.09792,2.0992,0.139202,0.144932,-0.281874,0.766266,0.00160634,0.00162546,0.531206,0.14935624651781443,1.1517167244173279,0.0016076308551893348,0.15596096224994627,0.0016267817761734804,-0.24563127099498394
731,0.7216,588.648,577.574,-0.00458957,583.071,2.10339,2.10466,0.139376,0.14511,-0.282226,0.767222,0.00161074,0.00162992,0.531874,0.14955625190467248,1.1537747491849677,0.0016120379384607642,0.15616674161504696,0.0016312490415821834,-0.24589676205842526
732,0.7226,588.768,577.692,-0.00467964,583.19,2.10887,2.11014,0.13955,0.145289,-0.282579,0.768177,0.00161515,0.00163439,0.532542,0.1497562920954958,1.1558325865313726,0.0016164550572876912,0.15637371398527056,0.001635726343272248,-0.2461629135229214
733,0.7236,588.888,577.81,-0.00477004,583.31,2.11436,2.11564,0.139725,0.145468,-0.282931,0.769131,0.00161957,0.00163886,0.533208,0.14995751705328275,1.1578902321598301,0.0016208822118031208,0.15658072340686435,0.001640203664975859,-0.2464282174811253
734,0.7246,589.008,577.928,-0.00486076,583.428,2.11986,2.12114,0.139898,0.145646,-0.283283,0.770085,0.001624,0.00164334,0.533875,0.1501564769132646,1.1599498417188636,0.0016253194021396133,0.1567866130992699,0.0016446910231397993,-0.24669342806877015
735,0.7256,589.128,578.046,-0.00495181,583.547,2.12538,2.12666,0.140072,0.145824,-0.283634,0.771038,0.00162844,0.00164784,0.534541,0.1503566215523262,1.1620092550726198,0.0016297666284306178,0.1569925394433025,0.0016491984343911525,-0.2469577922768853
736,0.7266,589.247,578.164,-0.00504318,583.666,2.13091,2.13218,0.140246,0.146003,-0.283986,0.77199,0.00163289,0.00165234,0.535207,0.15055680101958502,1.1640684679132383,0.001634223890809583,0.15719965964456772,0.0016537058659258363,-0.2472228164870064
737,0.7276,589.366,578.281,-0.00513489,583.784,2.13645,2.13772,0.14042,0.146181,-0.284337,0.772942,0.00163735,0.00165685,0.535872,0.1507570153211013,1.1661296420579137,0.0016386911894101797,0.15740565951742935,0.001658223334326081,-0.24748699491239357
738,0.7286,589.485,578.399,-0.00522692,583.902,2.14201,2.14328,0.140593,0.146359,-0.284688,0.773893,0.00164182,0.00166137,0.536537,0.1509561135062485,1.1681906111830012,0.0016431685243667449,0.1576116960615317,0.001662750839727778,-0.247751080627425
739,0.7296,589.604,578.516,-0.00531929,584.02,2.14757,2.14884,0.140766,0.146536,-0.285039,0.774844,0.00164629,0.0016659,0.537201,0.15115524613836095,1.1702535412219932,0.0016476458793368565,0.15781661146621295,0.0016672883822665963,-0.24801507366463638
740,0.7306,589.722,578.633,-0.005412,584.138,2.15315,2.15442,0.14094,0.146714,-0.285389,0.775794,0.00165078,0.00167044,0.537865,0.15135556457838795,1.1723162617232585,0.0016521432873635167,0.15802272116627303,0.0016718359620788714,-0.24827822233515018
741,0.7316,589.841,578.75,-0.00550504,584.255,2.15875,2.16001,0.141113,0.146892,-0.28574,0.776743,0.00165528,0.00167499,0.538528,0.151554766321514,1.174378768360242,0.0016566507321500445,0.15822886755712529,0.0016763935793011608,-0.24854203037809053
742,0.7326,589.959,578.866,-0.00559843,584.373,2.16435,2.16562,0.141286,0.147069,-0.28609,0.777692,0.00165978,0.00167955,0.539191,0.15175400252952276,1.1764432332450654,0.001661158197220125,0.15843389221082949,0.001680961234070022,-0.2488049946460269
743,0.7336,590.076,578.983,-0.00569215,584.49,2.16997,2.17123,0.141459,0.147247,-0.28644,0.77864,0.00166429,0.00168412,0.539854,0.15195327320837704,1.1785074797284194,0.0016656756992305954,0.15864011179664161,0.0016855389265229004,-0.2490678668925741
744,0.7346,590.194,579.099,-0.00578622,584.607,2.1756,2.17686,0.141632,0.147424,-0.286789,0.779588,0.00166882,0.00168869,0.540516,0.15215257836404095,1.1805736840453056,0.0016702132550190374,0.1588452092470185,0.0016901166398959333,-0.24932989648020598
745,0.7356,590.311,579.215,-0.00588063,584.723,2.18124,2.1825,0.141804,0.147601,-0.287139,0.780535,0.00167335,0.00169328,0.541178,0.1523507656511376,1.1826396654118745,0.0016747508313625925,0.15905034300285714,0.00169471440808322,-0.24959258504325776
746,0.7366,590.428,579.331,-0.00597539,584.84,2.1869,2.18815,0.141977,0.147778,-0.287488,0.781481,0.00167789,0.00169788,0.541839,0.1525501395789428,1.1847054194829734,0.0016792984450544335,0.15925551307058394,0.0016993222143673048,-0.2498544315362069
747,0.7376,590.545,579.447,-0.0060705,584.956,2.19256,2.19382,0.142149,0.147955,-0.287837,0.782427,0.00168244,0.00170248,0.5425,0.15274839525244954,1.1867731286820535,0.0016838560962311178,0.15946071945662688,0.0017039300418475456,-0.2501161866606747
748,0.7386,590.661,579.563,-0.00616596,585.073,2.19824,2.1995,0.142322,0.148132,-0.288186,0.783372,0.001687,0.0017071,0.54316,0.15294783797612643,1.1888406060178398,0.0016884237850292028,0.1596659621674148,0.0017085579246947091,-0.2503778504485432
749,0.7396,590.778,579.678,-0.00626178,585.189,2.20394,2.20519,0.142494,0.148309,-0.288534,0.784316,0.00169157,0.00171172,0.54382,0.1531461620596406,1.1909078471342118,0.001693001511585912,0.15987124120937768,0.0017131858289227697,-0.25063867357073166
750,0.7406,590.894,579.794,-0.00635795,585.304,2.20964,2.21089,0.142666,0.148485,-0.288882,0.78526,0.00169615,0.00171636,0.54448,0.15334452025783074,1.1929770406475835,0.0016975892760389133,0.1600753965129702,0.0017178337888883455,-0.2508994059422651
751,0.7416,591.01,579.909,-0.00645448,585.42,2.21536,2.21661,0.142838,0.148662,-0.289231,0.786203,0.00170074,0.001721,0.545139,0.1535429125765655,1.1950459933547979,0.001702187078525652,0.16028074803122627,0.0017224817704204476,-0.25116079643429723
752,0.7426,591.126,580.024,-0.00655136,585.535,2.22109,2.22234,0.14301,0.148838,-0.289578,0.787146,0.00170534,0.00172565,0.545798,0.15374133902171372,1.1971168980046114,0.0017067949191842402,0.16048497541436224,0.0017271397907905328,-0.2514205985596589
753,0.7436,591.241,580.139,-0.00664861,585.651,2.22684,2.22808,0.143182,0.149015,-0.289926,0.788088,0.00170995,0.00173032,0.546456,0.15393979959914583,1.199187557249917,0.0017114127981530114,0.16069039943450014,0.0017318178674565754,-0.2516810588686378
754,0.7446,591.356,580.254,-0.00674622,585.766,2.2326,2.23384,0.143354,0.149191,-0.290273,0.789029,0.00171457,0.00173499,0.547114,0.15413829431473314,1.2012579667161676,0.0017160407155705215,0.1608946989226281,0.0017364959659693646,-0.2519406804942532
755,0.7456,591.471,580.368,-0.0068442,585.88,2.23837,2.23961,0.143525,0.149367,-0.290621,0.78997,0.00171919,0.00173967,0.547772,0.15433566883810168,1.2033303253546674,0.0017206686543691507,0.16109903437063045,0.0017411841037406894,-0.2522009598462073
756,0.7466,591.586,580.483,-0.00694254,585.995,2.24415,2.24539,0.143697,0.149543,-0.290967,0.79091,0.00172383,0.00174436,0.548429,0.1545342316490541,1.2054024295969188,0.0017253166490551752,0.1613034057848366,0.0017458822809113261,-0.25245965355750766
757,0.7476,591.701,580.597,-0.00704125,586.109,2.24995,2.25118,0.143868,0.149718,-0.291314,0.79185,0.00172848,0.00174906,0.549085,0.15473167388349607,1.2074764825329005,0.0017299746826073825,0.16150665166434464,0.001750590497622495,-0.25271900505763556
758,0.7486,591.815,580.711,-0.00714034,586.224,2.25576,2.25699,0.144039,0.149894,-0.291661,0.792789,0.00173313,0.00175377,0.549742,0.15492914988344686,1.2095502764438644,0.001734632737819819,0.16171109482550805,0.0017553087540151946,-0.2529782665784053
759,0.7496,591.929,580.825,-0.0072398,586.338,2.26158,2.26281,0.14421,0.15007,-0.292007,0.793727,0.0017378,0.0017585,0.550397,0.1551266596546812,1.211623806936938,0.0017393108494780929,0.16191557397183454,0.001760047067831616,-0.2532366913880989
760,0.7506,592.043,580.939,-0.00733963,586.452,2.26742,2.26864,0.144381,0.150245,-0.292353,0.794665,0.00174247,0.00176323,0.551053,0.15532420320297402,1.213699283314091,0.0017439889829831134,0.16211892699014951,0.0017647854040605537,-0.2534950267982754
761,0.7516,592.156,581.053,-0.00743984,586.565,2.27327,2.27449,0.144552,0.150421,-0.292699,0.795602,0.00174716,0.00176797,0.551708,0.15552178053410226,1.2157744916258197,0.0017486871733085607,0.1623234779212539,0.0017695337803969036,-0.2537532728398617
762,0.7526,592.27,581.167,-0.00754044,586.679,2.27913,2.28035,0.144723,0.150596,-0.293044,0.796538,0.00175185,0.00177272,0.552362,0.15571939165384263,1.2178494274684688,0.0017533853856688264,0.16252690232900657,0.0017742921969836623,-0.25401068355483036
763,0.7536,592.383,581.28,-0.00764141,586.792,2.285,2.28622,0.144894,0.150771,-0.29339,0.797474,0.00175656,0.00177748,0.553016,0.15591703656797407,1.2199263063602719,0.0017581036552254403,0.16273036233914584,0.0017790606539633824,-0.25426875121004144
764,0.7546,592.496,581.393,-0.00774277,586.905,2.29089,2.29211,0.145064,0.150946,-0.293735,0.79841,0.00176127,0.00178225,0.55367,0.1561135591681384,1.2220051301207744,0.0017628219470051665,0.1629338579579025,0.001783839151479505,-0.2545259841156464
765,0.7556,592.609,581.506,-0.00784451,587.018,2.29679,2.29801,0.145235,0.151121,-0.29408,0.799344,0.001766,0.00178703,0.554323,0.1563112714906778,1.2240814524038726,0.0017675602963591608,0.16313738919150866,0.0017886276896752484,-0.25478312829120564
766,0.7566,592.721,581.619,-0.00794665,587.131,2.30271,2.30392,0.145405,0.151296,-0.294425,0.800279,0.00177073,0.00179182,0.554976,0.15650786111647608,1.2261619410387388,0.0017722986681256714,0.16334095604619736,0.001793426268694276,-0.25504018376732585
767,0.7576,592.834,581.732,-0.00804917,587.244,2.30864,2.30985,0.145575,0.15147,-0.294769,0.801212,0.00177547,0.00179662,0.555629,0.15670448416535154,1.2282399193558748,0.0017770470800750893,0.1635433949842262,0.0017982348886811383,-0.25529640587138136
768,0.7586,592.946,581.845,-0.00815209,587.356,2.31458,2.31579,0.145745,0.151645,-0.295113,0.802145,0.00178023,0.00180143,0.556281,0.15690114064298655,1.2303198373314905,0.0017818155501680977,0.16374703289614612,0.0018030535497799427,-0.25555253985019144
769,0.7596,593.058,581.957,-0.0082554,587.468,2.32054,2.32174,0.145915,0.15182,-0.295457,0.803078,0.00178499,0.00180625,0.556932,0.15709783055506477,1.2324016967761322,0.0017865840429591717,0.16395070644781895,0.001807882252135018,-0.25580858573406595
770,0.7606,593.169,582.07,-0.0083591,587.58,2.3265,2.3277,0.146085,0.151994,-0.295801,0.804009,0.00178976,0.00181108,0.557584,0.1572945539072701,1.2344810305355054,0.0017913625763619212,0.1641532514916486,0.0018127209958920254,-0.25606454355330444
771,0.7616,593.281,582.182,-0.00846321,587.692,2.33249,2.33368,0.146255,0.152168,-0.296145,0.804941,0.00179455,0.00181592,0.558234,0.15749131070528843,1.2365645376194503,0.0017961611684811363,0.16435583178138224,0.001817569781195516,-0.2563204133381959
772,0.7626,593.392,582.294,-0.00856772,587.804,2.33848,2.33968,0.146425,0.152342,-0.296488,0.805871,0.00179934,0.00182077,0.558885,0.15768810095480568,1.238645510141673,0.0018009597835859648,0.16455844732315317,0.0018224286081915952,-0.2565754516948423
773,0.7636,593.503,582.406,-0.00867263,587.916,2.34449,2.34568,0.146594,0.152516,-0.296831,0.806801,0.00180414,0.00182562,0.559535,0.15788376677716331,1.240728418868537,0.0018057684397336793,0.16476109812309558,0.0018272874587530463,-0.25683040258833323
774,0.7646,593.614,582.518,-0.00877795,588.027,2.35052,2.3517,0.146764,0.15269,-0.297174,0.807731,0.00180896,0.00183049,0.560184,0.15808062374988396,1.2428132656015505,0.0018105971551747313,0.16496378418734525,0.0018321663695233248,-0.2570852660486632
775,0.7656,593.724,582.63,-0.00888367,588.138,2.35655,2.35774,0.146933,0.152864,-0.297517,0.808659,0.00181378,0.00183537,0.560834,0.15827635591419975,1.2448955623482822,0.0018154258938902768,0.1651665055220386,0.0018370553224240638,-0.25734004210581685
776,0.7666,593.835,582.741,-0.00898981,588.249,2.3626,2.36378,0.147102,0.153038,-0.29786,0.809588,0.00181861,0.00184026,0.561482,0.1584721211600466,1.2469820393442088,0.0018202646740830275,0.16536926213331293,0.001841954317602701,-0.25759473078976836
777,0.7676,593.945,582.853,-0.00909636,588.36,2.36867,2.36984,0.147272,0.153211,-0.298202,0.810515,0.00182345,0.00184516,0.562131,0.15866907816151454,1.2490659574414882,0.0018251134958982007,0.165570888455836,0.0018468633552060076,-0.2578485899794425
778,0.7686,594.055,582.964,-0.00920332,588.47,2.37475,2.37592,0.147441,0.153385,-0.298544,0.811442,0.00182831,0.00185007,0.562778,0.1588649097830297,1.2511518082265058,0.001829982377780981,0.16577371543586295,0.0018517824353814216,-0.2581023623641181
779,0.7696,594.164,583.075,-0.0093107,588.581,2.38084,2.38201,0.14761,0.153558,-0.298886,0.812369,0.00183317,0.00185499,0.563426,0.1590607745028858,1.2532395934916947,0.0018348512833268327,0.1659754117348602,0.0018567115582766025,-0.2583560479734778
780,0.7706,594.274,583.186,-0.0094185,588.691,2.38694,2.38811,0.147778,0.153732,-0.299228,0.813295,0.00183804,0.00185992,0.564073,0.15925551307058394,1.255327059702961,0.0018397302309327568,0.16617830910806153,0.001861650724039654,-0.25860964683719334
781,0.7716,594.383,583.297,-0.00952672,588.801,2.39306,2.39422,0.147947,0.153905,-0.299569,0.81422,0.00184293,0.00186487,0.56472,0.15945144380797371,1.2574142023878605,0.0018446292391918195,0.16638007540781907,0.001866609951484799,-0.25886241784771513
782,0.7726,594.492,583.408,-0.00963536,588.911,2.3992,2.40035,0.148116,0.154078,-0.29991,0.815145,0.00184782,0.00186982,0.565366,0.15964740766045638,1.2595032765729246,0.0018495282714068306,0.16658187661616575,0.001871569203478085,-0.25911510267801696
783,0.7736,594.601,583.518,-0.00974443,589.021,2.40534,2.4065,0.148284,0.154251,-0.300251,0.816069,0.00185272,0.00187478,0.566012,0.1598422447908041,1.2615920224524642,0.0018544373461226726,0.1667837127391416,0.0018765384987853295,-0.2593677013574812
784,0.7746,594.71,583.629,-0.00985393,589.13,2.4115,2.41265,0.148453,0.154424,-0.300592,0.816992,0.00185764,0.00187975,0.566657,0.16003827469423393,1.2636804355435642,0.0018593664820800715,0.16698558378278716,0.001881517837555302,-0.2596202139154803
785,0.7756,594.818,583.739,-0.00996386,589.24,2.41768,2.41883,0.148621,0.154596,-0.300933,0.817915,0.00186256,0.00188473,0.567302,0.1602331774957595,1.265770777129811,0.001864295642288738,0.16718632256623844,0.001886507219937661,-0.2598726403813767
786,0.7766,594.926,583.849,-0.0100742,589.349,2.42387,2.42501,0.148789,0.154769,-0.301273,0.818838,0.0018675,0.00188972,0.567947,0.1604281130437064,1.2678630489920275,0.0018692448641337567,0.1673882632674093,0.001891506646082286,-0.26012424090913355
787,0.7776,595.034,583.959,-0.010185,589.458,2.43007,2.43121,0.148957,0.154942,-0.301613,0.819759,0.00187244,0.00189472,0.568591,0.16062308134357628,1.2699527130027146,0.0018741941104281068,0.1675902389073436,0.0018965161161390576,-0.2603757559072518
788,0.7786,595.142,584.069,-0.0102962,589.567,2.43629,2.43742,0.149125,0.155114,-0.301953,0.820681,0.00187739,0.00189974,0.569235,0.16081808240087225,1.2720465745259353,0.0018791533999631405,0.1677910817004209,0.001901545649274139,-0.26062718540480667
789,0.7796,595.25,584.179,-0.0104079,589.676,2.44252,2.44365,0.149293,0.155286,-0.302293,0.821601,0.00188236,0.00190476,0.569879,0.1610131162210977,1.2741378191995465,0.0018841327517293838,0.16799195904142938,0.0019065752076574682,-0.2608785294308633
790,0.7806,595.357,584.289,-0.01052,589.784,2.44877,2.44989,0.149461,0.155459,-0.302632,0.822521,0.00188733,0.00190979,0.570522,0.16120818280975757,1.2762309887035435,0.0018891121282427203,0.16819403912976716,0.0019116148104054709,-0.2611290491438958
791,0.7816,595.464,584.398,-0.0106326,589.893,2.45503,2.45615,0.149628,0.155631,-0.302972,0.823441,0.00189232,0.00191484,0.571164,0.16140212076965565,1.2783260848095854,0.0018941115673858366,0.16839498578541456,0.0019166744768357447,-0.2613802225652856
792,0.7826,595.571,584.508,-0.0107456,590.001,2.4613,2.46242,0.149796,0.155803,-0.303311,0.82436,0.00189732,0.00191989,0.571806,0.16159725271656966,1.2804208288689929,0.0018991210504675227,0.16859596700685908,0.0019217341688175793,-0.26163057223316966
793,0.7836,595.678,584.617,-0.0108591,590.109,2.46759,2.4687,0.149963,0.155975,-0.30365,0.825278,0.00190232,0.00192496,0.572448,0.16179125565656793,1.282515216366673,0.0019041305585965063,0.16879698280004707,0.0019268139248871385,-0.2618808370468999
794,0.7846,595.784,584.726,-0.010973,590.217,2.47389,2.475,0.15013,0.156146,-0.303988,0.826196,0.00190734,0.00193003,0.57309,0.1619852909977626,1.2846115273948424,0.0019091601299561223,0.16899686417347626,0.0019318937067107633,-0.26213027916588516
795,0.7856,595.891,584.835,-0.0110873,590.325,2.48021,2.48131,0.150298,0.156318,-0.304327,0.827113,0.00191237,0.00193512,0.573731,0.16218052092550495,1.2867074770114906,0.0019141997457061688,0.1691979489269071,0.0019369935530288984,-0.2623803746076755
796,0.7866,595.997,584.944,-0.0112022,590.432,2.48654,2.48764,0.150465,0.15649,-0.304665,0.828029,0.0019174,0.00194021,0.574371,0.16237462127942792,1.2888030606912326,0.0019192393868054936,0.16939906826989004,0.00194209342530538,-0.26262964791149657
797,0.7876,596.103,585.053,-0.0113174,590.539,2.49289,2.49398,0.150632,0.156661,-0.305003,0.828945,0.00192245,0.00194532,0.575011,0.16256875405081694,1.2909005648050496,0.0019242990917403002,0.16959905260873787,0.001947213362484046,-0.26287883697517844
798,0.7886,596.208,585.161,-0.0114332,590.647,2.49925,2.50033,0.150798,0.156832,-0.305341,0.829861,0.00192751,0.00195044,0.575651,0.16276175648274793,1.2929999911128651,0.0019293688415200627,0.16979907114783166,0.0019523433453492167,-0.26312794182718924
799,0.7896,596.314,585.27,-0.0115494,590.754,2.50562,2.5067,0.150965,0.157004,-0.305678,0.830776,0.00193258,0.00195557,0.576291,0.1629559539111145,1.2950990462760221,0.0019344486362973257,0.1700002938927292,0.0019574833740547692,-0.263376225872582
800,0.7906,596.419,585.378,-0.0116661,590.861,2.51201,2.51309,0.151132,0.157175,-0.306016,0.83169,0.00193766,0.00196071,0.57693,0.1631501837731597,1.2971977257547382,0.0019395384762246337,0.17020038104994928,0.0019626334487550245,-0.26362516263555424
801,0.7916,596.524,585.487,-0.0117832,590.967,2.51841,2.51949,0.151298,0.157346,-0.306353,0.832604,0.00194275,0.00196585,0.577568,0.1633432827304362,1.2992983243033787,0.0019446383614547536,0.1704005024249986,0.0019677835499267715,-0.26387327914576586
802,0.7926,596.629,585.595,-0.0119008,591.074,2.52483,2.5259,0.151465,0.157517,-0.30669,0.833517,0.00194785,0.00197101,0.578206,0.16353757728179552,1.3013985422770826,0.001949748292140674,0.17060065802372937,0.001972953717028769,-0.26412131205480116
803,0.7936,596.733,585.703,-0.0120189,591.18,2.53127,2.53233,0.151631,0.157688,-0.307027,0.834429,0.00195296,0.00197619,0.578844,0.1637307405517321,1.303498375125875,0.0019548682684358276,0.1708008478519938,0.00197814395037188,-0.26436926139082895
804,0.7946,596.838,585.811,-0.0121375,591.286,2.53771,2.53877,0.151797,0.157858,-0.307363,0.835341,0.00195808,0.00198137,0.579482,0.1639239358894331,1.3056001238957524,0.0019599982904943136,0.1709999009151597,0.0019833342106001517,-0.26461639179876806
805,0.7956,596.942,585.918,-0.0122565,591.392,2.54418,2.54523,0.151964,0.158029,-0.3077,0.836253,0.00196321,0.00198656,0.580119,0.1641183274179676,1.3077037903348323,0.001965138358469787,0.17120015901979624,0.001988534517599616,-0.2648641743210318
806,0.7966,597.046,586.026,-0.012376,591.498,2.55065,2.5517,0.15213,0.1582,-0.308036,0.837164,0.00196836,0.00199176,0.580755,0.1643115871004288,1.3098070663846055,0.0019702984922196354,0.17140045137149662,0.0019937448715259265,-0.2651111384661602
807,0.7976,597.15,586.134,-0.012496,591.604,2.55715,2.55819,0.152295,0.15837,-0.308372,0.838074,0.00197351,0.00199698,0.581392,0.16450371436236355,1.3119099474807978,0.0019754586525442264,0.17159960637592553,0.0019989752925255733,-0.26535801964527483
808,0.7986,597.253,586.241,-0.0126165,591.71,2.56365,2.56469,0.152461,0.15854,-0.308707,0.838984,0.00197868,0.0020022,0.582027,0.16469703802436775,1.3140147430697495,0.0019806388790564178,0.17179879523958297,0.0020042057408280467,-0.2656040834906983
809,0.7996,597.357,586.348,-0.0127375,591.815,2.57018,2.57121,0.152627,0.15871,-0.309043,0.839893,0.00198385,0.00200744,0.582663,0.16489039378076353,1.316119138774146,0.001985819132350297,0.1719980179682259,0.0020094562566224106,-0.2658507990681074
810,0.8006,597.46,586.456,-0.012859,591.92,2.57671,2.57774,0.152793,0.158881,-0.309378,0.840801,0.00198904,0.00201268,0.583298,0.1650837816368791,1.3182231300196228,0.0019910194522465563,0.17219844676547225,0.0020147067999296553,-0.2660966978600722
811,0.8016,597.563,586.563,-0.012981,592.025,2.58327,2.58428,0.152958,0.159051,-0.309713,0.841709,0.00199423,0.00201794,0.583933,0.1652760363214245,1.3203290325567458,0.001996219799132337,0.1723977374406498,0.002019977411149121,-0.2663425142897382
812,0.8026,597.666,586.67,-0.0131034,592.13,2.58983,2.59084,0.153123,0.159221,-0.310048,0.842617,0.00199944,0.00202321,0.584567,0.16546832273061018,1.3224368481217557,0.0020014402130366094,0.17259706199812208,0.0020252580703445933,-0.2665882483846921
813,0.8036,597.768,586.776,-0.0132264,592.235,2.59641,2.59742,0.153289,0.15939,-0.310383,0.843524,0.00200466,0.00202849,0.585201,0.16566180653089457,1.3245442539070549,0.0020066706742061236,0.1727952476478154,0.0020305487776746123,-0.2668339001725114
814,0.8046,597.871,586.883,-0.0133499,592.339,2.60301,2.60401,0.153454,0.15956,-0.310717,0.84443,0.00200989,0.00203378,0.585834,0.1658541565974161,1.326651245324082,0.0020119111827976432,0.1729946397877673,0.002035849533298162,-0.2670787367598677
815,0.8056,597.973,586.99,-0.0134738,592.444,2.60962,2.61062,0.153619,0.15973,-0.311051,0.845336,0.00201513,0.00203908,0.586467,0.16604653840431727,1.3287601465403411,0.002017161738968598,0.17319406582726415,0.002041160337374448,-0.26732349158545865
816,0.8066,598.075,587.096,-0.0135983,592.548,2.61625,2.61724,0.153784,0.159899,-0.311385,0.846241,0.00202038,0.00204439,0.5871,0.1662389519568357,1.3308686284171012,0.0020224223428768617,0.17339235237913075,0.0020464811900626767,-0.2675681646765884
817,0.8076,598.176,587.203,-0.0137233,592.652,2.62289,2.62388,0.153949,0.160069,-0.311719,0.847146,0.00202564,0.00204971,0.587732,0.1664313972602094,1.3329790193336697,0.002027692994680086,0.17359184603551547,0.00205181209152272,-0.26781275606055144
818,0.8086,598.278,587.309,-0.0138488,592.756,2.62955,2.63053,0.154113,0.160238,-0.312053,0.84805,0.00203092,0.00205505,0.588364,0.1666227076963871,1.3350889859283566,0.0020329837148667096,0.1737901998179181,0.002057163062486378,-0.2680572657646336
819,0.8096,598.379,587.415,-0.0139748,592.86,2.63623,2.63719,0.154278,0.160407,-0.312386,0.848953,0.0020362,0.00206039,0.588996,0.1668152163246821,1.337198523595562,0.002038274462988321,0.17398858712494247,0.00206251406202429,-0.26830096211743926
820,0.8106,598.48,587.521,-0.0141014,592.964,2.64292,2.64388,0.154443,0.160576,-0.31272,0.849856,0.00204149,0.00206575,0.589627,0.1670077567195214,1.3393099670356077,0.0020435752594807344,0.17418700796225517,0.0020678851314941404,-0.2685453087879266
821,0.8116,598.581,587.627,-0.0142284,593.067,2.64962,2.65057,0.154607,0.160745,-0.313053,0.850759,0.0020468,0.00207112,0.590257,0.1671991616864017,1.3414233179701842,0.002048896124992261,0.174385462335523,0.0020732662504854282,-0.2687888426494618
822,0.8126,598.682,587.733,-0.014356,593.17,2.65634,2.65729,0.154771,0.160914,-0.313385,0.85166,0.00205212,0.00207649,0.590888,0.16739059804627066,1.3435338910500674,0.002054227039299805,0.17458395025041407,0.002078647398373601,-0.26903156445965226
823,0.8136,598.783,587.839,-0.0144841,593.274,2.66307,2.66402,0.154936,0.161083,-0.313718,0.852562,0.00205745,0.00208188,0.591518,0.16758323338692693,1.345648712260775,0.002059568002563683,0.17478247171259742,0.002084048616839418,-0.269274936425006
824,0.8146,598.883,587.944,-0.0146128,593.377,2.66982,2.67076,0.1551,0.161251,-0.31405,0.853463,0.00206279,0.00208729,0.592147,0.1677747327397201,1.3477630941365186,0.002064919014943989,0.1749798517473038,0.0020894699062070643,-0.2695174968788495
825,0.8156,598.983,588.05,-0.0147419,593.479,2.67659,2.67752,0.155264,0.16142,-0.314383,0.854363,0.00206814,0.0020927,0.592776,0.16796626350098243,1.3498770320506122,0.002070280076601483,0.17517844012249428,0.0020948912249039164,-0.26976070705564703
826,0.8166,599.083,588.155,-0.0148716,593.582,2.68337,2.68429,0.155428,0.161589,-0.314715,0.855262,0.0020735,0.00209812,0.593405,0.16815782567586557,1.3519905213735326,0.0020756511876973693,0.17537706206195613,0.0021003225939333348,-0.27000310626041
827,0.8176,599.183,588.26,-0.0150019,593.685,2.69017,2.69108,0.155591,0.161757,-0.315046,0.856161,0.00207887,0.00210356,0.594034,0.16834825092068662,1.3541059115776726,0.0020810323483926307,0.17557454199623246,0.0021057740345160614,-0.27024469524705474
828,0.8186,599.282,588.365,-0.0151326,593.787,2.69698,2.69789,0.155755,0.161925,-0.315378,0.85706,0.00208425,0.002109,0.594662,0.16853987574664386,1.3562232043726925,0.0020864235588489155,0.17577205510992489,0.0021112255047548434,-0.2704869337944089
829,0.8196,599.382,588.47,-0.015264,593.889,2.70381,2.70471,0.155919,0.162093,-0.315709,0.857958,0.00208965,0.00211446,0.595289,0.1687315320016496,1.3583400431285684,0.0020918348401466336,0.17596960140860785,0.0021166970469834734,-0.27072836266064126
830,0.8206,599.481,588.575,-0.0153958,593.991,2.71066,2.71155,0.156082,0.162262,-0.31604,0.858855,0.00209506,0.00211993,0.595917,0.16892205076822364,1.3604564232018128,0.002097256171637696,0.17616835706562584,0.002122178640308281,-0.2709697116271431
831,0.8216,599.58,588.68,-0.0155283,594.093,2.71752,2.7184,0.156245,0.16243,-0.316371,0.859752,0.00210047,0.00212541,0.596543,0.16911260059188749,1.3625747025196664,0.002102677532458408,0.17636596994863019,0.0021276702848944673,-0.27121098072035676
832,0.8226,599.678,588.785,-0.0156612,594.195,2.72439,2.72527,0.156409,0.162597,-0.316702,0.860649,0.0021059,0.0021309,0.59717,0.16930435078147044,1.3646948827865164,0.002108118964770922,0.17656243947036,0.0021331719809063454,-0.27145216996671595
833,0.8236,599.777,588.89,-0.0157948,594.297,2.73129,2.73216,0.156572,0.162765,-0.317033,0.861544,0.00211134,0.0021364,0.597796,0.16949496292511546,1.3668122320790812,0.0021135704477661665,0.17676011856477003,0.0021386837285095606,-0.27169327939264565
834,0.8246,599.875,588.994,-0.0159288,594.398,2.73819,2.73906,0.156735,0.162933,-0.317363,0.86244,0.0021168,0.00214192,0.598422,0.1696856061410723,1.3689338461802025,0.0021190420027981105,0.17695783087205763,0.0021442155493116566,-0.27193358095850706
835,0.8256,599.973,589.098,-0.0160635,594.5,2.74512,2.74597,0.156898,0.1631,-0.317693,0.863334,0.00212226,0.00214744,0.599047,0.16987628043440584,1.371052619989464,0.002124513587704824,0.1771543992428155,0.0021497474006493267,-0.2721738032379346
836,0.8266,600.071,589.203,-0.0161987,594.601,2.75206,2.75291,0.157061,0.163268,-0.318023,0.864228,0.00212773,0.00215298,0.599672,0.17006698581018265,1.373173288829463,0.0021299952237863184,0.1773521777948215,0.0021552993256288566,-0.2724139462570886
837,0.8276,600.169,589.307,-0.0163345,594.702,2.75902,2.75985,0.157223,0.163435,-0.318353,0.865122,0.00213322,0.00215853,0.600296,0.17025655201633194,1.375295854395115,0.0021354969325624307,0.17754881202701456,0.0021608613029744372,-0.27265401004212064
838,0.8286,600.267,589.411,-0.0164708,594.803,2.76599,2.76682,0.157386,0.163603,-0.318682,0.866015,0.00213872,0.00216409,0.600921,0.17044731938142843,1.3774179409637215,0.0021410086929527505,0.17774665684593471,0.00216643333285349,-0.27289326751280474
839,0.8296,600.364,589.515,-0.0166077,594.904,2.77298,2.7738,0.157549,0.16377,-0.319012,0.866907,0.00214422,0.00216966,0.601544,0.17063811784414007,1.3795395438612799,0.002146520483658154,0.17794335696163044,0.002172015415433215,-0.27313317314791863
840,0.8306,600.461,589.619,-0.0167452,595.004,2.77998,2.7808,0.157711,0.163937,-0.319341,0.867799,0.00214975,0.00217524,0.602168,0.17082777658117365,1.3816630400729153,0.0021520623692397045,0.17814008992898844,0.0021776075508814774,-0.27337227299987055
841,0.8316,600.558,589.723,-0.0168833,595.104,2.787,2.78781,0.157873,0.164104,-0.31967,0.868691,0.00215528,0.00218084,0.602791,0.17101746604541157,1.3837884312882176,0.002157604285467851,0.17833685575349567,0.00218321976119773,-0.27361129420091
842,0.8326,600.655,589.826,-0.0170219,595.205,2.79404,2.79484,0.158036,0.164271,-0.319999,0.869582,0.00216082,0.00218645,0.603414,0.17120835744960372,1.3859133332837579,0.002163156253974563,0.1785336544406395,0.0021888420248310503,-0.2738502367769089
843,0.8336,600.751,589.93,-0.0171612,595.305,2.8011,2.80188,0.158198,0.164438,-0.320327,0.870472,0.00216638,0.00219207,0.604036,0.17139810857293658,1.3880377413717513,0.002168728296613631,0.17873048599590846,0.002194474341950192,-0.2740883748424684
844,0.8346,600.848,590.034,-0.017301,595.405,2.80817,2.80895,0.15836,0.164604,-0.320656,0.871362,0.00217194,0.0021977,0.604658,0.17158789043844136,1.3901640410245637,0.002174300370233251,0.17892617149803125,0.0022001167127239096,-0.27432716048475314
845,0.8356,600.944,590.137,-0.0174414,595.505,2.81525,2.81602,0.158522,0.164771,-0.320984,0.872251,0.00217752,0.00220334,0.605279,0.17177770305109896,1.3922898416354008,0.0021798925184315365,0.17912306860912253,0.0022057691373220667,-0.2745651421449883
846,0.8366,601.04,590.24,-0.0175824,595.604,2.82236,2.82312,0.158684,0.164938,-0.321312,0.87314,0.00218311,0.00220899,0.605901,0.17196754641589052,1.3944175329232622,0.002185494719688652,0.17931999860477732,0.0022114316159140834,-0.274803045760039
847,0.8376,601.136,590.343,-0.017724,595.704,2.82948,2.83023,0.158845,0.165104,-0.321639,0.874028,0.00218871,0.00221466,0.606521,0.17215624838096422,1.396544720023789,0.0021911069741735734,0.17951578197411577,0.002217114170841361,-0.2750401463960087
848,0.8386,601.231,590.447,-0.0178662,595.803,2.83661,2.83736,0.159007,0.16527,-0.321967,0.874915,0.00219433,0.00222033,0.607142,0.17234615307506673,1.398671398232802,0.0021967393040214223,0.17971159784619117,0.0022227967579888652,-0.27527789423521376
849,0.8396,601.326,590.55,-0.018009,595.903,2.84377,2.8445,0.159168,0.165437,-0.322294,0.875802,0.00219995,0.00222602,0.607762,0.17253491600071968,1.4007999636422364,0.002202371665523284,0.1799086261344356,0.0022284994219263776,-0.2755148396211169
850,0.8406,601.422,590.653,-0.0181524,596.002,2.85094,2.85166,0.15933,0.165603,-0.322621,0.876689,0.00220559,0.00223172,0.608381,0.17272488204394576,1.4029304179267812,0.0022080241028392678,0.18010450722405458,0.0022342121406544457,-0.2757517075385456
851,0.8416,601.517,590.755,-0.0182964,596.101,2.85812,2.85884,0.159491,0.165769,-0.322948,0.877575,0.00221124,0.00223744,0.609001,0.17291370594987132,1.4050603577010512,0.002213686594171982,0.1803004208326333,0.002239944936743621,-0.275988498012828
852,0.8426,601.611,590.858,-0.018441,596.2,2.86533,2.86603,0.159652,0.165935,-0.323275,0.87846,0.0022169,0.00224316,0.609619,0.17310256025889337,1.4071897782472238,0.0022193591396915124,0.1804963669655706,0.0022456777656245652,-0.27622521106928377
853,0.8436,601.706,590.961,-0.0185863,596.298,2.87255,2.87324,0.159813,0.1661,-0.323602,0.879345,0.00222257,0.0022489,0.610238,0.17329144497590665,1.4093210841647332,0.0022250417395679456,0.1806911649365106,0.002251430672325805,-0.2764618467332244
854,0.8446,601.8,591.063,-0.0187321,596.397,2.87978,2.88047,0.159974,0.166266,-0.323928,0.88023,0.00222825,0.00225465,0.610856,0.1734803601058077,1.4114542771228722,0.0022307343939722557,0.18088717593835302,0.0022571936346205135,-0.2766976817279966
855,0.8456,601.895,591.166,-0.0188786,596.495,2.88704,2.88772,0.160135,0.166432,-0.324254,0.881113,0.00223395,0.00226041,0.611474,0.17366930565349326,1.4135845316185205,0.002236447125439467,0.1810832194807228,0.00226296665268233,-0.27693343985309093
856,0.8466,601.989,591.268,-0.0190257,596.594,2.89431,2.89498,0.160296,0.166597,-0.32458,0.881997,0.00223966,0.00226618,0.612091,0.17385828162386074,1.4157190836774762,0.0022421699118910787,0.1812781142903166,0.002268749726684005,-0.27716912113356285
857,0.8476,602.083,591.37,-0.0191734,596.692,2.9016,2.90226,0.160457,0.166763,-0.324906,0.882879,0.00224538,0.00227197,0.612708,0.1740472880218089,1.417850687808516,0.0022479027534989537,0.18147422273383929,0.002274552879544922,-0.2774047255944596
858,0.8486,602.176,591.472,-0.0193218,596.79,2.9089,2.90955,0.160617,0.166928,-0.325231,0.883762,0.00225111,0.00227776,0.613325,0.1742351506164992,1.4199865928291393,0.0022536456504351765,0.18166918206429283,0.002280356066006295,-0.27763953090071236
859,0.8496,602.27,591.574,-0.0194708,596.887,2.91622,2.91686,0.160778,0.167094,-0.325557,0.884643,0.00225685,0.00228357,0.613941,0.17442421769523997,1.422119540442886,0.0022593986028720536,0.18186535543045435,0.002286179331791649,-0.27787498203301886
860,0.8506,602.363,591.676,-0.0196204,596.985,2.92356,2.92419,0.160938,0.167259,-0.325882,0.885525,0.00226261,0.00228939,0.614557,0.17461214060350305,1.4242567922670597,0.0022651716336343775,0.18206037930312746,0.002292012654330433,-0.2781096345307619
861,0.8516,602.456,591.778,-0.0197707,597.083,2.93092,2.93154,0.161098,0.167424,-0.326207,0.886405,0.00226838,0.00229523,0.615173,0.1748000935818368,1.426391077191889,0.0022709547203587643,0.1822554353573944,0.0022978660567760656,-0.2783442107788343
862,0.8526,602.549,591.88,-0.0199216,597.18,2.9383,2.9389,0.161259,0.167589,-0.326532,0.887285,0.00227416,0.00230107,0.615788,0.17498925162371726,1.42852724111409,0.0022767478632192972,0.18245052359856562,0.002303719493405909,-0.27857871080201335
863,0.8536,602.641,591.982,-0.0200732,597.277,2.94569,2.94628,0.161419,0.167754,-0.326856,0.888165,0.00227995,0.00230693,0.616403,0.1751772649446417,1.4306652856879074,0.002282551062389615,0.1826456440319526,0.002309593010411559,-0.278812413437842
864,0.8546,602.734,592.083,-0.0202254,597.374,2.9531,2.95368,0.161579,0.167918,-0.327181,0.889044,0.00228575,0.0023128,0.617017,0.1753653083501041,1.4328027797650478,0.0022883643180442448,0.182839613822662,0.002315476584990872,-0.27904676131988115
865,0.8556,602.826,592.185,-0.0203782,597.471,2.96052,2.9611,0.161739,0.168083,-0.327505,0.889922,0.00229157,0.00231868,0.617631,0.17555338184491842,1.4349397185845456,0.0022941976532995234,0.1830347984612326,0.002321370217320373,-0.2792803123319064
866,0.8566,602.918,592.286,-0.0205318,597.568,2.96797,2.96853,0.161898,0.168248,-0.327829,0.8908,0.0022974,0.00232458,0.618245,0.17574030969300192,1.4370785344602344,0.0023000410455054077,0.1832300153079256,0.0023272839308501325,-0.27951378768566115
867,0.8576,603.01,592.388,-0.0206859,597.665,2.97543,2.97598,0.162058,0.168412,-0.328153,0.891678,0.00230324,0.00233048,0.618858,0.1759284431928314,1.439219229040892,0.0023058944948370907,0.18342408094338314,0.002333197679270871,-0.27974718740565463
868,0.8586,603.102,592.489,-0.0208408,597.762,2.98291,2.98345,0.162218,0.168577,-0.328476,0.892555,0.00230909,0.0023364,0.619471,0.17611660679642926,1.441359362616164,0.002311758001470654,0.18361936202698526,0.0023391315093652665,-0.2799797914965396
869,0.8596,603.193,592.59,-0.0209963,597.858,2.9904,2.99094,0.162377,0.168741,-0.3288,0.893431,0.00231496,0.00234234,0.620084,0.17630362420439982,1.443498930411689,0.002317641588758468,0.18381349152054094,0.002345085421489479,-0.2802130402557552
870,0.8606,603.285,592.691,-0.0211525,597.954,2.99792,2.99844,0.162536,0.168905,-0.329123,0.894307,0.00232084,0.00234828,0.620696,0.17649067135050234,1.4456403732897694,0.0023235352338182302,0.1840076528539445,0.002351039368980068,-0.28044549390046813
871,0.8616,603.376,592.792,-0.0213094,598.05,3.00545,3.00596,0.162696,0.169069,-0.329446,0.895182,0.00232673,0.00235424,0.621308,0.17667892491780224,1.4477812451112277,0.002329438936827133,0.18420184603241796,0.0023570133989774256,-0.28067787247477816
872,0.8626,603.467,592.893,-0.0214669,598.146,3.013,3.0135,0.162855,0.169234,-0.329769,0.896057,0.00233263,0.00236021,0.621919,0.17686603174146232,1.4499239910153214,0.0023353526979625894,0.18439725545784746,0.0023629974882097837,-0.28091017600292933
873,0.8636,603.557,592.994,-0.0216251,598.242,3.02057,3.02105,0.163014,0.169397,-0.330092,0.896932,0.00233854,0.00236619,0.622531,0.17705316831747275,1.4520686126425901,0.0023412765174017913,0.18459032794546748,0.0023689916368572206,-0.2811424045091576
874,0.8646,603.648,593.095,-0.021784,598.338,3.02815,3.02863,0.163173,0.169561,-0.330414,0.897805,0.00234447,0.00237218,0.623141,0.17724033465056444,1.454210203209696,0.002347220418795315,0.18478461669049207,0.0023749958450998143,-0.28137383939188987
875,0.8656,603.738,593.196,-0.0219436,598.434,3.03576,3.03622,0.163332,0.169725,-0.330736,0.898679,0.00235041,0.00237819,0.623752,0.17742753074546913,1.4563561205565807,0.0023531743789677595,0.18497893730148385,0.0023810201369278694,-0.28160519976458664
876,0.8666,603.829,593.296,-0.0221039,598.529,3.04338,3.04383,0.16349,0.169889,-0.331058,0.899551,0.00235636,0.00238421,0.624362,0.17761357899275132,1.458498997252161,0.002359138398098315,0.18517328978366931,0.002387054488832474,-0.2818364856512363
877,0.8676,603.919,593.397,-0.0222649,598.625,3.05102,3.05146,0.163649,0.170052,-0.33138,0.900424,0.00236233,0.00239024,0.624971,0.17780083443822448,1.4606462039961352,0.0023651225000169696,0.18536648877519402,0.0023930989009948167,-0.2820676970758196
878,0.8686,604.008,593.497,-0.0224265,598.72,3.05867,3.0591,0.163808,0.170216,-0.331702,0.901295,0.0023683,0.00239628,0.625581,0.17798811965968087,1.4627903604844126,0.002371106637661047,0.18556090482103316,0.002399153373596752,-0.28229883406230916
879,0.8696,604.098,593.598,-0.0225889,598.815,3.06635,3.06677,0.163966,0.170379,-0.332023,0.902166,0.00237429,0.00240234,0.62619,0.17817425648700924,1.4649363853465505,0.0023771108585723955,0.18575416699895864,0.002405227930871945,-0.2825291791642084
880,0.8706,604.187,593.698,-0.022752,598.91,3.07404,3.07445,0.164124,0.170543,-0.332345,0.903037,0.0023803,0.00240841,0.626798,0.17836042272627983,1.46708428021061,0.002383135163111616,0.18594864662924038,0.002411312549072342,-0.2827601675773872
881,0.8716,604.277,593.798,-0.0229158,599.005,3.08176,3.08215,0.164283,0.170706,-0.332666,0.903907,0.00238631,0.00241449,0.627406,0.17854779692934764,1.4692315774732618,0.0023891595038569857,0.18614197201423166,0.0024174072283804637,-0.2829903646149937
882,0.8726,604.366,593.898,-0.0230803,599.099,3.08949,3.08987,0.164441,0.170869,-0.332987,0.904777,0.00239234,0.00242059,0.628014,0.17873402219267076,1.471380743697413,0.0023952039287127302,0.1863353289138292,0.0024235219932144947,-0.2832204877712097
883,0.8736,604.454,593.998,-0.0232455,599.194,3.09724,3.0976,0.164599,0.171032,-0.333307,0.905646,0.00239838,0.0024267,0.628622,0.17892027688191026,1.4735293069792221,0.0024012584140291615,0.18652871733317022,0.0024296468196451926,-0.2834498205199262
884,0.8746,604.543,594.098,-0.0234115,599.288,3.10501,3.10536,0.164757,0.171195,-0.333628,0.906515,0.00240443,0.00243282,0.629229,0.17910656100171551,1.4756797381740143,0.00240732295998769,0.18672213727739262,0.0024357817078566324,-0.2836797962144655
885,0.8756,604.632,594.198,-0.0235781,599.383,3.11279,3.11313,0.164915,0.171358,-0.333948,0.907383,0.0024105,0.00243895,0.629836,0.17929287455673704,1.4778295610749113,0.0024134075909050257,0.18691558875163583,0.002441926658032667,-0.2839089820079942
886,0.8766,604.72,594.298,-0.0237455,599.477,3.1206,3.12092,0.165072,0.171521,-0.334268,0.90825,0.00241658,0.0024451,0.630442,0.17947803807299811,1.4799787708521737,0.0024195022829509583,0.18710907176103908,0.0024480916948390608,-0.284138094473802
887,0.8776,604.808,594.398,-0.0239136,599.571,3.12842,3.12873,0.16523,0.171683,-0.334588,0.909117,0.00242267,0.00245126,0.631048,0.17966441032603386,1.4821298448023148,0.0024256070363086746,0.18730139900875087,0.0024542667941032104,-0.28436713363535004
888,0.8786,604.896,594.497,-0.0240825,599.664,3.13626,3.13656,0.165388,0.171846,-0.334908,0.909984,0.00242877,0.00245743,0.631654,0.17985081202821207,1.4842827845422741,0.0024317218511618055,0.1874949449103518,0.002460451956010523,-0.284596099516092
889,0.8796,604.984,594.597,-0.0242521,599.758,3.14412,3.14441,0.165545,0.172008,-0.335228,0.91085,0.00243489,0.00246361,0.632259,0.18003606314753284,1.4864351052540439,0.0024378567520724204,0.18768733467457732,0.0024666471807468504,-0.2848249921394739
890,0.8806,605.071,594.696,-0.0244224,599.852,3.152,3.15227,0.165702,0.172171,-0.335547,0.911715,0.00244102,0.00246981,0.632864,0.18022134335356266,1.4885868020948094,0.0024440017149685023,0.18788094348881912,0.0024728624932268684,-0.2850530965823884
891,0.8816,605.159,594.796,-0.0245935,599.945,3.1599,3.16016,0.16586,0.172333,-0.335866,0.91258,0.00244716,0.00247602,0.633469,0.18040783305811137,1.4907403609585508,0.0024501567400350144,0.1880733957898797,0.0024790878690326146,-0.28528112827159047
892,0.8826,605.246,594.895,-0.0247654,600.039,3.16782,3.16806,0.166017,0.172495,-0.336185,0.913445,0.00245332,0.00248225,0.634073,0.18059317163659916,1.4928957834566154,0.0024563318520198774,0.18826587927073857,0.0024853333332046645,-0.2855090872302848
893,0.8836,605.333,594.994,-0.024938,600.132,3.17575,3.17598,0.166174,0.172657,-0.336504,0.914309,0.00245949,0.00248849,0.634677,0.18077853931552812,1.4950505761499202,0.0024625170266685537,0.18845839393644748,0.002491588861202043,-0.2857369734816688
894,0.8846,605.419,595.094,-0.0251113,600.225,3.18371,3.18393,0.166331,0.17282,-0.336823,0.915172,0.00246567,0.00249474,0.63528,0.18096393609946726,1.497204734182633,0.0024687122641671166,0.18865212844359247,0.002497854453212378,-0.28596478704893225
895,0.8856,605.506,595.193,-0.0252854,600.318,3.19168,3.19189,0.166488,0.172982,-0.337141,0.916035,0.00247186,0.002501,0.635884,0.1811493619929867,1.4993607520561336,0.0024749175647014177,0.18884470568673573,0.002504130109423963,-0.2861918141474289
896,0.8866,605.592,595.292,-0.0254603,600.411,3.19968,3.19986,0.166644,0.173143,-0.337459,0.916897,0.00247807,0.00250728,0.636486,0.18133363566643035,1.5015161298587771,0.0024811429532691776,0.18903612509320022,0.0025104258551296166,-0.28641876906278596
897,0.8876,605.679,595.391,-0.0256359,600.504,3.20769,3.20786,0.166801,0.173305,-0.337778,0.917759,0.00248429,0.00251357,0.637089,0.18151911960733846,1.503673366398087,0.0024873784053707215,0.18922876454883975,0.0025167316655401173,-0.2866463651719454
898,0.8886,605.765,595.49,-0.0258124,600.596,3.21572,3.21588,0.166957,0.173467,-0.338095,0.918621,0.00249053,0.00251987,0.637691,0.18170345096746932,1.505832463276985,0.0024936339461292256,0.1894214352145993,0.0025230475408444253,-0.2868724624358763
899,0.8896,605.85,595.589,-0.0259896,600.689,3.22377,3.22392,0.167114,0.173628,-0.338413,0.919482,0.00249677,0.00252619,0.638293,0.1818889929739378,1.5079909141076069,0.002499889525922505,0.18961294748199276,0.002529383506526539,-0.2870992009394888
900,0.8906,605.936,595.687,-0.0261675,600.781,3.23184,3.23197,0.16727,0.17379,-0.338731,0.920342,0.00250303,0.00253252,0.638894,0.18207338203881474,1.510148714014707,0.0025061651948736774,0.1898056803904289,0.002535729537609388,-0.2873258673517204
901,0.8916,606.022,595.786,-0.0263463,600.873,3.23993,3.24005,0.167427,0.173951,-0.339048,0.921202,0.00250931,0.00253886,0.639495,0.18225898212902059,1.5123083704279106,0.002512460953359774,0.1899972545262758,0.0025420856342834863,-0.28755174924759785
902,0.8926,606.107,595.885,-0.0265259,600.965,3.24804,3.24814,0.167583,0.174113,-0.339365,0.922061,0.00251559,0.00254522,0.640096,0.18244342891670828,1.514467370475872,0.0025187567513833553,0.1901900496974962,0.002548461822224235,-0.2877775595502625
903,0.8936,606.192,595.983,-0.0267062,601.057,3.25617,3.25625,0.167739,0.174274,-0.339682,0.92292,0.00252189,0.00255159,0.640696,0.18262790448033916,1.5166282259016448,0.002525072639445902,0.1903816857217837,0.0025548480762662695,-0.28800329828240556
904,0.8946,606.277,596.082,-0.0268873,601.149,3.26432,3.26439,0.167895,0.174435,-0.339999,0.923779,0.00252821,0.00255797,0.641296,0.18281240882440275,1.5187909382996838,0.002531408617926667,0.19057335260195463,0.0025612443966012144,-0.2882289654667116
905,0.8956,606.362,596.18,-0.0270693,601.241,3.27249,3.27254,0.168051,0.174596,-0.340315,0.924636,0.00253453,0.00256437,0.641896,0.182996941953389,1.520950467359837,0.002537744636450956,0.19076505034297764,0.0025676608090978714,-0.2884538495800629
906,0.8966,606.446,596.279,-0.027252,601.332,3.28067,3.28071,0.168206,0.174757,-0.340632,0.925494,0.00254087,0.00257078,0.642495,0.18318032069087686,1.5231143710427628,0.0025441007459008347,0.19095677894982166,0.002574087288400584,-0.28867937396224286
907,0.8976,606.531,596.377,-0.0274356,601.424,3.28888,3.2889,0.168362,0.174918,-0.340948,0.926351,0.00254723,0.0025772,0.643094,0.18336491121859155,1.5252776068729008,0.002550476946657776,0.19114853842745627,0.0025805238347023085,-0.2889041157689952
908,0.8986,606.615,596.475,-0.02762,601.515,3.29711,3.29712,0.168517,0.175079,-0.341264,0.927207,0.00255359,0.00258364,0.643693,0.18354834699573574,1.5274401699493318,0.0025568531879676115,0.19134032878085216,0.002586980474066136,-0.28912878656855634
909,0.8996,606.699,596.573,-0.0278052,601.606,3.30536,3.30535,0.168673,0.17524,-0.34158,0.928063,0.00255997,0.00259009,0.644291,0.18373299494003237,1.529604584972276,0.002563249521095212,0.19153215001498092,0.0025934471809452297,-0.28935338638336094
910,0.9006,606.782,596.671,-0.0279912,601.697,3.31363,3.3136,0.168828,0.1754,-0.341895,0.928918,0.00256637,0.00259656,0.644889,0.18391648777457537,1.5317683217580913,0.002569665946424715,0.19172281041140837,0.0025999339815332423,-0.28957720481339677
911,0.9016,606.866,596.769,-0.028178,601.788,3.32191,3.32187,0.168984,0.175561,-0.342211,0.929773,0.00257278,0.00260304,0.645487,0.1841011931533132,1.5339339093299564,0.0025760924385802575,0.19191469323003685,0.002606430850155439,-0.2898016629504223
912,0.9026,606.95,596.867,-0.0283657,601.879,3.33022,3.33016,0.169139,0.175721,-0.342526,0.930627,0.0025792,0.00260953,0.646084,0.18428474306300235,1.5360988131708893,0.002582528997755018,0.19210541483827548,0.002612937787006553,-0.29002534019557724
913,0.9036,607.033,596.965,-0.0285542,601.97,3.33855,3.33847,0.169294,0.175882,-0.342841,0.931481,0.00258563,0.00261603,0.646681,0.1844683214251328,1.5382655666293767,0.002588975624142398,0.19229735926117586,0.0026194547922824274,-0.290248946993496
914,0.9046,607.116,597.063,-0.0287435,602.06,3.3469,3.3468,0.169449,0.176042,-0.343156,0.932334,0.00259208,0.00262255,0.647277,0.18465192824411458,1.5404316308527655,0.0025954423438903085,0.19248814210087795,0.002625991892438506,-0.290472483366366
915,0.9056,607.199,597.161,-0.0289337,602.151,3.35526,3.35515,0.169604,0.176202,-0.343471,0.933187,0.00259854,0.00262909,0.647873,0.18483556352435881,1.5425995435171846,0.00260191913136798,0.1926789554682764,0.002632549087867586,-0.29069594933636755
916,0.9066,607.281,597.259,-0.0291248,602.241,3.36365,3.36353,0.169758,0.176362,-0.343785,0.93404,0.00260502,0.00263563,0.648469,0.18501804225164298,1.5447693062000276,0.002608416012853665,0.1928697993682562,0.0026391063261808068,-0.2909186358446645
917,0.9076,607.364,597.356,-0.0293167,602.331,3.37206,3.37192,0.169913,0.176523,-0.3441,0.934892,0.00261151,0.00264219,0.649065,0.1852017342839567,1.5469383735403857,0.002614922962588695,0.19306186686697324,0.002645683660291942,-0.2911419612987677
918,0.9086,607.446,597.454,-0.0295094,602.421,3.38049,3.38033,0.170068,0.176683,-0.344414,0.935743,0.00261801,0.00264877,0.64966,0.1853854547907423,1.5491067406055938,0.0026214399807682476,0.1932527720376782,0.002652281090595787,-0.29136450778129364
919,0.9096,607.528,597.551,-0.029703,602.511,3.38894,3.38876,0.170222,0.176842,-0.344728,0.936594,0.00262453,0.00265536,0.650254,0.18556801820780233,1.551276953736564,0.0026279770938679725,0.19344251431254333,0.0026588885909000215,-0.2915869843951939
920,0.9106,607.61,597.649,-0.0298975,602.601,3.39741,3.39722,0.170376,0.177002,-0.345042,0.937444,0.00263106,0.00266196,0.650849,0.18575060974179358,1.553446461057229,0.002634524275934913,0.19363348039171235,0.0026655061614027087,-0.2918093911624041
921,0.9116,607.692,597.746,-0.0300928,602.691,3.4059,3.40569,0.170531,0.177162,-0.345355,0.938294,0.0026376,0.00266858,0.651443,0.18593441533086863,1.5556178132430731,0.0026410815271658006,0.1938244770278985,0.002672143829024032,-0.2920310201362265
922,0.9126,607.774,597.844,-0.030289,602.78,3.41442,3.41418,0.170685,0.177321,-0.345669,0.939143,0.00264416,0.00267521,0.652037,0.18611706329436184,1.5577884540731652,0.0026476588742343488,0.19401431021108406,0.0026787915673749385,-0.29225328749810164
923,0.9136,607.855,597.941,-0.0304861,602.87,3.42295,3.4227,0.170839,0.177481,-0.345982,0.939992,0.00265073,0.00268185,0.65263,0.18629973938780742,1.5599609385598443,0.0026542462909926456,0.19420536778491604,0.002685449376654825,-0.29247477755411266
924,0.9146,607.936,598.038,-0.0306841,602.959,3.4315,3.43123,0.170993,0.17764,-0.346295,0.940841,0.00265732,0.00268851,0.653223,0.18648244361553745,1.5621352682690381,0.0026608538042474095,0.194395261534547,0.0026921272839850463,-0.2926961982945847
925,0.9156,608.017,598.135,-0.0308829,603.048,3.44008,3.43979,0.171147,0.1778,-0.346608,0.941689,0.00266392,0.00269518,0.653816,0.18666517598188537,1.5643088804578436,0.00266747138772061,0.19458638006546725,0.0026988152627784867,-0.29291754974121
926,0.9166,608.098,598.232,-0.0310827,603.138,3.44867,3.44837,0.171301,0.177959,-0.346921,0.942536,0.00267054,0.00270187,0.654408,0.18684793649118459,1.5664817701684797,0.002674109068351971,0.19477633440086706,0.0027055233402910606,-0.293138831915674
927,0.9176,608.179,598.329,-0.0312833,603.227,3.45729,3.45697,0.171454,0.178118,-0.347233,0.943383,0.00267716,0.00270857,0.655,0.1870295381176379,1.568656501096346,0.0026807467929248485,0.19496631894140748,0.002712241489803091,-0.29335933819934734
928,0.9186,608.259,598.426,-0.0314849,603.315,3.46593,3.46558,0.171608,0.178277,-0.347546,0.944229,0.00268381,0.00271529,0.655592,0.1872123547430269,1.570830503969825,0.0026874146420614586,0.19515633369189156,0.002718979738706384,-0.2935804821156627
929,0.9196,608.339,598.523,-0.0316873,603.404,3.47459,3.47422,0.171761,0.178436,-0.347858,0.945075,0.00269046,0.00272202,0.656183,0.18739401212973839,1.5730063468279387,0.0026940825355397102,0.195346378657123,0.002725728060148258,-0.2938008506259673
930,0.9206,608.419,598.62,-0.0318907,603.493,3.48327,3.48289,0.171915,0.178595,-0.34817,0.945921,0.00269713,0.00272876,0.656774,0.18757688488844737,1.5751840312279728,0.0027007705273744964,0.1955364538419062,0.0027324864543309957,-0.29402115039202137
931,0.9216,608.499,598.717,-0.032095,603.581,3.49197,3.49157,0.172068,0.178754,-0.348482,0.946766,0.00270382,0.00273552,0.657365,0.1877585980525378,1.5773609813662608,0.00270747861796794,0.19572655925104665,0.0027392649488506837,-0.2942413814352699
932,0.9226,608.579,598.814,-0.0323002,603.67,3.50069,3.50027,0.172221,0.178913,-0.348793,0.94761,0.00271052,0.00274229,0.657955,0.18794033902086937,1.579537192266351,0.00271419678058038,0.19591669488935026,0.0027460535166536904,-0.2944608382383418
933,0.9236,608.659,598.911,-0.0325063,603.758,3.50943,3.509,0.172374,0.179072,-0.349105,0.948454,0.00271723,0.00274908,0.658545,0.18812210779769645,1.5817152406637556,0.0027209250154140996,0.19610686076162387,0.0027528621854724378,-0.2946809321203804
934,0.9246,608.738,599.007,-0.0327134,603.846,3.5182,3.51774,0.172527,0.17923,-0.349416,0.949297,0.00272396,0.00275588,0.659135,0.18830390438727385,1.5838925442161407,0.0027276733499475014,0.1962958605762164,0.002759680928119179,-0.29490025224444394
935,0.9256,608.817,599.104,-0.0329213,603.934,3.52699,3.52651,0.17268,0.179389,-0.349727,0.95014,0.0027307,0.0027627,0.659724,0.1884857287938575,1.5860716840092874,0.002734431757241751,0.19648608674062729,0.0027665197724635604,-0.2951195041705542
936,0.9266,608.896,599.201,-0.0331303,604.022,3.5358,3.5353,0.172833,0.179547,-0.350038,0.950983,0.00273746,0.00276953,0.660313,0.18866758102170378,1.5882526615917993,0.0027412102649118086,0.19667514647765816,0.0027733686911826094,-0.2953386879199176
937,0.9276,608.975,599.297,-0.0333401,604.11,3.54463,3.54411,0.172986,0.179706,-0.350349,0.951825,0.00274423,0.00277637,0.660901,0.18884946107506928,1.5904328880794028,0.002747998845884503,0.19686543295332215,0.0027802276844821616,-0.2955578035137335
938,0.9286,609.054,599.394,-0.0335509,604.198,3.55348,3.55294,0.173138,0.179864,-0.350659,0.952667,0.00275101,0.00278323,0.66149,0.18903017992743765,1.592614951090776,0.0027547975003641145,0.19705455263178995,0.0027871067804392524,-0.2957761467496941
939,0.9296,609.132,599.49,-0.0337627,604.285,3.56236,3.5618,0.173291,0.180022,-0.35097,0.953508,0.00275781,0.0027901,0.662078,0.18921211546268002,1.59479625737537,0.0027616162561709956,0.1972437021935276,0.002793995951527073,-0.2959951263149676
940,0.9306,609.21,599.586,-0.0339754,604.373,3.57125,3.57067,0.173443,0.18018,-0.35128,0.954348,0.00276463,0.00279699,0.662665,0.18939288944270483,1.5969768019320627,0.002768455113714152,0.19743288164325712,0.0028009052259616585,-0.296213334001871
941,0.9316,609.288,599.683,-0.0341891,604.46,3.58017,3.57957,0.173595,0.180338,-0.35159,0.955188,0.00277146,0.0028039,0.663252,0.189573690902463,1.5991591789156954,0.0027753040456517386,0.19762209098570116,0.0028078346041577884,-0.29643147405487524
942,0.9326,609.366,599.779,-0.0344038,604.547,3.58911,3.58849,0.173748,0.180496,-0.3519,0.956028,0.0027783,0.00281081,0.663839,0.18975570960124633,1.6013433898661518,0.002782163052189146,0.19781133022558328,0.002814764030236061,-0.2966495464949436
943,0.9336,609.444,599.875,-0.0346194,604.634,3.59808,3.59743,0.1739,0.180654,-0.352209,0.956867,0.00278516,0.00281775,0.664426,0.18993656621386013,1.603526832796478,0.00278904216142295,0.19800059936762726,0.002821723588848135,-0.2968668482102327
944,0.9346,609.522,599.971,-0.034836,604.721,3.60706,3.6064,0.174052,0.180812,-0.352519,0.957706,0.00279203,0.00282469,0.665012,0.19011745031876837,1.605712108404123,0.0027959313458070234,0.19818989841655843,0.0028286831957595737,-0.29708478570523045
945,0.9356,609.599,600.067,-0.0350536,604.808,3.61607,3.61538,0.174204,0.18097,-0.352828,0.958544,0.00279892,0.00283166,0.665598,0.19029836192015015,1.6078966103294348,0.0028028406335764977,0.19837922737710234,0.0028356729360405897,-0.2973019529523798
946,0.9366,609.676,600.163,-0.0352721,604.895,3.6251,3.62439,0.174356,0.181127,-0.353137,0.959381,0.00280582,0.00283863,0.666184,0.19047930102218547,1.610080333552962,0.0028097599970486886,0.19856738768599835,0.0028426627250404124,-0.29751905310521654
947,0.9376,609.753,600.26,-0.0354917,604.982,3.63415,3.63342,0.174507,0.181285,-0.353446,0.960219,0.00281274,0.00284562,0.666769,0.1906590769693821,1.612268497585157,0.0028166994645983934,0.1987567762945588,0.0028496726197524413,-0.29773608618446945
948,0.9386,609.83,600.355,-0.0357123,605.068,3.64323,3.64247,0.174659,0.181442,-0.353755,0.961055,0.00281967,0.00285263,0.667354,0.19084007090427213,1.6144532671555747,0.002823649008405704,0.19894499588328807,0.002856702620597673,-0.297953052210861
949,0.9396,609.906,600.451,-0.0359338,605.155,3.65232,3.65155,0.17481,0.1816,-0.354063,0.961892,0.00282661,0.00285965,0.667938,0.19101990133183433,1.6166424805982014,0.002830608628679787,0.19913444415865733,0.0028637426993607384,-0.2981692493747078
950,0.9406,609.983,600.547,-0.0361564,605.241,3.66144,3.66065,0.174962,0.181757,-0.354372,0.962727,0.00283358,0.00286669,0.668523,0.19120095011619576,1.618828289517725,0.002837598382381179,0.19932272304589604,0.00287080288496111,-0.29838608157435087
951,0.9416,610.059,600.643,-0.03638,605.327,3.67059,3.66977,0.175113,0.181914,-0.35468,0.963563,0.00284055,0.00287374,0.669106,0.1913808350406332,1.6210185453671433,0.0028445881848013777,0.19951103149524085,0.0028778731490439746,-0.29860214538569096
952,0.9426,610.135,600.739,-0.0366046,605.413,3.67975,3.67891,0.175264,0.182071,-0.354988,0.964397,0.00284754,0.00288081,0.66969,0.19156074712974536,1.6232053866200262,0.0028515980929721962,0.19969936951133294,0.0028849635206715796,-0.2988181426596245
953,0.9436,610.211,600.835,-0.0368302,605.499,3.68894,3.68808,0.175416,0.182229,-0.355296,0.965232,0.00285455,0.00288789,0.670273,0.1917418781289162,1.6253966778546256,0.0028586281073150754,0.19988893698715193,0.0028920639713490015,-0.2990340734166417
954,0.9446,610.287,600.93,-0.0370569,605.585,3.69815,3.69726,0.175567,0.182386,-0.355604,0.966065,0.00286157,0.00289499,0.670856,0.1919218447396509,1.6275845444071861,0.002865668199595106,0.20007733433906405,0.0028991845302810404,-0.29924993767722674
955,0.9456,610.362,601.026,-0.0372845,605.671,3.70739,3.70648,0.175718,0.182542,-0.355911,0.966899,0.00286861,0.0029021,0.671439,0.1921018385273956,1.6297768639874133,0.0028727283987510788,0.20026456100652124,0.0029063151688324407,-0.2994650349272425
956,0.9466,610.438,601.122,-0.0375133,605.757,3.71665,3.71571,0.175868,0.182699,-0.356219,0.967732,0.00287566,0.00290923,0.672021,0.19228066721499082,1.6319683807551266,0.0028797986764090844,0.20045301733603416,0.0029134659163521093,-0.2996807664721216
957,0.9476,610.513,601.217,-0.037743,605.842,3.72593,3.72497,0.176019,0.182856,-0.356526,0.968564,0.00288272,0.00291637,0.672603,0.1924607151890203,1.6341590896564457,0.0028868790327813976,0.20064150325551333,0.002920626744062904,-0.299895731477998
958,0.9486,610.588,601.313,-0.0379739,605.927,3.73523,3.73425,0.17617,0.183013,-0.356833,0.969396,0.00288981,0.00292353,0.673184,0.19264079035234638,1.6363516219860124,0.0028939895259603166,0.20083001876960505,0.002927807681458061,-0.3001106304997465
959,0.9496,610.663,601.408,-0.0382057,606.013,3.74456,3.74355,0.17632,0.183169,-0.35714,0.970228,0.0028969,0.0029307,0.673766,0.192819699888779,1.6385459792615489,0.0029011000695529088,0.20101736286499272,0.002934998699618774,-0.30032546355762135
960,0.9506,610.737,601.504,-0.0384387,606.098,3.75391,3.75288,0.176471,0.183326,-0.357446,0.971059,0.00290401,0.00293789,0.674346,0.19299982926288783,1.6407395222612005,0.002908230721723859,0.20120593739367565,0.002942209828183495,-0.30053953121175125
961,0.9516,610.812,601.599,-0.0386727,606.183,3.76329,3.76223,0.176621,0.183482,-0.357753,0.971889,0.00291114,0.00294509,0.674927,0.19317879265919635,1.6429322459191145,0.002915381482901269,0.201393340136943,0.002949431038090644,-0.30075423261731726
962,0.9526,610.886,601.695,-0.0389077,606.268,3.77268,3.7716,0.176772,0.183639,-0.358059,0.972719,0.00291828,0.00295231,0.675507,0.19335897626040754,1.6451267902931574,0.0029225423242893456,0.20158197369869169,0.002956672359123891,-0.300968169088187
963,0.9536,610.96,601.79,-0.0391439,606.353,3.78211,3.781,0.176922,0.183795,-0.358365,0.973549,0.00292544,0.00295955,0.676087,0.19353799353280632,1.6473231568951507,0.002929723275399976,0.20176943510819845,0.0029639337917179986,-0.30118204010451166
964,0.9546,611.034,601.885,-0.0393811,606.438,3.79155,3.79042,0.177072,0.183951,-0.358671,0.974378,0.00293261,0.0029668,0.676667,0.19371703765981008,1.649518697718149,0.0029369143072957016,0.20195692576396618,0.0029712053065973354,-0.3013958456863174
965,0.9556,611.107,601.98,-0.0396194,606.522,3.80102,3.79986,0.177222,0.184107,-0.358977,0.975206,0.0029398,0.00297406,0.677246,0.19389610864544715,1.6517134076843978,0.0029441254496336278,0.20214444567055767,0.002978486903979949,-0.30160958585362385
966,0.9566,611.181,602.076,-0.0398588,606.607,3.81052,3.80933,0.177372,0.184263,-0.359283,0.976035,0.00294701,0.00298134,0.677825,0.19407520649374677,1.6539125895342974,0.0029513567028467413,0.2023319948325366,0.0029857886139428302,-0.30182326062644516
967,0.9576,611.254,602.171,-0.0400993,606.691,3.82003,3.81882,0.177522,0.184419,-0.359588,0.976862,0.00295423,0.00298864,0.678403,0.19425433120873858,1.6561082830399658,0.002958598037783311,0.20251957325446712,0.0029931104369242956,-0.3020361720613097
968,0.9586,611.327,602.266,-0.0403409,606.776,3.82958,3.82834,0.177671,0.184575,-0.359893,0.977689,0.00296146,0.00299595,0.678982,0.19443228836156745,1.6583057931352192,0.0029658494546609404,0.20270718094091378,0.0030004423433596106,-0.3022490185680887
969,0.9596,611.4,602.361,-0.0405837,606.86,3.83914,3.83788,0.177821,0.184731,-0.360198,0.978516,0.00296871,0.00300328,0.67956,0.19461146664285667,1.6605051213229989,0.002973120983428945,0.2028948178964427,0.003007794363547145,-0.3024618001665822
970,0.9606,611.473,602.456,-0.0408275,606.944,3.84873,3.84744,0.17797,0.184887,-0.360503,0.979342,0.00297598,0.00301062,0.680137,0.19478947701282978,1.6627036064025518,0.002980412624523421,0.2030824841256198,0.003015156467776725,-0.3026745168765842
971,0.9616,611.546,602.551,-0.0410725,607.028,3.85835,3.85703,0.17812,0.185042,-0.360808,0.980168,0.00298326,0.00301798,0.680715,0.19496870887643536,1.6649039081809738,0.0029877143485055324,0.20326897636343433,0.0030225386864948245,-0.30288716871788246
972,0.9626,611.618,602.646,-0.0413185,607.112,3.86798,3.86664,0.178269,0.185198,-0.361113,0.980994,0.00299056,0.00302536,0.681292,0.1951467724794671,1.6671060281594778,0.0029950361855450858,0.2034567009658852,0.003029941020144866,-0.30309975571025927
973,0.9636,611.69,602.741,-0.0415658,607.196,3.87765,3.87628,0.178418,0.185353,-0.361417,0.981818,0.00299787,0.00303275,0.681868,0.19532486261595206,1.6693046292259206,0.0030023681060578067,0.2036432512118056,0.003037353438797963,-0.3033115811854197
974,0.9646,611.762,602.836,-0.0418141,607.279,3.88734,3.88594,0.178567,0.185509,-0.361721,0.982643,0.0030052,0.00304016,0.682445,0.19550297928984461,1.6715077141926247,0.0030097201403611606,0.20383103420568727,0.0030447859731244087,-0.3035233422754229
975,0.9656,611.834,602.931,-0.0420636,607.363,3.89705,3.89563,0.178716,0.185664,-0.362025,0.983467,0.00301254,0.00304758,0.683021,0.19568112250509873,1.6737099437430891,0.0030170822587258783,0.20401764247775667,0.003052228593048323,-0.30373503899983867
976,0.9666,611.906,603.026,-0.0423143,607.446,3.90679,3.90534,0.178865,0.18582,-0.362329,0.98429,0.0030199,0.00305502,0.683596,0.19585929226566945,1.675911312765888,0.003024464491617973,0.20420548388123172,0.003059691329390546,-0.3039466713782314
977,0.9676,611.977,603.121,-0.0425661,607.53,3.91655,3.91507,0.179014,0.185975,-0.362633,0.985113,0.00302728,0.00306248,0.684171,0.1960374885755125,1.6781144942611235,0.003031866839480424,0.204392150197499,0.0030671741825987198,-0.30415823943015907
978,0.9686,612.049,603.215,-0.042819,607.613,3.92633,3.92483,0.179163,0.18613,-0.362936,0.985936,0.00303467,0.00306995,0.684747,0.19621571143858385,1.680319489721073,0.0030392792723652473,0.20457884544928784,0.003074667122376029,-0.3043690475445696
979,0.9696,612.12,603.31,-0.0430732,607.696,3.93615,3.93461,0.179312,0.186285,-0.36324,0.986758,0.00304208,0.00307743,0.685321,0.1963939608588401,1.6825236181142853,0.003046711820962278,0.2047655696410835,0.003082170148947405,-0.30458048721365794
980,0.9706,612.191,603.405,-0.0433285,607.779,3.94598,3.94442,0.17946,0.18644,-0.363543,0.98758,0.00304951,0.00308494,0.685896,0.1965710402686005,1.6847295590458886,0.003054164485717603,0.2049523227773722,0.003089703324332227,-0.30479116740637113
981,0.9716,612.261,603.5,-0.043585,607.862,3.95585,3.95426,0.179609,0.186595,-0.363846,0.988401,0.00305695,0.00309246,0.68647,0.196749342636797,1.6869346270704302,0.0030616272364629715,0.2051391048626403,0.0030972465872638466,-0.3050017837726562
982,0.9726,612.332,603.594,-0.0438427,607.945,3.96573,3.96412,0.179757,0.18675,-0.364149,0.989222,0.0030644,0.00309999,0.687043,0.19692647464695257,1.689141506199177,0.003069100073421982,0.2053259159013754,0.0031047999379689717,-0.3052123363318494
983,0.9736,612.402,603.689,-0.0441016,608.027,3.97565,3.974,0.179905,0.186904,-0.364452,0.990042,0.00307188,0.00310755,0.687617,0.19710363287458588,1.691347506570803,0.003076603058351779,0.20551155038591262,0.0031123834389221727,-0.30542282510328167
984,0.9746,612.473,603.783,-0.0443616,608.11,3.98558,3.98391,0.180053,0.187059,-0.364754,0.990862,0.00307937,0.00311511,0.68819,0.19728081732357716,1.693555316604594,0.0030841161302450626,0.20569841915817833,0.0031199669972068467,-0.30563255573918047
985,0.9756,612.543,603.878,-0.0446229,608.193,3.99555,3.99384,0.180201,0.187214,-0.365057,0.991681,0.00308687,0.0031227,0.688763,0.19745802799780732,1.6957622420214915,0.0030916392893278744,0.20588531689734846,0.0031275807066502015,-0.30584291720342016
986,0.9766,612.612,603.973,-0.0448854,608.275,4.00554,4.0038,0.180349,0.187368,-0.365359,0.9925,0.00309439,0.0031303,0.689335,0.19763526490115835,1.6979709756506671,0.0030991825668180706,0.20607103753627265,0.0031352045052339683,-0.3060525209906598
987,0.9776,612.682,604.067,-0.0451491,608.357,4.01555,4.01379,0.180497,0.187523,-0.365661,0.993318,0.00310193,0.00313792,0.689907,0.19781252803751226,1.7001788187934848,0.0031067459631686223,0.20625799303576775,0.003142848424615652,-0.3062620614871131
988,0.9786,612.752,604.162,-0.045414,608.439,4.02559,4.0238,0.180645,0.187677,-0.365963,0.994136,0.00310948,0.00314555,0.690479,0.19798981741075194,1.702388468690855,0.0031143194476903613,0.2064437710712368,0.003150502433749036,-0.3064715387118909
989,0.9796,612.821,604.256,-0.0456802,608.521,4.03566,4.03383,0.180793,0.187831,-0.366264,0.994954,0.00311705,0.0031532,0.69105,0.19816713302476052,1.7045999268213077,0.003121913051830294,0.20662957771872636,0.003158176564446169,-0.30668025936470455
990,0.9806,612.89,604.35,-0.0459476,608.604,4.04575,4.0439,0.18094,0.187985,-0.366566,0.995771,0.00312464,0.00316087,0.691622,0.1983432765395463,1.7068104878527417,0.0031295267760445,0.20681541298264317,0.003165870817168015,-0.30688961031279216
991,0.9816,612.959,604.445,-0.0462162,608.685,4.05587,4.05398,0.181088,0.18814,-0.366867,0.996587,0.00313224,0.00316855,0.692192,0.19852064446937723,1.7090201466290007,0.003137150589418436,0.20700248386927456,0.0031735751606405405,-0.30709820514499087
992,0.9826,613.028,604.539,-0.0464861,608.767,4.06602,4.0641,0.181235,0.188294,-0.367168,0.997403,0.00313986,0.00317625,0.692763,0.1986968399541651,1.7112316092226787,0.0031447945236293684,0.20718837656516076,0.003181299626908274,-0.30730673719959356
993,0.9836,613.096,604.634,-0.0467572,608.849,4.07619,4.07424,0.181383,0.188448,-0.367469,0.998219,0.0031475,0.00318397,0.693333,0.19887426021525356,1.7134448771062911,0.0031524585791360415,0.20737429789072648,0.0031890442164355104,-0.30751520649549346
994,0.9846,613.164,604.728,-0.0470296,608.93,4.08639,4.0844,0.18153,0.188602,-0.36777,0.999034,0.00315515,0.0031917,0.693903,0.19905050768537702,1.7156572360949616,0.0031601327247978706,0.20756024785038085,0.0031967988977190664,-0.30772361305157814
995,0.9856,613.233,604.822,-0.0473033,609.012,4.09661,4.0946,0.181677,0.188756,-0.368071,0.999849,0.00316282,0.00319945,0.694472,0.19922678106578284,1.7178713988911603,0.0031678269925232705,0.20774622644853435,0.0032045737030379495,-0.30793195688672936
996,0.9866,613.301,604.917,-0.0475783,609.093,4.10686,4.10481,0.181824,0.188909,-0.368371,1.00066,0.00317051,0.00320722,0.695042,0.1994030803602802,1.7200764866378813,0.0031755413827747603,0.20793102575796762,0.0032123686328588974,-0.3081395461597155
997,0.9876,613.369,605.011,-0.0478545,609.174,4.11714,4.11506,0.181971,0.189063,-0.368671,1.00148,0.00317821,0.00321501,0.695611,0.19957940557267873,1.7223078640966505,0.003183265864182605,0.20811706146031583,0.003220183687650202,-0.30834707316526033
998,0.9886,613.436,605.105,-0.048132,609.256,4.12744,4.12533,0.182118,0.189217,-0.368972,1.00229,0.00318593,0.00322281,0.696179,0.1997557567067887,1.7245138267608366,0.003191010468889033,0.20830312581436816,0.0032280088356009262,-0.3085552293671576
999,0.9896,613.504,605.199,-0.0484108,609.337,4.13777,4.13563,0.182264,0.18937,-0.369272,1.0031,0.00319367,0.00323062,0.696748,0.19993093383488714,1.726721576978643,0.003198775197359671,0.208488010335923,0.003235844076946437,-0.308762631686444
