,Time,S11,S22,S33,S12,S13,S23,LE11,LE22,LE33,LE12,LE13,LE23,SDV_EPBAR,E11,E12,E13,E22,E23,E33
0,1e-05,1.03872,1.03872,-3.33067e-16,1.03872,5.98211e-18,-5.98211e-18,3.49998e-06,3.49998e-06,-2.99999e-06,1.29999e-05,1.4967e-22,-1.4967e-22,0.0,3.499986124921861e-06,1.2999984499106887e-05,0.0,3.499986124921861e-06,0.0,-2.999985500018454e-06
1,2e-05,2.07744,2.07744,3.33067e-16,2.07744,5.98211e-18,-5.98211e-18,6.99994e-06,6.99994e-06,-5.99996e-06,2.59997e-05,-2.99473e-22,2.99472e-22,0.0,6.999964499598832e-06,2.600003799502204e-05,0.0,6.999964499598832e-06,0.0,-5.9999420002343484e-06
2,3.5e-05,3.63549,3.63549,-3.33067e-16,3.63549,-6.58019e-17,-7.77661e-17,1.22498e-05,1.22498e-05,-1.04998e-05,4.54992e-05,-1.19786e-21,-1.19786e-21,0.0,1.2249875029013424e-05,4.550023510430101e-05,0.0,1.2249875029013424e-05,0.0,-1.0499744877323636e-05
3,5.75e-05,5.97253,5.97253,-3.66374e-15,5.97253,-1.01691e-16,-1.37584e-16,2.01244e-05,2.01244e-05,-1.72495e-05,7.47478e-05,-3.59361e-21,-3.59361e-21,0.0,2.0124602497118005e-05,7.475059368644565e-05,0.0,2.0124602497118005e-05,0.0,-1.7249351228265652e-05
4,9.125e-05,9.47798,9.47798,-2.80886e-14,9.47798,-1.49543e-16,-8.97216e-17,3.19361e-05,3.19361e-05,-2.73738e-05,0.00011862,-5.98941e-21,1.19809e-21,0.0,3.193660996259062e-05,0.0001186270356303698,0.0,3.193660996259062e-05,0.0,-2.737342534098186e-05
5,0.00014188,14.7359,14.7359,-1.55986e-13,14.7359,-2.69169e-16,-2.09348e-16,4.96528e-05,4.96528e-05,-4.25595e-05,0.000184424,5.54707e-25,-4.7912e-21,0.0,4.965403272061408e-05,0.00018444100715142575,0.0,4.965403272061408e-05,0.0,-4.255859435731146e-05
6,0.00021781,22.6224,22.6224,-7.98139e-13,22.6224,-2.69131e-16,-4.96452e-16,7.62261e-05,7.62261e-05,-6.53367e-05,0.000283125,2.39728e-21,-7.18642e-21,0.0,7.622900528292398e-05,0.0002831650836656596,0.0,7.622900528292398e-05,0.0,-6.533456560431361e-05
7,0.00033172,34.4509,34.4509,-4.03644e-12,34.4509,-6.51902e-16,-4.96367e-16,0.000116082,0.000116082,-9.94992e-05,0.000431163,-4.78892e-21,-4.78892e-21,0.0,0.00011608873777602113,0.00043125596412663114,0.0,0.00011608873777602113,0.0,-9.949425011879232e-05
8,0.00050258,52.1912,52.1912,-2.04446e-11,52.1912,-1.03459e-15,-4.96197e-16,0.000175858,0.000175858,-0.000150736,0.000653187,-4.786e-21,-4.786e-21,0.0,0.0001758734639245585,0.0006534003730833682,0.0,0.0001758734639245585,0.0,-0.00015072463989995732
9,0.00075887,78.7959,78.7959,-1.03432e-10,78.7959,-8.42968e-16,-3.04578e-16,0.000265503,0.000265503,-0.000227574,0.000986153,7.08779e-24,7.08779e-24,0.0,0.00026553824904107515,0.0009866394087476582,0.0,0.00026553824904107515,0.0,-0.0002275481070015406
10,0.0011433,118.69,118.69,-5.23093e-10,118.69,-1.41658e-15,-1.26105e-15,0.000399927,0.000399927,-0.000342794,0.00148544,2.49115e-23,2.49115e-23,0.0,0.00040000698146447355,0.0014865438124782582,0.0,0.00040000698146447355,0.0,-0.00034273525284966855
11,0.00172,178.503,178.503,-2.64423e-09,178.503,-2.18043e-15,-2.79061e-15,0.000601466,0.000601466,-0.000515542,0.00223402,-3.82825e-20,-3.82825e-20,0.0,0.0006016469169445315,0.0022365172819931445,0.0,0.0006016469169445315,0.0,-0.0005154091310572984
12,0.0025849,245.682,245.099,-0.0526794,245.497,0.0117074,0.0255591,0.000884727,0.00088815,-0.000828014,0.00339031,1.64238e-07,3.71507e-07,0.000223466,0.0008851184863765127,0.003396063601274646,1.6423801341147737e-07,0.0008885445220008226,3.7150706910793474e-07,-0.0008276712910036954
13,0.0028349,247.224,246.53,-0.0719592,247.029,0.0105409,0.0374024,0.000950314,0.000960623,-0.000960384,0.0037509,1.66179e-07,5.96142e-07,0.000463562,0.0009507656914209406,0.0037579434290508917,1.6617901388293888e-07,0.000961084546052815,5.96142177622383e-07,-0.0009599229788838093
14,0.0032099,249.671,249.109,0.0467948,249.244,0.114471,0.0407562,0.00104872,0.00107191,-0.00116017,0.00428894,1.76281e-06,7.88347e-07,0.000823387,0.001049270099102273,0.00429815066645256,1.7628115538403932e-06,0.0010724847008483085,7.883473107650474e-07,-0.0011594972629738187
15,0.0037724,252.947,251.947,-0.128558,252.651,0.0738242,0.0396372,0.00119771,0.00123682,-0.00146262,0.00509613,1.52873e-06,1.08618e-06,0.0013643,0.0011984275410621414,0.00510913735682883,1.5287311685430183e-06,0.0012375851772858937,1.0861805899153865e-06,-0.0014615508926638654
16,0.0046162,258.269,257.407,0.176419,257.521,0.195585,0.120954,0.00142233,0.00149316,-0.0019222,0.00629562,4.16449e-06,3.33349e-06,0.00217489,0.0014233419910527623,0.006315479068768948,4.164498671466177e-06,0.0014942753184399304,3.3334955560349044e-06,-0.001920353756719062
17,0.0054599,262.877,261.303,-0.184424,262.424,0.0879657,0.150265,0.00164765,0.0017433,-0.00238193,0.00749921,3.27993e-06,5.05363e-06,0.00298746,0.0016490081210616125,0.007527399497573972,3.279935379074672e-06,0.0017448204308390114,5.053642769592415e-06,-0.0023790954557462163
18,0.0063037,267.7,265.897,-0.178891,267.124,0.123803,0.183395,0.00187245,0.00199535,-0.00284061,0.00869999,4.39022e-06,6.96122e-06,0.00379956,0.001874204129170165,0.008737944902243777,4.390229636941356e-06,0.001997342035527039,6.961244229275465e-06,-0.0028365792848804583
19,0.0071474,272.737,271.14,0.184514,271.633,0.285316,0.236016,0.00209659,0.00224982,-0.0032987,0.00989761,7.975e-06,9.35358e-06,0.00461121,0.0020987893816126757,0.00994675334191708,7.975031800500076e-06,0.0022523527440660995,9.353623744878803e-06,-0.0032932652666489703
20,0.0079912,277.336,275.582,0.194259,276.099,0.338963,0.248466,0.00232068,0.0025016,-0.00375711,0.0110966,1.04836e-05,1.12722e-05,0.00542401,0.0023233748620654637,0.011158395628046547,1.0483654953041821e-05,0.0025047316120825336,1.127226353148103e-05,-0.0037500608930772783
21,0.0089912,282.409,280.038,-0.0938202,281.319,0.327566,0.219248,0.00258814,0.00279925,-0.00430438,0.0125146,1.24089e-05,1.30256e-05,0.00638861,0.002591492125629369,0.012593235293947957,1.2408976990618825e-05,0.0028031715585683514,1.3025684833412043e-05,-0.004295129433818046
22,0.0099912,287.34,284.533,-0.294647,286.386,0.242003,0.289262,0.00285497,0.00309629,-0.00485044,0.013932,1.28212e-05,1.63758e-05,0.00735347,0.0028590493080273838,0.01402950258782698,1.2821282191932681e-05,0.0031010884570754627,1.6375934084100763e-05,-0.004838695612058963
23,0.010991,292.802,290.319,0.222245,291.167,0.441722,0.347112,0.00312086,0.0033978,-0.00539514,0.0153438,1.80363e-05,1.98515e-05,0.00831707,0.0031257349535998014,0.015462120486599895,1.8036462654968943e-05,0.0034035790659363574,1.9851697042438943e-05,-0.00538061237013121
24,0.011991,297.677,294.992,0.242934,295.901,0.479503,0.3754,0.00338672,0.00369551,-0.00594024,0.0167575,2.14175e-05,2.30631e-05,0.00928216,0.003392461415872239,0.016898694489410504,2.1417729356265625e-05,0.0037023468163268625,2.3063365955255932e-05,-0.005922631657550359
25,0.012991,302.016,298.525,-0.165159,300.612,0.322434,0.41945,0.00365304,0.00398807,-0.0064847,0.018174,2.13594e-05,2.66587e-05,0.0102486,0.003659720482834139,0.01834015216153073,2.1359628113559737e-05,0.003996032933221816,2.665905534637858e-05,-0.006463719707751725
26,0.013991,306.965,303.855,0.239925,304.975,0.534088,0.426066,0.00391781,0.00428726,-0.00702805,0.0195834,2.71552e-05,2.97617e-05,0.0112134,0.003925494649986927,0.019776412667015464,2.7155568705694577e-05,0.0042964634469768725,2.976214288374912e-05,-0.0070034110117357384
27,0.014991,311.414,308.107,0.242916,309.317,0.560308,0.449516,0.00418271,0.00458255,-0.00757144,0.0209947,3.07432e-05,3.31509e-05,0.0121794,0.004191469740365106,0.021216639174997942,3.074367257704935e-05,0.004593065939387797,3.315144949711524e-05,-0.0075428488523885395
28,0.015991,315.372,311.291,-0.143497,313.642,0.401557,0.49159,0.00444805,0.00487299,-0.00811416,0.0224084,3.10478e-05,3.69434e-05,0.0131466,0.004457957258281464,0.02266135409392911,3.1048281987855475e-05,0.004884882324983408,3.694408241572411e-05,-0.008081329062252451
29,0.016991,319.495,315.196,-0.216153,317.743,0.417187,0.489139,0.00471258,0.00516561,-0.00865596,0.0238188,3.35937e-05,4.01076e-05,0.0141131,0.004723701668849722,0.024104733299491476,3.359426427462786e-05,0.005178974765815969,4.0108404320449154e-05,-0.00861860503696199
30,0.017991,324.031,320.154,0.29567,321.616,0.61989,0.540013,0.00497615,0.00546212,-0.00919672,0.0252244,3.95997e-05,4.41543e-05,0.0150785,0.0049885515966132665,0.025545227054461606,3.9600484078361475e-05,0.005477064574744395,4.415527481538284e-05,-0.009154559515669791
31,0.018991,327.489,322.797,-0.24216,325.593,0.444299,0.528652,0.00524047,0.00575002,-0.00973819,0.0266358,3.98494e-05,4.73152e-05,0.0160465,0.00525422528045838,0.026993703537327107,3.985019399799228e-05,0.005766583095826672,4.731631938170722e-05,-0.009690927369673141
32,0.019991,331.338,326.504,-0.224873,329.342,0.469612,0.547086,0.00550404,0.00604104,-0.0102782,0.028043,4.27236e-05,5.08901e-05,0.0170133,0.005519215056759341,0.028439906386620528,4.2724512665959224e-05,0.0060593238814850015,5.089139492309158e-05,-0.01022555980556128
33,0.020991,335.491,331.089,0.240846,332.879,0.665878,0.58615,0.00576663,0.00633552,-0.0108175,0.0294458,4.87811e-05,5.48743e-05,0.017979,0.005783289017514237,0.029883614267257386,4.8782289817195235e-05,0.0063556318574267134,5.487580562202332e-05,-0.010759201251808292
34,0.021991,339.104,334.603,0.235262,336.406,0.702159,0.581136,0.00602918,0.00662649,-0.0113572,0.0308502,5.29966e-05,5.8239e-05,0.018946,0.0060473920886594534,0.03133099893075064,5.2998004344662064e-05,0.006648493760575969,5.824069592352821e-05,-0.01129295046571166
35,0.022991,342.274,337.021,-0.127295,339.954,0.531397,0.621217,0.00629227,0.00691244,-0.0118962,0.0322572,5.3669e-05,6.23212e-05,0.0199139,0.006312107917560761,0.032783102961877475,5.3670440206543546e-05,0.006936386056806132,6.232314200627087e-05,-0.011825719971130466
36,0.023991,345.586,340.125,-0.233497,343.299,0.527427,0.611838,0.00655457,0.00720058,-0.0124344,0.0336609,5.63781e-05,6.56907e-05,0.0208811,0.0065760982042801785,0.03423383856407991,5.637968927496573e-05,0.007226566511375099,6.569285768120992e-05,-0.012357412277408275
37,0.024991,349.4,344.497,0.316819,346.415,0.754342,0.652647,0.00681576,0.00749346,-0.0129717,0.035059,6.31378e-05,6.98441e-05,0.0218467,0.006839040152779141,0.035680812164974096,6.313979323291363e-05,0.0075216062316825205,6.984653915598216e-05,-0.012887930103414713
38,0.025991,352.136,346.444,-0.200764,349.676,0.567562,0.639969,0.00707784,0.00777737,-0.0135096,0.0364633,6.37178e-05,7.32295e-05,0.0228148,0.0071029471092793894,0.037136240419263444,6.371983002217974e-05,0.007807692300333846,7.323218134525078e-05,-0.013418754907682073
39,0.026991,355.622,350.385,0.19476,352.624,0.759763,0.650241,0.00733845,0.00806841,-0.0140461,0.0378601,7e-05,7.69081e-05,0.0237806,0.007365442411290113,0.038585924543573125,7.000245005706063e-05,0.00810104733805539,7.691105750384786e-05,-0.013947913786112487
40,0.027991,358.253,352.26,-0.2291,355.704,0.577275,0.666543,0.00759997,0.0083514,-0.0145828,0.0392621,7.06319e-05,8.07038e-05,0.0247484,0.0076289230730191004,0.040043043211292595,7.063439449139786e-05,0.008386370223299133,8.070705663931754e-05,-0.0144769859515681
41,0.028991,361.185,355.071,-0.23509,358.583,0.588193,0.676915,0.00786069,0.00863732,-0.0151183,0.04066,7.37134e-05,8.44331e-05,0.025715,0.00789166633556615,0.041497936041821504,7.3716116899325e-05,0.00867472927611912,8.443666457447208e-05,-0.015004592246397608
42,0.029991,364.489,358.923,0.252549,361.258,0.802199,0.705127,0.00812032,0.00892736,-0.0156532,0.0420531,8.0384e-05,8.84813e-05,0.0266802,0.00815337922168502,0.042949857917888856,8.038723088032995e-05,0.008967327725174279,8.848521458570957e-05,-0.015531325402663332
43,0.030991,367.208,361.51,0.193931,363.973,0.808161,0.694427,0.0083801,0.0092131,-0.0161886,0.0434484,8.44525e-05,9.19617e-05,0.0276466,0.008415311327427455,0.0444061015667645,8.445606621276802e-05,0.009255671243074914,9.19659286067187e-05,-0.016058268855692948
44,0.031991,369.664,363.394,-0.0482558,366.695,0.674995,0.73337,0.00864022,0.00949538,-0.0167231,0.044845,8.60928e-05,9.62069e-05,0.0286134,0.008677654437075466,0.04586573815519168,8.609650609137098e-05,0.009540604147491472,9.621152803229727e-05,-0.01658404518474821
45,0.032991,372.105,365.563,-0.23438,369.279,0.630959,0.718255,0.00889976,0.00977845,-0.0172572,0.0462395,8.86073e-05,9.96713e-05,0.0295797,0.008939480611220851,0.04732521531098399,8.861122574277402e-05,0.009826415256674492,9.96762673490803e-05,-0.017109147405184322
46,0.033991,374.631,367.999,-0.243329,371.758,0.643861,0.722027,0.0091589,0.0100621,-0.0177904,0.0476319,9.18749e-05,0.000103356,0.0305453,0.00920097106808182,0.04878452667758304,9.187912062791348e-05,0.010112893147168123,0.00010336134141541997,-0.017633085113581748
47,0.034991,377.535,371.429,0.242369,374.06,0.844182,0.755137,0.00941705,0.0103496,-0.0183229,0.0490196,9.84323e-05,0.000107526,0.0315095,0.009461529928950885,0.05024093526063034,9.843714461776898e-05,0.01040334235402085,0.00010753178112743456,-0.01815605624233807
48,0.035991,379.496,372.669,-0.216608,376.511,0.660226,0.745633,0.00967605,0.0106289,-0.0188558,0.0504128,9.92746e-05,0.000111093,0.0324758,0.009723014325970114,0.05170515066725012,9.927952788624239e-05,0.010685587421229048,0.00011109917105578404,-0.018679141491523055
49,0.036991,381.833,374.953,-0.192956,378.776,0.67931,0.753237,0.00993425,0.0109114,-0.0193876,0.0518016,0.000102727,0.000114875,0.0334406,0.009983758468889325,0.05316677349646204,0.00010273227659896023,0.010971146432986911,0.00011488159838557443,-0.019200869184388458
50,0.037991,384.442,378.021,0.194626,380.883,0.85407,0.773969,0.0101915,0.0111971,-0.0199189,0.0531864,0.000108934,0.000118886,0.0344042,0.010243610212752996,0.0546262091244023,0.00010893993352367737,0.011260022153454452,0.00011889306722046022,-0.019721829357266074
51,0.038991,386.66,380.272,0.228573,383.0,0.897224,0.761712,0.0104487,0.0114801,-0.0204504,0.0545721,0.000113674,0.000122405,0.0353683,0.010503478286901569,0.05608861765813322,0.00011368046113391372,0.011546249238946205,0.00012241249179778535,-0.02024270876899703
52,0.039991,388.436,381.312,-0.131759,385.199,0.703433,0.796513,0.0107066,0.0117577,-0.0209811,0.0559606,0.000114518,0.000126637,0.0363332,0.010764120742351668,0.05755601520874731,0.0001145245574365461,0.011827093457108973,0.00012664501880332857,-0.020762528017215565
53,0.040991,390.828,384.27,0.221745,387.096,0.907697,0.774792,0.0109628,0.0120427,-0.0215113,0.0573417,0.000121272,0.000130041,0.0372958,0.011023111685409148,0.059017614896690995,0.00012127935374617316,0.012115505275476002,0.00013004945569727866,-0.021281582111461028
54,0.041991,392.434,385.133,-0.191329,389.177,0.70838,0.790436,0.0112201,0.0123194,-0.0220413,0.058728,0.000122034,0.000133956,0.03826,0.0112832814014443,0.060486749111317906,0.00012204144645155957,0.012395596384603635,0.000133964972505618,-0.021800165436221763
55,0.042991,394.772,388.085,0.234432,390.952,0.925564,0.787123,0.0114757,0.0126039,-0.0225704,0.0601064,0.000128986,0.000137593,0.0392217,0.01154179844524128,0.06194953196462971,0.00012899431905166736,0.012683663907437248,0.0001376024663510833,-0.02231759407087308
56,0.043991,396.24,388.775,-0.204043,392.926,0.713453,0.802057,0.0117325,0.0128795,-0.0230994,0.0614907,0.000129575,0.000141501,0.0401853,0.011801595735626336,0.06342060667116978,0.0001295833952028591,0.012962797988119723,0.00014151101173864866,-0.02283465128991735
57,0.044991,398.095,390.622,-0.171508,394.706,0.736785,0.805482,0.0119883,0.013159,-0.0236275,0.0628703,0.0001332,0.000145253,0.0411472,0.012060447689568932,0.06488871420785847,0.00013320887151380134,0.013245960660297484,0.00014526354972788091,-0.02335055607392289
58,0.045991,400.182,393.135,0.167542,396.357,0.892348,0.821549,0.0122433,0.0134411,-0.0241551,0.0642462,0.000139167,0.00014921,0.0421079,0.01231855601114229,0.06635490302302904,0.00013917668417606777,0.013531837666855617,0.00014922113236570667,-0.02386570041351177
59,0.046991,401.916,394.891,0.178931,398.027,0.922987,0.807012,0.0124982,0.0137207,-0.0246828,0.0656228,0.00014369,0.000152704,0.043069,0.012576628901062037,0.06782385803228741,0.00014370032390242926,0.01381526078937334,0.0001527156598493118,-0.024380670596570564
60,0.047991,403.338,395.741,-0.0774043,399.761,0.771268,0.840689,0.0127536,0.0139961,-0.0252098,0.0670013,0.000145232,0.000156919,0.0440304,0.012835273999656449,0.06929686825962533,0.00014524254667747094,0.014094503962214677,0.00015693131243033065,-0.024894686528071808
61,0.048991,404.825,397.036,-0.223658,401.372,0.732308,0.824325,0.0130084,0.014273,-0.0257363,0.0683773,0.000147994,0.000160418,0.044991,0.013093377308436738,0.07076923350532782,0.00014800495165223637,0.01437534561109377,0.0001604308676554922,-0.025407944348637246
62,0.049991,406.882,399.774,0.29992,402.786,0.964487,0.84557,0.013262,0.0145552,-0.0262618,0.0697472,0.000155166,0.000164456,0.0459494,0.013350330369193086,0.07223708545394825,0.00015517803886644366,0.014661642728248436,0.0001644695236293625,-0.02591995793053059
63,0.050991,407.933,400.033,-0.210917,404.415,0.741011,0.833655,0.0135167,0.014828,-0.0267878,0.0711235,0.000155629,0.000168012,0.04691,0.013608463570205842,0.07371382133735382,0.00015564111082100318,0.014938480183296576,0.00016802611480648544,-0.02643218930399771
64,0.051991,409.458,401.587,-0.162636,405.855,0.769161,0.835936,0.0137705,0.0151051,-0.0273126,0.0724948,0.000159352,0.000171733,0.0478686,0.013865750046532677,0.0751872151020998,0.000159364697204456,0.01521975860548097,0.0001717477469558304,-0.02694298364689207
65,0.052991,411.187,403.726,0.148974,407.185,0.914085,0.848706,0.0140235,0.0153845,-0.0278369,0.0738627,0.000165158,0.000175622,0.0488261,0.014122290532297521,0.07665897007095945,0.00016517163933338352,0.015503450635966587,0.0001756374224461954,-0.027453023721876635
66,0.053991,412.586,405.149,0.150997,408.541,0.938061,0.833248,0.0142765,0.0156614,-0.0283614,0.0752312,0.000169539,0.000179078,0.0497838,0.014378895931016489,0.07813338651084423,0.00016955337254853653,0.015784682476198908,0.00017909403542226698,-0.02796299086036136
67,0.054991,413.745,405.83,-0.0498201,409.953,0.809451,0.865582,0.0145298,0.0159349,-0.028885,0.0766011,0.000171435,0.000183244,0.0507416,0.014635870649829963,0.07961133352570382,0.0001714496958193923,0.016062537581809977,0.0001832607902072514,-0.02847181621624395
68,0.055991,415.355,407.972,0.258364,411.138,0.987547,0.853949,0.0147818,0.016214,-0.0294083,0.0779649,0.000177928,0.000186798,0.0516974,0.014891591108658231,0.08108471193073297,0.0001779438301254821,0.01634616021374624,0.00018681544783283321,-0.02898008391497575
69,0.056991,416.237,408.133,-0.157477,412.515,0.782575,0.852647,0.0150348,0.0164853,-0.0299313,0.0793337,0.000178726,0.000190457,0.0526547,0.015148391165046071,0.08256551391409706,0.0001787419724430528,0.01662193233380882,0.00019047513808589933,-0.02948779455318351
70,0.057991,417.802,410.248,0.18947,413.625,0.966139,0.844008,0.0152862,0.0167638,-0.0304535,0.0806951,0.000185163,0.000193976,0.0536093,0.01540363155295732,0.08404032227900826,0.00018518014372648217,0.016905100971366327,0.00019399481456083834,-0.029994463724033582
71,0.058991,419.014,411.461,0.199002,414.799,0.980291,0.841661,0.0155378,0.017039,-0.0309756,0.0820578,0.000189527,0.00019755,0.0545643,0.01565913924817619,0.0855185509885592,0.00018954496137646437,0.017184991766360458,0.00019756951428617775,-0.03050077143139518
72,0.059991,419.908,411.741,-0.083095,416.054,0.805677,0.877656,0.01579,0.01731,-0.031497,0.0834224,0.000190768,0.000201729,0.0555196,0.015915320786228815,0.08700086075316915,0.00019078619737200597,0.017460686254044955,0.0002017493486630162,-0.031006136569030507
73,0.060991,420.914,412.573,-0.221783,417.19,0.763386,0.860522,0.0160414,0.0175827,-0.0320178,0.0847842,0.000193473,0.000205159,0.0564738,0.016170754004484644,0.08848214690416256,0.0001934917171080297,0.017738185618505042,0.0002051800465470155,-0.0315106571845335
74,0.061991,422.484,414.856,0.286611,418.139,0.996096,0.875116,0.0162916,0.0178609,-0.0325378,0.0861399,0.000200597,0.000209033,0.0574257,0.01642503173595422,0.08995880287580604,0.000200617120923674,0.018021359769442302,0.00020905484891997617,-0.03201414072573172
75,0.062991,423.111,414.746,-0.184469,419.314,0.780546,0.864544,0.016543,0.01813,-0.0330582,0.0875019,0.000201184,0.000212533,0.0583796,0.016680593111651598,0.09144433818522413,0.00020120423885816585,0.01829534618057438,0.0002125555867380502,-0.032517749516525196
76,0.063991,424.504,416.756,0.194967,420.215,0.980793,0.854151,0.0167928,0.0184069,-0.0335775,0.0888559,0.000207811,0.000215985,0.0593306,0.01693459164690725,0.09292315475201463,0.00020783259420165123,0.0185773512037255,0.00021600832643953183,-0.03302003262010578
77,0.064991,425.522,417.791,0.208002,421.195,0.995866,0.850637,0.0170427,0.0186802,-0.0340969,0.0902114,0.00021217,0.000219496,0.0602821,0.01718875535779274,0.09440561659981106,0.00021219250964632508,0.018855766437518184,0.00021952009100956182,-0.033522151603574524
78,0.065991,426.209,417.841,-0.089681,422.269,0.810442,0.886648,0.0172933,0.0189491,-0.0346154,0.0915691,0.00021323,0.000223626,0.0612338,0.01744369480246366,0.09589250024802931,0.0002132527351323965,0.019129773591723964,0.0002236510061579544,-0.03402314047537913
79,0.066991,427.382,419.476,0.146257,423.11,0.960828,0.857516,0.0175423,0.0192241,-0.0351336,0.0929204,0.000219111,0.000226819,0.0621833,0.017697069826350775,0.09737438079070904,0.00021913500656856044,0.019410072818838886,0.0002268447253743755,-0.0345235800089031
80,0.067991,428.226,420.16,0.0665539,424.039,0.921092,0.860202,0.0177918,0.0194953,-0.0356514,0.0942734,0.000222434,0.000230409,0.0631331,0.01795101692385548,0.09886013321277964,0.00022245874027659873,0.01968657432249654,0.00023043554619239792,-0.035023374291267784
81,0.068991,429.115,420.942,0.0688069,424.936,0.897639,0.885224,0.018041,0.0197664,-0.0361685,0.0956249,0.000225852,0.000234364,0.0640821,0.018204721927603362,0.1003462466977989,0.00022587750648317417,0.01996304882722133,0.00023439146538772881,-0.0355222347129438
82,0.069991,429.959,421.773,0.0390681,425.784,0.901228,0.876771,0.0182898,0.0200377,-0.0366853,0.0969749,0.000229613,0.000237856,0.0650304,0.018458082779202023,0.10183271727272136,0.0002296393630825122,0.02023980234228495,0.00023788428998128275,-0.03602054804678778
83,0.070991,430.801,422.544,0.0449991,426.623,0.888923,0.887404,0.0185384,0.0203083,-0.0372015,0.098324,0.000233114,0.000241616,0.0659781,0.018711302932541862,0.10332020294944644,0.00023314117317996264,0.020515916589371574,0.00024164519149683095,-0.036518025829823664
84,0.071991,431.626,423.392,0.0484539,427.416,0.905084,0.8799,0.0187867,0.0205792,-0.0377174,0.0996715,0.000237028,0.000245109,0.066925,0.01896428035490727,0.10480792905327085,0.00023705609335600286,0.020792411800760968,0.00024513904166534317,-0.03701495798562682
85,0.072991,432.394,424.057,0.0242805,428.212,0.883092,0.887834,0.0190348,0.020849,-0.0382326,0.101018,0.000240365,0.000248814,0.0678715,0.01921711675592186,0.10629655492219325,0.00024039388998131628,0.021067858749587387,0.00024884495677079954,-0.03751096009815724
86,0.073991,433.216,424.968,0.0757338,428.949,0.918977,0.883154,0.0192825,0.0211196,-0.0387475,0.102363,0.000244564,0.000252334,0.068817,0.01946960810550502,0.10778552489640592,0.0002445939082131865,0.02134419709905755,0.000252365838901758,-0.03800641813818384
87,0.074991,433.874,425.423,-0.0190131,429.718,0.865633,0.888957,0.0195303,0.0213882,-0.0392619,0.103708,0.000247418,0.000255994,0.0697622,0.019722263977163257,0.1092764988826298,0.0002474486103578588,0.02161856699662601,0.00025602676926017587,-0.038501140383223276
88,0.075991,434.755,426.557,0.142137,430.382,0.952647,0.886269,0.0197773,0.0216593,-0.0397758,0.10505,0.000252377,0.000259531,0.0707061,0.019974166485044575,0.11076614727463441,0.00025240884975441524,0.021895565335567024,0.00025956468108367936,-0.03899512770626612
89,0.076991,435.409,427.151,0.0826553,431.08,0.942946,0.868202,0.0200243,0.0219283,-0.0402895,0.106392,0.000256074,0.000262796,0.0716499,0.020226131220530297,0.11225779611678299,0.0002561067897455249,0.022170492218650306,0.00026283053389386524,-0.03948866913219484
90,0.077991,436.042,427.558,0.0341908,431.795,0.884057,0.898368,0.0202714,0.022196,-0.0408023,0.107733,0.000258909,0.000266767,0.072593,0.020478260246813207,0.11375033434459025,0.0002589425198278317,0.022444163888736046,0.0002668025854803968,-0.03998109307437425
91,0.078991,436.781,428.475,0.100582,432.408,0.946386,0.883532,0.0205177,0.0224657,-0.041315,0.109071,0.000263506,0.000270112,0.0735351,0.02072963499784186,0.11524152967915535,0.0002635407207556284,0.02271995426839779,0.0002701484835310186,-0.04047316861361161
92,0.079991,437.271,428.601,-0.0599645,433.108,0.843378,0.899439,0.0207645,0.0227319,-0.0418271,0.110411,0.000265607,0.000273888,0.0744771,0.02098158216076018,0.1167369550401518,0.0002656422766624811,0.022992238559655265,0.00027392551074267857,-0.04096441650920524
93,0.080991,438.044,429.673,0.0863085,433.664,0.944832,0.875088,0.0210102,0.0230016,-0.0423387,0.111747,0.00027067,0.000277064,0.0754175,0.021232468155579554,0.11822991268572802,0.0002707066344296294,0.02326817677499049,0.0002771023857750521,-0.0414549336287412
94,0.081991,438.641,430.241,0.0684321,434.262,0.944552,0.87212,0.021256,0.0232693,-0.04285,0.113083,0.000274449,0.000280487,0.0763578,0.021483517949007824,0.11972486625569956,0.0002744866645723043,0.023542142334567195,0.00028052634015662825,-0.04194491244741727
95,0.082991,439.182,430.56,0.0198901,434.884,0.886251,0.902294,0.0215019,0.0235356,-0.0433605,0.114418,0.00027726,0.000284426,0.0772974,0.021734731631527948,0.12122069719714545,0.00027729844010626614,0.023814747902891398,0.00028446645291002604,-0.04243387475136573
96,0.083991,439.848,431.419,0.104957,435.406,0.953494,0.889944,0.021747,0.0238039,-0.0438709,0.115751,0.000281906,0.000287782,0.0782359,0.021985189506609437,0.12271628097163778,0.00028194573923068234,0.024089474252645404,0.0002878234132124291,-0.04292249179601548
97,0.084991,440.36,431.852,0.0514356,435.964,0.938201,0.877021,0.0219922,0.0240705,-0.0443808,0.117083,0.000285447,0.000291072,0.0791741,0.022235811000016037,0.12421273547533773,0.00028548774387160414,0.024362532903582146,0.00029111436556505943,-0.043410381219469274
98,0.085991,440.898,432.249,0.0530223,436.522,0.905281,0.905799,0.0222373,0.0243363,-0.0448899,0.118415,0.000288631,0.000294982,0.0801115,0.0224863917047029,0.12571118458454889,0.0002886726579349741,0.024634844653456334,0.0002950255114684275,-0.0438972570496321
99,0.086991,441.44,432.855,0.0558731,437.019,0.932856,0.893116,0.0224818,0.024603,-0.0453989,0.119744,0.000292673,0.000298319,0.0810481,0.02273642019221178,0.12720824932803576,0.0002927158329211199,0.024908151210334628,0.0002983635015378905,-0.04438378951277766
100,0.087991,441.903,433.142,0.00788563,437.552,0.887623,0.907897,0.0227264,0.024868,-0.0459072,0.121074,0.000295617,0.000302045,0.0819841,0.02298661211781594,0.1287084337011104,0.00029566069901121317,0.025179787860671876,0.00030209062018404786,-0.044869405802732576
101,0.088991,442.501,433.931,0.104846,437.999,0.955584,0.897622,0.0229704,0.0251349,-0.0464152,0.122401,0.000300242,0.000305414,0.082919,0.023236251305915,0.1302072240200698,0.00030028707714047087,0.02545344486395451,0.0003054606436041496,-0.04535448892304039
102,0.089991,442.937,434.297,0.0497734,438.48,0.942506,0.88354,0.0232144,0.0254,-0.0469228,0.123727,0.000303792,0.000308674,0.0838536,0.023485951413408035,0.13170687284655935,0.00030383814946288723,0.025725328608785958,0.00030872164472128816,-0.04583894401935762
103,0.090991,443.405,434.628,0.0528887,438.965,0.911146,0.911839,0.0234583,0.0256645,-0.0474296,0.125053,0.000306983,0.000312561,0.0847874,0.023735610081594638,0.13320851152637392,0.0003070301241030471,0.025996668841366866,0.00031260985227898885,-0.046322390326886675
104,0.091991,443.874,435.16,0.0538038,439.392,0.937853,0.899118,0.0237017,0.0259297,-0.0479363,0.126377,0.000310999,0.000315882,0.0857204,0.023984817656420132,0.13470987327779338,0.00031104736520282117,0.02626879924083969,0.00031593189597267646,-0.04680549636645659
105,0.092991,444.272,435.389,0.0100226,439.855,0.894874,0.913774,0.0239452,0.0261933,-0.0484423,0.1277,0.000313967,0.000319589,0.0866528,0.02423418831916546,0.13621208793602224,0.00031401629279725896,0.026539359354575964,0.0003196400740053118,-0.047287690779820424
106,0.093991,444.797,436.094,0.0997049,440.238,0.959279,0.903615,0.024188,0.0264587,-0.048948,0.129021,0.000318527,0.000322945,0.087584,0.024482902572777965,0.1377140159092014,0.0003185777351115693,0.026811839057005793,0.0003229971523504016,-0.04776935559537965
107,0.094991,445.062,436.02,-0.0624935,440.706,0.863826,0.914182,0.0244312,0.0267208,-0.0494531,0.130343,0.000320703,0.000326586,0.0885153,0.02473208711429553,0.1392190684587724,0.00032075443070489484,0.027081001712247588,0.0003266393350136454,-0.048250205844914795
108,0.095991,445.607,436.84,0.0761159,441.048,0.957682,0.893517,0.0246735,0.0269861,-0.0499578,0.131661,0.000325612,0.00032976,0.089445,0.024980409782079604,0.1407215491082494,0.0003256650173415476,0.027353522450279444,0.0003298143768057926,-0.048730432770566434
109,0.096991,445.99,437.19,0.056611,441.435,0.956081,0.891002,0.0249159,0.0272495,-0.0504622,0.13298,0.000329312,0.000333144,0.0903743,0.02522889514862059,0.14222715355937599,0.00032936622914925273,0.02762416300988968,0.00033319949862531395,-0.04921013214992309
110,0.097991,446.343,437.359,0.0274034,441.843,0.909336,0.919521,0.0251583,0.0275117,-0.0509659,0.134297,0.000332259,0.000337011,0.091303,0.025477440755315106,0.14373245774584276,0.0003323142041353755,0.027893641392503055,0.000337067794587087,-0.04968892441240491
111,0.098991,446.781,437.94,0.0840361,442.174,0.9612,0.908262,0.0254,0.0277755,-0.0514693,0.135613,0.000336638,0.000340336,0.0922307,0.025725328608785958,0.1452386004847901,0.0003366946689302708,0.028164835504032926,0.0003403939208670437,-0.05016719061815178
112,0.1,447.025,437.892,-0.038862,442.579,0.879949,0.921799,0.025642,0.0280364,-0.0519721,0.136929,0.000339025,0.000344008,0.0931581,0.025973584176021358,0.1467467266123652,0.00033908247547032033,0.028433118705637916,0.0003440671775376547,-0.050644646512238545
113,0.101,447.322,438.123,-0.105839,442.929,0.867778,0.905327,0.0258836,0.0282982,-0.0524746,0.138243,0.000342224,0.000347239,0.0940846,0.02622148933969637,0.14825454222904488,0.0003422825653136563,0.028702397743203045,0.00034729929444021757,-0.0511215777383599
114,0.102,447.909,439.042,0.152831,443.202,0.981256,0.921107,0.0261246,0.0285623,-0.0529762,0.139554,0.000347436,0.000350933,0.0950096,0.02646883852300652,0.14976089112986224,0.000347496362877564,0.028974113924989497,0.00035099458418907936,-0.05159741580480237
115,0.103,448.044,438.853,-0.0636906,443.579,0.888583,0.908447,0.0263659,0.0288222,-0.053478,0.140866,0.000349696,0.000354209,0.095935,0.026716555339574066,0.15127036741894306,0.0003497571507740105,0.029241579052786237,0.00035427173941515733,-0.052073204836099896
116,0.104,448.318,439.029,-0.123544,443.906,0.866573,0.906904,0.0266069,0.029083,-0.053979,0.142177,0.000352752,0.000357614,0.0968592,0.02696402384816854,0.15278067265939832,0.00035281422430322174,0.02951004026242332,0.0003576779515095385,-0.052547997215054876
117,0.105,448.902,439.986,0.160783,444.143,0.992289,0.923588,0.0268472,0.0293465,-0.0544793,0.143484,0.000358142,0.000361311,0.0977818,0.027210832956025888,0.15428834204588515,0.00035820614050297017,0.029781351901771114,0.00036137628068133587,-0.053021888898159064
118,0.106,448.994,439.715,-0.0712045,444.501,0.888079,0.91279,0.027088,0.0296054,-0.0549797,0.144794,0.00036024,0.000364607,0.098705,0.027458215108217443,0.15580145064370976,0.00036030489422111955,0.030047996809472455,0.00036467347721136356,-0.05349563820299286
119,0.107,449.437,440.398,0.0762544,444.742,0.97119,0.908192,0.0273279,0.0298675,-0.0554793,0.146099,0.000365002,0.000367967,0.0996265,0.02770473190252898,0.15731075614444023,0.0003650686213354515,0.030318007772827116,0.0003680347081611579,-0.05396839367799566
120,0.108,449.709,440.628,0.0518414,445.025,0.966324,0.90636,0.0275679,0.0301279,-0.0559787,0.147405,0.000368636,0.000371346,0.100548,0.02795141063844997,0.15882319139721313,0.0003687039546000914,0.03058633751706763,0.00037141495746118025,-0.054440723911516886
121,0.109,449.97,440.73,0.0328104,445.326,0.927415,0.93295,0.0278078,0.0303872,-0.0564773,0.14871,0.00037169,0.00037517,0.101468,0.02819804576456253,0.16033644284379656,0.00037175908528719326,0.03085360320388464,0.0003752403850663111,-0.05491206225216172
122,0.11,450.29,441.158,0.070892,445.565,0.968244,0.922873,0.0280472,0.0306478,-0.0569758,0.150013,0.000375895,0.000378495,0.102388,0.0284442258432982,0.161849346671614,0.0003759656573785186,0.031122278659770908,0.0003785666382705166,-0.05538307118039976
123,0.111,450.469,441.103,-0.0192762,445.863,0.904998,0.935367,0.0282868,0.0309061,-0.0574736,0.151316,0.000378547,0.000382137,0.103307,0.028690670602713464,0.16336422309798793,0.000378618657957297,0.03138865194497753,0.0003822100236448023,-0.0558531844666611
124,0.112,450.884,441.799,0.13675,446.056,1.00098,0.926942,0.0285256,0.0311673,-0.0579711,0.152615,0.000383558,0.00038549,0.104224,0.02893635126795746,0.16487641517991003,0.0003836315677752111,0.031658085847401374,0.00038556431081837594,-0.05632278068564378
125,0.113,451.084,441.926,0.0767599,446.308,0.986417,0.912338,0.0287645,0.0314261,-0.0584683,0.153915,0.00038712,0.000388702,0.105142,0.02918219352696383,0.16639173926689232,0.00038719494061711934,0.031925113511908076,0.000388777554411579,-0.05679186037621253
126,0.114,451.285,441.916,0.0353708,446.582,0.931639,0.94143,0.0290034,0.0316839,-0.0589647,0.155215,0.000389966,0.000392558,0.106058,0.029428094524702075,0.16790903455619155,0.0003900420466254051,0.03219117810042338,0.0003926350609750884,-0.05725995270659334
127,0.115,451.584,442.363,0.0858798,446.777,0.984721,0.928153,0.0292417,0.0319434,-0.0594609,0.156512,0.000394361,0.000395836,0.106974,0.029673436470959214,0.16942479533238863,0.00039443877052214305,0.032459066468152775,0.0003959143534075782,-0.05772762427914757
128,0.116,451.693,442.167,-0.0395109,447.054,0.899269,0.943297,0.0294804,0.0322,-0.0599565,0.157809,0.000396688,0.000399511,0.107889,0.029919248856785874,0.1709425233257773,0.0003967666910895673,0.03272402945790631,0.0003995908151481764,-0.05819449876750049
129,0.117,451.866,442.28,-0.103314,447.275,0.888857,0.9269,0.0297185,0.0324575,-0.0604517,0.159105,0.000399911,0.000402729,0.108804,0.03016450182614605,0.17246104862785816,0.00039999097506449033,0.032989990136459424,0.0004028101062112377,-0.05866076539456566
130,0.118,452.32,443.059,0.145062,447.426,0.999865,0.941598,0.0299561,0.0327173,-0.0609462,0.160398,0.000405077,0.000406393,0.109717,0.030409297992412876,0.1739780212752049,0.00040515905476712355,0.033258395800283,0.00040647558882267454,-0.0591261425720877
131,0.119,452.49,443.199,0.0895011,447.629,0.997762,0.922308,0.0301936,0.0329748,-0.0614408,0.161691,0.000408808,0.000409552,0.11063,0.03065404926374904,0.17549695663680565,0.00040889157337842263,0.03352449409588676,0.00040963587787068434,-0.05959138371835182
132,0.12,452.628,443.089,0.0205239,447.872,0.931015,0.950379,0.0304314,0.0332307,-0.0619345,0.162984,0.000411473,0.000413394,0.111542,0.0308991679401196,0.17701785725209196,0.0004115576666270382,0.033789006856890236,0.0004134794590753277,-0.06005554886361597
133,0.121,452.926,443.6,0.10809,448.019,1.00445,0.936173,0.0306683,0.0334891,-0.0624281,0.164273,0.000416169,0.00041666,0.112453,0.031143416883149477,0.1785360115103054,0.0004162556103326498,0.03405617245257053,0.0004167468148348341,-0.06051939095905012
134,0.122,453.072,443.658,0.0507745,448.218,0.98579,0.924767,0.0309054,0.0337455,-0.0629213,0.165563,0.000419632,0.00041991,0.113363,0.031387929973173856,0.1800573039878366,0.0004197200578246463,0.034321338448015215,0.00041999817454541066,-0.06098262855164871
135,0.123,453.258,443.707,0.0503833,448.426,0.953616,0.952169,0.0311424,0.0340013,-0.0634136,0.166852,0.000422803,0.000423738,0.114273,0.03163239788088035,0.18157937861903006,0.00042289239378656696,0.03458595168898082,0.0004238277896282394,-0.06144479303249162
136,0.124,453.455,443.961,0.0507395,448.585,0.97827,0.940836,0.0313789,0.0342579,-0.0639059,0.168139,0.000426773,0.000427038,0.115182,0.031876407796014306,0.18310105026497947,0.0004268640805531465,0.03485146050750876,0.000427129193707243,-0.06190673004575642
137,0.125,453.595,443.944,0.0106435,448.785,0.938575,0.954518,0.0316155,0.034513,-0.0643974,0.169426,0.000429783,0.000430691,0.11609,0.03212057863837048,0.18462468156310297,0.00042987536994609776,0.03511548478994975,0.0004307837606853937,-0.06236768959784933
138,0.126,453.854,444.362,0.0887105,448.917,0.996598,0.945487,0.0318515,0.0347697,-0.0648887,0.170711,0.000434232,0.000434029,0.116998,0.03236418783968409,0.18614790273891857,0.00043432629236273,0.03538123304222429,0.00043412320421509776,-0.06282823520965675
139,0.127,453.894,444.106,-0.0486812,449.132,0.913442,0.955628,0.0320879,0.0350235,-0.0653794,0.171996,0.000436592,0.000437629,0.117905,0.03260826758277835,0.18767308251207448,0.0004366873201586685,0.035644046148742836,0.0004377247735414258,-0.06328799258394224
140,0.128,454.017,444.175,-0.102284,449.294,0.904826,0.941747,0.0323238,0.0352782,-0.0658698,0.173279,0.000439851,0.000440877,0.118811,0.03285188860707122,0.18919784500291748,0.00043994774863564956,0.035907858282345995,0.0004409742005484496,-0.06374724353484207
141,0.129,454.406,444.878,0.136954,449.39,1.01232,0.956092,0.0325591,0.0355351,-0.0663594,0.174559,0.000444969,0.000444535,0.119715,0.033094947251188556,0.1907209928511835,0.0004450680133909479,0.03617401719778757,0.00044463382032566834,-0.06420552068900565
142,0.13,454.521,444.962,0.0826406,449.538,1.0096,0.93779,0.0327944,0.0357897,-0.0668491,0.17584,0.000448685,0.000447709,0.12062,0.03333806309373388,0.1922472838236784,0.0004487856741710594,0.036437860688417256,0.00044780923663267913,-0.06466366705922999
143,0.131,454.615,444.826,0.0231593,449.725,0.948541,0.965031,0.0330299,0.0360429,-0.067338,0.177121,0.000451438,0.000451539,0.121523,0.03358144286443565,0.19377553122773605,0.0004515399134692455,0.03670031998068768,0.00045164095907979096,-0.06512084122707318
144,0.132,454.848,445.248,0.0979723,449.824,1.01462,0.951561,0.0332647,0.0362983,-0.0678267,0.178398,0.00045603,0.000454817,0.122426,0.03382415628066027,0.19530095635776323,0.0004561339974884504,0.03696512705683497,0.00045492044493400385,-0.0655776050526341
145,0.133,454.839,444.881,-0.0605338,450.025,0.912091,0.966555,0.0334999,0.0365502,-0.0683148,0.179677,0.000458116,0.000458486,0.123329,0.034067340319539285,0.19683072435904347,0.00045822095116077044,0.037226371474693654,0.00045859112077084596,-0.06603358533256776
146,0.134,455.11,445.423,0.0663253,450.103,1.00466,0.94473,0.0337342,0.0368054,-0.0688025,0.180952,0.000462994,0.000461626,0.12423,0.034309650682926796,0.19835765674514572,0.0004631011982654254,0.037491105423309135,0.00046173256567905163,-0.06648896969849727
147,0.135,455.236,445.514,0.0468296,450.235,1.00213,0.942983,0.0339686,0.0370588,-0.0692899,0.182227,0.000466664,0.000465003,0.12513,0.034552121281490766,0.19988653721167782,0.00046677290458441156,0.03775403898169816,0.0004651111306546163,-0.06694385211081721
148,0.136,455.349,445.472,0.0292574,450.389,0.9636,0.969389,0.034203,0.0373112,-0.0697766,0.183502,0.000469736,0.000468818,0.12603,0.034794648721824695,0.2014173682440259,0.0004698463432315503,0.038016001159373314,0.00046892791233421605,-0.06739786004620185
149,0.137,455.527,445.757,0.0671009,450.485,1.00443,0.959633,0.0344368,0.0375648,-0.0702631,0.184774,0.00047395,0.000472146,0.126929,0.03503661199510044,0.2029465434857043,0.00047406233204716486,0.03827927539902998,0.0004722574784665756,-0.06785146063999836
150,0.138,455.57,445.574,-0.0186775,450.644,0.943094,0.972144,0.0346709,0.0378162,-0.070749,0.186047,0.00047665,0.000475785,0.127828,0.03527894242963914,0.2044788695541726,0.00047676361566217906,0.03854033162225745,0.00047589820363591606,-0.06830428159351343
151,0.139,455.841,446.113,0.126743,450.705,1.03481,0.963874,0.0349042,0.0380703,-0.0712345,0.187317,0.000481609,0.000479142,0.128725,0.03552050118364103,0.20600952948182716,0.0004817249922346445,0.03880425825098088,0.00047925680686367045,-0.06875651007745243
152,0.14,455.91,446.105,0.0665698,450.827,1.01879,0.950648,0.0351376,0.0383222,-0.0717198,0.188587,0.000485149,0.000482379,0.129622,0.035762219876091184,0.20754213458251303,0.0004852667038099945,0.03906596600434198,0.00048249536345945643,-0.06920833289943651
153,0.141,455.996,446.01,0.0384083,450.97,0.972749,0.977996,0.0353711,0.0385732,-0.0722043,0.189856,0.00048814,0.000486214,0.130518,0.036004098592673506,0.20907547825208694,0.000488259159717952,0.03932680429564517,0.00048633222118632524,-0.0696591922326536
154,0.142,456.152,446.278,0.069769,451.048,1.01437,0.966103,0.0356039,0.0388256,-0.0726887,0.191123,0.000492381,0.000489517,0.131413,0.036245308422560685,0.2106083477508014,0.0004925022394224321,0.03958916348938679,0.0004896368329991851,-0.07010974018841143
155,0.143,456.176,446.061,-0.0196619,451.194,0.948582,0.980189,0.0358371,0.0390757,-0.0731724,0.19239,0.000495026,0.00049318,0.132308,0.036486989007345816,0.21214316062604,0.000495148545590629,0.039849197255042546,0.0004933016332511198,-0.07055941934341114
156,0.144,456.436,446.604,0.129776,451.238,1.04488,0.970505,0.0360694,0.0393287,-0.0736558,0.193654,0.000500059,0.000496523,0.133201,0.03672779290318173,0.2136762783073245,0.0005001840503451316,0.04011231238460855,0.0004966462879489875,-0.07100860234382245
157,0.145,456.49,446.578,0.0696817,451.345,1.02813,0.957752,0.0363018,0.0395793,-0.074139,0.194918,0.000503603,0.000499771,0.134094,0.03696875644113118,0.21521133507460255,0.0005037298292804859,0.04037299719253418,0.0004998959063335917,-0.07145738255313949
158,0.146,456.556,446.454,0.0360791,451.475,0.979049,0.985242,0.0365343,0.0398291,-0.0746214,0.196182,0.00050656,0.00050361,0.134987,0.03720987970649703,0.2167483333804281,0.0005066883231836794,0.04063291482959408,0.0005037368328066893,-0.07190520348870189
159,0.147,456.704,446.723,0.0731871,451.538,1.02369,0.97336,0.0367662,0.0400803,-0.0751036,0.197444,0.000510853,0.000506919,0.135878,0.03745043656909108,0.21828483910834295,0.0005109835076162472,0.04089435465326652,0.000507047505149183,-0.07235262291808586
160,0.148,456.705,446.469,-0.0251588,451.674,0.953129,0.987518,0.0369983,0.0403291,-0.0755852,0.198706,0.000513436,0.000510587,0.136769,0.037691256761521075,0.2198232851305546,0.0005135678308243463,0.0411533613878059,0.0005107173717300295,-0.07279927033355793
161,0.149,456.755,446.469,-0.0808505,451.764,0.945462,0.972261,0.0372301,0.0405786,-0.0760664,0.199966,0.000516775,0.000513834,0.137659,0.03793182147521157,0.22136123117235518,0.0005169085512046756,0.04141316156019603,0.0005139660353035147,-0.0732453319936307
162,0.15,457.039,447.008,0.12011,451.802,1.03455,0.986658,0.0374613,0.0408299,-0.076547,0.201223,0.000521658,0.000517511,0.138548,0.03817181905498779,0.22289744754965723,0.0005217940871971027,0.04167490157395126,0.0005176449319204135,-0.07369062327500875
163,0.151,457.084,447.014,0.0626021,451.885,1.02935,0.969325,0.0376925,0.0410793,-0.0770276,0.202481,0.000525328,0.000520717,0.139437,0.038411872128619295,0.2244368206013112,0.0005254660089193397,0.04193472769337414,0.0005208525966318156,-0.07413570060081454
164,0.152,457.141,446.903,0.0343139,451.996,0.986654,0.994518,0.0379238,0.0413277,-0.0775075,0.203738,0.00052837,0.000524536,0.140325,0.038652084574141155,0.22597690542533488,0.0005285096120162258,0.04219357642741506,0.0005246735930641844,-0.07457991628001848
165,0.153,457.272,447.15,0.0686322,452.046,1.02991,0.98259,0.0381546,0.0415774,-0.0779871,0.204993,0.000532646,0.000527851,0.141212,0.038891833141181165,0.22751647231779715,0.0005327878810703623,0.04245384465658497,0.0005279903378545558,-0.07502364133839634
166,0.154,457.267,446.907,-0.0211575,452.164,0.964556,0.996241,0.0383856,0.0418248,-0.0784662,0.206249,0.000535313,0.00053152,0.142098,0.039131844874924715,0.22905920163823246,0.0005354563055739447,0.04271177964299522,0.0005316612817853894,-0.07546669137072115
167,0.155,457.5,447.422,0.127728,452.181,1.0606,0.986847,0.0386158,0.0420751,-0.0789449,0.207501,0.000540358,0.00053488,0.142983,0.039371080560586025,0.23059894743842446,0.0005405040196839739,0.04297280306715878,0.000535023073815255,-0.07590915955235333
168,0.156,457.528,447.369,0.0675906,452.263,1.04352,0.974492,0.0388461,0.0423231,-0.0794234,0.208754,0.00054391,0.000538147,0.143868,0.03961047528568362,0.23214185434887957,0.0005440579458659833,0.04323149239847046,0.0005382918270750991,-0.07635123124542009
169,0.157,457.57,447.228,0.0359415,452.366,0.996119,1.00141,0.0390765,0.0425702,-0.0799011,0.210006,0.00054691,0.000541991,0.144752,0.03985002913473301,0.23368546204730922,0.0005470595825423086,0.043489306751893775,0.0005421379036609775,-0.07679235289196029
170,0.158,457.69,447.461,0.0696563,452.406,1.03851,0.989951,0.0393062,0.0428187,-0.0803786,0.211255,0.000551187,0.000545318,0.145635,0.040088910120856136,0.23522729786543595,0.0005513389314675265,0.04374864606619688,0.0005454667128912405,-0.07723307931164769
171,0.159,457.674,447.203,-0.0217418,452.516,0.971945,1.00378,0.0395363,0.0430649,-0.0808555,0.212505,0.000553848,0.000548995,0.146518,0.04032826211546592,0.23677229741131223,0.0005540014021228057,0.04400564861857448,0.0005491457253361531,-0.07767304193869706
172,0.16,457.897,447.711,0.12783,452.523,1.06858,0.994363,0.0397655,0.043314,-0.0813322,0.213752,0.00055891,0.000552362,0.1474,0.04056673268082567,0.2383155144620388,0.0005590662192969109,0.04426574281903295,0.0005525145799814002,-0.07811261042013318
173,0.161,457.915,447.648,0.0674447,452.595,1.05115,0.98221,0.0399949,0.0435608,-0.0818085,0.214999,0.000562467,0.000555639,0.148281,0.04080546607097557,0.23986065710478477,0.0005626252142250099,0.04452349941021572,0.0005557933959439154,-0.07855160082992485
174,0.162,457.949,447.497,0.0355645,452.69,1.00384,1.00894,0.0402244,0.0438066,-0.0822841,0.216246,0.000565477,0.000559487,0.149161,0.04104435833727793,0.24140772774226127,0.0005656369122595262,0.04478027484277858,0.000559643542044741,-0.07898973749141336
175,0.163,458.059,447.72,0.068912,452.721,1.04587,0.997635,0.0404532,0.044054,-0.0827596,0.21749,0.000569757,0.000562824,0.150041,0.04128257653758838,0.24295299991558394,0.000569919342350067,0.045038785459219355,0.0005629824151460738,-0.07942757376741194
176,0.164,458.035,447.457,-0.0213834,452.821,0.980005,1.01136,0.0406823,0.044299,-0.0832345,0.218735,0.000572439,0.000566506,0.15092,0.04152116170476039,0.2445014401044865,0.000572602874472139,0.04529485132844502,0.0005666664948296152,-0.07986464982070651
177,0.165,458.248,447.95,0.125734,452.821,1.07539,1.00206,0.0409106,0.0445469,-0.083709,0.219977,0.000577491,0.000569883,0.151797,0.04175896813054836,0.24604807115216198,0.0005776577800307159,0.04555401204373277,0.0005700454141677191,-0.08030115047639619
178,0.166,458.258,447.879,0.0655265,452.885,1.05785,0.990125,0.0411391,0.0447925,-0.0841833,0.221219,0.000581053,0.00057317,0.152675,0.041997037253127534,0.24759662430898155,0.0005812218439953387,0.04581083164524702,0.0005733342933122998,-0.08073726020912642
179,0.167,458.285,447.728,0.0359812,452.971,1.01217,1.01652,0.0413676,0.0450372,-0.0846568,0.22246,0.000584095,0.000577021,0.153552,0.04223516078071676,0.24914585281721036,0.0005842656167016624,0.046066772868882166,0.0005771875086419964,-0.08117242808229297
180,0.168,458.385,447.934,0.066251,452.996,1.05227,1.00547,0.0415955,0.0452834,-0.0851302,0.223699,0.000588357,0.00058037,0.154427,0.04247271324193358,0.25069450371997126,0.0005885301159294087,0.04632434621434012,0.0005805384472541419,-0.08160729811298106
181,0.169,458.359,447.68,-0.0184088,453.087,0.989623,1.01899,0.0418237,0.0455273,-0.085603,0.224939,0.000591096,0.000584057,0.155303,0.042710632660668546,0.25224632683607573,0.0005912707316666488,0.04657957584637029,0.0005842275945002751,-0.08204141154992994
182,0.17,458.556,448.141,0.119673,453.082,1.08013,1.00994,0.0420511,0.0457739,-0.0860754,0.226175,0.000596086,0.000587445,0.156177,0.0429477720202589,0.25379506021610787,0.0005962636945651134,0.04683769419445816,0.0005876175796060146,-0.08247495277661354
183,0.171,458.559,448.064,0.0603156,453.14,1.06275,0.9983,0.0422786,0.0460183,-0.0865476,0.227412,0.000599649,0.000590746,0.157051,0.04318506962997315,0.2553469643604187,0.0005998288254038808,0.047093572593986055,0.0005909205247831562,-0.08290810582842845
184,0.172,458.587,447.928,0.0379716,453.216,1.02158,1.02409,0.0425062,0.046262,-0.0870191,0.228648,0.000602765,0.000594597,0.157924,0.04342252557328208,0.2568995324978227,0.000602946699328033,0.047348780393434486,0.0005947738078375675,-0.08334041273216886
185,0.173,458.672,448.104,0.0599415,453.237,1.05671,1.01349,0.0427332,0.0465068,-0.0874904,0.229882,0.000606961,0.00059796,0.158796,0.043659409371881175,0.2584515038903348,0.0006071452381009035,0.047605202759692045,0.0005981388137201726,-0.08377233260573502
186,0.174,458.653,447.882,-0.010447,453.317,1.00213,1.0266,0.0429604,0.0467497,-0.0879611,0.231116,0.00060983,0.00060165,0.159667,0.04389655572849649,0.26000539159766833,0.0006100159841186947,0.047859696970512955,0.0006018310276645344,-0.08420349948569161
187,0.175,458.823,448.279,0.10609,453.313,1.08082,1.01806,0.0431869,0.046995,-0.0884316,0.232347,0.000614656,0.000605053,0.160538,0.04413302507751182,0.26155741330809823,0.0006148449397080924,0.048116768482711736,0.0006052360814892133,-0.08463428039002896
188,0.176,458.822,448.2,0.0489185,453.364,1.06417,1.00688,0.0434136,0.0472382,-0.0889017,0.233579,0.000618215,0.00060837,0.161408,0.04436975686683131,0.26311260984565155,0.0006184061342784375,0.04837170147940251,0.0006085550945618134,-0.08506449268549476
189,0.177,458.859,448.106,0.0428599,453.428,1.03294,1.03154,0.0436402,0.0474809,-0.0893711,0.23481,0.00062148,0.000612215,0.162277,0.044606437868682125,0.26466845889698987,0.0006216731587078694,0.048626172170120885,0.0006124024418527885,-0.08549386263161796
190,0.178,458.921,448.224,0.0468734,453.45,1.05742,1.02179,0.0438663,0.0477244,-0.0898404,0.236039,0.000625527,0.000615598,0.163146,0.044842650087069336,0.2662236919279144,0.0006257226828134677,0.04888154373327036,0.0006157875193359974,-0.08592293967108255
191,0.179,458.925,448.081,0.00670054,453.514,1.01991,1.0341,0.0440926,0.0479665,-0.0903091,0.237267,0.000628658,0.000619287,0.164014,0.04507912473488118,0.26777956973505557,0.0006288556468556639,0.049135508696226404,0.0006194787977846783,-0.08635126720286046
192,0.18,459.047,448.35,0.0786946,453.519,1.07397,1.02656,0.0443183,0.0482101,-0.0907774,0.238494,0.000633131,0.000622711,0.164881,0.045315025713758006,0.26933608999701897,0.0006333314697373194,0.04939110923702672,0.0006229049247457041,-0.08677902873624876
193,0.181,458.974,448.013,-0.041735,453.601,0.999719,1.03608,0.0445443,0.048451,-0.0912454,0.239721,0.000635719,0.000626359,0.165747,0.04555129360683541,0.27089452128151637,0.0006359211121500508,0.04964393800724465,0.0006265552037609812,-0.08720631615774477
194,0.182,458.985,447.987,-0.0822315,453.637,0.995738,1.02415,0.0447699,0.0486928,-0.0917129,0.240947,0.000639173,0.000629701,0.166613,0.045787196587528944,0.27245359348058207,0.0006393773145905168,0.04989777259882011,0.0006298993032964884,-0.08763294747210104
195,0.183,459.207,448.458,0.107392,453.625,1.08249,1.03694,0.044995,0.0489364,-0.0921798,0.242169,0.000644082,0.00063341,0.167477,0.04602262978249283,0.27400948222622357,0.000644289465350445,0.05015355884972572,0.000633610646475713,-0.0880588322183955
196,0.184,459.206,448.417,0.0544493,453.659,1.07714,1.02166,0.0452201,0.049178,-0.0926468,0.243393,0.000647801,0.000636699,0.168342,0.04625811597943397,0.2755698245671754,0.0006480108683830643,0.05040730660103798,0.0006369017358331952,-0.08848460931705882
197,0.185,459.221,448.284,0.0331563,453.719,1.04006,1.04519,0.0454453,0.0494187,-0.0931129,0.244615,0.000650991,0.000640546,0.169205,0.04649375983965531,0.2771295236748619,0.0006512029406289255,0.05066017007063439,0.0006407511933985699,-0.08890936764303847
198,0.186,459.295,448.453,0.058313,453.726,1.07667,1.03474,0.04567,0.0496607,-0.093579,0.245836,0.000655232,0.000643937,0.170068,0.04672893340825213,0.2786898512093787,0.0006554467113795148,0.0509144605997045,0.0006441443719391593,-0.08933392803529427
199,0.187,459.263,448.222,-0.0119458,453.792,1.02299,1.04733,0.0458948,0.0499006,-0.0940444,0.247057,0.000658143,0.000647644,0.17093,0.04696426452270863,0.28025208506738886,0.0006583596236247047,0.05116660522234073,0.0006478537666576578,-0.08975765341664232
200,0.188,459.419,448.602,0.10363,453.775,1.10098,1.0392,0.046119,0.0501428,-0.0945096,0.248275,0.000662987,0.000651079,0.171791,0.047199020225945576,0.28181238213502025,0.0006632068244587508,0.05142122860777265,0.0006512909979388137,-0.09018099967829774
201,0.189,459.406,448.511,0.0469405,453.814,1.08427,1.02843,0.0463433,0.0503831,-0.0949745,0.249493,0.000666571,0.000654428,0.172652,0.04743393331069967,0.28337458080231914,0.0006667932078188166,0.05167391548812006,0.0006546421847237749,-0.0906038762262773
202,0.19,459.433,448.412,0.0420483,453.865,1.05451,1.05245,0.0465676,0.0506229,-0.0954387,0.25071,0.000669887,0.00065829,0.173512,0.0476688990923686,0.28493739844880417,0.0006701114244065387,0.051926137133220696,0.0006585067204143424,-0.0910259199430078
203,0.191,459.48,448.511,0.044151,453.877,1.07734,1.04317,0.0467914,0.0508634,-0.0959027,0.251926,0.000673941,0.000661705,0.174371,0.047903393630945645,0.2865008327006946,0.000674168149261245,0.05217915579347543,0.0006619239750498274,-0.09144758608204473
204,0.192,459.477,448.37,0.00825523,453.928,1.04271,1.05511,0.0470153,0.0511026,-0.0963661,0.253142,0.000677145,0.000665415,0.17523,0.04813804546907252,0.2880661692449946,0.0006773743144323774,0.05243086715101941,0.0006656364376744772,-0.09186851173464816
205,0.193,459.58,448.607,0.0728097,453.924,1.09249,1.04803,0.0472387,0.0513432,-0.0968293,0.254355,0.000681587,0.000668872,0.176087,0.04837222566538446,0.28962954150187126,0.0006818193332014388,0.05268411248184757,0.0006690957447590407,-0.09228906083332222
206,0.194,459.509,448.294,-0.0351696,453.991,1.02508,1.05725,0.0474623,0.0515813,-0.097292,0.255569,0.000684307,0.000672542,0.176945,0.0486066679047088,0.2911961024753662,0.0006845411914517818,0.05293478641057647,0.0006727682070792884,-0.09270896153335628
207,0.195,459.509,448.26,-0.0741416,454.017,1.02157,1.04563,0.0476856,0.0518203,-0.0977544,0.256781,0.000687817,0.000675915,0.177801,0.04884084791887733,0.2927619808821984,0.0006880536003555093,0.05318646789926862,0.0006761434820188317,-0.09312839592883759
208,0.196,459.707,448.681,0.0996825,453.999,1.10053,1.05847,0.0479084,0.0520607,-0.0982161,0.257991,0.000692649,0.000679653,0.178656,0.04907455569387298,0.29432716962729066,0.000692888936712821,0.05343968436155078,0.0006798840164341513,-0.09354700190581133
209,0.197,459.695,448.628,0.0468986,454.024,1.09459,1.04382,0.0481313,0.0522994,-0.0986779,0.259201,0.000696378,0.000682978,0.179511,0.04930842047559891,0.29589425339702324,0.0006966205274530068,0.053691170427875745,0.0006832112825800873,-0.0939655052604692
210,0.198,459.711,448.517,0.0359004,454.07,1.06417,1.06634,0.0483541,0.0525374,-0.0991389,0.26041,0.000699694,0.00068684,0.180365,0.04954223243736622,0.2974619370231777,0.0006999388429484998,0.053941978771446575,0.0006870759286048411,-0.09438309090165842
211,0.199,459.763,448.64,0.0485482,454.072,1.09311,1.0567,0.0485765,0.0527763,-0.0995997,0.261618,0.000703853,0.00069027,0.181219,0.04977567658788762,0.2990302180941573,0.0007041007626489293,0.05419379558849635,0.0006905082911616844,-0.09480030304031173
212,0.2,459.742,448.46,-0.000547445,454.122,1.05166,1.06859,0.048799,0.0530135,-0.10006,0.262826,0.000706977,0.000693995,0.182072,0.05000927766308427,0.3006003947933995,0.000707226967142871,0.05444388001565037,0.0006942358702477502,-0.09521687058044781
213,0.201,459.858,448.743,0.0830533,454.107,1.11187,1.06135,0.049021,0.0532526,-0.10052,0.264031,0.000711592,0.000697469,0.182924,0.050242405598968976,0.3021685629006585,0.0007118452416519094,0.05469602769041537,0.0006977122880615916,-0.09563297510860203
214,0.202,459.756,448.353,-0.0513842,454.178,1.02991,1.07096,0.0492433,0.0534886,-0.10098,0.265237,0.00071412,0.000701159,0.183775,0.05047590043772332,0.30373992552872764,0.0007143750443943109,0.054944965326436,0.0007014048694327091,-0.09604888827269042
215,0.203,459.756,448.325,-0.0855218,454.198,1.02828,1.05999,0.0494651,0.0537258,-0.101439,0.266441,0.000717652,0.000704561,0.184626,0.05070892183355791,0.30531057373955073,0.0007179095738090169,0.055195227952185455,0.0007048092614030388,-0.09646370662487858
216,0.204,459.963,448.785,0.10239,454.17,1.11674,1.07149,0.0496865,0.0539647,-0.101897,0.267643,0.000722635,0.000708301,0.185476,0.05094157454255632,0.3068805003860806,0.0007228961635765696,0.05544734420623065,0.0007085519043883437,-0.09687743149701655
217,0.205,459.948,448.733,0.0522105,454.19,1.11159,1.05728,0.049908,0.0542016,-0.102356,0.268845,0.000726406,0.00071165,0.186325,0.051174383884000196,0.3084523152190122,0.0007266698967332008,0.055697409301114,0.0007119032829405736,-0.09729186963513059
218,0.206,459.95,448.589,0.0307157,454.234,1.07532,1.08004,0.0501294,0.0544378,-0.102814,0.270047,0.000729661,0.000715532,0.187174,0.0514071396577056,0.31002602050931016,0.0007299272673451096,0.05594679448042128,0.0007157880540895611,-0.09770521529545606
219,0.207,460.009,448.74,0.0556639,454.229,1.111,1.07028,0.0503504,0.054675,-0.103272,0.271246,0.000733942,0.00071898,0.188021,0.05163952631334956,0.31159768373171737,0.0007342114013340062,0.056197294768231654,0.0007192385280754277,-0.09811837168681503
220,0.208,459.966,448.507,-0.0116983,454.28,1.05949,1.08244,0.0505716,0.0549103,-0.103729,0.272446,0.000736941,0.000722726,0.188869,0.051872174706533825,0.3131725456803811,0.0007372126077342944,0.05644584723274115,0.0007229872293641471,-0.09853043742676093
221,0.209,460.102,448.856,0.0972916,454.253,1.13386,1.07483,0.0507921,0.0551479,-0.104186,0.273643,0.000741785,0.000726217,0.189715,0.0521041380940801,0.31474535435575834,0.0007420601905330226,0.05669688858857569,0.0007264807594105083,-0.09894231489568683
222,0.21,460.077,448.754,0.0418889,454.279,1.11716,1.06482,0.0510127,0.0553836,-0.104642,0.27484,0.000745414,0.000729626,0.190561,0.052336257868813574,0.31632004681033665,0.0007456918900590193,0.05694598139965068,0.0007298922417984244,-0.09935310353316695
223,0.211,460.096,448.66,0.0416191,454.315,1.09139,1.08768,0.0512333,0.0556188,-0.105098,0.276037,0.000748842,0.00073352,0.191406,0.052568428854817606,0.31789662530035034,0.0007491224521709583,0.057194604331386456,0.0007337890915859457,-0.09976370489373065
224,0.212,460.125,448.727,0.0379226,454.318,1.10994,1.07928,0.0514535,0.0558546,-0.105554,0.277232,0.000752886,0.000736995,0.19225,0.05280022994321465,0.31947245313718997,0.0007531694898053054,0.05744392021227496,0.0007372666475451428,-0.10017411906275697
225,0.213,460.121,448.609,0.0131633,454.353,1.08242,1.0905,0.0516737,0.0560894,-0.106009,0.278426,0.000756252,0.000740743,0.193094,0.053032082079831566,0.32104884416439905,0.0007565380306429059,0.05769223719601402,0.0007410174178494877,-0.10058344670948205
226,0.214,460.195,448.785,0.0600261,454.344,1.12197,1.0843,0.0518935,0.0563252,-0.106464,0.279619,0.000760599,0.000744261,0.193937,0.05326356397040044,0.3226257959001646,0.0007608883287690826,0.057941670432567705,0.0007445380309416549,-0.10099258815449197
227,0.215,460.139,448.538,-0.0200758,454.391,1.07018,1.09283,0.0521135,0.056559,-0.106919,0.280812,0.000763608,0.00074797,0.19478,0.053495307445321494,0.32420463006199496,0.0007638996228125361,0.05818904611220477,0.000748249799316536,-0.1014015434824892
228,0.216,460.284,448.906,0.103081,454.36,1.14746,1.08822,0.0523328,0.0567951,-0.107373,0.282002,0.000768515,0.000751522,0.195621,0.053726364300702434,0.3257813715468836,0.0007688103833165538,0.058438914041740286,0.0007518044634129417,-0.10180941458800141
229,0.217,460.254,448.799,0.0449185,454.383,1.13082,1.07739,0.0525522,0.0570293,-0.107827,0.283193,0.000772168,0.00075494,0.196462,0.053957577228160636,0.3273613178316481,0.000772466198458277,0.0586868294651719,0.0007552250389264437,-0.1022171005620599
230,0.218,460.265,448.691,0.03991,454.418,1.10277,1.10014,0.0527716,0.0572629,-0.10828,0.284383,0.000775584,0.000758849,0.197302,0.05418884088930054,0.32894181801096223,0.0007758848430419185,0.05893416759650383,0.0007591369987469676,-0.10262370411284771
231,0.219,460.295,448.767,0.0402565,454.417,1.12378,1.09158,0.0529906,0.0574973,-0.108733,0.285571,0.000779686,0.000762341,0.198142,0.05441973352727625,0.33052153905926795,0.000779990034141198,0.05918241085836229,0.0007626316557549639,-0.10303012351394025
232,0.22,460.282,448.629,0.00892565,454.451,1.09262,1.10291,0.0532096,0.0577305,-0.109186,0.286759,0.000783018,0.000766107,0.198981,0.054650676736277104,0.33210313793138524,0.0007833246386235171,0.05942944099916936,0.0007664005349226066,-0.10343635884873814
233,0.221,460.362,448.827,0.0646363,454.437,1.13721,1.09658,0.0534282,0.0579649,-0.109638,0.287944,0.000787459,0.000769642,0.199819,0.054881248574795594,0.33368261580564607,0.0007877691272371035,0.05967780036672021,0.0007699382504013919,-0.10384151404256681
234,0.222,460.292,448.543,-0.027832,454.486,1.07844,1.10537,0.053647,0.0581971,-0.11009,0.289131,0.000790386,0.000773371,0.200657,0.05511208184422234,0.3352666370012005,0.0007906984373244885,0.05992388612141575,0.0007736701284593028,-0.10424648614762899
235,0.223,460.451,448.956,0.112404,454.447,1.1655,1.10043,0.0538651,0.0584319,-0.110542,0.290314,0.000795457,0.000776939,0.201493,0.05534222688567714,0.3368471921468108,0.0007957734598238453,0.0601727854695171,0.0007772408952846366,-0.10465127524666229
236,0.224,460.417,448.842,0.0522469,454.468,1.14775,1.08965,0.0540833,0.0586646,-0.110993,0.291498,0.000799132,0.000780374,0.202329,0.05557252768448695,0.33843095662586675,0.0007994513910496437,0.06041951638272414,0.0007806785710111619,-0.10505498647780043
237,0.225,460.414,448.7,0.0359383,454.505,1.11315,1.11284,0.0543015,0.0588967,-0.111444,0.292681,0.000802479,0.000784307,0.203165,0.05580287874041412,0.3400152573766817,0.0008028010724190349,0.06066566831730369,0.0007846146491603534,-0.10545851567622488
238,0.226,460.453,448.805,0.047414,454.497,1.14061,1.10397,0.0545193,0.0591297,-0.111894,0.293862,0.000806698,0.000787814,0.204,0.05603285765119792,0.341598750264144,0.000807023468343937,0.060912832211497125,0.0007881244069583015,-0.10586096878542961
239,0.227,460.42,448.615,-0.00163175,454.535,1.09944,1.11568,0.0547372,0.0593612,-0.112344,0.295043,0.000809905,0.000791602,0.204834,0.05626299228313769,0.3431841143614385,0.0008102330616148734,0.061158461962700805,0.0007919153995536998,-0.10626324083147742
240,0.228,460.522,448.879,0.078495,454.511,1.15789,1.10885,0.0549546,0.0595944,-0.112794,0.296222,0.000814571,0.000795151,0.205667,0.056492648820421154,0.3447686623397548,0.0008149028530568536,0.06140595297236051,0.000795467216364143,-0.1066653318958285
241,0.229,460.415,448.497,-0.048643,454.569,1.07953,1.11839,0.0551723,0.0598248,-0.113243,0.297402,0.000817231,0.000798905,0.2065,0.05672267230721739,0.34635642595761684,0.0008175650242392418,0.06165052907801094,0.0007992242095999913,-0.10706634912670188
242,0.23,460.409,448.469,-0.0782605,454.578,1.0796,1.10818,0.0553895,0.0600563,-0.113692,0.29858,0.00082088,0.000802386,0.207332,0.05695221739933709,0.34794336835295114,0.0008212170141970176,0.061896329625808155,0.0008027079977628304,-0.10746718634125518
243,0.231,460.588,448.878,0.0915509,454.544,1.16032,1.11911,0.0556064,0.0602892,-0.11414,0.299756,0.000825832,0.00080619,0.208163,0.05718149519956972,0.34952948220628355,0.0008261730931349298,0.062143674083121825,0.0008065150585052638,-0.10786695148769532
244,0.232,460.44,448.431,-0.0858893,454.603,1.07396,1.1187,0.0558236,0.0605188,-0.114588,0.300933,0.00082836,0.000809806,0.208995,0.05741113995884506,0.3511188135448542,0.0008287031848985826,0.06238757026890207,0.0008101339814066133,-0.10826653757946103
245,0.233,460.452,448.434,-0.0927681,454.61,1.07822,1.11347,0.0560404,0.0607497,-0.115036,0.302108,0.000832049,0.000813359,0.209825,0.0576404115461302,0.352707311210388,0.0008323952487945263,0.06263290388155274,0.0008136898661297298,-0.10866594469675095
246,0.234,460.643,448.881,0.0900224,454.57,1.16712,1.12339,0.0562567,0.0609822,-0.115483,0.303281,0.000837118,0.000817155,0.210654,0.057869203910149825,0.3542949678650238,0.0008374684810641408,0.06287999475490613,0.0008174889621070935,-0.10906428198445506
247,0.235,460.488,448.409,-0.0930039,454.632,1.07488,1.12469,0.0564734,0.061211,-0.11593,0.304456,0.000839566,0.000820801,0.211483,0.058098469006613085,0.3558871997052817,0.0008399185341858573,0.06312320952041417,0.0008211379493239246,-0.10946244125518134
248,0.236,460.641,448.819,0.0475585,454.59,1.16277,1.11432,0.0566893,0.061443,-0.116377,0.305627,0.000844596,0.000824304,0.21231,0.058326937128317935,0.357475873603166,0.0008449527716372085,0.06336988271800759,0.0008246438319108318,-0.1098604225884856
249,0.237,460.55,448.455,-0.0612459,454.646,1.08614,1.13284,0.0569057,0.0616718,-0.116823,0.306799,0.000847278,0.000828192,0.213138,0.058555983859474914,0.3590677679949257,0.0008476370414001178,0.06361320958270511,0.0008285350456904705,-0.11025733632166923
250,0.238,460.553,448.46,-0.0789926,454.649,1.09294,1.12373,0.0571217,0.0619017,-0.117269,0.30797,0.000851035,0.000831714,0.213965,0.05878465664776056,0.36066016851979144,0.0008513972330359554,0.06385776236985397,0.0008320599699982445,-0.11065407307079833
251,0.239,460.725,448.857,0.0841497,454.614,1.1719,1.13377,0.0573372,0.062133,-0.117714,0.309138,0.000855979,0.000835529,0.214791,0.059012849328146544,0.362250348080706,0.000856345454575802,0.0641038611305147,0.0008358781515902525,-0.11104974396497846
252,0.24,460.587,448.44,-0.0799406,454.668,1.09166,1.13375,0.057553,0.062361,-0.11816,0.310307,0.00085862,0.000839173,0.215616,0.059241408961729025,0.3638437498995186,0.0008589887196746027,0.06434650447114221,0.0008395252041750734,-0.1114461273790982
253,0.241,460.597,448.443,-0.0866351,454.673,1.09642,1.12835,0.0577685,0.0625903,-0.118604,0.311475,0.000862354,0.000842747,0.216441,0.05946970008284502,0.3654376500558896,0.0008627259341158489,0.06459058710762222,0.0008431022110302333,-0.11184055772852453
254,0.242,460.776,448.86,0.0851547,454.635,1.17956,1.13844,0.0579835,0.0628211,-0.119049,0.31264,0.000867369,0.000846569,0.217265,0.059697510557111144,0.3670293118811976,0.00086774527327238,0.06483632297195441,0.0008469274406770477,-0.11223570075449141
255,0.243,460.631,448.42,-0.0850984,454.691,1.09423,1.13956,0.0581989,0.0630484,-0.119493,0.313807,0.000869945,0.000850236,0.218089,0.05992579398612796,0.3686255663214688,0.000870323511904969,0.06507838777778896,0.0008505975530890275,-0.11262978061115425
256,0.244,460.643,448.427,-0.0899166,454.695,1.09991,1.13433,0.0584139,0.0632771,-0.119936,0.314972,0.000873694,0.000853822,0.218911,0.06015370253112562,0.37022094423342633,0.0008740757817815581,0.06532199906096214,0.0008541866097671047,-0.11302279855844077
257,0.245,460.825,448.856,0.08556,454.655,1.18582,1.14393,0.0586284,0.0635073,-0.12038,0.316135,0.000878756,0.000857647,0.219733,0.06038112989103084,0.37181543821009533,0.0008791422191762877,0.06556726441410521,0.0008580148843524427,-0.11341652902124988
258,0.246,460.676,448.406,-0.0876647,454.712,1.09829,1.14538,0.0588433,0.0637339,-0.120823,0.317299,0.000881309,0.000861326,0.220555,0.06060903028286457,0.3734131610744833,0.0008816974668881539,0.06580874931542735,0.0008616970477626218,-0.11380919851617854
259,0.247,460.688,448.416,-0.0912145,454.715,1.10469,1.14021,0.0590578,0.063962,-0.121265,0.318461,0.000885074,0.000864922,0.221376,0.06083655532104815,0.37500999474834007,0.0008854657935730703,0.06605188802006134,0.0008652961528963221,-0.11420080829829704
260,0.248,460.871,448.848,0.0851398,454.674,1.19154,1.14955,0.0592718,0.0641916,-0.121707,0.319621,0.000890159,0.000868754,0.222195,0.061063598636655,0.3766059318067845,0.0008905553091065332,0.0662966816347823,0.0008691314760596036,-0.11459224502713938
261,0.249,460.721,448.396,-0.0881938,454.731,1.10361,1.15117,0.0594862,0.0644177,-0.122149,0.320782,0.000892715,0.000872444,0.223015,0.06129111506109197,0.3782050994307886,0.0008931135886354191,0.06653779857174236,0.0008728246899687431,-0.11498350877917829
262,0.25,460.734,448.407,-0.0910483,454.733,1.11041,1.14603,0.0597002,0.0646452,-0.122591,0.321941,0.000896496,0.00087605,0.223834,0.061518255662892596,0.3798033651571071,0.0008968979726522441,0.06678046352300915,0.0008764338438818076,-0.11537459963085261
263,0.251,460.915,448.837,0.0842159,454.692,1.19695,1.15526,0.0599137,0.0648742,-0.123032,0.323098,0.000901586,0.000879889,0.224652,0.061744914005393836,0.3814007215430717,0.0009019925508286786,0.06702478422280822,0.0008802762158868216,-0.11576463342364296
264,0.252,460.766,448.389,-0.0873788,454.748,1.10976,1.15695,0.0601277,0.0650997,-0.123473,0.324257,0.000904164,0.000883589,0.22547,0.061972151730560254,0.3830026931425572,0.0009045728794916386,0.06726542544292835,0.0008839794797599332,-0.1161544952494521
265,0.253,460.779,448.401,-0.0899555,454.75,1.11673,1.15184,0.0603412,0.0653266,-0.123913,0.325414,0.00090796,0.000887204,0.226287,0.06219890699021735,0.3846037532932154,0.0009083723204614813,0.0675076154433778,0.0008875976818856213,-0.11654330172784433
266,0.254,460.957,448.825,0.0830027,454.708,1.20219,1.16104,0.0605543,0.0655549,-0.124353,0.326568,0.000913045,0.000891053,0.227102,0.06242528569709149,0.3862025083287475,0.0009134619524751031,0.06775135525382425,0.0008914501056629387,-0.11693193716901706
267,0.255,460.811,448.383,-0.0857491,454.763,1.11644,1.16275,0.0607677,0.0657798,-0.124793,0.327724,0.000915654,0.000894762,0.227918,0.0626520314459702,0.387805885001538,0.0009160733391040399,0.06799151953908256,0.0008951624189359464,-0.11732040164821
268,0.256,460.823,448.394,-0.0883146,454.765,1.12343,1.15765,0.0609807,0.0660062,-0.125232,0.328878,0.000919464,0.000898387,0.228733,0.06287840043610982,0.38940833743004677,0.0009198868366080415,0.06823334019217109,0.0008987906704760462,-0.1177078129488841
269,0.257,460.998,448.81,0.0816315,454.724,1.20736,1.16688,0.0611933,0.0662339,-0.125671,0.330029,0.000924538,0.000902245,0.229547,0.06310439240613763,0.3910084671244134,0.0009249655169984994,0.06847660461833671,0.0009026521454591485,-0.11809505421332289
270,0.258,460.854,448.377,-0.0836564,454.777,1.12343,1.16856,0.0614063,0.0664582,-0.12611,0.331182,0.000927185,0.000905963,0.230361,0.06333085775942404,0.3926132248520562,0.0009276149688888236,0.06871629080055297,0.0009063735084378077,-0.11848212551615589
271,0.259,460.865,448.388,-0.0863732,454.778,1.13036,1.16348,0.0616188,0.066684,-0.126548,0.332333,0.000931008,0.000909598,0.231174,0.06355683957641567,0.39421704549557934,0.0009314415224752626,0.06895763418565859,0.0009100118097180587,-0.11886814580056615
272,0.26,461.037,448.795,0.0801853,454.738,1.2125,1.17277,0.061831,0.0669111,-0.126986,0.333482,0.000936068,0.000913467,0.231986,0.06378255028483304,0.3958199215568079,0.00093650624838304,0.06920042203189869,0.0009138843380451789,-0.11925399704511441
273,0.261,460.897,448.372,-0.0813269,454.79,1.13061,1.17441,0.0620435,0.0671349,-0.127423,0.334633,0.000938756,0.000917193,0.232798,0.0640086280966854,0.3974274352331708,0.0009391967693279657,0.06943973586456842,0.0009176137501261117,-0.11963879896306284
274,0.262,460.907,448.382,-0.0842893,454.791,1.13742,1.16933,0.0622555,0.06736,-0.12786,0.335781,0.000942593,0.000920837,0.233609,0.06423422183793348,0.3990326031188969,0.0009430373803940295,0.06968049384540564,0.0009212611005560145,-0.12002343275931038
275,0.263,461.075,448.778,0.0787157,454.751,1.21766,1.1787,0.0624672,0.0675865,-0.128297,0.336927,0.000947637,0.000924717,0.234419,0.06445954407221355,0.4006368135190608,0.0009480861498076809,0.06992280391784145,0.0009251446825833121,-0.12040789850731026
276,0.264,460.938,448.365,-0.0789028,454.802,1.13789,1.18028,0.0626792,0.0678097,-0.128734,0.338075,0.000950367,0.000928452,0.235229,0.0646852334177821,0.4022456678866948,0.0009508187418127978,0.0701616373404943,0.000928883144980297,-0.12079219628048332
277,0.265,460.948,448.374,-0.082161,454.802,1.14455,1.17522,0.0628908,0.0680343,-0.12917,0.33922,0.000954217,0.000932106,0.236038,0.06491054465026114,0.4038521587169128,0.0009546724098832282,0.07040202263849937,0.0009325405458013858,-0.12117544732810548
278,0.266,461.112,448.761,0.0772537,454.764,1.22286,1.18467,0.0631019,0.0682602,-0.129605,0.340364,0.000959245,0.000935996,0.236846,0.06513537099582267,0.405459084572821,0.0009597052226286706,0.07064385376921134,0.0009364341809572352,-0.12155765287278486
279,0.267,460.978,448.358,-0.076471,454.812,1.14522,1.18619,0.0633135,0.0684828,-0.130041,0.341509,0.000962018,0.00093974,0.237655,0.06536077748749114,0.4070692568723837,0.0009624808877397584,0.0708822056186369,0.0009401816939820229,-0.12194057025407734
280,0.268,460.988,448.366,-0.0800475,454.813,1.15172,1.18115,0.0635246,0.0687068,-0.130476,0.342652,0.000965881,0.000943404,0.238462,0.0655856988872372,0.40867845651539003,0.0009663476132719673,0.07112211010099445,0.0009438491455266984,-0.1223224430426636
281,0.269,461.148,448.743,0.0758169,454.775,1.2281,1.19068,0.0637353,0.0689321,-0.130911,0.343793,0.000970893,0.000947305,0.239268,0.06581024144872094,0.41028667594898516,0.0009713644691784484,0.07136346109956926,0.0009477538350981529,-0.1227041497527116
282,0.27,461.018,448.351,-0.0740825,454.822,1.15257,1.19214,0.0639463,0.0691542,-0.131345,0.344935,0.000973709,0.000951058,0.240074,0.06603515113680425,0.4118981433056448,0.0009741832085095048,0.07160143735056379,0.000951510399067601,-0.12308481354170164
283,0.271,461.026,448.358,-0.077983,454.823,1.1589,1.18711,0.064157,0.0693776,-0.131779,0.346075,0.000977585,0.000954732,0.24088,0.06625978840785418,0.41350862498915775,0.0009780629919626804,0.071840859854166,0.0009551879016722609,-0.12346531215845225
284,0.272,461.183,448.725,0.0744151,454.786,1.2334,1.19673,0.0643672,0.0696022,-0.132213,0.347213,0.000982582,0.000958644,0.241684,0.06648393977286071,0.41511811342962135,0.0009830648918407459,0.07208162234790505,0.0009591036460265823,-0.12384564567463263
285,0.273,461.056,448.342,-0.0717658,454.832,1.15992,1.19813,0.0645778,0.0698239,-0.132646,0.348353,0.000985439,0.000962406,0.242488,0.066708564942777,0.41673226797220764,0.0009859247045422848,0.0723193291924098,0.0009628692612575485,-0.12422493838725712
286,0.274,461.064,448.348,-0.0759857,454.832,1.16608,1.19312,0.064788,0.0700467,-0.133079,0.34949,0.000989328,0.00096609,0.243292,0.06693281065052625,0.41834400866183996,0.0009898175463731729,0.07255826855581038,0.0009665568152603665,-0.12460406690168857
287,0.275,461.217,448.706,0.0730528,454.796,1.23877,1.20282,0.0649977,0.0702707,-0.133512,0.350626,0.000994311,0.000970013,0.244094,0.06715656992125929,0.4199561629859627,0.0009948054910613457,0.07279854851831802,0.0009704836147652607,-0.12498303128900934
288,0.276,461.093,448.333,-0.0695353,454.84,1.16726,1.20416,0.0652079,0.0704918,-0.133944,0.351763,0.000997208,0.000973785,0.244897,0.0673809098095528,0.42157157132889145,0.0009977053772134425,0.07303577050131937,0.0009742592825503493,-0.12536095698166538
289,0.277,461.1,448.338,-0.0740644,454.84,1.17325,1.19916,0.0654176,0.070714,-0.134376,0.352898,0.00100111,0.000977479,0.245698,0.06760476305653262,0.4231859710608885,0.0010016112778801212,0.07327422554089846,0.0009779568882937184,-0.12573871944568205
290,0.278,461.25,448.687,0.0717315,454.805,1.24419,1.20894,0.0656269,0.0709374,-0.134807,0.354031,0.00100608,0.000981413,0.246499,0.06782823611908051,0.42479935457527107,0.0010065862682511195,0.07351402178712774,0.0009818947433217762,-0.12611544486744086
291,0.279,461.129,448.323,-0.0673969,454.848,1.17458,1.21022,0.0658365,0.071158,-0.135239,0.355165,0.00100902,0.000985194,0.247299,0.06805207637501032,0.4264159935043885,0.0010095292319409754,0.07375086510319129,0.00098567946302075,-0.12649288146308357
292,0.28,461.136,448.327,-0.0722222,454.848,1.18042,1.20525,0.0660458,0.0713796,-0.13567,0.356297,0.00101293,0.000988898,0.248099,0.0682756430700342,0.4280316106758302,0.0010134431868520366,0.07398883466095119,0.0009893871208441762,-0.12686928191104974
293,0.281,461.282,448.667,0.0704511,454.814,1.24968,1.21509,0.0662546,0.0716024,-0.1361,0.357428,0.00101789,0.000992843,0.248898,0.0684987223129696,0.4296476281131032,0.0010184082258435367,0.07422814603161054,0.000993336031765546,-0.12724464741046182
294,0.282,461.164,448.312,-0.0653514,454.855,1.1819,1.21633,0.0664638,0.0718224,-0.136531,0.358559,0.00102087,0.000996634,0.249696,0.06872227562853905,0.4312654743000608,0.0010213912651446666,0.07446450222196499,0.0009971308046954341,-0.1276207239171191
295,0.283,461.171,448.315,-0.0704585,454.855,1.18759,1.21138,0.0666726,0.0720435,-0.13696,0.359689,0.00102479,0.00100035,0.250494,0.06894544813808956,0.43288371842175377,0.0010253152766894758,0.07470209258805349,0.0010008505169447623,-0.12799489436125977
296,0.284,461.314,448.647,0.0692102,454.822,1.25523,1.22129,0.066881,0.0722658,-0.13739,0.360817,0.00102974,0.0010043,0.251291,0.06916823958354379,0.4345009231881465,0.0010302703642639521,0.0749410254196361,0.0010048044781132415,-0.12836977595136634
297,0.285,461.199,448.301,-0.0633971,454.862,1.18921,1.22247,0.0670897,0.0724852,-0.137819,0.361946,0.00103275,0.00100811,0.252088,0.06939139828094487,0.4361213893114264,0.0010332834699124938,0.07517689335437949,0.0010086183136837068,-0.1287436251211026
298,0.286,461.205,448.303,-0.0687713,454.862,1.19475,1.21755,0.067298,0.0727058,-0.138248,0.363073,0.0010367,0.00101183,0.252884,0.06961417571067074,0.4377408104896081,0.001037237559191384,0.07541410354037481,0.0010123420726699806,-0.129117313943942
299,0.287,461.345,448.627,0.0680074,454.829,1.26083,1.22751,0.0675059,0.0729274,-0.138676,0.364198,0.00104163,0.0010158,0.253679,0.06983657161505419,0.4393591790630442,0.00104217268493767,0.07565244171261365,0.0010163160995564358,-0.12948997197906575
300,0.288,461.233,448.289,-0.0615305,454.868,1.1965,1.22866,0.0677142,0.0731463,-0.139105,0.365324,0.00104468,0.00101961,0.254474,0.07005944178404389,0.4409808103057231,0.001045225868220534,0.075887927805117,0.0010201299789862617,-0.1298633406877724
301,0.289,461.238,448.29,-0.0671573,454.868,1.20191,1.22376,0.067922,0.0733663,-0.139532,0.366449,0.00104864,0.00102334,0.255268,0.07028182324067966,0.44260282593003386,0.0010491900151639033,0.07612464918763151,0.001023863791034696,-0.13023480972701473
302,0.29,461.375,448.607,0.0668408,454.836,1.2665,1.23378,0.0681295,0.0735873,-0.13996,0.367571,0.00105356,0.00102732,0.256061,0.07050392976175668,0.44422233467523564,0.0010541151892946576,0.07636249901653991,0.0010278478739409458,-0.13060698957628236
303,0.291,461.266,448.276,-0.0597476,454.874,1.20379,1.23488,0.0683373,0.0738057,-0.140387,0.368695,0.00105665,0.00103114,0.256854,0.07072640359259164,0.4458465532192324,0.0010572084512898705,0.07659760225866474,0.0010316718076235354,-0.13097814114523398
304,0.292,461.271,448.276,-0.065613,454.874,1.20906,1.23001,0.0685447,0.0740251,-0.140814,0.369817,0.00106062,0.00103489,0.257646,0.07094849527880864,0.44746970346895476,0.001061182656296067,0.0768338336862402,0.0010354256834312903,-0.1313491342662968
305,0.293,461.405,448.586,0.0657084,454.842,1.27223,1.24008,0.0687517,0.0742456,-0.14124,0.370937,0.00106554,0.00103888,0.258438,0.07117020456345058,0.44909177772886455,0.0010661078894309561,0.07707130172645726,0.0010394198227481333,-0.13171910072664827
306,0.294,461.298,448.263,-0.058044,454.879,1.21107,1.24115,0.0689591,0.0744634,-0.141666,0.372058,0.00106866,0.00104271,0.259229,0.07139238830353434,0.4507171204460856,0.0010692312205597965,0.07730591340425752,0.0010432538110680678,-0.13208890961485287
307,0.295,461.302,448.263,-0.0641348,454.879,1.21622,1.2363,0.069166,0.0746823,-0.142092,0.373177,0.00107264,0.00104647,0.260019,0.07161408232212985,0.4523413815084427,0.0010732154840287222,0.07754176148133207,0.001047017740778644,-0.1324585609980221
308,0.296,461.434,448.565,0.0646083,454.848,1.27802,1.24642,0.0693726,0.0749022,-0.142518,0.374295,0.00107755,0.00105047,0.260809,0.07183550066326472,0.4539660071694922,0.001078130765583829,0.0777787389694018,0.0010510219368577989,-0.1328280549432388
309,0.297,461.329,448.25,-0.0564155,454.884,1.21835,1.24746,0.0695795,0.0751195,-0.142943,0.375413,0.00108071,0.00105431,0.261598,0.07205728637129227,0.4555924501777384,0.001081294177475156,0.0780129657371964,0.0010548659801628002,-0.13319652471451526
310,0.298,461.333,448.248,-0.0627191,454.884,1.22338,1.24263,0.069786,0.0753378,-0.143368,0.37653,0.0010847,0.00105808,0.262387,0.0722786890599687,0.45721925534612806,0.0010852884998076018,0.07824832165578077,0.0010586399641214772,-0.13356483791941165
311,0.299,461.462,448.544,0.0635389,454.854,1.28386,1.2528,0.0699921,0.0755571,-0.143792,0.377645,0.00108961,0.00106209,0.263174,0.0724997084730521,0.4588449609783025,0.0010902038406412906,0.07848480744243846,0.0010626542173162168,-0.1339321285570162
312,0.3,461.36,448.236,-0.054858,454.889,1.22563,1.2538,0.0701985,0.0757739,-0.144216,0.378761,0.00109279,0.00106594,0.263962,0.07272109525921122,0.4604739407564018,0.0010933873125513749,0.07871864829612463,0.0010665083159540067,-0.13429926349640064
313,0.301,461.532,448.681,0.114225,454.838,1.31872,1.25607,0.0704042,0.0759935,-0.14464,0.379873,0.00109822,0.00106987,0.264748,0.07294177668481261,0.46209889108346136,0.001098823264402915,0.07895556092334499,0.0010704425150624974,-0.1346662428035672
314,0.302,461.483,448.553,0.0501538,454.85,1.30039,1.24543,0.0706101,0.0762108,-0.145064,0.380987,0.00110215,0.00107356,0.265535,0.07316271814177444,0.46372857681454427,0.0011027575905093734,0.07919004344233649,0.0010741364718107604,-0.13503306654449
315,0.303,461.465,448.401,0.0289188,454.876,1.26655,1.26615,0.070816,0.0764277,-0.145487,0.3821,0.00110579,0.00107771,0.26632,0.07338370509526593,0.46535861366777787,0.001106401611179031,0.0794241451501716,0.0010782909380975259,-0.13539887018441732
316,0.304,461.493,448.491,0.0405574,454.86,1.29257,1.25876,0.0710214,0.0766454,-0.14591,0.383211,0.00111026,0.00108149,0.267105,0.07360420075242136,0.46698753178402574,0.0011108765667957599,0.07965916136715778,0.0010820750211892882,-0.13576451912212695
317,0.305,461.453,448.31,-0.00450022,454.887,1.25535,1.26948,0.071227,0.0768617,-0.146332,0.384322,0.0011138,0.0010855,0.26789,0.07382495646900611,0.4686182606339768,0.001114420505571756,0.07989271690188215,0.0010860893683588557,-0.13612914955262534
318,0.306,461.533,448.533,0.0640534,454.858,1.30726,1.26406,0.0714321,0.0770796,-0.146754,0.385431,0.00111865,0.00108933,0.268673,0.07404522055488783,0.4702478617318109,0.0011192759222855564,0.08012805116363175,0.001089923535423587,-0.13649362614154492
319,0.307,461.438,448.206,-0.039949,454.9,1.24146,1.2731,0.0716375,0.077295,-0.147176,0.386542,0.00112177,0.00109332,0.269457,0.07426585210127379,0.4718822148212263,0.001122399419299036,0.08036073580508862,0.0010939178921871573,-0.1368579489537931
320,0.308,461.594,448.638,0.107855,454.847,1.33553,1.26818,0.0718421,0.0775133,-0.147598,0.387648,0.00112724,0.00109717,0.270239,0.07448566938115464,0.47351101711245147,0.0011278755738011181,0.08059660429782411,0.0010977721111904426,-0.13722211805425
321,0.309,461.547,448.506,0.0479157,454.86,1.31525,1.26009,0.072047,0.0777294,-0.148019,0.388756,0.00113118,0.00110092,0.271021,0.07470585405196006,0.4751445721417771,0.0011318200254013533,0.08083014645733422,0.0011015262348748056,-0.13758527109347063
322,0.31,461.531,448.359,0.0284252,454.885,1.28229,1.28078,0.0722518,0.0779449,-0.14844,0.389863,0.00113485,0.00110509,0.271802,0.07492597635062381,0.47677846137397406,0.0011354941859229584,0.08106309045270987,0.0011057008369432797,-0.13794827127744003
323,0.311,461.556,448.442,0.0387278,454.87,1.30666,1.27399,0.0724563,0.0781614,-0.14886,0.390968,0.00113933,0.0011089,0.272583,0.07514582119115643,0.4784112034976806,0.0011399792829835942,0.08129716594955116,0.0011095150569295775,-0.1383102569811845
324,0.312,461.519,448.271,-0.00316627,454.895,1.27169,1.2844,0.0726608,0.0783765,-0.149281,0.392074,0.00114293,0.00111294,0.273363,0.07536571099455602,0.4800472308451016,0.0011435833933963746,0.08152977798647454,0.0011135595475402216,-0.1386729520103348
325,0.313,461.594,448.479,0.0604666,454.868,1.32045,1.27936,0.0728649,0.078593,-0.149701,0.393177,0.00114776,0.0011168,0.274142,0.07558521553584652,0.4816806235912232,0.0011484189285819735,0.08176395453210494,0.0011174238533382397,-0.13903463341207933
326,0.314,461.506,448.174,-0.0360253,454.907,1.25919,1.28811,0.0730692,0.0788073,-0.15012,0.394281,0.00115098,0.00112081,0.274922,0.07580498004356051,0.48331730228006986,0.0011516426316811046,0.0819958013890647,0.0011214383422568641,-0.13939530233526365
327,0.315,461.651,448.575,0.100717,454.857,1.34685,1.28358,0.0732729,0.0790242,-0.150539,0.395382,0.00115639,0.0011247,0.2757,0.07602414383907008,0.48495133399927726,0.0011570588767186862,0.08223051173180251,0.001125332712226479,-0.13975582016982446
328,0.316,461.606,448.447,0.0427654,454.87,1.32741,1.27576,0.0734767,0.079239,-0.150958,0.396484,0.00116035,0.00112847,0.276478,0.07624345990713288,0.4865886523660674,0.0011610234665215824,0.08246299981404848,0.0011291069618453164,-0.1401161869790546
329,0.317,461.595,448.319,0.029389,454.892,1.29869,1.29581,0.0736805,0.0794534,-0.151377,0.397585,0.00116411,0.00113266,0.277255,0.0764628206763649,0.48822628782521393,0.0011647878390468325,0.08269510476196995,0.001133301701591538,-0.14047640282622031
330,0.318,461.614,448.384,0.033928,454.88,1.31919,1.2895,0.0738839,0.0796685,-0.151795,0.398685,0.00116856,0.0011365,0.278031,0.07668179548307341,0.4898642374489548,0.001169243032265621,0.08292801752787415,0.0011371460608511352,-0.14083560861059985
331,0.319,461.587,448.242,0.00168907,454.901,1.29026,1.29947,0.0740874,0.0798824,-0.152213,0.399784,0.00117228,0.00114057,0.278808,0.07690092252387437,0.49150249830536086,0.0011729673887770353,0.08315968060630641,0.001141220697327583,-0.14119466427833816
332,0.32,461.648,448.41,0.0519758,454.878,1.33099,1.29501,0.0742905,0.0800976,-0.152631,0.400882,0.00117702,0.00114445,0.279583,0.07711966331361442,0.49314106745834296,0.0011777129598893321,0.08339280165249785,0.0011451051327997508,-0.14155356989217072
333,0.321,461.578,448.159,-0.0255803,454.911,1.28098,1.30316,0.0744938,0.0803108,-0.153048,0.40198,0.00118043,0.00114849,0.280358,0.07733866400183165,0.4947814367483494,0.0011811269817114667,0.08362380562195826,0.0011491497671944906,-0.14191146742670346
334,0.322,461.696,448.485,0.084759,454.87,1.35317,1.29945,0.0746964,0.0805262,-0.153465,0.403076,0.00118564,0.00115241,0.281132,0.07755695492728254,0.4964206153087929,0.0011863431489711473,0.08385724333002775,0.0011530742795535787,-0.14226921574907736
335,0.323,461.656,448.369,0.0316091,454.881,1.33602,1.29202,0.0748992,0.0807397,-0.153882,0.404172,0.00118964,0.00115622,0.281906,0.0777755056380347,0.4980615913938018,0.0011903479023533947,0.08408867155556266,0.0011568886800330525,-0.14262681492150064
336,0.324,461.658,448.285,0.0321558,454.898,1.31663,1.31082,0.075102,0.080953,-0.154298,0.405267,0.00119356,0.00116042,0.282679,0.07799410067536572,0.4997028672709267,0.0011942725762095208,0.08431993233229051,0.0011610935477956996,-0.14298340798999254
337,0.325,461.665,448.311,0.0241887,454.89,1.32888,1.30544,0.0753044,0.0811667,-0.154714,0.406361,0.00119791,0.0011643,0.283451,0.07821230876325602,0.5013444399842708,0.0011986277807676249,0.08455167626278715,0.001164978060374633,-0.14333985274661887
338,0.326,461.657,448.23,0.012499,454.904,1.31273,1.31451,0.0755068,0.0813797,-0.155129,0.407454,0.00120184,0.00116838,0.284223,0.07843056102093304,0.5029863065738103,0.001202562499106552,0.08478271037409035,0.0011690628218181676,-0.1436952929487858
339,0.327,461.691,448.317,0.0350742,454.89,1.33665,1.31118,0.0757089,0.0815933,-0.155545,0.408546,0.00120636,0.0011723,0.284994,0.07864853386272919,0.5046284640754002,0.0012070879449166405,0.08501444470937214,0.0011729874122365924,-0.14405144162285877
340,0.328,461.659,448.178,-0.00386774,454.909,1.30976,1.31806,0.0759111,0.0818057,-0.15596,0.409638,0.00121015,0.00117635,0.285765,0.07886665864794895,0.5062724157924454,0.001210882526970547,0.08524492625370206,0.0011770421710464163,-0.1444065865769102
341,0.329,461.725,448.352,0.0535607,454.887,1.35057,1.31603,0.0761129,0.0820192,-0.156375,0.410729,0.00121492,0.00118031,0.286535,0.07908439590861471,0.5079166557678891,0.0012156583142706179,0.08547665078117017,0.0011810068399835671,-0.14476158417638396
342,0.33,461.652,448.099,-0.0283801,454.918,1.30098,1.32258,0.0763149,0.0822309,-0.156789,0.41182,0.00121838,0.00118436,0.287305,0.07930239297355057,0.5095626905880561,0.0012191225264412964,0.08570647051370095,0.0011850616312720774,-0.14511557959842647
343,0.331,461.772,448.426,0.0850573,454.878,1.37298,1.32011,0.0765162,0.0824446,-0.157203,0.412908,0.00122363,0.00118833,0.288074,0.07951967841430196,0.5112059885874238,0.0012243789406327643,0.08593851077906911,0.0011890363438566975,-0.14546942849669675
344,0.332,461.73,448.31,0.0311514,454.889,1.3559,1.31251,0.0767177,0.0826566,-0.157617,0.413996,0.00122766,0.00119218,0.288842,0.07973722354643842,0.5128510754679898,0.0012284138830103153,0.08616875414828895,0.0011928909290666034,-0.14582313093184307
345,0.333,461.733,448.227,0.0314917,454.905,1.33683,1.33103,0.0769192,0.0828684,-0.15803,0.415084,0.00123162,0.00119641,0.28961,0.0799548125183358,0.5144979531771159,0.0012323787553796262,0.08639882905449014,0.001197125983952274,-0.14617583314074878
346,0.334,461.738,448.251,0.0233103,454.897,1.34882,1.32579,0.0771203,0.0830805,-0.158443,0.416171,0.00123601,0.00120033,0.290377,0.08017201326993684,0.5161451075184185,0.0012367741751704298,0.08662927868445203,0.0012010506843787017,-0.14652838971371807
347,0.335,461.731,448.172,0.012138,454.91,1.33319,1.33476,0.0773215,0.0832919,-0.158856,0.417257,0.00123999,0.00120444,0.291144,0.0803893657439323,0.5177925354966615,0.0012407591054615086,0.08685901639638649,0.001205165629153182,-0.14688080071088616
348,0.336,461.764,448.257,0.0336902,454.897,1.35645,1.33159,0.0775223,0.0835039,-0.159269,0.418342,0.00124454,0.0012084,0.29191,0.0806063297110271,0.5194402341125317,0.0012453147612796478,0.08708945493348441,0.001209130409459247,-0.14723306619236354
349,0.337,461.733,448.122,-0.00352882,454.915,1.33066,1.3384,0.0777232,0.0837147,-0.159681,0.419427,0.00124838,0.00121249,0.292676,0.08082344533119978,0.5210897214516073,0.0012491595506702868,0.087318637545583,0.0012132253631769174,-0.14758433380299563
350,0.338,461.796,448.288,0.0511738,454.894,1.36993,1.33652,0.0779237,0.0839267,-0.160093,0.42051,0.00125317,0.00121648,0.293441,0.08104017215812709,0.5227379539767523,0.0012539555456310136,0.08754917353269387,0.001217220211915837,-0.1479354567211809
351,0.339,461.727,448.047,-0.0266111,454.924,1.32273,1.34299,0.0781243,0.0841368,-0.160504,0.421593,0.0012567,0.00122056,0.294205,0.08125705056883925,0.5243879725046678,0.0012574899783321936,0.08777769161903737,0.0012213051865075375,-0.1482855832925295
352,0.34,461.84,448.358,0.0806295,454.885,1.3913,1.3407,0.0783244,0.084349,-0.160915,0.422674,0.00126193,0.00122457,0.294969,0.08147343175287358,0.526036726894137,0.0012627265686984135,0.08800854253761514,0.0012253200919911666,-0.14863556599142502
353,0.341,461.8,448.244,0.0281293,454.895,1.37471,1.3334,0.0785247,0.0845594,-0.161327,0.423756,0.00126601,0.00122846,0.295732,0.08169007257710792,0.527688792238812,0.0012668117289567071,0.0882374836187223,0.0012292148660617563,-0.14898625589115655
354,0.342,461.804,448.171,0.0313486,454.91,1.35792,1.35145,0.0787248,0.0847696,-0.161737,0.424836,0.00127004,0.00123272,0.296495,0.08190654041751566,0.5293395874033615,0.00127084684233858,0.08846625518082774,0.00123348011160207,-0.1493351000083104
355,0.343,461.807,448.186,0.0205621,454.904,1.36794,1.34658,0.0789247,0.0849802,-0.162147,0.425916,0.00127444,0.00123668,0.297257,0.08212283515288377,0.530992166389779,0.0012752524437571466,0.0886955103138869,0.001237445004033777,-0.14968380112869262
356,0.344,461.804,448.122,0.0139982,454.915,1.35543,1.35525,0.0791245,0.0851901,-0.162557,0.426995,0.0012785,0.00124083,0.298019,0.08233906489597942,0.5326449984798682,0.00127931762953426,0.08892405148605875,0.001241600148052413,-0.15003235931091985
357,0.345,461.83,448.187,0.0291389,454.904,1.37466,1.35248,0.0793241,0.0854004,-0.162967,0.428072,0.00128303,0.00124483,0.29878,0.08255512133504794,0.5342965463421152,0.001283853435116722,0.08915307629520086,0.0012456051224629672,-0.15038077461358457
358,0.346,461.808,448.079,0.0010427,454.919,1.3545,1.35895,0.0795237,0.0856099,-0.163376,0.42915,0.00128699,0.00124895,0.29954,0.08277122090328581,0.5359514098302345,0.0012878185270273068,0.08938127776795435,0.0012497302628537987,-0.15072819782387803
359,0.347,461.858,448.209,0.043071,454.901,1.38619,1.35757,0.0797229,0.0858201,-0.163785,0.430226,0.00129171,0.00125299,0.3003,0.08298693041444372,0.5376049830100436,0.0012925446166842658,0.08961028978086061,0.001253775319935091,-0.15107547896713314
360,0.348,461.806,448.018,-0.0171935,454.925,1.34944,1.36352,0.0799223,0.0860289,-0.164194,0.431302,0.00129544,0.0012571,0.30106,0.08320289953977467,0.5392603363921713,0.0012962794448412307,0.08983782416312969,0.0012578904814084524,-0.15142261810144342
361,0.349,461.896,448.26,0.0659521,454.895,1.40382,1.36199,0.0801212,0.0862393,-0.164603,0.432376,0.0013005,0.00126115,0.301818,0.08341837002432251,0.5409143900612841,0.0013013460168336266,0.09006715016558298,0.0012619455840763294,-0.15176961528487876
362,0.35,461.791,447.921,-0.0475341,454.936,1.33661,1.36879,0.0803204,0.0864471,-0.165011,0.433451,0.00130378,0.00126527,0.302577,0.0836342084604258,0.5425717637093272,0.0013046302906347673,0.09029368965602536,0.001266070791790197,-0.15211562269153178
363,0.351,461.79,447.918,-0.0588452,454.934,1.34257,1.3625,0.0805192,0.0866561,-0.165418,0.434524,0.00130802,0.00126923,0.303334,0.08384965635587904,0.5442278315332851,0.0013088758312675974,0.09052158485138184,0.0012700358132811118,-0.15246064141702298
364,0.352,461.906,448.191,0.0553544,454.904,1.39966,1.37142,0.0807177,0.0868659,-0.165826,0.435596,0.00131311,0.00127344,0.304091,0.08406482186713604,0.5458841313867941,0.0013139725064166274,0.09075040028178294,0.0012742511690053693,-0.1528063669425217
365,0.353,461.814,447.914,-0.0495699,454.935,1.3476,1.37288,0.0809164,0.0870735,-0.166233,0.436668,0.00131661,0.0012775,0.304848,0.08428024694901426,0.547542207745783,0.001317477111453469,0.09097686357095758,0.00127831635071729,-0.15315110459230563
366,0.354,461.961,448.303,0.0960552,454.889,1.43031,1.37484,0.0811145,0.0872836,-0.16664,0.437738,0.00132211,0.00128164,0.305603,0.08449506414287522,0.54919896411466,0.001322984372722491,0.09120610189063605,0.0012824616515278997,-0.1534957019624149
367,0.355,461.915,448.181,0.0371199,454.899,1.41268,1.36617,0.0813127,0.0874917,-0.167047,0.438808,0.00132625,0.00128556,0.306359,0.08471003236723584,0.5508574941616002,0.001327129858458953,0.09143320550975154,0.0012863866864705198,-0.15384015910993176
368,0.356,461.906,448.071,0.0273402,454.918,1.38821,1.38469,0.081511,0.0876994,-0.167453,0.439878,0.00133024,0.00128989,0.307114,0.08492515169503068,0.5525177997854549,0.0013311251616778819,0.09165991972999255,0.001290722265911315,-0.15418363027596838
369,0.357,461.919,448.119,0.027181,454.908,1.40527,1.37918,0.0817089,0.0879077,-0.167859,0.440946,0.0013348,0.0012939,0.307868,0.08513987962917935,0.5541767745304507,0.0013356912420192657,0.09188733617587297,0.0012947374497580544,-0.154526962021016
370,0.358,461.899,448.005,0.0037505,454.924,1.38249,1.38851,0.0819068,0.088115,-0.168264,0.442014,0.00133878,0.00129811,0.308622,0.08535465006219134,0.5558375220069443,0.0013396765660012022,0.092113707883279,0.0012989529094762364,-0.15486930927139975
371,0.359,461.946,448.134,0.0405829,454.906,1.41506,1.38501,0.0821043,0.0883233,-0.16867,0.443081,0.00134357,0.00130217,0.309375,0.08556902877477968,0.557498486609959,0.0013444729945393252,0.092341218863077,0.0013030181914777117,-0.1552123626872799
372,0.36,461.895,447.942,-0.0166061,454.931,1.37727,1.39252,0.0823021,0.08853,-0.169075,0.444148,0.00134733,0.00130635,0.310128,0.0857837755664288,0.5591612244080364,0.0013482380568361485,0.09256702912970316,0.0013072036468413373,-0.15555443240659772
373,0.361,461.982,448.183,0.0638332,454.899,1.43237,1.38991,0.0824993,0.0887384,-0.16948,0.445212,0.00135246,0.00131044,0.310879,0.0859979132402513,0.5608210548239971,0.0013533749864735878,0.09279474382562092,0.0013112990016792558,-0.15589636361572945
374,0.362,461.879,447.845,-0.0472133,454.941,1.36483,1.39762,0.0826968,0.0889442,-0.169884,0.446278,0.0013558,0.00131462,0.311631,0.08621241900986365,0.5624857772078271,0.0013567195123314058,0.09301966412740548,0.0013154844916567487,-0.15623731260849483
375,0.363,461.878,447.846,-0.0579082,454.938,1.37149,1.39129,0.082894,0.0891512,-0.170288,0.447342,0.0013601,0.00131863,0.312382,0.08642664122050814,0.5641491468304909,0.00136102535548277,0.09324594261689545,0.0013194997748000592,-0.15657812388568748
376,0.364,461.991,448.112,0.0528258,454.909,1.42729,1.4,0.0830908,0.089359,-0.170692,0.448404,0.00136522,0.00132289,0.313132,0.08664047102366279,0.5658111555948715,0.0013661523370576134,0.09347314272904539,0.0013237654049549352,-0.15691879750293336
377,0.365,461.902,447.845,-0.0478127,454.938,1.37734,1.40156,0.0832878,0.0895647,-0.171096,0.449467,0.00136881,0.001327,0.313882,0.0868545602835542,0.5674764978258493,0.0013697472479974326,0.09369809328987677,0.0013278808540879705,-0.15725933351583576
378,0.366,462.043,448.218,0.0912318,454.894,1.45686,1.40351,0.0834843,0.0897727,-0.171499,0.450527,0.00137432,0.00133119,0.314631,0.08706814818897435,0.5691389038330719,0.0013752648105056497,0.09392560615379852,0.0013320764266986362,-0.15759888957928658
379,0.367,461.998,448.098,0.0338371,454.904,1.43962,1.39527,0.0836809,0.0899787,-0.171902,0.451588,0.00137852,0.00133517,0.31538,0.0872818867967251,0.5708046437287901,0.0013794705954499609,0.09415097804117356,0.0013360617362934146,-0.15793830882921356
380,0.368,461.992,447.998,0.0269275,454.922,1.41748,1.41327,0.0838774,0.0901845,-0.172304,0.452649,0.00138259,0.00133954,0.316129,0.08749555868005565,0.5724721519124489,0.0013835462181892577,0.09437617748468252,0.001340437584444576,-0.15827674959791194
381,0.369,462.002,448.037,0.0241267,454.912,1.43249,1.4082,0.0840737,0.0903908,-0.172707,0.453708,0.00138718,0.00134361,0.316876,0.08770905501220394,0.5741382819814846,0.001388142579215046,0.09460197057985442,0.0013445130483189516,-0.15861589572528922
382,0.37,461.986,447.938,0.00547246,454.927,1.41299,1.41721,0.0842699,0.0905962,-0.173109,0.454766,0.00139126,0.00134787,0.317623,0.08792248446554196,0.5758046016114704,0.0013922282511713568,0.0948268249163613,0.001348778785030591,-0.15895406415879842
383,0.371,462.026,448.047,0.0355738,454.911,1.44133,1.41416,0.0844659,0.0908024,-0.17351,0.455824,0.00139604,0.00135198,0.31837,0.08813573817067777,0.5774726851405629,0.0013970149174626911,0.0950526014844233,0.0013528943369689461,-0.15929125596759464
384,0.372,461.984,447.883,-0.0119677,454.932,1.4095,1.42131,0.0846619,0.0910073,-0.173912,0.456881,0.00139995,0.00135622,0.319116,0.08834903367763602,0.5791409552942097,0.001400930387445598,0.09527700075138723,0.001357140082241859,-0.15962915296084956
385,0.373,462.058,448.086,0.0549961,454.906,1.45656,1.41924,0.0848575,0.0912135,-0.174313,0.457937,0.00140502,0.00136036,0.319861,0.08856193556974956,0.5808094089314748,0.0014060075030333241,0.09550287015527759,0.0013612857093832087,-0.15996607411330643
386,0.374,461.973,447.802,-0.0373603,454.941,1.40017,1.42641,0.0850534,0.0914176,-0.174714,0.458993,0.00140857,0.00136459,0.320607,0.088775205742059,0.5824796253863849,0.0014095625006700363,0.09572648511020598,0.0013655214765804224,-0.1603028601874662
387,0.375,462.103,448.165,0.0870687,454.895,1.48023,1.42351,0.0852486,0.0916241,-0.175114,0.460046,0.00141414,0.00136875,0.321351,0.08898775540639225,0.5841468540737675,0.0014151403674673713,0.09595277599311092,0.001369687165814426,-0.16063867187657588
388,0.376,462.059,448.041,0.0321721,454.907,1.46142,1.4171,0.085444,0.0918287,-0.175515,0.4611,0.00141835,0.0013728,0.322095,0.08920056440456059,0.5858174250942336,0.0014193563340829662,0.09617703087157081,0.0013737427212598963,-0.16097518829310253
389,0.377,462.053,447.945,0.0262839,454.924,1.43999,1.43498,0.0856393,0.092033,-0.175915,0.462154,0.00142248,0.0013772,0.322838,0.0894133060483342,0.5874897578248137,0.0014234922045652798,0.09640100271692287,0.0013781487754211952,-0.16131073110474903
390,0.378,462.062,447.979,0.0225509,454.915,1.45374,1.43039,0.0858343,0.0922378,-0.176314,0.463206,0.00142709,0.00138132,0.323581,0.0896257623568304,0.5891606757987986,0.0014281087775054324,0.09662556863704452,0.001382274461892985,-0.1616453013718313
391,0.379,462.048,447.888,0.00600793,454.929,1.43592,1.43915,0.0860294,0.0924418,-0.176714,0.464258,0.00143124,0.00138561,0.324323,0.08983836908217802,0.5908333525034224,0.0014322647127804622,0.09684930307318318,0.001386570401065157,-0.16198057619184825
392,0.38,462.084,447.986,0.0328638,454.914,1.46205,1.43644,0.0862241,0.0926465,-0.177113,0.465308,0.00143604,0.00138977,0.325065,0.09005058127082433,0.5925046047774487,0.0014370715991876004,0.09707385110722933,0.0013907361778628946,-0.16231487924405363
393,0.381,462.047,447.837,-0.00986717,454.934,1.43332,1.44336,0.0864189,0.09285,-0.177511,0.466359,0.00144003,0.00139404,0.325806,0.09026294380749555,0.5941792069663727,0.001441067341074742,0.09729712835361903,0.0013950121254355796,-0.16264821158457865
394,0.382,462.114,448.02,0.0502261,454.909,1.47622,1.44163,0.0866133,0.0930547,-0.17791,0.467408,0.00144508,0.00139823,0.326546,0.09047491152636633,0.5958523783794567,0.0014461246312345022,0.09752176806688317,0.0013992079793265777,-0.16298224830339947
395,0.383,462.038,447.763,-0.0324939,454.941,1.42564,1.4485,0.0868079,0.0932574,-0.178308,0.468457,0.00144876,0.0014025,0.327287,0.09068713859317334,0.5975273058702546,0.0014498099597541891,0.09774425827789157,0.0014034839630738816,-0.16331531508388875
396,0.384,462.155,448.088,0.0785562,454.9,1.49781,1.44606,0.0870019,0.0934623,-0.178706,0.469504,0.00145426,0.00140671,0.328026,0.09089875242393819,0.5992007928770746,0.0014553179488558943,0.0979692091218396,0.0014076998806160645,-0.16364824933017552
397,0.385,462.113,447.972,0.0265417,454.911,1.48034,1.43995,0.0871961,0.0936655,-0.179104,0.470551,0.00145852,0.0014108,0.328765,0.09111062553387206,0.6008760329423566,0.0014595841575972823,0.09819233913437464,0.001411795646484304,-0.16398105109499783
398,0.386,462.113,447.896,0.0267268,454.925,1.46334,1.45712,0.0873902,0.0938684,-0.179501,0.471598,0.00146275,0.00141524,0.329504,0.09132243066131096,0.6025530279025142,0.0014638203405978878,0.09841518496693014,0.001416241924727668,-0.16431288474437533
399,0.387,462.116,447.913,0.0179486,454.919,1.47348,1.45307,0.0875841,0.0940717,-0.179898,0.472643,0.00146736,0.0014194,0.330242,0.09153405859728148,0.6042285711355335,0.0014684370994513252,0.09863851547481084,0.0014204078249591134,-0.1646445866819407
400,0.388,462.111,447.848,0.00989414,454.929,1.46126,1.46135,0.0877779,0.0942744,-0.180295,0.473688,0.00147163,0.00142373,0.330979,0.09174561839731998,0.6059058662264178,0.0014727133788074998,0.09886123207346231,0.0014247439847128174,-0.16497615695997292
401,0.389,462.136,447.913,0.0255264,454.918,1.4803,1.45926,0.0879714,0.0944775,-0.180691,0.474732,0.00147636,0.00142793,0.331716,0.0919568916145046,0.6075833074227042,0.0014774503559447094,0.0990844334550296,0.0014289499774702286,-0.16530676093790875
402,0.39,462.113,447.809,-0.00181394,454.932,1.46117,1.46557,0.088165,0.0946797,-0.181087,0.475776,0.00148054,0.00143224,0.332452,0.09216831493383792,0.6092625007820691,0.0014816365404364262,0.09930669079693422,0.0014332661455458418,-0.1656372340225879
403,0.391,462.16,447.932,0.0376263,454.915,1.49144,1.46467,0.0883583,0.0948827,-0.181483,0.476818,0.00148545,0.00143648,0.333188,0.09237945147480398,0.6109402262510524,0.0014865538273436396,0.09952987270736346,0.0014375122315959388,-0.16596757626583392
404,0.392,462.111,447.756,-0.0174294,454.937,1.45776,1.47059,0.0885516,0.0950843,-0.181878,0.47786,0.00148943,0.00144078,0.333923,0.0925906288324081,0.6126197008210976,0.001490539751759945,0.09975156027505716,0.0014418184221569597,-0.16629695401682054
405,0.393,462.191,447.974,0.0566969,454.909,1.50755,1.46948,0.0887445,0.0952874,-0.182274,0.478901,0.00149463,0.00144504,0.334658,0.09280140989388963,0.6142993120155988,0.0014957475161068157,0.0999749425006462,0.0014460845733903493,-0.1666270350626693
406,0.394,462.099,447.674,-0.0422564,454.946,1.44821,1.47624,0.0889377,0.0954882,-0.182669,0.479942,0.00149824,0.00144934,0.335393,0.0930125595226785,0.6159806725957508,0.0014993629222810334,0.10019583964643153,0.001450390800812329,-0.1669561523788704
407,0.395,462.235,448.054,0.0884207,454.898,1.53182,1.47364,0.0891302,0.0956917,-0.183063,0.48098,0.00150395,0.00145361,0.336126,0.0932229846931596,0.6176589313995386,0.0015050814999699735,0.10041975228213751,0.00145466700311081,-0.16728430700412678
408,0.396,462.189,447.927,0.0324565,454.91,1.51219,1.46757,0.089323,0.095893,-0.183458,0.482019,0.00150826,0.00145775,0.336859,0.0934337784044692,0.6193405524801352,0.001509397996173334,0.10064128907520198,0.0014588130340145167,-0.16761316474917964
409,0.397,462.181,447.826,0.0241626,454.928,1.48989,1.48519,0.0895156,0.0960941,-0.183852,0.483058,0.00151247,0.00146224,0.337592,0.09364439403182367,0.6210239216730218,0.0015136143596141682,0.10086265029555985,0.0014633095941798402,-0.16794106056255143
410,0.398,462.19,447.863,0.0218312,454.918,1.5042,1.48086,0.089708,0.0962957,-0.184246,0.484095,0.00151719,0.00146645,0.338324,0.09385483145666651,0.6227057953805946,0.0015183415150301638,0.10108460657830087,0.0014675257635881067,-0.16826882721042014
411,0.399,462.174,447.768,0.00363033,454.932,1.48574,1.48955,0.0899004,0.0964966,-0.184639,0.485132,0.00152143,0.00147083,0.339056,0.09406530937356505,0.6243894140958322,0.0015225879618006033,0.10130583669758386,0.001471912200957215,-0.16859563333971572
412,0.4,462.211,447.87,0.0318659,454.917,1.51265,1.48704,0.0900925,0.0966981,-0.185032,0.486168,0.00152634,0.00147509,0.339787,0.09427549950761183,0.6260731535552795,0.0015275054497798646,0.10152777218292774,0.0014761784803904998,-0.16892231105943678
413,0.401,462.172,447.718,-0.0120092,454.937,1.48333,1.49399,0.0902846,0.0968984,-0.185425,0.487203,0.00153042,0.00147945,0.340518,0.09448573002306171,0.62775701051487,0.0015315916903380078,0.10174843029386804,0.0014805449260475445,-0.16924886042003806
414,0.402,462.239,447.904,0.0487349,454.912,1.52687,1.49236,0.0904763,0.0971,-0.185818,0.488237,0.00153558,0.00148374,0.341247,0.09469556304936,0.6294409817268232,0.0015367596066844236,0.10197056516785818,0.0014848412868009309,-0.169575281471955
415,0.403,462.163,447.647,-0.0338601,454.944,1.47614,1.49936,0.0906684,0.0972995,-0.18621,0.489272,0.00153936,0.0014881,0.341977,0.09490587426676766,0.6311283261930447,0.0015405454227908066,0.1021904302264196,0.0014892077702277629,-0.16990074416676215
416,0.404,462.278,447.97,0.0758181,454.903,1.54809,1.49695,0.0908597,0.0975013,-0.186603,0.490304,0.00154495,0.0014924,0.342706,0.09511534979621028,0.632812519519957,0.0015461440500879053,0.10241287469913174,0.0014935141830800802,-0.17022690907870142
417,0.405,462.236,447.854,0.0245819,454.914,1.53055,1.49137,0.0910513,0.0977013,-0.186994,0.491336,0.00154931,0.00149659,0.343435,0.09532519399966399,0.6344984518315446,0.0015505108007956014,0.10263337932379901,0.0014977104496955995,-0.17055128693724775
418,0.406,462.236,447.781,0.0249333,454.928,1.51442,1.50806,0.0912427,0.0979011,-0.187386,0.492368,0.00155365,0.00150111,0.344163,0.09553485930612537,0.6361861249233658,0.0015548575394448427,0.10285370748303801,0.00150223722957743,-0.17087636711289111
419,0.407,462.238,447.795,0.0158075,454.922,1.52383,1.50445,0.0914339,0.0981013,-0.187777,0.493399,0.00155834,0.00150537,0.34489,0.09574434559747602,0.6378739027181113,0.0015595548427418393,0.10307452089796132,0.0015065036381953778,-0.17120049108298452
420,0.408,462.234,447.737,0.00902315,454.931,1.51294,1.5125,0.0916251,0.0983008,-0.188168,0.494429,0.00156274,0.0015098,0.345617,0.09595387194643479,0.6395617819464912,0.001563961714478257,0.10329460621766118,0.0015109403218338535,-0.17152448834537848
421,0.409,462.256,447.794,0.022446,454.921,1.53041,1.5108,0.091816,0.0985008,-0.188559,0.495458,0.00156755,0.0015141,0.346343,0.0961631095116795,0.6412497593355391,0.0015687792487202312,0.10351528720626813,0.0015152468281360854,-0.17184835894960626
422,0.41,462.236,447.702,-0.00137753,454.934,1.51369,1.51692,0.092007,0.0987,-0.188949,0.496487,0.00157186,0.0015185,0.347069,0.09637249666143255,0.6429394745472767,0.0015730960194615395,0.10373512934702989,0.0015196535049168958,-0.17217127511687025
423,0.411,462.277,447.809,0.0328258,454.919,1.54081,1.5164,0.0921976,0.0988998,-0.189339,0.497515,0.00157683,0.00152283,0.347795,0.09658148517526888,0.6446292847407371,0.0015780738501185443,0.1039556776579158,0.001523990094405292,-0.17249406537138368
424,0.412,462.235,447.656,-0.014673,454.938,1.51176,1.52211,0.0923884,0.0990984,-0.189729,0.498542,0.00158097,0.00152723,0.34852,0.09679073288423701,0.6463191866322548,0.001582220391927569,0.10417494502802782,0.0015283968096564404,-0.17281672976224283
425,0.413,462.304,447.843,0.0487514,454.914,1.55533,1.52144,0.0925787,0.0992983,-0.190119,0.499568,0.00158619,0.00153158,0.349244,0.09699947202160386,0.6480091769345135,0.0015874486647637909,0.10439569166243001,0.0015327534676583543,-0.1731392683385251
426,0.414,462.227,447.586,-0.0352402,454.945,1.50485,1.52786,0.0927692,0.0994962,-0.190508,0.500595,0.00159002,0.00153599,0.349968,0.09720847032748048,0.6497025517583597,0.0015912847520382911,0.10461427319773953,0.0015371702368400797,-0.17346085461055627
427,0.415,462.341,447.908,0.0746668,454.904,1.5764,1.52594,0.0929592,0.0996963,-0.190897,0.501619,0.00159566,0.00154035,0.350691,0.09741695974270992,0.6513927123859131,0.0015969337428145547,0.10483532862966483,0.00154153694842174,-0.17378231580985581
428,0.416,462.299,447.792,0.0234873,454.915,1.55889,1.52048,0.0931493,0.0998946,-0.191286,0.502643,0.00160008,0.00154459,0.351414,0.09762559853724628,0.6530846046243826,0.0016013608110454491,0.10505443919942703,0.0015457834935410641,-0.1741036519850676
429,0.417,462.3,447.722,0.0240169,454.929,1.54332,1.5369,0.0933393,0.100093,-0.191674,0.503667,0.00160449,0.00154917,0.352136,0.09783416721436522,0.6547782302478458,0.0016057778827862634,0.1052737037504885,0.0015503705837338622,-0.17442403760926695
430,0.418,462.301,447.734,0.014557,454.923,1.5523,1.5335,0.0935291,0.100291,-0.192062,0.50469,0.00160923,0.00155349,0.352858,0.0980425559147644,0.6564719345594356,0.0016105255054252865,0.1054925696108362,0.0015546972906803624,-0.17474429894795707
431,0.419,462.297,447.679,0.00858498,454.932,1.54218,1.54143,0.0937189,0.100489,-0.19245,0.505712,0.00161369,0.00155796,0.353579,0.09825098417109301,0.6581657142505504,0.0016149926983308749,0.1057114788109148,0.0015591742501832595,-0.1750644360493514
432,0.42,462.317,447.732,0.02069,454.923,1.55874,1.53994,0.0939084,0.100687,-0.192838,0.506733,0.00161855,0.00156232,0.3543,0.09845912245307264,0.6598595660089779,0.0016198605590242998,0.10593043135930635,0.001563541057702622,-0.17538444896164462
433,0.421,462.299,447.646,-0.00112055,454.934,1.5434,1.54597,0.0940979,0.100885,-0.193225,0.507755,0.00162294,0.00156677,0.355021,0.09866730018099434,0.6615568096292002,0.0016242576798637387,0.10614942726459464,0.0015679980253771042,-0.17570351343693824
434,0.422,462.337,447.745,0.0301616,454.92,1.56875,1.54565,0.0942872,0.101083,-0.193612,0.508774,0.00162794,0.00157116,0.35574,0.098875297587252,0.6632507989591949,0.0016292658136725091,0.10636846653536525,0.0015723949185395547,-0.17602245445817
435,0.423,462.299,447.604,-0.0132043,454.938,1.54225,1.55125,0.0944765,0.10128,-0.193999,0.509794,0.00163217,0.00157561,0.35646,0.09908333437114569,0.6649481802914499,0.0016335027144280811,0.10658644259320948,0.0015768519256138536,-0.17634127207310712
436,0.424,462.362,447.775,0.0444615,454.915,1.58243,1.55083,0.0946654,0.101478,-0.194385,0.510812,0.0016374,0.00158002,0.357178,0.09929097082365379,0.6666439605446874,0.0016387412713458893,0.10680556840158206,0.0015812688892702376,-0.17665914298905327
437,0.425,462.292,447.541,-0.0315949,454.944,1.53672,1.55705,0.0948545,0.101674,-0.194771,0.511831,0.00164136,0.00158448,0.357897,0.09949886640214389,0.6683431363235119,0.0016427077686151925,0.10702252355389907,0.0015857359516910918,-0.17697689123050364
438,0.426,462.396,447.832,0.0674408,454.907,1.60188,1.55551,0.0950431,0.101873,-0.195157,0.512847,0.00164697,0.0015889,0.358614,0.09970625144414225,0.6700390343203155,0.001648326999967642,0.10724284295713993,0.0015901629704275777,-0.17729451684480135
439,0.427,462.274,447.444,-0.0613375,454.955,1.52388,1.56343,0.0952321,0.102068,-0.195543,0.513865,0.00165047,0.00159337,0.359332,0.09991411556820617,0.6717399997017368,0.001651832775247275,0.10745877636433954,0.0015946400884625511,-0.17761201987927133
440,0.428,462.281,447.471,-0.0607192,454.949,1.53564,1.55873,0.0954207,0.102265,-0.195928,0.51488,0.00165516,0.00159771,0.360049,0.10012157893358276,0.673437677227029,0.001656530533359124,0.10767696723437825,0.0015989870186332578,-0.1779285783102098
441,0.429,462.384,447.724,0.0404351,454.92,1.58992,1.56588,0.0956089,0.102463,-0.196313,0.515895,0.00166059,0.00160226,0.360765,0.10032864129869545,0.6751370787698001,0.0016619695430868386,0.10789630898800784,0.0016035443043920239,-0.1782450148896101
442,0.43,462.308,447.493,-0.0442937,454.946,1.54647,1.56866,0.0957974,0.102658,-0.196698,0.51691,0.0016646,0.00160668,0.361481,0.10053607279738475,0.6768382060808165,0.0016659862156380711,0.10811236983350825,0.001607971401841768,-0.17856132966437632
443,0.431,462.427,447.815,0.0723667,454.907,1.61648,1.57012,0.0959853,0.102856,-0.197082,0.517922,0.0016703,0.00161118,0.362196,0.10074288295466904,0.6785360252969928,0.001671695728031608,0.10833179780538749,0.0016124786478544095,-0.17887670155850632
444,0.432,462.385,447.705,0.0215635,454.917,1.6006,1.56404,0.0961734,0.103052,-0.197467,0.518935,0.00167482,0.0016155,0.36291,0.10094995216520153,0.6802372438123185,0.0016762232943285937,0.10854905212798549,0.0016168056231082861,-0.1791927731807148
445,0.433,462.386,447.638,0.0223346,454.929,1.586,1.57997,0.0963614,0.103248,-0.197851,0.519948,0.00167932,0.00162014,0.363625,0.10115695021341553,0.681940186535164,0.0016807308474755533,0.10876634903660398,0.0016214531358687,-0.1795079026470836
446,0.434,462.387,447.65,0.0128897,454.924,1.59484,1.57676,0.0965492,0.103444,-0.198235,0.520959,0.00168414,0.00162454,0.364339,0.1013637669081453,0.683641487926693,0.0016855589602338128,0.10898368853959073,0.0016258602799581467,-0.17982291112696813
447,0.435,462.383,447.598,0.00753689,454.932,1.58546,1.58457,0.0967369,0.103639,-0.198618,0.52197,0.0016887,0.0016291,0.365052,0.10157051228964109,0.6853445102036901,0.0016901266567970197,0.10919996144477895,0.00163042770429489,-0.1801369788042071
448,0.436,462.402,447.647,0.0186033,454.924,1.60128,1.58332,0.0969244,0.103835,-0.199001,0.52298,0.00169363,0.00163354,0.365765,0.10177707612544995,0.6870475680584385,0.0016950650012945712,0.10941738594412698,0.0016348749532666407,-0.1804509262165579
449,0.437,462.385,447.568,-0.00145837,454.934,1.5872,1.58928,0.0971119,0.10403,-0.199384,0.52399,0.00169813,0.00163807,0.366477,0.10198367869560898,0.688752346870557,0.0016995726392292632,0.10963374342855525,0.00163941236952736,-0.18076475341007314
450,0.438,462.42,447.659,0.0271883,454.921,1.61098,1.58918,0.0972991,0.104226,-0.199767,0.524998,0.00170319,0.00164255,0.367189,0.10218998935033574,0.6904554674647754,0.0017046412518904042,0.10985125295750464,0.0016438997241465803,-0.1810784604307879
451,0.439,462.385,447.529,-0.0123348,454.938,1.58688,1.5947,0.0974864,0.104421,-0.200149,0.526007,0.00170755,0.00164708,0.3679,0.10239644886967136,0.6921619978312352,0.001709008693647096,0.11006769505425007,0.001648437181289708,-0.18139122871635738
452,0.44,462.443,447.685,0.0398654,454.917,1.62389,1.59455,0.0976733,0.104616,-0.200531,0.527014,0.00171281,0.00165157,0.368611,0.10260250602140619,0.6938668632187057,0.001714277696890365,0.11028417936131962,0.001652934592869304,-0.18170387754725914
453,0.441,462.38,447.473,-0.0285425,454.943,1.58276,1.6006,0.0978604,0.10481,-0.200913,0.528021,0.00171693,0.0016561,0.369321,0.10280882225056409,0.6955734462703203,0.001718404768216164,0.11049959538679444,0.0016574720909403595,-0.18201640696911603
454,0.442,462.473,447.734,0.0598862,454.91,1.64177,1.59945,0.098047,0.105006,-0.201294,0.529026,0.00172253,0.00166061,0.370031,0.1030146255776494,0.6972783541565348,0.0017240144069898822,0.1107172746393601,0.0016619895763263504,-0.1823279993559419
455,0.443,462.364,447.388,-0.0543112,454.953,1.57242,1.60704,0.0982339,0.105199,-0.201676,0.530033,0.00172624,0.00166516,0.37074,0.10322079827740849,0.6989883743098138,0.0017277308099772348,0.1109316637612503,0.001666547148747588,-0.18264029040879926
456,0.444,462.37,447.411,-0.0553033,454.947,1.5832,1.60255,0.0984205,0.105394,-0.202057,0.531037,0.00173103,0.00166958,0.371449,0.10342667848639309,0.7006950152280018,0.0017325290972998175,0.1111483165586451,0.0016709745246703545,-0.18295164514131057
457,0.445,462.463,447.637,0.0362991,454.921,1.63199,1.61003,0.0986067,0.105589,-0.202437,0.53204,0.00173646,0.00167422,0.372157,0.10363215566325867,0.7024016680716008,0.001737968519700761,0.11136501160745449,0.0016756222887750472,-0.18326206453273708
458,0.446,462.395,447.432,-0.0395846,454.944,1.59382,1.61262,0.0987932,0.105782,-0.202818,0.533044,0.00174064,0.00167873,0.372865,0.10383800225488793,0.7041117376576287,0.0017421557931605047,0.11157952575464414,0.0016801398560186698,-0.1835731824144302
459,0.447,462.5,447.715,0.0634934,454.91,1.65597,1.61448,0.0989791,0.105978,-0.203198,0.534046,0.00174631,0.0016833,0.373572,0.10404322481435302,0.7058201133720601,0.0017478356872864254,0.11179741669430654,0.001684717544717662,-0.18388336566656227
460,0.448,462.384,447.354,-0.060283,454.953,1.58449,1.62022,0.0991655,0.10617,-0.203578,0.535049,0.00175001,0.00168785,0.374279,0.10424903765261906,0.7075319092679071,0.0017515421611353776,0.1120109022922735,0.0016892752205512895,-0.18419343107145092
461,0.449,462.393,447.383,-0.0571613,454.947,1.59624,1.61658,0.0993514,0.106364,-0.203958,0.53605,0.00175484,0.00169231,0.374986,0.10445433663066739,0.7092420044689394,0.0017563806327689502,0.11222665333449267,0.0016937427646814829,-0.18450337867386957
462,0.45,462.486,447.613,0.0350711,454.921,1.64581,1.62385,0.0995371,0.106558,-0.204337,0.53705,0.00176031,0.00169697,0.375691,0.10465945284543077,0.7109521013793554,0.0017618602551578988,0.11244244623647415,0.0016984106683988198,-0.18481239333137567
463,0.451,462.419,447.408,-0.0399998,454.945,1.60758,1.62673,0.0997229,0.106751,-0.204716,0.53805,0.00176451,0.00170151,0.376397,0.10486471764027838,0.7126639092420155,0.001766067663806492,0.11265716834861506,0.0017029583895067368,-0.18512129089451734
464,0.452,462.524,447.691,0.0627267,454.91,1.66994,1.62844,0.0999082,0.106945,-0.205095,0.539048,0.00177022,0.00170611,0.377102,0.10506946804199613,0.7143740010172965,0.0017717877643836921,0.11287304477861149,0.0017075662337131536,-0.18543007140766488
465,0.453,462.408,447.332,-0.0603585,454.953,1.59852,1.63436,0.100094,0.107137,-0.205473,0.540048,0.00177395,0.00171068,0.377806,0.10527480902474484,0.7160892324911148,0.001775524380120741,0.11308673691699767,0.0017121440477512184,-0.1857379206534998
466,0.454,462.417,447.362,-0.0569264,454.947,1.61051,1.63075,0.100279,0.10733,-0.205852,0.541045,0.00177881,0.00171517,0.37851,0.10547930377959602,0.7178010266434987,0.0017803930210000818,0.11330158338924035,0.0017166417453753358,-0.18604646750824982
467,0.455,462.509,447.589,0.0341032,454.922,1.65958,1.63797,0.100464,0.107524,-0.20623,0.542042,0.0017843,0.00171985,0.379214,0.10568383636947654,0.7195145283057045,0.0017858928104546035,0.11351758484788199,0.001721329790228765,-0.18635408380038976
468,0.456,462.443,447.387,-0.0395758,454.944,1.62208,1.64089,0.10065,0.107716,-0.206608,0.543039,0.00178854,0.00172442,0.379917,0.10588951269034608,0.7212297391809688,0.0017901403916451564,0.11373140074984245,0.0017259076671662932,-0.1866615838355451
469,0.457,462.546,447.666,0.0611249,454.911,1.68341,1.64262,0.100834,0.10791,-0.206985,0.544034,0.00179426,0.00172905,0.380619,0.10609301508232694,0.7229432150843502,0.0017958706476366437,0.11394748560114087,0.0017305456688556653,-0.18696815462621408
470,0.458,462.433,447.313,-0.0591925,454.953,1.61353,1.64853,0.101019,0.108101,-0.207362,0.54503,0.00179804,0.00173365,0.381321,0.10629766121930118,0.7246601214039883,0.0017996574431846657,0.11416026989114347,0.0017351536399641265,-0.18727460986147837
471,0.459,462.442,447.343,-0.0559406,454.947,1.62541,1.64498,0.101204,0.108293,-0.207739,0.546024,0.00180293,0.00173817,0.382023,0.10650234521931301,0.7263752858601782,0.0018045562554871442,0.11437420920047914,0.0017396814930916715,-0.18758094958489446
472,0.46,462.532,447.564,0.0330006,454.922,1.67336,1.65224,0.101389,0.108486,-0.208116,0.547017,0.00180844,0.00174288,0.382724,0.10670706708936772,0.7280904279461484,0.001810076213799583,0.11458930417885238,0.0017443996981028054,-0.18788717384000186
473,0.461,462.468,447.369,-0.0386732,454.944,1.63703,1.65514,0.101573,0.108677,-0.208493,0.548011,0.00181272,0.00174747,0.383424,0.1069107199251984,0.7298090038222362,0.0018143639701015957,0.11480221106791122,0.001748997715449896,-0.1881932826703242
474,0.462,462.567,447.639,0.0590026,454.911,1.69665,1.65695,0.101757,0.10887,-0.208869,0.549002,0.00181844,0.00175213,0.384124,0.10711441023659862,0.731524094231959,0.0018200943646524692,0.11501738865861699,0.0017536658766559299,-0.1884984646182385
475,0.463,462.458,447.298,-0.0573346,454.952,1.62911,1.66279,0.101942,0.109061,-0.209245,0.549995,0.00182229,0.00175675,0.384824,0.10731924534915604,0.7332443516239715,0.0018239513794404694,0.11523037731962038,0.0017582939892832883,-0.1888035318393103
476,0.464,462.466,447.326,-0.0545628,454.946,1.64072,1.6593,0.102126,0.109252,-0.20962,0.550986,0.0018272,0.0017613,0.385523,0.10752301083615023,0.7349628481508179,0.0018288703471178724,0.11544340666534336,0.001762851999890458,-0.18910767348474788
477,0.465,462.553,447.541,0.0318422,454.922,1.68722,1.66665,0.10231,0.109445,-0.209996,0.551975,0.00183272,0.00176604,0.386222,0.1077268138194436,0.7366795751892292,0.0018344004577453,0.11565870801874212,0.0017676003670625828,-0.18941251168634432
478,0.466,462.491,447.352,-0.0375415,454.943,1.65226,1.6695,0.102494,0.109635,-0.210371,0.552966,0.00183705,0.00177066,0.38692,0.10793065430593596,0.7384014777100201,0.0018387384100908566,0.11587070331218063,0.0017722285440673335,-0.1897164250071528
479,0.467,462.587,447.612,0.0566369,454.912,1.70984,1.67142,0.102677,0.109827,-0.210746,0.553954,0.00184277,0.00177534,0.387617,0.10813342416855054,0.7401198671145803,0.0018444689440639817,0.11608497105626192,0.0017769168490675558,-0.1900202243818322
480,0.468,462.482,447.284,-0.0551621,454.951,1.64503,1.67715,0.102861,0.110017,-0.21112,0.554943,0.00184669,0.00178,0.388315,0.10833733947823077,0.7418416969676727,0.001848396182079437,0.11629704734737212,0.0017815851403770733,-0.19032310017660936
481,0.469,462.625,447.693,0.0853979,454.9,1.73488,1.67549,0.103044,0.11021,-0.211495,0.555929,0.0018529,0.00178467,0.389011,0.10854018377104202,0.7435599998650007,0.0018546176799376646,0.11651251346932212,0.0017862634713035064,-0.1906266720907518
482,0.47,462.576,447.559,0.0281512,454.913,1.71347,1.67086,0.103228,0.1104,-0.211869,0.556916,0.00185758,0.0017892,0.389708,0.10874417393137503,0.7452817431253937,0.0018593063705198976,0.11672467100120865,0.0017908015733558713,-0.1909293211164942
483,0.471,462.564,447.459,0.0173133,454.93,1.69185,1.68725,0.103411,0.11059,-0.212243,0.557903,0.0018622,0.00179405,0.390404,0.108947092681704,0.7470051865852958,0.0018639349712072928,0.11693686884685572,0.0017956602705258007,-0.1912318569726651
484,0.472,462.571,447.492,0.0151413,454.922,1.70504,1.68413,0.103594,0.110781,-0.212617,0.558889,0.00186731,0.00179865,0.391099,0.10915004856956201,0.7487285831941737,0.001869054508995438,0.11715022416358978,0.00180026854116222,-0.19153427970158188
485,0.473,462.555,447.408,-0.00141115,454.934,1.68906,1.69234,0.103777,0.110971,-0.21299,0.559874,0.00187198,0.00180341,0.391794,0.10935304160174608,0.7504519294573184,0.0018737332484048963,0.11736250287201955,0.0018050371217896988,-0.1918357811817315
486,0.474,462.586,447.496,0.0223296,454.921,1.71293,1.69091,0.10396,0.111162,-0.213363,0.560858,0.00187725,0.00180806,0.392488,0.10955607178505433,0.7521752218767257,0.0018790131368915386,0.11757593949261635,0.0018096955260429315,-0.1921371702228002
487,0.475,462.553,447.371,-0.0134105,454.938,1.68915,1.69759,0.104143,0.111351,-0.213736,0.561842,0.00188182,0.00181279,0.393182,0.10975913912628621,0.7539002108504416,0.0018835917344437458,0.11778718130690313,0.001814434097109574,-0.19243844686672007
488,0.476,462.605,447.52,0.0341578,454.918,1.72524,1.69693,0.104325,0.111542,-0.214108,0.562824,0.00188727,0.00181747,0.393875,0.10996113367055305,0.7556233867984121,0.001889052014897974,0.11800069904882804,0.001819122599632239,-0.19273880389461473
489,0.477,462.546,447.321,-0.0284179,454.942,1.6864,1.70362,0.104508,0.111731,-0.214481,0.563807,0.00189163,0.00182221,0.394569,0.1101642751448928,0.75735001308542,0.0018934202606875061,0.11821202115025775,0.001823871233527674,-0.19303985617102204
490,0.478,462.631,447.563,0.0518107,454.911,1.7419,1.70239,0.10469,0.111921,-0.214853,0.564788,0.00189739,0.00182691,0.395261,0.11036634343062546,0.7590748193273946,0.0018991911834083108,0.11842450161928175,0.0018285798167876344,-0.19333998951626308
491,0.479,462.533,447.248,-0.050685,454.95,1.67857,1.71024,0.104873,0.11211,-0.215225,0.56577,0.00190139,0.00183165,0.395953,0.11056955906513655,0.7608030792367062,0.0019031987881883428,0.11863590382696709,0.0018333284955103224,-0.19364001123266394
492,0.48,462.666,447.637,0.0791593,454.901,1.76511,1.70726,0.105055,0.112301,-0.215596,0.566749,0.00190762,0.00183636,0.396644,0.1107717011192555,0.7625277495396425,0.0019094406645601136,0.11884958369037535,0.0018380471415999633,-0.19393911530126107
493,0.481,462.619,447.507,0.0247517,454.914,1.74411,1.70343,0.105237,0.11249,-0.215968,0.567729,0.00191236,0.00184097,0.397336,0.11097387996657604,0.7642558733765641,0.0019141897265642083,0.11906106624616486,0.0018426656256427254,-0.1942389141843195
494,0.482,462.609,447.417,0.0164755,454.93,1.72458,1.71941,0.105419,0.112678,-0.216338,0.568708,0.00191708,0.00184587,0.398026,0.11117609561379571,0.7659839256201533,0.0019189187727002288,0.11927146950390566,0.0018475746667314663,-0.1945369906385267
495,0.483,462.614,447.442,0.0125477,454.922,1.73614,1.71674,0.1056,0.112867,-0.216709,0.569687,0.00192222,0.00185055,0.398716,0.11137723668982003,0.7677136704552774,0.0019240686491779346,0.1194830318036495,0.001852263324352288,-0.19483576198948727
496,0.484,462.602,447.37,-0.000611523,454.933,1.72271,1.72467,0.105782,0.113056,-0.21708,0.570665,0.001927,0.00185536,0.399406,0.11157952575464414,0.7694433400955698,0.0019288578576721616,0.11969463409244674,0.0018570822453285452,-0.19513442251683566
497,0.485,462.627,447.444,0.0186511,454.922,1.74355,1.72364,0.105964,0.113245,-0.21745,0.571641,0.00193229,0.00186007,0.400095,0.11178185163942844,0.7711711598343791,0.001934158075349357,0.11990627637785622,0.0018618010032984689,-0.19543216769424987
498,0.486,462.6,447.338,-0.0109716,454.936,1.72383,1.73003,0.106145,0.113433,-0.21782,0.572618,0.00193698,0.00186487,0.400784,0.11198310236721665,0.7729024396500142,0.0019388571575700286,0.1201168385500393,0.001866609951484799,-0.19572980272632656
499,0.487,462.645,447.463,0.0285189,454.919,1.7548,1.72982,0.106327,0.113622,-0.21819,0.573593,0.00194243,0.00186962,0.401472,0.11218550170962893,0.7746318624853026,0.001944317739221768,0.12032856063963249,0.0018713688291844832,-0.19602732765381192
500,0.488,462.596,447.296,-0.0234642,454.94,1.72272,1.7361,0.106508,0.11381,-0.218559,0.574569,0.00194695,0.00187441,0.40216,0.11238682550469226,0.7763647486939991,0.0019488465377728303,0.12053920220871972,0.0018761678045347008,-0.196323938841778
501,0.489,462.667,447.497,0.0429631,454.914,1.76961,1.73549,0.106689,0.113999,-0.218929,0.575543,0.00195264,0.00187918,0.402848,0.1125881857426605,0.7780957708301592,0.0019545476429294606,0.12075100413258855,0.0018809467652527445,-0.19662124397956426
502,0.49,462.586,447.235,-0.0416396,454.946,1.71753,1.74268,0.10687,0.114186,-0.219298,0.576517,0.00195688,0.00188398,0.403535,0.11278958243013015,0.779828479803236,0.0019587959392177723,0.12096060416735366,0.0018857558053391177,-0.1969176360528352
503,0.491,462.696,447.556,0.0650427,454.905,1.78965,1.74068,0.107051,0.114375,-0.219666,0.577489,0.00196296,0.00188876,0.404221,0.11299101557369973,0.7815593141348178,0.0019648878672164916,0.12117248574371975,0.0018905448306976158,-0.19721311599112457
504,0.492,462.654,447.442,0.0162702,454.917,1.77171,1.7371,0.107231,0.114562,-0.220035,0.578462,0.00196779,0.00189343,0.404907,0.1131913719880393,0.7832936149479905,0.001969727369312224,0.12138216460291607,0.0018952236704670167,-0.19750928970391313
505,0.493,462.653,447.38,0.0165216,454.928,1.75859,1.75207,0.107412,0.11475,-0.220403,0.579434,0.00197266,0.00189839,0.405593,0.1133928778621005,0.7850278190283657,0.0019746069737665017,0.12159300426816899,0.00190019308310041,-0.19780455195371605
506,0.494,462.651,447.386,0.00674069,454.924,1.76572,1.75012,0.107593,0.114937,-0.220771,0.580405,0.00197781,0.00190313,0.406278,0.11359442021202604,0.7867619228117804,0.001979767156279788,0.12180276177168237,0.0019049421012709011,-0.1980997055670013
507,0.495,462.649,447.345,0.00349242,454.931,1.75916,1.75742,0.107773,0.115124,-0.221139,0.581376,0.00198275,0.001908,0.406962,0.1137948852489763,0.7884977112277256,0.0019847169485553984,0.12201255850351678,0.0019098213902200012,-0.1983947505837399
508,0.496,462.661,447.381,0.0105194,454.924,1.77188,1.7572,0.107953,0.115312,-0.221506,0.582346,0.00198799,0.00191279,0.407647,0.11399538637288087,0.790233395678483,0.00198996736222834,0.12222351669396403,0.001914620549758439,-0.19868888573317434
509,0.497,462.65,447.324,-0.00310904,454.932,1.76268,1.76281,0.108133,0.115499,-0.221874,0.583315,0.0019929,0.00191764,0.40833,0.11419592359023611,0.7919689725901058,0.0019948871450461425,0.12243339211432591,0.0019194798474517771,-0.1989837139715015
510,0.498,462.674,447.388,0.0160363,454.923,1.78054,1.76364,0.108313,0.115686,-0.222241,0.584284,0.00199822,0.00192246,0.409013,0.11439649690753928,0.7937062320908388,0.0020002177720253034,0.12264330678506141,0.001924309110983291,-0.19927763301103119
511,0.499,462.651,447.299,-0.0100625,454.934,1.76516,1.76879,0.108493,0.115872,-0.222607,0.585252,0.00200306,0.00192731,0.409696,0.11459710633128917,0.7954433803676229,0.0020050674648155464,0.1228521378608114,0.0019291684556663746,-0.19957064377310885
512,0.5,462.688,447.402,0.0235584,454.92,1.79108,1.7697,0.108673,0.11606,-0.222974,0.586219,0.00200851,0.00193215,0.410379,0.11479775186798546,0.7971804138367642,0.002010528407314194,0.12306325390701578,0.0019340178045770262,-0.199864347448923
513,0.501,462.649,447.266,-0.0195557,454.937,1.76561,1.77513,0.108853,0.116246,-0.22334,0.587186,0.00201321,0.00193701,0.411061,0.11499843352412897,0.7989191278296721,0.0020152378678650607,0.12327216310019518,0.001938887215736207,-0.20015714351280856
514,0.502,462.707,447.429,0.0346878,454.916,1.80425,1.77547,0.109032,0.116433,-0.223706,0.588152,0.00201886,0.00194186,0.411742,0.11519803610762791,0.8006577233135759,0.002020899269952414,0.12348223463577135,0.0019437466311233997,-0.20044983243294312
515,0.503,462.642,447.217,-0.0336814,454.943,1.76289,1.78181,0.109212,0.116618,-0.224072,0.589118,0.00202333,0.00194673,0.412423,0.11539878982141949,0.8023979990921688,0.0020253783133827863,0.12369009807595432,0.0019486261090508883,-0.20074241424853434
516,0.504,462.731,447.474,0.0517514,454.91,1.82142,1.7809,0.109391,0.116805,-0.224437,0.590082,0.0020293,0.00195159,0.413103,0.11559846407511021,0.8041363485130943,0.0020313604227479853,0.12390024777267872,0.001953495591206611,-0.20103409003326478
517,0.505,462.627,447.146,-0.055256,454.951,1.75527,1.7889,0.109571,0.11699,-0.224803,0.591047,0.00203341,0.00195648,0.413784,0.11579928987242316,0.8058781803881194,0.002035478780102462,0.12410818855244576,0.0019583951557795576,-0.20132645804970184
518,0.506,462.635,447.178,-0.0525134,454.944,1.76793,1.78537,0.10975,0.117176,-0.225168,0.59201,0.0020386,0.00196126,0.414463,0.11599903582203952,0.807618078702411,0.0020406793577327775,0.12431729212154563,0.0019631845283549776,-0.20161792069734463
519,0.507,462.713,447.371,0.0244347,454.922,1.81033,1.79246,0.109929,0.117363,-0.225532,0.592973,0.00204432,0.00196624,0.415142,0.1161988175293811,0.8093596533458018,0.0020464110468112473,0.1245275591145234,0.0019681743174384536,-0.20190847888941177
520,0.508,462.659,447.209,-0.0351278,454.94,1.78081,1.79545,0.110108,0.117548,-0.225897,0.593935,0.00204898,0.0019711,0.415821,0.11639863500084902,0.8111010948313746,0.0020510805939668586,0.12473561595762406,0.001973043894598625,-0.20219972913821316
521,0.509,462.74,447.431,0.0444633,454.913,1.83073,1.79766,0.110286,0.117734,-0.226261,0.594896,0.00205485,0.00197603,0.416499,0.11659737164491557,0.8128423995464122,0.0020569626510738015,0.12494483623907526,0.001977983633881575,-0.20249007559054677
522,0.51,462.652,447.158,-0.0478309,454.946,1.7771,1.8033,0.110465,0.117918,-0.226625,0.595858,0.00205918,0.00198092,0.417177,0.11679726046395578,0.8145871930458901,0.002061301567115814,0.12515184513317745,0.0019828833182011785,-0.20278031637600424
523,0.511,462.768,447.493,0.0659703,454.904,1.85183,1.80242,0.110643,0.118105,-0.226989,0.596817,0.00206543,0.00198584,0.417854,0.11699606806967022,0.8163282168515036,0.0020675644698222584,0.12536226820216112,0.0019878130861143983,-0.20307045153304126
524,0.512,462.725,447.376,0.0157321,454.916,1.83342,1.79886,0.110822,0.11829,-0.227353,0.597777,0.00207038,0.00199063,0.418531,0.11719602826175812,0.8180727291716161,0.002072524716542956,0.12557047948072797,0.001992612619234002,-0.20336048110009974
525,0.513,462.721,447.312,0.0143517,454.928,1.8198,1.81365,0.111,0.118474,-0.227716,0.598737,0.00207536,0.0019957,0.419208,0.11739490685445819,0.8198189170276846,0.002077515050141976,0.1257776035037781,0.0019976927346581075,-0.20364960876561422
526,0.514,462.72,447.319,0.00535639,454.923,1.82731,1.81187,0.111178,0.118659,-0.228079,0.599695,0.00208064,0.00200056,0.419884,0.1175938208506988,0.8215631388990747,0.002082806033389506,0.12598589162648377,0.0020025624552781895,-0.203938631496833
527,0.515,462.716,447.277,0.00107587,454.93,1.82042,1.81917,0.111357,0.118844,-0.228442,0.600653,0.0020857,0.00200555,0.42056,0.11779388805011126,0.8233090325356656,0.002087876585216586,0.12619421828605648,0.0020075624605397913,-0.20422754933184006
528,0.516,462.729,447.316,0.00899336,454.924,1.83367,1.81912,0.111534,0.119029,-0.228804,0.60161,0.00209107,0.00201045,0.421235,0.1179917550790115,0.8250547744840881,0.0020932578115624434,0.1264025834896263,0.0020124723096248687,-0.20451556682467043
529,0.517,462.716,447.257,-0.0054991,454.932,1.8241,1.8248,0.111712,0.119213,-0.229167,0.602567,0.0020961,0.00201543,0.421909,0.11819077532369193,0.8268021879072285,0.0020982983533262,0.126609860633901,0.002017462344162224,-0.20480427527015999
530,0.518,462.74,447.323,0.0143954,454.922,1.84254,1.82574,0.11189,0.119397,-0.229529,0.603523,0.00210156,0.00202036,0.422584,0.11838983099712896,0.8285494458550935,0.0021037698249721792,0.1268171759206791,0.002022402302428672,-0.20509208402598444
531,0.519,462.716,447.233,-0.0123137,454.934,1.82681,1.83101,0.112068,0.119581,-0.22989,0.604478,0.00210651,0.00202534,0.423257,0.11858892210562932,0.8302965446827921,0.0021087302509099626,0.1270245293569796,0.0020273923864173593,-0.20537899399328607
532,0.52,462.753,447.338,0.021682,454.92,1.85321,1.832,0.112245,0.119766,-0.230252,0.605433,0.0021121,0.00203029,0.423931,0.1187869298680122,0.8320453127868239,0.0021143320543690614,0.12723304818230718,0.002032352434285789,-0.20566659473858495
533,0.521,462.713,447.201,-0.0214733,454.937,1.82762,1.83757,0.112423,0.119949,-0.230613,0.606387,0.00211692,0.00203528,0.424604,0.11898609166640273,0.8337939179672742,0.0021191622570904123,0.12743935070622991,0.0020373525881998145,-0.20595329734495027
534,0.522,462.77,447.365,0.0322976,454.915,1.86634,1.83796,0.1126,0.120134,-0.230974,0.60734,0.0021227,0.00204025,0.425276,0.11918416973401968,0.835542356569762,0.002124954522587874,0.12764794628060616,0.002042332726217788,-0.20623989647035412
535,0.523,462.706,447.156,-0.034873,454.942,1.8255,1.84446,0.112777,0.120317,-0.231335,0.608293,0.00212731,0.00204524,0.425948,0.11938228286455743,0.8372924622284641,0.002129574329276851,0.12785432473782854,0.002047332929933532,-0.2065263921521463
536,0.524,462.792,447.408,0.0483054,454.909,1.88315,1.84362,0.112954,0.120501,-0.231696,0.609245,0.00213338,0.00205022,0.42662,0.11958043106422278,0.8390423974895256,0.0021356572742547986,0.12806186902706918,0.002052323138077128,-0.2068127844276635
537,0.525,462.692,447.09,-0.0549847,454.949,1.81892,1.85172,0.113131,0.120683,-0.232056,0.610197,0.00213766,0.00205523,0.427291,0.11977861433922365,0.8407939994821938,0.0021399464240465793,0.12826719497132633,0.002057343432791958,-0.20709828043290524
538,0.526,462.822,447.477,0.0726847,454.9,1.9055,1.84887,0.113308,0.120868,-0.232416,0.611147,0.00214418,0.00206022,0.427961,0.11997683269576864,0.8425435847030984,0.0021464803977979674,0.1284759437110592,0.0020623437114113408,-0.20738367367808297
539,0.527,462.775,447.348,0.0193491,454.913,1.88418,1.84608,0.113484,0.121051,-0.232776,0.612098,0.00214919,0.00206511,0.428632,0.12017396596554208,0.8442966771154683,0.002151501164241898,0.12868247370567643,0.002067243808252739,-0.20766896420018377
540,0.528,462.765,447.265,0.0119945,454.927,1.86666,1.86126,0.113661,0.121234,-0.233136,0.613048,0.00215422,0.00207027,0.429302,0.12037225430551834,0.8460495914612085,0.002156541998970418,0.12888904149874114,0.002072414488571317,-0.20795415203618117
541,0.529,462.767,447.284,0.00673801,454.922,1.87656,1.85944,0.113838,0.121417,-0.233495,0.613997,0.00215963,0.00207523,0.429971,0.12057057774563695,0.8478023240635821,0.002161963680528123,0.12909564709717092,0.0020773847800734657,-0.20823844546187686
542,0.53,462.757,447.225,-0.00329882,454.931,1.86607,1.86702,0.114014,0.121599,-0.233855,0.614946,0.00216474,0.00208031,0.43064,0.12076781552373572,0.8495567207987018,0.0021670847412469385,0.12930116120615942,0.002082475346118162,-0.20852342832151805
543,0.531,462.776,447.284,0.0111108,454.922,1.8836,1.86678,0.11419,0.121782,-0.234214,0.615893,0.00217026,0.00208531,0.431309,0.12096508801873807,0.8513090806247148,0.0021726167188229617,0.12950784222939693,0.002087485771020914,-0.2088075174137075
544,0.532,462.755,447.201,-0.011375,454.933,1.8689,1.87289,0.114366,0.121965,-0.234572,0.616841,0.00217532,0.00209037,0.431977,0.12116239523675532,0.8530649537855242,0.0021776877250931914,0.1297145610787227,0.0020925563465274966,-0.20909071362732645
545,0.533,462.788,447.297,0.0181099,454.919,1.89372,1.87347,0.114542,0.122147,-0.234931,0.617787,0.00218097,0.0020954,0.432644,0.12135973718389903,0.8548187826620699,0.00218335004502479,0.12992018784030668,0.0020975968847627424,-0.20937459910064282
546,0.534,462.752,447.172,-0.0202143,454.935,1.87041,1.87937,0.114718,0.122329,-0.235289,0.618733,0.00218591,0.00210047,0.433312,0.12155711386628187,0.8565742714457449,0.0021883008430025885,0.1301258520293671,0.002102677532458408,-0.20965759233535342
547,0.535,462.803,447.32,0.0278144,454.916,1.90618,1.87975,0.114894,0.122512,-0.235647,0.619678,0.00219173,0.00210552,0.433978,0.12175452529001807,0.858329563377072,0.002194133595886827,0.13033268398483533,0.0021077381637579773,-0.2099404842766185
548,0.536,462.745,447.131,-0.032316,454.94,1.86941,1.88625,0.11507,0.122693,-0.236005,0.620624,0.00219648,0.00211059,0.434645,0.1219519714612225,0.860088374930726,0.0021988940293273807,0.13053729271716819,0.0021128188628700695,-0.2102232749606947
549,0.537,462.822,447.359,0.0419772,454.91,1.92186,1.88568,0.115245,0.122876,-0.236362,0.621567,0.00220256,0.00211566,0.43531,0.12214833023712002,0.861843265569177,0.0022049874171268247,0.130744199973172,0.0021178995877413342,-0.21050517492939524
550,0.538,462.733,447.073,-0.0499944,454.946,1.86457,1.89352,0.115421,0.123057,-0.236719,0.622512,0.00220702,0.00212075,0.435976,0.12234584572409468,0.8636035390533638,0.0022094572613384766,0.1309488831966399,0.0021230003808316855,-0.21078697427776893
551,0.539,462.848,447.419,0.0631486,454.902,1.9423,1.89122,0.115596,0.12324,-0.237076,0.623454,0.0022135,0.00212582,0.436641,0.1225422734340198,0.8653598806941887,0.0022159515996631463,0.1311558657805938,0.002128081157323436,-0.2110686730417305
552,0.54,462.804,447.299,0.0136216,454.914,1.92295,1.88872,0.115771,0.123421,-0.237433,0.624396,0.00221862,0.0021308,0.437306,0.12273873552180192,0.8671178775883412,0.0022210829584716762,0.1313606235223166,0.0021330717675942523,-0.21135027125718242
553,0.541,462.799,447.234,0.0110581,454.926,1.90929,1.90322,0.115947,0.123602,-0.23779,0.625338,0.00222378,0.00213604,0.43797,0.12293635492925148,0.8688775312958046,0.0022262544326021594,0.13156541832854507,0.0021383229586484642,-0.2116317689600139
554,0.542,462.797,447.242,0.00274652,454.922,1.91671,1.90193,0.116122,0.123784,-0.238146,0.626279,0.00222924,0.00214108,0.438634,0.12313288598733019,0.8706369727401242,0.0022317266028903937,0.13177138197680427,0.0021433737485241355,-0.21191237809887375
555,0.543,462.792,447.201,-0.00189454,454.929,1.91018,1.90912,0.116296,0.123965,-0.238502,0.62722,0.00223449,0.00214624,0.439297,0.12332832811246375,0.8723980705980632,0.0022369883332671314,0.13197625113704192,0.0021485448216740366,-0.21219288735865982
556,0.544,462.804,447.239,0.00591165,454.922,1.9232,1.90944,0.116471,0.124146,-0.238858,0.62816,0.00224004,0.00215132,0.43996,0.12352492777185198,0.8741589522691513,0.0022425507639880493,0.13218115738195335,0.002153635749212679,-0.21247329677492255
557,0.545,462.792,447.183,-0.0079935,454.93,1.91434,1.9151,0.116646,0.124327,-0.239214,0.629099,0.00224526,0.00215647,0.440622,0.12372156183919092,0.8759196140266594,0.0022477824837578986,0.13238610071825185,0.0021587968537266633,-0.21275360638319996
558,0.546,462.814,447.246,0.0106899,454.921,1.93208,1.91633,0.116821,0.124508,-0.239569,0.630038,0.00225089,0.00216158,0.441284,0.12391823032050309,0.8776819298220071,0.002253425154657318,0.1325910811526516,0.002163917898262868,-0.21303302925244005
559,0.547,462.791,447.163,-0.0140576,454.932,1.91775,1.92163,0.116995,0.124688,-0.239924,0.630976,0.00225605,0.00216673,0.441946,0.12411380910743985,0.879444021764104,0.0022585967956738617,0.13279496589633544,0.002169079055729828,-0.21331235294416673
560,0.548,462.824,447.26,0.0169847,454.919,1.94251,1.92289,0.117169,0.124869,-0.240279,0.631914,0.0022618,0.00217186,0.442607,0.1243094219280465,0.8812077673238676,0.002264359799174054,0.1330000203420303,0.0021742201962924312,-0.2135915774935816
561,0.549,462.787,447.136,-0.021962,454.934,1.91959,1.92847,0.117344,0.125049,-0.240634,0.632851,0.00226684,0.00217702,0.443268,0.12450619329387624,0.8829712850808933,0.0022694112242771514,0.13320397870139344,0.0021793914286105665,-0.21387070293587396
562,0.55,462.838,447.283,0.025932,454.915,1.95497,1.9292,0.117518,0.12523,-0.240988,0.633787,0.00227276,0.00218217,0.443928,0.12470187439527147,0.8847345712929422,0.0022753446767544983,0.13340910718510623,0.0021845526657664482,-0.21414894345555702
563,0.551,462.781,447.098,-0.0332185,454.939,1.91906,1.93559,0.117692,0.125409,-0.241343,0.634723,0.00227763,0.00218734,0.444588,0.12489758954814079,0.8864995087135308,0.0022802257695686556,0.13361200557415653,0.0021897339732974697,-0.21442787106804972
564,0.552,462.855,447.32,0.0391093,454.91,1.97036,1.93526,0.117866,0.12559,-0.241697,0.635658,0.00228379,0.0021925,0.445247,0.12509333875840944,0.8882642106237586,0.002286399834775299,0.13381720791741714,0.0021949052856666817,-0.21470591438512088
565,0.553,462.769,447.044,-0.0496864,454.945,1.91503,1.94303,0.11804,0.125769,-0.24205,0.636593,0.00228838,0.00219768,0.445907,0.12528912203200426,0.8900305633018863,0.002291000339908811,0.1340201793630369,0.002200096668721674,-0.21498307427574426
566,0.554,462.879,447.377,0.0587143,454.902,1.99008,1.94098,0.118213,0.12595,-0.242404,0.637526,0.00229492,0.00220286,0.446565,0.12548381389047591,0.8917947846987508,0.0022975553444859464,0.1342254555924398,0.002205288078668266,-0.21526092108566375
567,0.555,462.836,447.26,0.0106072,454.914,1.97132,1.93879,0.118387,0.12613,-0.242757,0.63846,0.00230014,0.00220793,0.447223,0.12567966511265505,0.8935625464438846,0.002302787351380342,0.13442963455000134,0.0022103692723596247,-0.21553788509349703
568,0.556,462.832,447.202,0.00948471,454.925,1.95916,1.95293,0.11856,0.126309,-0.24311,0.639392,0.00230543,0.00221326,0.447881,0.12587442454092446,0.8953281693896578,0.002308089547149672,0.1346327156298004,0.0022157110678637792,-0.2158147513502897
569,0.557,462.829,447.206,0.000218935,454.922,1.96563,1.95198,0.118734,0.126489,-0.243463,0.640325,0.00231097,0.00221841,0.448538,0.12607034373527015,0.8970973357594734,0.002313642349347056,0.1348369679007666,0.0022208724920664835,-0.21609151989054176
570,0.558,462.825,447.172,-0.00252478,454.928,1.96071,1.959,0.118907,0.126668,-0.243816,0.641256,0.00231635,0.00222366,0.449195,0.1262651707567879,0.8988643557992619,0.0023190348112485104,0.13504012189976122,0.002226134165458804,-0.21636819074874092
571,0.559,462.835,447.202,0.00282131,454.922,1.97201,1.95963,0.11908,0.126847,-0.244168,0.642187,0.00232197,0.00222884,0.449852,0.1264600314862958,0.900633021700737,0.0023246678600530313,0.1352433122665766,0.002231325710279952,-0.21664398060373524
572,0.56,462.825,447.158,-0.00778649,454.929,1.96552,1.96514,0.119253,0.127026,-0.24452,0.643118,0.00232734,0.00223408,0.450508,0.12665492592962613,0.9024033349969101,0.0023300503579715137,0.13544653900772308,0.002236577416186103,-0.2169196733977844
573,0.561,462.842,447.208,0.00664366,454.921,1.98048,1.96672,0.119426,0.127205,-0.244872,0.644047,0.00233303,0.0022393,0.451164,0.12684985409261196,0.9041714888754331,0.0023357536321837458,0.13564980212971212,0.0022418091047748945,-0.21719526916504772
574,0.562,462.824,447.142,-0.0126772,454.93,1.96982,1.9718,0.119599,0.127384,-0.245224,0.644977,0.00233834,0.00224454,0.451819,0.12704481598108708,0.9059431920743792,0.0023410760491666682,0.1358531016390565,0.0022470608656142144,-0.21747076793967268
575,0.563,462.85,447.218,0.0114871,454.92,1.99018,1.97349,0.119771,0.127563,-0.245575,0.645905,0.00234413,0.00224978,0.452474,0.12723868436163865,0.9077127282944388,0.002346879620798159,0.13605643754227037,0.0022523126539728544,-0.21774538750157324
576,0.564,462.822,447.121,-0.0188047,454.932,1.97296,1.97874,0.119944,0.127741,-0.245926,0.646833,0.00234936,0.00225503,0.453128,0.12743371352356925,0.9094839074062948,0.002352121908687277,0.1362586735866269,0.002257574492426473,-0.21801991068892235
577,0.565,462.861,447.235,0.0182128,454.917,2.00138,1.98006,0.120116,0.12792,-0.246277,0.64776,0.00235528,0.00226028,0.453782,0.12762764880025101,0.9112548196794827,0.0023580558508133898,0.13646208209371724,0.002262836358505105,-0.2182943375355415
578,0.566,462.817,447.092,-0.0273278,454.935,1.97436,1.98591,0.120289,0.128098,-0.246628,0.648688,0.00236037,0.00226555,0.454436,0.1278227452588505,0.9130292873778121,0.002363157866302368,0.1366643903492304,0.002268118297570565,-0.21856866807524034
579,0.567,462.874,447.262,0.0279701,454.913,2.01474,1.98644,0.120461,0.128277,-0.246979,0.649613,0.00236648,0.00227081,0.455089,0.12801674745474556,0.9147996581388824,0.002369282323906985,0.13686787148612134,0.0022733902417380047,-0.2188429023418167
580,0.568,462.808,447.052,-0.0395816,454.939,1.97323,1.99333,0.120633,0.128454,-0.247329,0.65054,0.00237138,0.00227609,0.455742,0.12821078302188837,0.9165755003976948,0.0023741939454238192,0.13706911490889206,0.0022786822592093525,-0.21911625948570634
581,0.569,462.892,447.304,0.0423069,454.907,2.03122,1.99258,0.120805,0.128633,-0.247679,0.651464,0.00237777,0.00228137,0.456394,0.1284048519660188,0.9183472345751968,0.0023805991369878488,0.13727266849796327,0.0022839743046227934,-0.2193895209713368
582,0.57,462.794,446.994,-0.0573873,454.946,1.96839,2.00108,0.120978,0.12881,-0.248029,0.652389,0.00238236,0.00228666,0.457046,0.12860008289239722,0.9201225267132107,0.0023852000744968294,0.13747398357614626,0.0022892764008708433,-0.2196626868321826
583,0.571,462.917,447.367,0.0634116,454.898,2.05226,1.99837,0.121149,0.128989,-0.248378,0.653312,0.00238915,0.00229195,0.457697,0.1287930900082097,0.9218956179610989,0.0023920062931124253,0.13767760964319575,0.0022945785251671236,-0.21993497703707365
584,0.572,462.87,447.241,0.0123713,454.912,2.03134,1.99659,0.121321,0.129166,-0.248728,0.654236,0.00239446,0.00229714,0.458348,0.12898725911775588,0.9236722701990236,0.002397329008797744,0.13787899640230505,0.0022997804475286543,-0.22020795202170174
585,0.573,462.861,447.171,0.00716409,454.924,2.01664,2.01095,0.121492,0.129344,-0.249077,0.655159,0.00239984,0.00230258,0.458999,0.1291803324463643,0.9254486393726793,0.002402721920934825,0.1380815568910132,0.0023052329731649834,-0.22048005196224474
586,0.574,462.86,447.181,0.000118871,454.92,2.02458,2.01003,0.121664,0.129521,-0.249426,0.656081,0.00240552,0.00230784,0.459649,0.12937456816733817,0.9272247216663001,0.002408415584565171,0.13828301515511332,0.0023105051125562603,-0.22075205695647748
587,0.575,462.852,447.138,-0.00611372,454.927,2.01754,2.01724,0.121835,0.129698,-0.249775,0.657002,0.00241099,0.00231321,0.460299,0.12956770773145676,0.9290005132614592,0.0024138987735948803,0.13848450908048227,0.002315887534420469,-0.2210239670375307
588,0.576,462.865,447.18,0.00298263,454.921,2.03137,2.01783,0.122007,0.129876,-0.250123,0.657923,0.00241676,0.0023185,0.460948,0.1297620100867103,0.9307779411140586,0.0024196827184774783,0.13868717736004021,0.00232118979948992,-0.22129500353391596
589,0.577,462.85,447.122,-0.0121257,454.929,2.02201,2.02363,0.122178,0.130053,-0.250471,0.658844,0.00242221,0.00232386,0.461597,0.129955215909062,0.9325570067317852,0.0024251459206356962,0.13888874282845065,0.0023265622554655696,-0.2215659457260103
590,0.578,462.872,447.188,0.00752632,454.919,2.04057,2.02505,0.122349,0.13023,-0.25082,0.659764,0.00242807,0.00232919,0.462246,0.13014845477243453,0.9343357772869714,0.0024310201492021566,0.13909034397710673,0.002331904670279883,-0.2218375718094434
591,0.579,462.847,447.104,-0.017941,454.93,2.02586,2.03054,0.12252,0.130406,-0.251167,0.660683,0.00243344,0.00233455,0.462894,0.1303417266824778,0.9361142489488576,0.002436403218233796,0.1392908415209131,0.0023372771836871475,-0.22210754732856397
592,0.58,462.88,447.203,0.0134255,454.917,2.0512,2.03195,0.122691,0.130583,-0.251515,0.661601,0.00243942,0.0023399,0.463542,0.1305350316448437,0.9378924178840584,0.0024423978058489837,0.13949251384733663,0.0023426397024648438,-0.2223782068046133
593,0.581,462.843,447.08,-0.0253348,454.933,2.02831,2.03775,0.122862,0.13076,-0.251862,0.66252,0.00244469,0.00234527,0.464189,0.13072836966518464,0.9396741596010136,0.0024476806912057114,0.13969422187292113,0.002348022296892349,-0.22264799475593544
594,0.582,462.891,447.226,0.0216165,454.914,2.06363,2.03862,0.123032,0.130937,-0.252209,0.663437,0.00245083,0.00235063,0.464836,0.1309206098279787,0.9414536565800362,0.0024538357388612653,0.1398959656039862,0.0023533948966902862,-0.2229176891070791
595,0.583,462.835,447.047,-0.0355878,454.936,2.02871,2.04522,0.123203,0.131112,-0.252556,0.664354,0.00245593,0.00235601,0.465483,0.1311140137878266,0.9432347861061967,0.0024589482664603146,0.1400954648536421,0.0023587875724611074,-0.22318728989051784
596,0.584,462.906,447.261,0.033378,454.909,2.07858,2.04507,0.123373,0.131289,-0.252903,0.66527,0.0024623,0.00236139,0.466129,0.13130631951569427,0.9450156046606508,0.002465333950299131,0.14029727961100025,0.0023641802772447207,-0.22345679713871403
597,0.585,462.823,447.0,-0.0501831,454.942,2.02615,2.05297,0.123544,0.131465,-0.253249,0.666187,0.00246716,0.00236679,0.466775,0.13149978943753826,0.9468000019912606,0.002470205943661208,0.14049798959417226,0.0023695930584326508,-0.22372543460994143
598,0.586,462.925,447.312,0.0504286,454.902,2.09716,2.05123,0.123714,0.131642,-0.253596,0.667101,0.00247386,0.00237218,0.46742,0.13169216075284118,0.9485801906153517,0.0024769225165415243,0.1406998756047153,0.0023749958450998143,-0.223994755154315
599,0.587,462.883,447.201,0.00485269,454.913,2.07933,2.0497,0.123884,0.131817,-0.253942,0.668016,0.00247931,0.00237748,0.468065,0.13188456477404764,0.9503639574386353,0.002482386030657313,0.14089951555093183,0.002380308446656043,-0.22426320652426646
600,0.588,462.881,447.153,0.00573602,454.923,2.06959,2.06321,0.124054,0.131993,-0.254288,0.66893,0.00248486,0.00238302,0.468709,0.13207700150671786,0.9521474050071159,0.0024879498233392194,0.14110033153695722,0.002385861648947385,-0.22453156502611105
601,0.589,462.875,447.151,-0.00475595,454.921,2.07466,2.06291,0.124224,0.132169,-0.254633,0.669844,0.00249061,0.00238838,0.469354,0.13226947095641384,0.9539324833918434,0.0024937141456231604,0.1413011828697066,0.002391234451564861,-0.22479905549141854
602,0.59,462.873,447.129,-0.00478423,454.925,2.07227,2.06967,0.124394,0.132344,-0.254979,0.670757,0.00249625,0.00239385,0.469997,0.13246197312869734,0.9557172383658497,0.002499368226115406,0.14150092805390257,0.002396717546613525,-0.22506722862159156
603,0.591,462.878,447.148,-0.00300654,454.921,2.08099,2.0709,0.124563,0.13252,-0.255324,0.671669,0.00250206,0.00239925,0.470641,0.1326533753751904,0.9575016660625866,0.002505192764365116,0.14170184989784373,0.0024021305035033524,-0.22533453431483375
604,0.592,462.872,447.12,-0.00880759,454.926,2.07813,2.0762,0.124733,0.132695,-0.255669,0.672581,0.0025077,0.00240471,0.471283,0.13284594281677298,0.9592877218997022,0.002510846909596909,0.14190166520490544,0.0024076036340774376,-0.22560174780351783
605,0.593,462.882,447.151,-0.000576445,454.921,2.08903,2.07837,0.124902,0.13287,-0.256013,0.673492,0.00251356,0.00241015,0.471926,0.13303740995962698,0.961073446288311,0.0025167216403727544,0.14210151548270544,0.0024130567462736785,-0.22586809498793126
606,0.594,462.871,447.111,-0.0120305,454.926,2.08383,2.08318,0.125072,0.133045,-0.256358,0.674403,0.00251918,0.00241561,0.472568,0.1332300426926385,0.9628607982130681,0.0025223558001803426,0.14230140073736464,0.002418529936505376,-0.226135124429933
607,0.595,462.887,447.157,0.00221914,454.92,2.09782,2.08558,0.125241,0.13322,-0.256702,0.675313,0.0025251,0.00242106,0.47321,0.13342157475385674,0.9646478145085375,0.0025282907500940865,0.14250132097500412,0.0024239931323806196,-0.22640128816434213
608,0.596,462.869,447.099,-0.0156992,454.927,2.08892,2.09039,0.12541,0.133395,-0.257046,0.676222,0.00253069,0.00242653,0.473851,0.1336131391867288,0.9664344912934997,0.0025338948989030996,0.142701276201747,0.002429476406619724,-0.22666736035417312
609,0.597,462.892,447.167,0.00588691,454.918,2.10743,2.09265,0.125579,0.13357,-0.25739,0.677131,0.00253669,0.00243201,0.474492,0.13380473599672582,0.9682227929060319,0.0025399101203180674,0.14290126642371614,0.002434969735202186,-0.2269333410309119
610,0.598,462.866,447.083,-0.0205172,454.929,2.09311,2.09776,0.125748,0.133744,-0.257734,0.67804,0.0025422,0.00243749,0.475132,0.1339963651893199,0.9700127208237732,0.002545434130441393,0.1431001485463168,0.0024404630938881233,-0.22719923022603372
611,0.599,462.899,447.182,0.0110401,454.916,2.11817,2.09961,0.125917,0.133919,-0.258077,0.678947,0.00254832,0.00244298,0.475772,0.13418802676998443,0.9718003329210985,0.0025515697272733284,0.1433002085770545,0.0024459665071374648,-0.2274642554356444
612,0.6,462.861,447.062,-0.0271659,454.931,2.09603,2.1053,0.126086,0.134093,-0.25842,0.679855,0.00255373,0.00244848,0.476412,0.13437972074419302,0.9735915407086608,0.0025569935459368587,0.14349916012162933,0.0024514799751151894,-0.22772918975719636
613,0.601,462.908,447.204,0.018424,454.913,2.13049,2.10645,0.126254,0.134268,-0.258763,0.680761,0.00256,0.00245398,0.477051,0.13457031254654117,0.9753804248867104,0.0025632795979930734,0.14369928998550296,0.0024569934734171017,-0.22799403322185896
614,0.602,462.853,447.032,-0.0365019,454.935,2.09712,2.11301,0.126423,0.134442,-0.259106,0.681668,0.00256526,0.00245949,0.47769,0.1347620711325057,0.9771729077001567,0.002568553094713044,0.14389831097628458,0.0024625170266685537,-0.22825878586079063
615,0.603,462.92,447.237,0.0290416,454.908,2.14503,2.11312,0.126591,0.134617,-0.259448,0.682573,0.00257174,0.00246501,0.478329,0.13495272717511497,0.9789630591029534,0.0025750497599863476,0.14409851069767,0.0024680506350354126,-0.22852267622820122
616,0.604,462.842,446.99,-0.0496931,454.94,2.09561,2.12096,0.12676,0.13479,-0.259791,0.683478,0.00257678,0.00247053,0.478967,0.13514455039461315,0.9807548313260805,0.0025801027509706476,0.14429645686187031,0.0024735842739476155,-0.2287872475736753
617,0.605,462.937,447.284,0.0442813,454.902,2.16274,2.11956,0.126928,0.134965,-0.260133,0.684382,0.00258357,0.00247606,0.479604,0.13533527069913642,0.9825462432898096,0.0025869102929798604,0.14449672626488286,0.002479127968197048,-0.22905095723808222
618,0.606,462.824,446.931,-0.0683677,454.947,2.0904,2.12924,0.127096,0.135137,-0.260474,0.685287,0.00258828,0.0024816,0.480242,0.1355260230473625,0.9843412597624268,0.00259163248844807,0.14469359663216652,0.0024846817179497993,-0.22931380604339568
619,0.607,462.838,446.989,-0.0571051,454.938,2.10821,2.12701,0.127264,0.135311,-0.260816,0.68619,0.00259424,0.00248707,0.480879,0.13571680744467507,0.986133929188425,0.0025976079523846174,0.14489279064735738,0.002490165324156468,-0.22957733565559646
620,0.608,462.9,447.157,0.00623467,454.919,2.14617,2.13324,0.127432,0.135485,-0.261157,0.687092,0.00260059,0.0024927,0.481515,0.13590762389645894,0.9879262301987901,0.0026039744674088983,0.14509201932532223,0.002495809359675194,-0.22984000499647006
621,0.609,462.859,447.039,-0.0366592,454.932,2.12536,2.13713,0.1276,0.135658,-0.261499,0.687995,0.00260607,0.00249823,0.482151,0.13609847240809958,0.9897221383151409,0.002609468752243327,0.1452901373813833,0.002501353176829646,-0.23010335467939858
622,0.61,462.915,447.205,0.0205412,454.912,2.16422,2.13974,0.127767,0.135832,-0.26184,0.688896,0.00261247,0.00250383,0.482787,0.13628821669619895,0.9915156858335861,0.0026158854733766557,0.1454894352036955,0.002506967200126553,-0.23036584467836452
623,0.611,462.853,447.016,-0.0423226,454.935,2.12754,2.14563,0.127935,0.136004,-0.26218,0.689798,0.00261775,0.00250939,0.483422,0.13647912915280114,0.9933128433784129,0.0026211792992276717,0.1456864763316017,0.0025125411543598375,-0.2306274758113609
624,0.612,462.928,447.244,0.0321491,454.906,2.18021,2.1461,0.128102,0.136178,-0.262521,0.690698,0.00262438,0.00251498,0.484057,0.13666893701588512,0.995107632471397,0.002627826699682645,0.1458858431228911,0.0025181452151281647,-0.23088978711549002
625,0.613,462.841,446.972,-0.0555342,454.941,2.12555,2.15401,0.12827,0.13635,-0.262861,0.691598,0.0026294,0.00252056,0.484692,0.13685991343887416,0.9969040376016727,0.0026328599040059686,0.14608295243882363,0.002523739281985904,-0.2311512401383382
626,0.614,462.945,447.295,0.0482372,454.899,2.19896,2.15242,0.128437,0.136525,-0.263201,0.692497,0.00263635,0.00252616,0.485325,0.13704978489824393,0.9987000615232668,0.0026398282265971407,0.14628353450591924,0.0025293534306456422,-0.23141260428226895
627,0.615,462.902,447.183,0.00221443,454.911,2.18056,2.15139,0.128604,0.136697,-0.263541,0.693396,0.002642,0.00253166,0.485959,0.13723968806879538,1.0004977007963585,0.0026454931576300744,0.14648071223065262,0.0025348673572527236,-0.23167387957749586
628,0.616,462.898,447.134,0.00204657,454.921,2.17083,2.16468,0.128771,0.136869,-0.263881,0.694294,0.00264776,0.0025374,0.486593,0.1374296229558245,1.0022949545778452,0.0026512684123034536,0.14667792387287126,0.002540621923907027,-0.23193506605422232
629,0.617,462.891,447.133,-0.00798571,454.919,2.17593,2.16474,0.128938,0.137042,-0.264221,0.695192,0.00265371,0.00254297,0.487226,0.1376195895646286,1.0040938230181014,0.0026572342050985576,0.14687631631415266,0.002546206090722869,-0.23219616374264163
630,0.618,462.889,447.111,-0.00839259,454.923,2.17379,2.17149,0.129105,0.137214,-0.26456,0.69609,0.00265957,0.00254863,0.487858,0.13780958790050524,1.0058943075677411,0.0026631097937064308,0.1470735960061258,0.002551880518308014,-0.23245640512972554
631,0.619,462.892,447.13,-0.00651989,454.92,2.18252,2.17304,0.129272,0.137387,-0.264899,0.696986,0.00266558,0.00255424,0.48849,0.1379996179687537,1.007692394289879,0.0026691358171044843,0.14727205690460754,0.0025575048501340625,-0.2327165583099311
632,0.62,462.886,447.104,-0.0122109,454.924,2.18006,2.17839,0.129438,0.137559,-0.265238,0.697882,0.00267145,0.0025599,0.489122,0.13818854158556282,1.009492092819702,0.0026750215022062207,0.1474694046698164,0.002563179341670274,-0.23297662331315538
633,0.621,462.894,447.135,-0.0043779,454.919,2.19079,2.18082,0.129605,0.137731,-0.265576,0.698778,0.00267751,0.00256553,0.489753,0.13837863494436142,1.0112934046020365,0.0026810977312474726,0.14766678638176023,0.002568823788259067,-0.23323583340550214
634,0.622,462.883,447.098,-0.0151405,454.924,2.18624,2.18572,0.129771,0.137903,-0.265915,0.699673,0.00268335,0.0025712,0.490384,0.13856762148321078,1.0130943179876808,0.0026869534059568156,0.14786420204627837,0.0025745083696055993,-0.2334957224043035
635,0.623,462.897,447.142,-0.00197665,454.918,2.19971,2.18837,0.129938,0.138075,-0.266253,0.700567,0.00268947,0.00257686,0.491015,0.13875777815363866,1.0148948290164723,0.0026930898688892757,0.14806165166921126,0.00258018295738216,-0.23375475707080606
636,0.624,462.88,447.089,-0.0183705,454.925,2.19194,2.19327,0.130104,0.138246,-0.266591,0.701461,0.00269529,0.00258253,0.491645,0.13894682763548505,1.0166969504218546,0.0026989255596541195,0.14825798699783888,0.0025858676031353944,-0.2340137041983864
637,0.625,462.9,447.152,0.00110064,454.917,2.20932,2.19579,0.13027,0.138418,-0.266929,0.702355,0.00270148,0.00258821,0.492275,0.13913590850215019,1.018500683644148,0.0027051322852131854,0.14845550435760835,0.002591562307036277,-0.23427256381662742
638,0.626,462.876,447.077,-0.0224883,454.926,2.19691,2.20096,0.130436,0.13859,-0.267266,0.703248,0.00270724,0.00259389,0.492905,0.13932502075884456,1.0203040098199412,0.0027109078834088862,0.14865305569328569,0.0025972570432832853,-0.23453057048605552
639,0.627,462.904,447.166,0.00532709,454.915,2.21984,2.20312,0.130602,0.138761,-0.267604,0.70414,0.00271353,0.00259959,0.493533,0.13951416441077935,1.0221069249773178,0.0027172149548551072,0.1488494921606487,0.0026029718639357657,-0.23478925543301243
640,0.628,462.871,447.061,-0.0280204,454.928,2.20089,2.20879,0.130768,0.138932,-0.267941,0.705032,0.00271921,0.00260529,0.494162,0.1397033394631666,1.0239114490524859,0.0027229104048112074,0.14904596222151945,0.002608686717162634,-0.2350470880067027
641,0.629,462.91,447.185,0.0112651,454.912,2.23159,2.21036,0.130934,0.139104,-0.268278,0.705922,0.00272563,0.002611,0.49479,0.13989254592121902,1.025713532050124,0.002729347906560209,0.1492436151246841,0.0026144116291084707,-0.23530483370545496
642,0.63,462.863,447.038,-0.0355899,454.931,2.20347,2.21677,0.131099,0.139274,-0.268615,0.706814,0.00273118,0.00261671,0.495418,0.14008064370893658,1.0275212746540512,0.0027349130698843815,0.1494390031467665,0.0026201365737434923,-0.2355624925585409
643,0.631,462.918,447.213,0.0196239,454.909,2.24504,2.21748,0.131265,0.139446,-0.268951,0.707703,0.00273779,0.00262244,0.496046,0.1402699128046927,1.029324542501013,0.002741541169565709,0.14963672365878433,0.002625881603585567,-0.2358193004149053
644,0.632,462.852,447.007,-0.0460205,454.935,2.2041,2.22494,0.13143,0.139616,-0.269287,0.708593,0.00274316,0.00262817,0.496673,0.14045807286308332,1.031131445296312,0.0027469259060997064,0.1498321785149983,0.0026316266663466426,-0.23607602199832467
645,0.633,462.93,447.251,0.0313741,454.903,2.26084,2.22442,0.131595,0.139788,-0.269624,0.709482,0.00275001,0.00263391,0.4973,0.1406462639704451,1.032937924011995,0.0027537947460680723,0.1500299666589957,0.0026373817884008943,-0.23633342100474264
646,0.634,462.837,446.962,-0.0604321,454.941,2.20202,2.23336,0.131761,0.139958,-0.269959,0.710371,0.00275514,0.00263965,0.497926,0.14083562696695817,1.0347460094013163,0.0027589388862296893,0.1502254883722025,0.00264313694348961,-0.2365892064622498
647,0.635,462.946,447.305,0.0478354,454.897,2.2799,2.23112,0.131926,0.14013,-0.270295,0.711258,0.00276232,0.00264541,0.498552,0.14102388037588676,1.036551629785912,0.0027661387212583044,0.15042334417131342,0.002648912184591179,-0.23684566940069196
648,0.636,462.901,447.187,0.000915268,454.909,2.26034,2.23067,0.132091,0.1403,-0.270631,0.712146,0.00276812,0.00265107,0.499178,0.14121216484919064,1.0383608908261737,0.0027719547817295354,0.1506189327643821,0.0026545871934944287,-0.2371020461820621
649,0.637,462.894,447.135,-0.000958079,454.92,2.24988,2.24394,0.132256,0.14047,-0.270966,0.713033,0.00277403,0.00265695,0.499803,0.14140048039199593,1.0401697190330523,0.00277788118149469,0.15081455461033766,0.0026604828198002473,-0.23735757419325954
650,0.638,462.888,447.136,-0.0101673,454.917,2.25536,2.24424,0.13242,0.14064,-0.271301,0.713919,0.00278015,0.00266268,0.500428,0.14158768542117306,1.041978110403194,0.0027840182009069014,0.15101020971483425,0.002666228080826949,-0.23761301661690992
651,0.639,462.883,447.113,-0.0116667,454.922,2.25283,2.25105,0.132585,0.14081,-0.271636,0.714805,0.00278616,0.0026685,0.501052,0.14177606292998468,1.0437881047180895,0.002790044950966575,0.1512058980835258,0.0026720636152557375,-0.23786837348168022
652,0.64,462.887,447.135,-0.0088326,454.918,2.26221,2.25277,0.13275,0.14098,-0.27197,0.71569,0.00279235,0.00267427,0.501676,0.14196447152364944,1.0455976577998967,0.0027962522405564627,0.15140161972206778,0.0026778490497538776,-0.2381228829394919
653,0.641,462.879,447.107,-0.0155382,454.922,2.25928,2.25825,0.132914,0.14115,-0.272305,0.716575,0.00279837,0.00268008,0.5023,0.1421517690549572,1.0474088130450334,0.002802289092165733,0.15159737463611678,0.0026836746249800925,-0.2383780690276509
654,0.642,462.888,447.141,-0.00670454,454.917,2.27078,2.26079,0.133079,0.14132,-0.272639,0.717459,0.00280461,0.00268588,0.502923,0.14234023964524734,1.0492195226514958,0.0028085465979730273,0.15179316283133004,0.0026894902071581406,-0.23863240827557686
655,0.643,462.875,447.101,-0.0185106,454.923,2.26567,2.26587,0.133243,0.14149,-0.272973,0.718343,0.00281061,0.0026917,0.503546,0.14252759880758048,1.0510318336329534,0.002814563467303355,0.15198898431336572,0.002695325876972854,-0.23888666258837898
656,0.644,462.889,447.149,-0.00430135,454.916,2.28002,2.26859,0.133407,0.141659,-0.273307,0.719226,0.00281691,0.00269752,0.504169,0.1427149886993362,1.0528436945609267,0.0028208812189540744,0.15218368690362016,0.002701161580751288,-0.23914083199442082
657,0.645,462.871,447.094,-0.0217657,454.924,2.27159,2.27369,0.133571,0.141829,-0.273641,0.720108,0.00282288,0.00270335,0.504791,0.14290240932555398,1.0546551014125232,0.002826868077485667,0.15237957478039155,0.002707007345563728,-0.23939491652205647
658,0.646,462.891,447.161,-0.00124159,454.915,2.28993,2.27626,0.133735,0.141998,-0.273974,0.72099,0.00282925,0.00270919,0.505412,0.14308986069127538,1.0564681066297381,0.0028332561049810856,0.15257434338601317,0.002712863171585589,-0.23964815584816668
659,0.647,462.865,447.083,-0.0258724,454.925,2.27682,2.28166,0.133899,0.142167,-0.274307,0.721872,0.00283517,0.00271503,0.506034,0.14327734280154147,1.0582827116229518,0.0028391928954301093,0.15276914491031035,0.0027187190318056498,-0.23990131085962052
660,0.648,462.894,447.176,0.00290372,454.913,2.3007,2.28385,0.134063,0.142337,-0.27464,0.722753,0.00284164,0.00272089,0.506655,0.1434648556613951,1.0600968577059025,0.0028456812859980474,0.15296513232340336,0.0027245949807157555,-0.24015438158448998
661,0.649,462.858,447.068,-0.0313041,454.927,2.28111,2.28975,0.134227,0.142506,-0.274973,0.723634,0.00284747,0.00272675,0.507276,0.1436523992758798,1.0619126027557932,0.0028515278933629595,0.15315999989661222,0.002730470964058762,-0.24040736805083796
662,0.65,462.898,447.196,0.00863563,454.91,2.31263,2.29136,0.13439,0.142675,-0.275305,0.724513,0.00285408,0.00273262,0.507896,0.14383882981063745,1.0637258207261664,0.0028581567638705785,0.1533549004052237,0.002736357009198942,-0.2406595109466083
663,0.651,462.849,447.048,-0.0386111,454.93,2.28411,2.298,0.134554,0.142843,-0.275638,0.725393,0.00285979,0.0027385,0.508516,0.14402643476191201,1.0655426987574899,0.0028638831002945064,0.1535486803055477,0.0027422531163125985,-0.2409123292328822
664,0.652,462.904,447.224,0.0165815,454.907,2.32613,2.29875,0.134717,0.143013,-0.27597,0.726271,0.00286657,0.00274438,0.509135,0.14421292626942317,1.0673570416269649,0.0028706825404718472,0.15374480025092274,0.0027481492580956335,-0.24116430450936654
665,0.653,462.837,447.019,-0.0485083,454.934,2.28533,2.30643,0.13488,0.143181,-0.276302,0.72715,0.00287211,0.00275027,0.509754,0.14439944817752748,1.0691750473630202,0.002876238459443181,0.1539386456599232,0.0027540554620886226,-0.24141619614394438
666,0.654,462.913,447.262,0.0275683,454.902,2.34176,2.30599,0.135043,0.14335,-0.276634,0.728027,0.00287913,0.00275618,0.510373,0.14458600049118098,1.070990509843495,0.0028832786753481,0.1541336777707889,0.002759981756068397,-0.24166800416438028
667,0.655,462.822,446.979,-0.0619422,454.939,2.28412,2.31509,0.135207,0.143518,-0.276965,0.728905,0.00288443,0.00276208,0.510992,0.14477372798849553,1.0728096379915333,0.00288859397081076,0.15432758851670103,0.002765898057413896,-0.241918970517779
668,0.656,462.927,447.313,0.042708,454.896,2.36029,2.313,0.135369,0.143687,-0.277297,0.729781,0.00289176,0.002768,0.511609,0.14495919635496168,1.0746262147788803,0.0028959451711465523,0.1545226863644642,0.0027718344491021174,-0.24217061164482856
669,0.657,462.882,447.198,-0.00295663,454.908,2.34118,2.31297,0.135532,0.143855,-0.277628,0.730658,0.00289773,0.00277383,0.512227,0.14514583991500452,1.076446460030117,0.002901932477811453,0.15471666246930993,0.002777680625938528,-0.24242141166268139
670,0.658,462.876,447.151,-0.00402193,454.918,2.3319,2.32595,0.135695,0.144023,-0.277959,0.731534,0.00290382,0.00277987,0.512844,0.14533251390042712,1.0782662240693823,0.0029080401691781166,0.1549106711648789,0.0027837374214210175,-0.24267212867946575
671,0.659,462.868,447.15,-0.0136723,454.916,2.3368,2.32663,0.135858,0.144191,-0.278289,0.732409,0.00291011,0.00278576,0.513461,0.14551921831618952,1.0800855028338288,0.0029143484805904674,0.1551047124566467,0.0027896438350287767,-0.24292200564503452
672,0.66,462.864,447.132,-0.0140778,454.92,2.33544,2.33335,0.13602,0.144359,-0.27862,0.733283,0.00291631,0.00279175,0.514078,0.14570480746187164,1.0819042922585065,0.002920566568826999,0.1552987863500901,0.0027956505629855855,-0.2431725569926304
673,0.661,462.866,447.149,-0.012678,454.917,2.34378,2.33541,0.136183,0.144527,-0.27895,0.734157,0.00292265,0.00279768,0.514694,0.14589157256643048,1.0837246720000087,0.0029269251053756218,0.15549289285068624,0.0028015971588251087,-0.24342226884410123
674,0.662,462.859,447.128,-0.0174834,454.92,2.34242,2.34084,0.136345,0.144695,-0.27928,0.735031,0.00292887,0.00280366,0.51531,0.14607722203838747,1.0855466434488799,0.00293316333025051,0.1556870319639141,0.0028075939303062736,-0.2436718983042564
675,0.663,462.865,447.155,-0.0110633,454.916,2.35235,2.34371,0.136507,0.144863,-0.27961,0.735904,0.00293525,0.00280962,0.515925,0.14626290158799504,1.087368120627716,0.0029395620642445053,0.15588120369525282,0.002813570681376776,-0.2439214454002805
676,0.664,462.854,447.126,-0.0198844,454.921,2.34945,2.34872,0.13667,0.14503,-0.27994,0.736777,0.00294146,0.00281561,0.51654,0.1464497576693109,1.0891911886504313,0.0029457903382636985,0.15607425197535263,0.0028195775526558275,-0.24417091015934922
677,0.665,462.864,447.163,-0.00935262,454.916,2.36143,2.3518,0.136832,0.145198,-0.28027,0.737649,0.00294789,0.00282159,0.517155,0.1466354975745794,1.091013757891636,0.0029522393004290937,0.156268488765118,0.002825574431660316,-0.2444202926086294
678,0.666,462.849,447.122,-0.0223623,454.921,2.35617,2.35679,0.136994,0.145365,-0.280599,0.73852,0.00295408,0.00282759,0.517769,0.14682126757214986,1.0928358242694758,0.002958447594004987,0.15646160172722534,0.002831591403157807,-0.24466883744449375
679,0.667,462.863,447.173,-0.0072576,454.915,2.371,2.35979,0.137156,0.145532,-0.280928,0.739391,0.00296057,0.00283359,0.518383,0.14700706766689797,1.094659478358479,0.002964956815452169,0.1566547469418904,0.0028376084107570865,-0.244917300522557
680,0.668,462.843,447.116,-0.0253618,454.922,2.36243,2.36498,0.137317,0.145699,-0.281257,0.740262,0.00296673,0.0028396,0.518997,0.14719175067137535,1.0964847215421436,0.0029711350986152407,0.15684792441449957,0.002843635482895124,-0.245165681869713
681,0.669,462.863,447.185,-0.00447217,454.913,2.38115,2.36773,0.137479,0.145866,-0.281586,0.741132,0.0029733,0.00284562,0.51961,0.14737761078924705,1.0983094568946687,0.002977724640619517,0.15704113415044074,0.0028496726197524413,-0.245413981512847
682,0.67,462.837,447.108,-0.029213,454.923,2.36807,2.37327,0.137641,0.146033,-0.281914,0.742001,0.0029794,0.00285165,0.520223,0.14756350101889693,1.1001336803229913,0.0029838428234003622,0.15723437615510205,0.0028557198215106716,-0.24566144514065713
683,0.671,462.864,447.201,-0.000662824,454.911,2.39207,2.37562,0.137802,0.1462,-0.282243,0.74287,0.00298606,0.00285769,0.520835,0.147748273616356,1.1019594896904636,0.0029905227180375693,0.1574276504338732,0.002861777088351225,-0.24590958170450294
684,0.672,462.828,447.096,-0.0342739,454.925,2.37288,2.38168,0.137963,0.146367,-0.282571,0.743739,0.00299209,0.00286373,0.521447,0.14793307596459804,1.1037868863758664,0.002996570769124407,0.15762095699214385,0.002867834391777846,-0.24615688280210668
685,0.673,462.866,447.222,0.00455677,454.909,2.40402,2.38344,0.138125,0.146534,-0.282899,0.744606,0.00299888,0.00286979,0.522059,0.1481190561868957,1.1056116605316455,0.0030033811389611476,0.1578142958353057,0.0028739117892688792,-0.24640410279825187
686,0.674,462.818,447.079,-0.0409805,454.928,2.37657,2.39021,0.138286,0.1467,-0.283226,0.745474,0.0030048,0.00287584,0.522671,0.14830391823593736,1.1074401248917183,0.003009318936553207,0.15800650896166246,0.0028799791947891062,-0.24665048837040027
687,0.675,462.87,447.249,0.0116835,454.906,2.41733,2.39117,0.138447,0.146867,-0.283554,0.74634,0.00301175,0.00288192,0.523281,0.1484888100501649,1.109265958511724,0.0030162898755439205,0.15819991219737983,0.0028860767235989737,-0.24689754649046813
688,0.676,462.806,447.055,-0.0498889,454.931,2.37873,2.39891,0.138608,0.147032,-0.283881,0.747207,0.00301752,0.00288799,0.523892,0.14867373163437114,1.1110954850829193,0.00302207729623305,0.15839103094975582,0.0028921642605603815,-0.24714377073290805
689,0.677,462.877,447.284,0.0213841,454.901,2.43247,2.39877,0.138769,0.1472,-0.284208,0.748072,0.00302468,0.00289408,0.524502,0.14885868299334915,1.112922372692497,0.003029258960016934,0.15858565699108507,0.0028982718924384088,-0.2473899144731836
690,0.678,462.791,447.021,-0.0617587,454.936,2.37885,2.40781,0.13893,0.147365,-0.284535,0.748939,0.00303024,0.00290017,0.525112,0.1490436641318933,1.1147550707494278,0.00303483581820041,0.15877683939660336,0.002904379561512016,-0.24763597773761448
691,0.679,462.886,447.331,0.034519,454.895,2.45003,2.40619,0.13909,0.147532,-0.284862,0.749802,0.00303769,0.00290627,0.525722,0.14922752582669752,1.1165808921040807,0.0030423084555628588,0.15897037128824576,0.0029104972968865273,-0.24788196055251221
692,0.68,462.843,447.223,-0.00852113,454.908,2.43227,2.40655,0.139251,0.147697,-0.285188,0.750667,0.00304386,0.00291229,0.526331,0.14941256635371847,1.1184125266434832,0.003048497245698334,0.15916161717686017,0.002916534836253204,-0.2481271110716663
693,0.681,462.838,447.186,-0.00762889,454.916,2.42512,2.4191,0.139411,0.147863,-0.285515,0.751531,0.00305018,0.00291852,0.52694,0.14959648707760054,1.1202436259875106,0.0030548365322331517,0.1593540539771241,0.0029227830257283482,-0.2483729333122191
694,0.682,462.829,447.18,-0.0181587,454.915,2.42906,2.42025,0.139572,0.148029,-0.285841,0.752394,0.00305664,0.0029246,0.527548,0.14978158701216504,1.1220741860097756,0.00306131628740669,0.15954652272454828,0.002928880814786261,-0.24861792380033998
695,0.683,462.826,447.17,-0.0166078,454.918,2.42957,2.42684,0.139732,0.148194,-0.286167,0.753257,0.00306306,0.00293076,0.528156,0.14996556678407624,1.1239063264872078,0.00306775596172848,0.1597378636859932,0.002935058875720653,-0.24886283443457868
696,0.684,462.825,447.181,-0.017541,454.915,2.43621,2.42933,0.139892,0.14836,-0.286493,0.754119,0.00306957,0.00293689,0.528764,0.15014957599510592,1.1257379230453433,0.0030742859540748846,0.15993039615111737,0.002941206886475145,-0.24910766524096328
697,0.685,462.82,447.17,-0.0193754,454.918,2.43723,2.43465,0.140052,0.148525,-0.286818,0.754981,0.00307602,0.00294305,0.529372,0.15033361464996498,1.1275710991203858,0.003080755804084623,0.16012180045690338,0.002947385023338134,-0.24935166559755428
698,0.686,462.821,447.186,-0.01657,454.915,2.44472,2.43795,0.140212,0.148691,-0.287143,0.755842,0.00308256,0.0029492,0.529979,0.15051768275336452,1.1294037266696746,0.0030873159736792832,0.1603143966608218,0.002953553168723033,-0.24959558666691428
699,0.687,462.814,447.172,-0.0210562,454.918,2.44504,2.44283,0.140372,0.148856,-0.287469,0.756703,0.00308901,0.00295537,0.530585,0.1507017803100168,1.1312379327907611,0.0030937859077329044,0.1605058643319195,0.0029597414112367826,-0.24984017863500385
700,0.688,462.818,447.193,-0.0157176,454.915,2.45357,2.44639,0.140532,0.149021,-0.287794,0.757563,0.00309559,0.00296155,0.531191,0.15088590732463492,1.1330715857707285,0.003100386286559287,0.16069736359778908,0.0029659397215915373,-0.25008394096342357
701,0.689,462.808,447.173,-0.0225809,454.918,2.45273,2.45116,0.140692,0.149186,-0.288118,0.758423,0.00310204,0.00296773,0.531797,0.15107006380193222,1.1349068163705378,0.003106856304916583,0.16088889446364463,0.002972138070251873,-0.250326874409208
702,0.69,462.814,447.201,-0.0147783,454.914,2.46269,2.45476,0.140851,0.149351,-0.288443,0.759282,0.00310865,0.00297393,0.532403,0.151253098492949,1.1367414892049683,0.0031134868631508272,0.1610804569347004,0.00297835651678513,-0.25057047858720183
703,0.691,462.802,447.173,-0.0242868,454.918,2.46021,2.4596,0.141011,0.149516,-0.288767,0.760141,0.00311509,0.00298013,0.533008,0.15143731372553337,1.1385777387004423,0.0031199469348075493,0.1612720510161718,0.00298457500187288,-0.25081325442033087
704,0.692,462.811,447.21,-0.0135548,454.913,2.47211,2.4631,0.14117,0.149681,-0.289091,0.760999,0.00312176,0.00298634,0.533613,0.15162040681393063,1.140413425797398,0.003126637767167484,0.16146367671327466,0.0029908035554231382,-0.25105595160683136
705,0.693,462.796,447.172,-0.0263566,454.919,2.46741,2.46812,0.14133,0.149845,-0.289415,0.761857,0.00312818,0.00299255,0.534218,0.1518046808205482,1.1422506885897596,0.003133077860854705,0.16165417237647306,0.0029970321476531225,-0.2512985701721807
706,0.694,462.808,447.221,-0.0118869,454.913,2.4819,2.47143,0.141489,0.15001,-0.289739,0.762714,0.0031349,0.00299878,0.534822,0.1519878323249575,1.1440873843415975,0.0031398189377880303,0.16184586112880228,0.0030032808386279974,-0.2515411101418481
707,0.695,462.788,447.169,-0.0289661,454.92,2.47425,2.47671,0.141648,0.150174,-0.290063,0.763571,0.0031413,0.00300502,0.535425,0.15217101295277113,1.145925654816367,0.0031462390531735718,0.16203641947538472,0.0030095395986278195,-0.2517835715412944
708,0.696,462.806,447.234,-0.00959606,454.911,2.49218,2.47974,0.141807,0.150339,-0.290386,0.764427,0.00314809,0.00301126,0.536029,0.1523542227086203,1.147763353599757,0.0031530504392611736,0.16222817130368905,0.003015798397682179,-0.2520252064215526
709,0.697,462.78,447.164,-0.0323023,454.921,2.4806,2.48537,0.141966,0.150503,-0.290709,0.765283,0.00315444,0.00301751,0.536632,0.15253746159713644,1.1496026261267716,0.003159420481356534,0.1624187923542817,0.003022067266012396,-0.2522667632663479
710,0.698,462.804,447.25,-0.00646438,454.91,2.50307,2.48803,0.142125,0.150668,-0.291032,0.766137,0.00316132,0.00302377,0.537235,0.15272072962295247,1.1514391708624672,0.003166322241911379,0.1626106072793163,0.0030283462038065423,-0.25250824210088163
711,0.699,462.771,447.156,-0.0366019,454.922,2.48629,2.49412,0.142283,0.150831,-0.291355,0.766992,0.00316761,0.00303004,0.537837,0.15290287388725066,1.1532794379556304,0.0031726321779230737,0.1628001282538427,0.003034635211253356,-0.2527496429503471
712,0.7,462.803,447.27,-0.00222095,454.908,2.51478,2.49628,0.142442,0.150996,-0.291678,0.767846,0.0031746,0.00303632,0.538439,0.15308620001824003,1.1551191240297887,0.0031796443791294315,0.16299200610449183,0.0030409342885415747,-0.2529909658399294
713,0.701,462.76,447.144,-0.0421726,454.924,2.49112,2.50298,0.142601,0.151159,-0.292,0.7687,0.00318081,0.00304261,0.539041,0.15326955530040154,1.1569603818669019,0.00318587414406446,0.16318158925209358,0.0030472434358603806,-0.25323146402664287
714,0.702,462.804,447.294,0.00346945,454.905,2.52755,2.50446,0.142759,0.151323,-0.292322,0.769553,0.00318793,0.0030489,0.539642,0.15345178628600786,1.1588010540076947,0.003193016852916397,0.16337236667605226,0.0030535526228638865,-0.25347188478540683
715,0.703,462.747,447.127,-0.0494073,454.927,2.4948,2.51198,0.142917,0.151486,-0.292644,0.770406,0.00319402,0.0030552,0.540243,0.15363404606638453,1.1606432969116591,0.0031991263169923734,0.1635620118274803,0.0030598718801511104,-0.253712228141149
716,0.704,462.806,447.325,0.0110748,454.901,2.5417,2.51255,0.143075,0.151651,-0.292966,0.771258,0.00320132,0.00306152,0.540843,0.15381633464608147,1.1624849494331966,0.0032064496973447376,0.1637540153992909,0.003066211238573757,-0.2539524941187892
717,0.705,462.732,447.104,-0.058825,454.931,2.49697,2.52114,0.143234,0.151813,-0.293288,0.77211,0.00320724,0.00306783,0.541444,0.15399980602887875,1.164328171711304,0.003212388697106494,0.16394255882139053,0.003072540606335883,-0.25419268274323903
718,0.706,462.811,447.364,0.0211918,454.897,2.55765,2.52051,0.143392,0.151978,-0.293609,0.772961,0.00321477,0.00307417,0.542044,0.15418215240321542,1.1661707989121015,0.003219942914834961,0.16413462518863553,0.003078900106402882,-0.25443204847182366
719,0.707,462.714,447.071,-0.0710875,454.935,2.49715,2.5305,0.14355,0.15214,-0.293931,0.773812,0.00322047,0.0030805,0.542643,0.15436452759055563,1.1680149948560525,0.0032256612848069466,0.16432323027451567,0.0030852496159368137,-0.25467208270463026
720,0.708,462.819,447.414,0.0345771,454.891,2.57593,2.52828,0.143707,0.152305,-0.294252,0.774661,0.00322829,0.00308686,0.543242,0.15454577704909744,1.1698564211615436,0.003233506540152975,0.16451535945773266,0.0030916292584115546,-0.25491129457052364
721,0.709,462.772,447.298,-0.0107963,454.904,2.5562,2.52933,0.143865,0.152467,-0.294573,0.775511,0.00323469,0.00309312,0.543841,0.15472820969367063,1.1717015832023039,0.0032399272551411062,0.16470402622756053,0.003097908631665147,-0.25515042966173085
722,0.71,462.763,447.255,-0.012474,454.913,2.54778,2.54199,0.144023,0.15263,-0.294893,0.776361,0.00324125,0.00309959,0.54444,0.1549106711648789,1.1735483142975527,0.0032465085306505603,0.1648938884571869,0.003104398696129218,-0.2553887433920087
723,0.711,462.754,447.252,-0.0219996,454.912,2.55233,2.54343,0.144181,0.152793,-0.295214,0.777209,0.00324797,0.00310592,0.545038,0.15509316146727725,1.1753922649926727,0.003253250369840366,0.1650837816368791,0.0031107483670698155,-0.25562772524674005
724,0.712,462.749,447.239,-0.0220333,454.915,2.55217,2.55018,0.144338,0.152956,-0.295534,0.778058,0.00325464,0.00311233,0.545636,0.15527452533031827,1.177239957260034,0.0032599420913372867,0.16527370577168243,0.0031171783275747433,-0.2558658862668657
725,0.713,462.747,447.255,-0.0215407,454.913,2.55988,2.55288,0.144495,0.153119,-0.295854,0.778905,0.00326143,0.0031187,0.546233,0.15545591766972122,1.1790848607101485,0.0032667542494713153,0.16546366086664288,0.003123568204352445,-0.25610397108765726
726,0.714,462.74,447.241,-0.0249819,454.915,2.56011,2.55845,0.144653,0.153281,-0.296174,0.779753,0.00326811,0.00312511,0.54683,0.15563849412787345,1.1809335083878651,0.003273456093773719,0.1656524812737432,0.0031299982470329724,-0.2563419797334948
727,0.715,462.742,447.263,-0.0205269,454.912,2.56892,2.5619,0.14481,0.153444,-0.296494,0.780599,0.00327493,0.00313151,0.547427,0.1558199436148635,1.1827793588206026,0.003280298442076779,0.16584249811414264,0.003136418299565902,-0.25657991222875054
728,0.716,462.732,447.244,-0.0268222,454.915,2.56822,2.56707,0.144967,0.153606,-0.296814,0.781446,0.00328162,0.00313793,0.548023,0.15600142159165942,1.1846289561314078,0.0032870104097248998,0.16603137989784855,0.0031428584560442285,-0.2568177685977886
729,0.717,462.736,447.272,-0.0195506,454.912,2.57834,2.57074,0.145124,0.153769,-0.297133,0.782291,0.00328849,0.00314436,0.548619,0.15618292806273448,1.1864757477589136,0.003293903015162414,0.16622145850375736,0.0031493086853615626,-0.25705480592014285
730,0.718,462.724,447.246,-0.0285574,454.916,2.57618,2.57586,0.145281,0.153931,-0.297452,0.783137,0.00329517,0.00315079,0.549215,0.15636446303256246,1.1883262889100528,0.0033006050408193044,0.16641040168401955,0.0031557589561539423,-0.25729176763965067
731,0.719,462.731,447.283,-0.0184456,454.911,2.58804,2.57952,0.145438,0.154093,-0.297771,0.783982,0.00330208,0.00315723,0.54981,0.15654602650561844,1.1901762061041223,0.003307537871952926,0.16659937547555614,0.0031622193000440113,-0.25752865378042533
732,0.72,462.715,447.248,-0.0305033,454.916,2.58392,2.58474,0.145594,0.154255,-0.29809,0.784826,0.00330875,0.00316369,0.550405,0.15672646175933713,1.1920254951122597,0.003314229955548642,0.16678837988332673,0.003168699748912429,-0.25776546436657266
733,0.721,462.726,447.295,-0.0170179,454.91,2.59807,2.58827,0.145751,0.154417,-0.298408,0.78567,0.00331571,0.00317015,0.551,0.15690808207065476,1.1938763455791626,0.003321213046890259,0.1669774149122918,0.0031751802396446926,-0.25800145742401925
734,0.722,462.706,447.248,-0.0328426,454.917,2.59136,2.59371,0.145907,0.154579,-0.298727,0.786513,0.00332236,0.00317662,0.551594,0.15708857380944719,1.1957265630955978,0.0033278851551417077,0.16716648056741223,0.0031816708040579567,-0.25823811720985834
735,0.723,462.721,447.309,-0.0151297,454.909,2.6085,2.597,0.146064,0.154741,-0.299045,0.787356,0.00332938,0.0031831,0.552188,0.1572702509768198,1.1975783410030112,0.0033349285416177654,0.16735557685364966,0.0031881714423467322,-0.2584739599875965
736,0.724,462.696,447.246,-0.0357583,454.918,2.59842,2.60275,0.14622,0.154903,-0.299363,0.788198,0.003336,0.00318958,0.552782,0.1574507992183689,1.1994294811867872,0.0033415706408301826,0.1675447037759672,0.003194672122759812,-0.2587097277792547
737,0.725,462.716,447.325,-0.0125774,454.908,2.61943,2.60572,0.146376,0.155065,-0.299681,0.78904,0.0033431,0.00319608,0.553375,0.15763137562764062,1.2012821806869782,0.0033486943912710565,0.16773386133932777,0.0032011929093211933,-0.25894542060867476
738,0.726,462.685,447.243,-0.0394174,454.919,2.60498,2.61187,0.146533,0.155226,-0.299999,0.789882,0.00334968,0.00320258,0.553968,0.1578131380215888,1.2031364408170808,0.003355296447400846,0.16792188162623045,0.003207713738267781,-0.2591810384996911
739,0.727,462.713,447.345,-0.00918384,454.906,2.631,2.61442,0.146688,0.155388,-0.300316,0.790722,0.00335687,0.0032091,0.554561,0.15799261296693112,1.204987852911584,0.0033625105979171455,0.16811110029735232,0.0032142546738846978,-0.25941584089234115
740,0.728,462.674,447.236,-0.0440285,454.921,2.61088,2.62109,0.146845,0.155548,-0.300633,0.791563,0.00336338,0.00321562,0.555153,0.1581744320795937,1.206843027687532,0.0033690425091223997,0.16829801302601943,0.0032207956521488335,-0.25965056886442905
741,0.729,462.71,447.367,-0.00471013,454.904,2.64338,2.62307,0.147,0.15571,-0.300951,0.792402,0.00337069,0.00322216,0.555745,0.15835396302985538,1.208695345926606,0.003376377163631261,0.168487292635364,0.003227356737607101,-0.2598859625539499
742,0.73,462.66,447.225,-0.0498749,454.923,2.61593,2.63042,0.147156,0.155871,-0.301267,0.793242,0.0033771,0.00322869,0.556336,0.15853468034367202,1.2105514294631319,0.0033828088268224032,0.16867543423447073,0.003233907833635863,-0.26011980164126114
743,0.731,462.708,447.395,0.00116306,454.901,2.65679,2.63166,0.147312,0.156033,-0.301584,0.794081,0.00338456,0.00323525,0.556927,0.1587154258515886,1.2124068603568716,0.003390294090496182,0.16886477499100394,0.0032404890696577926,-0.26035430649315816
744,0.732,462.645,447.21,-0.0572995,454.926,2.61988,2.63987,0.147467,0.156193,-0.301901,0.79492,0.00339084,0.0032418,0.557518,0.1588950406623839,1.214263848610352,0.0033965954013293054,0.16905180831726963,0.003247060316381889,-0.26058873701879837
745,0.733,462.709,447.428,0.00883386,454.897,2.67152,2.64016,0.147623,0.156355,-0.302217,0.795757,0.00339848,0.00324838,0.558109,0.15907584239089534,1.216117963290388,0.003404261380602014,0.16924121005134318,0.0032536617037572935,-0.2608223540644632
746,0.734,462.628,447.188,-0.0667521,454.929,2.62241,2.6495,0.147778,0.156514,-0.302533,0.796595,0.0034046,0.00325495,0.558699,0.15925551307058394,1.2179758484887997,0.0034104022334726647,0.16942713418431832,0.0032602531019674252,-0.2610558972988044
747,0.735,462.711,447.47,0.0188059,454.893,2.68792,2.64855,0.147933,0.156676,-0.302849,0.797432,0.00341247,0.00326155,0.559289,0.15943521160138618,1.2198330714133525,0.003418299104412492,0.16961659672610763,0.0032668746414890037,-0.2612893667451427
748,0.736,462.608,447.157,-0.0787924,454.934,2.62313,2.65931,0.148089,0.156836,-0.303165,0.798269,0.00341838,0.00326813,0.559879,0.15961609760313733,1.2216918494842313,0.0034242293240840382,0.16980375035347484,0.003273476159243005,-0.2615227624267914
749,0.737,462.716,447.521,0.0317202,454.887,2.70645,2.65676,0.148243,0.156998,-0.303481,0.799104,0.00342653,0.00327475,0.560467,0.15979469223360176,1.2235477369037175,0.0034324072648779236,0.1699932739120258,0.003280117851639286,-0.26175608436705633
750,0.738,462.667,447.4,-0.014787,454.901,2.68554,2.65846,0.148399,0.157158,-0.303796,0.79994,0.00343319,0.00328128,0.561056,0.15997563431870598,1.2254074000426516,0.0034390901469643076,0.17018048781256434,0.00328666929219934,-0.2619885945781999
751,0.739,462.656,447.355,-0.0177092,454.91,2.67685,2.67112,0.148553,0.157318,-0.304111,0.800775,0.00344001,0.003288,0.561645,0.16015428432208823,1.2272663912425021,0.0034459336248953143,0.1703677316697234,0.003293411401270374,-0.2622210315601612
752,0.74,462.645,447.354,-0.0268806,454.909,2.68152,2.67292,0.148708,0.157478,-0.304426,0.80161,0.003447,0.00329459,0.562233,0.1603341221732315,1.2291269353482521,0.0034529477364857453,0.1705550054882965,0.0033000231266371305,-0.26245339533600365
753,0.741,462.639,447.341,-0.027401,454.912,2.68151,2.67979,0.148863,0.157638,-0.304741,0.802444,0.00345394,0.00330126,0.562821,0.16051398790140214,1.230986802669202,0.003459911724108089,0.17074230927307799,0.003306715160109386,-0.2626856859287837
754,0.742,462.637,447.358,-0.0266789,454.91,2.68945,2.68281,0.149018,0.157798,-0.305056,0.803278,0.003461,0.00330789,0.563408,0.16069388151092157,1.2328482217664982,0.003466996176092918,0.1709296430288625,0.0033133671056819747,-0.2629179033615503
755,0.743,462.628,447.345,-0.0302842,454.913,2.68991,2.68854,0.149172,0.157958,-0.305371,0.804111,0.00346796,0.00331457,0.563996,0.16087264213288877,1.2347089592247857,0.0034739803306911288,0.17111700676044594,0.003320069261359304,-0.2631500476573453
756,0.744,462.629,447.368,-0.0258309,454.91,2.6989,2.69226,0.149327,0.158118,-0.305685,0.804944,0.00347506,0.00332123,0.564582,0.16105259133812244,1.2365712473231274,0.003481105021243991,0.17130440047262474,0.003326751395272165,-0.26338138222095364
757,0.745,462.618,447.35,-0.0320424,454.913,2.69853,2.69762,0.149481,0.158278,-0.305999,0.805776,0.00348203,0.00332791,0.565169,0.16123140720565687,1.2384328489197776,0.003488099308921022,0.17149182417019637,0.003333453640356865,-0.2636126441569122
758,0.746,462.621,447.379,-0.0250302,454.909,2.70871,2.70155,0.149635,0.158438,-0.306313,0.806608,0.00348916,0.0033346,0.565755,0.16141025061295555,1.240296000013457,0.0034952542045763035,0.17167927785795878,0.0033401659636145276,-0.26384383348802243
759,0.747,462.607,447.355,-0.0336372,454.913,2.70704,2.70687,0.149789,0.158597,-0.306627,0.807439,0.00349612,0.0033413,0.566341,0.16158912156425975,1.2421584597343038,0.0035022385558511893,0.1718655896745349,0.0033468883652465475,-0.2640749502370787
760,0.748,462.613,447.392,-0.0241493,454.909,2.71876,2.71078,0.149943,0.158757,-0.30694,0.80827,0.0035033,0.00334801,0.566926,0.1617680200638114,1.244022467802428,0.0035094437277904955,0.17205310316956246,0.0033536208454547634,-0.26430525873249466
761,0.749,462.597,447.36,-0.0353973,454.913,2.71539,2.7162,0.150097,0.158916,-0.307254,0.8091,0.00351026,0.00335472,0.567511,0.1619469461158538,1.245885779618138,0.0035164281778248263,0.17223947442908893,0.003360353370838398,-0.2645362306167691
762,0.75,462.605,447.405,-0.0230282,454.908,2.72908,2.72001,0.150251,0.159076,-0.307567,0.80993,0.00351749,0.00336145,0.568096,0.16212589972462976,1.2477506386246504,0.003523683627828955,0.17242704775046325,0.003367106008739018,-0.26476639475401953
763,0.751,462.586,447.363,-0.0374418,454.914,2.72351,2.72562,0.150405,0.159235,-0.30788,0.81076,0.00352443,0.00336818,0.568681,0.16230488089438366,1.2496170461066662,0.003530648106359946,0.1726134784719051,0.0033738586920852853,-0.2649964868611683
764,0.752,462.597,447.42,-0.0215409,454.907,2.73972,2.72922,0.150559,0.159394,-0.308193,0.811589,0.00353171,0.00337493,0.569265,0.1624838896293601,1.2514827518660767,0.0035379538360709173,0.17279993883818845,0.0033806314884896604,-0.2652265069607572
765,0.753,462.574,447.366,-0.0399522,454.914,2.73135,2.7351,0.150712,0.159553,-0.308506,0.812417,0.00353864,0.00338168,0.569848,0.1626617632714602,1.2533477515879556,0.0035449083781884383,0.17298642885402704,0.0033874043306105772,-0.26545645507532123
766,0.754,462.59,447.437,-0.0195809,454.905,2.75075,2.73844,0.150866,0.159713,-0.308818,0.813245,0.00354599,0.00338845,0.570432,0.1628408269705548,1.2552142961690875,0.003552284460372146,0.17317412169767077,0.003394197286332057,-0.26568559691335214
767,0.755,462.561,447.366,-0.0429835,454.915,2.73881,2.74465,0.151019,0.159871,-0.30913,0.814073,0.00355287,0.00339522,0.571015,0.16301875522824605,1.257082386889146,0.0035591889238406615,0.17335949785322957,0.0034009902880418608,-0.26591466727028135
768,0.756,462.583,447.456,-0.0170143,454.904,2.76226,2.74764,0.151172,0.16003,-0.309443,0.8149,0.00356031,0.003402,0.571598,0.16319671071104325,1.258949766077968,0.003566655431981536,0.17354607684602508,0.003407793369818446,-0.26614440002437423
769,0.757,462.548,447.365,-0.0467046,454.917,2.74581,2.75428,0.151326,0.160189,-0.309755,0.815727,0.00356715,0.00340879,0.57218,0.1633758567983874,1.2608186902281333,0.0035735198513811017,0.1737326855072392,0.0034146065318660934,-0.2663733272570612
770,0.758,462.577,447.478,-0.0136698,454.902,2.77437,2.75682,0.151478,0.160348,-0.310066,0.816552,0.00357468,0.0034156,0.572762,0.1635527033686195,1.2626846352440566,0.0035810767884372208,0.17391932384158904,0.0034214398086038766,-0.2666014496774092
771,0.759,462.533,447.36,-0.0513106,454.918,2.75222,2.76401,0.151632,0.160506,-0.310378,0.817378,0.00358145,0.00342241,0.573344,0.1637319042830545,1.2645543848530498,0.003587871055325653,0.17410481774838882,0.003428273131876436,-0.2668302343328477
772,0.76,462.571,447.503,-0.00933231,454.9,2.78722,2.76598,0.151784,0.160665,-0.310689,0.818203,0.00358909,0.00342923,0.573925,0.16390880497661775,1.2664234130886918,0.00359553849595029,0.17429151525646946,0.003435116536035121,-0.26705821467718915
773,0.761,462.518,447.353,-0.0569787,454.92,2.75787,2.77384,0.151937,0.160823,-0.311001,0.819028,0.00359578,0.00343606,0.574507,0.16408689664744447,1.2682939839088565,0.003602252572561193,0.17447706797415852,0.0034419700212857673,-0.2672868568441771
774,0.762,462.567,447.532,-0.00377846,454.897,2.80099,2.77508,0.15209,0.160982,-0.311312,0.819852,0.00360357,0.0034429,0.575087,0.16426501556838158,1.2701638284217385,0.0036100706645603164,0.17466382467473074,0.003448833587833988,-0.2675146952009976
775,0.763,462.5,447.341,-0.0640313,454.923,2.76257,2.7838,0.152243,0.161139,-0.311623,0.820677,0.00361013,0.00344974,0.575668,0.1644431617435984,1.2720374863578137,0.0036166543682183416,0.1748482613731066,0.003455697201329322,-0.26774246271110647
776,0.764,462.564,447.566,0.00328039,454.894,2.8159,2.78411,0.152395,0.161298,-0.311933,0.821499,0.0036181,0.00345661,0.576248,0.16462017055651246,1.2739058689716507,0.0036246532248289665,0.1750350770981215,0.0034625909656491594,-0.2679694273663269
777,0.765,462.481,447.323,-0.0728252,454.926,2.76606,2.79391,0.152548,0.161455,-0.312244,0.822323,0.00362451,0.00346347,0.576828,0.16479837107459971,1.2757803395835157,0.0036310864794748543,0.17521957208770367,0.003469474742634482,-0.26819705347672107
778,0.766,462.563,447.607,0.0122916,454.889,2.83222,2.79304,0.1527,0.161615,-0.312554,0.823144,0.00363269,0.00347036,0.577407,0.1649754338834355,1.277649522436883,0.003639296215339982,0.17540762226285045,0.0034763886711339786,-0.268423877230645
779,0.767,462.46,447.299,-0.0836784,454.931,2.76805,2.80418,0.152853,0.161771,-0.312864,0.823967,0.0036389,0.00347724,0.577987,0.16515368876097014,1.279524799564538,0.0036455288347216896,0.17559100015502715,0.0034832926124375163,-0.26865063068010286
780,0.768,462.564,447.656,0.0236696,454.884,2.85031,2.80184,0.153004,0.161931,-0.313174,0.824788,0.00364735,0.00348415,0.578565,0.16532964025197616,1.281397057881855,0.003654009675271963,0.17577910976341937,0.003490226705946675,-0.26887731384688585
781,0.769,462.515,447.539,-0.0217132,454.898,2.82979,2.80413,0.153156,0.162088,-0.313484,0.825609,0.00365431,0.00349098,0.579144,0.16550678381986472,1.2832708539544124,0.0036609951314885425,0.17596372157530027,0.0034970805676011185,-0.26910392675277806
782,0.77,462.503,447.499,-0.0239513,454.907,2.82238,2.81659,0.153309,0.162245,-0.313794,0.82643,0.00366145,0.00349799,0.579722,0.165685120000159,1.2851461890452263,0.0036681612965769883,0.17614836237351095,0.0035041151067918275,-0.2693304694195572
783,0.771,462.491,447.496,-0.0334969,454.906,2.82661,2.8189,0.15346,0.162403,-0.314103,0.82725,0.00366874,0.00350488,0.5803,0.16586115174334126,1.2870207773964277,0.003675478064142368,0.17633420849622317,0.0035110292739641835,-0.2695562114255704
784,0.772,462.484,447.489,-0.0330948,454.909,2.82783,2.8258,0.153612,0.16256,-0.314412,0.82807,0.003676,0.00351184,0.580877,0.1660383761071167,1.2888969035404862,0.0036827647745638625,0.17651890746544674,0.003518013735033909,-0.26978188368807976
785,0.773,462.479,447.502,-0.0335538,454.907,2.83498,2.82928,0.153764,0.162718,-0.314722,0.828889,0.00368336,0.00351877,0.581455,0.16621562741104268,1.2907722779654858,0.0036901519068972544,0.17670481213890876,0.003524968138965967,-0.2700082162207813
786,0.774,462.471,447.496,-0.0356489,454.909,2.83692,2.8351,0.153916,0.162875,-0.31503,0.829708,0.00369064,0.00352574,0.582031,0.1663929056592146,1.292649188951275,0.003697458797800257,0.1768895692974719,0.0035319627323699976,-0.2702330190687695
787,0.775,462.468,447.514,-0.0330769,454.907,2.84478,2.83925,0.154067,0.163032,-0.315339,0.830526,0.00369803,0.0035327,0.582608,0.16656904428610098,1.294525343230322,0.003704876149427827,0.17707435546518635,0.0035389473391371773,-0.2704584822300249
788,0.776,462.458,447.505,-0.0370693,454.909,2.8463,2.84471,0.154219,0.163189,-0.315648,0.831344,0.00370533,0.00353968,0.583184,0.16674637625772082,1.2964030328314307,0.0037122032217675738,0.17725917064660646,0.0035459520654359533,-0.27068387573392616
789,0.777,462.457,447.527,-0.0327071,454.907,2.85487,2.84908,0.15437,0.163346,-0.315956,0.832161,0.00371275,0.00354666,0.58376,0.16692256826269736,1.2982799607298983,0.0037196507939458723,0.1774440148462879,0.003552956840628063,-0.2709084705108289
790,0.778,462.446,447.514,-0.0382834,454.909,2.85564,2.85446,0.154521,0.163503,-0.316264,0.832978,0.00372006,0.00355366,0.584336,0.1670987868746754,1.3001584227050436,0.0037269880114105813,0.17762888806878707,0.003559981735913098,-0.2711329961231923
791,0.779,462.446,447.54,-0.0323635,454.906,2.86512,2.85887,0.154672,0.16366,-0.316572,0.833794,0.00372751,0.00356067,0.584911,0.1672750320976728,1.3020361179734508,0.0037344658053259927,0.17781379031866051,0.003567016716042648,-0.2713574525923158
792,0.78,462.433,447.523,-0.0395333,454.909,2.86491,2.8643,0.154823,0.163817,-0.31688,0.83461,0.00373483,0.00356768,0.585486,0.1674513039357084,1.3039153460665047,0.003741813168506969,0.17799872160046637,0.0035740517454874166,-0.27158183993949203
793,0.781,462.435,447.554,-0.0319299,454.905,2.87554,2.86867,0.154974,0.163974,-0.317188,0.835426,0.00374232,0.00357471,0.58606,0.1676276023928014,1.3057961082355,0.003749331222842711,0.17818368191876277,0.00358110689586999,-0.2718061581860074
794,0.782,462.42,447.531,-0.0408926,454.909,2.87408,2.87421,0.155125,0.16413,-0.317495,0.836241,0.00374963,0.00358174,0.586635,0.16780392747297124,1.3076760980555022,0.0037566686572723107,0.17836749291002651,0.0035881620958506666,-0.2720296793831849
795,0.783,462.423,447.569,-0.0313053,454.905,2.88614,2.87847,0.155276,0.164287,-0.317803,0.837055,0.00375717,0.00358879,0.587209,0.16798027918023828,1.3095553111352798,0.0037642370110866352,0.17855251112996373,0.0035952374173338075,-0.2722538597163914
796,0.784,462.406,447.539,-0.0424771,454.909,2.88312,2.88417,0.155427,0.164443,-0.31811,0.83787,0.00376448,0.00359585,0.587782,0.16815665751862396,1.3114383659544626,0.0037715745544779633,0.17873637966307276,0.0036023228247215044,-0.2724772434902947
797,0.785,462.412,447.585,-0.0304537,454.904,2.89695,2.88829,0.155577,0.1646,-0.318417,0.838683,0.00377206,0.00360291,0.588355,0.1683318941596712,1.3133183294475939,0.003779183171849665,0.17892145580277652,0.003609408282132298,-0.27270055869590515
798,0.786,462.392,447.546,-0.0443342,454.91,2.892,2.89419,0.155728,0.164756,-0.318724,0.839497,0.00377937,0.00360999,0.588928,0.16850832559592765,1.3152021371734919,0.003786520824497819,0.179105381895744,0.003616513861896653,-0.2729238053542701
799,0.787,462.401,447.602,-0.0293408,454.903,2.90803,2.89812,0.155878,0.164912,-0.31903,0.840309,0.003787,0.00361708,0.589501,0.16868361499114304,1.3170828447728256,0.0037941797448703962,0.1792893366834203,0.0036236295282048303,-0.27314625663305014
800,0.788,462.378,447.552,-0.0465301,454.91,2.90068,2.90427,0.156029,0.165068,-0.319337,0.841122,0.00379429,0.00362417,0.590073,0.1688600995412548,1.3189673990931547,0.0038014974311135763,0.17947332017028161,0.003630745244963318,-0.2733693664831496
801,0.789,462.39,447.62,-0.0278598,454.902,2.9194,2.90797,0.156179,0.165224,-0.319643,0.841933,0.00380199,0.00363128,0.590645,0.16903544170651963,1.3208488444768003,0.0038092267324016937,0.17965733236080594,0.003637881084930017,-0.2735916814410825
802,0.79,462.362,447.557,-0.0491132,454.911,2.90911,2.91441,0.156329,0.16538,-0.319949,0.842745,0.00380925,0.0036384,0.591217,0.169210810175082,1.3227341390645297,0.0038165144138420093,0.17984137325947103,0.003645027012082691,-0.27381392838104546
803,0.791,462.38,447.641,-0.0259091,454.901,2.93114,2.91782,0.156479,0.165536,-0.320255,0.843556,0.00381702,0.00364553,0.591788,0.16938620495088763,1.3246186405133589,0.003824314098460624,0.18002544287075595,0.003652183026636502,-0.274036107323849
804,0.792,462.347,447.561,-0.0522053,454.912,2.9172,2.92462,0.156629,0.165692,-0.320561,0.844367,0.00382425,0.00365266,0.59236,0.16956162603788272,1.3265046709127688,0.0038315717744881184,0.18020954119914,0.003659339092212832,-0.27425821829029684
805,0.793,462.37,447.663,-0.0234394,454.899,2.94332,2.92767,0.156779,0.165848,-0.320866,0.845176,0.00383211,0.00365981,0.59293,0.16973707344001476,1.3283875747234348,0.003839461921650411,0.18039366824910363,0.0036665152821422353,-0.2744795357810853
806,0.794,462.33,447.563,-0.0559014,454.913,2.9249,2.93492,0.156929,0.166003,-0.321172,0.845986,0.00383929,0.00366696,0.593501,0.16991254716123083,1.3302743326927802,0.003846669514862233,0.1805766434478937,0.0036736915233814837,-0.2747015110791836
807,0.795,462.36,447.687,-0.0202592,454.897,2.95602,2.93751,0.157078,0.166159,-0.321477,0.846795,0.00384724,0.00367414,0.594071,0.17008687711801707,1.3321602873937448,0.0038546501276077727,0.18076082777027525,0.003680897926357618,-0.27492269338628794
808,0.796,462.313,447.562,-0.0603216,454.915,2.93209,2.9453,0.157228,0.166314,-0.321782,0.847604,0.00385436,0.00368131,0.594641,0.17026240331372033,1.3340477684493899,0.0038617975981616315,0.18094385988320205,0.0036880943441948144,-0.2751438082430754
809,0.797,462.351,447.714,-0.0163006,454.895,2.96936,2.94733,0.157377,0.16647,-0.322087,0.848412,0.00386242,0.00368851,0.59521,0.17043678540295715,1.3359344411594272,0.0038698887568575646,0.18112810149581593,0.0036953209244898755,-0.27536485567011504
810,0.798,462.294,447.559,-0.065654,454.917,2.93866,2.95578,0.157527,0.166625,-0.322392,0.849221,0.00386946,0.0036957,0.595779,0.17061236408883973,1.3378249767408574,0.0038769560257512214,0.1813111905405822,0.0037025375197907717,-0.2755858356879699
811,0.799,462.343,447.745,-0.0113873,454.893,2.98345,2.95712,0.157676,0.166781,-0.322696,0.850027,0.00387766,0.00370292,0.596348,0.17078679832611687,1.3397100232438017,0.0038851878505410387,0.1814954894612486,0.00370978427827251,-0.2758060241235828
812,0.8,462.274,447.552,-0.0720806,454.919,2.94448,2.96638,0.157825,0.166935,-0.323001,0.850835,0.0038846,0.00371012,0.596917,0.17096125855603184,1.3416012729045517,0.0038921548379202697,0.18167745377751832,0.0037170110147355384,-0.2760268696055771
813,0.801,462.336,447.78,-0.00520982,454.889,2.99848,2.96686,0.157974,0.167091,-0.323305,0.851641,0.00389296,0.00371737,0.597485,0.17113574478245774,1.3434893643291423,0.0039005474114155447,0.18186180983970646,0.0037242879894443526,-0.27624692398725625
814,0.802,462.253,447.541,-0.079764,454.922,2.94936,2.9771,0.158124,0.167245,-0.323609,0.852448,0.00389976,0.00372459,0.598053,0.17131142832011115,1.3453813235490233,0.00390737395834817,0.1820438305736587,0.003731534904965139,-0.27646691148257063
815,0.803,462.33,447.82,0.00235293,454.886,3.0146,2.97653,0.158272,0.167401,-0.323913,0.853252,0.00390831,0.00373186,0.59862,0.17148479524033822,1.3472677683823608,0.003915957403089809,0.1822282437950855,0.0037388320597488978,-0.27668683211185063
816,0.804,462.229,447.525,-0.0890875,454.926,2.95311,2.98797,0.158421,0.167555,-0.324216,0.854058,0.00391495,0.0037391,0.599188,0.1716593594795417,1.3491604288433812,0.003922623427178085,0.18241032096421206,0.0037460991551998557,-0.27690596280174473
817,0.805,462.325,447.866,0.0117343,454.881,3.03206,2.98611,0.15857,0.167711,-0.32452,0.854862,0.00392373,0.0037464,0.599754,0.17183394973075483,1.3510499132991396,0.003931437906507185,0.18259479136259937,0.003753426528468662,-0.2771257499797092
818,0.806,462.277,447.755,-0.0314051,454.895,3.01268,2.98908,0.158719,0.167865,-0.324823,0.855667,0.00393109,0.0037536,0.600321,0.17200856599785364,1.3529432704533546,0.003938826869081646,0.18277692498439824,0.003760653579157003,-0.2773447476976356
819,0.807,462.265,447.723,-0.0323884,454.903,3.0072,3.00127,0.158867,0.168019,-0.325126,0.856471,0.00393864,0.00376098,0.600887,0.17218203610209248,1.3548357975367402,0.003946406635838118,0.1829590866569346,0.0037680613601149826,-0.27756367906930546
820,0.808,462.25,447.718,-0.0423877,454.902,3.01091,3.00425,0.159016,0.168174,-0.32543,0.857274,0.00394632,0.00376825,0.601453,0.1723567042379246,1.3567274900950759,0.00395411697384862,0.18314245952639663,0.0037753587804472133,-0.2777832663319133
821,0.809,462.243,447.718,-0.0407677,454.904,3.01374,3.01121,0.159164,0.168328,-0.325732,0.858077,0.00395399,0.00377558,0.602019,0.17253022587043598,1.3586207022925896,0.0039618173314566185,0.18332467749558723,0.0037827164807930913,-0.2780013428542688
822,0.81,462.235,447.727,-0.0426927,454.903,3.01994,3.01528,0.159312,0.168483,-0.326035,0.85888,0.00396172,0.00378289,0.602584,0.17270377318604924,1.3605154353500413,0.0039695779862995995,0.18350810703602116,0.0037900541592696957,-0.27822007530774384
823,0.811,462.227,447.729,-0.0429536,454.904,3.02372,3.02122,0.159461,0.168637,-0.326337,0.859682,0.00396943,0.00379024,0.603149,0.17287851906649876,1.3624093280786629,0.003977318621585901,0.1836903813192643,0.0037974320432814235,-0.27843801993370587
824,0.812,462.22,447.742,-0.0425873,454.903,3.03026,3.02593,0.159609,0.168791,-0.32664,0.860483,0.00397718,0.00379758,0.603714,0.17305211793331998,1.3643023760149373,0.003985099475956044,0.1838726836749085,0.0038047999434727142,-0.2786566200940692
825,0.813,462.211,447.743,-0.0441097,454.904,3.03402,3.03153,0.159757,0.168945,-0.326942,0.861284,0.00398491,0.00380494,0.604279,0.1732257424946746,1.3661969408900618,0.003992860310770618,0.18405501410727743,0.0038121879739883013,-0.2788744329034112
826,0.814,462.205,447.757,-0.0426628,454.903,3.04081,3.03647,0.159905,0.169099,-0.327244,0.862085,0.00399269,0.0038123,0.604843,0.17339939275436622,1.3680930239195903,0.004000671405608891,0.18423737262069517,0.0038195760588799477,-0.27909217994321633
827,0.815,462.195,447.756,-0.0449604,454.904,3.04435,3.04196,0.160053,0.169253,-0.327546,0.862885,0.00400044,0.00381968,0.605407,0.17357306871619804,1.3699882563306116,0.004008452440963817,0.18441975921948628,0.003826984274687417,-0.2793098612333442
828,0.816,462.19,447.772,-0.0427655,454.903,3.05146,3.04698,0.1602,0.169407,-0.327847,0.863685,0.00400825,0.00382707,0.60597,0.17374559663779077,1.3718850055341973,0.0040162937775976015,0.18460217390797662,0.0038344025835119755,-0.27952675632076474
829,0.817,462.18,447.77,-0.0457576,454.904,3.05466,3.05247,0.160348,0.169561,-0.328149,0.864485,0.00401601,0.00383447,0.606533,0.17391932384158904,1.3737832727442676,0.004024084974267206,0.18478461669049207,0.0038418309855761112,-0.2797443063886422
830,0.818,462.175,447.787,-0.0429717,454.902,3.06221,3.05751,0.160496,0.169715,-0.32845,0.865284,0.00402385,0.00384188,0.607096,0.1740930767589164,1.3756806834938429,0.004031956553949945,0.1849670875713596,0.0038492694811032013,-0.27996107072774956
831,0.819,462.164,447.784,-0.0465571,454.904,3.06499,3.06305,0.160643,0.169868,-0.328751,0.866082,0.00403163,0.0038493,0.607659,0.17426568112731022,1.377577233302,0.00403976795295824,0.18514840140591282,0.0038567180703170667,-0.2801777698306095
832,0.82,462.16,447.803,-0.0431524,454.902,3.07303,3.06807,0.160791,0.170022,-0.329052,0.86688,0.0040395,0.00385673,0.608221,0.1744394853093092,1.3794752971609299,0.004047669777025753,0.18533092831394038,0.0038641767534413063,-0.280394403716855
833,0.821,462.147,447.797,-0.0474752,454.903,3.07531,3.07367,0.160938,0.170175,-0.329353,0.867678,0.00404729,0.00386417,0.608783,0.17461214060350305,1.3813748762793279,0.004055491338838202,0.1855122978203858,0.003871645530700185,-0.2806109724061133
834,0.822,462.144,447.82,-0.0432323,454.901,3.08394,3.07866,0.161085,0.170329,-0.329654,0.868475,0.00405519,0.00387163,0.609344,0.17478482127989037,1.3832735885920724,0.004063423408551481,0.18569488077277674,0.003879134441109322,-0.28082747591800594
835,0.823,462.131,447.811,-0.048376,454.903,3.08561,3.08434,0.161232,0.170482,-0.329954,0.869272,0.004063,0.00387909,0.609906,0.17495752734220327,1.3851738147817305,0.004071265174510286,0.18587630596820848,0.003886623407386214,-0.281043195315703
836,0.824,462.128,447.837,-0.0431865,454.901,3.09497,3.08928,0.161379,0.170635,-0.330254,0.870069,0.00407093,0.00388657,0.610467,0.1751302587941732,1.3870755560553416,0.004079227491213588,0.18605775892381882,0.003894132507413328,-0.2812588500072871
837,0.825,462.114,447.824,-0.0494843,454.903,3.09588,3.09506,0.161526,0.170788,-0.330555,0.870865,0.00407875,0.00389405,0.611028,0.175303015639533,1.3889764246432916,0.004087079421473572,0.18623923964385525,0.0039016416636086237,-0.28147515853736804
838,0.826,462.113,447.854,-0.0431091,454.9,3.10611,3.09995,0.161673,0.170942,-0.330855,0.87166,0.00408672,0.00390155,0.611588,0.17547579788201562,1.3908764160473956,0.004095082027387065,0.18642193455390732,0.003909170954155883,-0.28169068365942207
839,0.827,462.097,447.837,-0.0506099,454.903,3.10611,3.10582,0.16182,0.171095,-0.331154,0.872455,0.00409454,0.00390906,0.612148,0.175648605525355,1.3927779185452467,0.004102934081629872,0.18660347099707786,0.003916710340340135,-0.28190542603942226
840,0.828,462.097,447.872,-0.0429033,454.9,3.11738,3.11063,0.161967,0.171248,-0.331454,0.87325,0.00410255,0.00391658,0.612708,0.1758214385732848,1.3946809333386412,0.004110976978343617,0.18678503521744916,0.0039242598223878655,-0.28212082210058576
841,0.829,462.08,447.851,-0.0518707,454.903,3.1163,3.11665,0.162113,0.1714,-0.331753,0.874044,0.00411038,0.0039241,0.613267,0.17599312103583142,1.396583065046069,0.004118839198073987,0.18696544025323747,0.003931809361207961,-0.2823354358884175
842,0.83,462.081,447.89,-0.0425535,454.899,3.12879,3.12135,0.16226,0.171553,-0.332053,0.874838,0.00411843,0.00393165,0.613826,0.17616600473126387,1.3984867076458172,0.004126922387264198,0.18714705985914182,0.003939389074982147,-0.28255070296597484
843,0.831,462.062,447.863,-0.0533182,454.904,3.12641,3.12752,0.162406,0.171706,-0.332352,0.875631,0.00412627,0.0039392,0.614385,0.17633773750414217,1.400389461947349,0.00413479477319556,0.18732870725497164,0.003946968845983223,-0.28276518823864183
844,0.832,462.065,447.91,-0.0420503,454.898,3.14036,3.13211,0.162552,0.171859,-0.332651,0.876424,0.00413436,0.00394676,0.614944,0.17650949535183558,1.402293725731472,0.00414291825654467,0.1875103824449793,0.003954558713757272,-0.28297960938979894
845,0.833,462.043,447.876,-0.054969,454.904,3.13644,3.13844,0.162699,0.172011,-0.33295,0.877217,0.00414219,0.00395433,0.615502,0.176682454959872,1.404199500195682,0.004150780726376091,0.18769089774192604,0.003962158678532557,-0.2831939664386156
846,0.834,462.049,447.93,-0.0413195,454.898,3.15213,3.14289,0.162845,0.172164,-0.333248,0.878008,0.00415034,0.00396192,0.61606,0.1768542631399881,1.4061019743296614,0.004158964588588221,0.18787262835131768,0.0039697787802353,-0.28340754281215663
847,0.835,462.025,447.887,-0.0567738,454.904,3.14634,3.14943,0.162991,0.172316,-0.333547,0.8788,0.00415817,0.00396951,0.616618,0.1770260964059296,1.4080083619231671,0.004166827184063138,0.18805319871382697,0.003977398939774668,-0.28362177192800697
848,0.836,462.033,447.951,-0.040432,454.897,3.16412,3.15369,0.163137,0.172469,-0.333845,0.879591,0.00416637,0.00397713,0.617175,0.17719795476135958,1.4099138500586537,0.004175061385806034,0.18823498475950795,0.0039850492767024015,-0.28383522083450585
849,0.837,462.006,447.899,-0.0589006,454.905,3.1561,3.16048,0.163283,0.172621,-0.334143,0.880382,0.00417418,0.00398474,0.617732,0.17736983820994112,1.4118208460315262,0.004182904023660949,0.18841561020437747,0.003992689631998836,-0.2840486061427071
850,0.838,462.017,447.973,-0.0392395,454.896,3.17634,3.16452,0.163428,0.172773,-0.334441,0.881172,0.00418244,0.00399238,0.618289,0.17754056921418027,1.4137269373068122,0.004191198608704871,0.18859626310640132,0.004000360165449024,-0.28426192787156024
851,0.839,461.986,447.909,-0.0612805,454.905,3.16569,3.17159,0.163574,0.172925,-0.334739,0.881962,0.00419024,0.00400001,0.618845,0.17771250268812366,1.4156345349891581,0.00419903133060151,0.18877694346975327,0.004008020717422012,-0.2844751860400093
852,0.84,462.002,447.997,-0.0377132,454.894,3.18886,3.17537,0.16372,0.173077,-0.335037,0.882752,0.00419857,0.00400767,0.619401,0.17788446126618696,1.4175436402690957,0.00420739634337286,0.18895765129860775,0.004015711448316139,-0.2846883806669922
853,0.841,461.966,447.918,-0.0640072,454.906,3.17506,3.18277,0.163865,0.173229,-0.335334,0.883541,0.00420634,0.00401533,0.619957,0.17805526689617945,1.419451834885053,0.0042151990651559945,0.18913838659713988,0.004023402238121587,-0.28490079667259594
854,0.842,461.986,448.022,-0.0357742,454.893,3.20169,3.18624,0.164011,0.173381,-0.335631,0.884329,0.00421475,0.00402301,0.620513,0.17822727552147044,1.4213591143003397,0.0042236445504932885,0.1893191493695252,0.0040311131674606315,-0.28511314960001344
855,0.843,461.945,447.927,-0.0671465,454.907,3.18418,3.19402,0.164156,0.173532,-0.335928,0.885118,0.00422249,0.00403069,0.621068,0.17839813086313394,1.4232703205132262,0.004231417271582494,0.18949875012059536,0.004038824156020082,-0.2853254394679764
856,0.844,461.971,448.048,-0.033471,454.891,3.2149,3.19711,0.164301,0.173685,-0.336225,0.885905,0.00423098,0.00403839,0.621623,0.17856901098061817,1.4251781849016343,0.004239943232507759,0.18968075735256207,0.004046555284730857,-0.2855376662952105
857,0.845,461.924,447.933,-0.0708529,454.908,3.19298,3.20535,0.164447,0.173836,-0.336522,0.886693,0.00423868,0.00404609,0.622178,0.17874109461802123,1.427089978459072,0.00424767590984132,0.18986041271056053,0.004054286472971569,-0.2857498301004362
858,0.846,461.956,448.077,-0.0306253,454.89,3.22853,3.20801,0.164591,0.173988,-0.336819,0.887479,0.00424726,0.00405382,0.622732,0.17891084555742043,1.4289984211018472,0.004256292391865424,0.19004128523925656,0.004062047842603667,-0.2859619309023682
859,0.847,461.902,447.938,-0.0750612,454.909,3.20142,3.21676,0.164737,0.174139,-0.337115,0.888266,0.0042549,0.00406154,0.623286,0.17908297910631532,1.4309107952797877,0.00426396493924841,0.19022099504107626,0.004069799231533278,-0.28617325489332746
860,0.848,461.941,448.108,-0.0272797,454.888,3.24267,3.21888,0.164881,0.174291,-0.337412,0.889052,0.0042636,0.0040693,0.62384,0.17925277928062577,1.4328222422651358,0.004272702073749857,0.19040192238245202,0.004077590843406753,-0.28638522995676907
861,0.849,461.878,447.942,-0.0798829,454.911,3.2094,3.22828,0.165026,0.174442,-0.337708,0.889838,0.00427117,0.00407704,0.624393,0.17942378333111542,1.4347351922384113,0.004280304446879546,0.19058168664459196,0.004085362434035789,-0.2865964286697503
862,0.85,461.927,448.141,-0.0230676,454.885,3.25739,3.22974,0.165171,0.174594,-0.338004,0.890623,0.00428,0.00408482,0.624946,0.17959481217899032,1.4366472097329992,0.004289172281119136,0.19076266881525838,0.004093174248543496,-0.28680756487716375
863,0.851,461.854,447.942,-0.0854792,454.913,3.21685,3.23988,0.165316,0.174744,-0.3383,0.891408,0.00428748,0.00409258,0.625499,0.17976586582784604,1.4385607287505908,0.004296684392222971,0.19094129661233072,0.004100966041807874,-0.2870186385975084
864,0.852,461.914,448.178,-0.0181042,454.882,3.27276,3.2406,0.16546,0.174896,-0.338595,0.892192,0.00429645,0.00410039,0.626051,0.17993576434492486,1.4404733099958142,0.004305692973885389,0.19112233344786667,0.004108808100975692,-0.2872289370785711
865,0.853,461.829,447.94,-0.0919842,454.915,3.22369,3.2516,0.165605,0.175046,-0.338891,0.892977,0.00430383,0.00410817,0.626604,0.18010686743542914,1.4423898336812901,0.0043131047772491105,0.19130101519868004,0.004116620097891488,-0.28743988609120175
866,0.854,461.902,448.217,-0.0121677,454.879,3.2889,3.25142,0.165749,0.175198,-0.339186,0.893759,0.00431297,0.00411601,0.627156,0.18027681506027515,1.4443005295159304,0.004322284240976915,0.19148210671559696,0.004124492403052349,-0.28765006032258156
867,0.855,461.803,447.935,-0.0994876,454.918,3.2298,3.26344,0.165893,0.175348,-0.339481,0.894543,0.00432021,0.00412381,0.627707,0.18044678715934137,1.4462176125294168,0.004329555560636855,0.19166084243644832,0.0041323246046387485,-0.28786017256170726
868,0.856,461.89,448.261,-0.00511734,454.875,3.30592,3.26221,0.166037,0.1755,-0.339776,0.895325,0.00432954,0.00413167,0.628258,0.1806167837361521,1.4481313028578109,0.004338925999103349,0.19184198865126212,0.004140217115727651,-0.28807022282686423
869,0.857,461.841,448.157,-0.0459176,454.889,3.28778,3.26614,0.166181,0.175651,-0.340071,0.896108,0.00433749,0.00413944,0.62881,0.18078680479423248,1.4500489403250434,0.00434691052530356,0.19202197037982693,0.004148019315526108,-0.28828021113633184
870,0.858,461.828,448.134,-0.045884,454.896,3.28447,3.27818,0.166325,0.175801,-0.340366,0.89689,0.00434566,0.00414738,0.62936,0.18095685033710796,1.4519656279235535,0.004355116073082144,0.19220078708630162,0.0041559922824521145,-0.28849013750838426
871,0.859,461.81,448.128,-0.0562251,454.896,3.28783,3.28206,0.166469,0.175952,-0.340661,0.897671,0.00435391,0.00415522,0.629911,0.18112692036830502,1.4538813610753807,0.004363402036969166,0.1923808229975208,0.00416386489629228,-0.28870000196129053
872,0.86,461.801,448.136,-0.0534462,454.897,3.29248,3.28925,0.166613,0.176102,-0.340955,0.898452,0.0043622,0.00416312,0.630461,0.18129701489134975,1.4557985909992133,0.004371728244084272,0.1925596935359255,0.004171797822159817,-0.28890909342276305
873,0.861,461.789,448.142,-0.0567249,454.897,3.29796,3.29412,0.166757,0.176253,-0.341249,0.899233,0.0043705,0.004171,0.631011,0.18146713390976932,1.4577173188644856,0.0043800645640244,0.19273978364611066,0.004179710727103547,-0.28911812342038146
874,0.862,461.78,448.153,-0.0554056,454.897,3.30373,3.30039,0.1669,0.176403,-0.341543,0.900013,0.00437883,0.00417892,0.63156,0.18163609579040507,1.4596350862052319,0.004388431084808575,0.1929187080326511,0.004187663861906943,-0.2893270919722135
875,0.863,461.769,448.161,-0.0569927,454.897,3.30927,3.30586,0.167044,0.176553,-0.341837,0.900793,0.00438716,0.00418683,0.63211,0.18180626363998997,1.4615543499880408,0.004396797675286335,0.19309765925986233,0.00419560701774313,-0.28953599909632166
876,0.864,461.76,448.172,-0.0562896,454.896,3.31531,3.31181,0.167187,0.176704,-0.342131,0.901572,0.00439551,0.00419476,0.632659,0.18197527401964475,1.4634726479067126,0.004405184423561526,0.19327783060900527,0.0042035703204812425,-0.289744844810763
877,0.865,461.749,448.18,-0.0575237,454.896,3.32077,3.3175,0.167331,0.176854,-0.342424,0.902351,0.00440387,0.00420271,0.633207,0.18214549071441133,1.4653924407616645,0.004413581286002222,0.19345683570864347,0.004211553770599563,-0.2899529190868635
878,0.866,461.739,448.191,-0.0570704,454.896,3.32694,3.32335,0.167474,0.177004,-0.342718,0.90313,0.00441225,0.00421066,0.633756,0.18231454960700622,1.4673137297179064,0.004421998307080788,0.19363586766106033,0.004219537284186448,-0.2901616422448443
879,0.867,461.728,448.199,-0.0579245,454.896,3.33235,3.32915,0.167617,0.177154,-0.343011,0.903908,0.00442063,0.00421863,0.634304,0.18248363267675138,1.4692340467060743,0.004430415398694043,0.19381492647028442,0.004227540945793029,-0.2903695944171856
880,0.868,461.718,448.211,-0.0576056,454.896,3.33863,3.33494,0.16776,0.177304,-0.343304,0.904685,0.00442903,0.0042266,0.634851,0.1826527399271045,1.471153387127555,0.00443885264961974,0.1939940121403445,0.004235544671189251,-0.29057748566846575
881,0.869,461.707,448.219,-0.0585427,454.896,3.34398,3.34083,0.167903,0.177454,-0.343597,0.905463,0.00443744,0.00423459,0.635399,0.18282187136152328,1.4730766925315302,0.004447300015891775,0.19417312467526981,0.0042435685452464345,-0.290785316016532
882,0.87,461.697,448.231,-0.0582258,454.895,3.35035,3.34662,0.168046,0.177604,-0.34389,0.906239,0.00444587,0.0042426,0.635946,0.1829910269834667,1.4749965448512938,0.004455767542321354,0.19435226407909068,0.004251612568446861,-0.29099308547922653
883,0.871,461.686,448.238,-0.0591563,454.896,3.35566,3.35254,0.168189,0.177754,-0.344183,0.907016,0.0044543,0.00425061,0.636493,0.18316020679639378,1.476920364473778,0.004464235140132722,0.1945314303558372,0.004259656656079969,-0.2912007940743859
884,0.872,461.676,448.251,-0.0587351,454.895,3.36214,3.35834,0.168332,0.177903,-0.344475,0.907792,0.00446275,0.00425864,0.63704,0.18332941080376375,1.478843200640552,0.0044727228987804235,0.19470942879951503,0.004267720893500915,-0.29140773322792946
885,0.873,461.665,448.258,-0.0598412,454.895,3.36738,3.3643,0.168475,0.178053,-0.344767,0.908568,0.0044712,0.00426668,0.637586,0.18349863900903696,1.480767529507284,0.004481210729149865,0.19488864865498812,0.004275795238435576,-0.29161461196406147
886,0.874,461.655,448.271,-0.0592535,454.895,3.37399,3.37012,0.168617,0.178203,-0.345059,0.909343,0.00447969,0.00427473,0.638132,0.18366670774837446,1.4826908695406478,0.004489738810830701,0.19506789539545566,0.0042838796911270904,-0.2918214303004214
887,0.875,461.643,448.278,-0.0605479,454.895,3.37913,3.37612,0.16876,0.178352,-0.345351,0.910118,0.00448816,0.00428279,0.638678,0.18383598419055946,1.4846157007402896,0.004498246874949929,0.19524597377837982,0.004291974251818598,-0.2920281882546433
888,0.876,461.633,448.292,-0.0597166,454.894,3.38589,3.38194,0.168902,0.178502,-0.345643,0.910892,0.00449668,0.00429086,0.639223,0.18400410083631402,1.486539537721531,0.004506805236471845,0.19542527412163602,0.004300078920753014,-0.2922348858443561
889,0.877,461.621,448.298,-0.0612865,454.895,3.39094,3.38797,0.169044,0.178651,-0.345935,0.911666,0.00450517,0.00429895,0.639768,0.18417224135632715,1.4884648643290062,0.004515333535450861,0.19560340575795743,0.004308203741256289,-0.29244152308718385
890,0.878,461.612,448.313,-0.0602666,454.894,3.39784,3.39382,0.169187,0.1788,-0.346226,0.912439,0.00451371,0.00430705,0.640313,0.1843415900949874,1.4903891913256966,0.004523912133029828,0.19578156393787016,0.004316338670653064,-0.2926473926484916
891,0.879,461.599,448.318,-0.0619617,454.894,3.40278,3.39987,0.169329,0.178949,-0.346518,0.913213,0.00452224,0.00431516,0.640858,0.1845097785418779,1.492317498718477,0.004532480758545621,0.1959597486653295,0.00432448370918781,-0.2928539094569168
892,0.88,461.59,448.334,-0.0608227,454.894,3.40987,3.40574,0.169471,0.179099,-0.346809,0.913985,0.0045308,0.00432329,0.641402,0.18467799087322367,1.49424231070932,0.00454107959338379,0.19613915608284938,0.004332648900431835,-0.29305965903124986
893,0.881,461.577,448.339,-0.062666,454.894,3.41466,3.41184,0.169613,0.179248,-0.3471,0.914758,0.00453935,0.00433142,0.641946,0.18484622709241672,1.4961711053986027,0.004549668456331535,0.19631739409550786,0.004340814158059203,-0.2932653487411675
894,0.882,461.567,448.355,-0.0613304,454.893,3.42194,3.4177,0.169754,0.179397,-0.347391,0.91553,0.00454794,0.00433957,0.642489,0.18501330218895418,1.498098893522442,0.004558297575045778,0.19649565866760876,0.004348999569049994,-0.29347097860408766
895,0.883,461.554,448.36,-0.0632808,454.894,3.4266,3.42385,0.169896,0.179546,-0.347682,0.916301,0.00455651,0.00434773,0.643033,0.18518158602573465,1.500025670446406,0.004566906676545912,0.19667394980311004,0.004357195090324062,-0.2936765486374233
896,0.884,461.545,448.377,-0.0617536,454.893,3.43409,3.42972,0.170038,0.179694,-0.347972,0.917072,0.00456514,0.0043559,0.643576,0.1853498937605167,1.5019539334882026,0.00457557612635906,0.19685107065430052,0.004365400722128099,-0.29388135274028826
897,0.885,461.531,448.38,-0.0641207,454.894,3.43852,3.43593,0.17018,0.179843,-0.348262,0.917843,0.00457373,0.00436409,0.644119,0.18551822539669383,1.5038836837940712,0.004584205467621061,0.19702941475013325,0.004373626508444417,-0.2940860974585745
898,0.886,461.522,448.399,-0.06213,454.892,3.44633,3.44178,0.170321,0.179992,-0.348553,0.918613,0.00458238,0.00437229,0.644661,0.1856853952516726,1.5058124166974651,0.0045928951585811895,0.19720778542121598,0.004381862405949066,-0.2942914885183655
899,0.887,461.508,448.401,-0.0650273,454.893,3.45051,3.44803,0.170462,0.180141,-0.348843,0.919383,0.004591,0.0043805,0.645204,0.1858525886792628,1.507742635297114,0.004601554786660245,0.19738618267150887,0.004390108414889182,-0.2944961143145206
900,0.888,461.5,448.421,-0.0625914,454.892,3.45863,3.4539,0.170604,0.180289,-0.349133,0.920153,0.00459968,0.00438872,0.645746,0.18602099170318698,1.5096743407374453,0.004610274766000622,0.1975634089409648,0.004398364535513011,-0.29470068077779854
901,0.889,461.485,448.422,-0.0659151,454.893,3.46252,3.4602,0.170745,0.180438,-0.349423,0.920922,0.00460832,0.00439696,0.646287,0.18618823245321292,1.5116050225574882,0.004618954636271599,0.19774185918310971,0.004406640812134821,-0.2949051879254033
902,0.89,461.476,448.444,-0.0629152,454.892,3.47098,3.46608,0.170886,0.180586,-0.349712,0.92169,0.00461703,0.00440521,0.646829,0.18635549678584717,1.5135346761069286,0.004627704905473706,0.197919138096585,0.004414927201102925,-0.2951089308838174
903,0.891,461.461,448.443,-0.0666967,454.893,3.47458,3.47242,0.171027,0.180735,-0.350002,0.922459,0.00462569,0.00441347,0.64737,0.18652278470441508,1.5154683276665892,0.0046364050190697,0.19809764134632313,0.004423223702666013,-0.29531331965605656
904,0.892,461.453,448.466,-0.0632883,454.891,3.48342,3.47829,0.171168,0.180883,-0.350291,0.923226,0.00463444,0.00442174,0.647911,0.18669009621224242,1.5173984319742897,0.0046451956260724625,0.19827497291945506,0.004431530317073884,-0.29551694468144263
905,0.893,461.437,448.464,-0.0676691,454.893,3.48666,3.4847,0.171309,0.181031,-0.35058,0.923994,0.00464311,0.00443003,0.648451,0.18685743131265586,1.519332536571146,0.0046539059376775604,0.19845233073960222,0.0044398570889747635,-0.2957205108676989
906,0.894,461.43,448.49,-0.0637808,454.891,3.49595,3.49055,0.17145,0.181179,-0.350869,0.924761,0.00465189,0.00443833,0.648991,0.18702479000898165,1.521265605864003,0.00466272683769553,0.19862971481064906,0.004448193974386561,-0.29592401823182757
907,0.895,461.413,448.486,-0.0686239,454.892,3.49874,3.49705,0.171591,0.181328,-0.351158,0.925528,0.00466059,0.00444664,0.649531,0.18719217230454754,1.5232001583897548,0.0046714674414405355,0.198808323944206,0.004456540973560186,-0.2961274667908258
908,0.896,461.406,448.513,-0.064077,454.89,3.50856,3.50286,0.171731,0.181476,-0.351447,0.926294,0.00466941,0.00445497,0.650071,0.18735839084369643,1.5251336701515443,0.00468032868286139,0.19898576070614626,0.004464908131395662,-0.2963308565616858
909,0.897,461.389,448.507,-0.0694402,454.892,3.51087,3.50944,0.171872,0.181624,-0.351735,0.92706,0.00467812,0.0044633,0.65061,0.1875258201802963,1.5270686635507382,0.004689079486633885,0.19916322373067064,0.004473275358929829,-0.2965334840952306
910,0.898,461.382,448.537,-0.0644609,454.89,3.52124,3.51521,0.172012,0.181772,-0.352023,0.927825,0.00468697,0.00447165,0.651149,0.18769208543341764,1.5290026107188304,0.004697971024332448,0.19934071302166623,0.004481662745796422,-0.2967360532804484
911,0.899,461.364,448.529,-0.0704964,454.892,3.52303,3.5219,0.172153,0.181919,-0.352312,0.92859,0.0046957,0.00448001,0.651688,0.18785956182427177,1.5309380379225472,0.004706742075905046,0.19951702906539204,0.004490060247598571,-0.29693926719522523
912,0.9,461.358,448.561,-0.0647469,454.889,3.534,3.52762,0.172293,0.182067,-0.3526,0.929355,0.00470459,0.00448839,0.652227,0.1880258738044942,1.53287494629455,0.004715673958544331,0.19969457072345254,0.004498477909573362,-0.2971417195317372
913,0.901,461.339,448.55,-0.071525,454.892,3.53521,3.53441,0.172433,0.182215,-0.352888,0.930119,0.00471334,0.00449678,0.652765,0.18819220907002365,1.5348108021562954,0.004724465259153154,0.19987213865962272,0.004506905687157392,-0.2973441135703715
914,0.902,461.334,448.586,-0.0648941,454.888,3.54687,3.54009,0.172573,0.182363,-0.353175,0.930883,0.00472226,0.00450518,0.653303,0.18835856762412062,1.5367481375770389,0.004733427441354632,0.20004973287779237,0.004515343580604236,-0.2975457468740138
915,0.903,461.314,448.572,-0.0727089,454.892,3.54739,3.54696,0.172713,0.18251,-0.353463,0.931646,0.00473103,0.0045136,0.653841,0.1885249494700454,1.538684415001911,0.00474223899215187,0.20022615315509795,0.0045238016354056665,-0.29774802456952776
916,0.904,461.31,448.611,-0.0649247,454.888,3.55983,3.55261,0.172853,0.182658,-0.35375,0.932409,0.00473999,0.00452203,0.654378,0.18869135461105935,1.5406221703702223,0.004751241522944483,0.2004037997712902,0.004532269806746703,-0.29794954196734647
917,0.905,461.288,448.593,-0.0739796,454.892,3.55958,3.55957,0.172993,0.182805,-0.354038,0.933172,0.00474877,0.00453046,0.654915,0.18885778305042367,1.542561404810073,0.004760063277572613,0.20058027210025497,0.004540738049474857,-0.2981517033866182
918,0.906,461.285,448.637,-0.0649704,454.887,3.57292,3.56519,0.173133,0.182953,-0.354325,0.933934,0.00475778,0.00453892,0.655452,0.18902423479140085,1.5444995749495796,0.004769116206525981,0.20075797112992966,0.004549236500067,-0.29835310494524014
919,0.907,461.262,448.615,-0.0752916,454.892,3.57176,3.57225,0.173272,0.1831,-0.354612,0.934696,0.00476657,0.00454739,0.655988,0.18918952064713768,1.5464392225375683,0.0047779481658738465,0.20093449552591114,0.004557745068134,-0.29855444870990855
920,0.908,461.26,448.663,-0.0650673,454.887,3.58612,3.57779,0.173412,0.183247,-0.354899,0.935457,0.00477562,0.00455587,0.656525,0.1893560188346295,1.54837780032121,0.00478704144745179,0.20111104587288597,0.00456626375393121,-0.29875573469720795
921,0.909,461.236,448.636,-0.0768491,454.892,3.58393,3.585,0.173551,0.183394,-0.355185,0.936219,0.00478442,0.00456436,0.657061,0.18952135081155363,1.5503204042431524,0.004795883612322083,0.20128762217466956,0.004574792557715313,-0.29895626188033053
922,0.91,461.236,448.689,-0.0650398,454.886,3.59944,3.59046,0.173691,0.183542,-0.355472,0.936979,0.00479351,0.00457287,0.657596,0.1896878954585206,1.5522593844695334,0.004805017248416421,0.20146542589990246,0.004583341525575824,-0.299157432563797
923,0.911,461.21,448.658,-0.0780643,454.892,3.59607,3.59782,0.17383,0.183688,-0.355758,0.937739,0.00480233,0.00458139,0.658132,0.18985327356950177,1.554199838881006,0.004813879667751708,0.20164085265792564,0.004591900612107125,-0.29935784487775674
924,0.912,461.211,448.717,-0.0647926,454.885,3.61293,3.60314,0.173969,0.183836,-0.356045,0.938499,0.00481146,0.00458992,0.658667,0.19001867466963795,1.5561417685983767,0.0048230536603524055,0.20181870866513885,0.00460046981756701,-0.29955890032344035
925,0.913,461.183,448.679,-0.0798046,454.892,3.60819,3.61071,0.174109,0.183982,-0.356331,0.939259,0.00482028,0.00459846,0.659202,0.19018528894681896,1.558085174743304,0.004831916238769551,0.2019941870062112,0.004609049142213051,-0.2997591978340385
926,0.914,461.186,448.744,-0.0644525,454.884,3.62651,3.61591,0.174248,0.18413,-0.356617,0.940018,0.00482947,0.00460703,0.659736,0.1903507362003003,1.560027498409521,0.00484115068651203,0.20217209531077773,0.004617658678655934,-0.2999594380677396
927,0.915,461.155,448.7,-0.0815881,454.892,3.62031,3.62362,0.174387,0.184276,-0.356902,0.940776,0.0048383,0.0046156,0.660271,0.1905162064525483,1.561968734888994,0.00485002347304575,0.2023476252500669,0.0046262682888829065,-0.3001589212001937
928,0.916,461.16,448.773,-0.064108,454.883,3.64025,3.62873,0.174525,0.184423,-0.357188,0.941535,0.00484754,0.00462419,0.660805,0.1906805090256556,1.5639140072962672,0.004859308330158685,0.2025243833423802,0.004634898065592363,-0.30035904712935846
929,0.917,461.128,448.721,-0.0833492,454.892,3.63239,3.63662,0.174664,0.184569,-0.357473,0.942293,0.00485637,0.00463278,0.661338,0.1908460251195121,1.5658581908662828,0.004868181277025263,0.20269996471947693,0.0046435279164318555,-0.30055841638945757
930,0.918,461.135,448.802,-0.0634667,454.882,3.65415,3.64158,0.174803,0.184716,-0.357759,0.94305,0.00486566,0.0046414,0.661872,0.19101156422170473,1.5678012808835495,0.004877516545791494,0.20287677460949904,0.004652187980967337,-0.30075842807933517
931,0.919,461.1,448.742,-0.0851044,454.892,3.64441,3.64971,0.174941,0.184863,-0.358044,0.943807,0.00487449,0.00465002,0.662405,0.1911759351589013,1.5697458423768427,0.004886389653437462,0.2030536104924856,0.004660848120152883,-0.30095768353208174
932,0.92,461.109,448.832,-0.0629804,454.881,3.6682,3.65446,0.17508,0.185009,-0.358329,0.944564,0.00488385,0.00465867,0.662938,0.19134152012177674,1.5716918764604912,0.004895795434063599,0.20322926914238693,0.004669538474074919,-0.30115688220511594
933,0.921,461.071,448.762,-0.0871946,454.892,3.65642,3.66286,0.175218,0.185156,-0.358614,0.94532,0.00489267,0.00466732,0.663471,0.1915059365960292,1.5736368106115717,0.004904658654065974,0.2034061568458787,0.004678228903168824,-0.30135602411461737
934,0.922,461.084,448.862,-0.062104,454.88,3.68241,3.6674,0.175357,0.185302,-0.358898,0.946076,0.00490209,0.00467599,0.664003,0.19167156743229263,1.5755832156888099,0.004914124900536443,0.2035818669713052,0.004686939501173715,-0.3015544108315217
935,0.923,461.042,448.783,-0.0898967,454.893,3.66837,3.67605,0.175495,0.185448,-0.359183,0.946832,0.0049109,0.00468466,0.664535,0.19183602945621692,1.5775310928046467,0.004922978232975828,0.20375760275228272,0.004695650174699972,-0.3017534394615077
936,0.924,461.058,448.893,-0.0612323,454.879,3.69682,3.68042,0.175633,0.185595,-0.359467,0.947586,0.00492038,0.00469337,0.665067,0.19200051417746655,1.5794752841166373,0.004932504947966043,0.20393456812652366,0.004704401111923273,-0.3019517133284788
937,0.925,461.013,448.802,-0.0922915,454.893,3.68019,3.68934,0.175771,0.185741,-0.359752,0.948341,0.00492919,0.00470207,0.665598,0.19216502159917415,1.5814235233239007,0.004941358442334121,0.20411035540562938,0.004713142078236032,-0.3021506287433873
938,0.926,461.032,448.925,-0.0602164,454.878,3.71145,3.69342,0.175909,0.185887,-0.360036,0.949095,0.00493874,0.0047108,0.666129,0.1923295517244723,1.5833706506352354,0.0049509556781339725,0.20428616835155133,0.004721913262252464,-0.30234878982461866
939,0.927,460.983,448.822,-0.0948624,454.894,3.69196,3.70272,0.176047,0.186033,-0.36032,0.94985,0.00494753,0.00471952,0.66666,0.19249410455649452,1.5853218319547282,0.0049597892358577145,0.20446200696803718,0.0047306744755351016,-0.30254689463609374
940,0.928,461.007,448.958,-0.0589557,454.876,3.72631,3.70649,0.176185,0.186179,-0.360603,0.950603,0.00495716,0.00472829,0.667191,0.1926586800983745,1.5872693124285684,0.0049694670452267165,0.20463787125883548,0.004739486002188542,-0.30274424593838534
941,0.929,460.953,448.841,-0.0974754,454.894,3.70361,3.71616,0.176323,0.186325,-0.360887,0.951357,0.00496593,0.00473704,0.667722,0.19282327835324642,1.589220849127018,0.004978280666100288,0.20481376122769457,0.004748277511154031,-0.30294223845627044
942,0.93,460.981,448.992,-0.0575606,454.875,3.74135,3.7196,0.17646,0.186471,-0.361171,0.952109,0.00497564,0.00474583,0.668252,0.19298670633694215,1.5911686754964847,0.004988039052582494,0.2049896768783639,0.0047571092873288645,-0.3031401747522645
943,0.931,460.922,448.859,-0.101113,454.895,3.71518,3.72967,0.176598,0.186616,-0.361454,0.952862,0.00498438,0.0047546,0.668782,0.19315134986255855,1.5931205603015348,0.004996822686428315,0.20516441304957733,0.004765921045816857,-0.3033373581800385
944,0.932,460.955,449.028,-0.0555438,454.873,3.75665,3.7328,0.176735,0.186763,-0.361737,0.953613,0.00499418,0.00476343,0.669311,0.19331482279513001,1.5950687252867093,0.005006671703550625,0.20534158524013257,0.004774793168069946,-0.30353448581279785
945,0.933,460.891,448.877,-0.104357,454.896,3.72658,3.74324,0.176873,0.186908,-0.36202,0.954365,0.00500289,0.00477223,0.66984,0.19347951160394206,1.597020950912961,0.005015425349783387,0.20551637244175835,0.004783635225154903,-0.3037315576663303
946,0.934,460.929,449.064,-0.0534332,454.872,3.77223,3.746,0.17701,0.187054,-0.362303,0.955116,0.00501278,0.00478108,0.670369,0.1936430294977518,1.598972046191672,0.005025365001491533,0.20569239068115364,0.004792527599675411,-0.30392857375641913
947,0.935,460.86,448.894,-0.107611,454.897,3.73784,3.75691,0.177147,0.187199,-0.362586,0.955867,0.00502145,0.00478991,0.670898,0.19380656979504773,1.600924607293285,0.005034078609179593,0.20586722875325636,0.00480139995686546,-0.304125534098843
948,0.936,460.904,449.102,-0.0512033,454.87,3.78813,3.7592,0.177284,0.187345,-0.362868,0.956617,0.00503144,0.00479879,0.671427,0.19397013249889894,1.602876032441713,0.0050441189497762995,0.20604329822141265,0.0048103226329136994,-0.3043217430314674
949,0.937,460.827,448.91,-0.111653,454.898,3.74888,3.77072,0.177422,0.18749,-0.363151,0.957368,0.00504007,0.00480764,0.671955,0.1941349117466904,1.6048315265382014,0.005052792517949101,0.2062181871787978,0.004819215243618835,-0.30451859212272925
950,0.938,460.878,449.14,-0.0485955,454.868,3.80429,3.77247,0.177558,0.187636,-0.363433,0.958117,0.00505017,0.00481656,0.672483,0.19429732513854825,1.606783276190579,0.0050629436024165475,0.20639430789062496,0.004828178270993799,-0.3047146902286182
951,0.939,460.794,448.925,-0.116073,454.899,3.75982,3.78455,0.177695,0.18778,-0.363715,0.958867,0.00505874,0.00482543,0.673011,0.19446095508048722,1.6087390969888422,0.0050715570287516165,0.20656804117945793,0.004837091136463467,-0.3049107330426378
952,0.94,460.852,449.18,-0.0457297,454.866,3.82078,3.78579,0.177832,0.187926,-0.363997,0.959615,0.00506896,0.00483438,0.673538,0.19462460744126409,1.6106911638153671,0.005081828912553821,0.20674421297369805,0.004846084468674183,-0.30510672058037813
953,0.941,460.761,448.939,-0.120622,454.9,3.77052,3.79849,0.177969,0.18807,-0.364279,0.960364,0.00507747,0.00484328,0.674065,0.19478828222395017,1.6126473039801068,0.005090382195311882,0.20691799665249078,0.004855027638623,-0.30530265285742497
954,0.942,460.827,449.222,-0.0423074,454.863,3.83762,3.79911,0.178105,0.188217,-0.364561,0.961112,0.00508781,0.00485226,0.674592,0.19495078448023562,1.6146022952390626,0.005100774883594061,0.20709542663878322,0.004864051277287285,-0.30549852988935966
955,0.943,460.726,448.953,-0.125797,454.902,3.78099,3.81252,0.178242,0.188361,-0.364843,0.96186,0.00509625,0.00486119,0.675118,0.19511450395223706,1.6165587493785294,0.005109257969932557,0.2072692608959854,0.004873024753331734,-0.30569435169175896
956,0.944,460.801,449.265,-0.0387604,454.861,3.85481,3.81251,0.178378,0.188507,-0.365124,0.962607,0.00510673,0.0048702,0.675644,0.19527705057769462,1.6185140489777923,0.005119791570151966,0.20744553507577823,0.004882078700072734,-0.3058894241699668
957,0.945,460.692,448.965,-0.130752,454.904,3.7912,3.82666,0.178515,0.18865,-0.365405,0.963355,0.00511509,0.00487915,0.676171,0.19544081475121344,1.6204734302036492,0.0051281944067333995,0.20761821213340936,0.0048910724349240375,-0.3060844418405091
958,0.946,460.776,449.31,-0.0346797,454.858,3.8724,3.82586,0.17865,0.188797,-0.365686,0.9641,0.00512571,0.00488819,0.676696,0.19560221015514956,1.622426410303909,0.005138868924839501,0.20779574505894338,0.0049001566912796335,-0.3062794047187847
959,0.947,460.721,449.205,-0.0757866,454.873,3.85387,3.83188,0.178787,0.188941,-0.365967,0.964847,0.00513485,0.00489714,0.677222,0.19576601887858214,1.6243860946833952,0.005148055936086138,0.2079696801692592,0.004909150587929734,-0.3064743128201879
960,0.948,460.702,449.19,-0.0758951,454.879,3.85251,3.84446,0.178923,0.189086,-0.366248,0.965593,0.00514425,0.00490624,0.677747,0.19592865411609517,1.6263446171480793,0.005157504372219401,0.20814484847227877,0.004918295302808406,-0.306669166160109
961,0.949,460.679,449.186,-0.0866354,454.88,3.85627,3.84992,0.179059,0.189231,-0.366529,0.966338,0.00515372,0.00491526,0.678272,0.19609131147350456,1.628301972912345,0.00516702325885765,0.20832004217654387,0.004927359706712542,-0.30686396475393374
962,0.95,460.666,449.202,-0.083488,454.88,3.86301,3.85809,0.179195,0.189375,-0.366809,0.967083,0.00516325,0.00492434,0.678797,0.1962539909538188,1.6302607874499806,0.005176602546234754,0.2084940527910808,0.004936484488565096,-0.3070580156754059
963,0.951,460.647,449.21,-0.0875726,454.88,3.86889,3.86445,0.179331,0.18952,-0.36709,0.967828,0.00517278,0.0049334,0.679321,0.196416692560047,1.6322210618481776,0.005186181924902611,0.20866929713364346,0.004945589254359062,-0.3072527050178674
964,0.952,460.634,449.23,-0.0854636,454.88,3.87685,3.87177,0.179466,0.189664,-0.36737,0.968572,0.00518236,0.0049425,0.679845,0.19657821971638034,1.6341801630134563,0.005195811654651772,0.20884335804451548,0.004954734300831154,-0.30744664710730274
965,0.953,460.616,449.238,-0.0880623,454.88,3.88271,3.87867,0.179602,0.189809,-0.36765,0.969316,0.00519191,0.0049516,0.680369,0.19674096542071884,1.6361407222923532,0.005205411320491349,0.209018653040012,0.004963879430523566,-0.307640534900555
966,0.954,460.602,449.259,-0.0863294,454.879,3.89103,3.8857,0.179737,0.189953,-0.36793,0.97006,0.00520152,0.00496073,0.680893,0.19690253635684352,1.6381027407701088,0.005215071390910708,0.20919276426175681,0.004973054792628107,-0.30783436841282463
967,0.955,460.585,449.267,-0.0892052,454.88,3.89672,3.89281,0.179873,0.190097,-0.36821,0.970803,0.00521111,0.00496986,0.681416,0.1970653261712445,1.6400635794678706,0.005224711449669295,0.20936690055732288,0.004982230238504304,-0.3080281476593085
968,0.956,460.571,449.289,-0.0868558,454.879,3.90527,3.89983,0.180008,0.190242,-0.36849,0.971546,0.00522075,0.00497901,0.681939,0.19722694089902615,1.6420258756101584,0.005234401862595384,0.20954227147198767,0.004991425867980848,-0.30822187265519885
969,0.957,460.553,449.297,-0.0899989,454.879,3.91088,3.90695,0.180144,0.190386,-0.368769,0.972288,0.00523037,0.00498818,0.682462,0.19738977483544518,1.6439869862919476,0.005244072264055877,0.209716458100216,0.005000641681610629,-0.30841485183088124
970,0.958,460.539,449.319,-0.0876222,454.878,3.91959,3.91404,0.180279,0.19053,-0.369048,0.97303,0.00524005,0.00499736,0.682984,0.19755143336675318,1.645949552657855,0.005253803073772545,0.20989066981312465,0.00500986762984823,-0.3086077771728838
971,0.959,460.521,449.326,-0.0907339,454.879,3.92504,3.92121,0.180414,0.190674,-0.369328,0.973772,0.00524969,0.00500655,0.683507,0.19771311372343625,1.6479135757883983,0.00526349376714319,0.2100649066143263,0.005019103712971429,-0.3088013398952296
972,0.96,460.507,449.349,-0.0887953,454.877,3.93403,3.92822,0.180549,0.190818,-0.369607,0.974513,0.0052594,0.00501576,0.684029,0.19787481590844092,1.649876406887167,0.005273254923058079,0.21023916850743407,0.005028359981541719,-0.3089941574221031
973,0.961,460.488,449.356,-0.0916277,454.878,3.93928,3.93556,0.180684,0.190962,-0.369886,0.975254,0.00526907,0.00502499,0.68455,0.19803653992471393,1.6518406929827893,0.005282975962434211,0.21041345549606105,0.0050376364361151005,-0.3091869211603905
974,0.962,460.474,449.38,-0.0895847,454.877,3.94849,3.94252,0.180819,0.191106,-0.370164,0.975995,0.00527882,0.00503423,0.685072,0.19819828577520315,1.6538064351538178,0.005292777519232406,0.2105877675838217,0.0050469230267797816,-0.3093789405043824
975,0.963,460.456,449.386,-0.0922286,454.878,3.95363,3.94995,0.180953,0.19125,-0.370443,0.976735,0.00528852,0.00504348,0.685593,0.19835885510340168,1.6557709787072983,0.00530252890646854,0.21076210477433022,0.005056219753815094,-0.30957159690316427
976,0.964,460.442,449.411,-0.0901215,454.876,3.96301,3.95686,0.181088,0.191394,-0.370722,0.977475,0.0052983,0.00505275,0.686114,0.19852064446937723,1.6577369765610324,0.005312360813279238,0.21093646707120173,0.005065536668156012,-0.3097641995583086
977,0.965,460.423,449.416,-0.0935312,454.878,3.96805,3.96438,0.181223,0.191538,-0.371,0.978214,0.00530803,0.00506204,0.686634,0.19868245567839127,1.6597017700885015,0.005322142550137965,0.211110854478052,0.005074873770362531,-0.309956058441211
978,0.966,460.409,449.442,-0.0910999,454.876,3.97761,3.97137,0.181357,0.191681,-0.371278,0.978953,0.00531784,0.00507134,0.687155,0.198843089889704,1.6616680161350268,0.005332004808730639,0.21128405571383557,0.005084221010153156,-0.31014786399475713
979,0.967,460.389,449.447,-0.0944272,454.877,3.98251,3.97888,0.181492,0.191825,-0.371556,0.979692,0.0053276,0.00508065,0.687675,0.19900494463178853,1.6636357157744173,0.005341816896980545,0.21145849317705423,0.005093578387809217,-0.3103396162337704
980,0.968,460.376,449.473,-0.0918671,454.875,3.99228,3.98588,0.181626,0.191969,-0.371834,0.98043,0.00533745,0.00508998,0.688195,0.19916562205951638,1.6656022044777372,0.005351719562647572,0.21163295576107632,0.00510295595464183,-0.3105313151730702
981,0.969,460.356,449.478,-0.0954083,454.877,3.99705,3.99346,0.18176,0.192112,-0.372112,0.981168,0.00534724,0.00509933,0.688714,0.19932632101946224,1.6675701449853704,0.005361562004160714,0.21180623166268187,0.005112353711214546,-0.31072296082747186
982,0.97,460.342,449.505,-0.092594,454.875,4.00706,4.00047,0.181894,0.192256,-0.37239,0.981905,0.00535712,0.00510869,0.689234,0.19948704151451135,1.6695368688309395,0.005371495025462414,0.2119807443246513,0.0051217616068741645,-0.3109145532117865
983,0.971,460.322,449.508,-0.0959809,454.876,4.0116,4.00814,0.182028,0.192399,-0.372667,0.982643,0.00536694,0.00511807,0.689753,0.19964778354755008,1.6715077141926247,0.005381367822018923,0.21215406996357755,0.0051311896932155765,-0.311105403446569
984,0.972,460.309,449.537,-0.0929265,454.874,4.02197,4.0151,0.182162,0.192543,-0.372944,0.983379,0.00537686,0.00512746,0.690272,0.19980854712146434,1.673474667620341,0.00539134125465579,0.21232863271786906,0.005140627919399288,-0.3112962008231577
985,0.973,460.288,449.54,-0.0973107,454.876,4.02622,4.02285,0.182296,0.192686,-0.373222,0.984116,0.0053867,0.00513687,0.69079,0.19996933223914093,1.675445744703063,0.005401234354127649,0.2125020081083926,0.005150086337209814,-0.31148763386890255
986,0.974,460.275,449.57,-0.0939329,454.874,4.03687,4.02987,0.18243,0.192829,-0.373499,0.984852,0.00539666,0.00514629,0.691308,0.20013013890346687,1.6774155975881042,0.005411248200290819,0.21267540829336995,0.005159554895620033,-0.311678325382327
987,0.975,460.254,449.571,-0.098496,454.875,4.04098,4.03765,0.182564,0.192972,-0.373776,0.985587,0.00540653,0.00515573,0.691826,0.20029096711732963,1.6793842214329695,0.0054211716582825975,0.21284883327634652,0.005169043646604976,-0.3118689640815173
988,0.976,460.241,449.602,-0.0944628,454.873,4.0519,4.04468,0.182697,0.193115,-0.374052,0.986323,0.00541652,0.00516519,0.692344,0.20045061643240025,1.6813569741038745,0.005431215865958183,0.21302228306086923,0.005178552590735075,-0.312058862040307
989,0.977,460.219,449.602,-0.0993375,454.875,4.05573,4.0525,0.182831,0.193258,-0.374329,0.987058,0.00542642,0.00517465,0.692862,0.2006114875931293,1.683328495925355,0.005441169684266667,0.21319575765048437,0.005188061624820328,-0.3122493953454408
990,0.978,460.206,449.635,-0.0948486,454.872,4.06703,4.05955,0.182964,0.193402,-0.374605,0.987792,0.00543645,0.00518414,0.693379,0.20077117954025825,1.6852987820479122,0.0054512543097728905,0.21337047041860346,0.005197600904788935,-0.3124391883196902
991,0.979,460.184,449.634,-0.100499,454.875,4.07055,4.06745,0.183098,0.193544,-0.374882,0.988526,0.00544638,0.00519364,0.693896,0.20093209365932196,1.6872705148913654,0.005461238490299447,0.21354278125918302,0.005207150327357191,-0.3126296162890343
992,0.98,460.171,449.669,-0.0956882,454.872,4.08225,4.07448,0.183231,0.193687,-0.375158,0.98926,0.00545645,0.00520316,0.694412,0.20109182824989347,1.6892436955179972,0.00547136353595068,0.21371633028536263,0.00521671994497952,-0.31281930433678373
993,0.981,460.149,449.666,-0.101359,454.874,4.08543,4.0825,0.183364,0.19383,-0.375434,0.989994,0.00546641,0.00521269,0.694929,0.20125158408657828,1.6912183249908703,0.005481378080603783,0.21388990413082776,0.005226299705968218,-0.3130089400378563
994,0.982,460.137,449.703,-0.0961454,454.871,4.09751,4.08948,0.183497,0.193973,-0.37571,0.990727,0.00547651,0.00522224,0.695445,0.20141136117220237,1.6931917111807708,0.005491533493807266,0.21406350279912734,0.0052358996629700005,-0.3131985234066974
995,0.983,460.113,449.698,-0.102543,454.874,4.10042,4.0976,0.18363,0.194116,-0.375986,0.991459,0.0054865,0.0052318,0.695961,0.20157115950959215,1.69516384922782,0.00550157840440102,0.21423712629381164,0.0052455097641070925,-0.313388054457749
996,0.984,460.101,449.736,-0.0970997,454.871,4.11287,4.10461,0.183763,0.194259,-0.376261,0.992192,0.00549664,0.00524139,0.696477,0.20173097910157423,1.6971401285471885,0.005511774242098921,0.21441077461843094,0.005255150114771068,-0.31357684678263864
997,0.985,460.076,449.73,-0.103801,454.873,4.11547,4.11276,0.183896,0.194401,-0.376537,0.992924,0.00550665,0.00525098,0.696992,0.2018908199509757,1.699115157893837,0.005521839465335354,0.2145832331926958,0.005264790557886645,-0.31376627343084673
998,0.986,460.066,449.771,-0.0978303,454.87,4.12834,4.11977,0.184029,0.194544,-0.376812,0.993655,0.00551684,0.0052606,0.697507,0.20205068206062382,1.7010889324009475,0.005532085785084462,0.21475693101414062,0.005274461251687734,-0.31395496175981885
999,0.987,460.041,449.763,-0.105524,454.873,4.13055,4.12801,0.184162,0.194686,-0.377087,0.994386,0.00552688,0.00527022,0.698022,0.20221056543334637,1.703064150264705,0.00554218137790552,0.2149294387461036,0.005284132038521294,-0.31414359820663473
