,Time,S11,S22,S33,S12,S13,S23,LE11,LE22,LE33,LE12,LE13,LE23,SDV_EPBAR,E11,E12,E13,E22,E23,E33
0,1e-05,0.519362,1.55809,-3.33067e-16,0.899562,-1.04232e-17,1.57865e-17,2.50015e-07,6.74997e-06,-3.00001e-06,1.12583e-05,-3.13839e-22,3.03453e-22,0.0,2.500150313444749e-07,1.1258363374899716e-05,0.0,6.749992781163172e-06,0.0,-3.0000055000201087e-06
1,2e-05,1.03872,3.11616,3.33067e-16,1.79912,1.38231e-17,4.08622e-17,5.00016e-07,1.34999e-05,-5.99997e-06,2.25164e-05,9.45311e-22,-5.67534e-23,0.0,5.000161249490986e-07,2.2516653495952e-05,0.0,1.3499991124099608e-05,0.0,-5.999952000235176e-06
2,3.5e-05,1.81775,5.45324,-3.33067e-16,3.14843,-4.93229e-17,-8.29866e-19,8.74997e-07,2.36246e-05,-1.04998e-05,3.94035e-05,-7.33558e-22,4.23537e-22,0.0,8.749973827715252e-07,3.940427632809218e-05,0.0,2.3624879063044446e-05,0.0,-1.0499744877323636e-05
3,5.75e-05,2.98626,8.95879,-4.55191e-15,5.17236,-2.16769e-17,8.08943e-17,1.43746e-06,3.88114e-05,-1.72495e-05,6.47335e-05,1.27054e-21,2.20065e-21,0.0,1.4374610330936122e-06,6.473559525832506e-05,0.0,3.8812153172029795e-05,0.0,-1.7249351228265652e-05
4,9.125e-05,4.73899,14.217,-2.80886e-14,8.20817,-5.55167e-17,2.22821e-17,2.2812e-06,6.1591e-05,-2.73738e-05,0.000102728,8.47063e-22,1.46716e-21,0.0,2.2812026019281006e-06,0.00010273327670162757,0.0,6.159289676466173e-05,0.0,-2.737342534098186e-05
5,0.00014188,7.36797,22.1039,-1.5421e-13,12.7617,5.38527e-17,7.63556e-17,3.54667e-06,9.57588e-05,-4.25595e-05,0.000159716,2.93423e-21,-1.69433e-21,0.0,3.546676289545303e-06,0.00015972875527947572,0.0,9.576338502026438e-05,0.0,-4.255859435731146e-05
6,0.00021781,11.3112,33.9336,-7.98139e-13,19.5916,-1.40111e-16,-1.24239e-16,5.44479e-06,0.000147007,-6.53367e-05,0.000245194,2.48076e-21,-9.25661e-21,0.0,5.444804822785088e-06,0.00024522406250571116,0.0,0.00014701780605852477,0.0,-6.533456560431361e-05
7,0.00033172,17.2255,51.6764,-4.03999e-12,29.8354,2.97362e-16,9.20467e-17,8.29165e-06,0.000223873,-9.94992e-05,0.000373398,-5.86963e-21,3.38741e-21,0.0,8.29168437577188e-06,0.00037346772171087395,0.0,0.00022389806143019442,0.0,-9.949425011879232e-05
8,0.00050258,26.0956,78.2868,-2.045e-11,45.1989,2.29672e-16,-2.51963e-17,1.25613e-05,0.000339155,-0.000150736,0.000565677,-3.38902e-21,-5.86996e-21,0.0,1.256137889349418e-05,0.0005658370254069123,0.0,0.0003392125195595952,0.0,-0.00015072463989995732
9,0.00075887,39.398,118.194,-1.03431e-10,68.2393,2.29656e-16,-2.52231e-17,1.89646e-05,0.000512041,-0.000227574,0.000854034,-1.5129e-20,9.0706e-22,0.0,1.896477982921141e-05,0.00085439879087712,0.0,0.0005121721153706904,0.0,-0.0002275481070015406
10,0.0011433,59.3451,178.035,-5.23077e-10,102.789,-4.09514e-17,-4.93929e-16,2.85663e-05,0.000771287,-0.000342794,0.00128643,-6.05165e-20,3.63988e-21,0.0,2.8566708020649756e-05,0.0012872578060059148,0.0,0.0007715845183038361,0.0,-0.00034273525284966855
11,0.00172,89.2515,267.755,-2.64424e-09,154.588,5.0025e-16,4.43459e-16,4.2962e-05,0.00115997,-0.000515542,0.00193471,-8.87009e-24,-1.53634e-23,0.0,4.2962922879974386e-05,0.001936582758945704,0.0,0.0011606430254049727,0.0,-0.0005154091310572984
12,0.0025849,122.076,366.964,-0.0630843,211.754,-0.0283201,-0.0307674,3.73701e-05,0.00173193,-0.000827808,0.00294057,-4.07644e-07,-4.22553e-07,0.000231271,3.737079827081935e-05,0.002944897716907535,-4.0764391695535807e-07,0.001733430656981616,-4.2255291077264445e-07,-0.0008274654614828236
13,0.0030849,123.723,371.912,0.153013,214.254,0.0410029,-0.0250586,-2.21814e-06,0.00204634,-0.00108953,0.00357028,5.60563e-07,-3.28968e-07,0.000709374,-2.2181375399776826e-06,0.0035766610414140754,5.605631572258574e-07,0.002048435182606001,-3.289679458839956e-07,-0.0010889366776899445
14,0.0035849,124.893,375.844,-0.168269,216.937,-0.0919805,-0.0751465,-4.1968e-05,0.00235799,-0.00135222,0.00420431,-1.46517e-06,-1.10148e-06,0.00118884,-4.1967119355779126e-05,0.004213160510371017,-1.4651689266287349e-06,0.0023607722448253377,-1.1014793933616929e-06,-0.001351306162485355
15,0.0040849,126.358,380.37,-0.120531,219.431,-0.0837018,-0.0892166,-8.17547e-05,0.00267119,-0.00161402,0.00483508,-1.68954e-06,-1.46699e-06,0.00166764,-8.175135817556356e-05,0.004846787861179536,-1.6895385727133672e-06,0.0026747608067345663,-1.4669889240037648e-06,-0.0016127181702071391
16,0.0048349,128.654,387.244,0.011189,223.04,0.0158374,-0.152257,-0.000137911,0.00314181,-0.0020106,0.00577673,-4.97069e-07,-2.65114e-06,0.00238599,-0.00013790149071524205,0.005793447480033409,-4.970688765038034e-07,0.003146750657885944,-2.6511364856762754e-06,-0.002008580097785262
17,0.0058349,131.143,395.287,-0.227039,227.977,-0.0781907,-0.228372,-0.000209057,0.00376654,-0.00254441,0.00703289,-2.5107e-06,-4.27208e-06,0.0033456,-0.0002090351491080833,0.007057678849218485,-2.510696848201377e-06,0.003773642326051263,-4.272070874722367e-06,-0.0025411757325582984
18,0.0068349,134.139,404.381,0.280378,232.484,-0.0202177,-0.158201,-0.00028125,0.00439455,-0.00307602,0.00828169,-2.20472e-06,-3.63008e-06,0.0043041,-0.0002812104529263948,0.008316078059492638,-2.2047175696204846e-06,0.004404220195047381,-3.630073411309276e-06,-0.003071293897583538
19,0.0078349,136.228,411.507,-0.297512,237.215,-0.202899,-0.24967,-0.000353818,0.00501721,-0.00360953,0.00953769,-6.10022e-06,-5.5908e-06,0.00526538,-0.000353755413793011,0.009583318714073252,-6.100201393688387e-06,0.005029817273720205,-5.5907843714564365e-06,-0.003603023477439904
20,0.0088349,139.194,420.233,0.270833,241.448,-0.0578284,-0.229128,-0.000426782,0.00564412,-0.00413992,0.0107843,-4.92228e-06,-6.0168e-06,0.00622467,-0.0004266909415167053,0.010842660165750528,-4.92226788562089e-06,0.00566007805421842,-6.016781899043089e-06,-0.004131362344606093
21,0.0098349,141.164,426.939,-0.279644,245.921,-0.234981,-0.312872,-0.000500384,0.00626566,-0.00467225,0.0120383,-8.88439e-06,-8.25339e-06,0.00718677,-0.0005002588288050003,0.012111051977050202,-8.884350533922003e-06,0.006285330308646753,-8.253355940901486e-06,-0.004661352019271869
22,0.010835,143.535,434.344,-0.261701,250.086,-0.245642,-0.340703,-0.00057428,0.00688877,-0.00520265,0.0132875,-1.07914e-05,-9.94341e-06,0.00814804,-0.0005741151328022553,0.01337617113208589,-1.0791341773064289e-05,0.006912552154623608,-9.94336056447942e-06,-0.0051891396565062475
23,0.011835,146.268,442.366,0.279718,253.969,-0.110192,-0.304998,-0.000648691,0.0075137,-0.00573146,0.0145316,-1.00089e-05,-1.06183e-05,0.00910854,-0.0006484806454807313,0.014637696996040672,-1.0008849911091744e-05,0.007541998675363537,-1.0618243626026036e-05,-0.005715066517616885
24,0.012835,148.496,449.336,0.271318,257.898,-0.11643,-0.345362,-0.000723671,0.00813611,-0.00626123,0.0157781,-1.10229e-05,-1.24657e-05,0.0100705,-0.0007234092132948344,0.015903231465842937,-1.1022839248031602e-05,0.008169298089222066,-1.2465622303503565e-05,-0.006241669345321665
25,0.013835,150.313,455.396,-0.136053,261.878,-0.267189,-0.394609,-0.000798994,0.00875568,-0.00679113,0.0170275,-1.47191e-05,-1.46974e-05,0.0110337,-0.000798674889288864,0.017173294206216383,-1.4718991674600446e-05,0.008794123082662253,-1.4697291993770456e-05,-0.006768122388682962
26,0.014835,152.786,462.714,0.301318,265.429,-0.13317,-0.390802,-0.000874611,0.00937867,-0.00731885,0.0182688,-1.40391e-05,-1.62211e-05,0.0119952,-0.0008742286392797727,0.01843669538403203,-1.4039001452248456e-05,0.009422787538903465,-1.6220968438673822e-05,-0.007292132437683563
27,0.015835,154.335,468.11,-0.293507,269.245,-0.329124,-0.468233,-0.000950625,0.00999627,-0.00784824,0.0195175,-1.86011e-05,-1.91792e-05,0.0129592,-0.0009501732991986644,0.01970921161571959,-1.8600927000567147e-05,0.010046399604071166,-1.917901608028405e-05,-0.007817522975173907
28,0.016835,156.298,474.268,-0.3179,272.758,-0.346574,-0.492283,-0.00102678,0.0106155,-0.00837577,0.0207612,-2.09923e-05,-2.1578e-05,0.0139222,-0.001026253041787939,0.02097821292709834,-2.0992079663217922e-05,0.010672044325096497,-2.157776719657889e-05,-0.008340790965362443
29,0.017835,158.763,481.343,0.335978,275.948,-0.163554,-0.439334,-0.00110332,0.0112373,-0.00890145,0.0219985,-1.98183e-05,-2.27084e-05,0.0148839,-0.0011027115662750608,0.022242251105911492,-1.981810361884051e-05,0.011300675623474365,-2.2708142166205647e-05,-0.008861949385087331
30,0.018835,160.581,487.091,0.26237,279.269,-0.185792,-0.478527,-0.00118033,0.0118558,-0.00942852,0.0232395,-2.13238e-05,-2.51846e-05,0.0158472,-0.0011796336845332211,0.02351164123319438,-2.1323572649389888e-05,0.011926358563850936,-2.5184282870571728e-05,-0.009384210871153709
31,0.019835,162.112,492.163,-0.0753711,282.621,-0.318524,-0.5128,-0.00125752,0.0124719,-0.00995544,0.0244825,-2.49181e-05,-2.77682e-05,0.0168113,-0.0012567296530519023,0.024784657218776207,-2.491778954671897e-05,0.012549998485913427,-2.7767814467116736e-05,-0.009906048647307153
32,0.020835,163.713,497.372,-0.283776,285.793,-0.377092,-0.563537,-0.00133488,0.0130882,-0.0104817,0.0257231,-2.78748e-05,-3.07984e-05,0.0177751,-0.001333989443998651,0.026056794007811135,-2.7874411501427332e-05,0.0131742253857412,-3.079792573412732e-05,-0.010426958411137721
33,0.021835,165.424,502.719,-0.292154,288.822,-0.384965,-0.582943,-0.00141241,0.0137045,-0.0110069,0.0269616,-3.02105e-05,-3.35139e-05,0.0187385,-0.001411413018433394,0.027328352597311367,-3.0210043667433517e-05,0.013798837115180707,-3.351333841550286e-05,-0.01094654571701037
34,0.022835,167.56,508.842,0.287159,291.58,-0.224638,-0.530571,-0.00149023,0.0143229,-0.0115304,0.0281944,-2.95666e-05,-3.50448e-05,0.0197007,-0.0014891201586483271,0.028595623975971707,-2.9566162912386673e-05,0.014425964203762964,-3.504418593813785e-05,-0.011464179697811439
35,0.023835,169.241,514.033,0.354533,294.4,-0.199249,-0.552127,-0.00156846,0.0149389,-0.012055,0.0294293,-3.04668e-05,-3.75925e-05,0.0206639,-0.0015672306094481891,0.029866621327814258,-3.0466335891765617e-05,0.015051043102247474,-3.7591793410785e-05,-0.011982629587845794
36,0.024835,170.322,517.914,-0.230067,297.402,-0.410674,-0.607986,-0.00164678,0.0155509,-0.0125802,0.0306692,-3.54109e-05,-4.08394e-05,0.0216286,-0.0016454248018222817,0.031144344912642286,-3.541027304143629e-05,0.01567244447004934,-4.0838566083056804e-05,-0.012501400069733104
37,0.025835,172.31,523.638,0.319633,299.881,-0.223616,-0.584367,-0.00172527,0.0161677,-0.0131026,0.0318984,-3.43814e-05,-4.2944e-05,0.0225907,-0.0017237825772384863,0.03241260685551084,-3.4380808966449905e-05,0.016299104475877124,-4.29430779196327e-05,-0.013017134616744253
38,0.026835,173.304,527.26,-0.265568,302.715,-0.42644,-0.649043,-0.00180397,0.0167785,-0.013627,0.0331361,-3.92513e-05,-4.6463e-05,0.0235553,-0.0018023438241240308,0.033691215042467304,-3.92505296777923e-05,0.016920049586222508,-4.6461920611529095e-05,-0.0135345727472157
39,0.027835,175.221,532.729,0.308673,305.043,-0.240687,-0.610822,-0.00188279,0.0173941,-0.0141485,0.0343633,-3.82956e-05,-4.84796e-05,0.0245172,-0.0018810186627676861,0.0349605395998136,-3.8294866732901944e-05,0.017546258296012862,-4.847842488320264e-05,-0.014048880350164494
40,0.028835,176.15,536.124,-0.253324,307.72,-0.436331,-0.672384,-0.00196182,0.0180038,-0.0146719,0.0355987,-4.308e-05,-5.20348e-05,0.0254815,-0.001959896888948598,0.03623991996096687,-4.3079072070129065e-05,0.01816684541645519,-5.203344621329542e-05,-0.014564792140296046
41,0.029835,177.955,541.279,0.285749,309.914,-0.260218,-0.636459,-0.00204096,0.018618,-0.0151926,0.0368241,-4.23142e-05,-5.41701e-05,0.0264431,-0.002038878657359078,0.03751050668838163,-4.231330476689443e-05,0.018792395579699805,-5.416863282659001e-05,-0.015077774686432344
42,0.030835,179.308,545.462,0.324353,312.222,-0.250352,-0.645591,-0.00212037,0.0192296,-0.0157141,0.038052,-4.35707e-05,-5.68998e-05,0.0274057,-0.0021181236035425766,0.03878524830699637,-4.356975081087899e-05,0.019415679589658064,-5.6898181237108325e-05,-0.015591277719379737
43,0.031835,180.163,548.55,-0.177575,314.687,-0.441246,-0.686913,-0.00219981,0.0198376,-0.016236,0.0392841,-4.82568e-05,-6.022e-05,0.0283694,-0.0021973921912135097,0.040065924409935505,-4.8255635659355534e-05,0.020035672781679947,-6.021818681223312e-05,-0.016104906588426116
44,0.032835,181.26,552.151,-0.357705,316.928,-0.493183,-0.725219,-0.0022793,0.0204466,-0.0167568,0.0405123,-5.1433e-05,-6.36586e-05,0.0293321,-0.002276704368204041,0.04134411815639871,-5.143167734589227e-05,0.020657063700733502,-6.365657383433643e-05,-0.016617185744003837
45,0.033835,183.103,557.2,0.418749,318.789,-0.250875,-0.651258,-0.00235894,0.0210593,-0.0172752,0.0417319,-4.97409e-05,-6.53263e-05,0.0302925,-0.0023561598875073697,0.042614916218042254,-4.9739662941972185e-05,0.02128261190078473,-6.532416628368676e-05,-0.017126839281303652
46,0.034835,183.679,559.645,-0.302384,321.109,-0.489044,-0.73891,-0.0024388,0.0216648,-0.0177964,0.042962,-5.51937e-05,-6.94174e-05,0.0312559,-0.0024358285433669913,0.04389822596432191,-5.5192176855789477e-05,0.021901185776632692,-6.941499066803747e-05,-0.017638979297388557
47,0.035835,185.325,564.251,0.310817,322.883,-0.282038,-0.694523,-0.0025187,0.0222758,-0.0183143,0.0441805,-5.40701e-05,-7.16222e-05,0.0322161,-0.002515530736521332,0.04517099122741852,-5.4068638238535804e-05,0.0225257581885836,-7.161963519142223e-05,-0.01814761234811313
48,0.036835,186.459,567.76,0.344795,324.815,-0.272115,-0.701802,-0.00259883,0.0228838,-0.0188332,0.0454021,-5.53594e-05,-7.44973e-05,0.0331773,-0.002595455964796378,0.04644855228572031,-5.5357867696725904e-05,0.023147642883352137,-7.44945251450746e-05,-0.018656963389509063
49,0.037835,187.087,570.148,-0.181503,326.926,-0.474564,-0.742061,-0.00267894,0.0234881,-0.0193525,0.046628,-6.02418e-05,-7.7963e-05,0.0341395,-0.002675354842426758,0.047732180204944186,-6.023998549919973e-05,0.02376611785733873,-7.795996096426894e-05,-0.019166442530712535
50,0.038835,187.99,573.139,-0.349356,328.808,-0.522538,-0.776862,-0.00275906,0.0240935,-0.0198707,0.0478498,-6.33941e-05,-8.14952e-05,0.0351005,-0.002755257292061941,0.049013081726114294,-6.339209063654927e-05,0.024386093512784868,-8.14918793563546e-05,-0.019674578810712107
51,0.039835,189.612,577.537,0.395032,330.328,-0.283769,-0.705259,-0.0028393,0.0247025,-0.0203865,0.0490633,-6.18362e-05,-8.33537e-05,0.0360591,-0.002835272999943683,0.050286831792333064,-6.183428818162806e-05,0.025010134644971815,-8.335022617689258e-05,-0.0201801002777674
52,0.040835,190.048,579.484,-0.263318,332.293,-0.504771,-0.783957,-0.00291972,0.0253047,-0.0209049,0.0502866,-6.70444e-05,-8.74428e-05,0.0370206,-0.00291546176285562,0.05157243385184307,-6.704215257447022e-05,0.025627581642686525,-8.743897698981762e-05,-0.020687907278836404
53,0.041835,191.434,583.369,0.260057,333.771,-0.323716,-0.74642,-0.00300015,0.0259118,-0.0214204,0.0514993,-6.63731e-05,-8.98826e-05,0.037979,-0.002995654047290186,0.05284844929796084,-6.63708973545063e-05,0.02625042919374576,-8.987856068010114e-05,-0.021192612563670332
54,0.042835,192.369,586.279,0.270579,335.393,-0.320619,-0.753959,-0.00308075,0.026516,-0.0219367,0.0527148,-6.79088e-05,-9.29119e-05,0.0389382,-0.0030760093592113735,0.05412896466363892,-6.790649424959216e-05,0.026870677061076487,-9.29075838230764e-05,-0.021697840382019384
55,0.043835,192.939,588.362,-0.114129,337.146,-0.476121,-0.779374,-0.0031613,0.0271174,-0.0224531,0.0539332,-7.21212e-05,-9.62722e-05,0.0398979,-0.003156308352572079,0.0554140981385165,-7.211859932876319e-05,0.027488422823792824,-9.626756598046793e-05,-0.022202905198286715
56,0.044835,194.235,591.981,0.390078,338.479,-0.293017,-0.742188,-0.00324197,0.0277228,-0.0229674,0.0551426,-7.12571e-05,-9.86626e-05,0.0408552,-0.003236720489710132,0.056691288109907534,-7.125456127310414e-05,0.028110652644932843,-9.865773300576919e-05,-0.02270565695044857
57,0.045835,195.014,594.505,0.312019,339.99,-0.316152,-0.769609,-0.00332281,0.028325,-0.0234826,0.0563555,-7.30739e-05,-0.000101973,0.0418134,-0.003317295576336865,0.05797372655082955,-7.307123016764283e-05,0.02872996733689348,-0.00010196780093041369,-0.023209029316132
58,0.046835,195.495,596.313,-0.0871048,341.619,-0.48062,-0.794028,-0.00340354,0.0289245,-0.0239978,0.0575709,-7.73807e-05,-0.000105347,0.0427719,-0.003397754523295937,0.05926036955264613,-7.737770619087314e-05,0.02934687585216289,-0.00010534145119966976,-0.023712142411166592
59,0.047835,196.689,599.657,0.382212,342.827,-0.303567,-0.761731,-0.00348437,0.029528,-0.0245108,0.0587772,-7.66144e-05,-0.000107848,0.0437279,-0.0034783066272405794,0.06053892634292346,-7.66114651917782e-05,0.02996827417982506,-0.00010784218461346029,-0.0242128496397247
60,0.048835,197.386,601.934,0.292485,344.217,-0.331783,-0.788885,-0.00356535,0.0301284,-0.0250247,0.059987,-7.85382e-05,-0.000111203,0.0446847,-0.0035590016865829632,0.06182274275997934,-7.853511595634632e-05,0.030586852810365217,-0.00011119681717552954,-0.02471417782898344
61,0.049835,197.83,603.591,-0.0665009,345.709,-0.483126,-0.808742,-0.00364621,0.0307264,-0.0255385,0.0611989,-8.26568e-05,-0.000114548,0.0456418,-0.0036395706482594825,0.06311034580740471,-8.265338402080324e-05,0.031203328056073287,-0.00011454143962830177,-0.025215150973393108
62,0.050835,198.906,606.622,0.342289,346.819,-0.325902,-0.78191,-0.00372716,0.0313279,-0.0260503,0.0624025,-8.2213e-05,-0.000117171,0.0465965,-0.003720222760577263,0.0643906757676258,-8.220962060390136e-05,0.03182378344114922,-0.00011716413574647255,-0.025713918213700948
63,0.051835,199.534,608.687,0.2493,348.095,-0.355475,-0.80813,-0.00380824,0.0319265,-0.0265629,0.0636091,-8.42326e-05,-0.000120563,0.0475519,-0.0038009978502494546,0.06567574468317439,-8.422905253413493e-05,0.032441618057369004,-0.00012055573257352403,-0.02621320927999149
64,0.052835,199.974,610.273,-0.036592,349.446,-0.480905,-0.821169,-0.00388919,0.032523,-0.0270752,0.0648172,-8.79851e-05,-0.000123841,0.0485073,-0.003881636895564089,0.0669639655434564,-8.798122942466069e-05,0.03305765319675458,-0.0001238333320199292,-0.026711952488896462
65,0.053835,200.91,612.946,0.277812,350.483,-0.356433,-0.802734,-0.00397023,0.0331224,-0.0275859,0.0660184,-8.80607e-05,-0.000126626,0.0494607,-0.003962359056803866,0.06824637271841971,-8.805682277035487e-05,0.03367705356982764,-0.00012661798326640827,-0.027208883792551375
66,0.054835,201.074,613.942,-0.294381,351.858,-0.573106,-0.856704,-0.00405123,0.0337165,-0.0280979,0.0672265,-9.33336e-05,-0.000130548,0.0504157,-0.004043034838307036,0.06953770103110979,-9.332924455507374e-05,0.03429134356412811,-0.00013053947898067353,-0.027706825360130583
67,0.055835,201.646,615.812,-0.362415,352.981,-0.588738,-0.876166,-0.00413217,0.0343124,-0.0286083,0.0684294,-9.61406e-05,-0.000134098,0.051369,-0.004123644332757026,0.07082502203567209,-9.61359786406657e-05,0.03490786144901814,-0.00013408900926503708,-0.0282029571728577
68,0.056835,202.823,618.899,0.326183,353.804,-0.355042,-0.809711,-0.0042132,0.0349114,-0.0291168,0.069625,-9.4818e-05,-0.000136278,0.05232,-0.004204336924552132,0.0721060660875521,-9.481350491546969e-05,0.03552795695809019,-0.00013626871457517176,-0.02869699035055462
69,0.057835,203.406,620.764,0.313016,354.836,-0.348572,-0.828095,-0.00429443,0.035507,-0.0296265,0.0708244,-9.63125e-05,-0.000139594,0.053272,-0.004285222121067078,0.07339272155625798,-9.630786210002018e-05,0.036144901116987205,-0.00013958425721094514,-0.029191937346615626
70,0.058835,203.612,621.74,-0.123327,356.047,-0.526682,-0.854365,-0.00437549,0.0360995,-0.0301364,0.0720272,-0.000100864,-0.000143118,0.0542245,-0.00436593148976705,0.07468457508671222,-0.00010085891339772779,0.03675899887939571,-0.00014310775910764129,-0.02968682619512808
71,0.059835,204.066,623.301,-0.252016,357.062,-0.559387,-0.88192,-0.00445656,0.036693,-0.0306453,0.073226,-0.000103721,-0.000146754,0.0551756,-0.004446644271964284,0.07597367949012224,-0.00010371562116306965,0.037374497976520704,-0.00014674323215846385,-0.03018049294511871
72,0.060835,205.049,625.912,0.28692,357.823,-0.379093,-0.827056,-0.00453765,0.037289,-0.0311523,0.0744185,-0.000103142,-0.000149116,0.0561247,-0.004527370420494337,0.07725754345465918,-0.0001031366810467782,0.037992957459933585,-0.0001491048827618746,-0.03067206681069079
73,0.061835,205.538,627.514,0.239316,358.751,-0.383168,-0.848948,-0.0046189,0.0378822,-0.0316603,0.0756139,-0.000104888,-0.000152526,0.0570745,-0.004608249285899313,0.07854606711925971,-0.00010488249944606842,0.03860887754613529,-0.00015251436850105549,-0.031164360347605613
74,0.062835,205.795,628.535,-0.058609,359.794,-0.511515,-0.862759,-0.0047,0.038473,-0.0321681,0.0768113,-0.000108718,-0.00015589,0.0580243,-0.004688972283520387,0.0798382916804774,-0.00010871209041241059,0.03922266896712179,-0.00015587784978532415,-0.03165621019417597
75,0.063835,206.587,630.739,0.289226,360.514,-0.372372,-0.840273,-0.00478117,0.0390669,-0.0326744,0.0780015,-0.00010861,-0.000158688,0.058972,-0.004769758400891222,0.0811242803552874,-0.0001086041021475248,0.039840046622369396,-0.00015867540972536176,-0.032146358563424626
76,0.064835,206.561,631.162,-0.311402,361.61,-0.601651,-0.895131,-0.00486227,0.0396552,-0.033182,0.0791992,-0.000114064,-0.000162685,0.0599213,-0.004850468300654276,0.08241991864397691,-0.0001140574949493045,0.04045196449979249,-0.0001626717675129452,-0.03263751640541168
77,0.065835,206.988,632.564,-0.359464,362.442,-0.610281,-0.911076,-0.0049433,0.0402455,-0.0336879,0.0803912,-0.000116777,-0.000166238,0.0608687,-0.004931102000289345,0.0837109324783829,-0.00011677018183153809,0.04106632460498205,-0.0001662241832293132,-0.033126781315868103
78,0.066835,207.989,635.135,0.305455,362.993,-0.379615,-0.846856,-0.0050244,0.0408388,-0.034192,0.0815761,-0.000115532,-0.000168511,0.0618138,-0.005011798815617086,0.0849957826214176,-0.00011552532643543945,0.041684172521830876,-0.00016849680281894042,-0.03361405927667793
79,0.067835,208.413,636.511,0.283317,363.762,-0.376193,-0.86441,-0.00510566,0.0414288,-0.0346973,0.0827649,-0.00011712,-0.000171879,0.0627599,-0.005092648271887379,0.08628639259437021,-0.00011711314172058174,0.0422989475244111,-0.00017186422965087544,-0.03410225074056461
80,0.068835,208.517,637.123,-0.0973989,364.693,-0.535806,-0.884391,-0.00518673,0.0420159,-0.0352026,0.0839566,-0.000121398,-0.000175361,0.0637062,-0.005173302141543212,0.08758169173912722,-0.0001213906315610247,0.04291106090480312,-0.00017534562515852947,-0.034590195583618644
81,0.069835,209.314,639.263,0.354544,365.229,-0.357485,-0.851769,-0.0052679,0.0426069,-0.035706,0.0851395,-0.000120704,-0.000178028,0.0646499,-0.005254048947454959,0.0888689533230489,-0.00012069671556524941,0.04352760351219276,-0.00017801215395596426,-0.03507606057668278
82,0.070835,209.622,640.348,0.243286,365.975,-0.39294,-0.876984,-0.00534912,0.0431947,-0.0362101,0.0863259,-0.000122832,-0.000181522,0.0655942,-0.0053348389326737244,0.0901615540684173,-0.00012282445645872553,0.04414116934687007,-0.00018150552587858915,-0.03556235615344805
83,0.071835,209.784,641.046,-0.021042,366.799,-0.512496,-0.885284,-0.00543018,0.0437807,-0.0367139,0.0875134,-0.000126493,-0.000184836,0.0665383,-0.005415463222883221,0.0914568898672854,-0.00012648500009782015,0.044753215384081724,-0.00018481891887900392,-0.036048117464869134
84,0.072835,210.392,642.748,0.244074,367.345,-0.401349,-0.870074,-0.0055113,0.0443691,-0.0372162,0.0886947,-0.000126805,-0.000187777,0.0674805,-0.005496140648185932,0.09274698973875006,-0.00012679696058581769,0.04536812906587784,-0.00018775937100257156,-0.036532188910745056
85,0.073835,210.354,643.029,-0.233966,368.199,-0.589102,-0.911655,-0.00559233,0.044953,-0.0377196,0.0898818,-0.000131618,-0.000191602,0.0684237,-0.0055767220311104815,0.09404495994806106,-0.0001316093387310202,0.04597869775462082,-0.0001915836455090858,-0.03701707655038877
86,0.074835,210.674,644.097,-0.280482,368.836,-0.596214,-0.927674,-0.00567329,0.0455385,-0.0382215,0.091064,-0.000134186,-0.000195151,0.0693653,-0.005657227280798316,0.09533910471796081,-0.00013417699746143263,0.04659129760326142,-0.00019513195928222427,-0.037500276410520006
87,0.075835,211.459,646.107,0.251715,369.252,-0.411899,-0.874181,-0.00575429,0.0461262,-0.0387218,0.0922405,-0.000133606,-0.000197604,0.0703049,-0.0057377657835351314,0.09662852953007706,-0.0001335970751158433,0.04720656008603452,-0.0001975844776155311,-0.03798169458543377
88,0.076835,211.765,647.132,0.211818,369.846,-0.414443,-0.892384,-0.00583541,0.0467111,-0.0392231,0.0934199,-0.000135379,-0.000201027,0.071245,-0.005818417064714643,0.0979226562143014,-0.0001353698366767242,0.04781925036683443,-0.00020100679542656152,-0.03846383350372129
89,0.077835,211.873,647.655,-0.0443158,370.552,-0.528348,-0.901276,-0.00591636,0.0472938,-0.0397242,0.094601,-0.000138996,-0.000204371,0.0721851,-0.005898892806553646,0.0992201787646616,-0.0001389863405035774,0.04842999256648217,-0.00020435011766983813,-0.03894553857546712
90,0.078835,212.44,649.213,0.248037,370.979,-0.407361,-0.882745,-0.00599737,0.0478791,-0.0402239,0.0957756,-0.00013918,-0.000207279,0.0731231,-0.005979421675381458,0.10051208137250511,-0.0001391703149131729,0.049043818259696836,-0.00020725751919226099,-0.039425657522131674
91,0.079835,212.33,649.277,-0.247581,371.734,-0.601375,-0.925803,-0.00607827,0.0484597,-0.0407245,0.0969565,-0.000144083,-0.000211138,0.0740624,-0.0060598346874177755,0.10181244373724052,-0.00014407262054305647,0.049653069949229245,-0.00021111571194110113,-0.03990640069791973
92,0.080835,212.6,650.181,-0.283649,372.266,-0.605118,-0.939993,-0.00615911,0.049042,-0.0412238,0.0981323,-0.000146607,-0.000214673,0.0749998,-0.0061401815627172285,0.10310871673814215,-0.0001465962537189336,0.05026446092106651,-0.00021464995940034814,-0.040385655776064455
93,0.081835,213.325,652.014,0.245153,372.581,-0.420164,-0.886962,-0.00623999,0.0496264,-0.0417215,0.0993024,-0.000146024,-0.000217142,0.0759352,-0.006220561694216031,0.10440021969404834,-0.00014601333901465008,0.05087841485189415,-0.00021711842638216794,-0.040863137004124805
94,0.082835,213.575,652.867,0.204551,373.08,-0.423148,-0.904558,-0.00632096,0.050208,-0.0422201,0.100475,-0.00014781,-0.000220568,0.0768713,-0.006301024757744633,0.10569599895857062,-0.0001477990766401982,0.05148978350674338,-0.00022054367666701769,-0.04134124344217471
95,0.083835,213.641,653.245,-0.0394138,373.687,-0.532805,-0.912093,-0.00640176,0.0507876,-0.0427184,0.10165,-0.00015136,-0.000223899,0.0778071,-0.006381312391280147,0.10699595533215378,-0.00015134854565312938,0.05209940363611132,-0.00022387393648948262,-0.0418188241014642
96,0.084835,214.142,654.612,0.235554,374.031,-0.417614,-0.894834,-0.00648262,0.0513696,-0.0432154,0.102819,-0.000151631,-0.000226834,0.078741,-0.006461653150139468,0.10829079028751254,-0.00015161950460096385,0.05271190370925982,-0.00022680827511334378,-0.04229492182580119
97,0.085835,214.007,654.574,-0.228701,374.686,-0.600906,-0.934496,-0.00656337,0.051947,-0.0437134,0.103993,-0.000156364,-0.000230648,0.0796759,-0.0065418781325203845,0.1095926877395832,-0.0001563517757868782,0.053319915078451574,-0.00023062140279495047,-0.042771740217098175
98,0.086835,214.231,655.333,-0.26192,375.131,-0.603464,-0.948234,-0.00664406,0.0525261,-0.04421,0.105162,-0.000158833,-0.000234171,0.0806091,-0.006622037034319406,0.11089056005011466,-0.0001588203867068927,0.05393006929437516,-0.00023414358411144587,-0.043246981758664926
99,0.087835,214.878,656.953,0.228288,375.378,-0.431673,-0.898342,-0.00672477,0.0531072,-0.044705,0.106326,-0.000158435,-0.000236689,0.0815404,-0.006702209334313758,0.11218438952468346,-0.00015842244983821363,0.054542686036197496,-0.00023666099136843144,-0.04372045730782814
100,0.088835,214.663,656.74,-0.320448,376.007,-0.62967,-0.952405,-0.00680541,0.0536828,-0.0452019,0.107498,-0.00016345,-0.000240736,0.0824733,-0.0067823056386265845,0.11348863376704155,-0.00016343664277651548,0.05514985553289753,-0.00024070702541423294,-0.04419551457483917
101,0.089835,214.902,657.501,-0.304306,376.404,-0.62092,-0.956597,-0.00688597,0.0542604,-0.045697,0.108664,-0.000165829,-0.000244154,0.0834043,-0.006862316033222404,0.11478771873336768,-0.00016581525113135154,0.05575948613382198,-0.00024412419683772502,-0.04466861624958962
102,0.090835,215.563,659.136,0.227897,376.597,-0.43204,-0.903808,-0.00696658,0.0548401,-0.0461906,0.109825,-0.000165207,-0.000246638,0.0843333,-0.006942369635323131,0.11608273888855192,-0.00016519335407505498,0.05637168733730835,-0.000246607587348846,-0.04514005146082689
103,0.091835,215.308,658.814,-0.342906,377.203,-0.64127,-0.958341,-0.00704712,0.055414,-0.0466862,0.110993,-0.000170393,-0.000250698,0.0852641,-0.007022347276129937,0.1173870851174863,-0.0001703784839373057,0.05697811304588374,-0.00025066657788230806,-0.04561316280464811
104,0.092835,215.537,659.533,-0.316888,377.562,-0.628517,-0.961353,-0.00712757,0.0559901,-0.0471799,0.112156,-0.000172736,-0.000254102,0.0861928,-0.007102229115001468,0.1186873622620781,-0.00017272108199617442,0.057587213571369755,-0.00025406971882113716,-0.046084227294334146
105,0.093835,216.19,661.136,0.228616,377.714,-0.433437,-0.907825,-0.00720809,0.0565682,-0.0476722,0.113313,-0.000172031,-0.000256577,0.0871196,-0.007182174024887855,0.11998243259393182,-0.00017201620351603442,0.058198781496211716,-0.00025654408693653874,-0.0465537244530293
106,0.094835,216.364,661.741,0.198807,378.063,-0.43415,-0.922589,-0.00728868,0.0571435,-0.0481655,0.114474,-0.000173786,-0.00025997,0.088047,-0.007262181989519001,0.12128348731429539,-0.00017377090008785512,0.05880773840486575,-0.0002599362107277292,-0.04702394351169026
107,0.095835,216.351,661.872,-0.040968,378.526,-0.542488,-0.929481,-0.00736909,0.0577167,-0.0486585,0.115636,-0.000177303,-0.000263296,0.0889742,-0.007342004828144955,0.12258717602300284,-0.00017728728275201444,0.05941482097376194,-0.00026326134065013385,-0.04749364491662933
108,0.096835,216.768,662.984,0.228616,378.731,-0.428762,-0.912003,-0.00744956,0.0582924,-0.0491502,0.116792,-0.000177593,-0.000266229,0.0898993,-0.0074218808031635275,0.1238856371644268,-0.00017757723129663283,0.0600249016810781,-0.0002661935642045421,-0.04796187716709144
109,0.097835,216.572,662.735,-0.218202,379.245,-0.606626,-0.949457,-0.0075299,0.0588636,-0.0496428,0.117953,-0.000182222,-0.00027001,0.0908255,-0.007501621326040042,0.1251912261369208,-0.00018220539857971563,0.06063056086471397,-0.00026997355058056005,-0.0484307356570719
110,0.098835,216.728,663.275,-0.243725,379.556,-0.606447,-0.961898,-0.00761018,0.0594364,-0.0501341,0.11911,-0.000184611,-0.000273504,0.0917499,-0.007581295897699958,0.12649382579415258,-0.00018459396043790655,0.06123826407956234,-0.0002734666011906528,-0.04889812681260486
111,0.099835,217.271,664.607,0.20921,379.689,-0.446421,-0.915216,-0.00769047,0.060011,-0.0506239,0.120262,-0.000184375,-0.000276065,0.0926725,-0.007660973996732157,0.1277922944558163,-0.00018435800397420543,0.06184822681161295,-0.00027602689756422993,-0.04936386244212532
112,0.1008,217.03,664.267,-0.285958,380.175,-0.626418,-0.963479,-0.00777068,0.0605805,-0.0511153,0.121421,-0.000189096,-0.000280019,0.0935965,-0.0077405663179151984,0.12910016348879227,-0.00018907812247825895,0.06245312160422567,-0.00027997979833893627,-0.049830890281983176
113,0.1018,217.204,664.821,-0.267388,380.451,-0.61624,-0.967431,-0.00785082,0.0611519,-0.0516052,0.122574,-0.000191384,-0.000283412,0.0945186,-0.007820082802662442,0.1304027667837866,-0.00019136568725053316,0.06306038079533871,-0.0002833718426129561,-0.05029626412620325
114,0.1028,217.745,666.139,0.200924,380.551,-0.449509,-0.919906,-0.00793099,0.0617251,-0.0520936,0.123723,-0.000191065,-0.000285965,0.0954389,-0.007899622678225637,0.13170234602812148,-0.00019104674824532708,0.06366990167760678,-0.0002859241159066661,-0.05075998618066058
115,0.1038,217.493,665.756,-0.289693,381.013,-0.630223,-0.96653,-0.00801107,0.0622931,-0.0525837,0.124879,-0.000195797,-0.000289897,0.0963607,-0.00797906689545258,0.1330113503988839,-0.00019577783301838458,0.06427423779696984,-0.0002898549839248643,-0.05122509472727421
116,0.1048,217.657,666.278,-0.266165,381.263,-0.617834,-0.969991,-0.00809109,0.0628629,-0.0530722,0.126029,-0.000198051,-0.000293279,0.0972806,-0.008058445234549905,0.13431506294287554,-0.00019803138919538554,0.06488083406053002,-0.0002932359979180843,-0.05168845808278588
117,0.1058,218.181,667.546,0.196552,381.341,-0.452525,-0.923106,-0.00817114,0.0634345,-0.0535594,0.127175,-0.000197753,-0.000295838,0.0981986,-0.008137846977911756,0.13561573314668562,-0.0001977334481643167,0.06548969394085535,-0.00029579424425385525,-0.05215036293684894
118,0.1068,217.924,667.141,-0.283735,381.777,-0.629838,-0.968587,-0.00825109,0.064001,-0.0540482,0.128327,-0.000202429,-0.00029975,0.0991182,-0.008217143187137621,0.13692471630080427,-0.00020240851263242376,0.06609346485443712,-0.00029970507945720204,-0.05261355862519668
119,0.1078,218.077,667.626,-0.259337,382.004,-0.616988,-0.971971,-0.00833099,0.0645693,-0.0545353,0.129474,-0.000204662,-0.000303125,0.100036,-0.00829638347170547,0.13822951711061493,-0.00020464105816153655,0.06669949795850982,-0.00030307906225890413,-0.05307491818754684
120,0.1088,218.579,668.835,0.19124,382.066,-0.455893,-0.926107,-0.00841091,0.0651393,-0.0550212,0.130617,-0.00020442,-0.000305695,0.100952,-0.008375637257714952,0.13953125725144155,-0.00020439910765546188,0.06730768999060843,-0.00030564828004431277,-0.053534917318960096
121,0.1098,218.323,668.421,-0.273731,382.476,-0.627727,-0.970097,-0.00849074,0.0657044,-0.0555086,0.131766,-0.000209008,-0.000309581,0.101869,-0.008454795470950516,0.1408413311593535,-0.00020898615934961118,0.0679109960142843,-0.00030953308474690466,-0.053996111997985485
122,0.1108,218.464,668.87,-0.24985,382.683,-0.614973,-0.973564,-0.0085705,0.0662712,-0.0559945,0.13291,-0.000211223,-0.00031295,0.102784,-0.008533877962612069,0.14214720045701812,-0.00021120069399271912,0.06851645953897867,-0.0003129010362565854,-0.05445566363005505
123,0.1118,218.942,670.017,0.18522,382.731,-0.459485,-0.928955,-0.0086503,0.0668395,-0.0564791,0.13405,-0.000211057,-0.000315534,0.103698,-0.00861299380238667,0.14344999071489406,-0.000211034729038162,0.06912387002227582,-0.00031548422438287815,-0.054913763408918626
124,0.1128,218.691,669.601,-0.261628,383.115,-0.624682,-0.971247,-0.00872999,0.0674032,-0.0569652,0.135196,-0.000215539,-0.000319389,0.104613,-0.008691994285094484,0.1447611355467462,-0.00021551577313849712,0.06972670504089429,-0.0003193380007630031,-0.055373058187885515
125,0.1138,218.82,670.015,-0.239042,383.304,-0.612328,-0.974891,-0.00880963,0.0679684,-0.0574498,0.136337,-0.000217739,-0.000322752,0.105526,-0.008770938911052961,0.14606805345728535,-0.00021771529658431987,0.0703314854694328,-0.00032269992117628377,-0.05583071350504809
126,0.1148,219.274,671.1,0.178917,383.341,-0.463134,-0.931647,-0.00888928,0.0685352,-0.0579331,0.137474,-0.000217657,-0.000325351,0.106437,-0.008849887161612835,0.1473718739155354,-0.00021763331443369616,0.07093832131642985,-0.0003252980791028648,-0.05628692026996629
127,0.1158,219.029,670.688,-0.248619,383.7,-0.621169,-0.972174,-0.00896885,0.0690974,-0.0584179,0.138617,-0.000222026,-0.000329176,0.10735,-0.008928749838498229,0.14868406974447734,-0.00022200135405170407,0.0715405721175113,-0.0003291218275247587,-0.05674432148800557
128,0.1168,219.679,672.208,0.416821,383.622,-0.374089,-0.909545,-0.00904849,0.0696646,-0.0588999,0.139749,-0.000220377,-0.000331433,0.108259,-0.009007675609995158,0.14998511636488243,-0.00022035271877263174,0.0721485223283973,-0.00033137808215066844,-0.05719886117218442
129,0.1178,219.392,671.71,-0.0506579,383.983,-0.544461,-0.962013,-0.00912806,0.0702258,-0.059384,0.14089,-0.000224612,-0.000335361,0.10917,-0.009086525732153072,0.15129799823932943,-0.0002245867766133003,0.07275038094485975,-0.0003353047727855385,-0.05765516074726751
130,0.1188,219.388,671.81,-0.175915,384.206,-0.589142,-0.974215,-0.00920748,0.0707879,-0.0598667,0.142027,-0.000227428,-0.000338813,0.11008,-0.009165220955250741,0.15260776852663338,-0.00022740214021288452,0.07335354343692613,-0.00033875560935725524,-0.05810992083599753
131,0.1198,219.804,672.797,0.217361,384.23,-0.451569,-0.930521,-0.00928692,0.071352,-0.060348,0.143159,-0.000227437,-0.000341382,0.110988,-0.009243929743743662,0.15391325928896982,-0.00022741113816615588,0.07395919297817177,-0.00034132373579531805,-0.058563143454327005
132,0.1208,219.509,672.264,-0.25487,384.58,-0.625303,-0.976557,-0.00936625,0.0719115,-0.0608307,0.144297,-0.000232005,-0.000345273,0.111896,-0.009322523305342223,0.15522716004577464,-0.00023197808892116978,0.07456024127422456,-0.00034521340013737856,-0.05901746536556696
133,0.1218,219.745,672.886,-0.0727124,384.664,-0.554893,-0.966754,-0.00944557,0.0724737,-0.0613115,0.145429,-0.000233238,-0.000348399,0.112803,-0.009401100726371903,0.15653561763821977,-0.00023321080213223322,0.07516452889120151,-0.00034833831611602584,-0.059469781022821744
134,0.1228,219.896,673.294,0.00609204,384.796,-0.531943,-0.953628,-0.00952482,0.0730348,-0.0617921,0.146561,-0.000234978,-0.000351436,0.113709,-0.009479602578462365,0.1578455572433204,-0.00023495039483201197,0.07576797298877191,-0.00035137425360243224,-0.059921691243337794
135,0.1238,219.993,673.605,0.0201138,384.938,-0.523735,-0.953348,-0.00960407,0.0735952,-0.0622725,0.147692,-0.000236872,-0.000354632,0.114615,-0.009558098209527577,0.15915582138326378,-0.00023684394804279751,0.07637100231387017,-0.00035456912550491104,-0.06037319640264183
136,0.1248,220.087,673.897,0.0385166,385.082,-0.520459,-0.950563,-0.00968327,0.0741551,-0.0627524,0.148822,-0.000238813,-0.000357782,0.11552,-0.009636538101888692,0.1604664078032969,-0.00023878448644532035,0.0769738311842596,-0.0003577180036526961,-0.06082401512308411
137,0.1258,220.161,674.151,0.0315397,385.225,-0.521515,-0.953066,-0.00976242,0.0747144,-0.063232,0.149951,-0.00024081,-0.000361005,0.116424,-0.009714922267803572,0.16177731424514863,-0.00024078100759916676,0.07757635112703642,-0.00036093984553553504,-0.06127433592986986
138,0.1268,220.247,674.424,0.0446336,385.361,-0.518663,-0.951843,-0.00984153,0.0752733,-0.0637111,0.151079,-0.000242744,-0.000364173,0.117327,-0.009793260621588584,0.1630885384470353,-0.00024271454005897475,0.07817877688187691,-0.00036410669706188337,-0.06172397167668209
139,0.1278,220.309,674.647,0.0297811,385.5,-0.523596,-0.95461,-0.00992059,0.0758316,-0.0641898,0.152206,-0.000244792,-0.000367398,0.118229,-0.009871543271849914,0.16440007814366542,-0.00024476204088297315,0.07878089215784945,-0.00036733051761939084,-0.06217301692388555
140,0.1288,220.397,674.921,0.0499749,385.624,-0.517297,-0.953129,-0.00999961,0.0763896,-0.064668,0.153332,-0.000246673,-0.00037056,0.119131,-0.009949780131321528,0.16571193106624516,-0.00024664257871698236,0.0793830198736829,-0.00037049135112299236,-0.06262137857537753
141,0.1298,220.444,675.106,0.0224451,385.762,-0.527572,-0.95681,-0.0100786,0.0769469,-0.0651459,0.154457,-0.000248798,-0.000373798,0.120032,-0.01002798110960057,0.16702409494248283,-0.00024876705234422314,0.07998472768096554,-0.0003737281462316,-0.06306924479239984
142,0.1308,220.542,675.401,0.0604977,385.871,-0.514082,-0.95391,-0.0101575,0.0775039,-0.0656233,0.155581,-0.000250571,-0.000376937,0.120932,-0.010106086820580229,0.16833656749659465,-0.00025053960970888856,0.08058644673748439,-0.00037686596817410045,-0.06351642878362407
143,0.1318,220.564,675.526,0.00711849,386.012,-0.534483,-0.959822,-0.0102364,0.0780601,-0.0661004,0.156705,-0.000252844,-0.000380208,0.121832,-0.010184186369262438,0.1696505160992412,-0.00025281203764970783,0.08118763609442126,-0.0003801357300978747,-0.0639631185291395
144,0.1328,220.688,675.875,0.081846,386.099,-0.506824,-0.953679,-0.0103152,0.0786164,-0.0665768,0.157826,-0.000254408,-0.000383296,0.122731,-0.0102621807823563,0.170962429517876,-0.0002543756410289255,0.08178926810480869,-0.0003832225514727172,-0.0644089402962954
145,0.1338,220.663,675.895,-0.0234315,386.255,-0.547144,-0.964272,-0.0103939,0.0791713,-0.0670532,0.158948,-0.000256972,-0.000386637,0.123629,-0.01034007008374449,0.1722769866924636,-0.0002569389855235915,0.08238971954952601,-0.00038656226554711903,-0.06485454972454463
146,0.1348,220.844,676.365,0.124495,386.305,-0.491489,-0.951491,-0.0104727,0.079727,-0.0675286,0.160067,-0.000258123,-0.000389624,0.124526,-0.010418052213685636,0.17358949885417063,-0.0002580896891245521,0.08299137066996098,-0.00038954810642632953,-0.06529901221450074
147,0.1358,220.73,676.188,-0.0837824,386.497,-0.57114,-0.971481,-0.0105513,0.0802804,-0.0680043,0.161188,-0.000261265,-0.000393107,0.125423,-0.010495830298062891,0.1749058303483424,-0.00026123087327201144,0.08359086395898307,-0.00039302974356691944,-0.06574354373418567
148,0.1368,221.028,676.908,0.209,386.481,-0.460191,-0.945478,-0.01063,0.0808359,-0.0684786,0.162304,-0.000261601,-0.000395893,0.126318,-0.010573701211957776,0.17621775717401755,-0.0002615667854419801,0.08419296590224401,-0.0003958146447067268,-0.0661865565026094
149,0.1378,221.002,676.945,0.110188,386.609,-0.488375,-0.966403,-0.0107087,0.0813891,-0.0689534,0.163422,-0.000263791,-0.000399355,0.127213,-0.010651565997652823,0.17753350399196077,-0.0002637562102133506,0.08479290737949374,-0.0003992752684061074,-0.06662982588510324
150,0.1388,220.992,676.956,0.0408683,386.758,-0.531855,-0.959594,-0.0107872,0.0819416,-0.0694275,0.164539,-0.000266326,-0.000402443,0.128107,-0.010729226801495573,0.17884954378731144,-0.0002662905383790104,0.08539242106122513,-0.00040236203067811616,-0.06707223180404132
151,0.1398,221.084,677.241,0.0819858,386.821,-0.504584,-0.96199,-0.0108657,0.0824945,-0.0699011,0.165653,-0.000267872,-0.000405644,0.129,-0.010806881509204502,0.18016351392457097,-0.0002678361254991879,0.0859927004627783,-0.00040556173759609404,-0.0675139617851429
152,0.1408,221.046,677.212,-0.0165999,386.965,-0.55202,-0.967477,-0.0109441,0.083046,-0.0703745,0.166769,-0.000270526,-0.00040891,0.129893,-0.01088443120970628,0.18148131160044234,-0.00027048941114116154,0.08659179062101008,-0.0004088264077002357,-0.0679552962035348
153,0.1418,221.214,677.649,0.122504,386.99,-0.492746,-0.959164,-0.0110225,0.0835983,-0.070847,0.167881,-0.000271621,-0.000411956,0.130785,-0.010961974830549726,0.18279584956659423,-0.000271584114355905,0.08719208102190512,-0.00041187115777785444,-0.06839558330006057
154,0.1428,221.086,677.429,-0.0831768,387.167,-0.576679,-0.976417,-0.0111008,0.0841483,-0.0713198,0.168995,-0.000274819,-0.0004154,0.131677,-0.011039413476158,0.18411421833807617,-0.00027478124071766974,0.08779020113442049,-0.0004153137333654522,-0.06883594175933339
155,0.1438,221.375,678.125,0.208835,387.128,-0.461972,-0.952405,-0.0111791,0.0847005,-0.0717911,0.170104,-0.0002751,-0.000418211,0.132566,-0.011116846058557672,0.18542812943525377,-0.00027506216346473433,0.08839104476114468,-0.0004181235619693524,-0.06927469597942881
156,0.1448,221.338,678.126,0.110769,387.239,-0.491388,-0.972495,-0.0112574,0.0852503,-0.072263,0.171215,-0.000277302,-0.00042166,0.133456,-0.011194272578223474,0.18674587195748416,-0.0002772635553540681,0.08898960668715006,-0.0004215711139158307,-0.06971380163526797
157,0.1458,221.316,678.104,0.0397744,387.371,-0.535532,-0.965964,-0.0113356,0.0857995,-0.0727342,0.172325,-0.000279843,-0.000424752,0.134346,-0.01127159416279444,0.18806389124073175,-0.0002798038475999576,0.08958784404008302,-0.0004246618056398255,-0.0701520492326948
158,0.1468,221.399,678.359,0.0819703,387.416,-0.508191,-0.96811,-0.0114137,0.086349,-0.0732048,0.173433,-0.000281385,-0.000427949,0.135234,-0.01134881083593997,0.18938099557327992,-0.00028134541495383747,0.09018673709117908,-0.00042785744288775795,-0.07058953273038493
159,0.1478,221.35,678.299,-0.0174738,387.543,-0.555852,-0.973817,-0.0114918,0.0868972,-0.0736753,0.174542,-0.00028404,-0.000431217,0.136121,-0.011426021478698867,0.1907007507663634,-0.0002839996644582454,0.0907845413036159,-0.00043112403931200305,-0.07102671749945344
160,0.1488,221.509,678.707,0.121715,387.552,-0.496604,-0.965419,-0.0115699,0.0874462,-0.0741449,0.175647,-0.000285134,-0.000434261,0.137008,-0.011503226091541974,0.19201720230148167,-0.00028509335316440065,0.09138354642865343,-0.0004341667223394241,-0.07146286093842125
161,0.1498,221.373,678.461,-0.082841,387.712,-0.580202,-0.982658,-0.0116478,0.0879929,-0.0746148,0.176754,-0.000288325,-0.000437704,0.137894,-0.011580226991005471,0.19333749599215766,-0.0002882834383417521,0.09198036894005446,-0.0004376082215789001,-0.07189907804283091
162,0.1508,221.651,679.124,0.205937,387.659,-0.466533,-0.958927,-0.0117258,0.0885417,-0.0750832,0.177856,-0.000288621,-0.000440518,0.138779,-0.011657320726605414,0.19465327877589722,-0.0002885793529660008,0.09257981223872491,-0.0004404209861917918,-0.07233369871856721
163,0.1518,221.605,679.099,0.107928,387.755,-0.496162,-0.978862,-0.0118038,0.0890883,-0.0755522,0.178961,-0.000290828,-0.000443967,0.139663,-0.011734408449128542,0.195974100268423,-0.0002907857136366099,0.09317717960972405,-0.0004438684612346755,-0.07276867220461258
164,0.1528,221.577,679.057,0.0404127,387.87,-0.538778,-0.972287,-0.0118816,0.0896341,-0.0760205,0.180064,-0.000293346,-0.000447057,0.140547,-0.011811292521321959,0.19729398748500349,-0.00029330297826901663,0.09377399857143387,-0.00044695708490916086,-0.07320279297810628
165,0.1538,221.649,679.279,0.0784368,387.903,-0.513255,-0.974723,-0.0119594,0.0901804,-0.0764883,0.181165,-0.000294915,-0.000450259,0.14143,-0.011888170612167293,0.198612934112107,-0.0002948715168461513,0.09437169055155303,-0.0004501576486284353,-0.07363624731867624
166,0.1548,221.597,679.208,-0.0139222,388.013,-0.558104,-0.979908,-0.0120371,0.0907252,-0.0769558,0.182267,-0.000297527,-0.00045352,0.142312,-0.011964943918629123,0.19993453363308822,-0.00029748274323149193,0.0949680666866739,-0.00045341717534974624,-0.07406922115753412
167,0.1558,221.739,679.573,0.114661,388.012,-0.502962,-0.972416,-0.0121148,0.0912709,-0.0774226,0.183366,-0.000298681,-0.000456578,0.143193,-0.012041711260036836,0.201253986592149,-0.00029863639927074637,0.0955657538247685,-0.00045647378412649875,-0.07450134477959769
168,0.1568,221.609,679.333,-0.073923,388.154,-0.58053,-0.988275,-0.0121925,0.0918144,-0.0778895,0.184466,-0.000301782,-0.000460001,0.144075,-0.012118472636853839,0.2025760930026137,-0.0003017364683925994,0.09616135565210748,-0.0004598952157609526,-0.07493335924009625
169,0.1578,221.86,679.931,0.191169,388.097,-0.475766,-0.966697,-0.0122701,0.0923598,-0.0783552,0.185562,-0.000302209,-0.000462848,0.144954,-0.012195129269061411,0.20389483894131066,-0.0003021633394599821,0.09675936511783778,-0.00046274090238840326,-0.07536406247766514
170,0.1588,221.81,679.89,0.0965011,388.18,-0.50444,-0.986057,-0.0123477,0.0929031,-0.0788212,0.18666,-0.000304421,-0.000466293,0.145833,-0.01227177995294515,0.2052174414503678,-0.00030437466862887064,0.09735539637813684,-0.0004661843023147094,-0.07579484244502255
171,0.1598,221.788,679.856,0.0440397,388.275,-0.540841,-0.978598,-0.0124252,0.0934458,-0.0792867,0.187756,-0.000306854,-0.000469372,0.146712,-0.012348325923804082,0.20653908389395848,-0.00030680692512652374,0.09795109277934921,-0.00046926186219531374,-0.0762249598282766
172,0.1608,221.84,680.03,0.0674635,388.303,-0.521364,-0.982159,-0.0125026,0.0939887,-0.0797516,0.188851,-0.000308513,-0.000472593,0.14759,-0.012424767205061804,0.20786096779017438,-0.00030846541475804123,0.09854733226218215,-0.00047248134551791665,-0.07665432303124264
173,0.1618,221.802,679.982,-0.00118943,388.392,-0.556841,-0.985361,-0.01258,0.0945304,-0.0802163,0.189946,-0.000310988,-0.000475825,0.148467,-0.01250120256999343,0.20918429994203214,-0.00031093964824435716,0.09914257655943093,-0.0004757118132378002,-0.07708330208632685
174,0.1628,221.911,680.268,0.0945237,388.394,-0.514516,-0.980745,-0.0126574,0.0950727,-0.0806803,0.191038,-0.000312331,-0.000478929,0.149343,-0.012577632019056595,0.21050545041444146,-0.00031228222975088205,0.09973880323094897,-0.0004788143318131821,-0.07751143609938649
175,0.1638,221.813,680.094,-0.0471654,388.505,-0.574022,-0.992443,-0.0127347,0.0956132,-0.0811443,0.192132,-0.000315166,-0.000482291,0.150219,-0.012653956818110101,0.21183046802967787,-0.00031511634041336833,0.10033337272202547,-0.00048217471639055987,-0.07793937150434471
176,0.1648,222.003,680.554,0.151833,388.465,-0.494638,-0.97685,-0.0128119,0.096155,-0.0816072,0.193222,-0.000315967,-0.00048523,0.151093,-0.012730176990507158,0.21315208338935032,-0.0003159170876845252,0.1009296948724494,-0.0004851122949622866,-0.07836609459659594
177,0.1658,221.793,680.133,-0.126486,388.627,-0.604845,-1.00201,-0.0128891,0.0966939,-0.0820707,0.194315,-0.000319547,-0.000488797,0.151968,-0.012806391278934126,0.21447878352604133,-0.00031949595029512334,0.10152314577599997,-0.0004886775582081393,-0.07879317292870114
178,0.1668,221.807,680.222,-0.135874,388.665,-0.601585,-1.01119,-0.0129662,0.0972337,-0.0825332,0.195404,-0.000321683,-0.000492175,0.152841,-0.012882500972100197,0.21580207132072915,-0.0003216312655712761,0.10211790848210223,-0.0004920539017526648,-0.07921913257546032
179,0.1678,222.041,680.756,0.124642,388.611,-0.510675,-0.981396,-0.0130433,0.0977743,-0.0829948,0.196491,-0.000322388,-0.000494939,0.153713,-0.012958604797435047,0.2171243667095999,-0.00032233603857279025,0.10271387449852765,-0.0004948165378977354,-0.07964406694146653
180,0.1688,221.849,680.383,-0.134905,388.752,-0.605984,-1.00774,-0.0131203,0.098312,-0.083457,0.197581,-0.000325778,-0.00049853,0.154586,-0.013034604058856591,0.21845175556481689,-0.00032572494010940645,0.10330696318644983,-0.000498405754567055,-0.08006935716158514
181,0.1698,221.873,680.486,-0.128283,388.784,-0.599746,-1.01367,-0.0131973,0.0988505,-0.0839183,0.198667,-0.000327863,-0.000501866,0.155457,-0.013110597468560248,0.21977571295009812,-0.0003278092588000492,0.10390125398456185,-0.0005017400863238652,-0.08049362330261756
182,0.1708,222.089,680.979,0.113394,388.734,-0.516123,-0.985511,-0.0132742,0.0993897,-0.0843787,0.199751,-0.000328674,-0.000504657,0.156327,-0.013186486345650117,0.22109866673434175,-0.0003286199926180178,0.1044966380418273,-0.0005045296820743728,-0.08091686660036568
183,0.1718,221.917,680.646,-0.119956,388.862,-0.602029,-1.00917,-0.0133511,0.0999261,-0.0848397,0.200838,-0.000331925,-0.000508209,0.157197,-0.013262369387109785,0.2224267226527077,-0.0003318699189915897,0.10508924896251282,-0.0005080798836797351,-0.08134046627763536
184,0.1728,221.935,680.737,-0.11696,388.891,-0.597051,-1.01559,-0.0134279,0.100463,-0.0852998,0.201922,-0.000334011,-0.000511548,0.158066,-0.013338147927207666,0.2237525516895742,-0.0003339552245359423,0.10568273068619294,-0.0005114171816293922,-0.08176304430757053
185,0.1738,222.136,681.194,0.108574,388.845,-0.51976,-0.988709,-0.0135047,0.101001,-0.085759,0.203003,-0.000334908,-0.000514358,0.158933,-0.013413920647737165,0.2250761434704167,-0.0003348519245759407,0.10627774804061851,-0.0005142257406011153,-0.08218460192058885
186,0.1748,221.975,680.884,-0.109408,388.963,-0.599614,-1.0111,-0.0135815,0.101536,-0.0862188,0.204087,-0.000338068,-0.000517891,0.159801,-0.013489687549145146,0.22640484603662125,-0.0003380108614527977,0.10686976498623224,-0.0005177569176036956,-0.08260651643504568
187,0.1758,221.989,680.964,-0.109372,388.991,-0.595798,-1.01785,-0.0136581,0.102072,-0.0866777,0.205169,-0.000340158,-0.000521233,0.160668,-0.01356525134494857,0.22773253422981576,-0.0003401001528268166,0.10746320620830452,-0.000521097181678587,-0.08302741172284345
188,0.1768,222.18,681.396,0.105468,388.946,-0.522698,-0.991828,-0.0137348,0.102608,-0.0871357,0.206247,-0.000341112,-0.000524056,0.161534,-0.013640907988701101,0.22905674352228722,-0.00034105382791627115,0.108056965600134,-0.0005239187066385931,-0.08344728900903631
189,0.1778,222.025,681.099,-0.102514,389.057,-0.598649,-1.01339,-0.0138114,0.103142,-0.0875943,0.207328,-0.000344215,-0.000527578,0.1624,-0.013716460201462444,0.2303860722347537,-0.000344155764813614,0.10864882603243542,-0.0005274388551979037,-0.08386752371511352
190,0.1788,222.289,681.706,0.202783,388.966,-0.485333,-0.984203,-0.013888,0.103678,-0.0880514,0.208404,-0.000344527,-0.000530321,0.163263,-0.01379200662714597,0.23171068015974217,-0.0003444676573883809,0.10924322108683282,-0.0005301804046731196,-0.08428619217605682
191,0.1798,222.222,681.617,0.103588,389.023,-0.513915,-1.00493,-0.0139645,0.104212,-0.0885091,0.209482,-0.000346734,-0.000533787,0.164127,-0.013867448652944647,0.2330391802058267,-0.00034667389471365606,0.10983571514872814,-0.0005336445610644169,-0.08470521848441204
192,0.1808,222.176,681.519,0.039103,389.099,-0.554493,-0.999116,-0.014041,0.104745,-0.0889661,0.210559,-0.000349226,-0.000536897,0.164991,-0.013942884907649167,0.23436787877865695,-0.00034916502769832825,0.11042741525897393,-0.0005367528965963819,-0.08512341263492307
193,0.1818,222.224,681.669,0.07231,389.098,-0.531207,-1.00188,-0.0141174,0.105278,-0.0894227,0.211635,-0.000350833,-0.000540113,0.165853,-0.01401821679352755,0.23569677343333328,-0.0003507714652993821,0.11101943082944099,-0.000539967165230526,-0.08554104993086342
194,0.1828,222.161,681.556,-0.0104191,389.17,-0.572146,-1.00658,-0.0141937,0.10581,-0.089879,0.21271,-0.000353389,-0.000543377,0.166715,-0.014093444333619143,0.23702586172173534,-0.00035332656546216423,0.1116106504171086,-0.0005432293974537705,-0.0859582223646509
195,0.1838,222.27,681.833,0.102249,389.142,-0.523162,-1.0004,-0.0142701,0.106343,-0.0903346,0.213783,-0.000354639,-0.000546464,0.167576,-0.014168764717196747,0.23835390283800395,-0.0003545761230229205,0.11220329682001684,-0.000546314715742402,-0.08637456494849927
196,0.1848,222.143,681.581,-0.0605903,389.24,-0.591185,-1.01416,-0.0143463,0.106874,-0.0907903,0.214858,-0.0003576,-0.000549868,0.168436,-0.014243882195313029,0.23968584907638868,-0.0003575360687407825,0.11279403359736229,-0.0005497168502966998,-0.08679080921079385
197,0.1858,222.342,682.052,0.164273,389.167,-0.501317,-0.996247,-0.0144225,0.107407,-0.0912448,0.215927,-0.000358254,-0.000552779,0.169295,-0.014318993949695491,0.24101178183384153,-0.00035818983469848575,0.11338731091162857,-0.0005526262458362963,-0.08720576848137007
198,0.1868,222.093,681.536,-0.145353,389.323,-0.624478,-1.02433,-0.0144987,0.107936,-0.0917001,0.217001,-0.000362024,-0.000556404,0.170155,-0.01439409998078045,0.24234534448248723,-0.0003619584772188711,0.11397644861228406,-0.0005562492359995064,-0.08762126909908718
199,0.1878,222.105,681.609,-0.143295,389.336,-0.61731,-1.03202,-0.0145747,0.108466,-0.0921543,0.218072,-0.000364122,-0.000559772,0.171013,-0.01446900318282418,0.24367660911138556,-0.0003640557156300295,0.11456701261568525,-0.000559615356883536,-0.08803557742211965
200,0.1888,222.33,682.115,0.119019,389.26,-0.524167,-1.00285,-0.0146508,0.108998,-0.0926075,0.219139,-0.000364806,-0.000562552,0.17187,-0.014543999238045835,0.24500432026124042,-0.0003647394663820469,0.11516012001897735,-0.0005623937972908388,-0.08844878605828255
201,0.1898,222.133,681.719,-0.133362,389.38,-0.618176,-1.02825,-0.0147268,0.109526,-0.0930615,0.22021,-0.000368181,-0.000566144,0.172727,-0.014618891048178928,0.2463384341787196,-0.0003681132296931011,0.11574908003410878,-0.0005659837707246984,-0.08886253638098218
202,0.1908,222.151,681.798,-0.121339,389.391,-0.609886,-1.03357,-0.0148027,0.110055,-0.0935145,0.221277,-0.000370233,-0.000569478,0.173583,-0.014693678636123475,0.2476689870116897,-0.000370164472220158,0.11633946744114798,-0.0005693158781802099,-0.08927518817931257
203,0.1918,222.343,682.231,0.103274,389.329,-0.531792,-1.00739,-0.0148786,0.110585,-0.0939666,0.222342,-0.000371128,-0.000572305,0.174438,-0.014768460547905593,0.24899846230278921,-0.00037105914052260047,0.11693128417647336,-0.0005721412647304858,-0.08968683380723108
204,0.1928,222.18,681.907,-0.106967,389.431,-0.609701,-1.02889,-0.0149545,0.111112,-0.0944194,0.223409,-0.000374265,-0.000575838,0.175293,-0.014843236783955938,0.2503318549005127,-0.0003741949715915238,0.11752006209258847,-0.0005756722371179634,-0.09009893030319549
205,0.1938,222.441,682.505,0.202748,389.326,-0.493568,-0.999612,-0.0150303,0.111641,-0.0948706,0.224472,-0.000374544,-0.000578587,0.176146,-0.014917908836501126,0.25166166433076387,-0.0003744738671522807,0.11811138659697717,-0.0005784196508186179,-0.09050938506028605
206,0.1948,222.368,682.394,0.103055,389.373,-0.522987,-1.02003,-0.0151062,0.112168,-0.0953224,0.225536,-0.000376767,-0.000582058,0.176999,-0.014992673729856909,0.2529941410935419,-0.0003766960322268975,0.11870078659097105,-0.0005818886371036225,-0.09092020011000801
207,0.1958,222.316,682.278,0.0379364,389.438,-0.563576,-1.01467,-0.0151819,0.112695,-0.0957737,0.2266,-0.000379264,-0.000585185,0.177852,-0.015067235962239467,0.2543280363661091,-0.0003791920885005684,0.1192904972806228,-0.0005850138126516358,-0.09133037526071386
208,0.1968,222.356,682.408,0.0705579,389.428,-0.54087,-1.01737,-0.0152575,0.113222,-0.0962244,0.227662,-0.000380885,-0.000588409,0.178703,-0.015141694064648936,0.25566084033437075,-0.0003808124725168671,0.11988051882971251,-0.0005882359213730259,-0.09173982038519424
209,0.1978,222.289,682.281,-0.0102945,389.488,-0.580946,-1.0221,-0.0153332,0.113747,-0.0966749,0.228724,-0.000383433,-0.000591685,0.179555,-0.015216245016619112,0.25699506049231036,-0.00038335949896184385,0.12046861046264401,-0.0005915099889491904,-0.09214889944413407
210,0.1988,222.39,682.533,0.0983675,389.453,-0.533588,-1.01621,-0.0154088,0.114274,-0.0971247,0.229783,-0.000384713,-0.000594786,0.180405,-0.015290691854369931,0.25832692335828766,-0.00038463900744278856,0.12105925304100729,-0.0005946091498715278,-0.09255715904469664
211,0.1998,222.263,682.278,-0.0572843,389.538,-0.598959,-1.02946,-0.0154843,0.114798,-0.0975746,0.230844,-0.00038764,-0.000598194,0.181255,-0.015365034600660965,0.2596627167370473,-0.0003875648773223883,0.12164684202446963,-0.0005980151176397941,-0.09296532575485628
212,0.2008,222.447,682.711,0.155594,389.461,-0.513505,-1.01262,-0.0155598,0.115324,-0.0980234,0.231901,-0.000388365,-0.00060113,0.182103,-0.015439371734286444,0.26099488415508865,-0.0003882895960750643,0.12223698345696477,-0.0006009493575599434,-0.09337231158220649
213,0.2018,222.21,682.214,-0.134887,389.6,-0.62973,-1.03904,-0.0156352,0.115847,-0.0984728,0.232961,-0.000392037,-0.000604744,0.182952,-0.015513604807035675,0.26233224740959615,-0.0003919601635365977,0.1228240669082532,-0.0006045611792023786,-0.09377965852766712
214,0.2028,222.217,682.272,-0.131962,389.605,-0.622393,-1.04658,-0.0157105,0.116371,-0.0989212,0.234018,-0.000394121,-0.000608116,0.183799,-0.015587733841600615,0.2636672380133491,-0.00039404334452086687,0.12341258089651208,-0.0006079311349402872,-0.09418591663890785
215,0.2038,222.421,682.728,0.110023,389.528,-0.536605,-1.01936,-0.0157858,0.116895,-0.0993688,0.235072,-0.000394914,-0.000610934,0.184646,-0.015661857294459236,0.26499984544296273,-0.00039483603173018356,0.12400140334691079,-0.0006107474178221883,-0.09459126829815145
216,0.2048,222.238,682.358,-0.119095,389.631,-0.622099,-1.04269,-0.0158611,0.117417,-0.099817,0.236129,-0.000398167,-0.000614506,0.185492,-0.01573597516603209,0.26633765718854785,-0.0003980877420397544,0.12458828524230636,-0.0006143172298567201,-0.09499698156456549
217,0.2058,222.25,682.421,-0.108683,389.635,-0.614492,-1.04817,-0.0159363,0.11794,-0.100264,0.237183,-0.000400215,-0.000617849,0.186338,-0.01580998903774322,0.26767308072379903,-0.0004001349246597341,0.12517659874605913,-0.0006176581706098805,-0.09540142751340219
218,0.2068,222.42,682.803,0.0949566,389.574,-0.544137,-1.02397,-0.0160115,0.118463,-0.100711,0.238235,-0.000401223,-0.000620715,0.187182,-0.0158839973438204,0.2690073745202015,-0.0004011425208159114,0.12576522001824886,-0.000620522396297063,-0.0958056927152997
219,0.2078,222.271,682.505,-0.0930235,389.659,-0.613759,-1.04352,-0.0160866,0.118984,-0.101158,0.239289,-0.000404242,-0.000624231,0.188026,-0.015957901680477282,0.2703456134209574,-0.00040416030521128743,0.12635189651383483,-0.0006240362083630435,-0.09620977725103397
220,0.2088,222.499,683.027,0.181257,389.561,-0.510872,-1.0176,-0.0161617,0.119506,-0.101603,0.240338,-0.000404722,-0.000627041,0.188869,-0.016031800467126933,0.2716789051586894,-0.00040464011109919706,0.12694000568695518,-0.0006268444508757964,-0.09661187442690022
221,0.2098,222.426,682.912,0.0871636,389.599,-0.538734,-1.03706,-0.0162368,0.120027,-0.102049,0.24139,-0.000406955,-0.000630517,0.189712,-0.01610569370418602,0.27301741529980594,-0.0004068722050456497,0.12752729440534472,-0.0006303182659269657,-0.0970146956950857
222,0.2108,222.387,682.821,0.0417828,389.648,-0.570947,-1.03068,-0.0163118,0.120547,-0.102495,0.24244,-0.000409346,-0.000633642,0.190554,-0.016179483010024698,0.27435478558239823,-0.00040926222935688816,0.12811376106655237,-0.0006334412913026055,-0.09741733734504343
223,0.2118,222.408,682.905,0.0563559,389.639,-0.555988,-1.03472,-0.0163867,0.121068,-0.10294,0.243489,-0.00041109,-0.000636901,0.191395,-0.016253168407194596,0.27569228514834787,-0.0004110055140834623,0.12870166147082496,-0.0006366982216102768,-0.09781889727621362
224,0.2128,222.363,682.82,0.00466924,389.68,-0.584263,-1.0371,-0.0164616,0.121587,-0.103385,0.244538,-0.000413474,-0.000640154,0.192236,-0.01632684828553499,0.2770311884874923,-0.00041338853140571175,0.12928760967353425,-0.0006399491451433148,-0.098220278552968
225,0.2138,222.427,682.988,0.0739472,389.655,-0.552602,-1.0346,-0.0165365,0.122106,-0.103829,0.245584,-0.000414992,-0.000643321,0.193075,-0.016400522645459215,0.27836766196442375,-0.00041490590273030037,0.12987386206229012,-0.0006431141134126683,-0.09862057987582062
226,0.2148,222.342,682.823,-0.0267443,389.712,-0.596416,-1.04306,-0.0166113,0.122625,-0.104273,0.246631,-0.000417611,-0.000646669,0.193915,-0.016474093134794754,0.2797068138301697,-0.0004175238126635783,0.13046041879500647,-0.0006464599546657235,-0.099020703504337
227,0.2158,222.46,683.108,0.110553,389.66,-0.540509,-1.03303,-0.0166861,0.123144,-0.104716,0.247676,-0.000418776,-0.000649724,0.194753,-0.016547658121263464,0.2810448064299955,-0.0004186883255700158,0.13104728002967825,-0.0006495129750669904,-0.09941974893759509
228,0.2168,222.305,682.789,-0.0761003,389.75,-0.616366,-1.05015,-0.0167607,0.123661,-0.10516,0.248722,-0.000421865,-0.000653208,0.195591,-0.016621020929500796,0.2823854803477426,-0.00042177602747284215,0.1316321826577549,-0.0006529947060986974,-0.09981951781380893
229,0.2178,222.516,683.277,0.174878,389.652,-0.516995,-1.02919,-0.0168354,0.12418,-0.105602,0.249764,-0.000422397,-0.000656095,0.196428,-0.016694476595634167,0.28372242244413015,-0.0004223078029464977,0.1322196521957124,-0.000655879816738314,-0.1002173096684591
230,0.2188,222.441,683.153,0.0814931,389.689,-0.546506,-1.04758,-0.0169101,0.124697,-0.106045,0.250807,-0.000424663,-0.000659568,0.197264,-0.016767926774834074,0.2850620434216371,-0.0004245728434306706,0.132805161096907,-0.00065935053284083,-0.1006158251225856
231,0.2198,222.406,683.072,0.0438392,389.731,-0.575569,-1.04076,-0.0169846,0.125213,-0.106487,0.25185,-0.000427014,-0.000662696,0.1981,-0.016841174835765194,0.2864030623527296,-0.00042692284249756796,0.13338983939406068,-0.0006624764655033255,-0.10101326508717878
232,0.2208,222.419,683.133,0.0501433,389.724,-0.564393,-1.04533,-0.0170592,0.125729,-0.106929,0.252891,-0.00042882,-0.000665974,0.198935,-0.01691451574847236,0.28774290520784795,-0.00042872806984473044,0.13397481946306633,-0.0006657522885363809,-0.10141052942212458
233,0.2218,222.382,683.068,0.0111606,389.757,-0.587432,-1.04674,-0.0171336,0.126245,-0.10737,0.253932,-0.000431133,-0.000669221,0.19977,-0.016987654587702128,0.28908414356561174,-0.0004310400755228594,0.13456010145967823,-0.000668997121570758,-0.10180672001220337
234,0.2228,222.43,683.199,0.0630998,389.736,-0.5628,-1.0457,-0.0172081,0.126761,-0.107811,0.254971,-0.000432759,-0.00067242,0.200603,-0.01706088627952096,0.2904241980285185,-0.0004326653733304209,0.13514568553973105,-0.0006721939763355556,-0.10220273592075202
235,0.2238,222.364,683.072,-0.013609,389.78,-0.59711,-1.05211,-0.0172824,0.127275,-0.108252,0.25601,-0.000435244,-0.000675747,0.201436,-0.017133915942584843,0.29176564553157114,-0.0004351492950706026,0.13572930039826803,-0.0006755187344155145,-0.10259857722478816
236,0.2248,222.453,683.292,0.090895,389.74,-0.554133,-1.04501,-0.0173568,0.127791,-0.108692,0.257047,-0.000436605,-0.000678856,0.202269,-0.017207038459047364,0.293105901308502,-0.00043650970190667326,0.13631548794065318,-0.000678625629398022,-0.10299334699509077
237,0.2258,222.334,683.051,-0.051037,389.808,-0.61249,-1.05815,-0.017431,0.128304,-0.109132,0.258085,-0.000439444,-0.000682289,0.203101,-0.01727995899140855,0.2944488420997522,-0.0004393474586275037,0.13689856733304362,-0.0006820562937875918,-0.10338794310490262
238,0.2268,222.493,683.423,0.13908,389.733,-0.53693,-1.04271,-0.0175053,0.128819,-0.109572,0.25912,-0.00044033,-0.000685271,0.203931,-0.017352972377974507,0.29578929021356437,-0.00044023306897333914,0.13748422088806622,-0.0006850362554525757,-0.10378236563061749
239,0.2278,222.282,682.978,-0.114806,389.847,-0.638635,-1.06642,-0.0175794,0.129331,-0.110011,0.260157,-0.000443803,-0.000688871,0.204762,-0.01742578382502391,0.2971337206742297,-0.00044370453401565424,0.13806676192694112,-0.0006886337828464484,-0.10417571882476229
240,0.2288,222.285,683.02,-0.111895,389.844,-0.631886,-1.07368,-0.0176535,0.129844,-0.11045,0.261192,-0.000445879,-0.000692259,0.205592,-0.01749858987694497,0.29847694907591715,-0.00044577961073111183,0.1386507399533663,-0.0006920194440198646,-0.104568899374753
241,0.2298,222.455,683.399,0.0956058,389.772,-0.558854,-1.04973,-0.0177276,0.130357,-0.110888,0.262224,-0.000446863,-0.000695148,0.20642,-0.017571390534137366,0.2998176689798424,-0.00044676317160008416,0.1392350176373749,-0.0006949064406054362,-0.10496101231782351
242,0.2308,222.299,683.081,-0.0960113,389.852,-0.630455,-1.06973,-0.0178016,0.130869,-0.111326,0.263258,-0.000449923,-0.000698697,0.207249,-0.017644087561414667,0.30116237554305214,-0.0004498217998250009,0.13981845531370496,-0.000698452968089236,-0.10535295355303187
243,0.2318,222.524,683.594,0.17934,389.746,-0.526202,-1.04394,-0.0178756,0.131382,-0.111764,0.264288,-0.0004504,-0.000701529,0.208076,-0.01771677920931103,0.3025032632284739,-0.0004502985851463359,0.14040333218937273,-0.0007012829860630898,-0.10574472315556949
244,0.2328,222.448,683.466,0.0848242,389.779,-0.554934,-1.06304,-0.0179496,0.131893,-0.112201,0.265319,-0.000452663,-0.000705026,0.208903,-0.017789465478224353,0.3038468365859144,-0.00045256056356124397,0.14098622720911513,-0.0007047775275662582,-0.1061354273364693
245,0.2338,222.406,683.367,0.0405919,389.82,-0.586265,-1.05717,-0.0180235,0.132403,-0.112638,0.26635,-0.000455055,-0.000708184,0.209729,-0.017862048154762666,0.3051917958818149,-0.0004549514781767572,0.14156827859547927,-0.0007079332968958907,-0.10652596081694277
246,0.2348,222.422,683.434,0.0528712,389.807,-0.572743,-1.06126,-0.0180974,0.132914,-0.113075,0.267379,-0.000456837,-0.00071147,0.210555,-0.017934625467639242,0.3065355294721428,-0.00045673266586621075,0.1421517690549572,-0.0007112169652320199,-0.10691632367156978
247,0.2358,222.376,683.347,0.00566272,389.84,-0.598994,-1.06354,-0.0181712,0.133424,-0.113511,0.268408,-0.000459206,-0.000714747,0.21138,-0.018007099217965394,0.30788064647597935,-0.00045910058106168883,0.1427344150192673,-0.0007144916292084469,-0.10730562328096704
248,0.2368,222.431,683.491,0.0676596,389.812,-0.570408,-1.06159,-0.0182449,0.133934,-0.113947,0.269435,-0.000460784,-0.000717948,0.212204,-0.01807946942787808,0.30922452986591153,-0.0004606778553565283,0.1433173582088052,-0.0007176903370011978,-0.10769475319273147
249,0.2378,222.353,683.336,-0.0216749,389.858,-0.609791,-1.06923,-0.0183186,0.134443,-0.114383,0.270463,-0.000463353,-0.000721311,0.213028,-0.018151834304302783,0.3105711047034936,-0.00046324566857680605,0.14389945487516753,-0.0007210509177577595,-0.10808371348083501
250,0.2388,222.453,683.58,0.0985431,389.808,-0.560504,-1.06073,-0.0183923,0.134952,-0.114818,0.271488,-0.000464632,-0.000724414,0.213851,-0.01822419384763263,0.311915128780482,-0.00046452407526798023,0.14448184790415097,-0.0007241516755259747,-0.10847161269127581
251,0.2398,222.317,683.297,-0.0629066,389.882,-0.626815,-1.0757,-0.0184659,0.13546,-0.115253,0.272515,-0.000467596,-0.000727894,0.214673,-0.01829644988791057,0.31326315771211233,-0.0004674866940280742,0.1450633923826774,-0.0007276291494273668,-0.10885934320225499
252,0.2408,222.494,683.709,0.151391,389.794,-0.541403,-1.05812,-0.0185395,0.135969,-0.115687,0.273537,-0.000468349,-0.000730857,0.215495,-0.018368700610339572,0.31460599873417494,-0.000468239341727239,0.1456463780066548,-0.0007305899890757139,-0.10924601433360037
253,0.2418,222.257,683.203,-0.132284,389.918,-0.655364,-1.08455,-0.018613,0.136475,-0.116122,0.274563,-0.000472011,-0.000734521,0.216316,-0.018440847859400922,0.3159554766526682,-0.000471899620332783,0.1462262217620245,-0.000734251305486433,-0.1096334080531226
254,0.2428,222.265,683.256,-0.120384,389.909,-0.645385,-1.09071,-0.0186864,0.136983,-0.116555,0.275586,-0.000474065,-0.000737912,0.217137,-0.018512891657128216,0.31730238793293863,-0.00047395264894245503,0.14680865260758913,-0.0007376398098950521,-0.11001885333251038
255,0.2438,222.44,683.644,0.0935747,389.831,-0.568896,-1.06672,-0.0187599,0.13749,-0.116988,0.276606,-0.000475016,-0.000740815,0.217956,-0.018585028308537033,0.3186467218623805,-0.0004749031977615559,0.14739023201238233,-0.0007405406643160584,-0.11040413175022035
256,0.2448,222.281,683.319,-0.098734,389.91,-0.641598,-1.08659,-0.0188332,0.137996,-0.117422,0.277629,-0.000478104,-0.000744384,0.218775,-0.018656963389509063,0.3199963876952139,-0.00047798972649482074,0.14797095838116148,-0.000744107014962303,-0.1107901325888
257,0.2458,222.507,683.833,0.178262,389.8,-0.535886,-1.06089,-0.0189066,0.138503,-0.117854,0.278647,-0.000478572,-0.000747232,0.219593,-0.01872899132493877,0.3213408282220094,-0.00047845750268615816,0.14855312722439185,-0.0007469528916930201,-0.11117418828951742
258,0.2468,222.429,683.698,0.0837984,389.831,-0.565116,-1.07971,-0.0189799,0.139009,-0.118287,0.279667,-0.000480853,-0.000750744,0.220411,-0.018800915853808498,0.32268928346205716,-0.00048073740872445203,0.14913444216704486,-0.0007504622622319657,-0.1115589665554817
259,0.2478,222.386,683.597,0.039604,389.869,-0.596194,-1.07418,-0.0190531,0.139514,-0.118719,0.280686,-0.000483253,-0.000753925,0.221228,-0.018872736998082007,0.32403779078970185,-0.00048313625207596633,0.14971490161401357,-0.000753640869955885,-0.11194269019165659
260,0.2488,222.4,683.657,0.0512872,389.855,-0.583234,-1.07823,-0.0191263,0.140019,-0.11915,0.281704,-0.000485054,-0.000757228,0.222044,-0.018944552885240218,0.3253863475596599,-0.00048493638032665043,0.1502956542670313,-0.000756941375229303,-0.11232536042082586
261,0.2498,222.355,683.57,0.00563269,389.885,-0.608715,-1.08054,-0.0191995,0.140523,-0.119582,0.282721,-0.000487422,-0.000760525,0.22286,-0.019016363515667822,0.32673495112380335,-0.0004873032291948798,0.1508755493980798,-0.0007602358741626292,-0.11270875304635442
262,0.2508,222.406,683.705,0.0648326,389.856,-0.581366,-1.07879,-0.0192726,0.141027,-0.120013,0.283737,-0.00048903,-0.000763747,0.223675,-0.019088070798561785,0.3280835988311681,-0.0004889104443190906,0.15145573686993785,-0.000763455419495962,-0.11309109317357535
263,0.2518,222.331,683.554,-0.0199052,389.898,-0.618946,-1.08614,-0.0193456,0.14153,-0.120443,0.284753,-0.000491584,-0.000767125,0.22449,-0.019159674755817258,0.32943361746091404,-0.0004914631923820245,0.1520350647943418,-0.0007668308348425246,-0.11347238202053356
264,0.2528,222.425,683.781,0.0931899,389.849,-0.572433,-1.07827,-0.0194187,0.142034,-0.120873,0.285766,-0.000492915,-0.000770256,0.225303,-0.019231371563042332,0.3307810160575695,-0.000492793537359093,0.15261583680925206,-0.0007699594289972689,-0.11385350694853269
265,0.2538,222.296,683.514,-0.0575474,389.917,-0.6347,-1.09236,-0.0194916,0.142536,-0.121304,0.286782,-0.000495831,-0.000773743,0.226117,-0.019302866990015377,0.3321337766559016,-0.0004957080961237592,0.15319459521553624,-0.0007734437380738646,-0.11423535379313188
266,0.2548,222.459,683.894,0.140975,389.833,-0.55529,-1.07623,-0.0195646,0.14304,-0.121733,0.287793,-0.000496684,-0.000776746,0.226929,-0.01937445526772119,0.3334812449345428,-0.0004965606729211425,0.15377595178107328,-0.0007764444109168434,-0.1146152653295035
267,0.2558,222.24,683.426,-0.119817,389.946,-0.660619,-1.10064,-0.0196374,0.143541,-0.122162,0.288807,-0.00050023,-0.0007804,0.227741,-0.019445842208861586,0.33483408068871867,-0.0005001049058330764,0.15435413835655898,-0.0007800955671183329,-0.11499501391878064
268,0.2568,222.246,683.473,-0.109416,389.936,-0.651321,-1.10692,-0.0197102,0.144042,-0.122591,0.289818,-0.000502288,-0.000783808,0.228552,-0.019517223953221752,0.33618428035522085,-0.000502161874500473,0.15493261467609365,-0.0007835009027499229,-0.11537459963085261
269,0.2578,222.405,683.826,0.0867293,389.863,-0.581562,-1.08459,-0.019783,0.144545,-0.123019,0.290827,-0.000503344,-0.000786754,0.229363,-0.019588600501180053,0.3375331706948357,-0.0005032173436603227,0.15551369190994868,-0.0007864445902201478,-0.11575313828915923
270,0.2588,222.261,683.53,-0.0874825,389.933,-0.647397,-1.1029,-0.0198557,0.145045,-0.123448,0.291839,-0.00050634,-0.000790318,0.230173,-0.019659873819107165,0.33888743940796706,-0.0005062118315354303,0.1560915932191913,-0.0007900057809856476,-0.11613239883562931
271,0.2598,222.462,683.99,0.161402,389.832,-0.55241,-1.07985,-0.0199284,0.145546,-0.123875,0.292845,-0.000506977,-0.000793225,0.230982,-0.019731141955652287,0.34023503790040177,-0.0005068485088756125,0.15667094022170014,-0.0007929104802167908,-0.11650972973544615
272,0.2608,222.388,683.861,0.0721804,389.86,-0.580059,-1.09786,-0.0200011,0.146046,-0.124303,0.293854,-0.000509266,-0.000796749,0.23179,-0.01980240491119234,0.3415880175170729,-0.0005091363460809628,0.15724942029977895,-0.0007964316797959281,-0.11688778266202204
273,0.2618,222.355,683.782,0.0414881,389.89,-0.605246,-1.09171,-0.0200737,0.146546,-0.12473,0.294862,-0.000511599,-0.000799941,0.232599,-0.019873564673465127,0.342941020037439,-0.0005114681555458134,0.15782818969021872,-0.0007996211324956537,-0.11726479108179944
274,0.2628,222.359,683.818,0.0419867,389.88,-0.597278,-1.09656,-0.0201462,0.147045,-0.125157,0.295868,-0.000513487,-0.000803279,0.233406,-0.019944621264193718,0.3442926984838597,-0.0005133551881125742,0.15840609013104268,-0.0008029564577936021,-0.11764163855334642
275,0.2638,222.329,683.762,0.0143807,389.9,-0.615262,-1.09747,-0.0202187,0.147544,-0.125583,0.296874,-0.000515759,-0.000806575,0.234213,-0.02001567270350635,0.3456457374030004,-0.0005156260191899742,0.1589842790161473,-0.0008062498058217793,-0.11801744316325757
276,0.2648,222.359,683.85,0.0501264,389.88,-0.597507,-1.09772,-0.0202912,0.148043,-0.126009,0.297879,-0.00051752,-0.000809849,0.235019,-0.020086718991776276,0.34699879116472077,-0.0005173861096228194,0.15956275648950258,-0.0008095211608046826,-0.11839308771449975
277,0.2658,222.309,683.756,-0.00282469,389.907,-0.622343,-1.10235,-0.0203636,0.148541,-0.126435,0.298883,-0.0005199,-0.000813205,0.235824,-0.020157662145148136,0.34835185707647853,-0.0005197648754130535,0.16014036255420705,-0.0008128744384248154,-0.1187685722752434
278,0.2668,222.367,683.902,0.0679688,389.875,-0.592735,-1.09828,-0.020436,0.149039,-0.12686,0.299886,-0.00052149,-0.000816417,0.236629,-0.02022860016242156,0.3497049324429886,-0.0005213540477235767,0.160718256338368,-0.0008160838223179034,-0.11914301605708666
279,0.2678,222.285,683.736,-0.0264644,389.918,-0.632666,-1.10738,-0.0205083,0.149536,-0.127286,0.300889,-0.000524094,-0.000819846,0.237433,-0.02029943507391696,0.3510593656249221,-0.0005239566867289991,0.161295276689448,-0.0008195100180922177,-0.11951818121639379
280,0.2688,222.385,683.976,0.0973072,389.864,-0.582923,-1.09802,-0.0205806,0.150033,-0.12771,0.30189,-0.000525392,-0.000822977,0.238237,-0.020370264864233323,0.3524124531572397,-0.0005252540057912869,0.16187258389091896,-0.0008226384473087878,-0.11989142637399286
281,0.2698,222.247,683.687,-0.0644528,389.934,-0.649067,-1.11356,-0.0206528,0.150529,-0.128135,0.302892,-0.00052838,-0.000826513,0.23904,-0.02044099157784507,0.3537682495758734,-0.000528240431870497,0.16244901563578384,-0.0008261715322127605,-0.12026539304423756
282,0.2708,222.42,684.086,0.145904,389.844,-0.565168,-1.09615,-0.020725,0.151026,-0.128558,0.303891,-0.000529183,-0.000829518,0.239842,-0.02051171318517231,0.35512133981324134,-0.0005290430073712216,0.1630268963880266,-0.0008291740450560026,-0.12063744208905935
283,0.2718,222.189,683.592,-0.12732,389.961,-0.675595,-1.12191,-0.0207971,0.151521,-0.128983,0.304892,-0.000532817,-0.000833221,0.240644,-0.020582331744822047,0.3564784954174516,-0.0005326750782295164,0.16360273721058438,-0.0008328739677740948,-0.12101109176999003
284,0.2728,222.2,683.646,-0.110931,389.947,-0.664286,-1.12738,-0.0208692,0.152016,-0.129406,0.305891,-0.000534865,-0.000836642,0.241445,-0.02065294521305716,0.35783429454327953,-0.0005347219852148699,0.1641788631449086,-0.0008362921126655598,-0.12138282545095502
285,0.2738,222.356,683.994,0.0825536,389.874,-0.594866,-1.10568,-0.0209412,0.152512,-0.129829,0.306887,-0.000535942,-0.000839619,0.242245,-0.020723455662595147,0.3591873712209741,-0.0005357984087396295,0.16475643908802118,-0.000839266618596346,-0.12175440192182518
286,0.2748,222.216,683.706,-0.0849522,389.94,-0.658707,-1.12328,-0.0210132,0.153006,-0.130252,0.307886,-0.000538924,-0.0008432,0.243045,-0.020793961035563524,0.3605458778659103,-0.0005387788065450705,0.16533197091358742,-0.0008428446067761941,-0.12212582124908644
287,0.2758,222.41,684.147,0.154161,389.842,-0.566935,-1.10132,-0.0210852,0.153502,-0.130673,0.30888,-0.000539624,-0.000846146,0.243844,-0.020864461332327888,0.3618989328254183,-0.000539478429155027,0.16591011894001828,-0.0008457881194201544,-0.12249532849160838
288,0.2768,222.336,684.018,0.0672259,389.868,-0.594218,-1.11882,-0.0211571,0.153995,-0.131096,0.309876,-0.000541932,-0.000849691,0.244642,-0.02093485864674427,0.3632560598996044,-0.0005417851813768193,0.16648505433858674,-0.0008493301148231325,-0.12286643447320778
289,0.2778,222.307,683.948,0.04123,389.895,-0.617149,-1.1127,-0.021229,0.154489,-0.131517,0.310871,-0.000544249,-0.000852909,0.24544,-0.021005250899775785,0.3646131747318688,-0.000544100923377755,0.16706144031104353,-0.0008525453765054758,-0.12323562998318671
290,0.2788,222.307,683.973,0.0378027,389.885,-0.611195,-1.11777,-0.0213008,0.154982,-0.131939,0.311864,-0.000546184,-0.000856277,0.246237,-0.0210755401993451,0.36596890862485365,-0.0005460348686713301,0.16763694345098457,-0.0008559104994657618,-0.12360554648946132
291,0.2798,222.282,683.928,0.0169346,389.901,-0.62624,-1.11829,-0.0213726,0.155475,-0.13236,0.312858,-0.000548429,-0.000859592,0.247034,-0.021145824452323936,0.36732735675689887,-0.0005482786403044893,0.16821273038392293,-0.000859222656632519,-0.12397443089877258
292,0.2808,222.304,683.997,0.043685,389.884,-0.612305,-1.11928,-0.0214443,0.155967,-0.13278,0.31385,-0.000550261,-0.000862904,0.24783,-0.021216005780679947,0.3686844184861331,-0.0005501096341807843,0.168787632461586,-0.0008625318054071851,-0.12434228438315598
293,0.2818,222.264,683.923,0.00317349,389.905,-0.632097,-1.12293,-0.021516,0.156459,-0.133201,0.314842,-0.000552584,-0.000866271,0.248626,-0.02128618207721522,0.3700428270885414,-0.0005524313535794079,0.16936281746066428,-0.0008658958955991558,-0.124710858691095
294,0.2828,222.308,684.037,0.0571803,389.879,-0.609267,-1.12036,-0.0215877,0.156951,-0.133621,0.315832,-0.000554289,-0.000869533,0.24942,-0.021356353342290357,0.3713998410984598,-0.0005541354102313045,0.16993828552038925,-0.0008691550657310421,-0.12507840294074934
295,0.2838,222.243,683.909,-0.0146592,389.91,-0.640234,-1.12753,-0.0216593,0.157442,-0.134041,0.316823,-0.000556778,-0.000872959,0.250215,-0.02142642171891329,0.3727595719763579,-0.0005566230278923889,0.17051286626660955,-0.0008725780821421392,-0.12544579285423174
296,0.2848,222.318,684.093,0.0788624,389.869,-0.602517,-1.12092,-0.0217308,0.157933,-0.13446,0.317811,-0.000558268,-0.000876159,0.251008,-0.021496387228463587,0.37411652865969014,-0.0005581121974146397,0.17108772920124782,-0.0008757752847766698,-0.12581215430894122
297,0.2858,222.213,683.876,-0.0425241,389.921,-0.652727,-1.13289,-0.0218023,0.158423,-0.134879,0.318801,-0.00056104,-0.000879666,0.251801,-0.021566347735658797,0.3754775776311403,-0.0005608826464877925,0.171661702800604,-0.0008792792072886968,-0.12617836229035595
298,0.2868,222.341,684.174,0.114044,389.852,-0.590121,-1.12038,-0.0218738,0.158914,-0.135297,0.319787,-0.00056217,-0.000882775,0.252593,-0.021636303240856525,0.3768344673593904,-0.0005620120120523042,0.17223712995248452,-0.000882385468780944,-0.12654354340674812
299,0.2878,222.169,683.809,-0.0877165,389.939,-0.672351,-1.13975,-0.0219452,0.159403,-0.135716,0.320776,-0.00056541,-0.000886405,0.253385,-0.021706155915034997,0.3781968302249996,-0.0005652501858874892,0.1728104940851365,-0.0008860122591390907,-0.12690944500032375
300,0.2888,222.382,684.296,0.171671,389.826,-0.568573,-1.1179,-0.0220166,0.159894,-0.136134,0.321759,-0.000565942,-0.000889365,0.254176,-0.021776003601910565,0.3795522637955657,-0.0005657818850329788,0.17338648543203616,-0.0008889696321658924,-0.12727432058800303
301,0.2898,222.3,684.148,0.0760894,389.857,-0.600576,-1.13565,-0.022088,0.160382,-0.136552,0.322745,-0.000568312,-0.000892936,0.254966,-0.02184584630183939,0.3809131731457218,-0.000568150541323087,0.17395923777713285,-0.0008925374512849249,-0.12763904368955858
302,0.2908,222.262,684.056,0.0397771,389.887,-0.627809,-1.13046,-0.0221593,0.160871,-0.136969,0.32373,-0.000570699,-0.00089619,0.255756,-0.021915586206740945,0.38227404273951615,-0.0005705361823005184,0.17453344422644057,-0.0008957885416785993,-0.12800274237189446
303,0.2918,222.265,684.089,0.0416881,389.875,-0.619877,-1.13505,-0.0222305,0.161359,-0.137386,0.324714,-0.000572616,-0.000899573,0.256546,-0.021985223337891657,0.3836348698146903,-0.0005724520867461669,0.17510675642402185,-0.0008991685055087517,-0.12836628942349704
304,0.2928,222.232,684.026,0.0115201,389.894,-0.638639,-1.13652,-0.0223017,0.161847,-0.137803,0.325698,-0.000574929,-0.000902926,0.257334,-0.022054855511055238,0.3849970366027373,-0.0005747637599911037,0.17568034846623193,-0.0009025184849804635,-0.1287296849075832
305,0.2938,222.263,684.113,0.0489221,389.873,-0.620482,-1.13656,-0.0223729,0.162334,-0.138219,0.326679,-0.000576713,-0.000906246,0.258122,-0.022124482726584627,0.3863563853471883,-0.0005765467330220986,0.17625304423603616,-0.000905835483112849,-0.1290920579798367
306,0.2948,222.212,684.014,-0.00519093,389.898,-0.645772,-1.14152,-0.022444,0.162821,-0.138635,0.327662,-0.00057913,-0.000909658,0.25891,-0.022194007204238253,0.3877198437039757,-0.0005789623365893837,0.176826018976604,-0.0009092443865865718,-0.12945428033624318
307,0.2958,222.269,684.157,0.0656563,389.864,-0.616154,-1.13745,-0.0225151,0.163308,-0.139051,0.328642,-0.000580751,-0.000912918,0.259696,-0.022263526738877326,0.3890804757516131,-0.0005805823967783841,0.17739927282382761,-0.0009125014171409429,-0.1298163520394875
308,0.2968,222.187,683.99,-0.0272016,389.905,-0.655688,-1.14657,-0.0225861,0.163794,-0.139466,0.329623,-0.000583379,-0.0009164,0.260483,-0.022332943564152385,0.39044383231538315,-0.0005832088675566949,0.17797162794144783,-0.0009159802337543876,-0.13017740333006644
309,0.2978,222.284,684.22,0.0924959,389.851,-0.607328,-1.13765,-0.0226571,0.164281,-0.139881,0.330601,-0.000584729,-0.000919585,0.261268,-0.022402355461007772,0.3918043515688596,-0.0005845580793140126,0.17854543983611082,-0.0009191623112898561,-0.1305383048154466
310,0.2988,222.152,683.942,-0.0614592,389.917,-0.670866,-1.15259,-0.022728,0.164766,-0.140296,0.331581,-0.000587709,-0.000923166,0.262054,-0.02247166467696493,0.39316898839622616,-0.0005875363328933236,0.1791171730085186,-0.0009227400133637875,-0.1308990565577841
311,0.2998,222.312,684.314,0.135623,389.83,-0.59171,-1.1365,-0.0227989,0.165252,-0.14071,0.332557,-0.000588613,-0.000926238,0.262837,-0.022540968979072762,0.39452938509449953,-0.0005884398013521475,0.17969036322854204,-0.0009258091739922092,-0.13125878987843376
312,0.3008,222.099,683.855,-0.116421,389.938,-0.694563,-1.16042,-0.0228697,0.165736,-0.141125,0.333536,-0.000592167,-0.00092997,0.263622,-0.022610170628701742,0.39589529786771394,-0.0005919917037253697,0.18026147156141237,-0.0009295377119149517,-0.13161924268150427
313,0.3018,222.11,683.907,-0.099013,389.923,-0.683073,-1.16566,-0.0229405,0.16622,-0.141539,0.334512,-0.000594225,-0.000933434,0.264405,-0.022679367379027315,0.3972583567429626,-0.0005940484832899218,0.18083285637761937,-0.0009329984860022567,-0.13197867790680873
314,0.3028,222.247,684.213,0.0724852,389.856,-0.621656,-1.14627,-0.0230113,0.166705,-0.141952,0.335486,-0.000595444,-0.000936493,0.265187,-0.022748559230396426,0.39861994937039724,-0.0005952667584023796,0.18140569921612193,-0.0009360546272855208,-0.13233709669425897
315,0.3038,222.127,683.965,-0.0713052,389.912,-0.676714,-1.16178,-0.0230819,0.167189,-0.142365,0.336462,-0.000598327,-0.000940095,0.26597,-0.022817550746685678,0.3999856688036536,-0.0005981480380948812,0.18197763797255662,-0.0009396532491355858,-0.1326953674853134
316,0.3048,222.29,684.339,0.131762,389.827,-0.598569,-1.14332,-0.0231527,0.167673,-0.142777,0.337434,-0.000599257,-0.000943145,0.26675,-0.02288673281501863,0.4013471164300877,-0.0005990774813849908,0.18254985361435017,-0.0009427003785462684,-0.1330526233941387
317,0.3058,222.082,683.894,-0.115317,389.93,-0.697329,-1.16791,-0.0232232,0.168155,-0.14319,0.33841,-0.000602761,-0.000946896,0.267532,-0.02295561687216363,0.4027154988777337,-0.0006025793760822129,0.1831199800332215,-0.0009464478354488381,-0.133410598733681
318,0.3068,222.094,683.947,-0.0960604,389.915,-0.685948,-1.17255,-0.0232938,0.168638,-0.143602,0.339382,-0.000604821,-0.000950361,0.268312,-0.02302459377069932,0.4040796011889678,-0.0006046381326482164,0.18369156501023753,-0.00094990955000962,-0.13376756002792678
319,0.3078,222.227,684.243,0.0698984,389.851,-0.626682,-1.15368,-0.0233644,0.169121,-0.144014,0.340353,-0.000606076,-0.000953437,0.269091,-0.02309356579963784,0.4054436246079207,-0.0006058923730403176,0.1842634261294802,-0.0009529826233615202,-0.13412437428441126
320,0.3088,222.111,684.005,-0.0678473,389.904,-0.679543,-1.16859,-0.0234348,0.169602,-0.144426,0.341325,-0.000608933,-0.00095704,0.26987,-0.023162337591810078,0.4068103799465268,-0.0006087476379270651,0.1848331938556016,-0.00095658218328043,-0.13448104156370133
321,0.3098,222.267,684.363,0.126655,389.822,-0.604683,-1.15098,-0.0235053,0.170085,-0.144837,0.342293,-0.000609916,-0.000960112,0.270648,-0.023231202219503144,0.4081728317145832,-0.0006097300390452975,0.1854056065147629,-0.0009596512399459023,-0.13483669676346866
322,0.3108,222.068,683.938,-0.109177,389.92,-0.699112,-1.17453,-0.0235757,0.170565,-0.145248,0.343265,-0.000613363,-0.000963857,0.271427,-0.023299964322412436,0.4095422411321705,-0.0006131749313684765,0.18597473778646778,-0.0009633926390463232,-0.1351922058189835
323,0.3118,222.314,684.497,0.191237,389.791,-0.579625,-1.14835,-0.0236461,0.171047,-0.145658,0.344231,-0.000613695,-0.000966786,0.272203,-0.023368721584640206,0.41090451681032203,-0.0006135067277394102,0.1865465153974153,-0.000966318812983813,-0.13554670433743554
324,0.3128,222.224,684.33,0.0864979,389.824,-0.615291,-1.16705,-0.0237165,0.171528,-0.146068,0.3452,-0.000616126,-0.000970412,0.27298,-0.02343747400652696,0.4122723458932738,-0.0006159362333514329,0.18711738155362578,-0.0009699413025442416,-0.13590105754128645
325,0.3138,222.175,684.212,0.0364001,389.86,-0.648041,-1.16332,-0.0237867,0.172007,-0.146478,0.346168,-0.000618614,-0.000973733,0.273756,-0.023506026289638382,0.4136400874041892,-0.0006184226978089846,0.1876861469878366,-0.000973259075859989,-0.13625526549010314
326,0.3148,222.185,684.259,0.046772,389.844,-0.63678,-1.16725,-0.023857,0.172487,-0.146888,0.347134,-0.000620507,-0.000977148,0.274532,-0.023574671403086223,0.41500632351442013,-0.0006203145253441678,0.18825637318172883,-0.0009766707463548796,-0.13660932824342797
327,0.3158,222.141,684.17,0.0034021,389.868,-0.660884,-1.17007,-0.0239272,0.172967,-0.147297,0.3481,-0.000622925,-0.000980569,0.275307,-0.023643214055278472,0.41637388004639475,-0.0006227310225020988,0.188826873149895,-0.0009800883993182907,-0.1369623828235932
328,0.3168,222.184,684.283,0.0558805,389.839,-0.636666,-1.16879,-0.0239973,0.173446,-0.147706,0.349065,-0.000624648,-0.000983911,0.276081,-0.023711654267115745,0.4177413405342072,-0.0006244529480531336,0.1893964576267253,-0.0009834271182839194,-0.13731529303396073
329,0.3178,222.117,684.148,-0.0168803,389.872,-0.669613,-1.17555,-0.0240674,0.173924,-0.148115,0.35003,-0.000627204,-0.000987399,0.276855,-0.02378008968146239,0.41911012125830194,-0.0006270073486868144,0.18996512503415364,-0.0009869116820130364,-0.1376680589335657
330,0.3188,222.193,684.331,0.0764758,389.828,-0.6308,-1.16952,-0.0241375,0.174403,-0.148523,0.350993,-0.000628719,-0.00099067,0.277628,-0.023848520298654474,0.42047738253571576,-0.0006285213976238158,0.1905352548642385,-0.000990179448480455,-0.1380198186016689
331,0.3198,222.088,684.112,-0.0436636,389.88,-0.681639,-1.18119,-0.0242075,0.174881,-0.148931,0.351957,-0.000631539,-0.000994242,0.2784,-0.02391684851071829,0.4218473829665932,-0.0006313396212197508,0.19110446674686554,-0.0009937479051862486,-0.13837143478110125
332,0.3208,222.212,684.403,0.109004,389.811,-0.619668,-1.16939,-0.0242775,0.175359,-0.149339,0.352918,-0.000632719,-0.000997423,0.279172,-0.023985171939974625,0.42321443506494894,-0.0006325188755432753,0.1916739507778107,-0.0009969257390197717,-0.13872290753039407
333,0.3218,222.046,684.048,-0.084678,389.894,-0.699765,-1.18798,-0.0243474,0.175836,-0.149747,0.353881,-0.000635968,-0.00100111,0.279944,-0.024053392992102518,0.4245856507002763,-0.0006357658152147394,0.19224251484408117,-0.0010006090565644055,-0.13907423690805498
334,0.3228,222.247,684.509,0.16019,389.785,-0.600737,-1.1677,-0.0244174,0.176314,-0.150153,0.354839,-0.000636611,-0.00100416,0.280714,-0.024121706863579617,0.4259510576791632,-0.00063640840621082,0.19281254299205042,-0.001003656000060138,-0.1394237018216925
335,0.3238,222.167,684.362,0.0678074,389.815,-0.632442,-1.18466,-0.0244873,0.17679,-0.15056,0.3558,-0.000639031,-0.00100779,0.281484,-0.02418991837224982,0.4273220553044397,-0.0006388268631760674,0.19338045691530548,-0.0010072823502070838,-0.13977388510791833
336,0.3248,222.136,684.284,0.038972,389.84,-0.655978,-1.17967,-0.0245571,0.177266,-0.150967,0.356759,-0.00064141,-0.00101111,0.282254,-0.024258027538909932,0.4286915137058247,-0.0006412043405790158,0.19394864122993605,-0.0010105990005240262,-0.1401239258985465
337,0.3258,222.133,684.301,0.0344904,389.831,-0.651438,-1.18463,-0.0246268,0.177742,-0.151373,0.357718,-0.000643419,-0.00101457,0.283023,-0.024326034384324347,0.43006228604775054,-0.0006432120503827576,0.19451709606467893,-0.001014055497871702,-0.1404729647249554
338,0.3268,222.109,684.257,0.0151821,389.844,-0.665393,-1.18552,-0.0246965,0.178217,-0.151779,0.358676,-0.000645704,-0.00101798,0.283791,-0.024394036489826854,0.4314329421572325,-0.000645495578034283,0.19508462646310853,-0.001017462034134331,-0.14082186187036405
339,0.3278,222.128,684.315,0.0381952,389.828,-0.653451,-1.18674,-0.0247662,0.178693,-0.152184,0.359633,-0.000647622,-0.00102139,0.284559,-0.024462033855747745,0.432803479180242,-0.000647412338135589,0.19565362215553628,-0.0010208685587806965,-0.14116975856247105
340,0.3288,222.093,684.25,0.00377513,389.844,-0.670684,-1.19022,-0.0248359,0.179167,-0.152589,0.360589,-0.000649963,-0.00102485,0.285327,-0.024530026482417533,0.4341738942603739,-0.0006497518198048668,0.19622049631099925,-0.0010243250205957954,-0.14151751438494586
341,0.3298,222.128,684.343,0.0483604,389.821,-0.651798,-1.18852,-0.0249055,0.179642,-0.152994,0.361545,-0.000651783,-0.00102821,0.286093,-0.024597916829962818,0.43554562008375797,-0.0006515706356015061,0.19678883601674113,-0.001027681573224748,-0.14186512939482898
342,0.3308,222.075,684.238,-0.00959272,389.846,-0.677375,-1.19471,-0.024975,0.180116,-0.153399,0.3625,-0.00065425,-0.00103172,0.286859,-0.024665704919079712,0.4369172209861243,-0.0006540360251356958,0.1973562483911222,-0.0010311879599086415,-0.14221260364913801
343,0.3318,222.133,684.382,0.0639922,389.811,-0.647534,-1.19,-0.0250445,0.18059,-0.153803,0.363454,-0.000655912,-0.00103504,0.287625,-0.024733488297088213,0.4382886941036055,-0.0006556969367476073,0.19792392978272066,-0.0010345045308591816,-0.14255907976437598
344,0.3328,222.051,684.213,-0.0292591,389.851,-0.686924,-1.19964,-0.025114,0.181063,-0.154207,0.364408,-0.000658583,-0.00103861,0.28839,-0.024801266964315616,0.43966147623073915,-0.0006583661818162501,0.19849068182780005,-0.0010380708313121323,-0.14290541593153472
345,0.3338,222.145,684.437,0.0880948,389.797,-0.63963,-1.19083,-0.0251834,0.181537,-0.154611,0.36536,-0.000659994,-0.00104187,0.289154,-0.02486894340798851,0.4410326865486609,-0.0006597762518667505,0.1990589010683077,-0.001041327441892892,-0.143251612207142
346,0.3348,222.018,684.168,-0.0595411,389.86,-0.700944,-1.20548,-0.0252528,0.182009,-0.155014,0.366313,-0.000662987,-0.00104552,0.289918,-0.024936615155079167,0.4424066452862936,-0.0006627672726803313,0.19962499045619775,-0.0010449736343934868,-0.14359681224494292
347,0.3358,222.169,684.517,0.125654,389.777,-0.626143,-1.19051,-0.0253222,0.182482,-0.155417,0.367263,-0.000664001,-0.00104868,0.290681,-0.025004282205913553,0.44377758269147716,-0.0006637806001206226,0.20019254729329394,-0.0010481303272892317,-0.14394187319515672
348,0.3368,221.972,684.091,-0.10662,389.877,-0.721891,-1.21281,-0.0253914,0.182953,-0.15582,0.368215,-0.000667498,-0.00105247,0.291444,-0.025071749575187097,0.44515271340856355,-0.0006672752727694409,0.20075797112992966,-0.0010519163477007432,-0.14428679511382425
349,0.3378,222.21,684.637,0.184336,389.748,-0.603976,-1.18834,-0.0254608,0.183426,-0.156222,0.369163,-0.000667887,-0.00105547,0.292206,-0.02513940724801811,0.4465233677683904,-0.0006676640131236811,0.20132606399364494,-0.00105491318745643,-0.1446307226881144
350,0.3388,222.122,684.469,0.0810678,389.782,-0.640226,-1.20636,-0.02553,0.183897,-0.156625,0.370112,-0.000670368,-0.00105915,0.292967,-0.025206865266962253,0.4478967700206973,-0.0006701433535737378,0.20189202184239652,-0.0010585892986118006,-0.14497536705636638
351,0.3398,222.076,684.36,0.0360036,389.815,-0.670534,-1.20279,-0.0255992,0.184368,-0.157026,0.371062,-0.000672858,-0.00106253,0.293729,-0.025274318617972913,0.449272925522582,-0.0006726316818187472,0.20245824632008125,-0.0010619657148738249,-0.14531816319895674
352,0.3408,222.082,684.395,0.0414791,389.801,-0.661878,-1.20699,-0.0256683,0.184839,-0.157428,0.372009,-0.000674825,-0.001066,0.294489,-0.025341669835544978,0.4506460370487413,-0.0006745973568189623,0.20302473755231065,-0.001065432023838797,-0.1456616762466021
353,0.3418,222.045,684.322,0.00624268,389.821,-0.682411,-1.20938,-0.0257374,0.185309,-0.157829,0.372957,-0.000677226,-0.00106948,0.295249,-0.025409016399308815,0.4520219015485951,-0.000676996734230273,0.2035902920738617,-0.001068908310086658,-0.1460041972343793
354,0.3428,222.079,684.413,0.0477258,389.797,-0.662916,-1.20901,-0.0258064,0.185779,-0.15823,0.373902,-0.000679054,-0.00107289,0.296008,-0.02547626085721677,0.4533947107957652,-0.0006788234950105831,0.2041561124685134,-0.0010723146593014654,-0.1463465808987756
355,0.3438,222.025,684.305,-0.00990391,389.823,-0.689706,-1.21463,-0.0258754,0.186248,-0.158631,0.374849,-0.000681555,-0.00107642,0.296767,-0.02554350067541722,0.4547717275013887,-0.0006813227941476763,0.2047209941396586,-0.0010758408678068765,-0.14668882729484667
356,0.3448,222.084,684.45,0.063136,389.787,-0.659161,-1.21043,-0.0259444,0.186718,-0.159031,0.375793,-0.000683226,-0.00107978,0.297525,-0.025610735854230238,0.4561456804158941,-0.0006829926542620823,0.20528734608918686,-0.0010791972473428446,-0.14703008350813607
357,0.3458,222.001,684.279,-0.0298868,389.827,-0.699191,-1.21982,-0.0260133,0.187186,-0.159431,0.376738,-0.000685924,-0.00108337,0.298283,-0.025677868961767825,0.4575223884759927,-0.000685688807910867,0.20585155258117793,-0.0010827833665877362,-0.14737120324623687
358,0.3468,222.096,684.503,0.0868343,389.773,-0.651626,-1.21131,-0.0260822,0.187656,-0.159831,0.37768,-0.00068735,-0.00108666,0.299039,-0.0257449974439935,0.4588960214454896,-0.0006871138291025813,0.2064184360180632,-0.0010860697988241963,-0.14771218656372842
359,0.3478,221.969,684.235,-0.0594307,389.836,-0.712886,-1.22575,-0.026151,0.188123,-0.16023,0.378625,-0.00069036,-0.00109034,0.299796,-0.025812023882433532,0.4602753298063096,-0.0006901217563629602,0.2069819650014597,-0.0010897457953235046,-0.14805218156777555
360,0.3488,222.118,684.58,0.123072,389.754,-0.638766,-1.21117,-0.0262199,0.188592,-0.160629,0.379565,-0.000691403,-0.00109354,0.300552,-0.025879143121703585,0.4616486339681627,-0.0006911640360224292,0.20754817230828038,-0.0010929423030225927,-0.1483920409408762
361,0.3498,221.924,684.161,-0.104496,389.851,-0.733078,-1.23302,-0.0262886,0.189058,-0.161028,0.380509,-0.000694897,-0.00109735,0.301308,-0.025946062925849556,0.4630290817474667,-0.0006946556149954874,0.20811102089011002,-0.001096748131662273,-0.14873176473713645
362,0.3508,222.157,684.693,0.178808,389.726,-0.617816,-1.20935,-0.0263574,0.189527,-0.161426,0.381447,-0.000695344,-0.0011004,0.302062,-0.02601307553146026,0.46440204684611075,-0.0006951023043846316,0.20867775784833587,-0.0010997947819343379,-0.14907050208156813
363,0.3518,222.07,684.527,0.0771834,389.759,-0.653781,-1.22703,-0.0264261,0.189993,-0.161825,0.382387,-0.000697846,-0.0011041,0.302816,-0.026079986134765698,0.4657792319457361,-0.0006976025621108217,0.20924113293969437,-0.001103490705856136,-0.1494099552258319
364,0.3528,222.028,684.425,0.0358976,389.79,-0.682307,-1.22346,-0.0264947,0.19046,-0.162223,0.383327,-0.000700331,-0.00110751,0.30357,-0.02614679475615489,0.4671577122079864,-0.0007000858254829767,0.20980598043040066,-0.0011068969371452742,-0.1497484227041559
365,0.3538,222.031,684.454,0.0383139,389.778,-0.675198,-1.22786,-0.0265633,0.190926,-0.16262,0.384266,-0.00070234,-0.00111102,0.304323,-0.026213598794629922,0.4685360203141318,-0.0007020934169938986,0.21036988139600177,-0.0011104030457838032,-0.1500859055855579
366,0.3548,221.998,684.389,0.00812719,389.795,-0.693529,-1.22994,-0.0266318,0.191392,-0.163018,0.385204,-0.000704728,-0.00111452,0.305076,-0.026280300878540053,0.46991415334453257,-0.0007044797375456158,0.2109340452006896,-0.0011138991532548825,-0.1504241040891683
367,0.3558,222.027,684.468,0.0431251,389.774,-0.676818,-1.23012,-0.0267003,0.191857,-0.163415,0.386141,-0.000706616,-0.00111797,0.305828,-0.026346998393513843,0.4712921083773325,-0.0007063664057068708,0.21149726046910922,-0.0011173453043582526,-0.1507613187783
368,0.3568,221.98,684.376,-0.00583509,389.796,-0.700049,-1.23506,-0.0267688,0.192322,-0.163811,0.387078,-0.000709085,-0.00112152,0.306579,-0.026413691339864487,0.472671355159088,-0.0007088336586423827,0.21206073769352884,-0.001120891331488183,-0.151097550717746
369,0.3578,222.029,684.499,0.055902,389.765,-0.674151,-1.2319,-0.0268372,0.192787,-0.164208,0.388013,-0.000710843,-0.00112493,0.30733,-0.02648028236593769,0.4740489467998934,-0.0007105904109685479,0.21262447699578635,-0.0011242975034412295,-0.1514344981016298
370,0.3588,221.959,684.355,-0.0224151,389.799,-0.708248,-1.24004,-0.0269056,0.193251,-0.164604,0.388949,-0.000713474,-0.00112853,0.30808,-0.026546868837340587,0.475429302519798,-0.0007132195379465633,0.21318726530990406,-0.0011278934494974857,-0.15177046351483936
371,0.3598,222.038,684.544,0.0752752,389.753,-0.6684,-1.23327,-0.0269739,0.193716,-0.165,0.389883,-0.000715032,-0.00113188,0.30883,-0.026613353415724794,0.47680799723855904,-0.0007147764255377442,0.21375152856931368,-0.0011312396654495904,-0.15210629591208413
372,0.3608,221.932,684.321,-0.0464436,389.805,-0.71979,-1.24557,-0.0270422,0.194179,-0.165395,0.390818,-0.000717918,-0.00113557,0.309579,-0.02667983345336744,0.4781894584484505,-0.0007176603585314911,0.21431362564247225,-0.0011349254843748824,-0.15244114778759965
373,0.3618,222.055,684.607,0.104463,389.736,-0.658437,-1.23387,-0.0271105,0.194644,-0.16579,0.391749,-0.000719166,-0.00113884,0.310328,-0.0267463089505785,0.4795662936516041,-0.0007189074621131164,0.2148784127812291,-0.001138191767828145,-0.15277586742274363
374,0.3628,221.895,684.263,-0.0825537,389.817,-0.736433,-1.25213,-0.0271787,0.195106,-0.166185,0.392683,-0.000722443,-0.00114262,0.311076,-0.026812682588941206,0.4809488541251088,-0.0007221821008879248,0.21543981628215714,-0.0011419674583271755,-0.1531104548697405
375,0.3638,222.084,684.698,0.148744,389.713,-0.642177,-1.23317,-0.0272469,0.19557,-0.16658,0.393613,-0.000723214,-0.00114578,0.311823,-0.026879051700776202,0.48232677719435846,-0.0007229525437885131,0.21600391121681617,-0.0011451238447228729,-0.15344491018079442
376,0.3648,221.842,684.17,-0.137196,389.837,-0.760765,-1.26034,-0.027315,0.196031,-0.166975,0.394547,-0.000727085,-0.00114972,0.312571,-0.02694531898092889,0.48371191716392925,-0.0007268207377523206,0.21656461825292883,-0.0011490593251820558,-0.15377923340808874
377,0.3658,221.868,684.253,-0.101048,389.813,-0.742368,-1.26333,-0.027383,0.196493,-0.167369,0.395477,-0.000729138,-0.00115329,0.313317,-0.027011484449586787,0.48509241107706225,-0.0007288722434835027,0.21712680096076764,-0.0011526252166751405,-0.15411257871678785
378,0.3668,221.996,684.539,0.0577553,389.749,-0.683889,-1.24634,-0.0274511,0.196956,-0.167762,0.396405,-0.00073049,-0.00115652,0.314063,-0.027077742711376307,0.4864712165013081,-0.0007302232571348988,0.21769046114687618,-0.0011558514884852933,-0.15444494715867552
379,0.3678,221.895,684.328,-0.0620089,389.796,-0.731119,-1.25952,-0.0275191,0.197416,-0.168156,0.397335,-0.000733349,-0.00116024,0.314809,-0.02714389917552673,0.48785427775645385,-0.0007330801653426811,0.2182507276104111,-0.0011595671818065423,-0.15477803022782144
380,0.3688,222.031,684.642,0.10737,389.722,-0.664814,-1.24476,-0.0275871,0.197878,-0.168548,0.398262,-0.000734541,-0.00116348,0.315553,-0.02721005114119046,0.4892341581476811,-0.0007342712908011695,0.21881368948074575,-0.0011628034195662051,-0.15510929230836246
381,0.3698,221.863,684.281,-0.0905299,389.805,-0.745771,-1.26481,-0.027655,0.198338,-0.168942,0.399191,-0.000737875,-0.00116732,0.316298,-0.02727610133628844,0.4906182995147177,-0.0007376028371870458,0.2193744727481699,-0.0011666389470368355,-0.15544211367707783
382,0.3708,222.063,684.74,0.154916,389.697,-0.646714,-1.24406,-0.027723,0.1988,-0.169334,0.400116,-0.000738588,-0.00117046,0.317041,-0.027342244312510866,0.49199775934358136,-0.0007383153110221974,0.21993795390870496,-0.001169775278866525,-0.15577311548792294
383,0.3718,221.984,684.59,0.0627019,389.727,-0.679052,-1.26072,-0.0277908,0.19926,-0.169726,0.401043,-0.000741095,-0.00117421,0.317784,-0.027408188272820988,0.4933814825230971,-0.0007408204569254728,0.22049925445673146,-0.0011735208851861856,-0.15610398757148636
384,0.3728,221.955,684.519,0.0365663,389.75,-0.700744,-1.2565,-0.0278586,0.199719,-0.170118,0.401969,-0.00074352,-0.00117766,0.318527,-0.027474127762282197,0.49476499424297926,-0.000743243657497783,0.22105959220220206,-0.0011769668305948722,-0.1564347299786113
385,0.3738,221.95,684.527,0.0290659,389.742,-0.698278,-1.26161,-0.0279264,0.200179,-0.17051,0.402894,-0.000745632,-0.00118123,0.319269,-0.027540062781197472,0.4961482915390214,-0.0007453540855385521,0.221621408822531,-0.001180532622458319,-0.15676534276012088
386,0.3748,221.931,684.493,0.0152391,389.752,-0.709576,-1.26248,-0.0279941,0.200638,-0.170902,0.403818,-0.00074795,-0.00118476,0.320011,-0.027605896090464488,0.49753137144491655,-0.0007476703551232422,0.2221822617550817,-0.0011840584489550832,-0.15709582596681848
387,0.3758,221.943,684.534,0.0305725,389.74,-0.701229,-1.26434,-0.0280618,0.201097,-0.171293,0.404742,-0.000749991,-0.00118829,0.320752,-0.027671724942967435,0.49891572990724686,-0.0007497098270466962,0.22274337217821816,-0.001187584263005692,-0.15742533707524575
388,0.3768,221.918,684.489,0.00693677,389.751,-0.713965,-1.26719,-0.0281295,0.201555,-0.171684,0.405665,-0.000752339,-0.00119186,0.321493,-0.02773754933900785,0.5002998678073265,-0.0007520560639735496,0.2233035169060269,-0.0011911500169650147,-0.15775471937001428
389,0.3778,221.941,684.553,0.0369249,389.734,-0.701223,-1.26687,-0.0281971,0.202013,-0.172074,0.406587,-0.00075432,-0.00119536,0.322233,-0.027803272059219508,0.50168378217193,-0.0007540355721897818,0.22386391823887908,-0.0011946458418222727,-0.15808313098503246
390,0.3788,221.904,684.483,-0.00147364,389.75,-0.71896,-1.27157,-0.0282646,0.202471,-0.172464,0.407509,-0.000756745,-0.00119896,0.322972,-0.02786889312361973,0.5030689730939804,-0.0007564587407155043,0.22442457629432688,-0.0011982415346249997,-0.15841141454449326
391,0.3798,221.941,684.578,0.0462091,389.726,-0.69966,-1.26931,-0.0283322,0.202929,-0.172854,0.408429,-0.000758634,-0.00120244,0.323711,-0.02793460696529171,0.5044524328431312,-0.0007583463099820609,0.2249854911899758,-0.0012017173586964525,-0.1587395700983285
392,0.3808,221.888,684.47,-0.0129479,389.751,-0.725481,-1.27612,-0.0283996,0.203386,-0.173244,0.40935,-0.00076118,-0.00120608,0.324449,-0.02800012196490187,0.5058386717988301,-0.0007608903759938057,0.2255454374974355,-0.0012053529778284222,-0.15906759769645074
393,0.3818,221.945,684.611,0.0597563,389.716,-0.696177,-1.27148,-0.0284671,0.203843,-0.173633,0.410269,-0.000762926,-0.00120952,0.325187,-0.028065729742381862,0.5072231736193584,-0.0007626350459560838,0.22610563975883857,-0.0012087888255045698,-0.15939465678383014
394,0.3828,221.867,684.448,-0.0296539,389.754,-0.734288,-1.28109,-0.0285345,0.204299,-0.174023,0.411188,-0.000765655,-0.00121322,0.325925,-0.02813123590461475,0.5086089483818872,-0.0007653619610041851,0.22666487142569847,-0.0012124843461491785,-0.15972242894795785
395,0.3838,221.955,684.656,0.079828,389.704,-0.689926,-1.27311,-0.0286019,0.204756,-0.174411,0.412106,-0.000767185,-0.00121661,0.326661,-0.028196737651881132,0.5099944872615452,-0.000766890788830854,0.2272255853853209,-0.0012158702300881785,-0.1600483934043322
396,0.3848,221.839,684.41,-0.0543405,389.761,-0.746458,-1.28677,-0.0286692,0.205211,-0.1748,0.413024,-0.000770186,-0.00122038,0.327398,-0.028262137810697086,0.5113812986498869,-0.0007698894828920277,0.22778410007912853,-0.0012196356391596108,-0.16037507103637905
397,0.3858,221.973,684.72,0.109699,389.687,-0.679587,-1.2739,-0.0287365,0.205667,-0.175188,0.41394,-0.000771392,-0.00122369,0.328133,-0.02832753356823059,0.5127663581798698,-0.0007710945536786307,0.22834409729842697,-0.001222941596694338,-0.16070078231674245
398,0.3868,221.802,684.35,-0.0909338,389.773,-0.763589,-1.29352,-0.0288037,0.206121,-0.175576,0.414858,-0.000774795,-0.00122757,0.328869,-0.028392827764065265,0.5141557153140333,-0.0007744949238581711,0.22890189212844603,-0.0012268168441629257,-0.16102636724564268
399,0.3878,222.003,684.812,0.154147,389.663,-0.663192,-1.27341,-0.028871,0.206578,-0.175964,0.415771,-0.000775517,-0.00123076,0.329603,-0.028458214726460707,0.5155387707508492,-0.0007752163644123566,0.22946362864016523,-0.0012300029255353229,-0.16135182587209485
400,0.3888,221.923,684.659,0.0615996,389.694,-0.696395,-1.2898,-0.0289382,0.207032,-0.176351,0.416687,-0.000778065,-0.00123455,0.330337,-0.028523500140816616,0.516927640269985,-0.0007777623859174243,0.2300219318528074,-0.0012337882566511027,-0.16167631992183384
401,0.3898,221.895,684.588,0.0357485,389.716,-0.717775,-1.28587,-0.0290053,0.207486,-0.176738,0.417601,-0.000780514,-0.00123805,0.331071,-0.02858868402701331,0.5183147459439195,-0.0007802094781809155,0.23058048859265456,-0.0012372839322747353,-0.16200068841667192
402,0.3908,221.889,684.594,0.0275107,389.71,-0.715955,-1.29098,-0.0290724,0.20794,-0.177125,0.418515,-0.000782663,-0.00124167,0.331804,-0.028653863539518043,0.5197031200120079,-0.0007823567992034652,0.2311392989748342,-0.0012408994467628665,-0.16232493140518967
403,0.3918,221.871,684.563,0.0149662,389.719,-0.726576,-1.2919,-0.0291394,0.208393,-0.177512,0.419428,-0.000785,-0.00124525,0.332536,-0.028718941550523125,0.5210912425420893,-0.000784691968106932,0.2316971314167786,-0.0012444749979425573,-0.16264904893594845
404,0.3928,221.882,684.6,0.0283998,389.708,-0.719185,-1.29392,-0.0292064,0.208847,-0.177898,0.42034,-0.000787084,-0.00124883,0.333268,-0.028784015201447577,0.5224791105268927,-0.0007867743306391173,0.2322564488698966,-0.0012480505363218208,-0.1629722040301136
405,0.3938,221.859,684.559,0.00742882,389.717,-0.730782,-1.29666,-0.0292734,0.2093,-0.178284,0.421252,-0.000789444,-0.00125244,0.334,-0.0288490844925835,0.5238682448246494,-0.0007891324710690428,0.23281478749538542,-0.0012516560243515107,-0.16329523441048366
406,0.3948,221.879,684.616,0.0338158,389.702,-0.719603,-1.29669,-0.0293403,0.209752,-0.17867,0.422163,-0.000791477,-0.001256,0.334731,-0.028914052315633043,0.5252571213328794,-0.000791163864697797,0.23337214573280574,-0.0012552115621271565,-0.16361814012518894
407,0.3958,221.846,684.555,0.000200666,389.716,-0.735404,-1.30105,-0.0294072,0.210205,-0.179055,0.423073,-0.000793903,-0.00125964,0.335461,-0.028979015792480634,0.5266457370376119,-0.0007935879423939252,0.23393098988346606,-0.0012588469865406626,-0.1639400851628443
408,0.3968,221.878,684.638,0.0416145,389.695,-0.718701,-1.29941,-0.029474,0.210657,-0.17944,0.423983,-0.000795859,-0.00126317,0.336191,-0.029043877827809594,0.5280356169577665,-0.000795542388224435,0.23448885275840547,-0.00126237253658823,-0.1642619062755173
409,0.3978,221.832,684.545,-0.00939157,389.716,-0.741257,-1.30556,-0.0295408,0.211108,-0.179825,0.424892,-0.000798387,-0.00126685,0.336921,-0.029108735530499308,0.5294252328183053,-0.0007980683739003958,0.2350457327980091,-0.0012660478842946299,-0.16458360351090984
410,0.3988,221.881,684.666,0.0527795,389.686,-0.716251,-1.30193,-0.0296076,0.21156,-0.18021,0.4258,-0.000800225,-0.00127036,0.337649,-0.02917358890083921,0.530814581598595,-0.0007999049053629692,0.2356040996506361,-0.00126955343431423,-0.16490517691670536
411,0.3998,221.814,684.527,-0.0230832,389.718,-0.748929,-1.3104,-0.0296743,0.21201,-0.180594,0.426708,-0.000802904,-0.00127408,0.338378,-0.029238340862957513,0.5322051924804843,-0.0008025817588320772,0.2361602466191619,-0.0012732687046651536,-0.16522579176677843
412,0.4008,221.887,684.704,0.0690354,389.675,-0.711623,-1.30404,-0.0297411,0.212462,-0.180978,0.427614,-0.000804566,-0.00127755,0.339105,-0.029303185575950352,0.5335939994194165,-0.0008042424235611412,0.23671911734590312,-0.0012767342804098636,-0.16554628352438427
413,0.4018,221.79,684.498,-0.0429596,389.723,-0.759228,-1.31578,-0.0298077,0.212912,-0.181362,0.428522,-0.000807467,-0.00128134,0.339833,-0.029367831831046853,0.5349871351587991,-0.0008071410862493522,0.237275766185304,-0.0012805194344140958,-0.16586665223678143
414,0.4028,221.9,684.756,0.0928263,389.661,-0.703835,-1.30551,-0.0298743,0.213362,-0.181745,0.429426,-0.000808869,-0.00128474,0.340559,-0.029432473780846014,0.5363753909260474,-0.0008085419536555394,0.23783266557305205,-0.0012839150748754635,-0.16618606413769121
415,0.4038,221.759,684.451,-0.0719244,389.732,-0.773338,-1.32198,-0.0299408,0.213811,-0.182129,0.430333,-0.000812092,-0.00128861,0.341286,-0.029497014375341024,0.5377695155455593,-0.0008117623425352161,0.23838857723272255,-0.0012877800986452748,-0.16650618722149657
416,0.4048,221.923,684.829,0.127647,389.642,-0.691445,-1.30603,-0.0300074,0.214262,-0.182511,0.431235,-0.000813112,-0.00129192,0.342011,-0.02956164772186931,0.5391572094044257,-0.0008127815140178685,0.23894721644472794,-0.0012910858306222073,-0.16682452105234524
417,0.4058,221.718,684.38,-0.114133,389.747,-0.792977,-1.32937,-0.0300738,0.21471,-0.182895,0.432142,-0.000816805,-0.00129593,0.342737,-0.029626082689195976,0.5405538582778737,-0.0008164715056021565,0.2395023891470951,-0.0012950906453382816,-0.1671443990157615
418,0.4068,221.741,684.453,-0.0829521,389.726,-0.776777,-1.33278,-0.0301403,0.215159,-0.183277,0.433044,-0.000818928,-0.00129961,0.343462,-0.029690610409126683,0.5419440647469014,-0.0008185927699814188,0.24005905068098454,-0.0012987658726423268,-0.16746248909626404
419,0.4078,221.845,684.686,0.0472943,389.673,-0.729412,-1.31861,-0.0302067,0.215608,-0.183659,0.433946,-0.000820501,-0.00130299,0.344186,-0.029755036813615243,0.5433355257478729,-0.000820164481098784,0.24061596221202275,-0.0013021414771089423,-0.1677804576895613
420,0.4088,221.765,684.521,-0.0470455,389.709,-0.766733,-1.3297,-0.0302731,0.216055,-0.184041,0.434849,-0.000823282,-0.00130679,0.34491,-0.029819458940332555,0.5447297871419015,-0.0008229431963575617,0.24117064150871848,-0.0013059365217606977,-0.16809830484205268
421,0.4098,221.869,684.764,0.0843082,389.652,-0.715492,-1.31863,-0.0303394,0.216504,-0.184422,0.435749,-0.000824762,-0.0013102,0.345633,-0.02988377977794554,0.5461206697536201,-0.0008244219773073658,0.24172805225610428,-0.0013093420627107166,-0.16841519901573443
422,0.4108,221.742,684.491,-0.0653302,389.715,-0.777417,-1.33446,-0.0304057,0.216951,-0.184803,0.436651,-0.00082789,-0.00131409,0.346356,-0.029948096351228193,0.5475158997518699,-0.000827547393627226,0.2422832287681691,-0.001313226961813907,-0.16873197247573335
423,0.4118,221.89,684.833,0.116533,389.634,-0.703762,-1.31964,-0.030472,0.217399,-0.185184,0.437549,-0.000829043,-0.00131744,0.347077,-0.030012408660463508,0.5489061931781674,-0.0008286994388009283,0.24283989633888248,-0.0013165725568997644,-0.16904862526803266
424,0.4128,221.705,684.43,-0.10136,389.728,-0.794908,-1.34118,-0.0305381,0.217845,-0.185565,0.43845,-0.000832598,-0.00132143,0.347799,-0.030076522721258048,0.5503023865488819,-0.0008322514864607111,0.24339432656139892,-0.0013205572958256973,-0.16936515743859804
425,0.4138,221.921,684.924,0.161218,389.61,-0.687051,-1.31945,-0.0306044,0.218293,-0.185945,0.439346,-0.000833257,-0.00132466,0.34852,-0.030140826516107277,0.5516920799769129,-0.0008329099377900606,0.2439514920154413,-0.0013237830252160743,-0.1696807387145315
426,0.4148,221.838,684.763,0.0641209,389.643,-0.722526,-1.33616,-0.0306706,0.218739,-0.186326,0.440245,-0.000835879,-0.00132853,0.349241,-0.030205029068263944,0.5530876783843026,-0.0008355297504655246,0.2445064181202028,-0.0013276478946971926,-0.16999703009574696
427,0.4158,221.806,684.684,0.0341022,389.667,-0.745443,-1.33297,-0.0307367,0.219184,-0.186706,0.441143,-0.000838395,-0.00133212,0.349961,-0.030269130397270305,0.5544829775150368,-0.000838043645110198,0.245060346716238,-0.0013312331220057816,-0.1703123713056861
428,0.4168,221.802,684.692,0.0273802,389.66,-0.743301,-1.33796,-0.0308027,0.21963,-0.187085,0.44204,-0.000840587,-0.00133582,0.350681,-0.030333130522636753,0.5558779743083941,-0.0008402338057181824,0.24561576748049707,-0.0013349281896073428,-0.1706267633359082
429,0.4178,221.783,684.656,0.0123503,389.67,-0.75484,-1.33933,-0.0308687,0.220075,-0.187465,0.442936,-0.000842984,-0.00133948,0.3514,-0.03039712642413428,0.5572726657018119,-0.0008426287888073647,0.24617018984685335,-0.0013385832970813638,-0.17094186529267708
430,0.4188,221.795,684.696,0.0280406,389.658,-0.746689,-1.34117,-0.0309347,0.220521,-0.187844,0.443831,-0.000845104,-0.00134313,0.352118,-0.030461118102041662,0.5586670486308978,-0.0008447470001889945,0.24672610571154774,-0.0013422284045999655,-0.17125601878988306
431,0.4198,221.771,684.651,0.00465042,389.669,-0.759291,-1.34429,-0.0310007,0.220965,-0.188223,0.444726,-0.000847527,-0.00134683,0.352836,-0.030525105556637677,0.5600626800913397,-0.0008471679504340468,0.24727977500797182,-0.0013459234315190693,-0.17157005324547325
432,0.4208,221.793,684.712,0.0334637,389.653,-0.74718,-1.34416,-0.0310666,0.22141,-0.188601,0.44562,-0.000849593,-0.00135046,0.353554,-0.030588991847105063,0.561457999742293,-0.0008492321980526629,0.24783493802245982,-0.0013495485392375217,-0.17188314058811083
433,0.4218,221.758,684.646,-0.00257505,389.668,-0.764078,-1.34888,-0.0311325,0.221854,-0.188979,0.446514,-0.000852083,-0.00135418,0.354271,-0.03065287392760474,0.5628545673667751,-0.0008517200803670466,0.24838909974974133,-0.0013532635120070413,-0.17219610960609755
434,0.4228,221.792,684.733,0.0411721,389.646,-0.746398,-1.34712,-0.0311983,0.222298,-0.189357,0.447407,-0.000854072,-0.00135779,0.354988,-0.030716654870084237,0.5642508198293716,-0.0008537073843194465,0.2489435075794606,-0.0013568686202185543,-0.17250896034415186
435,0.4238,221.745,684.636,-0.0119596,389.668,-0.770007,-1.35358,-0.0312641,0.222741,-0.189735,0.4483,-0.000856664,-0.00136156,0.355704,-0.030780431615915815,0.5656483197023028,-0.000856297168153608,0.24949691212337433,-0.0013606334977270818,-0.17282169284697502
436,0.4248,221.795,684.759,0.0519636,389.638,-0.744186,-1.34989,-0.0313299,0.223185,-0.190112,0.449191,-0.000858539,-0.00136514,0.356419,-0.03084420416537559,0.5670439340090019,-0.0008581705608400325,0.2500518119309987,-0.0013642086202596548,-0.17313348029314524
437,0.4258,221.727,684.618,-0.0250416,389.67,-0.777593,-1.35857,-0.0313955,0.223627,-0.19049,0.450083,-0.000861277,-0.00136895,0.357134,-0.030907778700314803,0.5684423608037652,-0.0008609062074239615,0.2506044569574257,-0.0013680134153766232,-0.1734459767720391
438,0.4268,221.802,684.795,0.0672974,389.627,-0.740017,-1.35231,-0.0314613,0.22407,-0.190867,0.450972,-0.000862984,-0.00137249,0.357849,-0.0309715428706121,0.5698373260326914,-0.0008626117364014529,0.25115859746491775,-0.00137154856635191,-0.17375752890752838
439,0.4278,221.706,684.59,-0.043572,389.675,-0.787512,-1.36404,-0.0315268,0.224512,-0.191243,0.451863,-0.000865932,-0.00137636,0.358563,-0.03103501215591231,0.5712366744073112,-0.0008655571890804348,0.2517117317986799,-0.0013754132509808947,-0.1740681376785509
440,0.4288,221.814,684.843,0.089189,389.614,-0.73308,-1.35417,-0.0315925,0.224955,-0.19162,0.452751,-0.000867397,-0.00137984,0.359276,-0.031098671064395678,0.5726325522522222,-0.0008670209199669321,0.2522663629375934,-0.001378888458495875,-0.17437945530358645
441,0.4298,221.677,684.548,-0.0699127,389.683,-0.800731,-1.37022,-0.031658,0.225395,-0.191996,0.453641,-0.000870642,-0.0013838,0.35999,-0.03116213202307183,0.5740328182496663,-0.0008702631012236228,0.2528174813744508,-0.0013828429902675854,-0.17468983027424123
442,0.4308,221.834,684.908,0.120443,389.596,-0.722212,-1.35523,-0.0317236,0.225838,-0.192371,0.454527,-0.000871761,-0.00138719,0.360702,-0.031225685702627626,0.5754280293138674,-0.0008713811267736515,0.25337260246894355,-0.0013862282966917716,-0.1749992635655201
443,0.4318,221.64,684.484,-0.107353,389.696,-0.818617,-1.3774,-0.031789,0.226278,-0.192747,0.455417,-0.000875429,-0.00139127,0.361415,-0.03128904147102651,0.5768307843933735,-0.0008750459238264785,0.2539242077582944,-0.001390302632568674,-0.17530940553207586
444,0.4328,221.865,684.999,0.164999,389.573,-0.705763,-1.35513,-0.0318546,0.22672,-0.193122,0.456301,-0.000876051,-0.00139454,0.362125,-0.03135258682559561,0.5782253191003037,-0.0008756673793546277,0.25447856476199626,-0.0013935680809400441,-0.17561860652619143
445,0.4338,221.779,684.83,0.0652222,389.608,-0.742894,-1.37189,-0.03192,0.22716,-0.193498,0.457188,-0.000878731,-0.00139847,0.362837,-0.03141593429493239,0.579625825991329,-0.0008783450289779893,0.2550306567818288,-0.0013974925965057894,-0.1759285156635686
446,0.4348,221.746,684.748,0.0330536,389.633,-0.766579,-1.36918,-0.0319853,0.2276,-0.193872,0.458074,-0.000881294,-0.00140213,0.363547,-0.03147918076940304,0.5810259946562819,-0.0008809057744980642,0.2555829917756003,-0.0014011474749944242,-0.1762366607719833
447,0.4358,221.742,684.756,0.0268265,389.626,-0.764498,-1.37411,-0.0320507,0.22804,-0.194247,0.458959,-0.000883523,-0.00140589,0.364258,-0.031542519959766646,0.5824258219937846,-0.0008831328084770718,0.256135569850243,-0.001404902199621083,-0.1765455141105735
448,0.4368,221.723,684.719,0.0109448,389.636,-0.776301,-1.37572,-0.0321159,0.228479,-0.194621,0.459843,-0.000885962,-0.00140961,0.364967,-0.031605661329034196,0.5838253049007358,-0.0008855696515444045,0.25668713442497326,-0.0014086169664754289,-0.1768534285047153
449,0.4378,221.735,684.759,0.0271464,389.624,-0.768074,-1.37753,-0.0321812,0.228919,-0.194995,0.460726,-0.000888118,-0.00141333,0.365676,-0.031668895414734055,0.5852244402723221,-0.0008877237399341764,0.2572401984292785,-0.0014123317195108287,-0.17716122776040588
450,0.4388,221.711,684.713,0.00340706,389.635,-0.780822,-1.38081,-0.0322464,0.229357,-0.195369,0.46161,-0.00089058,-0.00141708,0.366385,-0.031732028544590674,0.5866263982516524,-0.0008901835513303036,0.257790990250794,-0.0014160764162456374,-0.17746891192069902
451,0.4398,221.733,684.774,0.0322709,389.619,-0.768748,-1.38073,-0.0323116,0.229796,-0.195742,0.462492,-0.000892685,-0.00142077,0.367093,-0.03179515755830131,0.5880264200537659,-0.0008922866752804071,0.2583432817146205,-0.0014197611841252344,-0.17777565880470236
452,0.4408,221.7,684.708,-0.00344958,389.634,-0.785579,-1.38552,-0.0323767,0.230234,-0.196116,0.463374,-0.000895211,-0.00142456,0.367801,-0.03185818564195786,0.5894276772198241,-0.0008948104181767391,0.25889455679244033,-0.001423545796058523,-0.17808311321075165
453,0.4418,221.733,684.793,0.0394819,389.613,-0.768237,-1.3839,-0.0324419,0.230673,-0.196488,0.464255,-0.000897243,-0.00142824,0.368508,-0.031921306430493956,0.5908285800105237,-0.0008968405978593275,0.25944733282833443,-0.001427220550648367,-0.1783888094296152
454,0.4428,221.686,684.698,-0.0121751,389.634,-0.791353,-1.39031,-0.0325069,0.23111,-0.196861,0.465136,-0.000899866,-0.00143206,0.369214,-0.03198422950055402,0.5922307175404045,-0.0008994612420094583,0.2599978315879987,-0.001431035091380095,-0.17869521325583193
455,0.4438,221.735,684.818,0.0494032,389.605,-0.766456,-1.38692,-0.032572,0.231548,-0.197234,0.466015,-0.000901792,-0.00143571,0.36992,-0.03204724527602787,0.5936309036327567,-0.0009013855077940613,0.26054983151739397,-0.0014346798614502942,-0.1790015028147336
456,0.4448,221.671,684.683,-0.0241158,389.636,-0.798584,-1.39536,-0.0326369,0.231984,-0.197606,0.466895,-0.00090455,-0.00143958,0.370626,-0.03211006337134015,0.5950339160628817,-0.0009041410179729814,0.26109955107409055,-0.0014385443017616018,-0.1793068574562019
457,0.4458,221.741,684.85,0.0632501,389.595,-0.76297,-1.38963,-0.0327019,0.232422,-0.197978,0.467773,-0.000906323,-0.00144319,0.371331,-0.0321729741725979,0.5964349708142165,-0.0009059124133605767,0.2616520336623154,-0.0014421491021099353,-0.179612098526869
458,0.4468,221.651,684.658,-0.0407248,389.64,-0.807829,-1.40082,-0.0327668,0.232858,-0.198349,0.468652,-0.000909272,-0.00144711,0.372036,-0.03223578410836958,0.5978388540698616,-0.000908858737480478,0.2622022338839245,-0.001446063441213341,-0.1799164059857915
459,0.4478,221.751,684.893,0.0826683,389.583,-0.757122,-1.39188,-0.0328317,0.233295,-0.198721,0.469529,-0.000910829,-0.00145067,0.37274,-0.0322985899679088,0.5992407733966509,-0.0009104143211764448,0.26275393679843884,-0.001449618286899934,-0.18022142034657618
460,0.4488,221.626,684.62,-0.0639116,389.647,-0.819869,-1.40688,-0.0328965,0.23373,-0.199092,0.470407,-0.000914042,-0.00145467,0.373444,-0.03236129498761431,0.6006455233906991,-0.000913624390858292,0.26330335425057827,-0.0014536124804384043,-0.18052550178903226
461,0.4498,221.768,684.95,0.1099,389.568,-0.747979,-1.39346,-0.0329614,0.234166,-0.199462,0.471282,-0.000915295,-0.00145816,0.374147,-0.03242409270176172,0.6020467011495372,-0.0009148762453026205,0.2638542746049415,-0.001457097401249663,-0.18082865126725833
462,0.4508,221.593,684.566,-0.0962813,389.658,-0.835791,-1.41376,-0.033026,0.234601,-0.199833,0.472159,-0.000918878,-0.00146227,0.37485,-0.03248659608649207,0.6034523123768771,-0.0009184559608879095,0.2644041708081477,-0.001461201404145518,-0.18113250746882759
463,0.4518,221.795,685.028,0.148034,389.547,-0.734241,-1.3941,-0.0330909,0.235037,-0.200203,0.473032,-0.000919703,-0.00146564,0.375552,-0.03254938566886212,0.6048527374421813,-0.0009192802028217262,0.2649555712231757,-0.0014645664742266584,-0.18143543239649662
464,0.4528,221.716,684.872,0.0555852,389.58,-0.768797,-1.40998,-0.0331556,0.235471,-0.200574,0.473907,-0.000922402,-0.00146963,0.376254,-0.03261197769873536,0.6062575981243585,-0.000921976718045503,0.26550468108930847,-0.0014685506226580491,-0.1817390635240207
465,0.4538,221.69,684.809,0.0325793,389.6,-0.788236,-1.40697,-0.0332202,0.235906,-0.200943,0.474781,-0.000924948,-0.00147334,0.376955,-0.032674468946486956,0.6076620809347031,-0.0009245203674547176,0.2660552953755071,-0.0014722551674632989,-0.18204094610881805
466,0.4548,221.682,684.805,0.0212653,389.596,-0.788749,-1.41225,-0.0332848,0.23634,-0.201313,0.475655,-0.000927256,-0.00147717,0.377656,-0.03273695615743433,0.6090677917996057,-0.0009268262310008213,0.26660488262550674,-0.0014760795214023847,-0.18234353497636524
467,0.4558,221.67,684.785,0.0140753,389.602,-0.79669,-1.41328,-0.0333494,0.236774,-0.201682,0.476527,-0.000929679,-0.00148095,0.378356,-0.032799439331838376,0.6104715108466121,-0.0009292469823680705,0.2671547084481394,-0.0014798539346881912,-0.1826451945523443
468,0.4568,221.674,684.806,0.0203502,389.595,-0.792859,-1.41596,-0.0334139,0.237207,-0.202051,0.477399,-0.000931938,-0.00148475,0.379056,-0.0328618217561466,0.6118764544704658,-0.0009315038806499976,0.26770350524282915,-0.0014836483040339132,-0.1829467428364745
469,0.4578,221.661,684.784,0.00899544,389.6,-0.800347,-1.41828,-0.0334784,0.237641,-0.20242,0.478271,-0.000934364,-0.00148855,0.379755,-0.032924200156918326,0.6132826237394629,-0.0009339276178815803,0.2682538079711587,-0.0014874426589610579,-0.1832481798698149
470,0.4588,221.671,684.815,0.0229423,389.591,-0.794646,-1.41956,-0.0335429,0.238074,-0.202789,0.479142,-0.000936601,-0.00149233,0.380454,-0.032986574534412894,0.6146884050336201,-0.0009361625261857798,0.2688030807789914,-0.0014912170292942228,-0.18354950569340944
471,0.4598,221.652,684.783,0.00526884,389.598,-0.803924,-1.42286,-0.0336073,0.238506,-0.203157,0.480012,-0.000939058,-0.00149616,0.381153,-0.03304884819377951,0.6160937952020775,-0.0009386172230188006,0.2693513221214916,-0.0014950413106095128,-0.18384990419859915
472,0.4608,221.668,684.827,0.0264725,389.586,-0.795749,-1.42324,-0.0336717,0.238939,-0.203525,0.480882,-0.000941263,-0.00149993,0.381851,-0.03311111784285159,0.6175004085920057,-0.0009408201509391034,0.26990107025585197,-0.0014988056672079475,-0.18415019217747708
473,0.4618,221.643,684.782,0.000943424,389.597,-0.807969,-1.42742,-0.0337361,0.239371,-0.203893,0.481751,-0.000943768,-0.00150378,0.382548,-0.033173383481887475,0.6189066273606338,-0.0009433227910501385,0.27044978603227654,-0.0015026498894060714,-0.1844503696707095
474,0.4628,221.666,684.842,0.0311423,389.581,-0.79625,-1.42689,-0.0338004,0.239803,-0.20426,0.482619,-0.000945926,-0.00150755,0.383245,-0.03323554843470489,0.6203124483512279,-0.000945478753033191,0.2709987389051258,-0.0015064142173201178,-0.18474962146897644
475,0.4638,221.633,684.777,-0.00473489,389.596,-0.812683,-1.43208,-0.0338647,0.240234,-0.204627,0.483488,-0.000948496,-0.00151142,0.383942,-0.03329770939044441,0.6217211118444854,-0.0009480463198534572,0.271546657429554,-0.001510278380019936,-0.18504876346198407
476,0.4648,221.666,684.86,0.0375017,389.575,-0.795991,-1.43044,-0.0339289,0.240665,-0.204994,0.484354,-0.000950586,-0.00151517,0.384638,-0.03335976968534471,0.623126130612661,-0.0009501343362546821,0.27209481215776465,-0.0015140227094554426,-0.18534779569002335
477,0.4658,221.621,684.768,-0.0124262,389.596,-0.818295,-1.43691,-0.0339931,0.241096,-0.205361,0.485222,-0.000953246,-0.00151908,0.385333,-0.033421825996102106,0.6245356157220752,-0.0009527918053628959,0.2726432031915833,-0.0015179267819941389,-0.18564671819337053
478,0.4668,221.668,684.882,0.0462558,389.568,-0.794705,-1.4338,-0.0340573,0.241527,-0.205728,0.486087,-0.000955239,-0.00152281,0.386028,-0.03348387832297206,0.6259414469640305,-0.0009547829044647127,0.27319183063287955,-0.001521651113181366,-0.1859455310122874
479,0.4678,221.607,684.754,-0.022934,389.597,-0.825123,-1.44201,-0.0341214,0.241957,-0.206094,0.486953,-0.000958022,-0.00152676,0.386723,-0.03354583002079847,0.6273501221254092,-0.0009575632434351,0.27373942084350955,-0.001525595094870158,-0.18624342043084796
480,0.4688,221.673,684.91,0.0583256,389.559,-0.792016,-1.4369,-0.0341855,0.242388,-0.20646,0.487818,-0.000959882,-0.00153046,0.387417,-0.03360777774764834,0.628758388968649,-0.0009594214606393203,0.27428852085644584,-0.0015292894433337478,-0.186541200841831
481,0.4698,221.59,684.733,-0.0373181,389.601,-0.833609,-1.44746,-0.0342495,0.242817,-0.206826,0.488683,-0.000962832,-0.00153445,0.388111,-0.03366962487074343,0.6301678744897103,-0.0009623686259989661,0.2748353079093302,-0.0015332733335210458,-0.18683887228512586
482,0.4708,221.681,684.947,0.074945,389.549,-0.787406,-1.43961,-0.0343136,0.243247,-0.207191,0.489545,-0.000964505,-0.00153811,0.388804,-0.033731564662597635,0.6315736850148086,-0.0009640400145580763,0.2753836049671503,-0.0015369277150530936,-0.1871356219366358
483,0.4718,221.568,684.702,-0.0570033,389.606,-0.844351,-1.4534,-0.0343775,0.243675,-0.207556,0.49041,-0.000967684,-0.00154217,0.389497,-0.03379330724291929,0.6329856068204911,-0.0009672159448267381,0.2759295859816788,-0.0015409814668974064,-0.18743226329428786
484,0.4728,221.695,684.996,0.0977828,389.535,-0.780169,-1.44179,-0.0344416,0.244105,-0.207921,0.491271,-0.000969098,-0.00154577,0.390188,-0.03385523910698751,0.6343922128849786,-0.0009686285761846269,0.2764783536802504,-0.0015445759128941416,-0.18772879639760198
485,0.4738,221.54,684.656,-0.0839146,389.615,-0.858164,-1.46,-0.0345054,0.244533,-0.208286,0.492135,-0.000972589,-0.00154992,0.390881,-0.033916877176457194,0.6358049379662636,-0.0009721161886147023,0.27702480334751267,-0.0015487194943061278,-0.1880252212860838
486,0.4748,221.716,685.061,0.1291,389.518,-0.769345,-1.44325,-0.0345694,0.244962,-0.20865,0.492994,-0.000973649,-0.00155343,0.391571,-0.03397870451782181,0.6372106980955119,-0.0009731751576103065,0.27757276451741575,-0.001552224052150275,-0.18832072632035657
487,0.4758,221.505,684.593,-0.120651,389.629,-0.876147,-1.46749,-0.0346331,0.245389,-0.209015,0.493857,-0.000977564,-0.0015577,0.392263,-0.034040238114478205,0.6386242207752755,-0.0009770863399733987,0.27811840457372616,-0.001556487415051211,-0.1886169351938417
488,0.4768,221.537,684.684,-0.0789577,389.604,-0.855988,-1.46971,-0.0346969,0.245817,-0.209379,0.494717,-0.000979767,-0.00156159,0.392953,-0.034101864381387736,0.6400340437421261,-0.0009792871850279328,0.2786655563330078,-0.001560371352760992,-0.18891222488344728
489,0.4778,221.628,684.888,0.0344137,389.557,-0.814198,-1.45803,-0.0347607,0.246245,-0.209742,0.495576,-0.000981561,-0.00156524,0.393643,-0.0341634867166668,0.6414434382339709,-0.0009810794265791012,0.27921294232336424,-0.001564015650754702,-0.18920659631416747
490,0.4788,221.566,684.759,-0.0385555,389.586,-0.843863,-1.46729,-0.0348243,0.246672,-0.210106,0.496436,-0.000984375,-0.00156925,0.394332,-0.03422491196556798,0.6428556867706814,-0.0009838906618662158,0.2797592828851452,-0.001568019371024465,-0.18950167140618435
491,0.4798,221.648,684.95,0.0637199,389.54,-0.803729,-1.45939,-0.0348881,0.247099,-0.210469,0.497293,-0.00098616,-0.00157294,0.395021,-0.03428652645066155,0.6442642175634807,-0.0009856739040298157,0.28030585678415987,-0.0015717035782355504,-0.18979582890664748
492,0.4808,221.553,684.745,-0.0477354,389.588,-0.851039,-1.47192,-0.0349517,0.247525,-0.210832,0.498152,-0.000989222,-0.00157701,0.39571,-0.03434794387448459,0.6456772473357677,-0.0009887328812130391,0.2808513832680408,-0.0015757671731325695,-0.19008987964731605
493,0.4818,221.66,684.994,0.083835,389.528,-0.797332,-1.46205,-0.0350154,0.247952,-0.211194,0.499008,-0.00099081,-0.00158067,0.396398,-0.03440945395134298,0.6470865501550398,-0.000990319309845611,0.2813984235934941,-0.0015794213991374706,-0.19038301405035563
494,0.4828,221.531,684.71,-0.068598,389.595,-0.862649,-1.47791,-0.0350789,0.248377,-0.211557,0.499867,-0.000994137,-0.00158482,0.397085,-0.03447076700430707,0.6485020053525938,-0.0009936430095242033,0.2819431336662128,-0.0015835648359410204,-0.19067685168149873
495,0.4838,221.677,685.048,0.10922,389.513,-0.788887,-1.46418,-0.0351425,0.248804,-0.211919,0.500721,-0.000995436,-0.00158841,0.397772,-0.034532172710803444,0.6499104273757701,-0.0009949407179391523,0.2824906402686289,-0.0015871491445094144,-0.19096977363911694
496,0.4848,221.501,684.66,-0.0981028,389.605,-0.877762,-1.48479,-0.0352059,0.249228,-0.212281,0.501579,-0.000999111,-0.00159265,0.398459,-0.03459338143071666,0.6513266579985142,-0.0009986120547859079,0.2830345315969163,-0.0015913824060225235,-0.191262589578177
497,0.4858,221.701,685.118,0.143639,389.495,-0.776699,-1.4655,-0.0352695,0.249655,-0.212643,0.502431,-0.00100002,-0.00159615,0.399145,-0.034654779339183484,0.6527341878336943,-0.000999520146634847,0.2835825043257598,-0.0015948768300688698,-0.19155529953705064
498,0.4868,221.622,684.962,0.0518302,389.528,-0.811643,-1.48112,-0.0353329,0.25008,-0.213004,0.503286,-0.0010028,-0.00160026,0.399831,-0.034715980286082804,0.654147879831501,-0.0010022973641085065,0.2841281428300675,-0.0015989802666925845,-0.19184709540159528
499,0.4878,221.599,684.903,0.0308641,389.547,-0.829859,-1.47852,-0.0353963,0.250504,-0.213366,0.504141,-0.00100541,-0.00160411,0.400516,-0.03477717735296515,0.6555627810528348,-0.0010049047447097115,0.28467272860665327,-0.0016028241032191026,-0.19213959380765422
500,0.4888,221.59,684.894,0.0178763,389.544,-0.831598,-1.48393,-0.0354597,0.250928,-0.213727,0.504994,-0.00100781,-0.00160806,0.401201,-0.034838370540076435,0.6569755785775537,-0.0010073023300611883,0.2852175453365673,-0.0016067677642751521,-0.19243117878003546
501,0.4898,221.581,684.88,0.0135409,389.549,-0.838131,-1.48502,-0.035523,0.251352,-0.214087,0.505847,-0.00101029,-0.00161196,0.401885,-0.034899463337613845,0.6583895817326892,-0.001009779828879287,0.2857625931177541,-0.0016106614902881011,-0.1927218512314941
502,0.4908,221.583,684.893,0.0162683,389.544,-0.836092,-1.48804,-0.0355863,0.251776,-0.214448,0.506699,-0.00101265,-0.00161589,0.402569,-0.034960552268099465,0.6598031317431214,-0.0010121374430169805,0.2863078720482002,-0.0016145851526785382,-0.1930132260468811
503,0.4918,221.573,684.879,0.00947238,389.547,-0.841613,-1.49019,-0.0356495,0.2522,-0.214808,0.50755,-0.00101513,-0.00161982,0.403253,-0.03502154083393716,0.661216225394303,-0.0010146149298440044,0.2868533822259338,-0.0016185087996488656,-0.19330368899903583
504,0.4928,221.579,684.9,0.0177817,389.541,-0.838461,-1.49207,-0.0357127,0.252623,-0.215168,0.508401,-0.00101748,-0.00162373,0.403936,-0.03508252554541924,0.6626305221000091,-0.0010169625427405293,0.2873978363505445,-0.0016224124636478043,-0.1935940474033475
505,0.4938,221.567,684.881,0.00704299,389.545,-0.844862,-1.49496,-0.0357759,0.253046,-0.215528,0.509252,-0.00101997,-0.00162768,0.404618,-0.035143506402789404,0.6640460228844745,-0.0010194500074068857,0.28794252082796623,-0.0016263560473299687,-0.1938843012974466
506,0.4948,221.575,684.908,0.019793,389.537,-0.840351,-1.49621,-0.0358391,0.253468,-0.215887,0.510102,-0.00102231,-0.00163159,0.4053,-0.03520448340629112,0.6654610633109102,-0.0010217876191588315,0.2884861472688671,-0.0016302596806462288,-0.19417364489299782
507,0.4958,221.56,684.881,0.00452339,389.543,-0.848349,-1.49966,-0.0359022,0.253891,-0.216247,0.510951,-0.00102483,-0.00163556,0.405982,-0.03526536008270886,0.6668756401565632,-0.0010243050410820853,0.289031292199186,-0.0016342232006476554,-0.19446369016955412
508,0.4968,221.573,684.918,0.0223113,389.533,-0.841917,-1.50037,-0.0359652,0.254313,-0.216606,0.5118,-0.00102714,-0.00163947,0.406663,-0.03532613645054794,0.6682914184879165,-0.0010266126722721092,0.2895753781985655,-0.0016381268032034102,-0.19475282580183184
509,0.4978,221.553,684.881,0.00140748,389.542,-0.852178,-1.50439,-0.0360283,0.254735,-0.216965,0.512648,-0.0010297,-0.00164345,0.407344,-0.03538700545090079,0.6697067296179002,-0.0010291700408702198,0.29011969385069003,-0.0016421002755515612,-0.1950418576530475
510,0.4988,221.571,684.929,0.0256091,389.529,-0.843112,-1.50451,-0.0360913,0.255156,-0.217323,0.513495,-0.00103198,-0.00164736,0.408024,-0.035447774155323075,0.6711215703183384,-0.0010314476917659965,0.29066294858889963,-0.001646003847307953,-0.1953299810908351
511,0.4998,221.545,684.878,-0.0026372,389.541,-0.856447,-1.50921,-0.0361542,0.255577,-0.217681,0.514343,-0.00103459,-0.00165136,0.408704,-0.03550844258228669,0.6725392824349488,-0.001034054996285061,0.29120643208550434,-0.0016499972553057907,-0.1956180013988933
512,0.5008,221.57,684.942,0.0300078,389.524,-0.843828,-1.50857,-0.0362172,0.255999,-0.218039,0.515189,-0.00103682,-0.00165527,0.409383,-0.035569203636410696,0.673954849368273,-0.0010362826878584919,0.2917514361876219,-0.0016539007961851038,-0.19590591861413587
513,0.5018,221.536,684.873,-0.00796445,389.54,-0.861286,-1.51416,-0.03628,0.256419,-0.218397,0.516035,-0.00103949,-0.00165929,0.410062,-0.03562976798868178,0.6753716143779376,-0.0010389499174229266,0.29229408573924953,-0.0016579141394370556,-0.19619373277346353
514,0.5028,221.57,684.958,0.0358963,389.519,-0.843911,-1.51253,-0.0363429,0.25684,-0.218755,0.51688,-0.00104166,-0.00166319,0.41074,-0.035690424968593315,0.6767879016892038,-0.0010411176605495953,0.29283825608916714,-0.0016618076659795644,-0.19648144391376365
515,0.5038,221.525,684.864,-0.0150113,389.541,-0.866876,-1.51928,-0.0364057,0.25726,-0.219112,0.517725,-0.00104442,-0.00166724,0.411418,-0.03575098170840374,0.6782053862690229,-0.001043874783260068,0.2933813622010244,-0.0016658509274708466,-0.196768248840561
516,0.5048,221.573,684.978,0.0437712,389.513,-0.843153,-1.51634,-0.0364685,0.25768,-0.219469,0.518569,-0.0010465,-0.00167112,0.412095,-0.035811534645370346,0.6796223895062847,-0.0010459526098396399,0.29392469646535724,-0.0016697244564546354,-0.19705495139627371
517,0.5058,221.513,684.851,-0.0243414,389.542,-0.873453,-1.52461,-0.0365312,0.258099,-0.219826,0.519413,-0.00104937,-0.00167521,0.412773,-0.03587198736693542,0.6810405891991123,-0.001048819603841511,0.29446696451039833,-0.0016738076189315443,-0.19734155161744182
518,0.5068,221.577,685.003,0.0542781,389.505,-0.841281,-1.51993,-0.036594,0.258519,-0.220183,0.520256,-0.00105133,-0.00167906,0.413449,-0.03593253270498531,0.682458303898595,-0.0010507775462362812,0.2950107548234646,-0.0016776511673733951,-0.19762804954059232
519,0.5078,221.498,684.833,-0.0366894,389.545,-0.88133,-1.53023,-0.0366566,0.258937,-0.220539,0.521099,-0.00105435,-0.0016832,0.414125,-0.035992881439502855,0.6838772142354594,-0.001053794368332639,0.29555218246947557,-0.0016817842133420857,-0.19791364311628312
520,0.5088,221.584,685.034,0.0682627,389.496,-0.837932,-1.52324,-0.0367193,0.259357,-0.220895,0.52194,-0.00105615,-0.00168702,0.414801,-0.03605332279098039,0.6852939506267814,-0.0010555924698845143,0.2960964286698142,-0.001685597781642456,-0.1981991350387564
521,0.5098,221.48,684.807,-0.0530166,389.55,-0.890919,-1.53623,-0.0367819,0.259774,-0.221251,0.522782,-0.00105937,-0.00169122,0.415477,-0.03611366396427529,0.6867135657072867,-0.0010588090656979965,0.29663701358469097,-0.0016897906933266427,-0.19848452534419414
522,0.5108,221.595,685.074,0.0868321,389.485,-0.832634,-1.52616,-0.0368445,0.260193,-0.221607,0.523622,-0.00106096,-0.00169498,0.416151,-0.03617400136033089,0.6881310003416823,-0.0010603973809288902,0.29718041832872677,-0.0016935443326567823,-0.1987698140687656
523,0.5118,221.458,684.77,-0.074578,389.557,-0.902754,-1.5427,-0.036907,0.26061,-0.221962,0.524464,-0.00106442,-0.00169926,0.416826,-0.036234238602812496,0.6895530052240129,-0.0010638537059745046,0.29772145536155104,-0.0016978170751433819,-0.19905420030322785
524,0.5128,221.612,685.125,0.111436,389.471,-0.824765,-1.52856,-0.0369696,0.261029,-0.222317,0.525302,-0.00106573,-0.00170295,0.417499,-0.03629456845113199,0.690969444047367,-0.0010651623114690256,0.29826531458189764,-0.001701500803401923,-0.19933848559849476
525,0.5138,221.43,684.721,-0.103011,389.567,-0.917537,-1.5498,-0.0370319,0.261445,-0.222672,0.526143,-0.00106954,-0.00170733,0.418173,-0.03635460542934621,0.6923921475127639,-0.0010689682459502636,0.29880550530464367,-0.0017058733412524951,-0.19962266999039324
526,0.5148,221.635,685.191,0.143968,389.454,-0.813513,-1.53029,-0.0370945,0.261864,-0.223027,0.526979,-0.00107047,-0.00171092,0.418846,-0.0364149277429382,0.6938075789159743,-0.0010698972513778493,0.299349818837088,-0.0017094572107342332,-0.19990675351473752
527,0.5158,221.556,685.03,0.0506577,389.489,-0.849697,-1.5459,-0.0371569,0.26228,-0.223381,0.527818,-0.00107334,-0.00171515,0.419518,-0.036475053575501515,0.6952292797948065,-0.0010727641766586915,0.2998904608074573,-0.0017136799707990757,-0.2001899363976658
528,0.5168,221.533,684.971,0.0293331,389.507,-0.867839,-1.54377,-0.0372192,0.262697,-0.223736,0.528656,-0.00107602,-0.00171912,0.420191,-0.03653507930984268,0.6966504773298727,-0.001075441298063362,0.30043262816365135,-0.0017176431596226394,-0.20047381857817625
529,0.5178,221.523,684.96,0.0159017,389.506,-0.870162,-1.54924,-0.0372815,0.263113,-0.22409,0.529493,-0.0010785,-0.00172319,0.420862,-0.03659510130469723,0.6980711682556093,-0.0010779186278970787,0.3009737206764067,-0.0017217061605467876,-0.20075680075559899
530,0.5188,221.515,684.947,0.0122182,389.51,-0.876287,-1.55051,-0.0373438,0.263529,-0.224443,0.530329,-0.00108105,-0.00172721,0.421534,-0.036655119560297766,0.6994913493052366,-0.001080465875956782,0.30151503833047366,-0.0017257192312216674,-0.2010388838143432
531,0.5198,221.516,684.958,0.0139096,389.506,-0.874917,-1.55369,-0.037406,0.263945,-0.224797,0.531165,-0.00108349,-0.00173126,0.422204,-0.03671503774838625,0.7009127181226389,-0.0010829032366465041,0.3020565812195304,-0.0017297622338717789,-0.20132166599407397
532,0.5208,221.508,684.947,0.0085147,389.509,-0.879825,-1.55591,-0.0374683,0.26436,-0.22515,0.532001,-0.00108603,-0.0017353,0.422875,-0.036775048532179166,0.7023352757012056,-0.0010854404828499753,0.30259704683959576,-0.0017337952374856247,-0.2016035496905786
533,0.5218,221.513,684.963,0.0150044,389.503,-0.877587,-1.55805,-0.0375304,0.264775,-0.225503,0.532835,-0.00108846,-0.00173934,0.423545,-0.03683486294440863,0.7037556155205178,-0.0010878678422803212,0.3031377367994408,-0.0017378282248062815,-0.20188533389969876
534,0.5228,221.503,684.948,0.00656024,389.507,-0.88306,-1.56089,-0.0375926,0.26519,-0.225856,0.53367,-0.00109102,-0.00174341,0.424214,-0.03689476995280616,0.7051788455753327,-0.0010904250540654248,0.30367865119218584,-0.0017418911435773676,-0.20216701865654763
535,0.5238,221.51,684.97,0.016463,389.501,-0.87985,-1.56252,-0.0376547,0.265605,-0.226209,0.534503,-0.00109344,-0.00174744,0.424883,-0.03695457693056625,0.7065998513204215,-0.0010928424123117786,0.30421979011098976,-0.001745914115649727,-0.20244860399622533
536,0.5248,221.498,684.949,0.0046851,389.505,-0.88645,-1.56581,-0.0377168,0.266019,-0.226561,0.535336,-0.00109602,-0.00175152,0.425552,-0.037014380194428265,0.7080220412564431,-0.0010954195894538055,0.304759848888549,-0.00174998698401152,-0.20272929268351159
537,0.5258,221.507,684.977,0.0182175,389.497,-0.881888,-1.56704,-0.0377788,0.266434,-0.226913,0.536169,-0.00109843,-0.00175556,0.42622,-0.03707408345203611,0.7094454163702393,-0.0010978269465917734,0.30530143659751463,-0.0017540199059175032,-0.2030098825857669
538,0.5268,221.492,684.949,0.0024696,389.503,-0.890069,-1.57074,-0.0378408,0.266847,-0.227265,0.537001,-0.00110103,-0.00175966,0.426888,-0.03713378300815673,0.7108682667803521,-0.0011004240888653483,0.3058406374281366,-0.0017581127060456447,-0.20329037373775782
539,0.5278,221.505,684.985,0.0204437,389.494,-0.883689,-1.57155,-0.0379028,0.267261,-0.227616,0.537832,-0.00110342,-0.0017637,0.427555,-0.0371934788630196,0.7122905892031632,-0.0011028114559988866,0.30638136737540766,-0.0017621455951238874,-0.20356996974460617
540,0.5288,221.486,684.948,-0.000309998,389.502,-0.89397,-1.57573,-0.0379647,0.267674,-0.227968,0.538663,-0.00110606,-0.00176781,0.428222,-0.03725307474216644,0.713714094067144,-0.0011054485410957327,0.3069210143095551,-0.0017662483442744126,-0.20385026378061155
541,0.5298,221.504,684.995,0.0233375,389.49,-0.885197,-1.57603,-0.0380266,0.268087,-0.228319,0.539494,-0.00110842,-0.00177185,0.428888,-0.03731266693244262,0.7151387823553115,-0.0011078059294554743,0.30746088416391615,-0.0017702812004847246,-0.20412966330054028
542,0.5308,221.479,684.946,-0.00386162,389.502,-0.898225,-1.58081,-0.0380885,0.2685,-0.22867,0.540324,-0.0011111,-0.00177598,0.429555,-0.037372255434076296,0.7165629384877028,-0.0011104829569483776,0.30800097703057583,-0.0017744038807100404,-0.20440896476844672
543,0.5318,221.503,685.006,0.0271188,389.486,-0.886327,-1.58046,-0.0381503,0.268913,-0.229021,0.541153,-0.00111343,-0.00178002,0.43022,-0.03743174399047522,0.7179865591729524,-0.0011128103668116562,0.30854129300165734,-0.0017784367039720417,-0.20468816821874092
544,0.5328,221.471,684.941,-0.00842597,389.501,-0.902932,-1.58599,-0.0382121,0.269325,-0.229371,0.541982,-0.00111617,-0.00178417,0.430885,-0.03749122887059486,0.7194113605290702,-0.0011155473139615735,0.30908052308814415,-0.001782579314863808,-0.20496647865269735
545,0.5338,221.503,685.02,0.0320555,389.482,-0.88697,-1.58481,-0.0382739,0.269737,-0.229721,0.54281,-0.00111843,-0.0017882,0.43155,-0.037550710074662486,0.7208356226987558,-0.0011178047902736798,0.30961997538319874,-0.0017866021229631102,-0.20524469169504644
546,0.5348,221.463,684.934,-0.014303,389.502,-0.908217,-1.5913,-0.0383355,0.270149,-0.230071,0.543638,-0.00112125,-0.00179238,0.432214,-0.03760999512492358,0.722261064645878,-0.0011206216340924335,0.3101596499783892,-0.001790774646245663,-0.20552280737986917
547,0.5358,221.505,685.036,0.0384849,389.477,-0.88698,-1.58905,-0.0383973,0.27056,-0.230421,0.544464,-0.00112344,-0.0017964,0.432878,-0.03766946898946355,0.7236842399757701,-0.0011228091775357107,0.310698236266431,-0.0017947874392658658,-0.20580082574123482
548,0.5368,221.453,684.923,-0.0218709,389.503,-0.91424,-1.59678,-0.0384589,0.270971,-0.230771,0.545292,-0.00112635,-0.00180061,0.433541,-0.03772874672440085,0.7251120415547507,-0.0011257159059316901,0.3112370439589327,-0.0017989898743646648,-0.2060787468132007
549,0.5378,221.508,685.056,0.0468352,389.47,-0.886176,-1.59314,-0.0385205,0.271382,-0.23112,0.546117,-0.00112845,-0.00180461,0.434204,-0.03778802080794208,0.7265358462277045,-0.0011278135397257971,0.31177607314691014,-0.0018029826704195617,-0.20635577698598595
550,0.5388,221.441,684.909,-0.0316109,389.505,-0.921209,-1.60248,-0.0385821,0.271793,-0.231469,0.546943,-0.00113148,-0.00180887,0.434867,-0.037847291240312275,0.7279625539858754,-0.0011308401178654615,0.3123153239214167,-0.0018072349806559362,-0.20663271049211007
551,0.5398,221.514,685.08,0.0576525,389.463,-0.884322,-1.59704,-0.0386437,0.272204,-0.231818,0.547767,-0.00113345,-0.00181284,0.435529,-0.03790655802173626,0.7293869819140701,-0.0011328078881721604,0.3128547963735433,-0.0018111977980669325,-0.2069095473653041
552,0.5408,221.427,684.889,-0.0441344,389.509,-0.929388,-1.60844,-0.0387051,0.272613,-0.232167,0.548593,-0.00113663,-0.00181714,0.436191,-0.03796562874558396,0.7308160456832165,-0.0011359842807926457,0.3133918638080637,-0.001815490000688147,-0.20718628763928681
553,0.5418,221.522,685.111,0.0716302,389.455,-0.881118,-1.60067,-0.0387667,0.273024,-0.232515,0.549416,-0.00113845,-0.00182108,0.436852,-0.03802488823764216,0.7322410936156025,-0.0011378022116469433,0.31393177880902123,-0.0018194228399097678,-0.20746213881030073
554,0.5428,221.41,684.862,-0.0602181,389.514,-0.93911,-1.61473,-0.038828,0.273432,-0.232863,0.55024,-0.00114182,-0.00182544,0.437513,-0.038083855504627895,0.7336690485133639,-0.0011411683715815135,0.3144679723508199,-0.0018237748977387724,-0.20773789400180842
555,0.5438,221.534,685.149,0.0896523,389.444,-0.876184,-1.60398,-0.0388895,0.273843,-0.233211,0.551062,-0.00114343,-0.00182933,0.438173,-0.03814301152844801,0.7350947103379772,-0.0011427765330058737,0.3150083297232895,-0.0018276577957021534,-0.20801355324720516
556,0.5448,221.389,684.827,-0.0808463,389.521,-0.950799,-1.62145,-0.0389508,0.274251,-0.233559,0.551886,-0.00114705,-0.00183377,0.438833,-0.038201971554698066,0.7365250175849527,-0.001146392389610118,0.3155449625874769,-0.0018320896710627421,-0.20828911657987426
557,0.5458,221.55,685.196,0.11284,389.432,-0.869035,-1.60684,-0.0390123,0.274661,-0.233906,0.552706,-0.00114839,-0.00183758,0.439492,-0.03826112031460449,0.7379495520786934,-0.0011477308525474905,0.31608444660880486,-0.0018358926835563283,-0.2085637925973759
558,0.5468,221.363,684.78,-0.107264,389.531,-0.964993,-1.6287,-0.0390734,0.275068,-0.234254,0.553529,-0.00115233,-0.00184213,0.440152,-0.038319880765003145,0.7393804733033711,-0.001151666322735112,0.3166202019974005,-0.0018404343199124318,-0.20883916448006534
559,0.5478,221.571,685.257,0.142615,389.416,-0.859057,-1.60916,-0.0391349,0.275478,-0.2346,0.554347,-0.00115332,-0.00184585,0.44081,-0.038379022273716146,0.7408038686198488,-0.0011526551820959519,0.3171601269572728,-0.0018441474665903401,-0.20911285877731134
560,0.5488,221.492,685.092,0.0483921,389.452,-0.896258,-1.62471,-0.0391961,0.275885,-0.234947,0.555168,-0.0011563,-0.00185023,0.441469,-0.03843787167674284,0.7422336554431652,-0.0011556317427484641,0.3176963202368752,-0.0018485193796499155,-0.2093872490058577
561,0.5498,221.47,685.035,0.0275806,389.47,-0.913931,-1.62304,-0.0392573,0.276293,-0.235294,0.555988,-0.00115906,-0.00185434,0.442126,-0.038496717478296305,0.7436628729397186,-0.0011583885494004242,0.3182340500249492,-0.0018526217738048523,-0.20966154403751247
562,0.5508,221.459,685.021,0.0132661,389.47,-0.917072,-1.62862,-0.0393184,0.2767,-0.23564,0.556807,-0.00116164,-0.00185856,0.442784,-0.03855546353414818,0.7450915177828628,-0.001160965557433613,0.3187706804801993,-0.0018568339468532091,-0.20993495384065186
563,0.5518,221.453,685.011,0.0109336,389.473,-0.922486,-1.63005,-0.0393796,0.277108,-0.235986,0.557626,-0.00116426,-0.00186273,0.443441,-0.03861430213930017,0.7465213331654039,-0.0011635825122756627,0.31930884869668597,-0.0018609961951774334,-0.21020826906036327
564,0.5528,221.453,685.017,0.0108775,389.47,-0.922123,-1.63346,-0.0394407,0.277515,-0.236332,0.558444,-0.00116681,-0.00186693,0.444097,-0.038673041010948594,0.7479505720949609,-0.0011661295418927686,0.31984591668402707,-0.0018651883701897853,-0.21048148972936698
565,0.5538,221.448,685.01,0.00768962,389.472,-0.926075,-1.63571,-0.0395017,0.277921,-0.236678,0.559262,-0.00116942,-0.00187111,0.444754,-0.03873168016693451,0.7493809806202612,-0.001168736494892575,0.3203818829199845,-0.0018693605649825473,-0.2107546158803717
566,0.5548,221.45,685.021,0.0114897,389.468,-0.925153,-1.63822,-0.0395628,0.278328,-0.237023,0.560079,-0.00117197,-0.00187531,0.445409,-0.038790411867004604,0.7508108088867418,-0.0011712835113670828,0.32091938772114026,-0.0018735527048646672,-0.21102685857332815
567,0.5558,221.444,685.011,0.00627927,389.47,-0.929298,-1.64097,-0.0396238,0.278734,-0.237368,0.560895,-0.00117459,-0.00187951,0.446065,-0.038849043863586674,0.7522400535593139,-0.0011739004391760899,0.32145578987482404,-0.0018777448271398711,-0.2112990073587554
568,0.5568,221.448,685.025,0.0123317,389.466,-0.927851,-1.64309,-0.0396847,0.27914,-0.237713,0.561711,-0.00117713,-0.0018837,0.446719,-0.03890757617448837,0.7536704649715038,-0.0011764374542470035,0.3219924098519973,-0.0018819269506273884,-0.2115710622690462
569,0.5578,221.44,685.013,0.005104,389.469,-0.932596,-1.64616,-0.0397456,0.279546,-0.238058,0.562527,-0.00117977,-0.00188792,0.447374,-0.03896610492088093,0.7551020440757596,-0.0011790743449714425,0.3225292477411146,-0.0018861390000082245,-0.21184302333658167
570,0.5588,221.445,685.03,0.0132744,389.464,-0.930416,-1.64802,-0.0398065,0.279951,-0.238403,0.563341,-0.0011823,-0.00189212,0.448028,-0.039024630102981406,0.7565312787592364,-0.0011816013587166996,0.32306498056502386,-0.0018903310694211584,-0.21211489059373212
571,0.5598,221.436,685.014,0.0038173,389.467,-0.936019,-1.65135,-0.0398674,0.280356,-0.238747,0.564156,-0.00118496,-0.00189635,0.448682,-0.03908315172100674,0.7579634352759328,-0.0011842582121234235,0.3236009304046694,-0.0018945530643911246,-0.21238587645912677
572,0.5608,221.443,685.036,0.0144194,389.462,-0.932866,-1.65297,-0.0399282,0.280761,-0.239091,0.56497,-0.00118749,-0.00190056,0.449335,-0.03914157368933635,0.7593950000800769,-0.001186785212753505,0.3241370973479605,-0.0018987550794775654,-0.2126567691214155
573,0.5618,221.432,685.014,0.00228192,389.466,-0.939588,-1.65657,-0.039989,0.281166,-0.239435,0.565783,-0.00119016,-0.00190481,0.449988,-0.03919999210571812,0.7608259698255249,-0.0011894520404767128,0.32467348148284225,-0.0019029970007543584,-0.21292756861265483
574,0.5628,221.441,685.042,0.015864,389.459,-0.935182,-1.65793,-0.0400498,0.28157,-0.239779,0.566596,-0.00119268,-0.00190901,0.45064,-0.0392584069703682,0.762258103422417,-0.0011919690398861649,0.32520875768787416,-0.001907188999363707,-0.21319827496488997
575,0.5638,221.427,685.014,0.000397946,389.465,-0.943329,-1.66183,-0.0401105,0.281974,-0.240122,0.567408,-0.00119538,-0.00191328,0.451292,-0.03931672221517957,0.7636896381268299,-0.0011946658179291525,0.32574425018818176,-0.0019114508465676305,-0.21346810167865027
576,0.5648,221.44,685.048,0.0177074,389.456,-0.937331,-1.66287,-0.0401712,0.282378,-0.240465,0.56822,-0.00119788,-0.00191749,0.451943,-0.0393750339203629,0.7651223357094874,-0.0011971628281433055,0.3262799590711658,-0.0019156527905145326,-0.21373783585771822
577,0.5658,221.422,685.013,-0.00193695,389.464,-0.947283,-1.66716,-0.0402318,0.282782,-0.240808,0.569031,-0.00120062,-0.00192177,0.452594,-0.03943324602946263,0.7665544305597163,-0.0011998995441678817,0.32681588442426235,-0.0019199245823788846,-0.21400747753382798
578,0.5668,221.439,685.056,0.0200593,389.453,-0.93927,-1.66779,-0.0402924,0.283185,-0.241151,0.569842,-0.00120309,-0.00192598,0.453245,-0.03949145461101544,0.7679876873099556,-0.0012023665773691627,0.32735069898358105,-0.0019241264906514344,-0.21427702673870264
579,0.5678,221.417,685.01,-0.00484229,389.464,-0.951496,-1.67255,-0.040353,0.283588,-0.241494,0.570652,-0.00120587,-0.00193028,0.453895,-0.03954965966523505,0.7694203374816662,-0.001205143230930572,0.32788572911660196,-0.0019284182076803047,-0.21454648350405414
580,0.5688,221.439,685.065,0.023049,389.45,-0.940943,-1.67268,-0.0404136,0.283991,-0.241836,0.571462,-0.00120831,-0.00193449,0.454545,-0.03960786119233528,0.7708541485701235,-0.0012075802874078612,0.3284209749102194,-0.0019326200801946802,-0.21481506267703931
581,0.5698,221.411,685.006,-0.00846136,389.464,-0.956032,-1.67803,-0.0404741,0.284394,-0.242178,0.572271,-0.00121113,-0.00193881,0.455195,-0.039665963159130846,0.7722873492278157,-0.001210396878060127,0.32895643645136174,-0.0019369317219627424,-0.2150835500116527
582,0.5708,221.439,685.075,0.0268373,389.447,-0.942283,-1.67752,-0.0405346,0.284796,-0.24252,0.57308,-0.00121353,-0.00194302,0.455844,-0.03972406161086384,0.7737217098139682,-0.0012127939702311075,0.3294907843355439,-0.001941133558635344,-0.21535194553929737
583,0.5718,221.405,685.001,-0.0129713,389.464,-0.960966,-1.68361,-0.040595,0.285198,-0.242861,0.573888,-0.00121641,-0.00194736,0.456492,-0.039782060525957674,0.7751554561109981,-0.0012156704732422252,0.3300253470707575,-0.0019454651247162724,-0.2156194649112233
584,0.5728,221.441,685.087,0.0316205,389.443,-0.943204,-1.68229,-0.0406554,0.2856,-0.243203,0.574696,-0.00121876,-0.00195156,0.45714,-0.03984005593802287,0.7765903613431833,-0.0012180176136588061,0.33056012474339025,-0.0019496569449598544,-0.21588767718731017
585,0.5738,221.397,684.993,-0.0185909,389.465,-0.966394,-1.68931,-0.0407158,0.286001,-0.243544,0.575503,-0.00122172,-0.00195594,0.457788,-0.03989804784727091,0.7780246484217836,-0.0012209740039511585,0.3310937863454124,-0.001954028395888985,-0.21615501390588832
586,0.5748,221.443,685.102,0.0376421,389.438,-0.943599,-1.68697,-0.0407762,0.286403,-0.243885,0.576309,-0.001224,-0.00196013,0.458436,-0.03995603625391342,0.7794583139780173,-0.0012232512175344157,0.3316289936169774,-0.0019582101997490664,-0.2164222594781866
587,0.5758,221.389,684.983,-0.0255861,389.467,-0.97243,-1.69515,-0.0408365,0.286804,-0.244226,0.577116,-0.00122704,-0.00196453,0.459083,-0.04001392515955926,0.7808949164285208,-0.0012262874942355895,0.33216308392136695,-0.0019626015739632185,-0.21668941393528096
588,0.5768,221.447,685.119,0.0452007,389.433,-0.943341,-1.69155,-0.0408968,0.287205,-0.244566,0.577921,-0.00122924,-0.00196871,0.459729,-0.04007181057460929,0.7823291140233282,-0.0012284847939860732,0.3326973884389155,-0.001966773361569585,-0.21695569426432182
589,0.5778,221.379,684.969,-0.0342891,389.469,-0.97922,-1.70116,-0.040957,0.287605,-0.244907,0.578727,-0.00123239,-0.00197315,0.460375,-0.040129596512238574,0.7837662503773803,-0.0012316309193037833,0.3332305740242989,-0.001971204619258482,-0.21722266685116465
590,0.5788,221.452,685.14,0.0546652,389.427,-0.942268,-1.69598,-0.0410172,0.288006,-0.245247,0.579531,-0.00123447,-0.0019773,0.461021,-0.040187378971259125,0.7852009751247464,-0.001233708355350971,0.33376530669121696,-0.001975346430165059,-0.21748876590503263
591,0.5798,221.367,684.951,-0.0451055,389.472,-0.986939,-1.70738,-0.0410774,0.288405,-0.245587,0.580336,-0.00123776,-0.0019818,0.461667,-0.04024515795188022,0.7866386404923953,-0.0012369942910450682,0.3342975852310939,-0.0019798375310010607,-0.2177547745006011
592,0.5808,221.46,685.165,0.0664883,389.42,-0.940183,-1.70022,-0.0411376,0.288806,-0.245926,0.581138,-0.00123971,-0.00198591,0.462311,-0.04030293345431146,0.7880720994222674,-0.001238941877007349,0.33483274585530554,-0.0019839393854395038,-0.21801991068892235
593,0.5818,221.354,684.928,-0.0585313,389.477,-0.995803,-1.71386,-0.0411976,0.289205,-0.246266,0.581943,-0.00124316,-0.00199046,0.462956,-0.04036051355088399,0.7895120769755055,-0.001242387596714023,0.3353654503883887,-0.0019884803481846625,-0.21828573872596102
594,0.5828,221.47,685.196,0.0812255,389.412,-0.936845,-1.70423,-0.0412578,0.289605,-0.246605,0.582744,-0.00124493,-0.00199454,0.4636,-0.04041828210911724,0.7909460503788412,-0.0012441553961234364,0.33589970341202546,-0.001992552226878219,-0.2185506949479159
595,0.5838,221.337,684.899,-0.0751758,389.483,-1.00608,-1.72063,-0.0413177,0.290003,-0.246944,0.583547,-0.00124859,-0.00199916,0.464244,-0.04047575933255887,0.7923847576209455,-0.0012478108358252582,0.33643149731395017,-0.001997163010635905,-0.2188155613649343
596,0.5848,221.483,685.233,0.0995564,389.402,-0.931958,-1.70795,-0.0413778,0.290403,-0.247283,0.584347,-0.00125015,-0.00200318,0.464887,-0.040533425006552104,0.7938192391431453,-0.0012493688880250708,0.3369661768416523,-0.0020011749739765605,-0.21908033800745497
597,0.5858,221.318,684.862,-0.0957792,389.491,-1.01808,-1.72778,-0.0414377,0.2908,-0.247622,0.58515,-0.00125406,-0.00200788,0.46553,-0.04059089533314075,0.7952602544824043,-0.0012532739953582395,0.3374970577867533,-0.002005865557431319,-0.21934502490590635
598,0.5868,221.5,685.279,0.122313,389.39,-0.925158,-1.7113,-0.0414978,0.2912,-0.24796,0.585949,-0.00125535,-0.00201183,0.466172,-0.04064855408766832,0.796695240626359,-0.0012545623778037474,0.33803216362390076,-0.002009807626476845,-0.21960884169993833
599,0.5878,221.428,685.13,0.0373611,389.423,-0.959154,-1.72583,-0.0415577,0.291597,-0.248298,0.586749,-0.00125842,-0.00201639,0.466814,-0.04070601751823155,0.7981331719146856,-0.0012576285215907257,0.33856346784977,-0.0020143584513780954,-0.21987256933896193
600,0.5888,221.414,685.09,0.0248311,389.436,-0.972781,-1.7242,-0.0416175,0.291995,-0.248636,0.587549,-0.00126124,-0.00202069,0.467456,-0.04076338158318127,0.7995722540083039,-0.0012604449711071108,0.3390963221409442,-0.002018649780410442,-0.2201362078531066
601,0.5898,221.401,685.068,0.00734835,389.439,-0.977948,-1.73004,-0.0416773,0.292393,-0.248974,0.588348,-0.00126397,-0.0020251,0.468097,-0.04082074221786258,0.8010106868166387,-0.0012631715263705656,0.3396293885503352,-0.002023050868460441,-0.22039975727249128
602,0.5908,221.401,685.07,0.011229,389.439,-0.980454,-1.73128,-0.0417372,0.29279,-0.249311,0.589147,-0.00126667,-0.00202945,0.468738,-0.040878195334665635,0.8024502693920581,-0.0012658681121670012,0.3401613270003856,-0.002027392058747135,-0.22066243829005294
603,0.5918,221.396,685.063,0.0047259,389.44,-0.983243,-1.73535,-0.0417969,0.293187,-0.249648,0.589945,-0.00126937,-0.00203385,0.469379,-0.04093545319724001,0.8038891987634926,-0.0012685646906827053,0.3406934766719252,-0.0020317831285616705,-0.22092503079902626
604,0.5928,221.398,685.07,0.00922753,389.438,-0.983833,-1.73721,-0.0418567,0.293584,-0.249986,0.590742,-0.00127205,-0.00203821,0.470019,-0.04099280354234636,0.805327471530471,-0.0012712412873427947,0.34122583764882575,-0.002036134260501754,-0.2211883136413093
605,0.5938,221.393,685.064,0.00435834,389.439,-0.986889,-1.74064,-0.0419164,0.29398,-0.250322,0.591539,-0.00127477,-0.00204261,0.470658,-0.041050054563014915,0.8067668910577681,-0.0012739578258719186,0.34175706825725305,-0.0020405252918507255,-0.2214499504104871
606,0.5948,221.396,685.073,0.00899897,389.437,-0.986825,-1.74277,-0.0419761,0.294377,-0.250659,0.592336,-0.00127745,-0.00204699,0.471298,-0.04110730216589953,0.8082074582597158,-0.0012766344080783476,0.34228985156383995,-0.002044896344777336,-0.22171227757258927
607,0.5958,221.391,685.065,0.00393625,389.438,-0.990351,-1.74606,-0.0420357,0.294773,-0.250995,0.593132,-0.00128018,-0.0020514,0.471937,-0.04116445046765416,0.8096473644031068,-0.001279360919144712,0.3428215036052158,-0.0020492973170803674,-0.22197373831945966
608,0.5968,221.394,685.076,0.00922698,389.435,-0.989777,-1.74826,-0.0420953,0.295169,-0.251332,0.593927,-0.00128285,-0.00205579,0.472575,-0.041221595363471475,0.811086606080571,-0.0012820274996911962,0.34335336622249124,-0.0020536783110488566,-0.2222358889947761
609,0.5978,221.388,685.066,0.00331513,389.437,-0.993826,-1.75156,-0.0421549,0.295564,-0.251668,0.594722,-0.0012856,-0.0020602,0.473213,-0.04127873685355454,0.8125269924101077,-0.0012847739703392147,0.34388409561430344,-0.002058079244623423,-0.22249717383776213
610,0.5988,221.392,685.079,0.00967185,389.434,-0.992702,-1.75372,-0.0422144,0.295959,-0.252003,0.595517,-0.00128827,-0.0020646,0.473851,-0.04133577907168895,0.8139685243020771,-0.0012874405364328156,0.3444150346856343,-0.0020624701794146327,-0.2227575936617704
611,0.5998,221.385,685.066,0.00251425,389.436,-0.997357,-1.75711,-0.0422739,0.296355,-0.252339,0.596311,-0.00129103,-0.00206903,0.474488,-0.041392817895912315,0.8154093872572685,-0.0012901969792930013,0.3449475284661798,-0.002066891032879603,-0.22301870324143414
612,0.6008,221.391,685.082,0.0102958,389.432,-0.995585,-1.75918,-0.0423334,0.296749,-0.252674,0.597104,-0.0012937,-0.00207344,0.475125,-0.04144985332642659,0.8168495778614662,-0.0012928635309071845,0.3454775421982441,-0.0020712919081862236,-0.2232789483823534
613,0.6018,221.383,685.067,0.00153538,389.435,-1.00096,-1.76271,-0.0423928,0.297144,-0.25301,0.597898,-0.00129648,-0.00207788,0.475761,-0.04150678951411746,0.8182927292815843,-0.0012956399328873935,0.34600911080530095,-0.002075722701813776,-0.22353988281625714
614,0.6028,221.39,685.086,0.0111051,389.43,-0.998408,-1.76464,-0.0424522,0.297538,-0.253345,0.59869,-0.00129914,-0.0020823,0.476397,-0.04156372231989924,0.8197333875485429,-0.0012982964829519883,0.34653954288321587,-0.002080133517371463,-0.22379995339126013
615,0.6038,221.38,685.067,0.000359088,389.435,-1.00467,-1.76836,-0.0425116,0.297932,-0.253679,0.599482,-0.00130194,-0.00208675,0.477033,-0.04162065174397289,0.8211751872688047,-0.0013010928438069724,0.34707018399254563,-0.002084574250896698,-0.22405916091676104
616,0.6048,221.389,685.09,0.0121269,389.429,-1.00115,-1.7701,-0.042571,0.298326,-0.254014,0.600274,-0.0013046,-0.00209118,0.477668,-0.04167757778653902,0.8226181293467589,-0.0013037493793667254,0.34760103421566546,-0.0020889950064407747,-0.22431905756273518
617,0.6058,221.377,685.066,-0.00105194,389.434,-1.00848,-1.77404,-0.0426303,0.29872,-0.254348,0.601065,-0.00130742,-0.00209565,0.478303,-0.041734404621244,0.8240603906262087,-0.0013065656988224816,0.3481320936349821,-0.00209345565866359,-0.2245780917363942
618,0.6068,221.388,685.094,0.0134045,389.427,-1.0038,-1.77557,-0.0426895,0.299113,-0.254682,0.601855,-0.00131006,-0.00210007,0.478938,-0.041791132265335595,0.8255019676827668,-0.0013092022460088337,0.3486620136702472,-0.002097866395841752,-0.224837039407086
619,0.6078,221.374,685.065,-0.00274153,389.434,-1.01243,-1.77978,-0.0427488,0.299506,-0.255016,0.602646,-0.00131291,-0.00210456,0.479572,-0.04184795236645966,0.8269465109807597,-0.0013120485107265267,0.34919214200501414,-0.0021023469663628003,-0.22509590060369766
620,0.6088,221.388,685.099,0.0149871,389.425,-1.00633,-1.78103,-0.042808,0.299899,-0.25535,0.603435,-0.00131554,-0.00210899,0.480205,-0.041904673288723715,0.8283885405837941,-0.0013146750565850018,0.349722478721161,-0.002106767643173968,-0.2253546753551069
621,0.6098,221.371,685.063,-0.00476624,389.434,-1.01654,-1.78557,-0.0428672,0.300292,-0.255683,0.604224,-0.00131841,-0.0021135,0.480839,-0.04196139085320849,0.82983170839715,-0.0013175412793545727,0.35025302390059765,-0.0021112681315031967,-0.22561258930315797
622,0.6108,221.388,685.105,0.016937,389.423,-1.00872,-1.78648,-0.0429263,0.300684,-0.256016,0.605013,-0.00132102,-0.00211794,0.481472,-0.042018009261918565,0.8312760153192302,-0.0013201478371702713,0.350782426842164,-0.0021156987476367295,-0.22587041738016267
623,0.6118,221.367,685.06,-0.00719388,389.434,-1.02084,-1.79142,-0.0429854,0.301076,-0.25635,0.605801,-0.00132393,-0.00212246,0.482104,-0.042074624324579646,0.8327196295286001,-0.0013230539913116068,0.351312037350364,-0.002120209174484855,-0.2261289334861648
624,0.6128,221.388,685.111,0.019329,389.421,-1.01092,-1.79192,-0.0430445,0.301468,-0.256682,0.606588,-0.00132652,-0.0021269,0.482736,-0.04213123604138935,0.8341625475908216,-0.0013256405612521727,0.3518418555065794,-0.002124639750920254,-0.22638581603538466
625,0.6138,221.363,685.056,-0.0101053,389.434,-1.02537,-1.79733,-0.0431035,0.30186,-0.257015,0.607376,-0.00132947,-0.00213144,0.483368,-0.04218774863132513,0.8356084372840442,-0.0013285866462670048,0.35237188139222453,-0.0021291700947718706,-0.2266433866707539
626,0.6148,221.389,685.119,0.0222513,389.419,-1.0129,-1.79733,-0.0431626,0.302252,-0.257347,0.608162,-0.00133203,-0.00213588,0.483999,-0.04224435366268586,0.8370517926801118,-0.0013311432418127156,0.3529021150887448,-0.0021336006314208733,-0.22690009844986592
627,0.6158,221.359,685.051,-0.0136006,389.435,-1.03016,-1.80332,-0.0432215,0.302643,-0.25768,0.608949,-0.00133503,-0.00214045,0.48463,-0.042300763808959974,0.8384981214966896,-0.001334139243889032,0.3534312032457385,-0.0021381608704458266,-0.22715749785770212
628,0.6168,221.391,685.127,0.0258102,389.416,-1.01462,-1.80271,-0.0432805,0.303034,-0.258012,0.609734,-0.00133755,-0.00214488,0.485261,-0.042357266397052507,0.8399419091345708,-0.001336655878687143,0.3539604983166509,-0.002142581388601683,-0.2274140389802306
629,0.6178,221.354,685.045,-0.0177887,389.436,-1.03527,-1.80939,-0.0433394,0.303424,-0.258343,0.61052,-0.0013406,-0.00214948,0.485891,-0.04241366989296247,0.8413886719784645,-0.0013397017972417435,0.3544886458930774,-0.0021471715221700327,-0.22766972261535212
630,0.6188,221.393,685.137,0.0301283,389.413,-1.01602,-1.80805,-0.0433983,0.303815,-0.258675,0.611304,-0.00134307,-0.00215391,0.486521,-0.042470070066804366,0.8428328867555135,-0.0013421684851319116,0.3550183545049068,-0.0021515920004088196,-0.22792609370748762
631,0.6198,221.348,685.037,-0.0228073,389.437,-1.04075,-1.81556,-0.0434571,0.304205,-0.259006,0.612089,-0.00134619,-0.00215853,0.48715,-0.04252637117141578,0.8442800785200679,-0.0013452842927055286,0.3555469147257071,-0.0021562020494044765,-0.22818160788054198
632,0.6208,221.396,685.149,0.0353543,389.41,-1.01704,-1.81334,-0.0435159,0.304595,-0.259337,0.612872,-0.0013486,-0.00216295,0.487779,-0.04258266896561946,0.84572471532305,-0.0013476910476702963,0.35607568112519594,-0.002160612509244375,-0.22843703749240063
633,0.6218,221.342,685.027,-0.028815,389.439,-1.04668,-1.82184,-0.0435747,0.304985,-0.259669,0.613656,-0.0013518,-0.0021676,0.488408,-0.04263896344961027,0.8471723308910171,-0.001350886729945877,0.3566046537837986,-0.002165252451608257,-0.2286931538782806
634,0.6228,221.4,685.162,0.0416632,389.406,-1.0176,-1.81855,-0.0436335,0.305374,-0.259999,0.614438,-0.00135414,-0.00217201,0.489036,-0.0426952546235827,0.8486173845961322,-0.001353223566136763,0.3571324756488172,-0.002169652893141971,-0.22894764314446236
635,0.6238,221.335,685.014,-0.0360014,389.441,-1.05315,-1.82825,-0.0436921,0.305763,-0.26033,0.615221,-0.00135744,-0.0021767,0.489664,-0.042751351038020746,0.8500654188396961,-0.0013565190950614037,0.3576605028764821,-0.0021743327064958073,-0.22920281924060792
636,0.6248,221.406,685.178,0.0492607,389.402,-1.0176,-1.82368,-0.0437509,0.306153,-0.26066,0.616002,-0.00135969,-0.0021811,0.490291,-0.0428076356037973,0.851510884312604,-0.0013587660403656665,0.3581900937361089,-0.0021787231297729637,-0.22945714034496834
637,0.6258,221.326,684.999,-0.044587,389.445,-1.06024,-1.8348,-0.0438094,0.306541,-0.26099,0.616784,-0.00136309,-0.00218583,0.490919,-0.0428636297192706,0.8529593320934052,-0.0013621614147889538,0.35871717373938683,-0.002183442813250447,-0.2297113775372105
638,0.6268,221.412,685.197,0.0583886,389.397,-1.01695,-1.82869,-0.0438681,0.30693,-0.26132,0.617564,-0.00136523,-0.0021902,0.491545,-0.04291981197524075,0.8544052041892498,-0.001364298497476879,0.3592458175345232,-0.002187803262077792,-0.22996553084502103
639,0.6278,221.317,684.981,-0.0548335,389.449,-1.06807,-1.84153,-0.0439266,0.307318,-0.26165,0.618346,-0.00136877,-0.00219498,0.492172,-0.04297579952858832,0.8558559162133985,-0.0013678336616028686,0.3597733072381115,-0.0021925727929790195,-0.23021960029607702
640,0.6288,221.42,685.219,0.0693334,389.391,-1.01552,-1.83358,-0.0439853,0.307707,-0.261979,0.619124,-0.00137078,-0.00219932,0.492797,-0.04303197520038382,0.8573003339218443,-0.00136984091023995,0.36030236194909704,-0.002196903267815964,-0.23047281639124795
641,0.6298,221.305,684.959,-0.067045,389.453,-1.07677,-1.84845,-0.0440437,0.308094,-0.262309,0.619905,-0.00137448,-0.00220416,0.493423,-0.04308786050116553,0.858751452070514,-0.0013735358349930005,0.36082890084187547,-0.0022017326231170697,-0.23072671846569237
642,0.6308,221.43,685.246,0.0824276,389.384,-1.01315,-1.8383,-0.0441023,0.308482,-0.262638,0.620683,-0.00137633,-0.00220846,0.494048,-0.04314393390957327,0.8601981233823943,-0.0013753832922427378,0.36135700490096445,-0.0022060231464421376,-0.23097976774642792
643,0.6318,221.292,684.932,-0.0815802,389.46,-1.08651,-1.8556,-0.0441606,0.308868,-0.262967,0.621463,-0.00138021,-0.00221336,0.494673,-0.04319971699213365,0.8616496439380572,-0.0013792579482387879,0.36188259013628077,-0.002210912324950298,-0.23123273378764386
644,0.6328,221.443,685.277,0.0980666,389.376,-1.00969,-1.84282,-0.0442192,0.309257,-0.263295,0.622239,-0.00138188,-0.00221762,0.495297,-0.043255783845943085,0.8630948447271372,-0.0013809256434854644,0.3624124655179237,-0.0022151628974099724,-0.2314848481019537
645,0.6338,221.277,684.901,-0.0988542,389.467,-1.09747,-1.86301,-0.0442774,0.309642,-0.263624,0.623018,-0.00138598,-0.00222259,0.495921,-0.0433114647389935,0.8645467610591675,-0.001385019973296986,0.3629370953019013,-0.002220121875727399,-0.23173764799906482
646,0.6348,221.457,685.314,0.116706,389.367,-1.00491,-1.84711,-0.0443359,0.31003,-0.263952,0.623793,-0.00138742,-0.0022268,0.496544,-0.04336742938132454,0.8659923448903686,-0.0013864579778328778,0.3634660174991491,-0.0022243225201719063,-0.2319895967286707
647,0.6358,221.387,685.164,0.0326535,389.4,-1.03934,-1.86146,-0.0443942,0.310416,-0.26428,0.624571,-0.00139066,-0.00223161,0.497168,-0.0434231994344787,0.8674446518088297,-0.0013896934804674688,0.3639924169704658,-0.0022291218096383014,-0.23224146283264457
648,0.6368,221.375,685.127,0.0215718,389.413,-1.05202,-1.86042,-0.0444525,0.310802,-0.264608,0.625347,-0.00139362,-0.00223617,0.497791,-0.04347896623633363,0.8688943512692759,-0.0013926493626000847,0.3645190196711994,-0.002233671634469192,-0.23249324633808321
649,0.6378,221.362,685.102,0.00332156,389.416,-1.05813,-1.86644,-0.0445108,0.311188,-0.264936,0.626123,-0.00139653,-0.00224085,0.498413,-0.04353472978707873,0.8703451761331038,-0.0013955553057622971,0.36504582567981103,-0.002238341169959246,-0.2327449472720745
650,0.6388,221.364,685.107,0.00866606,389.417,-1.05986,-1.86797,-0.044569,0.311574,-0.265263,0.626898,-0.00139937,-0.00224546,0.499035,-0.04359039444594792,0.8717952554777735,-0.0013983913383580626,0.3655728350747931,-0.0022429408406041684,-0.23299579865787978
651,0.6398,221.358,685.095,0.000589281,389.418,-1.06372,-1.87236,-0.0446272,0.311959,-0.265591,0.627672,-0.00140225,-0.00225012,0.499657,-0.04364605586522807,0.8732445858240026,-0.0014012673068495296,0.3660986818353029,-0.0022475903776664197,-0.23324733478174053
652,0.6408,221.363,685.106,0.00692039,389.416,-1.06352,-1.87442,-0.0446853,0.312345,-0.265918,0.628447,-0.00140507,-0.00225474,0.500278,-0.043701618415274646,0.8746969130821365,-0.001404083351305152,0.3666260977112068,-0.0022521999831507378,-0.23349802191368696
653,0.6418,221.357,685.094,4.98491e-05,389.418,-1.06772,-1.87826,-0.0447435,0.31273,-0.266245,0.62922,-0.00140797,-0.00225941,0.500899,-0.04375727336150825,0.8761466140331802,-0.0014069792752643417,0.36715235005590174,-0.00225685945449694,-0.23374862708434274
654,0.6428,221.362,685.107,0.00685355,389.415,-1.06679,-1.88053,-0.0448016,0.313114,-0.266571,0.629994,-0.00141079,-0.00226405,0.50152,-0.043812829450005863,0.8775993136346645,-0.0014097953036121824,0.3676774373686349,-0.0022614889719285713,-0.233998384319272
655,0.6438,221.356,685.094,-0.000527828,389.418,-1.07156,-1.88428,-0.0448596,0.313499,-0.266898,0.630767,-0.0014137,-0.00226872,0.50214,-0.043868286697622105,0.8790512590086927,-0.001412701196879751,0.3682040945570253,-0.0022661483998952514,-0.23424882589816987
656,0.6448,221.362,685.109,0.00721197,389.415,-1.07003,-1.88657,-0.0449177,0.313883,-0.267224,0.631539,-0.00141652,-0.00227337,0.50276,-0.043923836336432265,0.8805024466670099,-0.0014155172090918322,0.36872958581719995,-0.002270787851518463,-0.23449842009486255
657,0.6458,221.355,685.093,-0.00129281,389.418,-1.07542,-1.89038,-0.0449756,0.314267,-0.26755,0.632311,-0.00141944,-0.00227806,0.503379,-0.04397919154375973,0.8819547550747528,-0.0014184330715244498,0.36925527890476695,-0.0022754671905503843,-0.2347479329371085
658,0.6468,221.362,685.111,0.00776982,389.414,-1.07324,-1.8926,-0.0450336,0.314651,-0.267876,0.633082,-0.00142226,-0.00228272,0.503998,-0.044034639142654264,0.8834063016902309,-0.001421249067572572,0.36978117389724274,-0.0022801165760402142,-0.23499736445142516
659,0.6478,221.353,685.092,-0.00221668,389.418,-1.07933,-1.89653,-0.0450915,0.315035,-0.268202,0.633853,-0.00142521,-0.00228742,0.504617,-0.04408998793468488,0.8848589678796897,-0.0014241948705427943,0.37030727087217374,-0.002284805848472571,-0.2352467146643209
660,0.6488,221.362,685.113,0.0084878,389.413,-1.07641,-1.89863,-0.0451495,0.315418,-0.268527,0.634623,-0.00142802,-0.00229209,0.505235,-0.04414542910757513,0.8863108681948426,-0.0014270008646127819,0.3708321990742516,-0.002289465167549687,-0.23549521909789728
661,0.6498,221.352,685.09,-0.00330172,389.418,-1.08332,-1.90272,-0.0452073,0.315801,-0.268853,0.635394,-0.00143098,-0.00229681,0.505853,-0.04420067590512489,0.887765774668595,-0.0014299566363156213,0.3713573283623366,-0.0022941743501604384,-0.23574440703663035
662,0.6508,221.363,685.115,0.0093709,389.412,-1.07952,-1.90467,-0.0452652,0.316184,-0.269178,0.636163,-0.00143379,-0.00230149,0.506471,-0.04425601508390531,0.8892180248679498,-0.0014327626141951155,0.37188265881345917,-0.002298843602498435,-0.23599274974646722
663,0.6518,221.351,685.089,-0.00455743,389.419,-1.08739,-1.90896,-0.045323,0.316567,-0.269502,0.636932,-0.00143677,-0.00230622,0.507088,-0.04431125548977033,0.89067139227722,-0.0014357383401286672,0.37240819050467944,-0.002303562717807406,-0.23624024799866739
664,0.6528,221.363,685.118,0.0104339,389.411,-1.08258,-1.91072,-0.0453807,0.316949,-0.269827,0.637701,-0.00143957,-0.00231091,0.507705,-0.044366397139476654,0.8921258777558705,-0.0014385343161469333,0.37293255057985,-0.0023082419031256185,-0.23648842958637528
665,0.6538,221.349,685.086,-0.00600797,389.419,-1.09156,-1.91524,-0.0454385,0.317331,-0.270152,0.638469,-0.00144258,-0.00231566,0.508321,-0.04442163116544329,0.8935795885834921,-0.0014415399816350982,0.3734571109988327,-0.002312980927721364,-0.2367365305281729
666,0.6548,221.364,685.121,0.0117043,389.411,-1.08556,-1.91678,-0.0454962,0.317714,-0.270476,0.639237,-0.00144537,-0.00232035,0.508937,-0.04447676644665688,0.8950344162898558,-0.0014443259558521993,0.37398324582073217,-0.0023176600688682436,-0.23698378783443508
667,0.6558,221.348,685.084,-0.00767899,389.419,-1.09585,-1.92156,-0.0455539,0.318095,-0.2708,0.640004,-0.0014484,-0.00232512,0.509553,-0.04453189854665651,0.8964884652436405,-0.0014473515749606758,0.3745068331744472,-0.0023224190022795854,-0.23723096504230679
668,0.6568,221.365,685.124,0.013211,389.41,-1.08845,-1.92284,-0.0456115,0.318477,-0.271124,0.64077,-0.00145118,-0.00232981,0.510168,-0.044586931924323725,0.8979417319381016,-0.0014501275474647635,0.37503199508425844,-0.002327098099161984,-0.23747806217773548
669,0.6578,221.346,685.08,-0.00961068,389.42,-1.10026,-1.92794,-0.0456691,0.318858,-0.271448,0.641537,-0.00145424,-0.0023346,0.510783,-0.04464196213215976,0.8993980116583782,-0.001453183105399436,0.3755559820875711,-0.002331876940916744,-0.23772507926666064
670,0.6588,221.367,685.128,0.0149929,389.409,-1.09124,-1.9289,-0.0457267,0.319239,-0.271771,0.642303,-0.001457,-0.0023393,0.511398,-0.044696989170347035,0.9008535079192077,-0.001455939090810765,0.376080168767968,-0.002336565970075921,-0.23797125430664823
671,0.6598,221.344,685.076,-0.0118335,389.421,-1.10481,-1.93436,-0.0457842,0.31962,-0.272094,0.643068,-0.0014601,-0.00234411,0.512012,-0.04475191751426466,0.9023082172081247,-0.0014590345726015475,0.3766045552015409,-0.0023413647196526277,-0.23821734984493825
672,0.6608,221.368,685.132,0.0170882,389.407,-1.0939,-1.93496,-0.0458418,0.320001,-0.272417,0.643833,-0.00146284,-0.00234882,0.512626,-0.04480693821920434,0.9037640397754223,-0.0014617705710985307,0.37712914146441,-0.0023460636807587365,-0.2384633659072054
673,0.6618,221.342,685.072,-0.0143959,389.422,-1.10954,-1.94085,-0.0458992,0.320381,-0.27274,0.644598,-0.00146597,-0.00235365,0.51324,-0.044861764727414766,0.9052209764730843,-0.0014648959908654113,0.37765254997948605,-0.0023508823376340304,-0.23870930251911637
674,0.6628,221.37,685.137,0.019552,389.406,-1.09642,-1.94102,-0.0459567,0.320761,-0.273063,0.645361,-0.00146869,-0.00235835,0.513853,-0.04491668359701029,0.9066752147995039,-0.0014676120026545503,0.3781761574275926,-0.002355571277468105,-0.2389551597063294
675,0.6638,221.339,685.066,-0.017351,389.423,-1.11444,-1.94739,-0.0460141,0.321141,-0.273385,0.646125,-0.00147186,-0.00236321,0.514465,-0.04497150380601678,0.9081324712646974,-0.001470777345307428,0.3786999638843387,-0.0023604198176097047,-0.23920017669505178
676,0.6648,221.373,685.143,0.0224301,389.405,-1.09876,-1.94707,-0.0460715,0.321521,-0.273708,0.646888,-0.00147455,-0.00236792,0.515078,-0.0450263208684335,0.9095889319093495,-0.0014734633853036305,0.3792239694253621,-0.0023651186889664944,-0.23944587535550954
677,0.6658,221.337,685.06,-0.0207541,389.425,-1.11957,-1.954,-0.0461288,0.3219,-0.27403,0.647651,-0.00147777,-0.00237279,0.51569,-0.04508103929254992,0.9110465042575344,-0.0014766786355749906,0.3797467943788446,-0.0023699771590081076,-0.23969073435922972
678,0.6668,221.376,685.149,0.0257889,389.403,-1.10091,-1.9531,-0.0461862,0.322279,-0.274352,0.648413,-0.00148042,-0.0023775,0.516301,-0.04513585006781029,0.9125032766535728,-0.0014793247188704672,0.380269817520539,-0.0023746759853499055,-0.23993551453104345
679,0.6678,221.334,685.052,-0.0246689,389.426,-1.12493,-1.96068,-0.0462434,0.322658,-0.274673,0.649175,-0.0014837,-0.0023824,0.516913,-0.04519046673513483,0.9139611595332171,-0.00148259986131416,0.3807930389255725,-0.0023795643374611153,-0.2401794560761663
680,0.6688,221.38,685.157,0.029696,389.401,-1.10283,-1.95911,-0.0463008,0.323037,-0.274995,0.649935,-0.0014863,-0.00238711,0.517523,-0.04524527122944022,0.9154163229065027,-0.0014851960031795342,0.38131645866910135,-0.0023842631186474783,-0.24042407890492068
681,0.6698,221.33,685.044,-0.029165,389.429,-1.13056,-1.96744,-0.0463579,0.323415,-0.275316,0.650697,-0.00148965,-0.00239204,0.518134,-0.04529978616803665,0.916876426373328,-0.001488541022169998,0.38183869498692413,-0.0023891813521068617,-0.24066786364604797
682,0.6708,221.384,685.165,0.0342255,389.399,-1.10449,-1.96509,-0.0464152,0.323794,-0.275637,0.651457,-0.0014922,-0.00239674,0.518744,-0.04535448892304039,0.918333806191554,-0.0014910872231440608,0.38236251110920905,-0.002393870111935925,-0.2409115701448319
683,0.6718,221.326,685.034,-0.0343312,389.431,-1.13651,-1.97428,-0.0464723,0.324172,-0.275958,0.652217,-0.00149561,-0.0024017,0.519354,-0.04540899762548456,0.9197922940394401,-0.0014944921327312288,0.38288514290959563,-0.0023988182260687996,-0.24115519842638422
684,0.6728,221.388,685.175,0.0394725,389.397,-1.10585,-1.97104,-0.0465295,0.32455,-0.276279,0.652976,-0.00149811,-0.0024064,0.519963,-0.04546359866921568,0.9212499695084784,-0.0014969883933805272,0.3834079723021453,-0.0024035069406046494,-0.24139874851580867
685,0.6738,221.322,685.022,-0.0402581,389.434,-1.14281,-1.98121,-0.0465865,0.324927,-0.2766,0.653736,-0.0015016,-0.00241139,0.520573,-0.04551800569347664,0.9227106744828864,-0.001500473162810101,0.3839296154312548,-0.002408484934684929,-0.24164222043820094
686,0.6748,221.394,685.187,0.0455328,389.394,-1.10687,-1.97695,-0.0466437,0.325305,-0.27692,0.654493,-0.00150402,-0.00241607,0.521181,-0.04557260050212453,0.9241667175062223,-0.0015028895287413357,0.3844528397090463,-0.002413153652050637,-0.24188485610388377
687,0.6758,221.316,685.009,-0.0470487,389.437,-1.14951,-1.98825,-0.0467006,0.325682,-0.27724,0.655252,-0.00150761,-0.00242111,0.52179,-0.04562690587615337,0.9256277144230016,-0.0015064741269334991,0.38497487682743037,-0.0024181814770860566,-0.24212741413857508
688,0.6768,221.4,685.2,0.0525179,389.391,-1.10749,-1.9828,-0.0467577,0.326059,-0.27756,0.656009,-0.00150995,-0.00242578,0.522397,-0.045681399024033675,0.9270859664815865,-0.001508810599050392,0.38549711079091087,-0.0024228401733005223,-0.242369894567113
689,0.6778,221.31,684.994,-0.0548195,389.441,-1.15665,-1.99541,-0.0468146,0.326436,-0.27788,0.656767,-0.00151364,-0.00243085,0.523005,-0.045735698207602815,0.9285472514011974,-0.0015124950247414892,0.3860195416737129,-0.002427897876679519,-0.24261229741432755
690,0.6788,221.408,685.215,0.0605497,389.387,-1.10766,-1.98859,-0.0468716,0.326813,-0.278199,0.657523,-0.00151588,-0.0024355,0.523612,-0.0457900897226321,0.9300057843792553,-0.0015147316342476458,0.3865421695500886,-0.002432536576169486,-0.24285386555928468
691,0.6798,221.303,684.976,-0.0637023,389.445,-1.16431,-2.00268,-0.0469284,0.327188,-0.278519,0.65828,-0.00151969,-0.00244062,0.524219,-0.04584428730630985,0.931467351891538,-0.0015185358558730266,0.3870622203671037,-0.0024376441085068867,-0.24309611356055838
692,0.6808,221.416,685.232,0.0697697,389.383,-1.10732,-1.9943,-0.0469854,0.327565,-0.278838,0.659035,-0.00152182,-0.00244525,0.524826,-0.04589867263193692,0.9329261603731216,-0.0015206626191267558,0.38758524140745343,-0.0024422628115223777,-0.24333752739277903
693,0.6818,221.296,684.956,-0.0738375,389.45,-1.17253,-2.0101,-0.0470421,0.32794,-0.279157,0.659792,-0.00152576,-0.00245042,0.525432,-0.045952768643562236,0.9343899394470021,-0.0015245966199659566,0.38810568344976515,-0.002447420171691861,-0.2435788642262693
694,0.6828,221.426,685.252,0.0803294,389.378,-1.1064,-1.99992,-0.0470991,0.328317,-0.279476,0.660545,-0.00152777,-0.00245502,0.526038,-0.04600714778592929,0.9358470836173347,-0.0015266035535098643,0.38862909794985967,-0.0024520089030048986,-0.24382012408558762
695,0.6838,221.287,684.933,-0.0853938,389.456,-1.18141,-2.01766,-0.0471557,0.328691,-0.279795,0.661301,-0.00153186,-0.00246025,0.526644,-0.04606114225330682,0.9373111373551322,-0.0015306873013499755,0.38914854236254337,-0.002457226065355478,-0.24406130699528505
696,0.6848,221.437,685.275,0.0924137,389.373,-1.10482,-2.00545,-0.0472126,0.329067,-0.280113,0.662054,-0.00153372,-0.00246482,0.527248,-0.04611541983010081,0.9387704820158702,-0.001532544452544471,0.38967096042291227,-0.0024617848254155916,-0.24430165728193942
697,0.6858,221.276,684.908,-0.09854,389.462,-1.191,-2.0254,-0.0472692,0.329441,-0.280431,0.662809,-0.00153799,-0.00247011,0.527853,-0.04616940816945403,0.9402348064427049,-0.0015368078994771883,0.3901907945650356,-0.0024670617886163315,-0.24454193114935407
698,0.6868,221.449,685.301,0.106205,389.367,-1.1025,-2.01085,-0.0473261,0.329817,-0.280749,0.66356,-0.00153968,-0.00247464,0.528457,-0.04622367958609275,0.9416924700665239,-0.0015384953008460434,0.39071360458591653,-0.002471580602591228,-0.24478212862182636
699,0.6878,221.265,684.878,-0.113486,389.47,-1.2014,-2.03331,-0.0473825,0.33019,-0.281067,0.664315,-0.00154415,-0.00248,0.529062,-0.04627747105363045,0.9431590014273494,-0.0015429584137969243,0.3912324375167533,-0.0024769273405900183,-0.24502224972364595
700,0.6888,221.463,685.331,0.121921,389.36,-1.09935,-2.01611,-0.0474394,0.330566,-0.281384,0.665065,-0.00154565,-0.00248448,0.529665,-0.046331736321665984,0.9446169173285432,-0.0015444560982360578,0.3917556392690251,-0.0024813962339451656,-0.24526153974101195
701,0.6898,221.389,685.167,0.0318575,389.397,-1.13726,-2.03101,-0.0474959,0.33094,-0.281702,0.665817,-0.00154913,-0.00248963,0.530268,-0.04638561705641875,0.9460798192325504,-0.0015479307174830481,0.39227625322685333,-0.002486533441526273,-0.24550150841433305
702,0.6908,221.376,685.125,0.0182218,389.411,-1.1509,-2.03089,-0.0475525,0.331313,-0.282019,0.666569,-0.00155231,-0.00249454,0.530871,-0.04643959010304166,0.9475438216525314,-0.0015511057900149394,0.3927956691343515,-0.0024914312206230083,-0.24574064653077166
703,0.6918,221.363,685.098,-0.000153966,389.416,-1.15764,-2.03717,-0.047609,0.331687,-0.282337,0.66732,-0.00155542,-0.00249954,0.531474,-0.046493464744227886,0.949006976408435,-0.0015542109612474153,0.3933166721360961,-0.0024964187509980418,-0.24598046287235564
704,0.6928,221.366,685.101,0.00455157,389.416,-1.1596,-2.03923,-0.0476655,0.33206,-0.282653,0.668071,-0.00155846,-0.00250449,0.532076,-0.04654733634158292,0.9504712304062739,-0.0015572462318325098,0.3938364761922326,-0.002501356381504616,-0.2462186954033656
705,0.6938,221.361,685.089,-0.00316091,389.419,-1.16368,-2.04386,-0.0477219,0.332433,-0.28297,0.668821,-0.00156155,-0.00250948,0.532678,-0.04660110955539443,0.9519346325362803,-0.0015603314151749759,0.3943564741714465,-0.002506333887317358,-0.24645760620755963
706,0.6948,221.366,685.098,0.00266529,389.417,-1.16378,-2.04638,-0.0477784,0.332806,-0.283287,0.66957,-0.00156458,-0.00251444,0.53328,-0.04665497507098937,0.9533971792314131,-0.001563356682787509,0.39487666614608474,-0.00251128144363133,-0.24669644128903145
707,0.6958,221.362,685.087,-0.00364843,389.42,-1.16805,-2.0505,-0.0478348,0.333179,-0.283603,0.67032,-0.00156768,-0.00251944,0.533881,-0.04670874221414767,0.9548627766461675,-0.0015664518315843257,0.3953970521885206,-0.002516268874755534,-0.24693444760660543
708,0.6968,221.367,685.097,0.00245556,389.418,-1.16755,-2.05322,-0.0478912,0.333552,-0.283919,0.671068,-0.00157071,-0.00252442,0.534482,-0.046762506324924624,0.9563255610162504,-0.0015694770806520264,0.3959176323711555,-0.0025212363313675823,-0.2471723787260649
709,0.6978,221.362,685.084,-0.00408752,389.421,-1.17222,-2.05725,-0.0479475,0.333924,-0.284235,0.671817,-0.00157382,-0.00252943,0.535082,-0.04681617208511324,0.9577913977487797,-0.001572582194749872,0.39643701032870804,-0.0025262336874550817,-0.24741023467116885
710,0.6988,221.369,685.097,0.00260068,389.418,-1.1713,-2.06001,-0.0480038,0.334296,-0.284551,0.672564,-0.00157685,-0.00253442,0.535682,-0.04686983482400453,0.9592544142915456,-0.0015756074252425423,0.39695658153080227,-0.002531211069130457,-0.24764801546566861
711,0.6998,221.363,685.082,-0.00463475,389.422,-1.17639,-2.06406,-0.0480601,0.334668,-0.284866,0.673312,-0.00157997,-0.00253945,0.536282,-0.046923494541768695,0.9607204848354631,-0.0015787225044878728,0.39747634604933824,-0.0025362283245203843,-0.24788496901865298
712,0.7008,221.37,685.096,0.00287304,389.418,-1.17505,-2.06679,-0.0481163,0.335039,-0.285182,0.674059,-0.00158301,-0.00254445,0.536881,-0.046977055936286205,0.9621856902237145,-0.0015817577005579064,0.39799490596063825,-0.002541215630910476,-0.24812259982079898
713,0.7018,221.364,685.08,-0.00526857,389.422,-1.18059,-2.07092,-0.0481725,0.335411,-0.285497,0.674805,-0.00158615,-0.00254949,0.53748,-0.04703061432073785,0.963650026878283,-0.0015848927289168202,0.3985150568077147,-0.002546242810515187,-0.2483594039032544
714,0.7028,221.372,685.096,0.00323496,389.419,-1.1788,-2.07359,-0.0482287,0.335782,-0.285812,0.675551,-0.00158918,-0.00255451,0.538079,-0.04708416969529294,0.9651154563355606,-0.0015879179221086615,0.3990340021521994,-0.0025512500158081375,-0.24859613340417097
715,0.7038,221.365,685.077,-0.00598669,389.423,-1.18483,-2.07782,-0.0482849,0.336153,-0.286127,0.676297,-0.00159234,-0.00255956,0.538677,-0.04713772206012046,0.9665819794110821,-0.0015910728993031586,0.3995531400611254,-0.002556287119276912,-0.24883278834703837
716,0.7048,221.374,685.095,0.00366752,389.419,-1.18253,-2.08041,-0.048341,0.336524,-0.286441,0.677042,-0.00159538,-0.00256459,0.539275,-0.04719117613451207,0.9680476288723783,-0.0015941080578281142,0.4000724706059473,-0.002561304248534624,-0.24906861782433176
717,0.7058,221.366,685.074,-0.00677713,389.425,-1.18912,-2.08476,-0.0483971,0.336894,-0.286756,0.677787,-0.00159855,-0.00256966,0.539873,-0.047244627210214274,0.9695143706493603,-0.0015972729994890855,0.400590593266853,-0.0025663612499025046,-0.2493051239580455
718,0.7068,221.376,685.095,0.00417141,389.42,-1.18625,-2.08726,-0.0484532,0.337265,-0.28707,0.678531,-0.00160158,-0.0025747,0.54047,-0.04729807528739516,0.9709802345748864,-0.0016002981551688222,0.40111030877822107,-0.0025713883027737028,-0.2495408051452398
719,0.7078,221.367,685.071,-0.00764407,389.426,-1.19346,-2.09174,-0.0485092,0.337635,-0.287384,0.679276,-0.00160477,-0.00257978,0.541067,-0.04735142510137036,0.9724491619571536,-0.001603483045137799,0.40162881551029916,-0.00257645522725114,-0.24977641234015868
720,0.7088,221.378,685.095,0.0047613,389.42,-1.18995,-2.09412,-0.0485652,0.338005,-0.287698,0.680019,-0.00160781,-0.00258483,0.541664,-0.04740477192783965,0.9739152362636472,-0.0016065181659359329,0.4021475141253643,-0.002581492203433844,-0.25001194556603223
721,0.7098,221.368,685.068,-0.00859921,389.427,-1.19786,-2.09875,-0.0486211,0.338374,-0.288012,0.680762,-0.00161102,-0.00258994,0.54226,-0.04745802051277703,0.9753824002681231,-0.001609723003868857,0.402665002028723,-0.002586588998986339,-0.250247404846083
722,0.7108,221.38,685.095,0.00543261,389.421,-1.19362,-2.10101,-0.0486771,0.338744,-0.288325,0.681505,-0.00161405,-0.002595,0.542856,-0.04751136137007039,0.976850654780528,-0.0016127481218251027,0.4031840841037355,-0.0025916358980773158,-0.2504820406859416
723,0.7118,221.368,685.065,-0.00964227,389.428,-1.20231,-2.1058,-0.048733,0.339113,-0.288639,0.682247,-0.00161728,-0.00260012,0.543452,-0.047564603996824495,0.9783180222923988,-0.0016159729074406437,0.4037019545719951,-0.002596742615828318,-0.25071735237929693
724,0.7128,221.383,685.094,0.00621034,389.421,-1.19728,-2.10791,-0.0487889,0.339482,-0.288952,0.682989,-0.0016203,-0.00260519,0.544047,-0.04761784364739896,0.979786478995003,-0.0016189880226495923,0.4042200161697187,-0.002601799437524255,-0.2509518411485955
725,0.7138,221.369,685.061,-0.0107904,389.43,-1.20682,-2.11289,-0.0488447,0.339851,-0.289265,0.68373,-0.00162355,-0.00261033,0.544642,-0.04767098508906342,0.9812540444417854,-0.0016222327556658644,0.4047382689674459,-0.0026069260510996894,-0.2511862565343943
726,0.7148,221.385,685.095,0.00708855,389.422,-1.2009,-2.11484,-0.0489005,0.340219,-0.289578,0.684471,-0.00162658,-0.00261541,0.545236,-0.04772412356551825,0.9827226977575696,-0.0016252578357176528,0.4052553077797325,-0.002611992795045759,-0.2514205985596589
727,0.7158,221.37,685.057,-0.012043,389.431,-1.2114,-2.12002,-0.0489563,0.340588,-0.28989,0.685211,-0.00162985,-0.00262056,0.54583,-0.047777259076928646,0.9841904555573173,-0.0016285225157867123,0.4057739426705558,-0.0026171293300563114,-0.25165411890184053
728,0.7168,221.388,685.095,0.00807044,389.422,-1.20449,-2.12179,-0.049012,0.340956,-0.290203,0.685951,-0.00163287,-0.00262565,0.546424,-0.04783029640649472,0.9856592998998082,-0.0016315375930959775,0.40629136268090127,-0.0026222059959478683,-0.25188831450909976
729,0.7178,221.371,685.052,-0.0134278,389.433,-1.21605,-2.12719,-0.0490677,0.341324,-0.290515,0.686691,-0.00163616,-0.00263083,0.547018,-0.04788333078196383,0.9871292315893814,-0.0016348222199340512,0.40680897313685027,-0.002627372399539807,-0.25212168894666753
730,0.7188,221.391,685.095,0.00918333,389.423,-1.20804,-2.12876,-0.0491234,0.341692,-0.290827,0.68743,-0.00163917,-0.00263593,0.547611,-0.047936362203500504,0.9885982628317143,-0.0016378272945966055,0.4073267741084998,-0.0026324589869698434,-0.25235499058276845
731,0.7198,221.372,685.048,-0.0149411,389.434,-1.22078,-2.1344,-0.0491791,0.342059,-0.291139,0.688169,-0.00164249,-0.00264112,0.548203,-0.04798939067126917,0.9900683800893684,-0.0016411418515077658,0.40784335782191095,-0.0026376353110750816,-0.2525882194401129
732,0.7208,221.394,685.096,0.0104339,389.423,-1.21154,-2.13575,-0.0492347,0.342427,-0.29145,0.688907,-0.00164549,-0.00264623,0.548796,-0.04804232098967143,0.9915375926266174,-0.0016441369235895564,0.40836153951717336,-0.0026427318197370653,-0.2528206283624064
733,0.7218,221.372,685.043,-0.0166019,389.436,-1.22559,-2.14166,-0.0492903,0.342793,-0.291762,0.689645,-0.00164884,-0.00265144,0.549388,-0.048095248365229715,0.9930078898429162,-0.001647481410128937,0.40887709418138507,-0.0026479280375680814,-0.25305371196342474
734,0.7228,221.398,685.097,0.0118356,389.423,-1.215,-2.14275,-0.0493459,0.34316,-0.292073,0.690383,-0.00165183,-0.00265656,0.54998,-0.04814817279810768,0.9944792725390534,-0.0016504664796967994,0.40939424696668136,-0.002653034467104076,-0.25328597614005255
735,0.7238,221.373,685.037,-0.0184082,389.438,-1.23049,-2.14896,-0.0494014,0.343527,-0.292384,0.69112,-0.00165521,-0.00266179,0.550571,-0.04820099910857378,0.9959497455656654,-0.0016538408954173134,0.40991158958188123,-0.002658250578093657,-0.2535181680937527
736,0.7248,221.401,685.098,0.0134131,389.424,-1.2184,-2.14978,-0.0494569,0.343894,-0.292695,0.691856,-0.00165818,-0.00266691,0.551162,-0.048253822487260956,0.99741930531005,-0.001656805979106668,0.4104291220966654,-0.002663356954778373,-0.25375028784698306
737,0.7258,221.374,685.031,-0.0203883,389.44,-1.23548,-2.15631,-0.0495123,0.34426,-0.293006,0.692593,-0.00166159,-0.00267217,0.551753,-0.04830654776499144,0.9988919459394776,-0.0016602103235938692,0.41094543363460057,-0.0026686029317238846,-0.2539823354221944
738,0.7268,221.405,685.099,0.0151426,389.424,-1.22174,-2.15681,-0.0495678,0.344626,-0.293317,0.693328,-0.00166455,-0.0026773,0.552343,-0.04835936528589069,1.0003616715777501,-0.0016631654049978906,0.4114619341771444,-0.002673719228667548,-0.25421431084183055
739,0.7278,221.374,685.025,-0.0225662,389.442,-1.24057,-2.1637,-0.0496232,0.344991,-0.293627,0.694064,-0.001668,-0.00268258,0.552933,-0.04841208471671221,1.001834479694934,-0.0016666096611358538,0.41197721181556757,-0.002678985097528064,-0.25444546857416994
740,0.7288,221.409,685.101,0.0170779,389.424,-1.22501,-2.16386,-0.0496786,0.345357,-0.293937,0.694799,-0.00167094,-0.00268771,0.553523,-0.048464801226958065,1.0033063688905264,-0.0016695447569888833,0.4124940900580405,-0.0026841013412113313,-0.2546765546587182
741,0.7298,221.375,685.018,-0.0249399,389.445,-1.24577,-2.17114,-0.0497339,0.345722,-0.294247,0.695533,-0.00167442,-0.00269302,0.554112,-0.04851741966853684,1.0047773355440128,-0.0016730189409279728,0.4130097445021228,-0.002689397074573052,-0.25490756911768275
742,0.7308,221.413,685.102,0.0192155,389.425,-1.22821,-2.17093,-0.0497892,0.346088,-0.294557,0.696267,-0.00167734,-0.00269816,0.554701,-0.04857003520039638,1.0062493822833658,-0.0016759340514566068,0.41352700072072457,-0.0026945232378978723,-0.2551385119732642
743,0.7318,221.375,685.011,-0.0275024,389.447,-1.25108,-2.17863,-0.0498445,0.346452,-0.294867,0.697001,-0.00168086,-0.00270348,0.55529,-0.04862264782269732,1.0077225099016598,-0.001679448145983975,0.41404161820368657,-0.002699828888921174,-0.2553693832476561
744,0.7328,221.418,685.105,0.0215696,389.425,-1.23132,-2.17801,-0.0498998,0.346817,-0.295176,0.697734,-0.00168376,-0.00270863,0.555878,-0.04867525753560076,1.0091947099968364,-0.0016823432713863884,0.4145578375986394,-0.0027049649715770174,-0.25559943856285594
745,0.7338,221.375,685.003,-0.0303097,389.45,-1.25651,-2.18617,-0.0499549,0.347182,-0.295486,0.698467,-0.00168732,-0.00271398,0.556466,-0.04872767408482137,1.0106679896102775,-0.00168589727591828,0.41507424544806226,-0.0027103004857418345,-0.2558301669721502
746,0.7348,221.422,685.107,0.0241604,389.425,-1.23435,-2.1851,-0.0500102,0.347546,-0.295795,0.699199,-0.00169019,-0.00271913,0.557054,-0.04878027798993312,1.0121403373922173,-0.001688762433281532,0.4155894262306197,-0.0027154365144690384,-0.25606007992717494
747,0.7358,221.375,684.995,-0.0333699,389.453,-1.26207,-2.19377,-0.0500653,0.34791,-0.296104,0.699932,-0.0016938,-0.00272451,0.557641,-0.04883268875268609,1.0136157769420593,-0.0016923663303440861,0.41610479457311556,-0.0027208018909877785,-0.2562899218500715
748,0.7368,221.428,685.11,0.027012,389.425,-1.23728,-2.1922,-0.0501205,0.348274,-0.296412,0.700663,-0.00169664,-0.00272966,0.558228,-0.04888519173917116,1.0150882682049902,-0.0016952015199978021,0.4166203505438344,-0.0027259378656329103,-0.2565189492821066
749,0.7378,221.375,684.986,-0.0367004,389.456,-1.26777,-2.20142,-0.0501755,0.348638,-0.296721,0.701395,-0.0017003,-0.00273506,0.558815,-0.048937501615090806,1.0165638528153962,-0.0016988553088738145,0.41713609421108533,-0.002731323131028196,-0.25674864943627695
750,0.7388,221.433,685.114,0.0301464,389.425,-1.24011,-2.1993,-0.0502306,0.349001,-0.297029,0.702125,-0.00170311,-0.00274021,0.559401,-0.04898990371506062,1.01803648187216,-0.001701660531149063,0.41765060799188536,-0.002736459051489004,-0.2569775356019717
751,0.7398,221.375,684.977,-0.0403216,389.459,-1.27361,-2.20912,-0.0502856,0.349364,-0.297338,0.702856,-0.00170682,-0.00274565,0.559987,-0.04904220783197988,1.0195122058518091,-0.00170536421111811,0.4181653085750905,-0.002741884150395557,-0.2572070940748601
752,0.7408,221.439,685.118,0.0335594,389.425,-1.24281,-2.20642,-0.0503407,0.349728,-0.297646,0.703585,-0.00170959,-0.0027508,0.560573,-0.04909460416279621,1.020984967006092,-0.0017081294834293548,0.41868161470942744,-0.0027470200164673164,-0.2574358390613488
753,0.7418,221.375,684.966,-0.0442172,389.462,-1.27961,-2.21689,-0.0503956,0.35009,-0.297954,0.704315,-0.00171336,-0.00275626,0.561158,-0.04914680743603472,1.0224608246545075,-0.0017118930366869511,0.4191952704200266,-0.0027524650028731834,-0.25766451360523035
754,0.7428,221.445,685.123,0.0373003,389.424,-1.2454,-2.21354,-0.0504506,0.350453,-0.298261,0.705043,-0.00171609,-0.00276141,0.561743,-0.049199102923486615,1.0239337122008725,-0.0017146183594988207,0.41971053181747475,-0.0027576008144536424,-0.25789237562094447
755,0.7438,221.374,684.956,-0.0484627,389.466,-1.28577,-2.22472,-0.0505054,0.350815,-0.298569,0.705773,-0.00171993,-0.00276691,0.562328,-0.04925120538502592,1.0254117232191646,-0.0017184517680042255,0.42022456006349196,-0.002763085632565887,-0.258120909573218
756,0.7448,221.451,685.128,0.041364,389.424,-1.24786,-2.22066,-0.0505604,0.351178,-0.298876,0.7065,-0.0017226,-0.00277206,0.562912,-0.04930349513074861,1.0268847329160926,-0.0017211171761796207,0.4207401951609031,-0.0027682213894503205,-0.25834863149687515
757,0.7458,221.373,684.944,-0.0530471,389.469,-1.29211,-2.2326,-0.0506151,0.351539,-0.299183,0.707229,-0.00172651,-0.00277759,0.563496,-0.04935549680730611,1.028362870602113,-0.0017250204389805956,0.42125317495863857,-0.002773736065938004,-0.258576283520632
758,0.7468,221.458,685.133,0.0457965,389.423,-1.25017,-2.22778,-0.05067,0.351902,-0.29949,0.707955,-0.00172913,-0.00278273,0.564079,-0.04940768575793164,1.029835996726249,-0.0017276359160007804,0.42176918351103465,-0.002778861795761478,-0.2588038656659444
759,0.7478,221.372,684.931,-0.0579923,389.473,-1.29863,-2.24056,-0.0507247,0.352263,-0.299797,0.708683,-0.00173311,-0.00278829,0.564663,-0.049459681735417704,1.0313142553527177,-0.0017316090321033428,0.42228253484062206,-0.002784406329876088,-0.2590313779542618
760,0.7488,221.465,685.14,0.0505739,389.423,-1.25234,-2.23491,-0.0507796,0.352625,-0.300104,0.709409,-0.00173568,-0.00279343,0.565245,-0.04951186496644766,1.0327895249601733,-0.0017341745785713902,0.4227974943202768,-0.0027895320048545447,-0.25925882040702697
761,0.7498,221.371,684.918,-0.0633271,389.477,-1.30533,-2.24858,-0.0508342,0.352985,-0.30041,0.710136,-0.00173973,-0.00279903,0.565828,-0.04956376020186759,1.0342679002691306,-0.0017382175469773387,0.4233097936265744,-0.0027951163678390234,-0.259485452531499
762,0.7508,221.473,685.147,0.055781,389.422,-1.25434,-2.24203,-0.050889,0.353347,-0.300716,0.710861,-0.00174224,-0.00280417,0.56641,-0.0496158426807356,1.0357432792570842,-0.001740723180906678,0.4238251250412257,-0.0028002419877680707,-0.25971201531715027
763,0.7518,221.369,684.904,-0.0690571,389.482,-1.31224,-2.25667,-0.0509436,0.353707,-0.301023,0.711587,-0.00174637,-0.0028098,0.566992,-0.04966773223912735,1.0372217655033924,-0.0017448459832063445,0.42433779436118124,-0.0028058562066016757,-0.2599392488463165
764,0.7528,221.481,685.155,0.0614007,389.421,-1.25618,-2.24915,-0.0509983,0.354068,-0.301328,0.712311,-0.00174882,-0.00281493,0.567574,-0.04971971399246,1.0386972481218741,-0.0017472917053377168,0.4248520731266776,-0.002810971799437789,-0.26016493295684195
765,0.7538,221.368,684.889,-0.0752098,389.487,-1.31936,-2.26482,-0.0510528,0.354428,-0.301634,0.713037,-0.00175304,-0.0028206,0.568155,-0.049771502856788,1.0401778797282497,-0.0017515043228780725,0.42536511221449835,-0.002816625845198484,-0.2603912878532918
766,0.7548,221.49,685.163,0.0674344,389.42,-1.25783,-2.25627,-0.0511075,0.354789,-0.30194,0.713759,-0.00175541,-0.00282572,0.568736,-0.04982347893402306,1.0416514200414557,-0.0017538701690092973,0.4258797619086885,-0.002821731411003836,-0.26061757349573966
767,0.7558,221.365,684.873,-0.081826,389.491,-1.32671,-2.27305,-0.0511619,0.355148,-0.302245,0.714485,-0.00175973,-0.00283144,0.569317,-0.049875167130837395,1.04313419715537,-0.0017581825829753317,0.42639174463861496,-0.0028274352543872228,-0.26084305074879444
768,0.7568,221.499,685.173,0.073973,389.419,-1.2593,-2.26338,-0.0512166,0.355509,-0.30255,0.715206,-0.00176202,-0.00283654,0.569897,-0.049927137537791766,1.0446078280916336,-0.0017604685541198206,0.4269067650140139,-0.002832520821499207,-0.26106845924177347
769,0.7578,221.363,684.856,-0.0889188,389.497,-1.33428,-2.28136,-0.0512709,0.355867,-0.302855,0.715931,-0.00176644,-0.0028423,0.570477,-0.04997872509360868,1.0460907062453777,-0.0017648807630977759,0.427417689085841,-0.002838264489637421,-0.2612937989956454
770,0.7588,221.508,685.183,0.0809717,389.417,-1.26056,-2.27048,-0.0513255,0.356227,-0.30316,0.716652,-0.00176865,-0.00284739,0.571056,-0.05003059483916161,1.0475664695933373,-0.0017670868602736034,0.4279316519616787,-0.0028433400299539002,-0.2615190700313724
771,0.7598,221.36,684.838,-0.0965023,389.502,-1.3421,-2.28974,-0.0513797,0.356585,-0.303465,0.717376,-0.00177317,-0.0028532,0.571636,-0.050082081785612464,1.049049444489457,-0.0017715988628438373,0.42844294300871777,-0.00284913349331839,-0.2617442723699105
772,0.7608,221.518,685.194,0.0884918,389.416,-1.26162,-2.27757,-0.0514343,0.356945,-0.303769,0.718095,-0.00177529,-0.00285827,0.572215,-0.050133945888044096,1.0505232408063296,-0.0017737151048110578,0.4289572750424122,-0.0028541890353956934,-0.26196866800124596
773,0.7618,221.357,684.819,-0.104591,389.508,-1.35017,-2.2982,-0.0514885,0.357303,-0.304074,0.718819,-0.00177992,-0.00286413,0.572794,-0.050185427233019886,1.0520083571799286,-0.001778336881810727,0.42946893332824576,-0.0028600322927272437,-0.26219373323331296
774,0.7628,221.529,685.206,0.0965133,389.414,-1.26245,-2.28466,-0.051543,0.357663,-0.304378,0.719537,-0.00178194,-0.00286918,0.573371,-0.05023719071666799,1.053482228236775,-0.0017803532875335648,0.4299836347849475,-0.0028650678368493665,-0.2624179922493125
775,0.7638,221.354,684.798,-0.113214,389.514,-1.35849,-2.30674,-0.0515971,0.35802,-0.304682,0.72026,-0.0017867,-0.00287509,0.57395,-0.050288571494787604,1.0549674327245162,-0.0017851048017433202,0.4304942300784027,-0.0028709608868844327,-0.2626421831009327
776,0.7648,221.54,685.219,0.10512,389.412,-1.26306,-2.29172,-0.0516516,0.358379,-0.304985,0.720978,-0.00178861,-0.00288012,0.574527,-0.05034032935722654,1.0564434291605238,-0.001787011390372406,0.4310078696997963,-0.0028759764333371463,-0.2628655686748296
777,0.7658,221.471,685.063,0.0205564,389.448,-1.29979,-2.30624,-0.0517058,0.358736,-0.305289,0.721698,-0.00179242,-0.00288582,0.575105,-0.05039179951652151,1.0579246015876063,-0.0017908145746139414,0.43151883071039276,-0.002881660024073196,-0.263089623483896
778,0.7668,221.463,685.029,0.0112102,389.46,-1.31119,-2.30693,-0.05176,0.359094,-0.305593,0.722418,-0.0017959,-0.00289127,0.575682,-0.05044326688620937,1.0594068408428488,-0.0017942883365348328,0.4320314061973247,-0.00288709430421763,-0.26331361019065247
779,0.7678,221.451,684.997,-0.00821684,389.467,-1.31934,-2.31366,-0.0518141,0.359451,-0.305896,0.723137,-0.00179936,-0.00289683,0.576258,-0.050494636515909797,1.0608880868055262,-0.001797742122322199,0.432542732675683,-0.0028926382365611625,-0.26353679235295957
780,0.7688,221.458,685.005,-0.000939465,389.467,-1.3201,-2.31626,-0.0518683,0.359809,-0.306199,0.723855,-0.00180272,-0.00290232,0.576835,-0.05054609831198342,1.0623683357976486,-0.0018010960762739892,0.43305567478513995,-0.0028981123409508314,-0.26375990690131557
781,0.7698,221.452,684.986,-0.010957,389.471,-1.32584,-2.32157,-0.0519224,0.360166,-0.306502,0.724573,-0.00180616,-0.00290787,0.577411,-0.050597462378654146,1.0638496479901907,-0.0018045298745973382,0.43356736699266274,-0.0029036462410707564,-0.2639829538562043
782,0.7708,221.461,684.999,-0.00258202,389.469,-1.32494,-2.32454,-0.0519765,0.360523,-0.306805,0.725291,-0.00180951,-0.00291338,0.577986,-0.05064882366660417,1.0653320241468043,-0.0018078738238210823,0.4340792419069148,-0.0029091402268439648,-0.2642059332381036
783,0.7718,221.455,684.981,-0.0114655,389.474,-1.33083,-2.32944,-0.0520305,0.360879,-0.307108,0.726008,-0.00181296,-0.00291894,0.578562,-0.05070008724599706,1.066813398217259,-0.0018113175807159543,0.4345898650025519,-0.002914684036612547,-0.26442884506748476
784,0.7728,221.465,684.995,-0.00281775,389.471,-1.32944,-2.33257,-0.0520845,0.361236,-0.30741,0.726725,-0.00181631,-0.00292447,0.579137,-0.05075134805723136,1.0682958348137914,-0.0018146615072009986,0.43510210501375934,-0.0029201979031640013,-0.26465095401613514
785,0.7738,221.459,684.976,-0.0119085,389.477,-1.33566,-2.3374,-0.0521385,0.361592,-0.307712,0.727441,-0.00181978,-0.00293004,0.579711,-0.050802606100456615,1.0697772649202077,-0.0018181252043160123,0.4356130923134869,-0.00292575162219455,-0.2648729958980105
786,0.7748,221.469,684.991,-0.00275751,389.473,-1.33392,-2.34058,-0.0521925,0.361948,-0.308014,0.728157,-0.00182314,-0.00293558,0.580286,-0.05085386137582237,1.0712597561104027,-0.0018214790897808086,0.4361242615570773,-0.0029312753982296824,-0.2650949707333621
787,0.7758,221.463,684.971,-0.012389,389.479,-1.34048,-2.34543,-0.0522464,0.362304,-0.308316,0.728873,-0.00182662,-0.00294117,0.58086,-0.050905018973984584,1.0727433091443848,-0.0018249527449893943,0.43663561280931384,-0.0029368489968220057,-0.2653168785424348
788,0.7768,221.473,684.988,-0.00263196,389.476,-1.33842,-2.34859,-0.0523003,0.362659,-0.308618,0.729588,-0.00182998,-0.00294673,0.581434,-0.05095617381482653,1.074225850555818,-0.0018283066075136523,0.43714570898857597,-0.002942392652530157,-0.2655387193454677
789,0.7778,221.467,684.966,-0.0129142,389.482,-1.34532,-2.35351,-0.0523542,0.363015,-0.308919,0.730303,-0.00183348,-0.00295234,0.582007,-0.05100732589849688,1.0757094523634074,-0.001831800202326761,0.43765742394083307,-0.002947986130017677,-0.26575975892281944
790,0.7788,221.478,684.984,-0.00244967,389.478,-1.34294,-2.35663,-0.052408,0.36337,-0.309221,0.731017,-0.00183684,-0.00295791,0.58258,-0.051058380330986974,1.0771920381325297,-0.0018351540418436452,0.43816788292744135,-0.002953539694268259,-0.2659814659961717
791,0.7798,221.471,684.96,-0.0134991,389.484,-1.35019,-2.36163,-0.0524618,0.363725,-0.309522,0.731731,-0.00184035,-0.00296354,0.583153,-0.0511094320168225,1.0786756828458892,-0.0018386575943042383,0.4386785231591588,-0.0029591530500381324,-0.2662023723268362
792,0.7808,221.483,684.98,-0.00226033,389.48,-1.34747,-2.36471,-0.0525156,0.36408,-0.309823,0.732445,-0.00184372,-0.00296913,0.583725,-0.05116048095615122,1.0801603872598422,-0.0018420213923601159,0.4391893447003392,-0.002964726492794778,-0.26642321217470133
793,0.7818,221.475,684.955,-0.014078,389.487,-1.35509,-2.36979,-0.0525693,0.364434,-0.310124,0.733158,-0.00184725,-0.00297477,0.584298,-0.05121143227026881,1.0816440704861736,-0.0018455448838056165,0.43969890791573096,-0.002970349755879731,-0.2666439855597754
794,0.7828,221.487,684.976,-0.00202735,389.482,-1.35202,-2.37281,-0.0526231,0.364789,-0.310425,0.733871,-0.00185063,-0.00298038,0.584869,-0.051262475722131495,1.0831288119558646,-0.0018489186401623448,0.44021009175780446,-0.0029759430765283756,-0.2668646925020608
795,0.7838,221.479,684.949,-0.0146947,389.49,-1.36001,-2.37799,-0.0526767,0.365143,-0.310725,0.734583,-0.00185417,-0.00298604,0.585441,-0.051313326690614725,1.0846125278101413,-0.0018524520887360785,0.44072001638162006,-0.0029815862167204,-0.26708460010652013
796,0.7848,221.492,684.972,-0.00181541,389.485,-1.35657,-2.38095,-0.0527304,0.365497,-0.311026,0.735295,-0.00185755,-0.00299166,0.586012,-0.05136426979713671,1.086097300446276,-0.0018558258217463708,0.44123012155070707,-0.002987189444460858,-0.267305174443785
797,0.7858,221.483,684.944,-0.0153088,389.493,-1.36497,-2.38622,-0.052784,0.365851,-0.311326,0.736007,-0.00186111,-0.00299734,0.586583,-0.05141511530960374,1.0875831306169648,-0.0018593792086815109,0.44174040732898967,-0.0029928524611417817,-0.2675249499234815
798,0.7868,221.497,684.968,-0.00155156,389.487,-1.36114,-2.38913,-0.0528376,0.366205,-0.311626,0.736718,-0.00186449,-0.00300297,0.587153,-0.051465958096824194,1.089067930006467,-0.0018627529182781988,0.4422508737804154,-0.0029984655955814787,-0.26774465948042314
799,0.7878,221.487,684.938,-0.0159792,389.495,-1.36996,-2.39449,-0.0528912,0.366558,-0.311926,0.737429,-0.00186806,-0.00300867,0.587724,-0.05151679815894439,1.0905537854637224,-0.0018663162618897111,0.4427600782081538,-0.003004148488131242,-0.2679643031343836
800,0.7888,221.502,684.964,-0.00127891,389.49,-1.36571,-2.39734,-0.0529447,0.366911,-0.312225,0.738139,-0.00187145,-0.00301431,0.588293,-0.05156754065286906,1.0920386057002105,-0.0018696999293422722,0.44326946241678455,-0.0030097715288768256,-0.2681831490886458
801,0.7898,221.492,684.932,-0.0166517,389.498,-1.37498,-2.40281,-0.0529982,0.367264,-0.312525,0.73885,-0.00187504,-0.00302003,0.588863,-0.051618280432143004,1.0935265740589317,-0.0018732832106874708,0.4437790264697816,-0.0030154742966737036,-0.26840266121545386
802,0.7908,221.507,684.96,-0.000984352,389.492,-1.3703,-2.40559,-0.0530517,0.367617,-0.312824,0.739559,-0.00187843,-0.00302569,0.589432,-0.05166901749691122,1.095011410712333,-0.0018766668545221465,0.4442887704306413,-0.003021117213119706,-0.2686213761202427
803,0.7918,221.496,684.926,-0.0173833,389.501,-1.38003,-2.41116,-0.0531051,0.36797,-0.313123,0.740269,-0.00188204,-0.00303143,0.590001,-0.0517196570192896,1.0964993969865584,-0.001880270073250978,0.44479869436288233,-0.00302683985548291,-0.26884002563905074
804,0.7928,221.513,684.956,-0.000643793,389.495,-1.3749,-2.41387,-0.0531586,0.368322,-0.313422,0.740977,-0.00188543,-0.00303711,0.59057,-0.05177038866055561,1.0979842441334902,-0.0018836536934001558,0.44530735302197,-0.003032502646950208,-0.2690586097914255
805,0.7938,221.501,684.92,-0.0180896,389.504,-1.3851,-2.41955,-0.0532119,0.368674,-0.313721,0.741686,-0.00188906,-0.00304286,0.591138,-0.05182092795195592,1.099472242395632,-0.0018872768491612346,0.44581619076042167,-0.003038235193578931,-0.26927712859690844
806,0.7948,221.518,684.952,-0.000328472,389.497,-1.37952,-2.42219,-0.0532653,0.369026,-0.31402,0.742394,-0.00189246,-0.00304855,0.591706,-0.05187155936253263,1.1009591950623792,-0.00189067042665092,0.4463252076412847,-0.0030439078898818472,-0.26949558207503554
807,0.7958,221.505,684.913,-0.0188089,389.507,-1.39021,-2.42798,-0.0533186,0.369378,-0.314318,0.743102,-0.0018961,-0.00305433,0.592274,-0.05192209326167818,1.1024472008643804,-0.0018943035379982431,0.44683440372762795,-0.003049670279440919,-0.2697132399589417
808,0.7968,221.524,684.947,3.74383e-05,389.5,-1.38415,-2.43054,-0.0533719,0.36973,-0.314617,0.743809,-0.0018995,-0.00306003,0.592841,-0.05197262446743878,1.1039341566123109,-0.0018976970915971503,0.4473437790825432,-0.0030553528801249286,-0.2699315630592639
809,0.7978,221.51,684.907,-0.0195761,389.511,-1.39535,-2.43645,-0.0534252,0.370081,-0.314915,0.744516,-0.00190316,-0.00306583,0.593408,-0.052023152979957854,1.1054221640096689,-0.001901350139340785,0.4478518859165339,-0.0030611351423096567,-0.27014909104019336
810,0.7988,221.529,684.943,0.000344399,389.503,-1.38878,-2.43893,-0.0534784,0.370432,-0.315213,0.745222,-0.00190656,-0.00307155,0.593975,-0.05207358400674211,1.1069091168900642,-0.0019047436689813013,0.4483601711273266,-0.0030668376163075495,-0.27036655420744216
811,0.7998,221.514,684.9,-0.0203477,389.514,-1.40052,-2.44495,-0.0535316,0.370783,-0.315511,0.745929,-0.00191024,-0.00307736,0.594541,-0.052124012350667104,1.1083992283280293,-0.0019084166527663093,0.4488686347775426,-0.0030726297811547454,-0.270583952580322
812,0.8008,221.535,684.939,0.000744518,389.505,-1.39344,-2.44736,-0.0535848,0.371134,-0.315808,0.746634,-0.00191365,-0.0030831,0.595107,-0.05217443801187549,1.1098861738707169,-0.001911820139262499,0.4493772769298252,-0.003078352127836581,-0.27080055697906014
813,0.8018,221.519,684.893,-0.0211414,389.517,-1.40572,-2.4535,-0.0536379,0.371485,-0.316106,0.74734,-0.00191735,-0.00308893,0.595673,-0.05222476621299155,1.1113762794548472,-0.0019155130586960833,0.4498860976468395,-0.0030841641641016215,-0.27101782603838265
814,0.8028,221.541,684.934,0.0011241,389.508,-1.39811,-2.45582,-0.053691,0.371835,-0.316403,0.748045,-0.00192075,-0.00309468,0.596239,-0.052275091741751045,1.1128653245585878,-0.0019189065401827854,0.45039364659690095,-0.0030898964136774065,-0.2712343015958377
815,0.8038,221.524,684.887,-0.0219395,389.52,-1.41094,-2.46208,-0.0537441,0.372185,-0.3167,0.748749,-0.00192447,-0.00310053,0.596804,-0.05232541459829587,1.1143533054548969,-0.0019226193949445358,0.45090137322018586,-0.003095728320725022,-0.2714507128695989
816,0.8048,221.547,684.93,0.00156435,389.511,-1.4028,-2.46433,-0.0537972,0.372536,-0.316997,0.749453,-0.00192788,-0.0031063,0.597369,-0.052375734782768024,1.115842334258577,-0.0019260228330095774,0.451410728988894,-0.0031014804417777153,-0.2716670598787554
817,0.8058,221.529,684.88,-0.0227596,389.524,-1.41619,-2.47071,-0.0538501,0.372885,-0.317294,0.750157,-0.00193162,-0.00311217,0.597933,-0.052425862780500765,1.1173324117076149,-0.0019297556227038104,0.45191735973523417,-0.003107332218912573,-0.2718833426423912
818,0.8068,221.553,684.925,0.00195732,389.514,-1.40749,-2.47286,-0.0539032,0.373235,-0.317591,0.750861,-0.00193503,-0.00311795,0.598497,-0.05247617763131596,1.118823538540517,-0.0019331590364343176,0.4524256197514558,-0.00311309424188011,-0.2720995611795842
819,0.8078,221.534,684.873,-0.0235789,389.527,-1.42148,-2.47937,-0.0539561,0.373584,-0.317887,0.751564,-0.00193878,-0.00312384,0.599061,-0.05252630031576255,1.1203135951816536,-0.0019369017800703325,0.45293260475648656,-0.0031189658884629434,-0.2723149878247587
820,0.8088,221.559,684.92,0.00238228,389.516,-1.41221,-2.48144,-0.054009,0.373934,-0.318184,0.752266,-0.00194219,-0.00312963,0.599625,-0.05257642034878929,1.121802577897256,-0.0019403051694324436,0.4534412201706566,-0.003124737812940759,-0.2725310781823682
821,0.8098,221.539,684.865,-0.024482,389.531,-1.42678,-2.48808,-0.0540619,0.374283,-0.31848,0.752969,-0.00194597,-0.00313555,0.600188,-0.05262653773053649,1.1232947295393672,-0.001944077827948587,0.45394855968209136,-0.0031306392970245067,-0.2727463771174119
822,0.8108,221.565,684.916,0.00287505,389.519,-1.41695,-2.49005,-0.0541148,0.374632,-0.318776,0.753671,-0.00194938,-0.00314136,0.600751,-0.05267665246114417,1.1247858057460185,-0.0019474811928404945,0.45445607628591644,-0.003136431091184999,-0.27296161233340166
823,0.8118,221.544,684.858,-0.0253384,389.534,-1.43213,-2.49683,-0.0541676,0.37498,-0.319072,0.754372,-0.00195318,-0.00314729,0.601314,-0.052726669813424554,1.1262758027787911,-0.001951273785205987,0.45496231508090523,-0.003142342474621418,-0.27317678384919564
824,0.8128,221.571,684.911,0.00335386,389.522,-1.42169,-2.4987,-0.0542205,0.375329,-0.319367,0.755073,-0.00195659,-0.00315311,0.601876,-0.05277677924718516,1.1277668446656617,-0.001954677125559634,0.45547018554710994,-0.0031481441693052004,-0.2733911650751746
825,0.8138,221.549,684.851,-0.0262684,389.538,-1.4375,-2.50562,-0.0542732,0.375677,-0.319663,0.755774,-0.00196041,-0.00315907,0.602438,-0.05282669659558514,1.1292589321393307,-0.0019584896514110994,0.45597677731353525,-0.003154085388661132,-0.27360620946217284
826,0.8148,221.577,684.906,0.00378396,389.525,-1.42645,-2.50739,-0.054326,0.376025,-0.319958,0.756474,-0.00196383,-0.00316491,0.603,-0.05287670602574435,1.1307499351820107,-0.0019619029475397287,0.4564835454045739,-0.0031599069518034595,-0.2738204640262796
827,0.8158,221.554,684.843,-0.0271448,389.542,-1.4429,-2.51444,-0.0543787,0.376373,-0.320253,0.757175,-0.00196766,-0.00317088,0.603561,-0.05292661810814192,1.1322441145352502,-0.0019657254261313817,0.4569904898815975,-0.0031658580693948446,-0.2740346553946117
828,0.8168,221.584,684.901,0.00426116,389.528,-1.43123,-2.51612,-0.0544314,0.376721,-0.320548,0.757874,-0.00197108,-0.00317673,0.604122,-0.05297652756024196,1.1337350742010064,-0.001969138697513806,0.4574976108059994,-0.003171689532068145,-0.2742487835858092
829,0.8178,221.56,684.835,-0.028111,389.546,-1.44833,-2.52331,-0.054484,0.377068,-0.320843,0.758574,-0.00197493,-0.00318273,0.604683,-0.053026339684821955,1.13522921164004,-0.0019729811089331806,0.4580034502350143,-0.003177670483988093,-0.27446284861850656
830,0.8188,221.591,684.896,0.00477848,389.532,-1.43603,-2.52489,-0.0545367,0.377416,-0.321138,0.759272,-0.00197836,-0.0031886,0.605244,-0.053076243881733376,1.136720121896913,-0.001976404335737092,0.458510923730963,-0.00318352181388859,-0.27467685051133295
831,0.8198,221.565,684.828,-0.0290427,389.549,-1.45378,-2.53223,-0.0545892,0.377762,-0.321432,0.759971,-0.00198223,-0.00319462,0.605804,-0.05312595607397319,1.1382142113855607,-0.001980266679578735,0.4590156558241907,-0.003189522631024788,-0.2748900641733386
832,0.8208,221.597,684.891,0.00530772,389.535,-1.44085,-2.53369,-0.0546418,0.37811,-0.321727,0.760669,-0.00198565,-0.0032005,0.606364,-0.05317576033881999,1.139707205899577,-0.001983679901230051,0.4595234816289826,-0.0031953838593997697,-0.2751039400561637
833,0.8218,221.571,684.82,-0.0299278,389.553,-1.45926,-2.54118,-0.0546943,0.378456,-0.322021,0.761367,-0.00198955,-0.00320654,0.606923,-0.05322546730658284,1.1412012428875453,-0.0019875721572885086,0.46002856412785964,-0.00320140454109874,-0.2753170281722992
834,0.8228,221.604,684.886,0.00574925,389.538,-1.44569,-2.54254,-0.0547469,0.378803,-0.322315,0.762064,-0.00199297,-0.00321243,0.607482,-0.05327526633727653,1.1426941803821147,-0.0019909853539551436,0.46053528195006965,-0.0032072756675355363,-0.27553005364973693
835,0.8238,221.576,684.812,-0.0308541,389.557,-1.46476,-2.55017,-0.0547993,0.379149,-0.322609,0.762761,-0.00199689,-0.00321849,0.608041,-0.05332487341360381,1.144188158816843,-0.0019948975416246295,0.4610407145924291,-0.0032133162131421367,-0.2757430165068899
836,0.8248,221.611,684.881,0.00626116,389.541,-1.45055,-2.55143,-0.0548518,0.379495,-0.322902,0.763457,-0.00200031,-0.0032244,0.6086,-0.05337457255313571,1.1456810332354133,-0.001998310713238527,0.4615463221447407,-0.0032192072050353238,-0.2759551927177206
837,0.8258,221.582,684.804,-0.0317927,389.561,-1.47028,-2.5592,-0.0549042,0.379841,-0.323196,0.764154,-0.00200425,-0.00323049,0.609158,-0.053424174425953486,1.1471770942322688,-0.0020022428321481156,0.4620521046675332,-0.0032252775815792,-0.2761680306023595
838,0.8268,221.618,684.875,0.00677714,389.545,-1.45544,-2.56036,-0.0549566,0.380187,-0.323489,0.764849,-0.00200768,-0.00323641,0.609716,-0.0534737736997013,1.1486699010030246,-0.002005665958584535,0.4625580622213574,-0.003231178470469276,-0.27638008230230193
839,0.8278,221.588,684.795,-0.0327349,389.565,-1.47583,-2.56828,-0.0550089,0.380532,-0.323783,0.765545,-0.00201163,-0.00324252,0.610274,-0.05352327572684745,1.1501658957999217,-0.0020096080284183193,0.4630627318033209,-0.003237268709363139,-0.27659279528776404
840,0.8288,221.625,684.87,0.00727211,389.548,-1.46036,-2.56933,-0.0550613,0.380878,-0.324076,0.76624,-0.00201506,-0.00324846,0.610831,-0.053572869807823165,1.1516607805097672,-0.002013031129592169,0.4635690390946352,-0.0032431894624023183,-0.27680472254988464
841,0.8298,221.594,684.787,-0.0336208,389.569,-1.4814,-2.57739,-0.0551135,0.381223,-0.324369,0.766935,-0.00201904,-0.00325458,0.611389,-0.05362227201461034,1.1531567045256028,-0.0020170031098241115,0.4640740575237927,-0.0032492895954163714,-0.27701658772641347
842,0.8308,221.632,684.864,0.00774271,389.551,-1.4653,-2.57835,-0.0551658,0.381568,-0.324661,0.767629,-0.00202247,-0.00326054,0.611945,-0.053671766275497745,1.1546515139174063,-0.0020204261856328065,0.46457925021436663,-0.003255230211947291,-0.27722766806356836
843,0.8318,221.6,684.779,-0.0345146,389.573,-1.48699,-2.58654,-0.055218,0.381913,-0.324954,0.768323,-0.00202647,-0.00326669,0.612502,-0.05372116332002408,1.1561473610669881,-0.002024418095944225,0.46508461722648775,-0.0032613601734319264,-0.2774394093352146
844,0.8328,221.639,684.859,0.00823497,389.555,-1.47026,-2.58741,-0.0552703,0.382258,-0.325246,0.769016,-0.0020299,-0.00327266,0.613058,-0.05377065240903156,1.1576420890516341,-0.0020278411463195978,0.46559015862030684,-0.003267310685349356,-0.27765036622648365
845,0.8338,221.606,684.77,-0.035479,389.578,-1.4926,-2.59573,-0.0553224,0.382602,-0.325538,0.76971,-0.00203392,-0.00327883,0.613614,-0.053819949673836076,1.15914001238071,-0.002031852986334459,0.46609440836085514,-0.003273460507070225,-0.27786126152733315
846,0.8348,221.647,684.853,0.0087134,389.558,-1.47525,-2.5965,-0.0553746,0.382946,-0.32583,0.770402,-0.00203735,-0.00328481,0.61417,-0.05386933898339097,1.1606346543557566,-0.0020352760112082313,0.46659883159315285,-0.0032794209139547226,-0.27807209525574483
847,0.8358,221.612,684.762,-0.0363862,389.582,-1.49825,-2.60498,-0.0554267,0.38329,-0.326122,0.771095,-0.00204139,-0.00329101,0.614725,-0.053918631106758985,1.1621324931124097,-0.002039307780548949,0.4671034283768918,-0.0032856005623881357,-0.2782828674296951
848,0.8368,221.654,684.847,0.00917247,389.562,-1.48026,-2.60564,-0.0554788,0.383634,-0.326414,0.771787,-0.00204483,-0.00329701,0.61528,-0.05396792066207423,1.1636292066007834,-0.0020427407594254543,0.4676081987717835,-0.00329158083084391,-0.27849357806715536
849,0.8378,221.619,684.753,-0.0373276,389.586,-1.5039,-2.61426,-0.0555308,0.383977,-0.326706,0.772479,-0.00204889,-0.00330322,0.615835,-0.054017113051186616,1.165126956173335,-0.00204679245767303,0.46811167472515214,-0.0032977703709083928,-0.27870422718609167
850,0.8388,221.662,684.841,0.00962896,389.566,-1.48531,-2.61482,-0.0555829,0.384321,-0.326997,0.77317,-0.00205233,-0.00330924,0.616389,-0.05406639747572617,1.1666235759226238,-0.002050225410802242,0.46861679201645057,-0.00330377050027042,-0.27891409371891906
851,0.8398,221.625,684.745,-0.0381843,389.59,-1.50957,-2.62358,-0.0556348,0.384664,-0.327289,0.773861,-0.00205641,-0.00331547,0.616943,-0.05411549015573114,1.1681212301935453,-0.0020542970375764247,0.46912061397663884,-0.0033099798984378426,-0.27912462006521066
852,0.8408,221.669,684.835,0.0100327,389.569,-1.49039,-2.62405,-0.0556868,0.385008,-0.32758,0.774551,-0.00205985,-0.00332151,0.617497,-0.0541646748714294,1.1696177500823657,-0.002057729964890065,0.46962607840274373,-0.0033159998879789265,-0.27933436428150815
853,0.8418,221.632,684.736,-0.039147,389.595,-1.51526,-2.63294,-0.0557387,0.38535,-0.327871,0.775242,-0.00206395,-0.00332777,0.61805,-0.05421376245096987,1.1711174740426267,-0.0020618215198094925,0.4701287764780284,-0.0033222391102908366,-0.2795440474711185
854,0.8428,221.677,684.829,0.0105096,389.573,-1.4955,-2.63332,-0.0557907,0.385693,-0.328161,0.775931,-0.00206739,-0.00333382,0.618603,-0.054262942056641505,1.1726138894381477,-0.002065254421238838,0.47063311713783906,-0.0033282689925038245,-0.2797529494051073
855,0.8438,221.638,684.727,-0.0399443,389.599,-1.52098,-2.64235,-0.0558425,0.386035,-0.328452,0.776621,-0.00207152,-0.00334009,0.619156,-0.05431192996744516,1.174113510331571,-0.002069375883227309,0.4711361596792716,-0.0033345181046662287,-0.2799625108041681
856,0.8448,221.685,684.822,0.0109588,389.577,-1.50063,-2.64264,-0.0558944,0.386378,-0.328742,0.77731,-0.00207496,-0.00334616,0.619709,-0.05436100990464443,1.1756119907073987,-0.002072808758669664,0.4716408459307857,-0.0033405678457802956,-0.2801712914013851
857,0.8458,221.645,684.718,-0.0408375,389.604,-1.52671,-2.65179,-0.0559461,0.38672,-0.329033,0.777999,-0.00207911,-0.00335246,0.620261,-0.05440989817665964,1.1771115038919673,-0.002076950147919976,0.4721442331744061,-0.003346846780424295,-0.280380731080636
858,0.8468,221.693,684.816,0.0113235,389.581,-1.5058,-2.652,-0.055998,0.387062,-0.329323,0.778687,-0.00208255,-0.00335854,0.620813,-0.054458973029440916,1.1786098719861657,-0.002080382997306951,0.4726477926059065,-0.003352906413174539,-0.28058939041155717
859,0.8478,221.652,684.709,-0.0416803,389.608,-1.53246,-2.66128,-0.0560497,0.387403,-0.329613,0.779376,-0.00208672,-0.00336487,0.621365,-0.05450785623689347,1.1801114514226776,-0.002084544313433523,0.47315005113339703,-0.003359215169309704,-0.28079798924004584
860,0.8488,221.701,684.809,0.0116056,389.585,-1.511,-2.66141,-0.0561015,0.387745,-0.329903,0.780063,-0.00209017,-0.00337097,0.621916,-0.054556831461471056,1.18160970258015,-0.002087987115816814,0.47365395461346815,-0.0033652946595547073,-0.28100652758364486
861,0.8498,221.659,684.7,-0.042465,389.613,-1.53822,-2.67081,-0.0561531,0.388086,-0.330193,0.780751,-0.00209435,-0.00337731,0.622467,-0.054605615070339786,1.183111166499888,-0.0020921583793126475,0.47415655630070885,-0.0033716133035563978,-0.28121500545989253
862,0.8508,221.709,684.802,0.0119635,389.589,-1.51625,-2.67087,-0.0562048,0.388428,-0.330482,0.781437,-0.00209781,-0.00338343,0.623018,-0.05465449069659478,1.18460929455928,-0.002095611134471431,0.47466080406441624,-0.003377712650619036,-0.2814227043093852
863,0.8518,221.666,684.691,-0.0432196,389.618,-1.54399,-2.68038,-0.0562564,0.388769,-0.330771,0.782124,-0.00210201,-0.00338979,0.623569,-0.05470326926637692,1.186110636796652,-0.002099802324103117,0.4751637491458651,-0.0033840511482100544,-0.2816303431425832
864,0.8528,221.717,684.795,0.0122331,389.593,-1.52154,-2.68037,-0.0563081,0.38911,-0.33106,0.78281,-0.00210547,-0.00339593,0.624119,-0.05475213984404059,1.1876108231985985,-0.002103255052813835,0.4756668657608314,-0.0033901703513500303,-0.28183792197682866
865,0.8538,221.673,684.682,-0.0440067,389.622,-1.54976,-2.68999,-0.0563596,0.38945,-0.33135,0.783496,-0.00210969,-0.00340232,0.624669,-0.05480081885534327,1.1891120390814884,-0.002107466168192129,0.47616867779840244,-0.0033965386678147524,-0.282046158783659
866,0.8548,221.725,684.788,0.012523,389.597,-1.52687,-2.68991,-0.0564112,0.389791,-0.331638,0.784181,-0.00211316,-0.00340847,0.625218,-0.054849589874787275,1.190612094538598,-0.002110928849276772,0.4766721371524729,-0.003402667760254996,-0.28225289971780587
867,0.8558,221.681,684.673,-0.0447632,389.627,-1.55556,-2.69965,-0.0564626,0.390131,-0.331927,0.784867,-0.0021174,-0.00341488,0.625768,-0.054898169357364246,1.1921153699999816,-0.0021151598899685764,0.4771742910404284,-0.00340905592868046,-0.28246029865919686
868,0.8568,221.733,684.781,0.012787,389.602,-1.53222,-2.69951,-0.0565142,0.390471,-0.332216,0.785551,-0.00212087,-0.00342105,0.626316,-0.054946935353651916,1.193615289827164,-0.002118622544356019,0.4776766156897334,-0.003415204875835909,-0.28266763767095404
869,0.8578,221.688,684.663,-0.0453965,389.632,-1.56137,-2.70935,-0.0565656,0.390811,-0.332504,0.786236,-0.00212513,-0.00342748,0.626865,-0.05499550983279988,1.1951184310677943,-0.002122873509969425,0.4781791111584568,-0.003421612895466719,-0.28287419964495275
870,0.8588,221.742,684.773,0.0129426,389.606,-1.53762,-2.70916,-0.0566171,0.391151,-0.332792,0.786919,-0.0021286,-0.00343366,0.627414,-0.055044176310870996,1.1966182090720996,-0.002126336137590723,0.4786817775046872,-0.0034277717308682787,-0.2830807021376688
871,0.8598,221.696,684.654,-0.0461361,389.637,-1.56718,-2.71908,-0.0566684,0.39149,-0.333081,0.787603,-0.00213288,-0.00344012,0.627962,-0.05509265130123209,1.1981212098947873,-0.0021306070277323785,0.4791831356026577,-0.0034342095666686223,-0.28328786187872657
872,0.8608,221.75,684.766,0.0132599,389.61,-1.54306,-2.71884,-0.0567198,0.391829,-0.333369,0.788286,-0.00213636,-0.00344632,0.628509,-0.0551412182907729,1.1996230394975727,-0.002134079607177597,0.47968466368983464,-0.003440388255415372,-0.2834942452538729
873,0.8618,221.703,684.645,-0.0467711,389.641,-1.57301,-2.72888,-0.0567711,0.392168,-0.333656,0.788969,-0.00214066,-0.0034528,0.629057,-0.05518968830300808,1.2011258952003496,-0.002138370421410074,0.48018636182385466,-0.0034468459407764884,-0.2836998528993766
874,0.8628,221.758,684.758,0.0133313,389.615,-1.54855,-2.72858,-0.0568224,0.392508,-0.333944,0.789651,-0.00214415,-0.00345902,0.629604,-0.05523815582879554,1.2026275750755082,-0.002141852952420198,0.4806897107513435,-0.0034530444821172512,-0.2839061176381935
875,0.8638,221.711,684.635,-0.0473985,389.646,-1.57885,-2.7387,-0.0568736,0.392846,-0.334232,0.790334,-0.00214846,-0.00346552,0.630151,-0.05528652639692,1.2041324835770362,-0.0021461537117658525,0.4811902684630651,-0.0034595220162761953,-0.28411232298131894
876,0.8648,221.767,684.75,0.0133734,389.62,-1.55407,-2.73837,-0.056925,0.393185,-0.334519,0.791015,-0.00215195,-0.00347176,0.630698,-0.055335083421536924,1.2056340090097328,-0.0021496362156124826,0.4816924770836257,-0.003465740409457352,-0.2843177532639677
877,0.8658,221.719,684.626,-0.047828,389.651,-1.5847,-2.74857,-0.0569761,0.393523,-0.334806,0.791698,-0.00215628,-0.00347828,0.631244,-0.05538335456543586,1.2071409716070316,-0.002153956898333309,0.4821933737876545,-0.0034722377916484026,-0.284523124596585
878,0.8668,221.775,684.741,0.0133864,389.624,-1.55964,-2.74822,-0.0570274,0.393861,-0.335093,0.792378,-0.00215979,-0.00348454,0.63179,-0.05543181215639881,1.208642337874403,-0.002157459331797895,0.48269443982338434,-0.003478476035914113,-0.2847284369960872
879,0.8678,221.728,684.617,-0.0484752,389.656,-1.59056,-2.75846,-0.0570784,0.394199,-0.33538,0.793059,-0.00216413,-0.00349108,0.632336,-0.05547998390558884,1.2101469355638605,-0.0021617899590269385,0.4831956752480595,-0.0034849932653694404,-0.28493369047938566
880,0.8688,221.784,684.733,0.0134473,389.629,-1.56525,-2.75811,-0.0571296,0.394537,-0.335666,0.793739,-0.00216765,-0.00349736,0.632881,-0.055528342092432625,1.2116503465818589,-0.002165302343344444,0.4836970801189431,-0.0034912513599613115,-0.28513817020191434
881,0.8698,221.736,684.607,-0.0489485,389.661,-1.59642,-2.76843,-0.0571807,0.394875,-0.335953,0.79442,-0.00217201,-0.00350392,0.633427,-0.055576603361065846,1.2131569934229036,-0.002169652893141971,0.4841986544933172,-0.0034977884359107536,-0.28534330610865577
882,0.8708,221.793,684.724,0.0134794,389.634,-1.57092,-2.76803,-0.0572318,0.395212,-0.336239,0.795099,-0.00217553,-0.00351022,0.633972,-0.05562486216361118,1.214660237314984,-0.002173165249782061,0.48469891372882823,-0.0035040663800680605,-0.2855476686978654
883,0.8718,221.744,684.598,-0.049396,389.666,-1.60229,-2.77843,-0.0572828,0.395549,-0.336526,0.795779,-0.00217991,-0.0035168,0.634516,-0.05567302406750185,1.216166718421885,-0.002177535721746948,0.4851993415801117,-0.003510623301739013,-0.2857526870954018
884,0.8728,221.802,684.716,0.0133187,389.639,-1.57664,-2.77803,-0.0573338,0.395887,-0.336812,0.796457,-0.00218344,-0.00352312,0.63506,-0.05572118351519806,1.2176697889403023,-0.0021810580288289527,0.48570142380468173,-0.0035169210946986995,-0.2859569326183905
885,0.8738,221.753,684.588,-0.0497627,389.671,-1.60815,-2.78847,-0.0573847,0.396223,-0.337098,0.797136,-0.00218783,-0.00352973,0.635605,-0.05576924608375433,1.2191760980610669,-0.0021854384443692476,0.48620070335734766,-0.0035235078260811292,-0.28616111973551206
886,0.8748,221.811,684.707,0.0132136,389.644,-1.5824,-2.78807,-0.0574357,0.39656,-0.337383,0.797814,-0.00219137,-0.00353606,0.636148,-0.05581740062425289,1.2206812096307185,-0.002188970701665016,0.4867016373970239,-0.003529815502312683,-0.2863645348283599
887,0.8758,221.762,684.579,-0.0501204,389.676,-1.61403,-2.79856,-0.0574866,0.396896,-0.337669,0.798492,-0.00219578,-0.00354269,0.636692,-0.05586545829548295,1.2221873420120297,-0.0021933710386015104,0.4872012530779233,-0.0035364220777350797,-0.28656860538791795
888,0.8768,221.819,684.697,0.0129734,389.649,-1.58821,-2.79817,-0.0575375,0.397233,-0.337955,0.799169,-0.00219933,-0.00354904,0.637235,-0.05591351352063989,1.2236922722039623,-0.00219691324584681,0.48770252435967754,-0.003542749601365025,-0.2867726175916413
889,0.8778,221.771,684.569,-0.0504613,389.682,-1.61992,-2.80868,-0.0575883,0.397569,-0.33824,0.799847,-0.00220375,-0.00355569,0.637778,-0.05596147189599998,1.2252004467779236,-0.002201323525743537,0.4882024763951007,-0.0035493760200473456,-0.2869758584324321
890,0.8788,221.829,684.688,0.0128489,389.654,-1.59406,-2.80831,-0.0576392,0.397905,-0.338525,0.800523,-0.00220731,-0.00356207,0.63832,-0.05600952223418898,1.2267051908261313,-0.0022048756827089955,0.48870259644263236,-0.003555733354748347,-0.2871790413578368
891,0.8798,221.78,684.56,-0.0506679,389.687,-1.62582,-2.81886,-0.0576899,0.398241,-0.33881,0.8012,-0.00221175,-0.00356874,0.638863,-0.05605738133817317,1.2282131806372751,-0.002209305883225876,0.48920288455873395,-0.0035623796158416043,-0.28738216638435854
892,0.8808,221.838,684.679,0.0125294,389.659,-1.59995,-2.8185,-0.0577408,0.398577,-0.339095,0.801876,-0.00221532,-0.00357514,0.639404,-0.05610542679469588,1.2297199619821004,-0.002212867989645595,0.48970334079988587,-0.0035687567962050526,-0.2875852335284964
893,0.8818,221.789,684.55,-0.0509378,389.692,-1.63175,-2.82907,-0.0577914,0.398912,-0.33938,0.802552,-0.00221977,-0.00358183,0.639946,-0.056153186651765497,1.2312277622554735,-0.002217308132503648,0.49020247501936765,-0.0035754228989239856,-0.28778824280674464
894,0.8828,221.847,684.669,0.0123682,389.664,-1.60588,-2.82875,-0.0578422,0.399247,-0.339664,0.803227,-0.00222336,-0.00358825,0.640488,-0.05620113285203976,1.2327343494109577,-0.002220890165937739,0.4907017764768238,-0.003581819924174501,-0.28799048222643053
895,0.8838,221.798,684.54,-0.0512303,389.697,-1.63767,-2.83934,-0.0578928,0.399582,-0.339949,0.803903,-0.00222782,-0.00359496,0.641029,-0.05624888786650539,1.2342441880991397,-0.0022253402508438658,0.49120124522828834,-0.0035885058677314063,-0.2881933760252563
896,0.8848,221.856,684.659,0.0119907,389.67,-1.61186,-2.83904,-0.0579435,0.399917,-0.340233,0.804577,-0.00223142,-0.0036014,0.641569,-0.05629673483495967,1.2357505762777081,-0.002228932233153458,0.49170088132981404,-0.0035949227370912773,-0.28839550040344497
897,0.8858,221.807,684.531,-0.0513493,389.703,-1.64361,-2.84966,-0.0579941,0.400252,-0.340517,0.805252,-0.00223589,-0.00360813,0.64211,-0.05634448501208733,1.2372602173632425,-0.0022333922598581912,0.4922006848374729,-0.0036016285206962317,-0.2885975673864606
898,0.8868,221.865,684.649,0.0115974,389.675,-1.61789,-2.8494,-0.0580447,0.400587,-0.340801,0.805925,-0.00223951,-0.00361459,0.64265,-0.056392232773117223,1.2387664002632248,-0.002237004168440637,0.4927006558073552,-0.0036080652333854157,-0.2887995769906013
899,0.8878,221.817,684.521,-0.0513518,389.708,-1.64955,-2.86001,-0.0580952,0.400921,-0.341085,0.806599,-0.00224399,-0.00362135,0.64319,-0.05643988376216458,1.2402758374401888,-0.002241474136649213,0.49319930109552246,-0.0036148008200981296,-0.28900152923216027
900,0.8888,221.875,684.638,0.0110472,389.681,-1.62399,-2.85982,-0.0581458,0.401255,-0.341368,0.807272,-0.00224762,-0.00362783,0.64373,-0.056487626696139714,1.2417840505355664,-0.002245095993524404,0.4936981129590323,-0.0036212573752695265,-0.28920271333049496
901,0.8898,221.827,684.511,-0.0515716,389.714,-1.65547,-2.8704,-0.0581962,0.401589,-0.341652,0.807946,-0.00225212,-0.00363461,0.64427,-0.05653517852143819,1.2432955222943916,-0.002249585880490179,0.4941970914535305,-0.0036280128002436074,-0.28940455109758956
902,0.8908,221.884,684.628,0.0107991,389.686,-1.63012,-2.87028,-0.0582468,0.401923,-0.341935,0.808618,-0.00225576,-0.00364111,0.644808,-0.056582916633620584,1.2448035235170352,-0.002253217685387665,0.494696236634681,-0.0036344891971121784,-0.2896056211568736
903,0.8918,221.837,684.501,-0.0516332,389.719,-1.66146,-2.88086,-0.0582971,0.402256,-0.342218,0.809291,-0.00226027,-0.00364791,0.645347,-0.056630369319468854,1.2463147847707328,-0.0022577175132287852,0.49519405336336564,-0.003641264459549709,-0.2898066343213819
904,0.8928,221.894,684.617,0.0101593,389.692,-1.63628,-2.88078,-0.0583476,0.40259,-0.342501,0.809962,-0.00226393,-0.00365444,0.645886,-0.05667800828292435,1.2478225677959465,-0.0022613692433000043,0.49569353158540874,-0.0036477706608499805,-0.29000759060721326
905,0.8938,221.846,684.491,-0.0516729,389.725,-1.66743,-2.89135,-0.0583979,0.402923,-0.342784,0.810634,-0.00226844,-0.00366125,0.646424,-0.05672545618578295,1.2493336122155667,-0.0022658690343777543,0.4961916804686124,-0.0036545557964283715,-0.2902084900304621
906,0.8948,221.903,684.606,0.00964858,389.698,-1.6425,-2.89135,-0.0584483,0.403256,-0.343067,0.811304,-0.00227212,-0.0036678,0.646962,-0.056772996024777145,1.2508411707114524,-0.0022695406892238035,0.49668999526301705,-0.0036610818377150744,-0.29040933260721846
907,0.8958,221.857,684.482,-0.0514052,389.73,-1.6734,-2.90188,-0.0584986,0.403589,-0.34335,0.811976,-0.00227665,-0.00367464,0.6475,-0.05682043914987245,1.252354244313961,-0.0022740603979674034,0.49718847602387983,-0.003667896772608259,-0.2906101183535674
908,0.8968,221.913,684.595,0.00897257,389.704,-1.64878,-2.90199,-0.0585489,0.403922,-0.343632,0.812646,-0.00228034,-0.00368121,0.648037,-0.05686787988863873,1.2538638273114842,-0.002277741999891947,0.4976871228064772,-0.003674442653023191,-0.2908101380960826
909,0.8978,221.867,684.472,-0.0512946,389.736,-1.67937,-2.91246,-0.0585991,0.404254,-0.343914,0.813317,-0.00228487,-0.00368807,0.648574,-0.05691522393272286,1.2553766774440676,-0.0022822616714835986,0.498184437480917,-0.0036812774229032508,-0.2910101014409827
910,0.8988,221.923,684.584,0.00823425,389.71,-1.65512,-2.91268,-0.0586494,0.404587,-0.344196,0.813986,-0.00228859,-0.00369467,0.649111,-0.05696265990393434,1.2568860292631672,-0.002285973174566802,0.4986834159739062,-0.003687853104772487,-0.29121000840416966
911,0.8998,221.877,684.462,-0.0513741,389.741,-1.68536,-2.92309,-0.0586995,0.404918,-0.344478,0.814656,-0.00229313,-0.00370155,0.649648,-0.0570099048911763,1.2583986495739934,-0.0022905027859663196,0.49917956229227944,-0.003694707708763345,-0.29140985900154115
912,0.9008,221.932,684.572,0.00767574,389.716,-1.6615,-2.92339,-0.0587498,0.405251,-0.34476,0.815324,-0.00229686,-0.00370817,0.650184,-0.05705733610005537,1.2599077638599634,-0.0022942242354504483,0.4996788722170111,-0.0037013032279670233,-0.2916096532489898
913,0.9018,221.888,684.452,-0.0512408,389.747,-1.69137,-2.9338,-0.0587998,0.405582,-0.345042,0.815994,-0.00230141,-0.00371507,0.65072,-0.05710448205459173,1.2614224094113484,-0.002298763786402702,0.5001753480859386,-0.0037081776652579945,-0.2918093911624041
914,0.9028,221.942,684.561,0.0069627,389.722,-1.66789,-2.93417,-0.05885,0.405914,-0.345323,0.816662,-0.00230516,-0.00372171,0.651256,-0.05715181422154525,1.2629335442436775,-0.002302505159023416,0.5006734889883173,-0.0037147930209953106,-0.2920083647663868
915,0.9038,221.899,684.442,-0.0510949,389.753,-1.69742,-2.94454,-0.0589,0.406245,-0.345605,0.81733,-0.00230972,-0.00372863,0.651791,-0.05719895545229359,1.2644456888513016,-0.0023070546492270916,0.5011702941298875,-0.003721687290773379,-0.29220799025900535
916,0.9048,221.952,684.549,0.00619645,389.728,-1.67432,-2.94501,-0.0589501,0.406577,-0.345886,0.817997,-0.00231349,-0.0037353,0.652326,-0.05724618860142516,1.2659565779512651,-0.002310815944540967,0.5016687654091923,-0.003728332444957516,-0.29240685187237736
917,0.9058,221.91,684.432,-0.0508345,389.759,-1.70349,-2.95531,-0.0590001,0.406908,-0.346167,0.818665,-0.00231805,-0.00374224,0.652861,-0.057293325113572435,1.2674707426200316,-0.002315365396847513,0.5021659000417855,-0.003735246546338389,-0.29260565761348645
918,0.9068,221.962,684.537,0.00522393,389.734,-1.68081,-2.95592,-0.0590501,0.407239,-0.346448,0.819332,-0.00232185,-0.00374893,0.653396,-0.05734045926895304,1.2689836501039151,-0.0023191565912557,0.5026631992531785,-0.003741911535244613,-0.2928044074980304
919,0.9078,221.921,684.422,-0.0505162,389.765,-1.70956,-2.96612,-0.0591,0.407569,-0.346729,0.819999,-0.00232642,-0.00375589,0.65393,-0.057387496806439176,1.2704975670337038,-0.002323715982291863,0.5031591599379441,-0.0037488454674101668,-0.29300310154170295
920,0.9088,221.973,684.524,0.00447532,389.741,-1.68735,-2.96689,-0.05915,0.4079,-0.347009,0.820665,-0.00233023,-0.00376261,0.654464,-0.05743462625335294,1.2720102220715632,-0.002327517121692768,0.50365678797278,-0.0037555402526741055,-0.2932010329615793
921,0.9098,221.932,684.411,-0.0504763,389.771,-1.71564,-2.97701,-0.0591998,0.40823,-0.34729,0.821332,-0.00233481,-0.00376959,0.654998,-0.05748156484018496,1.2735261583982478,-0.0023320864512006434,0.5041530765959301,-0.0037624940147344965,-0.29339961556915406
922,0.9108,221.983,684.512,0.003748,389.747,-1.69394,-2.97787,-0.0592498,0.408561,-0.34757,0.821997,-0.00233864,-0.00377633,0.655531,-0.05752868958381452,1.2750385561100868,-0.002335907511992197,0.504651033671633,-0.003769208632896537,-0.2935974359806447
923,0.9118,221.943,684.401,-0.0502796,389.776,-1.72171,-2.98797,-0.0592995,0.40889,-0.34785,0.822663,-0.00234322,-0.00378333,0.656065,-0.05757552924396703,1.276554236453987,-0.0023404768030721446,0.5051461453031083,-0.0037761822240285348,-0.29379520101017387
924,0.9128,221.993,684.5,0.00311548,389.754,-1.70058,-2.98891,-0.0593494,0.409221,-0.34813,0.823327,-0.00234708,-0.0037901,0.656597,-0.057622555051754065,1.2780663704399178,-0.0023443277613992564,0.5056444311389601,-0.003782926636444972,-0.2939929106732465
925,0.9138,221.954,684.39,-0.0500449,389.783,-1.72786,-2.99899,-0.0593991,0.40955,-0.34841,0.823992,-0.00235167,-0.00379712,0.65713,-0.05766939004690874,1.2795817883968845,-0.002348906990425559,0.5061398696519714,-0.003789920055753071,-0.294190564985363
926,0.9148,222.004,684.487,0.00219428,389.76,-1.70718,-3.00002,-0.0594489,0.40988,-0.34869,0.824656,-0.00235554,-0.00380391,0.657662,-0.057716316942795,1.2810959333448713,-0.0023527678926845708,0.5066369778272941,-0.003796684299231301,-0.2943881639620194
927,0.9158,221.966,684.38,-0.0497104,389.789,-1.73407,-3.01002,-0.0594986,0.410209,-0.34897,0.82532,-0.00236014,-0.00381096,0.658195,-0.0577631472780995,1.2826110840189675,-0.0023573570593972137,0.5071327429418888,-0.003803707507850196,-0.2945857076187074
928,0.9168,222.015,684.474,0.00127387,389.767,-1.71385,-3.01121,-0.0595483,0.410538,-0.349249,0.825984,-0.00236404,-0.00381777,0.658726,-0.057809975285994186,1.2841272410871971,-0.0023612478581176433,0.5076286711900402,-0.003810491581502262,-0.29478249075375795
929,0.9178,221.977,684.369,-0.0493929,389.795,-1.74024,-3.0211,-0.0595979,0.410867,-0.349528,0.826647,-0.00236864,-0.00382484,0.659258,-0.05785670675227006,1.2856421195747654,-0.0023658369858224892,0.5081247626254279,-0.00381753461642953,-0.29497921899397206
930,0.9188,222.025,684.461,0.000466323,389.774,-1.72057,-3.02243,-0.0596476,0.411196,-0.349807,0.82731,-0.00237256,-0.00383168,0.659789,-0.0579035301103743,1.2871580027597913,-0.002369747704076497,0.5086210173017498,-0.003824348481189399,-0.2951758923546631
931,0.9198,221.989,684.359,-0.0492776,389.801,-1.74645,-3.03227,-0.0596971,0.411524,-0.350086,0.827973,-0.00237717,-0.00383876,0.66032,-0.057950162731467025,1.28867489130861,-0.002374346768938662,0.5091159261560398,-0.0038314013798348423,-0.2953725108511406
932,0.9208,222.036,684.448,-0.000557637,389.781,-1.72736,-3.0337,-0.0597467,0.411853,-0.350365,0.828635,-0.00238111,-0.00384563,0.660851,-0.057996887244618045,1.2901904956963586,-0.002378277406269058,0.5096125069788113,-0.003838245034599397,-0.2955690744987092
933,0.9218,222.001,684.348,-0.048511,389.807,-1.75265,-3.04345,-0.0597962,0.412181,-0.350644,0.829297,-0.00238572,-0.00385273,0.661381,-0.058043515244646904,1.2917071037463868,-0.0023828764318094553,0.5101077410950556,-0.003845317757951383,-0.2957655833126698
934,0.9228,222.047,684.435,-0.0015722,389.788,-1.7342,-3.04507,-0.0598458,0.412509,-0.350922,0.829958,-0.00238969,-0.00385963,0.661911,-0.05809023512762801,1.2932224228997704,-0.002386836963928385,0.5106031376747324,-0.003852191201545452,-0.29596133327000407
935,0.9238,222.013,684.337,-0.048294,389.814,-1.75886,-3.0547,-0.0598952,0.412837,-0.351201,0.83062,-0.00239431,-0.00386675,0.662441,-0.058136764320732226,1.2947410387501166,-0.0023914459260948595,0.5110986967711386,-0.0038592837486945974,-0.296157732659033
936,0.9248,222.058,684.421,-0.00220464,389.795,-1.74106,-3.05644,-0.0599447,0.413165,-0.351479,0.83128,-0.00239829,-0.00387368,0.662971,-0.05818338539701717,1.2962560677402628,-0.002395416400238881,0.5115944184375887,-0.0038661869799385684,-0.29635337361400105
937,0.9258,222.025,684.326,-0.0480531,389.82,-1.76513,-3.06605,-0.0599941,0.413492,-0.351757,0.831942,-0.00240292,-0.00388082,0.6635,-0.05822990998861166,1.2977766925283776,-0.0024000352987681994,0.5120887906378673,-0.00387329934997227,-0.29654896018834287
938,0.9268,222.069,684.408,-0.00336828,389.802,-1.74794,-3.06789,-0.0600435,0.41382,-0.352035,0.832601,-0.00240693,-0.00388777,0.664029,-0.05827643228194812,1.2992914264187525,-0.0024040356666058527,0.5125848371083703,-0.003880222406484113,-0.29674449239717415
939,0.9278,222.038,684.315,-0.0477392,389.826,-1.77143,-3.0774,-0.0600928,0.414147,-0.352313,0.833262,-0.00241156,-0.00389494,0.664558,-0.05832285810943061,1.3008117604666625,-0.0024086545252280933,0.5130795332285123,-0.0038873645596848583,-0.2969399702556065
940,0.9288,222.08,684.394,-0.00435532,389.809,-1.75485,-3.0794,-0.0601422,0.414474,-0.352591,0.833921,-0.00241559,-0.00390191,0.665086,-0.05836937581124335,1.3023284951259897,-0.0024126748102494266,0.5135743911407371,-0.0038943074405579647,-0.2971353937787471
941,0.9298,222.05,684.304,-0.0472647,389.833,-1.77779,-3.08881,-0.0601914,0.4148,-0.352868,0.834581,-0.00242023,-0.0039091,0.665615,-0.05841570289829767,1.3038485334902559,-0.0024173036046994945,0.5140678968293055,-0.003901469414740122,-0.29733006031211084
942,0.9308,222.092,684.38,-0.00543613,389.816,-1.7618,-3.09099,-0.0602407,0.415127,-0.353146,0.835239,-0.00242428,-0.0039161,0.666142,-0.05846212185990807,1.3053649646764391,-0.0024213438064385473,0.514563077989276,-0.003908442080049812,-0.29752537540528823
943,0.9318,222.063,684.293,-0.0469372,389.84,-1.78414,-3.10029,-0.0602899,0.415454,-0.353423,0.835898,-0.00242893,-0.0039233,0.66667,-0.05850844438396907,1.306884700886243,-0.0024259825364048027,0.5150584210999631,-0.00391561391344819,-0.29771993392870144
944,0.9328,222.103,684.366,-0.00620874,389.823,-1.7688,-3.10259,-0.0603392,0.41578,-0.3537,0.836556,-0.00243301,-0.00393033,0.667197,-0.05855485877353683,1.3084031305279926,-0.0024300526300929937,0.5155524106611653,-0.003922616362068809,-0.29791443856686717
945,0.9338,222.075,684.281,-0.0467282,389.846,-1.79052,-3.11185,-0.0603883,0.416106,-0.353977,0.837214,-0.00243765,-0.00393756,0.667725,-0.05860108259516694,1.3099225596252313,-0.0024346813439102277,0.5160465612892169,-0.0039298179755186124,-0.29810888933470947
946,0.9348,222.115,684.352,-0.00727117,389.831,-1.77583,-3.11427,-0.0604375,0.416432,-0.354254,0.837871,-0.00244176,-0.00394462,0.668251,-0.05864739828252796,1.3114406773939846,-0.0024387813289443727,0.5165408730366343,-0.003936850206179954,-0.2983032862471484
947,0.9358,222.088,684.269,-0.0463274,389.853,-1.79695,-3.12344,-0.0604866,0.416758,-0.354531,0.838529,-0.00244641,-0.00395187,0.668778,-0.05869361756057978,1.3129621058547793,-0.0024434199778263777,0.5170353459559509,-0.003944071637838165,-0.29849762931909973
948,0.9368,222.126,684.338,-0.00813628,389.838,-1.78287,-3.12601,-0.0605357,0.417084,-0.354807,0.839185,-0.00245054,-0.00395895,0.669304,-0.05873983456932075,1.3144799067804938,-0.002447539877994176,0.5175299800997173,-0.003951123688846647,-0.2986912172570434
949,0.9378,222.101,684.258,-0.0457468,389.86,-1.8034,-3.13509,-0.0605847,0.417409,-0.355083,0.839842,-0.0024552,-0.00396622,0.66983,-0.058785955187462435,1.3160010197101304,-0.0024521884616272027,0.5180232574964847,-0.0039583649378555075,-0.29888475177208884
950,0.9388,222.138,684.323,-0.00921566,389.846,-1.78998,-3.13782,-0.0606338,0.417734,-0.35536,0.840498,-0.00245935,-0.00397333,0.670356,-0.05883216766253718,1.3175208148173532,-0.002456328276454922,0.5185166952344602,-0.003965446768704806,-0.2990789338003954
951,0.9398,222.114,684.246,-0.0454614,389.867,-1.80988,-3.14679,-0.0606827,0.418059,-0.355636,0.841155,-0.00246401,-0.00398062,0.670882,-0.05887818964429181,1.3190439262800164,-0.002460976819134042,0.5190102933657632,-0.003972707834131284,-0.2992723613204409
952,0.9408,222.15,684.309,-0.00998837,389.853,-1.79711,-3.14966,-0.0607317,0.418384,-0.355912,0.84181,-0.00246819,-0.00398776,0.671407,-0.05892430348320099,1.3205633976242708,-0.0024651465235362435,0.5195040519425296,-0.003979819443608923,-0.2994657354618574
953,0.9418,222.127,684.234,-0.0448669,389.874,-1.8164,-3.15857,-0.0607806,0.418709,-0.356188,0.842466,-0.00247286,-0.00399508,0.671932,-0.05897032095962418,1.3220861866332982,-0.0024698050004244854,0.5199979710169129,-0.003987110284646045,-0.2996590562393754
954,0.9428,222.162,684.294,-0.0111544,389.861,-1.80427,-3.16159,-0.0608296,0.419034,-0.356463,0.84312,-0.00247706,-0.00400224,0.672456,-0.05901643028420955,1.3236053277043398,-0.002473994618445219,0.5204920506410835,-0.003994241711405833,-0.29985162351969497
955,0.9438,222.141,684.222,-0.0444595,389.881,-1.82293,-3.17038,-0.0608784,0.419358,-0.356739,0.843775,-0.00248173,-0.00400958,0.672981,-0.05906234916198194,1.3251277877452186,-0.002478653054012958,0.5209847698816978,-0.004001552366841521,-0.30004483780680535
956,0.9448,222.174,684.279,-0.0121955,389.869,-1.81149,-3.17357,-0.0609273,0.419682,-0.357014,0.844429,-0.00248596,-0.00401677,0.673505,-0.05910835988813645,1.3266489186739996,-0.0024828725603862623,0.5214776487892108,-0.004008713569935485,-0.30023729901177987
957,0.9458,222.154,684.21,-0.0440144,389.888,-1.82951,-3.18227,-0.060976,0.420006,-0.357289,0.845083,-0.00249064,-0.00402413,0.674029,-0.05915418019527641,1.3281710447477857,-0.00248754092961867,0.5219706874153629,-0.004016044038827493,-0.30042970729719987
958,0.9468,222.187,684.264,-0.0132881,389.876,-1.81877,-3.1856,-0.0610249,0.42033,-0.357564,0.845737,-0.00249489,-0.00403135,0.674552,-0.05920018643100322,1.3296941666176134,-0.0024917803485609014,0.522463885811911,-0.004023235017030058,-0.30062206267761604
959,0.9478,222.168,684.198,-0.0437273,389.895,-1.83608,-3.19422,-0.0610736,0.420654,-0.357839,0.84639,-0.00249957,-0.00403873,0.675076,-0.05924600226629939,1.3312159537178276,-0.0024964486761049898,0.5229572440306298,-0.0040305852984330315,-0.3008143651675754
960,0.9488,222.199,684.249,-0.0141955,389.884,-1.82603,-3.19769,-0.0611223,0.420977,-0.358114,0.847043,-0.00250385,-0.00404598,0.675599,-0.05929181587041865,1.3327387348695408,-0.0025007179821683323,0.523449238673309,-0.004037806050514403,-0.30100661478162083
961,0.9498,222.181,684.185,-0.0435403,389.902,-1.84274,-3.20624,-0.061171,0.421301,-0.358389,0.847696,-0.00250854,-0.00405338,0.676122,-0.059337627243469804,1.3342625107220805,-0.0025053962428305265,0.5239429161980795,-0.004045176143480211,-0.3011988115342912
962,0.9508,222.212,684.234,-0.0152767,389.892,-1.8333,-3.20984,-0.0612197,0.421624,-0.358663,0.848348,-0.00251284,-0.00406065,0.676644,-0.05938343638556143,1.3357849461390843,-0.0025096854604048646,0.5244352292642915,-0.004052416708730133,-0.3013902568307274
963,0.9518,222.195,684.173,-0.0430128,389.909,-1.84951,-3.21828,-0.0612683,0.421947,-0.358938,0.849,-0.00251753,-0.00406808,0.677166,-0.059429149239721646,1.3373083745076473,-0.0025143636790095902,0.5249277013733078,-0.004059816571783559,-0.3015823480963393
964,0.9528,222.224,684.219,-0.0164138,389.9,-1.8406,-3.22209,-0.0613169,0.42227,-0.359212,0.849651,-0.00252186,-0.00407538,0.677688,-0.059474859872291286,1.3388304576437577,-0.0025186827824640323,0.5254203325765077,-0.004067086908585815,-0.30177368831815343
965,0.9538,222.209,684.16,-0.0427969,389.917,-1.85621,-3.23041,-0.0613655,0.422592,-0.359486,0.850303,-0.00252656,-0.00408283,0.67821,-0.05952056828337815,1.3403558723332916,-0.0025233709336377474,0.5259115970129271,-0.004074506581149939,-0.3019649761199288
966,0.9548,222.237,684.203,-0.0173381,389.908,-1.84799,-3.23435,-0.061414,0.422915,-0.35976,0.850954,-0.00253091,-0.00409016,0.678731,-0.059566180429712845,1.3418799400363928,-0.002527709947536816,0.5264045460657485,-0.0040818066882618576,-0.30215621151602623
967,0.9558,222.223,684.147,-0.0425867,389.924,-1.86298,-3.24262,-0.0614625,0.423237,-0.360034,0.851605,-0.00253562,-0.00409763,0.679253,-0.059611790363912176,1.3434050002305895,-0.002532408030958999,0.5268961274699402,-0.004089246169379335,-0.30234739452080306
968,0.9568,222.25,684.188,-0.0183815,389.916,-1.85534,-3.24668,-0.061511,0.423559,-0.360307,0.852255,-0.00253999,-0.00410499,0.679774,-0.05965739808608328,1.344928708632323,-0.0025367669548116423,0.5273878671888315,-0.004096576045553579,-0.30253782768678894
969,0.9578,222.237,684.134,-0.0422901,389.932,-1.86981,-3.25488,-0.0615595,0.423881,-0.360581,0.852905,-0.00254471,-0.00411248,0.680294,-0.059703003596333626,1.3464534077664703,-0.002541474970160662,0.5278797652734077,-0.004104035334263956,-0.3027289061430588
970,0.9588,222.263,684.172,-0.0195546,389.924,-1.86276,-3.25908,-0.0616079,0.424203,-0.360854,0.853555,-0.0025491,-0.00411988,0.680815,-0.059748512869626236,1.3479790982772175,-0.002545853803474052,0.5283718217746709,-0.00411140493713491,-0.3029192351705874
971,0.9598,222.251,684.121,-0.0417576,389.939,-1.87669,-3.26718,-0.0616563,0.424525,-0.361128,0.854204,-0.00255383,-0.00412739,0.681335,-0.059794019940323295,1.3495034313045626,-0.0025505717504276104,0.5288640367436395,-0.004118884032399794,-0.30311020913552267
972,0.9608,222.277,684.156,-0.0201774,389.933,-1.87019,-3.27155,-0.0617047,0.424846,-0.361401,0.854853,-0.00255825,-0.00413481,0.681854,-0.0598395248085315,1.3510287539451369,-0.0025549804671571863,0.5293548808757027,-0.004126273442865536,-0.30330043408154206
973,0.9618,222.265,684.107,-0.0418011,389.947,-1.88359,-3.27958,-0.061753,0.425167,-0.361674,0.855502,-0.00256298,-0.00414234,0.682374,-0.059884933462855505,1.3525550668414086,-0.002559698370941721,0.5298458825940235,-0.004133772343793085,-0.3034906071032393
974,0.9628,222.29,684.141,-0.0209768,389.941,-1.87765,-3.28405,-0.0618013,0.425489,-0.361947,0.85615,-0.00256742,-0.00414979,0.682893,-0.059930339923994325,1.3540800165550682,-0.002564126996049354,0.5303385722870022,-0.004141191519552612,-0.30368072821478753
975,0.9638,222.28,684.093,-0.041468,389.955,-1.89056,-3.29205,-0.0618495,0.425809,-0.362219,0.856798,-0.00257216,-0.00415735,0.683412,-0.05997565018962381,1.3556059547563772,-0.0025688548308824277,0.5308283589918275,-0.004148720183686394,-0.30387010130080594
976,0.9648,222.304,684.125,-0.0219213,389.949,-1.88508,-3.29664,-0.0618978,0.42613,-0.362492,0.857446,-0.00257663,-0.00416483,0.683931,-0.060021052269250585,1.3571328820860842,-0.002573313338136596,0.531319833772546,-0.004156169123400333,-0.3040601188245786
977,0.9658,222.294,684.08,-0.0412737,389.963,-1.89764,-3.30454,-0.061946,0.426451,-0.362764,0.858094,-0.00258138,-0.00417241,0.68445,-0.06006635816265049,1.3586607991853512,-0.002578051103646062,0.5318114663419928,-0.004163717591029625,-0.3042493887303842
978,0.9668,222.317,684.109,-0.0226656,389.958,-1.8926,-3.30929,-0.0619942,0.426771,-0.363036,0.858741,-0.00258587,-0.00417992,0.684968,-0.060111661872358835,1.3601873465072303,-0.002582529518142529,0.5323017244483357,-0.004171196293427992,-0.3044386071617763
979,0.9678,222.309,684.065,-0.0411855,389.971,-1.90464,-3.31714,-0.0620423,0.427092,-0.363309,0.859388,-0.00259062,-0.00418753,0.685486,-0.06015686941417264,1.3617148818248093,-0.002587267239875235,0.5327936722552824,-0.004178774521788942,-0.3046284695046322
980,0.9688,222.331,684.093,-0.0234845,389.966,-1.90014,-3.32197,-0.0620905,0.427412,-0.36358,0.860034,-0.00259514,-0.00419506,0.686004,-0.06020216876134388,1.3632410425353032,-0.002591775535238483,0.5332842447178119,-0.004186273027384946,-0.3048168896573126
981,0.9698,222.324,684.051,-0.0412751,389.979,-1.91172,-3.32982,-0.0621385,0.427732,-0.363852,0.86068,-0.0025999,-0.0042027,0.686521,-0.06024727797461349,1.3647681894641304,-0.002596523187087585,0.5337749741886493,-0.004193881015196466,-0.3050059537494436
982,0.9708,222.345,684.076,-0.0245452,389.975,-1.90775,-3.33471,-0.0621866,0.428051,-0.364124,0.861326,-0.00260444,-0.00421026,0.687038,-0.060292478993449694,1.3662963232485938,-0.002601051388593234,0.5342643264529519,-0.004201409280999102,-0.3051949664231348
983,0.9718,222.339,684.037,-0.0409603,389.987,-1.91886,-3.34253,-0.0622346,0.428371,-0.364396,0.861972,-0.00260921,-0.00421791,0.687555,-0.06033758387193233,1.367825444526408,-0.002605808970231327,0.5347553696001301,-0.004209027111079844,-0.3053839276923701
984,0.9728,222.359,684.06,-0.0252798,389.984,-1.91532,-3.34757,-0.0622826,0.42869,-0.364667,0.862617,-0.00261377,-0.00422551,0.688072,-0.060382686585432666,1.3693531845813305,-0.0026103570773726714,0.5352450346604574,-0.004216595093715414,-0.3055721431436199
985,0.9738,222.354,684.022,-0.0407752,389.995,-1.92605,-3.3553,-0.0623306,0.42901,-0.364938,0.863262,-0.00261856,-0.00423319,0.688588,-0.06042778713405472,1.3708819103464456,-0.0026151345623202094,0.5357363916844797,-0.004224242680898382,-0.3057603075953932
986,0.9748,222.374,684.044,-0.0258716,389.992,-1.92293,-3.36046,-0.0623785,0.429329,-0.365209,0.863906,-0.00262314,-0.00424081,0.689105,-0.06047279156518626,1.3724092500473053,-0.002619702574543137,0.5362263697407719,-0.004231830463259589,-0.3059484210615089
987,0.9758,222.369,684.008,-0.0405057,390.004,-1.93336,-3.36815,-0.0624264,0.429648,-0.365481,0.864551,-0.00262793,-0.00424851,0.68962,-0.06051779384065725,1.3739399476104825,-0.0026244800147258163,0.536716504124997,-0.004239497848645635,-0.30613717741895186
988,0.9768,222.388,684.027,-0.0266142,390.001,-1.93057,-3.37342,-0.0624743,0.429966,-0.365751,0.865194,-0.00263254,-0.00425617,0.690136,-0.06056279396057074,1.3754668818535465,-0.0026290779052748903,0.5372052576810056,-0.004247125344878699,-0.30632449509202486
989,0.9778,222.384,683.993,-0.0405521,390.012,-1.94055,-3.38109,-0.0625221,0.430285,-0.366022,0.865838,-0.00263734,-0.0042639,0.690651,-0.060607697985804676,1.3769971752270371,-0.002633865274211167,0.5376957043802952,-0.004254822484850318,-0.3065124556840444
990,0.9788,222.403,684.01,-0.0277757,390.01,-1.93835,-3.38644,-0.06257,0.430603,-0.366293,0.866481,-0.00264197,-0.00427158,0.691167,-0.06065269379941285,1.3785260758995976,-0.0026384830687248284,0.5381847693715005,-0.004262469778448019,-0.3067003653456448
991,0.9798,222.399,683.977,-0.040862,390.02,-1.94785,-3.39405,-0.0626177,0.430922,-0.366563,0.867124,-0.00264678,-0.00427933,0.691681,-0.06069749959729187,1.3800559599714193,-0.0026432803660837445,0.5386755285848628,-0.004270186714404045,-0.3068875309785041
992,0.9808,222.417,683.994,-0.0286316,390.019,-1.94602,-3.39953,-0.0626655,0.43124,-0.366833,0.867767,-0.00265143,-0.00428704,0.692196,-0.060742397183750185,1.3815868280750316,-0.0026479180640474054,0.5391649052097123,-0.004277863761669387,-0.307074646083464
993,0.9818,222.415,683.963,-0.0405158,390.029,-1.95525,-3.40712,-0.0627132,0.431558,-0.367104,0.868409,-0.00265626,-0.00429482,0.69271,-0.06078719870287985,1.383116297725881,-0.0026527352629696077,0.5396544374810748,-0.004285610449754729,-0.3072624034121082
994,0.9828,222.433,683.977,-0.0287364,390.028,-1.95378,-3.4127,-0.0627609,0.431875,-0.367374,0.869051,-0.00266093,-0.00430256,0.693224,-0.06083199808502793,1.3846467496115098,-0.0026573928638203848,0.5401425853050985,-0.004293317249304485,-0.30744941731517395
995,0.9838,222.431,683.947,-0.0401767,390.038,-1.96267,-3.42026,-0.0628086,0.432193,-0.367644,0.869693,-0.00266577,-0.00431037,0.693738,-0.06087679533029655,1.3861781843627154,-0.0026622199903572064,0.5406324285281701,-0.004301093688129698,-0.30763638073130184
996,0.9848,222.447,683.959,-0.0305266,390.037,-1.96156,-3.42594,-0.0628562,0.43251,-0.367913,0.870334,-0.00267046,-0.00431813,0.694252,-0.06092149653094181,1.3877082149012914,-0.0026668974935767364,0.5411208864244998,-0.004308820281663461,-0.3078226014970692
997,0.9858,222.447,683.932,-0.0399215,390.046,-1.97008,-3.43335,-0.0629038,0.432827,-0.368183,0.870976,-0.00267531,-0.00432596,0.694765,-0.06096619560386052,1.3892416157442606,-0.002671734547394,0.5416094991865275,-0.004316616513078353,-0.3080094641670693
998,0.9868,222.463,683.943,-0.0306976,390.046,-1.96944,-3.43928,-0.0629514,0.433145,-0.368452,0.871616,-0.00268003,-0.00433376,0.695278,-0.06101089254915404,1.390771219799424,-0.0026764419256976035,0.5420998089623912,-0.004324382813181038,-0.30819558458688967
999,0.9878,222.462,683.915,-0.040549,390.055,-1.9776,-3.44667,-0.0629989,0.433461,-0.368722,0.872257,-0.00268489,-0.00434162,0.695791,-0.06105549347247763,1.3923041954175117,-0.0026812889064116163,0.5425871895040932,-0.00433220879277596,-0.3083823465650496
